    1C
    1UUSER                                                              
    1UDATE              15.may.2021                                     
    1UTIME              14:51:35                                        
    1UHOST                                                              
    1UPGM               CalculiX                                        
    1UVERSION           Version 2.17                             
    1UCOMPILETIME       Thu Jul 23 21:43:50 CEST 2020                    
    1UDIR                                                               
    1UDBN                                                               
    1UMAT    1STEEL                                                     
    1UMAT    2CONTACT                                                   
    2C                          2360                                     1
 -1         1 0.00000E+00 0.00000E+00 0.00000E+00
 -1         2 1.00000E+01 1.00000E+01 0.00000E+00
 -1         3 2.49974E-01 3.12484E-03 0.00000E+00
 -1         4 5.21990E-01 1.36330E-02 0.00000E+00
 -1         5 8.22294E-01 3.38657E-02 0.00000E+00
 -1         6 1.15150E+00 6.65190E-02 0.00000E+00
 -1         7 1.51185E+00 1.14945E-01 0.00000E+00
 -1         8 1.90554E+00 1.83233E-01 0.00000E+00
 -1         9 2.33462E+00 2.76340E-01 0.00000E+00
 -1        10 2.80084E+00 4.00246E-01 0.00000E+00
 -1        11 3.30549E+00 5.62111E-01 0.00000E+00
 -1        12 3.84908E+00 7.70449E-01 0.00000E+00
 -1        13 4.43101E+00 1.03528E+00 0.00000E+00
 -1        14 5.04911E+00 1.36828E+00 0.00000E+00
 -1        15 5.69898E+00 1.78284E+00 0.00000E+00
 -1        16 6.37324E+00 2.29404E+00 0.00000E+00
 -1        17 7.06057E+00 2.91845E+00 0.00000E+00
 -1        18 7.74449E+00 3.67364E+00 0.00000E+00
 -1        19 8.40204E+00 4.57730E+00 0.00000E+00
 -1        20 9.00225E+00 5.64575E+00 0.00000E+00
 -1        21 9.50464E+00 6.89165E+00 0.00000E+00
 -1        22 9.85890E+00 8.32604E+00 0.00000E+00
 -1        23 9.75000E+00 1.00000E+01 0.00000E+00
 -1        24 9.47797E+00 1.00000E+01 0.00000E+00
 -1        25 9.17708E+00 1.00000E+01 0.00000E+00
 -1        26 8.84637E+00 1.00000E+01 0.00000E+00
 -1        27 8.48293E+00 1.00000E+01 0.00000E+00
 -1        28 8.08355E+00 1.00000E+01 0.00000E+00
 -1        29 7.64472E+00 1.00000E+01 0.00000E+00
 -1        30 7.16259E+00 1.00000E+01 0.00000E+00
 -1        31 6.63297E+00 1.00000E+01 0.00000E+00
 -1        32 6.05126E+00 1.00000E+01 0.00000E+00
 -1        33 5.41241E+00 1.00000E+01 0.00000E+00
 -1        34 4.71095E+00 1.00000E+01 0.00000E+00
 -1        35 3.94088E+00 1.00000E+01 0.00000E+00
 -1        36 3.09565E+00 1.00000E+01 0.00000E+00
 -1        37 2.16814E+00 1.00000E+01 0.00000E+00
 -1        38 1.14874E+00 1.00000E+01 0.00000E+00
 -1        39 0.00000E+00 1.00000E+01 0.00000E+00
 -1        40 0.00000E+00 2.50000E-01 0.00000E+00
 -1        41 0.00000E+00 5.22033E-01 0.00000E+00
 -1        42 0.00000E+00 8.22923E-01 0.00000E+00
 -1        43 0.00000E+00 1.15363E+00 0.00000E+00
 -1        44 0.00000E+00 1.51707E+00 0.00000E+00
 -1        45 0.00000E+00 1.91645E+00 0.00000E+00
 -1        46 0.00000E+00 2.35528E+00 0.00000E+00
 -1        47 0.00000E+00 2.83741E+00 0.00000E+00
 -1        48 0.00000E+00 3.36703E+00 0.00000E+00
 -1        49 0.00000E+00 3.94875E+00 0.00000E+00
 -1        50 0.00000E+00 4.58759E+00 0.00000E+00
 -1        51 0.00000E+00 5.28905E+00 0.00000E+00
 -1        52 0.00000E+00 6.05912E+00 0.00000E+00
 -1        53 0.00000E+00 6.90435E+00 0.00000E+00
 -1        54 0.00000E+00 7.83186E+00 0.00000E+00
 -1        55 0.00000E+00 8.85126E+00 0.00000E+00
 -1        56 2.43725E-01 2.53047E-01 0.00000E+00
 -1        57 2.36924E-01 5.24994E-01 0.00000E+00
 -1        58 2.29403E-01 8.25791E-01 0.00000E+00
 -1        59 2.21136E-01 1.15639E+00 0.00000E+00
 -1        60 2.12051E-01 1.51972E+00 0.00000E+00
 -1        61 2.02068E-01 1.91898E+00 0.00000E+00
 -1        62 1.91098E-01 2.35767E+00 0.00000E+00
 -1        63 1.79046E-01 2.83964E+00 0.00000E+00
 -1        64 1.65807E-01 3.36910E+00 0.00000E+00
 -1        65 1.51266E-01 3.95064E+00 0.00000E+00
 -1        66 1.35296E-01 4.58928E+00 0.00000E+00
 -1        67 1.17761E-01 5.29052E+00 0.00000E+00
 -1        68 9.85116E-02 6.06036E+00 0.00000E+00
 -1        69 7.73831E-02 6.90532E+00 0.00000E+00
 -1        70 5.41979E-02 7.83254E+00 0.00000E+00
 -1        71 2.87156E-02 8.85162E+00 0.00000E+00
 -1        72 5.08940E-01 2.63292E-01 0.00000E+00
 -1        73 4.94740E-01 5.34954E-01 0.00000E+00
 -1        74 4.79034E-01 8.35434E-01 0.00000E+00
 -1        75 4.61772E-01 1.16569E+00 0.00000E+00
 -1        76 4.42800E-01 1.52863E+00 0.00000E+00
 -1        77 4.21953E-01 1.92747E+00 0.00000E+00
 -1        78 3.99046E-01 2.36570E+00 0.00000E+00
 -1        79 3.73880E-01 2.84717E+00 0.00000E+00
 -1        80 3.46234E-01 3.37607E+00 0.00000E+00
 -1        81 3.15869E-01 3.95699E+00 0.00000E+00
 -1        82 2.82522E-01 4.59497E+00 0.00000E+00
 -1        83 2.45907E-01 5.29547E+00 0.00000E+00
 -1        84 2.05710E-01 6.06450E+00 0.00000E+00
 -1        85 1.61590E-01 6.90857E+00 0.00000E+00
 -1        86 1.13175E-01 7.83482E+00 0.00000E+00
 -1        87 5.99632E-02 8.85282E+00 0.00000E+00
 -1        88 8.01736E-01 2.83019E-01 0.00000E+00
 -1        89 7.79367E-01 5.54130E-01 0.00000E+00
 -1        90 7.54625E-01 8.54002E-01 0.00000E+00
 -1        91 7.27432E-01 1.18359E+00 0.00000E+00
 -1        92 6.97546E-01 1.54580E+00 0.00000E+00
 -1        93 6.64705E-01 1.94383E+00 0.00000E+00
 -1        94 6.28620E-01 2.38117E+00 0.00000E+00
 -1        95 5.88976E-01 2.86166E+00 0.00000E+00
 -1        96 5.45425E-01 3.38949E+00 0.00000E+00
 -1        97 4.97591E-01 3.96924E+00 0.00000E+00
 -1        98 4.45059E-01 4.60592E+00 0.00000E+00
 -1        99 3.87378E-01 5.30500E+00 0.00000E+00
 -1       100 3.24056E-01 6.07247E+00 0.00000E+00
 -1       101 2.54553E-01 6.91484E+00 0.00000E+00
 -1       102 1.78285E-01 7.83920E+00 0.00000E+00
 -1       103 9.44604E-02 8.85515E+00 0.00000E+00
 -1       104 1.12271E+00 3.14856E-01 0.00000E+00
 -1       105 1.09139E+00 5.85079E-01 0.00000E+00
 -1       106 1.05674E+00 8.83968E-01 0.00000E+00
 -1       107 1.01866E+00 1.21247E+00 0.00000E+00
 -1       108 9.76811E-01 1.57350E+00 0.00000E+00
 -1       109 9.30822E-01 1.97022E+00 0.00000E+00
 -1       110 8.80290E-01 2.40613E+00 0.00000E+00
 -1       111 8.24774E-01 2.88505E+00 0.00000E+00
 -1       112 7.63788E-01 3.41115E+00 0.00000E+00
 -1       113 6.96803E-01 3.98900E+00 0.00000E+00
 -1       114 6.23240E-01 4.62359E+00 0.00000E+00
 -1       115 5.42467E-01 5.32039E+00 0.00000E+00
 -1       116 4.53792E-01 6.08534E+00 0.00000E+00
 -1       117 3.56464E-01 6.92494E+00 0.00000E+00
 -1       118 2.49662E-01 7.84628E+00 0.00000E+00
 -1       119 1.32278E-01 8.85890E+00 0.00000E+00
 -1       120 1.47406E+00 3.62072E-01 0.00000E+00
 -1       121 1.43293E+00 6.30978E-01 0.00000E+00
 -1       122 1.38744E+00 9.28410E-01 0.00000E+00
 -1       123 1.33744E+00 1.25531E+00 0.00000E+00
 -1       124 1.28249E+00 1.61458E+00 0.00000E+00
 -1       125 1.22211E+00 2.00937E+00 0.00000E+00
 -1       126 1.15577E+00 2.44315E+00 0.00000E+00
 -1       127 1.08288E+00 2.91974E+00 0.00000E+00
 -1       128 1.00281E+00 3.44327E+00 0.00000E+00
 -1       129 9.14860E-01 4.01830E+00 0.00000E+00
 -1       130 8.18277E-01 4.64980E+00 0.00000E+00
 -1       131 7.12226E-01 5.34320E+00 0.00000E+00
 -1       132 5.95802E-01 6.10442E+00 0.00000E+00
 -1       133 4.68016E-01 6.93994E+00 0.00000E+00
 -1       134 3.27791E-01 7.85678E+00 0.00000E+00
 -1       135 1.73673E-01 8.86446E+00 0.00000E+00
 -1       136 1.85790E+00 4.28652E-01 0.00000E+00
 -1       137 1.80607E+00 6.95700E-01 0.00000E+00
 -1       138 1.74873E+00 9.91078E-01 0.00000E+00
 -1       139 1.68571E+00 1.31572E+00 0.00000E+00
 -1       140 1.61646E+00 1.67250E+00 0.00000E+00
 -1       141 1.54035E+00 2.06457E+00 0.00000E+00
 -1       142 1.45673E+00 2.49536E+00 0.00000E+00
 -1       143 1.36486E+00 2.96865E+00 0.00000E+00
 -1       144 1.26394E+00 3.48856E+00 0.00000E+00
 -1       145 1.15309E+00 4.05962E+00 0.00000E+00
 -1       146 1.03136E+00 4.68676E+00 0.00000E+00
 -1       147 8.97691E-01 5.37537E+00 0.00000E+00
 -1       148 7.50950E-01 6.13133E+00 0.00000E+00
 -1       149 5.89888E-01 6.96107E+00 0.00000E+00
 -1       150 4.13148E-01 7.87159E+00 0.00000E+00
 -1       151 2.18898E-01 8.87231E+00 0.00000E+00
 -1       152 2.27625E+00 5.19432E-01 0.00000E+00
 -1       153 2.21274E+00 7.83947E-01 0.00000E+00
 -1       154 2.14250E+00 1.07652E+00 0.00000E+00
 -1       155 2.06529E+00 1.39809E+00 0.00000E+00
 -1       156 1.98044E+00 1.75149E+00 0.00000E+00
 -1       157 1.88720E+00 2.13983E+00 0.00000E+00
 -1       158 1.78475E+00 2.56654E+00 0.00000E+00
 -1       159 1.67219E+00 3.03534E+00 0.00000E+00
 -1       160 1.54855E+00 3.55032E+00 0.00000E+00
 -1       161 1.41274E+00 4.11597E+00 0.00000E+00
 -1       162 1.26359E+00 4.73715E+00 0.00000E+00
 -1       163 1.09983E+00 5.41923E+00 0.00000E+00
 -1       164 9.20044E-01 6.16803E+00 0.00000E+00
 -1       165 7.22715E-01 6.98990E+00 0.00000E+00
 -1       166 5.06178E-01 7.89177E+00 0.00000E+00
 -1       167 2.68188E-01 8.88300E+00 0.00000E+00
 -1       168 2.73082E+00 6.40239E-01 0.00000E+00
 -1       169 2.65463E+00 9.01384E-01 0.00000E+00
 -1       170 2.57035E+00 1.19023E+00 0.00000E+00
 -1       171 2.47773E+00 1.50770E+00 0.00000E+00
 -1       172 2.37594E+00 1.85659E+00 0.00000E+00
 -1       173 2.26407E+00 2.23999E+00 0.00000E+00
 -1       174 2.14116E+00 2.66126E+00 0.00000E+00
 -1       175 2.00613E+00 3.12409E+00 0.00000E+00
 -1       176 1.85779E+00 3.63251E+00 0.00000E+00
 -1       177 1.69486E+00 4.19094E+00 0.00000E+00
 -1       178 1.51593E+00 4.80422E+00 0.00000E+00
 -1       179 1.31946E+00 5.47760E+00 0.00000E+00
 -1       180 1.10378E+00 6.21686E+00 0.00000E+00
 -1       181 8.67042E-01 7.02825E+00 0.00000E+00
 -1       182 6.07262E-01 7.91864E+00 0.00000E+00
 -1       183 3.21745E-01 8.89723E+00 0.00000E+00
 -1       184 3.22285E+00 7.98058E-01 0.00000E+00
 -1       185 3.13293E+00 1.05480E+00 0.00000E+00
 -1       186 3.03347E+00 1.33878E+00 0.00000E+00
 -1       187 2.92416E+00 1.65089E+00 0.00000E+00
 -1       188 2.80402E+00 1.99390E+00 0.00000E+00
 -1       189 2.67201E+00 2.37084E+00 0.00000E+00
 -1       190 2.52695E+00 2.78500E+00 0.00000E+00
 -1       191 2.36759E+00 3.24002E+00 0.00000E+00
 -1       192 2.19252E+00 3.73987E+00 0.00000E+00
 -1       193 2.00024E+00 4.28889E+00 0.00000E+00
 -1       194 1.78907E+00 4.89183E+00 0.00000E+00
 -1       195 1.55720E+00 5.55386E+00 0.00000E+00
 -1       196 1.30265E+00 6.28065E+00 0.00000E+00
 -1       197 1.02326E+00 7.07836E+00 0.00000E+00
 -1       198 7.16676E-01 7.95373E+00 0.00000E+00
 -1       199 3.79716E-01 8.91583E+00 0.00000E+00
 -1       200 3.75285E+00 1.00119E+00 0.00000E+00
 -1       201 3.64814E+00 1.25226E+00 0.00000E+00
 -1       202 3.53233E+00 1.52997E+00 0.00000E+00
 -1       203 3.40504E+00 1.83520E+00 0.00000E+00
 -1       204 3.26515E+00 2.17064E+00 0.00000E+00
 -1       205 3.11142E+00 2.53925E+00 0.00000E+00
 -1       206 2.94251E+00 2.94427E+00 0.00000E+00
 -1       207 2.75694E+00 3.38925E+00 0.00000E+00
 -1       208 2.55308E+00 3.87806E+00 0.00000E+00
 -1       209 2.32917E+00 4.41496E+00 0.00000E+00
 -1       210 2.08328E+00 5.00459E+00 0.00000E+00
 -1       211 1.81328E+00 5.65200E+00 0.00000E+00
 -1       212 1.51687E+00 6.36275E+00 0.00000E+00
 -1       213 1.19154E+00 7.14286E+00 0.00000E+00
 -1       214 8.34534E-01 7.99890E+00 0.00000E+00
 -1       215 4.42160E-01 8.93976E+00 0.00000E+00
 -1       216 4.32024E+00 1.25940E+00 0.00000E+00
 -1       217 4.19970E+00 1.50327E+00 0.00000E+00
 -1       218 4.06637E+00 1.77301E+00 0.00000E+00
 -1       219 3.91984E+00 2.06948E+00 0.00000E+00
 -1       220 3.75880E+00 2.39529E+00 0.00000E+00
 -1       221 3.58183E+00 2.75333E+00 0.00000E+00
 -1       222 3.38738E+00 3.14673E+00 0.00000E+00
 -1       223 3.17375E+00 3.57894E+00 0.00000E+00
 -1       224 2.93908E+00 4.05373E+00 0.00000E+00
 -1       225 2.68132E+00 4.57522E+00 0.00000E+00
 -1       226 2.39825E+00 5.14793E+00 0.00000E+00
 -1       227 2.08743E+00 5.77677E+00 0.00000E+00
 -1       228 1.74621E+00 6.46712E+00 0.00000E+00
 -1       229 1.37168E+00 7.22484E+00 0.00000E+00
 -1       230 9.60705E-01 8.05632E+00 0.00000E+00
 -1       231 5.09009E-01 8.97018E+00 0.00000E+00
 -1       232 4.92288E+00 1.58408E+00 0.00000E+00
 -1       233 4.78553E+00 1.81889E+00 0.00000E+00
 -1       234 4.63360E+00 2.07861E+00 0.00000E+00
 -1       235 4.46663E+00 2.36406E+00 0.00000E+00
 -1       236 4.28312E+00 2.67777E+00 0.00000E+00
 -1       237 4.08147E+00 3.02251E+00 0.00000E+00
 -1       238 3.85990E+00 3.40130E+00 0.00000E+00
 -1       239 3.61647E+00 3.81745E+00 0.00000E+00
 -1       240 3.34906E+00 4.27461E+00 0.00000E+00
 -1       241 3.05534E+00 4.77673E+00 0.00000E+00
 -1       242 2.73278E+00 5.32816E+00 0.00000E+00
 -1       243 2.37861E+00 5.93364E+00 0.00000E+00
 -1       244 1.98979E+00 6.59835E+00 0.00000E+00
 -1       245 1.56303E+00 7.32793E+00 0.00000E+00
 -1       246 1.09472E+00 8.12852E+00 0.00000E+00
 -1       247 5.80013E-01 9.00844E+00 0.00000E+00
 -1       248 5.55650E+00 1.98827E+00 0.00000E+00
 -1       249 5.40147E+00 2.21180E+00 0.00000E+00
 -1       250 5.22999E+00 2.45905E+00 0.00000E+00
 -1       251 5.04153E+00 2.73080E+00 0.00000E+00
 -1       252 4.83440E+00 3.02944E+00 0.00000E+00
 -1       253 4.60680E+00 3.35762E+00 0.00000E+00
 -1       254 4.35671E+00 3.71821E+00 0.00000E+00
 -1       255 4.08194E+00 4.11438E+00 0.00000E+00
 -1       256 3.78012E+00 4.54958E+00 0.00000E+00
 -1       257 3.44860E+00 5.02759E+00 0.00000E+00
 -1       258 3.08452E+00 5.55254E+00 0.00000E+00
 -1       259 2.68476E+00 6.12894E+00 0.00000E+00
 -1       260 2.24590E+00 6.76172E+00 0.00000E+00
 -1       261 1.76420E+00 7.45626E+00 0.00000E+00
 -1       262 1.23562E+00 8.21840E+00 0.00000E+00
 -1       263 6.54666E-01 9.05606E+00 0.00000E+00
 -1       264 6.21391E+00 2.48669E+00 0.00000E+00
 -1       265 6.04054E+00 2.69632E+00 0.00000E+00
 -1       266 5.84877E+00 2.92818E+00 0.00000E+00
 -1       267 5.63801E+00 3.18302E+00 0.00000E+00
 -1       268 5.40638E+00 3.46309E+00 0.00000E+00
 -1       269 5.15184E+00 3.77085E+00 0.00000E+00
 -1       270 4.87216E+00 4.10901E+00 0.00000E+00
 -1       271 4.56489E+00 4.48053E+00 0.00000E+00
 -1       272 4.22735E+00 4.88866E+00 0.00000E+00
 -1       273 3.85661E+00 5.33693E+00 0.00000E+00
 -1       274 3.44946E+00 5.82922E+00 0.00000E+00
 -1       275 3.00240E+00 6.36976E+00 0.00000E+00
 -1       276 2.51162E+00 6.96318E+00 0.00000E+00
 -1       277 1.97293E+00 7.61451E+00 0.00000E+00
 -1       278 1.38181E+00 8.32924E+00 0.00000E+00
 -1       279 7.32122E-01 9.11478E+00 0.00000E+00
 -1       280 6.88406E+00 3.09549E+00 0.00000E+00
 -1       281 6.69199E+00 3.28813E+00 0.00000E+00
 -1       282 6.47954E+00 3.50121E+00 0.00000E+00
 -1       283 6.24604E+00 3.73540E+00 0.00000E+00
 -1       284 5.98943E+00 3.99277E+00 0.00000E+00
 -1       285 5.70745E+00 4.27559E+00 0.00000E+00
 -1       286 5.39761E+00 4.58636E+00 0.00000E+00
 -1       287 5.05720E+00 4.92777E+00 0.00000E+00
 -1       288 4.68326E+00 5.30283E+00 0.00000E+00
 -1       289 4.27253E+00 5.71477E+00 0.00000E+00
 -1       290 3.82147E+00 6.16717E+00 0.00000E+00
 -1       291 3.32620E+00 6.66392E+00 0.00000E+00
 -1       292 2.78248E+00 7.20925E+00 0.00000E+00
 -1       293 2.18570E+00 7.80780E+00 0.00000E+00
 -1       294 1.53083E+00 8.46462E+00 0.00000E+00
 -1       295 8.11078E-01 9.18651E+00 0.00000E+00
 -1       296 7.55088E+00 3.83180E+00 0.00000E+00
 -1       297 7.34021E+00 4.00390E+00 0.00000E+00
 -1       298 7.10718E+00 4.19425E+00 0.00000E+00
 -1       299 6.85107E+00 4.40347E+00 0.00000E+00
 -1       300 6.56960E+00 4.63339E+00 0.00000E+00
 -1       301 6.26030E+00 4.88606E+00 0.00000E+00
 -1       302 5.92045E+00 5.16368E+00 0.00000E+00
 -1       303 5.54707E+00 5.46869E+00 0.00000E+00
 -1       304 5.13690E+00 5.80374E+00 0.00000E+00
 -1       305 4.68639E+00 6.17176E+00 0.00000E+00
 -1       306 4.19164E+00 6.57591E+00 0.00000E+00
 -1       307 3.64839E+00 7.01968E+00 0.00000E+00
 -1       308 3.05201E+00 7.50686E+00 0.00000E+00
 -1       309 2.39742E+00 8.04158E+00 0.00000E+00
 -1       310 1.67912E+00 8.62836E+00 0.00000E+00
 -1       311 8.89644E-01 9.27326E+00 0.00000E+00
 -1       312 8.19199E+00 4.71287E+00 0.00000E+00
 -1       313 7.96343E+00 4.86038E+00 0.00000E+00
 -1       314 7.71062E+00 5.02355E+00 0.00000E+00
 -1       315 7.43276E+00 5.20288E+00 0.00000E+00
 -1       316 7.12740E+00 5.39996E+00 0.00000E+00
 -1       317 6.79183E+00 5.61654E+00 0.00000E+00
 -1       318 6.42313E+00 5.85450E+00 0.00000E+00
 -1       319 6.01804E+00 6.11594E+00 0.00000E+00
 -1       320 5.57305E+00 6.40314E+00 0.00000E+00
 -1       321 5.08429E+00 6.71859E+00 0.00000E+00
 -1       322 4.54753E+00 7.06501E+00 0.00000E+00
 -1       323 3.95816E+00 7.44539E+00 0.00000E+00
 -1       324 3.31114E+00 7.86298E+00 0.00000E+00
 -1       325 2.60098E+00 8.32132E+00 0.00000E+00
 -1       326 1.82168E+00 8.82428E+00 0.00000E+00
 -1       327 9.65179E-01 9.37707E+00 0.00000E+00
 -1       328 8.77719E+00 5.75460E+00 0.00000E+00
 -1       329 8.53230E+00 5.87305E+00 0.00000E+00
 -1       330 8.26143E+00 6.00407E+00 0.00000E+00
 -1       331 7.96373E+00 6.14807E+00 0.00000E+00
 -1       332 7.63655E+00 6.30632E+00 0.00000E+00
 -1       333 7.27701E+00 6.48022E+00 0.00000E+00
 -1       334 6.88197E+00 6.67130E+00 0.00000E+00
 -1       335 6.44795E+00 6.88123E+00 0.00000E+00
 -1       336 5.97117E+00 7.11184E+00 0.00000E+00
 -1       337 5.44749E+00 7.36513E+00 0.00000E+00
 -1       338 4.87239E+00 7.64330E+00 0.00000E+00
 -1       339 4.24091E+00 7.94873E+00 0.00000E+00
 -1       340 3.54767E+00 8.28404E+00 0.00000E+00
 -1       341 2.78678E+00 8.65208E+00 0.00000E+00
 -1       342 1.95181E+00 9.05594E+00 0.00000E+00
 -1       343 1.03413E+00 9.49981E+00 0.00000E+00
 -1       344 9.26702E+00 6.96936E+00 0.00000E+00
 -1       345 9.00846E+00 7.05391E+00 0.00000E+00
 -1       346 8.72248E+00 7.14744E+00 0.00000E+00
 -1       347 8.40816E+00 7.25024E+00 0.00000E+00
 -1       348 8.06272E+00 7.36321E+00 0.00000E+00
 -1       349 7.68312E+00 7.48735E+00 0.00000E+00
 -1       350 7.26603E+00 7.62375E+00 0.00000E+00
 -1       351 6.80779E+00 7.77361E+00 0.00000E+00
 -1       352 6.30440E+00 7.93824E+00 0.00000E+00
 -1       353 5.75150E+00 8.11906E+00 0.00000E+00
 -1       354 5.14430E+00 8.31763E+00 0.00000E+00
 -1       355 4.47759E+00 8.53567E+00 0.00000E+00
 -1       356 3.74566E+00 8.77504E+00 0.00000E+00
 -1       357 2.94230E+00 9.03776E+00 0.00000E+00
 -1       358 2.06074E+00 9.32607E+00 0.00000E+00
 -1       359 1.09184E+00 9.64293E+00 0.00000E+00
 -1       360 9.61243E+00 8.36789E+00 0.00000E+00
 -1       361 9.34423E+00 8.41343E+00 0.00000E+00
 -1       362 9.04759E+00 8.46380E+00 0.00000E+00
 -1       363 8.72155E+00 8.51916E+00 0.00000E+00
 -1       364 8.36324E+00 8.57999E+00 0.00000E+00
 -1       365 7.96949E+00 8.64685E+00 0.00000E+00
 -1       366 7.53685E+00 8.72031E+00 0.00000E+00
 -1       367 7.06153E+00 8.80101E+00 0.00000E+00
 -1       368 6.53938E+00 8.88967E+00 0.00000E+00
 -1       369 5.96587E+00 8.98705E+00 0.00000E+00
 -1       370 5.33604E+00 9.09399E+00 0.00000E+00
 -1       371 4.64448E+00 9.21141E+00 0.00000E+00
 -1       372 3.88527E+00 9.34031E+00 0.00000E+00
 -1       373 3.05197E+00 9.48180E+00 0.00000E+00
 -1       374 2.13755E+00 9.63706E+00 0.00000E+00
 -1       375 1.13253E+00 9.80770E+00 0.00000E+00
 -1       376 4.00000E+01 0.00000E+00 0.00000E+00
 -1       377 0.00000E+00 0.00000E+00 0.00000E+00
 -1       378 0.00000E+00-2.00000E+01 0.00000E+00
 -1       379 4.00000E+01-2.00000E+01 0.00000E+00
 -1       381 3.59299E+01 0.00000E+00 0.00000E+00
 -1       382 3.21866E+01 0.00000E+00 0.00000E+00
 -1       383 2.87886E+01 0.00000E+00 0.00000E+00
 -1       384 2.57024E+01 0.00000E+00 0.00000E+00
 -1       385 2.28994E+01 0.00000E+00 0.00000E+00
 -1       386 2.03532E+01 0.00000E+00 0.00000E+00
 -1       387 1.80402E+01 0.00000E+00 0.00000E+00
 -1       388 1.59389E+01 0.00000E+00 0.00000E+00
 -1       389 1.40298E+01 0.00000E+00 0.00000E+00
 -1       390 1.22952E+01 0.00000E+00 0.00000E+00
 -1       391 1.07191E+01 0.00000E+00 0.00000E+00
 -1       392 9.28699E+00 0.00000E+00 0.00000E+00
 -1       393 7.98558E+00 0.00000E+00 0.00000E+00
 -1       394 6.80292E+00 0.00000E+00 0.00000E+00
 -1       395 5.72816E+00 0.00000E+00 0.00000E+00
 -1       396 4.75140E+00 0.00000E+00 0.00000E+00
 -1       397 3.86370E+00 0.00000E+00 0.00000E+00
 -1       398 3.05691E+00 0.00000E+00 0.00000E+00
 -1       399 2.32364E+00 0.00000E+00 0.00000E+00
 -1       400 1.65717E+00 0.00000E+00 0.00000E+00
 -1       401 1.05141E+00 0.00000E+00 0.00000E+00
 -1       402 5.00000E-01 0.00000E+00 0.00000E+00
 -1       403 0.00000E+00-5.00000E-01 0.00000E+00
 -1       404 0.00000E+00-1.04407E+00 0.00000E+00
 -1       405 0.00000E+00-1.64585E+00 0.00000E+00
 -1       406 0.00000E+00-2.30726E+00 0.00000E+00
 -1       407 0.00000E+00-3.03414E+00 0.00000E+00
 -1       408 0.00000E+00-3.83290E+00 0.00000E+00
 -1       409 0.00000E+00-4.71056E+00 0.00000E+00
 -1       410 0.00000E+00-5.67481E+00 0.00000E+00
 -1       411 0.00000E+00-6.73405E+00 0.00000E+00
 -1       412 0.00000E+00-7.89749E+00 0.00000E+00
 -1       413 0.00000E+00-9.17518E+00 0.00000E+00
 -1       414 0.00000E+00-1.05781E+01 0.00000E+00
 -1       415 0.00000E+00-1.21182E+01 0.00000E+00
 -1       416 0.00000E+00-1.38087E+01 0.00000E+00
 -1       417 0.00000E+00-1.56637E+01 0.00000E+00
 -1       418 0.00000E+00-1.77025E+01 0.00000E+00
 -1       419 5.00000E-01-2.00000E+01 0.00000E+00
 -1       420 1.05141E+00-2.00000E+01 0.00000E+00
 -1       421 1.65717E+00-2.00000E+01 0.00000E+00
 -1       422 2.32364E+00-2.00000E+01 0.00000E+00
 -1       423 3.05691E+00-2.00000E+01 0.00000E+00
 -1       424 3.86370E+00-2.00000E+01 0.00000E+00
 -1       425 4.75140E+00-2.00000E+01 0.00000E+00
 -1       426 5.72816E+00-2.00000E+01 0.00000E+00
 -1       427 6.80292E+00-2.00000E+01 0.00000E+00
 -1       428 7.98558E+00-2.00000E+01 0.00000E+00
 -1       429 9.28699E+00-2.00000E+01 0.00000E+00
 -1       430 1.07191E+01-2.00000E+01 0.00000E+00
 -1       431 1.22952E+01-2.00000E+01 0.00000E+00
 -1       432 1.40298E+01-2.00000E+01 0.00000E+00
 -1       433 1.59389E+01-2.00000E+01 0.00000E+00
 -1       434 1.80402E+01-2.00000E+01 0.00000E+00
 -1       435 2.03532E+01-2.00000E+01 0.00000E+00
 -1       436 2.28994E+01-2.00000E+01 0.00000E+00
 -1       437 2.57024E+01-2.00000E+01 0.00000E+00
 -1       438 2.87886E+01-2.00000E+01 0.00000E+00
 -1       439 3.21866E+01-2.00000E+01 0.00000E+00
 -1       440 3.59299E+01-2.00000E+01 0.00000E+00
 -1       441 4.00000E+01-1.77025E+01 0.00000E+00
 -1       442 4.00000E+01-1.56637E+01 0.00000E+00
 -1       443 4.00000E+01-1.38087E+01 0.00000E+00
 -1       444 4.00000E+01-1.21182E+01 0.00000E+00
 -1       445 4.00000E+01-1.05781E+01 0.00000E+00
 -1       446 4.00000E+01-9.17518E+00 0.00000E+00
 -1       447 4.00000E+01-7.89749E+00 0.00000E+00
 -1       448 4.00000E+01-6.73405E+00 0.00000E+00
 -1       449 4.00000E+01-5.67481E+00 0.00000E+00
 -1       450 4.00000E+01-4.71056E+00 0.00000E+00
 -1       451 4.00000E+01-3.83290E+00 0.00000E+00
 -1       452 4.00000E+01-3.03414E+00 0.00000E+00
 -1       453 4.00000E+01-2.30726E+00 0.00000E+00
 -1       454 4.00000E+01-1.64585E+00 0.00000E+00
 -1       455 4.00000E+01-1.04407E+00 0.00000E+00
 -1       456 4.00000E+01-5.00000E-01 0.00000E+00
 -1       457 3.59299E+01-5.00000E-01 0.00000E+00
 -1       458 3.59299E+01-1.04407E+00 0.00000E+00
 -1       459 3.59299E+01-1.64585E+00 0.00000E+00
 -1       460 3.59299E+01-2.30726E+00 0.00000E+00
 -1       461 3.59299E+01-3.03414E+00 0.00000E+00
 -1       462 3.59299E+01-3.83290E+00 0.00000E+00
 -1       463 3.59299E+01-4.71056E+00 0.00000E+00
 -1       464 3.59299E+01-5.67481E+00 0.00000E+00
 -1       465 3.59299E+01-6.73405E+00 0.00000E+00
 -1       466 3.59299E+01-7.89749E+00 0.00000E+00
 -1       467 3.59299E+01-9.17518E+00 0.00000E+00
 -1       468 3.59299E+01-1.05781E+01 0.00000E+00
 -1       469 3.59299E+01-1.21182E+01 0.00000E+00
 -1       470 3.59299E+01-1.38087E+01 0.00000E+00
 -1       471 3.59299E+01-1.56637E+01 0.00000E+00
 -1       472 3.59299E+01-1.77025E+01 0.00000E+00
 -1       473 3.21866E+01-5.00000E-01 0.00000E+00
 -1       474 3.21866E+01-1.04407E+00 0.00000E+00
 -1       475 3.21866E+01-1.64585E+00 0.00000E+00
 -1       476 3.21866E+01-2.30726E+00 0.00000E+00
 -1       477 3.21866E+01-3.03414E+00 0.00000E+00
 -1       478 3.21866E+01-3.83290E+00 0.00000E+00
 -1       479 3.21866E+01-4.71056E+00 0.00000E+00
 -1       480 3.21866E+01-5.67481E+00 0.00000E+00
 -1       481 3.21866E+01-6.73405E+00 0.00000E+00
 -1       482 3.21866E+01-7.89749E+00 0.00000E+00
 -1       483 3.21866E+01-9.17518E+00 0.00000E+00
 -1       484 3.21866E+01-1.05781E+01 0.00000E+00
 -1       485 3.21866E+01-1.21182E+01 0.00000E+00
 -1       486 3.21866E+01-1.38087E+01 0.00000E+00
 -1       487 3.21866E+01-1.56637E+01 0.00000E+00
 -1       488 3.21866E+01-1.77025E+01 0.00000E+00
 -1       489 2.87886E+01-5.00000E-01 0.00000E+00
 -1       490 2.87886E+01-1.04407E+00 0.00000E+00
 -1       491 2.87886E+01-1.64585E+00 0.00000E+00
 -1       492 2.87886E+01-2.30726E+00 0.00000E+00
 -1       493 2.87886E+01-3.03414E+00 0.00000E+00
 -1       494 2.87886E+01-3.83290E+00 0.00000E+00
 -1       495 2.87886E+01-4.71056E+00 0.00000E+00
 -1       496 2.87886E+01-5.67481E+00 0.00000E+00
 -1       497 2.87886E+01-6.73405E+00 0.00000E+00
 -1       498 2.87886E+01-7.89749E+00 0.00000E+00
 -1       499 2.87886E+01-9.17518E+00 0.00000E+00
 -1       500 2.87886E+01-1.05781E+01 0.00000E+00
 -1       501 2.87886E+01-1.21182E+01 0.00000E+00
 -1       502 2.87886E+01-1.38087E+01 0.00000E+00
 -1       503 2.87886E+01-1.56637E+01 0.00000E+00
 -1       504 2.87886E+01-1.77025E+01 0.00000E+00
 -1       505 2.57024E+01-5.00000E-01 0.00000E+00
 -1       506 2.57024E+01-1.04407E+00 0.00000E+00
 -1       507 2.57024E+01-1.64585E+00 0.00000E+00
 -1       508 2.57024E+01-2.30726E+00 0.00000E+00
 -1       509 2.57024E+01-3.03414E+00 0.00000E+00
 -1       510 2.57024E+01-3.83290E+00 0.00000E+00
 -1       511 2.57024E+01-4.71056E+00 0.00000E+00
 -1       512 2.57024E+01-5.67481E+00 0.00000E+00
 -1       513 2.57024E+01-6.73405E+00 0.00000E+00
 -1       514 2.57024E+01-7.89749E+00 0.00000E+00
 -1       515 2.57024E+01-9.17518E+00 0.00000E+00
 -1       516 2.57024E+01-1.05781E+01 0.00000E+00
 -1       517 2.57024E+01-1.21182E+01 0.00000E+00
 -1       518 2.57024E+01-1.38087E+01 0.00000E+00
 -1       519 2.57024E+01-1.56637E+01 0.00000E+00
 -1       520 2.57024E+01-1.77025E+01 0.00000E+00
 -1       521 2.28994E+01-5.00000E-01 0.00000E+00
 -1       522 2.28994E+01-1.04407E+00 0.00000E+00
 -1       523 2.28994E+01-1.64585E+00 0.00000E+00
 -1       524 2.28994E+01-2.30726E+00 0.00000E+00
 -1       525 2.28994E+01-3.03414E+00 0.00000E+00
 -1       526 2.28994E+01-3.83290E+00 0.00000E+00
 -1       527 2.28994E+01-4.71056E+00 0.00000E+00
 -1       528 2.28994E+01-5.67481E+00 0.00000E+00
 -1       529 2.28994E+01-6.73405E+00 0.00000E+00
 -1       530 2.28994E+01-7.89749E+00 0.00000E+00
 -1       531 2.28994E+01-9.17518E+00 0.00000E+00
 -1       532 2.28994E+01-1.05781E+01 0.00000E+00
 -1       533 2.28994E+01-1.21182E+01 0.00000E+00
 -1       534 2.28994E+01-1.38087E+01 0.00000E+00
 -1       535 2.28994E+01-1.56637E+01 0.00000E+00
 -1       536 2.28994E+01-1.77025E+01 0.00000E+00
 -1       537 2.03532E+01-5.00000E-01 0.00000E+00
 -1       538 2.03532E+01-1.04407E+00 0.00000E+00
 -1       539 2.03532E+01-1.64585E+00 0.00000E+00
 -1       540 2.03532E+01-2.30726E+00 0.00000E+00
 -1       541 2.03532E+01-3.03414E+00 0.00000E+00
 -1       542 2.03532E+01-3.83290E+00 0.00000E+00
 -1       543 2.03532E+01-4.71056E+00 0.00000E+00
 -1       544 2.03532E+01-5.67481E+00 0.00000E+00
 -1       545 2.03532E+01-6.73405E+00 0.00000E+00
 -1       546 2.03532E+01-7.89749E+00 0.00000E+00
 -1       547 2.03532E+01-9.17518E+00 0.00000E+00
 -1       548 2.03532E+01-1.05781E+01 0.00000E+00
 -1       549 2.03532E+01-1.21182E+01 0.00000E+00
 -1       550 2.03532E+01-1.38087E+01 0.00000E+00
 -1       551 2.03532E+01-1.56637E+01 0.00000E+00
 -1       552 2.03532E+01-1.77025E+01 0.00000E+00
 -1       553 1.80402E+01-5.00000E-01 0.00000E+00
 -1       554 1.80402E+01-1.04407E+00 0.00000E+00
 -1       555 1.80402E+01-1.64585E+00 0.00000E+00
 -1       556 1.80402E+01-2.30726E+00 0.00000E+00
 -1       557 1.80402E+01-3.03414E+00 0.00000E+00
 -1       558 1.80402E+01-3.83290E+00 0.00000E+00
 -1       559 1.80402E+01-4.71056E+00 0.00000E+00
 -1       560 1.80402E+01-5.67481E+00 0.00000E+00
 -1       561 1.80402E+01-6.73405E+00 0.00000E+00
 -1       562 1.80402E+01-7.89749E+00 0.00000E+00
 -1       563 1.80402E+01-9.17518E+00 0.00000E+00
 -1       564 1.80402E+01-1.05781E+01 0.00000E+00
 -1       565 1.80402E+01-1.21182E+01 0.00000E+00
 -1       566 1.80402E+01-1.38087E+01 0.00000E+00
 -1       567 1.80402E+01-1.56637E+01 0.00000E+00
 -1       568 1.80402E+01-1.77025E+01 0.00000E+00
 -1       569 1.59389E+01-5.00000E-01 0.00000E+00
 -1       570 1.59389E+01-1.04407E+00 0.00000E+00
 -1       571 1.59389E+01-1.64585E+00 0.00000E+00
 -1       572 1.59389E+01-2.30726E+00 0.00000E+00
 -1       573 1.59389E+01-3.03414E+00 0.00000E+00
 -1       574 1.59389E+01-3.83290E+00 0.00000E+00
 -1       575 1.59389E+01-4.71056E+00 0.00000E+00
 -1       576 1.59389E+01-5.67481E+00 0.00000E+00
 -1       577 1.59389E+01-6.73405E+00 0.00000E+00
 -1       578 1.59389E+01-7.89749E+00 0.00000E+00
 -1       579 1.59389E+01-9.17518E+00 0.00000E+00
 -1       580 1.59389E+01-1.05781E+01 0.00000E+00
 -1       581 1.59389E+01-1.21182E+01 0.00000E+00
 -1       582 1.59389E+01-1.38087E+01 0.00000E+00
 -1       583 1.59389E+01-1.56637E+01 0.00000E+00
 -1       584 1.59389E+01-1.77025E+01 0.00000E+00
 -1       585 1.40298E+01-5.00000E-01 0.00000E+00
 -1       586 1.40298E+01-1.04407E+00 0.00000E+00
 -1       587 1.40298E+01-1.64585E+00 0.00000E+00
 -1       588 1.40298E+01-2.30726E+00 0.00000E+00
 -1       589 1.40298E+01-3.03414E+00 0.00000E+00
 -1       590 1.40298E+01-3.83290E+00 0.00000E+00
 -1       591 1.40298E+01-4.71056E+00 0.00000E+00
 -1       592 1.40298E+01-5.67481E+00 0.00000E+00
 -1       593 1.40298E+01-6.73405E+00 0.00000E+00
 -1       594 1.40298E+01-7.89749E+00 0.00000E+00
 -1       595 1.40298E+01-9.17518E+00 0.00000E+00
 -1       596 1.40298E+01-1.05781E+01 0.00000E+00
 -1       597 1.40298E+01-1.21182E+01 0.00000E+00
 -1       598 1.40298E+01-1.38087E+01 0.00000E+00
 -1       599 1.40298E+01-1.56637E+01 0.00000E+00
 -1       600 1.40298E+01-1.77025E+01 0.00000E+00
 -1       601 1.22952E+01-5.00000E-01 0.00000E+00
 -1       602 1.22952E+01-1.04407E+00 0.00000E+00
 -1       603 1.22952E+01-1.64585E+00 0.00000E+00
 -1       604 1.22952E+01-2.30726E+00 0.00000E+00
 -1       605 1.22952E+01-3.03414E+00 0.00000E+00
 -1       606 1.22952E+01-3.83290E+00 0.00000E+00
 -1       607 1.22952E+01-4.71056E+00 0.00000E+00
 -1       608 1.22952E+01-5.67481E+00 0.00000E+00
 -1       609 1.22952E+01-6.73405E+00 0.00000E+00
 -1       610 1.22952E+01-7.89749E+00 0.00000E+00
 -1       611 1.22952E+01-9.17518E+00 0.00000E+00
 -1       612 1.22952E+01-1.05781E+01 0.00000E+00
 -1       613 1.22952E+01-1.21182E+01 0.00000E+00
 -1       614 1.22952E+01-1.38087E+01 0.00000E+00
 -1       615 1.22952E+01-1.56637E+01 0.00000E+00
 -1       616 1.22952E+01-1.77025E+01 0.00000E+00
 -1       617 1.07191E+01-5.00000E-01 0.00000E+00
 -1       618 1.07191E+01-1.04407E+00 0.00000E+00
 -1       619 1.07191E+01-1.64585E+00 0.00000E+00
 -1       620 1.07191E+01-2.30726E+00 0.00000E+00
 -1       621 1.07191E+01-3.03414E+00 0.00000E+00
 -1       622 1.07191E+01-3.83290E+00 0.00000E+00
 -1       623 1.07191E+01-4.71056E+00 0.00000E+00
 -1       624 1.07191E+01-5.67481E+00 0.00000E+00
 -1       625 1.07191E+01-6.73405E+00 0.00000E+00
 -1       626 1.07191E+01-7.89749E+00 0.00000E+00
 -1       627 1.07191E+01-9.17518E+00 0.00000E+00
 -1       628 1.07191E+01-1.05781E+01 0.00000E+00
 -1       629 1.07191E+01-1.21182E+01 0.00000E+00
 -1       630 1.07191E+01-1.38087E+01 0.00000E+00
 -1       631 1.07191E+01-1.56637E+01 0.00000E+00
 -1       632 1.07191E+01-1.77025E+01 0.00000E+00
 -1       633 9.28699E+00-5.00000E-01 0.00000E+00
 -1       634 9.28699E+00-1.04407E+00 0.00000E+00
 -1       635 9.28699E+00-1.64585E+00 0.00000E+00
 -1       636 9.28699E+00-2.30726E+00 0.00000E+00
 -1       637 9.28699E+00-3.03414E+00 0.00000E+00
 -1       638 9.28699E+00-3.83290E+00 0.00000E+00
 -1       639 9.28699E+00-4.71056E+00 0.00000E+00
 -1       640 9.28699E+00-5.67481E+00 0.00000E+00
 -1       641 9.28699E+00-6.73405E+00 0.00000E+00
 -1       642 9.28699E+00-7.89749E+00 0.00000E+00
 -1       643 9.28699E+00-9.17518E+00 0.00000E+00
 -1       644 9.28699E+00-1.05781E+01 0.00000E+00
 -1       645 9.28699E+00-1.21182E+01 0.00000E+00
 -1       646 9.28699E+00-1.38087E+01 0.00000E+00
 -1       647 9.28699E+00-1.56637E+01 0.00000E+00
 -1       648 9.28699E+00-1.77025E+01 0.00000E+00
 -1       649 7.98558E+00-5.00000E-01 0.00000E+00
 -1       650 7.98558E+00-1.04407E+00 0.00000E+00
 -1       651 7.98558E+00-1.64585E+00 0.00000E+00
 -1       652 7.98558E+00-2.30726E+00 0.00000E+00
 -1       653 7.98558E+00-3.03414E+00 0.00000E+00
 -1       654 7.98558E+00-3.83290E+00 0.00000E+00
 -1       655 7.98558E+00-4.71056E+00 0.00000E+00
 -1       656 7.98558E+00-5.67481E+00 0.00000E+00
 -1       657 7.98558E+00-6.73405E+00 0.00000E+00
 -1       658 7.98558E+00-7.89749E+00 0.00000E+00
 -1       659 7.98558E+00-9.17518E+00 0.00000E+00
 -1       660 7.98558E+00-1.05781E+01 0.00000E+00
 -1       661 7.98558E+00-1.21182E+01 0.00000E+00
 -1       662 7.98558E+00-1.38087E+01 0.00000E+00
 -1       663 7.98558E+00-1.56637E+01 0.00000E+00
 -1       664 7.98558E+00-1.77025E+01 0.00000E+00
 -1       665 6.80292E+00-5.00000E-01 0.00000E+00
 -1       666 6.80292E+00-1.04407E+00 0.00000E+00
 -1       667 6.80292E+00-1.64585E+00 0.00000E+00
 -1       668 6.80292E+00-2.30726E+00 0.00000E+00
 -1       669 6.80292E+00-3.03414E+00 0.00000E+00
 -1       670 6.80292E+00-3.83290E+00 0.00000E+00
 -1       671 6.80292E+00-4.71056E+00 0.00000E+00
 -1       672 6.80292E+00-5.67481E+00 0.00000E+00
 -1       673 6.80292E+00-6.73405E+00 0.00000E+00
 -1       674 6.80292E+00-7.89749E+00 0.00000E+00
 -1       675 6.80292E+00-9.17518E+00 0.00000E+00
 -1       676 6.80292E+00-1.05781E+01 0.00000E+00
 -1       677 6.80292E+00-1.21182E+01 0.00000E+00
 -1       678 6.80292E+00-1.38087E+01 0.00000E+00
 -1       679 6.80292E+00-1.56637E+01 0.00000E+00
 -1       680 6.80292E+00-1.77025E+01 0.00000E+00
 -1       681 5.72816E+00-5.00000E-01 0.00000E+00
 -1       682 5.72816E+00-1.04407E+00 0.00000E+00
 -1       683 5.72816E+00-1.64585E+00 0.00000E+00
 -1       684 5.72816E+00-2.30726E+00 0.00000E+00
 -1       685 5.72816E+00-3.03414E+00 0.00000E+00
 -1       686 5.72816E+00-3.83290E+00 0.00000E+00
 -1       687 5.72816E+00-4.71056E+00 0.00000E+00
 -1       688 5.72816E+00-5.67481E+00 0.00000E+00
 -1       689 5.72816E+00-6.73405E+00 0.00000E+00
 -1       690 5.72816E+00-7.89749E+00 0.00000E+00
 -1       691 5.72816E+00-9.17518E+00 0.00000E+00
 -1       692 5.72816E+00-1.05781E+01 0.00000E+00
 -1       693 5.72816E+00-1.21182E+01 0.00000E+00
 -1       694 5.72816E+00-1.38087E+01 0.00000E+00
 -1       695 5.72816E+00-1.56637E+01 0.00000E+00
 -1       696 5.72816E+00-1.77025E+01 0.00000E+00
 -1       697 4.75140E+00-5.00000E-01 0.00000E+00
 -1       698 4.75140E+00-1.04407E+00 0.00000E+00
 -1       699 4.75140E+00-1.64585E+00 0.00000E+00
 -1       700 4.75140E+00-2.30726E+00 0.00000E+00
 -1       701 4.75140E+00-3.03414E+00 0.00000E+00
 -1       702 4.75140E+00-3.83290E+00 0.00000E+00
 -1       703 4.75140E+00-4.71056E+00 0.00000E+00
 -1       704 4.75140E+00-5.67481E+00 0.00000E+00
 -1       705 4.75140E+00-6.73405E+00 0.00000E+00
 -1       706 4.75140E+00-7.89749E+00 0.00000E+00
 -1       707 4.75140E+00-9.17518E+00 0.00000E+00
 -1       708 4.75140E+00-1.05781E+01 0.00000E+00
 -1       709 4.75140E+00-1.21182E+01 0.00000E+00
 -1       710 4.75140E+00-1.38087E+01 0.00000E+00
 -1       711 4.75140E+00-1.56637E+01 0.00000E+00
 -1       712 4.75140E+00-1.77025E+01 0.00000E+00
 -1       713 3.86370E+00-5.00000E-01 0.00000E+00
 -1       714 3.86370E+00-1.04407E+00 0.00000E+00
 -1       715 3.86370E+00-1.64585E+00 0.00000E+00
 -1       716 3.86370E+00-2.30726E+00 0.00000E+00
 -1       717 3.86370E+00-3.03414E+00 0.00000E+00
 -1       718 3.86370E+00-3.83290E+00 0.00000E+00
 -1       719 3.86370E+00-4.71056E+00 0.00000E+00
 -1       720 3.86370E+00-5.67481E+00 0.00000E+00
 -1       721 3.86370E+00-6.73405E+00 0.00000E+00
 -1       722 3.86370E+00-7.89749E+00 0.00000E+00
 -1       723 3.86370E+00-9.17518E+00 0.00000E+00
 -1       724 3.86370E+00-1.05781E+01 0.00000E+00
 -1       725 3.86370E+00-1.21182E+01 0.00000E+00
 -1       726 3.86370E+00-1.38087E+01 0.00000E+00
 -1       727 3.86370E+00-1.56637E+01 0.00000E+00
 -1       728 3.86370E+00-1.77025E+01 0.00000E+00
 -1       729 3.05691E+00-5.00000E-01 0.00000E+00
 -1       730 3.05691E+00-1.04407E+00 0.00000E+00
 -1       731 3.05691E+00-1.64585E+00 0.00000E+00
 -1       732 3.05691E+00-2.30726E+00 0.00000E+00
 -1       733 3.05691E+00-3.03414E+00 0.00000E+00
 -1       734 3.05691E+00-3.83290E+00 0.00000E+00
 -1       735 3.05691E+00-4.71056E+00 0.00000E+00
 -1       736 3.05691E+00-5.67481E+00 0.00000E+00
 -1       737 3.05691E+00-6.73405E+00 0.00000E+00
 -1       738 3.05691E+00-7.89749E+00 0.00000E+00
 -1       739 3.05691E+00-9.17518E+00 0.00000E+00
 -1       740 3.05691E+00-1.05781E+01 0.00000E+00
 -1       741 3.05691E+00-1.21182E+01 0.00000E+00
 -1       742 3.05691E+00-1.38087E+01 0.00000E+00
 -1       743 3.05691E+00-1.56637E+01 0.00000E+00
 -1       744 3.05691E+00-1.77025E+01 0.00000E+00
 -1       745 2.32364E+00-5.00000E-01 0.00000E+00
 -1       746 2.32364E+00-1.04407E+00 0.00000E+00
 -1       747 2.32364E+00-1.64585E+00 0.00000E+00
 -1       748 2.32364E+00-2.30726E+00 0.00000E+00
 -1       749 2.32364E+00-3.03414E+00 0.00000E+00
 -1       750 2.32364E+00-3.83290E+00 0.00000E+00
 -1       751 2.32364E+00-4.71056E+00 0.00000E+00
 -1       752 2.32364E+00-5.67481E+00 0.00000E+00
 -1       753 2.32364E+00-6.73405E+00 0.00000E+00
 -1       754 2.32364E+00-7.89749E+00 0.00000E+00
 -1       755 2.32364E+00-9.17518E+00 0.00000E+00
 -1       756 2.32364E+00-1.05781E+01 0.00000E+00
 -1       757 2.32364E+00-1.21182E+01 0.00000E+00
 -1       758 2.32364E+00-1.38087E+01 0.00000E+00
 -1       759 2.32364E+00-1.56637E+01 0.00000E+00
 -1       760 2.32364E+00-1.77025E+01 0.00000E+00
 -1       761 1.65717E+00-5.00000E-01 0.00000E+00
 -1       762 1.65717E+00-1.04407E+00 0.00000E+00
 -1       763 1.65717E+00-1.64585E+00 0.00000E+00
 -1       764 1.65717E+00-2.30726E+00 0.00000E+00
 -1       765 1.65717E+00-3.03414E+00 0.00000E+00
 -1       766 1.65717E+00-3.83290E+00 0.00000E+00
 -1       767 1.65717E+00-4.71056E+00 0.00000E+00
 -1       768 1.65717E+00-5.67481E+00 0.00000E+00
 -1       769 1.65717E+00-6.73405E+00 0.00000E+00
 -1       770 1.65717E+00-7.89749E+00 0.00000E+00
 -1       771 1.65717E+00-9.17518E+00 0.00000E+00
 -1       772 1.65717E+00-1.05781E+01 0.00000E+00
 -1       773 1.65717E+00-1.21182E+01 0.00000E+00
 -1       774 1.65717E+00-1.38087E+01 0.00000E+00
 -1       775 1.65717E+00-1.56637E+01 0.00000E+00
 -1       776 1.65717E+00-1.77025E+01 0.00000E+00
 -1       777 1.05141E+00-5.00000E-01 0.00000E+00
 -1       778 1.05141E+00-1.04407E+00 0.00000E+00
 -1       779 1.05141E+00-1.64585E+00 0.00000E+00
 -1       780 1.05141E+00-2.30726E+00 0.00000E+00
 -1       781 1.05141E+00-3.03414E+00 0.00000E+00
 -1       782 1.05141E+00-3.83290E+00 0.00000E+00
 -1       783 1.05141E+00-4.71056E+00 0.00000E+00
 -1       784 1.05141E+00-5.67481E+00 0.00000E+00
 -1       785 1.05141E+00-6.73405E+00 0.00000E+00
 -1       786 1.05141E+00-7.89749E+00 0.00000E+00
 -1       787 1.05141E+00-9.17518E+00 0.00000E+00
 -1       788 1.05141E+00-1.05781E+01 0.00000E+00
 -1       789 1.05141E+00-1.21182E+01 0.00000E+00
 -1       790 1.05141E+00-1.38087E+01 0.00000E+00
 -1       791 1.05141E+00-1.56637E+01 0.00000E+00
 -1       792 1.05141E+00-1.77025E+01 0.00000E+00
 -1       793 5.00000E-01-5.00000E-01 0.00000E+00
 -1       794 5.00000E-01-1.04407E+00 0.00000E+00
 -1       795 5.00000E-01-1.64585E+00 0.00000E+00
 -1       796 5.00000E-01-2.30726E+00 0.00000E+00
 -1       797 5.00000E-01-3.03414E+00 0.00000E+00
 -1       798 5.00000E-01-3.83290E+00 0.00000E+00
 -1       799 5.00000E-01-4.71056E+00 0.00000E+00
 -1       800 5.00000E-01-5.67481E+00 0.00000E+00
 -1       801 5.00000E-01-6.73405E+00 0.00000E+00
 -1       802 5.00000E-01-7.89749E+00 0.00000E+00
 -1       803 5.00000E-01-9.17518E+00 0.00000E+00
 -1       804 5.00000E-01-1.05781E+01 0.00000E+00
 -1       805 5.00000E-01-1.21182E+01 0.00000E+00
 -1       806 5.00000E-01-1.38087E+01 0.00000E+00
 -1       807 5.00000E-01-1.56637E+01 0.00000E+00
 -1       808 5.00000E-01-1.77025E+01 0.00000E+00
 -1       809 1.24997E-01 7.81240E-04 0.00000E+00
 -1       810 2.46849E-01 1.28086E-01 0.00000E+00
 -1       811 1.21862E-01 2.51523E-01 0.00000E+00
 -1       812 0.00000E+00 1.25000E-01 0.00000E+00
 -1       813 2.40325E-01 3.89021E-01 0.00000E+00
 -1       814 1.18462E-01 5.23513E-01 0.00000E+00
 -1       815 0.00000E+00 3.86016E-01 0.00000E+00
 -1       816 2.33164E-01 6.75393E-01 0.00000E+00
 -1       817 1.14702E-01 8.24357E-01 0.00000E+00
 -1       818 0.00000E+00 6.72478E-01 0.00000E+00
 -1       819 2.25270E-01 9.91091E-01 0.00000E+00
 -1       820 1.10568E-01 1.15501E+00 0.00000E+00
 -1       821 0.00000E+00 9.88275E-01 0.00000E+00
 -1       822 2.16594E-01 1.33806E+00 0.00000E+00
 -1       823 1.06026E-01 1.51839E+00 0.00000E+00
 -1       824 0.00000E+00 1.33535E+00 0.00000E+00
 -1       825 2.07059E-01 1.71935E+00 0.00000E+00
 -1       826 1.01034E-01 1.91771E+00 0.00000E+00
 -1       827 0.00000E+00 1.71676E+00 0.00000E+00
 -1       828 1.96583E-01 2.13832E+00 0.00000E+00
 -1       829 9.55490E-02 2.35648E+00 0.00000E+00
 -1       830 0.00000E+00 2.13587E+00 0.00000E+00
 -1       831 1.85072E-01 2.59866E+00 0.00000E+00
 -1       832 8.95231E-02 2.83852E+00 0.00000E+00
 -1       833 0.00000E+00 2.59634E+00 0.00000E+00
 -1       834 1.72427E-01 3.10437E+00 0.00000E+00
 -1       835 8.29035E-02 3.36806E+00 0.00000E+00
 -1       836 0.00000E+00 3.10222E+00 0.00000E+00
 -1       837 1.58536E-01 3.65987E+00 0.00000E+00
 -1       838 7.56328E-02 3.94969E+00 0.00000E+00
 -1       839 0.00000E+00 3.65789E+00 0.00000E+00
 -1       840 1.43281E-01 4.26996E+00 0.00000E+00
 -1       841 6.76481E-02 4.58843E+00 0.00000E+00
 -1       842 0.00000E+00 4.26817E+00 0.00000E+00
 -1       843 1.26529E-01 4.93990E+00 0.00000E+00
 -1       844 5.88807E-02 5.28979E+00 0.00000E+00
 -1       845 0.00000E+00 4.93832E+00 0.00000E+00
 -1       846 1.08137E-01 5.67544E+00 0.00000E+00
 -1       847 4.92558E-02 6.05974E+00 0.00000E+00
 -1       848 0.00000E+00 5.67409E+00 0.00000E+00
 -1       849 8.79474E-02 6.48284E+00 0.00000E+00
 -1       850 3.86916E-02 6.90484E+00 0.00000E+00
 -1       851 0.00000E+00 6.48174E+00 0.00000E+00
 -1       852 6.57905E-02 7.36893E+00 0.00000E+00
 -1       853 2.70989E-02 7.83220E+00 0.00000E+00
 -1       854 0.00000E+00 7.36811E+00 0.00000E+00
 -1       855 4.14567E-02 8.34208E+00 0.00000E+00
 -1       856 1.43578E-02 8.85144E+00 0.00000E+00
 -1       857 0.00000E+00 8.34156E+00 0.00000E+00
 -1       858 1.43578E-02 9.42581E+00 0.00000E+00
 -1       859 0.00000E+00 9.42563E+00 0.00000E+00
 -1       860 3.86018E-01 7.45326E-03 0.00000E+00
 -1       861 5.15465E-01 1.38463E-01 0.00000E+00
 -1       862 3.76332E-01 2.58169E-01 0.00000E+00
 -1       863 5.01840E-01 3.99123E-01 0.00000E+00
 -1       864 3.65832E-01 5.29974E-01 0.00000E+00
 -1       865 4.86887E-01 6.85194E-01 0.00000E+00
 -1       866 3.54218E-01 8.30613E-01 0.00000E+00
 -1       867 4.70403E-01 1.00056E+00 0.00000E+00
 -1       868 3.41454E-01 1.16104E+00 0.00000E+00
 -1       869 4.52286E-01 1.34716E+00 0.00000E+00
 -1       870 3.27426E-01 1.52418E+00 0.00000E+00
 -1       871 4.32377E-01 1.72805E+00 0.00000E+00
 -1       872 3.12010E-01 1.92322E+00 0.00000E+00
 -1       873 4.10500E-01 2.14659E+00 0.00000E+00
 -1       874 2.95072E-01 2.36169E+00 0.00000E+00
 -1       875 3.86463E-01 2.60644E+00 0.00000E+00
 -1       876 2.76463E-01 2.84341E+00 0.00000E+00
 -1       877 3.60057E-01 3.11162E+00 0.00000E+00
 -1       878 2.56021E-01 3.37258E+00 0.00000E+00
 -1       879 3.31052E-01 3.66653E+00 0.00000E+00
 -1       880 2.33567E-01 3.95382E+00 0.00000E+00
 -1       881 2.99196E-01 4.27598E+00 0.00000E+00
 -1       882 2.08909E-01 4.59212E+00 0.00000E+00
 -1       883 2.64215E-01 4.94522E+00 0.00000E+00
 -1       884 1.81834E-01 5.29300E+00 0.00000E+00
 -1       885 2.25808E-01 5.67998E+00 0.00000E+00
 -1       886 1.52111E-01 6.06243E+00 0.00000E+00
 -1       887 1.83650E-01 6.48654E+00 0.00000E+00
 -1       888 1.19486E-01 6.90695E+00 0.00000E+00
 -1       889 1.37382E-01 7.37169E+00 0.00000E+00
 -1       890 8.36863E-02 7.83368E+00 0.00000E+00
 -1       891 8.65690E-02 8.34382E+00 0.00000E+00
 -1       892 4.43394E-02 8.85222E+00 0.00000E+00
 -1       893 2.99816E-02 9.42641E+00 0.00000E+00
 -1       894 6.72218E-01 2.26194E-02 0.00000E+00
 -1       895 8.12015E-01 1.58442E-01 0.00000E+00
 -1       896 6.55338E-01 2.73156E-01 0.00000E+00
 -1       897 7.90552E-01 4.18575E-01 0.00000E+00
 -1       898 6.37054E-01 5.44542E-01 0.00000E+00
 -1       899 7.66996E-01 7.04066E-01 0.00000E+00
 -1       900 6.16830E-01 8.44718E-01 0.00000E+00
 -1       901 7.41028E-01 1.01879E+00 0.00000E+00
 -1       902 5.94602E-01 1.17464E+00 0.00000E+00
 -1       903 7.12489E-01 1.36469E+00 0.00000E+00
 -1       904 5.70173E-01 1.53721E+00 0.00000E+00
 -1       905 6.81126E-01 1.74481E+00 0.00000E+00
 -1       906 5.43329E-01 1.93565E+00 0.00000E+00
 -1       907 6.46663E-01 2.16250E+00 0.00000E+00
 -1       908 5.13833E-01 2.37344E+00 0.00000E+00
 -1       909 6.08798E-01 2.62142E+00 0.00000E+00
 -1       910 4.81428E-01 2.85442E+00 0.00000E+00
 -1       911 5.67200E-01 3.12558E+00 0.00000E+00
 -1       912 4.45830E-01 3.38278E+00 0.00000E+00
 -1       913 5.21508E-01 3.67936E+00 0.00000E+00
 -1       914 4.06730E-01 3.96312E+00 0.00000E+00
 -1       915 4.71325E-01 4.28758E+00 0.00000E+00
 -1       916 3.63791E-01 4.60044E+00 0.00000E+00
 -1       917 4.16219E-01 4.95546E+00 0.00000E+00
 -1       918 3.16643E-01 5.30024E+00 0.00000E+00
 -1       919 3.55717E-01 5.68874E+00 0.00000E+00
 -1       920 2.64883E-01 6.06848E+00 0.00000E+00
 -1       921 2.89304E-01 6.49365E+00 0.00000E+00
 -1       922 2.08071E-01 6.91170E+00 0.00000E+00
 -1       923 2.16419E-01 7.37702E+00 0.00000E+00
 -1       924 1.45730E-01 7.83701E+00 0.00000E+00
 -1       925 1.36373E-01 8.34717E+00 0.00000E+00
 -1       926 7.72118E-02 8.85398E+00 0.00000E+00
 -1       927 4.72302E-02 9.42757E+00 0.00000E+00
 -1       928 9.87033E-01 4.88309E-02 0.00000E+00
 -1       929 1.13711E+00 1.90688E-01 0.00000E+00
 -1       930 9.62225E-01 2.98938E-01 0.00000E+00
 -1       931 1.10705E+00 4.49968E-01 0.00000E+00
 -1       932 9.35378E-01 5.69605E-01 0.00000E+00
 -1       933 1.07407E+00 7.34524E-01 0.00000E+00
 -1       934 9.05683E-01 8.68985E-01 0.00000E+00
 -1       935 1.03770E+00 1.04822E+00 0.00000E+00
 -1       936 8.73046E-01 1.19803E+00 0.00000E+00
 -1       937 9.97736E-01 1.39298E+00 0.00000E+00
 -1       938 8.37178E-01 1.55965E+00 0.00000E+00
 -1       939 9.53816E-01 1.77186E+00 0.00000E+00
 -1       940 7.97764E-01 1.95702E+00 0.00000E+00
 -1       941 9.05556E-01 2.18818E+00 0.00000E+00
 -1       942 7.54455E-01 2.39365E+00 0.00000E+00
 -1       943 8.52532E-01 2.64559E+00 0.00000E+00
 -1       944 7.06875E-01 2.87336E+00 0.00000E+00
 -1       945 7.94281E-01 3.14810E+00 0.00000E+00
 -1       946 6.54606E-01 3.40032E+00 0.00000E+00
 -1       947 7.30295E-01 3.70007E+00 0.00000E+00
 -1       948 5.97197E-01 3.97912E+00 0.00000E+00
 -1       949 6.60021E-01 4.30629E+00 0.00000E+00
 -1       950 5.34150E-01 4.61475E+00 0.00000E+00
 -1       951 5.82853E-01 4.97199E+00 0.00000E+00
 -1       952 4.64923E-01 5.31270E+00 0.00000E+00
 -1       953 4.98129E-01 5.70286E+00 0.00000E+00
 -1       954 3.88924E-01 6.07890E+00 0.00000E+00
 -1       955 4.05128E-01 6.50514E+00 0.00000E+00
 -1       956 3.05509E-01 6.91989E+00 0.00000E+00
 -1       957 3.03063E-01 7.38561E+00 0.00000E+00
 -1       958 2.13973E-01 7.84274E+00 0.00000E+00
 -1       959 1.90970E-01 8.35259E+00 0.00000E+00
 -1       960 1.13369E-01 8.85702E+00 0.00000E+00
 -1       961 6.61390E-02 9.42945E+00 0.00000E+00
 -1       962 1.33190E+00 8.90944E-02 0.00000E+00
 -1       963 1.49295E+00 2.38509E-01 0.00000E+00
 -1       964 1.29838E+00 3.38464E-01 0.00000E+00
 -1       965 1.45349E+00 4.96525E-01 0.00000E+00
 -1       966 1.26216E+00 6.08028E-01 0.00000E+00
 -1       967 1.41018E+00 7.79694E-01 0.00000E+00
 -1       968 1.22209E+00 9.06189E-01 0.00000E+00
 -1       969 1.36244E+00 1.09186E+00 0.00000E+00
 -1       970 1.17805E+00 1.23389E+00 0.00000E+00
 -1       971 1.30997E+00 1.43494E+00 0.00000E+00
 -1       972 1.12965E+00 1.59404E+00 0.00000E+00
 -1       973 1.25230E+00 1.81197E+00 0.00000E+00
 -1       974 1.07647E+00 1.98979E+00 0.00000E+00
 -1       975 1.18894E+00 2.22626E+00 0.00000E+00
 -1       976 1.01803E+00 2.42464E+00 0.00000E+00
 -1       977 1.11932E+00 2.68145E+00 0.00000E+00
 -1       978 9.53826E-01 2.90239E+00 0.00000E+00
 -1       979 1.04284E+00 3.18150E+00 0.00000E+00
 -1       980 8.83298E-01 3.42721E+00 0.00000E+00
 -1       981 9.58834E-01 3.73079E+00 0.00000E+00
 -1       982 8.05832E-01 4.00365E+00 0.00000E+00
 -1       983 8.66569E-01 4.33405E+00 0.00000E+00
 -1       984 7.20758E-01 4.63670E+00 0.00000E+00
 -1       985 7.65251E-01 4.99650E+00 0.00000E+00
 -1       986 6.27346E-01 5.33179E+00 0.00000E+00
 -1       987 6.54014E-01 5.72381E+00 0.00000E+00
 -1       988 5.24797E-01 6.09488E+00 0.00000E+00
 -1       989 5.31909E-01 6.52218E+00 0.00000E+00
 -1       990 4.12240E-01 6.93244E+00 0.00000E+00
 -1       991 3.97903E-01 7.39836E+00 0.00000E+00
 -1       992 2.88726E-01 7.85153E+00 0.00000E+00
 -1       993 2.50732E-01 8.36062E+00 0.00000E+00
 -1       994 1.52975E-01 8.86168E+00 0.00000E+00
 -1       995 8.68365E-02 9.43223E+00 0.00000E+00
 -1       996 1.70904E+00 1.47123E-01 0.00000E+00
 -1       997 1.88172E+00 3.05943E-01 0.00000E+00
 -1       998 1.66598E+00 3.95362E-01 0.00000E+00
 -1       999 1.83198E+00 5.62176E-01 0.00000E+00
 -1      1000 1.61950E+00 6.63339E-01 0.00000E+00
 -1      1001 1.77740E+00 8.43389E-01 0.00000E+00
 -1      1002 1.56808E+00 9.59744E-01 0.00000E+00
 -1      1003 1.71722E+00 1.15340E+00 0.00000E+00
 -1      1004 1.51158E+00 1.28552E+00 0.00000E+00
 -1      1005 1.65109E+00 1.49411E+00 0.00000E+00
 -1      1006 1.44948E+00 1.64354E+00 0.00000E+00
 -1      1007 1.57841E+00 1.86854E+00 0.00000E+00
 -1      1008 1.38123E+00 2.03697E+00 0.00000E+00
 -1      1009 1.49854E+00 2.27996E+00 0.00000E+00
 -1      1010 1.30625E+00 2.46926E+00 0.00000E+00
 -1      1011 1.41080E+00 2.73200E+00 0.00000E+00
 -1      1012 1.22387E+00 2.94419E+00 0.00000E+00
 -1      1013 1.31440E+00 3.22861E+00 0.00000E+00
 -1      1014 1.13337E+00 3.46592E+00 0.00000E+00
 -1      1015 1.20852E+00 3.77409E+00 0.00000E+00
 -1      1016 1.03398E+00 4.03896E+00 0.00000E+00
 -1      1017 1.09222E+00 4.37319E+00 0.00000E+00
 -1      1018 9.24817E-01 4.66828E+00 0.00000E+00
 -1      1019 9.64524E-01 5.03107E+00 0.00000E+00
 -1      1020 8.04959E-01 5.35928E+00 0.00000E+00
 -1      1021 8.24321E-01 5.75335E+00 0.00000E+00
 -1      1022 6.73376E-01 6.11788E+00 0.00000E+00
 -1      1023 6.70419E-01 6.54620E+00 0.00000E+00
 -1      1024 5.28952E-01 6.95051E+00 0.00000E+00
 -1      1025 5.01518E-01 7.41633E+00 0.00000E+00
 -1      1026 3.70469E-01 7.86418E+00 0.00000E+00
 -1      1027 3.16023E-01 8.37195E+00 0.00000E+00
 -1      1028 1.96285E-01 8.86838E+00 0.00000E+00
 -1      1029 1.09449E-01 9.43615E+00 0.00000E+00
 -1      1030 2.12059E+00 2.27431E-01 0.00000E+00
 -1      1031 2.30543E+00 3.97886E-01 0.00000E+00
 -1      1032 2.06708E+00 4.74042E-01 0.00000E+00
 -1      1033 2.24450E+00 6.51689E-01 0.00000E+00
 -1      1034 2.00940E+00 7.39824E-01 0.00000E+00
 -1      1035 2.17762E+00 9.30235E-01 0.00000E+00
 -1      1036 1.94561E+00 1.03380E+00 0.00000E+00
 -1      1037 2.10389E+00 1.23731E+00 0.00000E+00
 -1      1038 1.87550E+00 1.35691E+00 0.00000E+00
 -1      1039 2.02287E+00 1.57479E+00 0.00000E+00
 -1      1040 1.79845E+00 1.71200E+00 0.00000E+00
 -1      1041 1.93382E+00 1.94566E+00 0.00000E+00
 -1      1042 1.71378E+00 2.10220E+00 0.00000E+00
 -1      1043 1.83597E+00 2.35318E+00 0.00000E+00
 -1      1044 1.62074E+00 2.53095E+00 0.00000E+00
 -1      1045 1.72847E+00 2.80094E+00 0.00000E+00
 -1      1046 1.51853E+00 3.00199E+00 0.00000E+00
 -1      1047 1.61037E+00 3.29283E+00 0.00000E+00
 -1      1048 1.40624E+00 3.51944E+00 0.00000E+00
 -1      1049 1.48064E+00 3.83314E+00 0.00000E+00
 -1      1050 1.28291E+00 4.08779E+00 0.00000E+00
 -1      1051 1.33816E+00 4.42656E+00 0.00000E+00
 -1      1052 1.14747E+00 4.71196E+00 0.00000E+00
 -1      1053 1.18171E+00 5.07819E+00 0.00000E+00
 -1      1054 9.98759E-01 5.39730E+00 0.00000E+00
 -1      1055 1.00994E+00 5.79363E+00 0.00000E+00
 -1      1056 8.35497E-01 6.14968E+00 0.00000E+00
 -1      1057 8.21380E-01 6.57896E+00 0.00000E+00
 -1      1058 6.56302E-01 6.97549E+00 0.00000E+00
 -1      1059 6.14447E-01 7.44084E+00 0.00000E+00
 -1      1060 4.59663E-01 7.88168E+00 0.00000E+00
 -1      1061 3.87183E-01 8.38739E+00 0.00000E+00
 -1      1062 2.43543E-01 8.87765E+00 0.00000E+00
 -1      1063 1.34094E-01 9.44150E+00 0.00000E+00
 -1      1064 2.56848E+00 3.35481E-01 0.00000E+00
 -1      1065 2.76583E+00 5.20243E-01 0.00000E+00
 -1      1066 2.50354E+00 5.79836E-01 0.00000E+00
 -1      1067 2.69272E+00 7.70812E-01 0.00000E+00
 -1      1068 2.43369E+00 8.42666E-01 0.00000E+00
 -1      1069 2.61249E+00 1.04581E+00 0.00000E+00
 -1      1070 2.35643E+00 1.13338E+00 0.00000E+00
 -1      1071 2.52404E+00 1.34897E+00 0.00000E+00
 -1      1072 2.27151E+00 1.45289E+00 0.00000E+00
 -1      1073 2.42683E+00 1.68215E+00 0.00000E+00
 -1      1074 2.17819E+00 1.80404E+00 0.00000E+00
 -1      1075 2.32000E+00 2.04829E+00 0.00000E+00
 -1      1076 2.07564E+00 2.18991E+00 0.00000E+00
 -1      1077 2.20262E+00 2.45062E+00 0.00000E+00
 -1      1078 1.96296E+00 2.61390E+00 0.00000E+00
 -1      1079 2.07365E+00 2.89267E+00 0.00000E+00
 -1      1080 1.83916E+00 3.07971E+00 0.00000E+00
 -1      1081 1.93196E+00 3.37830E+00 0.00000E+00
 -1      1082 1.70317E+00 3.59142E+00 0.00000E+00
 -1      1083 1.77633E+00 3.91173E+00 0.00000E+00
 -1      1084 1.55380E+00 4.15345E+00 0.00000E+00
 -1      1085 1.60540E+00 4.49758E+00 0.00000E+00
 -1      1086 1.38976E+00 4.77069E+00 0.00000E+00
 -1      1087 1.41770E+00 5.14091E+00 0.00000E+00
 -1      1088 1.20964E+00 5.44842E+00 0.00000E+00
 -1      1089 1.21162E+00 5.84723E+00 0.00000E+00
 -1      1090 1.01191E+00 6.19244E+00 0.00000E+00
 -1      1091 9.85409E-01 6.62256E+00 0.00000E+00
 -1      1092 7.94879E-01 7.00908E+00 0.00000E+00
 -1      1093 7.37152E-01 7.47345E+00 0.00000E+00
 -1      1094 5.56720E-01 7.90521E+00 0.00000E+00
 -1      1095 4.64503E-01 8.40794E+00 0.00000E+00
 -1      1096 2.94966E-01 8.89012E+00 0.00000E+00
 -1      1097 1.60872E-01 9.44862E+00 0.00000E+00
 -1      1098 3.05424E+00 4.77835E-01 0.00000E+00
 -1      1099 3.26417E+00 6.80085E-01 0.00000E+00
 -1      1100 2.97684E+00 7.19149E-01 0.00000E+00
 -1      1101 3.17789E+00 9.26429E-01 0.00000E+00
 -1      1102 2.89378E+00 9.78092E-01 0.00000E+00
 -1      1103 3.08320E+00 1.19679E+00 0.00000E+00
 -1      1104 2.80191E+00 1.26450E+00 0.00000E+00
 -1      1105 2.97882E+00 1.49483E+00 0.00000E+00
 -1      1106 2.70094E+00 1.57930E+00 0.00000E+00
 -1      1107 2.86409E+00 1.82240E+00 0.00000E+00
 -1      1108 2.58998E+00 1.92525E+00 0.00000E+00
 -1      1109 2.73802E+00 2.18237E+00 0.00000E+00
 -1      1110 2.46804E+00 2.30541E+00 0.00000E+00
 -1      1111 2.59948E+00 2.57792E+00 0.00000E+00
 -1      1112 2.33406E+00 2.72313E+00 0.00000E+00
 -1      1113 2.44727E+00 3.01251E+00 0.00000E+00
 -1      1114 2.18686E+00 3.18205E+00 0.00000E+00
 -1      1115 2.28005E+00 3.48995E+00 0.00000E+00
 -1      1116 2.02516E+00 3.68619E+00 0.00000E+00
 -1      1117 2.09638E+00 4.01438E+00 0.00000E+00
 -1      1118 1.84755E+00 4.23992E+00 0.00000E+00
 -1      1119 1.89465E+00 4.59036E+00 0.00000E+00
 -1      1120 1.65250E+00 4.84802E+00 0.00000E+00
 -1      1121 1.67313E+00 5.22284E+00 0.00000E+00
 -1      1122 1.43833E+00 5.51573E+00 0.00000E+00
 -1      1123 1.42993E+00 5.91725E+00 0.00000E+00
 -1      1124 1.20321E+00 6.24875E+00 0.00000E+00
 -1      1125 1.16296E+00 6.67950E+00 0.00000E+00
 -1      1126 9.45152E-01 7.05331E+00 0.00000E+00
 -1      1127 8.69970E-01 7.51605E+00 0.00000E+00
 -1      1128 6.61969E-01 7.93619E+00 0.00000E+00
 -1      1129 5.48196E-01 8.43478E+00 0.00000E+00
 -1      1130 3.50730E-01 8.90653E+00 0.00000E+00
 -1      1131 1.89858E-01 9.45791E+00 0.00000E+00
 -1      1132 3.57880E+00 6.62324E-01 0.00000E+00
 -1      1133 3.80096E+00 8.85819E-01 0.00000E+00
 -1      1134 3.48785E+00 8.99623E-01 0.00000E+00
 -1      1135 3.70050E+00 1.12672E+00 0.00000E+00
 -1      1136 3.39054E+00 1.15353E+00 0.00000E+00
 -1      1137 3.59023E+00 1.39112E+00 0.00000E+00
 -1      1138 3.28290E+00 1.43437E+00 0.00000E+00
 -1      1139 3.46868E+00 1.68258E+00 0.00000E+00
 -1      1140 3.16460E+00 1.74304E+00 0.00000E+00
 -1      1141 3.33509E+00 2.00292E+00 0.00000E+00
 -1      1142 3.03458E+00 2.08227E+00 0.00000E+00
 -1      1143 3.18828E+00 2.35494E+00 0.00000E+00
 -1      1144 2.89171E+00 2.45504E+00 0.00000E+00
 -1      1145 3.02697E+00 2.74176E+00 0.00000E+00
 -1      1146 2.73473E+00 2.86463E+00 0.00000E+00
 -1      1147 2.84972E+00 3.16676E+00 0.00000E+00
 -1      1148 2.56226E+00 3.31463E+00 0.00000E+00
 -1      1149 2.65501E+00 3.63366E+00 0.00000E+00
 -1      1150 2.37280E+00 3.80897E+00 0.00000E+00
 -1      1151 2.44113E+00 4.14651E+00 0.00000E+00
 -1      1152 2.16471E+00 4.35193E+00 0.00000E+00
 -1      1153 2.20623E+00 4.70978E+00 0.00000E+00
 -1      1154 1.93617E+00 4.94821E+00 0.00000E+00
 -1      1155 1.94828E+00 5.32830E+00 0.00000E+00
 -1      1156 1.68524E+00 5.60293E+00 0.00000E+00
 -1      1157 1.66508E+00 6.00738E+00 0.00000E+00
 -1      1158 1.40976E+00 6.32170E+00 0.00000E+00
 -1      1159 1.35421E+00 6.75280E+00 0.00000E+00
 -1      1160 1.10740E+00 7.11061E+00 0.00000E+00
 -1      1161 1.01304E+00 7.57088E+00 0.00000E+00
 -1      1162 7.75605E-01 7.97632E+00 0.00000E+00
 -1      1163 6.38347E-01 8.46933E+00 0.00000E+00
 -1      1164 4.10938E-01 8.92780E+00 0.00000E+00
 -1      1165 2.21080E-01 9.46988E+00 0.00000E+00
 -1      1166 4.14216E+00 8.98214E-01 0.00000E+00
 -1      1167 4.37562E+00 1.14734E+00 0.00000E+00
 -1      1168 4.03654E+00 1.13029E+00 0.00000E+00
 -1      1169 4.25997E+00 1.38134E+00 0.00000E+00
 -1      1170 3.92392E+00 1.37777E+00 0.00000E+00
 -1      1171 4.13304E+00 1.63814E+00 0.00000E+00
 -1      1172 3.79935E+00 1.65149E+00 0.00000E+00
 -1      1173 3.99311E+00 1.92124E+00 0.00000E+00
 -1      1174 3.66244E+00 1.95234E+00 0.00000E+00
 -1      1175 3.83932E+00 2.23239E+00 0.00000E+00
 -1      1176 3.51197E+00 2.28296E+00 0.00000E+00
 -1      1177 3.67031E+00 2.57431E+00 0.00000E+00
 -1      1178 3.34663E+00 2.64629E+00 0.00000E+00
 -1      1179 3.48461E+00 2.95003E+00 0.00000E+00
 -1      1180 3.16495E+00 3.04550E+00 0.00000E+00
 -1      1181 3.28057E+00 3.36283E+00 0.00000E+00
 -1      1182 2.96535E+00 3.48409E+00 0.00000E+00
 -1      1183 3.05642E+00 3.81633E+00 0.00000E+00
 -1      1184 2.74608E+00 3.96590E+00 0.00000E+00
 -1      1185 2.81020E+00 4.31447E+00 0.00000E+00
 -1      1186 2.50525E+00 4.49509E+00 0.00000E+00
 -1      1187 2.53978E+00 4.86157E+00 0.00000E+00
 -1      1188 2.24076E+00 5.07626E+00 0.00000E+00
 -1      1189 2.24284E+00 5.46235E+00 0.00000E+00
 -1      1190 1.95035E+00 5.71439E+00 0.00000E+00
 -1      1191 1.91682E+00 6.12194E+00 0.00000E+00
 -1      1192 1.63154E+00 6.41493E+00 0.00000E+00
 -1      1193 1.55895E+00 6.84598E+00 0.00000E+00
 -1      1194 1.28161E+00 7.18385E+00 0.00000E+00
 -1      1195 1.16620E+00 7.64058E+00 0.00000E+00
 -1      1196 8.97620E-01 8.02761E+00 0.00000E+00
 -1      1197 7.34857E-01 8.51325E+00 0.00000E+00
 -1      1198 4.75585E-01 8.95497E+00 0.00000E+00
 -1      1199 2.54505E-01 9.48509E+00 0.00000E+00
 -1      1200 4.74298E+00 1.19636E+00 0.00000E+00
 -1      1201 4.98599E+00 1.47618E+00 0.00000E+00
 -1      1202 4.62156E+00 1.42174E+00 0.00000E+00
 -1      1203 4.85420E+00 1.70148E+00 0.00000E+00
 -1      1204 4.49261E+00 1.66108E+00 0.00000E+00
 -1      1205 4.70957E+00 1.94875E+00 0.00000E+00
 -1      1206 4.34999E+00 1.92581E+00 0.00000E+00
 -1      1207 4.55012E+00 2.22134E+00 0.00000E+00
 -1      1208 4.19323E+00 2.21677E+00 0.00000E+00
 -1      1209 4.37488E+00 2.52092E+00 0.00000E+00
 -1      1210 4.02096E+00 2.53653E+00 0.00000E+00
 -1      1211 4.18230E+00 2.85014E+00 0.00000E+00
 -1      1212 3.83165E+00 2.88792E+00 0.00000E+00
 -1      1213 3.97069E+00 3.21190E+00 0.00000E+00
 -1      1214 3.62364E+00 3.27401E+00 0.00000E+00
 -1      1215 3.73819E+00 3.60937E+00 0.00000E+00
 -1      1216 3.39511E+00 3.69819E+00 0.00000E+00
 -1      1217 3.48276E+00 4.04603E+00 0.00000E+00
 -1      1218 3.14407E+00 4.16417E+00 0.00000E+00
 -1      1219 3.20220E+00 4.52567E+00 0.00000E+00
 -1      1220 2.86833E+00 4.67597E+00 0.00000E+00
 -1      1221 2.89406E+00 5.05244E+00 0.00000E+00
 -1      1222 2.56552E+00 5.23804E+00 0.00000E+00
 -1      1223 2.55570E+00 5.63090E+00 0.00000E+00
 -1      1224 2.23302E+00 5.85520E+00 0.00000E+00
 -1      1225 2.18420E+00 6.26600E+00 0.00000E+00
 -1      1226 1.86800E+00 6.53273E+00 0.00000E+00
 -1      1227 1.77641E+00 6.96314E+00 0.00000E+00
 -1      1228 1.46736E+00 7.27638E+00 0.00000E+00
 -1      1229 1.32887E+00 7.72822E+00 0.00000E+00
 -1      1230 1.02771E+00 8.09242E+00 0.00000E+00
 -1      1231 8.37365E-01 8.56848E+00 0.00000E+00
 -1      1232 5.44511E-01 8.98931E+00 0.00000E+00
 -1      1233 2.90006E-01 9.50422E+00 0.00000E+00
 -1      1234 5.37804E+00 1.56930E+00 0.00000E+00
 -1      1235 5.62774E+00 1.88556E+00 0.00000E+00
 -1      1236 5.23969E+00 1.78617E+00 0.00000E+00
 -1      1237 5.47899E+00 2.10004E+00 0.00000E+00
 -1      1238 5.09350E+00 2.01535E+00 0.00000E+00
 -1      1239 5.31573E+00 2.33543E+00 0.00000E+00
 -1      1240 4.93180E+00 2.26883E+00 0.00000E+00
 -1      1241 5.13576E+00 2.59492E+00 0.00000E+00
 -1      1242 4.75408E+00 2.54743E+00 0.00000E+00
 -1      1243 4.93796E+00 2.88012E+00 0.00000E+00
 -1      1244 4.55876E+00 2.85361E+00 0.00000E+00
 -1      1245 4.72060E+00 3.19353E+00 0.00000E+00
 -1      1246 4.34413E+00 3.19006E+00 0.00000E+00
 -1      1247 4.48175E+00 3.53792E+00 0.00000E+00
 -1      1248 4.10830E+00 3.55976E+00 0.00000E+00
 -1      1249 4.21933E+00 3.91630E+00 0.00000E+00
 -1      1250 3.84921E+00 3.96592E+00 0.00000E+00
 -1      1251 3.93103E+00 4.33198E+00 0.00000E+00
 -1      1252 3.56459E+00 4.41209E+00 0.00000E+00
 -1      1253 3.61436E+00 4.78858E+00 0.00000E+00
 -1      1254 3.25197E+00 4.90216E+00 0.00000E+00
 -1      1255 3.26656E+00 5.29006E+00 0.00000E+00
 -1      1256 2.90865E+00 5.44035E+00 0.00000E+00
 -1      1257 2.88464E+00 5.84074E+00 0.00000E+00
 -1      1258 2.53168E+00 6.03129E+00 0.00000E+00
 -1      1259 2.46533E+00 6.44533E+00 0.00000E+00
 -1      1260 2.11784E+00 6.68003E+00 0.00000E+00
 -1      1261 2.00505E+00 7.10899E+00 0.00000E+00
 -1      1262 1.66361E+00 7.39209E+00 0.00000E+00
 -1      1263 1.49991E+00 7.83733E+00 0.00000E+00
 -1      1264 1.16517E+00 8.17346E+00 0.00000E+00
 -1      1265 9.45142E-01 8.63723E+00 0.00000E+00
 -1      1266 6.17339E-01 9.03225E+00 0.00000E+00
 -1      1267 3.27333E-01 9.52803E+00 0.00000E+00
 -1      1268 6.04152E+00 2.03131E+00 0.00000E+00
 -1      1269 6.29358E+00 2.39037E+00 0.00000E+00
 -1      1270 5.88521E+00 2.23748E+00 0.00000E+00
 -1      1271 6.12722E+00 2.59150E+00 0.00000E+00
 -1      1272 5.72100E+00 2.45406E+00 0.00000E+00
 -1      1273 5.94466E+00 2.81225E+00 0.00000E+00
 -1      1274 5.53938E+00 2.69362E+00 0.00000E+00
 -1      1275 5.74339E+00 3.05560E+00 0.00000E+00
 -1      1276 5.33977E+00 2.95691E+00 0.00000E+00
 -1      1277 5.52219E+00 3.32306E+00 0.00000E+00
 -1      1278 5.12039E+00 3.24627E+00 0.00000E+00
 -1      1279 5.27911E+00 3.61697E+00 0.00000E+00
 -1      1280 4.87932E+00 3.56424E+00 0.00000E+00
 -1      1281 5.01200E+00 3.93993E+00 0.00000E+00
 -1      1282 4.61444E+00 3.91361E+00 0.00000E+00
 -1      1283 4.71853E+00 4.29477E+00 0.00000E+00
 -1      1284 4.32342E+00 4.29746E+00 0.00000E+00
 -1      1285 4.39612E+00 4.68460E+00 0.00000E+00
 -1      1286 4.00373E+00 4.71912E+00 0.00000E+00
 -1      1287 4.04198E+00 5.11279E+00 0.00000E+00
 -1      1288 3.65260E+00 5.18226E+00 0.00000E+00
 -1      1289 3.65304E+00 5.58307E+00 0.00000E+00
 -1      1290 3.26699E+00 5.69088E+00 0.00000E+00
 -1      1291 3.22593E+00 6.09949E+00 0.00000E+00
 -1      1292 2.84358E+00 6.24935E+00 0.00000E+00
 -1      1293 2.75701E+00 6.66647E+00 0.00000E+00
 -1      1294 2.37876E+00 6.86245E+00 0.00000E+00
 -1      1295 2.24227E+00 7.28884E+00 0.00000E+00
 -1      1296 1.86857E+00 7.53538E+00 0.00000E+00
 -1      1297 1.67737E+00 7.97187E+00 0.00000E+00
 -1      1298 1.30871E+00 8.27382E+00 0.00000E+00
 -1      1299 1.05697E+00 8.72201E+00 0.00000E+00
 -1      1300 6.93394E-01 9.08542E+00 0.00000E+00
 -1      1301 3.66061E-01 9.55739E+00 0.00000E+00
 -1      1302 6.72416E+00 2.59826E+00 0.00000E+00
 -1      1303 6.97231E+00 3.00697E+00 0.00000E+00
 -1      1304 6.54898E+00 2.79109E+00 0.00000E+00
 -1      1305 6.78802E+00 3.19181E+00 0.00000E+00
 -1      1306 6.36626E+00 2.99222E+00 0.00000E+00
 -1      1307 6.58576E+00 3.39467E+00 0.00000E+00
 -1      1308 6.16416E+00 3.21470E+00 0.00000E+00
 -1      1309 6.36279E+00 3.61830E+00 0.00000E+00
 -1      1310 5.94203E+00 3.45921E+00 0.00000E+00
 -1      1311 6.11774E+00 3.86408E+00 0.00000E+00
 -1      1312 5.69791E+00 3.72793E+00 0.00000E+00
 -1      1313 5.84844E+00 4.13418E+00 0.00000E+00
 -1      1314 5.42964E+00 4.02322E+00 0.00000E+00
 -1      1315 5.55253E+00 4.43097E+00 0.00000E+00
 -1      1316 5.13489E+00 4.34768E+00 0.00000E+00
 -1      1317 5.22740E+00 4.75706E+00 0.00000E+00
 -1      1318 4.81105E+00 4.70415E+00 0.00000E+00
 -1      1319 4.87023E+00 5.11530E+00 0.00000E+00
 -1      1320 4.45531E+00 5.09574E+00 0.00000E+00
 -1      1321 4.47789E+00 5.50880E+00 0.00000E+00
 -1      1322 4.06457E+00 5.52585E+00 0.00000E+00
 -1      1323 4.04700E+00 5.94097E+00 0.00000E+00
 -1      1324 3.63547E+00 5.99820E+00 0.00000E+00
 -1      1325 3.57384E+00 6.41555E+00 0.00000E+00
 -1      1326 3.16430E+00 6.51684E+00 0.00000E+00
 -1      1327 3.05434E+00 6.93658E+00 0.00000E+00
 -1      1328 2.64705E+00 7.08621E+00 0.00000E+00
 -1      1329 2.48409E+00 7.50853E+00 0.00000E+00
 -1      1330 2.07932E+00 7.71115E+00 0.00000E+00
 -1      1331 1.85827E+00 8.13621E+00 0.00000E+00
 -1      1332 1.45632E+00 8.39693E+00 0.00000E+00
 -1      1333 1.17095E+00 8.82557E+00 0.00000E+00
 -1      1334 7.71600E-01 9.15065E+00 0.00000E+00
 -1      1335 4.05539E-01 9.59326E+00 0.00000E+00
 -1      1336 7.41216E+00 3.28733E+00 0.00000E+00
 -1      1337 7.64769E+00 3.75272E+00 0.00000E+00
 -1      1338 7.21747E+00 3.46365E+00 0.00000E+00
 -1      1339 7.44554E+00 3.91785E+00 0.00000E+00
 -1      1340 7.01610E+00 3.64601E+00 0.00000E+00
 -1      1341 7.22369E+00 4.09908E+00 0.00000E+00
 -1      1342 6.79336E+00 3.84773E+00 0.00000E+00
 -1      1343 6.97913E+00 4.29886E+00 0.00000E+00
 -1      1344 6.54856E+00 4.06943E+00 0.00000E+00
 -1      1345 6.71034E+00 4.51843E+00 0.00000E+00
 -1      1346 6.27952E+00 4.31308E+00 0.00000E+00
 -1      1347 6.41495E+00 4.75973E+00 0.00000E+00
 -1      1348 5.98387E+00 4.58083E+00 0.00000E+00
 -1      1349 6.09037E+00 5.02487E+00 0.00000E+00
 -1      1350 5.65903E+00 4.87502E+00 0.00000E+00
 -1      1351 5.73376E+00 5.31618E+00 0.00000E+00
 -1      1352 5.30213E+00 5.19823E+00 0.00000E+00
 -1      1353 5.34199E+00 5.63622E+00 0.00000E+00
 -1      1354 4.91008E+00 5.55329E+00 0.00000E+00
 -1      1355 4.91165E+00 5.98775E+00 0.00000E+00
 -1      1356 4.47946E+00 5.94327E+00 0.00000E+00
 -1      1357 4.43902E+00 6.37384E+00 0.00000E+00
 -1      1358 4.00656E+00 6.37154E+00 0.00000E+00
 -1      1359 3.92002E+00 6.79780E+00 0.00000E+00
 -1      1360 3.48730E+00 6.84180E+00 0.00000E+00
 -1      1361 3.35020E+00 7.26327E+00 0.00000E+00
 -1      1362 2.91725E+00 7.35806E+00 0.00000E+00
 -1      1363 2.72472E+00 7.77422E+00 0.00000E+00
 -1      1364 2.29156E+00 7.92469E+00 0.00000E+00
 -1      1365 2.03827E+00 8.33497E+00 0.00000E+00
 -1      1366 1.60497E+00 8.54649E+00 0.00000E+00
 -1      1367 1.28438E+00 8.95081E+00 0.00000E+00
 -1      1368 8.50361E-01 9.22989E+00 0.00000E+00
 -1      1369 4.44822E-01 9.63663E+00 0.00000E+00
 -1      1370 8.08590E+00 4.11628E+00 0.00000E+00
 -1      1371 8.29702E+00 4.64509E+00 0.00000E+00
 -1      1372 7.87144E+00 4.27234E+00 0.00000E+00
 -1      1373 8.07771E+00 4.78663E+00 0.00000E+00
 -1      1374 7.65182E+00 4.43214E+00 0.00000E+00
 -1      1375 7.83703E+00 4.94197E+00 0.00000E+00
 -1      1376 7.40890E+00 4.60890E+00 0.00000E+00
 -1      1377 7.57169E+00 5.11321E+00 0.00000E+00
 -1      1378 7.14191E+00 4.80317E+00 0.00000E+00
 -1      1379 7.28008E+00 5.30142E+00 0.00000E+00
 -1      1380 6.84850E+00 5.01668E+00 0.00000E+00
 -1      1381 6.95962E+00 5.50825E+00 0.00000E+00
 -1      1382 6.52607E+00 5.25130E+00 0.00000E+00
 -1      1383 6.60748E+00 5.73552E+00 0.00000E+00
 -1      1384 6.17179E+00 5.50909E+00 0.00000E+00
 -1      1385 6.22058E+00 5.98522E+00 0.00000E+00
 -1      1386 5.78256E+00 5.79231E+00 0.00000E+00
 -1      1387 5.79555E+00 6.25954E+00 0.00000E+00
 -1      1388 5.35498E+00 6.10344E+00 0.00000E+00
 -1      1389 5.32867E+00 6.56086E+00 0.00000E+00
 -1      1390 4.88534E+00 6.44517E+00 0.00000E+00
 -1      1391 4.81591E+00 6.89180E+00 0.00000E+00
 -1      1392 4.36959E+00 6.82046E+00 0.00000E+00
 -1      1393 4.25285E+00 7.25520E+00 0.00000E+00
 -1      1394 3.80328E+00 7.23254E+00 0.00000E+00
 -1      1395 3.63465E+00 7.65419E+00 0.00000E+00
 -1      1396 3.18158E+00 7.68492E+00 0.00000E+00
 -1      1397 2.95606E+00 8.09215E+00 0.00000E+00
 -1      1398 2.49920E+00 8.18145E+00 0.00000E+00
 -1      1399 2.21133E+00 8.57280E+00 0.00000E+00
 -1      1400 1.75040E+00 8.72632E+00 0.00000E+00
 -1      1401 1.39343E+00 9.10068E+00 0.00000E+00
 -1      1402 9.27411E-01 9.32517E+00 0.00000E+00
 -1      1403 4.82590E-01 9.68854E+00 0.00000E+00
 -1      1404 8.71853E+00 5.10232E+00 0.00000E+00
 -1      1405 8.88972E+00 5.70018E+00 0.00000E+00
 -1      1406 8.48459E+00 5.23374E+00 0.00000E+00
 -1      1407 8.65475E+00 5.81383E+00 0.00000E+00
 -1      1408 8.24787E+00 5.36672E+00 0.00000E+00
 -1      1409 8.39687E+00 5.93856E+00 0.00000E+00
 -1      1410 7.98603E+00 5.51381E+00 0.00000E+00
 -1      1411 8.11258E+00 6.07607E+00 0.00000E+00
 -1      1412 7.69824E+00 5.67547E+00 0.00000E+00
 -1      1413 7.80014E+00 6.22719E+00 0.00000E+00
 -1      1414 7.38197E+00 5.85314E+00 0.00000E+00
 -1      1415 7.45678E+00 6.39327E+00 0.00000E+00
 -1      1416 7.03442E+00 6.04838E+00 0.00000E+00
 -1      1417 7.07949E+00 6.57576E+00 0.00000E+00
 -1      1418 6.65255E+00 6.26290E+00 0.00000E+00
 -1      1419 6.66496E+00 6.77626E+00 0.00000E+00
 -1      1420 6.23300E+00 6.49858E+00 0.00000E+00
 -1      1421 6.20956E+00 6.99653E+00 0.00000E+00
 -1      1422 5.77211E+00 6.75749E+00 0.00000E+00
 -1      1423 5.70933E+00 7.23848E+00 0.00000E+00
 -1      1424 5.26589E+00 7.04186E+00 0.00000E+00
 -1      1425 5.15994E+00 7.50422E+00 0.00000E+00
 -1      1426 4.70996E+00 7.35416E+00 0.00000E+00
 -1      1427 4.55665E+00 7.79602E+00 0.00000E+00
 -1      1428 4.09954E+00 7.69706E+00 0.00000E+00
 -1      1429 3.89429E+00 8.11639E+00 0.00000E+00
 -1      1430 3.42941E+00 8.07351E+00 0.00000E+00
 -1      1431 3.16723E+00 8.46806E+00 0.00000E+00
 -1      1432 2.69388E+00 8.48670E+00 0.00000E+00
 -1      1433 2.36930E+00 8.85401E+00 0.00000E+00
 -1      1434 1.88675E+00 8.94011E+00 0.00000E+00
 -1      1435 1.49297E+00 9.27787E+00 0.00000E+00
 -1      1436 9.99653E-01 9.43844E+00 0.00000E+00
 -1      1437 5.17064E-01 9.74990E+00 0.00000E+00
 -1      1438 9.27439E+00 6.26025E+00 0.00000E+00
 -1      1439 9.38583E+00 6.93050E+00 0.00000E+00
 -1      1440 9.02211E+00 6.36198E+00 0.00000E+00
 -1      1441 9.13774E+00 7.01164E+00 0.00000E+00
 -1      1442 8.77038E+00 6.46348E+00 0.00000E+00
 -1      1443 8.86547E+00 7.10068E+00 0.00000E+00
 -1      1444 8.49196E+00 6.57576E+00 0.00000E+00
 -1      1445 8.56532E+00 7.19884E+00 0.00000E+00
 -1      1446 8.18594E+00 6.69915E+00 0.00000E+00
 -1      1447 8.23544E+00 7.30672E+00 0.00000E+00
 -1      1448 7.84963E+00 6.83476E+00 0.00000E+00
 -1      1449 7.87292E+00 7.42528E+00 0.00000E+00
 -1      1450 7.48007E+00 6.98378E+00 0.00000E+00
 -1      1451 7.47458E+00 7.55555E+00 0.00000E+00
 -1      1452 7.07400E+00 7.14752E+00 0.00000E+00
 -1      1453 7.03691E+00 7.69868E+00 0.00000E+00
 -1      1454 6.62787E+00 7.32742E+00 0.00000E+00
 -1      1455 6.55609E+00 7.85593E+00 0.00000E+00
 -1      1456 6.13778E+00 7.52504E+00 0.00000E+00
 -1      1457 6.02795E+00 8.02865E+00 0.00000E+00
 -1      1458 5.59949E+00 7.74209E+00 0.00000E+00
 -1      1459 5.44790E+00 8.21834E+00 0.00000E+00
 -1      1460 5.00834E+00 7.98047E+00 0.00000E+00
 -1      1461 4.81094E+00 8.42665E+00 0.00000E+00
 -1      1462 4.35925E+00 8.24220E+00 0.00000E+00
 -1      1463 4.11162E+00 8.65535E+00 0.00000E+00
 -1      1464 3.64667E+00 8.52954E+00 0.00000E+00
 -1      1465 3.34398E+00 8.90640E+00 0.00000E+00
 -1      1466 2.86454E+00 8.84492E+00 0.00000E+00
 -1      1467 2.50152E+00 9.18191E+00 0.00000E+00
 -1      1468 2.00628E+00 9.19100E+00 0.00000E+00
 -1      1469 1.57629E+00 9.48450E+00 0.00000E+00
 -1      1470 1.06298E+00 9.57137E+00 0.00000E+00
 -1      1471 5.45919E-01 9.82147E+00 0.00000E+00
 -1      1472 9.70830E+00 7.60229E+00 0.00000E+00
 -1      1473 9.73566E+00 8.34697E+00 0.00000E+00
 -1      1474 9.43972E+00 7.66862E+00 0.00000E+00
 -1      1475 9.47833E+00 8.39066E+00 0.00000E+00
 -1      1476 9.17635E+00 7.73367E+00 0.00000E+00
 -1      1477 9.19591E+00 8.43861E+00 0.00000E+00
 -1      1478 8.88503E+00 7.80562E+00 0.00000E+00
 -1      1479 8.88457E+00 8.49148E+00 0.00000E+00
 -1      1480 8.56485E+00 7.88470E+00 0.00000E+00
 -1      1481 8.54239E+00 8.54957E+00 0.00000E+00
 -1      1482 8.21298E+00 7.97160E+00 0.00000E+00
 -1      1483 8.16636E+00 8.61342E+00 0.00000E+00
 -1      1484 7.82631E+00 8.06710E+00 0.00000E+00
 -1      1485 7.75317E+00 8.68358E+00 0.00000E+00
 -1      1486 7.40144E+00 8.17203E+00 0.00000E+00
 -1      1487 7.29919E+00 8.76066E+00 0.00000E+00
 -1      1488 6.93466E+00 8.28731E+00 0.00000E+00
 -1      1489 6.80045E+00 8.84534E+00 0.00000E+00
 -1      1490 6.42189E+00 8.41395E+00 0.00000E+00
 -1      1491 6.25263E+00 8.93836E+00 0.00000E+00
 -1      1492 5.85868E+00 8.55305E+00 0.00000E+00
 -1      1493 5.65096E+00 9.04052E+00 0.00000E+00
 -1      1494 5.24017E+00 8.70581E+00 0.00000E+00
 -1      1495 4.99026E+00 9.15270E+00 0.00000E+00
 -1      1496 4.56103E+00 8.87354E+00 0.00000E+00
 -1      1497 4.26487E+00 9.27586E+00 0.00000E+00
 -1      1498 3.81546E+00 9.05768E+00 0.00000E+00
 -1      1499 3.46862E+00 9.41106E+00 0.00000E+00
 -1      1500 2.99713E+00 9.25978E+00 0.00000E+00
 -1      1501 2.59476E+00 9.55943E+00 0.00000E+00
 -1      1502 2.09914E+00 9.48156E+00 0.00000E+00
 -1      1503 1.63504E+00 9.72238E+00 0.00000E+00
 -1      1504 1.11219E+00 9.72532E+00 0.00000E+00
 -1      1505 5.66267E-01 9.90385E+00 0.00000E+00
 -1      1506 9.96466E+00 9.16005E+00 0.00000E+00
 -1      1507 9.87500E+00 1.00000E+01 0.00000E+00
 -1      1508 9.68121E+00 9.18395E+00 0.00000E+00
 -1      1509 9.61398E+00 1.00000E+01 0.00000E+00
 -1      1510 9.41110E+00 9.20671E+00 0.00000E+00
 -1      1511 9.32752E+00 1.00000E+01 0.00000E+00
 -1      1512 9.11233E+00 9.23190E+00 0.00000E+00
 -1      1513 9.01172E+00 1.00000E+01 0.00000E+00
 -1      1514 8.78396E+00 9.25958E+00 0.00000E+00
 -1      1515 8.66465E+00 1.00000E+01 0.00000E+00
 -1      1516 8.42308E+00 9.29000E+00 0.00000E+00
 -1      1517 8.28324E+00 1.00000E+01 0.00000E+00
 -1      1518 8.02652E+00 9.32342E+00 0.00000E+00
 -1      1519 7.86413E+00 1.00000E+01 0.00000E+00
 -1      1520 7.59078E+00 9.36015E+00 0.00000E+00
 -1      1521 7.40366E+00 1.00000E+01 0.00000E+00
 -1      1522 7.11206E+00 9.40051E+00 0.00000E+00
 -1      1523 6.89778E+00 1.00000E+01 0.00000E+00
 -1      1524 6.58618E+00 9.44483E+00 0.00000E+00
 -1      1525 6.34211E+00 1.00000E+01 0.00000E+00
 -1      1526 6.00856E+00 9.49352E+00 0.00000E+00
 -1      1527 5.73183E+00 1.00000E+01 0.00000E+00
 -1      1528 5.37423E+00 9.54699E+00 0.00000E+00
 -1      1529 5.06168E+00 1.00000E+01 0.00000E+00
 -1      1530 4.67771E+00 9.60570E+00 0.00000E+00
 -1      1531 4.32591E+00 1.00000E+01 0.00000E+00
 -1      1532 3.91307E+00 9.67016E+00 0.00000E+00
 -1      1533 3.51826E+00 1.00000E+01 0.00000E+00
 -1      1534 3.07381E+00 9.74090E+00 0.00000E+00
 -1      1535 2.63189E+00 1.00000E+01 0.00000E+00
 -1      1536 2.15284E+00 9.81853E+00 0.00000E+00
 -1      1537 1.65844E+00 1.00000E+01 0.00000E+00
 -1      1538 1.14064E+00 9.90385E+00 0.00000E+00
 -1      1539 5.74372E-01 1.00000E+01 0.00000E+00
 -1      1540 3.79649E+01 0.00000E+00 0.00000E+00
 -1      1541 3.59299E+01-2.50000E-01 0.00000E+00
 -1      1542 3.79649E+01-5.00000E-01 0.00000E+00
 -1      1543 4.00000E+01-2.50000E-01 0.00000E+00
 -1      1544 3.59299E+01-7.72033E-01 0.00000E+00
 -1      1545 3.79649E+01-1.04407E+00 0.00000E+00
 -1      1546 4.00000E+01-7.72033E-01 0.00000E+00
 -1      1547 3.59299E+01-1.34496E+00 0.00000E+00
 -1      1548 3.79649E+01-1.64585E+00 0.00000E+00
 -1      1549 4.00000E+01-1.34496E+00 0.00000E+00
 -1      1550 3.59299E+01-1.97655E+00 0.00000E+00
 -1      1551 3.79649E+01-2.30726E+00 0.00000E+00
 -1      1552 4.00000E+01-1.97655E+00 0.00000E+00
 -1      1553 3.59299E+01-2.67070E+00 0.00000E+00
 -1      1554 3.79649E+01-3.03414E+00 0.00000E+00
 -1      1555 4.00000E+01-2.67070E+00 0.00000E+00
 -1      1556 3.59299E+01-3.43352E+00 0.00000E+00
 -1      1557 3.79649E+01-3.83290E+00 0.00000E+00
 -1      1558 4.00000E+01-3.43352E+00 0.00000E+00
 -1      1559 3.59299E+01-4.27173E+00 0.00000E+00
 -1      1560 3.79649E+01-4.71056E+00 0.00000E+00
 -1      1561 4.00000E+01-4.27173E+00 0.00000E+00
 -1      1562 3.59299E+01-5.19269E+00 0.00000E+00
 -1      1563 3.79649E+01-5.67481E+00 0.00000E+00
 -1      1564 4.00000E+01-5.19269E+00 0.00000E+00
 -1      1565 3.59299E+01-6.20443E+00 0.00000E+00
 -1      1566 3.79649E+01-6.73405E+00 0.00000E+00
 -1      1567 4.00000E+01-6.20443E+00 0.00000E+00
 -1      1568 3.59299E+01-7.31577E+00 0.00000E+00
 -1      1569 3.79649E+01-7.89749E+00 0.00000E+00
 -1      1570 4.00000E+01-7.31577E+00 0.00000E+00
 -1      1571 3.59299E+01-8.53633E+00 0.00000E+00
 -1      1572 3.79649E+01-9.17518E+00 0.00000E+00
 -1      1573 4.00000E+01-8.53633E+00 0.00000E+00
 -1      1574 3.59299E+01-9.87664E+00 0.00000E+00
 -1      1575 3.79649E+01-1.05781E+01 0.00000E+00
 -1      1576 4.00000E+01-9.87664E+00 0.00000E+00
 -1      1577 3.59299E+01-1.13482E+01 0.00000E+00
 -1      1578 3.79649E+01-1.21182E+01 0.00000E+00
 -1      1579 4.00000E+01-1.13482E+01 0.00000E+00
 -1      1580 3.59299E+01-1.29635E+01 0.00000E+00
 -1      1581 3.79649E+01-1.38087E+01 0.00000E+00
 -1      1582 4.00000E+01-1.29635E+01 0.00000E+00
 -1      1583 3.59299E+01-1.47362E+01 0.00000E+00
 -1      1584 3.79649E+01-1.56637E+01 0.00000E+00
 -1      1585 4.00000E+01-1.47362E+01 0.00000E+00
 -1      1586 3.59299E+01-1.66831E+01 0.00000E+00
 -1      1587 3.79649E+01-1.77025E+01 0.00000E+00
 -1      1588 4.00000E+01-1.66831E+01 0.00000E+00
 -1      1589 3.59299E+01-1.88513E+01 0.00000E+00
 -1      1590 3.79649E+01-2.00000E+01 0.00000E+00
 -1      1591 4.00000E+01-1.88513E+01 0.00000E+00
 -1      1592 3.40583E+01 0.00000E+00 0.00000E+00
 -1      1593 3.21866E+01-2.50000E-01 0.00000E+00
 -1      1594 3.40583E+01-5.00000E-01 0.00000E+00
 -1      1595 3.21866E+01-7.72033E-01 0.00000E+00
 -1      1596 3.40583E+01-1.04407E+00 0.00000E+00
 -1      1597 3.21866E+01-1.34496E+00 0.00000E+00
 -1      1598 3.40583E+01-1.64585E+00 0.00000E+00
 -1      1599 3.21866E+01-1.97655E+00 0.00000E+00
 -1      1600 3.40583E+01-2.30726E+00 0.00000E+00
 -1      1601 3.21866E+01-2.67070E+00 0.00000E+00
 -1      1602 3.40583E+01-3.03414E+00 0.00000E+00
 -1      1603 3.21866E+01-3.43352E+00 0.00000E+00
 -1      1604 3.40583E+01-3.83290E+00 0.00000E+00
 -1      1605 3.21866E+01-4.27173E+00 0.00000E+00
 -1      1606 3.40583E+01-4.71056E+00 0.00000E+00
 -1      1607 3.21866E+01-5.19269E+00 0.00000E+00
 -1      1608 3.40583E+01-5.67481E+00 0.00000E+00
 -1      1609 3.21866E+01-6.20443E+00 0.00000E+00
 -1      1610 3.40583E+01-6.73405E+00 0.00000E+00
 -1      1611 3.21866E+01-7.31577E+00 0.00000E+00
 -1      1612 3.40583E+01-7.89749E+00 0.00000E+00
 -1      1613 3.21866E+01-8.53633E+00 0.00000E+00
 -1      1614 3.40583E+01-9.17518E+00 0.00000E+00
 -1      1615 3.21866E+01-9.87664E+00 0.00000E+00
 -1      1616 3.40583E+01-1.05781E+01 0.00000E+00
 -1      1617 3.21866E+01-1.13482E+01 0.00000E+00
 -1      1618 3.40583E+01-1.21182E+01 0.00000E+00
 -1      1619 3.21866E+01-1.29635E+01 0.00000E+00
 -1      1620 3.40583E+01-1.38087E+01 0.00000E+00
 -1      1621 3.21866E+01-1.47362E+01 0.00000E+00
 -1      1622 3.40583E+01-1.56637E+01 0.00000E+00
 -1      1623 3.21866E+01-1.66831E+01 0.00000E+00
 -1      1624 3.40583E+01-1.77025E+01 0.00000E+00
 -1      1625 3.21866E+01-1.88513E+01 0.00000E+00
 -1      1626 3.40583E+01-2.00000E+01 0.00000E+00
 -1      1627 3.04876E+01 0.00000E+00 0.00000E+00
 -1      1628 2.87886E+01-2.50000E-01 0.00000E+00
 -1      1629 3.04876E+01-5.00000E-01 0.00000E+00
 -1      1630 2.87886E+01-7.72033E-01 0.00000E+00
 -1      1631 3.04876E+01-1.04407E+00 0.00000E+00
 -1      1632 2.87886E+01-1.34496E+00 0.00000E+00
 -1      1633 3.04876E+01-1.64585E+00 0.00000E+00
 -1      1634 2.87886E+01-1.97655E+00 0.00000E+00
 -1      1635 3.04876E+01-2.30726E+00 0.00000E+00
 -1      1636 2.87886E+01-2.67070E+00 0.00000E+00
 -1      1637 3.04876E+01-3.03414E+00 0.00000E+00
 -1      1638 2.87886E+01-3.43352E+00 0.00000E+00
 -1      1639 3.04876E+01-3.83290E+00 0.00000E+00
 -1      1640 2.87886E+01-4.27173E+00 0.00000E+00
 -1      1641 3.04876E+01-4.71056E+00 0.00000E+00
 -1      1642 2.87886E+01-5.19269E+00 0.00000E+00
 -1      1643 3.04876E+01-5.67481E+00 0.00000E+00
 -1      1644 2.87886E+01-6.20443E+00 0.00000E+00
 -1      1645 3.04876E+01-6.73405E+00 0.00000E+00
 -1      1646 2.87886E+01-7.31577E+00 0.00000E+00
 -1      1647 3.04876E+01-7.89749E+00 0.00000E+00
 -1      1648 2.87886E+01-8.53633E+00 0.00000E+00
 -1      1649 3.04876E+01-9.17518E+00 0.00000E+00
 -1      1650 2.87886E+01-9.87664E+00 0.00000E+00
 -1      1651 3.04876E+01-1.05781E+01 0.00000E+00
 -1      1652 2.87886E+01-1.13482E+01 0.00000E+00
 -1      1653 3.04876E+01-1.21182E+01 0.00000E+00
 -1      1654 2.87886E+01-1.29635E+01 0.00000E+00
 -1      1655 3.04876E+01-1.38087E+01 0.00000E+00
 -1      1656 2.87886E+01-1.47362E+01 0.00000E+00
 -1      1657 3.04876E+01-1.56637E+01 0.00000E+00
 -1      1658 2.87886E+01-1.66831E+01 0.00000E+00
 -1      1659 3.04876E+01-1.77025E+01 0.00000E+00
 -1      1660 2.87886E+01-1.88513E+01 0.00000E+00
 -1      1661 3.04876E+01-2.00000E+01 0.00000E+00
 -1      1662 2.72455E+01 0.00000E+00 0.00000E+00
 -1      1663 2.57024E+01-2.50000E-01 0.00000E+00
 -1      1664 2.72455E+01-5.00000E-01 0.00000E+00
 -1      1665 2.57024E+01-7.72033E-01 0.00000E+00
 -1      1666 2.72455E+01-1.04407E+00 0.00000E+00
 -1      1667 2.57024E+01-1.34496E+00 0.00000E+00
 -1      1668 2.72455E+01-1.64585E+00 0.00000E+00
 -1      1669 2.57024E+01-1.97655E+00 0.00000E+00
 -1      1670 2.72455E+01-2.30726E+00 0.00000E+00
 -1      1671 2.57024E+01-2.67070E+00 0.00000E+00
 -1      1672 2.72455E+01-3.03414E+00 0.00000E+00
 -1      1673 2.57024E+01-3.43352E+00 0.00000E+00
 -1      1674 2.72455E+01-3.83290E+00 0.00000E+00
 -1      1675 2.57024E+01-4.27173E+00 0.00000E+00
 -1      1676 2.72455E+01-4.71056E+00 0.00000E+00
 -1      1677 2.57024E+01-5.19269E+00 0.00000E+00
 -1      1678 2.72455E+01-5.67481E+00 0.00000E+00
 -1      1679 2.57024E+01-6.20443E+00 0.00000E+00
 -1      1680 2.72455E+01-6.73405E+00 0.00000E+00
 -1      1681 2.57024E+01-7.31577E+00 0.00000E+00
 -1      1682 2.72455E+01-7.89749E+00 0.00000E+00
 -1      1683 2.57024E+01-8.53633E+00 0.00000E+00
 -1      1684 2.72455E+01-9.17518E+00 0.00000E+00
 -1      1685 2.57024E+01-9.87664E+00 0.00000E+00
 -1      1686 2.72455E+01-1.05781E+01 0.00000E+00
 -1      1687 2.57024E+01-1.13482E+01 0.00000E+00
 -1      1688 2.72455E+01-1.21182E+01 0.00000E+00
 -1      1689 2.57024E+01-1.29635E+01 0.00000E+00
 -1      1690 2.72455E+01-1.38087E+01 0.00000E+00
 -1      1691 2.57024E+01-1.47362E+01 0.00000E+00
 -1      1692 2.72455E+01-1.56637E+01 0.00000E+00
 -1      1693 2.57024E+01-1.66831E+01 0.00000E+00
 -1      1694 2.72455E+01-1.77025E+01 0.00000E+00
 -1      1695 2.57024E+01-1.88513E+01 0.00000E+00
 -1      1696 2.72455E+01-2.00000E+01 0.00000E+00
 -1      1697 2.43009E+01 0.00000E+00 0.00000E+00
 -1      1698 2.28994E+01-2.50000E-01 0.00000E+00
 -1      1699 2.43009E+01-5.00000E-01 0.00000E+00
 -1      1700 2.28994E+01-7.72033E-01 0.00000E+00
 -1      1701 2.43009E+01-1.04407E+00 0.00000E+00
 -1      1702 2.28994E+01-1.34496E+00 0.00000E+00
 -1      1703 2.43009E+01-1.64585E+00 0.00000E+00
 -1      1704 2.28994E+01-1.97655E+00 0.00000E+00
 -1      1705 2.43009E+01-2.30726E+00 0.00000E+00
 -1      1706 2.28994E+01-2.67070E+00 0.00000E+00
 -1      1707 2.43009E+01-3.03414E+00 0.00000E+00
 -1      1708 2.28994E+01-3.43352E+00 0.00000E+00
 -1      1709 2.43009E+01-3.83290E+00 0.00000E+00
 -1      1710 2.28994E+01-4.27173E+00 0.00000E+00
 -1      1711 2.43009E+01-4.71056E+00 0.00000E+00
 -1      1712 2.28994E+01-5.19269E+00 0.00000E+00
 -1      1713 2.43009E+01-5.67481E+00 0.00000E+00
 -1      1714 2.28994E+01-6.20443E+00 0.00000E+00
 -1      1715 2.43009E+01-6.73405E+00 0.00000E+00
 -1      1716 2.28994E+01-7.31577E+00 0.00000E+00
 -1      1717 2.43009E+01-7.89749E+00 0.00000E+00
 -1      1718 2.28994E+01-8.53633E+00 0.00000E+00
 -1      1719 2.43009E+01-9.17518E+00 0.00000E+00
 -1      1720 2.28994E+01-9.87664E+00 0.00000E+00
 -1      1721 2.43009E+01-1.05781E+01 0.00000E+00
 -1      1722 2.28994E+01-1.13482E+01 0.00000E+00
 -1      1723 2.43009E+01-1.21182E+01 0.00000E+00
 -1      1724 2.28994E+01-1.29635E+01 0.00000E+00
 -1      1725 2.43009E+01-1.38087E+01 0.00000E+00
 -1      1726 2.28994E+01-1.47362E+01 0.00000E+00
 -1      1727 2.43009E+01-1.56637E+01 0.00000E+00
 -1      1728 2.28994E+01-1.66831E+01 0.00000E+00
 -1      1729 2.43009E+01-1.77025E+01 0.00000E+00
 -1      1730 2.28994E+01-1.88513E+01 0.00000E+00
 -1      1731 2.43009E+01-2.00000E+01 0.00000E+00
 -1      1732 2.16263E+01 0.00000E+00 0.00000E+00
 -1      1733 2.03532E+01-2.50000E-01 0.00000E+00
 -1      1734 2.16263E+01-5.00000E-01 0.00000E+00
 -1      1735 2.03532E+01-7.72033E-01 0.00000E+00
 -1      1736 2.16263E+01-1.04407E+00 0.00000E+00
 -1      1737 2.03532E+01-1.34496E+00 0.00000E+00
 -1      1738 2.16263E+01-1.64585E+00 0.00000E+00
 -1      1739 2.03532E+01-1.97655E+00 0.00000E+00
 -1      1740 2.16263E+01-2.30726E+00 0.00000E+00
 -1      1741 2.03532E+01-2.67070E+00 0.00000E+00
 -1      1742 2.16263E+01-3.03414E+00 0.00000E+00
 -1      1743 2.03532E+01-3.43352E+00 0.00000E+00
 -1      1744 2.16263E+01-3.83290E+00 0.00000E+00
 -1      1745 2.03532E+01-4.27173E+00 0.00000E+00
 -1      1746 2.16263E+01-4.71056E+00 0.00000E+00
 -1      1747 2.03532E+01-5.19269E+00 0.00000E+00
 -1      1748 2.16263E+01-5.67481E+00 0.00000E+00
 -1      1749 2.03532E+01-6.20443E+00 0.00000E+00
 -1      1750 2.16263E+01-6.73405E+00 0.00000E+00
 -1      1751 2.03532E+01-7.31577E+00 0.00000E+00
 -1      1752 2.16263E+01-7.89749E+00 0.00000E+00
 -1      1753 2.03532E+01-8.53633E+00 0.00000E+00
 -1      1754 2.16263E+01-9.17518E+00 0.00000E+00
 -1      1755 2.03532E+01-9.87664E+00 0.00000E+00
 -1      1756 2.16263E+01-1.05781E+01 0.00000E+00
 -1      1757 2.03532E+01-1.13482E+01 0.00000E+00
 -1      1758 2.16263E+01-1.21182E+01 0.00000E+00
 -1      1759 2.03532E+01-1.29635E+01 0.00000E+00
 -1      1760 2.16263E+01-1.38087E+01 0.00000E+00
 -1      1761 2.03532E+01-1.47362E+01 0.00000E+00
 -1      1762 2.16263E+01-1.56637E+01 0.00000E+00
 -1      1763 2.03532E+01-1.66831E+01 0.00000E+00
 -1      1764 2.16263E+01-1.77025E+01 0.00000E+00
 -1      1765 2.03532E+01-1.88513E+01 0.00000E+00
 -1      1766 2.16263E+01-2.00000E+01 0.00000E+00
 -1      1767 1.91967E+01 0.00000E+00 0.00000E+00
 -1      1768 1.80402E+01-2.50000E-01 0.00000E+00
 -1      1769 1.91967E+01-5.00000E-01 0.00000E+00
 -1      1770 1.80402E+01-7.72033E-01 0.00000E+00
 -1      1771 1.91967E+01-1.04407E+00 0.00000E+00
 -1      1772 1.80402E+01-1.34496E+00 0.00000E+00
 -1      1773 1.91967E+01-1.64585E+00 0.00000E+00
 -1      1774 1.80402E+01-1.97655E+00 0.00000E+00
 -1      1775 1.91967E+01-2.30726E+00 0.00000E+00
 -1      1776 1.80402E+01-2.67070E+00 0.00000E+00
 -1      1777 1.91967E+01-3.03414E+00 0.00000E+00
 -1      1778 1.80402E+01-3.43352E+00 0.00000E+00
 -1      1779 1.91967E+01-3.83290E+00 0.00000E+00
 -1      1780 1.80402E+01-4.27173E+00 0.00000E+00
 -1      1781 1.91967E+01-4.71056E+00 0.00000E+00
 -1      1782 1.80402E+01-5.19269E+00 0.00000E+00
 -1      1783 1.91967E+01-5.67481E+00 0.00000E+00
 -1      1784 1.80402E+01-6.20443E+00 0.00000E+00
 -1      1785 1.91967E+01-6.73405E+00 0.00000E+00
 -1      1786 1.80402E+01-7.31577E+00 0.00000E+00
 -1      1787 1.91967E+01-7.89749E+00 0.00000E+00
 -1      1788 1.80402E+01-8.53633E+00 0.00000E+00
 -1      1789 1.91967E+01-9.17518E+00 0.00000E+00
 -1      1790 1.80402E+01-9.87664E+00 0.00000E+00
 -1      1791 1.91967E+01-1.05781E+01 0.00000E+00
 -1      1792 1.80402E+01-1.13482E+01 0.00000E+00
 -1      1793 1.91967E+01-1.21182E+01 0.00000E+00
 -1      1794 1.80402E+01-1.29635E+01 0.00000E+00
 -1      1795 1.91967E+01-1.38087E+01 0.00000E+00
 -1      1796 1.80402E+01-1.47362E+01 0.00000E+00
 -1      1797 1.91967E+01-1.56637E+01 0.00000E+00
 -1      1798 1.80402E+01-1.66831E+01 0.00000E+00
 -1      1799 1.91967E+01-1.77025E+01 0.00000E+00
 -1      1800 1.80402E+01-1.88513E+01 0.00000E+00
 -1      1801 1.91967E+01-2.00000E+01 0.00000E+00
 -1      1802 1.69896E+01 0.00000E+00 0.00000E+00
 -1      1803 1.59389E+01-2.50000E-01 0.00000E+00
 -1      1804 1.69896E+01-5.00000E-01 0.00000E+00
 -1      1805 1.59389E+01-7.72033E-01 0.00000E+00
 -1      1806 1.69896E+01-1.04407E+00 0.00000E+00
 -1      1807 1.59389E+01-1.34496E+00 0.00000E+00
 -1      1808 1.69896E+01-1.64585E+00 0.00000E+00
 -1      1809 1.59389E+01-1.97655E+00 0.00000E+00
 -1      1810 1.69896E+01-2.30726E+00 0.00000E+00
 -1      1811 1.59389E+01-2.67070E+00 0.00000E+00
 -1      1812 1.69896E+01-3.03414E+00 0.00000E+00
 -1      1813 1.59389E+01-3.43352E+00 0.00000E+00
 -1      1814 1.69896E+01-3.83290E+00 0.00000E+00
 -1      1815 1.59389E+01-4.27173E+00 0.00000E+00
 -1      1816 1.69896E+01-4.71056E+00 0.00000E+00
 -1      1817 1.59389E+01-5.19269E+00 0.00000E+00
 -1      1818 1.69896E+01-5.67481E+00 0.00000E+00
 -1      1819 1.59389E+01-6.20443E+00 0.00000E+00
 -1      1820 1.69896E+01-6.73405E+00 0.00000E+00
 -1      1821 1.59389E+01-7.31577E+00 0.00000E+00
 -1      1822 1.69896E+01-7.89749E+00 0.00000E+00
 -1      1823 1.59389E+01-8.53633E+00 0.00000E+00
 -1      1824 1.69896E+01-9.17518E+00 0.00000E+00
 -1      1825 1.59389E+01-9.87664E+00 0.00000E+00
 -1      1826 1.69896E+01-1.05781E+01 0.00000E+00
 -1      1827 1.59389E+01-1.13482E+01 0.00000E+00
 -1      1828 1.69896E+01-1.21182E+01 0.00000E+00
 -1      1829 1.59389E+01-1.29635E+01 0.00000E+00
 -1      1830 1.69896E+01-1.38087E+01 0.00000E+00
 -1      1831 1.59389E+01-1.47362E+01 0.00000E+00
 -1      1832 1.69896E+01-1.56637E+01 0.00000E+00
 -1      1833 1.59389E+01-1.66831E+01 0.00000E+00
 -1      1834 1.69896E+01-1.77025E+01 0.00000E+00
 -1      1835 1.59389E+01-1.88513E+01 0.00000E+00
 -1      1836 1.69896E+01-2.00000E+01 0.00000E+00
 -1      1837 1.49844E+01 0.00000E+00 0.00000E+00
 -1      1838 1.40298E+01-2.50000E-01 0.00000E+00
 -1      1839 1.49844E+01-5.00000E-01 0.00000E+00
 -1      1840 1.40298E+01-7.72033E-01 0.00000E+00
 -1      1841 1.49844E+01-1.04407E+00 0.00000E+00
 -1      1842 1.40298E+01-1.34496E+00 0.00000E+00
 -1      1843 1.49844E+01-1.64585E+00 0.00000E+00
 -1      1844 1.40298E+01-1.97655E+00 0.00000E+00
 -1      1845 1.49844E+01-2.30726E+00 0.00000E+00
 -1      1846 1.40298E+01-2.67070E+00 0.00000E+00
 -1      1847 1.49844E+01-3.03414E+00 0.00000E+00
 -1      1848 1.40298E+01-3.43352E+00 0.00000E+00
 -1      1849 1.49844E+01-3.83290E+00 0.00000E+00
 -1      1850 1.40298E+01-4.27173E+00 0.00000E+00
 -1      1851 1.49844E+01-4.71056E+00 0.00000E+00
 -1      1852 1.40298E+01-5.19269E+00 0.00000E+00
 -1      1853 1.49844E+01-5.67481E+00 0.00000E+00
 -1      1854 1.40298E+01-6.20443E+00 0.00000E+00
 -1      1855 1.49844E+01-6.73405E+00 0.00000E+00
 -1      1856 1.40298E+01-7.31577E+00 0.00000E+00
 -1      1857 1.49844E+01-7.89749E+00 0.00000E+00
 -1      1858 1.40298E+01-8.53633E+00 0.00000E+00
 -1      1859 1.49844E+01-9.17518E+00 0.00000E+00
 -1      1860 1.40298E+01-9.87664E+00 0.00000E+00
 -1      1861 1.49844E+01-1.05781E+01 0.00000E+00
 -1      1862 1.40298E+01-1.13482E+01 0.00000E+00
 -1      1863 1.49844E+01-1.21182E+01 0.00000E+00
 -1      1864 1.40298E+01-1.29635E+01 0.00000E+00
 -1      1865 1.49844E+01-1.38087E+01 0.00000E+00
 -1      1866 1.40298E+01-1.47362E+01 0.00000E+00
 -1      1867 1.49844E+01-1.56637E+01 0.00000E+00
 -1      1868 1.40298E+01-1.66831E+01 0.00000E+00
 -1      1869 1.49844E+01-1.77025E+01 0.00000E+00
 -1      1870 1.40298E+01-1.88513E+01 0.00000E+00
 -1      1871 1.49844E+01-2.00000E+01 0.00000E+00
 -1      1872 1.31625E+01 0.00000E+00 0.00000E+00
 -1      1873 1.22952E+01-2.50000E-01 0.00000E+00
 -1      1874 1.31625E+01-5.00000E-01 0.00000E+00
 -1      1875 1.22952E+01-7.72033E-01 0.00000E+00
 -1      1876 1.31625E+01-1.04407E+00 0.00000E+00
 -1      1877 1.22952E+01-1.34496E+00 0.00000E+00
 -1      1878 1.31625E+01-1.64585E+00 0.00000E+00
 -1      1879 1.22952E+01-1.97655E+00 0.00000E+00
 -1      1880 1.31625E+01-2.30726E+00 0.00000E+00
 -1      1881 1.22952E+01-2.67070E+00 0.00000E+00
 -1      1882 1.31625E+01-3.03414E+00 0.00000E+00
 -1      1883 1.22952E+01-3.43352E+00 0.00000E+00
 -1      1884 1.31625E+01-3.83290E+00 0.00000E+00
 -1      1885 1.22952E+01-4.27173E+00 0.00000E+00
 -1      1886 1.31625E+01-4.71056E+00 0.00000E+00
 -1      1887 1.22952E+01-5.19269E+00 0.00000E+00
 -1      1888 1.31625E+01-5.67481E+00 0.00000E+00
 -1      1889 1.22952E+01-6.20443E+00 0.00000E+00
 -1      1890 1.31625E+01-6.73405E+00 0.00000E+00
 -1      1891 1.22952E+01-7.31577E+00 0.00000E+00
 -1      1892 1.31625E+01-7.89749E+00 0.00000E+00
 -1      1893 1.22952E+01-8.53633E+00 0.00000E+00
 -1      1894 1.31625E+01-9.17518E+00 0.00000E+00
 -1      1895 1.22952E+01-9.87664E+00 0.00000E+00
 -1      1896 1.31625E+01-1.05781E+01 0.00000E+00
 -1      1897 1.22952E+01-1.13482E+01 0.00000E+00
 -1      1898 1.31625E+01-1.21182E+01 0.00000E+00
 -1      1899 1.22952E+01-1.29635E+01 0.00000E+00
 -1      1900 1.31625E+01-1.38087E+01 0.00000E+00
 -1      1901 1.22952E+01-1.47362E+01 0.00000E+00
 -1      1902 1.31625E+01-1.56637E+01 0.00000E+00
 -1      1903 1.22952E+01-1.66831E+01 0.00000E+00
 -1      1904 1.31625E+01-1.77025E+01 0.00000E+00
 -1      1905 1.22952E+01-1.88513E+01 0.00000E+00
 -1      1906 1.31625E+01-2.00000E+01 0.00000E+00
 -1      1907 1.15072E+01 0.00000E+00 0.00000E+00
 -1      1908 1.07191E+01-2.50000E-01 0.00000E+00
 -1      1909 1.15072E+01-5.00000E-01 0.00000E+00
 -1      1910 1.07191E+01-7.72033E-01 0.00000E+00
 -1      1911 1.15072E+01-1.04407E+00 0.00000E+00
 -1      1912 1.07191E+01-1.34496E+00 0.00000E+00
 -1      1913 1.15072E+01-1.64585E+00 0.00000E+00
 -1      1914 1.07191E+01-1.97655E+00 0.00000E+00
 -1      1915 1.15072E+01-2.30726E+00 0.00000E+00
 -1      1916 1.07191E+01-2.67070E+00 0.00000E+00
 -1      1917 1.15072E+01-3.03414E+00 0.00000E+00
 -1      1918 1.07191E+01-3.43352E+00 0.00000E+00
 -1      1919 1.15072E+01-3.83290E+00 0.00000E+00
 -1      1920 1.07191E+01-4.27173E+00 0.00000E+00
 -1      1921 1.15072E+01-4.71056E+00 0.00000E+00
 -1      1922 1.07191E+01-5.19269E+00 0.00000E+00
 -1      1923 1.15072E+01-5.67481E+00 0.00000E+00
 -1      1924 1.07191E+01-6.20443E+00 0.00000E+00
 -1      1925 1.15072E+01-6.73405E+00 0.00000E+00
 -1      1926 1.07191E+01-7.31577E+00 0.00000E+00
 -1      1927 1.15072E+01-7.89749E+00 0.00000E+00
 -1      1928 1.07191E+01-8.53633E+00 0.00000E+00
 -1      1929 1.15072E+01-9.17518E+00 0.00000E+00
 -1      1930 1.07191E+01-9.87664E+00 0.00000E+00
 -1      1931 1.15072E+01-1.05781E+01 0.00000E+00
 -1      1932 1.07191E+01-1.13482E+01 0.00000E+00
 -1      1933 1.15072E+01-1.21182E+01 0.00000E+00
 -1      1934 1.07191E+01-1.29635E+01 0.00000E+00
 -1      1935 1.15072E+01-1.38087E+01 0.00000E+00
 -1      1936 1.07191E+01-1.47362E+01 0.00000E+00
 -1      1937 1.15072E+01-1.56637E+01 0.00000E+00
 -1      1938 1.07191E+01-1.66831E+01 0.00000E+00
 -1      1939 1.15072E+01-1.77025E+01 0.00000E+00
 -1      1940 1.07191E+01-1.88513E+01 0.00000E+00
 -1      1941 1.15072E+01-2.00000E+01 0.00000E+00
 -1      1942 1.00031E+01 0.00000E+00 0.00000E+00
 -1      1943 9.28699E+00-2.50000E-01 0.00000E+00
 -1      1944 1.00031E+01-5.00000E-01 0.00000E+00
 -1      1945 9.28699E+00-7.72033E-01 0.00000E+00
 -1      1946 1.00031E+01-1.04407E+00 0.00000E+00
 -1      1947 9.28699E+00-1.34496E+00 0.00000E+00
 -1      1948 1.00031E+01-1.64585E+00 0.00000E+00
 -1      1949 9.28699E+00-1.97655E+00 0.00000E+00
 -1      1950 1.00031E+01-2.30726E+00 0.00000E+00
 -1      1951 9.28699E+00-2.67070E+00 0.00000E+00
 -1      1952 1.00031E+01-3.03414E+00 0.00000E+00
 -1      1953 9.28699E+00-3.43352E+00 0.00000E+00
 -1      1954 1.00031E+01-3.83290E+00 0.00000E+00
 -1      1955 9.28699E+00-4.27173E+00 0.00000E+00
 -1      1956 1.00031E+01-4.71056E+00 0.00000E+00
 -1      1957 9.28699E+00-5.19269E+00 0.00000E+00
 -1      1958 1.00031E+01-5.67481E+00 0.00000E+00
 -1      1959 9.28699E+00-6.20443E+00 0.00000E+00
 -1      1960 1.00031E+01-6.73405E+00 0.00000E+00
 -1      1961 9.28699E+00-7.31577E+00 0.00000E+00
 -1      1962 1.00031E+01-7.89749E+00 0.00000E+00
 -1      1963 9.28699E+00-8.53633E+00 0.00000E+00
 -1      1964 1.00031E+01-9.17518E+00 0.00000E+00
 -1      1965 9.28699E+00-9.87664E+00 0.00000E+00
 -1      1966 1.00031E+01-1.05781E+01 0.00000E+00
 -1      1967 9.28699E+00-1.13482E+01 0.00000E+00
 -1      1968 1.00031E+01-1.21182E+01 0.00000E+00
 -1      1969 9.28699E+00-1.29635E+01 0.00000E+00
 -1      1970 1.00031E+01-1.38087E+01 0.00000E+00
 -1      1971 9.28699E+00-1.47362E+01 0.00000E+00
 -1      1972 1.00031E+01-1.56637E+01 0.00000E+00
 -1      1973 9.28699E+00-1.66831E+01 0.00000E+00
 -1      1974 1.00031E+01-1.77025E+01 0.00000E+00
 -1      1975 9.28699E+00-1.88513E+01 0.00000E+00
 -1      1976 1.00031E+01-2.00000E+01 0.00000E+00
 -1      1977 8.63628E+00 0.00000E+00 0.00000E+00
 -1      1978 7.98558E+00-2.50000E-01 0.00000E+00
 -1      1979 8.63628E+00-5.00000E-01 0.00000E+00
 -1      1980 7.98558E+00-7.72033E-01 0.00000E+00
 -1      1981 8.63628E+00-1.04407E+00 0.00000E+00
 -1      1982 7.98558E+00-1.34496E+00 0.00000E+00
 -1      1983 8.63628E+00-1.64585E+00 0.00000E+00
 -1      1984 7.98558E+00-1.97655E+00 0.00000E+00
 -1      1985 8.63628E+00-2.30726E+00 0.00000E+00
 -1      1986 7.98558E+00-2.67070E+00 0.00000E+00
 -1      1987 8.63628E+00-3.03414E+00 0.00000E+00
 -1      1988 7.98558E+00-3.43352E+00 0.00000E+00
 -1      1989 8.63628E+00-3.83290E+00 0.00000E+00
 -1      1990 7.98558E+00-4.27173E+00 0.00000E+00
 -1      1991 8.63628E+00-4.71056E+00 0.00000E+00
 -1      1992 7.98558E+00-5.19269E+00 0.00000E+00
 -1      1993 8.63628E+00-5.67481E+00 0.00000E+00
 -1      1994 7.98558E+00-6.20443E+00 0.00000E+00
 -1      1995 8.63628E+00-6.73405E+00 0.00000E+00
 -1      1996 7.98558E+00-7.31577E+00 0.00000E+00
 -1      1997 8.63628E+00-7.89749E+00 0.00000E+00
 -1      1998 7.98558E+00-8.53633E+00 0.00000E+00
 -1      1999 8.63628E+00-9.17518E+00 0.00000E+00
 -1      2000 7.98558E+00-9.87664E+00 0.00000E+00
 -1      2001 8.63628E+00-1.05781E+01 0.00000E+00
 -1      2002 7.98558E+00-1.13482E+01 0.00000E+00
 -1      2003 8.63628E+00-1.21182E+01 0.00000E+00
 -1      2004 7.98558E+00-1.29635E+01 0.00000E+00
 -1      2005 8.63628E+00-1.38087E+01 0.00000E+00
 -1      2006 7.98558E+00-1.47362E+01 0.00000E+00
 -1      2007 8.63628E+00-1.56637E+01 0.00000E+00
 -1      2008 7.98558E+00-1.66831E+01 0.00000E+00
 -1      2009 8.63628E+00-1.77025E+01 0.00000E+00
 -1      2010 7.98558E+00-1.88513E+01 0.00000E+00
 -1      2011 8.63628E+00-2.00000E+01 0.00000E+00
 -1      2012 7.39425E+00 0.00000E+00 0.00000E+00
 -1      2013 6.80292E+00-2.50000E-01 0.00000E+00
 -1      2014 7.39425E+00-5.00000E-01 0.00000E+00
 -1      2015 6.80292E+00-7.72033E-01 0.00000E+00
 -1      2016 7.39425E+00-1.04407E+00 0.00000E+00
 -1      2017 6.80292E+00-1.34496E+00 0.00000E+00
 -1      2018 7.39425E+00-1.64585E+00 0.00000E+00
 -1      2019 6.80292E+00-1.97655E+00 0.00000E+00
 -1      2020 7.39425E+00-2.30726E+00 0.00000E+00
 -1      2021 6.80292E+00-2.67070E+00 0.00000E+00
 -1      2022 7.39425E+00-3.03414E+00 0.00000E+00
 -1      2023 6.80292E+00-3.43352E+00 0.00000E+00
 -1      2024 7.39425E+00-3.83290E+00 0.00000E+00
 -1      2025 6.80292E+00-4.27173E+00 0.00000E+00
 -1      2026 7.39425E+00-4.71056E+00 0.00000E+00
 -1      2027 6.80292E+00-5.19269E+00 0.00000E+00
 -1      2028 7.39425E+00-5.67481E+00 0.00000E+00
 -1      2029 6.80292E+00-6.20443E+00 0.00000E+00
 -1      2030 7.39425E+00-6.73405E+00 0.00000E+00
 -1      2031 6.80292E+00-7.31577E+00 0.00000E+00
 -1      2032 7.39425E+00-7.89749E+00 0.00000E+00
 -1      2033 6.80292E+00-8.53633E+00 0.00000E+00
 -1      2034 7.39425E+00-9.17518E+00 0.00000E+00
 -1      2035 6.80292E+00-9.87664E+00 0.00000E+00
 -1      2036 7.39425E+00-1.05781E+01 0.00000E+00
 -1      2037 6.80292E+00-1.13482E+01 0.00000E+00
 -1      2038 7.39425E+00-1.21182E+01 0.00000E+00
 -1      2039 6.80292E+00-1.29635E+01 0.00000E+00
 -1      2040 7.39425E+00-1.38087E+01 0.00000E+00
 -1      2041 6.80292E+00-1.47362E+01 0.00000E+00
 -1      2042 7.39425E+00-1.56637E+01 0.00000E+00
 -1      2043 6.80292E+00-1.66831E+01 0.00000E+00
 -1      2044 7.39425E+00-1.77025E+01 0.00000E+00
 -1      2045 6.80292E+00-1.88513E+01 0.00000E+00
 -1      2046 7.39425E+00-2.00000E+01 0.00000E+00
 -1      2047 6.26554E+00 0.00000E+00 0.00000E+00
 -1      2048 5.72816E+00-2.50000E-01 0.00000E+00
 -1      2049 6.26554E+00-5.00000E-01 0.00000E+00
 -1      2050 5.72816E+00-7.72033E-01 0.00000E+00
 -1      2051 6.26554E+00-1.04407E+00 0.00000E+00
 -1      2052 5.72816E+00-1.34496E+00 0.00000E+00
 -1      2053 6.26554E+00-1.64585E+00 0.00000E+00
 -1      2054 5.72816E+00-1.97655E+00 0.00000E+00
 -1      2055 6.26554E+00-2.30726E+00 0.00000E+00
 -1      2056 5.72816E+00-2.67070E+00 0.00000E+00
 -1      2057 6.26554E+00-3.03414E+00 0.00000E+00
 -1      2058 5.72816E+00-3.43352E+00 0.00000E+00
 -1      2059 6.26554E+00-3.83290E+00 0.00000E+00
 -1      2060 5.72816E+00-4.27173E+00 0.00000E+00
 -1      2061 6.26554E+00-4.71056E+00 0.00000E+00
 -1      2062 5.72816E+00-5.19269E+00 0.00000E+00
 -1      2063 6.26554E+00-5.67481E+00 0.00000E+00
 -1      2064 5.72816E+00-6.20443E+00 0.00000E+00
 -1      2065 6.26554E+00-6.73405E+00 0.00000E+00
 -1      2066 5.72816E+00-7.31577E+00 0.00000E+00
 -1      2067 6.26554E+00-7.89749E+00 0.00000E+00
 -1      2068 5.72816E+00-8.53633E+00 0.00000E+00
 -1      2069 6.26554E+00-9.17518E+00 0.00000E+00
 -1      2070 5.72816E+00-9.87664E+00 0.00000E+00
 -1      2071 6.26554E+00-1.05781E+01 0.00000E+00
 -1      2072 5.72816E+00-1.13482E+01 0.00000E+00
 -1      2073 6.26554E+00-1.21182E+01 0.00000E+00
 -1      2074 5.72816E+00-1.29635E+01 0.00000E+00
 -1      2075 6.26554E+00-1.38087E+01 0.00000E+00
 -1      2076 5.72816E+00-1.47362E+01 0.00000E+00
 -1      2077 6.26554E+00-1.56637E+01 0.00000E+00
 -1      2078 5.72816E+00-1.66831E+01 0.00000E+00
 -1      2079 6.26554E+00-1.77025E+01 0.00000E+00
 -1      2080 5.72816E+00-1.88513E+01 0.00000E+00
 -1      2081 6.26554E+00-2.00000E+01 0.00000E+00
 -1      2082 5.23978E+00 0.00000E+00 0.00000E+00
 -1      2083 4.75140E+00-2.50000E-01 0.00000E+00
 -1      2084 5.23978E+00-5.00000E-01 0.00000E+00
 -1      2085 4.75140E+00-7.72033E-01 0.00000E+00
 -1      2086 5.23978E+00-1.04407E+00 0.00000E+00
 -1      2087 4.75140E+00-1.34496E+00 0.00000E+00
 -1      2088 5.23978E+00-1.64585E+00 0.00000E+00
 -1      2089 4.75140E+00-1.97655E+00 0.00000E+00
 -1      2090 5.23978E+00-2.30726E+00 0.00000E+00
 -1      2091 4.75140E+00-2.67070E+00 0.00000E+00
 -1      2092 5.23978E+00-3.03414E+00 0.00000E+00
 -1      2093 4.75140E+00-3.43352E+00 0.00000E+00
 -1      2094 5.23978E+00-3.83290E+00 0.00000E+00
 -1      2095 4.75140E+00-4.27173E+00 0.00000E+00
 -1      2096 5.23978E+00-4.71056E+00 0.00000E+00
 -1      2097 4.75140E+00-5.19269E+00 0.00000E+00
 -1      2098 5.23978E+00-5.67481E+00 0.00000E+00
 -1      2099 4.75140E+00-6.20443E+00 0.00000E+00
 -1      2100 5.23978E+00-6.73405E+00 0.00000E+00
 -1      2101 4.75140E+00-7.31577E+00 0.00000E+00
 -1      2102 5.23978E+00-7.89749E+00 0.00000E+00
 -1      2103 4.75140E+00-8.53633E+00 0.00000E+00
 -1      2104 5.23978E+00-9.17518E+00 0.00000E+00
 -1      2105 4.75140E+00-9.87664E+00 0.00000E+00
 -1      2106 5.23978E+00-1.05781E+01 0.00000E+00
 -1      2107 4.75140E+00-1.13482E+01 0.00000E+00
 -1      2108 5.23978E+00-1.21182E+01 0.00000E+00
 -1      2109 4.75140E+00-1.29635E+01 0.00000E+00
 -1      2110 5.23978E+00-1.38087E+01 0.00000E+00
 -1      2111 4.75140E+00-1.47362E+01 0.00000E+00
 -1      2112 5.23978E+00-1.56637E+01 0.00000E+00
 -1      2113 4.75140E+00-1.66831E+01 0.00000E+00
 -1      2114 5.23978E+00-1.77025E+01 0.00000E+00
 -1      2115 4.75140E+00-1.88513E+01 0.00000E+00
 -1      2116 5.23978E+00-2.00000E+01 0.00000E+00
 -1      2117 4.30755E+00 0.00000E+00 0.00000E+00
 -1      2118 3.86370E+00-2.50000E-01 0.00000E+00
 -1      2119 4.30755E+00-5.00000E-01 0.00000E+00
 -1      2120 3.86370E+00-7.72033E-01 0.00000E+00
 -1      2121 4.30755E+00-1.04407E+00 0.00000E+00
 -1      2122 3.86370E+00-1.34496E+00 0.00000E+00
 -1      2123 4.30755E+00-1.64585E+00 0.00000E+00
 -1      2124 3.86370E+00-1.97655E+00 0.00000E+00
 -1      2125 4.30755E+00-2.30726E+00 0.00000E+00
 -1      2126 3.86370E+00-2.67070E+00 0.00000E+00
 -1      2127 4.30755E+00-3.03414E+00 0.00000E+00
 -1      2128 3.86370E+00-3.43352E+00 0.00000E+00
 -1      2129 4.30755E+00-3.83290E+00 0.00000E+00
 -1      2130 3.86370E+00-4.27173E+00 0.00000E+00
 -1      2131 4.30755E+00-4.71056E+00 0.00000E+00
 -1      2132 3.86370E+00-5.19269E+00 0.00000E+00
 -1      2133 4.30755E+00-5.67481E+00 0.00000E+00
 -1      2134 3.86370E+00-6.20443E+00 0.00000E+00
 -1      2135 4.30755E+00-6.73405E+00 0.00000E+00
 -1      2136 3.86370E+00-7.31577E+00 0.00000E+00
 -1      2137 4.30755E+00-7.89749E+00 0.00000E+00
 -1      2138 3.86370E+00-8.53633E+00 0.00000E+00
 -1      2139 4.30755E+00-9.17518E+00 0.00000E+00
 -1      2140 3.86370E+00-9.87664E+00 0.00000E+00
 -1      2141 4.30755E+00-1.05781E+01 0.00000E+00
 -1      2142 3.86370E+00-1.13482E+01 0.00000E+00
 -1      2143 4.30755E+00-1.21182E+01 0.00000E+00
 -1      2144 3.86370E+00-1.29635E+01 0.00000E+00
 -1      2145 4.30755E+00-1.38087E+01 0.00000E+00
 -1      2146 3.86370E+00-1.47362E+01 0.00000E+00
 -1      2147 4.30755E+00-1.56637E+01 0.00000E+00
 -1      2148 3.86370E+00-1.66831E+01 0.00000E+00
 -1      2149 4.30755E+00-1.77025E+01 0.00000E+00
 -1      2150 3.86370E+00-1.88513E+01 0.00000E+00
 -1      2151 4.30755E+00-2.00000E+01 0.00000E+00
 -1      2152 3.46031E+00 0.00000E+00 0.00000E+00
 -1      2153 3.05691E+00-2.50000E-01 0.00000E+00
 -1      2154 3.46031E+00-5.00000E-01 0.00000E+00
 -1      2155 3.05691E+00-7.72033E-01 0.00000E+00
 -1      2156 3.46031E+00-1.04407E+00 0.00000E+00
 -1      2157 3.05691E+00-1.34496E+00 0.00000E+00
 -1      2158 3.46031E+00-1.64585E+00 0.00000E+00
 -1      2159 3.05691E+00-1.97655E+00 0.00000E+00
 -1      2160 3.46031E+00-2.30726E+00 0.00000E+00
 -1      2161 3.05691E+00-2.67070E+00 0.00000E+00
 -1      2162 3.46031E+00-3.03414E+00 0.00000E+00
 -1      2163 3.05691E+00-3.43352E+00 0.00000E+00
 -1      2164 3.46031E+00-3.83290E+00 0.00000E+00
 -1      2165 3.05691E+00-4.27173E+00 0.00000E+00
 -1      2166 3.46031E+00-4.71056E+00 0.00000E+00
 -1      2167 3.05691E+00-5.19269E+00 0.00000E+00
 -1      2168 3.46031E+00-5.67481E+00 0.00000E+00
 -1      2169 3.05691E+00-6.20443E+00 0.00000E+00
 -1      2170 3.46031E+00-6.73405E+00 0.00000E+00
 -1      2171 3.05691E+00-7.31577E+00 0.00000E+00
 -1      2172 3.46031E+00-7.89749E+00 0.00000E+00
 -1      2173 3.05691E+00-8.53633E+00 0.00000E+00
 -1      2174 3.46031E+00-9.17518E+00 0.00000E+00
 -1      2175 3.05691E+00-9.87664E+00 0.00000E+00
 -1      2176 3.46031E+00-1.05781E+01 0.00000E+00
 -1      2177 3.05691E+00-1.13482E+01 0.00000E+00
 -1      2178 3.46031E+00-1.21182E+01 0.00000E+00
 -1      2179 3.05691E+00-1.29635E+01 0.00000E+00
 -1      2180 3.46031E+00-1.38087E+01 0.00000E+00
 -1      2181 3.05691E+00-1.47362E+01 0.00000E+00
 -1      2182 3.46031E+00-1.56637E+01 0.00000E+00
 -1      2183 3.05691E+00-1.66831E+01 0.00000E+00
 -1      2184 3.46031E+00-1.77025E+01 0.00000E+00
 -1      2185 3.05691E+00-1.88513E+01 0.00000E+00
 -1      2186 3.46031E+00-2.00000E+01 0.00000E+00
 -1      2187 2.69027E+00 0.00000E+00 0.00000E+00
 -1      2188 2.32364E+00-2.50000E-01 0.00000E+00
 -1      2189 2.69027E+00-5.00000E-01 0.00000E+00
 -1      2190 2.32364E+00-7.72033E-01 0.00000E+00
 -1      2191 2.69027E+00-1.04407E+00 0.00000E+00
 -1      2192 2.32364E+00-1.34496E+00 0.00000E+00
 -1      2193 2.69027E+00-1.64585E+00 0.00000E+00
 -1      2194 2.32364E+00-1.97655E+00 0.00000E+00
 -1      2195 2.69027E+00-2.30726E+00 0.00000E+00
 -1      2196 2.32364E+00-2.67070E+00 0.00000E+00
 -1      2197 2.69027E+00-3.03414E+00 0.00000E+00
 -1      2198 2.32364E+00-3.43352E+00 0.00000E+00
 -1      2199 2.69027E+00-3.83290E+00 0.00000E+00
 -1      2200 2.32364E+00-4.27173E+00 0.00000E+00
 -1      2201 2.69027E+00-4.71056E+00 0.00000E+00
 -1      2202 2.32364E+00-5.19269E+00 0.00000E+00
 -1      2203 2.69027E+00-5.67481E+00 0.00000E+00
 -1      2204 2.32364E+00-6.20443E+00 0.00000E+00
 -1      2205 2.69027E+00-6.73405E+00 0.00000E+00
 -1      2206 2.32364E+00-7.31577E+00 0.00000E+00
 -1      2207 2.69027E+00-7.89749E+00 0.00000E+00
 -1      2208 2.32364E+00-8.53633E+00 0.00000E+00
 -1      2209 2.69027E+00-9.17518E+00 0.00000E+00
 -1      2210 2.32364E+00-9.87664E+00 0.00000E+00
 -1      2211 2.69027E+00-1.05781E+01 0.00000E+00
 -1      2212 2.32364E+00-1.13482E+01 0.00000E+00
 -1      2213 2.69027E+00-1.21182E+01 0.00000E+00
 -1      2214 2.32364E+00-1.29635E+01 0.00000E+00
 -1      2215 2.69027E+00-1.38087E+01 0.00000E+00
 -1      2216 2.32364E+00-1.47362E+01 0.00000E+00
 -1      2217 2.69027E+00-1.56637E+01 0.00000E+00
 -1      2218 2.32364E+00-1.66831E+01 0.00000E+00
 -1      2219 2.69027E+00-1.77025E+01 0.00000E+00
 -1      2220 2.32364E+00-1.88513E+01 0.00000E+00
 -1      2221 2.69027E+00-2.00000E+01 0.00000E+00
 -1      2222 1.99040E+00 0.00000E+00 0.00000E+00
 -1      2223 1.65717E+00-2.50000E-01 0.00000E+00
 -1      2224 1.99040E+00-5.00000E-01 0.00000E+00
 -1      2225 1.65717E+00-7.72033E-01 0.00000E+00
 -1      2226 1.99040E+00-1.04407E+00 0.00000E+00
 -1      2227 1.65717E+00-1.34496E+00 0.00000E+00
 -1      2228 1.99040E+00-1.64585E+00 0.00000E+00
 -1      2229 1.65717E+00-1.97655E+00 0.00000E+00
 -1      2230 1.99040E+00-2.30726E+00 0.00000E+00
 -1      2231 1.65717E+00-2.67070E+00 0.00000E+00
 -1      2232 1.99040E+00-3.03414E+00 0.00000E+00
 -1      2233 1.65717E+00-3.43352E+00 0.00000E+00
 -1      2234 1.99040E+00-3.83290E+00 0.00000E+00
 -1      2235 1.65717E+00-4.27173E+00 0.00000E+00
 -1      2236 1.99040E+00-4.71056E+00 0.00000E+00
 -1      2237 1.65717E+00-5.19269E+00 0.00000E+00
 -1      2238 1.99040E+00-5.67481E+00 0.00000E+00
 -1      2239 1.65717E+00-6.20443E+00 0.00000E+00
 -1      2240 1.99040E+00-6.73405E+00 0.00000E+00
 -1      2241 1.65717E+00-7.31577E+00 0.00000E+00
 -1      2242 1.99040E+00-7.89749E+00 0.00000E+00
 -1      2243 1.65717E+00-8.53633E+00 0.00000E+00
 -1      2244 1.99040E+00-9.17518E+00 0.00000E+00
 -1      2245 1.65717E+00-9.87664E+00 0.00000E+00
 -1      2246 1.99040E+00-1.05781E+01 0.00000E+00
 -1      2247 1.65717E+00-1.13482E+01 0.00000E+00
 -1      2248 1.99040E+00-1.21182E+01 0.00000E+00
 -1      2249 1.65717E+00-1.29635E+01 0.00000E+00
 -1      2250 1.99040E+00-1.38087E+01 0.00000E+00
 -1      2251 1.65717E+00-1.47362E+01 0.00000E+00
 -1      2252 1.99040E+00-1.56637E+01 0.00000E+00
 -1      2253 1.65717E+00-1.66831E+01 0.00000E+00
 -1      2254 1.99040E+00-1.77025E+01 0.00000E+00
 -1      2255 1.65717E+00-1.88513E+01 0.00000E+00
 -1      2256 1.99040E+00-2.00000E+01 0.00000E+00
 -1      2257 1.35429E+00 0.00000E+00 0.00000E+00
 -1      2258 1.05141E+00-2.50000E-01 0.00000E+00
 -1      2259 1.35429E+00-5.00000E-01 0.00000E+00
 -1      2260 1.05141E+00-7.72033E-01 0.00000E+00
 -1      2261 1.35429E+00-1.04407E+00 0.00000E+00
 -1      2262 1.05141E+00-1.34496E+00 0.00000E+00
 -1      2263 1.35429E+00-1.64585E+00 0.00000E+00
 -1      2264 1.05141E+00-1.97655E+00 0.00000E+00
 -1      2265 1.35429E+00-2.30726E+00 0.00000E+00
 -1      2266 1.05141E+00-2.67070E+00 0.00000E+00
 -1      2267 1.35429E+00-3.03414E+00 0.00000E+00
 -1      2268 1.05141E+00-3.43352E+00 0.00000E+00
 -1      2269 1.35429E+00-3.83290E+00 0.00000E+00
 -1      2270 1.05141E+00-4.27173E+00 0.00000E+00
 -1      2271 1.35429E+00-4.71056E+00 0.00000E+00
 -1      2272 1.05141E+00-5.19269E+00 0.00000E+00
 -1      2273 1.35429E+00-5.67481E+00 0.00000E+00
 -1      2274 1.05141E+00-6.20443E+00 0.00000E+00
 -1      2275 1.35429E+00-6.73405E+00 0.00000E+00
 -1      2276 1.05141E+00-7.31577E+00 0.00000E+00
 -1      2277 1.35429E+00-7.89749E+00 0.00000E+00
 -1      2278 1.05141E+00-8.53633E+00 0.00000E+00
 -1      2279 1.35429E+00-9.17518E+00 0.00000E+00
 -1      2280 1.05141E+00-9.87664E+00 0.00000E+00
 -1      2281 1.35429E+00-1.05781E+01 0.00000E+00
 -1      2282 1.05141E+00-1.13482E+01 0.00000E+00
 -1      2283 1.35429E+00-1.21182E+01 0.00000E+00
 -1      2284 1.05141E+00-1.29635E+01 0.00000E+00
 -1      2285 1.35429E+00-1.38087E+01 0.00000E+00
 -1      2286 1.05141E+00-1.47362E+01 0.00000E+00
 -1      2287 1.35429E+00-1.56637E+01 0.00000E+00
 -1      2288 1.05141E+00-1.66831E+01 0.00000E+00
 -1      2289 1.35429E+00-1.77025E+01 0.00000E+00
 -1      2290 1.05141E+00-1.88513E+01 0.00000E+00
 -1      2291 1.35429E+00-2.00000E+01 0.00000E+00
 -1      2292 7.75703E-01 0.00000E+00 0.00000E+00
 -1      2293 5.00000E-01-2.50000E-01 0.00000E+00
 -1      2294 7.75703E-01-5.00000E-01 0.00000E+00
 -1      2295 5.00000E-01-7.72033E-01 0.00000E+00
 -1      2296 7.75703E-01-1.04407E+00 0.00000E+00
 -1      2297 5.00000E-01-1.34496E+00 0.00000E+00
 -1      2298 7.75703E-01-1.64585E+00 0.00000E+00
 -1      2299 5.00000E-01-1.97655E+00 0.00000E+00
 -1      2300 7.75703E-01-2.30726E+00 0.00000E+00
 -1      2301 5.00000E-01-2.67070E+00 0.00000E+00
 -1      2302 7.75703E-01-3.03414E+00 0.00000E+00
 -1      2303 5.00000E-01-3.43352E+00 0.00000E+00
 -1      2304 7.75703E-01-3.83290E+00 0.00000E+00
 -1      2305 5.00000E-01-4.27173E+00 0.00000E+00
 -1      2306 7.75703E-01-4.71056E+00 0.00000E+00
 -1      2307 5.00000E-01-5.19269E+00 0.00000E+00
 -1      2308 7.75703E-01-5.67481E+00 0.00000E+00
 -1      2309 5.00000E-01-6.20443E+00 0.00000E+00
 -1      2310 7.75703E-01-6.73405E+00 0.00000E+00
 -1      2311 5.00000E-01-7.31577E+00 0.00000E+00
 -1      2312 7.75703E-01-7.89749E+00 0.00000E+00
 -1      2313 5.00000E-01-8.53633E+00 0.00000E+00
 -1      2314 7.75703E-01-9.17518E+00 0.00000E+00
 -1      2315 5.00000E-01-9.87664E+00 0.00000E+00
 -1      2316 7.75703E-01-1.05781E+01 0.00000E+00
 -1      2317 5.00000E-01-1.13482E+01 0.00000E+00
 -1      2318 7.75703E-01-1.21182E+01 0.00000E+00
 -1      2319 5.00000E-01-1.29635E+01 0.00000E+00
 -1      2320 7.75703E-01-1.38087E+01 0.00000E+00
 -1      2321 5.00000E-01-1.47362E+01 0.00000E+00
 -1      2322 7.75703E-01-1.56637E+01 0.00000E+00
 -1      2323 5.00000E-01-1.66831E+01 0.00000E+00
 -1      2324 7.75703E-01-1.77025E+01 0.00000E+00
 -1      2325 5.00000E-01-1.88513E+01 0.00000E+00
 -1      2326 7.75703E-01-2.00000E+01 0.00000E+00
 -1      2327 2.50000E-01 0.00000E+00 0.00000E+00
 -1      2328 0.00000E+00-2.50000E-01 0.00000E+00
 -1      2329 2.50000E-01-5.00000E-01 0.00000E+00
 -1      2330 0.00000E+00-7.72033E-01 0.00000E+00
 -1      2331 2.50000E-01-1.04407E+00 0.00000E+00
 -1      2332 0.00000E+00-1.34496E+00 0.00000E+00
 -1      2333 2.50000E-01-1.64585E+00 0.00000E+00
 -1      2334 0.00000E+00-1.97655E+00 0.00000E+00
 -1      2335 2.50000E-01-2.30726E+00 0.00000E+00
 -1      2336 0.00000E+00-2.67070E+00 0.00000E+00
 -1      2337 2.50000E-01-3.03414E+00 0.00000E+00
 -1      2338 0.00000E+00-3.43352E+00 0.00000E+00
 -1      2339 2.50000E-01-3.83290E+00 0.00000E+00
 -1      2340 0.00000E+00-4.27173E+00 0.00000E+00
 -1      2341 2.50000E-01-4.71056E+00 0.00000E+00
 -1      2342 0.00000E+00-5.19269E+00 0.00000E+00
 -1      2343 2.50000E-01-5.67481E+00 0.00000E+00
 -1      2344 0.00000E+00-6.20443E+00 0.00000E+00
 -1      2345 2.50000E-01-6.73405E+00 0.00000E+00
 -1      2346 0.00000E+00-7.31577E+00 0.00000E+00
 -1      2347 2.50000E-01-7.89749E+00 0.00000E+00
 -1      2348 0.00000E+00-8.53633E+00 0.00000E+00
 -1      2349 2.50000E-01-9.17518E+00 0.00000E+00
 -1      2350 0.00000E+00-9.87664E+00 0.00000E+00
 -1      2351 2.50000E-01-1.05781E+01 0.00000E+00
 -1      2352 0.00000E+00-1.13482E+01 0.00000E+00
 -1      2353 2.50000E-01-1.21182E+01 0.00000E+00
 -1      2354 0.00000E+00-1.29635E+01 0.00000E+00
 -1      2355 2.50000E-01-1.38087E+01 0.00000E+00
 -1      2356 0.00000E+00-1.47362E+01 0.00000E+00
 -1      2357 2.50000E-01-1.56637E+01 0.00000E+00
 -1      2358 0.00000E+00-1.66831E+01 0.00000E+00
 -1      2359 2.50000E-01-1.77025E+01 0.00000E+00
 -1      2360 0.00000E+00-1.88513E+01 0.00000E+00
 -1      2361 2.50000E-01-2.00000E+01 0.00000E+00
 -3
    3C                           748                                     1
 -1         1   10    0    1
 -2         1         3        56        40       809       810       811       812
 -1         2   10    0    1
 -2        40        56        57        41       811       813       814       815
 -1         3   10    0    1
 -2        41        57        58        42       814       816       817       818
 -1         4   10    0    1
 -2        42        58        59        43       817       819       820       821
 -1         5   10    0    1
 -2        43        59        60        44       820       822       823       824
 -1         6   10    0    1
 -2        44        60        61        45       823       825       826       827
 -1         7   10    0    1
 -2        45        61        62        46       826       828       829       830
 -1         8   10    0    1
 -2        46        62        63        47       829       831       832       833
 -1         9   10    0    1
 -2        47        63        64        48       832       834       835       836
 -1        10   10    0    1
 -2        48        64        65        49       835       837       838       839
 -1        11   10    0    1
 -2        49        65        66        50       838       840       841       842
 -1        12   10    0    1
 -2        50        66        67        51       841       843       844       845
 -1        13   10    0    1
 -2        51        67        68        52       844       846       847       848
 -1        14   10    0    1
 -2        52        68        69        53       847       849       850       851
 -1        15   10    0    1
 -2        53        69        70        54       850       852       853       854
 -1        16   10    0    1
 -2        54        70        71        55       853       855       856       857
 -1        17    8    0    1
 -2        55        71        39       856       858       859
 -1        18   10    0    1
 -2         3         4        72        56       860       861       862       810
 -1        19   10    0    1
 -2        56        72        73        57       862       863       864       813
 -1        20   10    0    1
 -2        57        73        74        58       864       865       866       816
 -1        21   10    0    1
 -2        58        74        75        59       866       867       868       819
 -1        22   10    0    1
 -2        59        75        76        60       868       869       870       822
 -1        23   10    0    1
 -2        60        76        77        61       870       871       872       825
 -1        24   10    0    1
 -2        61        77        78        62       872       873       874       828
 -1        25   10    0    1
 -2        62        78        79        63       874       875       876       831
 -1        26   10    0    1
 -2        63        79        80        64       876       877       878       834
 -1        27   10    0    1
 -2        64        80        81        65       878       879       880       837
 -1        28   10    0    1
 -2        65        81        82        66       880       881       882       840
 -1        29   10    0    1
 -2        66        82        83        67       882       883       884       843
 -1        30   10    0    1
 -2        67        83        84        68       884       885       886       846
 -1        31   10    0    1
 -2        68        84        85        69       886       887       888       849
 -1        32   10    0    1
 -2        69        85        86        70       888       889       890       852
 -1        33   10    0    1
 -2        70        86        87        71       890       891       892       855
 -1        34    8    0    1
 -2        71        87        39       892       893       858
 -1        35   10    0    1
 -2         4         5        88        72       894       895       896       861
 -1        36   10    0    1
 -2        72        88        89        73       896       897       898       863
 -1        37   10    0    1
 -2        73        89        90        74       898       899       900       865
 -1        38   10    0    1
 -2        74        90        91        75       900       901       902       867
 -1        39   10    0    1
 -2        75        91        92        76       902       903       904       869
 -1        40   10    0    1
 -2        76        92        93        77       904       905       906       871
 -1        41   10    0    1
 -2        77        93        94        78       906       907       908       873
 -1        42   10    0    1
 -2        78        94        95        79       908       909       910       875
 -1        43   10    0    1
 -2        79        95        96        80       910       911       912       877
 -1        44   10    0    1
 -2        80        96        97        81       912       913       914       879
 -1        45   10    0    1
 -2        81        97        98        82       914       915       916       881
 -1        46   10    0    1
 -2        82        98        99        83       916       917       918       883
 -1        47   10    0    1
 -2        83        99       100        84       918       919       920       885
 -1        48   10    0    1
 -2        84       100       101        85       920       921       922       887
 -1        49   10    0    1
 -2        85       101       102        86       922       923       924       889
 -1        50   10    0    1
 -2        86       102       103        87       924       925       926       891
 -1        51    8    0    1
 -2        87       103        39       926       927       893
 -1        52   10    0    1
 -2         5         6       104        88       928       929       930       895
 -1        53   10    0    1
 -2        88       104       105        89       930       931       932       897
 -1        54   10    0    1
 -2        89       105       106        90       932       933       934       899
 -1        55   10    0    1
 -2        90       106       107        91       934       935       936       901
 -1        56   10    0    1
 -2        91       107       108        92       936       937       938       903
 -1        57   10    0    1
 -2        92       108       109        93       938       939       940       905
 -1        58   10    0    1
 -2        93       109       110        94       940       941       942       907
 -1        59   10    0    1
 -2        94       110       111        95       942       943       944       909
 -1        60   10    0    1
 -2        95       111       112        96       944       945       946       911
 -1        61   10    0    1
 -2        96       112       113        97       946       947       948       913
 -1        62   10    0    1
 -2        97       113       114        98       948       949       950       915
 -1        63   10    0    1
 -2        98       114       115        99       950       951       952       917
 -1        64   10    0    1
 -2        99       115       116       100       952       953       954       919
 -1        65   10    0    1
 -2       100       116       117       101       954       955       956       921
 -1        66   10    0    1
 -2       101       117       118       102       956       957       958       923
 -1        67   10    0    1
 -2       102       118       119       103       958       959       960       925
 -1        68    8    0    1
 -2       103       119        39       960       961       927
 -1        69   10    0    1
 -2         6         7       120       104       962       963       964       929
 -1        70   10    0    1
 -2       104       120       121       105       964       965       966       931
 -1        71   10    0    1
 -2       105       121       122       106       966       967       968       933
 -1        72   10    0    1
 -2       106       122       123       107       968       969       970       935
 -1        73   10    0    1
 -2       107       123       124       108       970       971       972       937
 -1        74   10    0    1
 -2       108       124       125       109       972       973       974       939
 -1        75   10    0    1
 -2       109       125       126       110       974       975       976       941
 -1        76   10    0    1
 -2       110       126       127       111       976       977       978       943
 -1        77   10    0    1
 -2       111       127       128       112       978       979       980       945
 -1        78   10    0    1
 -2       112       128       129       113       980       981       982       947
 -1        79   10    0    1
 -2       113       129       130       114       982       983       984       949
 -1        80   10    0    1
 -2       114       130       131       115       984       985       986       951
 -1        81   10    0    1
 -2       115       131       132       116       986       987       988       953
 -1        82   10    0    1
 -2       116       132       133       117       988       989       990       955
 -1        83   10    0    1
 -2       117       133       134       118       990       991       992       957
 -1        84   10    0    1
 -2       118       134       135       119       992       993       994       959
 -1        85    8    0    1
 -2       119       135        39       994       995       961
 -1        86   10    0    1
 -2         7         8       136       120       996       997       998       963
 -1        87   10    0    1
 -2       120       136       137       121       998       999      1000       965
 -1        88   10    0    1
 -2       121       137       138       122      1000      1001      1002       967
 -1        89   10    0    1
 -2       122       138       139       123      1002      1003      1004       969
 -1        90   10    0    1
 -2       123       139       140       124      1004      1005      1006       971
 -1        91   10    0    1
 -2       124       140       141       125      1006      1007      1008       973
 -1        92   10    0    1
 -2       125       141       142       126      1008      1009      1010       975
 -1        93   10    0    1
 -2       126       142       143       127      1010      1011      1012       977
 -1        94   10    0    1
 -2       127       143       144       128      1012      1013      1014       979
 -1        95   10    0    1
 -2       128       144       145       129      1014      1015      1016       981
 -1        96   10    0    1
 -2       129       145       146       130      1016      1017      1018       983
 -1        97   10    0    1
 -2       130       146       147       131      1018      1019      1020       985
 -1        98   10    0    1
 -2       131       147       148       132      1020      1021      1022       987
 -1        99   10    0    1
 -2       132       148       149       133      1022      1023      1024       989
 -1       100   10    0    1
 -2       133       149       150       134      1024      1025      1026       991
 -1       101   10    0    1
 -2       134       150       151       135      1026      1027      1028       993
 -1       102    8    0    1
 -2       135       151        39      1028      1029       995
 -1       103   10    0    1
 -2         8         9       152       136      1030      1031      1032       997
 -1       104   10    0    1
 -2       136       152       153       137      1032      1033      1034       999
 -1       105   10    0    1
 -2       137       153       154       138      1034      1035      1036      1001
 -1       106   10    0    1
 -2       138       154       155       139      1036      1037      1038      1003
 -1       107   10    0    1
 -2       139       155       156       140      1038      1039      1040      1005
 -1       108   10    0    1
 -2       140       156       157       141      1040      1041      1042      1007
 -1       109   10    0    1
 -2       141       157       158       142      1042      1043      1044      1009
 -1       110   10    0    1
 -2       142       158       159       143      1044      1045      1046      1011
 -1       111   10    0    1
 -2       143       159       160       144      1046      1047      1048      1013
 -1       112   10    0    1
 -2       144       160       161       145      1048      1049      1050      1015
 -1       113   10    0    1
 -2       145       161       162       146      1050      1051      1052      1017
 -1       114   10    0    1
 -2       146       162       163       147      1052      1053      1054      1019
 -1       115   10    0    1
 -2       147       163       164       148      1054      1055      1056      1021
 -1       116   10    0    1
 -2       148       164       165       149      1056      1057      1058      1023
 -1       117   10    0    1
 -2       149       165       166       150      1058      1059      1060      1025
 -1       118   10    0    1
 -2       150       166       167       151      1060      1061      1062      1027
 -1       119    8    0    1
 -2       151       167        39      1062      1063      1029
 -1       120   10    0    1
 -2         9        10       168       152      1064      1065      1066      1031
 -1       121   10    0    1
 -2       152       168       169       153      1066      1067      1068      1033
 -1       122   10    0    1
 -2       153       169       170       154      1068      1069      1070      1035
 -1       123   10    0    1
 -2       154       170       171       155      1070      1071      1072      1037
 -1       124   10    0    1
 -2       155       171       172       156      1072      1073      1074      1039
 -1       125   10    0    1
 -2       156       172       173       157      1074      1075      1076      1041
 -1       126   10    0    1
 -2       157       173       174       158      1076      1077      1078      1043
 -1       127   10    0    1
 -2       158       174       175       159      1078      1079      1080      1045
 -1       128   10    0    1
 -2       159       175       176       160      1080      1081      1082      1047
 -1       129   10    0    1
 -2       160       176       177       161      1082      1083      1084      1049
 -1       130   10    0    1
 -2       161       177       178       162      1084      1085      1086      1051
 -1       131   10    0    1
 -2       162       178       179       163      1086      1087      1088      1053
 -1       132   10    0    1
 -2       163       179       180       164      1088      1089      1090      1055
 -1       133   10    0    1
 -2       164       180       181       165      1090      1091      1092      1057
 -1       134   10    0    1
 -2       165       181       182       166      1092      1093      1094      1059
 -1       135   10    0    1
 -2       166       182       183       167      1094      1095      1096      1061
 -1       136    8    0    1
 -2       167       183        39      1096      1097      1063
 -1       137   10    0    1
 -2        10        11       184       168      1098      1099      1100      1065
 -1       138   10    0    1
 -2       168       184       185       169      1100      1101      1102      1067
 -1       139   10    0    1
 -2       169       185       186       170      1102      1103      1104      1069
 -1       140   10    0    1
 -2       170       186       187       171      1104      1105      1106      1071
 -1       141   10    0    1
 -2       171       187       188       172      1106      1107      1108      1073
 -1       142   10    0    1
 -2       172       188       189       173      1108      1109      1110      1075
 -1       143   10    0    1
 -2       173       189       190       174      1110      1111      1112      1077
 -1       144   10    0    1
 -2       174       190       191       175      1112      1113      1114      1079
 -1       145   10    0    1
 -2       175       191       192       176      1114      1115      1116      1081
 -1       146   10    0    1
 -2       176       192       193       177      1116      1117      1118      1083
 -1       147   10    0    1
 -2       177       193       194       178      1118      1119      1120      1085
 -1       148   10    0    1
 -2       178       194       195       179      1120      1121      1122      1087
 -1       149   10    0    1
 -2       179       195       196       180      1122      1123      1124      1089
 -1       150   10    0    1
 -2       180       196       197       181      1124      1125      1126      1091
 -1       151   10    0    1
 -2       181       197       198       182      1126      1127      1128      1093
 -1       152   10    0    1
 -2       182       198       199       183      1128      1129      1130      1095
 -1       153    8    0    1
 -2       183       199        39      1130      1131      1097
 -1       154   10    0    1
 -2        11        12       200       184      1132      1133      1134      1099
 -1       155   10    0    1
 -2       184       200       201       185      1134      1135      1136      1101
 -1       156   10    0    1
 -2       185       201       202       186      1136      1137      1138      1103
 -1       157   10    0    1
 -2       186       202       203       187      1138      1139      1140      1105
 -1       158   10    0    1
 -2       187       203       204       188      1140      1141      1142      1107
 -1       159   10    0    1
 -2       188       204       205       189      1142      1143      1144      1109
 -1       160   10    0    1
 -2       189       205       206       190      1144      1145      1146      1111
 -1       161   10    0    1
 -2       190       206       207       191      1146      1147      1148      1113
 -1       162   10    0    1
 -2       191       207       208       192      1148      1149      1150      1115
 -1       163   10    0    1
 -2       192       208       209       193      1150      1151      1152      1117
 -1       164   10    0    1
 -2       193       209       210       194      1152      1153      1154      1119
 -1       165   10    0    1
 -2       194       210       211       195      1154      1155      1156      1121
 -1       166   10    0    1
 -2       195       211       212       196      1156      1157      1158      1123
 -1       167   10    0    1
 -2       196       212       213       197      1158      1159      1160      1125
 -1       168   10    0    1
 -2       197       213       214       198      1160      1161      1162      1127
 -1       169   10    0    1
 -2       198       214       215       199      1162      1163      1164      1129
 -1       170    8    0    1
 -2       199       215        39      1164      1165      1131
 -1       171   10    0    1
 -2        12        13       216       200      1166      1167      1168      1133
 -1       172   10    0    1
 -2       200       216       217       201      1168      1169      1170      1135
 -1       173   10    0    1
 -2       201       217       218       202      1170      1171      1172      1137
 -1       174   10    0    1
 -2       202       218       219       203      1172      1173      1174      1139
 -1       175   10    0    1
 -2       203       219       220       204      1174      1175      1176      1141
 -1       176   10    0    1
 -2       204       220       221       205      1176      1177      1178      1143
 -1       177   10    0    1
 -2       205       221       222       206      1178      1179      1180      1145
 -1       178   10    0    1
 -2       206       222       223       207      1180      1181      1182      1147
 -1       179   10    0    1
 -2       207       223       224       208      1182      1183      1184      1149
 -1       180   10    0    1
 -2       208       224       225       209      1184      1185      1186      1151
 -1       181   10    0    1
 -2       209       225       226       210      1186      1187      1188      1153
 -1       182   10    0    1
 -2       210       226       227       211      1188      1189      1190      1155
 -1       183   10    0    1
 -2       211       227       228       212      1190      1191      1192      1157
 -1       184   10    0    1
 -2       212       228       229       213      1192      1193      1194      1159
 -1       185   10    0    1
 -2       213       229       230       214      1194      1195      1196      1161
 -1       186   10    0    1
 -2       214       230       231       215      1196      1197      1198      1163
 -1       187    8    0    1
 -2       215       231        39      1198      1199      1165
 -1       188   10    0    1
 -2        13        14       232       216      1200      1201      1202      1167
 -1       189   10    0    1
 -2       216       232       233       217      1202      1203      1204      1169
 -1       190   10    0    1
 -2       217       233       234       218      1204      1205      1206      1171
 -1       191   10    0    1
 -2       218       234       235       219      1206      1207      1208      1173
 -1       192   10    0    1
 -2       219       235       236       220      1208      1209      1210      1175
 -1       193   10    0    1
 -2       220       236       237       221      1210      1211      1212      1177
 -1       194   10    0    1
 -2       221       237       238       222      1212      1213      1214      1179
 -1       195   10    0    1
 -2       222       238       239       223      1214      1215      1216      1181
 -1       196   10    0    1
 -2       223       239       240       224      1216      1217      1218      1183
 -1       197   10    0    1
 -2       224       240       241       225      1218      1219      1220      1185
 -1       198   10    0    1
 -2       225       241       242       226      1220      1221      1222      1187
 -1       199   10    0    1
 -2       226       242       243       227      1222      1223      1224      1189
 -1       200   10    0    1
 -2       227       243       244       228      1224      1225      1226      1191
 -1       201   10    0    1
 -2       228       244       245       229      1226      1227      1228      1193
 -1       202   10    0    1
 -2       229       245       246       230      1228      1229      1230      1195
 -1       203   10    0    1
 -2       230       246       247       231      1230      1231      1232      1197
 -1       204    8    0    1
 -2       231       247        39      1232      1233      1199
 -1       205   10    0    1
 -2        14        15       248       232      1234      1235      1236      1201
 -1       206   10    0    1
 -2       232       248       249       233      1236      1237      1238      1203
 -1       207   10    0    1
 -2       233       249       250       234      1238      1239      1240      1205
 -1       208   10    0    1
 -2       234       250       251       235      1240      1241      1242      1207
 -1       209   10    0    1
 -2       235       251       252       236      1242      1243      1244      1209
 -1       210   10    0    1
 -2       236       252       253       237      1244      1245      1246      1211
 -1       211   10    0    1
 -2       237       253       254       238      1246      1247      1248      1213
 -1       212   10    0    1
 -2       238       254       255       239      1248      1249      1250      1215
 -1       213   10    0    1
 -2       239       255       256       240      1250      1251      1252      1217
 -1       214   10    0    1
 -2       240       256       257       241      1252      1253      1254      1219
 -1       215   10    0    1
 -2       241       257       258       242      1254      1255      1256      1221
 -1       216   10    0    1
 -2       242       258       259       243      1256      1257      1258      1223
 -1       217   10    0    1
 -2       243       259       260       244      1258      1259      1260      1225
 -1       218   10    0    1
 -2       244       260       261       245      1260      1261      1262      1227
 -1       219   10    0    1
 -2       245       261       262       246      1262      1263      1264      1229
 -1       220   10    0    1
 -2       246       262       263       247      1264      1265      1266      1231
 -1       221    8    0    1
 -2       247       263        39      1266      1267      1233
 -1       222   10    0    1
 -2        15        16       264       248      1268      1269      1270      1235
 -1       223   10    0    1
 -2       248       264       265       249      1270      1271      1272      1237
 -1       224   10    0    1
 -2       249       265       266       250      1272      1273      1274      1239
 -1       225   10    0    1
 -2       250       266       267       251      1274      1275      1276      1241
 -1       226   10    0    1
 -2       251       267       268       252      1276      1277      1278      1243
 -1       227   10    0    1
 -2       252       268       269       253      1278      1279      1280      1245
 -1       228   10    0    1
 -2       253       269       270       254      1280      1281      1282      1247
 -1       229   10    0    1
 -2       254       270       271       255      1282      1283      1284      1249
 -1       230   10    0    1
 -2       255       271       272       256      1284      1285      1286      1251
 -1       231   10    0    1
 -2       256       272       273       257      1286      1287      1288      1253
 -1       232   10    0    1
 -2       257       273       274       258      1288      1289      1290      1255
 -1       233   10    0    1
 -2       258       274       275       259      1290      1291      1292      1257
 -1       234   10    0    1
 -2       259       275       276       260      1292      1293      1294      1259
 -1       235   10    0    1
 -2       260       276       277       261      1294      1295      1296      1261
 -1       236   10    0    1
 -2       261       277       278       262      1296      1297      1298      1263
 -1       237   10    0    1
 -2       262       278       279       263      1298      1299      1300      1265
 -1       238    8    0    1
 -2       263       279        39      1300      1301      1267
 -1       239   10    0    1
 -2        16        17       280       264      1302      1303      1304      1269
 -1       240   10    0    1
 -2       264       280       281       265      1304      1305      1306      1271
 -1       241   10    0    1
 -2       265       281       282       266      1306      1307      1308      1273
 -1       242   10    0    1
 -2       266       282       283       267      1308      1309      1310      1275
 -1       243   10    0    1
 -2       267       283       284       268      1310      1311      1312      1277
 -1       244   10    0    1
 -2       268       284       285       269      1312      1313      1314      1279
 -1       245   10    0    1
 -2       269       285       286       270      1314      1315      1316      1281
 -1       246   10    0    1
 -2       270       286       287       271      1316      1317      1318      1283
 -1       247   10    0    1
 -2       271       287       288       272      1318      1319      1320      1285
 -1       248   10    0    1
 -2       272       288       289       273      1320      1321      1322      1287
 -1       249   10    0    1
 -2       273       289       290       274      1322      1323      1324      1289
 -1       250   10    0    1
 -2       274       290       291       275      1324      1325      1326      1291
 -1       251   10    0    1
 -2       275       291       292       276      1326      1327      1328      1293
 -1       252   10    0    1
 -2       276       292       293       277      1328      1329      1330      1295
 -1       253   10    0    1
 -2       277       293       294       278      1330      1331      1332      1297
 -1       254   10    0    1
 -2       278       294       295       279      1332      1333      1334      1299
 -1       255    8    0    1
 -2       279       295        39      1334      1335      1301
 -1       256   10    0    1
 -2        17        18       296       280      1336      1337      1338      1303
 -1       257   10    0    1
 -2       280       296       297       281      1338      1339      1340      1305
 -1       258   10    0    1
 -2       281       297       298       282      1340      1341      1342      1307
 -1       259   10    0    1
 -2       282       298       299       283      1342      1343      1344      1309
 -1       260   10    0    1
 -2       283       299       300       284      1344      1345      1346      1311
 -1       261   10    0    1
 -2       284       300       301       285      1346      1347      1348      1313
 -1       262   10    0    1
 -2       285       301       302       286      1348      1349      1350      1315
 -1       263   10    0    1
 -2       286       302       303       287      1350      1351      1352      1317
 -1       264   10    0    1
 -2       287       303       304       288      1352      1353      1354      1319
 -1       265   10    0    1
 -2       288       304       305       289      1354      1355      1356      1321
 -1       266   10    0    1
 -2       289       305       306       290      1356      1357      1358      1323
 -1       267   10    0    1
 -2       290       306       307       291      1358      1359      1360      1325
 -1       268   10    0    1
 -2       291       307       308       292      1360      1361      1362      1327
 -1       269   10    0    1
 -2       292       308       309       293      1362      1363      1364      1329
 -1       270   10    0    1
 -2       293       309       310       294      1364      1365      1366      1331
 -1       271   10    0    1
 -2       294       310       311       295      1366      1367      1368      1333
 -1       272    8    0    1
 -2       295       311        39      1368      1369      1335
 -1       273   10    0    1
 -2        18        19       312       296      1370      1371      1372      1337
 -1       274   10    0    1
 -2       296       312       313       297      1372      1373      1374      1339
 -1       275   10    0    1
 -2       297       313       314       298      1374      1375      1376      1341
 -1       276   10    0    1
 -2       298       314       315       299      1376      1377      1378      1343
 -1       277   10    0    1
 -2       299       315       316       300      1378      1379      1380      1345
 -1       278   10    0    1
 -2       300       316       317       301      1380      1381      1382      1347
 -1       279   10    0    1
 -2       301       317       318       302      1382      1383      1384      1349
 -1       280   10    0    1
 -2       302       318       319       303      1384      1385      1386      1351
 -1       281   10    0    1
 -2       303       319       320       304      1386      1387      1388      1353
 -1       282   10    0    1
 -2       304       320       321       305      1388      1389      1390      1355
 -1       283   10    0    1
 -2       305       321       322       306      1390      1391      1392      1357
 -1       284   10    0    1
 -2       306       322       323       307      1392      1393      1394      1359
 -1       285   10    0    1
 -2       307       323       324       308      1394      1395      1396      1361
 -1       286   10    0    1
 -2       308       324       325       309      1396      1397      1398      1363
 -1       287   10    0    1
 -2       309       325       326       310      1398      1399      1400      1365
 -1       288   10    0    1
 -2       310       326       327       311      1400      1401      1402      1367
 -1       289    8    0    1
 -2       311       327        39      1402      1403      1369
 -1       290   10    0    1
 -2        19        20       328       312      1404      1405      1406      1371
 -1       291   10    0    1
 -2       312       328       329       313      1406      1407      1408      1373
 -1       292   10    0    1
 -2       313       329       330       314      1408      1409      1410      1375
 -1       293   10    0    1
 -2       314       330       331       315      1410      1411      1412      1377
 -1       294   10    0    1
 -2       315       331       332       316      1412      1413      1414      1379
 -1       295   10    0    1
 -2       316       332       333       317      1414      1415      1416      1381
 -1       296   10    0    1
 -2       317       333       334       318      1416      1417      1418      1383
 -1       297   10    0    1
 -2       318       334       335       319      1418      1419      1420      1385
 -1       298   10    0    1
 -2       319       335       336       320      1420      1421      1422      1387
 -1       299   10    0    1
 -2       320       336       337       321      1422      1423      1424      1389
 -1       300   10    0    1
 -2       321       337       338       322      1424      1425      1426      1391
 -1       301   10    0    1
 -2       322       338       339       323      1426      1427      1428      1393
 -1       302   10    0    1
 -2       323       339       340       324      1428      1429      1430      1395
 -1       303   10    0    1
 -2       324       340       341       325      1430      1431      1432      1397
 -1       304   10    0    1
 -2       325       341       342       326      1432      1433      1434      1399
 -1       305   10    0    1
 -2       326       342       343       327      1434      1435      1436      1401
 -1       306    8    0    1
 -2       327       343        39      1436      1437      1403
 -1       307   10    0    1
 -2        20        21       344       328      1438      1439      1440      1405
 -1       308   10    0    1
 -2       328       344       345       329      1440      1441      1442      1407
 -1       309   10    0    1
 -2       329       345       346       330      1442      1443      1444      1409
 -1       310   10    0    1
 -2       330       346       347       331      1444      1445      1446      1411
 -1       311   10    0    1
 -2       331       347       348       332      1446      1447      1448      1413
 -1       312   10    0    1
 -2       332       348       349       333      1448      1449      1450      1415
 -1       313   10    0    1
 -2       333       349       350       334      1450      1451      1452      1417
 -1       314   10    0    1
 -2       334       350       351       335      1452      1453      1454      1419
 -1       315   10    0    1
 -2       335       351       352       336      1454      1455      1456      1421
 -1       316   10    0    1
 -2       336       352       353       337      1456      1457      1458      1423
 -1       317   10    0    1
 -2       337       353       354       338      1458      1459      1460      1425
 -1       318   10    0    1
 -2       338       354       355       339      1460      1461      1462      1427
 -1       319   10    0    1
 -2       339       355       356       340      1462      1463      1464      1429
 -1       320   10    0    1
 -2       340       356       357       341      1464      1465      1466      1431
 -1       321   10    0    1
 -2       341       357       358       342      1466      1467      1468      1433
 -1       322   10    0    1
 -2       342       358       359       343      1468      1469      1470      1435
 -1       323    8    0    1
 -2       343       359        39      1470      1471      1437
 -1       324   10    0    1
 -2        21        22       360       344      1472      1473      1474      1439
 -1       325   10    0    1
 -2       344       360       361       345      1474      1475      1476      1441
 -1       326   10    0    1
 -2       345       361       362       346      1476      1477      1478      1443
 -1       327   10    0    1
 -2       346       362       363       347      1478      1479      1480      1445
 -1       328   10    0    1
 -2       347       363       364       348      1480      1481      1482      1447
 -1       329   10    0    1
 -2       348       364       365       349      1482      1483      1484      1449
 -1       330   10    0    1
 -2       349       365       366       350      1484      1485      1486      1451
 -1       331   10    0    1
 -2       350       366       367       351      1486      1487      1488      1453
 -1       332   10    0    1
 -2       351       367       368       352      1488      1489      1490      1455
 -1       333   10    0    1
 -2       352       368       369       353      1490      1491      1492      1457
 -1       334   10    0    1
 -2       353       369       370       354      1492      1493      1494      1459
 -1       335   10    0    1
 -2       354       370       371       355      1494      1495      1496      1461
 -1       336   10    0    1
 -2       355       371       372       356      1496      1497      1498      1463
 -1       337   10    0    1
 -2       356       372       373       357      1498      1499      1500      1465
 -1       338   10    0    1
 -2       357       373       374       358      1500      1501      1502      1467
 -1       339   10    0    1
 -2       358       374       375       359      1502      1503      1504      1469
 -1       340    8    0    1
 -2       359       375        39      1504      1505      1471
 -1       341   10    0    1
 -2        22         2        23       360      1506      1507      1508      1473
 -1       342   10    0    1
 -2       360        23        24       361      1508      1509      1510      1475
 -1       343   10    0    1
 -2       361        24        25       362      1510      1511      1512      1477
 -1       344   10    0    1
 -2       362        25        26       363      1512      1513      1514      1479
 -1       345   10    0    1
 -2       363        26        27       364      1514      1515      1516      1481
 -1       346   10    0    1
 -2       364        27        28       365      1516      1517      1518      1483
 -1       347   10    0    1
 -2       365        28        29       366      1518      1519      1520      1485
 -1       348   10    0    1
 -2       366        29        30       367      1520      1521      1522      1487
 -1       349   10    0    1
 -2       367        30        31       368      1522      1523      1524      1489
 -1       350   10    0    1
 -2       368        31        32       369      1524      1525      1526      1491
 -1       351   10    0    1
 -2       369        32        33       370      1526      1527      1528      1493
 -1       352   10    0    1
 -2       370        33        34       371      1528      1529      1530      1495
 -1       353   10    0    1
 -2       371        34        35       372      1530      1531      1532      1497
 -1       354   10    0    1
 -2       372        35        36       373      1532      1533      1534      1499
 -1       355   10    0    1
 -2       373        36        37       374      1534      1535      1536      1501
 -1       356   10    0    1
 -2       374        37        38       375      1536      1537      1538      1503
 -1       357    8    0    1
 -2       375        38        39      1538      1539      1505
 -1       358   10    0    1
 -2       376       381       457       456      1540      1541      1542      1543
 -1       359   10    0    1
 -2       456       457       458       455      1542      1544      1545      1546
 -1       360   10    0    1
 -2       455       458       459       454      1545      1547      1548      1549
 -1       361   10    0    1
 -2       454       459       460       453      1548      1550      1551      1552
 -1       362   10    0    1
 -2       453       460       461       452      1551      1553      1554      1555
 -1       363   10    0    1
 -2       452       461       462       451      1554      1556      1557      1558
 -1       364   10    0    1
 -2       451       462       463       450      1557      1559      1560      1561
 -1       365   10    0    1
 -2       450       463       464       449      1560      1562      1563      1564
 -1       366   10    0    1
 -2       449       464       465       448      1563      1565      1566      1567
 -1       367   10    0    1
 -2       448       465       466       447      1566      1568      1569      1570
 -1       368   10    0    1
 -2       447       466       467       446      1569      1571      1572      1573
 -1       369   10    0    1
 -2       446       467       468       445      1572      1574      1575      1576
 -1       370   10    0    1
 -2       445       468       469       444      1575      1577      1578      1579
 -1       371   10    0    1
 -2       444       469       470       443      1578      1580      1581      1582
 -1       372   10    0    1
 -2       443       470       471       442      1581      1583      1584      1585
 -1       373   10    0    1
 -2       442       471       472       441      1584      1586      1587      1588
 -1       374   10    0    1
 -2       441       472       440       379      1587      1589      1590      1591
 -1       375   10    0    1
 -2       381       382       473       457      1592      1593      1594      1541
 -1       376   10    0    1
 -2       457       473       474       458      1594      1595      1596      1544
 -1       377   10    0    1
 -2       458       474       475       459      1596      1597      1598      1547
 -1       378   10    0    1
 -2       459       475       476       460      1598      1599      1600      1550
 -1       379   10    0    1
 -2       460       476       477       461      1600      1601      1602      1553
 -1       380   10    0    1
 -2       461       477       478       462      1602      1603      1604      1556
 -1       381   10    0    1
 -2       462       478       479       463      1604      1605      1606      1559
 -1       382   10    0    1
 -2       463       479       480       464      1606      1607      1608      1562
 -1       383   10    0    1
 -2       464       480       481       465      1608      1609      1610      1565
 -1       384   10    0    1
 -2       465       481       482       466      1610      1611      1612      1568
 -1       385   10    0    1
 -2       466       482       483       467      1612      1613      1614      1571
 -1       386   10    0    1
 -2       467       483       484       468      1614      1615      1616      1574
 -1       387   10    0    1
 -2       468       484       485       469      1616      1617      1618      1577
 -1       388   10    0    1
 -2       469       485       486       470      1618      1619      1620      1580
 -1       389   10    0    1
 -2       470       486       487       471      1620      1621      1622      1583
 -1       390   10    0    1
 -2       471       487       488       472      1622      1623      1624      1586
 -1       391   10    0    1
 -2       472       488       439       440      1624      1625      1626      1589
 -1       392   10    0    1
 -2       382       383       489       473      1627      1628      1629      1593
 -1       393   10    0    1
 -2       473       489       490       474      1629      1630      1631      1595
 -1       394   10    0    1
 -2       474       490       491       475      1631      1632      1633      1597
 -1       395   10    0    1
 -2       475       491       492       476      1633      1634      1635      1599
 -1       396   10    0    1
 -2       476       492       493       477      1635      1636      1637      1601
 -1       397   10    0    1
 -2       477       493       494       478      1637      1638      1639      1603
 -1       398   10    0    1
 -2       478       494       495       479      1639      1640      1641      1605
 -1       399   10    0    1
 -2       479       495       496       480      1641      1642      1643      1607
 -1       400   10    0    1
 -2       480       496       497       481      1643      1644      1645      1609
 -1       401   10    0    1
 -2       481       497       498       482      1645      1646      1647      1611
 -1       402   10    0    1
 -2       482       498       499       483      1647      1648      1649      1613
 -1       403   10    0    1
 -2       483       499       500       484      1649      1650      1651      1615
 -1       404   10    0    1
 -2       484       500       501       485      1651      1652      1653      1617
 -1       405   10    0    1
 -2       485       501       502       486      1653      1654      1655      1619
 -1       406   10    0    1
 -2       486       502       503       487      1655      1656      1657      1621
 -1       407   10    0    1
 -2       487       503       504       488      1657      1658      1659      1623
 -1       408   10    0    1
 -2       488       504       438       439      1659      1660      1661      1625
 -1       409   10    0    1
 -2       383       384       505       489      1662      1663      1664      1628
 -1       410   10    0    1
 -2       489       505       506       490      1664      1665      1666      1630
 -1       411   10    0    1
 -2       490       506       507       491      1666      1667      1668      1632
 -1       412   10    0    1
 -2       491       507       508       492      1668      1669      1670      1634
 -1       413   10    0    1
 -2       492       508       509       493      1670      1671      1672      1636
 -1       414   10    0    1
 -2       493       509       510       494      1672      1673      1674      1638
 -1       415   10    0    1
 -2       494       510       511       495      1674      1675      1676      1640
 -1       416   10    0    1
 -2       495       511       512       496      1676      1677      1678      1642
 -1       417   10    0    1
 -2       496       512       513       497      1678      1679      1680      1644
 -1       418   10    0    1
 -2       497       513       514       498      1680      1681      1682      1646
 -1       419   10    0    1
 -2       498       514       515       499      1682      1683      1684      1648
 -1       420   10    0    1
 -2       499       515       516       500      1684      1685      1686      1650
 -1       421   10    0    1
 -2       500       516       517       501      1686      1687      1688      1652
 -1       422   10    0    1
 -2       501       517       518       502      1688      1689      1690      1654
 -1       423   10    0    1
 -2       502       518       519       503      1690      1691      1692      1656
 -1       424   10    0    1
 -2       503       519       520       504      1692      1693      1694      1658
 -1       425   10    0    1
 -2       504       520       437       438      1694      1695      1696      1660
 -1       426   10    0    1
 -2       384       385       521       505      1697      1698      1699      1663
 -1       427   10    0    1
 -2       505       521       522       506      1699      1700      1701      1665
 -1       428   10    0    1
 -2       506       522       523       507      1701      1702      1703      1667
 -1       429   10    0    1
 -2       507       523       524       508      1703      1704      1705      1669
 -1       430   10    0    1
 -2       508       524       525       509      1705      1706      1707      1671
 -1       431   10    0    1
 -2       509       525       526       510      1707      1708      1709      1673
 -1       432   10    0    1
 -2       510       526       527       511      1709      1710      1711      1675
 -1       433   10    0    1
 -2       511       527       528       512      1711      1712      1713      1677
 -1       434   10    0    1
 -2       512       528       529       513      1713      1714      1715      1679
 -1       435   10    0    1
 -2       513       529       530       514      1715      1716      1717      1681
 -1       436   10    0    1
 -2       514       530       531       515      1717      1718      1719      1683
 -1       437   10    0    1
 -2       515       531       532       516      1719      1720      1721      1685
 -1       438   10    0    1
 -2       516       532       533       517      1721      1722      1723      1687
 -1       439   10    0    1
 -2       517       533       534       518      1723      1724      1725      1689
 -1       440   10    0    1
 -2       518       534       535       519      1725      1726      1727      1691
 -1       441   10    0    1
 -2       519       535       536       520      1727      1728      1729      1693
 -1       442   10    0    1
 -2       520       536       436       437      1729      1730      1731      1695
 -1       443   10    0    1
 -2       385       386       537       521      1732      1733      1734      1698
 -1       444   10    0    1
 -2       521       537       538       522      1734      1735      1736      1700
 -1       445   10    0    1
 -2       522       538       539       523      1736      1737      1738      1702
 -1       446   10    0    1
 -2       523       539       540       524      1738      1739      1740      1704
 -1       447   10    0    1
 -2       524       540       541       525      1740      1741      1742      1706
 -1       448   10    0    1
 -2       525       541       542       526      1742      1743      1744      1708
 -1       449   10    0    1
 -2       526       542       543       527      1744      1745      1746      1710
 -1       450   10    0    1
 -2       527       543       544       528      1746      1747      1748      1712
 -1       451   10    0    1
 -2       528       544       545       529      1748      1749      1750      1714
 -1       452   10    0    1
 -2       529       545       546       530      1750      1751      1752      1716
 -1       453   10    0    1
 -2       530       546       547       531      1752      1753      1754      1718
 -1       454   10    0    1
 -2       531       547       548       532      1754      1755      1756      1720
 -1       455   10    0    1
 -2       532       548       549       533      1756      1757      1758      1722
 -1       456   10    0    1
 -2       533       549       550       534      1758      1759      1760      1724
 -1       457   10    0    1
 -2       534       550       551       535      1760      1761      1762      1726
 -1       458   10    0    1
 -2       535       551       552       536      1762      1763      1764      1728
 -1       459   10    0    1
 -2       536       552       435       436      1764      1765      1766      1730
 -1       460   10    0    1
 -2       386       387       553       537      1767      1768      1769      1733
 -1       461   10    0    1
 -2       537       553       554       538      1769      1770      1771      1735
 -1       462   10    0    1
 -2       538       554       555       539      1771      1772      1773      1737
 -1       463   10    0    1
 -2       539       555       556       540      1773      1774      1775      1739
 -1       464   10    0    1
 -2       540       556       557       541      1775      1776      1777      1741
 -1       465   10    0    1
 -2       541       557       558       542      1777      1778      1779      1743
 -1       466   10    0    1
 -2       542       558       559       543      1779      1780      1781      1745
 -1       467   10    0    1
 -2       543       559       560       544      1781      1782      1783      1747
 -1       468   10    0    1
 -2       544       560       561       545      1783      1784      1785      1749
 -1       469   10    0    1
 -2       545       561       562       546      1785      1786      1787      1751
 -1       470   10    0    1
 -2       546       562       563       547      1787      1788      1789      1753
 -1       471   10    0    1
 -2       547       563       564       548      1789      1790      1791      1755
 -1       472   10    0    1
 -2       548       564       565       549      1791      1792      1793      1757
 -1       473   10    0    1
 -2       549       565       566       550      1793      1794      1795      1759
 -1       474   10    0    1
 -2       550       566       567       551      1795      1796      1797      1761
 -1       475   10    0    1
 -2       551       567       568       552      1797      1798      1799      1763
 -1       476   10    0    1
 -2       552       568       434       435      1799      1800      1801      1765
 -1       477   10    0    1
 -2       387       388       569       553      1802      1803      1804      1768
 -1       478   10    0    1
 -2       553       569       570       554      1804      1805      1806      1770
 -1       479   10    0    1
 -2       554       570       571       555      1806      1807      1808      1772
 -1       480   10    0    1
 -2       555       571       572       556      1808      1809      1810      1774
 -1       481   10    0    1
 -2       556       572       573       557      1810      1811      1812      1776
 -1       482   10    0    1
 -2       557       573       574       558      1812      1813      1814      1778
 -1       483   10    0    1
 -2       558       574       575       559      1814      1815      1816      1780
 -1       484   10    0    1
 -2       559       575       576       560      1816      1817      1818      1782
 -1       485   10    0    1
 -2       560       576       577       561      1818      1819      1820      1784
 -1       486   10    0    1
 -2       561       577       578       562      1820      1821      1822      1786
 -1       487   10    0    1
 -2       562       578       579       563      1822      1823      1824      1788
 -1       488   10    0    1
 -2       563       579       580       564      1824      1825      1826      1790
 -1       489   10    0    1
 -2       564       580       581       565      1826      1827      1828      1792
 -1       490   10    0    1
 -2       565       581       582       566      1828      1829      1830      1794
 -1       491   10    0    1
 -2       566       582       583       567      1830      1831      1832      1796
 -1       492   10    0    1
 -2       567       583       584       568      1832      1833      1834      1798
 -1       493   10    0    1
 -2       568       584       433       434      1834      1835      1836      1800
 -1       494   10    0    1
 -2       388       389       585       569      1837      1838      1839      1803
 -1       495   10    0    1
 -2       569       585       586       570      1839      1840      1841      1805
 -1       496   10    0    1
 -2       570       586       587       571      1841      1842      1843      1807
 -1       497   10    0    1
 -2       571       587       588       572      1843      1844      1845      1809
 -1       498   10    0    1
 -2       572       588       589       573      1845      1846      1847      1811
 -1       499   10    0    1
 -2       573       589       590       574      1847      1848      1849      1813
 -1       500   10    0    1
 -2       574       590       591       575      1849      1850      1851      1815
 -1       501   10    0    1
 -2       575       591       592       576      1851      1852      1853      1817
 -1       502   10    0    1
 -2       576       592       593       577      1853      1854      1855      1819
 -1       503   10    0    1
 -2       577       593       594       578      1855      1856      1857      1821
 -1       504   10    0    1
 -2       578       594       595       579      1857      1858      1859      1823
 -1       505   10    0    1
 -2       579       595       596       580      1859      1860      1861      1825
 -1       506   10    0    1
 -2       580       596       597       581      1861      1862      1863      1827
 -1       507   10    0    1
 -2       581       597       598       582      1863      1864      1865      1829
 -1       508   10    0    1
 -2       582       598       599       583      1865      1866      1867      1831
 -1       509   10    0    1
 -2       583       599       600       584      1867      1868      1869      1833
 -1       510   10    0    1
 -2       584       600       432       433      1869      1870      1871      1835
 -1       511   10    0    1
 -2       389       390       601       585      1872      1873      1874      1838
 -1       512   10    0    1
 -2       585       601       602       586      1874      1875      1876      1840
 -1       513   10    0    1
 -2       586       602       603       587      1876      1877      1878      1842
 -1       514   10    0    1
 -2       587       603       604       588      1878      1879      1880      1844
 -1       515   10    0    1
 -2       588       604       605       589      1880      1881      1882      1846
 -1       516   10    0    1
 -2       589       605       606       590      1882      1883      1884      1848
 -1       517   10    0    1
 -2       590       606       607       591      1884      1885      1886      1850
 -1       518   10    0    1
 -2       591       607       608       592      1886      1887      1888      1852
 -1       519   10    0    1
 -2       592       608       609       593      1888      1889      1890      1854
 -1       520   10    0    1
 -2       593       609       610       594      1890      1891      1892      1856
 -1       521   10    0    1
 -2       594       610       611       595      1892      1893      1894      1858
 -1       522   10    0    1
 -2       595       611       612       596      1894      1895      1896      1860
 -1       523   10    0    1
 -2       596       612       613       597      1896      1897      1898      1862
 -1       524   10    0    1
 -2       597       613       614       598      1898      1899      1900      1864
 -1       525   10    0    1
 -2       598       614       615       599      1900      1901      1902      1866
 -1       526   10    0    1
 -2       599       615       616       600      1902      1903      1904      1868
 -1       527   10    0    1
 -2       600       616       431       432      1904      1905      1906      1870
 -1       528   10    0    1
 -2       390       391       617       601      1907      1908      1909      1873
 -1       529   10    0    1
 -2       601       617       618       602      1909      1910      1911      1875
 -1       530   10    0    1
 -2       602       618       619       603      1911      1912      1913      1877
 -1       531   10    0    1
 -2       603       619       620       604      1913      1914      1915      1879
 -1       532   10    0    1
 -2       604       620       621       605      1915      1916      1917      1881
 -1       533   10    0    1
 -2       605       621       622       606      1917      1918      1919      1883
 -1       534   10    0    1
 -2       606       622       623       607      1919      1920      1921      1885
 -1       535   10    0    1
 -2       607       623       624       608      1921      1922      1923      1887
 -1       536   10    0    1
 -2       608       624       625       609      1923      1924      1925      1889
 -1       537   10    0    1
 -2       609       625       626       610      1925      1926      1927      1891
 -1       538   10    0    1
 -2       610       626       627       611      1927      1928      1929      1893
 -1       539   10    0    1
 -2       611       627       628       612      1929      1930      1931      1895
 -1       540   10    0    1
 -2       612       628       629       613      1931      1932      1933      1897
 -1       541   10    0    1
 -2       613       629       630       614      1933      1934      1935      1899
 -1       542   10    0    1
 -2       614       630       631       615      1935      1936      1937      1901
 -1       543   10    0    1
 -2       615       631       632       616      1937      1938      1939      1903
 -1       544   10    0    1
 -2       616       632       430       431      1939      1940      1941      1905
 -1       545   10    0    1
 -2       391       392       633       617      1942      1943      1944      1908
 -1       546   10    0    1
 -2       617       633       634       618      1944      1945      1946      1910
 -1       547   10    0    1
 -2       618       634       635       619      1946      1947      1948      1912
 -1       548   10    0    1
 -2       619       635       636       620      1948      1949      1950      1914
 -1       549   10    0    1
 -2       620       636       637       621      1950      1951      1952      1916
 -1       550   10    0    1
 -2       621       637       638       622      1952      1953      1954      1918
 -1       551   10    0    1
 -2       622       638       639       623      1954      1955      1956      1920
 -1       552   10    0    1
 -2       623       639       640       624      1956      1957      1958      1922
 -1       553   10    0    1
 -2       624       640       641       625      1958      1959      1960      1924
 -1       554   10    0    1
 -2       625       641       642       626      1960      1961      1962      1926
 -1       555   10    0    1
 -2       626       642       643       627      1962      1963      1964      1928
 -1       556   10    0    1
 -2       627       643       644       628      1964      1965      1966      1930
 -1       557   10    0    1
 -2       628       644       645       629      1966      1967      1968      1932
 -1       558   10    0    1
 -2       629       645       646       630      1968      1969      1970      1934
 -1       559   10    0    1
 -2       630       646       647       631      1970      1971      1972      1936
 -1       560   10    0    1
 -2       631       647       648       632      1972      1973      1974      1938
 -1       561   10    0    1
 -2       632       648       429       430      1974      1975      1976      1940
 -1       562   10    0    1
 -2       392       393       649       633      1977      1978      1979      1943
 -1       563   10    0    1
 -2       633       649       650       634      1979      1980      1981      1945
 -1       564   10    0    1
 -2       634       650       651       635      1981      1982      1983      1947
 -1       565   10    0    1
 -2       635       651       652       636      1983      1984      1985      1949
 -1       566   10    0    1
 -2       636       652       653       637      1985      1986      1987      1951
 -1       567   10    0    1
 -2       637       653       654       638      1987      1988      1989      1953
 -1       568   10    0    1
 -2       638       654       655       639      1989      1990      1991      1955
 -1       569   10    0    1
 -2       639       655       656       640      1991      1992      1993      1957
 -1       570   10    0    1
 -2       640       656       657       641      1993      1994      1995      1959
 -1       571   10    0    1
 -2       641       657       658       642      1995      1996      1997      1961
 -1       572   10    0    1
 -2       642       658       659       643      1997      1998      1999      1963
 -1       573   10    0    1
 -2       643       659       660       644      1999      2000      2001      1965
 -1       574   10    0    1
 -2       644       660       661       645      2001      2002      2003      1967
 -1       575   10    0    1
 -2       645       661       662       646      2003      2004      2005      1969
 -1       576   10    0    1
 -2       646       662       663       647      2005      2006      2007      1971
 -1       577   10    0    1
 -2       647       663       664       648      2007      2008      2009      1973
 -1       578   10    0    1
 -2       648       664       428       429      2009      2010      2011      1975
 -1       579   10    0    1
 -2       393       394       665       649      2012      2013      2014      1978
 -1       580   10    0    1
 -2       649       665       666       650      2014      2015      2016      1980
 -1       581   10    0    1
 -2       650       666       667       651      2016      2017      2018      1982
 -1       582   10    0    1
 -2       651       667       668       652      2018      2019      2020      1984
 -1       583   10    0    1
 -2       652       668       669       653      2020      2021      2022      1986
 -1       584   10    0    1
 -2       653       669       670       654      2022      2023      2024      1988
 -1       585   10    0    1
 -2       654       670       671       655      2024      2025      2026      1990
 -1       586   10    0    1
 -2       655       671       672       656      2026      2027      2028      1992
 -1       587   10    0    1
 -2       656       672       673       657      2028      2029      2030      1994
 -1       588   10    0    1
 -2       657       673       674       658      2030      2031      2032      1996
 -1       589   10    0    1
 -2       658       674       675       659      2032      2033      2034      1998
 -1       590   10    0    1
 -2       659       675       676       660      2034      2035      2036      2000
 -1       591   10    0    1
 -2       660       676       677       661      2036      2037      2038      2002
 -1       592   10    0    1
 -2       661       677       678       662      2038      2039      2040      2004
 -1       593   10    0    1
 -2       662       678       679       663      2040      2041      2042      2006
 -1       594   10    0    1
 -2       663       679       680       664      2042      2043      2044      2008
 -1       595   10    0    1
 -2       664       680       427       428      2044      2045      2046      2010
 -1       596   10    0    1
 -2       394       395       681       665      2047      2048      2049      2013
 -1       597   10    0    1
 -2       665       681       682       666      2049      2050      2051      2015
 -1       598   10    0    1
 -2       666       682       683       667      2051      2052      2053      2017
 -1       599   10    0    1
 -2       667       683       684       668      2053      2054      2055      2019
 -1       600   10    0    1
 -2       668       684       685       669      2055      2056      2057      2021
 -1       601   10    0    1
 -2       669       685       686       670      2057      2058      2059      2023
 -1       602   10    0    1
 -2       670       686       687       671      2059      2060      2061      2025
 -1       603   10    0    1
 -2       671       687       688       672      2061      2062      2063      2027
 -1       604   10    0    1
 -2       672       688       689       673      2063      2064      2065      2029
 -1       605   10    0    1
 -2       673       689       690       674      2065      2066      2067      2031
 -1       606   10    0    1
 -2       674       690       691       675      2067      2068      2069      2033
 -1       607   10    0    1
 -2       675       691       692       676      2069      2070      2071      2035
 -1       608   10    0    1
 -2       676       692       693       677      2071      2072      2073      2037
 -1       609   10    0    1
 -2       677       693       694       678      2073      2074      2075      2039
 -1       610   10    0    1
 -2       678       694       695       679      2075      2076      2077      2041
 -1       611   10    0    1
 -2       679       695       696       680      2077      2078      2079      2043
 -1       612   10    0    1
 -2       680       696       426       427      2079      2080      2081      2045
 -1       613   10    0    1
 -2       395       396       697       681      2082      2083      2084      2048
 -1       614   10    0    1
 -2       681       697       698       682      2084      2085      2086      2050
 -1       615   10    0    1
 -2       682       698       699       683      2086      2087      2088      2052
 -1       616   10    0    1
 -2       683       699       700       684      2088      2089      2090      2054
 -1       617   10    0    1
 -2       684       700       701       685      2090      2091      2092      2056
 -1       618   10    0    1
 -2       685       701       702       686      2092      2093      2094      2058
 -1       619   10    0    1
 -2       686       702       703       687      2094      2095      2096      2060
 -1       620   10    0    1
 -2       687       703       704       688      2096      2097      2098      2062
 -1       621   10    0    1
 -2       688       704       705       689      2098      2099      2100      2064
 -1       622   10    0    1
 -2       689       705       706       690      2100      2101      2102      2066
 -1       623   10    0    1
 -2       690       706       707       691      2102      2103      2104      2068
 -1       624   10    0    1
 -2       691       707       708       692      2104      2105      2106      2070
 -1       625   10    0    1
 -2       692       708       709       693      2106      2107      2108      2072
 -1       626   10    0    1
 -2       693       709       710       694      2108      2109      2110      2074
 -1       627   10    0    1
 -2       694       710       711       695      2110      2111      2112      2076
 -1       628   10    0    1
 -2       695       711       712       696      2112      2113      2114      2078
 -1       629   10    0    1
 -2       696       712       425       426      2114      2115      2116      2080
 -1       630   10    0    1
 -2       396       397       713       697      2117      2118      2119      2083
 -1       631   10    0    1
 -2       697       713       714       698      2119      2120      2121      2085
 -1       632   10    0    1
 -2       698       714       715       699      2121      2122      2123      2087
 -1       633   10    0    1
 -2       699       715       716       700      2123      2124      2125      2089
 -1       634   10    0    1
 -2       700       716       717       701      2125      2126      2127      2091
 -1       635   10    0    1
 -2       701       717       718       702      2127      2128      2129      2093
 -1       636   10    0    1
 -2       702       718       719       703      2129      2130      2131      2095
 -1       637   10    0    1
 -2       703       719       720       704      2131      2132      2133      2097
 -1       638   10    0    1
 -2       704       720       721       705      2133      2134      2135      2099
 -1       639   10    0    1
 -2       705       721       722       706      2135      2136      2137      2101
 -1       640   10    0    1
 -2       706       722       723       707      2137      2138      2139      2103
 -1       641   10    0    1
 -2       707       723       724       708      2139      2140      2141      2105
 -1       642   10    0    1
 -2       708       724       725       709      2141      2142      2143      2107
 -1       643   10    0    1
 -2       709       725       726       710      2143      2144      2145      2109
 -1       644   10    0    1
 -2       710       726       727       711      2145      2146      2147      2111
 -1       645   10    0    1
 -2       711       727       728       712      2147      2148      2149      2113
 -1       646   10    0    1
 -2       712       728       424       425      2149      2150      2151      2115
 -1       647   10    0    1
 -2       397       398       729       713      2152      2153      2154      2118
 -1       648   10    0    1
 -2       713       729       730       714      2154      2155      2156      2120
 -1       649   10    0    1
 -2       714       730       731       715      2156      2157      2158      2122
 -1       650   10    0    1
 -2       715       731       732       716      2158      2159      2160      2124
 -1       651   10    0    1
 -2       716       732       733       717      2160      2161      2162      2126
 -1       652   10    0    1
 -2       717       733       734       718      2162      2163      2164      2128
 -1       653   10    0    1
 -2       718       734       735       719      2164      2165      2166      2130
 -1       654   10    0    1
 -2       719       735       736       720      2166      2167      2168      2132
 -1       655   10    0    1
 -2       720       736       737       721      2168      2169      2170      2134
 -1       656   10    0    1
 -2       721       737       738       722      2170      2171      2172      2136
 -1       657   10    0    1
 -2       722       738       739       723      2172      2173      2174      2138
 -1       658   10    0    1
 -2       723       739       740       724      2174      2175      2176      2140
 -1       659   10    0    1
 -2       724       740       741       725      2176      2177      2178      2142
 -1       660   10    0    1
 -2       725       741       742       726      2178      2179      2180      2144
 -1       661   10    0    1
 -2       726       742       743       727      2180      2181      2182      2146
 -1       662   10    0    1
 -2       727       743       744       728      2182      2183      2184      2148
 -1       663   10    0    1
 -2       728       744       423       424      2184      2185      2186      2150
 -1       664   10    0    1
 -2       398       399       745       729      2187      2188      2189      2153
 -1       665   10    0    1
 -2       729       745       746       730      2189      2190      2191      2155
 -1       666   10    0    1
 -2       730       746       747       731      2191      2192      2193      2157
 -1       667   10    0    1
 -2       731       747       748       732      2193      2194      2195      2159
 -1       668   10    0    1
 -2       732       748       749       733      2195      2196      2197      2161
 -1       669   10    0    1
 -2       733       749       750       734      2197      2198      2199      2163
 -1       670   10    0    1
 -2       734       750       751       735      2199      2200      2201      2165
 -1       671   10    0    1
 -2       735       751       752       736      2201      2202      2203      2167
 -1       672   10    0    1
 -2       736       752       753       737      2203      2204      2205      2169
 -1       673   10    0    1
 -2       737       753       754       738      2205      2206      2207      2171
 -1       674   10    0    1
 -2       738       754       755       739      2207      2208      2209      2173
 -1       675   10    0    1
 -2       739       755       756       740      2209      2210      2211      2175
 -1       676   10    0    1
 -2       740       756       757       741      2211      2212      2213      2177
 -1       677   10    0    1
 -2       741       757       758       742      2213      2214      2215      2179
 -1       678   10    0    1
 -2       742       758       759       743      2215      2216      2217      2181
 -1       679   10    0    1
 -2       743       759       760       744      2217      2218      2219      2183
 -1       680   10    0    1
 -2       744       760       422       423      2219      2220      2221      2185
 -1       681   10    0    1
 -2       399       400       761       745      2222      2223      2224      2188
 -1       682   10    0    1
 -2       745       761       762       746      2224      2225      2226      2190
 -1       683   10    0    1
 -2       746       762       763       747      2226      2227      2228      2192
 -1       684   10    0    1
 -2       747       763       764       748      2228      2229      2230      2194
 -1       685   10    0    1
 -2       748       764       765       749      2230      2231      2232      2196
 -1       686   10    0    1
 -2       749       765       766       750      2232      2233      2234      2198
 -1       687   10    0    1
 -2       750       766       767       751      2234      2235      2236      2200
 -1       688   10    0    1
 -2       751       767       768       752      2236      2237      2238      2202
 -1       689   10    0    1
 -2       752       768       769       753      2238      2239      2240      2204
 -1       690   10    0    1
 -2       753       769       770       754      2240      2241      2242      2206
 -1       691   10    0    1
 -2       754       770       771       755      2242      2243      2244      2208
 -1       692   10    0    1
 -2       755       771       772       756      2244      2245      2246      2210
 -1       693   10    0    1
 -2       756       772       773       757      2246      2247      2248      2212
 -1       694   10    0    1
 -2       757       773       774       758      2248      2249      2250      2214
 -1       695   10    0    1
 -2       758       774       775       759      2250      2251      2252      2216
 -1       696   10    0    1
 -2       759       775       776       760      2252      2253      2254      2218
 -1       697   10    0    1
 -2       760       776       421       422      2254      2255      2256      2220
 -1       698   10    0    1
 -2       400       401       777       761      2257      2258      2259      2223
 -1       699   10    0    1
 -2       761       777       778       762      2259      2260      2261      2225
 -1       700   10    0    1
 -2       762       778       779       763      2261      2262      2263      2227
 -1       701   10    0    1
 -2       763       779       780       764      2263      2264      2265      2229
 -1       702   10    0    1
 -2       764       780       781       765      2265      2266      2267      2231
 -1       703   10    0    1
 -2       765       781       782       766      2267      2268      2269      2233
 -1       704   10    0    1
 -2       766       782       783       767      2269      2270      2271      2235
 -1       705   10    0    1
 -2       767       783       784       768      2271      2272      2273      2237
 -1       706   10    0    1
 -2       768       784       785       769      2273      2274      2275      2239
 -1       707   10    0    1
 -2       769       785       786       770      2275      2276      2277      2241
 -1       708   10    0    1
 -2       770       786       787       771      2277      2278      2279      2243
 -1       709   10    0    1
 -2       771       787       788       772      2279      2280      2281      2245
 -1       710   10    0    1
 -2       772       788       789       773      2281      2282      2283      2247
 -1       711   10    0    1
 -2       773       789       790       774      2283      2284      2285      2249
 -1       712   10    0    1
 -2       774       790       791       775      2285      2286      2287      2251
 -1       713   10    0    1
 -2       775       791       792       776      2287      2288      2289      2253
 -1       714   10    0    1
 -2       776       792       420       421      2289      2290      2291      2255
 -1       715   10    0    1
 -2       401       402       793       777      2292      2293      2294      2258
 -1       716   10    0    1
 -2       777       793       794       778      2294      2295      2296      2260
 -1       717   10    0    1
 -2       778       794       795       779      2296      2297      2298      2262
 -1       718   10    0    1
 -2       779       795       796       780      2298      2299      2300      2264
 -1       719   10    0    1
 -2       780       796       797       781      2300      2301      2302      2266
 -1       720   10    0    1
 -2       781       797       798       782      2302      2303      2304      2268
 -1       721   10    0    1
 -2       782       798       799       783      2304      2305      2306      2270
 -1       722   10    0    1
 -2       783       799       800       784      2306      2307      2308      2272
 -1       723   10    0    1
 -2       784       800       801       785      2308      2309      2310      2274
 -1       724   10    0    1
 -2       785       801       802       786      2310      2311      2312      2276
 -1       725   10    0    1
 -2       786       802       803       787      2312      2313      2314      2278
 -1       726   10    0    1
 -2       787       803       804       788      2314      2315      2316      2280
 -1       727   10    0    1
 -2       788       804       805       789      2316      2317      2318      2282
 -1       728   10    0    1
 -2       789       805       806       790      2318      2319      2320      2284
 -1       729   10    0    1
 -2       790       806       807       791      2320      2321      2322      2286
 -1       730   10    0    1
 -2       791       807       808       792      2322      2323      2324      2288
 -1       731   10    0    1
 -2       792       808       419       420      2324      2325      2326      2290
 -1       732   10    0    1
 -2       402       377       403       793      2327      2328      2329      2293
 -1       733   10    0    1
 -2       793       403       404       794      2329      2330      2331      2295
 -1       734   10    0    1
 -2       794       404       405       795      2331      2332      2333      2297
 -1       735   10    0    1
 -2       795       405       406       796      2333      2334      2335      2299
 -1       736   10    0    1
 -2       796       406       407       797      2335      2336      2337      2301
 -1       737   10    0    1
 -2       797       407       408       798      2337      2338      2339      2303
 -1       738   10    0    1
 -2       798       408       409       799      2339      2340      2341      2305
 -1       739   10    0    1
 -2       799       409       410       800      2341      2342      2343      2307
 -1       740   10    0    1
 -2       800       410       411       801      2343      2344      2345      2309
 -1       741   10    0    1
 -2       801       411       412       802      2345      2346      2347      2311
 -1       742   10    0    1
 -2       802       412       413       803      2347      2348      2349      2313
 -1       743   10    0    1
 -2       803       413       414       804      2349      2350      2351      2315
 -1       744   10    0    1
 -2       804       414       415       805      2351      2352      2353      2317
 -1       745   10    0    1
 -2       805       415       416       806      2353      2354      2355      2319
 -1       746   10    0    1
 -2       806       416       417       807      2355      2356      2357      2321
 -1       747   10    0    1
 -2       807       417       418       808      2357      2358      2359      2323
 -1       748   10    0    1
 -2       808       418       378       419      2359      2360      2361      2325
 -3
    1PSTEP                         1           1           1          
  100CL  101 1.000000000        2360                     0    1           1
 -4  DISP        4    1
 -5  D1          1    2    1    0
 -5  D2          1    2    2    0
 -5  D3          1    2    3    0
 -5  ALL         1    2    0    0    1ALL
 -1         1 0.00000E+00 1.01483E-02 0.00000E+00
 -1         2 1.27772E-03 0.00000E+00 0.00000E+00
 -1         3-9.34689E-04 8.54186E-03 0.00000E+00
 -1         4-9.27150E-04 6.24677E-03 0.00000E+00
 -1         5-8.57810E-04 5.12779E-03 0.00000E+00
 -1         6-7.80214E-04 4.32947E-03 0.00000E+00
 -1         7-6.96175E-04 3.69522E-03 0.00000E+00
 -1         8-6.03732E-04 3.16153E-03 0.00000E+00
 -1         9-5.03502E-04 2.69851E-03 0.00000E+00
 -1        10-3.94748E-04 2.28869E-03 0.00000E+00
 -1        11-2.77210E-04 1.92170E-03 0.00000E+00
 -1        12-1.50724E-04 1.59122E-03 0.00000E+00
 -1        13-1.54138E-05 1.29346E-03 0.00000E+00
 -1        14 1.28229E-04 1.02643E-03 0.00000E+00
 -1        15 2.79197E-04 7.89382E-04 0.00000E+00
 -1        16 4.35786E-04 5.82455E-04 0.00000E+00
 -1        17 5.95374E-04 4.06398E-04 0.00000E+00
 -1        18 7.54146E-04 2.62212E-04 0.00000E+00
 -1        19 9.06778E-04 1.50731E-04 0.00000E+00
 -1        20 1.04609E-03 7.20203E-05 0.00000E+00
 -1        21 1.16270E-03 2.44915E-05 0.00000E+00
 -1        22 1.24495E-03 3.56954E-06 0.00000E+00
 -1        23 1.27739E-03 0.00000E+00 0.00000E+00
 -1        24 1.27617E-03 0.00000E+00 0.00000E+00
 -1        25 1.27381E-03 0.00000E+00 0.00000E+00
 -1        26 1.26978E-03 0.00000E+00 0.00000E+00
 -1        27 1.26341E-03 0.00000E+00 0.00000E+00
 -1        28 1.25372E-03 0.00000E+00 0.00000E+00
 -1        29 1.23938E-03 0.00000E+00 0.00000E+00
 -1        30 1.21858E-03 0.00000E+00 0.00000E+00
 -1        31 1.18879E-03 0.00000E+00 0.00000E+00
 -1        32 1.14660E-03 0.00000E+00 0.00000E+00
 -1        33 1.08744E-03 0.00000E+00 0.00000E+00
 -1        34 1.00540E-03 0.00000E+00 0.00000E+00
 -1        35 8.93202E-04 0.00000E+00 0.00000E+00
 -1        36 7.42701E-04 0.00000E+00 0.00000E+00
 -1        37 5.46371E-04 0.00000E+00 0.00000E+00
 -1        38 2.99822E-04 0.00000E+00 0.00000E+00
 -1        39 0.00000E+00 0.00000E+00 0.00000E+00
 -1        40 0.00000E+00 8.90413E-03 0.00000E+00
 -1        41 0.00000E+00 7.59997E-03 0.00000E+00
 -1        42 0.00000E+00 6.63029E-03 0.00000E+00
 -1        43 0.00000E+00 5.86169E-03 0.00000E+00
 -1        44 0.00000E+00 5.21966E-03 0.00000E+00
 -1        45 0.00000E+00 4.66042E-03 0.00000E+00
 -1        46 0.00000E+00 4.15804E-03 0.00000E+00
 -1        47 0.00000E+00 3.69594E-03 0.00000E+00
 -1        48 0.00000E+00 3.26269E-03 0.00000E+00
 -1        49 0.00000E+00 2.84985E-03 0.00000E+00
 -1        50 0.00000E+00 2.45071E-03 0.00000E+00
 -1        51 0.00000E+00 2.05951E-03 0.00000E+00
 -1        52 0.00000E+00 1.67083E-03 0.00000E+00
 -1        53 0.00000E+00 1.27910E-03 0.00000E+00
 -1        54 0.00000E+00 8.78005E-04 0.00000E+00
 -1        55 0.00000E+00 4.59015E-04 0.00000E+00
 -1        56 2.28121E-04 7.98040E-03 0.00000E+00
 -1        57 3.02511E-04 7.19714E-03 0.00000E+00
 -1        58 2.50565E-04 6.43862E-03 0.00000E+00
 -1        59 1.96682E-04 5.76195E-03 0.00000E+00
 -1        60 1.55848E-04 5.16363E-03 0.00000E+00
 -1        61 1.25326E-04 4.62725E-03 0.00000E+00
 -1        62 1.02107E-04 4.13771E-03 0.00000E+00
 -1        63 8.39347E-05 3.68321E-03 0.00000E+00
 -1        64 6.92945E-05 3.25463E-03 0.00000E+00
 -1        65 5.71638E-05 2.84473E-03 0.00000E+00
 -1        66 4.68329E-05 2.44749E-03 0.00000E+00
 -1        67 3.77911E-05 2.05752E-03 0.00000E+00
 -1        68 2.96521E-05 1.66963E-03 0.00000E+00
 -1        69 2.21042E-05 1.27841E-03 0.00000E+00
 -1        70 1.48725E-05 8.77641E-04 0.00000E+00
 -1        71 7.66486E-06 4.58858E-04 0.00000E+00
 -1        72 2.88414E-05 6.34704E-03 0.00000E+00
 -1        73 3.61945E-04 6.25992E-03 0.00000E+00
 -1        74 4.02786E-04 5.91572E-03 0.00000E+00
 -1        75 3.58466E-04 5.46380E-03 0.00000E+00
 -1        76 3.01698E-04 4.98802E-03 0.00000E+00
 -1        77 2.50486E-04 4.52044E-03 0.00000E+00
 -1        78 2.07749E-04 4.07120E-03 0.00000E+00
 -1        79 1.72552E-04 3.64115E-03 0.00000E+00
 -1        80 1.43340E-04 3.22783E-03 0.00000E+00
 -1        81 1.18693E-04 2.82767E-03 0.00000E+00
 -1        82 9.74684E-05 2.43672E-03 0.00000E+00
 -1        83 7.87633E-05 2.05084E-03 0.00000E+00
 -1        84 6.18543E-05 1.66562E-03 0.00000E+00
 -1        85 4.61338E-05 1.27610E-03 0.00000E+00
 -1        86 3.10500E-05 8.76417E-04 0.00000E+00
 -1        87 1.60050E-05 4.58331E-04 0.00000E+00
 -1        88-1.95581E-04 5.22313E-03 0.00000E+00
 -1        89 2.41410E-04 5.29761E-03 0.00000E+00
 -1        90 4.20373E-04 5.22858E-03 0.00000E+00
 -1        91 4.49405E-04 5.01028E-03 0.00000E+00
 -1        92 4.16243E-04 4.69604E-03 0.00000E+00
 -1        93 3.64636E-04 4.33322E-03 0.00000E+00
 -1        94 3.12003E-04 3.95073E-03 0.00000E+00
 -1        95 2.64021E-04 3.56336E-03 0.00000E+00
 -1        96 2.21830E-04 3.17761E-03 0.00000E+00
 -1        97 1.84981E-04 2.79541E-03 0.00000E+00
 -1        98 1.52567E-04 2.41624E-03 0.00000E+00
 -1        99 1.23623E-04 2.03809E-03 0.00000E+00
 -1       100 9.72454E-05 1.65792E-03 0.00000E+00
 -1       101 7.26035E-05 1.27167E-03 0.00000E+00
 -1       102 4.88940E-05 8.74064E-04 0.00000E+00
 -1       103 2.52112E-05 4.57317E-04 0.00000E+00
 -1       104-2.97856E-04 4.40761E-03 0.00000E+00
 -1       105 1.03510E-04 4.50200E-03 0.00000E+00
 -1       106 3.56991E-04 4.54411E-03 0.00000E+00
 -1       107 4.67684E-04 4.48371E-03 0.00000E+00
 -1       108 4.85272E-04 4.31822E-03 0.00000E+00
 -1       109 4.55539E-04 4.07255E-03 0.00000E+00
 -1       110 4.06859E-04 3.77466E-03 0.00000E+00
 -1       111 3.53654E-04 3.44595E-03 0.00000E+00
 -1       112 3.02207E-04 3.10014E-03 0.00000E+00
 -1       113 2.54715E-04 2.74491E-03 0.00000E+00
 -1       114 2.11506E-04 2.38385E-03 0.00000E+00
 -1       115 1.72109E-04 2.01779E-03 0.00000E+00
 -1       116 1.35745E-04 1.64561E-03 0.00000E+00
 -1       117 1.01510E-04 1.26455E-03 0.00000E+00
 -1       118 6.84253E-05 8.70276E-04 0.00000E+00
 -1       119 3.53008E-05 4.55681E-04 0.00000E+00
 -1       120-3.27875E-04 3.76467E-03 0.00000E+00
 -1       121 1.26486E-05 3.85318E-03 0.00000E+00
 -1       122 2.77802E-04 3.92936E-03 0.00000E+00
 -1       123 4.40924E-04 3.95193E-03 0.00000E+00
 -1       124 5.11668E-04 3.89489E-03 0.00000E+00
 -1       125 5.17593E-04 3.75569E-03 0.00000E+00
 -1       126 4.86160E-04 3.54745E-03 0.00000E+00
 -1       127 4.37025E-04 3.28786E-03 0.00000E+00
 -1       128 3.81827E-04 2.99266E-03 0.00000E+00
 -1       129 3.26529E-04 2.67336E-03 0.00000E+00
 -1       130 2.73701E-04 2.33728E-03 0.00000E+00
 -1       131 2.24067E-04 1.98830E-03 0.00000E+00
 -1       132 1.77397E-04 1.62758E-03 0.00000E+00
 -1       133 1.32969E-04 1.25408E-03 0.00000E+00
 -1       134 8.97542E-05 8.64678E-04 0.00000E+00
 -1       135 4.63405E-05 4.53259E-04 0.00000E+00
 -1       136-3.14349E-04 3.22618E-03 0.00000E+00
 -1       137-3.14149E-05 3.30727E-03 0.00000E+00
 -1       138 2.16428E-04 3.39093E-03 0.00000E+00
 -1       139 4.00176E-04 3.45114E-03 0.00000E+00
 -1       140 5.09754E-04 3.46135E-03 0.00000E+00
 -1       141 5.52833E-04 3.40499E-03 0.00000E+00
 -1       142 5.46917E-04 3.27926E-03 0.00000E+00
 -1       143 5.10449E-04 3.09171E-03 0.00000E+00
 -1       144 4.57896E-04 2.85424E-03 0.00000E+00
 -1       145 3.98727E-04 2.57866E-03 0.00000E+00
 -1       146 3.38299E-04 2.27441E-03 0.00000E+00
 -1       147 2.79170E-04 1.94790E-03 0.00000E+00
 -1       148 2.22161E-04 1.60262E-03 0.00000E+00
 -1       149 1.67055E-04 1.23946E-03 0.00000E+00
 -1       150 1.12978E-04 8.56825E-04 0.00000E+00
 -1       151 5.83945E-05 4.49848E-04 0.00000E+00
 -1       152-2.71130E-04 2.76004E-03 0.00000E+00
 -1       153-3.67696E-05 2.83514E-03 0.00000E+00
 -1       154 1.83308E-04 2.91783E-03 0.00000E+00
 -1       155 3.66249E-04 2.99299E-03 0.00000E+00
 -1       156 4.96437E-04 3.04062E-03 0.00000E+00
 -1       157 5.69091E-04 3.04157E-03 0.00000E+00
 -1       158 5.90167E-04 2.98356E-03 0.00000E+00
 -1       159 5.71986E-04 2.86361E-03 0.00000E+00
 -1       160 5.28013E-04 2.68622E-03 0.00000E+00
 -1       161 4.69477E-04 2.45983E-03 0.00000E+00
 -1       162 4.04211E-04 2.19351E-03 0.00000E+00
 -1       163 3.36909E-04 1.89493E-03 0.00000E+00
 -1       164 2.69881E-04 1.56945E-03 0.00000E+00
 -1       165 2.03792E-04 1.21983E-03 0.00000E+00
 -1       166 1.38174E-04 8.46196E-04 0.00000E+00
 -1       167 7.15213E-05 4.45210E-04 0.00000E+00
 -1       168-2.05713E-04 2.34789E-03 0.00000E+00
 -1       169-1.14230E-05 2.41838E-03 0.00000E+00
 -1       170 1.79107E-04 2.49783E-03 0.00000E+00
 -1       171 3.49559E-04 2.57760E-03 0.00000E+00
 -1       172 4.85301E-04 2.64426E-03 0.00000E+00
 -1       173 5.76378E-04 2.68149E-03 0.00000E+00
 -1       174 6.20321E-04 2.67411E-03 0.00000E+00
 -1       175 6.21972E-04 2.61209E-03 0.00000E+00
 -1       176 5.90734E-04 2.49227E-03 0.00000E+00
 -1       177 5.37116E-04 2.31737E-03 0.00000E+00
 -1       178 4.70210E-04 2.09356E-03 0.00000E+00
 -1       179 3.96594E-04 1.82794E-03 0.00000E+00
 -1       180 3.20275E-04 1.52674E-03 0.00000E+00
 -1       181 2.43130E-04 1.19421E-03 0.00000E+00
 -1       182 1.65385E-04 8.32187E-04 0.00000E+00
 -1       183 8.57687E-05 4.39057E-04 0.00000E+00
 -1       184-1.22275E-04 1.97894E-03 0.00000E+00
 -1       185 3.88593E-05 2.04572E-03 0.00000E+00
 -1       186 2.01356E-04 2.12148E-03 0.00000E+00
 -1       187 3.53977E-04 2.20128E-03 0.00000E+00
 -1       188 4.85036E-04 2.27657E-03 0.00000E+00
 -1       189 5.83850E-04 2.33508E-03 0.00000E+00
 -1       190 6.43544E-04 2.36274E-03 0.00000E+00
 -1       191 6.62854E-04 2.34663E-03 0.00000E+00
 -1       192 6.45942E-04 2.27796E-03 0.00000E+00
 -1       193 6.00475E-04 2.15340E-03 0.00000E+00
 -1       194 5.35092E-04 1.97449E-03 0.00000E+00
 -1       195 4.57394E-04 1.74589E-03 0.00000E+00
 -1       196 3.72917E-04 1.47326E-03 0.00000E+00
 -1       197 2.84924E-04 1.16158E-03 0.00000E+00
 -1       198 1.94608E-04 8.14112E-04 0.00000E+00
 -1       199 1.01167E-04 4.31051E-04 0.00000E+00
 -1       200-2.34403E-05 1.64654E-03 0.00000E+00
 -1       201 1.09941E-04 1.71011E-03 0.00000E+00
 -1       202 2.46958E-04 1.78223E-03 0.00000E+00
 -1       203 3.79944E-04 1.86002E-03 0.00000E+00
 -1       204 5.00208E-04 1.93819E-03 0.00000E+00
 -1       205 5.98335E-04 2.00814E-03 0.00000E+00
 -1       206 6.66084E-04 2.05840E-03 0.00000E+00
 -1       207 6.98436E-04 2.07621E-03 0.00000E+00
 -1       208 6.94861E-04 2.04995E-03 0.00000E+00
 -1       209 6.59139E-04 1.97151E-03 0.00000E+00
 -1       210 5.97862E-04 1.83738E-03 0.00000E+00
 -1       211 5.18410E-04 1.64834E-03 0.00000E+00
 -1       212 4.27242E-04 1.40798E-03 0.00000E+00
 -1       213 3.28919E-04 1.12090E-03 0.00000E+00
 -1       214 2.25775E-04 7.91211E-04 0.00000E+00
 -1       215 1.17720E-04 4.20801E-04 0.00000E+00
 -1       216 8.88994E-05 1.34677E-03 0.00000E+00
 -1       217 1.98729E-04 1.40730E-03 0.00000E+00
 -1       218 3.12943E-04 1.47581E-03 0.00000E+00
 -1       219 4.26300E-04 1.55062E-03 0.00000E+00
 -1       220 5.32546E-04 1.62847E-03 0.00000E+00
 -1       221 6.24111E-04 1.70358E-03 0.00000E+00
 -1       222 6.93115E-04 1.76728E-03 0.00000E+00
 -1       223 7.32919E-04 1.80848E-03 0.00000E+00
 -1       224 7.39724E-04 1.81516E-03 0.00000E+00
 -1       225 7.13525E-04 1.77640E-03 0.00000E+00
 -1       226 6.57911E-04 1.68441E-03 0.00000E+00
 -1       227 5.78777E-04 1.53558E-03 0.00000E+00
 -1       228 4.82569E-04 1.33018E-03 0.00000E+00
 -1       229 3.74732E-04 1.07119E-03 0.00000E+00
 -1       230 2.58736E-04 7.62664E-04 0.00000E+00
 -1       231 1.35395E-04 4.07855E-04 0.00000E+00
 -1       232 2.13074E-04 1.07746E-03 0.00000E+00
 -1       233 3.02647E-04 1.13491E-03 0.00000E+00
 -1       234 3.96537E-04 1.19972E-03 0.00000E+00
 -1       235 4.91124E-04 1.27091E-03 0.00000E+00
 -1       236 5.81967E-04 1.34654E-03 0.00000E+00
 -1       237 6.63260E-04 1.42279E-03 0.00000E+00
 -1       238 7.28229E-04 1.49340E-03 0.00000E+00
 -1       239 7.70057E-04 1.54947E-03 0.00000E+00
 -1       240 7.83207E-04 1.58004E-03 0.00000E+00
 -1       241 7.64746E-04 1.57335E-03 0.00000E+00
 -1       242 7.15094E-04 1.51880E-03 0.00000E+00
 -1       243 6.37760E-04 1.40877E-03 0.00000E+00
 -1       244 5.38136E-04 1.23964E-03 0.00000E+00
 -1       245 4.21845E-04 1.01159E-03 0.00000E+00
 -1       246 2.93233E-04 7.27614E-04 0.00000E+00
 -1       247 1.54105E-04 3.91700E-04 0.00000E+00
 -1       248 3.47279E-04 8.37754E-04 0.00000E+00
 -1       249 4.19228E-04 8.91856E-04 0.00000E+00
 -1       250 4.94993E-04 9.52708E-04 0.00000E+00
 -1       251 5.72035E-04 1.01974E-03 0.00000E+00
 -1       252 6.47203E-04 1.09184E-03 0.00000E+00
 -1       253 7.16138E-04 1.16652E-03 0.00000E+00
 -1       254 7.73342E-04 1.23939E-03 0.00000E+00
 -1       255 8.12597E-04 1.30370E-03 0.00000E+00
 -1       256 8.27828E-04 1.35018E-03 0.00000E+00
 -1       257 8.14285E-04 1.36768E-03 0.00000E+00
 -1       258 7.69691E-04 1.34440E-03 0.00000E+00
 -1       259 6.94822E-04 1.26986E-03 0.00000E+00
 -1       260 5.93150E-04 1.13665E-03 0.00000E+00
 -1       261 4.69600E-04 9.41463E-04 0.00000E+00
 -1       262 3.28881E-04 6.85201E-04 0.00000E+00
 -1       263 1.73691E-04 3.71769E-04 0.00000E+00
 -1       264 4.89272E-04 6.27678E-04 0.00000E+00
 -1       265 5.45759E-04 6.78007E-04 0.00000E+00
 -1       266 6.05343E-04 7.34466E-04 0.00000E+00
 -1       267 6.66206E-04 7.96737E-04 0.00000E+00
 -1       268 7.26086E-04 8.64213E-04 0.00000E+00
 -1       269 7.81732E-04 9.35324E-04 0.00000E+00
 -1       270 8.28805E-04 1.00706E-03 0.00000E+00
 -1       271 8.61991E-04 1.07445E-03 0.00000E+00
 -1       272 8.75435E-04 1.13011E-03 0.00000E+00
 -1       273 8.63572E-04 1.16429E-03 0.00000E+00
 -1       274 8.22223E-04 1.16539E-03 0.00000E+00
 -1       275 7.49617E-04 1.12145E-03 0.00000E+00
 -1       276 6.46814E-04 1.02209E-03 0.00000E+00
 -1       277 5.17205E-04 8.60472E-04 0.00000E+00
 -1       278 3.65140E-04 6.34609E-04 0.00000E+00
 -1       279 1.93904E-04 3.47446E-04 0.00000E+00
 -1       280 6.36079E-04 4.47860E-04 0.00000E+00
 -1       281 6.78951E-04 4.93832E-04 0.00000E+00
 -1       282 7.24109E-04 5.45291E-04 0.00000E+00
 -1       283 7.70215E-04 6.02069E-04 0.00000E+00
 -1       284 8.15608E-04 6.63877E-04 0.00000E+00
 -1       285 8.57843E-04 7.29753E-04 0.00000E+00
 -1       286 8.93531E-04 7.97673E-04 0.00000E+00
 -1       287 9.18283E-04 8.64074E-04 0.00000E+00
 -1       288 9.26845E-04 9.23332E-04 0.00000E+00
 -1       289 9.13554E-04 9.67393E-04 0.00000E+00
 -1       290 8.73163E-04 9.85809E-04 0.00000E+00
 -1       291 8.01891E-04 9.66496E-04 0.00000E+00
 -1       292 6.98333E-04 8.97363E-04 0.00000E+00
 -1       293 5.63735E-04 7.68600E-04 0.00000E+00
 -1       294 4.01299E-04 5.75104E-04 0.00000E+00
 -1       295 2.14373E-04 3.18077E-04 0.00000E+00
 -1       296 7.83681E-04 2.99189E-04 0.00000E+00
 -1       297 8.14605E-04 3.40073E-04 0.00000E+00
 -1       298 8.46989E-04 3.85755E-04 0.00000E+00
 -1       299 8.79817E-04 4.36159E-04 0.00000E+00
 -1       300 9.11822E-04 4.91188E-04 0.00000E+00
 -1       301 9.41126E-04 5.50276E-04 0.00000E+00
 -1       302 9.65070E-04 6.12096E-04 0.00000E+00
 -1       303 9.80077E-04 6.74161E-04 0.00000E+00
 -1       304 9.81607E-04 7.32323E-04 0.00000E+00
 -1       305 9.64328E-04 7.80270E-04 0.00000E+00
 -1       306 9.22597E-04 8.09196E-04 0.00000E+00
 -1       307 8.51293E-04 8.07973E-04 0.00000E+00
 -1       308 7.46856E-04 7.64171E-04 0.00000E+00
 -1       309 6.08119E-04 6.66153E-04 0.00000E+00
 -1       310 4.36444E-04 5.06082E-04 0.00000E+00
 -1       311 2.34583E-04 2.82996E-04 0.00000E+00
 -1       312 9.26680E-04 1.82387E-04 0.00000E+00
 -1       313 9.47266E-04 2.17313E-04 0.00000E+00
 -1       314 9.68526E-04 2.56284E-04 0.00000E+00
 -1       315 9.89657E-04 2.99275E-04 0.00000E+00
 -1       316 1.00965E-03 3.46297E-04 0.00000E+00
 -1       317 1.02700E-03 3.97039E-04 0.00000E+00
 -1       318 1.03960E-03 4.50658E-04 0.00000E+00
 -1       319 1.04451E-03 5.05468E-04 0.00000E+00
 -1       320 1.03787E-03 5.58518E-04 0.00000E+00
 -1       321 1.01486E-03 6.05090E-04 0.00000E+00
 -1       322 9.69891E-04 6.38214E-04 0.00000E+00
 -1       323 8.97128E-04 6.48440E-04 0.00000E+00
 -1       324 7.91365E-04 6.24258E-04 0.00000E+00
 -1       325 6.49108E-04 5.53651E-04 0.00000E+00
 -1       326 4.69436E-04 4.27085E-04 0.00000E+00
 -1       327 2.53844E-04 2.41559E-04 0.00000E+00
 -1       328 1.05794E-03 9.74181E-05 0.00000E+00
 -1       329 1.06987E-03 1.25392E-04 0.00000E+00
 -1       330 1.08176E-03 1.56576E-04 0.00000E+00
 -1       331 1.09297E-03 1.90968E-04 0.00000E+00
 -1       332 1.10263E-03 2.28627E-04 0.00000E+00
 -1       333 1.10951E-03 2.69401E-04 0.00000E+00
 -1       334 1.11184E-03 3.12778E-04 0.00000E+00
 -1       335 1.10720E-03 3.57663E-04 0.00000E+00
 -1       336 1.09227E-03 4.02057E-04 0.00000E+00
 -1       337 1.06278E-03 4.42636E-04 0.00000E+00
 -1       338 1.01342E-03 4.74260E-04 0.00000E+00
 -1       339 9.38091E-04 4.89572E-04 0.00000E+00
 -1       340 8.30503E-04 4.78989E-04 0.00000E+00
 -1       341 6.85195E-04 4.31628E-04 0.00000E+00
 -1       342 4.98867E-04 3.37790E-04 0.00000E+00
 -1       343 2.71261E-04 1.93184E-04 0.00000E+00
 -1       344 1.16826E-03 4.26187E-05 0.00000E+00
 -1       345 1.17339E-03 6.25511E-05 0.00000E+00
 -1       346 1.17793E-03 8.47594E-05 0.00000E+00
 -1       347 1.18129E-03 1.09246E-04 0.00000E+00
 -1       348 1.18272E-03 1.36076E-04 0.00000E+00
 -1       349 1.18112E-03 1.65189E-04 0.00000E+00
 -1       350 1.17500E-03 1.96297E-04 0.00000E+00
 -1       351 1.16224E-03 2.28747E-04 0.00000E+00
 -1       352 1.13996E-03 2.61300E-04 0.00000E+00
 -1       353 1.10433E-03 2.91831E-04 0.00000E+00
 -1       354 1.05038E-03 3.16946E-04 0.00000E+00
 -1       355 9.72036E-04 3.31589E-04 0.00000E+00
 -1       356 8.62386E-04 3.28836E-04 0.00000E+00
 -1       357 7.14512E-04 3.00323E-04 0.00000E+00
 -1       358 5.23006E-04 2.37955E-04 0.00000E+00
 -1       359 2.85707E-04 1.37424E-04 0.00000E+00
 -1       360 1.24627E-03 1.33559E-05 0.00000E+00
 -1       361 1.24683E-03 2.40698E-05 0.00000E+00
 -1       362 1.24640E-03 3.60113E-05 0.00000E+00
 -1       363 1.24445E-03 4.91771E-05 0.00000E+00
 -1       364 1.24026E-03 6.36089E-05 0.00000E+00
 -1       365 1.23285E-03 7.92872E-05 0.00000E+00
 -1       366 1.22084E-03 9.60840E-05 0.00000E+00
 -1       367 1.20233E-03 1.13689E-04 0.00000E+00
 -1       368 1.17470E-03 1.31497E-04 0.00000E+00
 -1       369 1.13442E-03 1.48452E-04 0.00000E+00
 -1       370 1.07682E-03 1.62827E-04 0.00000E+00
 -1       371 9.95899E-04 1.71983E-04 0.00000E+00
 -1       372 8.84478E-04 1.72191E-04 0.00000E+00
 -1       373 7.34740E-04 1.58761E-04 0.00000E+00
 -1       374 5.39760E-04 1.26910E-04 0.00000E+00
 -1       375 2.95815E-04 7.38190E-05 0.00000E+00
 -1       376-6.54513E-03 4.52514E-02 0.00000E+00
 -1       377 0.00000E+00 1.02502E-02 0.00000E+00
 -1       378 0.00000E+00 2.07243E-02 0.00000E+00
 -1       379 8.08541E-03 4.57132E-02 0.00000E+00
 -1       381-6.54809E-03 4.22203E-02 0.00000E+00
 -1       382-6.52763E-03 3.93833E-02 0.00000E+00
 -1       383-6.45005E-03 3.67699E-02 0.00000E+00
 -1       384-6.30594E-03 3.43861E-02 0.00000E+00
 -1       385-6.09810E-03 3.22347E-02 0.00000E+00
 -1       386-5.83538E-03 3.03118E-02 0.00000E+00
 -1       387-5.52943E-03 2.86069E-02 0.00000E+00
 -1       388-5.19274E-03 2.71046E-02 0.00000E+00
 -1       389-4.83729E-03 2.57857E-02 0.00000E+00
 -1       390-4.47373E-03 2.46288E-02 0.00000E+00
 -1       391-4.11101E-03 2.36115E-02 0.00000E+00
 -1       392-3.75617E-03 2.27111E-02 0.00000E+00
 -1       393-3.41450E-03 2.19054E-02 0.00000E+00
 -1       394-3.08965E-03 2.11728E-02 0.00000E+00
 -1       395-2.78396E-03 2.04921E-02 0.00000E+00
 -1       396-2.49864E-03 1.98417E-02 0.00000E+00
 -1       397-2.23423E-03 1.91982E-02 0.00000E+00
 -1       398-1.99004E-03 1.85341E-02 0.00000E+00
 -1       399-1.76729E-03 1.78096E-02 0.00000E+00
 -1       400-1.55724E-03 1.69674E-02 0.00000E+00
 -1       401-1.36670E-03 1.58612E-02 0.00000E+00
 -1       402-1.27406E-03 1.39820E-02 0.00000E+00
 -1       403 0.00000E+00 1.26412E-02 0.00000E+00
 -1       404 0.00000E+00 1.41169E-02 0.00000E+00
 -1       405 0.00000E+00 1.50557E-02 0.00000E+00
 -1       406 0.00000E+00 1.57685E-02 0.00000E+00
 -1       407 0.00000E+00 1.63332E-02 0.00000E+00
 -1       408 0.00000E+00 1.68083E-02 0.00000E+00
 -1       409 0.00000E+00 1.72219E-02 0.00000E+00
 -1       410 0.00000E+00 1.75923E-02 0.00000E+00
 -1       411 0.00000E+00 1.79320E-02 0.00000E+00
 -1       412 0.00000E+00 1.82501E-02 0.00000E+00
 -1       413 0.00000E+00 1.85542E-02 0.00000E+00
 -1       414 0.00000E+00 1.88517E-02 0.00000E+00
 -1       415 0.00000E+00 1.91506E-02 0.00000E+00
 -1       416 0.00000E+00 1.94618E-02 0.00000E+00
 -1       417 0.00000E+00 1.98019E-02 0.00000E+00
 -1       418 0.00000E+00 2.01999E-02 0.00000E+00
 -1       419 2.54270E-04 2.07328E-02 0.00000E+00
 -1       420 5.34040E-04 2.07616E-02 0.00000E+00
 -1       421 8.39794E-04 2.08168E-02 0.00000E+00
 -1       422 1.17320E-03 2.09056E-02 0.00000E+00
 -1       423 1.53505E-03 2.10365E-02 0.00000E+00
 -1       424 1.92549E-03 2.12197E-02 0.00000E+00
 -1       425 2.34377E-03 2.14669E-02 0.00000E+00
 -1       426 2.78801E-03 2.17910E-02 0.00000E+00
 -1       427 3.25500E-03 2.22068E-02 0.00000E+00
 -1       428 3.74003E-03 2.27296E-02 0.00000E+00
 -1       429 4.23685E-03 2.33757E-02 0.00000E+00
 -1       430 4.73780E-03 2.41617E-02 0.00000E+00
 -1       431 5.23405E-03 2.51039E-02 0.00000E+00
 -1       432 5.71602E-03 2.62180E-02 0.00000E+00
 -1       433 6.17377E-03 2.75188E-02 0.00000E+00
 -1       434 6.59744E-03 2.90197E-02 0.00000E+00
 -1       435 6.97759E-03 3.07326E-02 0.00000E+00
 -1       436 7.30560E-03 3.26671E-02 0.00000E+00
 -1       437 7.57424E-03 3.48294E-02 0.00000E+00
 -1       438 7.77901E-03 3.72215E-02 0.00000E+00
 -1       439 7.92070E-03 3.98400E-02 0.00000E+00
 -1       440 8.01147E-03 4.26799E-02 0.00000E+00
 -1       441 6.38086E-03 4.56070E-02 0.00000E+00
 -1       442 4.87746E-03 4.55124E-02 0.00000E+00
 -1       443 3.52233E-03 4.54330E-02 0.00000E+00
 -1       444 2.29680E-03 4.53709E-02 0.00000E+00
 -1       445 1.18521E-03 4.53253E-02 0.00000E+00
 -1       446 1.73950E-04 4.52938E-02 0.00000E+00
 -1       447-7.48223E-04 4.52733E-02 0.00000E+00
 -1       448-1.59054E-03 4.52610E-02 0.00000E+00
 -1       449-2.36063E-03 4.52543E-02 0.00000E+00
 -1       450-3.06488E-03 4.52513E-02 0.00000E+00
 -1       451-3.70880E-03 4.52505E-02 0.00000E+00
 -1       452-4.29722E-03 4.52506E-02 0.00000E+00
 -1       453-4.83446E-03 4.52512E-02 0.00000E+00
 -1       454-5.32450E-03 4.52516E-02 0.00000E+00
 -1       455-5.77097E-03 4.52518E-02 0.00000E+00
 -1       456-6.17470E-03 4.52518E-02 0.00000E+00
 -1       457-6.17343E-03 4.22205E-02 0.00000E+00
 -1       458-5.76685E-03 4.22203E-02 0.00000E+00
 -1       459-5.31874E-03 4.22201E-02 0.00000E+00
 -1       460-4.82831E-03 4.22201E-02 0.00000E+00
 -1       461-4.29196E-03 4.22206E-02 0.00000E+00
 -1       462-3.70582E-03 4.22224E-02 0.00000E+00
 -1       463-3.06563E-03 4.22259E-02 0.00000E+00
 -1       464-2.36666E-03 4.22322E-02 0.00000E+00
 -1       465-1.60350E-03 4.22423E-02 0.00000E+00
 -1       466-7.69786E-04 4.22577E-02 0.00000E+00
 -1       467 1.42177E-04 4.22801E-02 0.00000E+00
 -1       468 1.14187E-03 4.23116E-02 0.00000E+00
 -1       469 2.24108E-03 4.23545E-02 0.00000E+00
 -1       470 3.45438E-03 4.24113E-02 0.00000E+00
 -1       471 4.79920E-03 4.24841E-02 0.00000E+00
 -1       472 6.29755E-03 4.25739E-02 0.00000E+00
 -1       473-6.14664E-03 3.93808E-02 0.00000E+00
 -1       474-5.73544E-03 3.93777E-02 0.00000E+00
 -1       475-5.28441E-03 3.93743E-02 0.00000E+00
 -1       476-4.79301E-03 3.93709E-02 0.00000E+00
 -1       477-4.25784E-03 3.93678E-02 0.00000E+00
 -1       478-3.67518E-03 3.93656E-02 0.00000E+00
 -1       479-3.04093E-03 3.93652E-02 0.00000E+00
 -1       480-2.35043E-03 3.93676E-02 0.00000E+00
 -1       481-1.59830E-03 3.93741E-02 0.00000E+00
 -1       482-7.78155E-04 3.93866E-02 0.00000E+00
 -1       483 1.17835E-04 3.94070E-02 0.00000E+00
 -1       484 1.09946E-03 3.94379E-02 0.00000E+00
 -1       485 2.17917E-03 3.94822E-02 0.00000E+00
 -1       486 3.37291E-03 3.95428E-02 0.00000E+00
 -1       487 4.70096E-03 3.96224E-02 0.00000E+00
 -1       488 6.19144E-03 3.97218E-02 0.00000E+00
 -1       489-6.06601E-03 3.67629E-02 0.00000E+00
 -1       490-5.65314E-03 3.67552E-02 0.00000E+00
 -1       491-5.20203E-03 3.67470E-02 0.00000E+00
 -1       492-4.71251E-03 3.67385E-02 0.00000E+00
 -1       493-4.18155E-03 3.67303E-02 0.00000E+00
 -1       494-3.60577E-03 3.67228E-02 0.00000E+00
 -1       495-2.98139E-03 3.67171E-02 0.00000E+00
 -1       496-2.30407E-03 3.67144E-02 0.00000E+00
 -1       497-1.56865E-03 3.67161E-02 0.00000E+00
 -1       498-7.68853E-04 3.67245E-02 0.00000E+00
 -1       499 1.03195E-04 3.67421E-02 0.00000E+00
 -1       500 1.05765E-03 3.67720E-02 0.00000E+00
 -1       501 2.10787E-03 3.68177E-02 0.00000E+00
 -1       502 3.27165E-03 3.68831E-02 0.00000E+00
 -1       503 4.57280E-03 3.69713E-02 0.00000E+00
 -1       504 6.04590E-03 3.70841E-02 0.00000E+00
 -1       505-5.92295E-03 3.43736E-02 0.00000E+00
 -1       506-5.51248E-03 3.43603E-02 0.00000E+00
 -1       507-5.06548E-03 3.43462E-02 0.00000E+00
 -1       508-4.58213E-03 3.43317E-02 0.00000E+00
 -1       509-4.05978E-03 3.43173E-02 0.00000E+00
 -1       510-3.49548E-03 3.43036E-02 0.00000E+00
 -1       511-2.88589E-03 3.42917E-02 0.00000E+00
 -1       512-2.22710E-03 3.42830E-02 0.00000E+00
 -1       513-1.51434E-03 3.42792E-02 0.00000E+00
 -1       514-7.41659E-04 3.42828E-02 0.00000E+00
 -1       515 9.87249E-05 3.42968E-02 0.00000E+00
 -1       516 1.01720E-03 3.43249E-02 0.00000E+00
 -1       517 2.02797E-03 3.43717E-02 0.00000E+00
 -1       518 3.15067E-03 3.44418E-02 0.00000E+00
 -1       519 4.41265E-03 3.45397E-02 0.00000E+00
 -1       520 5.85453E-03 3.46681E-02 0.00000E+00
 -1       521-5.72001E-03 3.22162E-02 0.00000E+00
 -1       522-5.31586E-03 3.21968E-02 0.00000E+00
 -1       523-4.87702E-03 3.21762E-02 0.00000E+00
 -1       524-4.40399E-03 3.21551E-02 0.00000E+00
 -1       525-3.89453E-03 3.21338E-02 0.00000E+00
 -1       526-3.34615E-03 3.21133E-02 0.00000E+00
 -1       527-2.75603E-03 3.20945E-02 0.00000E+00
 -1       528-2.12078E-03 3.20790E-02 0.00000E+00
 -1       529-1.43621E-03 3.20689E-02 0.00000E+00
 -1       530-6.96806E-04 3.20669E-02 0.00000E+00
 -1       531 1.04870E-04 3.20766E-02 0.00000E+00
 -1       532 9.79230E-04 3.21024E-02 0.00000E+00
 -1       533 1.94109E-03 3.21498E-02 0.00000E+00
 -1       534 3.01172E-03 3.22246E-02 0.00000E+00
 -1       535 4.22172E-03 3.23326E-02 0.00000E+00
 -1       536 5.61738E-03 3.24786E-02 0.00000E+00
 -1       537-5.46540E-03 3.02871E-02 0.00000E+00
 -1       538-5.07081E-03 3.02613E-02 0.00000E+00
 -1       539-4.64345E-03 3.02341E-02 0.00000E+00
 -1       540-4.18412E-03 3.02060E-02 0.00000E+00
 -1       541-3.69101E-03 3.01776E-02 0.00000E+00
 -1       542-3.16216E-03 3.01497E-02 0.00000E+00
 -1       543-2.59531E-03 3.01236E-02 0.00000E+00
 -1       544-1.98775E-03 3.01008E-02 0.00000E+00
 -1       545-1.33595E-03 3.00837E-02 0.00000E+00
 -1       546-6.35081E-04 3.00756E-02 0.00000E+00
 -1       547 1.21775E-04 3.00805E-02 0.00000E+00
 -1       548 9.44816E-04 3.01036E-02 0.00000E+00
 -1       549 1.84922E-03 3.01514E-02 0.00000E+00
 -1       550 2.85760E-03 3.02310E-02 0.00000E+00
 -1       551 4.00345E-03 3.03498E-02 0.00000E+00
 -1       552 5.33836E-03 3.05145E-02 0.00000E+00
 -1       553-5.16993E-03 2.85762E-02 0.00000E+00
 -1       554-4.78723E-03 2.85441E-02 0.00000E+00
 -1       555-4.37367E-03 2.85102E-02 0.00000E+00
 -1       556-3.93037E-03 2.84752E-02 0.00000E+00
 -1       557-3.45600E-03 2.84395E-02 0.00000E+00
 -1       558-2.94916E-03 2.84041E-02 0.00000E+00
 -1       559-2.40831E-03 2.83703E-02 0.00000E+00
 -1       560-1.83150E-03 2.83400E-02 0.00000E+00
 -1       561-1.21606E-03 2.83158E-02 0.00000E+00
 -1       562-5.57980E-04 2.83013E-02 0.00000E+00
 -1       563 1.48963E-04 2.83014E-02 0.00000E+00
 -1       564 9.14583E-04 2.83221E-02 0.00000E+00
 -1       565 1.75422E-03 2.83707E-02 0.00000E+00
 -1       566 2.69153E-03 2.84556E-02 0.00000E+00
 -1       567 3.76251E-03 2.85860E-02 0.00000E+00
 -1       568 5.02350E-03 2.87703E-02 0.00000E+00
 -1       569-4.84510E-03 2.70681E-02 0.00000E+00
 -1       570-4.47555E-03 2.70300E-02 0.00000E+00
 -1       571-4.07700E-03 2.69897E-02 0.00000E+00
 -1       572-3.65092E-03 2.69479E-02 0.00000E+00
 -1       573-3.19652E-03 2.69050E-02 0.00000E+00
 -1       574-2.71311E-03 2.68621E-02 0.00000E+00
 -1       575-2.19994E-03 2.68206E-02 0.00000E+00
 -1       576-1.65602E-03 2.67828E-02 0.00000E+00
 -1       577-1.07965E-03 2.67517E-02 0.00000E+00
 -1       578-4.67779E-04 2.67315E-02 0.00000E+00
 -1       579 1.85079E-04 2.67276E-02 0.00000E+00
 -1       580 8.88298E-04 2.67470E-02 0.00000E+00
 -1       581 1.65729E-03 2.67978E-02 0.00000E+00
 -1       582 2.51652E-03 2.68895E-02 0.00000E+00
 -1       583 3.50397E-03 2.70324E-02 0.00000E+00
 -1       584 4.67992E-03 2.72372E-02 0.00000E+00
 -1       585-4.50183E-03 2.57440E-02 0.00000E+00
 -1       586-4.14561E-03 2.57002E-02 0.00000E+00
 -1       587-3.76216E-03 2.56538E-02 0.00000E+00
 -1       588-3.35337E-03 2.56053E-02 0.00000E+00
 -1       589-2.91914E-03 2.55554E-02 0.00000E+00
 -1       590-2.45960E-03 2.55052E-02 0.00000E+00
 -1       591-1.97503E-03 2.54564E-02 0.00000E+00
 -1       592-1.46551E-03 2.54116E-02 0.00000E+00
 -1       593-9.30413E-04 2.53744E-02 0.00000E+00
 -1       594-3.67606E-04 2.53499E-02 0.00000E+00
 -1       595 2.27726E-04 2.53441E-02 0.00000E+00
 -1       596 8.64664E-04 2.53647E-02 0.00000E+00
 -1       597 1.55874E-03 2.54203E-02 0.00000E+00
 -1       598 2.33503E-03 2.55211E-02 0.00000E+00
 -1       599 3.23283E-03 2.56782E-02 0.00000E+00
 -1       600 4.31517E-03 2.59041E-02 0.00000E+00
 -1       601-4.14972E-03 2.45824E-02 0.00000E+00
 -1       602-3.80591E-03 2.45334E-02 0.00000E+00
 -1       603-3.43655E-03 2.44812E-02 0.00000E+00
 -1       604-3.04412E-03 2.44264E-02 0.00000E+00
 -1       605-2.62938E-03 2.43696E-02 0.00000E+00
 -1       606-2.19356E-03 2.43124E-02 0.00000E+00
 -1       607-1.73812E-03 2.42568E-02 0.00000E+00
 -1       608-1.26432E-03 2.42061E-02 0.00000E+00
 -1       609-7.72582E-04 2.41649E-02 0.00000E+00
 -1       610-2.61485E-04 2.41387E-02 0.00000E+00
 -1       611 2.73456E-04 2.41345E-02 0.00000E+00
 -1       612 8.41355E-04 2.41601E-02 0.00000E+00
 -1       613 1.45801E-03 2.42244E-02 0.00000E+00
 -1       614 2.14886E-03 2.43375E-02 0.00000E+00
 -1       615 2.95373E-03 2.45108E-02 0.00000E+00
 -1       616 3.93682E-03 2.47583E-02 0.00000E+00
 -1       617-3.79659E-03 2.35609E-02 0.00000E+00
 -1       618-3.46319E-03 2.35071E-02 0.00000E+00
 -1       619-3.10590E-03 2.34494E-02 0.00000E+00
 -1       620-2.72804E-03 2.33883E-02 0.00000E+00
 -1       621-2.33159E-03 2.33250E-02 0.00000E+00
 -1       622-1.91912E-03 2.32613E-02 0.00000E+00
 -1       623-1.49346E-03 2.32001E-02 0.00000E+00
 -1       624-1.05705E-03 2.31457E-02 0.00000E+00
 -1       625-6.11061E-04 2.31034E-02 0.00000E+00
 -1       626-1.54300E-04 2.30799E-02 0.00000E+00
 -1       627 3.17960E-04 2.30822E-02 0.00000E+00
 -1       628 8.15328E-04 2.31182E-02 0.00000E+00
 -1       629 1.35400E-03 2.31961E-02 0.00000E+00
 -1       630 1.95943E-03 2.33251E-02 0.00000E+00
 -1       631 2.67096E-03 2.35166E-02 0.00000E+00
 -1       632 3.55217E-03 2.37857E-02 0.00000E+00
 -1       633-3.44838E-03 2.26568E-02 0.00000E+00
 -1       634-3.12228E-03 2.25985E-02 0.00000E+00
 -1       635-2.77410E-03 2.25354E-02 0.00000E+00
 -1       636-2.40846E-03 2.24683E-02 0.00000E+00
 -1       637-2.02895E-03 2.23988E-02 0.00000E+00
 -1       638-1.63982E-03 2.23295E-02 0.00000E+00
 -1       639-1.24533E-03 2.22647E-02 0.00000E+00
 -1       640-8.48793E-04 2.22099E-02 0.00000E+00
 -1       641-4.51487E-04 2.21715E-02 0.00000E+00
 -1       642-5.16380E-05 2.21565E-02 0.00000E+00
 -1       643 3.56470E-04 2.21719E-02 0.00000E+00
 -1       644 7.83351E-04 2.22245E-02 0.00000E+00
 -1       645 1.24556E-03 2.23211E-02 0.00000E+00
 -1       646 1.76800E-03 2.24697E-02 0.00000E+00
 -1       647 2.38844E-03 2.26811E-02 0.00000E+00
 -1       648 3.16799E-03 2.29715E-02 0.00000E+00
 -1       649-3.10910E-03 2.18478E-02 0.00000E+00
 -1       650-2.78607E-03 2.17852E-02 0.00000E+00
 -1       651-2.44322E-03 2.17166E-02 0.00000E+00
 -1       652-2.08719E-03 2.16435E-02 0.00000E+00
 -1       653-1.72372E-03 2.15683E-02 0.00000E+00
 -1       654-1.35901E-03 2.14953E-02 0.00000E+00
 -1       655-9.98452E-04 2.14304E-02 0.00000E+00
 -1       656-6.45429E-04 2.13805E-02 0.00000E+00
 -1       657-3.00222E-04 2.13528E-02 0.00000E+00
 -1       658 4.05846E-05 2.13542E-02 0.00000E+00
 -1       659 3.84354E-04 2.13902E-02 0.00000E+00
 -1       660 7.42641E-04 2.14658E-02 0.00000E+00
 -1       661 1.13199E-03 2.15859E-02 0.00000E+00
 -1       662 1.57599E-03 2.17570E-02 0.00000E+00
 -1       663 2.10976E-03 2.19892E-02 0.00000E+00
 -1       664 2.79026E-03 2.23000E-02 0.00000E+00
 -1       665-2.78092E-03 2.11123E-02 0.00000E+00
 -1       666-2.45544E-03 2.10452E-02 0.00000E+00
 -1       667-2.11353E-03 2.09709E-02 0.00000E+00
 -1       668-1.76481E-03 2.08917E-02 0.00000E+00
 -1       669-1.41784E-03 2.08122E-02 0.00000E+00
 -1       670-1.08058E-03 2.07388E-02 0.00000E+00
 -1       671-7.58617E-04 2.06796E-02 0.00000E+00
 -1       672-4.53855E-04 2.06425E-02 0.00000E+00
 -1       673-1.64080E-04 2.06348E-02 0.00000E+00
 -1       674 1.16735E-04 2.06614E-02 0.00000E+00
 -1       675 3.97837E-04 2.07257E-02 0.00000E+00
 -1       676 6.91448E-04 2.08300E-02 0.00000E+00
 -1       677 1.01339E-03 2.09773E-02 0.00000E+00
 -1       678 1.38513E-03 2.11725E-02 0.00000E+00
 -1       679 1.83817E-03 2.14254E-02 0.00000E+00
 -1       680 2.42403E-03 2.17549E-02 0.00000E+00
 -1       681-2.46419E-03 2.04287E-02 0.00000E+00
 -1       682-2.12930E-03 2.03567E-02 0.00000E+00
 -1       683-1.78363E-03 2.02760E-02 0.00000E+00
 -1       684-1.44124E-03 2.01914E-02 0.00000E+00
 -1       685-1.11381E-03 2.01105E-02 0.00000E+00
 -1       686-8.09948E-04 2.00430E-02 0.00000E+00
 -1       687-5.33237E-04 1.99987E-02 0.00000E+00
 -1       688-2.81871E-04 1.99856E-02 0.00000E+00
 -1       689-4.96864E-05 2.00087E-02 0.00000E+00
 -1       690 1.72287E-04 2.00697E-02 0.00000E+00
 -1       691 3.94660E-04 2.01690E-02 0.00000E+00
 -1       692 6.29424E-04 2.03062E-02 0.00000E+00
 -1       693 8.90790E-04 2.04823E-02 0.00000E+00
 -1       694 1.19738E-03 2.07016E-02 0.00000E+00
 -1       695 1.57648E-03 2.09741E-02 0.00000E+00
 -1       696 2.07332E-03 2.13204E-02 0.00000E+00
 -1       697-2.15733E-03 1.97753E-02 0.00000E+00
 -1       698-1.80430E-03 1.96973E-02 0.00000E+00
 -1       699-1.45075E-03 1.96097E-02 0.00000E+00
 -1       700-1.11679E-03 1.95217E-02 0.00000E+00
 -1       701-8.16230E-04 1.94458E-02 0.00000E+00
 -1       702-5.55147E-04 1.93952E-02 0.00000E+00
 -1       703-3.31515E-04 1.93798E-02 0.00000E+00
 -1       704-1.37477E-04 1.94046E-02 0.00000E+00
 -1       705 3.75603E-05 1.94698E-02 0.00000E+00
 -1       706 2.04664E-04 1.95733E-02 0.00000E+00
 -1       707 3.74498E-04 1.97119E-02 0.00000E+00
 -1       708 5.57666E-04 1.98834E-02 0.00000E+00
 -1       709 7.65997E-04 2.00880E-02 0.00000E+00
 -1       710 1.01484E-03 2.03301E-02 0.00000E+00
 -1       711 1.32700E-03 2.06202E-02 0.00000E+00
 -1       712 1.74105E-03 2.09807E-02 0.00000E+00
 -1       713-1.85620E-03 1.91282E-02 0.00000E+00
 -1       714-1.47447E-03 1.90424E-02 0.00000E+00
 -1       715-1.11158E-03 1.89481E-02 0.00000E+00
 -1       716-7.94270E-04 1.88628E-02 0.00000E+00
 -1       717-5.33859E-04 1.88056E-02 0.00000E+00
 -1       718-3.27611E-04 1.87902E-02 0.00000E+00
 -1       719-1.63702E-04 1.88221E-02 0.00000E+00
 -1       720-2.74489E-05 1.88995E-02 0.00000E+00
 -1       721 9.46850E-05 1.90166E-02 0.00000E+00
 -1       722 2.13800E-04 1.91673E-02 0.00000E+00
 -1       723 3.38967E-04 1.93463E-02 0.00000E+00
 -1       724 4.78436E-04 1.95510E-02 0.00000E+00
 -1       725 6.41258E-04 1.97818E-02 0.00000E+00
 -1       726 8.39459E-04 2.00439E-02 0.00000E+00
 -1       727 1.09146E-03 2.03491E-02 0.00000E+00
 -1       728 1.42916E-03 2.07212E-02 0.00000E+00
 -1       729-1.55337E-03 1.84588E-02 0.00000E+00
 -1       730-1.13099E-03 1.83626E-02 0.00000E+00
 -1       731-7.64781E-04 1.82656E-02 0.00000E+00
 -1       732-4.82756E-04 1.81992E-02 0.00000E+00
 -1       733-2.81756E-04 1.81859E-02 0.00000E+00
 -1       734-1.41530E-04 1.82321E-02 0.00000E+00
 -1       735-3.89864E-05 1.83319E-02 0.00000E+00
 -1       736 4.45350E-05 1.84742E-02 0.00000E+00
 -1       737 1.22022E-04 1.86485E-02 0.00000E+00
 -1       738 2.02158E-04 1.88466E-02 0.00000E+00
 -1       739 2.91199E-04 1.90636E-02 0.00000E+00
 -1       740 3.94667E-04 1.92979E-02 0.00000E+00
 -1       741 5.18910E-04 1.95513E-02 0.00000E+00
 -1       742 6.72902E-04 1.98300E-02 0.00000E+00
 -1       743 8.70997E-04 2.01473E-02 0.00000E+00
 -1       744 1.13868E-03 2.05286E-02 0.00000E+00
 -1       745-1.23246E-03 1.77261E-02 0.00000E+00
 -1       746-7.62334E-04 1.76178E-02 0.00000E+00
 -1       747-4.17535E-04 1.75365E-02 0.00000E+00
 -1       748-2.03381E-04 1.75267E-02 0.00000E+00
 -1       749-8.14657E-05 1.75985E-02 0.00000E+00
 -1       750-1.05287E-05 1.77369E-02 0.00000E+00
 -1       751 3.77019E-05 1.79209E-02 0.00000E+00
 -1       752 7.94204E-05 1.81337E-02 0.00000E+00
 -1       753 1.23302E-04 1.83638E-02 0.00000E+00
 -1       754 1.74142E-04 1.86050E-02 0.00000E+00
 -1       755 2.35155E-04 1.88546E-02 0.00000E+00
 -1       756 3.09428E-04 1.91132E-02 0.00000E+00
 -1       757 4.01050E-04 1.93845E-02 0.00000E+00
 -1       758 5.16399E-04 1.96762E-02 0.00000E+00
 -1       759 6.66189E-04 2.00026E-02 0.00000E+00
 -1       760 8.69891E-04 2.03908E-02 0.00000E+00
 -1       761-8.73998E-04 1.68642E-02 0.00000E+00
 -1       762-3.64942E-04 1.67550E-02 0.00000E+00
 -1       763-9.97524E-05 1.67472E-02 0.00000E+00
 -1       764 7.15732E-06 1.68682E-02 0.00000E+00
 -1       765 4.46777E-05 1.70756E-02 0.00000E+00
 -1       766 5.83798E-05 1.73289E-02 0.00000E+00
 -1       767 6.85125E-05 1.76018E-02 0.00000E+00
 -1       768 8.29928E-05 1.78804E-02 0.00000E+00
 -1       769 1.04781E-04 1.81585E-02 0.00000E+00
 -1       770 1.35102E-04 1.84344E-02 0.00000E+00
 -1       771 1.74878E-04 1.87092E-02 0.00000E+00
 -1       772 2.25483E-04 1.89860E-02 0.00000E+00
 -1       773 2.89339E-04 1.92704E-02 0.00000E+00
 -1       774 3.70716E-04 1.95714E-02 0.00000E+00
 -1       775 4.77131E-04 1.99044E-02 0.00000E+00
 -1       776 6.22504E-04 2.02973E-02 0.00000E+00
 -1       777-3.81874E-04 1.57182E-02 0.00000E+00
 -1       778 1.81679E-05 1.57183E-02 0.00000E+00
 -1       779 1.11846E-04 1.59456E-02 0.00000E+00
 -1       780 1.08039E-04 1.62915E-02 0.00000E+00
 -1       781 8.67964E-05 1.66657E-02 0.00000E+00
 -1       782 7.04573E-05 1.70328E-02 0.00000E+00
 -1       783 6.30370E-05 1.73819E-02 0.00000E+00
 -1       784 6.44321E-05 1.77118E-02 0.00000E+00
 -1       785 7.37497E-05 1.80250E-02 0.00000E+00
 -1       786 9.03109E-05 1.83253E-02 0.00000E+00
 -1       787 1.13921E-04 1.86172E-02 0.00000E+00
 -1       788 1.45022E-04 1.89061E-02 0.00000E+00
 -1       789 1.84915E-04 1.91990E-02 0.00000E+00
 -1       790 2.36179E-04 1.95061E-02 0.00000E+00
 -1       791 3.03524E-04 1.98432E-02 0.00000E+00
 -1       792 3.95792E-04 2.02392E-02 0.00000E+00
 -1       793 1.04576E-04 1.39962E-02 0.00000E+00
 -1       794 1.96115E-04 1.46068E-02 0.00000E+00
 -1       795 1.36254E-04 1.53038E-02 0.00000E+00
 -1       796 8.89730E-05 1.58992E-02 0.00000E+00
 -1       797 5.98045E-05 1.64135E-02 0.00000E+00
 -1       798 4.32434E-05 1.68610E-02 0.00000E+00
 -1       799 3.54022E-05 1.72590E-02 0.00000E+00
 -1       800 3.37994E-05 1.76198E-02 0.00000E+00
 -1       801 3.69801E-05 1.79532E-02 0.00000E+00
 -1       802 4.41355E-05 1.82672E-02 0.00000E+00
 -1       803 5.49345E-05 1.85685E-02 0.00000E+00
 -1       804 6.94639E-05 1.88640E-02 0.00000E+00
 -1       805 8.82756E-05 1.91616E-02 0.00000E+00
 -1       806 1.12561E-04 1.94718E-02 0.00000E+00
 -1       807 1.44543E-04 1.98112E-02 0.00000E+00
 -1       808 1.88429E-04 2.02088E-02 0.00000E+00
 -1       809-5.08132E-04 9.93865E-03 0.00000E+00
 -1       810-1.40588E-05 8.29812E-03 0.00000E+00
 -1       811 1.61051E-04 8.60841E-03 0.00000E+00
 -1       812 0.00000E+00 9.54921E-03 0.00000E+00
 -1       813 3.05489E-04 7.59082E-03 0.00000E+00
 -1       814 1.70762E-04 7.48651E-03 0.00000E+00
 -1       815 0.00000E+00 8.17817E-03 0.00000E+00
 -1       816 2.79017E-04 6.79949E-03 0.00000E+00
 -1       817 1.32370E-04 6.57601E-03 0.00000E+00
 -1       818 0.00000E+00 7.06720E-03 0.00000E+00
 -1       819 2.21562E-04 6.08107E-03 0.00000E+00
 -1       820 1.01301E-04 5.83394E-03 0.00000E+00
 -1       821 0.00000E+00 6.21559E-03 0.00000E+00
 -1       822 1.74499E-04 5.44647E-03 0.00000E+00
 -1       823 7.91832E-05 5.20404E-03 0.00000E+00
 -1       824 0.00000E+00 5.51989E-03 0.00000E+00
 -1       825 1.39276E-04 4.88214E-03 0.00000E+00
 -1       826 6.32479E-05 4.65106E-03 0.00000E+00
 -1       827 0.00000E+00 4.92468E-03 0.00000E+00
 -1       828 1.12784E-04 4.37151E-03 0.00000E+00
 -1       829 5.13322E-05 4.15220E-03 0.00000E+00
 -1       830 0.00000E+00 4.39723E-03 0.00000E+00
 -1       831 9.23474E-05 3.90126E-03 0.00000E+00
 -1       832 4.21039E-05 3.69219E-03 0.00000E+00
 -1       833 0.00000E+00 3.91723E-03 0.00000E+00
 -1       834 7.61182E-05 3.46107E-03 0.00000E+00
 -1       835 3.47145E-05 3.26024E-03 0.00000E+00
 -1       836 0.00000E+00 3.47114E-03 0.00000E+00
 -1       837 6.28557E-05 3.04290E-03 0.00000E+00
 -1       838 2.86148E-05 2.84823E-03 0.00000E+00
 -1       839 0.00000E+00 3.04929E-03 0.00000E+00
 -1       840 5.17129E-05 2.64020E-03 0.00000E+00
 -1       841 2.34321E-05 2.44964E-03 0.00000E+00
 -1       842 0.00000E+00 2.64424E-03 0.00000E+00
 -1       843 4.20915E-05 2.24734E-03 0.00000E+00
 -1       844 1.89026E-05 2.05880E-03 0.00000E+00
 -1       845 0.00000E+00 2.24986E-03 0.00000E+00
 -1       846 3.35513E-05 1.85910E-03 0.00000E+00
 -1       847 1.48290E-05 1.67038E-03 0.00000E+00
 -1       848 0.00000E+00 1.86064E-03 0.00000E+00
 -1       849 2.57489E-05 1.47023E-03 0.00000E+00
 -1       850 1.10531E-05 1.27882E-03 0.00000E+00
 -1       851 0.00000E+00 1.47114E-03 0.00000E+00
 -1       852 1.83959E-05 1.07498E-03 0.00000E+00
 -1       853 7.43652E-06 8.77840E-04 0.00000E+00
 -1       854 0.00000E+00 1.07548E-03 0.00000E+00
 -1       855 1.12160E-05 6.66080E-04 0.00000E+00
 -1       856 3.83245E-06 4.58939E-04 0.00000E+00
 -1       857 0.00000E+00 6.66326E-04 0.00000E+00
 -1       858 3.81690E-06 2.28641E-04 0.00000E+00
 -1       859 0.00000E+00 2.28714E-04 0.00000E+00
 -1       860-9.84306E-04 7.05023E-03 0.00000E+00
 -1       861-3.74573E-04 6.30063E-03 0.00000E+00
 -1       862 1.70891E-04 7.11923E-03 0.00000E+00
 -1       863 2.61335E-04 6.34948E-03 0.00000E+00
 -1       864 3.68957E-04 6.75247E-03 0.00000E+00
 -1       865 4.03653E-04 6.10839E-03 0.00000E+00
 -1       866 3.43861E-04 6.20291E-03 0.00000E+00
 -1       867 3.84471E-04 5.69198E-03 0.00000E+00
 -1       868 2.86120E-04 5.63130E-03 0.00000E+00
 -1       869 3.29427E-04 5.22073E-03 0.00000E+00
 -1       870 2.32760E-04 5.08770E-03 0.00000E+00
 -1       871 2.74608E-04 4.74670E-03 0.00000E+00
 -1       872 1.89858E-04 4.58136E-03 0.00000E+00
 -1       873 2.27711E-04 4.28800E-03 0.00000E+00
 -1       874 1.55888E-04 4.10916E-03 0.00000E+00
 -1       875 1.88991E-04 3.84877E-03 0.00000E+00
 -1       876 1.28724E-04 3.66511E-03 0.00000E+00
 -1       877 1.57027E-04 3.42771E-03 0.00000E+00
 -1       878 1.06557E-04 3.24303E-03 0.00000E+00
 -1       879 1.30295E-04 3.02162E-03 0.00000E+00
 -1       880 8.80466E-05 2.83729E-03 0.00000E+00
 -1       881 1.07514E-04 2.62670E-03 0.00000E+00
 -1       882 7.22073E-05 2.44273E-03 0.00000E+00
 -1       883 8.76704E-05 2.23889E-03 0.00000E+00
 -1       884 5.83029E-05 2.05452E-03 0.00000E+00
 -1       885 6.99607E-05 1.85393E-03 0.00000E+00
 -1       886 4.57639E-05 1.66779E-03 0.00000E+00
 -1       887 5.37279E-05 1.46718E-03 0.00000E+00
 -1       888 3.41228E-05 1.27733E-03 0.00000E+00
 -1       889 3.84007E-05 1.07329E-03 0.00000E+00
 -1       890 2.29622E-05 8.77049E-04 0.00000E+00
 -1       891 2.34182E-05 6.65252E-04 0.00000E+00
 -1       892 1.18350E-05 4.58597E-04 0.00000E+00
 -1       893 7.97016E-06 2.28396E-04 0.00000E+00
 -1       894-9.03108E-04 5.61030E-03 0.00000E+00
 -1       895-5.07443E-04 5.16652E-03 0.00000E+00
 -1       896-1.03560E-04 5.71906E-03 0.00000E+00
 -1       897 6.31210E-05 5.26997E-03 0.00000E+00
 -1       898 3.14225E-04 5.74982E-03 0.00000E+00
 -1       899 3.58965E-04 5.28390E-03 0.00000E+00
 -1       900 4.27486E-04 5.57185E-03 0.00000E+00
 -1       901 4.47587E-04 5.13358E-03 0.00000E+00
 -1       902 4.14694E-04 5.24564E-03 0.00000E+00
 -1       903 4.36731E-04 4.85864E-03 0.00000E+00
 -1       904 3.65191E-04 4.85071E-03 0.00000E+00
 -1       905 3.90739E-04 4.51445E-03 0.00000E+00
 -1       906 3.10942E-04 4.43357E-03 0.00000E+00
 -1       907 3.37415E-04 4.13882E-03 0.00000E+00
 -1       908 2.61667E-04 4.01569E-03 0.00000E+00
 -1       909 2.86836E-04 3.75256E-03 0.00000E+00
 -1       910 2.19221E-04 3.60539E-03 0.00000E+00
 -1       911 2.41805E-04 3.36554E-03 0.00000E+00
 -1       912 1.83065E-04 3.20473E-03 0.00000E+00
 -1       913 2.02436E-04 2.98155E-03 0.00000E+00
 -1       914 1.52079E-04 2.81278E-03 0.00000E+00
 -1       915 1.67967E-04 2.60109E-03 0.00000E+00
 -1       916 1.25135E-04 2.42721E-03 0.00000E+00
 -1       917 1.37438E-04 2.22277E-03 0.00000E+00
 -1       918 1.01247E-04 2.04487E-03 0.00000E+00
 -1       919 1.09908E-04 1.84404E-03 0.00000E+00
 -1       920 7.95724E-05 1.66197E-03 0.00000E+00
 -1       921 8.45165E-05 1.46134E-03 0.00000E+00
 -1       922 5.93767E-05 1.27397E-03 0.00000E+00
 -1       923 6.04527E-05 1.07004E-03 0.00000E+00
 -1       924 3.99740E-05 8.75265E-04 0.00000E+00
 -1       925 3.68822E-05 6.63658E-04 0.00000E+00
 -1       926 2.06083E-05 4.57827E-04 0.00000E+00
 -1       927 1.25549E-05 2.27923E-04 0.00000E+00
 -1       928-8.20417E-04 4.69283E-03 0.00000E+00
 -1       929-5.31577E-04 4.36495E-03 0.00000E+00
 -1       930-2.58054E-04 4.77777E-03 0.00000E+00
 -1       931-7.69516E-05 4.45767E-03 0.00000E+00
 -1       932 1.67496E-04 4.86957E-03 0.00000E+00
 -1       933 2.53488E-04 4.53378E-03 0.00000E+00
 -1       934 3.94897E-04 4.87191E-03 0.00000E+00
 -1       935 4.28775E-04 4.52737E-03 0.00000E+00
 -1       936 4.66885E-04 4.74474E-03 0.00000E+00
 -1       937 4.85122E-04 4.41129E-03 0.00000E+00
 -1       938 4.57350E-04 4.51037E-03 0.00000E+00
 -1       939 4.73828E-04 4.20099E-03 0.00000E+00
 -1       940 4.14378E-04 4.20737E-03 0.00000E+00
 -1       941 4.31883E-04 3.92527E-03 0.00000E+00
 -1       942 3.61973E-04 3.86666E-03 0.00000E+00
 -1       943 3.79737E-04 3.60935E-03 0.00000E+00
 -1       944 3.10264E-04 3.50765E-03 0.00000E+00
 -1       945 3.26983E-04 3.27056E-03 0.00000E+00
 -1       946 2.62788E-04 3.14094E-03 0.00000E+00
 -1       947 2.77439E-04 2.91924E-03 0.00000E+00
 -1       948 2.20248E-04 2.77150E-03 0.00000E+00
 -1       949 2.32161E-04 2.56078E-03 0.00000E+00
 -1       950 1.82235E-04 2.40086E-03 0.00000E+00
 -1       951 1.90983E-04 2.19720E-03 0.00000E+00
 -1       952 1.47958E-04 2.02841E-03 0.00000E+00
 -1       953 1.53241E-04 1.82826E-03 0.00000E+00
 -1       954 1.16534E-04 1.65200E-03 0.00000E+00
 -1       955 1.18081E-04 1.45198E-03 0.00000E+00
 -1       956 8.70709E-05 1.26821E-03 0.00000E+00
 -1       957 8.45650E-05 1.06482E-03 0.00000E+00
 -1       958 5.86632E-05 8.72198E-04 0.00000E+00
 -1       959 5.16287E-05 6.61091E-04 0.00000E+00
 -1       960 3.02563E-05 4.56502E-04 0.00000E+00
 -1       961 1.75800E-05 2.27161E-04 0.00000E+00
 -1       962-7.38745E-04 3.98927E-03 0.00000E+00
 -1       963-5.08347E-04 3.72712E-03 0.00000E+00
 -1       964-3.17881E-04 4.06300E-03 0.00000E+00
 -1       965-1.47419E-04 3.80887E-03 0.00000E+00
 -1       966 5.20178E-05 4.15489E-03 0.00000E+00
 -1       967 1.60248E-04 3.89609E-03 0.00000E+00
 -1       968 3.16675E-04 4.21980E-03 0.00000E+00
 -1       969 3.74159E-04 3.94960E-03 0.00000E+00
 -1       970 4.58236E-04 4.20913E-03 0.00000E+00
 -1       971 4.87175E-04 3.93345E-03 0.00000E+00
 -1       972 5.03597E-04 4.10446E-03 0.00000E+00
 -1       973 5.20956E-04 3.83353E-03 0.00000E+00
 -1       974 4.90873E-04 3.91550E-03 0.00000E+00
 -1       975 5.04741E-04 3.65683E-03 0.00000E+00
 -1       976 4.49498E-04 3.66357E-03 0.00000E+00
 -1       977 4.62356E-04 3.42007E-03 0.00000E+00
 -1       978 3.97200E-04 3.36935E-03 0.00000E+00
 -1       979 4.09103E-04 3.14049E-03 0.00000E+00
 -1       980 3.43093E-04 3.04834E-03 0.00000E+00
 -1       981 3.53383E-04 2.83177E-03 0.00000E+00
 -1       982 2.91208E-04 2.71050E-03 0.00000E+00
 -1       983 2.99180E-04 2.50319E-03 0.00000E+00
 -1       984 2.42904E-04 2.36144E-03 0.00000E+00
 -1       985 2.47973E-04 2.16021E-03 0.00000E+00
 -1       986 1.98232E-04 2.00356E-03 0.00000E+00
 -1       987 1.99923E-04 1.80522E-03 0.00000E+00
 -1       988 1.56633E-04 1.63686E-03 0.00000E+00
 -1       989 1.54513E-04 1.43823E-03 0.00000E+00
 -1       990 1.17262E-04 1.25943E-03 0.00000E+00
 -1       991 1.10855E-04 1.05712E-03 0.00000E+00
 -1       992 7.90955E-05 8.67510E-04 0.00000E+00
 -1       993 6.77479E-05 6.57290E-04 0.00000E+00
 -1       994 4.08211E-05 4.54474E-04 0.00000E+00
 -1       995 2.30790E-05 2.26031E-04 0.00000E+00
 -1       996-6.49958E-04 3.41154E-03 0.00000E+00
 -1       997-4.57099E-04 3.19212E-03 0.00000E+00
 -1       998-3.23032E-04 3.47901E-03 0.00000E+00
 -1       999-1.67229E-04 3.26620E-03 0.00000E+00
 -1      1000-1.36927E-05 3.56352E-03 0.00000E+00
 -1      1001 1.01891E-04 3.35114E-03 0.00000E+00
 -1      1002 2.44332E-04 3.64519E-03 0.00000E+00
 -1      1003 3.19534E-04 3.42630E-03 0.00000E+00
 -1      1004 4.21031E-04 3.69076E-03 0.00000E+00
 -1      1005 4.65433E-04 3.46390E-03 0.00000E+00
 -1      1006 5.13563E-04 3.67240E-03 0.00000E+00
 -1      1007 5.39155E-04 3.44137E-03 0.00000E+00
 -1      1008 5.38681E-04 3.57865E-03 0.00000E+00
 -1      1009 5.54714E-04 3.34914E-03 0.00000E+00
 -1      1010 5.19507E-04 3.41397E-03 0.00000E+00
 -1      1011 5.31040E-04 3.19042E-03 0.00000E+00
 -1      1012 4.75855E-04 3.19128E-03 0.00000E+00
 -1      1013 4.84870E-04 2.97573E-03 0.00000E+00
 -1      1014 4.21207E-04 2.92500E-03 0.00000E+00
 -1      1015 4.28059E-04 2.71738E-03 0.00000E+00
 -1      1016 3.63410E-04 2.62727E-03 0.00000E+00
 -1      1017 3.67800E-04 2.42612E-03 0.00000E+00
 -1      1018 3.06421E-04 2.30672E-03 0.00000E+00
 -1      1019 3.07860E-04 2.10986E-03 0.00000E+00
 -1      1020 2.51826E-04 1.96864E-03 0.00000E+00
 -1      1021 2.49799E-04 1.77349E-03 0.00000E+00
 -1      1022 1.99870E-04 1.61539E-03 0.00000E+00
 -1      1023 1.93845E-04 1.41911E-03 0.00000E+00
 -1      1024 1.50046E-04 1.24690E-03 0.00000E+00
 -1      1025 1.39418E-04 1.04634E-03 0.00000E+00
 -1      1026 1.01375E-04 8.60789E-04 0.00000E+00
 -1      1027 8.53237E-05 6.51947E-04 0.00000E+00
 -1      1028 5.23682E-05 4.51558E-04 0.00000E+00
 -1      1029 2.90846E-05 2.24437E-04 0.00000E+00
 -1      1030-5.53592E-04 2.91693E-03 0.00000E+00
 -1      1031-3.86139E-04 2.72806E-03 0.00000E+00
 -1      1032-2.93027E-04 2.98059E-03 0.00000E+00
 -1      1033-1.50665E-04 2.79698E-03 0.00000E+00
 -1      1034-3.66032E-05 3.05838E-03 0.00000E+00
 -1      1035 7.91096E-05 2.87726E-03 0.00000E+00
 -1      1036 1.97134E-04 3.14199E-03 0.00000E+00
 -1      1037 2.82694E-04 2.95833E-03 0.00000E+00
 -1      1038 3.82039E-04 3.21150E-03 0.00000E+00
 -1      1039 4.40045E-04 3.02202E-03 0.00000E+00
 -1      1040 5.03967E-04 3.24356E-03 0.00000E+00
 -1      1041 5.40677E-04 3.04789E-03 0.00000E+00
 -1      1042 5.63156E-04 3.21926E-03 0.00000E+00
 -1      1043 5.85646E-04 3.01969E-03 0.00000E+00
 -1      1044 5.71035E-04 3.13008E-03 0.00000E+00
 -1      1045 5.84891E-04 2.92985E-03 0.00000E+00
 -1      1046 5.43336E-04 2.97792E-03 0.00000E+00
 -1      1047 5.51915E-04 2.77961E-03 0.00000E+00
 -1      1048 4.94471E-04 2.77115E-03 0.00000E+00
 -1      1049 4.99309E-04 2.57598E-03 0.00000E+00
 -1      1050 4.35062E-04 2.52024E-03 0.00000E+00
 -1      1051 4.36584E-04 2.32807E-03 0.00000E+00
 -1      1052 3.71803E-04 2.23476E-03 0.00000E+00
 -1      1053 3.69880E-04 2.04441E-03 0.00000E+00
 -1      1054 3.08322E-04 1.92195E-03 0.00000E+00
 -1      1055 3.02565E-04 1.73155E-03 0.00000E+00
 -1      1056 2.46149E-04 1.58634E-03 0.00000E+00
 -1      1057 2.36029E-04 1.39355E-03 0.00000E+00
 -1      1058 1.85472E-04 1.22979E-03 0.00000E+00
 -1      1059 1.70313E-04 1.03180E-03 0.00000E+00
 -1      1060 1.25589E-04 8.51553E-04 0.00000E+00
 -1      1061 1.04428E-04 6.44691E-04 0.00000E+00
 -1      1062 6.49590E-05 4.47534E-04 0.00000E+00
 -1      1063 3.56267E-05 2.22265E-04 0.00000E+00
 -1      1064-4.49003E-04 2.48281E-03 0.00000E+00
 -1      1065-2.99471E-04 2.31745E-03 0.00000E+00
 -1      1066-2.37786E-04 2.54390E-03 0.00000E+00
 -1      1067-1.06543E-04 2.38262E-03 0.00000E+00
 -1      1068-2.52628E-05 2.61647E-03 0.00000E+00
 -1      1069 8.75578E-05 2.45835E-03 0.00000E+00
 -1      1070 1.79211E-04 2.69758E-03 0.00000E+00
 -1      1071 2.69765E-04 2.53930E-03 0.00000E+00
 -1      1072 3.56307E-04 2.77577E-03 0.00000E+00
 -1      1073 4.24116E-04 2.61429E-03 0.00000E+00
 -1      1074 4.90527E-04 2.83463E-03 0.00000E+00
 -1      1075 5.37846E-04 2.66797E-03 0.00000E+00
 -1      1076 5.73707E-04 2.85612E-03 0.00000E+00
 -1      1077 6.04619E-04 2.68406E-03 0.00000E+00
 -1      1078 6.06987E-04 2.82588E-03 0.00000E+00
 -1      1079 6.25929E-04 2.64959E-03 0.00000E+00
 -1      1080 5.98834E-04 2.73680E-03 0.00000E+00
 -1      1081 6.09414E-04 2.55800E-03 0.00000E+00
 -1      1082 5.60914E-04 2.58934E-03 0.00000E+00
 -1      1083 5.65455E-04 2.40938E-03 0.00000E+00
 -1      1084 5.04379E-04 2.38917E-03 0.00000E+00
 -1      1085 5.04063E-04 2.20856E-03 0.00000E+00
 -1      1086 4.37878E-04 2.14416E-03 0.00000E+00
 -1      1087 4.33092E-04 1.96249E-03 0.00000E+00
 -1      1088 3.67115E-04 1.86192E-03 0.00000E+00
 -1      1089 3.57762E-04 1.67800E-03 0.00000E+00
 -1      1090 2.95250E-04 1.54839E-03 0.00000E+00
 -1      1091 2.80921E-04 1.36039E-03 0.00000E+00
 -1      1092 2.23528E-04 1.20717E-03 0.00000E+00
 -1      1093 2.03552E-04 1.01271E-03 0.00000E+00
 -1      1094 1.51797E-04 8.39237E-04 0.00000E+00
 -1      1095 1.25112E-04 6.35087E-04 0.00000E+00
 -1      1096 7.86465E-05 4.42138E-04 0.00000E+00
 -1      1097 4.27305E-05 2.19376E-04 0.00000E+00
 -1      1098-3.35777E-04 2.09594E-03 0.00000E+00
 -1      1099-1.99216E-04 1.94972E-03 0.00000E+00
 -1      1100-1.62761E-04 2.15502E-03 0.00000E+00
 -1      1101-4.04005E-05 2.01191E-03 0.00000E+00
 -1      1102 1.35235E-05 2.22350E-03 0.00000E+00
 -1      1103 1.22530E-04 2.08362E-03 0.00000E+00
 -1      1104 1.89069E-04 2.30105E-03 0.00000E+00
 -1      1105 2.81375E-04 2.16224E-03 0.00000E+00
 -1      1106 3.50382E-04 2.38108E-03 0.00000E+00
 -1      1107 4.24435E-04 2.24103E-03 0.00000E+00
 -1      1108 4.84319E-04 2.45291E-03 0.00000E+00
 -1      1109 5.40174E-04 2.30944E-03 0.00000E+00
 -1      1110 5.80212E-04 2.50229E-03 0.00000E+00
 -1      1111 6.19518E-04 2.35394E-03 0.00000E+00
 -1      1112 6.32892E-04 2.51434E-03 0.00000E+00
 -1      1113 6.58334E-04 2.36063E-03 0.00000E+00
 -1      1114 6.43817E-04 2.47712E-03 0.00000E+00
 -1      1115 6.58293E-04 2.31842E-03 0.00000E+00
 -1      1116 6.19739E-04 2.38428E-03 0.00000E+00
 -1      1117 6.25680E-04 2.22125E-03 0.00000E+00
 -1      1118 5.69916E-04 2.23538E-03 0.00000E+00
 -1      1119 5.68972E-04 2.06845E-03 0.00000E+00
 -1      1120 5.03410E-04 2.03436E-03 0.00000E+00
 -1      1121 4.96469E-04 1.86343E-03 0.00000E+00
 -1      1122 4.27436E-04 1.78729E-03 0.00000E+00
 -1      1123 4.14779E-04 1.61160E-03 0.00000E+00
 -1      1124 3.46817E-04 1.50026E-03 0.00000E+00
 -1      1125 3.28259E-04 1.31847E-03 0.00000E+00
 -1      1126 2.64115E-04 1.17804E-03 0.00000E+00
 -1      1127 2.39076E-04 9.88225E-04 0.00000E+00
 -1      1128 1.80021E-04 8.23195E-04 0.00000E+00
 -1      1129 1.47398E-04 6.22630E-04 0.00000E+00
 -1      1130 9.34700E-05 4.35060E-04 0.00000E+00
 -1      1131 5.04136E-05 2.15604E-04 0.00000E+00
 -1      1132-2.13656E-04 1.74827E-03 0.00000E+00
 -1      1133-8.66979E-05 1.61844E-03 0.00000E+00
 -1      1134-7.11943E-05 1.80555E-03 0.00000E+00
 -1      1135 4.41326E-05 1.67800E-03 0.00000E+00
 -1      1136 7.49281E-05 1.87061E-03 0.00000E+00
 -1      1137 1.80074E-04 1.74610E-03 0.00000E+00
 -1      1138 2.23753E-04 1.94448E-03 0.00000E+00
 -1      1139 3.16002E-04 1.82159E-03 0.00000E+00
 -1      1140 3.66046E-04 2.02334E-03 0.00000E+00
 -1      1141 4.43643E-04 1.90042E-03 0.00000E+00
 -1      1142 4.91746E-04 2.10045E-03 0.00000E+00
 -1      1143 5.53742E-04 1.97565E-03 0.00000E+00
 -1      1144 5.90725E-04 2.16556E-03 0.00000E+00
 -1      1145 6.37212E-04 2.03709E-03 0.00000E+00
 -1      1146 6.55145E-04 2.20585E-03 0.00000E+00
 -1      1147 6.87218E-04 2.07234E-03 0.00000E+00
 -1      1148 6.81539E-04 2.20825E-03 0.00000E+00
 -1      1149 7.00954E-04 2.06889E-03 0.00000E+00
 -1      1150 6.71534E-04 2.16223E-03 0.00000E+00
 -1      1151 6.80219E-04 2.01668E-03 0.00000E+00
 -1      1152 6.30864E-04 2.06178E-03 0.00000E+00
 -1      1153 6.30489E-04 1.90990E-03 0.00000E+00
 -1      1154 5.67278E-04 1.90587E-03 0.00000E+00
 -1      1155 5.59018E-04 1.74737E-03 0.00000E+00
 -1      1156 4.88411E-04 1.69729E-03 0.00000E+00
 -1      1157 4.72885E-04 1.53153E-03 0.00000E+00
 -1      1158 4.00349E-04 1.44081E-03 0.00000E+00
 -1      1159 3.77651E-04 1.26671E-03 0.00000E+00
 -1      1160 3.07035E-04 1.14136E-03 0.00000E+00
 -1      1161 2.76744E-04 9.57415E-04 0.00000E+00
 -1      1162 2.10224E-04 8.02704E-04 0.00000E+00
 -1      1163 1.71266E-04 6.06738E-04 0.00000E+00
 -1      1164 1.09447E-04 4.25932E-04 0.00000E+00
 -1      1165 5.86813E-05 2.10753E-04 0.00000E+00
 -1      1166-8.26180E-05 1.43489E-03 0.00000E+00
 -1      1167 3.70368E-05 1.31979E-03 0.00000E+00
 -1      1168 3.47397E-05 1.49038E-03 0.00000E+00
 -1      1169 1.44433E-04 1.37678E-03 0.00000E+00
 -1      1170 1.55429E-04 1.55235E-03 0.00000E+00
 -1      1171 2.56956E-04 1.44146E-03 0.00000E+00
 -1      1172 2.80202E-04 1.62260E-03 0.00000E+00
 -1      1173 3.71399E-04 1.51346E-03 0.00000E+00
 -1      1174 4.02755E-04 1.69888E-03 0.00000E+00
 -1      1175 4.81991E-04 1.59037E-03 0.00000E+00
 -1      1176 5.15751E-04 1.77705E-03 0.00000E+00
 -1      1177 5.81722E-04 1.66771E-03 0.00000E+00
 -1      1178 6.10734E-04 1.85005E-03 0.00000E+00
 -1      1179 6.62699E-04 1.73823E-03 0.00000E+00
 -1      1180 6.79540E-04 1.90788E-03 0.00000E+00
 -1      1181 7.17458E-04 1.79190E-03 0.00000E+00
 -1      1182 7.16122E-04 1.93856E-03 0.00000E+00
 -1      1183 7.40628E-04 1.81694E-03 0.00000E+00
 -1      1184 7.18094E-04 1.93006E-03 0.00000E+00
 -1      1185 7.30292E-04 1.80158E-03 0.00000E+00
 -1      1186 6.87235E-04 1.87260E-03 0.00000E+00
 -1      1187 6.88395E-04 1.73632E-03 0.00000E+00
 -1      1188 6.28668E-04 1.76035E-03 0.00000E+00
 -1      1189 6.19923E-04 1.61545E-03 0.00000E+00
 -1      1190 5.49142E-04 1.59187E-03 0.00000E+00
 -1      1191 5.31284E-04 1.43745E-03 0.00000E+00
 -1      1192 4.55219E-04 1.36915E-03 0.00000E+00
 -1      1193 4.28574E-04 1.20417E-03 0.00000E+00
 -1      1194 3.51966E-04 1.09612E-03 0.00000E+00
 -1      1195 3.16308E-04 9.19342E-04 0.00000E+00
 -1      1196 2.42297E-04 7.76972E-04 0.00000E+00
 -1      1197 1.96639E-04 5.86763E-04 0.00000E+00
 -1      1198 1.26562E-04 4.14332E-04 0.00000E+00
 -1      1199 6.75222E-05 2.04593E-04 0.00000E+00
 -1      1200 5.70448E-05 1.15304E-03 0.00000E+00
 -1      1201 1.70885E-04 1.05170E-03 0.00000E+00
 -1      1202 1.53304E-04 1.20655E-03 0.00000E+00
 -1      1203 2.58311E-04 1.10599E-03 0.00000E+00
 -1      1204 2.52253E-04 1.26548E-03 0.00000E+00
 -1      1205 3.50387E-04 1.16722E-03 0.00000E+00
 -1      1206 3.55559E-04 1.33209E-03 0.00000E+00
 -1      1207 4.45091E-04 1.23544E-03 0.00000E+00
 -1      1208 4.58892E-04 1.40505E-03 0.00000E+00
 -1      1209 5.38400E-04 1.30925E-03 0.00000E+00
 -1      1210 5.57018E-04 1.48184E-03 0.00000E+00
 -1      1211 6.25155E-04 1.38581E-03 0.00000E+00
 -1      1212 6.43318E-04 1.55774E-03 0.00000E+00
 -1      1213 6.98975E-04 1.46011E-03 0.00000E+00
 -1      1214 7.10464E-04 1.62540E-03 0.00000E+00
 -1      1215 7.52916E-04 1.52454E-03 0.00000E+00
 -1      1216 7.51621E-04 1.67487E-03 0.00000E+00
 -1      1217 7.80634E-04 1.56903E-03 0.00000E+00
 -1      1218 7.61949E-04 1.69454E-03 0.00000E+00
 -1      1219 7.77773E-04 1.58198E-03 0.00000E+00
 -1      1220 7.39828E-04 1.67290E-03 0.00000E+00
 -1      1221 7.43078E-04 1.55198E-03 0.00000E+00
 -1      1222 6.87202E-04 1.60055E-03 0.00000E+00
 -1      1223 6.78653E-04 1.46977E-03 0.00000E+00
 -1      1224 6.08820E-04 1.47175E-03 0.00000E+00
 -1      1225 5.89179E-04 1.32971E-03 0.00000E+00
 -1      1226 5.10698E-04 1.28481E-03 0.00000E+00
 -1      1227 4.80381E-04 1.13022E-03 0.00000E+00
 -1      1228 3.98454E-04 1.04140E-03 0.00000E+00
 -1      1229 3.57394E-04 8.73091E-04 0.00000E+00
 -1      1230 2.76036E-04 7.45156E-04 0.00000E+00
 -1      1231 2.23359E-04 5.61988E-04 0.00000E+00
 -1      1232 1.44755E-04 3.99780E-04 0.00000E+00
 -1      1233 7.69003E-05 1.96859E-04 0.00000E+00
 -1      1234 2.04596E-04 9.01395E-04 0.00000E+00
 -1      1235 3.13429E-04 8.13384E-04 0.00000E+00
 -1      1236 2.82789E-04 9.52635E-04 0.00000E+00
 -1      1237 3.83593E-04 8.64655E-04 0.00000E+00
 -1      1238 3.62920E-04 1.00836E-03 0.00000E+00
 -1      1239 4.57690E-04 9.22199E-04 0.00000E+00
 -1      1240 4.47089E-04 1.07115E-03 0.00000E+00
 -1      1241 5.34426E-04 9.86289E-04 0.00000E+00
 -1      1242 5.32284E-04 1.14022E-03 0.00000E+00
 -1      1243 6.10971E-04 1.05612E-03 0.00000E+00
 -1      1244 6.14794E-04 1.21407E-03 0.00000E+00
 -1      1245 6.83567E-04 1.12995E-03 0.00000E+00
 -1      1246 6.89608E-04 1.28963E-03 0.00000E+00
 -1      1247 7.47245E-04 1.20439E-03 0.00000E+00
 -1      1248 7.50629E-04 1.36165E-03 0.00000E+00
 -1      1249 7.96062E-04 1.27388E-03 0.00000E+00
 -1      1250 7.91314E-04 1.42238E-03 0.00000E+00
 -1      1251 8.23737E-04 1.33036E-03 0.00000E+00
 -1      1252 8.05760E-04 1.46169E-03 0.00000E+00
 -1      1253 8.24713E-04 1.36349E-03 0.00000E+00
 -1      1254 7.89988E-04 1.46803E-03 0.00000E+00
 -1      1255 7.95377E-04 1.36156E-03 0.00000E+00
 -1      1256 7.42963E-04 1.43004E-03 0.00000E+00
 -1      1257 7.34995E-04 1.31322E-03 0.00000E+00
 -1      1258 6.66804E-04 1.33851E-03 0.00000E+00
 -1      1259 6.45835E-04 1.20935E-03 0.00000E+00
 -1      1260 5.65999E-04 1.18782E-03 0.00000E+00
 -1      1261 5.32322E-04 1.04458E-03 0.00000E+00
 -1      1262 4.45907E-04 9.76438E-04 0.00000E+00
 -1      1263 3.99487E-04 8.17832E-04 0.00000E+00
 -1      1264 3.11118E-04 7.06398E-04 0.00000E+00
 -1      1265 2.51175E-04 5.31652E-04 0.00000E+00
 -1      1266 1.63905E-04 3.81734E-04 0.00000E+00
 -1      1267 8.67471E-05 1.87246E-04 0.00000E+00
 -1      1268 3.58698E-04 6.79707E-04 0.00000E+00
 -1      1269 4.62691E-04 6.04928E-04 0.00000E+00
 -1      1270 4.21192E-04 7.28244E-04 0.00000E+00
 -1      1271 5.17779E-04 6.52728E-04 0.00000E+00
 -1      1272 4.84872E-04 7.80417E-04 0.00000E+00
 -1      1273 5.75986E-04 7.06167E-04 0.00000E+00
 -1      1274 5.51959E-04 8.39043E-04 0.00000E+00
 -1      1275 6.36448E-04 7.65631E-04 0.00000E+00
 -1      1276 6.20326E-04 9.03654E-04 0.00000E+00
 -1      1277 6.97145E-04 8.30690E-04 0.00000E+00
 -1      1278 6.87325E-04 9.73408E-04 0.00000E+00
 -1      1279 7.55328E-04 9.00298E-04 0.00000E+00
 -1      1280 7.49211E-04 1.04633E-03 0.00000E+00
 -1      1281 8.07193E-04 9.72212E-04 0.00000E+00
 -1      1282 8.01117E-04 1.11877E-03 0.00000E+00
 -1      1283 8.47874E-04 1.04248E-03 0.00000E+00
 -1      1284 8.37295E-04 1.18493E-03 0.00000E+00
 -1      1285 8.71700E-04 1.10494E-03 0.00000E+00
 -1      1286 8.51745E-04 1.23656E-03 0.00000E+00
 -1      1287 8.72838E-04 1.15097E-03 0.00000E+00
 -1      1288 8.39219E-04 1.26314E-03 0.00000E+00
 -1      1289 8.46284E-04 1.16974E-03 0.00000E+00
 -1      1290 7.96379E-04 1.25290E-03 0.00000E+00
 -1      1291 7.88983E-04 1.14924E-03 0.00000E+00
 -1      1292 7.22658E-04 1.19446E-03 0.00000E+00
 -1      1293 7.00612E-04 1.07807E-03 0.00000E+00
 -1      1294 6.20323E-04 1.07879E-03 0.00000E+00
 -1      1295 5.83556E-04 9.47434E-04 0.00000E+00
 -1      1296 4.93597E-04 9.00752E-04 0.00000E+00
 -1      1297 4.41916E-04 7.52886E-04 0.00000E+00
 -1      1298 3.47078E-04 6.59856E-04 0.00000E+00
 -1      1299 2.79707E-04 4.94967E-04 0.00000E+00
 -1      1300 1.83806E-04 3.59602E-04 0.00000E+00
 -1      1301 9.69495E-05 1.75420E-04 0.00000E+00
 -1      1302 5.17206E-04 4.88469E-04 0.00000E+00
 -1      1303 6.15866E-04 4.27024E-04 0.00000E+00
 -1      1304 5.65918E-04 5.33743E-04 0.00000E+00
 -1      1305 6.57727E-04 4.70760E-04 0.00000E+00
 -1      1306 6.15129E-04 5.81858E-04 0.00000E+00
 -1      1307 7.01866E-04 5.19505E-04 0.00000E+00
 -1      1308 6.66971E-04 6.35793E-04 0.00000E+00
 -1      1309 7.47673E-04 5.73692E-04 0.00000E+00
 -1      1310 7.19904E-04 6.95282E-04 0.00000E+00
 -1      1311 7.93663E-04 6.33114E-04 0.00000E+00
 -1      1312 7.72010E-04 7.59885E-04 0.00000E+00
 -1      1313 8.37798E-04 6.97178E-04 0.00000E+00
 -1      1314 8.20485E-04 8.28362E-04 0.00000E+00
 -1      1315 8.77166E-04 7.64434E-04 0.00000E+00
 -1      1316 8.61517E-04 8.98241E-04 0.00000E+00
 -1      1317 9.07866E-04 8.32136E-04 0.00000E+00
 -1      1318 8.90288E-04 9.65308E-04 0.00000E+00
 -1      1319 9.25032E-04 8.95727E-04 0.00000E+00
 -1      1320 9.01248E-04 1.02313E-03 0.00000E+00
 -1      1321 9.23123E-04 9.48371E-04 0.00000E+00
 -1      1322 8.88744E-04 1.06280E-03 0.00000E+00
 -1      1323 8.96563E-04 9.80746E-04 0.00000E+00
 -1      1324 8.47980E-04 1.07328E-03 0.00000E+00
 -1      1325 8.40716E-04 9.81417E-04 0.00000E+00
 -1      1326 7.76094E-04 1.04243E-03 0.00000E+00
 -1      1327 7.52925E-04 9.38041E-04 0.00000E+00
 -1      1328 6.72872E-04 9.58873E-04 0.00000E+00
 -1      1329 6.33165E-04 8.39386E-04 0.00000E+00
 -1      1330 5.40658E-04 8.14168E-04 0.00000E+00
 -1      1331 4.83837E-04 6.77775E-04 0.00000E+00
 -1      1332 3.83291E-04 6.04755E-04 0.00000E+00
 -1      1333 3.08423E-04 4.51149E-04 0.00000E+00
 -1      1334 2.04148E-04 3.32750E-04 0.00000E+00
 -1      1335 1.07337E-04 1.61014E-04 0.00000E+00
 -1      1336 6.76927E-04 3.28602E-04 0.00000E+00
 -1      1337 7.69038E-04 2.80621E-04 0.00000E+00
 -1      1338 7.13488E-04 3.69919E-04 0.00000E+00
 -1      1339 7.99319E-04 3.19566E-04 0.00000E+00
 -1      1340 7.49970E-04 4.13316E-04 0.00000E+00
 -1      1341 8.31065E-04 3.62870E-04 0.00000E+00
 -1      1342 7.88254E-04 4.61866E-04 0.00000E+00
 -1      1343 8.63801E-04 4.10961E-04 0.00000E+00
 -1      1344 8.27199E-04 5.15427E-04 0.00000E+00
 -1      1345 8.96398E-04 4.63767E-04 0.00000E+00
 -1      1346 8.65371E-04 5.73807E-04 0.00000E+00
 -1      1347 9.27297E-04 5.20981E-04 0.00000E+00
 -1      1348 9.00641E-04 6.36255E-04 0.00000E+00
 -1      1349 9.54242E-04 5.81693E-04 0.00000E+00
 -1      1350 9.30028E-04 7.01127E-04 0.00000E+00
 -1      1351 9.74119E-04 6.44038E-04 0.00000E+00
 -1      1352 9.49586E-04 7.65439E-04 0.00000E+00
 -1      1353 9.82854E-04 7.04745E-04 0.00000E+00
 -1      1354 9.54445E-04 8.24360E-04 0.00000E+00
 -1      1355 9.75464E-04 7.58619E-04 0.00000E+00
 -1      1356 9.39104E-04 8.70751E-04 0.00000E+00
 -1      1357 9.46376E-04 7.98091E-04 0.00000E+00
 -1      1358 8.98074E-04 8.94992E-04 0.00000E+00
 -1      1359 8.90089E-04 8.13100E-04 0.00000E+00
 -1      1360 8.26831E-04 8.85421E-04 0.00000E+00
 -1      1361 8.02146E-04 7.91657E-04 0.00000E+00
 -1      1362 7.22829E-04 8.29660E-04 0.00000E+00
 -1      1363 6.80133E-04 7.21410E-04 0.00000E+00
 -1      1364 5.86092E-04 7.16848E-04 0.00000E+00
 -1      1365 5.24217E-04 5.92251E-04 0.00000E+00
 -1      1366 4.18939E-04 5.40430E-04 0.00000E+00
 -1      1367 3.36606E-04 3.99461E-04 0.00000E+00
 -1      1368 2.24488E-04 3.00517E-04 0.00000E+00
 -1      1369 1.17662E-04 1.43648E-04 0.00000E+00
 -1      1370 8.33313E-04 2.01085E-04 0.00000E+00
 -1      1371 9.16841E-04 1.66501E-04 0.00000E+00
 -1      1372 8.59210E-04 2.37603E-04 0.00000E+00
 -1      1373 9.37122E-04 1.99803E-04 0.00000E+00
 -1      1374 8.84586E-04 2.75481E-04 0.00000E+00
 -1      1375 9.58117E-04 2.36765E-04 0.00000E+00
 -1      1376 9.10951E-04 3.17790E-04 0.00000E+00
 -1      1377 9.79411E-04 2.77779E-04 0.00000E+00
 -1      1378 9.37429E-04 3.64463E-04 0.00000E+00
 -1      1379 1.00011E-03 3.22848E-04 0.00000E+00
 -1      1380 9.62902E-04 4.15452E-04 0.00000E+00
 -1      1381 1.01897E-03 3.71838E-04 0.00000E+00
 -1      1382 9.85710E-04 4.70327E-04 0.00000E+00
 -1      1383 1.03420E-03 4.24201E-04 0.00000E+00
 -1      1384 1.00349E-03 5.28023E-04 0.00000E+00
 -1      1385 1.04328E-03 4.78706E-04 0.00000E+00
 -1      1386 1.01303E-03 5.86481E-04 0.00000E+00
 -1      1387 1.04282E-03 5.33079E-04 0.00000E+00
 -1      1388 1.01017E-03 6.42198E-04 0.00000E+00
 -1      1389 1.02846E-03 5.83532E-04 0.00000E+00
 -1      1390 9.89832E-04 6.89708E-04 0.00000E+00
 -1      1391 9.94956E-04 6.24249E-04 0.00000E+00
 -1      1392 9.46406E-04 7.21154E-04 0.00000E+00
 -1      1393 9.36490E-04 6.46989E-04 0.00000E+00
 -1      1394 8.74366E-04 7.26238E-04 0.00000E+00
 -1      1395 8.47421E-04 6.41136E-04 0.00000E+00
 -1      1396 7.69267E-04 6.92916E-04 0.00000E+00
 -1      1397 7.23281E-04 5.94634E-04 0.00000E+00
 -1      1398 6.28735E-04 6.09227E-04 0.00000E+00
 -1      1399 5.61807E-04 4.96265E-04 0.00000E+00
 -1      1400 4.52995E-04 4.66357E-04 0.00000E+00
 -1      1401 3.63317E-04 3.39243E-04 0.00000E+00
 -1      1402 2.44223E-04 2.62250E-04 0.00000E+00
 -1      1403 1.27583E-04 1.22947E-04 0.00000E+00
 -1      1404 9.80135E-04 1.06448E-04 0.00000E+00
 -1      1405 1.05212E-03 8.46777E-05 0.00000E+00
 -1      1406 9.96840E-04 1.37169E-04 0.00000E+00
 -1      1407 1.06403E-03 1.11372E-04 0.00000E+00
 -1      1408 1.01274E-03 1.68597E-04 0.00000E+00
 -1      1409 1.07600E-03 1.40960E-04 0.00000E+00
 -1      1410 1.02888E-03 2.03658E-04 0.00000E+00
 -1      1411 1.08763E-03 1.73770E-04 0.00000E+00
 -1      1412 1.04455E-03 2.42329E-04 0.00000E+00
 -1      1413 1.09817E-03 2.09837E-04 0.00000E+00
 -1      1414 1.05885E-03 2.84638E-04 0.00000E+00
 -1      1415 1.10659E-03 2.49127E-04 0.00000E+00
 -1      1416 1.07043E-03 3.30357E-04 0.00000E+00
 -1      1417 1.11140E-03 2.91326E-04 0.00000E+00
 -1      1418 1.07736E-03 3.78819E-04 0.00000E+00
 -1      1419 1.11051E-03 3.35657E-04 0.00000E+00
 -1      1420 1.07699E-03 4.28656E-04 0.00000E+00
 -1      1421 1.10108E-03 3.80611E-04 0.00000E+00
 -1      1422 1.06579E-03 4.77424E-04 0.00000E+00
 -1      1423 1.07930E-03 4.23569E-04 0.00000E+00
 -1      1424 1.03922E-03 5.21147E-04 0.00000E+00
 -1      1425 1.04036E-03 4.60338E-04 0.00000E+00
 -1      1426 9.91855E-04 5.53812E-04 0.00000E+00
 -1      1427 9.78515E-04 4.84684E-04 0.00000E+00
 -1      1428 9.17716E-04 5.67036E-04 0.00000E+00
 -1      1429 8.87456E-04 4.88067E-04 0.00000E+00
 -1      1430 8.11012E-04 5.50240E-04 0.00000E+00
 -1      1431 7.61161E-04 4.60037E-04 0.00000E+00
 -1      1432 6.67214E-04 4.91867E-04 0.00000E+00
 -1      1433 5.95094E-04 3.89872E-04 0.00000E+00
 -1      1434 4.84184E-04 3.82160E-04 0.00000E+00
 -1      1435 3.87357E-04 2.69949E-04 0.00000E+00
 -1      1436 2.62559E-04 2.17336E-04 0.00000E+00
 -1      1437 1.36638E-04 9.85729E-05 0.00000E+00
 -1      1438 1.10913E-03 4.40409E-05 0.00000E+00
 -1      1439 1.16558E-03 3.35280E-05 0.00000E+00
 -1      1440 1.11824E-03 6.78071E-05 0.00000E+00
 -1      1441 1.17094E-03 5.25637E-05 0.00000E+00
 -1      1442 1.12642E-03 9.17466E-05 0.00000E+00
 -1      1443 1.17583E-03 7.36401E-05 0.00000E+00
 -1      1444 1.13420E-03 1.18427E-04 0.00000E+00
 -1      1445 1.17984E-03 9.70008E-05 0.00000E+00
 -1      1446 1.14099E-03 1.47849E-04 0.00000E+00
 -1      1447 1.18232E-03 1.22685E-04 0.00000E+00
 -1      1448 1.14599E-03 1.80068E-04 0.00000E+00
 -1      1449 1.18236E-03 1.50702E-04 0.00000E+00
 -1      1450 1.14806E-03 2.14977E-04 0.00000E+00
 -1      1451 1.17867E-03 1.80890E-04 0.00000E+00
 -1      1452 1.14558E-03 2.52183E-04 0.00000E+00
 -1      1453 1.16945E-03 2.12796E-04 0.00000E+00
 -1      1454 1.13631E-03 2.90825E-04 0.00000E+00
 -1      1455 1.15223E-03 2.45499E-04 0.00000E+00
 -1      1456 1.11719E-03 3.29308E-04 0.00000E+00
 -1      1457 1.12367E-03 2.77351E-04 0.00000E+00
 -1      1458 1.08418E-03 3.64940E-04 0.00000E+00
 -1      1459 1.07935E-03 3.05630E-04 0.00000E+00
 -1      1460 1.03220E-03 3.93496E-04 0.00000E+00
 -1      1461 1.01375E-03 3.26136E-04 0.00000E+00
 -1      1462 9.55163E-04 4.08800E-04 0.00000E+00
 -1      1463 9.20286E-04 3.32860E-04 0.00000E+00
 -1      1464 8.46455E-04 4.02599E-04 0.00000E+00
 -1      1465 7.91908E-04 3.18023E-04 0.00000E+00
 -1      1466 6.99846E-04 3.65201E-04 0.00000E+00
 -1      1467 6.22233E-04 2.73059E-04 0.00000E+00
 -1      1468 5.10935E-04 2.87578E-04 0.00000E+00
 -1      1469 4.07222E-04 1.91176E-04 0.00000E+00
 -1      1470 2.78485E-04 1.65265E-04 0.00000E+00
 -1      1471 1.44219E-04 7.02698E-05 0.00000E+00
 -1      1472 1.20981E-03 1.09281E-05 0.00000E+00
 -1      1473 1.24571E-03 8.44898E-06 0.00000E+00
 -1      1474 1.21321E-03 2.64217E-05 0.00000E+00
 -1      1475 1.24666E-03 1.87018E-05 0.00000E+00
 -1      1476 1.21570E-03 4.17444E-05 0.00000E+00
 -1      1477 1.24677E-03 3.00328E-05 0.00000E+00
 -1      1478 1.21730E-03 5.88064E-05 0.00000E+00
 -1      1479 1.24563E-03 4.25931E-05 0.00000E+00
 -1      1480 1.21748E-03 7.76178E-05 0.00000E+00
 -1      1481 1.24264E-03 5.64046E-05 0.00000E+00
 -1      1482 1.21552E-03 9.82296E-05 0.00000E+00
 -1      1483 1.23695E-03 7.14820E-05 0.00000E+00
 -1      1484 1.21039E-03 1.20600E-04 0.00000E+00
 -1      1485 1.22738E-03 8.77577E-05 0.00000E+00
 -1      1486 1.20068E-03 1.44523E-04 0.00000E+00
 -1      1487 1.21232E-03 1.05021E-04 0.00000E+00
 -1      1488 1.18439E-03 1.69525E-04 0.00000E+00
 -1      1489 1.18952E-03 1.22829E-04 0.00000E+00
 -1      1490 1.15881E-03 1.94699E-04 0.00000E+00
 -1      1491 1.15592E-03 1.40368E-04 0.00000E+00
 -1      1492 1.12029E-03 2.18476E-04 0.00000E+00
 -1      1493 1.10744E-03 1.56269E-04 0.00000E+00
 -1      1494 1.06405E-03 2.38326E-04 0.00000E+00
 -1      1495 1.03873E-03 1.68370E-04 0.00000E+00
 -1      1496 9.84097E-04 2.50431E-04 0.00000E+00
 -1      1497 9.43172E-04 1.73486E-04 0.00000E+00
 -1      1498 8.73392E-04 2.49479E-04 0.00000E+00
 -1      1499 8.13128E-04 1.67347E-04 0.00000E+00
 -1      1500 7.24548E-04 2.28907E-04 0.00000E+00
 -1      1501 6.40989E-04 1.45028E-04 0.00000E+00
 -1      1502 5.31341E-04 1.82180E-04 0.00000E+00
 -1      1503 4.21087E-04 1.02355E-04 0.00000E+00
 -1      1504 2.90753E-04 1.05587E-04 0.00000E+00
 -1      1505 1.49568E-04 3.78028E-05 0.00000E+00
 -1      1506 1.26927E-03 4.20637E-07 0.00000E+00
 -1      1507 1.27766E-03 0.00000E+00 0.00000E+00
 -1      1508 1.26932E-03 6.00231E-06 0.00000E+00
 -1      1509 1.27689E-03 0.00000E+00 0.00000E+00
 -1      1510 1.26857E-03 1.13642E-05 0.00000E+00
 -1      1511 1.27514E-03 0.00000E+00 0.00000E+00
 -1      1512 1.26663E-03 1.73298E-05 0.00000E+00
 -1      1513 1.27200E-03 0.00000E+00 0.00000E+00
 -1      1514 1.26302E-03 2.39056E-05 0.00000E+00
 -1      1515 1.26687E-03 0.00000E+00 0.00000E+00
 -1      1516 1.25704E-03 3.11122E-05 0.00000E+00
 -1      1517 1.25893E-03 0.00000E+00 0.00000E+00
 -1      1518 1.24773E-03 3.89396E-05 0.00000E+00
 -1      1519 1.24706E-03 0.00000E+00 0.00000E+00
 -1      1520 1.23377E-03 4.73244E-05 0.00000E+00
 -1      1521 1.22968E-03 0.00000E+00 0.00000E+00
 -1      1522 1.21330E-03 5.61141E-05 0.00000E+00
 -1      1523 1.20464E-03 0.00000E+00 0.00000E+00
 -1      1524 1.18379E-03 6.50123E-05 0.00000E+00
 -1      1525 1.16899E-03 0.00000E+00 0.00000E+00
 -1      1526 1.14181E-03 7.34995E-05 0.00000E+00
 -1      1527 1.11877E-03 0.00000E+00 0.00000E+00
 -1      1528 1.08280E-03 8.07255E-05 0.00000E+00
 -1      1529 1.04873E-03 0.00000E+00 0.00000E+00
 -1      1530 1.00084E-03 8.53856E-05 0.00000E+00
 -1      1531 9.52241E-04 0.00000E+00 0.00000E+00
 -1      1532 8.88763E-04 8.56240E-05 0.00000E+00
 -1      1533 8.21483E-04 0.00000E+00 0.00000E+00
 -1      1534 7.38571E-04 7.90843E-05 0.00000E+00
 -1      1535 6.48374E-04 0.00000E+00 0.00000E+00
 -1      1536 5.42981E-04 6.33347E-05 0.00000E+00
 -1      1537 4.26575E-04 0.00000E+00 0.00000E+00
 -1      1538 2.97801E-04 3.68931E-05 0.00000E+00
 -1      1539 1.51699E-04 0.00000E+00 0.00000E+00
 -1      1540-6.54705E-03 4.37411E-02 0.00000E+00
 -1      1541-6.36064E-03 4.22204E-02 0.00000E+00
 -1      1542-6.17485E-03 4.37414E-02 0.00000E+00
 -1      1543-6.36001E-03 4.52516E-02 0.00000E+00
 -1      1544-5.96998E-03 4.22204E-02 0.00000E+00
 -1      1545-5.77018E-03 4.37416E-02 0.00000E+00
 -1      1546-5.97287E-03 4.52518E-02 0.00000E+00
 -1      1547-5.54258E-03 4.22202E-02 0.00000E+00
 -1      1548-5.32323E-03 4.37419E-02 0.00000E+00
 -1      1549-5.54771E-03 4.52517E-02 0.00000E+00
 -1      1550-5.07325E-03 4.22200E-02 0.00000E+00
 -1      1551-4.83315E-03 4.37425E-02 0.00000E+00
 -1      1552-5.07938E-03 4.52514E-02 0.00000E+00
 -1      1553-4.55980E-03 4.22202E-02 0.00000E+00
 -1      1554-4.29633E-03 4.37437E-02 0.00000E+00
 -1      1555-4.56566E-03 4.52509E-02 0.00000E+00
 -1      1556-3.99848E-03 4.22213E-02 0.00000E+00
 -1      1557-3.70890E-03 4.37460E-02 0.00000E+00
 -1      1558-4.00274E-03 4.52505E-02 0.00000E+00
 -1      1559-3.38524E-03 4.22239E-02 0.00000E+00
 -1      1560-3.06660E-03 4.37500E-02 0.00000E+00
 -1      1561-3.38649E-03 4.52507E-02 0.00000E+00
 -1      1562-2.71560E-03 4.22287E-02 0.00000E+00
 -1      1563-2.36471E-03 4.37565E-02 0.00000E+00
 -1      1564-2.71234E-03 4.52525E-02 0.00000E+00
 -1      1565-1.98453E-03 4.22368E-02 0.00000E+00
 -1      1566-1.59780E-03 4.37667E-02 0.00000E+00
 -1      1567-1.97515E-03 4.52572E-02 0.00000E+00
 -1      1568-1.18614E-03 4.22494E-02 0.00000E+00
 -1      1569-7.59497E-04 4.37821E-02 0.00000E+00
 -1      1570-1.16898E-03 4.52665E-02 0.00000E+00
 -1      1571-3.13467E-04 4.22682E-02 0.00000E+00
 -1      1572 1.57843E-04 4.38045E-02 0.00000E+00
 -1      1573-2.86859E-04 4.52827E-02 0.00000E+00
 -1      1574 6.42046E-04 4.22950E-02 0.00000E+00
 -1      1575 1.16360E-03 4.38361E-02 0.00000E+00
 -1      1576 6.79600E-04 4.53084E-02 0.00000E+00
 -1      1577 1.69100E-03 4.23320E-02 0.00000E+00
 -1      1578 2.26934E-03 4.38793E-02 0.00000E+00
 -1      1579 1.74061E-03 4.53468E-02 0.00000E+00
 -1      1580 2.84655E-03 4.23818E-02 0.00000E+00
 -1      1581 3.48920E-03 4.39364E-02 0.00000E+00
 -1      1582 2.90861E-03 4.54006E-02 0.00000E+00
 -1      1583 4.12479E-03 4.24465E-02 0.00000E+00
 -1      1584 4.83976E-03 4.40088E-02 0.00000E+00
 -1      1585 4.19833E-03 4.54716E-02 0.00000E+00
 -1      1586 5.54567E-03 4.25279E-02 0.00000E+00
 -1      1587 6.34108E-03 4.40971E-02 0.00000E+00
 -1      1588 5.62742E-03 4.55591E-02 0.00000E+00
 -1      1589 7.15156E-03 4.26268E-02 0.00000E+00
 -1      1590 8.04886E-03 4.42015E-02 0.00000E+00
 -1      1591 7.23315E-03 4.56602E-02 0.00000E+00
 -1      1592-6.54380E-03 4.08090E-02 0.00000E+00
 -1      1593-6.33676E-03 3.93821E-02 0.00000E+00
 -1      1594-6.16583E-03 4.08078E-02 0.00000E+00
 -1      1595-5.94062E-03 3.93793E-02 0.00000E+00
 -1      1596-5.75683E-03 4.08064E-02 0.00000E+00
 -1      1597-5.50944E-03 3.93760E-02 0.00000E+00
 -1      1598-5.30714E-03 4.08048E-02 0.00000E+00
 -1      1599-5.03816E-03 3.93725E-02 0.00000E+00
 -1      1600-4.81607E-03 4.08033E-02 0.00000E+00
 -1      1601-4.52481E-03 3.93692E-02 0.00000E+00
 -1      1602-4.28010E-03 4.08023E-02 0.00000E+00
 -1      1603-3.96583E-03 3.93665E-02 0.00000E+00
 -1      1604-3.69538E-03 4.08024E-02 0.00000E+00
 -1      1605-3.35733E-03 3.93651E-02 0.00000E+00
 -1      1606-3.05771E-03 4.08043E-02 0.00000E+00
 -1      1607-2.69492E-03 3.93660E-02 0.00000E+00
 -1      1608-2.36237E-03 4.08089E-02 0.00000E+00
 -1      1609-1.97363E-03 3.93703E-02 0.00000E+00
 -1      1610-1.60393E-03 4.08176E-02 0.00000E+00
 -1      1611-1.18758E-03 3.93797E-02 0.00000E+00
 -1      1612-7.76021E-04 4.08317E-02 0.00000E+00
 -1      1613-3.29725E-04 3.93959E-02 0.00000E+00
 -1      1614 1.29124E-04 4.08534E-02 0.00000E+00
 -1      1615 6.08692E-04 3.94213E-02 0.00000E+00
 -1      1616 1.12112E-03 4.08846E-02 0.00000E+00
 -1      1617 1.63873E-03 3.94587E-02 0.00000E+00
 -1      1618 2.21203E-03 4.09281E-02 0.00000E+00
 -1      1619 2.77452E-03 3.95110E-02 0.00000E+00
 -1      1620 3.41702E-03 4.09865E-02 0.00000E+00
 -1      1621 4.03410E-03 3.95811E-02 0.00000E+00
 -1      1622 4.75473E-03 4.10621E-02 0.00000E+00
 -1      1623 5.44162E-03 3.96709E-02 0.00000E+00
 -1      1624 6.24999E-03 4.11559E-02 0.00000E+00
 -1      1625 7.04877E-03 3.97809E-02 0.00000E+00
 -1      1626 7.97195E-03 4.12673E-02 0.00000E+00
 -1      1627-6.49769E-03 3.80801E-02 0.00000E+00
 -1      1628-6.25748E-03 3.67664E-02 0.00000E+00
 -1      1629-6.11490E-03 3.80754E-02 0.00000E+00
 -1      1630-5.85896E-03 3.67590E-02 0.00000E+00
 -1      1631-5.70242E-03 3.80701E-02 0.00000E+00
 -1      1632-5.42687E-03 3.67511E-02 0.00000E+00
 -1      1633-5.25085E-03 3.80645E-02 0.00000E+00
 -1      1634-4.95648E-03 3.67427E-02 0.00000E+00
 -1      1635-4.75987E-03 3.80587E-02 0.00000E+00
 -1      1636-4.44615E-03 3.67342E-02 0.00000E+00
 -1      1637-4.22623E-03 3.80532E-02 0.00000E+00
 -1      1638-3.89270E-03 3.67263E-02 0.00000E+00
 -1      1639-3.64639E-03 3.80487E-02 0.00000E+00
 -1      1640-3.29256E-03 3.67196E-02 0.00000E+00
 -1      1641-3.01638E-03 3.80458E-02 0.00000E+00
 -1      1642-2.64169E-03 3.67153E-02 0.00000E+00
 -1      1643-2.33166E-03 3.80458E-02 0.00000E+00
 -1      1644-1.93535E-03 3.67146E-02 0.00000E+00
 -1      1645-1.58694E-03 3.80501E-02 0.00000E+00
 -1      1646-1.16788E-03 3.67195E-02 0.00000E+00
 -1      1647-7.75857E-04 3.80607E-02 0.00000E+00
 -1      1648-3.32238E-04 3.67322E-02 0.00000E+00
 -1      1649 1.09445E-04 3.80798E-02 0.00000E+00
 -1      1650 5.80512E-04 3.67556E-02 0.00000E+00
 -1      1651 1.07895E-03 3.81102E-02 0.00000E+00
 -1      1652 1.58203E-03 3.67932E-02 0.00000E+00
 -1      1653 2.14554E-03 3.81553E-02 0.00000E+00
 -1      1654 2.68776E-03 3.68485E-02 0.00000E+00
 -1      1655 3.32603E-03 3.82182E-02 0.00000E+00
 -1      1656 3.91836E-03 3.69252E-02 0.00000E+00
 -1      1657 4.64239E-03 3.83019E-02 0.00000E+00
 -1      1658 5.30279E-03 3.70260E-02 0.00000E+00
 -1      1659 6.12595E-03 3.84074E-02 0.00000E+00
 -1      1660 6.90151E-03 3.71522E-02 0.00000E+00
 -1      1661 7.85898E-03 3.85346E-02 0.00000E+00
 -1      1662-6.38786E-03 3.55779E-02 0.00000E+00
 -1      1663-6.11375E-03 3.43798E-02 0.00000E+00
 -1      1664-6.00402E-03 3.55681E-02 0.00000E+00
 -1      1665-5.71693E-03 3.43669E-02 0.00000E+00
 -1      1666-5.59181E-03 3.55578E-02 0.00000E+00
 -1      1667-5.28809E-03 3.43532E-02 0.00000E+00
 -1      1668-5.14217E-03 3.55467E-02 0.00000E+00
 -1      1669-4.82281E-03 3.43388E-02 0.00000E+00
 -1      1670-4.65511E-03 3.55354E-02 0.00000E+00
 -1      1671-4.31984E-03 3.43243E-02 0.00000E+00
 -1      1672-4.12778E-03 3.55242E-02 0.00000E+00
 -1      1673-3.77642E-03 3.43101E-02 0.00000E+00
 -1      1674-3.55702E-03 3.55139E-02 0.00000E+00
 -1      1675-3.18940E-03 3.42973E-02 0.00000E+00
 -1      1676-2.93924E-03 3.55053E-02 0.00000E+00
 -1      1677-2.55518E-03 3.42868E-02 0.00000E+00
 -1      1678-2.27029E-03 3.54997E-02 0.00000E+00
 -1      1679-1.86944E-03 3.42803E-02 0.00000E+00
 -1      1680-1.54520E-03 3.54988E-02 0.00000E+00
 -1      1681-1.12688E-03 3.42799E-02 0.00000E+00
 -1      1682-7.57820E-04 3.55050E-02 0.00000E+00
 -1      1683-3.20682E-04 3.42884E-02 0.00000E+00
 -1      1684 9.97062E-05 3.55209E-02 0.00000E+00
 -1      1685 5.58135E-04 3.43092E-02 0.00000E+00
 -1      1686 1.03767E-03 3.55500E-02 0.00000E+00
 -1      1687 1.52174E-03 3.43463E-02 0.00000E+00
 -1      1688 2.06986E-03 3.55963E-02 0.00000E+00
 -1      1689 2.58687E-03 3.44044E-02 0.00000E+00
 -1      1690 3.21500E-03 3.56640E-02 0.00000E+00
 -1      1691 3.77679E-03 3.44882E-02 0.00000E+00
 -1      1692 4.49864E-03 3.57568E-02 0.00000E+00
 -1      1693 5.12515E-03 3.46016E-02 0.00000E+00
 -1      1694 5.95839E-03 3.58770E-02 0.00000E+00
 -1      1695 6.70010E-03 3.47474E-02 0.00000E+00
 -1      1696 7.68713E-03 3.60258E-02 0.00000E+00
 -1      1697-6.21186E-03 3.33075E-02 0.00000E+00
 -1      1698-5.90825E-03 3.22254E-02 0.00000E+00
 -1      1699-5.83098E-03 3.32920E-02 0.00000E+00
 -1      1700-5.51702E-03 3.22064E-02 0.00000E+00
 -1      1701-5.42314E-03 3.32757E-02 0.00000E+00
 -1      1702-5.09539E-03 3.21863E-02 0.00000E+00
 -1      1703-4.97965E-03 3.32585E-02 0.00000E+00
 -1      1704-4.63933E-03 3.21654E-02 0.00000E+00
 -1      1705-4.50086E-03 3.32408E-02 0.00000E+00
 -1      1706-4.14795E-03 3.21442E-02 0.00000E+00
 -1      1707-3.98430E-03 3.32231E-02 0.00000E+00
 -1      1708-3.61891E-03 3.21232E-02 0.00000E+00
 -1      1709-3.42726E-03 3.32061E-02 0.00000E+00
 -1      1710-3.04956E-03 3.21034E-02 0.00000E+00
 -1      1711-2.82663E-03 3.31910E-02 0.00000E+00
 -1      1712-2.43682E-03 3.20860E-02 0.00000E+00
 -1      1713-2.17875E-03 3.31790E-02 0.00000E+00
 -1      1714-1.77694E-03 3.20730E-02 0.00000E+00
 -1      1715-1.47911E-03 3.31722E-02 0.00000E+00
 -1      1716-1.06511E-03 3.20666E-02 0.00000E+00
 -1      1717-7.21950E-04 3.31731E-02 0.00000E+00
 -1      1718-2.94950E-04 3.20701E-02 0.00000E+00
 -1      1719 1.00371E-04 3.31851E-02 0.00000E+00
 -1      1720 5.42361E-04 3.20875E-02 0.00000E+00
 -1      1721 9.98283E-04 3.32122E-02 0.00000E+00
 -1      1722 1.45927E-03 3.21236E-02 0.00000E+00
 -1      1723 1.98632E-03 3.32593E-02 0.00000E+00
 -1      1724 2.47358E-03 3.21843E-02 0.00000E+00
 -1      1725 3.08495E-03 3.33317E-02 0.00000E+00
 -1      1726 3.61094E-03 3.22754E-02 0.00000E+00
 -1      1727 4.32314E-03 3.34345E-02 0.00000E+00
 -1      1728 4.90934E-03 3.24025E-02 0.00000E+00
 -1      1729 5.74438E-03 3.35713E-02 0.00000E+00
 -1      1730 6.44400E-03 3.25705E-02 0.00000E+00
 -1      1731 7.45090E-03 3.37457E-02 0.00000E+00
 -1      1732-5.97594E-03 3.12684E-02 0.00000E+00
 -1      1733-5.64950E-03 3.02993E-02 0.00000E+00
 -1      1734-5.60159E-03 3.12468E-02 0.00000E+00
 -1      1735-5.26710E-03 3.02741E-02 0.00000E+00
 -1      1736-5.20174E-03 3.12242E-02 0.00000E+00
 -1      1737-4.85597E-03 3.02475E-02 0.00000E+00
 -1      1738-4.76815E-03 3.12005E-02 0.00000E+00
 -1      1739-4.41247E-03 3.02198E-02 0.00000E+00
 -1      1740-4.30144E-03 3.11759E-02 0.00000E+00
 -1      1741-3.93609E-03 3.01915E-02 0.00000E+00
 -1      1742-3.79959E-03 3.11512E-02 0.00000E+00
 -1      1743-3.42496E-03 3.01632E-02 0.00000E+00
 -1      1744-3.26036E-03 3.11271E-02 0.00000E+00
 -1      1745-2.87697E-03 3.01360E-02 0.00000E+00
 -1      1746-2.68119E-03 3.11048E-02 0.00000E+00
 -1      1747-2.28968E-03 3.01113E-02 0.00000E+00
 -1      1748-2.05900E-03 3.10858E-02 0.00000E+00
 -1      1749-1.66000E-03 3.00912E-02 0.00000E+00
 -1      1750-1.38991E-03 3.10724E-02 0.00000E+00
 -1      1751-9.83815E-04 3.00782E-02 0.00000E+00
 -1      1752-6.68723E-04 3.10674E-02 0.00000E+00
 -1      1753-2.55352E-04 3.00762E-02 0.00000E+00
 -1      1754 1.11781E-04 3.10748E-02 0.00000E+00
 -1      1755 5.33813E-04 3.00897E-02 0.00000E+00
 -1      1756 9.61931E-04 3.10994E-02 0.00000E+00
 -1      1757 1.39617E-03 3.01246E-02 0.00000E+00
 -1      1758 1.89675E-03 3.11469E-02 0.00000E+00
 -1      1759 2.35033E-03 3.01877E-02 0.00000E+00
 -1      1760 2.93820E-03 3.12240E-02 0.00000E+00
 -1      1761 3.42397E-03 3.02865E-02 0.00000E+00
 -1      1762 4.11834E-03 3.13373E-02 0.00000E+00
 -1      1763 4.65908E-03 3.04281E-02 0.00000E+00
 -1      1764 5.48613E-03 3.14921E-02 0.00000E+00
 -1      1765 6.13738E-03 3.06201E-02 0.00000E+00
 -1      1766 7.15252E-03 3.16951E-02 0.00000E+00
 -1      1767-5.69061E-03 2.94534E-02 0.00000E+00
 -1      1768-5.34874E-03 2.85914E-02 0.00000E+00
 -1      1769-5.32561E-03 2.94258E-02 0.00000E+00
 -1      1770-4.97751E-03 2.85600E-02 0.00000E+00
 -1      1771-4.93658E-03 2.93969E-02 0.00000E+00
 -1      1772-4.57919E-03 2.85269E-02 0.00000E+00
 -1      1773-4.51574E-03 2.93664E-02 0.00000E+00
 -1      1774-4.15059E-03 2.84924E-02 0.00000E+00
 -1      1775-4.06401E-03 2.93349E-02 0.00000E+00
 -1      1776-3.69156E-03 2.84570E-02 0.00000E+00
 -1      1777-3.57982E-03 2.93030E-02 0.00000E+00
 -1      1778-3.20076E-03 2.84213E-02 0.00000E+00
 -1      1779-3.06147E-03 2.92714E-02 0.00000E+00
 -1      1780-2.67674E-03 2.83865E-02 0.00000E+00
 -1      1781-2.50704E-03 2.92415E-02 0.00000E+00
 -1      1782-2.11777E-03 2.83542E-02 0.00000E+00
 -1      1783-1.91416E-03 2.92151E-02 0.00000E+00
 -1      1784-1.52160E-03 2.83266E-02 0.00000E+00
 -1      1785-1.27972E-03 2.91945E-02 0.00000E+00
 -1      1786-8.84969E-04 2.83069E-02 0.00000E+00
 -1      1787-5.99260E-04 2.91833E-02 0.00000E+00
 -1      1788-2.02867E-04 2.82992E-02 0.00000E+00
 -1      1789 1.33814E-04 2.91858E-02 0.00000E+00
 -1      1790 5.32565E-04 2.83090E-02 0.00000E+00
 -1      1791 9.29527E-04 2.92077E-02 0.00000E+00
 -1      1792 1.33367E-03 2.83430E-02 0.00000E+00
 -1      1793 1.80315E-03 2.92557E-02 0.00000E+00
 -1      1794 2.21964E-03 2.84090E-02 0.00000E+00
 -1      1795 2.77785E-03 2.93378E-02 0.00000E+00
 -1      1796 3.21983E-03 2.85161E-02 0.00000E+00
 -1      1797 3.88838E-03 2.94622E-02 0.00000E+00
 -1      1798 4.37974E-03 2.86732E-02 0.00000E+00
 -1      1799 5.18878E-03 2.96363E-02 0.00000E+00
 -1      1800 5.78691E-03 2.88904E-02 0.00000E+00
 -1      1801 6.79805E-03 2.98697E-02 0.00000E+00
 -1      1802-5.36814E-03 2.78496E-02 0.00000E+00
 -1      1803-5.01795E-03 2.70862E-02 0.00000E+00
 -1      1804-5.01439E-03 2.78160E-02 0.00000E+00
 -1      1805-4.65921E-03 2.70489E-02 0.00000E+00
 -1      1806-4.63800E-03 2.77809E-02 0.00000E+00
 -1      1807-4.27496E-03 2.70096E-02 0.00000E+00
 -1      1808-4.23169E-03 2.77439E-02 0.00000E+00
 -1      1809-3.86243E-03 2.69685E-02 0.00000E+00
 -1      1810-3.79671E-03 2.77055E-02 0.00000E+00
 -1      1811-3.42195E-03 2.69260E-02 0.00000E+00
 -1      1812-3.33200E-03 2.76663E-02 0.00000E+00
 -1      1813-2.95279E-03 2.68830E-02 0.00000E+00
 -1      1814-2.83649E-03 2.76272E-02 0.00000E+00
 -1      1815-2.45426E-03 2.68406E-02 0.00000E+00
 -1      1816-2.30899E-03 2.75897E-02 0.00000E+00
 -1      1817-1.92552E-03 2.68007E-02 0.00000E+00
 -1      1818-1.74801E-03 2.75556E-02 0.00000E+00
 -1      1819-1.36529E-03 2.67658E-02 0.00000E+00
 -1      1820-1.15134E-03 2.75280E-02 0.00000E+00
 -1      1821-7.71265E-04 2.67397E-02 0.00000E+00
 -1      1822-5.15428E-04 2.75106E-02 0.00000E+00
 -1      1823-1.39318E-04 2.67271E-02 0.00000E+00
 -1      1824 1.65595E-04 2.75086E-02 0.00000E+00
 -1      1825 5.37803E-04 2.67341E-02 0.00000E+00
 -1      1826 9.01317E-04 2.75284E-02 0.00000E+00
 -1      1827 1.27225E-03 2.67685E-02 0.00000E+00
 -1      1828 1.70711E-03 2.75778E-02 0.00000E+00
 -1      1829 2.08360E-03 2.68390E-02 0.00000E+00
 -1      1830 2.60707E-03 2.76659E-02 0.00000E+00
 -1      1831 3.00258E-03 2.69556E-02 0.00000E+00
 -1      1832 3.63821E-03 2.78022E-02 0.00000E+00
 -1      1833 4.07748E-03 2.71289E-02 0.00000E+00
 -1      1834 4.85896E-03 2.79964E-02 0.00000E+00
 -1      1835 5.40060E-03 2.73721E-02 0.00000E+00
 -1      1836 6.39551E-03 2.82615E-02 0.00000E+00
 -1      1837-5.02089E-03 2.64393E-02 0.00000E+00
 -1      1838-4.66859E-03 2.57646E-02 0.00000E+00
 -1      1839-4.67925E-03 2.64003E-02 0.00000E+00
 -1      1840-4.32258E-03 2.57219E-02 0.00000E+00
 -1      1841-4.31625E-03 2.63593E-02 0.00000E+00
 -1      1842-3.95251E-03 2.56768E-02 0.00000E+00
 -1      1843-3.92513E-03 2.63160E-02 0.00000E+00
 -1      1844-3.55613E-03 2.56292E-02 0.00000E+00
 -1      1845-3.50755E-03 2.62709E-02 0.00000E+00
 -1      1846-3.13432E-03 2.55799E-02 0.00000E+00
 -1      1847-3.06303E-03 2.62246E-02 0.00000E+00
 -1      1848-2.68711E-03 2.55297E-02 0.00000E+00
 -1      1849-2.59126E-03 2.61780E-02 0.00000E+00
 -1      1850-2.21474E-03 2.54799E-02 0.00000E+00
 -1      1851-2.09197E-03 2.61329E-02 0.00000E+00
 -1      1852-1.71743E-03 2.54327E-02 0.00000E+00
 -1      1853-1.56466E-03 2.60916E-02 0.00000E+00
 -1      1854-1.19497E-03 2.53913E-02 0.00000E+00
 -1      1855-1.00818E-03 2.60574E-02 0.00000E+00
 -1      1856-6.46108E-04 2.53599E-02 0.00000E+00
 -1      1857-4.19910E-04 2.60348E-02 0.00000E+00
 -1      1858-6.74932E-05 2.53442E-02 0.00000E+00
 -1      1859 2.05270E-04 2.60297E-02 0.00000E+00
 -1      1860 5.47636E-04 2.53508E-02 0.00000E+00
 -1      1861 8.76562E-04 2.60492E-02 0.00000E+00
 -1      1862 1.21134E-03 2.53881E-02 0.00000E+00
 -1      1863 1.60942E-03 2.61020E-02 0.00000E+00
 -1      1864 1.94356E-03 2.54655E-02 0.00000E+00
 -1      1865 2.42863E-03 2.61977E-02 0.00000E+00
 -1      1866 2.77593E-03 2.55937E-02 0.00000E+00
 -1      1867 3.37291E-03 2.63474E-02 0.00000E+00
 -1      1868 3.75863E-03 2.57845E-02 0.00000E+00
 -1      1869 4.50407E-03 2.65624E-02 0.00000E+00
 -1      1870 4.98712E-03 2.60539E-02 0.00000E+00
 -1      1871 5.95397E-03 2.68598E-02 0.00000E+00
 -1      1872-4.66028E-03 2.52022E-02 0.00000E+00
 -1      1873-4.31077E-03 2.46054E-02 0.00000E+00
 -1      1874-4.33057E-03 2.51582E-02 0.00000E+00
 -1      1875-3.97666E-03 2.45577E-02 0.00000E+00
 -1      1876-3.98059E-03 2.51118E-02 0.00000E+00
 -1      1877-3.61979E-03 2.45071E-02 0.00000E+00
 -1      1878-3.60421E-03 2.50625E-02 0.00000E+00
 -1      1879-3.23856E-03 2.44534E-02 0.00000E+00
 -1      1880-3.20358E-03 2.50109E-02 0.00000E+00
 -1      1881-2.83459E-03 2.43975E-02 0.00000E+00
 -1      1882-2.77899E-03 2.49577E-02 0.00000E+00
 -1      1883-2.40889E-03 2.43403E-02 0.00000E+00
 -1      1884-2.33107E-03 2.49039E-02 0.00000E+00
 -1      1885-1.96285E-03 2.42835E-02 0.00000E+00
 -1      1886-1.86065E-03 2.48517E-02 0.00000E+00
 -1      1887-1.49790E-03 2.42300E-02 0.00000E+00
 -1      1888-1.36839E-03 2.48039E-02 0.00000E+00
 -1      1889-1.01496E-03 2.41835E-02 0.00000E+00
 -1      1890-8.54174E-04 2.47644E-02 0.00000E+00
 -1      1891-5.13661E-04 2.41492E-02 0.00000E+00
 -1      1892-3.16270E-04 2.47386E-02 0.00000E+00
 -1      1893 8.82076E-06 2.41333E-02 0.00000E+00
 -1      1894 2.49920E-04 2.47331E-02 0.00000E+00
 -1      1895 5.59113E-04 2.41433E-02 0.00000E+00
 -1      1896 8.53438E-04 2.47555E-02 0.00000E+00
 -1      1897 1.14945E-03 2.41876E-02 0.00000E+00
 -1      1898 1.50992E-03 2.48149E-02 0.00000E+00
 -1      1899 1.80010E-03 2.42755E-02 0.00000E+00
 -1      1900 2.24466E-03 2.49212E-02 0.00000E+00
 -1      1901 2.54311E-03 2.44178E-02 0.00000E+00
 -1      1902 3.09732E-03 2.50860E-02 0.00000E+00
 -1      1903 3.42937E-03 2.46273E-02 0.00000E+00
 -1      1904 4.13173E-03 2.53223E-02 0.00000E+00
 -1      1905 4.55540E-03 2.49227E-02 0.00000E+00
 -1      1906 5.48314E-03 2.56519E-02 0.00000E+00
 -1      1907-4.29615E-03 2.41163E-02 0.00000E+00
 -1      1908-3.95287E-03 2.35860E-02 0.00000E+00
 -1      1909-3.97709E-03 2.40678E-02 0.00000E+00
 -1      1910-3.62871E-03 2.35338E-02 0.00000E+00
 -1      1911-3.63869E-03 2.40164E-02 0.00000E+00
 -1      1912-3.28299E-03 2.34780E-02 0.00000E+00
 -1      1913-3.27554E-03 2.39615E-02 0.00000E+00
 -1      1914-2.91499E-03 2.34185E-02 0.00000E+00
 -1      1915-2.89049E-03 2.39036E-02 0.00000E+00
 -1      1916-2.52733E-03 2.33561E-02 0.00000E+00
 -1      1917-2.48485E-03 2.38436E-02 0.00000E+00
 -1      1918-2.12234E-03 2.32923E-02 0.00000E+00
 -1      1919-2.06046E-03 2.37831E-02 0.00000E+00
 -1      1920-1.70278E-03 2.32294E-02 0.00000E+00
 -1      1921-1.61943E-03 2.37246E-02 0.00000E+00
 -1      1922-1.27137E-03 2.31711E-02 0.00000E+00
 -1      1923-1.16363E-03 2.36718E-02 0.00000E+00
 -1      1924-8.30031E-04 2.31222E-02 0.00000E+00
 -1      1925-6.93878E-04 2.36295E-02 0.00000E+00
 -1      1926-3.78872E-04 2.30886E-02 0.00000E+00
 -1      1927-2.08961E-04 2.36040E-02 0.00000E+00
 -1      1928 8.49512E-05 2.30774E-02 0.00000E+00
 -1      1929 2.95639E-04 2.36023E-02 0.00000E+00
 -1      1930 5.68481E-04 2.30959E-02 0.00000E+00
 -1      1931 8.29215E-04 2.36322E-02 0.00000E+00
 -1      1932 1.08444E-03 2.31522E-02 0.00000E+00
 -1      1933 1.40775E-03 2.37025E-02 0.00000E+00
 -1      1934 1.65334E-03 2.32550E-02 0.00000E+00
 -1      1935 2.05674E-03 2.38229E-02 0.00000E+00
 -1      1936 2.30695E-03 2.34144E-02 0.00000E+00
 -1      1937 2.81592E-03 2.40049E-02 0.00000E+00
 -1      1938 3.09552E-03 2.36435E-02 0.00000E+00
 -1      1939 3.74940E-03 2.42629E-02 0.00000E+00
 -1      1940 4.11421E-03 2.39642E-02 0.00000E+00
 -1      1941 4.99295E-03 2.46236E-02 0.00000E+00
 -1      1942-3.93652E-03 2.31588E-02 0.00000E+00
 -1      1943-3.60138E-03 2.26838E-02 0.00000E+00
 -1      1944-3.62574E-03 2.31064E-02 0.00000E+00
 -1      1945-3.28409E-03 2.26275E-02 0.00000E+00
 -1      1946-3.29638E-03 2.30504E-02 0.00000E+00
 -1      1947-2.94646E-03 2.25668E-02 0.00000E+00
 -1      1948-2.94396E-03 2.29900E-02 0.00000E+00
 -1      1949-2.58896E-03 2.25015E-02 0.00000E+00
 -1      1950-2.57239E-03 2.29260E-02 0.00000E+00
 -1      1951-2.21573E-03 2.24329E-02 0.00000E+00
 -1      1952-2.18436E-03 2.28596E-02 0.00000E+00
 -1      1953-1.83075E-03 2.23631E-02 0.00000E+00
 -1      1954-1.78323E-03 2.27930E-02 0.00000E+00
 -1      1955-1.43838E-03 2.22955E-02 0.00000E+00
 -1      1956-1.37253E-03 2.27297E-02 0.00000E+00
 -1      1957-1.04252E-03 2.22350E-02 0.00000E+00
 -1      1958-9.55190E-04 2.26746E-02 0.00000E+00
 -1      1959-6.45600E-04 2.21877E-02 0.00000E+00
 -1      1960-5.32544E-04 2.26335E-02 0.00000E+00
 -1      1961-2.47444E-04 2.21604E-02 0.00000E+00
 -1      1962-1.03243E-04 2.26133E-02 0.00000E+00
 -1      1963 1.55631E-04 2.21602E-02 0.00000E+00
 -1      1964 3.37828E-04 2.26211E-02 0.00000E+00
 -1      1965 5.71678E-04 2.21937E-02 0.00000E+00
 -1      1966 8.00677E-04 2.26643E-02 0.00000E+00
 -1      1967 1.01410E-03 2.22679E-02 0.00000E+00
 -1      1968 1.30170E-03 2.27507E-02 0.00000E+00
 -1      1969 1.50333E-03 2.23900E-02 0.00000E+00
 -1      1970 1.86617E-03 2.28889E-02 0.00000E+00
 -1      1971 2.07007E-03 2.25691E-02 0.00000E+00
 -1      1972 2.53280E-03 2.30899E-02 0.00000E+00
 -1      1973 2.76244E-03 2.28185E-02 0.00000E+00
 -1      1974 3.36417E-03 2.33695E-02 0.00000E+00
 -1      1975 3.67181E-03 2.31631E-02 0.00000E+00
 -1      1976 4.49323E-03 2.37596E-02 0.00000E+00
 -1      1977-3.58757E-03 2.23074E-02 0.00000E+00
 -1      1978-3.26092E-03 2.18766E-02 0.00000E+00
 -1      1979-3.28150E-03 2.22515E-02 0.00000E+00
 -1      1980-2.94621E-03 2.18165E-02 0.00000E+00
 -1      1981-2.95753E-03 2.21911E-02 0.00000E+00
 -1      1982-2.61258E-03 2.17508E-02 0.00000E+00
 -1      1983-2.61247E-03 2.21253E-02 0.00000E+00
 -1      1984-2.26234E-03 2.16797E-02 0.00000E+00
 -1      1985-2.25185E-03 2.20553E-02 0.00000E+00
 -1      1986-1.90174E-03 2.16051E-02 0.00000E+00
 -1      1987-1.88022E-03 2.19829E-02 0.00000E+00
 -1      1988-1.53688E-03 2.15304E-02 0.00000E+00
 -1      1989-1.50276E-03 2.19115E-02 0.00000E+00
 -1      1990-1.17371E-03 2.14607E-02 0.00000E+00
 -1      1991-1.12436E-03 2.18461E-02 0.00000E+00
 -1      1992-8.16750E-04 2.14025E-02 0.00000E+00
 -1      1993-7.48509E-04 2.17928E-02 0.00000E+00
 -1      1994-4.67910E-04 2.13631E-02 0.00000E+00
 -1      1995-3.76178E-04 2.17587E-02 0.00000E+00
 -1      1996-1.25629E-04 2.13495E-02 0.00000E+00
 -1      1997-4.92690E-06 2.17506E-02 0.00000E+00
 -1      1998 2.15510E-04 2.13679E-02 0.00000E+00
 -1      1999 3.71697E-04 2.17751E-02 0.00000E+00
 -1      2000 5.64968E-04 2.14236E-02 0.00000E+00
 -1      2001 7.64731E-04 2.18381E-02 0.00000E+00
 -1      2002 9.36691E-04 2.15213E-02 0.00000E+00
 -1      2003 1.19079E-03 2.19456E-02 0.00000E+00
 -1      2004 1.35046E-03 2.16665E-02 0.00000E+00
 -1      2005 1.67425E-03 2.21049E-02 0.00000E+00
 -1      2006 1.83498E-03 2.18673E-02 0.00000E+00
 -1      2007 2.25172E-03 2.23264E-02 0.00000E+00
 -1      2008 2.43492E-03 2.21369E-02 0.00000E+00
 -1      2009 2.98244E-03 2.26269E-02 0.00000E+00
 -1      2010 3.23561E-03 2.25034E-02 0.00000E+00
 -1      2011 3.99326E-03 2.30439E-02 0.00000E+00
 -1      2012-3.25376E-03 2.15401E-02 0.00000E+00
 -1      2013-2.93439E-03 2.11427E-02 0.00000E+00
 -1      2014-2.94748E-03 2.14811E-02 0.00000E+00
 -1      2015-2.61654E-03 2.10789E-02 0.00000E+00
 -1      2016-2.62406E-03 2.14163E-02 0.00000E+00
 -1      2017-2.28185E-03 2.10079E-02 0.00000E+00
 -1      2018-2.28226E-03 2.13449E-02 0.00000E+00
 -1      2019-1.93542E-03 2.09308E-02 0.00000E+00
 -1      2020-1.93003E-03 2.12688E-02 0.00000E+00
 -1      2021-1.58652E-03 2.08508E-02 0.00000E+00
 -1      2022-1.57442E-03 2.11913E-02 0.00000E+00
 -1      2023-1.24362E-03 2.07734E-02 0.00000E+00
 -1      2024-1.22254E-03 2.11175E-02 0.00000E+00
 -1      2025-9.13686E-04 2.07062E-02 0.00000E+00
 -1      2026-8.80085E-04 2.10545E-02 0.00000E+00
 -1      2027-6.00535E-04 2.06574E-02 0.00000E+00
 -1      2028-5.49954E-04 2.10097E-02 0.00000E+00
 -1      2029-3.03971E-04 2.06345E-02 0.00000E+00
 -1      2030-2.31420E-04 2.09904E-02 0.00000E+00
 -1      2031-1.97567E-05 2.06438E-02 0.00000E+00
 -1      2032 8.01111E-05 2.10029E-02 0.00000E+00
 -1      2033 2.59854E-04 2.06894E-02 0.00000E+00
 -1      2034 3.92941E-04 2.10518E-02 0.00000E+00
 -1      2035 5.45621E-04 2.07739E-02 0.00000E+00
 -1      2036 7.19034E-04 2.11408E-02 0.00000E+00
 -1      2037 8.51452E-04 2.08997E-02 0.00000E+00
 -1      2038 1.07469E-03 2.12738E-02 0.00000E+00
 -1      2039 1.19569E-03 2.10707E-02 0.00000E+00
 -1      2040 1.48257E-03 2.14566E-02 0.00000E+00
 -1      2041 1.60417E-03 2.12937E-02 0.00000E+00
 -1      2042 1.97612E-03 2.16990E-02 0.00000E+00
 -1      2043 2.11705E-03 2.15828E-02 0.00000E+00
 -1      2044 2.60976E-03 2.20191E-02 0.00000E+00
 -1      2045 2.81186E-03 2.19687E-02 0.00000E+00
 -1      2046 3.50132E-03 2.24600E-02 0.00000E+00
 -1      2047-2.93806E-03 2.08354E-02 0.00000E+00
 -1      2048-2.62308E-03 2.04608E-02 0.00000E+00
 -1      2049-2.62497E-03 2.07736E-02 0.00000E+00
 -1      2050-2.29459E-03 2.03930E-02 0.00000E+00
 -1      2051-2.29591E-03 2.07041E-02 0.00000E+00
 -1      2052-1.95280E-03 2.03162E-02 0.00000E+00
 -1      2053-1.95276E-03 2.06268E-02 0.00000E+00
 -1      2054-1.60728E-03 2.02329E-02 0.00000E+00
 -1      2055-1.60710E-03 2.05449E-02 0.00000E+00
 -1      2056-1.27120E-03 2.01490E-02 0.00000E+00
 -1      2057-1.26903E-03 2.04641E-02 0.00000E+00
 -1      2058-9.55010E-04 2.00737E-02 0.00000E+00
 -1      2059-9.47082E-04 2.03925E-02 0.00000E+00
 -1      2060-6.64920E-04 2.00168E-02 0.00000E+00
 -1      2061-6.46234E-04 2.03391E-02 0.00000E+00
 -1      2062-4.01709E-04 1.99877E-02 0.00000E+00
 -1      2063-3.66909E-04 2.03122E-02 0.00000E+00
 -1      2064-1.61148E-04 1.99927E-02 0.00000E+00
 -1      2065-1.05107E-04 2.03181E-02 0.00000E+00
 -1      2066 6.45574E-05 2.00351E-02 0.00000E+00
 -1      2067 1.46665E-04 2.03604E-02 0.00000E+00
 -1      2068 2.85319E-04 2.01157E-02 0.00000E+00
 -1      2069 3.98450E-04 2.04410E-02 0.00000E+00
 -1      2070 5.12420E-04 2.02344E-02 0.00000E+00
 -1      2071 6.62496E-04 2.05610E-02 0.00000E+00
 -1      2072 7.58806E-04 2.03912E-02 0.00000E+00
 -1      2073 9.53949E-04 2.07223E-02 0.00000E+00
 -1      2074 1.04056E-03 2.05886E-02 0.00000E+00
 -1      2075 1.29296E-03 2.09293E-02 0.00000E+00
 -1      2076 1.38003E-03 2.08334E-02 0.00000E+00
 -1      2077 1.70904E-03 2.11920E-02 0.00000E+00
 -1      2078 1.81218E-03 2.11402E-02 0.00000E+00
 -1      2079 2.25067E-03 2.15300E-02 0.00000E+00
 -1      2080 2.40554E-03 2.15431E-02 0.00000E+00
 -1      2081 3.02443E-03 2.19915E-02 0.00000E+00
 -1      2082-2.64225E-03 2.01723E-02 0.00000E+00
 -1      2083-2.32675E-03 1.98092E-02 0.00000E+00
 -1      2084-2.31339E-03 2.01075E-02 0.00000E+00
 -1      2085-1.97763E-03 1.97368E-02 0.00000E+00
 -1      2086-1.97093E-03 2.00327E-02 0.00000E+00
 -1      2087-1.62208E-03 1.96532E-02 0.00000E+00
 -1      2088-1.62184E-03 1.99487E-02 0.00000E+00
 -1      2089-1.27645E-03 1.95640E-02 0.00000E+00
 -1      2090-1.28298E-03 1.98620E-02 0.00000E+00
 -1      2091-9.58240E-04 1.94806E-02 0.00000E+00
 -1      2092-9.67341E-04 1.97824E-02 0.00000E+00
 -1      2093-6.77614E-04 1.94161E-02 0.00000E+00
 -1      2094-6.82922E-04 1.97213E-02 0.00000E+00
 -1      2095-4.36376E-04 1.93825E-02 0.00000E+00
 -1      2096-4.31121E-04 1.96891E-02 0.00000E+00
 -1      2097-2.29118E-04 1.93873E-02 0.00000E+00
 -1      2098-2.07416E-04 1.96926E-02 0.00000E+00
 -1      2099-4.62078E-05 1.94329E-02 0.00000E+00
 -1      2100-3.42002E-06 1.97349E-02 0.00000E+00
 -1      2101 1.23396E-04 1.95181E-02 0.00000E+00
 -1      2102 1.91066E-04 1.98158E-02 0.00000E+00
 -1      2103 2.90582E-04 1.96400E-02 0.00000E+00
 -1      2104 3.86885E-04 1.99339E-02 0.00000E+00
 -1      2105 4.65873E-04 1.97955E-02 0.00000E+00
 -1      2106 5.95492E-04 2.00878E-02 0.00000E+00
 -1      2107 6.60280E-04 1.99838E-02 0.00000E+00
 -1      2108 8.30013E-04 2.02781E-02 0.00000E+00
 -1      2109 8.87065E-04 2.02067E-02 0.00000E+00
 -1      2110 1.10750E-03 2.05087E-02 0.00000E+00
 -1      2111 1.16474E-03 2.04714E-02 0.00000E+00
 -1      2112 1.45306E-03 2.07901E-02 0.00000E+00
 -1      2113 1.52285E-03 2.07938E-02 0.00000E+00
 -1      2114 1.90867E-03 2.11436E-02 0.00000E+00
 -1      2115 2.02029E-03 2.12107E-02 0.00000E+00
 -1      2116 2.56805E-03 2.16223E-02 0.00000E+00
 -1      2117-2.36713E-03 1.95284E-02 0.00000E+00
 -1      2118-2.04340E-03 1.91646E-02 0.00000E+00
 -1      2119-2.01009E-03 1.94604E-02 0.00000E+00
 -1      2120-1.66022E-03 1.90860E-02 0.00000E+00
 -1      2121-1.64457E-03 1.93788E-02 0.00000E+00
 -1      2122-1.28453E-03 1.89943E-02 0.00000E+00
 -1      2123-1.28631E-03 1.92878E-02 0.00000E+00
 -1      2124-9.42501E-04 1.89022E-02 0.00000E+00
 -1      2125-9.58802E-04 1.91999E-02 0.00000E+00
 -1      2126-6.53738E-04 1.88290E-02 0.00000E+00
 -1      2127-6.75663E-04 1.91308E-02 0.00000E+00
 -1      2128-4.22086E-04 1.87919E-02 0.00000E+00
 -1      2129-4.39731E-04 1.90946E-02 0.00000E+00
 -1      2130-2.39303E-04 1.88005E-02 0.00000E+00
 -1      2131-2.44652E-04 1.90997E-02 0.00000E+00
 -1      2132-9.13887E-05 1.88562E-02 0.00000E+00
 -1      2133-7.91096E-05 1.91483E-02 0.00000E+00
 -1      2134 3.60819E-05 1.89548E-02 0.00000E+00
 -1      2135 6.92823E-05 1.92379E-02 0.00000E+00
 -1      2136 1.55427E-04 1.90898E-02 0.00000E+00
 -1      2137 2.11924E-04 1.93641E-02 0.00000E+00
 -1      2138 2.76588E-04 1.92555E-02 0.00000E+00
 -1      2139 3.58899E-04 1.95225E-02 0.00000E+00
 -1      2140 4.08032E-04 1.94478E-02 0.00000E+00
 -1      2141 5.19744E-04 1.97105E-02 0.00000E+00
 -1      2142 5.58189E-04 1.96656E-02 0.00000E+00
 -1      2143 7.04949E-04 1.99284E-02 0.00000E+00
 -1      2144 7.37305E-04 1.99115E-02 0.00000E+00
 -1      2145 9.28222E-04 2.01806E-02 0.00000E+00
 -1      2146 9.60121E-04 2.01935E-02 0.00000E+00
 -1      2147 1.21020E-03 2.04784E-02 0.00000E+00
 -1      2148 1.25080E-03 2.05290E-02 0.00000E+00
 -1      2149 1.58617E-03 2.08449E-02 0.00000E+00
 -1      2150 1.65850E-03 2.09571E-02 0.00000E+00
 -1      2151 2.13618E-03 2.13374E-02 0.00000E+00
 -1      2152-2.11290E-03 1.88788E-02 0.00000E+00
 -1      2153-1.76858E-03 1.84985E-02 0.00000E+00
 -1      2154-1.70943E-03 1.88065E-02 0.00000E+00
 -1      2155-1.33282E-03 1.84114E-02 0.00000E+00
 -1      2156-1.30956E-03 1.87159E-02 0.00000E+00
 -1      2157-9.34087E-04 1.83113E-02 0.00000E+00
 -1      2158-9.43264E-04 1.86193E-02 0.00000E+00
 -1      2159-6.09528E-04 1.82263E-02 0.00000E+00
 -1      2160-6.39791E-04 1.85402E-02 0.00000E+00
 -1      2161-3.70732E-04 1.81850E-02 0.00000E+00
 -1      2162-4.05621E-04 1.85002E-02 0.00000E+00
 -1      2163-2.03818E-04 1.82022E-02 0.00000E+00
 -1      2164-2.30544E-04 1.85111E-02 0.00000E+00
 -1      2165-8.56029E-05 1.82769E-02 0.00000E+00
 -1      2166-9.69352E-05 1.85737E-02 0.00000E+00
 -1      2167 5.22561E-06 1.84000E-02 0.00000E+00
 -1      2168 1.25096E-05 1.86815E-02 0.00000E+00
 -1      2169 8.43431E-05 1.85599E-02 0.00000E+00
 -1      2170 1.11578E-04 1.88263E-02 0.00000E+00
 -1      2171 1.62294E-04 1.87472E-02 0.00000E+00
 -1      2172 2.10455E-04 1.90004E-02 0.00000E+00
 -1      2173 2.46286E-04 1.89554E-02 0.00000E+00
 -1      2174 3.16927E-04 1.91985E-02 0.00000E+00
 -1      2175 3.42001E-04 1.91813E-02 0.00000E+00
 -1      2176 4.37909E-04 1.94182E-02 0.00000E+00
 -1      2177 4.55185E-04 1.94249E-02 0.00000E+00
 -1      2178 5.81094E-04 1.96606E-02 0.00000E+00
 -1      2179 5.93265E-04 1.96901E-02 0.00000E+00
 -1      2180 7.56968E-04 1.99313E-02 0.00000E+00
 -1      2181 7.67522E-04 1.99863E-02 0.00000E+00
 -1      2182 9.81918E-04 2.02427E-02 0.00000E+00
 -1      2183 9.97060E-04 2.03321E-02 0.00000E+00
 -1      2184 1.28466E-03 2.06197E-02 0.00000E+00
 -1      2185 1.32146E-03 2.07690E-02 0.00000E+00
 -1      2186 1.73134E-03 2.11230E-02 0.00000E+00
 -1      2187-1.87883E-03 1.81916E-02 0.00000E+00
 -1      2188-1.49362E-03 1.77734E-02 0.00000E+00
 -1      2189-1.40090E-03 1.81125E-02 0.00000E+00
 -1      2190-9.80454E-04 1.76714E-02 0.00000E+00
 -1      2191-9.55182E-04 1.80103E-02 0.00000E+00
 -1      2192-5.68282E-04 1.75700E-02 0.00000E+00
 -1      2193-5.94154E-04 1.79169E-02 0.00000E+00
 -1      2194-2.93296E-04 1.75210E-02 0.00000E+00
 -1      2195-3.40098E-04 1.78714E-02 0.00000E+00
 -1      2196-1.32147E-04 1.75535E-02 0.00000E+00
 -1      2197-1.75771E-04 1.78936E-02 0.00000E+00
 -1      2198-4.08155E-05 1.76620E-02 0.00000E+00
 -1      2199-6.99500E-05 1.79810E-02 0.00000E+00
 -1      2200 1.57949E-05 1.78263E-02 0.00000E+00
 -1      2201 4.49338E-06 1.81204E-02 0.00000E+00
 -1      2202 5.92319E-05 1.80269E-02 0.00000E+00
 -1      2203 6.59084E-05 1.82971E-02 0.00000E+00
 -1      2204 1.01282E-04 1.82497E-02 0.00000E+00
 -1      2205 1.25522E-04 1.84993E-02 0.00000E+00
 -1      2206 1.48262E-04 1.84861E-02 0.00000E+00
 -1      2207 1.90179E-04 1.87193E-02 0.00000E+00
 -1      2208 2.03938E-04 1.87317E-02 0.00000E+00
 -1      2209 2.64602E-04 1.89530E-02 0.00000E+00
 -1      2210 2.71308E-04 1.89857E-02 0.00000E+00
 -1      2211 3.53051E-04 1.91999E-02 0.00000E+00
 -1      2212 3.53833E-04 1.92501E-02 0.00000E+00
 -1      2213 4.60701E-04 1.94626E-02 0.00000E+00
 -1      2214 4.56581E-04 1.95305E-02 0.00000E+00
 -1      2215 5.95195E-04 1.97482E-02 0.00000E+00
 -1      2216 5.87811E-04 1.98376E-02 0.00000E+00
 -1      2217 7.69058E-04 2.00703E-02 0.00000E+00
 -1      2218 7.61984E-04 2.01912E-02 0.00000E+00
 -1      2219 1.00477E-03 2.04552E-02 0.00000E+00
 -1      2220 1.00955E-03 2.06345E-02 0.00000E+00
 -1      2221 1.35484E-03 2.09667E-02 0.00000E+00
 -1      2222-1.66655E-03 1.74185E-02 0.00000E+00
 -1      2223-1.19769E-03 1.69163E-02 0.00000E+00
 -1      2224-1.06549E-03 1.73282E-02 0.00000E+00
 -1      2225-5.78805E-04 1.68036E-02 0.00000E+00
 -1      2226-5.72469E-04 1.72157E-02 0.00000E+00
 -1      2227-2.02779E-04 1.67345E-02 0.00000E+00
 -1      2228-2.54348E-04 1.71581E-02 0.00000E+00
 -1      2229-3.17796E-05 1.67942E-02 0.00000E+00
 -1      2230-8.86467E-05 1.72001E-02 0.00000E+00
 -1      2231 3.15760E-05 1.69657E-02 0.00000E+00
 -1      2232-9.46472E-06 1.73321E-02 0.00000E+00
 -1      2233 5.30615E-05 1.72012E-02 0.00000E+00
 -1      2234 3.08126E-05 1.75250E-02 0.00000E+00
 -1      2235 6.34004E-05 1.74671E-02 0.00000E+00
 -1      2236 5.79541E-05 1.77530E-02 0.00000E+00
 -1      2237 7.51792E-05 1.77442E-02 0.00000E+00
 -1      2238 8.44987E-05 1.79992E-02 0.00000E+00
 -1      2239 9.31787E-05 1.80230E-02 0.00000E+00
 -1      2240 1.16247E-04 1.82541E-02 0.00000E+00
 -1      2241 1.19214E-04 1.83000E-02 0.00000E+00
 -1      2242 1.56098E-04 1.85134E-02 0.00000E+00
 -1      2243 1.54236E-04 1.85750E-02 0.00000E+00
 -1      2244 2.06010E-04 1.87763E-02 0.00000E+00
 -1      2245 1.99323E-04 1.88503E-02 0.00000E+00
 -1      2246 2.68133E-04 1.90446E-02 0.00000E+00
 -1      2247 2.56306E-04 1.91301E-02 0.00000E+00
 -1      2248 3.45669E-04 1.93229E-02 0.00000E+00
 -1      2249 3.28428E-04 1.94216E-02 0.00000E+00
 -1      2250 4.43909E-04 1.96196E-02 0.00000E+00
 -1      2251 4.21379E-04 1.97364E-02 0.00000E+00
 -1      2252 5.71954E-04 1.99495E-02 0.00000E+00
 -1      2253 5.45427E-04 2.00955E-02 0.00000E+00
 -1      2254 7.46503E-04 2.03402E-02 0.00000E+00
 -1      2255 7.22452E-04 2.05432E-02 0.00000E+00
 -1      2256 1.00694E-03 2.08575E-02 0.00000E+00
 -1      2257-1.46144E-03 1.64699E-02 0.00000E+00
 -1      2258-8.44810E-04 1.58276E-02 0.00000E+00
 -1      2259-6.59331E-04 1.63591E-02 0.00000E+00
 -1      2260-1.21638E-04 1.56826E-02 0.00000E+00
 -1      2261-1.64462E-04 1.62683E-02 0.00000E+00
 -1      2262 9.06279E-05 1.58057E-02 0.00000E+00
 -1      2263 2.39762E-05 1.63499E-02 0.00000E+00
 -1      2264 1.15502E-04 1.61142E-02 0.00000E+00
 -1      2265 7.18738E-05 1.65697E-02 0.00000E+00
 -1      2266 9.73373E-05 1.64822E-02 0.00000E+00
 -1      2267 7.52524E-05 1.68579E-02 0.00000E+00
 -1      2268 7.74917E-05 1.68555E-02 0.00000E+00
 -1      2269 7.03405E-05 1.71692E-02 0.00000E+00
 -1      2270 6.55827E-05 1.72139E-02 0.00000E+00
 -1      2271 6.94489E-05 1.74820E-02 0.00000E+00
 -1      2272 6.27613E-05 1.75531E-02 0.00000E+00
 -1      2273 7.60027E-05 1.77879E-02 0.00000E+00
 -1      2274 6.83051E-05 1.78740E-02 0.00000E+00
 -1      2275 9.07150E-05 1.80850E-02 0.00000E+00
 -1      2276 8.13773E-05 1.81800E-02 0.00000E+00
 -1      2277 1.13638E-04 1.83741E-02 0.00000E+00
 -1      2278 1.01525E-04 1.84754E-02 0.00000E+00
 -1      2279 1.45009E-04 1.86583E-02 0.00000E+00
 -1      2280 1.28859E-04 1.87650E-02 0.00000E+00
 -1      2281 1.85659E-04 1.89417E-02 0.00000E+00
 -1      2282 1.64225E-04 1.90550E-02 0.00000E+00
 -1      2283 2.37407E-04 1.92308E-02 0.00000E+00
 -1      2284 2.09502E-04 1.93536E-02 0.00000E+00
 -1      2285 3.03652E-04 1.95352E-02 0.00000E+00
 -1      2286 2.68213E-04 1.96734E-02 0.00000E+00
 -1      2287 3.90496E-04 1.98704E-02 0.00000E+00
 -1      2288 3.46843E-04 2.00360E-02 0.00000E+00
 -1      2289 5.09322E-04 2.02650E-02 0.00000E+00
 -1      2290 4.59342E-04 2.04865E-02 0.00000E+00
 -1      2291 6.87171E-04 2.07862E-02 0.00000E+00
 -1      2292-1.39332E-03 1.51474E-02 0.00000E+00
 -1      2293-1.54041E-04 1.38744E-02 0.00000E+00
 -1      2294-1.28195E-04 1.49659E-02 0.00000E+00
 -1      2295 2.07943E-04 1.42644E-02 0.00000E+00
 -1      2296 1.57515E-04 1.51549E-02 0.00000E+00
 -1      2297 1.65088E-04 1.49762E-02 0.00000E+00
 -1      2298 1.47670E-04 1.55929E-02 0.00000E+00
 -1      2299 1.09502E-04 1.56195E-02 0.00000E+00
 -1      2300 1.11427E-04 1.60706E-02 0.00000E+00
 -1      2301 7.22584E-05 1.61725E-02 0.00000E+00
 -1      2302 7.99298E-05 1.65211E-02 0.00000E+00
 -1      2303 5.01208E-05 1.66499E-02 0.00000E+00
 -1      2304 6.05220E-05 1.69334E-02 0.00000E+00
 -1      2305 3.83856E-05 1.70702E-02 0.00000E+00
 -1      2306 5.13033E-05 1.73104E-02 0.00000E+00
 -1      2307 3.39507E-05 1.74477E-02 0.00000E+00
 -1      2308 5.03523E-05 1.76581E-02 0.00000E+00
 -1      2309 3.49197E-05 1.77934E-02 0.00000E+00
 -1      2310 5.61193E-05 1.79830E-02 0.00000E+00
 -1      2311 4.01947E-05 1.81159E-02 0.00000E+00
 -1      2312 6.76968E-05 1.82912E-02 0.00000E+00
 -1      2313 4.92242E-05 1.84226E-02 0.00000E+00
 -1      2314 8.47319E-05 1.85886E-02 0.00000E+00
 -1      2315 6.18905E-05 1.87200E-02 0.00000E+00
 -1      2316 1.07444E-04 1.88814E-02 0.00000E+00
 -1      2317 7.85050E-05 1.90155E-02 0.00000E+00
 -1      2318 1.36732E-04 1.91770E-02 0.00000E+00
 -1      2319 9.99137E-05 1.93179E-02 0.00000E+00
 -1      2320 1.74469E-04 1.94859E-02 0.00000E+00
 -1      2321 1.27766E-04 1.96404E-02 0.00000E+00
 -1      2322 2.24115E-04 1.98244E-02 0.00000E+00
 -1      2323 1.65140E-04 2.00048E-02 0.00000E+00
 -1      2324 2.92194E-04 2.02213E-02 0.00000E+00
 -1      2325 2.18685E-04 2.04569E-02 0.00000E+00
 -1      2326 3.94277E-04 2.07446E-02 0.00000E+00
 -1      2327-6.70696E-04 1.17508E-02 0.00000E+00
 -1      2328 0.00000E+00 1.15384E-02 0.00000E+00
 -1      2329 2.15784E-04 1.30713E-02 0.00000E+00
 -1      2330 0.00000E+00 1.35135E-02 0.00000E+00
 -1      2331 1.11533E-04 1.42501E-02 0.00000E+00
 -1      2332 0.00000E+00 1.46389E-02 0.00000E+00
 -1      2333 8.19295E-05 1.51260E-02 0.00000E+00
 -1      2334 0.00000E+00 1.54469E-02 0.00000E+00
 -1      2335 4.84442E-05 1.58027E-02 0.00000E+00
 -1      2336 0.00000E+00 1.60719E-02 0.00000E+00
 -1      2337 3.21471E-05 1.63542E-02 0.00000E+00
 -1      2338 0.00000E+00 1.65859E-02 0.00000E+00
 -1      2339 2.26884E-05 1.68218E-02 0.00000E+00
 -1      2340 0.00000E+00 1.70265E-02 0.00000E+00
 -1      2341 1.83077E-05 1.72313E-02 0.00000E+00
 -1      2342 0.00000E+00 1.74161E-02 0.00000E+00
 -1      2343 1.72450E-05 1.75993E-02 0.00000E+00
 -1      2344 0.00000E+00 1.77694E-02 0.00000E+00
 -1      2345 1.86989E-05 1.79374E-02 0.00000E+00
 -1      2346 0.00000E+00 1.80970E-02 0.00000E+00
 -1      2347 2.21970E-05 1.82544E-02 0.00000E+00
 -1      2348 0.00000E+00 1.84070E-02 0.00000E+00
 -1      2349 2.75498E-05 1.85578E-02 0.00000E+00
 -1      2350 0.00000E+00 1.87068E-02 0.00000E+00
 -1      2351 3.47860E-05 1.88548E-02 0.00000E+00
 -1      2352 0.00000E+00 1.90039E-02 0.00000E+00
 -1      2353 4.41745E-05 1.91534E-02 0.00000E+00
 -1      2354 0.00000E+00 1.93074E-02 0.00000E+00
 -1      2355 5.63067E-05 1.94643E-02 0.00000E+00
 -1      2356 0.00000E+00 1.96308E-02 0.00000E+00
 -1      2357 7.22930E-05 1.98042E-02 0.00000E+00
 -1      2358 0.00000E+00 1.99957E-02 0.00000E+00
 -1      2359 9.42367E-05 2.02021E-02 0.00000E+00
 -1      2360 0.00000E+00 2.04482E-02 0.00000E+00
 -1      2361 1.27168E-04 2.07264E-02 0.00000E+00
 -3
    1PSTEP                         2           1           1          
  100CL  101 1.000000000        2360                     0    1           1
 -4  STRESS      6    1
 -5  SXX         1    4    1    1
 -5  SYY         1    4    2    2
 -5  SZZ         1    4    3    3
 -5  SXY         1    4    1    2
 -5  SYZ         1    4    2    3
 -5  SZX         1    4    3    1
 -1         1-1.71169E+03-1.74146E+03-1.04545E+03 2.29782E+02 4.53615E-13-3.29714E-15
 -1         2 4.15937E-02 2.66788E-01 9.25146E-02-2.79174E-02 1.82198E-17-6.95934E-14
 -1         3-7.89867E+02-7.59005E+02-4.67229E+02-3.51070E+02-1.50862E-13 1.08630E-14
 -1         4 8.28760E+01 9.21313E+01 5.24130E+01 7.36537E+01 1.85692E-13 1.04402E-14
 -1         5 1.62675E+01 9.98227E+00 7.87948E+00 1.46865E+01-4.45044E-14-3.81827E-16
 -1         6 3.82763E+00 7.44842E+00 3.38332E+00 4.43206E+00-2.03111E-13-1.14798E-14
 -1         7 8.38363E-01 1.39139E+00 6.69022E-01 2.67996E+00 9.67271E-14-1.16949E-14
 -1         8 4.79257E-01 1.14842E+00 4.88328E-01 1.37424E+00 1.77996E-13-1.46522E-14
 -1         9 2.56763E-01 5.95939E-01 2.55818E-01 8.62353E-01-4.87106E-15 7.47511E-16
 -1        10 1.83830E-01 4.37342E-01 1.86355E-01 5.50994E-01-5.65287E-17-1.65322E-15
 -1        11 1.35444E-01 3.22939E-01 1.37517E-01 3.81288E-01-3.94344E-14 2.63367E-15
 -1        12 1.08506E-01 2.61816E-01 1.11097E-01 2.74055E-01-7.88839E-14 6.83853E-16
 -1        13 9.00418E-02 2.22138E-01 9.36546E-02 2.05619E-01 5.53081E-14 9.34993E-16
 -1        14 7.72906E-02 1.97148E-01 8.23320E-02 1.59418E-01 3.47323E-15 1.87459E-15
 -1        15 6.78287E-02 1.81334E-01 7.47490E-02 1.27331E-01 8.05907E-15-9.77746E-16
 -1        16 6.05507E-02 1.72295E-01 6.98541E-02 1.04239E-01 2.72830E-14-1.98052E-14
 -1        17 5.47162E-02 1.68724E-01 6.70322E-02 8.69761E-02-9.29850E-15-1.35493E-14
 -1        18 4.98772E-02 1.70134E-01 6.60037E-02 7.33420E-02-6.27503E-15-8.78968E-16
 -1        19 4.60014E-02 1.76633E-01 6.67905E-02 6.15711E-02 4.60852E-15 3.28035E-14
 -1        20 4.27806E-02 1.88839E-01 6.94861E-02 5.00727E-02-8.40747E-16 2.45316E-14
 -1        21 4.33047E-02 2.09579E-01 7.58653E-02 3.67113E-02 2.61502E-16-2.07173E-14
 -1        22 4.29019E-02 2.44134E-01 8.61111E-02 2.09467E-02 1.13321E-16 3.09008E-14
 -1        23 1.72485E-02-1.41612E+00-4.19668E-01-4.84234E-03-6.25155E-17 3.44039E-14
 -1        24 5.74432E-02-2.93800E+00-8.64190E-01 1.38998E-02-6.68318E-17 2.99476E-14
 -1        25 1.33715E-01-4.70789E+00-1.37232E+00 1.55514E-03-1.49898E-16 1.88933E-14
 -1        26 3.02592E-01-6.76327E+00-1.93833E+00-4.48573E-03-1.51787E-16 6.92975E-14
 -1        27 5.86998E-01-9.16434E+00-2.57345E+00-6.85766E-03-4.12403E-16 3.17920E-14
 -1        28 1.02002E+00-1.19824E+01-3.28913E+00-7.19523E-03 4.88579E-16-5.65290E-15
 -1        29 1.64777E+00-1.53010E+01-4.09666E+00-6.36174E-03-1.67829E-16-2.14452E-14
 -1        30 2.53105E+00-1.92165E+01-5.00678E+00-4.71779E-03 7.22414E-17-5.42927E-14
 -1        31 3.74601E+00-2.38354E+01-6.02862E+00-2.37129E-03-9.63276E-16 1.50435E-14
 -1        32 5.38192E+00-2.92648E+01-7.16765E+00 6.05697E-04-1.17287E-16 1.56405E-15
 -1        33 7.53243E+00-3.55909E+01-8.42177E+00 3.95357E-03 4.12319E-16 2.77362E-14
 -1        34 1.02732E+01-4.28352E+01-9.77495E+00 7.00378E-03-7.46883E-17 1.59135E-14
 -1        35 1.36149E+01-5.08767E+01-1.11877E+01 8.11087E-03-1.26792E-15-3.39841E-15
 -1        36 1.74215E+01-5.93264E+01-1.25843E+01 5.68353E-03 7.23982E-16-4.92978E-15
 -1        37 2.12794E+01-6.73872E+01-1.38494E+01-7.86670E-03-2.08100E-16 2.09077E-14
 -1        38 2.44519E+01-7.37926E+01-1.48229E+01-2.14056E-02 3.97588E-14-1.36177E-14
 -1        39 2.56337E+01-7.63687E+01-1.52428E+01 2.59565E-01-1.83082E-14-3.44932E-16
 -1        40-1.85277E+02-1.29959E+03-4.49985E+02-7.61608E+01 2.84899E-13-5.60171E-15
 -1        41-2.92987E+00-8.26853E+02-2.50819E+02-1.28489E+01-7.52005E-14 4.36632E-17
 -1        42 2.35781E+01-5.66928E+02-1.63922E+02-5.96375E+00-1.11418E-13-1.09831E-16
 -1        43 2.63110E+01-4.21359E+02-1.19030E+02-2.00982E+00-8.63962E-14 8.49554E-16
 -1        44 2.61638E+01-3.27570E+02-9.07383E+01-8.46130E-01 8.42225E-14-7.57135E-16
 -1        45 2.60235E+01-2.63002E+02-7.13010E+01-4.17377E-01-3.49019E-13-1.57820E-16
 -1        46 2.58628E+01-2.16485E+02-5.73299E+01-2.20027E-01-2.61339E-14 8.46029E-17
 -1        47 2.57628E+01-1.81751E+02-4.68996E+01-1.29102E-01-4.88111E-14 8.46243E-16
 -1        48 2.56941E+01-1.55134E+02-3.89090E+01-8.01478E-02 4.10623E-14 5.46083E-16
 -1        49 2.56477E+01-1.34359E+02-3.26728E+01-5.30613E-02-1.52608E-14 1.64641E-16
 -1        50 2.56149E+01-1.17961E+02-2.77509E+01-3.69423E-02-3.00436E-14-1.59517E-16
 -1        51 2.55908E+01-1.04972E+02-2.38527E+01-2.70540E-02-4.70265E-15 9.44832E-17
 -1        52 2.55719E+01-9.47508E+01-2.07857E+01-2.09660E-02-1.95502E-14-9.83028E-17
 -1        53 2.55548E+01-8.68878E+01-1.84275E+01-1.69792E-02-5.29344E-14-7.77234E-17
 -1        54 2.55283E+01-8.11685E+01-1.67167E+01-1.64502E-02-4.16159E-14-1.21550E-16
 -1        55 2.54677E+01-7.74622E+01-1.56211E+01-1.01341E-02 4.24496E-14 3.27418E-17
 -1        56-3.35164E+02-7.95323E+02-3.42429E+02-5.00201E+02-2.22702E-15-2.00942E-15
 -1        57-9.81242E+01-6.77975E+02-2.34479E+02-2.57011E+02-7.12731E-14-1.58030E-15
 -1        58-1.58441E+01-5.13408E+02-1.59621E+02-1.33100E+02 9.17599E-14-4.11400E-15
 -1        59 1.08977E+01-3.98516E+02-1.16775E+02-7.36217E+01 3.55865E-14-2.61001E-15
 -1        60 1.96639E+01-3.16811E+02-8.94498E+01-4.31772E+01 3.71161E-15-4.18318E-15
 -1        61 2.30335E+01-2.57733E+02-7.06126E+01-2.64371E+01 6.93358E-14-1.16683E-15
 -1        62 2.44104E+01-2.13789E+02-5.69548E+01-1.67247E+01 1.13486E-13-1.47983E-15
 -1        63 2.50291E+01-1.80334E+02-4.66937E+01-1.08004E+01-2.59633E-14-1.72388E-15
 -1        64 2.53146E+01-1.54377E+02-3.87952E+01-7.04785E+00-9.81345E-15-1.33459E-15
 -1        65 2.54497E+01-1.33953E+02-3.26099E+01-4.59862E+00-4.94008E-14-5.26842E-16
 -1        66 2.55120E+01-1.17745E+02-2.77166E+01-2.96463E+00-9.21336E-14-4.84249E-16
 -1        67 2.55383E+01-1.04859E+02-2.38345E+01-1.85846E+00-1.31700E-14-1.17459E-16
 -1        68 2.55462E+01-9.46949E+01-2.07766E+01-1.10525E+00-7.11869E-14 3.05296E-16
 -1        69 2.55430E+01-8.68627E+01-1.84235E+01-5.96325E-01-1.11594E-14 1.57486E-16
 -1        70 2.55237E+01-8.11596E+01-1.67154E+01-2.64568E-01 3.09773E-15-1.79738E-16
 -1        71 2.54670E+01-7.74614E+01-1.56211E+01-7.39013E-02-5.82436E-14-7.64198E-17
 -1        72-3.48887E+02-1.28690E+02-1.43979E+02-2.12074E+02-9.84975E-15 8.20786E-16
 -1        73-2.12868E+02-3.38109E+02-1.66129E+02-2.69461E+02-1.42144E-13-1.53046E-15
 -1        74-8.69316E+01-3.66574E+02-1.36659E+02-1.93585E+02-1.28708E-13 4.09264E-15
 -1        75-2.65783E+01-3.30831E+02-1.07627E+02-1.25046E+02 4.36319E-14 3.96807E-15
 -1        76 1.53634E+00-2.83976E+02-8.50038E+01-7.96057E+01 8.34579E-14 1.33561E-14
 -1        77 1.39931E+01-2.41122E+02-6.83271E+01-5.11387E+01-7.46165E-14 1.90474E-15
 -1        78 1.98362E+01-2.05118E+02-5.57192E+01-3.32696E+01-3.11542E-14-3.41870E-15
 -1        79 2.26539E+01-1.75712E+02-4.60163E+01-2.18580E+01 4.41510E-14-1.16386E-14
 -1        80 2.40679E+01-1.51883E+02-3.84193E+01-1.44181E+01-4.47158E-14 1.77826E-15
 -1        81 2.47923E+01-1.32604E+02-3.24016E+01-9.47323E+00 8.36677E-14 3.88318E-16
 -1        82 2.51683E+01-1.17022E+02-2.76025E+01-6.13491E+00-4.39573E-14-4.46151E-16
 -1        83 2.53624E+01-1.04482E+02-2.37738E+01-3.85730E+00 1.68906E-15 1.73024E-15
 -1        84 2.54598E+01-9.45076E+01-2.07462E+01-2.29841E+00-1.80829E-14 8.71479E-16
 -1        85 2.55036E+01-8.67787E+01-1.84101E+01-1.24148E+00-4.50953E-15-1.19559E-16
 -1        86 2.55083E+01-8.11299E+01-1.67111E+01-5.50890E-01 2.78514E-15-4.02598E-16
 -1        87 2.54644E+01-7.74587E+01-1.56211E+01-1.53562E-01-4.35271E-14 8.72168E-17
 -1        88-1.50588E+02-1.42867E+01-4.95471E+01-5.89129E+01-1.66460E-13-8.94384E-15
 -1        89-1.86561E+02-1.12455E+02-8.99730E+01-1.53446E+02-1.53558E-13 1.07183E-15
 -1        90-1.24491E+02-2.05811E+02-9.94116E+01-1.68562E+02-1.82845E-14 3.38699E-15
 -1        91-6.19050E+01-2.37859E+02-9.02097E+01-1.38192E+02-9.19496E-14-2.56323E-15
 -1        92-2.18379E+01-2.32963E+02-7.66577E+01-1.00694E+02-3.84526E-14 5.44489E-15
 -1        93 4.36539E-01-2.13349E+02-6.40372E+01-7.00945E+01-1.14498E-13 3.22187E-15
 -1        94 1.22718E+01-1.89928E+02-5.34195E+01-4.79063E+01 1.55519E-14-3.36790E-15
 -1        95 1.85057E+01-1.67360E+02-4.47493E+01-3.24676E+01-4.67980E-15-4.76732E-15
 -1        96 2.18093E+01-1.47281E+02-3.77135E+01-2.18482E+01-1.12418E-13 2.42982E-16
 -1        97 2.35745E+01-1.30080E+02-3.20084E+01-1.45435E+01 4.90620E-14-2.97079E-15
 -1        98 2.45218E+01-1.15657E+02-2.73862E+01-9.49993E+00-2.06241E-14 6.72529E-15
 -1        99 2.50284E+01-1.03765E+02-2.36584E+01-6.00734E+00 5.68479E-14 6.93998E-15
 -1       100 2.52947E+01-9.41496E+01-2.06881E+01-3.59307E+00 4.88300E-14 1.65545E-15
 -1       101 2.54281E+01-8.66175E+01-1.83843E+01-1.94542E+00-1.06315E-14-2.31056E-15
 -1       102 2.54787E+01-8.10724E+01-1.67027E+01-8.64203E-01-3.05272E-14-9.25381E-16
 -1       103 2.54594E+01-7.74533E+01-1.56209E+01-2.40384E-01-1.94619E-14 6.97459E-16
 -1       104-8.16774E+01-4.02457E+00-2.57328E+01-2.58962E+01-7.55308E-14-3.84157E-15
 -1       105-1.25678E+02-4.36302E+01-5.08797E+01-8.08303E+01-5.38884E-14 3.02310E-16
 -1       106-1.16562E+02-1.03871E+02-6.62780E+01-1.18344E+02 2.47101E-15 6.30148E-15
 -1       107-7.83347E+01-1.52686E+02-6.94739E+01-1.21343E+02-5.53709E-14-1.83123E-15
 -1       108-4.09294E+01-1.75507E+02-6.50868E+01-1.03511E+02 2.97127E-15-2.84595E-15
 -1       109-1.39963E+01-1.77882E+02-5.76949E+01-7.99898E+01-4.36599E-14 2.16875E-15
 -1       110 2.91672E+00-1.68946E+02-4.99150E+01-5.85518E+01-7.39996E-14 2.78092E-15
 -1       111 1.28718E+01-1.55214E+02-4.27873E+01-4.15179E+01 5.37117E-14-9.73167E-16
 -1       112 1.85551E+01-1.40356E+02-3.66078E+01-2.87894E+01-3.47422E-14 8.40303E-16
 -1       113 2.17502E+01-1.26193E+02-3.13870E+01-1.95522E+01 4.15193E-14 1.94633E-15
 -1       114 2.35283E+01-1.13520E+02-2.70420E+01-1.29449E+01 9.64552E-14-1.07626E-15
 -1       115 2.45061E+01-1.02628E+02-2.34736E+01-8.26035E+00-3.06819E-14 3.03642E-15
 -1       116 2.50337E+01-9.35783E+01-2.05947E+01-4.97062E+00-1.64240E-14-8.92604E-16
 -1       117 2.53077E+01-8.63587E+01-1.83426E+01-2.70182E+00 4.28411E-15-9.18469E-16
 -1       118 2.54314E+01-8.09798E+01-1.66890E+01-1.20277E+00-1.32156E-14 8.79002E-16
 -1       119 2.54513E+01-7.74444E+01-1.56207E+01-3.33712E-01 5.39627E-14 1.04681E-15
 -1       120-4.91006E+01-1.99824E+00-1.53375E+01-1.47810E+01 5.36008E-14 6.54952E-15
 -1       121-8.31221E+01-1.92335E+01-3.07393E+01-4.58681E+01-1.09090E-14-7.77192E-16
 -1       122-9.18393E+01-5.36840E+01-4.37234E+01-7.74257E+01 2.39063E-14 3.15180E-15
 -1       123-7.66525E+01-9.31446E+01-5.10316E+01-9.41595E+01 5.65369E-14-1.02620E-14
 -1       124-5.05787E+01-1.24012E+02-5.24793E+01-9.30533E+01 4.40188E-15 5.89982E-15
 -1       125-2.55164E+01-1.40389E+02-4.98696E+01-8.05075E+01-4.06355E-14 2.66060E-15
 -1       126-6.42290E+00-1.44178E+02-4.52670E+01-6.39602E+01-3.13415E-14-3.39373E-15
 -1       127 6.43682E+00-1.39774E+02-4.00749E+01-4.80427E+01 6.32293E-14-1.19438E-14
 -1       128 1.45013E+01-1.31098E+02-3.50405E+01-3.46739E+01-1.13255E-13-1.12686E-15
 -1       129 1.93434E+01-1.20812E+02-3.04914E+01-2.42081E+01-9.36105E-14-7.38398E-15
 -1       130 2.21658E+01-1.10491E+02-2.65401E+01-1.63348E+01 5.60904E-14 1.50258E-15
 -1       131 2.37709E+01-1.00990E+02-2.32017E+01-1.05597E+01-4.28093E-14 3.88475E-15
 -1       132 2.46595E+01-9.27448E+01-2.04564E+01-6.41032E+00 5.19422E-15-6.92481E-16
 -1       133 2.51332E+01-8.59778E+01-1.82805E+01-3.50444E+00-1.95146E-14-1.60438E-15
 -1       134 2.53623E+01-8.08423E+01-1.66684E+01-1.56511E+00 2.26271E-14 1.21837E-15
 -1       135 2.54391E+01-7.74303E+01-1.56201E+01-4.32764E-01-6.21799E-15-2.12791E-16
 -1       136-3.14918E+01-1.79579E+00-9.98953E+00-9.56023E+00 5.00906E-15 1.25102E-15
 -1       137-5.62762E+01-1.08838E+01-2.01619E+01-2.86003E+01 3.63722E-14 2.27067E-15
 -1       138-6.86838E+01-3.01741E+01-2.96884E+01-5.12007E+01 3.25834E-15 3.13409E-15
 -1       139-6.58217E+01-5.72082E+01-3.69584E+01-6.92190E+01 7.24047E-14 6.00405E-15
 -1       140-5.12908E+01-8.48807E+01-4.09144E+01-7.69170E+01 7.38128E-14 6.89142E-15
 -1       141-3.20649E+01-1.06300E+02-4.15780E+01-7.39979E+01 5.29729E-14-4.30994E-15
 -1       142-1.40143E+01-1.18471E+02-3.98128E+01-6.40960E+01 3.58336E-14 2.89664E-15
 -1       143 1.23685E-01-1.22156E+02-3.66713E+01-5.14371E+01-8.02878E-14 1.95394E-15
 -1       144 1.00259E+01-1.19800E+02-3.29866E+01-3.89792E+01 2.41145E-15 3.67647E-15
 -1       145 1.64688E+01-1.13927E+02-2.92842E+01-2.81870E+01-4.52375E-14-3.82762E-15
 -1       146 2.04490E+01-1.06483E+02-2.58504E+01-1.94994E+01 2.92000E-14 1.75617E-14
 -1       147 2.28097E+01-9.87712E+01-2.28231E+01-1.28272E+01 3.81082E-14 3.88441E-15
 -1       148 2.41579E+01-9.15965E+01-2.02618E+01-7.88063E+00 3.74560E-15 8.44677E-15
 -1       149 2.48950E+01-8.54465E+01-1.81922E+01-4.34255E+00-2.54738E-14-2.61881E-15
 -1       150 2.52670E+01-8.06483E+01-1.66387E+01-1.94825E+00 1.17324E-15 2.42700E-15
 -1       151 2.54217E+01-7.74091E+01-1.56190E+01-5.36262E-01-4.08637E-14-6.95174E-16
 -1       152-2.09885E+01-1.61229E+00-6.78172E+00-6.83995E+00-1.38206E-14-8.63169E-16
 -1       153-3.87912E+01-7.25039E+00-1.38190E+01-1.92547E+01 2.05235E-14-1.45535E-15
 -1       154-5.04162E+01-1.88667E+01-2.08001E+01-3.50302E+01-9.85936E-14 2.80179E-15
 -1       155-5.29854E+01-3.66800E+01-2.69262E+01-5.02817E+01-9.09206E-14 3.46069E-15
 -1       156-4.64617E+01-5.81165E+01-3.14111E+01-6.07204E+01-1.74172E-14-2.99977E-15
 -1       157-3.37073E+01-7.87172E+01-3.37730E+01-6.38540E+01 4.57968E-15-9.00171E-15
 -1       158-1.88386E+01-9.45552E+01-3.40676E+01-6.00513E+01 1.95635E-15 1.26488E-14
 -1       159-5.18270E+00-1.03878E+02-3.27674E+01-5.16521E+01-1.05521E-13 5.16792E-15
 -1       160 5.62104E+00-1.07077E+02-3.04831E+01-4.13548E+01-1.63321E-14-6.60945E-15
 -1       161 1.33329E+01-1.05691E+02-2.77494E+01-3.11817E+01-2.92835E-14-6.10857E-16
 -1       162 1.84395E+01-1.01474E+02-2.49476E+01-2.22470E+01-3.59388E-14-2.72065E-15
 -1       163 2.16281E+01-9.59086E+01-2.23172E+01-1.49635E+01-1.28218E-14-1.37712E-14
 -1       164 2.35199E+01-9.00807E+01-1.99976E+01-9.33770E+00 5.38898E-14-3.04953E-15
 -1       165 2.45850E+01-8.47330E+01-1.80708E+01-5.19977E+00-7.90811E-15 5.05262E-15
 -1       166 2.51408E+01-8.03839E+01-1.65971E+01-2.34717E+00 2.57934E-14 3.00254E-15
 -1       167 2.53976E+01-7.73776E+01-1.56167E+01-6.42298E-01-3.49743E-15 7.76747E-16
 -1       168-1.44161E+01-1.52074E+00-4.78176E+00-5.18987E+00 6.57120E-14 4.19729E-15
 -1       169-2.72179E+01-5.49624E+00-9.81748E+00-1.37950E+01 7.22732E-15-3.45383E-16
 -1       170-3.68461E+01-1.31002E+01-1.49918E+01-2.49547E+01 4.60274E-14 4.06590E-15
 -1       171-4.12131E+01-2.50490E+01-1.98932E+01-3.68813E+01-8.04232E-16 3.07457E-15
 -1       172-3.93193E+01-4.07883E+01-2.40546E+01-4.70117E+01 6.55681E-14 1.55437E-14
 -1       173-3.18004E+01-5.81658E+01-2.70194E+01-5.29250E+01 1.78846E-15-7.99281E-15
 -1       174-2.07834E+01-7.42149E+01-2.85344E+01-5.34727E+01-2.91662E-15 4.59055E-15
 -1       175-8.90116E+00-8.64548E+01-2.86445E+01-4.91834E+01-1.07229E-13-1.21370E-14
 -1       176 1.77371E+00-9.37738E+01-2.76381E+01-4.17188E+01 2.66806E-14-1.10511E-14
 -1       177 1.02047E+01-9.64366E+01-2.59061E+01-3.29637E+01 6.70297E-14 7.73125E-15
 -1       178 1.62472E+01-9.55297E+01-2.38187E+01-2.43871E+01 3.38339E-14 7.41305E-15
 -1       179 2.02560E+01-9.23714E+01-2.16657E+01-1.68537E+01-1.11207E-14 3.49949E-16
 -1       180 2.27458E+01-8.81511E+01-1.96499E+01-1.07250E+01-5.40881E-15 1.35989E-15
 -1       181 2.41971E+01-8.38041E+01-1.79079E+01-6.05314E+00-2.14219E-14 1.07428E-15
 -1       182 2.49797E+01-8.00325E+01-1.65398E+01-2.75436E+00 1.53424E-14-4.85916E-15
 -1       183 2.53650E+01-7.73313E+01-1.56126E+01-7.48272E-01-1.68536E-14 1.59582E-15
 -1       184-1.01141E+01-1.45091E+00-3.46988E+00-4.10442E+00-4.64800E-14 2.56072E-15
 -1       185-1.93499E+01-4.53016E+00-7.16572E+00-1.03623E+01-1.04580E-14-1.19126E-15
 -1       186-2.69197E+01-9.93532E+00-1.10608E+01-1.84549E+01-5.09987E-15-2.21793E-15
 -1       187-3.14348E+01-1.83074E+01-1.49309E+01-2.75665E+01-8.10486E-14-2.96293E-15
 -1       188-3.18607E+01-2.98019E+01-1.85120E+01-3.62907E+01-1.04796E-14-3.19328E-15
 -1       189-2.79234E+01-4.36278E+01-2.14842E+01-4.28882E+01 1.89619E-14-6.01208E-15
 -1       190-2.03930E+01-5.80665E+01-2.35619E+01-4.59203E+01 1.65548E-14 1.03375E-14
 -1       191-1.08697E+01-7.10149E+01-2.45934E+01-4.48628E+01 1.19337E-14-1.43017E-14
 -1       192-1.15794E+00-8.07854E+01-2.46133E+01-4.02756E+01-5.17445E-14-3.89806E-15
 -1       193 7.36333E+00-8.66434E+01-2.38149E+01-3.34365E+01-3.50387E-14 4.03674E-15
 -1       194 1.40193E+01-8.88228E+01-2.24713E+01-2.57615E+01-1.78848E-14-3.05716E-14
 -1       195 1.87489E+01-8.81775E+01-2.08573E+01-1.83772E+01 7.78901E-15 7.37540E-15
 -1       196 2.18475E+01-8.57757E+01-1.92054E+01-1.19748E+01-1.76483E-14-5.88886E-15
 -1       197 2.37295E+01-8.26272E+01-1.76945E+01-6.87243E+00 2.16024E-14 6.51994E-15
 -1       198 2.47803E+01-7.95760E+01-1.64624E+01-3.15931E+00 1.46340E-14-4.99115E-15
 -1       199 2.53220E+01-7.72643E+01-1.56054E+01-8.50912E-01 9.08650E-14 1.17795E-16
 -1       200-7.20207E+00-1.40352E+00-2.58189E+00-3.33238E+00-2.37376E-14 5.70644E-16
 -1       201-1.38855E+01-3.95448E+00-5.35295E+00-8.06179E+00 2.20481E-14 2.25919E-16
 -1       202-1.96728E+01-8.08199E+00-8.32886E+00-1.40891E+01-9.75653E-15-4.63892E-15
 -1       203-2.36690E+01-1.42605E+01-1.13836E+01-2.10434E+01-2.06534E-15 6.60873E-15
 -1       204-2.50535E+01-2.28231E+01-1.43710E+01-2.81833E+01-4.04287E-14-4.58333E-15
 -1       205-2.32979E+01-3.36233E+01-1.70883E+01-3.44041E+01 3.40734E-14-2.71303E-14
 -1       206-1.84580E+01-4.58548E+01-1.93101E+01-3.84976E+01 5.38623E-16 8.68003E-17
 -1       207-1.12832E+01-5.81255E+01-2.08429E+01-3.95762E+01 4.77021E-15-1.41360E-14
 -1       208-3.01654E+00-6.88631E+01-2.15874E+01-3.74428E+01-1.51211E-15-1.74201E-14
 -1       209 5.03651E+00-7.68580E+01-2.15719E+01-3.26588E+01 8.99672E-15-3.10332E-14
 -1       210 1.19166E+01-8.16229E+01-2.09382E+01-2.62747E+01 2.94865E-14 9.07458E-15
 -1       211 1.71847E+01-8.34063E+01-1.98926E+01-1.94228E+01-1.69190E-15 7.35369E-15
 -1       212 2.08508E+01-8.29473E+01-1.86543E+01-1.30119E+01-1.26070E-14-1.28810E-14
 -1       213 2.31858E+01-8.11751E+01-1.74212E+01-7.62009E+00 1.02771E-14 1.25169E-14
 -1       214 2.45411E+01-7.89947E+01-1.63594E+01-3.54807E+00-1.04768E-14-4.44723E-15
 -1       215 2.52664E+01-7.71687E+01-1.55933E+01-9.46404E-01-1.33609E-14-3.49246E-15
 -1       216-5.17369E+00-1.37057E+00-1.96340E+00-2.75308E+00-5.70843E-15 7.47941E-16
 -1       217-1.00129E+01-3.58925E+00-4.08119E+00-6.43099E+00 4.48772E-14-3.35589E-15
 -1       218-1.43558E+01-6.93279E+00-6.38799E+00-1.10294E+01-1.22665E-14 3.39518E-15
 -1       219-1.76301E+01-1.17341E+01-8.81209E+00-1.63808E+01-6.45460E-14-1.66356E-15
 -1       220-1.92449E+01-1.83218E+01-1.12749E+01-2.21010E+01 2.15682E-14-1.40644E-15
 -1       221-1.86845E+01-2.68040E+01-1.36542E+01-2.75299E+01-1.31696E-15 2.18475E-15
 -1       222-1.57096E+01-3.69016E+01-1.57943E+01-3.17999E+01 4.95547E-14 1.63260E-14
 -1       223-1.05311E+01-4.78478E+01-1.75281E+01-3.40493E+01 3.57169E-15 2.72854E-16
 -1       224-3.84274E+00-5.84862E+01-1.87164E+01-3.37259E+01-4.93105E-15-5.39539E-15
 -1       225 3.35669E+00-6.75907E+01-1.92907E+01-3.08260E+01-2.56349E-14-4.22214E-15
 -1       226 1.00833E+01-7.42649E+01-1.92768E+01-2.59141E+01-4.33005E-14-3.37485E-15
 -1       227 1.56532E+01-7.82030E+01-1.87883E+01-1.99056E+01 2.02392E-14 1.64773E-15
 -1       228 1.97938E+01-7.96943E+01-1.79938E+01-1.37600E+01 1.49294E-14-1.58343E-15
 -1       229 2.25761E+01-7.94321E+01-1.70802E+01-8.25206E+00-1.14274E-14 4.41091E-16
 -1       230 2.42629E+01-7.82704E+01-1.62252E+01-3.90287E+00-3.50072E-14 1.04576E-16
 -1       231 2.51964E+01-7.70348E+01-1.55740E+01-1.03064E+00-1.60453E-14 9.70246E-16
 -1       232-3.72786E+00-1.34915E+00-1.52317E+00-2.29820E+00-1.04585E-14 1.20405E-15
 -1       233-7.22004E+00-3.34780E+00-3.17068E+00-5.21710E+00 9.49330E-15 2.12957E-15
 -1       234-1.04262E+01-6.18720E+00-4.98487E+00-8.79442E+00-2.27263E-14 2.39613E-15
 -1       235-1.29783E+01-1.00976E+01-6.92450E+00-1.29561E+01-4.46326E-14 1.84433E-15
 -1       236-1.44690E+01-1.53552E+01-8.95033E+00-1.75048E+01 4.70364E-15 5.38867E-15
 -1       237-1.44784E+01-2.21443E+01-1.09918E+01-2.20575E+01-1.35908E-15 1.61128E-14
 -1       238-1.26917E+01-3.04464E+01-1.29488E+01-2.60391E+01-3.38953E-14 3.85461E-15
 -1       239-9.04108E+00-3.99178E+01-1.46979E+01-2.87601E+01 3.26564E-14 1.27912E-14
 -1       240-3.81531E+00-4.98408E+01-1.61101E+01-2.95959E+01 1.64066E-14 3.17299E-14
 -1       241 2.34755E+00-5.92291E+01-1.70806E+01-2.82166E+01-2.46101E-14 1.73675E-16
 -1       242 8.62092E+00-6.70955E+01-1.75610E+01-2.47520E+01-1.60597E-14-6.64394E-15
 -1       243 1.42422E+01-7.27678E+01-1.75782E+01-1.97818E+01-4.19967E-15 4.39252E-15
 -1       244 1.87231E+01-7.60872E+01-1.72309E+01-1.41501E+01 3.79603E-15 1.12061E-14
 -1       245 2.19171E+01-7.74010E+01-1.66674E+01-8.71967E+00-3.98140E-15 5.53404E-15
 -1       246 2.39497E+01-7.73886E+01-1.60541E+01-4.20192E+00-1.92579E-14 4.78787E-15
 -1       247 2.51112E+01-7.68521E+01-1.55447E+01-1.09951E+00 2.53177E-14 8.11134E-16
 -1       248-2.67731E+00-1.33656E+00-1.20421E+00-1.92768E+00-2.89235E-14-8.46302E-15
 -1       249-5.17561E+00-3.18408E+00-2.50811E+00-4.27394E+00 3.54620E-14-1.22356E-14
 -1       250-7.49920E+00-5.68631E+00-3.95619E+00-7.09568E+00 1.10978E-14-5.23182E-15
 -1       251-9.40797E+00-9.00292E+00-5.52437E+00-1.03624E+01 1.00293E-14-2.55909E-14
 -1       252-1.06265E+01-1.33546E+01-7.19633E+00-1.39729E+01 1.46565E-14-1.95234E-14
 -1       253-1.08390E+01-1.89300E+01-8.93396E+00-1.77077E+01 3.35541E-14 1.13816E-14
 -1       254-9.75078E+00-2.58216E+01-1.06767E+01-2.12017E+01 6.91179E-15-1.53494E-14
 -1       255-7.18201E+00-3.39310E+01-1.23411E+01-2.39548E+01 1.24826E-14-2.42254E-14
 -1       256-3.17412E+00-4.28811E+01-1.38263E+01-2.54135E+01 4.40135E-15 1.91433E-15
 -1       257 1.94152E+00-5.19972E+01-1.50293E+01-2.51261E+01 8.30055E-15-3.09316E-14
 -1       258 7.57389E+00-6.04181E+01-1.58686E+01-2.29272E+01 8.49902E-16-7.80667E-15
 -1       259 1.30225E+01-6.73316E+01-1.63105E+01-1.90565E+01-1.08569E-14-6.21561E-16
 -1       260 1.76878E+01-7.22393E+01-1.63851E+01-1.41298E+01-1.85820E-14 7.39224E-15
 -1       261 2.12307E+01-7.51101E+01-1.61848E+01-8.97284E+00 6.94244E-15-1.69831E-15
 -1       262 2.36087E+01-7.63436E+01-1.58423E+01-4.41934E+00 1.56680E-14-5.66118E-15
 -1       263 2.50113E+01-7.66105E+01-1.55020E+01-1.14911E+00 6.13031E-15-3.25901E-15
 -1       264-1.90207E+00-1.33113E+00-9.69989E-01-1.61595E+00 1.04671E-15-4.27834E-15
 -1       265-3.66070E+00-3.07200E+00-2.01994E+00-3.51253E+00-1.28708E-14-1.76582E-14
 -1       266-5.30373E+00-5.34159E+00-3.19394E+00-5.75496E+00 2.07842E-15 1.11888E-14
 -1       267-6.67070E+00-8.25184E+00-4.47748E+00-8.33354E+00 1.79888E-14 1.10176E-14
 -1       268-7.57676E+00-1.19770E+01-5.86745E+00-1.11961E+01 4.37145E-15 1.72322E-14
 -1       269-7.79330E+00-1.66858E+01-7.34592E+00-1.42172E+01 1.03838E-14-7.53276E-15
 -1       270-7.07770E+00-2.25076E+01-8.87905E+00-1.71701E+01 5.80145E-15 1.46573E-15
 -1       271-5.22733E+00-2.94705E+01-1.04145E+01-1.97118E+01 2.97129E-14 4.62087E-15
 -1       272-2.15793E+00-3.74216E+01-1.18811E+01-2.14074E+01-1.21866E-15 1.38525E-14
 -1       273 2.01426E+00-4.59627E+01-1.31943E+01-2.18118E+01 2.29491E-14 7.13966E-15
 -1       274 6.93076E+00-5.44530E+01-1.42691E+01-2.06117E+01-5.56090E-15-1.47369E-14
 -1       275 1.20380E+01-6.21241E+01-1.50410E+01-1.77814E+01 1.37899E-15 1.69093E-14
 -1       276 1.67321E+01-6.82986E+01-1.54876E+01-1.36710E+01 5.32150E-15-5.27643E-15
 -1       277 2.05409E+01-7.26180E+01-1.56428E+01-8.96459E+00-1.58377E-14-2.03275E-14
 -1       278 2.32496E+01-7.51431E+01-1.55892E+01-4.52559E+00 1.33642E-15-1.92594E-16
 -1       279 2.49003E+01-7.63032E+01-1.54429E+01-1.17554E+00 2.24146E-14-7.21465E-16
 -1       280-1.32315E+00-1.33165E+00-7.96460E-01-1.34571E+00 2.99475E-15-4.91502E-15
 -1       281-2.52797E+00-2.99600E+00-1.65728E+00-2.87579E+00-1.80081E-15-2.95263E-15
 -1       282-3.64874E+00-5.10127E+00-2.62524E+00-4.65794E+00 4.66637E-15-3.25299E-14
 -1       283-4.57412E+00-7.72734E+00-3.69092E+00-6.69274E+00-5.64914E-15 7.79899E-15
 -1       284-5.18008E+00-1.10126E+01-4.85870E+00-8.95295E+00-3.70202E-15-1.16696E-14
 -1       285-5.30404E+00-1.51011E+01-6.12306E+00-1.13667E+01-1.48139E-14 1.72858E-15
 -1       286-4.75816E+00-2.01262E+01-7.46772E+00-1.37942E+01-1.59790E-14 2.22237E-15
 -1       287-3.35733E+00-2.61730E+01-8.86280E+00-1.60082E+01-4.12708E-15 1.38961E-14
 -1       288-9.68786E-01-3.32212E+01-1.02624E+01-1.76902E+01-6.75478E-15 2.26398E-14
 -1       289 2.42011E+00-4.10768E+01-1.16045E+01-1.84627E+01-1.10052E-14 1.41780E-14
 -1       290 6.63682E+00-4.93240E+01-1.28162E+01-1.79757E+01 3.00378E-14-1.38877E-14
 -1       291 1.13017E+01-5.73430E+01-1.38253E+01-1.60412E+01-1.09867E-14-2.43354E-15
 -1       292 1.58893E+01-6.44322E+01-1.45786E+01-1.27735E+01-8.59620E-15-1.80016E-14
 -1       293 1.98715E+01-7.00139E+01-1.50610E+01-8.65631E+00 3.57013E-15 1.79509E-15
 -1       294 2.28834E+01-7.38135E+01-1.52995E+01-4.48878E+00-9.76357E-16 5.19984E-15
 -1       295 2.47849E+01-7.59303E+01-1.53655E+01-1.17412E+00 4.19229E-15 1.76999E-16
 -1       296-8.87557E-01-1.33731E+00-6.67475E-01-1.10442E+00-1.96594E-15 6.85712E-15
 -1       297-1.67695E+00-2.94642E+00-1.38707E+00-2.32505E+00-8.52738E-16 2.22612E-14
 -1       298-2.39944E+00-4.93387E+00-2.20016E+00-3.72819E+00-3.81311E-15-4.16360E-15
 -1       299-2.97333E+00-7.35827E+00-3.09982E+00-5.31970E+00-5.93258E-16 8.25579E-15
 -1       300-3.31503E+00-1.03312E+01-4.09449E+00-7.08514E+00-9.91835E-15 4.33309E-15
 -1       301-3.30946E+00-1.39742E+01-5.18619E+00-8.98285E+00-5.08262E-15 5.50762E-15
 -1       302-2.81541E+00-1.84119E+01-6.36995E+00-1.09271E+01-1.53580E-15 2.68284E-15
 -1       303-1.67866E+00-2.37507E+01-7.63152E+00-1.27702E+01-2.13587E-14-2.01703E-15
 -1       304 2.40098E-01-3.00412E+01-8.94440E+00-1.42897E+01-1.03016E-15-2.42790E-15
 -1       305 3.01843E+00-3.72239E+01-1.02675E+01-1.51931E+01 8.83987E-15 7.23647E-15
 -1       306 6.61149E+00-4.50683E+01-1.15452E+01-1.51600E+01 1.08822E-14 8.23101E-15
 -1       307 1.07991E+01-5.31354E+01-1.27118E+01-1.39344E+01 9.27823E-15 1.16999E-14
 -1       308 1.51797E+01-6.08075E+01-1.37022E+01-1.14624E+01-8.26929E-16 1.58666E-14
 -1       309 1.92434E+01-6.74132E+01-1.44679E+01-8.02253E+00 1.62355E-15-1.25987E-14
 -1       310 2.25207E+01-7.24032E+01-1.49844E+01-4.27721E+00 1.57048E-14 4.57091E-15
 -1       311 2.46747E+01-7.55023E+01-1.52699E+01-1.13795E+00 5.90445E-14-1.09453E-15
 -1       312-5.59573E-01-1.34753E+00-5.72140E-01-8.82220E-01-4.94166E-16 3.98670E-15
 -1       313-1.03877E+00-2.91710E+00-1.18681E+00-1.83229E+00 1.15099E-15 5.09649E-15
 -1       314-1.46121E+00-4.81972E+00-1.88440E+00-2.91184E+00-4.23992E-15-7.46741E-15
 -1       315-1.76184E+00-7.10029E+00-2.65889E+00-4.12936E+00 3.72835E-15-2.62034E-15
 -1       316-1.88386E+00-9.85063E+00-3.52081E+00-5.47710E+00-1.02080E-14 3.20240E-15
 -1       317-1.74526E+00-1.31742E+01-4.47664E+00-6.93065E+00 7.30478E-15 1.12412E-15
 -1       318-1.24093E+00-1.71833E+01-5.52859E+00-8.43760E+00 7.13559E-15-2.03792E-14
 -1       319-2.47782E-01-2.19884E+01-6.67293E+00-9.90370E+00 1.50279E-14 9.55247E-15
 -1       320 1.36113E+00-2.76750E+01-7.89732E+00-1.11791E+01 8.31713E-15-3.17646E-15
 -1       321 3.68803E+00-3.42650E+01-9.17776E+00-1.20518E+01-4.27947E-15-7.04852E-15
 -1       322 6.76453E+00-4.16620E+01-1.04759E+01-1.22614E+01 2.11147E-14-5.87155E-15
 -1       323 1.04947E+01-4.95931E+01-1.17388E+01-1.15526E+01 1.37758E-14-1.03570E-14
 -1       324 1.46104E+01-5.75755E+01-1.29019E+01-9.78002E+00 1.03851E-14 4.71401E-15
 -1       325 1.86753E+01-6.49491E+01-1.38978E+01-7.05370E+00 1.99212E-15-2.67187E-15
 -1       326 2.21718E+01-7.09836E+01-1.46625E+01-3.86355E+00-1.00824E-15-2.56252E-15
 -1       327 2.45809E+01-7.50431E+01-1.51600E+01-1.05636E+00-7.98424E-14-3.86916E-15
 -1       328-3.15114E-01-1.36178E+00-5.03076E-01-6.70641E-01 2.70434E-15-8.45652E-15
 -1       329-5.66941E-01-2.90392E+00-1.04129E+00-1.37543E+00-1.18918E-15 2.37586E-14
 -1       330-7.69086E-01-4.74634E+00-1.65472E+00-2.16816E+00-5.66949E-15-1.64384E-14
 -1       331-8.64215E-01-6.92549E+00-2.33710E+00-3.05798E+00-9.80323E-16 4.74406E-15
 -1       332-8.13161E-01-9.51898E+00-3.10000E+00-4.04092E+00 5.59999E-15-1.95726E-15
 -1       333-5.56430E-01-1.26165E+01-3.95249E+00-5.10265E+00-4.29970E-15 3.80600E-14
 -1       334-1.50945E-02-1.63189E+01-4.90123E+00-6.21157E+00-4.07542E-16 2.51308E-14
 -1       335 9.07892E-01-2.07336E+01-5.94935E+00-7.30911E+00 1.00368E-15 1.37452E-14
 -1       336 2.32152E+00-2.59611E+01-7.09441E+00-8.29859E+00 2.33094E-15-1.82972E-14
 -1       337 4.33108E+00-3.20694E+01-8.32531E+00-9.03576E+00 3.46850E-15 1.08507E-14
 -1       338 7.00766E+00-3.90510E+01-9.61862E+00-9.32911E+00 7.39897E-15 7.12408E-15
 -1       339 1.03403E+01-4.67632E+01-1.09349E+01-8.96451E+00 3.80372E-15-1.96506E-15
 -1       340 1.41781E+01-5.48625E+01-1.22164E+01-7.77348E+00-6.86945E-16-1.57313E-16
 -1       341 1.81852E+01-6.27627E+01-1.33879E+01-5.75563E+00 1.34793E-14-2.52624E-14
 -1       342 2.18485E+01-6.96486E+01-1.43582E+01-3.22988E+00-1.82416E-14-1.08043E-15
 -1       343 2.45126E+01-7.45900E+01-1.50444E+01-9.14639E-01 2.62637E-14-2.67015E-15
 -1       344-1.40764E-01-1.38029E+00-4.56324E-01-4.61753E-01-3.07766E-16-5.59096E-14
 -1       345-2.32214E-01-2.90440E+00-9.41014E-01-9.35145E-01 3.69057E-16-1.40975E-14
 -1       346-2.81571E-01-4.70598E+00-1.49634E+00-1.46317E+00-1.37897E-15-2.06704E-14
 -1       347-2.31609E-01-6.81694E+00-2.11472E+00-2.05350E+00-8.42574E-16-8.63961E-15
 -1       348-5.41561E-02-9.30462E+00-2.80792E+00-2.70467E+00 3.69251E-15 2.46359E-14
 -1       349 2.95460E-01-1.22488E+01-3.58651E+00-3.40850E+00-1.89706E-15-1.88098E-14
 -1       350 8.78329E-01-1.57415E+01-4.45980E+00-4.14688E+00 3.06859E-15-1.50737E-14
 -1       351 1.77223E+00-1.98852E+01-5.43524E+00-4.88570E+00 1.25556E-15 5.91576E-14
 -1       352 3.06963E+00-2.47855E+01-6.51689E+00-5.56726E+00-6.64373E-15 2.25876E-14
 -1       353 4.86995E+00-3.05347E+01-7.70269E+00-6.10238E+00 4.62376E-16 3.02269E-14
 -1       354 7.26094E+00-3.71798E+01-8.98051E+00-6.36623E+00-2.29771E-14 7.08571E-15
 -1       355 1.02831E+01-4.46684E+01-1.03227E+01-6.20695E+00-8.95739E-15-1.11368E-14
 -1       356 1.38732E+01-5.27723E+01-1.16798E+01-5.48280E+00 9.53156E-16 1.55276E-14
 -1       357 1.77940E+01-6.09967E+01-1.29745E+01-4.14572E+00 3.94346E-15-2.16052E-14
 -1       358 2.15697E+01-6.85120E+01-1.41003E+01-2.37229E+00-2.71550E-15 3.15977E-16
 -1       359 2.44731E+01-7.41920E+01-1.49366E+01-6.97060E-01 6.64058E-14-5.12305E-16
 -1       360-2.62172E-02-1.40366E+00-4.28968E-01-2.43973E-01 1.67094E-17-1.32504E-14
 -1       361-2.15741E-02-2.92335E+00-8.83503E-01-4.90588E-01 8.97598E-16 3.99432E-15
 -1       362 2.07892E-02-4.70082E+00-1.40407E+00-7.62875E-01-9.66971E-16-1.38931E-14
 -1       363 1.58301E-01-6.77095E+00-1.98393E+00-1.06510E+00 3.75589E-16 6.04290E-15
 -1       364 4.14327E-01-9.19530E+00-2.63455E+00-1.39807E+00-7.60052E-17 5.38924E-14
 -1       365 8.24758E-01-1.20473E+01-3.36719E+00-1.75822E+00-1.57371E-15-3.17073E-14
 -1       366 1.43969E+00-1.54128E+01-4.19266E+00-2.13711E+00-1.24366E-15 5.06948E-15
 -1       367 2.32459E+00-1.93901E+01-5.12084E+00-2.51867E+00-4.66100E-15 1.91627E-14
 -1       368 3.56022E+00-2.40857E+01-6.15952E+00-2.87542E+00-2.70927E-15-1.29927E-14
 -1       369 5.23909E+00-2.96033E+01-7.31218E+00-3.16400E+00-4.10155E-15 3.68844E-15
 -1       370 7.45403E+00-3.60192E+01-8.57395E+00-3.32181E+00 3.29830E-15 2.47355E-15
 -1       371 1.02722E+01-4.33352E+01-9.92546E+00-3.26879E+00 3.88590E-15 1.61108E-15
 -1       372 1.36846E+01-5.14004E+01-1.13242E+01-2.92294E+00-3.68059E-15-1.14270E-14
 -1       373 1.75266E+01-5.97942E+01-1.26934E+01-2.24192E+00 4.07064E-15-1.74547E-15
 -1       374 2.13647E+01-6.77053E+01-1.39193E+01-1.29979E+00-2.51739E-15-1.86376E-15
 -1       375 2.44570E+01-7.39050E+01-1.48552E+01-3.92969E-01 1.44186E-14 6.68537E-16
 -1       376 3.22426E-01 1.88780E-02 1.02391E-01-4.46300E-02-1.05568E-12-7.27295E-14
 -1       377-1.39534E+03-1.79859E+03-9.67115E+02 3.41708E+02-8.47033E-14 3.37682E-15
 -1       378 1.07968E+02-9.25312E+00 2.95801E+01-1.99969E-03-7.66812E-13 1.63634E-15
 -1       379-4.25300E-01-1.02350E+01-3.19837E+00-1.14447E-01-7.76609E-13 1.49927E-13
 -1       381 2.01352E-01 2.51959E-02 6.79643E-02-1.83132E-02 4.42186E-13 6.82529E-14
 -1       382-2.58838E+00 2.15021E-02-7.70081E-01 1.74777E-02-2.29721E-12 1.22449E-13
 -1       383-7.30466E+00 2.13604E-02-2.18514E+00 2.94267E-02-1.62218E-13-1.74202E-14
 -1       384-1.30681E+01 1.65289E-02-3.91593E+00 2.83188E-02 8.71876E-13-8.22187E-14
 -1       385-1.93695E+01 1.38475E-02-5.80772E+00 2.36473E-02 1.01624E-12 2.74751E-13
 -1       386-2.58315E+01 1.03373E-02-7.74818E+00 1.54325E-02 3.84484E-13-3.65434E-14
 -1       387-3.21572E+01 6.86934E-03-9.64793E+00 4.56668E-03 8.43920E-13 3.50836E-14
 -1       388-3.81222E+01 3.51742E-03-1.14396E+01-8.70992E-03 9.01403E-14-2.41874E-13
 -1       389-4.35708E+01 7.04436E-04-1.30762E+01-2.43512E-02-2.31844E-13-1.72101E-13
 -1       390-4.84107E+01-1.13181E-03-1.45300E+01-4.27878E-02 4.68003E-13 7.96133E-14
 -1       391-5.26034E+01-1.49205E-03-1.57890E+01-6.51624E-02-4.95456E-13 1.50310E-13
 -1       392-5.61523E+01 7.16683E-04-1.68541E+01-9.36494E-02-2.89634E-13 4.37227E-14
 -1       393-5.90907E+01 5.99152E-03-1.77350E+01-1.32511E-01 6.36107E-13-1.61819E-13
 -1       394-6.14688E+01 2.12545E-02-1.84446E+01-1.88407E-01 6.43392E-13-1.45363E-14
 -1       395-6.33453E+01 3.71751E-02-1.90034E+01-2.77820E-01-5.77521E-13-1.07172E-13
 -1       396-6.47698E+01 1.33738E-01-1.94023E+01-4.20145E-01-8.80754E-13 4.01048E-14
 -1       397-6.57793E+01 8.44912E-02-1.97203E+01-7.03317E-01 3.18532E-13-4.66979E-14
 -1       398-6.63468E+01 1.13466E+00-1.95758E+01-1.19797E+00 4.41097E-13-1.41217E-14
 -1       399-6.55021E+01-9.00015E-01-1.99321E+01-2.35726E+00 2.34596E-13 1.05777E-14
 -1       400-6.48900E+01 1.68798E+01-1.44169E+01-4.56636E+00-4.93554E-13 2.49392E-14
 -1       401 5.49107E+00-9.30099E-01 1.41354E+00-1.71487E+01-4.87496E-13 2.85369E-14
 -1       402-2.87377E+02 7.96112E+01-6.29383E+01 1.14532E+02-4.26566E-13-2.08740E-14
 -1       403-3.69553E+01-8.60047E+02-2.71184E+02 5.59975E+01-1.09139E-13 1.00588E-15
 -1       404-7.50156E+01-4.30029E+02-1.51946E+02 6.58202E+00 2.76560E-14 1.18331E-15
 -1       405-4.10095E+01-2.91468E+02-9.99521E+01 5.06730E+00-1.34337E-13 1.20987E-15
 -1       406-4.51247E+01-2.12448E+02-7.73784E+01 9.44851E-01-2.40845E-13 3.12533E-16
 -1       407-3.98030E+01-1.63221E+02-6.09692E+01 5.37365E-01 3.28683E-13-2.61336E-16
 -1       408-3.45333E+01-1.29180E+02-4.91524E+01 2.08817E-01 5.11595E-14-1.23045E-15
 -1       409-2.81401E+01-1.04377E+02-3.97801E+01 1.15979E-01 1.04736E-12 1.70671E-16
 -1       410-2.11543E+01-8.53885E+01-3.19798E+01 6.24723E-02 3.68293E-13-1.49268E-16
 -1       411-1.35081E+01-7.02687E+01-2.51448E+01 3.75570E-02 2.30089E-13 8.28665E-17
 -1       412-5.15665E+00-5.78088E+01-1.88981E+01 2.33717E-02-1.51893E-14 4.10703E-16
 -1       413 4.04473E+00-4.72357E+01-1.29639E+01 1.52954E-02-2.83305E-13-1.06816E-16
 -1       414 1.43251E+01-3.80465E+01-7.12221E+00 1.03686E-02 1.06752E-12 1.85753E-16
 -1       415 2.60491E+01-2.99295E+01-1.17026E+00 7.26118E-03-5.56860E-14 5.79566E-16
 -1       416 3.97975E+01-2.27383E+01 5.10989E+00 5.12746E-03 4.07949E-13-8.50019E-16
 -1       417 5.65290E+01-1.65162E+01 1.19922E+01 3.55141E-03 5.26330E-13-5.45903E-16
 -1       418 7.79633E+01-1.15768E+01 1.98969E+01 1.10447E-03-1.04297E-12 1.14938E-15
 -1       419 1.07850E+02-9.25591E+00 2.95441E+01 3.86252E-02-4.43480E-13 1.67035E-15
 -1       420 1.07447E+02-9.26629E+00 2.94202E+01 8.09712E-02 4.03908E-14 2.27407E-15
 -1       421 1.06677E+02-9.28717E+00 2.91833E+01 1.26304E-01-4.12964E-13-3.45991E-15
 -1       422 1.05447E+02-9.32077E+00 2.88051E+01 1.73839E-01 5.26606E-13-2.81817E-14
 -1       423 1.03657E+02-9.36916E+00 2.82547E+01 2.22198E-01 4.52056E-13-9.03847E-16
 -1       424 1.01204E+02-9.43373E+00 2.75007E+01 2.69445E-01 5.66346E-13-4.81652E-14
 -1       425 9.79872E+01-9.51467E+00 2.65132E+01 3.13096E-01 3.67271E-13-3.07203E-14
 -1       426 9.39254E+01-9.61038E+00 2.52681E+01 3.50259E-01 5.07363E-13 5.49370E-15
 -1       427 8.89674E+01-9.71702E+00 2.37513E+01 3.77951E-01 2.02893E-13 7.44408E-15
 -1       428 8.31085E+01-9.82841E+00 2.19630E+01 3.93584E-01-9.12294E-13-1.68565E-13
 -1       429 7.64025E+01-9.93658E+00 1.99218E+01 3.95567E-01-8.28499E-13-8.01356E-14
 -1       430 6.89663E+01-1.00330E+01 1.76651E+01 3.83845E-01-4.96700E-13 6.33805E-14
 -1       431 6.09740E+01-1.01104E+01 1.52472E+01 3.60156E-01-1.20926E-12-2.19898E-14
 -1       432 5.26394E+01-1.01646E+01 1.27333E+01 3.27808E-01 3.32624E-13-1.36600E-13
 -1       433 4.41904E+01-1.01956E+01 1.01918E+01 2.90945E-01 3.31872E-13-1.58744E-13
 -1       434 3.58451E+01-1.02072E+01 7.68671E+00 2.53498E-01 5.92085E-13-2.20060E-14
 -1       435 2.77976E+01-1.02059E+01 5.27444E+00 2.18224E-01 4.78344E-13-1.12700E-13
 -1       436 2.02223E+01-1.01995E+01 3.00496E+00 1.86007E-01-8.93210E-14 7.49406E-14
 -1       437 1.32984E+01-1.01920E+01 9.30817E-01 1.55846E-01-1.81368E-13-3.83158E-14
 -1       438 7.25399E+00-1.01977E+01-8.83707E-01 1.22768E-01-5.10956E-13-8.82481E-15
 -1       439 2.45249E+00-1.01884E+01-2.32113E+00 7.21970E-02-7.55069E-13 2.95505E-14
 -1       440-3.03392E-01-1.02287E+01-3.15989E+00-4.37060E-02-1.26390E-12 3.12448E-14
 -1       441-3.01943E-01-1.03932E+01-3.20883E+00-2.03420E-01 1.61396E-12-5.23552E-14
 -1       442-3.18330E-01-1.00210E+01-3.10207E+00-1.74961E-02-1.68744E-12-1.43540E-14
 -1       443-2.57573E-01-8.87136E+00-2.73889E+00 9.87000E-02-4.55900E-13 1.73489E-13
 -1       444-1.55734E-01-7.31861E+00-2.24245E+00 1.59372E-01 1.96158E-12 1.77517E-14
 -1       445-4.42833E-02-5.66630E+00-1.71326E+00 1.82054E-01 1.19864E-12 3.38838E-14
 -1       446 6.03001E-02-4.10687E+00-1.21402E+00 1.77978E-01 8.65858E-13 9.43892E-15
 -1       447 1.49941E-01-2.74881E+00-7.79681E-01 1.54142E-01-1.58868E-12 4.87324E-16
 -1       448 2.20455E-01-1.64331E+00-4.26865E-01 1.15227E-01-7.02457E-14-5.23727E-14
 -1       449 2.69626E-01-8.03470E-01-1.60155E-01 6.48818E-02 2.95024E-13-2.47726E-15
 -1       450 2.96591E-01-2.17393E-01 2.37594E-02 6.62577E-03-5.33323E-13 4.37301E-14
 -1       451 3.01818E-01 1.42947E-01 1.33430E-01-5.54945E-02-2.53354E-12-1.40973E-14
 -1       452 2.87366E-01 3.15764E-01 1.80939E-01-1.16439E-01-1.87350E-13-3.69598E-14
 -1       453 2.57328E-01 3.45390E-01 1.80815E-01-1.69791E-01-9.18665E-13-3.60810E-13
 -1       454 2.18798E-01 2.79441E-01 1.49471E-01-2.07020E-01-1.04279E-12 1.65759E-13
 -1       455 1.85009E-01 1.66906E-01 1.05574E-01-2.14508E-01-1.78621E-12 5.11611E-14
 -1       456 1.86522E-01 5.66741E-02 7.29586E-02-1.63343E-01-2.15817E-13 1.79926E-13
 -1       457-1.58031E-01 1.25599E-02-4.36415E-02 1.55759E-01 1.54650E-12 6.73779E-14
 -1       458-4.60440E-01-4.40310E-02-1.51343E-01 3.68229E-01-1.23704E-12-1.02686E-14
 -1       459-6.93302E-01-1.63766E-01-2.57125E-01 6.34506E-01 2.81339E-13 1.13602E-13
 -1       460-8.50667E-01-3.58188E-01-3.62665E-01 9.47880E-01-1.50011E-12 2.09131E-15
 -1       461-9.33449E-01-6.33189E-01-4.70007E-01 1.30571E+00-1.16450E-12-2.61690E-14
 -1       462-9.45652E-01-9.94475E-01-5.82064E-01 1.70071E+00-4.78297E-13-7.19811E-15
 -1       463-8.93125E-01-1.44934E+00-7.02780E-01 2.11851E+00 1.05695E-12 4.78010E-14
 -1       464-7.82519E-01-2.00676E+00-8.36842E-01 2.53673E+00 1.12359E-12-8.05123E-15
 -1       465-6.20488E-01-2.67616E+00-9.89077E-01 2.92442E+00-1.01983E-13-1.14250E-14
 -1       466-4.13272E-01-3.46500E+00-1.16359E+00 3.24175E+00-1.57470E-12 1.04598E-15
 -1       467-1.66915E-01-4.37495E+00-1.36270E+00 3.44009E+00-3.90673E-13 9.41241E-15
 -1       468 1.11393E-01-5.39681E+00-1.58580E+00 3.46317E+00-1.18537E-12-2.68447E-14
 -1       469 4.09560E-01-6.50464E+00-1.82873E+00 3.25107E+00 1.55780E-12-6.43476E-14
 -1       470 7.00195E-01-7.65021E+00-2.08524E+00 2.75157E+00-1.75626E-13 3.39679E-14
 -1       471 9.10207E-01-8.75798E+00-2.35459E+00 1.94913E+00-8.85821E-13 8.81862E-14
 -1       472 8.20189E-01-9.71315E+00-2.66817E+00 9.26544E-01 1.05145E-12 1.18025E-13
 -1       473-2.89252E+00 2.12102E-02-8.61418E-01 5.64354E-01 1.13953E-12-1.61776E-14
 -1       474-3.15157E+00-3.08329E-02-9.54758E-01 1.12590E+00 7.57952E-13 9.28879E-15
 -1       475-3.33982E+00-1.45305E-01-1.04559E+00 1.70901E+00 5.67386E-13 9.41313E-14
 -1       476-3.43930E+00-3.34833E-01-1.13231E+00 2.31264E+00 1.00958E-12-3.94738E-15
 -1       477-3.43339E+00-6.05948E-01-1.21190E+00 2.93304E+00-5.63531E-13-2.65204E-14
 -1       478-3.30697E+00-9.65297E-01-1.28180E+00 3.56166E+00 6.71693E-13-4.06498E-14
 -1       479-3.04750E+00-1.42000E+00-1.34040E+00 4.18420E+00 7.15967E-14 7.35262E-14
 -1       480-2.64597E+00-1.97713E+00-1.38713E+00 4.77872E+00-6.49936E-13-3.80414E-14
 -1       481-2.09780E+00-2.64314E+00-1.42252E+00 5.31352E+00-1.40255E-13-1.37075E-14
 -1       482-1.40403E+00-3.42289E+00-1.44836E+00 5.74506E+00 1.63785E-12 1.12950E-15
 -1       483-5.73653E-01-4.31820E+00-1.46788E+00 6.01659E+00-3.22618E-13-1.77250E-15
 -1       484 3.71398E-01-5.32509E+00-1.48648E+00 6.05840E+00-4.84308E-13 7.87660E-15
 -1       485 1.38563E+00-6.42888E+00-1.51337E+00 5.79078E+00-1.09248E-12-5.85803E-14
 -1       486 2.37774E+00-7.59578E+00-1.56583E+00 5.13151E+00 4.67827E-13-7.37791E-14
 -1       487 3.16767E+00-8.75498E+00-1.67662E+00 4.00879E+00 6.99149E-14-1.63706E-13
 -1       488 3.40845E+00-9.74495E+00-1.90136E+00 2.36865E+00 1.50203E-12-8.54490E-14
 -1       489-7.38067E+00 1.57517E-02-2.20963E+00 8.37301E-01-1.21275E-12 8.24214E-14
 -1       490-7.38776E+00-2.62293E-02-2.22437E+00 1.66835E+00-1.79987E-13 2.77521E-14
 -1       491-7.30847E+00-1.27847E-01-2.23109E+00 2.52116E+00 1.24110E-12-1.16975E-13
 -1       492-7.12312E+00-2.97272E-01-2.22634E+00 3.39262E+00 2.89151E-13-8.65988E-14
 -1       493-6.80946E+00-5.42450E-01-2.20584E+00 4.27326E+00-1.20432E-12 8.15993E-15
 -1       494-6.34461E+00-8.73453E-01-2.16573E+00 5.14887E+00 8.38960E-13-4.15365E-14
 -1       495-5.70602E+00-1.30143E+00-2.10259E+00 5.99977E+00-5.50848E-13 3.95327E-14
 -1       496-4.87276E+00-1.83767E+00-2.01354E+00 6.79888E+00 1.12146E-12-3.70553E-14
 -1       497-3.82753E+00-2.49260E+00-1.89652E+00 7.50915E+00-5.31346E-13-1.08557E-14
 -1       498-2.55972E+00-3.27448E+00-1.75080E+00 8.08068E+00-4.65361E-13 2.00562E-14
 -1       499-1.07038E+00-4.18724E+00-1.57788E+00 8.44764E+00-1.18439E-12 8.67996E-15
 -1       500 6.19432E-01-5.22678E+00-1.38285E+00 8.52564E+00 1.71716E-13-1.69033E-14
 -1       501 2.45472E+00-6.37433E+00-1.17657E+00 8.21021E+00-5.69168E-13-3.67687E-14
 -1       502 4.32288E+00-7.58487E+00-9.79308E-01 7.37694E+00 3.75764E-14-7.03448E-15
 -1       503 6.01647E+00-8.76713E+00-8.25900E-01 5.88393E+00-6.53094E-13-1.40195E-15
 -1       504 7.18184E+00-9.74692E+00-7.70186E-01 3.56611E+00 3.02084E-13-9.78472E-14
 -1       505-1.28489E+01 1.25415E-02-3.85137E+00 1.04556E+00-3.72540E-13 3.15154E-14
 -1       506-1.25401E+01-2.45885E-02-3.76986E+00 2.09135E+00 2.65961E-13 1.03943E-13
 -1       507-1.21205E+01-1.15717E-01-3.67135E+00 3.16721E+00 4.77881E-13-6.79074E-14
 -1       508-1.15691E+01-2.66964E-01-3.55133E+00 4.26694E+00 3.51254E-13 3.77968E-14
 -1       509-1.08600E+01-4.87551E-01-3.40480E+00 5.37777E+00 9.23995E-13 2.86529E-15
 -1       510-9.96517E+00-7.89514E-01-3.22699E+00 6.48205E+00 1.16936E-12-5.94519E-14
 -1       511-8.85514E+00-1.18658E+00-3.01315E+00 7.55581E+00-8.17147E-13-2.87281E-15
 -1       512-7.49966E+00-1.69341E+00-2.75863E+00 8.56644E+00 1.20057E-12 8.53770E-14
 -1       513-5.86999E+00-2.32455E+00-2.45914E+00 9.46967E+00-5.24599E-14 2.09230E-14
 -1       514-3.94255E+00-3.09262E+00-2.11141E+00 1.02058E+01-6.23056E-13 2.20576E-16
 -1       515-1.70527E+00-4.00545E+00-1.71414E+00 1.06952E+01 4.67934E-13 9.07342E-15
 -1       516 8.32188E-01-5.06109E+00-1.26967E+00 1.08331E+01 1.03799E-12 2.23700E-14
 -1       517 3.62210E+00-6.23993E+00-7.86402E-01 1.04852E+01 1.28415E-13 1.11790E-14
 -1       518 6.55321E+00-7.49184E+00-2.82676E-01 9.48258E+00-2.16523E-13-1.06493E-13
 -1       519 9.41329E+00-8.71717E+00 2.07742E-01 7.61991E+00 4.78002E-13-9.36622E-14
 -1       520 1.18438E+01-9.73171E+00 6.32540E-01 4.64861E+00-5.91980E-13 2.24327E-14
 -1       521-1.88328E+01 9.69989E-03-5.64790E+00 1.20403E+00-1.09654E-13 6.36141E-14
 -1       522-1.81863E+01-2.19360E-02-5.46342E+00 2.42013E+00-8.92786E-13-7.78501E-14
 -1       523-1.74033E+01-1.00212E-01-5.25200E+00 3.67769E+00-4.69205E-14-1.52902E-13
 -1       524-1.64616E+01-2.30612E-01-5.00857E+00 4.96806E+00-1.52417E-14-4.16438E-14
 -1       525-1.53311E+01-4.23579E-01-4.72734E+00 6.27742E+00 8.08508E-13-6.40832E-14
 -1       526-1.39784E+01-6.92785E-01-4.40230E+00 7.58667E+00-1.13871E-14-6.06346E-14
 -1       527-1.23656E+01-1.05435E+00-4.02700E+00 8.86916E+00-7.32516E-13-7.74263E-14
 -1       528-1.04520E+01-1.52626E+00-3.59454E+00 1.00877E+01 8.96835E-13 3.21175E-15
 -1       529-8.19518E+00-2.12720E+00-3.09785E+00 1.11907E+01-3.10166E-13 9.29080E-15
 -1       530-5.55570E+00-2.87438E+00-2.53024E+00 1.21074E+01 1.81747E-13 6.96907E-16
 -1       531-2.50399E+00-3.77985E+00-1.88645E+00 1.27416E+01 2.18578E-13-3.70913E-15
 -1       532 9.67853E-01-4.84477E+00-1.16446E+00 1.29656E+01-1.13529E-13 2.01104E-14
 -1       533 4.82775E+00-6.05055E+00-3.68311E-01 1.26121E+01 5.80711E-14 4.78331E-15
 -1       534 8.97559E+00-7.34553E+00 4.87470E-01 1.14675E+01-4.38158E-14-3.14406E-14
 -1       535 1.32013E+01-8.62602E+00 1.37098E+00 9.26649E+00-3.26100E-15-3.02605E-14
 -1       536 1.71340E+01-9.70129E+00 2.22812E+00 5.68260E+00-2.30761E-13-3.20985E-14
 -1       537-2.49832E+01 7.42341E-03-7.49445E+00 1.31532E+00 8.96382E-13-1.99160E-14
 -1       538-2.40090E+01-1.63288E-02-7.20921E+00 2.65981E+00-8.08700E-13 1.62372E-14
 -1       539-2.28753E+01-7.78377E-02-6.88748E+00 4.06039E+00 5.44081E-14 1.53022E-13
 -1       540-2.15579E+01-1.83142E-01-6.52382E+00 5.50725E+00 5.90873E-13-5.24017E-14
 -1       541-2.00218E+01-3.44537E-01-6.11137E+00 6.98737E+00-8.82301E-13-6.60037E-14
 -1       542-1.82253E+01-5.78050E-01-5.64246E+00 8.48175E+00-8.92139E-14-4.24056E-14
 -1       543-1.61198E+01-9.03021E-01-5.10831E+00 9.96205E+00-2.90338E-14 1.30820E-14
 -1       544-1.36503E+01-1.34142E+00-4.49901E+00 1.13868E+01 3.37394E-13-3.38190E-14
 -1       545-1.07575E+01-1.91625E+00-3.80367E+00 1.26963E+01 3.10734E-13-2.61178E-14
 -1       546-7.38255E+00-2.64861E+00-3.01096E+00 1.38069E+01 4.08963E-13-7.31979E-15
 -1       547-3.47522E+00-3.55317E+00-2.11022E+00 1.46041E+01-3.12418E-13 3.97483E-15
 -1       548 9.92845E-01-4.63179E+00-1.09350E+00 1.49348E+01 3.12122E-13 2.69425E-15
 -1       549 6.00840E+00-5.86491E+00 4.11114E-02 1.45994E+01-6.54457E-13 3.13060E-15
 -1       550 1.14870E+01-7.19927E+00 1.28424E+00 1.33420E+01-7.44092E-13-3.67165E-14
 -1       551 1.72273E+01-8.53048E+00 2.60677E+00 1.08400E+01 5.80646E-13 8.72987E-14
 -1       552 2.28510E+01-9.66753E+00 3.95250E+00 6.68798E+00-9.09678E-14-1.77496E-13
 -1       553-3.10321E+01 6.01175E-03-9.31048E+00 1.38030E+00 2.10603E-13-2.34367E-14
 -1       554-2.97703E+01-7.37307E-03-8.93579E+00 2.81372E+00 1.00530E-12 1.44209E-13
 -1       555-2.83311E+01-4.90719E-02-8.51638E+00 4.32304E+00-2.93889E-13 1.48989E-13
 -1       556-2.66864E+01-1.27140E-01-8.04628E+00 5.89888E+00 9.71356E-13-4.47822E-14
 -1       557-2.47931E+01-2.57128E-01-7.51718E+00 7.53060E+00 6.15087E-13 1.53757E-14
 -1       558-2.25978E+01-4.59010E-01-6.91908E+00 9.19993E+00 7.58869E-13 6.62819E-14
 -1       559-2.00367E+01-7.56839E-01-6.24004E+00 1.08765E+01 2.16114E-13-3.31617E-14
 -1       560-1.70361E+01-1.17737E+00-5.46600E+00 1.25129E+01-2.38545E-13-1.77788E-14
 -1       561-1.35160E+01-1.74725E+00-4.58095E+00 1.40383E+01-4.87444E-13 1.50011E-15
 -1       562-9.39600E+00-2.48868E+00-3.56744E+00 1.53526E+01-1.03824E-12 6.16235E-15
 -1       563-4.60556E+00-3.41380E+00-2.40794E+00 1.63196E+01-6.71030E-13 2.55228E-15
 -1       564 9.02107E-01-4.51841E+00-1.08715E+00 1.67610E+01-3.04187E-13 2.21728E-14
 -1       565 7.13065E+00-5.77569E+00 4.04051E-01 1.64484E+01 9.14908E-14 2.71884E-15
 -1       566 1.40131E+01-7.12832E+00 2.06276E+00 1.50916E+01-2.68818E-14-8.02104E-14
 -1       567 2.13665E+01-8.47601E+00 3.86411E+00 1.23207E+01 2.30530E-13-3.69430E-14
 -1       568 2.88250E+01-9.64160E+00 5.75141E+00 7.65264E+00-2.62635E-13 5.87342E-14
 -1       569-3.67850E+01 5.77338E-03-1.10375E+01 1.40185E+00-6.16000E-13 1.55313E-13
 -1       570-3.53067E+01 4.48970E-03-1.05941E+01 2.89018E+00 6.29822E-13-1.60783E-13
 -1       571-3.36384E+01-1.68587E-02-1.00998E+01 4.48247E+00-4.43408E-13-2.78833E-14
 -1       572-3.17444E+01-7.06825E-02-9.54756E+00 6.17163E+00-1.46529E-13-9.13440E-14
 -1       573-2.95684E+01-1.78262E-01-8.92686E+00 7.95016E+00 7.11891E-13-6.27152E-15
 -1       574-2.70395E+01-3.66080E-01-8.22441E+00 9.79967E+00 1.48327E-13 3.08159E-14
 -1       575-2.40726E+01-6.64762E-01-7.42382E+00 1.16848E+01-3.32648E-13-1.12518E-15
 -1       576-2.05703E+01-1.10584E+00-6.50539E+00 1.35469E+01-2.83296E-13-1.77520E-14
 -1       577-1.64296E+01-1.71652E+00-5.44633E+00 1.52977E+01 1.10193E-13 1.66422E-14
 -1       578-1.15505E+01-2.51316E+00-4.22161E+00 1.68141E+01 8.16047E-15 3.25537E-15
 -1       579-5.84856E+00-3.49501E+00-2.80566E+00 1.79353E+01-2.29868E-15-7.15811E-15
 -1       580 7.31746E-01-4.64023E+00-1.17527E+00 1.84602E+01 7.14321E-13-2.37032E-14
 -1       581 8.20292E+00-5.90559E+00 6.86241E-01 1.81418E+01 2.13558E-13-3.23535E-14
 -1       582 1.65153E+01-7.22753E+00 2.78301E+00 1.66729E+01 3.67417E-14 3.81394E-14
 -1       583 2.55197E+01-8.51865E+00 5.09636E+00 1.36548E+01-3.40879E-13-3.67818E-14
 -1       584 3.48996E+01-9.63851E+00 7.57340E+00 8.53620E+00-3.47564E-14 8.47483E-14
 -1       585-4.21184E+01 6.95288E-03-1.26383E+01 1.38547E+00-9.18130E-13-9.77082E-14
 -1       586-4.05271E+01 1.81263E-02-1.21572E+01 2.90438E+00 7.95130E-13-6.04443E-14
 -1       587-3.87371E+01 1.34542E-02-1.16214E+01 4.56825E+00-1.42167E-13-4.77393E-14
 -1       588-3.66980E+01-2.76423E-02-1.10217E+01 6.37387E+00-4.27254E-13-6.70577E-14
 -1       589-3.43325E+01-1.36222E-01-1.03444E+01 8.31608E+00-5.96317E-13-6.08666E-14
 -1       590-3.15431E+01-3.48845E-01-9.57110E+00 1.03724E+01 3.00305E-13-2.67837E-14
 -1       591-2.82152E+01-7.04151E-01-8.67916E+00 1.24949E+01-1.18576E-13-2.19406E-14
 -1       592-2.42241E+01-1.23578E+00-7.64115E+00 1.46034E+01 1.13750E-13 1.33111E-14
 -1       593-1.94455E+01-1.96329E+00-6.42574E+00 1.65809E+01 1.86772E-14 3.01406E-14
 -1       594-1.37702E+01-2.88356E+00-4.99919E+00 1.82738E+01-5.05782E-13 7.73105E-15
 -1       595-7.11644E+00-3.96632E+00-3.32791E+00 1.94957E+01 3.67074E-13 4.63102E-15
 -1       596 5.62002E-01-5.15722E+00-1.38178E+00 2.00324E+01-5.52564E-13 1.92140E-14
 -1       597 9.27342E+00-6.38873E+00 8.61913E-01 1.96384E+01 2.72663E-13-4.30001E-14
 -1       598 1.89863E+01-7.59397E+00 3.41368E+00 1.80158E+01 7.84202E-14 2.45001E-15
 -1       599 2.96071E+01-8.71383E+00 6.26309E+00 1.47632E+01 3.55506E-14-2.85282E-15
 -1       600 4.09218E+01-9.67358E+00 9.36806E+00 9.27836E+00 3.45716E-13 2.16141E-14
 -1       601-4.69769E+01 9.77717E-03-1.40962E+01 1.33920E+00 2.02760E-13 1.10857E-14
 -1       602-4.54119E+01 3.17216E-02-1.36198E+01 2.87926E+00-1.67881E-14-4.38549E-14
 -1       603-4.36396E+01 3.35323E-02-1.30872E+01 4.62530E+00 3.46481E-13 5.44144E-15
 -1       604-4.15825E+01-1.97787E-02-1.24857E+01 6.57839E+00-3.43556E-13 8.06379E-14
 -1       605-3.91290E+01-1.75274E-01-1.17960E+01 8.73142E+00-4.47906E-13-2.68444E-14
 -1       606-3.61423E+01-4.83634E-01-1.09923E+01 1.10479E+01 1.75583E-13-4.55760E-14
 -1       607-3.24706E+01-9.90290E-01-1.00425E+01 1.34524E+01 2.13615E-13 4.67255E-16
 -1       608-2.79615E+01-1.72186E+00-8.90898E+00 1.58256E+01 3.57303E-13 1.91463E-14
 -1       609-2.24825E+01-2.67275E+00-7.55037E+00 1.80072E+01-3.36367E-13 2.62216E-14
 -1       610-1.59383E+01-3.79766E+00-5.92444E+00 1.98074E+01 7.77183E-13 5.20101E-15
 -1       611-8.27847E+00-5.01560E+00-3.99183E+00 2.10229E+01 7.18717E-13-4.33732E-15
 -1       612 5.08689E-01-6.22724E+00-1.71927E+00 2.14484E+01 4.90679E-13 1.75930E-14
 -1       613 1.04155E+01-7.34159E+00 9.18153E-01 2.08705E+01 6.36756E-13-2.31213E-14
 -1       614 2.14357E+01-8.30214E+00 3.93537E+00 1.90322E+01 7.59859E-13 4.46997E-14
 -1       615 3.35617E+01-9.10074E+00 7.33240E+00 1.55576E+01 3.62364E-13-1.27917E-14
 -1       616 4.67424E+01-9.75812E+00 1.10872E+01 9.81265E+00 8.22974E-14 5.77648E-14
 -1       617-5.13679E+01 1.46129E-02-1.54132E+01 1.27332E+00-3.22015E-14 1.54749E-14
 -1       618-5.00117E+01 4.24590E-02-1.49977E+01 2.84691E+00-4.48309E-13 3.34436E-14
 -1       619-4.84311E+01 3.00493E-02-1.45269E+01 4.71832E+00 5.85198E-13-2.83049E-14
 -1       620-4.65009E+01-8.24300E-02-1.39813E+01 6.88995E+00 4.89162E-13-1.03053E-13
 -1       621-4.40543E+01-3.66641E-01-1.33322E+01 9.34110E+00-6.66627E-14-3.85191E-14
 -1       622-4.08991E+01-8.89565E-01-1.25422E+01 1.20004E+01 4.72657E-14 4.67061E-14
 -1       623-3.68415E+01-1.69419E+00-1.15660E+01 1.47384E+01 8.67593E-14 3.06681E-14
 -1       624-3.17156E+01-2.77761E+00-1.03529E+01 1.73717E+01-1.01238E-13-7.55416E-15
 -1       625-2.54116E+01-4.07739E+00-8.85129E+00 1.96840E+01-2.09270E-13-8.52367E-16
 -1       626-1.78899E+01-5.47517E+00-7.01385E+00 2.14558E+01-9.75836E-14-5.74570E-15
 -1       627-9.17027E+00-6.82087E+00-4.80150E+00 2.24935E+01-5.06678E-13-2.89814E-15
 -1       628 7.02179E-01-7.97135E+00-2.18494E+00 2.26386E+01-5.33529E-13-1.47340E-14
 -1       629 1.17034E+01-8.83083E+00 8.57247E-01 2.17470E+01-4.48235E-14-2.72323E-15
 -1       630 2.38719E+01-9.38038E+00 4.34212E+00 1.96313E+01-7.70415E-13-5.63602E-14
 -1       631 3.73219E+01-9.68906E+00 8.28295E+00 1.59597E+01-1.03489E-14 1.20204E-14
 -1       632 5.22220E+01-9.89547E+00 1.26883E+01 1.00829E+01 5.60890E-14 3.76385E-14
 -1       633-5.53576E+01 2.19360E-02-1.66091E+01 1.20063E+00-5.72953E-14 4.91507E-14
 -1       634-5.44499E+01 4.56908E-02-1.63294E+01 2.85261E+00 1.89308E-13 6.16275E-16
 -1       635-5.32750E+01-2.03865E-02-1.59965E+01 4.94163E+00 7.06669E-13-5.33618E-14
 -1       636-5.16248E+01-2.77197E-01-1.55783E+01 7.46006E+00-1.00623E-12-1.59984E-14
 -1       637-4.92468E+01-8.30804E-01-1.50307E+01 1.03464E+01-2.05404E-13-1.04487E-14
 -1       638-4.58781E+01-1.75772E+00-1.42977E+01 1.34546E+01-7.92538E-14-7.78999E-15
 -1       639-4.12939E+01-3.07002E+00-1.33157E+01 1.65593E+01-7.57091E-13 1.12251E-14
 -1       640-3.53560E+01-4.68952E+00-1.20197E+01 1.93872E+01-2.60611E-13-4.11851E-15
 -1       641-2.80387E+01-6.44951E+00-1.03520E+01 2.16686E+01 4.15170E-13-5.71282E-15
 -1       642-1.94172E+01-8.12946E+00-8.26904E+00 2.31894E+01 1.42258E-13 1.43887E-15
 -1       643-9.61710E+00-9.51159E+00-5.74332E+00 2.38176E+01 6.51950E-13-9.08119E-16
 -1       644 1.25629E+00-1.04378E+01-2.75908E+00 2.34910E+01 4.25056E-13-1.19091E-14
 -1       645 1.31849E+01-1.08484E+01 6.95973E-01 2.21666E+01-4.16488E-14 3.61065E-14
 -1       646 2.62853E+01-1.07981E+01 4.64026E+00 1.97382E+01-2.91161E-13-7.84079E-15
 -1       647 4.08278E+01-1.04540E+01 9.10431E+00 1.59200E+01-4.60998E-13 1.06568E-13
 -1       648 5.72421E+01-1.00795E+01 1.41374E+01 1.00567E+01-2.04522E-13 4.33910E-14
 -1       649-5.90731E+01 3.34471E-02-1.77214E+01 1.13813E+00 9.36881E-13 2.98244E-14
 -1       650-5.89338E+01 3.21167E-02-1.76801E+01 2.96446E+00 5.83646E-13 1.98914E-14
 -1       651-5.84239E+01-1.62475E-01-1.75854E+01 5.43958E+00 7.31787E-13-1.70271E-15
 -1       652-5.71934E+01-7.18802E-01-1.73831E+01 8.51389E+00-4.58753E-13-5.10122E-14
 -1       653-5.48644E+01-1.77997E+00-1.70024E+01 1.20264E+01-5.66074E-13-3.26084E-14
 -1       654-5.11028E+01-3.39891E+00-1.63592E+01 1.56860E+01 6.32504E-13-3.41875E-14
 -1       655-4.57056E+01-5.48932E+00-1.53665E+01 1.91189E+01-4.74459E-13 7.78504E-15
 -1       656-3.86537E+01-7.82093E+00-1.39497E+01 2.19548E+01-2.21045E-13 1.97350E-14
 -1       657-3.01001E+01-1.00724E+01-1.20583E+01 2.39177E+01 1.27054E-13 9.75105E-15
 -1       658-2.02937E+01-1.19202E+01-9.66996E+00 2.48762E+01 2.94623E-13 3.51895E-16
 -1       659-9.47188E+00-1.31239E+01-6.78396E+00 2.48335E+01-3.65077E-13-6.34458E-15
 -1       660 2.23431E+00-1.35744E+01-3.40706E+00 2.38662E+01 5.15479E-14 4.41463E-15
 -1       661 1.48607E+01-1.33035E+01 4.61822E-01 2.20390E+01-3.75611E-14-3.87405E-15
 -1       662 2.86409E+01-1.24694E+01 4.84504E+00 1.93118E+01 3.62098E-13-6.31124E-14
 -1       663 4.40231E+01-1.13419E+01 9.79571E+00 1.54288E+01 5.57838E-13-2.30146E-14
 -1       664 6.17138E+01-1.02963E+01 1.54123E+01 9.73216E+00-3.78410E-13-3.89371E-15
 -1       665-6.27145E+01 4.96556E-02-1.88102E+01 1.11069E+00-5.77625E-13 5.69475E-14
 -1       666-6.37829E+01-1.74252E-02-1.91513E+01 3.29452E+00-2.43604E-13-7.20388E-14
 -1       667-6.42422E+01-4.90004E-01-1.94312E+01 6.44726E+00-1.48484E-14-3.53555E-14
 -1       668-6.35061E+01-1.63122E+00-1.95528E+01 1.03962E+01 1.55376E-13-7.13566E-16
 -1       669-6.10354E+01-3.59525E+00-1.94006E+01 1.47618E+01 4.45844E-13 1.31257E-14
 -1       670-5.64816E+01-6.31233E+00-1.88490E+01 1.90005E+01 4.40683E-13 2.67128E-14
 -1       671-4.98029E+01-9.46742E+00-1.77910E+01 2.25551E+01 4.72565E-13-9.11727E-15
 -1       672-4.12595E+01-1.25838E+01-1.61617E+01 2.50198E+01 7.54456E-13-7.35274E-15
 -1       673-3.12880E+01-1.51762E+01-1.39468E+01 2.62351E+01-5.36993E-13-1.91824E-17
 -1       674-2.03241E+01-1.68893E+01-1.11705E+01 2.62705E+01-2.54179E-13 8.02854E-16
 -1       675-8.66053E+00-1.75624E+01-7.87257E+00 2.53287E+01-3.51314E-14-3.69976E-16
 -1       676 3.62356E+00-1.72217E+01-4.08480E+00 2.36285E+01-6.61406E-14-2.54431E-14
 -1       677 1.66779E+01-1.60353E+01 1.87154E-01 2.13093E+01 7.31788E-13 2.28886E-14
 -1       678 3.08811E+01-1.42711E+01 4.97619E+00 1.83565E+01-2.24206E-13 1.75728E-14
 -1       679 4.68599E+01-1.22829E+01 1.03637E+01 1.45178E+01-2.08364E-14-3.07602E-15
 -1       680 6.55840E+01-1.05278E+01 1.65026E+01 9.13640E+00-4.13731E-13-9.26137E-15
 -1       681-6.65914E+01 8.20511E-02-1.99649E+01 1.16396E+00 5.90703E-13-7.02913E-14
 -1       682-6.94826E+01-1.52426E-01-2.09038E+01 4.04525E+00-4.53179E-13-2.57010E-14
 -1       683-7.12366E+01-1.20518E+00-2.17467E+01 8.36841E+00-1.64660E-13-2.48536E-14
 -1       684-7.08865E+01-3.46471E+00-2.23200E+01 1.36404E+01 2.00667E-13-3.43805E-14
 -1       685-6.77573E+01-6.95701E+00-2.24287E+01 1.90407E+01-1.05301E-12-8.21993E-15
 -1       686-6.16933E+01-1.12620E+01-2.19001E+01 2.36582E+01-8.58028E-14 3.98534E-15
 -1       687-5.31016E+01-1.56453E+01-2.06361E+01 2.68232E+01 9.51157E-14 6.60833E-17
 -1       688-4.27257E+01-1.93480E+01-1.86324E+01 2.82988E+01 4.45222E-13 1.52674E-15
 -1       689-3.13201E+01-2.18367E+01-1.59557E+01 2.82462E+01-3.15585E-13 1.22108E-15
 -1       690-1.94120E+01-2.28975E+01-1.27000E+01 2.70424E+01-1.59685E-14 1.02165E-15
 -1       691-7.21839E+00-2.25877E+01-8.94791E+00 2.50887E+01 3.23094E-13-1.25058E-14
 -1       692 5.33038E+00-2.11341E+01-4.74668E+00 2.26857E+01-1.32783E-13-1.04660E-14
 -1       693 1.85414E+01-1.88450E+01-9.69121E-02 1.99773E+01-3.20404E-14-1.59760E-14
 -1       694 3.29392E+01-1.60697E+01 5.05372E+00 1.69236E+01 1.22144E-13 1.21106E-14
 -1       695 4.93051E+01-1.32068E+01 1.08195E+01 1.32530E+01-3.30680E-14 1.91926E-14
 -1       696 6.88367E+01-1.07557E+01 1.74088E+01 8.31795E+00-1.14433E-13-4.03083E-14
 -1       697-7.12013E+01 1.11519E-01-2.13408E+01 1.38125E+00 1.41981E-14-7.97887E-15
 -1       698-7.68065E+01-4.91091E-01-2.32056E+01 5.61408E+00 5.74499E-13 5.98445E-14
 -1       699-8.00914E+01-2.79152E+00-2.48830E+01 1.19272E+01 4.57723E-13 1.50926E-14
 -1       700-7.95715E+01-7.13272E+00-2.60302E+01 1.90522E+01 1.98072E-13 2.37156E-14
 -1       701-7.46972E+01-1.30344E+01-2.63380E+01 2.53871E+01-2.25465E-14 8.16256E-15
 -1       702-6.60460E+01-1.93021E+01-2.56213E+01 2.96871E+01 1.64333E-13-6.27919E-15
 -1       703-5.49079E+01-2.46618E+01-2.38854E+01 3.15248E+01 1.71674E-13-6.32829E-15
 -1       704-4.26086E+01-2.82704E+01-2.12756E+01 3.12164E+01 8.05610E-13-2.54454E-15
 -1       705-3.00510E+01-2.98617E+01-1.79834E+01 2.94357E+01 5.18836E-14 1.34891E-15
 -1       706-1.76205E+01-2.95969E+01-1.41729E+01 2.68548E+01-3.16197E-13 2.15011E-15
 -1       707-5.29807E+00-2.78451E+01-9.94928E+00 2.39612E+01 3.85638E-13-4.39229E-15
 -1       708 7.19975E+00-2.50252E+01-5.35335E+00 2.10207E+01-2.29390E-13 1.17580E-14
 -1       709 2.03372E+01-2.15345E+01-3.65162E-01 1.81024E+01-8.41734E-13-1.63204E-14
 -1       710 3.47543E+01-1.77459E+01 5.09514E+00 1.51023E+01-7.36092E-13-1.31544E-15
 -1       711 5.13454E+01-1.40549E+01 1.11767E+01 1.17209E+01-5.14359E-13 3.72737E-14
 -1       712 7.14883E+01-1.09652E+01 1.81404E+01 7.33652E+00-3.12248E-13-2.37990E-15
 -1       713-7.74166E+01 2.62021E-01-2.31628E+01 1.98611E+00 2.33969E-13-1.11377E-15
 -1       714-8.69475E+01-1.39802E+00-2.65247E+01 8.82933E+00-4.75385E-13 3.86182E-14
 -1       715-9.16205E+01-6.35727E+00-2.94177E+01 1.84231E+01-4.94429E-13 3.09141E-15
 -1       716-8.93930E+01-1.44657E+01-3.11830E+01 2.77171E+01 2.72928E-13 3.15976E-15
 -1       717-8.08699E+01-2.36641E+01-3.13842E+01 3.40750E+01-2.63747E-13-1.51936E-14
 -1       718-6.83975E+01-3.16111E+01-3.00235E+01 3.65451E+01-2.18684E-13-1.25921E-14
 -1       719-5.44685E+01-3.68489E+01-2.74123E+01 3.57506E+01 4.33245E-13-3.96224E-15
 -1       720-4.06629E+01-3.90791E+01-2.39360E+01 3.29470E+01-4.72989E-14 4.38621E-16
 -1       721-2.75813E+01-3.87302E+01-1.99038E+01 2.92717E+01 1.58831E-13 1.77305E-15
 -1       722-1.51891E+01-3.64696E+01-1.55057E+01 2.54683E+01-3.32049E-14-2.43617E-15
 -1       723-3.13885E+00-3.29313E+01-1.08275E+01 2.19084E+01-6.14100E-14-9.83647E-16
 -1       724 9.05326E+00-2.86244E+01-5.87713E+00 1.87023E+01-2.05556E-13-9.16372E-15
 -1       725 2.19595E+01-2.39411E+01-6.00537E-01 1.57936E+01 4.19330E-13 1.09487E-14
 -1       726 3.62840E+01-1.92119E+01 5.11408E+00 1.30036E+01-1.69464E-14 1.91392E-15
 -1       727 5.29882E+01-1.47871E+01 1.14495E+01 1.00149E+01 9.81230E-13 2.20163E-14
 -1       728 7.35810E+01-1.11463E+01 1.87131E+01 6.25330E+00 1.04931E-13 1.33348E-14
 -1       729-8.69102E+01 6.15118E-02-2.60753E+01 3.43458E+00 2.72654E-13-1.96104E-14
 -1       730-1.02198E+02-3.96413E+00-3.18782E+01 1.56110E+01-1.52632E-13 3.62889E-14
 -1       731-1.06479E+02-1.48257E+01-3.64266E+01 3.01795E+01-1.33782E-14 2.54403E-14
 -1       732-9.90401E+01-2.88311E+01-3.83967E+01 4.06540E+01 1.76962E-13 1.08720E-14
 -1       733-8.42632E+01-4.11987E+01-3.76699E+01 4.44146E+01 2.39776E-14-5.40242E-15
 -1       734-6.73612E+01-4.89148E+01-3.49082E+01 4.27145E+01-5.10829E-13-4.14549E-15
 -1       735-5.13376E+01-5.17870E+01-3.09571E+01 3.81090E+01 1.53859E-13-8.99817E-16
 -1       736-3.70551E+01-5.09386E+01-2.64129E+01 3.26287E+01 5.57132E-13-4.02182E-16
 -1       737-2.42953E+01-4.76501E+01-2.15946E+01 2.73873E+01-3.21419E-13 1.43029E-16
 -1       738-1.24850E+01-4.29345E+01-1.66341E+01 2.28284E+01-3.94651E-14-4.86626E-15
 -1       739-1.00694E+00-3.74790E+01-1.15523E+01 1.90239E+01-6.92984E-14-9.60232E-15
 -1       740 1.07301E+01-3.17230E+01-6.30371E+00 1.58709E+01 2.87978E-13 1.16495E-14
 -1       741 2.33306E+01-2.59572E+01-7.94075E-01 1.31881E+01-1.38598E-13 9.33921E-15
 -1       742 3.75105E+01-2.04175E+01 5.12024E+00 1.07430E+01 2.61559E-13 1.78636E-15
 -1       743 5.42589E+01-1.53829E+01 1.16516E+01 8.22277E+00-6.00079E-13-2.91007E-14
 -1       744 7.51734E+01-1.12938E+01 1.91459E+01 5.12372E+00-8.66101E-13 1.40305E-14
 -1       745-1.03070E+02 1.45539E+00-3.05141E+01 7.45063E+00 3.95863E-14 2.81199E-14
 -1       746-1.24983E+02-1.19429E+01-4.11245E+01 3.02179E+01 3.21485E-13 1.86107E-14
 -1       747-1.23780E+02-3.46704E+01-4.75902E+01 5.03309E+01 1.28058E-13 1.56200E-14
 -1       748-1.04790E+02-5.56053E+01-4.81692E+01 5.72803E+01 3.82456E-13 1.49156E-15
 -1       749-8.20208E+01-6.73311E+01-4.48459E+01 5.36482E+01 3.95912E-13 1.83999E-15
 -1       750-6.20729E+01-7.04513E+01-3.97874E+01 4.56440E+01 5.24194E-13 1.51903E-15
 -1       751-4.58328E+01-6.79973E+01-3.41709E+01 3.71305E+01-5.12097E-13 1.36899E-15
 -1       752-3.24452E+01-6.25524E+01-2.85150E+01 2.97044E+01-2.83056E-13 1.29451E-15
 -1       753-2.07752E+01-5.57462E+01-2.29678E+01 2.37331E+01-3.67857E-13 4.59123E-16
 -1       754-9.90384E+00-4.84821E+01-1.75242E+01 1.90907E+01-1.48580E-13-1.25644E-15
 -1       755 8.67989E-01-4.12237E+01-1.21133E+01 1.55085E+01-4.41257E-14-5.74507E-15
 -1       756 1.21163E+01-3.41991E+01-6.63067E+00 1.27069E+01-1.73259E-13-2.53350E-15
 -1       757 2.44101E+01-2.75343E+01-9.43374E-01 1.04284E+01 7.73680E-13-1.23862E-14
 -1       758 3.84395E+01-2.13471E+01 5.11997E+00 8.42606E+00 9.21771E-13-6.07293E-15
 -1       759 5.51957E+01-1.58388E+01 1.17957E+01 6.41910E+00 5.33574E-13 4.36573E-15
 -1       760 7.63329E+01-1.14068E+01 1.94594E+01 3.99339E+00 2.92824E-13-3.62419E-15
 -1       761-1.37012E+02-8.51366E+00-4.37087E+01 1.82585E+01-3.16165E-13-1.10810E-14
 -1       762-1.63878E+02-3.92568E+01-6.10372E+01 6.51734E+01 1.79324E-13-4.51923E-15
 -1       763-1.34885E+02-7.94781E+01-6.44013E+01 8.01681E+01-4.40414E-13-6.12989E-15
 -1       764-9.95923E+01-9.91820E+01-5.97033E+01 7.16587E+01 2.71164E-13-8.84948E-16
 -1       765-7.24306E+01-1.00286E+02-5.18648E+01 5.64852E+01-8.98215E-14 4.72690E-16
 -1       766-5.32748E+01-9.32317E+01-4.39860E+01 4.26476E+01 9.09018E-15 4.20759E-16
 -1       767-3.92146E+01-8.31706E+01-3.67390E+01 3.19865E+01-4.18240E-13-9.23366E-16
 -1       768-2.78113E+01-7.25341E+01-3.01200E+01 2.42043E+01-1.84855E-13-3.07708E-15
 -1       769-1.76218E+01-6.22953E+01-2.39867E+01 1.86082E+01-2.61773E-13-7.80965E-16
 -1       770-7.76609E+00-5.27791E+01-1.81720E+01 1.45716E+01 2.11139E-14 3.35381E-15
 -1       771 2.33541E+00-4.40350E+01-1.25165E+01 1.16173E+01-5.41769E-13 7.76486E-15
 -1       772 1.31559E+01-3.60170E+01-6.86414E+00 9.39528E+00-9.76074E-14 6.57956E-15
 -1       773 2.51926E+01-2.86740E+01-1.05054E+00 7.64241E+00 1.59291E-13-9.28695E-15
 -1       774 3.90951E+01-2.20120E+01 5.11713E+00 6.13947E+00 2.25533E-13 5.27730E-15
 -1       775 5.58443E+01-1.61630E+01 1.18929E+01 4.66163E+00-3.45614E-13-1.41689E-14
 -1       776 7.71287E+01-1.14875E+01 1.96736E+01 2.89666E+00-4.95252E-13-3.12887E-14
 -1       777-2.16041E+02 1.45867E+00-6.45530E+01 6.74481E+01 7.54724E-15 1.19532E-14
 -1       778-1.96142E+02-1.34800E+02-9.95073E+01 1.29357E+02-2.54086E-13 5.03803E-16
 -1       779-1.20376E+02-1.66453E+02-8.62023E+01 1.04689E+02-6.33039E-13-1.76644E-15
 -1       780-8.01015E+01-1.53131E+02-7.00620E+01 7.08630E+01 3.95009E-13 1.88479E-15
 -1       781-5.76471E+01-1.32922E+02-5.72278E+01 4.75985E+01 2.32079E-13 1.97869E-15
 -1       782-4.37420E+01-1.12727E+02-4.69774E+01 3.26423E+01 1.06274E-15-1.39869E-15
 -1       783-3.32399E+01-9.50135E+01-3.85005E+01 2.30451E+01-1.80714E-13 7.25623E-16
 -1       784-2.40919E+01-7.98498E+01-3.11992E+01 1.67648E+01-5.91809E-14 7.55609E-17
 -1       785-1.52731E+01-6.68916E+01-2.46611E+01 1.25540E+01-1.96177E-13-1.89280E-15
 -1       786-6.25477E+00-5.57040E+01-1.85961E+01 9.65629E+00-1.36822E-13 9.12112E-16
 -1       787 3.33526E+00-4.59077E+01-1.27783E+01 7.60436E+00 2.56872E-13 3.21572E-15
 -1       788 1.38448E+01-3.72094E+01-7.01519E+00 6.09816E+00 3.67210E-13 6.06906E-15
 -1       789 2.57000E+01-2.94138E+01-1.12026E+00 4.93222E+00 9.50465E-14-4.16589E-15
 -1       790 3.95129E+01-2.24406E+01 5.11383E+00 3.94768E+00 1.10293E-13-4.29949E-15
 -1       791 5.62526E+01-1.63714E+01 1.19528E+01 2.99108E+00-4.22857E-13-1.21557E-15
 -1       792 7.76269E+01-1.15397E+01 1.98072E+01 1.85718E+00 7.49382E-13 2.75311E-15
 -1       793-3.57364E+02-3.47599E+02-2.12692E+02 3.32669E+02 1.46329E-14-9.04388E-16
 -1       794-1.10809E+02-3.42034E+02-1.36317E+02 1.60936E+02 2.30079E-13-3.12360E-15
 -1       795-7.80007E+01-2.55758E+02-1.00324E+02 7.83740E+01 2.65367E-13-1.19110E-15
 -1       796-5.46116E+01-1.97574E+02-7.57605E+01 4.40331E+01 1.61916E-13-5.43615E-16
 -1       797-4.49178E+01-1.55583E+02-6.02112E+01 2.66427E+01 4.25782E-14 3.36235E-16
 -1       798-3.67880E+01-1.25197E+02-4.86335E+01 1.72461E+01 3.71611E-13-1.02746E-15
 -1       799-2.93921E+01-1.02142E+02-3.94852E+01 1.17496E+01-8.91208E-14 1.24389E-15
 -1       800-2.18442E+01-8.40873E+01-3.17963E+01 8.35971E+00-2.68932E-13-6.26045E-16
 -1       801-1.39197E+01-6.94824E+01-2.50324E+01 6.16955E+00 1.73742E-13-6.65709E-16
 -1       802-5.40900E+00-5.73220E+01-1.88278E+01 4.69953E+00 5.77067E-13 1.95732E-16
 -1       803 3.88263E+00-4.69300E+01-1.29208E+01 3.67647E+00-1.68551E-13-9.05066E-17
 -1       804 1.42160E+01-3.78544E+01-7.09730E+00 2.93500E+00 4.37168E-14-5.08410E-16
 -1       805 2.59701E+01-2.98114E+01-1.15852E+00 2.36665E+00-3.52687E-13 1.87718E-15
 -1       806 3.97332E+01-2.26702E+01 5.11106E+00 1.89053E+00 2.37302E-13-1.69234E-15
 -1       807 5.64667E+01-1.64830E+01 1.19835E+01 1.43081E+00-1.03016E-14-5.20628E-15
 -1       808 7.78874E+01-1.15681E+01 1.98767E+01 8.88004E-01-4.34716E-13-2.71876E-15
 -1       809-1.58660E+03-1.74747E+03-1.00853E+03-7.82593E+01-3.69682E-13 1.52844E-15
 -1       810-5.15005E+02-7.57736E+02-3.84583E+02-4.63901E+02-9.54332E-14 1.16085E-15
 -1       811-3.53840E+02-1.29458E+03-4.99191E+02-2.71768E+02 2.52201E-13 3.14069E-15
 -1       812-5.77709E+02-1.33009E+03-5.76489E+02 8.44299E+01 1.19619E-13 2.34738E-15
 -1       813-1.89718E+02-7.32884E+02-2.78906E+02-3.34144E+02 2.31521E-14-1.85139E-15
 -1       814-6.44041E+01-8.02552E+02-2.61923E+02-1.39681E+02-1.69084E-13 5.79240E-15
 -1       815-6.05650E+01-1.06972E+03-3.42143E+02-2.06612E+01-2.91199E-13-1.14781E-16
 -1       816-4.15690E+01-5.80683E+02-1.87815E+02-1.82373E+02-7.08254E-14-4.66363E-15
 -1       817-2.01107E+00-5.63902E+02-1.70688E+02-7.01494E+01 2.69544E-13 8.81303E-16
 -1       818 1.26788E+01-6.98484E+02-2.07113E+02 2.15662E-01 1.97772E-13-4.07993E-16
 -1       819 1.82459E-01-4.54024E+02-1.36796E+02-9.84161E+01 2.52018E-14 7.37882E-15
 -1       820 1.55136E+01-4.19491E+02-1.21704E+02-3.77327E+01-4.43166E-15-1.22010E-15
 -1       821 2.11893E+01-4.99472E+02-1.44198E+02-2.13493E-01 2.88562E-13-1.81742E-15
 -1       822 1.51460E+01-3.57727E+02-1.03164E+02-5.60444E+01 2.05403E-14 2.83058E-15
 -1       823 2.15193E+01-3.26478E+02-9.18017E+01-2.18632E+01-3.47586E-13 2.71533E-15
 -1       824 2.39037E+01-3.76723E+02-1.06259E+02 1.41382E-01-2.62170E-13-7.81297E-16
 -1       825 2.06405E+01-2.87720E+02-8.03747E+01-3.36052E+01 1.00857E-13-8.25738E-15
 -1       826 2.37949E+01-2.62426E+02-7.17956E+01-1.33110E+01-5.42780E-14-3.46946E-16
 -1       827 2.45538E+01-2.96424E+02-8.18209E+01 1.24216E-01-1.06936E-13-1.04299E-16
 -1       828 2.30376E+01-2.36145E+02-6.41026E+01-2.09278E+01-2.50429E-13-4.08439E-16
 -1       829 2.47666E+01-2.16159E+02-5.75606E+01-8.39424E+00-1.13987E-13-1.11224E-15
 -1       830 2.49016E+01-2.40406E+02-6.48253E+01 8.33515E-02 1.05190E-13-1.17762E-16
 -1       831 2.41535E+01-1.97357E+02-5.20819E+01-1.33878E+01-1.01799E-13-1.70738E-15
 -1       832 2.52008E+01-1.81570E+02-4.70136E+01-5.41199E+00 5.67461E-14-4.47891E-17
 -1       833 2.50819E+01-1.99535E+02-5.24584E+01 5.81380E-02 8.46702E-14-5.86614E-16
 -1       834 2.47229E+01-1.67579E+02-4.29455E+01-8.69805E+00 9.57018E-14-1.65933E-15
 -1       835 2.54025E+01-1.55032E+02-3.89657E+01-3.52804E+00-2.41697E-14-1.04806E-15
 -1       836 2.51979E+01-1.68726E+02-4.31480E+01 3.93862E-02-3.01575E-14 1.57999E-16
 -1       837 2.50286E+01-1.44335E+02-3.58593E+01-5.68113E+00 4.38387E-15 1.53824E-15
 -1       838 2.54957E+01-1.34302E+02-3.27011E+01-2.30060E+00 1.79458E-13-4.33018E-16
 -1       839 2.52749E+01-1.44949E+02-3.59700E+01 2.77115E-02-1.34146E-14-1.33313E-16
 -1       840 2.52013E+01-1.25980E+02-3.02863E+01-3.68899E+00-4.74695E-14-2.32541E-16
 -1       841 2.55367E+01-1.17930E+02-2.77649E+01-1.48252E+00-5.41957E-14 7.20906E-16
 -1       842 2.53288E+01-1.26310E+02-3.03473E+01 1.99085E-02 8.13419E-15-3.51962E-16
 -1       843 2.53025E+01-1.11405E+02-2.58732E+01-2.34919E+00-9.98542E-16 9.20578E-16
 -1       844 2.55518E+01-1.04956E+02-2.38595E+01-9.29050E-01-5.57694E-14-4.41356E-17
 -1       845 2.53673E+01-1.11581E+02-2.59065E+01 1.48046E-02 3.06080E-14 2.48080E-16
 -1       846 2.53638E+01-9.98588E+01-2.23835E+01-1.43850E+00 6.92542E-15 1.57977E-17
 -1       847 2.55536E+01-9.47434E+01-2.07889E+01-5.52333E-01 2.00635E-14-2.56749E-16
 -1       848 2.53956E+01-9.99499E+01-2.24013E+01 1.13906E-02 3.95385E-14 2.62840E-16
 -1       849 2.54024E+01-9.08428E+01-1.96618E+01-8.19434E-01-3.85153E-14 1.57812E-16
 -1       850 2.55473E+01-8.68856E+01-1.84291E+01-2.97857E-01-4.61876E-14-1.44869E-16
 -1       851 2.54169E+01-9.08875E+01-1.96709E+01 9.28945E-03 6.82560E-14-1.52701E-16
 -1       852 2.54290E+01-8.40541E+01-1.76136E+01-4.06297E-01 5.44353E-16 5.29219E-16
 -1       853 2.55262E+01-8.11691E+01-1.67175E+01-1.31957E-01 1.94703E-14 3.22081E-17
 -1       854 2.54348E+01-8.40739E+01-1.76178E+01 7.65919E-03 5.30903E-14 4.26289E-17
 -1       855 2.54550E+01-7.93557E+01-1.61939E+01-1.47151E-01-1.81365E-14-2.99771E-16
 -1       856 2.54674E+01-7.74638E+01-1.56217E+01-3.67502E-02 1.59074E-15-8.41294E-17
 -1       857 2.54568E+01-7.93626E+01-1.61955E+01 8.77230E-03-9.03044E-15-5.80655E-17
 -1       858 2.55026E+01-7.68262E+01-1.54196E+01-1.53151E-02-4.91146E-14 1.17513E-17
 -1       859 2.55031E+01-7.68276E+01-1.54198E+01 3.75709E-03-1.43175E-14 3.30844E-17
 -1       860-2.82706E+01 5.61765E+01 8.49630E+00-4.20242E+01 2.46835E-13-6.97537E-16
 -1       861-2.88885E+02-8.69026E+01-1.13038E+02-6.89695E+01 2.53791E-13-2.14646E-15
 -1       862-3.00160E+02-2.90257E+02-1.78471E+02-3.63860E+02 1.78270E-14-3.78580E-19
 -1       863-2.82218E+02-2.40075E+02-1.57417E+02-2.51273E+02-1.74920E-13 8.24832E-16
 -1       864-1.55292E+02-4.79712E+02-1.91613E+02-2.71397E+02 6.38109E-14-6.04082E-15
 -1       865-1.36727E+02-3.43443E+02-1.44712E+02-2.24430E+02-1.53727E-13 9.35493E-15
 -1       866-5.42251E+01-4.42035E+02-1.49594E+02-1.68716E+02 2.55735E-14 1.71712E-14
 -1       867-4.80508E+01-3.41647E+02-1.17384E+02-1.54113E+02 9.60113E-14 1.55912E-14
 -1       868-9.32437E+00-3.68879E+02-1.13908E+02-1.01428E+02 2.21123E-14-2.67788E-15
 -1       869-8.86479E+00-3.04272E+02-9.42660E+01-9.91915E+01-2.56491E-14 6.24588E-15
 -1       870 9.60681E+00-3.03392E+02-8.84257E+01-6.21955E+01 1.57252E-13 6.36287E-16
 -1       871 8.98687E+00-2.61471E+02-7.59700E+01-6.35284E+01-1.49142E-14 7.67891E-15
 -1       872 1.79384E+01-2.51169E+02-7.01657E+01-3.90938E+01-9.79435E-14-3.19816E-15
 -1       873 1.71741E+01-2.22788E+02-6.18432E+01-4.10952E+01 9.18453E-14-1.89344E-15
 -1       874 2.17913E+01-2.10432E+02-5.67306E+01-2.51156E+01 1.17126E-13-7.50675E-15
 -1       875 2.11515E+01-1.90361E+02-5.08784E+01-2.68834E+01 1.08849E-13 8.07646E-16
 -1       876 2.36558E+01-1.78562E+02-4.65726E+01-1.63763E+01-5.08397E-14 2.00341E-15
 -1       877 2.31568E+01-1.63838E+02-4.22907E+01-1.77096E+01 8.26405E-14-2.08208E-15
 -1       878 2.45891E+01-1.53425E+02-3.87265E+01-1.07515E+01-1.83153E-14 2.46488E-15
 -1       879 2.42077E+01-1.42313E+02-3.54978E+01-1.16686E+01-5.62294E-14 1.48483E-15
 -1       880 2.50663E+01-1.33438E+02-3.25703E+01-7.04292E+00 9.15872E-14 2.01962E-15
 -1       881 2.47730E+01-1.24887E+02-3.00862E+01-7.62011E+00-4.21494E-14 6.64968E-15
 -1       882 2.53119E+01-1.17469E+02-2.76938E+01-4.55205E+00-9.06821E-15 1.45481E-15
 -1       883 2.50834E+01-1.10821E+02-2.57632E+01-4.87076E+00-5.46272E-14 4.56781E-16
 -1       884 2.54367E+01-1.04716E+02-2.38218E+01-2.85828E+00-3.72046E-14 2.01885E-15
 -1       885 2.52560E+01-9.95549E+01-2.23245E+01-2.99003E+00 3.44582E-14-8.67453E-16
 -1       886 2.54972E+01-9.46243E+01-2.07701E+01-1.70152E+00 1.46694E-15-8.49341E-16
 -1       887 2.53529E+01-9.06931E+01-1.96317E+01-1.70615E+00 1.10637E-14-8.39998E-16
 -1       888 2.55216E+01-8.68321E+01-1.84207E+01-9.18358E-01 2.40274E-14-1.24093E-15
 -1       889 2.54091E+01-8.39878E+01-1.75997E+01-8.46980E-01-1.25198E-14 1.16069E-15
 -1       890 2.55163E+01-8.11501E+01-1.67148E+01-4.07056E-01-1.63227E-14-1.47750E-16
 -1       891 2.54491E+01-7.93326E+01-1.61887E+01-3.07201E-01-2.92742E-15-1.75826E-17
 -1       892 2.54657E+01-7.74622E+01-1.56217E+01-1.13312E-01-2.38138E-14-3.45313E-16
 -1       893 2.55009E+01-7.68216E+01-1.54187E+01-3.22163E-02 6.18328E-15-1.51061E-16
 -1       894 1.02893E+01 3.69218E+01 1.41698E+01 1.56540E+01-2.51711E-13 6.69283E-15
 -1       895-9.32741E+01-7.56533E+00-3.02789E+01-2.11087E+01-5.63208E-14 5.40617E-15
 -1       896-2.18582E+02-3.94097E+01-7.76266E+01-1.17527E+02-7.72705E-14 2.89014E-15
 -1       897-1.89558E+02-7.49834E+01-7.95493E+01-1.14073E+02-1.29759E-13 8.69585E-16
 -1       898-1.86931E+02-1.95496E+02-1.15168E+02-2.02907E+02-3.04340E-14-8.14348E-15
 -1       899-1.58022E+02-1.66183E+02-9.75555E+01-1.63630E+02-1.93779E-13-1.26725E-14
 -1       900-1.03454E+02-2.72070E+02-1.13082E+02-1.81444E+02-1.38891E-13 1.35510E-14
 -1       901-8.81167E+01-2.19957E+02-9.27121E+01-1.52061E+02-9.55607E-14-7.78863E-15
 -1       902-4.36580E+01-2.80834E+02-9.76794E+01-1.32970E+02 6.51484E-15 9.10270E-16
 -1       903-3.72834E+01-2.32390E+02-8.11416E+01-1.17422E+02 4.26951E-14 1.37944E-14
 -1       904-1.04096E+01-2.58708E+02-8.09780E+01-9.10564E+01-9.69142E-14-7.08528E-15
 -1       905-8.01759E+00-2.21201E+02-6.89505E+01-8.37147E+01 7.79677E-14-3.86269E-15
 -1       906 6.93317E+00-2.28057E+02-6.65127E+01-6.10686E+01-2.29181E-14 2.09488E-15
 -1       907 7.66651E+00-2.00592E+02-5.80178E+01-5.77856E+01 5.58851E-14-5.55479E-15
 -1       908 1.58225E+01-1.98226E+02-5.48498E+01-4.07974E+01-7.26992E-14 2.76057E-16
 -1       909 1.59382E+01-1.78137E+02-4.87661E+01-3.93490E+01 8.07965E-14-4.62458E-15
 -1       910 2.04266E+01-1.72006E+02-4.55700E+01-2.72558E+01-2.21755E-13 4.96571E-15
 -1       911 2.03274E+01-1.57090E+02-4.11106E+01-2.65881E+01 5.95829E-15-1.90007E-14
 -1       912 2.28442E+01-1.49870E+02-3.81813E+01-1.81737E+01 4.64782E-14-2.77463E-15
 -1       913 2.26847E+01-1.38589E+02-3.48350E+01-1.78079E+01-7.19672E-14 4.02190E-15
 -1       914 2.41291E+01-1.31510E+02-3.22716E+01-1.20255E+01-8.20969E-14 1.85218E-15
 -1       915 2.39651E+01-1.22844E+02-2.97145E+01-1.17550E+01-3.92935E-14 1.51138E-15
 -1       916 2.48156E+01-1.16433E+02-2.75314E+01-7.82424E+00-5.58905E-14-2.43290E-15
 -1       917 2.46654E+01-1.09718E+02-2.55572E+01-7.56760E+00 5.42457E-14-2.39346E-15
 -1       918 2.51807E+01-1.04174E+02-2.37357E+01-4.93470E+00-6.57340E-14 9.58827E-16
 -1       919 2.50486E+01-9.89780E+01-2.22133E+01-4.66776E+00 2.25377E-14-2.07940E-15
 -1       920 2.53709E+01-9.43547E+01-2.07269E+01-2.94624E+00 2.91257E-14 5.51342E-17
 -1       921 2.52572E+01-9.04079E+01-1.95747E+01-2.67202E+00-1.78884E-14-2.12018E-16
 -1       922 2.54639E+01-8.67110E+01-1.84016E+01-1.59322E+00-2.24563E-14 9.32280E-16
 -1       923 2.53704E+01-8.38612E+01-1.75732E+01-1.32934E+00 1.82501E-14-1.43647E-15
 -1       924 2.54938E+01-8.11070E+01-1.67086E+01-7.06977E-01 2.62564E-14 1.29676E-15
 -1       925 2.54376E+01-7.92883E+01-1.61789E+01-4.83041E-01-2.57517E-16-5.42377E-16
 -1       926 2.54620E+01-7.74583E+01-1.56217E+01-1.96596E-01-2.12284E-14-3.28850E-17
 -1       927 2.54978E+01-7.68128E+01-1.54170E+01-5.11602E-02-3.53061E-14 2.19781E-16
 -1       928-1.15501E+00-8.89825E-02-3.72837E-01 2.78700E+00-1.45749E-13-4.25952E-14
 -1       929-4.51763E+01-1.77046E+00-1.40903E+01-9.42304E+00 1.28049E-13 8.05478E-15
 -1       930-1.16487E+02-9.28102E+00-3.77808E+01-4.46761E+01 1.77090E-13 6.83801E-15
 -1       931-1.14465E+02-2.65548E+01-4.23606E+01-5.51352E+01-4.23295E-14 4.33066E-15
 -1       932-1.48816E+02-6.74255E+01-6.50245E+01-1.14204E+02-8.21926E-14-2.54033E-15
 -1       933-1.26910E+02-7.71609E+01-6.13411E+01-1.02237E+02 1.25863E-13-7.67955E-15
 -1       934-1.15907E+02-1.43715E+02-7.80974E+01-1.41365E+02-8.11672E-14 5.41435E-15
 -1       935-9.76743E+01-1.29791E+02-6.83966E+01-1.20744E+02 1.08353E-13 2.78853E-15
 -1       936-6.82146E+01-1.88917E+02-7.73514E+01-1.29620E+02 9.36819E-15 7.78833E-15
 -1       937-5.71606E+01-1.63288E+02-6.62927E+01-1.11996E+02-1.10189E-13 4.31485E-16
 -1       938-3.07581E+01-2.01866E+02-6.99693E+01-1.02557E+02-6.35281E-14 7.08264E-15
 -1       939-2.48544E+01-1.75186E+02-6.01521E+01-9.08104E+01-5.15234E-14-5.02747E-17
 -1       940-6.66345E+00-1.95154E+02-6.06912E+01-7.54407E+01 2.43862E-14 1.40165E-14
 -1       941-3.69300E+00-1.72162E+02-5.28726E+01-6.83110E+01-8.75609E-14 9.52209E-15
 -1       942 7.54145E+00-1.79604E+02-5.17329E+01-5.34727E+01-7.52236E-14-1.33535E-14
 -1       943 8.98765E+00-1.61250E+02-4.57725E+01-4.92341E+01 1.14084E-14-7.29650E-15
 -1       944 1.56065E+01-1.61561E+02-4.38752E+01-3.71206E+01-6.56660E-14 8.01498E-15
 -1       945 1.62848E+01-1.47287E+02-3.93758E+01-3.45396E+01 5.77499E-14-6.99863E-15
 -1       946 2.01137E+01-1.44045E+02-3.72490E+01-2.53811E+01 1.12131E-14 1.98716E-15
 -1       947 2.04106E+01-1.32992E+02-3.38346E+01-2.37179E+01-2.16728E-14 6.90335E-15
 -1       948 2.26160E+01-1.28289E+02-3.17575E+01-1.70766E+01 5.99150E-14 3.31144E-15
 -1       949 2.27231E+01-1.19703E+02-2.91430E+01-1.59198E+01 5.91520E-14 3.97514E-15
 -1       950 2.39973E+01-1.14683E+02-2.72505E+01-1.12350E+01 5.64691E-14 3.20769E-15
 -1       951 2.40101E+01-1.07996E+02-2.52362E+01-1.03645E+01 9.16392E-14-1.07019E-15
 -1       952 2.47525E+01-1.03250E+02-2.35864E+01-7.13892E+00-7.09410E-14 6.51713E-16
 -1       953 2.47193E+01-9.80672E+01-2.20383E+01-6.44152E+00 1.27827E-14 1.17505E-14
 -1       954 2.51575E+01-9.38925E+01-2.06520E+01-4.28357E+00-1.96954E-14-1.39719E-15
 -1       955 2.51038E+01-8.99543E+01-1.94844E+01-3.70621E+00 4.57000E-14 3.75988E-16
 -1       956 2.53658E+01-8.65024E+01-1.83684E+01-2.32393E+00-1.41369E-14 3.30365E-15
 -1       957 2.53081E+01-8.36589E+01-1.75311E+01-1.85016E+00 3.24647E-14-2.48705E-15
 -1       958 2.54555E+01-8.10325E+01-1.66977E+01-1.03318E+00-1.47766E-14-1.87484E-15
 -1       959 2.54189E+01-7.92174E+01-1.61632E+01-6.73973E-01 1.60958E-15 5.47505E-16
 -1       960 2.54554E+01-7.74514E+01-1.56216E+01-2.86805E-01-3.63617E-15 7.52789E-17
 -1       961 2.54928E+01-7.67987E+01-1.54142E+01-7.23436E-02 4.87467E-14-6.60374E-17
 -1       962 1.82095E-02 2.00630E+00 6.07377E-01 1.16775E+00-6.80178E-15 3.91264E-15
 -1       963-2.58287E+01-1.02193E+00-8.05724E+00-5.66410E+00-5.22909E-14 1.09889E-14
 -1       964-6.65042E+01-4.70602E+00-2.13782E+01-2.19168E+01-7.46555E-14-6.68456E-15
 -1       965-7.10535E+01-1.23174E+01-2.50309E+01-3.07492E+01 1.08949E-14-1.43134E-14
 -1       966-1.03123E+02-2.96126E+01-3.98760E+01-6.28340E+01-6.02199E-16 2.70472E-15
 -1       967-9.26333E+01-3.88799E+01-3.95043E+01-6.30397E+01-8.16074E-15-1.07464E-15
 -1       968-1.01212E+02-7.34039E+01-5.24829E+01-9.64940E+01 8.72340E-14 1.03121E-14
 -1       969-8.67512E+01-7.52461E+01-4.86794E+01-8.70265E+01 1.37393E-13 6.29327E-15
 -1       970-7.54371E+01-1.17739E+02-5.80753E+01-1.07030E+02 7.36557E-14 2.61696E-15
 -1       971-6.35287E+01-1.09174E+02-5.19074E+01-9.40809E+01-1.73135E-13 1.70098E-14
 -1       972-4.46386E+01-1.46478E+02-5.74595E+01-9.82306E+01-1.48622E-14-6.07953E-15
 -1       973-3.66255E+01-1.31713E+02-5.06002E+01-8.65998E+01-3.28203E-14 7.11035E-15
 -1       974-1.92746E+01-1.57656E+02-5.31918E+01-8.04498E+01-9.40857E-14 1.13341E-14
 -1       975-1.43457E+01-1.41385E+02-4.68100E+01-7.17199E+01-2.08843E-14 2.11370E-14
 -1       976-1.59434E+00-1.56110E+02-4.74070E+01-6.14596E+01 1.16080E-14-1.61476E-14
 -1       977 1.29978E+00-1.41121E+02-4.20253E+01-5.54036E+01 6.05477E-14-2.07248E-15
 -1       978 9.67654E+00-1.47473E+02-4.14179E+01-4.49176E+01 7.98319E-14 6.27546E-15
 -1       979 1.13314E+01-1.34785E+02-3.71028E+01-4.08074E+01-2.69986E-14 3.12406E-15
 -1       980 1.65059E+01-1.35832E+02-3.58623E+01-3.18097E+01 4.37586E-14-7.18446E-15
 -1       981 1.74326E+01-1.25510E+02-3.24787E+01-2.89843E+01-2.84675E-14-1.38425E-14
 -1       982 2.05186E+01-1.23613E+02-3.09809E+01-2.19202E+01-3.21134E-15-8.21391E-17
 -1       983 2.10232E+01-1.15364E+02-2.83487E+01-1.99128E+01 4.67789E-15-5.31791E-16
 -1       984 2.28255E+01-1.12088E+02-2.68222E+01-1.46589E+01-4.52898E-14 3.00321E-15
 -1       985 2.30862E+01-1.05562E+02-2.47818E+01-1.31729E+01-1.71913E-14 1.59467E-15
 -1       986 2.41254E+01-1.01862E+02-2.33573E+01-9.41841E+00 1.16988E-13-3.12898E-17
 -1       987 2.42453E+01-9.67596E+01-2.17875E+01-8.27686E+00 3.79556E-14 1.89704E-15
 -1       988 2.48402E+01-9.31914E+01-2.05364E+01-5.69375E+00 1.01245E-14-1.47354E-15
 -1       989 2.48799E+01-8.92960E+01-1.93537E+01-4.79764E+00-3.24815E-14 6.01830E-15
 -1       990 2.52184E+01-8.61837E+01-1.83168E+01-3.10415E+00 6.57889E-17-1.46289E-15
 -1       991 2.52162E+01-8.33632E+01-1.74698E+01-2.40699E+00 4.81849E-14 2.47961E-15
 -1       992 2.53974E+01-8.09179E+01-1.66806E+01-1.38397E+00-1.07338E-14 3.20675E-15
 -1       993 2.53912E+01-7.91135E+01-1.61403E+01-8.79930E-01-9.83073E-15 6.16888E-16
 -1       994 2.54453E+01-7.74401E+01-1.56212E+01-3.83174E-01 4.12870E-15 9.90692E-16
 -1       995 2.54859E+01-7.67782E+01-1.54102E+01-9.62031E-02 2.46047E-14 6.24498E-17
 -1       996-3.81472E-02 1.53854E-01 3.47051E-02 4.90107E-01-2.05006E-14 2.51090E-15
 -1       997-1.61638E+01-7.26136E-01-5.06778E+00-3.88000E+00 4.80483E-14-1.18571E-14
 -1       998-4.06707E+01-3.02810E+00-1.31153E+01-1.32890E+01 1.85888E-13-2.78762E-15
 -1       999-4.58962E+01-6.96957E+00-1.58677E+01-1.91406E+01-8.38144E-15 6.58635E-16
 -1      1000-6.99988E+01-1.54691E+01-2.56629E+01-3.75423E+01-7.00037E-14 3.95132E-17
 -1      1001-6.54467E+01-2.17629E+01-2.61854E+01-4.04786E+01-2.39954E-14 2.30187E-15
 -1      1002-7.94489E+01-4.02642E+01-3.59600E+01-6.37937E+01-1.80031E-14 1.93799E-15
 -1      1003-6.98012E+01-4.50853E+01-3.45066E+01-6.10494E+01-1.82522E-14 1.01957E-14
 -1      1004-6.99332E+01-7.22330E+01-4.27171E+01-8.10720E+01-2.06351E-14-4.08847E-15
 -1      1005-5.97491E+01-7.20414E+01-3.95936E+01-7.37424E+01-5.41403E-14-5.55780E-16
 -1      1006-4.98673E+01-1.01665E+02-4.55390E+01-8.46898E+01-1.94655E-14 1.40475E-14
 -1      1007-4.15328E+01-9.58767E+01-4.12882E+01-7.57320E+01 1.81105E-14 3.87682E-15
 -1      1008-2.81358E+01-1.21501E+02-4.49721E+01-7.72494E+01 5.00115E-14-2.88246E-14
 -1      1009-2.21303E+01-1.12070E+02-4.03271E+01-6.89524E+01-2.32875E-14 1.10733E-14
 -1      1010-9.88879E+00-1.30400E+02-4.21625E+01-6.41411E+01-3.47240E-14 1.10140E-14
 -1      1011-5.85499E+00-1.19715E+02-3.77344E+01-5.74480E+01 1.88038E-14-1.86217E-15
 -1      1012 3.41441E+00-1.30625E+02-3.82304E+01-4.98563E+01-4.97563E-14 2.71838E-15
 -1      1013 6.01115E+00-1.20356E+02-3.43604E+01-4.48048E+01-2.04374E-14 5.36670E-15
 -1      1014 1.23017E+01-1.25388E+02-3.39837E+01-3.69087E+01 3.50070E-14 3.55879E-15
 -1      1015 1.39235E+01-1.16342E+02-3.07756E+01-3.31850E+01-9.27031E-14-1.50289E-15
 -1      1016 1.79061E+01-1.17408E+02-2.98994E+01-2.62460E+01-1.85228E-13 1.42498E-14
 -1      1017 1.88920E+01-1.09814E+02-2.73198E+01-2.34936E+01-3.87900E-14 1.19678E-14
 -1      1018 2.12974E+01-1.08543E+02-2.62151E+01-1.79425E+01-8.63408E-14 1.34470E-15
 -1      1019 2.18780E+01-1.02352E+02-2.41795E+01-1.58749E+01-4.01786E-14-1.31756E-14
 -1      1020 2.32812E+01-9.99259E+01-2.30287E+01-1.17056E+01-8.22685E-14 2.97008E-15
 -1      1021 2.36073E+01-9.49971E+01-2.14492E+01-1.01232E+01-1.27653E-14-5.00334E-16
 -1      1022 2.44035E+01-9.21997E+01-2.03694E+01-7.15070E+00-2.23014E-14-7.44373E-15
 -1      1023 2.45723E+01-8.83954E+01-1.91753E+01-5.92789E+00 5.84190E-15-6.63381E-15
 -1      1024 2.50124E+01-8.57282E+01-1.82417E+01-3.92544E+00-1.25118E-14 5.04134E-15
 -1      1025 2.50882E+01-8.29548E+01-1.73854E+01-2.99468E+00-4.40175E-14 2.48301E-17
 -1      1026 2.53154E+01-8.07527E+01-1.66556E+01-1.75719E+00-9.87789E-15-3.10048E-15
 -1      1027 2.53522E+01-7.89692E+01-1.61086E+01-1.10012E+00-3.59949E-15-4.94569E-16
 -1      1028 2.54305E+01-7.74227E+01-1.56204E+01-4.84705E-01-1.96235E-14-4.80455E-16
 -1      1029 2.54765E+01-7.67502E+01-1.54046E+01-1.23225E-01-3.11334E-14-9.61712E-16
 -1      1030-6.43991E-02 1.14892E-01 1.51403E-02 1.92381E-01 2.06054E-13 1.10475E-14
 -1      1031-1.05653E+01-6.22744E-01-3.35679E+00-2.88939E+00-7.71420E-14 1.22035E-14
 -1      1032-2.62251E+01-2.42633E+00-8.59779E+00-8.91761E+00 3.63316E-14 1.09654E-15
 -1      1033-3.08104E+01-4.73205E+00-1.06664E+01-1.30353E+01 8.10148E-14 1.24996E-15
 -1      1034-4.77297E+01-9.71397E+00-1.72431E+01-2.43097E+01-8.19724E-14-7.79827E-16
 -1      1035-4.62152E+01-1.37341E+01-1.79955E+01-2.73856E+01-8.69712E-14-1.88412E-15
 -1      1036-5.94769E+01-2.43170E+01-2.51605E+01-4.30207E+01 2.11848E-14 1.40867E-15
 -1      1037-5.35407E+01-2.86971E+01-2.46924E+01-4.31356E+01 3.40671E-14-1.86410E-15
 -1      1038-5.89089E+01-4.57037E+01-3.14203E+01-5.94063E+01 1.66085E-13 8.52262E-15
 -1      1039-5.11612E+01-4.83191E+01-2.98764E+01-5.60537E+01-4.77933E-15-7.61204E-15
 -1      1040-4.81906E+01-6.97193E+01-3.54214E+01-6.85189E+01-5.97669E-14 5.54912E-15
 -1      1041-4.07169E+01-6.90331E+01-3.29667E+01-6.27058E+01 9.42006E-15 2.02305E-14
 -1      1042-3.22905E+01-9.08831E+01-3.70076E+01-6.88038E+01-1.92226E-14 4.42958E-15
 -1      1043-2.61227E+01-8.68015E+01-3.39246E+01-6.21264E+01-1.65906E-14 2.62985E-14
 -1      1044-1.60275E+01-1.05408E+02-3.64879E+01-6.20919E+01 2.40489E-14 1.23844E-14
 -1      1045-1.13790E+01-9.89947E+01-3.31609E+01-5.57908E+01-9.89407E-14-9.76658E-15
 -1      1046-2.31016E+00-1.12432E+02-3.44774E+01-5.16183E+01 8.76421E-14 5.62083E-16
 -1      1047 9.97168E-01-1.05045E+02-3.12616E+01-4.62847E+01-2.11305E-13-1.45659E-14
 -1      1048 7.92296E+00-1.13203E+02-3.16341E+01-4.02396E+01 5.91351E-14-5.63020E-16
 -1      1049 1.01794E+01-1.05905E+02-2.87611E+01-3.59765E+01-3.36986E-14-1.84034E-14
 -1      1050 1.49357E+01-1.09753E+02-2.84896E+01-2.97358E+01-1.04163E-13 6.05698E-15
 -1      1051 1.64213E+01-1.03152E+02-2.60585E+01-2.64125E+01 1.27083E-13-1.67074E-14
 -1      1052 1.94508E+01-1.03993E+02-2.54014E+01-2.09037E+01-3.01286E-14 8.76336E-15
 -1      1053 2.03949E+01-9.83461E+01-2.34203E+01-1.83286E+01 4.77744E-14-1.19639E-14
 -1      1054 2.22166E+01-9.73702E+01-2.25799E+01-1.39113E+01-7.67866E-14 1.38231E-14
 -1      1055 2.27925E+01-9.27349E+01-2.10137E+01-1.19128E+01 2.91325E-14-1.15536E-14
 -1      1056 2.38360E+01-9.08639E+01-2.01381E+01-8.61662E+00-7.47023E-15-7.27243E-15
 -1      1057 2.41686E+01-8.72165E+01-1.89421E+01-7.06973E+00-1.65270E-14-2.76485E-15
 -1      1058 2.47390E+01-8.51056E+01-1.81366E+01-4.77426E+00 2.91825E-14 4.50851E-15
 -1      1059 2.49170E+01-8.24132E+01-1.72740E+01-3.60450E+00-1.36840E-15-7.86767E-16
 -1      1060 2.52049E+01-8.05239E+01-1.66199E+01-2.14885E+00 2.21106E-14-1.40834E-16
 -1      1061 2.52995E+01-7.87767E+01-1.60665E+01-1.33275E+00 1.31338E-14-1.44851E-15
 -1      1062 2.54099E+01-7.73967E+01-1.56188E+01-5.89811E-01-3.99980E-14-7.63774E-16
 -1      1063 2.54647E+01-7.67136E+01-1.53971E+01-1.53916E-01 1.67123E-15-1.66409E-16
 -1      1064-6.18626E-02-2.49034E-02-2.60348E-02 8.61233E-02-3.99428E-15 5.86849E-15
 -1      1065-7.17501E+00-5.82453E-01-2.32741E+00-2.26124E+00 1.60986E-14-1.66367E-15
 -1      1066-1.75672E+01-2.05909E+00-5.88900E+00-6.50619E+00 1.90917E-14-1.83963E-15
 -1      1067-2.12273E+01-3.62339E+00-7.45700E+00-9.46668E+00 2.36326E-14-7.45393E-16
 -1      1068-3.30663E+01-6.94417E+00-1.20080E+01-1.68745E+01 1.17287E-13 2.58201E-15
 -1      1069-3.28687E+01-9.64317E+00-1.27590E+01-1.94732E+01 1.20318E-14 6.46659E-16
 -1      1070-4.37131E+01-1.62484E+01-1.79998E+01-3.00763E+01 2.92234E-14-3.03251E-15
 -1      1071-4.01840E+01-1.96316E+01-1.79559E+01-3.11706E+01-3.62389E-15-1.43417E-14
 -1      1072-4.70137E+01-3.05462E+01-2.32879E+01-4.34480E+01-2.03669E-14 1.86427E-14
 -1      1073-4.14553E+01-3.36102E+01-2.25382E+01-4.23188E+01-9.06237E-14 2.49612E-15
 -1      1074-4.25932E+01-4.85642E+01-2.73763E+01-5.36586E+01 1.63363E-14-1.03116E-14
 -1      1075-3.64408E+01-5.01251E+01-2.59958E+01-5.03534E+01-3.43194E-14-4.71491E-16
 -1      1076-3.23605E+01-6.73106E+01-2.99380E+01-5.82412E+01-3.01212E-14 2.07167E-14
 -1      1077-2.66550E+01-6.66135E+01-2.80128E+01-5.34811E+01-5.12966E-15 8.71260E-15
 -1      1078-1.94566E+01-8.33795E+01-3.08922E+01-5.67161E+01-5.66925E-14-1.24420E-14
 -1      1079-1.47020E+01-8.04455E+01-2.85805E+01-5.14439E+01 2.20470E-14 2.46605E-14
 -1      1080-6.79228E+00-9.44780E+01-3.04240E+01-5.04443E+01 2.16362E-14 1.11215E-14
 -1      1081-3.09647E+00-8.99486E+01-2.79511E+01-4.54043E+01 8.65583E-14 7.83930E-16
 -1      1082 3.84195E+00-1.00052E+02-2.89050E+01-4.15892E+01 3.27780E-14 1.24209E-15
 -1      1083 6.57232E+00-9.47726E+01-2.64970E+01-3.71777E+01-3.85075E-14-3.99155E-15
 -1      1084 1.18381E+01-1.00909E+02-2.67603E+01-3.21206E+01 6.44814E-14-2.67464E-14
 -1      1085 1.37699E+01-9.55955E+01-2.45826E+01-2.84512E+01-1.88922E-14-1.22540E-14
 -1      1086 1.73698E+01-9.84625E+01-2.43634E+01-2.33502E+01-6.38304E-14 8.37168E-15
 -1      1087 1.86808E+01-9.35837E+01-2.25031E+01-2.03808E+01 5.19101E-14 1.53746E-15
 -1      1088 2.09490E+01-9.41472E+01-2.19915E+01-1.59279E+01-2.31105E-14-6.13728E-15
 -1      1089 2.18004E+01-8.99503E+01-2.04744E+01-1.35622E+01-4.85468E-14-9.06564E-15
 -1      1090 2.31335E+01-8.91337E+01-1.98289E+01-1.00412E+01 1.72970E-14-6.77582E-15
 -1      1091 2.36588E+01-8.57286E+01-1.86478E+01-8.18588E+00-2.45829E-14-1.82895E-15
 -1      1092 2.43912E+01-8.42830E+01-1.79937E+01-5.63092E+00-1.65834E-15 1.12465E-14
 -1      1093 2.46953E+01-8.17182E+01-1.71317E+01-4.22323E+00-1.84129E-15-4.46683E-15
 -1      1094 2.50617E+01-8.02163E+01-1.65704E+01-2.55269E+00 1.26939E-14 4.61744E-15
 -1      1095 2.52300E+01-7.85275E+01-1.60125E+01-1.57466E+00-3.41256E-14 2.52272E-15
 -1      1096 2.53818E+01-7.73582E+01-1.56156E+01-6.96234E-01-4.51048E-15-1.02265E-15
 -1      1097 2.54505E+01-7.66675E+01-1.53875E+01-1.88699E-01-5.82155E-14 1.33567E-16
 -1      1098-5.59748E-02-4.51578E-02-3.03429E-02 2.95622E-02 6.43891E-14 3.78074E-15
 -1      1099-4.98837E+00-5.65834E-01-1.66635E+00-1.82631E+00-7.46548E-14 8.12472E-15
 -1      1100-1.20957E+01-1.84155E+00-4.18172E+00-4.98215E+00-8.18852E-14-4.65715E-15
 -1      1101-1.49182E+01-3.02585E+00-5.38415E+00-7.20855E+00 1.28218E-14 1.76964E-15
 -1      1102-2.32348E+01-5.45810E+00-8.61033E+00-1.23581E+01 2.42163E-14-2.28153E-16
 -1      1103-2.35654E+01-7.40651E+00-9.29447E+00-1.44472E+01-3.99007E-14 1.09051E-15
 -1      1104-3.19269E+01-1.18750E+01-1.31466E+01-2.18410E+01-6.97395E-14 2.09993E-15
 -1      1105-2.98553E+01-1.44415E+01-1.32952E+01-2.31400E+01-8.10241E-14-1.32168E-14
 -1      1106-3.63649E+01-2.17659E+01-1.74504E+01-3.22106E+01-1.90780E-14-2.38763E-15
 -1      1107-3.24842E+01-2.45212E+01-1.71123E+01-3.21568E+01-7.89066E-14 7.28937E-15
 -1      1108-3.55281E+01-3.49906E+01-2.11730E+01-4.15423E+01-8.73381E-14-2.94160E-15
 -1      1109-3.07019E+01-3.72547E+01-2.04031E+01-3.98806E+01-2.51797E-14 1.10897E-14
 -1      1110-2.96817E+01-5.02676E+01-2.40085E+01-4.77863E+01-1.70937E-14 1.39612E-14
 -1      1111-2.47358E+01-5.13363E+01-2.28431E+01-4.46869E+01-2.17260E-14 2.42914E-14
 -1      1112-2.03510E+01-6.53982E+01-2.57537E+01-4.96256E+01-7.05210E-14-3.20827E-14
 -1      1113-1.58521E+01-6.48570E+01-2.42387E+01-4.55927E+01 1.25050E-13-1.28217E-14
 -1      1114-9.66637E+00-7.80916E+01-2.63598E+01-4.70131E+01 9.44294E-14 1.20522E-15
 -1      1115-5.88624E+00-7.59830E+01-2.45898E+01-4.26483E+01-7.41247E-14 1.17973E-14
 -1      1116 4.66694E-01-8.68423E+01-2.59466E+01-4.10254E+01-2.83341E-14 6.34623E-15
 -1      1117 3.46580E+00-8.35841E+01-2.40659E+01-3.68145E+01-5.47075E-14-2.04036E-14
 -1      1118 8.87817E+00-9.13038E+01-2.47612E+01-3.32389E+01-2.07120E-15-1.75186E-14
 -1      1119 1.11463E+01-8.74630E+01-2.29253E+01-2.94674E+01 1.16027E-13-8.32785E-15
 -1      1120 1.51791E+01-9.20796E+01-2.31021E+01-2.51070E+01 6.06887E-14-2.23431E-14
 -1      1121 1.68171E+01-8.81722E+01-2.14358E+01-2.18873E+01-1.98996E-14 1.32067E-14
 -1      1122 1.95204E+01-9.02517E+01-2.12493E+01-1.76370E+01 1.42839E-14-7.30820E-15
 -1      1123 2.06476E+01-8.66517E+01-1.98289E+01-1.49771E+01 2.24031E-14 1.10937E-14
 -1      1124 2.23021E+01-8.69694E+01-1.94278E+01-1.13620E+01 3.73735E-14 2.74240E-15
 -1      1125 2.30377E+01-8.39114E+01-1.82880E+01-9.22886E+00-3.81048E-15-3.02796E-15
 -1      1126 2.39650E+01-8.32271E+01-1.78041E+01-6.46874E+00-3.89050E-14-1.01479E-14
 -1      1127 2.44160E+01-8.08516E+01-1.69550E+01-4.83219E+00 1.49546E-14 1.81175E-15
 -1      1128 2.48819E+01-7.98123E+01-1.65029E+01-2.95968E+00 4.89431E-15-5.30617E-15
 -1      1129 2.51404E+01-7.82136E+01-1.59450E+01-1.82080E+00-1.46171E-15-3.04222E-15
 -1      1130 2.53444E+01-7.73020E+01-1.56100E+01-8.01020E-01 6.34648E-14 1.04377E-16
 -1      1131 2.54343E+01-7.66116E+01-1.53756E+01-2.27739E-01 7.24254E-14 8.18023E-16
 -1      1132-5.12954E-02-5.84479E-02-3.29249E-02 4.68338E-03-4.99100E-14 6.11391E-15
 -1      1133-3.52586E+00-5.59823E-01-1.22575E+00-1.50561E+00 5.63282E-14-1.83563E-16
 -1      1134-8.48540E+00-1.69615E+00-3.05476E+00-3.94876E+00-1.44135E-14-1.85607E-15
 -1      1135-1.06241E+01-2.67592E+00-3.99052E+00-5.67635E+00 7.56078E-15-2.88691E-15
 -1      1136-1.65120E+01-4.58588E+00-6.33068E+00-9.42512E+00 4.69414E-14-2.00997E-15
 -1      1137-1.69965E+01-6.09966E+00-6.93045E+00-1.10875E+01 6.19785E-14 2.98030E-15
 -1      1138-2.32772E+01-9.34204E+00-9.78907E+00-1.64094E+01 3.37139E-14-4.63782E-15
 -1      1139-2.20525E+01-1.13450E+01-1.00228E+01-1.76305E+01-5.62448E-15-3.65729E-16
 -1      1140-2.75920E+01-1.65142E+01-1.32382E+01-2.43479E+01-7.89716E-15-1.88986E-16
 -1      1141-2.48986E+01-1.88335E+01-1.31260E+01-2.47459E+01 6.36152E-14 1.87559E-15
 -1      1142-2.84874E+01-2.63232E+01-1.64536E+01-3.21990E+01-3.47537E-14 1.53419E-15
 -1      1143-2.47969E+01-2.86189E+01-1.60347E+01-3.14915E+01 8.34375E-15-5.08948E-15
 -1      1144-2.55749E+01-3.83746E+01-1.92000E+01-3.85698E+01 7.91329E-14 7.02583E-15
 -1      1145-2.14564E+01-4.01795E+01-1.85050E+01-3.66834E+01 1.65271E-14-3.70903E-14
 -1      1146-1.93160E+01-5.15167E+01-2.12696E+01-4.21420E+01 4.01508E-15-3.49390E-16
 -1      1147-1.52709E+01-5.23821E+01-2.03142E+01-3.92528E+01-6.84205E-14 2.11226E-15
 -1      1148-1.09295E+01-6.40742E+01-2.25249E+01-4.21897E+01-2.73036E-14 1.90683E-14
 -1      1149-7.28956E+00-6.37474E+01-2.13329E+01-3.86583E+01-1.11978E-15-1.21765E-14
 -1      1150-1.94903E+00-7.44065E+01-2.29332E+01-3.88660E+01 3.06304E-14-1.00224E-15
 -1      1151 1.12595E+00-7.29274E+01-2.15648E+01-3.51043E+01-6.48225E-14 1.45528E-14
 -1      1152 6.30115E+00-8.14728E+01-2.25795E+01-3.30742E+01-3.34347E-14 1.51141E-14
 -1      1153 8.77036E+00-7.91318E+01-2.11342E+01-2.94258E+01-8.38855E-14 2.42131E-14
 -1      1154 1.30278E+01-8.50773E+01-2.16430E+01-2.60472E+01 5.18313E-14 8.39555E-15
 -1      1155 1.49180E+01-8.22830E+01-2.02355E+01-2.27354E+01-7.19537E-14-1.40490E-14
 -1      1156 1.79954E+01-8.57364E+01-2.03497E+01-1.89224E+01-7.01762E-16-1.34142E-14
 -1      1157 1.93715E+01-8.28854E+01-1.90797E+01-1.60612E+01 5.08209E-14 2.41881E-16
 -1      1158 2.13601E+01-8.43518E+01-1.89236E+01-1.25073E+01-7.15972E-14-6.57869E-15
 -1      1159 2.23079E+01-8.17597E+01-1.78602E+01-1.01423E+01-6.16430E-15 1.12465E-14
 -1      1160 2.34614E+01-8.19075E+01-1.75586E+01-7.25373E+00 6.26899E-14-1.67051E-15
 -1      1161 2.40736E+01-7.97992E+01-1.67414E+01-5.40660E+00-4.33277E-15-7.07211E-15
 -1      1162 2.46632E+01-7.92931E+01-1.64125E+01-3.35755E+00-1.42529E-14-6.57831E-15
 -1      1163 2.50273E+01-7.78273E+01-1.58629E+01-2.06376E+00 3.02663E-14 1.83144E-15
 -1      1164 2.52955E+01-7.72212E+01-1.56003E+01-9.00585E-01 2.71305E-14-6.46239E-16
 -1      1165 2.54165E+01-7.65460E+01-1.53612E+01-2.70648E-01 1.90871E-14-8.73352E-16
 -1      1166-4.72013E-02-6.07089E-02-3.23743E-02-8.30213E-03 4.27305E-15 4.05381E-15
 -1      1167-2.51488E+00-5.58532E-01-9.22051E-01-1.25693E+00-8.59536E-15 7.45106E-16
 -1      1168-6.02433E+00-1.59764E+00-2.28675E+00-3.19942E+00-4.00499E-14-2.41555E-15
 -1      1169-7.62394E+00-2.45987E+00-3.02544E+00-4.57556E+00-1.31147E-14 5.72129E-15
 -1      1170-1.18159E+01-4.03897E+00-4.75720E+00-7.40254E+00-1.74127E-14 6.32158E-15
 -1      1171-1.22907E+01-5.29399E+00-5.27635E+00-8.73052E+00-2.75175E-14 1.12088E-15
 -1      1172-1.69437E+01-7.78733E+00-7.42121E+00-1.26770E+01 4.04947E-14 1.24988E-16
 -1      1173-1.62002E+01-9.42083E+00-7.68838E+00-1.37353E+01 5.64815E-15-6.00371E-15
 -1      1174-2.06487E+01-1.32524E+01-1.01741E+01-1.87731E+01 8.02397E-15-2.97813E-15
 -1      1175-1.87622E+01-1.51983E+01-1.01920E+01-1.93148E+01-2.34375E-14-5.88218E-15
 -1      1176-2.21870E+01-2.07243E+01-1.28798E+01-2.51448E+01-7.90437E-14 9.03920E-15
 -1      1177-1.93928E+01-2.28279E+01-1.26725E+01-2.49409E+01-2.03382E-14-2.67386E-14
 -1      1178-2.10204E+01-3.01980E+01-1.53752E+01-3.09287E+01 1.98389E-14 4.40208E-15
 -1      1179-1.76724E+01-3.21975E+01-1.49703E+01-2.98354E+01 9.75269E-15-2.63575E-14
 -1      1180-1.70681E+01-4.11855E+01-1.74895E+01-3.50989E+01 1.98684E-14-1.19038E-14
 -1      1181-1.35514E+01-4.27496E+01-1.69030E+01-3.31144E+01 3.83714E-14 4.47704E-15
 -1      1182-1.08415E+01-5.26756E+01-1.90722E+01-3.67782E+01-1.96975E-14-2.72795E-14
 -1      1183-7.47747E+00-5.34973E+01-1.83085E+01-3.40573E+01 3.23449E-14-2.18998E-14
 -1      1184-3.33759E+00-6.33420E+01-2.00243E+01-3.55765E+01 3.27998E-14-1.11354E-14
 -1      1185-3.33597E-01-6.32515E+01-1.90946E+01-3.23881E+01-1.60593E-14 3.59080E-15
 -1      1186 4.28420E+00-7.19533E+01-2.03235E+01-3.17564E+01-1.37940E-14 6.70548E-15
 -1      1187 6.82671E+00-7.09831E+01-1.92682E+01-2.84037E+01 5.50744E-14 9.14689E-16
 -1      1188 1.10636E+01-7.77706E+01-2.00363E+01-2.61175E+01 2.64200E-14-3.24932E-15
 -1      1189 1.31150E+01-7.61363E+01-1.89291E+01-2.28659E+01-3.80929E-16 8.48739E-15
 -1      1190 1.64554E+01-8.07198E+01-1.93040E+01-1.96858E+01-2.44707E-14-1.02830E-15
 -1      1191 1.80304E+01-7.87372E+01-1.82354E+01-1.67285E+01 5.63273E-15-4.45836E-15
 -1      1192 2.03387E+01-8.12933E+01-1.83109E+01-1.34011E+01-6.21430E-14-1.32510E-15
 -1      1193 2.14826E+01-7.92882E+01-1.73650E+01-1.08640E+01 2.01453E-14 4.13041E-15
 -1      1194 2.28869E+01-8.03029E+01-1.72486E+01-7.94497E+00-3.76820E-14-2.83514E-15
 -1      1195 2.36652E+01-7.85538E+01-1.64896E+01-5.91543E+00 9.41156E-15 2.31286E-15
 -1      1196 2.44049E+01-7.86394E+01-1.62935E+01-3.73038E+00-1.42651E-14-6.90492E-15
 -1      1197 2.48869E+01-7.73630E+01-1.57654E+01-2.29326E+00 6.96466E-15 1.69967E-15
 -1      1198 2.52333E+01-7.71069E+01-1.55846E+01-9.90910E-01-2.86697E-15-2.36109E-15
 -1      1199 2.53981E+01-7.64717E+01-1.53444E+01-3.16072E-01-8.72500E-15-2.25853E-16
 -1      1200-4.41739E-02-6.11408E-02-3.15953E-02-1.46362E-02-6.42174E-15 1.32558E-15
 -1      1201-1.79845E+00-5.59686E-01-7.07456E-01-1.05650E+00-2.39026E-14-3.51660E-15
 -1      1202-4.30094E+00-1.52876E+00-1.74901E+00-2.62917E+00 2.68993E-14 1.40876E-15
 -1      1203-5.48110E+00-2.32137E+00-2.34092E+00-3.74505E+00 2.88788E-14-9.79208E-15
 -1      1204-8.47336E+00-3.67903E+00-3.64615E+00-5.93367E+00 1.17230E-14 5.80733E-15
 -1      1205-8.87202E+00-4.77505E+00-4.09468E+00-7.00080E+00-7.57040E-15-1.12974E-14
 -1      1206-1.22866E+01-6.78582E+00-5.72284E+00-1.00037E+01-1.52647E-14 1.36623E-14
 -1      1207-1.18098E+01-8.17982E+00-5.99815E+00-1.08876E+01-1.76000E-14-1.23253E-14
 -1      1208-1.52593E+01-1.11494E+01-7.92486E+00-1.47273E+01-4.47129E-14 1.05304E-15
 -1      1209-1.39099E+01-1.28176E+01-8.02062E+00-1.52696E+01-2.35220E-14 3.26436E-14
 -1      1210-1.68658E+01-1.70350E+01-1.01742E+01-1.98231E+01-3.51758E-14-1.46031E-14
 -1      1211-1.47470E+01-1.89131E+01-1.01021E+01-1.98565E+01 2.79324E-15-9.25529E-15
 -1      1212-1.66183E+01-2.45809E+01-1.23660E+01-2.47803E+01 1.01054E-14-1.59973E-14
 -1      1213-1.39312E+01-2.65386E+01-1.21471E+01-2.41637E+01-1.79278E-14-2.29573E-15
 -1      1214-1.42307E+01-3.36550E+01-1.43747E+01-2.88878E+01-5.75909E-14 2.90727E-14
 -1      1215-1.12410E+01-3.54907E+01-1.40283E+01-2.75471E+01 1.33304E-14 2.54678E-15
 -1      1216-9.78369E+00-4.37419E+01-1.60699E+01-3.13740E+01 4.35696E-14 1.53395E-14
 -1      1217-6.76152E+00-4.52102E+01-1.56032E+01-2.93354E+01 3.06105E-14 2.30373E-14
 -1      1218-3.79076E+00-5.39483E+01-1.73371E+01-3.16456E+01 2.94084E-14 1.50816E-14
 -1      1219-9.52790E-01-5.48244E+01-1.67478E+01-2.90418E+01-1.55633E-14 2.62920E-15
 -1      1220 2.90974E+00-6.31887E+01-1.81019E+01-2.95248E+01 3.45316E-14 2.62445E-14
 -1      1221 5.42581E+00-6.33474E+01-1.73938E+01-2.65684E+01-3.92108E-14-4.66134E-15
 -1      1222 9.40715E+00-7.05077E+01-1.83506E+01-2.53490E+01 6.28912E-15 1.94581E-14
 -1      1223 1.15325E+01-6.99751E+01-1.75523E+01-2.22833E+01 2.01896E-14-1.88609E-14
 -1      1224 1.49864E+01-7.53821E+01-1.81406E+01-1.98628E+01 1.24070E-14 1.98916E-14
 -1      1225 1.66986E+01-7.43297E+01-1.73103E+01-1.69157E+01 1.73895E-14 1.75276E-15
 -1      1226 1.92790E+01-7.78464E+01-1.75928E+01-1.39706E+01-9.18894E-14 1.23168E-15
 -1      1227 2.05873E+01-7.65350E+01-1.68062E+01-1.13320E+01 1.08050E-14-8.78874E-16
 -1      1228 2.22549E+01-7.84072E+01-1.68685E+01-8.49593E+00 6.94800E-15-1.15166E-14
 -1      1229 2.31921E+01-7.71175E+01-1.61998E+01-6.32216E+00 5.18818E-15 1.81220E-14
 -1      1230 2.41095E+01-7.78347E+01-1.61402E+01-4.05832E+00 1.27302E-14 7.14716E-15
 -1      1231 2.47161E+01-7.68175E+01-1.56527E+01-2.49572E+00-1.07059E-14 3.26960E-15
 -1      1232 2.51562E+01-7.69488E+01-1.55602E+01-1.06782E+00-2.30797E-15 4.25435E-15
 -1      1233 2.53799E+01-7.63906E+01-1.53255E+01-3.61205E-01-9.26422E-15 1.15214E-15
 -1      1234-4.16880E-02-6.08946E-02-3.07754E-02-1.78716E-02 2.24156E-14 6.17081E-17
 -1      1235-1.28025E+00-5.62044E-01-5.52699E-01-8.89625E-01 1.85904E-14 1.02916E-14
 -1      1236-3.06834E+00-1.48013E+00-1.36460E+00-2.17706E+00-3.49125E-14-8.47871E-15
 -1      1237-3.92269E+00-2.23104E+00-1.84623E+00-3.09161E+00-6.59217E-15 8.60454E-15
 -1      1238-6.05504E+00-3.43345E+00-2.84681E+00-4.81749E+00-2.14891E-14 1.24861E-14
 -1      1239-6.35695E+00-4.42966E+00-3.23633E+00-5.67771E+00-1.13203E-14 1.26792E-15
 -1      1240-8.83874E+00-6.11515E+00-4.48686E+00-8.01055E+00-2.40452E-14-5.02680E-15
 -1      1241-8.50543E+00-7.35379E+00-4.75856E+00-8.73204E+00 1.36008E-14 1.11806E-14
 -1      1242-1.11128E+01-9.74682E+00-6.25930E+00-1.17064E+01-4.24511E-14-2.07979E-14
 -1      1243-1.01179E+01-1.12203E+01-6.40296E+00-1.21867E+01-9.45562E-15-2.20548E-14
 -1      1244-1.25184E+01-1.45478E+01-8.12238E+00-1.57616E+01-6.72154E-15 1.12215E-15
 -1      1245-1.08959E+01-1.62333E+01-8.14137E+00-1.58831E+01 5.91627E-15-3.06292E-14
 -1      1246-1.26725E+01-2.06918E+01-1.00134E+01-1.98812E+01 2.49458E-14-1.06617E-14
 -1      1247-1.05252E+01-2.25317E+01-9.92118E+00-1.95278E+01-6.07353E-14-7.61654E-15
 -1      1248-1.12566E+01-2.82148E+01-1.18475E+01-2.36015E+01-4.46969E-14-2.07490E-14
 -1      1249-8.75111E+00-3.01027E+01-1.16622E+01-2.26831E+01 4.94392E-14 2.32758E-14
 -1      1250-8.14149E+00-3.69109E+01-1.35243E+01-2.63330E+01-1.25639E-14 1.11729E-14
 -1      1251-5.48119E+00-3.86890E+01-1.32595E+01-2.48124E+01 2.86235E-14 9.82949E-15
 -1      1252-3.49998E+00-4.62622E+01-1.49400E+01-2.74869E+01 1.82569E-14 1.61203E-14
 -1      1253-8.82003E-01-4.77396E+01-1.45977E+01-2.54017E+01 1.21522E-14 4.81282E-15
 -1      1254 2.16623E+00-5.54671E+01-1.60045E+01-2.66672E+01 1.74178E-14 1.45960E-14
 -1      1255 4.58849E+00-5.64678E+01-1.55777E+01-2.41352E+01-3.90122E-14 1.52642E-14
 -1      1256 8.13342E+00-6.36127E+01-1.66607E+01-2.38484E+01-1.02639E-14-2.14521E-15
 -1      1257 1.02637E+01-6.40365E+01-1.61483E+01-2.10523E+01-3.98987E-14-1.50401E-14
 -1      1258 1.36663E+01-6.99441E+01-1.69024E+01-1.94344E+01-1.70645E-14 2.67525E-14
 -1      1259 1.54559E+01-6.98122E+01-1.63255E+01-1.65922E+01 4.34622E-14 8.04256E-15
 -1      1260 1.82277E+01-7.41067E+01-1.67843E+01-1.41548E+01-1.68875E-14-1.32509E-14
 -1      1261 1.96595E+01-7.35630E+01-1.61913E+01-1.14905E+01 3.25228E-14 1.14032E-14
 -1      1262 2.15841E+01-7.62372E+01-1.64175E+01-8.85711E+00-5.93348E-15-5.69330E-15
 -1      1263 2.26620E+01-7.55048E+01-1.58742E+01-6.58660E+00-3.29061E-14 1.11807E-14
 -1      1264 2.37824E+01-7.68689E+01-1.59481E+01-4.31747E+00 1.14134E-14-2.78338E-15
 -1      1265 2.45124E+01-7.61914E+01-1.55256E+01-2.65427E+00-7.59211E-15 8.92119E-15
 -1      1266 2.50640E+01-7.67364E+01-1.55240E+01-1.12727E+00 2.35839E-14 3.87714E-15
 -1      1267 2.53620E+01-7.63050E+01-1.53051E+01-4.01355E-01-6.20875E-14-8.62723E-17
 -1      1268-3.96002E-02-6.11886E-02-3.02371E-02-1.94526E-02-2.93613E-14-5.48280E-15
 -1      1269-8.99396E-01-5.64939E-01-4.39307E-01-7.46701E-01-6.78964E-15-2.49871E-15
 -1      1270-2.17176E+00-1.44568E+00-1.08527E+00-1.80623E+00 5.06013E-15 3.09916E-15
 -1      1271-2.77260E+00-2.17246E+00-1.48359E+00-2.55803E+00-1.97592E-14 2.38428E-15
 -1      1272-4.28178E+00-3.26156E+00-2.26317E+00-3.93483E+00-2.88229E-14 5.05845E-15
 -1      1273-4.48727E+00-4.19469E+00-2.60481E+00-4.62606E+00 5.42818E-15 7.86796E-15
 -1      1274-6.26832E+00-5.65225E+00-3.57661E+00-6.46684E+00 2.16833E-14-1.54753E-15
 -1      1275-6.00863E+00-6.79022E+00-3.84017E+00-7.04249E+00-1.09580E-14-2.41417E-14
 -1      1276-7.93418E+00-8.78428E+00-5.01644E+00-9.37966E+00-1.65594E-14-1.86930E-14
 -1      1277-7.17335E+00-1.01256E+01-5.19068E+00-9.77241E+00 8.50712E-17-7.85986E-15
 -1      1278-9.03721E+00-1.28333E+01-6.56279E+00-1.26014E+01 1.11489E-14-2.67246E-14
 -1      1279-7.77520E+00-1.43735E+01-6.64634E+00-1.27290E+01-1.05718E-14-3.28692E-15
 -1      1280-9.29550E+00-1.79666E+01-8.18136E+00-1.59632E+01 1.14803E-14 1.73097E-14
 -1      1281-7.57648E+00-1.96851E+01-8.18128E+00-1.57370E+01 1.77021E-14 4.00290E-15
 -1      1282-8.42920E+00-2.42886E+01-9.81953E+00-1.91730E+01-1.31551E-14-1.40801E-14
 -1      1283-6.34739E+00-2.61375E+01-9.74973E+00-1.85100E+01-1.60290E-14 4.45360E-14
 -1      1284-6.23690E+00-3.17653E+01-1.14068E+01-2.18134E+01-1.86421E-14-1.35769E-14
 -1      1285-3.93040E+00-3.36591E+01-1.12830E+01-2.06543E+01 2.73525E-14-1.12659E-14
 -1      1286-2.69367E+00-4.01450E+01-1.28600E+01-2.33921E+01-2.69845E-14 3.65859E-14
 -1      1287-3.22352E-01-4.19561E+01-1.26920E+01-2.17213E+01 7.52583E-15 1.60525E-14
 -1      1288 1.96983E+00-4.89131E+01-1.40940E+01-2.34596E+01-3.60945E-14-3.95984E-15
 -1      1289 4.25626E+00-5.04855E+01-1.38798E+01-2.13222E+01 2.79574E-14-1.76941E-14
 -1      1290 7.26502E+00-5.73386E+01-1.50359E+01-2.17715E+01 1.86898E-14-2.21392E-14
 -1      1291 9.35307E+00-5.85241E+01-1.47651E+01-1.92816E+01-1.66852E-14-2.53616E-14
 -1      1292 1.25532E+01-6.46369E+01-1.56415E+01-1.84293E+01-3.62072E-14-3.60894E-15
 -1      1293 1.43728E+01-6.53478E+01-1.53089E+01-1.57640E+01-5.95428E-14 3.43777E-15
 -1      1294 1.72303E+01-7.02084E+01-1.59121E+01-1.39135E+01 1.76164E-14-5.71118E-15
 -1      1295 1.87456E+01-7.04584E+01-1.55325E+01-1.12973E+01-9.26164E-15 7.57281E-16
 -1      1296 2.08971E+01-7.38379E+01-1.59026E+01-8.97983E+00-6.89732E-15 1.06311E-14
 -1      1297 2.20902E+01-7.37450E+01-1.55168E+01-6.66785E+00 3.38926E-14-1.36521E-14
 -1      1298 2.34321E+01-7.57430E+01-1.57148E+01-4.48006E+00 2.34148E-14-3.71707E-15
 -1      1299 2.42758E+01-7.54909E+01-1.53860E+01-2.74916E+00 1.47551E-15-2.16311E-15
 -1      1300 2.49586E+01-7.64611E+01-1.54729E+01-1.16540E+00 3.67810E-14-4.72901E-16
 -1      1301 2.53431E+01-7.62171E+01-1.52844E+01-4.29874E-01-1.05049E-14 3.40955E-16
 -1      1302-3.77123E-02-6.24773E-02-3.00572E-02-2.01422E-02 1.55561E-15 3.29961E-14
 -1      1303-6.16136E-01-5.67904E-01-3.55216E-01-6.21067E-01-1.10955E-14 1.01328E-14
 -1      1304-1.51136E+00-1.42157E+00-8.79906E-01-1.49277E+00 9.18234E-15-4.65914E-15
 -1      1305-1.91439E+00-2.13605E+00-1.21518E+00-2.10714E+00 8.43396E-16-4.24736E-15
 -1      1306-2.96827E+00-3.13926E+00-1.83237E+00-3.21137E+00 7.87632E-15-4.62982E-15
 -1      1307-3.08679E+00-4.03337E+00-2.13620E+00-3.75942E+00-2.56782E-14 3.31775E-15
 -1      1308-4.34107E+00-5.32559E+00-2.90029E+00-5.22716E+00 8.89222E-15 2.78215E-14
 -1      1309-4.11676E+00-6.39938E+00-3.15519E+00-5.67137E+00-2.97382E-14-1.26715E-14
 -1      1310-5.50169E+00-8.10854E+00-4.08367E+00-7.52896E+00-4.06379E-15-3.46230E-15
 -1      1311-4.89736E+00-9.36307E+00-4.27880E+00-7.82416E+00 5.31070E-15 7.96844E-15
 -1      1312-6.28618E+00-1.16282E+01-5.37542E+00-1.00815E+01 1.82376E-14 1.07049E-14
 -1      1313-5.28635E+00-1.30671E+01-5.50722E+00-1.01699E+01 1.48198E-15 2.98524E-14
 -1      1314-6.49325E+00-1.60325E+01-6.75959E+00-1.27886E+01-1.77163E-15 1.66720E-14
 -1      1315-5.10923E+00-1.76533E+01-6.83070E+00-1.26040E+01-6.97284E-15 3.64897E-15
 -1      1316-5.90049E+00-2.14459E+01-8.20685E+00-1.54693E+01-9.01107E-15 7.10560E-15
 -1      1317-4.17810E+00-2.32331E+01-8.22640E+00-1.49433E+01 1.07619E-14-4.39716E-14
 -1      1318-4.30496E+00-2.79210E+01-9.67217E+00-1.78411E+01 1.12774E-14 2.90715E-14
 -1      1319-2.32812E+00-2.98374E+01-9.65417E+00-1.69133E+01 4.39551E-15 1.87779E-15
 -1      1320-1.59005E+00-3.53734E+01-1.10953E+01-1.95296E+01 2.77089E-14 5.56904E-15
 -1      1321 5.25343E-01-3.73502E+01-1.10539E+01-1.81613E+01-6.55912E-15-3.73849E-14
 -1      1322 2.19467E+00-4.35182E+01-1.24056E+01-2.01238E+01 1.64133E-14 9.14420E-15
 -1      1323 4.31910E+00-4.54485E+01-1.23476E+01-1.83159E+01-2.75093E-14 2.91628E-15
 -1      1324 6.77724E+00-5.18436E+01-1.35311E+01-1.92897E+01 3.99315E-15 1.23318E-15
 -1      1325 8.79261E+00-5.35909E+01-1.34509E+01-1.70994E+01-1.22502E-14 1.40722E-14
 -1      1326 1.16791E+01-5.96699E+01-1.44112E+01-1.69164E+01-9.20658E-15-5.68701E-15
 -1      1327 1.34979E+01-6.10977E+01-1.42942E+01-1.44697E+01 4.48403E-14-1.95468E-14
 -1      1328 1.63261E+01-6.63104E+01-1.50119E+01-1.32325E+01-1.89226E-14 8.10145E-16
 -1      1329 1.78944E+01-6.73279E+01-1.48470E+01-1.07288E+01-1.09400E-14 2.52369E-14
 -1      1330 2.02176E+01-7.12853E+01-1.53393E+01-8.82112E+00 6.23863E-15-7.51720E-16
 -1      1331 2.14998E+01-7.18842E+01-1.51346E+01-6.52804E+00 1.12053E-15 4.79154E-15
 -1      1332 2.30690E+01-7.44745E+01-1.54424E+01-4.51530E+00 6.00980E-15 8.69169E-15
 -1      1333 2.40099E+01-7.47288E+01-1.52368E+01-2.75875E+00-4.67248E-15 6.64245E-15
 -1      1334 2.48449E+01-7.61191E+01-1.54042E+01-1.17806E+00-2.01970E-14-4.67531E-15
 -1      1335 2.53197E+01-7.61280E+01-1.52646E+01-4.38843E-01-2.41399E-14-1.92861E-16
 -1      1336-3.59554E-02-6.51431E-02-3.03298E-02-2.02281E-02 3.76411E-14 1.01997E-15
 -1      1337-4.03998E-01-5.70530E-01-2.92361E-01-5.07832E-01 7.06158E-16-2.49570E-14
 -1      1338-1.02108E+00-1.40535E+00-7.27945E-01-1.22032E+00-2.10629E-14-2.50404E-16
 -1      1339-1.26963E+00-2.11599E+00-1.01572E+00-1.71333E+00-8.83109E-15 2.28327E-15
 -1      1340-1.98940E+00-3.05169E+00-1.51240E+00-2.59845E+00 1.10682E-14-1.47872E-14
 -1      1341-2.03411E+00-3.92347E+00-1.78738E+00-3.01989E+00-1.86686E-15 2.23275E-14
 -1      1342-2.89177E+00-5.09186E+00-2.39529E+00-4.19651E+00 6.01605E-15 3.43286E-14
 -1      1343-2.68368E+00-6.12680E+00-2.64338E+00-4.51922E+00-6.27124E-15 2.06484E-14
 -1      1344-3.64457E+00-7.62655E+00-3.38175E+00-6.00762E+00-6.63465E-15-1.93048E-14
 -1      1345-3.14819E+00-8.82731E+00-3.59312E+00-6.20054E+00 2.07306E-14-1.07001E-14
 -1      1346-4.13518E+00-1.07688E+01-4.47194E+00-8.01515E+00-1.49476E-14-3.08397E-14
 -1      1347-3.32894E+00-1.21428E+01-4.64236E+00-8.03705E+00-1.72234E-14-3.80090E-14
 -1      1348-4.22116E+00-1.46453E+01-5.66122E+00-1.01643E+01 2.55692E-14 5.23354E-15
 -1      1349-3.09914E+00-1.61991E+01-5.79087E+00-9.96615E+00 7.57343E-16-8.47460E-15
 -1      1350-3.73423E+00-1.93796E+01-6.93623E+00-1.23439E+01-5.23252E-15 2.16772E-14
 -1      1351-2.31202E+00-2.11150E+01-7.03032E+00-1.18720E+01-1.71481E-14-8.49377E-15
 -1      1352-2.49872E+00-2.50628E+01-8.27166E+00-1.43683E+01-6.24781E-15-5.23526E-15
 -1      1353-8.19828E-01-2.69714E+01-8.34073E+00-1.35696E+01-2.64868E-14-1.52736E-14
 -1      1354-3.70824E-01-3.17076E+01-9.62822E+00-1.59685E+01 3.46268E-14 2.96082E-14
 -1      1355 1.49084E+00-3.37625E+01-9.68644E+00-1.47998E+01 2.64932E-15 7.51806E-15
 -1      1356 2.70123E+00-3.91895E+01-1.09532E+01-1.68106E+01-2.45510E-14-8.20043E-15
 -1      1357 4.64689E+00-4.13344E+01-1.10132E+01-1.52516E+01 1.24549E-14-2.25153E-14
 -1      1358 6.60995E+00-4.71947E+01-1.21845E+01-1.65584E+01-5.28615E-15 1.30597E-14
 -1      1359 8.53140E+00-4.93338E+01-1.22502E+01-1.46294E+01 1.37038E-14-1.22469E-14
 -1      1360 1.10490E+01-5.52071E+01-1.32593E+01-1.49875E+01 1.54306E-14 1.80443E-15
 -1      1361 1.28486E+01-5.72078E+01-1.33201E+01-1.27699E+01-3.10681E-14-1.35757E-14
 -1      1362 1.55437E+01-6.25780E+01-1.41251E+01-1.21245E+01-4.64661E-15-1.16022E-14
 -1      1363 1.71482E+01-6.42925E+01-1.41587E+01-9.78093E+00 8.76965E-16-1.31160E-14
 -1      1364 1.95680E+01-6.86826E+01-1.47520E+01-8.34878E+00-1.02351E-14 1.13238E-14
 -1      1365 2.09209E+01-6.99876E+01-1.47383E+01-6.13606E+00 7.70620E-16 4.68843E-15
 -1      1366 2.27045E+01-7.31011E+01-1.51390E+01-4.39124E+00 3.03456E-15-3.81456E-15
 -1      1367 2.37238E+01-7.39273E+01-1.50817E+01-2.66104E+00 7.79462E-15-9.13174E-15
 -1      1368 2.47311E+01-7.57156E+01-1.53171E+01-1.15973E+00 3.74959E-14 3.07031E-15
 -1      1369 2.52857E+01-7.60368E+01-1.52474E+01-4.20942E-01 2.80913E-14 2.14294E-15
 -1      1370-3.42488E-02-6.95196E-02-3.11307E-02-1.97459E-02-6.01591E-15-4.81224E-14
 -1      1371-2.45128E-01-5.72361E-01-2.45249E-01-4.03176E-01-3.16749E-15-2.76300E-17
 -1      1372-6.56525E-01-1.39544E+00-6.15603E-01-9.76922E-01-3.94988E-15 2.76903E-14
 -1      1373-7.85106E-01-2.10864E+00-8.68149E-01-1.35758E+00-9.84868E-16-8.10031E-16
 -1      1374-1.25980E+00-2.98946E+00-1.27483E+00-2.06244E+00-6.60201E-17-1.15250E-14
 -1      1375-1.24549E+00-3.85121E+00-1.52909E+00-2.36640E+00-1.29743E-16-2.57151E-14
 -1      1376-1.80409E+00-4.92404E+00-2.01858E+00-3.31002E+00-4.18090E-16 5.17882E-14
 -1      1377-1.60521E+00-5.93864E+00-2.26333E+00-3.51597E+00 3.36129E-15 1.37616E-15
 -1      1378-2.23505E+00-7.28032E+00-2.85490E+00-4.71416E+00-9.91723E-15 1.13628E-14
 -1      1379-1.81832E+00-8.45210E+00-3.08148E+00-4.80003E+00-1.03072E-14-2.99175E-14
 -1      1380-2.47331E+00-1.01512E+01-3.78791E+00-6.26751E+00 1.55544E-16-1.29630E-14
 -1      1381-1.81539E+00-1.14901E+01-3.99227E+00-6.20325E+00-8.59867E-15-1.47360E-14
 -1      1382-2.41751E+00-1.36449E+01-4.81966E+00-7.93885E+00-4.77958E-15 1.87352E-14
 -1      1383-1.50396E+00-1.51625E+01-5.00097E+00-7.68805E+00-2.88140E-15 7.13034E-14
 -1      1384-1.94275E+00-1.78762E+01-5.94720E+00-9.66035E+00 2.60802E-14 1.39286E-14
 -1      1385-7.71338E-01-1.95836E+01-6.10814E+00-9.18194E+00-1.97712E-15-2.46474E-14
 -1      1386-9.07402E-01-2.29497E+01-7.15952E+00-1.13123E+01-3.91290E-14-9.64369E-15
 -1      1387 5.06410E-01-2.48549E+01-7.30712E+00-1.05635E+01 1.75713E-15 8.09270E-15
 -1      1388 8.26972E-01-2.89302E+01-8.43456E+00-1.27097E+01-8.44809E-15-7.79759E-15
 -1      1389 2.44444E+00-3.10329E+01-8.58041E+00-1.16518E+01 1.53323E-14-4.40822E-14
 -1      1390 3.35712E+00-3.57969E+01-9.73720E+00-1.36013E+01-4.46244E-15 3.70271E-15
 -1      1391 5.11384E+00-3.80794E+01-9.89531E+00-1.22086E+01 1.34988E-14-2.67462E-14
 -1      1392 6.68196E+00-4.33890E+01-1.10195E+01-1.36965E+01-7.35043E-15 1.60818E-14
 -1      1393 8.49210E+00-4.58009E+01-1.12006E+01-1.19717E+01-3.28287E-15 6.51047E-15
 -1      1394 1.06437E+01-5.13582E+01-1.22244E+01-1.27381E+01-1.51045E-15-6.21542E-15
 -1      1395 1.24119E+01-5.38004E+01-1.24273E+01-1.07333E+01 3.29557E-15-2.07303E-15
 -1      1396 1.49003E+01-5.91658E+01-1.32928E+01-1.06237E+01 1.63644E-14-2.02479E-14
 -1      1397 1.65358E+01-6.14814E+01-1.34977E+01-8.46773E+00 2.53800E-15-3.56279E-15
 -1      1398 1.89690E+01-6.61539E+01-1.41718E+01-7.54536E+00 9.75343E-15 3.93607E-14
 -1      1399 2.03863E+01-6.81403E+01-1.43435E+01-5.47048E+00 1.14661E-14-1.80255E-14
 -1      1400 2.23493E+01-7.16830E+01-1.48194E+01-4.07820E+00-1.35413E-15-4.73892E-15
 -1      1401 2.34335E+01-7.31204E+01-1.49263E+01-2.43540E+00 7.64910E-15-1.17582E-14
 -1      1402 2.46283E+01-7.52682E+01-1.52135E+01-1.10183E+00-3.29321E-14 6.03539E-15
 -1      1403 2.52342E+01-7.59412E+01-1.52341E+01-3.72464E-01-7.04422E-14 1.66977E-15
 -1      1404-3.29105E-02-7.60990E-02-3.27030E-02-1.84899E-02 3.17635E-17 3.36529E-14
 -1      1405-1.27554E-01-5.72760E-01-2.10096E-01-3.03963E-01 2.98093E-15-5.41080E-14
 -1      1406-3.87707E-01-1.39099E+00-5.33618E-01-7.53224E-01 1.88118E-15 2.65315E-14
 -1      1407-4.25151E-01-2.11149E+00-7.61010E-01-1.02442E+00 5.21607E-15-1.04833E-14
 -1      1408-7.21268E-01-2.94664E+00-1.10041E+00-1.57853E+00 8.38548E-16-1.88835E-14
 -1      1409-6.64111E-01-3.80783E+00-1.34164E+00-1.76745E+00-3.59188E-15-4.11194E-14
 -1      1410-9.96867E-01-4.80502E+00-1.74067E+00-2.52086E+00 1.24962E-16-7.38108E-14
 -1      1411-8.09097E-01-5.81368E+00-1.98697E+00-2.60907E+00 1.57807E-15-5.06065E-15
 -1      1412-1.18013E+00-7.03318E+00-2.46421E+00-3.57517E+00 2.79048E-15-4.32285E-14
 -1      1413-8.30044E-01-8.19566E+00-2.70798E+00-3.54612E+00-1.11897E-14 3.42874E-14
 -1      1414-1.21301E+00-9.70949E+00-3.27716E+00-4.73850E+00-6.38183E-15 8.50592E-14
 -1      1415-6.77009E-01-1.10380E+01-3.51499E+00-4.56966E+00-3.66943E-15 2.17156E-14
 -1      1416-1.02181E+00-1.29271E+01-4.18539E+00-5.99320E+00 1.77616E-16-5.58587E-15
 -1      1417-2.81363E-01-1.44371E+01-4.41636E+00-5.65730E+00-6.20063E-15-1.39445E-14
 -1      1418-5.13670E-01-1.67906E+01-5.19244E+00-7.29834E+00 1.48719E-14 3.67191E-14
 -1      1419 4.43794E-01-1.84992E+01-5.41795E+00-6.76460E+00 1.03511E-14-4.71249E-15
 -1      1420 4.22396E-01-2.14064E+01-6.29704E+00-8.57845E+00-1.15822E-14 3.21856E-15
 -1      1421 1.60004E+00-2.33315E+01-6.52148E+00-7.81459E+00 5.28327E-15-1.24097E-14
 -1      1422 1.90688E+00-2.68649E+01-7.49024E+00-9.71127E+00 2.66888E-15 2.08713E-14
 -1      1423 3.29324E+00-2.90222E+01-7.72182E+00-8.68728E+00 1.30297E-16 4.49435E-14
 -1      1424 4.04830E+00-3.32083E+01-8.75224E+00-1.05195E+01-7.52241E-15 2.30651E-14
 -1      1425 5.61158E+00-3.56053E+01-9.00279E+00-9.21446E+00-2.33881E-14 9.65226E-15
 -1      1426 6.90407E+00-4.03835E+01-1.00500E+01-1.07773E+01 2.04776E-15-1.63888E-14
 -1      1427 8.58828E+00-4.30061E+01-1.03321E+01-9.19139E+00-1.03311E-14 2.53595E-14
 -1      1428 1.04254E+01-4.81848E+01-1.13364E+01-1.02490E+01-7.14894E-15-9.96225E-15
 -1      1429 1.21506E+01-5.09742E+01-1.16566E+01-8.42213E+00 9.38503E-15-2.25552E-14
 -1      1430 1.44017E+01-5.62064E+01-1.25531E+01-8.77549E+00-3.98362E-15 2.91219E-14
 -1      1431 1.60683E+01-5.90271E+01-1.29004E+01-6.81514E+00 4.13588E-15-1.30864E-14
 -1      1432 1.84401E+01-6.38345E+01-1.36335E+01-6.40928E+00-1.00410E-14-2.57430E-14
 -1      1433 1.99276E+01-6.64471E+01-1.39723E+01-4.52151E+00 6.24560E-15 3.33822E-15
 -1      1434 2.20150E+01-7.03029E+01-1.45049E+01-3.55337E+00-1.41215E-15-2.48445E-14
 -1      1435 2.31615E+01-7.23563E+01-1.47782E+01-2.06450E+00-4.75252E-15 4.44435E-15
 -1      1436 2.45471E+01-7.48080E+01-1.50995E+01-9.91616E-01-3.61153E-15 5.81844E-16
 -1      1437 2.51613E+01-7.58401E+01-1.52256E+01-2.96378E-01 1.19214E-14-3.75683E-15
 -1      1438-3.14636E-02-8.54428E-02-3.50721E-02-1.60610E-02 1.27219E-15-1.19560E-14
 -1      1439-4.36240E-02-5.70609E-01-1.84271E-01-2.07573E-01-1.96956E-16 1.16093E-15
 -1      1440-1.95365E-01-1.39165E+00-4.76112E-01-5.41069E-01-1.93674E-15 1.70672E-14
 -1      1441-1.67338E-01-2.12312E+00-6.87151E-01-6.99858E-01-1.90318E-15 3.56622E-14
 -1      1442-3.35326E-01-2.91990E+00-9.76598E-01-1.12670E+00-1.71039E-15-4.64204E-15
 -1      1443-2.53987E-01-3.78797E+00-1.21264E+00-1.19652E+00-1.76412E-16 6.05629E-15
 -1      1444-4.15416E-01-4.72437E+00-1.54202E+00-1.79243E+00 6.14716E-16-1.01371E-14
 -1      1445-2.49159E-01-5.73898E+00-1.79655E+00-1.75536E+00 2.04999E-15-3.57941E-14
 -1      1446-4.15389E-01-6.86234E+00-2.18349E+00-2.53382E+00-8.96061E-17 1.39326E-14
 -1      1447-1.32613E-01-8.03259E+00-2.44978E+00-2.37636E+00 5.72602E-15-4.73802E-14
 -1      1448-2.90539E-01-9.40206E+00-2.90810E+00-3.34972E+00-2.75075E-15-7.59690E-15
 -1      1449 1.32748E-01-1.07428E+01-3.18340E+00-3.05436E+00-1.82162E-15-3.65658E-14
 -1      1450 1.49234E-02-1.24255E+01-3.72373E+00-4.23044E+00-9.12424E-15 2.94257E-14
 -1      1451 5.99721E-01-1.39559E+01-4.00752E+00-3.77652E+00 1.15444E-15 3.77325E-14
 -1      1452 5.71756E-01-1.60277E+01-4.63772E+00-5.15210E+00 3.01582E-15 2.70389E-14
 -1      1453 1.33720E+00-1.77704E+01-4.93105E+00-4.51711E+00-9.37120E-15-3.78133E-14
 -1      1454 1.46719E+00-2.03126E+01-5.65510E+00-6.06915E+00-5.67171E-17-1.04393E-15
 -1      1455 2.42923E+00-2.22926E+01-5.96074E+00-5.23072E+00 2.78158E-15 1.90535E-14
 -1      1456 2.80233E+00-2.53818E+01-6.77615E+00-6.90519E+00-5.58686E-15 2.43545E-14
 -1      1457 3.97020E+00-2.76254E+01-7.09920E+00-5.84442E+00 9.56002E-15-2.50932E-14
 -1      1458 4.68160E+00-3.13135E+01-7.99310E+00-7.54421E+00-9.33186E-15-1.91718E-14
 -1      1459 6.05185E+00-3.38436E+01-8.34155E+00-6.25142E+00 3.45861E-15-7.63730E-15
 -1      1460 7.18865E+00-3.81254E+01-9.28627E+00-7.82836E+00 8.53953E-15-4.44270E-14
 -1      1461 8.73699E+00-4.09512E+01-9.67021E+00-6.31291E+00 6.64085E-15-6.40830E-15
 -1      1462 1.03438E+01-4.57189E+01-1.06201E+01-7.57405E+00-5.98758E-15-1.95494E-14
 -1      1463 1.20151E+01-4.88127E+01-1.10478E+01-5.88006E+00-5.20913E-15-1.06397E-14
 -1      1464 1.40442E+01-5.38100E+01-1.19403E+01-6.62437E+00-1.01207E-14 2.33839E-14
 -1      1465 1.57411E+01-5.70647E+01-1.24090E+01-4.85398E+00 5.72317E-15 4.58392E-15
 -1      1466 1.80023E+01-6.18639E+01-1.31726E+01-4.95281E+00-1.46779E-14-3.32681E-14
 -1      1467 1.95708E+01-6.50331E+01-1.36544E+01-3.29211E+00-3.78345E-15-5.39487E-15
 -1      1468 2.17170E+01-6.90640E+01-1.42220E+01-2.80599E+00 1.11437E-14-4.86797E-16
 -1      1469 2.29343E+01-7.16987E+01-1.46487E+01-1.53726E+00-4.52551E-15 3.84335E-16
 -1      1470 2.44945E+01-7.43791E+01-1.49864E+01-8.13273E-01 3.86839E-14 8.41041E-15
 -1      1471 2.50735E+01-7.57389E+01-1.52215E+01-2.02933E-01 5.21441E-14-3.25051E-16
 -1      1472-3.37769E-02-1.00884E-01-4.03984E-02-1.18326E-02-5.58422E-16-8.01682E-14
 -1      1473 1.09914E-02-5.62933E-01-1.65583E-01-1.09178E-01-3.68201E-16-5.56509E-14
 -1      1474-6.66598E-02-1.39767E+00-4.39304E-01-3.32135E-01-2.52354E-16-2.76010E-15
 -1      1475-2.45278E-03-2.14655E+00-6.44716E-01-3.67417E-01 1.24666E-16 5.65254E-14
 -1      1476-7.86823E-02-2.90807E+00-8.96053E-01-6.87883E-01 7.03148E-17-3.26456E-14
 -1      1477 2.51527E-03-3.79502E+00-1.13779E+00-6.25781E-01-9.59137E-17 3.36425E-14
 -1      1478-2.63164E-02-4.67737E+00-1.41118E+00-1.09134E+00 2.47946E-15 2.01404E-14
 -1      1479 9.63903E-02-5.71346E+00-1.68522E+00-9.12404E-01-1.76720E-16 5.84197E-14
 -1      1480 9.92522E-02-6.75595E+00-1.99715E+00-1.53949E+00 1.82811E-15-1.41501E-14
 -1      1481 2.96757E-01-7.95433E+00-2.29746E+00-1.23000E+00-3.04090E-17 1.48967E-14
 -1      1482 3.34542E-01-9.20583E+00-2.66166E+00-2.03142E+00 1.39803E-15-4.61178E-15
 -1      1483 6.33238E-01-1.05853E+01-2.98596E+00-1.57670E+00 1.92719E-15 4.51317E-14
 -1      1484 7.24680E-01-1.21016E+01-3.41354E+00-2.56228E+00 6.35587E-15 2.18793E-14
 -1      1485 1.14893E+00-1.36862E+01-3.76176E+00-1.94658E+00-1.56049E-15 6.80037E-15
 -1      1486 1.32658E+00-1.55313E+01-4.26220E+00-3.11963E+00-3.65874E-15 2.56207E-14
 -1      1487 1.90145E+00-1.73496E+01-4.63538E+00-2.32757E+00 4.77369E-15 2.51981E-14
 -1      1488 2.21136E+00-1.95950E+01-5.21637E+00-3.67905E+00-7.88963E-16-1.46635E-14
 -1      1489 2.96334E+00-2.16793E+01-5.61631E+00-2.69813E+00-1.42615E-15-1.11077E-16
 -1      1490 3.46468E+00-2.43988E+01-6.28222E+00-4.19856E+00 1.25461E-15 3.84353E-15
 -1      1491 4.41997E+00-2.67836E+01-6.71145E+00-3.02312E+00-7.45192E-15 4.99056E-15
 -1      1492 5.18227E+00-3.00399E+01-7.46035E+00-4.61248E+00 4.31656E-15 1.87540E-14
 -1      1493 6.36182E+00-3.27580E+01-7.92246E+00-3.24981E+00 2.63981E-15 1.16279E-14
 -1      1494 7.45609E+00-3.65786E+01-8.74138E+00-4.82739E+00-1.32338E-15 8.24772E-15
 -1      1495 8.86539E+00-3.96508E+01-9.24104E+00-3.30688E+00-8.40946E-16 1.41225E-15
 -1      1496 1.03442E+01-4.39877E+01-1.00999E+01-4.72707E+00-5.05969E-15-8.97116E-15
 -1      1497 1.19557E+01-4.74006E+01-1.06414E+01-3.11278E+00 2.48035E-15 2.70452E-14
 -1      1498 1.38171E+01-5.20751E+01-1.14871E+01-4.19836E+00 2.22505E-16-1.31968E-14
 -1      1499 1.55425E+01-5.57357E+01-1.20692E+01-2.60407E+00-1.41458E-15 6.10767E-16
 -1      1500 1.76796E+01-6.03824E+01-1.28242E+01-3.19403E+00-1.23066E-15-1.09768E-14
 -1      1501 1.93368E+01-6.40402E+01-1.34262E+01-1.79360E+00-7.49776E-16-5.94320E-15
 -1      1502 2.14795E+01-6.80877E+01-1.39998E+01-1.83903E+00-1.84363E-15 1.07499E-14
 -1      1503 2.27783E+01-7.12241E+01-1.45528E+01-8.51969E-01-3.32242E-15 3.27961E-15
 -1      1504 2.44697E+01-7.40339E+01-1.48901E+01-5.52564E-01 7.26384E-15 2.92196E-15
 -1      1505 2.49928E+01-7.56552E+01-1.52205E+01-1.04734E-01-5.36104E-16 1.44131E-15
 -1      1506-3.21588E-02-1.20085E-01-4.56733E-02-5.17953E-03-2.32133E-17-3.30299E-14
 -1      1507 3.17049E-02-5.56657E-01-1.57487E-01-3.22752E-02-6.10303E-18-1.93587E-15
 -1      1508-6.67981E-05-1.42272E+00-4.26840E-01-1.14621E-01 1.23294E-17 2.88655E-14
 -1      1509 5.88606E-02-2.16112E+00-6.30692E-01 2.47934E-02 1.79293E-16 2.68951E-15
 -1      1510 5.91298E-02-2.91895E+00-8.57969E-01-2.35399E-01 1.03156E-16 1.39554E-14
 -1      1511 9.88996E-02-3.80600E+00-1.11217E+00 7.49594E-03 2.24872E-16-3.06140E-14
 -1      1512 1.83345E-01-4.66886E+00-1.34572E+00-3.72017E-01-7.16409E-17-2.09503E-14
 -1      1513 2.24730E-01-5.71325E+00-1.64665E+00-2.02060E-03 3.65352E-16-3.83400E-14
 -1      1514 3.78933E-01-6.71615E+00-1.90130E+00-5.23943E-01-9.94886E-18 3.62870E-14
 -1      1515 4.55052E-01-7.93493E+00-2.24414E+00-6.65384E-03 2.10687E-16 7.50739E-14
 -1      1516 6.76946E-01-9.11892E+00-2.53284E+00-6.90512E-01 5.50746E-16-1.45129E-15
 -1      1517 8.17428E-01-1.05369E+01-2.91615E+00-8.58734E-03-4.12616E-16 4.65201E-14
 -1      1518 1.11688E+00-1.19477E+01-3.24967E+00-8.70152E-01-6.41697E-16-1.31900E-14
 -1      1519 1.35154E+00-1.35965E+01-3.67403E+00-9.15366E-03 2.31543E-16-1.86885E-14
 -1      1520 1.74861E+00-1.52867E+01-4.06214E+00-1.05896E+00 1.53265E-16 2.59093E-14
 -1      1521 2.11083E+00-1.72041E+01-4.52887E+00-9.06888E-03-5.43003E-16 1.78245E-14
 -1      1522 2.63475E+00-1.92334E+01-4.98076E+00-1.24922E+00 6.58300E-16-1.43326E-14
 -1      1523 3.16339E+00-2.14622E+01-5.49108E+00-8.67690E-03-2.04718E-15 4.78143E-14
 -1      1524 3.85205E+00-2.38949E+01-6.01470E+00-1.42751E+00 1.80810E-15-9.90617E-15
 -1      1525 4.59090E+00-2.64802E+01-6.56905E+00-8.13746E-03 8.49009E-16 3.53679E-14
 -1      1526 5.48966E+00-2.93771E+01-7.16907E+00-1.57245E+00 1.87270E-17-6.52197E-15
 -1      1527 6.48265E+00-3.23602E+01-7.76674E+00-7.53358E-03 3.40629E-16 3.21825E-15
 -1      1528 7.64047E+00-3.57608E+01-8.44042E+00-1.65295E+00-4.77200E-16-1.42871E-15
 -1      1529 8.91929E+00-3.91662E+01-9.07929E+00-6.85877E-03-1.66449E-15-2.78244E-14
 -1      1530 1.03785E+01-4.30559E+01-9.80962E+00-1.62896E+00 1.42390E-15-4.84268E-14
 -1      1531 1.19382E+01-4.68641E+01-1.04855E+01-6.00984E-03-1.02033E-15-5.22898E-14
 -1      1532 1.37127E+01-5.11211E+01-1.12319E+01-1.45895E+00 6.79036E-16 3.68419E-14
 -1      1533 1.54700E+01-5.52194E+01-1.19358E+01-4.13267E-03 8.12449E-16-1.61503E-14
 -1      1534 1.75032E+01-5.95463E+01-1.26259E+01-1.12076E+00-1.33133E-15 5.12055E-15
 -1      1535 1.92482E+01-6.36453E+01-1.33341E+01-1.22548E-03 4.41167E-16-1.44086E-14
 -1      1536 2.13404E+01-6.75176E+01-1.38702E+01-6.51207E-01-3.48076E-16 3.43737E-15
 -1      1537 2.27191E+01-7.10295E+01-1.45121E+01 9.44561E-03 7.04204E-16-7.64501E-15
 -1      1538 2.44639E+01-7.38303E+01-1.48307E+01-2.00185E-01 4.41283E-14 4.63363E-15
 -1      1539 2.49567E+01-7.56186E+01-1.52203E+01 2.66818E-02 1.79012E-14-6.89669E-15
 -1      1540 2.19696E-01-2.57832E-03 6.51353E-02 1.55314E-02 1.56988E-12 8.95875E-14
 -1      1541 1.78000E-03 3.63929E-03 1.62571E-03 7.09260E-02-8.24641E-13-1.00472E-13
 -1      1542-1.79265E-02-2.39391E-02-1.25597E-02 4.00003E-02 1.32168E-13-5.17950E-14
 -1      1543 2.31613E-01 1.20056E-02 7.30854E-02-1.01915E-01 2.27902E-12 2.56670E-14
 -1      1544-3.26754E-01-2.60507E-02-1.05842E-01 2.57571E-01-2.25844E-13 2.10106E-14
 -1      1545-2.04716E-01-9.96852E-02-9.13206E-02 1.08217E-01-9.59195E-13 1.57512E-13
 -1      1546 1.70388E-01 1.00891E-01 8.13836E-02-1.96636E-01 1.02249E-12-1.18673E-13
 -1      1547-5.92641E-01-1.09953E-01-2.10781E-01 5.01035E-01-7.61160E-13 5.84719E-14
 -1      1548-3.44801E-01-2.19790E-01-1.69378E-01 2.16489E-01-4.19276E-13-8.37190E-14
 -1      1549 1.89290E-01 2.17245E-01 1.21960E-01-2.10477E-01 1.82612E-12 1.35471E-13
 -1      1550-7.86754E-01-2.65382E-01-3.15647E-01 7.91854E-01-1.35007E-12 1.27154E-13
 -1      1551-4.39592E-01-3.90768E-01-2.49110E-01 3.69997E-01 9.21827E-13-6.22406E-14
 -1      1552 2.28195E-01 3.11114E-01 1.61793E-01-1.85893E-01 1.51861E-12 9.75705E-14
 -1      1553-9.05917E-01-4.99124E-01-4.21524E-01 1.12774E+00-3.85055E-13-4.66055E-14
 -1      1554-4.91522E-01-6.24386E-01-3.34776E-01 5.64093E-01 2.62698E-13 4.24120E-14
 -1      1555 2.64679E-01 3.32737E-01 1.79225E-01-1.40180E-01-2.26022E-12-8.99261E-14
 -1      1556-9.52383E-01-8.16446E-01-5.30669E-01 1.50432E+00-1.64862E-12-1.12291E-13
 -1      1557-5.03609E-01-9.37133E-01-4.32229E-01 7.89283E-01-4.60671E-14-1.49052E-14
 -1      1558 2.88555E-01 2.33830E-01 1.56716E-01-8.32718E-02-2.01395E-12 8.98389E-15
 -1      1559-9.31040E-01-1.22372E+00-6.46461E-01 1.91081E+00 5.07236E-13 5.22170E-14
 -1      1560-4.79354E-01-1.34886E+00-5.48476E-01 1.03257E+00-1.24608E-12 1.22207E-13
 -1      1561 2.94299E-01-3.14378E-02 7.88589E-02-2.24022E-02 2.26719E-12 9.80053E-14
 -1      1562-8.48120E-01-1.72908E+00-7.73208E-01 2.32880E+00-1.16290E-12 1.43249E-13
 -1      1563-4.22452E-01-1.88066E+00-6.90956E-01 1.27761E+00 1.00622E-12-4.43520E-14
 -1      1564 2.78999E-01-5.04116E-01-6.75355E-02 3.67486E-02-2.44033E-12-6.35452E-14
 -1      1565-7.10208E-01-2.34173E+00-9.15652E-01 2.73164E+00 1.32837E-12-1.19182E-14
 -1      1566-3.36529E-01-2.55169E+00-8.66499E-01 1.50458E+00-1.96281E-12 3.03838E-14
 -1      1567 2.41658E-01-1.21705E+00-2.92623E-01 8.96683E-02 2.86735E-13-4.02731E-15
 -1      1568-5.23575E-01-3.07013E+00-1.07821E+00 3.08396E+00-1.22744E-12-1.90169E-14
 -1      1569-2.25055E-01-3.37453E+00-1.07993E+00 1.68979E+00 1.27209E-12 8.53820E-16
 -1      1570 1.82829E-01-2.18994E+00-6.02149E-01 1.32654E-01-1.72663E-13 2.57100E-14
 -1      1571-2.94024E-01-3.91881E+00-1.26398E+00 3.34167E+00 2.32424E-12 1.33804E-15
 -1      1572-9.16034E-02-4.34901E+00-1.33226E+00 1.80536E+00 9.68725E-13-4.34291E-15
 -1      1573 1.04451E-01-3.42206E+00-9.95316E-01 1.62310E-01-2.87586E-12 3.13004E-15
 -1      1574-2.75727E-02-4.88395E+00-1.47361E+00 3.45258E+00-2.41991E-13 1.90007E-14
 -1      1575 5.92911E-02-5.45442E+00-1.61865E+00 1.81925E+00 9.32101E-13-1.94292E-14
 -1      1576 1.00661E-02-4.88148E+00-1.46149E+00 1.74867E-01-1.21586E-12 1.45939E-14
 -1      1577 2.67215E-01-5.94788E+00-1.70439E+00 3.35906E+00 1.70183E-12 2.20302E-14
 -1      1578 2.19932E-01-6.64091E+00-1.92644E+00 1.69661E+00-6.96967E-13 3.22875E-14
 -1      1579-9.41469E-02-6.48950E+00-1.97521E+00 1.65260E-01-5.29923E-14-4.71586E-14
 -1      1580 5.72939E-01-7.07297E+00-1.95023E+00 3.00569E+00 1.51021E-12-7.20419E-14
 -1      1581 3.73643E-01-7.82323E+00-2.23507E+00 1.40519E+00-8.01757E-13-1.20399E-14
 -1      1582-1.96523E-01-8.09894E+00-2.48881E+00 1.25887E-01 1.13332E-12 1.31758E-14
 -1      1583 8.45553E-01-8.19484E+00-2.20503E+00 2.35884E+00-1.80525E-12-9.50509E-14
 -1      1584 4.77046E-01-8.88485E+00-2.52257E+00 9.33284E-01 1.79378E-12-2.98529E-14
 -1      1585-2.73414E-01-9.46784E+00-2.92261E+00 4.58555E-02 1.38364E-12 5.72172E-14
 -1      1586 9.59183E-01-9.20599E+00-2.47431E+00 1.44960E+00-2.31973E-12 1.95007E-14
 -1      1587 4.00208E-01-9.70323E+00-2.79117E+00 3.46937E-01 2.57926E-13 8.34799E-14
 -1      1588-2.76689E-01-1.02508E+01-3.15854E+00-8.11281E-02-8.20263E-14-6.13255E-14
 -1      1589 5.15137E-01-9.85702E+00-2.80284E+00 4.30133E-01 1.25538E-12-7.02533E-14
 -1      1590-2.41904E-01-1.00224E+01-3.07956E+00-4.27537E-02-9.05594E-13 1.14941E-13
 -1      1591-1.37834E-01-1.01611E+01-3.08996E+00-1.77427E-01-1.47271E-12 7.90424E-14
 -1      1592-1.13677E+00 3.91193E-03-3.39862E-01-2.72468E-03 6.78178E-13-3.28997E-13
 -1      1593-2.75731E+00 1.27206E-02-8.23398E-01 2.89853E-01 2.66457E-12-1.21668E-13
 -1      1594-1.52404E+00-3.17639E-02-4.66748E-01 3.63001E-01 3.53029E-13 3.45074E-14
 -1      1595-3.03933E+00-1.20975E-02-9.15458E-01 8.47280E-01 3.93242E-14 3.51289E-14
 -1      1596-1.83043E+00-1.11790E-01-5.82679E-01 7.53900E-01 9.51204E-14-3.16613E-13
 -1      1597-3.26346E+00-9.35147E-02-1.00714E+00 1.41782E+00 1.29086E-12-3.63687E-14
 -1      1598-2.06269E+00-2.52169E-01-6.94480E-01 1.17635E+00-1.12413E-13 1.52967E-14
 -1      1599-3.40884E+00-2.47140E-01-1.09685E+00 2.01080E+00-1.52654E-12 4.85133E-14
 -1      1600-2.20858E+00-4.57201E-01-7.99766E-01 1.62824E+00-4.72779E-13 8.32700E-14
 -1      1601-3.45673E+00-4.78931E-01-1.18078E+00 2.62289E+00 3.22702E-13-6.56192E-17
 -1      1602-2.25980E+00-7.35567E-01-8.98657E-01 2.10672E+00-9.77725E-14-5.46018E-14
 -1      1603-3.39099E+00-7.94934E-01-1.25589E+00 3.24776E+00 3.17328E-13-5.12583E-15
 -1      1604-2.21010E+00-1.09606E+00-9.91912E-01 2.60494E+00-8.04835E-13 9.06500E-14
 -1      1605-3.19769E+00-1.20202E+00-1.32005E+00 3.87390E+00-1.54038E-13-7.89469E-14
 -1      1606-2.05539E+00-1.54673E+00-1.08072E+00 3.11017E+00 3.15653E-12 2.61293E-14
 -1      1607-2.86606E+00-1.70738E+00-1.37221E+00 4.48317E+00 1.54476E-12-1.41641E-14
 -1      1608-1.79388E+00-2.09483E+00-1.16673E+00 3.60193E+00 2.66326E-13-1.68704E-14
 -1      1609-2.38921E+00-2.31787E+00-1.41234E+00 5.04874E+00 6.36446E-13-3.36543E-14
 -1      1610-1.42625E+00-2.74671E+00-1.25203E+00 4.05030E+00 2.30777E-13-5.35178E-14
 -1      1611-1.76515E+00-3.03913E+00-1.44155E+00 5.53301E+00 2.55279E-13 1.03386E-14
 -1      1612-9.56155E-01-3.50709E+00-1.33915E+00 4.41465E+00-8.50683E-13 2.19287E-14
 -1      1613-9.98384E-01-3.87438E+00-1.46213E+00 5.88585E+00 1.29149E-12-6.64271E-16
 -1      1614-3.91719E-01-4.37743E+00-1.43096E+00 4.64321E+00-9.81828E-13-5.37050E-15
 -1      1615-1.03231E-01-4.82201E+00-1.47792E+00 6.04402E+00 3.78764E-13 1.99179E-14
 -1      1616 2.50952E-01-5.35297E+00-1.53086E+00 4.67411E+00 1.90957E-12 2.28564E-15
 -1      1617 8.88925E-01-5.87145E+00-1.49514E+00 5.93265E+00 1.61426E-12-5.16323E-15
 -1      1618 9.39879E-01-6.41794E+00-1.64370E+00 4.43952E+00-1.01488E-12 3.23327E-15
 -1      1619 1.91455E+00-6.99544E+00-1.52468E+00 5.47033E+00 5.74815E-13 6.02544E-14
 -1      1620 1.60979E+00-7.53759E+00-1.77865E+00 3.87561E+00 1.86520E-12 3.17365E-15
 -1      1621 2.84739E+00-8.13631E+00-1.58710E+00 4.57854E+00-5.74678E-13 1.24894E-13
 -1      1622 2.12155E+00-8.64480E+00-1.95730E+00 2.94229E+00 3.39744E-13-1.21511E-13
 -1      1623 3.43779E+00-9.17881E+00-1.72272E+00 3.19287E+00 2.03200E-13-4.84523E-14
 -1      1624 2.16305E+00-9.63068E+00-2.24062E+00 1.64759E+00-4.71348E-13-1.46220E-13
 -1      1625 3.22088E+00-9.86279E+00-1.99295E+00 1.22828E+00-1.12237E-12-6.06036E-14
 -1      1626 1.04130E+00-1.01542E+01-2.73417E+00 2.31235E-02 7.08764E-13-8.32739E-14
 -1      1627-4.95403E+00-2.81049E-03-1.48712E+00-1.71443E-02-1.78366E-12 4.14962E-14
 -1      1628-7.35872E+00 6.85454E-03-2.20571E+00 4.29198E-01-6.63707E-13-1.06198E-13
 -1      1629-5.16182E+00-2.50042E-02-1.55612E+00 6.50358E-01-8.56105E-14 1.99544E-13
 -1      1630-7.39831E+00-9.31728E-03-2.22245E+00 1.25852E+00-8.46389E-13-1.25317E-13
 -1      1631-5.30095E+00-9.43525E-02-1.61868E+00 1.33751E+00-5.41376E-13-5.45871E-14
 -1      1632-7.36430E+00-8.20209E-02-2.23408E+00 2.09614E+00 4.71665E-14-4.86273E-14
 -1      1633-5.35828E+00-2.13681E-01-1.67170E+00 2.05807E+00 5.23839E-13-3.21861E-14
 -1      1634-7.23429E+00-2.19387E-01-2.23631E+00 2.95797E+00 1.31652E-12 1.53531E-14
 -1      1635-5.31470E+00-3.93309E-01-1.71254E+00 2.79791E+00 7.72009E-13-1.61623E-13
 -1      1636-6.98672E+00-4.27941E-01-2.22464E+00 3.83413E+00-1.36610E-13 7.21813E-14
 -1      1637-5.15238E+00-6.45674E-01-1.73958E+00 3.54878E+00 9.67301E-13-1.32458E-14
 -1      1638-6.59900E+00-7.16899E-01-2.19505E+00 4.71247E+00 6.66514E-13 9.23421E-14
 -1      1639-4.85358E+00-9.82669E-01-1.75107E+00 4.29924E+00-1.92478E-12-6.51571E-14
 -1      1640-6.04828E+00-1.09694E+00-2.14390E+00 5.57605E+00-4.70969E-13 3.42375E-15
 -1      1641-4.40138E+00-1.41534E+00-1.74526E+00 5.03258E+00 4.99121E-13-1.43526E-13
 -1      1642-5.31258E+00-1.57923E+00-2.06793E+00 6.40157E+00 1.43394E-12 9.84588E-14
 -1      1643-3.78094E+00-1.95366E+00-1.72067E+00 5.72471E+00 1.33535E-12-1.01692E-15
 -1      1644-4.37243E+00-2.17444E+00-1.96450E+00 7.15701E+00-1.49715E-12-8.24883E-15
 -1      1645-2.98101E+00-2.60608E+00-1.67647E+00 6.34187E+00 3.61949E-13-9.82660E-15
 -1      1646-3.21328E+00-2.89163E+00-1.83198E+00 7.79897E+00 2.84625E-13-3.68973E-14
 -1      1647-1.99638E+00-3.37869E+00-1.61291E+00 6.83811E+00 9.24611E-13 2.27544E-15
 -1      1648-1.82940E+00-3.73645E+00-1.67032E+00 8.26960E+00-7.66711E-14 2.35158E-15
 -1      1649-8.31712E-01-4.27355E+00-1.53202E+00 7.15314E+00-2.57594E-13-4.26562E-15
 -1      1650-2.30235E-01-4.70805E+00-1.48211E+00 8.49376E+00 1.86371E-13-3.78554E-15
 -1      1651 4.91668E-01-5.28563E+00-1.43868E+00 7.21102E+00-7.22131E-13-1.54260E-14
 -1      1652 1.54894E+00-5.79380E+00-1.27412E+00 8.37691E+00-9.39255E-13 4.24089E-15
 -1      1653 1.92335E+00-6.39712E+00-1.34266E+00 6.92075E+00 5.35110E-13-6.61666E-14
 -1      1654 3.42890E+00-6.95985E+00-1.05998E+00 7.80448E+00-8.33356E-13 1.25932E-14
 -1      1655 3.36158E+00-7.56670E+00-1.26208E+00 6.17981E+00-5.10524E-13-5.62423E-14
 -1      1656 5.25668E+00-8.13536E+00-8.64303E-01 6.64250E+00 1.20825E-13 1.74430E-15
 -1      1657 4.61332E+00-8.71038E+00-1.22966E+00 4.87994E+00 4.83485E-13-2.04578E-13
 -1      1658 6.76018E+00-9.18821E+00-7.29084E-01 4.73831E+00 3.51971E-13-2.07660E-13
 -1      1659 5.32783E+00-9.67536E+00-1.30478E+00 2.90822E+00 8.14300E-13-1.04064E-14
 -1      1660 7.50222E+00-9.86302E+00-7.08860E-01 1.86301E+00 8.28490E-13-4.45934E-14
 -1      1661 4.89377E+00-1.01176E+01-1.56762E+00 3.65641E-02-1.29175E-12 3.72820E-13
 -1      1662-1.01967E+01 6.26353E-05-3.05927E+00-2.18266E-02-5.96625E-13-5.27249E-13
 -1      1663-1.29727E+01 4.69403E-03-3.89086E+00 5.33273E-01-1.44329E-12-2.72123E-14
 -1      1664-1.01328E+01-2.03634E-02-3.04624E+00 8.78155E-01-1.14850E-12-4.81089E-14
 -1      1665-1.27070E+01-8.90719E-03-3.81522E+00 1.57443E+00-4.30302E-13 1.45259E-13
 -1      1666-9.98911E+00-8.10151E-02-3.02133E+00 1.80489E+00 1.71613E-12 5.38918E-14
 -1      1667-1.23454E+01-7.52751E-02-3.72667E+00 2.63053E+00 2.03429E-14-3.14516E-14
 -1      1668-9.74306E+00-1.85784E-01-2.97897E+00 2.77218E+00 1.10068E-12 2.22593E-14
 -1      1669-1.18623E+01-1.98248E-01-3.61866E+00 3.71840E+00 2.24128E-13 1.49812E-14
 -1      1670-9.37469E+00-3.46648E-01-2.91674E+00 3.76033E+00-7.28456E-13-2.19619E-13
 -1      1671-1.12343E+01-3.85400E-01-3.48643E+00 4.82392E+00 2.33941E-13 4.90642E-15
 -1      1672-8.86156E+00-5.76424E-01-2.83178E+00 4.75756E+00-4.53439E-13-9.99061E-15
 -1      1673-1.04344E+01-6.47701E-01-3.32520E+00 5.93177E+00-2.98020E-13 5.86185E-14
 -1      1674-8.17929E+00-8.88145E-01-2.72066E+00 5.74797E+00 2.54847E-12 1.68669E-14
 -1      1675-9.43390E+00-9.98042E-01-3.13019E+00 7.02119E+00 4.94569E-13 6.25322E-15
 -1      1676-7.30229E+00-1.29518E+00-2.57972E+00 6.70969E+00 3.50484E-13-5.48591E-14
 -1      1677-8.20249E+00-1.45052E+00-2.89657E+00 8.06395E+00-1.01041E-13-3.79019E-14
 -1      1678-6.20520E+00-1.81086E+00-2.40536E+00 7.61289E+00-1.15970E-12 8.21764E-15
 -1      1679-6.71024E+00-2.01955E+00-2.61967E+00 9.02169E+00-1.83768E-12-6.34695E-14
 -1      1680-4.86498E+00-2.44769E+00-2.19441E+00 8.41703E+00 1.22653E-13 1.85477E-14
 -1      1681-4.93019E+00-2.71836E+00-2.29538E+00 9.84251E+00 2.30807E-13-1.73580E-14
 -1      1682-3.26444E+00-3.21582E+00-1.94475E+00 9.06757E+00-1.89396E-13-1.49481E-14
 -1      1683-2.84326E+00-3.55660E+00-1.92084E+00 1.04568E+01-1.65285E-12 1.58718E-14
 -1      1684-1.39780E+00-4.12054E+00-1.65624E+00 9.49224E+00-1.77360E-12 5.79997E-15
 -1      1685-4.46205E-01-4.53631E+00-1.49571E+00 1.07725E+01-8.11412E-13-3.13772E-14
 -1      1686 7.19950E-01-5.15791E+00-1.33219E+00 9.59714E+00-1.75043E-12 2.56015E-15
 -1      1687 2.23539E+00-5.64531E+00-1.02399E+00 1.06699E+01-7.44783E-13-6.42352E-14
 -1      1688 3.03795E+00-6.30748E+00-9.81705E-01 9.26341E+00-3.96134E-13-1.06549E-13
 -1      1689 5.12681E+00-6.84662E+00-5.17003E-01 9.99753E+00 1.17031E-12-2.86674E-14
 -1      1690 5.44520E+00-7.51996E+00-6.23303E-01 8.34511E+00 2.76119E-13 1.19721E-13
 -1      1691 8.07336E+00-8.06198E+00 2.33408E-03 8.56751E+00 1.08355E-12 1.33257E-14
 -1      1692 7.73307E+00-8.69762E+00-2.90240E-01 6.66807E+00-2.77380E-13-3.25159E-15
 -1      1693 1.07969E+01-9.15052E+00 4.92855E-01 6.15396E+00-1.24763E-12-7.45543E-14
 -1      1694 9.54146E+00-9.67690E+00-4.14796E-02 4.02710E+00 2.49882E-13 3.67697E-14
 -1      1695 1.28637E+01-9.85121E+00 9.02684E-01 2.42830E+00 2.34173E-13 3.66787E-14
 -1      1696 1.03095E+01-1.01295E+01 5.31860E-02 6.07293E-02-8.05372E-13 5.82082E-14
 -1      1697-1.62298E+01-2.83748E-04-4.86973E+00-2.64715E-02-7.49086E-13 1.33260E-13
 -1      1698-1.91134E+01 3.27206E-03-5.73404E+00 6.10934E-01-1.88739E-13 7.85043E-14
 -1      1699-1.58548E+01-1.64271E-02-4.76205E+00 1.06106E+00 1.27219E-12-2.04991E-13
 -1      1700-1.85203E+01-8.35262E-03-5.55957E+00 1.81767E+00-2.09349E-13-2.80643E-14
 -1      1701-1.53836E+01-6.82831E-02-4.63625E+00 2.18200E+00 2.17048E-12-1.43638E-14
 -1      1702-1.78085E+01-6.59958E-02-5.36328E+00 3.05012E+00 1.21215E-12 3.06813E-14
 -1      1703-1.47851E+01-1.59110E-01-4.48394E+00 3.35205E+00 1.15753E-12-7.42770E-14
 -1      1704-1.69486E+01-1.71886E-01-5.13707E+00 4.32435E+00-2.22862E-13-1.67941E-14
 -1      1705-1.40390E+01-3.01181E-01-4.30273E+00 4.54946E+00 5.59757E-13-2.05280E-14
 -1      1706-1.59151E+01-3.34827E-01-4.87591E+00 5.62445E+00-1.02319E-12-1.06690E-13
 -1      1707-1.31186E+01-5.07171E-01-4.08846E+00 5.76101E+00-4.71366E-13 5.99100E-14
 -1      1708-1.46763E+01-5.67159E-01-4.57399E+00 6.93407E+00-1.00374E-13 5.11913E-14
 -1      1709-1.19938E+01-7.90873E-01-3.83616E+00 6.96828E+00 1.13556E-12 4.72021E-14
 -1      1710-1.31965E+01-8.83753E-01-4.22506E+00 8.23040E+00 1.25045E-12 1.33611E-14
 -1      1711-1.06310E+01-1.16746E+00-3.54034E+00 8.14587E+00-7.68259E-13-1.26133E-13
 -1      1712-1.14360E+01-1.30156E+00-3.82230E+00 9.48158E+00-6.85566E-13 6.94799E-14
 -1      1713-8.99457E+00-1.65316E+00-3.19518E+00 9.25883E+00 7.22636E-13-1.08756E-14
 -1      1714-9.35262E+00-1.83867E+00-3.35848E+00 1.06433E+01 6.78866E-14-7.89728E-15
 -1      1715-7.04891E+00-2.26427E+00-2.79489E+00 1.02593E+01-4.34158E-13-1.78849E-15
 -1      1716-6.90454E+00-2.51262E+00-2.82631E+00 1.16545E+01 1.07232E-13 3.89889E-14
 -1      1717-4.76240E+00-3.01539E+00-2.33435E+00 1.10822E+01-2.20116E-13 1.19513E-14
 -1      1718-4.05571E+00-3.33735E+00-2.21917E+00 1.24319E+01-9.71855E-13-7.78671E-15
 -1      1719-2.11412E+00-3.91609E+00-1.81015E+00 1.16399E+01-7.09735E-13 5.15629E-16
 -1      1720-7.85053E-01-4.31844E+00-1.53238E+00 1.28633E+01 1.83667E-13 1.53579E-14
 -1      1721 8.95194E-01-4.96559E+00-1.22229E+00 1.18166E+01 1.06076E-12-2.03198E-14
 -1      1722 2.89881E+00-5.44562E+00-7.65462E-01 1.28015E+01 6.15875E-13-2.22375E-14
 -1      1723 4.22581E+00-6.14430E+00-5.76786E-01 1.14620E+01-9.30501E-13 1.08410E-13
 -1      1724 6.93483E+00-6.68153E+00 7.44943E-02 1.20562E+01 3.34389E-14 9.74352E-15
 -1      1725 7.77248E+00-7.40068E+00 1.10250E-01 1.03855E+01 6.02058E-13-1.76381E-14
 -1      1726 1.11756E+01-7.94454E+00 9.67765E-01 1.03873E+01 3.66527E-13 7.55287E-14
 -1      1727 1.13252E+01-8.63087E+00 8.06960E-01 8.35188E+00-1.32866E-13-5.15427E-14
 -1      1728 1.53400E+01-9.08675E+00 1.87435E+00 7.49962E+00-1.32329E-12 1.87125E-13
 -1      1729 1.45141E+01-9.66061E+00 1.45469E+00 5.07691E+00-1.33972E-12-4.51539E-14
 -1      1730 1.89883E+01-9.83359E+00 2.74467E+00 2.96831E+00-6.22713E-13-2.30495E-13
 -1      1731 1.67885E+01-1.01374E+01 1.99390E+00 8.45208E-02 1.99682E-12 8.30333E-14
 -1      1732-2.26116E+01 8.02147E-05-6.78486E+00-2.93910E-02-5.13446E-13 1.84327E-13
 -1      1733-2.54172E+01 2.22909E-03-7.62625E+00 6.63492E-01 4.65131E-13-4.00485E-14
 -1      1734-2.19187E+01-1.21436E-02-6.58057E+00 1.20206E+00-5.66835E-13-1.56786E-13
 -1      1735-2.45050E+01-6.13656E-03-7.35501E+00 1.99224E+00 1.64407E-13-1.22821E-13
 -1      1736-2.11138E+01-5.36934E-02-6.35150E+00 2.47521E+00-3.64289E-13-1.32330E-13
 -1      1737-2.34541E+01-5.16355E-02-7.05331E+00 3.36113E+00 5.50169E-13 3.61267E-14
 -1      1738-2.01576E+01-1.28269E-01-6.08698E+00 3.80779E+00 4.19657E-13 7.52845E-14
 -1      1739-2.22315E+01-1.36506E-01-6.71191E+00 4.78520E+00 3.76443E-14-2.14352E-13
 -1      1740-1.90289E+01-2.48090E-01-5.78429E+00 5.17838E+00 6.55797E-13-3.49433E-14
 -1      1741-2.08081E+01-2.71329E-01-6.32531E+00 6.24893E+00 2.73268E-13-8.87090E-15
 -1      1742-1.76959E+01-4.26014E-01-5.43774E+00 6.57402E+00 8.63019E-14 7.05156E-14
 -1      1743-1.91457E+01-4.70431E-01-5.88630E+00 7.73657E+00 7.52427E-13 1.33837E-13
 -1      1744-1.61209E+01-6.77081E-01-5.04058E+00 7.97556E+00 1.05774E-13 9.67097E-15
 -1      1745-1.71991E+01-7.51454E-01-5.38661E+00 9.22450E+00 4.89013E-14-6.62006E-14
 -1      1746-1.42609E+01-1.01879E+00-4.58510E+00 9.35546E+00-1.27649E-12 1.11535E-14
 -1      1747-1.49160E+01-1.13492E+00-4.81673E+00 1.06779E+01 9.01371E-13 1.17365E-13
 -1      1748-1.20675E+01-1.47070E+00-4.06272E+00 1.06744E+01 1.36738E-12-5.43283E-14
 -1      1749-1.22385E+01-1.64301E+00-4.16596E+00 1.20463E+01-9.06924E-13 5.46814E-15
 -1      1750-9.48996E+00-2.05330E+00-3.46429E+00 1.18769E+01-2.09354E-13-6.57453E-15
 -1      1751-9.10644E+00-2.29729E+00-3.42268E+00 1.32581E+01-6.01321E-13-4.21132E-14
 -1      1752-6.47902E+00-2.78559E+00-2.78077E+00 1.28861E+01-5.26940E-13-9.01783E-15
 -1      1753-5.46342E+00-3.11486E+00-2.57513E+00 1.42143E+01-4.95998E-13-5.61625E-16
 -1      1754-2.99498E+00-3.68112E+00-2.00431E+00 1.35968E+01 9.74303E-14-1.55701E-15
 -1      1755-1.26764E+00-4.10284E+00-1.61289E+00 1.47809E+01-4.50743E-13-6.61367E-15
 -1      1756 9.80012E-01-4.74184E+00-1.13012E+00 1.38692E+01 3.72529E-13-2.93128E-14
 -1      1757 3.49202E+00-5.25071E+00-5.29464E-01 1.47818E+01-1.53718E-13 4.23064E-14
 -1      1758 5.42302E+00-5.94905E+00-1.59487E-01 1.35201E+01 5.14277E-13 2.56138E-14
 -1      1759 8.77190E+00-6.51966E+00 6.73684E-01 1.39894E+01 2.84798E-13-3.48553E-14
 -1      1760 1.02417E+01-7.25037E+00 8.95615E-01 1.23152E+01-8.55460E-15 4.91618E-15
 -1      1761 1.44376E+01-7.82622E+00 1.98128E+00 1.21142E+01-1.47968E-12 3.43850E-15
 -1      1762 1.52315E+01-8.53918E+00 2.00578E+00 9.96054E+00-1.20114E-12 5.54486E-14
 -1      1763 2.02120E+01-9.01959E+00 3.35536E+00 8.79301E+00 2.04201E-13 9.66671E-14
 -1      1764 2.00143E+01-9.63371E+00 3.11210E+00 6.09381E+00 3.48765E-13-2.76531E-13
 -1      1765 2.56521E+01-9.81447E+00 4.74855E+00 3.49578E+00-1.74776E-12 1.65912E-13
 -1      1766 2.40336E+01-1.01500E+01 4.16265E+00 1.12451E-01-6.59000E-13 9.54630E-14
 -1      1767-2.90053E+01-6.67201E-05-8.70391E+00-3.10989E-02 9.72114E-13-5.61956E-13
 -1      1768-3.16016E+01 1.66541E-03-9.48270E+00 6.91483E-01-4.09927E-13-2.15635E-14
 -1      1769-2.80155E+01-7.61006E-03-8.40910E+00 1.30102E+00 7.50976E-13-2.74064E-13
 -1      1770-3.04081E+01-1.83931E-03-9.12554E+00 2.10046E+00 1.24992E-13 2.48536E-14
 -1      1771-2.69021E+01-3.70162E-02-8.08377E+00 2.68574E+00 3.36667E-13-6.32349E-14
 -1      1772-2.90611E+01-3.23497E-02-8.73045E+00 3.56913E+00-2.77627E-13-1.03713E-13
 -1      1773-2.56175E+01-9.25851E-02-7.71496E+00 4.14377E+00-1.75778E-14 3.75142E-14
 -1      1774-2.75229E+01-9.37950E-02-8.28728E+00 5.11208E+00-7.70801E-13 1.28954E-13
 -1      1775-2.41377E+01-1.86966E-01-7.29924E+00 5.65622E+00 3.30068E-13-5.70610E-14
 -1      1776-2.57586E+01-1.99765E-01-7.78967E+00 6.71614E+00 6.64675E-13-1.01044E-13
 -1      1777-2.24236E+01-3.34206E-01-6.82910E+00 7.21184E+00 4.80990E-13 5.40015E-14
 -1      1778-2.37200E+01-3.68025E-01-7.22847E+00 8.36721E+00-6.51796E-13 5.54808E-14
 -1      1779-2.04274E+01-5.51832E-01-6.29550E+00 8.79190E+00-6.97105E-13-6.73638E-15
 -1      1780-2.13482E+01-6.20499E-01-6.59261E+00 1.00411E+01 3.52460E-13-7.71506E-14
 -1      1781-1.80927E+01-8.60905E-01-5.68779E+00 1.03672E+01 1.13674E-12 3.93726E-14
 -1      1782-1.85739E+01-9.82364E-01-5.86883E+00 1.16989E+01-1.63622E-13-7.68392E-14
 -1      1783-1.53550E+01-1.28526E+00-4.99378E+00 1.18933E+01-1.52574E-13 2.62298E-14
 -1      1784-1.53191E+01-1.47991E+00-5.04167E+00 1.32815E+01 7.15408E-15-3.45203E-14
 -1      1785-1.21444E+01-1.84960E+00-4.19994E+00 1.33056E+01-8.82075E-13-3.30285E-14
 -1      1786-1.15021E+01-2.13693E+00-4.09372E+00 1.47036E+01 1.35784E-12 8.87646E-15
 -1      1787-8.39175E+00-2.57606E+00-3.29214E+00 1.45125E+01 9.59799E-13 1.28467E-14
 -1      1788-7.04551E+00-2.96973E+00-3.00664E+00 1.58469E+01 1.08309E-12-5.60652E-16
 -1      1789-4.03725E+00-3.47922E+00-2.25683E+00 1.53893E+01-3.75730E-13 8.97894E-15
 -1      1790-1.88818E+00-3.98116E+00-1.76297E+00 1.65538E+01-1.25543E-13 2.04220E-14
 -1      1791 9.55816E-01-4.55956E+00-1.08313E+00 1.57705E+01 1.95762E-13 1.54458E-14
 -1      1792 3.99811E+00-5.15417E+00-3.49136E-01 1.66211E+01-9.74676E-14 1.04166E-14
 -1      1793 6.58195E+00-5.79525E+00 2.33850E-01 1.54423E+01-4.22326E-13 1.53061E-14
 -1      1794 1.05862E+01-6.44443E+00 1.24002E+00 1.57899E+01-4.37874E-13 4.63290E-14
 -1      1795 1.27652E+01-7.13144E+00 1.68777E+00 1.41313E+01 3.55764E-14-9.28645E-14
 -1      1796 1.77600E+01-7.76797E+00 2.99479E+00 1.37304E+01-1.28292E-12 7.70690E-14
 -1      1797 1.93148E+01-8.46229E+00 3.25313E+00 1.14907E+01 7.22139E-14 9.89127E-14
 -1      1798 2.52615E+01-8.98003E+00 4.88116E+00 1.00173E+01-6.68333E-13 1.34722E-13
 -1      1799 2.58567E+01-9.60824E+00 4.87151E+00 7.07948E+00-1.50119E-13 1.87889E-13
 -1      1800 3.26704E+01-9.80022E+00 6.85701E+00 4.00523E+00 4.40857E-13-1.11102E-13
 -1      1801 3.18401E+01-1.01599E+01 6.50023E+00 1.45044E-01-2.19123E-13-5.72826E-14
 -1      1802-3.51501E+01-4.39381E-04-1.05485E+01-3.15621E-02-1.09836E-13 1.01305E-13
 -1      1803-3.74573E+01 1.67863E-03-1.12405E+01 6.96329E-01-5.54740E-13-1.99025E-13
 -1      1804-3.39140E+01-2.98247E-03-1.01783E+01 1.35875E+00 6.49629E-13-1.04129E-13
 -1      1805-3.60508E+01 4.36711E-03-1.08175E+01 2.14795E+00-8.84915E-13 8.10007E-14
 -1      1806-3.25482E+01-1.90553E-02-9.77313E+00 2.81775E+00-4.93885E-13-6.93019E-14
 -1      1807-3.44822E+01-1.01069E-02-1.03510E+01 3.68663E+00 6.55181E-13 1.42967E-13
 -1      1808-3.09963E+01-5.45345E-02-9.31802E+00 4.37042E+00-5.50732E-13-9.41319E-14
 -1      1809-3.27064E+01-4.97044E-02-9.82997E+00 5.32772E+00-1.31258E-12-4.43918E-14
 -1      1810-2.92284E+01-1.23786E-01-8.80827E+00 6.00240E+00-1.79846E-13 5.79690E-14
 -1      1811-3.06784E+01-1.33212E-01-9.24642E+00 7.06203E+00-7.76803E-13 8.78498E-14
 -1      1812-2.71943E+01-2.43965E-01-8.23393E+00 7.70512E+00-6.26701E-13-2.83652E-14
 -1      1813-2.83343E+01-2.84286E-01-8.58837E+00 8.87696E+00 2.62183E-13 3.84906E-14
 -1      1814-2.48312E+01-4.37207E-01-7.58287E+00 9.46033E+00 1.05356E-12-1.41953E-14
 -1      1815-2.55956E+01-5.31266E-01-7.84071E+00 1.07457E+01 2.44489E-13-1.70347E-14
 -1      1816-2.20642E+01-7.29940E-01-6.84052E+00 1.12355E+01-1.08693E-12 3.89024E-14
 -1      1817-2.23697E+01-9.04809E-01-6.98492E+00 1.26214E+01-9.69301E-15 1.09544E-14
 -1      1818-1.88078E+01-1.15096E+00-5.98986E+00 1.29781E+01-8.46975E-13-8.94428E-15
 -1      1819-1.85549E+01-1.43366E+00-5.99907E+00 1.44304E+01-4.96685E-13-7.70807E-15
 -1      1820-1.49707E+01-1.72779E+00-5.01177E+00 1.46096E+01-7.84298E-14 5.43592E-14
 -1      1821-1.40477E+01-2.13880E+00-4.85844E+00 1.60668E+01-4.49838E-14 4.81493E-15
 -1      1822-1.04637E+01-2.48147E+00-3.88582E+00 1.60189E+01-4.28277E-13-1.56335E-14
 -1      1823-8.75403E+00-3.02718E+00-3.53689E+00 1.73883E+01-4.25062E-13-7.20742E-16
 -1      1824-5.21071E+00-3.42042E+00-2.59167E+00 1.70584E+01-2.90817E-13-9.07243E-15
 -1      1825-2.60237E+00-4.08666E+00-2.00933E+00 1.82134E+01 2.36006E-13 8.71349E-15
 -1      1826 8.38095E-01-4.53465E+00-1.11143E+00 1.75382E+01 1.24571E-13 9.20445E-15
 -1      1827 4.44275E+00-5.28373E+00-2.55095E-01 1.83182E+01 1.78711E-13-3.30994E-14
 -1      1828 7.68980E+00-5.79123E+00 5.66902E-01 1.72201E+01 3.28052E-13 2.82737E-15
 -1      1829 1.23654E+01-6.56340E+00 1.73751E+00 1.74264E+01-3.73754E-13-9.08437E-14
 -1      1830 1.52860E+01-7.12991E+00 2.44384E+00 1.58044E+01 2.84431E-13 7.03532E-14
 -1      1831 2.10742E+01-7.84510E+00 3.96517E+00 1.51861E+01 1.33197E-13 1.26767E-13
 -1      1832 2.34627E+01-8.45194E+00 4.49976E+00 1.29052E+01-1.24053E-12 3.39355E-14
 -1      1833 3.03564E+01-9.00573E+00 6.40087E+00 1.11244E+01 4.29101E-13-1.10547E-13
 -1      1834 3.18780E+01-9.59812E+00 6.67972E+00 8.00744E+00-1.24332E-12 1.58555E-13
 -1      1835 3.98652E+01-9.79908E+00 9.01418E+00 4.47524E+00-5.94955E-13 1.75784E-13
 -1      1836 4.00313E+01-1.01620E+01 8.95519E+00 1.82434E-01 2.38802E-12-5.42417E-14
 -1      1837-4.08562E+01-1.11207E-03-1.22618E+01-3.10856E-02-4.35833E-13-1.34803E-13
 -1      1838-4.28454E+01 2.31183E-03-1.28580E+01 6.80654E-01 2.14024E-13 2.76896E-14
 -1      1839-3.94554E+01 1.47253E-03-1.18405E+01 1.37870E+00 2.55452E-13-1.06895E-13
 -1      1840-4.13267E+01 1.18275E-02-1.23992E+01 2.14510E+00 1.73531E-13 1.45760E-14
 -1      1841-3.79250E+01-1.37937E-03-1.13819E+01 2.88190E+00 4.80484E-13-6.50841E-14
 -1      1842-3.96429E+01 1.14020E-02-1.18938E+01 3.73595E+00-1.64747E-12 4.06793E-14
 -1      1843-3.61980E+01-1.89220E-02-1.08688E+01 4.50968E+00-4.25887E-13-3.37589E-14
 -1      1844-3.77367E+01-1.45104E-02-1.13295E+01 5.47115E+00 4.03019E-13 1.21839E-13
 -1      1845-3.42330E+01-6.98321E-02-1.02943E+01 6.25387E+00-4.01020E-13-4.77714E-15
 -1      1846-3.55451E+01-9.35778E-02-1.06955E+01 7.34599E+00 4.68527E-13-4.16606E-14
 -1      1847-3.19619E+01-1.77638E-01-9.64514E+00 8.10857E+00-1.73232E-13-8.22531E-14
 -1      1848-3.29797E+01-2.59053E-01-9.97526E+00 9.34691E+00 3.58530E-13 9.33623E-14
 -1      1849-2.92998E+01-3.72228E-01-8.90471E+00 1.00537E+01-1.83743E-13-1.50950E-14
 -1      1850-2.99333E+01-5.48045E-01-9.14782E+00 1.14388E+01 2.88641E-13 2.91026E-15
 -1      1851-2.61464E+01-6.87331E-01-8.05308E+00 1.20486E+01 7.81621E-13 4.52591E-14
 -1      1852-2.62839E+01-9.95906E-01-8.18720E+00 1.35576E+01 6.06909E-13 5.54278E-15
 -1      1853-2.23910E+01-1.15597E+00-7.06693E+00 1.40249E+01 2.56391E-13 8.66516E-15
 -1      1854-2.19046E+01-1.62829E+00-7.06300E+00 1.56041E+01-4.45422E-13-5.32109E-14
 -1      1855-1.79211E+01-1.80372E+00-5.92021E+00 1.58814E+01-5.79589E-13 4.38021E-14
 -1      1856-1.66766E+01-2.45249E+00-5.74179E+00 1.74424E+01-1.86642E-13-2.45402E-14
 -1      1857-1.26339E+01-2.64101E+00-4.58525E+00 1.74807E+01 8.43438E-13-5.87421E-16
 -1      1858-1.05035E+01-3.45127E+00-4.18946E+00 1.89017E+01 2.81267E-13-1.45869E-16
 -1      1859-6.44872E+00-3.65697E+00-3.03451E+00 1.86497E+01 3.63047E-13 1.62483E-15
 -1      1860-3.32181E+00-4.58226E+00-2.37432E+00 1.97814E+01-3.06112E-14 1.00799E-15
 -1      1861 6.83738E-01-4.81753E+00-1.24308E+00 1.91801E+01 2.97374E-13-3.41452E-14
 -1      1862 4.89408E+00-5.78470E+00-2.70481E-01 1.98517E+01 1.48472E-12-2.46609E-14
 -1      1863 8.77319E+00-6.06912E+00 8.08024E-01 1.88242E+01 3.42960E-13 1.86072E-14
 -1      1864 1.41324E+01-6.99100E+00 2.13874E+00 1.88424E+01-3.86587E-14 5.63227E-15
 -1      1865 1.77796E+01-7.34534E+00 3.12664E+00 1.72773E+01 2.17812E-13-3.68072E-14
 -1      1866 2.43371E+01-8.13374E+00 4.85665E+00 1.64061E+01-2.32914E-13-1.41938E-13
 -1      1867 2.75847E+01-8.56626E+00 5.70115E+00 1.41370E+01 3.61591E-13 4.48152E-14
 -1      1868 3.53770E+01-9.13423E+00 7.86731E+00 1.20438E+01-1.62160E-13 8.29326E-14
 -1      1869 3.79233E+01-9.61955E+00 8.48548E+00 8.82716E+00 4.91456E-13 1.37835E-13
 -1      1870 4.70515E+01-9.81970E+00 1.11620E+01 4.87317E+00 5.75339E-14-9.88122E-14
 -1      1871 4.84234E+01-1.01494E+01 1.14744E+01 2.23091E-01 2.59582E-13-2.40973E-13
 -1      1872-4.59999E+01-1.97212E-03-1.38064E+01-3.00686E-02 1.95321E-12-2.29260E-13
 -1      1873-4.76924E+01 3.55760E-03-1.43129E+01 6.48114E-01-3.92185E-14-6.20165E-14
 -1      1874-4.45506E+01 5.50072E-03-1.33690E+01 1.36722E+00-9.26998E-13 1.78023E-13
 -1      1875-4.61992E+01 1.93696E-02-1.38598E+01 2.10731E+00 1.20017E-13-2.47843E-15
 -1      1876-4.29775E+01 1.38606E-02-1.28942E+01 2.89660E+00 4.01485E-13 5.61075E-14
 -1      1877-4.45414E+01 2.63514E-02-1.33600E+01 3.75095E+00-3.03149E-13 4.85803E-14
 -1      1878-4.11989E+01 7.00179E-03-1.23624E+01 4.59785E+00-1.63777E-13 6.88892E-14
 -1      1879-4.26402E+01-4.31241E-03-1.27986E+01 5.60132E+00-3.37754E-13-6.16585E-14
 -1      1880-3.91520E+01-4.26926E-02-1.17629E+01 6.46988E+00 5.62028E-13 1.34986E-14
 -1      1881-4.04012E+01-1.15130E-01-1.21598E+01 7.65630E+00 5.35541E-13 5.03538E-14
 -1      1882-3.67401E+01-1.70264E-01-1.10773E+01 8.50702E+00-1.42094E-13-1.66216E-14
 -1      1883-3.76980E+01-3.53871E-01-1.14202E+01 9.89419E+00 5.59903E-13-2.06688E-14
 -1      1884-3.38453E+01-4.17404E-01-1.02828E+01 1.06809E+01-9.05193E-13 2.22703E-14
 -1      1885-3.43834E+01-7.67555E-01-1.05496E+01 1.22589E+01 6.88864E-13-2.44440E-15
 -1      1886-3.03345E+01-8.25991E-01-9.35190E+00 1.29315E+01 9.20400E-14 3.37663E-14
 -1      1887-3.03016E+01-1.39085E+00-9.51184E+00 1.46526E+01-1.28856E-13-5.05932E-14
 -1      1888-2.60704E+01-1.42861E+00-8.25327E+00 1.51614E+01 1.67086E-13 7.90097E-15
 -1      1889-2.53073E+01-2.23298E+00-8.26596E+00 1.69343E+01 1.41780E-13-1.41556E-15
 -1      1890-2.09274E+01-2.23730E+00-6.95283E+00 1.72335E+01 1.17436E-13-4.68270E-15
 -1      1891-1.92853E+01-3.26784E+00-6.76963E+00 1.89278E+01-9.66236E-13-1.24063E-14
 -1      1892-1.48062E+01-3.23448E+00-5.41554E+00 1.89772E+01 3.22373E-13 1.29533E-15
 -1      1893-1.21645E+01-4.43262E+00-4.98273E+00 2.04354E+01-2.79099E-13-5.70036E-16
 -1      1894-7.64355E+00-4.37062E+00-3.60757E+00 2.01973E+01-5.36124E-13 4.26892E-15
 -1      1895-3.91839E+00-5.63865E+00-2.87071E+00 2.12528E+01-1.03418E-12 1.43235E-14
 -1      1896 5.88304E-01-5.57243E+00-1.49867E+00 2.06822E+01-2.32485E-13-6.18859E-16
 -1      1897 5.44972E+00-6.79266E+00-4.06670E-01 2.11716E+01-1.36424E-12-1.40661E-14
 -1      1898 9.89024E+00-6.76027E+00 9.35260E-01 2.02000E+01 1.06858E-12-5.97133E-15
 -1      1899 1.59297E+01-7.82196E+00 2.42808E+00 1.99589E+01 9.66051E-13 4.94382E-15
 -1      1900 2.02451E+01-7.86861E+00 3.70863E+00 1.84702E+01 9.22026E-13-4.52224E-14
 -1      1901 2.75195E+01-8.69078E+00 5.64346E+00 1.73017E+01-3.11603E-13-9.99092E-14
 -1      1902 3.16064E+01-8.85553E+00 6.81988E+00 1.51014E+01 3.19910E-13 1.45363E-14
 -1      1903 4.02129E+01-9.39230E+00 9.23938E+00 1.26983E+01-8.14955E-14 4.82669E-14
 -1      1904 4.38415E+01-9.68652E+00 1.02393E+01 9.47475E+00-5.63496E-13-1.21403E-14
 -1      1905 5.40381E+01-9.86864E+00 1.32411E+01 5.16263E+00 6.99409E-13 2.62511E-14
 -1      1906 5.68108E+01-1.01169E+01 1.39978E+01 2.63832E-01-7.79326E-13 1.46784E-13
 -1      1907-5.05163E+01-2.89551E-03-1.51627E+01-2.90680E-02 5.65730E-13 7.02745E-14
 -1      1908-5.19834E+01 5.37352E-03-1.56008E+01 6.03093E-01 3.55687E-13 1.60644E-14
 -1      1909-4.91757E+01 8.91722E-03-1.47567E+01 1.33361E+00-1.66183E-13-4.21178E-14
 -1      1910-5.06991E+01 2.50832E-02-1.52093E+01 2.05558E+00-7.60742E-13 1.68632E-14
 -1      1911-4.77217E+01 2.37326E-02-1.43157E+01 2.88916E+00 6.78331E-13-1.80437E-13
 -1      1912-4.92488E+01 2.54283E-02-1.47738E+01 3.77997E+00-2.34116E-13 1.28123E-14
 -1      1913-4.60481E+01 1.23320E-02-1.38167E+01 4.68899E+00 1.59888E-12 7.29287E-14
 -1      1914-4.75155E+01-4.51197E-02-1.42746E+01 5.80328E+00-4.03995E-13 5.90383E-14
 -1      1915-4.40541E+01-6.97748E-02-1.32428E+01 6.73777E+00-7.57985E-13-7.11889E-14
 -1      1916-4.53513E+01-2.52997E-01-1.36874E+01 8.11858E+00-6.54758E-13 5.28251E-14
 -1      1917-4.15974E+01-2.76621E-01-1.25675E+01 9.02253E+00-2.41177E-13 1.66120E-14
 -1      1918-4.25722E+01-6.65480E-01-1.29771E+01 1.06796E+01-6.89238E-13-3.55934E-14
 -1      1919-3.85133E+01-6.65615E-01-1.17587E+01 1.14918E+01-6.38354E-13-2.71773E-14
 -1      1920-3.89796E+01-1.33557E+00-1.21000E+01 1.33851E+01-5.01647E-13-6.27757E-14
 -1      1921-3.46301E+01-1.28329E+00-1.07787E+01 1.40464E+01 1.03887E-12-1.80276E-14
 -1      1922-3.43886E+01-2.28128E+00-1.10060E+01 1.60771E+01 1.41557E-13-2.90753E-14
 -1      1923-2.97924E+01-2.14813E+00-9.58659E+00 1.65380E+01 6.50599E-15-6.43866E-15
 -1      1924-2.86592E+01-3.46876E+00-9.64311E+00 1.85539E+01-3.43247E-13-2.12065E-14
 -1      1925-2.38839E+01-3.23556E+00-8.13999E+00 1.87802E+01-3.90320E-13-2.04856E-16
 -1      1926-2.17193E+01-4.80804E+00-7.96262E+00 2.05959E+01 1.52552E-15 3.43535E-15
 -1      1927-1.68410E+01-4.47291E+00-6.39813E+00 2.05683E+01-3.09030E-14 3.11088E-15
 -1      1928-1.35660E+01-6.16727E+00-5.92417E+00 2.19960E+01 3.98962E-13 4.47304E-15
 -1      1929-8.65050E+00-5.75017E+00-4.32406E+00 2.17019E+01 4.88046E-13 1.17747E-14
 -1      1930-4.24116E+00-7.40351E+00-3.49750E+00 2.25791E+01 1.91919E-15-9.76979E-15
 -1      1931 6.71537E-01-6.94628E+00-1.88634E+00 2.19958E+01-4.98834E-14 5.89367E-15
 -1      1932 6.21225E+00-8.40090E+00-6.60860E-01 2.21961E+01-2.93823E-13 2.92831E-14
 -1      1933 1.11119E+01-7.96314E+00 9.40380E-01 2.12677E+01-2.69338E-13-1.15556E-13
 -1      1934 1.77971E+01-9.10410E+00 2.60309E+00 2.06845E+01-7.25291E-13-5.35231E-14
 -1      1935 2.26897E+01-8.75595E+00 4.17514E+00 1.92925E+01-5.36886E-14-1.85384E-14
 -1      1936 3.05935E+01-9.53568E+00 6.31138E+00 1.77887E+01-8.20516E-13 3.56465E-14
 -1      1937 3.54623E+01-9.34642E+00 7.82840E+00 1.57137E+01-2.77856E-13 3.23468E-15
 -1      1938 4.47635E+01-9.78684E+00 1.04849E+01 1.30216E+01-1.80566E-12 2.65041E-14
 -1      1939 4.94884E+01-9.80646E+00 1.18957E+01 9.88797E+00 3.41802E-13 3.04777E-14
 -1      1940 6.06407E+01-9.94808E+00 1.51958E+01 5.31260E+00-9.39020E-14-9.54080E-14
 -1      1941 6.49710E+01-1.00616E+01 1.64595E+01 3.00311E-01-1.14662E-12-2.12533E-13
 -1      1942-5.43881E+01-3.52482E-03-1.63256E+01-2.88266E-02-1.09803E-12-1.27432E-13
 -1      1943-5.57546E+01 7.66943E-03-1.67326E+01 5.50541E-01-1.15064E-12-2.03295E-13
 -1      1944-5.33681E+01 1.15272E-02-1.60148E+01 1.29016E+00-7.70956E-13 1.22490E-14
 -1      1945-5.49244E+01 2.56872E-02-1.64779E+01 2.01861E+00-6.19334E-14-5.15484E-14
 -1      1946-5.22451E+01 2.38465E-02-1.56739E+01 2.89842E+00 2.23813E-13 7.92525E-14
 -1      1947-5.39143E+01-7.51999E-03-1.61846E+01 3.89285E+00-5.11997E-13-3.46931E-14
 -1      1948-5.08700E+01-2.08234E-02-1.52745E+01 4.86169E+00 9.76951E-13-1.40514E-13
 -1      1949-5.25373E+01-1.82099E-01-1.58236E+01 6.20069E+00 2.95433E-13-3.36726E-14
 -1      1950-4.90754E+01-1.96669E-01-1.47886E+01 7.18367E+00-6.18205E-13-1.62387E-13
 -1      1951-5.05574E+01-6.00871E-01-1.53550E+01 8.91081E+00-3.99483E-13-2.94974E-14
 -1      1952-4.66484E+01-5.86477E-01-1.41771E+01 9.82568E+00-5.92039E-13 2.42037E-14
 -1      1953-4.77075E+01-1.35134E+00-1.47248E+01 1.19180E+01 1.04325E-12-2.57201E-14
 -1      1954-4.33625E+01-1.26337E+00-1.33940E+01 1.26840E+01 5.42752E-13 6.01280E-14
 -1      1955-4.37353E+01-2.47455E+00-1.38697E+01 1.50344E+01 5.02522E-13 3.62235E-14
 -1      1956-3.90134E+01-2.26327E+00-1.23889E+01 1.55862E+01-7.93168E-13-2.79272E-14
 -1      1957-3.84548E+01-3.93517E+00-1.27232E+01 1.80074E+01-4.48644E-13-1.62254E-14
 -1      1958-3.34562E+01-3.55944E+00-1.11101E+01 1.83077E+01-2.95345E-13 9.41827E-15
 -1      1959-3.17873E+01-5.61105E+00-1.12252E+01 2.05628E+01-6.99889E-15-2.49730E-14
 -1      1960-2.66298E+01-5.05149E+00-9.50939E+00 2.06060E+01 5.45224E-13 5.79886E-15
 -1      1961-2.37681E+01-7.31187E+00-9.32921E+00 2.24578E+01 4.92246E-13-8.92036E-15
 -1      1962-1.85552E+01-6.57886E+00-7.54486E+00 2.22621E+01-1.21714E-12 1.99553E-15
 -1      1963-1.45117E+01-8.82397E+00-7.00550E+00 2.35205E+01-2.31080E-13-1.21816E-14
 -1      1964-9.30412E+00-7.95811E+00-5.18307E+00 2.31084E+01 1.04517E-12-3.83115E-17
 -1      1965-4.14618E+00-9.96515E+00-4.23799E+00 2.36568E+01-9.39216E-13-1.58777E-15
 -1      1966 1.05208E+00-9.03192E+00-2.39834E+00 2.30302E+01-5.67412E-13 2.32036E-14
 -1      1967 7.25857E+00-1.06307E+01-1.01634E+00 2.28175E+01-1.49739E-13-4.64418E-14
 -1      1968 1.24970E+01-9.71262E+00 8.30605E-01 2.19304E+01-1.28979E-13 2.62188E-14
 -1      1969 1.97492E+01-1.08199E+01 2.67349E+00 2.09315E+01-2.18562E-13-5.04703E-14
 -1      1970 2.51119E+01-1.00090E+01 4.52528E+00 1.96600E+01 1.23431E-12-1.78615E-14
 -1      1971 3.35222E+01-1.06416E+01 6.85751E+00 1.78065E+01-9.36882E-14-3.68255E-14
 -1      1972 3.90918E+01-1.00320E+01 8.71060E+00 1.59084E+01-4.56345E-13-6.29641E-14
 -1      1973 4.89421E+01-1.03015E+01 1.15829E+01 1.29745E+01 1.45569E-13-4.16281E-14
 -1      1974 5.47353E+01-9.97736E+00 1.34169E+01 1.00214E+01 8.35364E-13 3.81776E-14
 -1      1975 6.66996E+01-1.00549E+01 1.69792E+01 5.30492E+00-4.30939E-13-2.85010E-15
 -1      1976 7.26831E+01-9.98486E+00 1.87931E+01 3.28064E-01 8.90760E-13 4.74997E-15
 -1      1977-5.76343E+01-3.68775E-03-1.73005E+01-3.04927E-02-9.98773E-14 3.77815E-15
 -1      1978-5.90881E+01 1.03311E-02-1.77329E+01 4.96214E-01 5.36054E-13 2.75535E-14
 -1      1979-5.72250E+01 1.34989E-02-1.71724E+01 1.25346E+00 8.99223E-14 7.47733E-14
 -1      1980-5.90487E+01 1.48935E-02-1.77197E+01 2.03833E+00 2.69934E-13-1.75173E-14
 -1      1981-5.67141E+01 6.36815E-03-1.70212E+01 2.98142E+00 5.42201E-13-1.92932E-14
 -1      1982-5.87784E+01-1.03307E-01-1.76741E+01 4.19624E+00 2.17704E-13-2.79626E-14
 -1      1983-5.58722E+01-1.24806E-01-1.68078E+01 5.23367E+00 9.43430E-13 1.04912E-13
 -1      1984-5.79637E+01-4.99475E-01-1.75484E+01 6.98022E+00 4.45499E-13 1.12932E-14
 -1      1985-5.44183E+01-5.05015E-01-1.64855E+01 7.99265E+00-6.22625E-14-2.97957E-14
 -1      1986-5.62267E+01-1.32579E+00-1.72751E+01 1.02882E+01 9.32490E-13 5.41116E-14
 -1      1987-5.20349E+01-1.25443E+00-1.59950E+01 1.11531E+01-7.47176E-13-7.78763E-14
 -1      1988-5.31954E+01-2.67399E+00-1.67697E+01 1.38900E+01 1.66763E-13 5.18801E-14
 -1      1989-4.84302E+01-2.44774E+00-1.52712E+01 1.45053E+01-7.99419E-14 3.42765E-14
 -1      1990-4.85919E+01-4.52311E+00-1.59429E+01 1.74478E+01 1.03834E-12 4.61192E-15
 -1      1991-4.34016E+01-4.06831E+00-1.42482E+01 1.77566E+01 3.46675E-13 3.06315E-14
 -1      1992-4.23091E+01-6.71445E+00-1.47147E+01 2.05848E+01-2.98599E-14-1.04818E-14
 -1      1993-3.68817E+01-5.98506E+00-1.28666E+01 2.05875E+01-6.03145E-13 2.27832E-15
 -1      1994-3.44303E+01-8.97692E+00-1.30290E+01 2.29763E+01 2.76860E-13-2.69112E-15
 -1      1995-2.89400E+01-7.96911E+00-1.10787E+01 2.27218E+01 1.61726E-13 3.07939E-14
 -1      1996-2.51784E+01-1.09965E+01-1.08585E+01 2.44207E+01 7.51524E-13-2.30525E-15
 -1      1997-1.97371E+01-9.74990E+00-8.85146E+00 2.39804E+01 6.32551E-13 7.79706E-16
 -1      1998-1.48151E+01-1.24997E+01-8.19985E+00 2.48583E+01 6.62538E-13-4.50302E-15
 -1      1999-9.44805E+00-1.10878E+01-6.16569E+00 2.42921E+01-2.37379E-14-1.53036E-15
 -1      2000-3.53471E+00-1.33176E+01-5.06071E+00 2.43338E+01 6.29704E-13 3.76017E-16
 -1      2001 1.81602E+00-1.18341E+01-3.01022E+00 2.36593E+01 3.88481E-13-2.54018E-15
 -1      2002 8.61257E+00-1.34139E+01-1.44546E+00 2.29215E+01 6.61806E-13-1.80725E-14
 -1      2003 1.40694E+01-1.19616E+01 6.27195E-01 2.20908E+01 3.80011E-13-5.99631E-14
 -1      2004 2.17627E+01-1.28835E+01 2.65806E+00 2.06360E+01-4.74409E-13 7.38015E-14
 -1      2005 2.74897E+01-1.15690E+01 4.77007E+00 1.95130E+01-4.75851E-13-1.53425E-14
 -1      2006 3.62584E+01-1.19393E+01 7.28839E+00 1.73317E+01-1.29897E-13 2.10268E-15
 -1      2007 4.24373E+01-1.08719E+01 9.46139E+00 1.56546E+01-7.74111E-13 4.38754E-14
 -1      2008 5.26805E+01-1.09003E+01 1.25236E+01 1.25533E+01 5.26298E-13 6.11071E-14
 -1      2009 5.94785E+01-1.01881E+01 1.47750E+01 9.85685E+00-4.65728E-13-7.85297E-14
 -1      2010 7.20956E+01-1.01812E+01 1.85579E+01 5.13805E+00-7.84973E-13 1.02081E-13
 -1      2011 7.97532E+01-9.89138E+00 2.09391E+01 3.43614E-01-4.83210E-13 9.98322E-14
 -1      2012-6.02978E+01-1.07058E-03-1.80996E+01-3.59323E-02 5.76776E-13 3.00250E-13
 -1      2013-6.21147E+01 1.28538E-02-1.86411E+01 4.47628E-01 4.97937E-14-1.09825E-14
 -1      2014-6.09117E+01 1.39462E-02-1.82795E+01 1.24729E+00-4.12225E-13 4.40027E-14
 -1      2015-6.33442E+01-2.05106E-02-1.90204E+01 2.18244E+00-1.03756E-13-5.77908E-14
 -1      2016-6.13933E+01-4.37561E-02-1.84415E+01 3.22838E+00 5.79973E-13 2.22650E-14
 -1      2017-6.42027E+01-3.25149E-01-1.93697E+01 4.86516E+00 2.31474E-13 1.23255E-14
 -1      2018-6.13611E+01-3.63820E-01-1.85280E+01 5.99105E+00 2.01079E-13-8.94066E-14
 -1      2019-6.41455E+01-1.16266E+00-1.96041E+01 8.43616E+00-6.38317E-13 1.34780E-14
 -1      2020-6.03442E+01-1.14967E+00-1.84587E+01 9.44399E+00-6.40083E-15 1.03169E-14
 -1      2021-6.25811E+01-2.73418E+00-1.96061E+01 1.26193E+01 7.64716E-13 1.11486E-14
 -1      2022-5.78888E+01-2.55558E+00-1.81435E+01 1.33300E+01-1.83705E-14-1.11985E-14
 -1      2023-5.90442E+01-5.07179E+00-1.92459E+01 1.69423E+01 2.58071E-13 1.20739E-14
 -1      2024-5.36725E+01-4.60387E+00-1.74926E+01 1.72458E+01-1.13362E-13-1.87847E-14
 -1      2025-5.33433E+01-7.98106E+00-1.84076E+01 2.08457E+01-7.23847E-13 1.77006E-14
 -1      2026-4.75938E+01-7.13338E+00-1.64270E+01 2.07321E+01 1.76966E-13-2.53920E-14
 -1      2027-4.56150E+01-1.10729E+01-1.70157E+01 2.38450E+01-2.16335E-13 6.85959E-15
 -1      2028-3.97844E+01-9.81862E+00-1.48888E+01 2.33970E+01-1.27510E-13-1.99079E-16
 -1      2029-3.62451E+01-1.38801E+01-1.50456E+01 2.56614E+01 1.93329E-13 4.93635E-15
 -1      2030-3.05367E+01-1.22602E+01-1.28461E+01 2.50124E+01-3.81105E-13 1.04023E-15
 -1      2031-2.56984E+01-1.59958E+01-1.25152E+01 2.62577E+01 1.24173E-13 1.10556E-15
 -1      2032-2.01825E+01-1.41020E+01-1.02914E+01 2.55366E+01-4.45592E-13 1.62761E-16
 -1      2033-1.43513E+01-1.71705E+01-9.46251E+00 2.57776E+01-2.55991E-13 6.12757E-16
 -1      2034-8.97510E+00-1.51190E+01-7.23365E+00 2.50653E+01 3.79261E-13-6.23535E-15
 -1      2035-2.38858E+00-1.73385E+01-5.92352E+00 2.44364E+01 2.98226E-13-4.16059E-16
 -1      2036 2.98829E+00-1.52494E+01-3.68351E+00 2.37438E+01-9.67926E-14 7.19182E-15
 -1      2037 1.02316E+01-1.65949E+01-1.91435E+00 2.24148E+01-8.84297E-14 5.71406E-15
 -1      2038 1.58040E+01-1.45824E+01 3.61023E-01 2.16748E+01 4.29476E-13 1.19881E-14
 -1      2039 2.37776E+01-1.51557E+01 2.58051E+00 1.97752E+01-4.91093E-13-4.75451E-14
 -1      2040 2.97783E+01-1.33283E+01 4.92840E+00 1.88322E+01-5.73279E-13-2.34871E-14
 -1      2041 3.87494E+01-1.33327E+01 7.61714E+00 1.63847E+01-2.95052E-13 9.25323E-15
 -1      2042 4.54474E+01-1.18018E+01 1.00847E+01 1.49626E+01-1.36798E-13 4.14537E-14
 -1      2043 5.59340E+01-1.15363E+01 1.33078E+01 1.17892E+01 9.09687E-13 5.19967E-14
 -1      2044 6.36472E+01-1.04214E+01 1.59542E+01 9.40617E+00 6.41342E-14-8.41603E-14
 -1      2045 7.67588E+01-1.03169E+01 1.99142E+01 4.82624E+00 5.47962E-13-2.16295E-14
 -1      2046 8.60352E+01-9.78845E+00 2.28516E+01 3.45204E-01 3.52033E-13 9.32191E-15
 -1      2047-6.24349E+01 1.55312E-03-1.87407E+01-4.89228E-02 1.18300E-12-7.31498E-14
 -1      2048-6.50264E+01 1.45645E-02-1.95151E+01 4.17166E-01-3.21394E-13 2.22499E-14
 -1      2049-6.46857E+01 1.61810E-02-1.94123E+01 1.31201E+00-9.33753E-13 6.11489E-14
 -1      2050-6.82397E+01-1.11913E-01-2.05182E+01 2.57379E+00-2.02608E-14-1.32147E-15
 -1      2051-6.66890E+01-1.61395E-01-2.00674E+01 3.79550E+00 5.94696E-13 1.38632E-14
 -1      2052-7.07232E+01-8.12663E-01-2.14746E+01 6.20828E+00 4.68798E-13 5.01207E-14
 -1      2053-6.77657E+01-8.71553E-01-2.06040E+01 7.44581E+00-6.00542E-13-7.13918E-14
 -1      2054-7.15256E+01-2.51004E+00-2.22252E+01 1.10475E+01-3.95841E-13-4.58834E-15
 -1      2055-6.71473E+01-2.43626E+00-2.08881E+01 1.19673E+01-7.25965E-13-2.19473E-14
 -1      2056-6.97765E+01-5.39326E+00-2.25655E+01 1.64235E+01-5.63823E-14-3.50209E-14
 -1      2057-6.42532E+01-4.98403E+00-2.07840E+01 1.67858E+01-3.34048E-13 3.90080E-15
 -1      2058-6.50573E+01-9.25763E+00-2.23085E+01 2.14492E+01 2.70095E-13-1.75626E-14
 -1      2059-5.88739E+01-8.34152E+00-2.01766E+01 2.11914E+01-1.01881E-13 8.13897E-16
 -1      2060-5.75436E+01-1.35351E+01-2.13363E+01 2.53267E+01 9.13334E-13-1.29495E-14
 -1      2061-5.12159E+01-1.20399E+01-1.89876E+01 2.45673E+01-4.83924E-15-7.20925E-15
 -1      2062-4.78799E+01-1.75026E+01-1.96259E+01 2.76107E+01-6.39938E-13-1.22295E-14
 -1      2063-4.17780E+01-1.54725E+01-1.71846E+01 2.65750E+01-2.68748E-13 7.84985E-15
 -1      2064-3.68647E+01-2.05386E+01-1.72303E+01 2.82786E+01 1.88641E-13-3.89772E-15
 -1      2065-3.11358E+01-1.81019E+01-1.47793E+01 2.71962E+01 2.79669E-13-8.35473E-15
 -1      2066-2.51537E+01-2.22822E+01-1.42385E+01 2.76123E+01-1.20797E-14-6.08400E-17
 -1      2067-1.97511E+01-1.96018E+01-1.18126E+01 2.66423E+01 1.34314E-13 2.90061E-15
 -1      2068-1.31092E+01-2.26551E+01-1.07357E+01 2.60071E+01-3.57852E-13-2.38527E-15
 -1      2069-7.86643E+00-1.98883E+01-8.33227E+00 2.52122E+01-9.73741E-13-1.52381E-14
 -1      2070-7.87359E-01-2.17925E+01-6.77963E+00 2.38148E+01 1.45317E-13-1.01249E-14
 -1      2071 4.51779E+00-1.90721E+01-4.37174E+00 2.31675E+01-8.84496E-13 1.35725E-14
 -1      2072 1.20132E+01-1.99557E+01-2.38832E+00 2.12552E+01-3.26927E-13 2.50118E-14
 -1      2073 1.76294E+01-1.73894E+01 6.62812E-02 2.06533E+01 5.02224E-13-2.19781E-14
 -1      2074 2.57107E+01-1.74716E+01 2.46541E+00 1.83778E+01-2.32985E-13 5.58120E-14
 -1      2075 3.19175E+01-1.51538E+01 5.02213E+00 1.76448E+01-6.23438E-13 6.65174E-14
 -1      2076 4.09476E+01-1.47188E+01 7.86029E+00 1.50262E+01 1.23936E-12-5.55459E-14
 -1      2077 4.80829E+01-1.27490E+01 1.05905E+01 1.38810E+01 3.19706E-14-6.26339E-14
 -1      2078 5.86846E+01-1.21617E+01 1.39445E+01 1.07407E+01 9.23059E-13 1.72123E-14
 -1      2079 6.72071E+01-1.06583E+01 1.69497E+01 8.70682E+00 2.65740E-14-2.39750E-14
 -1      2080 8.06688E+01-1.04513E+01 2.10451E+01 4.39538E+00 1.41576E-13 5.85553E-14
 -1      2081 9.14437E+01-9.68404E+00 2.45028E+01 3.32972E-01 6.59485E-13-6.29283E-14
 -1      2082-6.41059E+01 3.08353E-02-1.92337E+01-7.75719E-02-1.02901E-12-4.26072E-14
 -1      2083-6.81350E+01 1.08255E-02-2.04499E+01 4.26756E-01 9.78918E-13-2.27781E-14
 -1      2084-6.89602E+01 7.15463E-03-2.06989E+01 1.51827E+00 1.91606E-13 6.83235E-15
 -1      2085-7.44217E+01-3.33234E-01-2.24417E+01 3.45297E+00-2.02879E-13 1.64999E-14
 -1      2086-7.32253E+01-4.22607E-01-2.21091E+01 4.97694E+00 1.00484E-12-5.89982E-14
 -1      2087-7.91347E+01-1.88517E+00-2.43233E+01 8.79913E+00 2.43783E-13-3.75717E-14
 -1      2088-7.56572E+01-1.95079E+00-2.32985E+01 1.01446E+01-7.27788E-13-6.36758E-15
 -1      2089-8.05834E+01-5.24721E+00-2.57679E+01 1.55986E+01-2.68794E-13-2.33744E-14
 -1      2090-7.50687E+01-4.98075E+00-2.40315E+01 1.62172E+01-2.26670E-13 7.59562E-15
 -1      2091-7.77182E+01-1.03370E+01-2.64354E+01 2.23728E+01-7.32649E-13 7.44273E-15
 -1      2092-7.09355E+01-9.41240E+00-2.41206E+01 2.20255E+01 1.43866E-13-2.70700E-14
 -1      2093-7.06447E+01-1.63185E+01-2.61066E+01 2.76735E+01-1.13034E-12-1.06024E-14
 -1      2094-6.35305E+01-1.45619E+01-2.34426E+01 2.64976E+01-5.95270E-13 8.50898E-15
 -1      2095-6.04466E+01-2.20062E+01-2.47514E+01 3.06821E+01 1.03769E-13 1.55706E-15
 -1      2096-5.36992E+01-1.94585E+01-2.19604E+01 2.90546E+01 2.41132E-14-1.88607E-14
 -1      2097-4.85275E+01-2.63905E+01-2.24884E+01 3.13763E+01 5.82176E-13 7.74163E-15
 -1      2098-4.24362E+01-2.32505E+01-1.97170E+01 2.96996E+01-3.09239E-13 7.75643E-15
 -1      2099-3.60188E+01-2.89403E+01-1.94983E+01 3.02751E+01-9.41073E-14-3.29022E-15
 -1      2100-3.05331E+01-2.54625E+01-1.68077E+01 2.88281E+01-1.81308E-13 1.55613E-16
 -1      2101-2.35348E+01-2.95983E+01-1.59483E+01 2.80598E+01-4.63843E-13-3.47534E-15
 -1      2102-1.84273E+01-2.60133E+01-1.33395E+01 2.69605E+01 3.56726E-13-9.84556E-15
 -1      2103-1.12199E+01-2.86134E+01-1.19568E+01 2.53079E+01 4.18945E-13 6.42622E-15
 -1      2104-6.21287E+00-2.50940E+01-9.39823E+00 2.45457E+01 2.16209E-14 1.14865E-14
 -1      2105 1.10378E+00-2.63654E+01-7.58437E+00 2.23901E+01 3.09501E-13 1.37695E-14
 -1      2106 6.28400E+00-2.30276E+01-5.02872E+00 2.18735E+01 4.75830E-13 2.26189E-14
 -1      2107 1.38203E+01-2.32561E+01-2.83647E+00 1.94680E+01 5.37155E-13-3.96576E-14
 -1      2108 1.94441E+01-2.01770E+01-2.25783E-01 1.90551E+01 2.19353E-13 1.41941E-14
 -1      2109 2.74766E+01-1.96721E+01 2.33485E+00 1.65206E+01 4.33677E-13 2.34554E-14
 -1      2110 3.38451E+01-1.69145E+01 5.07192E+00 1.60211E+01-4.60513E-13-4.69510E-14
 -1      2111 4.28196E+01-1.60071E+01 8.03505E+00 1.33450E+01-2.77678E-13 1.19869E-14
 -1      2112 5.03212E+01-1.36469E+01 1.09920E+01 1.24862E+01-1.20002E-12 3.20594E-14
 -1      2113 6.09397E+01-1.27367E+01 1.44478E+01 9.48136E+00-3.87754E-13-2.25372E-14
 -1      2114 7.01583E+01-1.08818E+01 1.77669E+01 7.81290E+00 7.08534E-13 6.35583E-14
 -1      2115 8.38478E+01-1.05756E+01 2.19600E+01 3.87742E+00-3.78974E-13 5.58818E-15
 -1      2116 9.59539E+01-9.58531E+00 2.58831E+01 3.08613E-01 3.08258E-13 2.06928E-15
 -1      2117-6.53646E+01 1.50971E-02-1.96165E+01-1.34449E-01 1.02125E-12-6.06836E-14
 -1      2118-7.19278E+01-8.22012E-03-2.15949E+01 5.38900E-01 1.48190E-13-4.75270E-14
 -1      2119-7.44401E+01 3.39102E-02-2.23370E+01 2.03863E+00-5.15408E-14 6.28625E-14
 -1      2120-8.31490E+01-9.14109E-01-2.52379E+01 5.35833E+00 5.30545E-13-2.82219E-14
 -1      2121-8.20081E+01-1.04925E+00-2.49358E+01 7.37085E+00-8.17767E-14 9.67270E-14
 -1      2122-9.05862E+01-4.34537E+00-2.85025E+01 1.37590E+01-3.77089E-13-4.36887E-15
 -1      2123-8.57181E+01-4.28738E+00-2.70227E+01 1.50680E+01-1.44672E-13 2.60969E-14
 -1      2124-9.16096E+01-1.08704E+01-3.07692E+01 2.33188E+01-7.96776E-13-2.81075E-14
 -1      2125-8.40726E+01-1.00328E+01-2.82534E+01 2.31227E+01-5.88981E-13 4.22532E-14
 -1      2126-8.56769E+01-1.93578E+01-3.15352E+01 3.11311E+01-6.21052E-13 3.78013E-14
 -1      2127-7.72640E+01-1.72978E+01-2.83893E+01 2.94613E+01 5.62985E-13-2.14444E-15
 -1      2128-7.46256E+01-2.77090E+01-3.07227E+01 3.54353E+01-7.29215E-14 2.09049E-14
 -1      2129-6.67607E+01-2.44238E+01-2.73738E+01 3.29333E+01-4.56933E-13-3.85674E-15
 -1      2130-6.10834E+01-3.41227E+01-2.85805E+01 3.61489E+01 3.26307E-13-1.06837E-14
 -1      2131-5.43571E+01-2.99467E+01-2.53067E+01 3.35565E+01-4.31270E-13-6.40213E-15
 -1      2132-4.71019E+01-3.77735E+01-2.54776E+01 3.42607E+01 6.62334E-13-2.16074E-15
 -1      2133-4.14326E+01-3.31450E+01-2.23858E+01 3.20718E+01-1.37816E-13 2.32957E-15
 -1      2134-3.36904E+01-3.87111E+01-2.17321E+01 3.09763E+01-3.92671E-13-4.92017E-16
 -1      2135-2.87083E+01-3.40006E+01-1.88226E+01 2.93788E+01 5.41385E-13-1.61461E-15
 -1      2136-2.10493E+01-3.74441E+01-1.75570E+01 2.72253E+01 3.96851E-13 5.94914E-16
 -1      2137-1.63574E+01-3.28970E+01-1.47841E+01 2.61965E+01-2.33486E-13 2.39499E-15
 -1      2138-8.93894E+00-3.45948E+01-1.30672E+01 2.35512E+01 4.32845E-13-4.49099E-15
 -1      2139-4.20451E+00-3.03441E+01-1.03710E+01 2.29670E+01 3.65210E-13-1.39014E-14
 -1      2140 3.07376E+00-3.07228E+01-8.30072E+00 2.01845E+01-1.81618E-13-5.94473E-15
 -1      2141 8.12446E+00-2.68266E+01-5.61640E+00 1.98864E+01-4.94753E-14 1.95147E-15
 -1      2142 1.55146E+01-2.62784E+01-3.23493E+00 1.71458E+01-5.21947E-13 2.47614E-15
 -1      2143 2.11404E+01-2.27582E+01-4.91343E-01 1.69647E+01-2.83090E-13-1.82285E-15
 -1      2144 2.90064E+01-2.16296E+01 2.20638E+00 1.43148E+01 5.80103E-14-6.87661E-15
 -1      2145 3.55106E+01-1.85038E+01 5.09460E+00 1.40619E+01-1.31136E-12 2.27596E-14
 -1      2146 4.43524E+01-1.71315E+01 8.15729E+00 1.14437E+01-6.47693E-13 1.75891E-15
 -1      2147 5.21597E+01-1.44452E+01 1.13037E+01 1.08690E+01 1.09772E-12-3.63077E-14
 -1      2148 6.27281E+01-1.32338E+01 1.48346E+01 8.08814E+00-2.07573E-13 9.97274E-15
 -1      2149 7.25300E+01-1.10795E+01 1.84182E+01 6.78508E+00-1.06787E-13-1.79884E-14
 -1      2150 8.63500E+01-1.06836E+01 2.26771E+01 3.30509E+00 6.04466E-14-1.81895E-14
 -1      2151 9.95934E+01-9.49761E+00 2.69993E+01 2.74786E-01-1.32904E-12-5.08622E-14
 -1      2152-6.62478E+01 3.80112E-01-1.97724E+01-3.06334E-01 9.04169E-13 1.20926E-13
 -1      2153-7.75645E+01-7.01587E-02-2.33068E+01 8.46528E-01 5.65407E-13 1.48311E-14
 -1      2154-8.24222E+01-1.17840E-01-2.47806E+01 3.19692E+00 3.36523E-14 4.90593E-15
 -1      2155-9.64634E+01-2.40290E+00-2.96855E+01 9.51133E+00 8.30259E-13 7.72601E-15
 -1      2156-9.45526E+01-2.58363E+00-2.91659E+01 1.22861E+01-1.37700E-13-4.61960E-14
 -1      2157-1.06577E+02-1.01858E+01-3.50620E+01 2.32730E+01 2.86450E-13-2.63735E-15
 -1      2158-9.84838E+01-9.61994E+00-3.24602E+01 2.39468E+01-8.24950E-13-2.14394E-14
 -1      2159-1.03983E+02-2.24421E+01-3.79630E+01 3.58678E+01 1.32389E-13 1.69028E-14
 -1      2160-9.33563E+01-2.00238E+01-3.40435E+01 3.37376E+01-1.07723E-13 3.94517E-15
 -1      2161-9.17248E+01-3.52339E+01-3.81208E+01 4.27688E+01-3.37242E-13 1.73367E-15
 -1      2162-8.18098E+01-3.07802E+01-3.38038E+01 3.89360E+01-2.11253E-13 1.44458E-14
 -1      2163-7.52387E+01-4.48977E+01-3.60688E+01 4.35472E+01-8.56145E-15 3.34849E-15
 -1      2164-6.73788E+01-3.90175E+01-3.19415E+01 3.95069E+01-8.67299E-13-1.65399E-15
 -1      2165-5.86213E+01-5.00420E+01-3.26210E+01 4.02445E+01 1.20476E-13 2.04213E-15
 -1      2166-5.26267E+01-4.35624E+01-2.88748E+01 3.69292E+01-2.65953E-13-3.45760E-15
 -1      2167-4.35683E+01-5.10681E+01-2.84076E+01 3.51474E+01-3.41412E-13-2.88743E-16
 -1      2168-3.87314E+01-4.46341E+01-2.50236E+01 3.28379E+01-3.58175E-13-2.77354E-16
 -1      2169-3.02191E+01-4.90732E+01-2.38002E+01 2.97887E+01 1.17062E-14 9.95663E-16
 -1      2170-2.58951E+01-4.30494E+01-2.06939E+01 2.83878E+01-3.92229E-13 1.31692E-15
 -1      2171-1.80960E+01-4.51489E+01-1.89829E+01 2.49154E+01-1.60854E-13 1.08945E-15
 -1      2172-1.38353E+01-3.96821E+01-1.60633E+01 2.41975E+01-1.37439E-13 5.21413E-15
 -1      2173-6.58301E+00-4.01276E+01-1.40204E+01 2.07671E+01 1.76807E-13 1.12175E-14
 -1      2174-2.08782E+00-3.52367E+01-1.12039E+01 2.05023E+01-7.23302E-15-1.05875E-14
 -1      2175 4.91712E+00-3.45738E+01-8.90306E+00 1.73199E+01-2.25570E-13-1.57845E-14
 -1      2176 9.87279E+00-3.02202E+01-6.11001E+00 1.73111E+01 5.25953E-13 1.60702E-14
 -1      2177 1.69853E+01-2.88604E+01-3.56837E+00 1.44288E+01-2.65921E-13 1.38650E-14
 -1      2178 2.26281E+01-2.49937E+01-7.15763E-01 1.45061E+01-4.42625E-13 2.82321E-14
 -1      2179 3.02584E+01-2.32623E+01 2.09210E+00 1.18868E+01-3.74748E-13 3.51224E-15
 -1      2180 3.68844E+01-1.98513E+01 5.10233E+00 1.18814E+01 1.83141E-13 1.47003E-15
 -1      2181 4.55537E+01-1.80548E+01 8.24050E+00 9.42326E+00-8.82383E-13 1.95088E-14
 -1      2182 5.36147E+01-1.51136E+01 1.15393E+01 9.12050E+00 7.01559E-13-7.21130E-15
 -1      2183 6.40945E+01-1.36388E+01 1.51226E+01 6.63195E+00 5.29217E-13 5.19711E-14
 -1      2184 7.43725E+01-1.12441E+01 1.89209E+01 5.68194E+00 3.39498E-13 5.28690E-14
 -1      2185 8.82497E+01-1.07720E+01 2.32195E+01 2.70799E+00-4.43764E-13-1.88196E-14
 -1      2186 1.02429E+02-9.42412E+00 2.78703E+01 2.34489E-01-3.36447E-13 6.94051E-14
 -1      2187-6.67984E+01-4.16799E-01-2.01767E+01-4.46117E-01-1.26387E-13 3.62737E-15
 -1      2188-8.69931E+01-4.49486E-01-2.62534E+01 2.05769E+00 5.86774E-15 1.01698E-15
 -1      2189-9.58978E+01 2.73266E-01-2.87129E+01 6.26740E+00 9.37848E-14 4.13519E-14
 -1      2190-1.20082E+02-7.60004E+00-3.83450E+01 1.93673E+01-5.90080E-14-4.78711E-14
 -1      2191-1.13367E+02-7.08501E+00-3.61729E+01 2.26719E+01 1.58569E-13 1.54326E-14
 -1      2192-1.27540E+02-2.48815E+01-4.57788E+01 4.14514E+01 6.10403E-13-7.33063E-15
 -1      2193-1.13370E+02-2.19834E+01-4.06488E+01 3.94421E+01-2.09791E-13-2.97660E-15
 -1      2194-1.14551E+02-4.57424E+01-4.81405E+01 5.43170E+01-1.50604E-13-1.07743E-14
 -1      2195-1.00498E+02-3.93093E+01-4.19829E+01 4.83558E+01-7.32953E-13 2.88760E-15
 -1      2196-9.23482E+01-6.12026E+01-4.61095E+01 5.53654E+01-2.60052E-13-1.16183E-14
 -1      2197-8.23498E+01-5.21834E+01-4.03945E+01 4.88299E+01 4.56119E-13-1.00028E-15
 -1      2198-7.08144E+01-6.83362E+01-4.17793E+01 4.92920E+01-2.43484E-13-2.30951E-15
 -1      2199-6.43378E+01-5.85528E+01-3.68943E+01 4.42083E+01-7.72391E-13-2.88514E-15
 -1      2200-5.30110E+01-6.87453E+01-3.65521E+01 4.09902E+01-1.83816E-13 1.06850E-16
 -1      2201-4.84485E+01-5.94276E+01-3.23833E+01 3.77224E+01 2.06416E-13-4.28151E-16
 -1      2202-3.85330E+01-6.49602E+01-3.10663E+01 3.30696E+01 1.70760E-13 2.45784E-15
 -1      2203-3.47282E+01-5.66325E+01-2.74233E+01 3.12666E+01 3.29428E-13 1.01818E-15
 -1      2204-2.62577E+01-5.89681E+01-2.55810E+01 2.64414E+01 2.32067E-15-2.71888E-15
 -1      2205-2.25601E+01-5.17374E+01-2.23004E+01 2.56359E+01 4.85846E-13-3.48882E-15
 -1      2206-1.51562E+01-5.20217E+01-2.01631E+01 2.11998E+01-3.08799E-13 2.01428E-15
 -1      2207-1.12325E+01-4.57962E+01-1.71169E+01 2.10110E+01 2.71327E-13-2.35860E-15
 -1      2208-4.44781E+00-4.48179E+01-1.47871E+01 1.71402E+01-7.26658E-13 2.96779E-15
 -1      2209-1.06179E-01-3.94420E+01-1.18710E+01 1.72994E+01-5.36713E-14-4.41343E-15
 -1      2210 6.47670E+00-3.77181E+01-9.37851E+00 1.39883E+01-3.70126E-13 9.18152E-15
 -1      2211 1.13932E+01-3.30376E+01-6.49914E+00 1.43095E+01-4.82658E-14 5.10676E-15
 -1      2212 1.81650E+01-3.09122E+01-3.83001E+00 1.14779E+01-2.08505E-13-8.15365E-17
 -1      2213 2.38482E+01-2.68043E+01-8.92945E-01 1.18204E+01-2.26820E-13 5.82336E-15
 -1      2214 3.12210E+01-2.45353E+01 1.99891E+00 9.35954E+00-1.42840E-13-1.58383E-14
 -1      2215 3.79601E+01-2.09244E+01 5.10298E+00 9.59079E+00-2.09448E-13-2.55984E-15
 -1      2216 4.64480E+01-1.87659E+01 8.29532E+00 7.37248E+00 2.10519E-13-4.00689E-15
 -1      2217 5.47180E+01-1.56406E+01 1.17119E+01 7.32246E+00 4.08165E-13 9.10349E-15
 -1      2218 6.50924E+01-1.39490E+01 1.53286E+01 5.17192E+00-4.91637E-13-6.29906E-15
 -1      2219 7.57488E+01-1.13733E+01 1.92945E+01 4.55429E+00 8.82769E-13-8.78161E-15
 -1      2220 8.96303E+01-1.08402E+01 2.36125E+01 2.11042E+00 1.23095E-12 1.08489E-14
 -1      2221 1.04551E+02-9.36601E+00 2.85231E+01 1.90582E-01-1.52598E-12 2.55297E-14
 -1      2222-6.64253E+01 6.11551E+00-1.81059E+01-2.75487E+00-1.81061E-12-2.71064E-14
 -1      2223-1.06861E+02-2.14784E-01-3.21545E+01 4.99073E+00 6.27658E-13-2.74814E-14
 -1      2224-1.19293E+02-3.12306E+00-3.67646E+01 1.38862E+01 4.78908E-13 6.70724E-14
 -1      2225-1.57618E+02-2.32302E+01-5.43315E+01 4.36970E+01-7.30510E-14 1.08229E-14
 -1      2226-1.39557E+02-2.03626E+01-4.80401E+01 4.58826E+01 1.36363E-13-3.23036E-15
 -1      2227-1.50978E+02-6.16986E+01-6.38971E+01 7.39150E+01-8.44436E-13 1.98713E-14
 -1      2228-1.26631E+02-5.12696E+01-5.34379E+01 6.38778E+01-1.50066E-14 3.12474E-15
 -1      2229-1.15219E+02-8.94044E+01-6.14659E+01 7.55720E+01 3.05181E-13-3.48616E-16
 -1      2230-1.00831E+02-7.34221E+01-5.23333E+01 6.40880E+01 7.32422E-13 3.65161E-15
 -1      2231-8.36574E+01-9.84354E+01-5.46854E+01 6.32062E+01 5.27163E-13 6.28399E-17
 -1      2232-7.67464E+01-8.20620E+01-4.76861E+01 5.52021E+01 5.25956E-13-2.98232E-16
 -1      2233-6.14082E+01-9.59165E+01-4.72377E+01 4.87924E+01 3.54353E-13 1.35271E-15
 -1      2234-5.75814E+01-8.13354E+01-4.17066E+01 4.43725E+01-4.53456E-13-7.35552E-16
 -1      2235-4.54809E+01-8.77577E+01-3.99995E+01 3.67439E+01 1.57176E-15-4.81319E-16
 -1      2236-4.25681E+01-7.56010E+01-3.54732E+01 3.47384E+01-1.12307E-13 2.56494E-18
 -1      2237-3.31484E+01-7.76490E+01-3.32587E+01 2.76915E+01 1.88067E-13 8.81483E-16
 -1      2238-3.02110E+01-6.77226E+01-2.93960E+01 2.70729E+01-2.97762E-13-3.61780E-15
 -1      2239-2.25638E+01-6.73331E+01-2.69828E+01 2.11256E+01 1.14814E-13-5.14292E-16
 -1      2240-1.92787E+01-5.92166E+01-2.35601E+01 2.12433E+01 4.88845E-13 9.54269E-16
 -1      2241-1.26543E+01-5.75168E+01-2.10612E+01 1.63944E+01-1.48232E-13-7.75933E-16
 -1      2242-8.90070E+00-5.07961E+01-1.79175E+01 1.68745E+01-1.20809E-12 3.52683E-15
 -1      2243-2.74320E+00-4.84206E+01-1.53566E+01 1.29568E+01-3.70846E-13 1.33306E-16
 -1      2244 1.55216E+00-4.27558E+01-1.23677E+01 1.35885E+01-1.16400E-13-1.00760E-14
 -1      2245 7.66431E+00-4.00647E+01-9.72623E+00 1.04079E+01-3.60693E-13-6.09348E-15
 -1      2246 1.26007E+01-3.51994E+01-6.78543E+00 1.10660E+01 5.91197E-13 8.93820E-15
 -1      2247 1.90310E+01-3.24126E+01-4.02031E+00 8.44742E+00 3.48640E-13-2.12531E-15
 -1      2248 2.47773E+01-2.81677E+01-1.02324E+00 9.04389E+00 1.08349E-13-6.11193E-15
 -1      2249 3.19071E+01-2.54532E+01 1.92936E+00 6.83839E+00 1.09895E-12 1.89781E-14
 -1      2250 3.87521E+01-2.17224E+01 5.10113E+00 7.28703E+00-1.24434E-13-6.18027E-16
 -1      2251 4.70714E+01-1.92741E+01 8.32978E+00 5.36229E+00-4.14191E-13 2.06332E-15
 -1      2252 5.55111E+01-1.60295E+01 1.18330E+01 5.54146E+00 1.02394E-12 3.31696E-14
 -1      2253 6.57787E+01-1.41698E+01 1.54680E+01 3.75314E+00 1.09547E-13-5.52411E-15
 -1      2254 7.67270E+01-1.14682E+01 1.95591E+01 3.44236E+00-5.66417E-14 1.44205E-14
 -1      2255 9.05763E+01-1.08892E+01 2.38811E+01 1.53066E+00 2.01930E-13-5.86338E-15
 -1      2256 1.06061E+02-9.32288E+00 2.89882E+01 1.45489E-01-7.41923E-13-2.61132E-16
 -1      2257-7.61547E+01-1.72989E+01-2.80504E+01 2.42919E+00-6.96475E-13 3.52426E-14
 -1      2258-1.96038E+02-2.06553E+01-6.51290E+01 2.26263E+01-8.24141E-13 3.51507E-14
 -1      2259-1.77852E+02 4.93879E-01-5.33086E+01 4.16738E+01-3.60577E-13-2.08661E-14
 -1      2260-2.20978E+02-9.42577E+01-9.47840E+01 1.11712E+02 3.68860E-13-2.78521E-15
 -1      2261-1.68623E+02-6.97254E+01-7.16344E+01 9.16024E+01-1.42485E-13-6.53870E-16
 -1      2262-1.50794E+02-1.47230E+02-8.95804E+01 1.14554E+02 4.12599E-13 4.59019E-16
 -1      2263-1.25906E+02-1.14849E+02-7.23376E+01 9.15192E+01 7.39981E-14-4.70874E-16
 -1      2264-9.50113E+01-1.55401E+02-7.52363E+01 8.50265E+01 7.72266E-13 2.24766E-15
 -1      2265-8.94579E+01-1.23351E+02-6.39207E+01 7.18959E+01-2.31007E-13 2.09503E-15
 -1      2266-6.68046E+01-1.41575E+02-6.25846E+01 5.76040E+01-5.46582E-14-3.62751E-16
 -1      2267-6.51980E+01-1.16430E+02-5.45410E+01 5.25951E+01-3.00813E-14-9.41467E-16
 -1      2268-4.99205E+01-1.22271E+02-5.17029E+01 3.91806E+01 1.34584E-13 3.42597E-15
 -1      2269-4.87417E+01-1.03453E+02-4.56938E+01 3.79858E+01-3.15164E-13-1.77016E-15
 -1      2270-3.82772E+01-1.03739E+02-4.26349E+01 2.72781E+01 1.59990E-13 7.34385E-16
 -1      2271-3.64356E+01-8.96050E+01-3.78361E+01 2.77016E+01 4.41747E-13 8.71164E-16
 -1      2272-2.86544E+01-8.74242E+01-3.48438E+01 1.95555E+01-1.30516E-13 1.01177E-15
 -1      2273-2.61100E+01-7.65995E+01-3.08294E+01 2.05843E+01-2.20603E-13 2.86310E-16
 -1      2274-1.97462E+01-7.34060E+01-2.79597E+01 1.44366E+01-5.34697E-13-2.62353E-15
 -1      2275-1.65615E+01-6.48878E+01-2.44464E+01 1.56349E+01 7.97181E-14-2.34278E-16
 -1      2276-1.08553E+01-6.13455E+01-2.16702E+01 1.09590E+01-5.76534E-13 1.41723E-15
 -1      2277-7.08978E+00-5.44459E+01-1.84692E+01 1.21435E+01-7.44514E-13-2.86847E-15
 -1      2278-1.56774E+00-5.08597E+01-1.57357E+01 8.53168E+00-4.18017E-13-1.49790E-16
 -1      2279 2.78117E+00-4.51106E+01-1.27054E+01 9.62723E+00-4.33234E-13 2.85103E-15
 -1      2280 8.45865E+00-4.16217E+01-9.95503E+00 6.78288E+00 6.49408E-13 4.92943E-15
 -1      2281 1.34641E+01-3.67068E+01-6.97860E+00 7.75591E+00 8.37888E-13-5.29542E-15
 -1      2282 1.95968E+01-3.33941E+01-4.14506E+00 5.46661E+00-3.17541E-13 2.38640E-15
 -1      2283 2.54228E+01-2.91059E+01-1.11103E+00 6.29237E+00-3.59921E-13-2.27677E-15
 -1      2284 3.23470E+01-2.60481E+01 1.88286E+00 4.40477E+00-6.48906E-15-6.51680E-15
 -1      2285 3.92896E+01-2.22666E+01 5.09910E+00 5.04605E+00 1.33558E-13 5.55155E-15
 -1      2286 4.74654E+01-1.96016E+01 8.34967E+00 3.44403E+00-1.55386E-13 5.03005E-15
 -1      2287 5.60404E+01-1.62933E+01 1.19126E+01 3.82697E+00 6.63844E-13 6.68073E-15
 -1      2288 6.62088E+01-1.43119E+01 1.55543E+01 2.40700E+00 5.09911E-14 6.41704E-15
 -1      2289 7.73746E+01-1.15322E+01 1.97339E+01 2.37535E+00-1.13941E-12-2.89269E-15
 -1      2290 9.11677E+01-1.09212E+01 2.40486E+01 9.81253E-01-5.25560E-13-3.31854E-15
 -1      2291 1.07061E+02-9.29333E+00 2.92965E+01 1.01080E-01-2.84209E-13 2.12982E-14
 -1      2292 3.53385E+01 1.64106E+02 5.98059E+01-7.43297E+01 7.15557E-13-1.62477E-14
 -1      2293-3.09073E+02-1.34604E+02-1.33868E+02 2.43511E+02-2.87146E-13-2.12435E-14
 -1      2294-2.37466E+02-1.03251E+02-1.02613E+02 1.76187E+02-8.30994E-13 7.26015E-16
 -1      2295-2.18530E+02-3.38604E+02-1.67763E+02 2.12280E+02 6.22100E-14 7.84649E-15
 -1      2296-1.62848E+02-2.14686E+02-1.13551E+02 1.48597E+02-1.69441E-14 5.06365E-15
 -1      2297-8.56927E+01-2.90406E+02-1.13119E+02 1.11178E+02-4.57713E-13 2.79428E-16
 -1      2298-9.88184E+01-2.07725E+02-9.21316E+01 9.49208E+01-3.07409E-13-3.14127E-15
 -1      2299-6.45972E+01-2.25116E+02-8.70568E+01 5.83536E+01-1.29563E-13 1.37347E-15
 -1      2300-6.88027E+01-1.78093E+02-7.41672E+01 5.89315E+01 3.44897E-13 2.90612E-16
 -1      2301-4.98377E+01-1.76611E+02-6.80153E+01 3.40811E+01 1.86364E-13 3.64310E-15
 -1      2302-5.19498E+01-1.46182E+02-5.94989E+01 3.77537E+01 1.55692E-13-1.80630E-15
 -1      2303-4.12318E+01-1.40680E+02-5.46224E+01 2.13018E+01 2.77644E-13-2.55298E-15
 -1      2304-4.07461E+01-1.20285E+02-4.83471E+01 2.52115E+01-2.66940E-13 2.92413E-16
 -1      2305-3.34343E+01-1.13888E+02-4.42277E+01 1.41525E+01-1.90922E-13-6.28940E-16
 -1      2306-3.16153E+01-9.94011E+01-3.93297E+01 1.75183E+01-7.15260E-13 3.13543E-16
 -1      2307-2.58947E+01-9.32775E+01-3.57724E+01 9.85563E+00-5.08050E-14-9.07642E-16
 -1      2308-2.31619E+01-8.24858E+01-3.17111E+01 1.26196E+01 4.46500E-14 7.21685E-16
 -1      2309-1.80983E+01-7.69029E+01-2.85146E+01 7.14406E+00 3.75398E-13 7.22608E-16
 -1      2310-1.47208E+01-6.85136E+01-2.49821E+01 9.39038E+00 2.78102E-13 1.11174E-15
 -1      2311-9.84065E+00-6.34938E+01-2.20104E+01 5.35800E+00 7.14069E-13-1.06140E-15
 -1      2312-5.91260E+00-5.67219E+01-1.87989E+01 7.19273E+00 2.80442E-13-3.52084E-15
 -1      2313-9.20138E-01-5.22041E+01-1.59447E+01 4.13755E+00 2.37289E-14 8.73320E-16
 -1      2314 3.55657E+00-4.65536E+01-1.29057E+01 5.64832E+00-1.74606E-13-1.08247E-15
 -1      2315 8.88861E+00-4.24695E+01-1.00804E+01 3.27133E+00 7.14378E-15 1.30131E-15
 -1      2316 1.39966E+01-3.76193E+01-7.09259E+00 4.52085E+00-9.00532E-13-3.21359E-15
 -1      2317 1.98990E+01-3.39241E+01-4.21337E+00 2.62667E+00-7.32348E-14-1.70450E-15
 -1      2318 2.58137E+01-2.96690E+01-1.16269E+00 3.65169E+00 2.99956E-13-3.09934E-15
 -1      2319 3.25797E+01-2.63675E+01 1.85682E+00 2.11126E+00-2.08032E-13-2.93684E-15
 -1      2320 3.96103E+01-2.25914E+01 5.09786E+00 2.92015E+00-2.72678E-13 1.18815E-15
 -1      2321 4.76722E+01-1.97770E+01 8.35908E+00 1.64825E+00 1.58169E-13 2.36085E-15
 -1      2322 5.63527E+01-1.64501E+01 1.19592E+01 2.21113E+00 1.10257E-14-6.09399E-15
 -1      2323 6.64336E+01-1.43881E+01 1.55988E+01 1.15105E+00-1.64679E-13-2.08593E-15
 -1      2324 7.77546E+01-1.15700E+01 1.98364E+01 1.37177E+00 5.36885E-13-4.84693E-15
 -1      2325 9.14766E+01-1.09390E+01 2.41358E+01 4.69128E-01 9.25963E-13 7.88955E-16
 -1      2326 1.07648E+02-9.27542E+00 2.94777E+01 5.86412E-02-7.22952E-13-3.95254E-15
 -1      2327-9.73757E+02-9.70783E+02-5.86940E+02 3.00661E+02 1.55839E-13-1.50987E-14
 -1      2328-4.95310E+02-1.25244E+03-5.28277E+02 1.68930E+02-3.72674E-14 1.83964E-15
 -1      2329-2.45815E+02-6.78488E+02-2.78764E+02 2.04467E+02 2.18340E-13 3.43669E-15
 -1      2330-9.81962E+00-5.97119E+02-1.83062E+02 5.01753E+00 5.91341E-13-2.19977E-15
 -1      2331-9.66250E+01-4.25458E+02-1.57133E+02 9.26033E+01 4.97362E-13 1.41398E-15
 -1      2332-6.17078E+01-3.68289E+02-1.29331E+02 9.61841E-01-7.91549E-13-1.05401E-15
 -1      2333-6.47230E+01-2.90177E+02-1.06683E+02 4.21351E+01 4.96107E-13-2.32003E-15
 -1      2334-4.62500E+01-2.56185E+02-9.08887E+01 4.37520E-01-7.59437E-14 1.44284E-15
 -1      2335-5.15926E+01-2.11314E+02-7.89803E+01 2.27405E+01-1.08042E-13 5.46906E-17
 -1      2336-4.40529E+01-1.89359E+02-7.01075E+01-8.73114E-03 7.02921E-13-3.37344E-16
 -1      2337-4.34616E+01-1.62554E+02-6.18670E+01 1.35578E+01 4.67186E-13-3.24685E-16
 -1      2338-3.80802E+01-1.46892E+02-5.55414E+01-1.35320E-02-2.66953E-13 3.39578E-16
 -1      2339-3.62365E+01-1.28781E+02-4.95439E+01 8.70134E+00 1.25128E-13 1.06282E-15
 -1      2340-3.19064E+01-1.17148E+02-4.47478E+01-2.00885E-02 5.19457E-13 7.02068E-17
 -1      2341-2.91057E+01-1.04143E+02-3.99997E+01 5.90829E+00-1.51212E-13-2.16946E-16
 -1      2342-2.50271E+01-9.51035E+01-3.60601E+01-1.49897E-02 3.41038E-14-1.64994E-16
 -1      2343-2.17006E+01-8.52478E+01-3.21015E+01 4.19418E+00-1.40018E-13 6.74883E-16
 -1      2344-1.76000E+01-7.79749E+01-2.86867E+01-1.08380E-02-4.24434E-13 1.70595E-16
 -1      2345-1.38378E+01-7.01825E+01-2.52179E+01 3.09163E+00 4.17397E-13-7.73284E-17
 -1      2346-9.53658E+00-6.41441E+01-2.21143E+01-7.76273E-03 5.19417E-14-7.03170E-17
 -1      2347-5.36046E+00-5.77554E+01-1.89433E+01 2.35312E+00-3.11208E-13-2.33925E-16
 -1      2348-7.28661E-01-5.26079E+01-1.60084E+01-5.54170E-03-1.50260E-13-2.61312E-17
 -1      2349 3.91441E+00-4.72028E+01-1.29931E+01 1.83994E+00-5.73930E-13 7.33169E-16
 -1      2350 9.01494E+00-4.27226E+01-1.01184E+01-4.00115E-03-8.35351E-14-4.12376E-16
 -1      2351 1.42393E+01-3.80270E+01-7.14211E+00 1.46836E+00-9.36765E-13 7.19804E-16
 -1      2352 1.99873E+01-3.40818E+01-4.23419E+00-2.90005E-03-2.81946E-13 4.43759E-16
 -1      2353 2.59901E+01-2.99194E+01-1.18493E+00 1.18374E+00 4.74535E-13-1.47057E-15
 -1      2354 3.26474E+01-2.64623E+01 1.84868E+00-2.10161E-03 5.60935E-13-3.82724E-16
 -1      2355 3.97537E+01-2.27353E+01 5.09769E+00 9.45409E-01-1.05668E-12 2.55353E-15
 -1      2356 4.77323E+01-1.98291E+01 8.36148E+00-1.39580E-03-4.96884E-13-2.19042E-15
 -1      2357 5.64915E+01-1.65193E+01 1.19800E+01 7.15357E-01-1.28780E-12 3.11318E-15
 -1      2358 6.64990E+01-1.44109E+01 1.56116E+01-8.35660E-04-4.69568E-14-1.93937E-15
 -1      2359 7.79227E+01-1.15863E+01 1.98819E+01 4.43721E-01 3.80298E-14-9.17167E-16
 -1      2360 9.15663E+01-1.09446E+01 2.41610E+01 9.88078E-04 1.25218E-12-5.91744E-16
 -1      2361 1.07908E+02-9.26705E+00 2.95580E+01 1.90230E-02-1.03867E-12 3.76942E-16
 -3
    1PSTEP                         3           1           1          
  100CL  101 1.000000000        2360                     0    1           1
 -4  TOSTRAIN    6    1
 -5  EXX         1    4    1    1
 -5  EYY         1    4    2    2
 -5  EZZ         1    4    3    3
 -5  EXY         1    4    1    2
 -5  EYZ         1    4    2    3
 -5  EZX         1    4    3    1
 -1         1-4.37982E-03-4.60021E-03-4.06478E-36 1.52441E-03 2.97550E-18-2.71113E-20
 -1         2-3.30986E-07 1.13278E-06 3.49498E-37-1.81479E-07 1.14935E-22-4.52357E-19
 -1         3-2.06399E-03-1.97053E-03 1.36762E-35-2.30859E-03-9.83504E-19 8.26501E-20
 -1         4 1.94458E-04 2.60413E-04 1.47170E-36 4.78612E-04 1.20566E-18 6.16183E-20
 -1         5 5.40633E-05 1.42055E-05 3.59483E-36 9.56015E-05-2.89370E-19-1.94611E-21
 -1         6 2.77958E-06 2.65403E-05 6.91689E-36 2.87585E-05-1.32035E-18-7.19484E-20
 -1         7 1.04873E-06 4.74888E-06 5.73808E-36 1.74140E-05 6.28602E-19-7.70255E-20
 -1         8-8.01319E-08 4.31218E-06 1.48604E-37 8.92725E-06 1.15685E-18-9.66031E-20
 -1         9-4.65428E-09 2.22170E-06-8.76670E-37 5.60311E-06-3.16571E-20 4.91279E-21
 -1        10-2.20923E-08 1.63715E-06 1.32928E-36 3.58013E-06-3.76038E-22-1.07481E-20
 -1        11-1.67468E-08 1.20855E-06 8.30427E-37 2.47755E-06-2.56313E-19 1.72942E-20
 -1        12-1.88237E-08 9.81665E-07 1.20963E-36 1.78080E-06-5.12743E-19 4.73563E-21
 -1        13-2.47336E-08 8.36405E-07 3.73791E-37 1.33612E-06 3.59505E-19 5.90620E-21
 -1        14-3.35873E-08 7.47129E-07 9.05959E-37 1.03591E-06 2.25807E-20 1.21752E-20
 -1        15-4.55329E-08 6.93357E-07 1.63916E-37 8.27408E-07 5.23814E-20-6.37024E-21
 -1        16-6.08502E-08 6.66252E-07 6.51598E-37 6.77353E-07 1.77305E-19-1.28789E-19
 -1        17-8.03156E-08 6.61260E-07 5.69452E-37 5.65174E-07-6.04579E-20-8.80558E-20
 -1        18-1.05001E-07 6.77033E-07 1.85799E-37 4.76576E-07-4.07898E-20-5.70511E-21
 -1        19-1.35248E-07 7.14099E-07 3.14653E-37 4.00087E-07 2.99869E-20 2.13218E-19
 -1        20-1.73658E-07 7.75870E-07 7.38845E-38 3.25368E-07-5.44688E-21 1.59456E-19
 -1        21-2.11680E-07 8.69179E-07 4.01438E-37 2.38543E-07 1.68794E-21-1.34663E-19
 -1        22-2.80870E-07 1.02717E-06 6.84708E-38 1.36105E-07 7.45428E-22 2.00855E-19
 -1        23 2.83995E-06-6.47706E-06 7.17011E-37-3.14712E-08-4.05702E-22 2.23625E-19
 -1        24 5.99057E-06-1.34802E-05 1.89410E-37 9.03501E-08-4.30066E-22 1.94659E-19
 -1        25 9.78906E-06-2.16823E-05-5.28517E-38 1.01048E-08-9.70433E-22 1.22806E-19
 -1        26 1.45657E-05-3.13643E-05 3.33809E-37-2.91662E-08-9.81542E-22 4.50431E-19
 -1        27 2.05423E-05-4.28450E-05-1.85575E-37-4.45883E-08-2.67610E-21 2.06646E-19
 -1        28 2.80082E-05-5.65132E-05 7.43886E-37-4.67861E-08 3.17607E-21-3.67438E-20
 -1        29 3.73366E-05-7.28398E-05 1.30520E-37-4.13706E-08-1.09509E-21-1.39390E-19
 -1        30 4.89922E-05-9.23824E-05 7.27136E-38-3.06852E-08 4.64120E-22-3.52893E-19
 -1        31 6.35287E-05-1.15774E-04 8.51873E-38-1.54302E-08-6.26245E-21 9.77790E-20
 -1        32 8.15614E-05-1.43677E-04 2.72817E-37 3.92739E-09-7.61158E-22 1.01650E-20
 -1        33 1.03685E-04-1.76668E-04 5.08674E-37 2.57010E-08 2.68277E-21 1.80274E-19
 -1        34 1.30284E-04-2.14993E-04 5.69576E-37 4.55438E-08-4.82059E-22 1.03426E-19
 -1        35 1.61173E-04-2.58124E-04 5.01859E-37 5.27525E-08-8.24593E-21-2.20880E-20
 -1        36 1.94972E-04-3.04025E-04 8.12514E-37 3.69707E-08 4.70729E-21-3.20382E-20
 -1        37 2.28246E-04-3.48259E-04 1.15037E-36-5.11781E-08-1.35261E-21 1.35878E-19
 -1        38 2.55172E-04-3.83621E-04 1.37118E-36-1.39270E-07 2.58549E-19-8.84979E-20
 -1        39 2.65574E-04-3.97661E-04 1.75460E-36 1.68709E-06-1.19058E-19-2.24166E-21
 -1        40 1.71461E-03-5.59772E-03 1.24212E-35-4.94728E-04 1.86361E-18-3.70238E-20
 -1        41 1.60787E-03-3.77684E-03 4.67975E-35-8.34386E-05-4.90615E-19 3.68151E-22
 -1        42 1.21665E-03-2.63528E-03 3.62210E-35-3.87270E-05-7.26420E-19-7.62345E-22
 -1        43 9.43419E-04-1.97394E-03 6.62131E-36-1.30539E-05-5.62934E-19 5.47709E-21
 -1        44 7.59008E-04-1.54479E-03 5.38956E-36-5.49640E-06 5.48537E-19-4.86554E-21
 -1        45 6.32004E-04-1.24956E-03 6.62264E-36-2.71158E-06-2.27210E-18-1.03368E-21
 -1        46 5.40302E-04-1.03691E-03 7.13412E-36-1.42955E-06-1.70164E-19 5.52506E-22
 -1        47 4.71955E-04-8.78253E-04 5.47590E-36-8.38834E-07-3.17617E-19 5.49743E-21
 -1        48 4.19638E-04-7.56736E-04 3.30280E-36-5.20771E-07 2.67132E-19 3.54967E-21
 -1        49 3.78850E-04-6.61933E-04 1.58720E-36-3.44778E-07-9.92793E-20 1.06819E-21
 -1        50 3.46679E-04-5.87129E-04 2.07184E-36-2.40044E-07-1.95410E-19-1.03691E-21
 -1        51 3.21209E-04-5.27890E-04 3.72178E-37-1.75792E-07-3.05961E-20 6.14283E-22
 -1        52 3.01170E-04-4.81280E-04 2.47046E-36-1.36233E-07-1.27147E-19-6.38804E-22
 -1        53 2.85744E-04-4.45424E-04 1.12440E-36-1.10329E-07-3.44255E-19-5.05207E-22
 -1        54 2.74462E-04-4.19319E-04 2.92314E-36-1.06891E-07-2.70639E-19-7.89956E-22
 -1        55 2.66953E-04-4.02318E-04-4.90966E-37-6.58498E-08 2.76052E-19 2.12781E-22
 -1        56 4.65827E-05-3.00573E-03 4.47231E-35-3.26574E-03-1.55655E-20-1.28190E-20
 -1        57 8.84857E-04-2.91289E-03-2.72560E-36-1.67359E-03-4.65258E-19-9.99216E-21
 -1        58 9.33142E-04-2.31460E-03 4.29603E-36-8.65921E-04 5.98604E-19-2.66687E-20
 -1        59 8.28803E-04-1.83982E-03-4.49259E-37-4.78782E-04 2.31871E-19-1.68933E-20
 -1        60 7.08466E-04-1.48309E-03 1.24625E-35-2.80741E-04 2.41850E-20-2.71928E-20
 -1        61 6.08129E-04-1.21973E-03 3.83899E-36-1.71876E-04 4.51255E-19-7.55343E-21
 -1        62 5.28438E-04-1.02180E-03 3.27245E-36-1.08723E-04 7.38655E-19-9.59495E-21
 -1        63 4.65855E-04-8.70369E-04 3.19452E-37-7.02065E-05-1.68916E-19-1.11976E-20
 -1        64 4.16435E-04-7.52547E-04 2.11652E-36-4.58114E-05-6.38727E-20-8.67384E-21
 -1        65 3.77155E-04-6.59694E-04-6.68400E-37-2.98902E-05-3.21362E-19-3.42691E-21
 -1        66 3.45788E-04-5.85940E-04 5.71350E-38-1.92689E-05-5.99289E-19-3.15124E-21
 -1        67 3.20750E-04-5.27273E-04 1.80147E-36-1.20789E-05-8.56621E-20-7.63678E-22
 -1        68 3.00944E-04-4.80975E-04 2.55143E-36-7.18339E-06-4.62982E-19 1.98297E-21
 -1        69 2.85642E-04-4.45287E-04 1.24648E-36-3.87564E-06-7.25767E-20 1.02319E-21
 -1        70 2.74424E-04-4.19269E-04 1.14001E-36-1.71945E-06 2.01449E-20-1.16810E-21
 -1        71 2.66948E-04-4.02313E-04 1.39525E-36-4.80282E-07-3.78761E-19-4.96657E-22
 -1        72-1.33024E-03 8.44050E-05 2.33054E-35-1.38873E-03-6.42610E-20 5.68882E-21
 -1        73-3.03040E-04-1.13468E-03 1.45030E-35-1.75604E-03-9.26207E-19-9.87883E-21
 -1        74 3.22949E-04-1.50593E-03 1.09227E-35-1.25991E-03-8.38378E-19 2.65284E-20
 -1        75 5.26267E-04-1.45816E-03 1.50682E-36-8.13373E-04 2.84147E-19 2.58587E-20
 -1        76 5.61963E-04-1.29812E-03 1.39240E-35-5.17645E-04 5.43310E-19 8.68684E-20
 -1        77 5.34611E-04-1.12643E-03-1.02046E-36-3.32481E-04-4.85656E-19 1.23414E-20
 -1        78 4.90721E-04-9.73386E-04 1.58744E-36-2.16282E-04-2.02787E-19-2.22206E-20
 -1        79 4.46036E-04-8.44685E-04 6.42485E-36-1.42086E-04 2.87243E-19-7.56206E-20
 -1        80 4.05899E-04-7.38756E-04 3.66795E-36-9.37188E-05-2.90914E-19 1.15477E-20
 -1        81 3.71534E-04-6.52269E-04 1.49875E-36-6.15743E-05 5.44261E-19 2.53357E-21
 -1        82 3.42815E-04-5.81979E-04 2.00946E-36-3.98746E-05-2.85922E-19-2.90268E-21
 -1        83 3.19214E-04-5.25212E-04 3.43959E-36-2.50704E-05 1.09878E-20 1.12445E-20
 -1        84 3.00185E-04-4.79953E-04 9.81854E-37-1.49381E-05-1.17607E-19 5.66270E-21
 -1        85 2.85299E-04-4.44827E-04 2.91881E-36-8.06861E-06-2.93295E-20-7.77150E-22
 -1        86 2.74295E-04-4.19104E-04 1.94732E-36-3.58029E-06 1.81116E-20-2.61635E-21
 -1        87 2.66931E-04-4.02295E-04 9.59029E-37-9.97996E-07-2.83059E-19 5.66742E-22
 -1        88-6.56060E-04 2.26848E-04 5.70126E-38-3.85648E-04-1.08223E-18-5.57271E-20
 -1        89-6.26981E-04-1.52160E-04 7.78350E-37-1.00030E-03-9.98649E-19 7.98475E-21
 -1        90-1.62656E-04-6.98167E-04 2.00187E-36-1.09731E-03-1.19086E-19 2.19918E-20
 -1        91 1.83907E-04-9.65113E-04 3.02509E-36-8.99016E-04-5.98522E-19-1.66643E-20
 -1        92 3.56059E-04-1.01998E-03 2.45014E-36-6.54836E-04-2.50183E-19 3.53815E-20
 -1        93 4.18756E-04-9.73437E-04 1.11676E-35-4.55746E-04-7.45159E-19 2.08706E-20
 -1        94 4.26680E-04-8.89434E-04 3.50905E-36-3.11441E-04 1.01235E-19-2.18753E-20
 -1        95 4.10876E-04-7.98553E-04 7.18931E-36-2.11056E-04-3.04685E-20-3.09880E-20
 -1        96 3.86651E-04-7.13395E-04 1.37611E-36-1.42016E-04-7.31371E-19 1.54646E-21
 -1        97 3.61073E-04-6.38402E-04 2.70383E-36-9.45301E-05 3.19153E-19-1.92983E-20
 -1        98 3.37212E-04-5.74503E-04 5.99129E-36-6.17460E-05-1.34146E-19 4.37034E-20
 -1        99 3.16295E-04-5.21292E-04 1.01838E-36-3.90445E-05 3.69746E-19 4.51047E-20
 -1       100 2.98736E-04-4.78001E-04 3.29033E-36-2.33525E-05 3.17575E-19 1.07604E-20
 -1       101 2.84641E-04-4.43946E-04 1.46138E-36-1.26437E-05-6.91407E-20-1.50159E-20
 -1       102 2.74049E-04-4.18785E-04 1.59143E-36-5.61654E-06-1.98525E-19-6.01414E-21
 -1       103 2.66898E-04-4.02261E-04 5.67278E-37-1.56225E-06-1.26562E-19 4.53251E-21
 -1       104-3.63343E-04 1.40373E-04-1.29212E-36-1.69388E-04-4.91013E-19-2.40400E-20
 -1       105-4.85601E-04 4.48414E-05 4.18582E-36-5.26854E-04-3.50435E-19 2.22938E-21
 -1       106-3.26383E-04-2.47694E-04 3.09573E-36-7.70447E-04 1.61737E-20 4.10378E-20
 -1       107-5.74073E-05-5.44337E-04 1.84318E-36-7.89469E-04-3.60078E-19-1.17436E-20
 -1       108 1.56983E-04-7.20751E-04 6.67403E-36-6.73200E-04 1.93417E-20-1.84917E-20
 -1       109 2.83872E-04-7.83644E-04 5.92133E-36-5.20108E-04-2.84114E-19 1.40629E-20
 -1       110 3.43186E-04-7.75596E-04 3.46449E-36-3.80658E-04-4.81442E-19 1.80400E-20
 -1       111 3.61555E-04-7.32240E-04 2.48484E-36-2.69891E-04 3.49435E-19-6.30208E-21
 -1       112 3.58341E-04-6.75508E-04 2.71174E-36-1.87136E-04-2.26034E-19 5.45081E-21
 -1       113 3.45191E-04-6.17138E-04 2.55495E-36-1.27086E-04 2.70089E-19 1.26612E-20
 -1       114 3.28525E-04-5.62834E-04 3.10077E-36-8.41373E-05 6.27383E-19-6.97922E-21
 -1       115 3.11704E-04-5.15100E-04 2.20255E-36-5.36879E-05-1.99553E-19 1.97280E-20
 -1       116 2.96435E-04-4.74890E-04 9.32013E-37-3.23057E-05-1.06817E-19-5.80200E-21
 -1       117 2.83589E-04-4.42533E-04 1.48801E-36-1.75597E-05 2.78592E-20-5.96876E-21
 -1       118 2.73653E-04-4.18270E-04 1.08938E-36-7.81695E-06-8.59443E-20 5.71209E-21
 -1       119 2.66844E-04-4.02205E-04 9.23734E-37-2.16878E-06 3.50922E-19 6.80303E-21
 -1       120-2.19300E-04 8.63921E-05 1.58411E-36-9.65619E-05 3.48465E-19 4.20077E-20
 -1       121-3.40137E-04 7.38016E-05-4.87220E-37-2.98901E-04-7.09023E-20-4.93072E-21
 -1       122-3.12368E-04-6.64239E-05 6.35736E-36-5.04027E-04 1.55520E-19 2.04309E-20
 -1       123-1.66270E-04-2.75808E-04 3.82784E-37-6.12616E-04 3.67579E-19-6.67903E-20
 -1       124 1.24521E-05-4.67065E-04 7.49684E-36-6.05206E-04 2.86207E-20 3.82964E-20
 -1       125 1.58255E-04-5.90271E-04 2.84053E-37-5.23490E-04-2.64306E-19 1.72953E-20
 -1       126 2.52359E-04-6.44519E-04 4.03492E-37-4.15829E-04-2.03940E-19-2.20728E-20
 -1       127 3.02157E-04-6.49352E-04 6.06274E-36-3.12311E-04 4.11272E-19-7.76010E-20
 -1       128 3.21839E-04-6.25431E-04 6.44999E-36-2.25388E-04-7.36727E-19-7.36048E-21
 -1       129 3.23747E-04-5.87936E-04 1.97644E-36-1.57350E-04-6.08920E-19-4.80121E-20
 -1       130 3.16418E-04-5.46379E-04 2.02622E-36-1.06170E-04 3.64825E-19 9.77382E-21
 -1       131 3.05164E-04-5.06205E-04-3.61358E-37-6.86328E-05-2.78430E-19 2.52405E-20
 -1       132 2.93107E-04-4.70365E-04 1.66299E-36-4.16628E-05 3.37772E-20-4.50010E-21
 -1       133 2.82052E-04-4.40457E-04 6.67673E-37-2.27761E-05-1.26910E-19-1.04272E-20
 -1       134 2.73071E-04-4.17509E-04 1.51713E-36-1.01719E-05 1.47148E-19 7.91812E-21
 -1       135 2.66761E-04-4.02117E-04 1.43285E-36-2.81251E-06-4.04351E-20-1.38280E-21
 -1       136-1.39670E-04 5.31014E-05 5.64278E-36-6.23825E-05 3.25708E-20 8.13196E-21
 -1       137-2.34529E-04 5.98231E-05 9.44688E-37-1.86310E-04 2.36446E-19 1.45518E-20
 -1       138-2.53192E-04-4.04050E-06 1.34025E-36-3.33267E-04 2.12308E-20 2.04142E-20
 -1       139-1.87361E-04-1.32842E-04 6.30464E-36-4.50331E-04 4.70847E-19 3.88601E-20
 -1       140-6.72907E-05-2.87175E-04 9.91808E-36-5.00256E-04 4.80026E-19 4.46884E-20
 -1       141 6.18793E-05-4.22092E-04 4.49022E-36-4.81166E-04 3.44487E-19-2.80427E-20
 -1       142 1.67641E-04-5.12566E-04 6.06602E-36-4.16717E-04 2.33107E-19 1.88384E-20
 -1       143 2.39057E-04-5.56774E-04 5.70357E-36-3.34381E-04-5.22209E-19 1.26790E-20
 -1       144 2.79438E-04-5.65240E-04 2.74298E-36-2.53375E-04 1.57018E-20 2.38950E-20
 -1       145 2.97240E-04-5.50971E-04 2.07407E-36-1.83213E-04-2.94251E-19-2.48873E-20
 -1       146 3.00790E-04-5.24777E-04 1.95376E-36-1.26740E-04 1.89940E-19 1.14134E-19
 -1       147 2.96463E-04-4.94224E-04 3.84621E-37-8.33703E-05 2.47860E-19 2.52497E-20
 -1       148 2.88585E-04-4.64156E-04 4.73815E-37-5.12189E-05 2.43652E-20 5.48933E-20
 -1       149 2.79932E-04-4.37573E-04 1.38232E-36-2.82232E-05-1.65666E-19-1.70204E-20
 -1       150 2.72258E-04-4.16440E-04 1.12171E-36-1.26619E-05 7.63147E-21 1.57725E-20
 -1       151 2.66640E-04-4.01986E-04 1.50910E-36-3.48515E-06-2.65738E-19-4.51774E-21
 -1       152-9.22823E-05 3.35108E-05 4.48879E-36-4.45868E-05-8.98376E-20-5.51773E-21
 -1       153-1.62183E-04 4.24327E-05 2.97008E-36-1.25381E-04 1.33399E-19-9.57225E-21
 -1       154-1.92312E-04 1.20764E-05 1.23854E-36-2.27973E-04-6.40893E-19 1.86191E-20
 -1       155-1.69182E-04-6.41233E-05 3.05576E-36-3.27102E-04-5.91096E-19 2.27449E-20
 -1       156-9.76674E-05-1.74488E-04 4.16870E-36-3.94902E-04-1.13286E-19-1.94833E-20
 -1       157 5.15121E-07-2.93129E-04 4.13064E-37-4.15202E-04 2.97532E-20-5.85052E-20
 -1       158 9.89966E-05-3.94162E-04 1.32940E-36-3.90421E-04 1.28088E-20 8.22353E-20
 -1       159 1.79243E-04-4.63147E-04 2.35057E-36-3.35779E-04-6.86268E-19 3.35752E-20
 -1       160 2.34574E-04-4.98691E-04 8.41467E-38-2.68818E-04-1.06245E-19-4.29613E-20
 -1       161 2.66906E-04-5.07343E-04 2.34876E-36-2.02679E-04-1.90451E-19-3.97539E-21
 -1       162 2.81877E-04-4.98043E-04 1.75673E-36-1.44599E-04-2.33747E-19-1.76891E-20
 -1       163 2.85504E-04-4.78882E-04 1.84131E-36-9.72553E-05-8.34079E-20-8.94992E-20
 -1       164 2.82726E-04-4.56009E-04 1.67904E-36-6.06889E-05 3.50472E-19-1.98119E-20
 -1       165 2.77130E-04-4.33719E-04 1.34572E-36-3.37945E-05-5.14266E-20 3.28351E-20
 -1       166 2.71169E-04-4.14989E-04 1.27524E-36-1.52545E-05 1.67739E-19 1.95134E-20
 -1       167 2.66469E-04-4.01796E-04 8.33549E-37-4.17427E-06-2.27435E-20 5.04785E-21
 -1       168-6.25809E-05 2.11406E-05 1.90593E-36-3.38039E-05 4.27152E-19 2.69741E-20
 -1       169-1.13011E-04 2.79337E-05 1.36468E-36-8.97948E-05 4.69750E-20-2.27275E-21
 -1       170-1.41919E-04 1.20070E-05 2.16132E-36-1.62370E-04 2.99218E-19 2.62713E-20
 -1       171-1.38425E-04-3.39527E-05 2.49711E-36-2.39902E-04-5.22589E-21 1.99754E-20
 -1       172-9.90781E-05-1.09351E-04 1.81308E-36-3.05730E-04 4.26385E-19 1.00954E-19
 -1       173-3.09753E-05-2.03138E-04 9.81137E-37-3.44128E-04 1.15659E-20-5.19782E-20
 -1       174 5.04245E-05-2.97662E-04 1.36323E-36-3.47646E-04-1.89411E-20 2.98482E-20
 -1       175 1.28315E-04-3.76505E-04 3.11922E-36-3.19729E-04-6.97380E-19-7.88857E-20
 -1       176 1.91110E-04-4.30583E-04 3.38053E-36-2.71185E-04 1.73489E-19-7.18206E-20
 -1       177 2.34620E-04-4.59089E-04 5.43873E-36-2.14262E-04 4.35955E-19 5.02618E-20
 -1       178 2.60308E-04-4.66695E-04 1.80709E-36-1.58509E-04 2.20059E-19 4.81851E-20
 -1       179 2.72362E-04-4.60096E-04 1.46602E-36-1.09540E-04-7.23240E-20 2.27192E-21
 -1       180 2.75441E-04-4.45710E-04-7.06181E-37-6.97055E-05-3.51733E-20 8.83703E-21
 -1       181 2.73553E-04-4.28731E-04 8.06639E-37-3.93408E-05-1.39314E-19 6.97994E-21
 -1       182 2.69750E-04-4.13075E-04 6.96006E-37-1.79010E-05 9.97718E-20-3.15780E-20
 -1       183 2.66230E-04-4.01521E-04 8.28765E-37-4.86299E-06-1.09600E-19 1.03706E-20
 -1       184-4.31579E-05 1.30866E-05 2.36072E-36-2.67179E-05-3.02109E-19 1.68418E-20
 -1       185-7.91339E-05 1.70349E-05 1.55496E-36-6.74273E-05-6.79845E-20-7.69954E-21
 -1       186-1.02989E-04 7.13786E-06 1.35638E-36-1.20054E-04-3.31649E-20-1.44145E-20
 -1       187-1.07161E-04-2.22230E-05 2.40771E-36-1.79290E-04-5.26887E-19-1.90494E-20
 -1       188-8.66497E-05-7.37621E-05 1.23643E-36-2.35991E-04-6.81495E-20-2.07432E-20
 -1       189-4.17585E-05-1.44403E-04 7.36913E-37-2.78856E-04 1.23259E-19-3.91042E-20
 -1       190 2.06556E-05-2.24817E-04 2.52551E-36-2.98538E-04 1.07701E-19 6.71945E-20
 -1       191 8.92140E-05-3.02311E-04 5.30461E-37-2.91638E-04 7.75376E-20-9.29643E-20
 -1       192 1.52424E-04-3.65693E-04 2.07269E-36-2.61801E-04-3.36518E-19-2.53441E-20
 -1       193 2.02584E-04-4.08938E-04-4.98341E-37-2.17335E-04-2.27855E-19 2.62301E-20
 -1       194 2.37088E-04-4.31801E-04 2.17560E-36-1.67442E-04-1.16364E-19-1.98690E-19
 -1       195 2.57324E-04-4.38055E-04 2.55065E-36-1.19442E-04 5.06638E-20 4.79337E-20
 -1       196 2.66721E-04-4.33139E-04 2.45262E-36-7.78283E-05-1.14780E-19-3.82730E-20
 -1       197 2.69130E-04-4.22459E-04 1.70976E-36-4.46656E-05 1.40490E-19 4.23731E-20
 -1       198 2.67953E-04-4.10606E-04 1.91348E-36-2.05328E-05 9.51653E-20-3.24357E-20
 -1       199 2.65904E-04-4.01132E-04 2.31698E-36-5.53004E-06 5.90898E-19 7.65975E-22
 -1       200-3.00103E-05 7.63439E-06 9.41194E-37-2.16825E-05-1.54292E-19 3.80021E-21
 -1       201-5.54175E-05 9.02737E-06 2.13729E-36-5.24429E-05 1.43316E-19 1.40530E-21
 -1       202-7.36690E-05 1.49075E-06 8.94277E-37-9.16355E-05-6.34382E-20-3.01200E-20
 -1       203-7.97711E-05-1.88771E-05 7.47823E-37-1.36847E-04-1.34075E-20 4.29581E-20
 -1       204-6.93454E-05-5.51875E-05 3.35729E-37-1.83255E-04-2.62834E-19-2.97109E-20
 -1       205-4.02787E-05-1.07798E-04 1.91284E-36-2.23681E-04 2.21403E-19-1.76411E-19
 -1       206 5.59904E-06-1.72925E-04 2.85547E-37-2.50273E-04 3.49826E-21 5.65113E-22
 -1       207 6.21636E-05-2.42769E-04 3.65686E-37-2.57267E-04 3.09572E-20-9.18947E-20
 -1       208 1.20696E-04-3.07752E-04 2.19423E-36-2.43384E-04-9.88448E-21-1.13223E-19
 -1       209 1.72903E-04-3.59825E-04 2.44424E-36-2.12278E-04 5.84198E-20-2.01701E-19
 -1       210 2.13474E-04-3.94905E-04 2.11740E-36-1.70776E-04 1.91770E-19 5.89823E-20
 -1       211 2.40900E-04-4.13273E-04 1.64370E-36-1.26238E-04-1.09873E-20 4.77931E-20
 -1       212 2.56669E-04-4.18313E-04 2.12472E-36-8.45686E-05-8.19970E-20-8.37135E-20
 -1       213 2.63824E-04-4.14785E-04 1.23254E-36-4.95249E-05 6.68398E-20 8.13459E-20
 -1       214 2.65731E-04-4.07492E-04 1.18804E-36-2.30594E-05-6.81321E-20-2.89016E-20
 -1       215 2.65465E-04-4.00588E-04 6.07667E-37-6.15065E-06-8.68871E-20-2.26966E-20
 -1       216-2.08518E-05 3.83599E-06 9.45807E-37-1.79073E-05-3.71021E-20 4.87878E-21
 -1       217-3.85245E-05 3.15543E-06 1.05564E-37-4.18244E-05 2.91696E-19-2.19380E-20
 -1       218-5.17429E-05-3.61657E-06 8.05661E-37-7.17231E-05-7.97230E-20 2.20984E-20
 -1       219-5.72557E-05-1.91099E-05 1.06756E-36-1.06512E-04-4.19579E-19-1.06754E-20
 -1       220-5.17356E-05-4.59708E-05 1.34040E-36-1.43694E-04 1.40206E-19-9.17560E-21
 -1       221-3.26290E-05-8.56935E-05 6.01290E-37-1.78977E-04-8.55707E-21 1.42025E-20
 -1       222 6.05739E-07-1.37471E-04 2.68394E-36-2.06723E-04 3.22223E-19 1.06077E-19
 -1       223 4.55122E-05-1.97399E-04 1.84927E-36-2.21333E-04 2.32113E-20 1.76611E-21
 -1       224 9.66793E-05-2.58862E-04 2.78761E-36-2.19220E-04-3.20772E-20-3.50678E-20
 -1       225 1.47174E-04-3.14332E-04 2.15915E-36-2.00363E-04-1.66705E-19-2.74448E-20
 -1       226 1.90777E-04-3.57815E-04 7.33423E-37-1.68431E-04-2.81581E-19-2.19398E-20
 -1       227 2.23781E-04-3.86587E-04 1.83079E-36-1.29376E-04 1.31619E-19 1.07128E-20
 -1       228 2.45514E-04-4.01435E-04 1.54707E-36-8.94306E-05 9.70849E-20-1.02881E-20
 -1       229 2.57650E-04-4.05657E-04 9.58749E-37-5.36322E-05-7.43130E-20 2.86559E-21
 -1       230 2.63052E-04-4.03650E-04 1.41812E-36-2.53654E-05-2.27655E-19 6.77730E-22
 -1       231 2.64885E-04-3.99842E-04 9.90066E-37-6.69811E-06-1.04343E-19 6.30514E-21
 -1       232-1.43196E-05 1.11893E-06 8.88387E-37-1.49449E-05-6.79785E-20 7.85412E-21
 -1       233-2.62983E-05-1.18021E-06 5.86156E-37-3.39233E-05 6.17143E-20 1.38227E-20
 -1       234-3.53343E-05-7.86606E-06-3.42082E-38-5.71805E-05-1.47719E-19 1.56249E-20
 -1       235-3.93051E-05-2.07036E-05 4.41541E-37-8.42341E-05-2.90122E-19 1.20733E-20
 -1       236-3.58195E-05-4.17440E-05 1.15590E-36-1.13801E-04 3.05972E-20 3.50260E-20
 -1       237-2.26102E-05-7.26427E-05-5.30682E-38-1.43391E-04-8.78745E-21 1.04740E-19
 -1       238 1.71793E-06-1.13928E-04 1.86338E-36-1.69266E-04-2.20348E-19 2.50841E-20
 -1       239 3.68006E-05-1.64166E-04 1.70601E-36-1.86945E-04 2.12354E-19 8.31261E-20
 -1       240 7.99242E-05-2.19525E-04 1.77416E-36-1.92371E-04 1.06761E-19 2.06237E-19
 -1       241 1.26263E-04-2.74273E-04 1.31624E-36-1.83400E-04-1.60017E-19 1.13125E-21
 -1       242 1.70133E-04-3.22306E-04 2.82600E-36-1.60877E-04-1.04447E-19-4.31835E-20
 -1       243 2.06757E-04-3.59078E-04 1.55702E-36-1.28570E-04-2.73032E-20 2.85471E-20
 -1       244 2.33606E-04-3.82918E-04 1.28354E-36-9.19659E-05 2.46979E-20 7.28295E-20
 -1       245 2.50690E-04-3.95120E-04 1.61112E-36-5.66713E-05-2.58877E-20 3.59642E-20
 -1       246 2.59907E-04-3.99023E-04 1.19031E-36-2.73091E-05-1.25234E-19 3.11138E-20
 -1       247 2.64141E-04-3.98843E-04 4.82310E-37-7.14575E-06 1.64641E-19 5.27151E-21
 -1       248-9.56736E-06-8.68981E-07 7.83627E-37-1.25332E-05-1.88023E-19-5.49496E-20
 -1       249-1.73226E-05-4.41386E-06 1.01999E-36-2.77864E-05 2.30478E-19-7.96038E-20
 -1       250-2.30051E-05-1.12807E-05-1.17119E-37-4.61297E-05 7.21261E-20-3.40291E-20
 -1       251-2.52113E-05-2.26643E-05 1.19676E-36-6.73646E-05 6.51317E-20-1.66364E-19
 -1       252-2.22583E-05-4.01061E-05 1.03139E-36-9.08323E-05 9.52222E-20-1.26931E-19
 -1       253-1.23425E-05-6.50791E-05 1.52715E-36-1.15107E-04 2.18154E-19 7.39475E-20
 -1       254 6.05585E-06-9.85787E-05 4.44836E-37-1.37814E-04 4.48879E-20-9.97843E-20
 -1       255 3.35619E-05-1.40507E-04 7.19388E-37-1.55705E-04 8.10903E-20-1.57476E-19
 -1       256 6.92506E-05-1.89065E-04 2.13741E-36-1.65182E-04 2.86250E-20 1.24445E-20
 -1       257 1.10299E-04-2.40536E-04 1.49844E-36-1.63309E-04 5.38943E-20-2.01049E-19
 -1       258 1.52338E-04-2.89847E-04 1.83157E-36-1.49015E-04 5.51240E-21-5.07391E-20
 -1       259 1.90601E-04-3.31939E-04 8.42249E-37-1.23855E-04-7.06018E-20-4.04112E-21
 -1       260 2.21388E-04-3.63372E-04 1.47661E-36-9.18338E-05-1.20826E-19 4.80405E-20
 -1       261 2.43098E-04-3.83347E-04 1.29880E-36-5.83166E-05 4.51453E-20-1.10373E-20
 -1       262 2.56317E-04-3.93598E-04 1.56168E-36-2.87222E-05 1.01887E-19-3.67896E-20
 -1       263 2.63216E-04-3.97548E-04 8.62263E-37-7.46814E-06 3.98647E-20-2.11794E-20
 -1       264-6.05296E-06-2.35354E-06 8.29630E-37-1.05049E-05 6.79533E-21-2.78118E-20
 -1       265-1.06535E-05-6.85231E-06 1.86778E-37-2.28335E-05-8.36966E-20-1.14759E-19
 -1       266-1.36964E-05-1.39837E-05 6.38572E-37-3.74097E-05 1.35356E-20 7.27263E-20
 -1       267-1.42332E-05-2.45702E-05 7.06706E-37-5.41705E-05 1.16955E-19 7.15891E-20
 -1       268-1.10834E-05-3.97652E-05 1.08310E-36-7.27761E-05 2.84528E-20 1.12009E-19
 -1       269-2.87857E-06-6.07820E-05 1.89253E-36-9.24122E-05 6.74799E-20-4.89754E-20
 -1       270 1.17370E-05-8.86829E-05 4.12459E-37-1.11603E-04 3.77169E-20 9.52301E-21
 -1       271 3.37387E-05-1.23989E-04 5.86242E-37-1.28121E-04 1.93177E-19 3.00184E-20
 -1       272 6.32112E-05-1.66170E-04 7.94481E-37-1.39139E-04-7.89479E-21 9.00404E-20
 -1       273 9.88486E-05-2.13186E-04 7.89907E-37-1.41765E-04 1.49225E-19 4.64021E-20
 -1       274 1.37770E-04-2.61421E-04 1.84912E-36-1.33963E-04-3.61837E-20-9.57829E-20
 -1       275 1.75960E-04-3.06298E-04 1.22836E-36-1.15566E-04 8.99446E-21 1.09900E-19
 -1       276 2.09351E-04-3.43559E-04 5.49737E-37-8.88514E-05 3.45969E-20-3.42922E-20
 -1       277 2.35098E-04-3.70650E-04 1.83335E-36-5.82629E-05-1.03007E-19-1.32108E-19
 -1       278 2.52341E-04-3.87429E-04 1.20099E-36-2.94128E-05 8.69224E-21-1.25140E-21
 -1       279 2.62111E-04-3.95932E-04 1.65794E-36-7.64000E-06 1.45762E-19-4.68826E-21
 -1       280-3.41959E-06-3.48301E-06 4.51259E-37-8.74723E-06 1.94605E-20-3.19511E-20
 -1       281-5.65165E-06-8.71124E-06 5.41997E-37-1.86926E-05-1.17105E-20-1.91904E-20
 -1       282-6.64089E-06-1.61106E-05 5.13225E-37-3.02762E-05 3.02762E-20-2.11455E-19
 -1       283-5.72505E-06-2.62619E-05 2.64473E-37-4.35016E-05-3.67091E-20 5.07004E-20
 -1       284-2.07009E-06-4.00368E-05 9.45977E-37-5.81919E-05-2.40840E-20-7.58490E-20
 -1       285 5.34426E-06-5.84080E-05 5.76902E-37-7.38797E-05-9.62953E-20 1.12477E-20
 -1       286 1.76324E-05-8.23485E-05 5.63754E-37-8.96567E-05-1.03872E-19 1.44564E-20
 -1       287 3.58021E-05-1.12607E-04-1.39297E-37-1.04045E-04-2.68039E-20 9.03287E-20
 -1       288 6.04168E-05-1.49350E-04 7.22723E-37-1.14976E-04-4.38771E-20 1.47155E-19
 -1       289 9.11554E-05-1.91718E-04 3.50309E-37-1.19995E-04-7.15238E-20 9.21577E-20
 -1       290 1.26422E-04-2.37483E-04 9.37645E-37-1.16829E-04 1.95281E-19-9.02652E-20
 -1       291 1.63280E-04-2.83085E-04 8.62010E-37-1.04256E-04-7.14410E-20-1.58155E-20
 -1       292 1.97973E-04-3.24305E-04 9.77906E-37-8.30174E-05-5.59157E-20-1.16997E-19
 -1       293 2.26972E-04-3.57484E-04 2.24238E-36-5.62591E-05 2.32177E-20 1.16671E-20
 -1       294 2.48081E-04-3.80659E-04 1.29397E-36-2.91736E-05-6.34784E-21 3.37927E-20
 -1       295 2.60858E-04-3.94008E-04 8.38204E-37-7.63093E-06 2.72623E-20 1.15031E-21
 -1       296-1.42793E-06-4.35682E-06 1.36231E-37-7.17828E-06-1.27692E-20 4.45728E-20
 -1       297-1.87897E-06-1.01422E-05 4.71402E-37-1.51117E-05-5.51255E-21 1.44701E-19
 -1       298-1.28747E-06-1.77802E-05 1.68149E-37-2.42313E-05-2.47890E-20-2.70599E-20
 -1       299 8.32605E-07-2.76970E-05 6.51636E-37-3.45751E-05-3.84239E-21 5.36636E-20
 -1       300 5.07899E-06-4.05634E-05 4.23618E-37-4.60493E-05-6.44669E-20 2.81737E-20
 -1       301 1.22125E-05-5.71574E-05 3.23123E-37-5.83829E-05-3.30318E-20 3.58040E-20
 -1       302 2.31180E-05-7.83213E-05 4.40570E-37-7.10189E-05-9.98414E-21 1.74373E-20
 -1       303 3.87045E-05-1.04840E-04 6.51447E-37-8.29975E-05-1.38857E-19-1.31010E-20
 -1       304 5.97043E-05-1.37216E-04 6.49567E-37-9.28722E-05-6.70322E-21-1.57798E-20
 -1       305 8.63537E-05-1.75331E-04 9.30736E-37-9.87433E-05 5.74817E-20 4.70327E-20
 -1       306 1.17999E-04-2.18047E-04 9.53309E-37-9.85271E-05 7.07656E-20 5.34975E-20
 -1       307 1.52782E-04-2.62939E-04 1.18269E-36-9.05620E-05 6.03466E-20 7.60437E-20
 -1       308 1.87672E-04-3.06411E-04 9.44102E-37-7.44958E-05-5.36523E-21 1.03118E-19
 -1       309 2.19040E-04-3.44413E-04 1.05346E-36-5.21397E-05 1.05506E-20-8.18783E-20
 -1       310 2.43680E-04-3.73528E-04 1.50734E-36-2.77985E-05 1.02127E-19 2.97061E-20
 -1       311 2.59522E-04-3.91844E-04 7.16286E-37-7.39603E-06 3.83965E-19-7.11243E-21
 -1       312 8.33308E-08-5.04185E-06 2.08620E-37-5.73373E-06-3.20840E-21 2.59142E-20
 -1       313 9.65489E-07-1.12510E-05 3.65188E-37-1.19084E-05 7.48875E-21 3.31265E-20
 -1       314 2.75561E-06-1.90868E-05 4.17899E-37-1.89245E-05-2.75687E-20-4.85346E-20
 -1       315 5.83726E-06-2.88804E-05 5.27386E-37-2.68373E-05 2.42303E-20-1.70360E-20
 -1       316 1.06479E-05-4.11606E-05 4.38963E-37-3.55964E-05-6.63517E-20 2.08227E-20
 -1       317 1.77623E-05-5.65583E-05 5.40428E-37-4.50431E-05 4.74852E-20 7.30290E-21
 -1       318 2.78778E-05-7.57899E-05 3.04201E-37-5.48369E-05 4.63607E-20-1.32467E-19
 -1       319 4.17695E-05-9.95982E-05 6.36584E-37-6.43651E-05 9.77027E-20 6.20829E-20
 -1       320 6.01816E-05-1.28620E-04 7.13224E-37-7.26540E-05 5.40663E-20-2.06492E-20
 -1       321 8.36216E-05-1.63156E-04 3.04909E-37-7.83255E-05-2.78318E-20-4.58123E-20
 -1       322 1.12045E-04-2.02829E-04 9.61525E-37-7.96880E-05 1.37277E-19-3.81628E-20
 -1       323 1.44484E-04-2.46210E-04 1.36667E-36-7.50809E-05 8.95609E-20-6.73145E-20
 -1       324 1.78775E-04-2.90579E-04 1.06728E-36-6.35613E-05 6.75286E-20 3.06361E-20
 -1       325 2.11648E-04-3.32081E-04 1.45140E-36-4.58429E-05 1.29516E-20-1.73641E-20
 -1       326 2.39323E-04-3.66381E-04 1.01017E-36-2.51100E-05-6.55584E-21-1.66532E-20
 -1       327 2.58199E-04-3.89569E-04 2.21742E-36-6.86588E-06-5.19214E-19-2.51460E-20
 -1       328 1.22270E-06-5.58267E-06 1.02367E-37-4.35845E-06 1.75716E-20-5.49693E-20
 -1       329 3.08512E-06-1.21096E-05 2.33231E-37-8.93881E-06-7.71293E-21 1.54432E-19
 -1       330 5.75932E-06-2.01000E-05 4.14637E-37-1.40907E-05-3.68651E-20-1.06846E-19
 -1       331 9.57728E-06-2.98318E-05 4.91539E-37-1.98736E-05-6.36551E-21 3.08372E-20
 -1       332 1.48686E-05-4.17345E-05 3.25467E-37-2.62616E-05 3.64000E-20-1.27252E-20
 -1       333 2.20787E-05-5.63324E-05 3.51400E-37-3.31617E-05-2.79131E-20 2.47391E-19
 -1       334 3.17636E-05-7.42391E-05 7.81200E-37-4.03686E-05-2.62503E-21 1.63350E-19
 -1       335 4.45741E-05-9.61325E-05 2.84952E-37-4.75015E-05 6.53623E-21 8.93421E-20
 -1       336 6.12021E-05-1.22683E-04 1.85942E-37-5.39322E-05 1.51360E-20-1.18929E-19
 -1       337 8.22590E-05-1.54407E-04 4.44942E-37-5.87231E-05 2.25592E-20 7.05258E-20
 -1       338 1.08054E-04-1.91408E-04 4.59579E-37-6.06298E-05 4.81094E-20 4.63023E-20
 -1       339 1.38257E-04-2.33017E-04 9.31560E-37-5.82604E-05 2.47305E-20-1.27721E-20
 -1       340 1.71514E-04-2.77378E-04 8.70071E-37-5.05202E-05-4.46577E-21-1.02210E-21
 -1       341 2.05152E-04-3.21166E-04 9.74727E-37-3.74064E-05 8.76384E-20-1.64181E-19
 -1       342 2.35248E-04-3.59670E-04 1.31241E-36-2.09916E-05-1.18620E-19-7.02261E-21
 -1       343 2.57005E-04-3.87372E-04 2.88061E-37-5.94491E-06 1.70792E-19-1.73525E-20
 -1       344 2.05157E-06-6.00636E-06 3.22798E-37-3.00082E-06-2.02835E-21-3.63413E-19
 -1       345 4.60802E-06-1.27634E-05 1.79937E-37-6.07725E-06 2.39031E-21-9.16339E-20
 -1       346 7.89716E-06-2.08653E-05 4.16920E-37-9.50874E-06-8.97682E-21-1.34357E-19
 -1       347 1.22417E-05-3.05689E-05 1.08326E-37-1.33452E-05-5.48417E-21-5.61568E-20
 -1       348 1.79010E-05-4.22358E-05 5.54219E-38-1.75770E-05 2.40152E-20 1.60130E-19
 -1       349 2.52342E-05-5.63163E-05 1.60664E-37-2.21511E-05-1.23433E-20-1.22262E-19
 -1       350 3.46984E-05-7.33485E-05 2.33908E-37-2.69497E-05 1.99339E-20-9.79792E-20
 -1       351 4.68476E-05-9.39508E-05 4.41856E-37-3.17513E-05 8.19722E-21 3.84515E-19
 -1       352 6.23083E-05-1.18785E-04 3.24790E-37-3.61808E-05-4.31756E-20 1.46815E-19
 -1       353 8.17130E-05-1.48465E-04 5.06804E-37-3.96587E-05 3.02853E-21 1.96466E-19
 -1       354 1.05552E-04-1.83377E-04 3.22676E-37-4.13736E-05-1.49378E-19 4.60565E-20
 -1       355 1.33908E-04-2.23363E-04 4.05832E-37-4.03387E-05-5.82445E-20-7.23826E-20
 -1       356 1.66048E-04-2.67263E-04 6.86724E-37-3.56327E-05 6.20411E-21 1.00918E-19
 -1       357 1.99926E-04-3.12360E-04 1.12696E-36-2.69432E-05 2.56343E-20-1.40414E-19
 -1       358 2.31761E-04-3.53949E-04 1.20348E-36-1.54179E-05-1.76575E-20 2.05326E-21
 -1       359 2.56048E-04-3.85482E-04 1.42962E-36-4.53081E-06 4.31833E-19-3.32881E-21
 -1       360 2.61799E-06-6.33569E-06 2.04208E-37-1.58549E-06 1.02959E-22-8.61272E-20
 -1       361 5.60272E-06-1.32597E-05 3.89538E-37-3.18814E-06 5.83706E-21 2.59628E-20
 -1       362 9.26183E-06-2.14303E-05 1.02596E-38-4.95764E-06-6.28914E-21-9.03046E-20
 -1       363 1.39247E-05-3.11185E-05 2.27535E-37-6.92171E-06 2.44125E-21 3.92785E-20
 -1       364 1.98177E-05-4.26499E-05 3.55105E-37-9.08557E-06-4.80325E-22 3.50298E-19
 -1       365 2.72472E-05-5.64287E-05 1.97472E-37-1.14261E-05-1.02410E-20-2.06095E-19
 -1       366 3.66089E-05-7.29440E-05 7.10534E-38-1.38884E-05-8.08191E-21 3.29514E-20
 -1       367 4.83923E-05-9.27709E-05 3.83956E-37-1.63682E-05-3.02921E-20 1.24555E-19
 -1       368 6.31726E-05-1.16552E-04 3.24817E-37-1.86867E-05-1.76196E-20-8.44489E-20
 -1       369 8.15729E-05-1.44941E-04 4.34638E-37-2.05623E-05-2.66626E-20 2.39736E-20
 -1       370 1.04164E-04-1.78466E-04 6.33384E-37-2.15880E-05 2.14452E-20 1.60783E-20
 -1       371 1.31256E-04-2.17269E-04 7.72716E-37-2.12436E-05 2.52646E-20 1.04708E-20
 -1       372 1.62512E-04-2.60645E-04 6.36783E-37-1.89961E-05-2.39326E-20-7.42689E-20
 -1       373 1.96364E-04-3.06361E-04 9.74173E-37-1.45703E-05 2.64685E-20-1.13427E-20
 -1       374 2.29255E-04-3.49875E-04 1.23159E-36-8.44753E-06-1.63703E-20-1.21128E-20
 -1       375 2.55415E-04-3.84144E-04 1.16949E-36-2.55429E-06 9.37632E-20 4.34485E-21
 -1       376 1.42979E-06-5.42402E-07-3.33545E-36-2.91553E-07-6.86156E-18-4.77841E-19
 -1       377-2.80457E-03-5.50978E-03 4.13781E-35 2.25873E-03-5.53659E-19 1.97756E-20
 -1       378 5.08938E-04-2.52511E-04 1.38979E-34-1.29804E-08-4.98490E-18 1.06372E-20
 -1       379 1.80234E-05-4.57418E-05 3.20266E-34-7.91214E-07-5.04898E-18 9.70779E-19
 -1       381 8.66840E-07-2.77817E-07 5.30396E-34-1.19894E-07 2.87387E-18 4.45802E-19
 -1       382-1.18191E-05 5.14507E-06-2.94877E-34 1.26587E-07-1.49325E-17 7.84548E-19
 -1       383-3.32791E-05 1.43416E-05 1.49052E-34 2.28080E-07-1.05432E-18-1.14038E-19
 -1       384-5.94966E-05 2.55598E-05-3.21004E-35 2.49733E-07 5.66756E-18-5.30112E-19
 -1       385-8.81690E-05 3.78380E-05 2.59723E-35 2.49857E-07 6.60413E-18 1.79107E-18
 -1       386-1.17573E-04 5.04267E-05-1.15059E-34 2.25874E-07 2.49928E-18-2.35724E-19
 -1       387-1.46359E-04 6.27508E-05 4.71179E-35 1.81653E-07 5.48519E-18 2.32002E-19
 -1       388-1.73506E-04 7.43726E-05 1.96661E-34 1.17663E-07 5.87006E-19-1.57212E-18
 -1       389-1.98305E-04 8.49904E-05 2.22728E-34 3.39376E-08-1.50618E-18-1.11990E-18
 -1       390-2.20336E-04 9.44257E-05 1.61668E-34-7.18701E-08 3.04159E-18 5.19617E-19
 -1       391-2.39425E-04 1.02605E-04 7.12552E-36-2.06181E-07-3.22098E-18 9.75278E-19
 -1       392-2.55588E-04 1.09541E-04-1.13426E-35-3.81724E-07-1.88273E-18 2.83124E-19
 -1       393-2.68979E-04 1.15299E-04 4.22289E-35-6.24501E-07 4.13518E-18-1.04963E-18
 -1       394-2.79838E-04 1.20010E-04 2.74467E-34-9.75792E-07 4.18194E-18-9.19157E-20
 -1       395-2.88415E-04 1.23745E-04 1.86155E-34-1.54037E-06-3.75328E-18-6.99327E-19
 -1       396-2.95091E-04 1.26966E-04-8.36328E-35-2.44088E-06-5.72481E-18 2.56807E-19
 -1       397-2.99596E-04 1.28716E-04 1.87392E-35-4.24530E-06 2.07062E-18-3.02152E-19
 -1       398-3.04236E-04 1.34607E-04 1.05348E-34-7.39920E-06 2.86707E-18-8.91698E-20
 -1       399-2.96437E-04 1.23722E-04 2.25788E-36-1.48651E-05 1.52466E-18 7.05173E-20
 -1       400-3.28394E-04 2.03459E-04 1.51455E-35-2.89025E-05-3.20805E-18 1.57261E-19
 -1       401 2.68867E-05-1.46943E-05 2.35658E-35-1.11998E-04-3.16878E-18 1.76998E-19
 -1       402-1.45381E-03 9.08086E-04-2.02736E-35 7.64430E-04-2.77113E-18-1.48982E-19
 -1       403 1.51883E-03-3.86307E-03 6.26621E-35 3.64194E-04-7.11472E-19 8.36513E-21
 -1       404 5.00106E-04-1.81520E-03-2.35832E-35 4.26800E-05 1.79969E-19 7.87142E-21
 -1       405 3.83003E-04-1.24851E-03-2.55849E-35 3.29511E-05-8.74864E-19 7.94526E-21
 -1       406 2.09633E-04-8.79796E-04-5.20374E-36 6.14253E-06-1.56703E-18 2.00219E-21
 -1       407 1.37579E-04-6.65700E-04 1.82116E-34 3.49406E-06 2.13834E-18-1.71414E-21
 -1       408 9.50269E-05-5.20833E-04 1.14138E-34 1.35771E-06 3.33007E-19-8.01002E-21
 -1       409 7.56612E-05-4.20303E-04 5.24207E-35 7.54066E-07 6.81188E-18 1.10060E-21
 -1       410 7.03653E-05-3.47447E-04-2.73402E-36 4.06154E-07 2.39509E-18-9.70062E-22
 -1       411 7.56356E-05-2.93510E-04 3.16153E-35 2.44152E-07 1.49622E-18 5.36341E-22
 -1       412 8.93111E-05-2.53068E-04-3.14778E-36 1.51922E-07-9.86609E-20 2.67222E-21
 -1       413 1.10538E-04-2.22879E-04-2.49562E-35 9.94131E-08-1.84202E-18-6.96519E-22
 -1       414 1.39373E-04-2.01095E-04 3.88284E-35 6.73828E-08 6.94050E-18 1.23351E-21
 -1       415 1.76864E-04-1.87006E-04-2.51699E-35 4.71816E-08-3.61998E-19 3.77137E-21
 -1       416 2.25363E-04-1.81075E-04 4.14880E-35 3.33114E-08 2.65212E-18-5.51103E-21
 -1       417 2.89307E-04-1.85363E-04 2.27734E-35 2.30676E-08 3.42159E-18-3.51914E-21
 -1       418 3.77114E-04-2.04645E-04 2.36894E-34 7.17283E-09-6.78015E-18 7.43513E-21
 -1       419 5.08409E-04-2.52295E-04-8.54304E-35 2.25383E-07-2.88298E-18 1.07212E-20
 -1       420 5.06597E-04-2.51557E-04 1.43110E-34 4.72602E-07 2.62576E-19 1.47676E-20
 -1       421 5.03137E-04-2.50152E-04 1.94459E-34 7.37194E-07-2.68459E-18-2.26970E-20
 -1       422 4.97616E-04-2.47910E-04-7.08885E-35 1.01442E-06 3.42339E-18-1.82595E-19
 -1       423 4.89579E-04-2.44645E-04-1.62265E-35 1.29599E-06 2.93872E-18-5.36982E-21
 -1       424 4.78557E-04-2.40161E-04-1.86040E-35 1.57029E-06 3.68175E-18-3.12049E-19
 -1       425 4.64099E-04-2.34265E-04-1.04914E-34 1.82247E-06 2.38761E-18-1.98920E-19
 -1       426 4.45828E-04-2.26790E-04 4.16132E-35 2.03530E-06 3.29822E-18 3.67980E-20
 -1       427 4.23505E-04-2.17618E-04 1.77720E-34 2.19114E-06 1.31895E-18 4.89438E-20
 -1       428 3.97095E-04-2.06712E-04 1.56385E-34 2.27494E-06-5.93005E-18-1.09797E-18
 -1       429 3.66826E-04-1.94141E-04 1.99654E-34 2.27784E-06-5.38555E-18-5.23443E-19
 -1       430 3.33213E-04-1.80092E-04 1.42374E-34 2.20045E-06-3.22911E-18 4.09979E-19
 -1       431 2.97031E-04-1.64871E-04 7.60240E-35 2.05429E-06-7.86082E-18-1.47393E-19
 -1       432 2.59243E-04-1.48875E-04 3.85138E-34 1.86031E-06 2.16285E-18-8.86245E-19
 -1       433 2.20886E-04-1.32550E-04-6.71509E-35 1.64417E-06 2.15807E-18-1.03027E-18
 -1       434 1.82959E-04-1.16336E-04-3.14879E-35 1.42972E-06 3.84896E-18-1.40222E-19
 -1       435 1.46356E-04-1.00642E-04 7.20509E-36 1.23290E-06 3.11002E-18-7.30265E-19
 -1       436 1.11888E-04-8.58444E-05 8.98142E-35 1.05744E-06-5.80999E-19 4.86622E-19
 -1       437 8.03774E-05-7.23102E-05 3.04893E-35 8.94756E-07-1.17878E-18-2.49842E-19
 -1       438 5.28908E-05-6.05496E-05 9.67248E-35 7.10196E-07-3.32137E-18-5.98963E-20
 -1       439 3.10276E-05-5.11437E-05 7.82259E-34 4.06382E-07-4.90839E-18 1.88328E-19
 -1       440 1.85664E-05-4.59514E-05 4.53012E-34-3.32548E-07-8.21596E-18 1.96941E-19
 -1       441 1.88923E-05-4.67014E-05 2.62047E-35-1.37086E-06 1.04916E-17-3.32551E-19
 -1       442 1.80937E-05-4.49777E-05-1.47901E-34-1.60006E-07-1.09689E-17-1.01341E-19
 -1       443 1.61291E-05-3.98656E-05-4.27023E-35 6.00844E-07-2.96433E-18 1.12551E-18
 -1       444 1.35649E-05-3.29990E-05 4.14885E-36 1.00228E-06 1.27507E-17 1.24561E-19
 -1       445 1.08499E-05-2.56980E-05 3.40298E-34 1.15701E-06 7.79124E-18 2.25836E-19
 -1       446 8.28462E-06-1.88060E-05-9.84385E-35 1.13733E-06 5.62818E-18 6.53914E-20
 -1       447 6.04393E-06-1.28011E-05-1.28153E-34 9.88300E-07-1.03266E-17-4.28696E-21
 -1       448 4.20863E-06-7.90811E-06 1.45057E-34 7.40177E-07-4.56335E-19-3.40764E-19
 -1       449 2.79417E-06-4.18219E-06 2.25294E-34 4.16637E-07 1.91767E-18-1.46992E-20
 -1       450 1.77346E-06-1.56755E-06 2.40174E-34 4.06123E-08-3.46681E-18 2.81697E-19
 -1       451 1.09399E-06 6.23999E-08 4.66882E-34-3.61479E-07-1.64680E-17-1.03727E-19
 -1       452 6.90655E-07 8.77480E-07 4.87162E-34-7.56718E-07-1.21759E-18-2.41147E-19
 -1       453 4.95701E-07 1.07136E-06 3.12091E-34-1.10322E-06-5.96959E-18-2.34969E-18
 -1       454 4.48627E-07 8.46790E-07 5.51451E-34-1.34533E-06-6.77891E-18 1.07241E-18
 -1       455 5.14258E-07 4.00719E-07 2.70348E-34-1.39439E-06-1.16106E-17 3.23916E-19
 -1       456 7.36585E-07-1.04276E-07 8.46174E-35-1.06235E-06-1.40368E-18 1.16848E-18
 -1       457-7.42014E-07 3.63787E-07 8.29651E-34 1.01327E-06 1.00519E-17 4.45472E-19
 -1       458-2.00557E-06 6.93930E-07 2.39576E-34 2.39552E-06-8.04069E-18-7.27610E-20
 -1       459-2.82904E-06 6.00627E-07 4.16550E-34 4.12688E-06 1.82816E-18 7.39772E-19
 -1       460-3.16292E-06 1.98301E-08 4.95525E-34 6.16365E-06-9.75076E-18 6.37992E-21
 -1       461-2.99990E-06-1.07347E-06 5.72984E-34 8.48867E-06-7.56915E-18-1.75668E-19
 -1       462-2.34717E-06-2.69736E-06 5.84972E-34 1.10545E-05-3.10891E-18-4.90561E-20
 -1       463-1.21722E-06-4.87350E-06 4.13028E-34 1.37678E-05 6.86997E-18 3.15698E-19
 -1       464 3.76924E-07-7.62950E-06-5.39863E-35 1.64831E-05 7.30344E-18-4.70570E-20
 -1       465 2.42313E-06-1.09951E-05 6.30670E-34 1.89993E-05-6.62859E-19-7.46997E-20
 -1       466 4.90719E-06-1.49916E-05 1.68066E-34 2.10573E-05-1.02358E-17-5.13755E-22
 -1       467 7.80440E-06-1.96144E-05-1.71689E-34 2.23411E-05-2.53947E-18 5.93683E-20
 -1       468 1.10636E-05-2.48071E-05 1.09175E-34 2.24850E-05-7.70501E-18-1.79966E-19
 -1       469 1.45788E-05-3.04275E-05 1.02299E-34 2.10997E-05 1.01264E-17-4.10994E-19
 -1       470 1.81306E-05-3.62023E-05 3.06015E-35 1.78459E-05-1.14178E-18 2.19980E-19
 -1       471 2.12390E-05-4.16450E-05 2.64460E-34 1.26234E-05-5.75857E-18 5.69016E-19
 -1       472 2.26825E-05-4.58061E-05 4.56594E-34 5.97176E-06 6.83420E-18 7.72200E-19
 -1       473-1.31970E-05 5.73141E-06 1.32856E-34 3.68281E-06 7.40700E-18-9.95547E-20
 -1       474-1.42687E-05 5.99422E-06 2.81255E-34 7.33389E-06 4.92663E-18 6.41120E-20
 -1       475-1.48964E-05 5.83473E-06-1.37259E-35 1.11246E-05 3.68753E-18 6.14613E-19
 -1       476-1.49737E-05 5.16042E-06 2.10575E-34 1.50478E-05 6.56227E-18-2.07977E-20
 -1       477-1.44122E-05 3.90924E-06 2.69346E-34 1.90790E-05-3.66283E-18-1.75051E-19
 -1       478-1.31304E-05 2.02152E-06 1.21078E-34 2.31628E-05 4.36622E-18-2.61062E-19
 -1       479-1.10573E-05-5.59438E-07 3.97427E-34 2.72059E-05 4.65005E-19 4.78280E-19
 -1       480-8.13837E-06-3.88325E-06 2.52878E-34 3.10658E-05-4.22442E-18-2.50268E-19
 -1       481-4.34055E-06-7.98781E-06 2.70609E-35 3.45363E-05-9.11591E-19-8.97479E-20
 -1       482 3.40595E-07-1.28929E-05 4.21627E-34 3.73343E-05 1.06462E-17 1.48133E-20
 -1       483 5.86720E-06-1.85887E-05 3.66191E-34 3.90911E-05-2.09705E-18-1.29610E-20
 -1       484 1.21310E-05-2.50137E-05 2.13091E-34 3.93535E-05-3.14815E-18 4.89955E-20
 -1       485 1.88958E-05-3.20116E-05 1.76236E-34 3.76037E-05-7.10108E-18-3.85700E-19
 -1       486 2.56794E-05-3.92498E-05-2.18896E-35 3.33077E-05 3.04138E-18-4.77407E-19
 -1       487 3.15237E-05-4.60542E-05-7.27867E-35 2.60001E-05 4.55307E-19-1.06373E-18
 -1       488 3.45344E-05-5.10126E-05 2.35940E-34 1.53322E-05 9.76422E-18-5.48168E-19
 -1       489-3.36060E-05 1.44562E-05 3.21995E-34 5.47968E-06-7.88324E-18 5.29731E-19
 -1       490-3.35483E-05 1.42708E-05 5.66252E-36 1.08814E-05-1.17005E-18 1.79517E-19
 -1       491-3.29810E-05 1.36453E-05 5.92032E-34 1.64238E-05 8.06772E-18-7.54334E-19
 -1       492-3.17989E-05 1.25043E-05 6.54141E-35 2.20867E-05 1.87991E-18-5.61533E-19
 -1       493-2.98853E-05 1.07684E-05 1.60815E-35 2.78082E-05-7.82814E-18 4.73422E-20
 -1       494-2.71166E-05 8.34728E-06 5.19270E-35 3.34958E-05 5.45346E-18-2.66107E-19
 -1       495-2.33684E-05 5.14631E-06 3.88846E-34 3.90216E-05-3.58073E-18 2.54465E-19
 -1       496-1.85241E-05 1.07365E-06 2.30155E-34 4.42092E-05 7.28976E-18-2.35791E-19
 -1       497-1.24846E-05-3.95158E-06 1.87233E-34 4.88178E-05-3.45373E-18-7.29007E-20
 -1       498-5.18618E-06-9.98716E-06 3.15224E-34 5.25229E-05-3.02500E-18 1.28316E-19
 -1       499 3.37351E-06-1.70483E-05 4.39629E-34 5.48966E-05-7.69878E-18 5.12109E-20
 -1       500 1.30900E-05-2.50746E-05 2.80141E-34 5.53903E-05 1.11628E-18-1.09043E-19
 -1       501 2.36754E-05-3.38722E-05 1.63675E-34 5.33253E-05-3.69955E-18-2.41526E-19
 -1       502 3.45284E-05-4.30157E-05 1.88778E-34 4.78937E-05 2.44285E-19-4.55923E-20
 -1       503 4.45258E-05-5.16836E-05 1.25204E-35 3.81743E-05-4.24533E-18-1.20797E-20
 -1       504 5.17170E-05-5.83919E-05 1.83790E-34 2.30966E-05 1.96416E-18-6.34556E-19
 -1       505-5.84814E-05 2.51040E-05 2.09858E-34 6.86085E-06-2.42165E-18 2.02996E-19
 -1       506-5.69934E-05 2.43223E-05 2.32650E-34 1.36569E-05 1.72820E-18 6.76975E-19
 -1       507-5.48962E-05 2.30788E-05 3.55554E-34 2.06476E-05 3.10654E-18-4.39154E-19
 -1       508-5.20818E-05 2.13045E-05 2.43360E-34 2.77925E-05 2.28295E-18 2.47376E-19
 -1       509-4.84143E-05 1.89069E-05 2.16713E-34 3.50084E-05 6.00594E-18 2.28741E-20
 -1       510-4.37436E-05 1.57771E-05 9.51878E-35 4.21805E-05 7.60110E-18-3.81140E-19
 -1       511-3.79086E-05 1.17953E-05 1.50581E-34 4.91527E-05-5.31145E-18-2.23225E-20
 -1       512-3.07435E-05 6.83597E-06 2.29703E-34 5.57128E-05 7.80330E-18 5.60324E-19
 -1       513-2.20895E-05 7.77428E-07 7.17117E-35 6.15729E-05-3.41103E-19 1.35767E-19
 -1       514-1.18152E-05-6.48327E-06 4.00594E-34 6.63447E-05-4.04993E-18-1.20623E-21
 -1       515 1.48757E-07-1.50044E-05-8.60421E-35 6.95103E-05 3.04160E-18 6.09859E-20
 -1       516 1.37539E-05-2.47575E-05 9.89610E-35 7.03895E-05 6.74699E-18 1.49851E-19
 -1       517 2.87434E-05-3.55589E-05 2.65958E-34 6.81085E-05 8.34675E-19 7.32238E-20
 -1       518 4.45119E-05-4.69618E-05 4.35756E-35 6.15703E-05-1.40692E-18-6.93053E-19
 -1       519 5.98972E-05-5.80968E-05-7.27544E-35 4.94419E-05 3.10769E-18-6.06642E-19
 -1       520 7.29059E-05-6.74238E-05 5.60124E-35 3.01098E-05-3.84824E-18 1.42930E-19
 -1       521-8.57066E-05 3.67605E-05 6.57229E-35 7.91993E-06-7.13066E-19 4.12972E-19
 -1       522-8.26912E-05 3.53438E-05 4.40560E-34 1.58215E-05-5.80266E-18-5.10360E-19
 -1       523-7.89634E-05 3.34482E-05 1.14744E-34 2.39916E-05-3.04218E-19-9.94231E-19
 -1       524-7.44113E-05 3.10055E-05 4.60506E-35 3.23740E-05-9.88587E-20-2.70797E-19
 -1       525-6.88787E-05 2.79101E-05 5.50775E-35 4.08785E-05 5.25559E-18-4.12906E-19
 -1       526-6.21862E-05 2.40344E-05 2.85874E-34 4.93810E-05-7.37082E-20-3.94175E-19
 -1       527-5.41312E-05 1.92318E-05-5.55594E-35 5.77077E-05-4.76095E-18-5.06492E-19
 -1       528-4.44926E-05 1.33409E-05 4.43587E-34 6.56167E-05 5.82943E-18 2.47166E-20
 -1       529-3.30421E-05 6.19482E-06 7.09921E-35 7.27726E-05-2.01614E-18 5.91540E-20
 -1       530-1.95672E-05-2.36103E-06 2.15780E-35 7.87145E-05 1.18138E-18 5.24888E-21
 -1       531-3.91068E-06-1.24383E-05 7.88500E-37 8.28181E-05 1.42080E-18-2.32071E-20
 -1       532 1.39646E-05-2.40565E-05 6.22027E-35 8.42515E-05-7.38056E-19 1.30253E-19
 -1       533 3.38749E-05-3.70669E-05 7.46684E-35 8.19288E-05 3.77482E-19 3.13934E-20
 -1       534 5.52619E-05-5.10371E-05 3.05860E-35 7.44623E-05-2.84667E-19-2.04642E-19
 -1       535 7.69649E-05-6.50830E-05-3.08819E-35 6.01275E-05-2.10335E-20-1.96649E-19
 -1       536 9.69206E-05-7.76098E-05 8.23153E-35 3.68058E-05-1.49989E-18-2.09605E-19
 -1       537-1.13694E-04 4.87461E-05 1.67656E-34 8.67139E-06 5.82649E-18-1.25183E-19
 -1       538-1.09201E-04 4.67247E-05 3.36633E-35 1.74061E-05-5.25654E-18 1.01810E-19
 -1       539-1.03908E-04 4.42201E-05 1.81034E-34 2.65045E-05 3.52903E-19 9.95058E-19
 -1       540-9.76944E-05 4.11578E-05 3.71380E-35 3.59025E-05 3.84087E-18-3.38078E-19
 -1       541-9.03758E-05 3.74134E-05 1.42512E-35 4.55154E-05-5.73457E-18-4.32897E-19
 -1       542-8.17318E-05 3.28329E-05-2.81739E-36 5.52194E-05-5.79677E-19-2.76042E-19
 -1       543-7.15041E-05 2.72340E-05-3.05407E-35 6.48299E-05-1.88784E-19 8.49549E-20
 -1       544-5.93997E-05 2.04098E-05-4.51674E-35 7.40769E-05 2.19323E-18-2.18459E-19
 -1       545-4.51045E-05 1.21404E-05-1.08419E-35 8.25724E-05 2.01991E-18-1.68510E-19
 -1       546-2.83102E-05 2.21595E-06 7.12741E-35 8.97719E-05 2.65832E-18-4.59274E-20
 -1       547-8.76104E-06-9.52719E-06 9.29299E-35 9.49304E-05-2.03077E-18 2.46263E-20
 -1       548 1.36745E-05-2.31514E-05 5.81612E-35 9.70534E-05 2.02883E-18 1.87209E-20
 -1       549 3.88962E-05-3.85399E-05 6.31403E-35 9.48434E-05-4.25416E-18 1.78352E-20
 -1       550 6.64135E-05-5.52833E-05 3.66050E-34 8.66367E-05-4.83665E-18-2.41435E-19
 -1       551 9.51031E-05-7.25106E-05-5.98398E-35 7.03385E-05 3.77399E-18 5.69818E-19
 -1       552 1.22867E-04-8.86107E-05-3.45935E-35 4.33157E-05-5.90446E-19-1.15396E-18
 -1       553-1.41223E-04 6.05391E-05 1.30325E-34 9.11913E-06 1.36901E-18-1.51346E-19
 -1       554-1.35441E-04 5.80033E-05 1.54689E-34 1.84309E-05 6.53365E-18 9.41995E-19
 -1       555-1.28795E-04 5.49921E-05 1.09436E-34 2.82349E-05-1.91096E-18 9.67297E-19
 -1       556-1.21144E-04 5.14142E-05 2.33568E-34 3.84702E-05 6.31393E-18-2.86932E-19
 -1       557-1.12259E-04 4.71147E-05-5.83378E-35 4.90673E-05 3.99792E-18 1.02463E-19
 -1       558-1.01861E-04 4.18990E-05-1.40479E-34 5.99071E-05 4.93227E-18 4.34031E-19
 -1       559-8.96107E-05 3.55333E-05 2.23094E-35 7.07919E-05 1.40489E-18-2.14750E-19
 -1       560-7.51226E-05 2.77529E-05 6.24974E-35 8.14125E-05-1.55045E-18-1.16484E-19
 -1       561-5.79809E-05 1.82809E-05 1.23786E-34 9.13087E-05-3.16841E-18 7.94445E-21
 -1       562-3.77775E-05 6.86063E-06 1.09599E-35 9.98289E-05-6.74867E-18 3.62567E-20
 -1       563-1.41688E-05-6.69955E-06 2.24308E-35 1.06088E-04-4.36178E-18 1.41905E-20
 -1       564 1.30483E-05-2.24702E-05-7.25849E-36 1.08926E-04-1.97739E-18 1.43036E-19
 -1       565 4.38359E-05-4.03341E-05 1.24786E-34 1.06859E-04 5.94699E-19 1.80412E-20
 -1       566 7.77749E-05-5.98973E-05-2.62198E-35 9.80002E-05-1.74349E-19-5.21460E-19
 -1       567 1.13833E-04-8.03427E-05 7.00139E-35 7.99471E-05 1.49872E-18-2.39248E-19
 -1       568 1.49994E-04-1.00146E-04 2.43237E-35 4.95624E-05-1.70752E-18 3.80613E-19
 -1       569-1.67410E-04 7.17612E-05 5.83558E-35 9.28085E-06-4.00461E-18 1.00702E-18
 -1       570-1.60665E-04 6.88579E-05 8.77836E-35 1.89489E-05 4.09449E-18-1.04253E-18
 -1       571-1.53016E-04 6.54919E-05 2.66582E-34 2.92916E-05-2.88196E-18-1.83178E-19
 -1       572-1.44276E-04 6.15371E-05 1.31931E-34 4.02629E-05-9.51985E-19-5.94423E-19
 -1       573-1.34147E-04 5.67872E-05 4.47171E-35 5.18135E-05 4.62724E-18-3.79002E-20
 -1       574-1.22257E-04 5.09836E-05 1.40526E-34 6.38234E-05 9.63961E-19 2.00906E-19
 -1       575-1.08157E-04 4.38210E-05 9.38017E-35 7.60625E-05-2.16219E-18-8.56365E-21
 -1       576-9.13438E-05 3.49670E-05 7.30672E-35 8.81487E-05-1.84134E-18-1.16460E-19
 -1       577-7.12966E-05 2.40973E-05 2.18388E-35 9.95073E-05 7.16182E-19 1.08572E-19
 -1       578-4.75298E-05 1.09439E-05 5.71161E-35 1.09339E-04 5.30260E-20 2.12639E-20
 -1       579-1.96622E-05-4.65289E-06 7.51999E-35 1.16596E-04-1.49188E-20-4.65463E-20
 -1       580 1.25149E-05-2.27004E-05 3.09796E-34 1.19972E-04 4.64332E-18-1.51725E-19
 -1       581 4.89715E-05-4.30241E-05 1.06674E-34 1.17863E-04 1.38834E-18-2.09551E-19
 -1       582 8.93549E-05-6.52349E-05 8.61157E-36 1.08271E-04 2.38636E-19 2.47998E-19
 -1       583 1.32811E-04-8.86401E-05-2.70425E-35 8.86051E-05-2.21568E-18-2.40201E-19
 -1       584 1.77619E-04-1.11978E-04-3.76968E-36 5.52851E-05-2.26316E-19 5.50792E-19
 -1       585-1.91693E-04 8.21727E-05 1.00496E-34 9.19216E-06-5.96725E-18-6.39237E-19
 -1       586-1.84457E-04 7.91056E-05 7.38549E-35 1.90588E-05 5.16849E-18-3.89611E-19
 -1       587-1.76286E-04 7.55777E-05 1.01464E-34 2.98668E-05-9.23838E-19-3.10898E-19
 -1       588-1.66909E-04 7.13972E-05 7.52303E-35 4.15949E-05-2.77679E-18-4.37666E-19
 -1       589-1.55915E-04 6.62718E-05 7.37691E-35 5.42091E-05-3.87571E-18-3.98039E-19
 -1       590-1.42788E-04 5.98456E-05 4.64674E-35 6.75623E-05 1.95206E-18-1.73079E-19
 -1       591-1.26934E-04 5.17199E-05 1.51526E-34 8.13431E-05-7.70646E-19-1.43032E-19
 -1       592-1.07718E-04 4.14986E-05 7.87565E-35 9.50292E-05 7.39320E-19 8.69104E-20
 -1       593-8.45387E-05 2.88521E-05 1.29970E-34 1.07859E-04 1.21264E-19 1.96044E-19
 -1       594-5.69069E-05 1.35825E-05 1.29051E-34 1.18834E-04-3.28765E-18 4.86852E-20
 -1       595-2.45108E-05-4.33018E-06 6.55200E-36 1.26743E-04 2.38600E-18 3.11554E-20
 -1       596 1.27514E-05-2.47267E-05 2.06952E-34 1.30193E-04-3.59188E-18 1.23272E-19
 -1       597 5.47838E-05-4.73139E-05-1.22138E-35 1.27588E-04 1.77262E-18-2.78705E-19
 -1       598 1.01309E-04-7.17230E-05 1.34127E-34 1.16993E-04 5.09754E-19 1.61907E-20
 -1       599 1.51782E-04-9.74992E-05-4.65317E-36 9.57993E-05 2.31095E-19-1.83620E-20
 -1       600 2.05075E-04-1.23878E-04-1.34965E-35 6.00929E-05 2.24725E-18 1.41704E-19
 -1       601-2.13818E-04 9.16660E-05 1.01130E-34 8.90579E-06 1.31785E-18 7.29003E-20
 -1       602-2.06723E-04 8.86992E-05 1.43966E-34 1.89104E-05-1.08927E-19-2.85196E-19
 -1       603-1.98644E-04 8.52348E-05 1.03896E-34 3.02531E-05 2.25203E-18 3.67337E-20
 -1       604-1.89161E-04 8.09627E-05 5.60121E-36 4.29401E-05-2.23340E-18 5.23043E-19
 -1       605-1.77673E-04 7.54509E-05 8.42835E-35 5.69246E-05-2.91120E-18-1.76122E-19
 -1       606-1.63460E-04 6.82028E-05 1.82807E-34 7.19684E-05 1.14146E-18-2.95675E-19
 -1       607-1.45743E-04 5.87158E-05 1.29481E-34 8.75807E-05 1.38848E-18 3.74915E-21
 -1       608-1.23778E-04 4.65731E-05-1.40465E-35 1.02985E-04 2.32236E-18 1.25593E-19
 -1       609-9.69754E-05 3.15431E-05 8.75865E-35 1.17139E-04-2.18650E-18 1.69505E-19
 -1       610-6.49901E-05 1.36476E-05-3.05476E-35 1.28808E-04 5.05172E-18 3.60008E-20
 -1       611-2.77532E-05-6.84143E-06-9.80106E-37 1.36672E-04 4.67178E-18-2.62211E-20
 -1       612 1.45929E-05-2.94930E-05 6.01509E-36 1.39396E-04 3.18945E-18 1.15674E-19
 -1       613 6.18336E-05-5.38762E-05 4.10724E-35 1.35593E-04 4.13920E-18-1.48577E-19
 -1       614 1.13827E-04-7.97193E-05 1.29439E-34 1.23594E-04 4.93923E-18 2.92590E-19
 -1       615 1.70518E-04-1.06967E-04 5.59037E-35 1.00955E-04 2.35559E-18-8.21070E-20
 -1       616 2.31705E-04-1.35607E-04 6.51319E-35 6.35552E-05 5.34744E-19 3.75666E-19
 -1       617-2.33820E-04 1.00257E-04 2.80132E-34 8.48978E-06-2.09362E-19 1.00484E-19
 -1       618-2.27687E-04 9.77243E-05 6.74489E-35 1.87136E-05-2.91405E-18 2.15669E-19
 -1       619-2.20452E-04 9.45685E-05 1.97040E-34 3.08722E-05 3.80379E-18-1.81806E-19
 -1       620-2.11430E-04 9.02733E-05 3.23330E-35 4.49806E-05 3.17989E-18-6.68296E-19
 -1       621-1.99720E-04 8.41874E-05 1.17368E-34 6.09030E-05-4.33140E-19-2.50662E-19
 -1       622-1.84320E-04 7.56322E-05 6.33288E-35 7.81747E-05 3.07028E-19 3.03769E-19
 -1       623-1.64263E-04 6.40350E-05 1.75245E-34 9.59525E-05 5.63798E-19 1.99641E-19
 -1       624-1.38804E-04 4.90869E-05 2.28271E-35 1.13045E-04-6.58027E-19-4.93402E-20
 -1       625-1.07566E-04 3.08602E-05 1.75355E-34 1.28044E-04-1.36023E-18-6.22233E-21
 -1       626-7.06007E-05 9.81777E-06 3.41753E-35 1.39526E-04-6.34278E-19-3.76348E-20
 -1       627-2.82940E-05-1.33173E-05 1.00780E-34 1.46231E-04-3.29352E-18-1.99962E-20
 -1       628 1.88685E-05-3.78043E-05 9.63112E-35 1.47130E-04-3.46803E-18-9.70174E-20
 -1       629 7.05887E-05-6.31591E-05-1.24934E-36 1.41287E-04-2.91352E-19-1.78110E-20
 -1       630 1.27002E-04-8.93690E-05 8.05190E-35 1.27485E-04-5.00785E-18-3.68063E-19
 -1       631 1.88758E-04-1.16967E-04 2.84480E-34 1.03565E-04-6.72915E-20 7.80937E-20
 -1       632 2.56884E-04-1.46907E-04 2.26924E-35 6.53074E-05 3.64478E-19 2.44847E-19
 -1       633-2.52001E-04 1.08076E-04 1.18655E-34 8.02886E-06-3.72604E-19 3.19357E-19
 -1       634-2.47902E-04 1.06400E-04 2.59352E-35 1.87643E-05 1.23046E-18 4.72510E-21
 -1       635-2.42407E-04 1.03790E-04 2.23476E-34 3.23392E-05 4.59341E-18-3.44343E-19
 -1       636-2.34376E-04 9.93821E-05 2.11301E-34 4.87028E-05-6.54024E-18-1.07565E-19
 -1       637-2.22450E-04 9.22017E-05 5.14016E-35 6.74540E-05-1.33505E-18-6.86063E-20
 -1       638-2.05287E-04 8.13890E-05 4.94868E-35 8.76417E-05-5.15101E-19-5.09207E-20
 -1       639-1.81842E-04 6.64528E-05 5.88549E-35 1.07800E-04-4.92112E-18 7.09171E-20
 -1       640-1.51641E-04 4.74814E-05 1.32488E-35 1.26153E-04-1.69395E-18-2.74768E-20
 -1       641-1.14894E-04 2.51855E-05 1.45932E-34 1.40948E-04 2.69868E-18-3.61731E-20
 -1       642-7.23769E-05 7.16986E-07 3.11522E-35 1.50794E-04 9.24713E-19 9.64121E-21
 -1       643-2.50857E-05-2.46873E-05 5.06027E-35 1.54834E-04 4.23791E-18-4.63698E-21
 -1       644 2.61903E-05-5.01017E-05 3.65636E-35 1.52666E-04 2.76308E-18-7.65959E-20
 -1       645 8.12513E-05-7.52194E-05 7.98483E-35 1.44011E-04-2.70880E-19 2.34610E-19
 -1       646 1.40732E-04-1.00515E-04 1.69064E-34 1.28178E-04-1.89268E-18-5.16848E-20
 -1       647 2.06182E-04-1.27272E-04 1.98203E-34 1.03308E-04-2.99714E-18 6.91455E-19
 -1       648 2.80060E-04-1.57521E-04 1.45933E-34 6.51394E-05-1.32965E-18 2.81429E-19
 -1       649-2.68942E-04 1.15380E-04 6.73307E-35 7.63562E-06 6.08937E-18 1.97599E-19
 -1       650-2.68291E-04 1.15087E-04-6.04710E-36 1.95075E-05 3.79348E-18 1.31551E-19
 -1       651-2.65572E-04 1.13188E-04 2.38977E-34 3.55948E-05 4.75644E-18-8.41883E-21
 -1       652-2.58863E-04 1.08232E-04 3.58256E-35 5.55727E-05-2.98160E-18-3.33188E-19
 -1       653-2.46167E-04 9.88342E-05 5.70291E-35 7.83931E-05-3.67926E-18-2.13783E-19
 -1       654-2.25863E-04 8.41034E-05 8.46397E-35 1.02162E-04 4.11137E-18-2.20531E-19
 -1       655-1.97199E-04 6.40396E-05 9.53499E-35 1.24448E-04-3.08405E-18 4.94878E-20
 -1       656-1.60539E-04 3.96562E-05 1.36043E-34 1.42847E-04-1.43695E-18 1.27929E-19
 -1       657-1.17210E-04 1.27163E-05 5.82308E-35 1.55566E-04 8.25861E-19 6.36171E-20
 -1       658-6.89768E-05-1.48225E-05 7.87035E-35 1.61753E-04 1.91515E-18 2.82407E-21
 -1       659-1.73888E-05-4.14021E-05 1.90064E-35 1.61431E-04-2.37316E-18-4.18316E-20
 -1       660 3.67446E-05-6.62716E-05 5.65223E-35 1.55100E-04 3.35082E-19 2.87655E-20
 -1       661 9.36477E-05-8.96452E-05 6.62188E-35 1.43179E-04-2.44132E-19-2.53078E-20
 -1       662 1.54690E-04-1.12698E-04 1.67287E-34 1.25407E-04 2.35407E-18-4.09538E-19
 -1       663 2.22431E-04-1.37528E-04 1.77325E-35 1.00120E-04 3.62637E-18-1.48448E-19
 -1       664 3.00804E-04-1.67213E-04 4.36118E-35 6.30387E-05-2.45990E-18-2.61867E-20
 -1       665-2.85555E-04 1.22560E-04 5.56549E-35 7.47450E-06-3.75464E-18 3.68012E-19
 -1       666-2.90273E-04 1.24322E-04 8.47565E-35 2.16752E-05-1.58307E-18-4.69351E-19
 -1       667-2.91420E-04 1.23044E-04 3.88060E-35 4.21704E-05-9.63653E-20-2.29947E-19
 -1       668-2.85816E-04 1.16387E-04 4.12722E-36 6.78343E-05 1.00993E-18-4.18079E-21
 -1       669-2.70709E-04 1.02599E-04 9.56792E-35 9.61964E-05 2.89788E-18 8.66554E-20
 -1       670-2.44654E-04 8.13232E-05 2.59353E-35 1.23723E-04 2.86435E-18 1.74793E-19
 -1       671-2.08080E-04 5.39157E-05 1.29600E-34 1.46792E-04 3.07173E-18-5.81328E-20
 -1       672-1.63105E-04 2.30562E-05 1.68528E-34 1.62771E-04 4.90417E-18-4.62735E-20
 -1       673-1.12663E-04-8.19505E-06 1.28567E-34 1.70624E-04-3.49072E-18-9.75783E-22
 -1       674-5.94305E-05-3.73711E-05 1.61935E-34 1.70808E-04-1.65234E-18 4.88917E-21
 -1       675-5.05218E-06-6.31721E-05 3.58132E-35 1.64643E-04-2.28337E-19-2.51676E-21
 -1       676 5.01636E-05-8.55640E-05 9.25209E-35 1.53550E-04-4.29876E-19-1.65455E-19
 -1       677 1.07225E-04-1.05603E-04 7.31316E-35 1.38435E-04 4.75703E-18 1.49792E-19
 -1       678 1.68376E-04-1.25247E-04 9.18115E-35 1.19202E-04-1.45753E-18 1.13834E-19
 -1       679 2.37151E-04-1.47325E-04 7.04458E-35 9.42085E-05-1.35442E-19-1.99852E-20
 -1       680 3.18840E-04-1.75798E-04 1.44906E-34 5.91807E-05-2.68952E-18-6.10505E-20
 -1       681-3.03272E-04 1.30273E-04 1.51641E-35 7.84615E-06 3.83970E-18-4.54604E-19
 -1       682-3.15959E-04 1.34825E-04 1.43226E-35 2.65881E-05-2.94543E-18-1.68872E-19
 -1       683-3.21862E-04 1.33425E-04 4.10244E-35 5.46953E-05-1.07016E-18-1.62143E-19
 -1       684-3.15826E-04 1.22423E-04 1.11542E-34 8.89575E-05 1.30444E-18-2.22891E-19
 -1       685-2.94735E-04 1.00391E-04 6.34277E-35 1.24038E-04-6.84454E-18-5.62778E-20
 -1       686-2.58708E-04 6.89434E-05 4.61900E-36 1.54015E-04-5.57745E-19 2.57018E-20
 -1       687-2.11034E-04 3.22198E-05 9.42926E-35 1.74540E-04 6.18303E-19 5.74924E-22
 -1       688-1.56581E-04-4.87417E-06-1.39676E-35 1.84081E-04 2.89419E-18 1.06081E-20
 -1       689-9.98217E-05-3.84415E-05 2.34203E-35 1.83688E-04-2.05159E-18 7.59910E-21
 -1       690-4.35712E-05-6.64830E-05 4.71102E-35 1.75816E-04-1.03877E-19 6.70869E-21
 -1       691 1.12970E-05-8.88395E-05 9.21323E-35 1.63075E-04 2.10039E-18-8.08918E-20
 -1       692 6.55427E-05-1.06679E-04 8.15219E-35 1.47419E-04-8.63166E-19-6.81736E-20
 -1       693 1.21165E-04-1.22004E-04 7.63164E-35 1.29779E-04-2.08222E-19-1.03914E-19
 -1       694 1.81228E-04-1.37427E-04 9.21241E-35 1.09896E-04 7.94017E-19 7.88048E-20
 -1       695 2.50057E-04-1.56280E-04 9.91301E-35 8.60002E-05-2.15014E-19 1.24641E-19
 -1       696 3.34062E-04-1.83163E-04 1.79066E-34 5.38798E-05-7.43794E-19-2.61971E-19
 -1       697-3.24321E-04 1.39402E-04-8.27743E-36 9.29840E-06 9.23217E-20-5.18802E-20
 -1       698-3.48639E-04 1.47564E-04 1.01698E-34 3.68380E-05 3.73381E-18 3.91452E-19
 -1       699-3.59066E-04 1.43459E-04 1.26636E-34 7.78844E-05 2.97503E-18 9.98490E-20
 -1       700-3.48186E-04 1.22642E-04 7.87264E-36 1.24184E-04 1.28736E-18 1.54805E-19
 -1       701-3.14447E-04 8.62372E-05 2.13769E-35 1.65324E-04-1.46600E-19 5.30284E-20
 -1       702-2.62817E-04 4.08156E-05 6.25630E-35 1.93219E-04 1.06822E-18-4.04272E-20
 -1       703-2.01657E-04-5.30689E-06 4.98763E-35 2.05101E-04 1.11608E-18-4.09584E-20
 -1       704-1.38643E-04-4.57120E-05 7.50807E-35 2.03035E-04 5.23723E-18-1.56556E-20
 -1       705-7.83999E-05-7.74317E-05-3.34692E-36 1.91407E-04 3.37294E-19 8.81761E-21
 -1       706-2.23646E-05-1.00452E-04 3.00063E-35 1.74586E-04-2.05563E-18 1.37153E-20
 -1       707 3.02727E-05-1.16492E-04 7.85451E-35 1.55740E-04 2.50706E-18-2.82283E-20
 -1       708 8.16196E-05-1.28013E-04 3.89174E-35 1.36594E-04-1.49129E-18 7.62364E-20
 -1       709 1.34562E-04-1.37727E-04 5.64425E-35 1.17597E-04-5.47201E-18-1.06798E-19
 -1       710 1.92736E-04-1.48576E-04 5.96110E-35 9.80678E-05-4.78522E-18-9.25804E-21
 -1       711 2.60976E-04-1.64102E-04 1.15984E-34 7.60580E-05-3.34380E-18 2.41632E-19
 -1       712 3.46515E-04-1.89274E-04 2.00761E-35 4.75229E-05-2.02984E-18-1.58885E-20
 -1       713-3.52914E-04 1.52210E-04 4.70973E-35 1.32968E-05 1.52072E-18-6.19464E-21
 -1       714-3.93027E-04 1.63199E-04 2.01278E-35 5.78239E-05-3.09009E-18 2.49188E-19
 -1       715-4.04567E-04 1.49679E-04 5.20572E-35 1.20195E-04-3.21372E-18 1.83298E-20
 -1       716-3.78553E-04 1.08373E-04 2.31520E-35 1.80574E-04 1.77408E-18 2.12592E-20
 -1       717-3.21774E-04 4.98518E-05 2.73603E-35 2.21833E-04-1.71445E-18-9.92701E-20
 -1       718-2.49486E-04-1.06495E-05 7.19901E-35 2.37806E-04-1.42154E-18-8.22294E-20
 -1       719-1.75875E-04-6.16423E-05 4.09235E-35 2.32562E-04 2.81663E-18-2.53259E-20
 -1       720-1.08706E-04-9.86966E-05 9.43869E-35 2.14270E-04-3.07536E-19 2.84263E-21
 -1       721-4.98727E-05-1.22597E-04-1.73079E-35 1.90326E-04 1.03265E-18 1.16054E-20
 -1       722 2.09001E-06-1.36454E-04-1.95012E-36 1.65563E-04-2.15829E-19-1.58906E-20
 -1       723 5.00016E-05-1.43832E-04 2.61973E-35 1.42391E-04-3.99229E-19-6.44370E-21
 -1       724 9.70558E-05-1.47988E-04 1.15891E-35 1.21526E-04-1.33632E-18-5.97054E-20
 -1       725 1.46620E-04-1.51825E-04 1.41554E-35 1.02596E-04 2.72606E-18 7.14533E-20
 -1       726 2.02539E-04-1.58215E-04 4.75809E-35 8.44389E-05-1.10172E-19 1.24322E-20
 -1       727 2.69862E-04-1.70623E-04 1.41284E-34 6.49872E-05 6.37874E-18 1.43979E-19
 -1       728 3.56373E-04-1.94167E-04 4.74634E-35 4.05065E-05 6.82119E-19 8.67181E-20
 -1       729-3.95746E-04 1.69811E-04 1.04490E-34 2.28290E-05 1.77227E-18-1.26011E-19
 -1       730-4.57417E-04 1.81216E-04 4.22353E-35 1.02056E-04-9.92275E-19 2.35409E-19
 -1       731-4.55629E-04 1.40032E-04 3.43936E-35 1.96746E-04-8.71243E-20 1.65506E-19
 -1       732-3.94379E-04 6.17185E-05 3.81726E-35 2.64747E-04 1.15038E-18 7.10928E-20
 -1       733-3.02966E-04-2.33997E-05 9.08250E-35 2.89072E-04 1.56031E-19-3.51889E-20
 -1       734-2.10989E-04-9.14580E-05 1.05658E-34 2.77904E-04-3.32110E-18-2.74355E-20
 -1       735-1.32479E-04-1.35743E-04 1.63242E-35 2.47874E-04 1.00035E-18-5.77621E-21
 -1       736-6.91598E-05-1.59699E-04 4.39417E-35 2.12182E-04 3.62239E-18-2.35887E-21
 -1       737-1.75324E-05-1.69586E-04 6.12627E-35 1.78063E-04-2.08972E-18 7.65981E-22
 -1       738 2.69898E-05-1.71131E-04-9.93567E-36 1.48395E-04-2.56570E-19-3.16402E-20
 -1       739 6.85567E-05-1.68667E-04 3.66505E-35 1.23640E-04-4.50534E-19-6.24450E-20
 -1       740 1.10714E-04-1.65343E-04 9.54782E-35 1.03126E-04 1.87220E-18 7.58594E-20
 -1       741 1.56777E-04-1.63659E-04 4.22856E-35 8.56696E-05-9.01004E-19 6.06048E-20
 -1       742 2.10457E-04-1.66080E-04 9.48345E-35 6.97590E-05 1.70036E-18 1.17669E-20
 -1       743 2.76792E-04-1.75801E-04-1.27444E-35 5.33578E-05-3.90095E-18-1.89564E-19
 -1       744 3.63893E-04-1.97934E-04 8.01104E-35 3.31897E-05-5.63034E-18 9.02996E-20
 -1       745-4.72022E-04 2.07636E-04 2.89476E-36 4.91760E-05 2.57092E-19 1.83067E-19
 -1       746-5.45484E-04 1.89199E-04 9.40896E-35 1.97272E-04 2.08935E-18 1.22894E-19
 -1       747-4.95548E-04 8.32705E-05 3.28578E-35 3.27927E-04 8.32385E-19 1.01851E-19
 -1       748-3.68220E-04-4.90716E-05 2.51913E-35 3.72901E-04 2.48637E-18 1.05054E-20
 -1       749-2.41722E-04-1.46791E-04 1.69896E-35 3.49096E-04 2.57433E-18 1.22056E-20
 -1       750-1.44885E-04-1.99820E-04 8.16585E-35 2.96922E-04 3.40856E-18 1.00957E-20
 -1       751-7.58032E-05-2.20256E-04 6.37135E-35 2.41486E-04-3.32992E-18 8.78101E-21
 -1       752-2.55349E-05-2.21534E-04 4.96866E-35 1.93152E-04-1.84045E-18 8.31205E-21
 -1       753 1.42658E-05-2.13280E-04 6.53348E-37 1.54297E-04-2.39177E-18 2.85330E-21
 -1       754 4.95424E-05-2.01396E-04 3.54848E-35 1.24094E-04-9.66029E-19-8.21732E-21
 -1       755 8.43788E-05-1.89350E-04 1.00398E-35 1.00790E-04-2.86946E-19-3.73246E-20
 -1       756 1.21838E-04-1.79301E-04 5.76942E-35 8.25650E-05-1.12643E-18-1.65170E-20
 -1       757 1.64752E-04-1.72928E-04 4.58149E-35 6.77419E-05 5.02985E-18-8.01984E-20
 -1       758 2.16487E-04-1.72112E-04 1.06642E-34 5.47136E-05 5.99245E-18-3.90264E-20
 -1       759 2.81934E-04-1.79694E-04-3.57751E-36 4.16536E-05 3.46865E-18 2.86974E-20
 -1       760 3.69379E-04-2.00702E-04 7.06754E-35 2.58678E-05 1.90358E-18-2.34238E-20
 -1       761-6.07026E-04 2.28363E-04-7.78925E-36 1.19919E-04-2.05483E-18-7.46491E-20
 -1       762-6.69004E-04 1.40299E-04 2.75216E-35 4.25055E-04 1.16651E-18-2.93960E-20
 -1       763-4.58437E-04-9.93958E-05 2.18073E-35 5.22096E-04-2.86372E-18-4.03884E-20
 -1       764-2.59408E-04-2.57753E-04 1.27382E-34 4.66385E-04 1.76372E-18-5.75948E-21
 -1       765-1.33727E-04-3.15565E-04 3.09022E-35 3.67496E-04-5.84019E-19 3.00105E-21
 -1       766-6.03899E-05-3.20677E-04 4.47314E-35 2.77399E-04 5.91256E-20 2.71895E-21
 -1       767-1.60894E-05-3.02214E-04-9.80021E-36 2.08015E-04-2.71979E-18-6.05016E-21
 -1       768 1.50133E-05-2.75985E-04 2.95250E-35 1.57379E-04-1.20211E-18-2.00090E-20
 -1       769 4.13785E-05-2.49220E-04 3.12298E-35 1.20974E-04-1.70215E-18-5.11421E-21
 -1       770 6.76402E-05-2.25106E-04 2.78912E-35 9.47168E-05 1.37324E-19 2.17994E-20
 -1       771 9.65290E-05-2.04994E-04 5.38889E-35 7.54999E-05-3.52250E-18 5.03527E-20
 -1       772 1.30105E-04-1.89590E-04-2.53821E-35 6.10465E-05-6.34578E-19 4.27326E-20
 -1       773 1.70528E-04-1.79632E-04-4.25121E-35 4.96439E-05 1.03563E-18-6.03221E-20
 -1       774 2.20759E-04-1.76408E-04 4.77150E-35 3.98657E-05 1.46620E-18 3.43651E-20
 -1       775 2.85510E-04-1.82428E-04 4.33590E-35 3.02493E-05-2.24676E-18-9.22040E-20
 -1       776 3.73151E-04-2.02617E-04 2.32634E-35 1.87636E-05-3.21950E-18-2.03569E-19
 -1       777-9.85669E-04 4.26610E-04-3.33568E-35 4.41803E-04 4.84247E-20 7.99454E-20
 -1       778-6.28655E-04-2.32994E-04 5.35200E-35 8.43088E-04-1.65256E-18 2.43380E-21
 -1       779-2.22301E-04-5.24229E-04 1.44015E-35 6.81540E-04-4.11813E-18-1.17597E-20
 -1       780-6.53180E-05-5.41518E-04-1.81400E-35 4.61107E-04 2.56948E-18 1.22180E-20
 -1       781-2.74345E-06-4.92985E-04 1.93471E-36 3.09636E-04 1.50980E-18 1.28137E-20
 -1       782 2.10276E-05-4.28000E-04 2.12789E-35 2.12302E-04 6.88394E-21-9.08158E-21
 -1       783 3.41961E-05-3.67755E-04-6.83589E-36 1.49859E-04-1.17539E-18 4.72952E-21
 -1       784 4.62006E-05-3.16521E-04-1.19745E-35 1.09003E-04-3.84878E-19 4.93061E-22
 -1       785 6.10231E-05-2.74707E-04 1.03239E-34 8.16131E-05-1.27560E-18-1.23308E-20
 -1       786 8.02145E-05-2.41355E-04 1.30826E-35 6.27657E-05-8.89600E-19 5.91949E-21
 -1       787 1.04724E-04-2.15457E-04 5.31648E-35 4.94197E-05 1.67010E-18 2.09389E-20
 -1       788 1.35559E-04-1.96354E-04 3.19219E-35 3.96230E-05 2.38742E-18 3.94811E-20
 -1       789 1.74273E-04-1.83982E-04-1.10042E-35 3.20387E-05 6.17956E-19-2.70363E-20
 -1       790 2.23491E-04-1.79169E-04 3.89103E-35 2.56336E-05 7.17026E-19-2.79059E-20
 -1       791 2.87770E-04-1.84169E-04-3.32718E-35 1.94091E-05-2.74896E-18-8.00046E-21
 -1       792 3.75514E-04-2.03822E-04 1.68276E-34 1.20302E-05 4.87157E-18 1.81468E-20
 -1       793-9.42887E-04-8.97340E-04 8.82050E-36 2.17239E-03 9.38914E-20-2.74523E-21
 -1       794 1.65423E-04-1.34544E-03 5.07485E-35 1.04789E-03 1.49882E-18-2.06686E-20
 -1       795 1.45028E-04-1.01375E-03 9.44923E-35 5.10066E-04 1.72710E-18-7.89958E-21
 -1       796 1.37445E-04-7.93604E-04 3.63632E-36 2.86469E-04 1.05378E-18-3.56792E-21
 -1       797 9.94036E-05-6.20962E-04 4.07926E-35 1.73299E-04 2.77095E-19 2.16304E-21
 -1       798 7.69972E-05-4.98310E-04 3.46120E-35 1.12161E-04 2.41710E-18-6.72090E-21
 -1       799 6.56068E-05-4.07694E-04 1.48391E-34 7.64040E-05-5.79612E-19 8.09151E-21
 -1       800 6.46895E-05-3.40182E-04 2.18718E-35 5.43531E-05-1.74892E-18-4.06980E-21
 -1       801 7.22304E-05-2.89131E-04 6.20967E-35 4.01076E-05 1.12973E-18-4.31774E-21
 -1       802 8.72147E-05-2.50362E-04 6.18217E-35 3.05466E-05 3.75221E-18 1.29414E-21
 -1       803 1.09205E-04-2.21173E-04 3.85745E-35 2.38927E-05-1.09586E-18-5.94152E-22
 -1       804 1.38503E-04-2.00009E-04 8.51276E-35 1.90702E-05 2.84266E-19-3.29870E-21
 -1       805 1.76275E-04-1.86315E-04 2.34016E-36 1.53733E-05-2.29293E-18 1.21653E-20
 -1       806 2.24938E-04-1.80640E-04 4.29921E-35 1.22758E-05 1.54272E-18-1.09720E-20
 -1       807 2.88959E-04-1.85092E-04 7.13209E-35 9.28445E-06-6.69846E-20-3.38712E-20
 -1       808 3.76753E-04-2.04458E-04-4.73027E-35 5.75220E-06-2.82600E-18-1.77484E-20
 -1       809-3.78921E-03-4.87926E-03 1.58306E-35-5.12954E-04-2.42075E-18 2.41308E-20
 -1       810-8.23458E-04-2.50084E-03 3.52681E-35-3.02745E-03-6.20951E-19 1.36488E-20
 -1       811 9.43503E-04-5.25059E-03 3.09784E-35-1.77364E-03 1.65224E-18 1.98190E-20
 -1       812-7.74873E-06-4.96400E-03 6.37272E-35 5.53739E-04 7.85641E-19 1.50653E-20
 -1       813 5.80845E-04-2.99225E-03 1.08759E-35-2.17637E-03 1.51234E-19-1.23192E-20
 -1       814 1.28171E-03-3.54649E-03 2.62681E-35-9.09605E-04-1.10332E-18 3.75196E-20
 -1       815 1.82636E-03-4.78271E-03 3.25933E-35-1.34319E-04-1.90356E-18-9.09976E-22
 -1       816 9.49183E-04-2.57426E-03 1.14114E-35-1.18663E-03-4.62093E-19-3.03506E-20
 -1       817 1.09470E-03-2.57180E-03 3.26391E-35-4.56398E-04 1.75753E-18 5.90964E-21
 -1       818 1.42586E-03-3.21760E-03 4.90893E-35 1.45244E-06 1.29027E-18-2.60356E-21
 -1       819 8.89118E-04-2.07327E-03 1.95065E-35-6.40127E-04 1.64240E-19 4.79683E-20
 -1       820 8.90761E-04-1.94442E-03 6.68567E-36-2.45397E-04-2.88870E-20-7.93926E-21
 -1       821 1.07338E-03-2.32152E-03 3.65542E-35-1.37612E-06 1.88105E-18-1.17487E-20
 -1       822 7.68105E-04-1.66139E-03 2.55825E-35-3.64444E-04 1.33711E-19 1.83779E-20
 -1       823 7.35782E-04-1.53076E-03 1.35281E-35-1.42161E-04-2.26361E-18 1.75586E-20
 -1       824 8.45012E-04-1.76507E-03 4.46023E-36 9.21533E-07-1.70793E-18-5.10991E-21
 -1       825 6.55939E-04-1.35203E-03 1.82489E-35-2.18496E-04 6.56586E-19-5.36300E-20
 -1       826 6.20755E-04-1.24260E-03 6.23500E-36-8.65405E-05-3.53294E-19-2.24723E-21
 -1       827 6.90725E-04-1.39934E-03-2.69063E-36 8.07954E-07-6.96189E-19-6.96714E-22
 -1       828 5.65916E-04-1.12116E-03 1.09015E-35-1.36055E-04-1.63010E-18-2.71751E-21
 -1       829 5.34685E-04-1.03329E-03 8.27338E-36-5.45696E-05-7.41878E-19-7.23786E-21
 -1       830 5.82709E-04-1.14421E-03 1.53508E-35 5.41855E-07 6.84645E-19-7.60243E-22
 -1       831 4.95146E-04-9.46319E-04 4.71550E-36-8.70299E-05-6.62476E-19-1.11121E-20
 -1       832 4.69048E-04-8.76333E-04 3.22478E-36-3.51802E-05 3.69239E-19-2.89294E-22
 -1       833 5.03618E-04-9.58050E-04 8.61353E-36 3.77854E-07 5.51057E-19-3.81030E-21
 -1       834 4.39538E-04-8.11594E-04 3.18438E-36-5.65400E-05 6.22684E-19-1.07736E-20
 -1       835 4.18113E-04-7.55701E-04 2.69660E-36-2.29326E-05-1.57243E-19-6.81227E-21
 -1       836 4.43936E-04-8.17746E-04 1.18620E-35 2.55953E-07-1.96207E-19 1.02610E-21
 -1       837 3.95519E-04-7.06203E-04 3.71935E-36-3.69274E-05 2.85312E-20 9.99726E-21
 -1       838 3.78047E-04-6.61376E-04 5.65779E-36-1.49535E-05 1.16741E-18-2.80919E-21
 -1       839 3.97837E-04-7.09479E-04 6.68326E-37 1.80075E-07-8.72599E-20-8.66390E-22
 -1       840 3.60457E-04-6.22869E-04 2.79875E-36-2.39777E-05-3.08778E-19-1.51238E-21
 -1       841 3.46262E-04-5.86833E-04 1.65267E-36-9.63579E-06-3.52532E-19 4.68339E-21
 -1       842 3.61680E-04-6.24620E-04 3.34217E-36 1.29366E-07 5.29189E-20-2.28702E-21
 -1       843 3.32457E-04-5.56641E-04 4.05673E-36-1.52688E-05-6.49872E-21 5.98232E-21
 -1       844 3.21000E-04-5.27740E-04 1.28971E-36-6.03832E-06-3.62728E-19-2.87374E-22
 -1       845 3.33095E-04-5.57568E-04 2.47128E-36 9.61989E-08 1.99088E-19 1.61205E-21
 -1       846 3.10195E-04-5.04147E-04 4.78203E-36-9.34945E-06 4.50486E-20 1.02785E-22
 -1       847 3.01072E-04-4.81210E-04 3.07141E-36-3.58979E-06 1.30486E-19-1.66857E-21
 -1       848 3.10517E-04-5.04624E-04 1.71320E-36 7.40147E-08 2.57155E-19 1.70792E-21
 -1       849 2.92771E-04-4.63144E-04 2.75042E-36-5.32578E-06-2.50485E-19 1.02526E-21
 -1       850 2.85706E-04-4.45399E-04 2.24426E-36-1.93583E-06-3.00376E-19-9.41580E-22
 -1       851 2.92924E-04-4.63377E-04 2.33463E-36 6.03615E-08 4.43908E-19-9.92181E-22
 -1       852 2.79642E-04-4.32270E-04 3.89484E-36-2.64063E-06 3.54178E-21 3.43931E-21
 -1       853 2.74453E-04-4.19317E-04 3.74955E-36-8.57599E-07 1.26619E-19 2.09356E-22
 -1       854 2.79707E-04-4.32371E-04 1.41781E-36 4.97683E-08 3.45262E-19 2.77097E-22
 -1       855 2.70591E-04-4.10918E-04 1.34848E-36-9.56376E-07-1.17944E-19-1.94815E-21
 -1       856 2.66955E-04-4.02325E-04 1.55432E-36-2.38838E-07 1.03445E-20-5.46731E-22
 -1       857 2.70612E-04-4.10953E-04 3.15167E-36 5.70011E-08-5.87267E-20-3.77354E-22
 -1       858 2.65870E-04-3.99489E-04 2.44188E-36-9.95332E-08-3.19394E-19 7.63585E-23
 -1       859 2.65876E-04-3.99496E-04 1.37597E-36 2.44130E-08-9.31063E-20 2.15010E-22
 -1       860-2.33022E-04 3.05311E-04-4.21672E-37-2.77583E-04 1.60389E-18-1.30681E-20
 -1       861-1.14319E-03 1.64684E-04 4.32986E-36-4.55424E-04 1.65016E-18-2.09541E-20
 -1       862-7.86355E-04-7.57972E-04 5.58786E-35-2.37458E-03 1.16401E-19-1.40707E-22
 -1       863-8.09196E-04-5.53180E-04 2.65806E-35-1.63965E-03-1.13867E-18 6.54774E-21
 -1       864 2.36199E-04-1.89406E-03 1.25233E-35-1.76765E-03 4.15874E-19-3.93997E-20
 -1       865 5.23163E-05-1.30491E-03 1.45156E-36-1.46119E-03-1.00071E-18 6.10966E-20
 -1       866 6.19119E-04-1.91391E-03 1.20491E-35-1.09790E-03 1.66876E-19 1.11610E-19
 -1       867 4.50259E-04-1.46655E-03 8.41960E-36-1.00258E-03 6.25505E-19 1.01429E-19
 -1       868 6.79011E-04-1.66524E-03 1.02082E-35-6.59712E-04 1.44153E-19-1.73814E-20
 -1       869 5.54552E-04-1.37086E-03 5.84263E-36-6.45066E-04-1.66997E-19 4.05629E-20
 -1       870 6.36559E-04-1.40233E-03 1.23349E-35-4.04431E-04 1.02401E-18 4.24003E-21
 -1       871 5.51709E-04-1.20968E-03 6.91460E-36-4.13062E-04-9.70479E-20 4.98999E-20
 -1       872 5.72160E-04-1.17989E-03 1.86553E-35-2.54171E-04-6.37579E-19-2.08373E-20
 -1       873 5.13185E-04-1.04887E-03 4.96897E-36-2.67170E-04 5.97803E-19-1.22698E-20
 -1       874 5.09982E-04-1.00140E-03 1.02252E-35-1.63275E-04 7.62287E-19-4.87471E-20
 -1       875 4.67842E-04-9.08593E-04 3.21964E-36-1.74761E-04 7.08337E-19 5.28221E-21
 -1       876 4.56154E-04-8.59620E-04 1.45626E-36-1.06454E-04-3.30816E-19 1.30075E-20
 -1       877 4.25118E-04-7.91503E-04 4.77200E-36-1.15118E-04 5.37690E-19-1.35127E-20
 -1       878 4.11279E-04-7.46796E-04 5.69795E-36-6.98857E-05-1.19165E-19 1.60150E-20
 -1       879 3.87841E-04-6.95394E-04 3.91215E-36-7.58460E-05-3.65808E-19 9.64103E-21
 -1       880 3.74409E-04-6.56605E-04 2.78998E-36-4.57778E-05 5.95790E-19 1.31330E-20
 -1       881 3.56376E-04-6.17054E-04 6.37836E-36-4.95290E-05-2.74157E-19 4.32106E-20
 -1       882 3.44341E-04-5.84296E-04 3.31246E-36-2.95866E-05-5.89876E-20 9.45390E-21
 -1       883 3.30321E-04-5.53552E-04 5.14899E-36-3.16580E-05-3.55314E-19 2.96523E-21
 -1       884 3.20008E-04-5.26422E-04 1.77103E-36-1.85773E-05-2.41977E-19 1.31185E-20
 -1       885 3.09111E-04-5.02553E-04 2.81017E-36-1.94336E-05 2.24113E-19-5.63597E-21
 -1       886 3.00583E-04-4.80558E-04 5.03308E-36-1.10587E-05 9.54362E-21-5.51916E-21
 -1       887 2.92254E-04-4.62366E-04 2.00505E-36-1.10889E-05 7.19519E-20-5.45860E-21
 -1       888 2.85485E-04-4.45106E-04 2.34489E-36-5.96860E-06 1.56261E-19-8.06408E-21
 -1       889 2.79422E-04-4.31929E-04 2.44276E-36-5.50475E-06-8.14191E-20 7.54286E-21
 -1       890 2.74371E-04-4.19212E-04 1.54031E-36-2.64550E-06-1.06149E-19-9.60233E-22
 -1       891 2.70519E-04-4.10801E-04 1.72860E-36-1.99658E-06-1.90368E-20-1.14272E-22
 -1       892 2.66944E-04-4.02314E-04 8.83754E-37-7.36408E-07-1.54862E-19-2.24408E-21
 -1       893 2.65854E-04-3.99465E-04 1.09837E-36-2.09375E-07 4.02097E-20-9.81707E-22
 -1       894-2.58542E-05 1.48606E-04 1.18085E-35 1.01102E-04-1.63571E-18 4.93551E-20
 -1       895-4.09161E-04 1.46819E-04 4.31883E-36-1.38840E-04-3.65976E-19 3.62488E-20
 -1       896-9.14748E-04 2.42453E-04 1.20481E-35-7.68839E-04-5.02354E-19 1.95157E-20
 -1       897-7.14052E-04 2.51097E-05 1.63824E-35-7.44493E-04-8.43686E-19 6.87911E-21
 -1       898-4.65291E-04-5.31833E-04 1.36334E-35-1.32207E-03-1.98146E-19-5.28280E-20
 -1       899-3.92311E-04-4.52451E-04 1.03635E-35-1.06576E-03-1.26084E-18-8.17313E-20
 -1       900 6.27370E-05-1.04182E-03 1.53177E-35-1.18091E-03-9.03928E-19 8.82542E-20
 -1       901 3.00570E-05-8.32915E-04 3.97004E-36-9.89452E-04-6.22053E-19-5.06473E-20
 -1       902 3.50854E-04-1.19669E-03 1.04068E-35-8.64960E-04 4.26329E-20 5.93638E-21
 -1       903 2.84910E-04-9.87642E-04 9.34232E-36-7.63697E-04 2.77987E-19 8.96733E-20
 -1       904 4.58294E-04-1.15961E-03 1.11425E-35-5.92139E-04-6.30815E-19-4.61151E-20
 -1       905 3.95762E-04-9.92974E-04 8.10517E-36-5.44337E-04 5.07392E-19-2.50622E-20
 -1       906 4.77004E-04-1.05311E-03 3.22189E-36-3.97055E-04-1.49091E-19 1.36071E-20
 -1       907 4.26626E-04-9.29194E-04 9.73615E-36-3.75685E-04 3.63640E-19-3.60710E-20
 -1       908 4.59020E-04-9.34159E-04 7.65746E-36-2.65225E-04-4.73147E-19 1.75584E-21
 -1       909 4.20280E-04-8.42740E-04 6.23041E-36-2.55798E-04 5.25729E-19-3.00194E-20
 -1       910 4.28677E-04-8.23460E-04 1.08851E-35-1.77177E-04-1.44287E-18 3.22010E-20
 -1       911 3.99083E-04-7.55247E-04 5.55955E-36-1.72831E-04 3.87519E-20-1.23473E-19
 -1       912 3.96409E-04-7.27203E-04 4.35568E-36-1.18131E-04 3.02375E-19-1.80212E-20
 -1       913 3.73647E-04-6.75460E-04 2.78272E-36-1.15751E-04-4.68170E-19 2.61206E-20
 -1       914 3.66384E-04-6.45993E-04 2.51052E-36-7.81636E-05-5.34051E-19 1.20242E-20
 -1       915 3.48716E-04-6.06175E-04 3.06918E-36-7.64051E-05-2.55591E-19 9.81568E-21
 -1       916 3.40063E-04-5.78611E-04 3.71566E-36-5.08547E-05-3.63532E-19-1.58148E-20
 -1       917 3.26268E-04-5.47715E-04 4.07249E-36-4.91863E-05 3.52819E-19-1.55499E-20
 -1       918 3.17787E-04-5.23454E-04 2.68097E-36-3.20729E-05-4.27540E-19 6.22714E-21
 -1       919 3.07043E-04-4.99521E-04 3.68269E-36-3.03378E-05 1.46581E-19-1.35121E-20
 -1       920 2.99483E-04-4.79084E-04 3.14839E-36-1.91486E-05 1.89423E-19 3.59503E-22
 -1       921 2.91262E-04-4.60881E-04 4.12002E-36-1.73664E-05-1.16334E-19-1.37812E-21
 -1       922 2.84986E-04-4.44442E-04 2.00258E-36-1.03547E-05-1.46042E-19 6.05808E-21
 -1       923 2.78999E-04-4.31277E-04 2.86527E-36-8.63976E-06 1.18686E-19-9.33480E-21
 -1       924 2.74185E-04-4.18971E-04 1.82422E-36-4.59471E-06 1.70750E-19 8.42749E-21
 -1       925 2.70380E-04-4.10577E-04 1.68147E-36-3.13941E-06-1.67469E-21-3.52473E-21
 -1       926 2.66919E-04-4.02289E-04 1.29282E-36-1.27767E-06-1.38050E-19-2.13743E-22
 -1       927 2.65822E-04-3.99418E-04 1.40574E-36-3.32492E-07-2.29597E-19 1.42826E-21
 -1       928-5.16363E-06 1.92865E-06 5.80867E-36 1.80987E-05-9.48004E-19-2.74642E-19
 -1       929-2.01922E-04 7.98214E-05 1.07811E-35-6.18277E-05 8.32436E-19 5.07848E-20
 -1       930-5.11052E-04 1.83723E-04 1.98039E-35-2.92207E-04 1.15125E-18 4.22719E-20
 -1       931-4.68179E-04 1.01189E-04 1.13168E-35-3.59732E-04-2.75118E-19 2.86365E-20
 -1       932-5.43821E-04-1.94050E-05 1.07661E-36-7.44331E-04-5.34412E-19-1.57480E-20
 -1       933-4.25616E-04-1.05723E-04 3.60298E-36-6.65901E-04 8.18377E-19-5.05988E-20
 -1       934-2.45264E-04-4.31121E-04 7.44408E-36-9.20189E-04-5.27989E-19 3.52890E-20
 -1       935-1.89940E-04-4.02478E-04 3.84681E-36-7.85772E-04 7.04810E-19 1.78646E-20
 -1       936 5.94810E-05-7.29409E-04 1.02103E-35-8.43242E-04 6.09705E-20 5.05794E-20
 -1       937 5.94492E-05-6.33656E-04 9.19670E-36-7.28476E-04-7.16934E-19 2.82485E-21
 -1       938 2.54728E-04-8.60760E-04 5.35794E-36-6.66963E-04-4.13382E-19 4.60012E-20
 -1       939 2.29332E-04-7.50377E-04 2.35005E-36-5.90506E-04-3.35224E-19-3.42261E-22
 -1       940 3.50938E-04-8.76651E-04 1.36303E-35-4.90517E-04 1.58764E-19 9.11096E-20
 -1       941 3.19470E-04-7.77489E-04 8.37045E-36-4.44125E-04-5.69675E-19 6.18437E-20
 -1       942 3.85018E-04-8.33169E-04 6.75694E-36-3.47634E-04-4.89528E-19-8.68234E-20
 -1       943 3.55713E-04-7.52250E-04 7.97130E-36-3.20062E-04 7.41718E-20-4.74171E-20
 -1       944 3.86376E-04-7.66484E-04 4.60367E-36-2.41305E-04-4.27225E-19 5.20600E-20
 -1       945 3.61569E-04-7.02709E-04 4.40805E-36-2.24519E-04 3.75693E-19-4.54620E-20
 -1       946 3.72625E-04-6.95346E-04 6.93247E-36-1.64981E-04 7.29536E-20 1.29176E-20
 -1       947 3.52384E-04-6.45532E-04 2.46020E-36-1.54167E-04-1.40973E-19 4.48550E-20
 -1       948 3.53220E-04-6.28376E-04 6.46016E-36-1.10995E-04 3.89754E-19 2.15329E-20
 -1       949 3.36938E-04-5.89447E-04 2.58957E-36-1.03475E-04 3.84761E-19 2.58440E-20
 -1       950 3.32925E-04-5.69041E-04 7.38752E-36-7.30235E-05 3.67301E-19 2.08531E-20
 -1       951 3.19928E-04-5.38594E-04 3.07300E-36-6.73652E-05 5.96049E-19-6.94153E-21
 -1       952 3.14037E-04-5.18411E-04 4.21492E-36-4.63992E-05-4.61405E-19 4.22832E-21
 -1       953 3.03768E-04-4.94730E-04 4.00435E-36-4.18663E-05 8.31433E-20 7.63635E-20
 -1       954 2.97611E-04-4.76563E-04 5.83474E-36-2.78403E-05-1.28096E-19-9.08128E-21
 -1       955 2.89679E-04-4.58515E-04 2.76933E-36-2.40879E-05 2.97212E-19 2.44550E-21
 -1       956 2.84133E-04-4.43300E-04 2.04951E-36-1.51037E-05-9.19354E-20 2.14691E-20
 -1       957 2.78321E-04-4.30234E-04 2.80319E-36-1.20247E-05 2.11127E-19-1.61617E-20
 -1       958 2.73865E-04-4.18557E-04 2.01777E-36-6.71473E-06-9.60949E-20-1.21841E-20
 -1       959 2.70157E-04-4.10218E-04 1.71320E-36-4.38033E-06 1.04668E-20 3.55806E-21
 -1       960 2.66876E-04-4.02244E-04 9.58450E-37-1.86394E-06-2.36467E-20 4.89163E-22
 -1       961 2.65772E-04-3.99345E-04 1.56514E-36-4.70165E-07 3.17002E-19-4.29090E-22
 -1       962-3.85552E-06 9.11915E-06 1.03765E-36 7.56730E-06-4.41656E-20 2.55244E-20
 -1       963-1.15438E-04 4.56134E-05 1.39493E-36-3.70667E-05-3.39778E-19 7.20210E-20
 -1       964-2.93073E-04 1.07829E-04 5.43384E-36-1.43207E-04-4.85334E-19-4.27040E-20
 -1       965-2.98871E-04 8.19836E-05 1.72677E-36-2.00520E-04 7.06663E-20-9.31928E-20
 -1       966-4.10626E-04 6.51537E-05 3.38618E-36-4.09490E-04-3.91184E-21 1.74782E-20
 -1       967-3.44950E-04 2.69640E-06 1.26833E-35-4.10546E-04-5.30727E-20-6.90840E-21
 -1       968-3.16277E-04-1.38368E-04 8.03251E-36-6.28144E-04 5.67349E-19 6.67364E-20
 -1       969-2.47121E-04-1.74588E-04 1.20565E-35-5.66346E-04 8.93425E-19 4.04851E-20
 -1       970-1.12596E-04-3.90469E-04 1.82212E-36-6.96318E-04 4.79037E-19 1.68852E-20
 -1       971-7.53408E-05-3.74321E-04 3.27163E-36-6.11976E-04-1.12590E-18 1.10799E-19
 -1       972 8.33781E-05-5.81112E-04 1.04238E-35-6.38851E-04-9.67302E-20-3.95259E-20
 -1       973 9.08708E-05-5.29213E-04 8.02444E-36-5.63149E-04-2.13415E-19 4.62475E-20
 -1       974 2.20362E-04-6.81145E-04 7.76795E-37-5.23100E-04-6.12031E-19 7.36484E-20
 -1       975 2.10934E-04-6.16456E-04 1.58756E-36-4.66300E-04-1.35743E-19 1.37379E-19
 -1       976 2.97610E-04-7.08301E-04 1.91004E-35-3.99566E-04 7.54327E-20-1.04948E-19
 -1       977 2.81462E-04-6.45548E-04 3.40067E-36-3.60173E-04 3.93881E-19-1.34449E-20
 -1       978 3.31915E-04-6.90740E-04 7.36316E-36-2.91994E-04 5.19403E-19 4.08189E-20
 -1       979 3.14644E-04-6.36098E-04 3.82619E-36-2.65264E-04-1.75618E-19 2.02936E-20
 -1       980 3.40193E-04-6.50903E-04 3.66067E-36-2.06770E-04 2.84647E-19-4.66778E-20
 -1       981 3.24241E-04-6.05644E-04 5.78404E-36-1.88399E-04-1.85208E-19-8.99679E-20
 -1       982 3.34557E-04-6.02985E-04 2.14854E-36-1.42479E-04-2.08946E-20-5.37328E-22
 -1       983 3.20742E-04-5.66370E-04 3.64325E-36-1.29428E-04 3.04215E-20-3.45576E-21
 -1       984 3.22534E-04-5.54939E-04 3.71259E-36-9.52776E-05-2.94573E-19 1.95093E-20
 -1       985 3.10978E-04-5.25707E-04 3.82082E-36-8.56185E-05-1.11811E-19 1.03613E-20
 -1       986 3.08476E-04-5.10865E-04 4.69467E-36-6.12147E-05 7.60891E-19-1.89377E-22
 -1       987 2.99061E-04-4.87850E-04 3.42053E-36-5.37949E-05 2.46856E-19 1.23322E-20
 -1       988 2.94800E-04-4.72751E-04 2.21944E-36-3.70056E-05 6.58463E-20-9.57531E-21
 -1       989 2.87377E-04-4.55081E-04 1.83396E-36-3.11814E-05-2.11240E-19 3.91092E-20
 -1       990 2.82841E-04-4.41561E-04 8.02852E-37-2.01745E-05 4.27229E-22-9.50691E-21
 -1       991 2.77326E-04-4.28708E-04 3.29828E-36-1.56436E-05 3.13359E-19 1.61156E-20
 -1       992 2.73377E-04-4.17922E-04 2.01284E-36-8.99459E-06-6.98043E-20 2.08395E-20
 -1       993 2.69828E-04-4.09690E-04 2.19720E-36-5.71890E-06-6.39302E-20 4.00887E-21
 -1       994 2.66808E-04-4.02173E-04 2.05645E-36-2.49024E-06 2.68491E-20 6.43818E-21
 -1       995 2.65701E-04-3.99238E-04 8.14388E-37-6.25231E-07 1.60005E-19 4.05862E-22
 -1       996-4.82176E-07 7.82906E-07 4.70723E-36 3.18384E-06-1.33237E-19 1.65284E-20
 -1       997-7.20774E-05 2.81586E-05 7.50951E-36-2.53423E-05 3.12216E-19-7.74793E-20
 -1       998-1.78970E-04 6.53169E-05 6.52890E-36-8.67276E-05 1.20825E-18-1.96094E-20
 -1       999-1.95020E-04 5.75188E-05 7.88823E-36-1.24746E-04-5.44702E-20 4.32519E-21
 -1      1000-2.87900E-04 6.55380E-05 3.73994E-36-2.44596E-04-4.55045E-19 7.16193E-22
 -1      1001-2.54942E-04 2.80542E-05 3.86740E-36-2.63559E-04-1.55967E-19 1.50762E-20
 -1      1002-2.82339E-04-2.92166E-05 3.88000E-36-4.15255E-04-1.17025E-19 1.26879E-20
 -1      1003-2.29141E-04-6.98272E-05-8.50835E-37-3.97265E-04-1.18594E-19 6.63374E-20
 -1      1004-1.76632E-04-1.93446E-04 4.71818E-36-5.27442E-04-1.34196E-19-2.65095E-20
 -1      1005-1.30798E-04-2.12228E-04 7.76566E-36-4.79676E-04-3.52043E-19-3.52376E-21
 -1      1006-2.79953E-05-3.66520E-04 3.42824E-36-5.50796E-04-1.26497E-19 9.13396E-20
 -1      1007-1.48217E-06-3.56221E-04 6.02982E-36-4.92485E-04 1.17827E-19 2.52002E-20
 -1      1008 1.09444E-04-4.99050E-04 1.59646E-35-5.02298E-04 3.25106E-19-1.87380E-19
 -1      1009 1.18280E-04-4.67660E-04 6.37593E-36-4.48315E-04-1.51409E-19 7.19806E-20
 -1      1010 2.09693E-04-5.74968E-04 3.47215E-36-4.17005E-04-2.25838E-19 7.15753E-20
 -1      1011 2.07136E-04-5.34060E-04 4.56851E-36-3.73468E-04 1.22275E-19-1.21063E-20
 -1      1012 2.70552E-04-6.01772E-04 5.90593E-36-3.24101E-04-3.23638E-19 1.76518E-20
 -1      1013 2.62287E-04-5.59989E-04 5.95935E-36-2.91250E-04-1.32918E-19 3.48728E-20
 -1      1014 3.00693E-04-5.95132E-04 9.38903E-36-2.39916E-04 2.27725E-19 2.31419E-20
 -1      1015 2.90393E-04-5.57044E-04 7.08225E-36-2.15703E-04-6.02991E-19-9.79538E-21
 -1      1016 3.10569E-04-5.69630E-04 3.43658E-36-1.70597E-04-1.20480E-18 9.25561E-20
 -1      1017 3.00220E-04-5.36936E-04 2.01847E-36-1.52703E-04-2.52275E-19 7.77658E-20
 -1      1018 3.08668E-04-5.35814E-04 2.55541E-36-1.16620E-04-5.61572E-19 8.72264E-21
 -1      1019 2.99220E-04-5.08731E-04 8.87205E-37-1.03180E-04-2.61334E-19-8.56317E-20
 -1      1020 3.00860E-04-5.00402E-04 3.72847E-37-7.60803E-05-5.35066E-19 1.92902E-20
 -1      1021 2.92720E-04-4.78579E-04 1.44872E-36-6.57949E-05-8.30228E-20-3.25282E-21
 -1      1022 2.90879E-04-4.67382E-04 2.42941E-36-4.64748E-05-1.45043E-19-4.83764E-20
 -1      1023 2.84221E-04-4.50379E-04 2.48477E-36-3.85273E-05 3.79907E-20-4.31105E-20
 -1      1024 2.81015E-04-4.39085E-04 1.87681E-36-2.55123E-05-8.13676E-20 3.27614E-20
 -1      1025 2.75947E-04-4.26598E-04 1.74133E-36-1.94632E-05-2.86259E-19 1.59694E-22
 -1      1026 2.72682E-04-4.17010E-04 1.83260E-36-1.14202E-05-6.42385E-20-2.01493E-20
 -1      1027 2.69369E-04-4.08957E-04 2.20675E-36-7.14996E-06-2.34086E-20-3.21418E-21
 -1      1028 2.66707E-04-4.02066E-04 1.49999E-36-3.15008E-06-1.27612E-19-3.12229E-21
 -1      1029 2.65604E-04-3.99092E-04 7.54882E-37-8.00855E-07-2.02462E-19-6.24997E-21
 -1      1030-5.19793E-07 6.51023E-07 8.63970E-36 1.24915E-06 1.33942E-18 7.03309E-20
 -1      1031-4.68254E-05 1.77341E-05 1.03550E-36-1.88447E-05-5.01343E-19 7.97871E-20
 -1      1032-1.14491E-04 3.99824E-05 5.55641E-36-5.81398E-05 2.36164E-19 6.90355E-21
 -1      1033-1.30831E-04 3.83982E-05 1.21068E-36-8.49080E-05 5.26607E-19 7.66447E-21
 -1      1034-1.97986E-04 4.85678E-05 3.15078E-36-1.58322E-04-5.32840E-19-4.62334E-21
 -1      1035-1.83257E-04 2.73205E-05 2.97316E-36-1.78263E-04-5.65359E-19-1.18796E-20
 -1      1036-2.22821E-04 4.81029E-06 6.30339E-36-2.79998E-04 1.37717E-19 9.01470E-21
 -1      1037-1.87311E-04-2.66439E-05 2.77365E-36-2.80661E-04 2.21439E-19-1.22253E-20
 -1      1038-1.78445E-04-9.37897E-05 9.54759E-36-3.86472E-04 1.07992E-18 5.50110E-20
 -1      1039-1.38164E-04-1.20698E-04 1.37547E-35-3.64598E-04-3.10959E-20-4.94592E-20
 -1      1040-8.28337E-05-2.24058E-04 4.01132E-36-4.45622E-04-3.88571E-19 3.61762E-20
 -1      1041-5.02458E-05-2.35384E-04 4.84335E-36-4.07771E-04 6.14082E-20 1.31525E-19
 -1      1042 3.07329E-05-3.51363E-04 4.85302E-36-4.47383E-04-1.24979E-19 2.88042E-20
 -1      1043 5.07641E-05-3.44691E-04 2.10821E-36-4.03934E-04-1.07752E-19 1.70957E-19
 -1      1044 1.32975E-04-4.49104E-04 6.31789E-36-4.03683E-04 1.56462E-19 8.04887E-20
 -1      1045 1.41559E-04-4.28871E-04 2.54865E-36-3.62696E-04-6.43546E-19-6.34961E-20
 -1      1046 2.09004E-04-5.07719E-04 6.18001E-36-3.35557E-04 5.70043E-19 3.67339E-21
 -1      1047 2.09601E-04-4.80461E-04 6.83573E-36-3.00871E-04-1.37437E-18-9.47169E-20
 -1      1048 2.56999E-04-5.31085E-04 4.13049E-36-2.61568E-04 3.84635E-19-3.64194E-21
 -1      1049 2.52997E-04-5.02198E-04 6.67729E-36-2.33849E-04-2.19241E-19-1.19618E-19
 -1      1050 2.82123E-04-5.28971E-04 3.99422E-36-1.93281E-04-6.77496E-19 3.93339E-20
 -1      1051 2.75984E-04-5.01773E-04 7.24957E-36-1.71675E-04 8.26512E-19-1.08548E-19
 -1      1052 2.91392E-04-5.11489E-04 2.19126E-36-1.35868E-04-1.95945E-19 5.69436E-20
 -1      1053 2.84658E-04-4.87593E-04 1.96351E-36-1.19127E-04 3.10700E-19-7.77418E-20
 -1      1054 2.91032E-04-4.86686E-04 2.79755E-36-9.04164E-05-4.99391E-19 8.98207E-20
 -1      1055 2.84601E-04-4.66686E-04 1.57597E-36-7.74261E-05 1.89455E-19-7.50799E-20
 -1      1056 2.85692E-04-4.60192E-04 1.25034E-36-5.60024E-05-4.85867E-20-4.72617E-20
 -1      1057 2.80084E-04-4.44222E-04 1.19753E-36-4.59483E-05-1.07485E-19-1.79696E-20
 -1      1058 2.78557E-04-4.35716E-04 2.74219E-36-3.10290E-05 1.89786E-19 2.93011E-20
 -1      1059 2.74112E-04-4.23797E-04 1.74331E-36-2.34265E-05-8.90037E-21-5.11333E-21
 -1      1060 2.71733E-04-4.15752E-04 2.55620E-36-1.39656E-05 1.43789E-19-9.14744E-22
 -1      1061 2.68753E-04-4.07977E-04 2.44896E-36-8.66190E-06 8.54110E-20-9.41310E-21
 -1      1062 2.66562E-04-4.01907E-04 1.43666E-36-3.83316E-06-2.60110E-19-4.96382E-21
 -1      1063 2.65479E-04-3.98902E-04 7.68796E-38-1.00032E-06 1.08681E-20-1.08144E-21
 -1      1064-2.33929E-07 8.30688E-09 5.45645E-37 5.59552E-07-2.59305E-20 3.81594E-20
 -1      1065-3.14889E-05 1.13184E-05 1.74852E-36-1.47328E-05 1.04631E-19-1.08979E-20
 -1      1066-7.58519E-05 2.48165E-05 4.47233E-36-4.23833E-05 1.24084E-19-1.20512E-20
 -1      1067-8.94376E-05 2.48145E-05 4.95529E-36-6.16325E-05 1.53607E-19-4.96849E-21
 -1      1068-1.36763E-04 3.27052E-05 9.74021E-36-1.09855E-04 7.62395E-19 1.62189E-20
 -1      1069-1.30597E-04 2.00314E-05 1.97885E-36-1.26724E-04 7.82142E-20 4.16097E-21
 -1      1070-1.66973E-04 1.09994E-05 9.14714E-37-1.95713E-04 1.89949E-19-1.98120E-20
 -1      1071-1.44335E-04-1.12583E-05 2.85751E-36-2.02781E-04-2.36450E-20-9.32289E-20
 -1      1072-1.54038E-04-4.77501E-05 4.36288E-36-2.82630E-04-1.32274E-19 1.21270E-19
 -1      1073-1.22809E-04-7.24833E-05 8.72078E-36-2.75238E-04-5.89120E-19 1.64446E-20
 -1      1074-9.87549E-05-1.38450E-04 5.54610E-36-3.48964E-04 1.06132E-19-6.70794E-20
 -1      1075-6.77667E-05-1.57479E-04 3.56742E-36-3.27433E-04-2.23152E-19-3.03421E-21
 -1      1076-1.56483E-05-2.43747E-04 5.49316E-38-3.78697E-04-1.95741E-19 1.34707E-19
 -1      1077 8.90095E-06-2.51620E-04 2.31027E-36-3.47720E-04-3.32992E-20 5.66474E-20
 -1      1078 7.43595E-05-3.42020E-04 5.87932E-36-3.68731E-04-3.68745E-19-8.08699E-20
 -1      1079 9.02246E-05-3.37860E-04 1.52606E-36-3.34437E-04 1.43489E-19 1.60296E-19
 -1      1080 1.53570E-04-4.17175E-04 5.67268E-36-3.27925E-04 1.40735E-19 7.22795E-20
 -1      1081 1.61514E-04-4.03699E-04 3.06618E-36-2.95148E-04 5.62936E-19 5.10875E-21
 -1      1082 2.12771E-04-4.63218E-04 3.22551E-36-2.70341E-04 2.13178E-19 8.07879E-21
 -1      1083 2.14867E-04-4.44455E-04 4.79776E-36-2.41656E-04-2.50451E-19-2.59502E-20
 -1      1084 2.50775E-04-4.82644E-04 3.62980E-36-2.08782E-04 4.19311E-19-1.73812E-19
 -1      1085 2.49180E-04-4.62184E-04 5.55565E-36-1.84926E-04-1.22892E-19-7.96437E-20
 -1      1086 2.71136E-04-4.82241E-04 3.78854E-36-1.51769E-04-4.15126E-19 5.43929E-20
 -1      1087 2.67570E-04-4.62559E-04 2.49716E-36-1.32466E-04 3.37612E-19 1.00029E-20
 -1      1088 2.78979E-04-4.69535E-04 2.44494E-36-1.03523E-04-1.50309E-19-3.98890E-20
 -1      1089 2.74656E-04-4.52069E-04 1.31834E-36-8.81460E-05-3.15737E-19-5.89238E-20
 -1      1090 2.79121E-04-4.50942E-04 3.19510E-36-6.52612E-05 1.12489E-19-4.40315E-20
 -1      1091 2.74863E-04-4.36451E-04 2.69437E-36-5.32024E-05-1.59872E-19-1.18882E-20
 -1      1092 2.75370E-04-4.31291E-04 1.34900E-36-3.65967E-05-1.07788E-20 7.30880E-20
 -1      1093 2.71747E-04-4.20199E-04 1.24566E-36-2.74478E-05-1.19760E-20-2.90289E-20
 -1      1094 2.70482E-04-4.14071E-04 2.76648E-36-1.65902E-05 8.25516E-20 3.00079E-20
 -1      1095 2.67951E-04-4.06707E-04 2.26822E-36-1.02341E-05-2.21922E-19 1.63937E-20
 -1      1096 2.66359E-04-4.01677E-04 1.34550E-36-4.52480E-06-2.93319E-20-6.64594E-21
 -1      1097 2.65324E-04-3.98665E-04-1.27596E-37-1.22639E-06-3.78577E-19 8.67822E-22
 -1      1098-1.66928E-07-9.60338E-08 8.11588E-36 1.92081E-07 4.18546E-19 2.42790E-20
 -1      1099-2.15789E-05 7.13735E-06 3.23874E-36-1.18905E-05-4.85221E-19 5.31208E-20
 -1      1100-5.14022E-05 1.51620E-05 7.25824E-37-3.24350E-05-5.32278E-19-2.99166E-20
 -1      1101-6.19236E-05 1.52632E-05 1.53368E-36-4.69115E-05 8.33502E-20 1.14412E-20
 -1      1102-9.49805E-05 2.03632E-05 2.87042E-36-8.04238E-05 1.57410E-19-1.58400E-21
 -1      1103-9.26807E-05 1.21352E-05 1.86151E-36-9.39921E-05-2.59356E-19 7.22434E-21
 -1      1104-1.21958E-04 8.03388E-06 3.12125E-36-1.42095E-04-4.53314E-19 1.39070E-20
 -1      1105-1.07534E-04-7.67798E-06 1.90401E-36-1.50514E-04-5.26759E-19-8.57026E-20
 -1      1106-1.22810E-04-2.84036E-05 3.67246E-36-2.09507E-04-1.24027E-19-1.54749E-20
 -1      1107-9.97991E-05-4.84858E-05 8.42913E-37-2.09125E-04-5.12910E-19 4.75655E-20
 -1      1108-9.31778E-05-9.02875E-05 1.62245E-36-2.70150E-04-5.67804E-19-1.89496E-20
 -1      1109-6.68335E-05-1.09962E-04 3.48189E-36-2.59317E-04-1.63640E-19 7.21375E-20
 -1      1110-3.67755E-05-1.71254E-04 9.61299E-37-3.10708E-04-1.11071E-19 9.07777E-20
 -1      1111-1.22230E-05-1.85712E-04 1.53977E-36-2.90534E-04-1.41152E-19 1.57925E-19
 -1      1112 3.51700E-05-2.58319E-04 2.30822E-36-3.22629E-04-4.58714E-19-2.08523E-19
 -1      1113 5.45495E-05-2.64574E-04 7.26881E-36-2.96394E-04 8.13057E-19-8.34036E-20
 -1      1114 1.08505E-04-3.36905E-04 5.56336E-36-3.05617E-04 6.14057E-19 7.81701E-21
 -1      1115 1.21561E-04-3.34628E-04 3.27475E-36-2.77231E-04-4.81995E-19 7.66786E-20
 -1      1116 1.71636E-04-3.96455E-04 2.94181E-36-2.66675E-04-1.84239E-19 4.12461E-20
 -1      1117 1.78901E-04-3.87428E-04 1.25100E-36-2.39295E-04-3.55831E-19-1.32620E-19
 -1      1118 2.18569E-04-4.33120E-04 2.92885E-36-2.16050E-04-1.35108E-20-1.13858E-19
 -1      1119 2.21377E-04-4.20024E-04 4.87349E-36-1.91530E-04 7.54544E-19-5.41012E-20
 -1      1120 2.48718E-04-4.48896E-04 2.48806E-36-1.63187E-04 3.94651E-19-1.45195E-19
 -1      1121 2.48534E-04-4.34276E-04 2.11796E-36-1.42257E-04-1.29396E-19 8.58255E-20
 -1      1122 2.64880E-04-4.49007E-04 2.13270E-36-1.14632E-04 9.28881E-20-4.74913E-20
 -1      1123 2.62977E-04-4.34797E-04 3.76460E-36-9.73416E-05 1.45711E-19 7.21002E-20
 -1      1124 2.71117E-04-4.39463E-04 5.87210E-36-7.38456E-05 2.43057E-19 1.78275E-20
 -1      1125 2.68492E-04-4.26963E-04 1.01927E-36-5.99809E-05-2.47842E-20-1.96789E-20
 -1      1126 2.71372E-04-4.25650E-04 8.75847E-37-4.20419E-05-2.53013E-19-6.59509E-20
 -1      1127 2.68786E-04-4.15708E-04 2.23520E-36-3.14055E-05 9.72533E-20 1.17750E-20
 -1      1128 2.68876E-04-4.11881E-04 2.38024E-36-1.92354E-05 3.18287E-20-3.44827E-20
 -1      1129 2.66931E-04-4.05102E-04 1.44275E-36-1.18338E-05-9.50559E-21-1.97705E-20
 -1      1130 2.66080E-04-4.01348E-04 2.19562E-36-5.20580E-06 4.12714E-19 6.78779E-22
 -1      1131 2.65141E-04-3.98378E-04 2.47255E-36-1.48012E-06 4.70985E-19 5.31645E-21
 -1      1132-1.19471E-07-1.65872E-07 3.14928E-36 3.04569E-08-3.24390E-19 3.99356E-20
 -1      1133-1.49406E-05 4.31748E-06 1.85399E-36-9.79743E-06 3.66133E-19-1.39845E-21
 -1      1134-3.52724E-05 8.79855E-06 3.43095E-36-2.56953E-05-9.36962E-20-1.20108E-20
 -1      1135-4.30848E-05 8.50153E-06 1.15179E-36-3.69279E-05 4.91347E-20-1.87948E-20
 -1      1136-6.61238E-05 1.12609E-05 3.52147E-36-6.13177E-05 3.05116E-19-1.32301E-20
 -1      1137-6.53725E-05 5.31223E-06 1.85880E-36-7.21179E-05 4.02882E-19 1.91867E-20
 -1      1138-8.75918E-05 2.76044E-06 1.97195E-36-1.06736E-04 2.19129E-19-3.02462E-20
 -1      1139-7.81167E-05-8.73993E-06 2.67665E-36-1.14659E-04-3.65606E-20-2.36181E-21
 -1      1140-9.32002E-05-2.15179E-05 1.29214E-36-1.58346E-04-5.13352E-20-1.20476E-21
 -1      1141-7.64330E-05-3.73124E-05 1.80677E-36-1.60913E-04 4.13546E-19 1.20489E-20
 -1      1142-7.81157E-05-6.44620E-05 1.41124E-36-2.09375E-04-2.25915E-19 1.00479E-20
 -1      1143-5.68654E-05-8.20830E-05 1.95852E-36-2.04755E-04 5.42179E-20-3.30978E-20
 -1      1144-4.13464E-05-1.25026E-04 3.06522E-36-2.50771E-04 5.14501E-19 4.55691E-20
 -1      1145-1.91109E-05-1.41240E-04 2.38200E-36-2.38489E-04 1.07298E-19-2.41130E-19
 -1      1146 1.27589E-05-1.97062E-04 3.77396E-36-2.73969E-04 2.61073E-20-2.27560E-21
 -1      1147 3.28260E-05-2.08851E-04 1.55490E-36-2.55173E-04-4.44855E-19 1.37720E-20
 -1      1148 7.53895E-05-2.70567E-04 1.66587E-36-2.74258E-04-1.77458E-19 1.23958E-19
 -1      1149 9.12890E-05-2.76140E-04 2.23602E-36-2.51292E-04-7.31566E-21-7.91421E-20
 -1      1150 1.36373E-04-3.35088E-04 2.21154E-36-2.52636E-04 1.99174E-19-6.51758E-21
 -1      1151 1.47458E-04-3.34318E-04 2.17437E-36-2.28177E-04-4.21484E-19 9.45850E-20
 -1      1152 1.87662E-04-3.83312E-04 1.53851E-36-2.14978E-04-2.17391E-19 9.82269E-20
 -1      1153 1.94313E-04-3.77442E-04 2.60257E-36-1.91259E-04-5.45459E-19 1.57355E-19
 -1      1154 2.25269E-04-4.12807E-04 2.20360E-36-1.69298E-04 3.37086E-19 5.45726E-20
 -1      1155 2.28406E-04-4.03749E-04 1.84090E-36-1.47769E-04-4.67955E-19-9.13192E-20
 -1      1156 2.49134E-04-4.25466E-04 3.35290E-36-1.22986E-04-4.58431E-21-8.71788E-20
 -1      1157 2.49824E-04-4.15154E-04 2.47735E-36-1.04388E-04 3.30501E-19 1.57979E-21
 -1      1158 2.61726E-04-4.25704E-04 1.94695E-36-8.12894E-05-4.65624E-19-4.27632E-20
 -1      1159 2.60975E-04-4.15739E-04 9.30467E-37-6.59172E-05-4.00817E-20 7.30872E-20
 -1      1160 2.66507E-04-4.18658E-04 2.65737E-36-4.71438E-05 4.07684E-19-1.08510E-20
 -1      1161 2.65175E-04-4.10246E-04 1.93303E-36-3.51386E-05-2.81788E-20-4.59599E-20
 -1      1162 2.66868E-04-4.09089E-04 2.35025E-36-2.18212E-05-9.26896E-20-4.27512E-20
 -1      1163 2.65663E-04-4.03122E-04 1.80824E-36-1.34128E-05 1.96824E-19 1.19027E-20
 -1      1164 2.65700E-04-4.00884E-04 1.42182E-36-5.85287E-06 1.76431E-19-4.19943E-21
 -1      1165 2.64932E-04-3.98044E-04 8.17779E-37-1.75900E-06 1.24123E-19-5.67565E-21
 -1      1166-9.63362E-08-1.84237E-07 1.58210E-36-5.39276E-08 2.77882E-20 2.63454E-20
 -1      1167-1.03461E-05 2.35509E-06 7.94813E-37-8.17616E-06-5.58681E-20 4.86918E-21
 -1      1168-2.42753E-05 4.45717E-06 1.70612E-37-2.08119E-05-2.60335E-19-1.55769E-20
 -1      1169-2.98665E-05 3.64675E-06 4.24229E-36-2.97587E-05-8.52274E-20 3.72271E-20
 -1      1170-4.58429E-05 4.61550E-06 9.91289E-37-4.81469E-05-1.13163E-19 4.11369E-20
 -1      1171-4.55532E-05-1.73068E-07 1.17280E-36-5.67756E-05-1.78866E-19 7.35883E-21
 -1      1172-6.18387E-05-2.47426E-06 1.00810E-36-8.24428E-05 2.63225E-19 7.02565E-22
 -1      1173-5.52713E-05-1.13568E-05 1.25003E-36-8.93140E-05 3.66918E-20-3.90439E-20
 -1      1174-6.80122E-05-2.01555E-05 2.90687E-36-1.22075E-04 5.21532E-20-1.93752E-20
 -1      1175-5.56402E-05-3.26828E-05 1.98849E-36-1.25584E-04-1.52374E-19-3.81922E-20
 -1      1176-6.04173E-05-5.11950E-05 3.65193E-36-1.63491E-04-5.13804E-19 5.89054E-20
 -1      1177-4.36126E-05-6.62034E-05 2.11598E-36-1.62152E-04-1.32316E-19-1.73790E-19
 -1      1178-3.66180E-05-9.66161E-05 3.04437E-36-2.01080E-04 1.28992E-19 2.85919E-20
 -1      1179-1.75011E-05-1.12224E-04 1.70623E-36-1.93959E-04 6.33131E-20-1.71344E-19
 -1      1180 2.79772E-06-1.54350E-04 4.58041E-36-2.28174E-04 1.29136E-19-7.73896E-20
 -1      1181 2.18301E-05-1.68301E-04 2.99264E-36-2.15262E-04 2.49492E-19 2.90778E-20
 -1      1182 5.35293E-05-2.18795E-04 1.81647E-36-2.39074E-04-1.28158E-19-1.77307E-19
 -1      1183 7.04192E-05-2.29068E-04 2.99906E-36-2.21379E-04 2.10240E-19-1.42359E-19
 -1      1184 1.08457E-04-2.81971E-04 3.68263E-36-2.31251E-04 2.13244E-19-7.23819E-20
 -1      1185 1.21931E-04-2.87390E-04 3.69138E-36-2.10519E-04-1.04411E-19 2.33425E-20
 -1      1186 1.59908E-04-3.36015E-04 2.66712E-36-2.06411E-04-8.96814E-20 4.35822E-20
 -1      1187 1.69569E-04-3.36532E-04 1.01217E-36-1.84615E-04 3.58139E-19 5.95203E-21
 -1      1188 2.02077E-04-3.75695E-04 1.74922E-36-1.69754E-04 1.71802E-19-2.11153E-20
 -1      1189 2.08210E-04-3.72236E-04 3.14768E-36-1.48617E-04-2.46167E-21 5.51605E-20
 -1      1190 2.32341E-04-3.99614E-04 2.19904E-36-1.27947E-04-1.59141E-19-6.68843E-21
 -1      1191 2.35630E-04-3.93645E-04 2.13694E-36-1.08724E-04 3.66245E-20-2.89740E-20
 -1      1192 2.51112E-04-4.09781E-04 1.67252E-36-8.70985E-05-4.04128E-19-8.62006E-21
 -1      1193 2.52399E-04-4.02873E-04 3.43562E-36-7.06081E-05 1.31010E-19 2.68454E-20
 -1      1194 2.60763E-04-4.10229E-04 1.56508E-36-5.16364E-05-2.45052E-19-1.84284E-20
 -1      1195 2.60888E-04-4.03777E-04 2.31172E-36-3.84455E-05 6.12047E-20 1.50314E-20
 -1      1196 2.64418E-04-4.05608E-04 2.35571E-36-2.42443E-05-9.27683E-20-4.48738E-20
 -1      1197 2.64119E-04-4.00734E-04 2.16421E-36-1.49043E-05 4.52915E-20 1.10457E-20
 -1      1198 2.65194E-04-4.00242E-04 7.35085E-37-6.43990E-06-1.86440E-20-1.53440E-20
 -1      1199 2.64704E-04-3.97670E-04 6.21890E-37-2.05423E-06-5.67390E-20-1.46785E-21
 -1      1200-8.16894E-08-1.92133E-07 9.82447E-37-9.50935E-08-4.17380E-20 8.63293E-21
 -1      1201-7.08622E-06 9.54975E-07 1.22009E-36-6.87056E-06-1.55376E-19-2.27998E-20
 -1      1202-1.65741E-05 1.41629E-06 1.79080E-36-1.70980E-05 1.74851E-19 9.08351E-21
 -1      1203-2.03942E-05 1.06692E-07 8.05691E-37-2.43521E-05 1.87687E-19-6.37218E-20
 -1      1204-3.13494E-05-2.49597E-07 1.34496E-36-3.85852E-05 7.62178E-20 3.77157E-20
 -1      1205-3.10239E-05-4.46206E-06 1.52076E-36-4.55196E-05-4.92415E-20-7.34198E-20
 -1      1206-4.26230E-05-6.97249E-06 1.33023E-36-6.50468E-05-9.91804E-20 8.88458E-20
 -1      1207-3.77358E-05-1.42454E-05 8.95466E-37-7.07875E-05-1.14440E-19-8.00848E-20
 -1      1208-4.76207E-05-2.10567E-05 7.51664E-37-9.57549E-05-2.90646E-19 6.93664E-21
 -1      1209-3.82314E-05-3.12758E-05 1.43431E-36-9.92725E-05-1.52808E-19 2.12239E-19
 -1      1210-4.34353E-05-4.47333E-05 2.08275E-36-1.28878E-04-2.28710E-19-9.48694E-20
 -1      1211-3.01393E-05-5.74042E-05 1.21481E-36-1.29086E-04 1.81259E-20-6.01711E-20
 -1      1212-2.75796E-05-7.95810E-05 8.44739E-37-1.61097E-04 6.56412E-20-1.04001E-19
 -1      1213-1.15460E-05-9.37177E-05 1.94457E-36-1.57079E-04-1.16556E-19-1.49062E-20
 -1      1214 9.87533E-07-1.25553E-04 1.59980E-36-1.87788E-04-3.74307E-19 1.89039E-19
 -1      1215 1.81576E-05-1.39721E-04 1.30815E-36-1.79065E-04 8.66775E-20 1.65489E-20
 -1      1216 4.08922E-05-1.80145E-04 2.80581E-36-2.03939E-04 2.83321E-19 9.96860E-20
 -1      1217 5.74922E-05-1.92702E-04 3.44113E-36-1.90681E-04 1.99087E-19 1.49732E-19
 -1      1218 8.80558E-05-2.38288E-04 3.68551E-36-2.05696E-04 1.91257E-19 9.80233E-20
 -1      1219 1.02663E-04-2.47790E-04 2.25233E-36-1.88766E-04-1.01190E-19 1.70913E-20
 -1      1220 1.36549E-04-2.93407E-04 3.46432E-36-1.91904E-04 2.24604E-19 1.70578E-19
 -1      1221 1.48294E-04-2.99018E-04 3.69652E-36-1.72684E-04-2.54980E-19-3.02982E-20
 -1      1222 1.80369E-04-3.39382E-04 1.03437E-36-1.64758E-04 4.09379E-20 1.26467E-19
 -1      1223 1.88989E-04-3.41086E-04 1.15434E-36-1.44829E-04 1.31252E-19-1.22580E-19
 -1      1224 2.15244E-04-3.72437E-04 1.28835E-36-1.29097E-04 8.07136E-20 1.29279E-19
 -1      1225 2.20973E-04-3.70973E-04 3.84319E-36-1.09940E-04 1.13087E-19 1.13943E-20
 -1      1226 2.39567E-04-3.92014E-04 1.55533E-36-9.07994E-05-5.97558E-19 7.99189E-21
 -1      1227 2.42954E-04-3.88587E-04 1.92998E-36-7.36492E-05 7.02638E-20-5.71078E-21
 -1      1228 2.54190E-04-4.00362E-04 2.12231E-36-5.52172E-05 4.51772E-20-7.48435E-20
 -1      1229 2.55934E-04-3.96313E-04 1.94631E-36-4.10888E-05 3.37471E-20 1.17771E-19
 -1      1230 2.61504E-04-4.01367E-04 3.23442E-36-2.63758E-05 8.27874E-20 4.64484E-20
 -1      1231 2.62277E-04-3.97915E-04 1.91341E-36-1.62201E-05-6.96203E-20 2.12479E-20
 -1      1232 2.64535E-04-3.99372E-04 6.86264E-37-6.93977E-06-1.50084E-20 2.76479E-20
 -1      1233 2.64462E-04-3.97265E-04 1.44782E-36-2.34755E-06-6.02450E-20 7.48748E-21
 -1      1234-7.08542E-08-1.95864E-07 2.36125E-36-1.16124E-07 1.45702E-19 3.50561E-22
 -1      1235-4.72536E-06-6.46688E-08 1.26881E-36-5.78419E-06 1.20860E-19 6.68550E-20
 -1      1236-1.10647E-05-7.61670E-07 7.06910E-37-1.41551E-05-2.26952E-19-5.50340E-20
 -1      1237-1.34849E-05-2.51548E-06 1.50731E-36-2.01000E-05-4.28279E-20 5.59457E-20
 -1      1238-2.08340E-05-3.83779E-06 9.20772E-37-3.13218E-05-1.39649E-19 8.12094E-20
 -1      1239-2.02636E-05-7.78387E-06 1.12998E-36-3.69118E-05-7.35802E-20 8.26356E-21
 -1      1240-2.82578E-05-1.06268E-05 8.97319E-37-5.20799E-05-1.56313E-19-3.26284E-20
 -1      1241-2.43261E-05-1.69131E-05 1.81319E-36-5.67665E-05 8.84358E-20 7.26551E-20
 -1      1242-3.15095E-05-2.27348E-05 9.86725E-37-7.61049E-05-2.76003E-19-1.35119E-19
 -1      1243-2.41114E-05-3.13779E-05 1.21085E-36-7.92224E-05-6.15220E-20-1.43348E-19
 -1      1244-2.85297E-05-4.18593E-05 1.12035E-36-1.02464E-04-4.36894E-20 7.30228E-21
 -1      1245-1.78649E-05-5.26887E-05 2.07731E-36-1.03248E-04 3.83832E-20-1.99106E-19
 -1      1246-1.72378E-05-6.95372E-05 1.45500E-36-1.29240E-04 1.62135E-19-6.93360E-20
 -1      1247-3.88662E-06-8.20896E-05 5.52097E-37-1.26936E-04-3.94845E-19-4.94457E-20
 -1      1248 3.88321E-06-1.06551E-04 1.50280E-36-1.53417E-04-2.90636E-19-1.34836E-19
 -1      1249 1.89556E-05-1.20018E-04 8.66777E-37-1.47442E-04 3.21473E-19 1.51264E-19
 -1      1250 3.50185E-05-1.52216E-04 1.56731E-36-1.71166E-04-8.16502E-20 7.26334E-20
 -1      1251 5.05796E-05-1.65482E-04 2.87442E-36-1.61277E-04 1.86118E-19 6.38784E-20
 -1      1252 7.43706E-05-2.03834E-04 2.64291E-36-1.78660E-04 1.18743E-19 1.04775E-19
 -1      1253 8.91525E-05-2.15650E-04 2.94811E-36-1.65103E-04 7.90245E-20 3.12807E-20
 -1      1254 1.18095E-04-2.56781E-04 1.06586E-36-1.73328E-04 1.13290E-19 9.48678E-20
 -1      1255 1.31057E-04-2.66045E-04 1.91885E-36-1.56867E-04-2.53632E-19 9.92127E-20
 -1      1256 1.61119E-04-3.05490E-04 3.01122E-36-1.55002E-04-6.67469E-20-1.39443E-20
 -1      1257 1.71629E-04-3.11561E-04 2.25771E-36-1.36827E-04-2.59464E-19-9.77524E-20
 -1      1258 1.98627E-04-3.45093E-04 2.16713E-36-1.26311E-04-1.10928E-19 1.73866E-19
 -1      1259 2.06505E-04-3.47973E-04 2.38645E-36-1.07837E-04 2.82632E-19 5.22745E-20
 -1      1260 2.27488E-04-3.72931E-04 1.40339E-36-9.19966E-05-1.09830E-19-8.61196E-20
 -1      1261 2.32935E-04-3.73241E-04 2.17843E-36-7.46791E-05 2.11502E-19 7.41128E-20
 -1      1262 2.46904E-04-3.89170E-04 1.47942E-36-5.75645E-05-3.85889E-20-3.70000E-20
 -1      1263 2.50376E-04-3.87933E-04 2.72197E-36-4.28073E-05-2.13981E-19 7.26590E-20
 -1      1264 2.58132E-04-3.96330E-04 2.06656E-36-2.80601E-05 7.42209E-20-1.80877E-20
 -1      1265 2.60129E-04-3.94667E-04 1.46553E-36-1.72505E-05-4.93700E-20 5.79763E-20
 -1      1266 2.63701E-04-3.98225E-04 2.14867E-37-7.32619E-06 1.53367E-19 2.51967E-20
 -1      1267 2.64214E-04-3.96841E-04 1.74035E-36-2.60847E-06-4.03756E-19-5.60951E-22
 -1      1268-6.07871E-08-2.01266E-07 1.02263E-36-1.26402E-07-1.90859E-19-3.55794E-20
 -1      1269-2.98794E-06-8.19377E-07 7.05027E-37-4.85421E-06-4.41373E-20-1.62280E-20
 -1      1270-7.05542E-06-2.35015E-06 8.71001E-37-1.17422E-05 3.28977E-20 2.01377E-20
 -1      1271-8.37006E-06-4.48754E-06 7.83062E-37-1.66288E-05-1.28433E-19 1.55301E-20
 -1      1272-1.31072E-05-6.50655E-06 1.33832E-36-2.55796E-05-1.87341E-19 3.29309E-20
 -1      1273-1.22216E-05-1.03530E-05 8.97091E-37-3.00716E-05 3.52998E-20 5.11345E-20
 -1      1274-1.74753E-05-1.35210E-05 1.18317E-36-4.20389E-05 1.40941E-19-1.00974E-20
 -1      1275-1.40748E-05-1.92056E-05 1.20497E-36-4.57786E-05-7.12819E-20-1.56907E-19
 -1      1276-1.89380E-05-2.45360E-05 9.29164E-37-6.09728E-05-1.07685E-19-1.21483E-19
 -1      1277-1.28622E-05-3.21217E-05 1.47993E-36-6.35227E-05 5.36128E-22-5.10918E-20
 -1      1278-1.60514E-05-4.08228E-05 1.73328E-36-8.19134E-05 7.24070E-20-1.73734E-19
 -1      1279-7.30903E-06-5.02893E-05 1.68865E-36-8.27396E-05-6.87252E-20-2.13529E-20
 -1      1280-7.20735E-06-6.36927E-05 1.44340E-36-1.03764E-04 7.46743E-20 1.12505E-19
 -1      1281 3.96046E-06-7.48599E-05 1.53941E-36-1.02289E-04 1.15087E-19 2.60032E-20
 -1      1282 9.06976E-06-9.41651E-05 1.27446E-36-1.24625E-04-8.55563E-20-9.15145E-20
 -1      1283 2.21410E-05-1.06632E-04 1.39634E-36-1.20311E-04-1.04104E-19 2.89501E-19
 -1      1284 3.36293E-05-1.32478E-04 1.42719E-36-1.41783E-04-1.21234E-19-8.82422E-20
 -1      1285 4.78091E-05-1.45586E-04 1.95438E-36-1.34246E-04 1.77800E-19-7.32428E-20
 -1      1286 6.60925E-05-1.77534E-04 7.51121E-37-1.52041E-04-1.75355E-19 2.37815E-19
 -1      1287 8.04055E-05-1.90391E-04 2.04928E-36-1.41178E-04 4.89641E-20 1.04338E-19
 -1      1288 1.04406E-04-2.26540E-04 3.04586E-36-1.52476E-04-2.34691E-19-2.57339E-20
 -1      1289 1.17868E-04-2.38145E-04 2.20521E-36-1.38582E-04 1.81747E-19-1.15005E-19
 -1      1290 1.44923E-04-2.75217E-04 2.37619E-36-1.41502E-04 1.21478E-19-1.43896E-19
 -1      1291 1.56728E-04-2.84675E-04 1.32681E-36-1.25317E-04-1.08534E-19-1.64837E-19
 -1      1292 1.83207E-04-3.18749E-04 9.72188E-37-1.19778E-04-2.35442E-19-2.34591E-20
 -1      1293 1.92867E-04-3.25526E-04 1.62370E-36-1.02454E-04-3.87175E-19 2.23379E-20
 -1      1294 2.15344E-04-3.53230E-04 1.54083E-36-9.04278E-05 1.14550E-19-3.71150E-20
 -1      1295 2.22721E-04-3.57318E-04 1.56918E-36-7.34234E-05-6.02238E-20 4.92115E-21
 -1      1296 2.39098E-04-3.76902E-04 2.85575E-36-5.83620E-05-4.48452E-20 6.90897E-20
 -1      1297 2.44341E-04-3.78802E-04 2.61097E-36-4.33352E-05 2.20394E-19-8.87209E-20
 -1      1298 2.54342E-04-3.90518E-04 2.02799E-36-2.91168E-05 1.52264E-19-2.41555E-20
 -1      1299 2.57686E-04-3.91014E-04 1.69251E-36-1.78671E-05 9.59459E-21-1.40575E-20
 -1      1300 2.62684E-04-3.96765E-04 2.03236E-36-7.57405E-06 2.39187E-19-3.07309E-21
 -1      1301 2.63957E-04-3.96403E-04 1.27316E-36-2.79377E-06-6.83130E-20 2.21580E-21
 -1      1302-4.96943E-08-2.10801E-07 6.03187E-37-1.30885E-07 1.01651E-20 2.14472E-19
 -1      1303-1.69415E-06-1.38438E-06 6.83506E-37-4.03704E-06-7.21072E-20 6.58802E-20
 -1      1304-4.09977E-06-3.52603E-06 7.41798E-37-9.70337E-06 5.96773E-20-3.02993E-20
 -1      1305-4.53898E-06-5.99246E-06 5.83143E-37-1.36964E-05 5.47481E-21-2.76096E-20
 -1      1306-7.37379E-06-8.50650E-06 8.07040E-37-2.08744E-05 5.11875E-20-3.01061E-20
 -1      1307-6.16890E-06-1.23445E-05 6.43859E-37-2.44359E-05-1.66907E-19 2.16014E-20
 -1      1308-9.35058E-06-1.57846E-05 8.00792E-37-3.39771E-05 5.78562E-20 1.80832E-19
 -1      1309-6.23630E-06-2.11079E-05 8.73782E-37-3.68631E-05-1.93327E-19-8.23285E-20
 -1      1310-9.19803E-06-2.61925E-05 6.36398E-37-4.89383E-05-2.64220E-20-2.25008E-20
 -1      1311-4.00319E-06-3.30784E-05 9.58981E-37-5.08553E-05 3.45355E-20 5.17897E-20
 -1      1312-5.89714E-06-4.06877E-05 1.20732E-36-6.55289E-05 1.18572E-19 6.95617E-20
 -1      1313 1.45559E-06-4.91825E-05 1.02024E-36-6.61013E-05 9.68826E-21 1.94043E-19
 -1      1314 1.75601E-06-6.03357E-05 1.42689E-36-8.31236E-05-1.14821E-20 1.08373E-19
 -1      1315 1.12103E-05-7.04062E-05 9.20263E-37-8.19213E-05-4.53215E-20 2.37249E-20
 -1      1316 1.50154E-05-8.61363E-05 1.22174E-36-1.00546E-04-5.85637E-20 4.61938E-20
 -1      1317 2.63327E-05-9.76230E-05 6.54526E-37-9.71246E-05 6.98803E-20-2.85825E-19
 -1      1318 3.49061E-05-1.18725E-04 1.18443E-36-1.15960E-04 7.33775E-20 1.88960E-19
 -1      1319 4.76322E-05-1.31295E-04 1.53680E-36-1.09927E-04 2.85815E-20 1.22041E-20
 -1      1320 6.17938E-05-1.57944E-04 8.10860E-37-1.26933E-04 1.80160E-19 3.61898E-20
 -1      1321 7.52673E-05-1.71058E-04 6.72857E-37-1.18037E-04-4.27117E-20-2.42993E-19
 -1      1322 9.48962E-05-2.02400E-04 2.16163E-36-1.30793E-04 1.06735E-19 5.94335E-20
 -1      1323 1.08320E-04-2.15321E-04 1.00822E-36-1.19041E-04-1.78854E-19 1.89582E-20
 -1      1324 1.31978E-04-2.49234E-04 2.63650E-36-1.25370E-04 2.59645E-20 8.01503E-21
 -1      1325 1.44550E-04-2.61111E-04 1.79403E-36-1.11133E-04-7.96324E-20 9.14609E-20
 -1      1326 1.69538E-04-2.94420E-04 1.58971E-36-1.09944E-04-5.98716E-20-3.69628E-20
 -1      1327 1.80593E-04-3.04461E-04 2.44793E-36-9.40416E-05 2.91546E-19-1.27036E-19
 -1      1328 2.03625E-04-3.33711E-04 2.39624E-36-8.60010E-05-1.23043E-19 5.26455E-21
 -1      1329 2.12741E-04-3.41398E-04 1.02490E-36-6.97278E-05-7.11195E-20 1.64014E-19
 -1      1330 2.31027E-04-3.63950E-04 1.61182E-36-5.73302E-05 4.05685E-20-4.88473E-21
 -1      1331 2.38026E-04-3.69175E-04 1.91013E-36-4.24265E-05 7.28783E-21 3.11396E-20
 -1      1332 2.50216E-04-3.84032E-04 2.39128E-36-2.93459E-05 3.90843E-20 5.64859E-20
 -1      1333 2.54990E-04-3.87024E-04 2.42699E-36-1.79293E-05-3.03826E-20 4.31679E-20
 -1      1334 2.61500E-04-3.94985E-04 1.18998E-36-7.65649E-06-1.31342E-19-3.03839E-20
 -1      1335 2.63676E-04-3.95952E-04 9.87822E-37-2.85198E-06-1.56982E-19-1.25344E-21
 -1      1336-3.65132E-08-2.26345E-07 4.80375E-37-1.31444E-07 2.44668E-19 6.57906E-21
 -1      1337-7.24417E-07-1.80937E-06 7.70318E-37-3.30073E-06 4.55776E-21-1.62221E-19
 -1      1338-1.90219E-06-4.40663E-06 6.58989E-37-7.93166E-06-1.36911E-19-1.60038E-21
 -1      1339-1.64648E-06-7.15636E-06 5.32285E-37-1.11359E-05-5.73990E-20 1.48511E-20
 -1      1340-3.09403E-06-1.00133E-05 3.54131E-37-1.68890E-05 7.19220E-20-9.61314E-20
 -1      1341-1.59716E-06-1.38932E-05 8.21537E-37-1.96277E-05-1.21062E-20 1.45131E-19
 -1      1342-3.21736E-06-1.75414E-05 9.88177E-37-2.72758E-05 3.91563E-20 2.23131E-19
 -1      1343-2.52703E-07-2.26561E-05 9.28188E-37-2.93724E-05-4.07370E-20 1.34223E-19
 -1      1344-1.69545E-06-2.76122E-05 5.40297E-37-3.90471E-05-4.31571E-20-1.25475E-19
 -1      1345 2.90362E-06-3.40431E-05 5.76944E-37-4.02999E-05 1.34741E-19-6.95702E-20
 -1      1346 2.20446E-06-4.09598E-05 7.93370E-37-5.20949E-05-9.72174E-20-2.00447E-19
 -1      1347 8.55048E-06-4.87827E-05 7.13206E-37-5.22358E-05-1.12017E-19-2.47047E-19
 -1      1348 9.37734E-06-5.84388E-05 9.40629E-37-6.60629E-05 1.66223E-19 3.39980E-20
 -1      1349 1.75100E-05-6.76951E-05 5.32318E-37-6.47734E-05 4.91398E-21-5.50842E-20
 -1      1350 2.08296E-05-8.09400E-05 1.19769E-36-8.02287E-05-3.39774E-20 1.40907E-19
 -1      1351 3.06813E-05-9.16071E-05 1.15212E-36-7.71599E-05-1.11486E-19-5.51994E-20
 -1      1352 3.75376E-05-1.09220E-04 1.02570E-36-9.33850E-05-4.06243E-20-3.40254E-20
 -1      1353 4.88942E-05-1.21175E-04 7.57117E-37-8.81927E-05-1.72212E-19-9.92655E-20
 -1      1354 6.01797E-05-1.43617E-04 1.42450E-36-1.03784E-04 2.25167E-19 1.92437E-19
 -1      1355 7.26528E-05-1.56595E-04 1.45330E-36-9.61874E-05 1.72368E-20 4.88651E-20
 -1      1356 8.87487E-05-1.83667E-04 9.27940E-37-1.09257E-04-1.59631E-19-5.32956E-20
 -1      1357 1.01779E-04-1.97218E-04 9.13242E-37-9.91231E-05 8.09446E-20-1.46343E-19
 -1      1358 1.22143E-04-2.27730E-04 1.23782E-36-1.07617E-04-3.43512E-20 8.48821E-20
 -1      1359 1.35052E-04-2.41210E-04 1.15467E-36-9.50789E-05 8.90817E-20-7.95996E-20
 -1      1360 1.57962E-04-2.72863E-04 1.49950E-36-9.74065E-05 1.00332E-19 1.17279E-20
 -1      1361 1.70048E-04-2.85476E-04 1.72585E-36-8.29936E-05-2.02027E-19-8.82336E-20
 -1      1362 1.92783E-04-3.15185E-04 2.28779E-36-7.87993E-05-3.02260E-20-7.54040E-20
 -1      1363 2.03423E-04-3.26117E-04 1.78184E-36-6.35674E-05 5.69342E-21-8.52411E-20
 -1      1364 2.22994E-04-3.50828E-04 1.85311E-36-5.42602E-05-6.65464E-20 7.35929E-20
 -1      1365 2.31691E-04-3.59407E-04 1.97740E-36-3.98788E-05 5.01217E-21 3.04694E-20
 -1      1366 2.45877E-04-3.77065E-04 1.81359E-36-2.85396E-05 1.97319E-20-2.47903E-20
 -1      1367 2.52125E-04-3.82816E-04 1.88479E-36-1.72942E-05 5.06864E-20-5.93449E-20
 -1      1368 2.60195E-04-3.92926E-04 1.56067E-36-7.53748E-06 2.43837E-19 1.99536E-20
 -1      1369 2.63344E-04-3.95470E-04-1.93750E-37-2.73553E-06 1.82677E-19 1.39271E-20
 -1      1370-2.02251E-08-2.49574E-07 6.40173E-37-1.28311E-07-3.91570E-20-3.12789E-19
 -1      1371 1.55228E-09-2.12704E-06 4.28400E-37-2.62034E-06-2.05900E-20-1.76599E-22
 -1      1372-2.63931E-07-5.07126E-06 2.15647E-37-6.34927E-06-2.56426E-20 1.79992E-19
 -1      1373 5.42255E-07-8.06615E-06 4.83466E-37-8.82313E-06-6.40261E-21-5.26450E-21
 -1      1374 1.01826E-07-1.11502E-05 6.33590E-37-1.34044E-05-4.43841E-22-7.49132E-20
 -1      1375 1.84748E-06-1.50994E-05 4.66954E-37-1.53796E-05-8.72742E-22-1.67149E-19
 -1      1376 1.40044E-06-1.88945E-05 7.47417E-37-2.15127E-05-2.65320E-21 3.36627E-19
 -1      1377 4.28347E-06-2.38986E-05 5.26039E-37-2.28508E-05 2.18492E-20 8.94247E-21
 -1      1378 4.03732E-06-2.87792E-05 4.03504E-37-3.06385E-05-6.44506E-20 7.38676E-20
 -1      1379 8.21759E-06-3.49230E-05 5.71744E-37-3.11960E-05-6.70315E-20-1.94457E-19
 -1      1380 8.55475E-06-4.13822E-05 1.32006E-36-4.07341E-05 9.93675E-22-8.42602E-20
 -1      1381 1.41578E-05-4.87563E-05 9.03127E-37-4.03157E-05-5.59109E-20-9.57783E-20
 -1      1382 1.56248E-05-5.73934E-05 7.42875E-37-5.15964E-05-3.10446E-20 1.21783E-19
 -1      1383 2.27389E-05-6.60787E-05 1.01693E-36-4.99654E-05-1.86443E-20 4.63473E-19
 -1      1384 2.60394E-05-7.75791E-05 1.07133E-36-6.27847E-05 1.69558E-19 9.05202E-20
 -1      1385 3.46964E-05-8.76308E-05 7.87736E-37-5.96743E-05-1.28813E-20-1.60205E-19
 -1      1386 4.06470E-05-1.02692E-04 7.82207E-37-7.35206E-05-2.54386E-19-6.26655E-20
 -1      1387 5.07920E-05-1.14116E-04 7.67221E-37-6.86534E-05 1.14348E-20 5.26016E-20
 -1      1388 6.02032E-05-1.33297E-04 8.01123E-37-8.26022E-05-5.49321E-20-5.06807E-20
 -1      1389 7.16597E-05-1.46018E-04 7.60175E-37-7.57258E-05 9.96236E-20-2.86528E-19
 -1      1390 8.51076E-05-1.69490E-04 1.10990E-36-8.83965E-05-2.90062E-20 2.40675E-20
 -1      1391 9.75480E-05-1.83300E-04 1.12749E-36-7.93449E-05 8.77301E-20-1.73843E-19
 -1      1392 1.15041E-04-2.10534E-04 1.44431E-36-8.90150E-05-4.77700E-20 1.04525E-19
 -1      1393 1.27977E-04-2.25039E-04 1.26014E-36-7.78053E-05-2.13397E-20 4.23143E-20
 -1      1394 1.48606E-04-2.54540E-04 1.05134E-36-8.27863E-05-9.82943E-21-4.03969E-20
 -1      1395 1.61411E-04-2.69103E-04 1.55702E-36-6.97567E-05 2.14279E-20-1.34726E-20
 -1      1396 1.83197E-04-2.98388E-04 2.44188E-36-6.90447E-05 1.06391E-19-1.31594E-19
 -1      1397 1.95152E-04-3.12118E-04 2.27635E-36-5.50325E-05 1.65007E-20-2.31546E-20
 -1      1398 2.15335E-04-3.38142E-04 1.92812E-36-4.90384E-05 6.34472E-20 2.55807E-19
 -1      1399 2.25655E-04-3.49950E-04 2.08217E-36-3.55531E-05 7.45526E-20-1.17146E-19
 -1      1400 2.41495E-04-3.69913E-04 1.71348E-36-2.65051E-05-8.80718E-21-3.07976E-20
 -1      1401 2.49230E-04-3.78574E-04 1.99452E-36-1.58277E-05 4.97387E-20-7.64141E-20
 -1      1402 2.58854E-04-3.90687E-04 2.96553E-36-7.16132E-06-2.14157E-19 3.92220E-20
 -1      1403 2.62923E-04-3.94934E-04 3.70982E-36-2.42034E-06-4.58084E-19 1.08506E-20
 -1      1404-1.31796E-09-2.82108E-07 3.24189E-37-1.20149E-07 2.36716E-22 2.18744E-19
 -1      1405 5.36954E-07-2.35778E-06 5.64521E-37-1.97544E-06 1.93381E-20-3.51704E-19
 -1      1406 9.49647E-07-5.57431E-06 4.87546E-37-4.89517E-06 1.22514E-20 1.72454E-19
 -1      1407 2.18449E-06-8.77987E-06 4.34142E-37-6.65762E-06 3.38968E-20-6.81448E-20
 -1      1408 2.46689E-06-1.20037E-05 2.87738E-37-1.02588E-05 5.43297E-21-1.22744E-19
 -1      1409 4.40622E-06-1.60336E-05 4.19374E-37-1.14865E-05-2.33794E-20-2.67274E-19
 -1      1410 4.83841E-06-1.99240E-05 9.72836E-37-1.63830E-05 7.42596E-22-4.79772E-19
 -1      1411 7.65930E-06-2.48794E-05 3.50734E-37-1.69561E-05 1.02539E-20-3.28953E-20
 -1      1412 8.35135E-06-2.97074E-05 4.84823E-37-2.32350E-05 1.80954E-20-2.80988E-19
 -1      1413 1.22104E-05-3.56790E-05 5.34785E-37-2.30459E-05-7.27073E-20 2.22874E-19
 -1      1414 1.34226E-05-4.18239E-05 9.25945E-37-3.07955E-05-4.13974E-20 5.52890E-19
 -1      1415 1.84511E-05-4.89134E-05 4.36518E-37-2.96978E-05-2.38339E-20 1.41153E-19
 -1      1416 2.05694E-05-5.68415E-05 3.68774E-37-3.89498E-05 1.14683E-21-3.63091E-20
 -1      1417 2.68815E-05-6.51552E-05 6.27552E-37-3.67664E-05-4.03204E-20-9.06358E-20
 -1      1418 3.04176E-05-7.54167E-05 8.00505E-37-4.74320E-05 9.67129E-20 2.38664E-19
 -1      1419 3.81043E-05-8.50576E-05 5.50278E-37-4.39627E-05 6.72865E-20-3.06344E-20
 -1      1420 4.36801E-05-9.82515E-05 6.76219E-37-5.57515E-05-7.52892E-20 2.09244E-20
 -1      1421 5.27904E-05-1.09307E-04 7.06447E-37-5.07866E-05 3.43351E-20-8.06617E-20
 -1      1422 6.10812E-05-1.25992E-04 1.05770E-36-6.31137E-05 1.73750E-20 1.35659E-19
 -1      1423 7.15936E-05-1.38512E-04 1.20695E-36-5.64583E-05 8.86912E-22 2.92121E-19
 -1      1424 8.31965E-05-1.59043E-04 8.19761E-37-6.83663E-05-4.88823E-20 1.49917E-19
 -1      1425 9.49813E-05-1.72999E-04 8.82192E-37-5.98846E-05-1.52045E-19 6.27398E-20
 -1      1426 1.10184E-04-1.97276E-04 1.05142E-36-7.00421E-05 1.32947E-20-1.06521E-19
 -1      1427 1.22959E-04-2.12496E-04 1.39724E-36-5.97348E-05-6.71499E-20 1.64824E-19
 -1      1428 1.41419E-04-2.39659E-04 1.14904E-36-6.66087E-05-4.64921E-20-6.47484E-20
 -1      1429 1.54706E-04-2.55720E-04 1.22640E-36-5.47356E-05 6.10047E-20-1.46594E-19
 -1      1430 1.75154E-04-2.83935E-04 1.05393E-36-5.70325E-05-2.58826E-20 1.89269E-19
 -1      1431 1.88236E-04-3.00027E-04 1.51082E-36-4.42920E-05 2.68873E-20-8.50493E-20
 -1      1432 2.08403E-04-3.26546E-04 1.99440E-36-4.16546E-05-6.53041E-20-1.67305E-19
 -1      1433 2.20265E-04-3.41343E-04 1.91323E-36-2.93856E-05 4.06114E-20 2.16947E-20
 -1      1434 2.37281E-04-3.62975E-04 1.68067E-36-2.30941E-05-9.18926E-21-1.61461E-19
 -1      1435 2.46502E-04-3.74563E-04 1.52809E-36-1.34172E-05-3.09035E-20 2.88828E-20
 -1      1436 2.57587E-04-3.88432E-04 4.32320E-37-6.44517E-06-2.34851E-20 3.78159E-21
 -1      1437 2.62394E-04-3.94331E-04 1.81593E-36-1.92576E-06 7.75244E-20-2.44144E-20
 -1      1438 2.34743E-08-3.27432E-07 1.19612E-37-1.04365E-07 8.26361E-21-7.77145E-20
 -1      1439 9.14404E-07-2.51142E-06 2.13403E-37-1.34897E-06-1.28002E-21 7.54621E-21
 -1      1440 1.82549E-06-5.95177E-06 2.66124E-37-3.51626E-06-1.25784E-20 1.10938E-19
 -1      1441 3.37942E-06-9.33470E-06 4.67919E-37-4.54819E-06-1.23509E-20 2.31805E-19
 -1      1442 4.16951E-06-1.26333E-05 5.81940E-37-7.32211E-06-1.11191E-20-3.01721E-20
 -1      1443 6.23222E-06-1.67416E-05 4.15333E-37-7.77588E-06-1.14130E-21 3.93660E-20
 -1      1444 7.32475E-06-2.06887E-05 3.79273E-37-1.16486E-05 3.98742E-21-6.58913E-20
 -1      1445 1.00594E-05-2.56293E-05 5.66515E-37-1.14076E-05 1.33069E-20-2.32662E-19
 -1      1446 1.14950E-05-3.04182E-05 3.84246E-37-1.64668E-05-5.69973E-22 9.05620E-20
 -1      1447 1.50631E-05-3.62941E-05 5.74180E-37-1.54434E-05 3.71945E-20-3.07973E-19
 -1      1448 1.70168E-05-4.22197E-05 6.71230E-37-2.17692E-05-1.78873E-20-4.93782E-20
 -1      1449 2.15565E-05-4.91452E-05 6.96784E-37-1.98496E-05-1.18648E-20-2.37676E-19
 -1      1450 2.43038E-05-5.65751E-05 3.07928E-37-2.74929E-05-5.92895E-20 1.91269E-19
 -1      1451 2.99481E-05-6.46788E-05 7.19593E-37-2.45428E-05 7.52865E-21 2.45259E-19
 -1      1452 3.38635E-05-7.40555E-05 6.24674E-37-3.34827E-05 1.96283E-20 1.75750E-19
 -1      1453 4.07435E-05-8.34774E-05 7.82408E-37-2.93558E-05-6.09437E-20-2.45779E-19
 -1      1454 4.62951E-05-9.53036E-05 5.71935E-37-3.94427E-05-3.69009E-22-6.78579E-21
 -1      1455 5.45324E-05-1.06189E-04 6.68094E-37-3.39936E-05 1.80956E-20 1.23844E-19
 -1      1456 6.22571E-05-1.20980E-04 7.50261E-37-4.48761E-05-3.63020E-20 1.58300E-19
 -1      1457 7.19447E-05-1.33467E-04 6.44775E-37-3.79821E-05 6.21333E-20-1.63100E-19
 -1      1458 8.23770E-05-1.51646E-04 8.53515E-37-4.90293E-05-6.06844E-20-1.24610E-19
 -1      1459 9.35441E-05-1.65832E-04 8.77889E-37-4.06273E-05 2.24781E-20-4.96398E-20
 -1      1460 1.07069E-04-1.87544E-04 1.11639E-36-5.08761E-05 5.54875E-20-2.88756E-19
 -1      1461 1.19624E-04-2.03425E-04 8.92783E-37-4.10272E-05 4.31720E-20-4.16509E-20
 -1      1462 1.36235E-04-2.28267E-04 1.13767E-36-4.92236E-05-3.89424E-20-1.27059E-19
 -1      1463 1.49871E-04-2.45610E-04 1.08610E-36-3.82144E-05-3.38740E-20-6.91510E-20
 -1      1464 1.68851E-04-2.72323E-04 1.40384E-36-4.30519E-05-6.57929E-20 1.51978E-19
 -1      1465 1.82918E-04-2.90451E-04 1.66775E-36-3.15461E-05 3.72176E-20 2.97932E-20
 -1      1466 2.02566E-04-3.16716E-04 1.15346E-36-3.21887E-05-9.54553E-20-2.16211E-19
 -1      1467 2.15883E-04-3.34207E-04 1.28048E-36-2.13956E-05-2.46043E-20-3.50613E-20
 -1      1468 2.33508E-04-3.56750E-04 1.58117E-36-1.82366E-05 7.24639E-20-3.16311E-21
 -1      1469 2.44185E-04-3.71124E-04 1.94885E-36-9.99069E-06-2.94288E-20 2.49745E-21
 -1      1470 2.56511E-04-3.86376E-04 1.91204E-36-5.28613E-06 2.51561E-19 5.46578E-20
 -1      1471 2.61797E-04-3.93699E-04 1.60045E-36-1.31845E-06 3.39090E-19-2.11189E-21
 -1      1472 4.30481E-08-3.93167E-07 6.99635E-37-7.68874E-08-3.65806E-21-5.21093E-19
 -1      1473 1.14779E-06-2.58284E-06 4.05733E-37-7.09512E-07-2.40681E-21-3.61730E-19
 -1      1474 2.42242E-06-6.22970E-06 2.89321E-37-2.15840E-06-1.64345E-21-1.79405E-20
 -1      1475 4.17486E-06-9.76237E-06 6.26588E-37-2.38770E-06 8.22926E-22 3.67414E-19
 -1      1476 5.31334E-06-1.30791E-05 4.83534E-37-4.47027E-06 4.43079E-22-2.12197E-19
 -1      1477 7.41221E-06-1.72730E-05 2.93231E-37-4.06671E-06-6.13951E-22 2.18676E-19
 -1      1478 9.00218E-06-2.12322E-05 4.64517E-37-7.09219E-06 1.61246E-20 1.30911E-19
 -1      1479 1.15807E-05-2.61857E-05 4.70703E-37-5.92937E-06-1.13333E-21 3.79726E-19
 -1      1480 1.36273E-05-3.09357E-05 1.64222E-37-1.00046E-05 1.18777E-20-9.19759E-20
 -1      1481 1.68625E-05-3.67735E-05 3.21714E-37-7.99332E-06-1.88690E-22 9.68282E-20
 -1      1482 1.94759E-05-4.25431E-05 4.99440E-37-1.32015E-05 9.08355E-21-2.99765E-20
 -1      1483 2.35246E-05-4.94022E-05 2.98247E-37-1.02464E-05 1.25448E-20 2.93353E-19
 -1      1484 2.68987E-05-5.64818E-05 4.11096E-37-1.66515E-05 4.13275E-20 1.42212E-19
 -1      1485 3.19185E-05-6.45193E-05 4.82037E-37-1.26502E-05-1.01422E-20 4.42016E-20
 -1      1486 3.63264E-05-7.32641E-05 4.04896E-37-2.02737E-05-2.37717E-20 1.66532E-19
 -1      1487 4.24873E-05-8.26590E-05 4.09762E-37-1.51262E-05 3.10442E-20 1.63784E-19
 -1      1488 4.82780E-05-9.34845E-05 6.05991E-37-2.39093E-05-5.13384E-21-9.53093E-20
 -1      1489 5.57634E-05-1.04436E-04 5.09517E-37-1.75345E-05-9.26995E-21-7.21777E-22
 -1      1490 6.33497E-05-1.17793E-04 3.83175E-37-2.72857E-05 8.15819E-21 2.49822E-20
 -1      1491 7.23464E-05-1.30509E-04 7.17336E-37-1.96467E-05-4.84436E-20 3.24375E-20
 -1      1492 8.21671E-05-1.46819E-04 7.45666E-37-2.99758E-05 2.80728E-20 1.21894E-19
 -1      1493 9.28341E-05-1.61491E-04 9.58739E-37-2.11200E-05 1.71648E-20 7.55763E-20
 -1      1494 1.05266E-04-1.81019E-04 8.37551E-37-3.13727E-05-8.60180E-21 5.36055E-20
 -1      1495 1.17669E-04-1.97752E-04 1.01358E-36-2.14910E-05-5.46669E-21 9.17839E-21
 -1      1496 1.32857E-04-2.20382E-04 1.09306E-36-3.07209E-05-3.28999E-20-5.83074E-20
 -1      1497 1.46845E-04-2.39062E-04 8.97774E-37-2.02298E-05 1.61331E-20 1.75776E-19
 -1      1498 1.64432E-04-2.63977E-04 1.16466E-36-2.72851E-05 1.44287E-21-8.57690E-20
 -1      1499 1.79421E-04-2.84010E-04 1.06018E-36-1.69239E-05-9.19691E-21 3.96903E-21
 -1      1500 1.98207E-04-3.09338E-04 1.48626E-36-2.07582E-05-8.00511E-21-7.13398E-20
 -1      1501 2.12881E-04-3.29228E-04 1.80505E-36-1.16567E-05-4.87656E-21-3.86254E-20
 -1      1502 2.30523E-04-3.51840E-04 1.64765E-36-1.19521E-05-1.19868E-20 6.98630E-20
 -1      1503 2.42550E-04-3.68658E-04 1.85517E-36-5.53696E-06-2.16047E-20 2.13135E-20
 -1      1504 2.55725E-04-3.84756E-04 1.07252E-36-3.59164E-06 4.72363E-20 1.89888E-20
 -1      1505 2.61267E-04-3.93161E-04 1.37695E-36-6.80402E-07-3.48649E-21 9.36674E-21
 -1      1506 8.78451E-08-4.83679E-07 1.11653E-37-3.36560E-08-1.51735E-22-2.14694E-19
 -1      1507 1.22974E-06-2.59462E-06 1.49673E-36-2.09794E-07-3.74388E-23-1.25832E-20
 -1      1508 2.77405E-06-6.47331E-06 4.50858E-37-7.44862E-07 8.18603E-23 1.87626E-19
 -1      1509 4.48206E-06-9.94803E-06-8.84184E-40 1.61161E-07 1.16350E-21 1.74818E-20
 -1      1510 5.96115E-06-1.33968E-05 4.85999E-37-1.52974E-06 6.73488E-22 9.07096E-20
 -1      1511 7.87186E-06-1.75106E-05 3.03762E-37 4.87227E-08 1.46120E-21-1.98990E-19
 -1      1512 9.93885E-06-2.16016E-05 2.96408E-37-2.41757E-06-4.68899E-22-1.36176E-19
 -1      1513 1.21637E-05-2.64345E-05 8.58832E-37-1.31404E-08 2.37008E-21-2.49209E-19
 -1      1514 1.48213E-05-3.12989E-05 4.68594E-37-3.40488E-06-6.25525E-23 2.35864E-19
 -1      1515 1.75443E-05-3.69932E-05 4.79392E-37-4.32619E-08 1.37050E-21 4.87977E-19
 -1      1516 2.08631E-05-4.28139E-05 5.12861E-37-4.48736E-06 3.57990E-21-9.43325E-21
 -1      1517 2.42674E-05-4.95401E-05 4.91381E-37-5.58345E-08-2.68052E-21 3.02378E-19
 -1      1518 2.83815E-05-5.65446E-05 4.76781E-37-5.65480E-06-4.17410E-21-8.57334E-20
 -1      1519 3.26646E-05-6.45051E-05 5.06581E-37-5.95199E-08 1.50410E-21-1.21473E-19
 -1      1520 3.77678E-05-7.29717E-05 5.57886E-37-6.88183E-06 1.00150E-21 1.68407E-19
 -1      1521 4.31552E-05-8.24039E-05 2.22220E-37-5.89727E-08-3.52673E-21 1.15857E-19
 -1      1522 4.94971E-05-9.26618E-05 4.30126E-37-8.11834E-06 4.27909E-21-9.31593E-20
 -1      1523 5.62491E-05-1.03836E-04 5.12948E-37-5.64278E-08-1.33064E-20 3.10782E-19
 -1      1524 6.41274E-05-1.16252E-04 6.16858E-37-9.27704E-06 1.17519E-20-6.43876E-20
 -1      1525 7.25312E-05-1.29460E-04 4.04169E-37-5.29236E-08 5.51916E-21 2.29881E-19
 -1      1526 8.22709E-05-1.44399E-04 5.16686E-37-1.02190E-05 1.20877E-22-4.23905E-20
 -1      1527 9.26070E-05-1.59914E-04 4.74952E-37-4.89992E-08 2.21318E-21 2.09167E-20
 -1      1528 1.04508E-04-1.77653E-04 6.21805E-37-1.07423E-05-3.10507E-21-9.28630E-21
 -1      1529 1.16968E-04-1.95649E-04 7.42185E-37-4.46123E-08-1.08228E-20-1.80844E-19
 -1      1530 1.31194E-04-2.16204E-04 1.06715E-36-1.05864E-05 9.25104E-21-3.14746E-19
 -1      1531 1.45718E-04-2.36584E-04 9.47555E-37-3.90921E-08-6.63648E-21-3.39848E-19
 -1      1532 1.62095E-04-2.59428E-04 1.07020E-36-9.48167E-06 4.41959E-21 2.39447E-19
 -1      1533 1.78083E-04-2.81516E-04 1.52645E-36-2.68833E-08 5.28272E-21-1.04964E-19
 -1      1534 1.95773E-04-3.05186E-04 1.32145E-36-7.28387E-06-8.65632E-21 3.32786E-20
 -1      1535 2.11708E-04-3.27256E-04 1.58054E-36-7.97300E-09 2.86838E-21-9.36430E-20
 -1      1536 2.28778E-04-3.48972E-04 1.75160E-36-4.23229E-06-2.26348E-21 2.23394E-20
 -1      1537 2.41901E-04-3.67657E-04 1.83174E-36 6.14517E-08 4.57913E-21-4.96833E-20
 -1      1538 2.55301E-04-3.83817E-04 1.62707E-36-1.30121E-06 2.86964E-19 3.01132E-20
 -1      1539 2.61032E-04-3.92924E-04 4.13967E-37 1.73605E-07 1.16410E-19-4.48199E-20
 -1      1540 1.00479E-06-4.40288E-07 9.50771E-34 9.98780E-08 1.02038E-17 5.89904E-19
 -1      1541 1.69447E-09 1.23948E-08 9.73587E-34 4.61027E-07-5.35968E-18-6.57068E-19
 -1      1542-3.44977E-08-7.43531E-08 3.69951E-34 2.59973E-07 8.59346E-19-3.36019E-19
 -1      1543 1.02944E-06-3.96037E-07 9.06531E-34-6.63504E-07 1.48135E-17 1.77824E-19
 -1      1544-1.43343E-06 5.16128E-07 1.22285E-33 1.67568E-06-1.46810E-18 1.35503E-19
 -1      1545-7.36026E-07-5.54183E-08 2.49772E-34 7.03919E-07-6.23553E-18 1.01919E-18
 -1      1546 5.76632E-07 1.28692E-07 1.65415E-34-1.27847E-06 6.64674E-18-7.66424E-19
 -1      1547-2.47725E-06 6.50485E-07 2.99004E-34 3.25908E-06-4.94782E-18 3.76379E-19
 -1      1548-1.13816E-06-3.29774E-07 7.29369E-34 1.40778E-06-2.72489E-18-5.46192E-19
 -1      1549 4.35616E-07 6.21372E-07 3.02297E-34-1.36796E-06 1.18691E-17 8.89367E-19
 -1      1550-3.05458E-06 3.18982E-07 8.56976E-34 5.14961E-06-8.77612E-18 8.19999E-19
 -1      1551-1.23458E-06-9.24366E-07 4.60108E-34 2.40523E-06 5.99219E-18-4.00127E-19
 -1      1552 4.29827E-07 9.72374E-07 4.76219E-34-1.20790E-06 9.87047E-18 6.41518E-19
 -1      1553-3.13776E-06-5.15435E-07 6.01410E-34 7.33234E-06-2.50264E-18-3.04787E-19
 -1      1554-1.01345E-06-1.88793E-06 9.92349E-34 3.66598E-06 1.70734E-18 2.76939E-19
 -1      1555 5.54102E-07 9.99177E-07 4.98954E-34-9.10842E-07-1.46910E-17-5.95376E-19
 -1      1556-2.72681E-06-1.87230E-06 8.92664E-34 9.77882E-06-1.07155E-17-7.37770E-19
 -1      1557-4.56441E-07-3.28953E-06 7.75328E-34 5.12830E-06-2.99336E-19-9.71142E-20
 -1      1558 8.56155E-07 5.02045E-07 3.22544E-34-5.41532E-07-1.30907E-17 4.87682E-20
 -1      1559-1.83166E-06-3.77097E-06 1.17423E-33 1.24190E-05 3.29681E-18 3.41814E-19
 -1      1560 4.59090E-07-5.21253E-06 1.42960E-34 6.70759E-06-8.10018E-18 7.88434E-19
 -1      1561 1.40014E-06-7.16705E-07 6.06428E-34-1.47175E-07 1.47363E-17 6.47837E-19
 -1      1562-4.64991E-07-6.23610E-06 6.34963E-34 1.51332E-05-7.55960E-18 9.25652E-19
 -1      1563 1.75732E-06-7.74557E-06 5.75177E-34 8.29764E-06 6.54073E-18-2.83543E-19
 -1      1564 2.25281E-06-2.83813E-06 5.16342E-34 2.35137E-07-1.58619E-17-4.24626E-19
 -1      1565 1.36096E-06-9.29655E-06 1.02252E-33 1.77482E-05 8.63456E-18-7.12603E-20
 -1      1566 3.45891E-06-1.09685E-05 2.91329E-34 9.76942E-06-1.27586E-17 1.88276E-19
 -1      1567 3.47365E-06-6.00971E-06 2.36370E-34 5.75938E-07 1.86381E-18-2.48205E-20
 -1      1568 3.63382E-06-1.29782E-05 8.72289E-34 2.00340E-05-7.97837E-18-1.29320E-19
 -1      1569 5.57241E-06-1.49317E-05 9.85497E-34 1.09689E-05 8.26873E-18 1.14888E-20
 -1      1570 5.10355E-06-1.03222E-05-1.20048E-35 8.51070E-07-1.12244E-18 1.66297E-19
 -1      1571 6.33563E-06-1.72900E-05 3.04112E-34 2.17041E-05 1.51079E-17 1.94795E-20
 -1      1572 8.08101E-06-1.96271E-05 9.05895E-34 1.17150E-05 6.29687E-18-2.37073E-20
 -1      1573 7.14992E-06-1.57759E-05 5.79335E-34 1.03846E-06-1.86934E-17 6.87004E-21
 -1      1574 9.43111E-06-2.22023E-05 4.03087E-34 2.24193E-05-1.57308E-18 1.22382E-19
 -1      1575 1.09234E-05-2.49515E-05 2.12011E-34 1.17994E-05 6.05897E-18-1.21933E-19
 -1      1576 9.56661E-06-2.22327E-05 2.34091E-34 1.11371E-06-7.90338E-18 8.91916E-20
 -1      1577 1.28463E-05-2.76175E-05 2.33761E-34 2.18050E-05 1.10622E-17 1.51111E-19
 -1      1578 1.39670E-05-3.06625E-05 5.31345E-34 1.09959E-05-4.53063E-18 2.06597E-19
 -1      1579 1.22282E-05-2.93464E-05 1.31518E-34 1.04419E-06-3.44245E-19-3.06782E-19
 -1      1580 1.64282E-05-3.33299E-05 4.92498E-34 1.95011E-05 9.81711E-18-4.61225E-19
 -1      1581 1.69694E-05-3.63396E-05 4.75033E-34 9.09510E-06-5.21160E-18-8.20312E-20
 -1      1582 1.49008E-05-3.64700E-05 4.20625E-34 7.81036E-07 7.36687E-18 9.09854E-20
 -1      1583 1.98504E-05-3.89603E-05 4.18212E-34 1.52897E-05-1.17342E-17-6.26347E-19
 -1      1584 1.95058E-05-4.13677E-05 6.54384E-34 6.02176E-06 1.16603E-17-1.85500E-19
 -1      1585 1.72198E-05-4.25485E-05 1.45875E-34 2.54411E-07 8.99385E-18 3.78468E-19
 -1      1586 2.23308E-05-4.37744E-05 2.75014E-34 9.37373E-06-1.50792E-17 1.15693E-19
 -1      1587 2.07467E-05-4.49363E-05 9.33390E-34 2.20643E-06 1.67622E-18 5.43867E-19
 -1      1588 1.87308E-05-4.61040E-05 1.78016E-33-5.75137E-07-5.32894E-19-3.98984E-19
 -1      1589 2.15703E-05-4.58611E-05 9.08551E-34 2.74554E-06 8.16077E-18-4.50583E-19
 -1      1590 1.84439E-05-4.51327E-05 6.48204E-34-3.25320E-07-5.88726E-18 7.42718E-19
 -1      1591 1.91866E-05-4.59655E-05 6.46921E-34-1.20162E-06-9.57358E-18 5.06664E-19
 -1      1592-5.18001E-06 2.23455E-06 5.71776E-34-1.20910E-08 4.40978E-18-2.13520E-18
 -1      1593-1.25679E-05 5.43183E-06 9.65898E-34 1.89783E-06 1.73203E-17-7.77686E-19
 -1      1594-6.86894E-06 2.82380E-06 7.59305E-34 2.36687E-06 2.29452E-18 2.26028E-19
 -1      1595-1.37972E-05 5.86334E-06 1.75229E-34 5.52241E-06 2.55430E-19 2.28547E-19
 -1      1596-8.10318E-06 3.05332E-06 1.99196E-34 4.90884E-06 6.19843E-19-2.05753E-18
 -1      1597-1.46528E-05 5.92432E-06 1.97902E-34 9.23163E-06 8.39074E-18-2.30121E-19
 -1      1598-8.88218E-06 2.86338E-06 4.74756E-34 7.65526E-06-7.30763E-19 9.88903E-20
 -1      1599-1.50090E-05 5.50299E-06 3.72543E-34 1.30860E-05-9.92275E-18 3.07973E-19
 -1      1600-9.14182E-06 2.21056E-06 4.48124E-35 1.05923E-05-3.07348E-18 5.38987E-19
 -1      1601-1.47691E-05 4.53574E-06 8.98017E-35 1.70638E-05 2.09756E-18 1.13053E-21
 -1      1602-8.82751E-06 1.03921E-06 3.68631E-34 1.37014E-05-6.35253E-19-3.55397E-19
 -1      1603-1.38478E-05 2.96359E-06 4.00859E-34 2.11237E-05 2.06266E-18-3.18119E-20
 -1      1604-7.89366E-06-7.02836E-07 6.73692E-34 1.69379E-05-5.23190E-18 5.85397E-19
 -1      1605-1.21686E-05 7.28285E-07 1.07110E-33 2.51908E-05-1.00085E-18-5.13878E-19
 -1      1606-6.30616E-06-3.06001E-06 6.25637E-34 2.02190E-05 2.05175E-17 1.84695E-19
 -1      1607-9.66854E-06-2.22380E-06 4.48937E-34 2.91470E-05 1.00411E-17-8.48558E-20
 -1      1608-4.04290E-06-6.06864E-06 8.53981E-34 2.34117E-05 1.73123E-18-1.08407E-19
 -1      1609-6.30318E-06-5.93694E-06 1.16860E-34 3.28181E-05 4.13711E-18-2.15839E-19
 -1      1610-1.09485E-06-9.75599E-06 9.92273E-34 2.63213E-05 1.50034E-18-3.46809E-19
 -1      1611-2.05278E-06-1.04405E-05 3.68672E-34 3.59595E-05 1.65930E-18 6.83933E-20
 -1      1612 2.53021E-06-1.41361E-05 1.74571E-34 2.86838E-05-5.52966E-18 1.38565E-19
 -1      1613 3.06802E-06-1.57397E-05 2.41168E-34 3.82454E-05 8.39486E-18 1.57880E-21
 -1      1614 6.79770E-06-1.91992E-05 1.03660E-33 3.01627E-05-6.38202E-18-3.94270E-20
 -1      1615 8.99033E-06-2.17988E-05 6.53944E-34 3.92647E-05 2.46194E-18 1.31189E-19
 -1      1616 1.16245E-05-2.48918E-05 8.92574E-34 3.03558E-05 1.24126E-17 2.35985E-20
 -1      1617 1.55501E-05-2.85078E-05 4.55644E-34 3.85310E-05 1.04931E-17-2.62280E-20
 -1      1618 1.68338E-05-3.10790E-05 6.48106E-35 2.88226E-05-6.59699E-18 1.63393E-20
 -1      1619 2.24043E-05-3.56180E-05 2.27451E-34 3.55153E-05 3.73617E-18 3.94287E-19
 -1      1620 2.20601E-05-3.74748E-05 2.51009E-34 2.51483E-05 1.21243E-17 2.92960E-20
 -1      1621 2.88653E-05-4.26199E-05 1.23545E-33 2.97083E-05-3.73623E-18 8.09109E-19
 -1      1622 2.65391E-05-4.35021E-05 3.91151E-34 1.90735E-05 2.20905E-18-7.88201E-19
 -1      1623 3.35716E-05-4.85016E-05 1.91432E-34 2.06928E-05 1.32112E-18-3.13941E-19
 -1      1624 2.86383E-05-4.80567E-05 4.32823E-34 1.06522E-05-3.06322E-18-9.52710E-19
 -1      1625 3.38999E-05-5.11718E-05 3.48024E-34 7.91946E-06-7.29553E-18-3.99424E-19
 -1      1626 2.45398E-05-4.82354E-05 3.93186E-34 9.51128E-08 4.60765E-18-5.37810E-19
 -1      1627-2.25362E-05 9.64803E-06 3.60114E-34-8.66861E-08-1.15939E-17 2.60831E-19
 -1      1628-3.34928E-05 1.43770E-05 4.02908E-34 2.82682E-06-4.31354E-18-6.93598E-19
 -1      1629-2.34318E-05 9.94561E-06 3.77092E-34 4.25305E-06-5.57453E-19 1.29663E-18
 -1      1630-3.36332E-05 1.43724E-05 9.22746E-34 8.21758E-06-5.50087E-18-8.18762E-19
 -1      1631-2.39229E-05 9.89457E-06 6.03171E-34 8.71993E-06-3.51865E-18-3.57493E-19
 -1      1632-3.33285E-05 1.39669E-05 6.71866E-34 1.36617E-05 3.06836E-19-3.15872E-19
 -1      1633-2.39441E-05 9.45629E-06 8.50095E-34 1.34033E-05 3.40510E-18-2.06686E-19
 -1      1634-3.24608E-05 1.30798E-05 5.67838E-34 1.92623E-05 8.55726E-18 1.06137E-19
 -1      1635-2.33885E-05 8.54670E-06 2.26863E-34 1.82112E-05 5.01886E-18-1.04687E-18
 -1      1636-3.09193E-05 1.16395E-05 3.37272E-34 2.49552E-05-8.88335E-19 4.68549E-19
 -1      1637-2.21507E-05 7.07452E-06 2.12213E-34 2.30899E-05 6.28753E-18-8.15291E-20
 -1      1638-2.85834E-05 9.55997E-06 1.01228E-34 3.06612E-05 4.33188E-18 6.03362E-19
 -1      1639-2.01269E-05 4.95114E-06 5.27361E-34 2.79649E-05-1.25108E-17-4.32558E-19
 -1      1640-2.53284E-05 6.74832E-06 1.62033E-34 3.62701E-05-3.06132E-18 2.01332E-20
 -1      1641-1.72188E-05 2.09349E-06 4.81305E-34 3.27274E-05 3.24502E-18-9.30633E-19
 -1      1642-2.10329E-05 3.11115E-06 4.43896E-34 4.16301E-05 9.32016E-18 6.46527E-19
 -1      1643-1.33396E-05-1.57258E-06 2.83948E-34 3.72208E-05 8.67988E-18-5.16716E-22
 -1      1644-1.55875E-05-1.43786E-06 6.54680E-34 4.65331E-05-9.73155E-18-6.04047E-20
 -1      1645-8.42204E-06-6.10712E-06 1.07501E-34 4.12254E-05 2.35275E-18-6.22397E-20
 -1      1646-8.90899E-06-6.96790E-06 3.21299E-34 5.06968E-05 1.85027E-18-2.38552E-19
 -1      1647-2.43085E-06-1.15475E-05 6.25813E-34 4.44426E-05 6.01007E-18 1.89936E-20
 -1      1648-9.60666E-07-1.35152E-05 4.29385E-34 5.37451E-05-4.98397E-19 1.49467E-20
 -1      1649 4.61626E-06-1.78936E-05 4.42567E-34 4.64804E-05-1.67440E-18-2.89107E-20
 -1      1650 8.21220E-06-2.10570E-05 4.37832E-34 5.51898E-05 1.21147E-18-2.38372E-20
 -1      1651 1.26118E-05-2.50801E-05 3.68929E-34 4.68453E-05-4.69391E-18-1.03535E-19
 -1      1652 1.84236E-05-2.94659E-05 3.11489E-34 5.44162E-05-6.10539E-18 2.33365E-20
 -1      1653 2.12907E-05-3.29269E-05 1.78032E-34 4.49461E-05 3.47868E-18-4.27699E-19
 -1      1654 2.92460E-05-3.84324E-05 3.18684E-34 5.06803E-05-5.41711E-18 7.81334E-20
 -1      1655 3.01085E-05-4.10465E-05 3.21155E-34 4.01171E-05-3.31826E-18-3.67862E-19
 -1      1656 3.98439E-05-4.73345E-05 1.99138E-34 4.31122E-05 7.85384E-19 1.18483E-20
 -1      1657 3.80221E-05-4.86791E-05 3.31519E-34 3.16556E-05 3.14386E-18-1.32746E-18
 -1      1658 4.87201E-05-5.50388E-05 2.47445E-34 3.07214E-05 2.28901E-18-1.34805E-18
 -1      1659 4.31363E-05-5.44443E-05 5.20203E-34 1.88301E-05 5.29331E-18-6.37193E-20
 -1      1660 5.33847E-05-5.95281E-05 4.91840E-34 1.20233E-05 5.38574E-18-2.85825E-19
 -1      1661 4.19961E-05-5.55819E-05 2.82581E-34 1.62508E-07-8.39878E-18 2.41680E-18
 -1      1662-4.63983E-05 1.98853E-05 1.89547E-34-9.06749E-08-3.87538E-18-3.43032E-18
 -1      1663-5.90345E-05 2.53149E-05 3.06385E-34 3.53148E-06-9.38115E-18-1.84072E-19
 -1      1664-4.60588E-05 1.96588E-05 5.14256E-34 5.75889E-06-7.46497E-18-3.18430E-19
 -1      1665-5.77884E-05 2.47243E-05 3.59645E-35 1.02978E-05-2.79766E-18 9.42150E-19
 -1      1666-4.52776E-05 1.90933E-05 2.72752E-34 1.17818E-05 1.11545E-17 3.58705E-19
 -1      1667-5.60034E-05 2.37067E-05 3.67404E-34 1.71604E-05 1.32394E-19-2.04329E-19
 -1      1668-4.39443E-05 1.81272E-05 2.95081E-34 1.80675E-05 7.15427E-18 1.49987E-19
 -1      1669-5.35551E-05 2.21943E-05 3.26298E-34 2.42287E-05 1.45675E-18 9.84614E-20
 -1      1670-4.19449E-05 1.66671E-05 2.79510E-34 2.44880E-05-4.73383E-18-1.43106E-18
 -1      1671-5.03219E-05 2.01071E-05 4.37997E-34 3.14107E-05 1.52058E-18 3.29859E-20
 -1      1672-3.91526E-05 1.46112E-05 2.47489E-34 3.09665E-05-2.94730E-18-6.70793E-20
 -1      1673-4.61605E-05 1.73429E-05 2.45638E-34 3.86066E-05-1.93742E-18 3.79691E-19
 -1      1674-3.54310E-05 1.18526E-05 4.75091E-34 3.73993E-05 1.65650E-17 1.21397E-19
 -1      1675-4.09146E-05 1.37870E-05 4.54116E-34 4.56814E-05 3.21467E-18 4.29190E-20
 -1      1676-3.06380E-05 8.28091E-06 4.06893E-34 4.36444E-05 2.27844E-18-3.55043E-19
 -1      1677-3.44196E-05 9.31662E-06 3.75172E-34 5.24512E-05-6.56568E-19-2.46875E-19
 -1      1678-2.46322E-05 3.78625E-06 6.24685E-34 4.95074E-05-7.53814E-18 4.81828E-20
 -1      1679-2.65115E-05 3.80813E-06 4.16808E-34 5.86666E-05-1.19447E-17-4.20609E-19
 -1      1680-1.72851E-05-1.73276E-06 4.25615E-34 5.47248E-05 7.97161E-19 1.21080E-19
 -1      1681-1.70421E-05-2.85078E-06 5.55301E-34 6.39899E-05 1.50035E-18-1.11816E-19
 -1      1682-8.49882E-06-8.35541E-06 3.70180E-34 5.89419E-05-1.23102E-18-9.80042E-20
 -1      1683-5.90640E-06-1.07406E-05 3.73508E-34 6.79686E-05-1.07438E-17 9.60918E-20
 -1      1684 1.76240E-06-1.61163E-05 5.36720E-34 6.16888E-05-1.15287E-17 2.99030E-20
 -1      1685 6.91341E-06-1.98761E-05 7.36938E-34 7.00040E-05-5.27415E-18-2.07446E-19
 -1      1686 1.34220E-05-2.49675E-05 2.68136E-34 6.23552E-05-1.13781E-17 9.04151E-21
 -1      1687 2.12762E-05-3.01507E-05 3.53790E-34 6.93188E-05-4.84093E-18-4.20654E-19
 -1      1688 2.62074E-05-3.47155E-05 3.71622E-34 6.01689E-05-2.57443E-18-6.94342E-19
 -1      1689 3.67685E-05-4.12491E-05 2.68936E-34 6.49278E-05 7.60746E-18-1.81314E-19
 -1      1690 3.95163E-05-4.49182E-05 2.56022E-34 5.41818E-05 1.79427E-18 7.79427E-19
 -1      1691 5.25319E-05-5.25117E-05 2.25672E-34 5.56116E-05 7.04335E-18 9.14087E-20
 -1      1692 5.22069E-05-5.47223E-05 4.22910E-34 4.32631E-05-1.80306E-18-2.24382E-20
 -1      1693 6.70240E-05-6.27526E-05 2.65479E-34 3.99034E-05-8.10968E-18-4.90313E-19
 -1      1694 6.23196E-05-6.26790E-05 9.10964E-35 2.60816E-05 1.62414E-18 2.40175E-19
 -1      1695 7.77577E-05-6.99344E-05 3.89705E-34 1.56708E-05 1.52204E-18 2.39615E-19
 -1      1696 6.66577E-05-6.61967E-05 2.24797E-34 2.91820E-07-5.23555E-18 3.74284E-19
 -1      1697-7.38528E-05 3.16503E-05 9.86633E-35-9.10924E-08-4.86967E-18 8.62568E-19
 -1      1698-8.69771E-05 3.72845E-05 1.63814E-34 4.06604E-06-1.22718E-18 5.09428E-19
 -1      1699-7.21041E-05 3.08346E-05 8.27669E-34 6.97613E-06 8.27020E-18-1.32628E-18
 -1      1700-8.42436E-05 3.60630E-05 1.65614E-34 1.19071E-05-1.36062E-18-1.83477E-19
 -1      1701-6.98478E-05 2.96687E-05 6.26691E-34 1.42598E-05 1.41081E-17-8.28798E-20
 -1      1702-8.08798E-05 3.44002E-05 4.04108E-34 1.99145E-05 7.87874E-18 2.05204E-19
 -1      1703-6.69358E-05 2.80766E-05 1.91883E-34 2.18619E-05 7.52425E-18-4.77344E-19
 -1      1704-7.67482E-05 3.22289E-05 6.06608E-34 2.81925E-05-1.44850E-18-1.10188E-19
 -1      1705-6.32522E-05 2.59632E-05 1.84799E-34 2.96409E-05 3.63850E-18-1.30862E-19
 -1      1706-7.17153E-05 2.94592E-05 1.52454E-34 3.66374E-05-6.65016E-18-6.98195E-19
 -1      1707-5.86514E-05 2.32193E-05 8.19398E-35 3.75106E-05-3.06417E-18 3.87274E-19
 -1      1708-6.56132E-05 2.59735E-05 2.36832E-34 4.51430E-05-6.52688E-19 3.32357E-19
 -1      1709-5.29687E-05 1.97231E-05 2.00237E-34 4.53511E-05 7.38089E-18 3.11916E-19
 -1      1710-5.82503E-05 2.16345E-05 1.47600E-34 5.35605E-05 8.12784E-18 9.23421E-20
 -1      1711-4.60225E-05 1.53404E-05 4.03556E-34 5.29971E-05-4.99304E-18-8.23298E-19
 -1      1712-4.94135E-05 1.62881E-05 3.14714E-34 6.16828E-05-4.45653E-18 4.48692E-19
 -1      1713-3.76192E-05 9.92843E-06 3.99975E-34 6.02211E-05 4.69720E-18-6.75625E-20
 -1      1714-3.88761E-05 9.77009E-06 3.16561E-34 6.92216E-05 4.41297E-19-5.10874E-20
 -1      1715-2.75656E-05 3.34382E-06 4.20066E-34 6.67119E-05-2.82205E-18-1.34672E-20
 -1      1716-2.64139E-05 1.91978E-06 1.66534E-34 7.57794E-05 6.96822E-19 2.53869E-19
 -1      1717-1.56899E-05-4.54076E-06 4.84215E-34 7.20458E-05-1.43083E-18 7.67102E-20
 -1      1718-1.18365E-05-7.39591E-06 2.76799E-34 8.08142E-05-6.31712E-18-5.45934E-20
 -1      1719-1.87883E-06-1.38089E-05 2.69134E-34 7.56538E-05-4.61337E-18 3.84918E-22
 -1      1720 4.96185E-06-1.82423E-05 3.30572E-35 8.35982E-05 1.19379E-18 1.00611E-19
 -1      1721 1.38615E-05-2.44546E-05 7.13155E-35 7.67826E-05 6.89525E-18-1.27628E-19
 -1      1722 2.39206E-05-3.05546E-05 7.64513E-35 8.31727E-05 4.00343E-18-1.42073E-19
 -1      1723 3.13109E-05-3.63096E-05 2.92547E-34 7.44553E-05-6.04907E-18 7.00705E-19
 -1      1724 4.46874E-05-4.40418E-05 1.04128E-34 7.83021E-05 2.17316E-19 6.34879E-20
 -1      1725 4.98880E-05-4.89325E-05 2.46778E-34 6.74343E-05 3.91365E-18-1.12087E-19
 -1      1726 6.64301E-05-5.80427E-05 1.48958E-34 6.74266E-05 2.38217E-18 4.92485E-19
 -1      1727 6.84324E-05-6.14387E-05 2.65958E-34 5.41911E-05-8.63410E-19-3.35535E-19
 -1      1728 8.75775E-05-7.13329E-05 2.46354E-34 4.86291E-05-8.60289E-18 1.21032E-18
 -1      1729 8.49184E-05-7.23109E-05 1.24442E-34 3.28813E-05-8.70849E-18-2.99703E-19
 -1      1730 1.05589E-04-8.18008E-05 7.14131E-35 1.91516E-05-4.04675E-18-1.50108E-18
 -1      1731 9.61464E-05-7.88657E-05 4.01342E-34 4.14455E-07 1.29798E-17 5.49617E-19
 -1      1732-1.02898E-04 4.40997E-05 1.38347E-35-8.00282E-08-3.33826E-18 1.19578E-18
 -1      1733-1.15665E-04 4.95753E-05 4.79915E-34 4.43641E-06 3.02350E-18-2.58118E-19
 -1      1734-9.97088E-05 4.26804E-05 5.33281E-34 7.92130E-06-3.68361E-18-1.02198E-18
 -1      1735-1.11484E-04 4.77451E-05 3.82685E-34 1.30692E-05 1.06922E-18-7.97658E-19
 -1      1736-9.59523E-05 4.09090E-05 2.07220E-34 1.61929E-05-2.36719E-18-8.61946E-19
 -1      1737-1.06600E-04 4.54751E-05 3.45125E-34 2.19620E-05 3.57587E-18 2.37381E-19
 -1      1738-9.14429E-05 3.86918E-05 3.61953E-34 2.48499E-05 2.72736E-18 4.91351E-19
 -1      1739-1.00857E-04 4.26906E-05 1.03355E-34 3.12125E-05 2.45735E-19-1.39331E-18
 -1      1740-8.60600E-05 3.59320E-05 3.36635E-34 3.37530E-05 4.26281E-18-2.24170E-19
 -1      1741-9.41034E-05 3.92870E-05 2.93982E-34 4.07196E-05 1.77626E-18-5.64230E-20
 -1      1742-7.96339E-05 3.25091E-05 1.19086E-34 4.28175E-05 5.60610E-19 4.58793E-19
 -1      1743-8.61367E-05 3.51248E-05 2.59693E-34 5.03805E-05 4.89006E-18 8.73224E-19
 -1      1744-7.19649E-05 2.82818E-05 1.72186E-34 5.19190E-05 6.87479E-19 6.33013E-20
 -1      1745-7.67172E-05 3.00355E-05 1.75152E-34 6.00417E-05 3.18182E-19-4.30180E-19
 -1      1746-6.28222E-05 2.30863E-05 4.52787E-34 6.08779E-05-8.29720E-18 6.70437E-20
 -1      1747-6.55676E-05 2.38243E-05 2.56256E-34 6.94763E-05 5.85831E-18 7.66653E-19
 -1      1748-5.19489E-05 1.67400E-05 4.45306E-34 6.94384E-05 8.88827E-18-3.47498E-19
 -1      1749-5.23817E-05 1.62780E-05 1.94733E-34 7.83559E-05-5.89505E-18 3.18575E-20
 -1      1750-3.90739E-05 9.05101E-06 1.51702E-34 7.72398E-05-1.36078E-18-4.36231E-20
 -1      1751-3.68439E-05 7.18149E-06 2.44120E-34 8.62147E-05-3.90840E-18-2.76073E-19
 -1      1752-2.39371E-05-1.62349E-07 1.30520E-34 8.37812E-05-3.42510E-18-6.07490E-20
 -1      1753-1.86653E-05-3.65194E-06 2.82832E-34 9.24083E-05-3.22404E-18-5.54262E-21
 -1      1754-6.33218E-06-1.10382E-05 1.18462E-34 8.83801E-05 6.33302E-19-9.73271E-21
 -1      1755 2.35684E-06-1.63350E-05 1.35361E-34 9.60668E-05-2.92986E-18-4.46796E-20
 -1      1756 1.38246E-05-2.36189E-05 2.52842E-34 9.01260E-05 2.42165E-18-1.89089E-19
 -1      1757 2.62511E-05-3.08398E-05 1.58214E-34 9.60442E-05-9.99415E-19 2.74383E-19
 -1      1758 3.63907E-05-3.77729E-05 2.54955E-34 8.78292E-05 3.34280E-18 1.68530E-19
 -1      1759 5.27411E-05-4.69025E-05 8.55316E-35 9.08617E-05 1.85145E-18-2.25476E-19
 -1      1760 6.08417E-05-5.30796E-05 3.78562E-34 7.99672E-05-5.56294E-20 3.19544E-20
 -1      1761 8.10497E-05-6.38783E-05 5.86077E-34 7.86383E-05-9.61847E-18 1.63607E-20
 -1      1762 8.60356E-05-6.86518E-05 2.37924E-34 6.46303E-05-7.80814E-18 3.55234E-19
 -1      1763 1.09617E-04-8.05368E-05 4.25887E-35 5.70151E-05 1.32689E-18 6.29152E-19
 -1      1764 1.09894E-04-8.29214E-05 2.07916E-34 3.94660E-05 2.26850E-18-1.79571E-18
 -1      1765 1.35866E-04-9.47100E-05 3.15211E-34 2.25506E-05-1.13621E-17 1.07015E-18
 -1      1766 1.29126E-04-9.30487E-05 1.89900E-34 5.62233E-07-4.28431E-18 6.17120E-19
 -1      1767-1.31999E-04 5.65709E-05 8.54903E-35-6.31567E-08 6.32131E-18-3.64868E-18
 -1      1768-1.43813E-04 6.16367E-05 1.78181E-34 4.64423E-06-2.66437E-18-1.42100E-19
 -1      1769-1.27467E-04 5.45931E-05 3.42004E-34 8.59130E-06 4.88257E-18-1.77818E-18
 -1      1770-1.38361E-04 5.92793E-05 1.68622E-34 1.37974E-05 8.12310E-19 1.62115E-19
 -1      1771-1.22329E-04 5.22743E-05 1.82829E-34 1.75869E-05 2.18860E-18-4.09560E-19
 -1      1772-1.32157E-04 5.64993E-05 1.10060E-34 2.33378E-05-1.80405E-18-6.75475E-19
 -1      1773-1.16360E-04 4.95019E-05 1.04024E-34 2.70582E-05-1.14436E-19 2.43804E-19
 -1      1774-1.25023E-04 5.32048E-05 2.97799E-34 3.33599E-05-5.01074E-18 8.34918E-19
 -1      1775-1.09428E-04 4.61719E-05 1.23396E-34 3.68820E-05 2.14569E-18-3.69462E-19
 -1      1776-1.16772E-04 4.92665E-05 2.32272E-34 4.37779E-05 4.32081E-18-6.54026E-19
 -1      1777-1.01326E-04 4.21440E-05 1.99289E-34 4.69850E-05 3.12613E-18 3.53090E-19
 -1      1778-1.07152E-04 4.45094E-05 2.56698E-34 5.44999E-05-4.23689E-18 3.57966E-19
 -1      1779-9.18038E-05 3.72457E-05 2.34213E-34 5.72452E-05-4.53110E-18-4.67068E-20
 -1      1780-9.58519E-05 3.87192E-05 1.94083E-34 6.53680E-05 2.29134E-18-5.00139E-19
 -1      1781-8.05631E-05 3.12714E-05 2.05006E-34 6.74721E-05 7.38854E-18 2.60537E-19
 -1      1782-8.25073E-05 3.16467E-05 9.54531E-35 7.61293E-05-1.06316E-18-5.00150E-19
 -1      1783-6.72644E-05 2.39869E-05 1.44582E-34 7.73772E-05-9.91847E-19 1.69909E-19
 -1      1784-6.67132E-05 2.30207E-05 1.25005E-34 8.63994E-05 4.66704E-20-2.24391E-19
 -1      1785-5.15430E-05 1.51448E-05 1.18904E-34 8.65392E-05-5.73334E-18-2.18100E-19
 -1      1786-4.80520E-05 1.25743E-05 1.99989E-34 9.56222E-05 8.82597E-18 6.27284E-20
 -1      1787-3.30410E-05 4.50986E-06 2.79305E-34 9.43633E-05 6.23868E-18 8.71498E-20
 -1      1788-2.61404E-05 8.34904E-08 2.22075E-34 1.03029E-04 7.04021E-18 2.15272E-22
 -1      1789-1.14592E-05-8.09962E-06 1.05579E-34 1.00038E-04-2.44232E-18 5.69501E-20
 -1      1790-6.96389E-07-1.45825E-05 4.79122E-34 1.07595E-04-8.16142E-19 1.32292E-19
 -1      1791 1.33688E-05-2.27558E-05 1.36634E-34 1.02487E-04 1.27242E-18 1.01112E-19
 -1      1792 2.83733E-05-3.13992E-05 1.40430E-34 1.07999E-04-6.33603E-19 6.73880E-20
 -1      1793 4.13734E-05-3.93467E-05 1.53080E-34 1.00320E-04-2.74529E-18 9.79045E-20
 -1      1794 6.08564E-05-5.01095E-05 3.17483E-34 1.02559E-04-2.84653E-18 2.99475E-19
 -1      1795 7.20995E-05-5.74720E-05 5.22282E-35 9.17624E-05 2.31725E-19-6.03455E-19
 -1      1796 9.60572E-05-7.01017E-05 1.62789E-34 8.91309E-05-8.33981E-18 4.96089E-19
 -1      1797 1.04469E-04-7.62746E-05 1.84309E-34 7.45602E-05 4.68930E-19 6.43170E-19
 -1      1798 1.32515E-04-9.02095E-05 2.07235E-34 6.49533E-05-4.34513E-18 8.72820E-19
 -1      1799 1.36425E-04-9.42033E-05 2.19036E-34 4.58485E-05-9.76758E-19 1.22049E-18
 -1      1800 1.67761E-04-1.08330E-04 1.88259E-34 2.58339E-05 2.86632E-18-7.19952E-19
 -1      1801 1.64651E-04-1.08313E-04 6.36810E-35 7.40762E-07-1.42414E-18-3.73360E-19
 -1      1802-1.59969E-04 6.85565E-05 1.96150E-34-4.17817E-08-7.14403E-19 6.58067E-19
 -1      1803-1.70469E-04 7.30608E-05 2.73151E-34 4.69770E-06-3.60481E-18-1.29645E-18
 -1      1804-1.54324E-04 6.61207E-05 2.42646E-34 8.99010E-06 4.22298E-18-6.73998E-19
 -1      1805-1.64059E-04 7.03158E-05 1.44758E-34 1.41275E-05-5.75218E-18 5.22712E-19
 -1      1806-1.48063E-04 6.33696E-05 4.12069E-34 1.84678E-05-3.20986E-18-4.52737E-19
 -1      1807-1.56877E-04 6.71759E-05 2.97056E-34 2.41222E-05 4.25792E-18 9.32315E-19
 -1      1808-1.40916E-04 6.01667E-05 2.72270E-34 2.85533E-05-3.57925E-18-6.14378E-19
 -1      1809-1.48703E-04 6.35168E-05 3.72147E-34 3.47817E-05-8.53140E-18-2.94076E-19
 -1      1810-1.32721E-04 5.63881E-05 3.64161E-34 3.91531E-05-1.16925E-18 3.76131E-19
 -1      1811-1.39295E-04 5.91653E-05 2.55519E-34 4.60456E-05-5.04953E-18 5.67978E-19
 -1      1812-1.23214E-04 5.18580E-05 2.86446E-34 5.02114E-05-4.07335E-18-1.86948E-19
 -1      1813-1.28317E-04 5.38895E-05 1.18080E-34 5.78318E-05 1.70398E-18 2.51272E-19
 -1      1814-1.12068E-04 4.63537E-05 1.50113E-34 6.16088E-05 6.84812E-18-8.81055E-20
 -1      1815-1.15355E-04 4.74072E-05 1.32584E-34 6.99658E-05 1.58924E-18-1.09808E-19
 -1      1816-9.88900E-05 3.96090E-05 1.21545E-34 7.31337E-05-7.06512E-18 2.48715E-19
 -1      1817-9.99315E-05 3.93992E-05 1.11830E-34 8.21419E-05-6.30497E-20 7.12492E-20
 -1      1818-8.32360E-05 3.13266E-05 1.61469E-34 8.44442E-05-5.50526E-18-6.12470E-20
 -1      1819-8.15262E-05 2.95369E-05 1.83446E-34 9.38810E-05-3.22841E-18-5.18958E-20
 -1      1820-6.46375E-05 2.12040E-05 1.27636E-34 9.50282E-05-5.10058E-19 3.53050E-19
 -1      1821-5.96286E-05 1.75239E-05 5.89336E-35 1.04494E-04-2.92423E-19 3.11225E-20
 -1      1822-4.26486E-05 8.97263E-06 3.19764E-35 1.04165E-04-2.78374E-18-1.03169E-19
 -1      1823-3.37987E-05 3.14655E-06 2.30211E-34 1.13056E-04-2.76293E-18-6.09862E-21
 -1      1824-1.69076E-05-5.55307E-06 3.08641E-35 1.10893E-04-1.89029E-18-5.99848E-20
 -1      1825-3.73609E-06-1.36778E-05 4.07516E-34 1.18386E-04 1.53404E-18 5.74013E-20
 -1      1826 1.27906E-05-2.24229E-05 2.91293E-34 1.13979E-04 8.09708E-19 6.01719E-20
 -1      1827 3.06531E-05-3.28639E-05 1.55016E-34 1.19030E-04 1.16181E-18-2.14540E-19
 -1      1828 4.64119E-05-4.14987E-05 1.75789E-34 1.11873E-04 2.13241E-18 1.94906E-20
 -1      1829 6.91864E-05-5.41278E-05 1.32453E-34 1.13191E-04-2.42907E-18-5.91708E-19
 -1      1830 8.35700E-05-6.23896E-05 3.08599E-34 1.02629E-04 1.84857E-18 4.58260E-19
 -1      1831 1.11287E-04-7.69212E-05 1.50473E-34 9.85828E-05 8.65230E-19 8.24299E-19
 -1      1832 1.23322E-04-8.43225E-05 1.76717E-34 8.37396E-05-8.06413E-18 2.15969E-19
 -1      1833 1.55742E-04-1.00264E-04 3.46461E-34 7.21322E-05 2.78988E-18-7.16835E-19
 -1      1834 1.63795E-04-1.05901E-04 9.55968E-35 5.18581E-05-8.08298E-18 1.02517E-18
 -1      1835 2.00481E-04-1.22352E-04 1.21000E-34 2.88642E-05-3.86834E-18 1.13988E-18
 -1      1836 2.01907E-04-1.24289E-04 4.94513E-34 9.52973E-07 1.55237E-17-3.41643E-19
 -1      1837-1.85943E-04 7.96859E-05 3.49834E-34-1.85633E-08-2.83224E-18-8.78413E-19
 -1      1838-1.94999E-04 8.35762E-05 1.97714E-34 4.61366E-06 1.39099E-18 1.80962E-19
 -1      1839-1.79559E-04 7.69521E-05 1.65690E-34 9.13943E-06 1.66087E-18-6.93850E-19
 -1      1840-1.88092E-04 8.06436E-05 2.24559E-34 1.41267E-05 1.12785E-18 9.54713E-20
 -1      1841-1.72573E-04 7.39399E-05 9.72146E-35 1.89041E-05 3.12336E-18-4.21099E-19
 -1      1842-1.80412E-04 7.73427E-05 2.42149E-34 2.44605E-05-1.07085E-17 2.57647E-19
 -1      1843-1.64664E-04 7.04765E-05 1.47231E-34 2.94775E-05-2.76805E-18-2.21281E-19
 -1      1844-1.71670E-04 7.34910E-05 1.37493E-34 3.57315E-05 2.61900E-18 7.93703E-19
 -1      1845-1.55606E-04 6.63962E-05 1.19436E-34 4.08063E-05-2.60655E-18-3.26678E-20
 -1      1846-1.61525E-04 6.88396E-05 1.54067E-34 4.79087E-05 3.04555E-18-2.69003E-19
 -1      1847-1.45043E-04 6.14591E-05 1.72388E-34 5.28519E-05-1.12560E-18-5.35388E-19
 -1      1848-1.49510E-04 6.30653E-05 3.75858E-35 6.09033E-05 2.32998E-18 6.08355E-19
 -1      1849-1.32532E-04 5.53641E-05 2.02481E-34 6.54832E-05-1.19424E-18-9.88319E-20
 -1      1850-1.35065E-04 5.57902E-05 4.48538E-34 7.44867E-05 1.87613E-18 1.99598E-20
 -1      1851-1.17551E-04 4.77624E-05 1.96568E-34 7.84348E-05 5.08026E-18 2.97058E-19
 -1      1852-1.17567E-04 4.66164E-05 1.77601E-34 8.82412E-05 3.94484E-18 3.81058E-20
 -1      1853-9.95315E-05 3.82885E-05 2.27424E-34 9.12625E-05 1.66650E-18 5.72027E-20
 -1      1854-9.63895E-05 3.51805E-05 2.61535E-35 1.01522E-04-2.89499E-18-3.47342E-19
 -1      1855-7.79133E-05 2.66075E-05 2.01876E-34 1.03307E-04-3.76753E-18 2.82776E-19
 -1      1856-7.09786E-05 2.12189E-05 1.07523E-34 1.13445E-04-1.21306E-18-1.60138E-19
 -1      1857-5.22102E-05 1.24730E-05 3.12625E-34 1.13675E-04 5.48238E-18-1.08427E-21
 -1      1858-4.09307E-05 4.62339E-06 1.22474E-34 1.22899E-04 1.82828E-18-1.42795E-22
 -1      1859-2.20767E-05-4.22174E-06 1.62355E-34 1.21242E-04 2.35984E-18 1.16984E-20
 -1      1860-6.04205E-06-1.45350E-05 6.10257E-35 1.28581E-04-1.98981E-19 6.47764E-21
 -1      1861 1.26424E-05-2.34157E-05 3.72121E-34 1.24653E-04 1.93315E-18-2.20975E-19
 -1      1862 3.36837E-05-3.60279E-05 6.34750E-34 1.28997E-04 9.65114E-18-1.55999E-19
 -1      1863 5.18847E-05-4.48818E-05 1.71245E-34 1.22297E-04 2.22925E-18 1.21994E-19
 -1      1864 7.80583E-05-5.95222E-05 1.46691E-34 1.22390E-04-2.51348E-19 3.65300E-20
 -1      1865 9.53354E-05-6.82371E-05 1.39706E-34 1.12196E-04 1.41604E-18-2.38504E-19
 -1      1866 1.26691E-04-8.45986E-05 3.95109E-35 1.06504E-04-1.51339E-18-9.23258E-19
 -1      1867 1.42296E-04-9.28833E-05 1.45541E-34 9.17342E-05 2.35028E-18 2.92471E-19
 -1      1868 1.78826E-04-1.10638E-04 5.08529E-34 7.80953E-05-1.05448E-18 5.38425E-19
 -1      1869 1.91332E-04-1.17786E-04 1.49840E-34 5.71679E-05 3.19408E-18 8.97479E-19
 -1      1870 2.33200E-04-1.36454E-04 1.76137E-34 3.14309E-05 3.74440E-19-6.41792E-19
 -1      1871 2.40043E-04-1.40589E-04 2.08749E-34 1.19092E-06 1.68852E-18-1.56461E-18
 -1      1872-2.09359E-04 8.97179E-05 2.47547E-34 4.00422E-09 1.26965E-17-1.48219E-18
 -1      1873-2.17069E-04 9.30395E-05 1.60277E-34 4.41636E-06-2.54647E-19-4.03378E-19
 -1      1874-2.02763E-04 8.69119E-05 1.71535E-34 9.08093E-06-6.02608E-18 1.15355E-18
 -1      1875-2.10290E-04 9.01857E-05 1.71984E-34 1.38957E-05 7.80099E-19-1.56243E-20
 -1      1876-1.95605E-04 8.38676E-05 8.57704E-35 1.90159E-05 2.60933E-18 3.66418E-19
 -1      1877-2.02742E-04 8.69689E-05 8.62841E-35 2.45732E-05-1.97062E-18 3.14641E-19
 -1      1878-1.87481E-04 8.03518E-05 1.01177E-34 3.00671E-05-1.06483E-18 4.47244E-19
 -1      1879-1.94013E-04 8.31047E-05 1.18160E-34 3.65933E-05-2.19508E-18-4.02209E-19
 -1      1880-1.78051E-04 7.61164E-05 2.03206E-34 4.22270E-05 3.65303E-18 8.99182E-20
 -1      1881-1.83589E-04 7.82153E-05 2.81651E-34 4.99415E-05 3.48071E-18 3.29335E-19
 -1      1882-1.66808E-04 7.08136E-05 1.51344E-34 5.54583E-05-9.23507E-19-1.08619E-19
 -1      1883-1.70802E-04 7.18374E-05 1.54519E-34 6.44762E-05 3.63938E-18-1.32414E-19
 -1      1884-1.53134E-04 6.40242E-05 1.90527E-34 6.95754E-05-5.88374E-18 1.41540E-19
 -1      1885-1.54892E-04 6.34701E-05 1.83166E-34 7.98321E-05 4.47755E-18-1.35994E-20
 -1      1886-1.36341E-04 5.52982E-05 2.41897E-34 8.41886E-05 5.98103E-19 2.19811E-19
 -1      1887-1.35082E-04 5.26530E-05 1.75753E-34 9.53718E-05-8.37329E-19-3.29352E-19
 -1      1888-1.15744E-04 4.42209E-05-1.38859E-35 9.86621E-05 1.08600E-18 5.19326E-20
 -1      1889-1.10695E-04 3.90619E-05 3.20817E-34 1.10179E-04 9.21567E-19-8.74334E-21
 -1      1890-9.07479E-05 3.04937E-05 1.54617E-34 1.12106E-04 7.63362E-19-3.01362E-20
 -1      1891-8.12593E-05 2.25926E-05 1.13198E-34 1.23107E-04-6.28052E-18-8.34294E-20
 -1      1892-6.09370E-05 1.40045E-05 2.48791E-34 1.23409E-04 2.09546E-18 9.29872E-21
 -1      1893-4.65757E-05 3.39389E-06 1.61871E-34 1.32872E-04-1.81418E-18-4.45397E-21
 -1      1894-2.61215E-05-5.14311E-06 1.77710E-35 1.31305E-04-3.48491E-18 2.62515E-20
 -1      1895-6.69824E-06-1.81806E-05 2.45458E-34 1.38146E-04-6.72244E-18 9.03534E-20
 -1      1896 1.36795E-05-2.66678E-05 9.47606E-35 1.34416E-04-1.51120E-18-4.70612E-21
 -1      1897 3.81739E-05-4.16984E-05 1.72186E-34 1.37574E-04-8.86785E-18-9.50259E-20
 -1      1898 5.83125E-05-5.02068E-05 2.12319E-34 1.31237E-04 6.94609E-18-3.58659E-20
 -1      1899 8.78505E-05-6.68067E-05 1.74744E-34 1.29643E-04 6.27966E-18 3.47068E-20
 -1      1900 1.07568E-04-7.54260E-05 1.82499E-34 1.19944E-04 5.99373E-18-2.91286E-19
 -1      1901 1.42248E-04-9.33358E-05 1.62574E-34 1.12318E-04-2.02514E-18-6.50254E-19
 -1      1902 1.61149E-04-1.02040E-04 2.28182E-34 9.79936E-05 2.07950E-18 9.54543E-20
 -1      1903 2.01318E-04-1.21237E-04 5.69395E-35 8.23404E-05-5.29971E-19 3.13328E-19
 -1      1904 2.18375E-04-1.29627E-04 2.81811E-34 6.13638E-05-3.66298E-18-8.08401E-20
 -1      1905 2.65062E-04-1.50292E-04 2.16385E-34 3.32991E-05 4.54645E-18 1.72999E-19
 -1      1906 2.78115E-04-1.56787E-04 1.71881E-34 1.43577E-06-5.06674E-18 9.50529E-19
 -1      1907-2.29919E-04 9.85260E-05 1.26209E-34 2.30389E-08 3.67683E-18 4.59313E-19
 -1      1908-2.36610E-04 1.01421E-04 9.82453E-35 4.13538E-06 2.31182E-18 1.05889E-19
 -1      1909-2.23827E-04 9.59526E-05 9.16139E-35 8.87569E-06-1.07998E-18-2.74513E-19
 -1      1910-2.30789E-04 9.89929E-05 4.32640E-34 1.35722E-05-4.94473E-18 1.06601E-19
 -1      1911-2.17224E-04 9.31700E-05 1.78398E-34 1.89817E-05 4.40978E-18-1.17043E-18
 -1      1912-2.24174E-04 9.61507E-05 1.49320E-34 2.47758E-05-1.52176E-18 8.23463E-20
 -1      1913-2.09568E-04 8.98379E-05 2.82243E-34 3.06744E-05 1.03921E-17 4.80319E-19
 -1      1914-2.16129E-04 9.24313E-05 1.56144E-34 3.79210E-05-2.62613E-18 3.82367E-19
 -1      1915-2.00315E-04 8.55571E-05 5.82713E-35 4.39838E-05-4.92646E-18-4.65652E-19
 -1      1916-2.05855E-04 8.72447E-05 2.71398E-34 5.29618E-05-4.25603E-18 3.41106E-19
 -1      1917-1.88712E-04 7.98047E-05 1.64733E-34 5.88247E-05-1.56768E-18 1.07181E-19
 -1      1918-1.92381E-04 7.99260E-05 1.11887E-34 6.95963E-05-4.47979E-18-2.33765E-19
 -1      1919-1.73897E-04 7.19985E-05 1.21450E-34 7.48617E-05-4.14910E-18-1.78803E-19
 -1      1920-1.74703E-04 6.98478E-05 2.61844E-34 8.71658E-05-3.26039E-18-4.09683E-19
 -1      1921-1.55000E-04 6.15931E-05 3.06234E-34 9.14484E-05 6.75265E-18-1.13919E-19
 -1      1922-1.51945E-04 5.65688E-05 1.54617E-34 1.04643E-04 9.20224E-19-1.88584E-19
 -1      1923-1.31279E-04 4.82026E-05 1.74603E-35 1.07621E-04 4.23190E-20-4.18211E-20
 -1      1924-1.23539E-04 3.99719E-05 9.13721E-35 1.20714E-04-2.23102E-18-1.38790E-19
 -1      1925-1.02255E-04 3.17134E-05 2.76981E-34 1.22167E-04-2.53710E-18-2.38599E-21
 -1      1926-8.93324E-05 2.03277E-05 1.76776E-34 1.33954E-04 9.89895E-21 2.23580E-20
 -1      1927-6.77817E-05 1.23343E-05 7.24511E-35 1.33756E-04-2.00901E-19 2.01799E-20
 -1      1928-4.95725E-05-1.76772E-06 1.04361E-34 1.43017E-04 2.59331E-18 3.00413E-20
 -1      1929-2.80153E-05-9.45849E-06 1.85260E-34 1.41085E-04 3.17234E-18 7.77726E-20
 -1      1930-4.72981E-06-2.55810E-05 7.91307E-35 1.46765E-04 1.25183E-20-6.35159E-20
 -1      1931 1.67330E-05-3.30811E-05 7.43449E-36 1.42953E-04-3.24289E-19 3.82354E-20
 -1      1932 4.47722E-05-5.04997E-05 1.18940E-34 1.44230E-04-1.91006E-18 1.89662E-19
 -1      1933 6.62097E-05-5.80597E-05 1.52157E-34 1.38173E-04-1.75030E-18-7.51721E-19
 -1      1934 9.88367E-05-7.62761E-05 8.62624E-35 1.34355E-04-4.71447E-18-3.49599E-19
 -1      1935 1.20412E-04-8.42257E-05 8.53490E-35 1.25284E-04-3.48935E-19-1.20526E-19
 -1      1936 1.57868E-04-1.03166E-04 1.63586E-34 1.15481E-04-5.33390E-18 2.29638E-19
 -1      1937 1.79637E-04-1.11786E-04 1.57367E-34 1.01968E-04-1.80623E-18 2.03296E-20
 -1      1938 2.22775E-04-1.31897E-04 3.75811E-34 8.44379E-05-1.17379E-17 1.67144E-19
 -1      1939 2.44283E-04-1.41176E-04 1.26496E-34 6.40422E-05 2.22178E-18 1.99049E-19
 -1      1940 2.95233E-04-1.63518E-04 1.58686E-34 3.42680E-05-6.10076E-19-6.20367E-19
 -1      1941 3.15106E-04-1.72437E-04 3.72855E-34 1.66077E-06-7.45298E-18-1.38529E-18
 -1      1942-2.47546E-04 1.06078E-04 1.86266E-34 3.49269E-08-7.13643E-18-8.33075E-19
 -1      1943-2.53786E-04 1.08791E-04 1.69179E-34 3.80437E-06-7.47806E-18-1.32646E-18
 -1      1944-2.42921E-04 1.04146E-04 2.12325E-34 8.60513E-06-5.01109E-18 7.65893E-20
 -1      1945-2.50029E-04 1.07241E-04 3.11887E-35 1.33445E-05-4.02343E-19-3.35404E-19
 -1      1946-2.37819E-04 1.01997E-04 1.51283E-34 1.90553E-05 1.45441E-18 5.16192E-19
 -1      1947-2.45351E-04 1.05104E-04 1.39682E-34 2.55241E-05-3.32772E-18-2.27518E-19
 -1      1948-2.31457E-04 9.90954E-05 1.05636E-34 3.18120E-05 6.35056E-18-9.09964E-19
 -1      1949-2.38724E-04 1.01605E-04 1.71351E-34 4.05202E-05 1.92039E-18-2.17838E-19
 -1      1950-2.22927E-04 9.47754E-05 8.79452E-35 4.68981E-05-4.01752E-18-1.05794E-18
 -1      1951-2.28875E-04 9.58158E-05 2.04458E-34 5.81279E-05-2.59644E-18-1.93152E-19
 -1      1952-2.11099E-04 8.82461E-05 2.84910E-34 6.40611E-05-3.84825E-18 1.55391E-19
 -1      1953-2.14418E-04 8.68186E-05 1.90322E-34 7.76621E-05 6.78110E-18-1.63906E-19
 -1      1954-1.94802E-04 7.87340E-05 1.49638E-34 8.26253E-05 3.52756E-18 3.92672E-19
 -1      1955-1.94125E-04 7.39358E-05 1.58680E-34 9.78997E-05 3.26619E-18 2.37007E-19
 -1      1956-1.73037E-04 6.56788E-05 6.06006E-35 1.01469E-04-5.15541E-18-1.83899E-19
 -1      1957-1.67224E-04 5.69679E-05 7.87378E-35 1.17199E-04-2.91610E-18-1.06718E-19
 -1      1958-1.45200E-04 4.89213E-05 1.24887E-34 1.19132E-04-1.91977E-18 6.04077E-20
 -1      1959-1.33595E-04 3.63194E-05 5.14816E-35 1.33777E-04-4.53930E-20-1.62356E-19
 -1      1960-1.11209E-04 2.88015E-05 1.24864E-34 1.34039E-04 3.54399E-18 3.90365E-20
 -1      1961-9.37738E-05 1.29272E-05 1.08662E-34 1.46057E-04 3.19970E-18-5.68322E-20
 -1      1962-7.14770E-05 6.09249E-06 1.87511E-34 1.44766E-04-7.91162E-18 1.01538E-20
 -1      1963-4.86987E-05-1.20119E-05 1.72238E-34 1.52924E-04-1.50204E-18-7.96461E-20
 -1      1964-2.66882E-05-1.82298E-05 1.47565E-34 1.50226E-04 6.79392E-18 2.00575E-21
 -1      1965 6.90343E-07-3.74182E-05 1.90260E-34 1.53766E-04-6.10524E-18-1.21824E-20
 -1      1966 2.25241E-05-4.33093E-05 8.82049E-35 1.49673E-04-3.68846E-18 1.49580E-19
 -1      1967 5.38704E-05-6.26786E-05 1.38026E-34 1.48265E-04-9.73229E-19-3.02061E-19
 -1      1968 7.59129E-05-6.87143E-05 2.04325E-34 1.42477E-04-8.38530E-19 1.70111E-19
 -1      1969 1.11050E-04-8.78793E-05 1.45355E-34 1.35959E-04-1.42057E-18-3.28442E-19
 -1      1970 1.33862E-04-9.46411E-05 2.27897E-34 1.27670E-04 8.02372E-18-1.13378E-19
 -1      1971 1.73333E-04-1.13897E-04 1.80954E-34 1.15596E-04-6.08884E-19-2.39573E-19
 -1      1972 1.97470E-04-1.21973E-04 2.38132E-34 1.03232E-04-2.96624E-18-4.10151E-19
 -1      1973 2.42770E-04-1.42375E-04 1.76164E-34 8.41335E-05 9.46431E-19-2.70060E-19
 -1      1974 2.68467E-04-1.52174E-04 1.54920E-34 6.49084E-05 5.43023E-18 2.50430E-19
 -1      1975 3.22982E-04-1.75807E-04 1.71335E-34 3.42202E-05-2.80139E-18-1.99271E-20
 -1      1976 3.50014E-04-1.87114E-04 2.75303E-34 1.83783E-06 5.79051E-18 3.42010E-20
 -1      1977-2.62327E-04 1.12412E-04 5.62759E-35 3.37659E-08-6.49197E-19 2.41419E-20
 -1      1978-2.68970E-04 1.15309E-04 2.24436E-34 3.46265E-06 3.48410E-18 1.81295E-19
 -1      1979-2.60487E-04 1.11681E-04 1.75433E-34 8.37882E-06 5.84170E-19 4.86534E-19
 -1      1980-2.68788E-04 1.15241E-04 3.56913E-34 1.34874E-05 1.75457E-18-1.12841E-19
 -1      1981-2.58133E-04 1.10638E-04 3.53323E-34 1.96097E-05 3.52425E-18-1.23407E-19
 -1      1982-2.67310E-04 1.14158E-04 2.07614E-34 2.75138E-05 1.41514E-18-1.81010E-19
 -1      1983-2.54028E-04 1.08381E-04 1.25648E-34 3.42469E-05 6.13165E-18 6.85590E-19
 -1      1984-2.62808E-04 1.10745E-04 1.71719E-34 4.56068E-05 2.89559E-18 7.50092E-20
 -1      1985-2.46647E-04 1.03793E-04 3.13024E-35 5.21747E-05-4.04570E-19-1.93958E-19
 -1      1986-2.53266E-04 1.03572E-04 1.65257E-34 6.71010E-05 6.06079E-18 3.54845E-19
 -1      1987-2.34314E-04 9.57095E-05 1.65518E-34 7.27071E-05-4.85620E-18-5.08718E-19
 -1      1988-2.36814E-04 9.14970E-05 7.82997E-35 9.04974E-05 1.08374E-18 3.37758E-19
 -1      1989-2.15555E-04 8.32229E-05 2.08250E-34 9.44793E-05-5.19751E-19 2.22597E-19
 -1      1990-2.12230E-04 7.40778E-05 2.40222E-34 1.13600E-04 6.74918E-18 3.27523E-20
 -1      1991-1.89486E-04 6.60165E-05 6.39681E-35 1.15588E-04 2.25326E-18 2.00042E-19
 -1      1992-1.79341E-04 5.18298E-05 1.58549E-34 1.33960E-04-1.94006E-19-6.83215E-20
 -1      1993-1.56056E-04 4.45580E-05 1.58731E-34 1.33957E-04-3.92049E-18 1.33367E-20
 -1      1994-1.39057E-04 2.61520E-05 1.81374E-34 1.49467E-04 1.79968E-18-1.69540E-20
 -1      1995-1.16033E-04 2.00266E-05 1.70702E-34 1.47793E-04 1.05112E-18 2.00554E-19
 -1      1996-9.30079E-05-1.09055E-06 5.85102E-35 1.58813E-04 4.88515E-18-1.35561E-20
 -1      1997-7.06743E-05-6.03241E-06 1.91710E-34 1.55932E-04 4.11179E-18 6.25726E-21
 -1      1998-4.29174E-05-2.81429E-05 1.46957E-34 1.61614E-04 4.30677E-18-2.80873E-20
 -1      1999-2.12468E-05-3.21863E-05 1.15641E-34 1.57915E-04-1.54298E-19-9.98805E-21
 -1      2000 9.99982E-06-5.38574E-05 1.13905E-34 1.58161E-04 4.09338E-18 3.51661E-21
 -1      2001 3.14537E-05-5.75416E-05 1.06160E-34 1.53757E-04 2.52531E-18-1.58262E-20
 -1      2002 6.54443E-05-7.79715E-05 2.02811E-34 1.48937E-04 4.30215E-18-1.16335E-19
 -1      2003 8.74383E-05-8.20026E-05 1.59359E-34 1.43517E-04 2.47050E-18-3.89036E-19
 -1      2004 1.24219E-04-1.01182E-04 1.27501E-34 1.34037E-04-3.08421E-18 4.78907E-19
 -1      2005 1.47705E-04-1.06363E-04 2.03293E-34 1.26715E-04-3.09322E-18-1.00634E-19
 -1      2006 1.88293E-04-1.25123E-04 1.53370E-34 1.12513E-04-8.44423E-19 1.34634E-20
 -1      2007 2.14309E-04-1.32304E-04 2.45527E-34 1.01585E-04-5.03233E-18 2.83401E-19
 -1      2008 2.60924E-04-1.52374E-04 2.30373E-34 8.14027E-05 3.42106E-18 3.98075E-19
 -1      2009 2.90435E-04-1.62368E-04 1.41671E-34 6.38444E-05-3.02728E-18-5.11439E-19
 -1      2010 3.47753E-04-1.86891E-04 1.47433E-34 3.31452E-05-5.10319E-18 6.61084E-19
 -1      2011 3.81967E-04-2.00462E-04 1.53683E-34 1.94451E-06-3.14155E-18 6.47134E-19
 -1      2012-2.74461E-04 1.17622E-04 1.97076E-34 9.28552E-09 3.74769E-18 1.95463E-18
 -1      2013-2.82758E-04 1.21227E-04 1.33199E-34 3.16145E-06 3.23692E-19-7.11834E-20
 -1      2014-2.77275E-04 1.18878E-04 1.55280E-34 8.35374E-06-2.67953E-18 2.84487E-19
 -1      2015-2.88278E-04 1.23461E-04 6.91548E-35 1.44440E-05-6.74148E-19-3.76206E-19
 -1      2016-2.79340E-04 1.19540E-04 1.01998E-34 2.12341E-05 3.76959E-18 1.46955E-19
 -1      2017-2.91572E-04 1.23730E-04 6.52812E-35 3.18860E-05 1.50447E-18 8.10063E-20
 -1      2018-2.78549E-04 1.17999E-04 8.60677E-35 3.91921E-05 1.30734E-18-5.80667E-19
 -1      2019-2.89654E-04 1.19781E-04 1.92289E-34 5.50968E-05-4.14897E-18 8.54586E-20
 -1      2020-2.72363E-04 1.12414E-04 1.03817E-34 6.16315E-05-4.16447E-20 6.70535E-20
 -1      2021-2.79439E-04 1.09548E-04 8.02529E-35 8.22779E-05 4.97049E-18 7.48285E-20
 -1      2022-2.58417E-04 1.01198E-04 3.26270E-34 8.68779E-05-1.19357E-19-7.28792E-20
 -1      2023-2.58751E-04 9.19810E-05 2.03704E-35 1.10357E-04 1.67738E-18 7.92436E-20
 -1      2024-2.35205E-04 8.36254E-05 2.05026E-34 1.12309E-04-7.36774E-19-1.22420E-19
 -1      2025-2.27103E-04 6.75959E-05 1.91602E-34 1.35700E-04-4.70513E-18 1.13341E-19
 -1      2026-2.02582E-04 6.02345E-05 1.57188E-34 1.34938E-04 1.15042E-18-1.64725E-19
 -1      2027-1.85881E-04 3.84334E-05 1.46046E-34 1.55156E-04-1.40625E-18 4.41459E-20
 -1      2028-1.61786E-04 3.27665E-05 1.94430E-34 1.52222E-04-8.28777E-19-1.69041E-21
 -1      2029-1.37752E-04 7.37383E-06 1.68819E-34 1.66917E-04 1.25669E-18 3.24424E-20
 -1      2030-1.14931E-04 3.61047E-06 1.13407E-34 1.62679E-04-2.47734E-18 6.10536E-21
 -1      2031-8.56276E-05-2.28256E-05 1.82715E-34 1.70747E-04 8.07226E-19 7.31241E-21
 -1      2032-6.42187E-05-2.49658E-05 1.90412E-34 1.66041E-04-2.89656E-18 3.39598E-22
 -1      2033-3.17067E-05-5.02950E-05 1.50848E-34 1.67582E-04-1.66410E-18 3.63477E-21
 -1      2034-1.12431E-05-5.14446E-05 1.74411E-34 1.62934E-04 2.46545E-18-4.00103E-20
 -1      2035 2.30431E-05-7.43776E-05 2.02178E-34 1.58821E-04 1.93865E-18-2.27381E-21
 -1      2036 4.34343E-05-7.53570E-05 1.36565E-34 1.54302E-04-6.29244E-19 4.66219E-20
 -1      2037 7.89976E-05-9.55883E-05 1.15552E-34 1.45641E-04-5.74852E-19 3.69916E-20
 -1      2038 1.00425E-04-9.72957E-05 1.05164E-34 1.40811E-04 2.79183E-18 7.85533E-20
 -1      2039 1.37798E-04-1.15433E-04 1.12135E-34 1.28443E-04-3.19230E-18-3.09681E-19
 -1      2040 1.61530E-04-1.18815E-04 1.64041E-34 1.22292E-04-3.72660E-18-1.53579E-19
 -1      2041 2.02323E-04-1.36304E-04 1.12285E-34 1.06364E-04-1.91807E-18 5.96757E-20
 -1      2042 2.29797E-04-1.42389E-04 1.15474E-34 9.70946E-05-8.89413E-19 2.69148E-19
 -1      2043 2.76945E-04-1.61597E-04 1.50470E-34 7.64484E-05 5.91342E-18 3.39584E-19
 -1      2044 3.09833E-04-1.71545E-04 9.72337E-35 6.09266E-05 4.17167E-19-5.46808E-19
 -1      2045 3.69208E-04-1.96589E-04 2.20393E-34 3.11347E-05 3.56222E-18-1.39057E-19
 -1      2046 4.10318E-04-2.12231E-04 3.36231E-35 1.96880E-06 2.28844E-18 6.14916E-20
 -1      2047-2.84198E-04 1.21805E-04 2.62875E-34-6.08757E-08 7.68952E-18-4.70812E-19
 -1      2048-2.96020E-04 1.26918E-04 1.19734E-34 2.98444E-06-2.08906E-18 1.43288E-19
 -1      2049-2.94464E-04 1.26253E-04 1.63849E-34 8.79563E-06-6.06939E-18 3.93894E-19
 -1      2050-3.10389E-04 1.32596E-04 1.11937E-34 1.70173E-05-1.31682E-19-8.62684E-21
 -1      2051-3.03222E-04 1.29335E-04 1.69910E-34 2.49479E-05 3.86531E-18 9.23853E-20
 -1      2052-3.20304E-04 1.34226E-04 7.45799E-35 4.06522E-05 3.04685E-18 3.27676E-19
 -1      2053-3.06713E-04 1.28177E-04 1.38840E-34 4.86795E-05-3.90307E-18-4.66425E-19
 -1      2054-3.20615E-04 1.28033E-04 9.16144E-35 7.21082E-05-2.57285E-18-3.12404E-20
 -1      2055-3.00816E-04 1.19818E-04 2.18085E-34 7.80638E-05-4.71856E-18-1.45004E-19
 -1      2056-3.06993E-04 1.11464E-04 1.12170E-34 1.07038E-04-3.66344E-19-2.27829E-19
 -1      2057-2.82640E-04 1.02545E-04 9.45793E-35 1.09367E-04-2.17134E-18 2.45453E-20
 -1      2058-2.77943E-04 8.46402E-05 1.05551E-34 1.39676E-04 1.75573E-18-1.13562E-19
 -1      2059-2.51578E-04 7.67447E-05 1.39995E-34 1.37971E-04-6.62234E-19 5.03430E-21
 -1      2060-2.35376E-04 5.04953E-05 1.08538E-34 1.64837E-04 5.93703E-18-8.24180E-20
 -1      2061-2.09489E-04 4.49573E-05 1.60142E-34 1.59874E-04-3.13901E-20-4.69563E-20
 -1      2062-1.83641E-04 1.35789E-05 2.10584E-34 1.79633E-04-4.15984E-18-8.06082E-20
 -1      2063-1.59828E-04 1.09177E-05 4.25529E-35 1.72877E-04-1.74700E-18 5.05756E-20
 -1      2064-1.27585E-04-2.17222E-05 6.82079E-35 1.83922E-04 1.22629E-18-2.50599E-20
 -1      2065-1.06266E-04-2.18053E-05 1.03143E-34 1.76866E-04 1.81807E-18-5.39473E-20
 -1      2066-7.08947E-05-5.24902E-05 2.93736E-35 1.79542E-04-7.84810E-20-4.67446E-22
 -1      2067-5.15373E-05-5.08283E-05 9.08480E-35 1.73220E-04 8.73156E-19 1.89844E-20
 -1      2068-1.53699E-05-7.76645E-05 1.92910E-34 1.69064E-04-2.32633E-18-1.58996E-20
 -1      2069 3.09040E-06-7.52982E-05 2.37355E-34 1.63881E-04-6.32992E-18-1.00317E-19
 -1      2070 3.89997E-05-9.77531E-05 1.48456E-34 1.54775E-04 9.44706E-19-6.56429E-20
 -1      2071 5.78325E-05-9.57195E-05 1.05609E-34 1.50552E-04-5.74994E-18 8.71678E-20
 -1      2072 9.36399E-05-1.14338E-04 1.14893E-34 1.38102E-04-2.12535E-18 1.62177E-19
 -1      2073 1.14186E-04-1.13612E-04 7.97536E-35 1.34172E-04 3.26487E-18-1.42171E-19
 -1      2074 1.51090E-04-1.29723E-04 5.26490E-36 1.19365E-04-1.51475E-18 3.62479E-19
 -1      2075 1.74803E-04-1.31276E-04 1.09368E-34 1.14580E-04-4.05297E-18 4.31396E-19
 -1      2076 2.15008E-04-1.46880E-04 4.03905E-34 9.75441E-05 8.05687E-18-3.59285E-19
 -1      2077 2.43614E-04-1.51821E-04 7.92611E-35 9.00753E-05 2.08001E-19-4.06964E-19
 -1      2078 2.90658E-04-1.69791E-04 1.18836E-34 6.96492E-05 6.00050E-18 1.13284E-19
 -1      2079 3.26469E-04-1.79549E-04 9.47621E-35 5.63976E-05 1.72809E-19-1.55799E-19
 -1      2080 3.87237E-04-2.04813E-04 1.71671E-34 2.83559E-05 9.20213E-19 3.80626E-19
 -1      2081 4.34694E-04-2.22291E-04 1.82327E-34 1.91035E-06 4.28731E-18-4.07138E-19
 -1      2082-2.91864E-04 1.25199E-04 4.37550E-35-2.26531E-07-6.68807E-18-2.81457E-19
 -1      2083-3.10169E-04 1.32967E-04 2.93197E-34 3.07897E-06 6.36277E-18-1.43757E-19
 -1      2084-3.13911E-04 1.34552E-04 1.18367E-34 1.01688E-05 1.24536E-18 4.51766E-20
 -1      2085-3.38103E-04 1.43646E-04 7.87799E-35 2.27787E-05-1.31872E-18 1.06399E-19
 -1      2086-3.32468E-04 1.40892E-04 2.71456E-34 3.26699E-05 6.53141E-18-3.79674E-19
 -1      2087-3.56498E-04 1.45740E-04 5.65875E-35 5.75485E-05 1.58469E-18-2.43373E-19
 -1      2088-3.40525E-04 1.38645E-04 2.87288E-35 6.62686E-05-4.73041E-18-4.40884E-20
 -1      2089-3.56492E-04 1.33220E-04 6.78354E-35 1.01745E-04-1.74702E-18-1.52903E-19
 -1      2090-3.31897E-04 1.23667E-04 1.54613E-34 1.05731E-04-1.47338E-18 4.87311E-20
 -1      2091-3.33479E-04 1.04424E-04 1.56148E-34 1.45752E-04-4.76226E-18 4.63652E-20
 -1      2092-3.04401E-04 9.53998E-05 7.57143E-35 1.43456E-04 9.35319E-19-1.75778E-19
 -1      2093-2.89580E-04 6.33743E-05 9.72918E-35 1.80159E-04-7.34762E-18-7.12533E-20
 -1      2094-2.60624E-04 5.74953E-05 8.52882E-35 1.72478E-04-3.86940E-18 5.39940E-20
 -1      2095-2.32050E-04 1.75840E-05 7.19162E-35 1.99655E-04 6.74558E-19 1.02944E-20
 -1      2096-2.06311E-04 1.60238E-05 1.07988E-34 1.89044E-04 1.56813E-19-1.22561E-19
 -1      2097-1.69246E-04-2.56158E-05 1.01129E-34 2.04104E-04 3.78454E-18 5.11439E-20
 -1      2098-1.47650E-04-2.32009E-05 1.09287E-34 1.93180E-04-2.01031E-18 5.00372E-20
 -1      2099-1.07351E-04-6.16058E-05 1.89900E-34 1.96888E-04-6.11817E-19-2.14381E-20
 -1      2100-8.91716E-05-5.64737E-05 9.02846E-35 1.87463E-04-1.17862E-18 7.61908E-22
 -1      2101-4.92675E-05-8.89323E-05 1.16804E-34 1.82439E-04-3.01542E-18-2.30524E-20
 -1      2102-3.30193E-05-8.25764E-05 6.08107E-35 1.75277E-04 2.31908E-18-6.36406E-20
 -1      2103 4.83379E-06-1.08449E-04 8.11715E-35 1.64510E-04 2.72355E-18 4.21411E-20
 -1      2104 2.07524E-05-1.02197E-04 1.13668E-34 1.59541E-04 1.40539E-19 7.46596E-20
 -1      2105 5.65064E-05-1.22233E-04 9.37935E-36 1.45510E-04 2.01203E-18 8.97627E-20
 -1      2106 7.35657E-05-1.17146E-04 8.67002E-35 1.42138E-04 3.09324E-18 1.47501E-19
 -1      2107 1.08281E-04-1.32863E-04 1.75950E-35 1.26487E-04 3.49213E-18-2.57298E-19
 -1      2108 1.27860E-04-1.29817E-04 9.53230E-35 1.23787E-04 1.42594E-18 9.24891E-20
 -1      2109 1.63398E-04-1.43162E-04 2.86336E-34 1.07300E-04 2.81924E-18 1.52820E-19
 -1      2110 1.86987E-04-1.43029E-04 7.98148E-35 1.04035E-04-2.99359E-18-3.05596E-19
 -1      2111 2.26019E-04-1.56377E-04 1.50075E-34 8.66302E-05-1.80515E-18 7.75816E-20
 -1      2112 2.55529E-04-1.60256E-04 9.02277E-35 8.10243E-05-7.80108E-18 2.06774E-19
 -1      2113 3.02021E-04-1.76791E-04 3.85839E-35 6.14828E-05-2.52063E-18-1.46986E-19
 -1      2114 3.40311E-04-1.86307E-04 1.99087E-34 5.06079E-05 4.60584E-18 4.14092E-19
 -1      2115 4.01922E-04-2.11566E-04 2.02866E-35 2.50149E-05-2.46363E-18 3.56486E-20
 -1      2116 4.54997E-04-2.30626E-04 2.60056E-35 1.77855E-06 2.00390E-18 1.40874E-20
 -1      2117-2.97566E-04 1.27585E-04 8.80168E-35-5.65772E-07 6.63815E-18-3.89704E-19
 -1      2118-3.27403E-04 1.40282E-04 9.90622E-35 3.85986E-06 9.63426E-19-3.08237E-19
 -1      2119-3.38914E-04 1.45363E-04 1.51703E-34 1.36041E-05-3.35304E-19 4.08598E-19
 -1      2120-3.76698E-04 1.58018E-04 9.41933E-35 3.52422E-05 3.44851E-18-1.81118E-19
 -1      2121-3.71224E-04 1.55160E-04 1.37353E-34 4.82995E-05-5.31990E-19 6.28711E-19
 -1      2122-4.03812E-04 1.56851E-04 1.04305E-34 8.98770E-05-2.45096E-18-2.99653E-20
 -1      2123-3.81749E-04 1.47607E-04 6.83456E-35 9.83423E-05-9.40503E-19 1.69279E-19
 -1      2124-3.95683E-04 1.29088E-04 9.98189E-35 1.52005E-04-5.17891E-18-1.85370E-19
 -1      2125-3.63000E-04 1.18197E-04 1.01571E-34 1.50674E-04-3.82863E-18 2.73163E-19
 -1      2126-3.52072E-04 7.88417E-05 6.90204E-35 2.02733E-04-4.03724E-18 2.44376E-19
 -1      2127-3.17797E-04 7.18165E-05 2.06909E-35 1.91822E-04 3.65957E-18-1.26500E-20
 -1      2128-2.85451E-04 1.92589E-05 7.60688E-35 2.30632E-04-4.74180E-19 1.35845E-19
 -1      2129-2.56068E-04 1.88845E-05 3.98667E-35 2.14322E-04-2.97029E-18-2.59017E-20
 -1      2130-2.11296E-04-3.63401E-05 1.27210E-34 2.35187E-04 2.12137E-18-6.90713E-20
 -1      2131-1.88837E-04-3.04397E-05 1.31976E-34 2.18302E-04-2.80360E-18-4.21910E-20
 -1      2132-1.40550E-04-8.02066E-05 8.90979E-35 2.22840E-04 4.30603E-18-1.34619E-20
 -1      2133-1.23783E-04-7.01891E-05 5.05980E-35 2.08587E-04-8.95996E-19 1.50372E-20
 -1      2134-7.77018E-05-1.10607E-04 9.27504E-35 2.01430E-04-2.55293E-18-3.46487E-21
 -1      2135-6.42220E-05-9.88802E-05 1.05448E-34 1.91029E-04 3.51963E-18-1.00269E-20
 -1      2136-2.26664E-05-1.29471E-04 1.26523E-34 1.77002E-04 2.58006E-18 4.13708E-21
 -1      2137-1.01875E-05-1.17925E-04 3.63430E-35 1.70301E-04-1.51795E-18 1.54024E-20
 -1      2138 2.68638E-05-1.40100E-04 1.12587E-34 1.53084E-04 2.81408E-18-2.89370E-20
 -1      2139 4.01144E-05-1.29988E-04 1.39856E-34 1.49274E-04 2.37428E-18-9.00536E-20
 -1      2140 7.39520E-05-1.45886E-04 7.03196E-35 1.31172E-04-1.18072E-18-3.87540E-20
 -1      2141 8.93318E-05-1.38005E-04 9.60587E-36 1.29221E-04-3.21659E-19 1.26561E-20
 -1      2142 1.21867E-04-1.49903E-04 2.09037E-34 1.11396E-04-3.39322E-18 1.57198E-20
 -1      2143 1.40595E-04-1.44853E-04 1.05996E-34 1.10205E-04-1.84034E-18-1.21104E-20
 -1      2144 1.74159E-04-1.55037E-04 8.59335E-35 9.29724E-05 3.77148E-19-4.46779E-20
 -1      2145 1.97647E-04-1.53492E-04 9.06610E-35 9.13113E-05-8.52502E-18 1.46693E-19
 -1      2146 2.35170E-04-1.64468E-04 2.42611E-34 7.42872E-05-4.21058E-18 1.08828E-20
 -1      2147 2.65433E-04-1.67459E-04 7.60280E-35 7.05296E-05 7.13613E-18-2.34769E-19
 -1      2148 3.11111E-04-1.82528E-04 1.17163E-34 5.24483E-05-1.34940E-18 6.45719E-20
 -1      2149 3.51469E-04-1.91819E-04 3.37202E-35 4.39506E-05-6.94162E-19-1.16996E-19
 -1      2150 4.13501E-04-2.16928E-04 2.17262E-35 2.13229E-05 3.92978E-19-1.18088E-19
 -1      2151 4.71364E-04-2.37315E-04 3.04256E-34 1.58891E-06-8.63967E-18-3.32689E-19
 -1      2152-3.02302E-04 1.30971E-04 1.13044E-34-1.63457E-06 5.87616E-18 7.91182E-19
 -1      2153-3.52950E-04 1.50998E-04 1.37037E-34 5.94827E-06 3.67489E-18 9.96398E-20
 -1      2154-3.74959E-04 1.60239E-04 8.28096E-35 2.12240E-05 2.18693E-19 3.21720E-20
 -1      2155-4.34393E-04 1.77185E-04 1.08381E-34 6.23764E-05 5.39635E-18 5.45330E-20
 -1      2156-4.25320E-04 1.72612E-04 2.83087E-35 8.03661E-05-8.94718E-19-3.01203E-19
 -1      2157-4.65169E-04 1.61391E-04 3.46298E-35 1.51867E-04 1.86194E-18-1.61472E-20
 -1      2158-4.29417E-04 1.48175E-04 1.95103E-34 1.56162E-04-5.36201E-18-1.42326E-19
 -1      2159-4.29369E-04 1.00464E-04 8.21503E-35 2.33683E-04 8.60532E-19 1.10168E-19
 -1      2160-3.85720E-04 9.07635E-05 2.70469E-35 2.19744E-04-7.00253E-19 2.53187E-20
 -1      2161-3.48573E-04 1.83027E-05 1.63532E-34 2.78431E-04-2.19235E-18 1.06393E-20
 -1      2162-3.12147E-04 1.92665E-05 8.33849E-35 2.53440E-04-1.37338E-18 9.35546E-20
 -1      2163-2.54674E-04-5.78242E-05 1.78909E-34 2.83369E-04-5.58740E-20 2.19256E-20
 -1      2164-2.30389E-04-4.63604E-05 1.71464E-34 2.57053E-04-5.63850E-18-1.17471E-20
 -1      2165-1.69022E-04-1.13613E-04 1.52185E-34 2.61795E-04 7.83331E-19 1.33225E-20
 -1      2166-1.54393E-04-9.57920E-05 9.27420E-35 2.40211E-04-1.72913E-18-2.26594E-20
 -1      2167-9.85359E-05-1.47603E-04 5.10783E-35 2.28584E-04-2.21980E-18-2.05958E-21
 -1      2168-8.90840E-05-1.27740E-04 8.81179E-35 2.13550E-04-2.32861E-18-2.08749E-21
 -1      2169-4.17023E-05-1.64524E-04 1.56183E-34 1.93694E-04 7.59772E-20 6.56801E-21
 -1      2170-3.37808E-05-1.45534E-04 7.65144E-35 1.84573E-04-2.55013E-18 8.36937E-21
 -1      2171 5.78752E-06-1.70279E-04 1.11091E-34 1.61976E-04-1.04586E-18 7.02309E-21
 -1      2172 1.45089E-05-1.53705E-04 4.43286E-35 1.57298E-04-8.93593E-19 3.38407E-20
 -1      2173 4.83604E-05-1.69856E-04 4.84134E-35 1.34982E-04 1.14949E-18 7.29853E-20
 -1      2174 5.92725E-05-1.56363E-04 6.50159E-35 1.33251E-04-4.70067E-20-6.88092E-20
 -1      2175 8.98351E-05-1.66989E-04 5.86051E-35 1.12553E-04-1.46647E-18-1.02708E-19
 -1      2176 1.03889E-04-1.56840E-04 1.65916E-34 1.12485E-04 3.41930E-18 1.04739E-19
 -1      2177 1.33580E-04-1.64505E-04 1.62071E-34 9.37424E-05-1.72883E-18 8.99810E-20
 -1      2178 1.51708E-04-1.57911E-04 1.53823E-34 9.42320E-05-2.87760E-18 1.83225E-19
 -1      2179 1.83027E-04-1.64895E-04 1.98653E-34 7.72025E-05-2.43625E-18 2.25777E-20
 -1      2180 2.06511E-04-1.62288E-04 6.63665E-35 7.71510E-05 1.19057E-18 9.70072E-21
 -1      2181 2.42422E-04-1.71000E-04 5.87979E-35 6.11708E-05-5.73628E-18 1.26150E-19
 -1      2182 2.73343E-04-1.73325E-04 3.53970E-34 5.91832E-05 4.56070E-18-4.62012E-20
 -1      2183 3.18105E-04-1.87026E-04 2.25700E-34 4.30055E-05 3.44024E-18 3.38167E-19
 -1      2184 3.60159E-04-1.96151E-04 2.07938E-34 3.68052E-05 2.20690E-18 3.43917E-19
 -1      2185 4.22303E-04-2.21027E-04 6.71847E-36 1.74708E-05-2.88478E-18-1.22685E-19
 -1      2186 4.84104E-04-2.42503E-04 2.31299E-35 1.35925E-06-2.18726E-18 4.50448E-19
 -1      2187-3.03257E-04 1.28423E-04 1.28109E-34-2.47321E-06-8.21512E-19 2.26845E-20
 -1      2188-3.95136E-04 1.67658E-04 2.02493E-35 1.39929E-05 3.81249E-20 6.69927E-21
 -1      2189-4.37063E-04 1.88280E-04 7.72296E-35 4.13626E-05 6.09266E-19 2.69537E-19
 -1      2190-5.31725E-04 1.99513E-04 6.45869E-35 1.26717E-04-3.83166E-19-3.11889E-19
 -1      2191-5.02130E-04 1.88729E-04 1.86501E-34 1.48083E-04 1.03064E-18 1.01042E-19
 -1      2192-5.31811E-04 1.35220E-04 9.91031E-35 2.70265E-04 3.96785E-18-4.53680E-20
 -1      2193-4.72972E-04 1.20806E-04 1.18482E-34 2.57038E-04-1.36364E-18-2.00698E-20
 -1      2194-4.31903E-04 1.48597E-05 9.66461E-35 3.53732E-04-9.79089E-19-7.03731E-20
 -1      2195-3.80524E-04 1.68040E-05 6.76104E-35 3.14839E-04-4.76510E-18 1.74605E-20
 -1      2196-3.00671E-04-9.87848E-05 2.95354E-35 3.60341E-04-1.69070E-18-7.59036E-20
 -1      2197-2.72801E-04-7.71623E-05 5.65911E-35 3.17767E-04 2.96548E-18-5.95522E-21
 -1      2198-1.88777E-04-1.73179E-04 1.31630E-34 3.20695E-04-1.58336E-18-1.50539E-20
 -1      2199-1.78417E-04-1.41231E-04 1.07822E-34 2.87598E-04-5.02192E-18-1.93548E-20
 -1      2200-1.06994E-04-2.09691E-04 1.45299E-34 2.66614E-04-1.19529E-18 6.78751E-22
 -1      2201-1.04426E-04-1.76150E-04 3.78621E-35 2.45345E-04 1.34209E-18-2.65324E-21
 -1      2202-4.85268E-05-2.20642E-04 4.37416E-35 2.15053E-04 1.11027E-18 1.60501E-20
 -1      2203-4.74684E-05-1.90144E-04 1.20733E-35 2.03317E-04 2.14188E-18 6.77351E-21
 -1      2204-4.38511E-06-2.17267E-04 1.01885E-34 1.71919E-04 1.50107E-20-1.76395E-20
 -1      2205-1.67053E-06-1.91562E-04 1.70648E-34 1.66672E-04 3.15892E-18-2.25097E-20
 -1      2206 3.25571E-05-2.07273E-04 1.05861E-34 1.37816E-04-2.00781E-18 1.30165E-20
 -1      2207 3.82639E-05-1.86589E-04 6.00727E-35 1.36579E-04 1.76407E-18-1.52252E-20
 -1      2208 6.72112E-05-1.95350E-04 4.26765E-35 1.11405E-04-4.72447E-18 1.90450E-20
 -1      2209 7.64773E-05-1.79349E-04 1.65934E-34 1.12431E-04-3.48976E-19-2.86976E-20
 -1      2210 1.03051E-04-1.84325E-04 2.37699E-35 9.09010E-05-2.40635E-18 5.95369E-20
 -1      2211 1.16289E-04-1.72611E-04 5.00446E-35 9.29789E-05-3.13818E-19 3.31759E-20
 -1      2212 1.42938E-04-1.76130E-04 1.10117E-34 7.45697E-05-1.35558E-18-5.99849E-22
 -1      2213 1.60777E-04-1.68516E-04 5.22736E-35 7.67846E-05-1.47459E-18 3.77305E-20
 -1      2214 1.89878E-04-1.72554E-04 4.71924E-35 6.07876E-05-9.28635E-19-1.02966E-19
 -1      2215 2.13486E-04-1.69258E-04 3.25614E-35 6.22768E-05-1.36159E-18-1.67611E-20
 -1      2216 2.47868E-04-1.75970E-04 3.50576E-35 4.78580E-05 1.36856E-18-2.59163E-20
 -1      2217 2.79378E-04-1.77865E-04 2.12964E-34 4.75155E-05 2.65343E-18 5.93721E-20
 -1      2218 3.23241E-04-1.90375E-04 1.02801E-34 3.35378E-05-3.19603E-18-4.12742E-20
 -1      2219 3.66661E-04-1.99414E-04 6.97073E-35 2.95009E-05 5.73868E-18-5.63091E-20
 -1      2220 4.28708E-04-2.24024E-04 3.70788E-34 1.36156E-05 8.00214E-18 7.15584E-20
 -1      2221 4.93632E-04-2.46371E-04 3.87825E-34 1.10671E-06-9.92014E-18 1.64225E-19
 -1      2222-3.14341E-04 1.57446E-04 2.01849E-34-1.73097E-05-1.17679E-17-1.91552E-19
 -1      2223-4.86048E-04 2.07453E-04 7.85355E-35 3.34336E-05 4.07991E-18-1.73127E-19
 -1      2224-5.36899E-04 2.18374E-04 3.77750E-35 9.12411E-05 3.11220E-18 4.39749E-19
 -1      2225-6.71902E-04 2.01254E-04 2.54735E-35 2.85442E-04-4.74990E-19 7.00127E-20
 -1      2226-5.95277E-04 1.79103E-04 3.21412E-35 2.99321E-04 8.86465E-19-2.04895E-20
 -1      2227-5.66402E-04 1.29347E-05 1.06152E-34 4.81651E-04-5.49090E-18 1.27325E-19
 -1      2228-4.76024E-04 1.31108E-05 1.91961E-35 4.16063E-04-9.77386E-20 2.04324E-20
 -1      2229-3.49576E-04-1.82844E-04 6.53463E-35 4.91982E-04 1.98466E-18-2.06304E-21
 -1      2230-3.15379E-04-1.37971E-04 2.00604E-34 4.17146E-04 4.76237E-18 2.45433E-20
 -1      2231-1.88392E-04-2.85324E-04 1.28373E-34 4.11283E-04 3.42825E-18 6.35898E-22
 -1      2232-1.88955E-04-2.24153E-04 9.88071E-35 3.59170E-04 3.42012E-18-1.66160E-21
 -1      2233-9.21336E-05-3.17092E-04 4.49185E-35 3.17400E-04 2.30438E-18 8.88359E-21
 -1      2234-1.03206E-04-2.58120E-04 7.06271E-35 2.88632E-04-2.94883E-18-4.86028E-21
 -1      2235-3.56326E-05-3.10909E-04 2.83686E-35 2.38973E-04 1.02015E-20-3.11359E-21
 -1      2236-4.61162E-05-2.61224E-04 6.65669E-35 2.25919E-04-7.30272E-19-1.94802E-23
 -1      2237 7.22048E-07-2.88881E-04 6.87756E-35 1.80068E-04 1.22300E-18 5.73950E-21
 -1      2238-5.28821E-06-2.49413E-04 4.10859E-35 1.76036E-04-1.93615E-18-2.35869E-20
 -1      2239 2.87306E-05-2.62527E-04 5.44723E-35 1.37351E-04 7.46545E-19-3.31665E-21
 -1      2240 2.78388E-05-2.31984E-04 1.58522E-34 1.38108E-04 3.17858E-18 6.29970E-21
 -1      2241 5.46493E-05-2.37147E-04 6.29000E-35 1.06574E-04-9.63820E-19-5.07017E-21
 -1      2242 5.86148E-05-2.13876E-04 1.56777E-34 1.09687E-04-7.85486E-18 2.26341E-20
 -1      2243 8.19842E-05-2.15057E-04 5.34781E-35 8.42132E-05-2.41114E-18 7.91467E-22
 -1      2244 9.04747E-05-1.97650E-04 7.25265E-35 8.83114E-05-7.56717E-19-6.55226E-20
 -1      2245 1.13023E-04-1.97310E-04 5.38068E-35 6.76337E-05-2.34505E-18-3.96970E-20
 -1      2246 1.25989E-04-1.84792E-04 8.90369E-35 7.19028E-05 3.84362E-18 5.82606E-20
 -1      2247 1.49796E-04-1.84638E-04 8.11757E-35 5.48808E-05 2.26661E-18-1.37045E-20
 -1      2248 1.67654E-04-1.76522E-04 2.08284E-34 5.87479E-05 7.04401E-19-3.96766E-20
 -1      2249 1.94782E-04-1.78061E-04 1.44658E-34 4.44132E-05 7.14436E-18 1.23670E-19
 -1      2250 2.18637E-04-1.74425E-04 8.29552E-35 4.73172E-05-8.08965E-19-4.04089E-21
 -1      2251 2.51689E-04-1.79492E-04 5.23715E-35 3.48088E-05-2.69263E-18 1.32685E-20
 -1      2252 2.83737E-04-1.81174E-04 7.19625E-35 3.59585E-05 6.65644E-18 2.16056E-19
 -1      2253 3.26787E-04-1.92713E-04 1.08740E-34 2.43376E-05 7.12154E-19-3.58457E-20
 -1      2254 3.71288E-04-2.01748E-04 1.12735E-34 2.22983E-05-3.68239E-19 9.37238E-20
 -1      2255 4.33101E-04-2.26088E-04 9.54978E-35 9.87524E-06 1.31271E-18-3.80042E-20
 -1      2256 5.00408E-04-2.49115E-04 1.89552E-34 8.45915E-07-4.82309E-18-2.24026E-21
 -1      2257-3.12854E-04 6.98081E-05 2.82475E-35 1.64979E-05-4.52781E-18 2.20967E-19
 -1      2258-8.52332E-04 2.88226E-04 4.22513E-35 1.49874E-04-5.35689E-18 2.17074E-19
 -1      2259-8.10314E-04 3.48520E-04 9.90792E-35 2.73073E-04-2.34370E-18-1.37800E-19
 -1      2260-8.20890E-04 1.20866E-07 4.91781E-35 7.28869E-04 2.39884E-18-1.66715E-20
 -1      2261-6.30808E-04 1.03626E-05 1.03148E-34 5.97060E-04-9.26931E-19-4.19105E-21
 -1      2262-3.98133E-04-3.77628E-04 6.35774E-35 7.46063E-04 2.68402E-18 3.42827E-21
 -1      2263-3.48392E-04-2.78140E-04 7.87156E-35 5.95859E-04 4.81374E-19-3.03487E-21
 -1      2264-1.28621E-04-5.23002E-04 7.29673E-35 5.53358E-04 5.02419E-18 1.45079E-20
 -1      2265-1.66079E-04-3.87593E-04 7.05937E-35 4.67865E-04-1.50253E-18 1.35804E-20
 -1      2266-2.74620E-05-5.14643E-04 4.69353E-35 3.74766E-04-3.55681E-19-2.32740E-21
 -1      2267-6.93024E-05-4.03163E-04 9.98986E-35 3.42161E-04-1.95650E-19-6.11692E-21
 -1      2268 1.15772E-05-4.59468E-04 3.58866E-35 2.54849E-04 8.75395E-19 2.22496E-20
 -1      2269-1.98191E-05-3.76037E-04 1.16276E-35 2.47066E-04-2.04970E-18-1.15111E-20
 -1      2270 2.83257E-05-3.97691E-04 2.00036E-35 1.77400E-04 1.04060E-18 4.76215E-21
 -1      2271 9.10537E-06-3.36911E-04 1.30485E-34 1.80145E-04 2.87282E-18 5.66731E-21
 -1      2272 4.02346E-05-3.42123E-04 3.92007E-35 1.27158E-04-8.48721E-19 6.56832E-21
 -1      2273 3.06811E-05-2.97798E-04 1.13451E-34 1.33840E-04-1.43451E-18 1.83540E-21
 -1      2274 5.33901E-05-2.95649E-04 8.28235E-35 9.38592E-05-3.47690E-18-1.70947E-20
 -1      2275 5.12559E-05-2.63080E-04 1.23812E-34 1.01643E-04 5.18288E-19-1.49864E-21
 -1      2276 7.02957E-05-2.58069E-04 1.10829E-34 7.12389E-05-3.74880E-18 9.16139E-21
 -1      2277 7.39647E-05-2.34005E-04 1.12553E-34 7.89329E-05-4.84086E-18-1.87506E-20
 -1      2278 9.20830E-05-2.28440E-04 3.94661E-35 5.54511E-05-2.71793E-18-1.03079E-21
 -1      2279 1.00652E-04-2.10753E-04 1.21679E-34 6.25664E-05-2.81676E-18 1.84461E-20
 -1      2280 1.19667E-04-2.05937E-04 1.82508E-34 4.40767E-05 4.22221E-18 3.21337E-20
 -1      2281 1.32850E-04-1.93327E-04 1.62363E-34 5.03945E-05 5.44748E-18-3.42412E-20
 -1      2282 1.54279E-04-1.90202E-04 7.43524E-35 3.55150E-05-2.06445E-18 1.54560E-20
 -1      2283 1.72414E-04-1.82043E-04 1.55798E-34 4.08741E-05-2.33995E-18-1.48885E-20
 -1      2284 1.97939E-04-1.81621E-04 6.57991E-35 2.86075E-05-4.21798E-20-4.23695E-20
 -1      2285 2.22138E-04-1.77944E-04 1.37022E-34 3.27657E-05 8.68244E-19 3.61172E-20
 -1      2286 2.54115E-04-1.81746E-04 7.39888E-35 2.23566E-05-1.01015E-18 3.26374E-20
 -1      2287 2.86654E-04-1.83401E-04 1.20935E-34 2.48331E-05 4.31556E-18 4.36114E-20
 -1      2288 3.29017E-04-1.94195E-04 1.27473E-34 1.56084E-05 3.31467E-19 4.17175E-20
 -1      2289 3.74354E-04-2.03298E-04 1.59800E-34 1.53867E-05-7.40705E-18-1.93043E-20
 -1      2290 4.35849E-04-2.27384E-04-3.33277E-35 6.33071E-06-3.41656E-18-2.17359E-20
 -1      2291 5.04896E-04-2.50928E-04-2.37866E-36 5.88212E-07-1.84761E-18 1.38152E-19
 -1      2292-1.62407E-04 6.80332E-04 1.10577E-34-4.79522E-04 4.64865E-18-8.94571E-20
 -1      2293-1.13432E-03-2.44017E-05 4.50909E-35 1.59237E-03-1.86779E-18-1.46446E-19
 -1      2294-8.76965E-04-1.14830E-05 3.05036E-35 1.14977E-03-5.40325E-18-2.84243E-21
 -1      2295-3.30124E-04-1.12177E-03-2.39340E-36 1.38360E-03 4.04258E-19 5.11478E-20
 -1      2296-3.20647E-04-6.62494E-04 5.83535E-35 9.67909E-04-1.10470E-19 3.29592E-20
 -1      2297 1.78138E-04-1.15754E-03 1.30483E-34 7.23610E-04-2.97997E-18 2.08191E-21
 -1      2298-4.35834E-05-7.54250E-04 6.56887E-35 6.17840E-04-2.00001E-18-2.03508E-20
 -1      2299 1.45944E-04-8.99867E-04 8.64268E-35 3.79695E-04-8.43045E-19 8.93221E-21
 -1      2300 3.48342E-05-6.77203E-04 1.03216E-34 3.83439E-04 2.24406E-18 1.75848E-21
 -1      2301 1.18143E-04-7.07262E-04 5.77862E-35 2.21705E-04 1.21236E-18 2.36404E-20
 -1      2302 4.90597E-05-5.64451E-04 1.36575E-34 2.45586E-04 1.01284E-18-1.17828E-20
 -1      2303 8.70387E-05-5.60209E-04 3.87145E-35 1.38550E-04 1.80600E-18-1.66214E-20
 -1      2304 4.94061E-05-4.68239E-04 5.61033E-35 1.63971E-04-1.73617E-18 1.93001E-21
 -1      2305 7.01593E-05-4.53319E-04 1.40246E-34 9.20361E-05-1.24175E-18-4.08190E-21
 -1      2306 5.01457E-05-3.90887E-04 1.12291E-34 1.13918E-04-4.65173E-18 2.05364E-21
 -1      2307 6.42063E-05-3.74138E-04 7.29689E-35 6.40839E-05-3.30472E-19-5.89613E-21
 -1      2308 5.55721E-05-3.30326E-04 2.40560E-35 8.20511E-05 2.90417E-19 4.68779E-21
 -1      2309 6.77052E-05-3.14770E-04 4.74743E-35 4.64462E-05 2.44114E-18 4.70506E-21
 -1      2310 6.66975E-05-2.83162E-04 1.33652E-34 6.10464E-05 1.80839E-18 7.24009E-21
 -1      2311 7.90987E-05-2.69819E-04 6.27833E-35 3.48293E-05 4.64311E-18-6.86583E-21
 -1      2312 8.37546E-05-2.46651E-04 8.06533E-35 4.67525E-05 1.82351E-18-2.28715E-20
 -1      2313 9.76480E-05-2.35817E-04 5.08401E-36 2.68915E-05 1.54286E-19 5.67508E-21
 -1      2314 1.06989E-04-2.18826E-04 1.74390E-34 3.67075E-05-1.13527E-18-7.04646E-21
 -1      2315 1.23274E-04-2.10629E-04 8.79793E-35 2.12577E-05 4.63789E-20 8.45500E-21
 -1      2316 1.37047E-04-1.98513E-04 5.64287E-35 2.93743E-05-5.85484E-18-2.09791E-20
 -1      2317 1.56685E-04-1.93199E-04 9.11045E-35 1.70647E-05-4.76153E-19-1.10821E-20
 -1      2318 1.75287E-04-1.85364E-04 6.50898E-35 2.37207E-05 1.95011E-18-2.01044E-20
 -1      2319 1.99618E-04-1.83525E-04 1.42287E-35 1.37118E-05-1.35244E-18-1.91152E-20
 -1      2320 2.24227E-04-1.80043E-04 1.09848E-34 1.89614E-05-1.77269E-18 7.66584E-21
 -1      2321 2.55396E-04-1.82946E-04 1.15293E-34 1.06995E-05 1.02827E-18 1.53577E-20
 -1      2322 2.88378E-04-1.84720E-04 1.56041E-34 1.43479E-05 7.16937E-20-3.96104E-20
 -1      2323 3.30186E-04-1.94978E-04 1.20434E-34 7.46407E-06-1.07054E-18-1.35659E-20
 -1      2324 3.76153E-04-2.04208E-04 3.60482E-34 8.88583E-06 3.49018E-18-3.13369E-20
 -1      2325 4.37287E-04-2.28066E-04 4.06265E-34 3.02665E-06 6.01950E-18 5.32991E-21
 -1      2326 5.07528E-04-2.51990E-04 1.09812E-34 3.41441E-07-4.69977E-18-2.58698E-20
 -1      2327-2.51802E-03-2.54363E-03 1.53726E-35 1.97848E-03 1.02224E-18-9.64404E-20
 -1      2328 2.13817E-04-4.77040E-03 6.27297E-35 1.10539E-03-2.43826E-19 1.17262E-20
 -1      2329 2.13201E-04-2.62277E-03 3.50418E-35 1.33407E-03 1.42355E-18 2.18212E-20
 -1      2330 1.12451E-03-2.70855E-03 1.56643E-34 3.26554E-05 3.85689E-18-1.48316E-20
 -1      2331 3.92892E-04-1.75284E-03 1.92608E-35 6.03271E-04 3.23960E-18 8.66301E-21
 -1      2332 4.39409E-04-1.55901E-03 6.02387E-35 6.22841E-06-5.15624E-18-6.86142E-21
 -1      2333 2.72688E-04-1.19642E-03 8.15777E-35 2.74184E-04 3.23030E-18-1.52965E-20
 -1      2334 2.90099E-04-1.07718E-03 4.06563E-35 2.84183E-06-4.94446E-19 9.41763E-21
 -1      2335 1.78006E-04-8.62033E-04 4.33712E-35 1.47949E-04-7.03166E-19 3.93236E-22
 -1      2336 1.69349E-04-7.76578E-04 1.14543E-34-5.80310E-08 4.57385E-18-2.20464E-21
 -1      2337 1.19636E-04-6.55529E-04 1.15794E-34 8.81878E-05 3.03942E-18-2.14251E-21
 -1      2338 1.13500E-04-5.94627E-04 2.19123E-34-8.83531E-08-1.73649E-18 2.22038E-21
 -1      2339 8.65007E-05-5.15697E-04 6.51186E-35 5.65900E-05 8.13869E-19 6.90803E-21
 -1      2340 8.34717E-05-4.71136E-04 2.40228E-35-1.30754E-07 3.37866E-18 4.54626E-22
 -1      2341 7.08133E-05-4.17357E-04 1.20909E-34 3.84197E-05-9.83495E-19-1.40268E-21
 -1      2342 7.17150E-05-3.84138E-04 6.41617E-35-9.75114E-08 2.21937E-19-1.07457E-21
 -1      2343 6.76061E-05-3.45742E-04 2.87410E-35 2.72697E-05-9.10557E-19 4.38662E-21
 -1      2344 7.20623E-05-3.20619E-04 6.11232E-35-7.04823E-08-2.76002E-18 1.10750E-21
 -1      2345 7.39676E-05-2.92475E-04 1.06501E-34 2.00984E-05 2.71409E-18-4.96301E-22
 -1      2346 8.17495E-05-2.73370E-04 1.74592E-35-5.04720E-08 3.37780E-19-4.57574E-22
 -1      2347 8.82800E-05-2.52428E-04 1.10814E-34 1.52951E-05-2.02362E-18-1.51920E-21
 -1      2348 9.93057E-05-2.38026E-04 7.59031E-35-3.60249E-08-9.76987E-19-1.69233E-22
 -1      2349 1.09881E-04-2.22475E-04 6.45172E-35 1.19574E-05-3.73159E-18 4.74699E-21
 -1      2350 1.24341E-04-2.12027E-04 4.05063E-35-2.60060E-08-5.43130E-19-2.68422E-21
 -1      2351 1.38945E-04-2.00839E-04 1.14024E-34 9.54067E-06-6.09037E-18 4.63638E-21
 -1      2352 1.57393E-04-1.94088E-04-2.37957E-36-1.88461E-08-1.83302E-18 2.87781E-21
 -1      2353 1.76576E-04-1.86845E-04 1.17090E-34 7.68930E-06 3.08508E-18-9.53206E-21
 -1      2354 2.00110E-04-1.84088E-04 5.02579E-35-1.36550E-08 3.64666E-18-2.47254E-21
 -1      2355 2.25158E-04-1.80976E-04 1.67128E-34 6.13883E-06-6.86949E-18 1.65363E-20
 -1      2356 2.55771E-04-1.83299E-04 8.17665E-35-9.06726E-09-3.23025E-18-1.42326E-20
 -1      2357 2.89142E-04-1.85304E-04 3.13709E-34 4.64192E-06-8.37178E-18 2.01386E-20
 -1      2358 3.30527E-04-1.95209E-04 1.50343E-34-5.42726E-09-3.05225E-19-1.26064E-20
 -1      2359 3.76949E-04-2.04610E-04 6.09153E-35 2.87427E-06 2.47233E-19-5.94211E-21
 -1      2360 4.37705E-04-2.28266E-04 1.75939E-34 6.41465E-09 8.14017E-18-3.81291E-21
 -1      2361 5.08692E-04-2.52458E-04 5.49554E-35 1.10801E-07-6.75220E-18 2.36657E-21
 -3
    1PSTEP                         4           1           1          
  100CL  101 1.000000000        2360                     0    1           1
 -4  CONTACT     6    1
 -5  COPEN       1    4    1    1
 -5  CSLIP1      1    4    2    2
 -5  CSLIP2      1    4    3    3
 -5  CPRESS      1    4    1    2
 -5  CSHEAR1     1    4    2    3
 -5  CSHEAR2     1    4    3    1
 -1         1-1.71622E-04 0.00000E+00 0.00000E+00 1.71622E+03 0.00000E+00 0.00000E+00
 -1         2 0.00000E+00 0.00000E+00 0.00000E+00 0.00000E+00 0.00000E+00 0.00000E+00
 -1         3-1.01897E-04 0.00000E+00 0.00000E+00 1.01897E+03 0.00000E+00 0.00000E+00
 -1         4-2.13782E-05 0.00000E+00 0.00000E+00 2.13782E+02 0.00000E+00 0.00000E+00
 -1         5 0.00000E+00 0.00000E+00 0.00000E+00 0.00000E+00 0.00000E+00 0.00000E+00
 -1         6 0.00000E+00 0.00000E+00 0.00000E+00 0.00000E+00 0.00000E+00 0.00000E+00
 -1         7 0.00000E+00 0.00000E+00 0.00000E+00 0.00000E+00 0.00000E+00 0.00000E+00
 -1         8 0.00000E+00 0.00000E+00 0.00000E+00 0.00000E+00 0.00000E+00 0.00000E+00
 -1         9 0.00000E+00 0.00000E+00 0.00000E+00 0.00000E+00 0.00000E+00 0.00000E+00
 -1        10 0.00000E+00 0.00000E+00 0.00000E+00 0.00000E+00 0.00000E+00 0.00000E+00
 -1        11 0.00000E+00 0.00000E+00 0.00000E+00 0.00000E+00 0.00000E+00 0.00000E+00
 -1        12 0.00000E+00 0.00000E+00 0.00000E+00 0.00000E+00 0.00000E+00 0.00000E+00
 -1        13 0.00000E+00 0.00000E+00 0.00000E+00 0.00000E+00 0.00000E+00 0.00000E+00
 -1        14 0.00000E+00 0.00000E+00 0.00000E+00 0.00000E+00 0.00000E+00 0.00000E+00
 -1        15 0.00000E+00 0.00000E+00 0.00000E+00 0.00000E+00 0.00000E+00 0.00000E+00
 -1        16 0.00000E+00 0.00000E+00 0.00000E+00 0.00000E+00 0.00000E+00 0.00000E+00
 -1        17 0.00000E+00 0.00000E+00 0.00000E+00 0.00000E+00 0.00000E+00 0.00000E+00
 -1        18 0.00000E+00 0.00000E+00 0.00000E+00 0.00000E+00 0.00000E+00 0.00000E+00
 -1        19 0.00000E+00 0.00000E+00 0.00000E+00 0.00000E+00 0.00000E+00 0.00000E+00
 -1        20 0.00000E+00 0.00000E+00 0.00000E+00 0.00000E+00 0.00000E+00 0.00000E+00
 -1        21 0.00000E+00 0.00000E+00 0.00000E+00 0.00000E+00 0.00000E+00 0.00000E+00
 -1        22 0.00000E+00 0.00000E+00 0.00000E+00 0.00000E+00 0.00000E+00 0.00000E+00
 -1        23 0.00000E+00 0.00000E+00 0.00000E+00 0.00000E+00 0.00000E+00 0.00000E+00
 -1        24 0.00000E+00 0.00000E+00 0.00000E+00 0.00000E+00 0.00000E+00 0.00000E+00
 -1        25 0.00000E+00 0.00000E+00 0.00000E+00 0.00000E+00 0.00000E+00 0.00000E+00
 -1        26 0.00000E+00 0.00000E+00 0.00000E+00 0.00000E+00 0.00000E+00 0.00000E+00
 -1        27 0.00000E+00 0.00000E+00 0.00000E+00 0.00000E+00 0.00000E+00 0.00000E+00
 -1        28 0.00000E+00 0.00000E+00 0.00000E+00 0.00000E+00 0.00000E+00 0.00000E+00
 -1        29 0.00000E+00 0.00000E+00 0.00000E+00 0.00000E+00 0.00000E+00 0.00000E+00
 -1        30 0.00000E+00 0.00000E+00 0.00000E+00 0.00000E+00 0.00000E+00 0.00000E+00
 -1        31 0.00000E+00 0.00000E+00 0.00000E+00 0.00000E+00 0.00000E+00 0.00000E+00
 -1        32 0.00000E+00 0.00000E+00 0.00000E+00 0.00000E+00 0.00000E+00 0.00000E+00
 -1        33 0.00000E+00 0.00000E+00 0.00000E+00 0.00000E+00 0.00000E+00 0.00000E+00
 -1        34 0.00000E+00 0.00000E+00 0.00000E+00 0.00000E+00 0.00000E+00 0.00000E+00
 -1        35 0.00000E+00 0.00000E+00 0.00000E+00 0.00000E+00 0.00000E+00 0.00000E+00
 -1        36 0.00000E+00 0.00000E+00 0.00000E+00 0.00000E+00 0.00000E+00 0.00000E+00
 -1        37 0.00000E+00 0.00000E+00 0.00000E+00 0.00000E+00 0.00000E+00 0.00000E+00
 -1        38 0.00000E+00 0.00000E+00 0.00000E+00 0.00000E+00 0.00000E+00 0.00000E+00
 -1        39 0.00000E+00 0.00000E+00 0.00000E+00 0.00000E+00 0.00000E+00 0.00000E+00
 -1        40 0.00000E+00 0.00000E+00 0.00000E+00 0.00000E+00 0.00000E+00 0.00000E+00
 -1        41 0.00000E+00 0.00000E+00 0.00000E+00 0.00000E+00 0.00000E+00 0.00000E+00
 -1        42 0.00000E+00 0.00000E+00 0.00000E+00 0.00000E+00 0.00000E+00 0.00000E+00
 -1        43 0.00000E+00 0.00000E+00 0.00000E+00 0.00000E+00 0.00000E+00 0.00000E+00
 -1        44 0.00000E+00 0.00000E+00 0.00000E+00 0.00000E+00 0.00000E+00 0.00000E+00
 -1        45 0.00000E+00 0.00000E+00 0.00000E+00 0.00000E+00 0.00000E+00 0.00000E+00
 -1        46 0.00000E+00 0.00000E+00 0.00000E+00 0.00000E+00 0.00000E+00 0.00000E+00
 -1        47 0.00000E+00 0.00000E+00 0.00000E+00 0.00000E+00 0.00000E+00 0.00000E+00
 -1        48 0.00000E+00 0.00000E+00 0.00000E+00 0.00000E+00 0.00000E+00 0.00000E+00
 -1        49 0.00000E+00 0.00000E+00 0.00000E+00 0.00000E+00 0.00000E+00 0.00000E+00
 -1        50 0.00000E+00 0.00000E+00 0.00000E+00 0.00000E+00 0.00000E+00 0.00000E+00
 -1        51 0.00000E+00 0.00000E+00 0.00000E+00 0.00000E+00 0.00000E+00 0.00000E+00
 -1        52 0.00000E+00 0.00000E+00 0.00000E+00 0.00000E+00 0.00000E+00 0.00000E+00
 -1        53 0.00000E+00 0.00000E+00 0.00000E+00 0.00000E+00 0.00000E+00 0.00000E+00
 -1        54 0.00000E+00 0.00000E+00 0.00000E+00 0.00000E+00 0.00000E+00 0.00000E+00
 -1        55 0.00000E+00 0.00000E+00 0.00000E+00 0.00000E+00 0.00000E+00 0.00000E+00
 -1        56 0.00000E+00 0.00000E+00 0.00000E+00 0.00000E+00 0.00000E+00 0.00000E+00
 -1        57 0.00000E+00 0.00000E+00 0.00000E+00 0.00000E+00 0.00000E+00 0.00000E+00
 -1        58 0.00000E+00 0.00000E+00 0.00000E+00 0.00000E+00 0.00000E+00 0.00000E+00
 -1        59 0.00000E+00 0.00000E+00 0.00000E+00 0.00000E+00 0.00000E+00 0.00000E+00
 -1        60 0.00000E+00 0.00000E+00 0.00000E+00 0.00000E+00 0.00000E+00 0.00000E+00
 -1        61 0.00000E+00 0.00000E+00 0.00000E+00 0.00000E+00 0.00000E+00 0.00000E+00
 -1        62 0.00000E+00 0.00000E+00 0.00000E+00 0.00000E+00 0.00000E+00 0.00000E+00
 -1        63 0.00000E+00 0.00000E+00 0.00000E+00 0.00000E+00 0.00000E+00 0.00000E+00
 -1        64 0.00000E+00 0.00000E+00 0.00000E+00 0.00000E+00 0.00000E+00 0.00000E+00
 -1        65 0.00000E+00 0.00000E+00 0.00000E+00 0.00000E+00 0.00000E+00 0.00000E+00
 -1        66 0.00000E+00 0.00000E+00 0.00000E+00 0.00000E+00 0.00000E+00 0.00000E+00
 -1        67 0.00000E+00 0.00000E+00 0.00000E+00 0.00000E+00 0.00000E+00 0.00000E+00
 -1        68 0.00000E+00 0.00000E+00 0.00000E+00 0.00000E+00 0.00000E+00 0.00000E+00
 -1        69 0.00000E+00 0.00000E+00 0.00000E+00 0.00000E+00 0.00000E+00 0.00000E+00
 -1        70 0.00000E+00 0.00000E+00 0.00000E+00 0.00000E+00 0.00000E+00 0.00000E+00
 -1        71 0.00000E+00 0.00000E+00 0.00000E+00 0.00000E+00 0.00000E+00 0.00000E+00
 -1        72 0.00000E+00 0.00000E+00 0.00000E+00 0.00000E+00 0.00000E+00 0.00000E+00
 -1        73 0.00000E+00 0.00000E+00 0.00000E+00 0.00000E+00 0.00000E+00 0.00000E+00
 -1        74 0.00000E+00 0.00000E+00 0.00000E+00 0.00000E+00 0.00000E+00 0.00000E+00
 -1        75 0.00000E+00 0.00000E+00 0.00000E+00 0.00000E+00 0.00000E+00 0.00000E+00
 -1        76 0.00000E+00 0.00000E+00 0.00000E+00 0.00000E+00 0.00000E+00 0.00000E+00
 -1        77 0.00000E+00 0.00000E+00 0.00000E+00 0.00000E+00 0.00000E+00 0.00000E+00
 -1        78 0.00000E+00 0.00000E+00 0.00000E+00 0.00000E+00 0.00000E+00 0.00000E+00
 -1        79 0.00000E+00 0.00000E+00 0.00000E+00 0.00000E+00 0.00000E+00 0.00000E+00
 -1        80 0.00000E+00 0.00000E+00 0.00000E+00 0.00000E+00 0.00000E+00 0.00000E+00
 -1        81 0.00000E+00 0.00000E+00 0.00000E+00 0.00000E+00 0.00000E+00 0.00000E+00
 -1        82 0.00000E+00 0.00000E+00 0.00000E+00 0.00000E+00 0.00000E+00 0.00000E+00
 -1        83 0.00000E+00 0.00000E+00 0.00000E+00 0.00000E+00 0.00000E+00 0.00000E+00
 -1        84 0.00000E+00 0.00000E+00 0.00000E+00 0.00000E+00 0.00000E+00 0.00000E+00
 -1        85 0.00000E+00 0.00000E+00 0.00000E+00 0.00000E+00 0.00000E+00 0.00000E+00
 -1        86 0.00000E+00 0.00000E+00 0.00000E+00 0.00000E+00 0.00000E+00 0.00000E+00
 -1        87 0.00000E+00 0.00000E+00 0.00000E+00 0.00000E+00 0.00000E+00 0.00000E+00
 -1        88 0.00000E+00 0.00000E+00 0.00000E+00 0.00000E+00 0.00000E+00 0.00000E+00
 -1        89 0.00000E+00 0.00000E+00 0.00000E+00 0.00000E+00 0.00000E+00 0.00000E+00
 -1        90 0.00000E+00 0.00000E+00 0.00000E+00 0.00000E+00 0.00000E+00 0.00000E+00
 -1        91 0.00000E+00 0.00000E+00 0.00000E+00 0.00000E+00 0.00000E+00 0.00000E+00
 -1        92 0.00000E+00 0.00000E+00 0.00000E+00 0.00000E+00 0.00000E+00 0.00000E+00
 -1        93 0.00000E+00 0.00000E+00 0.00000E+00 0.00000E+00 0.00000E+00 0.00000E+00
 -1        94 0.00000E+00 0.00000E+00 0.00000E+00 0.00000E+00 0.00000E+00 0.00000E+00
 -1        95 0.00000E+00 0.00000E+00 0.00000E+00 0.00000E+00 0.00000E+00 0.00000E+00
 -1        96 0.00000E+00 0.00000E+00 0.00000E+00 0.00000E+00 0.00000E+00 0.00000E+00
 -1        97 0.00000E+00 0.00000E+00 0.00000E+00 0.00000E+00 0.00000E+00 0.00000E+00
 -1        98 0.00000E+00 0.00000E+00 0.00000E+00 0.00000E+00 0.00000E+00 0.00000E+00
 -1        99 0.00000E+00 0.00000E+00 0.00000E+00 0.00000E+00 0.00000E+00 0.00000E+00
 -1       100 0.00000E+00 0.00000E+00 0.00000E+00 0.00000E+00 0.00000E+00 0.00000E+00
 -1       101 0.00000E+00 0.00000E+00 0.00000E+00 0.00000E+00 0.00000E+00 0.00000E+00
 -1       102 0.00000E+00 0.00000E+00 0.00000E+00 0.00000E+00 0.00000E+00 0.00000E+00
 -1       103 0.00000E+00 0.00000E+00 0.00000E+00 0.00000E+00 0.00000E+00 0.00000E+00
 -1       104 0.00000E+00 0.00000E+00 0.00000E+00 0.00000E+00 0.00000E+00 0.00000E+00
 -1       105 0.00000E+00 0.00000E+00 0.00000E+00 0.00000E+00 0.00000E+00 0.00000E+00
 -1       106 0.00000E+00 0.00000E+00 0.00000E+00 0.00000E+00 0.00000E+00 0.00000E+00
 -1       107 0.00000E+00 0.00000E+00 0.00000E+00 0.00000E+00 0.00000E+00 0.00000E+00
 -1       108 0.00000E+00 0.00000E+00 0.00000E+00 0.00000E+00 0.00000E+00 0.00000E+00
 -1       109 0.00000E+00 0.00000E+00 0.00000E+00 0.00000E+00 0.00000E+00 0.00000E+00
 -1       110 0.00000E+00 0.00000E+00 0.00000E+00 0.00000E+00 0.00000E+00 0.00000E+00
 -1       111 0.00000E+00 0.00000E+00 0.00000E+00 0.00000E+00 0.00000E+00 0.00000E+00
 -1       112 0.00000E+00 0.00000E+00 0.00000E+00 0.00000E+00 0.00000E+00 0.00000E+00
 -1       113 0.00000E+00 0.00000E+00 0.00000E+00 0.00000E+00 0.00000E+00 0.00000E+00
 -1       114 0.00000E+00 0.00000E+00 0.00000E+00 0.00000E+00 0.00000E+00 0.00000E+00
 -1       115 0.00000E+00 0.00000E+00 0.00000E+00 0.00000E+00 0.00000E+00 0.00000E+00
 -1       116 0.00000E+00 0.00000E+00 0.00000E+00 0.00000E+00 0.00000E+00 0.00000E+00
 -1       117 0.00000E+00 0.00000E+00 0.00000E+00 0.00000E+00 0.00000E+00 0.00000E+00
 -1       118 0.00000E+00 0.00000E+00 0.00000E+00 0.00000E+00 0.00000E+00 0.00000E+00
 -1       119 0.00000E+00 0.00000E+00 0.00000E+00 0.00000E+00 0.00000E+00 0.00000E+00
 -1       120 0.00000E+00 0.00000E+00 0.00000E+00 0.00000E+00 0.00000E+00 0.00000E+00
 -1       121 0.00000E+00 0.00000E+00 0.00000E+00 0.00000E+00 0.00000E+00 0.00000E+00
 -1       122 0.00000E+00 0.00000E+00 0.00000E+00 0.00000E+00 0.00000E+00 0.00000E+00
 -1       123 0.00000E+00 0.00000E+00 0.00000E+00 0.00000E+00 0.00000E+00 0.00000E+00
 -1       124 0.00000E+00 0.00000E+00 0.00000E+00 0.00000E+00 0.00000E+00 0.00000E+00
 -1       125 0.00000E+00 0.00000E+00 0.00000E+00 0.00000E+00 0.00000E+00 0.00000E+00
 -1       126 0.00000E+00 0.00000E+00 0.00000E+00 0.00000E+00 0.00000E+00 0.00000E+00
 -1       127 0.00000E+00 0.00000E+00 0.00000E+00 0.00000E+00 0.00000E+00 0.00000E+00
 -1       128 0.00000E+00 0.00000E+00 0.00000E+00 0.00000E+00 0.00000E+00 0.00000E+00
 -1       129 0.00000E+00 0.00000E+00 0.00000E+00 0.00000E+00 0.00000E+00 0.00000E+00
 -1       130 0.00000E+00 0.00000E+00 0.00000E+00 0.00000E+00 0.00000E+00 0.00000E+00
 -1       131 0.00000E+00 0.00000E+00 0.00000E+00 0.00000E+00 0.00000E+00 0.00000E+00
 -1       132 0.00000E+00 0.00000E+00 0.00000E+00 0.00000E+00 0.00000E+00 0.00000E+00
 -1       133 0.00000E+00 0.00000E+00 0.00000E+00 0.00000E+00 0.00000E+00 0.00000E+00
 -1       134 0.00000E+00 0.00000E+00 0.00000E+00 0.00000E+00 0.00000E+00 0.00000E+00
 -1       135 0.00000E+00 0.00000E+00 0.00000E+00 0.00000E+00 0.00000E+00 0.00000E+00
 -1       136 0.00000E+00 0.00000E+00 0.00000E+00 0.00000E+00 0.00000E+00 0.00000E+00
 -1       137 0.00000E+00 0.00000E+00 0.00000E+00 0.00000E+00 0.00000E+00 0.00000E+00
 -1       138 0.00000E+00 0.00000E+00 0.00000E+00 0.00000E+00 0.00000E+00 0.00000E+00
 -1       139 0.00000E+00 0.00000E+00 0.00000E+00 0.00000E+00 0.00000E+00 0.00000E+00
 -1       140 0.00000E+00 0.00000E+00 0.00000E+00 0.00000E+00 0.00000E+00 0.00000E+00
 -1       141 0.00000E+00 0.00000E+00 0.00000E+00 0.00000E+00 0.00000E+00 0.00000E+00
 -1       142 0.00000E+00 0.00000E+00 0.00000E+00 0.00000E+00 0.00000E+00 0.00000E+00
 -1       143 0.00000E+00 0.00000E+00 0.00000E+00 0.00000E+00 0.00000E+00 0.00000E+00
 -1       144 0.00000E+00 0.00000E+00 0.00000E+00 0.00000E+00 0.00000E+00 0.00000E+00
 -1       145 0.00000E+00 0.00000E+00 0.00000E+00 0.00000E+00 0.00000E+00 0.00000E+00
 -1       146 0.00000E+00 0.00000E+00 0.00000E+00 0.00000E+00 0.00000E+00 0.00000E+00
 -1       147 0.00000E+00 0.00000E+00 0.00000E+00 0.00000E+00 0.00000E+00 0.00000E+00
 -1       148 0.00000E+00 0.00000E+00 0.00000E+00 0.00000E+00 0.00000E+00 0.00000E+00
 -1       149 0.00000E+00 0.00000E+00 0.00000E+00 0.00000E+00 0.00000E+00 0.00000E+00
 -1       150 0.00000E+00 0.00000E+00 0.00000E+00 0.00000E+00 0.00000E+00 0.00000E+00
 -1       151 0.00000E+00 0.00000E+00 0.00000E+00 0.00000E+00 0.00000E+00 0.00000E+00
 -1       152 0.00000E+00 0.00000E+00 0.00000E+00 0.00000E+00 0.00000E+00 0.00000E+00
 -1       153 0.00000E+00 0.00000E+00 0.00000E+00 0.00000E+00 0.00000E+00 0.00000E+00
 -1       154 0.00000E+00 0.00000E+00 0.00000E+00 0.00000E+00 0.00000E+00 0.00000E+00
 -1       155 0.00000E+00 0.00000E+00 0.00000E+00 0.00000E+00 0.00000E+00 0.00000E+00
 -1       156 0.00000E+00 0.00000E+00 0.00000E+00 0.00000E+00 0.00000E+00 0.00000E+00
 -1       157 0.00000E+00 0.00000E+00 0.00000E+00 0.00000E+00 0.00000E+00 0.00000E+00
 -1       158 0.00000E+00 0.00000E+00 0.00000E+00 0.00000E+00 0.00000E+00 0.00000E+00
 -1       159 0.00000E+00 0.00000E+00 0.00000E+00 0.00000E+00 0.00000E+00 0.00000E+00
 -1       160 0.00000E+00 0.00000E+00 0.00000E+00 0.00000E+00 0.00000E+00 0.00000E+00
 -1       161 0.00000E+00 0.00000E+00 0.00000E+00 0.00000E+00 0.00000E+00 0.00000E+00
 -1       162 0.00000E+00 0.00000E+00 0.00000E+00 0.00000E+00 0.00000E+00 0.00000E+00
 -1       163 0.00000E+00 0.00000E+00 0.00000E+00 0.00000E+00 0.00000E+00 0.00000E+00
 -1       164 0.00000E+00 0.00000E+00 0.00000E+00 0.00000E+00 0.00000E+00 0.00000E+00
 -1       165 0.00000E+00 0.00000E+00 0.00000E+00 0.00000E+00 0.00000E+00 0.00000E+00
 -1       166 0.00000E+00 0.00000E+00 0.00000E+00 0.00000E+00 0.00000E+00 0.00000E+00
 -1       167 0.00000E+00 0.00000E+00 0.00000E+00 0.00000E+00 0.00000E+00 0.00000E+00
 -1       168 0.00000E+00 0.00000E+00 0.00000E+00 0.00000E+00 0.00000E+00 0.00000E+00
 -1       169 0.00000E+00 0.00000E+00 0.00000E+00 0.00000E+00 0.00000E+00 0.00000E+00
 -1       170 0.00000E+00 0.00000E+00 0.00000E+00 0.00000E+00 0.00000E+00 0.00000E+00
 -1       171 0.00000E+00 0.00000E+00 0.00000E+00 0.00000E+00 0.00000E+00 0.00000E+00
 -1       172 0.00000E+00 0.00000E+00 0.00000E+00 0.00000E+00 0.00000E+00 0.00000E+00
 -1       173 0.00000E+00 0.00000E+00 0.00000E+00 0.00000E+00 0.00000E+00 0.00000E+00
 -1       174 0.00000E+00 0.00000E+00 0.00000E+00 0.00000E+00 0.00000E+00 0.00000E+00
 -1       175 0.00000E+00 0.00000E+00 0.00000E+00 0.00000E+00 0.00000E+00 0.00000E+00
 -1       176 0.00000E+00 0.00000E+00 0.00000E+00 0.00000E+00 0.00000E+00 0.00000E+00
 -1       177 0.00000E+00 0.00000E+00 0.00000E+00 0.00000E+00 0.00000E+00 0.00000E+00
 -1       178 0.00000E+00 0.00000E+00 0.00000E+00 0.00000E+00 0.00000E+00 0.00000E+00
 -1       179 0.00000E+00 0.00000E+00 0.00000E+00 0.00000E+00 0.00000E+00 0.00000E+00
 -1       180 0.00000E+00 0.00000E+00 0.00000E+00 0.00000E+00 0.00000E+00 0.00000E+00
 -1       181 0.00000E+00 0.00000E+00 0.00000E+00 0.00000E+00 0.00000E+00 0.00000E+00
 -1       182 0.00000E+00 0.00000E+00 0.00000E+00 0.00000E+00 0.00000E+00 0.00000E+00
 -1       183 0.00000E+00 0.00000E+00 0.00000E+00 0.00000E+00 0.00000E+00 0.00000E+00
 -1       184 0.00000E+00 0.00000E+00 0.00000E+00 0.00000E+00 0.00000E+00 0.00000E+00
 -1       185 0.00000E+00 0.00000E+00 0.00000E+00 0.00000E+00 0.00000E+00 0.00000E+00
 -1       186 0.00000E+00 0.00000E+00 0.00000E+00 0.00000E+00 0.00000E+00 0.00000E+00
 -1       187 0.00000E+00 0.00000E+00 0.00000E+00 0.00000E+00 0.00000E+00 0.00000E+00
 -1       188 0.00000E+00 0.00000E+00 0.00000E+00 0.00000E+00 0.00000E+00 0.00000E+00
 -1       189 0.00000E+00 0.00000E+00 0.00000E+00 0.00000E+00 0.00000E+00 0.00000E+00
 -1       190 0.00000E+00 0.00000E+00 0.00000E+00 0.00000E+00 0.00000E+00 0.00000E+00
 -1       191 0.00000E+00 0.00000E+00 0.00000E+00 0.00000E+00 0.00000E+00 0.00000E+00
 -1       192 0.00000E+00 0.00000E+00 0.00000E+00 0.00000E+00 0.00000E+00 0.00000E+00
 -1       193 0.00000E+00 0.00000E+00 0.00000E+00 0.00000E+00 0.00000E+00 0.00000E+00
 -1       194 0.00000E+00 0.00000E+00 0.00000E+00 0.00000E+00 0.00000E+00 0.00000E+00
 -1       195 0.00000E+00 0.00000E+00 0.00000E+00 0.00000E+00 0.00000E+00 0.00000E+00
 -1       196 0.00000E+00 0.00000E+00 0.00000E+00 0.00000E+00 0.00000E+00 0.00000E+00
 -1       197 0.00000E+00 0.00000E+00 0.00000E+00 0.00000E+00 0.00000E+00 0.00000E+00
 -1       198 0.00000E+00 0.00000E+00 0.00000E+00 0.00000E+00 0.00000E+00 0.00000E+00
 -1       199 0.00000E+00 0.00000E+00 0.00000E+00 0.00000E+00 0.00000E+00 0.00000E+00
 -1       200 0.00000E+00 0.00000E+00 0.00000E+00 0.00000E+00 0.00000E+00 0.00000E+00
 -1       201 0.00000E+00 0.00000E+00 0.00000E+00 0.00000E+00 0.00000E+00 0.00000E+00
 -1       202 0.00000E+00 0.00000E+00 0.00000E+00 0.00000E+00 0.00000E+00 0.00000E+00
 -1       203 0.00000E+00 0.00000E+00 0.00000E+00 0.00000E+00 0.00000E+00 0.00000E+00
 -1       204 0.00000E+00 0.00000E+00 0.00000E+00 0.00000E+00 0.00000E+00 0.00000E+00
 -1       205 0.00000E+00 0.00000E+00 0.00000E+00 0.00000E+00 0.00000E+00 0.00000E+00
 -1       206 0.00000E+00 0.00000E+00 0.00000E+00 0.00000E+00 0.00000E+00 0.00000E+00
 -1       207 0.00000E+00 0.00000E+00 0.00000E+00 0.00000E+00 0.00000E+00 0.00000E+00
 -1       208 0.00000E+00 0.00000E+00 0.00000E+00 0.00000E+00 0.00000E+00 0.00000E+00
 -1       209 0.00000E+00 0.00000E+00 0.00000E+00 0.00000E+00 0.00000E+00 0.00000E+00
 -1       210 0.00000E+00 0.00000E+00 0.00000E+00 0.00000E+00 0.00000E+00 0.00000E+00
 -1       211 0.00000E+00 0.00000E+00 0.00000E+00 0.00000E+00 0.00000E+00 0.00000E+00
 -1       212 0.00000E+00 0.00000E+00 0.00000E+00 0.00000E+00 0.00000E+00 0.00000E+00
 -1       213 0.00000E+00 0.00000E+00 0.00000E+00 0.00000E+00 0.00000E+00 0.00000E+00
 -1       214 0.00000E+00 0.00000E+00 0.00000E+00 0.00000E+00 0.00000E+00 0.00000E+00
 -1       215 0.00000E+00 0.00000E+00 0.00000E+00 0.00000E+00 0.00000E+00 0.00000E+00
 -1       216 0.00000E+00 0.00000E+00 0.00000E+00 0.00000E+00 0.00000E+00 0.00000E+00
 -1       217 0.00000E+00 0.00000E+00 0.00000E+00 0.00000E+00 0.00000E+00 0.00000E+00
 -1       218 0.00000E+00 0.00000E+00 0.00000E+00 0.00000E+00 0.00000E+00 0.00000E+00
 -1       219 0.00000E+00 0.00000E+00 0.00000E+00 0.00000E+00 0.00000E+00 0.00000E+00
 -1       220 0.00000E+00 0.00000E+00 0.00000E+00 0.00000E+00 0.00000E+00 0.00000E+00
 -1       221 0.00000E+00 0.00000E+00 0.00000E+00 0.00000E+00 0.00000E+00 0.00000E+00
 -1       222 0.00000E+00 0.00000E+00 0.00000E+00 0.00000E+00 0.00000E+00 0.00000E+00
 -1       223 0.00000E+00 0.00000E+00 0.00000E+00 0.00000E+00 0.00000E+00 0.00000E+00
 -1       224 0.00000E+00 0.00000E+00 0.00000E+00 0.00000E+00 0.00000E+00 0.00000E+00
 -1       225 0.00000E+00 0.00000E+00 0.00000E+00 0.00000E+00 0.00000E+00 0.00000E+00
 -1       226 0.00000E+00 0.00000E+00 0.00000E+00 0.00000E+00 0.00000E+00 0.00000E+00
 -1       227 0.00000E+00 0.00000E+00 0.00000E+00 0.00000E+00 0.00000E+00 0.00000E+00
 -1       228 0.00000E+00 0.00000E+00 0.00000E+00 0.00000E+00 0.00000E+00 0.00000E+00
 -1       229 0.00000E+00 0.00000E+00 0.00000E+00 0.00000E+00 0.00000E+00 0.00000E+00
 -1       230 0.00000E+00 0.00000E+00 0.00000E+00 0.00000E+00 0.00000E+00 0.00000E+00
 -1       231 0.00000E+00 0.00000E+00 0.00000E+00 0.00000E+00 0.00000E+00 0.00000E+00
 -1       232 0.00000E+00 0.00000E+00 0.00000E+00 0.00000E+00 0.00000E+00 0.00000E+00
 -1       233 0.00000E+00 0.00000E+00 0.00000E+00 0.00000E+00 0.00000E+00 0.00000E+00
 -1       234 0.00000E+00 0.00000E+00 0.00000E+00 0.00000E+00 0.00000E+00 0.00000E+00
 -1       235 0.00000E+00 0.00000E+00 0.00000E+00 0.00000E+00 0.00000E+00 0.00000E+00
 -1       236 0.00000E+00 0.00000E+00 0.00000E+00 0.00000E+00 0.00000E+00 0.00000E+00
 -1       237 0.00000E+00 0.00000E+00 0.00000E+00 0.00000E+00 0.00000E+00 0.00000E+00
 -1       238 0.00000E+00 0.00000E+00 0.00000E+00 0.00000E+00 0.00000E+00 0.00000E+00
 -1       239 0.00000E+00 0.00000E+00 0.00000E+00 0.00000E+00 0.00000E+00 0.00000E+00
 -1       240 0.00000E+00 0.00000E+00 0.00000E+00 0.00000E+00 0.00000E+00 0.00000E+00
 -1       241 0.00000E+00 0.00000E+00 0.00000E+00 0.00000E+00 0.00000E+00 0.00000E+00
 -1       242 0.00000E+00 0.00000E+00 0.00000E+00 0.00000E+00 0.00000E+00 0.00000E+00
 -1       243 0.00000E+00 0.00000E+00 0.00000E+00 0.00000E+00 0.00000E+00 0.00000E+00
 -1       244 0.00000E+00 0.00000E+00 0.00000E+00 0.00000E+00 0.00000E+00 0.00000E+00
 -1       245 0.00000E+00 0.00000E+00 0.00000E+00 0.00000E+00 0.00000E+00 0.00000E+00
 -1       246 0.00000E+00 0.00000E+00 0.00000E+00 0.00000E+00 0.00000E+00 0.00000E+00
 -1       247 0.00000E+00 0.00000E+00 0.00000E+00 0.00000E+00 0.00000E+00 0.00000E+00
 -1       248 0.00000E+00 0.00000E+00 0.00000E+00 0.00000E+00 0.00000E+00 0.00000E+00
 -1       249 0.00000E+00 0.00000E+00 0.00000E+00 0.00000E+00 0.00000E+00 0.00000E+00
 -1       250 0.00000E+00 0.00000E+00 0.00000E+00 0.00000E+00 0.00000E+00 0.00000E+00
 -1       251 0.00000E+00 0.00000E+00 0.00000E+00 0.00000E+00 0.00000E+00 0.00000E+00
 -1       252 0.00000E+00 0.00000E+00 0.00000E+00 0.00000E+00 0.00000E+00 0.00000E+00
 -1       253 0.00000E+00 0.00000E+00 0.00000E+00 0.00000E+00 0.00000E+00 0.00000E+00
 -1       254 0.00000E+00 0.00000E+00 0.00000E+00 0.00000E+00 0.00000E+00 0.00000E+00
 -1       255 0.00000E+00 0.00000E+00 0.00000E+00 0.00000E+00 0.00000E+00 0.00000E+00
 -1       256 0.00000E+00 0.00000E+00 0.00000E+00 0.00000E+00 0.00000E+00 0.00000E+00
 -1       257 0.00000E+00 0.00000E+00 0.00000E+00 0.00000E+00 0.00000E+00 0.00000E+00
 -1       258 0.00000E+00 0.00000E+00 0.00000E+00 0.00000E+00 0.00000E+00 0.00000E+00
 -1       259 0.00000E+00 0.00000E+00 0.00000E+00 0.00000E+00 0.00000E+00 0.00000E+00
 -1       260 0.00000E+00 0.00000E+00 0.00000E+00 0.00000E+00 0.00000E+00 0.00000E+00
 -1       261 0.00000E+00 0.00000E+00 0.00000E+00 0.00000E+00 0.00000E+00 0.00000E+00
 -1       262 0.00000E+00 0.00000E+00 0.00000E+00 0.00000E+00 0.00000E+00 0.00000E+00
 -1       263 0.00000E+00 0.00000E+00 0.00000E+00 0.00000E+00 0.00000E+00 0.00000E+00
 -1       264 0.00000E+00 0.00000E+00 0.00000E+00 0.00000E+00 0.00000E+00 0.00000E+00
 -1       265 0.00000E+00 0.00000E+00 0.00000E+00 0.00000E+00 0.00000E+00 0.00000E+00
 -1       266 0.00000E+00 0.00000E+00 0.00000E+00 0.00000E+00 0.00000E+00 0.00000E+00
 -1       267 0.00000E+00 0.00000E+00 0.00000E+00 0.00000E+00 0.00000E+00 0.00000E+00
 -1       268 0.00000E+00 0.00000E+00 0.00000E+00 0.00000E+00 0.00000E+00 0.00000E+00
 -1       269 0.00000E+00 0.00000E+00 0.00000E+00 0.00000E+00 0.00000E+00 0.00000E+00
 -1       270 0.00000E+00 0.00000E+00 0.00000E+00 0.00000E+00 0.00000E+00 0.00000E+00
 -1       271 0.00000E+00 0.00000E+00 0.00000E+00 0.00000E+00 0.00000E+00 0.00000E+00
 -1       272 0.00000E+00 0.00000E+00 0.00000E+00 0.00000E+00 0.00000E+00 0.00000E+00
 -1       273 0.00000E+00 0.00000E+00 0.00000E+00 0.00000E+00 0.00000E+00 0.00000E+00
 -1       274 0.00000E+00 0.00000E+00 0.00000E+00 0.00000E+00 0.00000E+00 0.00000E+00
 -1       275 0.00000E+00 0.00000E+00 0.00000E+00 0.00000E+00 0.00000E+00 0.00000E+00
 -1       276 0.00000E+00 0.00000E+00 0.00000E+00 0.00000E+00 0.00000E+00 0.00000E+00
 -1       277 0.00000E+00 0.00000E+00 0.00000E+00 0.00000E+00 0.00000E+00 0.00000E+00
 -1       278 0.00000E+00 0.00000E+00 0.00000E+00 0.00000E+00 0.00000E+00 0.00000E+00
 -1       279 0.00000E+00 0.00000E+00 0.00000E+00 0.00000E+00 0.00000E+00 0.00000E+00
 -1       280 0.00000E+00 0.00000E+00 0.00000E+00 0.00000E+00 0.00000E+00 0.00000E+00
 -1       281 0.00000E+00 0.00000E+00 0.00000E+00 0.00000E+00 0.00000E+00 0.00000E+00
 -1       282 0.00000E+00 0.00000E+00 0.00000E+00 0.00000E+00 0.00000E+00 0.00000E+00
 -1       283 0.00000E+00 0.00000E+00 0.00000E+00 0.00000E+00 0.00000E+00 0.00000E+00
 -1       284 0.00000E+00 0.00000E+00 0.00000E+00 0.00000E+00 0.00000E+00 0.00000E+00
 -1       285 0.00000E+00 0.00000E+00 0.00000E+00 0.00000E+00 0.00000E+00 0.00000E+00
 -1       286 0.00000E+00 0.00000E+00 0.00000E+00 0.00000E+00 0.00000E+00 0.00000E+00
 -1       287 0.00000E+00 0.00000E+00 0.00000E+00 0.00000E+00 0.00000E+00 0.00000E+00
 -1       288 0.00000E+00 0.00000E+00 0.00000E+00 0.00000E+00 0.00000E+00 0.00000E+00
 -1       289 0.00000E+00 0.00000E+00 0.00000E+00 0.00000E+00 0.00000E+00 0.00000E+00
 -1       290 0.00000E+00 0.00000E+00 0.00000E+00 0.00000E+00 0.00000E+00 0.00000E+00
 -1       291 0.00000E+00 0.00000E+00 0.00000E+00 0.00000E+00 0.00000E+00 0.00000E+00
 -1       292 0.00000E+00 0.00000E+00 0.00000E+00 0.00000E+00 0.00000E+00 0.00000E+00
 -1       293 0.00000E+00 0.00000E+00 0.00000E+00 0.00000E+00 0.00000E+00 0.00000E+00
 -1       294 0.00000E+00 0.00000E+00 0.00000E+00 0.00000E+00 0.00000E+00 0.00000E+00
 -1       295 0.00000E+00 0.00000E+00 0.00000E+00 0.00000E+00 0.00000E+00 0.00000E+00
 -1       296 0.00000E+00 0.00000E+00 0.00000E+00 0.00000E+00 0.00000E+00 0.00000E+00
 -1       297 0.00000E+00 0.00000E+00 0.00000E+00 0.00000E+00 0.00000E+00 0.00000E+00
 -1       298 0.00000E+00 0.00000E+00 0.00000E+00 0.00000E+00 0.00000E+00 0.00000E+00
 -1       299 0.00000E+00 0.00000E+00 0.00000E+00 0.00000E+00 0.00000E+00 0.00000E+00
 -1       300 0.00000E+00 0.00000E+00 0.00000E+00 0.00000E+00 0.00000E+00 0.00000E+00
 -1       301 0.00000E+00 0.00000E+00 0.00000E+00 0.00000E+00 0.00000E+00 0.00000E+00
 -1       302 0.00000E+00 0.00000E+00 0.00000E+00 0.00000E+00 0.00000E+00 0.00000E+00
 -1       303 0.00000E+00 0.00000E+00 0.00000E+00 0.00000E+00 0.00000E+00 0.00000E+00
 -1       304 0.00000E+00 0.00000E+00 0.00000E+00 0.00000E+00 0.00000E+00 0.00000E+00
 -1       305 0.00000E+00 0.00000E+00 0.00000E+00 0.00000E+00 0.00000E+00 0.00000E+00
 -1       306 0.00000E+00 0.00000E+00 0.00000E+00 0.00000E+00 0.00000E+00 0.00000E+00
 -1       307 0.00000E+00 0.00000E+00 0.00000E+00 0.00000E+00 0.00000E+00 0.00000E+00
 -1       308 0.00000E+00 0.00000E+00 0.00000E+00 0.00000E+00 0.00000E+00 0.00000E+00
 -1       309 0.00000E+00 0.00000E+00 0.00000E+00 0.00000E+00 0.00000E+00 0.00000E+00
 -1       310 0.00000E+00 0.00000E+00 0.00000E+00 0.00000E+00 0.00000E+00 0.00000E+00
 -1       311 0.00000E+00 0.00000E+00 0.00000E+00 0.00000E+00 0.00000E+00 0.00000E+00
 -1       312 0.00000E+00 0.00000E+00 0.00000E+00 0.00000E+00 0.00000E+00 0.00000E+00
 -1       313 0.00000E+00 0.00000E+00 0.00000E+00 0.00000E+00 0.00000E+00 0.00000E+00
 -1       314 0.00000E+00 0.00000E+00 0.00000E+00 0.00000E+00 0.00000E+00 0.00000E+00
 -1       315 0.00000E+00 0.00000E+00 0.00000E+00 0.00000E+00 0.00000E+00 0.00000E+00
 -1       316 0.00000E+00 0.00000E+00 0.00000E+00 0.00000E+00 0.00000E+00 0.00000E+00
 -1       317 0.00000E+00 0.00000E+00 0.00000E+00 0.00000E+00 0.00000E+00 0.00000E+00
 -1       318 0.00000E+00 0.00000E+00 0.00000E+00 0.00000E+00 0.00000E+00 0.00000E+00
 -1       319 0.00000E+00 0.00000E+00 0.00000E+00 0.00000E+00 0.00000E+00 0.00000E+00
 -1       320 0.00000E+00 0.00000E+00 0.00000E+00 0.00000E+00 0.00000E+00 0.00000E+00
 -1       321 0.00000E+00 0.00000E+00 0.00000E+00 0.00000E+00 0.00000E+00 0.00000E+00
 -1       322 0.00000E+00 0.00000E+00 0.00000E+00 0.00000E+00 0.00000E+00 0.00000E+00
 -1       323 0.00000E+00 0.00000E+00 0.00000E+00 0.00000E+00 0.00000E+00 0.00000E+00
 -1       324 0.00000E+00 0.00000E+00 0.00000E+00 0.00000E+00 0.00000E+00 0.00000E+00
 -1       325 0.00000E+00 0.00000E+00 0.00000E+00 0.00000E+00 0.00000E+00 0.00000E+00
 -1       326 0.00000E+00 0.00000E+00 0.00000E+00 0.00000E+00 0.00000E+00 0.00000E+00
 -1       327 0.00000E+00 0.00000E+00 0.00000E+00 0.00000E+00 0.00000E+00 0.00000E+00
 -1       328 0.00000E+00 0.00000E+00 0.00000E+00 0.00000E+00 0.00000E+00 0.00000E+00
 -1       329 0.00000E+00 0.00000E+00 0.00000E+00 0.00000E+00 0.00000E+00 0.00000E+00
 -1       330 0.00000E+00 0.00000E+00 0.00000E+00 0.00000E+00 0.00000E+00 0.00000E+00
 -1       331 0.00000E+00 0.00000E+00 0.00000E+00 0.00000E+00 0.00000E+00 0.00000E+00
 -1       332 0.00000E+00 0.00000E+00 0.00000E+00 0.00000E+00 0.00000E+00 0.00000E+00
 -1       333 0.00000E+00 0.00000E+00 0.00000E+00 0.00000E+00 0.00000E+00 0.00000E+00
 -1       334 0.00000E+00 0.00000E+00 0.00000E+00 0.00000E+00 0.00000E+00 0.00000E+00
 -1       335 0.00000E+00 0.00000E+00 0.00000E+00 0.00000E+00 0.00000E+00 0.00000E+00
 -1       336 0.00000E+00 0.00000E+00 0.00000E+00 0.00000E+00 0.00000E+00 0.00000E+00
 -1       337 0.00000E+00 0.00000E+00 0.00000E+00 0.00000E+00 0.00000E+00 0.00000E+00
 -1       338 0.00000E+00 0.00000E+00 0.00000E+00 0.00000E+00 0.00000E+00 0.00000E+00
 -1       339 0.00000E+00 0.00000E+00 0.00000E+00 0.00000E+00 0.00000E+00 0.00000E+00
 -1       340 0.00000E+00 0.00000E+00 0.00000E+00 0.00000E+00 0.00000E+00 0.00000E+00
 -1       341 0.00000E+00 0.00000E+00 0.00000E+00 0.00000E+00 0.00000E+00 0.00000E+00
 -1       342 0.00000E+00 0.00000E+00 0.00000E+00 0.00000E+00 0.00000E+00 0.00000E+00
 -1       343 0.00000E+00 0.00000E+00 0.00000E+00 0.00000E+00 0.00000E+00 0.00000E+00
 -1       344 0.00000E+00 0.00000E+00 0.00000E+00 0.00000E+00 0.00000E+00 0.00000E+00
 -1       345 0.00000E+00 0.00000E+00 0.00000E+00 0.00000E+00 0.00000E+00 0.00000E+00
 -1       346 0.00000E+00 0.00000E+00 0.00000E+00 0.00000E+00 0.00000E+00 0.00000E+00
 -1       347 0.00000E+00 0.00000E+00 0.00000E+00 0.00000E+00 0.00000E+00 0.00000E+00
 -1       348 0.00000E+00 0.00000E+00 0.00000E+00 0.00000E+00 0.00000E+00 0.00000E+00
 -1       349 0.00000E+00 0.00000E+00 0.00000E+00 0.00000E+00 0.00000E+00 0.00000E+00
 -1       350 0.00000E+00 0.00000E+00 0.00000E+00 0.00000E+00 0.00000E+00 0.00000E+00
 -1       351 0.00000E+00 0.00000E+00 0.00000E+00 0.00000E+00 0.00000E+00 0.00000E+00
 -1       352 0.00000E+00 0.00000E+00 0.00000E+00 0.00000E+00 0.00000E+00 0.00000E+00
 -1       353 0.00000E+00 0.00000E+00 0.00000E+00 0.00000E+00 0.00000E+00 0.00000E+00
 -1       354 0.00000E+00 0.00000E+00 0.00000E+00 0.00000E+00 0.00000E+00 0.00000E+00
 -1       355 0.00000E+00 0.00000E+00 0.00000E+00 0.00000E+00 0.00000E+00 0.00000E+00
 -1       356 0.00000E+00 0.00000E+00 0.00000E+00 0.00000E+00 0.00000E+00 0.00000E+00
 -1       357 0.00000E+00 0.00000E+00 0.00000E+00 0.00000E+00 0.00000E+00 0.00000E+00
 -1       358 0.00000E+00 0.00000E+00 0.00000E+00 0.00000E+00 0.00000E+00 0.00000E+00
 -1       359 0.00000E+00 0.00000E+00 0.00000E+00 0.00000E+00 0.00000E+00 0.00000E+00
 -1       360 0.00000E+00 0.00000E+00 0.00000E+00 0.00000E+00 0.00000E+00 0.00000E+00
 -1       361 0.00000E+00 0.00000E+00 0.00000E+00 0.00000E+00 0.00000E+00 0.00000E+00
 -1       362 0.00000E+00 0.00000E+00 0.00000E+00 0.00000E+00 0.00000E+00 0.00000E+00
 -1       363 0.00000E+00 0.00000E+00 0.00000E+00 0.00000E+00 0.00000E+00 0.00000E+00
 -1       364 0.00000E+00 0.00000E+00 0.00000E+00 0.00000E+00 0.00000E+00 0.00000E+00
 -1       365 0.00000E+00 0.00000E+00 0.00000E+00 0.00000E+00 0.00000E+00 0.00000E+00
 -1       366 0.00000E+00 0.00000E+00 0.00000E+00 0.00000E+00 0.00000E+00 0.00000E+00
 -1       367 0.00000E+00 0.00000E+00 0.00000E+00 0.00000E+00 0.00000E+00 0.00000E+00
 -1       368 0.00000E+00 0.00000E+00 0.00000E+00 0.00000E+00 0.00000E+00 0.00000E+00
 -1       369 0.00000E+00 0.00000E+00 0.00000E+00 0.00000E+00 0.00000E+00 0.00000E+00
 -1       370 0.00000E+00 0.00000E+00 0.00000E+00 0.00000E+00 0.00000E+00 0.00000E+00
 -1       371 0.00000E+00 0.00000E+00 0.00000E+00 0.00000E+00 0.00000E+00 0.00000E+00
 -1       372 0.00000E+00 0.00000E+00 0.00000E+00 0.00000E+00 0.00000E+00 0.00000E+00
 -1       373 0.00000E+00 0.00000E+00 0.00000E+00 0.00000E+00 0.00000E+00 0.00000E+00
 -1       374 0.00000E+00 0.00000E+00 0.00000E+00 0.00000E+00 0.00000E+00 0.00000E+00
 -1       375 0.00000E+00 0.00000E+00 0.00000E+00 0.00000E+00 0.00000E+00 0.00000E+00
 -1       376 0.00000E+00 0.00000E+00 0.00000E+00 0.00000E+00 0.00000E+00 0.00000E+00
 -1       377 0.00000E+00 0.00000E+00 0.00000E+00 0.00000E+00 0.00000E+00 0.00000E+00
 -1       378 0.00000E+00 0.00000E+00 0.00000E+00 0.00000E+00 0.00000E+00 0.00000E+00
 -1       379 0.00000E+00 0.00000E+00 0.00000E+00 0.00000E+00 0.00000E+00 0.00000E+00
 -1       381 0.00000E+00 0.00000E+00 0.00000E+00 0.00000E+00 0.00000E+00 0.00000E+00
 -1       382 0.00000E+00 0.00000E+00 0.00000E+00 0.00000E+00 0.00000E+00 0.00000E+00
 -1       383 0.00000E+00 0.00000E+00 0.00000E+00 0.00000E+00 0.00000E+00 0.00000E+00
 -1       384 0.00000E+00 0.00000E+00 0.00000E+00 0.00000E+00 0.00000E+00 0.00000E+00
 -1       385 0.00000E+00 0.00000E+00 0.00000E+00 0.00000E+00 0.00000E+00 0.00000E+00
 -1       386 0.00000E+00 0.00000E+00 0.00000E+00 0.00000E+00 0.00000E+00 0.00000E+00
 -1       387 0.00000E+00 0.00000E+00 0.00000E+00 0.00000E+00 0.00000E+00 0.00000E+00
 -1       388 0.00000E+00 0.00000E+00 0.00000E+00 0.00000E+00 0.00000E+00 0.00000E+00
 -1       389 0.00000E+00 0.00000E+00 0.00000E+00 0.00000E+00 0.00000E+00 0.00000E+00
 -1       390 0.00000E+00 0.00000E+00 0.00000E+00 0.00000E+00 0.00000E+00 0.00000E+00
 -1       391 0.00000E+00 0.00000E+00 0.00000E+00 0.00000E+00 0.00000E+00 0.00000E+00
 -1       392 0.00000E+00 0.00000E+00 0.00000E+00 0.00000E+00 0.00000E+00 0.00000E+00
 -1       393 0.00000E+00 0.00000E+00 0.00000E+00 0.00000E+00 0.00000E+00 0.00000E+00
 -1       394 0.00000E+00 0.00000E+00 0.00000E+00 0.00000E+00 0.00000E+00 0.00000E+00
 -1       395 0.00000E+00 0.00000E+00 0.00000E+00 0.00000E+00 0.00000E+00 0.00000E+00
 -1       396 0.00000E+00 0.00000E+00 0.00000E+00 0.00000E+00 0.00000E+00 0.00000E+00
 -1       397 0.00000E+00 0.00000E+00 0.00000E+00 0.00000E+00 0.00000E+00 0.00000E+00
 -1       398 0.00000E+00 0.00000E+00 0.00000E+00 0.00000E+00 0.00000E+00 0.00000E+00
 -1       399 0.00000E+00 0.00000E+00 0.00000E+00 0.00000E+00 0.00000E+00 0.00000E+00
 -1       400 0.00000E+00 0.00000E+00 0.00000E+00 0.00000E+00 0.00000E+00 0.00000E+00
 -1       401 0.00000E+00 0.00000E+00 0.00000E+00 0.00000E+00 0.00000E+00 0.00000E+00
 -1       402 0.00000E+00 0.00000E+00 0.00000E+00 0.00000E+00 0.00000E+00 0.00000E+00
 -1       403 0.00000E+00 0.00000E+00 0.00000E+00 0.00000E+00 0.00000E+00 0.00000E+00
 -1       404 0.00000E+00 0.00000E+00 0.00000E+00 0.00000E+00 0.00000E+00 0.00000E+00
 -1       405 0.00000E+00 0.00000E+00 0.00000E+00 0.00000E+00 0.00000E+00 0.00000E+00
 -1       406 0.00000E+00 0.00000E+00 0.00000E+00 0.00000E+00 0.00000E+00 0.00000E+00
 -1       407 0.00000E+00 0.00000E+00 0.00000E+00 0.00000E+00 0.00000E+00 0.00000E+00
 -1       408 0.00000E+00 0.00000E+00 0.00000E+00 0.00000E+00 0.00000E+00 0.00000E+00
 -1       409 0.00000E+00 0.00000E+00 0.00000E+00 0.00000E+00 0.00000E+00 0.00000E+00
 -1       410 0.00000E+00 0.00000E+00 0.00000E+00 0.00000E+00 0.00000E+00 0.00000E+00
 -1       411 0.00000E+00 0.00000E+00 0.00000E+00 0.00000E+00 0.00000E+00 0.00000E+00
 -1       412 0.00000E+00 0.00000E+00 0.00000E+00 0.00000E+00 0.00000E+00 0.00000E+00
 -1       413 0.00000E+00 0.00000E+00 0.00000E+00 0.00000E+00 0.00000E+00 0.00000E+00
 -1       414 0.00000E+00 0.00000E+00 0.00000E+00 0.00000E+00 0.00000E+00 0.00000E+00
 -1       415 0.00000E+00 0.00000E+00 0.00000E+00 0.00000E+00 0.00000E+00 0.00000E+00
 -1       416 0.00000E+00 0.00000E+00 0.00000E+00 0.00000E+00 0.00000E+00 0.00000E+00
 -1       417 0.00000E+00 0.00000E+00 0.00000E+00 0.00000E+00 0.00000E+00 0.00000E+00
 -1       418 0.00000E+00 0.00000E+00 0.00000E+00 0.00000E+00 0.00000E+00 0.00000E+00
 -1       419 0.00000E+00 0.00000E+00 0.00000E+00 0.00000E+00 0.00000E+00 0.00000E+00
 -1       420 0.00000E+00 0.00000E+00 0.00000E+00 0.00000E+00 0.00000E+00 0.00000E+00
 -1       421 0.00000E+00 0.00000E+00 0.00000E+00 0.00000E+00 0.00000E+00 0.00000E+00
 -1       422 0.00000E+00 0.00000E+00 0.00000E+00 0.00000E+00 0.00000E+00 0.00000E+00
 -1       423 0.00000E+00 0.00000E+00 0.00000E+00 0.00000E+00 0.00000E+00 0.00000E+00
 -1       424 0.00000E+00 0.00000E+00 0.00000E+00 0.00000E+00 0.00000E+00 0.00000E+00
 -1       425 0.00000E+00 0.00000E+00 0.00000E+00 0.00000E+00 0.00000E+00 0.00000E+00
 -1       426 0.00000E+00 0.00000E+00 0.00000E+00 0.00000E+00 0.00000E+00 0.00000E+00
 -1       427 0.00000E+00 0.00000E+00 0.00000E+00 0.00000E+00 0.00000E+00 0.00000E+00
 -1       428 0.00000E+00 0.00000E+00 0.00000E+00 0.00000E+00 0.00000E+00 0.00000E+00
 -1       429 0.00000E+00 0.00000E+00 0.00000E+00 0.00000E+00 0.00000E+00 0.00000E+00
 -1       430 0.00000E+00 0.00000E+00 0.00000E+00 0.00000E+00 0.00000E+00 0.00000E+00
 -1       431 0.00000E+00 0.00000E+00 0.00000E+00 0.00000E+00 0.00000E+00 0.00000E+00
 -1       432 0.00000E+00 0.00000E+00 0.00000E+00 0.00000E+00 0.00000E+00 0.00000E+00
 -1       433 0.00000E+00 0.00000E+00 0.00000E+00 0.00000E+00 0.00000E+00 0.00000E+00
 -1       434 0.00000E+00 0.00000E+00 0.00000E+00 0.00000E+00 0.00000E+00 0.00000E+00
 -1       435 0.00000E+00 0.00000E+00 0.00000E+00 0.00000E+00 0.00000E+00 0.00000E+00
 -1       436 0.00000E+00 0.00000E+00 0.00000E+00 0.00000E+00 0.00000E+00 0.00000E+00
 -1       437 0.00000E+00 0.00000E+00 0.00000E+00 0.00000E+00 0.00000E+00 0.00000E+00
 -1       438 0.00000E+00 0.00000E+00 0.00000E+00 0.00000E+00 0.00000E+00 0.00000E+00
 -1       439 0.00000E+00 0.00000E+00 0.00000E+00 0.00000E+00 0.00000E+00 0.00000E+00
 -1       440 0.00000E+00 0.00000E+00 0.00000E+00 0.00000E+00 0.00000E+00 0.00000E+00
 -1       441 0.00000E+00 0.00000E+00 0.00000E+00 0.00000E+00 0.00000E+00 0.00000E+00
 -1       442 0.00000E+00 0.00000E+00 0.00000E+00 0.00000E+00 0.00000E+00 0.00000E+00
 -1       443 0.00000E+00 0.00000E+00 0.00000E+00 0.00000E+00 0.00000E+00 0.00000E+00
 -1       444 0.00000E+00 0.00000E+00 0.00000E+00 0.00000E+00 0.00000E+00 0.00000E+00
 -1       445 0.00000E+00 0.00000E+00 0.00000E+00 0.00000E+00 0.00000E+00 0.00000E+00
 -1       446 0.00000E+00 0.00000E+00 0.00000E+00 0.00000E+00 0.00000E+00 0.00000E+00
 -1       447 0.00000E+00 0.00000E+00 0.00000E+00 0.00000E+00 0.00000E+00 0.00000E+00
 -1       448 0.00000E+00 0.00000E+00 0.00000E+00 0.00000E+00 0.00000E+00 0.00000E+00
 -1       449 0.00000E+00 0.00000E+00 0.00000E+00 0.00000E+00 0.00000E+00 0.00000E+00
 -1       450 0.00000E+00 0.00000E+00 0.00000E+00 0.00000E+00 0.00000E+00 0.00000E+00
 -1       451 0.00000E+00 0.00000E+00 0.00000E+00 0.00000E+00 0.00000E+00 0.00000E+00
 -1       452 0.00000E+00 0.00000E+00 0.00000E+00 0.00000E+00 0.00000E+00 0.00000E+00
 -1       453 0.00000E+00 0.00000E+00 0.00000E+00 0.00000E+00 0.00000E+00 0.00000E+00
 -1       454 0.00000E+00 0.00000E+00 0.00000E+00 0.00000E+00 0.00000E+00 0.00000E+00
 -1       455 0.00000E+00 0.00000E+00 0.00000E+00 0.00000E+00 0.00000E+00 0.00000E+00
 -1       456 0.00000E+00 0.00000E+00 0.00000E+00 0.00000E+00 0.00000E+00 0.00000E+00
 -1       457 0.00000E+00 0.00000E+00 0.00000E+00 0.00000E+00 0.00000E+00 0.00000E+00
 -1       458 0.00000E+00 0.00000E+00 0.00000E+00 0.00000E+00 0.00000E+00 0.00000E+00
 -1       459 0.00000E+00 0.00000E+00 0.00000E+00 0.00000E+00 0.00000E+00 0.00000E+00
 -1       460 0.00000E+00 0.00000E+00 0.00000E+00 0.00000E+00 0.00000E+00 0.00000E+00
 -1       461 0.00000E+00 0.00000E+00 0.00000E+00 0.00000E+00 0.00000E+00 0.00000E+00
 -1       462 0.00000E+00 0.00000E+00 0.00000E+00 0.00000E+00 0.00000E+00 0.00000E+00
 -1       463 0.00000E+00 0.00000E+00 0.00000E+00 0.00000E+00 0.00000E+00 0.00000E+00
 -1       464 0.00000E+00 0.00000E+00 0.00000E+00 0.00000E+00 0.00000E+00 0.00000E+00
 -1       465 0.00000E+00 0.00000E+00 0.00000E+00 0.00000E+00 0.00000E+00 0.00000E+00
 -1       466 0.00000E+00 0.00000E+00 0.00000E+00 0.00000E+00 0.00000E+00 0.00000E+00
 -1       467 0.00000E+00 0.00000E+00 0.00000E+00 0.00000E+00 0.00000E+00 0.00000E+00
 -1       468 0.00000E+00 0.00000E+00 0.00000E+00 0.00000E+00 0.00000E+00 0.00000E+00
 -1       469 0.00000E+00 0.00000E+00 0.00000E+00 0.00000E+00 0.00000E+00 0.00000E+00
 -1       470 0.00000E+00 0.00000E+00 0.00000E+00 0.00000E+00 0.00000E+00 0.00000E+00
 -1       471 0.00000E+00 0.00000E+00 0.00000E+00 0.00000E+00 0.00000E+00 0.00000E+00
 -1       472 0.00000E+00 0.00000E+00 0.00000E+00 0.00000E+00 0.00000E+00 0.00000E+00
 -1       473 0.00000E+00 0.00000E+00 0.00000E+00 0.00000E+00 0.00000E+00 0.00000E+00
 -1       474 0.00000E+00 0.00000E+00 0.00000E+00 0.00000E+00 0.00000E+00 0.00000E+00
 -1       475 0.00000E+00 0.00000E+00 0.00000E+00 0.00000E+00 0.00000E+00 0.00000E+00
 -1       476 0.00000E+00 0.00000E+00 0.00000E+00 0.00000E+00 0.00000E+00 0.00000E+00
 -1       477 0.00000E+00 0.00000E+00 0.00000E+00 0.00000E+00 0.00000E+00 0.00000E+00
 -1       478 0.00000E+00 0.00000E+00 0.00000E+00 0.00000E+00 0.00000E+00 0.00000E+00
 -1       479 0.00000E+00 0.00000E+00 0.00000E+00 0.00000E+00 0.00000E+00 0.00000E+00
 -1       480 0.00000E+00 0.00000E+00 0.00000E+00 0.00000E+00 0.00000E+00 0.00000E+00
 -1       481 0.00000E+00 0.00000E+00 0.00000E+00 0.00000E+00 0.00000E+00 0.00000E+00
 -1       482 0.00000E+00 0.00000E+00 0.00000E+00 0.00000E+00 0.00000E+00 0.00000E+00
 -1       483 0.00000E+00 0.00000E+00 0.00000E+00 0.00000E+00 0.00000E+00 0.00000E+00
 -1       484 0.00000E+00 0.00000E+00 0.00000E+00 0.00000E+00 0.00000E+00 0.00000E+00
 -1       485 0.00000E+00 0.00000E+00 0.00000E+00 0.00000E+00 0.00000E+00 0.00000E+00
 -1       486 0.00000E+00 0.00000E+00 0.00000E+00 0.00000E+00 0.00000E+00 0.00000E+00
 -1       487 0.00000E+00 0.00000E+00 0.00000E+00 0.00000E+00 0.00000E+00 0.00000E+00
 -1       488 0.00000E+00 0.00000E+00 0.00000E+00 0.00000E+00 0.00000E+00 0.00000E+00
 -1       489 0.00000E+00 0.00000E+00 0.00000E+00 0.00000E+00 0.00000E+00 0.00000E+00
 -1       490 0.00000E+00 0.00000E+00 0.00000E+00 0.00000E+00 0.00000E+00 0.00000E+00
 -1       491 0.00000E+00 0.00000E+00 0.00000E+00 0.00000E+00 0.00000E+00 0.00000E+00
 -1       492 0.00000E+00 0.00000E+00 0.00000E+00 0.00000E+00 0.00000E+00 0.00000E+00
 -1       493 0.00000E+00 0.00000E+00 0.00000E+00 0.00000E+00 0.00000E+00 0.00000E+00
 -1       494 0.00000E+00 0.00000E+00 0.00000E+00 0.00000E+00 0.00000E+00 0.00000E+00
 -1       495 0.00000E+00 0.00000E+00 0.00000E+00 0.00000E+00 0.00000E+00 0.00000E+00
 -1       496 0.00000E+00 0.00000E+00 0.00000E+00 0.00000E+00 0.00000E+00 0.00000E+00
 -1       497 0.00000E+00 0.00000E+00 0.00000E+00 0.00000E+00 0.00000E+00 0.00000E+00
 -1       498 0.00000E+00 0.00000E+00 0.00000E+00 0.00000E+00 0.00000E+00 0.00000E+00
 -1       499 0.00000E+00 0.00000E+00 0.00000E+00 0.00000E+00 0.00000E+00 0.00000E+00
 -1       500 0.00000E+00 0.00000E+00 0.00000E+00 0.00000E+00 0.00000E+00 0.00000E+00
 -1       501 0.00000E+00 0.00000E+00 0.00000E+00 0.00000E+00 0.00000E+00 0.00000E+00
 -1       502 0.00000E+00 0.00000E+00 0.00000E+00 0.00000E+00 0.00000E+00 0.00000E+00
 -1       503 0.00000E+00 0.00000E+00 0.00000E+00 0.00000E+00 0.00000E+00 0.00000E+00
 -1       504 0.00000E+00 0.00000E+00 0.00000E+00 0.00000E+00 0.00000E+00 0.00000E+00
 -1       505 0.00000E+00 0.00000E+00 0.00000E+00 0.00000E+00 0.00000E+00 0.00000E+00
 -1       506 0.00000E+00 0.00000E+00 0.00000E+00 0.00000E+00 0.00000E+00 0.00000E+00
 -1       507 0.00000E+00 0.00000E+00 0.00000E+00 0.00000E+00 0.00000E+00 0.00000E+00
 -1       508 0.00000E+00 0.00000E+00 0.00000E+00 0.00000E+00 0.00000E+00 0.00000E+00
 -1       509 0.00000E+00 0.00000E+00 0.00000E+00 0.00000E+00 0.00000E+00 0.00000E+00
 -1       510 0.00000E+00 0.00000E+00 0.00000E+00 0.00000E+00 0.00000E+00 0.00000E+00
 -1       511 0.00000E+00 0.00000E+00 0.00000E+00 0.00000E+00 0.00000E+00 0.00000E+00
 -1       512 0.00000E+00 0.00000E+00 0.00000E+00 0.00000E+00 0.00000E+00 0.00000E+00
 -1       513 0.00000E+00 0.00000E+00 0.00000E+00 0.00000E+00 0.00000E+00 0.00000E+00
 -1       514 0.00000E+00 0.00000E+00 0.00000E+00 0.00000E+00 0.00000E+00 0.00000E+00
 -1       515 0.00000E+00 0.00000E+00 0.00000E+00 0.00000E+00 0.00000E+00 0.00000E+00
 -1       516 0.00000E+00 0.00000E+00 0.00000E+00 0.00000E+00 0.00000E+00 0.00000E+00
 -1       517 0.00000E+00 0.00000E+00 0.00000E+00 0.00000E+00 0.00000E+00 0.00000E+00
 -1       518 0.00000E+00 0.00000E+00 0.00000E+00 0.00000E+00 0.00000E+00 0.00000E+00
 -1       519 0.00000E+00 0.00000E+00 0.00000E+00 0.00000E+00 0.00000E+00 0.00000E+00
 -1       520 0.00000E+00 0.00000E+00 0.00000E+00 0.00000E+00 0.00000E+00 0.00000E+00
 -1       521 0.00000E+00 0.00000E+00 0.00000E+00 0.00000E+00 0.00000E+00 0.00000E+00
 -1       522 0.00000E+00 0.00000E+00 0.00000E+00 0.00000E+00 0.00000E+00 0.00000E+00
 -1       523 0.00000E+00 0.00000E+00 0.00000E+00 0.00000E+00 0.00000E+00 0.00000E+00
 -1       524 0.00000E+00 0.00000E+00 0.00000E+00 0.00000E+00 0.00000E+00 0.00000E+00
 -1       525 0.00000E+00 0.00000E+00 0.00000E+00 0.00000E+00 0.00000E+00 0.00000E+00
 -1       526 0.00000E+00 0.00000E+00 0.00000E+00 0.00000E+00 0.00000E+00 0.00000E+00
 -1       527 0.00000E+00 0.00000E+00 0.00000E+00 0.00000E+00 0.00000E+00 0.00000E+00
 -1       528 0.00000E+00 0.00000E+00 0.00000E+00 0.00000E+00 0.00000E+00 0.00000E+00
 -1       529 0.00000E+00 0.00000E+00 0.00000E+00 0.00000E+00 0.00000E+00 0.00000E+00
 -1       530 0.00000E+00 0.00000E+00 0.00000E+00 0.00000E+00 0.00000E+00 0.00000E+00
 -1       531 0.00000E+00 0.00000E+00 0.00000E+00 0.00000E+00 0.00000E+00 0.00000E+00
 -1       532 0.00000E+00 0.00000E+00 0.00000E+00 0.00000E+00 0.00000E+00 0.00000E+00
 -1       533 0.00000E+00 0.00000E+00 0.00000E+00 0.00000E+00 0.00000E+00 0.00000E+00
 -1       534 0.00000E+00 0.00000E+00 0.00000E+00 0.00000E+00 0.00000E+00 0.00000E+00
 -1       535 0.00000E+00 0.00000E+00 0.00000E+00 0.00000E+00 0.00000E+00 0.00000E+00
 -1       536 0.00000E+00 0.00000E+00 0.00000E+00 0.00000E+00 0.00000E+00 0.00000E+00
 -1       537 0.00000E+00 0.00000E+00 0.00000E+00 0.00000E+00 0.00000E+00 0.00000E+00
 -1       538 0.00000E+00 0.00000E+00 0.00000E+00 0.00000E+00 0.00000E+00 0.00000E+00
 -1       539 0.00000E+00 0.00000E+00 0.00000E+00 0.00000E+00 0.00000E+00 0.00000E+00
 -1       540 0.00000E+00 0.00000E+00 0.00000E+00 0.00000E+00 0.00000E+00 0.00000E+00
 -1       541 0.00000E+00 0.00000E+00 0.00000E+00 0.00000E+00 0.00000E+00 0.00000E+00
 -1       542 0.00000E+00 0.00000E+00 0.00000E+00 0.00000E+00 0.00000E+00 0.00000E+00
 -1       543 0.00000E+00 0.00000E+00 0.00000E+00 0.00000E+00 0.00000E+00 0.00000E+00
 -1       544 0.00000E+00 0.00000E+00 0.00000E+00 0.00000E+00 0.00000E+00 0.00000E+00
 -1       545 0.00000E+00 0.00000E+00 0.00000E+00 0.00000E+00 0.00000E+00 0.00000E+00
 -1       546 0.00000E+00 0.00000E+00 0.00000E+00 0.00000E+00 0.00000E+00 0.00000E+00
 -1       547 0.00000E+00 0.00000E+00 0.00000E+00 0.00000E+00 0.00000E+00 0.00000E+00
 -1       548 0.00000E+00 0.00000E+00 0.00000E+00 0.00000E+00 0.00000E+00 0.00000E+00
 -1       549 0.00000E+00 0.00000E+00 0.00000E+00 0.00000E+00 0.00000E+00 0.00000E+00
 -1       550 0.00000E+00 0.00000E+00 0.00000E+00 0.00000E+00 0.00000E+00 0.00000E+00
 -1       551 0.00000E+00 0.00000E+00 0.00000E+00 0.00000E+00 0.00000E+00 0.00000E+00
 -1       552 0.00000E+00 0.00000E+00 0.00000E+00 0.00000E+00 0.00000E+00 0.00000E+00
 -1       553 0.00000E+00 0.00000E+00 0.00000E+00 0.00000E+00 0.00000E+00 0.00000E+00
 -1       554 0.00000E+00 0.00000E+00 0.00000E+00 0.00000E+00 0.00000E+00 0.00000E+00
 -1       555 0.00000E+00 0.00000E+00 0.00000E+00 0.00000E+00 0.00000E+00 0.00000E+00
 -1       556 0.00000E+00 0.00000E+00 0.00000E+00 0.00000E+00 0.00000E+00 0.00000E+00
 -1       557 0.00000E+00 0.00000E+00 0.00000E+00 0.00000E+00 0.00000E+00 0.00000E+00
 -1       558 0.00000E+00 0.00000E+00 0.00000E+00 0.00000E+00 0.00000E+00 0.00000E+00
 -1       559 0.00000E+00 0.00000E+00 0.00000E+00 0.00000E+00 0.00000E+00 0.00000E+00
 -1       560 0.00000E+00 0.00000E+00 0.00000E+00 0.00000E+00 0.00000E+00 0.00000E+00
 -1       561 0.00000E+00 0.00000E+00 0.00000E+00 0.00000E+00 0.00000E+00 0.00000E+00
 -1       562 0.00000E+00 0.00000E+00 0.00000E+00 0.00000E+00 0.00000E+00 0.00000E+00
 -1       563 0.00000E+00 0.00000E+00 0.00000E+00 0.00000E+00 0.00000E+00 0.00000E+00
 -1       564 0.00000E+00 0.00000E+00 0.00000E+00 0.00000E+00 0.00000E+00 0.00000E+00
 -1       565 0.00000E+00 0.00000E+00 0.00000E+00 0.00000E+00 0.00000E+00 0.00000E+00
 -1       566 0.00000E+00 0.00000E+00 0.00000E+00 0.00000E+00 0.00000E+00 0.00000E+00
 -1       567 0.00000E+00 0.00000E+00 0.00000E+00 0.00000E+00 0.00000E+00 0.00000E+00
 -1       568 0.00000E+00 0.00000E+00 0.00000E+00 0.00000E+00 0.00000E+00 0.00000E+00
 -1       569 0.00000E+00 0.00000E+00 0.00000E+00 0.00000E+00 0.00000E+00 0.00000E+00
 -1       570 0.00000E+00 0.00000E+00 0.00000E+00 0.00000E+00 0.00000E+00 0.00000E+00
 -1       571 0.00000E+00 0.00000E+00 0.00000E+00 0.00000E+00 0.00000E+00 0.00000E+00
 -1       572 0.00000E+00 0.00000E+00 0.00000E+00 0.00000E+00 0.00000E+00 0.00000E+00
 -1       573 0.00000E+00 0.00000E+00 0.00000E+00 0.00000E+00 0.00000E+00 0.00000E+00
 -1       574 0.00000E+00 0.00000E+00 0.00000E+00 0.00000E+00 0.00000E+00 0.00000E+00
 -1       575 0.00000E+00 0.00000E+00 0.00000E+00 0.00000E+00 0.00000E+00 0.00000E+00
 -1       576 0.00000E+00 0.00000E+00 0.00000E+00 0.00000E+00 0.00000E+00 0.00000E+00
 -1       577 0.00000E+00 0.00000E+00 0.00000E+00 0.00000E+00 0.00000E+00 0.00000E+00
 -1       578 0.00000E+00 0.00000E+00 0.00000E+00 0.00000E+00 0.00000E+00 0.00000E+00
 -1       579 0.00000E+00 0.00000E+00 0.00000E+00 0.00000E+00 0.00000E+00 0.00000E+00
 -1       580 0.00000E+00 0.00000E+00 0.00000E+00 0.00000E+00 0.00000E+00 0.00000E+00
 -1       581 0.00000E+00 0.00000E+00 0.00000E+00 0.00000E+00 0.00000E+00 0.00000E+00
 -1       582 0.00000E+00 0.00000E+00 0.00000E+00 0.00000E+00 0.00000E+00 0.00000E+00
 -1       583 0.00000E+00 0.00000E+00 0.00000E+00 0.00000E+00 0.00000E+00 0.00000E+00
 -1       584 0.00000E+00 0.00000E+00 0.00000E+00 0.00000E+00 0.00000E+00 0.00000E+00
 -1       585 0.00000E+00 0.00000E+00 0.00000E+00 0.00000E+00 0.00000E+00 0.00000E+00
 -1       586 0.00000E+00 0.00000E+00 0.00000E+00 0.00000E+00 0.00000E+00 0.00000E+00
 -1       587 0.00000E+00 0.00000E+00 0.00000E+00 0.00000E+00 0.00000E+00 0.00000E+00
 -1       588 0.00000E+00 0.00000E+00 0.00000E+00 0.00000E+00 0.00000E+00 0.00000E+00
 -1       589 0.00000E+00 0.00000E+00 0.00000E+00 0.00000E+00 0.00000E+00 0.00000E+00
 -1       590 0.00000E+00 0.00000E+00 0.00000E+00 0.00000E+00 0.00000E+00 0.00000E+00
 -1       591 0.00000E+00 0.00000E+00 0.00000E+00 0.00000E+00 0.00000E+00 0.00000E+00
 -1       592 0.00000E+00 0.00000E+00 0.00000E+00 0.00000E+00 0.00000E+00 0.00000E+00
 -1       593 0.00000E+00 0.00000E+00 0.00000E+00 0.00000E+00 0.00000E+00 0.00000E+00
 -1       594 0.00000E+00 0.00000E+00 0.00000E+00 0.00000E+00 0.00000E+00 0.00000E+00
 -1       595 0.00000E+00 0.00000E+00 0.00000E+00 0.00000E+00 0.00000E+00 0.00000E+00
 -1       596 0.00000E+00 0.00000E+00 0.00000E+00 0.00000E+00 0.00000E+00 0.00000E+00
 -1       597 0.00000E+00 0.00000E+00 0.00000E+00 0.00000E+00 0.00000E+00 0.00000E+00
 -1       598 0.00000E+00 0.00000E+00 0.00000E+00 0.00000E+00 0.00000E+00 0.00000E+00
 -1       599 0.00000E+00 0.00000E+00 0.00000E+00 0.00000E+00 0.00000E+00 0.00000E+00
 -1       600 0.00000E+00 0.00000E+00 0.00000E+00 0.00000E+00 0.00000E+00 0.00000E+00
 -1       601 0.00000E+00 0.00000E+00 0.00000E+00 0.00000E+00 0.00000E+00 0.00000E+00
 -1       602 0.00000E+00 0.00000E+00 0.00000E+00 0.00000E+00 0.00000E+00 0.00000E+00
 -1       603 0.00000E+00 0.00000E+00 0.00000E+00 0.00000E+00 0.00000E+00 0.00000E+00
 -1       604 0.00000E+00 0.00000E+00 0.00000E+00 0.00000E+00 0.00000E+00 0.00000E+00
 -1       605 0.00000E+00 0.00000E+00 0.00000E+00 0.00000E+00 0.00000E+00 0.00000E+00
 -1       606 0.00000E+00 0.00000E+00 0.00000E+00 0.00000E+00 0.00000E+00 0.00000E+00
 -1       607 0.00000E+00 0.00000E+00 0.00000E+00 0.00000E+00 0.00000E+00 0.00000E+00
 -1       608 0.00000E+00 0.00000E+00 0.00000E+00 0.00000E+00 0.00000E+00 0.00000E+00
 -1       609 0.00000E+00 0.00000E+00 0.00000E+00 0.00000E+00 0.00000E+00 0.00000E+00
 -1       610 0.00000E+00 0.00000E+00 0.00000E+00 0.00000E+00 0.00000E+00 0.00000E+00
 -1       611 0.00000E+00 0.00000E+00 0.00000E+00 0.00000E+00 0.00000E+00 0.00000E+00
 -1       612 0.00000E+00 0.00000E+00 0.00000E+00 0.00000E+00 0.00000E+00 0.00000E+00
 -1       613 0.00000E+00 0.00000E+00 0.00000E+00 0.00000E+00 0.00000E+00 0.00000E+00
 -1       614 0.00000E+00 0.00000E+00 0.00000E+00 0.00000E+00 0.00000E+00 0.00000E+00
 -1       615 0.00000E+00 0.00000E+00 0.00000E+00 0.00000E+00 0.00000E+00 0.00000E+00
 -1       616 0.00000E+00 0.00000E+00 0.00000E+00 0.00000E+00 0.00000E+00 0.00000E+00
 -1       617 0.00000E+00 0.00000E+00 0.00000E+00 0.00000E+00 0.00000E+00 0.00000E+00
 -1       618 0.00000E+00 0.00000E+00 0.00000E+00 0.00000E+00 0.00000E+00 0.00000E+00
 -1       619 0.00000E+00 0.00000E+00 0.00000E+00 0.00000E+00 0.00000E+00 0.00000E+00
 -1       620 0.00000E+00 0.00000E+00 0.00000E+00 0.00000E+00 0.00000E+00 0.00000E+00
 -1       621 0.00000E+00 0.00000E+00 0.00000E+00 0.00000E+00 0.00000E+00 0.00000E+00
 -1       622 0.00000E+00 0.00000E+00 0.00000E+00 0.00000E+00 0.00000E+00 0.00000E+00
 -1       623 0.00000E+00 0.00000E+00 0.00000E+00 0.00000E+00 0.00000E+00 0.00000E+00
 -1       624 0.00000E+00 0.00000E+00 0.00000E+00 0.00000E+00 0.00000E+00 0.00000E+00
 -1       625 0.00000E+00 0.00000E+00 0.00000E+00 0.00000E+00 0.00000E+00 0.00000E+00
 -1       626 0.00000E+00 0.00000E+00 0.00000E+00 0.00000E+00 0.00000E+00 0.00000E+00
 -1       627 0.00000E+00 0.00000E+00 0.00000E+00 0.00000E+00 0.00000E+00 0.00000E+00
 -1       628 0.00000E+00 0.00000E+00 0.00000E+00 0.00000E+00 0.00000E+00 0.00000E+00
 -1       629 0.00000E+00 0.00000E+00 0.00000E+00 0.00000E+00 0.00000E+00 0.00000E+00
 -1       630 0.00000E+00 0.00000E+00 0.00000E+00 0.00000E+00 0.00000E+00 0.00000E+00
 -1       631 0.00000E+00 0.00000E+00 0.00000E+00 0.00000E+00 0.00000E+00 0.00000E+00
 -1       632 0.00000E+00 0.00000E+00 0.00000E+00 0.00000E+00 0.00000E+00 0.00000E+00
 -1       633 0.00000E+00 0.00000E+00 0.00000E+00 0.00000E+00 0.00000E+00 0.00000E+00
 -1       634 0.00000E+00 0.00000E+00 0.00000E+00 0.00000E+00 0.00000E+00 0.00000E+00
 -1       635 0.00000E+00 0.00000E+00 0.00000E+00 0.00000E+00 0.00000E+00 0.00000E+00
 -1       636 0.00000E+00 0.00000E+00 0.00000E+00 0.00000E+00 0.00000E+00 0.00000E+00
 -1       637 0.00000E+00 0.00000E+00 0.00000E+00 0.00000E+00 0.00000E+00 0.00000E+00
 -1       638 0.00000E+00 0.00000E+00 0.00000E+00 0.00000E+00 0.00000E+00 0.00000E+00
 -1       639 0.00000E+00 0.00000E+00 0.00000E+00 0.00000E+00 0.00000E+00 0.00000E+00
 -1       640 0.00000E+00 0.00000E+00 0.00000E+00 0.00000E+00 0.00000E+00 0.00000E+00
 -1       641 0.00000E+00 0.00000E+00 0.00000E+00 0.00000E+00 0.00000E+00 0.00000E+00
 -1       642 0.00000E+00 0.00000E+00 0.00000E+00 0.00000E+00 0.00000E+00 0.00000E+00
 -1       643 0.00000E+00 0.00000E+00 0.00000E+00 0.00000E+00 0.00000E+00 0.00000E+00
 -1       644 0.00000E+00 0.00000E+00 0.00000E+00 0.00000E+00 0.00000E+00 0.00000E+00
 -1       645 0.00000E+00 0.00000E+00 0.00000E+00 0.00000E+00 0.00000E+00 0.00000E+00
 -1       646 0.00000E+00 0.00000E+00 0.00000E+00 0.00000E+00 0.00000E+00 0.00000E+00
 -1       647 0.00000E+00 0.00000E+00 0.00000E+00 0.00000E+00 0.00000E+00 0.00000E+00
 -1       648 0.00000E+00 0.00000E+00 0.00000E+00 0.00000E+00 0.00000E+00 0.00000E+00
 -1       649 0.00000E+00 0.00000E+00 0.00000E+00 0.00000E+00 0.00000E+00 0.00000E+00
 -1       650 0.00000E+00 0.00000E+00 0.00000E+00 0.00000E+00 0.00000E+00 0.00000E+00
 -1       651 0.00000E+00 0.00000E+00 0.00000E+00 0.00000E+00 0.00000E+00 0.00000E+00
 -1       652 0.00000E+00 0.00000E+00 0.00000E+00 0.00000E+00 0.00000E+00 0.00000E+00
 -1       653 0.00000E+00 0.00000E+00 0.00000E+00 0.00000E+00 0.00000E+00 0.00000E+00
 -1       654 0.00000E+00 0.00000E+00 0.00000E+00 0.00000E+00 0.00000E+00 0.00000E+00
 -1       655 0.00000E+00 0.00000E+00 0.00000E+00 0.00000E+00 0.00000E+00 0.00000E+00
 -1       656 0.00000E+00 0.00000E+00 0.00000E+00 0.00000E+00 0.00000E+00 0.00000E+00
 -1       657 0.00000E+00 0.00000E+00 0.00000E+00 0.00000E+00 0.00000E+00 0.00000E+00
 -1       658 0.00000E+00 0.00000E+00 0.00000E+00 0.00000E+00 0.00000E+00 0.00000E+00
 -1       659 0.00000E+00 0.00000E+00 0.00000E+00 0.00000E+00 0.00000E+00 0.00000E+00
 -1       660 0.00000E+00 0.00000E+00 0.00000E+00 0.00000E+00 0.00000E+00 0.00000E+00
 -1       661 0.00000E+00 0.00000E+00 0.00000E+00 0.00000E+00 0.00000E+00 0.00000E+00
 -1       662 0.00000E+00 0.00000E+00 0.00000E+00 0.00000E+00 0.00000E+00 0.00000E+00
 -1       663 0.00000E+00 0.00000E+00 0.00000E+00 0.00000E+00 0.00000E+00 0.00000E+00
 -1       664 0.00000E+00 0.00000E+00 0.00000E+00 0.00000E+00 0.00000E+00 0.00000E+00
 -1       665 0.00000E+00 0.00000E+00 0.00000E+00 0.00000E+00 0.00000E+00 0.00000E+00
 -1       666 0.00000E+00 0.00000E+00 0.00000E+00 0.00000E+00 0.00000E+00 0.00000E+00
 -1       667 0.00000E+00 0.00000E+00 0.00000E+00 0.00000E+00 0.00000E+00 0.00000E+00
 -1       668 0.00000E+00 0.00000E+00 0.00000E+00 0.00000E+00 0.00000E+00 0.00000E+00
 -1       669 0.00000E+00 0.00000E+00 0.00000E+00 0.00000E+00 0.00000E+00 0.00000E+00
 -1       670 0.00000E+00 0.00000E+00 0.00000E+00 0.00000E+00 0.00000E+00 0.00000E+00
 -1       671 0.00000E+00 0.00000E+00 0.00000E+00 0.00000E+00 0.00000E+00 0.00000E+00
 -1       672 0.00000E+00 0.00000E+00 0.00000E+00 0.00000E+00 0.00000E+00 0.00000E+00
 -1       673 0.00000E+00 0.00000E+00 0.00000E+00 0.00000E+00 0.00000E+00 0.00000E+00
 -1       674 0.00000E+00 0.00000E+00 0.00000E+00 0.00000E+00 0.00000E+00 0.00000E+00
 -1       675 0.00000E+00 0.00000E+00 0.00000E+00 0.00000E+00 0.00000E+00 0.00000E+00
 -1       676 0.00000E+00 0.00000E+00 0.00000E+00 0.00000E+00 0.00000E+00 0.00000E+00
 -1       677 0.00000E+00 0.00000E+00 0.00000E+00 0.00000E+00 0.00000E+00 0.00000E+00
 -1       678 0.00000E+00 0.00000E+00 0.00000E+00 0.00000E+00 0.00000E+00 0.00000E+00
 -1       679 0.00000E+00 0.00000E+00 0.00000E+00 0.00000E+00 0.00000E+00 0.00000E+00
 -1       680 0.00000E+00 0.00000E+00 0.00000E+00 0.00000E+00 0.00000E+00 0.00000E+00
 -1       681 0.00000E+00 0.00000E+00 0.00000E+00 0.00000E+00 0.00000E+00 0.00000E+00
 -1       682 0.00000E+00 0.00000E+00 0.00000E+00 0.00000E+00 0.00000E+00 0.00000E+00
 -1       683 0.00000E+00 0.00000E+00 0.00000E+00 0.00000E+00 0.00000E+00 0.00000E+00
 -1       684 0.00000E+00 0.00000E+00 0.00000E+00 0.00000E+00 0.00000E+00 0.00000E+00
 -1       685 0.00000E+00 0.00000E+00 0.00000E+00 0.00000E+00 0.00000E+00 0.00000E+00
 -1       686 0.00000E+00 0.00000E+00 0.00000E+00 0.00000E+00 0.00000E+00 0.00000E+00
 -1       687 0.00000E+00 0.00000E+00 0.00000E+00 0.00000E+00 0.00000E+00 0.00000E+00
 -1       688 0.00000E+00 0.00000E+00 0.00000E+00 0.00000E+00 0.00000E+00 0.00000E+00
 -1       689 0.00000E+00 0.00000E+00 0.00000E+00 0.00000E+00 0.00000E+00 0.00000E+00
 -1       690 0.00000E+00 0.00000E+00 0.00000E+00 0.00000E+00 0.00000E+00 0.00000E+00
 -1       691 0.00000E+00 0.00000E+00 0.00000E+00 0.00000E+00 0.00000E+00 0.00000E+00
 -1       692 0.00000E+00 0.00000E+00 0.00000E+00 0.00000E+00 0.00000E+00 0.00000E+00
 -1       693 0.00000E+00 0.00000E+00 0.00000E+00 0.00000E+00 0.00000E+00 0.00000E+00
 -1       694 0.00000E+00 0.00000E+00 0.00000E+00 0.00000E+00 0.00000E+00 0.00000E+00
 -1       695 0.00000E+00 0.00000E+00 0.00000E+00 0.00000E+00 0.00000E+00 0.00000E+00
 -1       696 0.00000E+00 0.00000E+00 0.00000E+00 0.00000E+00 0.00000E+00 0.00000E+00
 -1       697 0.00000E+00 0.00000E+00 0.00000E+00 0.00000E+00 0.00000E+00 0.00000E+00
 -1       698 0.00000E+00 0.00000E+00 0.00000E+00 0.00000E+00 0.00000E+00 0.00000E+00
 -1       699 0.00000E+00 0.00000E+00 0.00000E+00 0.00000E+00 0.00000E+00 0.00000E+00
 -1       700 0.00000E+00 0.00000E+00 0.00000E+00 0.00000E+00 0.00000E+00 0.00000E+00
 -1       701 0.00000E+00 0.00000E+00 0.00000E+00 0.00000E+00 0.00000E+00 0.00000E+00
 -1       702 0.00000E+00 0.00000E+00 0.00000E+00 0.00000E+00 0.00000E+00 0.00000E+00
 -1       703 0.00000E+00 0.00000E+00 0.00000E+00 0.00000E+00 0.00000E+00 0.00000E+00
 -1       704 0.00000E+00 0.00000E+00 0.00000E+00 0.00000E+00 0.00000E+00 0.00000E+00
 -1       705 0.00000E+00 0.00000E+00 0.00000E+00 0.00000E+00 0.00000E+00 0.00000E+00
 -1       706 0.00000E+00 0.00000E+00 0.00000E+00 0.00000E+00 0.00000E+00 0.00000E+00
 -1       707 0.00000E+00 0.00000E+00 0.00000E+00 0.00000E+00 0.00000E+00 0.00000E+00
 -1       708 0.00000E+00 0.00000E+00 0.00000E+00 0.00000E+00 0.00000E+00 0.00000E+00
 -1       709 0.00000E+00 0.00000E+00 0.00000E+00 0.00000E+00 0.00000E+00 0.00000E+00
 -1       710 0.00000E+00 0.00000E+00 0.00000E+00 0.00000E+00 0.00000E+00 0.00000E+00
 -1       711 0.00000E+00 0.00000E+00 0.00000E+00 0.00000E+00 0.00000E+00 0.00000E+00
 -1       712 0.00000E+00 0.00000E+00 0.00000E+00 0.00000E+00 0.00000E+00 0.00000E+00
 -1       713 0.00000E+00 0.00000E+00 0.00000E+00 0.00000E+00 0.00000E+00 0.00000E+00
 -1       714 0.00000E+00 0.00000E+00 0.00000E+00 0.00000E+00 0.00000E+00 0.00000E+00
 -1       715 0.00000E+00 0.00000E+00 0.00000E+00 0.00000E+00 0.00000E+00 0.00000E+00
 -1       716 0.00000E+00 0.00000E+00 0.00000E+00 0.00000E+00 0.00000E+00 0.00000E+00
 -1       717 0.00000E+00 0.00000E+00 0.00000E+00 0.00000E+00 0.00000E+00 0.00000E+00
 -1       718 0.00000E+00 0.00000E+00 0.00000E+00 0.00000E+00 0.00000E+00 0.00000E+00
 -1       719 0.00000E+00 0.00000E+00 0.00000E+00 0.00000E+00 0.00000E+00 0.00000E+00
 -1       720 0.00000E+00 0.00000E+00 0.00000E+00 0.00000E+00 0.00000E+00 0.00000E+00
 -1       721 0.00000E+00 0.00000E+00 0.00000E+00 0.00000E+00 0.00000E+00 0.00000E+00
 -1       722 0.00000E+00 0.00000E+00 0.00000E+00 0.00000E+00 0.00000E+00 0.00000E+00
 -1       723 0.00000E+00 0.00000E+00 0.00000E+00 0.00000E+00 0.00000E+00 0.00000E+00
 -1       724 0.00000E+00 0.00000E+00 0.00000E+00 0.00000E+00 0.00000E+00 0.00000E+00
 -1       725 0.00000E+00 0.00000E+00 0.00000E+00 0.00000E+00 0.00000E+00 0.00000E+00
 -1       726 0.00000E+00 0.00000E+00 0.00000E+00 0.00000E+00 0.00000E+00 0.00000E+00
 -1       727 0.00000E+00 0.00000E+00 0.00000E+00 0.00000E+00 0.00000E+00 0.00000E+00
 -1       728 0.00000E+00 0.00000E+00 0.00000E+00 0.00000E+00 0.00000E+00 0.00000E+00
 -1       729 0.00000E+00 0.00000E+00 0.00000E+00 0.00000E+00 0.00000E+00 0.00000E+00
 -1       730 0.00000E+00 0.00000E+00 0.00000E+00 0.00000E+00 0.00000E+00 0.00000E+00
 -1       731 0.00000E+00 0.00000E+00 0.00000E+00 0.00000E+00 0.00000E+00 0.00000E+00
 -1       732 0.00000E+00 0.00000E+00 0.00000E+00 0.00000E+00 0.00000E+00 0.00000E+00
 -1       733 0.00000E+00 0.00000E+00 0.00000E+00 0.00000E+00 0.00000E+00 0.00000E+00
 -1       734 0.00000E+00 0.00000E+00 0.00000E+00 0.00000E+00 0.00000E+00 0.00000E+00
 -1       735 0.00000E+00 0.00000E+00 0.00000E+00 0.00000E+00 0.00000E+00 0.00000E+00
 -1       736 0.00000E+00 0.00000E+00 0.00000E+00 0.00000E+00 0.00000E+00 0.00000E+00
 -1       737 0.00000E+00 0.00000E+00 0.00000E+00 0.00000E+00 0.00000E+00 0.00000E+00
 -1       738 0.00000E+00 0.00000E+00 0.00000E+00 0.00000E+00 0.00000E+00 0.00000E+00
 -1       739 0.00000E+00 0.00000E+00 0.00000E+00 0.00000E+00 0.00000E+00 0.00000E+00
 -1       740 0.00000E+00 0.00000E+00 0.00000E+00 0.00000E+00 0.00000E+00 0.00000E+00
 -1       741 0.00000E+00 0.00000E+00 0.00000E+00 0.00000E+00 0.00000E+00 0.00000E+00
 -1       742 0.00000E+00 0.00000E+00 0.00000E+00 0.00000E+00 0.00000E+00 0.00000E+00
 -1       743 0.00000E+00 0.00000E+00 0.00000E+00 0.00000E+00 0.00000E+00 0.00000E+00
 -1       744 0.00000E+00 0.00000E+00 0.00000E+00 0.00000E+00 0.00000E+00 0.00000E+00
 -1       745 0.00000E+00 0.00000E+00 0.00000E+00 0.00000E+00 0.00000E+00 0.00000E+00
 -1       746 0.00000E+00 0.00000E+00 0.00000E+00 0.00000E+00 0.00000E+00 0.00000E+00
 -1       747 0.00000E+00 0.00000E+00 0.00000E+00 0.00000E+00 0.00000E+00 0.00000E+00
 -1       748 0.00000E+00 0.00000E+00 0.00000E+00 0.00000E+00 0.00000E+00 0.00000E+00
 -1       749 0.00000E+00 0.00000E+00 0.00000E+00 0.00000E+00 0.00000E+00 0.00000E+00
 -1       750 0.00000E+00 0.00000E+00 0.00000E+00 0.00000E+00 0.00000E+00 0.00000E+00
 -1       751 0.00000E+00 0.00000E+00 0.00000E+00 0.00000E+00 0.00000E+00 0.00000E+00
 -1       752 0.00000E+00 0.00000E+00 0.00000E+00 0.00000E+00 0.00000E+00 0.00000E+00
 -1       753 0.00000E+00 0.00000E+00 0.00000E+00 0.00000E+00 0.00000E+00 0.00000E+00
 -1       754 0.00000E+00 0.00000E+00 0.00000E+00 0.00000E+00 0.00000E+00 0.00000E+00
 -1       755 0.00000E+00 0.00000E+00 0.00000E+00 0.00000E+00 0.00000E+00 0.00000E+00
 -1       756 0.00000E+00 0.00000E+00 0.00000E+00 0.00000E+00 0.00000E+00 0.00000E+00
 -1       757 0.00000E+00 0.00000E+00 0.00000E+00 0.00000E+00 0.00000E+00 0.00000E+00
 -1       758 0.00000E+00 0.00000E+00 0.00000E+00 0.00000E+00 0.00000E+00 0.00000E+00
 -1       759 0.00000E+00 0.00000E+00 0.00000E+00 0.00000E+00 0.00000E+00 0.00000E+00
 -1       760 0.00000E+00 0.00000E+00 0.00000E+00 0.00000E+00 0.00000E+00 0.00000E+00
 -1       761 0.00000E+00 0.00000E+00 0.00000E+00 0.00000E+00 0.00000E+00 0.00000E+00
 -1       762 0.00000E+00 0.00000E+00 0.00000E+00 0.00000E+00 0.00000E+00 0.00000E+00
 -1       763 0.00000E+00 0.00000E+00 0.00000E+00 0.00000E+00 0.00000E+00 0.00000E+00
 -1       764 0.00000E+00 0.00000E+00 0.00000E+00 0.00000E+00 0.00000E+00 0.00000E+00
 -1       765 0.00000E+00 0.00000E+00 0.00000E+00 0.00000E+00 0.00000E+00 0.00000E+00
 -1       766 0.00000E+00 0.00000E+00 0.00000E+00 0.00000E+00 0.00000E+00 0.00000E+00
 -1       767 0.00000E+00 0.00000E+00 0.00000E+00 0.00000E+00 0.00000E+00 0.00000E+00
 -1       768 0.00000E+00 0.00000E+00 0.00000E+00 0.00000E+00 0.00000E+00 0.00000E+00
 -1       769 0.00000E+00 0.00000E+00 0.00000E+00 0.00000E+00 0.00000E+00 0.00000E+00
 -1       770 0.00000E+00 0.00000E+00 0.00000E+00 0.00000E+00 0.00000E+00 0.00000E+00
 -1       771 0.00000E+00 0.00000E+00 0.00000E+00 0.00000E+00 0.00000E+00 0.00000E+00
 -1       772 0.00000E+00 0.00000E+00 0.00000E+00 0.00000E+00 0.00000E+00 0.00000E+00
 -1       773 0.00000E+00 0.00000E+00 0.00000E+00 0.00000E+00 0.00000E+00 0.00000E+00
 -1       774 0.00000E+00 0.00000E+00 0.00000E+00 0.00000E+00 0.00000E+00 0.00000E+00
 -1       775 0.00000E+00 0.00000E+00 0.00000E+00 0.00000E+00 0.00000E+00 0.00000E+00
 -1       776 0.00000E+00 0.00000E+00 0.00000E+00 0.00000E+00 0.00000E+00 0.00000E+00
 -1       777 0.00000E+00 0.00000E+00 0.00000E+00 0.00000E+00 0.00000E+00 0.00000E+00
 -1       778 0.00000E+00 0.00000E+00 0.00000E+00 0.00000E+00 0.00000E+00 0.00000E+00
 -1       779 0.00000E+00 0.00000E+00 0.00000E+00 0.00000E+00 0.00000E+00 0.00000E+00
 -1       780 0.00000E+00 0.00000E+00 0.00000E+00 0.00000E+00 0.00000E+00 0.00000E+00
 -1       781 0.00000E+00 0.00000E+00 0.00000E+00 0.00000E+00 0.00000E+00 0.00000E+00
 -1       782 0.00000E+00 0.00000E+00 0.00000E+00 0.00000E+00 0.00000E+00 0.00000E+00
 -1       783 0.00000E+00 0.00000E+00 0.00000E+00 0.00000E+00 0.00000E+00 0.00000E+00
 -1       784 0.00000E+00 0.00000E+00 0.00000E+00 0.00000E+00 0.00000E+00 0.00000E+00
 -1       785 0.00000E+00 0.00000E+00 0.00000E+00 0.00000E+00 0.00000E+00 0.00000E+00
 -1       786 0.00000E+00 0.00000E+00 0.00000E+00 0.00000E+00 0.00000E+00 0.00000E+00
 -1       787 0.00000E+00 0.00000E+00 0.00000E+00 0.00000E+00 0.00000E+00 0.00000E+00
 -1       788 0.00000E+00 0.00000E+00 0.00000E+00 0.00000E+00 0.00000E+00 0.00000E+00
 -1       789 0.00000E+00 0.00000E+00 0.00000E+00 0.00000E+00 0.00000E+00 0.00000E+00
 -1       790 0.00000E+00 0.00000E+00 0.00000E+00 0.00000E+00 0.00000E+00 0.00000E+00
 -1       791 0.00000E+00 0.00000E+00 0.00000E+00 0.00000E+00 0.00000E+00 0.00000E+00
 -1       792 0.00000E+00 0.00000E+00 0.00000E+00 0.00000E+00 0.00000E+00 0.00000E+00
 -1       793 0.00000E+00 0.00000E+00 0.00000E+00 0.00000E+00 0.00000E+00 0.00000E+00
 -1       794 0.00000E+00 0.00000E+00 0.00000E+00 0.00000E+00 0.00000E+00 0.00000E+00
 -1       795 0.00000E+00 0.00000E+00 0.00000E+00 0.00000E+00 0.00000E+00 0.00000E+00
 -1       796 0.00000E+00 0.00000E+00 0.00000E+00 0.00000E+00 0.00000E+00 0.00000E+00
 -1       797 0.00000E+00 0.00000E+00 0.00000E+00 0.00000E+00 0.00000E+00 0.00000E+00
 -1       798 0.00000E+00 0.00000E+00 0.00000E+00 0.00000E+00 0.00000E+00 0.00000E+00
 -1       799 0.00000E+00 0.00000E+00 0.00000E+00 0.00000E+00 0.00000E+00 0.00000E+00
 -1       800 0.00000E+00 0.00000E+00 0.00000E+00 0.00000E+00 0.00000E+00 0.00000E+00
 -1       801 0.00000E+00 0.00000E+00 0.00000E+00 0.00000E+00 0.00000E+00 0.00000E+00
 -1       802 0.00000E+00 0.00000E+00 0.00000E+00 0.00000E+00 0.00000E+00 0.00000E+00
 -1       803 0.00000E+00 0.00000E+00 0.00000E+00 0.00000E+00 0.00000E+00 0.00000E+00
 -1       804 0.00000E+00 0.00000E+00 0.00000E+00 0.00000E+00 0.00000E+00 0.00000E+00
 -1       805 0.00000E+00 0.00000E+00 0.00000E+00 0.00000E+00 0.00000E+00 0.00000E+00
 -1       806 0.00000E+00 0.00000E+00 0.00000E+00 0.00000E+00 0.00000E+00 0.00000E+00
 -1       807 0.00000E+00 0.00000E+00 0.00000E+00 0.00000E+00 0.00000E+00 0.00000E+00
 -1       808 0.00000E+00 0.00000E+00 0.00000E+00 0.00000E+00 0.00000E+00 0.00000E+00
 -1       809-1.53728E-04 0.00000E+00 0.00000E+00 1.53728E+03 0.00000E+00 0.00000E+00
 -1       810 0.00000E+00 0.00000E+00 0.00000E+00 0.00000E+00 0.00000E+00 0.00000E+00
 -1       811 0.00000E+00 0.00000E+00 0.00000E+00 0.00000E+00 0.00000E+00 0.00000E+00
 -1       812 0.00000E+00 0.00000E+00 0.00000E+00 0.00000E+00 0.00000E+00 0.00000E+00
 -1       813 0.00000E+00 0.00000E+00 0.00000E+00 0.00000E+00 0.00000E+00 0.00000E+00
 -1       814 0.00000E+00 0.00000E+00 0.00000E+00 0.00000E+00 0.00000E+00 0.00000E+00
 -1       815 0.00000E+00 0.00000E+00 0.00000E+00 0.00000E+00 0.00000E+00 0.00000E+00
 -1       816 0.00000E+00 0.00000E+00 0.00000E+00 0.00000E+00 0.00000E+00 0.00000E+00
 -1       817 0.00000E+00 0.00000E+00 0.00000E+00 0.00000E+00 0.00000E+00 0.00000E+00
 -1       818 0.00000E+00 0.00000E+00 0.00000E+00 0.00000E+00 0.00000E+00 0.00000E+00
 -1       819 0.00000E+00 0.00000E+00 0.00000E+00 0.00000E+00 0.00000E+00 0.00000E+00
 -1       820 0.00000E+00 0.00000E+00 0.00000E+00 0.00000E+00 0.00000E+00 0.00000E+00
 -1       821 0.00000E+00 0.00000E+00 0.00000E+00 0.00000E+00 0.00000E+00 0.00000E+00
 -1       822 0.00000E+00 0.00000E+00 0.00000E+00 0.00000E+00 0.00000E+00 0.00000E+00
 -1       823 0.00000E+00 0.00000E+00 0.00000E+00 0.00000E+00 0.00000E+00 0.00000E+00
 -1       824 0.00000E+00 0.00000E+00 0.00000E+00 0.00000E+00 0.00000E+00 0.00000E+00
 -1       825 0.00000E+00 0.00000E+00 0.00000E+00 0.00000E+00 0.00000E+00 0.00000E+00
 -1       826 0.00000E+00 0.00000E+00 0.00000E+00 0.00000E+00 0.00000E+00 0.00000E+00
 -1       827 0.00000E+00 0.00000E+00 0.00000E+00 0.00000E+00 0.00000E+00 0.00000E+00
 -1       828 0.00000E+00 0.00000E+00 0.00000E+00 0.00000E+00 0.00000E+00 0.00000E+00
 -1       829 0.00000E+00 0.00000E+00 0.00000E+00 0.00000E+00 0.00000E+00 0.00000E+00
 -1       830 0.00000E+00 0.00000E+00 0.00000E+00 0.00000E+00 0.00000E+00 0.00000E+00
 -1       831 0.00000E+00 0.00000E+00 0.00000E+00 0.00000E+00 0.00000E+00 0.00000E+00
 -1       832 0.00000E+00 0.00000E+00 0.00000E+00 0.00000E+00 0.00000E+00 0.00000E+00
 -1       833 0.00000E+00 0.00000E+00 0.00000E+00 0.00000E+00 0.00000E+00 0.00000E+00
 -1       834 0.00000E+00 0.00000E+00 0.00000E+00 0.00000E+00 0.00000E+00 0.00000E+00
 -1       835 0.00000E+00 0.00000E+00 0.00000E+00 0.00000E+00 0.00000E+00 0.00000E+00
 -1       836 0.00000E+00 0.00000E+00 0.00000E+00 0.00000E+00 0.00000E+00 0.00000E+00
 -1       837 0.00000E+00 0.00000E+00 0.00000E+00 0.00000E+00 0.00000E+00 0.00000E+00
 -1       838 0.00000E+00 0.00000E+00 0.00000E+00 0.00000E+00 0.00000E+00 0.00000E+00
 -1       839 0.00000E+00 0.00000E+00 0.00000E+00 0.00000E+00 0.00000E+00 0.00000E+00
 -1       840 0.00000E+00 0.00000E+00 0.00000E+00 0.00000E+00 0.00000E+00 0.00000E+00
 -1       841 0.00000E+00 0.00000E+00 0.00000E+00 0.00000E+00 0.00000E+00 0.00000E+00
 -1       842 0.00000E+00 0.00000E+00 0.00000E+00 0.00000E+00 0.00000E+00 0.00000E+00
 -1       843 0.00000E+00 0.00000E+00 0.00000E+00 0.00000E+00 0.00000E+00 0.00000E+00
 -1       844 0.00000E+00 0.00000E+00 0.00000E+00 0.00000E+00 0.00000E+00 0.00000E+00
 -1       845 0.00000E+00 0.00000E+00 0.00000E+00 0.00000E+00 0.00000E+00 0.00000E+00
 -1       846 0.00000E+00 0.00000E+00 0.00000E+00 0.00000E+00 0.00000E+00 0.00000E+00
 -1       847 0.00000E+00 0.00000E+00 0.00000E+00 0.00000E+00 0.00000E+00 0.00000E+00
 -1       848 0.00000E+00 0.00000E+00 0.00000E+00 0.00000E+00 0.00000E+00 0.00000E+00
 -1       849 0.00000E+00 0.00000E+00 0.00000E+00 0.00000E+00 0.00000E+00 0.00000E+00
 -1       850 0.00000E+00 0.00000E+00 0.00000E+00 0.00000E+00 0.00000E+00 0.00000E+00
 -1       851 0.00000E+00 0.00000E+00 0.00000E+00 0.00000E+00 0.00000E+00 0.00000E+00
 -1       852 0.00000E+00 0.00000E+00 0.00000E+00 0.00000E+00 0.00000E+00 0.00000E+00
 -1       853 0.00000E+00 0.00000E+00 0.00000E+00 0.00000E+00 0.00000E+00 0.00000E+00
 -1       854 0.00000E+00 0.00000E+00 0.00000E+00 0.00000E+00 0.00000E+00 0.00000E+00
 -1       855 0.00000E+00 0.00000E+00 0.00000E+00 0.00000E+00 0.00000E+00 0.00000E+00
 -1       856 0.00000E+00 0.00000E+00 0.00000E+00 0.00000E+00 0.00000E+00 0.00000E+00
 -1       857 0.00000E+00 0.00000E+00 0.00000E+00 0.00000E+00 0.00000E+00 0.00000E+00
 -1       858 0.00000E+00 0.00000E+00 0.00000E+00 0.00000E+00 0.00000E+00 0.00000E+00
 -1       859 0.00000E+00 0.00000E+00 0.00000E+00 0.00000E+00 0.00000E+00 0.00000E+00
 -1       860-4.46690E-05 0.00000E+00 0.00000E+00 4.46690E+02 0.00000E+00 0.00000E+00
 -1       861 0.00000E+00 0.00000E+00 0.00000E+00 0.00000E+00 0.00000E+00 0.00000E+00
 -1       862 0.00000E+00 0.00000E+00 0.00000E+00 0.00000E+00 0.00000E+00 0.00000E+00
 -1       863 0.00000E+00 0.00000E+00 0.00000E+00 0.00000E+00 0.00000E+00 0.00000E+00
 -1       864 0.00000E+00 0.00000E+00 0.00000E+00 0.00000E+00 0.00000E+00 0.00000E+00
 -1       865 0.00000E+00 0.00000E+00 0.00000E+00 0.00000E+00 0.00000E+00 0.00000E+00
 -1       866 0.00000E+00 0.00000E+00 0.00000E+00 0.00000E+00 0.00000E+00 0.00000E+00
 -1       867 0.00000E+00 0.00000E+00 0.00000E+00 0.00000E+00 0.00000E+00 0.00000E+00
 -1       868 0.00000E+00 0.00000E+00 0.00000E+00 0.00000E+00 0.00000E+00 0.00000E+00
 -1       869 0.00000E+00 0.00000E+00 0.00000E+00 0.00000E+00 0.00000E+00 0.00000E+00
 -1       870 0.00000E+00 0.00000E+00 0.00000E+00 0.00000E+00 0.00000E+00 0.00000E+00
 -1       871 0.00000E+00 0.00000E+00 0.00000E+00 0.00000E+00 0.00000E+00 0.00000E+00
 -1       872 0.00000E+00 0.00000E+00 0.00000E+00 0.00000E+00 0.00000E+00 0.00000E+00
 -1       873 0.00000E+00 0.00000E+00 0.00000E+00 0.00000E+00 0.00000E+00 0.00000E+00
 -1       874 0.00000E+00 0.00000E+00 0.00000E+00 0.00000E+00 0.00000E+00 0.00000E+00
 -1       875 0.00000E+00 0.00000E+00 0.00000E+00 0.00000E+00 0.00000E+00 0.00000E+00
 -1       876 0.00000E+00 0.00000E+00 0.00000E+00 0.00000E+00 0.00000E+00 0.00000E+00
 -1       877 0.00000E+00 0.00000E+00 0.00000E+00 0.00000E+00 0.00000E+00 0.00000E+00
 -1       878 0.00000E+00 0.00000E+00 0.00000E+00 0.00000E+00 0.00000E+00 0.00000E+00
 -1       879 0.00000E+00 0.00000E+00 0.00000E+00 0.00000E+00 0.00000E+00 0.00000E+00
 -1       880 0.00000E+00 0.00000E+00 0.00000E+00 0.00000E+00 0.00000E+00 0.00000E+00
 -1       881 0.00000E+00 0.00000E+00 0.00000E+00 0.00000E+00 0.00000E+00 0.00000E+00
 -1       882 0.00000E+00 0.00000E+00 0.00000E+00 0.00000E+00 0.00000E+00 0.00000E+00
 -1       883 0.00000E+00 0.00000E+00 0.00000E+00 0.00000E+00 0.00000E+00 0.00000E+00
 -1       884 0.00000E+00 0.00000E+00 0.00000E+00 0.00000E+00 0.00000E+00 0.00000E+00
 -1       885 0.00000E+00 0.00000E+00 0.00000E+00 0.00000E+00 0.00000E+00 0.00000E+00
 -1       886 0.00000E+00 0.00000E+00 0.00000E+00 0.00000E+00 0.00000E+00 0.00000E+00
 -1       887 0.00000E+00 0.00000E+00 0.00000E+00 0.00000E+00 0.00000E+00 0.00000E+00
 -1       888 0.00000E+00 0.00000E+00 0.00000E+00 0.00000E+00 0.00000E+00 0.00000E+00
 -1       889 0.00000E+00 0.00000E+00 0.00000E+00 0.00000E+00 0.00000E+00 0.00000E+00
 -1       890 0.00000E+00 0.00000E+00 0.00000E+00 0.00000E+00 0.00000E+00 0.00000E+00
 -1       891 0.00000E+00 0.00000E+00 0.00000E+00 0.00000E+00 0.00000E+00 0.00000E+00
 -1       892 0.00000E+00 0.00000E+00 0.00000E+00 0.00000E+00 0.00000E+00 0.00000E+00
 -1       893 0.00000E+00 0.00000E+00 0.00000E+00 0.00000E+00 0.00000E+00 0.00000E+00
 -1       894 0.00000E+00 0.00000E+00 0.00000E+00 0.00000E+00 0.00000E+00 0.00000E+00
 -1       895 0.00000E+00 0.00000E+00 0.00000E+00 0.00000E+00 0.00000E+00 0.00000E+00
 -1       896 0.00000E+00 0.00000E+00 0.00000E+00 0.00000E+00 0.00000E+00 0.00000E+00
 -1       897 0.00000E+00 0.00000E+00 0.00000E+00 0.00000E+00 0.00000E+00 0.00000E+00
 -1       898 0.00000E+00 0.00000E+00 0.00000E+00 0.00000E+00 0.00000E+00 0.00000E+00
 -1       899 0.00000E+00 0.00000E+00 0.00000E+00 0.00000E+00 0.00000E+00 0.00000E+00
 -1       900 0.00000E+00 0.00000E+00 0.00000E+00 0.00000E+00 0.00000E+00 0.00000E+00
 -1       901 0.00000E+00 0.00000E+00 0.00000E+00 0.00000E+00 0.00000E+00 0.00000E+00
 -1       902 0.00000E+00 0.00000E+00 0.00000E+00 0.00000E+00 0.00000E+00 0.00000E+00
 -1       903 0.00000E+00 0.00000E+00 0.00000E+00 0.00000E+00 0.00000E+00 0.00000E+00
 -1       904 0.00000E+00 0.00000E+00 0.00000E+00 0.00000E+00 0.00000E+00 0.00000E+00
 -1       905 0.00000E+00 0.00000E+00 0.00000E+00 0.00000E+00 0.00000E+00 0.00000E+00
 -1       906 0.00000E+00 0.00000E+00 0.00000E+00 0.00000E+00 0.00000E+00 0.00000E+00
 -1       907 0.00000E+00 0.00000E+00 0.00000E+00 0.00000E+00 0.00000E+00 0.00000E+00
 -1       908 0.00000E+00 0.00000E+00 0.00000E+00 0.00000E+00 0.00000E+00 0.00000E+00
 -1       909 0.00000E+00 0.00000E+00 0.00000E+00 0.00000E+00 0.00000E+00 0.00000E+00
 -1       910 0.00000E+00 0.00000E+00 0.00000E+00 0.00000E+00 0.00000E+00 0.00000E+00
 -1       911 0.00000E+00 0.00000E+00 0.00000E+00 0.00000E+00 0.00000E+00 0.00000E+00
 -1       912 0.00000E+00 0.00000E+00 0.00000E+00 0.00000E+00 0.00000E+00 0.00000E+00
 -1       913 0.00000E+00 0.00000E+00 0.00000E+00 0.00000E+00 0.00000E+00 0.00000E+00
 -1       914 0.00000E+00 0.00000E+00 0.00000E+00 0.00000E+00 0.00000E+00 0.00000E+00
 -1       915 0.00000E+00 0.00000E+00 0.00000E+00 0.00000E+00 0.00000E+00 0.00000E+00
 -1       916 0.00000E+00 0.00000E+00 0.00000E+00 0.00000E+00 0.00000E+00 0.00000E+00
 -1       917 0.00000E+00 0.00000E+00 0.00000E+00 0.00000E+00 0.00000E+00 0.00000E+00
 -1       918 0.00000E+00 0.00000E+00 0.00000E+00 0.00000E+00 0.00000E+00 0.00000E+00
 -1       919 0.00000E+00 0.00000E+00 0.00000E+00 0.00000E+00 0.00000E+00 0.00000E+00
 -1       920 0.00000E+00 0.00000E+00 0.00000E+00 0.00000E+00 0.00000E+00 0.00000E+00
 -1       921 0.00000E+00 0.00000E+00 0.00000E+00 0.00000E+00 0.00000E+00 0.00000E+00
 -1       922 0.00000E+00 0.00000E+00 0.00000E+00 0.00000E+00 0.00000E+00 0.00000E+00
 -1       923 0.00000E+00 0.00000E+00 0.00000E+00 0.00000E+00 0.00000E+00 0.00000E+00
 -1       924 0.00000E+00 0.00000E+00 0.00000E+00 0.00000E+00 0.00000E+00 0.00000E+00
 -1       925 0.00000E+00 0.00000E+00 0.00000E+00 0.00000E+00 0.00000E+00 0.00000E+00
 -1       926 0.00000E+00 0.00000E+00 0.00000E+00 0.00000E+00 0.00000E+00 0.00000E+00
 -1       927 0.00000E+00 0.00000E+00 0.00000E+00 0.00000E+00 0.00000E+00 0.00000E+00
 -1       928 0.00000E+00 0.00000E+00 0.00000E+00 0.00000E+00 0.00000E+00 0.00000E+00
 -1       929 0.00000E+00 0.00000E+00 0.00000E+00 0.00000E+00 0.00000E+00 0.00000E+00
 -1       930 0.00000E+00 0.00000E+00 0.00000E+00 0.00000E+00 0.00000E+00 0.00000E+00
 -1       931 0.00000E+00 0.00000E+00 0.00000E+00 0.00000E+00 0.00000E+00 0.00000E+00
 -1       932 0.00000E+00 0.00000E+00 0.00000E+00 0.00000E+00 0.00000E+00 0.00000E+00
 -1       933 0.00000E+00 0.00000E+00 0.00000E+00 0.00000E+00 0.00000E+00 0.00000E+00
 -1       934 0.00000E+00 0.00000E+00 0.00000E+00 0.00000E+00 0.00000E+00 0.00000E+00
 -1       935 0.00000E+00 0.00000E+00 0.00000E+00 0.00000E+00 0.00000E+00 0.00000E+00
 -1       936 0.00000E+00 0.00000E+00 0.00000E+00 0.00000E+00 0.00000E+00 0.00000E+00
 -1       937 0.00000E+00 0.00000E+00 0.00000E+00 0.00000E+00 0.00000E+00 0.00000E+00
 -1       938 0.00000E+00 0.00000E+00 0.00000E+00 0.00000E+00 0.00000E+00 0.00000E+00
 -1       939 0.00000E+00 0.00000E+00 0.00000E+00 0.00000E+00 0.00000E+00 0.00000E+00
 -1       940 0.00000E+00 0.00000E+00 0.00000E+00 0.00000E+00 0.00000E+00 0.00000E+00
 -1       941 0.00000E+00 0.00000E+00 0.00000E+00 0.00000E+00 0.00000E+00 0.00000E+00
 -1       942 0.00000E+00 0.00000E+00 0.00000E+00 0.00000E+00 0.00000E+00 0.00000E+00
 -1       943 0.00000E+00 0.00000E+00 0.00000E+00 0.00000E+00 0.00000E+00 0.00000E+00
 -1       944 0.00000E+00 0.00000E+00 0.00000E+00 0.00000E+00 0.00000E+00 0.00000E+00
 -1       945 0.00000E+00 0.00000E+00 0.00000E+00 0.00000E+00 0.00000E+00 0.00000E+00
 -1       946 0.00000E+00 0.00000E+00 0.00000E+00 0.00000E+00 0.00000E+00 0.00000E+00
 -1       947 0.00000E+00 0.00000E+00 0.00000E+00 0.00000E+00 0.00000E+00 0.00000E+00
 -1       948 0.00000E+00 0.00000E+00 0.00000E+00 0.00000E+00 0.00000E+00 0.00000E+00
 -1       949 0.00000E+00 0.00000E+00 0.00000E+00 0.00000E+00 0.00000E+00 0.00000E+00
 -1       950 0.00000E+00 0.00000E+00 0.00000E+00 0.00000E+00 0.00000E+00 0.00000E+00
 -1       951 0.00000E+00 0.00000E+00 0.00000E+00 0.00000E+00 0.00000E+00 0.00000E+00
 -1       952 0.00000E+00 0.00000E+00 0.00000E+00 0.00000E+00 0.00000E+00 0.00000E+00
 -1       953 0.00000E+00 0.00000E+00 0.00000E+00 0.00000E+00 0.00000E+00 0.00000E+00
 -1       954 0.00000E+00 0.00000E+00 0.00000E+00 0.00000E+00 0.00000E+00 0.00000E+00
 -1       955 0.00000E+00 0.00000E+00 0.00000E+00 0.00000E+00 0.00000E+00 0.00000E+00
 -1       956 0.00000E+00 0.00000E+00 0.00000E+00 0.00000E+00 0.00000E+00 0.00000E+00
 -1       957 0.00000E+00 0.00000E+00 0.00000E+00 0.00000E+00 0.00000E+00 0.00000E+00
 -1       958 0.00000E+00 0.00000E+00 0.00000E+00 0.00000E+00 0.00000E+00 0.00000E+00
 -1       959 0.00000E+00 0.00000E+00 0.00000E+00 0.00000E+00 0.00000E+00 0.00000E+00
 -1       960 0.00000E+00 0.00000E+00 0.00000E+00 0.00000E+00 0.00000E+00 0.00000E+00
 -1       961 0.00000E+00 0.00000E+00 0.00000E+00 0.00000E+00 0.00000E+00 0.00000E+00
 -1       962 0.00000E+00 0.00000E+00 0.00000E+00 0.00000E+00 0.00000E+00 0.00000E+00
 -1       963 0.00000E+00 0.00000E+00 0.00000E+00 0.00000E+00 0.00000E+00 0.00000E+00
 -1       964 0.00000E+00 0.00000E+00 0.00000E+00 0.00000E+00 0.00000E+00 0.00000E+00
 -1       965 0.00000E+00 0.00000E+00 0.00000E+00 0.00000E+00 0.00000E+00 0.00000E+00
 -1       966 0.00000E+00 0.00000E+00 0.00000E+00 0.00000E+00 0.00000E+00 0.00000E+00
 -1       967 0.00000E+00 0.00000E+00 0.00000E+00 0.00000E+00 0.00000E+00 0.00000E+00
 -1       968 0.00000E+00 0.00000E+00 0.00000E+00 0.00000E+00 0.00000E+00 0.00000E+00
 -1       969 0.00000E+00 0.00000E+00 0.00000E+00 0.00000E+00 0.00000E+00 0.00000E+00
 -1       970 0.00000E+00 0.00000E+00 0.00000E+00 0.00000E+00 0.00000E+00 0.00000E+00
 -1       971 0.00000E+00 0.00000E+00 0.00000E+00 0.00000E+00 0.00000E+00 0.00000E+00
 -1       972 0.00000E+00 0.00000E+00 0.00000E+00 0.00000E+00 0.00000E+00 0.00000E+00
 -1       973 0.00000E+00 0.00000E+00 0.00000E+00 0.00000E+00 0.00000E+00 0.00000E+00
 -1       974 0.00000E+00 0.00000E+00 0.00000E+00 0.00000E+00 0.00000E+00 0.00000E+00
 -1       975 0.00000E+00 0.00000E+00 0.00000E+00 0.00000E+00 0.00000E+00 0.00000E+00
 -1       976 0.00000E+00 0.00000E+00 0.00000E+00 0.00000E+00 0.00000E+00 0.00000E+00
 -1       977 0.00000E+00 0.00000E+00 0.00000E+00 0.00000E+00 0.00000E+00 0.00000E+00
 -1       978 0.00000E+00 0.00000E+00 0.00000E+00 0.00000E+00 0.00000E+00 0.00000E+00
 -1       979 0.00000E+00 0.00000E+00 0.00000E+00 0.00000E+00 0.00000E+00 0.00000E+00
 -1       980 0.00000E+00 0.00000E+00 0.00000E+00 0.00000E+00 0.00000E+00 0.00000E+00
 -1       981 0.00000E+00 0.00000E+00 0.00000E+00 0.00000E+00 0.00000E+00 0.00000E+00
 -1       982 0.00000E+00 0.00000E+00 0.00000E+00 0.00000E+00 0.00000E+00 0.00000E+00
 -1       983 0.00000E+00 0.00000E+00 0.00000E+00 0.00000E+00 0.00000E+00 0.00000E+00
 -1       984 0.00000E+00 0.00000E+00 0.00000E+00 0.00000E+00 0.00000E+00 0.00000E+00
 -1       985 0.00000E+00 0.00000E+00 0.00000E+00 0.00000E+00 0.00000E+00 0.00000E+00
 -1       986 0.00000E+00 0.00000E+00 0.00000E+00 0.00000E+00 0.00000E+00 0.00000E+00
 -1       987 0.00000E+00 0.00000E+00 0.00000E+00 0.00000E+00 0.00000E+00 0.00000E+00
 -1       988 0.00000E+00 0.00000E+00 0.00000E+00 0.00000E+00 0.00000E+00 0.00000E+00
 -1       989 0.00000E+00 0.00000E+00 0.00000E+00 0.00000E+00 0.00000E+00 0.00000E+00
 -1       990 0.00000E+00 0.00000E+00 0.00000E+00 0.00000E+00 0.00000E+00 0.00000E+00
 -1       991 0.00000E+00 0.00000E+00 0.00000E+00 0.00000E+00 0.00000E+00 0.00000E+00
 -1       992 0.00000E+00 0.00000E+00 0.00000E+00 0.00000E+00 0.00000E+00 0.00000E+00
 -1       993 0.00000E+00 0.00000E+00 0.00000E+00 0.00000E+00 0.00000E+00 0.00000E+00
 -1       994 0.00000E+00 0.00000E+00 0.00000E+00 0.00000E+00 0.00000E+00 0.00000E+00
 -1       995 0.00000E+00 0.00000E+00 0.00000E+00 0.00000E+00 0.00000E+00 0.00000E+00
 -1       996 0.00000E+00 0.00000E+00 0.00000E+00 0.00000E+00 0.00000E+00 0.00000E+00
 -1       997 0.00000E+00 0.00000E+00 0.00000E+00 0.00000E+00 0.00000E+00 0.00000E+00
 -1       998 0.00000E+00 0.00000E+00 0.00000E+00 0.00000E+00 0.00000E+00 0.00000E+00
 -1       999 0.00000E+00 0.00000E+00 0.00000E+00 0.00000E+00 0.00000E+00 0.00000E+00
 -1      1000 0.00000E+00 0.00000E+00 0.00000E+00 0.00000E+00 0.00000E+00 0.00000E+00
 -1      1001 0.00000E+00 0.00000E+00 0.00000E+00 0.00000E+00 0.00000E+00 0.00000E+00
 -1      1002 0.00000E+00 0.00000E+00 0.00000E+00 0.00000E+00 0.00000E+00 0.00000E+00
 -1      1003 0.00000E+00 0.00000E+00 0.00000E+00 0.00000E+00 0.00000E+00 0.00000E+00
 -1      1004 0.00000E+00 0.00000E+00 0.00000E+00 0.00000E+00 0.00000E+00 0.00000E+00
 -1      1005 0.00000E+00 0.00000E+00 0.00000E+00 0.00000E+00 0.00000E+00 0.00000E+00
 -1      1006 0.00000E+00 0.00000E+00 0.00000E+00 0.00000E+00 0.00000E+00 0.00000E+00
 -1      1007 0.00000E+00 0.00000E+00 0.00000E+00 0.00000E+00 0.00000E+00 0.00000E+00
 -1      1008 0.00000E+00 0.00000E+00 0.00000E+00 0.00000E+00 0.00000E+00 0.00000E+00
 -1      1009 0.00000E+00 0.00000E+00 0.00000E+00 0.00000E+00 0.00000E+00 0.00000E+00
 -1      1010 0.00000E+00 0.00000E+00 0.00000E+00 0.00000E+00 0.00000E+00 0.00000E+00
 -1      1011 0.00000E+00 0.00000E+00 0.00000E+00 0.00000E+00 0.00000E+00 0.00000E+00
 -1      1012 0.00000E+00 0.00000E+00 0.00000E+00 0.00000E+00 0.00000E+00 0.00000E+00
 -1      1013 0.00000E+00 0.00000E+00 0.00000E+00 0.00000E+00 0.00000E+00 0.00000E+00
 -1      1014 0.00000E+00 0.00000E+00 0.00000E+00 0.00000E+00 0.00000E+00 0.00000E+00
 -1      1015 0.00000E+00 0.00000E+00 0.00000E+00 0.00000E+00 0.00000E+00 0.00000E+00
 -1      1016 0.00000E+00 0.00000E+00 0.00000E+00 0.00000E+00 0.00000E+00 0.00000E+00
 -1      1017 0.00000E+00 0.00000E+00 0.00000E+00 0.00000E+00 0.00000E+00 0.00000E+00
 -1      1018 0.00000E+00 0.00000E+00 0.00000E+00 0.00000E+00 0.00000E+00 0.00000E+00
 -1      1019 0.00000E+00 0.00000E+00 0.00000E+00 0.00000E+00 0.00000E+00 0.00000E+00
 -1      1020 0.00000E+00 0.00000E+00 0.00000E+00 0.00000E+00 0.00000E+00 0.00000E+00
 -1      1021 0.00000E+00 0.00000E+00 0.00000E+00 0.00000E+00 0.00000E+00 0.00000E+00
 -1      1022 0.00000E+00 0.00000E+00 0.00000E+00 0.00000E+00 0.00000E+00 0.00000E+00
 -1      1023 0.00000E+00 0.00000E+00 0.00000E+00 0.00000E+00 0.00000E+00 0.00000E+00
 -1      1024 0.00000E+00 0.00000E+00 0.00000E+00 0.00000E+00 0.00000E+00 0.00000E+00
 -1      1025 0.00000E+00 0.00000E+00 0.00000E+00 0.00000E+00 0.00000E+00 0.00000E+00
 -1      1026 0.00000E+00 0.00000E+00 0.00000E+00 0.00000E+00 0.00000E+00 0.00000E+00
 -1      1027 0.00000E+00 0.00000E+00 0.00000E+00 0.00000E+00 0.00000E+00 0.00000E+00
 -1      1028 0.00000E+00 0.00000E+00 0.00000E+00 0.00000E+00 0.00000E+00 0.00000E+00
 -1      1029 0.00000E+00 0.00000E+00 0.00000E+00 0.00000E+00 0.00000E+00 0.00000E+00
 -1      1030 0.00000E+00 0.00000E+00 0.00000E+00 0.00000E+00 0.00000E+00 0.00000E+00
 -1      1031 0.00000E+00 0.00000E+00 0.00000E+00 0.00000E+00 0.00000E+00 0.00000E+00
 -1      1032 0.00000E+00 0.00000E+00 0.00000E+00 0.00000E+00 0.00000E+00 0.00000E+00
 -1      1033 0.00000E+00 0.00000E+00 0.00000E+00 0.00000E+00 0.00000E+00 0.00000E+00
 -1      1034 0.00000E+00 0.00000E+00 0.00000E+00 0.00000E+00 0.00000E+00 0.00000E+00
 -1      1035 0.00000E+00 0.00000E+00 0.00000E+00 0.00000E+00 0.00000E+00 0.00000E+00
 -1      1036 0.00000E+00 0.00000E+00 0.00000E+00 0.00000E+00 0.00000E+00 0.00000E+00
 -1      1037 0.00000E+00 0.00000E+00 0.00000E+00 0.00000E+00 0.00000E+00 0.00000E+00
 -1      1038 0.00000E+00 0.00000E+00 0.00000E+00 0.00000E+00 0.00000E+00 0.00000E+00
 -1      1039 0.00000E+00 0.00000E+00 0.00000E+00 0.00000E+00 0.00000E+00 0.00000E+00
 -1      1040 0.00000E+00 0.00000E+00 0.00000E+00 0.00000E+00 0.00000E+00 0.00000E+00
 -1      1041 0.00000E+00 0.00000E+00 0.00000E+00 0.00000E+00 0.00000E+00 0.00000E+00
 -1      1042 0.00000E+00 0.00000E+00 0.00000E+00 0.00000E+00 0.00000E+00 0.00000E+00
 -1      1043 0.00000E+00 0.00000E+00 0.00000E+00 0.00000E+00 0.00000E+00 0.00000E+00
 -1      1044 0.00000E+00 0.00000E+00 0.00000E+00 0.00000E+00 0.00000E+00 0.00000E+00
 -1      1045 0.00000E+00 0.00000E+00 0.00000E+00 0.00000E+00 0.00000E+00 0.00000E+00
 -1      1046 0.00000E+00 0.00000E+00 0.00000E+00 0.00000E+00 0.00000E+00 0.00000E+00
 -1      1047 0.00000E+00 0.00000E+00 0.00000E+00 0.00000E+00 0.00000E+00 0.00000E+00
 -1      1048 0.00000E+00 0.00000E+00 0.00000E+00 0.00000E+00 0.00000E+00 0.00000E+00
 -1      1049 0.00000E+00 0.00000E+00 0.00000E+00 0.00000E+00 0.00000E+00 0.00000E+00
 -1      1050 0.00000E+00 0.00000E+00 0.00000E+00 0.00000E+00 0.00000E+00 0.00000E+00
 -1      1051 0.00000E+00 0.00000E+00 0.00000E+00 0.00000E+00 0.00000E+00 0.00000E+00
 -1      1052 0.00000E+00 0.00000E+00 0.00000E+00 0.00000E+00 0.00000E+00 0.00000E+00
 -1      1053 0.00000E+00 0.00000E+00 0.00000E+00 0.00000E+00 0.00000E+00 0.00000E+00
 -1      1054 0.00000E+00 0.00000E+00 0.00000E+00 0.00000E+00 0.00000E+00 0.00000E+00
 -1      1055 0.00000E+00 0.00000E+00 0.00000E+00 0.00000E+00 0.00000E+00 0.00000E+00
 -1      1056 0.00000E+00 0.00000E+00 0.00000E+00 0.00000E+00 0.00000E+00 0.00000E+00
 -1      1057 0.00000E+00 0.00000E+00 0.00000E+00 0.00000E+00 0.00000E+00 0.00000E+00
 -1      1058 0.00000E+00 0.00000E+00 0.00000E+00 0.00000E+00 0.00000E+00 0.00000E+00
 -1      1059 0.00000E+00 0.00000E+00 0.00000E+00 0.00000E+00 0.00000E+00 0.00000E+00
 -1      1060 0.00000E+00 0.00000E+00 0.00000E+00 0.00000E+00 0.00000E+00 0.00000E+00
 -1      1061 0.00000E+00 0.00000E+00 0.00000E+00 0.00000E+00 0.00000E+00 0.00000E+00
 -1      1062 0.00000E+00 0.00000E+00 0.00000E+00 0.00000E+00 0.00000E+00 0.00000E+00
 -1      1063 0.00000E+00 0.00000E+00 0.00000E+00 0.00000E+00 0.00000E+00 0.00000E+00
 -1      1064 0.00000E+00 0.00000E+00 0.00000E+00 0.00000E+00 0.00000E+00 0.00000E+00
 -1      1065 0.00000E+00 0.00000E+00 0.00000E+00 0.00000E+00 0.00000E+00 0.00000E+00
 -1      1066 0.00000E+00 0.00000E+00 0.00000E+00 0.00000E+00 0.00000E+00 0.00000E+00
 -1      1067 0.00000E+00 0.00000E+00 0.00000E+00 0.00000E+00 0.00000E+00 0.00000E+00
 -1      1068 0.00000E+00 0.00000E+00 0.00000E+00 0.00000E+00 0.00000E+00 0.00000E+00
 -1      1069 0.00000E+00 0.00000E+00 0.00000E+00 0.00000E+00 0.00000E+00 0.00000E+00
 -1      1070 0.00000E+00 0.00000E+00 0.00000E+00 0.00000E+00 0.00000E+00 0.00000E+00
 -1      1071 0.00000E+00 0.00000E+00 0.00000E+00 0.00000E+00 0.00000E+00 0.00000E+00
 -1      1072 0.00000E+00 0.00000E+00 0.00000E+00 0.00000E+00 0.00000E+00 0.00000E+00
 -1      1073 0.00000E+00 0.00000E+00 0.00000E+00 0.00000E+00 0.00000E+00 0.00000E+00
 -1      1074 0.00000E+00 0.00000E+00 0.00000E+00 0.00000E+00 0.00000E+00 0.00000E+00
 -1      1075 0.00000E+00 0.00000E+00 0.00000E+00 0.00000E+00 0.00000E+00 0.00000E+00
 -1      1076 0.00000E+00 0.00000E+00 0.00000E+00 0.00000E+00 0.00000E+00 0.00000E+00
 -1      1077 0.00000E+00 0.00000E+00 0.00000E+00 0.00000E+00 0.00000E+00 0.00000E+00
 -1      1078 0.00000E+00 0.00000E+00 0.00000E+00 0.00000E+00 0.00000E+00 0.00000E+00
 -1      1079 0.00000E+00 0.00000E+00 0.00000E+00 0.00000E+00 0.00000E+00 0.00000E+00
 -1      1080 0.00000E+00 0.00000E+00 0.00000E+00 0.00000E+00 0.00000E+00 0.00000E+00
 -1      1081 0.00000E+00 0.00000E+00 0.00000E+00 0.00000E+00 0.00000E+00 0.00000E+00
 -1      1082 0.00000E+00 0.00000E+00 0.00000E+00 0.00000E+00 0.00000E+00 0.00000E+00
 -1      1083 0.00000E+00 0.00000E+00 0.00000E+00 0.00000E+00 0.00000E+00 0.00000E+00
 -1      1084 0.00000E+00 0.00000E+00 0.00000E+00 0.00000E+00 0.00000E+00 0.00000E+00
 -1      1085 0.00000E+00 0.00000E+00 0.00000E+00 0.00000E+00 0.00000E+00 0.00000E+00
 -1      1086 0.00000E+00 0.00000E+00 0.00000E+00 0.00000E+00 0.00000E+00 0.00000E+00
 -1      1087 0.00000E+00 0.00000E+00 0.00000E+00 0.00000E+00 0.00000E+00 0.00000E+00
 -1      1088 0.00000E+00 0.00000E+00 0.00000E+00 0.00000E+00 0.00000E+00 0.00000E+00
 -1      1089 0.00000E+00 0.00000E+00 0.00000E+00 0.00000E+00 0.00000E+00 0.00000E+00
 -1      1090 0.00000E+00 0.00000E+00 0.00000E+00 0.00000E+00 0.00000E+00 0.00000E+00
 -1      1091 0.00000E+00 0.00000E+00 0.00000E+00 0.00000E+00 0.00000E+00 0.00000E+00
 -1      1092 0.00000E+00 0.00000E+00 0.00000E+00 0.00000E+00 0.00000E+00 0.00000E+00
 -1      1093 0.00000E+00 0.00000E+00 0.00000E+00 0.00000E+00 0.00000E+00 0.00000E+00
 -1      1094 0.00000E+00 0.00000E+00 0.00000E+00 0.00000E+00 0.00000E+00 0.00000E+00
 -1      1095 0.00000E+00 0.00000E+00 0.00000E+00 0.00000E+00 0.00000E+00 0.00000E+00
 -1      1096 0.00000E+00 0.00000E+00 0.00000E+00 0.00000E+00 0.00000E+00 0.00000E+00
 -1      1097 0.00000E+00 0.00000E+00 0.00000E+00 0.00000E+00 0.00000E+00 0.00000E+00
 -1      1098 0.00000E+00 0.00000E+00 0.00000E+00 0.00000E+00 0.00000E+00 0.00000E+00
 -1      1099 0.00000E+00 0.00000E+00 0.00000E+00 0.00000E+00 0.00000E+00 0.00000E+00
 -1      1100 0.00000E+00 0.00000E+00 0.00000E+00 0.00000E+00 0.00000E+00 0.00000E+00
 -1      1101 0.00000E+00 0.00000E+00 0.00000E+00 0.00000E+00 0.00000E+00 0.00000E+00
 -1      1102 0.00000E+00 0.00000E+00 0.00000E+00 0.00000E+00 0.00000E+00 0.00000E+00
 -1      1103 0.00000E+00 0.00000E+00 0.00000E+00 0.00000E+00 0.00000E+00 0.00000E+00
 -1      1104 0.00000E+00 0.00000E+00 0.00000E+00 0.00000E+00 0.00000E+00 0.00000E+00
 -1      1105 0.00000E+00 0.00000E+00 0.00000E+00 0.00000E+00 0.00000E+00 0.00000E+00
 -1      1106 0.00000E+00 0.00000E+00 0.00000E+00 0.00000E+00 0.00000E+00 0.00000E+00
 -1      1107 0.00000E+00 0.00000E+00 0.00000E+00 0.00000E+00 0.00000E+00 0.00000E+00
 -1      1108 0.00000E+00 0.00000E+00 0.00000E+00 0.00000E+00 0.00000E+00 0.00000E+00
 -1      1109 0.00000E+00 0.00000E+00 0.00000E+00 0.00000E+00 0.00000E+00 0.00000E+00
 -1      1110 0.00000E+00 0.00000E+00 0.00000E+00 0.00000E+00 0.00000E+00 0.00000E+00
 -1      1111 0.00000E+00 0.00000E+00 0.00000E+00 0.00000E+00 0.00000E+00 0.00000E+00
 -1      1112 0.00000E+00 0.00000E+00 0.00000E+00 0.00000E+00 0.00000E+00 0.00000E+00
 -1      1113 0.00000E+00 0.00000E+00 0.00000E+00 0.00000E+00 0.00000E+00 0.00000E+00
 -1      1114 0.00000E+00 0.00000E+00 0.00000E+00 0.00000E+00 0.00000E+00 0.00000E+00
 -1      1115 0.00000E+00 0.00000E+00 0.00000E+00 0.00000E+00 0.00000E+00 0.00000E+00
 -1      1116 0.00000E+00 0.00000E+00 0.00000E+00 0.00000E+00 0.00000E+00 0.00000E+00
 -1      1117 0.00000E+00 0.00000E+00 0.00000E+00 0.00000E+00 0.00000E+00 0.00000E+00
 -1      1118 0.00000E+00 0.00000E+00 0.00000E+00 0.00000E+00 0.00000E+00 0.00000E+00
 -1      1119 0.00000E+00 0.00000E+00 0.00000E+00 0.00000E+00 0.00000E+00 0.00000E+00
 -1      1120 0.00000E+00 0.00000E+00 0.00000E+00 0.00000E+00 0.00000E+00 0.00000E+00
 -1      1121 0.00000E+00 0.00000E+00 0.00000E+00 0.00000E+00 0.00000E+00 0.00000E+00
 -1      1122 0.00000E+00 0.00000E+00 0.00000E+00 0.00000E+00 0.00000E+00 0.00000E+00
 -1      1123 0.00000E+00 0.00000E+00 0.00000E+00 0.00000E+00 0.00000E+00 0.00000E+00
 -1      1124 0.00000E+00 0.00000E+00 0.00000E+00 0.00000E+00 0.00000E+00 0.00000E+00
 -1      1125 0.00000E+00 0.00000E+00 0.00000E+00 0.00000E+00 0.00000E+00 0.00000E+00
 -1      1126 0.00000E+00 0.00000E+00 0.00000E+00 0.00000E+00 0.00000E+00 0.00000E+00
 -1      1127 0.00000E+00 0.00000E+00 0.00000E+00 0.00000E+00 0.00000E+00 0.00000E+00
 -1      1128 0.00000E+00 0.00000E+00 0.00000E+00 0.00000E+00 0.00000E+00 0.00000E+00
 -1      1129 0.00000E+00 0.00000E+00 0.00000E+00 0.00000E+00 0.00000E+00 0.00000E+00
 -1      1130 0.00000E+00 0.00000E+00 0.00000E+00 0.00000E+00 0.00000E+00 0.00000E+00
 -1      1131 0.00000E+00 0.00000E+00 0.00000E+00 0.00000E+00 0.00000E+00 0.00000E+00
 -1      1132 0.00000E+00 0.00000E+00 0.00000E+00 0.00000E+00 0.00000E+00 0.00000E+00
 -1      1133 0.00000E+00 0.00000E+00 0.00000E+00 0.00000E+00 0.00000E+00 0.00000E+00
 -1      1134 0.00000E+00 0.00000E+00 0.00000E+00 0.00000E+00 0.00000E+00 0.00000E+00
 -1      1135 0.00000E+00 0.00000E+00 0.00000E+00 0.00000E+00 0.00000E+00 0.00000E+00
 -1      1136 0.00000E+00 0.00000E+00 0.00000E+00 0.00000E+00 0.00000E+00 0.00000E+00
 -1      1137 0.00000E+00 0.00000E+00 0.00000E+00 0.00000E+00 0.00000E+00 0.00000E+00
 -1      1138 0.00000E+00 0.00000E+00 0.00000E+00 0.00000E+00 0.00000E+00 0.00000E+00
 -1      1139 0.00000E+00 0.00000E+00 0.00000E+00 0.00000E+00 0.00000E+00 0.00000E+00
 -1      1140 0.00000E+00 0.00000E+00 0.00000E+00 0.00000E+00 0.00000E+00 0.00000E+00
 -1      1141 0.00000E+00 0.00000E+00 0.00000E+00 0.00000E+00 0.00000E+00 0.00000E+00
 -1      1142 0.00000E+00 0.00000E+00 0.00000E+00 0.00000E+00 0.00000E+00 0.00000E+00
 -1      1143 0.00000E+00 0.00000E+00 0.00000E+00 0.00000E+00 0.00000E+00 0.00000E+00
 -1      1144 0.00000E+00 0.00000E+00 0.00000E+00 0.00000E+00 0.00000E+00 0.00000E+00
 -1      1145 0.00000E+00 0.00000E+00 0.00000E+00 0.00000E+00 0.00000E+00 0.00000E+00
 -1      1146 0.00000E+00 0.00000E+00 0.00000E+00 0.00000E+00 0.00000E+00 0.00000E+00
 -1      1147 0.00000E+00 0.00000E+00 0.00000E+00 0.00000E+00 0.00000E+00 0.00000E+00
 -1      1148 0.00000E+00 0.00000E+00 0.00000E+00 0.00000E+00 0.00000E+00 0.00000E+00
 -1      1149 0.00000E+00 0.00000E+00 0.00000E+00 0.00000E+00 0.00000E+00 0.00000E+00
 -1      1150 0.00000E+00 0.00000E+00 0.00000E+00 0.00000E+00 0.00000E+00 0.00000E+00
 -1      1151 0.00000E+00 0.00000E+00 0.00000E+00 0.00000E+00 0.00000E+00 0.00000E+00
 -1      1152 0.00000E+00 0.00000E+00 0.00000E+00 0.00000E+00 0.00000E+00 0.00000E+00
 -1      1153 0.00000E+00 0.00000E+00 0.00000E+00 0.00000E+00 0.00000E+00 0.00000E+00
 -1      1154 0.00000E+00 0.00000E+00 0.00000E+00 0.00000E+00 0.00000E+00 0.00000E+00
 -1      1155 0.00000E+00 0.00000E+00 0.00000E+00 0.00000E+00 0.00000E+00 0.00000E+00
 -1      1156 0.00000E+00 0.00000E+00 0.00000E+00 0.00000E+00 0.00000E+00 0.00000E+00
 -1      1157 0.00000E+00 0.00000E+00 0.00000E+00 0.00000E+00 0.00000E+00 0.00000E+00
 -1      1158 0.00000E+00 0.00000E+00 0.00000E+00 0.00000E+00 0.00000E+00 0.00000E+00
 -1      1159 0.00000E+00 0.00000E+00 0.00000E+00 0.00000E+00 0.00000E+00 0.00000E+00
 -1      1160 0.00000E+00 0.00000E+00 0.00000E+00 0.00000E+00 0.00000E+00 0.00000E+00
 -1      1161 0.00000E+00 0.00000E+00 0.00000E+00 0.00000E+00 0.00000E+00 0.00000E+00
 -1      1162 0.00000E+00 0.00000E+00 0.00000E+00 0.00000E+00 0.00000E+00 0.00000E+00
 -1      1163 0.00000E+00 0.00000E+00 0.00000E+00 0.00000E+00 0.00000E+00 0.00000E+00
 -1      1164 0.00000E+00 0.00000E+00 0.00000E+00 0.00000E+00 0.00000E+00 0.00000E+00
 -1      1165 0.00000E+00 0.00000E+00 0.00000E+00 0.00000E+00 0.00000E+00 0.00000E+00
 -1      1166 0.00000E+00 0.00000E+00 0.00000E+00 0.00000E+00 0.00000E+00 0.00000E+00
 -1      1167 0.00000E+00 0.00000E+00 0.00000E+00 0.00000E+00 0.00000E+00 0.00000E+00
 -1      1168 0.00000E+00 0.00000E+00 0.00000E+00 0.00000E+00 0.00000E+00 0.00000E+00
 -1      1169 0.00000E+00 0.00000E+00 0.00000E+00 0.00000E+00 0.00000E+00 0.00000E+00
 -1      1170 0.00000E+00 0.00000E+00 0.00000E+00 0.00000E+00 0.00000E+00 0.00000E+00
 -1      1171 0.00000E+00 0.00000E+00 0.00000E+00 0.00000E+00 0.00000E+00 0.00000E+00
 -1      1172 0.00000E+00 0.00000E+00 0.00000E+00 0.00000E+00 0.00000E+00 0.00000E+00
 -1      1173 0.00000E+00 0.00000E+00 0.00000E+00 0.00000E+00 0.00000E+00 0.00000E+00
 -1      1174 0.00000E+00 0.00000E+00 0.00000E+00 0.00000E+00 0.00000E+00 0.00000E+00
 -1      1175 0.00000E+00 0.00000E+00 0.00000E+00 0.00000E+00 0.00000E+00 0.00000E+00
 -1      1176 0.00000E+00 0.00000E+00 0.00000E+00 0.00000E+00 0.00000E+00 0.00000E+00
 -1      1177 0.00000E+00 0.00000E+00 0.00000E+00 0.00000E+00 0.00000E+00 0.00000E+00
 -1      1178 0.00000E+00 0.00000E+00 0.00000E+00 0.00000E+00 0.00000E+00 0.00000E+00
 -1      1179 0.00000E+00 0.00000E+00 0.00000E+00 0.00000E+00 0.00000E+00 0.00000E+00
 -1      1180 0.00000E+00 0.00000E+00 0.00000E+00 0.00000E+00 0.00000E+00 0.00000E+00
 -1      1181 0.00000E+00 0.00000E+00 0.00000E+00 0.00000E+00 0.00000E+00 0.00000E+00
 -1      1182 0.00000E+00 0.00000E+00 0.00000E+00 0.00000E+00 0.00000E+00 0.00000E+00
 -1      1183 0.00000E+00 0.00000E+00 0.00000E+00 0.00000E+00 0.00000E+00 0.00000E+00
 -1      1184 0.00000E+00 0.00000E+00 0.00000E+00 0.00000E+00 0.00000E+00 0.00000E+00
 -1      1185 0.00000E+00 0.00000E+00 0.00000E+00 0.00000E+00 0.00000E+00 0.00000E+00
 -1      1186 0.00000E+00 0.00000E+00 0.00000E+00 0.00000E+00 0.00000E+00 0.00000E+00
 -1      1187 0.00000E+00 0.00000E+00 0.00000E+00 0.00000E+00 0.00000E+00 0.00000E+00
 -1      1188 0.00000E+00 0.00000E+00 0.00000E+00 0.00000E+00 0.00000E+00 0.00000E+00
 -1      1189 0.00000E+00 0.00000E+00 0.00000E+00 0.00000E+00 0.00000E+00 0.00000E+00
 -1      1190 0.00000E+00 0.00000E+00 0.00000E+00 0.00000E+00 0.00000E+00 0.00000E+00
 -1      1191 0.00000E+00 0.00000E+00 0.00000E+00 0.00000E+00 0.00000E+00 0.00000E+00
 -1      1192 0.00000E+00 0.00000E+00 0.00000E+00 0.00000E+00 0.00000E+00 0.00000E+00
 -1      1193 0.00000E+00 0.00000E+00 0.00000E+00 0.00000E+00 0.00000E+00 0.00000E+00
 -1      1194 0.00000E+00 0.00000E+00 0.00000E+00 0.00000E+00 0.00000E+00 0.00000E+00
 -1      1195 0.00000E+00 0.00000E+00 0.00000E+00 0.00000E+00 0.00000E+00 0.00000E+00
 -1      1196 0.00000E+00 0.00000E+00 0.00000E+00 0.00000E+00 0.00000E+00 0.00000E+00
 -1      1197 0.00000E+00 0.00000E+00 0.00000E+00 0.00000E+00 0.00000E+00 0.00000E+00
 -1      1198 0.00000E+00 0.00000E+00 0.00000E+00 0.00000E+00 0.00000E+00 0.00000E+00
 -1      1199 0.00000E+00 0.00000E+00 0.00000E+00 0.00000E+00 0.00000E+00 0.00000E+00
 -1      1200 0.00000E+00 0.00000E+00 0.00000E+00 0.00000E+00 0.00000E+00 0.00000E+00
 -1      1201 0.00000E+00 0.00000E+00 0.00000E+00 0.00000E+00 0.00000E+00 0.00000E+00
 -1      1202 0.00000E+00 0.00000E+00 0.00000E+00 0.00000E+00 0.00000E+00 0.00000E+00
 -1      1203 0.00000E+00 0.00000E+00 0.00000E+00 0.00000E+00 0.00000E+00 0.00000E+00
 -1      1204 0.00000E+00 0.00000E+00 0.00000E+00 0.00000E+00 0.00000E+00 0.00000E+00
 -1      1205 0.00000E+00 0.00000E+00 0.00000E+00 0.00000E+00 0.00000E+00 0.00000E+00
 -1      1206 0.00000E+00 0.00000E+00 0.00000E+00 0.00000E+00 0.00000E+00 0.00000E+00
 -1      1207 0.00000E+00 0.00000E+00 0.00000E+00 0.00000E+00 0.00000E+00 0.00000E+00
 -1      1208 0.00000E+00 0.00000E+00 0.00000E+00 0.00000E+00 0.00000E+00 0.00000E+00
 -1      1209 0.00000E+00 0.00000E+00 0.00000E+00 0.00000E+00 0.00000E+00 0.00000E+00
 -1      1210 0.00000E+00 0.00000E+00 0.00000E+00 0.00000E+00 0.00000E+00 0.00000E+00
 -1      1211 0.00000E+00 0.00000E+00 0.00000E+00 0.00000E+00 0.00000E+00 0.00000E+00
 -1      1212 0.00000E+00 0.00000E+00 0.00000E+00 0.00000E+00 0.00000E+00 0.00000E+00
 -1      1213 0.00000E+00 0.00000E+00 0.00000E+00 0.00000E+00 0.00000E+00 0.00000E+00
 -1      1214 0.00000E+00 0.00000E+00 0.00000E+00 0.00000E+00 0.00000E+00 0.00000E+00
 -1      1215 0.00000E+00 0.00000E+00 0.00000E+00 0.00000E+00 0.00000E+00 0.00000E+00
 -1      1216 0.00000E+00 0.00000E+00 0.00000E+00 0.00000E+00 0.00000E+00 0.00000E+00
 -1      1217 0.00000E+00 0.00000E+00 0.00000E+00 0.00000E+00 0.00000E+00 0.00000E+00
 -1      1218 0.00000E+00 0.00000E+00 0.00000E+00 0.00000E+00 0.00000E+00 0.00000E+00
 -1      1219 0.00000E+00 0.00000E+00 0.00000E+00 0.00000E+00 0.00000E+00 0.00000E+00
 -1      1220 0.00000E+00 0.00000E+00 0.00000E+00 0.00000E+00 0.00000E+00 0.00000E+00
 -1      1221 0.00000E+00 0.00000E+00 0.00000E+00 0.00000E+00 0.00000E+00 0.00000E+00
 -1      1222 0.00000E+00 0.00000E+00 0.00000E+00 0.00000E+00 0.00000E+00 0.00000E+00
 -1      1223 0.00000E+00 0.00000E+00 0.00000E+00 0.00000E+00 0.00000E+00 0.00000E+00
 -1      1224 0.00000E+00 0.00000E+00 0.00000E+00 0.00000E+00 0.00000E+00 0.00000E+00
 -1      1225 0.00000E+00 0.00000E+00 0.00000E+00 0.00000E+00 0.00000E+00 0.00000E+00
 -1      1226 0.00000E+00 0.00000E+00 0.00000E+00 0.00000E+00 0.00000E+00 0.00000E+00
 -1      1227 0.00000E+00 0.00000E+00 0.00000E+00 0.00000E+00 0.00000E+00 0.00000E+00
 -1      1228 0.00000E+00 0.00000E+00 0.00000E+00 0.00000E+00 0.00000E+00 0.00000E+00
 -1      1229 0.00000E+00 0.00000E+00 0.00000E+00 0.00000E+00 0.00000E+00 0.00000E+00
 -1      1230 0.00000E+00 0.00000E+00 0.00000E+00 0.00000E+00 0.00000E+00 0.00000E+00
 -1      1231 0.00000E+00 0.00000E+00 0.00000E+00 0.00000E+00 0.00000E+00 0.00000E+00
 -1      1232 0.00000E+00 0.00000E+00 0.00000E+00 0.00000E+00 0.00000E+00 0.00000E+00
 -1      1233 0.00000E+00 0.00000E+00 0.00000E+00 0.00000E+00 0.00000E+00 0.00000E+00
 -1      1234 0.00000E+00 0.00000E+00 0.00000E+00 0.00000E+00 0.00000E+00 0.00000E+00
 -1      1235 0.00000E+00 0.00000E+00 0.00000E+00 0.00000E+00 0.00000E+00 0.00000E+00
 -1      1236 0.00000E+00 0.00000E+00 0.00000E+00 0.00000E+00 0.00000E+00 0.00000E+00
 -1      1237 0.00000E+00 0.00000E+00 0.00000E+00 0.00000E+00 0.00000E+00 0.00000E+00
 -1      1238 0.00000E+00 0.00000E+00 0.00000E+00 0.00000E+00 0.00000E+00 0.00000E+00
 -1      1239 0.00000E+00 0.00000E+00 0.00000E+00 0.00000E+00 0.00000E+00 0.00000E+00
 -1      1240 0.00000E+00 0.00000E+00 0.00000E+00 0.00000E+00 0.00000E+00 0.00000E+00
 -1      1241 0.00000E+00 0.00000E+00 0.00000E+00 0.00000E+00 0.00000E+00 0.00000E+00
 -1      1242 0.00000E+00 0.00000E+00 0.00000E+00 0.00000E+00 0.00000E+00 0.00000E+00
 -1      1243 0.00000E+00 0.00000E+00 0.00000E+00 0.00000E+00 0.00000E+00 0.00000E+00
 -1      1244 0.00000E+00 0.00000E+00 0.00000E+00 0.00000E+00 0.00000E+00 0.00000E+00
 -1      1245 0.00000E+00 0.00000E+00 0.00000E+00 0.00000E+00 0.00000E+00 0.00000E+00
 -1      1246 0.00000E+00 0.00000E+00 0.00000E+00 0.00000E+00 0.00000E+00 0.00000E+00
 -1      1247 0.00000E+00 0.00000E+00 0.00000E+00 0.00000E+00 0.00000E+00 0.00000E+00
 -1      1248 0.00000E+00 0.00000E+00 0.00000E+00 0.00000E+00 0.00000E+00 0.00000E+00
 -1      1249 0.00000E+00 0.00000E+00 0.00000E+00 0.00000E+00 0.00000E+00 0.00000E+00
 -1      1250 0.00000E+00 0.00000E+00 0.00000E+00 0.00000E+00 0.00000E+00 0.00000E+00
 -1      1251 0.00000E+00 0.00000E+00 0.00000E+00 0.00000E+00 0.00000E+00 0.00000E+00
 -1      1252 0.00000E+00 0.00000E+00 0.00000E+00 0.00000E+00 0.00000E+00 0.00000E+00
 -1      1253 0.00000E+00 0.00000E+00 0.00000E+00 0.00000E+00 0.00000E+00 0.00000E+00
 -1      1254 0.00000E+00 0.00000E+00 0.00000E+00 0.00000E+00 0.00000E+00 0.00000E+00
 -1      1255 0.00000E+00 0.00000E+00 0.00000E+00 0.00000E+00 0.00000E+00 0.00000E+00
 -1      1256 0.00000E+00 0.00000E+00 0.00000E+00 0.00000E+00 0.00000E+00 0.00000E+00
 -1      1257 0.00000E+00 0.00000E+00 0.00000E+00 0.00000E+00 0.00000E+00 0.00000E+00
 -1      1258 0.00000E+00 0.00000E+00 0.00000E+00 0.00000E+00 0.00000E+00 0.00000E+00
 -1      1259 0.00000E+00 0.00000E+00 0.00000E+00 0.00000E+00 0.00000E+00 0.00000E+00
 -1      1260 0.00000E+00 0.00000E+00 0.00000E+00 0.00000E+00 0.00000E+00 0.00000E+00
 -1      1261 0.00000E+00 0.00000E+00 0.00000E+00 0.00000E+00 0.00000E+00 0.00000E+00
 -1      1262 0.00000E+00 0.00000E+00 0.00000E+00 0.00000E+00 0.00000E+00 0.00000E+00
 -1      1263 0.00000E+00 0.00000E+00 0.00000E+00 0.00000E+00 0.00000E+00 0.00000E+00
 -1      1264 0.00000E+00 0.00000E+00 0.00000E+00 0.00000E+00 0.00000E+00 0.00000E+00
 -1      1265 0.00000E+00 0.00000E+00 0.00000E+00 0.00000E+00 0.00000E+00 0.00000E+00
 -1      1266 0.00000E+00 0.00000E+00 0.00000E+00 0.00000E+00 0.00000E+00 0.00000E+00
 -1      1267 0.00000E+00 0.00000E+00 0.00000E+00 0.00000E+00 0.00000E+00 0.00000E+00
 -1      1268 0.00000E+00 0.00000E+00 0.00000E+00 0.00000E+00 0.00000E+00 0.00000E+00
 -1      1269 0.00000E+00 0.00000E+00 0.00000E+00 0.00000E+00 0.00000E+00 0.00000E+00
 -1      1270 0.00000E+00 0.00000E+00 0.00000E+00 0.00000E+00 0.00000E+00 0.00000E+00
 -1      1271 0.00000E+00 0.00000E+00 0.00000E+00 0.00000E+00 0.00000E+00 0.00000E+00
 -1      1272 0.00000E+00 0.00000E+00 0.00000E+00 0.00000E+00 0.00000E+00 0.00000E+00
 -1      1273 0.00000E+00 0.00000E+00 0.00000E+00 0.00000E+00 0.00000E+00 0.00000E+00
 -1      1274 0.00000E+00 0.00000E+00 0.00000E+00 0.00000E+00 0.00000E+00 0.00000E+00
 -1      1275 0.00000E+00 0.00000E+00 0.00000E+00 0.00000E+00 0.00000E+00 0.00000E+00
 -1      1276 0.00000E+00 0.00000E+00 0.00000E+00 0.00000E+00 0.00000E+00 0.00000E+00
 -1      1277 0.00000E+00 0.00000E+00 0.00000E+00 0.00000E+00 0.00000E+00 0.00000E+00
 -1      1278 0.00000E+00 0.00000E+00 0.00000E+00 0.00000E+00 0.00000E+00 0.00000E+00
 -1      1279 0.00000E+00 0.00000E+00 0.00000E+00 0.00000E+00 0.00000E+00 0.00000E+00
 -1      1280 0.00000E+00 0.00000E+00 0.00000E+00 0.00000E+00 0.00000E+00 0.00000E+00
 -1      1281 0.00000E+00 0.00000E+00 0.00000E+00 0.00000E+00 0.00000E+00 0.00000E+00
 -1      1282 0.00000E+00 0.00000E+00 0.00000E+00 0.00000E+00 0.00000E+00 0.00000E+00
 -1      1283 0.00000E+00 0.00000E+00 0.00000E+00 0.00000E+00 0.00000E+00 0.00000E+00
 -1      1284 0.00000E+00 0.00000E+00 0.00000E+00 0.00000E+00 0.00000E+00 0.00000E+00
 -1      1285 0.00000E+00 0.00000E+00 0.00000E+00 0.00000E+00 0.00000E+00 0.00000E+00
 -1      1286 0.00000E+00 0.00000E+00 0.00000E+00 0.00000E+00 0.00000E+00 0.00000E+00
 -1      1287 0.00000E+00 0.00000E+00 0.00000E+00 0.00000E+00 0.00000E+00 0.00000E+00
 -1      1288 0.00000E+00 0.00000E+00 0.00000E+00 0.00000E+00 0.00000E+00 0.00000E+00
 -1      1289 0.00000E+00 0.00000E+00 0.00000E+00 0.00000E+00 0.00000E+00 0.00000E+00
 -1      1290 0.00000E+00 0.00000E+00 0.00000E+00 0.00000E+00 0.00000E+00 0.00000E+00
 -1      1291 0.00000E+00 0.00000E+00 0.00000E+00 0.00000E+00 0.00000E+00 0.00000E+00
 -1      1292 0.00000E+00 0.00000E+00 0.00000E+00 0.00000E+00 0.00000E+00 0.00000E+00
 -1      1293 0.00000E+00 0.00000E+00 0.00000E+00 0.00000E+00 0.00000E+00 0.00000E+00
 -1      1294 0.00000E+00 0.00000E+00 0.00000E+00 0.00000E+00 0.00000E+00 0.00000E+00
 -1      1295 0.00000E+00 0.00000E+00 0.00000E+00 0.00000E+00 0.00000E+00 0.00000E+00
 -1      1296 0.00000E+00 0.00000E+00 0.00000E+00 0.00000E+00 0.00000E+00 0.00000E+00
 -1      1297 0.00000E+00 0.00000E+00 0.00000E+00 0.00000E+00 0.00000E+00 0.00000E+00
 -1      1298 0.00000E+00 0.00000E+00 0.00000E+00 0.00000E+00 0.00000E+00 0.00000E+00
 -1      1299 0.00000E+00 0.00000E+00 0.00000E+00 0.00000E+00 0.00000E+00 0.00000E+00
 -1      1300 0.00000E+00 0.00000E+00 0.00000E+00 0.00000E+00 0.00000E+00 0.00000E+00
 -1      1301 0.00000E+00 0.00000E+00 0.00000E+00 0.00000E+00 0.00000E+00 0.00000E+00
 -1      1302 0.00000E+00 0.00000E+00 0.00000E+00 0.00000E+00 0.00000E+00 0.00000E+00
 -1      1303 0.00000E+00 0.00000E+00 0.00000E+00 0.00000E+00 0.00000E+00 0.00000E+00
 -1      1304 0.00000E+00 0.00000E+00 0.00000E+00 0.00000E+00 0.00000E+00 0.00000E+00
 -1      1305 0.00000E+00 0.00000E+00 0.00000E+00 0.00000E+00 0.00000E+00 0.00000E+00
 -1      1306 0.00000E+00 0.00000E+00 0.00000E+00 0.00000E+00 0.00000E+00 0.00000E+00
 -1      1307 0.00000E+00 0.00000E+00 0.00000E+00 0.00000E+00 0.00000E+00 0.00000E+00
 -1      1308 0.00000E+00 0.00000E+00 0.00000E+00 0.00000E+00 0.00000E+00 0.00000E+00
 -1      1309 0.00000E+00 0.00000E+00 0.00000E+00 0.00000E+00 0.00000E+00 0.00000E+00
 -1      1310 0.00000E+00 0.00000E+00 0.00000E+00 0.00000E+00 0.00000E+00 0.00000E+00
 -1      1311 0.00000E+00 0.00000E+00 0.00000E+00 0.00000E+00 0.00000E+00 0.00000E+00
 -1      1312 0.00000E+00 0.00000E+00 0.00000E+00 0.00000E+00 0.00000E+00 0.00000E+00
 -1      1313 0.00000E+00 0.00000E+00 0.00000E+00 0.00000E+00 0.00000E+00 0.00000E+00
 -1      1314 0.00000E+00 0.00000E+00 0.00000E+00 0.00000E+00 0.00000E+00 0.00000E+00
 -1      1315 0.00000E+00 0.00000E+00 0.00000E+00 0.00000E+00 0.00000E+00 0.00000E+00
 -1      1316 0.00000E+00 0.00000E+00 0.00000E+00 0.00000E+00 0.00000E+00 0.00000E+00
 -1      1317 0.00000E+00 0.00000E+00 0.00000E+00 0.00000E+00 0.00000E+00 0.00000E+00
 -1      1318 0.00000E+00 0.00000E+00 0.00000E+00 0.00000E+00 0.00000E+00 0.00000E+00
 -1      1319 0.00000E+00 0.00000E+00 0.00000E+00 0.00000E+00 0.00000E+00 0.00000E+00
 -1      1320 0.00000E+00 0.00000E+00 0.00000E+00 0.00000E+00 0.00000E+00 0.00000E+00
 -1      1321 0.00000E+00 0.00000E+00 0.00000E+00 0.00000E+00 0.00000E+00 0.00000E+00
 -1      1322 0.00000E+00 0.00000E+00 0.00000E+00 0.00000E+00 0.00000E+00 0.00000E+00
 -1      1323 0.00000E+00 0.00000E+00 0.00000E+00 0.00000E+00 0.00000E+00 0.00000E+00
 -1      1324 0.00000E+00 0.00000E+00 0.00000E+00 0.00000E+00 0.00000E+00 0.00000E+00
 -1      1325 0.00000E+00 0.00000E+00 0.00000E+00 0.00000E+00 0.00000E+00 0.00000E+00
 -1      1326 0.00000E+00 0.00000E+00 0.00000E+00 0.00000E+00 0.00000E+00 0.00000E+00
 -1      1327 0.00000E+00 0.00000E+00 0.00000E+00 0.00000E+00 0.00000E+00 0.00000E+00
 -1      1328 0.00000E+00 0.00000E+00 0.00000E+00 0.00000E+00 0.00000E+00 0.00000E+00
 -1      1329 0.00000E+00 0.00000E+00 0.00000E+00 0.00000E+00 0.00000E+00 0.00000E+00
 -1      1330 0.00000E+00 0.00000E+00 0.00000E+00 0.00000E+00 0.00000E+00 0.00000E+00
 -1      1331 0.00000E+00 0.00000E+00 0.00000E+00 0.00000E+00 0.00000E+00 0.00000E+00
 -1      1332 0.00000E+00 0.00000E+00 0.00000E+00 0.00000E+00 0.00000E+00 0.00000E+00
 -1      1333 0.00000E+00 0.00000E+00 0.00000E+00 0.00000E+00 0.00000E+00 0.00000E+00
 -1      1334 0.00000E+00 0.00000E+00 0.00000E+00 0.00000E+00 0.00000E+00 0.00000E+00
 -1      1335 0.00000E+00 0.00000E+00 0.00000E+00 0.00000E+00 0.00000E+00 0.00000E+00
 -1      1336 0.00000E+00 0.00000E+00 0.00000E+00 0.00000E+00 0.00000E+00 0.00000E+00
 -1      1337 0.00000E+00 0.00000E+00 0.00000E+00 0.00000E+00 0.00000E+00 0.00000E+00
 -1      1338 0.00000E+00 0.00000E+00 0.00000E+00 0.00000E+00 0.00000E+00 0.00000E+00
 -1      1339 0.00000E+00 0.00000E+00 0.00000E+00 0.00000E+00 0.00000E+00 0.00000E+00
 -1      1340 0.00000E+00 0.00000E+00 0.00000E+00 0.00000E+00 0.00000E+00 0.00000E+00
 -1      1341 0.00000E+00 0.00000E+00 0.00000E+00 0.00000E+00 0.00000E+00 0.00000E+00
 -1      1342 0.00000E+00 0.00000E+00 0.00000E+00 0.00000E+00 0.00000E+00 0.00000E+00
 -1      1343 0.00000E+00 0.00000E+00 0.00000E+00 0.00000E+00 0.00000E+00 0.00000E+00
 -1      1344 0.00000E+00 0.00000E+00 0.00000E+00 0.00000E+00 0.00000E+00 0.00000E+00
 -1      1345 0.00000E+00 0.00000E+00 0.00000E+00 0.00000E+00 0.00000E+00 0.00000E+00
 -1      1346 0.00000E+00 0.00000E+00 0.00000E+00 0.00000E+00 0.00000E+00 0.00000E+00
 -1      1347 0.00000E+00 0.00000E+00 0.00000E+00 0.00000E+00 0.00000E+00 0.00000E+00
 -1      1348 0.00000E+00 0.00000E+00 0.00000E+00 0.00000E+00 0.00000E+00 0.00000E+00
 -1      1349 0.00000E+00 0.00000E+00 0.00000E+00 0.00000E+00 0.00000E+00 0.00000E+00
 -1      1350 0.00000E+00 0.00000E+00 0.00000E+00 0.00000E+00 0.00000E+00 0.00000E+00
 -1      1351 0.00000E+00 0.00000E+00 0.00000E+00 0.00000E+00 0.00000E+00 0.00000E+00
 -1      1352 0.00000E+00 0.00000E+00 0.00000E+00 0.00000E+00 0.00000E+00 0.00000E+00
 -1      1353 0.00000E+00 0.00000E+00 0.00000E+00 0.00000E+00 0.00000E+00 0.00000E+00
 -1      1354 0.00000E+00 0.00000E+00 0.00000E+00 0.00000E+00 0.00000E+00 0.00000E+00
 -1      1355 0.00000E+00 0.00000E+00 0.00000E+00 0.00000E+00 0.00000E+00 0.00000E+00
 -1      1356 0.00000E+00 0.00000E+00 0.00000E+00 0.00000E+00 0.00000E+00 0.00000E+00
 -1      1357 0.00000E+00 0.00000E+00 0.00000E+00 0.00000E+00 0.00000E+00 0.00000E+00
 -1      1358 0.00000E+00 0.00000E+00 0.00000E+00 0.00000E+00 0.00000E+00 0.00000E+00
 -1      1359 0.00000E+00 0.00000E+00 0.00000E+00 0.00000E+00 0.00000E+00 0.00000E+00
 -1      1360 0.00000E+00 0.00000E+00 0.00000E+00 0.00000E+00 0.00000E+00 0.00000E+00
 -1      1361 0.00000E+00 0.00000E+00 0.00000E+00 0.00000E+00 0.00000E+00 0.00000E+00
 -1      1362 0.00000E+00 0.00000E+00 0.00000E+00 0.00000E+00 0.00000E+00 0.00000E+00
 -1      1363 0.00000E+00 0.00000E+00 0.00000E+00 0.00000E+00 0.00000E+00 0.00000E+00
 -1      1364 0.00000E+00 0.00000E+00 0.00000E+00 0.00000E+00 0.00000E+00 0.00000E+00
 -1      1365 0.00000E+00 0.00000E+00 0.00000E+00 0.00000E+00 0.00000E+00 0.00000E+00
 -1      1366 0.00000E+00 0.00000E+00 0.00000E+00 0.00000E+00 0.00000E+00 0.00000E+00
 -1      1367 0.00000E+00 0.00000E+00 0.00000E+00 0.00000E+00 0.00000E+00 0.00000E+00
 -1      1368 0.00000E+00 0.00000E+00 0.00000E+00 0.00000E+00 0.00000E+00 0.00000E+00
 -1      1369 0.00000E+00 0.00000E+00 0.00000E+00 0.00000E+00 0.00000E+00 0.00000E+00
 -1      1370 0.00000E+00 0.00000E+00 0.00000E+00 0.00000E+00 0.00000E+00 0.00000E+00
 -1      1371 0.00000E+00 0.00000E+00 0.00000E+00 0.00000E+00 0.00000E+00 0.00000E+00
 -1      1372 0.00000E+00 0.00000E+00 0.00000E+00 0.00000E+00 0.00000E+00 0.00000E+00
 -1      1373 0.00000E+00 0.00000E+00 0.00000E+00 0.00000E+00 0.00000E+00 0.00000E+00
 -1      1374 0.00000E+00 0.00000E+00 0.00000E+00 0.00000E+00 0.00000E+00 0.00000E+00
 -1      1375 0.00000E+00 0.00000E+00 0.00000E+00 0.00000E+00 0.00000E+00 0.00000E+00
 -1      1376 0.00000E+00 0.00000E+00 0.00000E+00 0.00000E+00 0.00000E+00 0.00000E+00
 -1      1377 0.00000E+00 0.00000E+00 0.00000E+00 0.00000E+00 0.00000E+00 0.00000E+00
 -1      1378 0.00000E+00 0.00000E+00 0.00000E+00 0.00000E+00 0.00000E+00 0.00000E+00
 -1      1379 0.00000E+00 0.00000E+00 0.00000E+00 0.00000E+00 0.00000E+00 0.00000E+00
 -1      1380 0.00000E+00 0.00000E+00 0.00000E+00 0.00000E+00 0.00000E+00 0.00000E+00
 -1      1381 0.00000E+00 0.00000E+00 0.00000E+00 0.00000E+00 0.00000E+00 0.00000E+00
 -1      1382 0.00000E+00 0.00000E+00 0.00000E+00 0.00000E+00 0.00000E+00 0.00000E+00
 -1      1383 0.00000E+00 0.00000E+00 0.00000E+00 0.00000E+00 0.00000E+00 0.00000E+00
 -1      1384 0.00000E+00 0.00000E+00 0.00000E+00 0.00000E+00 0.00000E+00 0.00000E+00
 -1      1385 0.00000E+00 0.00000E+00 0.00000E+00 0.00000E+00 0.00000E+00 0.00000E+00
 -1      1386 0.00000E+00 0.00000E+00 0.00000E+00 0.00000E+00 0.00000E+00 0.00000E+00
 -1      1387 0.00000E+00 0.00000E+00 0.00000E+00 0.00000E+00 0.00000E+00 0.00000E+00
 -1      1388 0.00000E+00 0.00000E+00 0.00000E+00 0.00000E+00 0.00000E+00 0.00000E+00
 -1      1389 0.00000E+00 0.00000E+00 0.00000E+00 0.00000E+00 0.00000E+00 0.00000E+00
 -1      1390 0.00000E+00 0.00000E+00 0.00000E+00 0.00000E+00 0.00000E+00 0.00000E+00
 -1      1391 0.00000E+00 0.00000E+00 0.00000E+00 0.00000E+00 0.00000E+00 0.00000E+00
 -1      1392 0.00000E+00 0.00000E+00 0.00000E+00 0.00000E+00 0.00000E+00 0.00000E+00
 -1      1393 0.00000E+00 0.00000E+00 0.00000E+00 0.00000E+00 0.00000E+00 0.00000E+00
 -1      1394 0.00000E+00 0.00000E+00 0.00000E+00 0.00000E+00 0.00000E+00 0.00000E+00
 -1      1395 0.00000E+00 0.00000E+00 0.00000E+00 0.00000E+00 0.00000E+00 0.00000E+00
 -1      1396 0.00000E+00 0.00000E+00 0.00000E+00 0.00000E+00 0.00000E+00 0.00000E+00
 -1      1397 0.00000E+00 0.00000E+00 0.00000E+00 0.00000E+00 0.00000E+00 0.00000E+00
 -1      1398 0.00000E+00 0.00000E+00 0.00000E+00 0.00000E+00 0.00000E+00 0.00000E+00
 -1      1399 0.00000E+00 0.00000E+00 0.00000E+00 0.00000E+00 0.00000E+00 0.00000E+00
 -1      1400 0.00000E+00 0.00000E+00 0.00000E+00 0.00000E+00 0.00000E+00 0.00000E+00
 -1      1401 0.00000E+00 0.00000E+00 0.00000E+00 0.00000E+00 0.00000E+00 0.00000E+00
 -1      1402 0.00000E+00 0.00000E+00 0.00000E+00 0.00000E+00 0.00000E+00 0.00000E+00
 -1      1403 0.00000E+00 0.00000E+00 0.00000E+00 0.00000E+00 0.00000E+00 0.00000E+00
 -1      1404 0.00000E+00 0.00000E+00 0.00000E+00 0.00000E+00 0.00000E+00 0.00000E+00
 -1      1405 0.00000E+00 0.00000E+00 0.00000E+00 0.00000E+00 0.00000E+00 0.00000E+00
 -1      1406 0.00000E+00 0.00000E+00 0.00000E+00 0.00000E+00 0.00000E+00 0.00000E+00
 -1      1407 0.00000E+00 0.00000E+00 0.00000E+00 0.00000E+00 0.00000E+00 0.00000E+00
 -1      1408 0.00000E+00 0.00000E+00 0.00000E+00 0.00000E+00 0.00000E+00 0.00000E+00
 -1      1409 0.00000E+00 0.00000E+00 0.00000E+00 0.00000E+00 0.00000E+00 0.00000E+00
 -1      1410 0.00000E+00 0.00000E+00 0.00000E+00 0.00000E+00 0.00000E+00 0.00000E+00
 -1      1411 0.00000E+00 0.00000E+00 0.00000E+00 0.00000E+00 0.00000E+00 0.00000E+00
 -1      1412 0.00000E+00 0.00000E+00 0.00000E+00 0.00000E+00 0.00000E+00 0.00000E+00
 -1      1413 0.00000E+00 0.00000E+00 0.00000E+00 0.00000E+00 0.00000E+00 0.00000E+00
 -1      1414 0.00000E+00 0.00000E+00 0.00000E+00 0.00000E+00 0.00000E+00 0.00000E+00
 -1      1415 0.00000E+00 0.00000E+00 0.00000E+00 0.00000E+00 0.00000E+00 0.00000E+00
 -1      1416 0.00000E+00 0.00000E+00 0.00000E+00 0.00000E+00 0.00000E+00 0.00000E+00
 -1      1417 0.00000E+00 0.00000E+00 0.00000E+00 0.00000E+00 0.00000E+00 0.00000E+00
 -1      1418 0.00000E+00 0.00000E+00 0.00000E+00 0.00000E+00 0.00000E+00 0.00000E+00
 -1      1419 0.00000E+00 0.00000E+00 0.00000E+00 0.00000E+00 0.00000E+00 0.00000E+00
 -1      1420 0.00000E+00 0.00000E+00 0.00000E+00 0.00000E+00 0.00000E+00 0.00000E+00
 -1      1421 0.00000E+00 0.00000E+00 0.00000E+00 0.00000E+00 0.00000E+00 0.00000E+00
 -1      1422 0.00000E+00 0.00000E+00 0.00000E+00 0.00000E+00 0.00000E+00 0.00000E+00
 -1      1423 0.00000E+00 0.00000E+00 0.00000E+00 0.00000E+00 0.00000E+00 0.00000E+00
 -1      1424 0.00000E+00 0.00000E+00 0.00000E+00 0.00000E+00 0.00000E+00 0.00000E+00
 -1      1425 0.00000E+00 0.00000E+00 0.00000E+00 0.00000E+00 0.00000E+00 0.00000E+00
 -1      1426 0.00000E+00 0.00000E+00 0.00000E+00 0.00000E+00 0.00000E+00 0.00000E+00
 -1      1427 0.00000E+00 0.00000E+00 0.00000E+00 0.00000E+00 0.00000E+00 0.00000E+00
 -1      1428 0.00000E+00 0.00000E+00 0.00000E+00 0.00000E+00 0.00000E+00 0.00000E+00
 -1      1429 0.00000E+00 0.00000E+00 0.00000E+00 0.00000E+00 0.00000E+00 0.00000E+00
 -1      1430 0.00000E+00 0.00000E+00 0.00000E+00 0.00000E+00 0.00000E+00 0.00000E+00
 -1      1431 0.00000E+00 0.00000E+00 0.00000E+00 0.00000E+00 0.00000E+00 0.00000E+00
 -1      1432 0.00000E+00 0.00000E+00 0.00000E+00 0.00000E+00 0.00000E+00 0.00000E+00
 -1      1433 0.00000E+00 0.00000E+00 0.00000E+00 0.00000E+00 0.00000E+00 0.00000E+00
 -1      1434 0.00000E+00 0.00000E+00 0.00000E+00 0.00000E+00 0.00000E+00 0.00000E+00
 -1      1435 0.00000E+00 0.00000E+00 0.00000E+00 0.00000E+00 0.00000E+00 0.00000E+00
 -1      1436 0.00000E+00 0.00000E+00 0.00000E+00 0.00000E+00 0.00000E+00 0.00000E+00
 -1      1437 0.00000E+00 0.00000E+00 0.00000E+00 0.00000E+00 0.00000E+00 0.00000E+00
 -1      1438 0.00000E+00 0.00000E+00 0.00000E+00 0.00000E+00 0.00000E+00 0.00000E+00
 -1      1439 0.00000E+00 0.00000E+00 0.00000E+00 0.00000E+00 0.00000E+00 0.00000E+00
 -1      1440 0.00000E+00 0.00000E+00 0.00000E+00 0.00000E+00 0.00000E+00 0.00000E+00
 -1      1441 0.00000E+00 0.00000E+00 0.00000E+00 0.00000E+00 0.00000E+00 0.00000E+00
 -1      1442 0.00000E+00 0.00000E+00 0.00000E+00 0.00000E+00 0.00000E+00 0.00000E+00
 -1      1443 0.00000E+00 0.00000E+00 0.00000E+00 0.00000E+00 0.00000E+00 0.00000E+00
 -1      1444 0.00000E+00 0.00000E+00 0.00000E+00 0.00000E+00 0.00000E+00 0.00000E+00
 -1      1445 0.00000E+00 0.00000E+00 0.00000E+00 0.00000E+00 0.00000E+00 0.00000E+00
 -1      1446 0.00000E+00 0.00000E+00 0.00000E+00 0.00000E+00 0.00000E+00 0.00000E+00
 -1      1447 0.00000E+00 0.00000E+00 0.00000E+00 0.00000E+00 0.00000E+00 0.00000E+00
 -1      1448 0.00000E+00 0.00000E+00 0.00000E+00 0.00000E+00 0.00000E+00 0.00000E+00
 -1      1449 0.00000E+00 0.00000E+00 0.00000E+00 0.00000E+00 0.00000E+00 0.00000E+00
 -1      1450 0.00000E+00 0.00000E+00 0.00000E+00 0.00000E+00 0.00000E+00 0.00000E+00
 -1      1451 0.00000E+00 0.00000E+00 0.00000E+00 0.00000E+00 0.00000E+00 0.00000E+00
 -1      1452 0.00000E+00 0.00000E+00 0.00000E+00 0.00000E+00 0.00000E+00 0.00000E+00
 -1      1453 0.00000E+00 0.00000E+00 0.00000E+00 0.00000E+00 0.00000E+00 0.00000E+00
 -1      1454 0.00000E+00 0.00000E+00 0.00000E+00 0.00000E+00 0.00000E+00 0.00000E+00
 -1      1455 0.00000E+00 0.00000E+00 0.00000E+00 0.00000E+00 0.00000E+00 0.00000E+00
 -1      1456 0.00000E+00 0.00000E+00 0.00000E+00 0.00000E+00 0.00000E+00 0.00000E+00
 -1      1457 0.00000E+00 0.00000E+00 0.00000E+00 0.00000E+00 0.00000E+00 0.00000E+00
 -1      1458 0.00000E+00 0.00000E+00 0.00000E+00 0.00000E+00 0.00000E+00 0.00000E+00
 -1      1459 0.00000E+00 0.00000E+00 0.00000E+00 0.00000E+00 0.00000E+00 0.00000E+00
 -1      1460 0.00000E+00 0.00000E+00 0.00000E+00 0.00000E+00 0.00000E+00 0.00000E+00
 -1      1461 0.00000E+00 0.00000E+00 0.00000E+00 0.00000E+00 0.00000E+00 0.00000E+00
 -1      1462 0.00000E+00 0.00000E+00 0.00000E+00 0.00000E+00 0.00000E+00 0.00000E+00
 -1      1463 0.00000E+00 0.00000E+00 0.00000E+00 0.00000E+00 0.00000E+00 0.00000E+00
 -1      1464 0.00000E+00 0.00000E+00 0.00000E+00 0.00000E+00 0.00000E+00 0.00000E+00
 -1      1465 0.00000E+00 0.00000E+00 0.00000E+00 0.00000E+00 0.00000E+00 0.00000E+00
 -1      1466 0.00000E+00 0.00000E+00 0.00000E+00 0.00000E+00 0.00000E+00 0.00000E+00
 -1      1467 0.00000E+00 0.00000E+00 0.00000E+00 0.00000E+00 0.00000E+00 0.00000E+00
 -1      1468 0.00000E+00 0.00000E+00 0.00000E+00 0.00000E+00 0.00000E+00 0.00000E+00
 -1      1469 0.00000E+00 0.00000E+00 0.00000E+00 0.00000E+00 0.00000E+00 0.00000E+00
 -1      1470 0.00000E+00 0.00000E+00 0.00000E+00 0.00000E+00 0.00000E+00 0.00000E+00
 -1      1471 0.00000E+00 0.00000E+00 0.00000E+00 0.00000E+00 0.00000E+00 0.00000E+00
 -1      1472 0.00000E+00 0.00000E+00 0.00000E+00 0.00000E+00 0.00000E+00 0.00000E+00
 -1      1473 0.00000E+00 0.00000E+00 0.00000E+00 0.00000E+00 0.00000E+00 0.00000E+00
 -1      1474 0.00000E+00 0.00000E+00 0.00000E+00 0.00000E+00 0.00000E+00 0.00000E+00
 -1      1475 0.00000E+00 0.00000E+00 0.00000E+00 0.00000E+00 0.00000E+00 0.00000E+00
 -1      1476 0.00000E+00 0.00000E+00 0.00000E+00 0.00000E+00 0.00000E+00 0.00000E+00
 -1      1477 0.00000E+00 0.00000E+00 0.00000E+00 0.00000E+00 0.00000E+00 0.00000E+00
 -1      1478 0.00000E+00 0.00000E+00 0.00000E+00 0.00000E+00 0.00000E+00 0.00000E+00
 -1      1479 0.00000E+00 0.00000E+00 0.00000E+00 0.00000E+00 0.00000E+00 0.00000E+00
 -1      1480 0.00000E+00 0.00000E+00 0.00000E+00 0.00000E+00 0.00000E+00 0.00000E+00
 -1      1481 0.00000E+00 0.00000E+00 0.00000E+00 0.00000E+00 0.00000E+00 0.00000E+00
 -1      1482 0.00000E+00 0.00000E+00 0.00000E+00 0.00000E+00 0.00000E+00 0.00000E+00
 -1      1483 0.00000E+00 0.00000E+00 0.00000E+00 0.00000E+00 0.00000E+00 0.00000E+00
 -1      1484 0.00000E+00 0.00000E+00 0.00000E+00 0.00000E+00 0.00000E+00 0.00000E+00
 -1      1485 0.00000E+00 0.00000E+00 0.00000E+00 0.00000E+00 0.00000E+00 0.00000E+00
 -1      1486 0.00000E+00 0.00000E+00 0.00000E+00 0.00000E+00 0.00000E+00 0.00000E+00
 -1      1487 0.00000E+00 0.00000E+00 0.00000E+00 0.00000E+00 0.00000E+00 0.00000E+00
 -1      1488 0.00000E+00 0.00000E+00 0.00000E+00 0.00000E+00 0.00000E+00 0.00000E+00
 -1      1489 0.00000E+00 0.00000E+00 0.00000E+00 0.00000E+00 0.00000E+00 0.00000E+00
 -1      1490 0.00000E+00 0.00000E+00 0.00000E+00 0.00000E+00 0.00000E+00 0.00000E+00
 -1      1491 0.00000E+00 0.00000E+00 0.00000E+00 0.00000E+00 0.00000E+00 0.00000E+00
 -1      1492 0.00000E+00 0.00000E+00 0.00000E+00 0.00000E+00 0.00000E+00 0.00000E+00
 -1      1493 0.00000E+00 0.00000E+00 0.00000E+00 0.00000E+00 0.00000E+00 0.00000E+00
 -1      1494 0.00000E+00 0.00000E+00 0.00000E+00 0.00000E+00 0.00000E+00 0.00000E+00
 -1      1495 0.00000E+00 0.00000E+00 0.00000E+00 0.00000E+00 0.00000E+00 0.00000E+00
 -1      1496 0.00000E+00 0.00000E+00 0.00000E+00 0.00000E+00 0.00000E+00 0.00000E+00
 -1      1497 0.00000E+00 0.00000E+00 0.00000E+00 0.00000E+00 0.00000E+00 0.00000E+00
 -1      1498 0.00000E+00 0.00000E+00 0.00000E+00 0.00000E+00 0.00000E+00 0.00000E+00
 -1      1499 0.00000E+00 0.00000E+00 0.00000E+00 0.00000E+00 0.00000E+00 0.00000E+00
 -1      1500 0.00000E+00 0.00000E+00 0.00000E+00 0.00000E+00 0.00000E+00 0.00000E+00
 -1      1501 0.00000E+00 0.00000E+00 0.00000E+00 0.00000E+00 0.00000E+00 0.00000E+00
 -1      1502 0.00000E+00 0.00000E+00 0.00000E+00 0.00000E+00 0.00000E+00 0.00000E+00
 -1      1503 0.00000E+00 0.00000E+00 0.00000E+00 0.00000E+00 0.00000E+00 0.00000E+00
 -1      1504 0.00000E+00 0.00000E+00 0.00000E+00 0.00000E+00 0.00000E+00 0.00000E+00
 -1      1505 0.00000E+00 0.00000E+00 0.00000E+00 0.00000E+00 0.00000E+00 0.00000E+00
 -1      1506 0.00000E+00 0.00000E+00 0.00000E+00 0.00000E+00 0.00000E+00 0.00000E+00
 -1      1507 0.00000E+00 0.00000E+00 0.00000E+00 0.00000E+00 0.00000E+00 0.00000E+00
 -1      1508 0.00000E+00 0.00000E+00 0.00000E+00 0.00000E+00 0.00000E+00 0.00000E+00
 -1      1509 0.00000E+00 0.00000E+00 0.00000E+00 0.00000E+00 0.00000E+00 0.00000E+00
 -1      1510 0.00000E+00 0.00000E+00 0.00000E+00 0.00000E+00 0.00000E+00 0.00000E+00
 -1      1511 0.00000E+00 0.00000E+00 0.00000E+00 0.00000E+00 0.00000E+00 0.00000E+00
 -1      1512 0.00000E+00 0.00000E+00 0.00000E+00 0.00000E+00 0.00000E+00 0.00000E+00
 -1      1513 0.00000E+00 0.00000E+00 0.00000E+00 0.00000E+00 0.00000E+00 0.00000E+00
 -1      1514 0.00000E+00 0.00000E+00 0.00000E+00 0.00000E+00 0.00000E+00 0.00000E+00
 -1      1515 0.00000E+00 0.00000E+00 0.00000E+00 0.00000E+00 0.00000E+00 0.00000E+00
 -1      1516 0.00000E+00 0.00000E+00 0.00000E+00 0.00000E+00 0.00000E+00 0.00000E+00
 -1      1517 0.00000E+00 0.00000E+00 0.00000E+00 0.00000E+00 0.00000E+00 0.00000E+00
 -1      1518 0.00000E+00 0.00000E+00 0.00000E+00 0.00000E+00 0.00000E+00 0.00000E+00
 -1      1519 0.00000E+00 0.00000E+00 0.00000E+00 0.00000E+00 0.00000E+00 0.00000E+00
 -1      1520 0.00000E+00 0.00000E+00 0.00000E+00 0.00000E+00 0.00000E+00 0.00000E+00
 -1      1521 0.00000E+00 0.00000E+00 0.00000E+00 0.00000E+00 0.00000E+00 0.00000E+00
 -1      1522 0.00000E+00 0.00000E+00 0.00000E+00 0.00000E+00 0.00000E+00 0.00000E+00
 -1      1523 0.00000E+00 0.00000E+00 0.00000E+00 0.00000E+00 0.00000E+00 0.00000E+00
 -1      1524 0.00000E+00 0.00000E+00 0.00000E+00 0.00000E+00 0.00000E+00 0.00000E+00
 -1      1525 0.00000E+00 0.00000E+00 0.00000E+00 0.00000E+00 0.00000E+00 0.00000E+00
 -1      1526 0.00000E+00 0.00000E+00 0.00000E+00 0.00000E+00 0.00000E+00 0.00000E+00
 -1      1527 0.00000E+00 0.00000E+00 0.00000E+00 0.00000E+00 0.00000E+00 0.00000E+00
 -1      1528 0.00000E+00 0.00000E+00 0.00000E+00 0.00000E+00 0.00000E+00 0.00000E+00
 -1      1529 0.00000E+00 0.00000E+00 0.00000E+00 0.00000E+00 0.00000E+00 0.00000E+00
 -1      1530 0.00000E+00 0.00000E+00 0.00000E+00 0.00000E+00 0.00000E+00 0.00000E+00
 -1      1531 0.00000E+00 0.00000E+00 0.00000E+00 0.00000E+00 0.00000E+00 0.00000E+00
 -1      1532 0.00000E+00 0.00000E+00 0.00000E+00 0.00000E+00 0.00000E+00 0.00000E+00
 -1      1533 0.00000E+00 0.00000E+00 0.00000E+00 0.00000E+00 0.00000E+00 0.00000E+00
 -1      1534 0.00000E+00 0.00000E+00 0.00000E+00 0.00000E+00 0.00000E+00 0.00000E+00
 -1      1535 0.00000E+00 0.00000E+00 0.00000E+00 0.00000E+00 0.00000E+00 0.00000E+00
 -1      1536 0.00000E+00 0.00000E+00 0.00000E+00 0.00000E+00 0.00000E+00 0.00000E+00
 -1      1537 0.00000E+00 0.00000E+00 0.00000E+00 0.00000E+00 0.00000E+00 0.00000E+00
 -1      1538 0.00000E+00 0.00000E+00 0.00000E+00 0.00000E+00 0.00000E+00 0.00000E+00
 -1      1539 0.00000E+00 0.00000E+00 0.00000E+00 0.00000E+00 0.00000E+00 0.00000E+00
 -1      1540 0.00000E+00 0.00000E+00 0.00000E+00 0.00000E+00 0.00000E+00 0.00000E+00
 -1      1541 0.00000E+00 0.00000E+00 0.00000E+00 0.00000E+00 0.00000E+00 0.00000E+00
 -1      1542 0.00000E+00 0.00000E+00 0.00000E+00 0.00000E+00 0.00000E+00 0.00000E+00
 -1      1543 0.00000E+00 0.00000E+00 0.00000E+00 0.00000E+00 0.00000E+00 0.00000E+00
 -1      1544 0.00000E+00 0.00000E+00 0.00000E+00 0.00000E+00 0.00000E+00 0.00000E+00
 -1      1545 0.00000E+00 0.00000E+00 0.00000E+00 0.00000E+00 0.00000E+00 0.00000E+00
 -1      1546 0.00000E+00 0.00000E+00 0.00000E+00 0.00000E+00 0.00000E+00 0.00000E+00
 -1      1547 0.00000E+00 0.00000E+00 0.00000E+00 0.00000E+00 0.00000E+00 0.00000E+00
 -1      1548 0.00000E+00 0.00000E+00 0.00000E+00 0.00000E+00 0.00000E+00 0.00000E+00
 -1      1549 0.00000E+00 0.00000E+00 0.00000E+00 0.00000E+00 0.00000E+00 0.00000E+00
 -1      1550 0.00000E+00 0.00000E+00 0.00000E+00 0.00000E+00 0.00000E+00 0.00000E+00
 -1      1551 0.00000E+00 0.00000E+00 0.00000E+00 0.00000E+00 0.00000E+00 0.00000E+00
 -1      1552 0.00000E+00 0.00000E+00 0.00000E+00 0.00000E+00 0.00000E+00 0.00000E+00
 -1      1553 0.00000E+00 0.00000E+00 0.00000E+00 0.00000E+00 0.00000E+00 0.00000E+00
 -1      1554 0.00000E+00 0.00000E+00 0.00000E+00 0.00000E+00 0.00000E+00 0.00000E+00
 -1      1555 0.00000E+00 0.00000E+00 0.00000E+00 0.00000E+00 0.00000E+00 0.00000E+00
 -1      1556 0.00000E+00 0.00000E+00 0.00000E+00 0.00000E+00 0.00000E+00 0.00000E+00
 -1      1557 0.00000E+00 0.00000E+00 0.00000E+00 0.00000E+00 0.00000E+00 0.00000E+00
 -1      1558 0.00000E+00 0.00000E+00 0.00000E+00 0.00000E+00 0.00000E+00 0.00000E+00
 -1      1559 0.00000E+00 0.00000E+00 0.00000E+00 0.00000E+00 0.00000E+00 0.00000E+00
 -1      1560 0.00000E+00 0.00000E+00 0.00000E+00 0.00000E+00 0.00000E+00 0.00000E+00
 -1      1561 0.00000E+00 0.00000E+00 0.00000E+00 0.00000E+00 0.00000E+00 0.00000E+00
 -1      1562 0.00000E+00 0.00000E+00 0.00000E+00 0.00000E+00 0.00000E+00 0.00000E+00
 -1      1563 0.00000E+00 0.00000E+00 0.00000E+00 0.00000E+00 0.00000E+00 0.00000E+00
 -1      1564 0.00000E+00 0.00000E+00 0.00000E+00 0.00000E+00 0.00000E+00 0.00000E+00
 -1      1565 0.00000E+00 0.00000E+00 0.00000E+00 0.00000E+00 0.00000E+00 0.00000E+00
 -1      1566 0.00000E+00 0.00000E+00 0.00000E+00 0.00000E+00 0.00000E+00 0.00000E+00
 -1      1567 0.00000E+00 0.00000E+00 0.00000E+00 0.00000E+00 0.00000E+00 0.00000E+00
 -1      1568 0.00000E+00 0.00000E+00 0.00000E+00 0.00000E+00 0.00000E+00 0.00000E+00
 -1      1569 0.00000E+00 0.00000E+00 0.00000E+00 0.00000E+00 0.00000E+00 0.00000E+00
 -1      1570 0.00000E+00 0.00000E+00 0.00000E+00 0.00000E+00 0.00000E+00 0.00000E+00
 -1      1571 0.00000E+00 0.00000E+00 0.00000E+00 0.00000E+00 0.00000E+00 0.00000E+00
 -1      1572 0.00000E+00 0.00000E+00 0.00000E+00 0.00000E+00 0.00000E+00 0.00000E+00
 -1      1573 0.00000E+00 0.00000E+00 0.00000E+00 0.00000E+00 0.00000E+00 0.00000E+00
 -1      1574 0.00000E+00 0.00000E+00 0.00000E+00 0.00000E+00 0.00000E+00 0.00000E+00
 -1      1575 0.00000E+00 0.00000E+00 0.00000E+00 0.00000E+00 0.00000E+00 0.00000E+00
 -1      1576 0.00000E+00 0.00000E+00 0.00000E+00 0.00000E+00 0.00000E+00 0.00000E+00
 -1      1577 0.00000E+00 0.00000E+00 0.00000E+00 0.00000E+00 0.00000E+00 0.00000E+00
 -1      1578 0.00000E+00 0.00000E+00 0.00000E+00 0.00000E+00 0.00000E+00 0.00000E+00
 -1      1579 0.00000E+00 0.00000E+00 0.00000E+00 0.00000E+00 0.00000E+00 0.00000E+00
 -1      1580 0.00000E+00 0.00000E+00 0.00000E+00 0.00000E+00 0.00000E+00 0.00000E+00
 -1      1581 0.00000E+00 0.00000E+00 0.00000E+00 0.00000E+00 0.00000E+00 0.00000E+00
 -1      1582 0.00000E+00 0.00000E+00 0.00000E+00 0.00000E+00 0.00000E+00 0.00000E+00
 -1      1583 0.00000E+00 0.00000E+00 0.00000E+00 0.00000E+00 0.00000E+00 0.00000E+00
 -1      1584 0.00000E+00 0.00000E+00 0.00000E+00 0.00000E+00 0.00000E+00 0.00000E+00
 -1      1585 0.00000E+00 0.00000E+00 0.00000E+00 0.00000E+00 0.00000E+00 0.00000E+00
 -1      1586 0.00000E+00 0.00000E+00 0.00000E+00 0.00000E+00 0.00000E+00 0.00000E+00
 -1      1587 0.00000E+00 0.00000E+00 0.00000E+00 0.00000E+00 0.00000E+00 0.00000E+00
 -1      1588 0.00000E+00 0.00000E+00 0.00000E+00 0.00000E+00 0.00000E+00 0.00000E+00
 -1      1589 0.00000E+00 0.00000E+00 0.00000E+00 0.00000E+00 0.00000E+00 0.00000E+00
 -1      1590 0.00000E+00 0.00000E+00 0.00000E+00 0.00000E+00 0.00000E+00 0.00000E+00
 -1      1591 0.00000E+00 0.00000E+00 0.00000E+00 0.00000E+00 0.00000E+00 0.00000E+00
 -1      1592 0.00000E+00 0.00000E+00 0.00000E+00 0.00000E+00 0.00000E+00 0.00000E+00
 -1      1593 0.00000E+00 0.00000E+00 0.00000E+00 0.00000E+00 0.00000E+00 0.00000E+00
 -1      1594 0.00000E+00 0.00000E+00 0.00000E+00 0.00000E+00 0.00000E+00 0.00000E+00
 -1      1595 0.00000E+00 0.00000E+00 0.00000E+00 0.00000E+00 0.00000E+00 0.00000E+00
 -1      1596 0.00000E+00 0.00000E+00 0.00000E+00 0.00000E+00 0.00000E+00 0.00000E+00
 -1      1597 0.00000E+00 0.00000E+00 0.00000E+00 0.00000E+00 0.00000E+00 0.00000E+00
 -1      1598 0.00000E+00 0.00000E+00 0.00000E+00 0.00000E+00 0.00000E+00 0.00000E+00
 -1      1599 0.00000E+00 0.00000E+00 0.00000E+00 0.00000E+00 0.00000E+00 0.00000E+00
 -1      1600 0.00000E+00 0.00000E+00 0.00000E+00 0.00000E+00 0.00000E+00 0.00000E+00
 -1      1601 0.00000E+00 0.00000E+00 0.00000E+00 0.00000E+00 0.00000E+00 0.00000E+00
 -1      1602 0.00000E+00 0.00000E+00 0.00000E+00 0.00000E+00 0.00000E+00 0.00000E+00
 -1      1603 0.00000E+00 0.00000E+00 0.00000E+00 0.00000E+00 0.00000E+00 0.00000E+00
 -1      1604 0.00000E+00 0.00000E+00 0.00000E+00 0.00000E+00 0.00000E+00 0.00000E+00
 -1      1605 0.00000E+00 0.00000E+00 0.00000E+00 0.00000E+00 0.00000E+00 0.00000E+00
 -1      1606 0.00000E+00 0.00000E+00 0.00000E+00 0.00000E+00 0.00000E+00 0.00000E+00
 -1      1607 0.00000E+00 0.00000E+00 0.00000E+00 0.00000E+00 0.00000E+00 0.00000E+00
 -1      1608 0.00000E+00 0.00000E+00 0.00000E+00 0.00000E+00 0.00000E+00 0.00000E+00
 -1      1609 0.00000E+00 0.00000E+00 0.00000E+00 0.00000E+00 0.00000E+00 0.00000E+00
 -1      1610 0.00000E+00 0.00000E+00 0.00000E+00 0.00000E+00 0.00000E+00 0.00000E+00
 -1      1611 0.00000E+00 0.00000E+00 0.00000E+00 0.00000E+00 0.00000E+00 0.00000E+00
 -1      1612 0.00000E+00 0.00000E+00 0.00000E+00 0.00000E+00 0.00000E+00 0.00000E+00
 -1      1613 0.00000E+00 0.00000E+00 0.00000E+00 0.00000E+00 0.00000E+00 0.00000E+00
 -1      1614 0.00000E+00 0.00000E+00 0.00000E+00 0.00000E+00 0.00000E+00 0.00000E+00
 -1      1615 0.00000E+00 0.00000E+00 0.00000E+00 0.00000E+00 0.00000E+00 0.00000E+00
 -1      1616 0.00000E+00 0.00000E+00 0.00000E+00 0.00000E+00 0.00000E+00 0.00000E+00
 -1      1617 0.00000E+00 0.00000E+00 0.00000E+00 0.00000E+00 0.00000E+00 0.00000E+00
 -1      1618 0.00000E+00 0.00000E+00 0.00000E+00 0.00000E+00 0.00000E+00 0.00000E+00
 -1      1619 0.00000E+00 0.00000E+00 0.00000E+00 0.00000E+00 0.00000E+00 0.00000E+00
 -1      1620 0.00000E+00 0.00000E+00 0.00000E+00 0.00000E+00 0.00000E+00 0.00000E+00
 -1      1621 0.00000E+00 0.00000E+00 0.00000E+00 0.00000E+00 0.00000E+00 0.00000E+00
 -1      1622 0.00000E+00 0.00000E+00 0.00000E+00 0.00000E+00 0.00000E+00 0.00000E+00
 -1      1623 0.00000E+00 0.00000E+00 0.00000E+00 0.00000E+00 0.00000E+00 0.00000E+00
 -1      1624 0.00000E+00 0.00000E+00 0.00000E+00 0.00000E+00 0.00000E+00 0.00000E+00
 -1      1625 0.00000E+00 0.00000E+00 0.00000E+00 0.00000E+00 0.00000E+00 0.00000E+00
 -1      1626 0.00000E+00 0.00000E+00 0.00000E+00 0.00000E+00 0.00000E+00 0.00000E+00
 -1      1627 0.00000E+00 0.00000E+00 0.00000E+00 0.00000E+00 0.00000E+00 0.00000E+00
 -1      1628 0.00000E+00 0.00000E+00 0.00000E+00 0.00000E+00 0.00000E+00 0.00000E+00
 -1      1629 0.00000E+00 0.00000E+00 0.00000E+00 0.00000E+00 0.00000E+00 0.00000E+00
 -1      1630 0.00000E+00 0.00000E+00 0.00000E+00 0.00000E+00 0.00000E+00 0.00000E+00
 -1      1631 0.00000E+00 0.00000E+00 0.00000E+00 0.00000E+00 0.00000E+00 0.00000E+00
 -1      1632 0.00000E+00 0.00000E+00 0.00000E+00 0.00000E+00 0.00000E+00 0.00000E+00
 -1      1633 0.00000E+00 0.00000E+00 0.00000E+00 0.00000E+00 0.00000E+00 0.00000E+00
 -1      1634 0.00000E+00 0.00000E+00 0.00000E+00 0.00000E+00 0.00000E+00 0.00000E+00
 -1      1635 0.00000E+00 0.00000E+00 0.00000E+00 0.00000E+00 0.00000E+00 0.00000E+00
 -1      1636 0.00000E+00 0.00000E+00 0.00000E+00 0.00000E+00 0.00000E+00 0.00000E+00
 -1      1637 0.00000E+00 0.00000E+00 0.00000E+00 0.00000E+00 0.00000E+00 0.00000E+00
 -1      1638 0.00000E+00 0.00000E+00 0.00000E+00 0.00000E+00 0.00000E+00 0.00000E+00
 -1      1639 0.00000E+00 0.00000E+00 0.00000E+00 0.00000E+00 0.00000E+00 0.00000E+00
 -1      1640 0.00000E+00 0.00000E+00 0.00000E+00 0.00000E+00 0.00000E+00 0.00000E+00
 -1      1641 0.00000E+00 0.00000E+00 0.00000E+00 0.00000E+00 0.00000E+00 0.00000E+00
 -1      1642 0.00000E+00 0.00000E+00 0.00000E+00 0.00000E+00 0.00000E+00 0.00000E+00
 -1      1643 0.00000E+00 0.00000E+00 0.00000E+00 0.00000E+00 0.00000E+00 0.00000E+00
 -1      1644 0.00000E+00 0.00000E+00 0.00000E+00 0.00000E+00 0.00000E+00 0.00000E+00
 -1      1645 0.00000E+00 0.00000E+00 0.00000E+00 0.00000E+00 0.00000E+00 0.00000E+00
 -1      1646 0.00000E+00 0.00000E+00 0.00000E+00 0.00000E+00 0.00000E+00 0.00000E+00
 -1      1647 0.00000E+00 0.00000E+00 0.00000E+00 0.00000E+00 0.00000E+00 0.00000E+00
 -1      1648 0.00000E+00 0.00000E+00 0.00000E+00 0.00000E+00 0.00000E+00 0.00000E+00
 -1      1649 0.00000E+00 0.00000E+00 0.00000E+00 0.00000E+00 0.00000E+00 0.00000E+00
 -1      1650 0.00000E+00 0.00000E+00 0.00000E+00 0.00000E+00 0.00000E+00 0.00000E+00
 -1      1651 0.00000E+00 0.00000E+00 0.00000E+00 0.00000E+00 0.00000E+00 0.00000E+00
 -1      1652 0.00000E+00 0.00000E+00 0.00000E+00 0.00000E+00 0.00000E+00 0.00000E+00
 -1      1653 0.00000E+00 0.00000E+00 0.00000E+00 0.00000E+00 0.00000E+00 0.00000E+00
 -1      1654 0.00000E+00 0.00000E+00 0.00000E+00 0.00000E+00 0.00000E+00 0.00000E+00
 -1      1655 0.00000E+00 0.00000E+00 0.00000E+00 0.00000E+00 0.00000E+00 0.00000E+00
 -1      1656 0.00000E+00 0.00000E+00 0.00000E+00 0.00000E+00 0.00000E+00 0.00000E+00
 -1      1657 0.00000E+00 0.00000E+00 0.00000E+00 0.00000E+00 0.00000E+00 0.00000E+00
 -1      1658 0.00000E+00 0.00000E+00 0.00000E+00 0.00000E+00 0.00000E+00 0.00000E+00
 -1      1659 0.00000E+00 0.00000E+00 0.00000E+00 0.00000E+00 0.00000E+00 0.00000E+00
 -1      1660 0.00000E+00 0.00000E+00 0.00000E+00 0.00000E+00 0.00000E+00 0.00000E+00
 -1      1661 0.00000E+00 0.00000E+00 0.00000E+00 0.00000E+00 0.00000E+00 0.00000E+00
 -1      1662 0.00000E+00 0.00000E+00 0.00000E+00 0.00000E+00 0.00000E+00 0.00000E+00
 -1      1663 0.00000E+00 0.00000E+00 0.00000E+00 0.00000E+00 0.00000E+00 0.00000E+00
 -1      1664 0.00000E+00 0.00000E+00 0.00000E+00 0.00000E+00 0.00000E+00 0.00000E+00
 -1      1665 0.00000E+00 0.00000E+00 0.00000E+00 0.00000E+00 0.00000E+00 0.00000E+00
 -1      1666 0.00000E+00 0.00000E+00 0.00000E+00 0.00000E+00 0.00000E+00 0.00000E+00
 -1      1667 0.00000E+00 0.00000E+00 0.00000E+00 0.00000E+00 0.00000E+00 0.00000E+00
 -1      1668 0.00000E+00 0.00000E+00 0.00000E+00 0.00000E+00 0.00000E+00 0.00000E+00
 -1      1669 0.00000E+00 0.00000E+00 0.00000E+00 0.00000E+00 0.00000E+00 0.00000E+00
 -1      1670 0.00000E+00 0.00000E+00 0.00000E+00 0.00000E+00 0.00000E+00 0.00000E+00
 -1      1671 0.00000E+00 0.00000E+00 0.00000E+00 0.00000E+00 0.00000E+00 0.00000E+00
 -1      1672 0.00000E+00 0.00000E+00 0.00000E+00 0.00000E+00 0.00000E+00 0.00000E+00
 -1      1673 0.00000E+00 0.00000E+00 0.00000E+00 0.00000E+00 0.00000E+00 0.00000E+00
 -1      1674 0.00000E+00 0.00000E+00 0.00000E+00 0.00000E+00 0.00000E+00 0.00000E+00
 -1      1675 0.00000E+00 0.00000E+00 0.00000E+00 0.00000E+00 0.00000E+00 0.00000E+00
 -1      1676 0.00000E+00 0.00000E+00 0.00000E+00 0.00000E+00 0.00000E+00 0.00000E+00
 -1      1677 0.00000E+00 0.00000E+00 0.00000E+00 0.00000E+00 0.00000E+00 0.00000E+00
 -1      1678 0.00000E+00 0.00000E+00 0.00000E+00 0.00000E+00 0.00000E+00 0.00000E+00
 -1      1679 0.00000E+00 0.00000E+00 0.00000E+00 0.00000E+00 0.00000E+00 0.00000E+00
 -1      1680 0.00000E+00 0.00000E+00 0.00000E+00 0.00000E+00 0.00000E+00 0.00000E+00
 -1      1681 0.00000E+00 0.00000E+00 0.00000E+00 0.00000E+00 0.00000E+00 0.00000E+00
 -1      1682 0.00000E+00 0.00000E+00 0.00000E+00 0.00000E+00 0.00000E+00 0.00000E+00
 -1      1683 0.00000E+00 0.00000E+00 0.00000E+00 0.00000E+00 0.00000E+00 0.00000E+00
 -1      1684 0.00000E+00 0.00000E+00 0.00000E+00 0.00000E+00 0.00000E+00 0.00000E+00
 -1      1685 0.00000E+00 0.00000E+00 0.00000E+00 0.00000E+00 0.00000E+00 0.00000E+00
 -1      1686 0.00000E+00 0.00000E+00 0.00000E+00 0.00000E+00 0.00000E+00 0.00000E+00
 -1      1687 0.00000E+00 0.00000E+00 0.00000E+00 0.00000E+00 0.00000E+00 0.00000E+00
 -1      1688 0.00000E+00 0.00000E+00 0.00000E+00 0.00000E+00 0.00000E+00 0.00000E+00
 -1      1689 0.00000E+00 0.00000E+00 0.00000E+00 0.00000E+00 0.00000E+00 0.00000E+00
 -1      1690 0.00000E+00 0.00000E+00 0.00000E+00 0.00000E+00 0.00000E+00 0.00000E+00
 -1      1691 0.00000E+00 0.00000E+00 0.00000E+00 0.00000E+00 0.00000E+00 0.00000E+00
 -1      1692 0.00000E+00 0.00000E+00 0.00000E+00 0.00000E+00 0.00000E+00 0.00000E+00
 -1      1693 0.00000E+00 0.00000E+00 0.00000E+00 0.00000E+00 0.00000E+00 0.00000E+00
 -1      1694 0.00000E+00 0.00000E+00 0.00000E+00 0.00000E+00 0.00000E+00 0.00000E+00
 -1      1695 0.00000E+00 0.00000E+00 0.00000E+00 0.00000E+00 0.00000E+00 0.00000E+00
 -1      1696 0.00000E+00 0.00000E+00 0.00000E+00 0.00000E+00 0.00000E+00 0.00000E+00
 -1      1697 0.00000E+00 0.00000E+00 0.00000E+00 0.00000E+00 0.00000E+00 0.00000E+00
 -1      1698 0.00000E+00 0.00000E+00 0.00000E+00 0.00000E+00 0.00000E+00 0.00000E+00
 -1      1699 0.00000E+00 0.00000E+00 0.00000E+00 0.00000E+00 0.00000E+00 0.00000E+00
 -1      1700 0.00000E+00 0.00000E+00 0.00000E+00 0.00000E+00 0.00000E+00 0.00000E+00
 -1      1701 0.00000E+00 0.00000E+00 0.00000E+00 0.00000E+00 0.00000E+00 0.00000E+00
 -1      1702 0.00000E+00 0.00000E+00 0.00000E+00 0.00000E+00 0.00000E+00 0.00000E+00
 -1      1703 0.00000E+00 0.00000E+00 0.00000E+00 0.00000E+00 0.00000E+00 0.00000E+00
 -1      1704 0.00000E+00 0.00000E+00 0.00000E+00 0.00000E+00 0.00000E+00 0.00000E+00
 -1      1705 0.00000E+00 0.00000E+00 0.00000E+00 0.00000E+00 0.00000E+00 0.00000E+00
 -1      1706 0.00000E+00 0.00000E+00 0.00000E+00 0.00000E+00 0.00000E+00 0.00000E+00
 -1      1707 0.00000E+00 0.00000E+00 0.00000E+00 0.00000E+00 0.00000E+00 0.00000E+00
 -1      1708 0.00000E+00 0.00000E+00 0.00000E+00 0.00000E+00 0.00000E+00 0.00000E+00
 -1      1709 0.00000E+00 0.00000E+00 0.00000E+00 0.00000E+00 0.00000E+00 0.00000E+00
 -1      1710 0.00000E+00 0.00000E+00 0.00000E+00 0.00000E+00 0.00000E+00 0.00000E+00
 -1      1711 0.00000E+00 0.00000E+00 0.00000E+00 0.00000E+00 0.00000E+00 0.00000E+00
 -1      1712 0.00000E+00 0.00000E+00 0.00000E+00 0.00000E+00 0.00000E+00 0.00000E+00
 -1      1713 0.00000E+00 0.00000E+00 0.00000E+00 0.00000E+00 0.00000E+00 0.00000E+00
 -1      1714 0.00000E+00 0.00000E+00 0.00000E+00 0.00000E+00 0.00000E+00 0.00000E+00
 -1      1715 0.00000E+00 0.00000E+00 0.00000E+00 0.00000E+00 0.00000E+00 0.00000E+00
 -1      1716 0.00000E+00 0.00000E+00 0.00000E+00 0.00000E+00 0.00000E+00 0.00000E+00
 -1      1717 0.00000E+00 0.00000E+00 0.00000E+00 0.00000E+00 0.00000E+00 0.00000E+00
 -1      1718 0.00000E+00 0.00000E+00 0.00000E+00 0.00000E+00 0.00000E+00 0.00000E+00
 -1      1719 0.00000E+00 0.00000E+00 0.00000E+00 0.00000E+00 0.00000E+00 0.00000E+00
 -1      1720 0.00000E+00 0.00000E+00 0.00000E+00 0.00000E+00 0.00000E+00 0.00000E+00
 -1      1721 0.00000E+00 0.00000E+00 0.00000E+00 0.00000E+00 0.00000E+00 0.00000E+00
 -1      1722 0.00000E+00 0.00000E+00 0.00000E+00 0.00000E+00 0.00000E+00 0.00000E+00
 -1      1723 0.00000E+00 0.00000E+00 0.00000E+00 0.00000E+00 0.00000E+00 0.00000E+00
 -1      1724 0.00000E+00 0.00000E+00 0.00000E+00 0.00000E+00 0.00000E+00 0.00000E+00
 -1      1725 0.00000E+00 0.00000E+00 0.00000E+00 0.00000E+00 0.00000E+00 0.00000E+00
 -1      1726 0.00000E+00 0.00000E+00 0.00000E+00 0.00000E+00 0.00000E+00 0.00000E+00
 -1      1727 0.00000E+00 0.00000E+00 0.00000E+00 0.00000E+00 0.00000E+00 0.00000E+00
 -1      1728 0.00000E+00 0.00000E+00 0.00000E+00 0.00000E+00 0.00000E+00 0.00000E+00
 -1      1729 0.00000E+00 0.00000E+00 0.00000E+00 0.00000E+00 0.00000E+00 0.00000E+00
 -1      1730 0.00000E+00 0.00000E+00 0.00000E+00 0.00000E+00 0.00000E+00 0.00000E+00
 -1      1731 0.00000E+00 0.00000E+00 0.00000E+00 0.00000E+00 0.00000E+00 0.00000E+00
 -1      1732 0.00000E+00 0.00000E+00 0.00000E+00 0.00000E+00 0.00000E+00 0.00000E+00
 -1      1733 0.00000E+00 0.00000E+00 0.00000E+00 0.00000E+00 0.00000E+00 0.00000E+00
 -1      1734 0.00000E+00 0.00000E+00 0.00000E+00 0.00000E+00 0.00000E+00 0.00000E+00
 -1      1735 0.00000E+00 0.00000E+00 0.00000E+00 0.00000E+00 0.00000E+00 0.00000E+00
 -1      1736 0.00000E+00 0.00000E+00 0.00000E+00 0.00000E+00 0.00000E+00 0.00000E+00
 -1      1737 0.00000E+00 0.00000E+00 0.00000E+00 0.00000E+00 0.00000E+00 0.00000E+00
 -1      1738 0.00000E+00 0.00000E+00 0.00000E+00 0.00000E+00 0.00000E+00 0.00000E+00
 -1      1739 0.00000E+00 0.00000E+00 0.00000E+00 0.00000E+00 0.00000E+00 0.00000E+00
 -1      1740 0.00000E+00 0.00000E+00 0.00000E+00 0.00000E+00 0.00000E+00 0.00000E+00
 -1      1741 0.00000E+00 0.00000E+00 0.00000E+00 0.00000E+00 0.00000E+00 0.00000E+00
 -1      1742 0.00000E+00 0.00000E+00 0.00000E+00 0.00000E+00 0.00000E+00 0.00000E+00
 -1      1743 0.00000E+00 0.00000E+00 0.00000E+00 0.00000E+00 0.00000E+00 0.00000E+00
 -1      1744 0.00000E+00 0.00000E+00 0.00000E+00 0.00000E+00 0.00000E+00 0.00000E+00
 -1      1745 0.00000E+00 0.00000E+00 0.00000E+00 0.00000E+00 0.00000E+00 0.00000E+00
 -1      1746 0.00000E+00 0.00000E+00 0.00000E+00 0.00000E+00 0.00000E+00 0.00000E+00
 -1      1747 0.00000E+00 0.00000E+00 0.00000E+00 0.00000E+00 0.00000E+00 0.00000E+00
 -1      1748 0.00000E+00 0.00000E+00 0.00000E+00 0.00000E+00 0.00000E+00 0.00000E+00
 -1      1749 0.00000E+00 0.00000E+00 0.00000E+00 0.00000E+00 0.00000E+00 0.00000E+00
 -1      1750 0.00000E+00 0.00000E+00 0.00000E+00 0.00000E+00 0.00000E+00 0.00000E+00
 -1      1751 0.00000E+00 0.00000E+00 0.00000E+00 0.00000E+00 0.00000E+00 0.00000E+00
 -1      1752 0.00000E+00 0.00000E+00 0.00000E+00 0.00000E+00 0.00000E+00 0.00000E+00
 -1      1753 0.00000E+00 0.00000E+00 0.00000E+00 0.00000E+00 0.00000E+00 0.00000E+00
 -1      1754 0.00000E+00 0.00000E+00 0.00000E+00 0.00000E+00 0.00000E+00 0.00000E+00
 -1      1755 0.00000E+00 0.00000E+00 0.00000E+00 0.00000E+00 0.00000E+00 0.00000E+00
 -1      1756 0.00000E+00 0.00000E+00 0.00000E+00 0.00000E+00 0.00000E+00 0.00000E+00
 -1      1757 0.00000E+00 0.00000E+00 0.00000E+00 0.00000E+00 0.00000E+00 0.00000E+00
 -1      1758 0.00000E+00 0.00000E+00 0.00000E+00 0.00000E+00 0.00000E+00 0.00000E+00
 -1      1759 0.00000E+00 0.00000E+00 0.00000E+00 0.00000E+00 0.00000E+00 0.00000E+00
 -1      1760 0.00000E+00 0.00000E+00 0.00000E+00 0.00000E+00 0.00000E+00 0.00000E+00
 -1      1761 0.00000E+00 0.00000E+00 0.00000E+00 0.00000E+00 0.00000E+00 0.00000E+00
 -1      1762 0.00000E+00 0.00000E+00 0.00000E+00 0.00000E+00 0.00000E+00 0.00000E+00
 -1      1763 0.00000E+00 0.00000E+00 0.00000E+00 0.00000E+00 0.00000E+00 0.00000E+00
 -1      1764 0.00000E+00 0.00000E+00 0.00000E+00 0.00000E+00 0.00000E+00 0.00000E+00
 -1      1765 0.00000E+00 0.00000E+00 0.00000E+00 0.00000E+00 0.00000E+00 0.00000E+00
 -1      1766 0.00000E+00 0.00000E+00 0.00000E+00 0.00000E+00 0.00000E+00 0.00000E+00
 -1      1767 0.00000E+00 0.00000E+00 0.00000E+00 0.00000E+00 0.00000E+00 0.00000E+00
 -1      1768 0.00000E+00 0.00000E+00 0.00000E+00 0.00000E+00 0.00000E+00 0.00000E+00
 -1      1769 0.00000E+00 0.00000E+00 0.00000E+00 0.00000E+00 0.00000E+00 0.00000E+00
 -1      1770 0.00000E+00 0.00000E+00 0.00000E+00 0.00000E+00 0.00000E+00 0.00000E+00
 -1      1771 0.00000E+00 0.00000E+00 0.00000E+00 0.00000E+00 0.00000E+00 0.00000E+00
 -1      1772 0.00000E+00 0.00000E+00 0.00000E+00 0.00000E+00 0.00000E+00 0.00000E+00
 -1      1773 0.00000E+00 0.00000E+00 0.00000E+00 0.00000E+00 0.00000E+00 0.00000E+00
 -1      1774 0.00000E+00 0.00000E+00 0.00000E+00 0.00000E+00 0.00000E+00 0.00000E+00
 -1      1775 0.00000E+00 0.00000E+00 0.00000E+00 0.00000E+00 0.00000E+00 0.00000E+00
 -1      1776 0.00000E+00 0.00000E+00 0.00000E+00 0.00000E+00 0.00000E+00 0.00000E+00
 -1      1777 0.00000E+00 0.00000E+00 0.00000E+00 0.00000E+00 0.00000E+00 0.00000E+00
 -1      1778 0.00000E+00 0.00000E+00 0.00000E+00 0.00000E+00 0.00000E+00 0.00000E+00
 -1      1779 0.00000E+00 0.00000E+00 0.00000E+00 0.00000E+00 0.00000E+00 0.00000E+00
 -1      1780 0.00000E+00 0.00000E+00 0.00000E+00 0.00000E+00 0.00000E+00 0.00000E+00
 -1      1781 0.00000E+00 0.00000E+00 0.00000E+00 0.00000E+00 0.00000E+00 0.00000E+00
 -1      1782 0.00000E+00 0.00000E+00 0.00000E+00 0.00000E+00 0.00000E+00 0.00000E+00
 -1      1783 0.00000E+00 0.00000E+00 0.00000E+00 0.00000E+00 0.00000E+00 0.00000E+00
 -1      1784 0.00000E+00 0.00000E+00 0.00000E+00 0.00000E+00 0.00000E+00 0.00000E+00
 -1      1785 0.00000E+00 0.00000E+00 0.00000E+00 0.00000E+00 0.00000E+00 0.00000E+00
 -1      1786 0.00000E+00 0.00000E+00 0.00000E+00 0.00000E+00 0.00000E+00 0.00000E+00
 -1      1787 0.00000E+00 0.00000E+00 0.00000E+00 0.00000E+00 0.00000E+00 0.00000E+00
 -1      1788 0.00000E+00 0.00000E+00 0.00000E+00 0.00000E+00 0.00000E+00 0.00000E+00
 -1      1789 0.00000E+00 0.00000E+00 0.00000E+00 0.00000E+00 0.00000E+00 0.00000E+00
 -1      1790 0.00000E+00 0.00000E+00 0.00000E+00 0.00000E+00 0.00000E+00 0.00000E+00
 -1      1791 0.00000E+00 0.00000E+00 0.00000E+00 0.00000E+00 0.00000E+00 0.00000E+00
 -1      1792 0.00000E+00 0.00000E+00 0.00000E+00 0.00000E+00 0.00000E+00 0.00000E+00
 -1      1793 0.00000E+00 0.00000E+00 0.00000E+00 0.00000E+00 0.00000E+00 0.00000E+00
 -1      1794 0.00000E+00 0.00000E+00 0.00000E+00 0.00000E+00 0.00000E+00 0.00000E+00
 -1      1795 0.00000E+00 0.00000E+00 0.00000E+00 0.00000E+00 0.00000E+00 0.00000E+00
 -1      1796 0.00000E+00 0.00000E+00 0.00000E+00 0.00000E+00 0.00000E+00 0.00000E+00
 -1      1797 0.00000E+00 0.00000E+00 0.00000E+00 0.00000E+00 0.00000E+00 0.00000E+00
 -1      1798 0.00000E+00 0.00000E+00 0.00000E+00 0.00000E+00 0.00000E+00 0.00000E+00
 -1      1799 0.00000E+00 0.00000E+00 0.00000E+00 0.00000E+00 0.00000E+00 0.00000E+00
 -1      1800 0.00000E+00 0.00000E+00 0.00000E+00 0.00000E+00 0.00000E+00 0.00000E+00
 -1      1801 0.00000E+00 0.00000E+00 0.00000E+00 0.00000E+00 0.00000E+00 0.00000E+00
 -1      1802 0.00000E+00 0.00000E+00 0.00000E+00 0.00000E+00 0.00000E+00 0.00000E+00
 -1      1803 0.00000E+00 0.00000E+00 0.00000E+00 0.00000E+00 0.00000E+00 0.00000E+00
 -1      1804 0.00000E+00 0.00000E+00 0.00000E+00 0.00000E+00 0.00000E+00 0.00000E+00
 -1      1805 0.00000E+00 0.00000E+00 0.00000E+00 0.00000E+00 0.00000E+00 0.00000E+00
 -1      1806 0.00000E+00 0.00000E+00 0.00000E+00 0.00000E+00 0.00000E+00 0.00000E+00
 -1      1807 0.00000E+00 0.00000E+00 0.00000E+00 0.00000E+00 0.00000E+00 0.00000E+00
 -1      1808 0.00000E+00 0.00000E+00 0.00000E+00 0.00000E+00 0.00000E+00 0.00000E+00
 -1      1809 0.00000E+00 0.00000E+00 0.00000E+00 0.00000E+00 0.00000E+00 0.00000E+00
 -1      1810 0.00000E+00 0.00000E+00 0.00000E+00 0.00000E+00 0.00000E+00 0.00000E+00
 -1      1811 0.00000E+00 0.00000E+00 0.00000E+00 0.00000E+00 0.00000E+00 0.00000E+00
 -1      1812 0.00000E+00 0.00000E+00 0.00000E+00 0.00000E+00 0.00000E+00 0.00000E+00
 -1      1813 0.00000E+00 0.00000E+00 0.00000E+00 0.00000E+00 0.00000E+00 0.00000E+00
 -1      1814 0.00000E+00 0.00000E+00 0.00000E+00 0.00000E+00 0.00000E+00 0.00000E+00
 -1      1815 0.00000E+00 0.00000E+00 0.00000E+00 0.00000E+00 0.00000E+00 0.00000E+00
 -1      1816 0.00000E+00 0.00000E+00 0.00000E+00 0.00000E+00 0.00000E+00 0.00000E+00
 -1      1817 0.00000E+00 0.00000E+00 0.00000E+00 0.00000E+00 0.00000E+00 0.00000E+00
 -1      1818 0.00000E+00 0.00000E+00 0.00000E+00 0.00000E+00 0.00000E+00 0.00000E+00
 -1      1819 0.00000E+00 0.00000E+00 0.00000E+00 0.00000E+00 0.00000E+00 0.00000E+00
 -1      1820 0.00000E+00 0.00000E+00 0.00000E+00 0.00000E+00 0.00000E+00 0.00000E+00
 -1      1821 0.00000E+00 0.00000E+00 0.00000E+00 0.00000E+00 0.00000E+00 0.00000E+00
 -1      1822 0.00000E+00 0.00000E+00 0.00000E+00 0.00000E+00 0.00000E+00 0.00000E+00
 -1      1823 0.00000E+00 0.00000E+00 0.00000E+00 0.00000E+00 0.00000E+00 0.00000E+00
 -1      1824 0.00000E+00 0.00000E+00 0.00000E+00 0.00000E+00 0.00000E+00 0.00000E+00
 -1      1825 0.00000E+00 0.00000E+00 0.00000E+00 0.00000E+00 0.00000E+00 0.00000E+00
 -1      1826 0.00000E+00 0.00000E+00 0.00000E+00 0.00000E+00 0.00000E+00 0.00000E+00
 -1      1827 0.00000E+00 0.00000E+00 0.00000E+00 0.00000E+00 0.00000E+00 0.00000E+00
 -1      1828 0.00000E+00 0.00000E+00 0.00000E+00 0.00000E+00 0.00000E+00 0.00000E+00
 -1      1829 0.00000E+00 0.00000E+00 0.00000E+00 0.00000E+00 0.00000E+00 0.00000E+00
 -1      1830 0.00000E+00 0.00000E+00 0.00000E+00 0.00000E+00 0.00000E+00 0.00000E+00
 -1      1831 0.00000E+00 0.00000E+00 0.00000E+00 0.00000E+00 0.00000E+00 0.00000E+00
 -1      1832 0.00000E+00 0.00000E+00 0.00000E+00 0.00000E+00 0.00000E+00 0.00000E+00
 -1      1833 0.00000E+00 0.00000E+00 0.00000E+00 0.00000E+00 0.00000E+00 0.00000E+00
 -1      1834 0.00000E+00 0.00000E+00 0.00000E+00 0.00000E+00 0.00000E+00 0.00000E+00
 -1      1835 0.00000E+00 0.00000E+00 0.00000E+00 0.00000E+00 0.00000E+00 0.00000E+00
 -1      1836 0.00000E+00 0.00000E+00 0.00000E+00 0.00000E+00 0.00000E+00 0.00000E+00
 -1      1837 0.00000E+00 0.00000E+00 0.00000E+00 0.00000E+00 0.00000E+00 0.00000E+00
 -1      1838 0.00000E+00 0.00000E+00 0.00000E+00 0.00000E+00 0.00000E+00 0.00000E+00
 -1      1839 0.00000E+00 0.00000E+00 0.00000E+00 0.00000E+00 0.00000E+00 0.00000E+00
 -1      1840 0.00000E+00 0.00000E+00 0.00000E+00 0.00000E+00 0.00000E+00 0.00000E+00
 -1      1841 0.00000E+00 0.00000E+00 0.00000E+00 0.00000E+00 0.00000E+00 0.00000E+00
 -1      1842 0.00000E+00 0.00000E+00 0.00000E+00 0.00000E+00 0.00000E+00 0.00000E+00
 -1      1843 0.00000E+00 0.00000E+00 0.00000E+00 0.00000E+00 0.00000E+00 0.00000E+00
 -1      1844 0.00000E+00 0.00000E+00 0.00000E+00 0.00000E+00 0.00000E+00 0.00000E+00
 -1      1845 0.00000E+00 0.00000E+00 0.00000E+00 0.00000E+00 0.00000E+00 0.00000E+00
 -1      1846 0.00000E+00 0.00000E+00 0.00000E+00 0.00000E+00 0.00000E+00 0.00000E+00
 -1      1847 0.00000E+00 0.00000E+00 0.00000E+00 0.00000E+00 0.00000E+00 0.00000E+00
 -1      1848 0.00000E+00 0.00000E+00 0.00000E+00 0.00000E+00 0.00000E+00 0.00000E+00
 -1      1849 0.00000E+00 0.00000E+00 0.00000E+00 0.00000E+00 0.00000E+00 0.00000E+00
 -1      1850 0.00000E+00 0.00000E+00 0.00000E+00 0.00000E+00 0.00000E+00 0.00000E+00
 -1      1851 0.00000E+00 0.00000E+00 0.00000E+00 0.00000E+00 0.00000E+00 0.00000E+00
 -1      1852 0.00000E+00 0.00000E+00 0.00000E+00 0.00000E+00 0.00000E+00 0.00000E+00
 -1      1853 0.00000E+00 0.00000E+00 0.00000E+00 0.00000E+00 0.00000E+00 0.00000E+00
 -1      1854 0.00000E+00 0.00000E+00 0.00000E+00 0.00000E+00 0.00000E+00 0.00000E+00
 -1      1855 0.00000E+00 0.00000E+00 0.00000E+00 0.00000E+00 0.00000E+00 0.00000E+00
 -1      1856 0.00000E+00 0.00000E+00 0.00000E+00 0.00000E+00 0.00000E+00 0.00000E+00
 -1      1857 0.00000E+00 0.00000E+00 0.00000E+00 0.00000E+00 0.00000E+00 0.00000E+00
 -1      1858 0.00000E+00 0.00000E+00 0.00000E+00 0.00000E+00 0.00000E+00 0.00000E+00
 -1      1859 0.00000E+00 0.00000E+00 0.00000E+00 0.00000E+00 0.00000E+00 0.00000E+00
 -1      1860 0.00000E+00 0.00000E+00 0.00000E+00 0.00000E+00 0.00000E+00 0.00000E+00
 -1      1861 0.00000E+00 0.00000E+00 0.00000E+00 0.00000E+00 0.00000E+00 0.00000E+00
 -1      1862 0.00000E+00 0.00000E+00 0.00000E+00 0.00000E+00 0.00000E+00 0.00000E+00
 -1      1863 0.00000E+00 0.00000E+00 0.00000E+00 0.00000E+00 0.00000E+00 0.00000E+00
 -1      1864 0.00000E+00 0.00000E+00 0.00000E+00 0.00000E+00 0.00000E+00 0.00000E+00
 -1      1865 0.00000E+00 0.00000E+00 0.00000E+00 0.00000E+00 0.00000E+00 0.00000E+00
 -1      1866 0.00000E+00 0.00000E+00 0.00000E+00 0.00000E+00 0.00000E+00 0.00000E+00
 -1      1867 0.00000E+00 0.00000E+00 0.00000E+00 0.00000E+00 0.00000E+00 0.00000E+00
 -1      1868 0.00000E+00 0.00000E+00 0.00000E+00 0.00000E+00 0.00000E+00 0.00000E+00
 -1      1869 0.00000E+00 0.00000E+00 0.00000E+00 0.00000E+00 0.00000E+00 0.00000E+00
 -1      1870 0.00000E+00 0.00000E+00 0.00000E+00 0.00000E+00 0.00000E+00 0.00000E+00
 -1      1871 0.00000E+00 0.00000E+00 0.00000E+00 0.00000E+00 0.00000E+00 0.00000E+00
 -1      1872 0.00000E+00 0.00000E+00 0.00000E+00 0.00000E+00 0.00000E+00 0.00000E+00
 -1      1873 0.00000E+00 0.00000E+00 0.00000E+00 0.00000E+00 0.00000E+00 0.00000E+00
 -1      1874 0.00000E+00 0.00000E+00 0.00000E+00 0.00000E+00 0.00000E+00 0.00000E+00
 -1      1875 0.00000E+00 0.00000E+00 0.00000E+00 0.00000E+00 0.00000E+00 0.00000E+00
 -1      1876 0.00000E+00 0.00000E+00 0.00000E+00 0.00000E+00 0.00000E+00 0.00000E+00
 -1      1877 0.00000E+00 0.00000E+00 0.00000E+00 0.00000E+00 0.00000E+00 0.00000E+00
 -1      1878 0.00000E+00 0.00000E+00 0.00000E+00 0.00000E+00 0.00000E+00 0.00000E+00
 -1      1879 0.00000E+00 0.00000E+00 0.00000E+00 0.00000E+00 0.00000E+00 0.00000E+00
 -1      1880 0.00000E+00 0.00000E+00 0.00000E+00 0.00000E+00 0.00000E+00 0.00000E+00
 -1      1881 0.00000E+00 0.00000E+00 0.00000E+00 0.00000E+00 0.00000E+00 0.00000E+00
 -1      1882 0.00000E+00 0.00000E+00 0.00000E+00 0.00000E+00 0.00000E+00 0.00000E+00
 -1      1883 0.00000E+00 0.00000E+00 0.00000E+00 0.00000E+00 0.00000E+00 0.00000E+00
 -1      1884 0.00000E+00 0.00000E+00 0.00000E+00 0.00000E+00 0.00000E+00 0.00000E+00
 -1      1885 0.00000E+00 0.00000E+00 0.00000E+00 0.00000E+00 0.00000E+00 0.00000E+00
 -1      1886 0.00000E+00 0.00000E+00 0.00000E+00 0.00000E+00 0.00000E+00 0.00000E+00
 -1      1887 0.00000E+00 0.00000E+00 0.00000E+00 0.00000E+00 0.00000E+00 0.00000E+00
 -1      1888 0.00000E+00 0.00000E+00 0.00000E+00 0.00000E+00 0.00000E+00 0.00000E+00
 -1      1889 0.00000E+00 0.00000E+00 0.00000E+00 0.00000E+00 0.00000E+00 0.00000E+00
 -1      1890 0.00000E+00 0.00000E+00 0.00000E+00 0.00000E+00 0.00000E+00 0.00000E+00
 -1      1891 0.00000E+00 0.00000E+00 0.00000E+00 0.00000E+00 0.00000E+00 0.00000E+00
 -1      1892 0.00000E+00 0.00000E+00 0.00000E+00 0.00000E+00 0.00000E+00 0.00000E+00
 -1      1893 0.00000E+00 0.00000E+00 0.00000E+00 0.00000E+00 0.00000E+00 0.00000E+00
 -1      1894 0.00000E+00 0.00000E+00 0.00000E+00 0.00000E+00 0.00000E+00 0.00000E+00
 -1      1895 0.00000E+00 0.00000E+00 0.00000E+00 0.00000E+00 0.00000E+00 0.00000E+00
 -1      1896 0.00000E+00 0.00000E+00 0.00000E+00 0.00000E+00 0.00000E+00 0.00000E+00
 -1      1897 0.00000E+00 0.00000E+00 0.00000E+00 0.00000E+00 0.00000E+00 0.00000E+00
 -1      1898 0.00000E+00 0.00000E+00 0.00000E+00 0.00000E+00 0.00000E+00 0.00000E+00
 -1      1899 0.00000E+00 0.00000E+00 0.00000E+00 0.00000E+00 0.00000E+00 0.00000E+00
 -1      1900 0.00000E+00 0.00000E+00 0.00000E+00 0.00000E+00 0.00000E+00 0.00000E+00
 -1      1901 0.00000E+00 0.00000E+00 0.00000E+00 0.00000E+00 0.00000E+00 0.00000E+00
 -1      1902 0.00000E+00 0.00000E+00 0.00000E+00 0.00000E+00 0.00000E+00 0.00000E+00
 -1      1903 0.00000E+00 0.00000E+00 0.00000E+00 0.00000E+00 0.00000E+00 0.00000E+00
 -1      1904 0.00000E+00 0.00000E+00 0.00000E+00 0.00000E+00 0.00000E+00 0.00000E+00
 -1      1905 0.00000E+00 0.00000E+00 0.00000E+00 0.00000E+00 0.00000E+00 0.00000E+00
 -1      1906 0.00000E+00 0.00000E+00 0.00000E+00 0.00000E+00 0.00000E+00 0.00000E+00
 -1      1907 0.00000E+00 0.00000E+00 0.00000E+00 0.00000E+00 0.00000E+00 0.00000E+00
 -1      1908 0.00000E+00 0.00000E+00 0.00000E+00 0.00000E+00 0.00000E+00 0.00000E+00
 -1      1909 0.00000E+00 0.00000E+00 0.00000E+00 0.00000E+00 0.00000E+00 0.00000E+00
 -1      1910 0.00000E+00 0.00000E+00 0.00000E+00 0.00000E+00 0.00000E+00 0.00000E+00
 -1      1911 0.00000E+00 0.00000E+00 0.00000E+00 0.00000E+00 0.00000E+00 0.00000E+00
 -1      1912 0.00000E+00 0.00000E+00 0.00000E+00 0.00000E+00 0.00000E+00 0.00000E+00
 -1      1913 0.00000E+00 0.00000E+00 0.00000E+00 0.00000E+00 0.00000E+00 0.00000E+00
 -1      1914 0.00000E+00 0.00000E+00 0.00000E+00 0.00000E+00 0.00000E+00 0.00000E+00
 -1      1915 0.00000E+00 0.00000E+00 0.00000E+00 0.00000E+00 0.00000E+00 0.00000E+00
 -1      1916 0.00000E+00 0.00000E+00 0.00000E+00 0.00000E+00 0.00000E+00 0.00000E+00
 -1      1917 0.00000E+00 0.00000E+00 0.00000E+00 0.00000E+00 0.00000E+00 0.00000E+00
 -1      1918 0.00000E+00 0.00000E+00 0.00000E+00 0.00000E+00 0.00000E+00 0.00000E+00
 -1      1919 0.00000E+00 0.00000E+00 0.00000E+00 0.00000E+00 0.00000E+00 0.00000E+00
 -1      1920 0.00000E+00 0.00000E+00 0.00000E+00 0.00000E+00 0.00000E+00 0.00000E+00
 -1      1921 0.00000E+00 0.00000E+00 0.00000E+00 0.00000E+00 0.00000E+00 0.00000E+00
 -1      1922 0.00000E+00 0.00000E+00 0.00000E+00 0.00000E+00 0.00000E+00 0.00000E+00
 -1      1923 0.00000E+00 0.00000E+00 0.00000E+00 0.00000E+00 0.00000E+00 0.00000E+00
 -1      1924 0.00000E+00 0.00000E+00 0.00000E+00 0.00000E+00 0.00000E+00 0.00000E+00
 -1      1925 0.00000E+00 0.00000E+00 0.00000E+00 0.00000E+00 0.00000E+00 0.00000E+00
 -1      1926 0.00000E+00 0.00000E+00 0.00000E+00 0.00000E+00 0.00000E+00 0.00000E+00
 -1      1927 0.00000E+00 0.00000E+00 0.00000E+00 0.00000E+00 0.00000E+00 0.00000E+00
 -1      1928 0.00000E+00 0.00000E+00 0.00000E+00 0.00000E+00 0.00000E+00 0.00000E+00
 -1      1929 0.00000E+00 0.00000E+00 0.00000E+00 0.00000E+00 0.00000E+00 0.00000E+00
 -1      1930 0.00000E+00 0.00000E+00 0.00000E+00 0.00000E+00 0.00000E+00 0.00000E+00
 -1      1931 0.00000E+00 0.00000E+00 0.00000E+00 0.00000E+00 0.00000E+00 0.00000E+00
 -1      1932 0.00000E+00 0.00000E+00 0.00000E+00 0.00000E+00 0.00000E+00 0.00000E+00
 -1      1933 0.00000E+00 0.00000E+00 0.00000E+00 0.00000E+00 0.00000E+00 0.00000E+00
 -1      1934 0.00000E+00 0.00000E+00 0.00000E+00 0.00000E+00 0.00000E+00 0.00000E+00
 -1      1935 0.00000E+00 0.00000E+00 0.00000E+00 0.00000E+00 0.00000E+00 0.00000E+00
 -1      1936 0.00000E+00 0.00000E+00 0.00000E+00 0.00000E+00 0.00000E+00 0.00000E+00
 -1      1937 0.00000E+00 0.00000E+00 0.00000E+00 0.00000E+00 0.00000E+00 0.00000E+00
 -1      1938 0.00000E+00 0.00000E+00 0.00000E+00 0.00000E+00 0.00000E+00 0.00000E+00
 -1      1939 0.00000E+00 0.00000E+00 0.00000E+00 0.00000E+00 0.00000E+00 0.00000E+00
 -1      1940 0.00000E+00 0.00000E+00 0.00000E+00 0.00000E+00 0.00000E+00 0.00000E+00
 -1      1941 0.00000E+00 0.00000E+00 0.00000E+00 0.00000E+00 0.00000E+00 0.00000E+00
 -1      1942 0.00000E+00 0.00000E+00 0.00000E+00 0.00000E+00 0.00000E+00 0.00000E+00
 -1      1943 0.00000E+00 0.00000E+00 0.00000E+00 0.00000E+00 0.00000E+00 0.00000E+00
 -1      1944 0.00000E+00 0.00000E+00 0.00000E+00 0.00000E+00 0.00000E+00 0.00000E+00
 -1      1945 0.00000E+00 0.00000E+00 0.00000E+00 0.00000E+00 0.00000E+00 0.00000E+00
 -1      1946 0.00000E+00 0.00000E+00 0.00000E+00 0.00000E+00 0.00000E+00 0.00000E+00
 -1      1947 0.00000E+00 0.00000E+00 0.00000E+00 0.00000E+00 0.00000E+00 0.00000E+00
 -1      1948 0.00000E+00 0.00000E+00 0.00000E+00 0.00000E+00 0.00000E+00 0.00000E+00
 -1      1949 0.00000E+00 0.00000E+00 0.00000E+00 0.00000E+00 0.00000E+00 0.00000E+00
 -1      1950 0.00000E+00 0.00000E+00 0.00000E+00 0.00000E+00 0.00000E+00 0.00000E+00
 -1      1951 0.00000E+00 0.00000E+00 0.00000E+00 0.00000E+00 0.00000E+00 0.00000E+00
 -1      1952 0.00000E+00 0.00000E+00 0.00000E+00 0.00000E+00 0.00000E+00 0.00000E+00
 -1      1953 0.00000E+00 0.00000E+00 0.00000E+00 0.00000E+00 0.00000E+00 0.00000E+00
 -1      1954 0.00000E+00 0.00000E+00 0.00000E+00 0.00000E+00 0.00000E+00 0.00000E+00
 -1      1955 0.00000E+00 0.00000E+00 0.00000E+00 0.00000E+00 0.00000E+00 0.00000E+00
 -1      1956 0.00000E+00 0.00000E+00 0.00000E+00 0.00000E+00 0.00000E+00 0.00000E+00
 -1      1957 0.00000E+00 0.00000E+00 0.00000E+00 0.00000E+00 0.00000E+00 0.00000E+00
 -1      1958 0.00000E+00 0.00000E+00 0.00000E+00 0.00000E+00 0.00000E+00 0.00000E+00
 -1      1959 0.00000E+00 0.00000E+00 0.00000E+00 0.00000E+00 0.00000E+00 0.00000E+00
 -1      1960 0.00000E+00 0.00000E+00 0.00000E+00 0.00000E+00 0.00000E+00 0.00000E+00
 -1      1961 0.00000E+00 0.00000E+00 0.00000E+00 0.00000E+00 0.00000E+00 0.00000E+00
 -1      1962 0.00000E+00 0.00000E+00 0.00000E+00 0.00000E+00 0.00000E+00 0.00000E+00
 -1      1963 0.00000E+00 0.00000E+00 0.00000E+00 0.00000E+00 0.00000E+00 0.00000E+00
 -1      1964 0.00000E+00 0.00000E+00 0.00000E+00 0.00000E+00 0.00000E+00 0.00000E+00
 -1      1965 0.00000E+00 0.00000E+00 0.00000E+00 0.00000E+00 0.00000E+00 0.00000E+00
 -1      1966 0.00000E+00 0.00000E+00 0.00000E+00 0.00000E+00 0.00000E+00 0.00000E+00
 -1      1967 0.00000E+00 0.00000E+00 0.00000E+00 0.00000E+00 0.00000E+00 0.00000E+00
 -1      1968 0.00000E+00 0.00000E+00 0.00000E+00 0.00000E+00 0.00000E+00 0.00000E+00
 -1      1969 0.00000E+00 0.00000E+00 0.00000E+00 0.00000E+00 0.00000E+00 0.00000E+00
 -1      1970 0.00000E+00 0.00000E+00 0.00000E+00 0.00000E+00 0.00000E+00 0.00000E+00
 -1      1971 0.00000E+00 0.00000E+00 0.00000E+00 0.00000E+00 0.00000E+00 0.00000E+00
 -1      1972 0.00000E+00 0.00000E+00 0.00000E+00 0.00000E+00 0.00000E+00 0.00000E+00
 -1      1973 0.00000E+00 0.00000E+00 0.00000E+00 0.00000E+00 0.00000E+00 0.00000E+00
 -1      1974 0.00000E+00 0.00000E+00 0.00000E+00 0.00000E+00 0.00000E+00 0.00000E+00
 -1      1975 0.00000E+00 0.00000E+00 0.00000E+00 0.00000E+00 0.00000E+00 0.00000E+00
 -1      1976 0.00000E+00 0.00000E+00 0.00000E+00 0.00000E+00 0.00000E+00 0.00000E+00
 -1      1977 0.00000E+00 0.00000E+00 0.00000E+00 0.00000E+00 0.00000E+00 0.00000E+00
 -1      1978 0.00000E+00 0.00000E+00 0.00000E+00 0.00000E+00 0.00000E+00 0.00000E+00
 -1      1979 0.00000E+00 0.00000E+00 0.00000E+00 0.00000E+00 0.00000E+00 0.00000E+00
 -1      1980 0.00000E+00 0.00000E+00 0.00000E+00 0.00000E+00 0.00000E+00 0.00000E+00
 -1      1981 0.00000E+00 0.00000E+00 0.00000E+00 0.00000E+00 0.00000E+00 0.00000E+00
 -1      1982 0.00000E+00 0.00000E+00 0.00000E+00 0.00000E+00 0.00000E+00 0.00000E+00
 -1      1983 0.00000E+00 0.00000E+00 0.00000E+00 0.00000E+00 0.00000E+00 0.00000E+00
 -1      1984 0.00000E+00 0.00000E+00 0.00000E+00 0.00000E+00 0.00000E+00 0.00000E+00
 -1      1985 0.00000E+00 0.00000E+00 0.00000E+00 0.00000E+00 0.00000E+00 0.00000E+00
 -1      1986 0.00000E+00 0.00000E+00 0.00000E+00 0.00000E+00 0.00000E+00 0.00000E+00
 -1      1987 0.00000E+00 0.00000E+00 0.00000E+00 0.00000E+00 0.00000E+00 0.00000E+00
 -1      1988 0.00000E+00 0.00000E+00 0.00000E+00 0.00000E+00 0.00000E+00 0.00000E+00
 -1      1989 0.00000E+00 0.00000E+00 0.00000E+00 0.00000E+00 0.00000E+00 0.00000E+00
 -1      1990 0.00000E+00 0.00000E+00 0.00000E+00 0.00000E+00 0.00000E+00 0.00000E+00
 -1      1991 0.00000E+00 0.00000E+00 0.00000E+00 0.00000E+00 0.00000E+00 0.00000E+00
 -1      1992 0.00000E+00 0.00000E+00 0.00000E+00 0.00000E+00 0.00000E+00 0.00000E+00
 -1      1993 0.00000E+00 0.00000E+00 0.00000E+00 0.00000E+00 0.00000E+00 0.00000E+00
 -1      1994 0.00000E+00 0.00000E+00 0.00000E+00 0.00000E+00 0.00000E+00 0.00000E+00
 -1      1995 0.00000E+00 0.00000E+00 0.00000E+00 0.00000E+00 0.00000E+00 0.00000E+00
 -1      1996 0.00000E+00 0.00000E+00 0.00000E+00 0.00000E+00 0.00000E+00 0.00000E+00
 -1      1997 0.00000E+00 0.00000E+00 0.00000E+00 0.00000E+00 0.00000E+00 0.00000E+00
 -1      1998 0.00000E+00 0.00000E+00 0.00000E+00 0.00000E+00 0.00000E+00 0.00000E+00
 -1      1999 0.00000E+00 0.00000E+00 0.00000E+00 0.00000E+00 0.00000E+00 0.00000E+00
 -1      2000 0.00000E+00 0.00000E+00 0.00000E+00 0.00000E+00 0.00000E+00 0.00000E+00
 -1      2001 0.00000E+00 0.00000E+00 0.00000E+00 0.00000E+00 0.00000E+00 0.00000E+00
 -1      2002 0.00000E+00 0.00000E+00 0.00000E+00 0.00000E+00 0.00000E+00 0.00000E+00
 -1      2003 0.00000E+00 0.00000E+00 0.00000E+00 0.00000E+00 0.00000E+00 0.00000E+00
 -1      2004 0.00000E+00 0.00000E+00 0.00000E+00 0.00000E+00 0.00000E+00 0.00000E+00
 -1      2005 0.00000E+00 0.00000E+00 0.00000E+00 0.00000E+00 0.00000E+00 0.00000E+00
 -1      2006 0.00000E+00 0.00000E+00 0.00000E+00 0.00000E+00 0.00000E+00 0.00000E+00
 -1      2007 0.00000E+00 0.00000E+00 0.00000E+00 0.00000E+00 0.00000E+00 0.00000E+00
 -1      2008 0.00000E+00 0.00000E+00 0.00000E+00 0.00000E+00 0.00000E+00 0.00000E+00
 -1      2009 0.00000E+00 0.00000E+00 0.00000E+00 0.00000E+00 0.00000E+00 0.00000E+00
 -1      2010 0.00000E+00 0.00000E+00 0.00000E+00 0.00000E+00 0.00000E+00 0.00000E+00
 -1      2011 0.00000E+00 0.00000E+00 0.00000E+00 0.00000E+00 0.00000E+00 0.00000E+00
 -1      2012 0.00000E+00 0.00000E+00 0.00000E+00 0.00000E+00 0.00000E+00 0.00000E+00
 -1      2013 0.00000E+00 0.00000E+00 0.00000E+00 0.00000E+00 0.00000E+00 0.00000E+00
 -1      2014 0.00000E+00 0.00000E+00 0.00000E+00 0.00000E+00 0.00000E+00 0.00000E+00
 -1      2015 0.00000E+00 0.00000E+00 0.00000E+00 0.00000E+00 0.00000E+00 0.00000E+00
 -1      2016 0.00000E+00 0.00000E+00 0.00000E+00 0.00000E+00 0.00000E+00 0.00000E+00
 -1      2017 0.00000E+00 0.00000E+00 0.00000E+00 0.00000E+00 0.00000E+00 0.00000E+00
 -1      2018 0.00000E+00 0.00000E+00 0.00000E+00 0.00000E+00 0.00000E+00 0.00000E+00
 -1      2019 0.00000E+00 0.00000E+00 0.00000E+00 0.00000E+00 0.00000E+00 0.00000E+00
 -1      2020 0.00000E+00 0.00000E+00 0.00000E+00 0.00000E+00 0.00000E+00 0.00000E+00
 -1      2021 0.00000E+00 0.00000E+00 0.00000E+00 0.00000E+00 0.00000E+00 0.00000E+00
 -1      2022 0.00000E+00 0.00000E+00 0.00000E+00 0.00000E+00 0.00000E+00 0.00000E+00
 -1      2023 0.00000E+00 0.00000E+00 0.00000E+00 0.00000E+00 0.00000E+00 0.00000E+00
 -1      2024 0.00000E+00 0.00000E+00 0.00000E+00 0.00000E+00 0.00000E+00 0.00000E+00
 -1      2025 0.00000E+00 0.00000E+00 0.00000E+00 0.00000E+00 0.00000E+00 0.00000E+00
 -1      2026 0.00000E+00 0.00000E+00 0.00000E+00 0.00000E+00 0.00000E+00 0.00000E+00
 -1      2027 0.00000E+00 0.00000E+00 0.00000E+00 0.00000E+00 0.00000E+00 0.00000E+00
 -1      2028 0.00000E+00 0.00000E+00 0.00000E+00 0.00000E+00 0.00000E+00 0.00000E+00
 -1      2029 0.00000E+00 0.00000E+00 0.00000E+00 0.00000E+00 0.00000E+00 0.00000E+00
 -1      2030 0.00000E+00 0.00000E+00 0.00000E+00 0.00000E+00 0.00000E+00 0.00000E+00
 -1      2031 0.00000E+00 0.00000E+00 0.00000E+00 0.00000E+00 0.00000E+00 0.00000E+00
 -1      2032 0.00000E+00 0.00000E+00 0.00000E+00 0.00000E+00 0.00000E+00 0.00000E+00
 -1      2033 0.00000E+00 0.00000E+00 0.00000E+00 0.00000E+00 0.00000E+00 0.00000E+00
 -1      2034 0.00000E+00 0.00000E+00 0.00000E+00 0.00000E+00 0.00000E+00 0.00000E+00
 -1      2035 0.00000E+00 0.00000E+00 0.00000E+00 0.00000E+00 0.00000E+00 0.00000E+00
 -1      2036 0.00000E+00 0.00000E+00 0.00000E+00 0.00000E+00 0.00000E+00 0.00000E+00
 -1      2037 0.00000E+00 0.00000E+00 0.00000E+00 0.00000E+00 0.00000E+00 0.00000E+00
 -1      2038 0.00000E+00 0.00000E+00 0.00000E+00 0.00000E+00 0.00000E+00 0.00000E+00
 -1      2039 0.00000E+00 0.00000E+00 0.00000E+00 0.00000E+00 0.00000E+00 0.00000E+00
 -1      2040 0.00000E+00 0.00000E+00 0.00000E+00 0.00000E+00 0.00000E+00 0.00000E+00
 -1      2041 0.00000E+00 0.00000E+00 0.00000E+00 0.00000E+00 0.00000E+00 0.00000E+00
 -1      2042 0.00000E+00 0.00000E+00 0.00000E+00 0.00000E+00 0.00000E+00 0.00000E+00
 -1      2043 0.00000E+00 0.00000E+00 0.00000E+00 0.00000E+00 0.00000E+00 0.00000E+00
 -1      2044 0.00000E+00 0.00000E+00 0.00000E+00 0.00000E+00 0.00000E+00 0.00000E+00
 -1      2045 0.00000E+00 0.00000E+00 0.00000E+00 0.00000E+00 0.00000E+00 0.00000E+00
 -1      2046 0.00000E+00 0.00000E+00 0.00000E+00 0.00000E+00 0.00000E+00 0.00000E+00
 -1      2047 0.00000E+00 0.00000E+00 0.00000E+00 0.00000E+00 0.00000E+00 0.00000E+00
 -1      2048 0.00000E+00 0.00000E+00 0.00000E+00 0.00000E+00 0.00000E+00 0.00000E+00
 -1      2049 0.00000E+00 0.00000E+00 0.00000E+00 0.00000E+00 0.00000E+00 0.00000E+00
 -1      2050 0.00000E+00 0.00000E+00 0.00000E+00 0.00000E+00 0.00000E+00 0.00000E+00
 -1      2051 0.00000E+00 0.00000E+00 0.00000E+00 0.00000E+00 0.00000E+00 0.00000E+00
 -1      2052 0.00000E+00 0.00000E+00 0.00000E+00 0.00000E+00 0.00000E+00 0.00000E+00
 -1      2053 0.00000E+00 0.00000E+00 0.00000E+00 0.00000E+00 0.00000E+00 0.00000E+00
 -1      2054 0.00000E+00 0.00000E+00 0.00000E+00 0.00000E+00 0.00000E+00 0.00000E+00
 -1      2055 0.00000E+00 0.00000E+00 0.00000E+00 0.00000E+00 0.00000E+00 0.00000E+00
 -1      2056 0.00000E+00 0.00000E+00 0.00000E+00 0.00000E+00 0.00000E+00 0.00000E+00
 -1      2057 0.00000E+00 0.00000E+00 0.00000E+00 0.00000E+00 0.00000E+00 0.00000E+00
 -1      2058 0.00000E+00 0.00000E+00 0.00000E+00 0.00000E+00 0.00000E+00 0.00000E+00
 -1      2059 0.00000E+00 0.00000E+00 0.00000E+00 0.00000E+00 0.00000E+00 0.00000E+00
 -1      2060 0.00000E+00 0.00000E+00 0.00000E+00 0.00000E+00 0.00000E+00 0.00000E+00
 -1      2061 0.00000E+00 0.00000E+00 0.00000E+00 0.00000E+00 0.00000E+00 0.00000E+00
 -1      2062 0.00000E+00 0.00000E+00 0.00000E+00 0.00000E+00 0.00000E+00 0.00000E+00
 -1      2063 0.00000E+00 0.00000E+00 0.00000E+00 0.00000E+00 0.00000E+00 0.00000E+00
 -1      2064 0.00000E+00 0.00000E+00 0.00000E+00 0.00000E+00 0.00000E+00 0.00000E+00
 -1      2065 0.00000E+00 0.00000E+00 0.00000E+00 0.00000E+00 0.00000E+00 0.00000E+00
 -1      2066 0.00000E+00 0.00000E+00 0.00000E+00 0.00000E+00 0.00000E+00 0.00000E+00
 -1      2067 0.00000E+00 0.00000E+00 0.00000E+00 0.00000E+00 0.00000E+00 0.00000E+00
 -1      2068 0.00000E+00 0.00000E+00 0.00000E+00 0.00000E+00 0.00000E+00 0.00000E+00
 -1      2069 0.00000E+00 0.00000E+00 0.00000E+00 0.00000E+00 0.00000E+00 0.00000E+00
 -1      2070 0.00000E+00 0.00000E+00 0.00000E+00 0.00000E+00 0.00000E+00 0.00000E+00
 -1      2071 0.00000E+00 0.00000E+00 0.00000E+00 0.00000E+00 0.00000E+00 0.00000E+00
 -1      2072 0.00000E+00 0.00000E+00 0.00000E+00 0.00000E+00 0.00000E+00 0.00000E+00
 -1      2073 0.00000E+00 0.00000E+00 0.00000E+00 0.00000E+00 0.00000E+00 0.00000E+00
 -1      2074 0.00000E+00 0.00000E+00 0.00000E+00 0.00000E+00 0.00000E+00 0.00000E+00
 -1      2075 0.00000E+00 0.00000E+00 0.00000E+00 0.00000E+00 0.00000E+00 0.00000E+00
 -1      2076 0.00000E+00 0.00000E+00 0.00000E+00 0.00000E+00 0.00000E+00 0.00000E+00
 -1      2077 0.00000E+00 0.00000E+00 0.00000E+00 0.00000E+00 0.00000E+00 0.00000E+00
 -1      2078 0.00000E+00 0.00000E+00 0.00000E+00 0.00000E+00 0.00000E+00 0.00000E+00
 -1      2079 0.00000E+00 0.00000E+00 0.00000E+00 0.00000E+00 0.00000E+00 0.00000E+00
 -1      2080 0.00000E+00 0.00000E+00 0.00000E+00 0.00000E+00 0.00000E+00 0.00000E+00
 -1      2081 0.00000E+00 0.00000E+00 0.00000E+00 0.00000E+00 0.00000E+00 0.00000E+00
 -1      2082 0.00000E+00 0.00000E+00 0.00000E+00 0.00000E+00 0.00000E+00 0.00000E+00
 -1      2083 0.00000E+00 0.00000E+00 0.00000E+00 0.00000E+00 0.00000E+00 0.00000E+00
 -1      2084 0.00000E+00 0.00000E+00 0.00000E+00 0.00000E+00 0.00000E+00 0.00000E+00
 -1      2085 0.00000E+00 0.00000E+00 0.00000E+00 0.00000E+00 0.00000E+00 0.00000E+00
 -1      2086 0.00000E+00 0.00000E+00 0.00000E+00 0.00000E+00 0.00000E+00 0.00000E+00
 -1      2087 0.00000E+00 0.00000E+00 0.00000E+00 0.00000E+00 0.00000E+00 0.00000E+00
 -1      2088 0.00000E+00 0.00000E+00 0.00000E+00 0.00000E+00 0.00000E+00 0.00000E+00
 -1      2089 0.00000E+00 0.00000E+00 0.00000E+00 0.00000E+00 0.00000E+00 0.00000E+00
 -1      2090 0.00000E+00 0.00000E+00 0.00000E+00 0.00000E+00 0.00000E+00 0.00000E+00
 -1      2091 0.00000E+00 0.00000E+00 0.00000E+00 0.00000E+00 0.00000E+00 0.00000E+00
 -1      2092 0.00000E+00 0.00000E+00 0.00000E+00 0.00000E+00 0.00000E+00 0.00000E+00
 -1      2093 0.00000E+00 0.00000E+00 0.00000E+00 0.00000E+00 0.00000E+00 0.00000E+00
 -1      2094 0.00000E+00 0.00000E+00 0.00000E+00 0.00000E+00 0.00000E+00 0.00000E+00
 -1      2095 0.00000E+00 0.00000E+00 0.00000E+00 0.00000E+00 0.00000E+00 0.00000E+00
 -1      2096 0.00000E+00 0.00000E+00 0.00000E+00 0.00000E+00 0.00000E+00 0.00000E+00
 -1      2097 0.00000E+00 0.00000E+00 0.00000E+00 0.00000E+00 0.00000E+00 0.00000E+00
 -1      2098 0.00000E+00 0.00000E+00 0.00000E+00 0.00000E+00 0.00000E+00 0.00000E+00
 -1      2099 0.00000E+00 0.00000E+00 0.00000E+00 0.00000E+00 0.00000E+00 0.00000E+00
 -1      2100 0.00000E+00 0.00000E+00 0.00000E+00 0.00000E+00 0.00000E+00 0.00000E+00
 -1      2101 0.00000E+00 0.00000E+00 0.00000E+00 0.00000E+00 0.00000E+00 0.00000E+00
 -1      2102 0.00000E+00 0.00000E+00 0.00000E+00 0.00000E+00 0.00000E+00 0.00000E+00
 -1      2103 0.00000E+00 0.00000E+00 0.00000E+00 0.00000E+00 0.00000E+00 0.00000E+00
 -1      2104 0.00000E+00 0.00000E+00 0.00000E+00 0.00000E+00 0.00000E+00 0.00000E+00
 -1      2105 0.00000E+00 0.00000E+00 0.00000E+00 0.00000E+00 0.00000E+00 0.00000E+00
 -1      2106 0.00000E+00 0.00000E+00 0.00000E+00 0.00000E+00 0.00000E+00 0.00000E+00
 -1      2107 0.00000E+00 0.00000E+00 0.00000E+00 0.00000E+00 0.00000E+00 0.00000E+00
 -1      2108 0.00000E+00 0.00000E+00 0.00000E+00 0.00000E+00 0.00000E+00 0.00000E+00
 -1      2109 0.00000E+00 0.00000E+00 0.00000E+00 0.00000E+00 0.00000E+00 0.00000E+00
 -1      2110 0.00000E+00 0.00000E+00 0.00000E+00 0.00000E+00 0.00000E+00 0.00000E+00
 -1      2111 0.00000E+00 0.00000E+00 0.00000E+00 0.00000E+00 0.00000E+00 0.00000E+00
 -1      2112 0.00000E+00 0.00000E+00 0.00000E+00 0.00000E+00 0.00000E+00 0.00000E+00
 -1      2113 0.00000E+00 0.00000E+00 0.00000E+00 0.00000E+00 0.00000E+00 0.00000E+00
 -1      2114 0.00000E+00 0.00000E+00 0.00000E+00 0.00000E+00 0.00000E+00 0.00000E+00
 -1      2115 0.00000E+00 0.00000E+00 0.00000E+00 0.00000E+00 0.00000E+00 0.00000E+00
 -1      2116 0.00000E+00 0.00000E+00 0.00000E+00 0.00000E+00 0.00000E+00 0.00000E+00
 -1      2117 0.00000E+00 0.00000E+00 0.00000E+00 0.00000E+00 0.00000E+00 0.00000E+00
 -1      2118 0.00000E+00 0.00000E+00 0.00000E+00 0.00000E+00 0.00000E+00 0.00000E+00
 -1      2119 0.00000E+00 0.00000E+00 0.00000E+00 0.00000E+00 0.00000E+00 0.00000E+00
 -1      2120 0.00000E+00 0.00000E+00 0.00000E+00 0.00000E+00 0.00000E+00 0.00000E+00
 -1      2121 0.00000E+00 0.00000E+00 0.00000E+00 0.00000E+00 0.00000E+00 0.00000E+00
 -1      2122 0.00000E+00 0.00000E+00 0.00000E+00 0.00000E+00 0.00000E+00 0.00000E+00
 -1      2123 0.00000E+00 0.00000E+00 0.00000E+00 0.00000E+00 0.00000E+00 0.00000E+00
 -1      2124 0.00000E+00 0.00000E+00 0.00000E+00 0.00000E+00 0.00000E+00 0.00000E+00
 -1      2125 0.00000E+00 0.00000E+00 0.00000E+00 0.00000E+00 0.00000E+00 0.00000E+00
 -1      2126 0.00000E+00 0.00000E+00 0.00000E+00 0.00000E+00 0.00000E+00 0.00000E+00
 -1      2127 0.00000E+00 0.00000E+00 0.00000E+00 0.00000E+00 0.00000E+00 0.00000E+00
 -1      2128 0.00000E+00 0.00000E+00 0.00000E+00 0.00000E+00 0.00000E+00 0.00000E+00
 -1      2129 0.00000E+00 0.00000E+00 0.00000E+00 0.00000E+00 0.00000E+00 0.00000E+00
 -1      2130 0.00000E+00 0.00000E+00 0.00000E+00 0.00000E+00 0.00000E+00 0.00000E+00
 -1      2131 0.00000E+00 0.00000E+00 0.00000E+00 0.00000E+00 0.00000E+00 0.00000E+00
 -1      2132 0.00000E+00 0.00000E+00 0.00000E+00 0.00000E+00 0.00000E+00 0.00000E+00
 -1      2133 0.00000E+00 0.00000E+00 0.00000E+00 0.00000E+00 0.00000E+00 0.00000E+00
 -1      2134 0.00000E+00 0.00000E+00 0.00000E+00 0.00000E+00 0.00000E+00 0.00000E+00
 -1      2135 0.00000E+00 0.00000E+00 0.00000E+00 0.00000E+00 0.00000E+00 0.00000E+00
 -1      2136 0.00000E+00 0.00000E+00 0.00000E+00 0.00000E+00 0.00000E+00 0.00000E+00
 -1      2137 0.00000E+00 0.00000E+00 0.00000E+00 0.00000E+00 0.00000E+00 0.00000E+00
 -1      2138 0.00000E+00 0.00000E+00 0.00000E+00 0.00000E+00 0.00000E+00 0.00000E+00
 -1      2139 0.00000E+00 0.00000E+00 0.00000E+00 0.00000E+00 0.00000E+00 0.00000E+00
 -1      2140 0.00000E+00 0.00000E+00 0.00000E+00 0.00000E+00 0.00000E+00 0.00000E+00
 -1      2141 0.00000E+00 0.00000E+00 0.00000E+00 0.00000E+00 0.00000E+00 0.00000E+00
 -1      2142 0.00000E+00 0.00000E+00 0.00000E+00 0.00000E+00 0.00000E+00 0.00000E+00
 -1      2143 0.00000E+00 0.00000E+00 0.00000E+00 0.00000E+00 0.00000E+00 0.00000E+00
 -1      2144 0.00000E+00 0.00000E+00 0.00000E+00 0.00000E+00 0.00000E+00 0.00000E+00
 -1      2145 0.00000E+00 0.00000E+00 0.00000E+00 0.00000E+00 0.00000E+00 0.00000E+00
 -1      2146 0.00000E+00 0.00000E+00 0.00000E+00 0.00000E+00 0.00000E+00 0.00000E+00
 -1      2147 0.00000E+00 0.00000E+00 0.00000E+00 0.00000E+00 0.00000E+00 0.00000E+00
 -1      2148 0.00000E+00 0.00000E+00 0.00000E+00 0.00000E+00 0.00000E+00 0.00000E+00
 -1      2149 0.00000E+00 0.00000E+00 0.00000E+00 0.00000E+00 0.00000E+00 0.00000E+00
 -1      2150 0.00000E+00 0.00000E+00 0.00000E+00 0.00000E+00 0.00000E+00 0.00000E+00
 -1      2151 0.00000E+00 0.00000E+00 0.00000E+00 0.00000E+00 0.00000E+00 0.00000E+00
 -1      2152 0.00000E+00 0.00000E+00 0.00000E+00 0.00000E+00 0.00000E+00 0.00000E+00
 -1      2153 0.00000E+00 0.00000E+00 0.00000E+00 0.00000E+00 0.00000E+00 0.00000E+00
 -1      2154 0.00000E+00 0.00000E+00 0.00000E+00 0.00000E+00 0.00000E+00 0.00000E+00
 -1      2155 0.00000E+00 0.00000E+00 0.00000E+00 0.00000E+00 0.00000E+00 0.00000E+00
 -1      2156 0.00000E+00 0.00000E+00 0.00000E+00 0.00000E+00 0.00000E+00 0.00000E+00
 -1      2157 0.00000E+00 0.00000E+00 0.00000E+00 0.00000E+00 0.00000E+00 0.00000E+00
 -1      2158 0.00000E+00 0.00000E+00 0.00000E+00 0.00000E+00 0.00000E+00 0.00000E+00
 -1      2159 0.00000E+00 0.00000E+00 0.00000E+00 0.00000E+00 0.00000E+00 0.00000E+00
 -1      2160 0.00000E+00 0.00000E+00 0.00000E+00 0.00000E+00 0.00000E+00 0.00000E+00
 -1      2161 0.00000E+00 0.00000E+00 0.00000E+00 0.00000E+00 0.00000E+00 0.00000E+00
 -1      2162 0.00000E+00 0.00000E+00 0.00000E+00 0.00000E+00 0.00000E+00 0.00000E+00
 -1      2163 0.00000E+00 0.00000E+00 0.00000E+00 0.00000E+00 0.00000E+00 0.00000E+00
 -1      2164 0.00000E+00 0.00000E+00 0.00000E+00 0.00000E+00 0.00000E+00 0.00000E+00
 -1      2165 0.00000E+00 0.00000E+00 0.00000E+00 0.00000E+00 0.00000E+00 0.00000E+00
 -1      2166 0.00000E+00 0.00000E+00 0.00000E+00 0.00000E+00 0.00000E+00 0.00000E+00
 -1      2167 0.00000E+00 0.00000E+00 0.00000E+00 0.00000E+00 0.00000E+00 0.00000E+00
 -1      2168 0.00000E+00 0.00000E+00 0.00000E+00 0.00000E+00 0.00000E+00 0.00000E+00
 -1      2169 0.00000E+00 0.00000E+00 0.00000E+00 0.00000E+00 0.00000E+00 0.00000E+00
 -1      2170 0.00000E+00 0.00000E+00 0.00000E+00 0.00000E+00 0.00000E+00 0.00000E+00
 -1      2171 0.00000E+00 0.00000E+00 0.00000E+00 0.00000E+00 0.00000E+00 0.00000E+00
 -1      2172 0.00000E+00 0.00000E+00 0.00000E+00 0.00000E+00 0.00000E+00 0.00000E+00
 -1      2173 0.00000E+00 0.00000E+00 0.00000E+00 0.00000E+00 0.00000E+00 0.00000E+00
 -1      2174 0.00000E+00 0.00000E+00 0.00000E+00 0.00000E+00 0.00000E+00 0.00000E+00
 -1      2175 0.00000E+00 0.00000E+00 0.00000E+00 0.00000E+00 0.00000E+00 0.00000E+00
 -1      2176 0.00000E+00 0.00000E+00 0.00000E+00 0.00000E+00 0.00000E+00 0.00000E+00
 -1      2177 0.00000E+00 0.00000E+00 0.00000E+00 0.00000E+00 0.00000E+00 0.00000E+00
 -1      2178 0.00000E+00 0.00000E+00 0.00000E+00 0.00000E+00 0.00000E+00 0.00000E+00
 -1      2179 0.00000E+00 0.00000E+00 0.00000E+00 0.00000E+00 0.00000E+00 0.00000E+00
 -1      2180 0.00000E+00 0.00000E+00 0.00000E+00 0.00000E+00 0.00000E+00 0.00000E+00
 -1      2181 0.00000E+00 0.00000E+00 0.00000E+00 0.00000E+00 0.00000E+00 0.00000E+00
 -1      2182 0.00000E+00 0.00000E+00 0.00000E+00 0.00000E+00 0.00000E+00 0.00000E+00
 -1      2183 0.00000E+00 0.00000E+00 0.00000E+00 0.00000E+00 0.00000E+00 0.00000E+00
 -1      2184 0.00000E+00 0.00000E+00 0.00000E+00 0.00000E+00 0.00000E+00 0.00000E+00
 -1      2185 0.00000E+00 0.00000E+00 0.00000E+00 0.00000E+00 0.00000E+00 0.00000E+00
 -1      2186 0.00000E+00 0.00000E+00 0.00000E+00 0.00000E+00 0.00000E+00 0.00000E+00
 -1      2187 0.00000E+00 0.00000E+00 0.00000E+00 0.00000E+00 0.00000E+00 0.00000E+00
 -1      2188 0.00000E+00 0.00000E+00 0.00000E+00 0.00000E+00 0.00000E+00 0.00000E+00
 -1      2189 0.00000E+00 0.00000E+00 0.00000E+00 0.00000E+00 0.00000E+00 0.00000E+00
 -1      2190 0.00000E+00 0.00000E+00 0.00000E+00 0.00000E+00 0.00000E+00 0.00000E+00
 -1      2191 0.00000E+00 0.00000E+00 0.00000E+00 0.00000E+00 0.00000E+00 0.00000E+00
 -1      2192 0.00000E+00 0.00000E+00 0.00000E+00 0.00000E+00 0.00000E+00 0.00000E+00
 -1      2193 0.00000E+00 0.00000E+00 0.00000E+00 0.00000E+00 0.00000E+00 0.00000E+00
 -1      2194 0.00000E+00 0.00000E+00 0.00000E+00 0.00000E+00 0.00000E+00 0.00000E+00
 -1      2195 0.00000E+00 0.00000E+00 0.00000E+00 0.00000E+00 0.00000E+00 0.00000E+00
 -1      2196 0.00000E+00 0.00000E+00 0.00000E+00 0.00000E+00 0.00000E+00 0.00000E+00
 -1      2197 0.00000E+00 0.00000E+00 0.00000E+00 0.00000E+00 0.00000E+00 0.00000E+00
 -1      2198 0.00000E+00 0.00000E+00 0.00000E+00 0.00000E+00 0.00000E+00 0.00000E+00
 -1      2199 0.00000E+00 0.00000E+00 0.00000E+00 0.00000E+00 0.00000E+00 0.00000E+00
 -1      2200 0.00000E+00 0.00000E+00 0.00000E+00 0.00000E+00 0.00000E+00 0.00000E+00
 -1      2201 0.00000E+00 0.00000E+00 0.00000E+00 0.00000E+00 0.00000E+00 0.00000E+00
 -1      2202 0.00000E+00 0.00000E+00 0.00000E+00 0.00000E+00 0.00000E+00 0.00000E+00
 -1      2203 0.00000E+00 0.00000E+00 0.00000E+00 0.00000E+00 0.00000E+00 0.00000E+00
 -1      2204 0.00000E+00 0.00000E+00 0.00000E+00 0.00000E+00 0.00000E+00 0.00000E+00
 -1      2205 0.00000E+00 0.00000E+00 0.00000E+00 0.00000E+00 0.00000E+00 0.00000E+00
 -1      2206 0.00000E+00 0.00000E+00 0.00000E+00 0.00000E+00 0.00000E+00 0.00000E+00
 -1      2207 0.00000E+00 0.00000E+00 0.00000E+00 0.00000E+00 0.00000E+00 0.00000E+00
 -1      2208 0.00000E+00 0.00000E+00 0.00000E+00 0.00000E+00 0.00000E+00 0.00000E+00
 -1      2209 0.00000E+00 0.00000E+00 0.00000E+00 0.00000E+00 0.00000E+00 0.00000E+00
 -1      2210 0.00000E+00 0.00000E+00 0.00000E+00 0.00000E+00 0.00000E+00 0.00000E+00
 -1      2211 0.00000E+00 0.00000E+00 0.00000E+00 0.00000E+00 0.00000E+00 0.00000E+00
 -1      2212 0.00000E+00 0.00000E+00 0.00000E+00 0.00000E+00 0.00000E+00 0.00000E+00
 -1      2213 0.00000E+00 0.00000E+00 0.00000E+00 0.00000E+00 0.00000E+00 0.00000E+00
 -1      2214 0.00000E+00 0.00000E+00 0.00000E+00 0.00000E+00 0.00000E+00 0.00000E+00
 -1      2215 0.00000E+00 0.00000E+00 0.00000E+00 0.00000E+00 0.00000E+00 0.00000E+00
 -1      2216 0.00000E+00 0.00000E+00 0.00000E+00 0.00000E+00 0.00000E+00 0.00000E+00
 -1      2217 0.00000E+00 0.00000E+00 0.00000E+00 0.00000E+00 0.00000E+00 0.00000E+00
 -1      2218 0.00000E+00 0.00000E+00 0.00000E+00 0.00000E+00 0.00000E+00 0.00000E+00
 -1      2219 0.00000E+00 0.00000E+00 0.00000E+00 0.00000E+00 0.00000E+00 0.00000E+00
 -1      2220 0.00000E+00 0.00000E+00 0.00000E+00 0.00000E+00 0.00000E+00 0.00000E+00
 -1      2221 0.00000E+00 0.00000E+00 0.00000E+00 0.00000E+00 0.00000E+00 0.00000E+00
 -1      2222 0.00000E+00 0.00000E+00 0.00000E+00 0.00000E+00 0.00000E+00 0.00000E+00
 -1      2223 0.00000E+00 0.00000E+00 0.00000E+00 0.00000E+00 0.00000E+00 0.00000E+00
 -1      2224 0.00000E+00 0.00000E+00 0.00000E+00 0.00000E+00 0.00000E+00 0.00000E+00
 -1      2225 0.00000E+00 0.00000E+00 0.00000E+00 0.00000E+00 0.00000E+00 0.00000E+00
 -1      2226 0.00000E+00 0.00000E+00 0.00000E+00 0.00000E+00 0.00000E+00 0.00000E+00
 -1      2227 0.00000E+00 0.00000E+00 0.00000E+00 0.00000E+00 0.00000E+00 0.00000E+00
 -1      2228 0.00000E+00 0.00000E+00 0.00000E+00 0.00000E+00 0.00000E+00 0.00000E+00
 -1      2229 0.00000E+00 0.00000E+00 0.00000E+00 0.00000E+00 0.00000E+00 0.00000E+00
 -1      2230 0.00000E+00 0.00000E+00 0.00000E+00 0.00000E+00 0.00000E+00 0.00000E+00
 -1      2231 0.00000E+00 0.00000E+00 0.00000E+00 0.00000E+00 0.00000E+00 0.00000E+00
 -1      2232 0.00000E+00 0.00000E+00 0.00000E+00 0.00000E+00 0.00000E+00 0.00000E+00
 -1      2233 0.00000E+00 0.00000E+00 0.00000E+00 0.00000E+00 0.00000E+00 0.00000E+00
 -1      2234 0.00000E+00 0.00000E+00 0.00000E+00 0.00000E+00 0.00000E+00 0.00000E+00
 -1      2235 0.00000E+00 0.00000E+00 0.00000E+00 0.00000E+00 0.00000E+00 0.00000E+00
 -1      2236 0.00000E+00 0.00000E+00 0.00000E+00 0.00000E+00 0.00000E+00 0.00000E+00
 -1      2237 0.00000E+00 0.00000E+00 0.00000E+00 0.00000E+00 0.00000E+00 0.00000E+00
 -1      2238 0.00000E+00 0.00000E+00 0.00000E+00 0.00000E+00 0.00000E+00 0.00000E+00
 -1      2239 0.00000E+00 0.00000E+00 0.00000E+00 0.00000E+00 0.00000E+00 0.00000E+00
 -1      2240 0.00000E+00 0.00000E+00 0.00000E+00 0.00000E+00 0.00000E+00 0.00000E+00
 -1      2241 0.00000E+00 0.00000E+00 0.00000E+00 0.00000E+00 0.00000E+00 0.00000E+00
 -1      2242 0.00000E+00 0.00000E+00 0.00000E+00 0.00000E+00 0.00000E+00 0.00000E+00
 -1      2243 0.00000E+00 0.00000E+00 0.00000E+00 0.00000E+00 0.00000E+00 0.00000E+00
 -1      2244 0.00000E+00 0.00000E+00 0.00000E+00 0.00000E+00 0.00000E+00 0.00000E+00
 -1      2245 0.00000E+00 0.00000E+00 0.00000E+00 0.00000E+00 0.00000E+00 0.00000E+00
 -1      2246 0.00000E+00 0.00000E+00 0.00000E+00 0.00000E+00 0.00000E+00 0.00000E+00
 -1      2247 0.00000E+00 0.00000E+00 0.00000E+00 0.00000E+00 0.00000E+00 0.00000E+00
 -1      2248 0.00000E+00 0.00000E+00 0.00000E+00 0.00000E+00 0.00000E+00 0.00000E+00
 -1      2249 0.00000E+00 0.00000E+00 0.00000E+00 0.00000E+00 0.00000E+00 0.00000E+00
 -1      2250 0.00000E+00 0.00000E+00 0.00000E+00 0.00000E+00 0.00000E+00 0.00000E+00
 -1      2251 0.00000E+00 0.00000E+00 0.00000E+00 0.00000E+00 0.00000E+00 0.00000E+00
 -1      2252 0.00000E+00 0.00000E+00 0.00000E+00 0.00000E+00 0.00000E+00 0.00000E+00
 -1      2253 0.00000E+00 0.00000E+00 0.00000E+00 0.00000E+00 0.00000E+00 0.00000E+00
 -1      2254 0.00000E+00 0.00000E+00 0.00000E+00 0.00000E+00 0.00000E+00 0.00000E+00
 -1      2255 0.00000E+00 0.00000E+00 0.00000E+00 0.00000E+00 0.00000E+00 0.00000E+00
 -1      2256 0.00000E+00 0.00000E+00 0.00000E+00 0.00000E+00 0.00000E+00 0.00000E+00
 -1      2257 0.00000E+00 0.00000E+00 0.00000E+00 0.00000E+00 0.00000E+00 0.00000E+00
 -1      2258 0.00000E+00 0.00000E+00 0.00000E+00 0.00000E+00 0.00000E+00 0.00000E+00
 -1      2259 0.00000E+00 0.00000E+00 0.00000E+00 0.00000E+00 0.00000E+00 0.00000E+00
 -1      2260 0.00000E+00 0.00000E+00 0.00000E+00 0.00000E+00 0.00000E+00 0.00000E+00
 -1      2261 0.00000E+00 0.00000E+00 0.00000E+00 0.00000E+00 0.00000E+00 0.00000E+00
 -1      2262 0.00000E+00 0.00000E+00 0.00000E+00 0.00000E+00 0.00000E+00 0.00000E+00
 -1      2263 0.00000E+00 0.00000E+00 0.00000E+00 0.00000E+00 0.00000E+00 0.00000E+00
 -1      2264 0.00000E+00 0.00000E+00 0.00000E+00 0.00000E+00 0.00000E+00 0.00000E+00
 -1      2265 0.00000E+00 0.00000E+00 0.00000E+00 0.00000E+00 0.00000E+00 0.00000E+00
 -1      2266 0.00000E+00 0.00000E+00 0.00000E+00 0.00000E+00 0.00000E+00 0.00000E+00
 -1      2267 0.00000E+00 0.00000E+00 0.00000E+00 0.00000E+00 0.00000E+00 0.00000E+00
 -1      2268 0.00000E+00 0.00000E+00 0.00000E+00 0.00000E+00 0.00000E+00 0.00000E+00
 -1      2269 0.00000E+00 0.00000E+00 0.00000E+00 0.00000E+00 0.00000E+00 0.00000E+00
 -1      2270 0.00000E+00 0.00000E+00 0.00000E+00 0.00000E+00 0.00000E+00 0.00000E+00
 -1      2271 0.00000E+00 0.00000E+00 0.00000E+00 0.00000E+00 0.00000E+00 0.00000E+00
 -1      2272 0.00000E+00 0.00000E+00 0.00000E+00 0.00000E+00 0.00000E+00 0.00000E+00
 -1      2273 0.00000E+00 0.00000E+00 0.00000E+00 0.00000E+00 0.00000E+00 0.00000E+00
 -1      2274 0.00000E+00 0.00000E+00 0.00000E+00 0.00000E+00 0.00000E+00 0.00000E+00
 -1      2275 0.00000E+00 0.00000E+00 0.00000E+00 0.00000E+00 0.00000E+00 0.00000E+00
 -1      2276 0.00000E+00 0.00000E+00 0.00000E+00 0.00000E+00 0.00000E+00 0.00000E+00
 -1      2277 0.00000E+00 0.00000E+00 0.00000E+00 0.00000E+00 0.00000E+00 0.00000E+00
 -1      2278 0.00000E+00 0.00000E+00 0.00000E+00 0.00000E+00 0.00000E+00 0.00000E+00
 -1      2279 0.00000E+00 0.00000E+00 0.00000E+00 0.00000E+00 0.00000E+00 0.00000E+00
 -1      2280 0.00000E+00 0.00000E+00 0.00000E+00 0.00000E+00 0.00000E+00 0.00000E+00
 -1      2281 0.00000E+00 0.00000E+00 0.00000E+00 0.00000E+00 0.00000E+00 0.00000E+00
 -1      2282 0.00000E+00 0.00000E+00 0.00000E+00 0.00000E+00 0.00000E+00 0.00000E+00
 -1      2283 0.00000E+00 0.00000E+00 0.00000E+00 0.00000E+00 0.00000E+00 0.00000E+00
 -1      2284 0.00000E+00 0.00000E+00 0.00000E+00 0.00000E+00 0.00000E+00 0.00000E+00
 -1      2285 0.00000E+00 0.00000E+00 0.00000E+00 0.00000E+00 0.00000E+00 0.00000E+00
 -1      2286 0.00000E+00 0.00000E+00 0.00000E+00 0.00000E+00 0.00000E+00 0.00000E+00
 -1      2287 0.00000E+00 0.00000E+00 0.00000E+00 0.00000E+00 0.00000E+00 0.00000E+00
 -1      2288 0.00000E+00 0.00000E+00 0.00000E+00 0.00000E+00 0.00000E+00 0.00000E+00
 -1      2289 0.00000E+00 0.00000E+00 0.00000E+00 0.00000E+00 0.00000E+00 0.00000E+00
 -1      2290 0.00000E+00 0.00000E+00 0.00000E+00 0.00000E+00 0.00000E+00 0.00000E+00
 -1      2291 0.00000E+00 0.00000E+00 0.00000E+00 0.00000E+00 0.00000E+00 0.00000E+00
 -1      2292 0.00000E+00 0.00000E+00 0.00000E+00 0.00000E+00 0.00000E+00 0.00000E+00
 -1      2293 0.00000E+00 0.00000E+00 0.00000E+00 0.00000E+00 0.00000E+00 0.00000E+00
 -1      2294 0.00000E+00 0.00000E+00 0.00000E+00 0.00000E+00 0.00000E+00 0.00000E+00
 -1      2295 0.00000E+00 0.00000E+00 0.00000E+00 0.00000E+00 0.00000E+00 0.00000E+00
 -1      2296 0.00000E+00 0.00000E+00 0.00000E+00 0.00000E+00 0.00000E+00 0.00000E+00
 -1      2297 0.00000E+00 0.00000E+00 0.00000E+00 0.00000E+00 0.00000E+00 0.00000E+00
 -1      2298 0.00000E+00 0.00000E+00 0.00000E+00 0.00000E+00 0.00000E+00 0.00000E+00
 -1      2299 0.00000E+00 0.00000E+00 0.00000E+00 0.00000E+00 0.00000E+00 0.00000E+00
 -1      2300 0.00000E+00 0.00000E+00 0.00000E+00 0.00000E+00 0.00000E+00 0.00000E+00
 -1      2301 0.00000E+00 0.00000E+00 0.00000E+00 0.00000E+00 0.00000E+00 0.00000E+00
 -1      2302 0.00000E+00 0.00000E+00 0.00000E+00 0.00000E+00 0.00000E+00 0.00000E+00
 -1      2303 0.00000E+00 0.00000E+00 0.00000E+00 0.00000E+00 0.00000E+00 0.00000E+00
 -1      2304 0.00000E+00 0.00000E+00 0.00000E+00 0.00000E+00 0.00000E+00 0.00000E+00
 -1      2305 0.00000E+00 0.00000E+00 0.00000E+00 0.00000E+00 0.00000E+00 0.00000E+00
 -1      2306 0.00000E+00 0.00000E+00 0.00000E+00 0.00000E+00 0.00000E+00 0.00000E+00
 -1      2307 0.00000E+00 0.00000E+00 0.00000E+00 0.00000E+00 0.00000E+00 0.00000E+00
 -1      2308 0.00000E+00 0.00000E+00 0.00000E+00 0.00000E+00 0.00000E+00 0.00000E+00
 -1      2309 0.00000E+00 0.00000E+00 0.00000E+00 0.00000E+00 0.00000E+00 0.00000E+00
 -1      2310 0.00000E+00 0.00000E+00 0.00000E+00 0.00000E+00 0.00000E+00 0.00000E+00
 -1      2311 0.00000E+00 0.00000E+00 0.00000E+00 0.00000E+00 0.00000E+00 0.00000E+00
 -1      2312 0.00000E+00 0.00000E+00 0.00000E+00 0.00000E+00 0.00000E+00 0.00000E+00
 -1      2313 0.00000E+00 0.00000E+00 0.00000E+00 0.00000E+00 0.00000E+00 0.00000E+00
 -1      2314 0.00000E+00 0.00000E+00 0.00000E+00 0.00000E+00 0.00000E+00 0.00000E+00
 -1      2315 0.00000E+00 0.00000E+00 0.00000E+00 0.00000E+00 0.00000E+00 0.00000E+00
 -1      2316 0.00000E+00 0.00000E+00 0.00000E+00 0.00000E+00 0.00000E+00 0.00000E+00
 -1      2317 0.00000E+00 0.00000E+00 0.00000E+00 0.00000E+00 0.00000E+00 0.00000E+00
 -1      2318 0.00000E+00 0.00000E+00 0.00000E+00 0.00000E+00 0.00000E+00 0.00000E+00
 -1      2319 0.00000E+00 0.00000E+00 0.00000E+00 0.00000E+00 0.00000E+00 0.00000E+00
 -1      2320 0.00000E+00 0.00000E+00 0.00000E+00 0.00000E+00 0.00000E+00 0.00000E+00
 -1      2321 0.00000E+00 0.00000E+00 0.00000E+00 0.00000E+00 0.00000E+00 0.00000E+00
 -1      2322 0.00000E+00 0.00000E+00 0.00000E+00 0.00000E+00 0.00000E+00 0.00000E+00
 -1      2323 0.00000E+00 0.00000E+00 0.00000E+00 0.00000E+00 0.00000E+00 0.00000E+00
 -1      2324 0.00000E+00 0.00000E+00 0.00000E+00 0.00000E+00 0.00000E+00 0.00000E+00
 -1      2325 0.00000E+00 0.00000E+00 0.00000E+00 0.00000E+00 0.00000E+00 0.00000E+00
 -1      2326 0.00000E+00 0.00000E+00 0.00000E+00 0.00000E+00 0.00000E+00 0.00000E+00
 -1      2327 0.00000E+00 0.00000E+00 0.00000E+00 0.00000E+00 0.00000E+00 0.00000E+00
 -1      2328 0.00000E+00 0.00000E+00 0.00000E+00 0.00000E+00 0.00000E+00 0.00000E+00
 -1      2329 0.00000E+00 0.00000E+00 0.00000E+00 0.00000E+00 0.00000E+00 0.00000E+00
 -1      2330 0.00000E+00 0.00000E+00 0.00000E+00 0.00000E+00 0.00000E+00 0.00000E+00
 -1      2331 0.00000E+00 0.00000E+00 0.00000E+00 0.00000E+00 0.00000E+00 0.00000E+00
 -1      2332 0.00000E+00 0.00000E+00 0.00000E+00 0.00000E+00 0.00000E+00 0.00000E+00
 -1      2333 0.00000E+00 0.00000E+00 0.00000E+00 0.00000E+00 0.00000E+00 0.00000E+00
 -1      2334 0.00000E+00 0.00000E+00 0.00000E+00 0.00000E+00 0.00000E+00 0.00000E+00
 -1      2335 0.00000E+00 0.00000E+00 0.00000E+00 0.00000E+00 0.00000E+00 0.00000E+00
 -1      2336 0.00000E+00 0.00000E+00 0.00000E+00 0.00000E+00 0.00000E+00 0.00000E+00
 -1      2337 0.00000E+00 0.00000E+00 0.00000E+00 0.00000E+00 0.00000E+00 0.00000E+00
 -1      2338 0.00000E+00 0.00000E+00 0.00000E+00 0.00000E+00 0.00000E+00 0.00000E+00
 -1      2339 0.00000E+00 0.00000E+00 0.00000E+00 0.00000E+00 0.00000E+00 0.00000E+00
 -1      2340 0.00000E+00 0.00000E+00 0.00000E+00 0.00000E+00 0.00000E+00 0.00000E+00
 -1      2341 0.00000E+00 0.00000E+00 0.00000E+00 0.00000E+00 0.00000E+00 0.00000E+00
 -1      2342 0.00000E+00 0.00000E+00 0.00000E+00 0.00000E+00 0.00000E+00 0.00000E+00
 -1      2343 0.00000E+00 0.00000E+00 0.00000E+00 0.00000E+00 0.00000E+00 0.00000E+00
 -1      2344 0.00000E+00 0.00000E+00 0.00000E+00 0.00000E+00 0.00000E+00 0.00000E+00
 -1      2345 0.00000E+00 0.00000E+00 0.00000E+00 0.00000E+00 0.00000E+00 0.00000E+00
 -1      2346 0.00000E+00 0.00000E+00 0.00000E+00 0.00000E+00 0.00000E+00 0.00000E+00
 -1      2347 0.00000E+00 0.00000E+00 0.00000E+00 0.00000E+00 0.00000E+00 0.00000E+00
 -1      2348 0.00000E+00 0.00000E+00 0.00000E+00 0.00000E+00 0.00000E+00 0.00000E+00
 -1      2349 0.00000E+00 0.00000E+00 0.00000E+00 0.00000E+00 0.00000E+00 0.00000E+00
 -1      2350 0.00000E+00 0.00000E+00 0.00000E+00 0.00000E+00 0.00000E+00 0.00000E+00
 -1      2351 0.00000E+00 0.00000E+00 0.00000E+00 0.00000E+00 0.00000E+00 0.00000E+00
 -1      2352 0.00000E+00 0.00000E+00 0.00000E+00 0.00000E+00 0.00000E+00 0.00000E+00
 -1      2353 0.00000E+00 0.00000E+00 0.00000E+00 0.00000E+00 0.00000E+00 0.00000E+00
 -1      2354 0.00000E+00 0.00000E+00 0.00000E+00 0.00000E+00 0.00000E+00 0.00000E+00
 -1      2355 0.00000E+00 0.00000E+00 0.00000E+00 0.00000E+00 0.00000E+00 0.00000E+00
 -1      2356 0.00000E+00 0.00000E+00 0.00000E+00 0.00000E+00 0.00000E+00 0.00000E+00
 -1      2357 0.00000E+00 0.00000E+00 0.00000E+00 0.00000E+00 0.00000E+00 0.00000E+00
 -1      2358 0.00000E+00 0.00000E+00 0.00000E+00 0.00000E+00 0.00000E+00 0.00000E+00
 -1      2359 0.00000E+00 0.00000E+00 0.00000E+00 0.00000E+00 0.00000E+00 0.00000E+00
 -1      2360 0.00000E+00 0.00000E+00 0.00000E+00 0.00000E+00 0.00000E+00 0.00000E+00
 -1      2361 0.00000E+00 0.00000E+00 0.00000E+00 0.00000E+00 0.00000E+00 0.00000E+00
 -3
    1PSTEP                         5           1           1          
  100CL  101 1.000000000        2360                     0    1           1
 -4  ERROR       1    1
 -5  STR(%)      1    1    0    0
 -1         1 3.58318E+00
 -1         2 3.67797E+01
 -1         3 3.81603E+01
 -1         4 3.81603E+01
 -1         5 3.75925E+01
 -1         6 3.61651E+01
 -1         7 3.55516E+01
 -1         8 3.53723E+01
 -1         9 3.52618E+01
 -1        10 3.52252E+01
 -1        11 3.52581E+01
 -1        12 3.53191E+01
 -1        13 3.54047E+01
 -1        14 3.55129E+01
 -1        15 3.56413E+01
 -1        16 3.57863E+01
 -1        17 3.59419E+01
 -1        18 3.60996E+01
 -1        19 3.62390E+01
 -1        20 3.63415E+01
 -1        21 3.63415E+01
 -1        22 3.67797E+01
 -1        23 3.67797E+01
 -1        24 9.03222E+00
 -1        25 3.03149E+00
 -1        26 2.47801E+00
 -1        27 2.15751E+00
 -1        28 1.95106E+00
 -1        29 1.80824E+00
 -1        30 1.70299E+00
 -1        31 1.61938E+00
 -1        32 1.54582E+00
 -1        33 1.47205E+00
 -1        34 1.38745E+00
 -1        35 1.27953E+00
 -1        36 1.13333E+00
 -1        37 9.30515E-01
 -1        38 3.19136E+00
 -1        39 1.10576E+00
 -1        40 4.73762E+00
 -1        41 4.73762E+00
 -1        42 2.76528E+00
 -1        43 2.25807E+00
 -1        44 1.87930E+00
 -1        45 1.61053E+00
 -1        46 1.41325E+00
 -1        47 1.26083E+00
 -1        48 1.13704E+00
 -1        49 1.03043E+00
 -1        50 9.32758E-01
 -1        51 8.37228E-01
 -1        52 7.37517E-01
 -1        53 6.26968E-01
 -1        54 4.97842E-01
 -1        55 1.65470E+00
 -1        56 3.81603E+01
 -1        57 9.31294E+00
 -1        58 3.02172E+00
 -1        59 2.46408E+00
 -1        60 2.03026E+00
 -1        61 1.72285E+00
 -1        62 1.49204E+00
 -1        63 1.31581E+00
 -1        64 1.17454E+00
 -1        65 1.05555E+00
 -1        66 9.49059E-01
 -1        67 8.47290E-01
 -1        68 7.43194E-01
 -1        69 6.29625E-01
 -1        70 4.98543E-01
 -1        71 1.65470E+00
 -1        72 3.81603E+01
 -1        73 1.60578E+01
 -1        74 3.02172E+00
 -1        75 2.46408E+00
 -1        76 2.03638E+00
 -1        77 1.75649E+00
 -1        78 1.52802E+00
 -1        79 1.34616E+00
 -1        80 1.19730E+00
 -1        81 1.07125E+00
 -1        82 9.58943E-01
 -1        83 8.52677E-01
 -1        84 7.45277E-01
 -1        85 6.29625E-01
 -1        86 4.98543E-01
 -1        87 1.65233E+00
 -1        88 3.75925E+01
 -1        89 1.72525E+01
 -1        90 6.13990E+00
 -1        91 2.38162E+00
 -1        92 2.03638E+00
 -1        93 1.75649E+00
 -1        94 1.52802E+00
 -1        95 1.34616E+00
 -1        96 1.19933E+00
 -1        97 1.07329E+00
 -1        98 9.59408E-01
 -1        99 8.52677E-01
 -1       100 7.45277E-01
 -1       101 6.29425E-01
 -1       102 4.96981E-01
 -1       103 1.64151E+00
 -1       104 3.61651E+01
 -1       105 1.73220E+01
 -1       106 8.61516E+00
 -1       107 2.75500E+00
 -1       108 1.89952E+00
 -1       109 1.70214E+00
 -1       110 1.51125E+00
 -1       111 1.34377E+00
 -1       112 1.19933E+00
 -1       113 1.07329E+00
 -1       114 9.59408E-01
 -1       115 8.51254E-01
 -1       116 7.42224E-01
 -1       117 6.25249E-01
 -1       118 4.92357E-01
 -1       119 1.61963E+00
 -1       120 3.55516E+01
 -1       121 1.73220E+01
 -1       122 9.47162E+00
 -1       123 3.49990E+00
 -1       124 2.23005E+00
 -1       125 1.57147E+00
 -1       126 1.44290E+00
 -1       127 1.30682E+00
 -1       128 1.17801E+00
 -1       129 1.05922E+00
 -1       130 9.48407E-01
 -1       131 8.41365E-01
 -1       132 7.32710E-01
 -1       133 6.16040E-01
 -1       134 4.83850E-01
 -1       135 1.58383E+00
 -1       136 3.53723E+01
 -1       137 1.69446E+01
 -1       138 9.75396E+00
 -1       139 4.77033E+00
 -1       140 2.60873E+00
 -1       141 1.88054E+00
 -1       142 1.32708E+00
 -1       143 1.23536E+00
 -1       144 1.13172E+00
 -1       145 1.02698E+00
 -1       146 9.23940E-01
 -1       147 8.21256E-01
 -1       148 7.15254E-01
 -1       149 6.00585E-01
 -1       150 4.70505E-01
 -1       151 1.53083E+00
 -1       152 3.52618E+01
 -1       153 1.65102E+01
 -1       154 9.75396E+00
 -1       155 5.40188E+00
 -1       156 2.84889E+00
 -1       157 2.22197E+00
 -1       158 1.62822E+00
 -1       159 1.14046E+00
 -1       160 1.06005E+00
 -1       161 9.75186E-01
 -1       162 8.84314E-01
 -1       163 7.89238E-01
 -1       164 6.88322E-01
 -1       165 5.77563E-01
 -1       166 4.51253E-01
 -1       167 1.45703E+00
 -1       168 3.52252E+01
 -1       169 1.60646E+01
 -1       170 9.71266E+00
 -1       171 5.67370E+00
 -1       172 2.99416E+00
 -1       173 2.46149E+00
 -1       174 1.93818E+00
 -1       175 1.43412E+00
 -1       176 9.93315E-01
 -1       177 9.03147E-01
 -1       178 8.28210E-01
 -1       179 7.43780E-01
 -1       180 6.50388E-01
 -1       181 5.45588E-01
 -1       182 4.24934E-01
 -1       183 1.35857E+00
 -1       184 3.52581E+01
 -1       185 1.56450E+01
 -1       186 9.53585E+00
 -1       187 5.72487E+00
 -1       188 3.07543E+00
 -1       189 2.62194E+00
 -1       190 2.17086E+00
 -1       191 1.71804E+00
 -1       192 1.27693E+00
 -1       193 8.68730E-01
 -1       194 7.54703E-01
 -1       195 6.83536E-01
 -1       196 5.99977E-01
 -1       197 5.03236E-01
 -1       198 3.90323E-01
 -1       199 1.23156E+00
 -1       200 3.53191E+01
 -1       201 1.52522E+01
 -1       202 9.28231E+00
 -1       203 5.72487E+00
 -1       204 3.17336E+00
 -1       205 2.72279E+00
 -1       206 2.33725E+00
 -1       207 1.94158E+00
 -1       208 1.53878E+00
 -1       209 1.14366E+00
 -1       210 7.76845E-01
 -1       211 6.07369E-01
 -1       212 5.35681E-01
 -1       213 4.49077E-01
 -1       214 3.46151E-01
 -1       215 1.07222E+00
 -1       216 3.54047E+01
 -1       217 1.48789E+01
 -1       218 8.98890E+00
 -1       219 5.63817E+00
 -1       220 3.20942E+00
 -1       221 2.77866E+00
 -1       222 2.44899E+00
 -1       223 2.10876E+00
 -1       224 1.75230E+00
 -1       225 1.38605E+00
 -1       226 1.02565E+00
 -1       227 6.91730E-01
 -1       228 4.56181E-01
 -1       229 3.81682E-01
 -1       230 2.91133E-01
 -1       231 8.77083E-01
 -1       232 3.55129E+01
 -1       233 1.45159E+01
 -1       234 8.66649E+00
 -1       235 5.45701E+00
 -1       236 3.20942E+00
 -1       237 2.79977E+00
 -1       238 2.51602E+00
 -1       239 2.22568E+00
 -1       240 1.91703E+00
 -1       241 1.58895E+00
 -1       242 1.24994E+00
 -1       243 9.16464E-01
 -1       244 6.09678E-01
 -1       245 3.50872E-01
 -1       246 2.23971E-01
 -1       247 6.43042E-01
 -1       248 3.56413E+01
 -1       249 1.41521E+01
 -1       250 8.31700E+00
 -1       251 5.20372E+00
 -1       252 3.11407E+00
 -1       253 2.79977E+00
 -1       254 2.54587E+00
 -1       255 2.29844E+00
 -1       256 2.03501E+00
 -1       257 1.74882E+00
 -1       258 1.44139E+00
 -1       259 1.12271E+00
 -1       260 8.10283E-01
 -1       261 5.26188E-01
 -1       262 2.92272E-01
 -1       263 6.12367E-01
 -1       264 3.57863E+01
 -1       265 1.37762E+01
 -1       266 7.93519E+00
 -1       267 4.88646E+00
 -1       268 3.06632E+00
 -1       269 2.79271E+00
 -1       270 2.54587E+00
 -1       271 2.33195E+00
 -1       272 2.10907E+00
 -1       273 1.86447E+00
 -1       274 1.59410E+00
 -1       275 1.30119E+00
 -1       276 9.96994E-01
 -1       277 7.00210E-01
 -1       278 4.33213E-01
 -1       279 1.05469E+00
 -1       280 3.59419E+01
 -1       281 1.33754E+01
 -1       282 7.51119E+00
 -1       283 4.50381E+00
 -1       284 3.01288E+00
 -1       285 2.76116E+00
 -1       286 2.54353E+00
 -1       287 2.33195E+00
 -1       288 2.14158E+00
 -1       289 1.93580E+00
 -1       290 1.70412E+00
 -1       291 1.44405E+00
 -1       292 1.15984E+00
 -1       293 8.63808E-01
 -1       294 5.74431E-01
 -1       295 1.52019E+00
 -1       296 3.60996E+01
 -1       297 1.29349E+01
 -1       298 7.03048E+00
 -1       299 4.04650E+00
 -1       300 2.94177E+00
 -1       301 2.70641E+00
 -1       302 2.51159E+00
 -1       303 2.32934E+00
 -1       304 2.14158E+00
 -1       305 1.96253E+00
 -1       306 1.76850E+00
 -1       307 1.54471E+00
 -1       308 1.28913E+00
 -1       309 1.00650E+00
 -1       310 7.07750E-01
 -1       311 1.99215E+00
 -1       312 3.62390E+01
 -1       313 1.24366E+01
 -1       314 6.47322E+00
 -1       315 3.49750E+00
 -1       316 2.85089E+00
 -1       317 2.62750E+00
 -1       318 2.45028E+00
 -1       319 2.29165E+00
 -1       320 2.13353E+00
 -1       321 1.96253E+00
 -1       322 1.78409E+00
 -1       323 1.59725E+00
 -1       324 1.37571E+00
 -1       325 1.11698E+00
 -1       326 8.22798E-01
 -1       327 2.44426E+00
 -1       328 3.63415E+01
 -1       329 1.18567E+01
 -1       330 5.81198E+00
 -1       331 3.05204E+00
 -1       332 2.73615E+00
 -1       333 2.52116E+00
 -1       334 2.35727E+00
 -1       335 2.21739E+00
 -1       336 2.08384E+00
 -1       337 1.94316E+00
 -1       338 1.78409E+00
 -1       339 1.59725E+00
 -1       340 1.41038E+00
 -1       341 1.18345E+00
 -1       342 9.07360E-01
 -1       343 2.83616E+00
 -1       344 3.63415E+01
 -1       345 1.11702E+01
 -1       346 5.00742E+00
 -1       347 2.90557E+00
 -1       348 2.59088E+00
 -1       349 2.38126E+00
 -1       350 2.22714E+00
 -1       351 2.10192E+00
 -1       352 1.98846E+00
 -1       353 1.87370E+00
 -1       354 1.74620E+00
 -1       355 1.59516E+00
 -1       356 1.41038E+00
 -1       357 1.19420E+00
 -1       358 9.48429E-01
 -1       359 3.11109E+00
 -1       360 3.67797E+01
 -1       361 1.03511E+01
 -1       362 4.01474E+00
 -1       363 2.72068E+00
 -1       364 2.40493E+00
 -1       365 2.19838E+00
 -1       366 2.05123E+00
 -1       367 1.93731E+00
 -1       368 1.84015E+00
 -1       369 1.74737E+00
 -1       370 1.64794E+00
 -1       371 1.53071E+00
 -1       372 1.38367E+00
 -1       373 1.19420E+00
 -1       374 9.48429E-01
 -1       375 3.19136E+00
 -1       376 3.23936E+01
 -1       377 2.10369E+01
 -1       378 2.13098E+00
 -1       379 3.44217E-01
 -1       381 3.72509E+01
 -1       382 3.72509E+01
 -1       383 1.43763E+01
 -1       384 4.41671E+00
 -1       385 2.52794E+00
 -1       386 2.02693E+00
 -1       387 1.66505E+00
 -1       388 1.38610E+00
 -1       389 1.15986E+00
 -1       390 9.67762E-01
 -1       391 7.96647E-01
 -1       392 6.35393E-01
 -1       393 4.72750E-01
 -1       394 5.92831E-01
 -1       395 8.57663E-01
 -1       396 1.28201E+00
 -1       397 1.95619E+00
 -1       398 2.92498E+00
 -1       399 1.06136E+01
 -1       400 1.81571E+01
 -1       401 3.65292E+01
 -1       402 3.65292E+01
 -1       403 2.10369E+01
 -1       404 7.13613E+00
 -1       405 2.88423E+00
 -1       406 2.36604E+00
 -1       407 1.93089E+00
 -1       408 1.67836E+00
 -1       409 1.51241E+00
 -1       410 1.41228E+00
 -1       411 1.36216E+00
 -1       412 1.39345E+00
 -1       413 1.47855E+00
 -1       414 1.61821E+00
 -1       415 2.66705E+00
 -1       416 2.66705E+00
 -1       417 2.26860E+00
 -1       418 2.13098E+00
 -1       419 2.14161E+00
 -1       420 2.15257E+00
 -1       421 2.16380E+00
 -1       422 2.17519E+00
 -1       423 2.18660E+00
 -1       424 2.19799E+00
 -1       425 2.20939E+00
 -1       426 2.22102E+00
 -1       427 2.23333E+00
 -1       428 2.24720E+00
 -1       429 2.26403E+00
 -1       430 2.28594E+00
 -1       431 2.31609E+00
 -1       432 2.35902E+00
 -1       433 2.42118E+00
 -1       434 2.51185E+00
 -1       435 2.64477E+00
 -1       436 2.84243E+00
 -1       437 4.91133E+00
 -1       438 4.91133E+00
 -1       439 3.26414E-01
 -1       440 3.44217E-01
 -1       441 1.04488E+00
 -1       442 1.41327E+00
 -1       443 1.43775E+00
 -1       444 2.06690E+00
 -1       445 3.82453E+00
 -1       446 1.04659E+01
 -1       447 1.69406E+01
 -1       448 2.30931E+01
 -1       449 2.88303E+01
 -1       450 3.41059E+01
 -1       451 3.89209E+01
 -1       452 4.09688E+01
 -1       453 4.09688E+01
 -1       454 4.00853E+01
 -1       455 3.73933E+01
 -1       456 3.62020E+01
 -1       457 3.72509E+01
 -1       458 3.73933E+01
 -1       459 4.00853E+01
 -1       460 4.09688E+01
 -1       461 4.09688E+01
 -1       462 3.89209E+01
 -1       463 3.41059E+01
 -1       464 2.88303E+01
 -1       465 2.30931E+01
 -1       466 1.69406E+01
 -1       467 1.04659E+01
 -1       468 3.82453E+00
 -1       469 2.06690E+00
 -1       470 1.52565E+00
 -1       471 1.41327E+00
 -1       472 1.04488E+00
 -1       473 3.72509E+01
 -1       474 2.89653E+01
 -1       475 2.34946E+01
 -1       476 1.95141E+01
 -1       477 1.63720E+01
 -1       478 1.36526E+01
 -1       479 1.11241E+01
 -1       480 8.67494E+00
 -1       481 6.25935E+00
 -1       482 3.85693E+00
 -1       483 2.80722E+00
 -1       484 2.37784E+00
 -1       485 1.94782E+00
 -1       486 1.52565E+00
 -1       487 1.12353E+00
 -1       488 7.33001E-01
 -1       489 1.43763E+01
 -1       490 1.27214E+01
 -1       491 1.05825E+01
 -1       492 8.46759E+00
 -1       493 6.53723E+00
 -1       494 4.78751E+00
 -1       495 3.16727E+00
 -1       496 2.83663E+00
 -1       497 2.56501E+00
 -1       498 2.29005E+00
 -1       499 2.00671E+00
 -1       500 1.71115E+00
 -1       501 1.40714E+00
 -1       502 1.15575E+00
 -1       503 2.89858E+00
 -1       504 4.91133E+00
 -1       505 4.41671E+00
 -1       506 3.88123E+00
 -1       507 3.07173E+00
 -1       508 2.88588E+00
 -1       509 2.68849E+00
 -1       510 2.48735E+00
 -1       511 2.28597E+00
 -1       512 2.08417E+00
 -1       513 1.87893E+00
 -1       514 1.66525E+00
 -1       515 1.48074E+00
 -1       516 1.30485E+00
 -1       517 2.38631E+00
 -1       518 2.44887E+00
 -1       519 2.89858E+00
 -1       520 4.91133E+00
 -1       521 2.52794E+00
 -1       522 2.44212E+00
 -1       523 2.31364E+00
 -1       524 2.18682E+00
 -1       525 2.05392E+00
 -1       526 1.91242E+00
 -1       527 1.76803E+00
 -1       528 1.62480E+00
 -1       529 1.48453E+00
 -1       530 1.36881E+00
 -1       531 1.28894E+00
 -1       532 1.22324E+00
 -1       533 2.38631E+00
 -1       534 2.44887E+00
 -1       535 2.57825E+00
 -1       536 2.84243E+00
 -1       537 2.02693E+00
 -1       538 1.98901E+00
 -1       539 1.92355E+00
 -1       540 1.84228E+00
 -1       541 1.74866E+00
 -1       542 1.64783E+00
 -1       543 1.54618E+00
 -1       544 1.45030E+00
 -1       545 1.36592E+00
 -1       546 1.29714E+00
 -1       547 1.24627E+00
 -1       548 1.25645E+00
 -1       549 2.21235E+00
 -1       550 2.28399E+00
 -1       551 2.41537E+00
 -1       552 2.64477E+00
 -1       553 1.66505E+00
 -1       554 1.65410E+00
 -1       555 1.62762E+00
 -1       556 1.58987E+00
 -1       557 1.54180E+00
 -1       558 1.48548E+00
 -1       559 1.42469E+00
 -1       560 1.36463E+00
 -1       561 1.31118E+00
 -1       562 1.27259E+00
 -1       563 1.29370E+00
 -1       564 1.33597E+00
 -1       565 2.11632E+00
 -1       566 2.19072E+00
 -1       567 2.31522E+00
 -1       568 2.51185E+00
 -1       569 1.39304E+00
 -1       570 1.39366E+00
 -1       571 1.39366E+00
 -1       572 1.38745E+00
 -1       573 1.37458E+00
 -1       574 1.35539E+00
 -1       575 1.33150E+00
 -1       576 1.30618E+00
 -1       577 1.28752E+00
 -1       578 1.31356E+00
 -1       579 1.35761E+00
 -1       580 1.42300E+00
 -1       581 2.06286E+00
 -1       582 2.13615E+00
 -1       583 2.25038E+00
 -1       584 2.42118E+00
 -1       585 1.18077E+00
 -1       586 1.20257E+00
 -1       587 1.22138E+00
 -1       588 1.23729E+00
 -1       589 1.24963E+00
 -1       590 1.25854E+00
 -1       591 1.26544E+00
 -1       592 1.27349E+00
 -1       593 1.31022E+00
 -1       594 1.35767E+00
 -1       595 1.42126E+00
 -1       596 1.50593E+00
 -1       597 2.03445E+00
 -1       598 2.10426E+00
 -1       599 2.20702E+00
 -1       600 2.35902E+00
 -1       601 1.00168E+00
 -1       602 1.04227E+00
 -1       603 1.08310E+00
 -1       604 1.12420E+00
 -1       605 1.16410E+00
 -1       606 1.20177E+00
 -1       607 1.23717E+00
 -1       608 1.27573E+00
 -1       609 1.33312E+00
 -1       610 1.39729E+00
 -1       611 1.47602E+00
 -1       612 1.57594E+00
 -1       613 2.02673E+00
 -1       614 2.08722E+00
 -1       615 2.17756E+00
 -1       616 2.31609E+00
 -1       617 8.44995E-01
 -1       618 9.04858E-01
 -1       619 9.67562E-01
 -1       620 1.03258E+00
 -1       621 1.09742E+00
 -1       622 1.15996E+00
 -1       623 1.21913E+00
 -1       624 1.28330E+00
 -1       625 1.35347E+00
 -1       626 1.42850E+00
 -1       627 1.51734E+00
 -1       628 1.62845E+00
 -1       629 2.04585E+00
 -1       630 2.08535E+00
 -1       631 2.15764E+00
 -1       632 2.28594E+00
 -1       633 7.02545E-01
 -1       634 7.85365E-01
 -1       635 8.72647E-01
 -1       636 9.62377E-01
 -1       637 1.05055E+00
 -1       638 1.13406E+00
 -1       639 1.21534E+00
 -1       640 1.29511E+00
 -1       641 1.37080E+00
 -1       642 1.45038E+00
 -1       643 1.54431E+00
 -1       644 1.66291E+00
 -1       645 2.08205E+00
 -1       646 2.09794E+00
 -1       647 2.14463E+00
 -1       648 2.26403E+00
 -1       649 5.76711E-01
 -1       650 6.83417E-01
 -1       651 7.99404E-01
 -1       652 9.16332E-01
 -1       653 1.02995E+00
 -1       654 1.14021E+00
 -1       655 1.23255E+00
 -1       656 1.31181E+00
 -1       657 1.38546E+00
 -1       658 1.46357E+00
 -1       659 1.55830E+00
 -1       660 1.68152E+00
 -1       661 2.13565E+00
 -1       662 2.13565E+00
 -1       663 2.13669E+00
 -1       664 2.24720E+00
 -1       665 7.65754E-01
 -1       666 8.72513E-01
 -1       667 8.84688E-01
 -1       668 9.22010E-01
 -1       669 1.06598E+00
 -1       670 1.17741E+00
 -1       671 1.26327E+00
 -1       672 1.33292E+00
 -1       673 1.39738E+00
 -1       674 1.46916E+00
 -1       675 1.56177E+00
 -1       676 1.68781E+00
 -1       677 2.20454E+00
 -1       678 2.20454E+00
 -1       679 2.14273E+00
 -1       680 2.23333E+00
 -1       681 1.05703E+00
 -1       682 1.13303E+00
 -1       683 1.13303E+00
 -1       684 1.06665E+00
 -1       685 1.13874E+00
 -1       686 1.23789E+00
 -1       687 1.30517E+00
 -1       688 1.35611E+00
 -1       689 1.40573E+00
 -1       690 1.46916E+00
 -1       691 1.56177E+00
 -1       692 1.68781E+00
 -1       693 2.29881E+00
 -1       694 2.29881E+00
 -1       695 2.17010E+00
 -1       696 2.22102E+00
 -1       697 1.46922E+00
 -1       698 1.46922E+00
 -1       699 1.44734E+00
 -1       700 1.24129E+00
 -1       701 1.24840E+00
 -1       702 1.31702E+00
 -1       703 1.35255E+00
 -1       704 1.37754E+00
 -1       705 1.40955E+00
 -1       706 1.46833E+00
 -1       707 1.55755E+00
 -1       708 1.68557E+00
 -1       709 2.40015E+00
 -1       710 2.40015E+00
 -1       711 2.19706E+00
 -1       712 2.20939E+00
 -1       713 2.01339E+00
 -1       714 2.01339E+00
 -1       715 1.79400E+00
 -1       716 1.36230E+00
 -1       717 1.38742E+00
 -1       718 1.40371E+00
 -1       719 1.40371E+00
 -1       720 1.39713E+00
 -1       721 1.40955E+00
 -1       722 1.46248E+00
 -1       723 1.54841E+00
 -1       724 1.67817E+00
 -1       725 2.48610E+00
 -1       726 2.48610E+00
 -1       727 2.22119E+00
 -1       728 2.19799E+00
 -1       729 2.92498E+00
 -1       730 2.66915E+00
 -1       731 2.07743E+00
 -1       732 1.54599E+00
 -1       733 1.54599E+00
 -1       734 1.53564E+00
 -1       735 1.48210E+00
 -1       736 1.43118E+00
 -1       737 1.40858E+00
 -1       738 1.45324E+00
 -1       739 1.53672E+00
 -1       740 1.66819E+00
 -1       741 2.55442E+00
 -1       742 2.55442E+00
 -1       743 2.24082E+00
 -1       744 2.18660E+00
 -1       745 1.06136E+01
 -1       746 4.76629E+00
 -1       747 2.25456E+00
 -1       748 1.87085E+00
 -1       749 1.78501E+00
 -1       750 1.65928E+00
 -1       751 1.53797E+00
 -1       752 1.45053E+00
 -1       753 1.40357E+00
 -1       754 1.44222E+00
 -1       755 1.52425E+00
 -1       756 1.65736E+00
 -1       757 2.60467E+00
 -1       758 2.60467E+00
 -1       759 2.25507E+00
 -1       760 2.17519E+00
 -1       761 1.81571E+01
 -1       762 8.36709E+00
 -1       763 2.29334E+00
 -1       764 2.24484E+00
 -1       765 1.96906E+00
 -1       766 1.73211E+00
 -1       767 1.56355E+00
 -1       768 1.45431E+00
 -1       769 1.40278E+00
 -1       770 1.43053E+00
 -1       771 1.51199E+00
 -1       772 1.64665E+00
 -1       773 2.63797E+00
 -1       774 2.63797E+00
 -1       775 2.26384E+00
 -1       776 2.16380E+00
 -1       777 3.65292E+01
 -1       778 9.52720E+00
 -1       779 3.82331E+00
 -1       780 2.41814E+00
 -1       781 2.03039E+00
 -1       782 1.73853E+00
 -1       783 1.56355E+00
 -1       784 1.45431E+00
 -1       785 1.39664E+00
 -1       786 1.41861E+00
 -1       787 1.50032E+00
 -1       788 1.63650E+00
 -1       789 2.65790E+00
 -1       790 2.65790E+00
 -1       791 2.26793E+00
 -1       792 2.15257E+00
 -1       793 3.65292E+01
 -1       794 9.52720E+00
 -1       795 3.82331E+00
 -1       796 2.41814E+00
 -1       797 2.03039E+00
 -1       798 1.73853E+00
 -1       799 1.55545E+00
 -1       800 1.44153E+00
 -1       801 1.38312E+00
 -1       802 1.40629E+00
 -1       803 1.48917E+00
 -1       804 1.62695E+00
 -1       805 2.66705E+00
 -1       806 2.66705E+00
 -1       807 2.26860E+00
 -1       808 2.14161E+00
 -1       809 2.08717E+01
 -1       810 3.81603E+01
 -1       811 2.14490E+01
 -1       812 4.16040E+00
 -1       813 2.37366E+01
 -1       814 7.02528E+00
 -1       815 4.73762E+00
 -1       816 6.16733E+00
 -1       817 2.89350E+00
 -1       818 3.75145E+00
 -1       819 2.74290E+00
 -1       820 2.36107E+00
 -1       821 2.51167E+00
 -1       822 2.24717E+00
 -1       823 1.95478E+00
 -1       824 2.06868E+00
 -1       825 1.87655E+00
 -1       826 1.66669E+00
 -1       827 1.74491E+00
 -1       828 1.60744E+00
 -1       829 1.45265E+00
 -1       830 1.51189E+00
 -1       831 1.40393E+00
 -1       832 1.28832E+00
 -1       833 1.33704E+00
 -1       834 1.24518E+00
 -1       835 1.15579E+00
 -1       836 1.19894E+00
 -1       837 1.11505E+00
 -1       838 1.04299E+00
 -1       839 1.08373E+00
 -1       840 1.00230E+00
 -1       841 9.40909E-01
 -1       842 9.81593E-01
 -1       843 8.98175E-01
 -1       844 8.42259E-01
 -1       845 8.84993E-01
 -1       846 7.95242E-01
 -1       847 7.40355E-01
 -1       848 7.87372E-01
 -1       849 6.86409E-01
 -1       850 6.28296E-01
 -1       851 6.82242E-01
 -1       852 5.64084E-01
 -1       853 4.98192E-01
 -1       854 5.62405E-01
 -1       855 1.07662E+00
 -1       856 1.65470E+00
 -1       857 1.07627E+00
 -1       858 1.38023E+00
 -1       859 1.38023E+00
 -1       860 3.81603E+01
 -1       861 3.81603E+01
 -1       862 3.81603E+01
 -1       863 2.71091E+01
 -1       864 1.26854E+01
 -1       865 9.53977E+00
 -1       866 3.02172E+00
 -1       867 2.74290E+00
 -1       868 2.46408E+00
 -1       869 2.25023E+00
 -1       870 2.03332E+00
 -1       871 1.89644E+00
 -1       872 1.73967E+00
 -1       873 1.64225E+00
 -1       874 1.51003E+00
 -1       875 1.43709E+00
 -1       876 1.33098E+00
 -1       877 1.27173E+00
 -1       878 1.18592E+00
 -1       879 1.13428E+00
 -1       880 1.06340E+00
 -1       881 1.01510E+00
 -1       882 9.54001E-01
 -1       883 9.05810E-01
 -1       884 8.49984E-01
 -1       885 7.98977E-01
 -1       886 7.44236E-01
 -1       887 6.87451E-01
 -1       888 6.29625E-01
 -1       889 5.64084E-01
 -1       890 4.98543E-01
 -1       891 1.07544E+00
 -1       892 1.65351E+00
 -1       893 1.37905E+00
 -1       894 3.78764E+01
 -1       895 3.75925E+01
 -1       896 3.78764E+01
 -1       897 2.74225E+01
 -1       898 1.66552E+01
 -1       899 1.16962E+01
 -1       900 4.58081E+00
 -1       901 4.26076E+00
 -1       902 2.42285E+00
 -1       903 2.20900E+00
 -1       904 2.03638E+00
 -1       905 1.89644E+00
 -1       906 1.75649E+00
 -1       907 1.64225E+00
 -1       908 1.52802E+00
 -1       909 1.43709E+00
 -1       910 1.34616E+00
 -1       911 1.27274E+00
 -1       912 1.19832E+00
 -1       913 1.13631E+00
 -1       914 1.07227E+00
 -1       915 1.01635E+00
 -1       916 9.59176E-01
 -1       917 9.06043E-01
 -1       918 8.52677E-01
 -1       919 7.98977E-01
 -1       920 7.45277E-01
 -1       921 6.87351E-01
 -1       922 6.29525E-01
 -1       923 5.63203E-01
 -1       924 4.97762E-01
 -1       925 1.06925E+00
 -1       926 1.64692E+00
 -1       927 1.37364E+00
 -1       928 3.68788E+01
 -1       929 3.61651E+01
 -1       930 3.68788E+01
 -1       931 2.67436E+01
 -1       932 1.72873E+01
 -1       933 1.29686E+01
 -1       934 7.37753E+00
 -1       935 5.68508E+00
 -1       936 2.56831E+00
 -1       937 2.32726E+00
 -1       938 1.96795E+00
 -1       939 1.80083E+00
 -1       940 1.72932E+00
 -1       941 1.60670E+00
 -1       942 1.51964E+00
 -1       943 1.42751E+00
 -1       944 1.34496E+00
 -1       945 1.27155E+00
 -1       946 1.19933E+00
 -1       947 1.13631E+00
 -1       948 1.07329E+00
 -1       949 1.01635E+00
 -1       950 9.59408E-01
 -1       951 9.05331E-01
 -1       952 8.51966E-01
 -1       953 7.96739E-01
 -1       954 7.43751E-01
 -1       955 6.83737E-01
 -1       956 6.27337E-01
 -1       957 5.58803E-01
 -1       958 4.94669E-01
 -1       959 1.05599E+00
 -1       960 1.63057E+00
 -1       961 1.36270E+00
 -1       962 3.58583E+01
 -1       963 3.55516E+01
 -1       964 3.58583E+01
 -1       965 2.64368E+01
 -1       966 1.73220E+01
 -1       967 1.33968E+01
 -1       968 9.04339E+00
 -1       969 6.48576E+00
 -1       970 3.12745E+00
 -1       971 2.86497E+00
 -1       972 2.06478E+00
 -1       973 1.90076E+00
 -1       974 1.63681E+00
 -1       975 1.50719E+00
 -1       976 1.47708E+00
 -1       977 1.37486E+00
 -1       978 1.32530E+00
 -1       979 1.24241E+00
 -1       980 1.18867E+00
 -1       981 1.11861E+00
 -1       982 1.06626E+00
 -1       983 1.00381E+00
 -1       984 9.53908E-01
 -1       985 8.94886E-01
 -1       986 8.46310E-01
 -1       987 7.87037E-01
 -1       988 7.37467E-01
 -1       989 6.74375E-01
 -1       990 6.20645E-01
 -1       991 5.49945E-01
 -1       992 4.88104E-01
 -1       993 1.03384E+00
 -1       994 1.60173E+00
 -1       995 1.34480E+00
 -1       996 3.54619E+01
 -1       997 3.53723E+01
 -1       998 3.54619E+01
 -1       999 2.61585E+01
 -1      1000 1.71333E+01
 -1      1001 1.33493E+01
 -1      1002 9.61279E+00
 -1      1003 7.26215E+00
 -1      1004 4.13511E+00
 -1      1005 3.68953E+00
 -1      1006 2.41939E+00
 -1      1007 2.24464E+00
 -1      1008 1.72601E+00
 -1      1009 1.60381E+00
 -1      1010 1.38499E+00
 -1      1011 1.28122E+00
 -1      1012 1.27109E+00
 -1      1013 1.18354E+00
 -1      1014 1.15487E+00
 -1      1015 1.07935E+00
 -1      1016 1.04310E+00
 -1      1017 9.75460E-01
 -1      1018 9.36174E-01
 -1      1019 8.72598E-01
 -1      1020 8.31311E-01
 -1      1021 7.68255E-01
 -1      1022 7.23982E-01
 -1      1023 6.57919E-01
 -1      1024 6.08312E-01
 -1      1025 5.35545E-01
 -1      1026 4.77178E-01
 -1      1027 1.00067E+00
 -1      1028 1.55733E+00
 -1      1029 1.31830E+00
 -1      1030 3.53170E+01
 -1      1031 3.52618E+01
 -1      1032 3.53170E+01
 -1      1033 2.58860E+01
 -1      1034 1.67274E+01
 -1      1035 1.31321E+01
 -1      1036 9.75396E+00
 -1      1037 7.57792E+00
 -1      1038 5.08610E+00
 -1      1039 4.12538E+00
 -1      1040 2.72881E+00
 -1      1041 2.53543E+00
 -1      1042 2.05126E+00
 -1      1043 1.92509E+00
 -1      1044 1.47765E+00
 -1      1045 1.38434E+00
 -1      1046 1.18791E+00
 -1      1047 1.10026E+00
 -1      1048 1.09589E+00
 -1      1049 1.01762E+00
 -1      1050 1.00108E+00
 -1      1051 9.29750E-01
 -1      1052 9.04127E-01
 -1      1053 8.36776E-01
 -1      1054 8.05247E-01
 -1      1055 7.38780E-01
 -1      1056 7.01788E-01
 -1      1057 6.32943E-01
 -1      1058 5.89074E-01
 -1      1059 5.14408E-01
 -1      1060 4.60879E-01
 -1      1061 9.54141E-01
 -1      1062 1.49393E+00
 -1      1063 1.28140E+00
 -1      1064 3.52435E+01
 -1      1065 3.52252E+01
 -1      1066 3.52435E+01
 -1      1067 2.56449E+01
 -1      1068 1.62874E+01
 -1      1069 1.28886E+01
 -1      1070 9.73331E+00
 -1      1071 7.69318E+00
 -1      1072 5.53779E+00
 -1      1073 4.33393E+00
 -1      1074 2.92153E+00
 -1      1075 2.72783E+00
 -1      1076 2.34173E+00
 -1      1077 2.19984E+00
 -1      1078 1.78320E+00
 -1      1079 1.68615E+00
 -1      1080 1.28729E+00
 -1      1081 1.21372E+00
 -1      1082 1.02668E+00
 -1      1083 9.48231E-01
 -1      1084 9.39166E-01
 -1      1085 8.65678E-01
 -1      1086 8.56262E-01
 -1      1087 7.85995E-01
 -1      1088 7.66509E-01
 -1      1089 6.97084E-01
 -1      1090 6.69355E-01
 -1      1091 5.97988E-01
 -1      1092 5.61576E-01
 -1      1093 4.85261E-01
 -1      1094 4.38094E-01
 -1      1095 8.91754E-01
 -1      1096 1.40780E+00
 -1      1097 1.23217E+00
 -1      1098 3.52416E+01
 -1      1099 3.52581E+01
 -1      1100 3.52416E+01
 -1      1101 2.54516E+01
 -1      1102 1.58548E+01
 -1      1103 1.25904E+01
 -1      1104 9.62426E+00
 -1      1105 7.63036E+00
 -1      1106 5.69928E+00
 -1      1107 4.40015E+00
 -1      1108 3.03480E+00
 -1      1109 2.84868E+00
 -1      1110 2.54172E+00
 -1      1111 2.39640E+00
 -1      1112 2.05452E+00
 -1      1113 1.94445E+00
 -1      1114 1.57608E+00
 -1      1115 1.49748E+00
 -1      1116 1.13512E+00
 -1      1117 1.07283E+00
 -1      1118 8.85938E-01
 -1      1119 8.11717E-01
 -1      1120 7.91457E-01
 -1      1121 7.19120E-01
 -1      1122 7.13658E-01
 -1      1123 6.41756E-01
 -1      1124 6.25182E-01
 -1      1125 5.51606E-01
 -1      1126 5.24412E-01
 -1      1127 4.46779E-01
 -1      1128 4.07628E-01
 -1      1129 8.10943E-01
 -1      1130 1.29507E+00
 -1      1131 1.16866E+00
 -1      1132 3.52886E+01
 -1      1133 3.53191E+01
 -1      1134 3.52886E+01
 -1      1135 2.52856E+01
 -1      1136 1.54486E+01
 -1      1137 1.22673E+01
 -1      1138 9.40908E+00
 -1      1139 7.50359E+00
 -1      1140 5.72487E+00
 -1      1141 4.44911E+00
 -1      1142 3.12440E+00
 -1      1143 2.94807E+00
 -1      1144 2.67236E+00
 -1      1145 2.53002E+00
 -1      1146 2.25405E+00
 -1      1147 2.13942E+00
 -1      1148 1.82981E+00
 -1      1149 1.74018E+00
 -1      1150 1.40785E+00
 -1      1151 1.34122E+00
 -1      1152 1.00619E+00
 -1      1153 9.60251E-01
 -1      1154 7.65774E-01
 -1      1155 6.92107E-01
 -1      1156 6.45452E-01
 -1      1157 5.71525E-01
 -1      1158 5.67829E-01
 -1      1159 4.92379E-01
 -1      1160 4.76157E-01
 -1      1161 3.97614E-01
 -1      1162 3.68237E-01
 -1      1163 7.09188E-01
 -1      1164 1.15189E+00
 -1      1165 1.08899E+00
 -1      1166 3.53619E+01
 -1      1167 3.54047E+01
 -1      1168 3.53619E+01
 -1      1169 2.51418E+01
 -1      1170 1.50656E+01
 -1      1171 1.19339E+01
 -1      1172 9.13561E+00
 -1      1173 7.31354E+00
 -1      1174 5.68152E+00
 -1      1175 4.42380E+00
 -1      1176 3.19139E+00
 -1      1177 2.99404E+00
 -1      1178 2.75072E+00
 -1      1179 2.61383E+00
 -1      1180 2.39312E+00
 -1      1181 2.27888E+00
 -1      1182 2.02517E+00
 -1      1183 1.93053E+00
 -1      1184 1.64554E+00
 -1      1185 1.56917E+00
 -1      1186 1.26485E+00
 -1      1187 1.20585E+00
 -1      1188 9.01249E-01
 -1      1189 8.58691E-01
 -1      1190 6.49549E-01
 -1      1191 5.73956E-01
 -1      1192 4.95931E-01
 -1      1193 4.18931E-01
 -1      1194 4.15379E-01
 -1      1195 3.36407E-01
 -1      1196 3.18642E-01
 -1      1197 5.84108E-01
 -1      1198 9.74653E-01
 -1      1199 9.91423E-01
 -1      1200 3.54588E+01
 -1      1201 3.55129E+01
 -1      1202 3.54588E+01
 -1      1203 2.50144E+01
 -1      1204 1.46974E+01
 -1      1205 1.15912E+01
 -1      1206 8.82770E+00
 -1      1207 7.06175E+00
 -1      1208 5.54759E+00
 -1      1209 4.33322E+00
 -1      1210 3.20942E+00
 -1      1211 3.00460E+00
 -1      1212 2.78921E+00
 -1      1213 2.65790E+00
 -1      1214 2.48251E+00
 -1      1215 2.37085E+00
 -1      1216 2.16722E+00
 -1      1217 2.07136E+00
 -1      1218 1.83466E+00
 -1      1219 1.75299E+00
 -1      1220 1.48750E+00
 -1      1221 1.41944E+00
 -1      1222 1.13779E+00
 -1      1223 1.08320E+00
 -1      1224 8.04097E-01
 -1      1225 7.63071E-01
 -1      1226 5.32930E-01
 -1      1227 4.80275E-01
 -1      1228 3.66277E-01
 -1      1229 2.87422E-01
 -1      1230 2.57552E-01
 -1      1231 4.33506E-01
 -1      1232 7.60062E-01
 -1      1233 8.74403E-01
 -1      1234 3.55771E+01
 -1      1235 3.56413E+01
 -1      1236 3.55771E+01
 -1      1237 2.48967E+01
 -1      1238 1.43340E+01
 -1      1239 1.12346E+01
 -1      1240 8.49174E+00
 -1      1241 6.76036E+00
 -1      1242 5.33037E+00
 -1      1243 4.15889E+00
 -1      1244 3.16174E+00
 -1      1245 2.95692E+00
 -1      1246 2.79977E+00
 -1      1247 2.67282E+00
 -1      1248 2.53095E+00
 -1      1249 2.42215E+00
 -1      1250 2.26206E+00
 -1      1251 2.16673E+00
 -1      1252 1.97602E+00
 -1      1253 1.89192E+00
 -1      1254 1.66889E+00
 -1      1255 1.59511E+00
 -1      1256 1.34566E+00
 -1      1257 1.28205E+00
 -1      1258 1.01958E+00
 -1      1259 9.66494E-01
 -1      1260 7.09981E-01
 -1      1261 6.68236E-01
 -1      1262 4.38530E-01
 -1      1263 4.09230E-01
 -1      1264 2.58121E-01
 -1      1265 4.52319E-01
 -1      1266 6.27704E-01
 -1      1267 8.59065E-01
 -1      1268 3.57138E+01
 -1      1269 3.57863E+01
 -1      1270 3.57138E+01
 -1      1271 2.47812E+01
 -1      1272 1.39642E+01
 -1      1273 1.08557E+01
 -1      1274 8.12609E+00
 -1      1275 6.41083E+00
 -1      1276 5.04509E+00
 -1      1277 3.97639E+00
 -1      1278 3.09019E+00
 -1      1279 2.92951E+00
 -1      1280 2.79624E+00
 -1      1281 2.66929E+00
 -1      1282 2.54587E+00
 -1      1283 2.43891E+00
 -1      1284 2.31519E+00
 -1      1285 2.22051E+00
 -1      1286 2.07204E+00
 -1      1287 1.98677E+00
 -1      1288 1.80665E+00
 -1      1289 1.72929E+00
 -1      1290 1.51775E+00
 -1      1291 1.44765E+00
 -1      1292 1.21195E+00
 -1      1293 1.14909E+00
 -1      1294 9.03638E-01
 -1      1295 8.48602E-01
 -1      1296 6.13199E-01
 -1      1297 5.66711E-01
 -1      1298 3.62742E-01
 -1      1299 7.43949E-01
 -1      1300 8.33526E-01
 -1      1301 1.08022E+00
 -1      1302 3.58641E+01
 -1      1303 3.59419E+01
 -1      1304 3.58641E+01
 -1      1305 2.46586E+01
 -1      1306 1.35758E+01
 -1      1307 1.04433E+01
 -1      1308 7.72319E+00
 -1      1309 6.00750E+00
 -1      1310 4.69513E+00
 -1      1311 3.75834E+00
 -1      1312 3.03960E+00
 -1      1313 2.88702E+00
 -1      1314 2.77694E+00
 -1      1315 2.65234E+00
 -1      1316 2.54470E+00
 -1      1317 2.43774E+00
 -1      1318 2.33195E+00
 -1      1319 2.23676E+00
 -1      1320 2.12533E+00
 -1      1321 2.03869E+00
 -1      1322 1.90013E+00
 -1      1323 1.81996E+00
 -1      1324 1.64911E+00
 -1      1325 1.57409E+00
 -1      1326 1.37262E+00
 -1      1327 1.30194E+00
 -1      1328 1.07841E+00
 -1      1329 1.01182E+00
 -1      1330 7.82009E-01
 -1      1331 7.19120E-01
 -1      1332 5.03822E-01
 -1      1333 1.04731E+00
 -1      1334 1.28744E+00
 -1      1335 1.31298E+00
 -1      1336 3.60208E+01
 -1      1337 3.60996E+01
 -1      1338 3.60208E+01
 -1      1339 2.45172E+01
 -1      1340 1.31551E+01
 -1      1341 9.98267E+00
 -1      1342 7.27083E+00
 -1      1343 5.53849E+00
 -1      1344 4.27515E+00
 -1      1345 3.49413E+00
 -1      1346 2.97732E+00
 -1      1347 2.82409E+00
 -1      1348 2.73379E+00
 -1      1349 2.60900E+00
 -1      1350 2.52756E+00
 -1      1351 2.42047E+00
 -1      1352 2.33064E+00
 -1      1353 2.23546E+00
 -1      1354 2.14158E+00
 -1      1355 2.05206E+00
 -1      1356 1.94917E+00
 -1      1357 1.86552E+00
 -1      1358 1.73631E+00
 -1      1359 1.65661E+00
 -1      1360 1.49438E+00
 -1      1361 1.41692E+00
 -1      1362 1.22448E+00
 -1      1363 1.14782E+00
 -1      1364 9.35155E-01
 -1      1365 8.57125E-01
 -1      1366 6.41090E-01
 -1      1367 1.34995E+00
 -1      1368 1.75617E+00
 -1      1369 1.54896E+00
 -1      1370 3.61693E+01
 -1      1371 3.62390E+01
 -1      1372 3.61693E+01
 -1      1373 2.43378E+01
 -1      1374 1.26857E+01
 -1      1375 9.45490E+00
 -1      1376 6.75185E+00
 -1      1377 4.98536E+00
 -1      1378 3.77200E+00
 -1      1379 3.17419E+00
 -1      1380 2.89633E+00
 -1      1381 2.73919E+00
 -1      1382 2.66695E+00
 -1      1383 2.53889E+00
 -1      1384 2.48093E+00
 -1      1385 2.37097E+00
 -1      1386 2.31050E+00
 -1      1387 2.21259E+00
 -1      1388 2.13755E+00
 -1      1389 2.04803E+00
 -1      1390 1.96253E+00
 -1      1391 1.87331E+00
 -1      1392 1.77630E+00
 -1      1393 1.69067E+00
 -1      1394 1.57098E+00
 -1      1395 1.48648E+00
 -1      1396 1.33242E+00
 -1      1397 1.24634E+00
 -1      1398 1.06174E+00
 -1      1399 9.69889E-01
 -1      1400 7.65274E-01
 -1      1401 1.63353E+00
 -1      1402 2.21820E+00
 -1      1403 1.77501E+00
 -1      1404 3.62902E+01
 -1      1405 3.63415E+01
 -1      1406 3.62902E+01
 -1      1407 2.40991E+01
 -1      1408 1.21466E+01
 -1      1409 8.83433E+00
 -1      1410 6.14260E+00
 -1      1411 4.43201E+00
 -1      1412 3.27477E+00
 -1      1413 2.89410E+00
 -1      1414 2.79352E+00
 -1      1415 2.62866E+00
 -1      1416 2.57433E+00
 -1      1417 2.43922E+00
 -1      1418 2.40377E+00
 -1      1419 2.28733E+00
 -1      1420 2.25452E+00
 -1      1421 2.15062E+00
 -1      1422 2.10868E+00
 -1      1423 2.01350E+00
 -1      1424 1.95284E+00
 -1      1425 1.86362E+00
 -1      1426 1.78409E+00
 -1      1427 1.69067E+00
 -1      1428 1.59725E+00
 -1      1429 1.50381E+00
 -1      1430 1.39304E+00
 -1      1431 1.29692E+00
 -1      1432 1.15022E+00
 -1      1433 1.04541E+00
 -1      1434 8.65079E-01
 -1      1435 1.87176E+00
 -1      1436 2.64021E+00
 -1      1437 1.97096E+00
 -1      1438 3.63415E+01
 -1      1439 3.63415E+01
 -1      1440 3.63415E+01
 -1      1441 2.37558E+01
 -1      1442 1.15134E+01
 -1      1443 8.08881E+00
 -1      1444 5.40970E+00
 -1      1445 3.95650E+00
 -1      1446 2.97880E+00
 -1      1447 2.74822E+00
 -1      1448 2.66352E+00
 -1      1449 2.48607E+00
 -1      1450 2.45121E+00
 -1      1451 2.30420E+00
 -1      1452 2.29221E+00
 -1      1453 2.16453E+00
 -1      1454 2.15966E+00
 -1      1455 2.04519E+00
 -1      1456 2.03615E+00
 -1      1457 1.93108E+00
 -1      1458 1.90843E+00
 -1      1459 1.80995E+00
 -1      1460 1.76514E+00
 -1      1461 1.67068E+00
 -1      1462 1.59621E+00
 -1      1463 1.50277E+00
 -1      1464 1.41038E+00
 -1      1465 1.30229E+00
 -1      1466 1.18883E+00
 -1      1467 1.07132E+00
 -1      1468 9.27895E-01
 -1      1469 2.02976E+00
 -1      1470 2.97363E+00
 -1      1471 2.10843E+00
 -1      1472 3.65606E+01
 -1      1473 3.67797E+01
 -1      1474 3.65606E+01
 -1      1475 2.35654E+01
 -1      1476 1.07607E+01
 -1      1477 7.18294E+00
 -1      1478 4.51108E+00
 -1      1479 3.36771E+00
 -1      1480 2.81312E+00
 -1      1481 2.56280E+00
 -1      1482 2.49790E+00
 -1      1483 2.30166E+00
 -1      1484 2.28982E+00
 -1      1485 2.12481E+00
 -1      1486 2.13919E+00
 -1      1487 1.99427E+00
 -1      1488 2.01961E+00
 -1      1489 1.88873E+00
 -1      1490 1.91431E+00
 -1      1491 1.79376E+00
 -1      1492 1.81054E+00
 -1      1493 1.69766E+00
 -1      1494 1.69707E+00
 -1      1495 1.58932E+00
 -1      1496 1.56294E+00
 -1      1497 1.45719E+00
 -1      1498 1.39702E+00
 -1      1499 1.28893E+00
 -1      1500 1.19420E+00
 -1      1501 1.07132E+00
 -1      1502 9.48429E-01
 -1      1503 2.06989E+00
 -1      1504 3.15122E+00
 -1      1505 2.14856E+00
 -1      1506 3.67797E+01
 -1      1507 3.67797E+01
 -1      1508 3.67797E+01
 -1      1509 2.29060E+01
 -1      1510 9.69168E+00
 -1      1511 6.03185E+00
 -1      1512 3.52311E+00
 -1      1513 2.75475E+00
 -1      1514 2.59934E+00
 -1      1515 2.31776E+00
 -1      1516 2.28122E+00
 -1      1517 2.05428E+00
 -1      1518 2.07472E+00
 -1      1519 1.87965E+00
 -1      1520 1.92974E+00
 -1      1521 1.75561E+00
 -1      1522 1.82015E+00
 -1      1523 1.66119E+00
 -1      1524 1.72977E+00
 -1      1525 1.58260E+00
 -1      1526 1.64659E+00
 -1      1527 1.50893E+00
 -1      1528 1.56000E+00
 -1      1529 1.42975E+00
 -1      1530 1.45908E+00
 -1      1531 1.33349E+00
 -1      1532 1.33160E+00
 -1      1533 1.20643E+00
 -1      1534 1.16377E+00
 -1      1535 1.03192E+00
 -1      1536 9.39472E-01
 -1      1537 2.06094E+00
 -1      1538 3.19136E+00
 -1      1539 2.14856E+00
 -1      1540 3.48222E+01
 -1      1541 3.72509E+01
 -1      1542 3.67264E+01
 -1      1543 3.42978E+01
 -1      1544 3.73221E+01
 -1      1545 3.73933E+01
 -1      1546 3.67977E+01
 -1      1547 3.87393E+01
 -1      1548 4.00853E+01
 -1      1549 3.87393E+01
 -1      1550 4.05271E+01
 -1      1551 4.09688E+01
 -1      1552 4.05271E+01
 -1      1553 4.09688E+01
 -1      1554 4.09688E+01
 -1      1555 4.09688E+01
 -1      1556 3.99449E+01
 -1      1557 3.89209E+01
 -1      1558 3.99449E+01
 -1      1559 3.65134E+01
 -1      1560 3.41059E+01
 -1      1561 3.65134E+01
 -1      1562 3.14681E+01
 -1      1563 2.88303E+01
 -1      1564 3.14681E+01
 -1      1565 2.59617E+01
 -1      1566 2.30931E+01
 -1      1567 2.59617E+01
 -1      1568 2.00169E+01
 -1      1569 1.69406E+01
 -1      1570 2.00169E+01
 -1      1571 1.37033E+01
 -1      1572 1.04659E+01
 -1      1573 1.37033E+01
 -1      1574 7.14520E+00
 -1      1575 3.82453E+00
 -1      1576 7.14520E+00
 -1      1577 2.94572E+00
 -1      1578 2.06690E+00
 -1      1579 2.94572E+00
 -1      1580 1.79628E+00
 -1      1581 1.48170E+00
 -1      1582 1.75232E+00
 -1      1583 1.46946E+00
 -1      1584 1.41327E+00
 -1      1585 1.42551E+00
 -1      1586 1.22907E+00
 -1      1587 1.04488E+00
 -1      1588 1.22907E+00
 -1      1589 6.94548E-01
 -1      1590 3.44217E-01
 -1      1591 6.94548E-01
 -1      1592 3.72509E+01
 -1      1593 3.72509E+01
 -1      1594 3.72509E+01
 -1      1595 3.31081E+01
 -1      1596 3.31793E+01
 -1      1597 2.62300E+01
 -1      1598 3.17900E+01
 -1      1599 2.15044E+01
 -1      1600 3.02415E+01
 -1      1601 1.79431E+01
 -1      1602 2.86704E+01
 -1      1603 1.50123E+01
 -1      1604 2.62868E+01
 -1      1605 1.23884E+01
 -1      1606 2.26150E+01
 -1      1607 9.89952E+00
 -1      1608 1.87526E+01
 -1      1609 7.46714E+00
 -1      1610 1.46762E+01
 -1      1611 5.05814E+00
 -1      1612 1.03988E+01
 -1      1613 3.33207E+00
 -1      1614 6.63655E+00
 -1      1615 2.59253E+00
 -1      1616 3.10119E+00
 -1      1617 2.16283E+00
 -1      1618 2.00736E+00
 -1      1619 1.73674E+00
 -1      1620 1.52565E+00
 -1      1621 1.32459E+00
 -1      1622 1.26840E+00
 -1      1623 9.28266E-01
 -1      1624 8.88940E-01
 -1      1625 5.29708E-01
 -1      1626 3.35316E-01
 -1      1627 2.58136E+01
 -1      1628 1.43763E+01
 -1      1629 2.58136E+01
 -1      1630 1.35488E+01
 -1      1631 2.08434E+01
 -1      1632 1.16519E+01
 -1      1633 1.70385E+01
 -1      1634 9.52504E+00
 -1      1635 1.39909E+01
 -1      1636 7.50241E+00
 -1      1637 1.14546E+01
 -1      1638 5.66237E+00
 -1      1639 9.22006E+00
 -1      1640 3.97739E+00
 -1      1641 7.14568E+00
 -1      1642 3.00195E+00
 -1      1643 5.75578E+00
 -1      1644 2.70082E+00
 -1      1645 4.41218E+00
 -1      1646 2.42753E+00
 -1      1647 3.07349E+00
 -1      1648 2.14838E+00
 -1      1649 2.40696E+00
 -1      1650 1.85893E+00
 -1      1651 2.04449E+00
 -1      1652 1.55914E+00
 -1      1653 1.67748E+00
 -1      1654 1.28144E+00
 -1      1655 1.34070E+00
 -1      1656 2.02716E+00
 -1      1657 2.01106E+00
 -1      1658 3.90496E+00
 -1      1659 2.82217E+00
 -1      1660 4.91133E+00
 -1      1661 2.61887E+00
 -1      1662 9.39651E+00
 -1      1663 4.41671E+00
 -1      1664 9.39651E+00
 -1      1665 4.14897E+00
 -1      1666 8.30130E+00
 -1      1667 3.47648E+00
 -1      1668 6.82711E+00
 -1      1669 2.97880E+00
 -1      1670 5.67673E+00
 -1      1671 2.78718E+00
 -1      1672 4.61286E+00
 -1      1673 2.58792E+00
 -1      1674 3.63743E+00
 -1      1675 2.38666E+00
 -1      1676 2.72662E+00
 -1      1677 2.18507E+00
 -1      1678 2.46040E+00
 -1      1679 1.98155E+00
 -1      1680 2.22197E+00
 -1      1681 1.77209E+00
 -1      1682 1.97765E+00
 -1      1683 1.57300E+00
 -1      1684 1.74373E+00
 -1      1685 1.39279E+00
 -1      1686 1.50800E+00
 -1      1687 1.84558E+00
 -1      1688 1.89672E+00
 -1      1689 2.41759E+00
 -1      1690 1.80231E+00
 -1      1691 2.67372E+00
 -1      1692 2.89858E+00
 -1      1693 3.90496E+00
 -1      1694 4.91133E+00
 -1      1695 4.91133E+00
 -1      1696 4.91133E+00
 -1      1697 3.47233E+00
 -1      1698 2.52794E+00
 -1      1699 3.47233E+00
 -1      1700 2.48503E+00
 -1      1701 3.16167E+00
 -1      1702 2.37788E+00
 -1      1703 2.69269E+00
 -1      1704 2.25023E+00
 -1      1705 2.53635E+00
 -1      1706 2.12037E+00
 -1      1707 2.37120E+00
 -1      1708 1.98317E+00
 -1      1709 2.19989E+00
 -1      1710 1.84023E+00
 -1      1711 2.02700E+00
 -1      1712 1.69642E+00
 -1      1713 1.85449E+00
 -1      1714 1.55466E+00
 -1      1715 1.68173E+00
 -1      1716 1.42667E+00
 -1      1717 1.51703E+00
 -1      1718 1.32887E+00
 -1      1719 1.38484E+00
 -1      1720 1.25609E+00
 -1      1721 1.26404E+00
 -1      1722 1.80477E+00
 -1      1723 2.38631E+00
 -1      1724 2.41759E+00
 -1      1725 2.44887E+00
 -1      1726 2.51356E+00
 -1      1727 2.73842E+00
 -1      1728 2.71034E+00
 -1      1729 3.87688E+00
 -1      1730 2.84243E+00
 -1      1731 3.87688E+00
 -1      1732 2.27743E+00
 -1      1733 2.02693E+00
 -1      1734 2.27743E+00
 -1      1735 2.00797E+00
 -1      1736 2.21556E+00
 -1      1737 1.95628E+00
 -1      1738 2.11860E+00
 -1      1739 1.88292E+00
 -1      1740 2.01455E+00
 -1      1741 1.79547E+00
 -1      1742 1.90129E+00
 -1      1743 1.69824E+00
 -1      1744 1.78013E+00
 -1      1745 1.59700E+00
 -1      1746 1.65710E+00
 -1      1747 1.49824E+00
 -1      1748 1.53755E+00
 -1      1749 1.40811E+00
 -1      1750 1.42522E+00
 -1      1751 1.33153E+00
 -1      1752 1.33297E+00
 -1      1753 1.27170E+00
 -1      1754 1.26760E+00
 -1      1755 1.25136E+00
 -1      1756 1.23984E+00
 -1      1757 1.73440E+00
 -1      1758 2.29933E+00
 -1      1759 2.24817E+00
 -1      1760 2.36643E+00
 -1      1761 2.34968E+00
 -1      1762 2.49681E+00
 -1      1763 2.53007E+00
 -1      1764 2.74360E+00
 -1      1765 2.64477E+00
 -1      1766 2.74360E+00
 -1      1767 1.84599E+00
 -1      1768 1.66505E+00
 -1      1769 1.84599E+00
 -1      1770 1.65958E+00
 -1      1771 1.82156E+00
 -1      1772 1.64086E+00
 -1      1773 1.77559E+00
 -1      1774 1.60875E+00
 -1      1775 1.71607E+00
 -1      1776 1.56583E+00
 -1      1777 1.64523E+00
 -1      1778 1.51364E+00
 -1      1779 1.56665E+00
 -1      1780 1.45508E+00
 -1      1781 1.48543E+00
 -1      1782 1.39466E+00
 -1      1783 1.40747E+00
 -1      1784 1.33791E+00
 -1      1785 1.33855E+00
 -1      1786 1.29189E+00
 -1      1787 1.28487E+00
 -1      1788 1.28315E+00
 -1      1789 1.26998E+00
 -1      1790 1.31484E+00
 -1      1791 1.29621E+00
 -1      1792 1.72614E+00
 -1      1793 2.16433E+00
 -1      1794 2.15352E+00
 -1      1795 2.23735E+00
 -1      1796 2.25297E+00
 -1      1797 2.36529E+00
 -1      1798 2.41353E+00
 -1      1799 2.57831E+00
 -1      1800 2.51185E+00
 -1      1801 2.57831E+00
 -1      1802 1.52558E+00
 -1      1803 1.38957E+00
 -1      1804 1.52904E+00
 -1      1805 1.39335E+00
 -1      1806 1.52388E+00
 -1      1807 1.39366E+00
 -1      1808 1.51064E+00
 -1      1809 1.39056E+00
 -1      1810 1.48866E+00
 -1      1811 1.38102E+00
 -1      1812 1.45819E+00
 -1      1813 1.36499E+00
 -1      1814 1.42043E+00
 -1      1815 1.34345E+00
 -1      1816 1.37810E+00
 -1      1817 1.31884E+00
 -1      1818 1.33540E+00
 -1      1819 1.29685E+00
 -1      1820 1.29935E+00
 -1      1821 1.30054E+00
 -1      1822 1.29307E+00
 -1      1823 1.33558E+00
 -1      1824 1.32566E+00
 -1      1825 1.39031E+00
 -1      1826 1.37949E+00
 -1      1827 1.74293E+00
 -1      1828 2.08959E+00
 -1      1829 2.09950E+00
 -1      1830 2.16343E+00
 -1      1831 2.19326E+00
 -1      1832 2.28280E+00
 -1      1833 2.33578E+00
 -1      1834 2.46651E+00
 -1      1835 2.42118E+00
 -1      1836 2.46651E+00
 -1      1837 1.27298E+00
 -1      1838 1.17031E+00
 -1      1839 1.28690E+00
 -1      1840 1.19167E+00
 -1      1841 1.29811E+00
 -1      1842 1.21197E+00
 -1      1843 1.30752E+00
 -1      1844 1.22934E+00
 -1      1845 1.31237E+00
 -1      1846 1.24346E+00
 -1      1847 1.31211E+00
 -1      1848 1.25408E+00
 -1      1849 1.30696E+00
 -1      1850 1.26199E+00
 -1      1851 1.29847E+00
 -1      1852 1.26947E+00
 -1      1853 1.28983E+00
 -1      1854 1.29186E+00
 -1      1855 1.29887E+00
 -1      1856 1.33395E+00
 -1      1857 1.33561E+00
 -1      1858 1.38946E+00
 -1      1859 1.38943E+00
 -1      1860 1.46359E+00
 -1      1861 1.46446E+00
 -1      1862 1.77019E+00
 -1      1863 2.04866E+00
 -1      1864 2.06936E+00
 -1      1865 2.12021E+00
 -1      1866 2.15564E+00
 -1      1867 2.22870E+00
 -1      1868 2.28302E+00
 -1      1869 2.39010E+00
 -1      1870 2.35902E+00
 -1      1871 2.39010E+00
 -1      1872 1.06381E+00
 -1      1873 9.84720E-01
 -1      1874 1.09122E+00
 -1      1875 1.02197E+00
 -1      1876 1.12242E+00
 -1      1877 1.06269E+00
 -1      1878 1.15224E+00
 -1      1879 1.10365E+00
 -1      1880 1.18075E+00
 -1      1881 1.14415E+00
 -1      1882 1.20687E+00
 -1      1883 1.18293E+00
 -1      1884 1.23015E+00
 -1      1885 1.21947E+00
 -1      1886 1.25131E+00
 -1      1887 1.25645E+00
 -1      1888 1.27461E+00
 -1      1889 1.30442E+00
 -1      1890 1.32167E+00
 -1      1891 1.36520E+00
 -1      1892 1.37748E+00
 -1      1893 1.43665E+00
 -1      1894 1.44864E+00
 -1      1895 1.52598E+00
 -1      1896 1.54093E+00
 -1      1897 1.80133E+00
 -1      1898 2.03059E+00
 -1      1899 2.05697E+00
 -1      1900 2.09574E+00
 -1      1901 2.13239E+00
 -1      1902 2.19229E+00
 -1      1903 2.24683E+00
 -1      1904 2.33755E+00
 -1      1905 2.31609E+00
 -1      1906 2.33755E+00
 -1      1907 8.82204E-01
 -1      1908 8.20821E-01
 -1      1909 9.23337E-01
 -1      1910 8.74927E-01
 -1      1911 9.73562E-01
 -1      1912 9.36210E-01
 -1      1913 1.02533E+00
 -1      1914 1.00007E+00
 -1      1915 1.07839E+00
 -1      1916 1.06500E+00
 -1      1917 1.13076E+00
 -1      1918 1.12869E+00
 -1      1919 1.18086E+00
 -1      1920 1.18955E+00
 -1      1921 1.22815E+00
 -1      1922 1.25121E+00
 -1      1923 1.27951E+00
 -1      1924 1.31838E+00
 -1      1925 1.34329E+00
 -1      1926 1.39099E+00
 -1      1927 1.41290E+00
 -1      1928 1.47292E+00
 -1      1929 1.49668E+00
 -1      1930 1.57290E+00
 -1      1931 1.60220E+00
 -1      1932 1.83715E+00
 -1      1933 2.03629E+00
 -1      1934 2.06560E+00
 -1      1935 2.08629E+00
 -1      1936 2.12150E+00
 -1      1937 2.16760E+00
 -1      1938 2.22179E+00
 -1      1939 2.30102E+00
 -1      1940 2.28594E+00
 -1      1941 2.30102E+00
 -1      1942 7.16020E-01
 -1      1943 6.68969E-01
 -1      1944 7.73770E-01
 -1      1945 7.43955E-01
 -1      1946 8.45112E-01
 -1      1947 8.29006E-01
 -1      1948 9.20104E-01
 -1      1949 9.17512E-01
 -1      1950 9.97478E-01
 -1      1951 1.00646E+00
 -1      1952 1.07398E+00
 -1      1953 1.09230E+00
 -1      1954 1.14701E+00
 -1      1955 1.17470E+00
 -1      1956 1.21723E+00
 -1      1957 1.25523E+00
 -1      1958 1.28920E+00
 -1      1959 1.33296E+00
 -1      1960 1.36213E+00
 -1      1961 1.41059E+00
 -1      1962 1.43944E+00
 -1      1963 1.49735E+00
 -1      1964 1.53083E+00
 -1      1965 1.60361E+00
 -1      1966 1.64568E+00
 -1      1967 1.87248E+00
 -1      1968 2.06395E+00
 -1      1969 2.08999E+00
 -1      1970 2.09164E+00
 -1      1971 2.12128E+00
 -1      1972 2.15113E+00
 -1      1973 2.20433E+00
 -1      1974 2.27499E+00
 -1      1975 2.26403E+00
 -1      1976 2.27499E+00
 -1      1977 5.54072E-01
 -1      1978 5.24731E-01
 -1      1979 6.39628E-01
 -1      1980 6.30064E-01
 -1      1981 7.34391E-01
 -1      1982 7.41410E-01
 -1      1983 8.36025E-01
 -1      1984 8.57868E-01
 -1      1985 9.39354E-01
 -1      1986 9.73143E-01
 -1      1987 1.04025E+00
 -1      1988 1.08508E+00
 -1      1989 1.13714E+00
 -1      1990 1.18638E+00
 -1      1991 1.22394E+00
 -1      1992 1.27218E+00
 -1      1993 1.30346E+00
 -1      1994 1.34863E+00
 -1      1995 1.37813E+00
 -1      1996 1.42451E+00
 -1      1997 1.45698E+00
 -1      1998 1.51093E+00
 -1      1999 1.55130E+00
 -1      2000 1.61991E+00
 -1      2001 1.67222E+00
 -1      2002 1.90859E+00
 -1      2003 2.10885E+00
 -1      2004 2.13565E+00
 -1      2005 2.11679E+00
 -1      2006 2.13617E+00
 -1      2007 2.14066E+00
 -1      2008 2.19195E+00
 -1      2009 2.25562E+00
 -1      2010 2.24720E+00
 -1      2011 2.25562E+00
 -1      2012 5.32791E-01
 -1      2013 6.79292E-01
 -1      2014 6.71232E-01
 -1      2015 8.19133E-01
 -1      2016 7.77965E-01
 -1      2017 8.78600E-01
 -1      2018 8.42046E-01
 -1      2019 9.03349E-01
 -1      2020 9.19171E-01
 -1      2021 9.93997E-01
 -1      2022 1.04797E+00
 -1      2023 1.12170E+00
 -1      2024 1.15881E+00
 -1      2025 1.22034E+00
 -1      2026 1.24791E+00
 -1      2027 1.29809E+00
 -1      2028 1.32236E+00
 -1      2029 1.36515E+00
 -1      2030 1.39142E+00
 -1      2031 1.43327E+00
 -1      2032 1.46636E+00
 -1      2033 1.51546E+00
 -1      2034 1.56003E+00
 -1      2035 1.62479E+00
 -1      2036 1.68467E+00
 -1      2037 1.94618E+00
 -1      2038 2.17010E+00
 -1      2039 2.20454E+00
 -1      2040 2.17010E+00
 -1      2041 2.17364E+00
 -1      2042 2.13971E+00
 -1      2043 2.18803E+00
 -1      2044 2.24027E+00
 -1      2045 2.23333E+00
 -1      2046 2.24027E+00
 -1      2047 7.25247E-01
 -1      2048 9.57346E-01
 -1      2049 9.11391E-01
 -1      2050 1.09503E+00
 -1      2051 1.00277E+00
 -1      2052 1.13303E+00
 -1      2053 1.00886E+00
 -1      2054 1.09984E+00
 -1      2055 9.94330E-01
 -1      2056 1.10270E+00
 -1      2057 1.10236E+00
 -1      2058 1.18832E+00
 -1      2059 1.20765E+00
 -1      2060 1.27153E+00
 -1      2061 1.28422E+00
 -1      2062 1.33064E+00
 -1      2063 1.34451E+00
 -1      2064 1.38092E+00
 -1      2065 1.40156E+00
 -1      2066 1.43744E+00
 -1      2067 1.46916E+00
 -1      2068 1.51546E+00
 -1      2069 1.56177E+00
 -1      2070 1.62479E+00
 -1      2071 1.68781E+00
 -1      2072 1.99331E+00
 -1      2073 2.25168E+00
 -1      2074 2.29881E+00
 -1      2075 2.25168E+00
 -1      2076 2.23446E+00
 -1      2077 2.15642E+00
 -1      2078 2.19556E+00
 -1      2079 2.22717E+00
 -1      2080 2.22102E+00
 -1      2081 2.22717E+00
 -1      2082 1.06983E+00
 -1      2083 1.37561E+00
 -1      2084 1.26313E+00
 -1      2085 1.46922E+00
 -1      2086 1.30112E+00
 -1      2087 1.45828E+00
 -1      2088 1.29018E+00
 -1      2089 1.34431E+00
 -1      2090 1.15397E+00
 -1      2091 1.24485E+00
 -1      2092 1.19357E+00
 -1      2093 1.28271E+00
 -1      2094 1.27746E+00
 -1      2095 1.33478E+00
 -1      2096 1.32886E+00
 -1      2097 1.36504E+00
 -1      2098 1.36682E+00
 -1      2099 1.39354E+00
 -1      2100 1.40764E+00
 -1      2101 1.43894E+00
 -1      2102 1.46874E+00
 -1      2103 1.51294E+00
 -1      2104 1.55966E+00
 -1      2105 1.62156E+00
 -1      2106 1.68669E+00
 -1      2107 2.04286E+00
 -1      2108 2.34948E+00
 -1      2109 2.40015E+00
 -1      2110 2.34948E+00
 -1      2111 2.29860E+00
 -1      2112 2.18358E+00
 -1      2113 2.20323E+00
 -1      2114 2.21520E+00
 -1      2115 2.20939E+00
 -1      2116 2.21520E+00
 -1      2117 1.61910E+00
 -1      2118 1.98479E+00
 -1      2119 1.74130E+00
 -1      2120 2.01339E+00
 -1      2121 1.74130E+00
 -1      2122 1.90369E+00
 -1      2123 1.62067E+00
 -1      2124 1.57815E+00
 -1      2125 1.30180E+00
 -1      2126 1.37486E+00
 -1      2127 1.31791E+00
 -1      2128 1.39557E+00
 -1      2129 1.36037E+00
 -1      2130 1.40371E+00
 -1      2131 1.37813E+00
 -1      2132 1.40042E+00
 -1      2133 1.38733E+00
 -1      2134 1.40334E+00
 -1      2135 1.40955E+00
 -1      2136 1.43601E+00
 -1      2137 1.46540E+00
 -1      2138 1.50544E+00
 -1      2139 1.55298E+00
 -1      2140 1.61329E+00
 -1      2141 1.68187E+00
 -1      2142 2.08213E+00
 -1      2143 2.44312E+00
 -1      2144 2.48610E+00
 -1      2145 2.44312E+00
 -1      2146 2.35365E+00
 -1      2147 2.20912E+00
 -1      2148 2.20959E+00
 -1      2149 2.20369E+00
 -1      2150 2.19799E+00
 -1      2151 2.20369E+00
 -1      2152 2.44059E+00
 -1      2153 2.92498E+00
 -1      2154 2.46918E+00
 -1      2155 2.79706E+00
 -1      2156 2.34127E+00
 -1      2157 2.37329E+00
 -1      2158 1.93572E+00
 -1      2159 1.81171E+00
 -1      2160 1.45415E+00
 -1      2161 1.54599E+00
 -1      2162 1.46671E+00
 -1      2163 1.54082E+00
 -1      2164 1.46967E+00
 -1      2165 1.50887E+00
 -1      2166 1.44291E+00
 -1      2167 1.45664E+00
 -1      2168 1.41416E+00
 -1      2169 1.41988E+00
 -1      2170 1.40907E+00
 -1      2171 1.43091E+00
 -1      2172 1.45786E+00
 -1      2173 1.49498E+00
 -1      2174 1.54257E+00
 -1      2175 1.60246E+00
 -1      2176 1.67318E+00
 -1      2177 2.11130E+00
 -1      2178 2.52026E+00
 -1      2179 2.55442E+00
 -1      2180 2.52026E+00
 -1      2181 2.39762E+00
 -1      2182 2.23101E+00
 -1      2183 2.21371E+00
 -1      2184 2.19230E+00
 -1      2185 2.18660E+00
 -1      2186 2.19230E+00
 -1      2187 6.76931E+00
 -1      2188 1.06136E+01
 -1      2189 6.76931E+00
 -1      2190 7.68996E+00
 -1      2191 3.71772E+00
 -1      2192 3.51042E+00
 -1      2193 2.16599E+00
 -1      2194 2.06270E+00
 -1      2195 1.70842E+00
 -1      2196 1.82793E+00
 -1      2197 1.66550E+00
 -1      2198 1.72215E+00
 -1      2199 1.59746E+00
 -1      2200 1.59862E+00
 -1      2201 1.51003E+00
 -1      2202 1.49425E+00
 -1      2203 1.44086E+00
 -1      2204 1.42705E+00
 -1      2205 1.40608E+00
 -1      2206 1.42290E+00
 -1      2207 1.44773E+00
 -1      2208 1.48324E+00
 -1      2209 1.53049E+00
 -1      2210 1.59081E+00
 -1      2211 1.66277E+00
 -1      2212 2.13102E+00
 -1      2213 2.57955E+00
 -1      2214 2.60467E+00
 -1      2215 2.57955E+00
 -1      2216 2.42987E+00
 -1      2217 2.24795E+00
 -1      2218 2.21513E+00
 -1      2219 2.18090E+00
 -1      2220 2.17519E+00
 -1      2221 2.18090E+00
 -1      2222 1.43854E+01
 -1      2223 1.81571E+01
 -1      2224 1.43854E+01
 -1      2225 1.32621E+01
 -1      2226 6.56669E+00
 -1      2227 5.33021E+00
 -1      2228 2.27395E+00
 -1      2229 2.26909E+00
 -1      2230 2.05785E+00
 -1      2231 2.10695E+00
 -1      2232 1.87703E+00
 -1      2233 1.85058E+00
 -1      2234 1.69569E+00
 -1      2235 1.64783E+00
 -1      2236 1.55076E+00
 -1      2237 1.50893E+00
 -1      2238 1.45242E+00
 -1      2239 1.42854E+00
 -1      2240 1.40317E+00
 -1      2241 1.41666E+00
 -1      2242 1.43638E+00
 -1      2243 1.47126E+00
 -1      2244 1.51812E+00
 -1      2245 1.57932E+00
 -1      2246 1.65201E+00
 -1      2247 2.14231E+00
 -1      2248 2.62132E+00
 -1      2249 2.63797E+00
 -1      2250 2.62132E+00
 -1      2251 2.45091E+00
 -1      2252 2.25946E+00
 -1      2253 2.21382E+00
 -1      2254 2.16950E+00
 -1      2255 2.16380E+00
 -1      2256 2.16950E+00
 -1      2257 2.73432E+01
 -1      2258 3.65292E+01
 -1      2259 2.73432E+01
 -1      2260 2.30282E+01
 -1      2261 8.94714E+00
 -1      2262 6.67526E+00
 -1      2263 3.05833E+00
 -1      2264 3.12073E+00
 -1      2265 2.33149E+00
 -1      2266 2.22426E+00
 -1      2267 1.99972E+00
 -1      2268 1.88446E+00
 -1      2269 1.73532E+00
 -1      2270 1.65104E+00
 -1      2271 1.56355E+00
 -1      2272 1.50893E+00
 -1      2273 1.45431E+00
 -1      2274 1.42547E+00
 -1      2275 1.39971E+00
 -1      2276 1.40762E+00
 -1      2277 1.42457E+00
 -1      2278 1.45947E+00
 -1      2279 1.50616E+00
 -1      2280 1.56841E+00
 -1      2281 1.64157E+00
 -1      2282 2.14720E+00
 -1      2283 2.64794E+00
 -1      2284 2.65790E+00
 -1      2285 2.64794E+00
 -1      2286 2.46291E+00
 -1      2287 2.26588E+00
 -1      2288 2.21025E+00
 -1      2289 2.15818E+00
 -1      2290 2.15257E+00
 -1      2291 2.15818E+00
 -1      2292 3.65292E+01
 -1      2293 3.65292E+01
 -1      2294 3.65292E+01
 -1      2295 2.30282E+01
 -1      2296 9.52720E+00
 -1      2297 6.67526E+00
 -1      2298 3.82331E+00
 -1      2299 3.12073E+00
 -1      2300 2.41814E+00
 -1      2301 2.22426E+00
 -1      2302 2.03039E+00
 -1      2303 1.88446E+00
 -1      2304 1.73853E+00
 -1      2305 1.64699E+00
 -1      2306 1.55950E+00
 -1      2307 1.49849E+00
 -1      2308 1.44792E+00
 -1      2309 1.41233E+00
 -1      2310 1.38988E+00
 -1      2311 1.39470E+00
 -1      2312 1.41245E+00
 -1      2313 1.44773E+00
 -1      2314 1.49475E+00
 -1      2315 1.55806E+00
 -1      2316 1.63172E+00
 -1      2317 2.14700E+00
 -1      2318 2.66248E+00
 -1      2319 2.66705E+00
 -1      2320 2.66248E+00
 -1      2321 2.46783E+00
 -1      2322 2.26827E+00
 -1      2323 2.20511E+00
 -1      2324 2.14709E+00
 -1      2325 2.14161E+00
 -1      2326 2.14709E+00
 -1      2327 2.87831E+01
 -1      2328 2.10369E+01
 -1      2329 2.87831E+01
 -1      2330 1.40865E+01
 -1      2331 8.33167E+00
 -1      2332 5.01018E+00
 -1      2333 3.35377E+00
 -1      2334 2.62514E+00
 -1      2335 2.39209E+00
 -1      2336 2.14846E+00
 -1      2337 1.98064E+00
 -1      2338 1.80462E+00
 -1      2339 1.70844E+00
 -1      2340 1.59539E+00
 -1      2341 1.53393E+00
 -1      2342 1.46234E+00
 -1      2343 1.42691E+00
 -1      2344 1.38722E+00
 -1      2345 1.37264E+00
 -1      2346 1.37780E+00
 -1      2347 1.39987E+00
 -1      2348 1.43600E+00
 -1      2349 1.48386E+00
 -1      2350 1.54838E+00
 -1      2351 1.62258E+00
 -1      2352 2.14263E+00
 -1      2353 2.66705E+00
 -1      2354 2.66705E+00
 -1      2355 2.66705E+00
 -1      2356 2.46783E+00
 -1      2357 2.26860E+00
 -1      2358 2.19979E+00
 -1      2359 2.13630E+00
 -1      2360 2.13098E+00
 -1      2361 2.13630E+00
 -3
 9999
