    1C
    1UUSER                                                              
    1UDATE              15.may.2021                                     
    1UTIME              14:51:15                                        
    1UHOST                                                              
    1UPGM               CalculiX                                        
    1UVERSION           Version 2.17                             
    1UCOMPILETIME       Thu Jul 23 21:43:50 CEST 2020                    
    1UDIR                                                               
    1UDBN                                                               
    1UMAT    1STEEL                                                     
    1UMAT    2CONTACT                                                   
    2C                          1236                                     1
 -1         1 0.00000E+00 0.00000E+00 0.00000E+00
 -1         2 1.00000E+01 1.00000E+01 0.00000E+00
 -1         3 4.99792E-01 1.24974E-02 0.00000E+00
 -1         4 1.04212E+00 5.44489E-02 0.00000E+00
 -1         5 1.63835E+00 1.35122E-01 0.00000E+00
 -1         6 2.28673E+00 2.64967E-01 0.00000E+00
 -1         7 2.98765E+00 4.56732E-01 0.00000E+00
 -1         8 3.73954E+00 7.25528E-01 0.00000E+00
 -1         9 4.53803E+00 1.08898E+00 0.00000E+00
 -1        10 5.37479E+00 1.56723E+00 0.00000E+00
 -1        11 6.23615E+00 2.18268E+00 0.00000E+00
 -1        12 7.10134E+00 2.95934E+00 0.00000E+00
 -1        13 7.94049E+00 3.92146E+00 0.00000E+00
 -1        14 8.71235E+00 5.09134E+00 0.00000E+00
 -1        15 9.36216E+00 6.48575E+00 0.00000E+00
 -1        16 9.82028E+00 8.11264E+00 0.00000E+00
 -1        17 9.50000E+00 1.00000E+01 0.00000E+00
 -1        18 8.95000E+00 1.00000E+01 0.00000E+00
 -1        19 8.34500E+00 1.00000E+01 0.00000E+00
 -1        20 7.67950E+00 1.00000E+01 0.00000E+00
 -1        21 6.94745E+00 1.00000E+01 0.00000E+00
 -1        22 6.14220E+00 1.00000E+01 0.00000E+00
 -1        23 5.25641E+00 1.00000E+01 0.00000E+00
 -1        24 4.28206E+00 1.00000E+01 0.00000E+00
 -1        25 3.21026E+00 1.00000E+01 0.00000E+00
 -1        26 2.03129E+00 1.00000E+01 0.00000E+00
 -1        27 7.34416E-01 1.00000E+01 0.00000E+00
 -1        28 0.00000E+00 1.00000E+01 0.00000E+00
 -1        29 0.00000E+00 5.00000E-01 0.00000E+00
 -1        30 0.00000E+00 1.05000E+00 0.00000E+00
 -1        31 0.00000E+00 1.65500E+00 0.00000E+00
 -1        32 0.00000E+00 2.32050E+00 0.00000E+00
 -1        33 0.00000E+00 3.05255E+00 0.00000E+00
 -1        34 0.00000E+00 3.85781E+00 0.00000E+00
 -1        35 0.00000E+00 4.74359E+00 0.00000E+00
 -1        36 0.00000E+00 5.71794E+00 0.00000E+00
 -1        37 0.00000E+00 6.78974E+00 0.00000E+00
 -1        38 0.00000E+00 7.96871E+00 0.00000E+00
 -1        39 0.00000E+00 9.26558E+00 0.00000E+00
 -1        40 4.74802E-01 5.11873E-01 0.00000E+00
 -1        41 4.47314E-01 1.06119E+00 0.00000E+00
 -1        42 4.17076E-01 1.66543E+00 0.00000E+00
 -1        43 3.83815E-01 2.33010E+00 0.00000E+00
 -1        44 3.47228E-01 3.06123E+00 0.00000E+00
 -1        45 3.06982E-01 3.86548E+00 0.00000E+00
 -1        46 2.62711E-01 4.75015E+00 0.00000E+00
 -1        47 2.14014E-01 5.72330E+00 0.00000E+00
 -1        48 1.60446E-01 6.79375E+00 0.00000E+00
 -1        49 1.01522E-01 7.97125E+00 0.00000E+00
 -1        50 3.67055E-02 9.26650E+00 0.00000E+00
 -1        51 9.90013E-01 5.51726E-01 0.00000E+00
 -1        52 9.32697E-01 1.09873E+00 0.00000E+00
 -1        53 8.69649E-01 1.70044E+00 0.00000E+00
 -1        54 8.00296E-01 2.36231E+00 0.00000E+00
 -1        55 7.24007E-01 3.09038E+00 0.00000E+00
 -1        56 6.40090E-01 3.89125E+00 0.00000E+00
 -1        57 5.47781E-01 4.77221E+00 0.00000E+00
 -1        58 4.46241E-01 5.74126E+00 0.00000E+00
 -1        59 3.34548E-01 6.80722E+00 0.00000E+00
 -1        60 2.11684E-01 7.97977E+00 0.00000E+00
 -1        61 7.65350E-02 9.26958E+00 0.00000E+00
 -1        62 1.55643E+00 6.28366E-01 0.00000E+00
 -1        63 1.46632E+00 1.17093E+00 0.00000E+00
 -1        64 1.36720E+00 1.76776E+00 0.00000E+00
 -1        65 1.25817E+00 2.42427E+00 0.00000E+00
 -1        66 1.13824E+00 3.14643E+00 0.00000E+00
 -1        67 1.00631E+00 3.94080E+00 0.00000E+00
 -1        68 8.61185E-01 4.81461E+00 0.00000E+00
 -1        69 7.01551E-01 5.77580E+00 0.00000E+00
 -1        70 5.25953E-01 6.83312E+00 0.00000E+00
 -1        71 3.32796E-01 7.99616E+00 0.00000E+00
 -1        72 1.20323E-01 9.27551E+00 0.00000E+00
 -1        73 2.17239E+00 7.51719E-01 0.00000E+00
 -1        74 2.04662E+00 1.28715E+00 0.00000E+00
 -1        75 1.90828E+00 1.87611E+00 0.00000E+00
 -1        76 1.75609E+00 2.52398E+00 0.00000E+00
 -1        77 1.58869E+00 3.23663E+00 0.00000E+00
 -1        78 1.40455E+00 4.02055E+00 0.00000E+00
 -1        79 1.20200E+00 4.88286E+00 0.00000E+00
 -1        80 9.79190E-01 5.83140E+00 0.00000E+00
 -1        81 7.34100E-01 6.87480E+00 0.00000E+00
 -1        82 4.64501E-01 8.02253E+00 0.00000E+00
 -1        83 1.67941E-01 9.28504E+00 0.00000E+00
 -1        84 2.83827E+00 9.33896E-01 0.00000E+00
 -1        85 2.67395E+00 1.45878E+00 0.00000E+00
 -1        86 2.49319E+00 2.03614E+00 0.00000E+00
 -1        87 2.29436E+00 2.67125E+00 0.00000E+00
 -1        88 2.07565E+00 3.36986E+00 0.00000E+00
 -1        89 1.83507E+00 4.13834E+00 0.00000E+00
 -1        90 1.57043E+00 4.98366E+00 0.00000E+00
 -1        91 1.27933E+00 5.91352E+00 0.00000E+00
 -1        92 9.59113E-01 6.93636E+00 0.00000E+00
 -1        93 6.06877E-01 8.06149E+00 0.00000E+00
 -1        94 2.19418E-01 9.29913E+00 0.00000E+00
 -1        95 3.55257E+00 1.18925E+00 0.00000E+00
 -1        96 3.34689E+00 1.69935E+00 0.00000E+00
 -1        97 3.12065E+00 2.26045E+00 0.00000E+00
 -1        98 2.87178E+00 2.87767E+00 0.00000E+00
 -1        99 2.59803E+00 3.55661E+00 0.00000E+00
 -1       100 2.29690E+00 4.30344E+00 0.00000E+00
 -1       101 1.96566E+00 5.12495E+00 0.00000E+00
 -1       102 1.60129E+00 6.02862E+00 0.00000E+00
 -1       103 1.20049E+00 7.02265E+00 0.00000E+00
 -1       104 7.59609E-01 8.11609E+00 0.00000E+00
 -1       105 2.74638E-01 9.31887E+00 0.00000E+00
 -1       106 4.31113E+00 1.53453E+00 0.00000E+00
 -1       107 4.06154E+00 2.02464E+00 0.00000E+00
 -1       108 3.78699E+00 2.56375E+00 0.00000E+00
 -1       109 3.48498E+00 3.15678E+00 0.00000E+00
 -1       110 3.15277E+00 3.80911E+00 0.00000E+00
 -1       111 2.78735E+00 4.52668E+00 0.00000E+00
 -1       112 2.38538E+00 5.31600E+00 0.00000E+00
 -1       113 1.94321E+00 6.18425E+00 0.00000E+00
 -1       114 1.45683E+00 7.13933E+00 0.00000E+00
 -1       115 9.21804E-01 8.18992E+00 0.00000E+00
 -1       116 3.33280E-01 9.34556E+00 0.00000E+00
 -1       117 5.10605E+00 1.98887E+00 0.00000E+00
 -1       118 4.81044E+00 2.45267E+00 0.00000E+00
 -1       119 4.48526E+00 2.96285E+00 0.00000E+00
 -1       120 4.12757E+00 3.52405E+00 0.00000E+00
 -1       121 3.73411E+00 4.14137E+00 0.00000E+00
 -1       122 3.30130E+00 4.82043E+00 0.00000E+00
 -1       123 2.82521E+00 5.56739E+00 0.00000E+00
 -1       124 2.30151E+00 6.38904E+00 0.00000E+00
 -1       125 1.72545E+00 7.29286E+00 0.00000E+00
 -1       126 1.09177E+00 8.28706E+00 0.00000E+00
 -1       127 3.94733E-01 9.38068E+00 0.00000E+00
 -1       128 5.92434E+00 2.57355E+00 0.00000E+00
 -1       129 5.58135E+00 3.00350E+00 0.00000E+00
 -1       130 5.20406E+00 3.47645E+00 0.00000E+00
 -1       131 4.78905E+00 3.99669E+00 0.00000E+00
 -1       132 4.33253E+00 4.56896E+00 0.00000E+00
 -1       133 3.83036E+00 5.19845E+00 0.00000E+00
 -1       134 3.27798E+00 5.89089E+00 0.00000E+00
 -1       135 2.67035E+00 6.65258E+00 0.00000E+00
 -1       136 2.00197E+00 7.49044E+00 0.00000E+00
 -1       137 1.26674E+00 8.41208E+00 0.00000E+00
 -1       138 4.57993E-01 9.42588E+00 0.00000E+00
 -1       139 6.74627E+00 3.31137E+00 0.00000E+00
 -1       140 6.35570E+00 3.69861E+00 0.00000E+00
 -1       141 5.92607E+00 4.12457E+00 0.00000E+00
 -1       142 5.45347E+00 4.59312E+00 0.00000E+00
 -1       143 4.93362E+00 5.10853E+00 0.00000E+00
 -1       144 4.36178E+00 5.67549E+00 0.00000E+00
 -1       145 3.73276E+00 6.29914E+00 0.00000E+00
 -1       146 3.04083E+00 6.98515E+00 0.00000E+00
 -1       147 2.27972E+00 7.73976E+00 0.00000E+00
 -1       148 1.44249E+00 8.56984E+00 0.00000E+00
 -1       149 5.21534E-01 9.48292E+00 0.00000E+00
 -1       150 7.54346E+00 4.22539E+00 0.00000E+00
 -1       151 7.10674E+00 4.55971E+00 0.00000E+00
 -1       152 6.62634E+00 4.92746E+00 0.00000E+00
 -1       153 6.09790E+00 5.33198E+00 0.00000E+00
 -1       154 5.51661E+00 5.77696E+00 0.00000E+00
 -1       155 4.87720E+00 6.26644E+00 0.00000E+00
 -1       156 4.17385E+00 6.80487E+00 0.00000E+00
 -1       157 3.40016E+00 7.39714E+00 0.00000E+00
 -1       158 2.54910E+00 8.04863E+00 0.00000E+00
 -1       159 1.61294E+00 8.76527E+00 0.00000E+00
 -1       160 5.83162E-01 9.55358E+00 0.00000E+00
 -1       161 8.27674E+00 5.33678E+00 0.00000E+00
 -1       162 7.79756E+00 5.60675E+00 0.00000E+00
 -1       163 7.27046E+00 5.90373E+00 0.00000E+00
 -1       164 6.69065E+00 6.23040E+00 0.00000E+00
 -1       165 6.05286E+00 6.58974E+00 0.00000E+00
 -1       166 5.35130E+00 6.98501E+00 0.00000E+00
 -1       167 4.57957E+00 7.41981E+00 0.00000E+00
 -1       168 3.73068E+00 7.89809E+00 0.00000E+00
 -1       169 2.79689E+00 8.42419E+00 0.00000E+00
 -1       170 1.76973E+00 9.00291E+00 0.00000E+00
 -1       171 6.39850E-01 9.63950E+00 0.00000E+00
 -1       172 8.89405E+00 6.66146E+00 0.00000E+00
 -1       173 8.37913E+00 6.85475E+00 0.00000E+00
 -1       174 7.81272E+00 7.06736E+00 0.00000E+00
 -1       175 7.18967E+00 7.30123E+00 0.00000E+00
 -1       176 6.50431E+00 7.55849E+00 0.00000E+00
 -1       177 5.75042E+00 7.84148E+00 0.00000E+00
 -1       178 4.92114E+00 8.15277E+00 0.00000E+00
 -1       179 4.00893E+00 8.49518E+00 0.00000E+00
 -1       180 3.00550E+00 8.87183E+00 0.00000E+00
 -1       181 1.90172E+00 9.28615E+00 0.00000E+00
 -1       182 6.87572E-01 9.74191E+00 0.00000E+00
 -1       183 9.32926E+00 8.20701E+00 0.00000E+00
 -1       184 8.78915E+00 8.31081E+00 0.00000E+00
 -1       185 8.19502E+00 8.42500E+00 0.00000E+00
 -1       186 7.54148E+00 8.55060E+00 0.00000E+00
 -1       187 6.82259E+00 8.68877E+00 0.00000E+00
 -1       188 6.03181E+00 8.84075E+00 0.00000E+00
 -1       189 5.16195E+00 9.00793E+00 0.00000E+00
 -1       190 4.20510E+00 9.19182E+00 0.00000E+00
 -1       191 3.15257E+00 9.39411E+00 0.00000E+00
 -1       192 1.99478E+00 9.61662E+00 0.00000E+00
 -1       193 7.21217E-01 9.86139E+00 0.00000E+00
 -1       194 4.00000E+01 0.00000E+00 0.00000E+00
 -1       195 0.00000E+00 0.00000E+00 0.00000E+00
 -1       196 0.00000E+00-2.00000E+01 0.00000E+00
 -1       197 4.00000E+01-2.00000E+01 0.00000E+00
 -1       199 3.54050E+01 0.00000E+00 0.00000E+00
 -1       200 3.13274E+01 0.00000E+00 0.00000E+00
 -1       201 2.76174E+01 0.00000E+00 0.00000E+00
 -1       202 2.42365E+01 0.00000E+00 0.00000E+00
 -1       203 2.11562E+01 0.00000E+00 0.00000E+00
 -1       204 1.83504E+01 0.00000E+00 0.00000E+00
 -1       205 1.57950E+01 0.00000E+00 0.00000E+00
 -1       206 1.34681E+01 0.00000E+00 0.00000E+00
 -1       207 1.13496E+01 0.00000E+00 0.00000E+00
 -1       208 9.42113E+00 0.00000E+00 0.00000E+00
 -1       209 7.66580E+00 0.00000E+00 0.00000E+00
 -1       210 6.06827E+00 0.00000E+00 0.00000E+00
 -1       211 4.61451E+00 0.00000E+00 0.00000E+00
 -1       212 3.29169E+00 0.00000E+00 0.00000E+00
 -1       213 2.08813E+00 0.00000E+00 0.00000E+00
 -1       214 1.00000E+00 0.00000E+00 0.00000E+00
 -1       215 0.00000E+00-1.00000E+00 0.00000E+00
 -1       216 0.00000E+00-2.10000E+00 0.00000E+00
 -1       217 0.00000E+00-3.31000E+00 0.00000E+00
 -1       218 0.00000E+00-4.64100E+00 0.00000E+00
 -1       219 0.00000E+00-6.10510E+00 0.00000E+00
 -1       220 0.00000E+00-7.71561E+00 0.00000E+00
 -1       221 0.00000E+00-9.48717E+00 0.00000E+00
 -1       222 0.00000E+00-1.14359E+01 0.00000E+00
 -1       223 0.00000E+00-1.35795E+01 0.00000E+00
 -1       224 0.00000E+00-1.59374E+01 0.00000E+00
 -1       225 0.00000E+00-1.85312E+01 0.00000E+00
 -1       226 1.00000E+00-2.00000E+01 0.00000E+00
 -1       227 2.08813E+00-2.00000E+01 0.00000E+00
 -1       228 3.29169E+00-2.00000E+01 0.00000E+00
 -1       229 4.61451E+00-2.00000E+01 0.00000E+00
 -1       230 6.06827E+00-2.00000E+01 0.00000E+00
 -1       231 7.66580E+00-2.00000E+01 0.00000E+00
 -1       232 9.42113E+00-2.00000E+01 0.00000E+00
 -1       233 1.13496E+01-2.00000E+01 0.00000E+00
 -1       234 1.34681E+01-2.00000E+01 0.00000E+00
 -1       235 1.57950E+01-2.00000E+01 0.00000E+00
 -1       236 1.83504E+01-2.00000E+01 0.00000E+00
 -1       237 2.11562E+01-2.00000E+01 0.00000E+00
 -1       238 2.42365E+01-2.00000E+01 0.00000E+00
 -1       239 2.76174E+01-2.00000E+01 0.00000E+00
 -1       240 3.13274E+01-2.00000E+01 0.00000E+00
 -1       241 3.54050E+01-2.00000E+01 0.00000E+00
 -1       242 4.00000E+01-1.85312E+01 0.00000E+00
 -1       243 4.00000E+01-1.59374E+01 0.00000E+00
 -1       244 4.00000E+01-1.35795E+01 0.00000E+00
 -1       245 4.00000E+01-1.14359E+01 0.00000E+00
 -1       246 4.00000E+01-9.48717E+00 0.00000E+00
 -1       247 4.00000E+01-7.71561E+00 0.00000E+00
 -1       248 4.00000E+01-6.10510E+00 0.00000E+00
 -1       249 4.00000E+01-4.64100E+00 0.00000E+00
 -1       250 4.00000E+01-3.31000E+00 0.00000E+00
 -1       251 4.00000E+01-2.10000E+00 0.00000E+00
 -1       252 4.00000E+01-1.00000E+00 0.00000E+00
 -1       253 3.54050E+01-1.00000E+00 0.00000E+00
 -1       254 3.54050E+01-2.10000E+00 0.00000E+00
 -1       255 3.54050E+01-3.31000E+00 0.00000E+00
 -1       256 3.54050E+01-4.64100E+00 0.00000E+00
 -1       257 3.54050E+01-6.10510E+00 0.00000E+00
 -1       258 3.54050E+01-7.71561E+00 0.00000E+00
 -1       259 3.54050E+01-9.48717E+00 0.00000E+00
 -1       260 3.54050E+01-1.14359E+01 0.00000E+00
 -1       261 3.54050E+01-1.35795E+01 0.00000E+00
 -1       262 3.54050E+01-1.59374E+01 0.00000E+00
 -1       263 3.54050E+01-1.85312E+01 0.00000E+00
 -1       264 3.13274E+01-1.00000E+00 0.00000E+00
 -1       265 3.13274E+01-2.10000E+00 0.00000E+00
 -1       266 3.13274E+01-3.31000E+00 0.00000E+00
 -1       267 3.13274E+01-4.64100E+00 0.00000E+00
 -1       268 3.13274E+01-6.10510E+00 0.00000E+00
 -1       269 3.13274E+01-7.71561E+00 0.00000E+00
 -1       270 3.13274E+01-9.48717E+00 0.00000E+00
 -1       271 3.13274E+01-1.14359E+01 0.00000E+00
 -1       272 3.13274E+01-1.35795E+01 0.00000E+00
 -1       273 3.13274E+01-1.59374E+01 0.00000E+00
 -1       274 3.13274E+01-1.85312E+01 0.00000E+00
 -1       275 2.76174E+01-1.00000E+00 0.00000E+00
 -1       276 2.76174E+01-2.10000E+00 0.00000E+00
 -1       277 2.76174E+01-3.31000E+00 0.00000E+00
 -1       278 2.76174E+01-4.64100E+00 0.00000E+00
 -1       279 2.76174E+01-6.10510E+00 0.00000E+00
 -1       280 2.76174E+01-7.71561E+00 0.00000E+00
 -1       281 2.76174E+01-9.48717E+00 0.00000E+00
 -1       282 2.76174E+01-1.14359E+01 0.00000E+00
 -1       283 2.76174E+01-1.35795E+01 0.00000E+00
 -1       284 2.76174E+01-1.59374E+01 0.00000E+00
 -1       285 2.76174E+01-1.85312E+01 0.00000E+00
 -1       286 2.42365E+01-1.00000E+00 0.00000E+00
 -1       287 2.42365E+01-2.10000E+00 0.00000E+00
 -1       288 2.42365E+01-3.31000E+00 0.00000E+00
 -1       289 2.42365E+01-4.64100E+00 0.00000E+00
 -1       290 2.42365E+01-6.10510E+00 0.00000E+00
 -1       291 2.42365E+01-7.71561E+00 0.00000E+00
 -1       292 2.42365E+01-9.48717E+00 0.00000E+00
 -1       293 2.42365E+01-1.14359E+01 0.00000E+00
 -1       294 2.42365E+01-1.35795E+01 0.00000E+00
 -1       295 2.42365E+01-1.59374E+01 0.00000E+00
 -1       296 2.42365E+01-1.85312E+01 0.00000E+00
 -1       297 2.11562E+01-1.00000E+00 0.00000E+00
 -1       298 2.11562E+01-2.10000E+00 0.00000E+00
 -1       299 2.11562E+01-3.31000E+00 0.00000E+00
 -1       300 2.11562E+01-4.64100E+00 0.00000E+00
 -1       301 2.11562E+01-6.10510E+00 0.00000E+00
 -1       302 2.11562E+01-7.71561E+00 0.00000E+00
 -1       303 2.11562E+01-9.48717E+00 0.00000E+00
 -1       304 2.11562E+01-1.14359E+01 0.00000E+00
 -1       305 2.11562E+01-1.35795E+01 0.00000E+00
 -1       306 2.11562E+01-1.59374E+01 0.00000E+00
 -1       307 2.11562E+01-1.85312E+01 0.00000E+00
 -1       308 1.83504E+01-1.00000E+00 0.00000E+00
 -1       309 1.83504E+01-2.10000E+00 0.00000E+00
 -1       310 1.83504E+01-3.31000E+00 0.00000E+00
 -1       311 1.83504E+01-4.64100E+00 0.00000E+00
 -1       312 1.83504E+01-6.10510E+00 0.00000E+00
 -1       313 1.83504E+01-7.71561E+00 0.00000E+00
 -1       314 1.83504E+01-9.48717E+00 0.00000E+00
 -1       315 1.83504E+01-1.14359E+01 0.00000E+00
 -1       316 1.83504E+01-1.35795E+01 0.00000E+00
 -1       317 1.83504E+01-1.59374E+01 0.00000E+00
 -1       318 1.83504E+01-1.85312E+01 0.00000E+00
 -1       319 1.57950E+01-1.00000E+00 0.00000E+00
 -1       320 1.57950E+01-2.10000E+00 0.00000E+00
 -1       321 1.57950E+01-3.31000E+00 0.00000E+00
 -1       322 1.57950E+01-4.64100E+00 0.00000E+00
 -1       323 1.57950E+01-6.10510E+00 0.00000E+00
 -1       324 1.57950E+01-7.71561E+00 0.00000E+00
 -1       325 1.57950E+01-9.48717E+00 0.00000E+00
 -1       326 1.57950E+01-1.14359E+01 0.00000E+00
 -1       327 1.57950E+01-1.35795E+01 0.00000E+00
 -1       328 1.57950E+01-1.59374E+01 0.00000E+00
 -1       329 1.57950E+01-1.85312E+01 0.00000E+00
 -1       330 1.34681E+01-1.00000E+00 0.00000E+00
 -1       331 1.34681E+01-2.10000E+00 0.00000E+00
 -1       332 1.34681E+01-3.31000E+00 0.00000E+00
 -1       333 1.34681E+01-4.64100E+00 0.00000E+00
 -1       334 1.34681E+01-6.10510E+00 0.00000E+00
 -1       335 1.34681E+01-7.71561E+00 0.00000E+00
 -1       336 1.34681E+01-9.48717E+00 0.00000E+00
 -1       337 1.34681E+01-1.14359E+01 0.00000E+00
 -1       338 1.34681E+01-1.35795E+01 0.00000E+00
 -1       339 1.34681E+01-1.59374E+01 0.00000E+00
 -1       340 1.34681E+01-1.85312E+01 0.00000E+00
 -1       341 1.13496E+01-1.00000E+00 0.00000E+00
 -1       342 1.13496E+01-2.10000E+00 0.00000E+00
 -1       343 1.13496E+01-3.31000E+00 0.00000E+00
 -1       344 1.13496E+01-4.64100E+00 0.00000E+00
 -1       345 1.13496E+01-6.10510E+00 0.00000E+00
 -1       346 1.13496E+01-7.71561E+00 0.00000E+00
 -1       347 1.13496E+01-9.48717E+00 0.00000E+00
 -1       348 1.13496E+01-1.14359E+01 0.00000E+00
 -1       349 1.13496E+01-1.35795E+01 0.00000E+00
 -1       350 1.13496E+01-1.59374E+01 0.00000E+00
 -1       351 1.13496E+01-1.85312E+01 0.00000E+00
 -1       352 9.42113E+00-1.00000E+00 0.00000E+00
 -1       353 9.42113E+00-2.10000E+00 0.00000E+00
 -1       354 9.42113E+00-3.31000E+00 0.00000E+00
 -1       355 9.42113E+00-4.64100E+00 0.00000E+00
 -1       356 9.42113E+00-6.10510E+00 0.00000E+00
 -1       357 9.42113E+00-7.71561E+00 0.00000E+00
 -1       358 9.42113E+00-9.48717E+00 0.00000E+00
 -1       359 9.42113E+00-1.14359E+01 0.00000E+00
 -1       360 9.42113E+00-1.35795E+01 0.00000E+00
 -1       361 9.42113E+00-1.59374E+01 0.00000E+00
 -1       362 9.42113E+00-1.85312E+01 0.00000E+00
 -1       363 7.66580E+00-1.00000E+00 0.00000E+00
 -1       364 7.66580E+00-2.10000E+00 0.00000E+00
 -1       365 7.66580E+00-3.31000E+00 0.00000E+00
 -1       366 7.66580E+00-4.64100E+00 0.00000E+00
 -1       367 7.66580E+00-6.10510E+00 0.00000E+00
 -1       368 7.66580E+00-7.71561E+00 0.00000E+00
 -1       369 7.66580E+00-9.48717E+00 0.00000E+00
 -1       370 7.66580E+00-1.14359E+01 0.00000E+00
 -1       371 7.66580E+00-1.35795E+01 0.00000E+00
 -1       372 7.66580E+00-1.59374E+01 0.00000E+00
 -1       373 7.66580E+00-1.85312E+01 0.00000E+00
 -1       374 6.06827E+00-1.00000E+00 0.00000E+00
 -1       375 6.06827E+00-2.10000E+00 0.00000E+00
 -1       376 6.06827E+00-3.31000E+00 0.00000E+00
 -1       377 6.06827E+00-4.64100E+00 0.00000E+00
 -1       378 6.06827E+00-6.10510E+00 0.00000E+00
 -1       379 6.06827E+00-7.71561E+00 0.00000E+00
 -1       380 6.06827E+00-9.48717E+00 0.00000E+00
 -1       381 6.06827E+00-1.14359E+01 0.00000E+00
 -1       382 6.06827E+00-1.35795E+01 0.00000E+00
 -1       383 6.06827E+00-1.59374E+01 0.00000E+00
 -1       384 6.06827E+00-1.85312E+01 0.00000E+00
 -1       385 4.61451E+00-1.00000E+00 0.00000E+00
 -1       386 4.61451E+00-2.10000E+00 0.00000E+00
 -1       387 4.61451E+00-3.31000E+00 0.00000E+00
 -1       388 4.61451E+00-4.64100E+00 0.00000E+00
 -1       389 4.61451E+00-6.10510E+00 0.00000E+00
 -1       390 4.61451E+00-7.71561E+00 0.00000E+00
 -1       391 4.61451E+00-9.48717E+00 0.00000E+00
 -1       392 4.61451E+00-1.14359E+01 0.00000E+00
 -1       393 4.61451E+00-1.35795E+01 0.00000E+00
 -1       394 4.61451E+00-1.59374E+01 0.00000E+00
 -1       395 4.61451E+00-1.85312E+01 0.00000E+00
 -1       396 3.29169E+00-1.00000E+00 0.00000E+00
 -1       397 3.29169E+00-2.10000E+00 0.00000E+00
 -1       398 3.29169E+00-3.31000E+00 0.00000E+00
 -1       399 3.29169E+00-4.64100E+00 0.00000E+00
 -1       400 3.29169E+00-6.10510E+00 0.00000E+00
 -1       401 3.29169E+00-7.71561E+00 0.00000E+00
 -1       402 3.29169E+00-9.48717E+00 0.00000E+00
 -1       403 3.29169E+00-1.14359E+01 0.00000E+00
 -1       404 3.29169E+00-1.35795E+01 0.00000E+00
 -1       405 3.29169E+00-1.59374E+01 0.00000E+00
 -1       406 3.29169E+00-1.85312E+01 0.00000E+00
 -1       407 2.08813E+00-1.00000E+00 0.00000E+00
 -1       408 2.08813E+00-2.10000E+00 0.00000E+00
 -1       409 2.08813E+00-3.31000E+00 0.00000E+00
 -1       410 2.08813E+00-4.64100E+00 0.00000E+00
 -1       411 2.08813E+00-6.10510E+00 0.00000E+00
 -1       412 2.08813E+00-7.71561E+00 0.00000E+00
 -1       413 2.08813E+00-9.48717E+00 0.00000E+00
 -1       414 2.08813E+00-1.14359E+01 0.00000E+00
 -1       415 2.08813E+00-1.35795E+01 0.00000E+00
 -1       416 2.08813E+00-1.59374E+01 0.00000E+00
 -1       417 2.08813E+00-1.85312E+01 0.00000E+00
 -1       418 1.00000E+00-1.00000E+00 0.00000E+00
 -1       419 1.00000E+00-2.10000E+00 0.00000E+00
 -1       420 1.00000E+00-3.31000E+00 0.00000E+00
 -1       421 1.00000E+00-4.64100E+00 0.00000E+00
 -1       422 1.00000E+00-6.10510E+00 0.00000E+00
 -1       423 1.00000E+00-7.71561E+00 0.00000E+00
 -1       424 1.00000E+00-9.48717E+00 0.00000E+00
 -1       425 1.00000E+00-1.14359E+01 0.00000E+00
 -1       426 1.00000E+00-1.35795E+01 0.00000E+00
 -1       427 1.00000E+00-1.59374E+01 0.00000E+00
 -1       428 1.00000E+00-1.85312E+01 0.00000E+00
 -1       429 2.49974E-01 3.12484E-03 0.00000E+00
 -1       430 4.87297E-01 2.62185E-01 0.00000E+00
 -1       431 2.37401E-01 5.05936E-01 0.00000E+00
 -1       432 0.00000E+00 2.50000E-01 0.00000E+00
 -1       433 4.61058E-01 7.86529E-01 0.00000E+00
 -1       434 2.23657E-01 1.05559E+00 0.00000E+00
 -1       435 0.00000E+00 7.75000E-01 0.00000E+00
 -1       436 4.32195E-01 1.36331E+00 0.00000E+00
 -1       437 2.08538E-01 1.66021E+00 0.00000E+00
 -1       438 0.00000E+00 1.35250E+00 0.00000E+00
 -1       439 4.00446E-01 1.99776E+00 0.00000E+00
 -1       440 1.91908E-01 2.32530E+00 0.00000E+00
 -1       441 0.00000E+00 1.98775E+00 0.00000E+00
 -1       442 3.65521E-01 2.69566E+00 0.00000E+00
 -1       443 1.73614E-01 3.05689E+00 0.00000E+00
 -1       444 0.00000E+00 2.68653E+00 0.00000E+00
 -1       445 3.27105E-01 3.46336E+00 0.00000E+00
 -1       446 1.53491E-01 3.86164E+00 0.00000E+00
 -1       447 0.00000E+00 3.45518E+00 0.00000E+00
 -1       448 2.84847E-01 4.30782E+00 0.00000E+00
 -1       449 1.31356E-01 4.74687E+00 0.00000E+00
 -1       450 0.00000E+00 4.30070E+00 0.00000E+00
 -1       451 2.38362E-01 5.23672E+00 0.00000E+00
 -1       452 1.07007E-01 5.72062E+00 0.00000E+00
 -1       453 0.00000E+00 5.23076E+00 0.00000E+00
 -1       454 1.87230E-01 6.25852E+00 0.00000E+00
 -1       455 8.02231E-02 6.79174E+00 0.00000E+00
 -1       456 0.00000E+00 6.25384E+00 0.00000E+00
 -1       457 1.30984E-01 7.38250E+00 0.00000E+00
 -1       458 5.07610E-02 7.96998E+00 0.00000E+00
 -1       459 0.00000E+00 7.37923E+00 0.00000E+00
 -1       460 6.91138E-02 8.61888E+00 0.00000E+00
 -1       461 1.83528E-02 9.26604E+00 0.00000E+00
 -1       462 0.00000E+00 8.61715E+00 0.00000E+00
 -1       463 1.83528E-02 9.63325E+00 0.00000E+00
 -1       464 0.00000E+00 9.63279E+00 0.00000E+00
 -1       465 7.71241E-01 2.97850E-02 0.00000E+00
 -1       466 1.01607E+00 3.03088E-01 0.00000E+00
 -1       467 7.32408E-01 5.31799E-01 0.00000E+00
 -1       468 9.61355E-01 8.25229E-01 0.00000E+00
 -1       469 6.90005E-01 1.07996E+00 0.00000E+00
 -1       470 9.01173E-01 1.39958E+00 0.00000E+00
 -1       471 6.43362E-01 1.68293E+00 0.00000E+00
 -1       472 8.34972E-01 2.03138E+00 0.00000E+00
 -1       473 5.92055E-01 2.34621E+00 0.00000E+00
 -1       474 7.62151E-01 2.72635E+00 0.00000E+00
 -1       475 5.35618E-01 3.07581E+00 0.00000E+00
 -1       476 6.82049E-01 3.49081E+00 0.00000E+00
 -1       477 4.73536E-01 3.87836E+00 0.00000E+00
 -1       478 5.93936E-01 4.33173E+00 0.00000E+00
 -1       479 4.05246E-01 4.76118E+00 0.00000E+00
 -1       480 4.97011E-01 5.25673E+00 0.00000E+00
 -1       481 3.30128E-01 5.73228E+00 0.00000E+00
 -1       482 3.90395E-01 6.27424E+00 0.00000E+00
 -1       483 2.47497E-01 6.80048E+00 0.00000E+00
 -1       484 2.73116E-01 7.39350E+00 0.00000E+00
 -1       485 1.56603E-01 7.97551E+00 0.00000E+00
 -1       486 1.44110E-01 8.62468E+00 0.00000E+00
 -1       487 5.66202E-02 9.26804E+00 0.00000E+00
 -1       488 3.82675E-02 9.63479E+00 0.00000E+00
 -1       489 1.34084E+00 9.03005E-02 0.00000E+00
 -1       490 1.59739E+00 3.81744E-01 0.00000E+00
 -1       491 1.27322E+00 5.90046E-01 0.00000E+00
 -1       492 1.51138E+00 8.99650E-01 0.00000E+00
 -1       493 1.19951E+00 1.13483E+00 0.00000E+00
 -1       494 1.41676E+00 1.46935E+00 0.00000E+00
 -1       495 1.11843E+00 1.73410E+00 0.00000E+00
 -1       496 1.31269E+00 2.09601E+00 0.00000E+00
 -1       497 1.02923E+00 2.39329E+00 0.00000E+00
 -1       498 1.19820E+00 2.78535E+00 0.00000E+00
 -1       499 9.31121E-01 3.11840E+00 0.00000E+00
 -1       500 1.07227E+00 3.54361E+00 0.00000E+00
 -1       501 8.23198E-01 3.91602E+00 0.00000E+00
 -1       502 9.33746E-01 4.37771E+00 0.00000E+00
 -1       503 7.04483E-01 4.79341E+00 0.00000E+00
 -1       504 7.81368E-01 5.29521E+00 0.00000E+00
 -1       505 5.73896E-01 5.75853E+00 0.00000E+00
 -1       506 6.13752E-01 6.30446E+00 0.00000E+00
 -1       507 4.30250E-01 6.82017E+00 0.00000E+00
 -1       508 4.29375E-01 7.41464E+00 0.00000E+00
 -1       509 2.72240E-01 7.98797E+00 0.00000E+00
 -1       510 2.26560E-01 8.63583E+00 0.00000E+00
 -1       511 9.84290E-02 9.27254E+00 0.00000E+00
 -1       512 6.01616E-02 9.63775E+00 0.00000E+00
 -1       513 1.96361E+00 1.94684E-01 0.00000E+00
 -1       514 2.22956E+00 5.08343E-01 0.00000E+00
 -1       515 1.86441E+00 6.90042E-01 0.00000E+00
 -1       516 2.10951E+00 1.01943E+00 0.00000E+00
 -1       517 1.75647E+00 1.22904E+00 0.00000E+00
 -1       518 1.97745E+00 1.58163E+00 0.00000E+00
 -1       519 1.63774E+00 1.82194E+00 0.00000E+00
 -1       520 1.83218E+00 2.20005E+00 0.00000E+00
 -1       521 1.50713E+00 2.47412E+00 0.00000E+00
 -1       522 1.67239E+00 2.88031E+00 0.00000E+00
 -1       523 1.36346E+00 3.19153E+00 0.00000E+00
 -1       524 1.49662E+00 3.62859E+00 0.00000E+00
 -1       525 1.20543E+00 3.98068E+00 0.00000E+00
 -1       526 1.30328E+00 4.45171E+00 0.00000E+00
 -1       527 1.03159E+00 4.84874E+00 0.00000E+00
 -1       528 1.09060E+00 5.35713E+00 0.00000E+00
 -1       529 8.40370E-01 5.80360E+00 0.00000E+00
 -1       530 8.56645E-01 6.35310E+00 0.00000E+00
 -1       531 6.30027E-01 6.85396E+00 0.00000E+00
 -1       532 5.99300E-01 7.44867E+00 0.00000E+00
 -1       533 3.98648E-01 8.00935E+00 0.00000E+00
 -1       534 3.16221E-01 8.65379E+00 0.00000E+00
 -1       535 1.44132E-01 9.28028E+00 0.00000E+00
 -1       536 8.39706E-02 9.64252E+00 0.00000E+00
 -1       537 2.63893E+00 3.54481E-01 0.00000E+00
 -1       538 2.91296E+00 6.95314E-01 0.00000E+00
 -1       539 2.50533E+00 8.42807E-01 0.00000E+00
 -1       540 2.75611E+00 1.19634E+00 0.00000E+00
 -1       541 2.36028E+00 1.37296E+00 0.00000E+00
 -1       542 2.58357E+00 1.74746E+00 0.00000E+00
 -1       543 2.20073E+00 1.95613E+00 0.00000E+00
 -1       544 2.39378E+00 2.35370E+00 0.00000E+00
 -1       545 2.02523E+00 2.59761E+00 0.00000E+00
 -1       546 2.18501E+00 3.02056E+00 0.00000E+00
 -1       547 1.83217E+00 3.30325E+00 0.00000E+00
 -1       548 1.95536E+00 3.75410E+00 0.00000E+00
 -1       549 1.61981E+00 4.07945E+00 0.00000E+00
 -1       550 1.70275E+00 4.56100E+00 0.00000E+00
 -1       551 1.38622E+00 4.93326E+00 0.00000E+00
 -1       552 1.42488E+00 5.44859E+00 0.00000E+00
 -1       553 1.12926E+00 5.87246E+00 0.00000E+00
 -1       554 1.11922E+00 6.42494E+00 0.00000E+00
 -1       555 8.46607E-01 6.90558E+00 0.00000E+00
 -1       556 7.82995E-01 7.49892E+00 0.00000E+00
 -1       557 5.35689E-01 8.04201E+00 0.00000E+00
 -1       558 4.13148E-01 8.68031E+00 0.00000E+00
 -1       559 1.93679E-01 9.29208E+00 0.00000E+00
 -1       560 1.09709E-01 9.64956E+00 0.00000E+00
 -1       561 3.36628E+00 5.83623E-01 0.00000E+00
 -1       562 3.64605E+00 9.57390E-01 0.00000E+00
 -1       563 3.19542E+00 1.06157E+00 0.00000E+00
 -1       564 3.44973E+00 1.44430E+00 0.00000E+00
 -1       565 3.01042E+00 1.57906E+00 0.00000E+00
 -1       566 3.23377E+00 1.97990E+00 0.00000E+00
 -1       567 2.80692E+00 2.14830E+00 0.00000E+00
 -1       568 2.99621E+00 2.56906E+00 0.00000E+00
 -1       569 2.58307E+00 2.77446E+00 0.00000E+00
 -1       570 2.73491E+00 3.21714E+00 0.00000E+00
 -1       571 2.33684E+00 3.46323E+00 0.00000E+00
 -1       572 2.44746E+00 3.93002E+00 0.00000E+00
 -1       573 2.06599E+00 4.22089E+00 0.00000E+00
 -1       574 2.13128E+00 4.71420E+00 0.00000E+00
 -1       575 1.76805E+00 5.05431E+00 0.00000E+00
 -1       576 1.78348E+00 5.57679E+00 0.00000E+00
 -1       577 1.44031E+00 5.97107E+00 0.00000E+00
 -1       578 1.40089E+00 6.52564E+00 0.00000E+00
 -1       579 1.07980E+00 6.97951E+00 0.00000E+00
 -1       580 9.80050E-01 7.56937E+00 0.00000E+00
 -1       581 6.83243E-01 8.08879E+00 0.00000E+00
 -1       582 5.17123E-01 8.71748E+00 0.00000E+00
 -1       583 2.47028E-01 9.30900E+00 0.00000E+00
 -1       584 1.37319E-01 9.65943E+00 0.00000E+00
 -1       585 4.14277E+00 8.98493E-01 0.00000E+00
 -1       586 4.42458E+00 1.31175E+00 0.00000E+00
 -1       587 3.93185E+00 1.36189E+00 0.00000E+00
 -1       588 4.18633E+00 1.77958E+00 0.00000E+00
 -1       589 3.70421E+00 1.86199E+00 0.00000E+00
 -1       590 3.92426E+00 2.29419E+00 0.00000E+00
 -1       591 3.45382E+00 2.41210E+00 0.00000E+00
 -1       592 3.63598E+00 2.86027E+00 0.00000E+00
 -1       593 3.17838E+00 3.01723E+00 0.00000E+00
 -1       594 3.31888E+00 3.48295E+00 0.00000E+00
 -1       595 2.87540E+00 3.68286E+00 0.00000E+00
 -1       596 2.97006E+00 4.16789E+00 0.00000E+00
 -1       597 2.54212E+00 4.41506E+00 0.00000E+00
 -1       598 2.58636E+00 4.92134E+00 0.00000E+00
 -1       599 2.17552E+00 5.22048E+00 0.00000E+00
 -1       600 2.16429E+00 5.75012E+00 0.00000E+00
 -1       601 1.77225E+00 6.10644E+00 0.00000E+00
 -1       602 1.70002E+00 6.66179E+00 0.00000E+00
 -1       603 1.32866E+00 7.08099E+00 0.00000E+00
 -1       604 1.18932E+00 7.66462E+00 0.00000E+00
 -1       605 8.40706E-01 8.15300E+00 0.00000E+00
 -1       606 6.27542E-01 8.76774E+00 0.00000E+00
 -1       607 3.03959E-01 9.33221E+00 0.00000E+00
 -1       608 1.66640E-01 9.67278E+00 0.00000E+00
 -1       609 4.96217E+00 1.31802E+00 0.00000E+00
 -1       610 5.24042E+00 1.77805E+00 0.00000E+00
 -1       611 4.70859E+00 1.76170E+00 0.00000E+00
 -1       612 4.95824E+00 2.22077E+00 0.00000E+00
 -1       613 4.43599E+00 2.23865E+00 0.00000E+00
 -1       614 4.64785E+00 2.70776E+00 0.00000E+00
 -1       615 4.13612E+00 2.76330E+00 0.00000E+00
 -1       616 4.30642E+00 3.24345E+00 0.00000E+00
 -1       617 3.80627E+00 3.34042E+00 0.00000E+00
 -1       618 3.93084E+00 3.83271E+00 0.00000E+00
 -1       619 3.44344E+00 3.97524E+00 0.00000E+00
 -1       620 3.51770E+00 4.48090E+00 0.00000E+00
 -1       621 3.04432E+00 4.67355E+00 0.00000E+00
 -1       622 3.06326E+00 5.19391E+00 0.00000E+00
 -1       623 2.60529E+00 5.44169E+00 0.00000E+00
 -1       624 2.56336E+00 5.97821E+00 0.00000E+00
 -1       625 2.12236E+00 6.28665E+00 0.00000E+00
 -1       626 2.01348E+00 6.84095E+00 0.00000E+00
 -1       627 1.59114E+00 7.21609E+00 0.00000E+00
 -1       628 1.40861E+00 7.78996E+00 0.00000E+00
 -1       629 1.00679E+00 8.23849E+00 0.00000E+00
 -1       630 7.43254E-01 8.83387E+00 0.00000E+00
 -1       631 3.64007E-01 9.36312E+00 0.00000E+00
 -1       632 1.97367E-01 9.69034E+00 0.00000E+00
 -1       633 5.81362E+00 1.86355E+00 0.00000E+00
 -1       634 6.08024E+00 2.37811E+00 0.00000E+00
 -1       635 5.51519E+00 2.28121E+00 0.00000E+00
 -1       636 5.75285E+00 2.78852E+00 0.00000E+00
 -1       637 5.19589E+00 2.72808E+00 0.00000E+00
 -1       638 5.39271E+00 3.23997E+00 0.00000E+00
 -1       639 4.84466E+00 3.21965E+00 0.00000E+00
 -1       640 4.99656E+00 3.73657E+00 0.00000E+00
 -1       641 4.45831E+00 3.76037E+00 0.00000E+00
 -1       642 4.56079E+00 4.28282E+00 0.00000E+00
 -1       643 4.03332E+00 4.35517E+00 0.00000E+00
 -1       644 4.08145E+00 4.88370E+00 0.00000E+00
 -1       645 3.56583E+00 5.00944E+00 0.00000E+00
 -1       646 3.55417E+00 5.54467E+00 0.00000E+00
 -1       647 3.05159E+00 5.72914E+00 0.00000E+00
 -1       648 2.97417E+00 6.27174E+00 0.00000E+00
 -1       649 2.48593E+00 6.52081E+00 0.00000E+00
 -1       650 2.33616E+00 7.07151E+00 0.00000E+00
 -1       651 1.86371E+00 7.39165E+00 0.00000E+00
 -1       652 1.63435E+00 7.95126E+00 0.00000E+00
 -1       653 1.17926E+00 8.34957E+00 0.00000E+00
 -1       654 8.62367E-01 8.91898E+00 0.00000E+00
 -1       655 4.26363E-01 9.40328E+00 0.00000E+00
 -1       656 2.28996E-01 9.71294E+00 0.00000E+00
 -1       657 6.68004E+00 2.55842E+00 0.00000E+00
 -1       658 6.92381E+00 3.13535E+00 0.00000E+00
 -1       659 6.33531E+00 2.94246E+00 0.00000E+00
 -1       660 6.55099E+00 3.50499E+00 0.00000E+00
 -1       661 5.96853E+00 3.35105E+00 0.00000E+00
 -1       662 6.14088E+00 3.91159E+00 0.00000E+00
 -1       663 5.56507E+00 3.80051E+00 0.00000E+00
 -1       664 5.68977E+00 4.35884E+00 0.00000E+00
 -1       665 5.12126E+00 4.29491E+00 0.00000E+00
 -1       666 5.19355E+00 4.85083E+00 0.00000E+00
 -1       667 4.63308E+00 4.83875E+00 0.00000E+00
 -1       668 4.64770E+00 5.39201E+00 0.00000E+00
 -1       669 4.09607E+00 5.43697E+00 0.00000E+00
 -1       670 4.04727E+00 5.98731E+00 0.00000E+00
 -1       671 3.50537E+00 6.09501E+00 0.00000E+00
 -1       672 3.38680E+00 6.64214E+00 0.00000E+00
 -1       673 2.85559E+00 6.81886E+00 0.00000E+00
 -1       674 2.66028E+00 7.36246E+00 0.00000E+00
 -1       675 2.14084E+00 7.61510E+00 0.00000E+00
 -1       676 1.86110E+00 8.15480E+00 0.00000E+00
 -1       677 1.35461E+00 8.49096E+00 0.00000E+00
 -1       678 9.82010E-01 9.02638E+00 0.00000E+00
 -1       679 4.89764E-01 9.45440E+00 0.00000E+00
 -1       680 2.60767E-01 9.74146E+00 0.00000E+00
 -1       681 7.53628E+00 3.42699E+00 0.00000E+00
 -1       682 7.74198E+00 4.07342E+00 0.00000E+00
 -1       683 7.14487E+00 3.76838E+00 0.00000E+00
 -1       684 7.32510E+00 4.39255E+00 0.00000E+00
 -1       685 6.73122E+00 4.12916E+00 0.00000E+00
 -1       686 6.86654E+00 4.74358E+00 0.00000E+00
 -1       687 6.27620E+00 4.52601E+00 0.00000E+00
 -1       688 6.36212E+00 5.12972E+00 0.00000E+00
 -1       689 5.77569E+00 4.96255E+00 0.00000E+00
 -1       690 5.80726E+00 5.55447E+00 0.00000E+00
 -1       691 5.22512E+00 5.44275E+00 0.00000E+00
 -1       692 5.19691E+00 6.02170E+00 0.00000E+00
 -1       693 4.61949E+00 5.97096E+00 0.00000E+00
 -1       694 4.52553E+00 6.53565E+00 0.00000E+00
 -1       695 3.95330E+00 6.55200E+00 0.00000E+00
 -1       696 3.78701E+00 7.10100E+00 0.00000E+00
 -1       697 3.22050E+00 7.19114E+00 0.00000E+00
 -1       698 2.97463E+00 7.72288E+00 0.00000E+00
 -1       699 2.41441E+00 7.89420E+00 0.00000E+00
 -1       700 2.08102E+00 8.40695E+00 0.00000E+00
 -1       701 1.52771E+00 8.66756E+00 0.00000E+00
 -1       702 1.09805E+00 9.15943E+00 0.00000E+00
 -1       703 5.52348E-01 9.51825E+00 0.00000E+00
 -1       704 2.91581E-01 9.77679E+00 0.00000E+00
 -1       705 8.34694E+00 4.49286E+00 0.00000E+00
 -1       706 8.49454E+00 5.21406E+00 0.00000E+00
 -1       707 7.91010E+00 4.78108E+00 0.00000E+00
 -1       708 8.03715E+00 5.47177E+00 0.00000E+00
 -1       709 7.45215E+00 5.08323E+00 0.00000E+00
 -1       710 7.53401E+00 5.75524E+00 0.00000E+00
 -1       711 6.94840E+00 5.41559E+00 0.00000E+00
 -1       712 6.98056E+00 6.06706E+00 0.00000E+00
 -1       713 6.39427E+00 5.78119E+00 0.00000E+00
 -1       714 6.37176E+00 6.41007E+00 0.00000E+00
 -1       715 5.78474E+00 6.18335E+00 0.00000E+00
 -1       716 5.70208E+00 6.78737E+00 0.00000E+00
 -1       717 5.11425E+00 6.62572E+00 0.00000E+00
 -1       718 4.96544E+00 7.20241E+00 0.00000E+00
 -1       719 4.37671E+00 7.11234E+00 0.00000E+00
 -1       720 4.15513E+00 7.65895E+00 0.00000E+00
 -1       721 3.56542E+00 7.64761E+00 0.00000E+00
 -1       722 3.26379E+00 8.16114E+00 0.00000E+00
 -1       723 2.67300E+00 8.23641E+00 0.00000E+00
 -1       724 2.28331E+00 8.71355E+00 0.00000E+00
 -1       725 1.69134E+00 8.88409E+00 0.00000E+00
 -1       726 1.20479E+00 9.32121E+00 0.00000E+00
 -1       727 6.11506E-01 9.59654E+00 0.00000E+00
 -1       728 3.19925E-01 9.81975E+00 0.00000E+00
 -1       729 9.06411E+00 5.77603E+00 0.00000E+00
 -1       730 9.12811E+00 6.57361E+00 0.00000E+00
 -1       731 8.58539E+00 5.99912E+00 0.00000E+00
 -1       732 8.63659E+00 6.75811E+00 0.00000E+00
 -1       733 8.08834E+00 6.23075E+00 0.00000E+00
 -1       734 8.09593E+00 6.96105E+00 0.00000E+00
 -1       735 7.54159E+00 6.48554E+00 0.00000E+00
 -1       736 7.50120E+00 7.18430E+00 0.00000E+00
 -1       737 6.94016E+00 6.76582E+00 0.00000E+00
 -1       738 6.84699E+00 7.42986E+00 0.00000E+00
 -1       739 6.27859E+00 7.07411E+00 0.00000E+00
 -1       740 6.12737E+00 7.69999E+00 0.00000E+00
 -1       741 5.55086E+00 7.41324E+00 0.00000E+00
 -1       742 5.33578E+00 7.99712E+00 0.00000E+00
 -1       743 4.75036E+00 7.78629E+00 0.00000E+00
 -1       744 4.46503E+00 8.32397E+00 0.00000E+00
 -1       745 3.86980E+00 8.19663E+00 0.00000E+00
 -1       746 3.50721E+00 8.68351E+00 0.00000E+00
 -1       747 2.90120E+00 8.64801E+00 0.00000E+00
 -1       748 2.45361E+00 9.07899E+00 0.00000E+00
 -1       749 1.83573E+00 9.14453E+00 0.00000E+00
 -1       750 1.29465E+00 9.51403E+00 0.00000E+00
 -1       751 6.63711E-01 9.69070E+00 0.00000E+00
 -1       752 3.43786E-01 9.87095E+00 0.00000E+00
 -1       753 9.62565E+00 7.28950E+00 0.00000E+00
 -1       754 9.57477E+00 8.15982E+00 0.00000E+00
 -1       755 9.11166E+00 7.43424E+00 0.00000E+00
 -1       756 9.05921E+00 8.25891E+00 0.00000E+00
 -1       757 8.58414E+00 7.58278E+00 0.00000E+00
 -1       758 8.49209E+00 8.36790E+00 0.00000E+00
 -1       759 8.00387E+00 7.74618E+00 0.00000E+00
 -1       760 7.86825E+00 8.48780E+00 0.00000E+00
 -1       761 7.36558E+00 7.92592E+00 0.00000E+00
 -1       762 7.18204E+00 8.61968E+00 0.00000E+00
 -1       763 6.66345E+00 8.12363E+00 0.00000E+00
 -1       764 6.42720E+00 8.76476E+00 0.00000E+00
 -1       765 5.89111E+00 8.34111E+00 0.00000E+00
 -1       766 5.59688E+00 8.92434E+00 0.00000E+00
 -1       767 5.04154E+00 8.58035E+00 0.00000E+00
 -1       768 4.68352E+00 9.09987E+00 0.00000E+00
 -1       769 4.10701E+00 8.84350E+00 0.00000E+00
 -1       770 3.67883E+00 9.29296E+00 0.00000E+00
 -1       771 3.07903E+00 9.13297E+00 0.00000E+00
 -1       772 2.57367E+00 9.50537E+00 0.00000E+00
 -1       773 1.94825E+00 9.45139E+00 0.00000E+00
 -1       774 1.35800E+00 9.73901E+00 0.00000E+00
 -1       775 7.04395E-01 9.80165E+00 0.00000E+00
 -1       776 3.60609E-01 9.93069E+00 0.00000E+00
 -1       777 9.95497E+00 9.05205E+00 0.00000E+00
 -1       778 9.75000E+00 1.00000E+01 0.00000E+00
 -1       779 9.41463E+00 9.10350E+00 0.00000E+00
 -1       780 9.22500E+00 1.00000E+01 0.00000E+00
 -1       781 8.86957E+00 9.15541E+00 0.00000E+00
 -1       782 8.64750E+00 1.00000E+01 0.00000E+00
 -1       783 8.27001E+00 9.21250E+00 0.00000E+00
 -1       784 8.01225E+00 1.00000E+01 0.00000E+00
 -1       785 7.61049E+00 9.27530E+00 0.00000E+00
 -1       786 7.31348E+00 1.00000E+01 0.00000E+00
 -1       787 6.88502E+00 9.34438E+00 0.00000E+00
 -1       788 6.54482E+00 1.00000E+01 0.00000E+00
 -1       789 6.08700E+00 9.42037E+00 0.00000E+00
 -1       790 5.69930E+00 1.00000E+01 0.00000E+00
 -1       791 5.20918E+00 9.50396E+00 0.00000E+00
 -1       792 4.76924E+00 1.00000E+01 0.00000E+00
 -1       793 4.24358E+00 9.59591E+00 0.00000E+00
 -1       794 3.74616E+00 1.00000E+01 0.00000E+00
 -1       795 3.18141E+00 9.69705E+00 0.00000E+00
 -1       796 2.62077E+00 1.00000E+01 0.00000E+00
 -1       797 2.01303E+00 9.80831E+00 0.00000E+00
 -1       798 1.38285E+00 1.00000E+01 0.00000E+00
 -1       799 7.27817E-01 9.93069E+00 0.00000E+00
 -1       800 3.67208E-01 1.00000E+01 0.00000E+00
 -1       801 3.77025E+01 0.00000E+00 0.00000E+00
 -1       802 3.54050E+01-5.00000E-01 0.00000E+00
 -1       803 3.77025E+01-1.00000E+00 0.00000E+00
 -1       804 4.00000E+01-5.00000E-01 0.00000E+00
 -1       805 3.54050E+01-1.55000E+00 0.00000E+00
 -1       806 3.77025E+01-2.10000E+00 0.00000E+00
 -1       807 4.00000E+01-1.55000E+00 0.00000E+00
 -1       808 3.54050E+01-2.70500E+00 0.00000E+00
 -1       809 3.77025E+01-3.31000E+00 0.00000E+00
 -1       810 4.00000E+01-2.70500E+00 0.00000E+00
 -1       811 3.54050E+01-3.97550E+00 0.00000E+00
 -1       812 3.77025E+01-4.64100E+00 0.00000E+00
 -1       813 4.00000E+01-3.97550E+00 0.00000E+00
 -1       814 3.54050E+01-5.37305E+00 0.00000E+00
 -1       815 3.77025E+01-6.10510E+00 0.00000E+00
 -1       816 4.00000E+01-5.37305E+00 0.00000E+00
 -1       817 3.54050E+01-6.91036E+00 0.00000E+00
 -1       818 3.77025E+01-7.71561E+00 0.00000E+00
 -1       819 4.00000E+01-6.91036E+00 0.00000E+00
 -1       820 3.54050E+01-8.60139E+00 0.00000E+00
 -1       821 3.77025E+01-9.48717E+00 0.00000E+00
 -1       822 4.00000E+01-8.60139E+00 0.00000E+00
 -1       823 3.54050E+01-1.04615E+01 0.00000E+00
 -1       824 3.77025E+01-1.14359E+01 0.00000E+00
 -1       825 4.00000E+01-1.04615E+01 0.00000E+00
 -1       826 3.54050E+01-1.25077E+01 0.00000E+00
 -1       827 3.77025E+01-1.35795E+01 0.00000E+00
 -1       828 4.00000E+01-1.25077E+01 0.00000E+00
 -1       829 3.54050E+01-1.47585E+01 0.00000E+00
 -1       830 3.77025E+01-1.59374E+01 0.00000E+00
 -1       831 4.00000E+01-1.47585E+01 0.00000E+00
 -1       832 3.54050E+01-1.72343E+01 0.00000E+00
 -1       833 3.77025E+01-1.85312E+01 0.00000E+00
 -1       834 4.00000E+01-1.72343E+01 0.00000E+00
 -1       835 3.54050E+01-1.92656E+01 0.00000E+00
 -1       836 3.77025E+01-2.00000E+01 0.00000E+00
 -1       837 4.00000E+01-1.92656E+01 0.00000E+00
 -1       838 3.33662E+01 0.00000E+00 0.00000E+00
 -1       839 3.13274E+01-5.00000E-01 0.00000E+00
 -1       840 3.33662E+01-1.00000E+00 0.00000E+00
 -1       841 3.13274E+01-1.55000E+00 0.00000E+00
 -1       842 3.33662E+01-2.10000E+00 0.00000E+00
 -1       843 3.13274E+01-2.70500E+00 0.00000E+00
 -1       844 3.33662E+01-3.31000E+00 0.00000E+00
 -1       845 3.13274E+01-3.97550E+00 0.00000E+00
 -1       846 3.33662E+01-4.64100E+00 0.00000E+00
 -1       847 3.13274E+01-5.37305E+00 0.00000E+00
 -1       848 3.33662E+01-6.10510E+00 0.00000E+00
 -1       849 3.13274E+01-6.91036E+00 0.00000E+00
 -1       850 3.33662E+01-7.71561E+00 0.00000E+00
 -1       851 3.13274E+01-8.60139E+00 0.00000E+00
 -1       852 3.33662E+01-9.48717E+00 0.00000E+00
 -1       853 3.13274E+01-1.04615E+01 0.00000E+00
 -1       854 3.33662E+01-1.14359E+01 0.00000E+00
 -1       855 3.13274E+01-1.25077E+01 0.00000E+00
 -1       856 3.33662E+01-1.35795E+01 0.00000E+00
 -1       857 3.13274E+01-1.47585E+01 0.00000E+00
 -1       858 3.33662E+01-1.59374E+01 0.00000E+00
 -1       859 3.13274E+01-1.72343E+01 0.00000E+00
 -1       860 3.33662E+01-1.85312E+01 0.00000E+00
 -1       861 3.13274E+01-1.92656E+01 0.00000E+00
 -1       862 3.33662E+01-2.00000E+01 0.00000E+00
 -1       863 2.94724E+01 0.00000E+00 0.00000E+00
 -1       864 2.76174E+01-5.00000E-01 0.00000E+00
 -1       865 2.94724E+01-1.00000E+00 0.00000E+00
 -1       866 2.76174E+01-1.55000E+00 0.00000E+00
 -1       867 2.94724E+01-2.10000E+00 0.00000E+00
 -1       868 2.76174E+01-2.70500E+00 0.00000E+00
 -1       869 2.94724E+01-3.31000E+00 0.00000E+00
 -1       870 2.76174E+01-3.97550E+00 0.00000E+00
 -1       871 2.94724E+01-4.64100E+00 0.00000E+00
 -1       872 2.76174E+01-5.37305E+00 0.00000E+00
 -1       873 2.94724E+01-6.10510E+00 0.00000E+00
 -1       874 2.76174E+01-6.91036E+00 0.00000E+00
 -1       875 2.94724E+01-7.71561E+00 0.00000E+00
 -1       876 2.76174E+01-8.60139E+00 0.00000E+00
 -1       877 2.94724E+01-9.48717E+00 0.00000E+00
 -1       878 2.76174E+01-1.04615E+01 0.00000E+00
 -1       879 2.94724E+01-1.14359E+01 0.00000E+00
 -1       880 2.76174E+01-1.25077E+01 0.00000E+00
 -1       881 2.94724E+01-1.35795E+01 0.00000E+00
 -1       882 2.76174E+01-1.47585E+01 0.00000E+00
 -1       883 2.94724E+01-1.59374E+01 0.00000E+00
 -1       884 2.76174E+01-1.72343E+01 0.00000E+00
 -1       885 2.94724E+01-1.85312E+01 0.00000E+00
 -1       886 2.76174E+01-1.92656E+01 0.00000E+00
 -1       887 2.94724E+01-2.00000E+01 0.00000E+00
 -1       888 2.59270E+01 0.00000E+00 0.00000E+00
 -1       889 2.42365E+01-5.00000E-01 0.00000E+00
 -1       890 2.59270E+01-1.00000E+00 0.00000E+00
 -1       891 2.42365E+01-1.55000E+00 0.00000E+00
 -1       892 2.59270E+01-2.10000E+00 0.00000E+00
 -1       893 2.42365E+01-2.70500E+00 0.00000E+00
 -1       894 2.59270E+01-3.31000E+00 0.00000E+00
 -1       895 2.42365E+01-3.97550E+00 0.00000E+00
 -1       896 2.59270E+01-4.64100E+00 0.00000E+00
 -1       897 2.42365E+01-5.37305E+00 0.00000E+00
 -1       898 2.59270E+01-6.10510E+00 0.00000E+00
 -1       899 2.42365E+01-6.91036E+00 0.00000E+00
 -1       900 2.59270E+01-7.71561E+00 0.00000E+00
 -1       901 2.42365E+01-8.60139E+00 0.00000E+00
 -1       902 2.59270E+01-9.48717E+00 0.00000E+00
 -1       903 2.42365E+01-1.04615E+01 0.00000E+00
 -1       904 2.59270E+01-1.14359E+01 0.00000E+00
 -1       905 2.42365E+01-1.25077E+01 0.00000E+00
 -1       906 2.59270E+01-1.35795E+01 0.00000E+00
 -1       907 2.42365E+01-1.47585E+01 0.00000E+00
 -1       908 2.59270E+01-1.59374E+01 0.00000E+00
 -1       909 2.42365E+01-1.72343E+01 0.00000E+00
 -1       910 2.59270E+01-1.85312E+01 0.00000E+00
 -1       911 2.42365E+01-1.92656E+01 0.00000E+00
 -1       912 2.59270E+01-2.00000E+01 0.00000E+00
 -1       913 2.26963E+01 0.00000E+00 0.00000E+00
 -1       914 2.11562E+01-5.00000E-01 0.00000E+00
 -1       915 2.26963E+01-1.00000E+00 0.00000E+00
 -1       916 2.11562E+01-1.55000E+00 0.00000E+00
 -1       917 2.26963E+01-2.10000E+00 0.00000E+00
 -1       918 2.11562E+01-2.70500E+00 0.00000E+00
 -1       919 2.26963E+01-3.31000E+00 0.00000E+00
 -1       920 2.11562E+01-3.97550E+00 0.00000E+00
 -1       921 2.26963E+01-4.64100E+00 0.00000E+00
 -1       922 2.11562E+01-5.37305E+00 0.00000E+00
 -1       923 2.26963E+01-6.10510E+00 0.00000E+00
 -1       924 2.11562E+01-6.91036E+00 0.00000E+00
 -1       925 2.26963E+01-7.71561E+00 0.00000E+00
 -1       926 2.11562E+01-8.60139E+00 0.00000E+00
 -1       927 2.26963E+01-9.48717E+00 0.00000E+00
 -1       928 2.11562E+01-1.04615E+01 0.00000E+00
 -1       929 2.26963E+01-1.14359E+01 0.00000E+00
 -1       930 2.11562E+01-1.25077E+01 0.00000E+00
 -1       931 2.26963E+01-1.35795E+01 0.00000E+00
 -1       932 2.11562E+01-1.47585E+01 0.00000E+00
 -1       933 2.26963E+01-1.59374E+01 0.00000E+00
 -1       934 2.11562E+01-1.72343E+01 0.00000E+00
 -1       935 2.26963E+01-1.85312E+01 0.00000E+00
 -1       936 2.11562E+01-1.92656E+01 0.00000E+00
 -1       937 2.26963E+01-2.00000E+01 0.00000E+00
 -1       938 1.97533E+01 0.00000E+00 0.00000E+00
 -1       939 1.83504E+01-5.00000E-01 0.00000E+00
 -1       940 1.97533E+01-1.00000E+00 0.00000E+00
 -1       941 1.83504E+01-1.55000E+00 0.00000E+00
 -1       942 1.97533E+01-2.10000E+00 0.00000E+00
 -1       943 1.83504E+01-2.70500E+00 0.00000E+00
 -1       944 1.97533E+01-3.31000E+00 0.00000E+00
 -1       945 1.83504E+01-3.97550E+00 0.00000E+00
 -1       946 1.97533E+01-4.64100E+00 0.00000E+00
 -1       947 1.83504E+01-5.37305E+00 0.00000E+00
 -1       948 1.97533E+01-6.10510E+00 0.00000E+00
 -1       949 1.83504E+01-6.91036E+00 0.00000E+00
 -1       950 1.97533E+01-7.71561E+00 0.00000E+00
 -1       951 1.83504E+01-8.60139E+00 0.00000E+00
 -1       952 1.97533E+01-9.48717E+00 0.00000E+00
 -1       953 1.83504E+01-1.04615E+01 0.00000E+00
 -1       954 1.97533E+01-1.14359E+01 0.00000E+00
 -1       955 1.83504E+01-1.25077E+01 0.00000E+00
 -1       956 1.97533E+01-1.35795E+01 0.00000E+00
 -1       957 1.83504E+01-1.47585E+01 0.00000E+00
 -1       958 1.97533E+01-1.59374E+01 0.00000E+00
 -1       959 1.83504E+01-1.72343E+01 0.00000E+00
 -1       960 1.97533E+01-1.85312E+01 0.00000E+00
 -1       961 1.83504E+01-1.92656E+01 0.00000E+00
 -1       962 1.97533E+01-2.00000E+01 0.00000E+00
 -1       963 1.70727E+01 0.00000E+00 0.00000E+00
 -1       964 1.57950E+01-5.00000E-01 0.00000E+00
 -1       965 1.70727E+01-1.00000E+00 0.00000E+00
 -1       966 1.57950E+01-1.55000E+00 0.00000E+00
 -1       967 1.70727E+01-2.10000E+00 0.00000E+00
 -1       968 1.57950E+01-2.70500E+00 0.00000E+00
 -1       969 1.70727E+01-3.31000E+00 0.00000E+00
 -1       970 1.57950E+01-3.97550E+00 0.00000E+00
 -1       971 1.70727E+01-4.64100E+00 0.00000E+00
 -1       972 1.57950E+01-5.37305E+00 0.00000E+00
 -1       973 1.70727E+01-6.10510E+00 0.00000E+00
 -1       974 1.57950E+01-6.91036E+00 0.00000E+00
 -1       975 1.70727E+01-7.71561E+00 0.00000E+00
 -1       976 1.57950E+01-8.60139E+00 0.00000E+00
 -1       977 1.70727E+01-9.48717E+00 0.00000E+00
 -1       978 1.57950E+01-1.04615E+01 0.00000E+00
 -1       979 1.70727E+01-1.14359E+01 0.00000E+00
 -1       980 1.57950E+01-1.25077E+01 0.00000E+00
 -1       981 1.70727E+01-1.35795E+01 0.00000E+00
 -1       982 1.57950E+01-1.47585E+01 0.00000E+00
 -1       983 1.70727E+01-1.59374E+01 0.00000E+00
 -1       984 1.57950E+01-1.72343E+01 0.00000E+00
 -1       985 1.70727E+01-1.85312E+01 0.00000E+00
 -1       986 1.57950E+01-1.92656E+01 0.00000E+00
 -1       987 1.70727E+01-2.00000E+01 0.00000E+00
 -1       988 1.46315E+01 0.00000E+00 0.00000E+00
 -1       989 1.34681E+01-5.00000E-01 0.00000E+00
 -1       990 1.46315E+01-1.00000E+00 0.00000E+00
 -1       991 1.34681E+01-1.55000E+00 0.00000E+00
 -1       992 1.46315E+01-2.10000E+00 0.00000E+00
 -1       993 1.34681E+01-2.70500E+00 0.00000E+00
 -1       994 1.46315E+01-3.31000E+00 0.00000E+00
 -1       995 1.34681E+01-3.97550E+00 0.00000E+00
 -1       996 1.46315E+01-4.64100E+00 0.00000E+00
 -1       997 1.34681E+01-5.37305E+00 0.00000E+00
 -1       998 1.46315E+01-6.10510E+00 0.00000E+00
 -1       999 1.34681E+01-6.91036E+00 0.00000E+00
 -1      1000 1.46315E+01-7.71561E+00 0.00000E+00
 -1      1001 1.34681E+01-8.60139E+00 0.00000E+00
 -1      1002 1.46315E+01-9.48717E+00 0.00000E+00
 -1      1003 1.34681E+01-1.04615E+01 0.00000E+00
 -1      1004 1.46315E+01-1.14359E+01 0.00000E+00
 -1      1005 1.34681E+01-1.25077E+01 0.00000E+00
 -1      1006 1.46315E+01-1.35795E+01 0.00000E+00
 -1      1007 1.34681E+01-1.47585E+01 0.00000E+00
 -1      1008 1.46315E+01-1.59374E+01 0.00000E+00
 -1      1009 1.34681E+01-1.72343E+01 0.00000E+00
 -1      1010 1.46315E+01-1.85312E+01 0.00000E+00
 -1      1011 1.34681E+01-1.92656E+01 0.00000E+00
 -1      1012 1.46315E+01-2.00000E+01 0.00000E+00
 -1      1013 1.24089E+01 0.00000E+00 0.00000E+00
 -1      1014 1.13496E+01-5.00000E-01 0.00000E+00
 -1      1015 1.24089E+01-1.00000E+00 0.00000E+00
 -1      1016 1.13496E+01-1.55000E+00 0.00000E+00
 -1      1017 1.24089E+01-2.10000E+00 0.00000E+00
 -1      1018 1.13496E+01-2.70500E+00 0.00000E+00
 -1      1019 1.24089E+01-3.31000E+00 0.00000E+00
 -1      1020 1.13496E+01-3.97550E+00 0.00000E+00
 -1      1021 1.24089E+01-4.64100E+00 0.00000E+00
 -1      1022 1.13496E+01-5.37305E+00 0.00000E+00
 -1      1023 1.24089E+01-6.10510E+00 0.00000E+00
 -1      1024 1.13496E+01-6.91036E+00 0.00000E+00
 -1      1025 1.24089E+01-7.71561E+00 0.00000E+00
 -1      1026 1.13496E+01-8.60139E+00 0.00000E+00
 -1      1027 1.24089E+01-9.48717E+00 0.00000E+00
 -1      1028 1.13496E+01-1.04615E+01 0.00000E+00
 -1      1029 1.24089E+01-1.14359E+01 0.00000E+00
 -1      1030 1.13496E+01-1.25077E+01 0.00000E+00
 -1      1031 1.24089E+01-1.35795E+01 0.00000E+00
 -1      1032 1.13496E+01-1.47585E+01 0.00000E+00
 -1      1033 1.24089E+01-1.59374E+01 0.00000E+00
 -1      1034 1.13496E+01-1.72343E+01 0.00000E+00
 -1      1035 1.24089E+01-1.85312E+01 0.00000E+00
 -1      1036 1.13496E+01-1.92656E+01 0.00000E+00
 -1      1037 1.24089E+01-2.00000E+01 0.00000E+00
 -1      1038 1.03854E+01 0.00000E+00 0.00000E+00
 -1      1039 9.42113E+00-5.00000E-01 0.00000E+00
 -1      1040 1.03854E+01-1.00000E+00 0.00000E+00
 -1      1041 9.42113E+00-1.55000E+00 0.00000E+00
 -1      1042 1.03854E+01-2.10000E+00 0.00000E+00
 -1      1043 9.42113E+00-2.70500E+00 0.00000E+00
 -1      1044 1.03854E+01-3.31000E+00 0.00000E+00
 -1      1045 9.42113E+00-3.97550E+00 0.00000E+00
 -1      1046 1.03854E+01-4.64100E+00 0.00000E+00
 -1      1047 9.42113E+00-5.37305E+00 0.00000E+00
 -1      1048 1.03854E+01-6.10510E+00 0.00000E+00
 -1      1049 9.42113E+00-6.91036E+00 0.00000E+00
 -1      1050 1.03854E+01-7.71561E+00 0.00000E+00
 -1      1051 9.42113E+00-8.60139E+00 0.00000E+00
 -1      1052 1.03854E+01-9.48717E+00 0.00000E+00
 -1      1053 9.42113E+00-1.04615E+01 0.00000E+00
 -1      1054 1.03854E+01-1.14359E+01 0.00000E+00
 -1      1055 9.42113E+00-1.25077E+01 0.00000E+00
 -1      1056 1.03854E+01-1.35795E+01 0.00000E+00
 -1      1057 9.42113E+00-1.47585E+01 0.00000E+00
 -1      1058 1.03854E+01-1.59374E+01 0.00000E+00
 -1      1059 9.42113E+00-1.72343E+01 0.00000E+00
 -1      1060 1.03854E+01-1.85312E+01 0.00000E+00
 -1      1061 9.42113E+00-1.92656E+01 0.00000E+00
 -1      1062 1.03854E+01-2.00000E+01 0.00000E+00
 -1      1063 8.54346E+00 0.00000E+00 0.00000E+00
 -1      1064 7.66580E+00-5.00000E-01 0.00000E+00
 -1      1065 8.54346E+00-1.00000E+00 0.00000E+00
 -1      1066 7.66580E+00-1.55000E+00 0.00000E+00
 -1      1067 8.54346E+00-2.10000E+00 0.00000E+00
 -1      1068 7.66580E+00-2.70500E+00 0.00000E+00
 -1      1069 8.54346E+00-3.31000E+00 0.00000E+00
 -1      1070 7.66580E+00-3.97550E+00 0.00000E+00
 -1      1071 8.54346E+00-4.64100E+00 0.00000E+00
 -1      1072 7.66580E+00-5.37305E+00 0.00000E+00
 -1      1073 8.54346E+00-6.10510E+00 0.00000E+00
 -1      1074 7.66580E+00-6.91036E+00 0.00000E+00
 -1      1075 8.54346E+00-7.71561E+00 0.00000E+00
 -1      1076 7.66580E+00-8.60139E+00 0.00000E+00
 -1      1077 8.54346E+00-9.48717E+00 0.00000E+00
 -1      1078 7.66580E+00-1.04615E+01 0.00000E+00
 -1      1079 8.54346E+00-1.14359E+01 0.00000E+00
 -1      1080 7.66580E+00-1.25077E+01 0.00000E+00
 -1      1081 8.54346E+00-1.35795E+01 0.00000E+00
 -1      1082 7.66580E+00-1.47585E+01 0.00000E+00
 -1      1083 8.54346E+00-1.59374E+01 0.00000E+00
 -1      1084 7.66580E+00-1.72343E+01 0.00000E+00
 -1      1085 8.54346E+00-1.85312E+01 0.00000E+00
 -1      1086 7.66580E+00-1.92656E+01 0.00000E+00
 -1      1087 8.54346E+00-2.00000E+01 0.00000E+00
 -1      1088 6.86704E+00 0.00000E+00 0.00000E+00
 -1      1089 6.06827E+00-5.00000E-01 0.00000E+00
 -1      1090 6.86704E+00-1.00000E+00 0.00000E+00
 -1      1091 6.06827E+00-1.55000E+00 0.00000E+00
 -1      1092 6.86704E+00-2.10000E+00 0.00000E+00
 -1      1093 6.06827E+00-2.70500E+00 0.00000E+00
 -1      1094 6.86704E+00-3.31000E+00 0.00000E+00
 -1      1095 6.06827E+00-3.97550E+00 0.00000E+00
 -1      1096 6.86704E+00-4.64100E+00 0.00000E+00
 -1      1097 6.06827E+00-5.37305E+00 0.00000E+00
 -1      1098 6.86704E+00-6.10510E+00 0.00000E+00
 -1      1099 6.06827E+00-6.91036E+00 0.00000E+00
 -1      1100 6.86704E+00-7.71561E+00 0.00000E+00
 -1      1101 6.06827E+00-8.60139E+00 0.00000E+00
 -1      1102 6.86704E+00-9.48717E+00 0.00000E+00
 -1      1103 6.06827E+00-1.04615E+01 0.00000E+00
 -1      1104 6.86704E+00-1.14359E+01 0.00000E+00
 -1      1105 6.06827E+00-1.25077E+01 0.00000E+00
 -1      1106 6.86704E+00-1.35795E+01 0.00000E+00
 -1      1107 6.06827E+00-1.47585E+01 0.00000E+00
 -1      1108 6.86704E+00-1.59374E+01 0.00000E+00
 -1      1109 6.06827E+00-1.72343E+01 0.00000E+00
 -1      1110 6.86704E+00-1.85312E+01 0.00000E+00
 -1      1111 6.06827E+00-1.92656E+01 0.00000E+00
 -1      1112 6.86704E+00-2.00000E+01 0.00000E+00
 -1      1113 5.34139E+00 0.00000E+00 0.00000E+00
 -1      1114 4.61451E+00-5.00000E-01 0.00000E+00
 -1      1115 5.34139E+00-1.00000E+00 0.00000E+00
 -1      1116 4.61451E+00-1.55000E+00 0.00000E+00
 -1      1117 5.34139E+00-2.10000E+00 0.00000E+00
 -1      1118 4.61451E+00-2.70500E+00 0.00000E+00
 -1      1119 5.34139E+00-3.31000E+00 0.00000E+00
 -1      1120 4.61451E+00-3.97550E+00 0.00000E+00
 -1      1121 5.34139E+00-4.64100E+00 0.00000E+00
 -1      1122 4.61451E+00-5.37305E+00 0.00000E+00
 -1      1123 5.34139E+00-6.10510E+00 0.00000E+00
 -1      1124 4.61451E+00-6.91036E+00 0.00000E+00
 -1      1125 5.34139E+00-7.71561E+00 0.00000E+00
 -1      1126 4.61451E+00-8.60139E+00 0.00000E+00
 -1      1127 5.34139E+00-9.48717E+00 0.00000E+00
 -1      1128 4.61451E+00-1.04615E+01 0.00000E+00
 -1      1129 5.34139E+00-1.14359E+01 0.00000E+00
 -1      1130 4.61451E+00-1.25077E+01 0.00000E+00
 -1      1131 5.34139E+00-1.35795E+01 0.00000E+00
 -1      1132 4.61451E+00-1.47585E+01 0.00000E+00
 -1      1133 5.34139E+00-1.59374E+01 0.00000E+00
 -1      1134 4.61451E+00-1.72343E+01 0.00000E+00
 -1      1135 5.34139E+00-1.85312E+01 0.00000E+00
 -1      1136 4.61451E+00-1.92656E+01 0.00000E+00
 -1      1137 5.34139E+00-2.00000E+01 0.00000E+00
 -1      1138 3.95310E+00 0.00000E+00 0.00000E+00
 -1      1139 3.29169E+00-5.00000E-01 0.00000E+00
 -1      1140 3.95310E+00-1.00000E+00 0.00000E+00
 -1      1141 3.29169E+00-1.55000E+00 0.00000E+00
 -1      1142 3.95310E+00-2.10000E+00 0.00000E+00
 -1      1143 3.29169E+00-2.70500E+00 0.00000E+00
 -1      1144 3.95310E+00-3.31000E+00 0.00000E+00
 -1      1145 3.29169E+00-3.97550E+00 0.00000E+00
 -1      1146 3.95310E+00-4.64100E+00 0.00000E+00
 -1      1147 3.29169E+00-5.37305E+00 0.00000E+00
 -1      1148 3.95310E+00-6.10510E+00 0.00000E+00
 -1      1149 3.29169E+00-6.91036E+00 0.00000E+00
 -1      1150 3.95310E+00-7.71561E+00 0.00000E+00
 -1      1151 3.29169E+00-8.60139E+00 0.00000E+00
 -1      1152 3.95310E+00-9.48717E+00 0.00000E+00
 -1      1153 3.29169E+00-1.04615E+01 0.00000E+00
 -1      1154 3.95310E+00-1.14359E+01 0.00000E+00
 -1      1155 3.29169E+00-1.25077E+01 0.00000E+00
 -1      1156 3.95310E+00-1.35795E+01 0.00000E+00
 -1      1157 3.29169E+00-1.47585E+01 0.00000E+00
 -1      1158 3.95310E+00-1.59374E+01 0.00000E+00
 -1      1159 3.29169E+00-1.72343E+01 0.00000E+00
 -1      1160 3.95310E+00-1.85312E+01 0.00000E+00
 -1      1161 3.29169E+00-1.92656E+01 0.00000E+00
 -1      1162 3.95310E+00-2.00000E+01 0.00000E+00
 -1      1163 2.68991E+00 0.00000E+00 0.00000E+00
 -1      1164 2.08813E+00-5.00000E-01 0.00000E+00
 -1      1165 2.68991E+00-1.00000E+00 0.00000E+00
 -1      1166 2.08813E+00-1.55000E+00 0.00000E+00
 -1      1167 2.68991E+00-2.10000E+00 0.00000E+00
 -1      1168 2.08813E+00-2.70500E+00 0.00000E+00
 -1      1169 2.68991E+00-3.31000E+00 0.00000E+00
 -1      1170 2.08813E+00-3.97550E+00 0.00000E+00
 -1      1171 2.68991E+00-4.64100E+00 0.00000E+00
 -1      1172 2.08813E+00-5.37305E+00 0.00000E+00
 -1      1173 2.68991E+00-6.10510E+00 0.00000E+00
 -1      1174 2.08813E+00-6.91036E+00 0.00000E+00
 -1      1175 2.68991E+00-7.71561E+00 0.00000E+00
 -1      1176 2.08813E+00-8.60139E+00 0.00000E+00
 -1      1177 2.68991E+00-9.48717E+00 0.00000E+00
 -1      1178 2.08813E+00-1.04615E+01 0.00000E+00
 -1      1179 2.68991E+00-1.14359E+01 0.00000E+00
 -1      1180 2.08813E+00-1.25077E+01 0.00000E+00
 -1      1181 2.68991E+00-1.35795E+01 0.00000E+00
 -1      1182 2.08813E+00-1.47585E+01 0.00000E+00
 -1      1183 2.68991E+00-1.59374E+01 0.00000E+00
 -1      1184 2.08813E+00-1.72343E+01 0.00000E+00
 -1      1185 2.68991E+00-1.85312E+01 0.00000E+00
 -1      1186 2.08813E+00-1.92656E+01 0.00000E+00
 -1      1187 2.68991E+00-2.00000E+01 0.00000E+00
 -1      1188 1.54407E+00 0.00000E+00 0.00000E+00
 -1      1189 1.00000E+00-5.00000E-01 0.00000E+00
 -1      1190 1.54407E+00-1.00000E+00 0.00000E+00
 -1      1191 1.00000E+00-1.55000E+00 0.00000E+00
 -1      1192 1.54407E+00-2.10000E+00 0.00000E+00
 -1      1193 1.00000E+00-2.70500E+00 0.00000E+00
 -1      1194 1.54407E+00-3.31000E+00 0.00000E+00
 -1      1195 1.00000E+00-3.97550E+00 0.00000E+00
 -1      1196 1.54407E+00-4.64100E+00 0.00000E+00
 -1      1197 1.00000E+00-5.37305E+00 0.00000E+00
 -1      1198 1.54407E+00-6.10510E+00 0.00000E+00
 -1      1199 1.00000E+00-6.91036E+00 0.00000E+00
 -1      1200 1.54407E+00-7.71561E+00 0.00000E+00
 -1      1201 1.00000E+00-8.60139E+00 0.00000E+00
 -1      1202 1.54407E+00-9.48717E+00 0.00000E+00
 -1      1203 1.00000E+00-1.04615E+01 0.00000E+00
 -1      1204 1.54407E+00-1.14359E+01 0.00000E+00
 -1      1205 1.00000E+00-1.25077E+01 0.00000E+00
 -1      1206 1.54407E+00-1.35795E+01 0.00000E+00
 -1      1207 1.00000E+00-1.47585E+01 0.00000E+00
 -1      1208 1.54407E+00-1.59374E+01 0.00000E+00
 -1      1209 1.00000E+00-1.72343E+01 0.00000E+00
 -1      1210 1.54407E+00-1.85312E+01 0.00000E+00
 -1      1211 1.00000E+00-1.92656E+01 0.00000E+00
 -1      1212 1.54407E+00-2.00000E+01 0.00000E+00
 -1      1213 5.00000E-01 0.00000E+00 0.00000E+00
 -1      1214 0.00000E+00-5.00000E-01 0.00000E+00
 -1      1215 5.00000E-01-1.00000E+00 0.00000E+00
 -1      1216 0.00000E+00-1.55000E+00 0.00000E+00
 -1      1217 5.00000E-01-2.10000E+00 0.00000E+00
 -1      1218 0.00000E+00-2.70500E+00 0.00000E+00
 -1      1219 5.00000E-01-3.31000E+00 0.00000E+00
 -1      1220 0.00000E+00-3.97550E+00 0.00000E+00
 -1      1221 5.00000E-01-4.64100E+00 0.00000E+00
 -1      1222 0.00000E+00-5.37305E+00 0.00000E+00
 -1      1223 5.00000E-01-6.10510E+00 0.00000E+00
 -1      1224 0.00000E+00-6.91036E+00 0.00000E+00
 -1      1225 5.00000E-01-7.71561E+00 0.00000E+00
 -1      1226 0.00000E+00-8.60139E+00 0.00000E+00
 -1      1227 5.00000E-01-9.48717E+00 0.00000E+00
 -1      1228 0.00000E+00-1.04615E+01 0.00000E+00
 -1      1229 5.00000E-01-1.14359E+01 0.00000E+00
 -1      1230 0.00000E+00-1.25077E+01 0.00000E+00
 -1      1231 5.00000E-01-1.35795E+01 0.00000E+00
 -1      1232 0.00000E+00-1.47585E+01 0.00000E+00
 -1      1233 5.00000E-01-1.59374E+01 0.00000E+00
 -1      1234 0.00000E+00-1.72343E+01 0.00000E+00
 -1      1235 5.00000E-01-1.85312E+01 0.00000E+00
 -1      1236 0.00000E+00-1.92656E+01 0.00000E+00
 -1      1237 5.00000E-01-2.00000E+01 0.00000E+00
 -3
    3C                           384                                     1
 -1         1   10    0    1
 -2         1         3        40        29       429       430       431       432
 -1         2   10    0    1
 -2        29        40        41        30       431       433       434       435
 -1         3   10    0    1
 -2        30        41        42        31       434       436       437       438
 -1         4   10    0    1
 -2        31        42        43        32       437       439       440       441
 -1         5   10    0    1
 -2        32        43        44        33       440       442       443       444
 -1         6   10    0    1
 -2        33        44        45        34       443       445       446       447
 -1         7   10    0    1
 -2        34        45        46        35       446       448       449       450
 -1         8   10    0    1
 -2        35        46        47        36       449       451       452       453
 -1         9   10    0    1
 -2        36        47        48        37       452       454       455       456
 -1        10   10    0    1
 -2        37        48        49        38       455       457       458       459
 -1        11   10    0    1
 -2        38        49        50        39       458       460       461       462
 -1        12    8    0    1
 -2        39        50        28       461       463       464
 -1        13   10    0    1
 -2         3         4        51        40       465       466       467       430
 -1        14   10    0    1
 -2        40        51        52        41       467       468       469       433
 -1        15   10    0    1
 -2        41        52        53        42       469       470       471       436
 -1        16   10    0    1
 -2        42        53        54        43       471       472       473       439
 -1        17   10    0    1
 -2        43        54        55        44       473       474       475       442
 -1        18   10    0    1
 -2        44        55        56        45       475       476       477       445
 -1        19   10    0    1
 -2        45        56        57        46       477       478       479       448
 -1        20   10    0    1
 -2        46        57        58        47       479       480       481       451
 -1        21   10    0    1
 -2        47        58        59        48       481       482       483       454
 -1        22   10    0    1
 -2        48        59        60        49       483       484       485       457
 -1        23   10    0    1
 -2        49        60        61        50       485       486       487       460
 -1        24    8    0    1
 -2        50        61        28       487       488       463
 -1        25   10    0    1
 -2         4         5        62        51       489       490       491       466
 -1        26   10    0    1
 -2        51        62        63        52       491       492       493       468
 -1        27   10    0    1
 -2        52        63        64        53       493       494       495       470
 -1        28   10    0    1
 -2        53        64        65        54       495       496       497       472
 -1        29   10    0    1
 -2        54        65        66        55       497       498       499       474
 -1        30   10    0    1
 -2        55        66        67        56       499       500       501       476
 -1        31   10    0    1
 -2        56        67        68        57       501       502       503       478
 -1        32   10    0    1
 -2        57        68        69        58       503       504       505       480
 -1        33   10    0    1
 -2        58        69        70        59       505       506       507       482
 -1        34   10    0    1
 -2        59        70        71        60       507       508       509       484
 -1        35   10    0    1
 -2        60        71        72        61       509       510       511       486
 -1        36    8    0    1
 -2        61        72        28       511       512       488
 -1        37   10    0    1
 -2         5         6        73        62       513       514       515       490
 -1        38   10    0    1
 -2        62        73        74        63       515       516       517       492
 -1        39   10    0    1
 -2        63        74        75        64       517       518       519       494
 -1        40   10    0    1
 -2        64        75        76        65       519       520       521       496
 -1        41   10    0    1
 -2        65        76        77        66       521       522       523       498
 -1        42   10    0    1
 -2        66        77        78        67       523       524       525       500
 -1        43   10    0    1
 -2        67        78        79        68       525       526       527       502
 -1        44   10    0    1
 -2        68        79        80        69       527       528       529       504
 -1        45   10    0    1
 -2        69        80        81        70       529       530       531       506
 -1        46   10    0    1
 -2        70        81        82        71       531       532       533       508
 -1        47   10    0    1
 -2        71        82        83        72       533       534       535       510
 -1        48    8    0    1
 -2        72        83        28       535       536       512
 -1        49   10    0    1
 -2         6         7        84        73       537       538       539       514
 -1        50   10    0    1
 -2        73        84        85        74       539       540       541       516
 -1        51   10    0    1
 -2        74        85        86        75       541       542       543       518
 -1        52   10    0    1
 -2        75        86        87        76       543       544       545       520
 -1        53   10    0    1
 -2        76        87        88        77       545       546       547       522
 -1        54   10    0    1
 -2        77        88        89        78       547       548       549       524
 -1        55   10    0    1
 -2        78        89        90        79       549       550       551       526
 -1        56   10    0    1
 -2        79        90        91        80       551       552       553       528
 -1        57   10    0    1
 -2        80        91        92        81       553       554       555       530
 -1        58   10    0    1
 -2        81        92        93        82       555       556       557       532
 -1        59   10    0    1
 -2        82        93        94        83       557       558       559       534
 -1        60    8    0    1
 -2        83        94        28       559       560       536
 -1        61   10    0    1
 -2         7         8        95        84       561       562       563       538
 -1        62   10    0    1
 -2        84        95        96        85       563       564       565       540
 -1        63   10    0    1
 -2        85        96        97        86       565       566       567       542
 -1        64   10    0    1
 -2        86        97        98        87       567       568       569       544
 -1        65   10    0    1
 -2        87        98        99        88       569       570       571       546
 -1        66   10    0    1
 -2        88        99       100        89       571       572       573       548
 -1        67   10    0    1
 -2        89       100       101        90       573       574       575       550
 -1        68   10    0    1
 -2        90       101       102        91       575       576       577       552
 -1        69   10    0    1
 -2        91       102       103        92       577       578       579       554
 -1        70   10    0    1
 -2        92       103       104        93       579       580       581       556
 -1        71   10    0    1
 -2        93       104       105        94       581       582       583       558
 -1        72    8    0    1
 -2        94       105        28       583       584       560
 -1        73   10    0    1
 -2         8         9       106        95       585       586       587       562
 -1        74   10    0    1
 -2        95       106       107        96       587       588       589       564
 -1        75   10    0    1
 -2        96       107       108        97       589       590       591       566
 -1        76   10    0    1
 -2        97       108       109        98       591       592       593       568
 -1        77   10    0    1
 -2        98       109       110        99       593       594       595       570
 -1        78   10    0    1
 -2        99       110       111       100       595       596       597       572
 -1        79   10    0    1
 -2       100       111       112       101       597       598       599       574
 -1        80   10    0    1
 -2       101       112       113       102       599       600       601       576
 -1        81   10    0    1
 -2       102       113       114       103       601       602       603       578
 -1        82   10    0    1
 -2       103       114       115       104       603       604       605       580
 -1        83   10    0    1
 -2       104       115       116       105       605       606       607       582
 -1        84    8    0    1
 -2       105       116        28       607       608       584
 -1        85   10    0    1
 -2         9        10       117       106       609       610       611       586
 -1        86   10    0    1
 -2       106       117       118       107       611       612       613       588
 -1        87   10    0    1
 -2       107       118       119       108       613       614       615       590
 -1        88   10    0    1
 -2       108       119       120       109       615       616       617       592
 -1        89   10    0    1
 -2       109       120       121       110       617       618       619       594
 -1        90   10    0    1
 -2       110       121       122       111       619       620       621       596
 -1        91   10    0    1
 -2       111       122       123       112       621       622       623       598
 -1        92   10    0    1
 -2       112       123       124       113       623       624       625       600
 -1        93   10    0    1
 -2       113       124       125       114       625       626       627       602
 -1        94   10    0    1
 -2       114       125       126       115       627       628       629       604
 -1        95   10    0    1
 -2       115       126       127       116       629       630       631       606
 -1        96    8    0    1
 -2       116       127        28       631       632       608
 -1        97   10    0    1
 -2        10        11       128       117       633       634       635       610
 -1        98   10    0    1
 -2       117       128       129       118       635       636       637       612
 -1        99   10    0    1
 -2       118       129       130       119       637       638       639       614
 -1       100   10    0    1
 -2       119       130       131       120       639       640       641       616
 -1       101   10    0    1
 -2       120       131       132       121       641       642       643       618
 -1       102   10    0    1
 -2       121       132       133       122       643       644       645       620
 -1       103   10    0    1
 -2       122       133       134       123       645       646       647       622
 -1       104   10    0    1
 -2       123       134       135       124       647       648       649       624
 -1       105   10    0    1
 -2       124       135       136       125       649       650       651       626
 -1       106   10    0    1
 -2       125       136       137       126       651       652       653       628
 -1       107   10    0    1
 -2       126       137       138       127       653       654       655       630
 -1       108    8    0    1
 -2       127       138        28       655       656       632
 -1       109   10    0    1
 -2        11        12       139       128       657       658       659       634
 -1       110   10    0    1
 -2       128       139       140       129       659       660       661       636
 -1       111   10    0    1
 -2       129       140       141       130       661       662       663       638
 -1       112   10    0    1
 -2       130       141       142       131       663       664       665       640
 -1       113   10    0    1
 -2       131       142       143       132       665       666       667       642
 -1       114   10    0    1
 -2       132       143       144       133       667       668       669       644
 -1       115   10    0    1
 -2       133       144       145       134       669       670       671       646
 -1       116   10    0    1
 -2       134       145       146       135       671       672       673       648
 -1       117   10    0    1
 -2       135       146       147       136       673       674       675       650
 -1       118   10    0    1
 -2       136       147       148       137       675       676       677       652
 -1       119   10    0    1
 -2       137       148       149       138       677       678       679       654
 -1       120    8    0    1
 -2       138       149        28       679       680       656
 -1       121   10    0    1
 -2        12        13       150       139       681       682       683       658
 -1       122   10    0    1
 -2       139       150       151       140       683       684       685       660
 -1       123   10    0    1
 -2       140       151       152       141       685       686       687       662
 -1       124   10    0    1
 -2       141       152       153       142       687       688       689       664
 -1       125   10    0    1
 -2       142       153       154       143       689       690       691       666
 -1       126   10    0    1
 -2       143       154       155       144       691       692       693       668
 -1       127   10    0    1
 -2       144       155       156       145       693       694       695       670
 -1       128   10    0    1
 -2       145       156       157       146       695       696       697       672
 -1       129   10    0    1
 -2       146       157       158       147       697       698       699       674
 -1       130   10    0    1
 -2       147       158       159       148       699       700       701       676
 -1       131   10    0    1
 -2       148       159       160       149       701       702       703       678
 -1       132    8    0    1
 -2       149       160        28       703       704       680
 -1       133   10    0    1
 -2        13        14       161       150       705       706       707       682
 -1       134   10    0    1
 -2       150       161       162       151       707       708       709       684
 -1       135   10    0    1
 -2       151       162       163       152       709       710       711       686
 -1       136   10    0    1
 -2       152       163       164       153       711       712       713       688
 -1       137   10    0    1
 -2       153       164       165       154       713       714       715       690
 -1       138   10    0    1
 -2       154       165       166       155       715       716       717       692
 -1       139   10    0    1
 -2       155       166       167       156       717       718       719       694
 -1       140   10    0    1
 -2       156       167       168       157       719       720       721       696
 -1       141   10    0    1
 -2       157       168       169       158       721       722       723       698
 -1       142   10    0    1
 -2       158       169       170       159       723       724       725       700
 -1       143   10    0    1
 -2       159       170       171       160       725       726       727       702
 -1       144    8    0    1
 -2       160       171        28       727       728       704
 -1       145   10    0    1
 -2        14        15       172       161       729       730       731       706
 -1       146   10    0    1
 -2       161       172       173       162       731       732       733       708
 -1       147   10    0    1
 -2       162       173       174       163       733       734       735       710
 -1       148   10    0    1
 -2       163       174       175       164       735       736       737       712
 -1       149   10    0    1
 -2       164       175       176       165       737       738       739       714
 -1       150   10    0    1
 -2       165       176       177       166       739       740       741       716
 -1       151   10    0    1
 -2       166       177       178       167       741       742       743       718
 -1       152   10    0    1
 -2       167       178       179       168       743       744       745       720
 -1       153   10    0    1
 -2       168       179       180       169       745       746       747       722
 -1       154   10    0    1
 -2       169       180       181       170       747       748       749       724
 -1       155   10    0    1
 -2       170       181       182       171       749       750       751       726
 -1       156    8    0    1
 -2       171       182        28       751       752       728
 -1       157   10    0    1
 -2        15        16       183       172       753       754       755       730
 -1       158   10    0    1
 -2       172       183       184       173       755       756       757       732
 -1       159   10    0    1
 -2       173       184       185       174       757       758       759       734
 -1       160   10    0    1
 -2       174       185       186       175       759       760       761       736
 -1       161   10    0    1
 -2       175       186       187       176       761       762       763       738
 -1       162   10    0    1
 -2       176       187       188       177       763       764       765       740
 -1       163   10    0    1
 -2       177       188       189       178       765       766       767       742
 -1       164   10    0    1
 -2       178       189       190       179       767       768       769       744
 -1       165   10    0    1
 -2       179       190       191       180       769       770       771       746
 -1       166   10    0    1
 -2       180       191       192       181       771       772       773       748
 -1       167   10    0    1
 -2       181       192       193       182       773       774       775       750
 -1       168    8    0    1
 -2       182       193        28       775       776       752
 -1       169   10    0    1
 -2        16         2        17       183       777       778       779       754
 -1       170   10    0    1
 -2       183        17        18       184       779       780       781       756
 -1       171   10    0    1
 -2       184        18        19       185       781       782       783       758
 -1       172   10    0    1
 -2       185        19        20       186       783       784       785       760
 -1       173   10    0    1
 -2       186        20        21       187       785       786       787       762
 -1       174   10    0    1
 -2       187        21        22       188       787       788       789       764
 -1       175   10    0    1
 -2       188        22        23       189       789       790       791       766
 -1       176   10    0    1
 -2       189        23        24       190       791       792       793       768
 -1       177   10    0    1
 -2       190        24        25       191       793       794       795       770
 -1       178   10    0    1
 -2       191        25        26       192       795       796       797       772
 -1       179   10    0    1
 -2       192        26        27       193       797       798       799       774
 -1       180    8    0    1
 -2       193        27        28       799       800       776
 -1       181   10    0    1
 -2       194       199       253       252       801       802       803       804
 -1       182   10    0    1
 -2       252       253       254       251       803       805       806       807
 -1       183   10    0    1
 -2       251       254       255       250       806       808       809       810
 -1       184   10    0    1
 -2       250       255       256       249       809       811       812       813
 -1       185   10    0    1
 -2       249       256       257       248       812       814       815       816
 -1       186   10    0    1
 -2       248       257       258       247       815       817       818       819
 -1       187   10    0    1
 -2       247       258       259       246       818       820       821       822
 -1       188   10    0    1
 -2       246       259       260       245       821       823       824       825
 -1       189   10    0    1
 -2       245       260       261       244       824       826       827       828
 -1       190   10    0    1
 -2       244       261       262       243       827       829       830       831
 -1       191   10    0    1
 -2       243       262       263       242       830       832       833       834
 -1       192   10    0    1
 -2       242       263       241       197       833       835       836       837
 -1       193   10    0    1
 -2       199       200       264       253       838       839       840       802
 -1       194   10    0    1
 -2       253       264       265       254       840       841       842       805
 -1       195   10    0    1
 -2       254       265       266       255       842       843       844       808
 -1       196   10    0    1
 -2       255       266       267       256       844       845       846       811
 -1       197   10    0    1
 -2       256       267       268       257       846       847       848       814
 -1       198   10    0    1
 -2       257       268       269       258       848       849       850       817
 -1       199   10    0    1
 -2       258       269       270       259       850       851       852       820
 -1       200   10    0    1
 -2       259       270       271       260       852       853       854       823
 -1       201   10    0    1
 -2       260       271       272       261       854       855       856       826
 -1       202   10    0    1
 -2       261       272       273       262       856       857       858       829
 -1       203   10    0    1
 -2       262       273       274       263       858       859       860       832
 -1       204   10    0    1
 -2       263       274       240       241       860       861       862       835
 -1       205   10    0    1
 -2       200       201       275       264       863       864       865       839
 -1       206   10    0    1
 -2       264       275       276       265       865       866       867       841
 -1       207   10    0    1
 -2       265       276       277       266       867       868       869       843
 -1       208   10    0    1
 -2       266       277       278       267       869       870       871       845
 -1       209   10    0    1
 -2       267       278       279       268       871       872       873       847
 -1       210   10    0    1
 -2       268       279       280       269       873       874       875       849
 -1       211   10    0    1
 -2       269       280       281       270       875       876       877       851
 -1       212   10    0    1
 -2       270       281       282       271       877       878       879       853
 -1       213   10    0    1
 -2       271       282       283       272       879       880       881       855
 -1       214   10    0    1
 -2       272       283       284       273       881       882       883       857
 -1       215   10    0    1
 -2       273       284       285       274       883       884       885       859
 -1       216   10    0    1
 -2       274       285       239       240       885       886       887       861
 -1       217   10    0    1
 -2       201       202       286       275       888       889       890       864
 -1       218   10    0    1
 -2       275       286       287       276       890       891       892       866
 -1       219   10    0    1
 -2       276       287       288       277       892       893       894       868
 -1       220   10    0    1
 -2       277       288       289       278       894       895       896       870
 -1       221   10    0    1
 -2       278       289       290       279       896       897       898       872
 -1       222   10    0    1
 -2       279       290       291       280       898       899       900       874
 -1       223   10    0    1
 -2       280       291       292       281       900       901       902       876
 -1       224   10    0    1
 -2       281       292       293       282       902       903       904       878
 -1       225   10    0    1
 -2       282       293       294       283       904       905       906       880
 -1       226   10    0    1
 -2       283       294       295       284       906       907       908       882
 -1       227   10    0    1
 -2       284       295       296       285       908       909       910       884
 -1       228   10    0    1
 -2       285       296       238       239       910       911       912       886
 -1       229   10    0    1
 -2       202       203       297       286       913       914       915       889
 -1       230   10    0    1
 -2       286       297       298       287       915       916       917       891
 -1       231   10    0    1
 -2       287       298       299       288       917       918       919       893
 -1       232   10    0    1
 -2       288       299       300       289       919       920       921       895
 -1       233   10    0    1
 -2       289       300       301       290       921       922       923       897
 -1       234   10    0    1
 -2       290       301       302       291       923       924       925       899
 -1       235   10    0    1
 -2       291       302       303       292       925       926       927       901
 -1       236   10    0    1
 -2       292       303       304       293       927       928       929       903
 -1       237   10    0    1
 -2       293       304       305       294       929       930       931       905
 -1       238   10    0    1
 -2       294       305       306       295       931       932       933       907
 -1       239   10    0    1
 -2       295       306       307       296       933       934       935       909
 -1       240   10    0    1
 -2       296       307       237       238       935       936       937       911
 -1       241   10    0    1
 -2       203       204       308       297       938       939       940       914
 -1       242   10    0    1
 -2       297       308       309       298       940       941       942       916
 -1       243   10    0    1
 -2       298       309       310       299       942       943       944       918
 -1       244   10    0    1
 -2       299       310       311       300       944       945       946       920
 -1       245   10    0    1
 -2       300       311       312       301       946       947       948       922
 -1       246   10    0    1
 -2       301       312       313       302       948       949       950       924
 -1       247   10    0    1
 -2       302       313       314       303       950       951       952       926
 -1       248   10    0    1
 -2       303       314       315       304       952       953       954       928
 -1       249   10    0    1
 -2       304       315       316       305       954       955       956       930
 -1       250   10    0    1
 -2       305       316       317       306       956       957       958       932
 -1       251   10    0    1
 -2       306       317       318       307       958       959       960       934
 -1       252   10    0    1
 -2       307       318       236       237       960       961       962       936
 -1       253   10    0    1
 -2       204       205       319       308       963       964       965       939
 -1       254   10    0    1
 -2       308       319       320       309       965       966       967       941
 -1       255   10    0    1
 -2       309       320       321       310       967       968       969       943
 -1       256   10    0    1
 -2       310       321       322       311       969       970       971       945
 -1       257   10    0    1
 -2       311       322       323       312       971       972       973       947
 -1       258   10    0    1
 -2       312       323       324       313       973       974       975       949
 -1       259   10    0    1
 -2       313       324       325       314       975       976       977       951
 -1       260   10    0    1
 -2       314       325       326       315       977       978       979       953
 -1       261   10    0    1
 -2       315       326       327       316       979       980       981       955
 -1       262   10    0    1
 -2       316       327       328       317       981       982       983       957
 -1       263   10    0    1
 -2       317       328       329       318       983       984       985       959
 -1       264   10    0    1
 -2       318       329       235       236       985       986       987       961
 -1       265   10    0    1
 -2       205       206       330       319       988       989       990       964
 -1       266   10    0    1
 -2       319       330       331       320       990       991       992       966
 -1       267   10    0    1
 -2       320       331       332       321       992       993       994       968
 -1       268   10    0    1
 -2       321       332       333       322       994       995       996       970
 -1       269   10    0    1
 -2       322       333       334       323       996       997       998       972
 -1       270   10    0    1
 -2       323       334       335       324       998       999      1000       974
 -1       271   10    0    1
 -2       324       335       336       325      1000      1001      1002       976
 -1       272   10    0    1
 -2       325       336       337       326      1002      1003      1004       978
 -1       273   10    0    1
 -2       326       337       338       327      1004      1005      1006       980
 -1       274   10    0    1
 -2       327       338       339       328      1006      1007      1008       982
 -1       275   10    0    1
 -2       328       339       340       329      1008      1009      1010       984
 -1       276   10    0    1
 -2       329       340       234       235      1010      1011      1012       986
 -1       277   10    0    1
 -2       206       207       341       330      1013      1014      1015       989
 -1       278   10    0    1
 -2       330       341       342       331      1015      1016      1017       991
 -1       279   10    0    1
 -2       331       342       343       332      1017      1018      1019       993
 -1       280   10    0    1
 -2       332       343       344       333      1019      1020      1021       995
 -1       281   10    0    1
 -2       333       344       345       334      1021      1022      1023       997
 -1       282   10    0    1
 -2       334       345       346       335      1023      1024      1025       999
 -1       283   10    0    1
 -2       335       346       347       336      1025      1026      1027      1001
 -1       284   10    0    1
 -2       336       347       348       337      1027      1028      1029      1003
 -1       285   10    0    1
 -2       337       348       349       338      1029      1030      1031      1005
 -1       286   10    0    1
 -2       338       349       350       339      1031      1032      1033      1007
 -1       287   10    0    1
 -2       339       350       351       340      1033      1034      1035      1009
 -1       288   10    0    1
 -2       340       351       233       234      1035      1036      1037      1011
 -1       289   10    0    1
 -2       207       208       352       341      1038      1039      1040      1014
 -1       290   10    0    1
 -2       341       352       353       342      1040      1041      1042      1016
 -1       291   10    0    1
 -2       342       353       354       343      1042      1043      1044      1018
 -1       292   10    0    1
 -2       343       354       355       344      1044      1045      1046      1020
 -1       293   10    0    1
 -2       344       355       356       345      1046      1047      1048      1022
 -1       294   10    0    1
 -2       345       356       357       346      1048      1049      1050      1024
 -1       295   10    0    1
 -2       346       357       358       347      1050      1051      1052      1026
 -1       296   10    0    1
 -2       347       358       359       348      1052      1053      1054      1028
 -1       297   10    0    1
 -2       348       359       360       349      1054      1055      1056      1030
 -1       298   10    0    1
 -2       349       360       361       350      1056      1057      1058      1032
 -1       299   10    0    1
 -2       350       361       362       351      1058      1059      1060      1034
 -1       300   10    0    1
 -2       351       362       232       233      1060      1061      1062      1036
 -1       301   10    0    1
 -2       208       209       363       352      1063      1064      1065      1039
 -1       302   10    0    1
 -2       352       363       364       353      1065      1066      1067      1041
 -1       303   10    0    1
 -2       353       364       365       354      1067      1068      1069      1043
 -1       304   10    0    1
 -2       354       365       366       355      1069      1070      1071      1045
 -1       305   10    0    1
 -2       355       366       367       356      1071      1072      1073      1047
 -1       306   10    0    1
 -2       356       367       368       357      1073      1074      1075      1049
 -1       307   10    0    1
 -2       357       368       369       358      1075      1076      1077      1051
 -1       308   10    0    1
 -2       358       369       370       359      1077      1078      1079      1053
 -1       309   10    0    1
 -2       359       370       371       360      1079      1080      1081      1055
 -1       310   10    0    1
 -2       360       371       372       361      1081      1082      1083      1057
 -1       311   10    0    1
 -2       361       372       373       362      1083      1084      1085      1059
 -1       312   10    0    1
 -2       362       373       231       232      1085      1086      1087      1061
 -1       313   10    0    1
 -2       209       210       374       363      1088      1089      1090      1064
 -1       314   10    0    1
 -2       363       374       375       364      1090      1091      1092      1066
 -1       315   10    0    1
 -2       364       375       376       365      1092      1093      1094      1068
 -1       316   10    0    1
 -2       365       376       377       366      1094      1095      1096      1070
 -1       317   10    0    1
 -2       366       377       378       367      1096      1097      1098      1072
 -1       318   10    0    1
 -2       367       378       379       368      1098      1099      1100      1074
 -1       319   10    0    1
 -2       368       379       380       369      1100      1101      1102      1076
 -1       320   10    0    1
 -2       369       380       381       370      1102      1103      1104      1078
 -1       321   10    0    1
 -2       370       381       382       371      1104      1105      1106      1080
 -1       322   10    0    1
 -2       371       382       383       372      1106      1107      1108      1082
 -1       323   10    0    1
 -2       372       383       384       373      1108      1109      1110      1084
 -1       324   10    0    1
 -2       373       384       230       231      1110      1111      1112      1086
 -1       325   10    0    1
 -2       210       211       385       374      1113      1114      1115      1089
 -1       326   10    0    1
 -2       374       385       386       375      1115      1116      1117      1091
 -1       327   10    0    1
 -2       375       386       387       376      1117      1118      1119      1093
 -1       328   10    0    1
 -2       376       387       388       377      1119      1120      1121      1095
 -1       329   10    0    1
 -2       377       388       389       378      1121      1122      1123      1097
 -1       330   10    0    1
 -2       378       389       390       379      1123      1124      1125      1099
 -1       331   10    0    1
 -2       379       390       391       380      1125      1126      1127      1101
 -1       332   10    0    1
 -2       380       391       392       381      1127      1128      1129      1103
 -1       333   10    0    1
 -2       381       392       393       382      1129      1130      1131      1105
 -1       334   10    0    1
 -2       382       393       394       383      1131      1132      1133      1107
 -1       335   10    0    1
 -2       383       394       395       384      1133      1134      1135      1109
 -1       336   10    0    1
 -2       384       395       229       230      1135      1136      1137      1111
 -1       337   10    0    1
 -2       211       212       396       385      1138      1139      1140      1114
 -1       338   10    0    1
 -2       385       396       397       386      1140      1141      1142      1116
 -1       339   10    0    1
 -2       386       397       398       387      1142      1143      1144      1118
 -1       340   10    0    1
 -2       387       398       399       388      1144      1145      1146      1120
 -1       341   10    0    1
 -2       388       399       400       389      1146      1147      1148      1122
 -1       342   10    0    1
 -2       389       400       401       390      1148      1149      1150      1124
 -1       343   10    0    1
 -2       390       401       402       391      1150      1151      1152      1126
 -1       344   10    0    1
 -2       391       402       403       392      1152      1153      1154      1128
 -1       345   10    0    1
 -2       392       403       404       393      1154      1155      1156      1130
 -1       346   10    0    1
 -2       393       404       405       394      1156      1157      1158      1132
 -1       347   10    0    1
 -2       394       405       406       395      1158      1159      1160      1134
 -1       348   10    0    1
 -2       395       406       228       229      1160      1161      1162      1136
 -1       349   10    0    1
 -2       212       213       407       396      1163      1164      1165      1139
 -1       350   10    0    1
 -2       396       407       408       397      1165      1166      1167      1141
 -1       351   10    0    1
 -2       397       408       409       398      1167      1168      1169      1143
 -1       352   10    0    1
 -2       398       409       410       399      1169      1170      1171      1145
 -1       353   10    0    1
 -2       399       410       411       400      1171      1172      1173      1147
 -1       354   10    0    1
 -2       400       411       412       401      1173      1174      1175      1149
 -1       355   10    0    1
 -2       401       412       413       402      1175      1176      1177      1151
 -1       356   10    0    1
 -2       402       413       414       403      1177      1178      1179      1153
 -1       357   10    0    1
 -2       403       414       415       404      1179      1180      1181      1155
 -1       358   10    0    1
 -2       404       415       416       405      1181      1182      1183      1157
 -1       359   10    0    1
 -2       405       416       417       406      1183      1184      1185      1159
 -1       360   10    0    1
 -2       406       417       227       228      1185      1186      1187      1161
 -1       361   10    0    1
 -2       213       214       418       407      1188      1189      1190      1164
 -1       362   10    0    1
 -2       407       418       419       408      1190      1191      1192      1166
 -1       363   10    0    1
 -2       408       419       420       409      1192      1193      1194      1168
 -1       364   10    0    1
 -2       409       420       421       410      1194      1195      1196      1170
 -1       365   10    0    1
 -2       410       421       422       411      1196      1197      1198      1172
 -1       366   10    0    1
 -2       411       422       423       412      1198      1199      1200      1174
 -1       367   10    0    1
 -2       412       423       424       413      1200      1201      1202      1176
 -1       368   10    0    1
 -2       413       424       425       414      1202      1203      1204      1178
 -1       369   10    0    1
 -2       414       425       426       415      1204      1205      1206      1180
 -1       370   10    0    1
 -2       415       426       427       416      1206      1207      1208      1182
 -1       371   10    0    1
 -2       416       427       428       417      1208      1209      1210      1184
 -1       372   10    0    1
 -2       417       428       226       227      1210      1211      1212      1186
 -1       373   10    0    1
 -2       214       195       215       418      1213      1214      1215      1189
 -1       374   10    0    1
 -2       418       215       216       419      1215      1216      1217      1191
 -1       375   10    0    1
 -2       419       216       217       420      1217      1218      1219      1193
 -1       376   10    0    1
 -2       420       217       218       421      1219      1220      1221      1195
 -1       377   10    0    1
 -2       421       218       219       422      1221      1222      1223      1197
 -1       378   10    0    1
 -2       422       219       220       423      1223      1224      1225      1199
 -1       379   10    0    1
 -2       423       220       221       424      1225      1226      1227      1201
 -1       380   10    0    1
 -2       424       221       222       425      1227      1228      1229      1203
 -1       381   10    0    1
 -2       425       222       223       426      1229      1230      1231      1205
 -1       382   10    0    1
 -2       426       223       224       427      1231      1232      1233      1207
 -1       383   10    0    1
 -2       427       224       225       428      1233      1234      1235      1209
 -1       384   10    0    1
 -2       428       225       196       226      1235      1236      1237      1211
 -3
    1PSTEP                         1           1           1          
  100CL  101 1.000000000        1236                     0    1           1
 -4  DISP        4    1
 -5  D1          1    2    1    0
 -5  D2          1    2    2    0
 -5  D3          1    2    3    0
 -5  ALL         1    2    0    0    1ALL
 -1         1 0.00000E+00 1.03264E-02 0.00000E+00
 -1         2 1.27779E-03 0.00000E+00 0.00000E+00
 -1         3-1.02118E-03 6.33401E-03 0.00000E+00
 -1         4-7.95068E-04 4.55155E-03 0.00000E+00
 -1         5-6.60959E-04 3.50304E-03 0.00000E+00
 -1         6-5.15139E-04 2.74462E-03 0.00000E+00
 -1         7-3.50820E-04 2.14405E-03 0.00000E+00
 -1         8-1.76120E-04 1.65283E-03 0.00000E+00
 -1         9 9.57694E-06 1.24361E-03 0.00000E+00
 -1        10 2.03979E-04 9.02367E-04 0.00000E+00
 -1        11 4.04031E-04 6.21465E-04 0.00000E+00
 -1        12 6.04915E-04 3.96848E-04 0.00000E+00
 -1        13 7.99715E-04 2.26160E-04 0.00000E+00
 -1        14 9.78877E-04 1.07168E-04 0.00000E+00
 -1        15 1.12970E-03 3.60536E-05 0.00000E+00
 -1        16 1.23605E-03 5.16816E-06 0.00000E+00
 -1        17 1.27648E-03 0.00000E+00 0.00000E+00
 -1        18 1.27132E-03 0.00000E+00 0.00000E+00
 -1        19 1.26048E-03 0.00000E+00 0.00000E+00
 -1        20 1.24076E-03 0.00000E+00 0.00000E+00
 -1        21 1.20750E-03 0.00000E+00 0.00000E+00
 -1        22 1.15401E-03 0.00000E+00 0.00000E+00
 -1        23 1.07093E-03 0.00000E+00 0.00000E+00
 -1        24 9.45978E-04 0.00000E+00 0.00000E+00
 -1        25 7.64882E-04 0.00000E+00 0.00000E+00
 -1        26 5.14965E-04 0.00000E+00 0.00000E+00
 -1        27 1.93246E-04 0.00000E+00 0.00000E+00
 -1        28 0.00000E+00 0.00000E+00 0.00000E+00
 -1        29 0.00000E+00 7.68447E-03 0.00000E+00
 -1        30 0.00000E+00 6.07313E-03 0.00000E+00
 -1        31 0.00000E+00 5.02261E-03 0.00000E+00
 -1        32 0.00000E+00 4.19699E-03 0.00000E+00
 -1        33 0.00000E+00 3.51396E-03 0.00000E+00
 -1        34 0.00000E+00 2.91187E-03 0.00000E+00
 -1        35 0.00000E+00 2.36063E-03 0.00000E+00
 -1        36 0.00000E+00 1.83902E-03 0.00000E+00
 -1        37 0.00000E+00 1.33077E-03 0.00000E+00
 -1        38 0.00000E+00 8.20859E-04 0.00000E+00
 -1        39 0.00000E+00 2.92639E-04 0.00000E+00
 -1        40 3.27166E-04 6.37200E-03 0.00000E+00
 -1        41 3.66042E-04 5.65872E-03 0.00000E+00
 -1        42 2.73617E-04 4.83618E-03 0.00000E+00
 -1        43 2.02515E-04 4.11488E-03 0.00000E+00
 -1        44 1.53279E-04 3.47189E-03 0.00000E+00
 -1        45 1.17069E-04 2.89007E-03 0.00000E+00
 -1        46 8.90442E-05 2.34909E-03 0.00000E+00
 -1        47 6.60423E-05 1.83303E-03 0.00000E+00
 -1        48 4.60768E-05 1.32780E-03 0.00000E+00
 -1        49 2.77097E-05 8.19538E-04 0.00000E+00
 -1        50 9.74393E-06 2.92257E-04 0.00000E+00
 -1        51 1.42719E-04 4.73945E-03 0.00000E+00
 -1        52 4.55757E-04 4.69656E-03 0.00000E+00
 -1        53 4.57195E-04 4.35361E-03 0.00000E+00
 -1        54 3.82571E-04 3.86430E-03 0.00000E+00
 -1        55 3.04525E-04 3.33985E-03 0.00000E+00
 -1        56 2.38426E-04 2.81917E-03 0.00000E+00
 -1        57 1.83541E-04 2.31112E-03 0.00000E+00
 -1        58 1.36972E-04 1.81314E-03 0.00000E+00
 -1        59 9.58634E-05 1.31790E-03 0.00000E+00
 -1        60 5.77396E-05 8.15114E-04 0.00000E+00
 -1        61 2.03170E-05 2.90974E-04 0.00000E+00
 -1        62-3.58042E-05 3.65005E-03 0.00000E+00
 -1        63 3.85920E-04 3.77359E-03 0.00000E+00
 -1        64 5.28016E-04 3.72159E-03 0.00000E+00
 -1        65 5.11918E-04 3.47863E-03 0.00000E+00
 -1        66 4.40667E-04 3.11611E-03 0.00000E+00
 -1        67 3.59233E-04 2.69259E-03 0.00000E+00
 -1        68 2.82492E-04 2.24118E-03 0.00000E+00
 -1        69 2.13193E-04 1.77581E-03 0.00000E+00
 -1        70 1.50081E-04 1.29908E-03 0.00000E+00
 -1        71 9.06599E-05 8.06648E-04 0.00000E+00
 -1        72 3.19404E-05 2.88511E-04 0.00000E+00
 -1        73-5.49911E-05 2.87547E-03 0.00000E+00
 -1        74 3.19213E-04 3.01874E-03 0.00000E+00
 -1        75 5.30099E-04 3.08884E-03 0.00000E+00
 -1        76 5.87103E-04 3.02324E-03 0.00000E+00
 -1        77 5.49950E-04 2.81930E-03 0.00000E+00
 -1        78 4.71692E-04 2.51158E-03 0.00000E+00
 -1        79 3.81947E-04 2.13633E-03 0.00000E+00
 -1        80 2.93007E-04 1.71813E-03 0.00000E+00
 -1        81 2.08104E-04 1.26944E-03 0.00000E+00
 -1        82 1.26285E-04 7.93140E-04 0.00000E+00
 -1        83 4.45787E-05 2.84553E-04 0.00000E+00
 -1        84-9.27596E-06 2.26539E-03 0.00000E+00
 -1        85 3.01546E-04 2.40556E-03 0.00000E+00
 -1        86 5.22693E-04 2.52086E-03 0.00000E+00
 -1        87 6.27768E-04 2.55650E-03 0.00000E+00
 -1        88 6.31728E-04 2.47795E-03 0.00000E+00
 -1        89 5.70912E-04 2.28449E-03 0.00000E+00
 -1        90 4.78398E-04 1.99646E-03 0.00000E+00
 -1        91 3.74742E-04 1.63791E-03 0.00000E+00
 -1        92 2.69364E-04 1.22702E-03 0.00000E+00
 -1        93 1.64512E-04 7.73447E-04 0.00000E+00
 -1        94 5.82372E-05 2.78724E-04 0.00000E+00
 -1        95 8.37148E-05 1.76724E-03 0.00000E+00
 -1        96 3.32875E-04 1.89965E-03 0.00000E+00
 -1        97 5.34523E-04 2.02765E-03 0.00000E+00
 -1        98 6.57930E-04 2.11430E-03 0.00000E+00
 -1        99 6.93763E-04 2.12105E-03 0.00000E+00
 -1       100 6.55774E-04 2.02502E-03 0.00000E+00
 -1       101 5.68995E-04 1.82496E-03 0.00000E+00
 -1       102 4.56464E-04 1.53426E-03 0.00000E+00
 -1       103 3.33009E-04 1.17012E-03 0.00000E+00
 -1       104 2.05093E-04 7.46335E-04 0.00000E+00
 -1       105 7.28806E-05 2.70586E-04 0.00000E+00
 -1       106 2.07771E-04 1.35146E-03 0.00000E+00
 -1       107 4.03629E-04 1.47546E-03 0.00000E+00
 -1       108 5.74235E-04 1.60359E-03 0.00000E+00
 -1       109 6.94583E-04 1.71270E-03 0.00000E+00
 -1       110 7.46963E-04 1.77113E-03 0.00000E+00
 -1       111 7.28803E-04 1.74889E-03 0.00000E+00
 -1       112 6.52244E-04 1.62837E-03 0.00000E+00
 -1       113 5.36260E-04 1.40796E-03 0.00000E+00
 -1       114 3.97906E-04 1.09745E-03 0.00000E+00
 -1       115 2.47595E-04 7.10534E-04 0.00000E+00
 -1       116 8.84148E-05 2.59634E-04 0.00000E+00
 -1       117 3.53987E-04 1.00323E-03 0.00000E+00
 -1       118 5.04501E-04 1.11826E-03 0.00000E+00
 -1       119 6.41247E-04 1.24081E-03 0.00000E+00
 -1       120 7.45917E-04 1.35664E-03 0.00000E+00
 -1       121 8.00645E-04 1.44267E-03 0.00000E+00
 -1       122 7.94534E-04 1.47069E-03 0.00000E+00
 -1       123 7.28177E-04 1.41524E-03 0.00000E+00
 -1       124 6.12512E-04 1.26159E-03 0.00000E+00
 -1       125 4.62697E-04 1.00843E-03 0.00000E+00
 -1       126 2.91356E-04 6.64806E-04 0.00000E+00
 -1       127 1.04665E-04 2.45306E-04 0.00000E+00
 -1       128 5.15019E-04 7.14233E-04 0.00000E+00
 -1       129 6.27008E-04 8.19329E-04 0.00000E+00
 -1       130 7.30875E-04 9.32966E-04 0.00000E+00
 -1       131 8.13691E-04 1.04641E-03 0.00000E+00
 -1       132 8.60364E-04 1.14373E-03 0.00000E+00
 -1       133 8.57436E-04 1.20192E-03 0.00000E+00
 -1       134 7.97900E-04 1.19465E-03 0.00000E+00
 -1       135 6.84064E-04 1.09919E-03 0.00000E+00
 -1       136 5.25870E-04 9.03280E-04 0.00000E+00
 -1       137 3.35453E-04 6.08039E-04 0.00000E+00
 -1       138 1.21347E-04 2.26987E-04 0.00000E+00
 -1       139 6.83714E-04 4.79962E-04 0.00000E+00
 -1       140 7.62925E-04 5.73628E-04 0.00000E+00
 -1       141 8.36525E-04 6.75671E-04 0.00000E+00
 -1       142 8.95388E-04 7.80737E-04 0.00000E+00
 -1       143 9.27644E-04 8.78143E-04 0.00000E+00
 -1       144 9.20322E-04 9.50596E-04 0.00000E+00
 -1       145 8.62697E-04 9.74828E-04 0.00000E+00
 -1       146 7.50122E-04 9.25653E-04 0.00000E+00
 -1       147 5.85818E-04 7.83036E-04 0.00000E+00
 -1       148 3.78676E-04 5.39327E-04 0.00000E+00
 -1       149 1.38039E-04 2.04030E-04 0.00000E+00
 -1       150 8.51861E-04 2.97658E-04 0.00000E+00
 -1       151 9.03387E-04 3.77922E-04 0.00000E+00
 -1       152 9.50138E-04 4.65709E-04 0.00000E+00
 -1       153 9.85531E-04 5.57764E-04 0.00000E+00
 -1       154 1.00043E-03 6.47093E-04 0.00000E+00
 -1       155 9.83532E-04 7.21390E-04 0.00000E+00
 -1       156 9.23073E-04 7.62118E-04 0.00000E+00
 -1       157 8.09924E-04 7.45859E-04 0.00000E+00
 -1       158 6.40829E-04 6.49354E-04 0.00000E+00
 -1       159 4.19504E-04 4.58043E-04 0.00000E+00
 -1       160 1.54150E-04 1.75790E-04 0.00000E+00
 -1       161 1.00936E-03 1.64764E-04 0.00000E+00
 -1       162 1.03809E-03 2.29242E-04 0.00000E+00
 -1       163 1.06203E-03 2.99912E-04 0.00000E+00
 -1       164 1.07625E-03 3.74843E-04 0.00000E+00
 -1       165 1.07362E-03 4.49612E-04 0.00000E+00
 -1       166 1.04467E-03 5.15940E-04 0.00000E+00
 -1       167 9.78014E-04 5.60311E-04 0.00000E+00
 -1       168 8.62245E-04 5.63676E-04 0.00000E+00
 -1       169 6.88978E-04 5.04055E-04 0.00000E+00
 -1       170 4.56074E-04 3.63855E-04 0.00000E+00
 -1       171 1.68883E-04 1.41680E-04 0.00000E+00
 -1       172 1.14357E-03 7.72258E-05 0.00000E+00
 -1       173 1.15465E-03 1.23225E-04 0.00000E+00
 -1       174 1.16058E-03 1.73700E-04 0.00000E+00
 -1       175 1.15744E-03 2.27575E-04 0.00000E+00
 -1       176 1.13947E-03 2.82256E-04 0.00000E+00
 -1       177 1.09867E-03 3.32658E-04 0.00000E+00
 -1       178 1.02456E-03 3.70007E-04 0.00000E+00
 -1       179 9.04907E-04 3.80963E-04 0.00000E+00
 -1       180 7.27908E-04 3.48473E-04 0.00000E+00
 -1       181 4.86123E-04 2.56666E-04 0.00000E+00
 -1       182 1.81214E-04 1.01261E-04 0.00000E+00
 -1       183 1.23892E-03 2.72778E-05 0.00000E+00
 -1       184 1.23824E-03 5.19232E-05 0.00000E+00
 -1       185 1.23205E-03 7.89922E-05 0.00000E+00
 -1       186 1.21695E-03 1.07990E-04 0.00000E+00
 -1       187 1.18801E-03 1.37703E-04 0.00000E+00
 -1       188 1.13819E-03 1.65676E-04 0.00000E+00
 -1       189 1.05778E-03 1.87529E-04 0.00000E+00
 -1       190 9.34466E-04 1.96284E-04 0.00000E+00
 -1       191 7.54579E-04 1.82442E-04 0.00000E+00
 -1       192 5.06904E-04 1.36344E-04 0.00000E+00
 -1       193 1.89862E-04 5.43164E-05 0.00000E+00
 -1       194-6.54459E-03 4.45651E-02 0.00000E+00
 -1       195 0.00000E+00 9.92575E-03 0.00000E+00
 -1       196 0.00000E+00 2.00385E-02 0.00000E+00
 -1       197 8.08505E-03 4.50267E-02 0.00000E+00
 -1       199-6.54762E-03 4.11399E-02 0.00000E+00
 -1       200-6.51457E-03 3.80392E-02 0.00000E+00
 -1       201-6.40470E-03 3.51792E-02 0.00000E+00
 -1       202-6.20720E-03 3.25720E-02 0.00000E+00
 -1       203-5.92629E-03 3.02280E-02 0.00000E+00
 -1       204-5.57428E-03 2.81468E-02 0.00000E+00
 -1       205-5.16753E-03 2.63177E-02 0.00000E+00
 -1       206-4.72366E-03 2.47209E-02 0.00000E+00
 -1       207-4.25962E-03 2.33290E-02 0.00000E+00
 -1       208-3.79023E-03 2.21089E-02 0.00000E+00
 -1       209-3.32788E-03 2.10222E-02 0.00000E+00
 -1       210-2.88103E-03 2.00249E-02 0.00000E+00
 -1       211-2.45930E-03 1.90597E-02 0.00000E+00
 -1       212-2.05382E-03 1.80596E-02 0.00000E+00
 -1       213-1.69545E-03 1.68491E-02 0.00000E+00
 -1       214-1.44307E-03 1.50131E-02 0.00000E+00
 -1       215 0.00000E+00 1.34302E-02 0.00000E+00
 -1       216 0.00000E+00 1.49095E-02 0.00000E+00
 -1       217 0.00000E+00 1.58185E-02 0.00000E+00
 -1       218 0.00000E+00 1.65070E-02 0.00000E+00
 -1       219 0.00000E+00 1.70509E-02 0.00000E+00
 -1       220 0.00000E+00 1.75174E-02 0.00000E+00
 -1       221 0.00000E+00 1.79372E-02 0.00000E+00
 -1       222 0.00000E+00 1.83349E-02 0.00000E+00
 -1       223 0.00000E+00 1.87342E-02 0.00000E+00
 -1       224 0.00000E+00 1.91673E-02 0.00000E+00
 -1       225 0.00000E+00 1.96908E-02 0.00000E+00
 -1       226 5.08019E-04 2.00723E-02 0.00000E+00
 -1       227 1.05584E-03 2.01851E-02 0.00000E+00
 -1       228 1.64961E-03 2.03999E-02 0.00000E+00
 -1       229 2.28015E-03 2.07400E-02 0.00000E+00
 -1       230 2.93840E-03 2.12304E-02 0.00000E+00
 -1       231 3.61200E-03 2.18961E-02 0.00000E+00
 -1       232 4.28582E-03 2.27604E-02 0.00000E+00
 -1       233 4.94317E-03 2.38439E-02 0.00000E+00
 -1       234 5.56710E-03 2.51636E-02 0.00000E+00
 -1       235 6.14180E-03 2.67326E-02 0.00000E+00
 -1       236 6.65345E-03 2.85603E-02 0.00000E+00
 -1       237 7.09066E-03 3.06524E-02 0.00000E+00
 -1       238 7.44482E-03 3.30099E-02 0.00000E+00
 -1       239 7.71121E-03 3.56281E-02 0.00000E+00
 -1       240 7.89163E-03 3.84949E-02 0.00000E+00
 -1       241 8.00117E-03 4.15991E-02 0.00000E+00
 -1       242 6.99525E-03 4.49596E-02 0.00000E+00
 -1       243 5.07857E-03 4.48389E-02 0.00000E+00
 -1       244 3.35585E-03 4.47381E-02 0.00000E+00
 -1       245 1.80400E-03 4.46636E-02 0.00000E+00
 -1       246 3.98889E-04 4.46142E-02 0.00000E+00
 -1       247-8.79744E-04 4.45852E-02 0.00000E+00
 -1       248-2.04746E-03 4.45707E-02 0.00000E+00
 -1       249-3.11590E-03 4.45653E-02 0.00000E+00
 -1       250-4.09379E-03 4.45645E-02 0.00000E+00
 -1       251-4.98787E-03 4.45652E-02 0.00000E+00
 -1       252-5.80351E-03 4.45656E-02 0.00000E+00
 -1       253-5.79775E-03 4.11395E-02 0.00000E+00
 -1       254-4.97917E-03 4.11387E-02 0.00000E+00
 -1       255-4.08678E-03 4.11391E-02 0.00000E+00
 -1       256-3.11474E-03 4.11430E-02 0.00000E+00
 -1       257-2.05605E-03 4.11527E-02 0.00000E+00
 -1       258-9.01742E-04 4.11714E-02 0.00000E+00
 -1       259 3.60332E-04 4.12027E-02 0.00000E+00
 -1       260 1.74675E-03 4.12506E-02 0.00000E+00
 -1       261 3.27973E-03 4.13196E-02 0.00000E+00
 -1       262 4.98719E-03 4.14131E-02 0.00000E+00
 -1       263 6.90071E-03 4.15307E-02 0.00000E+00
 -1       264-5.75371E-03 3.80320E-02 0.00000E+00
 -1       265-4.93124E-03 3.80241E-02 0.00000E+00
 -1       266-4.04185E-03 3.80172E-02 0.00000E+00
 -1       267-3.07957E-03 3.80136E-02 0.00000E+00
 -1       268-2.03704E-03 3.80164E-02 0.00000E+00
 -1       269-9.04689E-04 3.80295E-02 0.00000E+00
 -1       270 3.30473E-04 3.80575E-02 0.00000E+00
 -1       271 1.68646E-03 3.81057E-02 0.00000E+00
 -1       272 3.18828E-03 3.81795E-02 0.00000E+00
 -1       273 4.87003E-03 3.82833E-02 0.00000E+00
 -1       274 6.77699E-03 3.84166E-02 0.00000E+00
 -1       275-5.64127E-03 3.51614E-02 0.00000E+00
 -1       276-4.82234E-03 3.51430E-02 0.00000E+00
 -1       277-3.94339E-03 3.51258E-02 0.00000E+00
 -1       278-2.99911E-03 3.51123E-02 0.00000E+00
 -1       279-1.98250E-03 3.51062E-02 0.00000E+00
 -1       280-8.83982E-04 3.51119E-02 0.00000E+00
 -1       281 3.10041E-04 3.51353E-02 0.00000E+00
 -1       282 1.61926E-03 3.51830E-02 0.00000E+00
 -1       283 3.07233E-03 3.52623E-02 0.00000E+00
 -1       284 4.71075E-03 3.53791E-02 0.00000E+00
 -1       285 6.59379E-03 3.55341E-02 0.00000E+00
 -1       286-5.45130E-03 3.25414E-02 0.00000E+00
 -1       287-4.64572E-03 3.25104E-02 0.00000E+00
 -1       288-3.78698E-03 3.24809E-02 0.00000E+00
 -1       289-2.87075E-03 3.24557E-02 0.00000E+00
 -1       290-1.89092E-03 3.24389E-02 0.00000E+00
 -1       291-8.38479E-04 3.24357E-02 0.00000E+00
 -1       292 3.00242E-04 3.24530E-02 0.00000E+00
 -1       293 1.54622E-03 3.24993E-02 0.00000E+00
 -1       294 2.93163E-03 3.25839E-02 0.00000E+00
 -1       295 4.50525E-03 3.27150E-02 0.00000E+00
 -1       296 6.33961E-03 3.28964E-02 0.00000E+00
 -1       297-5.18727E-03 3.01835E-02 0.00000E+00
 -1       298-4.40417E-03 3.01387E-02 0.00000E+00
 -1       299-3.57470E-03 3.00956E-02 0.00000E+00
 -1       300-2.69582E-03 3.00573E-02 0.00000E+00
 -1       301-1.76278E-03 3.00282E-02 0.00000E+00
 -1       302-7.67725E-04 3.00146E-02 0.00000E+00
 -1       303 3.02433E-04 3.00246E-02 0.00000E+00
 -1       304 1.46936E-03 3.00686E-02 0.00000E+00
 -1       305 2.76816E-03 3.01584E-02 0.00000E+00
 -1       306 4.25436E-03 3.03052E-02 0.00000E+00
 -1       307 6.01334E-03 3.05164E-02 0.00000E+00
 -1       308-4.85954E-03 2.80882E-02 0.00000E+00
 -1       309-4.10594E-03 2.80291E-02 0.00000E+00
 -1       310-3.31264E-03 2.79717E-02 0.00000E+00
 -1       311-2.47839E-03 2.79194E-02 0.00000E+00
 -1       312-1.60032E-03 2.78771E-02 0.00000E+00
 -1       313-6.72389E-04 2.78522E-02 0.00000E+00
 -1       314 3.17349E-04 2.78545E-02 0.00000E+00
 -1       315 1.39072E-03 2.78963E-02 0.00000E+00
 -1       316 2.58521E-03 2.79919E-02 0.00000E+00
 -1       317 3.96236E-03 2.81559E-02 0.00000E+00
 -1       318 5.61966E-03 2.83995E-02 0.00000E+00
 -1       319-4.48169E-03 2.62454E-02 0.00000E+00
 -1       320-3.76171E-03 2.61723E-02 0.00000E+00
 -1       321-3.00876E-03 2.61004E-02 0.00000E+00
 -1       322-2.22400E-03 2.60336E-02 0.00000E+00
 -1       323-1.40721E-03 2.59779E-02 0.00000E+00
 -1       324-5.54645E-04 2.59421E-02 0.00000E+00
 -1       325 3.44241E-04 2.59379E-02 0.00000E+00
 -1       326 1.31134E-03 2.59797E-02 0.00000E+00
 -1       327 2.38622E-03 2.60838E-02 0.00000E+00
 -1       328 3.63538E-03 2.62673E-02 0.00000E+00
 -1       329 5.16676E-03 2.65455E-02 0.00000E+00
 -1       330-4.06793E-03 2.46358E-02 0.00000E+00
 -1       331-3.38235E-03 2.45490E-02 0.00000E+00
 -1       332-2.67108E-03 2.44627E-02 0.00000E+00
 -1       333-1.93870E-03 2.43816E-02 0.00000E+00
 -1       334-1.18834E-03 2.43137E-02 0.00000E+00
 -1       335-4.18663E-04 2.42697E-02 0.00000E+00
 -1       336 3.80004E-04 2.42635E-02 0.00000E+00
 -1       337 1.23028E-03 2.43107E-02 0.00000E+00
 -1       338 2.17374E-03 2.44285E-02 0.00000E+00
 -1       339 3.28036E-03 2.46350E-02 0.00000E+00
 -1       340 4.66528E-03 2.49494E-02 0.00000E+00
 -1       341-3.63116E-03 2.32324E-02 0.00000E+00
 -1       342-2.97719E-03 2.31322E-02 0.00000E+00
 -1       343-2.30650E-03 2.30318E-02 0.00000E+00
 -1       344-1.62853E-03 2.29377E-02 0.00000E+00
 -1       345-9.50094E-04 2.28608E-02 0.00000E+00
 -1       346-2.71264E-04 2.28150E-02 0.00000E+00
 -1       347 4.18572E-04 2.28155E-02 0.00000E+00
 -1       348 1.14421E-03 2.28777E-02 0.00000E+00
 -1       349 1.94914E-03 2.30171E-02 0.00000E+00
 -1       350 2.90447E-03 2.32514E-02 0.00000E+00
 -1       351 4.12762E-03 2.36030E-02 0.00000E+00
 -1       352-3.18147E-03 2.20018E-02 0.00000E+00
 -1       353-2.55264E-03 2.18885E-02 0.00000E+00
 -1       354-1.92018E-03 2.17744E-02 0.00000E+00
 -1       355-1.29989E-03 2.16704E-02 0.00000E+00
 -1       356-7.01262E-04 2.15921E-02 0.00000E+00
 -1       357-1.22609E-04 2.15562E-02 0.00000E+00
 -1       358 4.50947E-04 2.15775E-02 0.00000E+00
 -1       359 1.04800E-03 2.16679E-02 0.00000E+00
 -1       360 1.71309E-03 2.18387E-02 0.00000E+00
 -1       361 2.51503E-03 2.21056E-02 0.00000E+00
 -1       362 3.56736E-03 2.24941E-02 0.00000E+00
 -1       363-2.72478E-03 2.09053E-02 0.00000E+00
 -1       364-2.11118E-03 2.07784E-02 0.00000E+00
 -1       365-1.51578E-03 2.06521E-02 0.00000E+00
 -1       366-9.61148E-04 2.05456E-02 0.00000E+00
 -1       367-4.54631E-04 2.04807E-02 0.00000E+00
 -1       368 1.35089E-05 2.04741E-02 0.00000E+00
 -1       369 4.66309E-04 2.05354E-02 0.00000E+00
 -1       370 9.36328E-04 2.06690E-02 0.00000E+00
 -1       371 1.46662E-03 2.08806E-02 0.00000E+00
 -1       372 2.11952E-03 2.11834E-02 0.00000E+00
 -1       373 2.99838E-03 2.16069E-02 0.00000E+00
 -1       374-2.26186E-03 1.98978E-02 0.00000E+00
 -1       375-1.65096E-03 1.97558E-02 0.00000E+00
 -1       376-1.09784E-03 1.96227E-02 0.00000E+00
 -1       377-6.26066E-04 1.95314E-02 0.00000E+00
 -1       378-2.28689E-04 1.95067E-02 0.00000E+00
 -1       379 1.20706E-04 1.95569E-02 0.00000E+00
 -1       380 4.54457E-04 1.96795E-02 0.00000E+00
 -1       381 8.05804E-04 1.98696E-02 0.00000E+00
 -1       382 1.21217E-03 2.01278E-02 0.00000E+00
 -1       383 1.72553E-03 2.04670E-02 0.00000E+00
 -1       384 2.43392E-03 2.09218E-02 0.00000E+00
 -1       385-1.78224E-03 1.89211E-02 0.00000E+00
 -1       386-1.16545E-03 1.87637E-02 0.00000E+00
 -1       387-6.77915E-04 1.86438E-02 0.00000E+00
 -1       388-3.19348E-04 1.86069E-02 0.00000E+00
 -1       389-4.75348E-05 1.86646E-02 0.00000E+00
 -1       390 1.83569E-04 1.88030E-02 0.00000E+00
 -1       391 4.09218E-04 1.90043E-02 0.00000E+00
 -1       392 6.56779E-04 1.92575E-02 0.00000E+00
 -1       393 9.54062E-04 1.95625E-02 0.00000E+00
 -1       394 1.34040E-03 1.99351E-02 0.00000E+00
 -1       395 1.88556E-03 2.04160E-02 0.00000E+00
 -1       396-1.27309E-03 1.78970E-02 0.00000E+00
 -1       397-6.56708E-04 1.77351E-02 0.00000E+00
 -1       398-2.88979E-04 1.76858E-02 0.00000E+00
 -1       399-7.97152E-05 1.77783E-02 0.00000E+00
 -1       400 6.48622E-05 1.79696E-02 0.00000E+00
 -1       401 1.93618E-04 1.82195E-02 0.00000E+00
 -1       402 3.31304E-04 1.85050E-02 0.00000E+00
 -1       403 4.93821E-04 1.88181E-02 0.00000E+00
 -1       404 6.98062E-04 1.91642E-02 0.00000E+00
 -1       405 9.70735E-04 1.95640E-02 0.00000E+00
 -1       406 1.36254E-03 2.00647E-02 0.00000E+00
 -1       407-6.31128E-04 1.66489E-02 0.00000E+00
 -1       408-1.62069E-04 1.65933E-02 0.00000E+00
 -1       409-1.05735E-05 1.67820E-02 0.00000E+00
 -1       410 5.09556E-05 1.70975E-02 0.00000E+00
 -1       411 9.75075E-05 1.74538E-02 0.00000E+00
 -1       412 1.54694E-04 1.78146E-02 0.00000E+00
 -1       413 2.28695E-04 1.81728E-02 0.00000E+00
 -1       414 3.24537E-04 1.85332E-02 0.00000E+00
 -1       415 4.50294E-04 1.89095E-02 0.00000E+00
 -1       416 6.21814E-04 1.93285E-02 0.00000E+00
 -1       417 8.71446E-04 1.98425E-02 0.00000E+00
 -1       418-2.63425E-05 1.49455E-02 0.00000E+00
 -1       419 1.20454E-04 1.54207E-02 0.00000E+00
 -1       420 7.82552E-05 1.60906E-02 0.00000E+00
 -1       421 6.14525E-05 1.66541E-02 0.00000E+00
 -1       422 6.46384E-05 1.71484E-02 0.00000E+00
 -1       423 8.33879E-05 1.75875E-02 0.00000E+00
 -1       424 1.14668E-04 1.79922E-02 0.00000E+00
 -1       425 1.58443E-04 1.83809E-02 0.00000E+00
 -1       426 2.17596E-04 1.87747E-02 0.00000E+00
 -1       427 2.99324E-04 1.92045E-02 0.00000E+00
 -1       428 4.19131E-04 1.97258E-02 0.00000E+00
 -1       429-5.53332E-04 8.65610E-03 0.00000E+00
 -1       430 1.00047E-04 6.50644E-03 0.00000E+00
 -1       431 3.20663E-04 7.26446E-03 0.00000E+00
 -1       432 0.00000E+00 8.89452E-03 0.00000E+00
 -1       433 4.03057E-04 6.06101E-03 0.00000E+00
 -1       434 1.87196E-04 5.95370E-03 0.00000E+00
 -1       435 0.00000E+00 6.73361E-03 0.00000E+00
 -1       436 3.16491E-04 5.22398E-03 0.00000E+00
 -1       437 1.46918E-04 4.96530E-03 0.00000E+00
 -1       438 0.00000E+00 5.49486E-03 0.00000E+00
 -1       439 2.34227E-04 4.45635E-03 0.00000E+00
 -1       440 1.02610E-04 4.17296E-03 0.00000E+00
 -1       441 0.00000E+00 4.57376E-03 0.00000E+00
 -1       442 1.75602E-04 3.77601E-03 0.00000E+00
 -1       443 7.75746E-05 3.50103E-03 0.00000E+00
 -1       444 0.00000E+00 3.83414E-03 0.00000E+00
 -1       445 1.33676E-04 3.16761E-03 0.00000E+00
 -1       446 5.87701E-05 2.90492E-03 0.00000E+00
 -1       447 0.00000E+00 3.19734E-03 0.00000E+00
 -1       448 1.02082E-04 2.60891E-03 0.00000E+00
 -1       449 4.46320E-05 2.35669E-03 0.00000E+00
 -1       450 0.00000E+00 2.62466E-03 0.00000E+00
 -1       451 7.68828E-05 2.08260E-03 0.00000E+00
 -1       452 3.30521E-05 1.83679E-03 0.00000E+00
 -1       453 0.00000E+00 2.09086E-03 0.00000E+00
 -1       454 5.56167E-05 1.57381E-03 0.00000E+00
 -1       455 2.30480E-05 1.32955E-03 0.00000E+00
 -1       456 0.00000E+00 1.57802E-03 0.00000E+00
 -1       457 3.66169E-05 1.06883E-03 0.00000E+00
 -1       458 1.38562E-05 8.20248E-04 0.00000E+00
 -1       459 0.00000E+00 1.07083E-03 0.00000E+00
 -1       460 1.85931E-05 5.53068E-04 0.00000E+00
 -1       461 4.87194E-06 2.92447E-04 0.00000E+00
 -1       462 0.00000E+00 5.53846E-04 0.00000E+00
 -1       463 4.86958E-06 1.45908E-04 0.00000E+00
 -1       464 0.00000E+00 1.46093E-04 0.00000E+00
 -1       465-9.78287E-04 5.22670E-03 0.00000E+00
 -1       466-2.91297E-04 4.60711E-03 0.00000E+00
 -1       467 2.48060E-04 5.45112E-03 0.00000E+00
 -1       468 3.60395E-04 4.76504E-03 0.00000E+00
 -1       469 4.53282E-04 5.18768E-03 0.00000E+00
 -1       470 4.78241E-04 4.55626E-03 0.00000E+00
 -1       471 3.79583E-04 4.61850E-03 0.00000E+00
 -1       472 4.22384E-04 4.11285E-03 0.00000E+00
 -1       473 2.99087E-04 4.00361E-03 0.00000E+00
 -1       474 3.41657E-04 3.59704E-03 0.00000E+00
 -1       475 2.31262E-04 3.41390E-03 0.00000E+00
 -1       476 2.69420E-04 3.07182E-03 0.00000E+00
 -1       477 1.78709E-04 2.85878E-03 0.00000E+00
 -1       478 2.09317E-04 2.55746E-03 0.00000E+00
 -1       479 1.36637E-04 2.33213E-03 0.00000E+00
 -1       480 1.59026E-04 2.05526E-03 0.00000E+00
 -1       481 1.01627E-04 1.82396E-03 0.00000E+00
 -1       482 1.15549E-04 1.55980E-03 0.00000E+00
 -1       483 7.10027E-05 1.32315E-03 0.00000E+00
 -1       484 7.62448E-05 1.06216E-03 0.00000E+00
 -1       485 4.27300E-05 8.17383E-04 0.00000E+00
 -1       486 3.87548E-05 5.50460E-04 0.00000E+00
 -1       487 1.50303E-05 2.91614E-04 0.00000E+00
 -1       488 1.01532E-05 1.45289E-04 0.00000E+00
 -1       489-7.26969E-04 3.97133E-03 0.00000E+00
 -1       490-3.28303E-04 3.57819E-03 0.00000E+00
 -1       491 2.92080E-05 4.12623E-03 0.00000E+00
 -1       492 2.21306E-04 3.72628E-03 0.00000E+00
 -1       493 4.31775E-04 4.20808E-03 0.00000E+00
 -1       494 4.86793E-04 3.77323E-03 0.00000E+00
 -1       495 5.06788E-04 4.03634E-03 0.00000E+00
 -1       496 5.31343E-04 3.61801E-03 0.00000E+00
 -1       497 4.55419E-04 3.67851E-03 0.00000E+00
 -1       498 4.78646E-04 3.30436E-03 0.00000E+00
 -1       499 3.76577E-04 3.23415E-03 0.00000E+00
 -1       500 3.99037E-04 2.90453E-03 0.00000E+00
 -1       501 3.00528E-04 2.75979E-03 0.00000E+00
 -1       502 3.19235E-04 2.46385E-03 0.00000E+00
 -1       503 2.33694E-04 2.27826E-03 0.00000E+00
 -1       504 2.46313E-04 2.00436E-03 0.00000E+00
 -1       505 1.75320E-04 1.79543E-03 0.00000E+00
 -1       506 1.80433E-04 1.53332E-03 0.00000E+00
 -1       507 1.23040E-04 1.30883E-03 0.00000E+00
 -1       508 1.19554E-04 1.04943E-03 0.00000E+00
 -1       509 7.42109E-05 8.10947E-04 0.00000E+00
 -1       510 6.08862E-05 5.45455E-04 0.00000E+00
 -1       511 2.61284E-05 2.89741E-04 0.00000E+00
 -1       512 1.59611E-05 1.44097E-04 0.00000E+00
 -1       513-5.91780E-04 3.08993E-03 0.00000E+00
 -1       514-2.77160E-04 2.80499E-03 0.00000E+00
 -1       515-5.19729E-05 3.22863E-03 0.00000E+00
 -1       516 1.52341E-04 2.95133E-03 0.00000E+00
 -1       517 3.47942E-04 3.36724E-03 0.00000E+00
 -1       518 4.48964E-04 3.06820E-03 0.00000E+00
 -1       519 5.34847E-04 3.39177E-03 0.00000E+00
 -1       520 5.75216E-04 3.07406E-03 0.00000E+00
 -1       521 5.56430E-04 3.24945E-03 0.00000E+00
 -1       522 5.75947E-04 2.93477E-03 0.00000E+00
 -1       523 4.99793E-04 2.97033E-03 0.00000E+00
 -1       524 5.12653E-04 2.67260E-03 0.00000E+00
 -1       525 4.17781E-04 2.60490E-03 0.00000E+00
 -1       526 4.26208E-04 2.32626E-03 0.00000E+00
 -1       527 3.33237E-04 2.19062E-03 0.00000E+00
 -1       528 3.36122E-04 1.92668E-03 0.00000E+00
 -1       529 2.53483E-04 1.74793E-03 0.00000E+00
 -1       530 2.49211E-04 1.49193E-03 0.00000E+00
 -1       531 1.79205E-04 1.28462E-03 0.00000E+00
 -1       532 1.66183E-04 1.02923E-03 0.00000E+00
 -1       533 1.08491E-04 7.99967E-04 0.00000E+00
 -1       534 8.48908E-05 5.37429E-04 0.00000E+00
 -1       535 3.82590E-05 2.86530E-04 0.00000E+00
 -1       536 2.22754E-05 1.42179E-04 0.00000E+00
 -1       537-4.32156E-04 2.42079E-03 0.00000E+00
 -1       538-1.75988E-04 2.20272E-03 0.00000E+00
 -1       539-3.46852E-05 2.54833E-03 0.00000E+00
 -1       540 1.57498E-04 2.33692E-03 0.00000E+00
 -1       541 3.06198E-04 2.69061E-03 0.00000E+00
 -1       542 4.28546E-04 2.47100E-03 0.00000E+00
 -1       543 5.26466E-04 2.78938E-03 0.00000E+00
 -1       544 5.90974E-04 2.55177E-03 0.00000E+00
 -1       545 6.11162E-04 2.78269E-03 0.00000E+00
 -1       546 6.40280E-04 2.53143E-03 0.00000E+00
 -1       547 5.94720E-04 2.64735E-03 0.00000E+00
 -1       548 6.06292E-04 2.39251E-03 0.00000E+00
 -1       549 5.23854E-04 2.39910E-03 0.00000E+00
 -1       550 5.25895E-04 2.14749E-03 0.00000E+00
 -1       551 4.31476E-04 2.06768E-03 0.00000E+00
 -1       552 4.25977E-04 1.82054E-03 0.00000E+00
 -1       553 3.34412E-04 1.67884E-03 0.00000E+00
 -1       554 3.20870E-04 1.43342E-03 0.00000E+00
 -1       555 2.38903E-04 1.24858E-03 0.00000E+00
 -1       556 2.15854E-04 9.99986E-04 0.00000E+00
 -1       557 1.45427E-04 7.83368E-04 0.00000E+00
 -1       558 1.10741E-04 5.25638E-04 0.00000E+00
 -1       559 5.14071E-05 2.81637E-04 0.00000E+00
 -1       560 2.90987E-05 1.39349E-04 0.00000E+00
 -1       561-2.63031E-04 1.88094E-03 0.00000E+00
 -1       562-4.38082E-05 1.70843E-03 0.00000E+00
 -1       563 3.79057E-05 2.00072E-03 0.00000E+00
 -1       564 2.14612E-04 1.83374E-03 0.00000E+00
 -1       565 3.14809E-04 2.13668E-03 0.00000E+00
 -1       566 4.44132E-04 1.96763E-03 0.00000E+00
 -1       567 5.27116E-04 2.26030E-03 0.00000E+00
 -1       568 6.08648E-04 2.07960E-03 0.00000E+00
 -1       569 6.43929E-04 2.32600E-03 0.00000E+00
 -1       570 6.86846E-04 2.12961E-03 0.00000E+00
 -1       571 6.65291E-04 2.29518E-03 0.00000E+00
 -1       572 6.82023E-04 2.08535E-03 0.00000E+00
 -1       573 6.15668E-04 2.15379E-03 0.00000E+00
 -1       574 6.15772E-04 1.93511E-03 0.00000E+00
 -1       575 5.25141E-04 1.91110E-03 0.00000E+00
 -1       576 5.13429E-04 1.68652E-03 0.00000E+00
 -1       577 4.16279E-04 1.58662E-03 0.00000E+00
 -1       578 3.94093E-04 1.35616E-03 0.00000E+00
 -1       579 3.01417E-04 1.19885E-03 0.00000E+00
 -1       580 2.68082E-04 9.60142E-04 0.00000E+00
 -1       581 1.84845E-04 7.59960E-04 0.00000E+00
 -1       582 1.38325E-04 5.09234E-04 0.00000E+00
 -1       583 6.55578E-05 2.74653E-04 0.00000E+00
 -1       584 3.64144E-05 1.35384E-04 0.00000E+00
 -1       585-8.23336E-05 1.43411E-03 0.00000E+00
 -1       586 1.10204E-04 1.29651E-03 0.00000E+00
 -1       587 1.47893E-04 1.54744E-03 0.00000E+00
 -1       588 3.09550E-04 1.41344E-03 0.00000E+00
 -1       589 3.67737E-04 1.67534E-03 0.00000E+00
 -1       590 4.95616E-04 1.54168E-03 0.00000E+00
 -1       591 5.53112E-04 1.80396E-03 0.00000E+00
 -1       592 6.43463E-04 1.66360E-03 0.00000E+00
 -1       593 6.76060E-04 1.90399E-03 0.00000E+00
 -1       594 7.30474E-04 1.75091E-03 0.00000E+00
 -1       595 7.21582E-04 1.94002E-03 0.00000E+00
 -1       596 7.46016E-04 1.77128E-03 0.00000E+00
 -1       597 6.94036E-04 1.88418E-03 0.00000E+00
 -1       598 6.95716E-04 1.69997E-03 0.00000E+00
 -1       599 6.12010E-04 1.72595E-03 0.00000E+00
 -1       600 5.96527E-04 1.52767E-03 0.00000E+00
 -1       601 4.97126E-04 1.47119E-03 0.00000E+00
 -1       602 4.67361E-04 1.25954E-03 0.00000E+00
 -1       603 3.65746E-04 1.13394E-03 0.00000E+00
 -1       604 3.22149E-04 9.08252E-04 0.00000E+00
 -1       605 2.26401E-04 7.28485E-04 0.00000E+00
 -1       606 1.67419E-04 4.87277E-04 0.00000E+00
 -1       607 8.06462E-05 2.65109E-04 0.00000E+00
 -1       608 4.41782E-05 1.30029E-04 0.00000E+00
 -1       609 1.08086E-04 1.06100E-03 0.00000E+00
 -1       610 2.80060E-04 9.52074E-04 0.00000E+00
 -1       611 2.83996E-04 1.16789E-03 0.00000E+00
 -1       612 4.31707E-04 1.06062E-03 0.00000E+00
 -1       613 4.54967E-04 1.28714E-03 0.00000E+00
 -1       614 5.77240E-04 1.18072E-03 0.00000E+00
 -1       615 6.07337E-04 1.41257E-03 0.00000E+00
 -1       616 6.99972E-04 1.30215E-03 0.00000E+00
 -1       617 7.19810E-04 1.52594E-03 0.00000E+00
 -1       618 7.81082E-04 1.40606E-03 0.00000E+00
 -1       619 7.74167E-04 1.60021E-03 0.00000E+00
 -1       620 8.05402E-04 1.46597E-03 0.00000E+00
 -1       621 7.62742E-04 1.60572E-03 0.00000E+00
 -1       622 7.67598E-04 1.45395E-03 0.00000E+00
 -1       623 6.91367E-04 1.51999E-03 0.00000E+00
 -1       624 6.74132E-04 1.34926E-03 0.00000E+00
 -1       625 5.75159E-04 1.33427E-03 0.00000E+00
 -1       626 5.39094E-04 1.14411E-03 0.00000E+00
 -1       627 4.30635E-04 1.05290E-03 0.00000E+00
 -1       628 3.77084E-04 8.43142E-04 0.00000E+00
 -1       629 2.69547E-04 6.87687E-04 0.00000E+00
 -1       630 1.97654E-04 4.58757E-04 0.00000E+00
 -1       631 9.65381E-05 2.52470E-04 0.00000E+00
 -1       632 5.23075E-05 1.22992E-04 0.00000E+00
 -1       633 3.05871E-04 7.51353E-04 0.00000E+00
 -1       634 4.60329E-04 6.67344E-04 0.00000E+00
 -1       635 4.38306E-04 8.50997E-04 0.00000E+00
 -1       636 5.72685E-04 7.66651E-04 0.00000E+00
 -1       637 5.67754E-04 9.60860E-04 0.00000E+00
 -1       638 6.81883E-04 8.76829E-04 0.00000E+00
 -1       639 6.86627E-04 1.07889E-03 0.00000E+00
 -1       640 7.76775E-04 9.91859E-04 0.00000E+00
 -1       641 7.79707E-04 1.19385E-03 0.00000E+00
 -1       642 8.43005E-04 1.09950E-03 0.00000E+00
 -1       643 8.30547E-04 1.28660E-03 0.00000E+00
 -1       644 8.65717E-04 1.18000E-03 0.00000E+00
 -1       645 8.26524E-04 1.33153E-03 0.00000E+00
 -1       646 8.34142E-04 1.20795E-03 0.00000E+00
 -1       647 7.63864E-04 1.30221E-03 0.00000E+00
 -1       648 7.45906E-04 1.15785E-03 0.00000E+00
 -1       649 6.48980E-04 1.17924E-03 0.00000E+00
 -1       650 6.07772E-04 1.01170E-03 0.00000E+00
 -1       651 4.94634E-04 9.55545E-04 0.00000E+00
 -1       652 4.31662E-04 7.64060E-04 0.00000E+00
 -1       653 3.13487E-04 6.36386E-04 0.00000E+00
 -1       654 2.28476E-04 4.22642E-04 0.00000E+00
 -1       655 1.13004E-04 2.36148E-04 0.00000E+00
 -1       656 6.06680E-05 1.13950E-04 0.00000E+00
 -1       657 5.07055E-04 4.99642E-04 0.00000E+00
 -1       658 6.44951E-04 4.38048E-04 0.00000E+00
 -1       659 6.03762E-04 5.90676E-04 0.00000E+00
 -1       660 7.24515E-04 5.26681E-04 0.00000E+00
 -1       661 6.97860E-04 6.89899E-04 0.00000E+00
 -1       662 8.01780E-04 6.25053E-04 0.00000E+00
 -1       663 7.85195E-04 7.97636E-04 0.00000E+00
 -1       664 8.69151E-04 7.29595E-04 0.00000E+00
 -1       665 8.55057E-04 9.06950E-04 0.00000E+00
 -1       666 9.16006E-04 8.32458E-04 0.00000E+00
 -1       667 8.94146E-04 1.00482E-03 0.00000E+00
 -1       668 9.29602E-04 9.19667E-04 0.00000E+00
 -1       669 8.89140E-04 1.07129E-03 0.00000E+00
 -1       670 8.97606E-04 9.70602E-04 0.00000E+00
 -1       671 8.30806E-04 1.08139E-03 0.00000E+00
 -1       672 8.11942E-04 9.60268E-04 0.00000E+00
 -1       673 7.17631E-04 1.01068E-03 0.00000E+00
 -1       674 6.71979E-04 8.65136E-04 0.00000E+00
 -1       675 5.56171E-04 8.42535E-04 0.00000E+00
 -1       676 4.84401E-04 6.70770E-04 0.00000E+00
 -1       677 3.57152E-04 5.73573E-04 0.00000E+00
 -1       678 2.59099E-04 3.77934E-04 0.00000E+00
 -1       679 1.29692E-04 2.15511E-04 0.00000E+00
 -1       680 6.90575E-05 1.02560E-04 0.00000E+00
 -1       681 7.05827E-04 3.02892E-04 0.00000E+00
 -1       682 8.26316E-04 2.61659E-04 0.00000E+00
 -1       683 7.72766E-04 3.83466E-04 0.00000E+00
 -1       684 8.78524E-04 3.37701E-04 0.00000E+00
 -1       685 8.36845E-04 4.70305E-04 0.00000E+00
 -1       686 9.28258E-04 4.22059E-04 0.00000E+00
 -1       687 8.95694E-04 5.65118E-04 0.00000E+00
 -1       688 9.70161E-04 5.12630E-04 0.00000E+00
 -1       689 9.41702E-04 6.63628E-04 0.00000E+00
 -1       690 9.96356E-04 6.04451E-04 0.00000E+00
 -1       691 9.64554E-04 7.57191E-04 0.00000E+00
 -1       692 9.96486E-04 6.88002E-04 0.00000E+00
 -1       693 9.52176E-04 8.31212E-04 0.00000E+00
 -1       694 9.58705E-04 7.47807E-04 0.00000E+00
 -1       695 8.93175E-04 8.64853E-04 0.00000E+00
 -1       696 8.72140E-04 7.62449E-04 0.00000E+00
 -1       697 7.80376E-04 8.33574E-04 0.00000E+00
 -1       698 7.30299E-04 7.07693E-04 0.00000E+00
 -1       699 6.13583E-04 7.15269E-04 0.00000E+00
 -1       700 5.33549E-04 5.63534E-04 0.00000E+00
 -1       701 3.99170E-04 4.98489E-04 0.00000E+00
 -1       702 2.88460E-04 3.23743E-04 0.00000E+00
 -1       703 1.46094E-04 1.89915E-04 0.00000E+00
 -1       704 7.71867E-05 8.84797E-05 0.00000E+00
 -1       705 8.93981E-04 1.59006E-04 0.00000E+00
 -1       706 9.94578E-04 1.35796E-04 0.00000E+00
 -1       707 9.36228E-04 2.26834E-04 0.00000E+00
 -1       708 1.02444E-03 1.96939E-04 0.00000E+00
 -1       709 9.75205E-04 2.99104E-04 0.00000E+00
 -1       710 1.05120E-03 2.64724E-04 0.00000E+00
 -1       711 1.00928E-03 3.78242E-04 0.00000E+00
 -1       712 1.07090E-03 3.37943E-04 0.00000E+00
 -1       713 1.03290E-03 4.61648E-04 0.00000E+00
 -1       714 1.07752E-03 4.13544E-04 0.00000E+00
 -1       715 1.03808E-03 5.43731E-04 0.00000E+00
 -1       716 1.06274E-03 4.85321E-04 0.00000E+00
 -1       717 1.01455E-03 6.14369E-04 0.00000E+00
 -1       718 1.01599E-03 5.42462E-04 0.00000E+00
 -1       719 9.50759E-04 6.57679E-04 0.00000E+00
 -1       720 9.25539E-04 5.68525E-04 0.00000E+00
 -1       721 8.36269E-04 6.52387E-04 0.00000E+00
 -1       722 7.81082E-04 5.42353E-04 0.00000E+00
 -1       723 6.65059E-04 5.75555E-04 0.00000E+00
 -1       724 5.77048E-04 4.42941E-04 0.00000E+00
 -1       725 4.37845E-04 4.10673E-04 0.00000E+00
 -1       726 3.15159E-04 2.59361E-04 0.00000E+00
 -1       727 1.61517E-04 1.58741E-04 0.00000E+00
 -1       728 8.46579E-05 7.13965E-05 0.00000E+00
 -1       729 1.06041E-03 6.51785E-05 0.00000E+00
 -1       730 1.13705E-03 5.65328E-05 0.00000E+00
 -1       731 1.08283E-03 1.17581E-04 0.00000E+00
 -1       732 1.14971E-03 1.00185E-04 0.00000E+00
 -1       733 1.10166E-03 1.72742E-04 0.00000E+00
 -1       734 1.15854E-03 1.48547E-04 0.00000E+00
 -1       735 1.11536E-03 2.33240E-04 0.00000E+00
 -1       736 1.16041E-03 2.00973E-04 0.00000E+00
 -1       737 1.11964E-03 2.97554E-04 0.00000E+00
 -1       738 1.15052E-03 2.55711E-04 0.00000E+00
 -1       739 1.10823E-03 3.62243E-04 0.00000E+00
 -1       740 1.12201E-03 3.09035E-04 0.00000E+00
 -1       741 1.07248E-03 4.20744E-04 0.00000E+00
 -1       742 1.06561E-03 3.54128E-04 0.00000E+00
 -1       743 1.00157E-03 4.62058E-04 0.00000E+00
 -1       744 9.69771E-04 3.79931E-04 0.00000E+00
 -1       745 8.83643E-04 4.70054E-04 0.00000E+00
 -1       746 8.22106E-04 3.70899E-04 0.00000E+00
 -1       747 7.08474E-04 4.25058E-04 0.00000E+00
 -1       748 6.12440E-04 3.09569E-04 0.00000E+00
 -1       749 4.71114E-04 3.09939E-04 0.00000E+00
 -1       750 3.37400E-04 1.84341E-04 0.00000E+00
 -1       751 1.75049E-04 1.21476E-04 0.00000E+00
 -1       752 9.09436E-05 5.10790E-05 0.00000E+00
 -1       753 1.19071E-03 1.59469E-05 0.00000E+00
 -1       754 1.23788E-03 1.61700E-05 0.00000E+00
 -1       755 1.19856E-03 4.99156E-05 0.00000E+00
 -1       756 1.23911E-03 3.95791E-05 0.00000E+00
 -1       757 1.20270E-03 8.51895E-05 0.00000E+00
 -1       758 1.23594E-03 6.54972E-05 0.00000E+00
 -1       759 1.20129E-03 1.23904E-04 0.00000E+00
 -1       760 1.22569E-03 9.36505E-05 0.00000E+00
 -1       761 1.19083E-03 1.65271E-04 0.00000E+00
 -1       762 1.20423E-03 1.23228E-04 0.00000E+00
 -1       763 1.16610E-03 2.07417E-04 0.00000E+00
 -1       764 1.16563E-03 1.52457E-04 0.00000E+00
 -1       765 1.11968E-03 2.46645E-04 0.00000E+00
 -1       766 1.10152E-03 1.77994E-04 0.00000E+00
 -1       767 1.04161E-03 2.76484E-04 0.00000E+00
 -1       768 1.00082E-03 1.94198E-04 0.00000E+00
 -1       769 9.19698E-04 2.86860E-04 0.00000E+00
 -1       770 8.50250E-04 1.92696E-04 0.00000E+00
 -1       771 7.41152E-04 2.64452E-04 0.00000E+00
 -1       772 6.36740E-04 1.63348E-04 0.00000E+00
 -1       773 4.96477E-04 1.96217E-04 0.00000E+00
 -1       774 3.52948E-04 9.84670E-05 0.00000E+00
 -1       775 1.85538E-04 7.77936E-05 0.00000E+00
 -1       776 9.53731E-05 2.74180E-05 0.00000E+00
 -1       777 1.26710E-03 6.03210E-07 0.00000E+00
 -1       778 1.27752E-03 0.00000E+00 0.00000E+00
 -1       779 1.26665E-03 1.26782E-05 0.00000E+00
 -1       780 1.27441E-03 0.00000E+00 0.00000E+00
 -1       781 1.26253E-03 2.49854E-05 0.00000E+00
 -1       782 1.26665E-03 0.00000E+00 0.00000E+00
 -1       783 1.25255E-03 3.84937E-05 0.00000E+00
 -1       784 1.25174E-03 0.00000E+00 0.00000E+00
 -1       785 1.23358E-03 5.29613E-05 0.00000E+00
 -1       786 1.22577E-03 0.00000E+00 0.00000E+00
 -1       787 1.20094E-03 6.77908E-05 0.00000E+00
 -1       788 1.18313E-03 0.00000E+00 0.00000E+00
 -1       789 1.14787E-03 8.17826E-05 0.00000E+00
 -1       790 1.11583E-03 0.00000E+00 0.00000E+00
 -1       791 1.06502E-03 9.27897E-05 0.00000E+00
 -1       792 1.01301E-03 0.00000E+00 0.00000E+00
 -1       793 9.40222E-04 9.73674E-05 0.00000E+00
 -1       794 8.61142E-04 0.00000E+00 0.00000E+00
 -1       795 7.59532E-04 9.07624E-05 0.00000E+00
 -1       796 6.46131E-04 0.00000E+00 0.00000E+00
 -1       797 5.10846E-04 6.80351E-05 0.00000E+00
 -1       798 3.59018E-04 0.00000E+00 0.00000E+00
 -1       799 1.91553E-04 2.71605E-05 0.00000E+00
 -1       800 9.71102E-05 0.00000E+00 0.00000E+00
 -1       801-6.54721E-03 4.28600E-02 0.00000E+00
 -1       802-6.17203E-03 4.11398E-02 0.00000E+00
 -1       803-5.80266E-03 4.28603E-02 0.00000E+00
 -1       804-6.17435E-03 4.45654E-02 0.00000E+00
 -1       805-5.38763E-03 4.11390E-02 0.00000E+00
 -1       806-4.98621E-03 4.28609E-02 0.00000E+00
 -1       807-5.39557E-03 4.45654E-02 0.00000E+00
 -1       808-4.53195E-03 4.11386E-02 0.00000E+00
 -1       809-4.09293E-03 4.28631E-02 0.00000E+00
 -1       810-4.54034E-03 4.45647E-02 0.00000E+00
 -1       811-3.59956E-03 4.11405E-02 0.00000E+00
 -1       812-3.11751E-03 4.28684E-02 0.00000E+00
 -1       813-3.60406E-03 4.45645E-02 0.00000E+00
 -1       814-2.58414E-03 4.11471E-02 0.00000E+00
 -1       815-2.05333E-03 4.28792E-02 0.00000E+00
 -1       816-2.58074E-03 4.45673E-02 0.00000E+00
 -1       817-1.47779E-03 4.11610E-02 0.00000E+00
 -1       818-8.91663E-04 4.28986E-02 0.00000E+00
 -1       819-1.46273E-03 4.45768E-02 0.00000E+00
 -1       820-2.70073E-04 4.11857E-02 0.00000E+00
 -1       821 3.79351E-04 4.29302E-02 0.00000E+00
 -1       822-2.39915E-04 4.45980E-02 0.00000E+00
 -1       823 1.05326E-03 4.12250E-02 0.00000E+00
 -1       824 1.77584E-03 4.29784E-02 0.00000E+00
 -1       825 1.10122E-03 4.46368E-02 0.00000E+00
 -1       826 2.51157E-03 4.12832E-02 0.00000E+00
 -1       827 3.31912E-03 4.30471E-02 0.00000E+00
 -1       828 2.57858E-03 4.46986E-02 0.00000E+00
 -1       829 4.13012E-03 4.13643E-02 0.00000E+00
 -1       830 5.03537E-03 4.31389E-02 0.00000E+00
 -1       831 4.21471E-03 4.47867E-02 0.00000E+00
 -1       832 5.93923E-03 4.14705E-02 0.00000E+00
 -1       833 6.95046E-03 4.32532E-02 0.00000E+00
 -1       834 6.03462E-03 4.48986E-02 0.00000E+00
 -1       835 7.44953E-03 4.15650E-02 0.00000E+00
 -1       836 8.04410E-03 4.33203E-02 0.00000E+00
 -1       837 7.54058E-03 4.49933E-02 0.00000E+00
 -1       838-6.53932E-03 3.95977E-02 0.00000E+00
 -1       839-6.13249E-03 3.80357E-02 0.00000E+00
 -1       840-5.78350E-03 3.95941E-02 0.00000E+00
 -1       841-5.34069E-03 3.80280E-02 0.00000E+00
 -1       842-4.96248E-03 3.95902E-02 0.00000E+00
 -1       843-4.48466E-03 3.80203E-02 0.00000E+00
 -1       844-4.07095E-03 3.95874E-02 0.00000E+00
 -1       845-3.55879E-03 3.80147E-02 0.00000E+00
 -1       846-3.10290E-03 3.95880E-02 0.00000E+00
 -1       847-2.55647E-03 3.80140E-02 0.00000E+00
 -1       848-2.05104E-03 3.95948E-02 0.00000E+00
 -1       849-1.46934E-03 3.80216E-02 0.00000E+00
 -1       850-9.06046E-04 3.96111E-02 0.00000E+00
 -1       851-2.86248E-04 3.80417E-02 0.00000E+00
 -1       852 3.44636E-04 3.96410E-02 0.00000E+00
 -1       853 1.00813E-03 3.80793E-02 0.00000E+00
 -1       854 1.71821E-03 3.96891E-02 0.00000E+00
 -1       855 2.43514E-03 3.81400E-02 0.00000E+00
 -1       856 3.23805E-03 3.97602E-02 0.00000E+00
 -1       857 4.02417E-03 3.82288E-02 0.00000E+00
 -1       858 4.93485E-03 3.98581E-02 0.00000E+00
 -1       859 5.81474E-03 3.83483E-02 0.00000E+00
 -1       860 6.84648E-03 3.99825E-02 0.00000E+00
 -1       861 7.33079E-03 3.84558E-02 0.00000E+00
 -1       862 7.95462E-03 4.00554E-02 0.00000E+00
 -1       863-6.47142E-03 3.66122E-02 0.00000E+00
 -1       864-6.02062E-03 3.51702E-02 0.00000E+00
 -1       865-5.70833E-03 3.65999E-02 0.00000E+00
 -1       866-5.22926E-03 3.51519E-02 0.00000E+00
 -1       867-4.88637E-03 3.65870E-02 0.00000E+00
 -1       868-4.38019E-03 3.51339E-02 0.00000E+00
 -1       869-4.00090E-03 3.65754E-02 0.00000E+00
 -1       870-3.46856E-03 3.51182E-02 0.00000E+00
 -1       871-3.04620E-03 3.65672E-02 0.00000E+00
 -1       872-2.48826E-03 3.51080E-02 0.00000E+00
 -1       873-2.01499E-03 3.65659E-02 0.00000E+00
 -1       874-1.43114E-03 3.51073E-02 0.00000E+00
 -1       875-8.97628E-04 3.65756E-02 0.00000E+00
 -1       876-2.85760E-04 3.51213E-02 0.00000E+00
 -1       877 3.19241E-04 3.66015E-02 0.00000E+00
 -1       878 9.64286E-04 3.51562E-02 0.00000E+00
 -1       879 1.65446E-03 3.66496E-02 0.00000E+00
 -1       880 2.34286E-03 3.52193E-02 0.00000E+00
 -1       881 3.13480E-03 3.67261E-02 0.00000E+00
 -1       882 3.88466E-03 3.53172E-02 0.00000E+00
 -1       883 4.79790E-03 3.68360E-02 0.00000E+00
 -1       884 5.63955E-03 3.54540E-02 0.00000E+00
 -1       885 6.69603E-03 3.69793E-02 0.00000E+00
 -1       886 7.14729E-03 3.55809E-02 0.00000E+00
 -1       887 7.81358E-03 3.70650E-02 0.00000E+00
 -1       888-6.31896E-03 3.38737E-02 0.00000E+00
 -1       889-5.82629E-03 3.25565E-02 0.00000E+00
 -1       890-5.55821E-03 3.38496E-02 0.00000E+00
 -1       891-5.04533E-03 3.25255E-02 0.00000E+00
 -1       892-4.74453E-03 3.38252E-02 0.00000E+00
 -1       893-4.21300E-03 3.24949E-02 0.00000E+00
 -1       894-3.87424E-03 3.38022E-02 0.00000E+00
 -1       895-3.32547E-03 3.24672E-02 0.00000E+00
 -1       896-2.94241E-03 3.37832E-02 0.00000E+00
 -1       897-2.37760E-03 3.24457E-02 0.00000E+00
 -1       898-1.94243E-03 3.37720E-02 0.00000E+00
 -1       899-1.36197E-03 3.24351E-02 0.00000E+00
 -1       900-8.64920E-04 3.37736E-02 0.00000E+00
 -1       901-2.67460E-04 3.24415E-02 0.00000E+00
 -1       902 3.03823E-04 3.37942E-02 0.00000E+00
 -1       903 9.22949E-04 3.24725E-02 0.00000E+00
 -1       904 1.58419E-03 3.38414E-02 0.00000E+00
 -1       905 2.23539E-03 3.25373E-02 0.00000E+00
 -1       906 3.00662E-03 3.39233E-02 0.00000E+00
 -1       907 3.70975E-03 3.26448E-02 0.00000E+00
 -1       908 4.61621E-03 3.40469E-02 0.00000E+00
 -1       909 5.40596E-03 3.28018E-02 0.00000E+00
 -1       910 6.47881E-03 3.42143E-02 0.00000E+00
 -1       911 6.88539E-03 3.29526E-02 0.00000E+00
 -1       912 7.59203E-03 3.43177E-02 0.00000E+00
 -1       913-6.07962E-03 3.13943E-02 0.00000E+00
 -1       914-5.55338E-03 3.02053E-02 0.00000E+00
 -1       915-5.33111E-03 3.13569E-02 0.00000E+00
 -1       916-4.79203E-03 3.01605E-02 0.00000E+00
 -1       917-4.53544E-03 3.13192E-02 0.00000E+00
 -1       918-3.98551E-03 3.01162E-02 0.00000E+00
 -1       919-3.68998E-03 3.12832E-02 0.00000E+00
 -1       920-3.13122E-03 3.00751E-02 0.00000E+00
 -1       921-2.79095E-03 3.12517E-02 0.00000E+00
 -1       922-2.22537E-03 3.00409E-02 0.00000E+00
 -1       923-1.83282E-03 3.12291E-02 0.00000E+00
 -1       924-1.26183E-03 3.00188E-02 0.00000E+00
 -1       925-8.07085E-04 3.12210E-02 0.00000E+00
 -1       926-2.30416E-04 3.00162E-02 0.00000E+00
 -1       927 2.99728E-04 3.12349E-02 0.00000E+00
 -1       928 8.85861E-04 3.00422E-02 0.00000E+00
 -1       929 1.50901E-03 3.12801E-02 0.00000E+00
 -1       930 2.11482E-03 3.01081E-02 0.00000E+00
 -1       931 2.85445E-03 3.13672E-02 0.00000E+00
 -1       932 3.50099E-03 3.02258E-02 0.00000E+00
 -1       933 4.38818E-03 3.15059E-02 0.00000E+00
 -1       934 5.11384E-03 3.04052E-02 0.00000E+00
 -1       935 6.18914E-03 3.17014E-02 0.00000E+00
 -1       936 6.54359E-03 3.05833E-02 0.00000E+00
 -1       937 7.28252E-03 3.18259E-02 0.00000E+00
 -1       938-5.76219E-03 2.91794E-02 0.00000E+00
 -1       939-5.21322E-03 2.81169E-02 0.00000E+00
 -1       940-5.03440E-03 2.91279E-02 0.00000E+00
 -1       941-4.47866E-03 2.80579E-02 0.00000E+00
 -1       942-4.26497E-03 2.90761E-02 0.00000E+00
 -1       943-3.70486E-03 2.79994E-02 0.00000E+00
 -1       944-3.45248E-03 2.90261E-02 0.00000E+00
 -1       945-2.89084E-03 2.79440E-02 0.00000E+00
 -1       946-2.59464E-03 2.89810E-02 0.00000E+00
 -1       947-2.03467E-03 2.78961E-02 0.00000E+00
 -1       948-1.68755E-03 2.89456E-02 0.00000E+00
 -1       949-1.13213E-03 2.78616E-02 0.00000E+00
 -1       950-7.24163E-04 2.89265E-02 0.00000E+00
 -1       951-1.74557E-04 2.78493E-02 0.00000E+00
 -1       952 3.08113E-04 2.89327E-02 0.00000E+00
 -1       953 8.54441E-04 2.78701E-02 0.00000E+00
 -1       954 1.43106E-03 2.89755E-02 0.00000E+00
 -1       955 1.98385E-03 2.79376E-02 0.00000E+00
 -1       956 2.68102E-03 2.90679E-02 0.00000E+00
 -1       957 3.26223E-03 2.80665E-02 0.00000E+00
 -1       958 4.11654E-03 2.92230E-02 0.00000E+00
 -1       959 4.76773E-03 2.82704E-02 0.00000E+00
 -1       960 5.82910E-03 2.94497E-02 0.00000E+00
 -1       961 6.12658E-03 2.84783E-02 0.00000E+00
 -1       962 6.88696E-03 2.95978E-02 0.00000E+00
 -1       963-5.38132E-03 2.72232E-02 0.00000E+00
 -1       964-4.82077E-03 2.62809E-02 0.00000E+00
 -1       965-4.68041E-03 2.71578E-02 0.00000E+00
 -1       966-4.11732E-03 2.62080E-02 0.00000E+00
 -1       967-3.94290E-03 2.70918E-02 0.00000E+00
 -1       968-3.38031E-03 2.61351E-02 0.00000E+00
 -1       969-3.16898E-03 2.70274E-02 0.00000E+00
 -1       970-2.61099E-03 2.60652E-02 0.00000E+00
 -1       971-2.35843E-03 2.69680E-02 0.00000E+00
 -1       972-1.81003E-03 2.60032E-02 0.00000E+00
 -1       973-1.50960E-03 2.69191E-02 0.00000E+00
 -1       974-9.75725E-04 2.59564E-02 0.00000E+00
 -1       975-6.17502E-04 2.68887E-02 0.00000E+00
 -1       976-1.01347E-04 2.59352E-02 0.00000E+00
 -1       977 3.29107E-04 2.68875E-02 0.00000E+00
 -1       978 8.28793E-04 2.59526E-02 0.00000E+00
 -1       979 1.35205E-03 2.69288E-02 0.00000E+00
 -1       980 1.84469E-03 2.60241E-02 0.00000E+00
 -1       981 2.48985E-03 2.70281E-02 0.00000E+00
 -1       982 2.99828E-03 2.61668E-02 0.00000E+00
 -1       983 3.80661E-03 2.72013E-02 0.00000E+00
 -1       984 4.37501E-03 2.63972E-02 0.00000E+00
 -1       985 5.40530E-03 2.74615E-02 0.00000E+00
 -1       986 5.64283E-03 2.66367E-02 0.00000E+00
 -1       987 6.41216E-03 2.76352E-02 0.00000E+00
 -1       988-4.95431E-03 2.55105E-02 0.00000E+00
 -1       989-4.39193E-03 2.46776E-02 0.00000E+00
 -1       990-4.28330E-03 2.54319E-02 0.00000E+00
 -1       991-3.72048E-03 2.45915E-02 0.00000E+00
 -1       992-3.58024E-03 2.53520E-02 0.00000E+00
 -1       993-3.02119E-03 2.45045E-02 0.00000E+00
 -1       994-2.84766E-03 2.52730E-02 0.00000E+00
 -1       995-2.29858E-03 2.44201E-02 0.00000E+00
 -1       996-2.08821E-03 2.51992E-02 0.00000E+00
 -1       997-1.55680E-03 2.43446E-02 0.00000E+00
 -1       998-1.30323E-03 2.51372E-02 0.00000E+00
 -1       999-7.97133E-04 2.42874E-02 0.00000E+00
 -1      1000-4.90176E-04 2.50970E-02 0.00000E+00
 -1      1001-1.45025E-05 2.42609E-02 0.00000E+00
 -1      1002 3.60913E-04 2.50910E-02 0.00000E+00
 -1      1003 8.06740E-04 2.42800E-02 0.00000E+00
 -1      1004 1.27214E-03 2.51345E-02 0.00000E+00
 -1      1005 1.69801E-03 2.43610E-02 0.00000E+00
 -1      1006 2.28405E-03 2.52444E-02 0.00000E+00
 -1      1007 2.71390E-03 2.45219E-02 0.00000E+00
 -1      1008 3.46503E-03 2.54386E-02 0.00000E+00
 -1      1009 3.94472E-03 2.47814E-02 0.00000E+00
 -1      1010 4.92720E-03 2.57343E-02 0.00000E+00
 -1      1011 5.10353E-03 2.50535E-02 0.00000E+00
 -1      1012 5.86815E-03 2.59347E-02 0.00000E+00
 -1      1013-4.49864E-03 2.40176E-02 0.00000E+00
 -1      1014-3.94154E-03 2.32800E-02 0.00000E+00
 -1      1015-3.85685E-03 2.39268E-02 0.00000E+00
 -1      1016-3.29910E-03 2.31814E-02 0.00000E+00
 -1      1017-3.18731E-03 2.38334E-02 0.00000E+00
 -1      1018-2.63540E-03 2.30805E-02 0.00000E+00
 -1      1019-2.49611E-03 2.37401E-02 0.00000E+00
 -1      1020-1.95988E-03 2.29823E-02 0.00000E+00
 -1      1021-1.79002E-03 2.36525E-02 0.00000E+00
 -1      1022-1.28112E-03 2.28955E-02 0.00000E+00
 -1      1023-1.07397E-03 2.35795E-02 0.00000E+00
 -1      1024-6.03026E-04 2.28326E-02 0.00000E+00
 -1      1025-3.47551E-04 2.35336E-02 0.00000E+00
 -1      1026 7.93253E-05 2.28085E-02 0.00000E+00
 -1      1027 3.99025E-04 2.35292E-02 0.00000E+00
 -1      1028 7.83349E-04 2.28387E-02 0.00000E+00
 -1      1029 1.18921E-03 2.35823E-02 0.00000E+00
 -1      1030 1.54268E-03 2.29383E-02 0.00000E+00
 -1      1031 2.06555E-03 2.37095E-02 0.00000E+00
 -1      1032 2.41339E-03 2.31239E-02 0.00000E+00
 -1      1033 3.09890E-03 2.39290E-02 0.00000E+00
 -1      1034 3.48697E-03 2.34151E-02 0.00000E+00
 -1      1035 4.40639E-03 2.42614E-02 0.00000E+00
 -1      1036 4.52197E-03 2.37198E-02 0.00000E+00
 -1      1037 5.26755E-03 2.44889E-02 0.00000E+00
 -1      1038-4.03035E-03 2.27141E-02 0.00000E+00
 -1      1039-3.48200E-03 2.20549E-02 0.00000E+00
 -1      1040-3.41274E-03 2.26122E-02 0.00000E+00
 -1      1041-2.86116E-03 2.19444E-02 0.00000E+00
 -1      1042-2.77215E-03 2.25057E-02 0.00000E+00
 -1      1043-2.22837E-03 2.18297E-02 0.00000E+00
 -1      1044-2.12043E-03 2.23985E-02 0.00000E+00
 -1      1045-1.60040E-03 2.17190E-02 0.00000E+00
 -1      1046-1.46998E-03 2.22990E-02 0.00000E+00
 -1      1047-9.90571E-04 2.16261E-02 0.00000E+00
 -1      1048-8.29227E-04 2.22201E-02 0.00000E+00
 -1      1049-4.03143E-04 2.15675E-02 0.00000E+00
 -1      1050-1.97998E-04 2.21772E-02 0.00000E+00
 -1      1051 1.70205E-04 2.15591E-02 0.00000E+00
 -1      1052 4.35879E-04 2.21858E-02 0.00000E+00
 -1      1053 7.51300E-04 2.16144E-02 0.00000E+00
 -1      1054 1.09889E-03 2.22598E-02 0.00000E+00
 -1      1055 1.37637E-03 2.17444E-02 0.00000E+00
 -1      1056 1.83528E-03 2.24133E-02 0.00000E+00
 -1      1057 2.10077E-03 2.19620E-02 0.00000E+00
 -1      1058 2.71547E-03 2.26630E-02 0.00000E+00
 -1      1059 3.01245E-03 2.22871E-02 0.00000E+00
 -1      1060 3.85593E-03 2.30327E-02 0.00000E+00
 -1      1061 3.91305E-03 2.26229E-02 0.00000E+00
 -1      1062 4.62525E-03 2.32863E-02 0.00000E+00
 -1      1063-3.56307E-03 2.15643E-02 0.00000E+00
 -1      1064-3.02218E-03 2.09639E-02 0.00000E+00
 -1      1065-2.95927E-03 2.14524E-02 0.00000E+00
 -1      1066-2.41041E-03 2.08412E-02 0.00000E+00
 -1      1067-2.33938E-03 2.13326E-02 0.00000E+00
 -1      1068-1.80264E-03 2.07127E-02 0.00000E+00
 -1      1069-1.72491E-03 2.12121E-02 0.00000E+00
 -1      1070-1.22597E-03 2.05938E-02 0.00000E+00
 -1      1071-1.13510E-03 2.11055E-02 0.00000E+00
 -1      1072-6.96052E-04 2.05060E-02 0.00000E+00
 -1      1073-5.79479E-04 2.10313E-02 0.00000E+00
 -1      1074-2.11324E-04 2.04692E-02 0.00000E+00
 -1      1075-5.34792E-05 2.10067E-02 0.00000E+00
 -1      1076 2.45422E-04 2.04966E-02 0.00000E+00
 -1      1077 4.61348E-04 2.10449E-02 0.00000E+00
 -1      1078 7.02386E-04 2.05944E-02 0.00000E+00
 -1      1079 9.95723E-04 2.11545E-02 0.00000E+00
 -1      1080 1.19696E-03 2.07669E-02 0.00000E+00
 -1      1081 1.59393E-03 2.13442E-02 0.00000E+00
 -1      1082 1.78036E-03 2.10228E-02 0.00000E+00
 -1      1083 2.32211E-03 2.16284E-02 0.00000E+00
 -1      1084 2.53194E-03 2.13823E-02 0.00000E+00
 -1      1085 3.28969E-03 2.20343E-02 0.00000E+00
 -1      1086 3.29227E-03 2.17466E-02 0.00000E+00
 -1      1087 3.95774E-03 2.23122E-02 0.00000E+00
 -1      1088-3.10766E-03 2.05272E-02 0.00000E+00
 -1      1089-2.56644E-03 1.99618E-02 0.00000E+00
 -1      1090-2.49993E-03 2.04055E-02 0.00000E+00
 -1      1091-1.94477E-03 1.98259E-02 0.00000E+00
 -1      1092-1.88949E-03 2.02715E-02 0.00000E+00
 -1      1093-1.35848E-03 1.96847E-02 0.00000E+00
 -1      1094-1.31310E-03 2.01406E-02 0.00000E+00
 -1      1095-8.45942E-04 1.95691E-02 0.00000E+00
 -1      1096-7.95772E-04 2.00383E-02 0.00000E+00
 -1      1097-4.14654E-04 1.95095E-02 0.00000E+00
 -1      1098-3.40134E-04 1.99887E-02 0.00000E+00
 -1      1099-4.57495E-05 1.95229E-02 0.00000E+00
 -1      1100 7.06479E-05 2.00060E-02 0.00000E+00
 -1      1101 2.91496E-04 1.96108E-02 0.00000E+00
 -1      1102 4.64503E-04 2.00946E-02 0.00000E+00
 -1      1103 6.29972E-04 1.97684E-02 0.00000E+00
 -1      1104 8.75037E-04 2.02544E-02 0.00000E+00
 -1      1105 1.00421E-03 1.99927E-02 0.00000E+00
 -1      1106 1.34312E-03 2.04884E-02 0.00000E+00
 -1      1107 1.45728E-03 2.02897E-02 0.00000E+00
 -1      1108 1.92640E-03 2.08092E-02 0.00000E+00
 -1      1109 2.05576E-03 2.06819E-02 0.00000E+00
 -1      1110 2.72136E-03 2.12485E-02 0.00000E+00
 -1      1111 2.67458E-03 2.10707E-02 0.00000E+00
 -1      1112 3.28203E-03 2.15476E-02 0.00000E+00
 -1      1113-2.67171E-03 1.95542E-02 0.00000E+00
 -1      1114-2.11267E-03 1.89951E-02 0.00000E+00
 -1      1115-2.03139E-03 1.94215E-02 0.00000E+00
 -1      1116-1.45521E-03 1.88405E-02 0.00000E+00
 -1      1117-1.41773E-03 1.92718E-02 0.00000E+00
 -1      1118-8.98516E-04 1.86949E-02 0.00000E+00
 -1      1119-8.91615E-04 1.91408E-02 0.00000E+00
 -1      1120-4.80144E-04 1.86128E-02 0.00000E+00
 -1      1121-4.70314E-04 1.90692E-02 0.00000E+00
 -1      1122-1.72300E-04 1.86248E-02 0.00000E+00
 -1      1123-1.32779E-04 1.90785E-02 0.00000E+00
 -1      1124 7.34529E-05 1.87262E-02 0.00000E+00
 -1      1125 1.57789E-04 1.91680E-02 0.00000E+00
 -1      1126 2.97996E-04 1.88989E-02 0.00000E+00
 -1      1127 4.36673E-04 1.93274E-02 0.00000E+00
 -1      1128 5.31617E-04 1.91276E-02 0.00000E+00
 -1      1129 7.35126E-04 1.95481E-02 0.00000E+00
 -1      1130 8.00735E-04 1.94065E-02 0.00000E+00
 -1      1131 1.08623E-03 1.98296E-02 0.00000E+00
 -1      1132 1.13738E-03 1.97430E-02 0.00000E+00
 -1      1133 1.53587E-03 2.01857E-02 0.00000E+00
 -1      1134 1.59313E-03 2.01637E-02 0.00000E+00
 -1      1135 2.16347E-03 2.06540E-02 0.00000E+00
 -1      1136 2.07319E-03 2.05722E-02 0.00000E+00
 -1      1137 2.61422E-03 2.09705E-02 0.00000E+00
 -1      1138-2.26275E-03 1.85813E-02 0.00000E+00
 -1      1139-1.64538E-03 1.79741E-02 0.00000E+00
 -1      1140-1.54032E-03 1.84346E-02 0.00000E+00
 -1      1141-9.20880E-04 1.78072E-02 0.00000E+00
 -1      1142-9.20562E-04 1.82715E-02 0.00000E+00
 -1      1143-4.41206E-04 1.76918E-02 0.00000E+00
 -1      1144-4.79704E-04 1.81738E-02 0.00000E+00
 -1      1145-1.69182E-04 1.77168E-02 0.00000E+00
 -1      1146-1.90484E-04 1.81879E-02 0.00000E+00
 -1      1147-1.25006E-06 1.78661E-02 0.00000E+00
 -1      1148 1.71669E-05 1.83048E-02 0.00000E+00
 -1      1149 1.30921E-04 1.80917E-02 0.00000E+00
 -1      1150 1.95106E-04 1.84961E-02 0.00000E+00
 -1      1151 2.61974E-04 1.83620E-02 0.00000E+00
 -1      1152 3.74842E-04 1.87389E-02 0.00000E+00
 -1      1153 4.10504E-04 1.86618E-02 0.00000E+00
 -1      1154 5.78473E-04 1.90224E-02 0.00000E+00
 -1      1155 5.91870E-04 1.89903E-02 0.00000E+00
 -1      1156 8.28384E-04 1.93486E-02 0.00000E+00
 -1      1157 8.26748E-04 1.93599E-02 0.00000E+00
 -1      1158 1.15756E-03 1.97354E-02 0.00000E+00
 -1      1159 1.15160E-03 1.98030E-02 0.00000E+00
 -1      1160 1.62651E-03 2.02268E-02 0.00000E+00
 -1      1161 1.49872E-03 2.02262E-02 0.00000E+00
 -1      1162 1.96817E-03 2.05566E-02 0.00000E+00
 -1      1163-1.86998E-03 1.75052E-02 0.00000E+00
 -1      1164-1.13338E-03 1.68000E-02 0.00000E+00
 -1      1165-9.85553E-04 1.73345E-02 0.00000E+00
 -1      1166-3.40810E-04 1.65879E-02 0.00000E+00
 -1      1167-4.01200E-04 1.71903E-02 0.00000E+00
 -1      1168-6.00188E-05 1.66581E-02 0.00000E+00
 -1      1169-1.31806E-04 1.72306E-02 0.00000E+00
 -1      1170 2.62974E-05 1.69337E-02 0.00000E+00
 -1      1171-6.59725E-07 1.74219E-02 0.00000E+00
 -1      1172 7.43575E-05 1.72776E-02 0.00000E+00
 -1      1173 9.04051E-05 1.76928E-02 0.00000E+00
 -1      1174 1.25069E-04 1.76388E-02 0.00000E+00
 -1      1175 1.79776E-04 1.79993E-02 0.00000E+00
 -1      1176 1.90256E-04 1.79983E-02 0.00000E+00
 -1      1177 2.83482E-04 1.83228E-02 0.00000E+00
 -1      1178 2.74701E-04 1.83564E-02 0.00000E+00
 -1      1179 4.11373E-04 1.86611E-02 0.00000E+00
 -1      1180 3.84470E-04 1.87226E-02 0.00000E+00
 -1      1181 5.75675E-04 1.90234E-02 0.00000E+00
 -1      1182 5.30922E-04 1.91162E-02 0.00000E+00
 -1      1183 7.97489E-04 1.94336E-02 0.00000E+00
 -1      1184 7.36716E-04 1.95747E-02 0.00000E+00
 -1      1185 1.11845E-03 1.99416E-02 0.00000E+00
 -1      1186 9.58782E-04 2.00075E-02 0.00000E+00
 -1      1187 1.35469E-03 2.02808E-02 0.00000E+00
 -1      1188-1.64642E-03 1.61409E-02 0.00000E+00
 -1      1189-2.94482E-04 1.48091E-02 0.00000E+00
 -1      1190-3.19035E-04 1.58891E-02 0.00000E+00
 -1      1191 1.19286E-04 1.51259E-02 0.00000E+00
 -1      1192 2.55236E-05 1.60067E-02 0.00000E+00
 -1      1193 9.58322E-05 1.57772E-02 0.00000E+00
 -1      1194 5.81715E-05 1.63984E-02 0.00000E+00
 -1      1195 6.68486E-05 1.63884E-02 0.00000E+00
 -1      1196 6.84435E-05 1.68470E-02 0.00000E+00
 -1      1197 6.09429E-05 1.69161E-02 0.00000E+00
 -1      1198 8.74427E-05 1.72780E-02 0.00000E+00
 -1      1199 7.26561E-05 1.73789E-02 0.00000E+00
 -1      1200 1.22489E-04 1.76828E-02 0.00000E+00
 -1      1201 9.79599E-05 1.77980E-02 0.00000E+00
 -1      1202 1.73631E-04 1.80674E-02 0.00000E+00
 -1      1203 1.35451E-04 1.81920E-02 0.00000E+00
 -1      1204 2.42657E-04 1.84441E-02 0.00000E+00
 -1      1205 1.86506E-04 1.85803E-02 0.00000E+00
 -1      1206 3.34707E-04 1.88305E-02 0.00000E+00
 -1      1207 2.55928E-04 1.89876E-02 0.00000E+00
 -1      1208 4.61167E-04 1.92557E-02 0.00000E+00
 -1      1209 3.54384E-04 1.94546E-02 0.00000E+00
 -1      1210 6.45995E-04 1.97740E-02 0.00000E+00
 -1      1211 4.61198E-04 1.98927E-02 0.00000E+00
 -1      1212 7.82882E-04 2.01188E-02 0.00000E+00
 -1      1213-7.47268E-04 1.28623E-02 0.00000E+00
 -1      1214 0.00000E+00 1.18528E-02 0.00000E+00
 -1      1215 2.21848E-04 1.38437E-02 0.00000E+00
 -1      1216 0.00000E+00 1.43315E-02 0.00000E+00
 -1      1217 6.17389E-05 1.50525E-02 0.00000E+00
 -1      1218 0.00000E+00 1.54145E-02 0.00000E+00
 -1      1219 5.60977E-05 1.58960E-02 0.00000E+00
 -1      1220 0.00000E+00 1.61979E-02 0.00000E+00
 -1      1221 3.40916E-05 1.65450E-02 0.00000E+00
 -1      1222 0.00000E+00 1.67984E-02 0.00000E+00
 -1      1223 3.46562E-05 1.70763E-02 0.00000E+00
 -1      1224 0.00000E+00 1.72977E-02 0.00000E+00
 -1      1225 4.27020E-05 1.75352E-02 0.00000E+00
 -1      1226 0.00000E+00 1.77366E-02 0.00000E+00
 -1      1227 5.79257E-05 1.79511E-02 0.00000E+00
 -1      1228 0.00000E+00 1.81423E-02 0.00000E+00
 -1      1229 7.95558E-05 1.83465E-02 0.00000E+00
 -1      1230 0.00000E+00 1.85375E-02 0.00000E+00
 -1      1231 1.09015E-04 1.87444E-02 0.00000E+00
 -1      1232 0.00000E+00 1.89490E-02 0.00000E+00
 -1      1233 1.49829E-04 1.91767E-02 0.00000E+00
 -1      1234 0.00000E+00 1.94186E-02 0.00000E+00
 -1      1235 2.09761E-04 1.96996E-02 0.00000E+00
 -1      1236 0.00000E+00 1.98583E-02 0.00000E+00
 -1      1237 2.54274E-04 2.00469E-02 0.00000E+00
 -3
    1PSTEP                         2           1           1          
  100CL  101 1.000000000        1236                     0    1           1
 -4  STRESS      6    1
 -5  SXX         1    4    1    1
 -5  SYY         1    4    2    2
 -5  SZZ         1    4    3    3
 -5  SXY         1    4    1    2
 -5  SYZ         1    4    2    3
 -5  SZX         1    4    3    1
 -1         1-1.35177E+03-1.91553E+03-9.90087E+02-4.04054E+02 7.75148E-14-5.58190E-15
 -1         2 2.65503E-02 3.35051E-01 1.08481E-01-1.04857E-02-1.67860E-16 1.83667E-14
 -1         3-2.11316E+02 1.17513E+02-2.87501E+01-1.18794E+02 1.40341E-14-1.57913E-14
 -1         4 8.04952E+01 6.59338E+00 2.61618E+01 2.34906E+01 9.56988E-14-3.02918E-14
 -1         5 2.34410E+00 1.87475E+01 6.32790E+00 2.59103E+00 4.38103E-14-5.21195E-15
 -1         6 1.50615E+00 4.38160E-01 5.83441E-01 2.90511E+00-2.21884E-14 3.76355E-15
 -1         7 2.23679E-01 1.77882E+00 6.00771E-01 1.06930E+00-9.52087E-14 5.15947E-15
 -1         8 7.29212E-02 6.40067E-01 2.13903E-01 7.27550E-01-2.97184E-14-5.25781E-15
 -1         9 4.77141E-02 5.32011E-01 1.73920E-01 4.02997E-01 7.57766E-15-1.24723E-15
 -1        10 2.94852E-02 3.79237E-01 1.22618E-01 2.75022E-01 9.68680E-15-2.91847E-15
 -1        11 2.81347E-02 3.17325E-01 1.03639E-01 1.87871E-01-1.03979E-14-1.39697E-14
 -1        12 2.61626E-02 2.79025E-01 9.15568E-02 1.37408E-01 8.20303E-15-2.53453E-15
 -1        13 2.57469E-02 2.62267E-01 8.64048E-02 1.02691E-01 5.42990E-15 7.44940E-15
 -1        14 2.48275E-02 2.60345E-01 8.55522E-02 7.72951E-02 3.40545E-15 1.99092E-14
 -1        15 2.62575E-02 2.73515E-01 8.99322E-02 5.47271E-02 1.51055E-15 2.97417E-14
 -1        16 2.74951E-02 3.09043E-01 1.00962E-01 3.22492E-02-4.14012E-16-6.40298E-15
 -1        17 2.03376E-02-2.85267E+00-8.49722E-01 3.13226E-03 1.09126E-16-1.26142E-14
 -1        18 2.21826E-01-6.15256E+00-1.77933E+00-1.49417E-04-1.17697E-16-2.67024E-14
 -1        19 6.77340E-01-1.01724E+01-2.84883E+00-8.04380E-03 1.25691E-15 6.42066E-14
 -1        20 1.53565E+00-1.50884E+01-4.06651E+00-6.91871E-03 1.05484E-15 4.03434E-14
 -1        21 2.93245E+00-2.11094E+01-5.45447E+00-2.21611E-03-6.67352E-16 1.11101E-14
 -1        22 5.04727E+00-2.84393E+01-7.02024E+00 4.56015E-03 1.64539E-15 3.47923E-14
 -1        23 8.06611E+00-3.72098E+01-8.74776E+00 1.20662E-02 1.26371E-15 3.70489E-14
 -1        24 1.20904E+01-4.73290E+01-1.05794E+01 1.65607E-02-1.17181E-15 1.59588E-14
 -1        25 1.69450E+01-5.82078E+01-1.23912E+01 1.16730E-02 4.97967E-16-1.03195E-14
 -1        26 2.18920E+01-6.83999E+01-1.39700E+01-2.16865E-02 1.09291E-15-5.52082E-15
 -1        27 2.52509E+01-7.53685E+01-1.50570E+01-2.92772E-02-2.88640E-15-9.89035E-15
 -1        28 2.55603E+01-7.63913E+01-1.52716E+01 1.02083E-01 6.60219E-15-7.57984E-17
 -1        29 6.25646E+01-8.86665E+02-2.49637E+02-5.11403E+01-1.52898E-13 2.66400E-15
 -1        30 2.35706E+00-4.32625E+02-1.29580E+02-6.92732E+00 8.39862E-14-2.91204E-15
 -1        31 3.89719E+01-2.94921E+02-7.70539E+01-5.14677E+00-5.93727E-14-9.26115E-16
 -1        32 2.63607E+01-2.16135E+02-5.70753E+01-7.91992E-01-1.96397E-14-2.55859E-15
 -1        33 2.71398E+01-1.68492E+02-4.24961E+01-5.57508E-01 1.55959E-14 2.49263E-16
 -1        34 2.59753E+01-1.36488E+02-3.32150E+01-2.10031E-01-1.62270E-13 1.31313E-15
 -1        35 2.58678E+01-1.14297E+02-2.65732E+01-1.33095E-01-7.50114E-14-4.37541E-16
 -1        36 2.56832E+01-9.86133E+01-2.19134E+01-8.07237E-02-4.63525E-14-1.76983E-16
 -1        37 2.56150E+01-8.76250E+01-1.86310E+01-5.83849E-02-9.00748E-15 1.03825E-16
 -1        38 2.55411E+01-8.04006E+01-1.64821E+01-5.05403E-02 2.29351E-15-1.66577E-16
 -1        39 2.54572E+01-7.67269E+01-1.54033E+01-3.11197E-02-5.58144E-14-4.78197E-17
 -1        40-2.61562E+02-3.88928E+02-1.96397E+02-3.46315E+02-1.53643E-13 7.38096E-15
 -1        41-1.06618E+01-3.67748E+02-1.14055E+02-1.49232E+02 9.18030E-14 2.14782E-15
 -1        42 5.19322E+00-2.69862E+02-7.96376E+01-6.63409E+01 6.76291E-14-5.78411E-16
 -1        43 2.23733E+01-2.07807E+02-5.57694E+01-3.34179E+01 4.47190E-14 3.93534E-15
 -1        44 2.39508E+01-1.64667E+02-4.23022E+01-1.77638E+01 6.46179E-14 9.10613E-16
 -1        45 2.52516E+01-1.34885E+02-3.29504E+01-9.73219E+00-3.30891E-14 1.07643E-15
 -1        46 2.54314E+01-1.13619E+02-2.65005E+01-5.31888E+00 1.07684E-13 6.08089E-17
 -1        47 2.55528E+01-9.83289E+01-2.18670E+01-2.78590E+00 3.96116E-14 1.55937E-15
 -1        48 2.55546E+01-8.75255E+01-1.86192E+01-1.30406E+00 1.51890E-14-8.01183E-17
 -1        49 2.55265E+01-8.03765E+01-1.64792E+01-4.65438E-01-3.95772E-15-3.37652E-16
 -1        50 2.54554E+01-7.67298E+01-1.54047E+01-6.39764E-02 5.33232E-15 1.68813E-16
 -1        51-1.37580E+02-9.24677E+00-4.41707E+01-8.89321E+01 7.77951E-14-2.00021E-15
 -1        52-1.00622E+02-1.73262E+02-8.23860E+01-1.39164E+02-1.14581E-13-3.76480E-15
 -1        53-2.53486E+01-2.01665E+02-6.82801E+01-9.80245E+01 5.88433E-14 9.04961E-15
 -1        54 4.66848E+00-1.79111E+02-5.24488E+01-5.79923E+01-1.12564E-14-5.71952E-15
 -1        55 1.74838E+01-1.52811E+02-4.06778E+01-3.34884E+01-2.00429E-14-4.52211E-15
 -1        56 2.22580E+01-1.29689E+02-3.22862E+01-1.91700E+01-2.70876E-14-5.29071E-15
 -1        57 2.42678E+01-1.11365E+02-2.61720E+01-1.07325E+01-2.62549E-14-5.01482E-15
 -1        58 2.50565E+01-9.73998E+01-2.17366E+01-5.69701E+00 4.95365E-15-1.06400E-15
 -1        59 2.53766E+01-8.71850E+01-1.85703E+01-2.68619E+00 2.03415E-14-3.47570E-15
 -1        60 2.54719E+01-8.02966E+01-1.64716E+01-9.60433E-01 5.07123E-15-7.78023E-16
 -1        61 2.54538E+01-7.67370E+01-1.54074E+01-1.30026E-01 9.29190E-15 3.43843E-16
 -1        62-6.94798E+01-1.51326E+01-2.54020E+01-3.11682E+01-2.75304E-14 4.55309E-15
 -1        63-8.28124E+01-6.69557E+01-4.50043E+01-8.40061E+01-9.65480E-14-5.14441E-15
 -1        64-4.46315E+01-1.19327E+02-4.92797E+01-8.77301E+01-4.92088E-14-2.54873E-15
 -1        65-1.11958E+01-1.37792E+02-4.47796E+01-6.66469E+01-2.08918E-14-5.62155E-15
 -1        66 8.16123E+00-1.32947E+02-3.75021E+01-4.40912E+01 2.62182E-14 9.84341E-15
 -1        67 1.77824E+01-1.20499E+02-3.08665E+01-2.71754E+01-4.11245E-14-5.04808E-15
 -1        68 2.21969E+01-1.07232E+02-2.55510E+01-1.58809E+01-4.46342E-15-6.22991E-16
 -1        69 2.41858E+01-9.56443E+01-2.14702E+01-8.63863E+00-3.84279E-15-4.24599E-15
 -1        70 2.50392E+01-8.65350E+01-1.84761E+01-4.12952E+00-1.03285E-14 1.73786E-15
 -1        71 2.53712E+01-8.01386E+01-1.64543E+01-1.48380E+00-4.63433E-15-1.81032E-15
 -1        72 2.54486E+01-7.67491E+01-1.54126E+01-1.96692E-01 9.06474E-15 6.77466E-16
 -1        73-3.72628E+01-3.39031E+00-1.22017E+01-1.75912E+01 2.77705E-14 3.41971E-15
 -1        74-5.35044E+01-2.98239E+01-2.50221E+01-4.67720E+01-1.13733E-13-1.01607E-14
 -1        75-4.38913E+01-6.78980E+01-3.35807E+01-6.49136E+01-6.52928E-14-7.18594E-15
 -1        76-2.03598E+01-9.71637E+01-3.53094E+01-6.19584E+01 1.01599E-14 2.17623E-14
 -1        77-1.49982E-01-1.08723E+02-3.27120E+01-4.78277E+01 1.17647E-15 1.17320E-14
 -1        78 1.25546E+01-1.07803E+02-2.86183E+01-3.25495E+01-2.99198E-14 6.81830E-16
 -1        79 1.94828E+01-1.01095E+02-2.45204E+01-2.02039E+01-1.29469E-14 6.30717E-15
 -1        80 2.29295E+01-9.29246E+01-2.10296E+01-1.14003E+01-1.55629E-14-8.36487E-15
 -1        81 2.45337E+01-8.54952E+01-1.83152E+01-5.56588E+00-1.37513E-14 1.70148E-15
 -1        82 2.52138E+01-7.98766E+01-1.64228E+01-2.01707E+00 7.92828E-15-4.96016E-16
 -1        83 2.54391E+01-7.67631E+01-1.54196E+01-2.59765E-01-3.77964E-15-7.74024E-16
 -1        84-2.27181E+01-3.84965E+00-7.97245E+00-1.09283E+01-7.22671E-15-7.40150E-16
 -1        85-3.58399E+01-1.71043E+01-1.58928E+01-2.92164E+01-5.87521E-14 7.62726E-15
 -1        86-3.47160E+01-4.08307E+01-2.26846E+01-4.53861E+01-4.52597E-14-1.47246E-14
 -1        87-2.19423E+01-6.65342E+01-2.65734E+01-5.11076E+01 7.57159E-14-3.35155E-14
 -1        88-5.61463E+00-8.50272E+01-2.72276E+01-4.57304E+01-6.45582E-15 8.35049E-15
 -1        89 7.76641E+00-9.30527E+01-2.56208E+01-3.47347E+01 6.84082E-14 4.50496E-15
 -1        90 1.64685E+01-9.31540E+01-2.30379E+01-2.32380E+01-3.06080E-15 8.13608E-15
 -1        91 2.13737E+01-8.91550E+01-2.03633E+01-1.37612E+01-1.38879E-14-5.18984E-15
 -1        92 2.38604E+01-8.39855E+01-1.80634E+01-6.91786E+00 1.08475E-14-2.97128E-15
 -1        93 2.49942E+01-7.94750E+01-1.63679E+01-2.53858E+00-3.14387E-15-1.36036E-15
 -1        94 2.54221E+01-7.67727E+01-1.54276E+01-3.14388E-01 1.44641E-14-1.27255E-15
 -1        95-1.42458E+01-3.22159E+00-5.24113E+00-7.73000E+00 3.79895E-14-1.94407E-15
 -1        96-2.36890E+01-1.18078E+01-1.06533E+01-1.95469E+01 5.12528E-14-1.57697E-16
 -1        97-2.56485E+01-2.69684E+01-1.57952E+01-3.19283E+01-2.28780E-14 1.19604E-14
 -1        98-1.93324E+01-4.66310E+01-1.98062E+01-3.98418E+01 3.08376E-14 3.85412E-15
 -1        99-7.82920E+00-6.53255E+01-2.19696E+01-4.01927E+01 4.52284E-14 3.16835E-14
 -1       100 4.19079E+00-7.82051E+01-2.22308E+01-3.39769E+01-4.42157E-14-1.20086E-14
 -1       101 1.35869E+01-8.39943E+01-2.11494E+01-2.46994E+01 1.50414E-16 1.63224E-14
 -1       102 1.96534E+01-8.43812E+01-1.94446E+01-1.55076E+01-1.41873E-14-1.51902E-14
 -1       103 2.30456E+01-8.19435E+01-1.76941E+01-8.09433E+00-2.53037E-14 1.20130E-15
 -1       104 2.47115E+01-7.88926E+01-1.62776E+01-3.02219E+00 1.18534E-14 2.87477E-15
 -1       105 2.53950E+01-7.67674E+01-1.54342E+01-3.56351E-01 2.37503E-15 2.59106E-15
 -1       106-9.20255E+00-3.08002E+00-3.68521E+00-5.74130E+00 1.04937E-15 1.60870E-15
 -1       107-1.57918E+01-9.34830E+00-7.54410E+00-1.39283E+01 1.34095E-14 1.67419E-15
 -1       108-1.82166E+01-1.98421E+01-1.14229E+01-2.30257E+01-6.77123E-15-4.17359E-15
 -1       109-1.52823E+01-3.43698E+01-1.49055E+01-3.04547E+01-9.40451E-15 1.34297E-14
 -1       110-7.67608E+00-5.06184E+01-1.75033E+01-3.34904E+01 4.55861E-14-1.02274E-14
 -1       111 2.09268E+00-6.49056E+01-1.88633E+01-3.10882E+01-4.03294E-15-1.12261E-14
 -1       112 1.11821E+01-7.44611E+01-1.90059E+01-2.45699E+01-6.23590E-14 6.97903E-15
 -1       113 1.79338E+01-7.88167E+01-1.82882E+01-1.64703E+01 4.99759E-14 1.94505E-15
 -1       114 2.21363E+01-7.93548E+01-1.71888E+01-8.99715E+00 1.14812E-16 1.69746E-15
 -1       115 2.43729E+01-7.80899E+01-1.61379E+01-3.43765E+00 1.16537E-14-4.10817E-15
 -1       116 2.53556E+01-7.67327E+01-1.54355E+01-3.83438E-01 2.12826E-14 1.04599E-15
 -1       117-5.99246E+00-2.94413E+00-2.68121E+00-4.43502E+00 5.02939E-15-5.31217E-15
 -1       118-1.04582E+01-8.02568E+00-5.54626E+00-1.03178E+01-6.82400E-15 7.06121E-15
 -1       119-1.25302E+01-1.59085E+01-8.53450E+00-1.70193E+01-2.75966E-14-1.15875E-14
 -1       120-1.11918E+01-2.69192E+01-1.14391E+01-2.32023E+01-2.53697E-14-1.21384E-14
 -1       121-6.24089E+00-4.03150E+01-1.39764E+01-2.70326E+01-1.12653E-14-2.69216E-14
 -1       122 1.28401E+00-5.40055E+01-1.58303E+01-2.70338E+01-1.45071E-14-1.41218E-14
 -1       123 9.43008E+00-6.54012E+01-1.68089E+01-2.30806E+01-2.28588E-14-1.62960E-16
 -1       124 1.63628E+01-7.28272E+01-1.69595E+01-1.65618E+01 6.99757E-15-1.49811E-14
 -1       125 2.11922E+01-7.62789E+01-1.65476E+01-9.53020E+00-1.43680E-14-7.45421E-15
 -1       126 2.39943E+01-7.70412E+01-1.59363E+01-3.75066E+00 4.77105E-15-1.18934E-14
 -1       127 2.53049E+01-7.66524E+01-1.54266E+01-3.96516E-01-3.20308E-15 6.84834E-16
 -1       128-3.88842E+00-2.87064E+00-2.02785E+00-3.47311E+00 1.71709E-14-1.82253E-14
 -1       129-6.81284E+00-7.25424E+00-4.22075E+00-7.82497E+00-3.61258E-15-1.10786E-14
 -1       130-8.30098E+00-1.36163E+01-6.57688E+00-1.27927E+01-9.37405E-15 1.34459E-14
 -1       131-7.60984E+00-2.23320E+01-8.98611E+00-1.76891E+01 1.29936E-14 6.13657E-15
 -1       132-4.30258E+00-3.33219E+01-1.12937E+01-2.13788E+01-1.21430E-14 2.90827E-15
 -1       133 1.37505E+00-4.56214E+01-1.32837E+01-2.25983E+01-1.82500E-15-1.74726E-14
 -1       134 8.33288E+00-5.74332E+01-1.47437E+01-2.06099E+01-6.92290E-15 1.04102E-14
 -1       135 1.50383E+01-6.68529E+01-1.55615E+01-1.57951E+01-9.45476E-15 1.51588E-14
 -1       136 2.02706E+01-7.28613E+01-1.57970E+01-9.61142E+00 1.79329E-14 3.71148E-15
 -1       137 2.35982E+01-7.57506E+01-1.56672E+01-3.92207E+00 2.10500E-14-4.81035E-15
 -1       138 2.52488E+01-7.65145E+01-1.54020E+01-3.99209E-01-3.13396E-14-2.31841E-15
 -1       139-2.46458E+00-2.82538E+00-1.58707E+00-2.72216E+00-2.29332E-15-1.33330E-14
 -1       140-4.28189E+00-6.77886E+00-3.31861E+00-5.97312E+00 8.78288E-15-3.09684E-15
 -1       141-5.19289E+00-1.22075E+01-5.22119E+00-9.66438E+00-2.07592E-14-6.25491E-15
 -1       142-4.68376E+00-1.94400E+01-7.23943E+00-1.34332E+01 1.51511E-15-5.73143E-15
 -1       143-2.32723E+00-2.86330E+01-9.29232E+00-1.66017E+01-1.70625E-14-7.20401E-15
 -1       144 1.98447E+00-3.94500E+01-1.12467E+01-1.82529E+01-9.79046E-15 9.94836E-15
 -1       145 7.77801E+00-5.08638E+01-1.29363E+01-1.75518E+01 2.26926E-14-7.23941E-15
 -1       146 1.39969E+01-6.13073E+01-1.42075E+01-1.42733E+01 2.92908E-15-4.04533E-15
 -1       147 1.94141E+01-6.93184E+01-1.49893E+01-9.18672E+00 2.34662E-14-1.13197E-14
 -1       148 2.32077E+01-7.42643E+01-1.53377E+01-3.90775E+00 5.99783E-16-1.58921E-14
 -1       149 2.51988E+01-7.63171E+01-1.53577E+01-3.95173E-01-1.62637E-14-2.64947E-15
 -1       150-1.48534E+00-2.80415E+00-1.28690E+00-2.09759E+00-3.86862E-15 1.11996E-14
 -1       151-2.51175E+00-6.47968E+00-2.69768E+00-4.50673E+00-4.93176E-16 2.33485E-15
 -1       152-2.93315E+00-1.13152E+01-4.27521E+00-7.21829E+00-1.62083E-16 4.50664E-15
 -1       153-2.39670E+00-1.75805E+01-5.99470E+00-1.00394E+01 1.16124E-14 8.14240E-15
 -1       154-5.56649E-01-2.55010E+01-7.82028E+00-1.25696E+01-1.37996E-14 8.80988E-16
 -1       155 2.81489E+00-3.50492E+01-9.67548E+00-1.41970E+01-2.24561E-14-1.23110E-14
 -1       156 7.61086E+00-4.57385E+01-1.14466E+01-1.42140E+01 1.63157E-14-3.45342E-15
 -1       157 1.32273E+01-5.65035E+01-1.29950E+01-1.21519E+01-1.72667E-14-9.54925E-15
 -1       158 1.86477E+01-6.59041E+01-1.41931E+01-8.24109E+00-5.43056E-15-3.90453E-15
 -1       159 2.28397E+01-7.26751E+01-1.49705E+01-3.66242E+00-3.39450E-15 5.16253E-15
 -1       160 2.51689E+01-7.60743E+01-1.52937E+01-3.83324E-01 3.23602E-14 2.19721E-15
 -1       161-8.09233E-01-2.80052E+00-1.08296E+00-1.54944E+00 5.37084E-15-1.79118E-14
 -1       162-1.28020E+00-6.29472E+00-2.27265E+00-3.27169E+00-6.18929E-16-1.26775E-14
 -1       163-1.32041E+00-1.07467E+01-3.62064E+00-5.19279E+00 6.50688E-15-1.50108E-14
 -1       164-6.81108E-01-1.63798E+01-5.11938E+00-7.21108E+00 1.30929E-14-1.69813E-14
 -1       165 8.97663E-01-2.34281E+01-6.76132E+00-9.09309E+00 7.96213E-16 3.05759E-14
 -1       166 3.65784E+00-3.20050E+01-8.50809E+00-1.04541E+01-1.14313E-15 3.43350E-14
 -1       167 7.67783E+00-4.19484E+01-1.02878E+01-1.07786E+01-8.31239E-15-1.33624E-15
 -1       168 1.26932E+01-5.26306E+01-1.19915E+01-9.58750E+00 5.67204E-15 2.06008E-14
 -1       169 1.79875E+01-6.28709E+01-1.34797E+01-6.79988E+00 5.95285E-15 1.10728E-14
 -1       170 2.25037E+01-7.11169E+01-1.46030E+01-3.14971E+00 1.13079E-14 1.10446E-14
 -1       171 2.51691E+01-7.58168E+01-1.52162E+01-3.53718E-01-3.05713E-15-2.67041E-15
 -1       172-3.56204E-01-2.81157E+00-9.50360E-01-1.04065E+00 8.40951E-16-2.90378E-14
 -1       173-4.51785E-01-6.19029E+00-1.99276E+00-2.16583E+00-3.34520E-15 3.11792E-14
 -1       174-2.19985E-01-1.03994E+01-3.18618E+00-3.41079E+00-4.49372E-16-1.41985E-14
 -1       175 5.28672E-01-1.56293E+01-4.53105E+00-4.72519E+00-1.15077E-15-2.56410E-14
 -1       176 1.98693E+00-2.21053E+01-6.03725E+00-5.97940E+00-4.72608E-16-2.00278E-14
 -1       177 4.37326E+00-3.00017E+01-7.69174E+00-6.95040E+00-3.50613E-15 4.19026E-14
 -1       178 7.84433E+00-3.93343E+01-9.45251E+00-7.31092E+00-6.58237E-15-4.09632E-14
 -1       179 1.23508E+01-4.97772E+01-1.12369E+01-6.69482E+00 5.52402E-15 1.17389E-14
 -1       180 1.74557E+01-6.04443E+01-1.29101E+01-4.91606E+00 6.80650E-15-1.60346E-14
 -1       181 2.22105E+01-6.97547E+01-1.42816E+01-2.35587E+00 4.24388E-15 1.74768E-15
 -1       182 2.51974E+01-7.55856E+01-1.51382E+01-2.88431E-01 1.75423E-14 1.60123E-15
 -1       183-8.03463E-02-2.83716E+00-8.75275E-01-5.38652E-01 6.09871E-17 9.62603E-15
 -1       184 4.33571E-02-6.15421E+00-1.83337E+00-1.11012E+00-1.50453E-17-4.04307E-14
 -1       185 4.40403E-01-1.02236E+01-2.93527E+00-1.73543E+00-8.38425E-16 3.71381E-14
 -1       186 1.26866E+00-1.52217E+01-4.18665E+00-2.39715E+00 1.78449E-15-1.41289E-15
 -1       187 2.67851E+00-2.13624E+01-5.60665E+00-3.03685E+00 3.31320E-16-2.98316E-14
 -1       188 4.86156E+00-2.88436E+01-7.19736E+00-3.55087E+00-2.95864E-15 3.99238E-14
 -1       189 7.99951E+00-3.77686E+01-8.93563E+00-3.77953E+00-5.18408E-15-8.23045E-15
 -1       190 1.21571E+01-4.79854E+01-1.07567E+01-3.52529E+00-2.82557E-15 1.54145E-14
 -1       191 1.70884E+01-5.88218E+01-1.25327E+01-2.64841E+00-1.53036E-15-1.71728E-15
 -1       192 2.19875E+01-6.87783E+01-1.40550E+01-1.29802E+00 9.61261E-16-1.16166E-15
 -1       193 2.52352E+01-7.54239E+01-1.50784E+01-1.70257E-01-1.91822E-15 4.67788E-15
 -1       194 4.46117E-01 7.04624E-02 1.54973E-01-7.65103E-02-9.54940E-13 7.43850E-14
 -1       195-8.96925E+02-1.29609E+03-6.63452E+02 5.04884E+02-5.49369E-13-1.17308E-14
 -1       196 1.07863E+02-9.63979E+00 2.94327E+01-6.89065E-03-1.21126E-12 2.78593E-15
 -1       197-4.55920E-01-1.01238E+01-3.17418E+00-9.34845E-02-2.76200E-13 3.32799E-13
 -1       199 5.72649E-02 7.38358E-02 3.93303E-02-2.22756E-02-2.88523E-13-2.12637E-13
 -1       200-3.54788E+00 5.35584E-02-1.04833E+00 4.09044E-02 1.16859E-12-2.41581E-13
 -1       201-9.28886E+00 5.47366E-02-2.77047E+00 6.14093E-02 1.71596E-12 3.26481E-13
 -1       202-1.62093E+01 4.28025E-02-4.85067E+00 6.07642E-02 1.26181E-12-4.30445E-13
 -1       203-2.37005E+01 3.37213E-02-7.10158E+00 5.19355E-02 3.84350E-13-3.32220E-14
 -1       204-3.12739E+01 2.26366E-02-9.37804E+00 3.44730E-02-2.64578E-13 1.40953E-13
 -1       205-3.85284E+01 1.17038E-02-1.15591E+01 7.82992E-03-1.50068E-12 1.69552E-13
 -1       206-4.51592E+01 6.04454E-03-1.35515E+01-2.97330E-02-7.82593E-13-1.34961E-13
 -1       207-5.09652E+01-1.63804E-03-1.52971E+01-8.61142E-02 2.73022E-13 4.49677E-14
 -1       208-5.58337E+01 4.62990E-02-1.67448E+01-1.66186E-01 3.27056E-13 1.16207E-13
 -1       209-5.97501E+01-3.41005E-02-1.79450E+01-3.26535E-01-9.99243E-13 2.61162E-16
 -1       210-6.26566E+01 6.89217E-01-1.86010E+01-5.51378E-01-7.75615E-14 1.92686E-14
 -1       211-6.44169E+01-1.24426E+00-1.97095E+01-1.24117E+00 4.48858E-13 2.36476E-14
 -1       212-6.50905E+01 1.15578E+01-1.60731E+01-1.86951E+00 7.86254E-13-2.33015E-14
 -1       213-3.12664E+01-1.41265E+01-1.36051E+01-1.06411E+01-5.06909E-13 1.64907E-14
 -1       214-1.61248E+02 9.66153E+01-1.95781E+01-1.50781E+01-1.42046E-13-7.33969E-15
 -1       215-2.69964E+01-5.29990E+02-1.67789E+02 1.06733E+01 1.67521E-14-3.58300E-16
 -1       216-6.26374E+01-2.10629E+02-8.20723E+01 4.68805E+00-1.41701E-13 1.14307E-15
 -1       217-3.02940E+01-1.45471E+02-5.27794E+01 2.92621E+00-7.08635E-13-8.51357E-16
 -1       218-2.80903E+01-1.03880E+02-3.96158E+01 3.75407E-01-4.73821E-13 3.80814E-17
 -1       219-1.70988E+01-7.77946E+01-2.84822E+01 3.05515E-01 4.37833E-13-3.75935E-16
 -1       220-6.11441E+00-5.90754E+01-1.95657E+01 9.73515E-02 2.98760E-14-5.03249E-16
 -1       221 6.55049E+00-4.47281E+01-1.14595E+01 6.15250E-02-9.08129E-13 6.93130E-16
 -1       222 2.09301E+01-3.31152E+01-3.66134E+00 3.22131E-02-1.47035E-12 2.57690E-16
 -1       223 3.79858E+01-2.34399E+01 4.35625E+00 2.05347E-02-7.95711E-13-4.53162E-16
 -1       224 5.93251E+01-1.55030E+01 1.31342E+01 1.14168E-02-1.42411E-13-2.46746E-15
 -1       225 8.79118E+01-1.03870E+01 2.32340E+01 6.19249E-03-3.85529E-13-6.72708E-16
 -1       226 1.07395E+02-9.64451E+00 2.92911E+01 4.28811E-02 9.92171E-14-1.25109E-14
 -1       227 1.05837E+02-9.66206E+00 2.88193E+01 8.92038E-02-1.32595E-13-3.27906E-14
 -1       228 1.02921E+02-9.69769E+00 2.79355E+01 1.37084E-01-7.63071E-13 4.60667E-14
 -1       229 9.84598E+01-9.75235E+00 2.65833E+01 1.82001E-01-3.80983E-14 7.92467E-14
 -1       230 9.23655E+01-9.82248E+00 2.47373E+01 2.19222E-01-5.39186E-13-8.13583E-15
 -1       231 8.46985E+01-9.90066E+00 2.24176E+01 2.44254E-01-4.82111E-13-9.29081E-15
 -1       232 7.56909E+01-9.97661E+00 1.96966E+01 2.54249E-01 4.09082E-13-1.81238E-13
 -1       233 6.57257E+01-1.00401E+01 1.66921E+01 2.49122E-01-1.12761E-12 1.42476E-13
 -1       234 5.52721E+01-1.00842E+01 1.35464E+01 2.31751E-01-3.16618E-14 7.88908E-16
 -1       235 4.47979E+01-1.01079E+01 1.04002E+01 2.06970E-01 9.42309E-14 1.83108E-14
 -1       236 3.46978E+01-1.01151E+01 7.37042E+00 1.79803E-01 2.41715E-13 6.73585E-14
 -1       237 2.52686E+01-1.01134E+01 4.54396E+00 1.53659E-01 5.17496E-13-6.08226E-15
 -1       238 1.67423E+01-1.01076E+01 1.98898E+00 1.29375E-01 2.04390E-13-1.98958E-14
 -1       239 9.35622E+00-1.01110E+01-2.27161E-01 1.04969E-01-8.95723E-13 2.17007E-14
 -1       240 3.47749E+00-1.01016E+01-1.98763E+00 6.44709E-02-1.80855E-12 1.48734E-13
 -1       241-1.13058E-01-1.01298E+01-3.07314E+00-2.38046E-02-1.15726E-13 1.37826E-14
 -1       242-3.28752E-01-1.03559E+01-3.20568E+00-2.70728E-01 5.44847E-13-2.48325E-13
 -1       243-3.92586E-01-1.01401E+01-3.16009E+00-5.95637E-02-3.59690E-13 8.41074E-14
 -1       244-2.86886E-01-8.70493E+00-2.69774E+00 1.33061E-01 7.28830E-13-1.05700E-13
 -1       245-1.28411E-01-6.61714E+00-2.02378E+00 2.13178E-01-1.27496E-13-2.18865E-14
 -1       246 4.35426E-02-4.45058E+00-1.32217E+00 2.23366E-01 2.99699E-13 7.79986E-15
 -1       247 1.90716E-01-2.55459E+00-7.09182E-01 1.83584E-01-1.66367E-13-1.99906E-14
 -1       248 2.96379E-01-1.10686E+00-2.43148E-01 1.06233E-01 3.23136E-12-4.56591E-14
 -1       249 3.50687E-01-1.68591E-01 5.46291E-02 1.44893E-03 1.36854E-12-1.11650E-14
 -1       250 3.50757E-01 2.83816E-01 1.90372E-01-1.16671E-01-1.30184E-12 2.29553E-13
 -1       251 3.05479E-01 3.44585E-01 1.95019E-01-2.22896E-01-3.97016E-14 2.81029E-13
 -1       252 2.50897E-01 1.78317E-01 1.28764E-01-2.49070E-01-1.98522E-13 2.25260E-14
 -1       253-6.20843E-01-2.17923E-03-1.86909E-01 4.56749E-01 3.23178E-13-1.45560E-14
 -1       254-1.02499E+00-2.62357E-01-3.86216E-01 1.02726E+00-8.41492E-13-2.40652E-13
 -1       255-1.16848E+00-7.28629E-01-5.69159E-01 1.68398E+00-1.05832E-12-1.25455E-13
 -1       256-1.10663E+00-1.39861E+00-7.51621E-01 2.37956E+00-8.83125E-13-1.15229E-14
 -1       257-8.87793E-01-2.26813E+00-9.46861E-01 3.04188E+00 3.09282E-13 1.45247E-14
 -1       258-5.51554E-01-3.33723E+00-1.16676E+00 3.57263E+00-2.58661E-13-1.53334E-14
 -1       259-1.29613E-01-4.59620E+00-1.41792E+00 3.85478E+00 4.54156E-13-9.15019E-15
 -1       260 3.46087E-01-6.00901E+00-1.69909E+00 3.76248E+00 1.44285E-12 1.72236E-14
 -1       261 8.18971E-01-7.49879E+00-2.00420E+00 3.18611E+00-1.13395E-13 7.51640E-14
 -1       262 1.14187E+00-8.92709E+00-2.33585E+00 2.09400E+00 1.12954E-13 6.65934E-14
 -1       263 7.96256E-01-9.97308E+00-2.75334E+00 6.90103E-01-2.85821E-13-1.38231E-13
 -1       264-4.00632E+00 4.42326E-03-1.20063E+00 1.23746E+00-2.72209E-14 1.25362E-13
 -1       265-4.20460E+00-2.30456E-01-1.33061E+00 2.41184E+00 1.88455E-13-1.41257E-14
 -1       266-4.09114E+00-6.72294E-01-1.42917E+00 3.54968E+00 1.02254E-13 8.27407E-14
 -1       267-3.64954E+00-1.32562E+00-1.49274E+00 4.62131E+00 4.15763E-13-3.37005E-14
 -1       268-2.87587E+00-2.18670E+00-1.51903E+00 5.56657E+00 6.10513E-13-5.48410E-15
 -1       269-1.78865E+00-3.25201E+00-1.51253E+00 6.29545E+00-4.86461E-13 1.17116E-14
 -1       270-4.32355E-01-4.51121E+00-1.48347E+00 6.68566E+00-9.92437E-15-4.24238E-15
 -1       271 1.10656E+00-5.93764E+00-1.44978E+00 6.58746E+00-4.00756E-15-2.66094E-14
 -1       272 2.65513E+00-7.47260E+00-1.44573E+00 5.83982E+00-8.82866E-14-6.98538E-14
 -1       273 3.87140E+00-8.96971E+00-1.52998E+00 4.29568E+00-2.43716E-13 4.08227E-14
 -1       274 4.10562E+00-9.98356E+00-1.76382E+00 1.81769E+00-7.98840E-13-1.08074E-13
 -1       275-9.17534E+00 1.73112E-03-2.75234E+00 1.78430E+00-4.57664E-13 1.05092E-13
 -1       276-8.76190E+00-2.01681E-01-2.68937E+00 3.47028E+00-5.55753E-14-1.06237E-14
 -1       277-8.00384E+00-5.97981E-01-2.58091E+00 5.07716E+00 3.59962E-13 2.62399E-14
 -1       278-6.85529E+00-1.19928E+00-2.41682E+00 6.56168E+00-4.01774E-13-1.92444E-15
 -1       279-5.28105E+00-2.02015E+00-2.19090E+00 7.85007E+00 5.34913E-13 5.52224E-14
 -1       280-3.26816E+00-3.07139E+00-1.90250E+00 8.83935E+00 8.63371E-13-6.78896E-15
 -1       281-8.39568E-01-4.35036E+00-1.55771E+00 9.38739E+00 2.24255E-13-1.05881E-15
 -1       282 1.91856E+00-5.82782E+00-1.17358E+00 9.30670E+00-6.67702E-13-1.27718E-14
 -1       283 4.80720E+00-7.42359E+00-7.85758E-01 8.36367E+00 1.08166E-12 6.10656E-14
 -1       284 7.43451E+00-8.96081E+00-4.58725E-01 6.28317E+00-1.00470E-12 1.04829E-15
 -1       285 9.15939E+00-9.98009E+00-2.46982E-01 2.70946E+00 6.05760E-14-2.95322E-14
 -1       286-1.53947E+01 2.22265E-04-4.61904E+00 2.20626E+00-1.87676E-13-8.50678E-14
 -1       287-1.42418E+01-1.73897E-01-4.32541E+00 4.31098E+00 1.53311E-12 6.02088E-15
 -1       288-1.26977E+01-5.21346E-01-3.96644E+00 6.32756E+00 4.23254E-13-1.12116E-13
 -1       289-1.06957E+01-1.06338E+00-3.52854E+00 8.20232E+00-7.85586E-15 1.20661E-14
 -1       290-8.17419E+00-1.82905E+00-3.00188E+00 9.84654E+00 9.64975E-13-3.13748E-14
 -1       291-5.08613E+00-2.84347E+00-2.37991E+00 1.11345E+01-4.22644E-13-1.87639E-14
 -1       292-1.41948E+00-4.11593E+00-1.66176E+00 1.18889E+01 4.72876E-13 4.38742E-15
 -1       293 2.76740E+00-5.62234E+00-8.57725E-01 1.18677E+01 1.90944E-13-1.42324E-14
 -1       294 7.28887E+00-7.27724E+00 2.17355E-03 1.07538E+01 6.29934E-13 4.32464E-14
 -1       295 1.17456E+01-8.88928E+00 8.55556E-01 8.15125E+00 2.51412E-15-7.27060E-14
 -1       296 1.54589E+01-9.96896E+00 1.64561E+00 3.53729E+00 4.58651E-13 1.62711E-13
 -1       297-2.21563E+01 1.00834E-03-6.64797E+00 2.51524E+00-2.38360E-13-7.05874E-14
 -1       298-2.02423E+01-1.35764E-01-6.11471E+00 4.95320E+00 3.22964E-13 4.20912E-14
 -1       299-1.78902E+01-4.23771E-01-5.49545E+00 7.32090E+00-3.89807E-13 8.04353E-14
 -1       300-1.50051E+01-8.97374E-01-4.77203E+00 9.55815E+00-6.79549E-14 3.06241E-14
 -1       301-1.14876E+01-1.60179E+00-3.92818E+00 1.15614E+01 2.08713E-13-2.24401E-15
 -1       302-7.24527E+00-2.57690E+00-2.94813E+00 1.31761E+01-2.25260E-13 1.62889E-14
 -1       303-2.21930E+00-3.84213E+00-1.82003E+00 1.41793E+01 4.80645E-13 2.07871E-14
 -1       304 3.57293E+00-5.37596E+00-5.42654E-01 1.42647E+01-4.11951E-14-2.20707E-14
 -1       305 9.97338E+00-7.08941E+00 8.63293E-01 1.30285E+01-8.49309E-13 1.75396E-14
 -1       306 1.65868E+01-8.78529E+00 2.33837E+00 9.95717E+00 7.23700E-13-4.34089E-15
 -1       307 2.26870E+01-9.95184E+00 3.81820E+00 4.35378E+00-3.91078E-13-2.32207E-14
 -1       308-2.90589E+01 5.74009E-03-8.71832E+00 2.70929E+00-2.49136E-13-1.21605E-13
 -1       309-2.64566E+01-8.36972E-02-7.96423E+00 5.40231E+00 3.68862E-13-7.70992E-16
 -1       310-2.33686E+01-3.06813E-01-7.10461E+00 8.07733E+00 5.45103E-13 9.12233E-15
 -1       311-1.96537E+01-7.19089E-01-6.11374E+00 1.06670E+01-1.59101E-14-5.18890E-14
 -1       312-1.51567E+01-1.38534E+00-4.96452E+00 1.30452E+01-8.60070E-14 1.03423E-14
 -1       313-9.72714E+00-2.35577E+00-3.62685E+00 1.50149E+01 2.61352E-13-3.06213E-14
 -1       314-3.25603E+00-3.64613E+00-2.07276E+00 1.62942E+01 3.20395E-13 7.31337E-16
 -1       315 4.27680E+00-5.21923E+00-2.85029E-01 1.65088E+01-3.67123E-13-2.04283E-14
 -1       316 1.27406E+01-6.97138E+00 1.72819E+00 1.51791E+01 3.30447E-13 3.48466E-14
 -1       317 2.17609E+01-8.70917E+00 3.91250E+00 1.16917E+01-3.81781E-13 7.91267E-14
 -1       318 3.05934E+01-9.93376E+00 6.19414E+00 5.16357E+00-3.01617E-13-1.42457E-13
 -1       319-3.58043E+01 1.57462E-02-1.07401E+01 2.79139E+00-1.05519E-12-8.42793E-14
 -1       320-3.26849E+01-2.39913E-02-9.81585E+00 5.68307E+00-2.34728E-13 1.50683E-14
 -1       321-2.90152E+01-1.98982E-01-8.76713E+00 8.65682E+00 3.87956E-13-7.75045E-14
 -1       322-2.45775E+01-5.99071E-01-7.55564E+00 1.16257E+01-1.49186E-13-3.28493E-14
 -1       323-1.91388E+01-1.30811E+00-6.13663E+00 1.44156E+01-4.54386E-13-3.83419E-14
 -1       324-1.24878E+01-2.36727E+00-4.45907E+00 1.67577E+01-3.23888E-13 9.40740E-16
 -1       325-4.48563E+00-3.75237E+00-2.47406E+00 1.82943E+01-9.21565E-14 1.31144E-14
 -1       326 4.89349E+00-5.37258E+00-1.46631E-01 1.85937E+01 1.38361E-13 5.20522E-15
 -1       327 1.55300E+01-7.09234E+00 2.52796E+00 1.71406E+01-3.15038E-13 2.98569E-14
 -1       328 2.71011E+01-8.74369E+00 5.50308E+00 1.32720E+01-8.60279E-14-2.57787E-14
 -1       329 3.89351E+01-9.92061E+00 8.69876E+00 5.92626E+00-2.35742E-13-7.23628E-14
 -1       330-4.22121E+01 3.09138E-02-1.26593E+01 2.77777E+00 3.19644E-14-5.43713E-14
 -1       331-3.88549E+01 2.83818E-02-1.16523E+01 5.86040E+00 2.82047E-13 1.15323E-13
 -1       332-3.48246E+01-1.62754E-01-1.05002E+01 9.19054E+00 5.91762E-13-3.15764E-15
 -1       333-2.97804E+01-6.78935E-01-9.14141E+00 1.26223E+01 1.52601E-13-2.52092E-14
 -1       334-2.33934E+01-1.60682E+00-7.50345E+00 1.58757E+01-2.48097E-14 1.49298E-14
 -1       335-1.54217E+01-2.92379E+00-5.50691E+00 1.85610E+01-1.71527E-13 5.22888E-16
 -1       336-5.76599E+00-4.49572E+00-3.08179E+00 2.02385E+01 3.75350E-13 4.23039E-15
 -1       337 5.53450E+00-6.12942E+00-1.82006E-01 2.04668E+01-4.64165E-14-1.99769E-14
 -1       338 1.83474E+01-7.65657E+00 3.20311E+00 1.87788E+01 4.39145E-13 3.07567E-14
 -1       339 3.24601E+01-8.98527E+00 7.03703E+00 1.45450E+01 4.98519E-13-5.98516E-14
 -1       340 4.74309E+01-9.92140E+00 1.12450E+01 6.55972E+00 5.70761E-13 5.42711E-14
 -1       341-4.82453E+01 5.72164E-02-1.44629E+01 2.70521E+00-5.02203E-13 4.59868E-14
 -1       342-4.50513E+01 4.06971E-02-1.35090E+01 6.06281E+00 9.49510E-14 9.97772E-14
 -1       343-4.09201E+01-3.19768E-01-1.23773E+01 9.91904E+00 7.46024E-14 1.37996E-14
 -1       344-3.53165E+01-1.22179E+00-1.09663E+01 1.39683E+01-3.98378E-13-1.10339E-14
 -1       345-2.78336E+01-2.67817E+00-9.15793E+00 1.77130E+01 1.01701E-13-1.44483E-14
 -1       346-1.83093E+01-4.48192E+00-6.84146E+00 2.05912E+01-3.47181E-13 3.36029E-15
 -1       347-6.83176E+00-6.29030E+00-3.94057E+00 2.21287E+01-2.28871E-13-2.79747E-15
 -1       348 6.39863E+00-7.78981E+00-4.21523E-01 2.19942E+01-5.89275E-13-2.45724E-15
 -1       349 2.12412E+01-8.83745E+00 3.71616E+00 1.98932E+01 6.13891E-13 7.96159E-14
 -1       350 3.76958E+01-9.50695E+00 8.44986E+00 1.53158E+01 7.67692E-13-9.89976E-15
 -1       351 5.57511E+01-9.94425E+00 1.37316E+01 6.95855E+00-1.83910E-14-1.15560E-14
 -1       352-5.40442E+01 8.05515E-02-1.61971E+01 2.63405E+00 2.53016E-13 8.90947E-15
 -1       353-5.15755E+01-5.60154E-02-1.54970E+01 6.53005E+00 2.76328E-13 2.81895E-14
 -1       354-4.75673E+01-9.37042E-01-1.45584E+01 1.12611E+01 1.05140E-12-8.00137E-14
 -1       355-4.12322E+01-2.72336E+00-1.31931E+01 1.61297E+01-5.18312E-13 3.03244E-14
 -1       356-3.22280E+01-5.15794E+00-1.12215E+01 2.02520E+01-2.93586E-13 7.83318E-15
 -1       357-2.07547E+01-7.63283E+00-8.52133E+00 2.29219E+01-5.94359E-13 3.63637E-15
 -1       358-7.30639E+00-9.53996E+00-5.05857E+00 2.38227E+01 4.29956E-13 3.51048E-15
 -1       359 7.71212E+00-1.05487E+01-8.55745E-01 2.29356E+01-7.57528E-14-2.22455E-14
 -1       360 2.42472E+01-1.06939E+01 4.06028E+00 2.02490E+01 3.32108E-13 2.37426E-14
 -1       361 4.26562E+01-1.03193E+01 9.69292E+00 1.54025E+01-2.19528E-14-4.05262E-14
 -1       362 6.35420E+01-9.99242E+00 1.60517E+01 7.02705E+00 1.16313E-13-2.35188E-14
 -1       363-6.00095E+01 1.76553E-01-1.79598E+01 2.70654E+00-4.82547E-13 5.95478E-14
 -1       364-5.89803E+01-4.49580E-01-1.78389E+01 7.72307E+00 3.28037E-13 2.59275E-14
 -1       365-5.51285E+01-2.58356E+00-1.73231E+01 1.39246E+01 2.50311E-13-8.45140E-15
 -1       366-4.73977E+01-6.12640E+00-1.60658E+01 1.97110E+01-3.02180E-13-1.03468E-14
 -1       367-3.60454E+01-9.99396E+00-1.38192E+01 2.36944E+01-3.00943E-13-4.85792E-15
 -1       368-2.21585E+01-1.30008E+01-1.05539E+01 2.53571E+01 1.43026E-13 8.49785E-16
 -1       369-6.78960E+00-1.44693E+01-6.38299E+00 2.49519E+01 7.58747E-13 6.95092E-15
 -1       370 9.62169E+00-1.43691E+01-1.42948E+00 2.29624E+01-4.26406E-13 1.86137E-14
 -1       371 2.73273E+01-1.31118E+01 4.25832E+00 1.96392E+01 1.59508E-13 1.27997E-14
 -1       372 4.71758E+01-1.13529E+01 1.07375E+01 1.46962E+01-3.47555E-13-8.61713E-16
 -1       373 7.04763E+01-1.00620E+01 1.81085E+01 6.71291E+00 4.23108E-13 3.99663E-14
 -1       374-6.69936E+01 4.48916E-02-2.00970E+01 3.14991E+00 2.09750E-13 6.18247E-14
 -1       375-6.84657E+01-1.72672E+00-2.10712E+01 1.06543E+01 3.93906E-15 2.25108E-14
 -1       376-6.39377E+01-6.76577E+00-2.12242E+01 1.91316E+01-2.64597E-13-3.61116E-15
 -1       377-5.31427E+01-1.31223E+01-1.98910E+01 2.52731E+01-4.90195E-13 4.18296E-15
 -1       378-3.82737E+01-1.83515E+01-1.69968E+01 2.77556E+01-4.78016E-13 9.12497E-15
 -1       379-2.18287E+01-2.09495E+01-1.28407E+01 2.72264E+01-1.78291E-13-7.89960E-16
 -1       380-5.04473E+00-2.09020E+01-7.78989E+00 2.49299E+01 7.39306E-14 2.98966E-15
 -1       381 1.20820E+01-1.89082E+01-2.05347E+00 2.17512E+01 1.11176E-13 3.53128E-15
 -1       382 3.03390E+01-1.58125E+01 4.35112E+00 1.79632E+01-5.65085E-13-3.57533E-14
 -1       383 5.10906E+01-1.24759E+01 1.15740E+01 1.32026E+01-7.71627E-13 5.67571E-16
 -1       384 7.63055E+01-1.01430E+01 1.98305E+01 6.02537E+00-2.77341E-13 4.63611E-15
 -1       385-7.66718E+01 9.46780E-01-2.27339E+01 4.92212E+00 3.29115E-13-6.04239E-14
 -1       386-8.10004E+01-5.57775E+00-2.59928E+01 1.74225E+01-6.19405E-13-1.00471E-14
 -1       387-7.34889E+01-1.66103E+01-2.70487E+01 2.84134E+01-6.22954E-14 7.26451E-15
 -1       388-5.66450E+01-2.63674E+01-2.49191E+01 3.25395E+01 7.44033E-13 6.92859E-15
 -1       389-3.75332E+01-3.10390E+01-2.05830E+01 3.11311E+01 4.28129E-14 3.80587E-15
 -1       390-1.93576E+01-3.10819E+01-1.51400E+01 2.73625E+01-4.30705E-13 1.11922E-15
 -1       391-2.21687E+00-2.81231E+01-9.10819E+00 2.31423E+01-2.93072E-13 3.55497E-16
 -1       392 1.48133E+01-2.35707E+01-2.63302E+00 1.91340E+01 2.82174E-13 3.13854E-15
 -1       393 3.30636E+01-1.84351E+01 4.38139E+00 1.52828E+01 2.93149E-13 1.62076E-14
 -1       394 5.42692E+01-1.35382E+01 1.22081E+01 1.10443E+01 2.14606E-14-7.26128E-15
 -1       395 8.08958E+01-1.02233E+01 2.11815E+01 5.03051E+00 1.39543E-13 3.53543E-14
 -1       396-9.48321E+01-4.81472E+00-2.99183E+01 9.76618E+00-2.05445E-13-1.64145E-14
 -1       397-1.01928E+02-1.97506E+01-3.65377E+01 3.44597E+01-3.32766E-14 1.30588E-14
 -1       398-7.97149E+01-3.90075E+01-3.56452E+01 4.26983E+01-4.72618E-13 4.89711E-16
 -1       399-5.43577E+01-4.79106E+01-3.07004E+01 3.85750E+01 8.21748E-13-5.03902E-16
 -1       400-3.30558E+01-4.71321E+01-2.40694E+01 3.12759E+01 1.97682E-13-2.14701E-15
 -1       401-1.51318E+01-4.19107E+01-1.71214E+01 2.45436E+01 1.91446E-13 6.50244E-17
 -1       402 1.09046E+00-3.50050E+01-1.01807E+01 1.92820E+01 1.44441E-14 3.85171E-15
 -1       403 1.73845E+01-2.76942E+01-3.09876E+00 1.52161E+01 3.24379E-13-4.57413E-15
 -1       404 3.52805E+01-2.06502E+01 4.38172E+00 1.18212E+01-6.21729E-13 2.05243E-15
 -1       405 5.66431E+01-1.44164E+01 1.26562E+01 8.42540E+00-5.11945E-13-6.15795E-15
 -1       406 8.42337E+01-1.02926E+01 2.21606E+01 3.82926E+00-8.99097E-13 3.92299E-14
 -1       407-1.32819E+02 6.46488E+00-3.79694E+01 3.43229E+01-3.00722E-13-1.10483E-15
 -1       408-1.16777E+02-6.40679E+01-5.43171E+01 6.44486E+01-3.58597E-13-4.48597E-15
 -1       409-7.33194E+01-8.32561E+01-4.70148E+01 5.42279E+01-2.13836E-13 1.24148E-15
 -1       410-4.48653E+01-7.45191E+01-3.58389E+01 3.71219E+01-5.10635E-13-1.61199E-15
 -1       411-2.59124E+01-6.30880E+01-2.67141E+01 2.56448E+01-2.53998E-13-7.51219E-16
 -1       412-1.05407E+01-5.12173E+01-1.85362E+01 1.83248E+01 1.21854E-13 4.02836E-15
 -1       413 4.04107E+00-4.04284E+01-1.09225E+01 1.36022E+01-1.36222E-13 3.96948E-15
 -1       414 1.93800E+01-3.07681E+01-3.42228E+00 1.03744E+01 3.18378E-13-5.89803E-15
 -1       415 3.68440E+01-2.22477E+01 4.37144E+00 7.90257E+00-3.73242E-13-8.44987E-15
 -1       416 5.82187E+01-1.50406E+01 1.29412E+01 5.57799E+00-4.67640E-13 9.01902E-15
 -1       417 8.64062E+01-1.03446E+01 2.27957E+01 2.53037E+00 3.68889E-13-2.01819E-14
 -1       418-2.47514E+02-1.97276E+02-1.33828E+02 1.81825E+02 1.05483E-13 3.68259E-15
 -1       419-6.94661E+01-1.68444E+02-7.14919E+01 8.50121E+01-1.37592E-13-3.45679E-16
 -1       420-5.25496E+01-1.27185E+02-5.39689E+01 4.02309E+01 1.78954E-13-1.02159E-15
 -1       421-3.22412E+01-9.65361E+01-3.86584E+01 2.29850E+01-3.15636E-13 1.17669E-15
 -1       422-1.97724E+01-7.40243E+01-2.81532E+01 1.42406E+01-2.46125E-13-4.46356E-16
 -1       423-7.18802E+00-5.71520E+01-1.93108E+01 9.62474E+00-1.83722E-13 5.05574E-17
 -1       424 5.91952E+00-4.36862E+01-1.13363E+01 6.90525E+00 2.25878E-13-5.69344E-16
 -1       425 2.05633E+01-3.25551E+01-3.60337E+00 5.16550E+00 2.09555E-13-2.38426E-15
 -1       426 3.77170E+01-2.31570E+01 4.36047E+00 3.89135E+00-3.96154E-13 4.00600E-15
 -1       427 5.90687E+01-1.53935E+01 1.30902E+01 2.73182E+00 2.33769E-14 1.41973E-14
 -1       428 8.75639E+01-1.03764E+01 2.31329E+01 1.23766E+00 5.54355E-13 4.82769E-15
 -1       429-8.93030E+02-9.87670E+02-5.67813E+02-3.38627E+02 4.95132E-14 1.94087E-14
 -1       430-2.22072E+02-1.40485E+02-1.09523E+02-2.55403E+02-2.30335E-14-4.29557E-15
 -1       431-1.48361E+02-6.98172E+02-2.55580E+02-2.07621E+02 1.05965E-13-2.75322E-15
 -1       432-4.28156E+02-1.33025E+03-5.32049E+02-1.92278E+02-3.46903E-14 9.42586E-17
 -1       433-1.24394E+02-3.67884E+02-1.48343E+02-2.11996E+02-5.27480E-14-5.94274E-15
 -1       434-5.45880E+00-4.35014E+02-1.32731E+02-8.57091E+01-3.62657E-14-6.37642E-16
 -1       435 8.69066E+01-6.03067E+02-1.56008E+02 1.51237E+00 1.49994E-14 3.49806E-16
 -1       436 6.84845E+00-3.08024E+02-9.06946E+01-9.89522E+01 2.10606E-13-8.03243E-16
 -1       437 1.79889E+01-2.94746E+02-8.32895E+01-3.55533E+01 2.21096E-13 2.69554E-15
 -1       438 1.49035E+01-3.73975E+02-1.08121E+02-8.52735E-01 5.98480E-15 5.90793E-17
 -1       439 1.51719E+01-2.37284E+02-6.68143E+01-4.69398E+01-1.39808E-13-1.74132E-15
 -1       440 2.36440E+01-2.15687E+02-5.77563E+01-1.71009E+01-1.00873E-13 3.06737E-15
 -1       441 2.99469E+01-2.59200E+02-6.89809E+01 1.67118E-01-1.88476E-13 1.07043E-15
 -1       442 2.30686E+01-1.86062E+02-4.90088E+01-2.43301E+01-1.71987E-13 1.33855E-15
 -1       443 2.49968E+01-1.68182E+02-4.30450E+01-9.01063E+00 5.61267E-14 5.14000E-16
 -1       444 2.51754E+01-1.93924E+02-5.07407E+01 1.37786E-01 2.54518E-14 4.79953E-16
 -1       445 2.41655E+01-1.50026E+02-3.78312E+01-1.30972E+01-5.50327E-14 7.25413E-16
 -1       446 2.54380E+01-1.36293E+02-3.33175E+01-4.88885E+00-8.93475E-14-1.33901E-15
 -1       447 2.57664E+01-1.53067E+02-3.82652E+01 1.13785E-01 7.23775E-14-6.33412E-16
 -1       448 2.49968E+01-1.24412E+02-2.98762E+01-7.19067E+00-6.79690E-14-3.48792E-15
 -1       449 2.55649E+01-1.14215E+02-2.66395E+01-2.66758E+00-4.04070E-14-1.17679E-15
 -1       450 2.53984E+01-1.25739E+02-3.01548E+01 6.43848E-02 2.41831E-14 1.45705E-16
 -1       451 2.52183E+01-1.06104E+02-2.43046E+01-3.85969E+00-3.88189E-14-1.30221E-15
 -1       452 2.55905E+01-9.85709E+01-2.19284E+01-1.39421E+00-5.28078E-15 4.72601E-16
 -1       453 2.54415E+01-1.06645E+02-2.44003E+01 4.58210E-02 1.00934E-13 1.03511E-16
 -1       454 2.53592E+01-9.30121E+01-2.03268E+01-1.92771E+00-4.51622E-14 1.14234E-15
 -1       455 2.55762E+01-8.76123E+01-1.86388E+01-6.51884E-01 1.18654E-14 9.04821E-17
 -1       456 2.54226E+01-9.32405E+01-2.03765E+01 3.20484E-02 1.04158E-14 5.72733E-16
 -1       457 2.54203E+01-8.40019E+01-1.76005E+01-8.03207E-01 3.85578E-14-2.96325E-16
 -1       458 2.55337E+01-8.03994E+01-1.64839E+01-2.32109E-01-1.15490E-14-5.41385E-17
 -1       459 2.54458E+01-8.40822E+01-1.76170E+01 2.50852E-02-1.42367E-14-1.12923E-17
 -1       460 2.54773E+01-7.85143E+01-1.59344E+01-1.95170E-01-6.62481E-15-7.83265E-16
 -1       461 2.54567E+01-7.67307E+01-1.54046E+01-3.15687E-02-2.78811E-14 6.07044E-17
 -1       462 2.54812E+01-7.85365E+01-1.59399E+01 2.55350E-02-2.72481E-14 2.33882E-16
 -1       463 2.54923E+01-7.65848E+01-1.53501E+01-1.62428E-02 2.30731E-15-2.17526E-17
 -1       464 2.54939E+01-7.65868E+01-1.53502E+01-1.21949E-02-2.12440E-15 8.19709E-17
 -1       465 1.02640E+02 1.87906E+02 8.71233E+01 8.01332E+01 1.63817E-14-2.13632E-15
 -1       466-1.24717E+02-2.28579E+01-4.43435E+01-3.60653E+01 1.82244E-14 1.49703E-15
 -1       467-1.45653E+02-1.31388E+02-8.34988E+01-1.92813E+02 6.35904E-16 8.93362E-16
 -1       468-1.32185E+02-1.23699E+02-7.69491E+01-1.27198E+02-1.26876E-14 1.32891E-14
 -1       469-6.61609E+01-2.50627E+02-9.53583E+01-1.49556E+02 1.45951E-13 9.15357E-15
 -1       470-5.49410E+01-1.83249E+02-7.16390E+01-1.15730E+02-1.49044E-13-1.67659E-14
 -1       471-8.81852E+00-2.33384E+02-7.28636E+01-8.50513E+01-1.20056E-13-1.17490E-14
 -1       472-5.02586E+00-1.84918E+02-5.71186E+01-7.50333E+01 1.75964E-13 7.08399E-16
 -1       473 1.24292E+01-1.95685E+02-5.51050E+01-4.66967E+01 8.06993E-14-5.75958E-15
 -1       474 1.29391E+01-1.64101E+02-4.54428E+01-4.39504E+01 1.36273E-14 2.48445E-15
 -1       475 2.05308E+01-1.59744E+02-4.18479E+01-2.59452E+01 1.03739E-13 8.64169E-15
 -1       476 2.04700E+01-1.40493E+02-3.60739E+01-2.53373E+01 3.50709E-14-3.50721E-15
 -1       477 2.35753E+01-1.32854E+02-3.28425E+01-1.45466E+01 7.99618E-14-4.18860E-15
 -1       478 2.33382E+01-1.20293E+02-2.91358E+01-1.43621E+01 7.15237E-14 6.14302E-15
 -1       479 2.47893E+01-1.12737E+02-2.64280E+01-8.05551E+00 7.63040E-14-5.07953E-16
 -1       480 2.45910E+01-1.04306E+02-2.39524E+01-7.86053E+00-1.86426E-14 3.19150E-15
 -1       481 2.52759E+01-9.79713E+01-2.18426E+01-4.24922E+00-1.28377E-14-2.31229E-15
 -1       482 2.51116E+01-9.22742E+01-2.01793E+01-3.96545E+00-4.92233E-14-2.37821E-15
 -1       483 2.54590E+01-8.73948E+01-1.86086E+01-1.99658E+00 5.03800E-14 1.22691E-15
 -1       484 2.53448E+01-8.37314E+01-1.75419E+01-1.66313E+00-1.70512E-14-3.41032E-15
 -1       485 2.54994E+01-8.03483E+01-1.64789E+01-7.12310E-01-9.09863E-15 5.30646E-16
 -1       486 2.54599E+01-7.84427E+01-1.59181E+01-4.06843E-01-7.24696E-15-8.27258E-16
 -1       487 2.54556E+01-7.67356E+01-1.54064E+01-9.64006E-02 2.37075E-14-5.49255E-16
 -1       488 2.54896E+01-7.65769E+01-1.53485E+01-3.36198E-02-4.24126E-14-1.14649E-16
 -1       489-1.03794E+01-2.03324E+01-9.21583E+00-1.39717E+00 3.45046E-13 2.53283E-14
 -1       490-3.89988E+01-2.09908E+00-1.23350E+01-1.23889E+01-1.11331E-13 1.65123E-14
 -1       491-1.08436E+02-1.23262E+01-3.62878E+01-6.09577E+01 1.90060E-14-2.13017E-15
 -1       492-8.35114E+01-4.09611E+01-3.73876E+01-6.08792E+01 3.77877E-14-9.20908E-15
 -1       493-8.21282E+01-1.03906E+02-5.59279E+01-1.06746E+02 1.13885E-13-3.81552E-15
 -1       494-6.51926E+01-9.63149E+01-4.85345E+01-8.73295E+01-1.22210E-14 9.78504E-15
 -1       495-3.41755E+01-1.54198E+02-5.66352E+01-9.26847E+01-6.68235E-14-1.32639E-14
 -1       496-2.54300E+01-1.28197E+02-4.61729E+01-7.64560E+01 5.69775E-14 5.93063E-15
 -1       497-2.93561E+00-1.56827E+02-4.80262E+01-6.30677E+01-3.38858E-14-2.24847E-15
 -1       498 1.05218E+00-1.33415E+02-3.97808E+01-5.42340E+01 2.51858E-14-1.81539E-14
 -1       499 1.27377E+01-1.43022E+02-3.91581E+01-3.91583E+01 5.54065E-14-3.69553E-15
 -1       500 1.43478E+01-1.25460E+02-3.33908E+01-3.46799E+01 7.01062E-14 5.93177E-15
 -1       501 1.99570E+01-1.25394E+02-3.16852E+01-2.33328E+01-1.05403E-13-7.02247E-15
 -1       502 2.06052E+01-1.13178E+02-2.78169E+01-2.08580E+01-2.33976E-14 6.61495E-15
 -1       503 2.31833E+01-1.09500E+02-2.59367E+01-1.33635E+01 6.17394E-14 4.17583E-15
 -1       504 2.34088E+01-1.01089E+02-2.33402E+01-1.18055E+01-7.51309E-15 6.01730E-15
 -1       505 2.46011E+01-9.66230E+01-2.16397E+01-7.18726E+00 4.87239E-15 3.06899E-15
 -1       506 2.46573E+01-9.09070E+01-1.99047E+01-6.07380E+00-2.43423E-14 5.15666E-15
 -1       507 2.52018E+01-8.69022E+01-1.85377E+01-3.41353E+00-1.38525E-14 5.31446E-15
 -1       508 2.51957E+01-8.32265E+01-1.74349E+01-2.57718E+00 3.70131E-14 5.42053E-16
 -1       509 2.54229E+01-8.02304E+01-1.64664E+01-1.22338E+00-4.30700E-15 9.46198E-16
 -1       510 2.54278E+01-7.83077E+01-1.58872E+01-6.37354E-01 1.34202E-14 2.39506E-16
 -1       511 2.54525E+01-7.67457E+01-1.54104E+01-1.63586E-01 3.79028E-14-1.49242E-16
 -1       512 2.54847E+01-7.65618E+01-1.53455E+01-5.29039E-02 2.84963E-14 4.36171E-16
 -1       513-2.22884E-01 6.82368E+00 1.98026E+00 1.85048E+00-4.08863E-14-6.71843E-15
 -1       514-2.05454E+01-2.14215E+00-6.80778E+00-7.16541E+00 9.19113E-14-8.39416E-15
 -1       515-5.22316E+01-9.88782E+00-1.86474E+01-2.53350E+01-1.01226E-13 8.42606E-16
 -1       516-5.22702E+01-1.96234E+01-2.15831E+01-3.35001E+01 1.32187E-13-1.47246E-15
 -1       517-6.40443E+01-4.37987E+01-3.23948E+01-6.38180E+01 5.30343E-14-3.77850E-15
 -1       518-5.20802E+01-5.15220E+01-3.11151E+01-5.75948E+01-1.51298E-13-5.60311E-16
 -1       519-4.25987E+01-8.88506E+01-3.94972E+01-7.55851E+01-8.66522E-14-1.43674E-15
 -1       520-3.21341E+01-8.36041E+01-3.47692E+01-6.40181E+01 1.55653E-14 1.04416E-14
 -1       521-1.50622E+01-1.14725E+02-3.90011E+01-6.43412E+01-5.48379E-14 1.37557E-14
 -1       522-8.82189E+00-1.02425E+02-3.34240E+01-5.45975E+01 3.35484E-15 3.09308E-15
 -1       523 4.22361E+00-1.20003E+02-3.47912E+01-4.62031E+01 4.50260E-14-2.67478E-14
 -1       524 7.65295E+00-1.07252E+02-2.99254E+01-3.96024E+01-4.35059E-14 1.56110E-14
 -1       525 1.51989E+01-1.14070E+02-2.97087E+01-3.00254E+01-9.62427E-14 7.38396E-15
 -1       526 1.69716E+01-1.03593E+02-2.60258E+01-2.58035E+01-4.33758E-14 1.71991E-14
 -1       527 2.08318E+01-1.04249E+02-2.50638E+01-1.81184E+01 1.27161E-14 5.27500E-15
 -1       528 2.17120E+01-9.64343E+01-2.24502E+01-1.53385E+01-1.98805E-14-6.54433E-15
 -1       529 2.35468E+01-9.43609E+01-2.12761E+01-1.00500E+01-3.91741E-14-1.30341E-15
 -1       530 2.39580E+01-8.88477E+01-1.94956E+01-8.13029E+00 1.07295E-14-6.53420E-15
 -1       531 2.47836E+01-8.60549E+01-1.84085E+01-4.85864E+00 1.34498E-14-1.86776E-15
 -1       532 2.49614E+01-8.24465E+01-1.72707E+01-3.51251E+00 1.40730E-14 9.73793E-15
 -1       533 2.52950E+01-8.00216E+01-1.64420E+01-1.75432E+00-4.57400E-14 2.79427E-15
 -1       534 2.53766E+01-7.80987E+01-1.58397E+01-8.82568E-01-6.55748E-16-8.77573E-16
 -1       535 2.54459E+01-7.67594E+01-1.54165E+01-2.29746E-01-4.39832E-14 4.66099E-16
 -1       536 2.54782E+01-7.65381E+01-1.53403E+01-7.44606E-02 7.14394E-15-3.72249E-16
 -1       537-4.86506E-01-5.68038E-01-3.16388E-01 4.72252E-01 6.70697E-14-9.38674E-15
 -1       538-1.19538E+01-1.48889E+00-4.03333E+00-4.67177E+00 6.04337E-14-3.96560E-15
 -1       539-3.07691E+01-5.07073E+00-1.07560E+01-1.52406E+01-5.99683E-14 3.14951E-15
 -1       540-3.14618E+01-1.10761E+01-1.27668E+01-2.03753E+01-4.23004E-14-4.05654E-16
 -1       541-4.48873E+01-2.34558E+01-2.05188E+01-3.80378E+01-1.38862E-13 8.81442E-15
 -1       542-3.79892E+01-3.03931E+01-2.05299E+01-3.81961E+01-4.33825E-14 1.67531E-15
 -1       543-3.81009E+01-5.21439E+01-2.71035E+01-5.46202E+01 1.43833E-14 2.87997E-14
 -1       544-2.97442E+01-5.49852E+01-2.54445E+01-4.90472E+01-4.81699E-14 5.78567E-16
 -1       545-2.03465E+01-7.96646E+01-3.00428E+01-5.62913E+01-2.90397E-14 1.36116E-15
 -1       546-1.36808E+01-7.62890E+01-2.70235E+01-4.86872E+01 2.87943E-15 1.67700E-14
 -1       547-2.52433E+00-9.56501E+01-2.94939E+01-4.68447E+01-7.33059E-14 2.99107E-14
 -1       548 1.94996E+00-8.87180E+01-2.60649E+01-4.00706E+01-4.22861E-14-5.89457E-15
 -1       549 1.02965E+01-9.99942E+01-2.69482E+01-3.37584E+01 1.64893E-15-2.73309E-15
 -1       550 1.30448E+01-9.24500E+01-2.38546E+01-2.86300E+01 4.13264E-15 1.35987E-14
 -1       551 1.80092E+01-9.70574E+01-2.37489E+01-2.17996E+01-2.16605E-15-8.67551E-15
 -1       552 1.95922E+01-9.05242E+01-2.13098E+01-1.81137E+01-4.75478E-14-2.10905E-15
 -1       553 2.21561E+01-9.10701E+01-2.07042E+01-1.26192E+01 2.79961E-14 7.03690E-15
 -1       554 2.30108E+01-8.60784E+01-1.89474E+01-9.99509E+00 1.92906E-14 1.30643E-15
 -1       555 2.41980E+01-8.47723E+01-1.81986E+01-6.25788E+00-4.59467E-14-2.56657E-15
 -1       556 2.46269E+01-8.13621E+01-1.70452E+01-4.42858E+00-2.97260E-14-9.81889E-15
 -1       557 2.51080E+01-7.96907E+01-1.63986E+01-2.28455E+00 6.74219E-16-6.15952E-15
 -1       558 2.53032E+01-7.78063E+01-1.57738E+01-1.13727E+00 1.12828E-14-4.12025E-16
 -1       559 2.54336E+01-7.67726E+01-1.54242E+01-2.90000E-01 1.24361E-14 8.23750E-16
 -1       560 2.54702E+01-7.65053E+01-1.53329E+01-9.83309E-02 3.65207E-15-6.76192E-16
 -1       561-2.81300E-01 3.14525E-01 9.95859E-03 1.48022E-01 9.64887E-14-1.04943E-15
 -1       562-7.24949E+00-1.33401E+00-2.57527E+00-3.40543E+00-2.19243E-14-1.38373E-15
 -1       563-1.84346E+01-4.29301E+00-6.81983E+00-9.77945E+00-3.99738E-14 1.85074E-15
 -1       564-2.00048E+01-7.88341E+00-8.36884E+00-1.37322E+01-2.84606E-14-4.28672E-15
 -1       565-2.98465E+01-1.49655E+01-1.34503E+01-2.45444E+01-9.29091E-14-5.27718E-15
 -1       566-2.62827E+01-2.02280E+01-1.39603E+01-2.61797E+01-2.00554E-14 6.31157E-15
 -1       567-2.99681E+01-3.34135E+01-1.90292E+01-3.84746E+01 8.29666E-14 1.79590E-14
 -1       568-2.39521E+01-3.78558E+01-1.85561E+01-3.64861E+01-3.69220E-14-2.29888E-14
 -1       569-2.01985E+01-5.54240E+01-2.27096E+01-4.52744E+01 4.17353E-14-1.49392E-14
 -1       570-1.42541E+01-5.67998E+01-2.13364E+01-4.04652E+01 2.19706E-14 1.50968E-15
 -1       571-6.37321E+00-7.41127E+01-2.41742E+01-4.29144E+01-2.65368E-15 6.89086E-15
 -1       572-1.67561E+00-7.20395E+01-2.21393E+01-3.72240E+01-1.04848E-14 1.48230E-14
 -1       573 6.16201E+00-8.50356E+01-2.36924E+01-3.44104E+01 4.36501E-14-3.24823E-14
 -1       574 9.47773E+00-8.08686E+01-2.14439E+01-2.92202E+01 2.20399E-14-2.24124E-14
 -1       575 1.50990E+01-8.83650E+01-2.20094E+01-2.40338E+01-3.12953E-14-2.44662E-15
 -1       576 1.72614E+01-8.37089E+01-1.99607E+01-1.98512E+01 2.13743E-14-1.23280E-14
 -1       577 2.05335E+01-8.67382E+01-1.98890E+01-1.46756E+01 2.68266E-14-6.55079E-16
 -1       578 2.18397E+01-8.26509E+01-1.82686E+01-1.15110E+01 3.60864E-14-6.55140E-15
 -1       579 2.34582E+01-8.29818E+01-1.78824E+01-7.52620E+00 5.16512E-15 2.64821E-15
 -1       580 2.41828E+01-7.99608E+01-1.67572E+01-5.26987E+00-6.93990E-14 4.42420E-15
 -1       581 2.48581E+01-7.91993E+01-1.63259E+01-2.78989E+00 1.22640E-14 6.50037E-15
 -1       582 2.52043E+01-7.74261E+01-1.56892E+01-1.39174E+00 6.56051E-15-2.06806E-15
 -1       583 2.54124E+01-7.67769E+01-1.54318E+01-3.39662E-01 2.40487E-14 7.96334E-16
 -1       584 2.54613E+01-7.64634E+01-1.53230E+01-1.24032E-01 2.14077E-14 8.09962E-16
 -1       585-2.41009E-01-8.45737E-02-9.76809E-02 5.91604E-02 2.89411E-14 1.27676E-15
 -1       586-4.58507E+00-1.26021E+00-1.75369E+00-2.59863E+00-1.86979E-14-2.80402E-15
 -1       587-1.15540E+01-3.66704E+00-4.56699E+00-7.02574E+00 1.54541E-14-2.31719E-15
 -1       588-1.28959E+01-6.30486E+00-5.76136E+00-9.84761E+00 3.41476E-14-1.61296E-14
 -1       589-1.97993E+01-1.11416E+01-9.28541E+00-1.69218E+01 4.97064E-14-1.53737E-14
 -1       590-1.78311E+01-1.50006E+01-9.85309E+00-1.86681E+01-2.04552E-14 7.70324E-15
 -1       591-2.19809E+01-2.35691E+01-1.36725E+01-2.74648E+01 4.26542E-14-7.03188E-15
 -1       592-1.77934E+01-2.77904E+01-1.36827E+01-2.71091E+01 1.39158E-14 5.22967E-15
 -1       593-1.71989E+01-4.01246E+01-1.72102E+01-3.50354E+01 1.72404E-15-1.90732E-14
 -1       594-1.23404E+01-4.32753E+01-1.66972E+01-3.23801E+01 3.05275E-14 1.98357E-15
 -1       595-7.55099E+00-5.73227E+01-1.94808E+01-3.67675E+01-3.59758E-14-2.77763E-15
 -1       596-3.15459E+00-5.83362E+01-1.84644E+01-3.25650E+01 2.94778E-14-6.26026E-15
 -1       597 3.30618E+00-7.10131E+01-2.03347E+01-3.25387E+01-6.27420E-14 8.47318E-16
 -1       598 6.78258E+00-6.98613E+01-1.89443E+01-2.78981E+01-4.51159E-14-2.45527E-14
 -1       599 1.24729E+01-7.89419E+01-1.99652E+01-2.46773E+01 3.94029E-14 9.72883E-15
 -1       600 1.49912E+01-7.64492E+01-1.84599E+01-2.04150E+01 8.47424E-15-1.23671E-14
 -1       601 1.88263E+01-8.15098E+01-1.88298E+01-1.60271E+01 1.16719E-14-8.87070E-16
 -1       602 2.05104E+01-7.86866E+01-1.74759E+01-1.25286E+01-6.24203E-14 4.51944E-15
 -1       603 2.25997E+01-8.06461E+01-1.74379E+01-8.56818E+00 2.27351E-14 7.64087E-15
 -1       604 2.36272E+01-7.82528E+01-1.64105E+01-5.96798E+00 2.81330E-14-9.53940E-15
 -1       605 2.45474E+01-7.85064E+01-1.62108E+01-3.24171E+00 2.38254E-14-2.72509E-15
 -1       606 2.50761E+01-7.69594E+01-1.55874E+01-1.63016E+00 3.23249E-14-5.74561E-16
 -1       607 2.53793E+01-7.67597E+01-1.54365E+01-3.75246E-01 7.31604E-15 6.12828E-16
 -1       608 2.54522E+01-7.64138E+01-1.53108E+01-1.50095E-01 5.61425E-14-1.13493E-16
 -1       609-1.75388E-01-6.71402E-02-7.27620E-02-1.38873E-03-4.69424E-14 7.84214E-15
 -1       610-2.93536E+00-1.22896E+00-1.24935E+00-2.03328E+00 2.63361E-14-9.65837E-15
 -1       611-7.38745E+00-3.35488E+00-3.22304E+00-5.24585E+00 4.22270E-14-2.59469E-15
 -1       612-8.38143E+00-5.48664E+00-4.16101E+00-7.36722E+00 3.36661E-14-7.81118E-15
 -1       613-1.30377E+01-9.10966E+00-6.64580E+00-1.22474E+01-3.65497E-14-5.97414E-15
 -1       614-1.18955E+01-1.21485E+01-7.21510E+00-1.37476E+01-3.23720E-15-3.24607E-15
 -1       615-1.54031E+01-1.81904E+01-1.00821E+01-2.00546E+01-1.34228E-14-2.11802E-14
 -1       616-1.24937E+01-2.18106E+01-1.02956E+01-2.03128E+01 5.21555E-14-8.50264E-15
 -1       617-1.32683E+01-3.06849E+01-1.31937E+01-2.67824E+01 1.68368E-14 1.21812E-14
 -1       618-9.43070E+00-3.42050E+01-1.30984E+01-2.54115E+01-2.90390E-14-2.27126E-14
 -1       619-6.91095E+00-4.52132E+01-1.56493E+01-3.02024E+01-1.90303E-14-8.40297E-15
 -1       620-3.02977E+00-4.77778E+01-1.52540E+01-2.73201E+01 4.24883E-15-6.04560E-14
 -1       621 1.78292E+00-5.90931E+01-1.72094E+01-2.90417E+01 8.59714E-15 9.90348E-15
 -1       622 5.15133E+00-6.01363E+01-1.65111E+01-2.52323E+01-3.56879E-14-1.21320E-14
 -1       623 1.03843E+01-6.96551E+01-1.78010E+01-2.38452E+01 6.56854E-14 1.27976E-14
 -1       624 1.30399E+01-6.92297E+01-1.68757E+01-1.98417E+01 3.11679E-14 9.75566E-15
 -1       625 1.71868E+01-7.56943E+01-1.75739E+01-1.65467E+01-3.69118E-14-1.22139E-14
 -1       626 1.91258E+01-7.43657E+01-1.65927E+01-1.29356E+01-6.66522E-16-9.02467E-15
 -1       627 2.16753E+01-7.77911E+01-1.68572E+01-9.28638E+00 5.59767E-14-4.95728E-15
 -1       628 2.29710E+01-7.62738E+01-1.60126E+01-6.44774E+00-1.35127E-14-2.82244E-15
 -1       629 2.41871E+01-7.75789E+01-1.60401E+01-3.60745E+00-2.06982E-14-1.02390E-15
 -1       630 2.49148E+01-7.64143E+01-1.54720E+01-1.82972E+00 1.04830E-14-1.15246E-15
 -1       631 2.53331E+01-7.67053E+01-1.54340E+01-3.95882E-01 7.41659E-15 2.61409E-15
 -1       632 2.54432E+01-7.63590E+01-1.52970E+01-1.73612E-01 2.74092E-14 7.84005E-17
 -1       633-1.39163E-01-9.67581E-02-7.07785E-02-1.86289E-02-2.07245E-14 7.52921E-17
 -1       634-1.87437E+00-1.21619E+00-9.27199E-01-1.60674E+00 2.57230E-14 3.42334E-15
 -1       635-4.73946E+00-3.14675E+00-2.36604E+00-4.03295E+00 1.49368E-14-7.43697E-15
 -1       636-5.39536E+00-5.01717E+00-3.12409E+00-5.63363E+00 7.22107E-16 2.28582E-14
 -1       637-8.48702E+00-7.94667E+00-4.93097E+00-9.14377E+00 1.76432E-14 3.84376E-16
 -1       638-7.73418E+00-1.04900E+01-5.46837E+00-1.03344E+01-1.52752E-14 4.82635E-15
 -1       639-1.03700E+01-1.50592E+01-7.63107E+00-1.49371E+01 5.28689E-14-6.44601E-15
 -1       640-8.29491E+00-1.81668E+01-7.94110E+00-1.53415E+01-1.06530E-14-5.69308E-16
 -1       641-9.43266E+00-2.48204E+01-1.02805E+01-2.04285E+01-4.30709E-14-2.66784E-14
 -1       642-6.43759E+00-2.82008E+01-1.03964E+01-1.97175E+01-6.03336E-14-2.43700E-14
 -1       643-5.29937E+00-3.68215E+01-1.26441E+01-2.41653E+01-2.07893E-14-5.01679E-15
 -1       644-1.97468E+00-3.99828E+01-1.25953E+01-2.22207E+01-8.70080E-14-1.96147E-15
 -1       645 1.34918E+00-4.96534E+01-1.45030E+01-2.47886E+01 2.66625E-14-2.84006E-14
 -1       646 4.48032E+00-5.20370E+01-1.42787E+01-2.18091E+01 1.54262E-14 1.73105E-14
 -1       647 8.92774E+00-6.12175E+01-1.57024E+01-2.18472E+01 1.06962E-14 2.36997E-15
 -1       648 1.15739E+01-6.24780E+01-1.52866E+01-1.83071E+01 3.03392E-14-1.69282E-14
 -1       649 1.57359E+01-6.97072E+01-1.62100E+01-1.61989E+01 3.06547E-14-1.57360E-14
 -1       650 1.78081E+01-6.99100E+01-1.56490E+01-1.26800E+01-3.49798E-14 1.02956E-14
 -1       651 2.07436E+01-7.45254E+01-1.61552E+01-9.59174E+00 1.01163E-14-2.40545E-14
 -1       652 2.22424E+01-7.40859E+01-1.55736E+01-6.63725E+00-1.72033E-14 1.50156E-14
 -1       653 2.37964E+01-7.64053E+01-1.58045E+01-3.85035E+00 1.88392E-14-9.12914E-15
 -1       654 2.47167E+01-7.58051E+01-1.53483E+01-1.96131E+00-1.40067E-14 1.77990E-16
 -1       655 2.52769E+01-7.65986E+01-1.54188E+01-4.03880E-01-2.96988E-14-9.08748E-16
 -1       656 2.54329E+01-7.63025E+01-1.52831E+01-1.90133E-01-3.37975E-14-1.18679E-15
 -1       657-1.09734E-01-1.00970E-01-6.32126E-02-2.81254E-02-7.93502E-15-2.86797E-14
 -1       658-1.16594E+00-1.21133E+00-7.13197E-01-1.26434E+00-9.56733E-15 2.54014E-14
 -1       659-2.99881E+00-3.01378E+00-1.80388E+00-3.12425E+00-1.28386E-14 1.39119E-14
 -1       660-3.37157E+00-4.73928E+00-2.43346E+00-4.33277E+00 5.07757E-15-1.33611E-15
 -1       661-5.37227E+00-7.22715E+00-3.78033E+00-6.92685E+00-3.31220E-15-1.66766E-14
 -1       662-4.80339E+00-9.48150E+00-4.28615E+00-7.82022E+00 4.36543E-15 7.14593E-15
 -1       663-6.63525E+00-1.31386E+01-5.93354E+00-1.12406E+01 4.26768E-15-2.95460E-14
 -1       664-5.09807E+00-1.58875E+01-6.29729E+00-1.15929E+01-2.00282E-15-5.65018E-15
 -1       665-6.12284E+00-2.10961E+01-8.16859E+00-1.55473E+01-9.83636E-15-1.45265E-14
 -1       666-3.78242E+00-2.42304E+01-8.40706E+00-1.51192E+01 1.89911E-14-5.86143E-15
 -1       667-3.34093E+00-3.10978E+01-1.03368E+01-1.89592E+01 1.50831E-14 1.17002E-14
 -1       668-5.41400E-01-3.43873E+01-1.04842E+01-1.75862E+01 1.42234E-14 3.59045E-15
 -1       669 1.65994E+00-4.25277E+01-1.22687E+01-2.03967E+01-5.63173E-15 2.16195E-14
 -1       670 4.50521E+00-4.56061E+01-1.23390E+01-1.80840E+01-2.49209E-14-4.13204E-15
 -1       671 8.06677E+00-5.40490E+01-1.38067E+01-1.90706E+01-1.41739E-14 4.03095E-15
 -1       672 1.06322E+01-5.65099E+01-1.37758E+01-1.60541E+01-1.36304E-14-7.42748E-15
 -1       673 1.45422E+01-6.39733E+01-1.48450E+01-1.50436E+01 8.83332E-15-7.06209E-15
 -1       674 1.66680E+01-6.55599E+01-1.46837E+01-1.17743E+01-3.63987E-15 1.26530E-14
 -1       675 1.98550E+01-7.10354E+01-1.53730E+01-9.41625E+00 2.87238E-14-5.78713E-15
 -1       676 2.14888E+01-7.17798E+01-1.51066E+01-6.47915E+00 3.67050E-14 1.04873E-14
 -1       677 2.33996E+01-7.50109E+01-1.55045E+01-3.92888E+00-1.34235E-14-2.20611E-14
 -1       678 2.44810E+01-7.51511E+01-1.52224E+01-1.99279E+00 2.40999E-14-1.19202E-14
 -1       679 2.52196E+01-7.64310E+01-1.53857E+01-4.03294E-01 6.56014E-15 3.52379E-15
 -1       680 2.54180E+01-7.62475E+01-1.52710E+01-1.94363E-01-3.29431E-15 3.45827E-16
 -1       681-8.95811E-02-1.07370E-01-5.90864E-02-3.01610E-02 7.97664E-15-6.04186E-14
 -1       682-6.83266E-01-1.21043E+00-5.68120E-01-9.74974E-01 8.69019E-15-2.63244E-15
 -1       683-1.82460E+00-2.92548E+00-1.42509E+00-2.40319E+00-2.29140E-15 1.95899E-14
 -1       684-1.97696E+00-4.57285E+00-1.96507E+00-3.29036E+00-1.79144E-14-4.43653E-14
 -1       685-3.21937E+00-6.76471E+00-2.99554E+00-5.23514E+00 9.93674E-15-1.61468E-14
 -1       686-2.73525E+00-8.85071E+00-3.47623E+00-5.85400E+00-1.64365E-14 1.55755E-14
 -1       687-3.90871E+00-1.19111E+01-4.74683E+00-8.43253E+00 2.27080E-15-8.28624E-15
 -1       688-2.72252E+00-1.44330E+01-5.14773E+00-8.64336E+00 1.40280E-14 1.37564E-14
 -1       689-3.45320E+00-1.86747E+01-6.64027E+00-1.17144E+01-1.85603E-14-1.77969E-14
 -1       690-1.60810E+00-2.16020E+01-6.96525E+00-1.13539E+01-3.41728E-14-2.53351E-14
 -1       691-1.42140E+00-2.72060E+01-8.59181E+00-1.45543E+01-4.14227E-14 4.80173E-15
 -1       692 9.11126E-01-3.04547E+01-8.86710E+00-1.34775E+01 2.75266E-14 2.50881E-14
 -1       693 2.38728E+00-3.73180E+01-1.04853E+01-1.61945E+01-9.70236E-15-1.08245E-14
 -1       694 4.93054E+00-4.07055E+01-1.07392E+01-1.43384E+01 1.89826E-14 7.87854E-16
 -1       695 7.68921E+00-4.82844E+01-1.21879E+01-1.58648E+01-4.40501E-15-1.34704E-14
 -1       696 1.01445E+01-5.15120E+01-1.24204E+01-1.33202E+01-1.90371E-14 8.89690E-15
 -1       697 1.36256E+01-5.88406E+01-1.35777E+01-1.32119E+01-1.78533E-14 2.65775E-14
 -1       698 1.57757E+01-6.15518E+01-1.37470E+01-1.02811E+01 2.40058E-15-1.82656E-14
 -1       699 1.90444E+01-6.75586E+01-1.45713E+01-8.72560E+00 4.53273E-15 2.41017E-15
 -1       700 2.07708E+01-6.94768E+01-1.46298E+01-5.93840E+00 1.32501E-14 2.50445E-15
 -1       701 2.30189E+01-7.34654E+01-1.51542E+01-3.79827E+00 1.43681E-14 7.23378E-15
 -1       702 2.42142E+01-7.44777E+01-1.51001E+01-1.89471E+00 4.67183E-15-2.15769E-15
 -1       703 2.51758E+01-7.62070E+01-1.53315E+01-3.95953E-01 1.75572E-14 9.61057E-16
 -1       704 2.53930E+01-7.61966E+01-1.52632E+01-1.81960E-01 3.70662E-14-6.27131E-16
 -1       705-7.48273E-02-1.14159E-01-5.66968E-02-2.90759E-02-3.13964E-15 4.02005E-14
 -1       706-3.52790E-01-1.21072E+00-4.69061E-01-7.18388E-01 3.41532E-16 1.86002E-14
 -1       707-1.02467E+00-2.86854E+00-1.16801E+00-1.79739E+00-3.63350E-15-8.70239E-15
 -1       708-1.01477E+00-4.47798E+00-1.64792E+00-2.40260E+00 1.03578E-15 1.37409E-14
 -1       709-1.72766E+00-6.46105E+00-2.45683E+00-3.86312E+00 1.17987E-14 4.92172E-15
 -1       710-1.28946E+00-8.45609E+00-2.92398E+00-4.22120E+00 3.39678E-15-5.68772E-14
 -1       711-1.94844E+00-1.11084E+01-3.91766E+00-6.18046E+00-1.37785E-14-4.64782E-14
 -1       712-1.00402E+00-1.35026E+01-4.35276E+00-6.20261E+00 4.43264E-15 1.35035E-14
 -1       713-1.39912E+00-1.70765E+01-5.54401E+00-8.59355E+00 2.00550E-14-2.84306E-14
 -1       714 6.87192E-02-1.98756E+01-5.94367E+00-8.17158E+00 1.53353E-14 2.92550E-14
 -1       715 2.53003E-01-2.45654E+01-7.29630E+00-1.07955E+01-2.00662E-15-5.47796E-16
 -1       716 2.18243E+00-2.77584E+01-7.67581E+00-9.82170E+00-6.51772E-16-6.19344E-15
 -1       717 3.26769E+00-3.36038E+01-9.10537E+00-1.22921E+01-3.24926E-15 1.64745E-14
 -1       718 5.50753E+00-3.71285E+01-9.49152E+00-1.06984E+01 1.38480E-14 2.18954E-14
 -1       719 7.65274E+00-4.38682E+01-1.08721E+01-1.24731E+01-1.13892E-14-1.01151E-14
 -1       720 9.97887E+00-4.75635E+01-1.12838E+01-1.02890E+01 2.78686E-15-1.94609E-14
 -1       721 1.29724E+01-5.45397E+01-1.24814E+01-1.08614E+01 6.80575E-15-2.57763E-14
 -1       722 1.51467E+01-5.80986E+01-1.28980E+01-8.28800E+00 2.62312E-14 2.71049E-14
 -1       723 1.83335E+01-6.43446E+01-1.38188E+01-7.52574E+00-7.47982E-15-4.17547E-15
 -1       724 2.01504E+01-6.73299E+01-1.41707E+01-5.00389E+00-2.08236E-14-1.15225E-14
 -1       725 2.26701E+01-7.18823E+01-1.47831E+01-3.41735E+00 5.65375E-16 1.46086E-14
 -1       726 2.39346E+01-7.38204E+01-1.49863E+01-1.64654E+00 4.74429E-15-4.21234E-15
 -1       727 2.51608E+01-7.59478E+01-1.52581E+01-3.76440E-01 1.34843E-14-4.06007E-15
 -1       728 2.53535E+01-7.61512E+01-1.52614E+01-1.52017E-01-2.10993E-14-2.82798E-15
 -1       729-6.40197E-02-1.24126E-01-5.64443E-02-2.53669E-02-2.50371E-15-4.73581E-14
 -1       730-1.32213E-01-1.20998E+00-4.02663E-01-4.79879E-01 1.46785E-15-2.88449E-14
 -1       731-4.85904E-01-2.83479E+00-9.96240E-01-1.26122E+00 1.17534E-15 3.46455E-14
 -1       732-3.69131E-01-4.43289E+00-1.44068E+00-1.59902E+00 9.99448E-16-3.44537E-14
 -1       733-7.11704E-01-6.26466E+00-2.09306E+00-2.68300E+00 5.17263E-15-2.09818E-14
 -1       734-3.16162E-01-8.22138E+00-2.56150E+00-2.77898E+00-7.80674E-16 3.26138E-14
 -1       735-5.78658E-01-1.05858E+01-3.34978E+00-4.26880E+00-4.34549E-15-3.21714E-14
 -1       736 1.77860E-01-1.29282E+01-3.82569E+00-4.06396E+00 2.52996E-15-2.37628E-14
 -1       737 1.04242E-01-1.60285E+01-4.77827E+00-5.93158E+00 1.22830E-14 9.36971E-15
 -1       738 1.27093E+00-1.87829E+01-5.25485E+00-5.35731E+00-5.58789E-15 1.24970E-14
 -1       739 1.58587E+00-2.28030E+01-6.36708E+00-7.49802E+00 2.21632E-15 4.81784E-14
 -1       740 3.16830E+00-2.59960E+01-6.85071E+00-6.48527E+00-1.21295E-14 5.63749E-14
 -1       741 4.10941E+00-3.10418E+01-8.08328E+00-8.66759E+00-3.95397E-16-4.47634E-14
 -1       742 6.05538E+00-3.46780E+01-8.59105E+00-7.17290E+00-5.98412E-15-3.59667E-14
 -1       743 7.81142E+00-4.06633E+01-9.86163E+00-9.01962E+00 1.59529E-14 1.49832E-14
 -1       744 9.99077E+00-4.46823E+01-1.04146E+01-7.06857E+00-1.69737E-15 1.01172E-14
 -1       745 1.25501E+01-5.11947E+01-1.16030E+01-8.12889E+00 1.87264E-15 1.10870E-14
 -1       746 1.47500E+01-5.53863E+01-1.22021E+01-5.88252E+00-1.69345E-14 3.30636E-15
 -1       747 1.77433E+01-6.16260E+01-1.31789E+01-5.85755E+00 3.23262E-14 3.12376E-14
 -1       748 1.96762E+01-6.55206E+01-1.37692E+01-3.68575E+00-8.21237E-15-8.89621E-15
 -1       749 2.23642E+01-7.04102E+01-1.44325E+01-2.76099E+00 1.16915E-14 1.77266E-14
 -1       750 2.36758E+01-7.32329E+01-1.48874E+01-1.24149E+00 8.85864E-16-1.75245E-16
 -1       751 2.51810E+01-7.56890E+01-1.51742E+01-3.29989E-01 1.88833E-14-1.55975E-15
 -1       752 2.53015E+01-7.61133E+01-1.52657E+01-1.08377E-01 8.25095E-15 2.47862E-16
 -1       753-5.98813E-02-1.40359E-01-6.00728E-02-1.88932E-02-2.26544E-16-7.39068E-14
 -1       754 1.83771E-03-1.20332E+00-3.60449E-01-2.45777E-01-1.30566E-16-1.78575E-14
 -1       755-1.42336E-01-2.81990E+00-8.88697E-01-7.59945E-01 2.17149E-15 8.64834E-15
 -1       756 1.94617E-02-4.43021E+00-1.32328E+00-8.22825E-01-1.07734E-15 2.86679E-14
 -1       757-6.14208E-02-6.14848E+00-1.86309E+00-1.60459E+00-2.23373E-15 3.07596E-14
 -1       758 2.64108E-01-8.11172E+00-2.35448E+00-1.41757E+00-3.93291E-16 5.63374E-15
 -1       759 3.13782E-01-1.02667E+01-2.98622E+00-2.54291E+00-3.47324E-16 3.54539E-14
 -1       760 8.88968E-01-1.26240E+01-3.52100E+00-2.06274E+00 3.54943E-16-1.94776E-14
 -1       761 1.11462E+00-1.53805E+01-4.28055E+00-3.52942E+00 3.51159E-15 3.37248E-14
 -1       762 2.01261E+00-1.81771E+01-4.85041E+00-2.71691E+00 5.37692E-15-1.58792E-14
 -1       763 2.53307E+00-2.16981E+01-5.75111E+00-4.47564E+00 1.24438E-15 9.56144E-15
 -1       764 3.80532E+00-2.49855E+01-6.35609E+00-3.30006E+00 7.05699E-15 1.00788E-14
 -1       765 4.77925E+00-2.94001E+01-7.38922E+00-5.22116E+00 9.66257E-15-2.71610E-14
 -1       766 6.44796E+00-3.32181E+01-8.03478E+00-3.68137E+00-3.29743E-15-2.89410E-14
 -1       767 8.03163E+00-3.85391E+01-9.15745E+00-5.52333E+00-1.34003E-14-1.01081E-14
 -1       768 1.00555E+01-4.28800E+01-9.85377E+00-3.68161E+00 8.87610E-15-1.10813E-14
 -1       769 1.23154E+01-4.88683E+01-1.09744E+01-5.09821E+00-4.84412E-15 8.78610E-15
 -1       770 1.45337E+01-5.35883E+01-1.17267E+01-3.12895E+00 4.16737E-16-1.92410E-15
 -1       771 1.73046E+01-5.96078E+01-1.27040E+01-3.77851E+00-7.05237E-15 3.63839E-15
 -1       772 1.93768E+01-6.42513E+01-1.34776E+01-2.01238E+00 1.94552E-15 2.24078E-15
 -1       773 2.21194E+01-6.92247E+01-1.41496E+01-1.83169E+00 4.88484E-16 2.58593E-14
 -1       774 2.34838E+01-7.27928E+01-1.48127E+01-6.88853E-01-9.16597E-16 3.05553E-15
 -1       775 2.52260E+01-7.54739E+01-1.50961E+01-2.37774E-01-1.18399E-14-9.84143E-16
 -1       776 2.52503E+01-7.60886E+01-1.52736E+01-5.72708E-02-4.19772E-15 4.25047E-15
 -1       777-5.61988E-02-1.64936E-01-6.63410E-02-8.37962E-03 8.26461E-17 1.85959E-14
 -1       778 5.03270E-02-1.19653E+00-3.43865E-01-9.07673E-03 4.28595E-17 4.98656E-14
 -1       779 3.18348E-02-2.83465E+00-8.40868E-01-2.57846E-01-2.43888E-17 2.88412E-15
 -1       780 1.59890E-01-4.43867E+00-1.28369E+00 1.55146E-02 4.09459E-16-4.07271E-14
 -1       781 2.75625E-01-6.10697E+00-1.74951E+00-5.40678E-01 9.92894E-16-4.18714E-14
 -1       782 4.72212E-01-8.08451E+00-2.28388E+00-6.95796E-03-4.58945E-17-4.76676E-14
 -1       783 7.83190E-01-1.01230E+01-2.80226E+00-8.54470E-01-1.76968E-15-2.42627E-14
 -1       784 1.14336E+00-1.25282E+01-3.41593E+00-1.30900E-02-3.27964E-16 3.77114E-14
 -1       785 1.65828E+00-1.50708E+01-4.02446E+00-1.18476E+00 1.49676E-16-2.67870E-15
 -1       786 2.28045E+00-1.79744E+01-4.70919E+00-1.40433E-02-2.42722E-16 4.17914E-14
 -1       787 3.06216E+00-2.11552E+01-5.42934E+00-1.50405E+00 1.24410E-15-2.69326E-15
 -1       788 4.04015E+00-2.46367E+01-6.18091E+00-1.36950E-02 7.21912E-16-2.32214E-14
 -1       789 5.18202E+00-2.85758E+01-7.02081E+00-1.76200E+00 9.95783E-16 6.06589E-14
 -1       790 6.59909E+00-3.27012E+01-7.83418E+00-1.30677E-02-1.34763E-15 4.91794E-15
 -1       791 8.20372E+00-3.74468E+01-8.77768E+00-1.87942E+00 3.68606E-16-2.21397E-14
 -1       792 1.00889E+01-4.22228E+01-9.64631E+00-1.21934E-02-1.84114E-15-3.92660E-14
 -1       793 1.22249E+01-4.76348E+01-1.06310E+01-1.75682E+00 1.48981E-15-1.36361E-14
 -1       794 1.44607E+01-5.29094E+01-1.15446E+01-9.47940E-03 1.81195E-15 1.98046E-15
 -1       795 1.70636E+01-5.84899E+01-1.24404E+01-1.32200E+00-3.89603E-15-1.44195E-14
 -1       796 1.92685E+01-6.37545E+01-1.33608E+01-2.59875E-03 1.13219E-15 1.22909E-14
 -1       797 2.19751E+01-6.85279E+01-1.39835E+01-6.50924E-01-1.14096E-15 4.97625E-15
 -1       798 2.34097E+01-7.26078E+01-1.47793E+01 2.52079E-02 6.56829E-16 1.14901E-14
 -1       799 2.52663E+01-7.53457E+01-1.50455E+01-8.87696E-02-3.75912E-15-7.70123E-15
 -1       800 2.52255E+01-7.60829E+01-1.52793E+01 1.83550E-03-7.32211E-15-3.82982E-15
 -1       801 2.04151E-01-4.41182E-03 5.99216E-02 1.29545E-02 1.32221E-12-1.84522E-13
 -1       802-3.51119E-01-9.74307E-03-1.08259E-01 2.15621E-01-6.70412E-13 3.28468E-14
 -1       803-2.53334E-01-9.01097E-02-1.03033E-01 1.33491E-01 8.47046E-13 2.52139E-13
 -1       804 2.71909E-01 5.25351E-02 9.73330E-02-1.70444E-01 1.71597E-12 1.33973E-13
 -1       805-8.74275E-01-1.52440E-01-3.08021E-01 7.39228E-01-1.25899E-12 1.34156E-13
 -1       806-5.05477E-01-3.49017E-01-2.56350E-01 3.90324E-01 1.80409E-13 5.08209E-14
 -1       807 2.37886E-01 2.46394E-01 1.45284E-01-2.37907E-01 3.78805E-13-3.74494E-13
 -1       808-1.13646E+00-5.04132E-01-4.92194E-01 1.35813E+00-5.31934E-13-5.78093E-14
 -1       809-6.03017E-01-7.63222E-01-4.09878E-01 7.44292E-01-1.55556E-12-1.57969E-13
 -1       810 3.05696E-01 3.21817E-01 1.88254E-01-1.61075E-01-2.76589E-12 1.95564E-13
 -1       811-1.16927E+00-1.06867E+00-6.71416E-01 2.03457E+00 1.72073E-12-1.21299E-13
 -1       812-5.82160E-01-1.36539E+00-5.84278E-01 1.14925E+00 2.14172E-12-4.82597E-14
 -1       813 3.37857E-01 7.39179E-02 1.23533E-01-5.13051E-02-1.99549E-12-1.34975E-13
 -1       814-1.02146E+00-1.83552E+00-8.57158E-01 2.71364E+00 2.49067E-12-5.90925E-15
 -1       815-4.71996E-01-2.19493E+00-8.00108E-01 1.54277E+00-8.35888E-13-9.41498E-14
 -1       816 3.15703E-01-6.20022E-01-9.12969E-02 5.63755E-02-3.49880E-12 2.18847E-14
 -1       817-7.36446E-01-2.80248E+00-1.06178E+00 3.31013E+00-1.20345E-13 1.45183E-14
 -1       818-2.95370E-01-3.27681E+00-1.07171E+00 1.85855E+00 2.98605E-13 1.77755E-14
 -1       819 2.39232E-01-1.81475E+00-4.72666E-01 1.43176E-01 3.44877E-13-2.31316E-14
 -1       820-3.48624E-01-3.96457E+00-1.29411E+00 3.71678E+00-2.74230E-13-1.21977E-15
 -1       821-7.08311E-02-4.60003E+00-1.40135E+00 2.02616E+00 1.68210E-12-1.70007E-14
 -1       822 1.16995E-01-3.48971E+00-1.01185E+00 1.97801E-01 2.25183E-12 7.81238E-15
 -1       823 1.12621E-01-5.29867E+00-1.55601E+00 3.81333E+00 1.55375E-13 3.12856E-15
 -1       824 1.82147E-01-6.09641E+00-1.77441E+00 1.97226E+00-1.42090E-12-1.58346E-14
 -1       825-3.66940E-02-5.52667E+00-1.66909E+00 2.10777E-01 2.84435E-13-6.36673E-14
 -1       826 6.08644E-01-6.74642E+00-1.84156E+00 3.48268E+00-1.61023E-12 1.81461E-14
 -1       827 4.29590E-01-7.62727E+00-2.15949E+00 1.62880E+00 1.34546E-12-1.06719E-13
 -1       828-1.95770E-01-7.66990E+00-2.35986E+00 1.68310E-01 6.14552E-13-4.61011E-14
 -1       829 1.05140E+00-8.19807E+00-2.14426E+00 2.65667E+00-1.04441E-12 1.06445E-13
 -1       830 5.75825E-01-8.99268E+00-2.52530E+00 9.78716E-01 3.48002E-14-6.36730E-14
 -1       831-3.19915E-01-9.47062E+00-2.93740E+00 5.40446E-02 4.79040E-13 9.87193E-15
 -1       832 1.15202E+00-9.41425E+00-2.47895E+00 1.39411E+00-1.35962E-12-6.30746E-14
 -1       833 3.58050E-01-9.85761E+00-2.85014E+00 2.13774E-01 1.17013E-12 7.92618E-15
 -1       834-2.57082E-01-1.02780E+01-3.16080E+00-1.51879E-01-5.49558E-13 4.34078E-14
 -1       835 4.83349E-01-9.95645E+00-2.84221E+00 3.26839E-01-5.96570E-13 4.84906E-14
 -1       836-2.13947E-01-1.00030E+01-3.06537E+00 7.38967E-03-6.80566E-13-9.15580E-15
 -1       837-2.39858E-01-1.00899E+01-3.09920E+00-1.94526E-01 1.50161E-12-5.84547E-14
 -1       838-1.70665E+00 2.66092E-02-5.04020E-01-3.42842E-03 1.75923E-12-9.93311E-14
 -1       839-3.83707E+00 1.53884E-03-1.15070E+00 6.39908E-01-9.01661E-13-2.42119E-13
 -1       840-2.34585E+00-8.01784E-02-7.27830E-01 8.39226E-01-1.01128E-12 3.90220E-14
 -1       841-4.16264E+00-1.33010E-01-1.28877E+00 1.82789E+00 9.62420E-13 2.89828E-13
 -1       842-2.67755E+00-3.60110E-01-9.11339E-01 1.70750E+00-1.18509E-12-3.92998E-14
 -1       843-4.20396E+00-4.73542E-01-1.40336E+00 2.98111E+00 9.23700E-14 8.84024E-14
 -1       844-2.71717E+00-8.26066E-01-1.06304E+00 2.58819E+00-4.93804E-14 2.64840E-13
 -1       845-3.92316E+00-1.02307E+00-1.48404E+00 4.08733E+00 5.57531E-14-1.38205E-13
 -1       846-2.47241E+00-1.48038E+00-1.18594E+00 3.44734E+00 1.52304E-12-1.96380E-14
 -1       847-3.30826E+00-1.77733E+00-1.52590E+00 5.09805E+00-4.60736E-13 1.91875E-14
 -1       848-1.96582E+00-2.32714E+00-1.28804E+00 4.22591E+00-7.42641E-13-4.55999E-14
 -1       849-2.36730E+00-2.73510E+00-1.53102E+00 5.93795E+00 6.05744E-13-3.47552E-14
 -1       850-1.22751E+00-3.36363E+00-1.37755E+00 4.83554E+00-1.18699E-12 2.92503E-15
 -1       851-1.13044E+00-3.88960E+00-1.50638E+00 6.50074E+00-1.42876E-13 6.44075E-15
 -1       852-2.98365E-01-4.57907E+00-1.46349E+00 5.16048E+00-1.03859E-13-1.41058E-14
 -1       853 3.41143E-01-5.22043E+00-1.46421E+00 6.65015E+00-6.01828E-13 1.64787E-14
 -1       854 7.56304E-01-5.94667E+00-1.55742E+00 5.06700E+00 1.38695E-12 2.68987E-14
 -1       855 1.92866E+00-6.67742E+00-1.42509E+00 6.22941E+00-8.30178E-13 1.27867E-13
 -1       856 1.81196E+00-7.40444E+00-1.67809E+00 4.42510E+00-8.27435E-14 8.57739E-14
 -1       857 3.39297E+00-8.15326E+00-1.42857E+00 5.08227E+00 7.20776E-13 1.88588E-13
 -1       858 2.58600E+00-8.83691E+00-1.87564E+00 3.15063E+00 2.72916E-12-1.98363E-13
 -1       859 4.24643E+00-9.40352E+00-1.54758E+00 3.07928E+00 4.01057E-13-5.18608E-14
 -1       860 2.49452E+00-9.88369E+00-2.21710E+00 1.24757E+00-7.36057E-13-5.40492E-14
 -1       861 3.92972E+00-9.97031E+00-1.81259E+00 9.34648E-01 4.94903E-13 8.83810E-14
 -1       862 1.65520E+00-1.00625E+01-2.52250E+00 1.37101E-02-2.15720E-13 2.30241E-13
 -1       863-6.43976E+00 7.54367E-03-1.92978E+00-2.15141E-02 1.07691E-12-8.45798E-15
 -1       864-9.28528E+00-1.28317E-03-2.78621E+00 9.22465E-01-8.90323E-13 1.99803E-14
 -1       865-6.62640E+00-6.59334E-02-2.00783E+00 1.43382E+00 2.05800E-12-3.57222E-14
 -1       866-9.01931E+00-1.16299E-01-2.74096E+00 2.63509E+00-5.04856E-13-1.38689E-13
 -1       867-6.52083E+00-3.03620E-01-2.04751E+00 2.86178E+00-1.73782E-12-9.42660E-14
 -1       868-8.43752E+00-4.20804E-01-2.65783E+00 4.27678E+00 1.12556E-12 1.39830E-13
 -1       869-6.08219E+00-7.17162E-01-2.04004E+00 4.23706E+00-8.35171E-13 8.07698E-14
 -1       870-7.48520E+00-9.21281E-01-2.52235E+00 5.82359E+00 6.51549E-13 1.75362E-13
 -1       871-5.28101E+00-1.33003E+00-1.98361E+00 5.51206E+00-3.65313E-13 5.97955E-14
 -1       872-6.12110E+00-1.63136E+00-2.32623E+00 7.21128E+00 1.35137E-12 4.77955E-14
 -1       873-4.10162E+00-2.15677E+00-1.87790E+00 6.62231E+00 9.59727E-13 5.10484E-14
 -1       874-4.31989E+00-2.56395E+00-2.06574E+00 8.35230E+00 1.47437E-13-3.04476E-14
 -1       875-2.54617E+00-3.20145E+00-1.72475E+00 7.47347E+00-5.94069E-13-8.51662E-15
 -1       876-2.08345E+00-3.72160E+00-1.74220E+00 9.12411E+00-1.66747E-12-2.47162E-14
 -1       877-6.47115E-01-4.45549E+00-1.53132E+00 7.93601E+00-9.23161E-13-3.57911E-15
 -1       878 5.39246E-01-5.08594E+00-1.36477E+00 9.36174E+00 6.20785E-13 3.26724E-14
 -1       879 1.50982E+00-5.88813E+00-1.31409E+00 7.84418E+00 3.31463E-13-1.65455E-14
 -1       880 3.41549E+00-6.59810E+00-9.55600E-01 8.85417E+00 9.76586E-14 5.59821E-14
 -1       881 3.74084E+00-7.42441E+00-1.10571E+00 7.00258E+00 6.45050E-13 1.07767E-14
 -1       882 6.26503E+00-8.12453E+00-5.58678E-01 7.34557E+00-1.39332E-12-1.63846E-13
 -1       883 5.67768E+00-8.90200E+00-9.67929E-01 5.19862E+00-9.22076E-13-2.39622E-13
 -1       884 8.56737E+00-9.39753E+00-2.49839E-01 4.54303E+00-1.06964E-12-3.45702E-14
 -1       885 6.67139E+00-9.90193E+00-9.69741E-01 2.18097E+00-5.44278E-13 2.13266E-13
 -1       886 9.39493E+00-9.96560E+00-1.71948E-01 1.39704E+00 4.29959E-13 1.62946E-14
 -1       887 6.45398E+00-1.00350E+01-1.07484E+00 5.56882E-03 4.45269E-13-3.13614E-13
 -1       888-1.27679E+01 1.17311E-02-3.82731E+00-2.40605E-02 4.51472E-13 2.15280E-14
 -1       889-1.58476E+01-2.62679E-03-4.75576E+00 1.13450E+00-4.64610E-13-3.68235E-15
 -1       890-1.23103E+01-5.38293E-02-3.70967E+00 1.90490E+00 4.19664E-13-1.20243E-14
 -1       891-1.48640E+01-1.02090E-01-4.49050E+00 3.26638E+00-4.57919E-13-2.14385E-13
 -1       892-1.15344E+01-2.61957E-01-3.53937E+00 3.79750E+00-3.70479E-14 3.59035E-14
 -1       893-1.35220E+01-3.69075E-01-4.16803E+00 5.32285E+00-1.33537E-12 1.50932E-13
 -1       894-1.03824E+01-6.32235E-01-3.30493E+00 5.61377E+00 1.12306E-12-3.69324E-14
 -1       895-1.17532E+01-8.16026E-01-3.77154E+00 7.26999E+00-2.97389E-13 3.32244E-14
 -1       896-8.80333E+00-1.19644E+00-3.00053E+00 7.29317E+00-2.55778E-13-3.76619E-14
 -1       897-9.49313E+00-1.47025E+00-3.28987E+00 9.03094E+00-6.54413E-13-2.77775E-14
 -1       898-6.75098E+00-1.98029E+00-2.62008E+00 8.75628E+00 5.66625E-13 2.46667E-14
 -1       899-6.68489E+00-2.35824E+00-2.71390E+00 1.04996E+01 4.81764E-13 2.56361E-14
 -1       900-4.19537E+00-3.00149E+00-2.15986E+00 9.88933E+00-7.08161E-13 3.05072E-14
 -1       901-3.29454E+00-3.49527E+00-2.03801E+00 1.15245E+01 8.95111E-15-6.30289E-15
 -1       902-1.14149E+00-4.26211E+00-1.62199E+00 1.05339E+01 1.82193E-12-1.88758E-14
 -1       903 6.61848E-01-4.87077E+00-1.26385E+00 1.18960E+01-6.82154E-13-2.93994E-14
 -1       904 2.33906E+00-5.73351E+00-1.01933E+00 1.04770E+01-1.45202E-12 1.97583E-14
 -1       905 5.07314E+00-6.42513E+00-4.06858E-01 1.13344E+01 8.96693E-14-6.91348E-15
 -1       906 6.05535E+00-7.33021E+00-3.83507E-01 9.44487E+00 1.63190E-13 1.05817E-13
 -1       907 9.66256E+00-8.01355E+00 4.93390E-01 9.48277E+00 8.73603E-13 6.49203E-14
 -1       908 9.61465E+00-8.86652E+00 2.23377E-01 7.10282E+00 2.21531E-13 8.72094E-15
 -1       909 1.38844E+01-9.35044E+00 1.35886E+00 5.90935E+00-6.92818E-13 1.37013E-14
 -1       910 1.23424E+01-9.90278E+00 7.30836E-01 3.01655E+00-9.71315E-13 2.70639E-13
 -1       911 1.62449E+01-9.95733E+00 1.88487E+00 1.82026E+00 5.56017E-13 1.77147E-13
 -1       912 1.30802E+01-1.00460E+01 9.09196E-01 1.69977E-02 7.32536E-13-3.75705E-13
 -1       913-1.99727E+01 9.05286E-03-5.99020E+00-2.67419E-02-5.09186E-13 2.14304E-13
 -1       914-2.29649E+01-2.56426E-03-6.89169E+00 1.28560E+00 1.11783E-12 9.40220E-14
 -1       915-1.87947E+01-4.17582E-02-5.65194E+00 2.27457E+00 9.98745E-13 8.30475E-14
 -1       916-2.12389E+01-8.09877E-02-6.39729E+00 3.74109E+00-8.55220E-13-4.34095E-14
 -1       917-1.72693E+01-2.14723E-01-5.24619E+00 4.54479E+00 9.41299E-13 1.90139E-13
 -1       918-1.91159E+01-3.00394E-01-5.82617E+00 6.14058E+00 2.83789E-13-1.54196E-13
 -1       919-1.53219E+01-5.33842E-01-4.75770E+00 6.74074E+00-3.79719E-13 7.75230E-14
 -1       920-1.65065E+01-6.84767E-01-5.15865E+00 8.44475E+00 4.94949E-13 4.80997E-14
 -1       921-1.28767E+01-1.03874E+00-4.17567E+00 8.79531E+00-3.46477E-14-3.89266E-14
 -1       922-1.33127E+01-1.27648E+00-4.37807E+00 1.05671E+01 1.33489E-12 4.96416E-14
 -1       923-9.85339E+00-1.76668E+00-3.48713E+00 1.06143E+01 6.28650E-14 2.27902E-14
 -1       924-9.43473E+00-2.11656E+00-3.46679E+00 1.23795E+01-2.45700E-16-5.59023E-14
 -1       925-6.18208E+00-2.74945E+00-2.68068E+00 1.20583E+01 1.38415E-12-8.46396E-15
 -1       926-4.79126E+00-3.23225E+00-2.40857E+00 1.36932E+01-2.03415E-13 7.75883E-15
 -1       927-1.82773E+00-4.00140E+00-1.75008E+00 1.29284E+01-1.23291E-13 4.11245E-15
 -1       928 6.46390E-01-4.61882E+00-1.19338E+00 1.42433E+01-7.01935E-13-5.41936E-14
 -1       929 3.17111E+00-5.50032E+00-7.00224E-01 1.29519E+01-3.17642E-13 3.77019E-14
 -1       930 6.80178E+00-6.21550E+00 1.74096E-01 1.36749E+01 9.44955E-13 3.91906E-14
 -1       931 8.64247E+00-7.15894E+00 4.43492E-01 1.17699E+01-2.64029E-13 3.56459E-14
 -1       932 1.34157E+01-7.87113E+00 1.66141E+00 1.15295E+01 1.55799E-12 8.59153E-15
 -1       933 1.41900E+01-8.78163E+00 1.62085E+00 8.92880E+00-1.18222E-13 7.34683E-14
 -1       934 1.99263E+01-9.28712E+00 3.18958E+00 7.23827E+00-6.45242E-13 5.58707E-14
 -1       935 1.91020E+01-9.89390E+00 2.76062E+00 3.82636E+00-3.45796E-13 8.57164E-14
 -1       936 2.41334E+01-9.94716E+00 4.25340E+00 2.23823E+00-1.15098E-12 1.48968E-13
 -1       937 2.10332E+01-1.00503E+01 3.29291E+00 2.91191E-02 2.13007E-12-6.20460E-14
 -1       938-2.75038E+01 7.03324E-03-8.25110E+00-2.72957E-02-3.11318E-13 3.91328E-14
 -1       939-3.01917E+01-6.08743E-04-9.06020E+00 1.37435E+00-4.15025E-14-5.89507E-14
 -1       940-2.56219E+01-2.71670E-02-7.69657E+00 2.54114E+00 1.26205E-12-4.07536E-14
 -1       941-2.77918E+01-5.11377E-02-8.35512E+00 4.06060E+00-5.79199E-13-2.14380E-13
 -1       942-2.33723E+01-1.56242E-01-7.06024E+00 5.10665E+00 4.00854E-13-5.77283E-14
 -1       943-2.49633E+01-2.16230E-01-7.55591E+00 6.74266E+00-8.27827E-14 4.29132E-14
 -1       944-2.06536E+01-4.14757E-01-6.32210E+00 7.62899E+00 6.29852E-13 3.14888E-14
 -1       945-2.15788E+01-5.40156E-01-6.63762E+00 9.37749E+00-4.41468E-13 8.26479E-14
 -1       946-1.73517E+01-8.54939E-01-5.46357E+00 1.00373E+01-2.26124E-13-1.83322E-14
 -1       947-1.74877E+01-1.08522E+00-5.57377E+00 1.18650E+01-5.22435E-13 1.35489E-14
 -1       948-1.33384E+01-1.52974E+00-4.46206E+00 1.22194E+01-4.01403E-13 3.00709E-15
 -1       949-1.25312E+01-1.90634E+00-4.33320E+00 1.40441E+01-4.86648E-13 2.84877E-14
 -1       950-8.49292E+00-2.48484E+00-3.29502E+00 1.40011E+01 1.60721E-12-6.14889E-16
 -1       951-6.57289E+00-3.03367E+00-2.88398E+00 1.56742E+01-4.41185E-13 7.16172E-15
 -1       952-2.73355E+00-3.74121E+00-1.94425E+00 1.51319E+01-2.77483E-13-5.93344E-15
 -1       953 4.58888E-01-4.45283E+00-1.20035E+00 1.64268E+01 2.99291E-13-6.20114E-15
 -1       954 3.93811E+00-5.27429E+00-4.02841E-01 1.52728E+01 8.68188E-13-4.02376E-14
 -1       955 8.51774E+00-6.08794E+00 7.26555E-01 1.58751E+01-6.82921E-13-2.51812E-14
 -1       956 1.13764E+01-6.98998E+00 1.31374E+00 1.39821E+01 7.94093E-13 2.66024E-14
 -1       957 1.73685E+01-7.78094E+00 2.87355E+00 1.34744E+01-3.89592E-13-1.56627E-14
 -1       958 1.91974E+01-8.68951E+00 3.14986E+00 1.06962E+01-1.08967E-13-2.86653E-14
 -1       959 2.64602E+01-9.24011E+00 5.16275E+00 8.52629E+00 1.01729E-12-7.20900E-14
 -1       960 2.66645E+01-9.88095E+00 5.03208E+00 4.63258E+00-9.52117E-13 9.05695E-14
 -1       961 3.28088E+01-9.93713E+00 6.85748E+00 2.65438E+00 7.08432E-13-1.03160E-13
 -1       962 3.00074E+01-1.00575E+01 5.98155E+00 4.49320E-02 8.04435E-14 1.07942E-13
 -1       963-3.49168E+01 3.15138E-03-1.04774E+01-2.73888E-02-1.04884E-12-2.99157E-13
 -1       964-3.71799E+01 3.45294E-03-1.11567E+01 1.40135E+00-4.71621E-13-4.02084E-14
 -1       965-3.24426E+01-1.02091E-02-9.73878E+00 2.70282E+00-1.04335E-13-1.07568E-13
 -1       966-3.42773E+01-1.62542E-02-1.02914E+01 4.23881E+00 1.55647E-13 1.19549E-13
 -1       967-2.95912E+01-9.00471E-02-8.90699E+00 5.49409E+00-7.33768E-15-6.67533E-15
 -1       968-3.09112E+01-1.35909E-01-9.31715E+00 7.17190E+00 1.46691E-13-3.87966E-14
 -1       969-2.62129E+01-2.90952E-01-7.95356E+00 8.31339E+00 2.41921E-13 4.33603E-14
 -1       970-2.68860E+01-4.33943E-01-8.19875E+00 1.01478E+01-2.07520E-13 2.20447E-14
 -1       971-2.21310E+01-6.87831E-01-6.84792E+00 1.10809E+01-8.19477E-13-7.56432E-15
 -1       972-2.19698E+01-9.97622E-01-6.89281E+00 1.30339E+01 2.50906E-13-2.73573E-15
 -1       973-1.71504E+01-1.35279E+00-5.55317E+00 1.36506E+01 9.75818E-13-3.02862E-14
 -1       974-1.59314E+01-1.88564E+00-5.34764E+00 1.56072E+01-6.63089E-13-8.95484E-15
 -1       975-1.10938E+01-2.33692E+00-4.03145E+00 1.57930E+01 2.82594E-13-3.80773E-16
 -1       976-8.59012E+00-3.10363E+00-3.51069E+00 1.75523E+01 3.90426E-13 1.26625E-15
 -1       977-3.84297E+00-3.64607E+00-2.24906E+00 1.71912E+01-9.13680E-14-3.78220E-15
 -1       978 1.37497E-01-4.59207E+00-1.33909E+00 1.84729E+01-5.45711E-13-1.12488E-14
 -1       979 4.61969E+00-5.22642E+00-1.84581E-01 1.74419E+01 4.46900E-13-1.14717E-15
 -1       980 1.02056E+01-6.23466E+00 1.18826E+00 1.78974E+01 2.62127E-13 4.94073E-14
 -1       981 1.41683E+01-6.96113E+00 2.15924E+00 1.60451E+01-5.06654E-13 2.00590E-14
 -1       982 2.14072E+01-7.87036E+00 4.05742E+00 1.52408E+01-5.51777E-13 1.28758E-14
 -1       983 2.44561E+01-8.66126E+00 4.73493E+00 1.23586E+01 6.76926E-13-9.92813E-14
 -1       984 3.32664E+01-9.25826E+00 7.19774E+00 9.70872E+00-1.90391E-13-7.70084E-14
 -1       985 3.47833E+01-9.87114E+00 7.46906E+00 5.41651E+00-3.45400E-13 7.48054E-14
 -1       986 4.20237E+01-9.93191E+00 9.62141E+00 3.04831E+00 8.77554E-13 1.05192E-13
 -1       987 3.97676E+01-1.00612E+01 8.90637E+00 6.39286E-02 2.57410E-13 9.22542E-14
 -1       988-4.18594E+01-4.09661E-04-1.25627E+01-2.81896E-02-7.38695E-14 9.35807E-14
 -1       989-4.36913E+01 9.20640E-03-1.31099E+01 1.37283E+00-9.43437E-13 1.11471E-14
 -1       990-3.90186E+01 7.57940E-03-1.17075E+01 2.76827E+00-6.01345E-13 6.78869E-14
 -1       991-4.05765E+01 1.38424E-02-1.21734E+01 4.31605E+00-4.01853E-13-6.80415E-14
 -1       992-3.57909E+01-2.85797E-02-1.07496E+01 5.74915E+00-8.06280E-13-1.46546E-14
 -1       993-3.69320E+01-1.02107E-01-1.11144E+01 7.52718E+00 2.92726E-13 7.58918E-14
 -1       994-3.19378E+01-2.06785E-01-9.64676E+00 8.88484E+00 2.96845E-14 5.77676E-14
 -1       995-3.24378E+01-4.71868E-01-9.87668E+00 1.09179E+01-1.15318E-12 2.25166E-14
 -1       996-2.71814E+01-6.37778E-01-8.34886E+00 1.20626E+01-2.42198E-13 2.73691E-14
 -1       997-2.67448E+01-1.20500E+00-8.38840E+00 1.42723E+01-2.53215E-14-5.10986E-15
 -1       998-2.12430E+01-1.40946E+00-6.79867E+00 1.50630E+01-8.86965E-13 6.82134E-14
 -1       999-1.95568E+01-2.32793E+00-6.56870E+00 1.72509E+01-5.59634E-14-4.58019E-14
 -1      1000-1.39061E+01-2.54761E+00-4.93899E+00 1.75629E+01-2.84404E-13-6.39673E-16
 -1      1001-1.07062E+01-3.76147E+00-4.34352E+00 1.94344E+01 1.87857E-13-2.48029E-15
 -1      1002-5.06232E+00-3.99314E+00-2.71957E+00 1.91654E+01-4.51887E-13-1.55477E-15
 -1      1003-1.76771E-01-5.34482E+00-1.65979E+00 2.03820E+01 3.35384E-13 1.76410E-14
 -1      1004 5.27639E+00-5.61707E+00-1.05379E-01 1.94303E+01 3.69872E-13 4.28287E-14
 -1      1005 1.19334E+01-6.89991E+00 1.50633E+00 1.96446E+01-3.70553E-13-4.18246E-14
 -1      1006 1.69873E+01-7.26518E+00 2.91294E+00 1.78596E+01 1.78364E-15-3.58441E-14
 -1      1007 2.54610E+01-8.28963E+00 5.14679E+00 1.66819E+01 5.83936E-13-1.07978E-13
 -1      1008 2.98076E+01-8.79089E+00 6.30029E+00 1.37985E+01-2.73490E-13 1.65888E-13
 -1      1009 4.01163E+01-9.39846E+00 9.20894E+00 1.06640E+01 1.46047E-14 1.13589E-13
 -1      1010 4.31961E+01-9.87436E+00 9.98989E+00 6.11809E+00-5.96040E-13-1.53903E-13
 -1      1011 5.14773E+01-9.93829E+00 1.24529E+01 3.37734E+00 6.47133E-13 2.84160E-14
 -1      1012 5.00493E+01-1.00574E+01 1.19893E+01 8.58813E-02 2.50402E-13 1.40671E-13
 -1      1013-4.80792E+01-5.81386E-03-1.44318E+01-3.24590E-02-3.99614E-13-6.14613E-14
 -1      1014-4.96107E+01 1.59434E-02-1.48852E+01 1.30250E+00-1.58824E-13 1.04198E-13
 -1      1015-4.52426E+01 2.71074E-02-1.35703E+01 2.76455E+00-4.42484E-13 4.74779E-14
 -1      1016-4.67312E+01 1.83393E-02-1.40200E+01 4.37439E+00 5.71542E-13-1.73802E-13
 -1      1017-4.19802E+01 2.93608E-03-1.25983E+01 5.96590E+00 1.85444E-13 8.79543E-14
 -1      1018-4.31518E+01-2.00063E-01-1.30111E+01 7.99622E+00 3.51621E-13-4.48586E-14
 -1      1019-3.78844E+01-2.48144E-01-1.14444E+01 9.52356E+00-2.83139E-13 8.38254E-14
 -1      1020-3.83380E+01-8.53272E-01-1.17625E+01 1.19693E+01 1.94268E-13-6.79521E-16
 -1      1021-3.25237E+01-8.92843E-01-1.00291E+01 1.32259E+01 1.96294E-13-1.84939E-14
 -1      1022-3.17939E+01-2.03837E+00-1.01543E+01 1.58847E+01-2.70905E-13 4.56817E-15
 -1      1023-2.55436E+01-2.00058E+00-8.26710E+00 1.66981E+01-5.42836E-13 1.16609E-14
 -1      1024-2.32359E+01-3.65489E+00-8.07143E+00 1.92021E+01 5.11175E-13-2.97053E-14
 -1      1025-1.67644E+01-3.49400E+00-6.08114E+00 1.94718E+01-1.30282E-13 6.13645E-15
 -1      1026-1.26563E+01-5.43401E+00-5.43102E+00 2.14004E+01-1.24957E-13-1.79551E-15
 -1      1027-6.19198E+00-5.16249E+00-3.40991E+00 2.10871E+01-4.40297E-13-1.94651E-15
 -1      1028-2.36945E-01-7.06056E+00-2.19319E+00 2.20822E+01-7.64042E-13 8.67938E-15
 -1      1029 6.05591E+00-6.75709E+00-2.14160E-01 2.11466E+01-2.08145E-13 3.80286E-14
 -1      1030 1.38289E+01-8.31659E+00 1.64928E+00 2.09456E+01 8.12003E-13-5.17273E-16
 -1      1031 1.98543E+01-8.10491E+00 3.52029E+00 1.92582E+01-8.50272E-13-6.97510E-14
 -1      1032 2.94801E+01-9.16256E+00 6.08963E+00 1.75992E+01 4.21556E-13 6.96261E-15
 -1      1033 3.51048E+01-9.17053E+00 7.77422E+00 1.48409E+01 1.50334E-13-6.82390E-14
 -1      1034 4.67645E+01-9.70518E+00 1.11095E+01 1.12398E+01 7.10430E-13 1.07080E-13
 -1      1035 5.15977E+01-9.90082E+00 1.25000E+01 6.64422E+00 1.28675E-13-1.27857E-13
 -1      1036 6.07985E+01-9.96294E+00 1.52388E+01 3.58619E+00 1.96824E-13-2.02176E-13
 -1      1037 6.05072E+01-1.00405E+01 1.51283E+01 1.08844E-01-9.07389E-13 7.95943E-14
 -1      1038-5.34252E+01 5.25848E-03-1.60338E+01-4.41739E-02 3.03983E-13-2.11988E-13
 -1      1039-5.49782E+01 2.02914E-02-1.64957E+01 1.21160E+00 6.00994E-14-1.48455E-13
 -1      1040-5.11720E+01 3.83096E-02-1.53473E+01 2.74099E+00 9.56950E-13 3.97940E-14
 -1      1041-5.29874E+01-4.46634E-02-1.59174E+01 4.56452E+00 2.19947E-13 2.12326E-14
 -1      1042-4.83480E+01-4.22433E-02-1.45238E+01 6.32377E+00-2.37883E-13-2.32341E-14
 -1      1043-4.98857E+01-6.05358E-01-1.51547E+01 8.91434E+00-6.06939E-13-9.85303E-15
 -1      1044-4.42342E+01-5.89350E-01-1.34532E+01 1.05492E+01-7.14770E-14 2.85937E-14
 -1      1045-4.47503E+01-1.96132E+00-1.40202E+01 1.37540E+01 2.33575E-14-9.31733E-14
 -1      1046-3.81889E+01-1.80066E+00-1.20024E+01 1.49513E+01-1.31540E-13 8.17045E-15
 -1      1047-3.70001E+01-4.05916E+00-1.23238E+01 1.82694E+01 2.74932E-13-3.14912E-14
 -1      1048-2.98821E+01-3.61920E+00-1.00554E+01 1.88607E+01 5.01121E-13 2.38939E-14
 -1      1049-2.66160E+01-6.46741E+00-9.93034E+00 2.16533E+01-2.98197E-13 4.57956E-15
 -1      1050-1.93639E+01-5.70008E+00-7.52372E+00 2.16449E+01-1.35015E-13 1.00912E-14
 -1      1051-1.40277E+01-8.60597E+00-6.79484E+00 2.34044E+01 3.53811E-13 1.35233E-15
 -1      1052-6.92272E+00-7.58283E+00-4.35592E+00 2.28917E+01 8.03518E-14 1.02485E-14
 -1      1053 2.62538E-01-1.00328E+01-2.93562E+00 2.33735E+01 7.81582E-15-4.02463E-14
 -1      1054 7.15958E+00-8.91836E+00-5.32056E-01 2.24057E+01-1.98782E-14 4.49525E-14
 -1      1055 1.60146E+01-1.06125E+01 1.61562E+00 2.15604E+01-1.56526E-14 3.12698E-15
 -1      1056 2.28048E+01-9.61367E+00 3.95203E+00 2.00214E+01-3.77876E-13-8.36933E-15
 -1      1057 3.33998E+01-1.05264E+01 6.85541E+00 1.77868E+01-3.51694E-13-2.31617E-14
 -1      1058 4.01984E+01-9.84878E+00 9.09748E+00 1.52947E+01-1.61426E-13 8.20047E-14
 -1      1059 5.29588E+01-1.01872E+01 1.28213E+01 1.12984E+01-1.01494E-12 7.08099E-14
 -1      1060 5.96470E+01-9.95600E+00 1.48956E+01 6.89353E+00 3.65162E-13-5.32984E-14
 -1      1061 6.95757E+01-1.00090E+01 1.78548E+01 3.62435E+00-2.88726E-13 1.11209E-13
 -1      1062 7.07106E+01-1.00071E+01 1.81955E+01 1.29201E-01-1.87312E-13-1.15327E-13
 -1      1063-5.78291E+01-2.08509E-02-1.73641E+01-7.20865E-02 4.25227E-13-1.05700E-13
 -1      1064-5.99818E+01 1.73729E-02-1.79992E+01 1.14703E+00 1.61976E-13 6.50195E-14
 -1      1065-5.70852E+01 7.28480E-02-1.71127E+01 2.80982E+00-6.85099E-13-7.87969E-14
 -1      1066-5.99519E+01-3.01429E-01-1.80860E+01 5.19374E+00-6.77597E-13-1.36547E-14
 -1      1067-5.53402E+01-2.84810E-01-1.66962E+01 7.16642E+00-1.63060E-13-1.15566E-14
 -1      1068-5.76761E+01-1.74081E+00-1.78349E+01 1.08981E+01 1.20596E-12-5.15188E-14
 -1      1069-5.12716E+01-1.59455E+00-1.58681E+01 1.25102E+01 3.29123E-13-4.69811E-14
 -1      1070-5.17780E+01-4.57184E+00-1.69140E+01 1.69482E+01-1.08109E-13 3.91817E-14
 -1      1071-4.41020E+01-4.02146E+00-1.44445E+01 1.77660E+01-3.73718E-14 4.98042E-14
 -1      1072-4.19553E+01-8.19232E+00-1.50522E+01 2.18212E+01-1.07752E-12 1.25124E-14
 -1      1073-3.38721E+01-7.03753E+00-1.22793E+01 2.18204E+01-5.00529E-13 2.85659E-15
 -1      1074-2.90743E+01-1.15247E+01-1.21863E+01 2.45835E+01 4.31918E-13 1.73865E-14
 -1      1075-2.12260E+01-9.79804E+00-9.31272E+00 2.40332E+01 7.81221E-13 3.34796E-15
 -1      1076-1.43124E+01-1.36889E+01-8.40594E+00 2.51458E+01-9.29054E-14 3.66473E-15
 -1      1077-6.88536E+00-1.16069E+01-5.55261E+00 2.43310E+01 3.65187E-13-7.39495E-15
 -1      1078 1.57339E+00-1.43590E+01-3.84077E+00 2.39017E+01 8.70055E-14 8.35517E-15
 -1      1079 8.76386E+00-1.22075E+01-1.03806E+00 2.29229E+01-1.35531E-13 3.42037E-14
 -1      1080 1.85215E+01-1.37213E+01 1.43450E+00 2.12245E+01-1.96091E-13 2.70804E-14
 -1      1081 2.58349E+01-1.17756E+01 4.21176E+00 1.99241E+01-1.96955E-13 1.21443E-14
 -1      1082 3.71104E+01-1.22934E+01 7.43760E+00 1.70938E+01 1.71176E-13-9.02867E-15
 -1      1083 4.49297E+01-1.07979E+01 1.02308E+01 1.50097E+01-2.57214E-13-8.16623E-15
 -1      1084 5.84657E+01-1.08060E+01 1.42859E+01 1.07634E+01 1.01918E-12 8.00189E-14
 -1      1085 6.70041E+01-1.00371E+01 1.70757E+01 6.78974E+00 3.17159E-13-6.52402E-14
 -1      1086 7.74190E+01-1.00740E+01 2.01850E+01 3.46398E+00 4.65972E-13-2.00387E-14
 -1      1087 8.01915E+01-9.95813E+00 2.10503E+01 1.42548E-01-5.84559E-13 3.29146E-13
 -1      1088-6.13132E+01 2.10715E-01-1.83410E+01-1.55855E-01-5.89496E-14 1.34140E-13
 -1      1089-6.52799E+01-8.74438E-03-1.95982E+01 1.15210E+00-2.95355E-13-5.58038E-14
 -1      1090-6.36218E+01-1.30544E-02-1.91016E+01 3.13387E+00-3.69103E-13-6.08729E-15
 -1      1091-6.86110E+01-1.00702E+00-2.08985E+01 6.89890E+00 2.37449E-13 1.88741E-14
 -1      1092-6.36842E+01-1.00718E+00-1.94190E+01 9.19070E+00-5.56787E-14 3.74934E-15
 -1      1093-6.72499E+01-4.59584E+00-2.15672E+01 1.50830E+01-3.15519E-13 7.73409E-14
 -1      1094-5.92324E+01-4.16022E+00-1.90289E+01 1.63280E+01-2.26511E-13 2.80155E-14
 -1      1095-5.90888E+01-1.02190E+01-2.08047E+01 2.24292E+01 9.12165E-13 2.69557E-15
 -1      1096-4.98332E+01-8.79173E+00-1.75973E+01 2.22536E+01-4.74273E-13-2.98313E-14
 -1      1097-4.56894E+01-1.58256E+01-1.84648E+01 2.66287E+01-2.93937E-13-5.03509E-15
 -1      1098-3.67798E+01-1.33377E+01-1.50434E+01 2.55614E+01 4.55237E-13-2.63678E-16
 -1      1099-2.97330E+01-1.95594E+01-1.47957E+01 2.74744E+01-1.26015E-13-1.08429E-15
 -1      1100-2.17434E+01-1.63509E+01-1.14348E+01 2.62222E+01 1.32121E-12-5.84440E-16
 -1      1101-1.30904E+01-2.07801E+01-1.01674E+01 2.59835E+01-9.47697E-13 1.60460E-15
 -1      1102-5.77894E+00-1.73088E+01-6.93184E+00 2.49305E+01-2.57181E-13-1.38456E-14
 -1      1103 3.73946E+00-1.98017E+01-4.82417E+00 2.32178E+01-2.35300E-13-1.28077E-14
 -1      1104 1.09172E+01-1.64513E+01-1.66563E+00 2.23668E+01-1.05181E-12 5.16493E-14
 -1      1105 2.12275E+01-1.73485E+01 1.15773E+00 1.97369E+01-3.41393E-13 3.29879E-14
 -1      1106 2.88570E+01-1.43927E+01 4.33273E+00 1.88066E+01 3.96960E-13-4.78355E-14
 -1      1107 4.04572E+01-1.42609E+01 7.85066E+00 1.54820E+01-6.76708E-13 1.53376E-14
 -1      1108 4.91356E+01-1.19120E+01 1.11572E+01 1.39300E+01-1.35630E-12 1.06828E-14
 -1      1109 6.31022E+01-1.14847E+01 1.54716E+01 9.64839E+00 1.87405E-13 1.60531E-14
 -1      1110 7.33815E+01-1.01332E+01 1.89575E+01 6.30846E+00-3.83046E-13 3.97473E-14
 -1      1111 8.40288E+01-1.01497E+01 2.21421E+01 3.10958E+00 4.13133E-13 7.69029E-14
 -1      1112 8.85241E+01-9.89855E+00 2.35640E+01 1.45286E-01-6.06780E-13 9.07634E-14
 -1      1113-6.38635E+01-4.37339E-01-1.93013E+01-2.18437E-01 1.18853E-12 3.70906E-14
 -1      1114-7.16324E+01-2.04208E-01-2.15650E+01 1.67459E+00-4.82455E-13 2.94401E-14
 -1      1115-7.23007E+01 2.90127E-01-2.16177E+01 4.45911E+00 1.77236E-13 1.29615E-13
 -1      1116-8.20601E+01-3.68551E+00-2.57425E+01 1.14543E+01 4.14290E-13-1.31961E-14
 -1      1117-7.47120E+01-3.23213E+00-2.33995E+01 1.39186E+01-6.36384E-13-4.51416E-14
 -1      1118-7.88750E+01-1.19739E+01-2.72742E+01 2.35480E+01 4.16861E-13-8.02868E-15
 -1      1119-6.78420E+01-1.02907E+01-2.34553E+01 2.33608E+01 2.31287E-13 1.32094E-14
 -1      1120-6.51038E+01-2.17753E+01-2.60807E+01 3.07468E+01 4.63296E-13-8.36846E-15
 -1      1121-5.41724E+01-1.82780E+01-2.17481E+01 2.85934E+01-2.18765E-13 1.65325E-14
 -1      1122-4.64857E+01-2.85313E+01-2.25180E+01 3.17764E+01-9.27006E-15 7.23030E-16
 -1      1123-3.75101E+01-2.36566E+01-1.83600E+01 2.93382E+01-1.63608E-13-3.56279E-15
 -1      1124-2.77978E+01-3.07688E+01-1.75793E+01 2.90586E+01-1.50517E-13 1.08951E-15
 -1      1125-2.04041E+01-2.54514E+01-1.37642E+01 2.73045E+01-4.14196E-13-3.59011E-15
 -1      1126-1.03426E+01-2.93764E+01-1.19225E+01 2.50437E+01-1.60281E-13 2.27550E-15
 -1      1127-3.55878E+00-2.42748E+01-8.35605E+00 2.40800E+01-5.89862E-13-2.62379E-15
 -1      1128 6.49211E+00-2.57412E+01-5.78048E+00 2.09539E+01-5.00156E-13 9.89062E-15
 -1      1129 1.34655E+01-2.11710E+01-2.31732E+00 2.04817E+01-3.70077E-13 1.80447E-14
 -1      1130 2.38707E+01-2.10277E+01 8.46688E-01 1.70603E+01-1.88536E-13 2.23925E-14
 -1      1131 3.16978E+01-1.71286E+01 4.36379E+00 1.66439E+01 4.83015E-13-9.58285E-15
 -1      1132 4.32757E+01-1.61695E+01 8.12310E+00 1.30520E+01-3.76005E-13-3.82983E-14
 -1      1133 5.26712E+01-1.30407E+01 1.18784E+01 1.21173E+01-9.50812E-14-5.17768E-14
 -1      1134 6.67637E+01-1.21325E+01 1.63744E+01 8.05250E+00 5.44157E-13 5.79883E-15
 -1      1135 7.85884E+01-1.02297E+01 2.04884E+01 5.48500E+00-1.15424E-14 2.10724E-14
 -1      1136 8.92404E+01-1.02254E+01 2.36803E+01 2.59562E+00-3.64552E-13 7.92821E-14
 -1      1137 9.54011E+01-9.83636E+00 2.56422E+01 1.35916E-01 6.81061E-14 1.01735E-13
 -1      1138-6.55678E+01 3.96411E+00-1.84935E+01-1.46979E+00-4.44182E-13-3.78927E-14
 -1      1139-8.32728E+01 1.04428E-01-2.49697E+01 2.67753E+00 5.76275E-13 4.27009E-14
 -1      1140-8.52502E+01-1.79071E+00-2.61323E+01 7.69401E+00 3.97593E-13-1.15610E-14
 -1      1141-1.00955E+02-1.08614E+01-3.35749E+01 2.30210E+01 2.71640E-13-2.05650E-14
 -1      1142-8.87016E+01-9.94919E+00-2.96199E+01 2.49879E+01-1.25242E-13 3.49098E-14
 -1      1143-9.13679E+01-3.01393E+01-3.64831E+01 3.91203E+01-4.41343E-13 1.48837E-14
 -1      1144-7.52451E+01-2.49119E+01-3.00693E+01 3.48392E+01-4.19450E-13 1.97342E-14
 -1      1145-6.59532E+01-4.34958E+01-3.28578E+01 4.04321E+01 4.35496E-13-3.17108E-15
 -1      1146-5.48615E+01-3.51644E+01-2.70246E+01 3.53801E+01-5.14624E-13 1.99729E-15
 -1      1147-4.24607E+01-4.68603E+01-2.68119E+01 3.44912E+01-2.74741E-13 1.07021E-16
 -1      1148-3.50431E+01-3.82116E+01-2.19882E+01 3.12645E+01 2.09083E-13 2.49896E-16
 -1      1149-2.33462E+01-4.40807E+01-2.02384E+01 2.75104E+01 9.64680E-13 4.06506E-16
 -1      1150-1.72005E+01-3.62438E+01-1.60415E+01 2.60630E+01 5.53628E-13-2.99616E-15
 -1      1151-6.67369E+00-3.82558E+01-1.34860E+01 2.16194E+01-4.98613E-13-6.00625E-16
 -1      1152-5.77022E-01-3.15577E+01-9.64664E+00 2.12956E+01 3.22642E-13 1.18063E-14
 -1      1153 9.30020E+00-3.13048E+01-6.60723E+00 1.70399E+01-1.23226E-13 1.12765E-14
 -1      1154 1.60682E+01-2.57005E+01-2.89549E+00 1.72264E+01 1.92166E-14 8.74501E-15
 -1      1155 2.61423E+01-2.42582E+01 5.58866E-01 1.33715E+01-1.75622E-13 4.77706E-15
 -1      1156 3.41450E+01-1.96153E+01 4.35170E+00 1.35769E+01-1.50466E-13 4.59693E-15
 -1      1157 4.54422E+01-1.77825E+01 8.28877E+00 1.00207E+01 5.32868E-13-2.48177E-14
 -1      1158 5.54390E+01-1.40384E+01 1.24087E+01 9.73514E+00-1.95950E-13 2.34145E-14
 -1      1159 6.94337E+01-1.26724E+01 1.70125E+01 6.13060E+00-3.90145E-13 1.98075E-14
 -1      1160 8.25510E+01-1.03135E+01 2.16502E+01 4.40161E+00-1.20839E-12 5.90309E-14
 -1      1161 9.30320E+01-1.02912E+01 2.47961E+01 1.97487E+00-3.11391E-13 4.35154E-14
 -1      1162 1.00676E+02-9.77975E+00 2.72388E+01 1.15389E-01 6.20544E-13-1.09180E-13
 -1      1163-7.10523E+01-1.34175E+01-2.53534E+01 1.92083E+00-9.83809E-13-2.82979E-14
 -1      1164-1.27304E+02-1.04325E+01-4.13703E+01 1.17903E+01 9.53090E-14 5.26057E-14
 -1      1165-1.16098E+02 2.21543E+00-3.42063E+01 2.19609E+01 2.54237E-13 2.99627E-14
 -1      1166-1.35224E+02-4.67259E+01-5.46523E+01 5.68479E+01 6.36518E-13 2.44896E-14
 -1      1167-1.04667E+02-3.36934E+01-4.15504E+01 4.72046E+01-4.56611E-13 3.04011E-15
 -1      1168-9.14284E+01-7.33518E+01-4.94831E+01 5.86106E+01 2.89142E-13-3.62817E-15
 -1      1169-7.51666E+01-5.68434E+01-3.96351E+01 4.78138E+01 1.07792E-13-2.88620E-15
 -1      1170-5.61461E+01-7.60822E+01-3.96982E+01 4.41831E+01-4.03802E-13 5.31147E-16
 -1      1171-4.95370E+01-5.99242E+01-3.28593E+01 3.82030E+01-2.14940E-15-8.74686E-17
 -1      1172-3.43322E+01-6.81496E+01-3.07623E+01 3.05635E+01-7.41663E-14 2.20842E-15
 -1      1173-2.95305E+01-5.49888E+01-2.53691E+01 2.87253E+01 6.58205E-13 9.33424E-16
 -1      1174-1.78143E+01-5.68451E+01-2.24088E+01 2.15048E+01-4.84318E-13 7.60165E-16
 -1      1175-1.29491E+01-4.67922E+01-1.79311E+01 2.16015E+01-3.65800E-13 2.13362E-15
 -1      1176-3.18201E+00-4.57806E+01-1.46961E+01 1.56769E+01 3.94799E-14 7.33803E-15
 -1      1177 2.47408E+00-3.79485E+01-1.06486E+01 1.65297E+01 3.32047E-13-3.18601E-15
 -1      1178 1.15926E+01-3.56530E+01-7.22403E+00 1.18094E+01-4.52571E-13 3.84641E-15
 -1      1179 1.83168E+01-2.94069E+01-3.33288E+00 1.28398E+01 1.00943E-12-1.76000E-15
 -1      1180 2.78005E+01-2.66588E+01 3.36082E-01 9.02272E+00 1.05646E-13 2.74906E-16
 -1      1181 3.60204E+01-2.15658E+01 4.32899E+00 9.88179E+00 7.71379E-13-5.09522E-15
 -1      1182 4.69094E+01-1.89469E+01 8.37936E+00 6.66383E+00-1.30576E-13 1.18058E-15
 -1      1183 5.74093E+01-1.48038E+01 1.27697E+01 7.00355E+00-4.02447E-13-1.94834E-14
 -1      1184 7.11747E+01-1.30588E+01 1.74182E+01 4.05251E+00-2.53062E-13 3.79095E-14
 -1      1185 8.53062E+01-1.03762E+01 2.24567E+01 3.16286E+00-2.27575E-14-3.50972E-14
 -1      1186 9.54997E+01-1.03408E+01 2.55202E+01 1.30408E+00-1.15157E-12-1.05173E-14
 -1      1187 1.04365E+02-9.73478E+00 2.83566E+01 8.65388E-02-8.37809E-13 7.30917E-14
 -1      1188-5.00839E+00 1.06052E+02 3.02865E+01-4.47618E+01 1.52313E-13-2.67160E-14
 -1      1189-2.07514E+02-7.31192E+01-8.44795E+01 9.22130E+01-1.36909E-13-9.24663E-15
 -1      1190-1.45147E+02-5.41472E+01-5.99007E+01 8.43405E+01 8.14841E-14-5.87189E-15
 -1      1191-1.40183E+02-1.54629E+02-8.86136E+01 1.13314E+02-2.89734E-13 1.43730E-15
 -1      1192-1.03325E+02-1.08045E+02-6.34928E+01 7.71935E+01-7.02638E-13 3.10887E-15
 -1      1193-5.76940E+01-1.46191E+02-6.12396E+01 5.81586E+01-4.35931E-13 2.28546E-15
 -1      1194-6.16764E+01-1.02025E+02-4.91535E+01 4.87600E+01-6.11345E-14 4.59348E-17
 -1      1195-4.12918E+01-1.10662E+02-4.56207E+01 3.00702E+01 5.20595E-13 6.29677E-16
 -1      1196-3.94611E+01-8.70897E+01-3.79896E+01 3.08033E+01-5.97048E-13-5.73046E-16
 -1      1197-2.60195E+01-8.52964E+01-3.34139E+01 1.79865E+01-1.01815E-13 2.61700E-16
 -1      1198-2.31346E+01-6.94425E+01-2.77872E+01 2.02489E+01-8.72953E-13-1.97539E-15
 -1      1199-1.36588E+01-6.57343E+01-2.38292E+01 1.16044E+01-2.72771E-13-5.13307E-15
 -1      1200-9.09758E+00-5.48171E+01-1.91832E+01 1.41015E+01-6.61897E-13 2.48995E-16
 -1      1201-8.42696E-01-5.05452E+01-1.54238E+01 8.09083E+00-3.87506E-13-1.26099E-15
 -1      1202 4.84431E+00-4.24340E+01-1.12832E+01 1.03100E+01 5.30660E-14 3.45781E-15
 -1      1203 1.29778E+01-3.82625E+01-7.59131E+00 5.93366E+00-3.06987E-13 4.50730E-15
 -1      1204 1.98885E+01-3.18876E+01-3.60556E+00 7.79496E+00 2.25097E-13-6.27471E-16
 -1      1205 2.87461E+01-2.80512E+01 2.02023E-01 4.46594E+00-7.59140E-14 4.67917E-15
 -1      1206 3.72330E+01-2.28336E+01 4.31234E+00 5.90736E+00 3.38649E-13 1.90942E-14
 -1      1207 4.77087E+01-1.96105E+01 8.41991E+00 3.27152E+00-3.60165E-13-8.77837E-16
 -1      1208 5.86205E+01-1.52935E+01 1.29858E+01 4.15568E+00-5.25654E-13 3.60107E-15
 -1      1209 7.21025E+01-1.32787E+01 1.76302E+01 1.98282E+00-3.91034E-13-1.89760E-15
 -1      1210 8.69713E+01-1.04147E+01 2.29439E+01 1.87528E+00-4.84821E-13-1.65120E-14
 -1      1211 9.68142E+01-1.03712E+01 2.59047E+01 6.37359E-01 7.92482E-13 2.84682E-15
 -1      1212 1.06601E+02-9.70444E+00 2.90353E+01 5.30137E-02-6.97366E-13 3.44284E-14
 -1      1213-4.99573E+02-4.28646E+02-2.79684E+02 2.47065E+02-7.35832E-14-3.50774E-15
 -1      1214-3.70168E+02-9.22578E+02-3.90094E+02 2.32915E+02 5.43732E-13 1.75298E-15
 -1      1215-1.37180E+02-3.06285E+02-1.33432E+02 1.13256E+02 2.84039E-13 4.85776E-16
 -1      1216 4.48703E+00-2.92847E+02-8.67515E+01-9.11947E+00 5.79165E-13 4.44267E-16
 -1      1217-6.70498E+01-2.17938E+02-8.56310E+01 5.02754E+01 6.14739E-14-1.42062E-16
 -1      1218-5.09461E+01-1.86711E+02-7.13782E+01 1.58539E+00 6.21159E-13 2.36100E-16
 -1      1219-4.48333E+01-1.44592E+02-5.68790E+01 2.16661E+01-4.68096E-13-1.14110E-17
 -1      1220-3.07390E+01-1.26743E+02-4.72820E+01 1.83185E-01-7.05859E-13 1.10688E-16
 -1      1221-3.07918E+01-1.03284E+02-4.02482E+01 1.18682E+01 4.04769E-13-3.15634E-16
 -1      1222-2.33898E+01-9.16155E+01-3.45210E+01-1.76468E-02-1.68209E-13 5.40843E-17
 -1      1223-1.90265E+01-7.75003E+01-2.89724E+01 7.24687E+00-3.75530E-13-4.57571E-16
 -1      1224-1.20572E+01-6.87917E+01-2.42661E+01-1.29938E-03 2.22237E-13 4.16671E-16
 -1      1225-6.91526E+00-5.88777E+01-1.97467E+01 4.85050E+00-8.02582E-14 9.76443E-16
 -1      1226-1.02998E-01-5.21042E+01-1.56696E+01-1.14500E-02-9.13996E-13-1.19292E-15
 -1      1227 6.07454E+00-4.46270E+01-1.15720E+01 3.46973E+00-3.19916E-13-2.15002E-15
 -1      1228 1.34247E+01-3.90929E+01-7.70635E+00-6.55720E-03 4.94801E-13 6.17172E-16
 -1      1229 2.06591E+01-3.30644E+01-3.72739E+00 2.58937E+00-2.20959E-13 1.15499E-16
 -1      1230 2.90356E+01-2.84879E+01 1.57853E-01-4.63524E-03 1.70146E-13-1.65032E-15
 -1      1231 3.78023E+01-2.34262E+01 4.30533E+00 1.94831E+00-2.14019E-13 3.66931E-15
 -1      1232 4.79512E+01-1.98169E+01 8.43072E+00-2.65760E-03 1.55112E-13 7.02290E-16
 -1      1233 5.91730E+01-1.55199E+01 1.30835E+01 1.36585E+00-1.21537E-13 3.18656E-15
 -1      1234 7.23806E+01-1.33474E+01 1.76929E+01 1.78038E-03 8.21355E-13 3.55822E-15
 -1      1235 8.77230E+01-1.04314E+01 2.31641E+01 6.16165E-01-6.01781E-14-7.77886E-15
 -1      1236 9.72088E+01-1.03813E+01 2.60198E+01 1.80832E-03-5.87691E-13-2.07301E-15
 -1      1237 1.07612E+02-9.68935E+00 2.93426E+01 1.77783E-02-2.02553E-13 4.16193E-16
 -3
    1PSTEP                         3           1           1          
  100CL  101 1.000000000        1236                     0    1           1
 -4  TOSTRAIN    6    1
 -5  EXX         1    4    1    1
 -5  EYY         1    4    2    2
 -5  EZZ         1    4    3    3
 -5  EXY         1    4    1    2
 -5  EYZ         1    4    2    3
 -5  EZX         1    4    3    1
 -1         1-2.36543E-03-6.14539E-03 2.42010E-35-2.66879E-03 5.10219E-19-3.47384E-20
 -1         2-5.32549E-07 1.47271E-06 4.52689E-37-6.81809E-08-1.09139E-21 1.19384E-19
 -1         3-1.17948E-03 9.30145E-04 1.52814E-35-7.90166E-04 8.82588E-20-1.02515E-19
 -1         4 3.53130E-04-1.26428E-04-2.73536E-36 1.54140E-04 6.22087E-19-1.98120E-19
 -1         5-2.59371E-05 8.07772E-05 4.74833E-36 1.66875E-05 2.84693E-19-3.41498E-20
 -1         6 5.96239E-06-9.06807E-07 2.21234E-36 1.88909E-05-1.44196E-19 2.46265E-20
 -1         7-2.46111E-06 7.66770E-06 4.40260E-36 6.94288E-06-6.18834E-19 3.39261E-20
 -1         8-9.21745E-07 2.77553E-06 1.39657E-36 4.72695E-06-1.93192E-19-3.40658E-20
 -1         9-8.22699E-07 2.32999E-06 6.39881E-37 2.61804E-06 4.92507E-20-8.12206E-21
 -1        10-6.06652E-07 1.66934E-06 4.14651E-37 1.78682E-06 6.29569E-20-1.89972E-20
 -1        11-4.91480E-07 1.38968E-06 8.71127E-37 1.22062E-06-6.76156E-20-9.07865E-20
 -1        12-4.25469E-07 1.21896E-06 6.37847E-37 8.92776E-07 5.33147E-20-1.64864E-20
 -1        13-3.94510E-07 1.14335E-06 2.53018E-37 6.67221E-07 3.53089E-20 4.84146E-20
 -1        14-3.94840E-07 1.13629E-06 1.99232E-37 5.02221E-07 2.21487E-20 1.29406E-19
 -1        15-4.13947E-07 1.19336E-06 2.26882E-37 3.55590E-07 9.83933E-21 1.93320E-19
 -1        16-4.77554E-07 1.35256E-06 3.11917E-37 2.09542E-07-2.69296E-21-4.16193E-20
 -1        17 5.65534E-06-1.30195E-05 2.11654E-37 2.03657E-08 7.11847E-22-8.19922E-20
 -1        18 1.30073E-05-2.84278E-05 3.18348E-37-9.78084E-10-7.64435E-22-1.73565E-19
 -1        19 2.29194E-05-4.76086E-05 7.16849E-37-5.23036E-08 8.17439E-21 4.17338E-19
 -1        20 3.64120E-05-7.16538E-05 5.31382E-37-4.49959E-08 6.85674E-21 2.62227E-19
 -1        21 5.45103E-05-1.01780E-04 4.44541E-37-1.44257E-08-4.33866E-21 7.22142E-20
 -1        22 7.84289E-05-1.39267E-04 3.06611E-37 2.96360E-08 1.07003E-20 2.26139E-19
 -1        23 1.09270E-04-1.85079E-04 1.36491E-37 7.84562E-08 8.21879E-21 2.40802E-19
 -1        24 1.47317E-04-2.38997E-04 5.53734E-37 1.07705E-07-7.61878E-21 1.03721E-19
 -1        25 1.90623E-04-2.98001E-04 8.07148E-37 7.59298E-08 3.23800E-21-6.70683E-20
 -1        26 2.33008E-04-3.54067E-04 1.16509E-36-1.41087E-07 7.10699E-21-3.58786E-20
 -1        27 2.61881E-04-3.92358E-04 9.86935E-37-1.90483E-07-1.87704E-20-6.42755E-20
 -1        28 2.65284E-04-3.97621E-04 1.74064E-36 6.63499E-07 4.29341E-20-4.92582E-22
 -1        29 2.02255E-03-4.18094E-03-3.78748E-36-3.32131E-04-9.99277E-19 1.70594E-20
 -1        30 8.56855E-04-1.97858E-03 4.98719E-35-4.48687E-05 5.47076E-19-1.89747E-20
 -1        31 7.53285E-04-1.42064E-03 8.89740E-36-3.34383E-05-3.86544E-19-6.04572E-21
 -1        32 5.41881E-04-1.03629E-03 3.83216E-36-5.14458E-06-1.27808E-19-1.66443E-20
 -1        33 4.52307E-04-8.20470E-04 5.46362E-36-3.62236E-06 1.01417E-19 1.61251E-21
 -1        34 3.84497E-04-6.72277E-04-2.00153E-36-1.36469E-06-1.05561E-18 8.52902E-21
 -1        35 3.40674E-04-5.70922E-04 7.98905E-36-8.64819E-07-4.87904E-19-2.84436E-21
 -1        36 3.09215E-04-4.99095E-04-8.29019E-38-5.24528E-07-3.01486E-19-1.15133E-21
 -1        37 2.87457E-04-4.48900E-04 2.99494E-36-3.79376E-07-5.85828E-20 6.74761E-22
 -1        38 2.73021E-04-4.15846E-04 3.82494E-37-3.28403E-07 1.49146E-20-1.08249E-21
 -1        39 2.65470E-04-3.98948E-04 7.87658E-37-2.02211E-07-3.62963E-19-3.10770E-22
 -1        40-4.24889E-04-1.27463E-03 1.43437E-35-2.25883E-03-1.00144E-18 4.79953E-20
 -1        41 6.71026E-04-1.65852E-03 1.73668E-35-9.70687E-04 5.97957E-19 1.39598E-20
 -1        42 5.50897E-04-1.24061E-03 1.90501E-36-4.31382E-04 4.40284E-19-3.71968E-21
 -1        43 5.07509E-04-9.90610E-04 6.60904E-36-2.17239E-04 2.91023E-19 2.55911E-20
 -1        44 4.30345E-04-7.96830E-04 5.37907E-36-1.15469E-04 4.20407E-19 5.92703E-21
 -1        45 3.78079E-04-6.63567E-04 3.04990E-36-6.32571E-05-2.15238E-19 6.99325E-21
 -1        46 3.37367E-04-5.66985E-04 3.78902E-36-3.45703E-05 7.00427E-19 4.03175E-22
 -1        47 3.08068E-04-4.97546E-04 7.59613E-37-1.81065E-05 2.57637E-19 1.01362E-20
 -1        48 2.86988E-04-4.48329E-04 3.20874E-36-8.47536E-06 9.87780E-20-5.20752E-22
 -1        49 2.72908E-04-4.15707E-04 1.02319E-36-3.02490E-06-2.57382E-20-2.19439E-21
 -1        50 2.65468E-04-3.98958E-04 1.09912E-36-4.15772E-07 3.46760E-20 1.09705E-21
 -1        51-6.06606E-04 2.24011E-04 3.88689E-36-5.80212E-04 5.05905E-19-1.35488E-20
 -1        52-1.18371E-04-5.95127E-04 9.84463E-37-9.05683E-04-7.45519E-19-2.43876E-20
 -1        53 2.78863E-04-8.70274E-04 6.84178E-36-6.37474E-04 3.82961E-19 5.88346E-20
 -1        54 3.71007E-04-8.25357E-04 2.45384E-36-3.77028E-04-7.32734E-20-3.71733E-20
 -1        55 3.77807E-04-7.30224E-04 1.52630E-37-2.17687E-04-1.30440E-19-2.93912E-20
 -1        56 3.54327E-04-6.34062E-04 8.35667E-37-1.24603E-04-1.76197E-19-3.43856E-20
 -1        57 3.27678E-04-5.54450E-04 2.47180E-36-6.97568E-05-1.70785E-19-3.25948E-20
 -1        58 3.03998E-04-4.92347E-04 1.83856E-36-3.70269E-05 3.22233E-20-6.91356E-21
 -1        59 2.85514E-04-4.46431E-04 2.93428E-36-1.74581E-05 1.32286E-19-2.25870E-20
 -1        60 2.72503E-04-4.15237E-04 1.22006E-36-6.24191E-06 3.29799E-20-5.05602E-21
 -1        61 2.65475E-04-3.98987E-04 7.21427E-37-8.45018E-07 6.04257E-20 2.23456E-21
 -1        62-2.86264E-04 6.61625E-05 3.92653E-36-2.03150E-04-1.78956E-19 2.97093E-20
 -1        63-2.45490E-04-1.44392E-04-1.30691E-36-5.46674E-04-6.27829E-19-3.31344E-20
 -1        64 3.02722E-05-4.57180E-04 2.87658E-36-5.70552E-04-3.20024E-19-1.65417E-20
 -1        65 2.18195E-04-6.06134E-04 4.17984E-36-4.33312E-04-1.35921E-19-3.65330E-20
 -1        66 2.96649E-04-6.21561E-04 3.73588E-37-2.86618E-04 1.70591E-19 6.39850E-20
 -1        67 3.16044E-04-5.83482E-04 7.23786E-36-1.76639E-04-2.67524E-19-3.28200E-20
 -1        68 3.10197E-04-5.31590E-04 1.58681E-36-1.03220E-04-2.90349E-20-4.05131E-21
 -1        69 2.96613E-04-4.82653E-04 1.66891E-36-5.61457E-05-2.49921E-20-2.75925E-20
 -1        70 2.82712E-04-4.42813E-04 7.68770E-37-2.68386E-05-6.71702E-20 1.12932E-20
 -1        71 2.71737E-04-4.14321E-04 1.32326E-36-9.64333E-06-3.01387E-20-1.17649E-20
 -1        72 2.65474E-04-3.99032E-04 1.50105E-36-1.27827E-06 5.89483E-20 4.40267E-21
 -1        73-1.62767E-04 5.70298E-05-2.41136E-38-1.14578E-04 1.80542E-19 2.21414E-20
 -1        74-1.84924E-04-3.18865E-05 2.26921E-36-3.04306E-04-7.39426E-19-6.56621E-20
 -1        75-6.68890E-05-2.24058E-04 7.07080E-37-4.22152E-04-4.24613E-19-4.66589E-20
 -1        76 9.71764E-05-4.03097E-04 1.33658E-36-4.02831E-04 6.62117E-20 1.41463E-19
 -1        77 2.11567E-04-4.94990E-04 1.50315E-36-3.10910E-04 7.71841E-21 7.62634E-20
 -1        78 2.67495E-04-5.15458E-04 1.60154E-36-2.11573E-04-1.94585E-19 4.42416E-21
 -1        79 2.85879E-04-4.98344E-04 1.69481E-36-1.31318E-04-8.41946E-20 4.09856E-20
 -1        80 2.85594E-04-4.67817E-04 1.19460E-36-7.40954E-05-1.01217E-19-5.43623E-20
 -1        81 2.78384E-04-4.37091E-04 1.27672E-36-3.61740E-05-8.94287E-20 1.10562E-20
 -1        82 2.70510E-04-4.12821E-04 1.07388E-36-1.31091E-05 5.15572E-20-3.22364E-21
 -1        83 2.65458E-04-3.99077E-04 7.79131E-37-1.68816E-06-2.45789E-20-5.03012E-21
 -1        84-9.57753E-05 2.66854E-05 2.78511E-36-7.11340E-05-4.69771E-20-4.81090E-21
 -1        85-1.29524E-04-8.19472E-06 2.36093E-36-1.90051E-04-3.81875E-19 4.97702E-20
 -1        86-7.80806E-05-1.18481E-04 2.22258E-36-2.95133E-04-2.94325E-19-9.56407E-20
 -1        87 3.01542E-05-2.60403E-04 3.07469E-36-3.32272E-04 4.92179E-19-2.17913E-19
 -1        88 1.40456E-04-3.76373E-04 1.80710E-36-2.97275E-04-4.19635E-20 5.42697E-20
 -1        89 2.16931E-04-4.38929E-04 2.71595E-36-2.25777E-04 4.44911E-19 2.92960E-20
 -1        90 2.56675E-04-4.56297E-04 3.93962E-36-1.51039E-04-1.98915E-20 5.28759E-20
 -1        91 2.71163E-04-4.47614E-04 6.35274E-37-8.94401E-05-9.03231E-20-3.37298E-20
 -1        92 2.72377E-04-4.28902E-04 1.31385E-36-4.49609E-05 7.05442E-20-1.93088E-20
 -1        93 2.68728E-04-4.10563E-04 1.52581E-36-1.64985E-05-2.04454E-20-8.84099E-21
 -1        94 2.65400E-04-3.99088E-04 7.16376E-37-2.04314E-06 9.40600E-20-8.26992E-21
 -1        95-5.84863E-05 1.30652E-05 8.37079E-37-5.02911E-05 2.46928E-19-1.27724E-20
 -1        96-8.46483E-05-7.67169E-06 9.46754E-37-1.27125E-04 3.33175E-19-1.15448E-21
 -1        97-6.39524E-05-7.29206E-05 1.79506E-36-2.07601E-04-1.48673E-19 7.77956E-20
 -1        98 3.14256E-06-1.74767E-04 4.13306E-36-2.59016E-04 2.00506E-19 2.50224E-20
 -1        99 9.19179E-05-2.82285E-04 1.02417E-36-2.61270E-04 2.94190E-19 2.05922E-19
 -1       100 1.71689E-04-3.64319E-04 1.20523E-36-2.20849E-04-2.87562E-19-7.80517E-20
 -1       101 2.25695E-04-4.08957E-04 3.41276E-36-1.60537E-04 1.01269E-21 1.06083E-19
 -1       102 2.54024E-04-4.22516E-04 3.76137E-37-1.00790E-04-9.22833E-20-9.87221E-20
 -1       103 2.64687E-04-4.18012E-04 1.77629E-36-5.26072E-05-1.64556E-19 7.80350E-21
 -1       104 2.66306E-04-4.07359E-04 1.07515E-36-1.96416E-05 7.70856E-20 1.86830E-20
 -1       105 2.65267E-04-3.99011E-04 9.91517E-37-2.31585E-06 1.54450E-20 1.68385E-20
 -1       106-3.58349E-05 3.89743E-06 1.22616E-36-3.73393E-05 6.82496E-21 1.04548E-20
 -1       107-5.35557E-05-1.18223E-05 2.27249E-36-9.05669E-05 8.71716E-20 1.08525E-20
 -1       108-4.40926E-05-5.48959E-05 6.52925E-37-1.49700E-04-4.40397E-20-2.71296E-20
 -1       109-2.39396E-06-1.26770E-04 1.46357E-36-1.97978E-04-6.11059E-20 8.73003E-20
 -1       110 6.38969E-05-2.15570E-04 1.52514E-36-2.17694E-04 2.96363E-19-6.64949E-20
 -1       111 1.36187E-04-2.99642E-04 2.66893E-36-2.02068E-04-2.62506E-20-7.29645E-20
 -1       112 1.96153E-04-3.60844E-04 2.11711E-36-1.59694E-04-4.05494E-19 4.53510E-20
 -1       113 2.35345E-04-3.93817E-04 3.42419E-37-1.07047E-04 3.25001E-19 1.26495E-20
 -1       114 2.55500E-04-4.04448E-04 1.68445E-36-5.84749E-05 7.49020E-22 1.10316E-20
 -1       115 2.63200E-04-4.03042E-04 1.35333E-36-2.23418E-05 7.57838E-20-2.66975E-20
 -1       116 2.65020E-04-3.98776E-04 8.96345E-37-2.49190E-06 1.38401E-19 6.79741E-21
 -1       117-2.15051E-05-1.73148E-06-3.47773E-39-2.88364E-05 3.26779E-20-3.45393E-20
 -1       118-3.18923E-05-1.61730E-05 1.24956E-36-6.70792E-05-4.43420E-20 4.59072E-20
 -1       119-2.59262E-05-4.80340E-05-5.50230E-38-1.10639E-04-1.79426E-19-7.52866E-20
 -1       120 1.65009E-06-1.00779E-04 6.72905E-37-1.50823E-04-1.64961E-19-7.88803E-20
 -1       121 5.03034E-05-1.71418E-04 1.19871E-36-1.75711E-04-7.33108E-20-1.74986E-19
 -1       122 1.11231E-04-2.48408E-04 7.63673E-37-1.75711E-04-9.43488E-20-9.17792E-20
 -1       123 1.70503E-04-3.16159E-04 4.53057E-37-1.50012E-04-1.48641E-19-1.05939E-21
 -1       124 2.16512E-04-3.63473E-04 1.12475E-36-1.07641E-04 4.54900E-20-9.73607E-20
 -1       125 2.45204E-04-3.88597E-04 9.17768E-37-6.19393E-05-9.34445E-20-4.84464E-20
 -1       126 2.59432E-04-3.97527E-04 8.38059E-37-2.43763E-05 3.10222E-20-7.72923E-20
 -1       127 2.64632E-04-3.98312E-04 4.84945E-37-2.57694E-06-2.08297E-20 4.45050E-21
 -1       128-1.20821E-05-5.49232E-06 6.33926E-37-2.25781E-05 1.11574E-19-1.18494E-19
 -1       129-1.68259E-05-1.97526E-05 8.44849E-37-5.08661E-05-2.35056E-20-7.20039E-20
 -1       130-1.11764E-05-4.58200E-05 4.99789E-37-8.31551E-05-6.09026E-20 8.74117E-20
 -1       131 8.97608E-06-8.68496E-05 1.11356E-36-1.14978E-04 8.44835E-20 3.98768E-20
 -1       132 4.54611E-05-1.43330E-04 1.03942E-36-1.38956E-04-7.89365E-20 1.89103E-20
 -1       133 9.52775E-05-2.10390E-04 1.12150E-36-1.46878E-04-1.19028E-20-1.13568E-19
 -1       134 1.49962E-04-2.77724E-04 1.60801E-36-1.33952E-04-4.49941E-20 6.76604E-20
 -1       135 1.98829E-04-3.33678E-04 1.00118E-36-1.02657E-04-6.14618E-20 9.85182E-20
 -1       136 2.34343E-04-3.71232E-04 1.47029E-36-6.24670E-05 1.16618E-19 2.41214E-20
 -1       137 2.55112E-04-3.90876E-04 1.32981E-36-2.54905E-05 1.36885E-19-3.12604E-20
 -1       138 2.64108E-04-3.97574E-04 9.35675E-37-2.59454E-06-2.03802E-19-1.50668E-20
 -1       139-5.69648E-06-8.05793E-06 2.95701E-37-1.76941E-05-1.49256E-20-8.66624E-20
 -1       140-6.24708E-06-2.25134E-05 8.31606E-37-3.88244E-05 5.70872E-20-2.01397E-20
 -1       141 2.03240E-07-4.54515E-05 5.27456E-37-6.28157E-05-1.34956E-19-4.06366E-20
 -1       142 1.66318E-05-7.93696E-05 6.94857E-37-8.73104E-05 9.83341E-21-3.72567E-20
 -1       143 4.52865E-05-1.25814E-04 6.06494E-37-1.07902E-04-1.10942E-19-4.68186E-20
 -1       144 8.60001E-05-1.83462E-04 1.81960E-36-1.18632E-04-6.36416E-20 6.46609E-20
 -1       145 1.34615E-04-2.46717E-04 1.32799E-36-1.14074E-04 1.47540E-19-4.70525E-20
 -1       146 1.83271E-04-3.06388E-04 1.74299E-36-9.27650E-05 1.90429E-20-2.62902E-20
 -1       147 2.23535E-04-3.53425E-04 1.28743E-36-5.97065E-05 1.52583E-19-7.35656E-20
 -1       148 2.50436E-04-3.83344E-04 1.18650E-36-2.53975E-05 3.89488E-21-1.03280E-19
 -1       149 2.63496E-04-3.96577E-04 4.70148E-37-2.56845E-06-1.05763E-19-1.72184E-20
 -1       150-1.28543E-06-9.86756E-06 2.79873E-37-1.36332E-05-2.51316E-20 7.28024E-20
 -1       151 1.21703E-06-2.45964E-05 7.06570E-37-2.92910E-05-3.20181E-21 1.51771E-20
 -1       152 8.73484E-06-4.57853E-05 2.86611E-37-4.69140E-05-1.04740E-21 2.92948E-20
 -1       153 2.33989E-05-7.53502E-05 6.22252E-37-6.52490E-05 7.55010E-20 5.29186E-20
 -1       154 4.72212E-05-1.14992E-04 8.13964E-37-8.16924E-05-8.97118E-20 5.73093E-21
 -1       155 8.11840E-05-1.65031E-04 8.13437E-37-9.22686E-05-1.46012E-19-8.00139E-20
 -1       156 1.23850E-04-2.23044E-04 9.89618E-37-9.23790E-05 1.06078E-19-2.24462E-20
 -1       157 1.70395E-04-2.83005E-04 1.59990E-36-7.89771E-05-1.12286E-19-6.20646E-20
 -1       158 2.13387E-04-3.36379E-04 1.35918E-36-5.35602E-05-3.53137E-20-2.53764E-20
 -1       159 2.45661E-04-3.75388E-04 1.68167E-36-2.38031E-05-2.20730E-20 3.35496E-20
 -1       160 2.62886E-04-3.95413E-04 8.36604E-37-2.49161E-06 2.10439E-19 1.42794E-20
 -1       161 1.78166E-06-1.11672E-05 1.36156E-37-1.00699E-05 3.48986E-20-1.16431E-19
 -1       162 6.45548E-06-2.61514E-05 4.70235E-37-2.12628E-05-4.03464E-21-8.24032E-20
 -1       163 1.49575E-05-4.63354E-05 2.82673E-37-3.37481E-05 4.22835E-20-9.75735E-20
 -1       164 2.88546E-05-7.32205E-05 5.54456E-37-4.68650E-05 8.50963E-20-1.10384E-19
 -1       165 4.97860E-05-1.08381E-04 5.90524E-37-5.90962E-05 5.21475E-21 1.98740E-19
 -1       166 7.90731E-05-1.52804E-04 8.89116E-37-6.79415E-05-7.39820E-21 2.23168E-19
 -1       167 1.16756E-04-2.05909E-04 8.69720E-37-7.00507E-05-5.40455E-20-8.68560E-21
 -1       168 1.60407E-04-2.64323E-04 1.04331E-36-6.23097E-05 3.68948E-20 1.33891E-19
 -1       169 2.04465E-04-3.21275E-04 9.61660E-37-4.41932E-05 3.87139E-20 7.19610E-20
 -1       170 2.41092E-04-3.67635E-04 1.12141E-36-2.04709E-05 7.35359E-20 7.17780E-20
 -1       171 2.62384E-04-3.94240E-04 8.10649E-37-2.29932E-06-1.98800E-20-1.73541E-20
 -1       172 3.86309E-06-1.20995E-05 3.83022E-38-6.76296E-06 5.44783E-21-1.88746E-19
 -1       173 1.00182E-05-2.72885E-05 2.11073E-37-1.40753E-05-2.17265E-20 2.02666E-19
 -1       174 1.92825E-05-4.68954E-05 2.88964E-37-2.21661E-05-2.92934E-21-9.22895E-20
 -1       175 3.28897E-05-7.21573E-05 6.02170E-37-3.07083E-05-7.49472E-21-1.66664E-19
 -1       176 5.21560E-05-1.04476E-04 3.47327E-37-3.88594E-05-3.09011E-21-1.30176E-19
 -1       177 7.84149E-05-1.45072E-04 5.59466E-37-4.51700E-05-2.27647E-20 2.72355E-19
 -1       178 1.12410E-04-1.94325E-04 4.77118E-37-4.75132E-05-4.28222E-20-2.66243E-19
 -1       179 1.53280E-04-2.50657E-04 2.85026E-37-4.35096E-05 3.59230E-20 7.62950E-20
 -1       180 1.97310E-04-3.09185E-04 1.21205E-36-3.19498E-05 4.42536E-20-1.04210E-19
 -1       181 2.37101E-04-3.60859E-04 1.31963E-36-1.53114E-05 2.75956E-20 1.13570E-20
 -1       182 2.62062E-04-3.93243E-04 1.23300E-36-1.87502E-06 1.14078E-19 1.04065E-20
 -1       183 5.16729E-06-1.27530E-05 2.45257E-37-3.50051E-06 3.95592E-22 6.25693E-20
 -1       184 1.21990E-05-2.80880E-05 4.78981E-37-7.21429E-06-1.09490E-22-2.62798E-19
 -1       185 2.19419E-05-4.73802E-05 4.81792E-37-1.12780E-05-5.43603E-21 2.41395E-19
 -1       186 3.54584E-05-7.17414E-05 1.09587E-37-1.55784E-05 1.16013E-20-9.18364E-21
 -1       187 5.38498E-05-1.02438E-04 1.41812E-37-1.97358E-05 2.14502E-21-1.93898E-19
 -1       188 7.83737E-05-1.40747E-04 3.27278E-37-2.30765E-05-1.92178E-20 2.59493E-19
 -1       189 1.10059E-04-1.87495E-04 4.18918E-37-2.45627E-05-3.37075E-20-5.34932E-20
 -1       190 1.48902E-04-2.42118E-04 6.45788E-37-2.29107E-05-1.83657E-20 1.00183E-19
 -1       191 1.92473E-04-3.01078E-04 1.03544E-36-1.72121E-05-9.95132E-21-1.11610E-20
 -1       192 2.34181E-04-3.55977E-04 1.12075E-36-8.43618E-06 6.25096E-21-7.54936E-21
 -1       193 2.61918E-04-3.92580E-04 8.34141E-37-1.10683E-06-1.24739E-20 3.04003E-20
 -1       194 1.89169E-06-5.48583E-07-3.34356E-34-4.99120E-07-6.20746E-18 4.78876E-19
 -1       195-1.52382E-03-4.19634E-03 7.51685E-35 3.31603E-03-3.58412E-18-7.83271E-20
 -1       196 5.09216E-04-2.54068E-04 1.82161E-34-4.47253E-08-7.87415E-18 1.80193E-20
 -1       197 1.76674E-05-4.51762E-05 6.41198E-34-6.54206E-07-1.79702E-18 2.16184E-18
 -1       199 1.16361E-07 2.24501E-07-7.49039E-35-1.44710E-07-1.87435E-18-1.38358E-18
 -1       200-1.62473E-05 7.16180E-06 5.75896E-35 2.83856E-07 7.59705E-18-1.56453E-18
 -1       201-4.23729E-05 1.83628E-05 2.19692E-34 4.46153E-07 1.11520E-17 2.13078E-18
 -1       202-7.38429E-05 3.18055E-05-4.69378E-35 4.76165E-07 8.20381E-18-2.79196E-18
 -1       203-1.07919E-04 4.63760E-05 2.92010E-35 4.53821E-07 2.49841E-18-2.14076E-19
 -1       204-1.42369E-04 6.10990E-05 3.29651E-35 3.72617E-07-1.72037E-18 9.15130E-19
 -1       205-1.75371E-04 7.52022E-05 1.70089E-34 2.26654E-07-9.75493E-18 1.09557E-18
 -1       206-2.05547E-04 8.81140E-05 7.04357E-35 3.77564E-09-5.08611E-18-8.80893E-19
 -1       207-2.31966E-04 9.94082E-05 1.26783E-34-3.46705E-07 1.77439E-18 2.93471E-19
 -1       208-2.54227E-04 1.09127E-04 2.14189E-34-8.54147E-07 2.12532E-18 7.56884E-19
 -1       209-2.71905E-04 1.16405E-04 3.70197E-35-1.88342E-06-6.49482E-18-2.25717E-21
 -1       210-2.86553E-04 1.25370E-04 3.80580E-35-3.32353E-06-5.04216E-19 1.24996E-19
 -1       211-2.90803E-04 1.20016E-04 1.33609E-36-7.78297E-06 2.91734E-18 1.55750E-19
 -1       212-3.18858E-04 1.79576E-04 2.39989E-35-1.17368E-05 5.11045E-18-1.47143E-19
 -1       213-1.14766E-04-3.15577E-06 5.68936E-35-6.92195E-05-3.29492E-18 1.02227E-19
 -1       214-9.23065E-04 7.53778E-04 5.62823E-35-9.25776E-05-9.23809E-19-4.79303E-20
 -1       215 9.14205E-04-2.36632E-03 5.41928E-35 6.93642E-05 1.10833E-19-2.48830E-21
 -1       216 1.26463E-04-8.37238E-04-1.95501E-35 3.04060E-05-9.22154E-19 7.67151E-21
 -1       217 1.46147E-04-6.03361E-04 6.43028E-35 1.90283E-05-4.61026E-18-5.52572E-21
 -1       218 7.49179E-05-4.18137E-04 3.44817E-35 2.44036E-06-3.08188E-18 2.76221E-22
 -1       219 7.39906E-05-3.20776E-04 2.98085E-35 1.98617E-06 2.84733E-18-2.45312E-21
 -1       220 8.74258E-05-2.56967E-04 7.04622E-35 6.32798E-07 1.94365E-19-3.28048E-21
 -1       221 1.17044E-04-2.16350E-04 6.03069E-35 3.99868E-07-5.90433E-18 4.48716E-21
 -1       222 1.59796E-04-1.91526E-04 3.43371E-35 2.09326E-07-9.55926E-18 1.61797E-21
 -1       223 2.18492E-04-1.80737E-04 6.04929E-35 1.33411E-07-5.17294E-18-2.97146E-21
 -1       224 3.00043E-04-1.86200E-04 4.73617E-35 7.41550E-08-9.25765E-19-1.60641E-20
 -1       225 4.20011E-04-2.18610E-04-1.56104E-35 4.02090E-08-2.50624E-18-4.36398E-21
 -1       226 5.07097E-04-2.53177E-04 1.77762E-35 2.27426E-07 6.45005E-19-8.12571E-20
 -1       227 5.00053E-04-2.50223E-04 4.92862E-35 4.74948E-07-8.61952E-19-2.13002E-19
 -1       228 4.86872E-04-2.44706E-04 8.35529E-35 7.32276E-07-4.96064E-18 2.98154E-19
 -1       229 4.66708E-04-2.36267E-04-1.10791E-35 9.74214E-07-2.47822E-19 5.14843E-19
 -1       230 4.39152E-04-2.24716E-04 4.90373E-35 1.17437E-06-3.50509E-18-5.41598E-20
 -1       231 4.04461E-04-2.10138E-04 4.27318E-35 1.30763E-06-3.13402E-18-6.17227E-20
 -1       232 3.63669E-04-1.92936E-04 5.04818E-36 1.35831E-06 2.65994E-18-1.17620E-18
 -1       233 3.18494E-04-1.73809E-04 5.99233E-34 1.32667E-06-7.33078E-18 9.21541E-19
 -1       234 2.71055E-04-1.53639E-04 4.75153E-35 1.22998E-06-2.05815E-19 5.10069E-21
 -1       235 2.23477E-04-1.33334E-04 2.66647E-34 1.09660E-06 6.12468E-19 1.19458E-19
 -1       236 1.77561E-04-1.13680E-04 1.94029E-34 9.55342E-07 1.57095E-18 4.38909E-19
 -1       237 1.34673E-04-9.52904E-05 6.54266E-35 8.24551E-07 3.36402E-18-3.71351E-20
 -1       238 9.58785E-05-7.86404E-05 1.15322E-34 7.06214E-07 1.32873E-18-1.28225E-19
 -1       239 6.22853E-05-6.42540E-05 2.89913E-35 5.84166E-07-5.82269E-18 1.36563E-19
 -1       240 3.55216E-05-5.27475E-05 7.31035E-35 3.51216E-07-1.17571E-17 9.57723E-19
 -1       241 1.92398E-05-4.58730E-05 1.54060E-34-2.03762E-07-7.52325E-19 8.90191E-20
 -1       242 1.86970E-05-4.64788E-05 2.36467E-34-1.80815E-06 3.54290E-18-1.61148E-18
 -1       243 1.79878E-05-4.53745E-05 6.36909E-35-4.33736E-07-2.33853E-18 5.44984E-19
 -1       244 1.56715E-05-3.90514E-05 4.82717E-34 8.25161E-07 4.73813E-18-6.83606E-19
 -1       245 1.23217E-05-2.98609E-05 4.69960E-34 1.35523E-06-8.28659E-19-1.42884E-19
 -1       246 8.87907E-06-2.03377E-05 1.94874E-34 1.43083E-06 1.94804E-18 5.21162E-20
 -1       247 5.85100E-06-1.19972E-05 1.17128E-34 1.18038E-06-1.08132E-18-1.30703E-19
 -1       248 3.50790E-06-5.61518E-06 4.66534E-34 6.83866E-07 2.10042E-17-2.81515E-19
 -1       249 1.92438E-06-1.45093E-06 6.12792E-35 6.93457E-09 8.89556E-18-6.60625E-20
 -1       250 1.04138E-06 6.08510E-07 3.44498E-34-7.58687E-07-8.46309E-18 1.48588E-18
 -1       251 7.15845E-07 9.74318E-07 2.34397E-34-1.44863E-06-2.59414E-19 1.82648E-18
 -1       252 7.91462E-07 3.24490E-07-8.26410E-35-1.61930E-06-1.29050E-18 1.45451E-19
 -1       253-2.81615E-06 1.19627E-06 1.64540E-34 2.97190E-06 2.10072E-18-9.30438E-20
 -1       254-4.14220E-06 7.95006E-07 5.10678E-34 6.68092E-06-5.46853E-18-1.56830E-18
 -1       255-3.87958E-06-1.05311E-06 5.45780E-36 1.09481E-05-6.87850E-18-8.20510E-19
 -1       256-2.28512E-06-4.22889E-06 8.57259E-35 1.54660E-05-5.74031E-18-7.90572E-20
 -1       257 4.12392E-07-8.61845E-06 4.29169E-34 1.97660E-05 2.01029E-18 9.58488E-20
 -1       258 4.03198E-06-1.41438E-05-2.98343E-36 2.32093E-05-1.68124E-18-1.00890E-19
 -1       259 8.40949E-06-2.06979E-05 1.06480E-34 2.50354E-05 2.95214E-18-5.73685E-20
 -1       260 1.33282E-05-2.80534E-05-1.12279E-34 2.44266E-05 9.37874E-18 1.18650E-19
 -1       261 1.83798E-05-3.57492E-05 2.87957E-34 2.06706E-05-7.37450E-19 4.88049E-19
 -1       262 2.26242E-05-4.28678E-05 6.10375E-34 1.35630E-05 7.33899E-19 4.33381E-19
 -1       263 2.30782E-05-4.69400E-05 3.32698E-34 4.43345E-06-1.85727E-18-8.99869E-19
 -1       264-1.82256E-05 7.82033E-06 3.39766E-34 8.06354E-06-1.77555E-19 8.14751E-19
 -1       265-1.86585E-05 7.12669E-06 1.52911E-34 1.56969E-05 1.22503E-18-9.08988E-20
 -1       266-1.72699E-05 4.88389E-06 9.16898E-35 2.30903E-05 6.64241E-19 5.38286E-19
 -1       267-1.39766E-05 1.03963E-06 8.13345E-35 3.00507E-05 2.70264E-18-2.17136E-19
 -1       268-8.76849E-06-4.39630E-06 8.09517E-35 3.61872E-05 3.96839E-18-3.28087E-20
 -1       269-1.73757E-06-1.13708E-05 1.87638E-34 4.09147E-05-3.16211E-18 7.39318E-20
 -1       270 6.89260E-06-1.97492E-05 6.48850E-36 4.34385E-05-6.44723E-20-2.76545E-20
 -1       271 1.66754E-05-2.92399E-05 3.95441E-34 4.27859E-05-2.59270E-20-1.72996E-19
 -1       272 2.67078E-05-3.92372E-05 5.02572E-34 3.79111E-05-5.73538E-19-4.54449E-19
 -1       273 3.51470E-05-4.84066E-05-2.27611E-35 2.78602E-05-1.58443E-18 2.64208E-19
 -1       274 3.81664E-05-5.34526E-05 3.35062E-34 1.17457E-05-5.19223E-18-7.06364E-19
 -1       275-4.17360E-05 1.78830E-05 1.16658E-34 1.16443E-05-2.97533E-18 6.80906E-19
 -1       276-3.94418E-05 1.61344E-05-4.56674E-35 2.26003E-05-3.61187E-19-6.93125E-20
 -1       277-3.52045E-05 1.28371E-05 1.84332E-35 3.30395E-05 2.33963E-18 1.72237E-19
 -1       278-2.87922E-05 7.84685E-06 8.97089E-35 4.26805E-05-2.61153E-18-1.43357E-20
 -1       279-2.00168E-05 1.02931E-06 7.04700E-35 5.10435E-05 3.47669E-18 3.61331E-19
 -1       280-8.79920E-06-7.68889E-06 5.00079E-35 5.74590E-05 5.61204E-18-4.02974E-20
 -1       281 4.74981E-06-1.82498E-05 1.10027E-34 6.10033E-05 1.45769E-18-5.89471E-21
 -1       282 2.01796E-05-3.03505E-05 3.84285E-34 6.04581E-05-4.34016E-18-8.60082E-20
 -1       283 3.64260E-05-4.32358E-05-1.12885E-34 5.43061E-05 7.03084E-18 4.01733E-19
 -1       284 5.13585E-05-5.53341E-05 1.52665E-34 4.07613E-05-6.53096E-18 2.17757E-21
 -1       285 6.11602E-05-6.33007E-05 4.11868E-35 1.75166E-05 3.93918E-19-1.91642E-19
 -1       286-7.00319E-05 3.00018E-05 1.37466E-34 1.44180E-05-1.21946E-18-5.53935E-19
 -1       287-6.44258E-05 2.69403E-05 1.53546E-34 2.80924E-05 9.96512E-18 4.63217E-20
 -1       288-5.67028E-05 2.23282E-05 2.20546E-34 4.11912E-05 2.75170E-18-7.26907E-19
 -1       289-4.65193E-05 1.59396E-05 2.26078E-34 5.33649E-05-5.11220E-20 7.83806E-20
 -1       290-3.35381E-05 7.52245E-06 3.60934E-35 6.40365E-05 6.27252E-18-1.99809E-19
 -1       291-1.74976E-05-3.12780E-06 1.48295E-34 7.23885E-05-2.74711E-18-1.23718E-19
 -1       292 1.67361E-06-1.60754E-05-1.36761E-35 7.72679E-05 3.07373E-18 3.04713E-20
 -1       293 2.36610E-05-3.10945E-05 2.08792E-34 7.71022E-05 1.24123E-18-9.16866E-20
 -1       294 4.74502E-05-4.74314E-05 9.65817E-35 6.98315E-05 4.09454E-18 2.83762E-19
 -1       295 7.08475E-05-6.34326E-05 2.15767E-34 5.28835E-05 1.67191E-20-4.72603E-19
 -1       296 8.98034E-05-7.55413E-05 1.59500E-34 2.28665E-05 2.98061E-18 1.05976E-18
 -1       297-1.00803E-04 4.31910E-05 2.16047E-34 1.64582E-05-1.54897E-18-4.59999E-19
 -1       298-9.18033E-05 3.88120E-05 3.63938E-34 3.22956E-05 2.09902E-18 2.75087E-19
 -1       299-8.05164E-05 3.28914E-05 1.45680E-34 4.76732E-05-2.53413E-18 5.21167E-19
 -1       300-6.64444E-05 2.50885E-05 3.93609E-35 6.21995E-05-4.41868E-19 1.98831E-19
 -1       301-4.90476E-05 1.50046E-05 2.34342E-35 7.52004E-05 1.35666E-18-1.37639E-20
 -1       302-2.78290E-05 2.27923E-06-2.41562E-35 8.56710E-05-1.46428E-18 1.04927E-19
 -1       303-2.48490E-06-1.32885E-05 1.70472E-34 9.21615E-05 3.12414E-18 1.37041E-19
 -1       304 2.68609E-05-3.15639E-05 6.28647E-35 9.26811E-05-2.67671E-19-1.43610E-19
 -1       305 5.93121E-05-5.18302E-05-2.87902E-35 8.46064E-05-5.52088E-18 1.10542E-19
 -1       306 9.26803E-05-7.24140E-05 1.76822E-34 6.46008E-05 4.70437E-18-2.52197E-20
 -1       307 1.22655E-04-8.95630E-05 1.34465E-34 2.81406E-05-2.54207E-18-1.52707E-19
 -1       308-1.32229E-04 5.66761E-05 2.08649E-35 1.77493E-05-1.61877E-18-7.91708E-19
 -1       309-1.20187E-04 5.11679E-05 1.23989E-34 3.52420E-05 2.39756E-18-3.35965E-21
 -1       310-1.05674E-04 4.41047E-05 2.27273E-35 5.26146E-05 3.54308E-18 6.15927E-20
 -1       311-8.79424E-05 3.49595E-05-8.05622E-36 6.94287E-05-1.03157E-19-3.37360E-19
 -1       312-6.61597E-05 2.31357E-05 4.13477E-35 8.48631E-05-5.59081E-19 6.69207E-20
 -1       313-3.95452E-05 8.11351E-06-1.18763E-34 9.76359E-05 1.69896E-18-1.98081E-19
 -1       314-7.57454E-06-1.03890E-05 1.71646E-35 1.05915E-04 2.08258E-18 5.93282E-21
 -1       315 2.97682E-05-3.22384E-05 9.25031E-35 1.07267E-04-2.38627E-18-1.34078E-19
 -1       316 7.16813E-05-5.67034E-05 1.02512E-34 9.85751E-05 2.14783E-18 2.27640E-19
 -1       317 1.16077E-04-8.21676E-05-7.10273E-35 7.58548E-05-2.48217E-18 5.12607E-19
 -1       318 1.58586E-04-1.04900E-04 7.66799E-36 3.33719E-05-1.95996E-18-9.27110E-19
 -1       319-1.62953E-04 6.98808E-05 4.23640E-35 1.83086E-05-6.85816E-18-5.52538E-19
 -1       320-1.48652E-04 6.35889E-05 4.36903E-35 3.70913E-05-1.52577E-18 9.69554E-20
 -1       321-1.31584E-04 5.56079E-05 1.12676E-34 5.64040E-05 2.52203E-18-5.02341E-19
 -1       322-1.10583E-04 4.51055E-05-1.35021E-35 7.56804E-05-9.69539E-19-2.14116E-19
 -1       323-8.44287E-05 3.12474E-05 2.45387E-35 9.37878E-05-2.95332E-18-2.50878E-19
 -1       324-5.20804E-05 1.34366E-05 4.64050E-35 1.08976E-04-2.10529E-18 5.02171E-21
 -1       325-1.29571E-05-8.48433E-06 3.58376E-35 1.18922E-04-5.99076E-19 8.48974E-20
 -1       326 3.28780E-05-3.41488E-05 6.00674E-35 1.20818E-04 8.99357E-19 3.42167E-20
 -1       327 8.46115E-05-6.27021E-05 7.33935E-35 1.11317E-04-2.04799E-18 1.92972E-19
 -1       328 1.40439E-04-9.27436E-05 1.51046E-34 8.61095E-05-5.59097E-19-1.67980E-19
 -1       329 1.96500E-04-1.21105E-04 1.50678E-34 3.83007E-05-1.53210E-18-4.71139E-19
 -1       330-1.92154E-04 8.24527E-05 4.65839E-35 1.82413E-05 2.08003E-19-3.53312E-19
 -1       331-1.76842E-04 7.58649E-05 1.67558E-34 3.82651E-05 1.83275E-18 7.50889E-19
 -1       332-1.58098E-04 6.71048E-05 2.12433E-34 5.98938E-05 3.84639E-18-1.83333E-20
 -1       333-1.34107E-04 5.48880E-05-2.92240E-35 8.21769E-05 9.92003E-19-1.63332E-19
 -1       334-1.03207E-04 3.81818E-05-9.82557E-37 1.03293E-04-1.61329E-19 9.69919E-20
 -1       335-6.43447E-05 1.66204E-05 1.21718E-34 1.20708E-04-1.11494E-18 2.93777E-21
 -1       336-1.73324E-05-9.37577E-06 4.23952E-35 1.31564E-04 2.43982E-18 2.85779E-20
 -1       337 3.72697E-05-3.88471E-05 1.92400E-35 1.32992E-04-3.01612E-19-1.29978E-19
 -1       338 9.85266E-05-7.07656E-05 1.37133E-34 1.21957E-04 2.85447E-18 2.01097E-19
 -1       339 1.65283E-04-1.04292E-04 4.28588E-35 9.43701E-05 3.24091E-18-3.87295E-19
 -1       340 2.35136E-04-1.37669E-04 3.39859E-35 4.23963E-05 3.71003E-18 3.54836E-19
 -1       341-2.19675E-04 9.43456E-05 3.75394E-35 1.77875E-05-3.26441E-18 2.97044E-19
 -1       342-2.05075E-04 8.80110E-05-9.74162E-36 3.96002E-05 6.16732E-19 6.49092E-19
 -1       343-1.85538E-04 7.82802E-05 7.06168E-35 6.46487E-05 4.84845E-19 8.99414E-20
 -1       344-1.58246E-04 6.32131E-05 8.98518E-35 9.09431E-05-2.58936E-18-7.30594E-20
 -1       345-1.21324E-04 4.19619E-05 4.35977E-35 1.15248E-04 6.61113E-19-9.36290E-20
 -1       346-7.44467E-05 1.51575E-05 7.79589E-35 1.33910E-04-2.25671E-18 2.09267E-20
 -1       347-1.86854E-05-1.54650E-05 4.12815E-35 1.43851E-04-1.48772E-18-1.86764E-20
 -1       348 4.44324E-05-4.80856E-05-9.50966E-36 1.42916E-04-3.83047E-18-1.73963E-20
 -1       349 1.13984E-04-8.17762E-05 5.19361E-35 1.29195E-04 3.99023E-18 5.18990E-19
 -1       350 1.90104E-04-1.16867E-04 1.37264E-34 9.93731E-05 4.99044E-18-6.20298E-20
 -1       351 2.73008E-04-1.53986E-04 2.21528E-34 4.49769E-05-1.19489E-19-7.51557E-20
 -1       352-2.46124E-04 1.05768E-04 3.82847E-36 1.73422E-05 1.64450E-18 5.89320E-20
 -1       353-2.34589E-04 1.00299E-04-3.98812E-35 4.26580E-05 1.79597E-18 1.84292E-19
 -1       354-2.14591E-04 8.84344E-05 1.31608E-34 7.33928E-05 6.83427E-18-5.16874E-19
 -1       355-1.82239E-04 6.79123E-05 6.26626E-35 1.05009E-04-3.36911E-18 1.95646E-19
 -1       356-1.36486E-04 3.92421E-05 1.44644E-34 1.31760E-04-1.90836E-18 5.01836E-20
 -1       357-7.94321E-05 5.58600E-06 1.86503E-35 1.49061E-04-3.86348E-18 2.23603E-20
 -1       358-1.45155E-05-2.93234E-05 1.18154E-34 1.54858E-04 2.79484E-18 2.37102E-20
 -1       359 5.57753E-05-6.31917E-05 1.66044E-35 1.49031E-04-4.92344E-19-1.44738E-19
 -1       360 1.31262E-04-9.60716E-05 1.39917E-34 1.31505E-04 2.15880E-18 1.54983E-19
 -1       361 2.14233E-04-1.30221E-04 1.62942E-34 9.99364E-05-1.42515E-19-2.63334E-19
 -1       362 3.08516E-04-1.69382E-04 1.45103E-34 4.54226E-05 7.56213E-19-1.52524E-19
 -1       363-2.73473E-04 1.17846E-04 1.08680E-34 1.78356E-05-3.13667E-18 3.85397E-19
 -1       364-2.67530E-04 1.12950E-04 9.34250E-35 5.04399E-05 2.13206E-18 1.69755E-19
 -1       365-2.45792E-04 9.56807E-05 4.99728E-35 9.07306E-05 1.62704E-18-5.42403E-20
 -1       366-2.03657E-04 6.44396E-05 2.58249E-35 1.28302E-04-1.96407E-18-6.81835E-20
 -1       367-1.44424E-04 2.46724E-05 1.78848E-34 1.54139E-04-1.95620E-18-3.21453E-20
 -1       368-7.53561E-05-1.61028E-05 1.17027E-34 1.64885E-04 9.29677E-19 5.84364E-21
 -1       369-2.56411E-06-5.27521E-05 4.66024E-35 1.62190E-04 4.93217E-18 4.64733E-20
 -1       370 7.18941E-05-8.42828E-05 1.22981E-35 1.49199E-04-2.77195E-18 1.20305E-19
 -1       371 1.49966E-04-1.13059E-04 6.49743E-35 1.27543E-04 1.03686E-18 8.34416E-20
 -1       372 2.36782E-04-1.43716E-04-2.34308E-35 9.53538E-05-2.25929E-18-6.39415E-21
 -1       373 3.40166E-04-1.83201E-04 1.02037E-34 4.33944E-05 2.75038E-18 2.60627E-19
 -1       374-3.05016E-04 1.30873E-04 3.21312E-35 2.07532E-05 1.36306E-18 4.02870E-19
 -1       375-3.08212E-04 1.25628E-04 3.68845E-35 6.95368E-05 2.55072E-20 1.46435E-19
 -1       376-2.77717E-04 9.38083E-05-2.29866E-35 1.24609E-04-1.71982E-18-2.42554E-20
 -1       377-2.16147E-04 4.37880E-05 1.96344E-35 1.64468E-04-3.18643E-18 2.62076E-20
 -1       378-1.38262E-04-9.02188E-06-2.14278E-35 1.80532E-04-3.10740E-18 5.85875E-20
 -1       379-5.83626E-05-5.29110E-05-1.41090E-35 1.77023E-04-1.15905E-18-5.30812E-21
 -1       380 1.79018E-05-8.54096E-05 7.90417E-35 1.62037E-04 4.80566E-19 1.95654E-20
 -1       381 9.19156E-05-1.09712E-04 7.53758E-35 1.41324E-04 7.22720E-19 2.30894E-20
 -1       382 1.68907E-04-1.31196E-04 1.31115E-34 1.16656E-04-3.67336E-18-2.33097E-19
 -1       383 2.56754E-04-1.56436E-04 7.38559E-35 8.56624E-05-5.01612E-18 2.46527E-21
 -1       384 3.66811E-04-1.94917E-04 7.55833E-35 3.89515E-05-1.80293E-18 2.95316E-20
 -1       385-3.50836E-04 1.53847E-04 8.14361E-35 3.23469E-05 2.13942E-18-3.91508E-19
 -1       386-3.57735E-04 1.32516E-04 1.88911E-36 1.13604E-04-4.02607E-18-6.71914E-20
 -1       387-3.01959E-04 6.75913E-05 4.72659E-35 1.84984E-04-4.04993E-19 4.70797E-20
 -1       388-2.06234E-04-9.68525E-06 2.74580E-35 2.11705E-04 4.83673E-18 4.61235E-20
 -1       389-1.10147E-04-6.82066E-05 3.76694E-35 2.02458E-04 2.78220E-19 2.48802E-20
 -1       390-2.73717E-05-1.03824E-04 4.76987E-35 1.77891E-04-2.80004E-18 6.91127E-21
 -1       391 4.48286E-05-1.23760E-04 4.46169E-35 1.50409E-04-1.90529E-18 2.07099E-21
 -1       392 1.13409E-04-1.36228E-04 8.28486E-35 1.24314E-04 1.83442E-18 2.06077E-20
 -1       393 1.86391E-04-1.48417E-04 1.78906E-35 9.92462E-05 1.90569E-18 1.05585E-19
 -1       394 2.73259E-04-1.67444E-04 1.79529E-36 7.16580E-05 1.39531E-19-4.72236E-20
 -1       395 3.87823E-04-2.04216E-04 2.03850E-35 3.25210E-05 9.07058E-19 2.29941E-19
 -1       396-4.22260E-04 1.63036E-04 9.52099E-36 6.39774E-05-1.33520E-18-1.07738E-19
 -1       397-4.25283E-04 1.08725E-04 1.47001E-36 2.24503E-04-2.16292E-19 8.48037E-20
 -1       398-2.86549E-04-2.22803E-05-2.36101E-36 2.77880E-04-3.07244E-18 2.47943E-21
 -1       399-1.53783E-04-1.12216E-04 2.82755E-35 2.50919E-04 5.34264E-18-2.67348E-21
 -1       400-5.83907E-05-1.50167E-04 4.29160E-36 2.03373E-04 1.28527E-18-1.38422E-20
 -1       401 1.29574E-05-1.61321E-04-9.87146E-36 1.59551E-04 1.24475E-18 4.73323E-22
 -1       402 7.32749E-05-1.61500E-04 2.90429E-35 1.25312E-04 9.39536E-20 2.50024E-20
 -1       403 1.33125E-04-1.59980E-04 1.84807E-34 9.88567E-05 2.10885E-18-2.95561E-20
 -1       404 2.00773E-04-1.62797E-04-3.46465E-36 7.67652E-05-4.04184E-18 1.29323E-20
 -1       405 2.85749E-04-1.76050E-04 5.32165E-35 5.46656E-05-3.32804E-18-4.05002E-20
 -1       406 4.03121E-04-2.11026E-04 8.95230E-35 2.47556E-05-5.84487E-18 2.53887E-19
 -1       407-6.17053E-04 2.88113E-04-2.91109E-35 2.24218E-04-1.95484E-18-8.57582E-21
 -1       408-4.06230E-04-6.42954E-05 2.56790E-36 4.19625E-04-2.33172E-18-2.95054E-20
 -1       409-1.71037E-04-2.36259E-04-2.24499E-35 3.52814E-04-1.39029E-18 7.83645E-21
 -1       410-5.86734E-05-2.51834E-04 5.44721E-35 2.41427E-04-3.32051E-18-1.05696E-20
 -1       411 5.22244E-06-2.36691E-04 1.02006E-35 1.66740E-04-1.65154E-18-4.96385E-21
 -1       412 5.19790E-05-2.12601E-04 9.72930E-36 1.19117E-04 7.92232E-19 2.62476E-20
 -1       413 9.72570E-05-1.91910E-04 6.47439E-35 8.83967E-05-8.85692E-19 2.57602E-20
 -1       414 1.48180E-04-1.77839E-04 1.01859E-34 6.73990E-05 2.06987E-18-3.82270E-20
 -1       415 2.10985E-04-1.73098E-04-1.48049E-35 5.13175E-05-2.42642E-18-5.50971E-20
 -1       416 2.94119E-04-1.81949E-04-1.66218E-35 3.61909E-05-3.04006E-18 5.83454E-20
 -1       417 4.13090E-04-2.15488E-04 6.28638E-35 1.63586E-05 2.39808E-18-1.30849E-19
 -1       418-7.40165E-04-4.18514E-04-1.48005E-35 1.18539E-03 6.85931E-19 2.47142E-20
 -1       419 1.30621E-05-6.32270E-04 8.23866E-35 5.53143E-04-8.95582E-19-1.72511E-21
 -1       420 9.21654E-06-4.76729E-04 5.32298E-35 2.61694E-04 1.16394E-18-6.61523E-21
 -1       421 4.17137E-05-3.76640E-04 1.01809E-36 1.49467E-04-2.05276E-18 7.65524E-21
 -1       422 5.44774E-05-2.98412E-04 1.21069E-34 9.25851E-05-1.60031E-18-2.92781E-21
 -1       423 7.87943E-05-2.46127E-04 8.37029E-35 6.25617E-05-1.19470E-18 3.15721E-22
 -1       424 1.12145E-04-2.10383E-04-4.69671E-36 4.48742E-05 1.46862E-18-3.69110E-21
 -1       425 1.57038E-04-1.88266E-04-9.38080E-36 3.35582E-05 1.36241E-18-1.54535E-20
 -1       426 2.16721E-04-1.78929E-04 3.90858E-36 2.52693E-05-2.57537E-18 2.59602E-20
 -1       427 2.98666E-04-1.85205E-04 3.42513E-35 1.77245E-05 1.51976E-19 9.22228E-20
 -1       428 4.18410E-04-2.17885E-04 2.00674E-34 8.00137E-06 3.60374E-18 3.14940E-20
 -1       429-2.11108E-03-2.78640E-03 1.86150E-35-2.22377E-03 3.28980E-19 1.26774E-19
 -1       430-7.25300E-04-2.22662E-04 1.33648E-35-1.66653E-03-1.51801E-19-2.90638E-20
 -1       431 6.95309E-04-2.90479E-03 1.92058E-35-1.35334E-03 6.91649E-19-1.81910E-20
 -1       432 6.74897E-04-5.26391E-03 2.35653E-35-1.25720E-03-2.24925E-19 7.64721E-22
 -1       433 1.55789E-04-1.43982E-03 2.03570E-35-1.38009E-03-3.43546E-19-3.86527E-20
 -1       434 8.26005E-04-1.97499E-03 2.44934E-35-5.57941E-04-2.36080E-19-4.00644E-21
 -1       435 1.57507E-03-2.92532E-03 3.80010E-35 9.77589E-06 9.78789E-20 2.28400E-21
 -1       436 6.33311E-04-1.41871E-03 8.94814E-36-6.43392E-04 1.37129E-18-5.04532E-21
 -1       437 6.57655E-04-1.37897E-03 7.31209E-36-2.31142E-04 1.43971E-18 1.76088E-20
 -1       438 7.98752E-04-1.73492E-03 2.81569E-35-5.51891E-06 3.89498E-20 3.97218E-22
 -1       439 5.32446E-04-1.11117E-03 7.11143E-36-3.05182E-04-9.10001E-19-1.13928E-20
 -1       440 5.28666E-04-1.02897E-03 4.87281E-36-1.11176E-04-6.56508E-19 1.99135E-20
 -1       441 6.42397E-04-1.23987E-03 3.81784E-36 1.08756E-06-1.22703E-18 6.94311E-21
 -1       442 4.68150E-04-8.92712E-04 2.34880E-36-1.58158E-04-1.11915E-18 8.64420E-21
 -1       443 4.41961E-04-8.14879E-04 4.90005E-36-5.85707E-05 3.65223E-19 3.35080E-21
 -1       444 4.93076E-04-9.32636E-04 3.21151E-36 8.95868E-07 1.65664E-19 3.13398E-21
 -1       445 4.02716E-04-7.30479E-04 3.39786E-36-8.51330E-05-3.58018E-19 4.70764E-21
 -1       446 3.81674E-04-6.70342E-04 8.83902E-36-3.17768E-05-5.81229E-19-8.70612E-21
 -1       447 4.15928E-04-7.47450E-04 1.42414E-35 7.39446E-07 4.70912E-19-4.11306E-21
 -1       448 3.56465E-04-6.15325E-04 3.56994E-36-4.67376E-05-4.42149E-19-2.26731E-20
 -1       449 3.39137E-04-5.69959E-04 2.80635E-36-1.73381E-05-2.62829E-19-7.64857E-21
 -1       450 3.60882E-04-6.22155E-04 3.16724E-36 4.18387E-07 1.57287E-19 9.48393E-22
 -1       451 3.21725E-04-5.32320E-04 5.00773E-36-2.50862E-05-2.52484E-19-8.46441E-21
 -1       452 3.08711E-04-4.98721E-04 5.22073E-36-9.06145E-06-3.43377E-20 3.07157E-21
 -1       453 3.23796E-04-5.35220E-04 4.74322E-36 2.97743E-07 6.56496E-19 6.74135E-22
 -1       454 2.96809E-04-4.72944E-04 2.17963E-36-1.25289E-05-2.93720E-19 7.42262E-21
 -1       455 2.87256E-04-4.48766E-04 3.61802E-36-4.23673E-06 7.71694E-20 5.88325E-22
 -1       456 2.97543E-04-4.74108E-04 2.84912E-36 2.08247E-07 6.77408E-20 3.72217E-21
 -1       457 2.79500E-04-4.32015E-04 2.92183E-36-5.22027E-06 2.50755E-19-1.92529E-21
 -1       458 2.72985E-04-4.15826E-04 1.75337E-36-1.50849E-06-7.51049E-20-3.51863E-22
 -1       459 2.79773E-04-4.32430E-04 3.52746E-38 1.63000E-07-9.25862E-20-7.34968E-23
 -1       460 2.69050E-04-4.07129E-04 1.87242E-36-1.26846E-06-4.30814E-20-5.09022E-21
 -1       461 2.65475E-04-3.98964E-04 9.92763E-37-2.05160E-07-1.81311E-19 3.94496E-22
 -1       462 2.69111E-04-4.07238E-04 1.13349E-36 1.65923E-07-1.77197E-19 1.51993E-21
 -1       463 2.65352E-04-3.98369E-04 1.09761E-36-1.05548E-07 1.50046E-20-1.41365E-22
 -1       464 2.65364E-04-3.98382E-04 9.77363E-37-7.92407E-08-1.38155E-20 5.32705E-22
 -1       465 9.71913E-05 6.57715E-04 2.21048E-35 5.18154E-04 1.05608E-19-1.63710E-20
 -1       466-5.22549E-04 1.38425E-04 2.53595E-36-2.36232E-04 1.18337E-19 9.43896E-21
 -1       467-4.03287E-04-3.19748E-04 9.56793E-36-1.25609E-03 3.97386E-21 5.83691E-21
 -1       468-3.58533E-04-3.07899E-04 7.09742E-36-8.28274E-04-8.24036E-20 8.63816E-20
 -1       469 1.89699E-04-1.01545E-03 1.67873E-35-9.73000E-04 9.50479E-19 5.96858E-20
 -1       470 1.08565E-04-7.29050E-04 1.08918E-35-7.52766E-04-9.70197E-19-1.09052E-19
 -1       471 4.15934E-04-1.04702E-03 2.07118E-36-5.53085E-04-7.81518E-19-7.64540E-20
 -1       472 3.38381E-04-8.33164E-04 5.62269E-36-4.87839E-04 1.14503E-18 4.69469E-21
 -1       473 4.38644E-04-9.15992E-04 5.51925E-36-3.03585E-04 5.25178E-19-3.73836E-20
 -1       474 3.79230E-04-7.72913E-04 7.92999E-36-2.85707E-04 8.87022E-20 1.61507E-20
 -1       475 4.05191E-04-7.67740E-04 4.01034E-36-1.68653E-04 6.74991E-19 5.61903E-20
 -1       476 3.67308E-04-6.79851E-04 2.40217E-36-1.64695E-04 2.28128E-19-2.27810E-20
 -1       477 3.66493E-04-6.51047E-04 4.95922E-36-9.45514E-05 5.20143E-19-2.72083E-20
 -1       478 3.40887E-04-5.93333E-04 4.70672E-36-9.33501E-05 4.65243E-19 3.99346E-20
 -1       479 3.32727E-04-5.61717E-04 2.47040E-36-5.23574E-05 4.96304E-19-3.29614E-21
 -1       480 3.15365E-04-5.22909E-04 1.81487E-36-5.10897E-05-1.21246E-19 2.07387E-20
 -1       481 3.06111E-04-4.95377E-04 3.15073E-36-2.76172E-05-8.34974E-20-1.50279E-20
 -1       482 2.94243E-04-4.69100E-04 3.26273E-36-2.57729E-05-3.20129E-19-1.54575E-20
 -1       483 2.86299E-04-4.47547E-04 2.04575E-36-1.29762E-05 3.27644E-19 7.97459E-21
 -1       484 2.78629E-04-4.30636E-04 2.18267E-36-1.08091E-05-1.10886E-19-2.21628E-20
 -1       485 2.72730E-04-4.15526E-04 2.50729E-36-4.62934E-06-5.91697E-20 3.44849E-21
 -1       486 2.68831E-04-4.06769E-04 1.93861E-36-2.64418E-06-4.71278E-20-5.37615E-21
 -1       487 2.65480E-04-3.98985E-04 1.21884E-36-6.26492E-07 1.54171E-19-3.56941E-21
 -1       488 2.65325E-04-3.98328E-04 1.42571E-36-2.18468E-07-2.75810E-19-7.45073E-22
 -1       489-7.53786E-06-7.23264E-05 1.20435E-35-8.97777E-06 2.24329E-18 1.60853E-19
 -1       490-1.73189E-04 6.62969E-05 6.36086E-36-8.08669E-05-7.23515E-19 1.08244E-19
 -1       491-4.68576E-04 1.54181E-04 5.40765E-36-3.97504E-04 1.23520E-19-1.38283E-20
 -1       492-2.99467E-04-2.44511E-05 5.59604E-36-3.96355E-04 2.45619E-19-6.00447E-20
 -1       493-1.69992E-04-3.14481E-04 7.62836E-36-6.94552E-04 7.40666E-19-2.50083E-20
 -1       494-1.08074E-04-3.12381E-04 3.34532E-36-5.68080E-04-7.94024E-20 6.36331E-20
 -1       495 1.45953E-04-6.36550E-04 4.97932E-36-6.02734E-04-4.34844E-19-8.62274E-20
 -1       496 1.34817E-04-5.34822E-04 4.09832E-36-4.97130E-04 3.70633E-19 3.85427E-20
 -1       497 2.92916E-04-7.08970E-04 3.34359E-36-4.10031E-04-2.20494E-19-1.46338E-20
 -1       498 2.65281E-04-6.09929E-04-2.46699E-37-3.52564E-04 1.63766E-19-1.17982E-19
 -1       499 3.37122E-04-6.76377E-04 6.64311E-36-2.54549E-04 3.60444E-19-2.39963E-20
 -1       500 3.10130E-04-5.99433E-04 3.23797E-36-2.25424E-04 4.56038E-19 3.85735E-20
 -1       501 3.35483E-04-6.10012E-04 3.87064E-36-1.51662E-04-6.85630E-19-4.56639E-20
 -1       502 3.14574E-04-5.55596E-04 2.91851E-36-1.35572E-04-1.52189E-19 4.29825E-20
 -1       503 3.19108E-04-5.43842E-04 5.30923E-36-8.68575E-05 4.01569E-19 2.71466E-20
 -1       504 3.03711E-04-5.05952E-04 3.42807E-36-7.67299E-05-4.88570E-20 3.91038E-20
 -1       505 3.00412E-04-4.87921E-04 2.09597E-36-4.67127E-05 3.16879E-20 1.99444E-20
 -1       506 2.89509E-04-4.61987E-04 2.61659E-36-3.94758E-05-1.58311E-19 3.35094E-20
 -1       507 2.84168E-04-4.44802E-04 1.56816E-36-2.21853E-05-9.00879E-20 3.45363E-20
 -1       508 2.76966E-04-4.28045E-04 2.51618E-36-1.67498E-05 2.40707E-19 3.52386E-21
 -1       509 2.72152E-04-4.14840E-04 1.97059E-36-7.95083E-06-2.80093E-20 6.14901E-21
 -1       510 2.68422E-04-4.06091E-04 2.04915E-36-4.14232E-06 8.72721E-20 1.55657E-21
 -1       511 2.65486E-04-3.99024E-04 1.11431E-36-1.06312E-06 2.46483E-19-9.69851E-22
 -1       512 2.65273E-04-3.98250E-04 1.83399E-36-3.43785E-07 1.85312E-19 2.83455E-21
 -1       513-1.43466E-05 3.15084E-05 7.10113E-36 1.19744E-05-2.65832E-19-4.34612E-20
 -1       514-8.92276E-05 3.02306E-05 6.46276E-36-4.66987E-05 5.97363E-19-5.51435E-20
 -1       515-2.18102E-04 5.65169E-05 6.57121E-36-1.65047E-04-6.58000E-19 6.05582E-21
 -1       516-1.99282E-04 1.22639E-05 5.55172E-36-2.18037E-04 8.59242E-19-1.02042E-20
 -1       517-2.05460E-04-7.52156E-05 3.23896E-36-4.15225E-04 3.44758E-19-2.47795E-20
 -1       518-1.36085E-04-1.33506E-04 3.46874E-36-3.74622E-04-9.83726E-19-3.33041E-21
 -1       519-2.00443E-05-3.22147E-04 7.67052E-36-4.91539E-04-5.63543E-19-9.26681E-21
 -1       520 1.72065E-05-3.18449E-04 2.53657E-36-4.16261E-04 1.01265E-19 6.78641E-20
 -1       521 1.55563E-04-4.93458E-04 1.65775E-36-4.18313E-04-3.56632E-19 8.93978E-20
 -1       522 1.59876E-04-4.49467E-04 3.23754E-36-3.54933E-04 2.18379E-20 2.01085E-20
 -1       523 2.53473E-04-5.54906E-04 7.93925E-36-3.00347E-04 2.92770E-19-1.73829E-19
 -1       524 2.44150E-04-5.03436E-04 2.77314E-36-2.57422E-04-2.82916E-19 1.01448E-19
 -1       525 2.91748E-04-5.49157E-04 4.92817E-36-1.95165E-04-6.25974E-19 4.79630E-20
 -1       526 2.79346E-04-5.04852E-04 1.28279E-36-1.67716E-04-2.82089E-19 1.11764E-19
 -1       527 2.98169E-04-5.15341E-04 3.49316E-36-1.17763E-04 8.27140E-20 3.42835E-20
 -1       528 2.86912E-04-4.81442E-04 1.82186E-36-9.96927E-05-1.29303E-19-4.25332E-20
 -1       529 2.91203E-04-4.75562E-04 2.14029E-36-6.53192E-05-2.54781E-19-8.47544E-21
 -1       530 2.82311E-04-4.51244E-04 2.32548E-36-5.28415E-05 6.97767E-20-4.24628E-20
 -1       531 2.80613E-04-4.40128E-04 3.12191E-36-3.15774E-05 8.74660E-20-1.21377E-20
 -1       532 2.74378E-04-4.24035E-04 1.59660E-36-2.28287E-05 9.15234E-20 6.32848E-20
 -1       533 2.71163E-04-4.13640E-04 1.03886E-36-1.14015E-05-2.97454E-19 1.81580E-20
 -1       534 2.67781E-04-4.05039E-04 2.29796E-36-5.73603E-06-4.26388E-21-5.70302E-21
 -1       535 2.65482E-04-3.99074E-04 1.63128E-36-1.49308E-06-2.86024E-19 3.02902E-21
 -1       536 2.65197E-04-3.98129E-04 8.60812E-37-4.83878E-07 4.64572E-20-2.41914E-21
 -1       537-1.11121E-06-1.63082E-06 9.73659E-36 3.06989E-06 4.35907E-19-6.13949E-20
 -1       538-5.14469E-05 1.64926E-05 1.58370E-36-3.04189E-05 3.92800E-19-2.60381E-20
 -1       539-1.29981E-04 3.67701E-05 4.25131E-36-9.92244E-05-3.89773E-19 2.07831E-20
 -1       540-1.21407E-04 1.07731E-05 2.02234E-36-1.32567E-04-2.74975E-19-2.49599E-21
 -1       541-1.58224E-04-1.95737E-05 9.77292E-37-2.47457E-04-9.02646E-19 5.77465E-20
 -1       542-1.13349E-04-6.45448E-05 2.49127E-36-2.48415E-04-2.82010E-19 1.10011E-20
 -1       543-7.13483E-05-1.63494E-04 4.56982E-36-3.55188E-04 9.37160E-20 1.87235E-19
 -1       544-2.78532E-05-1.92617E-04 2.20805E-36-3.18905E-04-3.13174E-19 3.82984E-21
 -1       545 6.30603E-05-3.23363E-04 2.74382E-36-3.65972E-04-1.88848E-19 8.85808E-21
 -1       546 8.67430E-05-3.20891E-04 4.31252E-36-3.16510E-04 1.87746E-20 1.08994E-19
 -1       547 1.75247E-04-4.30796E-04 2.17188E-36-3.04516E-04-4.76647E-19 1.94395E-19
 -1       548 1.82039E-04-4.07884E-04 2.81278E-36-2.60465E-04-2.75027E-19-3.83183E-20
 -1       549 2.41984E-04-4.75480E-04 2.68430E-36-2.19430E-04 1.07009E-20-1.77646E-20
 -1       550 2.39743E-04-4.46440E-04 3.78956E-36-1.86087E-04 2.69057E-20 8.83813E-20
 -1       551 2.71299E-04-4.77080E-04 4.85470E-36-1.41690E-04-1.41034E-20-5.63836E-20
 -1       552 2.65739E-04-4.50390E-04 3.27257E-36-1.17729E-04-3.09231E-19-1.37152E-20
 -1       553 2.78458E-04-4.57862E-04 1.08853E-36-8.20175E-05 1.82078E-19 4.57346E-20
 -1       554 2.72599E-04-4.36783E-04 1.36542E-36-6.49612E-05 1.25455E-19 8.49249E-21
 -1       555 2.75447E-04-4.33144E-04 2.30333E-36-4.06715E-05-2.98810E-19-1.66829E-20
 -1       556 2.70741E-04-4.18444E-04 1.92568E-36-2.87824E-05-1.93318E-19-6.38119E-20
 -1       557 2.69667E-04-4.11768E-04 1.62109E-36-1.48475E-05 4.38470E-21-4.00286E-20
 -1       558 2.66877E-04-4.03565E-04 2.26067E-36-7.39142E-06 7.33726E-20-2.67743E-21
 -1       559 2.65452E-04-3.99110E-04 1.29002E-36-1.88465E-06 8.08725E-20 5.35333E-21
 -1       560 2.65097E-04-3.97964E-04 6.55261E-37-6.39013E-07 2.37495E-20-4.39436E-21
 -1       561-1.89454E-06 1.98087E-06 2.46669E-36 9.59546E-07 6.27179E-19-7.20273E-21
 -1       562-3.03605E-05 8.04198E-06 1.40385E-36-2.21585E-05-1.42513E-19-8.90410E-21
 -1       563-7.54365E-05 1.63348E-05 3.23806E-36-6.36345E-05-2.59822E-19 1.22084E-20
 -1       564-7.55665E-05 3.04177E-06 8.72639E-37-8.93187E-05-1.85020E-19-2.77796E-20
 -1       565-1.06467E-04-1.00882E-05 2.93714E-36-1.59642E-04-6.03987E-19-3.40482E-20
 -1       566-8.00019E-05-4.09729E-05 2.53390E-36-1.70239E-04-1.30360E-19 4.10607E-20
 -1       567-7.09927E-05-9.38999E-05 4.35285E-36-2.50177E-04 5.39451E-19 1.16596E-19
 -1       568-3.49912E-05-1.25803E-04 2.89300E-36-2.37217E-04-2.40134E-19-1.49392E-19
 -1       569 1.63828E-05-2.13161E-04 5.54017E-36-2.94338E-04 2.71295E-19-9.71406E-20
 -1       570 4.60726E-05-2.30954E-04 4.63997E-36-2.63053E-04 1.42871E-19 9.81325E-21
 -1       571 1.15697E-04-3.25162E-04 4.83036E-36-2.78963E-04-1.72365E-20 4.47909E-20
 -1       572 1.32992E-04-3.24829E-04 1.60375E-36-2.41960E-04-6.81340E-20 9.63474E-20
 -1       573 1.93986E-04-3.99278E-04 6.12060E-36-2.23666E-04 2.83787E-19-2.11109E-19
 -1       574 2.00919E-04-3.86731E-04 4.04789E-36-1.89922E-04 1.43270E-19-1.45664E-19
 -1       575 2.41101E-04-4.31813E-04 1.68755E-36-1.56211E-04-2.03525E-19-1.59056E-20
 -1       576 2.41840E-04-4.14803E-04 4.04081E-36-1.29022E-04 1.38984E-19-8.01149E-20
 -1       577 2.62626E-04-4.34967E-04 3.32235E-36-9.53829E-05 1.74463E-19-4.25319E-21
 -1       578 2.60586E-04-4.18889E-04 1.91592E-36-7.48135E-05 2.34671E-19-4.25717E-20
 -1       579 2.68589E-04-4.23546E-04 2.35276E-36-4.89147E-05 3.35932E-20 1.72110E-20
 -1       580 2.65987E-04-4.11195E-04 2.17140E-36-3.42500E-05-4.51310E-19 2.87473E-20
 -1       581 2.67571E-04-4.09042E-04 1.91244E-36-1.81318E-05 7.97553E-20 4.22445E-20
 -1       582 2.65685E-04-4.01640E-04 1.77625E-36-9.04522E-06 4.26633E-20-1.34395E-20
 -1       583 2.65364E-04-3.99088E-04 1.03526E-36-2.20739E-06 1.56389E-19 5.17509E-21
 -1       584 2.64975E-04-3.97756E-04 1.55641E-36-8.06056E-07 1.39215E-19 5.26371E-21
 -1       585-9.32096E-07 8.55470E-08 2.09354E-36 3.83977E-07 1.88123E-19 8.21015E-21
 -1       586-1.83902E-05 3.19178E-06 1.21095E-36-1.69016E-05-1.21546E-19-1.81735E-20
 -1       587-4.53784E-05 5.79942E-06 2.04034E-36-4.56977E-05 1.00447E-19-1.51075E-20
 -1       588-4.63319E-05-3.59740E-06 1.21842E-36-6.40363E-05 2.21914E-19-1.04934E-19
 -1       589-6.82717E-05-1.21953E-05 3.11257E-36-1.10041E-04 3.23049E-19-1.00056E-19
 -1       590-5.17944E-05-3.35918E-05 1.11960E-36-1.21376E-04-1.32941E-19 5.01221E-20
 -1       591-5.39245E-05-6.45565E-05 1.64836E-36-1.78570E-04 2.77269E-19-4.57698E-20
 -1       592-2.66559E-05-9.19134E-05 2.28985E-36-1.76237E-04 9.04885E-20 3.39792E-20
 -1       593 1.33477E-07-1.49267E-04 2.54873E-36-2.27762E-04 1.11489E-20-1.23976E-19
 -1       594 2.83591E-05-1.73047E-04 2.28507E-36-2.10485E-04 1.98493E-19 1.28811E-20
 -1       595 7.75576E-05-2.46362E-04 2.19663E-36-2.38999E-04-2.33919E-19-1.80430E-20
 -1       596 9.95127E-05-2.59512E-04 1.87444E-36-2.11672E-04 1.91644E-19-4.06990E-20
 -1       597 1.53628E-04-3.29831E-04 2.48548E-36-2.11497E-04-4.08001E-19 5.49890E-21
 -1       598 1.67178E-04-3.31334E-04 2.14893E-36-1.81327E-04-2.93437E-19-1.59585E-19
 -1       599 2.10768E-04-3.83770E-04 3.48918E-36-1.60393E-04 2.56257E-19 6.32346E-20
 -1       600 2.17349E-04-3.77310E-04 2.55980E-36-1.32685E-04 5.50888E-20-8.03732E-20
 -1       601 2.44659E-04-4.07824E-04 3.37005E-36-1.04167E-04 7.59042E-20-5.76303E-21
 -1       602 2.46805E-04-3.98240E-04 1.94045E-36-8.14266E-05-4.05924E-19 2.93633E-20
 -1       603 2.60127E-04-4.11233E-04 2.99585E-36-5.56870E-05 1.47854E-19 4.96589E-20
 -1       604 2.60128E-04-4.02332E-04 2.62233E-36-3.87870E-05 1.82947E-19-6.19921E-20
 -1       605 2.64806E-04-4.05280E-04 2.37002E-36-2.10684E-05 1.54937E-19-1.77086E-20
 -1       606 2.64191E-04-3.99264E-04 2.46539E-36-1.05947E-05 2.10210E-19-3.73313E-21
 -1       607 2.65180E-04-3.98945E-04 8.67218E-37-2.43865E-06 4.75765E-20 3.98270E-21
 -1       608 2.64837E-04-3.97512E-04 1.72398E-36-9.75456E-07 3.65095E-19-7.37454E-22
 -1       609-6.67102E-07 3.65099E-08 2.13635E-37-9.33997E-09-3.05105E-19 5.10993E-20
 -1       610-1.09502E-05 1.22604E-07 1.27370E-36-1.32207E-05 1.71161E-19-6.28416E-20
 -1       611-2.70454E-05-8.86851E-07 1.64881E-36-3.41109E-05 2.74475E-19-1.69642E-20
 -1       612-2.74053E-05-8.65546E-06 8.53796E-37-4.78979E-05 2.18818E-19-5.08454E-20
 -1       613-4.15031E-05-1.60905E-05 1.23936E-36-7.96296E-05-2.37601E-19-3.87552E-20
 -1       614-3.03807E-05-3.21463E-05 1.74628E-36-8.93728E-05-2.10553E-20-2.10972E-20
 -1       615-3.45309E-05-5.28396E-05 2.30066E-36-1.30377E-04-8.73266E-20-1.37668E-19
 -1       616-1.42418E-05-7.49786E-05 1.98676E-36-1.32044E-04 3.39026E-19-5.53318E-20
 -1       617-4.36252E-07-1.13896E-04 2.04215E-36-1.74100E-04 1.09496E-19 7.91659E-20
 -1       618 2.38748E-05-1.37382E-04 1.53880E-36-1.65178E-04-1.88850E-19-1.47613E-19
 -1       619 5.68214E-05-1.92431E-04 3.68616E-36-1.96318E-04-1.23753E-19-5.46148E-20
 -1       620 7.94651E-05-2.11649E-04 2.27922E-36-1.77576E-04 2.74683E-20-3.92960E-19
 -1       621 1.23432E-04-2.72558E-04 1.77881E-36-1.88764E-04 5.59247E-20 6.43695E-20
 -1       622 1.40777E-04-2.83853E-04 1.39774E-36-1.63999E-04-2.32084E-19-7.88540E-20
 -1       623 1.83145E-04-3.37396E-04 1.65113E-36-1.54982E-04 4.27157E-19 8.31826E-20
 -1       624 1.94386E-04-3.40620E-04 1.99146E-36-1.28958E-04 2.02692E-19 6.34078E-20
 -1       625 2.25855E-04-3.78139E-04 1.89431E-36-1.07543E-04-2.40051E-19-7.93844E-20
 -1       626 2.32077E-04-3.75859E-04 2.32882E-36-8.40715E-05-4.34362E-21-5.86516E-20
 -1       627 2.50352E-04-3.96427E-04 2.57168E-36-6.03548E-05 3.64016E-19-3.22104E-20
 -1       628 2.53282E-04-3.92038E-04 1.23289E-36-4.19049E-05-8.78753E-20-1.83437E-20
 -1       629 2.61358E-04-4.00352E-04 3.07068E-36-2.34455E-05-1.34601E-19-6.65462E-21
 -1       630 2.62394E-04-3.96466E-04 1.74494E-36-1.18916E-05 6.81704E-20-7.48930E-21
 -1       631 2.64864E-04-3.98608E-04 9.82363E-37-2.57279E-06 4.82306E-20 1.69885E-20
 -1       632 2.64689E-04-3.97245E-04 3.33080E-37-1.12831E-06 1.78243E-19 5.09565E-22
 -1       633-4.44442E-07-1.68964E-07 1.08512E-36-1.21195E-07-1.34708E-19 5.32931E-22
 -1       634-6.15092E-06-1.88473E-06 1.28769E-36-1.04453E-05 1.67208E-19 2.22063E-20
 -1       635-1.54123E-05-5.09303E-06 8.30652E-37-2.62189E-05 9.70745E-20-4.83704E-20
 -1       636-1.47457E-05-1.23290E-05 9.86475E-37-3.66218E-05 4.74099E-21 1.48578E-19
 -1       637-2.30856E-05-1.96476E-05 1.74948E-36-5.94419E-05 1.14687E-19 2.46731E-21
 -1       638-1.47006E-05-3.26896E-05 8.45639E-37-6.71767E-05-9.92838E-20 3.13949E-20
 -1       639-1.77658E-05-4.83657E-05 2.33021E-36-9.70983E-05 3.43656E-19-4.19687E-20
 -1       640-2.26847E-06-6.65497E-05 1.58227E-36-9.97207E-05-6.92533E-20-3.68803E-21
 -1       641 5.54740E-06-9.46375E-05 1.66705E-36-1.32788E-04-2.80073E-19-1.73376E-19
 -1       642 2.57583E-05-1.15852E-04 1.01141E-36-1.28160E-04-3.92288E-19-1.58370E-19
 -1       643 4.77620E-05-1.57333E-04 1.51432E-36-1.57071E-04-1.35176E-19-3.26020E-20
 -1       644 6.90429E-05-1.78190E-04 1.48466E-36-1.44426E-04-5.65685E-19-1.27194E-20
 -1       645 1.03031E-04-2.28708E-04 1.65467E-36-1.61116E-04 1.73284E-19-1.84606E-19
 -1       646 1.21915E-04-2.45648E-04 1.54201E-36-1.41747E-04 1.00332E-19 1.12509E-19
 -1       647 1.60053E-04-2.96122E-04 1.02064E-36-1.41994E-04 6.95484E-20 1.54017E-20
 -1       648 1.74541E-04-3.07008E-04 1.61188E-36-1.18983E-04 1.97253E-19-1.10019E-19
 -1       649 2.07572E-04-3.48039E-04 2.30398E-36-1.05282E-04 1.99315E-19-1.02266E-19
 -1       650 2.17389E-04-3.52994E-04 2.17029E-36-8.24097E-05-2.27452E-19 6.69088E-20
 -1       651 2.39742E-04-3.79734E-04 2.32562E-36-6.23392E-05 6.57718E-20-1.56326E-19
 -1       652 2.45699E-04-3.80652E-04 2.09159E-36-4.31363E-05-1.11863E-19 9.75832E-20
 -1       653 2.57291E-04-3.94245E-04 2.73807E-36-2.50243E-05 1.22509E-19-5.93274E-20
 -1       654 2.60304E-04-3.93305E-04 1.99783E-36-1.27467E-05-9.10854E-20 1.15631E-21
 -1       655 2.64400E-04-3.98012E-04 1.06843E-36-2.62484E-06-1.93132E-19-5.90578E-21
 -1       656 2.64531E-04-3.96967E-04 1.47642E-36-1.23570E-06-2.19785E-19-7.71271E-21
 -1       657-3.02305E-07-2.45532E-07 6.79956E-37-1.82841E-07-5.16264E-20-1.86404E-19
 -1       658-2.93923E-06-3.24178E-06 2.86082E-37-8.21831E-06-6.21488E-20 1.65125E-19
 -1       659-7.75758E-06-7.87581E-06 7.95600E-37-2.03084E-05-8.34277E-20 9.04480E-20
 -1       660-6.08670E-06-1.50028E-05 1.07716E-36-2.81625E-05 3.30023E-20-8.69210E-21
 -1       661-1.03293E-05-2.24325E-05 6.67295E-37-4.50252E-05-2.15648E-20-1.08398E-19
 -1       662-3.34497E-06-3.38003E-05 1.13496E-36-5.08294E-05 2.83878E-20 4.64428E-20
 -1       663-4.53671E-06-4.68846E-05 1.49091E-36-7.30632E-05 2.76822E-20-1.92060E-19
 -1       664 7.81510E-06-6.23886E-05 8.36190E-37-7.53494E-05-1.30252E-20-3.67247E-20
 -1       665 1.33222E-05-8.41116E-05 9.12232E-37-1.01054E-04-6.39729E-20-9.44160E-20
 -1       666 3.00777E-05-1.02934E-04 5.19161E-37-9.82674E-05 1.23450E-19-3.81107E-20
 -1       667 4.54896E-05-1.35068E-04 1.20998E-36-1.23227E-04 9.80842E-20 7.60454E-20
 -1       668 6.46347E-05-1.55489E-04 1.87327E-36-1.14299E-04 9.24834E-20 2.33346E-20
 -1       669 9.05328E-05-1.96850E-04 1.87548E-36-1.32567E-04-3.65750E-20 1.40523E-19
 -1       670 1.09474E-04-2.16401E-04 1.12752E-36-1.17533E-04-1.62034E-19-2.68517E-20
 -1       671 1.42146E-04-2.61789E-04 1.82525E-36-1.23946E-04-9.21551E-20 2.61987E-20
 -1       672 1.58610E-04-2.77986E-04 1.78954E-36-1.04339E-04-8.86393E-20-4.82746E-20
 -1       673 1.90954E-04-3.19594E-04 2.25088E-36-9.77720E-05 5.74325E-20-4.58960E-20
 -1       674 2.03714E-04-3.30957E-04 3.04270E-36-7.65227E-05-2.36526E-20 8.22343E-20
 -1       675 2.28891E-04-3.62105E-04 1.73167E-36-6.11984E-05 1.86780E-19-3.76072E-20
 -1       676 2.37772E-04-3.68678E-04 2.02275E-36-4.21086E-05 2.38693E-19 6.81592E-20
 -1       677 2.52765E-04-3.87119E-04 1.52473E-36-2.55348E-05-8.72971E-20-1.43371E-19
 -1       678 2.57956E-04-3.89867E-04 1.75586E-36-1.29512E-05 1.56719E-19-7.74656E-20
 -1       679 2.63812E-04-3.97137E-04 5.94553E-37-2.62116E-06 4.26613E-20 2.29004E-20
 -1       680 2.64356E-04-3.96688E-04 1.43378E-36-1.26318E-06-2.14227E-20 2.24734E-21
 -1       681-1.98144E-07-3.13934E-07 7.88084E-37-1.96031E-07 5.17647E-20-3.92732E-19
 -1       682-7.46293E-07-4.17739E-06 5.29334E-37-6.33681E-06 5.64824E-20-1.71206E-20
 -1       683-2.59103E-06-9.75958E-06 7.69880E-37-1.56197E-05-1.48690E-20 1.27337E-19
 -1       684-7.06717E-08-1.69597E-05 6.96453E-37-2.13853E-05-1.16503E-19-2.88359E-19
 -1       685-1.44373E-06-2.45170E-05 8.91534E-37-3.40261E-05 6.45654E-20-1.04967E-19
 -1       686 4.82656E-06-3.49530E-05 9.28119E-37-3.80470E-05-1.06823E-19 1.01255E-19
 -1       687 5.46283E-06-4.66003E-05 6.57284E-37-5.48071E-05 1.47470E-20-5.38637E-20
 -1       688 1.57758E-05-6.03874E-05 9.02730E-37-5.61756E-05 9.12123E-20 8.94081E-20
 -1       689 2.07315E-05-7.82771E-05 1.25242E-36-7.61370E-05-1.20685E-19-1.15668E-19
 -1       690 3.48318E-05-9.51936E-05 1.03188E-36-7.37914E-05-2.22191E-19-1.64660E-19
 -1       691 4.66179E-05-1.21075E-04 1.47229E-36-9.45935E-05-2.69285E-19 3.12280E-20
 -1       692 6.35613E-05-1.40404E-04 1.36088E-36-8.75929E-05 1.78994E-19 1.63062E-19
 -1       693 8.36687E-05-1.74533E-04 1.72523E-36-1.05252E-04-6.30953E-20-7.03526E-20
 -1       694 1.01841E-04-1.94905E-04 1.48590E-36-9.31877E-05 1.23420E-19 5.11943E-21
 -1       695 1.29176E-04-2.34794E-04 1.77734E-36-1.03108E-04-2.86605E-20-8.75505E-20
 -1       696 1.46636E-04-2.54268E-04 1.33487E-36-8.65695E-05-1.23771E-19 5.78243E-20
 -1       697 1.76768E-04-2.94427E-04 1.89636E-36-8.58667E-05-1.16058E-19 1.72733E-19
 -1       698 1.91834E-04-3.10960E-04 1.32548E-36-6.68178E-05 1.55943E-20-1.18711E-19
 -1       699 2.18419E-04-3.44688E-04 2.53662E-36-5.67093E-05 2.94753E-20 1.56645E-20
 -1       700 2.30012E-04-3.56788E-04 2.08018E-36-3.85941E-05 8.61618E-20 1.62770E-20
 -1       701 2.48018E-04-3.79338E-04 2.09427E-36-2.46860E-05 9.34354E-20 4.70118E-20
 -1       702 2.55429E-04-3.86279E-04 1.97447E-36-1.23137E-05 3.03806E-20-1.40219E-20
 -1       703 2.63176E-04-3.96031E-04 9.68353E-37-2.57361E-06 1.14175E-19 6.24583E-21
 -1       704 2.64144E-04-3.96407E-04 1.01171E-36-1.18254E-06 2.41042E-19-4.07535E-21
 -1       705-1.17795E-07-3.73574E-07 3.37893E-37-1.88959E-07-2.03689E-20 2.61307E-19
 -1       706 7.56927E-07-4.82210E-06 3.96125E-37-4.66884E-06 2.23349E-21 1.20901E-19
 -1       707 9.35005E-07-1.10576E-05 4.48457E-37-1.16815E-05-2.36256E-20-5.65622E-20
 -1       708 4.11903E-06-1.84008E-05 7.02396E-37-1.56145E-05 6.74709E-21 8.93150E-20
 -1       709 4.74587E-06-2.60379E-05 1.01999E-36-2.51070E-05 7.66990E-20 3.19818E-20
 -1       710 1.06298E-05-3.59703E-05 8.14507E-37-2.74336E-05 2.20210E-20-3.69705E-19
 -1       711 1.28083E-05-4.67602E-05 5.87435E-37-4.01677E-05-8.96217E-20-3.02100E-19
 -1       712 2.17728E-05-5.94953E-05 7.24115E-37-4.03108E-05 2.88281E-20 8.77703E-20
 -1       713 2.69502E-05-7.49960E-05 8.52409E-37-5.58506E-05 1.30335E-19-1.84810E-19
 -1       714 3.90851E-05-9.05942E-05 8.61281E-37-5.31072E-05 9.97222E-20 1.90147E-19
 -1       715 4.90753E-05-1.12306E-04 8.98745E-37-7.01609E-05-1.30492E-20-3.56010E-21
 -1       716 6.40776E-05-1.30597E-04 9.26192E-37-6.38314E-05-4.24405E-21-4.02559E-20
 -1       717 8.04202E-05-1.59327E-04 1.05403E-36-7.98877E-05-2.11068E-20 1.07080E-19
 -1       718 9.74816E-05-1.79735E-04 1.25553E-36-6.95292E-05 9.00535E-20 1.42311E-19
 -1       719 1.20390E-04-2.14605E-04 1.14931E-36-8.10637E-05-7.40578E-20-6.57429E-20
 -1       720 1.38176E-04-2.35959E-04 1.53087E-36-6.68684E-05 1.81037E-20-1.26485E-19
 -1       721 1.65403E-04-2.73563E-04 2.11108E-36-7.05891E-05 4.42294E-20-1.67527E-19
 -1       722 1.82234E-04-2.94004E-04 1.27165E-36-5.38642E-05 1.70582E-19 1.76161E-19
 -1       723 2.08914E-04-3.28663E-04 1.19246E-36-4.89108E-05-4.86388E-20-2.71361E-20
 -1       724 2.23001E-04-3.45799E-04 1.95061E-36-3.25206E-05-1.35412E-19-7.48840E-20
 -1       725 2.43343E-04-3.71446E-04 2.06578E-36-2.22104E-05 3.67926E-21 9.49388E-20
 -1       726 2.52875E-04-3.82740E-04 1.98471E-36-1.07007E-05 3.08510E-20-2.73747E-20
 -1       727 2.62602E-04-3.94821E-04 9.78675E-37-2.44696E-06 8.76879E-20-2.63853E-20
 -1       728 2.63875E-04-3.96124E-04 4.92834E-37-9.87901E-07-1.37209E-19-1.83783E-20
 -1       729-4.92069E-08-4.39975E-07 4.92757E-37-1.64846E-07-1.63099E-20-3.07826E-19
 -1       730 1.75844E-06-5.24817E-06 2.74002E-37-3.11863E-06 9.52304E-21-1.87493E-19
 -1       731 3.31881E-06-1.19528E-05 7.02860E-37-8.19646E-06 7.66759E-21 2.25195E-19
 -1       732 6.96656E-06-1.94523E-05 3.60258E-37-1.03917E-05 6.47668E-21-2.23950E-19
 -1       733 8.98187E-06-2.71214E-05 5.78811E-37-1.74364E-05 3.36043E-20-1.36384E-19
 -1       734 1.45969E-05-3.67961E-05 3.23896E-37-1.80600E-05-5.05130E-21 2.11989E-19
 -1       735 1.80161E-05-4.70467E-05 5.59041E-37-2.77424E-05-2.82753E-20-2.09112E-19
 -1       736 2.60251E-05-5.91799E-05 6.09389E-37-2.64109E-05 1.64270E-20-1.54458E-19
 -1       737 3.17397E-05-7.31496E-05 4.17154E-37-3.85488E-05 7.98523E-20 6.08969E-20
 -1       738 4.24179E-05-8.79579E-05 7.71829E-37-3.48163E-05-3.63184E-20 8.12300E-20
 -1       739 5.16946E-05-1.06873E-04 7.35864E-37-4.87292E-05 1.44550E-20 3.13151E-19
 -1       740 6.51195E-05-1.24489E-04 8.61540E-37-4.21470E-05-7.88089E-20 3.66425E-19
 -1       741 7.92457E-05-1.49296E-04 1.58780E-36-5.63304E-05-2.61069E-21-2.90949E-19
 -1       742 9.51887E-05-1.69639E-04 1.00788E-36-4.66161E-05-3.89347E-20-2.33768E-19
 -1       743 1.14854E-04-2.00315E-04 1.16400E-36-5.86184E-05 1.03733E-19 9.73839E-20
 -1       744 1.32606E-04-2.22858E-04 1.46888E-36-4.59384E-05-1.10286E-20 6.57552E-20
 -1       745 1.56954E-04-2.57503E-04 1.22095E-36-5.28299E-05 1.21845E-20 7.20584E-20
 -1       746 1.75136E-04-2.80876E-04 1.46316E-36-3.82306E-05-1.10110E-19 2.14886E-20
 -1       747 2.00924E-04-3.15128E-04 1.60771E-36-3.80688E-05 2.10212E-19 2.03016E-19
 -1       748 2.17314E-04-3.36633E-04 1.86145E-36-2.39538E-05-5.34050E-20-5.78176E-20
 -1       749 2.39079E-04-3.64144E-04 2.23035E-36-1.79445E-05 7.60318E-20 1.15203E-19
 -1       750 2.50551E-04-3.79559E-04 1.94268E-36-8.06823E-06 5.76110E-21-1.13855E-21
 -1       751 2.62189E-04-3.93682E-04 1.27912E-36-2.14515E-06 1.22798E-19-1.01365E-20
 -1       752 2.63565E-04-3.95850E-04 6.07441E-37-7.04258E-07 5.36559E-20 1.61089E-21
 -1       753 1.25962E-09-5.21888E-07 3.21956E-37-1.22774E-07-1.50413E-21-4.80394E-19
 -1       754 2.35499E-06-5.47887E-06 1.88456E-37-1.59721E-06-8.53141E-22-1.16074E-19
 -1       755 4.85191E-06-1.25539E-05 6.37344E-37-4.93861E-06 1.41176E-20 5.62131E-20
 -1       756 8.72816E-06-2.01965E-05 5.84950E-37-5.34724E-06-6.98977E-21 1.86341E-19
 -1       757 1.17118E-05-2.78584E-05 7.99923E-37-1.04277E-05-1.45020E-20 1.99937E-19
 -1       758 1.70211E-05-3.74262E-05 4.75290E-37-9.21228E-06-2.55644E-21 3.66193E-20
 -1       759 2.14509E-05-4.73308E-05 4.73658E-37-1.65256E-05-2.24248E-21 2.30448E-19
 -1       760 2.86644E-05-5.91788E-05 5.09426E-37-1.34051E-05 2.29636E-21-1.26602E-19
 -1       761 3.50685E-05-7.21653E-05 9.39677E-37-2.29369E-05 2.28423E-20 2.19207E-19
 -1       762 4.46074E-05-8.66426E-05 4.53184E-37-1.76565E-05 3.49456E-20-1.03213E-19
 -1       763 5.38443E-05-1.03685E-04 3.94544E-37-2.90863E-05 8.09490E-21 6.21466E-20
 -1       764 6.60429E-05-1.21126E-04 6.60903E-37-2.14464E-05 4.58835E-20 6.55074E-20
 -1       765 7.90862E-05-1.43122E-04 8.83798E-37-3.39316E-05 6.28046E-20-1.76539E-19
 -1       766 9.41238E-05-1.63754E-04 7.35483E-37-2.39246E-05-2.14490E-20-1.88105E-19
 -1       767 1.11709E-04-1.91067E-04 8.76660E-37-3.58957E-05-8.71276E-20-6.56954E-20
 -1       768 1.29382E-04-2.14774E-04 5.55606E-37-2.39264E-05 5.77018E-20-7.20227E-20
 -1       769 1.51345E-04-2.46448E-04 6.83290E-37-3.31331E-05-3.14918E-20 5.71029E-20
 -1       770 1.70643E-04-2.72264E-04 1.22636E-36-2.03350E-05 2.70906E-21-1.25042E-20
 -1       771 1.94990E-04-3.05080E-04 1.75467E-36-2.45567E-05-4.58559E-20 2.36475E-20
 -1       772 2.13475E-04-3.30267E-04 1.44124E-36-1.30785E-05 1.26515E-20 1.45632E-20
 -1       773 2.35652E-04-3.58267E-04 1.75636E-36-1.19046E-05 3.17981E-21 1.68056E-19
 -1       774 2.48819E-04-3.77179E-04 1.89059E-36-4.47672E-06-5.96038E-21 1.98573E-20
 -1       775 2.61974E-04-3.92790E-04 1.19883E-36-1.54576E-06-7.69949E-20-6.39614E-21
 -1       776 2.63284E-04-3.95637E-04 8.03621E-38-3.72140E-07-2.72978E-20 2.76227E-20
 -1       777 6.59261E-08-6.40879E-07 2.76591E-37-5.44528E-08 5.38489E-22 1.20873E-19
 -1       778 2.56224E-06-5.54240E-06 2.76260E-37-5.90062E-08 2.80225E-22 3.24126E-19
 -1       779 5.67259E-06-1.29601E-05 2.18743E-37-1.67562E-06-1.55871E-22 1.87467E-20
 -1       780 9.38315E-06-2.05083E-05 4.75107E-37 1.00847E-07 2.65835E-21-2.64725E-19
 -1       781 1.31633E-05-2.83255E-05 8.49922E-37-3.51363E-06 6.44583E-21-2.72163E-19
 -1       782 1.79141E-05-3.77073E-05 5.09809E-37-4.52420E-08-3.02485E-22-3.09837E-19
 -1       783 2.33048E-05-4.75904E-05 6.54065E-37-5.55288E-06-1.15093E-20-1.57706E-19
 -1       784 2.96341E-05-5.92380E-05 7.51780E-37-8.51135E-08-2.12591E-21 2.45120E-19
 -1       785 3.69359E-05-7.18133E-05 4.12113E-37-7.69939E-06 9.70389E-22-1.74108E-20
 -1       786 4.54294E-05-8.62407E-05 5.33072E-37-9.13200E-08-1.57766E-21 2.71636E-19
 -1       787 5.51901E-05-1.02242E-04 5.52292E-37-9.77443E-06 8.08398E-21-1.75055E-20
 -1       788 6.64298E-05-1.19995E-04 2.10154E-37-8.90634E-08 4.68826E-21-1.50934E-19
 -1       789 7.93083E-05-1.40152E-04 5.00124E-37-1.14509E-05 6.48578E-21 3.94262E-19
 -1       790 9.38018E-05-1.61693E-04 3.85968E-37-8.49907E-08-8.76253E-21 3.19652E-20
 -1       791 1.10359E-04-1.86426E-04 7.77255E-37-1.22141E-05 2.39120E-21-1.43900E-19
 -1       792 1.28251E-04-2.11846E-04 1.06367E-36-7.93098E-08-1.19702E-20-2.55207E-19
 -1       793 1.48526E-04-2.40652E-04 8.55852E-37-1.14174E-05 9.68520E-21-8.86240E-20
 -1       794 1.68986E-04-2.69029E-04 9.75431E-37-6.16619E-08 1.17812E-20 1.28718E-20
 -1       795 1.91713E-04-2.99518E-04 1.50801E-36-8.59168E-06-2.53344E-20-9.37124E-20
 -1       796 2.12013E-04-3.27793E-04 1.58227E-36-1.69078E-08 7.36180E-21 7.98777E-20
 -1       797 2.33636E-04-3.54812E-04 1.77187E-36-4.23053E-06-7.41913E-21 3.23405E-20
 -1       798 2.48121E-04-3.76192E-04 1.93091E-36 1.64002E-07 4.27138E-21 7.46716E-20
 -1       799 2.61907E-04-3.92285E-04 1.25263E-36-5.77098E-07-2.44454E-20-5.00480E-20
 -1       800 2.63160E-04-3.95563E-04 2.06297E-37 1.19431E-08-4.76157E-20-2.48890E-20
 -1       801 9.37614E-07-4.18293E-07 1.12835E-34 8.31940E-08 8.59524E-18-1.19298E-18
 -1       802-1.57649E-06 6.38241E-07 3.33172E-34 1.40321E-06-4.35784E-18 2.10266E-19
 -1       803-9.75663E-07 8.27087E-08 2.95815E-34 8.68480E-07 5.50457E-18 1.64300E-18
 -1       804 1.13310E-06-2.89546E-07 8.24793E-34-1.10894E-06 1.11532E-17 8.79105E-19
 -1       805-3.67353E-06 1.00403E-06 3.48614E-34 4.80852E-06-8.18410E-18 8.65947E-19
 -1       806-1.61557E-06-6.06123E-07 3.31507E-34 2.53788E-06 1.17242E-18 3.31201E-19
 -1       807 5.99622E-07 6.59502E-07 2.03667E-34-1.54635E-06 2.46404E-18-2.43238E-18
 -1       808-4.17473E-06-9.09362E-08 4.75025E-34 8.83103E-06-3.45730E-18-3.78302E-19
 -1       809-1.24829E-06-2.30397E-06 6.79242E-34 4.83717E-06-1.01104E-17-1.03424E-18
 -1       810 7.61825E-07 8.69705E-07 4.93708E-34-1.04691E-06-1.79792E-17 1.25789E-18
 -1       811-3.21674E-06-2.60216E-06 8.22329E-34 1.32254E-05 1.11854E-17-7.80285E-19
 -1       812 2.46727E-08-5.08839E-06 2.47041E-34 7.46646E-06 1.39215E-17-3.03534E-19
 -1       813 1.39261E-06-3.21998E-07 4.26647E-34-3.34752E-07-1.29700E-17-8.86881E-19
 -1       814-1.04244E-06-6.38621E-06 8.51782E-34 1.76351E-05 1.61896E-17-2.66877E-20
 -1       815 2.14724E-06-9.08147E-06 5.33531E-34 1.00200E-05-5.43289E-18-6.15911E-19
 -1       816 2.64601E-06-3.43726E-06 8.86041E-34 3.61987E-07-2.27424E-17 1.25681E-19
 -1       817 2.14551E-06-1.13475E-05 4.58324E-34 2.15064E-05-7.82337E-19 9.38224E-20
 -1       818 5.06352E-06-1.43516E-05 4.51400E-34 1.20667E-05 1.94088E-18 1.16935E-19
 -1       819 4.62864E-06-8.72507E-06 4.59026E-34 9.20947E-07 2.24182E-18-1.48725E-19
 -1       820 6.18000E-06-1.73955E-05 5.63028E-35 2.41424E-05-1.78253E-18-9.21896E-21
 -1       821 8.66710E-06-2.08120E-05 7.53051E-34 1.31490E-05 1.09340E-17-1.02665E-19
 -1       822 7.33924E-06-1.61085E-05 7.10778E-34 1.26878E-06 1.46372E-17 6.13183E-20
 -1       823 1.08812E-05-2.43664E-05 2.73240E-34 2.47616E-05 1.00996E-18 2.10663E-20
 -1       824 1.27358E-05-2.81138E-05 3.19297E-34 1.27904E-05-9.23612E-18-1.09572E-19
 -1       825 1.06124E-05-2.50777E-05 2.23215E-34 1.34432E-06 1.84917E-18-4.12515E-19
 -1       826 1.59583E-05-3.19183E-05 1.53081E-33 2.26030E-05-1.04670E-17 1.10458E-19
 -1       827 1.68439E-05-3.55592E-05 1.13481E-33 1.05493E-05 8.74643E-18-6.87324E-19
 -1       828 1.40679E-05-3.45196E-05 4.86817E-34 1.05886E-06 3.99502E-18-2.96735E-19
 -1       829 2.07961E-05-3.93794E-05 1.94579E-34 1.72246E-05-6.78951E-18 6.86957E-19
 -1       830 2.01660E-05-4.20515E-05 2.82277E-34 6.31602E-06 2.26516E-19-4.13714E-19
 -1       831 1.70138E-05-4.24706E-05 6.62375E-34 3.07846E-07 3.11388E-18 6.64342E-20
 -1       832 2.36138E-05-4.50976E-05 1.22318E-33 9.01090E-06-8.83774E-18-4.16522E-19
 -1       833 2.08547E-05-4.55553E-05 1.17112E-33 1.34016E-06 7.60623E-18 5.71681E-20
 -1       834 1.88722E-05-4.62651E-05 4.53091E-34-1.03535E-06-3.57254E-18 2.79505E-19
 -1       835 2.16186E-05-4.62505E-05 2.50391E-34 2.07360E-06-3.87816E-18 3.12282E-19
 -1       836 1.85338E-05-4.50996E-05 7.75010E-35 5.69051E-10-4.42389E-18-6.28221E-20
 -1       837 1.85834E-05-4.54424E-05 3.71082E-34-1.31193E-06 9.76129E-18-3.72702E-19
 -1       838-7.81725E-06 3.44910E-06 2.96575E-34-1.37183E-08 1.14355E-17-6.36954E-19
 -1       839-1.74557E-05 7.48308E-06 2.68244E-34 4.17859E-06-5.85958E-18-1.57823E-18
 -1       840-1.05092E-05 4.20139E-06 5.39455E-34 5.46619E-06-6.57348E-18 2.48694E-19
 -1       841-1.86632E-05 7.49400E-06 4.51477E-34 1.19015E-05 6.25426E-18 1.88860E-18
 -1       842-1.14642E-05 3.56601E-06 4.77743E-34 1.11103E-05-7.70292E-18-2.61156E-19
 -1       843-1.81761E-05 6.01380E-06 3.66844E-35 1.93961E-05 5.99957E-19 5.75076E-19
 -1       844-1.07275E-05 1.51456E-06 1.58192E-34 1.68328E-05-3.22298E-19 1.72124E-18
 -1       845-1.58165E-05 2.95500E-06 2.67157E-35 2.65826E-05 3.63091E-19-8.98097E-19
 -1       846-8.32982E-06-1.94824E-06 6.16046E-34 2.24131E-05 9.89995E-18-1.20516E-19
 -1       847-1.15385E-05-1.68585E-06 1.41117E-34 3.31458E-05-2.99490E-18 1.22584E-19
 -1       848-4.36638E-06-6.79653E-06 3.80372E-34 2.74674E-05-4.82699E-18-2.99877E-19
 -1       849-5.38164E-06-7.88698E-06 6.25526E-34 3.85961E-05 3.93757E-18-2.23147E-19
 -1       850 1.01975E-06-1.29584E-05 6.07700E-34 3.14217E-05-7.71556E-18 1.35468E-20
 -1       851 2.50251E-06-1.55576E-05 8.80848E-35 4.22429E-05-9.28740E-19 4.12205E-20
 -1       852 7.62050E-06-2.03039E-05-1.41441E-35 3.35236E-05-6.75038E-19-9.21600E-20
 -1       853 1.17947E-05-2.44844E-05 2.51188E-34 4.32006E-05-3.91208E-18 1.04426E-19
 -1       854 1.50853E-05-2.85827E-05 7.89567E-34 3.29044E-05 9.01534E-18 1.81219E-19
 -1       855 2.18553E-05-3.42059E-05 2.57141E-34 4.04509E-05-5.39702E-18 8.27394E-19
 -1       856 2.27254E-05-3.72686E-05 1.06174E-34 2.87197E-05-5.38296E-19 5.57120E-19
 -1       857 3.13853E-05-4.37661E-05 1.13040E-34 3.29797E-05 4.68432E-18 1.22915E-18
 -1       858 2.90289E-05-4.52842E-05 1.35217E-33 2.04244E-05 1.77414E-17-1.27643E-18
 -1       859 3.76879E-05-5.11001E-05 3.44675E-34 1.99490E-05 2.60727E-18-3.35180E-19
 -1       860 3.06361E-05-4.98506E-05 5.04836E-34 8.04877E-06-4.78438E-18-3.54882E-19
 -1       861 3.73317E-05-5.30406E-05 3.76874E-34 6.00633E-06 3.21662E-18 5.76909E-19
 -1       862 2.71540E-05-4.90152E-05 5.79407E-35 3.11399E-08-1.40341E-18 1.49547E-18
 -1       863-2.93170E-05 1.25926E-05 1.34918E-34-1.07535E-07 6.99991E-18-4.95599E-20
 -1       864-4.22389E-05 1.80923E-05 3.77606E-34 6.04282E-06-5.78717E-18 1.25488E-19
 -1       865-3.00086E-05 1.26077E-05 3.13945E-34 9.35283E-06 1.33771E-17-2.22128E-19
 -1       866-4.07876E-05 1.70332E-05 1.74349E-34 1.71732E-05-3.28084E-18-9.03949E-19
 -1       867-2.90510E-05 1.13062E-05 5.32068E-34 1.86330E-05-1.12953E-17-6.21120E-19
 -1       868-3.75308E-05 1.44969E-05 3.81224E-34 2.78399E-05 7.31544E-18 9.14220E-19
 -1       869-2.62357E-05 8.55567E-06 3.03671E-34 2.75683E-05-5.42903E-18 5.21091E-19
 -1       870-3.22073E-05 1.03474E-05 2.48764E-34 3.78872E-05 4.23418E-18 1.14292E-18
 -1       871-2.13833E-05 4.19226E-06 1.54171E-34 3.58491E-05-2.37486E-18 3.87035E-19
 -1       872-2.46030E-05 4.44278E-06 3.99877E-34 4.68972E-05 8.78368E-18 3.16777E-19
 -1       873-1.43946E-05-1.88024E-06 3.71446E-34 4.30561E-05 6.23802E-18 3.36177E-19
 -1       874-1.45785E-05-3.32429E-06 2.69555E-34 5.43007E-05 9.58501E-19-1.97282E-19
 -1       875-5.27239E-06-9.67520E-06 1.56354E-34 4.85762E-05-3.86147E-18-5.80724E-20
 -1       876-2.13826E-06-1.29606E-05 3.40586E-34 5.93011E-05-1.08386E-17-1.67941E-19
 -1       877 5.81792E-06-1.90892E-05 1.24904E-34 5.15675E-05-6.00069E-18-2.73620E-20
 -1       878 1.24576E-05-2.42855E-05 3.35188E-34 6.08262E-05 4.03505E-18 2.15108E-19
 -1       879 1.84248E-05-2.98135E-05 3.97214E-34 5.09531E-05 2.15465E-18-1.06033E-19
 -1       880 2.84886E-05-3.67704E-05 9.98370E-34 5.75054E-05 6.34542E-19 3.64320E-19
 -1       881 3.15640E-05-4.11467E-05 3.90821E-34 4.54641E-05 4.19296E-18 7.29006E-20
 -1       882 4.44166E-05-4.92584E-05 3.79856E-34 4.76773E-05-9.05621E-18-1.07125E-18
 -1       883 4.32412E-05-5.16299E-05 3.40860E-34 3.37207E-05-5.99261E-18-1.56177E-18
 -1       884 5.73482E-05-5.95134E-05 3.60014E-34 2.94416E-05-6.95288E-18-2.29735E-19
 -1       885 4.96838E-05-5.80882E-05 3.89501E-34 1.40944E-05-3.53909E-18 1.38354E-18
 -1       886 6.21907E-05-6.36810E-05 3.53557E-34 8.98391E-06 2.79483E-18 1.08002E-19
 -1       887 4.89328E-05-5.82480E-05 4.49929E-34-4.66220E-08 2.89601E-18-2.03615E-18
 -1       888-5.81220E-05 2.49531E-05 1.32839E-34-9.23319E-08 2.93444E-18 1.42206E-19
 -1       889-7.20976E-05 3.08827E-05 1.57999E-34 7.45365E-06-3.01992E-18-2.62121E-20
 -1       890-5.58924E-05 2.37430E-05 2.63180E-34 1.24436E-05 2.72786E-18-7.60873E-20
 -1       891-6.74068E-05 2.84907E-05 1.58385E-34 2.13058E-05-2.97537E-18-1.39583E-18
 -1       892-5.19378E-05 2.12641E-05 1.09563E-34 2.47408E-05-2.40996E-19 2.33144E-19
 -1       893-6.07601E-05 2.46385E-05 4.04472E-34 3.46652E-05-8.68059E-18 9.75018E-19
 -1       894-4.59569E-05 1.73150E-05 4.37914E-34 3.65394E-05 7.30006E-18-2.34905E-19
 -1       895-5.18220E-05 1.91364E-05 2.08565E-34 4.73111E-05-1.93320E-18 2.14672E-19
 -1       896-3.76559E-05 1.16520E-05 6.41245E-35 4.74452E-05-1.66237E-18-2.45923E-19
 -1       897-4.02464E-05 1.17350E-05-1.27982E-35 5.87432E-05-4.25355E-18-1.83488E-19
 -1       898-2.67757E-05 4.06886E-06 4.81301E-34 5.69417E-05 3.68297E-18 1.62828E-19
 -1       899-2.57239E-05 2.20396E-06 7.66390E-35 6.82716E-05 3.13136E-18 1.68736E-19
 -1       900-1.31460E-05-5.57245E-06 1.55867E-34 6.42892E-05-4.60327E-18 1.95242E-19
 -1       901-8.07132E-06-9.59116E-06 4.33843E-34 7.49115E-05 5.82229E-20-4.09210E-20
 -1       902 3.21315E-06-1.72702E-05 5.54612E-34 6.84579E-05 1.18429E-17-1.14930E-19
 -1       903 1.26157E-05-2.35689E-05 1.74320E-34 7.73000E-05-4.43399E-18-1.93951E-19
 -1       904 2.19182E-05-3.07523E-05 2.38224E-34 6.80635E-05-9.43854E-18 1.22244E-19
 -1       905 3.57127E-05-3.92388E-05 2.16547E-34 7.36205E-05 5.82903E-19-4.45481E-20
 -1       906 4.19313E-05-4.52550E-05 3.91541E-34 6.13285E-05 1.06025E-18 6.88484E-19
 -1       907 5.96746E-05-5.53985E-05 7.35687E-35 6.15535E-05 5.67837E-18 4.25765E-19
 -1       908 6.10999E-05-5.91640E-05 1.90117E-34 4.60790E-05 1.44001E-18 5.77692E-20
 -1       909 8.14568E-05-6.96799E-05 4.56672E-34 3.82970E-05-4.50367E-18 8.58797E-20
 -1       910 7.54923E-05-6.91584E-05 4.44996E-34 1.94973E-05-6.31533E-18 1.75435E-18
 -1       911 9.33396E-05-7.70038E-05 5.14348E-34 1.17010E-05 3.61346E-18 1.15407E-18
 -1       912 7.90988E-05-7.12190E-05-7.54695E-35-5.90911E-09 4.76370E-18-2.43825E-18
 -1       913-9.09057E-05 3.89933E-05 4.33822E-34-7.49772E-08-3.31072E-18 1.39064E-18
 -1       914-1.04488E-04 4.47639E-05 2.28619E-34 8.46921E-06 7.26534E-18 6.16625E-19
 -1       915-8.54228E-05 3.64417E-05 5.35524E-34 1.48780E-05 6.49135E-18 5.44675E-19
 -1       916-9.64568E-05 4.10167E-05 5.46679E-34 2.44217E-05-5.55864E-18-2.86177E-19
 -1       917-7.81224E-05 3.26576E-05 3.38845E-34 2.96265E-05 6.11744E-18 1.24039E-18
 -1       918-8.63456E-05 3.58547E-05 1.25645E-34 4.00075E-05 1.84538E-18-1.00109E-18
 -1       919-6.86180E-05 2.73862E-05 1.14352E-34 4.38895E-05-2.46854E-18 5.02292E-19
 -1       920-7.37009E-05 2.89946E-05 3.52128E-34 5.49705E-05 3.21691E-18 3.14776E-19
 -1       921-5.64883E-05 2.03005E-05 5.87705E-35 5.72302E-05-2.25010E-19-2.53182E-19
 -1       922-5.79952E-05 2.00534E-05 1.73246E-34 6.87476E-05 8.67653E-18 3.28276E-19
 -1       923-4.12958E-05 1.10748E-05 2.43461E-34 6.90357E-05 4.08510E-19 1.48439E-19
 -1       924-3.86957E-05 8.65109E-06 8.13899E-35 8.05059E-05-1.32097E-21-3.63361E-19
 -1       925-2.26618E-05-5.70257E-07 1.63470E-34 7.83990E-05 8.99716E-18-4.93616E-20
 -1       926-1.53806E-05-5.49326E-06 1.18893E-34 8.90171E-05-1.32226E-18 4.96263E-20
 -1       927-4.00467E-07-1.47667E-05 1.89311E-34 8.40275E-05-8.01430E-19 2.62176E-20
 -1       928 1.20691E-05-2.24116E-05 4.35985E-34 9.25598E-05-4.56242E-18-3.54962E-19
 -1       929 2.52670E-05-3.13355E-05 1.88635E-34 8.41486E-05-2.06493E-18 2.43772E-19
 -1       930 4.31839E-05-4.16751E-05 3.58716E-34 8.88274E-05 6.14225E-18 2.58457E-19
 -1       931 5.33846E-05-4.95410E-05 3.51262E-34 7.64303E-05-1.71644E-18 2.30656E-19
 -1       932 7.64847E-05-6.20856E-05 2.98491E-34 7.48413E-05 1.01274E-17 6.22813E-20
 -1       933 8.17631E-05-6.77155E-05 6.81960E-35 5.79270E-05-7.68870E-19 4.76928E-19
 -1       934 1.08827E-04-8.11832E-05 2.17537E-34 4.69078E-05-4.19465E-18 3.60260E-19
 -1       935 1.06231E-04-8.23053E-05 5.27028E-34 2.47289E-05-2.24827E-18 5.55433E-19
 -1       936 1.29205E-04-9.23411E-05 4.10351E-34 1.43815E-05-7.48268E-18 9.62718E-19
 -1       937 1.15284E-04-8.67446E-05 3.01519E-34 3.46670E-08 1.38467E-17-3.92763E-19
 -1       938-1.25179E-04 5.36742E-05 1.83907E-35-4.47693E-08-2.02372E-18 2.52947E-19
 -1       939-1.37385E-04 5.88695E-05 2.38183E-34 9.07710E-06-2.69486E-19-3.83484E-19
 -1       940-1.16522E-04 4.98231E-05 1.89172E-34 1.66417E-05 8.20338E-18-2.59132E-19
 -1       941-1.26339E-04 5.39330E-05 1.43871E-34 2.65270E-05-3.76370E-18-1.39629E-18
 -1       942-1.06008E-04 4.48234E-05 6.42203E-35 3.33068E-05 2.60580E-18-3.73514E-19
 -1       943-1.13120E-04 4.76397E-05 2.88798E-34 4.39470E-05-5.38283E-19 2.78614E-19
 -1       944-9.31092E-05 3.83207E-05 1.98073E-34 4.96882E-05 4.09384E-18 2.07384E-19
 -1       945-9.70629E-05 3.95402E-05 3.95306E-34 6.10565E-05-2.86992E-18 5.35467E-19
 -1       946-7.72043E-05 2.98556E-05 2.71920E-34 6.53251E-05-1.46970E-18-1.20120E-19
 -1       947-7.73619E-05 2.90582E-05 2.62288E-35 7.72042E-05-3.39587E-18 8.60005E-20
 -1       948-5.76075E-05 1.89379E-05 1.58030E-34 7.94866E-05-2.60914E-18 1.79750E-20
 -1       949-5.31887E-05 1.56358E-05 4.71657E-35 9.13409E-05-3.16336E-18 1.83330E-19
 -1       950-3.36820E-05 5.12591E-06 2.37140E-34 9.10400E-05 1.04469E-17 2.16314E-21
 -1       951-2.38655E-05-1.12836E-06 1.17722E-34 1.01904E-04-2.86779E-18 4.49109E-20
 -1       952-5.01708E-06-1.18328E-05 1.24869E-34 9.83573E-05-1.80363E-18-3.96281E-20
 -1       953 1.09025E-05-2.13054E-05 1.40117E-34 1.06756E-04 1.94547E-18-3.92297E-20
 -1       954 2.83289E-05-3.18202E-05 1.89160E-34 9.92333E-05 5.64359E-18-2.58290E-19
 -1       955 5.07524E-05-4.44555E-05 1.23097E-34 1.03124E-04-4.43903E-18-1.66169E-19
 -1       956 6.55059E-05-5.41200E-05 3.01203E-34 9.07997E-05 5.16174E-18 1.75984E-19
 -1       957 9.43006E-05-6.93958E-05 2.26303E-34 8.74684E-05-2.53242E-18-1.03277E-19
 -1       958 1.04373E-04-7.70731E-05 3.11052E-34 6.93940E-05-7.08168E-19-1.86634E-19
 -1       959 1.38463E-04-9.37170E-05 3.64027E-34 5.52535E-05 6.61320E-18-4.64141E-19
 -1       960 1.40610E-04-9.69967E-05 2.57196E-34 2.99364E-05-6.18966E-18 5.84404E-19
 -1       961 1.68646E-04-1.09211E-04 2.16560E-34 1.70506E-05 4.60566E-18-6.67107E-19
 -1       962 1.56116E-04-1.04273E-04 2.48038E-34 9.79293E-08 5.22397E-19 7.01873E-19
 -1       963-1.58914E-04 6.81177E-05 3.72834E-35-1.55341E-08-6.81588E-18-1.94974E-18
 -1       964-1.69204E-04 7.25213E-05 1.89399E-34 9.27900E-06-3.06528E-18-2.63530E-19
 -1       965-1.47601E-04 6.32049E-05 3.75243E-34 1.77204E-05-6.77662E-19-6.99754E-19
 -1       966-1.55928E-04 6.67433E-05 1.22193E-34 2.77103E-05 1.01113E-18 7.77860E-19
 -1       967-1.34442E-04 5.72538E-05 2.49019E-34 3.58509E-05-4.76614E-20-4.34373E-20
 -1       968-1.40349E-04 5.96065E-05 7.69845E-35 4.67606E-05 9.53658E-19-2.51614E-19
 -1       969-1.18651E-04 4.97245E-05 6.16661E-35 5.41606E-05 1.57226E-18 2.82839E-19
 -1       970-1.21423E-04 5.03726E-05 1.92658E-34 6.60853E-05-1.34897E-18 1.42544E-19
 -1       971-9.92773E-05 3.99322E-05 1.16286E-34 7.21290E-05-5.32653E-18-5.22877E-20
 -1       972-9.79278E-05 3.81936E-05 1.06118E-34 8.48204E-05 1.63088E-18-1.68806E-20
 -1       973-7.52948E-05 2.71697E-05 3.15823E-34 8.88064E-05 6.34294E-18-1.93276E-19
 -1       974-6.86979E-05 2.23539E-05 1.18910E-34 1.01516E-04-4.31004E-18-6.04852E-20
 -1       975-4.57989E-05 1.08609E-05 3.67503E-34 1.02700E-04 1.83688E-18-1.43898E-21
 -1       976-3.29031E-05 2.47806E-06 9.22858E-35 1.14120E-04 2.53779E-18 9.47147E-21
 -1       977-1.02430E-05-9.24845E-06 1.92486E-34 1.11749E-04-5.93890E-19-2.48306E-20
 -1       978 9.71687E-06-2.13222E-05 7.39898E-35 1.20059E-04-3.54716E-18-7.49228E-20
 -1       979 3.13445E-05-3.29442E-05 7.06758E-35 1.13332E-04 2.90495E-18-5.96343E-21
 -1       980 5.87224E-05-4.84241E-05 2.45566E-34 1.16264E-04 1.70365E-18 3.21910E-19
 -1       981 7.81583E-05-5.94446E-05 1.46704E-34 1.04200E-04-3.29350E-18 1.28711E-19
 -1       982 1.12851E-04-7.76854E-05 1.13657E-34 9.89368E-05-3.58683E-18 8.18901E-20
 -1       983 1.28245E-04-8.72073E-05 2.37244E-34 8.01806E-05 4.40081E-18-6.42610E-19
 -1       984 1.69458E-04-1.07074E-04 3.20890E-34 6.29162E-05-1.23731E-18-5.01264E-19
 -1       985 1.77520E-04-1.12784E-04 3.24134E-34 3.50012E-05-2.24564E-18 4.84643E-19
 -1       986 2.10544E-04-1.27151E-04 1.43207E-34 1.95791E-05 5.70411E-18 6.87377E-19
 -1       987 2.00510E-04-1.23316E-04 1.75257E-34 1.83949E-07 1.67289E-18 6.00689E-19
 -1       988-1.90511E-04 8.16463E-05 8.15620E-35 3.52408E-09-4.80573E-19 6.08035E-19
 -1       989-1.98858E-04 8.52521E-05 1.54593E-34 9.11484E-06-6.13222E-18 6.84143E-20
 -1       990-1.77571E-04 7.61155E-05 1.07119E-34 1.81693E-05-3.90895E-18 4.38736E-19
 -1       991-1.84663E-04 7.91707E-05 1.41322E-34 2.82336E-05-2.61167E-18-4.44017E-19
 -1       992-1.62782E-04 6.96278E-05 1.92868E-34 3.75316E-05-5.24063E-18-9.84782E-20
 -1       993-1.67821E-04 7.15058E-05 2.02467E-34 4.90909E-05 1.90234E-18 4.94418E-19
 -1       994-1.44872E-04 6.12735E-05 1.60701E-34 5.78967E-05 1.92680E-19 3.75703E-19
 -1       995-1.46619E-04 6.10281E-05 3.32889E-34 7.11104E-05-7.49561E-18 1.42245E-19
 -1       996-1.22359E-04 5.00074E-05 2.89700E-34 7.85301E-05-1.57439E-18 1.77042E-19
 -1       997-1.19254E-04 4.65598E-05 5.75913E-35 9.28875E-05-1.64567E-19-3.33375E-20
 -1       998-9.38066E-05 3.48883E-05 1.69964E-34 9.80035E-05-5.76556E-18 4.40412E-19
 -1       999-8.43322E-05 2.74067E-05 6.12633E-35 1.12213E-04-3.63548E-19-2.97900E-19
 -1      1000-5.81825E-05 1.53797E-05 7.69144E-35 1.14215E-04-1.84864E-18-5.05942E-21
 -1      1001-4.12480E-05 3.60559E-06 1.58359E-34 1.26362E-04 1.22112E-18-1.56585E-20
 -1      1002-1.51113E-05-8.45775E-06 3.24546E-34 1.24587E-04-2.93734E-18-1.14574E-20
 -1      1003 9.75513E-06-2.41398E-05 1.49951E-34 1.32469E-04 2.17998E-18 1.15645E-19
 -1      1004 3.50964E-05-3.60097E-05 3.20198E-36 1.26256E-04 2.40403E-18 2.79541E-19
 -1      1005 6.78788E-05-5.48238E-05 4.63999E-35 1.27616E-04-2.40851E-18-2.72878E-19
 -1      1006 9.15769E-05-6.63308E-05 2.40455E-34 1.15986E-04 1.17621E-20-2.32978E-19
 -1      1007 1.32106E-04-8.74987E-05 6.28245E-35 1.08293E-04 3.79630E-18-6.99935E-19
 -1      1008 1.52841E-04-9.82350E-05 3.16236E-35 8.95241E-05-1.77858E-18 1.07708E-18
 -1      1009 2.00883E-04-1.21066E-04 2.52303E-34 6.91080E-05 9.44312E-20 7.38238E-19
 -1      1010 2.15786E-04-1.29200E-04 6.52855E-34 3.95361E-05-3.87390E-18-1.00264E-18
 -1      1011 2.53543E-04-1.45606E-04 1.01728E-34 2.16931E-05 4.20663E-18 1.87156E-19
 -1      1012 2.47255E-04-1.43338E-04-2.07671E-35 2.94896E-07 1.62714E-18 9.15169E-19
 -1      1013-2.18818E-04 9.37575E-05 1.00589E-34-5.63477E-09-2.59715E-18-4.01348E-19
 -1      1014-2.25822E-04 9.68336E-05 1.77160E-34 8.67457E-06-1.03275E-18 6.76902E-19
 -1      1015-2.05944E-04 8.83488E-05 8.04168E-35 1.81645E-05-2.87625E-18 3.06837E-19
 -1      1016-2.12693E-04 9.12008E-05 4.00723E-35 2.86316E-05 3.71565E-18-1.12778E-18
 -1      1017-1.91020E-04 8.18470E-05 1.41011E-34 3.89609E-05 1.20497E-18 5.72578E-19
 -1      1018-1.95944E-04 8.31941E-05 1.44119E-34 5.21594E-05 2.28567E-18-2.90410E-19
 -1      1019-1.71860E-04 7.26848E-05 1.07984E-34 6.20686E-05-1.84073E-18 5.44014E-19
 -1      1020-1.72730E-04 7.07996E-05 8.44797E-35 7.79636E-05 1.26271E-18-3.67197E-21
 -1      1021-1.46176E-04 5.92642E-05 8.64188E-35 8.61097E-05 1.27597E-18-1.19524E-19
 -1      1022-1.40607E-04 5.26116E-05 1.54351E-34 1.03383E-04-1.76089E-18 2.89226E-20
 -1      1023-1.12225E-04 4.05816E-05 7.94995E-35 1.08646E-04-3.52847E-18 7.41315E-20
 -1      1024-9.84868E-05 2.85392E-05 2.65126E-34 1.24905E-04 3.32277E-18-1.91620E-19
 -1      1025-6.93428E-05 1.66424E-05 1.02911E-34 1.26632E-04-8.46873E-19 3.95233E-20
 -1      1026-4.68614E-05-2.05249E-07 1.23783E-34 1.39144E-04-8.12216E-19-1.20641E-20
 -1      1027-1.79721E-05-1.15796E-05 1.90518E-34 1.37080E-04-2.86200E-18-1.38014E-20
 -1      1028 1.28223E-05-3.18295E-05 8.32761E-35 1.43518E-04-4.96651E-18 5.45352E-20
 -1      1029 4.08626E-05-4.27186E-05 2.00684E-34 1.37409E-04-1.35317E-18 2.46676E-19
 -1      1030 7.92564E-05-6.49624E-05 1.52041E-34 1.36068E-04 5.27834E-18-1.36204E-21
 -1      1031 1.06251E-04-7.57408E-05 1.09339E-34 1.25070E-04-5.52681E-18-4.55659E-19
 -1      1032 1.52081E-04-9.93012E-05 1.87692E-34 1.14249E-04 2.74028E-18 4.63349E-20
 -1      1033 1.77668E-04-1.10287E-04 1.15904E-34 9.62896E-05 9.77540E-19-4.43078E-19
 -1      1034 2.31707E-04-1.35416E-04 1.92297E-34 7.28415E-05 4.61774E-18 6.97930E-19
 -1      1035 2.54040E-04-1.45695E-04 2.08637E-34 4.29389E-05 8.36985E-19-8.30281E-19
 -1      1036 2.95969E-04-1.63882E-04 3.22893E-34 2.30366E-05 1.28025E-18-1.31310E-18
 -1      1037 2.94770E-04-1.63641E-04 3.09544E-34 4.21977E-07-5.89893E-18 5.13573E-19
 -1      1038-2.43180E-04 1.04239E-04 4.72323E-35-6.73561E-08 1.97669E-18-1.37706E-18
 -1      1039-2.50270E-04 1.07328E-04 6.05761E-35 8.09878E-06 3.91239E-19-9.65037E-19
 -1      1040-2.32963E-04 9.99704E-05 2.15558E-34 1.80289E-05 6.21980E-18 2.62432E-19
 -1      1041-2.41054E-04 1.03121E-04 1.36043E-34 2.98867E-05 1.42952E-18 1.38871E-19
 -1      1042-2.19922E-04 9.40650E-05 2.13101E-34 4.13070E-05-1.54610E-18-1.51991E-19
 -1      1043-2.25808E-04 9.44847E-05 4.19813E-35 5.81483E-05-3.94495E-18-6.61404E-20
 -1      1044-2.00097E-04 8.35164E-05 4.76654E-35 6.87551E-05-4.64706E-19 1.85646E-19
 -1      1045-1.99754E-04 7.82599E-05 3.84266E-34 8.95824E-05 1.52187E-19-6.05633E-19
 -1      1046-1.70189E-04 6.61784E-05 7.99069E-35 9.73414E-05-8.55034E-19 5.27721E-20
 -1      1047-1.60359E-04 5.35637E-05 7.28883E-35 1.18896E-04 1.78719E-18-2.03972E-19
 -1      1048-1.28811E-04 4.16721E-05 4.66729E-35 1.22713E-04 3.25719E-18 1.56690E-19
 -1      1049-1.08384E-04 2.23285E-05 4.93481E-35 1.40842E-04-1.93833E-18 2.90638E-20
 -1      1050-7.68713E-05 1.16700E-05 9.07420E-35 1.40760E-04-8.77671E-19 6.52853E-20
 -1      1051-4.69211E-05-1.19641E-05 3.06337E-34 1.52168E-04 2.29989E-18 9.46516E-21
 -1      1052-1.65826E-05-2.11673E-05 8.81050E-35 1.48808E-04 5.22278E-19 6.67448E-20
 -1      1053 2.08805E-05-4.63220E-05 9.35690E-35 1.51907E-04 5.09784E-20-2.61636E-19
 -1      1054 5.00886E-05-5.46997E-05 1.23520E-34 1.45588E-04-1.29418E-19 2.92158E-19
 -1      1055 9.36624E-05-7.96602E-05 2.05805E-34 1.40060E-04-1.01749E-19 2.02592E-20
 -1      1056 1.22602E-04-8.83501E-05 6.63060E-35 1.30027E-04-2.45637E-18-5.51889E-20
 -1      1057 1.72553E-04-1.13136E-04 3.28980E-34 1.15467E-04-2.28612E-18-1.51370E-19
 -1      1058 2.02145E-04-1.23294E-04 2.21024E-34 9.92348E-05-1.04970E-18 5.32451E-19
 -1      1059 2.60803E-04-1.49673E-04 1.93193E-34 7.32224E-05-6.59804E-18 4.57408E-19
 -1      1060 2.90740E-04-1.61628E-04 1.84401E-34 4.45536E-05 2.37396E-18-3.45171E-19
 -1      1061 3.35957E-04-1.81192E-04 2.73340E-34 2.32841E-05-1.87730E-18 7.21659E-19
 -1      1062 3.41090E-04-1.83371E-04 2.06841E-34 5.45191E-07-1.21724E-18-7.50063E-19
 -1      1063-2.63181E-04 1.12715E-04 9.02328E-35-2.35867E-07 2.76429E-18-6.85613E-19
 -1      1064-2.73048E-04 1.17080E-04 2.09012E-34 7.69690E-06 1.05255E-18 4.23404E-19
 -1      1065-2.59954E-04 1.11666E-04 1.71948E-34 1.84960E-05-4.45265E-18-5.15010E-19
 -1      1066-2.72260E-04 1.15540E-04 9.40769E-35 3.40020E-05-4.40416E-18-9.12954E-20
 -1      1067-2.51280E-04 1.06600E-04 8.00836E-35 4.68082E-05-1.05980E-18-7.57681E-20
 -1      1068-2.59053E-04 1.04508E-04 8.65132E-35 7.10701E-05 7.83873E-18-3.31067E-19
 -1      1069-2.30167E-04 9.26628E-05 3.20502E-34 8.15242E-05 2.13945E-18-3.04443E-19
 -1      1070-2.26643E-04 8.00766E-05 2.32052E-35 1.10365E-04-7.02891E-19 2.54523E-19
 -1      1071-1.92766E-04 6.75964E-05 1.95753E-34 1.15652E-04-2.43133E-19 3.23739E-19
 -1      1072-1.74845E-04 4.44093E-05 1.33130E-34 1.41991E-04-7.00404E-18 7.88848E-20
 -1      1073-1.40301E-04 3.38914E-05 1.23208E-34 1.41956E-04-3.25352E-18 1.74204E-20
 -1      1074-1.09709E-04 4.10539E-06 2.27383E-34 1.59887E-04 2.80759E-18 1.13735E-19
 -1      1075-7.73562E-05-3.34744E-06 2.30634E-34 1.56282E-04 5.07817E-18 2.32639E-20
 -1      1076-3.83127E-05-3.45335E-05 1.66899E-35 1.63479E-04-6.03895E-19 2.35925E-20
 -1      1077-8.57552E-06-3.95447E-05 8.46496E-35 1.58157E-04 2.37394E-18-4.74779E-20
 -1      1078 3.52650E-05-6.85506E-05 1.55550E-34 1.55333E-04 5.65553E-19 5.44251E-20
 -1      1079 6.37854E-05-7.27819E-05 7.53256E-35 1.48945E-04-8.81151E-19 2.22115E-19
 -1      1080 1.11109E-04-9.86761E-05 3.56091E-35 1.37874E-04-1.27479E-18 1.75688E-19
 -1      1081 1.40582E-04-1.04079E-04 1.45213E-34 1.29393E-04-1.28039E-18 7.86436E-20
 -1      1082 1.92854E-04-1.28391E-04 1.50074E-34 1.10967E-04 1.11277E-18-5.83872E-20
 -1      1083 2.25495E-04-1.36820E-04 2.49370E-34 9.73862E-05-1.67204E-18-5.35861E-20
 -1      1084 2.87034E-04-1.63207E-04 1.46275E-34 6.97566E-05 6.62507E-18 5.22336E-19
 -1      1085 3.24337E-04-1.76326E-04 1.78798E-34 4.38860E-05 2.06196E-18-4.23028E-19
 -1      1086 3.71731E-04-1.96764E-04 1.32093E-34 2.22558E-05 3.02920E-18-1.28967E-19
 -1      1087 3.84088E-04-2.01619E-04 1.06098E-35 6.38213E-07-3.80111E-18 2.13673E-18
 -1      1088-2.79498E-04 1.20568E-04 4.16593E-34-7.63339E-07-3.83700E-19 8.71950E-19
 -1      1089-2.97123E-04 1.27300E-04 1.01970E-34 7.75785E-06-1.91949E-18-3.64062E-19
 -1      1090-2.89549E-04 1.24029E-04 1.97227E-34 2.06310E-05-2.39905E-18-4.10625E-20
 -1      1091-3.10302E-04 1.29215E-04 4.64850E-35 4.51271E-05 1.54328E-18 1.23581E-19
 -1      1092-2.87852E-04 1.19582E-04 3.34609E-35 6.00011E-05-3.61920E-19 2.41989E-20
 -1      1093-2.97052E-04 1.10172E-04 8.73480E-35 9.83119E-05-2.05117E-18 5.01956E-19
 -1      1094-2.61389E-04 9.64990E-05 1.62763E-34 1.06368E-04-1.47244E-18 1.81587E-19
 -1      1095-2.48890E-04 6.86148E-05 1.53954E-34 1.46014E-04 5.92917E-18 1.96576E-20
 -1      1096-2.09537E-04 5.70503E-05 4.74834E-35 1.44834E-04-3.08273E-18-1.94994E-19
 -1      1097-1.76943E-04 1.69410E-05 1.01152E-34 1.73242E-04-1.91066E-18-3.32896E-20
 -1      1098-1.41244E-04 1.08846E-05 7.99931E-35 1.66271E-04 2.95921E-18-9.08043E-22
 -1      1099-9.70400E-05-3.11731E-05 1.73103E-34 1.78667E-04-8.19132E-19-7.28121E-21
 -1      1100-6.69384E-05-3.21537E-05 1.81444E-34 1.70500E-04 8.58857E-18-1.76692E-21
 -1      1101-1.89371E-05-6.91729E-05 1.28244E-34 1.68912E-04-6.16072E-18 9.25223E-21
 -1      1102 7.56254E-06-6.76348E-05 4.26542E-35 1.62045E-04-1.67179E-18-9.03461E-20
 -1      1103 5.57129E-05-9.75207E-05 9.57935E-35 1.50881E-04-1.52960E-18-8.35171E-20
 -1      1104 8.18363E-05-9.62715E-05 2.15275E-34 1.45326E-04-6.83762E-18 3.34201E-19
 -1      1105 1.30467E-04-1.20433E-04 1.45933E-34 1.28207E-04-2.21940E-18 2.13954E-19
 -1      1106 1.59409E-04-1.21858E-04 7.60529E-35 1.22133E-04 2.58062E-18-3.10187E-19
 -1      1107 2.11889E-04-1.43846E-04 8.25527E-35 1.00503E-04-4.39911E-18 9.86564E-20
 -1      1108 2.46774E-04-1.50069E-04 2.43181E-34 9.03811E-05-8.81693E-18 6.71110E-20
 -1      1109 3.09421E-04-1.75316E-04 1.65100E-34 6.25308E-05 1.21822E-18 1.04776E-19
 -1      1110 3.53506E-04-1.89180E-04 5.78422E-35 4.07776E-05-2.49019E-18 2.57437E-19
 -1      1111 4.01916E-04-2.09980E-04 1.53817E-34 1.99802E-05 2.68548E-18 5.00504E-19
 -1      1112 4.21843E-04-2.17580E-04 2.38415E-34 6.77955E-07-3.94478E-18 5.88056E-19
 -1      1113-2.89848E-04 1.22598E-04 9.52866E-35-1.14604E-06 7.72494E-18 2.46258E-19
 -1      1114-3.25666E-04 1.38804E-04 7.52157E-35 1.12097E-05-3.13599E-18 1.89240E-19
 -1      1115-3.29652E-04 1.42334E-04 5.22030E-35 2.93011E-05 1.15141E-18 8.43640E-19
 -1      1116-3.66291E-04 1.43239E-04 7.03632E-35 7.48181E-05 2.69284E-18-8.42944E-20
 -1      1117-3.33697E-04 1.30943E-04 6.21615E-35 9.07922E-05-4.13620E-18-2.95573E-19
 -1      1118-3.35547E-04 9.92263E-05 7.38924E-35 1.53395E-04 2.70968E-18-5.11175E-20
 -1      1119-2.88597E-04 8.53593E-05 4.13859E-35 1.52118E-04 1.50331E-18 8.64843E-20
 -1      1120-2.53700E-04 2.77186E-05 2.81318E-35 2.00100E-04 3.01173E-18-5.36474E-20
 -1      1121-2.10768E-04 2.23201E-05 8.45750E-35 1.86050E-04-1.42208E-18 1.07041E-19
 -1      1122-1.55777E-04-3.93408E-05 6.38585E-35 2.06693E-04-6.01357E-20 4.58307E-21
 -1      1123-1.24441E-04-3.46541E-05 3.62770E-35 1.90809E-04-1.06351E-18-2.34349E-20
 -1      1124-6.63800E-05-8.59503E-05 2.72357E-35 1.88946E-04-9.78532E-19 6.94043E-21
 -1      1125-4.31080E-05-7.61672E-05 3.64391E-35 1.77521E-04-2.69264E-18-2.37773E-20
 -1      1126 1.03115E-05-1.13629E-04 5.78906E-35 1.62790E-04-1.04200E-18 1.46593E-20
 -1      1127 3.12288E-05-1.03643E-04 8.01869E-35 1.56507E-04-3.83464E-18-1.76313E-20
 -1      1128 7.97957E-05-1.29891E-04 8.91375E-35 1.36162E-04-3.25156E-18 6.38847E-20
 -1      1129 1.02609E-04-1.22692E-04 1.31658E-34 1.33073E-04-2.40589E-18 1.16952E-19
 -1      1130 1.49641E-04-1.42303E-04 7.52775E-35 1.10817E-04-1.22570E-18 1.45356E-19
 -1      1131 1.77642E-04-1.39821E-04 7.65601E-35 1.08086E-04 3.14000E-18-6.17351E-20
 -1      1132 2.28408E-04-1.58002E-04 1.59473E-34 8.47269E-05-2.44425E-18-2.49268E-19
 -1      1133 2.65032E-04-1.62076E-04 7.32618E-35 7.86197E-05-6.17961E-19-3.36631E-19
 -1      1134 3.27315E-04-1.85383E-04 1.81263E-34 5.21882E-05 3.53741E-18 3.84917E-20
 -1      1135 3.77352E-04-1.99754E-04 7.45275E-35 3.54564E-05-7.50795E-20 1.36865E-19
 -1      1136 4.25744E-04-2.20472E-04 1.59913E-34 1.66785E-05-2.37001E-18 5.14398E-19
 -1      1137 4.52973E-04-2.30692E-04-3.26206E-35 6.52858E-07 4.42518E-19 6.61028E-19
 -1      1138-3.06209E-04 1.45958E-04 2.87516E-35-9.21149E-06-2.88687E-18-2.48457E-19
 -1      1139-3.79272E-04 1.62915E-04 4.37620E-35 1.78462E-05 3.74540E-18 2.80675E-19
 -1      1140-3.84538E-04 1.58110E-04 1.32324E-34 5.04324E-05 2.58431E-18-7.32523E-20
 -1      1141-4.38251E-04 1.47354E-04 3.80396E-35 1.50164E-04 1.76579E-18-1.32892E-19
 -1      1142-3.84229E-04 1.27590E-04 8.28204E-35 1.62841E-04-8.14276E-19 2.26674E-19
 -1      1143-3.56908E-04 4.08218E-05 4.13589E-35 2.54706E-04-2.86919E-18 9.59640E-20
 -1      1144-2.93730E-04 3.31972E-05 1.06195E-34 2.26765E-04-2.72675E-18 1.27488E-19
 -1      1145-2.15160E-04-6.95263E-05 4.47620E-35 2.63057E-04 2.83138E-18-2.02350E-20
 -1      1146-1.80950E-04-5.32086E-05 8.65909E-35 2.30156E-04-3.34557E-18 1.23484E-20
 -1      1147-1.01706E-04-1.30609E-04 9.59140E-35 2.24314E-04-1.78626E-18 5.45703E-22
 -1      1148-8.48307E-05-1.05698E-04 6.98696E-35 2.03310E-04 1.35935E-18 1.76752E-21
 -1      1149-2.01750E-05-1.55194E-04 1.01225E-34 1.78861E-04 6.27198E-18 3.11798E-21
 -1      1150-7.49952E-06-1.31508E-04 6.74396E-35 1.69435E-04 3.59928E-18-1.90939E-20
 -1      1151 4.43006E-05-1.61166E-04 1.01483E-34 1.40522E-04-3.24171E-18-4.13703E-21
 -1      1152 5.89758E-05-1.42573E-04 1.83042E-34 1.38402E-04 2.09751E-18 7.69635E-20
 -1      1153 1.03398E-04-1.60658E-04 7.05933E-35 1.10724E-04-8.01148E-19 7.32125E-20
 -1      1154 1.23259E-04-1.48353E-04 1.09700E-34 1.11919E-04 1.24872E-19 5.69138E-20
 -1      1155 1.66253E-04-1.61410E-04 8.26426E-35 8.68538E-05-1.14170E-18 3.09025E-20
 -1      1156 1.93600E-04-1.55884E-04 9.64661E-35 8.81671E-05-9.78174E-19 2.97900E-20
 -1      1157 2.41387E-04-1.69546E-04 1.91128E-34 6.50489E-05 3.46412E-18-1.60817E-19
 -1      1158 2.79545E-04-1.71991E-04 5.39668E-35 6.31633E-05-1.27387E-18 1.51988E-19
 -1      1159 3.40493E-04-1.93030E-04 6.96959E-35 3.97324E-05-2.53626E-18 1.28271E-19
 -1      1160 3.95517E-04-2.07846E-04 1.71551E-34 2.84540E-05-7.85555E-18 3.81930E-19
 -1      1161 4.43098E-04-2.28153E-04 1.63033E-34 1.26900E-05-2.02434E-18 2.82211E-19
 -1      1162 4.76834E-04-2.40709E-04 1.87884E-34 5.65578E-07 4.03420E-18-7.08255E-19
 -1      1163-2.97228E-04 7.75468E-05 1.10216E-34 1.28662E-05-6.39471E-18-1.90153E-19
 -1      1164-5.59210E-04 2.00809E-04 8.54340E-35 7.76420E-05 6.19142E-19 3.42654E-19
 -1      1165-5.32730E-04 2.36364E-04 3.37755E-35 1.43541E-04 1.65226E-18 1.96163E-19
 -1      1166-5.24074E-04 5.06470E-05 1.57184E-34 3.70415E-04 4.13777E-18 1.61221E-19
 -1      1167-4.10464E-04 5.04900E-05 3.16562E-35 3.07403E-04-2.96837E-18 1.86893E-20
 -1      1168-2.72757E-04-1.55912E-04 1.33722E-34 3.81436E-04 1.87995E-18-2.33056E-20
 -1      1169-2.31021E-04-1.12365E-04 1.45607E-34 3.11109E-04 7.00827E-19-1.86045E-20
 -1      1170-1.06927E-04-2.37006E-04 8.06415E-35 2.87394E-04-2.62593E-18 3.41106E-21
 -1      1171-1.08410E-04-1.76290E-04 4.53741E-35 2.48475E-04-1.41665E-20-4.70355E-22
 -1      1172-2.31963E-05-2.43339E-04 3.30997E-35 1.98745E-04-4.82253E-19 1.43382E-20
 -1      1173-2.70331E-05-1.92784E-04 9.32013E-35 1.86777E-04 4.27958E-18 6.32318E-21
 -1      1174 2.98748E-05-2.24046E-04 1.28034E-34 1.39804E-04-3.14906E-18 4.80501E-21
 -1      1175 3.23989E-05-1.87777E-04 7.85904E-36 1.40421E-04-2.37837E-18 1.37440E-20
 -1      1176 7.48437E-05-2.02194E-04 4.49220E-35 1.01892E-04 2.56671E-19 4.77034E-20
 -1      1177 8.53001E-05-1.77580E-04 5.78580E-35 1.07424E-04 2.15879E-18-2.05669E-20
 -1      1178 1.22289E-04-1.84894E-04 1.22593E-34 7.67344E-05-2.94235E-18 2.48367E-20
 -1      1179 1.40697E-04-1.69581E-04 1.15250E-34 8.34172E-05 6.56248E-18-1.09490E-20
 -1      1180 1.78461E-04-1.75549E-04 4.29205E-35 5.86057E-05 6.86826E-19 1.79946E-21
 -1      1181 2.05916E-04-1.68397E-04 2.26552E-34 6.41704E-05 5.01477E-18-3.27144E-20
 -1      1182 2.50317E-04-1.77691E-04 1.21996E-34 4.32574E-05-8.48858E-19 7.56817E-21
 -1      1183 2.89982E-04-1.79300E-04 1.89239E-34 4.54400E-05-2.61620E-18-1.26835E-19
 -1      1184 3.49152E-04-1.98172E-04 8.07641E-35 2.62643E-05-1.64517E-18 2.46251E-19
 -1      1185 4.08155E-04-2.13492E-04 1.17722E-34 2.04466E-05-1.47894E-19-2.28087E-19
 -1      1186 4.54406E-04-2.33182E-04 1.09481E-34 8.37972E-06-7.48611E-18-6.93004E-20
 -1      1187 4.93504E-04-2.47686E-04 8.86986E-35 4.30251E-07-5.44652E-18 4.73797E-19
 -1      1188-2.30565E-04 4.92937E-04 1.99395E-35-2.89398E-04 9.89931E-19-1.71757E-19
 -1      1189-8.00087E-04 6.90136E-05 4.22764E-35 6.02981E-04-8.90076E-19-6.24392E-20
 -1      1190-5.54450E-04 3.56115E-05 3.99847E-35 5.49628E-04 5.29971E-19-3.80680E-20
 -1      1191-3.35433E-04-4.31978E-04 4.91874E-35 7.37889E-04-1.88475E-18 8.89789E-21
 -1      1192-2.59042E-04-2.90926E-04 8.32993E-35 5.02428E-04-4.56907E-18 1.93413E-20
 -1      1193 2.30204E-05-5.53482E-04 3.63205E-35 3.78339E-04-2.83599E-18 1.49120E-20
 -1      1194-8.14316E-05-3.44383E-04 4.31333E-35 3.17197E-04-3.97529E-19 2.70843E-22
 -1      1195 2.81368E-05-4.23360E-04 3.30657E-35 1.95568E-04 3.38588E-18 4.07186E-21
 -1      1196-9.56398E-06-3.19571E-04 8.07731E-35 2.00323E-04-3.88262E-18-3.77616E-21
 -1      1197 4.80661E-05-3.37569E-04 7.70456E-35 1.16951E-04-6.62207E-19 1.70690E-21
 -1      1198 3.02484E-05-2.71013E-04 7.88559E-35 1.31652E-04-5.67639E-18-1.29449E-20
 -1      1199 6.61076E-05-2.72585E-04 4.84972E-35 7.54378E-05-1.77372E-18-3.33830E-20
 -1      1200 6.55582E-05-2.31785E-04 6.04937E-35 9.16632E-05-4.30368E-18 1.51405E-21
 -1      1201 9.47671E-05-2.28422E-04 9.98725E-35 5.25852E-05-2.51955E-18-8.24030E-21
 -1      1202 1.04816E-04-2.02595E-04 4.54643E-35 6.70008E-05 3.45038E-19 2.24907E-20
 -1      1203 1.33670E-04-1.99457E-04 1.03990E-34 3.85548E-05-1.99589E-18 2.92604E-20
 -1      1204 1.52671E-04-1.83918E-04 5.60064E-35 5.06412E-05 1.46343E-18-4.03536E-21
 -1      1205 1.85469E-04-1.83718E-04 7.80312E-35 2.90076E-05-4.93534E-19 3.03802E-20
 -1      1206 2.13892E-04-1.76517E-04 2.23184E-35 3.83609E-05 2.20154E-18 1.24205E-19
 -1      1207 2.55239E-04-1.82261E-04 7.70402E-35 2.12365E-05-2.34144E-18-5.78532E-21
 -1      1208 2.96436E-04-1.83879E-04 6.92991E-35 2.69625E-05-3.41721E-18 2.31964E-20
 -1      1209 3.53794E-04-2.00975E-04 1.69840E-35 1.28507E-05-2.54204E-18-1.23808E-20
 -1      1210 4.15793E-04-2.16906E-04 9.39647E-35 1.21231E-05-3.15170E-18-1.07514E-19
 -1      1211 4.60437E-04-2.35879E-04 1.77980E-34 4.09551E-06 5.15176E-18 1.87977E-20
 -1      1212 5.03606E-04-2.51903E-04 1.18462E-34 2.66285E-07-4.53348E-18 2.23103E-19
 -1      1213-1.42926E-03-9.88611E-04 4.61711E-35 1.61747E-03-4.82416E-19-2.29276E-20
 -1      1214 1.29038E-04-3.49894E-03 1.01306E-34 1.52139E-03 3.54405E-18 1.23376E-20
 -1      1215-2.49036E-05-1.12982E-03 1.06045E-34 7.38155E-04 1.85151E-18 3.17713E-21
 -1      1216 5.92589E-04-1.34390E-03 9.08109E-35-5.92581E-05 3.77119E-18 2.63752E-21
 -1      1217 1.20641E-04-8.62219E-04 5.19037E-35 3.27272E-04 4.00152E-19-1.34903E-21
 -1      1218 1.32812E-04-7.51037E-04 4.73212E-35 1.03036E-05 4.04181E-18 1.51521E-21
 -1      1219 7.83006E-05-5.71008E-04 5.34587E-35 1.40917E-04-3.04488E-18-2.97474E-23
 -1      1220 1.07529E-04-5.17139E-04 4.58454E-35 1.19042E-06-4.59132E-18 7.53017E-22
 -1      1221 6.14688E-05-4.10165E-04 7.93052E-35 7.71778E-05 2.63259E-18-2.08225E-21
 -1      1222 7.23535E-05-3.71446E-04 5.79234E-35-1.15046E-07-1.09385E-18 3.50509E-22
 -1      1223 6.46486E-05-3.15680E-04 7.14580E-35 4.71151E-05-2.44216E-18-2.97868E-21
 -1      1224 7.93532E-05-2.89615E-04 1.61865E-34-8.52101E-09 1.44504E-18 2.72426E-21
 -1      1225 8.33981E-05-2.54507E-04 1.43918E-34 3.15287E-05-5.21821E-19 6.34475E-21
 -1      1226 1.01169E-04-2.36954E-04 6.64684E-35-7.44505E-08-5.94281E-18-7.77525E-21
 -1      1227 1.14682E-04-2.14963E-04 4.60977E-35 2.25482E-05-2.08001E-18-1.39650E-20
 -1      1228 1.37319E-04-2.04103E-04 7.41606E-35-4.26224E-08 3.21696E-18 4.04660E-21
 -1      1229 1.58465E-04-1.90768E-04 1.72684E-35 1.68221E-05-1.43651E-18 7.48061E-22
 -1      1230 1.87635E-04-1.86267E-04 1.48260E-34-3.01200E-08 1.10611E-18-1.07248E-20
 -1      1231 2.17632E-04-1.80318E-04 1.60654E-34 1.26518E-05-1.39137E-18 2.38322E-20
 -1      1232 2.56742E-04-1.83670E-04 2.48899E-35-1.72640E-08 1.00833E-18 4.58020E-21
 -1      1233 2.99385E-04-1.85982E-04 4.01026E-35 8.86177E-06-7.90102E-19 2.06856E-20
 -1      1234 3.55190E-04-2.01828E-04 4.58725E-34 1.15619E-08 5.33948E-18 2.31676E-20
 -1      1235 4.19240E-04-2.18444E-04 7.71616E-35 3.98333E-06-3.91208E-19-5.04689E-20
 -1      1236 4.62249E-04-2.36693E-04 8.49152E-35 1.17401E-08-3.82046E-18-1.35079E-20
 -1      1237 5.08172E-04-2.53804E-04 7.99124E-35 8.98485E-08-1.31676E-18 2.73207E-21
 -3
    1PSTEP                         4           1           1          
  100CL  101 1.000000000        1236                     0    1           1
 -4  CONTACT     6    1
 -5  COPEN       1    4    1    1
 -5  CSLIP1      1    4    2    2
 -5  CSLIP2      1    4    3    3
 -5  CPRESS      1    4    1    2
 -5  CSHEAR1     1    4    2    3
 -5  CSHEAR2     1    4    3    1
 -1         1-3.02019E-04 0.00000E+00 0.00000E+00 3.02019E+03 0.00000E+00 0.00000E+00
 -1         2 0.00000E+00 0.00000E+00 0.00000E+00 0.00000E+00 0.00000E+00 0.00000E+00
 -1         3-9.38809E-05 0.00000E+00 0.00000E+00 9.38809E+02 0.00000E+00 0.00000E+00
 -1         4 0.00000E+00 0.00000E+00 0.00000E+00 0.00000E+00 0.00000E+00 0.00000E+00
 -1         5 0.00000E+00 0.00000E+00 0.00000E+00 0.00000E+00 0.00000E+00 0.00000E+00
 -1         6 0.00000E+00 0.00000E+00 0.00000E+00 0.00000E+00 0.00000E+00 0.00000E+00
 -1         7 0.00000E+00 0.00000E+00 0.00000E+00 0.00000E+00 0.00000E+00 0.00000E+00
 -1         8 0.00000E+00 0.00000E+00 0.00000E+00 0.00000E+00 0.00000E+00 0.00000E+00
 -1         9 0.00000E+00 0.00000E+00 0.00000E+00 0.00000E+00 0.00000E+00 0.00000E+00
 -1        10 0.00000E+00 0.00000E+00 0.00000E+00 0.00000E+00 0.00000E+00 0.00000E+00
 -1        11 0.00000E+00 0.00000E+00 0.00000E+00 0.00000E+00 0.00000E+00 0.00000E+00
 -1        12 0.00000E+00 0.00000E+00 0.00000E+00 0.00000E+00 0.00000E+00 0.00000E+00
 -1        13 0.00000E+00 0.00000E+00 0.00000E+00 0.00000E+00 0.00000E+00 0.00000E+00
 -1        14 0.00000E+00 0.00000E+00 0.00000E+00 0.00000E+00 0.00000E+00 0.00000E+00
 -1        15 0.00000E+00 0.00000E+00 0.00000E+00 0.00000E+00 0.00000E+00 0.00000E+00
 -1        16 0.00000E+00 0.00000E+00 0.00000E+00 0.00000E+00 0.00000E+00 0.00000E+00
 -1        17 0.00000E+00 0.00000E+00 0.00000E+00 0.00000E+00 0.00000E+00 0.00000E+00
 -1        18 0.00000E+00 0.00000E+00 0.00000E+00 0.00000E+00 0.00000E+00 0.00000E+00
 -1        19 0.00000E+00 0.00000E+00 0.00000E+00 0.00000E+00 0.00000E+00 0.00000E+00
 -1        20 0.00000E+00 0.00000E+00 0.00000E+00 0.00000E+00 0.00000E+00 0.00000E+00
 -1        21 0.00000E+00 0.00000E+00 0.00000E+00 0.00000E+00 0.00000E+00 0.00000E+00
 -1        22 0.00000E+00 0.00000E+00 0.00000E+00 0.00000E+00 0.00000E+00 0.00000E+00
 -1        23 0.00000E+00 0.00000E+00 0.00000E+00 0.00000E+00 0.00000E+00 0.00000E+00
 -1        24 0.00000E+00 0.00000E+00 0.00000E+00 0.00000E+00 0.00000E+00 0.00000E+00
 -1        25 0.00000E+00 0.00000E+00 0.00000E+00 0.00000E+00 0.00000E+00 0.00000E+00
 -1        26 0.00000E+00 0.00000E+00 0.00000E+00 0.00000E+00 0.00000E+00 0.00000E+00
 -1        27 0.00000E+00 0.00000E+00 0.00000E+00 0.00000E+00 0.00000E+00 0.00000E+00
 -1        28 0.00000E+00 0.00000E+00 0.00000E+00 0.00000E+00 0.00000E+00 0.00000E+00
 -1        29 0.00000E+00 0.00000E+00 0.00000E+00 0.00000E+00 0.00000E+00 0.00000E+00
 -1        30 0.00000E+00 0.00000E+00 0.00000E+00 0.00000E+00 0.00000E+00 0.00000E+00
 -1        31 0.00000E+00 0.00000E+00 0.00000E+00 0.00000E+00 0.00000E+00 0.00000E+00
 -1        32 0.00000E+00 0.00000E+00 0.00000E+00 0.00000E+00 0.00000E+00 0.00000E+00
 -1        33 0.00000E+00 0.00000E+00 0.00000E+00 0.00000E+00 0.00000E+00 0.00000E+00
 -1        34 0.00000E+00 0.00000E+00 0.00000E+00 0.00000E+00 0.00000E+00 0.00000E+00
 -1        35 0.00000E+00 0.00000E+00 0.00000E+00 0.00000E+00 0.00000E+00 0.00000E+00
 -1        36 0.00000E+00 0.00000E+00 0.00000E+00 0.00000E+00 0.00000E+00 0.00000E+00
 -1        37 0.00000E+00 0.00000E+00 0.00000E+00 0.00000E+00 0.00000E+00 0.00000E+00
 -1        38 0.00000E+00 0.00000E+00 0.00000E+00 0.00000E+00 0.00000E+00 0.00000E+00
 -1        39 0.00000E+00 0.00000E+00 0.00000E+00 0.00000E+00 0.00000E+00 0.00000E+00
 -1        40 0.00000E+00 0.00000E+00 0.00000E+00 0.00000E+00 0.00000E+00 0.00000E+00
 -1        41 0.00000E+00 0.00000E+00 0.00000E+00 0.00000E+00 0.00000E+00 0.00000E+00
 -1        42 0.00000E+00 0.00000E+00 0.00000E+00 0.00000E+00 0.00000E+00 0.00000E+00
 -1        43 0.00000E+00 0.00000E+00 0.00000E+00 0.00000E+00 0.00000E+00 0.00000E+00
 -1        44 0.00000E+00 0.00000E+00 0.00000E+00 0.00000E+00 0.00000E+00 0.00000E+00
 -1        45 0.00000E+00 0.00000E+00 0.00000E+00 0.00000E+00 0.00000E+00 0.00000E+00
 -1        46 0.00000E+00 0.00000E+00 0.00000E+00 0.00000E+00 0.00000E+00 0.00000E+00
 -1        47 0.00000E+00 0.00000E+00 0.00000E+00 0.00000E+00 0.00000E+00 0.00000E+00
 -1        48 0.00000E+00 0.00000E+00 0.00000E+00 0.00000E+00 0.00000E+00 0.00000E+00
 -1        49 0.00000E+00 0.00000E+00 0.00000E+00 0.00000E+00 0.00000E+00 0.00000E+00
 -1        50 0.00000E+00 0.00000E+00 0.00000E+00 0.00000E+00 0.00000E+00 0.00000E+00
 -1        51 0.00000E+00 0.00000E+00 0.00000E+00 0.00000E+00 0.00000E+00 0.00000E+00
 -1        52 0.00000E+00 0.00000E+00 0.00000E+00 0.00000E+00 0.00000E+00 0.00000E+00
 -1        53 0.00000E+00 0.00000E+00 0.00000E+00 0.00000E+00 0.00000E+00 0.00000E+00
 -1        54 0.00000E+00 0.00000E+00 0.00000E+00 0.00000E+00 0.00000E+00 0.00000E+00
 -1        55 0.00000E+00 0.00000E+00 0.00000E+00 0.00000E+00 0.00000E+00 0.00000E+00
 -1        56 0.00000E+00 0.00000E+00 0.00000E+00 0.00000E+00 0.00000E+00 0.00000E+00
 -1        57 0.00000E+00 0.00000E+00 0.00000E+00 0.00000E+00 0.00000E+00 0.00000E+00
 -1        58 0.00000E+00 0.00000E+00 0.00000E+00 0.00000E+00 0.00000E+00 0.00000E+00
 -1        59 0.00000E+00 0.00000E+00 0.00000E+00 0.00000E+00 0.00000E+00 0.00000E+00
 -1        60 0.00000E+00 0.00000E+00 0.00000E+00 0.00000E+00 0.00000E+00 0.00000E+00
 -1        61 0.00000E+00 0.00000E+00 0.00000E+00 0.00000E+00 0.00000E+00 0.00000E+00
 -1        62 0.00000E+00 0.00000E+00 0.00000E+00 0.00000E+00 0.00000E+00 0.00000E+00
 -1        63 0.00000E+00 0.00000E+00 0.00000E+00 0.00000E+00 0.00000E+00 0.00000E+00
 -1        64 0.00000E+00 0.00000E+00 0.00000E+00 0.00000E+00 0.00000E+00 0.00000E+00
 -1        65 0.00000E+00 0.00000E+00 0.00000E+00 0.00000E+00 0.00000E+00 0.00000E+00
 -1        66 0.00000E+00 0.00000E+00 0.00000E+00 0.00000E+00 0.00000E+00 0.00000E+00
 -1        67 0.00000E+00 0.00000E+00 0.00000E+00 0.00000E+00 0.00000E+00 0.00000E+00
 -1        68 0.00000E+00 0.00000E+00 0.00000E+00 0.00000E+00 0.00000E+00 0.00000E+00
 -1        69 0.00000E+00 0.00000E+00 0.00000E+00 0.00000E+00 0.00000E+00 0.00000E+00
 -1        70 0.00000E+00 0.00000E+00 0.00000E+00 0.00000E+00 0.00000E+00 0.00000E+00
 -1        71 0.00000E+00 0.00000E+00 0.00000E+00 0.00000E+00 0.00000E+00 0.00000E+00
 -1        72 0.00000E+00 0.00000E+00 0.00000E+00 0.00000E+00 0.00000E+00 0.00000E+00
 -1        73 0.00000E+00 0.00000E+00 0.00000E+00 0.00000E+00 0.00000E+00 0.00000E+00
 -1        74 0.00000E+00 0.00000E+00 0.00000E+00 0.00000E+00 0.00000E+00 0.00000E+00
 -1        75 0.00000E+00 0.00000E+00 0.00000E+00 0.00000E+00 0.00000E+00 0.00000E+00
 -1        76 0.00000E+00 0.00000E+00 0.00000E+00 0.00000E+00 0.00000E+00 0.00000E+00
 -1        77 0.00000E+00 0.00000E+00 0.00000E+00 0.00000E+00 0.00000E+00 0.00000E+00
 -1        78 0.00000E+00 0.00000E+00 0.00000E+00 0.00000E+00 0.00000E+00 0.00000E+00
 -1        79 0.00000E+00 0.00000E+00 0.00000E+00 0.00000E+00 0.00000E+00 0.00000E+00
 -1        80 0.00000E+00 0.00000E+00 0.00000E+00 0.00000E+00 0.00000E+00 0.00000E+00
 -1        81 0.00000E+00 0.00000E+00 0.00000E+00 0.00000E+00 0.00000E+00 0.00000E+00
 -1        82 0.00000E+00 0.00000E+00 0.00000E+00 0.00000E+00 0.00000E+00 0.00000E+00
 -1        83 0.00000E+00 0.00000E+00 0.00000E+00 0.00000E+00 0.00000E+00 0.00000E+00
 -1        84 0.00000E+00 0.00000E+00 0.00000E+00 0.00000E+00 0.00000E+00 0.00000E+00
 -1        85 0.00000E+00 0.00000E+00 0.00000E+00 0.00000E+00 0.00000E+00 0.00000E+00
 -1        86 0.00000E+00 0.00000E+00 0.00000E+00 0.00000E+00 0.00000E+00 0.00000E+00
 -1        87 0.00000E+00 0.00000E+00 0.00000E+00 0.00000E+00 0.00000E+00 0.00000E+00
 -1        88 0.00000E+00 0.00000E+00 0.00000E+00 0.00000E+00 0.00000E+00 0.00000E+00
 -1        89 0.00000E+00 0.00000E+00 0.00000E+00 0.00000E+00 0.00000E+00 0.00000E+00
 -1        90 0.00000E+00 0.00000E+00 0.00000E+00 0.00000E+00 0.00000E+00 0.00000E+00
 -1        91 0.00000E+00 0.00000E+00 0.00000E+00 0.00000E+00 0.00000E+00 0.00000E+00
 -1        92 0.00000E+00 0.00000E+00 0.00000E+00 0.00000E+00 0.00000E+00 0.00000E+00
 -1        93 0.00000E+00 0.00000E+00 0.00000E+00 0.00000E+00 0.00000E+00 0.00000E+00
 -1        94 0.00000E+00 0.00000E+00 0.00000E+00 0.00000E+00 0.00000E+00 0.00000E+00
 -1        95 0.00000E+00 0.00000E+00 0.00000E+00 0.00000E+00 0.00000E+00 0.00000E+00
 -1        96 0.00000E+00 0.00000E+00 0.00000E+00 0.00000E+00 0.00000E+00 0.00000E+00
 -1        97 0.00000E+00 0.00000E+00 0.00000E+00 0.00000E+00 0.00000E+00 0.00000E+00
 -1        98 0.00000E+00 0.00000E+00 0.00000E+00 0.00000E+00 0.00000E+00 0.00000E+00
 -1        99 0.00000E+00 0.00000E+00 0.00000E+00 0.00000E+00 0.00000E+00 0.00000E+00
 -1       100 0.00000E+00 0.00000E+00 0.00000E+00 0.00000E+00 0.00000E+00 0.00000E+00
 -1       101 0.00000E+00 0.00000E+00 0.00000E+00 0.00000E+00 0.00000E+00 0.00000E+00
 -1       102 0.00000E+00 0.00000E+00 0.00000E+00 0.00000E+00 0.00000E+00 0.00000E+00
 -1       103 0.00000E+00 0.00000E+00 0.00000E+00 0.00000E+00 0.00000E+00 0.00000E+00
 -1       104 0.00000E+00 0.00000E+00 0.00000E+00 0.00000E+00 0.00000E+00 0.00000E+00
 -1       105 0.00000E+00 0.00000E+00 0.00000E+00 0.00000E+00 0.00000E+00 0.00000E+00
 -1       106 0.00000E+00 0.00000E+00 0.00000E+00 0.00000E+00 0.00000E+00 0.00000E+00
 -1       107 0.00000E+00 0.00000E+00 0.00000E+00 0.00000E+00 0.00000E+00 0.00000E+00
 -1       108 0.00000E+00 0.00000E+00 0.00000E+00 0.00000E+00 0.00000E+00 0.00000E+00
 -1       109 0.00000E+00 0.00000E+00 0.00000E+00 0.00000E+00 0.00000E+00 0.00000E+00
 -1       110 0.00000E+00 0.00000E+00 0.00000E+00 0.00000E+00 0.00000E+00 0.00000E+00
 -1       111 0.00000E+00 0.00000E+00 0.00000E+00 0.00000E+00 0.00000E+00 0.00000E+00
 -1       112 0.00000E+00 0.00000E+00 0.00000E+00 0.00000E+00 0.00000E+00 0.00000E+00
 -1       113 0.00000E+00 0.00000E+00 0.00000E+00 0.00000E+00 0.00000E+00 0.00000E+00
 -1       114 0.00000E+00 0.00000E+00 0.00000E+00 0.00000E+00 0.00000E+00 0.00000E+00
 -1       115 0.00000E+00 0.00000E+00 0.00000E+00 0.00000E+00 0.00000E+00 0.00000E+00
 -1       116 0.00000E+00 0.00000E+00 0.00000E+00 0.00000E+00 0.00000E+00 0.00000E+00
 -1       117 0.00000E+00 0.00000E+00 0.00000E+00 0.00000E+00 0.00000E+00 0.00000E+00
 -1       118 0.00000E+00 0.00000E+00 0.00000E+00 0.00000E+00 0.00000E+00 0.00000E+00
 -1       119 0.00000E+00 0.00000E+00 0.00000E+00 0.00000E+00 0.00000E+00 0.00000E+00
 -1       120 0.00000E+00 0.00000E+00 0.00000E+00 0.00000E+00 0.00000E+00 0.00000E+00
 -1       121 0.00000E+00 0.00000E+00 0.00000E+00 0.00000E+00 0.00000E+00 0.00000E+00
 -1       122 0.00000E+00 0.00000E+00 0.00000E+00 0.00000E+00 0.00000E+00 0.00000E+00
 -1       123 0.00000E+00 0.00000E+00 0.00000E+00 0.00000E+00 0.00000E+00 0.00000E+00
 -1       124 0.00000E+00 0.00000E+00 0.00000E+00 0.00000E+00 0.00000E+00 0.00000E+00
 -1       125 0.00000E+00 0.00000E+00 0.00000E+00 0.00000E+00 0.00000E+00 0.00000E+00
 -1       126 0.00000E+00 0.00000E+00 0.00000E+00 0.00000E+00 0.00000E+00 0.00000E+00
 -1       127 0.00000E+00 0.00000E+00 0.00000E+00 0.00000E+00 0.00000E+00 0.00000E+00
 -1       128 0.00000E+00 0.00000E+00 0.00000E+00 0.00000E+00 0.00000E+00 0.00000E+00
 -1       129 0.00000E+00 0.00000E+00 0.00000E+00 0.00000E+00 0.00000E+00 0.00000E+00
 -1       130 0.00000E+00 0.00000E+00 0.00000E+00 0.00000E+00 0.00000E+00 0.00000E+00
 -1       131 0.00000E+00 0.00000E+00 0.00000E+00 0.00000E+00 0.00000E+00 0.00000E+00
 -1       132 0.00000E+00 0.00000E+00 0.00000E+00 0.00000E+00 0.00000E+00 0.00000E+00
 -1       133 0.00000E+00 0.00000E+00 0.00000E+00 0.00000E+00 0.00000E+00 0.00000E+00
 -1       134 0.00000E+00 0.00000E+00 0.00000E+00 0.00000E+00 0.00000E+00 0.00000E+00
 -1       135 0.00000E+00 0.00000E+00 0.00000E+00 0.00000E+00 0.00000E+00 0.00000E+00
 -1       136 0.00000E+00 0.00000E+00 0.00000E+00 0.00000E+00 0.00000E+00 0.00000E+00
 -1       137 0.00000E+00 0.00000E+00 0.00000E+00 0.00000E+00 0.00000E+00 0.00000E+00
 -1       138 0.00000E+00 0.00000E+00 0.00000E+00 0.00000E+00 0.00000E+00 0.00000E+00
 -1       139 0.00000E+00 0.00000E+00 0.00000E+00 0.00000E+00 0.00000E+00 0.00000E+00
 -1       140 0.00000E+00 0.00000E+00 0.00000E+00 0.00000E+00 0.00000E+00 0.00000E+00
 -1       141 0.00000E+00 0.00000E+00 0.00000E+00 0.00000E+00 0.00000E+00 0.00000E+00
 -1       142 0.00000E+00 0.00000E+00 0.00000E+00 0.00000E+00 0.00000E+00 0.00000E+00
 -1       143 0.00000E+00 0.00000E+00 0.00000E+00 0.00000E+00 0.00000E+00 0.00000E+00
 -1       144 0.00000E+00 0.00000E+00 0.00000E+00 0.00000E+00 0.00000E+00 0.00000E+00
 -1       145 0.00000E+00 0.00000E+00 0.00000E+00 0.00000E+00 0.00000E+00 0.00000E+00
 -1       146 0.00000E+00 0.00000E+00 0.00000E+00 0.00000E+00 0.00000E+00 0.00000E+00
 -1       147 0.00000E+00 0.00000E+00 0.00000E+00 0.00000E+00 0.00000E+00 0.00000E+00
 -1       148 0.00000E+00 0.00000E+00 0.00000E+00 0.00000E+00 0.00000E+00 0.00000E+00
 -1       149 0.00000E+00 0.00000E+00 0.00000E+00 0.00000E+00 0.00000E+00 0.00000E+00
 -1       150 0.00000E+00 0.00000E+00 0.00000E+00 0.00000E+00 0.00000E+00 0.00000E+00
 -1       151 0.00000E+00 0.00000E+00 0.00000E+00 0.00000E+00 0.00000E+00 0.00000E+00
 -1       152 0.00000E+00 0.00000E+00 0.00000E+00 0.00000E+00 0.00000E+00 0.00000E+00
 -1       153 0.00000E+00 0.00000E+00 0.00000E+00 0.00000E+00 0.00000E+00 0.00000E+00
 -1       154 0.00000E+00 0.00000E+00 0.00000E+00 0.00000E+00 0.00000E+00 0.00000E+00
 -1       155 0.00000E+00 0.00000E+00 0.00000E+00 0.00000E+00 0.00000E+00 0.00000E+00
 -1       156 0.00000E+00 0.00000E+00 0.00000E+00 0.00000E+00 0.00000E+00 0.00000E+00
 -1       157 0.00000E+00 0.00000E+00 0.00000E+00 0.00000E+00 0.00000E+00 0.00000E+00
 -1       158 0.00000E+00 0.00000E+00 0.00000E+00 0.00000E+00 0.00000E+00 0.00000E+00
 -1       159 0.00000E+00 0.00000E+00 0.00000E+00 0.00000E+00 0.00000E+00 0.00000E+00
 -1       160 0.00000E+00 0.00000E+00 0.00000E+00 0.00000E+00 0.00000E+00 0.00000E+00
 -1       161 0.00000E+00 0.00000E+00 0.00000E+00 0.00000E+00 0.00000E+00 0.00000E+00
 -1       162 0.00000E+00 0.00000E+00 0.00000E+00 0.00000E+00 0.00000E+00 0.00000E+00
 -1       163 0.00000E+00 0.00000E+00 0.00000E+00 0.00000E+00 0.00000E+00 0.00000E+00
 -1       164 0.00000E+00 0.00000E+00 0.00000E+00 0.00000E+00 0.00000E+00 0.00000E+00
 -1       165 0.00000E+00 0.00000E+00 0.00000E+00 0.00000E+00 0.00000E+00 0.00000E+00
 -1       166 0.00000E+00 0.00000E+00 0.00000E+00 0.00000E+00 0.00000E+00 0.00000E+00
 -1       167 0.00000E+00 0.00000E+00 0.00000E+00 0.00000E+00 0.00000E+00 0.00000E+00
 -1       168 0.00000E+00 0.00000E+00 0.00000E+00 0.00000E+00 0.00000E+00 0.00000E+00
 -1       169 0.00000E+00 0.00000E+00 0.00000E+00 0.00000E+00 0.00000E+00 0.00000E+00
 -1       170 0.00000E+00 0.00000E+00 0.00000E+00 0.00000E+00 0.00000E+00 0.00000E+00
 -1       171 0.00000E+00 0.00000E+00 0.00000E+00 0.00000E+00 0.00000E+00 0.00000E+00
 -1       172 0.00000E+00 0.00000E+00 0.00000E+00 0.00000E+00 0.00000E+00 0.00000E+00
 -1       173 0.00000E+00 0.00000E+00 0.00000E+00 0.00000E+00 0.00000E+00 0.00000E+00
 -1       174 0.00000E+00 0.00000E+00 0.00000E+00 0.00000E+00 0.00000E+00 0.00000E+00
 -1       175 0.00000E+00 0.00000E+00 0.00000E+00 0.00000E+00 0.00000E+00 0.00000E+00
 -1       176 0.00000E+00 0.00000E+00 0.00000E+00 0.00000E+00 0.00000E+00 0.00000E+00
 -1       177 0.00000E+00 0.00000E+00 0.00000E+00 0.00000E+00 0.00000E+00 0.00000E+00
 -1       178 0.00000E+00 0.00000E+00 0.00000E+00 0.00000E+00 0.00000E+00 0.00000E+00
 -1       179 0.00000E+00 0.00000E+00 0.00000E+00 0.00000E+00 0.00000E+00 0.00000E+00
 -1       180 0.00000E+00 0.00000E+00 0.00000E+00 0.00000E+00 0.00000E+00 0.00000E+00
 -1       181 0.00000E+00 0.00000E+00 0.00000E+00 0.00000E+00 0.00000E+00 0.00000E+00
 -1       182 0.00000E+00 0.00000E+00 0.00000E+00 0.00000E+00 0.00000E+00 0.00000E+00
 -1       183 0.00000E+00 0.00000E+00 0.00000E+00 0.00000E+00 0.00000E+00 0.00000E+00
 -1       184 0.00000E+00 0.00000E+00 0.00000E+00 0.00000E+00 0.00000E+00 0.00000E+00
 -1       185 0.00000E+00 0.00000E+00 0.00000E+00 0.00000E+00 0.00000E+00 0.00000E+00
 -1       186 0.00000E+00 0.00000E+00 0.00000E+00 0.00000E+00 0.00000E+00 0.00000E+00
 -1       187 0.00000E+00 0.00000E+00 0.00000E+00 0.00000E+00 0.00000E+00 0.00000E+00
 -1       188 0.00000E+00 0.00000E+00 0.00000E+00 0.00000E+00 0.00000E+00 0.00000E+00
 -1       189 0.00000E+00 0.00000E+00 0.00000E+00 0.00000E+00 0.00000E+00 0.00000E+00
 -1       190 0.00000E+00 0.00000E+00 0.00000E+00 0.00000E+00 0.00000E+00 0.00000E+00
 -1       191 0.00000E+00 0.00000E+00 0.00000E+00 0.00000E+00 0.00000E+00 0.00000E+00
 -1       192 0.00000E+00 0.00000E+00 0.00000E+00 0.00000E+00 0.00000E+00 0.00000E+00
 -1       193 0.00000E+00 0.00000E+00 0.00000E+00 0.00000E+00 0.00000E+00 0.00000E+00
 -1       194 0.00000E+00 0.00000E+00 0.00000E+00 0.00000E+00 0.00000E+00 0.00000E+00
 -1       195 0.00000E+00 0.00000E+00 0.00000E+00 0.00000E+00 0.00000E+00 0.00000E+00
 -1       196 0.00000E+00 0.00000E+00 0.00000E+00 0.00000E+00 0.00000E+00 0.00000E+00
 -1       197 0.00000E+00 0.00000E+00 0.00000E+00 0.00000E+00 0.00000E+00 0.00000E+00
 -1       199 0.00000E+00 0.00000E+00 0.00000E+00 0.00000E+00 0.00000E+00 0.00000E+00
 -1       200 0.00000E+00 0.00000E+00 0.00000E+00 0.00000E+00 0.00000E+00 0.00000E+00
 -1       201 0.00000E+00 0.00000E+00 0.00000E+00 0.00000E+00 0.00000E+00 0.00000E+00
 -1       202 0.00000E+00 0.00000E+00 0.00000E+00 0.00000E+00 0.00000E+00 0.00000E+00
 -1       203 0.00000E+00 0.00000E+00 0.00000E+00 0.00000E+00 0.00000E+00 0.00000E+00
 -1       204 0.00000E+00 0.00000E+00 0.00000E+00 0.00000E+00 0.00000E+00 0.00000E+00
 -1       205 0.00000E+00 0.00000E+00 0.00000E+00 0.00000E+00 0.00000E+00 0.00000E+00
 -1       206 0.00000E+00 0.00000E+00 0.00000E+00 0.00000E+00 0.00000E+00 0.00000E+00
 -1       207 0.00000E+00 0.00000E+00 0.00000E+00 0.00000E+00 0.00000E+00 0.00000E+00
 -1       208 0.00000E+00 0.00000E+00 0.00000E+00 0.00000E+00 0.00000E+00 0.00000E+00
 -1       209 0.00000E+00 0.00000E+00 0.00000E+00 0.00000E+00 0.00000E+00 0.00000E+00
 -1       210 0.00000E+00 0.00000E+00 0.00000E+00 0.00000E+00 0.00000E+00 0.00000E+00
 -1       211 0.00000E+00 0.00000E+00 0.00000E+00 0.00000E+00 0.00000E+00 0.00000E+00
 -1       212 0.00000E+00 0.00000E+00 0.00000E+00 0.00000E+00 0.00000E+00 0.00000E+00
 -1       213 0.00000E+00 0.00000E+00 0.00000E+00 0.00000E+00 0.00000E+00 0.00000E+00
 -1       214 0.00000E+00 0.00000E+00 0.00000E+00 0.00000E+00 0.00000E+00 0.00000E+00
 -1       215 0.00000E+00 0.00000E+00 0.00000E+00 0.00000E+00 0.00000E+00 0.00000E+00
 -1       216 0.00000E+00 0.00000E+00 0.00000E+00 0.00000E+00 0.00000E+00 0.00000E+00
 -1       217 0.00000E+00 0.00000E+00 0.00000E+00 0.00000E+00 0.00000E+00 0.00000E+00
 -1       218 0.00000E+00 0.00000E+00 0.00000E+00 0.00000E+00 0.00000E+00 0.00000E+00
 -1       219 0.00000E+00 0.00000E+00 0.00000E+00 0.00000E+00 0.00000E+00 0.00000E+00
 -1       220 0.00000E+00 0.00000E+00 0.00000E+00 0.00000E+00 0.00000E+00 0.00000E+00
 -1       221 0.00000E+00 0.00000E+00 0.00000E+00 0.00000E+00 0.00000E+00 0.00000E+00
 -1       222 0.00000E+00 0.00000E+00 0.00000E+00 0.00000E+00 0.00000E+00 0.00000E+00
 -1       223 0.00000E+00 0.00000E+00 0.00000E+00 0.00000E+00 0.00000E+00 0.00000E+00
 -1       224 0.00000E+00 0.00000E+00 0.00000E+00 0.00000E+00 0.00000E+00 0.00000E+00
 -1       225 0.00000E+00 0.00000E+00 0.00000E+00 0.00000E+00 0.00000E+00 0.00000E+00
 -1       226 0.00000E+00 0.00000E+00 0.00000E+00 0.00000E+00 0.00000E+00 0.00000E+00
 -1       227 0.00000E+00 0.00000E+00 0.00000E+00 0.00000E+00 0.00000E+00 0.00000E+00
 -1       228 0.00000E+00 0.00000E+00 0.00000E+00 0.00000E+00 0.00000E+00 0.00000E+00
 -1       229 0.00000E+00 0.00000E+00 0.00000E+00 0.00000E+00 0.00000E+00 0.00000E+00
 -1       230 0.00000E+00 0.00000E+00 0.00000E+00 0.00000E+00 0.00000E+00 0.00000E+00
 -1       231 0.00000E+00 0.00000E+00 0.00000E+00 0.00000E+00 0.00000E+00 0.00000E+00
 -1       232 0.00000E+00 0.00000E+00 0.00000E+00 0.00000E+00 0.00000E+00 0.00000E+00
 -1       233 0.00000E+00 0.00000E+00 0.00000E+00 0.00000E+00 0.00000E+00 0.00000E+00
 -1       234 0.00000E+00 0.00000E+00 0.00000E+00 0.00000E+00 0.00000E+00 0.00000E+00
 -1       235 0.00000E+00 0.00000E+00 0.00000E+00 0.00000E+00 0.00000E+00 0.00000E+00
 -1       236 0.00000E+00 0.00000E+00 0.00000E+00 0.00000E+00 0.00000E+00 0.00000E+00
 -1       237 0.00000E+00 0.00000E+00 0.00000E+00 0.00000E+00 0.00000E+00 0.00000E+00
 -1       238 0.00000E+00 0.00000E+00 0.00000E+00 0.00000E+00 0.00000E+00 0.00000E+00
 -1       239 0.00000E+00 0.00000E+00 0.00000E+00 0.00000E+00 0.00000E+00 0.00000E+00
 -1       240 0.00000E+00 0.00000E+00 0.00000E+00 0.00000E+00 0.00000E+00 0.00000E+00
 -1       241 0.00000E+00 0.00000E+00 0.00000E+00 0.00000E+00 0.00000E+00 0.00000E+00
 -1       242 0.00000E+00 0.00000E+00 0.00000E+00 0.00000E+00 0.00000E+00 0.00000E+00
 -1       243 0.00000E+00 0.00000E+00 0.00000E+00 0.00000E+00 0.00000E+00 0.00000E+00
 -1       244 0.00000E+00 0.00000E+00 0.00000E+00 0.00000E+00 0.00000E+00 0.00000E+00
 -1       245 0.00000E+00 0.00000E+00 0.00000E+00 0.00000E+00 0.00000E+00 0.00000E+00
 -1       246 0.00000E+00 0.00000E+00 0.00000E+00 0.00000E+00 0.00000E+00 0.00000E+00
 -1       247 0.00000E+00 0.00000E+00 0.00000E+00 0.00000E+00 0.00000E+00 0.00000E+00
 -1       248 0.00000E+00 0.00000E+00 0.00000E+00 0.00000E+00 0.00000E+00 0.00000E+00
 -1       249 0.00000E+00 0.00000E+00 0.00000E+00 0.00000E+00 0.00000E+00 0.00000E+00
 -1       250 0.00000E+00 0.00000E+00 0.00000E+00 0.00000E+00 0.00000E+00 0.00000E+00
 -1       251 0.00000E+00 0.00000E+00 0.00000E+00 0.00000E+00 0.00000E+00 0.00000E+00
 -1       252 0.00000E+00 0.00000E+00 0.00000E+00 0.00000E+00 0.00000E+00 0.00000E+00
 -1       253 0.00000E+00 0.00000E+00 0.00000E+00 0.00000E+00 0.00000E+00 0.00000E+00
 -1       254 0.00000E+00 0.00000E+00 0.00000E+00 0.00000E+00 0.00000E+00 0.00000E+00
 -1       255 0.00000E+00 0.00000E+00 0.00000E+00 0.00000E+00 0.00000E+00 0.00000E+00
 -1       256 0.00000E+00 0.00000E+00 0.00000E+00 0.00000E+00 0.00000E+00 0.00000E+00
 -1       257 0.00000E+00 0.00000E+00 0.00000E+00 0.00000E+00 0.00000E+00 0.00000E+00
 -1       258 0.00000E+00 0.00000E+00 0.00000E+00 0.00000E+00 0.00000E+00 0.00000E+00
 -1       259 0.00000E+00 0.00000E+00 0.00000E+00 0.00000E+00 0.00000E+00 0.00000E+00
 -1       260 0.00000E+00 0.00000E+00 0.00000E+00 0.00000E+00 0.00000E+00 0.00000E+00
 -1       261 0.00000E+00 0.00000E+00 0.00000E+00 0.00000E+00 0.00000E+00 0.00000E+00
 -1       262 0.00000E+00 0.00000E+00 0.00000E+00 0.00000E+00 0.00000E+00 0.00000E+00
 -1       263 0.00000E+00 0.00000E+00 0.00000E+00 0.00000E+00 0.00000E+00 0.00000E+00
 -1       264 0.00000E+00 0.00000E+00 0.00000E+00 0.00000E+00 0.00000E+00 0.00000E+00
 -1       265 0.00000E+00 0.00000E+00 0.00000E+00 0.00000E+00 0.00000E+00 0.00000E+00
 -1       266 0.00000E+00 0.00000E+00 0.00000E+00 0.00000E+00 0.00000E+00 0.00000E+00
 -1       267 0.00000E+00 0.00000E+00 0.00000E+00 0.00000E+00 0.00000E+00 0.00000E+00
 -1       268 0.00000E+00 0.00000E+00 0.00000E+00 0.00000E+00 0.00000E+00 0.00000E+00
 -1       269 0.00000E+00 0.00000E+00 0.00000E+00 0.00000E+00 0.00000E+00 0.00000E+00
 -1       270 0.00000E+00 0.00000E+00 0.00000E+00 0.00000E+00 0.00000E+00 0.00000E+00
 -1       271 0.00000E+00 0.00000E+00 0.00000E+00 0.00000E+00 0.00000E+00 0.00000E+00
 -1       272 0.00000E+00 0.00000E+00 0.00000E+00 0.00000E+00 0.00000E+00 0.00000E+00
 -1       273 0.00000E+00 0.00000E+00 0.00000E+00 0.00000E+00 0.00000E+00 0.00000E+00
 -1       274 0.00000E+00 0.00000E+00 0.00000E+00 0.00000E+00 0.00000E+00 0.00000E+00
 -1       275 0.00000E+00 0.00000E+00 0.00000E+00 0.00000E+00 0.00000E+00 0.00000E+00
 -1       276 0.00000E+00 0.00000E+00 0.00000E+00 0.00000E+00 0.00000E+00 0.00000E+00
 -1       277 0.00000E+00 0.00000E+00 0.00000E+00 0.00000E+00 0.00000E+00 0.00000E+00
 -1       278 0.00000E+00 0.00000E+00 0.00000E+00 0.00000E+00 0.00000E+00 0.00000E+00
 -1       279 0.00000E+00 0.00000E+00 0.00000E+00 0.00000E+00 0.00000E+00 0.00000E+00
 -1       280 0.00000E+00 0.00000E+00 0.00000E+00 0.00000E+00 0.00000E+00 0.00000E+00
 -1       281 0.00000E+00 0.00000E+00 0.00000E+00 0.00000E+00 0.00000E+00 0.00000E+00
 -1       282 0.00000E+00 0.00000E+00 0.00000E+00 0.00000E+00 0.00000E+00 0.00000E+00
 -1       283 0.00000E+00 0.00000E+00 0.00000E+00 0.00000E+00 0.00000E+00 0.00000E+00
 -1       284 0.00000E+00 0.00000E+00 0.00000E+00 0.00000E+00 0.00000E+00 0.00000E+00
 -1       285 0.00000E+00 0.00000E+00 0.00000E+00 0.00000E+00 0.00000E+00 0.00000E+00
 -1       286 0.00000E+00 0.00000E+00 0.00000E+00 0.00000E+00 0.00000E+00 0.00000E+00
 -1       287 0.00000E+00 0.00000E+00 0.00000E+00 0.00000E+00 0.00000E+00 0.00000E+00
 -1       288 0.00000E+00 0.00000E+00 0.00000E+00 0.00000E+00 0.00000E+00 0.00000E+00
 -1       289 0.00000E+00 0.00000E+00 0.00000E+00 0.00000E+00 0.00000E+00 0.00000E+00
 -1       290 0.00000E+00 0.00000E+00 0.00000E+00 0.00000E+00 0.00000E+00 0.00000E+00
 -1       291 0.00000E+00 0.00000E+00 0.00000E+00 0.00000E+00 0.00000E+00 0.00000E+00
 -1       292 0.00000E+00 0.00000E+00 0.00000E+00 0.00000E+00 0.00000E+00 0.00000E+00
 -1       293 0.00000E+00 0.00000E+00 0.00000E+00 0.00000E+00 0.00000E+00 0.00000E+00
 -1       294 0.00000E+00 0.00000E+00 0.00000E+00 0.00000E+00 0.00000E+00 0.00000E+00
 -1       295 0.00000E+00 0.00000E+00 0.00000E+00 0.00000E+00 0.00000E+00 0.00000E+00
 -1       296 0.00000E+00 0.00000E+00 0.00000E+00 0.00000E+00 0.00000E+00 0.00000E+00
 -1       297 0.00000E+00 0.00000E+00 0.00000E+00 0.00000E+00 0.00000E+00 0.00000E+00
 -1       298 0.00000E+00 0.00000E+00 0.00000E+00 0.00000E+00 0.00000E+00 0.00000E+00
 -1       299 0.00000E+00 0.00000E+00 0.00000E+00 0.00000E+00 0.00000E+00 0.00000E+00
 -1       300 0.00000E+00 0.00000E+00 0.00000E+00 0.00000E+00 0.00000E+00 0.00000E+00
 -1       301 0.00000E+00 0.00000E+00 0.00000E+00 0.00000E+00 0.00000E+00 0.00000E+00
 -1       302 0.00000E+00 0.00000E+00 0.00000E+00 0.00000E+00 0.00000E+00 0.00000E+00
 -1       303 0.00000E+00 0.00000E+00 0.00000E+00 0.00000E+00 0.00000E+00 0.00000E+00
 -1       304 0.00000E+00 0.00000E+00 0.00000E+00 0.00000E+00 0.00000E+00 0.00000E+00
 -1       305 0.00000E+00 0.00000E+00 0.00000E+00 0.00000E+00 0.00000E+00 0.00000E+00
 -1       306 0.00000E+00 0.00000E+00 0.00000E+00 0.00000E+00 0.00000E+00 0.00000E+00
 -1       307 0.00000E+00 0.00000E+00 0.00000E+00 0.00000E+00 0.00000E+00 0.00000E+00
 -1       308 0.00000E+00 0.00000E+00 0.00000E+00 0.00000E+00 0.00000E+00 0.00000E+00
 -1       309 0.00000E+00 0.00000E+00 0.00000E+00 0.00000E+00 0.00000E+00 0.00000E+00
 -1       310 0.00000E+00 0.00000E+00 0.00000E+00 0.00000E+00 0.00000E+00 0.00000E+00
 -1       311 0.00000E+00 0.00000E+00 0.00000E+00 0.00000E+00 0.00000E+00 0.00000E+00
 -1       312 0.00000E+00 0.00000E+00 0.00000E+00 0.00000E+00 0.00000E+00 0.00000E+00
 -1       313 0.00000E+00 0.00000E+00 0.00000E+00 0.00000E+00 0.00000E+00 0.00000E+00
 -1       314 0.00000E+00 0.00000E+00 0.00000E+00 0.00000E+00 0.00000E+00 0.00000E+00
 -1       315 0.00000E+00 0.00000E+00 0.00000E+00 0.00000E+00 0.00000E+00 0.00000E+00
 -1       316 0.00000E+00 0.00000E+00 0.00000E+00 0.00000E+00 0.00000E+00 0.00000E+00
 -1       317 0.00000E+00 0.00000E+00 0.00000E+00 0.00000E+00 0.00000E+00 0.00000E+00
 -1       318 0.00000E+00 0.00000E+00 0.00000E+00 0.00000E+00 0.00000E+00 0.00000E+00
 -1       319 0.00000E+00 0.00000E+00 0.00000E+00 0.00000E+00 0.00000E+00 0.00000E+00
 -1       320 0.00000E+00 0.00000E+00 0.00000E+00 0.00000E+00 0.00000E+00 0.00000E+00
 -1       321 0.00000E+00 0.00000E+00 0.00000E+00 0.00000E+00 0.00000E+00 0.00000E+00
 -1       322 0.00000E+00 0.00000E+00 0.00000E+00 0.00000E+00 0.00000E+00 0.00000E+00
 -1       323 0.00000E+00 0.00000E+00 0.00000E+00 0.00000E+00 0.00000E+00 0.00000E+00
 -1       324 0.00000E+00 0.00000E+00 0.00000E+00 0.00000E+00 0.00000E+00 0.00000E+00
 -1       325 0.00000E+00 0.00000E+00 0.00000E+00 0.00000E+00 0.00000E+00 0.00000E+00
 -1       326 0.00000E+00 0.00000E+00 0.00000E+00 0.00000E+00 0.00000E+00 0.00000E+00
 -1       327 0.00000E+00 0.00000E+00 0.00000E+00 0.00000E+00 0.00000E+00 0.00000E+00
 -1       328 0.00000E+00 0.00000E+00 0.00000E+00 0.00000E+00 0.00000E+00 0.00000E+00
 -1       329 0.00000E+00 0.00000E+00 0.00000E+00 0.00000E+00 0.00000E+00 0.00000E+00
 -1       330 0.00000E+00 0.00000E+00 0.00000E+00 0.00000E+00 0.00000E+00 0.00000E+00
 -1       331 0.00000E+00 0.00000E+00 0.00000E+00 0.00000E+00 0.00000E+00 0.00000E+00
 -1       332 0.00000E+00 0.00000E+00 0.00000E+00 0.00000E+00 0.00000E+00 0.00000E+00
 -1       333 0.00000E+00 0.00000E+00 0.00000E+00 0.00000E+00 0.00000E+00 0.00000E+00
 -1       334 0.00000E+00 0.00000E+00 0.00000E+00 0.00000E+00 0.00000E+00 0.00000E+00
 -1       335 0.00000E+00 0.00000E+00 0.00000E+00 0.00000E+00 0.00000E+00 0.00000E+00
 -1       336 0.00000E+00 0.00000E+00 0.00000E+00 0.00000E+00 0.00000E+00 0.00000E+00
 -1       337 0.00000E+00 0.00000E+00 0.00000E+00 0.00000E+00 0.00000E+00 0.00000E+00
 -1       338 0.00000E+00 0.00000E+00 0.00000E+00 0.00000E+00 0.00000E+00 0.00000E+00
 -1       339 0.00000E+00 0.00000E+00 0.00000E+00 0.00000E+00 0.00000E+00 0.00000E+00
 -1       340 0.00000E+00 0.00000E+00 0.00000E+00 0.00000E+00 0.00000E+00 0.00000E+00
 -1       341 0.00000E+00 0.00000E+00 0.00000E+00 0.00000E+00 0.00000E+00 0.00000E+00
 -1       342 0.00000E+00 0.00000E+00 0.00000E+00 0.00000E+00 0.00000E+00 0.00000E+00
 -1       343 0.00000E+00 0.00000E+00 0.00000E+00 0.00000E+00 0.00000E+00 0.00000E+00
 -1       344 0.00000E+00 0.00000E+00 0.00000E+00 0.00000E+00 0.00000E+00 0.00000E+00
 -1       345 0.00000E+00 0.00000E+00 0.00000E+00 0.00000E+00 0.00000E+00 0.00000E+00
 -1       346 0.00000E+00 0.00000E+00 0.00000E+00 0.00000E+00 0.00000E+00 0.00000E+00
 -1       347 0.00000E+00 0.00000E+00 0.00000E+00 0.00000E+00 0.00000E+00 0.00000E+00
 -1       348 0.00000E+00 0.00000E+00 0.00000E+00 0.00000E+00 0.00000E+00 0.00000E+00
 -1       349 0.00000E+00 0.00000E+00 0.00000E+00 0.00000E+00 0.00000E+00 0.00000E+00
 -1       350 0.00000E+00 0.00000E+00 0.00000E+00 0.00000E+00 0.00000E+00 0.00000E+00
 -1       351 0.00000E+00 0.00000E+00 0.00000E+00 0.00000E+00 0.00000E+00 0.00000E+00
 -1       352 0.00000E+00 0.00000E+00 0.00000E+00 0.00000E+00 0.00000E+00 0.00000E+00
 -1       353 0.00000E+00 0.00000E+00 0.00000E+00 0.00000E+00 0.00000E+00 0.00000E+00
 -1       354 0.00000E+00 0.00000E+00 0.00000E+00 0.00000E+00 0.00000E+00 0.00000E+00
 -1       355 0.00000E+00 0.00000E+00 0.00000E+00 0.00000E+00 0.00000E+00 0.00000E+00
 -1       356 0.00000E+00 0.00000E+00 0.00000E+00 0.00000E+00 0.00000E+00 0.00000E+00
 -1       357 0.00000E+00 0.00000E+00 0.00000E+00 0.00000E+00 0.00000E+00 0.00000E+00
 -1       358 0.00000E+00 0.00000E+00 0.00000E+00 0.00000E+00 0.00000E+00 0.00000E+00
 -1       359 0.00000E+00 0.00000E+00 0.00000E+00 0.00000E+00 0.00000E+00 0.00000E+00
 -1       360 0.00000E+00 0.00000E+00 0.00000E+00 0.00000E+00 0.00000E+00 0.00000E+00
 -1       361 0.00000E+00 0.00000E+00 0.00000E+00 0.00000E+00 0.00000E+00 0.00000E+00
 -1       362 0.00000E+00 0.00000E+00 0.00000E+00 0.00000E+00 0.00000E+00 0.00000E+00
 -1       363 0.00000E+00 0.00000E+00 0.00000E+00 0.00000E+00 0.00000E+00 0.00000E+00
 -1       364 0.00000E+00 0.00000E+00 0.00000E+00 0.00000E+00 0.00000E+00 0.00000E+00
 -1       365 0.00000E+00 0.00000E+00 0.00000E+00 0.00000E+00 0.00000E+00 0.00000E+00
 -1       366 0.00000E+00 0.00000E+00 0.00000E+00 0.00000E+00 0.00000E+00 0.00000E+00
 -1       367 0.00000E+00 0.00000E+00 0.00000E+00 0.00000E+00 0.00000E+00 0.00000E+00
 -1       368 0.00000E+00 0.00000E+00 0.00000E+00 0.00000E+00 0.00000E+00 0.00000E+00
 -1       369 0.00000E+00 0.00000E+00 0.00000E+00 0.00000E+00 0.00000E+00 0.00000E+00
 -1       370 0.00000E+00 0.00000E+00 0.00000E+00 0.00000E+00 0.00000E+00 0.00000E+00
 -1       371 0.00000E+00 0.00000E+00 0.00000E+00 0.00000E+00 0.00000E+00 0.00000E+00
 -1       372 0.00000E+00 0.00000E+00 0.00000E+00 0.00000E+00 0.00000E+00 0.00000E+00
 -1       373 0.00000E+00 0.00000E+00 0.00000E+00 0.00000E+00 0.00000E+00 0.00000E+00
 -1       374 0.00000E+00 0.00000E+00 0.00000E+00 0.00000E+00 0.00000E+00 0.00000E+00
 -1       375 0.00000E+00 0.00000E+00 0.00000E+00 0.00000E+00 0.00000E+00 0.00000E+00
 -1       376 0.00000E+00 0.00000E+00 0.00000E+00 0.00000E+00 0.00000E+00 0.00000E+00
 -1       377 0.00000E+00 0.00000E+00 0.00000E+00 0.00000E+00 0.00000E+00 0.00000E+00
 -1       378 0.00000E+00 0.00000E+00 0.00000E+00 0.00000E+00 0.00000E+00 0.00000E+00
 -1       379 0.00000E+00 0.00000E+00 0.00000E+00 0.00000E+00 0.00000E+00 0.00000E+00
 -1       380 0.00000E+00 0.00000E+00 0.00000E+00 0.00000E+00 0.00000E+00 0.00000E+00
 -1       381 0.00000E+00 0.00000E+00 0.00000E+00 0.00000E+00 0.00000E+00 0.00000E+00
 -1       382 0.00000E+00 0.00000E+00 0.00000E+00 0.00000E+00 0.00000E+00 0.00000E+00
 -1       383 0.00000E+00 0.00000E+00 0.00000E+00 0.00000E+00 0.00000E+00 0.00000E+00
 -1       384 0.00000E+00 0.00000E+00 0.00000E+00 0.00000E+00 0.00000E+00 0.00000E+00
 -1       385 0.00000E+00 0.00000E+00 0.00000E+00 0.00000E+00 0.00000E+00 0.00000E+00
 -1       386 0.00000E+00 0.00000E+00 0.00000E+00 0.00000E+00 0.00000E+00 0.00000E+00
 -1       387 0.00000E+00 0.00000E+00 0.00000E+00 0.00000E+00 0.00000E+00 0.00000E+00
 -1       388 0.00000E+00 0.00000E+00 0.00000E+00 0.00000E+00 0.00000E+00 0.00000E+00
 -1       389 0.00000E+00 0.00000E+00 0.00000E+00 0.00000E+00 0.00000E+00 0.00000E+00
 -1       390 0.00000E+00 0.00000E+00 0.00000E+00 0.00000E+00 0.00000E+00 0.00000E+00
 -1       391 0.00000E+00 0.00000E+00 0.00000E+00 0.00000E+00 0.00000E+00 0.00000E+00
 -1       392 0.00000E+00 0.00000E+00 0.00000E+00 0.00000E+00 0.00000E+00 0.00000E+00
 -1       393 0.00000E+00 0.00000E+00 0.00000E+00 0.00000E+00 0.00000E+00 0.00000E+00
 -1       394 0.00000E+00 0.00000E+00 0.00000E+00 0.00000E+00 0.00000E+00 0.00000E+00
 -1       395 0.00000E+00 0.00000E+00 0.00000E+00 0.00000E+00 0.00000E+00 0.00000E+00
 -1       396 0.00000E+00 0.00000E+00 0.00000E+00 0.00000E+00 0.00000E+00 0.00000E+00
 -1       397 0.00000E+00 0.00000E+00 0.00000E+00 0.00000E+00 0.00000E+00 0.00000E+00
 -1       398 0.00000E+00 0.00000E+00 0.00000E+00 0.00000E+00 0.00000E+00 0.00000E+00
 -1       399 0.00000E+00 0.00000E+00 0.00000E+00 0.00000E+00 0.00000E+00 0.00000E+00
 -1       400 0.00000E+00 0.00000E+00 0.00000E+00 0.00000E+00 0.00000E+00 0.00000E+00
 -1       401 0.00000E+00 0.00000E+00 0.00000E+00 0.00000E+00 0.00000E+00 0.00000E+00
 -1       402 0.00000E+00 0.00000E+00 0.00000E+00 0.00000E+00 0.00000E+00 0.00000E+00
 -1       403 0.00000E+00 0.00000E+00 0.00000E+00 0.00000E+00 0.00000E+00 0.00000E+00
 -1       404 0.00000E+00 0.00000E+00 0.00000E+00 0.00000E+00 0.00000E+00 0.00000E+00
 -1       405 0.00000E+00 0.00000E+00 0.00000E+00 0.00000E+00 0.00000E+00 0.00000E+00
 -1       406 0.00000E+00 0.00000E+00 0.00000E+00 0.00000E+00 0.00000E+00 0.00000E+00
 -1       407 0.00000E+00 0.00000E+00 0.00000E+00 0.00000E+00 0.00000E+00 0.00000E+00
 -1       408 0.00000E+00 0.00000E+00 0.00000E+00 0.00000E+00 0.00000E+00 0.00000E+00
 -1       409 0.00000E+00 0.00000E+00 0.00000E+00 0.00000E+00 0.00000E+00 0.00000E+00
 -1       410 0.00000E+00 0.00000E+00 0.00000E+00 0.00000E+00 0.00000E+00 0.00000E+00
 -1       411 0.00000E+00 0.00000E+00 0.00000E+00 0.00000E+00 0.00000E+00 0.00000E+00
 -1       412 0.00000E+00 0.00000E+00 0.00000E+00 0.00000E+00 0.00000E+00 0.00000E+00
 -1       413 0.00000E+00 0.00000E+00 0.00000E+00 0.00000E+00 0.00000E+00 0.00000E+00
 -1       414 0.00000E+00 0.00000E+00 0.00000E+00 0.00000E+00 0.00000E+00 0.00000E+00
 -1       415 0.00000E+00 0.00000E+00 0.00000E+00 0.00000E+00 0.00000E+00 0.00000E+00
 -1       416 0.00000E+00 0.00000E+00 0.00000E+00 0.00000E+00 0.00000E+00 0.00000E+00
 -1       417 0.00000E+00 0.00000E+00 0.00000E+00 0.00000E+00 0.00000E+00 0.00000E+00
 -1       418 0.00000E+00 0.00000E+00 0.00000E+00 0.00000E+00 0.00000E+00 0.00000E+00
 -1       419 0.00000E+00 0.00000E+00 0.00000E+00 0.00000E+00 0.00000E+00 0.00000E+00
 -1       420 0.00000E+00 0.00000E+00 0.00000E+00 0.00000E+00 0.00000E+00 0.00000E+00
 -1       421 0.00000E+00 0.00000E+00 0.00000E+00 0.00000E+00 0.00000E+00 0.00000E+00
 -1       422 0.00000E+00 0.00000E+00 0.00000E+00 0.00000E+00 0.00000E+00 0.00000E+00
 -1       423 0.00000E+00 0.00000E+00 0.00000E+00 0.00000E+00 0.00000E+00 0.00000E+00
 -1       424 0.00000E+00 0.00000E+00 0.00000E+00 0.00000E+00 0.00000E+00 0.00000E+00
 -1       425 0.00000E+00 0.00000E+00 0.00000E+00 0.00000E+00 0.00000E+00 0.00000E+00
 -1       426 0.00000E+00 0.00000E+00 0.00000E+00 0.00000E+00 0.00000E+00 0.00000E+00
 -1       427 0.00000E+00 0.00000E+00 0.00000E+00 0.00000E+00 0.00000E+00 0.00000E+00
 -1       428 0.00000E+00 0.00000E+00 0.00000E+00 0.00000E+00 0.00000E+00 0.00000E+00
 -1       429-1.97950E-04 0.00000E+00 0.00000E+00 1.97950E+03 0.00000E+00 0.00000E+00
 -1       430 0.00000E+00 0.00000E+00 0.00000E+00 0.00000E+00 0.00000E+00 0.00000E+00
 -1       431 0.00000E+00 0.00000E+00 0.00000E+00 0.00000E+00 0.00000E+00 0.00000E+00
 -1       432 0.00000E+00 0.00000E+00 0.00000E+00 0.00000E+00 0.00000E+00 0.00000E+00
 -1       433 0.00000E+00 0.00000E+00 0.00000E+00 0.00000E+00 0.00000E+00 0.00000E+00
 -1       434 0.00000E+00 0.00000E+00 0.00000E+00 0.00000E+00 0.00000E+00 0.00000E+00
 -1       435 0.00000E+00 0.00000E+00 0.00000E+00 0.00000E+00 0.00000E+00 0.00000E+00
 -1       436 0.00000E+00 0.00000E+00 0.00000E+00 0.00000E+00 0.00000E+00 0.00000E+00
 -1       437 0.00000E+00 0.00000E+00 0.00000E+00 0.00000E+00 0.00000E+00 0.00000E+00
 -1       438 0.00000E+00 0.00000E+00 0.00000E+00 0.00000E+00 0.00000E+00 0.00000E+00
 -1       439 0.00000E+00 0.00000E+00 0.00000E+00 0.00000E+00 0.00000E+00 0.00000E+00
 -1       440 0.00000E+00 0.00000E+00 0.00000E+00 0.00000E+00 0.00000E+00 0.00000E+00
 -1       441 0.00000E+00 0.00000E+00 0.00000E+00 0.00000E+00 0.00000E+00 0.00000E+00
 -1       442 0.00000E+00 0.00000E+00 0.00000E+00 0.00000E+00 0.00000E+00 0.00000E+00
 -1       443 0.00000E+00 0.00000E+00 0.00000E+00 0.00000E+00 0.00000E+00 0.00000E+00
 -1       444 0.00000E+00 0.00000E+00 0.00000E+00 0.00000E+00 0.00000E+00 0.00000E+00
 -1       445 0.00000E+00 0.00000E+00 0.00000E+00 0.00000E+00 0.00000E+00 0.00000E+00
 -1       446 0.00000E+00 0.00000E+00 0.00000E+00 0.00000E+00 0.00000E+00 0.00000E+00
 -1       447 0.00000E+00 0.00000E+00 0.00000E+00 0.00000E+00 0.00000E+00 0.00000E+00
 -1       448 0.00000E+00 0.00000E+00 0.00000E+00 0.00000E+00 0.00000E+00 0.00000E+00
 -1       449 0.00000E+00 0.00000E+00 0.00000E+00 0.00000E+00 0.00000E+00 0.00000E+00
 -1       450 0.00000E+00 0.00000E+00 0.00000E+00 0.00000E+00 0.00000E+00 0.00000E+00
 -1       451 0.00000E+00 0.00000E+00 0.00000E+00 0.00000E+00 0.00000E+00 0.00000E+00
 -1       452 0.00000E+00 0.00000E+00 0.00000E+00 0.00000E+00 0.00000E+00 0.00000E+00
 -1       453 0.00000E+00 0.00000E+00 0.00000E+00 0.00000E+00 0.00000E+00 0.00000E+00
 -1       454 0.00000E+00 0.00000E+00 0.00000E+00 0.00000E+00 0.00000E+00 0.00000E+00
 -1       455 0.00000E+00 0.00000E+00 0.00000E+00 0.00000E+00 0.00000E+00 0.00000E+00
 -1       456 0.00000E+00 0.00000E+00 0.00000E+00 0.00000E+00 0.00000E+00 0.00000E+00
 -1       457 0.00000E+00 0.00000E+00 0.00000E+00 0.00000E+00 0.00000E+00 0.00000E+00
 -1       458 0.00000E+00 0.00000E+00 0.00000E+00 0.00000E+00 0.00000E+00 0.00000E+00
 -1       459 0.00000E+00 0.00000E+00 0.00000E+00 0.00000E+00 0.00000E+00 0.00000E+00
 -1       460 0.00000E+00 0.00000E+00 0.00000E+00 0.00000E+00 0.00000E+00 0.00000E+00
 -1       461 0.00000E+00 0.00000E+00 0.00000E+00 0.00000E+00 0.00000E+00 0.00000E+00
 -1       462 0.00000E+00 0.00000E+00 0.00000E+00 0.00000E+00 0.00000E+00 0.00000E+00
 -1       463 0.00000E+00 0.00000E+00 0.00000E+00 0.00000E+00 0.00000E+00 0.00000E+00
 -1       464 0.00000E+00 0.00000E+00 0.00000E+00 0.00000E+00 0.00000E+00 0.00000E+00
 -1       465 0.00000E+00 0.00000E+00 0.00000E+00 0.00000E+00 0.00000E+00 0.00000E+00
 -1       466 0.00000E+00 0.00000E+00 0.00000E+00 0.00000E+00 0.00000E+00 0.00000E+00
 -1       467 0.00000E+00 0.00000E+00 0.00000E+00 0.00000E+00 0.00000E+00 0.00000E+00
 -1       468 0.00000E+00 0.00000E+00 0.00000E+00 0.00000E+00 0.00000E+00 0.00000E+00
 -1       469 0.00000E+00 0.00000E+00 0.00000E+00 0.00000E+00 0.00000E+00 0.00000E+00
 -1       470 0.00000E+00 0.00000E+00 0.00000E+00 0.00000E+00 0.00000E+00 0.00000E+00
 -1       471 0.00000E+00 0.00000E+00 0.00000E+00 0.00000E+00 0.00000E+00 0.00000E+00
 -1       472 0.00000E+00 0.00000E+00 0.00000E+00 0.00000E+00 0.00000E+00 0.00000E+00
 -1       473 0.00000E+00 0.00000E+00 0.00000E+00 0.00000E+00 0.00000E+00 0.00000E+00
 -1       474 0.00000E+00 0.00000E+00 0.00000E+00 0.00000E+00 0.00000E+00 0.00000E+00
 -1       475 0.00000E+00 0.00000E+00 0.00000E+00 0.00000E+00 0.00000E+00 0.00000E+00
 -1       476 0.00000E+00 0.00000E+00 0.00000E+00 0.00000E+00 0.00000E+00 0.00000E+00
 -1       477 0.00000E+00 0.00000E+00 0.00000E+00 0.00000E+00 0.00000E+00 0.00000E+00
 -1       478 0.00000E+00 0.00000E+00 0.00000E+00 0.00000E+00 0.00000E+00 0.00000E+00
 -1       479 0.00000E+00 0.00000E+00 0.00000E+00 0.00000E+00 0.00000E+00 0.00000E+00
 -1       480 0.00000E+00 0.00000E+00 0.00000E+00 0.00000E+00 0.00000E+00 0.00000E+00
 -1       481 0.00000E+00 0.00000E+00 0.00000E+00 0.00000E+00 0.00000E+00 0.00000E+00
 -1       482 0.00000E+00 0.00000E+00 0.00000E+00 0.00000E+00 0.00000E+00 0.00000E+00
 -1       483 0.00000E+00 0.00000E+00 0.00000E+00 0.00000E+00 0.00000E+00 0.00000E+00
 -1       484 0.00000E+00 0.00000E+00 0.00000E+00 0.00000E+00 0.00000E+00 0.00000E+00
 -1       485 0.00000E+00 0.00000E+00 0.00000E+00 0.00000E+00 0.00000E+00 0.00000E+00
 -1       486 0.00000E+00 0.00000E+00 0.00000E+00 0.00000E+00 0.00000E+00 0.00000E+00
 -1       487 0.00000E+00 0.00000E+00 0.00000E+00 0.00000E+00 0.00000E+00 0.00000E+00
 -1       488 0.00000E+00 0.00000E+00 0.00000E+00 0.00000E+00 0.00000E+00 0.00000E+00
 -1       489 0.00000E+00 0.00000E+00 0.00000E+00 0.00000E+00 0.00000E+00 0.00000E+00
 -1       490 0.00000E+00 0.00000E+00 0.00000E+00 0.00000E+00 0.00000E+00 0.00000E+00
 -1       491 0.00000E+00 0.00000E+00 0.00000E+00 0.00000E+00 0.00000E+00 0.00000E+00
 -1       492 0.00000E+00 0.00000E+00 0.00000E+00 0.00000E+00 0.00000E+00 0.00000E+00
 -1       493 0.00000E+00 0.00000E+00 0.00000E+00 0.00000E+00 0.00000E+00 0.00000E+00
 -1       494 0.00000E+00 0.00000E+00 0.00000E+00 0.00000E+00 0.00000E+00 0.00000E+00
 -1       495 0.00000E+00 0.00000E+00 0.00000E+00 0.00000E+00 0.00000E+00 0.00000E+00
 -1       496 0.00000E+00 0.00000E+00 0.00000E+00 0.00000E+00 0.00000E+00 0.00000E+00
 -1       497 0.00000E+00 0.00000E+00 0.00000E+00 0.00000E+00 0.00000E+00 0.00000E+00
 -1       498 0.00000E+00 0.00000E+00 0.00000E+00 0.00000E+00 0.00000E+00 0.00000E+00
 -1       499 0.00000E+00 0.00000E+00 0.00000E+00 0.00000E+00 0.00000E+00 0.00000E+00
 -1       500 0.00000E+00 0.00000E+00 0.00000E+00 0.00000E+00 0.00000E+00 0.00000E+00
 -1       501 0.00000E+00 0.00000E+00 0.00000E+00 0.00000E+00 0.00000E+00 0.00000E+00
 -1       502 0.00000E+00 0.00000E+00 0.00000E+00 0.00000E+00 0.00000E+00 0.00000E+00
 -1       503 0.00000E+00 0.00000E+00 0.00000E+00 0.00000E+00 0.00000E+00 0.00000E+00
 -1       504 0.00000E+00 0.00000E+00 0.00000E+00 0.00000E+00 0.00000E+00 0.00000E+00
 -1       505 0.00000E+00 0.00000E+00 0.00000E+00 0.00000E+00 0.00000E+00 0.00000E+00
 -1       506 0.00000E+00 0.00000E+00 0.00000E+00 0.00000E+00 0.00000E+00 0.00000E+00
 -1       507 0.00000E+00 0.00000E+00 0.00000E+00 0.00000E+00 0.00000E+00 0.00000E+00
 -1       508 0.00000E+00 0.00000E+00 0.00000E+00 0.00000E+00 0.00000E+00 0.00000E+00
 -1       509 0.00000E+00 0.00000E+00 0.00000E+00 0.00000E+00 0.00000E+00 0.00000E+00
 -1       510 0.00000E+00 0.00000E+00 0.00000E+00 0.00000E+00 0.00000E+00 0.00000E+00
 -1       511 0.00000E+00 0.00000E+00 0.00000E+00 0.00000E+00 0.00000E+00 0.00000E+00
 -1       512 0.00000E+00 0.00000E+00 0.00000E+00 0.00000E+00 0.00000E+00 0.00000E+00
 -1       513 0.00000E+00 0.00000E+00 0.00000E+00 0.00000E+00 0.00000E+00 0.00000E+00
 -1       514 0.00000E+00 0.00000E+00 0.00000E+00 0.00000E+00 0.00000E+00 0.00000E+00
 -1       515 0.00000E+00 0.00000E+00 0.00000E+00 0.00000E+00 0.00000E+00 0.00000E+00
 -1       516 0.00000E+00 0.00000E+00 0.00000E+00 0.00000E+00 0.00000E+00 0.00000E+00
 -1       517 0.00000E+00 0.00000E+00 0.00000E+00 0.00000E+00 0.00000E+00 0.00000E+00
 -1       518 0.00000E+00 0.00000E+00 0.00000E+00 0.00000E+00 0.00000E+00 0.00000E+00
 -1       519 0.00000E+00 0.00000E+00 0.00000E+00 0.00000E+00 0.00000E+00 0.00000E+00
 -1       520 0.00000E+00 0.00000E+00 0.00000E+00 0.00000E+00 0.00000E+00 0.00000E+00
 -1       521 0.00000E+00 0.00000E+00 0.00000E+00 0.00000E+00 0.00000E+00 0.00000E+00
 -1       522 0.00000E+00 0.00000E+00 0.00000E+00 0.00000E+00 0.00000E+00 0.00000E+00
 -1       523 0.00000E+00 0.00000E+00 0.00000E+00 0.00000E+00 0.00000E+00 0.00000E+00
 -1       524 0.00000E+00 0.00000E+00 0.00000E+00 0.00000E+00 0.00000E+00 0.00000E+00
 -1       525 0.00000E+00 0.00000E+00 0.00000E+00 0.00000E+00 0.00000E+00 0.00000E+00
 -1       526 0.00000E+00 0.00000E+00 0.00000E+00 0.00000E+00 0.00000E+00 0.00000E+00
 -1       527 0.00000E+00 0.00000E+00 0.00000E+00 0.00000E+00 0.00000E+00 0.00000E+00
 -1       528 0.00000E+00 0.00000E+00 0.00000E+00 0.00000E+00 0.00000E+00 0.00000E+00
 -1       529 0.00000E+00 0.00000E+00 0.00000E+00 0.00000E+00 0.00000E+00 0.00000E+00
 -1       530 0.00000E+00 0.00000E+00 0.00000E+00 0.00000E+00 0.00000E+00 0.00000E+00
 -1       531 0.00000E+00 0.00000E+00 0.00000E+00 0.00000E+00 0.00000E+00 0.00000E+00
 -1       532 0.00000E+00 0.00000E+00 0.00000E+00 0.00000E+00 0.00000E+00 0.00000E+00
 -1       533 0.00000E+00 0.00000E+00 0.00000E+00 0.00000E+00 0.00000E+00 0.00000E+00
 -1       534 0.00000E+00 0.00000E+00 0.00000E+00 0.00000E+00 0.00000E+00 0.00000E+00
 -1       535 0.00000E+00 0.00000E+00 0.00000E+00 0.00000E+00 0.00000E+00 0.00000E+00
 -1       536 0.00000E+00 0.00000E+00 0.00000E+00 0.00000E+00 0.00000E+00 0.00000E+00
 -1       537 0.00000E+00 0.00000E+00 0.00000E+00 0.00000E+00 0.00000E+00 0.00000E+00
 -1       538 0.00000E+00 0.00000E+00 0.00000E+00 0.00000E+00 0.00000E+00 0.00000E+00
 -1       539 0.00000E+00 0.00000E+00 0.00000E+00 0.00000E+00 0.00000E+00 0.00000E+00
 -1       540 0.00000E+00 0.00000E+00 0.00000E+00 0.00000E+00 0.00000E+00 0.00000E+00
 -1       541 0.00000E+00 0.00000E+00 0.00000E+00 0.00000E+00 0.00000E+00 0.00000E+00
 -1       542 0.00000E+00 0.00000E+00 0.00000E+00 0.00000E+00 0.00000E+00 0.00000E+00
 -1       543 0.00000E+00 0.00000E+00 0.00000E+00 0.00000E+00 0.00000E+00 0.00000E+00
 -1       544 0.00000E+00 0.00000E+00 0.00000E+00 0.00000E+00 0.00000E+00 0.00000E+00
 -1       545 0.00000E+00 0.00000E+00 0.00000E+00 0.00000E+00 0.00000E+00 0.00000E+00
 -1       546 0.00000E+00 0.00000E+00 0.00000E+00 0.00000E+00 0.00000E+00 0.00000E+00
 -1       547 0.00000E+00 0.00000E+00 0.00000E+00 0.00000E+00 0.00000E+00 0.00000E+00
 -1       548 0.00000E+00 0.00000E+00 0.00000E+00 0.00000E+00 0.00000E+00 0.00000E+00
 -1       549 0.00000E+00 0.00000E+00 0.00000E+00 0.00000E+00 0.00000E+00 0.00000E+00
 -1       550 0.00000E+00 0.00000E+00 0.00000E+00 0.00000E+00 0.00000E+00 0.00000E+00
 -1       551 0.00000E+00 0.00000E+00 0.00000E+00 0.00000E+00 0.00000E+00 0.00000E+00
 -1       552 0.00000E+00 0.00000E+00 0.00000E+00 0.00000E+00 0.00000E+00 0.00000E+00
 -1       553 0.00000E+00 0.00000E+00 0.00000E+00 0.00000E+00 0.00000E+00 0.00000E+00
 -1       554 0.00000E+00 0.00000E+00 0.00000E+00 0.00000E+00 0.00000E+00 0.00000E+00
 -1       555 0.00000E+00 0.00000E+00 0.00000E+00 0.00000E+00 0.00000E+00 0.00000E+00
 -1       556 0.00000E+00 0.00000E+00 0.00000E+00 0.00000E+00 0.00000E+00 0.00000E+00
 -1       557 0.00000E+00 0.00000E+00 0.00000E+00 0.00000E+00 0.00000E+00 0.00000E+00
 -1       558 0.00000E+00 0.00000E+00 0.00000E+00 0.00000E+00 0.00000E+00 0.00000E+00
 -1       559 0.00000E+00 0.00000E+00 0.00000E+00 0.00000E+00 0.00000E+00 0.00000E+00
 -1       560 0.00000E+00 0.00000E+00 0.00000E+00 0.00000E+00 0.00000E+00 0.00000E+00
 -1       561 0.00000E+00 0.00000E+00 0.00000E+00 0.00000E+00 0.00000E+00 0.00000E+00
 -1       562 0.00000E+00 0.00000E+00 0.00000E+00 0.00000E+00 0.00000E+00 0.00000E+00
 -1       563 0.00000E+00 0.00000E+00 0.00000E+00 0.00000E+00 0.00000E+00 0.00000E+00
 -1       564 0.00000E+00 0.00000E+00 0.00000E+00 0.00000E+00 0.00000E+00 0.00000E+00
 -1       565 0.00000E+00 0.00000E+00 0.00000E+00 0.00000E+00 0.00000E+00 0.00000E+00
 -1       566 0.00000E+00 0.00000E+00 0.00000E+00 0.00000E+00 0.00000E+00 0.00000E+00
 -1       567 0.00000E+00 0.00000E+00 0.00000E+00 0.00000E+00 0.00000E+00 0.00000E+00
 -1       568 0.00000E+00 0.00000E+00 0.00000E+00 0.00000E+00 0.00000E+00 0.00000E+00
 -1       569 0.00000E+00 0.00000E+00 0.00000E+00 0.00000E+00 0.00000E+00 0.00000E+00
 -1       570 0.00000E+00 0.00000E+00 0.00000E+00 0.00000E+00 0.00000E+00 0.00000E+00
 -1       571 0.00000E+00 0.00000E+00 0.00000E+00 0.00000E+00 0.00000E+00 0.00000E+00
 -1       572 0.00000E+00 0.00000E+00 0.00000E+00 0.00000E+00 0.00000E+00 0.00000E+00
 -1       573 0.00000E+00 0.00000E+00 0.00000E+00 0.00000E+00 0.00000E+00 0.00000E+00
 -1       574 0.00000E+00 0.00000E+00 0.00000E+00 0.00000E+00 0.00000E+00 0.00000E+00
 -1       575 0.00000E+00 0.00000E+00 0.00000E+00 0.00000E+00 0.00000E+00 0.00000E+00
 -1       576 0.00000E+00 0.00000E+00 0.00000E+00 0.00000E+00 0.00000E+00 0.00000E+00
 -1       577 0.00000E+00 0.00000E+00 0.00000E+00 0.00000E+00 0.00000E+00 0.00000E+00
 -1       578 0.00000E+00 0.00000E+00 0.00000E+00 0.00000E+00 0.00000E+00 0.00000E+00
 -1       579 0.00000E+00 0.00000E+00 0.00000E+00 0.00000E+00 0.00000E+00 0.00000E+00
 -1       580 0.00000E+00 0.00000E+00 0.00000E+00 0.00000E+00 0.00000E+00 0.00000E+00
 -1       581 0.00000E+00 0.00000E+00 0.00000E+00 0.00000E+00 0.00000E+00 0.00000E+00
 -1       582 0.00000E+00 0.00000E+00 0.00000E+00 0.00000E+00 0.00000E+00 0.00000E+00
 -1       583 0.00000E+00 0.00000E+00 0.00000E+00 0.00000E+00 0.00000E+00 0.00000E+00
 -1       584 0.00000E+00 0.00000E+00 0.00000E+00 0.00000E+00 0.00000E+00 0.00000E+00
 -1       585 0.00000E+00 0.00000E+00 0.00000E+00 0.00000E+00 0.00000E+00 0.00000E+00
 -1       586 0.00000E+00 0.00000E+00 0.00000E+00 0.00000E+00 0.00000E+00 0.00000E+00
 -1       587 0.00000E+00 0.00000E+00 0.00000E+00 0.00000E+00 0.00000E+00 0.00000E+00
 -1       588 0.00000E+00 0.00000E+00 0.00000E+00 0.00000E+00 0.00000E+00 0.00000E+00
 -1       589 0.00000E+00 0.00000E+00 0.00000E+00 0.00000E+00 0.00000E+00 0.00000E+00
 -1       590 0.00000E+00 0.00000E+00 0.00000E+00 0.00000E+00 0.00000E+00 0.00000E+00
 -1       591 0.00000E+00 0.00000E+00 0.00000E+00 0.00000E+00 0.00000E+00 0.00000E+00
 -1       592 0.00000E+00 0.00000E+00 0.00000E+00 0.00000E+00 0.00000E+00 0.00000E+00
 -1       593 0.00000E+00 0.00000E+00 0.00000E+00 0.00000E+00 0.00000E+00 0.00000E+00
 -1       594 0.00000E+00 0.00000E+00 0.00000E+00 0.00000E+00 0.00000E+00 0.00000E+00
 -1       595 0.00000E+00 0.00000E+00 0.00000E+00 0.00000E+00 0.00000E+00 0.00000E+00
 -1       596 0.00000E+00 0.00000E+00 0.00000E+00 0.00000E+00 0.00000E+00 0.00000E+00
 -1       597 0.00000E+00 0.00000E+00 0.00000E+00 0.00000E+00 0.00000E+00 0.00000E+00
 -1       598 0.00000E+00 0.00000E+00 0.00000E+00 0.00000E+00 0.00000E+00 0.00000E+00
 -1       599 0.00000E+00 0.00000E+00 0.00000E+00 0.00000E+00 0.00000E+00 0.00000E+00
 -1       600 0.00000E+00 0.00000E+00 0.00000E+00 0.00000E+00 0.00000E+00 0.00000E+00
 -1       601 0.00000E+00 0.00000E+00 0.00000E+00 0.00000E+00 0.00000E+00 0.00000E+00
 -1       602 0.00000E+00 0.00000E+00 0.00000E+00 0.00000E+00 0.00000E+00 0.00000E+00
 -1       603 0.00000E+00 0.00000E+00 0.00000E+00 0.00000E+00 0.00000E+00 0.00000E+00
 -1       604 0.00000E+00 0.00000E+00 0.00000E+00 0.00000E+00 0.00000E+00 0.00000E+00
 -1       605 0.00000E+00 0.00000E+00 0.00000E+00 0.00000E+00 0.00000E+00 0.00000E+00
 -1       606 0.00000E+00 0.00000E+00 0.00000E+00 0.00000E+00 0.00000E+00 0.00000E+00
 -1       607 0.00000E+00 0.00000E+00 0.00000E+00 0.00000E+00 0.00000E+00 0.00000E+00
 -1       608 0.00000E+00 0.00000E+00 0.00000E+00 0.00000E+00 0.00000E+00 0.00000E+00
 -1       609 0.00000E+00 0.00000E+00 0.00000E+00 0.00000E+00 0.00000E+00 0.00000E+00
 -1       610 0.00000E+00 0.00000E+00 0.00000E+00 0.00000E+00 0.00000E+00 0.00000E+00
 -1       611 0.00000E+00 0.00000E+00 0.00000E+00 0.00000E+00 0.00000E+00 0.00000E+00
 -1       612 0.00000E+00 0.00000E+00 0.00000E+00 0.00000E+00 0.00000E+00 0.00000E+00
 -1       613 0.00000E+00 0.00000E+00 0.00000E+00 0.00000E+00 0.00000E+00 0.00000E+00
 -1       614 0.00000E+00 0.00000E+00 0.00000E+00 0.00000E+00 0.00000E+00 0.00000E+00
 -1       615 0.00000E+00 0.00000E+00 0.00000E+00 0.00000E+00 0.00000E+00 0.00000E+00
 -1       616 0.00000E+00 0.00000E+00 0.00000E+00 0.00000E+00 0.00000E+00 0.00000E+00
 -1       617 0.00000E+00 0.00000E+00 0.00000E+00 0.00000E+00 0.00000E+00 0.00000E+00
 -1       618 0.00000E+00 0.00000E+00 0.00000E+00 0.00000E+00 0.00000E+00 0.00000E+00
 -1       619 0.00000E+00 0.00000E+00 0.00000E+00 0.00000E+00 0.00000E+00 0.00000E+00
 -1       620 0.00000E+00 0.00000E+00 0.00000E+00 0.00000E+00 0.00000E+00 0.00000E+00
 -1       621 0.00000E+00 0.00000E+00 0.00000E+00 0.00000E+00 0.00000E+00 0.00000E+00
 -1       622 0.00000E+00 0.00000E+00 0.00000E+00 0.00000E+00 0.00000E+00 0.00000E+00
 -1       623 0.00000E+00 0.00000E+00 0.00000E+00 0.00000E+00 0.00000E+00 0.00000E+00
 -1       624 0.00000E+00 0.00000E+00 0.00000E+00 0.00000E+00 0.00000E+00 0.00000E+00
 -1       625 0.00000E+00 0.00000E+00 0.00000E+00 0.00000E+00 0.00000E+00 0.00000E+00
 -1       626 0.00000E+00 0.00000E+00 0.00000E+00 0.00000E+00 0.00000E+00 0.00000E+00
 -1       627 0.00000E+00 0.00000E+00 0.00000E+00 0.00000E+00 0.00000E+00 0.00000E+00
 -1       628 0.00000E+00 0.00000E+00 0.00000E+00 0.00000E+00 0.00000E+00 0.00000E+00
 -1       629 0.00000E+00 0.00000E+00 0.00000E+00 0.00000E+00 0.00000E+00 0.00000E+00
 -1       630 0.00000E+00 0.00000E+00 0.00000E+00 0.00000E+00 0.00000E+00 0.00000E+00
 -1       631 0.00000E+00 0.00000E+00 0.00000E+00 0.00000E+00 0.00000E+00 0.00000E+00
 -1       632 0.00000E+00 0.00000E+00 0.00000E+00 0.00000E+00 0.00000E+00 0.00000E+00
 -1       633 0.00000E+00 0.00000E+00 0.00000E+00 0.00000E+00 0.00000E+00 0.00000E+00
 -1       634 0.00000E+00 0.00000E+00 0.00000E+00 0.00000E+00 0.00000E+00 0.00000E+00
 -1       635 0.00000E+00 0.00000E+00 0.00000E+00 0.00000E+00 0.00000E+00 0.00000E+00
 -1       636 0.00000E+00 0.00000E+00 0.00000E+00 0.00000E+00 0.00000E+00 0.00000E+00
 -1       637 0.00000E+00 0.00000E+00 0.00000E+00 0.00000E+00 0.00000E+00 0.00000E+00
 -1       638 0.00000E+00 0.00000E+00 0.00000E+00 0.00000E+00 0.00000E+00 0.00000E+00
 -1       639 0.00000E+00 0.00000E+00 0.00000E+00 0.00000E+00 0.00000E+00 0.00000E+00
 -1       640 0.00000E+00 0.00000E+00 0.00000E+00 0.00000E+00 0.00000E+00 0.00000E+00
 -1       641 0.00000E+00 0.00000E+00 0.00000E+00 0.00000E+00 0.00000E+00 0.00000E+00
 -1       642 0.00000E+00 0.00000E+00 0.00000E+00 0.00000E+00 0.00000E+00 0.00000E+00
 -1       643 0.00000E+00 0.00000E+00 0.00000E+00 0.00000E+00 0.00000E+00 0.00000E+00
 -1       644 0.00000E+00 0.00000E+00 0.00000E+00 0.00000E+00 0.00000E+00 0.00000E+00
 -1       645 0.00000E+00 0.00000E+00 0.00000E+00 0.00000E+00 0.00000E+00 0.00000E+00
 -1       646 0.00000E+00 0.00000E+00 0.00000E+00 0.00000E+00 0.00000E+00 0.00000E+00
 -1       647 0.00000E+00 0.00000E+00 0.00000E+00 0.00000E+00 0.00000E+00 0.00000E+00
 -1       648 0.00000E+00 0.00000E+00 0.00000E+00 0.00000E+00 0.00000E+00 0.00000E+00
 -1       649 0.00000E+00 0.00000E+00 0.00000E+00 0.00000E+00 0.00000E+00 0.00000E+00
 -1       650 0.00000E+00 0.00000E+00 0.00000E+00 0.00000E+00 0.00000E+00 0.00000E+00
 -1       651 0.00000E+00 0.00000E+00 0.00000E+00 0.00000E+00 0.00000E+00 0.00000E+00
 -1       652 0.00000E+00 0.00000E+00 0.00000E+00 0.00000E+00 0.00000E+00 0.00000E+00
 -1       653 0.00000E+00 0.00000E+00 0.00000E+00 0.00000E+00 0.00000E+00 0.00000E+00
 -1       654 0.00000E+00 0.00000E+00 0.00000E+00 0.00000E+00 0.00000E+00 0.00000E+00
 -1       655 0.00000E+00 0.00000E+00 0.00000E+00 0.00000E+00 0.00000E+00 0.00000E+00
 -1       656 0.00000E+00 0.00000E+00 0.00000E+00 0.00000E+00 0.00000E+00 0.00000E+00
 -1       657 0.00000E+00 0.00000E+00 0.00000E+00 0.00000E+00 0.00000E+00 0.00000E+00
 -1       658 0.00000E+00 0.00000E+00 0.00000E+00 0.00000E+00 0.00000E+00 0.00000E+00
 -1       659 0.00000E+00 0.00000E+00 0.00000E+00 0.00000E+00 0.00000E+00 0.00000E+00
 -1       660 0.00000E+00 0.00000E+00 0.00000E+00 0.00000E+00 0.00000E+00 0.00000E+00
 -1       661 0.00000E+00 0.00000E+00 0.00000E+00 0.00000E+00 0.00000E+00 0.00000E+00
 -1       662 0.00000E+00 0.00000E+00 0.00000E+00 0.00000E+00 0.00000E+00 0.00000E+00
 -1       663 0.00000E+00 0.00000E+00 0.00000E+00 0.00000E+00 0.00000E+00 0.00000E+00
 -1       664 0.00000E+00 0.00000E+00 0.00000E+00 0.00000E+00 0.00000E+00 0.00000E+00
 -1       665 0.00000E+00 0.00000E+00 0.00000E+00 0.00000E+00 0.00000E+00 0.00000E+00
 -1       666 0.00000E+00 0.00000E+00 0.00000E+00 0.00000E+00 0.00000E+00 0.00000E+00
 -1       667 0.00000E+00 0.00000E+00 0.00000E+00 0.00000E+00 0.00000E+00 0.00000E+00
 -1       668 0.00000E+00 0.00000E+00 0.00000E+00 0.00000E+00 0.00000E+00 0.00000E+00
 -1       669 0.00000E+00 0.00000E+00 0.00000E+00 0.00000E+00 0.00000E+00 0.00000E+00
 -1       670 0.00000E+00 0.00000E+00 0.00000E+00 0.00000E+00 0.00000E+00 0.00000E+00
 -1       671 0.00000E+00 0.00000E+00 0.00000E+00 0.00000E+00 0.00000E+00 0.00000E+00
 -1       672 0.00000E+00 0.00000E+00 0.00000E+00 0.00000E+00 0.00000E+00 0.00000E+00
 -1       673 0.00000E+00 0.00000E+00 0.00000E+00 0.00000E+00 0.00000E+00 0.00000E+00
 -1       674 0.00000E+00 0.00000E+00 0.00000E+00 0.00000E+00 0.00000E+00 0.00000E+00
 -1       675 0.00000E+00 0.00000E+00 0.00000E+00 0.00000E+00 0.00000E+00 0.00000E+00
 -1       676 0.00000E+00 0.00000E+00 0.00000E+00 0.00000E+00 0.00000E+00 0.00000E+00
 -1       677 0.00000E+00 0.00000E+00 0.00000E+00 0.00000E+00 0.00000E+00 0.00000E+00
 -1       678 0.00000E+00 0.00000E+00 0.00000E+00 0.00000E+00 0.00000E+00 0.00000E+00
 -1       679 0.00000E+00 0.00000E+00 0.00000E+00 0.00000E+00 0.00000E+00 0.00000E+00
 -1       680 0.00000E+00 0.00000E+00 0.00000E+00 0.00000E+00 0.00000E+00 0.00000E+00
 -1       681 0.00000E+00 0.00000E+00 0.00000E+00 0.00000E+00 0.00000E+00 0.00000E+00
 -1       682 0.00000E+00 0.00000E+00 0.00000E+00 0.00000E+00 0.00000E+00 0.00000E+00
 -1       683 0.00000E+00 0.00000E+00 0.00000E+00 0.00000E+00 0.00000E+00 0.00000E+00
 -1       684 0.00000E+00 0.00000E+00 0.00000E+00 0.00000E+00 0.00000E+00 0.00000E+00
 -1       685 0.00000E+00 0.00000E+00 0.00000E+00 0.00000E+00 0.00000E+00 0.00000E+00
 -1       686 0.00000E+00 0.00000E+00 0.00000E+00 0.00000E+00 0.00000E+00 0.00000E+00
 -1       687 0.00000E+00 0.00000E+00 0.00000E+00 0.00000E+00 0.00000E+00 0.00000E+00
 -1       688 0.00000E+00 0.00000E+00 0.00000E+00 0.00000E+00 0.00000E+00 0.00000E+00
 -1       689 0.00000E+00 0.00000E+00 0.00000E+00 0.00000E+00 0.00000E+00 0.00000E+00
 -1       690 0.00000E+00 0.00000E+00 0.00000E+00 0.00000E+00 0.00000E+00 0.00000E+00
 -1       691 0.00000E+00 0.00000E+00 0.00000E+00 0.00000E+00 0.00000E+00 0.00000E+00
 -1       692 0.00000E+00 0.00000E+00 0.00000E+00 0.00000E+00 0.00000E+00 0.00000E+00
 -1       693 0.00000E+00 0.00000E+00 0.00000E+00 0.00000E+00 0.00000E+00 0.00000E+00
 -1       694 0.00000E+00 0.00000E+00 0.00000E+00 0.00000E+00 0.00000E+00 0.00000E+00
 -1       695 0.00000E+00 0.00000E+00 0.00000E+00 0.00000E+00 0.00000E+00 0.00000E+00
 -1       696 0.00000E+00 0.00000E+00 0.00000E+00 0.00000E+00 0.00000E+00 0.00000E+00
 -1       697 0.00000E+00 0.00000E+00 0.00000E+00 0.00000E+00 0.00000E+00 0.00000E+00
 -1       698 0.00000E+00 0.00000E+00 0.00000E+00 0.00000E+00 0.00000E+00 0.00000E+00
 -1       699 0.00000E+00 0.00000E+00 0.00000E+00 0.00000E+00 0.00000E+00 0.00000E+00
 -1       700 0.00000E+00 0.00000E+00 0.00000E+00 0.00000E+00 0.00000E+00 0.00000E+00
 -1       701 0.00000E+00 0.00000E+00 0.00000E+00 0.00000E+00 0.00000E+00 0.00000E+00
 -1       702 0.00000E+00 0.00000E+00 0.00000E+00 0.00000E+00 0.00000E+00 0.00000E+00
 -1       703 0.00000E+00 0.00000E+00 0.00000E+00 0.00000E+00 0.00000E+00 0.00000E+00
 -1       704 0.00000E+00 0.00000E+00 0.00000E+00 0.00000E+00 0.00000E+00 0.00000E+00
 -1       705 0.00000E+00 0.00000E+00 0.00000E+00 0.00000E+00 0.00000E+00 0.00000E+00
 -1       706 0.00000E+00 0.00000E+00 0.00000E+00 0.00000E+00 0.00000E+00 0.00000E+00
 -1       707 0.00000E+00 0.00000E+00 0.00000E+00 0.00000E+00 0.00000E+00 0.00000E+00
 -1       708 0.00000E+00 0.00000E+00 0.00000E+00 0.00000E+00 0.00000E+00 0.00000E+00
 -1       709 0.00000E+00 0.00000E+00 0.00000E+00 0.00000E+00 0.00000E+00 0.00000E+00
 -1       710 0.00000E+00 0.00000E+00 0.00000E+00 0.00000E+00 0.00000E+00 0.00000E+00
 -1       711 0.00000E+00 0.00000E+00 0.00000E+00 0.00000E+00 0.00000E+00 0.00000E+00
 -1       712 0.00000E+00 0.00000E+00 0.00000E+00 0.00000E+00 0.00000E+00 0.00000E+00
 -1       713 0.00000E+00 0.00000E+00 0.00000E+00 0.00000E+00 0.00000E+00 0.00000E+00
 -1       714 0.00000E+00 0.00000E+00 0.00000E+00 0.00000E+00 0.00000E+00 0.00000E+00
 -1       715 0.00000E+00 0.00000E+00 0.00000E+00 0.00000E+00 0.00000E+00 0.00000E+00
 -1       716 0.00000E+00 0.00000E+00 0.00000E+00 0.00000E+00 0.00000E+00 0.00000E+00
 -1       717 0.00000E+00 0.00000E+00 0.00000E+00 0.00000E+00 0.00000E+00 0.00000E+00
 -1       718 0.00000E+00 0.00000E+00 0.00000E+00 0.00000E+00 0.00000E+00 0.00000E+00
 -1       719 0.00000E+00 0.00000E+00 0.00000E+00 0.00000E+00 0.00000E+00 0.00000E+00
 -1       720 0.00000E+00 0.00000E+00 0.00000E+00 0.00000E+00 0.00000E+00 0.00000E+00
 -1       721 0.00000E+00 0.00000E+00 0.00000E+00 0.00000E+00 0.00000E+00 0.00000E+00
 -1       722 0.00000E+00 0.00000E+00 0.00000E+00 0.00000E+00 0.00000E+00 0.00000E+00
 -1       723 0.00000E+00 0.00000E+00 0.00000E+00 0.00000E+00 0.00000E+00 0.00000E+00
 -1       724 0.00000E+00 0.00000E+00 0.00000E+00 0.00000E+00 0.00000E+00 0.00000E+00
 -1       725 0.00000E+00 0.00000E+00 0.00000E+00 0.00000E+00 0.00000E+00 0.00000E+00
 -1       726 0.00000E+00 0.00000E+00 0.00000E+00 0.00000E+00 0.00000E+00 0.00000E+00
 -1       727 0.00000E+00 0.00000E+00 0.00000E+00 0.00000E+00 0.00000E+00 0.00000E+00
 -1       728 0.00000E+00 0.00000E+00 0.00000E+00 0.00000E+00 0.00000E+00 0.00000E+00
 -1       729 0.00000E+00 0.00000E+00 0.00000E+00 0.00000E+00 0.00000E+00 0.00000E+00
 -1       730 0.00000E+00 0.00000E+00 0.00000E+00 0.00000E+00 0.00000E+00 0.00000E+00
 -1       731 0.00000E+00 0.00000E+00 0.00000E+00 0.00000E+00 0.00000E+00 0.00000E+00
 -1       732 0.00000E+00 0.00000E+00 0.00000E+00 0.00000E+00 0.00000E+00 0.00000E+00
 -1       733 0.00000E+00 0.00000E+00 0.00000E+00 0.00000E+00 0.00000E+00 0.00000E+00
 -1       734 0.00000E+00 0.00000E+00 0.00000E+00 0.00000E+00 0.00000E+00 0.00000E+00
 -1       735 0.00000E+00 0.00000E+00 0.00000E+00 0.00000E+00 0.00000E+00 0.00000E+00
 -1       736 0.00000E+00 0.00000E+00 0.00000E+00 0.00000E+00 0.00000E+00 0.00000E+00
 -1       737 0.00000E+00 0.00000E+00 0.00000E+00 0.00000E+00 0.00000E+00 0.00000E+00
 -1       738 0.00000E+00 0.00000E+00 0.00000E+00 0.00000E+00 0.00000E+00 0.00000E+00
 -1       739 0.00000E+00 0.00000E+00 0.00000E+00 0.00000E+00 0.00000E+00 0.00000E+00
 -1       740 0.00000E+00 0.00000E+00 0.00000E+00 0.00000E+00 0.00000E+00 0.00000E+00
 -1       741 0.00000E+00 0.00000E+00 0.00000E+00 0.00000E+00 0.00000E+00 0.00000E+00
 -1       742 0.00000E+00 0.00000E+00 0.00000E+00 0.00000E+00 0.00000E+00 0.00000E+00
 -1       743 0.00000E+00 0.00000E+00 0.00000E+00 0.00000E+00 0.00000E+00 0.00000E+00
 -1       744 0.00000E+00 0.00000E+00 0.00000E+00 0.00000E+00 0.00000E+00 0.00000E+00
 -1       745 0.00000E+00 0.00000E+00 0.00000E+00 0.00000E+00 0.00000E+00 0.00000E+00
 -1       746 0.00000E+00 0.00000E+00 0.00000E+00 0.00000E+00 0.00000E+00 0.00000E+00
 -1       747 0.00000E+00 0.00000E+00 0.00000E+00 0.00000E+00 0.00000E+00 0.00000E+00
 -1       748 0.00000E+00 0.00000E+00 0.00000E+00 0.00000E+00 0.00000E+00 0.00000E+00
 -1       749 0.00000E+00 0.00000E+00 0.00000E+00 0.00000E+00 0.00000E+00 0.00000E+00
 -1       750 0.00000E+00 0.00000E+00 0.00000E+00 0.00000E+00 0.00000E+00 0.00000E+00
 -1       751 0.00000E+00 0.00000E+00 0.00000E+00 0.00000E+00 0.00000E+00 0.00000E+00
 -1       752 0.00000E+00 0.00000E+00 0.00000E+00 0.00000E+00 0.00000E+00 0.00000E+00
 -1       753 0.00000E+00 0.00000E+00 0.00000E+00 0.00000E+00 0.00000E+00 0.00000E+00
 -1       754 0.00000E+00 0.00000E+00 0.00000E+00 0.00000E+00 0.00000E+00 0.00000E+00
 -1       755 0.00000E+00 0.00000E+00 0.00000E+00 0.00000E+00 0.00000E+00 0.00000E+00
 -1       756 0.00000E+00 0.00000E+00 0.00000E+00 0.00000E+00 0.00000E+00 0.00000E+00
 -1       757 0.00000E+00 0.00000E+00 0.00000E+00 0.00000E+00 0.00000E+00 0.00000E+00
 -1       758 0.00000E+00 0.00000E+00 0.00000E+00 0.00000E+00 0.00000E+00 0.00000E+00
 -1       759 0.00000E+00 0.00000E+00 0.00000E+00 0.00000E+00 0.00000E+00 0.00000E+00
 -1       760 0.00000E+00 0.00000E+00 0.00000E+00 0.00000E+00 0.00000E+00 0.00000E+00
 -1       761 0.00000E+00 0.00000E+00 0.00000E+00 0.00000E+00 0.00000E+00 0.00000E+00
 -1       762 0.00000E+00 0.00000E+00 0.00000E+00 0.00000E+00 0.00000E+00 0.00000E+00
 -1       763 0.00000E+00 0.00000E+00 0.00000E+00 0.00000E+00 0.00000E+00 0.00000E+00
 -1       764 0.00000E+00 0.00000E+00 0.00000E+00 0.00000E+00 0.00000E+00 0.00000E+00
 -1       765 0.00000E+00 0.00000E+00 0.00000E+00 0.00000E+00 0.00000E+00 0.00000E+00
 -1       766 0.00000E+00 0.00000E+00 0.00000E+00 0.00000E+00 0.00000E+00 0.00000E+00
 -1       767 0.00000E+00 0.00000E+00 0.00000E+00 0.00000E+00 0.00000E+00 0.00000E+00
 -1       768 0.00000E+00 0.00000E+00 0.00000E+00 0.00000E+00 0.00000E+00 0.00000E+00
 -1       769 0.00000E+00 0.00000E+00 0.00000E+00 0.00000E+00 0.00000E+00 0.00000E+00
 -1       770 0.00000E+00 0.00000E+00 0.00000E+00 0.00000E+00 0.00000E+00 0.00000E+00
 -1       771 0.00000E+00 0.00000E+00 0.00000E+00 0.00000E+00 0.00000E+00 0.00000E+00
 -1       772 0.00000E+00 0.00000E+00 0.00000E+00 0.00000E+00 0.00000E+00 0.00000E+00
 -1       773 0.00000E+00 0.00000E+00 0.00000E+00 0.00000E+00 0.00000E+00 0.00000E+00
 -1       774 0.00000E+00 0.00000E+00 0.00000E+00 0.00000E+00 0.00000E+00 0.00000E+00
 -1       775 0.00000E+00 0.00000E+00 0.00000E+00 0.00000E+00 0.00000E+00 0.00000E+00
 -1       776 0.00000E+00 0.00000E+00 0.00000E+00 0.00000E+00 0.00000E+00 0.00000E+00
 -1       777 0.00000E+00 0.00000E+00 0.00000E+00 0.00000E+00 0.00000E+00 0.00000E+00
 -1       778 0.00000E+00 0.00000E+00 0.00000E+00 0.00000E+00 0.00000E+00 0.00000E+00
 -1       779 0.00000E+00 0.00000E+00 0.00000E+00 0.00000E+00 0.00000E+00 0.00000E+00
 -1       780 0.00000E+00 0.00000E+00 0.00000E+00 0.00000E+00 0.00000E+00 0.00000E+00
 -1       781 0.00000E+00 0.00000E+00 0.00000E+00 0.00000E+00 0.00000E+00 0.00000E+00
 -1       782 0.00000E+00 0.00000E+00 0.00000E+00 0.00000E+00 0.00000E+00 0.00000E+00
 -1       783 0.00000E+00 0.00000E+00 0.00000E+00 0.00000E+00 0.00000E+00 0.00000E+00
 -1       784 0.00000E+00 0.00000E+00 0.00000E+00 0.00000E+00 0.00000E+00 0.00000E+00
 -1       785 0.00000E+00 0.00000E+00 0.00000E+00 0.00000E+00 0.00000E+00 0.00000E+00
 -1       786 0.00000E+00 0.00000E+00 0.00000E+00 0.00000E+00 0.00000E+00 0.00000E+00
 -1       787 0.00000E+00 0.00000E+00 0.00000E+00 0.00000E+00 0.00000E+00 0.00000E+00
 -1       788 0.00000E+00 0.00000E+00 0.00000E+00 0.00000E+00 0.00000E+00 0.00000E+00
 -1       789 0.00000E+00 0.00000E+00 0.00000E+00 0.00000E+00 0.00000E+00 0.00000E+00
 -1       790 0.00000E+00 0.00000E+00 0.00000E+00 0.00000E+00 0.00000E+00 0.00000E+00
 -1       791 0.00000E+00 0.00000E+00 0.00000E+00 0.00000E+00 0.00000E+00 0.00000E+00
 -1       792 0.00000E+00 0.00000E+00 0.00000E+00 0.00000E+00 0.00000E+00 0.00000E+00
 -1       793 0.00000E+00 0.00000E+00 0.00000E+00 0.00000E+00 0.00000E+00 0.00000E+00
 -1       794 0.00000E+00 0.00000E+00 0.00000E+00 0.00000E+00 0.00000E+00 0.00000E+00
 -1       795 0.00000E+00 0.00000E+00 0.00000E+00 0.00000E+00 0.00000E+00 0.00000E+00
 -1       796 0.00000E+00 0.00000E+00 0.00000E+00 0.00000E+00 0.00000E+00 0.00000E+00
 -1       797 0.00000E+00 0.00000E+00 0.00000E+00 0.00000E+00 0.00000E+00 0.00000E+00
 -1       798 0.00000E+00 0.00000E+00 0.00000E+00 0.00000E+00 0.00000E+00 0.00000E+00
 -1       799 0.00000E+00 0.00000E+00 0.00000E+00 0.00000E+00 0.00000E+00 0.00000E+00
 -1       800 0.00000E+00 0.00000E+00 0.00000E+00 0.00000E+00 0.00000E+00 0.00000E+00
 -1       801 0.00000E+00 0.00000E+00 0.00000E+00 0.00000E+00 0.00000E+00 0.00000E+00
 -1       802 0.00000E+00 0.00000E+00 0.00000E+00 0.00000E+00 0.00000E+00 0.00000E+00
 -1       803 0.00000E+00 0.00000E+00 0.00000E+00 0.00000E+00 0.00000E+00 0.00000E+00
 -1       804 0.00000E+00 0.00000E+00 0.00000E+00 0.00000E+00 0.00000E+00 0.00000E+00
 -1       805 0.00000E+00 0.00000E+00 0.00000E+00 0.00000E+00 0.00000E+00 0.00000E+00
 -1       806 0.00000E+00 0.00000E+00 0.00000E+00 0.00000E+00 0.00000E+00 0.00000E+00
 -1       807 0.00000E+00 0.00000E+00 0.00000E+00 0.00000E+00 0.00000E+00 0.00000E+00
 -1       808 0.00000E+00 0.00000E+00 0.00000E+00 0.00000E+00 0.00000E+00 0.00000E+00
 -1       809 0.00000E+00 0.00000E+00 0.00000E+00 0.00000E+00 0.00000E+00 0.00000E+00
 -1       810 0.00000E+00 0.00000E+00 0.00000E+00 0.00000E+00 0.00000E+00 0.00000E+00
 -1       811 0.00000E+00 0.00000E+00 0.00000E+00 0.00000E+00 0.00000E+00 0.00000E+00
 -1       812 0.00000E+00 0.00000E+00 0.00000E+00 0.00000E+00 0.00000E+00 0.00000E+00
 -1       813 0.00000E+00 0.00000E+00 0.00000E+00 0.00000E+00 0.00000E+00 0.00000E+00
 -1       814 0.00000E+00 0.00000E+00 0.00000E+00 0.00000E+00 0.00000E+00 0.00000E+00
 -1       815 0.00000E+00 0.00000E+00 0.00000E+00 0.00000E+00 0.00000E+00 0.00000E+00
 -1       816 0.00000E+00 0.00000E+00 0.00000E+00 0.00000E+00 0.00000E+00 0.00000E+00
 -1       817 0.00000E+00 0.00000E+00 0.00000E+00 0.00000E+00 0.00000E+00 0.00000E+00
 -1       818 0.00000E+00 0.00000E+00 0.00000E+00 0.00000E+00 0.00000E+00 0.00000E+00
 -1       819 0.00000E+00 0.00000E+00 0.00000E+00 0.00000E+00 0.00000E+00 0.00000E+00
 -1       820 0.00000E+00 0.00000E+00 0.00000E+00 0.00000E+00 0.00000E+00 0.00000E+00
 -1       821 0.00000E+00 0.00000E+00 0.00000E+00 0.00000E+00 0.00000E+00 0.00000E+00
 -1       822 0.00000E+00 0.00000E+00 0.00000E+00 0.00000E+00 0.00000E+00 0.00000E+00
 -1       823 0.00000E+00 0.00000E+00 0.00000E+00 0.00000E+00 0.00000E+00 0.00000E+00
 -1       824 0.00000E+00 0.00000E+00 0.00000E+00 0.00000E+00 0.00000E+00 0.00000E+00
 -1       825 0.00000E+00 0.00000E+00 0.00000E+00 0.00000E+00 0.00000E+00 0.00000E+00
 -1       826 0.00000E+00 0.00000E+00 0.00000E+00 0.00000E+00 0.00000E+00 0.00000E+00
 -1       827 0.00000E+00 0.00000E+00 0.00000E+00 0.00000E+00 0.00000E+00 0.00000E+00
 -1       828 0.00000E+00 0.00000E+00 0.00000E+00 0.00000E+00 0.00000E+00 0.00000E+00
 -1       829 0.00000E+00 0.00000E+00 0.00000E+00 0.00000E+00 0.00000E+00 0.00000E+00
 -1       830 0.00000E+00 0.00000E+00 0.00000E+00 0.00000E+00 0.00000E+00 0.00000E+00
 -1       831 0.00000E+00 0.00000E+00 0.00000E+00 0.00000E+00 0.00000E+00 0.00000E+00
 -1       832 0.00000E+00 0.00000E+00 0.00000E+00 0.00000E+00 0.00000E+00 0.00000E+00
 -1       833 0.00000E+00 0.00000E+00 0.00000E+00 0.00000E+00 0.00000E+00 0.00000E+00
 -1       834 0.00000E+00 0.00000E+00 0.00000E+00 0.00000E+00 0.00000E+00 0.00000E+00
 -1       835 0.00000E+00 0.00000E+00 0.00000E+00 0.00000E+00 0.00000E+00 0.00000E+00
 -1       836 0.00000E+00 0.00000E+00 0.00000E+00 0.00000E+00 0.00000E+00 0.00000E+00
 -1       837 0.00000E+00 0.00000E+00 0.00000E+00 0.00000E+00 0.00000E+00 0.00000E+00
 -1       838 0.00000E+00 0.00000E+00 0.00000E+00 0.00000E+00 0.00000E+00 0.00000E+00
 -1       839 0.00000E+00 0.00000E+00 0.00000E+00 0.00000E+00 0.00000E+00 0.00000E+00
 -1       840 0.00000E+00 0.00000E+00 0.00000E+00 0.00000E+00 0.00000E+00 0.00000E+00
 -1       841 0.00000E+00 0.00000E+00 0.00000E+00 0.00000E+00 0.00000E+00 0.00000E+00
 -1       842 0.00000E+00 0.00000E+00 0.00000E+00 0.00000E+00 0.00000E+00 0.00000E+00
 -1       843 0.00000E+00 0.00000E+00 0.00000E+00 0.00000E+00 0.00000E+00 0.00000E+00
 -1       844 0.00000E+00 0.00000E+00 0.00000E+00 0.00000E+00 0.00000E+00 0.00000E+00
 -1       845 0.00000E+00 0.00000E+00 0.00000E+00 0.00000E+00 0.00000E+00 0.00000E+00
 -1       846 0.00000E+00 0.00000E+00 0.00000E+00 0.00000E+00 0.00000E+00 0.00000E+00
 -1       847 0.00000E+00 0.00000E+00 0.00000E+00 0.00000E+00 0.00000E+00 0.00000E+00
 -1       848 0.00000E+00 0.00000E+00 0.00000E+00 0.00000E+00 0.00000E+00 0.00000E+00
 -1       849 0.00000E+00 0.00000E+00 0.00000E+00 0.00000E+00 0.00000E+00 0.00000E+00
 -1       850 0.00000E+00 0.00000E+00 0.00000E+00 0.00000E+00 0.00000E+00 0.00000E+00
 -1       851 0.00000E+00 0.00000E+00 0.00000E+00 0.00000E+00 0.00000E+00 0.00000E+00
 -1       852 0.00000E+00 0.00000E+00 0.00000E+00 0.00000E+00 0.00000E+00 0.00000E+00
 -1       853 0.00000E+00 0.00000E+00 0.00000E+00 0.00000E+00 0.00000E+00 0.00000E+00
 -1       854 0.00000E+00 0.00000E+00 0.00000E+00 0.00000E+00 0.00000E+00 0.00000E+00
 -1       855 0.00000E+00 0.00000E+00 0.00000E+00 0.00000E+00 0.00000E+00 0.00000E+00
 -1       856 0.00000E+00 0.00000E+00 0.00000E+00 0.00000E+00 0.00000E+00 0.00000E+00
 -1       857 0.00000E+00 0.00000E+00 0.00000E+00 0.00000E+00 0.00000E+00 0.00000E+00
 -1       858 0.00000E+00 0.00000E+00 0.00000E+00 0.00000E+00 0.00000E+00 0.00000E+00
 -1       859 0.00000E+00 0.00000E+00 0.00000E+00 0.00000E+00 0.00000E+00 0.00000E+00
 -1       860 0.00000E+00 0.00000E+00 0.00000E+00 0.00000E+00 0.00000E+00 0.00000E+00
 -1       861 0.00000E+00 0.00000E+00 0.00000E+00 0.00000E+00 0.00000E+00 0.00000E+00
 -1       862 0.00000E+00 0.00000E+00 0.00000E+00 0.00000E+00 0.00000E+00 0.00000E+00
 -1       863 0.00000E+00 0.00000E+00 0.00000E+00 0.00000E+00 0.00000E+00 0.00000E+00
 -1       864 0.00000E+00 0.00000E+00 0.00000E+00 0.00000E+00 0.00000E+00 0.00000E+00
 -1       865 0.00000E+00 0.00000E+00 0.00000E+00 0.00000E+00 0.00000E+00 0.00000E+00
 -1       866 0.00000E+00 0.00000E+00 0.00000E+00 0.00000E+00 0.00000E+00 0.00000E+00
 -1       867 0.00000E+00 0.00000E+00 0.00000E+00 0.00000E+00 0.00000E+00 0.00000E+00
 -1       868 0.00000E+00 0.00000E+00 0.00000E+00 0.00000E+00 0.00000E+00 0.00000E+00
 -1       869 0.00000E+00 0.00000E+00 0.00000E+00 0.00000E+00 0.00000E+00 0.00000E+00
 -1       870 0.00000E+00 0.00000E+00 0.00000E+00 0.00000E+00 0.00000E+00 0.00000E+00
 -1       871 0.00000E+00 0.00000E+00 0.00000E+00 0.00000E+00 0.00000E+00 0.00000E+00
 -1       872 0.00000E+00 0.00000E+00 0.00000E+00 0.00000E+00 0.00000E+00 0.00000E+00
 -1       873 0.00000E+00 0.00000E+00 0.00000E+00 0.00000E+00 0.00000E+00 0.00000E+00
 -1       874 0.00000E+00 0.00000E+00 0.00000E+00 0.00000E+00 0.00000E+00 0.00000E+00
 -1       875 0.00000E+00 0.00000E+00 0.00000E+00 0.00000E+00 0.00000E+00 0.00000E+00
 -1       876 0.00000E+00 0.00000E+00 0.00000E+00 0.00000E+00 0.00000E+00 0.00000E+00
 -1       877 0.00000E+00 0.00000E+00 0.00000E+00 0.00000E+00 0.00000E+00 0.00000E+00
 -1       878 0.00000E+00 0.00000E+00 0.00000E+00 0.00000E+00 0.00000E+00 0.00000E+00
 -1       879 0.00000E+00 0.00000E+00 0.00000E+00 0.00000E+00 0.00000E+00 0.00000E+00
 -1       880 0.00000E+00 0.00000E+00 0.00000E+00 0.00000E+00 0.00000E+00 0.00000E+00
 -1       881 0.00000E+00 0.00000E+00 0.00000E+00 0.00000E+00 0.00000E+00 0.00000E+00
 -1       882 0.00000E+00 0.00000E+00 0.00000E+00 0.00000E+00 0.00000E+00 0.00000E+00
 -1       883 0.00000E+00 0.00000E+00 0.00000E+00 0.00000E+00 0.00000E+00 0.00000E+00
 -1       884 0.00000E+00 0.00000E+00 0.00000E+00 0.00000E+00 0.00000E+00 0.00000E+00
 -1       885 0.00000E+00 0.00000E+00 0.00000E+00 0.00000E+00 0.00000E+00 0.00000E+00
 -1       886 0.00000E+00 0.00000E+00 0.00000E+00 0.00000E+00 0.00000E+00 0.00000E+00
 -1       887 0.00000E+00 0.00000E+00 0.00000E+00 0.00000E+00 0.00000E+00 0.00000E+00
 -1       888 0.00000E+00 0.00000E+00 0.00000E+00 0.00000E+00 0.00000E+00 0.00000E+00
 -1       889 0.00000E+00 0.00000E+00 0.00000E+00 0.00000E+00 0.00000E+00 0.00000E+00
 -1       890 0.00000E+00 0.00000E+00 0.00000E+00 0.00000E+00 0.00000E+00 0.00000E+00
 -1       891 0.00000E+00 0.00000E+00 0.00000E+00 0.00000E+00 0.00000E+00 0.00000E+00
 -1       892 0.00000E+00 0.00000E+00 0.00000E+00 0.00000E+00 0.00000E+00 0.00000E+00
 -1       893 0.00000E+00 0.00000E+00 0.00000E+00 0.00000E+00 0.00000E+00 0.00000E+00
 -1       894 0.00000E+00 0.00000E+00 0.00000E+00 0.00000E+00 0.00000E+00 0.00000E+00
 -1       895 0.00000E+00 0.00000E+00 0.00000E+00 0.00000E+00 0.00000E+00 0.00000E+00
 -1       896 0.00000E+00 0.00000E+00 0.00000E+00 0.00000E+00 0.00000E+00 0.00000E+00
 -1       897 0.00000E+00 0.00000E+00 0.00000E+00 0.00000E+00 0.00000E+00 0.00000E+00
 -1       898 0.00000E+00 0.00000E+00 0.00000E+00 0.00000E+00 0.00000E+00 0.00000E+00
 -1       899 0.00000E+00 0.00000E+00 0.00000E+00 0.00000E+00 0.00000E+00 0.00000E+00
 -1       900 0.00000E+00 0.00000E+00 0.00000E+00 0.00000E+00 0.00000E+00 0.00000E+00
 -1       901 0.00000E+00 0.00000E+00 0.00000E+00 0.00000E+00 0.00000E+00 0.00000E+00
 -1       902 0.00000E+00 0.00000E+00 0.00000E+00 0.00000E+00 0.00000E+00 0.00000E+00
 -1       903 0.00000E+00 0.00000E+00 0.00000E+00 0.00000E+00 0.00000E+00 0.00000E+00
 -1       904 0.00000E+00 0.00000E+00 0.00000E+00 0.00000E+00 0.00000E+00 0.00000E+00
 -1       905 0.00000E+00 0.00000E+00 0.00000E+00 0.00000E+00 0.00000E+00 0.00000E+00
 -1       906 0.00000E+00 0.00000E+00 0.00000E+00 0.00000E+00 0.00000E+00 0.00000E+00
 -1       907 0.00000E+00 0.00000E+00 0.00000E+00 0.00000E+00 0.00000E+00 0.00000E+00
 -1       908 0.00000E+00 0.00000E+00 0.00000E+00 0.00000E+00 0.00000E+00 0.00000E+00
 -1       909 0.00000E+00 0.00000E+00 0.00000E+00 0.00000E+00 0.00000E+00 0.00000E+00
 -1       910 0.00000E+00 0.00000E+00 0.00000E+00 0.00000E+00 0.00000E+00 0.00000E+00
 -1       911 0.00000E+00 0.00000E+00 0.00000E+00 0.00000E+00 0.00000E+00 0.00000E+00
 -1       912 0.00000E+00 0.00000E+00 0.00000E+00 0.00000E+00 0.00000E+00 0.00000E+00
 -1       913 0.00000E+00 0.00000E+00 0.00000E+00 0.00000E+00 0.00000E+00 0.00000E+00
 -1       914 0.00000E+00 0.00000E+00 0.00000E+00 0.00000E+00 0.00000E+00 0.00000E+00
 -1       915 0.00000E+00 0.00000E+00 0.00000E+00 0.00000E+00 0.00000E+00 0.00000E+00
 -1       916 0.00000E+00 0.00000E+00 0.00000E+00 0.00000E+00 0.00000E+00 0.00000E+00
 -1       917 0.00000E+00 0.00000E+00 0.00000E+00 0.00000E+00 0.00000E+00 0.00000E+00
 -1       918 0.00000E+00 0.00000E+00 0.00000E+00 0.00000E+00 0.00000E+00 0.00000E+00
 -1       919 0.00000E+00 0.00000E+00 0.00000E+00 0.00000E+00 0.00000E+00 0.00000E+00
 -1       920 0.00000E+00 0.00000E+00 0.00000E+00 0.00000E+00 0.00000E+00 0.00000E+00
 -1       921 0.00000E+00 0.00000E+00 0.00000E+00 0.00000E+00 0.00000E+00 0.00000E+00
 -1       922 0.00000E+00 0.00000E+00 0.00000E+00 0.00000E+00 0.00000E+00 0.00000E+00
 -1       923 0.00000E+00 0.00000E+00 0.00000E+00 0.00000E+00 0.00000E+00 0.00000E+00
 -1       924 0.00000E+00 0.00000E+00 0.00000E+00 0.00000E+00 0.00000E+00 0.00000E+00
 -1       925 0.00000E+00 0.00000E+00 0.00000E+00 0.00000E+00 0.00000E+00 0.00000E+00
 -1       926 0.00000E+00 0.00000E+00 0.00000E+00 0.00000E+00 0.00000E+00 0.00000E+00
 -1       927 0.00000E+00 0.00000E+00 0.00000E+00 0.00000E+00 0.00000E+00 0.00000E+00
 -1       928 0.00000E+00 0.00000E+00 0.00000E+00 0.00000E+00 0.00000E+00 0.00000E+00
 -1       929 0.00000E+00 0.00000E+00 0.00000E+00 0.00000E+00 0.00000E+00 0.00000E+00
 -1       930 0.00000E+00 0.00000E+00 0.00000E+00 0.00000E+00 0.00000E+00 0.00000E+00
 -1       931 0.00000E+00 0.00000E+00 0.00000E+00 0.00000E+00 0.00000E+00 0.00000E+00
 -1       932 0.00000E+00 0.00000E+00 0.00000E+00 0.00000E+00 0.00000E+00 0.00000E+00
 -1       933 0.00000E+00 0.00000E+00 0.00000E+00 0.00000E+00 0.00000E+00 0.00000E+00
 -1       934 0.00000E+00 0.00000E+00 0.00000E+00 0.00000E+00 0.00000E+00 0.00000E+00
 -1       935 0.00000E+00 0.00000E+00 0.00000E+00 0.00000E+00 0.00000E+00 0.00000E+00
 -1       936 0.00000E+00 0.00000E+00 0.00000E+00 0.00000E+00 0.00000E+00 0.00000E+00
 -1       937 0.00000E+00 0.00000E+00 0.00000E+00 0.00000E+00 0.00000E+00 0.00000E+00
 -1       938 0.00000E+00 0.00000E+00 0.00000E+00 0.00000E+00 0.00000E+00 0.00000E+00
 -1       939 0.00000E+00 0.00000E+00 0.00000E+00 0.00000E+00 0.00000E+00 0.00000E+00
 -1       940 0.00000E+00 0.00000E+00 0.00000E+00 0.00000E+00 0.00000E+00 0.00000E+00
 -1       941 0.00000E+00 0.00000E+00 0.00000E+00 0.00000E+00 0.00000E+00 0.00000E+00
 -1       942 0.00000E+00 0.00000E+00 0.00000E+00 0.00000E+00 0.00000E+00 0.00000E+00
 -1       943 0.00000E+00 0.00000E+00 0.00000E+00 0.00000E+00 0.00000E+00 0.00000E+00
 -1       944 0.00000E+00 0.00000E+00 0.00000E+00 0.00000E+00 0.00000E+00 0.00000E+00
 -1       945 0.00000E+00 0.00000E+00 0.00000E+00 0.00000E+00 0.00000E+00 0.00000E+00
 -1       946 0.00000E+00 0.00000E+00 0.00000E+00 0.00000E+00 0.00000E+00 0.00000E+00
 -1       947 0.00000E+00 0.00000E+00 0.00000E+00 0.00000E+00 0.00000E+00 0.00000E+00
 -1       948 0.00000E+00 0.00000E+00 0.00000E+00 0.00000E+00 0.00000E+00 0.00000E+00
 -1       949 0.00000E+00 0.00000E+00 0.00000E+00 0.00000E+00 0.00000E+00 0.00000E+00
 -1       950 0.00000E+00 0.00000E+00 0.00000E+00 0.00000E+00 0.00000E+00 0.00000E+00
 -1       951 0.00000E+00 0.00000E+00 0.00000E+00 0.00000E+00 0.00000E+00 0.00000E+00
 -1       952 0.00000E+00 0.00000E+00 0.00000E+00 0.00000E+00 0.00000E+00 0.00000E+00
 -1       953 0.00000E+00 0.00000E+00 0.00000E+00 0.00000E+00 0.00000E+00 0.00000E+00
 -1       954 0.00000E+00 0.00000E+00 0.00000E+00 0.00000E+00 0.00000E+00 0.00000E+00
 -1       955 0.00000E+00 0.00000E+00 0.00000E+00 0.00000E+00 0.00000E+00 0.00000E+00
 -1       956 0.00000E+00 0.00000E+00 0.00000E+00 0.00000E+00 0.00000E+00 0.00000E+00
 -1       957 0.00000E+00 0.00000E+00 0.00000E+00 0.00000E+00 0.00000E+00 0.00000E+00
 -1       958 0.00000E+00 0.00000E+00 0.00000E+00 0.00000E+00 0.00000E+00 0.00000E+00
 -1       959 0.00000E+00 0.00000E+00 0.00000E+00 0.00000E+00 0.00000E+00 0.00000E+00
 -1       960 0.00000E+00 0.00000E+00 0.00000E+00 0.00000E+00 0.00000E+00 0.00000E+00
 -1       961 0.00000E+00 0.00000E+00 0.00000E+00 0.00000E+00 0.00000E+00 0.00000E+00
 -1       962 0.00000E+00 0.00000E+00 0.00000E+00 0.00000E+00 0.00000E+00 0.00000E+00
 -1       963 0.00000E+00 0.00000E+00 0.00000E+00 0.00000E+00 0.00000E+00 0.00000E+00
 -1       964 0.00000E+00 0.00000E+00 0.00000E+00 0.00000E+00 0.00000E+00 0.00000E+00
 -1       965 0.00000E+00 0.00000E+00 0.00000E+00 0.00000E+00 0.00000E+00 0.00000E+00
 -1       966 0.00000E+00 0.00000E+00 0.00000E+00 0.00000E+00 0.00000E+00 0.00000E+00
 -1       967 0.00000E+00 0.00000E+00 0.00000E+00 0.00000E+00 0.00000E+00 0.00000E+00
 -1       968 0.00000E+00 0.00000E+00 0.00000E+00 0.00000E+00 0.00000E+00 0.00000E+00
 -1       969 0.00000E+00 0.00000E+00 0.00000E+00 0.00000E+00 0.00000E+00 0.00000E+00
 -1       970 0.00000E+00 0.00000E+00 0.00000E+00 0.00000E+00 0.00000E+00 0.00000E+00
 -1       971 0.00000E+00 0.00000E+00 0.00000E+00 0.00000E+00 0.00000E+00 0.00000E+00
 -1       972 0.00000E+00 0.00000E+00 0.00000E+00 0.00000E+00 0.00000E+00 0.00000E+00
 -1       973 0.00000E+00 0.00000E+00 0.00000E+00 0.00000E+00 0.00000E+00 0.00000E+00
 -1       974 0.00000E+00 0.00000E+00 0.00000E+00 0.00000E+00 0.00000E+00 0.00000E+00
 -1       975 0.00000E+00 0.00000E+00 0.00000E+00 0.00000E+00 0.00000E+00 0.00000E+00
 -1       976 0.00000E+00 0.00000E+00 0.00000E+00 0.00000E+00 0.00000E+00 0.00000E+00
 -1       977 0.00000E+00 0.00000E+00 0.00000E+00 0.00000E+00 0.00000E+00 0.00000E+00
 -1       978 0.00000E+00 0.00000E+00 0.00000E+00 0.00000E+00 0.00000E+00 0.00000E+00
 -1       979 0.00000E+00 0.00000E+00 0.00000E+00 0.00000E+00 0.00000E+00 0.00000E+00
 -1       980 0.00000E+00 0.00000E+00 0.00000E+00 0.00000E+00 0.00000E+00 0.00000E+00
 -1       981 0.00000E+00 0.00000E+00 0.00000E+00 0.00000E+00 0.00000E+00 0.00000E+00
 -1       982 0.00000E+00 0.00000E+00 0.00000E+00 0.00000E+00 0.00000E+00 0.00000E+00
 -1       983 0.00000E+00 0.00000E+00 0.00000E+00 0.00000E+00 0.00000E+00 0.00000E+00
 -1       984 0.00000E+00 0.00000E+00 0.00000E+00 0.00000E+00 0.00000E+00 0.00000E+00
 -1       985 0.00000E+00 0.00000E+00 0.00000E+00 0.00000E+00 0.00000E+00 0.00000E+00
 -1       986 0.00000E+00 0.00000E+00 0.00000E+00 0.00000E+00 0.00000E+00 0.00000E+00
 -1       987 0.00000E+00 0.00000E+00 0.00000E+00 0.00000E+00 0.00000E+00 0.00000E+00
 -1       988 0.00000E+00 0.00000E+00 0.00000E+00 0.00000E+00 0.00000E+00 0.00000E+00
 -1       989 0.00000E+00 0.00000E+00 0.00000E+00 0.00000E+00 0.00000E+00 0.00000E+00
 -1       990 0.00000E+00 0.00000E+00 0.00000E+00 0.00000E+00 0.00000E+00 0.00000E+00
 -1       991 0.00000E+00 0.00000E+00 0.00000E+00 0.00000E+00 0.00000E+00 0.00000E+00
 -1       992 0.00000E+00 0.00000E+00 0.00000E+00 0.00000E+00 0.00000E+00 0.00000E+00
 -1       993 0.00000E+00 0.00000E+00 0.00000E+00 0.00000E+00 0.00000E+00 0.00000E+00
 -1       994 0.00000E+00 0.00000E+00 0.00000E+00 0.00000E+00 0.00000E+00 0.00000E+00
 -1       995 0.00000E+00 0.00000E+00 0.00000E+00 0.00000E+00 0.00000E+00 0.00000E+00
 -1       996 0.00000E+00 0.00000E+00 0.00000E+00 0.00000E+00 0.00000E+00 0.00000E+00
 -1       997 0.00000E+00 0.00000E+00 0.00000E+00 0.00000E+00 0.00000E+00 0.00000E+00
 -1       998 0.00000E+00 0.00000E+00 0.00000E+00 0.00000E+00 0.00000E+00 0.00000E+00
 -1       999 0.00000E+00 0.00000E+00 0.00000E+00 0.00000E+00 0.00000E+00 0.00000E+00
 -1      1000 0.00000E+00 0.00000E+00 0.00000E+00 0.00000E+00 0.00000E+00 0.00000E+00
 -1      1001 0.00000E+00 0.00000E+00 0.00000E+00 0.00000E+00 0.00000E+00 0.00000E+00
 -1      1002 0.00000E+00 0.00000E+00 0.00000E+00 0.00000E+00 0.00000E+00 0.00000E+00
 -1      1003 0.00000E+00 0.00000E+00 0.00000E+00 0.00000E+00 0.00000E+00 0.00000E+00
 -1      1004 0.00000E+00 0.00000E+00 0.00000E+00 0.00000E+00 0.00000E+00 0.00000E+00
 -1      1005 0.00000E+00 0.00000E+00 0.00000E+00 0.00000E+00 0.00000E+00 0.00000E+00
 -1      1006 0.00000E+00 0.00000E+00 0.00000E+00 0.00000E+00 0.00000E+00 0.00000E+00
 -1      1007 0.00000E+00 0.00000E+00 0.00000E+00 0.00000E+00 0.00000E+00 0.00000E+00
 -1      1008 0.00000E+00 0.00000E+00 0.00000E+00 0.00000E+00 0.00000E+00 0.00000E+00
 -1      1009 0.00000E+00 0.00000E+00 0.00000E+00 0.00000E+00 0.00000E+00 0.00000E+00
 -1      1010 0.00000E+00 0.00000E+00 0.00000E+00 0.00000E+00 0.00000E+00 0.00000E+00
 -1      1011 0.00000E+00 0.00000E+00 0.00000E+00 0.00000E+00 0.00000E+00 0.00000E+00
 -1      1012 0.00000E+00 0.00000E+00 0.00000E+00 0.00000E+00 0.00000E+00 0.00000E+00
 -1      1013 0.00000E+00 0.00000E+00 0.00000E+00 0.00000E+00 0.00000E+00 0.00000E+00
 -1      1014 0.00000E+00 0.00000E+00 0.00000E+00 0.00000E+00 0.00000E+00 0.00000E+00
 -1      1015 0.00000E+00 0.00000E+00 0.00000E+00 0.00000E+00 0.00000E+00 0.00000E+00
 -1      1016 0.00000E+00 0.00000E+00 0.00000E+00 0.00000E+00 0.00000E+00 0.00000E+00
 -1      1017 0.00000E+00 0.00000E+00 0.00000E+00 0.00000E+00 0.00000E+00 0.00000E+00
 -1      1018 0.00000E+00 0.00000E+00 0.00000E+00 0.00000E+00 0.00000E+00 0.00000E+00
 -1      1019 0.00000E+00 0.00000E+00 0.00000E+00 0.00000E+00 0.00000E+00 0.00000E+00
 -1      1020 0.00000E+00 0.00000E+00 0.00000E+00 0.00000E+00 0.00000E+00 0.00000E+00
 -1      1021 0.00000E+00 0.00000E+00 0.00000E+00 0.00000E+00 0.00000E+00 0.00000E+00
 -1      1022 0.00000E+00 0.00000E+00 0.00000E+00 0.00000E+00 0.00000E+00 0.00000E+00
 -1      1023 0.00000E+00 0.00000E+00 0.00000E+00 0.00000E+00 0.00000E+00 0.00000E+00
 -1      1024 0.00000E+00 0.00000E+00 0.00000E+00 0.00000E+00 0.00000E+00 0.00000E+00
 -1      1025 0.00000E+00 0.00000E+00 0.00000E+00 0.00000E+00 0.00000E+00 0.00000E+00
 -1      1026 0.00000E+00 0.00000E+00 0.00000E+00 0.00000E+00 0.00000E+00 0.00000E+00
 -1      1027 0.00000E+00 0.00000E+00 0.00000E+00 0.00000E+00 0.00000E+00 0.00000E+00
 -1      1028 0.00000E+00 0.00000E+00 0.00000E+00 0.00000E+00 0.00000E+00 0.00000E+00
 -1      1029 0.00000E+00 0.00000E+00 0.00000E+00 0.00000E+00 0.00000E+00 0.00000E+00
 -1      1030 0.00000E+00 0.00000E+00 0.00000E+00 0.00000E+00 0.00000E+00 0.00000E+00
 -1      1031 0.00000E+00 0.00000E+00 0.00000E+00 0.00000E+00 0.00000E+00 0.00000E+00
 -1      1032 0.00000E+00 0.00000E+00 0.00000E+00 0.00000E+00 0.00000E+00 0.00000E+00
 -1      1033 0.00000E+00 0.00000E+00 0.00000E+00 0.00000E+00 0.00000E+00 0.00000E+00
 -1      1034 0.00000E+00 0.00000E+00 0.00000E+00 0.00000E+00 0.00000E+00 0.00000E+00
 -1      1035 0.00000E+00 0.00000E+00 0.00000E+00 0.00000E+00 0.00000E+00 0.00000E+00
 -1      1036 0.00000E+00 0.00000E+00 0.00000E+00 0.00000E+00 0.00000E+00 0.00000E+00
 -1      1037 0.00000E+00 0.00000E+00 0.00000E+00 0.00000E+00 0.00000E+00 0.00000E+00
 -1      1038 0.00000E+00 0.00000E+00 0.00000E+00 0.00000E+00 0.00000E+00 0.00000E+00
 -1      1039 0.00000E+00 0.00000E+00 0.00000E+00 0.00000E+00 0.00000E+00 0.00000E+00
 -1      1040 0.00000E+00 0.00000E+00 0.00000E+00 0.00000E+00 0.00000E+00 0.00000E+00
 -1      1041 0.00000E+00 0.00000E+00 0.00000E+00 0.00000E+00 0.00000E+00 0.00000E+00
 -1      1042 0.00000E+00 0.00000E+00 0.00000E+00 0.00000E+00 0.00000E+00 0.00000E+00
 -1      1043 0.00000E+00 0.00000E+00 0.00000E+00 0.00000E+00 0.00000E+00 0.00000E+00
 -1      1044 0.00000E+00 0.00000E+00 0.00000E+00 0.00000E+00 0.00000E+00 0.00000E+00
 -1      1045 0.00000E+00 0.00000E+00 0.00000E+00 0.00000E+00 0.00000E+00 0.00000E+00
 -1      1046 0.00000E+00 0.00000E+00 0.00000E+00 0.00000E+00 0.00000E+00 0.00000E+00
 -1      1047 0.00000E+00 0.00000E+00 0.00000E+00 0.00000E+00 0.00000E+00 0.00000E+00
 -1      1048 0.00000E+00 0.00000E+00 0.00000E+00 0.00000E+00 0.00000E+00 0.00000E+00
 -1      1049 0.00000E+00 0.00000E+00 0.00000E+00 0.00000E+00 0.00000E+00 0.00000E+00
 -1      1050 0.00000E+00 0.00000E+00 0.00000E+00 0.00000E+00 0.00000E+00 0.00000E+00
 -1      1051 0.00000E+00 0.00000E+00 0.00000E+00 0.00000E+00 0.00000E+00 0.00000E+00
 -1      1052 0.00000E+00 0.00000E+00 0.00000E+00 0.00000E+00 0.00000E+00 0.00000E+00
 -1      1053 0.00000E+00 0.00000E+00 0.00000E+00 0.00000E+00 0.00000E+00 0.00000E+00
 -1      1054 0.00000E+00 0.00000E+00 0.00000E+00 0.00000E+00 0.00000E+00 0.00000E+00
 -1      1055 0.00000E+00 0.00000E+00 0.00000E+00 0.00000E+00 0.00000E+00 0.00000E+00
 -1      1056 0.00000E+00 0.00000E+00 0.00000E+00 0.00000E+00 0.00000E+00 0.00000E+00
 -1      1057 0.00000E+00 0.00000E+00 0.00000E+00 0.00000E+00 0.00000E+00 0.00000E+00
 -1      1058 0.00000E+00 0.00000E+00 0.00000E+00 0.00000E+00 0.00000E+00 0.00000E+00
 -1      1059 0.00000E+00 0.00000E+00 0.00000E+00 0.00000E+00 0.00000E+00 0.00000E+00
 -1      1060 0.00000E+00 0.00000E+00 0.00000E+00 0.00000E+00 0.00000E+00 0.00000E+00
 -1      1061 0.00000E+00 0.00000E+00 0.00000E+00 0.00000E+00 0.00000E+00 0.00000E+00
 -1      1062 0.00000E+00 0.00000E+00 0.00000E+00 0.00000E+00 0.00000E+00 0.00000E+00
 -1      1063 0.00000E+00 0.00000E+00 0.00000E+00 0.00000E+00 0.00000E+00 0.00000E+00
 -1      1064 0.00000E+00 0.00000E+00 0.00000E+00 0.00000E+00 0.00000E+00 0.00000E+00
 -1      1065 0.00000E+00 0.00000E+00 0.00000E+00 0.00000E+00 0.00000E+00 0.00000E+00
 -1      1066 0.00000E+00 0.00000E+00 0.00000E+00 0.00000E+00 0.00000E+00 0.00000E+00
 -1      1067 0.00000E+00 0.00000E+00 0.00000E+00 0.00000E+00 0.00000E+00 0.00000E+00
 -1      1068 0.00000E+00 0.00000E+00 0.00000E+00 0.00000E+00 0.00000E+00 0.00000E+00
 -1      1069 0.00000E+00 0.00000E+00 0.00000E+00 0.00000E+00 0.00000E+00 0.00000E+00
 -1      1070 0.00000E+00 0.00000E+00 0.00000E+00 0.00000E+00 0.00000E+00 0.00000E+00
 -1      1071 0.00000E+00 0.00000E+00 0.00000E+00 0.00000E+00 0.00000E+00 0.00000E+00
 -1      1072 0.00000E+00 0.00000E+00 0.00000E+00 0.00000E+00 0.00000E+00 0.00000E+00
 -1      1073 0.00000E+00 0.00000E+00 0.00000E+00 0.00000E+00 0.00000E+00 0.00000E+00
 -1      1074 0.00000E+00 0.00000E+00 0.00000E+00 0.00000E+00 0.00000E+00 0.00000E+00
 -1      1075 0.00000E+00 0.00000E+00 0.00000E+00 0.00000E+00 0.00000E+00 0.00000E+00
 -1      1076 0.00000E+00 0.00000E+00 0.00000E+00 0.00000E+00 0.00000E+00 0.00000E+00
 -1      1077 0.00000E+00 0.00000E+00 0.00000E+00 0.00000E+00 0.00000E+00 0.00000E+00
 -1      1078 0.00000E+00 0.00000E+00 0.00000E+00 0.00000E+00 0.00000E+00 0.00000E+00
 -1      1079 0.00000E+00 0.00000E+00 0.00000E+00 0.00000E+00 0.00000E+00 0.00000E+00
 -1      1080 0.00000E+00 0.00000E+00 0.00000E+00 0.00000E+00 0.00000E+00 0.00000E+00
 -1      1081 0.00000E+00 0.00000E+00 0.00000E+00 0.00000E+00 0.00000E+00 0.00000E+00
 -1      1082 0.00000E+00 0.00000E+00 0.00000E+00 0.00000E+00 0.00000E+00 0.00000E+00
 -1      1083 0.00000E+00 0.00000E+00 0.00000E+00 0.00000E+00 0.00000E+00 0.00000E+00
 -1      1084 0.00000E+00 0.00000E+00 0.00000E+00 0.00000E+00 0.00000E+00 0.00000E+00
 -1      1085 0.00000E+00 0.00000E+00 0.00000E+00 0.00000E+00 0.00000E+00 0.00000E+00
 -1      1086 0.00000E+00 0.00000E+00 0.00000E+00 0.00000E+00 0.00000E+00 0.00000E+00
 -1      1087 0.00000E+00 0.00000E+00 0.00000E+00 0.00000E+00 0.00000E+00 0.00000E+00
 -1      1088 0.00000E+00 0.00000E+00 0.00000E+00 0.00000E+00 0.00000E+00 0.00000E+00
 -1      1089 0.00000E+00 0.00000E+00 0.00000E+00 0.00000E+00 0.00000E+00 0.00000E+00
 -1      1090 0.00000E+00 0.00000E+00 0.00000E+00 0.00000E+00 0.00000E+00 0.00000E+00
 -1      1091 0.00000E+00 0.00000E+00 0.00000E+00 0.00000E+00 0.00000E+00 0.00000E+00
 -1      1092 0.00000E+00 0.00000E+00 0.00000E+00 0.00000E+00 0.00000E+00 0.00000E+00
 -1      1093 0.00000E+00 0.00000E+00 0.00000E+00 0.00000E+00 0.00000E+00 0.00000E+00
 -1      1094 0.00000E+00 0.00000E+00 0.00000E+00 0.00000E+00 0.00000E+00 0.00000E+00
 -1      1095 0.00000E+00 0.00000E+00 0.00000E+00 0.00000E+00 0.00000E+00 0.00000E+00
 -1      1096 0.00000E+00 0.00000E+00 0.00000E+00 0.00000E+00 0.00000E+00 0.00000E+00
 -1      1097 0.00000E+00 0.00000E+00 0.00000E+00 0.00000E+00 0.00000E+00 0.00000E+00
 -1      1098 0.00000E+00 0.00000E+00 0.00000E+00 0.00000E+00 0.00000E+00 0.00000E+00
 -1      1099 0.00000E+00 0.00000E+00 0.00000E+00 0.00000E+00 0.00000E+00 0.00000E+00
 -1      1100 0.00000E+00 0.00000E+00 0.00000E+00 0.00000E+00 0.00000E+00 0.00000E+00
 -1      1101 0.00000E+00 0.00000E+00 0.00000E+00 0.00000E+00 0.00000E+00 0.00000E+00
 -1      1102 0.00000E+00 0.00000E+00 0.00000E+00 0.00000E+00 0.00000E+00 0.00000E+00
 -1      1103 0.00000E+00 0.00000E+00 0.00000E+00 0.00000E+00 0.00000E+00 0.00000E+00
 -1      1104 0.00000E+00 0.00000E+00 0.00000E+00 0.00000E+00 0.00000E+00 0.00000E+00
 -1      1105 0.00000E+00 0.00000E+00 0.00000E+00 0.00000E+00 0.00000E+00 0.00000E+00
 -1      1106 0.00000E+00 0.00000E+00 0.00000E+00 0.00000E+00 0.00000E+00 0.00000E+00
 -1      1107 0.00000E+00 0.00000E+00 0.00000E+00 0.00000E+00 0.00000E+00 0.00000E+00
 -1      1108 0.00000E+00 0.00000E+00 0.00000E+00 0.00000E+00 0.00000E+00 0.00000E+00
 -1      1109 0.00000E+00 0.00000E+00 0.00000E+00 0.00000E+00 0.00000E+00 0.00000E+00
 -1      1110 0.00000E+00 0.00000E+00 0.00000E+00 0.00000E+00 0.00000E+00 0.00000E+00
 -1      1111 0.00000E+00 0.00000E+00 0.00000E+00 0.00000E+00 0.00000E+00 0.00000E+00
 -1      1112 0.00000E+00 0.00000E+00 0.00000E+00 0.00000E+00 0.00000E+00 0.00000E+00
 -1      1113 0.00000E+00 0.00000E+00 0.00000E+00 0.00000E+00 0.00000E+00 0.00000E+00
 -1      1114 0.00000E+00 0.00000E+00 0.00000E+00 0.00000E+00 0.00000E+00 0.00000E+00
 -1      1115 0.00000E+00 0.00000E+00 0.00000E+00 0.00000E+00 0.00000E+00 0.00000E+00
 -1      1116 0.00000E+00 0.00000E+00 0.00000E+00 0.00000E+00 0.00000E+00 0.00000E+00
 -1      1117 0.00000E+00 0.00000E+00 0.00000E+00 0.00000E+00 0.00000E+00 0.00000E+00
 -1      1118 0.00000E+00 0.00000E+00 0.00000E+00 0.00000E+00 0.00000E+00 0.00000E+00
 -1      1119 0.00000E+00 0.00000E+00 0.00000E+00 0.00000E+00 0.00000E+00 0.00000E+00
 -1      1120 0.00000E+00 0.00000E+00 0.00000E+00 0.00000E+00 0.00000E+00 0.00000E+00
 -1      1121 0.00000E+00 0.00000E+00 0.00000E+00 0.00000E+00 0.00000E+00 0.00000E+00
 -1      1122 0.00000E+00 0.00000E+00 0.00000E+00 0.00000E+00 0.00000E+00 0.00000E+00
 -1      1123 0.00000E+00 0.00000E+00 0.00000E+00 0.00000E+00 0.00000E+00 0.00000E+00
 -1      1124 0.00000E+00 0.00000E+00 0.00000E+00 0.00000E+00 0.00000E+00 0.00000E+00
 -1      1125 0.00000E+00 0.00000E+00 0.00000E+00 0.00000E+00 0.00000E+00 0.00000E+00
 -1      1126 0.00000E+00 0.00000E+00 0.00000E+00 0.00000E+00 0.00000E+00 0.00000E+00
 -1      1127 0.00000E+00 0.00000E+00 0.00000E+00 0.00000E+00 0.00000E+00 0.00000E+00
 -1      1128 0.00000E+00 0.00000E+00 0.00000E+00 0.00000E+00 0.00000E+00 0.00000E+00
 -1      1129 0.00000E+00 0.00000E+00 0.00000E+00 0.00000E+00 0.00000E+00 0.00000E+00
 -1      1130 0.00000E+00 0.00000E+00 0.00000E+00 0.00000E+00 0.00000E+00 0.00000E+00
 -1      1131 0.00000E+00 0.00000E+00 0.00000E+00 0.00000E+00 0.00000E+00 0.00000E+00
 -1      1132 0.00000E+00 0.00000E+00 0.00000E+00 0.00000E+00 0.00000E+00 0.00000E+00
 -1      1133 0.00000E+00 0.00000E+00 0.00000E+00 0.00000E+00 0.00000E+00 0.00000E+00
 -1      1134 0.00000E+00 0.00000E+00 0.00000E+00 0.00000E+00 0.00000E+00 0.00000E+00
 -1      1135 0.00000E+00 0.00000E+00 0.00000E+00 0.00000E+00 0.00000E+00 0.00000E+00
 -1      1136 0.00000E+00 0.00000E+00 0.00000E+00 0.00000E+00 0.00000E+00 0.00000E+00
 -1      1137 0.00000E+00 0.00000E+00 0.00000E+00 0.00000E+00 0.00000E+00 0.00000E+00
 -1      1138 0.00000E+00 0.00000E+00 0.00000E+00 0.00000E+00 0.00000E+00 0.00000E+00
 -1      1139 0.00000E+00 0.00000E+00 0.00000E+00 0.00000E+00 0.00000E+00 0.00000E+00
 -1      1140 0.00000E+00 0.00000E+00 0.00000E+00 0.00000E+00 0.00000E+00 0.00000E+00
 -1      1141 0.00000E+00 0.00000E+00 0.00000E+00 0.00000E+00 0.00000E+00 0.00000E+00
 -1      1142 0.00000E+00 0.00000E+00 0.00000E+00 0.00000E+00 0.00000E+00 0.00000E+00
 -1      1143 0.00000E+00 0.00000E+00 0.00000E+00 0.00000E+00 0.00000E+00 0.00000E+00
 -1      1144 0.00000E+00 0.00000E+00 0.00000E+00 0.00000E+00 0.00000E+00 0.00000E+00
 -1      1145 0.00000E+00 0.00000E+00 0.00000E+00 0.00000E+00 0.00000E+00 0.00000E+00
 -1      1146 0.00000E+00 0.00000E+00 0.00000E+00 0.00000E+00 0.00000E+00 0.00000E+00
 -1      1147 0.00000E+00 0.00000E+00 0.00000E+00 0.00000E+00 0.00000E+00 0.00000E+00
 -1      1148 0.00000E+00 0.00000E+00 0.00000E+00 0.00000E+00 0.00000E+00 0.00000E+00
 -1      1149 0.00000E+00 0.00000E+00 0.00000E+00 0.00000E+00 0.00000E+00 0.00000E+00
 -1      1150 0.00000E+00 0.00000E+00 0.00000E+00 0.00000E+00 0.00000E+00 0.00000E+00
 -1      1151 0.00000E+00 0.00000E+00 0.00000E+00 0.00000E+00 0.00000E+00 0.00000E+00
 -1      1152 0.00000E+00 0.00000E+00 0.00000E+00 0.00000E+00 0.00000E+00 0.00000E+00
 -1      1153 0.00000E+00 0.00000E+00 0.00000E+00 0.00000E+00 0.00000E+00 0.00000E+00
 -1      1154 0.00000E+00 0.00000E+00 0.00000E+00 0.00000E+00 0.00000E+00 0.00000E+00
 -1      1155 0.00000E+00 0.00000E+00 0.00000E+00 0.00000E+00 0.00000E+00 0.00000E+00
 -1      1156 0.00000E+00 0.00000E+00 0.00000E+00 0.00000E+00 0.00000E+00 0.00000E+00
 -1      1157 0.00000E+00 0.00000E+00 0.00000E+00 0.00000E+00 0.00000E+00 0.00000E+00
 -1      1158 0.00000E+00 0.00000E+00 0.00000E+00 0.00000E+00 0.00000E+00 0.00000E+00
 -1      1159 0.00000E+00 0.00000E+00 0.00000E+00 0.00000E+00 0.00000E+00 0.00000E+00
 -1      1160 0.00000E+00 0.00000E+00 0.00000E+00 0.00000E+00 0.00000E+00 0.00000E+00
 -1      1161 0.00000E+00 0.00000E+00 0.00000E+00 0.00000E+00 0.00000E+00 0.00000E+00
 -1      1162 0.00000E+00 0.00000E+00 0.00000E+00 0.00000E+00 0.00000E+00 0.00000E+00
 -1      1163 0.00000E+00 0.00000E+00 0.00000E+00 0.00000E+00 0.00000E+00 0.00000E+00
 -1      1164 0.00000E+00 0.00000E+00 0.00000E+00 0.00000E+00 0.00000E+00 0.00000E+00
 -1      1165 0.00000E+00 0.00000E+00 0.00000E+00 0.00000E+00 0.00000E+00 0.00000E+00
 -1      1166 0.00000E+00 0.00000E+00 0.00000E+00 0.00000E+00 0.00000E+00 0.00000E+00
 -1      1167 0.00000E+00 0.00000E+00 0.00000E+00 0.00000E+00 0.00000E+00 0.00000E+00
 -1      1168 0.00000E+00 0.00000E+00 0.00000E+00 0.00000E+00 0.00000E+00 0.00000E+00
 -1      1169 0.00000E+00 0.00000E+00 0.00000E+00 0.00000E+00 0.00000E+00 0.00000E+00
 -1      1170 0.00000E+00 0.00000E+00 0.00000E+00 0.00000E+00 0.00000E+00 0.00000E+00
 -1      1171 0.00000E+00 0.00000E+00 0.00000E+00 0.00000E+00 0.00000E+00 0.00000E+00
 -1      1172 0.00000E+00 0.00000E+00 0.00000E+00 0.00000E+00 0.00000E+00 0.00000E+00
 -1      1173 0.00000E+00 0.00000E+00 0.00000E+00 0.00000E+00 0.00000E+00 0.00000E+00
 -1      1174 0.00000E+00 0.00000E+00 0.00000E+00 0.00000E+00 0.00000E+00 0.00000E+00
 -1      1175 0.00000E+00 0.00000E+00 0.00000E+00 0.00000E+00 0.00000E+00 0.00000E+00
 -1      1176 0.00000E+00 0.00000E+00 0.00000E+00 0.00000E+00 0.00000E+00 0.00000E+00
 -1      1177 0.00000E+00 0.00000E+00 0.00000E+00 0.00000E+00 0.00000E+00 0.00000E+00
 -1      1178 0.00000E+00 0.00000E+00 0.00000E+00 0.00000E+00 0.00000E+00 0.00000E+00
 -1      1179 0.00000E+00 0.00000E+00 0.00000E+00 0.00000E+00 0.00000E+00 0.00000E+00
 -1      1180 0.00000E+00 0.00000E+00 0.00000E+00 0.00000E+00 0.00000E+00 0.00000E+00
 -1      1181 0.00000E+00 0.00000E+00 0.00000E+00 0.00000E+00 0.00000E+00 0.00000E+00
 -1      1182 0.00000E+00 0.00000E+00 0.00000E+00 0.00000E+00 0.00000E+00 0.00000E+00
 -1      1183 0.00000E+00 0.00000E+00 0.00000E+00 0.00000E+00 0.00000E+00 0.00000E+00
 -1      1184 0.00000E+00 0.00000E+00 0.00000E+00 0.00000E+00 0.00000E+00 0.00000E+00
 -1      1185 0.00000E+00 0.00000E+00 0.00000E+00 0.00000E+00 0.00000E+00 0.00000E+00
 -1      1186 0.00000E+00 0.00000E+00 0.00000E+00 0.00000E+00 0.00000E+00 0.00000E+00
 -1      1187 0.00000E+00 0.00000E+00 0.00000E+00 0.00000E+00 0.00000E+00 0.00000E+00
 -1      1188 0.00000E+00 0.00000E+00 0.00000E+00 0.00000E+00 0.00000E+00 0.00000E+00
 -1      1189 0.00000E+00 0.00000E+00 0.00000E+00 0.00000E+00 0.00000E+00 0.00000E+00
 -1      1190 0.00000E+00 0.00000E+00 0.00000E+00 0.00000E+00 0.00000E+00 0.00000E+00
 -1      1191 0.00000E+00 0.00000E+00 0.00000E+00 0.00000E+00 0.00000E+00 0.00000E+00
 -1      1192 0.00000E+00 0.00000E+00 0.00000E+00 0.00000E+00 0.00000E+00 0.00000E+00
 -1      1193 0.00000E+00 0.00000E+00 0.00000E+00 0.00000E+00 0.00000E+00 0.00000E+00
 -1      1194 0.00000E+00 0.00000E+00 0.00000E+00 0.00000E+00 0.00000E+00 0.00000E+00
 -1      1195 0.00000E+00 0.00000E+00 0.00000E+00 0.00000E+00 0.00000E+00 0.00000E+00
 -1      1196 0.00000E+00 0.00000E+00 0.00000E+00 0.00000E+00 0.00000E+00 0.00000E+00
 -1      1197 0.00000E+00 0.00000E+00 0.00000E+00 0.00000E+00 0.00000E+00 0.00000E+00
 -1      1198 0.00000E+00 0.00000E+00 0.00000E+00 0.00000E+00 0.00000E+00 0.00000E+00
 -1      1199 0.00000E+00 0.00000E+00 0.00000E+00 0.00000E+00 0.00000E+00 0.00000E+00
 -1      1200 0.00000E+00 0.00000E+00 0.00000E+00 0.00000E+00 0.00000E+00 0.00000E+00
 -1      1201 0.00000E+00 0.00000E+00 0.00000E+00 0.00000E+00 0.00000E+00 0.00000E+00
 -1      1202 0.00000E+00 0.00000E+00 0.00000E+00 0.00000E+00 0.00000E+00 0.00000E+00
 -1      1203 0.00000E+00 0.00000E+00 0.00000E+00 0.00000E+00 0.00000E+00 0.00000E+00
 -1      1204 0.00000E+00 0.00000E+00 0.00000E+00 0.00000E+00 0.00000E+00 0.00000E+00
 -1      1205 0.00000E+00 0.00000E+00 0.00000E+00 0.00000E+00 0.00000E+00 0.00000E+00
 -1      1206 0.00000E+00 0.00000E+00 0.00000E+00 0.00000E+00 0.00000E+00 0.00000E+00
 -1      1207 0.00000E+00 0.00000E+00 0.00000E+00 0.00000E+00 0.00000E+00 0.00000E+00
 -1      1208 0.00000E+00 0.00000E+00 0.00000E+00 0.00000E+00 0.00000E+00 0.00000E+00
 -1      1209 0.00000E+00 0.00000E+00 0.00000E+00 0.00000E+00 0.00000E+00 0.00000E+00
 -1      1210 0.00000E+00 0.00000E+00 0.00000E+00 0.00000E+00 0.00000E+00 0.00000E+00
 -1      1211 0.00000E+00 0.00000E+00 0.00000E+00 0.00000E+00 0.00000E+00 0.00000E+00
 -1      1212 0.00000E+00 0.00000E+00 0.00000E+00 0.00000E+00 0.00000E+00 0.00000E+00
 -1      1213 0.00000E+00 0.00000E+00 0.00000E+00 0.00000E+00 0.00000E+00 0.00000E+00
 -1      1214 0.00000E+00 0.00000E+00 0.00000E+00 0.00000E+00 0.00000E+00 0.00000E+00
 -1      1215 0.00000E+00 0.00000E+00 0.00000E+00 0.00000E+00 0.00000E+00 0.00000E+00
 -1      1216 0.00000E+00 0.00000E+00 0.00000E+00 0.00000E+00 0.00000E+00 0.00000E+00
 -1      1217 0.00000E+00 0.00000E+00 0.00000E+00 0.00000E+00 0.00000E+00 0.00000E+00
 -1      1218 0.00000E+00 0.00000E+00 0.00000E+00 0.00000E+00 0.00000E+00 0.00000E+00
 -1      1219 0.00000E+00 0.00000E+00 0.00000E+00 0.00000E+00 0.00000E+00 0.00000E+00
 -1      1220 0.00000E+00 0.00000E+00 0.00000E+00 0.00000E+00 0.00000E+00 0.00000E+00
 -1      1221 0.00000E+00 0.00000E+00 0.00000E+00 0.00000E+00 0.00000E+00 0.00000E+00
 -1      1222 0.00000E+00 0.00000E+00 0.00000E+00 0.00000E+00 0.00000E+00 0.00000E+00
 -1      1223 0.00000E+00 0.00000E+00 0.00000E+00 0.00000E+00 0.00000E+00 0.00000E+00
 -1      1224 0.00000E+00 0.00000E+00 0.00000E+00 0.00000E+00 0.00000E+00 0.00000E+00
 -1      1225 0.00000E+00 0.00000E+00 0.00000E+00 0.00000E+00 0.00000E+00 0.00000E+00
 -1      1226 0.00000E+00 0.00000E+00 0.00000E+00 0.00000E+00 0.00000E+00 0.00000E+00
 -1      1227 0.00000E+00 0.00000E+00 0.00000E+00 0.00000E+00 0.00000E+00 0.00000E+00
 -1      1228 0.00000E+00 0.00000E+00 0.00000E+00 0.00000E+00 0.00000E+00 0.00000E+00
 -1      1229 0.00000E+00 0.00000E+00 0.00000E+00 0.00000E+00 0.00000E+00 0.00000E+00
 -1      1230 0.00000E+00 0.00000E+00 0.00000E+00 0.00000E+00 0.00000E+00 0.00000E+00
 -1      1231 0.00000E+00 0.00000E+00 0.00000E+00 0.00000E+00 0.00000E+00 0.00000E+00
 -1      1232 0.00000E+00 0.00000E+00 0.00000E+00 0.00000E+00 0.00000E+00 0.00000E+00
 -1      1233 0.00000E+00 0.00000E+00 0.00000E+00 0.00000E+00 0.00000E+00 0.00000E+00
 -1      1234 0.00000E+00 0.00000E+00 0.00000E+00 0.00000E+00 0.00000E+00 0.00000E+00
 -1      1235 0.00000E+00 0.00000E+00 0.00000E+00 0.00000E+00 0.00000E+00 0.00000E+00
 -1      1236 0.00000E+00 0.00000E+00 0.00000E+00 0.00000E+00 0.00000E+00 0.00000E+00
 -1      1237 0.00000E+00 0.00000E+00 0.00000E+00 0.00000E+00 0.00000E+00 0.00000E+00
 -3
    1PSTEP                         5           1           1          
  100CL  101 1.000000000        1236                     0    1           1
 -4  ERROR       1    1
 -5  STR(%)      1    1    0    0
 -1         1 2.28586E+01
 -1         2 3.55919E+01
 -1         3 4.16097E+01
 -1         4 4.16097E+01
 -1         5 3.64240E+01
 -1         6 3.64240E+01
 -1         7 3.54254E+01
 -1         8 3.54254E+01
 -1         9 3.52800E+01
 -1        10 3.52721E+01
 -1        11 3.53014E+01
 -1        12 3.53499E+01
 -1        13 3.54065E+01
 -1        14 3.54573E+01
 -1        15 3.54573E+01
 -1        16 3.55919E+01
 -1        17 3.55919E+01
 -1        18 1.01984E+01
 -1        19 3.86007E+00
 -1        20 2.69250E+00
 -1        21 2.36927E+00
 -1        22 2.14145E+00
 -1        23 1.94767E+00
 -1        24 1.74523E+00
 -1        25 1.49542E+00
 -1        26 1.15925E+00
 -1        27 3.37729E+00
 -1        28 4.49430E-01
 -1        29 2.28586E+01
 -1        30 7.65629E+00
 -1        31 2.95419E+00
 -1        32 2.34348E+00
 -1        33 1.86328E+00
 -1        34 1.53730E+00
 -1        35 1.28793E+00
 -1        36 1.06860E+00
 -1        37 8.58705E-01
 -1        38 6.32095E-01
 -1        39 1.75500E+00
 -1        40 4.16097E+01
 -1        41 1.27382E+01
 -1        42 4.10343E+00
 -1        43 2.41058E+00
 -1        44 1.97120E+00
 -1        45 1.60459E+00
 -1        46 1.32663E+00
 -1        47 1.08964E+00
 -1        48 8.65668E-01
 -1        49 6.32095E-01
 -1        50 1.75500E+00
 -1        51 4.16097E+01
 -1        52 1.70082E+01
 -1        53 4.10343E+00
 -1        54 2.41058E+00
 -1        55 1.97120E+00
 -1        56 1.60459E+00
 -1        57 1.32663E+00
 -1        58 1.08964E+00
 -1        59 8.65668E-01
 -1        60 6.31711E-01
 -1        61 1.73845E+00
 -1        62 3.64240E+01
 -1        63 1.76548E+01
 -1        64 6.63313E+00
 -1        65 2.26223E+00
 -1        66 1.90700E+00
 -1        67 1.58879E+00
 -1        68 1.31971E+00
 -1        69 1.08078E+00
 -1        70 8.54168E-01
 -1        71 6.18363E-01
 -1        72 1.68543E+00
 -1        73 3.64240E+01
 -1        74 1.76548E+01
 -1        75 8.61268E+00
 -1        76 2.72328E+00
 -1        77 1.70306E+00
 -1        78 1.48498E+00
 -1        79 1.25602E+00
 -1        80 1.03610E+00
 -1        81 8.18126E-01
 -1        82 5.88666E-01
 -1        83 1.58574E+00
 -1        84 3.54254E+01
 -1        85 1.74214E+01
 -1        86 9.62992E+00
 -1        87 3.41778E+00
 -1        88 2.13949E+00
 -1        89 1.30228E+00
 -1        90 1.13754E+00
 -1        91 9.52172E-01
 -1        92 7.54327E-01
 -1        93 5.39551E-01
 -1        94 1.43167E+00
 -1        95 3.54254E+01
 -1        96 1.70850E+01
 -1        97 9.81201E+00
 -1        98 4.74420E+00
 -1        99 2.54853E+00
 -1       100 1.74226E+00
 -1       101 1.03266E+00
 -1       102 8.27768E-01
 -1       103 6.60010E-01
 -1       104 4.68447E-01
 -1       105 1.21449E+00
 -1       106 3.52800E+01
 -1       107 1.65815E+01
 -1       108 9.81201E+00
 -1       109 5.37388E+00
 -1       110 2.80716E+00
 -1       111 2.11331E+00
 -1       112 1.44282E+00
 -1       113 8.52760E-01
 -1       114 5.33103E-01
 -1       115 3.73227E-01
 -1       116 9.27882E-01
 -1       117 3.52721E+01
 -1       118 1.60351E+01
 -1       119 9.71161E+00
 -1       120 5.55363E+00
 -1       121 2.95371E+00
 -1       122 2.37183E+00
 -1       123 1.77531E+00
 -1       124 1.19691E+00
 -1       125 6.92931E-01
 -1       126 3.15744E-01
 -1       127 6.86654E-01
 -1       128 3.53014E+01
 -1       129 1.54674E+01
 -1       130 9.37959E+00
 -1       131 5.55363E+00
 -1       132 3.01628E+00
 -1       133 2.53216E+00
 -1       134 2.02171E+00
 -1       135 1.48978E+00
 -1       136 9.74996E-01
 -1       137 5.32888E-01
 -1       138 1.01305E+00
 -1       139 3.53499E+01
 -1       140 1.48673E+01
 -1       141 8.90536E+00
 -1       142 5.42005E+00
 -1       143 3.01628E+00
 -1       144 2.60821E+00
 -1       145 2.18155E+00
 -1       146 1.71527E+00
 -1       147 1.22316E+00
 -1       148 7.45107E-01
 -1       149 1.62408E+00
 -1       150 3.54065E+01
 -1       151 1.42177E+01
 -1       152 8.29707E+00
 -1       153 5.03775E+00
 -1       154 3.01195E+00
 -1       155 2.60910E+00
 -1       156 2.25712E+00
 -1       157 1.86264E+00
 -1       158 1.41730E+00
 -1       159 9.35177E-01
 -1       160 2.23443E+00
 -1       161 3.54573E+01
 -1       162 1.34868E+01
 -1       163 7.54487E+00
 -1       164 4.42712E+00
 -1       165 2.94916E+00
 -1       166 2.60910E+00
 -1       167 2.25712E+00
 -1       168 1.92398E+00
 -1       169 1.53893E+00
 -1       170 1.08248E+00
 -1       171 2.78952E+00
 -1       172 3.54573E+01
 -1       173 1.26345E+01
 -1       174 6.60923E+00
 -1       175 3.56942E+00
 -1       176 2.82846E+00
 -1       177 2.53739E+00
 -1       178 2.24874E+00
 -1       179 1.92398E+00
 -1       180 1.57143E+00
 -1       181 1.16492E+00
 -1       182 3.20720E+00
 -1       183 3.55919E+01
 -1       184 1.16030E+01
 -1       185 5.42191E+00
 -1       186 2.97660E+00
 -1       187 2.64245E+00
 -1       188 2.38800E+00
 -1       189 2.15146E+00
 -1       190 1.89061E+00
 -1       191 1.57143E+00
 -1       192 1.16492E+00
 -1       193 3.37729E+00
 -1       194 4.11191E+01
 -1       195 2.85416E+01
 -1       196 1.42840E+00
 -1       197 1.47499E-01
 -1       199 4.11191E+01
 -1       200 3.33117E+01
 -1       201 1.30671E+01
 -1       202 3.78235E+00
 -1       203 2.58272E+00
 -1       204 2.15041E+00
 -1       205 1.81377E+00
 -1       206 1.52937E+00
 -1       207 1.26845E+00
 -1       208 1.00542E+00
 -1       209 8.89367E-01
 -1       210 1.49995E+00
 -1       211 2.74246E+00
 -1       212 8.25752E+00
 -1       213 3.17365E+01
 -1       214 3.17365E+01
 -1       215 2.85416E+01
 -1       216 7.44300E+00
 -1       217 2.88006E+00
 -1       218 2.42816E+00
 -1       219 2.04452E+00
 -1       220 1.90789E+00
 -1       221 2.00484E+00
 -1       222 5.55766E+00
 -1       223 5.55766E+00
 -1       224 2.79083E+00
 -1       225 2.52453E+00
 -1       226 1.47999E+00
 -1       227 1.53906E+00
 -1       228 1.60411E+00
 -1       229 1.67539E+00
 -1       230 1.75281E+00
 -1       231 1.83678E+00
 -1       232 1.92893E+00
 -1       233 2.03319E+00
 -1       234 2.15744E+00
 -1       235 2.31571E+00
 -1       236 2.53156E+00
 -1       237 2.84571E+00
 -1       238 4.47871E+00
 -1       239 4.47871E+00
 -1       240 1.93521E-01
 -1       241 1.48985E-01
 -1       242 9.70906E-01
 -1       243 1.58860E+00
 -1       244 1.71358E+00
 -1       245 3.90664E+00
 -1       246 1.30784E+01
 -1       247 2.18727E+01
 -1       248 2.99328E+01
 -1       249 3.70927E+01
 -1       250 4.06595E+01
 -1       251 4.06595E+01
 -1       252 4.11191E+01
 -1       253 4.11191E+01
 -1       254 4.06595E+01
 -1       255 4.06595E+01
 -1       256 3.70927E+01
 -1       257 2.99328E+01
 -1       258 2.18727E+01
 -1       259 1.30784E+01
 -1       260 3.90664E+00
 -1       261 1.76024E+00
 -1       262 1.58860E+00
 -1       263 9.70906E-01
 -1       264 3.33117E+01
 -1       265 2.36306E+01
 -1       266 1.76500E+01
 -1       267 1.32399E+01
 -1       268 9.39968E+00
 -1       269 5.77729E+00
 -1       270 2.95236E+00
 -1       271 2.34495E+00
 -1       272 1.76024E+00
 -1       273 1.20680E+00
 -1       274 6.64202E-01
 -1       275 1.30671E+01
 -1       276 1.03976E+01
 -1       277 7.22258E+00
 -1       278 4.43363E+00
 -1       279 2.89232E+00
 -1       280 2.46888E+00
 -1       281 2.04252E+00
 -1       282 1.64162E+00
 -1       283 2.95441E+00
 -1       284 3.18877E+00
 -1       285 4.47871E+00
 -1       286 3.78235E+00
 -1       287 3.00856E+00
 -1       288 2.67428E+00
 -1       289 2.37217E+00
 -1       290 2.05736E+00
 -1       291 1.79005E+00
 -1       292 1.54273E+00
 -1       293 2.66923E+00
 -1       294 2.95441E+00
 -1       295 3.18877E+00
 -1       296 4.47871E+00
 -1       297 2.58272E+00
 -1       298 2.38847E+00
 -1       299 2.14760E+00
 -1       300 1.91781E+00
 -1       301 1.72507E+00
 -1       302 1.58247E+00
 -1       303 1.51992E+00
 -1       304 2.66923E+00
 -1       305 2.72638E+00
 -1       306 2.90285E+00
 -1       307 2.90285E+00
 -1       308 2.15041E+00
 -1       309 2.06167E+00
 -1       310 1.93207E+00
 -1       311 1.79225E+00
 -1       312 1.66443E+00
 -1       313 1.59603E+00
 -1       314 1.63199E+00
 -1       315 2.55796E+00
 -1       316 2.62325E+00
 -1       317 2.78732E+00
 -1       318 2.78732E+00
 -1       319 1.81377E+00
 -1       320 1.79410E+00
 -1       321 1.74954E+00
 -1       322 1.69217E+00
 -1       323 1.64311E+00
 -1       324 1.68615E+00
 -1       325 1.76543E+00
 -1       326 2.51335E+00
 -1       327 2.57772E+00
 -1       328 2.72122E+00
 -1       329 2.72122E+00
 -1       330 1.56346E+00
 -1       331 1.59033E+00
 -1       332 1.60889E+00
 -1       333 1.62364E+00
 -1       334 1.69864E+00
 -1       335 1.78262E+00
 -1       336 1.89350E+00
 -1       337 2.51549E+00
 -1       338 2.56182E+00
 -1       339 2.68256E+00
 -1       340 2.68256E+00
 -1       341 1.35565E+00
 -1       342 1.45193E+00
 -1       343 1.54292E+00
 -1       344 1.64079E+00
 -1       345 1.75661E+00
 -1       346 1.86744E+00
 -1       347 1.99764E+00
 -1       348 2.55191E+00
 -1       349 2.57512E+00
 -1       350 2.65922E+00
 -1       351 2.65922E+00
 -1       352 1.16130E+00
 -1       353 1.33853E+00
 -1       354 1.50560E+00
 -1       355 1.68251E+00
 -1       356 1.81577E+00
 -1       357 1.93278E+00
 -1       358 2.06773E+00
 -1       359 2.62199E+00
 -1       360 2.62199E+00
 -1       361 2.64403E+00
 -1       362 2.64403E+00
 -1       363 1.09640E+00
 -1       364 1.27390E+00
 -1       365 1.57403E+00
 -1       366 1.76016E+00
 -1       367 1.87599E+00
 -1       368 1.97464E+00
 -1       369 2.10233E+00
 -1       370 2.75899E+00
 -1       371 2.75899E+00
 -1       372 2.63712E+00
 -1       373 2.63266E+00
 -1       374 1.60833E+00
 -1       375 1.60833E+00
 -1       376 1.73230E+00
 -1       377 1.86682E+00
 -1       378 1.93024E+00
 -1       379 1.99131E+00
 -1       380 2.10671E+00
 -1       381 2.99706E+00
 -1       382 2.99706E+00
 -1       383 2.68076E+00
 -1       384 2.62221E+00
 -1       385 2.74246E+00
 -1       386 2.31041E+00
 -1       387 2.01391E+00
 -1       388 2.01391E+00
 -1       389 1.98707E+00
 -1       390 1.99131E+00
 -1       391 2.10671E+00
 -1       392 3.73887E+00
 -1       393 3.73887E+00
 -1       394 2.72439E+00
 -1       395 2.61043E+00
 -1       396 8.25752E+00
 -1       397 4.36471E+00
 -1       398 2.30870E+00
 -1       399 2.22380E+00
 -1       400 2.09031E+00
 -1       401 1.98511E+00
 -1       402 2.09053E+00
 -1       403 4.68410E+00
 -1       404 4.68410E+00
 -1       405 2.75979E+00
 -1       406 2.59552E+00
 -1       407 3.17365E+01
 -1       408 4.36471E+00
 -1       409 4.33626E+00
 -1       410 2.34398E+00
 -1       411 2.11823E+00
 -1       412 1.96363E+00
 -1       413 2.06444E+00
 -1       414 5.25682E+00
 -1       415 5.25682E+00
 -1       416 2.78331E+00
 -1       417 2.57628E+00
 -1       418 3.17365E+01
 -1       419 7.44300E+00
 -1       420 4.33626E+00
 -1       421 2.42816E+00
 -1       422 2.11823E+00
 -1       423 1.94259E+00
 -1       424 2.03483E+00
 -1       425 5.55766E+00
 -1       426 5.55766E+00
 -1       427 2.79083E+00
 -1       428 2.55213E+00
 -1       429 3.22341E+01
 -1       430 4.16097E+01
 -1       431 3.22341E+01
 -1       432 2.28586E+01
 -1       433 2.71739E+01
 -1       434 1.01973E+01
 -1       435 1.52574E+01
 -1       436 8.42082E+00
 -1       437 3.52881E+00
 -1       438 5.30524E+00
 -1       439 3.25700E+00
 -1       440 2.37703E+00
 -1       441 2.64884E+00
 -1       442 2.19089E+00
 -1       443 1.91724E+00
 -1       444 2.10338E+00
 -1       445 1.78789E+00
 -1       446 1.57094E+00
 -1       447 1.70029E+00
 -1       448 1.46561E+00
 -1       449 1.30728E+00
 -1       450 1.41262E+00
 -1       451 1.20814E+00
 -1       452 1.07912E+00
 -1       453 1.17827E+00
 -1       454 9.77654E-01
 -1       455 8.62186E-01
 -1       456 9.63655E-01
 -1       457 7.48881E-01
 -1       458 6.32095E-01
 -1       459 7.45400E-01
 -1       460 1.19355E+00
 -1       461 1.75500E+00
 -1       462 1.19355E+00
 -1       463 1.10221E+00
 -1       464 1.10221E+00
 -1       465 4.16097E+01
 -1       466 4.16097E+01
 -1       467 4.16097E+01
 -1       468 2.93089E+01
 -1       469 1.48732E+01
 -1       470 1.05558E+01
 -1       471 4.10343E+00
 -1       472 3.25700E+00
 -1       473 2.41058E+00
 -1       474 2.19089E+00
 -1       475 1.97120E+00
 -1       476 1.78789E+00
 -1       477 1.60459E+00
 -1       478 1.46561E+00
 -1       479 1.32663E+00
 -1       480 1.20814E+00
 -1       481 1.08964E+00
 -1       482 9.77654E-01
 -1       483 8.65668E-01
 -1       484 7.48689E-01
 -1       485 6.31903E-01
 -1       486 1.18508E+00
 -1       487 1.74672E+00
 -1       488 1.09394E+00
 -1       489 3.90168E+01
 -1       490 3.64240E+01
 -1       491 3.90168E+01
 -1       492 2.70394E+01
 -1       493 1.73315E+01
 -1       494 1.21440E+01
 -1       495 5.36828E+00
 -1       496 4.44768E+00
 -1       497 2.33640E+00
 -1       498 2.08461E+00
 -1       499 1.93910E+00
 -1       500 1.74789E+00
 -1       501 1.59669E+00
 -1       502 1.45425E+00
 -1       503 1.32317E+00
 -1       504 1.20025E+00
 -1       505 1.08521E+00
 -1       506 9.67475E-01
 -1       507 8.59918E-01
 -1       508 7.36266E-01
 -1       509 6.25037E-01
 -1       510 1.15190E+00
 -1       511 1.71194E+00
 -1       512 1.06743E+00
 -1       513 3.64240E+01
 -1       514 3.64240E+01
 -1       515 3.64240E+01
 -1       516 2.70394E+01
 -1       517 1.76548E+01
 -1       518 1.31337E+01
 -1       519 7.62291E+00
 -1       520 5.66798E+00
 -1       521 2.49275E+00
 -1       522 2.21317E+00
 -1       523 1.80503E+00
 -1       524 1.59402E+00
 -1       525 1.53689E+00
 -1       526 1.37050E+00
 -1       527 1.28787E+00
 -1       528 1.14606E+00
 -1       529 1.05844E+00
 -1       530 9.27114E-01
 -1       531 8.36147E-01
 -1       532 7.03396E-01
 -1       533 6.03515E-01
 -1       534 1.08720E+00
 -1       535 1.63558E+00
 -1       536 1.01758E+00
 -1       537 3.59247E+01
 -1       538 3.54254E+01
 -1       539 3.59247E+01
 -1       540 2.64234E+01
 -1       541 1.75381E+01
 -1       542 1.35257E+01
 -1       543 9.12130E+00
 -1       544 6.52385E+00
 -1       545 3.07053E+00
 -1       546 2.77864E+00
 -1       547 1.92128E+00
 -1       548 1.72089E+00
 -1       549 1.39363E+00
 -1       550 1.21991E+00
 -1       551 1.19678E+00
 -1       552 1.04485E+00
 -1       553 9.94137E-01
 -1       554 8.53249E-01
 -1       555 7.86226E-01
 -1       556 6.46939E-01
 -1       557 5.64109E-01
 -1       558 9.85610E-01
 -1       559 1.50870E+00
 -1       560 9.40550E-01
 -1       561 3.54254E+01
 -1       562 3.54254E+01
 -1       563 3.54254E+01
 -1       564 2.62552E+01
 -1       565 1.72532E+01
 -1       566 1.34485E+01
 -1       567 9.72096E+00
 -1       568 7.27811E+00
 -1       569 4.08099E+00
 -1       570 3.64637E+00
 -1       571 2.34401E+00
 -1       572 2.14540E+00
 -1       573 1.52227E+00
 -1       574 1.38746E+00
 -1       575 1.08510E+00
 -1       576 9.30215E-01
 -1       577 8.89970E-01
 -1       578 7.43889E-01
 -1       579 7.07168E-01
 -1       580 5.64229E-01
 -1       581 5.03999E-01
 -1       582 8.41471E-01
 -1       583 1.32308E+00
 -1       584 8.31962E-01
 -1       585 3.53527E+01
 -1       586 3.52800E+01
 -1       587 3.53527E+01
 -1       588 2.59307E+01
 -1       589 1.68332E+01
 -1       590 1.31967E+01
 -1       591 9.81201E+00
 -1       592 7.59294E+00
 -1       593 5.05904E+00
 -1       594 4.09052E+00
 -1       595 2.67785E+00
 -1       596 2.46023E+00
 -1       597 1.92779E+00
 -1       598 1.77806E+00
 -1       599 1.23774E+00
 -1       600 1.14779E+00
 -1       601 8.40264E-01
 -1       602 6.92932E-01
 -1       603 5.96556E-01
 -1       604 4.53165E-01
 -1       605 4.20837E-01
 -1       606 6.50555E-01
 -1       607 1.07119E+00
 -1       608 6.88656E-01
 -1       609 3.52760E+01
 -1       610 3.52721E+01
 -1       611 3.52760E+01
 -1       612 2.56536E+01
 -1       613 1.63083E+01
 -1       614 1.28733E+01
 -1       615 9.76181E+00
 -1       616 7.63262E+00
 -1       617 5.46375E+00
 -1       618 4.25367E+00
 -1       619 2.88044E+00
 -1       620 2.66277E+00
 -1       621 2.24257E+00
 -1       622 2.07357E+00
 -1       623 1.60906E+00
 -1       624 1.48611E+00
 -1       625 1.02484E+00
 -1       626 9.44921E-01
 -1       627 6.13017E-01
 -1       628 5.04338E-01
 -1       629 3.44486E-01
 -1       630 5.01199E-01
 -1       631 8.07268E-01
 -1       632 5.68042E-01
 -1       633 3.52868E+01
 -1       634 3.53014E+01
 -1       635 3.52868E+01
 -1       636 2.53844E+01
 -1       637 1.57513E+01
 -1       638 1.24235E+01
 -1       639 9.54560E+00
 -1       640 7.46661E+00
 -1       641 5.55363E+00
 -1       642 4.28495E+00
 -1       643 2.98500E+00
 -1       644 2.77422E+00
 -1       645 2.45200E+00
 -1       646 2.27693E+00
 -1       647 1.89851E+00
 -1       648 1.75574E+00
 -1       649 1.34335E+00
 -1       650 1.23239E+00
 -1       651 8.33964E-01
 -1       652 7.53942E-01
 -1       653 4.24316E-01
 -1       654 7.72967E-01
 -1       655 8.49850E-01
 -1       656 7.31238E-01
 -1       657 3.53257E+01
 -1       658 3.53499E+01
 -1       659 3.53257E+01
 -1       660 2.51086E+01
 -1       661 1.51674E+01
 -1       662 1.18863E+01
 -1       663 9.14247E+00
 -1       664 7.16270E+00
 -1       665 5.48684E+00
 -1       666 4.21817E+00
 -1       667 3.01628E+00
 -1       668 2.81224E+00
 -1       669 2.57018E+00
 -1       670 2.39488E+00
 -1       671 2.10163E+00
 -1       672 1.94841E+00
 -1       673 1.60253E+00
 -1       674 1.46922E+00
 -1       675 1.09908E+00
 -1       676 9.84135E-01
 -1       677 6.38998E-01
 -1       678 1.18460E+00
 -1       679 1.31857E+00
 -1       680 1.03676E+00
 -1       681 3.53782E+01
 -1       682 3.54065E+01
 -1       683 3.53782E+01
 -1       684 2.48121E+01
 -1       685 1.45425E+01
 -1       686 1.12574E+01
 -1       687 8.60121E+00
 -1       688 6.66741E+00
 -1       689 5.22890E+00
 -1       690 4.02485E+00
 -1       691 3.01411E+00
 -1       692 2.81052E+00
 -1       693 2.60866E+00
 -1       694 2.43311E+00
 -1       695 2.21934E+00
 -1       696 2.05988E+00
 -1       697 1.78896E+00
 -1       698 1.63997E+00
 -1       699 1.32023E+00
 -1       700 1.17624E+00
 -1       701 8.40142E-01
 -1       702 1.58480E+00
 -1       703 1.92926E+00
 -1       704 1.34193E+00
 -1       705 3.54319E+01
 -1       706 3.54573E+01
 -1       707 3.54319E+01
 -1       708 2.44720E+01
 -1       709 1.38523E+01
 -1       710 1.05158E+01
 -1       711 7.92097E+00
 -1       712 5.98600E+00
 -1       713 4.73244E+00
 -1       714 3.68814E+00
 -1       715 2.98055E+00
 -1       716 2.77913E+00
 -1       717 2.60910E+00
 -1       718 2.43311E+00
 -1       719 2.25712E+00
 -1       720 2.09055E+00
 -1       721 1.89331E+00
 -1       722 1.73146E+00
 -1       723 1.47812E+00
 -1       724 1.31071E+00
 -1       725 1.00883E+00
 -1       726 1.93600E+00
 -1       727 2.51198E+00
 -1       728 1.61948E+00
 -1       729 3.54573E+01
 -1       730 3.54573E+01
 -1       731 3.54573E+01
 -1       732 2.40459E+01
 -1       733 1.30606E+01
 -1       734 9.62185E+00
 -1       735 7.07705E+00
 -1       736 5.08932E+00
 -1       737 3.99827E+00
 -1       738 3.19894E+00
 -1       739 2.88881E+00
 -1       740 2.68292E+00
 -1       741 2.57325E+00
 -1       742 2.39307E+00
 -1       743 2.25293E+00
 -1       744 2.08636E+00
 -1       745 1.92398E+00
 -1       746 1.74770E+00
 -1       747 1.55518E+00
 -1       748 1.36818E+00
 -1       749 1.12370E+00
 -1       750 2.18606E+00
 -1       751 2.99836E+00
 -1       752 1.82831E+00
 -1       753 3.55246E+01
 -1       754 3.55919E+01
 -1       755 3.55246E+01
 -1       756 2.35974E+01
 -1       757 1.21187E+01
 -1       758 8.51243E+00
 -1       759 6.01557E+00
 -1       760 4.19926E+00
 -1       761 3.27301E+00
 -1       762 2.80953E+00
 -1       763 2.73545E+00
 -1       764 2.51523E+00
 -1       765 2.46270E+00
 -1       766 2.26973E+00
 -1       767 2.20010E+00
 -1       768 2.02104E+00
 -1       769 1.90730E+00
 -1       770 1.73102E+00
 -1       771 1.57143E+00
 -1       772 1.36818E+00
 -1       773 1.16492E+00
 -1       774 2.27111E+00
 -1       775 3.29224E+00
 -1       776 1.91336E+00
 -1       777 3.55919E+01
 -1       778 3.55919E+01
 -1       779 3.55919E+01
 -1       780 2.28952E+01
 -1       781 1.09007E+01
 -1       782 7.02926E+00
 -1       783 4.64099E+00
 -1       784 3.27628E+00
 -1       785 2.83455E+00
 -1       786 2.53088E+00
 -1       787 2.50586E+00
 -1       788 2.25536E+00
 -1       789 2.26473E+00
 -1       790 2.04456E+00
 -1       791 2.04957E+00
 -1       792 1.84645E+00
 -1       793 1.81792E+00
 -1       794 1.62033E+00
 -1       795 1.53343E+00
 -1       796 1.32733E+00
 -1       797 1.16208E+00
 -1       798 2.26827E+00
 -1       799 3.37729E+00
 -1       800 1.91336E+00
 -1       801 4.11191E+01
 -1       802 4.11191E+01
 -1       803 4.11191E+01
 -1       804 4.11191E+01
 -1       805 4.08893E+01
 -1       806 4.06595E+01
 -1       807 4.08893E+01
 -1       808 4.06595E+01
 -1       809 4.06595E+01
 -1       810 4.06595E+01
 -1       811 3.88761E+01
 -1       812 3.70927E+01
 -1       813 3.88761E+01
 -1       814 3.35127E+01
 -1       815 2.99328E+01
 -1       816 3.35127E+01
 -1       817 2.59028E+01
 -1       818 2.18727E+01
 -1       819 2.59028E+01
 -1       820 1.74756E+01
 -1       821 1.30784E+01
 -1       822 1.74756E+01
 -1       823 8.49254E+00
 -1       824 3.90664E+00
 -1       825 8.49254E+00
 -1       826 2.83344E+00
 -1       827 1.73691E+00
 -1       828 2.81011E+00
 -1       829 1.67442E+00
 -1       830 1.58860E+00
 -1       831 1.65109E+00
 -1       832 1.27975E+00
 -1       833 9.70906E-01
 -1       834 1.27975E+00
 -1       835 5.59945E-01
 -1       836 1.48242E-01
 -1       837 5.59202E-01
 -1       838 3.72154E+01
 -1       839 3.33117E+01
 -1       840 3.72154E+01
 -1       841 2.84712E+01
 -1       842 3.21451E+01
 -1       843 2.06403E+01
 -1       844 2.91547E+01
 -1       845 1.54449E+01
 -1       846 2.51663E+01
 -1       847 1.13198E+01
 -1       848 1.96663E+01
 -1       849 7.58849E+00
 -1       850 1.38250E+01
 -1       851 4.36482E+00
 -1       852 8.01540E+00
 -1       853 2.64865E+00
 -1       854 3.12580E+00
 -1       855 2.05260E+00
 -1       856 1.76024E+00
 -1       857 1.48352E+00
 -1       858 1.39770E+00
 -1       859 9.35498E-01
 -1       860 8.17554E-01
 -1       861 4.28861E-01
 -1       862 1.71253E-01
 -1       863 2.31894E+01
 -1       864 1.30671E+01
 -1       865 2.31894E+01
 -1       866 1.17324E+01
 -1       867 1.70141E+01
 -1       868 8.81010E+00
 -1       869 1.24363E+01
 -1       870 5.82810E+00
 -1       871 8.83675E+00
 -1       872 3.66298E+00
 -1       873 6.14600E+00
 -1       874 2.68060E+00
 -1       875 4.12309E+00
 -1       876 2.25570E+00
 -1       877 2.49744E+00
 -1       878 1.84207E+00
 -1       879 1.99328E+00
 -1       880 2.29801E+00
 -1       881 2.35732E+00
 -1       882 3.07159E+00
 -1       883 2.19778E+00
 -1       884 3.83374E+00
 -1       885 2.57145E+00
 -1       886 4.47871E+00
 -1       887 2.33611E+00
 -1       888 8.42473E+00
 -1       889 3.78235E+00
 -1       890 8.42473E+00
 -1       891 3.39545E+00
 -1       892 6.70310E+00
 -1       893 2.84142E+00
 -1       894 4.94843E+00
 -1       895 2.52322E+00
 -1       896 3.40290E+00
 -1       897 2.21476E+00
 -1       898 2.47484E+00
 -1       899 1.92370E+00
 -1       900 2.12946E+00
 -1       901 1.66639E+00
 -1       902 1.79263E+00
 -1       903 2.10598E+00
 -1       904 2.15542E+00
 -1       905 2.81182E+00
 -1       906 2.95441E+00
 -1       907 3.07159E+00
 -1       908 3.18877E+00
 -1       909 3.83374E+00
 -1       910 4.47871E+00
 -1       911 4.47871E+00
 -1       912 4.47871E+00
 -1       913 3.18253E+00
 -1       914 2.58272E+00
 -1       915 3.18253E+00
 -1       916 2.48559E+00
 -1       917 2.69852E+00
 -1       918 2.26804E+00
 -1       919 2.41094E+00
 -1       920 2.03271E+00
 -1       921 2.14499E+00
 -1       922 1.82144E+00
 -1       923 1.89122E+00
 -1       924 1.65377E+00
 -1       925 1.68626E+00
 -1       926 1.55120E+00
 -1       927 1.53133E+00
 -1       928 2.09458E+00
 -1       929 2.66923E+00
 -1       930 2.69781E+00
 -1       931 2.84039E+00
 -1       932 2.81462E+00
 -1       933 3.04581E+00
 -1       934 2.90285E+00
 -1       935 3.69078E+00
 -1       936 2.87428E+00
 -1       937 3.66221E+00
 -1       938 2.36656E+00
 -1       939 2.15041E+00
 -1       940 2.36656E+00
 -1       941 2.10604E+00
 -1       942 2.22507E+00
 -1       943 1.99687E+00
 -1       944 2.03984E+00
 -1       945 1.86216E+00
 -1       946 1.85503E+00
 -1       947 1.72834E+00
 -1       948 1.69475E+00
 -1       949 1.63023E+00
 -1       950 1.58925E+00
 -1       951 1.61401E+00
 -1       952 1.57596E+00
 -1       953 2.09497E+00
 -1       954 2.61360E+00
 -1       955 2.59061E+00
 -1       956 2.67482E+00
 -1       957 2.70529E+00
 -1       958 2.84509E+00
 -1       959 2.78732E+00
 -1       960 2.84509E+00
 -1       961 2.65944E+00
 -1       962 2.68863E+00
 -1       963 1.98209E+00
 -1       964 1.81377E+00
 -1       965 1.98209E+00
 -1       966 1.80394E+00
 -1       967 1.92789E+00
 -1       968 1.77182E+00
 -1       969 1.84081E+00
 -1       970 1.72086E+00
 -1       971 1.74221E+00
 -1       972 1.66764E+00
 -1       973 1.65377E+00
 -1       974 1.66463E+00
 -1       975 1.64109E+00
 -1       976 1.72579E+00
 -1       977 1.69871E+00
 -1       978 2.13939E+00
 -1       979 2.53565E+00
 -1       980 2.54554E+00
 -1       981 2.60049E+00
 -1       982 2.64947E+00
 -1       983 2.75427E+00
 -1       984 2.72122E+00
 -1       985 2.75427E+00
 -1       986 2.51847E+00
 -1       987 2.42363E+00
 -1       988 1.67157E+00
 -1       989 1.54641E+00
 -1       990 1.68861E+00
 -1       991 1.57689E+00
 -1       992 1.69222E+00
 -1       993 1.59961E+00
 -1       994 1.67922E+00
 -1       995 1.61627E+00
 -1       996 1.65791E+00
 -1       997 1.66114E+00
 -1       998 1.67087E+00
 -1       999 1.74063E+00
 -1      1000 1.73438E+00
 -1      1001 1.83806E+00
 -1      1002 1.82946E+00
 -1      1003 2.20449E+00
 -1      1004 2.51442E+00
 -1      1005 2.53865E+00
 -1      1006 2.56977E+00
 -1      1007 2.62219E+00
 -1      1008 2.70189E+00
 -1      1009 2.68256E+00
 -1      1010 2.70189E+00
 -1      1011 2.42000E+00
 -1      1012 2.23657E+00
 -1      1013 1.39891E+00
 -1      1014 1.31205E+00
 -1      1015 1.45955E+00
 -1      1016 1.40379E+00
 -1      1017 1.52113E+00
 -1      1018 1.49742E+00
 -1      1019 1.57591E+00
 -1      1020 1.59185E+00
 -1      1021 1.63221E+00
 -1      1022 1.69870E+00
 -1      1023 1.72762E+00
 -1      1024 1.81202E+00
 -1      1025 1.82503E+00
 -1      1026 1.93254E+00
 -1      1027 1.94557E+00
 -1      1028 2.27478E+00
 -1      1029 2.53370E+00
 -1      1030 2.56352E+00
 -1      1031 2.56847E+00
 -1      1032 2.61717E+00
 -1      1033 2.67089E+00
 -1      1034 2.65922E+00
 -1      1035 2.67089E+00
 -1      1036 2.34620E+00
 -1      1037 2.09531E+00
 -1      1038 1.13694E+00
 -1      1039 1.08336E+00
 -1      1040 1.25847E+00
 -1      1041 1.24992E+00
 -1      1042 1.39523E+00
 -1      1043 1.42206E+00
 -1      1044 1.52426E+00
 -1      1045 1.59405E+00
 -1      1046 1.66165E+00
 -1      1047 1.74914E+00
 -1      1048 1.78619E+00
 -1      1049 1.87427E+00
 -1      1050 1.90011E+00
 -1      1051 2.00025E+00
 -1      1052 2.03269E+00
 -1      1053 2.34486E+00
 -1      1054 2.58695E+00
 -1      1055 2.62199E+00
 -1      1056 2.59855E+00
 -1      1057 2.63301E+00
 -1      1058 2.65162E+00
 -1      1059 2.64403E+00
 -1      1060 2.65162E+00
 -1      1061 2.28648E+00
 -1      1062 1.98106E+00
 -1      1063 9.47395E-01
 -1      1064 9.92881E-01
 -1      1065 1.12885E+00
 -1      1066 1.18515E+00
 -1      1067 1.30622E+00
 -1      1068 1.42396E+00
 -1      1069 1.53981E+00
 -1      1070 1.66710E+00
 -1      1071 1.72134E+00
 -1      1072 1.81808E+00
 -1      1073 1.84588E+00
 -1      1074 1.92531E+00
 -1      1075 1.95371E+00
 -1      1076 2.03849E+00
 -1      1077 2.08503E+00
 -1      1078 2.43066E+00
 -1      1079 2.69049E+00
 -1      1080 2.75899E+00
 -1      1081 2.69049E+00
 -1      1082 2.69805E+00
 -1      1083 2.64057E+00
 -1      1084 2.63489E+00
 -1      1085 2.63834E+00
 -1      1086 2.23472E+00
 -1      1087 1.88286E+00
 -1      1088 1.19466E+00
 -1      1089 1.55414E+00
 -1      1090 1.35236E+00
 -1      1091 1.60833E+00
 -1      1092 1.44111E+00
 -1      1093 1.67031E+00
 -1      1094 1.65316E+00
 -1      1095 1.79956E+00
 -1      1096 1.81349E+00
 -1      1097 1.89853E+00
 -1      1098 1.90311E+00
 -1      1099 1.96077E+00
 -1      1100 1.98297E+00
 -1      1101 2.04901E+00
 -1      1102 2.10452E+00
 -1      1103 2.55188E+00
 -1      1104 2.87802E+00
 -1      1105 2.99706E+00
 -1      1106 2.87802E+00
 -1      1107 2.83891E+00
 -1      1108 2.65894E+00
 -1      1109 2.65149E+00
 -1      1110 2.62744E+00
 -1      1111 2.18751E+00
 -1      1112 1.79480E+00
 -1      1113 2.12120E+00
 -1      1114 2.74246E+00
 -1      1115 2.17539E+00
 -1      1116 2.52643E+00
 -1      1117 1.95937E+00
 -1      1118 2.16216E+00
 -1      1119 1.87310E+00
 -1      1120 2.01391E+00
 -1      1121 1.94036E+00
 -1      1122 2.00049E+00
 -1      1123 1.95865E+00
 -1      1124 1.98919E+00
 -1      1125 1.99131E+00
 -1      1126 2.04901E+00
 -1      1127 2.10671E+00
 -1      1128 2.92279E+00
 -1      1129 3.36796E+00
 -1      1130 3.73887E+00
 -1      1131 3.36796E+00
 -1      1132 3.23163E+00
 -1      1133 2.70258E+00
 -1      1134 2.66741E+00
 -1      1135 2.61632E+00
 -1      1136 2.14291E+00
 -1      1137 1.71410E+00
 -1      1138 5.49999E+00
 -1      1139 8.25752E+00
 -1      1140 5.49999E+00
 -1      1141 6.31111E+00
 -1      1142 3.33756E+00
 -1      1143 3.33670E+00
 -1      1144 2.16130E+00
 -1      1145 2.26625E+00
 -1      1146 2.11886E+00
 -1      1147 2.15706E+00
 -1      1148 2.03869E+00
 -1      1149 2.03771E+00
 -1      1150 1.98821E+00
 -1      1151 2.03782E+00
 -1      1152 2.09862E+00
 -1      1153 3.38731E+00
 -1      1154 4.21148E+00
 -1      1155 4.68410E+00
 -1      1156 4.21148E+00
 -1      1157 3.72194E+00
 -1      1158 2.74209E+00
 -1      1159 2.67765E+00
 -1      1160 2.60298E+00
 -1      1161 2.09982E+00
 -1      1162 1.63975E+00
 -1      1163 1.99970E+01
 -1      1164 3.17365E+01
 -1      1165 1.99970E+01
 -1      1166 1.80506E+01
 -1      1167 4.36471E+00
 -1      1168 4.35048E+00
 -1      1169 3.32248E+00
 -1      1170 3.34012E+00
 -1      1171 2.28389E+00
 -1      1172 2.23110E+00
 -1      1173 2.10427E+00
 -1      1174 2.04093E+00
 -1      1175 1.97437E+00
 -1      1176 2.01403E+00
 -1      1177 2.07748E+00
 -1      1178 3.66063E+00
 -1      1179 4.97046E+00
 -1      1180 5.25682E+00
 -1      1181 4.97046E+00
 -1      1182 4.02007E+00
 -1      1183 2.77155E+00
 -1      1184 2.67980E+00
 -1      1185 2.58590E+00
 -1      1186 2.05767E+00
 -1      1187 1.57159E+00
 -1      1188 3.17365E+01
 -1      1189 3.17365E+01
 -1      1190 3.17365E+01
 -1      1191 1.95897E+01
 -1      1192 5.90385E+00
 -1      1193 5.88963E+00
 -1      1194 4.33626E+00
 -1      1195 3.38221E+00
 -1      1196 2.38607E+00
 -1      1197 2.27320E+00
 -1      1198 2.11823E+00
 -1      1199 2.03041E+00
 -1      1200 1.95311E+00
 -1      1201 1.98871E+00
 -1      1202 2.04964E+00
 -1      1203 3.79625E+00
 -1      1204 5.40724E+00
 -1      1205 5.55766E+00
 -1      1206 5.40724E+00
 -1      1207 4.17425E+00
 -1      1208 2.78707E+00
 -1      1209 2.67148E+00
 -1      1210 2.56421E+00
 -1      1211 2.01606E+00
 -1      1212 1.50952E+00
 -1      1213 3.01390E+01
 -1      1214 2.85416E+01
 -1      1215 3.01390E+01
 -1      1216 1.79923E+01
 -1      1217 7.44300E+00
 -1      1218 5.16153E+00
 -1      1219 3.60816E+00
 -1      1220 2.65411E+00
 -1      1221 2.42816E+00
 -1      1222 2.23634E+00
 -1      1223 2.08138E+00
 -1      1224 1.97621E+00
 -1      1225 1.92524E+00
 -1      1226 1.95636E+00
 -1      1227 2.01983E+00
 -1      1228 3.78125E+00
 -1      1229 5.55766E+00
 -1      1230 5.55766E+00
 -1      1231 5.55766E+00
 -1      1232 4.17425E+00
 -1      1233 2.79083E+00
 -1      1234 2.65768E+00
 -1      1235 2.53833E+00
 -1      1236 1.97647E+00
 -1      1237 1.45420E+00
 -3
 9999
