"CONTACT:0","CONTACT:1","CONTACT:2","CONTACT:3","CONTACT:4","CONTACT:5","E:0","E:1","E:2","E:3","E:4","E:5","ERROR","E_Mises","E_Principal:0","E_Principal:1","E_Principal:2","S:0","S:1","S:2","S:3","S:4","S:5","S_Mises","S_Principal:0","S_Principal:1","S_Principal:2","U:0","U:1","U:2","vtkValidPointMask","arc_length","Points:0","Points:1","Points:2"
-0.00030202,0,0,3020.2,0,0,-0.0023654,-0.0061454,2.4201e-35,-0.0026688,5.1022e-19,-3.4738e-20,22.859,0.0070846,-0.0075256,-0.00098517,-2.701e-19,-1351.8,-1915.5,-990.09,-404.05,7.7515e-14,-5.5819e-15,1068.8,-2126.3,-1141,-990.09,-2.0254e-19,0.010326,0,1,0,0,0,0
0,0,0,0,0,0,-0.001503,-0.0041915,7.5792e-35,0.0032964,-3.4606e-18,-7.6898e-20,28.542,0.0067926,-0.0064079,-4.5079e-33,0.00071342,-890.75,-1292.4,-660.47,501.92,-5.3042e-13,-1.1519e-14,1031,-1632.3,-660.47,-550.87,0,0.0099468,0,1,0.005,0,-0.005,0
0,0,0,0,0,0,-0.0014823,-0.0041867,7.6409e-35,0.0032768,-3.3381e-18,-7.548e-20,28.542,0.0067645,-0.0063807,-4.4275e-33,0.00071181,-884.59,-1288.8,-657.48,498.96,-5.1163e-13,-1.1308e-14,1026.8,-1625.3,-657.48,-548.14,0,0.0099677,0,1,0.01,0,-0.01,0
0,0,0,0,0,0,-0.0014616,-0.0041818,7.7018e-35,0.0032572,-3.2166e-18,-7.4072e-20,28.542,0.0067364,-0.0063536,-4.3476e-33,0.00071022,-878.45,-1285.2,-654.51,496,-4.93e-13,-1.1099e-14,1022.6,-1618.2,-654.51,-545.4,0,0.0099886,0,1,0.015,0,-0.015,0
0,0,0,0,0,0,-0.001441,-0.0041768,7.762e-35,0.0032377,-3.0962e-18,-7.2675e-20,28.542,0.0067084,-0.0063265,-4.2684e-33,0.00070866,-872.33,-1281.5,-651.54,493.05,-4.7454e-13,-1.0892e-14,1018.4,-1611.2,-651.54,-542.67,0,0.01001,0,1,0.02,0,-0.02,0
0,0,0,0,0,0,-0.0014206,-0.0041718,7.8215e-35,0.0032182,-2.9769e-18,-7.1288e-20,28.542,0.0066804,-0.0062995,-4.1896e-33,0.00070713,-866.23,-1277.9,-648.57,490.1,-4.5624e-13,-1.0686e-14,1014.2,-1604.2,-648.57,-539.94,0,0.01003,0,1,0.025,0,-0.025,0
0,0,0,0,0,0,-0.0014002,-0.0041668,7.8802e-35,0.0031987,-2.8586e-18,-6.9912e-20,28.542,0.0066526,-0.0062726,-4.1115e-33,0.00070562,-860.14,-1274.2,-645.61,487.16,-4.381e-13,-1.0482e-14,1010,-1597.2,-645.61,-537.21,0,0.010051,0,1,0.03,0,-0.03,0
0,0,0,0,0,0,-0.0013799,-0.0041617,7.9382e-35,0.0031793,-2.7414e-18,-6.8547e-20,28.542,0.0066249,-0.0062457,-4.034e-33,0.00070414,-854.08,-1270.6,-642.66,484.23,-4.2012e-13,-1.0279e-14,1005.8,-1590.2,-642.66,-534.48,0,0.010072,0,1,0.035,0,-0.035,0
0,0,0,0,0,0,-0.0013597,-0.0041566,7.9955e-35,0.0031599,-2.6252e-18,-6.7192e-20,28.542,0.0065972,-0.0062189,-3.957e-33,0.00070269,-848.03,-1266.9,-639.7,481.3,-4.023e-13,-1.0078e-14,1001.7,-1583.2,-639.7,-531.75,0,0.010093,0,1,0.04,0,-0.04,0
0,0,0,0,0,0,-0.0013395,-0.0041514,8.052e-35,0.0031405,-2.5101e-18,-6.5847e-20,28.542,0.0065696,-0.0061922,-3.8806e-33,0.00070126,-842,-1263.3,-636.76,478.37,-3.8465e-13,-9.8786e-15,997.52,-1576.2,-636.76,-529.02,0,0.010114,0,1,0.045,0,-0.045,0
0,0,0,0,0,0,-0.0013195,-0.0041462,8.1079e-35,0.0031211,-2.396e-18,-6.4514e-20,28.542,0.0065422,-0.0061655,-3.8048e-33,0.00069986,-835.99,-1259.6,-633.82,475.45,-3.6716e-13,-9.6806e-15,993.39,-1569.3,-633.82,-526.29,0,0.010134,0,1,0.05,0,-0.05,0
0,0,0,0,0,0,-0.0012995,-0.0041409,8.1629e-35,0.0031018,-2.283e-18,-6.319e-20,28.542,0.0065148,-0.006139,-3.7296e-33,0.00069849,-830,-1255.9,-630.88,472.53,-3.4982e-13,-9.4842e-15,989.27,-1562.4,-630.88,-523.57,0,0.010155,0,1,0.055,0,-0.055,0
0,0,0,0,0,0,-0.0012797,-0.0041356,8.2173e-35,0.0030826,-2.1711e-18,-6.1877e-20,28.542,0.0064875,-0.0061124,-3.655e-33,0.00069714,-824.02,-1252.3,-627.95,469.62,-3.3266e-13,-9.2893e-15,985.17,-1555.5,-627.95,-520.84,0,0.010175,0,1,0.06,0,-0.06,0
0,0,0,0,0,0,-0.0012599,-0.0041303,8.2709e-35,0.0030634,-2.0602e-18,-6.0575e-20,28.542,0.0064603,-0.006086,-3.5809e-33,0.00069582,-818.06,-1248.6,-625.03,466.72,-3.1565e-13,-9.096e-15,981.09,-1548.6,-625.03,-518.12,0,0.010196,0,1,0.065,0,-0.065,0
0,0,0,0,0,0,-0.0012402,-0.0041249,8.3237e-35,0.0030442,-1.9504e-18,-5.9284e-20,28.542,0.0064331,-0.0060596,-3.5075e-33,0.00069453,-812.13,-1244.9,-622.11,463.81,-2.9881e-13,-8.9042e-15,977.01,-1541.7,-622.11,-515.4,0,0.010217,0,1,0.07,0,-0.07,0
0,0,0,0,0,0,-0.0012206,-0.0041195,8.3759e-35,0.003025,-1.8416e-18,-5.8002e-20,28.542,0.0064061,-0.0060333,-3.4346e-33,0.00069326,-806.21,-1241.3,-619.19,460.92,-2.8212e-13,-8.714e-15,972.95,-1534.8,-619.19,-512.67,0,0.010237,0,1,0.075,0,-0.075,0
0,0,0,0,0,0,-0.0012011,-0.004114,8.4273e-35,0.0030059,-1.7339e-18,-5.6732e-20,28.542,0.0063792,-0.0060071,-3.3622e-33,0.00069202,-800.31,-1237.6,-616.28,458.03,-2.656e-13,-8.5254e-15,968.9,-1528,-616.28,-509.95,0,0.010258,0,1,0.08,0,-0.08,0
0,0,0,0,0,0,-0.0011816,-0.0041085,8.478e-35,0.0029868,-1.6272e-18,-5.5472e-20,28.542,0.0063523,-0.0059809,-3.2905e-33,0.0006908,-794.42,-1233.9,-613.38,455.14,-2.4925e-13,-8.3383e-15,964.87,-1521.1,-613.38,-507.23,0,0.010278,0,1,0.085,0,-0.085,0
0,0,0,0,0,0,-0.0011623,-0.0041029,8.5279e-35,0.0029677,-1.5216e-18,-5.4222e-20,28.542,0.0063256,-0.0059548,-3.2194e-33,0.00068962,-788.56,-1230.3,-610.48,452.26,-2.3305e-13,-8.1528e-15,960.85,-1514.3,-610.48,-504.52,0,0.010298,0,1,0.09,0,-0.09,0
0,0,0,0,0,0,-0.001143,-0.0040973,8.5771e-35,0.0029487,-1.4171e-18,-5.2983e-20,28.542,0.0062989,-0.0059288,-3.1488e-33,0.00068845,-782.71,-1226.6,-607.59,449.38,-2.1701e-13,-7.9688e-15,956.84,-1507.5,-607.59,-501.8,0,0.010319,0,1,0.095,0,-0.095,0
0,0,0,0,0,0,-0.0011238,-0.0040917,8.6256e-35,0.0029297,-1.3136e-18,-5.1755e-20,28.542,0.0062723,-0.0059028,-3.0788e-33,0.00068732,-776.89,-1222.9,-604.7,446.51,-2.0114e-13,-7.7864e-15,952.84,-1500.7,-604.7,-499.08,0,0.010339,0,1,0.1,0,-0.1,0
0,0,0,0,0,0,-0.0011047,-0.004086,8.6734e-35,0.0029107,-1.2111e-18,-5.0537e-20,28.542,0.0062458,-0.0058769,-3.0094e-33,0.00068621,-771.08,-1219.2,-601.81,443.65,-1.8543e-13,-7.6056e-15,948.86,-1493.9,-601.81,-496.37,0,0.010359,0,1,0.105,0,-0.105,0
0,0,0,0,0,0,-0.0010857,-0.0040803,8.7204e-35,0.0028918,-1.1098e-18,-4.933e-20,28.542,0.0062194,-0.0058511,-2.9405e-33,0.00068513,-765.29,-1215.6,-598.93,440.78,-1.6988e-13,-7.4263e-15,944.89,-1487.2,-598.93,-493.65,0,0.01038,0,1,0.11,0,-0.11,0
0,0,0,0,0,0,-0.0010668,-0.0040745,8.7666e-35,0.0028729,-1.0094e-18,-4.8133e-20,28.542,0.0061931,-0.0058254,-2.8723e-33,0.00068407,-759.51,-1211.9,-596.06,437.93,-1.545e-13,-7.2486e-15,940.94,-1480.4,-596.06,-490.94,0,0.0104,0,1,0.115,0,-0.115,0
0,0,0,0,0,0,-0.001048,-0.0040687,8.8122e-35,0.0028541,-9.1016e-19,-4.6947e-20,28.542,0.0061668,-0.0057997,-2.8046e-33,0.00068304,-753.76,-1208.2,-593.19,435.08,-1.3927e-13,-7.0724e-15,937,-1473.7,-593.19,-488.23,0,0.01042,0,1,0.12,0,-0.12,0
0,0,0,0,0,0,-0.0010293,-0.0040628,8.857e-35,0.0028352,-8.1195e-19,-4.5771e-20,28.542,0.0061407,-0.0057741,-2.7375e-33,0.00068204,-748.02,-1204.5,-590.33,432.23,-1.2421e-13,-6.8978e-15,933.07,-1467,-590.33,-485.51,0,0.01044,0,1,0.125,0,-0.125,0
0,0,0,0,0,0,-0.0010106,-0.0040569,8.9011e-35,0.0028165,-7.1479e-19,-4.4606e-20,28.542,0.0061146,-0.0057486,-2.671e-33,0.00068107,-742.31,-1200.8,-587.47,429.39,-1.0931e-13,-6.7248e-15,929.15,-1460.3,-587.47,-482.8,0,0.01046,0,1,0.13,0,-0.13,0
0,0,0,0,0,0,-0.00099204,-0.0040509,8.9444e-35,0.0027977,-6.1869e-19,-4.3452e-20,28.542,0.0060887,-0.0057231,-2.6051e-33,0.00068012,-736.61,-1197.1,-584.61,426.55,-9.4573e-14,-6.5533e-15,925.25,-1453.6,-584.61,-480.09,0,0.010481,0,1,0.135,0,-0.135,0
0,0,0,0,0,0,-0.00097356,-0.0040449,8.9871e-35,0.002779,-5.2364e-19,-4.2308e-20,28.542,0.0060628,-0.0056977,-2.5398e-33,0.0006792,-730.93,-1193.4,-581.77,423.72,-7.9997e-14,-6.3834e-15,921.36,-1447,-581.77,-477.39,0,0.010501,0,1,0.14,0,-0.14,0
0,0,0,0,0,0,-0.00095516,-0.0040389,9.029e-35,0.0027603,-4.2966e-19,-4.1174e-20,28.542,0.006037,-0.0056724,-2.475e-33,0.0006783,-725.27,-1189.7,-578.92,420.89,-6.5582e-14,-6.215e-15,917.49,-1440.3,-578.92,-474.68,0,0.010521,0,1,0.145,0,-0.145,0
0,0,0,0,0,0,-0.00093686,-0.0040328,9.0701e-35,0.0027417,-3.3672e-19,-4.0051e-20,28.542,0.0060113,-0.0056471,-2.4108e-33,0.00067743,-719.62,-1186,-576.08,418.07,-5.133e-14,-6.0482e-15,913.63,-1433.7,-576.08,-471.97,0,0.010541,0,1,0.15,0,-0.15,0
0,0,0,0,0,0,-0.00091863,-0.0040267,9.1105e-35,0.002723,-2.4485e-19,-3.8939e-20,28.542,0.0059857,-0.0056219,-2.3472e-33,0.00067659,-714,-1182.3,-573.25,415.26,-3.724e-14,-5.8829e-15,909.78,-1427.1,-573.25,-469.27,0,0.010561,0,1,0.155,0,-0.155,0
0,0,0,0,0,0,-0.0009005,-0.0040205,9.1502e-35,0.0027045,-1.5403e-19,-3.7837e-20,28.542,0.0059602,-0.0055968,-2.2842e-33,0.00067577,-708.39,-1178.6,-570.42,412.44,-2.3312e-14,-5.7192e-15,905.94,-1420.5,-570.42,-466.56,0,0.01058,0,1,0.16,0,-0.16,0
0,0,0,0,0,0,-0.00088245,-0.0040143,9.1892e-35,0.0026859,-6.4262e-20,-3.6746e-20,28.542,0.0059347,-0.0055717,-2.2217e-33,0.00067498,-702.8,-1174.9,-567.6,409.64,-9.5457e-15,-5.5571e-15,902.12,-1413.9,-567.6,-463.86,0,0.0106,0,1,0.165,0,-0.165,0
0,0,0,0,0,0,-0.00086449,-0.0040081,9.2274e-35,0.0026674,2.4445e-20,-3.5665e-20,28.542,0.0059094,-0.0055468,-2.1599e-33,0.00067422,-697.23,-1171.2,-564.78,406.84,4.0584e-15,-5.3965e-15,898.31,-1407.3,-564.78,-461.16,0,0.01062,0,1,0.17,0,-0.17,0
0,0,0,0,0,0,-0.00084662,-0.0040018,9.2649e-35,0.0026489,1.121e-19,-3.4595e-20,28.542,0.0058841,-0.0055219,-2.0986e-33,0.00067348,-691.68,-1167.5,-561.97,404.04,1.7501e-14,-5.2375e-15,894.52,-1400.8,-561.97,-458.46,0,0.01064,0,1,0.175,0,-0.175,0
0,0,0,0,0,0,-0.00082883,-0.0039954,9.3016e-35,0.0026305,1.9869e-19,-3.3535e-20,28.542,0.005859,-0.005497,-2.0379e-33,0.00067277,-686.14,-1163.8,-559.16,401.25,3.0781e-14,-5.0801e-15,890.73,-1394.2,-559.16,-455.76,0,0.01066,0,1,0.18,0,-0.18,0
0,0,0,0,0,0,-0.00081113,-0.003989,9.3377e-35,0.0026121,2.8423e-19,-3.2486e-20,28.542,0.0058339,-0.0054722,-1.9778e-33,0.00067209,-680.63,-1160.1,-556.36,398.46,4.3899e-14,-4.9242e-15,886.96,-1387.7,-556.36,-453.06,0,0.01068,0,1,0.185,0,-0.185,0
0,0,0,0,0,0,-0.00079352,-0.0039826,9.373e-35,0.0025937,3.6872e-19,-3.1448e-20,28.542,0.0058089,-0.0054475,-1.9182e-33,0.00067143,-675.13,-1156.4,-553.56,395.68,5.6855e-14,-4.7699e-15,883.21,-1381.2,-553.56,-450.36,0,0.010699,0,1,0.19,0,-0.19,0
0,0,0,0,0,0,-0.00077599,-0.0039761,9.4075e-35,0.0025754,4.5214e-19,-3.042e-20,28.542,0.005784,-0.0054229,-1.8593e-33,0.0006708,-669.65,-1152.7,-550.77,392.9,6.9649e-14,-4.6171e-15,879.46,-1374.7,-550.77,-447.66,0,0.010719,0,1,0.195,0,-0.195,0
0,0,0,0,0,0,-0.00075855,-0.0039696,9.4414e-35,0.0025571,5.3451e-19,-2.9402e-20,28.542,0.0057592,-0.0053984,-1.8009e-33,0.0006702,-664.19,-1149,-547.98,390.13,8.2281e-14,-4.4659e-15,875.74,-1368.2,-547.98,-444.96,0,0.010739,0,1,0.2,0,-0.2,0
0,0,0,0,0,0,-0.0007412,-0.003963,9.4745e-35,0.0025388,6.1583e-19,-2.8395e-20,28.542,0.0057345,-0.0053739,-1.7431e-33,0.00066962,-658.75,-1145.3,-545.2,387.36,9.4751e-14,-4.3162e-15,872.02,-1361.7,-545.2,-442.27,0,0.010758,0,1,0.205,0,-0.205,0
0,0,0,0,0,0,-0.00072393,-0.0039564,9.5068e-35,0.0025206,6.9609e-19,-2.7399e-20,28.542,0.0057099,-0.0053494,-1.6859e-33,0.00066907,-653.33,-1141.5,-542.42,384.6,1.0706e-13,-4.1681e-15,868.32,-1355.3,-542.42,-439.58,0,0.010778,0,1,0.21,0,-0.21,0
0,0,0,0,0,0,-0.00070676,-0.0039498,9.5384e-35,0.0025023,7.7529e-19,-2.6413e-20,28.542,0.0056853,-0.0053251,-1.6293e-33,0.00066855,-647.92,-1137.8,-539.65,381.84,1.1921e-13,-4.0216e-15,864.63,-1348.9,-539.65,-436.88,0,0.010797,0,1,0.215,0,-0.215,0
0,0,0,0,0,0,-0.00068966,-0.0039431,9.5693e-35,0.0024842,8.5344e-19,-2.5438e-20,28.542,0.0056609,-0.0053008,-1.5732e-33,0.00066805,-642.53,-1134.1,-536.88,379.09,1.3119e-13,-3.8766e-15,860.95,-1342.4,-536.88,-434.19,0,0.010817,0,1,0.22,0,-0.22,0
0,0,0,0,0,0,-0.00067266,-0.0039364,9.5995e-35,0.002466,9.3053e-19,-2.4474e-20,28.542,0.0056365,-0.0052766,-1.5177e-33,0.00066758,-637.17,-1130.4,-534.12,376.34,1.4301e-13,-3.7332e-15,857.29,-1336,-534.12,-431.5,0,0.010836,0,1,0.225,0,-0.225,0
0,0,0,0,0,0,-0.00065574,-0.0039296,9.6289e-35,0.0024479,1.0066e-18,-2.3519e-20,28.542,0.0056122,-0.0052525,-1.4628e-33,0.00066713,-631.82,-1126.6,-531.37,373.6,1.5467e-13,-3.5914e-15,853.64,-1329.6,-531.37,-428.81,0,0.010856,0,1,0.23,0,-0.23,0
0,0,0,0,0,0,-0.00063891,-0.0039228,9.6576e-35,0.0024299,1.0815e-18,-2.2576e-20,28.542,0.005588,-0.0052284,-1.4085e-33,0.00066672,-626.48,-1122.9,-528.62,370.87,1.6617e-13,-3.4511e-15,850,-1323.3,-528.62,-426.12,0,0.010875,0,1,0.235,0,-0.235,0
0,0,0,0,0,0,-0.00062216,-0.0039159,9.6856e-35,0.0024118,1.1555e-18,-2.1643e-20,28.542,0.0055639,-0.0052044,-1.3548e-33,0.00066632,-621.17,-1119.2,-525.87,368.13,1.7751e-13,-3.3123e-15,846.38,-1316.9,-525.87,-423.43,0,0.010894,0,1,0.24,0,-0.24,0
0,0,0,0,0,0,-0.0006055,-0.003909,9.7129e-35,0.0023938,1.2283e-18,-2.072e-20,28.542,0.0055399,-0.0051805,-1.3016e-33,0.00066596,-615.88,-1115.5,-523.13,365.41,1.8868e-13,-3.1751e-15,842.77,-1310.6,-523.13,-420.75,0,0.010914,0,1,0.245,0,-0.245,0
0,0,0,0,0,0,-0.00058893,-0.003902,9.7394e-35,0.0023759,1.3001e-18,-1.9808e-20,28.542,0.005516,-0.0051566,-1.2491e-33,0.00066562,-610.6,-1111.7,-520.39,362.68,1.9969e-13,-3.0395e-15,839.17,-1304.3,-520.39,-418.06,0,0.010933,0,1,0.25,0,-0.25,0
0,0,0,0,0,0,-0.00057244,-0.003895,9.7651e-35,0.002358,1.3709e-18,-1.8907e-20,28.542,0.0054922,-0.0051328,-1.1971e-33,0.00066531,-605.34,-1108,-517.66,359.97,2.1054e-13,-2.9055e-15,835.59,-1297.9,-517.66,-415.38,0,0.010952,0,1,0.255,0,-0.255,0
0,0,0,0,0,0,-0.00055605,-0.003888,9.7902e-35,0.0023401,1.4406e-18,-1.8016e-20,28.542,0.0054684,-0.0051091,-1.1457e-33,0.00066502,-600.1,-1104.2,-514.93,357.25,2.2123e-13,-2.773e-15,832.02,-1291.7,-514.93,-412.69,0,0.010971,0,1,0.26,0,-0.26,0
0,0,0,0,0,0,-0.00053973,-0.0038809,9.8145e-35,0.0023222,1.5092e-18,-1.7136e-20,28.542,0.0054448,-0.0050854,-1.0949e-33,0.00066477,-594.88,-1100.5,-512.21,354.55,2.3176e-13,-2.642e-15,828.46,-1285.4,-512.21,-410.01,0,0.010991,0,1,0.265,0,-0.265,0
0,0,0,0,0,0,-0.00052351,-0.0038738,9.838e-35,0.0023044,1.5768e-18,-1.6266e-20,28.542,0.0054212,-0.0050618,-1.0446e-33,0.00066453,-589.67,-1096.8,-509.5,351.84,2.4212e-13,-2.5127e-15,824.91,-1279.1,-509.5,-407.33,0,0.01101,0,1,0.27,0,-0.27,0
0,0,0,0,0,0,-0.00050737,-0.0038666,9.8609e-35,0.0022866,1.6433e-18,-1.5407e-20,28.542,0.0053977,-0.0050383,-9.9494e-34,0.00066433,-584.49,-1093,-506.79,349.15,2.5232e-13,-2.3848e-15,821.38,-1272.9,-506.79,-404.65,0,0.011029,0,1,0.275,0,-0.275,0
0,0,0,0,0,0,-0.00049132,-0.0038594,9.883e-35,0.0022688,1.7088e-18,-1.4558e-20,28.542,0.0053744,-0.0050149,-9.4586e-34,0.00066415,-579.32,-1089.3,-504.08,346.45,2.6236e-13,-2.2586e-15,817.87,-1266.6,-504.08,-401.97,0,0.011048,0,1,0.28,0,-0.28,0
0,0,0,0,0,0,-0.00047536,-0.0038522,9.9044e-35,0.0022511,1.7732e-18,-1.372e-20,28.542,0.0053511,-0.0049915,-8.9735e-34,0.000664,-574.18,-1085.5,-501.38,343.77,2.7224e-13,-2.1339e-15,814.36,-1260.4,-501.38,-399.29,0,0.011067,0,1,0.285,0,-0.285,0
0,0,0,0,0,0,-0.00045948,-0.0038449,9.925e-35,0.0022334,1.8366e-18,-1.2893e-20,28.542,0.0053279,-0.0049682,-8.4943e-34,0.00066387,-569.05,-1081.8,-498.69,341.09,2.8196e-13,-2.0107e-15,810.87,-1254.2,-498.69,-396.61,0,0.011086,0,1,0.29,0,-0.29,0
0,0,0,0,0,0,-0.00044369,-0.0038375,9.9449e-35,0.0022158,1.8989e-18,-1.2076e-20,28.542,0.0053047,-0.004945,-8.0209e-34,0.00066377,-563.93,-1078,-496,338.41,2.9151e-13,-1.8891e-15,807.39,-1248,-496,-393.93,0,0.011105,0,1,0.295,0,-0.295,0
0,0,0,0,0,0,-0.00042798,-0.0038301,9.9641e-35,0.0021981,1.9601e-18,-1.1269e-20,28.542,0.0052817,-0.0049218,-7.5532e-34,0.0006637,-558.84,-1074.3,-493.31,335.74,3.009e-13,-1.7691e-15,803.93,-1241.9,-493.31,-391.26,0,0.011124,0,1,0.3,0,-0.3,0
0,0,0,0,0,0,-0.00041236,-0.0038227,9.9826e-35,0.0021805,2.0203e-18,-1.0474e-20,28.542,0.0052588,-0.0048987,-7.0914e-34,0.00066365,-553.77,-1070.5,-490.63,333.07,3.1013e-13,-1.6507e-15,800.48,-1235.7,-490.63,-388.58,0,0.011143,0,1,0.305,0,-0.305,0
0,0,0,0,0,0,-0.00039683,-0.0038152,1e-34,0.002163,2.0795e-18,-9.6882e-21,28.542,0.0052359,-0.0048757,-6.6354e-34,0.00066364,-548.71,-1066.8,-487.96,330.41,3.192e-13,-1.5338e-15,797.04,-1229.6,-487.96,-385.91,0,0.011162,0,1,0.31,0,-0.31,0
0,0,0,0,0,0,-0.00038139,-0.0038077,1.0017e-34,0.0021455,2.1376e-18,-8.9134e-21,28.542,0.0052131,-0.0048527,-6.1852e-34,0.00066364,-543.67,-1063,-485.29,327.75,3.2811e-13,-1.4184e-15,793.62,-1223.4,-485.29,-383.24,0,0.011181,0,1,0.315,0,-0.315,0
0,0,0,0,0,0,-0.00036603,-0.0038001,1.0033e-34,0.002128,2.1946e-18,-8.1492e-21,28.542,0.0051905,-0.0048299,-5.7408e-34,0.00066368,-538.65,-1059.2,-482.62,325.1,3.3685e-13,-1.3046e-15,790.21,-1217.3,-482.62,-380.57,0,0.011199,0,1,0.32,0,-0.32,0
0,0,0,0,0,0,-0.00035076,-0.0037925,1.0049e-34,0.0021105,2.2505e-18,-7.3955e-21,28.542,0.0051679,-0.004807,-5.3023e-34,0.00066374,-533.65,-1055.5,-479.96,322.45,3.4543e-13,-1.1924e-15,786.81,-1211.2,-479.96,-377.9,0,0.011218,0,1,0.325,0,-0.325,0
0,0,0,0,0,0,-0.00033558,-0.0037849,1.0064e-34,0.0020931,2.3055e-18,-6.6524e-21,28.542,0.0051454,-0.0047843,-4.8695e-34,0.00066382,-528.67,-1051.7,-477.31,319.81,3.5385e-13,-1.0817e-15,783.42,-1205.2,-477.31,-375.23,0,0.011237,0,1,0.33,0,-0.33,0
0,0,0,0,0,0,-0.00032048,-0.0037772,1.0078e-34,0.0020757,2.3593e-18,-5.9198e-21,28.542,0.005123,-0.0047616,-4.4425e-34,0.00066394,-523.7,-1047.9,-474.66,317.17,3.6211e-13,-9.7263e-16,780.05,-1199.1,-474.66,-372.56,0,0.011256,0,1,0.335,0,-0.335,0
0,0,0,0,0,0,-0.00030547,-0.0037695,1.0091e-34,0.0020584,2.4121e-18,-5.1977e-21,28.542,0.0051007,-0.004739,-4.0213e-34,0.00066408,-518.76,-1044.2,-472.01,314.53,3.702e-13,-8.6509e-16,776.69,-1193,-472.01,-369.89,0,0.011274,0,1,0.34,0,-0.34,0
0,0,0,0,0,0,-0.00029055,-0.0037617,1.0104e-34,0.0020411,2.4639e-18,-4.4862e-21,28.542,0.0050784,-0.0047165,-3.606e-34,0.00066424,-513.83,-1040.4,-469.37,311.91,3.7814e-13,-7.591e-16,773.35,-1187,-469.37,-367.22,0,0.011293,0,1,0.345,0,-0.345,0
0,0,0,0,0,0,-0.00027571,-0.0037539,1.0116e-34,0.0020238,2.5145e-18,-3.7853e-21,28.542,0.0050563,-0.004694,-3.1964e-34,0.00066444,-508.92,-1036.6,-466.74,309.28,3.8591e-13,-6.5467e-16,770.02,-1181,-466.74,-364.56,0,0.011311,0,1,0.35,0,-0.35,0
0,0,0,0,0,0,-0.00026096,-0.003746,1.0127e-34,0.0020066,2.5642e-18,-3.0949e-21,28.542,0.0050342,-0.0046716,-2.7927e-34,0.00066466,-504.03,-1032.9,-464.11,306.67,3.9352e-13,-5.518e-16,766.7,-1175,-464.11,-361.89,0,0.01133,0,1,0.355,0,-0.355,0
0,0,0,0,0,0,-0.0002463,-0.0037381,1.0137e-34,0.0019894,2.6128e-18,-2.4151e-21,28.542,0.0050123,-0.0046493,-2.3948e-34,0.0006649,-499.15,-1029.1,-461.49,304.05,4.0097e-13,-4.505e-16,763.39,-1169,-461.49,-359.23,0,0.011348,0,1,0.36,0,-0.36,0
0,0,0,0,0,0,-0.00023172,-0.0037301,1.0147e-34,0.0019722,2.6603e-18,-1.7458e-21,28.542,0.0049904,-0.004627,-2.0027e-34,0.00066517,-494.3,-1025.3,-458.87,301.45,4.0825e-13,-3.5075e-16,760.1,-1163,-458.87,-356.57,0,0.011367,0,1,0.365,0,-0.365,0
0,0,0,0,0,0,-0.00021723,-0.0037221,1.0156e-34,0.001955,2.7067e-18,-1.087e-21,28.542,0.0049686,-0.0046048,-1.6163e-34,0.00066547,-489.46,-1021.5,-456.26,298.84,4.1538e-13,-2.5256e-16,756.82,-1157.1,-456.26,-353.91,0,0.011385,0,1,0.37,0,-0.37,0
0,0,0,0,0,0,-0.00020283,-0.0037141,1.0164e-34,0.0019379,2.7521e-18,-4.3883e-22,28.542,0.0049469,-0.0045827,-1.2358e-34,0.0006658,-484.65,-1017.7,-453.65,296.25,4.2234e-13,-1.5593e-16,753.56,-1151.1,-453.65,-351.25,0,0.011404,0,1,0.375,0,-0.375,0
0,0,0,0,0,0,-0.00018851,-0.003706,1.0171e-34,0.0019209,2.7965e-18,1.9881e-22,28.542,0.0049253,-0.0045607,-8.6113e-35,0.00066615,-479.85,-1014,-451.04,293.65,4.2914e-13,-6.0858e-17,750.31,-1145.2,-451.04,-348.59,0,0.011422,0,1,0.38,0,-0.38,0
0,0,0,0,0,0,-0.00017429,-0.0036979,1.0178e-34,0.0019038,2.8398e-18,8.2591e-22,28.542,0.0049038,-0.0045387,-4.9224e-35,0.00066653,-475.07,-1010.2,-448.45,291.06,4.3578e-13,3.2653e-17,747.07,-1139.3,-448.45,-345.93,0,0.011441,0,1,0.385,0,-0.385,0
0,0,0,0,0,0,-0.00016014,-0.0036897,1.0184e-34,0.0018868,2.882e-18,1.4425e-21,28.542,0.0048823,-0.0045168,-1.2915e-35,0.00066694,-470.3,-1006.4,-445.85,288.48,4.4225e-13,1.246e-16,743.84,-1133.4,-445.85,-343.27,0,0.011459,0,1,0.39,0,-0.39,0
0,0,0,0,0,0,-0.00014609,-0.0036815,1.0189e-34,0.0018698,2.9232e-18,2.0485e-21,28.542,0.004861,-0.004495,2.2813e-35,0.00066737,-465.56,-1002.6,-443.26,285.9,4.4857e-13,2.15e-16,740.63,-1127.5,-443.26,-340.62,0,0.011477,0,1,0.395,0,-0.395,0
0,0,0,0,0,0,-0.00013212,-0.0036732,1.0194e-34,0.0018529,2.9633e-18,2.6439e-21,28.542,0.0048397,-0.0044732,5.796e-35,0.00066783,-460.83,-998.81,-440.68,283.33,4.5472e-13,3.0383e-16,737.43,-1121.7,-440.68,-337.96,0,0.011495,0,1,0.4,0,-0.4,0
0,0,0,0,0,0,-0.00011824,-0.0036649,1.0198e-34,0.001836,3.0024e-18,3.2288e-21,28.542,0.0048186,-0.0044515,9.2526e-35,0.00066831,-456.12,-995.01,-438.1,280.76,4.6071e-13,3.911e-16,734.24,-1115.8,-438.1,-335.31,0,0.011514,0,1,0.405,0,-0.405,0
0,0,0,0,0,0,-0.00010444,-0.0036566,1.0201e-34,0.0018191,3.0404e-18,3.8032e-21,28.542,0.0047975,-0.0044299,1.2651e-34,0.00066882,-451.44,-991.22,-435.53,278.2,4.6654e-13,4.7681e-16,731.07,-1110,-435.53,-332.65,0,0.011532,0,1,0.41,0,-0.41,0
0,0,0,0,0,0,-9.0732e-05,-0.0036482,1.0203e-34,0.0018023,3.0774e-18,4.367e-21,28.542,0.0047765,-0.0044083,1.5992e-34,0.00066936,-446.76,-987.42,-432.96,275.64,4.722e-13,5.6097e-16,727.91,-1104.2,-432.96,-330,0,0.01155,0,1,0.415,0,-0.415,0
0,0,0,0,0,0,-7.711e-05,-0.0036398,1.0205e-34,0.0017855,3.1133e-18,4.9202e-21,28.542,0.0047556,-0.0043868,1.9274e-34,0.00066993,-442.11,-983.62,-430.4,273.09,4.7771e-13,6.4356e-16,724.77,-1098.4,-430.4,-327.35,0,0.011568,0,1,0.42,0,-0.42,0
0,0,0,0,0,0,-6.3575e-05,-0.0036313,1.0206e-34,0.0017687,3.1481e-18,5.4629e-21,28.542,0.0047348,-0.0043654,2.2498e-34,0.00067052,-437.48,-979.82,-427.84,270.54,4.8305e-13,7.246e-16,721.63,-1092.6,-427.84,-324.7,0,0.011586,0,1,0.425,0,-0.425,0
0,0,0,0,0,0,-5.0127e-05,-0.0036228,1.0206e-34,0.001752,3.1819e-18,5.9951e-21,28.542,0.0047141,-0.004344,2.5665e-34,0.00067114,-432.86,-976.02,-425.29,268,4.8823e-13,8.0407e-16,718.52,-1086.8,-425.29,-322.05,0,0.011604,0,1,0.43,0,-0.43,0
0,0,0,0,0,0,-3.6766e-05,-0.0036142,1.0205e-34,0.0017353,3.2146e-18,6.5167e-21,28.542,0.0046935,-0.0043228,2.8773e-34,0.00067178,-428.26,-972.21,-422.74,265.46,4.9324e-13,8.8199e-16,715.41,-1081.1,-422.74,-319.4,0,0.011622,0,1,0.435,0,-0.435,0
0,0,0,0,0,0,-2.3491e-05,-0.0036056,1.0204e-34,0.0017187,3.2463e-18,7.0277e-21,28.542,0.0046729,-0.0043016,3.1823e-34,0.00067245,-423.69,-968.41,-420.2,262.93,4.981e-13,9.5835e-16,712.32,-1075.3,-420.2,-316.76,0,0.01164,0,1,0.44,0,-0.44,0
0,0,0,0,0,0,-1.0303e-05,-0.003597,1.0202e-34,0.001702,3.2769e-18,7.5282e-21,28.542,0.0046525,-0.0042804,3.4815e-34,0.00067315,-419.12,-964.6,-417.66,260.4,5.0279e-13,1.0331e-15,709.24,-1069.6,-417.66,-314.11,0,0.011658,0,1,0.445,0,-0.445,0
0,0,0,0,0,0,2.7983e-06,-0.0035883,1.0199e-34,0.0016854,3.3065e-18,8.0182e-21,28.542,0.0046321,-0.0042593,3.7749e-34,0.00067387,-414.58,-960.79,-415.13,257.87,5.0733e-13,1.1064e-15,706.17,-1063.9,-415.13,-311.46,0,0.011676,0,1,0.45,0,-0.45,0
0,0,0,0,0,0,1.5813e-05,-0.0035795,1.0195e-34,0.0016689,3.335e-18,8.4976e-21,28.542,0.0046118,-0.0042383,4.0625e-34,0.00067462,-410.06,-956.98,-412.61,255.36,5.117e-13,1.1781e-15,703.12,-1058.2,-412.61,-308.82,0,0.011694,0,1,0.455,0,-0.455,0
0,0,0,0,0,0,2.874e-05,-0.0035707,1.0191e-34,0.0016524,3.3625e-18,8.9665e-21,28.542,0.0045916,-0.0042174,4.3443e-34,0.0006754,-405.55,-953.16,-410.08,252.84,5.159e-13,1.2482e-15,700.08,-1052.5,-410.08,-306.18,0,0.011712,0,1,0.46,0,-0.46,0
0,0,0,0,0,0,4.1581e-05,-0.0035619,1.0186e-34,0.0016359,3.3889e-18,9.4248e-21,28.542,0.0045715,-0.0041965,4.6202e-34,0.00067621,-401.07,-949.34,-407.57,250.33,5.1995e-13,1.3167e-15,697.05,-1046.9,-407.57,-303.54,0,0.011729,0,1,0.465,0,-0.465,0
0,0,0,0,0,0,5.4335e-05,-0.0035531,1.018e-34,0.0016194,3.4142e-18,9.8726e-21,28.542,0.0045515,-0.0041758,4.8904e-34,0.00067704,-396.6,-945.53,-405.06,247.83,5.2383e-13,1.3837e-15,694.04,-1041.2,-405.06,-300.9,0,0.011747,0,1,0.47,0,-0.47,0
0,0,0,0,0,0,6.7003e-05,-0.0035441,1.0174e-34,0.001603,3.4385e-18,1.031e-20,28.542,0.0045316,-0.004155,5.1548e-34,0.00067789,-392.15,-941.71,-402.55,245.33,5.2755e-13,1.4492e-15,691.04,-1035.6,-402.55,-298.26,0,0.011765,0,1,0.475,0,-0.475,0
0,0,0,0,0,0,7.9583e-05,-0.0035352,1.0167e-34,0.0015866,3.4617e-18,1.0736e-20,28.542,0.0045118,-0.0041344,5.4133e-34,0.00067878,-387.71,-937.88,-400.05,242.84,5.3111e-13,1.5131e-15,688.05,-1030,-400.05,-295.62,0,0.011782,0,1,0.48,0,-0.48,0
0,0,0,0,0,0,9.2077e-05,-0.0035262,1.0159e-34,0.0015702,3.4839e-18,1.1153e-20,28.542,0.004492,-0.0041138,5.6661e-34,0.00067969,-383.3,-934.06,-397.55,240.35,5.3451e-13,1.5754e-15,685.08,-1024.4,-397.55,-292.98,0,0.0118,0,1,0.485,0,-0.485,0
0,0,0,0,0,0,0.00010448,-0.0035172,1.015e-34,0.0015539,3.505e-18,1.1558e-20,28.542,0.0044724,-0.0040933,5.913e-34,0.00068062,-378.9,-930.24,-395.06,237.87,5.3775e-13,1.6361e-15,682.12,-1018.8,-395.06,-290.34,0,0.011818,0,1,0.49,0,-0.49,0
0,0,0,0,0,0,0.0001168,-0.0035081,1.0141e-34,0.0015376,3.525e-18,1.1953e-20,28.542,0.0044528,-0.0040728,6.1541e-34,0.00068159,-374.53,-926.41,-392.57,235.39,5.4082e-13,1.6953e-15,679.17,-1013.2,-392.57,-287.71,0,0.011835,0,1,0.495,0,-0.495,0
0,0,0,0,0,0,0.00012904,-0.0034989,1.0131e-34,0.0015214,3.5441e-18,1.2338e-20,28.542,0.0044334,-0.0040525,6.3895e-34,0.00068258,-370.17,-922.58,-390.09,232.91,5.4373e-13,1.753e-15,676.24,-1007.7,-390.09,-285.07,0,0.011853,0,1,0.5,0,-0.5,0
0,0,0,0,0,0,0.00014118,-0.0034898,1.012e-34,0.0015052,3.562e-18,1.2712e-20,28.542,0.004414,-0.0040322,6.619e-34,0.00068359,-365.83,-918.75,-387.62,230.45,5.4648e-13,1.8091e-15,673.32,-1002.1,-387.62,-282.44,0,0.01187,0,1,0.505,0,-0.505,0
0,0,0,0,0,0,0.00015324,-0.0034806,1.0108e-34,0.001489,3.5789e-18,1.3075e-20,28.542,0.0043947,-0.0040119,6.8427e-34,0.00068464,-361.51,-914.91,-385.15,227.98,5.4907e-13,1.8636e-15,670.41,-996.61,-385.15,-279.81,0,0.011888,0,1,0.51,0,-0.51,0
0,0,0,0,0,0,0.00016522,-0.0034713,1.0096e-34,0.0014728,3.5947e-18,1.3428e-20,28.542,0.0043755,-0.0039918,7.0606e-34,0.0006857,-357.2,-911.08,-382.68,225.52,5.5149e-13,1.9165e-15,667.51,-991.11,-382.68,-277.17,0,0.011905,0,1,0.515,0,-0.515,0
0,0,0,0,0,0,0.0001771,-0.003462,1.0083e-34,0.0014567,3.6095e-18,1.377e-20,28.542,0.0043563,-0.0039717,7.2727e-34,0.0006868,-352.92,-907.24,-380.22,223.07,5.5376e-13,1.968e-15,664.63,-985.61,-380.22,-274.54,0,0.011923,0,1,0.52,0,-0.52,0
0,0,0,0,0,0,0.0001889,-0.0034526,1.0069e-34,0.0014407,3.6232e-18,1.4102e-20,28.542,0.0043373,-0.0039517,7.4789e-34,0.00068792,-348.65,-903.4,-377.77,220.62,5.5586e-13,2.0178e-15,661.77,-980.14,-377.77,-271.91,0,0.01194,0,1,0.525,0,-0.525,0
0,0,0,0,0,0,0.00020062,-0.0034433,1.0054e-34,0.0014246,3.6359e-18,1.4423e-20,28.542,0.0043184,-0.0039317,7.6794e-34,0.00068907,-344.4,-899.56,-375.32,218.18,5.578e-13,2.0661e-15,658.91,-974.68,-375.32,-269.29,0,0.011957,0,1,0.53,0,-0.53,0
0,0,0,0,0,0,0.00021224,-0.0034338,1.0039e-34,0.0014086,3.6475e-18,1.4734e-20,28.542,0.0042995,-0.0039118,7.8741e-34,0.00069025,-340.17,-895.72,-372.87,215.74,5.5958e-13,2.1128e-15,656.07,-969.23,-372.87,-266.66,0,0.011975,0,1,0.535,0,-0.535,0
0,0,0,0,0,0,0.00022378,-0.0034243,1.0023e-34,0.0013926,3.6581e-18,1.5034e-20,28.542,0.0042808,-0.003892,8.063e-34,0.00069145,-335.96,-891.87,-370.43,213.31,5.6119e-13,2.158e-15,653.24,-963.8,-370.43,-264.03,0,0.011992,0,1,0.54,0,-0.54,0
0,0,0,0,0,0,0.00023524,-0.0034148,1.0007e-34,0.0013767,3.6675e-18,1.5323e-20,28.542,0.0042621,-0.0038723,8.246e-34,0.00069268,-331.76,-888.03,-368,210.88,5.6265e-13,2.2016e-15,650.43,-958.39,-368,-261.41,0,0.012009,0,1,0.545,0,-0.545,0
0,0,0,0,0,0,0.0002466,-0.0034053,9.9891e-35,0.0013608,3.676e-18,1.5602e-20,28.542,0.0042435,-0.0038526,8.4233e-34,0.00069393,-327.59,-884.18,-365.57,208.45,5.6394e-13,2.2436e-15,647.63,-952.99,-365.57,-258.78,0,0.012026,0,1,0.55,0,-0.55,0
0,0,0,0,0,0,0.00025788,-0.0033957,9.9709e-35,0.0013449,3.6834e-18,1.5871e-20,28.542,0.004225,-0.003833,8.5947e-34,0.00069522,-323.43,-880.33,-363.14,206.03,5.6507e-13,2.2841e-15,644.84,-947.6,-363.14,-256.16,0,0.012043,0,1,0.555,0,-0.555,0
0,0,0,0,0,0,0.00026907,-0.003386,9.952e-35,0.0013291,3.6897e-18,1.6128e-20,28.542,0.0042066,-0.0038135,8.7603e-34,0.00069652,-319.29,-876.47,-360.72,203.62,5.6603e-13,2.323e-15,642.06,-942.23,-360.72,-253.54,0,0.012061,0,1,0.56,0,-0.56,0
0,0,0,0,0,0,0.00028018,-0.0033763,9.9324e-35,0.0013133,3.695e-18,1.6376e-20,28.542,0.0041883,-0.003794,8.9202e-34,0.00069786,-315.17,-872.62,-358.31,201.21,5.6684e-13,2.3604e-15,639.3,-936.88,-358.31,-250.91,0,0.012078,0,1,0.565,0,-0.565,0
0,0,0,0,0,0,0.0002912,-0.0033666,9.912e-35,0.0012975,3.6992e-18,1.6613e-20,28.542,0.00417,-0.0037746,9.0742e-34,0.00069922,-311.07,-868.76,-355.9,198.81,5.6748e-13,2.3962e-15,636.56,-931.54,-355.9,-248.29,0,0.012095,0,1,0.57,0,-0.57,0
0,0,0,0,0,0,0.00030213,-0.0033568,9.8909e-35,0.0012817,3.7024e-18,1.6839e-20,28.542,0.0041519,-0.0037553,9.2224e-34,0.00070061,-306.99,-864.91,-353.49,196.41,5.6797e-13,2.4305e-15,633.82,-926.22,-353.49,-245.67,0,0.012112,0,1,0.575,0,-0.575,0
0,0,0,0,0,0,0.00031297,-0.003347,9.869e-35,0.001266,3.7045e-18,1.7054e-20,28.542,0.0041338,-0.003736,9.3648e-34,0.00070202,-302.92,-861.05,-351.09,194.01,5.6828e-13,2.4632e-15,631.1,-920.91,-351.09,-243.06,0,0.012129,0,1,0.58,0,-0.58,0
0,0,0,0,0,0,0.00032373,-0.0033371,9.8465e-35,0.0012504,3.7055e-18,1.726e-20,28.542,0.0041159,-0.0037168,9.5014e-34,0.00070347,-298.88,-857.18,-348.7,191.63,5.6844e-13,2.4943e-15,628.39,-915.62,-348.7,-240.44,0,0.012146,0,1,0.585,0,-0.585,0
0,0,0,0,0,0,0.0003344,-0.0033272,9.8232e-35,0.0012347,3.7055e-18,1.7454e-20,28.542,0.004098,-0.0036977,9.6322e-34,0.00070493,-294.85,-853.32,-346.31,189.24,5.6844e-13,2.5239e-15,625.7,-910.35,-346.31,-237.82,0,0.012163,0,1,0.59,0,-0.59,0
0,0,0,0,0,0,0.00034499,-0.0033172,9.7991e-35,0.0012191,3.7044e-18,1.7638e-20,28.542,0.0040802,-0.0036787,9.7571e-34,0.00070643,-290.84,-849.45,-343.93,186.86,5.6827e-13,2.5519e-15,623.01,-905.09,-343.93,-235.21,0,0.012179,0,1,0.595,0,-0.595,0
0,0,0,0,0,0,0.00035549,-0.0033072,9.7743e-35,0.0012036,3.7023e-18,1.7812e-20,28.542,0.0040625,-0.0036597,9.8763e-34,0.00070795,-286.85,-845.59,-341.55,184.49,5.6794e-13,2.5783e-15,620.35,-899.84,-341.55,-232.59,0,0.012196,0,1,0.6,0,-0.6,0
0,0,0,0,0,0,0.0003659,-0.0032972,9.7488e-35,0.001188,3.6991e-18,1.7975e-20,28.542,0.0040449,-0.0036408,9.9897e-34,0.0007095,-282.87,-841.72,-339.18,182.12,5.6745e-13,2.6032e-15,617.69,-894.61,-339.18,-229.98,0,0.012213,0,1,0.605,0,-0.605,0
0,0,0,0,0,0,0.00037622,-0.0032871,9.7226e-35,0.0011725,3.6949e-18,1.8127e-20,28.542,0.0040274,-0.003622,1.0097e-33,0.00071107,-278.92,-837.85,-336.81,179.76,5.668e-13,2.6266e-15,615.05,-889.4,-336.81,-227.37,0,0.01223,0,1,0.61,0,-0.61,0
0,0,0,0,0,0,0.00038646,-0.003277,9.6956e-35,0.0011571,3.6896e-18,1.8269e-20,28.542,0.00401,-0.0036032,1.0199e-33,0.00071267,-274.98,-833.97,-334.44,177.4,5.6598e-13,2.6483e-15,612.42,-884.2,-334.44,-224.76,0,0.012247,0,1,0.615,0,-0.615,0
0,0,0,0,0,0,0.00039661,-0.0032668,9.6679e-35,0.0011417,3.6833e-18,1.84e-20,28.542,0.0039926,-0.0035845,1.0295e-33,0.0007143,-271.06,-830.1,-332.08,175.04,5.6501e-13,2.6685e-15,609.8,-879.01,-332.08,-222.15,0,0.012263,0,1,0.62,0,-0.62,0
0,0,0,0,0,0,0.00040668,-0.0032566,9.6395e-35,0.0011263,3.6759e-18,1.8521e-20,28.542,0.0039754,-0.0035659,1.0385e-33,0.00071595,-267.16,-826.22,-329.73,172.69,5.6387e-13,2.6872e-15,607.2,-873.85,-329.73,-219.54,0,0.01228,0,1,0.625,0,-0.625,0
0,0,0,0,0,0,0.00041665,-0.0032463,9.6103e-35,0.0011109,3.6674e-18,1.8631e-20,28.542,0.0039582,-0.0035473,1.0469e-33,0.00071763,-263.28,-822.34,-327.38,170.35,5.6257e-13,2.7043e-15,604.61,-868.69,-327.38,-216.93,0,0.012297,0,1,0.63,0,-0.63,0
0,0,0,0,0,0,0.00042654,-0.003236,9.5804e-35,0.0010956,3.6579e-18,1.8731e-20,28.542,0.0039411,-0.0035288,1.0548e-33,0.00071934,-259.42,-818.46,-325.04,168.01,5.6111e-13,2.7198e-15,602.04,-863.56,-325.04,-214.32,0,0.012313,0,1,0.635,0,-0.635,0
0,0,0,0,0,0,0.00043635,-0.0032257,9.5498e-35,0.0010803,3.6473e-18,1.882e-20,28.542,0.0039241,-0.0035104,1.0621e-33,0.00072107,-255.57,-814.58,-322.7,165.67,5.5948e-13,2.7338e-15,599.47,-858.44,-322.7,-211.72,0,0.01233,0,1,0.64,0,-0.64,0
0,0,0,0,0,0,0.00044607,-0.0032153,9.5184e-35,0.001065,3.6357e-18,1.8898e-20,28.542,0.0039072,-0.0034921,1.0688e-33,0.00072283,-251.75,-810.69,-320.37,163.35,5.577e-13,2.7462e-15,596.93,-853.33,-320.37,-209.11,0,0.012346,0,1,0.645,0,-0.645,0
0,0,0,0,0,0,0.0004557,-0.0032049,9.4863e-35,0.0010498,3.623e-18,1.8966e-20,28.542,0.0038904,-0.0034738,1.0749e-33,0.00072462,-247.94,-806.8,-318.04,161.02,5.5575e-13,2.7571e-15,594.39,-848.24,-318.04,-206.51,0,0.012363,0,1,0.65,0,-0.65,0
0,0,0,0,0,0,0.00046524,-0.0031944,9.4535e-35,0.0010346,3.6093e-18,1.9024e-20,28.542,0.0038737,-0.0034556,1.0804e-33,0.00072643,-244.15,-802.92,-315.72,158.7,5.5364e-13,2.7664e-15,591.87,-843.16,-315.72,-203.9,0,0.012379,0,1,0.655,0,-0.655,0
0,0,0,0,0,0,0.0004747,-0.0031839,9.4199e-35,0.0010195,3.5945e-18,1.9071e-20,28.542,0.0038571,-0.0034374,1.0853e-33,0.00072827,-240.38,-799.03,-313.4,156.39,5.5136e-13,2.7741e-15,589.36,-838.1,-313.4,-201.3,0,0.012396,0,1,0.66,0,-0.66,0
0,0,0,0,0,0,0.00048407,-0.0031733,9.3857e-35,0.0010043,3.5786e-18,1.9107e-20,28.542,0.0038405,-0.0034194,1.0897e-33,0.00073014,-236.63,-795.13,-311.09,154.08,5.4893e-13,2.7803e-15,586.86,-833.06,-311.09,-198.7,0,0.012412,0,1,0.665,0,-0.665,0
0,0,0,0,0,0,0.00049335,-0.0031627,9.3506e-35,0.00098926,3.5617e-18,1.9133e-20,28.542,0.0038241,-0.0034014,1.0935e-33,0.00073203,-232.89,-791.24,-308.78,151.77,5.4633e-13,2.7849e-15,584.38,-828.03,-308.78,-196.1,0,0.012428,0,1,0.67,0,-0.67,0
0,0,0,0,0,0,0.00050255,-0.003152,9.3149e-35,0.00097421,3.5438e-18,1.9148e-20,28.542,0.0038077,-0.0033834,1.0967e-33,0.00073395,-229.18,-787.34,-306.48,149.47,5.4357e-13,2.788e-15,581.91,-823.02,-306.48,-193.5,0,0.012445,0,1,0.675,0,-0.675,0
0,0,0,0,0,0,0.00051166,-0.0031413,9.2784e-35,0.00095919,3.5248e-18,1.9153e-20,28.542,0.0037915,-0.0033656,1.0993e-33,0.0007359,-225.48,-783.44,-304.18,147.18,5.4065e-13,2.7895e-15,579.45,-818.02,-304.18,-190.9,0,0.012461,0,1,0.68,0,-0.68,0
0,0,0,0,0,0,0.00052068,-0.0031306,9.2411e-35,0.00094421,3.5047e-18,1.9147e-20,28.542,0.0037753,-0.0033478,1.1014e-33,0.00073787,-221.8,-779.54,-301.89,144.89,5.3757e-13,2.7894e-15,577.01,-813.03,-301.89,-188.31,0,0.012477,0,1,0.685,0,-0.685,0
0,0,0,0,0,0,0.00052962,-0.0031198,9.2032e-35,0.00092926,3.4836e-18,1.9131e-20,28.542,0.0037592,-0.0033301,1.1028e-33,0.00073987,-218.14,-775.64,-299.6,142.61,5.3433e-13,2.7878e-15,574.58,-808.07,-299.6,-185.71,0,0.012493,0,1,0.69,0,-0.69,0
0,0,0,0,0,0,0.00053846,-0.003109,9.1645e-35,0.00091435,3.4614e-18,1.9104e-20,28.542,0.0037432,-0.0033124,1.1037e-33,0.00074189,-214.49,-771.74,-297.32,140.33,5.3092e-13,2.7846e-15,572.16,-803.11,-297.32,-183.12,0,0.01251,0,1,0.695,0,-0.695,0
0,0,0,0,0,0,0.00054723,-0.0030981,9.1251e-35,0.00089947,3.4381e-18,1.9066e-20,28.542,0.0037272,-0.0032948,1.104e-33,0.00074394,-210.87,-767.83,-295.05,138.05,5.2735e-13,2.7799e-15,569.76,-798.18,-295.05,-180.52,0,0.012526,0,1,0.7,0,-0.7,0
0,0,0,0,0,0,0.0005559,-0.0030872,9.0849e-35,0.00088462,3.4138e-18,1.9018e-20,28.542,0.0037114,-0.0032773,1.1037e-33,0.00074602,-207.26,-763.92,-292.77,135.78,5.2362e-13,2.7736e-15,567.37,-793.26,-292.77,-177.93,0,0.012542,0,1,0.705,0,-0.705,0
0,0,0,0,0,0,0.00056449,-0.0030762,9.044e-35,0.00086981,3.3885e-18,1.8959e-20,28.542,0.0036957,-0.0032599,1.1029e-33,0.00074813,-203.68,-760.01,-290.51,133.52,5.1973e-13,2.7657e-15,564.99,-788.35,-290.51,-175.34,0,0.012558,0,1,0.71,0,-0.71,0
0,0,0,0,0,0,0.000573,-0.0030652,9.0024e-35,0.00085503,3.3621e-18,1.889e-20,28.542,0.00368,-0.0032425,1.1014e-33,0.00075026,-200.11,-756.1,-288.25,131.26,5.1567e-13,2.7563e-15,562.63,-783.46,-288.25,-172.75,0,0.012574,0,1,0.715,0,-0.715,0
0,0,0,0,0,0,0.00058141,-0.0030542,8.9601e-35,0.00084029,3.3346e-18,1.8811e-20,28.542,0.0036645,-0.0032252,1.0994e-33,0.00075242,-196.55,-752.19,-285.99,129,5.1145e-13,2.7453e-15,560.28,-778.59,-285.99,-170.16,0,0.01259,0,1,0.72,0,-0.72,0
0,0,0,0,0,0,0.00058974,-0.0030431,8.917e-35,0.00082558,3.3061e-18,1.872e-20,28.542,0.003649,-0.003208,1.0968e-33,0.0007546,-193.02,-748.27,-283.74,126.75,5.0708e-13,2.7328e-15,557.94,-773.73,-283.74,-167.57,0,0.012606,0,1,0.725,0,-0.725,0
0,0,0,0,0,0,0.00059798,-0.003032,8.8732e-35,0.00081091,3.2765e-18,1.862e-20,28.542,0.0036336,-0.0031908,1.0936e-33,0.00075681,-189.51,-744.36,-281.49,124.51,5.0254e-13,2.7187e-15,555.62,-768.88,-281.49,-164.98,0,0.012622,0,1,0.73,0,-0.73,0
0,0,0,0,0,0,0.00060614,-0.0030208,8.8286e-35,0.00079627,3.2459e-18,1.8508e-20,28.542,0.0036183,-0.0031737,1.0899e-33,0.00075905,-186.01,-740.44,-279.25,122.27,4.9783e-13,2.703e-15,553.31,-764.05,-279.25,-162.4,0,0.012638,0,1,0.735,0,-0.735,0
0,0,0,0,0,0,0.00061421,-0.0030096,8.7833e-35,0.00078166,3.2142e-18,1.8386e-20,28.542,0.0036031,-0.0031567,1.0855e-33,0.00076132,-182.53,-736.52,-277.02,120.03,4.9297e-13,2.6858e-15,551.01,-759.24,-277.02,-159.81,0,0.012654,0,1,0.74,0,-0.74,0
0,0,0,0,0,0,0.00062219,-0.0029983,8.7373e-35,0.00076709,3.1814e-18,1.8254e-20,28.542,0.003588,-0.0031398,1.0806e-33,0.00076361,-179.07,-732.59,-274.79,117.8,4.8794e-13,2.6671e-15,548.73,-754.44,-274.79,-157.23,0,0.012669,0,1,0.745,0,-0.745,0
0,0,0,0,0,0,0.00063008,-0.002987,8.6906e-35,0.00075255,3.1476e-18,1.8111e-20,28.542,0.0035729,-0.0031229,1.0751e-33,0.00076593,-175.63,-728.67,-272.56,115.58,4.8275e-13,2.6467e-15,546.46,-749.66,-272.56,-154.64,0,0.012685,0,1,0.75,0,-0.75,0
0,0,0,0,0,0,0.00063789,-0.0029757,8.6431e-35,0.00073805,3.1128e-18,1.7957e-20,28.542,0.003558,-0.0031061,1.069e-33,0.00076827,-172.21,-724.74,-270.34,113.36,4.774e-13,2.6248e-15,544.2,-744.89,-270.34,-152.06,0,0.012701,0,1,0.755,0,-0.755,0
0,0,0,0,0,0,0.00064561,-0.0029643,8.5949e-35,0.00072358,3.0768e-18,1.7793e-20,28.542,0.0035432,-0.0030893,1.0623e-33,0.00077064,-168.81,-720.81,-268.12,111.14,4.7189e-13,2.6014e-15,541.96,-740.14,-268.12,-149.48,0,0.012717,0,1,0.76,0,-0.76,0
0,0,0,0,0,0,0.00065325,-0.0029529,8.5459e-35,0.00070914,3.0399e-18,1.7619e-20,28.542,0.0035284,-0.0030726,1.0551e-33,0.00077304,-165.42,-716.88,-265.91,108.93,4.6621e-13,2.5764e-15,539.72,-735.41,-265.91,-146.9,0,0.012732,0,1,0.765,0,-0.765,0
0,0,0,0,0,0,0.0006608,-0.0029414,8.4963e-35,0.00069474,3.0018e-18,1.7434e-20,28.542,0.0035137,-0.003056,1.0473e-33,0.00077546,-162.05,-712.95,-263.71,106.73,4.6038e-13,2.5498e-15,537.51,-730.69,-263.71,-144.32,0,0.012748,0,1,0.77,0,-0.77,0
0,0,0,0,0,0,0.00066826,-0.0029299,8.4459e-35,0.00068038,2.9628e-18,1.7238e-20,28.542,0.0034991,-0.0030395,1.0389e-33,0.00077791,-158.7,-709.02,-261.51,104.53,4.5438e-13,2.5217e-15,535.3,-725.98,-261.51,-141.74,0,0.012764,0,1,0.775,0,-0.775,0
0,0,0,0,0,0,0.00067563,-0.0029183,8.3947e-35,0.00066605,2.9226e-18,1.7032e-20,28.542,0.0034846,-0.0030231,1.0299e-33,0.00078039,-155.37,-705.08,-259.31,102.33,4.4822e-13,2.492e-15,533.11,-721.29,-259.31,-139.16,0,0.012779,0,1,0.78,0,-0.78,0
0,0,0,0,0,0,0.00068292,-0.0029067,8.3428e-35,0.00065175,2.8814e-18,1.6815e-20,28.542,0.0034702,-0.0030067,1.0203e-33,0.00078289,-152.06,-701.14,-257.12,100.14,4.4189e-13,2.4607e-15,530.93,-716.62,-257.12,-136.59,0,0.012795,0,1,0.785,0,-0.785,0
0,0,0,0,0,0,0.00069012,-0.002895,8.2902e-35,0.00063748,2.8392e-18,1.6587e-20,28.542,0.0034559,-0.0029903,1.0102e-33,0.00078542,-148.77,-697.2,-254.94,97.958,4.3541e-13,2.4279e-15,528.77,-711.96,-254.94,-134.01,0,0.01281,0,1,0.79,0,-0.79,0
0,0,0,0,0,0,0.00069723,-0.0028833,8.2369e-35,0.00062326,2.7959e-18,1.6349e-20,28.542,0.0034417,-0.0029741,9.9942e-34,0.00078798,-145.49,-693.26,-252.76,95.778,4.2876e-13,2.3935e-15,526.62,-707.31,-252.76,-131.44,0,0.012826,0,1,0.795,0,-0.795,0
0,0,0,0,0,0,0.00070426,-0.0028716,8.1828e-35,0.00060906,2.7515e-18,1.6101e-20,28.542,0.0034275,-0.0029579,9.8811e-34,0.00079056,-142.23,-689.31,-250.58,93.603,4.2195e-13,2.3576e-15,524.48,-702.69,-250.58,-128.86,0,0.012841,0,1,0.8,0,-0.8,0
0,0,0,0,0,0,0.0007112,-0.0028598,8.128e-35,0.0005949,2.7061e-18,1.5842e-20,28.542,0.0034135,-0.0029418,9.7621e-34,0.00079317,-139,-685.37,-248.42,91.432,4.1498e-13,2.3201e-15,522.35,-698.07,-248.42,-126.29,0,0.012857,0,1,0.805,0,-0.805,0
0,0,0,0,0,0,0.00071806,-0.002848,8.0725e-35,0.00058077,2.6596e-18,1.5572e-20,28.542,0.0033995,-0.0029257,9.6374e-34,0.00079581,-135.78,-681.42,-246.25,89.267,4.0785e-13,2.2811e-15,520.24,-693.48,-246.25,-123.72,0,0.012872,0,1,0.81,0,-0.81,0
0,0,0,0,0,0,0.00072482,-0.0028361,8.0162e-35,0.00056668,2.6121e-18,1.5292e-20,28.542,0.0033856,-0.0029098,9.5068e-34,0.00079847,-132.57,-677.47,-244.09,87.107,4.0056e-13,2.2405e-15,518.14,-688.89,-244.09,-121.15,0,0.012887,0,1,0.815,0,-0.815,0
0,0,0,0,0,0,0.0007315,-0.0028242,7.9592e-35,0.00055262,2.5635e-18,1.5002e-20,28.542,0.0033719,-0.0028939,9.3705e-34,0.00080116,-129.39,-673.52,-241.94,84.952,3.931e-13,2.1983e-15,516.06,-684.33,-241.94,-118.58,0,0.012903,0,1,0.82,0,-0.82,0
0,0,0,0,0,0,0.0007381,-0.0028122,7.9015e-35,0.0005386,2.5138e-18,1.47e-20,28.542,0.0033582,-0.002878,9.2283e-34,0.00080388,-126.22,-669.57,-239.79,82.801,3.8548e-13,2.1546e-15,513.99,-679.78,-239.79,-116.01,0,0.012918,0,1,0.825,0,-0.825,0
0,0,0,0,0,0,0.0007446,-0.0028002,7.843e-35,0.00052461,2.4631e-18,1.4389e-20,28.542,0.0033446,-0.0028623,9.0803e-34,0.00080662,-123.08,-665.61,-237.64,80.656,3.777e-13,2.1093e-15,511.93,-675.24,-237.64,-113.44,0,0.012933,0,1,0.83,0,-0.83,0
0,0,0,0,0,0,0.00075102,-0.0027882,7.7838e-35,0.00051066,2.4114e-18,1.4066e-20,28.542,0.003331,-0.0028466,8.9266e-34,0.00080939,-119.95,-661.65,-235.51,78.516,3.6976e-13,2.0625e-15,509.88,-670.72,-235.51,-110.88,0,0.012948,0,1,0.835,0,-0.835,0
0,0,0,0,0,0,0.00075736,-0.0027761,7.7239e-35,0.00049674,2.3585e-18,1.3733e-20,28.542,0.0033176,-0.0028309,8.767e-34,0.00081219,-116.84,-657.69,-233.37,76.38,3.6165e-13,2.0141e-15,507.85,-666.22,-233.37,-108.31,0,0.012963,0,1,0.84,0,-0.84,0
0,0,0,0,0,0,0.0007636,-0.002764,7.6632e-35,0.00048285,2.3047e-18,1.339e-20,28.542,0.0033043,-0.0028154,8.6016e-34,0.00081501,-113.75,-653.73,-231.24,74.25,3.5338e-13,1.9641e-15,505.83,-661.73,-231.24,-105.75,0,0.012979,0,1,0.845,0,-0.845,0
0,0,0,0,0,0,0.00076976,-0.0027518,7.6018e-35,0.000469,2.2497e-18,1.3036e-20,28.542,0.003291,-0.0027999,8.4304e-34,0.00081786,-110.67,-649.77,-229.12,72.124,3.4495e-13,1.9126e-15,503.83,-657.25,-229.12,-103.19,0,0.012994,0,1,0.85,0,-0.85,0
0,0,0,0,0,0,0.00077584,-0.0027396,7.5397e-35,0.00045518,2.1938e-18,1.2671e-20,28.542,0.0032778,-0.0027845,8.2534e-34,0.00082073,-107.62,-645.8,-227,70.004,3.3636e-13,1.8595e-15,501.84,-652.8,-227,-100.62,0,0.013009,0,1,0.855,0,-0.855,0
0,0,0,0,0,0,0.00078182,-0.0027273,7.4768e-35,0.0004414,2.1367e-18,1.2296e-20,28.542,0.0032648,-0.0027691,8.0705e-34,0.00082363,-104.58,-641.84,-224.89,67.888,3.2761e-13,1.8048e-15,499.86,-648.35,-224.89,-98.063,0,0.013024,0,1,0.86,0,-0.86,0
0,0,0,0,0,0,0.00078772,-0.002715,7.4132e-35,0.00042765,2.0786e-18,1.1911e-20,28.542,0.0032518,-0.0027539,7.8819e-34,0.00082656,-101.56,-637.87,-222.78,65.778,3.187e-13,1.7486e-15,497.89,-643.93,-222.78,-95.503,0,0.013039,0,1,0.865,0,-0.865,0
0,0,0,0,0,0,0.00079353,-0.0027027,7.3489e-35,0.00041393,2.0195e-18,1.1515e-20,28.542,0.0032389,-0.0027387,7.6875e-34,0.00082952,-98.56,-633.9,-220.68,63.672,3.0962e-13,1.6909e-15,495.94,-639.51,-220.68,-92.944,0,0.013054,0,1,0.87,0,-0.87,0
0,0,0,0,0,0,0.00079926,-0.0026903,7.2838e-35,0.00040025,1.9593e-18,1.1108e-20,28.542,0.0032261,-0.0027235,7.4872e-34,0.0008325,-95.578,-629.93,-218.58,61.572,3.0038e-13,1.6316e-15,494,-635.12,-218.58,-90.386,0,0.013069,0,1,0.875,0,-0.875,0
0,0,0,0,0,0,0.0008049,-0.0026778,7.218e-35,0.0003866,1.898e-18,1.0691e-20,28.542,0.0032134,-0.0027084,7.2812e-34,0.00083551,-92.615,-625.95,-216.49,59.476,2.9098e-13,1.5707e-15,492.07,-630.74,-216.49,-87.829,0,0.013084,0,1,0.88,0,-0.88,0
0,0,0,0,0,0,0.00081045,-0.0026654,7.1515e-35,0.00037299,1.8357e-18,1.0263e-20,28.542,0.0032007,-0.0026935,7.0693e-34,0.00083854,-89.669,-621.97,-214.4,57.386,2.8142e-13,1.5082e-15,490.16,-626.37,-214.4,-85.273,0,0.013098,0,1,0.885,0,-0.885,0
0,0,0,0,0,0,0.00081592,-0.0026528,7.0843e-35,0.00035941,1.7723e-18,9.8245e-21,28.542,0.0031882,-0.0026785,6.8517e-34,0.0008416,-86.743,-618,-212.32,55.3,2.7169e-13,1.4442e-15,488.26,-622.02,-212.32,-82.718,0,0.013113,0,1,0.89,0,-0.89,0
0,0,0,0,0,0,0.00082129,-0.0026403,7.0163e-35,0.00034587,1.7079e-18,9.3756e-21,28.542,0.0031757,-0.0026637,6.6282e-34,0.00084469,-83.834,-614.02,-210.24,53.219,2.618e-13,1.3787e-15,486.38,-617.69,-210.24,-80.165,0,0.013128,0,1,0.895,0,-0.895,0
0,0,0,0,0,0,0.00082659,-0.0026277,6.9475e-35,0.00033236,1.6424e-18,8.9161e-21,28.542,0.0031634,-0.0026489,6.3989e-34,0.00084781,-80.944,-610.03,-208.17,51.143,2.5175e-13,1.3116e-15,484.5,-613.37,-208.17,-77.612,0,0.013143,0,1,0.9,0,-0.9,0
0,0,0,0,0,0,0.00083179,-0.002615,6.8781e-35,0.00031889,1.5758e-18,8.4461e-21,28.542,0.0031511,-0.0026342,6.1639e-34,0.00085095,-78.072,-606.05,-206.1,49.073,2.4154e-13,1.2429e-15,482.64,-609.06,-206.1,-75.06,0,0.013157,0,1,0.905,0,-0.905,0
0,0,0,0,0,0,0.00083691,-0.0026023,6.8079e-35,0.00030544,1.5082e-18,7.9656e-21,28.542,0.0031389,-0.0026195,5.923e-34,0.00085411,-75.219,-602.06,-204.04,47.007,2.3117e-13,1.1726e-15,480.8,-604.77,-204.04,-72.509,0,0.013172,0,1,0.91,0,-0.91,0
0,0,0,0,0,0,0.00084194,-0.0025896,6.737e-35,0.00029204,1.4396e-18,7.4745e-21,28.542,0.0031268,-0.0026049,5.6763e-34,0.00085731,-72.384,-598.08,-201.98,44.946,2.2064e-13,1.1008e-15,478.96,-600.5,-201.98,-69.959,0,0.013187,0,1,0.915,0,-0.915,0
0,0,0,0,0,0,0.00084689,-0.0025768,6.6653e-35,0.00027866,1.3699e-18,6.9728e-21,28.542,0.0031148,-0.0025904,5.4238e-34,0.00086053,-69.567,-594.09,-199.93,42.89,2.0994e-13,1.0275e-15,477.14,-596.24,-199.93,-67.411,0,0.013201,0,1,0.92,0,-0.92,0
0,0,0,0,0,0,0.00085175,-0.002564,6.593e-35,0.00026533,1.2991e-18,6.4606e-21,28.542,0.0031029,-0.002576,5.1654e-34,0.00086378,-66.769,-590.09,-197.88,40.839,1.9908e-13,9.5258e-16,475.34,-592,-197.88,-64.863,0,0.013216,0,1,0.925,0,-0.925,0
0,0,0,0,0,0,0.00085652,-0.0025511,6.5198e-35,0.00025202,1.2273e-18,5.9379e-21,28.542,0.0030911,-0.0025616,4.9013e-34,0.00086705,-63.989,-586.1,-195.84,38.794,1.8806e-13,8.761e-16,473.55,-587.77,-195.84,-62.316,0,0.01323,0,1,0.93,0,-0.93,0
0,0,0,0,0,0,0.0008612,-0.0025382,6.446e-35,0.00023875,1.1544e-18,5.4046e-21,28.542,0.0030793,-0.0025473,4.6314e-34,0.00087035,-61.227,-582.11,-193.8,36.753,1.7688e-13,7.9807e-16,471.77,-583.56,-193.8,-59.771,0,0.013245,0,1,0.935,0,-0.935,0
0,0,0,0,0,0,0.0008658,-0.0025252,6.3714e-35,0.00022552,1.0805e-18,4.8607e-21,28.542,0.0030677,-0.0025331,4.3557e-34,0.00087368,-58.484,-578.11,-191.77,34.717,1.6553e-13,7.1847e-16,470,-579.37,-191.77,-57.226,0,0.013259,0,1,0.94,0,-0.94,0
0,0,0,0,0,0,0.00087031,-0.0025122,6.2961e-35,0.00021232,1.0055e-18,4.3063e-21,28.542,0.0030561,-0.0025189,4.0741e-34,0.00087703,-55.759,-574.11,-189.74,32.686,1.5402e-13,6.3732e-16,468.24,-575.18,-189.74,-54.682,0,0.013274,0,1,0.945,0,-0.945,0
0,0,0,0,0,0,0.00087473,-0.0024992,6.22e-35,0.00019915,9.2942e-19,3.7414e-21,28.542,0.0030446,-0.0025048,3.7868e-34,0.00088041,-53.052,-570.11,-187.72,30.66,1.4235e-13,5.5461e-16,466.5,-571.02,-187.72,-52.14,0,0.013288,0,1,0.95,0,-0.95,0
0,0,0,0,0,0,0.00087907,-0.0024861,6.1433e-35,0.00018602,8.5231e-19,3.1659e-21,28.542,0.0030333,-0.0024908,3.4936e-34,0.00088382,-50.364,-566.1,-185.71,28.639,1.3052e-13,4.7033e-16,464.78,-566.87,-185.71,-49.598,0,0.013303,0,1,0.955,0,-0.955,0
0,0,0,0,0,0,0.00088332,-0.0024729,6.0657e-35,0.00017292,7.7415e-19,2.5798e-21,28.542,0.003022,-0.0024769,3.1946e-34,0.00088725,-47.694,-562.1,-183.69,26.623,1.1853e-13,3.845e-16,463.06,-562.74,-183.69,-47.058,0,0.013317,0,1,0.96,0,-0.96,0
0,0,0,0,0,0,0.00088749,-0.0024598,5.9875e-35,0.00015985,6.9493e-19,1.9832e-21,28.542,0.0030107,-0.002463,2.8899e-34,0.00089071,-45.043,-558.09,-181.69,24.612,1.0637e-13,2.9711e-16,461.36,-558.62,-181.69,-44.518,0,0.013331,0,1,0.965,0,-0.965,0
0,0,0,0,0,0,0.00089156,-0.0024466,5.9085e-35,0.00014682,6.1466e-19,1.3761e-21,28.542,0.0029996,-0.0024492,2.5793e-34,0.0008942,-42.41,-554.08,-179.69,22.605,9.4057e-14,2.0816e-16,459.68,-554.51,-179.69,-41.98,0,0.013345,0,1,0.97,0,-0.97,0
0,0,0,0,0,0,0.00089555,-0.0024333,5.8288e-35,0.00013383,5.3333e-19,7.5839e-22,28.542,0.0029886,-0.0024354,2.2629e-34,0.00089771,-39.795,-550.07,-177.69,20.604,8.1578e-14,1.1765e-16,458,-550.43,-177.69,-39.442,0,0.01336,0,1,0.975,0,-0.975,0
0,0,0,0,0,0,0.00089946,-0.00242,5.7484e-35,0.00012087,4.5094e-19,1.3015e-22,28.542,0.0029777,-0.0024218,1.9407e-34,0.00090125,-37.198,-546.06,-175.7,18.608,6.8937e-14,2.5576e-17,456.34,-546.35,-175.7,-36.906,0,0.013374,0,1,0.98,0,-0.98,0
0,0,0,0,0,0,0.00090327,-0.0024066,5.6672e-35,0.00010794,3.675e-19,-5.0864e-22,28.542,0.0029668,-0.0024082,1.6127e-34,0.00090481,-34.62,-542.05,-173.72,16.617,5.6134e-14,-6.8054e-17,454.69,-542.3,-173.72,-34.37,0,0.013388,0,1,0.985,0,-0.985,0
0,0,0,0,0,0,0.00090701,-0.0023932,5.5853e-35,9.5047e-05,2.83e-19,-1.158e-21,28.542,0.002956,-0.0023946,1.2789e-34,0.00090841,-32.061,-538.03,-171.73,14.631,4.3168e-14,-1.6324e-16,453.06,-538.25,-171.73,-31.836,0,0.013402,0,1,0.99,0,-0.99,0
0,0,0,0,0,0,0.00091065,-0.0023798,5.5027e-35,8.2189e-05,1.9744e-19,-1.8179e-21,28.542,0.0029454,-0.0023812,9.3926e-35,0.00091203,-29.519,-534.01,-169.76,12.65,3.0041e-14,-2.5999e-16,451.44,-534.23,-169.76,-29.302,0,0.013416,0,1,0.995,0,-0.995,0
0,0,0,0,0,0,0.0009142,-0.0023663,5.4193e-35,6.9364e-05,1.1083e-19,-2.4883e-21,28.542,0.0029348,-0.0023678,5.9383e-35,0.00091567,-26.996,-529.99,-167.79,10.673,1.6752e-14,-3.583e-16,449.83,-530.22,-167.79,-26.77,0,0.01343,0,1,1,0,-1,0
0,0,0,0,0,0,0.00091193,-0.0023547,5.5188e-35,6.7212e-05,1.8174e-19,-2.4413e-21,28.446,0.002922,-0.0023562,2.4648e-34,0.00091341,-26.266,-527.14,-166.71,10.342,2.7645e-14,-3.5054e-16,447.87,-527.36,-166.71,-26.038,0,0.01344,0,1,1.005,0,-1.005,0
0,0,0,0,0,0,0.00090965,-0.0023431,5.617e-35,6.5077e-05,2.5195e-19,-2.3943e-21,28.35,0.0029092,-0.0023446,4.319e-34,0.00091113,-25.544,-524.3,-165.63,10.014,3.8432e-14,-3.4278e-16,445.92,-524.52,-165.63,-25.315,0,0.013449,0,1,1.01,0,-1.01,0
0,0,0,0,0,0,0.00090735,-0.0023316,5.7141e-35,6.2961e-05,3.2147e-19,-2.3473e-21,28.254,0.0028964,-0.0023331,6.1565e-34,0.00090884,-24.83,-521.47,-164.57,9.6878,4.9113e-14,-3.3504e-16,443.97,-521.7,-164.57,-24.6,0,0.013459,0,1,1.015,0,-1.015,0
0,0,0,0,0,0,0.00090504,-0.0023201,5.81e-35,6.0863e-05,3.903e-19,-2.3003e-21,28.158,0.0028837,-0.0023216,7.9774e-34,0.00090654,-24.124,-518.65,-163.5,9.3649,5.9687e-14,-3.273e-16,442.02,-518.88,-163.5,-23.892,0,0.013469,0,1,1.02,0,-1.02,0
0,0,0,0,0,0,0.00090272,-0.0023087,5.9046e-35,5.8782e-05,4.5844e-19,-2.2533e-21,28.062,0.002871,-0.0023102,9.7815e-34,0.00090423,-23.426,-515.85,-162.45,9.0447,7.0156e-14,-3.1957e-16,440.08,-516.08,-162.45,-23.193,0,0.013478,0,1,1.025,0,-1.025,0
0,0,0,0,0,0,0.00090039,-0.0022973,5.998e-35,5.672e-05,5.2589e-19,-2.2063e-21,27.966,0.0028583,-0.0022988,1.1569e-33,0.0009019,-22.737,-513.06,-161.4,8.7273,8.0519e-14,-3.1185e-16,438.15,-513.29,-161.4,-22.502,0,0.013488,0,1,1.03,0,-1.03,0
0,0,0,0,0,0,0.00089804,-0.0022859,6.0902e-35,5.4676e-05,5.9265e-19,-2.1594e-21,27.87,0.0028457,-0.0022874,1.334e-33,0.00089957,-22.055,-510.28,-160.36,8.4127,9.0775e-14,-3.0414e-16,436.22,-510.52,-160.36,-21.82,0,0.013497,0,1,1.035,0,-1.035,0
0,0,0,0,0,0,0.00089569,-0.0022746,6.1812e-35,5.2649e-05,6.5872e-19,-2.1124e-21,27.774,0.0028331,-0.0022761,1.5094e-33,0.00089722,-21.382,-507.52,-159.32,8.1009,1.0093e-13,-2.9643e-16,434.29,-507.76,-159.32,-21.145,0,0.013507,0,1,1.04,0,-1.04,0
0,0,0,0,0,0,0.00089332,-0.0022633,6.271e-35,5.0641e-05,7.241e-19,-2.0655e-21,27.678,0.0028205,-0.0022648,1.6831e-33,0.00089486,-20.717,-504.77,-158.29,7.7918,1.1097e-13,-2.8874e-16,432.37,-505.01,-158.29,-20.479,0,0.013516,0,1,1.045,0,-1.045,0
0,0,0,0,0,0,0.00089094,-0.0022521,6.3595e-35,4.8651e-05,7.8879e-19,-2.0185e-21,27.583,0.002808,-0.0022536,1.8552e-33,0.00089249,-20.06,-502.03,-157.27,7.4855,1.2091e-13,-2.8105e-16,430.45,-502.27,-157.27,-19.821,0,0.013525,0,1,1.05,0,-1.05,0
0,0,0,0,0,0,0.00088855,-0.0022409,6.4469e-35,4.6679e-05,8.5278e-19,-1.9716e-21,27.487,0.0027955,-0.0022424,2.0256e-33,0.0008901,-19.411,-499.3,-156.25,7.182,1.3074e-13,-2.7337e-16,428.54,-499.54,-156.25,-19.171,0,0.013535,0,1,1.055,0,-1.055,0
0,0,0,0,0,0,0.00088614,-0.0022297,6.533e-35,4.4725e-05,9.1609e-19,-1.9247e-21,27.391,0.002783,-0.0022313,2.1943e-33,0.0008877,-18.77,-496.59,-155.24,6.8813,1.4047e-13,-2.657e-16,426.64,-496.83,-155.24,-18.529,0,0.013544,0,1,1.06,0,-1.06,0
0,0,0,0,0,0,0.00088373,-0.0022186,6.6179e-35,4.2789e-05,9.7871e-19,-1.8777e-21,27.295,0.0027706,-0.0022202,2.3614e-33,0.0008853,-18.137,-493.89,-154.23,6.5833,1.5009e-13,-2.5804e-16,424.74,-494.13,-154.23,-17.895,0,0.013554,0,1,1.065,0,-1.065,0
0,0,0,0,0,0,0.0008813,-0.0022075,6.7016e-35,4.0871e-05,1.0406e-18,-1.8308e-21,27.199,0.0027582,-0.0022091,2.5267e-33,0.00088287,-17.513,-491.2,-153.23,6.2882,1.596e-13,-2.5039e-16,422.84,-491.45,-153.23,-17.27,0,0.013563,0,1,1.07,0,-1.07,0
0,0,0,0,0,0,0.00087886,-0.0021965,6.7841e-35,3.8971e-05,1.1019e-18,-1.7839e-21,27.103,0.0027458,-0.0021981,2.6904e-33,0.00088044,-16.897,-488.53,-152.24,5.9958,1.6901e-13,-2.4275e-16,420.95,-488.77,-152.24,-16.652,0,0.013572,0,1,1.075,0,-1.075,0
0,0,0,0,0,0,0.00087641,-0.0021856,6.8654e-35,3.7089e-05,1.1624e-18,-1.737e-21,27.007,0.0027335,-0.0021871,2.8525e-33,0.000878,-16.289,-485.87,-151.26,5.7061,1.7831e-13,-2.3511e-16,419.07,-486.11,-151.26,-16.043,0,0.013581,0,1,1.08,0,-1.08,0
0,0,0,0,0,0,0.00087394,-0.0021746,6.9454e-35,3.5225e-05,1.2223e-18,-1.6901e-21,26.911,0.0027212,-0.0021762,3.0129e-33,0.00087554,-15.689,-483.22,-150.28,5.4193,1.8751e-13,-2.2749e-16,417.19,-483.47,-150.28,-15.442,0,0.013591,0,1,1.085,0,-1.085,0
0,0,0,0,0,0,0.00087147,-0.0021637,7.0243e-35,3.338e-05,1.2814e-18,-1.6432e-21,26.815,0.0027089,-0.0021653,3.1716e-33,0.00087307,-15.097,-480.58,-149.3,5.1352,1.966e-13,-2.1987e-16,415.31,-480.83,-149.3,-14.849,0,0.0136,0,1,1.09,0,-1.09,0
0,0,0,0,0,0,0.00086898,-0.0021529,7.1019e-35,3.1552e-05,1.3399e-18,-1.5964e-21,26.719,0.0026967,-0.0021545,3.3286e-33,0.00087059,-14.513,-477.96,-148.34,4.8539,2.0558e-13,-2.1226e-16,413.44,-478.21,-148.34,-14.264,0,0.013609,0,1,1.095,0,-1.095,0
0,0,0,0,0,0,0.00086648,-0.0021421,7.1783e-35,2.9742e-05,1.3977e-18,-1.5495e-21,26.624,0.0026845,-0.0021437,3.484e-33,0.0008681,-13.938,-475.35,-147.38,4.5754,2.1446e-13,-2.0466e-16,411.58,-475.6,-147.38,-13.688,0,0.013618,0,1,1.1,0,-1.1,0
0,0,0,0,0,0,0.00086397,-0.0021313,7.2535e-35,2.795e-05,1.4548e-18,-1.5026e-21,26.528,0.0026723,-0.0021329,3.6377e-33,0.00086559,-13.37,-472.75,-146.42,4.2997,2.2323e-13,-1.9707e-16,409.72,-473,-146.42,-13.12,0,0.013627,0,1,1.105,0,-1.105,0
0,0,0,0,0,0,0.00086144,-0.0021206,7.3275e-35,2.6177e-05,1.5112e-18,-1.4558e-21,26.432,0.0026602,-0.0021222,3.7897e-33,0.00086307,-12.811,-470.17,-145.47,4.0267,2.319e-13,-1.8949e-16,407.86,-470.42,-145.47,-12.559,0,0.013636,0,1,1.11,0,-1.11,0
0,0,0,0,0,0,0.00085891,-0.0021099,7.4002e-35,2.4421e-05,1.5669e-18,-1.4089e-21,26.336,0.0026481,-0.0021115,3.94e-33,0.00086054,-12.26,-467.6,-144.53,3.7565,2.4046e-13,-1.8191e-16,406.01,-467.85,-144.53,-12.007,0,0.013645,0,1,1.115,0,-1.115,0
0,0,0,0,0,0,0.00085636,-0.0020993,7.4718e-35,2.2684e-05,1.6219e-18,-1.3621e-21,26.24,0.002636,-0.0021009,4.0887e-33,0.000858,-11.717,-465.04,-143.6,3.4891,2.4891e-13,-1.7434e-16,404.17,-465.29,-143.6,-11.463,0,0.013654,0,1,1.12,0,-1.12,0
0,0,0,0,0,0,0.0008538,-0.0020887,7.5421e-35,2.0964e-05,1.6763e-18,-1.3153e-21,26.144,0.0026239,-0.0020903,4.2357e-33,0.00085545,-11.182,-462.49,-142.67,3.2245,2.5726e-13,-1.6679e-16,402.33,-462.74,-142.67,-10.928,0,0.013663,0,1,1.125,0,-1.125,0
0,0,0,0,0,0,0.00085123,-0.0020781,7.6113e-35,1.9263e-05,1.7299e-18,-1.2685e-21,26.048,0.0026119,-0.0020798,4.3811e-33,0.00085288,-10.656,-459.96,-141.74,2.9627,2.655e-13,-1.5924e-16,400.49,-460.21,-141.74,-10.4,0,0.013672,0,1,1.13,0,-1.13,0
0,0,0,0,0,0,0.00084864,-0.0020676,7.6792e-35,1.7579e-05,1.7829e-18,-1.2216e-21,25.952,0.0026,-0.0020693,4.5248e-33,0.00085031,-10.137,-457.44,-140.83,2.7036,2.7363e-13,-1.517e-16,398.66,-457.69,-140.83,-9.8808,0,0.013681,0,1,1.135,0,-1.135,0
0,0,0,0,0,0,0.00084605,-0.0020571,7.7459e-35,1.5914e-05,1.8351e-18,-1.1748e-21,25.856,0.002588,-0.0020588,4.6668e-33,0.00084772,-9.6269,-454.93,-139.92,2.4473,2.8166e-13,-1.4417e-16,396.84,-455.19,-139.92,-9.3696,0,0.01369,0,1,1.14,0,-1.14,0
0,0,0,0,0,0,0.00084344,-0.0020467,7.8113e-35,1.4266e-05,1.8867e-18,-1.128e-21,25.76,0.0025761,-0.0020484,4.8071e-33,0.00084512,-9.1247,-452.43,-139.01,2.1938,2.8959e-13,-1.3664e-16,395.02,-452.69,-139.01,-8.8665,0,0.013699,0,1,1.145,0,-1.145,0
0,0,0,0,0,0,0.00084082,-0.0020363,7.8756e-35,1.2637e-05,1.9376e-18,-1.0812e-21,25.665,0.0025643,-0.002038,4.9458e-33,0.0008425,-8.6307,-449.95,-138.12,1.943,2.974e-13,-1.2913e-16,393.21,-450.21,-138.12,-8.3716,0,0.013708,0,1,1.15,0,-1.15,0
0,0,0,0,0,0,0.00083819,-0.002026,7.9386e-35,1.1026e-05,1.9878e-18,-1.0345e-21,25.569,0.0025524,-0.0020277,5.0828e-33,0.00083988,-8.1448,-447.48,-137.22,1.695,3.0512e-13,-1.2162e-16,391.4,-447.74,-137.22,-7.8849,0,0.013717,0,1,1.155,0,-1.155,0
0,0,0,0,0,0,0.00083555,-0.0020157,8.0005e-35,9.4326e-06,2.0373e-18,-9.8768e-22,25.473,0.0025406,-0.0020174,5.2181e-33,0.00083724,-7.6671,-445.02,-136.34,1.4499,3.1272e-13,-1.1412e-16,389.59,-445.28,-136.34,-7.4063,0,0.013726,0,1,1.16,0,-1.16,0
0,0,0,0,0,0,0.00083289,-0.0020054,8.0611e-35,7.8574e-06,2.0861e-18,-9.4091e-22,25.377,0.0025288,-0.0020071,5.3517e-33,0.00083459,-7.1975,-442.58,-135.46,1.2074,3.2022e-13,-1.0663e-16,387.79,-442.84,-135.46,-6.9359,0,0.013735,0,1,1.165,0,-1.165,0
0,0,0,0,0,0,0.00083023,-0.0019952,8.1205e-35,6.3003e-06,2.1342e-18,-8.9415e-22,25.281,0.0025171,-0.0019969,5.4837e-33,0.00083193,-6.7361,-440.15,-134.59,0.9678,3.2761e-13,-9.9154e-17,386,-440.41,-134.59,-6.4737,0,0.013743,0,1,1.17,0,-1.17,0
0,0,0,0,0,0,0.00082755,-0.0019851,8.1787e-35,4.7612e-06,2.1816e-18,-8.474e-22,25.185,0.0025054,-0.0019868,5.614e-33,0.00082925,-6.2828,-437.73,-133.72,0.73094,3.349e-13,-9.1682e-17,384.21,-437.99,-133.72,-6.0196,0,0.013752,0,1,1.175,0,-1.175,0
0,0,0,0,0,0,0.00082486,-0.0019749,8.2357e-35,3.2401e-06,2.2284e-18,-8.0065e-22,25.089,0.0024937,-0.0019766,5.7427e-33,0.00082657,-5.8377,-435.33,-132.86,0.49686,3.4208e-13,-8.4219e-17,382.42,-435.59,-132.86,-5.5737,0,0.013761,0,1,1.18,0,-1.18,0
0,0,0,0,0,0,0.00082215,-0.0019649,8.2914e-35,1.7371e-06,2.2744e-18,-7.5391e-22,24.993,0.0024821,-0.0019666,5.8697e-33,0.00082387,-5.4007,-432.93,-132.01,0.26555,3.4916e-13,-7.6764e-17,380.64,-433.2,-132.01,-5.136,0,0.013769,0,1,1.185,0,-1.185,0
0,0,0,0,0,0,0.00081944,-0.0019548,8.346e-35,2.5203e-07,2.3198e-18,-7.0718e-22,24.897,0.0024705,-0.0019565,5.995e-33,0.00082116,-4.9719,-430.55,-131.16,0.037018,3.5613e-13,-6.9318e-17,378.87,-430.82,-131.16,-4.7064,0,0.013778,0,1,1.19,0,-1.19,0
0,0,0,0,0,0,0.00081671,-0.0019448,8.3993e-35,-1.2149e-06,2.3644e-18,-6.6046e-22,24.801,0.0024589,-0.0019465,6.1186e-33,0.00081844,-4.5512,-428.19,-130.32,-0.18873,3.6299e-13,-6.1881e-17,377.1,-428.45,-130.32,-4.285,0,0.013787,0,1,1.195,0,-1.195,0
0,0,0,0,0,0,0.00081397,-0.0019349,8.4514e-35,-2.6638e-06,2.4084e-18,-6.1374e-22,24.705,0.0024474,-0.0019366,6.2406e-33,0.0008157,-4.1387,-425.83,-129.49,-0.41171,3.6974e-13,-5.4452e-17,375.33,-426.1,-129.49,-3.8717,0,0.013795,0,1,1.2,0,-1.2,0
0,0,0,0,0,0,0.00081122,-0.0019249,8.5023e-35,-4.0947e-06,2.4517e-18,-5.6703e-22,24.61,0.0024359,-0.0019267,6.3609e-33,0.00081296,-3.7343,-423.49,-128.66,-0.63191,3.764e-13,-4.7031e-17,373.57,-423.76,-128.66,-3.4666,0,0.013804,0,1,1.205,0,-1.205,0
0,0,0,0,0,0,0.00080846,-0.0019151,8.552e-35,-5.5076e-06,2.4943e-18,-5.2033e-22,24.514,0.0024244,-0.0019168,6.4795e-33,0.0008102,-3.3381,-421.16,-127.84,-0.84933,3.8294e-13,-3.9619e-17,371.82,-421.43,-127.84,-3.0697,0,0.013812,0,1,1.21,0,-1.21,0
0,0,0,0,0,0,0.00080569,-0.0019052,8.6005e-35,-6.9023e-06,2.5362e-18,-4.7364e-22,24.418,0.0024129,-0.001907,6.5965e-33,0.00080743,-2.95,-418.84,-127.02,-1.064,3.8938e-13,-3.2216e-17,370.07,-419.11,-127.02,-2.681,0,0.013821,0,1,1.215,0,-1.215,0
0,0,0,0,0,0,0.0008029,-0.0018955,8.6478e-35,-8.2791e-06,2.5774e-18,-4.2695e-22,24.322,0.0024015,-0.0018972,6.7117e-33,0.00080465,-2.5701,-416.54,-126.21,-1.2758,3.9571e-13,-2.4821e-17,368.33,-416.81,-126.21,-2.3004,0,0.01383,0,1,1.22,0,-1.22,0
0,0,0,0,0,0,0.0008001,-0.0018857,8.6938e-35,-9.6378e-06,2.6179e-18,-3.8027e-22,24.226,0.0023902,-0.0018875,6.8254e-33,0.00080185,-2.1983,-414.25,-125.41,-1.4849,4.0194e-13,-1.7435e-17,366.59,-414.52,-125.41,-1.928,0,0.013838,0,1,1.225,0,-1.225,0
0,0,0,0,0,0,0.00079729,-0.001876,8.7386e-35,-1.0978e-05,2.6578e-18,-3.336e-22,24.13,0.0023788,-0.0018778,6.9373e-33,0.00079905,-1.8347,-411.97,-124.61,-1.6913,4.0806e-13,-1.0058e-17,364.85,-412.24,-124.61,-1.5637,0,0.013846,0,1,1.23,0,-1.23,0
0,0,0,0,0,0,0.00079447,-0.0018664,8.7822e-35,-1.2301e-05,2.6969e-18,-2.8694e-22,24.034,0.0023675,-0.0018681,7.0476e-33,0.00079623,-1.4792,-409.71,-123.82,-1.8948,4.1407e-13,-2.6889e-18,363.12,-409.98,-123.82,-1.2076,0,0.013855,0,1,1.235,0,-1.235,0
0,0,0,0,0,0,0.00079163,-0.0018567,8.8246e-35,-1.3606e-05,2.7354e-18,-2.4029e-22,23.938,0.0023562,-0.0018585,7.1562e-33,0.0007934,-1.1319,-407.46,-123.04,-2.0955,4.1998e-13,4.6715e-18,361.4,-407.73,-123.04,-0.85967,0,0.013863,0,1,1.24,0,-1.24,0
0,0,0,0,0,0,0.00078879,-0.0018472,8.8658e-35,-1.4892e-05,2.7731e-18,-1.9364e-22,23.842,0.002345,-0.0018489,7.2631e-33,0.00079056,-0.79267,-405.22,-122.26,-2.2935,4.2578e-13,1.2023e-17,359.68,-405.49,-122.26,-0.51991,0,0.013872,0,1,1.245,0,-1.245,0
0,0,0,0,0,0,0.00078593,-0.0018376,8.9058e-35,-1.6161e-05,2.8102e-18,-1.47e-22,23.746,0.0023338,-0.0018394,7.3684e-33,0.0007877,-0.46163,-402.99,-121.49,-2.4887,4.3148e-13,1.9367e-17,357.97,-403.27,-121.49,-0.18831,0,0.01388,0,1,1.25,0,-1.25,0
0,0,0,0,0,0,0.00078306,-0.0018282,8.9445e-35,-1.7411e-05,2.8466e-18,-1.0037e-22,23.651,0.0023226,-0.0018299,7.472e-33,0.00078484,-0.13875,-400.78,-120.72,-2.6812,4.3707e-13,2.6701e-17,356.26,-401.05,-120.72,0.13513,0,0.013888,0,1,1.255,0,-1.255,0
0,0,0,0,0,0,0.00078018,-0.0018187,8.9821e-35,-1.8644e-05,2.8823e-18,-5.374e-23,23.555,0.0023115,-0.0018205,7.5739e-33,0.00078196,0.17599,-398.58,-119.96,-2.8708,4.4255e-13,3.4027e-17,354.55,-398.85,-119.96,0.4504,0,0.013897,0,1,1.26,0,-1.26,0
0,0,0,0,0,0,0.00077728,-0.0018093,9.0184e-35,-1.9858e-05,2.9173e-18,-7.1231e-24,23.459,0.0023003,-0.0018111,7.6742e-33,0.00077907,0.48257,-396.39,-119.21,-3.0577,4.4793e-13,4.1345e-17,352.85,-396.67,-119.21,0.75751,0,0.013905,0,1,1.265,0,-1.265,0
0,0,0,0,0,0,0.00077438,-0.0018,9.0535e-35,-2.1054e-05,2.9516e-18,3.9487e-23,23.363,0.0022893,-0.0018017,7.7728e-33,0.00077616,0.78101,-394.22,-118.47,-3.2418,4.532e-13,4.8654e-17,351.16,-394.49,-118.47,1.0564,0,0.013913,0,1,1.27,0,-1.27,0
0,0,0,0,0,0,0.00077146,-0.0017906,9.0874e-35,-2.2233e-05,2.9852e-18,8.6089e-23,23.267,0.0022782,-0.0017924,7.8697e-33,0.00077325,1.0713,-392.05,-117.73,-3.4231,4.5837e-13,5.5954e-17,349.47,-392.33,-117.73,1.3472,0,0.013921,0,1,1.275,0,-1.275,0
0,0,0,0,0,0,0.00076853,-0.0017814,9.1201e-35,-2.3393e-05,3.0182e-18,1.3268e-22,23.171,0.0022672,-0.0017832,7.9649e-33,0.00077032,1.3534,-389.9,-116.99,-3.6017,4.6343e-13,6.3246e-17,347.78,-390.18,-116.99,1.6298,0,0.013929,0,1,1.28,0,-1.28,0
0,0,0,0,0,0,0.00076559,-0.0017721,9.1516e-35,-2.4535e-05,3.0504e-18,1.7927e-22,23.075,0.0022562,-0.0017739,8.0585e-33,0.00076738,1.6274,-387.77,-116.26,-3.7774,4.6838e-13,7.0529e-17,346.11,-388.04,-116.26,1.9043,0,0.013938,0,1,1.285,0,-1.285,0
0,0,0,0,0,0,0.00076264,-0.0017629,9.1818e-35,-2.5659e-05,3.0819e-18,2.2585e-22,22.979,0.0022453,-0.0017647,8.1504e-33,0.00076443,1.8933,-385.64,-115.54,-3.9504,4.7323e-13,7.7804e-17,344.43,-385.92,-115.54,2.1706,0,0.013946,0,1,1.29,0,-1.29,0
0,0,0,0,0,0,0.00075967,-0.0017538,9.2109e-35,-2.6766e-05,3.1128e-18,2.7242e-22,22.883,0.0022344,-0.0017556,8.2406e-33,0.00076147,2.151,-383.53,-114.83,-4.1206,4.7797e-13,8.507e-17,342.76,-383.81,-114.83,2.4287,0,0.013954,0,1,1.295,0,-1.295,0
0,0,0,0,0,0,0.00075669,-0.0017447,9.2387e-35,-2.7854e-05,3.143e-18,3.1899e-22,22.787,0.0022235,-0.0017465,8.3292e-33,0.0007585,2.4005,-381.43,-114.12,-4.2881,4.8261e-13,9.2327e-17,341.1,-381.71,-114.12,2.6786,0,0.013962,0,1,1.3,0,-1.3,0
0,0,0,0,0,0,0.0007537,-0.0017356,9.2653e-35,-2.8924e-05,3.1725e-18,3.6554e-22,22.692,0.0022126,-0.0017374,8.4161e-33,0.00075551,2.6419,-379.35,-113.42,-4.4527,4.8714e-13,9.9576e-17,339.44,-379.63,-113.42,2.9204,0,0.01397,0,1,1.305,0,-1.305,0
0,0,0,0,0,0,0.0007507,-0.0017266,9.2907e-35,-2.9976e-05,3.2012e-18,4.1209e-22,22.596,0.0022018,-0.0017284,8.5013e-33,0.00075251,2.8751,-377.28,-112.72,-4.6146,4.9156e-13,1.0682e-16,337.79,-377.55,-112.72,3.1541,0,0.013978,0,1,1.31,0,-1.31,0
0,0,0,0,0,0,0.00074769,-0.0017176,9.3149e-35,-3.101e-05,3.2293e-18,4.5863e-22,22.5,0.002191,-0.0017195,8.5849e-33,0.0007495,3.1002,-375.22,-112.03,-4.7737,4.9588e-13,1.1405e-16,336.14,-375.5,-112.03,3.3795,0,0.013986,0,1,1.315,0,-1.315,0
0,0,0,0,0,0,0.00074466,-0.0017087,9.3378e-35,-3.2026e-05,3.2567e-18,5.0517e-22,22.404,0.0021803,-0.0017105,8.6668e-33,0.00074648,3.3172,-373.17,-111.35,-4.9301,5.0009e-13,1.2127e-16,334.49,-373.45,-111.35,3.5968,0,0.013994,0,1,1.32,0,-1.32,0
0,0,0,0,0,0,0.00074163,-0.0016998,9.3596e-35,-3.3024e-05,3.2835e-18,5.5169e-22,22.308,0.0021696,-0.0017016,8.747e-33,0.00074344,3.526,-371.13,-110.67,-5.0836,5.0419e-13,1.2849e-16,332.85,-371.41,-110.67,3.8059,0,0.014002,0,1,1.325,0,-1.325,0
0,0,0,0,0,0,0.00073858,-0.001691,9.3801e-35,-3.4004e-05,3.3095e-18,5.9821e-22,22.212,0.0021589,-0.0016928,8.8255e-33,0.00074039,3.7266,-369.11,-110,-5.2344,5.0819e-13,1.3569e-16,331.22,-369.39,-110,4.0069,0,0.01401,0,1,1.33,0,-1.33,0
0,0,0,0,0,0,0.00073552,-0.0016822,9.3994e-35,-3.4965e-05,3.3348e-18,6.4472e-22,22.116,0.0021483,-0.001684,8.9024e-33,0.00073733,3.9191,-367.1,-109.34,-5.3824,5.1209e-13,1.4289e-16,329.59,-367.39,-109.34,4.1997,0,0.014018,0,1,1.335,0,-1.335,0
0,0,0,0,0,0,0.00073244,-0.0016734,9.4175e-35,-3.5909e-05,3.3595e-18,6.9123e-22,22.02,0.0021376,-0.0016752,8.9776e-33,0.00073426,4.1034,-365.11,-108.68,-5.5276,5.1587e-13,1.5008e-16,327.97,-365.39,-108.68,4.3844,0,0.014026,0,1,1.34,0,-1.34,0
0,0,0,0,0,0,0.00072936,-0.0016647,9.4344e-35,-3.6835e-05,3.3834e-18,7.3772e-22,21.924,0.0021271,-0.0016665,9.0512e-33,0.00073118,4.2796,-363.13,-108.03,-5.6701,5.1955e-13,1.5726e-16,326.35,-363.41,-108.03,4.5608,0,0.014033,0,1,1.345,0,-1.345,0
0,0,0,0,0,0,0.00072626,-0.001656,9.4501e-35,-3.7743e-05,3.4067e-18,7.8421e-22,21.828,0.0021165,-0.0016578,9.123e-33,0.00072809,4.4477,-361.16,-107.38,-5.8097,5.2313e-13,1.6443e-16,324.73,-361.44,-107.38,4.7291,0,0.014041,0,1,1.35,0,-1.35,0
0,0,0,0,0,0,0.00072315,-0.0016474,9.4646e-35,-3.8632e-05,3.4293e-18,8.3069e-22,21.733,0.002106,-0.0016492,9.1932e-33,0.00072498,4.6076,-359.2,-106.75,-5.9466,5.266e-13,1.7159e-16,323.12,-359.48,-106.75,4.8893,0,0.014049,0,1,1.355,0,-1.355,0
0,0,0,0,0,0,0.00072003,-0.0016388,9.4778e-35,-3.9504e-05,3.4512e-18,8.7716e-22,21.637,0.0020955,-0.0016406,9.2618e-33,0.00072186,4.7593,-357.25,-106.11,-6.0807,5.2996e-13,1.7875e-16,321.52,-357.54,-106.11,5.0413,0,0.014057,0,1,1.36,0,-1.36,0
0,0,0,0,0,0,0.0007169,-0.0016302,9.4898e-35,-4.0358e-05,3.4723e-18,9.2363e-22,21.541,0.0020851,-0.0016321,9.3286e-33,0.00071873,4.9029,-355.32,-105.49,-6.2121,5.3322e-13,1.8589e-16,319.92,-355.6,-105.49,5.1851,0,0.014064,0,1,1.365,0,-1.365,0
0,0,0,0,0,0,0.00071375,-0.0016217,9.5007e-35,-4.1193e-05,3.4929e-18,9.7009e-22,21.445,0.0020746,-0.0016236,9.3938e-33,0.00071558,5.0384,-353.4,-104.87,-6.3406,5.3637e-13,1.9303e-16,318.33,-353.69,-104.87,5.3207,0,0.014072,0,1,1.37,0,-1.37,0
0,0,0,0,0,0,0.0007106,-0.0016133,9.5103e-35,-4.2011e-05,3.5127e-18,1.0165e-21,21.349,0.0020643,-0.0016151,9.4573e-33,0.00071243,5.1657,-351.5,-104.25,-6.4664,5.3941e-13,2.0016e-16,316.74,-351.78,-104.25,5.4482,0,0.01408,0,1,1.375,0,-1.375,0
0,0,0,0,0,0,0.00070743,-0.0016048,9.5187e-35,-4.281e-05,3.5318e-18,1.063e-21,21.253,0.0020539,-0.0016067,9.5192e-33,0.00070926,5.2848,-349.6,-103.65,-6.5894,5.4235e-13,2.0728e-16,315.16,-349.89,-103.65,5.5675,0,0.014087,0,1,1.38,0,-1.38,0
0,0,0,0,0,0,0.00070425,-0.0015965,9.5258e-35,-4.3591e-05,3.5502e-18,1.1094e-21,21.157,0.0020436,-0.0015983,9.5793e-33,0.00070608,5.3958,-347.72,-103.05,-6.7097,5.4519e-13,2.1439e-16,313.58,-348.01,-103.05,5.6787,0,0.014095,0,1,1.385,0,-1.385,0
0,0,0,0,0,0,0.00070105,-0.0015881,9.5318e-35,-4.4355e-05,3.568e-18,1.1558e-21,21.061,0.0020333,-0.00159,9.6378e-33,0.00070289,5.4987,-345.86,-102.45,-6.8271,5.4791e-13,2.215e-16,312,-346.14,-102.45,5.7817,0,0.014103,0,1,1.39,0,-1.39,0
0,0,0,0,0,0,0.00069785,-0.0015798,9.5365e-35,-4.51e-05,3.585e-18,1.2023e-21,20.965,0.0020231,-0.0015817,9.6947e-33,0.00069969,5.5934,-344,-101.86,-6.9418,5.5053e-13,2.2859e-16,310.43,-344.28,-101.86,5.8765,0,0.01411,0,1,1.395,0,-1.395,0
0,0,0,0,0,0,0.00069463,-0.0015716,9.5401e-35,-4.5828e-05,3.6014e-18,1.2487e-21,20.869,0.0020128,-0.0015734,9.7499e-33,0.00069647,5.6799,-342.16,-101.28,-7.0537,5.5305e-13,2.3568e-16,308.87,-342.44,-101.28,5.9632,0,0.014118,0,1,1.4,0,-1.4,0
0,0,0,0,0,0,0.00069141,-0.0015634,9.5424e-35,-4.6537e-05,3.617e-18,1.2951e-21,20.773,0.0020027,-0.0015652,9.8033e-33,0.00069324,5.7583,-340.33,-100.7,-7.1628,5.5546e-13,2.4275e-16,307.31,-340.61,-100.7,6.0417,0,0.014125,0,1,1.405,0,-1.405,0
0,0,0,0,0,0,0.00068817,-0.0015552,9.5435e-35,-4.7228e-05,3.632e-18,1.3415e-21,20.678,0.0019925,-0.0015571,9.8552e-33,0.00069,5.8286,-338.51,-100.13,-7.2692,5.5776e-13,2.4982e-16,305.76,-338.8,-100.13,6.112,0,0.014133,0,1,1.41,0,-1.41,0
0,0,0,0,0,0,0.00068491,-0.0015471,9.5434e-35,-4.7901e-05,3.6463e-18,1.3879e-21,20.582,0.0019824,-0.0015489,9.9053e-33,0.00068675,5.8907,-336.71,-99.571,-7.3727,5.5995e-13,2.5688e-16,304.21,-336.99,-99.571,6.1742,0,0.01414,0,1,1.415,0,-1.415,0
0,0,0,0,0,0,0.00068165,-0.001539,9.542e-35,-4.8556e-05,3.6599e-18,1.4342e-21,20.486,0.0019723,-0.0015409,9.9538e-33,0.00068349,5.9446,-334.92,-99.015,-7.4735,5.6204e-13,2.6393e-16,302.67,-335.2,-99.015,6.2282,0,0.014148,0,1,1.42,0,-1.42,0
0,0,0,0,0,0,0.00067837,-0.001531,9.5395e-35,-4.9193e-05,3.6728e-18,1.4806e-21,20.39,0.0019622,-0.0015328,1.0001e-32,0.00068021,5.9905,-333.14,-98.464,-7.5716,5.6403e-13,2.7098e-16,301.13,-333.42,-98.464,6.274,0,0.014155,0,1,1.425,0,-1.425,0
0,0,0,0,0,0,0.00067508,-0.001523,9.5357e-35,-4.9813e-05,3.685e-18,1.527e-21,20.294,0.0019522,-0.0015248,1.0046e-32,0.00067692,6.0281,-331.37,-97.92,-7.6668,5.6591e-13,2.7801e-16,299.59,-331.66,-97.92,6.3117,0,0.014162,0,1,1.43,0,-1.43,0
0,0,0,0,0,0,0.00067178,-0.001515,9.5307e-35,-5.0414e-05,3.6966e-18,1.5734e-21,20.198,0.0019422,-0.0015169,1.0089e-32,0.00067362,6.0576,-329.62,-97.382,-7.7593,5.6768e-13,2.8504e-16,298.07,-329.9,-97.382,6.3412,0,0.01417,0,1,1.435,0,-1.435,0
0,0,0,0,0,0,0.00066847,-0.0015071,9.5246e-35,-5.0997e-05,3.7074e-18,1.6197e-21,20.102,0.0019323,-0.001509,1.0131e-32,0.00067031,6.079,-327.88,-96.85,-7.8489,5.6934e-13,2.9205e-16,296.54,-328.17,-96.85,6.3625,0,0.014177,0,1,1.44,0,-1.44,0
0,0,0,0,0,0,0.00066515,-0.0014993,9.5172e-35,-5.1562e-05,3.7176e-18,1.666e-21,20.006,0.0019224,-0.0015011,1.0171e-32,0.00066699,6.0922,-326.15,-96.325,-7.9358,5.709e-13,2.9906e-16,295.02,-326.44,-96.325,6.3757,0,0.014184,0,1,1.445,0,-1.445,0
0,0,0,0,0,0,0.00066181,-0.0014914,9.5085e-35,-5.2108e-05,3.727e-18,1.7124e-21,19.91,0.0019125,-0.0014933,1.021e-32,0.00066365,6.0972,-324.44,-95.806,-8.02,5.7236e-13,3.0606e-16,293.51,-324.72,-95.806,6.3807,0,0.014192,0,1,1.45,0,-1.45,0
0,0,0,0,0,0,0.00065847,-0.0014837,9.4987e-35,-5.2637e-05,3.7358e-18,1.7587e-21,19.814,0.0019026,-0.0014855,1.0246e-32,0.0006603,6.0941,-322.74,-95.293,-8.1013,5.7371e-13,3.1306e-16,292,-323.02,-95.293,6.3776,0,0.014199,0,1,1.455,0,-1.455,0
0,0,0,0,0,0,0.00065511,-0.0014759,9.4877e-35,-5.3148e-05,3.7439e-18,1.805e-21,19.719,0.0018928,-0.0014777,1.0282e-32,0.00065694,6.0829,-321.05,-94.787,-8.1799,5.7495e-13,3.2004e-16,290.5,-321.33,-94.787,6.3663,0,0.014206,0,1,1.46,0,-1.46,0
0,0,0,0,0,0,0.00065173,-0.0014682,9.4754e-35,-5.3641e-05,3.7513e-18,1.8513e-21,19.623,0.001883,-0.0014701,1.0315e-32,0.00065357,6.0635,-319.38,-94.287,-8.2557,5.7608e-13,3.2701e-16,289,-319.66,-94.287,6.3468,0,0.014213,0,1,1.465,0,-1.465,0
0,0,0,0,0,0,0.00064835,-0.0014606,9.4619e-35,-5.4116e-05,3.7579e-18,1.8977e-21,19.527,0.0018733,-0.0014624,1.0347e-32,0.00065019,6.036,-317.71,-93.793,-8.3287,5.7711e-13,3.3398e-16,287.51,-318,-93.793,6.3191,0,0.01422,0,1,1.47,0,-1.47,0
0,0,0,0,0,0,0.00064496,-0.001453,9.4472e-35,-5.4572e-05,3.764e-18,1.944e-21,19.431,0.0018635,-0.0014548,1.0377e-32,0.00064679,6.0003,-316.06,-93.306,-8.399,5.7804e-13,3.4094e-16,286.02,-316.35,-93.306,6.2833,0,0.014228,0,1,1.475,0,-1.475,0
0,0,0,0,0,0,0.00064155,-0.0014454,9.4313e-35,-5.5011e-05,3.7693e-18,1.9902e-21,19.335,0.0018538,-0.0014472,1.0405e-32,0.00064338,5.9565,-314.42,-92.825,-8.4665,5.7885e-13,3.4788e-16,284.54,-314.71,-92.825,6.2394,0,0.014235,0,1,1.48,0,-1.48,0
0,0,0,0,0,0,0.00063813,-0.0014379,9.4142e-35,-5.5432e-05,3.7739e-18,2.0365e-21,19.239,0.0018442,-0.0014397,1.0432e-32,0.00063996,5.9045,-312.8,-92.35,-8.5312,5.7957e-13,3.5483e-16,283.06,-313.08,-92.35,6.1872,0,0.014242,0,1,1.485,0,-1.485,0
0,0,0,0,0,0,0.0006347,-0.0014304,9.3959e-35,-5.5834e-05,3.7778e-18,2.0828e-21,19.143,0.0018346,-0.0014322,1.0457e-32,0.00063653,5.8443,-311.19,-91.881,-8.5931,5.8017e-13,3.6176e-16,281.58,-311.47,-91.881,6.1269,0,0.014249,0,1,1.49,0,-1.49,0
0,0,0,0,0,0,0.00063125,-0.0014229,9.3763e-35,-5.6219e-05,3.7811e-18,2.1291e-21,19.047,0.001825,-0.0014248,1.0481e-32,0.00063308,5.776,-309.59,-91.419,-8.6522,5.8067e-13,3.6868e-16,280.12,-309.87,-91.419,6.0585,0,0.014256,0,1,1.495,0,-1.495,0
0,0,0,0,0,0,0.0006278,-0.0014155,9.3555e-35,-5.6585e-05,3.7836e-18,2.1753e-21,18.951,0.0018154,-0.0014174,1.0503e-32,0.00062963,5.6996,-308,-90.963,-8.7086,5.8106e-13,3.7559e-16,278.65,-308.29,-90.963,5.9818,0,0.014263,0,1,1.5,0,-1.5,0
0,0,0,0,0,0,0.00062433,-0.0014082,9.3336e-35,-5.6934e-05,3.7855e-18,2.2216e-21,18.855,0.0018059,-0.00141,1.0523e-32,0.00062616,5.615,-306.43,-90.514,-8.7622,5.8135e-13,3.825e-16,277.2,-306.71,-90.514,5.897,0,0.01427,0,1,1.505,0,-1.505,0
0,0,0,0,0,0,0.00062085,-0.0014009,9.3104e-35,-5.7264e-05,3.7867e-18,2.2678e-21,18.76,0.0017964,-0.0014027,1.0541e-32,0.00062268,5.5223,-304.87,-90.07,-8.813,5.8153e-13,3.894e-16,275.74,-305.15,-90.07,5.8041,0,0.014277,0,1,1.51,0,-1.51,0
0,0,0,0,0,0,0.00061736,-0.0013936,9.286e-35,-5.7577e-05,3.7871e-18,2.3141e-21,18.664,0.0017869,-0.0013954,1.0558e-32,0.00061919,5.4214,-303.32,-89.633,-8.861,5.8161e-13,3.9629e-16,274.29,-303.6,-89.633,5.7029,0,0.014284,0,1,1.515,0,-1.515,0
0,0,0,0,0,0,0.00061386,-0.0013864,9.2603e-35,-5.7871e-05,3.7869e-18,2.3603e-21,18.568,0.0017775,-0.0013882,1.0573e-32,0.00061568,5.3124,-301.79,-89.203,-8.9063,5.8158e-13,4.0317e-16,272.85,-302.07,-89.203,5.5937,0,0.014291,0,1,1.52,0,-1.52,0
0,0,0,0,0,0,0.00061034,-0.0013792,9.2335e-35,-5.8147e-05,3.786e-18,2.4065e-21,18.472,0.0017681,-0.001381,1.0586e-32,0.00061216,5.1952,-300.27,-88.778,-8.9487,5.8144e-13,4.1004e-16,271.41,-300.55,-88.778,5.4762,0,0.014298,0,1,1.525,0,-1.525,0
0,0,0,0,0,0,0.00060682,-0.001372,9.2055e-35,-5.8405e-05,3.7844e-18,2.4527e-21,18.376,0.0017588,-0.0013739,1.0598e-32,0.00060864,5.0699,-298.76,-88.36,-8.9884,5.812e-13,4.169e-16,269.98,-299.04,-88.36,5.3506,0,0.014304,0,1,1.53,0,-1.53,0
0,0,0,0,0,0,0.00060328,-0.0013649,9.1762e-35,-5.8646e-05,3.7822e-18,2.4989e-21,18.28,0.0017494,-0.0013668,1.0608e-32,0.0006051,4.9364,-297.26,-87.949,-9.0254,5.8085e-13,4.2376e-16,268.55,-297.54,-87.949,5.2168,0,0.014311,0,1,1.535,0,-1.535,0
0,0,0,0,0,0,0.00059973,-0.0013579,9.1457e-35,-5.8868e-05,3.7792e-18,2.5451e-21,18.184,0.0017402,-0.0013597,1.0617e-32,0.00060154,4.7947,-295.78,-87.543,-9.0595,5.8039e-13,4.306e-16,267.13,-296.06,-87.543,5.0749,0,0.014318,0,1,1.54,0,-1.54,0
0,0,0,0,0,0,0.00059616,-0.0013509,9.114e-35,-5.9072e-05,3.7755e-18,2.5913e-21,18.088,0.0017309,-0.0013527,1.0623e-32,0.00059798,4.645,-294.31,-87.144,-9.0909,5.7983e-13,4.3744e-16,265.71,-294.58,-87.144,4.9247,0,0.014325,0,1,1.545,0,-1.545,0
0,0,0,0,0,0,0.00059259,-0.0013439,9.0811e-35,-5.9258e-05,3.7712e-18,2.6375e-21,17.992,0.0017217,-0.0013457,1.0628e-32,0.0005944,4.487,-292.85,-86.751,-9.1195,5.7916e-13,4.4427e-16,264.3,-293.13,-86.751,4.7665,0,0.014332,0,1,1.55,0,-1.55,0
0,0,0,0,0,0,0.000589,-0.001337,9.047e-35,-5.9426e-05,3.7661e-18,2.6837e-21,17.896,0.0017125,-0.0013388,1.0632e-32,0.00059081,4.321,-291.4,-86.365,-9.1453,5.7839e-13,4.5109e-16,262.89,-291.68,-86.365,4.6,0,0.014338,0,1,1.555,0,-1.555,0
0,0,0,0,0,0,0.0005854,-0.0013301,9.0116e-35,-5.9576e-05,3.7604e-18,2.7299e-21,17.8,0.0017033,-0.0013319,1.0633e-32,0.00058721,4.1467,-289.97,-85.985,-9.1683,5.7751e-13,4.579e-16,261.49,-290.25,-85.985,4.4254,0,0.014345,0,1,1.56,0,-1.56,0
0,0,0,0,0,0,0.00058179,-0.0013232,8.9751e-35,-5.9708e-05,3.754e-18,2.776e-21,17.705,0.0016942,-0.001325,1.0634e-32,0.0005836,3.9643,-288.55,-85.611,-9.1886,5.7653e-13,4.647e-16,260.09,-288.83,-85.611,4.2426,0,0.014352,0,1,1.565,0,-1.565,0
0,0,0,0,0,0,0.00057817,-0.0013164,8.9373e-35,-5.9822e-05,3.7469e-18,2.8222e-21,17.609,0.0016851,-0.0013182,1.0632e-32,0.00057997,3.7738,-287.14,-85.243,-9.2061,5.7544e-13,4.715e-16,258.7,-287.42,-85.243,4.0517,0,0.014358,0,1,1.57,0,-1.57,0
0,0,0,0,0,0,0.00057454,-0.0013097,8.8983e-35,-5.9918e-05,3.7391e-18,2.8683e-21,17.513,0.001676,-0.0013115,1.0629e-32,0.00057634,3.5751,-285.75,-84.882,-9.2208,5.7424e-13,4.7828e-16,257.31,-286.03,-84.882,3.8526,0,0.014365,0,1,1.575,0,-1.575,0
0,0,0,0,0,0,0.00057089,-0.001303,8.8581e-35,-5.9996e-05,3.7306e-18,2.9145e-21,17.417,0.001667,-0.0013048,1.0624e-32,0.00057269,3.3683,-284.37,-84.527,-9.2327,5.7293e-13,4.8506e-16,255.93,-284.64,-84.527,3.6453,0,0.014371,0,1,1.58,0,-1.58,0
0,0,0,0,0,0,0.00056723,-0.0012963,8.8167e-35,-6.0056e-05,3.7214e-18,2.9606e-21,17.321,0.001658,-0.0012981,1.0617e-32,0.00056902,3.1533,-283,-84.179,-9.2419,5.7152e-13,4.9183e-16,254.55,-283.28,-84.179,3.4299,0,0.014378,0,1,1.585,0,-1.585,0
0,0,0,0,0,0,0.00056356,-0.0012897,8.7741e-35,-6.0097e-05,3.7115e-18,3.0067e-21,17.225,0.001649,-0.0012915,1.0609e-32,0.00056535,2.9302,-281.64,-83.836,-9.2483,5.7001e-13,4.9859e-16,253.17,-281.92,-83.836,3.2063,0,0.014384,0,1,1.59,0,-1.59,0
0,0,0,0,0,0,0.00055988,-0.0012831,8.7302e-35,-6.0121e-05,3.701e-18,3.0528e-21,17.129,0.0016401,-0.0012849,1.0599e-32,0.00056167,2.6989,-280.3,-83.5,-9.2519,5.6839e-13,5.0534e-16,251.81,-280.58,-83.5,2.9746,0,0.014391,0,1,1.595,0,-1.595,0
0,0,0,0,0,0,0.00055619,-0.0012765,8.6852e-35,-6.0127e-05,3.6897e-18,3.099e-21,17.033,0.0016312,-0.0012783,1.0587e-32,0.00055797,2.4595,-278.97,-83.171,-9.2527,5.6666e-13,5.1208e-16,250.44,-279.25,-83.171,2.7346,0,0.014397,0,1,1.6,0,-1.6,0
0,0,0,0,0,0,0.00055248,-0.00127,8.6389e-35,-6.0115e-05,3.6778e-18,3.1451e-21,16.937,0.0016224,-0.0012718,1.0574e-32,0.00055426,2.2119,-277.65,-82.847,-9.2507,5.6483e-13,5.1882e-16,249.09,-277.93,-82.847,2.4866,0,0.014404,0,1,1.605,0,-1.605,0
0,0,0,0,0,0,0.00054876,-0.0012636,8.5914e-35,-6.0084e-05,3.6651e-18,3.1911e-21,16.841,0.0016135,-0.0012653,1.0559e-32,0.00055054,1.9562,-276.35,-82.53,-9.246,5.6289e-13,5.2554e-16,247.73,-276.62,-82.53,2.2303,0,0.01441,0,1,1.61,0,-1.61,0
0,0,0,0,0,0,0.00054503,-0.0012571,8.5427e-35,-6.0036e-05,3.6518e-18,3.2372e-21,16.746,0.0016047,-0.0012589,1.0542e-32,0.0005468,1.6923,-275.06,-82.22,-9.2385,5.6084e-13,5.3226e-16,246.39,-275.33,-82.22,1.9659,0,0.014417,0,1,1.615,0,-1.615,0
0,0,0,0,0,0,0.00054129,-0.0012508,8.4928e-35,-5.9969e-05,3.6378e-18,3.2833e-21,16.65,0.001596,-0.0012525,1.0524e-32,0.00054306,1.4203,-273.78,-81.915,-9.2282,5.5869e-13,5.3897e-16,245.04,-274.05,-81.915,1.6933,0,0.014423,0,1,1.62,0,-1.62,0
0,0,0,0,0,0,0.00053754,-0.0012444,8.4416e-35,-5.9885e-05,3.6231e-18,3.3294e-21,16.554,0.0015872,-0.0012462,1.0504e-32,0.0005393,1.1402,-272.51,-81.617,-9.2152,5.5643e-13,5.4567e-16,243.71,-272.79,-81.617,1.4126,0,0.014429,0,1,1.625,0,-1.625,0
0,0,0,0,0,0,0.00053377,-0.0012381,8.3893e-35,-5.9782e-05,3.6077e-18,3.3754e-21,16.458,0.0015785,-0.0012399,1.0482e-32,0.00053553,0.85183,-271.26,-81.325,-9.1993,5.5407e-13,5.5236e-16,242.37,-271.53,-81.325,1.1236,0,0.014436,0,1,1.63,0,-1.63,0
0,0,0,0,0,0,0.00052999,-0.0012319,8.3357e-35,-5.9662e-05,3.5916e-18,3.4215e-21,16.362,0.0015699,-0.0012337,1.0459e-32,0.00053175,0.55536,-270.02,-81.04,-9.1807,5.516e-13,5.5904e-16,241.05,-270.29,-81.04,0.82657,0,0.014442,0,1,1.635,0,-1.635,0
0,0,0,0,0,0,0.0005262,-0.0012257,8.281e-35,-5.9523e-05,3.5748e-18,3.4675e-21,16.266,0.0015612,-0.0012275,1.0434e-32,0.00052796,0.25074,-268.79,-80.761,-9.1593,5.4902e-13,5.6572e-16,239.72,-269.06,-80.761,0.52133,0,0.014448,0,1,1.64,0,-1.64,0
0,0,0,0,0,0,0.0005224,-0.0012195,8.225e-35,-5.9366e-05,3.5574e-18,3.5136e-21,16.17,0.0015527,-0.0012213,1.0407e-32,0.00052415,-0.062027,-267.58,-80.488,-9.1352,5.4634e-13,5.7238e-16,238.41,-267.85,-80.488,0.20793,0,0.014454,0,1,1.645,0,-1.645,0
0,0,0,0,0,0,0.00051859,-0.0012134,8.1678e-35,-5.9192e-05,3.5392e-18,3.5596e-21,16.074,0.0015441,-0.0012152,1.0379e-32,0.00052033,-0.38295,-266.37,-80.221,-9.1082,5.4355e-13,5.7904e-16,237.09,-266.64,-80.221,-0.11364,0,0.014461,0,1,1.65,0,-1.65,0
0,0,0,0,0,0,0.00051476,-0.0012073,8.1093e-35,-5.8999e-05,3.5204e-18,3.6056e-21,15.978,0.0015356,-0.0012091,1.0349e-32,0.0005165,-0.71201,-265.19,-79.961,-9.0785,5.4065e-13,5.8569e-16,235.79,-265.45,-79.961,-0.44338,0,0.014467,0,1,1.655,0,-1.655,0
0,0,0,0,0,0,0.00051092,-0.0012013,8.0497e-35,-5.8788e-05,3.5008e-18,3.6517e-21,15.882,0.0015271,-0.001203,1.0317e-32,0.00051266,-1.0492,-264.01,-79.707,-9.046,5.3765e-13,5.9233e-16,234.48,-264.28,-79.707,-0.78128,0,0.014473,0,1,1.66,0,-1.66,0
0,0,0,0,0,0,0.00050708,-0.0011953,7.9889e-35,-5.8559e-05,3.4806e-18,3.6977e-21,15.787,0.0015186,-0.001197,1.0284e-32,0.00050881,-1.3946,-262.85,-79.459,-9.0107,5.3455e-13,5.9896e-16,233.19,-263.11,-79.459,-1.1273,0,0.014479,0,1,1.665,0,-1.665,0
0,0,0,0,0,0,0.00050321,-0.0011894,7.9268e-35,-5.8313e-05,3.4597e-18,3.7437e-21,15.691,0.0015102,-0.0011911,1.0249e-32,0.00050494,-1.7481,-261.7,-79.218,-8.9727,5.3134e-13,6.0558e-16,231.89,-261.96,-79.218,-1.4816,0,0.014485,0,1,1.67,0,-1.67,0
0,0,0,0,0,0,0.00049934,-0.0011835,7.8635e-35,-5.8048e-05,3.4381e-18,3.7897e-21,15.595,0.0015018,-0.0011852,1.0212e-32,0.00050106,-2.1098,-260.56,-78.983,-8.9318,5.2802e-13,6.122e-16,230.61,-260.82,-78.983,-1.844,0,0.014491,0,1,1.675,0,-1.675,0
0,0,0,0,0,0,0.00049546,-0.0011776,7.799e-35,-5.7765e-05,3.4158e-18,3.8357e-21,15.499,0.0014934,-0.0011793,1.0174e-32,0.00049717,-2.4796,-259.43,-78.754,-8.8882,5.2459e-13,6.188e-16,229.32,-259.7,-78.754,-2.2145,0,0.014497,0,1,1.68,0,-1.68,0
0,0,0,0,0,0,0.00049156,-0.0011718,7.7333e-35,-5.7464e-05,3.3928e-18,3.8816e-21,15.403,0.0014851,-0.0011735,1.0134e-32,0.00049327,-2.8576,-258.32,-78.532,-8.8418,5.2106e-13,6.254e-16,228.05,-258.58,-78.532,-2.5932,0,0.014503,0,1,1.685,0,-1.685,0
0,0,0,0,0,0,0.00048765,-0.001166,7.6664e-35,-5.7145e-05,3.3691e-18,3.9276e-21,15.307,0.0014768,-0.0011677,1.0092e-32,0.00048936,-3.2437,-257.22,-78.316,-8.7927,5.1742e-13,6.3199e-16,226.77,-257.48,-78.316,-2.9801,0,0.014509,0,1,1.69,0,-1.69,0
0,0,0,0,0,0,0.00048373,-0.0011603,7.5982e-35,-5.6808e-05,3.3447e-18,3.9736e-21,15.211,0.0014685,-0.001162,1.0049e-32,0.00048543,-3.6379,-256.13,-78.106,-8.7408,5.1368e-13,6.3857e-16,225.51,-256.4,-78.106,-3.3752,0,0.014515,0,1,1.695,0,-1.695,0
0,0,0,0,0,0,0.0004798,-0.0011546,7.5289e-35,-5.6452e-05,3.3197e-18,4.0195e-21,15.115,0.0014603,-0.0011563,1.0004e-32,0.00048149,-4.0403,-255.06,-77.903,-8.686,5.0983e-13,6.4514e-16,224.24,-255.32,-77.903,-3.7784,0,0.014521,0,1,1.7,0,-1.7,0
0,0,0,0,0,0,0.00047585,-0.0011489,7.4583e-35,-5.6079e-05,3.2939e-18,4.0655e-21,15.019,0.0014521,-0.0011506,9.9572e-33,0.00047754,-4.4509,-254,-77.705,-8.6286,5.0588e-13,6.517e-16,222.99,-254.26,-77.705,-4.1898,0,0.014527,0,1,1.705,0,-1.705,0
0,0,0,0,0,0,0.00047189,-0.0011433,7.3865e-35,-5.5688e-05,3.2675e-18,4.1114e-21,14.923,0.0014439,-0.001145,9.9088e-33,0.00047358,-4.8696,-252.95,-77.515,-8.5683,5.0182e-13,6.5826e-16,221.73,-253.21,-77.515,-4.6093,0,0.014533,0,1,1.71,0,-1.71,0
0,0,0,0,0,0,0.00046792,-0.0011377,7.3135e-35,-5.5279e-05,3.2403e-18,4.1574e-21,14.828,0.0014357,-0.0011394,9.8588e-33,0.00046961,-5.2965,-251.91,-77.33,-8.5052,4.9765e-13,6.648e-16,220.49,-252.17,-77.33,-5.037,0,0.014539,0,1,1.715,0,-1.715,0
0,0,0,0,0,0,0.00046394,-0.0011322,7.2393e-35,-5.4852e-05,3.2125e-18,4.2033e-21,14.732,0.0014276,-0.0011339,9.8071e-33,0.00046562,-5.7315,-250.89,-77.152,-8.4394,4.9338e-13,6.7134e-16,219.24,-251.15,-77.152,-5.4729,0,0.014545,0,1,1.72,0,-1.72,0
0,0,0,0,0,0,0.00045995,-0.0011267,7.1639e-35,-5.4406e-05,3.184e-18,4.2492e-21,14.636,0.0014196,-0.0011284,9.7537e-33,0.00046162,-6.1747,-249.88,-76.98,-8.3708,4.89e-13,6.7787e-16,218.01,-250.14,-76.98,-5.9169,0,0.01455,0,1,1.725,0,-1.725,0
0,0,0,0,0,0,0.00045595,-0.0011213,7.0873e-35,-5.3943e-05,3.1548e-18,4.2951e-21,14.54,0.0014115,-0.001123,9.6987e-33,0.00045761,-6.626,-248.88,-76.814,-8.2995,4.8451e-13,6.8439e-16,216.78,-249.14,-76.814,-6.3691,0,0.014556,0,1,1.73,0,-1.73,0
0,0,0,0,0,0,0.00045193,-0.0011159,7.0094e-35,-5.3462e-05,3.1249e-18,4.341e-21,14.444,0.0014035,-0.0011176,9.6419e-33,0.00045359,-7.0854,-247.9,-76.655,-8.2253,4.7992e-13,6.909e-16,215.55,-248.16,-76.655,-6.8295,0,0.014562,0,1,1.735,0,-1.735,0
0,0,0,0,0,0,0.0004479,-0.0011106,6.9303e-35,-5.2962e-05,3.0943e-18,4.3869e-21,14.348,0.0013956,-0.0011122,9.5835e-33,0.00044955,-7.553,-246.93,-76.502,-8.1484,4.7522e-13,6.974e-16,214.33,-247.18,-76.502,-7.298,0,0.014568,0,1,1.74,0,-1.74,0
0,0,0,0,0,0,0.00044386,-0.0011053,6.85e-35,-5.2445e-05,3.063e-18,4.4328e-21,14.252,0.0013876,-0.0011069,9.5235e-33,0.00044551,-8.0288,-245.97,-76.355,-8.0687,4.7042e-13,7.039e-16,213.11,-246.22,-76.355,-7.7747,0,0.014573,0,1,1.745,0,-1.745,0
0,0,0,0,0,0,0.00043981,-0.0011,6.7685e-35,-5.1909e-05,3.0311e-18,4.4787e-21,14.156,0.0013797,-0.0011016,9.4618e-33,0.00044145,-8.5127,-245.02,-76.215,-7.9862,4.6551e-13,7.1038e-16,211.9,-245.28,-76.215,-8.2596,0,0.014579,0,1,1.75,0,-1.75,0
0,0,0,0,0,0,0.00043574,-0.0010948,6.6858e-35,-5.1356e-05,2.9984e-18,4.5246e-21,14.06,0.0013719,-0.0010964,9.3984e-33,0.00043738,-9.0047,-244.09,-76.081,-7.9009,4.6049e-13,7.1686e-16,210.69,-244.34,-76.081,-8.7526,0,0.014585,0,1,1.755,0,-1.755,0
0,0,0,0,0,0,0.00043167,-0.0010896,6.6019e-35,-5.0784e-05,2.9651e-18,4.5704e-21,13.964,0.001364,-0.0010912,9.3333e-33,0.0004333,-9.5049,-243.17,-75.953,-7.8129,4.5537e-13,7.2333e-16,209.49,-243.42,-75.953,-9.2538,0,0.01459,0,1,1.76,0,-1.76,0
0,0,0,0,0,0,0.00042758,-0.0010844,6.5168e-35,-5.0194e-05,2.931e-18,4.6163e-21,13.868,0.0013562,-0.0010861,9.2666e-33,0.0004292,-10.013,-242.26,-75.832,-7.7221,4.5015e-13,7.2979e-16,208.29,-242.51,-75.832,-9.7632,0,0.014596,0,1,1.765,0,-1.765,0
0,0,0,0,0,0,0.00042348,-0.0010793,6.4304e-35,-4.9587e-05,2.8963e-18,4.6621e-21,13.773,0.0013484,-0.001081,9.1981e-33,0.00042509,-10.53,-241.37,-75.717,-7.6285,4.4481e-13,7.3624e-16,207.1,-241.62,-75.717,-10.281,0,0.014601,0,1,1.77,0,-1.77,0
0,0,0,0,0,0,0.00041937,-0.0010743,6.3428e-35,-4.8961e-05,2.8609e-18,4.708e-21,13.677,0.0013407,-0.0010759,9.1281e-33,0.00042098,-11.054,-240.49,-75.608,-7.5321,4.3937e-13,7.4268e-16,205.91,-240.73,-75.608,-10.806,0,0.014607,0,1,1.775,0,-1.775,0
0,0,0,0,0,0,0.00041524,-0.0010693,6.254e-35,-4.8317e-05,2.8248e-18,4.7538e-21,13.581,0.001333,-0.0010709,9.0563e-33,0.00041684,-11.587,-239.62,-75.506,-7.433,4.3383e-13,7.4912e-16,204.73,-239.86,-75.506,-11.34,0,0.014613,0,1,1.78,0,-1.78,0
0,0,0,0,0,0,0.00041111,-0.0010643,6.164e-35,-4.7656e-05,2.788e-18,4.7996e-21,13.485,0.0013253,-0.0010659,8.9829e-33,0.0004127,-12.128,-238.76,-75.409,-7.3311,4.2817e-13,7.5554e-16,203.55,-239.01,-75.409,-11.882,0,0.014618,0,1,1.785,0,-1.785,0
0,0,0,0,0,0,0.00040696,-0.0010594,6.0728e-35,-4.6976e-05,2.7505e-18,4.8455e-21,13.389,0.0013177,-0.001061,8.9078e-33,0.00040855,-12.677,-237.92,-75.319,-7.2264,4.2242e-13,7.6196e-16,202.38,-238.16,-75.319,-12.432,0,0.014623,0,1,1.79,0,-1.79,0
0,0,0,0,0,0,0.0004028,-0.0010545,5.9804e-35,-4.6278e-05,2.7123e-18,4.8913e-21,13.293,0.0013101,-0.0010561,8.8311e-33,0.00040438,-13.235,-237.09,-75.236,-7.1189,4.1655e-13,7.6837e-16,201.21,-237.33,-75.236,-12.991,0,0.014629,0,1,1.795,0,-1.795,0
0,0,0,0,0,0,0.00039863,-0.0010497,5.8867e-35,-4.5562e-05,2.6734e-18,4.9371e-21,13.197,0.0013025,-0.0010512,8.7526e-33,0.0004002,-13.8,-236.27,-75.159,-7.0086,4.1058e-13,7.7477e-16,200.05,-236.51,-75.159,-13.557,0,0.014634,0,1,1.8,0,-1.8,0
0,0,0,0,0,0,0.00039444,-0.0010449,5.7919e-35,-4.4828e-05,2.6339e-18,4.9829e-21,13.101,0.001295,-0.0010464,8.6725e-33,0.00039601,-14.374,-235.46,-75.088,-6.8956,4.0451e-13,7.8116e-16,198.9,-235.71,-75.088,-14.132,0,0.01464,0,1,1.805,0,-1.805,0
0,0,0,0,0,0,0.00039025,-0.0010401,5.6958e-35,-4.4076e-05,2.5936e-18,5.0287e-21,13.005,0.0012875,-0.0010417,8.5908e-33,0.00039181,-14.955,-234.67,-75.023,-6.7798,3.9832e-13,7.8754e-16,197.74,-234.91,-75.023,-14.715,0,0.014645,0,1,1.81,0,-1.81,0
0,0,0,0,0,0,0.00038604,-0.0010354,5.5985e-35,-4.3306e-05,2.5527e-18,5.0745e-21,12.909,0.00128,-0.0010369,8.5073e-33,0.00038759,-15.545,-233.89,-74.965,-6.6612,3.9204e-13,7.9392e-16,196.6,-234.13,-74.965,-15.306,0,0.01465,0,1,1.815,0,-1.815,0
0,0,0,0,0,0,0.00038182,-0.0010307,5.5e-35,-4.2518e-05,2.5111e-18,5.1202e-21,12.814,0.0012725,-0.0010323,8.4222e-33,0.00038336,-16.143,-233.13,-74.913,-6.5399,3.8564e-13,8.0028e-16,195.46,-233.36,-74.913,-15.905,0,0.014656,0,1,1.82,0,-1.82,0
0,0,0,0,0,0,0.00037759,-0.0010261,5.4003e-35,-4.1712e-05,2.4687e-18,5.166e-21,12.718,0.0012651,-0.0010276,8.3354e-33,0.00037912,-16.749,-232.37,-74.867,-6.4157,3.7914e-13,8.0664e-16,194.32,-232.61,-74.867,-16.512,0,0.014661,0,1,1.825,0,-1.825,0
0,0,0,0,0,0,0.00037335,-0.0010215,5.2993e-35,-4.0888e-05,2.4257e-18,5.2118e-21,12.622,0.0012578,-0.001023,8.247e-33,0.00037487,-17.364,-231.63,-74.828,-6.2888,3.7254e-13,8.1299e-16,193.19,-231.87,-74.828,-17.128,0,0.014666,0,1,1.83,0,-1.83,0
0,0,0,0,0,0,0.00036909,-0.001017,5.1972e-35,-4.0045e-05,2.382e-18,5.2575e-21,12.526,0.0012504,-0.0010185,8.1569e-33,0.00037061,-17.986,-230.9,-74.795,-6.1591,3.6582e-13,8.1933e-16,192.06,-231.14,-74.795,-17.751,0,0.014671,0,1,1.835,0,-1.835,0
0,0,0,0,0,0,0.00036482,-0.0010125,5.0938e-35,-3.9185e-05,2.3376e-18,5.3033e-21,12.43,0.0012431,-0.001014,8.0651e-33,0.00036633,-18.617,-230.19,-74.768,-6.0267,3.59e-13,8.2566e-16,190.94,-230.42,-74.768,-18.383,0,0.014677,0,1,1.84,0,-1.84,0
0,0,0,0,0,0,0.00036054,-0.001008,4.9892e-35,-3.8307e-05,2.2925e-18,5.349e-21,12.334,0.0012358,-0.0010095,7.9716e-33,0.00036205,-19.255,-229.49,-74.747,-5.8914,3.5208e-13,8.3198e-16,189.82,-229.72,-74.747,-19.023,0,0.014682,0,1,1.845,0,-1.845,0
0,0,0,0,0,0,0.00035625,-0.0010036,4.8835e-35,-3.7411e-05,2.2468e-18,5.3947e-21,12.238,0.0012286,-0.0010051,7.8765e-33,0.00035775,-19.902,-228.8,-74.733,-5.7534,3.4505e-13,8.383e-16,188.71,-229.03,-74.733,-19.671,0,0.014687,0,1,1.85,0,-1.85,0
0,0,0,0,0,0,0.00035195,-0.00099923,4.7764e-35,-3.6496e-05,2.2003e-18,5.4404e-21,12.142,0.0012214,-0.0010007,7.7797e-33,0.00035344,-20.557,-228.12,-74.725,-5.6126,3.3791e-13,8.446e-16,187.6,-228.35,-74.725,-20.328,0,0.014692,0,1,1.855,0,-1.855,0
0,0,0,0,0,0,0.00034763,-0.0009949,4.6682e-35,-3.5564e-05,2.1531e-18,5.4862e-21,12.046,0.0012142,-0.00099638,7.6812e-33,0.00034911,-21.22,-227.45,-74.724,-5.469,3.3067e-13,8.509e-16,186.5,-227.68,-74.724,-20.992,0,0.014697,0,1,1.86,0,-1.86,0
0,0,0,0,0,0,0.00034331,-0.00099062,4.5588e-35,-3.4614e-05,2.1053e-18,5.5319e-21,11.95,0.0012071,-0.00099208,7.5811e-33,0.00034478,-21.892,-226.8,-74.729,-5.3227,3.2332e-13,8.5719e-16,185.41,-227.03,-74.729,-21.665,0,0.014702,0,1,1.865,0,-1.865,0
0,0,0,0,0,0,0.00033897,-0.00098637,4.4481e-35,-3.3645e-05,2.0568e-18,5.5776e-21,11.855,0.0012,-0.00098783,7.4793e-33,0.00034043,-22.571,-226.16,-74.74,-5.1736,3.1587e-13,8.6347e-16,184.31,-226.39,-74.74,-22.346,0,0.014707,0,1,1.87,0,-1.87,0
0,0,0,0,0,0,0.00033462,-0.00098217,4.3363e-35,-3.2659e-05,2.0075e-18,5.6233e-21,11.759,0.0011929,-0.00098362,7.3758e-33,0.00033607,-23.259,-225.54,-74.757,-5.0217,3.0831e-13,8.6974e-16,183.23,-225.76,-74.757,-23.035,0,0.014712,0,1,1.875,0,-1.875,0
0,0,0,0,0,0,0.00033025,-0.00097801,4.2232e-35,-3.1654e-05,1.9576e-18,5.6689e-21,11.663,0.0011858,-0.00097946,7.2707e-33,0.0003317,-23.955,-224.93,-74.781,-4.867,3.0064e-13,8.76e-16,182.15,-225.15,-74.781,-23.732,0,0.014717,0,1,1.88,0,-1.88,0
0,0,0,0,0,0,0.00032588,-0.0009739,4.1089e-35,-3.0631e-05,1.907e-18,5.7146e-21,11.567,0.0011788,-0.00097533,7.1638e-33,0.00032731,-24.659,-224.32,-74.811,-4.7095,2.9287e-13,8.8225e-16,181.07,-224.55,-74.811,-24.437,0,0.014722,0,1,1.885,0,-1.885,0
0,0,0,0,0,0,0.00032149,-0.00096982,3.9934e-35,-2.9591e-05,1.8557e-18,5.7603e-21,11.471,0.0011718,-0.00097125,7.0553e-33,0.00032292,-25.371,-223.74,-74.847,-4.5493,2.8499e-13,8.885e-16,180,-223.96,-74.847,-25.151,0,0.014727,0,1,1.89,0,-1.89,0
0,0,0,0,0,0,0.00031709,-0.00096579,3.8766e-35,-2.8532e-05,1.8037e-18,5.8059e-21,11.375,0.0011649,-0.00096721,6.9452e-33,0.00031851,-26.091,-223.16,-74.89,-4.3863,2.77e-13,8.9474e-16,178.93,-223.38,-74.89,-25.872,0,0.014732,0,1,1.895,0,-1.895,0
0,0,0,0,0,0,0.00031268,-0.0009618,3.7587e-35,-2.7455e-05,1.7511e-18,5.8516e-21,11.279,0.001158,-0.00096321,6.8334e-33,0.00031409,-26.819,-222.6,-74.939,-4.2205,2.6891e-13,9.0097e-16,177.87,-222.82,-74.939,-26.602,0,0.014737,0,1,1.9,0,-1.9,0
0,0,0,0,0,0,0.00030826,-0.00095786,3.6395e-35,-2.6361e-05,1.6977e-18,5.8972e-21,11.183,0.0011511,-0.00095926,6.7199e-33,0.00030966,-27.556,-222.05,-74.994,-4.0519,2.6071e-13,9.0719e-16,176.81,-222.27,-74.994,-27.34,0,0.014742,0,1,1.905,0,-1.905,0
0,0,0,0,0,0,0.00030383,-0.00095396,3.5192e-35,-2.5248e-05,1.6436e-18,5.9429e-21,11.087,0.0011443,-0.00095534,6.6047e-33,0.00030521,-28.301,-221.52,-75.056,-3.8806,2.5241e-13,9.134e-16,175.76,-221.73,-75.056,-28.086,0,0.014746,0,1,1.91,0,-1.91,0
0,0,0,0,0,0,0.00029938,-0.0009501,3.3976e-35,-2.4117e-05,1.5889e-18,5.9885e-21,10.991,0.0011375,-0.00095148,6.4879e-33,0.00030076,-29.053,-220.99,-75.124,-3.7065,2.44e-13,9.196e-16,174.72,-221.21,-75.124,-28.84,0,0.014751,0,1,1.915,0,-1.915,0
0,0,0,0,0,0,0.00029492,-0.00094628,3.2748e-35,-2.2968e-05,1.5334e-18,6.0341e-21,10.895,0.0011307,-0.00094765,6.3694e-33,0.00029629,-29.814,-220.48,-75.198,-3.5296,2.3549e-13,9.2579e-16,173.67,-220.69,-75.198,-29.603,0,0.014756,0,1,1.92,0,-1.92,0
0,0,0,0,0,0,0.00029045,-0.0009425,3.1508e-35,-2.1801e-05,1.4773e-18,6.0797e-21,10.8,0.0011239,-0.00094386,6.2492e-33,0.00029181,-30.584,-219.98,-75.278,-3.3499,2.2686e-13,9.3198e-16,172.64,-220.19,-75.278,-30.373,0,0.014761,0,1,1.925,0,-1.925,0
0,0,0,0,0,0,0.00028597,-0.00093877,3.0255e-35,-2.0616e-05,1.4205e-18,6.1254e-21,10.704,0.0011172,-0.00094012,6.1273e-33,0.00028732,-31.361,-219.5,-75.365,-3.1675,2.1814e-13,9.3816e-16,171.61,-219.71,-75.365,-31.152,0,0.014765,0,1,1.93,0,-1.93,0
0,0,0,0,0,0,0.00028147,-0.00093508,2.8991e-35,-1.9413e-05,1.363e-18,6.171e-21,10.608,0.0011105,-0.00093642,6.0038e-33,0.00028281,-32.146,-219.03,-75.458,-2.9822,2.093e-13,9.4432e-16,170.58,-219.23,-75.458,-31.939,0,0.01477,0,1,1.935,0,-1.935,0
0,0,0,0,0,0,0.00027697,-0.00093143,2.7714e-35,-1.8192e-05,1.3048e-18,6.2165e-21,10.512,0.0011039,-0.00093277,5.8786e-33,0.0002783,-32.94,-218.57,-75.558,-2.7942,2.0036e-13,9.5048e-16,169.56,-218.77,-75.558,-32.734,0,0.014775,0,1,1.94,0,-1.94,0
0,0,0,0,0,0,0.00027245,-0.00092783,2.6426e-35,-1.6953e-05,1.2459e-18,6.2621e-21,10.416,0.0010973,-0.00092915,5.7518e-33,0.00027377,-33.742,-218.12,-75.664,-2.6034,1.9132e-13,9.5664e-16,168.54,-218.33,-75.664,-33.538,0,0.014779,0,1,1.945,0,-1.945,0
0,0,0,0,0,0,0.00026792,-0.00092427,2.5125e-35,-1.5696e-05,1.1863e-18,6.3077e-21,10.32,0.0010907,-0.00092558,5.6232e-33,0.00026923,-34.551,-217.69,-75.776,-2.4099,1.8217e-13,9.6278e-16,167.53,-217.89,-75.776,-34.349,0,0.014784,0,1,1.95,0,-1.95,0
0,0,0,0,0,0,0.00026338,-0.00092075,2.3812e-35,-1.4421e-05,1.126e-18,6.3533e-21,10.224,0.0010841,-0.00092205,5.493e-33,0.00026468,-35.369,-217.27,-75.894,-2.2136,1.7291e-13,9.6891e-16,166.53,-217.47,-75.894,-35.169,0,0.014788,0,1,1.955,0,-1.955,0
0,0,0,0,0,0,0.00025882,-0.00091727,2.2487e-35,-1.3128e-05,1.0651e-18,6.3988e-21,10.128,0.0010776,-0.00091856,5.3612e-33,0.00026011,-36.196,-216.86,-76.019,-2.0144,1.6354e-13,9.7504e-16,165.52,-217.06,-76.019,-35.996,0,0.014793,0,1,1.96,0,-1.96,0
0,0,0,0,0,0,0.00025426,-0.00091384,2.1149e-35,-1.1816e-05,1.0034e-18,6.4444e-21,10.032,0.0010711,-0.00091512,5.2276e-33,0.00025554,-37.03,-216.46,-76.15,-1.8126,1.5407e-13,9.8115e-16,164.53,-216.66,-76.15,-36.832,0,0.014798,0,1,1.965,0,-1.965,0
0,0,0,0,0,0,0.00024968,-0.00091045,1.98e-35,-1.0487e-05,9.4108e-19,6.4899e-21,9.9365,0.0010647,-0.00091172,5.0924e-33,0.00025095,-37.872,-216.08,-76.287,-1.6079,1.445e-13,9.8726e-16,163.54,-216.28,-76.287,-37.677,0,0.014802,0,1,1.97,0,-1.97,0
0,0,0,0,0,0,0.00024509,-0.0009071,1.8438e-35,-9.1399e-06,8.7805e-19,6.5355e-21,9.8406,0.0010583,-0.00090836,4.9556e-33,0.00024635,-38.723,-215.71,-76.431,-1.4005,1.3482e-13,9.9336e-16,162.55,-215.91,-76.431,-38.529,0,0.014807,0,1,1.975,0,-1.975,0
0,0,0,0,0,0,0.00024049,-0.00090379,1.7064e-35,-7.7745e-06,8.1433e-19,6.581e-21,9.7447,0.0010519,-0.00090504,4.817e-33,0.00024174,-39.582,-215.35,-76.581,-1.1902,1.2503e-13,9.9945e-16,161.57,-215.55,-76.581,-39.389,0,0.014811,0,1,1.98,0,-1.98,0
0,0,0,0,0,0,0.00023587,-0.00090053,1.5678e-35,-6.3911e-06,7.4991e-19,6.6265e-21,9.6488,0.0010455,-0.00090177,4.6768e-33,0.00023711,-40.449,-215.01,-76.737,-0.97724,1.1513e-13,1.0055e-15,160.59,-215.2,-76.737,-40.258,0,0.014815,0,1,1.985,0,-1.985,0
0,0,0,0,0,0,0.00023125,-0.00089731,1.428e-35,-4.9897e-06,6.8481e-19,6.6721e-21,9.5529,0.0010392,-0.00089853,4.5349e-33,0.00023247,-41.324,-214.68,-76.899,-0.76147,1.0513e-13,1.0116e-15,159.62,-214.87,-76.899,-41.135,0,0.01482,0,1,1.99,0,-1.99,0
0,0,0,0,0,0,0.00022661,-0.00089413,1.287e-35,-3.5702e-06,6.1901e-19,6.7176e-21,9.457,0.0010329,-0.00089535,4.3914e-33,0.00022783,-42.207,-214.36,-77.068,-0.54292,9.5028e-14,1.0177e-15,158.66,-214.55,-77.068,-42.02,0,0.014824,0,1,1.995,0,-1.995,0
0,0,0,0,0,0,0.00022196,-0.000891,1.1448e-35,-2.1327e-06,5.5253e-19,6.7631e-21,9.3611,0.0010267,-0.0008922,4.2461e-33,0.00022316,-43.099,-214.05,-77.244,-0.3216,8.4816e-14,1.0237e-15,157.7,-214.24,-77.244,-42.913,0,0.014828,0,1,2,0,-2,0
0,0,0,0,0,0,0.0002173,-0.0008879,1.0013e-35,-6.7713e-07,4.8535e-19,6.8086e-21,9.2651,0.0010205,-0.00088909,4.0992e-33,0.00021849,-43.998,-213.76,-77.425,-0.097492,7.4497e-14,1.0298e-15,156.74,-213.95,-77.425,-43.814,0,0.014833,0,1,2.005,0,-2.005,0
0,0,0,0,0,0,0.00021263,-0.00088485,8.5667e-36,7.9643e-07,4.1749e-19,6.8541e-21,9.1692,0.0010143,-0.00088603,3.9507e-33,0.00021381,-44.906,-213.48,-77.613,0.12938,6.4073e-14,1.0358e-15,155.79,-213.66,-77.613,-44.723,0,0.014837,0,1,2.01,0,-2.01,0
0,0,0,0,0,0,0.00020794,-0.00088185,7.1079e-36,2.2881e-06,3.4893e-19,6.8995e-21,9.0733,0.0010081,-0.00088301,3.8004e-33,0.00020911,-45.822,-213.21,-77.807,0.35904,5.3543e-14,1.0419e-15,154.84,-213.39,-77.807,-45.641,0,0.014841,0,1,2.015,0,-2.015,0
0,0,0,0,0,0,0.00020324,-0.00087888,5.637e-36,3.7977e-06,2.7969e-19,6.945e-21,8.9774,0.001002,-0.00088004,3.6485e-33,0.0002044,-46.746,-212.96,-78.007,0.59147,4.2906e-14,1.0479e-15,153.9,-213.14,-78.007,-46.567,0,0.014846,0,1,2.02,0,-2.02,0
0,0,0,0,0,0,0.00019853,-0.00087596,4.1538e-36,5.3255e-06,2.0975e-19,6.9905e-21,8.8815,0.00099594,-0.0008771,3.4949e-33,0.00019968,-47.678,-212.72,-78.214,0.82669,3.2163e-14,1.0539e-15,152.97,-212.89,-78.214,-47.501,0,0.01485,0,1,2.025,0,-2.025,0
0,0,0,0,0,0,0.00019381,-0.00087308,2.6586e-36,6.8712e-06,1.3912e-19,7.0359e-21,8.7856,0.00098989,-0.00087421,3.3397e-33,0.00019495,-48.618,-212.49,-78.427,1.0647,2.1315e-14,1.0599e-15,152.04,-212.66,-78.427,-48.443,0,0.014854,0,1,2.03,0,-2.03,0
0,0,0,0,0,0,0.00018908,-0.00087024,1.1512e-36,8.435e-06,6.7801e-20,7.0814e-21,8.6897,0.00098387,-0.00087136,3.1828e-33,0.0001902,-49.566,-212.27,-78.646,1.3054,1.036e-14,1.0659e-15,151.11,-212.45,-78.646,-49.393,0,0.014858,0,1,2.035,0,-2.035,0
0,0,0,0,0,0,0.00018434,-0.00086745,-3.6828e-37,1.0017e-05,-4.2051e-21,7.1268e-21,8.5938,0.00097789,-0.00086856,3.0242e-33,0.00018545,-50.523,-212.07,-78.872,1.549,-7.002e-16,1.0719e-15,150.19,-212.24,-78.872,-50.351,0,0.014862,0,1,2.04,0,-2.04,0
0,0,0,0,0,0,0.00017958,-0.00086469,-1.9e-36,1.1617e-05,-7.6905e-20,7.1722e-21,8.4979,0.00097193,-0.00086579,2.8639e-33,0.00018068,-51.488,-211.88,-79.104,1.7953,-1.1867e-14,1.0779e-15,149.27,-212.05,-79.104,-51.318,0,0.014866,0,1,2.045,0,-2.045,0
0,0,0,0,0,0,0.00017481,-0.00086199,-3.4438e-36,1.3235e-05,-1.5029e-19,7.2177e-21,8.402,0.00096601,-0.00086307,2.702e-33,0.0001759,-52.46,-211.7,-79.342,2.0444,-2.314e-14,1.0838e-15,148.36,-211.87,-79.342,-52.293,0,0.01487,0,1,2.05,0,-2.05,0
0,0,0,0,0,0,0.00017003,-0.00085932,-4.9998e-36,1.4871e-05,-2.2437e-19,7.2631e-21,8.3061,0.00096013,-0.00086039,2.5384e-33,0.0001711,-53.442,-211.54,-79.587,2.2963,-3.4519e-14,1.0898e-15,147.46,-211.7,-79.587,-53.276,0,0.014874,0,1,2.055,0,-2.055,0
0,0,0,0,0,0,0.00016524,-0.0008567,-6.5679e-36,1.6525e-05,-2.9914e-19,7.3085e-21,8.2102,0.00095427,-0.00085776,2.3732e-33,0.0001663,-54.431,-211.38,-79.838,2.5509,-4.6004e-14,1.0957e-15,146.56,-211.55,-79.838,-54.267,0,0.014878,0,1,2.06,0,-2.06,0
0,0,0,0,0,0,0.00016043,-0.00085411,-8.1482e-36,1.8197e-05,-3.746e-19,7.3539e-21,8.1143,0.00094845,-0.00085516,2.2062e-33,0.00016148,-55.428,-211.25,-80.095,2.8083,-5.7595e-14,1.1017e-15,145.66,-211.41,-80.095,-55.266,0,0.014882,0,1,2.065,0,-2.065,0
0,0,0,0,0,0,0.00015561,-0.00085158,-9.7405e-36,1.9887e-05,-4.5075e-19,7.3993e-21,8.0184,0.00094266,-0.00085261,2.0376e-33,0.00015665,-56.433,-211.12,-80.359,3.0685,-6.9292e-14,1.1076e-15,144.77,-211.28,-80.359,-56.273,0,0.014886,0,1,2.07,0,-2.07,0
0,0,0,0,0,0,0.00015079,-0.00084908,-1.1345e-35,2.1595e-05,-5.276e-19,7.4447e-21,7.9225,0.00093691,-0.0008501,1.8673e-33,0.00015181,-57.447,-211.01,-80.628,3.3315,-8.1095e-14,1.1136e-15,143.88,-211.16,-80.628,-57.289,0,0.01489,0,1,2.075,0,-2.075,0
0,0,0,0,0,0,0.00014594,-0.00084663,-1.2962e-35,2.3321e-05,-6.0512e-19,7.4901e-21,7.8266,0.00093119,-0.00084764,1.6954e-33,0.00014696,-58.469,-210.9,-80.905,3.5973,-9.3004e-14,1.1195e-15,143,-211.06,-80.905,-58.312,0,0.014894,0,1,2.08,0,-2.08,0
0,0,0,0,0,0,0.00014109,-0.00084421,-1.4591e-35,2.5065e-05,-6.8335e-19,7.5354e-21,7.7307,0.0009255,-0.00084521,1.5218e-33,0.00014209,-59.499,-210.82,-81.187,3.8658,-1.0502e-13,1.1254e-15,142.13,-210.97,-81.187,-59.344,0,0.014898,0,1,2.085,0,-2.085,0
0,0,0,0,0,0,0.00013623,-0.00084185,-1.6232e-35,2.6827e-05,-7.6226e-19,7.5808e-21,7.6348,0.00091984,-0.00084283,1.3465e-33,0.00013721,-60.537,-210.74,-81.476,4.1371,-1.1714e-13,1.1313e-15,141.26,-210.89,-81.476,-60.384,0,0.014902,0,1,2.09,0,-2.09,0
0,0,0,0,0,0,0.00013135,-0.00083952,-1.7885e-35,2.8608e-05,-8.4186e-19,7.6262e-21,7.5389,0.00091422,-0.00084049,1.1695e-33,0.00013232,-61.583,-210.68,-81.771,4.4112,-1.2937e-13,1.1372e-15,140.39,-210.83,-81.771,-61.433,0,0.014906,0,1,2.095,0,-2.095,0
0,0,0,0,0,0,0.00012646,-0.00083724,-1.955e-35,3.0406e-05,-9.2215e-19,7.6715e-21,7.443,0.00090863,-0.0008382,9.9091e-34,0.00012742,-62.637,-210.63,-82.072,4.688,-1.417e-13,1.1431e-15,139.53,-210.78,-82.072,-62.489,0,0.014909,0,1,2.1,0,-2.1,0
0,0,0,0,0,0,0.00012649,-0.00083678,-1.8793e-35,3.0122e-05,-8.2533e-19,7.6243e-21,7.4241,0.00090817,-0.00083772,1.1931e-33,0.00012743,-62.577,-210.5,-82.016,4.6442,-1.2682e-13,1.1363e-15,139.46,-210.65,-82.016,-62.431,0,0.014914,0,1,2.105,0,-2.105,0
0,0,0,0,0,0,0.00012651,-0.00083631,-1.8039e-35,2.9839e-05,-7.2944e-19,7.5769e-21,7.4053,0.0009077,-0.00083725,1.3948e-33,0.00012745,-62.517,-210.37,-81.96,4.6007,-1.1208e-13,1.1295e-15,139.39,-210.52,-81.96,-62.372,0,0.014919,0,1,2.11,0,-2.11,0
0,0,0,0,0,0,0.00012654,-0.00083584,-1.7289e-35,2.9559e-05,-6.3447e-19,7.5296e-21,7.3864,0.00090723,-0.00083677,1.5959e-33,0.00012746,-62.456,-210.25,-81.903,4.5574,-9.7488e-14,1.1228e-15,139.32,-210.39,-81.903,-62.313,0,0.014923,0,1,2.115,0,-2.115,0
0,0,0,0,0,0,0.00012656,-0.00083537,-1.6542e-35,2.9281e-05,-5.4044e-19,7.4821e-21,7.3676,0.00090675,-0.00083628,1.7966e-33,0.00012747,-62.394,-210.12,-81.845,4.5145,-8.3037e-14,1.116e-15,139.24,-210.26,-81.845,-62.253,0,0.014928,0,1,2.12,0,-2.12,0
0,0,0,0,0,0,0.00012659,-0.00083489,-1.5799e-35,2.9004e-05,-4.4733e-19,7.4346e-21,7.3487,0.00090627,-0.00083579,1.9967e-33,0.00012749,-62.332,-209.98,-81.787,4.4718,-6.8728e-14,1.1092e-15,139.17,-210.12,-81.787,-62.192,0,0.014932,0,1,2.125,0,-2.125,0
0,0,0,0,0,0,0.00012661,-0.00083441,-1.5059e-35,2.873e-05,-3.5516e-19,7.3871e-21,7.3299,0.00090579,-0.0008353,2.1964e-33,0.0001275,-62.269,-209.85,-81.728,4.4295,-5.4561e-14,1.1023e-15,139.1,-209.99,-81.728,-62.131,0,0.014937,0,1,2.13,0,-2.13,0
0,0,0,0,0,0,0.00012664,-0.00083393,-1.4322e-35,2.8457e-05,-2.6391e-19,7.3395e-21,7.311,0.0009053,-0.0008348,2.3955e-33,0.00012752,-62.205,-209.72,-81.669,4.3875,-4.0539e-14,1.0955e-15,139.02,-209.85,-81.669,-62.069,0,0.014941,0,1,2.135,0,-2.135,0
0,0,0,0,0,0,0.00012667,-0.00083344,-1.3589e-35,2.8187e-05,-1.736e-19,7.2918e-21,7.2922,0.00090481,-0.0008343,2.5942e-33,0.00012753,-62.141,-209.58,-81.609,4.3457,-2.6659e-14,1.0887e-15,138.95,-209.72,-81.609,-62.007,0,0.014946,0,1,2.14,0,-2.14,0
0,0,0,0,0,0,0.00012669,-0.00083294,-1.2859e-35,2.7918e-05,-8.4216e-20,7.2441e-21,7.2733,0.00090431,-0.0008338,2.7923e-33,0.00012755,-62.076,-209.45,-81.549,4.3043,-1.2922e-14,1.0818e-15,138.87,-209.58,-81.549,-61.944,0,0.014951,0,1,2.145,0,-2.145,0
0,0,0,0,0,0,0.00012672,-0.00083244,-1.2132e-35,2.7652e-05,4.2406e-21,7.1963e-21,7.2544,0.00090382,-0.00083329,2.9899e-33,0.00012757,-62.011,-209.31,-81.488,4.2632,6.7254e-16,1.075e-15,138.79,-209.44,-81.488,-61.88,0,0.014955,0,1,2.15,0,-2.15,0
0,0,0,0,0,0,0.00012675,-0.00083194,-1.1409e-35,2.7387e-05,9.1763e-20,7.1484e-21,7.2356,0.00090331,-0.00083277,3.187e-33,0.00012758,-61.945,-209.17,-81.427,4.2224,1.4123e-14,1.0681e-15,138.72,-209.3,-81.427,-61.816,0,0.01496,0,1,2.155,0,-2.155,0
0,0,0,0,0,0,0.00012678,-0.00083144,-1.069e-35,2.7125e-05,1.7836e-19,7.1005e-21,7.2167,0.00090281,-0.00083226,3.3836e-33,0.0001276,-61.878,-209.03,-81.365,4.1819,2.7432e-14,1.0612e-15,138.64,-209.16,-81.365,-61.751,0,0.014964,0,1,2.16,0,-2.16,0
0,0,0,0,0,0,0.00012681,-0.00083092,-9.9735e-36,2.6864e-05,2.6402e-19,7.0525e-21,7.1979,0.0009023,-0.00083174,3.5797e-33,0.00012762,-61.811,-208.89,-81.302,4.1417,4.0597e-14,1.0543e-15,138.56,-209.02,-81.302,-61.685,0,0.014969,0,1,2.165,0,-2.165,0
0,0,0,0,0,0,0.00012684,-0.00083041,-9.2607e-36,2.6605e-05,3.4876e-19,7.0045e-21,7.179,0.00090179,-0.00083121,3.7753e-33,0.00012764,-61.743,-208.75,-81.239,4.1017,5.362e-14,1.0474e-15,138.48,-208.87,-81.239,-61.619,0,0.014973,0,1,2.17,0,-2.17,0
0,0,0,0,0,0,0.00012687,-0.00082989,-8.5513e-36,2.6349e-05,4.3256e-19,6.9564e-21,7.1602,0.00090127,-0.00083068,3.9704e-33,0.00012766,-61.675,-208.6,-81.176,4.0621,6.6499e-14,1.0404e-15,138.4,-208.73,-81.176,-61.552,0,0.014978,0,1,2.175,0,-2.175,0
0,0,0,0,0,0,0.0001269,-0.00082937,-7.8453e-36,2.6094e-05,5.1544e-19,6.9082e-21,7.1413,0.00090075,-0.00083015,4.165e-33,0.00012768,-61.606,-208.46,-81.112,4.0228,7.9236e-14,1.0335e-15,138.32,-208.58,-81.112,-61.485,0,0.014982,0,1,2.18,0,-2.18,0
0,0,0,0,0,0,0.00012693,-0.00082884,-7.1427e-36,2.5841e-05,5.9738e-19,6.86e-21,7.1225,0.00090023,-0.00082961,4.359e-33,0.0001277,-61.536,-208.31,-81.047,3.9838,9.1829e-14,1.0265e-15,138.24,-208.43,-81.047,-61.417,0,0.014987,0,1,2.185,0,-2.185,0
0,0,0,0,0,0,0.00012697,-0.00082831,-6.4435e-36,2.559e-05,6.7839e-19,6.8117e-21,7.1036,0.0008997,-0.00082906,4.5526e-33,0.00012772,-61.466,-208.17,-80.982,3.9452,1.0428e-13,1.0196e-15,138.16,-208.28,-80.982,-61.348,0,0.014991,0,1,2.19,0,-2.19,0
0,0,0,0,0,0,0.000127,-0.00082777,-5.7477e-36,2.5342e-05,7.5848e-19,6.7634e-21,7.0848,0.00089917,-0.00082852,4.7457e-33,0.00012774,-61.395,-208.02,-80.916,3.9068,1.1659e-13,1.0126e-15,138.08,-208.14,-80.916,-61.279,0,0.014995,0,1,2.195,0,-2.195,0
0,0,0,0,0,0,0.00012703,-0.00082723,-5.0554e-36,2.5095e-05,8.3763e-19,6.715e-21,7.0659,0.00089863,-0.00082797,4.9382e-33,0.00012777,-61.323,-207.87,-80.85,3.8687,1.2875e-13,1.0056e-15,138,-207.98,-80.85,-61.209,0,0.015,0,1,2.2,0,-2.2,0
0,0,0,0,0,0,0.00012706,-0.00082669,-4.3664e-36,2.485e-05,9.1585e-19,6.6665e-21,7.047,0.00089809,-0.00082741,5.1303e-33,0.00012779,-61.251,-207.72,-80.783,3.8309,1.4077e-13,9.9861e-16,137.92,-207.83,-80.783,-61.138,0,0.015004,0,1,2.205,0,-2.205,0
0,0,0,0,0,0,0.0001271,-0.00082614,-3.6809e-36,2.4607e-05,9.9315e-19,6.618e-21,7.0282,0.00089755,-0.00082685,5.3218e-33,0.00012781,-61.178,-207.57,-80.716,3.7934,1.5265e-13,9.9159e-16,137.83,-207.68,-80.716,-61.067,0,0.015009,0,1,2.21,0,-2.21,0
0,0,0,0,0,0,0.00012713,-0.00082558,-2.9987e-36,2.4366e-05,1.0695e-18,6.5694e-21,7.0093,0.00089701,-0.00082629,5.5128e-33,0.00012784,-61.105,-207.42,-80.648,3.7562,1.6439e-13,9.8456e-16,137.75,-207.53,-80.648,-60.995,0,0.015013,0,1,2.215,0,-2.215,0
0,0,0,0,0,0,0.00012717,-0.00082503,-2.32e-36,2.4127e-05,1.1449e-18,6.5208e-21,6.9905,0.00089646,-0.00082572,5.7034e-33,0.00012786,-61.031,-207.26,-80.58,3.7194,1.7598e-13,9.7752e-16,137.67,-207.37,-80.58,-60.923,0,0.015018,0,1,2.22,0,-2.22,0
0,0,0,0,0,0,0.0001272,-0.00082447,-1.6447e-36,2.389e-05,1.2195e-18,6.4721e-21,6.9716,0.0008959,-0.00082515,5.8934e-33,0.00012789,-60.956,-207.11,-80.511,3.6828,1.8743e-13,9.7047e-16,137.58,-207.21,-80.511,-60.85,0,0.015022,0,1,2.225,0,-2.225,0
0,0,0,0,0,0,0.00012724,-0.0008239,-9.7274e-37,2.3655e-05,1.293e-18,6.4233e-21,6.9528,0.00089535,-0.00082458,6.0829e-33,0.00012791,-60.881,-206.95,-80.441,3.6465,1.9874e-13,9.6341e-16,137.5,-207.06,-80.441,-60.776,0,0.015027,0,1,2.23,0,-2.23,0
0,0,0,0,0,0,0.00012727,-0.00082333,-3.0425e-37,2.3422e-05,1.3657e-18,6.3745e-21,6.9339,0.00089479,-0.000824,6.2719e-33,0.00012794,-60.805,-206.79,-80.371,3.6106,2.099e-13,9.5633e-16,137.41,-206.9,-80.371,-60.702,0,0.015031,0,1,2.235,0,-2.235,0
0,0,0,0,0,0,0.00012731,-0.00082276,3.6087e-37,2.3191e-05,1.4374e-18,6.3256e-21,6.9151,0.00089422,-0.00082342,6.4604e-33,0.00012797,-60.729,-206.63,-80.301,3.5749,2.2093e-13,9.4924e-16,137.32,-206.74,-80.301,-60.627,0,0.015035,0,1,2.24,0,-2.24,0
0,0,0,0,0,0,0.00012735,-0.00082218,1.0226e-36,2.2962e-05,1.5082e-18,6.2766e-21,6.8962,0.00089365,-0.00082283,6.6484e-33,0.000128,-60.652,-206.47,-80.229,3.5396,2.318e-13,9.4214e-16,137.24,-206.58,-80.229,-60.551,0,0.01504,0,1,2.245,0,-2.245,0
0,0,0,0,0,0,0.00012739,-0.0008216,1.6809e-36,2.2734e-05,1.578e-18,6.2276e-21,6.8773,0.00089308,-0.00082224,6.8358e-33,0.00012802,-60.574,-206.31,-80.158,3.5045,2.4254e-13,9.3503e-16,137.15,-206.41,-80.158,-60.475,0,0.015044,0,1,2.25,0,-2.25,0
0,0,0,0,0,0,0.00012742,-0.00082101,2.3358e-36,2.2509e-05,1.6469e-18,6.1786e-21,6.8585,0.00089251,-0.00082164,7.0228e-33,0.00012805,-60.496,-206.15,-80.086,3.4698,2.5313e-13,9.279e-16,137.06,-206.25,-80.086,-60.398,0,0.015049,0,1,2.255,0,-2.255,0
0,0,0,0,0,0,0.00012746,-0.00082042,2.9872e-36,2.2286e-05,1.7149e-18,6.1294e-21,6.8396,0.00089193,-0.00082104,7.2093e-33,0.00012808,-60.417,-205.99,-80.013,3.4353,2.6358e-13,9.2076e-16,136.97,-206.08,-80.013,-60.321,0,0.015053,0,1,2.26,0,-2.26,0
0,0,0,0,0,0,0.0001275,-0.00081983,3.6353e-36,2.2065e-05,1.782e-18,6.0802e-21,6.8208,0.00089135,-0.00082044,7.3952e-33,0.00012811,-60.338,-205.82,-79.94,3.4012,2.7389e-13,9.1361e-16,136.88,-205.92,-79.94,-60.243,0,0.015057,0,1,2.265,0,-2.265,0
0,0,0,0,0,0,0.00012754,-0.00081923,4.2799e-36,2.1845e-05,1.8481e-18,6.031e-21,6.8019,0.00089076,-0.00081983,7.5807e-33,0.00012814,-60.257,-205.66,-79.866,3.3674,2.8405e-13,9.0645e-16,136.79,-205.75,-79.866,-60.164,0,0.015062,0,1,2.27,0,-2.27,0
0,0,0,0,0,0,0.00012758,-0.00081862,4.9212e-36,2.1628e-05,1.9133e-18,5.9817e-21,6.7831,0.00089017,-0.00081922,7.7656e-33,0.00012817,-60.177,-205.49,-79.792,3.3338,2.9407e-13,8.9928e-16,136.7,-205.58,-79.792,-60.085,0,0.015066,0,1,2.275,0,-2.275,0
0,0,0,0,0,0,0.00012762,-0.00081802,5.559e-36,2.1413e-05,1.9776e-18,5.9323e-21,6.7642,0.00088958,-0.0008186,7.9501e-33,0.00012821,-60.095,-205.32,-79.717,3.3006,3.0395e-13,8.9209e-16,136.61,-205.41,-79.717,-60.005,0,0.01507,0,1,2.28,0,-2.28,0
0,0,0,0,0,0,0.00012766,-0.0008174,6.1935e-36,2.1199e-05,2.041e-18,5.8829e-21,6.7454,0.00088898,-0.00081798,8.134e-33,0.00012824,-60.013,-205.15,-79.641,3.2677,3.1369e-13,8.8489e-16,136.52,-205.24,-79.641,-59.925,0,0.015075,0,1,2.285,0,-2.285,0
0,0,0,0,0,0,0.0001277,-0.00081679,6.8245e-36,2.0988e-05,2.1034e-18,5.8334e-21,6.7265,0.00088838,-0.00081735,8.3174e-33,0.00012827,-59.931,-204.98,-79.565,3.235,3.2328e-13,8.7768e-16,136.43,-205.07,-79.565,-59.843,0,0.015079,0,1,2.29,0,-2.29,0
0,0,0,0,0,0,0.00012775,-0.00081617,7.4521e-36,2.0778e-05,2.1649e-18,5.7839e-21,6.7076,0.00088777,-0.00081673,8.5003e-33,0.0001283,-59.848,-204.81,-79.489,3.2027,3.3273e-13,8.7045e-16,136.33,-204.9,-79.489,-59.762,0,0.015083,0,1,2.295,0,-2.295,0
0,0,0,0,0,0,0.00012779,-0.00081554,8.0763e-36,2.0571e-05,2.2254e-18,5.7343e-21,6.6888,0.00088716,-0.00081609,8.6828e-33,0.00012834,-59.764,-204.64,-79.412,3.1707,3.4203e-13,8.6322e-16,136.24,-204.72,-79.412,-59.679,0,0.015088,0,1,2.3,0,-2.3,0
0,0,0,0,0,0,0.00012783,-0.00081492,8.6971e-36,2.0365e-05,2.285e-18,5.6846e-21,6.6699,0.00088655,-0.00081546,8.8647e-33,0.00012837,-59.68,-204.46,-79.334,3.139,3.512e-13,8.5597e-16,136.15,-204.55,-79.334,-59.596,0,0.015092,0,1,2.305,0,-2.305,0
0,0,0,0,0,0,0.00012788,-0.00081428,9.3145e-36,2.0162e-05,2.3437e-18,5.6349e-21,6.6511,0.00088594,-0.00081481,9.0461e-33,0.00012841,-59.595,-204.29,-79.256,3.1076,3.6022e-13,8.4871e-16,136.05,-204.37,-79.256,-59.512,0,0.015096,0,1,2.31,0,-2.31,0
0,0,0,0,0,0,0.00012792,-0.00081365,9.9285e-36,1.996e-05,2.4015e-18,5.5851e-21,6.6322,0.00088532,-0.00081417,9.2269e-33,0.00012844,-59.509,-204.11,-79.177,3.0765,3.6909e-13,8.4143e-16,135.96,-204.19,-79.177,-59.428,0,0.015101,0,1,2.315,0,-2.315,0
0,0,0,0,0,0,0.00012796,-0.000813,1.0539e-35,1.9761e-05,2.4583e-18,5.5352e-21,6.6134,0.00088469,-0.00081352,9.4073e-33,0.00012848,-59.423,-203.94,-79.098,3.0457,3.7783e-13,8.3415e-16,135.86,-204.02,-79.098,-59.343,0,0.015105,0,1,2.32,0,-2.32,0
0,0,0,0,0,0,0.00012801,-0.00081236,1.1146e-35,1.9563e-05,2.5142e-18,5.4853e-21,6.5945,0.00088407,-0.00081287,9.5872e-33,0.00012851,-59.336,-203.76,-79.018,3.0152,3.8642e-13,8.2685e-16,135.77,-203.84,-79.018,-59.258,0,0.015109,0,1,2.325,0,-2.325,0
0,0,0,0,0,0,0.00012805,-0.00081171,1.175e-35,1.9367e-05,2.5692e-18,5.4353e-21,6.5757,0.00088344,-0.00081221,9.7666e-33,0.00012855,-59.249,-203.58,-78.938,2.985,3.9487e-13,8.1954e-16,135.67,-203.65,-78.938,-59.171,0,0.015113,0,1,2.33,0,-2.33,0
0,0,0,0,0,0,0.0001281,-0.00081106,1.235e-35,1.9174e-05,2.6233e-18,5.3853e-21,6.5568,0.0008828,-0.00081155,9.9454e-33,0.00012859,-59.16,-203.4,-78.857,2.9551,4.0317e-13,8.1221e-16,135.57,-203.47,-78.857,-59.085,0,0.015118,0,1,2.335,0,-2.335,0
0,0,0,0,0,0,0.00012815,-0.0008104,1.2947e-35,1.8982e-05,2.6764e-18,5.3352e-21,6.538,0.00088216,-0.00081088,1.0124e-32,0.00012863,-59.072,-203.21,-78.776,2.9255,4.1134e-13,8.0488e-16,135.47,-203.29,-78.776,-58.997,0,0.015122,0,1,2.34,0,-2.34,0
0,0,0,0,0,0,0.00012819,-0.00080974,1.3541e-35,1.8792e-05,2.7286e-18,5.285e-21,6.5191,0.00088152,-0.00081021,1.0302e-32,0.00012867,-58.983,-203.03,-78.694,2.8962,4.1936e-13,7.9753e-16,135.38,-203.1,-78.694,-58.909,0,0.015126,0,1,2.345,0,-2.345,0
0,0,0,0,0,0,0.00012824,-0.00080907,1.4131e-35,1.8604e-05,2.7798e-18,5.2348e-21,6.5002,0.00088088,-0.00080954,1.0479e-32,0.00012871,-58.893,-202.85,-78.612,2.8673,4.2723e-13,7.9017e-16,135.28,-202.92,-78.612,-58.82,0,0.01513,0,1,2.35,0,-2.35,0
0,0,0,0,0,0,0.00012829,-0.0008084,1.4718e-35,1.8419e-05,2.8301e-18,5.1846e-21,6.4814,0.00088023,-0.00080886,1.0656e-32,0.00012875,-58.802,-202.66,-78.529,2.8386,4.3497e-13,7.828e-16,135.18,-202.73,-78.529,-58.731,0,0.015135,0,1,2.355,0,-2.355,0
0,0,0,0,0,0,0.00012834,-0.00080773,1.5301e-35,1.8235e-05,2.8795e-18,5.1342e-21,6.4625,0.00087958,-0.00080818,1.0832e-32,0.00012879,-58.711,-202.47,-78.445,2.8102,4.4256e-13,7.7541e-16,135.08,-202.54,-78.445,-58.641,0,0.015139,0,1,2.36,0,-2.36,0
0,0,0,0,0,0,0.00012838,-0.00080705,1.5881e-35,1.8053e-05,2.928e-18,5.0838e-21,6.4437,0.00087892,-0.00080749,1.1008e-32,0.00012883,-58.619,-202.28,-78.361,2.7821,4.5001e-13,7.6802e-16,134.98,-202.35,-78.361,-58.551,0,0.015143,0,1,2.365,0,-2.365,0
0,0,0,0,0,0,0.00012843,-0.00080636,1.6458e-35,1.7873e-05,2.9755e-18,5.0334e-21,6.4248,0.00087826,-0.0008068,1.1183e-32,0.00012887,-58.527,-202.1,-78.276,2.7544,4.5731e-13,7.6061e-16,134.88,-202.16,-78.276,-58.459,0,0.015147,0,1,2.37,0,-2.37,0
0,0,0,0,0,0,0.00012848,-0.00080568,1.7031e-35,1.7695e-05,3.0221e-18,4.9829e-21,6.406,0.0008776,-0.00080611,1.1358e-32,0.00012891,-58.434,-201.9,-78.191,2.7269,4.6447e-13,7.5319e-16,134.78,-201.97,-78.191,-58.368,0,0.015152,0,1,2.375,0,-2.375,0
0,0,0,0,0,0,0.00012853,-0.00080499,1.76e-35,1.7519e-05,3.0678e-18,4.9323e-21,6.3871,0.00087693,-0.00080541,1.1532e-32,0.00012895,-58.34,-201.71,-78.106,2.6997,4.7149e-13,7.4575e-16,134.67,-201.78,-78.106,-58.275,0,0.015156,0,1,2.38,0,-2.38,0
0,0,0,0,0,0,0.00012858,-0.00080429,1.8167e-35,1.7345e-05,3.1126e-18,4.8816e-21,6.3683,0.00087626,-0.0008047,1.1706e-32,0.000129,-58.246,-201.52,-78.019,2.6729,4.7837e-13,7.383e-16,134.57,-201.58,-78.019,-58.182,0,0.01516,0,1,2.385,0,-2.385,0
0,0,0,0,0,0,0.00012863,-0.00080359,1.8729e-35,1.7173e-05,3.1564e-18,4.8309e-21,6.3494,0.00087559,-0.000804,1.1879e-32,0.00012904,-58.151,-201.33,-77.933,2.6463,4.851e-13,7.3085e-16,134.47,-201.39,-77.933,-58.089,0,0.015164,0,1,2.39,0,-2.39,0
0,0,0,0,0,0,0.00012869,-0.00080289,1.9289e-35,1.7003e-05,3.1992e-18,4.7802e-21,6.3305,0.00087491,-0.00080329,1.2052e-32,0.00012909,-58.056,-201.13,-77.845,2.6201,4.9169e-13,7.2338e-16,134.36,-201.19,-77.845,-57.994,0,0.015168,0,1,2.395,0,-2.395,0
0,0,0,0,0,0,0.00012874,-0.00080218,1.9845e-35,1.6835e-05,3.2412e-18,4.7294e-21,6.3117,0.00087423,-0.00080257,1.2225e-32,0.00012913,-57.96,-200.93,-77.757,2.5941,4.9814e-13,7.1589e-16,134.26,-200.99,-77.757,-57.899,0,0.015173,0,1,2.4,0,-2.4,0
0,0,0,0,0,0,0.00012879,-0.00080147,2.0398e-35,1.6669e-05,3.2822e-18,4.6785e-21,6.2928,0.00087354,-0.00080185,1.2396e-32,0.00012918,-57.863,-200.74,-77.669,2.5685,5.0445e-13,7.084e-16,134.15,-200.8,-77.669,-57.804,0,0.015177,0,1,2.405,0,-2.405,0
0,0,0,0,0,0,0.00012884,-0.00080075,2.0947e-35,1.6504e-05,3.3223e-18,4.6276e-21,6.274,0.00087285,-0.00080113,1.2568e-32,0.00012922,-57.766,-200.54,-77.58,2.5432,5.1061e-13,7.0089e-16,134.05,-200.6,-77.58,-57.708,0,0.015181,0,1,2.41,0,-2.41,0
0,0,0,0,0,0,0.0001289,-0.00080003,2.1493e-35,1.6342e-05,3.3615e-18,4.5766e-21,6.2551,0.00087216,-0.0008004,1.2738e-32,0.00012927,-57.668,-200.34,-77.491,2.5181,5.1663e-13,6.9337e-16,133.94,-200.39,-77.491,-57.611,0,0.015185,0,1,2.415,0,-2.415,0
0,0,0,0,0,0,0.00012895,-0.0007993,2.2035e-35,1.6182e-05,3.3997e-18,4.5255e-21,6.2363,0.00087146,-0.00079967,1.2909e-32,0.00012932,-57.57,-200.14,-77.401,2.4934,5.225e-13,6.8584e-16,133.83,-200.19,-77.401,-57.513,0,0.015189,0,1,2.42,0,-2.42,0
0,0,0,0,0,0,0.00012901,-0.00079857,2.2574e-35,1.6024e-05,3.437e-18,4.4744e-21,6.2174,0.00087076,-0.00079893,1.3078e-32,0.00012936,-57.471,-199.93,-77.31,2.469,5.2823e-13,6.7829e-16,133.73,-199.99,-77.31,-57.415,0,0.015193,0,1,2.425,0,-2.425,0
0,0,0,0,0,0,0.00012906,-0.00079784,2.311e-35,1.5867e-05,3.4734e-18,4.4232e-21,6.1986,0.00087006,-0.00079819,1.3248e-32,0.00012941,-57.371,-199.73,-77.219,2.4448,5.3382e-13,6.7073e-16,133.62,-199.78,-77.219,-57.317,0,0.015197,0,1,2.43,0,-2.43,0
0,0,0,0,0,0,0.00012912,-0.0007971,2.3642e-35,1.5713e-05,3.5088e-18,4.372e-21,6.1797,0.00086935,-0.00079745,1.3416e-32,0.00012946,-57.271,-199.53,-77.127,2.421,5.3927e-13,6.6316e-16,133.51,-199.58,-77.127,-57.217,0,0.015202,0,1,2.435,0,-2.435,0
0,0,0,0,0,0,0.00012917,-0.00079636,2.4171e-35,1.5561e-05,3.5434e-18,4.3206e-21,6.1609,0.00086864,-0.0007967,1.3584e-32,0.00012951,-57.17,-199.32,-77.035,2.3975,5.4458e-13,6.5558e-16,133.4,-199.37,-77.035,-57.117,0,0.015206,0,1,2.44,0,-2.44,0
0,0,0,0,0,0,0.00012923,-0.00079561,2.4696e-35,1.541e-05,3.5769e-18,4.2693e-21,6.142,0.00086792,-0.00079595,1.3752e-32,0.00012956,-57.068,-199.11,-76.943,2.3743,5.4974e-13,6.4799e-16,133.29,-199.16,-76.943,-57.017,0,0.01521,0,1,2.445,0,-2.445,0
0,0,0,0,0,0,0.00012928,-0.00079486,2.5218e-35,1.5262e-05,3.6096e-18,4.2179e-21,6.1231,0.00086721,-0.00079519,1.3919e-32,0.00012961,-56.966,-198.9,-76.849,2.3514,5.5476e-13,6.4038e-16,133.18,-198.95,-76.849,-56.916,0,0.015214,0,1,2.45,0,-2.45,0
0,0,0,0,0,0,0.00012934,-0.00079411,2.5737e-35,1.5116e-05,3.6413e-18,4.1664e-21,6.1043,0.00086648,-0.00079443,1.4086e-32,0.00012966,-56.864,-198.69,-76.756,2.3288,5.5963e-13,6.3276e-16,133.07,-198.74,-76.756,-56.814,0,0.015218,0,1,2.455,0,-2.455,0
0,0,0,0,0,0,0.0001294,-0.00079335,2.6252e-35,1.4971e-05,3.6721e-18,4.1148e-21,6.0854,0.00086576,-0.00079367,1.4252e-32,0.00012971,-56.76,-198.48,-76.661,2.3065,5.6436e-13,6.2513e-16,132.96,-198.53,-76.661,-56.711,0,0.015222,0,1,2.46,0,-2.46,0
0,0,0,0,0,0,0.00012946,-0.00079259,2.6764e-35,1.4829e-05,3.702e-18,4.0632e-21,6.0666,0.00086503,-0.0007929,1.4418e-32,0.00012977,-56.656,-198.27,-76.566,2.2845,5.6895e-13,6.1749e-16,132.85,-198.32,-76.566,-56.608,0,0.015226,0,1,2.465,0,-2.465,0
0,0,0,0,0,0,0.00012952,-0.00079182,2.7272e-35,1.4688e-05,3.7309e-18,4.0116e-21,6.0477,0.00086429,-0.00079212,1.4583e-32,0.00012982,-56.552,-198.06,-76.471,2.2628,5.734e-13,6.0983e-16,132.74,-198.11,-76.471,-56.505,0,0.01523,0,1,2.47,0,-2.47,0
0,0,0,0,0,0,0.00012958,-0.00079105,2.7777e-35,1.4549e-05,3.7589e-18,3.9598e-21,6.0289,0.00086356,-0.00079135,1.4748e-32,0.00012987,-56.446,-197.84,-76.375,2.2414,5.777e-13,6.0216e-16,132.62,-197.89,-76.375,-56.4,0,0.015234,0,1,2.475,0,-2.475,0
0,0,0,0,0,0,0.00012963,-0.00079028,2.8279e-35,1.4413e-05,3.786e-18,3.9081e-21,6.01,0.00086282,-0.00079057,1.4912e-32,0.00012993,-56.341,-197.63,-76.279,2.2203,5.8186e-13,5.9448e-16,132.51,-197.67,-76.279,-56.296,0,0.015238,0,1,2.48,0,-2.48,0
0,0,0,0,0,0,0.00012969,-0.0007895,2.8777e-35,1.4278e-05,3.8121e-18,3.8562e-21,5.9912,0.00086207,-0.00078978,1.5076e-32,0.00012998,-56.234,-197.41,-76.182,2.1995,5.8588e-13,5.8679e-16,132.4,-197.46,-76.182,-56.19,0,0.015243,0,1,2.485,0,-2.485,0
0,0,0,0,0,0,0.00012976,-0.00078871,2.9271e-35,1.4146e-05,3.8374e-18,3.8043e-21,5.9723,0.00086132,-0.00078899,1.5239e-32,0.00013004,-56.127,-197.19,-76.084,2.179,5.8976e-13,5.7908e-16,132.28,-197.24,-76.084,-56.084,0,0.015247,0,1,2.49,0,-2.49,0
0,0,0,0,0,0,0.00012982,-0.00078792,2.9763e-35,1.4015e-05,3.8616e-18,3.7523e-21,5.9534,0.00086057,-0.0007882,1.5401e-32,0.00013009,-56.02,-196.98,-75.986,2.1588,5.9349e-13,5.7137e-16,132.17,-197.02,-75.986,-55.977,0,0.015251,0,1,2.495,0,-2.495,0
0,0,0,0,0,0,0.00012988,-0.00078713,3.0251e-35,1.3886e-05,3.885e-18,3.7003e-21,5.9346,0.00085982,-0.0007874,1.5563e-32,0.00013015,-55.911,-196.76,-75.887,2.139,5.9708e-13,5.6364e-16,132.05,-196.8,-75.887,-55.87,0,0.015255,0,1,2.5,0,-2.5,0
0,0,0,0,0,0,0.00012994,-0.00078634,3.0735e-35,1.3759e-05,3.9074e-18,3.6482e-21,5.9157,0.00085906,-0.0007866,1.5725e-32,0.0001302,-55.802,-196.53,-75.788,2.1194,6.0052e-13,5.559e-16,131.93,-196.58,-75.788,-55.762,0,0.015259,0,1,2.505,0,-2.505,0
0,0,0,0,0,0,0.00013,-0.00078553,3.1216e-35,1.3635e-05,3.9289e-18,3.5961e-21,5.8969,0.0008583,-0.00078579,1.5886e-32,0.00013026,-55.693,-196.31,-75.688,2.1001,6.0383e-13,5.4814e-16,131.82,-196.35,-75.688,-55.653,0,0.015263,0,1,2.51,0,-2.51,0
0,0,0,0,0,0,0.00013007,-0.00078473,3.1694e-35,1.3512e-05,3.9495e-18,3.5439e-21,5.878,0.00085753,-0.00078498,1.6047e-32,0.00013032,-55.583,-196.09,-75.588,2.0812,6.0699e-13,5.4037e-16,131.7,-196.13,-75.588,-55.544,0,0.015267,0,1,2.515,0,-2.515,0
0,0,0,0,0,0,0.00013013,-0.00078392,3.2168e-35,1.3391e-05,3.9691e-18,3.4916e-21,5.8592,0.00085676,-0.00078417,1.6207e-32,0.00013038,-55.472,-195.86,-75.487,2.0625,6.1e-13,5.3259e-16,131.58,-195.9,-75.487,-55.434,0,0.015271,0,1,2.52,0,-2.52,0
0,0,0,0,0,0,0.00013019,-0.00078311,3.2639e-35,1.3272e-05,3.9878e-18,3.4393e-21,5.8403,0.00085599,-0.00078335,1.6367e-32,0.00013044,-55.361,-195.64,-75.386,2.0441,6.1288e-13,5.248e-16,131.46,-195.68,-75.386,-55.323,0,0.015275,0,1,2.525,0,-2.525,0
0,0,0,0,0,0,0.00013026,-0.00078229,3.3107e-35,1.3155e-05,4.0056e-18,3.3869e-21,5.8215,0.00085521,-0.00078253,1.6526e-32,0.0001305,-55.249,-195.41,-75.284,2.0261,6.1561e-13,5.17e-16,131.34,-195.45,-75.284,-55.212,0,0.015279,0,1,2.53,0,-2.53,0
0,0,0,0,0,0,0.00013032,-0.00078147,3.3571e-35,1.304e-05,4.0224e-18,3.3344e-21,5.8026,0.00085443,-0.0007817,1.6684e-32,0.00013056,-55.136,-195.18,-75.182,2.0083,6.182e-13,5.0918e-16,131.22,-195.22,-75.182,-55.1,0,0.015283,0,1,2.535,0,-2.535,0
0,0,0,0,0,0,0.00013039,-0.00078064,3.4031e-35,1.2927e-05,4.0384e-18,3.2819e-21,5.7837,0.00085364,-0.00078087,1.6842e-32,0.00013062,-55.023,-194.95,-75.079,1.9909,6.2064e-13,5.0135e-16,131.1,-194.99,-75.079,-54.988,0,0.015287,0,1,2.54,0,-2.54,0
0,0,0,0,0,0,0.00013045,-0.00077981,3.4489e-35,1.2816e-05,4.0533e-18,3.2294e-21,5.7649,0.00085285,-0.00078004,1.7e-32,0.00013068,-54.91,-194.72,-74.975,1.9737,6.2294e-13,4.9351e-16,130.98,-194.76,-74.975,-54.875,0,0.015291,0,1,2.545,0,-2.545,0
0,0,0,0,0,0,0.00013052,-0.00077898,3.4942e-35,1.2707e-05,4.0674e-18,3.1767e-21,5.746,0.00085206,-0.0007792,1.7157e-32,0.00013074,-54.795,-194.49,-74.871,1.9569,6.251e-13,4.8566e-16,130.86,-194.52,-74.871,-54.761,0,0.015295,0,1,2.55,0,-2.55,0
0,0,0,0,0,0,0.00013059,-0.00077814,3.5393e-35,1.26e-05,4.0805e-18,3.124e-21,5.7272,0.00085127,-0.00077836,1.7314e-32,0.0001308,-54.68,-194.26,-74.767,1.9404,6.2712e-13,4.778e-16,130.74,-194.29,-74.767,-54.647,0,0.015299,0,1,2.555,0,-2.555,0
0,0,0,0,0,0,0.00013065,-0.0007773,3.584e-35,1.2495e-05,4.0927e-18,3.0713e-21,5.7083,0.00085047,-0.00077751,1.747e-32,0.00013087,-54.565,-194.02,-74.661,1.9241,6.2899e-13,4.6992e-16,130.62,-194.05,-74.661,-54.532,0,0.015303,0,1,2.56,0,-2.56,0
0,0,0,0,0,0,0.00013072,-0.00077645,3.6283e-35,1.2392e-05,4.104e-18,3.0185e-21,5.6895,0.00084966,-0.00077666,1.7625e-32,0.00013093,-54.448,-193.79,-74.556,1.9082,6.3073e-13,4.6203e-16,130.49,-193.82,-74.556,-54.416,0,0.015307,0,1,2.565,0,-2.565,0
0,0,0,0,0,0,0.00013079,-0.0007756,3.6724e-35,1.2291e-05,4.1143e-18,2.9656e-21,5.6706,0.00084886,-0.0007758,1.778e-32,0.00013099,-54.332,-193.55,-74.45,1.8926,6.3231e-13,4.5413e-16,130.37,-193.58,-74.45,-54.3,0,0.015311,0,1,2.57,0,-2.57,0
0,0,0,0,0,0,0.00013086,-0.00077475,3.716e-35,1.2191e-05,4.1237e-18,2.9127e-21,5.6518,0.00084805,-0.00077494,1.7935e-32,0.00013106,-54.214,-193.31,-74.343,1.8773,6.3376e-13,4.4621e-16,130.25,-193.34,-74.343,-54.183,0,0.015315,0,1,2.575,0,-2.575,0
0,0,0,0,0,0,0.00013093,-0.00077389,3.7594e-35,1.2094e-05,4.1322e-18,2.8597e-21,5.6329,0.00084723,-0.00077408,1.8089e-32,0.00013112,-54.096,-193.07,-74.236,1.8622,6.3506e-13,4.3828e-16,130.12,-193.1,-74.236,-54.066,0,0.015318,0,1,2.58,0,-2.58,0
0,0,0,0,0,0,0.000131,-0.00077302,3.8024e-35,1.1999e-05,4.1397e-18,2.8066e-21,5.6141,0.00084642,-0.00077321,1.8242e-32,0.00013119,-53.977,-192.83,-74.128,1.8475,6.3622e-13,4.3034e-16,130,-192.86,-74.128,-53.948,0,0.015322,0,1,2.585,0,-2.585,0
0,0,0,0,0,0,0.00013107,-0.00077215,3.845e-35,1.1906e-05,4.1463e-18,2.7535e-21,5.5952,0.00084559,-0.00077234,1.8395e-32,0.00013125,-53.858,-192.59,-74.019,1.8331,6.3724e-13,4.2239e-16,129.87,-192.62,-74.019,-53.829,0,0.015326,0,1,2.59,0,-2.59,0
0,0,0,0,0,0,0.00013114,-0.00077128,3.8874e-35,1.1814e-05,4.152e-18,2.7003e-21,5.5763,0.00084477,-0.00077147,1.8548e-32,0.00013132,-53.738,-192.35,-73.911,1.819,6.3811e-13,4.1443e-16,129.74,-192.38,-73.911,-53.71,0,0.01533,0,1,2.595,0,-2.595,0
0,0,0,0,0,0,0.00013121,-0.00077041,3.9293e-35,1.1725e-05,4.1568e-18,2.6471e-21,5.5575,0.00084394,-0.00077059,1.87e-32,0.00013139,-53.618,-192.1,-73.801,1.8052,6.3884e-13,4.0645e-16,129.62,-192.13,-73.801,-53.59,0,0.015334,0,1,2.6,0,-2.6,0
0,0,0,0,0,0,0.00013128,-0.00076953,3.971e-35,1.1638e-05,4.1606e-18,2.5938e-21,5.5386,0.00084311,-0.0007697,1.8851e-32,0.00013146,-53.497,-191.86,-73.691,1.7917,6.3943e-13,3.9846e-16,129.49,-191.89,-73.691,-53.47,0,0.015338,0,1,2.605,0,-2.605,0
0,0,0,0,0,0,0.00013135,-0.00076864,4.0123e-35,1.1552e-05,4.1635e-18,2.5405e-21,5.5198,0.00084227,-0.00076881,1.9002e-32,0.00013152,-53.375,-191.61,-73.581,1.7785,6.3987e-13,3.9046e-16,129.36,-191.64,-73.581,-53.348,0,0.015342,0,1,2.61,0,-2.61,0
0,0,0,0,0,0,0.00013143,-0.00076775,4.0532e-35,1.1469e-05,4.1655e-18,2.487e-21,5.5009,0.00084143,-0.00076792,1.9153e-32,0.00013159,-53.253,-191.37,-73.47,1.7656,6.4017e-13,3.8245e-16,129.23,-191.39,-73.47,-53.227,0,0.015346,0,1,2.615,0,-2.615,0
0,0,0,0,0,0,0.0001315,-0.00076686,4.0938e-35,1.1387e-05,4.1665e-18,2.4336e-21,5.4821,0.00084059,-0.00076703,1.9303e-32,0.00013166,-53.13,-191.12,-73.358,1.753,6.4033e-13,3.7442e-16,129.1,-191.14,-73.358,-53.104,0,0.01535,0,1,2.62,0,-2.62,0
0,0,0,0,0,0,0.00013157,-0.00076596,4.1341e-35,1.1308e-05,4.1666e-18,2.38e-21,5.4632,0.00083974,-0.00076612,1.9452e-32,0.00013173,-53.006,-190.87,-73.246,1.7407,6.4035e-13,3.6638e-16,128.97,-190.89,-73.246,-52.981,0,0.015354,0,1,2.625,0,-2.625,0
0,0,0,0,0,0,0.00013165,-0.00076506,4.174e-35,1.123e-05,4.1658e-18,2.3264e-21,5.4444,0.00083889,-0.00076522,1.9601e-32,0.0001318,-52.882,-190.62,-73.133,1.7287,6.4022e-13,3.5833e-16,128.84,-190.64,-73.133,-52.857,0,0.015357,0,1,2.63,0,-2.63,0
0,0,0,0,0,0,0.00013172,-0.00076416,4.2136e-35,1.1155e-05,4.164e-18,2.2728e-21,5.4255,0.00083804,-0.00076431,1.9749e-32,0.00013188,-52.757,-190.36,-73.02,1.7171,6.3995e-13,3.5027e-16,128.71,-190.39,-73.02,-52.733,0,0.015361,0,1,2.635,0,-2.635,0
0,0,0,0,0,0,0.00013179,-0.00076325,4.2529e-35,1.1081e-05,4.1613e-18,2.219e-21,5.4066,0.00083718,-0.0007634,1.9897e-32,0.00013195,-52.632,-190.11,-72.906,1.7057,6.3954e-13,3.422e-16,128.58,-190.13,-72.906,-52.608,0,0.015365,0,1,2.64,0,-2.64,0
0,0,0,0,0,0,0.00013187,-0.00076233,4.2918e-35,1.101e-05,4.1577e-18,2.1653e-21,5.3878,0.00083632,-0.00076248,2.0045e-32,0.00013202,-52.506,-189.86,-72.792,1.6946,6.3898e-13,3.3411e-16,128.45,-189.88,-72.792,-52.483,0,0.015369,0,1,2.645,0,-2.645,0
0,0,0,0,0,0,0.00013195,-0.00076141,4.3304e-35,1.094e-05,4.1532e-18,2.1114e-21,5.3689,0.00083545,-0.00076156,2.0192e-32,0.00013209,-52.379,-189.6,-72.677,1.6838,6.3828e-13,3.2601e-16,128.32,-189.62,-72.677,-52.357,0,0.015373,0,1,2.65,0,-2.65,0
0,0,0,0,0,0,0.00013202,-0.00076049,4.3686e-35,1.0872e-05,4.1477e-18,2.0575e-21,5.3501,0.00083458,-0.00076064,2.0338e-32,0.00013217,-52.252,-189.34,-72.562,1.6734,6.3744e-13,3.179e-16,128.18,-189.37,-72.562,-52.23,0,0.015377,0,1,2.655,0,-2.655,0
0,0,0,0,0,0,0.0001321,-0.00075956,4.4065e-35,1.0806e-05,4.1413e-18,2.0036e-21,5.3312,0.00083371,-0.00075971,2.0484e-32,0.00013224,-52.124,-189.09,-72.446,1.6632,6.3645e-13,3.0977e-16,128.05,-189.11,-72.446,-52.102,0,0.01538,0,1,2.66,0,-2.66,0
0,0,0,0,0,0,0.00013218,-0.00075863,4.444e-35,1.0743e-05,4.134e-18,1.9495e-21,5.3124,0.00083283,-0.00075877,2.0629e-32,0.00013232,-51.996,-188.83,-72.329,1.6533,6.3533e-13,3.0164e-16,127.91,-188.85,-72.329,-51.974,0,0.015384,0,1,2.665,0,-2.665,0
0,0,0,0,0,0,0.00013225,-0.0007577,4.4812e-35,1.0681e-05,4.1257e-18,1.8955e-21,5.2935,0.00083195,-0.00075784,2.0774e-32,0.00013239,-51.867,-188.57,-72.212,1.6438,6.3406e-13,2.9349e-16,127.78,-188.59,-72.212,-51.846,0,0.015388,0,1,2.67,0,-2.67,0
0,0,0,0,0,0,0.00013233,-0.00075676,4.5181e-35,1.0621e-05,4.1165e-18,1.8413e-21,5.2747,0.00083107,-0.00075689,2.0919e-32,0.00013247,-51.737,-188.31,-72.095,1.6345,6.3264e-13,2.8533e-16,127.64,-188.33,-72.095,-51.716,0,0.015392,0,1,2.675,0,-2.675,0
0,0,0,0,0,0,0.00013241,-0.00075582,4.5546e-35,1.0563e-05,4.1064e-18,1.7871e-21,5.2558,0.00083018,-0.00075595,2.1063e-32,0.00013254,-51.607,-188.04,-71.977,1.6256,6.3109e-13,2.7715e-16,127.51,-188.06,-71.977,-51.586,0,0.015396,0,1,2.68,0,-2.68,0
0,0,0,0,0,0,0.00013249,-0.00075487,4.5908e-35,1.0507e-05,4.0953e-18,1.7329e-21,5.237,0.00082929,-0.000755,2.1206e-32,0.00013262,-51.476,-187.78,-71.858,1.6169,6.2939e-13,2.6897e-16,127.37,-187.8,-71.858,-51.456,0,0.015399,0,1,2.685,0,-2.685,0
0,0,0,0,0,0,0.00013257,-0.00075392,4.6266e-35,1.0454e-05,4.0833e-18,1.6785e-21,5.2181,0.00082839,-0.00075404,2.1349e-32,0.0001327,-51.344,-187.51,-71.739,1.6086,6.2754e-13,2.6077e-16,127.23,-187.53,-71.739,-51.325,0,0.015403,0,1,2.69,0,-2.69,0
0,0,0,0,0,0,0.00013265,-0.00075296,4.6621e-35,1.0402e-05,4.0704e-18,1.6242e-21,5.1992,0.0008275,-0.00075309,2.1491e-32,0.00013277,-51.212,-187.25,-71.619,1.6006,6.2556e-13,2.5256e-16,127.1,-187.27,-71.619,-51.193,0,0.015407,0,1,2.695,0,-2.695,0
0,0,0,0,0,0,0.00013273,-0.000752,4.6973e-35,1.0352e-05,4.0566e-18,1.5697e-21,5.1804,0.00082659,-0.00075212,2.1633e-32,0.00013285,-51.079,-186.98,-71.499,1.5928,6.2343e-13,2.4434e-16,126.96,-187,-71.499,-51.061,0,0.015411,0,1,2.7,0,-2.7,0
0,0,0,0,0,0,0.00013281,-0.00075104,4.7321e-35,1.0304e-05,4.0418e-18,1.5152e-21,5.1615,0.00082569,-0.00075116,2.1774e-32,0.00013293,-50.946,-186.71,-71.378,1.5854,6.2116e-13,2.361e-16,126.82,-186.73,-71.378,-50.928,0,0.015414,0,1,2.705,0,-2.705,0
0,0,0,0,0,0,0.00013289,-0.00075007,4.7666e-35,1.0258e-05,4.0261e-18,1.4606e-21,5.1427,0.00082478,-0.00075019,2.1915e-32,0.00013301,-50.812,-186.44,-71.257,1.5783,6.1874e-13,2.2785e-16,126.68,-186.46,-71.257,-50.794,0,0.015418,0,1,2.71,0,-2.71,0
0,0,0,0,0,0,0.00013298,-0.0007491,4.8007e-35,1.0214e-05,4.0095e-18,1.406e-21,5.1238,0.00082387,-0.00074921,2.2056e-32,0.00013309,-50.678,-186.17,-71.135,1.5714,6.1619e-13,2.1959e-16,126.54,-186.19,-71.135,-50.66,0,0.015422,0,1,2.715,0,-2.715,0
0,0,0,0,0,0,0.00013306,-0.00074812,4.8345e-35,1.0171e-05,3.9919e-18,1.3513e-21,5.105,0.00082295,-0.00074823,2.2195e-32,0.00013317,-50.542,-185.9,-71.013,1.5649,6.1349e-13,2.1132e-16,126.4,-185.92,-71.013,-50.525,0,0.015426,0,1,2.72,0,-2.72,0
0,0,0,0,0,0,0.00013314,-0.00074714,4.868e-35,1.0131e-05,3.9734e-18,1.2966e-21,5.0861,0.00082203,-0.00074725,2.2335e-32,0.00013325,-50.407,-185.62,-70.89,1.5587,6.1064e-13,2.0304e-16,126.26,-185.64,-70.89,-50.389,0,0.015429,0,1,2.725,0,-2.725,0
0,0,0,0,0,0,0.00013322,-0.00074615,4.9011e-35,1.0093e-05,3.954e-18,1.2418e-21,5.0673,0.0008211,-0.00074626,2.2474e-32,0.00013334,-50.27,-185.35,-70.766,1.5528,6.0766e-13,1.9474e-16,126.12,-185.37,-70.766,-50.253,0,0.015433,0,1,2.73,0,-2.73,0
0,0,0,0,0,0,0.00013331,-0.00074516,4.9339e-35,1.0057e-05,3.9336e-18,1.1869e-21,5.0484,0.00082018,-0.00074527,2.2612e-32,0.00013342,-50.133,-185.07,-70.642,1.5472,6.0453e-13,1.8643e-16,125.97,-185.09,-70.642,-50.116,0,0.015437,0,1,2.735,0,-2.735,0
0,0,0,0,0,0,0.00013339,-0.00074417,4.9663e-35,1.0023e-05,3.9123e-18,1.132e-21,5.0295,0.00081924,-0.00074428,2.275e-32,0.0001335,-49.996,-184.8,-70.518,1.5419,6.0126e-13,1.7811e-16,125.83,-184.81,-70.518,-49.979,0,0.015441,0,1,2.74,0,-2.74,0
0,0,0,0,0,0,0.00013348,-0.00074317,4.9984e-35,9.9905e-06,3.8901e-18,1.077e-21,5.0107,0.00081831,-0.00074328,2.2887e-32,0.00013358,-49.857,-184.52,-70.393,1.5369,5.9784e-13,1.6977e-16,125.69,-184.54,-70.393,-49.841,0,0.015444,0,1,2.745,0,-2.745,0
0,0,0,0,0,0,0.00013356,-0.00074217,5.0302e-35,9.9602e-06,3.867e-18,1.022e-21,4.9918,0.00081737,-0.00074227,2.3024e-32,0.00013367,-49.718,-184.24,-70.267,1.5322,5.9429e-13,1.6143e-16,125.54,-184.26,-70.267,-49.702,0,0.015448,0,1,2.75,0,-2.75,0
0,0,0,0,0,0,0.00013365,-0.00074116,5.0616e-35,9.9319e-06,3.8429e-18,9.6685e-22,4.973,0.00081643,-0.00074127,2.316e-32,0.00013375,-49.579,-183.96,-70.141,1.5278,5.9059e-13,1.5307e-16,125.4,-183.98,-70.141,-49.563,0,0.015452,0,1,2.755,0,-2.755,0
0,0,0,0,0,0,0.00013374,-0.00074015,5.0927e-35,9.9056e-06,3.8179e-18,9.1168e-22,4.9541,0.00081548,-0.00074026,2.3296e-32,0.00013384,-49.439,-183.68,-70.014,1.5237,5.8674e-13,1.447e-16,125.26,-183.69,-70.014,-49.423,0,0.015455,0,1,2.76,0,-2.76,0
0,0,0,0,0,0,0.00013382,-0.00073914,5.1234e-35,9.8812e-06,3.792e-18,8.5645e-22,4.9353,0.00081453,-0.00073924,2.3431e-32,0.00013392,-49.298,-183.39,-69.887,1.5199,5.8276e-13,1.3631e-16,125.11,-183.41,-69.887,-49.282,0,0.015459,0,1,2.765,0,-2.765,0
0,0,0,0,0,0,0.00013391,-0.00073812,5.1538e-35,9.8588e-06,3.7651e-18,8.0116e-22,4.9164,0.00081358,-0.00073822,2.3566e-32,0.00013401,-49.157,-183.11,-69.759,1.5164,5.7863e-13,1.2792e-16,124.96,-183.13,-69.759,-49.141,0,0.015463,0,1,2.77,0,-2.77,0
0,0,0,0,0,0,0.000134,-0.0007371,5.1838e-35,9.8383e-06,3.7373e-18,7.4581e-22,4.8976,0.00081262,-0.0007372,2.37e-32,0.0001341,-49.015,-182.83,-69.631,1.5132,5.7435e-13,1.1951e-16,124.82,-182.84,-69.631,-49,0,0.015466,0,1,2.775,0,-2.775,0
0,0,0,0,0,0,0.00013409,-0.00073607,5.2135e-35,9.8199e-06,3.7086e-18,6.904e-22,4.8787,0.00081166,-0.00073617,2.3834e-32,0.00013419,-48.872,-182.54,-69.502,1.5103,5.6994e-13,1.1109e-16,124.67,-182.55,-69.502,-48.857,0,0.01547,0,1,2.78,0,-2.78,0
0,0,0,0,0,0,0.00013417,-0.00073504,5.2429e-35,9.8034e-06,3.6789e-18,6.3493e-22,4.8598,0.00081069,-0.00073514,2.3967e-32,0.00013427,-48.729,-182.25,-69.372,1.5078,5.6538e-13,1.0266e-16,124.52,-182.27,-69.372,-48.714,0,0.015474,0,1,2.785,0,-2.785,0
0,0,0,0,0,0,0.00013426,-0.000734,5.2719e-35,9.7889e-06,3.6483e-18,5.794e-22,4.841,0.00080973,-0.0007341,2.41e-32,0.00013436,-48.586,-181.96,-69.242,1.5055,5.6068e-13,9.4214e-17,124.37,-181.98,-69.242,-48.57,0,0.015477,0,1,2.79,0,-2.79,0
0,0,0,0,0,0,0.00013435,-0.00073296,5.3006e-35,9.7763e-06,3.6168e-18,5.2381e-22,4.8221,0.00080875,-0.00073306,2.4232e-32,0.00013445,-48.441,-181.67,-69.112,1.5035,5.5584e-13,8.5757e-17,124.22,-181.69,-69.112,-48.426,0,0.015481,0,1,2.795,0,-2.795,0
0,0,0,0,0,0,0.00013444,-0.00073192,5.329e-35,9.7657e-06,3.5844e-18,4.6816e-22,4.8033,0.00080778,-0.00073201,2.4364e-32,0.00013454,-48.296,-181.38,-68.981,1.5018,5.5085e-13,7.7288e-17,124.07,-181.4,-68.981,-48.281,0,0.015485,0,1,2.8,0,-2.8,0
0,0,0,0,0,0,0.00013453,-0.00073087,5.357e-35,9.7571e-06,3.551e-18,4.1244e-22,4.7844,0.0008068,-0.00073097,2.4495e-32,0.00013463,-48.151,-181.09,-68.849,1.5005,5.4572e-13,6.8806e-17,123.92,-181.1,-68.849,-48.136,0,0.015488,0,1,2.805,0,-2.805,0
0,0,0,0,0,0,0.00013463,-0.00072982,5.3846e-35,9.7504e-06,3.5167e-18,3.5667e-22,4.7656,0.00080582,-0.00072991,2.4626e-32,0.00013472,-48.004,-180.8,-68.717,1.4994,5.4045e-13,6.0312e-17,123.77,-180.81,-68.717,-47.99,0,0.015492,0,1,2.81,0,-2.81,0
0,0,0,0,0,0,0.00013472,-0.00072876,5.412e-35,9.7457e-06,3.4815e-18,3.0084e-22,4.7467,0.00080483,-0.00072886,2.4756e-32,0.00013481,-47.858,-180.5,-68.585,1.4987,5.3503e-13,5.1805e-17,123.62,-180.52,-68.585,-47.843,0,0.015495,0,1,2.815,0,-2.815,0
0,0,0,0,0,0,0.00013481,-0.0007277,5.4389e-35,9.743e-06,3.4453e-18,2.4495e-22,4.7279,0.00080384,-0.0007278,2.4886e-32,0.00013491,-47.71,-180.21,-68.451,1.4982,5.2947e-13,4.3286e-17,123.47,-180.22,-68.451,-47.695,0,0.015499,0,1,2.82,0,-2.82,0
0,0,0,0,0,0,0.0001349,-0.00072663,5.4656e-35,9.7423e-06,3.4082e-18,1.8899e-22,4.709,0.00080284,-0.00072673,2.5015e-32,0.000135,-47.562,-179.91,-68.318,1.4981,5.2377e-13,3.4755e-17,123.32,-179.92,-68.318,-47.547,0,0.015503,0,1,2.825,0,-2.825,0
0,0,0,0,0,0,0.00013499,-0.00072556,5.4919e-35,9.7435e-06,3.3702e-18,1.3298e-22,4.6902,0.00080185,-0.00072566,2.5143e-32,0.00013509,-47.414,-179.61,-68.183,1.4982,5.1793e-13,2.6212e-17,123.17,-179.62,-68.183,-47.399,0,0.015506,0,1,2.83,0,-2.83,0
0,0,0,0,0,0,0.00013509,-0.00072449,5.5178e-35,9.7467e-06,3.3312e-18,7.6902e-23,4.6713,0.00080085,-0.00072459,2.5272e-32,0.00013518,-47.264,-179.31,-68.049,1.4987,5.1194e-13,1.7656e-17,123.01,-179.33,-68.049,-47.249,0,0.01551,0,1,2.835,0,-2.835,0
0,0,0,0,0,0,0.00013518,-0.00072341,5.5435e-35,9.7519e-06,3.2913e-18,2.0768e-23,4.6524,0.00079984,-0.00072351,2.5399e-32,0.00013528,-47.114,-179.01,-67.913,1.4994,5.0581e-13,9.0879e-18,122.86,-179.02,-67.913,-47.1,0,0.015513,0,1,2.84,0,-2.84,0
0,0,0,0,0,0,0.00013528,-0.00072233,5.5687e-35,9.759e-06,3.2505e-18,-3.5429e-23,4.6336,0.00079883,-0.00072243,2.5526e-32,0.00013537,-46.964,-178.71,-67.777,1.5005,4.9953e-13,5.073e-19,122.7,-178.72,-67.777,-46.949,0,0.015517,0,1,2.845,0,-2.845,0
0,0,0,0,0,0,0.00013537,-0.00072124,5.5937e-35,9.7681e-06,3.2088e-18,-9.1683e-23,4.6147,0.00079782,-0.00072134,2.5653e-32,0.00013547,-46.813,-178.41,-67.641,1.5019,4.9312e-13,-8.0853e-18,122.55,-178.42,-67.641,-46.798,0,0.015521,0,1,2.85,0,-2.85,0
0,0,0,0,0,0,0.00013547,-0.00072015,5.6183e-35,9.7792e-06,3.1661e-18,-1.48e-22,4.5959,0.0007968,-0.00072025,2.5779e-32,0.00013556,-46.661,-178.1,-67.504,1.5036,4.8656e-13,-1.6691e-17,122.39,-178.12,-67.504,-46.646,0,0.015524,0,1,2.855,0,-2.855,0
0,0,0,0,0,0,0.00013556,-0.00071906,5.6425e-35,9.7922e-06,3.1225e-18,-2.0438e-22,4.577,0.00079578,-0.00071916,2.5905e-32,0.00013566,-46.509,-177.8,-67.366,1.5055,4.7986e-13,-2.5308e-17,122.24,-177.81,-67.366,-46.494,0,0.015528,0,1,2.86,0,-2.86,0
0,0,0,0,0,0,0.00013566,-0.00071796,5.6665e-35,9.8072e-06,3.078e-18,-2.6081e-22,4.5582,0.00079476,-0.00071806,2.603e-32,0.00013576,-46.356,-177.49,-67.228,1.5078,4.7301e-13,-3.3938e-17,122.08,-177.5,-67.228,-46.341,0,0.015531,0,1,2.865,0,-2.865,0
0,0,0,0,0,0,0.00013576,-0.00071686,5.69e-35,9.8242e-06,3.0325e-18,-3.1731e-22,4.5393,0.00079373,-0.00071696,2.6155e-32,0.00013586,-46.202,-177.18,-67.09,1.5104,4.6602e-13,-4.258e-17,121.92,-177.2,-67.09,-46.187,0,0.015535,0,1,2.87,0,-2.87,0
0,0,0,0,0,0,0.00013585,-0.00071575,5.7133e-35,9.8431e-06,2.9861e-18,-3.7387e-22,4.5205,0.0007927,-0.00071585,2.6279e-32,0.00013595,-46.048,-176.87,-66.951,1.5133,4.5889e-13,-5.1234e-17,121.76,-176.89,-66.951,-46.033,0,0.015538,0,1,2.875,0,-2.875,0
0,0,0,0,0,0,0.00013595,-0.00071464,5.7362e-35,9.864e-06,2.9388e-18,-4.3049e-22,4.5016,0.00079167,-0.00071474,2.6402e-32,0.00013605,-45.893,-176.56,-66.811,1.5165,4.5162e-13,-5.9901e-17,121.61,-176.58,-66.811,-45.878,0,0.015542,0,1,2.88,0,-2.88,0
0,0,0,0,0,0,0.00013605,-0.00071352,5.7587e-35,9.8869e-06,2.8905e-18,-4.8717e-22,4.4827,0.00079063,-0.00071363,2.6525e-32,0.00013615,-45.738,-176.25,-66.671,1.52,4.442e-13,-6.858e-17,121.45,-176.27,-66.671,-45.722,0,0.015545,0,1,2.885,0,-2.885,0
0,0,0,0,0,0,0.00013615,-0.0007124,5.7809e-35,9.9118e-06,2.8413e-18,-5.4391e-22,4.4639,0.00078959,-0.00071251,2.6648e-32,0.00013625,-45.582,-175.94,-66.53,1.5238,4.3664e-13,-7.7272e-17,121.29,-175.95,-66.53,-45.566,0,0.015549,0,1,2.89,0,-2.89,0
0,0,0,0,0,0,0.00013625,-0.00071128,5.8028e-35,9.9386e-06,2.7912e-18,-6.0071e-22,4.445,0.00078854,-0.00071139,2.677e-32,0.00013635,-45.425,-175.63,-66.389,1.5279,4.2894e-13,-8.5975e-17,121.13,-175.64,-66.389,-45.409,0,0.015552,0,1,2.895,0,-2.895,0
0,0,0,0,0,0,0.00013635,-0.00071015,5.8243e-35,9.9674e-06,2.7402e-18,-6.5757e-22,4.4262,0.00078749,-0.00071026,2.6892e-32,0.00013645,-45.268,-175.31,-66.247,1.5323,4.2109e-13,-9.4691e-17,120.97,-175.33,-66.247,-45.252,0,0.015556,0,1,2.9,0,-2.9,0
0,0,0,0,0,0,0.00013645,-0.00070902,5.8455e-35,9.9981e-06,2.6882e-18,-7.1449e-22,4.4073,0.00078644,-0.00070913,2.7013e-32,0.00013655,-45.11,-174.99,-66.104,1.537,4.1311e-13,-1.0342e-16,120.8,-175.01,-66.104,-45.094,0,0.015559,0,1,2.905,0,-2.905,0
0,0,0,0,0,0,0.00013655,-0.00070788,5.8664e-35,1.0031e-05,2.6353e-18,-7.7147e-22,4.3885,0.00078538,-0.00070799,2.7133e-32,0.00013666,-44.952,-174.68,-65.962,1.542,4.0497e-13,-1.1216e-16,120.64,-174.69,-65.962,-44.935,0,0.015563,0,1,2.91,0,-2.91,0
0,0,0,0,0,0,0.00013665,-0.00070674,5.8869e-35,1.0066e-05,2.5815e-18,-8.2851e-22,4.3696,0.00078432,-0.00070685,2.7253e-32,0.00013676,-44.793,-174.36,-65.818,1.5473,3.967e-13,-1.2091e-16,120.48,-174.38,-65.818,-44.776,0,0.015566,0,1,2.915,0,-2.915,0
0,0,0,0,0,0,0.00013675,-0.0007056,5.907e-35,1.0102e-05,2.5267e-18,-8.8561e-22,4.3508,0.00078326,-0.00070571,2.7373e-32,0.00013686,-44.633,-174.04,-65.674,1.5529,3.8828e-13,-1.2968e-16,120.32,-174.06,-65.674,-44.616,0,0.01557,0,1,2.92,0,-2.92,0
0,0,0,0,0,0,0.00013685,-0.00070445,5.9269e-35,1.0141e-05,2.471e-18,-9.4277e-22,4.3319,0.00078219,-0.00070456,2.7492e-32,0.00013697,-44.473,-173.72,-65.53,1.5588,3.7972e-13,-1.3846e-16,120.15,-173.74,-65.53,-44.456,0,0.015573,0,1,2.925,0,-2.925,0
0,0,0,0,0,0,0.00013696,-0.0007033,5.9464e-35,1.0181e-05,2.4144e-18,-1e-21,4.313,0.00078112,-0.00070341,2.761e-32,0.00013707,-44.312,-173.4,-65.385,1.5651,3.7102e-13,-1.4725e-16,119.99,-173.41,-65.385,-44.295,0,0.015577,0,1,2.93,0,-2.93,0
0,0,0,0,0,0,0.00013706,-0.00070214,5.9655e-35,1.0224e-05,2.3568e-18,-1.0573e-21,4.2942,0.00078005,-0.00070226,2.7729e-32,0.00013717,-44.151,-173.07,-65.239,1.5716,3.6217e-13,-1.5605e-16,119.82,-173.09,-65.239,-44.133,0,0.01558,0,1,2.935,0,-2.935,0
0,0,0,0,0,0,0.00013716,-0.00070098,5.9843e-35,1.0269e-05,2.2983e-18,-1.1146e-21,4.2753,0.00077897,-0.0007011,2.7846e-32,0.00013728,-43.989,-172.75,-65.093,1.5784,3.5318e-13,-1.6486e-16,119.66,-172.77,-65.093,-43.97,0,0.015583,0,1,2.94,0,-2.94,0
0,0,0,0,0,0,0.00013727,-0.00069981,6.0028e-35,1.0315e-05,2.2389e-18,-1.172e-21,4.2565,0.00077789,-0.00069993,2.7963e-32,0.00013739,-43.826,-172.42,-64.946,1.5856,3.4405e-13,-1.7369e-16,119.49,-172.44,-64.946,-43.807,0,0.015587,0,1,2.945,0,-2.945,0
0,0,0,0,0,0,0.00013737,-0.00069864,6.0209e-35,1.0364e-05,2.1786e-18,-1.2295e-21,4.2376,0.0007768,-0.00069876,2.808e-32,0.00013749,-43.662,-172.1,-64.799,1.593,3.3478e-13,-1.8253e-16,119.33,-172.12,-64.799,-43.644,0,0.01559,0,1,2.95,0,-2.95,0
0,0,0,0,0,0,0.00013748,-0.00069747,6.0387e-35,1.0414e-05,2.1173e-18,-1.287e-21,4.2188,0.00077571,-0.00069759,2.8196e-32,0.0001376,-43.499,-171.77,-64.651,1.6007,3.2536e-13,-1.9138e-16,119.16,-171.79,-64.651,-43.479,0,0.015594,0,1,2.955,0,-2.955,0
0,0,0,0,0,0,0.00013758,-0.00069629,6.0561e-35,1.0466e-05,2.0551e-18,-1.3446e-21,4.1999,0.00077462,-0.00069641,2.8311e-32,0.00013771,-43.334,-171.44,-64.503,1.6088,3.158e-13,-2.0025e-16,118.99,-171.46,-64.503,-43.315,0,0.015597,0,1,2.96,0,-2.96,0
0,0,0,0,0,0,0.00013769,-0.00069511,6.0732e-35,1.0521e-05,1.992e-18,-1.4022e-21,4.1811,0.00077352,-0.00069523,2.8426e-32,0.00013782,-43.169,-171.11,-64.354,1.6171,3.061e-13,-2.0912e-16,118.82,-171.13,-64.354,-43.149,0,0.0156,0,1,2.965,0,-2.965,0
0,0,0,0,0,0,0.00013779,-0.00069392,6.09e-35,1.0577e-05,1.9279e-18,-1.46e-21,4.1622,0.00077242,-0.00069405,2.8541e-32,0.00013792,-43.003,-170.78,-64.205,1.6258,2.9625e-13,-2.1801e-16,118.66,-170.8,-64.205,-42.983,0,0.015604,0,1,2.97,0,-2.97,0
0,0,0,0,0,0,0.0001379,-0.00069273,6.1064e-35,1.0635e-05,1.8629e-18,-1.5177e-21,4.1434,0.00077132,-0.00069286,2.8654e-32,0.00013803,-42.837,-170.45,-64.055,1.6347,2.8626e-13,-2.2691e-16,118.49,-170.47,-64.055,-42.816,0,0.015607,0,1,2.975,0,-2.975,0
0,0,0,0,0,0,0.00013801,-0.00069153,6.1225e-35,1.0696e-05,1.797e-18,-1.5755e-21,4.1245,0.00077021,-0.00069167,2.8768e-32,0.00013814,-42.67,-170.11,-63.904,1.644,2.7613e-13,-2.3582e-16,118.32,-170.13,-63.904,-42.649,0,0.015611,0,1,2.98,0,-2.98,0
0,0,0,0,0,0,0.00013812,-0.00069033,6.1382e-35,1.0758e-05,1.7301e-18,-1.6334e-21,4.1056,0.0007691,-0.00069047,2.8881e-32,0.00013825,-42.502,-169.78,-63.753,1.6536,2.6585e-13,-2.4475e-16,118.15,-169.8,-63.753,-42.481,0,0.015614,0,1,2.985,0,-2.985,0
0,0,0,0,0,0,0.00013822,-0.00068913,6.1536e-35,1.0822e-05,1.6623e-18,-1.6914e-21,4.0868,0.00076798,-0.00068927,2.8993e-32,0.00013836,-42.334,-169.44,-63.602,1.6634,2.5543e-13,-2.5369e-16,117.97,-169.46,-63.602,-42.312,0,0.015617,0,1,2.99,0,-2.99,0
0,0,0,0,0,0,0.00013833,-0.00068792,6.1687e-35,1.0888e-05,1.5936e-18,-1.7494e-21,4.0679,0.00076686,-0.00068807,2.9105e-32,0.00013848,-42.165,-169.1,-63.449,1.6736,2.4487e-13,-2.6264e-16,117.8,-169.13,-63.449,-42.143,0,0.015621,0,1,2.995,0,-2.995,0
0,0,0,0,0,0,0.00013844,-0.00068671,6.1834e-35,1.0957e-05,1.524e-18,-1.8075e-21,4.0491,0.00076574,-0.00068686,2.9217e-32,0.00013859,-41.995,-168.77,-63.297,1.6841,2.3417e-13,-2.716e-16,117.63,-168.79,-63.297,-41.973,0,0.015624,0,1,3,0,-3,0
0,0,0,0,0,0,0.00013855,-0.00068549,6.1978e-35,1.1027e-05,1.4534e-18,-1.8656e-21,4.0302,0.00076461,-0.00068564,2.9328e-32,0.0001387,-41.825,-168.43,-63.144,1.6949,2.2332e-13,-2.8058e-16,117.46,-168.45,-63.144,-41.802,0,0.015627,0,1,3.005,0,-3.005,0
0,0,0,0,0,0,0.00013866,-0.00068427,6.2118e-35,1.1099e-05,1.3819e-18,-1.9238e-21,4.0114,0.00076348,-0.00068443,2.9438e-32,0.00013881,-41.655,-168.09,-62.99,1.7059,2.1233e-13,-2.8956e-16,117.29,-168.11,-62.99,-41.631,0,0.015631,0,1,3.01,0,-3.01,0
0,0,0,0,0,0,0.00013877,-0.00068305,6.2255e-35,1.1173e-05,1.3095e-18,-1.982e-21,3.9925,0.00076235,-0.0006832,2.9548e-32,0.00013893,-41.483,-167.74,-62.836,1.7173,2.012e-13,-2.9856e-16,117.11,-167.77,-62.836,-41.46,0,0.015634,0,1,3.015,0,-3.015,0
0,0,0,0,0,0,0.00013888,-0.00068182,6.2388e-35,1.1249e-05,1.2361e-18,-2.0403e-21,3.9737,0.00076121,-0.00068198,2.9657e-32,0.00013904,-41.312,-167.4,-62.681,1.729,1.8992e-13,-3.0757e-16,116.94,-167.42,-62.681,-41.287,0,0.015637,0,1,3.02,0,-3.02,0
0,0,0,0,0,0,0.00013899,-0.00068059,6.2519e-35,1.1327e-05,1.1618e-18,-2.0987e-21,3.9548,0.00076007,-0.00068075,2.9766e-32,0.00013916,-41.139,-167.06,-62.526,1.741,1.785e-13,-3.166e-16,116.76,-167.08,-62.526,-41.114,0,0.015641,0,1,3.025,0,-3.025,0
0,0,0,0,0,0,0.00013911,-0.00067935,6.2645e-35,1.1407e-05,1.0866e-18,-2.1571e-21,3.9359,0.00075893,-0.00067951,2.9875e-32,0.00013927,-40.966,-166.71,-62.37,1.7533,1.6694e-13,-3.2564e-16,116.59,-166.74,-62.37,-40.94,0,0.015644,0,1,3.03,0,-3.03,0
0,0,0,0,0,0,0.00013922,-0.00067811,6.2769e-35,1.1489e-05,1.0104e-18,-2.2156e-21,3.9171,0.00075778,-0.00067828,2.9983e-32,0.00013939,-40.792,-166.36,-62.213,1.7659,1.5524e-13,-3.3468e-16,116.41,-166.39,-62.213,-40.766,0,0.015647,0,1,3.035,0,-3.035,0
0,0,0,0,0,0,0.00013933,-0.00067686,6.2888e-35,1.1573e-05,9.3335e-19,-2.2742e-21,3.8982,0.00075663,-0.00067703,3.009e-32,0.00013951,-40.618,-166.02,-62.056,1.7788,1.4339e-13,-3.4375e-16,116.23,-166.04,-62.056,-40.591,0,0.015651,0,1,3.04,0,-3.04,0
0,0,0,0,0,0,0.00013945,-0.00067561,6.3005e-35,1.1659e-05,8.5534e-19,-2.3328e-21,3.8794,0.00075547,-0.00067579,3.0197e-32,0.00013962,-40.443,-165.67,-61.899,1.792,1.314e-13,-3.5282e-16,116.06,-165.69,-61.899,-40.416,0,0.015654,0,1,3.045,0,-3.045,0
0,0,0,0,0,0,0.00013956,-0.00067436,6.3118e-35,1.1747e-05,7.7639e-19,-2.3915e-21,3.8605,0.00075431,-0.00067454,3.0303e-32,0.00013974,-40.267,-165.32,-61.741,1.8055,1.1927e-13,-3.619e-16,115.88,-165.34,-61.741,-40.24,0,0.015657,0,1,3.05,0,-3.05,0
0,0,0,0,0,0,0.00013967,-0.0006731,6.3228e-35,1.1836e-05,6.9652e-19,-2.4502e-21,3.8417,0.00075315,-0.00067328,3.0409e-32,0.00013986,-40.091,-164.97,-61.582,1.8193,1.0699e-13,-3.71e-16,115.7,-164.99,-61.582,-40.063,0,0.015661,0,1,3.055,0,-3.055,0
0,0,0,0,0,0,0.00013979,-0.00067184,6.3334e-35,1.1928e-05,6.1571e-19,-2.509e-21,3.8228,0.00075198,-0.00067202,3.0514e-32,0.00013998,-39.914,-164.61,-61.423,1.8334,9.4569e-14,-3.8011e-16,115.52,-164.64,-61.423,-39.886,0,0.015664,0,1,3.06,0,-3.06,0
0,0,0,0,0,0,0.00013991,-0.00067057,6.3437e-35,1.2022e-05,5.3398e-19,-2.5679e-21,3.804,0.00075081,-0.00067076,3.0619e-32,0.0001401,-39.737,-164.26,-61.264,1.8479,8.2007e-14,-3.8924e-16,115.34,-164.29,-61.264,-39.708,0,0.015667,0,1,3.065,0,-3.065,0
0,0,0,0,0,0,0.00014002,-0.0006693,6.3536e-35,1.2118e-05,4.5131e-19,-2.6268e-21,3.7851,0.00074964,-0.00066949,3.0724e-32,0.00014022,-39.559,-163.9,-61.103,1.8626,6.9302e-14,-3.9837e-16,115.16,-163.93,-61.103,-39.529,0,0.01567,0,1,3.07,0,-3.07,0
0,0,0,0,0,0,0.00014014,-0.00066802,6.3632e-35,1.2215e-05,3.6772e-19,-2.6857e-21,3.7663,0.00074846,-0.00066822,3.0828e-32,0.00014034,-39.38,-163.55,-60.943,1.8776,5.6453e-14,-4.0752e-16,114.98,-163.58,-60.943,-39.35,0,0.015674,0,1,3.075,0,-3.075,0
0,0,0,0,0,0,0.00014025,-0.00066675,6.3725e-35,1.2315e-05,2.832e-19,-2.7448e-21,3.7474,0.00074728,-0.00066695,3.0931e-32,0.00014046,-39.201,-163.19,-60.781,1.8929,4.3463e-14,-4.1668e-16,114.8,-163.22,-60.781,-39.17,0,0.015677,0,1,3.08,0,-3.08,0
0,0,0,0,0,0,0.00014037,-0.00066546,6.3814e-35,1.2417e-05,1.9774e-19,-2.8039e-21,3.7285,0.00074609,-0.00066567,3.1034e-32,0.00014058,-39.021,-162.83,-60.62,1.9086,3.0328e-14,-4.2585e-16,114.62,-162.86,-60.62,-38.989,0,0.01568,0,1,3.085,0,-3.085,0
0,0,0,0,0,0,0.00014049,-0.00066417,6.39e-35,1.252e-05,1.1136e-19,-2.863e-21,3.7097,0.0007449,-0.00066439,3.1136e-32,0.0001407,-38.841,-162.47,-60.457,1.9245,1.7052e-14,-4.3504e-16,114.44,-162.5,-60.457,-38.808,0,0.015683,0,1,3.09,0,-3.09,0
0,0,0,0,0,0,0.00014061,-0.00066288,6.3982e-35,1.2626e-05,2.404e-20,-2.9222e-21,3.6908,0.00074371,-0.0006631,3.1238e-32,0.00014082,-38.66,-162.11,-60.294,1.9408,3.6316e-15,-4.4423e-16,114.26,-162.14,-60.294,-38.626,0,0.015686,0,1,3.095,0,-3.095,0
0,0,0,0,0,0,0.00014073,-0.00066159,6.4061e-35,1.2733e-05,-6.4202e-20,-2.9815e-21,3.672,0.00074251,-0.00066181,3.1339e-32,0.00014095,-38.478,-161.75,-60.131,1.9573,-9.9309e-15,-4.5344e-16,114.07,-161.78,-60.131,-38.444,0,0.01569,0,1,3.1,0,-3.1,0
0,0,0,0,0,0,0.00014085,-0.00066029,6.4137e-35,1.2843e-05,-1.5338e-19,-3.0409e-21,3.6531,0.00074132,-0.00066051,3.144e-32,0.00014107,-38.296,-161.39,-59.967,1.9741,-2.3637e-14,-4.6266e-16,113.89,-161.42,-59.967,-38.261,0,0.015693,0,1,3.105,0,-3.105,0
0,0,0,0,0,0,0.00014097,-0.00065898,6.4209e-35,1.2954e-05,-2.4348e-19,-3.1003e-21,3.6343,0.00074011,-0.00065921,3.154e-32,0.0001412,-38.113,-161.02,-59.802,1.9913,-3.7485e-14,-4.719e-16,113.7,-161.06,-59.802,-38.077,0,0.015696,0,1,3.11,0,-3.11,0
0,0,0,0,0,0,0.00014109,-0.00065767,6.4278e-35,1.3068e-05,-3.3452e-19,-3.1597e-21,3.6154,0.0007389,-0.00065791,3.164e-32,0.00014132,-37.929,-160.66,-59.637,2.0088,-5.1477e-14,-4.8114e-16,113.52,-160.69,-59.637,-37.893,0,0.015699,0,1,3.115,0,-3.115,0
0,0,0,0,0,0,0.00014121,-0.00065636,6.4343e-35,1.3183e-05,-4.2648e-19,-3.2192e-21,3.5966,0.00073769,-0.0006566,3.1739e-32,0.00014145,-37.745,-160.29,-59.472,2.0265,-6.5611e-14,-4.904e-16,113.33,-160.32,-59.472,-37.708,0,0.015703,0,1,3.12,0,-3.12,0
0,0,0,0,0,0,0.00014133,-0.00065504,6.4405e-35,1.3301e-05,-5.1938e-19,-3.2788e-21,3.5777,0.00073648,-0.00065529,3.1838e-32,0.00014157,-37.56,-159.92,-59.306,2.0446,-7.9889e-14,-4.9967e-16,113.15,-159.96,-59.306,-37.523,0,0.015706,0,1,3.125,0,-3.125,0
0,0,0,0,0,0,0.00014145,-0.00065372,6.4464e-35,1.342e-05,-6.132e-19,-3.3385e-21,3.5588,0.00073526,-0.00065397,3.1936e-32,0.0001417,-37.375,-159.55,-59.139,2.0629,-9.431e-14,-5.0896e-16,112.96,-159.59,-59.139,-37.337,0,0.015709,0,1,3.13,0,-3.13,0
0,0,0,0,0,0,0.00014157,-0.0006524,6.4519e-35,1.3541e-05,-7.0796e-19,-3.3982e-21,3.54,0.00073404,-0.00065265,3.2034e-32,0.00014183,-37.189,-159.18,-58.972,2.0816,-1.0887e-13,-5.1825e-16,112.77,-159.22,-58.972,-37.15,0,0.015712,0,1,3.135,0,-3.135,0
0,0,0,0,0,0,0.00014169,-0.00065107,6.4571e-35,1.3665e-05,-8.0364e-19,-3.4579e-21,3.5211,0.00073281,-0.00065133,3.2131e-32,0.00014195,-37.002,-158.81,-58.804,2.1006,-1.2358e-13,-5.2756e-16,112.59,-158.85,-58.804,-36.962,0,0.015715,0,1,3.14,0,-3.14,0
0,0,0,0,0,0,0.00014182,-0.00064973,6.4619e-35,1.379e-05,-9.0025e-19,-3.5177e-21,3.5023,0.00073158,-0.00065,3.2228e-32,0.00014208,-36.815,-158.44,-58.636,2.1199,-1.3843e-13,-5.3688e-16,112.4,-158.48,-58.636,-36.774,0,0.015718,0,1,3.145,0,-3.145,0
0,0,0,0,0,0,0.00014194,-0.00064839,6.4664e-35,1.3917e-05,-9.978e-19,-3.5776e-21,3.4834,0.00073035,-0.00064866,3.2324e-32,0.00014221,-36.627,-158.06,-58.467,2.1394,-1.5342e-13,-5.4621e-16,112.21,-158.1,-58.467,-36.586,0,0.015721,0,1,3.15,0,-3.15,0
0,0,0,0,0,0,0.00014206,-0.00064705,6.4706e-35,1.4046e-05,-1.0963e-18,-3.6376e-21,3.4646,0.00072912,-0.00064733,3.242e-32,0.00014234,-36.439,-157.69,-58.298,2.1593,-1.6856e-13,-5.5556e-16,112.02,-157.73,-58.298,-36.397,0,0.015725,0,1,3.155,0,-3.155,0
0,0,0,0,0,0,0.00014219,-0.00064571,6.4744e-35,1.4178e-05,-1.1957e-18,-3.6976e-21,3.4457,0.00072788,-0.00064599,3.2515e-32,0.00014247,-36.25,-157.31,-58.128,2.1795,-1.8383e-13,-5.6491e-16,111.83,-157.35,-58.128,-36.207,0,0.015728,0,1,3.16,0,-3.16,0
0,0,0,0,0,0,0.00014231,-0.00064436,6.4778e-35,1.4311e-05,-1.296e-18,-3.7576e-21,3.4269,0.00072663,-0.00064464,3.261e-32,0.0001426,-36.06,-156.93,-57.957,2.2,-1.9925e-13,-5.7428e-16,111.64,-156.98,-57.957,-36.016,0,0.015731,0,1,3.165,0,-3.165,0
0,0,0,0,0,0,0.00014244,-0.000643,6.481e-35,1.4446e-05,-1.3973e-18,-3.8177e-21,3.408,0.00072538,-0.00064329,3.2704e-32,0.00014273,-35.87,-156.55,-57.786,2.2208,-2.1482e-13,-5.8366e-16,111.45,-156.6,-57.786,-35.825,0,0.015734,0,1,3.17,0,-3.17,0
0,0,0,0,0,0,0.00014257,-0.00064164,6.4838e-35,1.4583e-05,-1.4995e-18,-3.8779e-21,3.3891,0.00072413,-0.00064194,3.2798e-32,0.00014286,-35.679,-156.17,-57.615,2.2419,-2.3052e-13,-5.9306e-16,111.25,-156.22,-57.615,-35.633,0,0.015737,0,1,3.175,0,-3.175,0
0,0,0,0,0,0,0.00014269,-0.00064028,6.4862e-35,1.4722e-05,-1.6026e-18,-3.9382e-21,3.3703,0.00072288,-0.00064058,3.2891e-32,0.000143,-35.487,-155.79,-57.443,2.2633,-2.4637e-13,-6.0246e-16,111.06,-155.84,-57.443,-35.441,0,0.01574,0,1,3.18,0,-3.18,0
0,0,0,0,0,0,0.00014282,-0.00063891,6.4883e-35,1.4863e-05,-1.7067e-18,-3.9985e-21,3.3514,0.00072162,-0.00063922,3.2984e-32,0.00014313,-35.295,-155.41,-57.27,2.285,-2.6237e-13,-6.1188e-16,110.87,-155.46,-57.27,-35.248,0,0.015743,0,1,3.185,0,-3.185,0
0,0,0,0,0,0,0.00014295,-0.00063754,6.4901e-35,1.5006e-05,-1.8116e-18,-4.0588e-21,3.3326,0.00072036,-0.00063785,3.3076e-32,0.00014326,-35.103,-155.03,-57.097,2.307,-2.785e-13,-6.2131e-16,110.68,-155.08,-57.097,-35.054,0,0.015746,0,1,3.19,0,-3.19,0
0,0,0,0,0,0,0.00014307,-0.00063616,6.4915e-35,1.5151e-05,-1.9175e-18,-4.1193e-21,3.3137,0.00071909,-0.00063649,3.3167e-32,0.0001434,-34.909,-154.64,-56.923,2.3293,-2.9478e-13,-6.3076e-16,110.48,-154.69,-56.923,-34.86,0,0.015749,0,1,3.195,0,-3.195,0
0,0,0,0,0,0,0.0001432,-0.00063478,6.4926e-35,1.5298e-05,-2.0244e-18,-4.1798e-21,3.2949,0.00071782,-0.00063511,3.3259e-32,0.00014353,-34.715,-154.26,-56.749,2.3519,-3.112e-13,-6.4021e-16,110.29,-154.31,-56.749,-34.665,0,0.015753,0,1,3.2,0,-3.2,0
0,0,0,0,0,0,0.00014333,-0.0006334,6.4933e-35,1.5447e-05,-2.1322e-18,-4.2403e-21,3.276,0.00071655,-0.00063373,3.3349e-32,0.00014367,-34.521,-153.87,-56.574,2.3748,-3.2777e-13,-6.4968e-16,110.09,-153.92,-56.574,-34.47,0,0.015756,0,1,3.205,0,-3.205,0
0,0,0,0,0,0,0.00014346,-0.00063201,6.4938e-35,1.5598e-05,-2.2409e-18,-4.3009e-21,3.2572,0.00071527,-0.00063235,3.3439e-32,0.0001438,-34.326,-153.48,-56.399,2.3981,-3.4447e-13,-6.5916e-16,109.9,-153.53,-56.399,-34.273,0,0.015759,0,1,3.21,0,-3.21,0
0,0,0,0,0,0,0.00014359,-0.00063062,6.4938e-35,1.575e-05,-2.3505e-18,-4.3616e-21,3.2383,0.00071399,-0.00063096,3.3529e-32,0.00014394,-34.13,-153.09,-56.223,2.4216,-3.6132e-13,-6.6865e-16,109.7,-153.15,-56.223,-34.077,0,0.015762,0,1,3.215,0,-3.215,0
0,0,0,0,0,0,0.00014372,-0.00062922,6.4935e-35,1.5905e-05,-2.4611e-18,-4.4223e-21,3.2195,0.00071271,-0.00062957,3.3618e-32,0.00014407,-33.934,-152.7,-56.047,2.4454,-3.7832e-13,-6.7816e-16,109.5,-152.76,-56.047,-33.879,0,0.015765,0,1,3.22,0,-3.22,0
0,0,0,0,0,0,0.00014385,-0.00062782,6.4929e-35,1.6062e-05,-2.5726e-18,-4.4831e-21,3.2006,0.00071142,-0.00062818,3.3707e-32,0.00014421,-33.737,-152.31,-55.87,2.4695,-3.9545e-13,-6.8768e-16,109.31,-152.37,-55.87,-33.681,0,0.015768,0,1,3.225,0,-3.225,0
0,0,0,0,0,0,0.00014398,-0.00062642,6.492e-35,1.6221e-05,-2.685e-18,-4.5439e-21,3.1817,0.00071013,-0.00062678,3.3795e-32,0.00014435,-33.539,-151.92,-55.692,2.494,-4.1273e-13,-6.9721e-16,109.11,-151.97,-55.692,-33.483,0,0.015771,0,1,3.23,0,-3.23,0
0,0,0,0,0,0,0.00014411,-0.00062501,6.4907e-35,1.6381e-05,-2.7983e-18,-4.6048e-21,3.1629,0.00070883,-0.00062538,3.3883e-32,0.00014449,-33.341,-151.52,-55.514,2.5187,-4.3015e-13,-7.0675e-16,108.91,-151.58,-55.514,-33.283,0,0.015774,0,1,3.235,0,-3.235,0
0,0,0,0,0,0,0.00014425,-0.00062359,6.489e-35,1.6544e-05,-2.9126e-18,-4.6658e-21,3.144,0.00070753,-0.00062397,3.397e-32,0.00014463,-33.142,-151.13,-55.336,2.5438,-4.4772e-13,-7.163e-16,108.71,-151.19,-55.336,-33.084,0,0.015777,0,1,3.24,0,-3.24,0
0,0,0,0,0,0,0.00014438,-0.00062217,6.487e-35,1.6709e-05,-3.0278e-18,-4.7268e-21,3.1252,0.00070623,-0.00062256,3.4056e-32,0.00014477,-32.942,-150.73,-55.157,2.5691,-4.6543e-13,-7.2587e-16,108.51,-150.79,-55.157,-32.883,0,0.01578,0,1,3.245,0,-3.245,0
0,0,0,0,0,0,0.00014451,-0.00062075,6.4847e-35,1.6875e-05,-3.144e-18,-4.7879e-21,3.1063,0.00070492,-0.00062115,3.4142e-32,0.00014491,-32.742,-150.33,-54.977,2.5948,-4.8328e-13,-7.3545e-16,108.31,-150.4,-54.977,-32.682,0,0.015783,0,1,3.25,0,-3.25,0
0,0,0,0,0,0,0.00014465,-0.00061933,6.4821e-35,1.7044e-05,-3.2611e-18,-4.8491e-21,3.0875,0.00070361,-0.00061973,3.4228e-32,0.00014505,-32.542,-149.94,-54.797,2.6207,-5.0127e-13,-7.4504e-16,108.11,-150,-54.797,-32.48,0,0.015786,0,1,3.255,0,-3.255,0
0,0,0,0,0,0,0.00014478,-0.0006179,6.4791e-35,1.7214e-05,-3.3791e-18,-4.9103e-21,3.0686,0.0007023,-0.0006183,3.4313e-32,0.00014519,-32.34,-149.54,-54.616,2.647,-5.1941e-13,-7.5464e-16,107.91,-149.6,-54.616,-32.278,0,0.015789,0,1,3.26,0,-3.26,0
0,0,0,0,0,0,0.00014491,-0.00061646,6.4757e-35,1.7387e-05,-3.498e-18,-4.9716e-21,3.0498,0.00070098,-0.00061688,3.4398e-32,0.00014533,-32.139,-149.13,-54.435,2.6735,-5.3769e-13,-7.6426e-16,107.71,-149.2,-54.435,-32.075,0,0.015792,0,1,3.265,0,-3.265,0
0,0,0,0,0,0,0.00014505,-0.00061502,6.472e-35,1.7562e-05,-3.6179e-18,-5.0329e-21,3.0309,0.00069966,-0.00061544,3.4482e-32,0.00014547,-31.936,-148.73,-54.253,2.7004,-5.5611e-13,-7.7389e-16,107.5,-148.8,-54.253,-31.871,0,0.015795,0,1,3.27,0,-3.27,0
0,0,0,0,0,0,0.00014519,-0.00061358,6.468e-35,1.7738e-05,-3.7387e-18,-5.0943e-21,3.012,0.00069834,-0.00061401,3.4565e-32,0.00014561,-31.733,-148.33,-54.071,2.7275,-5.7468e-13,-7.8353e-16,107.3,-148.39,-54.071,-31.667,0,0.015798,0,1,3.275,0,-3.275,0
0,0,0,0,0,0,0.00014532,-0.00061213,6.4636e-35,1.7916e-05,-3.8604e-18,-5.1557e-21,2.9932,0.00069701,-0.00061257,3.4648e-32,0.00014576,-31.529,-147.92,-53.888,2.755,-5.9338e-13,-7.9318e-16,107.1,-147.99,-53.888,-31.462,0,0.015801,0,1,3.28,0,-3.28,0
0,0,0,0,0,0,0.00014546,-0.00061068,6.4589e-35,1.8097e-05,-3.983e-18,-5.2173e-21,2.9743,0.00069568,-0.00061112,3.4731e-32,0.0001459,-31.325,-147.52,-53.705,2.7828,-6.1224e-13,-8.0285e-16,106.89,-147.59,-53.705,-31.257,0,0.015804,0,1,3.285,0,-3.285,0
0,0,0,0,0,0,0.00014559,-0.00060923,6.4539e-35,1.8279e-05,-4.1066e-18,-5.2788e-21,2.9555,0.00069434,-0.00060968,3.4813e-32,0.00014605,-31.12,-147.11,-53.521,2.8109,-6.3123e-13,-8.1252e-16,106.69,-147.18,-53.521,-31.05,0,0.015807,0,1,3.29,0,-3.29,0
0,0,0,0,0,0,0.00014573,-0.00060777,6.4485e-35,1.8463e-05,-4.2311e-18,-5.3405e-21,2.9366,0.000693,-0.00060822,3.4894e-32,0.00014619,-30.914,-146.7,-53.336,2.8392,-6.5037e-13,-8.2221e-16,106.48,-146.77,-53.336,-30.844,0,0.01581,0,1,3.295,0,-3.295,0
0,0,0,0,0,0,0.00014587,-0.0006063,6.4428e-35,1.865e-05,-4.3566e-18,-5.4022e-21,2.9178,0.00069166,-0.00060677,3.4975e-32,0.00014634,-30.708,-146.29,-53.151,2.8679,-6.6965e-13,-8.3192e-16,106.28,-146.37,-53.151,-30.636,0,0.015813,0,1,3.3,0,-3.3,0
0,0,0,0,0,0,0.00014601,-0.00060483,6.4367e-35,1.8838e-05,-4.483e-18,-5.4639e-21,2.8989,0.00069031,-0.00060531,3.5056e-32,0.00014648,-30.501,-145.88,-52.965,2.8969,-6.8907e-13,-8.4163e-16,106.07,-145.96,-52.965,-30.428,0,0.015816,0,1,3.305,0,-3.305,0
0,0,0,0,0,0,0.00014615,-0.00060336,6.4303e-35,1.9028e-05,-4.6103e-18,-5.5257e-21,2.8801,0.00068896,-0.00060384,3.5136e-32,0.00014663,-30.294,-145.47,-52.779,2.9262,-7.0864e-13,-8.5136e-16,105.86,-145.55,-52.779,-30.22,0,0.015818,0,1,3.31,0,-3.31,0
0,0,0,0,0,0,0.00014583,-0.00060276,6.4138e-35,1.8823e-05,-4.6157e-18,-5.4534e-21,2.8784,0.00068816,-0.00060324,3.5267e-32,0.00014631,-30.309,-145.35,-52.746,2.8947,-7.0947e-13,-8.4027e-16,105.74,-145.42,-52.746,-30.235,0,0.015822,0,1,3.315,0,-3.315,0
0,0,0,0,0,0,0.00014552,-0.00060216,6.3973e-35,1.8619e-05,-4.621e-18,-5.3814e-21,2.8767,0.00068736,-0.00060263,3.5397e-32,0.00014599,-30.324,-145.22,-52.713,2.8633,-7.1029e-13,-8.2924e-16,105.62,-145.29,-52.713,-30.251,0,0.015825,0,1,3.32,0,-3.32,0
0,0,0,0,0,0,0.00014521,-0.00060156,6.3809e-35,1.8416e-05,-4.6263e-18,-5.3098e-21,2.875,0.00068656,-0.00060202,3.5525e-32,0.00014568,-30.338,-145.09,-52.679,2.832,-7.111e-13,-8.1828e-16,105.49,-145.17,-52.679,-30.266,0,0.015828,0,1,3.325,0,-3.325,0
0,0,0,0,0,0,0.0001449,-0.00060096,6.3645e-35,1.8214e-05,-4.6314e-18,-5.2386e-21,2.8733,0.00068575,-0.00060142,3.5652e-32,0.00014536,-30.352,-144.97,-52.646,2.801,-7.1189e-13,-8.0737e-16,105.37,-145.04,-52.646,-30.281,0,0.015831,0,1,3.33,0,-3.33,0
0,0,0,0,0,0,0.00014459,-0.00060035,6.3481e-35,1.8013e-05,-4.6365e-18,-5.1677e-21,2.8716,0.00068495,-0.00060081,3.5778e-32,0.00014504,-30.367,-144.84,-52.612,2.7701,-7.1268e-13,-7.9651e-16,105.25,-144.91,-52.612,-30.296,0,0.015834,0,1,3.335,0,-3.335,0
0,0,0,0,0,0,0.00014428,-0.00059975,6.3318e-35,1.7813e-05,-4.6415e-18,-5.0973e-21,2.8699,0.00068415,-0.0006002,3.5902e-32,0.00014473,-30.381,-144.72,-52.578,2.7394,-7.1344e-13,-7.8572e-16,105.12,-144.79,-52.578,-30.311,0,0.015837,0,1,3.34,0,-3.34,0
0,0,0,0,0,0,0.00014397,-0.00059914,6.3155e-35,1.7615e-05,-4.6464e-18,-5.0272e-21,2.8682,0.00068334,-0.00059959,3.6026e-32,0.00014441,-30.394,-144.59,-52.544,2.7088,-7.142e-13,-7.7498e-16,105,-144.66,-52.544,-30.326,0,0.01584,0,1,3.345,0,-3.345,0
0,0,0,0,0,0,0.00014366,-0.00059854,6.2993e-35,1.7417e-05,-4.6512e-18,-4.9575e-21,2.8665,0.00068254,-0.00059898,3.6147e-32,0.0001441,-30.408,-144.46,-52.51,2.6784,-7.1494e-13,-7.6431e-16,104.88,-144.53,-52.51,-30.34,0,0.015843,0,1,3.35,0,-3.35,0
0,0,0,0,0,0,0.00014335,-0.00059793,6.2831e-35,1.722e-05,-4.656e-18,-4.8882e-21,2.8648,0.00068173,-0.00059837,3.6268e-32,0.00014378,-30.422,-144.33,-52.476,2.6482,-7.1567e-13,-7.5369e-16,104.75,-144.4,-52.476,-30.355,0,0.015846,0,1,3.355,0,-3.355,0
0,0,0,0,0,0,0.00014304,-0.00059733,6.267e-35,1.7025e-05,-4.6606e-18,-4.8193e-21,2.8631,0.00068093,-0.00059776,3.6387e-32,0.00014347,-30.435,-144.21,-52.442,2.6181,-7.1639e-13,-7.4313e-16,104.63,-144.27,-52.442,-30.369,0,0.015849,0,1,3.36,0,-3.36,0
0,0,0,0,0,0,0.00014273,-0.00059672,6.2508e-35,1.6831e-05,-4.6652e-18,-4.7507e-21,2.8614,0.00068012,-0.00059714,3.6504e-32,0.00014315,-30.448,-144.08,-52.407,2.5882,-7.171e-13,-7.3263e-16,104.51,-144.15,-52.407,-30.383,0,0.015853,0,1,3.365,0,-3.365,0
0,0,0,0,0,0,0.00014242,-0.00059611,6.2348e-35,1.6637e-05,-4.6697e-18,-4.6826e-21,2.8597,0.00067932,-0.00059653,3.6621e-32,0.00014284,-30.461,-143.95,-52.373,2.5585,-7.1779e-13,-7.2219e-16,104.38,-144.02,-52.373,-30.396,0,0.015856,0,1,3.37,0,-3.37,0
0,0,0,0,0,0,0.00014211,-0.0005955,6.2187e-35,1.6445e-05,-4.6741e-18,-4.6148e-21,2.858,0.00067851,-0.00059592,3.6736e-32,0.00014252,-30.474,-143.82,-52.338,2.529,-7.1847e-13,-7.118e-16,104.26,-143.89,-52.338,-30.41,0,0.015859,0,1,3.375,0,-3.375,0
0,0,0,0,0,0,0.0001418,-0.00059489,6.2028e-35,1.6254e-05,-4.6784e-18,-4.5474e-21,2.8563,0.0006777,-0.0005953,3.685e-32,0.00014221,-30.486,-143.7,-52.303,2.4996,-7.1913e-13,-7.0147e-16,104.14,-143.76,-52.303,-30.423,0,0.015862,0,1,3.38,0,-3.38,0
0,0,0,0,0,0,0.00014149,-0.00059428,6.1868e-35,1.6064e-05,-4.6826e-18,-4.4804e-21,2.8546,0.00067689,-0.00059469,3.6962e-32,0.0001419,-30.499,-143.57,-52.268,2.4703,-7.1978e-13,-6.9121e-16,104.01,-143.63,-52.268,-30.437,0,0.015865,0,1,3.385,0,-3.385,0
0,0,0,0,0,0,0.00014119,-0.00059367,6.1709e-35,1.5875e-05,-4.6868e-18,-4.4137e-21,2.8529,0.00067609,-0.00059407,3.7073e-32,0.00014159,-30.511,-143.44,-52.233,2.4413,-7.2042e-13,-6.81e-16,103.89,-143.5,-52.233,-30.45,0,0.015868,0,1,3.39,0,-3.39,0
0,0,0,0,0,0,0.00014088,-0.00059306,6.155e-35,1.5687e-05,-4.6909e-18,-4.3475e-21,2.8512,0.00067528,-0.00059345,3.7183e-32,0.00014127,-30.523,-143.31,-52.198,2.4124,-7.2105e-13,-6.7085e-16,103.76,-143.37,-52.198,-30.463,0,0.015871,0,1,3.395,0,-3.395,0
0,0,0,0,0,0,0.00014057,-0.00059245,6.1392e-35,1.55e-05,-4.6949e-18,-4.2816e-21,2.8495,0.00067447,-0.00059284,3.7291e-32,0.00014096,-30.535,-143.18,-52.163,2.3836,-7.2167e-13,-6.6075e-16,103.64,-143.24,-52.163,-30.475,0,0.015874,0,1,3.4,0,-3.4,0
0,0,0,0,0,0,0.00014027,-0.00059183,6.1234e-35,1.5314e-05,-4.6988e-18,-4.2161e-21,2.8478,0.00067366,-0.00059222,3.7398e-32,0.00014065,-30.547,-143.05,-52.127,2.355,-7.2227e-13,-6.5072e-16,103.51,-143.11,-52.127,-30.488,0,0.015877,0,1,3.405,0,-3.405,0
0,0,0,0,0,0,0.00013996,-0.00059122,6.1076e-35,1.5129e-05,-4.7026e-18,-4.151e-21,2.8461,0.00067285,-0.0005916,3.7504e-32,0.00014034,-30.558,-142.92,-52.092,2.3266,-7.2285e-13,-6.4074e-16,103.39,-142.98,-52.092,-30.5,0,0.01588,0,1,3.41,0,-3.41,0
0,0,0,0,0,0,0.00013965,-0.00059061,6.0919e-35,1.4946e-05,-4.7063e-18,-4.0862e-21,2.8444,0.00067204,-0.00059098,3.7608e-32,0.00014003,-30.57,-142.79,-52.056,2.2984,-7.2343e-13,-6.3083e-16,103.27,-142.85,-52.056,-30.512,0,0.015883,0,1,3.415,0,-3.415,0
0,0,0,0,0,0,0.00013935,-0.00058999,6.0763e-35,1.4763e-05,-4.71e-18,-4.0219e-21,2.8427,0.00067123,-0.00059036,3.7711e-32,0.00013972,-30.581,-142.66,-52.02,2.2703,-7.2399e-13,-6.2097e-16,103.14,-142.72,-52.02,-30.524,0,0.015886,0,1,3.42,0,-3.42,0
0,0,0,0,0,0,0.00013904,-0.00058938,6.0606e-35,1.4582e-05,-4.7135e-18,-3.9579e-21,2.841,0.00067042,-0.00058974,3.7812e-32,0.00013941,-30.592,-142.53,-51.984,2.2424,-7.2454e-13,-6.1117e-16,103.02,-142.59,-51.984,-30.536,0,0.015889,0,1,3.425,0,-3.425,0
0,0,0,0,0,0,0.00013874,-0.00058876,6.045e-35,1.4401e-05,-4.717e-18,-3.8943e-21,2.8393,0.00066961,-0.00058912,3.7913e-32,0.0001391,-30.603,-142.4,-51.948,2.2147,-7.2508e-13,-6.0142e-16,102.89,-142.46,-51.948,-30.547,0,0.015892,0,1,3.43,0,-3.43,0
0,0,0,0,0,0,0.00013844,-0.00058814,6.0295e-35,1.4222e-05,-4.7204e-18,-3.8311e-21,2.8376,0.00066879,-0.0005885,3.8012e-32,0.00013879,-30.614,-142.27,-51.912,2.1871,-7.256e-13,-5.9174e-16,102.77,-142.32,-51.912,-30.559,0,0.015895,0,1,3.435,0,-3.435,0
0,0,0,0,0,0,0.00013813,-0.00058752,6.014e-35,1.4044e-05,-4.7237e-18,-3.7683e-21,2.8359,0.00066798,-0.00058787,3.8109e-32,0.00013848,-30.624,-142.14,-51.876,2.1597,-7.2611e-13,-5.8211e-16,102.64,-142.19,-51.876,-30.57,0,0.015898,0,1,3.44,0,-3.44,0
0,0,0,0,0,0,0.00013783,-0.0005869,5.9985e-35,1.3867e-05,-4.7269e-18,-3.7058e-21,2.8342,0.00066717,-0.00058725,3.8206e-32,0.00013817,-30.634,-142.01,-51.84,2.1325,-7.2661e-13,-5.7255e-16,102.52,-142.06,-51.84,-30.581,0,0.015901,0,1,3.445,0,-3.445,0
0,0,0,0,0,0,0.00013752,-0.00058628,5.9831e-35,1.369e-05,-4.7301e-18,-3.6438e-21,2.8325,0.00066636,-0.00058663,3.8301e-32,0.00013787,-30.645,-141.87,-51.803,2.1054,-7.2709e-13,-5.6304e-16,102.39,-141.93,-51.803,-30.592,0,0.015904,0,1,3.45,0,-3.45,0
0,0,0,0,0,0,0.00013722,-0.00058566,5.9677e-35,1.3515e-05,-4.7331e-18,-3.5821e-21,2.8308,0.00066554,-0.000586,3.8394e-32,0.00013756,-30.655,-141.74,-51.766,2.0785,-7.2756e-13,-5.5359e-16,102.27,-141.79,-51.766,-30.603,0,0.015907,0,1,3.455,0,-3.455,0
0,0,0,0,0,0,0.00013692,-0.00058504,5.9523e-35,1.3341e-05,-4.7361e-18,-3.5208e-21,2.8291,0.00066473,-0.00058537,3.8486e-32,0.00013725,-30.664,-141.61,-51.73,2.0517,-7.2802e-13,-5.442e-16,102.14,-141.66,-51.73,-30.613,0,0.01591,0,1,3.46,0,-3.46,0
0,0,0,0,0,0,0.00013662,-0.00058442,5.937e-35,1.3169e-05,-4.739e-18,-3.4599e-21,2.8274,0.00066391,-0.00058475,3.8577e-32,0.00013694,-30.674,-141.48,-51.693,2.0251,-7.2847e-13,-5.3486e-16,102.02,-141.53,-51.693,-30.624,0,0.015913,0,1,3.465,0,-3.465,0
0,0,0,0,0,0,0.00013631,-0.0005838,5.9218e-35,1.2997e-05,-4.7418e-18,-3.3993e-21,2.8257,0.0006631,-0.00058412,3.8667e-32,0.00013664,-30.683,-141.35,-51.656,1.9987,-7.289e-13,-5.2559e-16,101.89,-141.4,-51.656,-30.634,0,0.015916,0,1,3.47,0,-3.47,0
0,0,0,0,0,0,0.00013601,-0.00058318,5.9065e-35,1.2826e-05,-4.7445e-18,-3.3392e-21,2.824,0.00066228,-0.00058349,3.8755e-32,0.00013633,-30.693,-141.21,-51.619,1.9725,-7.2932e-13,-5.1637e-16,101.77,-141.26,-51.619,-30.644,0,0.015919,0,1,3.475,0,-3.475,0
0,0,0,0,0,0,0.00013571,-0.00058255,5.8913e-35,1.2656e-05,-4.7472e-18,-3.2794e-21,2.8223,0.00066147,-0.00058286,3.8842e-32,0.00013602,-30.702,-141.08,-51.581,1.9464,-7.2973e-13,-5.0721e-16,101.64,-141.13,-51.581,-30.654,0,0.015922,0,1,3.48,0,-3.48,0
0,0,0,0,0,0,0.00013541,-0.00058193,5.8762e-35,1.2488e-05,-4.7497e-18,-3.22e-21,2.8206,0.00066065,-0.00058224,3.8928e-32,0.00013572,-30.711,-140.95,-51.544,1.9205,-7.3012e-13,-4.9811e-16,101.52,-140.99,-51.544,-30.663,0,0.015925,0,1,3.485,0,-3.485,0
0,0,0,0,0,0,0.00013511,-0.0005813,5.8611e-35,1.232e-05,-4.7522e-18,-3.161e-21,2.8189,0.00065983,-0.00058161,3.9012e-32,0.00013541,-30.72,-140.81,-51.506,1.8947,-7.305e-13,-4.8907e-16,101.39,-140.86,-51.506,-30.673,0,0.015928,0,1,3.49,0,-3.49,0
0,0,0,0,0,0,0.00013481,-0.00058067,5.846e-35,1.2154e-05,-4.7546e-18,-3.1024e-21,2.8172,0.00065902,-0.00058097,3.9095e-32,0.00013511,-30.728,-140.68,-51.469,1.8691,-7.3087e-13,-4.8009e-16,101.27,-140.73,-51.469,-30.682,0,0.015931,0,1,3.495,0,-3.495,0
0,0,0,0,0,0,0.00013451,-0.00058005,5.831e-35,1.1989e-05,-4.7569e-18,-3.0441e-21,2.8156,0.0006582,-0.00058034,3.9176e-32,0.0001348,-30.737,-140.55,-51.431,1.8437,-7.3123e-13,-4.7116e-16,101.14,-140.59,-51.431,-30.691,0,0.015934,0,1,3.5,0,-3.5,0
0,0,0,0,0,0,0.00013421,-0.00057942,5.816e-35,1.1824e-05,-4.7591e-18,-2.9862e-21,2.8139,0.00065738,-0.00057971,3.9256e-32,0.0001345,-30.745,-140.41,-51.393,1.8184,-7.3157e-13,-4.623e-16,101.02,-140.46,-51.393,-30.7,0,0.015937,0,1,3.505,0,-3.505,0
0,0,0,0,0,0,0.00013391,-0.00057879,5.801e-35,1.1661e-05,-4.7612e-18,-2.9288e-21,2.8122,0.00065656,-0.00057908,3.9335e-32,0.0001342,-30.753,-140.28,-51.355,1.7934,-7.319e-13,-4.5349e-16,100.89,-140.32,-51.355,-30.709,0,0.01594,0,1,3.51,0,-3.51,0
0,0,0,0,0,0,0.00013361,-0.00057816,5.7861e-35,1.1499e-05,-4.7633e-18,-2.8716e-21,2.8105,0.00065574,-0.00057845,3.9413e-32,0.00013389,-30.761,-140.14,-51.317,1.7684,-7.3221e-13,-4.4474e-16,100.76,-140.19,-51.317,-30.717,0,0.015943,0,1,3.515,0,-3.515,0
0,0,0,0,0,0,0.00013331,-0.00057753,5.7712e-35,1.1338e-05,-4.7652e-18,-2.8149e-21,2.8088,0.00065493,-0.00057781,3.9489e-32,0.00013359,-30.769,-140.01,-51.279,1.7437,-7.3252e-13,-4.3605e-16,100.64,-140.05,-51.279,-30.726,0,0.015946,0,1,3.52,0,-3.52,0
0,0,0,0,0,0,0.00013301,-0.0005769,5.7564e-35,1.1178e-05,-4.7671e-18,-2.7586e-21,2.8071,0.00065411,-0.00057718,3.9564e-32,0.00013329,-30.776,-139.87,-51.241,1.7191,-7.3281e-13,-4.2742e-16,100.51,-139.91,-51.241,-30.734,0,0.015949,0,1,3.525,0,-3.525,0
0,0,0,0,0,0,0.00013272,-0.00057627,5.7416e-35,1.1019e-05,-4.7689e-18,-2.7026e-21,2.8054,0.00065329,-0.00057654,3.9637e-32,0.00013299,-30.783,-139.74,-51.202,1.6946,-7.3308e-13,-4.1884e-16,100.39,-139.78,-51.202,-30.742,0,0.015952,0,1,3.53,0,-3.53,0
0,0,0,0,0,0,0.00013242,-0.00057564,5.7269e-35,1.0862e-05,-4.7706e-18,-2.647e-21,2.8037,0.00065246,-0.00057591,3.9709e-32,0.00013268,-30.791,-139.6,-51.163,1.6704,-7.3335e-13,-4.1033e-16,100.26,-139.64,-51.163,-30.75,0,0.015955,0,1,3.535,0,-3.535,0
0,0,0,0,0,0,0.00013212,-0.00057501,5.7122e-35,1.0705e-05,-4.7723e-18,-2.5918e-21,2.802,0.00065164,-0.00057527,3.978e-32,0.00013238,-30.798,-139.47,-51.125,1.6463,-7.336e-13,-4.0187e-16,100.13,-139.51,-51.125,-30.757,0,0.015958,0,1,3.54,0,-3.54,0
0,0,0,0,0,0,0.00013182,-0.00057437,5.6975e-35,1.0549e-05,-4.7738e-18,-2.537e-21,2.8003,0.00065082,-0.00057463,3.985e-32,0.00013208,-30.804,-139.33,-51.086,1.6224,-7.3384e-13,-3.9347e-16,100.01,-139.37,-51.086,-30.765,0,0.015961,0,1,3.545,0,-3.545,0
0,0,0,0,0,0,0.00013153,-0.00057374,5.6829e-35,1.0395e-05,-4.7753e-18,-2.4826e-21,2.7986,0.00065,-0.00057399,3.9918e-32,0.00013178,-30.811,-139.19,-51.047,1.5986,-7.3407e-13,-3.8513e-16,99.882,-139.23,-51.047,-30.772,0,0.015963,0,1,3.55,0,-3.55,0
0,0,0,0,0,0,0.00013123,-0.00057311,5.6683e-35,1.0241e-05,-4.7766e-18,-2.4285e-21,2.7969,0.00064918,-0.00057335,3.9985e-32,0.00013148,-30.818,-139.06,-51.008,1.575,-7.3428e-13,-3.7685e-16,99.755,-139.1,-51.008,-30.779,0,0.015966,0,1,3.555,0,-3.555,0
0,0,0,0,0,0,0.00013094,-0.00057247,5.6537e-35,1.0089e-05,-4.7779e-18,-2.3748e-21,2.7952,0.00064835,-0.00057271,4.005e-32,0.00013118,-30.824,-138.92,-50.969,1.5516,-7.3448e-13,-3.6862e-16,99.629,-138.96,-50.969,-30.786,0,0.015969,0,1,3.56,0,-3.56,0
0,0,0,0,0,0,0.00013064,-0.00057183,5.6392e-35,9.9376e-06,-4.7791e-18,-2.3216e-21,2.7935,0.00064753,-0.00057207,4.0114e-32,0.00013088,-30.83,-138.78,-50.929,1.5283,-7.3466e-13,-3.6046e-16,99.503,-138.82,-50.929,-30.793,0,0.015972,0,1,3.565,0,-3.565,0
0,0,0,0,0,0,0.00013034,-0.0005712,5.6247e-35,9.7874e-06,-4.7803e-18,-2.2686e-21,2.7918,0.00064671,-0.00057143,4.0177e-32,0.00013058,-30.836,-138.65,-50.89,1.5052,-7.3484e-13,-3.5235e-16,99.376,-138.68,-50.89,-30.8,0,0.015975,0,1,3.57,0,-3.57,0
0,0,0,0,0,0,0.00013005,-0.00057056,5.6103e-35,9.6382e-06,-4.7813e-18,-2.2161e-21,2.7901,0.00064588,-0.00057079,4.0238e-32,0.00013028,-30.842,-138.51,-50.85,1.4823,-7.35e-13,-3.443e-16,99.25,-138.54,-50.85,-30.806,0,0.015978,0,1,3.575,0,-3.575,0
0,0,0,0,0,0,0.00012976,-0.00056992,5.5959e-35,9.4902e-06,-4.7823e-18,-2.164e-21,2.7884,0.00064506,-0.00057015,4.0299e-32,0.00012998,-30.848,-138.37,-50.811,1.4595,-7.3515e-13,-3.3631e-16,99.123,-138.41,-50.811,-30.812,0,0.015981,0,1,3.58,0,-3.58,0
0,0,0,0,0,0,0.00012946,-0.00056928,5.5816e-35,9.3432e-06,-4.7831e-18,-2.1122e-21,2.7867,0.00064423,-0.00056951,4.0357e-32,0.00012969,-30.853,-138.23,-50.771,1.4369,-7.3528e-13,-3.2838e-16,98.996,-138.27,-50.771,-30.818,0,0.015984,0,1,3.585,0,-3.585,0
0,0,0,0,0,0,0.00012917,-0.00056864,5.5673e-35,9.1972e-06,-4.7839e-18,-2.0608e-21,2.785,0.00064341,-0.00056886,4.0415e-32,0.00012939,-30.858,-138.1,-50.731,1.4144,-7.354e-13,-3.2051e-16,98.869,-138.13,-50.731,-30.824,0,0.015987,0,1,3.59,0,-3.59,0
0,0,0,0,0,0,0.00012887,-0.000568,5.553e-35,9.0524e-06,-4.7846e-18,-2.0098e-21,2.7833,0.00064258,-0.00056822,4.0471e-32,0.00012909,-30.863,-137.96,-50.691,1.3922,-7.3551e-13,-3.1269e-16,98.743,-137.99,-50.691,-30.83,0,0.01599,0,1,3.595,0,-3.595,0
0,0,0,0,0,0,0.00012858,-0.00056736,5.5388e-35,8.9086e-06,-4.7852e-18,-1.9592e-21,2.7816,0.00064176,-0.00056757,4.0526e-32,0.00012879,-30.868,-137.82,-50.65,1.3701,-7.3561e-13,-3.0494e-16,98.616,-137.85,-50.65,-30.835,0,0.015992,0,1,3.6,0,-3.6,0
0,0,0,0,0,0,0.00012829,-0.00056672,5.5246e-35,8.7659e-06,-4.7858e-18,-1.9089e-21,2.7799,0.00064093,-0.00056693,4.0579e-32,0.0001285,-30.873,-137.68,-50.61,1.3481,-7.3569e-13,-2.9724e-16,98.489,-137.71,-50.61,-30.841,0,0.015995,0,1,3.605,0,-3.605,0
0,0,0,0,0,0,0.00012799,-0.00056608,5.5104e-35,8.6243e-06,-4.7862e-18,-1.8591e-21,2.7782,0.0006401,-0.00056628,4.0631e-32,0.0001282,-30.878,-137.54,-50.57,1.3263,-7.3576e-13,-2.896e-16,98.362,-137.57,-50.57,-30.846,0,0.015998,0,1,3.61,0,-3.61,0
0,0,0,0,0,0,0.0001277,-0.00056543,5.4963e-35,8.4838e-06,-4.7866e-18,-1.8096e-21,2.7765,0.00063927,-0.00056563,4.0682e-32,0.0001279,-30.882,-137.4,-50.529,1.3047,-7.3582e-13,-2.8202e-16,98.235,-137.43,-50.529,-30.851,0,0.016001,0,1,3.615,0,-3.615,0
0,0,0,0,0,0,0.00012741,-0.00056479,5.4822e-35,8.3443e-06,-4.7869e-18,-1.7605e-21,2.7748,0.00063845,-0.00056499,4.0731e-32,0.00012761,-30.886,-137.26,-50.488,1.2833,-7.3587e-13,-2.745e-16,98.108,-137.29,-50.488,-30.856,0,0.016004,0,1,3.62,0,-3.62,0
0,0,0,0,0,0,0.00012712,-0.00056414,5.4682e-35,8.2059e-06,-4.7871e-18,-1.7118e-21,2.7731,0.00063762,-0.00056434,4.0779e-32,0.00012731,-30.89,-137.12,-50.448,1.262,-7.359e-13,-2.6703e-16,97.98,-137.15,-50.448,-30.86,0,0.016007,0,1,3.625,0,-3.625,0
0,0,0,0,0,0,0.00012683,-0.0005635,5.4542e-35,8.0686e-06,-4.7872e-18,-1.6634e-21,2.7714,0.00063679,-0.00056369,4.0826e-32,0.00012702,-30.894,-136.98,-50.407,1.2409,-7.3592e-13,-2.5962e-16,97.853,-137.01,-50.407,-30.865,0,0.01601,0,1,3.63,0,-3.63,0
0,0,0,0,0,0,0.00012654,-0.00056285,5.4403e-35,7.9324e-06,-4.7872e-18,-1.6155e-21,2.7697,0.00063596,-0.00056304,4.0871e-32,0.00012672,-30.898,-136.84,-50.366,1.2199,-7.3592e-13,-2.5228e-16,97.726,-136.87,-50.366,-30.869,0,0.016013,0,1,3.635,0,-3.635,0
0,0,0,0,0,0,0.00012625,-0.0005622,5.4264e-35,7.7973e-06,-4.7872e-18,-1.5679e-21,2.768,0.00063513,-0.00056239,4.0915e-32,0.00012643,-30.901,-136.7,-50.324,1.1992,-7.3591e-13,-2.4499e-16,97.598,-136.73,-50.324,-30.873,0,0.016015,0,1,3.64,0,-3.64,0
0,0,0,0,0,0,0.00012596,-0.00056156,5.4125e-35,7.6632e-06,-4.787e-18,-1.5207e-21,2.7663,0.0006343,-0.00056174,4.0958e-32,0.00012614,-30.905,-136.56,-50.283,1.1785,-7.3589e-13,-2.3776e-16,97.471,-136.59,-50.283,-30.877,0,0.016018,0,1,3.645,0,-3.645,0
0,0,0,0,0,0,0.00012567,-0.00056091,5.3987e-35,7.5302e-06,-4.7868e-18,-1.4739e-21,2.7646,0.00063347,-0.00056108,4.0999e-32,0.00012584,-30.908,-136.42,-50.242,1.1581,-7.3586e-13,-2.3058e-16,97.343,-136.45,-50.242,-30.881,0,0.016021,0,1,3.65,0,-3.65,0
0,0,0,0,0,0,0.00012538,-0.00056026,5.3849e-35,7.3983e-06,-4.7865e-18,-1.4275e-21,2.7629,0.00063264,-0.00056043,4.1039e-32,0.00012555,-30.911,-136.28,-50.2,1.1378,-7.3581e-13,-2.2347e-16,97.216,-136.3,-50.2,-30.884,0,0.016024,0,1,3.655,0,-3.655,0
0,0,0,0,0,0,0.00012509,-0.00055961,5.3711e-35,7.2674e-06,-4.7861e-18,-1.3814e-21,2.7612,0.00063181,-0.00055978,4.1078e-32,0.00012526,-30.914,-136.14,-50.159,1.1177,-7.3576e-13,-2.1641e-16,97.088,-136.16,-50.159,-30.888,0,0.016027,0,1,3.66,0,-3.66,0
0,0,0,0,0,0,0.0001248,-0.00055896,5.3574e-35,7.1377e-06,-4.7856e-18,-1.3358e-21,2.7595,0.00063097,-0.00055912,4.1115e-32,0.00012496,-30.916,-136,-50.117,1.0977,-7.3568e-13,-2.0942e-16,96.96,-136.02,-50.117,-30.891,0,0.01603,0,1,3.665,0,-3.665,0
0,0,0,0,0,0,0.00012451,-0.00055831,5.3438e-35,7.009e-06,-4.7851e-18,-1.2905e-21,2.7578,0.00063014,-0.00055847,4.1151e-32,0.00012467,-30.919,-135.85,-50.075,1.0779,-7.356e-13,-2.0248e-16,96.832,-135.88,-50.075,-30.894,0,0.016032,0,1,3.67,0,-3.67,0
0,0,0,0,0,0,0.00012422,-0.00055765,5.3301e-35,6.8814e-06,-4.7844e-18,-1.2456e-21,2.7561,0.00062931,-0.00055781,4.1186e-32,0.00012438,-30.921,-135.71,-50.033,1.0583,-7.355e-13,-1.956e-16,96.704,-135.74,-50.033,-30.897,0,0.016035,0,1,3.675,0,-3.675,0
0,0,0,0,0,0,0.00012393,-0.000557,5.3165e-35,6.7548e-06,-4.7837e-18,-1.2011e-21,2.7544,0.00062848,-0.00055716,4.1219e-32,0.00012409,-30.923,-135.57,-49.991,1.0389,-7.3539e-13,-1.8878e-16,96.577,-135.59,-49.991,-30.899,0,0.016038,0,1,3.68,0,-3.68,0
0,0,0,0,0,0,0.00012365,-0.00055635,5.303e-35,6.6294e-06,-4.7829e-18,-1.1569e-21,2.7527,0.00062764,-0.0005565,4.1251e-32,0.0001238,-30.925,-135.43,-49.948,1.0196,-7.3527e-13,-1.8201e-16,96.449,-135.45,-49.948,-30.902,0,0.016041,0,1,3.685,0,-3.685,0
0,0,0,0,0,0,0.00012336,-0.00055569,5.2895e-35,6.505e-06,-4.782e-18,-1.1132e-21,2.751,0.00062681,-0.00055584,4.1282e-32,0.00012351,-30.927,-135.28,-49.906,1.0004,-7.3513e-13,-1.7531e-16,96.32,-135.31,-49.906,-30.904,0,0.016044,0,1,3.69,0,-3.69,0
0,0,0,0,0,0,0.00012307,-0.00055504,5.276e-35,6.3817e-06,-4.781e-18,-1.0698e-21,2.7493,0.00062597,-0.00055518,4.1311e-32,0.00012322,-30.929,-135.14,-49.864,0.98148,-7.3498e-13,-1.6866e-16,96.192,-135.16,-49.864,-30.906,0,0.016047,0,1,3.695,0,-3.695,0
0,0,0,0,0,0,0.00012279,-0.00055438,5.2626e-35,6.2595e-06,-4.78e-18,-1.0268e-21,2.7476,0.00062514,-0.00055452,4.1339e-32,0.00012293,-30.93,-135,-49.821,0.96268,-7.3482e-13,-1.6207e-16,96.064,-135.02,-49.821,-30.908,0,0.016049,0,1,3.7,0,-3.7,0
0,0,0,0,0,0,0.0001225,-0.00055373,5.2492e-35,6.1384e-06,-4.7788e-18,-9.8416e-22,2.7459,0.0006243,-0.00055386,4.1366e-32,0.00012264,-30.931,-134.85,-49.778,0.94405,-7.3464e-13,-1.5554e-16,95.936,-134.88,-49.778,-30.91,0,0.016052,0,1,3.705,0,-3.705,0
0,0,0,0,0,0,0.00012222,-0.00055307,5.2358e-35,6.0183e-06,-4.7776e-18,-9.4192e-22,2.7443,0.00062347,-0.0005532,4.1391e-32,0.00012235,-30.932,-134.71,-49.735,0.92559,-7.3445e-13,-1.4907e-16,95.807,-134.73,-49.735,-30.912,0,0.016055,0,1,3.71,0,-3.71,0
0,0,0,0,0,0,0.00012193,-0.00055241,5.2225e-35,5.8993e-06,-4.7763e-18,-9.0007e-22,2.7426,0.00062263,-0.00055254,4.1415e-32,0.00012206,-30.933,-134.57,-49.692,0.90729,-7.3425e-13,-1.4266e-16,95.679,-134.59,-49.692,-30.913,0,0.016058,0,1,3.715,0,-3.715,0
0,0,0,0,0,0,0.00012164,-0.00055175,5.2093e-35,5.7814e-06,-4.7749e-18,-8.586e-22,2.7409,0.00062179,-0.00055188,4.1437e-32,0.00012177,-30.934,-134.42,-49.649,0.88916,-7.3404e-13,-1.363e-16,95.55,-134.44,-49.649,-30.914,0,0.016061,0,1,3.72,0,-3.72,0
0,0,0,0,0,0,0.00012136,-0.00055109,5.196e-35,5.6646e-06,-4.7734e-18,-8.1751e-22,2.7392,0.00062096,-0.00055122,4.1459e-32,0.00012149,-30.935,-134.28,-49.606,0.8712,-7.3381e-13,-1.3e-16,95.422,-134.3,-49.606,-30.915,0,0.016063,0,1,3.725,0,-3.725,0
0,0,0,0,0,0,0.00012108,-0.00055043,5.1829e-35,5.5488e-06,-4.7718e-18,-7.768e-22,2.7375,0.00062012,-0.00055056,4.1479e-32,0.0001212,-30.935,-134.13,-49.562,0.8534,-7.3357e-13,-1.2377e-16,95.293,-134.15,-49.562,-30.916,0,0.016066,0,1,3.73,0,-3.73,0
0,0,0,0,0,0,0.00012079,-0.00054977,5.1697e-35,5.4341e-06,-4.7702e-18,-7.3647e-22,2.7358,0.00061928,-0.00054989,4.1497e-32,0.00012091,-30.935,-133.99,-49.519,0.83576,-7.3332e-13,-1.1759e-16,95.165,-134.01,-49.519,-30.917,0,0.016069,0,1,3.735,0,-3.735,0
0,0,0,0,0,0,0.00012051,-0.00054911,5.1566e-35,5.3205e-06,-4.7684e-18,-6.9652e-22,2.7341,0.00061844,-0.00054923,4.1514e-32,0.00012062,-30.935,-133.84,-49.475,0.81829,-7.3305e-13,-1.1147e-16,95.036,-133.86,-49.475,-30.917,0,0.016072,0,1,3.74,0,-3.74,0
0,0,0,0,0,0,0.00012022,-0.00054845,5.1435e-35,5.208e-06,-4.7666e-18,-6.5696e-22,2.7324,0.0006176,-0.00054856,4.153e-32,0.00012034,-30.935,-133.7,-49.432,0.80099,-7.3277e-13,-1.054e-16,94.907,-133.72,-49.432,-30.918,0,0.016074,0,1,3.745,0,-3.745,0
0,0,0,0,0,0,0.00011994,-0.00054779,5.1305e-35,5.0966e-06,-4.7647e-18,-6.1777e-22,2.7307,0.00061676,-0.0005479,4.1545e-32,0.00012005,-30.935,-133.55,-49.388,0.78385,-7.3248e-13,-9.9399e-17,94.778,-133.57,-49.388,-30.918,0,0.016077,0,1,3.75,0,-3.75,0
0,0,0,0,0,0,0.00011966,-0.00054712,5.1175e-35,4.9862e-06,-4.7627e-18,-5.7897e-22,2.729,0.00061592,-0.00054723,4.1558e-32,0.00011977,-30.934,-133.41,-49.344,0.76688,-7.3218e-13,-9.3452e-17,94.649,-133.42,-49.344,-30.918,0,0.01608,0,1,3.755,0,-3.755,0
0,0,0,0,0,0,0.00011938,-0.00054646,5.1046e-35,4.8769e-06,-4.7606e-18,-5.4055e-22,2.7273,0.00061508,-0.00054656,4.157e-32,0.00011948,-30.934,-133.26,-49.3,0.75007,-7.3186e-13,-8.7565e-17,94.52,-133.28,-49.3,-30.918,0,0.016083,0,1,3.76,0,-3.76,0
0,0,0,0,0,0,0.00011909,-0.00054579,5.0917e-35,4.7687e-06,-4.7585e-18,-5.0251e-22,2.7256,0.00061424,-0.00054589,4.158e-32,0.0001192,-30.933,-133.11,-49.255,0.73343,-7.3153e-13,-8.1736e-17,94.391,-133.13,-49.255,-30.917,0,0.016085,0,1,3.765,0,-3.765,0
0,0,0,0,0,0,0.00011881,-0.00054513,5.0788e-35,4.6615e-06,-4.7562e-18,-4.6485e-22,2.7239,0.0006134,-0.00054523,4.159e-32,0.00011891,-30.932,-132.97,-49.211,0.71696,-7.3118e-13,-7.5965e-17,94.262,-132.98,-49.211,-30.917,0,0.016088,0,1,3.77,0,-3.77,0
0,0,0,0,0,0,0.00011853,-0.00054446,5.066e-35,4.5555e-06,-4.7539e-18,-4.2757e-22,2.7222,0.00061256,-0.00054456,4.1597e-32,0.00011863,-30.931,-132.82,-49.167,0.70065,-7.3083e-13,-7.0252e-17,94.133,-132.84,-49.167,-30.916,0,0.016091,0,1,3.775,0,-3.775,0
0,0,0,0,0,0,0.00011825,-0.00054379,5.0532e-35,4.4505e-06,-4.7515e-18,-3.9068e-22,2.7205,0.00061172,-0.00054389,4.1604e-32,0.00011834,-30.929,-132.67,-49.122,0.6845,-7.3046e-13,-6.4598e-17,94.003,-132.69,-49.122,-30.915,0,0.016094,0,1,3.78,0,-3.78,0
0,0,0,0,0,0,0.00011797,-0.00054313,5.0404e-35,4.3466e-06,-4.749e-18,-3.5416e-22,2.7188,0.00061088,-0.00054322,4.1609e-32,0.00011806,-30.928,-132.53,-49.077,0.66853,-7.3007e-13,-5.9003e-17,93.874,-132.54,-49.077,-30.914,0,0.016096,0,1,3.785,0,-3.785,0
0,0,0,0,0,0,0.00011769,-0.00054246,5.0277e-35,4.2438e-06,-4.7464e-18,-3.1803e-22,2.7171,0.00061003,-0.00054254,4.1613e-32,0.00011778,-30.926,-132.38,-49.032,0.65271,-7.2968e-13,-5.3466e-17,93.745,-132.39,-49.032,-30.913,0,0.016099,0,1,3.79,0,-3.79,0
0,0,0,0,0,0,0.00011741,-0.00054179,5.015e-35,4.142e-06,-4.7438e-18,-2.8228e-22,2.7154,0.00060919,-0.00054187,4.1615e-32,0.00011749,-30.924,-132.23,-48.987,0.63707,-7.2927e-13,-4.7987e-17,93.615,-132.24,-48.987,-30.911,0,0.016102,0,1,3.795,0,-3.795,0
0,0,0,0,0,0,0.00011713,-0.00054112,5.0024e-35,4.0414e-06,-4.741e-18,-2.4691e-22,2.7137,0.00060835,-0.0005412,4.1617e-32,0.00011721,-30.922,-132.08,-48.942,0.62159,-7.2885e-13,-4.2566e-17,93.485,-132.1,-48.942,-30.909,0,0.016105,0,1,3.8,0,-3.8,0
0,0,0,0,0,0,0.00011685,-0.00054045,4.9898e-35,3.9418e-06,-4.7382e-18,-2.1192e-22,2.712,0.0006075,-0.00054053,4.1616e-32,0.00011693,-30.92,-131.94,-48.897,0.60627,-7.2841e-13,-3.7204e-17,93.356,-131.95,-48.897,-30.908,0,0.016107,0,1,3.805,0,-3.805,0
0,0,0,0,0,0,0.00011657,-0.00053978,4.9773e-35,3.8432e-06,-4.7353e-18,-1.7731e-22,2.7103,0.00060666,-0.00053985,4.1615e-32,0.00011665,-30.917,-131.79,-48.852,0.59112,-7.2797e-13,-3.1901e-17,93.226,-131.8,-48.852,-30.906,0,0.01611,0,1,3.81,0,-3.81,0
0,0,0,0,0,0,0.00011629,-0.0005391,4.9648e-35,3.7458e-06,-4.7323e-18,-1.4308e-22,2.7086,0.00060581,-0.00053918,4.1612e-32,0.00011637,-30.915,-131.64,-48.806,0.57614,-7.2751e-13,-2.6656e-17,93.096,-131.65,-48.806,-30.903,0,0.016113,0,1,3.815,0,-3.815,0
0,0,0,0,0,0,0.00011601,-0.00053843,4.9523e-35,3.6494e-06,-4.7292e-18,-1.0924e-22,2.7069,0.00060497,-0.0005385,4.1608e-32,0.00011609,-30.912,-131.49,-48.761,0.56132,-7.2703e-13,-2.1469e-17,92.967,-131.5,-48.761,-30.901,0,0.016116,0,1,3.82,0,-3.82,0
0,0,0,0,0,0,0.00011574,-0.00053776,4.9399e-35,3.5542e-06,-4.726e-18,-7.5771e-23,2.7052,0.00060412,-0.00053782,4.1602e-32,0.0001158,-30.909,-131.34,-48.715,0.54667,-7.2655e-13,-1.634e-17,92.837,-131.35,-48.715,-30.899,0,0.016118,0,1,3.825,0,-3.825,0
0,0,0,0,0,0,0.00011546,-0.00053708,4.9275e-35,3.46e-06,-4.7228e-18,-4.2689e-23,2.7035,0.00060327,-0.00053715,4.1595e-32,0.00011552,-30.906,-131.19,-48.669,0.53218,-7.2605e-13,-1.1271e-17,92.707,-131.2,-48.669,-30.896,0,0.016121,0,1,3.83,0,-3.83,0
0,0,0,0,0,0,0.00011518,-0.00053641,4.9151e-35,3.3668e-06,-4.7194e-18,-9.9864e-24,2.7018,0.00060243,-0.00053647,4.1587e-32,0.00011524,-30.903,-131.04,-48.623,0.51786,-7.2554e-13,-6.2589e-18,92.577,-131.05,-48.623,-30.893,0,0.016124,0,1,3.835,0,-3.835,0
0,0,0,0,0,0,0.0001149,-0.00053573,4.9028e-35,3.2748e-06,-4.716e-18,2.2333e-23,2.7001,0.00060158,-0.00053579,4.1578e-32,0.00011497,-30.899,-130.89,-48.577,0.50371,-7.2501e-13,-1.3058e-18,92.446,-130.9,-48.577,-30.89,0,0.016126,0,1,3.84,0,-3.84,0
0,0,0,0,0,0,0.00011463,-0.00053505,4.8906e-35,3.1838e-06,-4.7125e-18,5.4273e-23,2.6984,0.00060073,-0.00053511,4.1567e-32,0.00011469,-30.896,-130.74,-48.531,0.48972,-7.2447e-13,3.5891e-18,92.316,-130.75,-48.531,-30.887,0,0.016129,0,1,3.845,0,-3.845,0
0,0,0,0,0,0,0.00011435,-0.00053438,4.8783e-35,3.0939e-06,-4.7089e-18,8.5829e-23,2.6967,0.00059988,-0.00053443,4.1554e-32,0.00011441,-30.892,-130.59,-48.485,0.47589,-7.2392e-13,8.4253e-18,92.186,-130.6,-48.485,-30.883,0,0.016132,0,1,3.85,0,-3.85,0
0,0,0,0,0,0,0.00011408,-0.0005337,4.8661e-35,3.0051e-06,-4.7053e-18,1.1701e-22,2.695,0.00059904,-0.00053375,4.1541e-32,0.00011413,-30.888,-130.44,-48.438,0.46223,-7.2336e-13,1.3203e-17,92.056,-130.45,-48.438,-30.88,0,0.016134,0,1,3.855,0,-3.855,0
0,0,0,0,0,0,0.0001138,-0.00053302,4.854e-35,2.9173e-06,-4.7015e-18,1.478e-22,2.6933,0.00059819,-0.00053307,4.1526e-32,0.00011385,-30.884,-130.29,-48.392,0.44874,-7.2278e-13,1.7923e-17,91.925,-130.3,-48.392,-30.876,0,0.016137,0,1,3.86,0,-3.86,0
0,0,0,0,0,0,0.00011353,-0.00053234,4.8419e-35,2.8307e-06,-4.6977e-18,1.7821e-22,2.6916,0.00059734,-0.00053239,4.151e-32,0.00011357,-30.879,-130.14,-48.345,0.43542,-7.2219e-13,2.2584e-17,91.795,-130.15,-48.345,-30.872,0,0.01614,0,1,3.865,0,-3.865,0
0,0,0,0,0,0,0.00011325,-0.00053166,4.8298e-35,2.7451e-06,-4.6937e-18,2.0825e-22,2.6899,0.00059649,-0.00053171,4.1492e-32,0.0001133,-30.875,-129.99,-48.298,0.42225,-7.2159e-13,2.7187e-17,91.664,-129.99,-48.298,-30.868,0,0.016142,0,1,3.87,0,-3.87,0
0,0,0,0,0,0,0.00011298,-0.00053098,4.8178e-35,2.6606e-06,-4.6897e-18,2.379e-22,2.6882,0.00059564,-0.00053102,4.1473e-32,0.00011302,-30.87,-129.84,-48.251,0.40926,-7.2097e-13,3.1731e-17,91.534,-129.84,-48.251,-30.863,0,0.016145,0,1,3.875,0,-3.875,0
0,0,0,0,0,0,0.0001127,-0.0005303,4.8058e-35,2.5771e-06,-4.6856e-18,2.6717e-22,2.6865,0.00059479,-0.00053034,4.1453e-32,0.00011274,-30.865,-129.68,-48.204,0.39643,-7.2035e-13,3.6217e-17,91.403,-129.69,-48.204,-30.859,0,0.016148,0,1,3.88,0,-3.88,0
0,0,0,0,0,0,0.00011243,-0.00052961,4.7939e-35,2.4948e-06,-4.6815e-18,2.9606e-22,2.6848,0.00059393,-0.00052965,4.1431e-32,0.00011247,-30.86,-129.53,-48.157,0.38376,-7.1971e-13,4.0645e-17,91.273,-129.54,-48.157,-30.854,0,0.01615,0,1,3.885,0,-3.885,0
0,0,0,0,0,0,0.00011215,-0.00052893,4.782e-35,2.4135e-06,-4.6772e-18,3.2456e-22,2.6831,0.00059308,-0.00052897,4.1408e-32,0.00011219,-30.855,-129.38,-48.11,0.37127,-7.1905e-13,4.5014e-17,91.142,-129.39,-48.11,-30.849,0,0.016153,0,1,3.89,0,-3.89,0
0,0,0,0,0,0,0.00011188,-0.00052825,4.7701e-35,2.3333e-06,-4.6729e-18,3.5269e-22,2.6814,0.00059223,-0.00052828,4.1384e-32,0.00011192,-30.85,-129.23,-48.062,0.35893,-7.1838e-13,4.9325e-17,91.011,-129.23,-48.062,-30.844,0,0.016156,0,1,3.895,0,-3.895,0
0,0,0,0,0,0,0.00011161,-0.00052756,4.7583e-35,2.2542e-06,-4.6684e-18,3.8043e-22,2.6797,0.00059138,-0.0005276,4.1358e-32,0.00011164,-30.844,-129.08,-48.015,0.34677,-7.177e-13,5.3577e-17,90.88,-129.08,-48.015,-30.839,0,0.016158,0,1,3.9,0,-3.9,0
0,0,0,0,0,0,0.00011134,-0.00052688,4.7465e-35,2.1762e-06,-4.6639e-18,4.0779e-22,2.678,0.00059053,-0.00052691,4.1331e-32,0.00011137,-30.838,-128.92,-47.967,0.33477,-7.1701e-13,5.7771e-17,90.749,-128.93,-47.967,-30.834,0,0.016161,0,1,3.905,0,-3.905,0
0,0,0,0,0,0,0.00011106,-0.00052619,4.7347e-35,2.0992e-06,-4.6593e-18,4.3478e-22,2.6763,0.00058967,-0.00052622,4.1303e-32,0.00011109,-30.832,-128.77,-47.919,0.32293,-7.163e-13,6.1906e-17,90.618,-128.77,-47.919,-30.828,0,0.016164,0,1,3.91,0,-3.91,0
0,0,0,0,0,0,0.00011079,-0.00052551,4.723e-35,2.0233e-06,-4.6546e-18,4.6138e-22,2.6747,0.00058882,-0.00052553,4.1273e-32,0.00011082,-30.826,-128.62,-47.871,0.31126,-7.1559e-13,6.5983e-17,90.487,-128.62,-47.871,-30.822,0,0.016166,0,1,3.915,0,-3.915,0
0,0,0,0,0,0,0.00011052,-0.00052482,4.7114e-35,1.9485e-06,-4.6499e-18,4.876e-22,2.673,0.00058796,-0.00052484,4.1242e-32,0.00011054,-30.82,-128.46,-47.823,0.29976,-7.1485e-13,7.0002e-17,90.356,-128.47,-47.823,-30.816,0,0.016169,0,1,3.92,0,-3.92,0
0,0,0,0,0,0,0.00011025,-0.00052413,4.6997e-35,1.8747e-06,-4.645e-18,5.1343e-22,2.6713,0.00058711,-0.00052415,4.121e-32,0.00011027,-30.814,-128.31,-47.775,0.28842,-7.1411e-13,7.3962e-17,90.224,-128.31,-47.775,-30.81,0,0.016172,0,1,3.925,0,-3.925,0
0,0,0,0,0,0,0.00010998,-0.00052344,4.6881e-35,1.8021e-06,-4.6401e-18,5.3889e-22,2.6696,0.00058625,-0.00052346,4.1176e-32,0.00011,-30.807,-128.16,-47.727,0.27724,-7.1335e-13,7.7864e-17,90.093,-128.16,-47.727,-30.804,0,0.016174,0,1,3.93,0,-3.93,0
0,0,0,0,0,0,0.00010971,-0.00052275,4.6766e-35,1.7305e-06,-4.6351e-18,5.6396e-22,2.6679,0.0005854,-0.00052277,4.1141e-32,0.00010973,-30.8,-128,-47.679,0.26624,-7.1258e-13,8.1708e-17,89.962,-128,-47.679,-30.798,0,0.016177,0,1,3.935,0,-3.935,0
0,0,0,0,0,0,0.00010944,-0.00052206,4.6651e-35,1.66e-06,-4.63e-18,5.8866e-22,2.6662,0.00058454,-0.00052208,4.1105e-32,0.00010945,-30.793,-127.85,-47.63,0.2554,-7.118e-13,8.5493e-17,89.83,-127.85,-47.63,-30.791,0,0.016179,0,1,3.94,0,-3.94,0
0,0,0,0,0,0,0.00010917,-0.00052137,4.6536e-35,1.5906e-06,-4.6248e-18,6.1297e-22,2.6645,0.00058369,-0.00052138,4.1067e-32,0.00010918,-30.786,-127.69,-47.581,0.24472,-7.11e-13,8.922e-17,89.699,-127.69,-47.581,-30.784,0,0.016182,0,1,3.945,0,-3.945,0
0,0,0,0,0,0,0.0001089,-0.00052068,4.6422e-35,1.5222e-06,-4.6195e-18,6.369e-22,2.6628,0.00058283,-0.00052069,4.1028e-32,0.00010891,-30.779,-127.54,-47.533,0.23421,-7.1019e-13,9.2888e-17,89.567,-127.54,-47.533,-30.777,0,0.016185,0,1,3.95,0,-3.95,0
0,0,0,0,0,0,0.00010863,-0.00051999,4.6308e-35,1.455e-06,-4.6142e-18,6.6045e-22,2.6611,0.00058197,-0.00052,4.0988e-32,0.00010864,-30.771,-127.38,-47.484,0.22387,-7.0937e-13,9.6498e-17,89.436,-127.38,-47.484,-30.77,0,0.016187,0,1,3.955,0,-3.955,0
0,0,0,0,0,0,0.00010836,-0.00051929,4.6195e-35,1.3888e-06,-4.6087e-18,6.8362e-22,2.6594,0.00058111,-0.0005193,4.0946e-32,0.00010837,-30.764,-127.23,-47.435,0.21369,-7.0853e-13,1.0005e-16,89.304,-127.23,-47.435,-30.763,0,0.01619,0,1,3.96,0,-3.96,0
0,0,0,0,0,0,0.00010809,-0.0005186,4.6082e-35,1.3237e-06,-4.6032e-18,7.064e-22,2.6577,0.00058026,-0.0005186,4.0903e-32,0.0001081,-30.756,-127.07,-47.386,0.20367,-7.0768e-13,1.0354e-16,89.172,-127.07,-47.386,-30.755,0,0.016192,0,1,3.965,0,-3.965,0
0,0,0,0,0,0,0.00010782,-0.0005179,4.5969e-35,1.2596e-06,-4.5976e-18,7.2881e-22,2.656,0.0005794,-0.00051791,4.0858e-32,0.00010783,-30.748,-126.91,-47.336,0.19383,-7.0682e-13,1.0698e-16,89.04,-126.92,-47.336,-30.747,0,0.016195,0,1,3.97,0,-3.97,0
0,0,0,0,0,0,0.00010756,-0.00051721,4.5857e-35,1.1967e-06,-4.5919e-18,7.5083e-22,2.6543,0.00057854,-0.00051721,4.0813e-32,0.00010756,-30.74,-126.76,-47.287,0.18414,-7.0595e-13,1.1035e-16,88.908,-126.76,-47.287,-30.739,0,0.016198,0,1,3.975,0,-3.975,0
0,0,0,0,0,0,0.00010729,-0.00051651,4.5745e-35,1.1348e-06,-4.5861e-18,7.7248e-22,2.6526,0.00057768,-0.00051651,4.0766e-32,0.00010729,-30.731,-126.6,-47.237,0.17463,-7.0506e-13,1.1367e-16,88.776,-126.6,-47.237,-30.731,0,0.0162,0,1,3.98,0,-3.98,0
0,0,0,0,0,0,0.00010702,-0.00051582,4.5633e-35,1.074e-06,-4.5803e-18,7.9374e-22,2.6509,0.00057682,-0.00051581,4.0717e-32,0.00010702,-30.723,-126.45,-47.188,0.16528,-7.0416e-13,1.1693e-16,88.644,-126.45,-47.188,-30.723,0,0.016203,0,1,3.985,0,-3.985,0
0,0,0,0,0,0,0.00010675,-0.00051512,4.5522e-35,1.0142e-06,-4.5743e-18,8.1462e-22,2.6492,0.00057596,-0.00051512,4.0667e-32,0.00010675,-30.714,-126.29,-47.138,0.15609,-7.0325e-13,1.2013e-16,88.512,-126.29,-47.138,-30.715,0,0.016205,0,1,3.99,0,-3.99,0
0,0,0,0,0,0,0.00010649,-0.00051442,4.5412e-35,9.5559e-07,-4.5683e-18,8.3512e-22,2.6475,0.0005751,-0.00051442,4.0616e-32,0.00010648,-30.705,-126.13,-47.088,0.14707,-7.0232e-13,1.2327e-16,88.38,-126.13,-47.088,-30.706,0,0.016208,0,1,3.995,0,-3.995,0
0,0,0,0,0,0,0.00010622,-0.00051372,4.5301e-35,8.9802e-07,-4.5622e-18,8.5524e-22,2.6458,0.00057424,-0.00051371,4.0564e-32,0.00010622,-30.696,-125.97,-47.038,0.13822,-7.0138e-13,1.2636e-16,88.248,-125.97,-47.038,-30.697,0,0.016211,0,1,4,0,-4,0
0,0,0,0,0,0,0.00010596,-0.00051302,4.5191e-35,8.4152e-07,-4.556e-18,8.7497e-22,2.6441,0.00057337,-0.00051301,4.051e-32,0.00010595,-30.687,-125.82,-46.988,0.12953,-7.0043e-13,1.2938e-16,88.115,-125.82,-46.988,-30.688,0,0.016213,0,1,4.005,0,-4.005,0
0,0,0,0,0,0,0.00010569,-0.00051232,4.5082e-35,7.861e-07,-4.5497e-18,8.9433e-22,2.6424,0.00057251,-0.00051231,4.0455e-32,0.00010568,-30.678,-125.66,-46.938,0.12101,-6.9946e-13,1.3235e-16,87.983,-125.66,-46.938,-30.679,0,0.016216,0,1,4.01,0,-4.01,0
0,0,0,0,0,0,0.00010543,-0.00051162,4.4973e-35,7.3177e-07,-4.5433e-18,9.133e-22,2.6407,0.00057165,-0.00051161,4.0399e-32,0.00010541,-30.668,-125.5,-46.888,0.11266,-6.9849e-13,1.3526e-16,87.851,-125.5,-46.888,-30.67,0,0.016218,0,1,4.015,0,-4.015,0
0,0,0,0,0,0,0.00010516,-0.00051092,4.4864e-35,6.785e-07,-4.5369e-18,9.3189e-22,2.639,0.00057079,-0.00051091,4.0341e-32,0.00010515,-30.658,-125.34,-46.837,0.10446,-6.975e-13,1.3811e-16,87.718,-125.34,-46.837,-30.66,0,0.016221,0,1,4.02,0,-4.02,0
0,0,0,0,0,0,0.0001049,-0.00051022,4.4756e-35,6.2631e-07,-4.5304e-18,9.501e-22,2.6373,0.00056992,-0.0005102,4.0282e-32,0.00010488,-30.648,-125.18,-46.786,0.09644,-6.9649e-13,1.409e-16,87.585,-125.18,-46.786,-30.651,0,0.016223,0,1,4.025,0,-4.025,0
0,0,0,0,0,0,0.00010463,-0.00050951,4.4648e-35,5.752e-07,-4.5237e-18,9.6793e-22,2.6356,0.00056906,-0.0005095,4.0221e-32,0.00010462,-30.638,-125.03,-46.736,0.088581,-6.9548e-13,1.4364e-16,87.453,-125.02,-46.736,-30.641,0,0.016226,0,1,4.03,0,-4.03,0
0,0,0,0,0,0,0.00010437,-0.00050881,4.4541e-35,5.2518e-07,-4.517e-18,9.8538e-22,2.6339,0.0005682,-0.00050879,4.0159e-32,0.00010435,-30.628,-124.87,-46.685,0.080888,-6.9445e-13,1.4631e-16,87.32,-124.86,-46.685,-30.631,0,0.016228,0,1,4.035,0,-4.035,0
0,0,0,0,0,0,0.00010411,-0.0005081,4.4434e-35,4.7622e-07,-4.5103e-18,1.0024e-21,2.6322,0.00056733,-0.00050808,4.0096e-32,0.00010409,-30.618,-124.71,-46.634,0.07336,-6.934e-13,1.4893e-16,87.187,-124.71,-46.634,-30.62,0,0.016231,0,1,4.04,0,-4.04,0
0,0,0,0,0,0,0.00010384,-0.0005074,4.4327e-35,4.2835e-07,-4.5034e-18,1.0191e-21,2.6305,0.00056647,-0.00050738,4.0032e-32,0.00010382,-30.607,-124.55,-46.583,0.065997,-6.9235e-13,1.5149e-16,87.054,-124.55,-46.583,-30.61,0,0.016233,0,1,4.045,0,-4.045,0
0,0,0,0,0,0,0.00010358,-0.00050669,4.4221e-35,3.8155e-07,-4.4964e-18,1.0354e-21,2.6288,0.0005656,-0.00050667,3.9966e-32,0.00010356,-30.596,-124.39,-46.532,0.058801,-6.9128e-13,1.5399e-16,86.922,-124.39,-46.532,-30.599,0,0.016236,0,1,4.05,0,-4.05,0
0,0,0,0,0,0,0.00010332,-0.00050598,4.4115e-35,3.3583e-07,-4.4894e-18,1.0514e-21,2.6271,0.00056473,-0.00050596,3.9899e-32,0.0001033,-30.585,-124.23,-46.48,0.051771,-6.902e-13,1.5643e-16,86.789,-124.23,-46.48,-30.589,0,0.016239,0,1,4.055,0,-4.055,0
0,0,0,0,0,0,0.00010306,-0.00050528,4.4009e-35,2.9118e-07,-4.4823e-18,1.0669e-21,2.6254,0.00056387,-0.00050525,3.983e-32,0.00010303,-30.574,-124.07,-46.429,0.044906,-6.891e-13,1.5881e-16,86.656,-124.07,-46.429,-30.578,0,0.016241,0,1,4.06,0,-4.06,0
0,0,0,0,0,0,0.00010279,-0.00050457,4.3904e-35,2.4762e-07,-4.4751e-18,1.0821e-21,2.6237,0.000563,-0.00050454,3.976e-32,0.00010277,-30.563,-123.91,-46.377,0.038206,-6.88e-13,1.6114e-16,86.522,-123.91,-46.377,-30.567,0,0.016244,0,1,4.065,0,-4.065,0
0,0,0,0,0,0,0.00010253,-0.00050386,4.38e-35,2.0513e-07,-4.4678e-18,1.0968e-21,2.622,0.00056213,-0.00050383,3.9689e-32,0.00010251,-30.551,-123.75,-46.326,0.031672,-6.8688e-13,1.6341e-16,86.389,-123.74,-46.326,-30.555,0,0.016246,0,1,4.07,0,-4.07,0
0,0,0,0,0,0,0.00010227,-0.00050315,4.3695e-35,1.6372e-07,-4.4604e-18,1.1112e-21,2.6203,0.00056127,-0.00050312,3.9617e-32,0.00010224,-30.54,-123.59,-46.274,0.025305,-6.8574e-13,1.6561e-16,86.256,-123.58,-46.274,-30.544,0,0.016249,0,1,4.075,0,-4.075,0
0,0,0,0,0,0,0.00010201,-0.00050244,4.3592e-35,1.2338e-07,-4.4529e-18,1.1253e-21,2.6186,0.0005604,-0.00050241,3.9543e-32,0.00010198,-30.528,-123.43,-46.222,0.019102,-6.846e-13,1.6776e-16,86.123,-123.42,-46.222,-30.532,0,0.016251,0,1,4.08,0,-4.08,0
0,0,0,0,0,0,0.00010175,-0.00050173,4.3488e-35,8.4127e-08,-4.4454e-18,1.1389e-21,2.6169,0.00055953,-0.0005017,3.9467e-32,0.00010172,-30.516,-123.27,-46.17,0.013066,-6.8344e-13,1.6986e-16,85.989,-123.26,-46.17,-30.52,0,0.016254,0,1,4.085,0,-4.085,0
0,0,0,0,0,0,0.00010149,-0.00050102,4.3385e-35,4.5947e-08,-4.4378e-18,1.1521e-21,2.6152,0.00055866,-0.00050098,3.9391e-32,0.00010146,-30.504,-123.1,-46.117,0.0071946,-6.8227e-13,1.7189e-16,85.856,-123.1,-46.117,-30.508,0,0.016256,0,1,4.09,0,-4.09,0
0,0,0,0,0,0,0.00010123,-0.0005003,4.3282e-35,8.8488e-09,-4.4301e-18,1.165e-21,2.6135,0.00055779,-0.00050027,3.9313e-32,0.0001012,-30.491,-122.94,-46.065,0.0014898,-6.8108e-13,1.7386e-16,85.722,-122.94,-46.065,-30.496,0,0.016259,0,1,4.095,0,-4.095,0
0,0,0,0,0,0,0.00010097,-0.00049959,4.318e-35,-2.7176e-08,-4.4223e-18,1.1775e-21,2.6118,0.00055692,-0.00049956,3.9234e-32,0.00010094,-30.479,-122.78,-46.013,-0.0040498,-6.7988e-13,1.7578e-16,85.589,-122.78,-46.013,-30.484,0,0.016261,0,1,4.1,0,-4.1,0
0,0,0,0,0,0,0.00010071,-0.00049888,4.3078e-35,-6.2123e-08,-4.4144e-18,1.1896e-21,2.6101,0.00055605,-0.00049884,3.9153e-32,0.00010068,-30.466,-122.62,-45.96,-0.0094238,-6.7867e-13,1.7764e-16,85.455,-122.61,-45.96,-30.471,0,0.016264,0,1,4.105,0,-4.105,0
0,0,0,0,0,0,0.00010045,-0.00049816,4.2977e-35,-9.5993e-08,-4.4064e-18,1.2013e-21,2.6084,0.00055518,-0.00049813,3.9071e-32,0.00010042,-30.453,-122.46,-45.907,-0.014632,-6.7745e-13,1.7944e-16,85.321,-122.45,-45.907,-30.459,0,0.016266,0,1,4.11,0,-4.11,0
0,0,0,0,0,0,0.0001002,-0.00049745,4.2876e-35,-1.2878e-07,-4.3984e-18,1.2127e-21,2.6067,0.00055431,-0.00049741,3.8988e-32,0.00010016,-30.44,-122.29,-45.855,-0.019674,-6.7621e-13,1.8118e-16,85.187,-122.29,-45.855,-30.446,0,0.016269,0,1,4.115,0,-4.115,0
0,0,0,0,0,0,9.9938e-05,-0.00049673,4.2775e-35,-1.605e-07,-4.3903e-18,1.2237e-21,2.605,0.00055344,-0.00049669,3.8903e-32,9.99e-05,-30.427,-122.13,-45.802,-0.024551,-6.7496e-13,1.8286e-16,85.054,-122.12,-45.802,-30.433,0,0.016271,0,1,4.12,0,-4.12,0
0,0,0,0,0,0,9.968e-05,-0.00049601,4.2675e-35,-1.9113e-07,-4.382e-18,1.2342e-21,2.6034,0.00055256,-0.00049597,3.8817e-32,9.9642e-05,-30.413,-121.97,-45.749,-0.029262,-6.737e-13,1.8448e-16,84.92,-121.96,-45.749,-30.419,0,0.016273,0,1,4.125,0,-4.125,0
0,0,0,0,0,0,9.9423e-05,-0.00049529,4.2575e-35,-2.2069e-07,-4.3737e-18,1.2444e-21,2.6017,0.00055169,-0.00049525,3.873e-32,9.9384e-05,-30.4,-121.8,-45.696,-0.033808,-6.7242e-13,1.8605e-16,84.786,-121.8,-45.696,-30.406,0,0.016276,0,1,4.13,0,-4.13,0
0,0,0,0,0,0,9.9166e-05,-0.00049458,4.2476e-35,-2.4918e-07,-4.3654e-18,1.2543e-21,2.6,0.00055082,-0.00049454,3.8642e-32,9.9126e-05,-30.386,-121.64,-45.642,-0.038188,-6.7114e-13,1.8756e-16,84.652,-121.63,-45.642,-30.392,0,0.016278,0,1,4.135,0,-4.135,0
0,0,0,0,0,0,9.8909e-05,-0.00049386,4.2376e-35,-2.7658e-07,-4.3569e-18,1.2637e-21,2.5983,0.00054994,-0.00049382,3.8552e-32,9.8868e-05,-30.372,-121.48,-45.589,-0.042401,-6.6983e-13,1.8901e-16,84.518,-121.47,-45.589,-30.378,0,0.016281,0,1,4.14,0,-4.14,0
0,0,0,0,0,0,9.8653e-05,-0.00049314,4.2278e-35,-3.0291e-07,-4.3483e-18,1.2728e-21,2.5966,0.00054907,-0.00049309,3.846e-32,9.8611e-05,-30.358,-121.31,-45.535,-0.04645,-6.6852e-13,1.904e-16,84.383,-121.31,-45.535,-30.364,0,0.016283,0,1,4.145,0,-4.145,0
0,0,0,0,0,0,9.8397e-05,-0.00049242,4.218e-35,-3.2816e-07,-4.3397e-18,1.2814e-21,2.5949,0.0005482,-0.00049237,3.8368e-32,9.8354e-05,-30.344,-121.15,-45.482,-0.050332,-6.6719e-13,1.9173e-16,84.249,-121.14,-45.482,-30.35,0,0.016286,0,1,4.15,0,-4.15,0
0,0,0,0,0,0,9.8141e-05,-0.00049169,4.2082e-35,-3.5233e-07,-4.331e-18,1.2897e-21,2.5932,0.00054732,-0.00049165,3.8274e-32,9.8098e-05,-30.329,-120.98,-45.428,-0.054049,-6.6585e-13,1.93e-16,84.115,-120.98,-45.428,-30.336,0,0.016288,0,1,4.155,0,-4.155,0
0,0,0,0,0,0,9.7886e-05,-0.00049097,4.1984e-35,-3.7542e-07,-4.3222e-18,1.2977e-21,2.5915,0.00054645,-0.00049093,3.8178e-32,9.7842e-05,-30.315,-120.82,-45.374,-0.0576,-6.645e-13,1.9422e-16,83.98,-120.81,-45.374,-30.321,0,0.016291,0,1,4.16,0,-4.16,0
0,0,0,0,0,0,9.7631e-05,-0.00049025,4.1887e-35,-3.9744e-07,-4.3133e-18,1.3052e-21,2.5898,0.00054557,-0.0004902,3.8082e-32,9.7586e-05,-30.3,-120.65,-45.32,-0.060986,-6.6313e-13,1.9538e-16,83.846,-120.65,-45.32,-30.307,0,0.016293,0,1,4.165,0,-4.165,0
0,0,0,0,0,0,9.7377e-05,-0.00048953,4.1791e-35,-4.1838e-07,-4.3043e-18,1.3123e-21,2.5881,0.00054469,-0.00048948,3.7984e-32,9.7331e-05,-30.285,-120.49,-45.266,-0.064206,-6.6175e-13,1.9647e-16,83.711,-120.48,-45.266,-30.292,0,0.016296,0,1,4.17,0,-4.17,0
0,0,0,0,0,0,9.7123e-05,-0.0004888,4.1694e-35,-4.3824e-07,-4.2953e-18,1.3191e-21,2.5864,0.00054382,-0.00048876,3.7884e-32,9.7076e-05,-30.27,-120.32,-45.211,-0.06726,-6.6036e-13,1.9751e-16,83.577,-120.32,-45.211,-30.277,0,0.016298,0,1,4.175,0,-4.175,0
0,0,0,0,0,0,9.6869e-05,-0.00048808,4.1598e-35,-4.5702e-07,-4.2861e-18,1.3255e-21,2.5847,0.00054294,-0.00048803,3.7784e-32,9.6822e-05,-30.254,-120.16,-45.157,-0.070149,-6.5896e-13,1.985e-16,83.442,-120.15,-45.157,-30.262,0,0.0163,0,1,4.18,0,-4.18,0
0,0,0,0,0,0,9.6615e-05,-0.00048735,4.1503e-35,-4.7473e-07,-4.2769e-18,1.3315e-21,2.583,0.00054206,-0.0004873,3.7682e-32,9.6568e-05,-30.239,-119.99,-45.103,-0.072872,-6.5754e-13,1.9942e-16,83.307,-119.98,-45.103,-30.246,0,0.016303,0,1,4.185,0,-4.185,0
0,0,0,0,0,0,9.6362e-05,-0.00048663,4.1408e-35,-4.9136e-07,-4.2676e-18,1.3371e-21,2.5813,0.00054119,-0.00048658,3.7578e-32,9.6314e-05,-30.223,-119.83,-45.048,-0.075429,-6.5611e-13,2.0028e-16,83.173,-119.82,-45.048,-30.231,0,0.016305,0,1,4.19,0,-4.19,0
0,0,0,0,0,0,9.6109e-05,-0.0004859,4.1313e-35,-5.0691e-07,-4.2582e-18,1.3424e-21,2.5796,0.00054031,-0.00048585,3.7474e-32,9.606e-05,-30.207,-119.66,-44.993,-0.07782,-6.5466e-13,2.0109e-16,83.038,-119.65,-44.993,-30.215,0,0.016308,0,1,4.195,0,-4.195,0
0,0,0,0,0,0,9.5857e-05,-0.00048517,4.1219e-35,-5.2139e-07,-4.2487e-18,1.3472e-21,2.5779,0.00053943,-0.00048512,3.7368e-32,9.5807e-05,-30.191,-119.49,-44.938,-0.080046,-6.5321e-13,2.0184e-16,82.903,-119.48,-44.938,-30.199,0,0.01631,0,1,4.2,0,-4.2,0
0,0,0,0,0,0,9.5604e-05,-0.00048444,4.1125e-35,-5.3479e-07,-4.2392e-18,1.3517e-21,2.5762,0.00053855,-0.00048439,3.726e-32,9.5555e-05,-30.175,-119.33,-44.883,-0.082106,-6.5174e-13,2.0253e-16,82.768,-119.32,-44.883,-30.183,0,0.016312,0,1,4.205,0,-4.205,0
0,0,0,0,0,0,9.5353e-05,-0.00048371,4.1032e-35,-5.4711e-07,-4.2295e-18,1.3558e-21,2.5745,0.00053767,-0.00048366,3.7152e-32,9.5302e-05,-30.159,-119.16,-44.828,-0.084001,-6.5026e-13,2.0316e-16,82.633,-119.15,-44.828,-30.166,0,0.016315,0,1,4.21,0,-4.21,0
0,0,0,0,0,0,9.5101e-05,-0.00048298,4.0939e-35,-5.5835e-07,-4.2198e-18,1.3596e-21,2.5728,0.00053679,-0.00048293,3.7042e-32,9.505e-05,-30.142,-118.99,-44.773,-0.085729,-6.4876e-13,2.0373e-16,82.498,-118.98,-44.773,-30.15,0,0.016317,0,1,4.215,0,-4.215,0
0,0,0,0,0,0,9.485e-05,-0.00048225,4.0846e-35,-5.6851e-07,-4.21e-18,1.3629e-21,2.5711,0.00053591,-0.0004822,3.693e-32,9.4799e-05,-30.125,-118.82,-44.718,-0.087292,-6.4725e-13,2.0425e-16,82.362,-118.82,-44.718,-30.133,0,0.01632,0,1,4.22,0,-4.22,0
0,0,0,0,0,0,9.4599e-05,-0.00048152,4.0754e-35,-5.776e-07,-4.2001e-18,1.3658e-21,2.5694,0.00053503,-0.00048147,3.6817e-32,9.4548e-05,-30.108,-118.66,-44.662,-0.08869,-6.4573e-13,2.047e-16,82.227,-118.65,-44.662,-30.116,0,0.016322,0,1,4.225,0,-4.225,0
0,0,0,0,0,0,9.4349e-05,-0.00048079,4.0662e-35,-5.8561e-07,-4.1901e-18,1.3684e-21,2.5677,0.00053415,-0.00048074,3.6703e-32,9.4297e-05,-30.091,-118.49,-44.606,-0.089921,-6.442e-13,2.051e-16,82.092,-118.48,-44.606,-30.099,0,0.016324,0,1,4.23,0,-4.23,0
0,0,0,0,0,0,9.4098e-05,-0.00048005,4.0571e-35,-5.9254e-07,-4.18e-18,1.3706e-21,2.566,0.00053327,-0.00048,3.6588e-32,9.4046e-05,-30.074,-118.32,-44.551,-0.090987,-6.4265e-13,2.0544e-16,81.956,-118.31,-44.551,-30.082,0,0.016327,0,1,4.235,0,-4.235,0
0,0,0,0,0,0,9.3849e-05,-0.00047932,4.048e-35,-5.984e-07,-4.1699e-18,1.3724e-21,2.5643,0.00053238,-0.00047927,3.6471e-32,9.3796e-05,-30.057,-118.15,-44.495,-0.091887,-6.4109e-13,2.0572e-16,81.821,-118.14,-44.495,-30.065,0,0.016329,0,1,4.24,0,-4.24,0
0,0,0,0,0,0,9.3599e-05,-0.00047859,4.0389e-35,-6.0317e-07,-4.1596e-18,1.3739e-21,2.5626,0.0005315,-0.00047853,3.6353e-32,9.3546e-05,-30.039,-117.98,-44.439,-0.092622,-6.3952e-13,2.0594e-16,81.685,-117.97,-44.439,-30.047,0,0.016332,0,1,4.245,0,-4.245,0
0,0,0,0,0,0,9.335e-05,-0.00047785,4.0299e-35,-6.0687e-07,-4.1493e-18,1.3749e-21,2.5609,0.00053062,-0.0004778,3.6234e-32,9.3297e-05,-30.021,-117.81,-44.383,-0.093191,-6.3793e-13,2.0611e-16,81.55,-117.81,-44.383,-30.03,0,0.016334,0,1,4.25,0,-4.25,0
0,0,0,0,0,0,9.3101e-05,-0.00047712,4.0209e-35,-6.095e-07,-4.1389e-18,1.3756e-21,2.5592,0.00052973,-0.00047706,3.6113e-32,9.3048e-05,-30.003,-117.64,-44.326,-0.093594,-6.3633e-13,2.0621e-16,81.414,-117.64,-44.326,-30.012,0,0.016336,0,1,4.255,0,-4.255,0
0,0,0,0,0,0,9.2853e-05,-0.00047638,4.0119e-35,-6.1104e-07,-4.1284e-18,1.3759e-21,2.5575,0.00052885,-0.00047633,3.5991e-32,9.2799e-05,-29.985,-117.48,-44.27,-0.093832,-6.3472e-13,2.0626e-16,81.278,-117.47,-44.27,-29.994,0,0.016339,0,1,4.26,0,-4.26,0
0,0,0,0,0,0,9.2605e-05,-0.00047564,4.003e-35,-6.1151e-07,-4.1179e-18,1.3758e-21,2.5558,0.00052797,-0.00047559,3.5867e-32,9.2551e-05,-29.967,-117.31,-44.214,-0.093904,-6.3309e-13,2.0625e-16,81.142,-117.3,-44.214,-29.975,0,0.016341,0,1,4.265,0,-4.265,0
0,0,0,0,0,0,9.2357e-05,-0.0004749,3.9942e-35,-6.109e-07,-4.1072e-18,1.3753e-21,2.5541,0.00052708,-0.00047485,3.5743e-32,9.2303e-05,-29.948,-117.14,-44.157,-0.09381,-6.3146e-13,2.0618e-16,81.007,-117.13,-44.157,-29.957,0,0.016343,0,1,4.27,0,-4.27,0
0,0,0,0,0,0,9.2109e-05,-0.00047417,3.9853e-35,-6.0921e-07,-4.0965e-18,1.3745e-21,2.5524,0.0005262,-0.00047411,3.5616e-32,9.2055e-05,-29.93,-116.97,-44.1,-0.09355,-6.298e-13,2.0605e-16,80.871,-116.96,-44.1,-29.938,0,0.016346,0,1,4.275,0,-4.275,0
0,0,0,0,0,0,9.1862e-05,-0.00047343,3.9766e-35,-6.0645e-07,-4.0856e-18,1.3732e-21,2.5507,0.00052531,-0.00047337,3.5489e-32,9.1808e-05,-29.911,-116.8,-44.043,-0.093125,-6.2814e-13,2.0587e-16,80.735,-116.79,-44.043,-29.919,0,0.016348,0,1,4.28,0,-4.28,0
0,0,0,0,0,0,9.1616e-05,-0.00047269,3.9678e-35,-6.0261e-07,-4.0747e-18,1.3716e-21,2.549,0.00052442,-0.00047263,3.536e-32,9.1561e-05,-29.892,-116.62,-43.987,-0.092534,-6.2646e-13,2.0562e-16,80.599,-116.62,-43.987,-29.9,0,0.01635,0,1,4.285,0,-4.285,0
0,0,0,0,0,0,9.1369e-05,-0.00047195,3.9591e-35,-5.9769e-07,-4.0637e-18,1.3696e-21,2.5473,0.00052354,-0.00047189,3.523e-32,9.1315e-05,-29.873,-116.45,-43.929,-0.091777,-6.2477e-13,2.0532e-16,80.462,-116.45,-43.929,-29.881,0,0.016353,0,1,4.29,0,-4.29,0
0,0,0,0,0,0,9.1123e-05,-0.0004712,3.9504e-35,-5.9169e-07,-4.0527e-18,1.3672e-21,2.5456,0.00052265,-0.00047115,3.5098e-32,9.1069e-05,-29.853,-116.28,-43.872,-0.090855,-6.2307e-13,2.0496e-16,80.326,-116.27,-43.872,-29.862,0,0.016355,0,1,4.295,0,-4.295,0
0,0,0,0,0,0,9.0877e-05,-0.00047046,3.9418e-35,-5.8462e-07,-4.0415e-18,1.3645e-21,2.5439,0.00052176,-0.00047041,3.4966e-32,9.0823e-05,-29.834,-116.11,-43.815,-0.089767,-6.2136e-13,2.0454e-16,80.19,-116.1,-43.815,-29.842,0,0.016357,0,1,4.3,0,-4.3,0
0,0,0,0,0,0,9.0632e-05,-0.00046972,3.9332e-35,-5.7646e-07,-4.0303e-18,1.3613e-21,2.5422,0.00052088,-0.00046966,3.4832e-32,9.0578e-05,-29.814,-115.94,-43.757,-0.088514,-6.1963e-13,2.0406e-16,80.054,-115.93,-43.757,-29.823,0,0.01636,0,1,4.305,0,-4.305,0
0,0,0,0,0,0,9.0387e-05,-0.00046898,3.9247e-35,-5.6723e-07,-4.0189e-18,1.3578e-21,2.5405,0.00051999,-0.00046892,3.4696e-32,9.0333e-05,-29.794,-115.77,-43.7,-0.087094,-6.1789e-13,2.0352e-16,79.917,-115.76,-43.7,-29.803,0,0.016362,0,1,4.31,0,-4.31,0
0,0,0,0,0,0,9.0142e-05,-0.00046823,3.9162e-35,-5.5693e-07,-4.0075e-18,1.3539e-21,2.5388,0.0005191,-0.00046818,3.4559e-32,9.0088e-05,-29.774,-115.6,-43.642,-0.085509,-6.1613e-13,2.0293e-16,79.781,-115.59,-43.642,-29.783,0,0.016364,0,1,4.315,0,-4.315,0
0,0,0,0,0,0,8.9898e-05,-0.00046749,3.9077e-35,-5.4554e-07,-3.996e-18,1.3496e-21,2.5371,0.00051821,-0.00046743,3.4421e-32,8.9844e-05,-29.754,-115.42,-43.584,-0.083758,-6.1437e-13,2.0227e-16,79.644,-115.42,-43.584,-29.762,0,0.016367,0,1,4.32,0,-4.32,0
0,0,0,0,0,0,8.9654e-05,-0.00046674,3.8993e-35,-5.3308e-07,-3.9844e-18,1.3449e-21,2.5354,0.00051732,-0.00046669,3.4281e-32,8.96e-05,-29.734,-115.25,-43.526,-0.081842,-6.1259e-13,2.0156e-16,79.508,-115.24,-43.526,-29.742,0,0.016369,0,1,4.325,0,-4.325,0
0,0,0,0,0,0,8.941e-05,-0.00046599,3.8909e-35,-5.1954e-07,-3.9728e-18,1.3399e-21,2.5338,0.00051643,-0.00046594,3.4141e-32,8.9356e-05,-29.713,-115.08,-43.468,-0.07976,-6.1079e-13,2.0079e-16,79.371,-115.07,-43.468,-29.721,0,0.016371,0,1,4.33,0,-4.33,0
0,0,0,0,0,0,8.9167e-05,-0.00046525,3.8826e-35,-5.0493e-07,-3.961e-18,1.3344e-21,2.5321,0.00051554,-0.00046519,3.3998e-32,8.9113e-05,-29.692,-114.91,-43.41,-0.077512,-6.0899e-13,1.9996e-16,79.234,-114.9,-43.41,-29.701,0,0.016374,0,1,4.335,0,-4.335,0
0,0,0,0,0,0,8.8924e-05,-0.0004645,3.8743e-35,-4.8923e-07,-3.9492e-18,1.3286e-21,2.5304,0.00051465,-0.00046444,3.3855e-32,8.887e-05,-29.671,-114.73,-43.352,-0.075099,-6.0717e-13,1.9907e-16,79.097,-114.72,-43.352,-29.68,0,0.016376,0,1,4.34,0,-4.34,0
0,0,0,0,0,0,8.8681e-05,-0.00046375,3.866e-35,-4.7246e-07,-3.9373e-18,1.3224e-21,2.5287,0.00051376,-0.0004637,3.371e-32,8.8628e-05,-29.65,-114.56,-43.293,-0.07252,-6.0533e-13,1.9813e-16,78.96,-114.55,-43.293,-29.659,0,0.016378,0,1,4.345,0,-4.345,0
0,0,0,0,0,0,8.8439e-05,-0.000463,3.8578e-35,-4.5461e-07,-3.9253e-18,1.3159e-21,2.527,0.00051287,-0.00046295,3.3564e-32,8.8386e-05,-29.629,-114.39,-43.235,-0.069775,-6.0349e-13,1.9713e-16,78.824,-114.38,-43.235,-29.637,0,0.01638,0,1,4.35,0,-4.35,0
0,0,0,0,0,0,8.8197e-05,-0.00046225,3.8496e-35,-4.3568e-07,-3.9132e-18,1.3089e-21,2.5253,0.00051197,-0.0004622,3.3416e-32,8.8144e-05,-29.608,-114.21,-43.176,-0.066864,-6.0163e-13,1.9606e-16,78.687,-114.2,-43.176,-29.616,0,0.016383,0,1,4.355,0,-4.355,0
0,0,0,0,0,0,8.7955e-05,-0.0004615,3.8415e-35,-4.1568e-07,-3.901e-18,1.3016e-21,2.5236,0.00051108,-0.00046145,3.3267e-32,8.7903e-05,-29.586,-114.04,-43.117,-0.063788,-5.9976e-13,1.9494e-16,78.549,-114.03,-43.117,-29.594,0,0.016385,0,1,4.36,0,-4.36,0
0,0,0,0,0,0,8.7714e-05,-0.00046075,3.8334e-35,-3.946e-07,-3.8888e-18,1.2938e-21,2.5219,0.00051019,-0.0004607,3.3117e-32,8.7662e-05,-29.564,-113.86,-43.058,-0.060546,-5.9788e-13,1.9376e-16,78.412,-113.86,-43.058,-29.572,0,0.016387,0,1,4.365,0,-4.365,0
0,0,0,0,0,0,8.7473e-05,-0.00045999,3.8253e-35,-3.7244e-07,-3.8764e-18,1.2857e-21,2.5202,0.00050929,-0.00045994,3.2965e-32,8.7421e-05,-29.542,-113.69,-42.999,-0.057139,-5.9598e-13,1.9253e-16,78.275,-113.68,-42.999,-29.55,0,0.01639,0,1,4.37,0,-4.37,0
0,0,0,0,0,0,8.7232e-05,-0.00045924,3.8173e-35,-3.492e-07,-3.864e-18,1.2773e-21,2.5185,0.0005084,-0.00045919,3.2812e-32,8.7181e-05,-29.52,-113.51,-42.94,-0.053565,-5.9407e-13,1.9123e-16,78.138,-113.51,-42.94,-29.528,0,0.016392,0,1,4.375,0,-4.375,0
0,0,0,0,0,0,8.6992e-05,-0.00045849,3.8093e-35,-3.2489e-07,-3.8515e-18,1.2684e-21,2.5168,0.00050751,-0.00045844,3.2658e-32,8.6941e-05,-29.498,-113.34,-42.881,-0.049826,-5.9215e-13,1.8987e-16,78,-113.33,-42.881,-29.506,0,0.016394,0,1,4.38,0,-4.38,0
0,0,0,0,0,0,8.6752e-05,-0.00045773,3.8013e-35,-2.995e-07,-3.8389e-18,1.2591e-21,2.5151,0.00050661,-0.00045768,3.2503e-32,8.6702e-05,-29.475,-113.16,-42.821,-0.045921,-5.9021e-13,1.8846e-16,77.863,-113.16,-42.821,-29.483,0,0.016396,0,1,4.385,0,-4.385,0
0,0,0,0,0,0,8.6512e-05,-0.00045698,3.7934e-35,-2.7303e-07,-3.8262e-18,1.2495e-21,2.5134,0.00050572,-0.00045693,3.2346e-32,8.6463e-05,-29.453,-112.99,-42.762,-0.041851,-5.8826e-13,1.8699e-16,77.726,-112.98,-42.762,-29.46,0,0.016399,0,1,4.39,0,-4.39,0
0,0,0,0,0,0,8.6273e-05,-0.00045622,3.7856e-35,-2.4548e-07,-3.8135e-18,1.2395e-21,2.5117,0.00050482,-0.00045617,3.2187e-32,8.6224e-05,-29.43,-112.81,-42.702,-0.037615,-5.863e-13,1.8546e-16,77.588,-112.81,-42.702,-29.437,0,0.016401,0,1,4.395,0,-4.395,0
0,0,0,0,0,0,8.6034e-05,-0.00045546,3.7778e-35,-2.1686e-07,-3.8006e-18,1.2291e-21,2.51,0.00050392,-0.00045542,3.2028e-32,8.5986e-05,-29.407,-112.64,-42.642,-0.033213,-5.8433e-13,1.8387e-16,77.45,-112.63,-42.642,-29.414,0,0.016403,0,1,4.4,0,-4.4,0
0,0,0,0,0,0,8.5795e-05,-0.00045471,3.77e-35,-1.8716e-07,-3.7877e-18,1.2184e-21,2.5083,0.00050303,-0.00045466,3.1867e-32,8.5748e-05,-29.384,-112.46,-42.583,-0.028646,-5.8234e-13,1.8223e-16,77.313,-112.45,-42.583,-29.391,0,0.016405,0,1,4.405,0,-4.405,0
0,0,0,0,0,0,8.5557e-05,-0.00045395,3.7622e-35,-1.5638e-07,-3.7747e-18,1.2072e-21,2.5066,0.00050213,-0.0004539,3.1704e-32,8.551e-05,-29.36,-112.28,-42.523,-0.023913,-5.8034e-13,1.8052e-16,77.175,-112.28,-42.523,-29.367,0,0.016408,0,1,4.41,0,-4.41,0
0,0,0,0,0,0,8.5319e-05,-0.00045319,3.7545e-35,-1.2452e-07,-3.7616e-18,1.1957e-21,2.5049,0.00050123,-0.00045314,3.1541e-32,8.5273e-05,-29.337,-112.11,-42.462,-0.019014,-5.7833e-13,1.7876e-16,77.037,-112.1,-42.462,-29.344,0,0.01641,0,1,4.415,0,-4.415,0
0,0,0,0,0,0,8.5081e-05,-0.00045243,3.7469e-35,-9.1591e-08,-3.7484e-18,1.1838e-21,2.5032,0.00050033,-0.00045239,3.1376e-32,8.5036e-05,-29.313,-111.93,-42.402,-0.01395,-5.763e-13,1.7694e-16,76.899,-111.92,-42.402,-29.32,0,0.016412,0,1,4.42,0,-4.42,0
0,0,0,0,0,0,8.4844e-05,-0.00045167,3.7392e-35,-5.7579e-08,-3.7352e-18,1.1715e-21,2.5015,0.00049944,-0.00045163,3.121e-32,8.4799e-05,-29.289,-111.75,-42.342,-0.0087195,-5.7426e-13,1.7506e-16,76.761,-111.75,-42.342,-29.296,0,0.016414,0,1,4.425,0,-4.425,0
0,0,0,0,0,0,8.4607e-05,-0.00045091,3.7317e-35,-2.2493e-08,-3.7218e-18,1.1588e-21,2.4998,0.00049854,-0.00045087,3.1042e-32,8.4563e-05,-29.265,-111.58,-42.281,-0.0033241,-5.7221e-13,1.7312e-16,76.623,-111.57,-42.281,-29.272,0,0.016417,0,1,4.43,0,-4.43,0
0,0,0,0,0,0,8.437e-05,-0.00045015,3.7241e-35,1.3674e-08,-3.7084e-18,1.1457e-21,2.4981,0.00049764,-0.0004501,3.0873e-32,8.4327e-05,-29.241,-111.4,-42.221,0.0022376,-5.7015e-13,1.7112e-16,76.485,-111.39,-42.221,-29.247,0,0.016419,0,1,4.435,0,-4.435,0
0,0,0,0,0,0,8.4134e-05,-0.00044939,3.7166e-35,5.0918e-08,-3.6949e-18,1.1323e-21,2.4964,0.00049674,-0.00044934,3.0703e-32,8.4092e-05,-29.216,-111.22,-42.16,0.0079649,-5.6807e-13,1.6907e-16,76.347,-111.21,-42.16,-29.223,0,0.016421,0,1,4.44,0,-4.44,0
0,0,0,0,0,0,8.3898e-05,-0.00044862,3.7092e-35,8.9239e-08,-3.6813e-18,1.1185e-21,2.4947,0.00049584,-0.00044858,3.0531e-32,8.3857e-05,-29.192,-111.04,-42.099,0.013858,-5.6598e-13,1.6695e-16,76.209,-111.04,-42.099,-29.198,0,0.016423,0,1,4.445,0,-4.445,0
0,0,0,0,0,0,8.3663e-05,-0.00044786,3.7017e-35,1.2863e-07,-3.6676e-18,1.1043e-21,2.493,0.00049494,-0.00044782,3.0358e-32,8.3622e-05,-29.167,-110.86,-42.038,0.019916,-5.6387e-13,1.6478e-16,76.071,-110.86,-42.038,-29.173,0,0.016425,0,1,4.45,0,-4.45,0
0,0,0,0,0,0,8.3428e-05,-0.00044709,3.6943e-35,1.6911e-07,-3.6538e-18,1.0897e-21,2.4913,0.00049404,-0.00044705,3.0183e-32,8.3387e-05,-29.142,-110.69,-41.977,0.02614,-5.6176e-13,1.6255e-16,75.932,-110.68,-41.977,-29.148,0,0.016428,0,1,4.455,0,-4.455,0
0,0,0,0,0,0,8.3193e-05,-0.00044633,3.687e-35,2.1067e-07,-3.64e-18,1.0747e-21,2.4896,0.00049314,-0.00044629,3.0008e-32,8.3153e-05,-29.117,-110.51,-41.916,0.032531,-5.5963e-13,1.6026e-16,75.794,-110.5,-41.916,-29.123,0,0.01643,0,1,4.46,0,-4.46,0
0,0,0,0,0,0,8.2958e-05,-0.00044556,3.6797e-35,2.533e-07,-3.626e-18,1.0594e-21,2.4879,0.00049223,-0.00044552,2.9831e-32,8.292e-05,-29.092,-110.33,-41.854,0.039086,-5.5748e-13,1.5791e-16,75.655,-110.32,-41.854,-29.098,0,0.016432,0,1,4.465,0,-4.465,0
0,0,0,0,0,0,8.2724e-05,-0.0004448,3.6724e-35,2.97e-07,-3.612e-18,1.0436e-21,2.4862,0.00049133,-0.00044476,2.9652e-32,8.2687e-05,-29.066,-110.15,-41.793,0.045807,-5.5533e-13,1.5551e-16,75.517,-110.14,-41.793,-29.072,0,0.016434,0,1,4.47,0,-4.47,0
0,0,0,0,0,0,8.249e-05,-0.00044403,3.6652e-35,3.4179e-07,-3.5979e-18,1.0275e-21,2.4845,0.00049043,-0.00044399,2.9473e-32,8.2454e-05,-29.041,-109.97,-41.731,0.052694,-5.5316e-13,1.5304e-16,75.378,-109.96,-41.731,-29.046,0,0.016436,0,1,4.475,0,-4.475,0
0,0,0,0,0,0,8.2256e-05,-0.00044326,3.658e-35,3.8765e-07,-3.5837e-18,1.011e-21,2.4828,0.00048953,-0.00044322,2.9292e-32,8.2221e-05,-29.015,-109.79,-41.669,0.059747,-5.5098e-13,1.5052e-16,75.239,-109.78,-41.669,-29.02,0,0.016439,0,1,4.48,0,-4.48,0
0,0,0,0,0,0,8.2023e-05,-0.00044249,3.6509e-35,4.3459e-07,-3.5695e-18,9.9417e-22,2.4811,0.00048862,-0.00044246,2.9109e-32,8.1989e-05,-28.989,-109.61,-41.607,0.066966,-5.4878e-13,1.4794e-16,75.101,-109.61,-41.607,-28.994,0,0.016441,0,1,4.485,0,-4.485,0
0,0,0,0,0,0,8.179e-05,-0.00044172,3.6438e-35,4.8261e-07,-3.5551e-18,9.7692e-22,2.4794,0.00048772,-0.00044169,2.8925e-32,8.1757e-05,-28.963,-109.43,-41.545,0.074349,-5.4658e-13,1.453e-16,74.962,-109.43,-41.545,-28.968,0,0.016443,0,1,4.49,0,-4.49,0
0,0,0,0,0,0,8.1558e-05,-0.00044095,3.6367e-35,5.317e-07,-3.5407e-18,9.5928e-22,2.4777,0.00048681,-0.00044092,2.874e-32,8.1526e-05,-28.936,-109.25,-41.483,0.081899,-5.4436e-13,1.426e-16,74.823,-109.24,-41.483,-28.941,0,0.016445,0,1,4.495,0,-4.495,0
0,0,0,0,0,0,8.1326e-05,-0.00044018,3.6297e-35,5.8188e-07,-3.5261e-18,9.4126e-22,2.476,0.00048591,-0.00044015,2.8554e-32,8.1295e-05,-28.91,-109.07,-41.421,0.089615,-5.4212e-13,1.3985e-16,74.684,-109.06,-41.421,-28.915,0,0.016447,0,1,4.5,0,-4.5,0
0,0,0,0,0,0,8.1094e-05,-0.00043941,3.6227e-35,6.3313e-07,-3.5115e-18,9.2287e-22,2.4743,0.000485,-0.00043938,2.8366e-32,8.1064e-05,-28.883,-108.89,-41.359,0.097496,-5.3988e-13,1.3703e-16,74.545,-108.88,-41.359,-28.888,0,0.01645,0,1,4.505,0,-4.505,0
0,0,0,0,0,0,8.0862e-05,-0.00043864,3.6158e-35,6.8546e-07,-3.4968e-18,9.0409e-22,2.4726,0.0004841,-0.00043861,2.8177e-32,8.0834e-05,-28.856,-108.71,-41.296,0.10554,-5.3762e-13,1.3416e-16,74.406,-108.7,-41.296,-28.861,0,0.016452,0,1,4.51,0,-4.51,0
0,0,0,0,0,0,8.0631e-05,-0.00043786,3.6089e-35,7.3886e-07,-3.482e-18,8.8493e-22,2.4709,0.00048319,-0.00043783,2.7987e-32,8.0604e-05,-28.829,-108.53,-41.234,0.11376,-5.3535e-13,1.3123e-16,74.267,-108.52,-41.234,-28.833,0,0.016454,0,1,4.515,0,-4.515,0
0,0,0,0,0,0,8.04e-05,-0.00043709,3.602e-35,7.9334e-07,-3.4672e-18,8.6539e-22,2.4692,0.00048229,-0.00043706,2.7795e-32,8.0374e-05,-28.802,-108.34,-41.171,0.12213,-5.3306e-13,1.2824e-16,74.127,-108.34,-41.171,-28.806,0,0.016456,0,1,4.52,0,-4.52,0
0,0,0,0,0,0,8.017e-05,-0.00043631,3.5952e-35,8.4891e-07,-3.4522e-18,8.4547e-22,2.4675,0.00048138,-0.00043629,2.7602e-32,8.0145e-05,-28.775,-108.16,-41.108,0.13068,-5.3076e-13,1.2519e-16,73.988,-108.16,-41.108,-28.778,0,0.016458,0,1,4.525,0,-4.525,0
0,0,0,0,0,0,7.994e-05,-0.00043554,3.5884e-35,9.0554e-07,-3.4372e-18,8.2516e-22,2.4658,0.00048047,-0.00043551,2.7407e-32,7.9916e-05,-28.747,-107.98,-41.045,0.13939,-5.2845e-13,1.2209e-16,73.849,-107.98,-41.045,-28.751,0,0.01646,0,1,4.53,0,-4.53,0
0,0,0,0,0,0,7.971e-05,-0.00043476,3.5817e-35,9.6326e-07,-3.4221e-18,8.0448e-22,2.4641,0.00047956,-0.00043474,2.7211e-32,7.9688e-05,-28.719,-107.8,-40.982,0.14826,-5.2613e-13,1.1892e-16,73.709,-107.8,-40.982,-28.723,0,0.016462,0,1,4.535,0,-4.535,0
0,0,0,0,0,0,7.948e-05,-0.00043398,3.575e-35,1.022e-06,-3.4069e-18,7.8341e-22,2.4625,0.00047865,-0.00043396,2.7014e-32,7.946e-05,-28.691,-107.62,-40.919,0.1573,-5.2379e-13,1.157e-16,73.57,-107.61,-40.919,-28.695,0,0.016465,0,1,4.54,0,-4.54,0
0,0,0,0,0,0,7.9251e-05,-0.00043321,3.5683e-35,1.0819e-06,-3.3916e-18,7.6196e-22,2.4608,0.00047775,-0.00043319,2.6816e-32,7.9232e-05,-28.663,-107.43,-40.856,0.16651,-5.2144e-13,1.1242e-16,73.43,-107.43,-40.856,-28.666,0,0.016467,0,1,4.545,0,-4.545,0
0,0,0,0,0,0,7.9023e-05,-0.00043243,3.5617e-35,1.1429e-06,-3.3762e-18,7.4013e-22,2.4591,0.00047684,-0.00043241,2.6616e-32,7.9004e-05,-28.635,-107.25,-40.792,0.17588,-5.1908e-13,1.0908e-16,73.291,-107.25,-40.792,-28.638,0,0.016469,0,1,4.55,0,-4.55,0
0,0,0,0,0,0,7.8794e-05,-0.00043165,3.5551e-35,1.2049e-06,-3.3608e-18,7.1792e-22,2.4574,0.00047593,-0.00043163,2.6415e-32,7.8777e-05,-28.607,-107.07,-40.728,0.18542,-5.1671e-13,1.0568e-16,73.151,-107.06,-40.728,-28.609,0,0.016471,0,1,4.555,0,-4.555,0
0,0,0,0,0,0,7.8566e-05,-0.00043087,3.5486e-35,1.268e-06,-3.3453e-18,6.9533e-22,2.4557,0.00047502,-0.00043085,2.6212e-32,7.8551e-05,-28.578,-106.88,-40.665,0.19512,-5.1432e-13,1.0222e-16,73.011,-106.88,-40.665,-28.58,0,0.016473,0,1,4.56,0,-4.56,0
0,0,0,0,0,0,7.8338e-05,-0.00043009,3.5421e-35,1.3322e-06,-3.3296e-18,6.7236e-22,2.454,0.00047411,-0.00043008,2.6009e-32,7.8324e-05,-28.549,-106.7,-40.601,0.20499,-5.1192e-13,9.8705e-17,72.871,-106.7,-40.601,-28.551,0,0.016475,0,1,4.565,0,-4.565,0
0,0,0,0,0,0,7.8111e-05,-0.00042931,3.5356e-35,1.3974e-06,-3.3139e-18,6.49e-22,2.4523,0.00047319,-0.0004293,2.5803e-32,7.8098e-05,-28.52,-106.52,-40.537,0.21503,-5.095e-13,9.5131e-17,72.731,-106.51,-40.537,-28.522,0,0.016477,0,1,4.57,0,-4.57,0
0,0,0,0,0,0,7.7884e-05,-0.00042853,3.5292e-35,1.4638e-06,-3.2982e-18,6.2527e-22,2.4506,0.00047228,-0.00042852,2.5597e-32,7.7873e-05,-28.491,-106.33,-40.473,0.22523,-5.0707e-13,9.1499e-17,72.592,-106.33,-40.473,-28.493,0,0.016479,0,1,4.575,0,-4.575,0
0,0,0,0,0,0,7.7657e-05,-0.00042774,3.5228e-35,1.5312e-06,-3.2823e-18,6.0115e-22,2.4489,0.00047137,-0.00042773,2.5389e-32,7.7648e-05,-28.462,-106.15,-40.409,0.2356,-5.0463e-13,8.7808e-17,72.452,-106.15,-40.409,-28.463,0,0.016482,0,1,4.58,0,-4.58,0
0,0,0,0,0,0,7.7431e-05,-0.00042696,3.5165e-35,1.5997e-06,-3.2663e-18,5.7665e-22,2.4472,0.00047046,-0.00042695,2.518e-32,7.7423e-05,-28.432,-105.96,-40.344,0.24613,-5.0218e-13,8.4059e-17,72.311,-105.96,-40.344,-28.434,0,0.016484,0,1,4.585,0,-4.585,0
0,0,0,0,0,0,7.7204e-05,-0.00042618,3.5102e-35,1.6692e-06,-3.2503e-18,5.5177e-22,2.4455,0.00046955,-0.00042617,2.4969e-32,7.7198e-05,-28.403,-105.78,-40.28,0.25683,-4.9971e-13,8.0252e-17,72.171,-105.78,-40.28,-28.404,0,0.016486,0,1,4.59,0,-4.59,0
0,0,0,0,0,0,7.6979e-05,-0.00042539,3.5039e-35,1.7399e-06,-3.2342e-18,5.2651e-22,2.4438,0.00046863,-0.00042539,2.4757e-32,7.6974e-05,-28.373,-105.59,-40.215,0.26769,-4.9724e-13,7.6386e-17,72.031,-105.59,-40.215,-28.374,0,0.016488,0,1,4.595,0,-4.595,0
0,0,0,0,0,0,7.6753e-05,-0.00042461,3.4977e-35,1.8116e-06,-3.218e-18,5.0087e-22,2.4421,0.00046772,-0.0004246,2.4544e-32,7.6751e-05,-28.343,-105.41,-40.151,0.27872,-4.9474e-13,7.2462e-17,71.891,-105.41,-40.151,-28.343,0,0.01649,0,1,4.6,0,-4.6,0
0,0,0,0,0,0,7.6528e-05,-0.00042382,3.4915e-35,1.8844e-06,-3.2017e-18,4.7485e-22,2.4404,0.00046681,-0.00042382,2.433e-32,7.6527e-05,-28.313,-105.22,-40.086,0.28991,-4.9224e-13,6.848e-17,71.75,-105.22,-40.086,-28.313,0,0.016492,0,1,4.605,0,-4.605,0
0,0,0,0,0,0,7.6304e-05,-0.00042303,3.4854e-35,1.9583e-06,-3.1853e-18,4.4844e-22,2.4387,0.00046589,-0.00042303,2.4114e-32,7.6304e-05,-28.282,-105.04,-40.021,0.30127,-4.8972e-13,6.4439e-17,71.61,-105.04,-40.021,-28.282,0,0.016494,0,1,4.61,0,-4.61,0
0,0,0,0,0,0,7.6079e-05,-0.00042224,3.4793e-35,2.0332e-06,-3.1688e-18,4.2166e-22,2.437,0.00046498,-0.00042225,2.3897e-32,7.6082e-05,-28.252,-104.85,-39.956,0.3128,-4.8719e-13,6.034e-17,71.469,-104.85,-39.956,-28.251,0,0.016496,0,1,4.615,0,-4.615,0
0,0,0,0,0,0,7.5855e-05,-0.00042146,3.4732e-35,2.1093e-06,-3.1523e-18,3.9449e-22,2.4353,0.00046406,-0.00042146,2.3678e-32,7.5859e-05,-28.221,-104.66,-39.891,0.32449,-4.8465e-13,5.6182e-17,71.329,-104.67,-39.891,-28.22,0,0.016498,0,1,4.62,0,-4.62,0
0,0,0,0,0,0,7.5631e-05,-0.00042067,3.4672e-35,2.1864e-06,-3.1357e-18,3.6694e-22,2.4336,0.00046315,-0.00042067,2.3458e-32,7.5638e-05,-28.19,-104.48,-39.826,0.33635,-4.8209e-13,5.1965e-17,71.188,-104.48,-39.826,-28.189,0,0.0165,0,1,4.625,0,-4.625,0
0,0,0,0,0,0,7.5408e-05,-0.00041988,3.4612e-35,2.2646e-06,-3.1189e-18,3.3901e-22,2.4319,0.00046223,-0.00041989,2.3237e-32,7.5416e-05,-28.159,-104.29,-39.76,0.34837,-4.7952e-13,4.7691e-17,71.047,-104.29,-39.76,-28.158,0,0.016502,0,1,4.63,0,-4.63,0
0,0,0,0,0,0,7.5185e-05,-0.00041909,3.4552e-35,2.3438e-06,-3.1021e-18,3.107e-22,2.4302,0.00046131,-0.0004191,2.3014e-32,7.5195e-05,-28.128,-104.1,-39.695,0.36056,-4.7694e-13,4.3358e-17,70.907,-104.11,-39.695,-28.126,0,0.016505,0,1,4.635,0,-4.635,0
0,0,0,0,0,0,7.4962e-05,-0.0004183,3.4493e-35,2.4242e-06,-3.0853e-18,2.82e-22,2.4285,0.0004604,-0.00041831,2.279e-32,7.4974e-05,-28.097,-103.92,-39.629,0.37292,-4.7434e-13,3.8967e-17,70.766,-103.92,-39.629,-28.095,0,0.016507,0,1,4.64,0,-4.64,0
0,0,0,0,0,0,7.4892e-05,-0.00041789,3.475e-35,2.4137e-06,-3.0763e-18,2.8445e-22,2.4271,0.00045995,-0.0004179,2.2526e-32,7.4904e-05,-28.069,-103.82,-39.591,0.37131,-4.7297e-13,3.9381e-17,70.698,-103.82,-39.591,-28.067,0,0.016509,0,1,4.645,0,-4.645,0
0,0,0,0,0,0,7.4861e-05,-0.00041759,3.5083e-35,2.3807e-06,-3.0693e-18,2.9461e-22,2.4258,0.00045963,-0.0004176,2.2254e-32,7.4873e-05,-28.042,-103.74,-39.559,0.36623,-4.7189e-13,4.0986e-17,70.649,-103.74,-39.559,-28.04,0,0.016511,0,1,4.65,0,-4.65,0
0,0,0,0,0,0,7.4829e-05,-0.00041728,3.5414e-35,2.3478e-06,-3.0622e-18,3.0464e-22,2.4245,0.00045931,-0.00041729,2.1984e-32,7.4841e-05,-28.015,-103.66,-39.527,0.36117,-4.7079e-13,4.2571e-17,70.599,-103.66,-39.527,-28.014,0,0.016513,0,1,4.655,0,-4.655,0
0,0,0,0,0,0,7.4798e-05,-0.00041698,3.5742e-35,2.3152e-06,-3.055e-18,3.1453e-22,2.4232,0.00045899,-0.00041699,2.1716e-32,7.481e-05,-27.988,-103.58,-39.495,0.35615,-4.6969e-13,4.4135e-17,70.549,-103.58,-39.495,-27.987,0,0.016515,0,1,4.66,0,-4.66,0
0,0,0,0,0,0,7.4767e-05,-0.00041667,3.6068e-35,2.2828e-06,-3.0477e-18,3.2429e-22,2.4219,0.00045866,-0.00041668,2.1449e-32,7.4779e-05,-27.961,-103.5,-39.464,0.35117,-4.6856e-13,4.5678e-17,70.5,-103.5,-39.464,-27.96,0,0.016517,0,1,4.665,0,-4.665,0
0,0,0,0,0,0,7.4736e-05,-0.00041636,3.6391e-35,2.2505e-06,-3.0403e-18,3.3391e-22,2.4206,0.00045834,-0.00041637,2.1185e-32,7.4748e-05,-27.934,-103.42,-39.432,0.34621,-4.6743e-13,4.72e-17,70.45,-103.43,-39.432,-27.933,0,0.016519,0,1,4.67,0,-4.67,0
0,0,0,0,0,0,7.4706e-05,-0.00041606,3.6712e-35,2.2186e-06,-3.0328e-18,3.434e-22,2.4193,0.00045802,-0.00041607,2.0922e-32,7.4717e-05,-27.907,-103.34,-39.4,0.34129,-4.6628e-13,4.8701e-17,70.401,-103.35,-39.4,-27.906,0,0.016521,0,1,4.675,0,-4.675,0
0,0,0,0,0,0,7.4675e-05,-0.00041575,3.7031e-35,2.1868e-06,-3.0252e-18,3.5276e-22,2.4179,0.00045769,-0.00041576,2.0662e-32,7.4686e-05,-27.88,-103.27,-39.368,0.33641,-4.6512e-13,5.0182e-17,70.351,-103.27,-39.368,-27.878,0,0.016524,0,1,4.68,0,-4.68,0
0,0,0,0,0,0,7.4645e-05,-0.00041544,3.7347e-35,2.1552e-06,-3.0176e-18,3.6198e-22,2.4166,0.00045737,-0.00041545,2.0403e-32,7.4656e-05,-27.853,-103.19,-39.336,0.33155,-4.6394e-13,5.1642e-17,70.301,-103.19,-39.336,-27.851,0,0.016526,0,1,4.685,0,-4.685,0
0,0,0,0,0,0,7.4615e-05,-0.00041514,3.7661e-35,2.1239e-06,-3.0098e-18,3.7106e-22,2.4153,0.00045705,-0.00041515,2.0147e-32,7.4626e-05,-27.825,-103.11,-39.304,0.32673,-4.6275e-13,5.3081e-17,70.252,-103.11,-39.304,-27.824,0,0.016528,0,1,4.69,0,-4.69,0
0,0,0,0,0,0,7.4585e-05,-0.00041483,3.7972e-35,2.0928e-06,-3.002e-18,3.8002e-22,2.414,0.00045672,-0.00041484,1.9892e-32,7.4596e-05,-27.798,-103.03,-39.272,0.32195,-4.6154e-13,5.4499e-17,70.202,-103.03,-39.272,-27.796,0,0.01653,0,1,4.695,0,-4.695,0
0,0,0,0,0,0,7.4556e-05,-0.00041452,3.8281e-35,2.0619e-06,-2.994e-18,3.8883e-22,2.4127,0.0004564,-0.00041453,1.9639e-32,7.4566e-05,-27.77,-102.95,-39.24,0.31719,-4.6032e-13,5.5896e-17,70.153,-102.95,-39.24,-27.769,0,0.016532,0,1,4.7,0,-4.7,0
0,0,0,0,0,0,7.4526e-05,-0.00041421,3.8588e-35,2.0312e-06,-2.986e-18,3.9752e-22,2.4114,0.00045608,-0.00041422,1.9388e-32,7.4536e-05,-27.743,-102.87,-39.208,0.31247,-4.5909e-13,5.7273e-17,70.103,-102.87,-39.208,-27.741,0,0.016534,0,1,4.705,0,-4.705,0
0,0,0,0,0,0,7.4497e-05,-0.00041391,3.8892e-35,2.0007e-06,-2.9779e-18,4.0607e-22,2.4101,0.00045575,-0.00041392,1.914e-32,7.4507e-05,-27.715,-102.79,-39.176,0.30779,-4.5784e-13,5.8629e-17,70.053,-102.79,-39.176,-27.714,0,0.016536,0,1,4.71,0,-4.71,0
0,0,0,0,0,0,7.4468e-05,-0.0004136,3.9194e-35,1.9705e-06,-2.9697e-18,4.1449e-22,2.4088,0.00045543,-0.00041361,1.8893e-32,7.4478e-05,-27.687,-102.71,-39.144,0.30313,-4.5658e-13,5.9964e-17,70.004,-102.71,-39.144,-27.686,0,0.016538,0,1,4.715,0,-4.715,0
0,0,0,0,0,0,7.4439e-05,-0.00041329,3.9493e-35,1.9404e-06,-2.9614e-18,4.2277e-22,2.4075,0.00045511,-0.0004133,1.8648e-32,7.4449e-05,-27.66,-102.63,-39.111,0.29852,-4.553e-13,6.1278e-17,69.954,-102.63,-39.111,-27.658,0,0.01654,0,1,4.72,0,-4.72,0
0,0,0,0,0,0,7.441e-05,-0.00041298,3.979e-35,1.9106e-06,-2.953e-18,4.3091e-22,2.4061,0.00045478,-0.00041299,1.8404e-32,7.442e-05,-27.632,-102.55,-39.079,0.29393,-4.5401e-13,6.2571e-17,69.904,-102.55,-39.079,-27.63,0,0.016542,0,1,4.725,0,-4.725,0
0,0,0,0,0,0,7.4382e-05,-0.00041267,4.0085e-35,1.881e-06,-2.9445e-18,4.3893e-22,2.4048,0.00045446,-0.00041268,1.8163e-32,7.4391e-05,-27.604,-102.47,-39.047,0.28938,-4.5271e-13,6.3844e-17,69.855,-102.47,-39.047,-27.602,0,0.016545,0,1,4.73,0,-4.73,0
0,0,0,0,0,0,7.4354e-05,-0.00041236,4.0377e-35,1.8516e-06,-2.9359e-18,4.4681e-22,2.4035,0.00045414,-0.00041237,1.7924e-32,7.4363e-05,-27.576,-102.39,-39.014,0.28486,-4.5139e-13,6.5095e-17,69.805,-102.39,-39.014,-27.574,0,0.016547,0,1,4.735,0,-4.735,0
0,0,0,0,0,0,7.4325e-05,-0.00041206,4.0667e-35,1.8225e-06,-2.9272e-18,4.5455e-22,2.4022,0.00045381,-0.00041206,1.7687e-32,7.4335e-05,-27.548,-102.31,-38.982,0.28037,-4.5006e-13,6.6326e-17,69.755,-102.31,-38.982,-27.546,0,0.016549,0,1,4.74,0,-4.74,0
0,0,0,0,0,0,7.4298e-05,-0.00041175,4.0954e-35,1.7935e-06,-2.9185e-18,4.6216e-22,2.4009,0.00045349,-0.00041176,1.7451e-32,7.4307e-05,-27.519,-102.23,-38.95,0.27592,-4.4871e-13,6.7536e-17,69.705,-102.23,-38.95,-27.518,0,0.016551,0,1,4.745,0,-4.745,0
0,0,0,0,0,0,7.427e-05,-0.00041144,4.1239e-35,1.7648e-06,-2.9096e-18,4.6964e-22,2.3996,0.00045317,-0.00041145,1.7218e-32,7.4279e-05,-27.491,-102.15,-38.917,0.2715,-4.4735e-13,6.8726e-17,69.656,-102.15,-38.917,-27.49,0,0.016553,0,1,4.75,0,-4.75,0
0,0,0,0,0,0,7.4242e-05,-0.00041113,4.1521e-35,1.7363e-06,-2.9007e-18,4.7698e-22,2.3983,0.00045284,-0.00041114,1.6987e-32,7.4251e-05,-27.463,-102.07,-38.884,0.26712,-4.4598e-13,6.9894e-17,69.606,-102.07,-38.884,-27.462,0,0.016555,0,1,4.755,0,-4.755,0
0,0,0,0,0,0,7.4215e-05,-0.00041082,4.1802e-35,1.708e-06,-2.8917e-18,4.8419e-22,2.397,0.00045252,-0.00041083,1.6757e-32,7.4224e-05,-27.434,-101.99,-38.852,0.26276,-4.4459e-13,7.1042e-17,69.556,-101.99,-38.852,-27.433,0,0.016557,0,1,4.76,0,-4.76,0
0,0,0,0,0,0,7.4188e-05,-0.00041051,4.2079e-35,1.6799e-06,-2.8825e-18,4.9126e-22,2.3957,0.00045219,-0.00041052,1.6529e-32,7.4196e-05,-27.406,-101.91,-38.819,0.25844,-4.4319e-13,7.2169e-17,69.507,-101.91,-38.819,-27.405,0,0.016559,0,1,4.765,0,-4.765,0
0,0,0,0,0,0,7.4161e-05,-0.0004102,4.2355e-35,1.6521e-06,-2.8733e-18,4.982e-22,2.3944,0.00045187,-0.00041021,1.6304e-32,7.4169e-05,-27.377,-101.83,-38.787,0.25416,-4.4177e-13,7.3275e-17,69.457,-101.83,-38.787,-27.376,0,0.016561,0,1,4.77,0,-4.77,0
0,0,0,0,0,0,7.4134e-05,-0.00040989,4.2628e-35,1.6244e-06,-2.864e-18,5.05e-22,2.393,0.00045155,-0.0004099,1.608e-32,7.4143e-05,-27.349,-101.75,-38.754,0.24991,-4.4034e-13,7.436e-17,69.407,-101.75,-38.754,-27.348,0,0.016563,0,1,4.775,0,-4.775,0
0,0,0,0,0,0,7.4108e-05,-0.00040958,4.2898e-35,1.597e-06,-2.8546e-18,5.1167e-22,2.3917,0.00045122,-0.00040959,1.5858e-32,7.4116e-05,-27.32,-101.67,-38.721,0.24569,-4.389e-13,7.5425e-17,69.357,-101.67,-38.721,-27.319,0,0.016565,0,1,4.78,0,-4.78,0
0,0,0,0,0,0,7.4082e-05,-0.00040927,4.3166e-35,1.5698e-06,-2.8451e-18,5.1821e-22,2.3904,0.0004509,-0.00040927,1.5638e-32,7.4089e-05,-27.291,-101.59,-38.688,0.2415,-4.3744e-13,7.6468e-17,69.308,-101.59,-38.688,-27.29,0,0.016567,0,1,4.785,0,-4.785,0
0,0,0,0,0,0,7.4055e-05,-0.00040896,4.3432e-35,1.5428e-06,-2.8356e-18,5.2461e-22,2.3891,0.00045057,-0.00040896,1.542e-32,7.4063e-05,-27.262,-101.51,-38.655,0.23735,-4.3597e-13,7.7491e-17,69.258,-101.51,-38.655,-27.261,0,0.016569,0,1,4.79,0,-4.79,0
0,0,0,0,0,0,7.4029e-05,-0.00040865,4.3695e-35,1.516e-06,-2.8259e-18,5.3088e-22,2.3878,0.00045025,-0.00040865,1.5204e-32,7.4037e-05,-27.234,-101.43,-38.622,0.23323,-4.3448e-13,7.8493e-17,69.208,-101.43,-38.622,-27.232,0,0.016572,0,1,4.795,0,-4.795,0
0,0,0,0,0,0,7.4004e-05,-0.00040833,4.3956e-35,1.4895e-06,-2.8161e-18,5.3701e-22,2.3865,0.00044993,-0.00040834,1.499e-32,7.4011e-05,-27.205,-101.35,-38.589,0.22915,-4.3298e-13,7.9474e-17,69.158,-101.35,-38.589,-27.203,0,0.016574,0,1,4.8,0,-4.8,0
0,0,0,0,0,0,7.3978e-05,-0.00040802,4.4215e-35,1.4631e-06,-2.8063e-18,5.4301e-22,2.3852,0.0004496,-0.00040803,1.4778e-32,7.3986e-05,-27.176,-101.27,-38.556,0.2251,-4.3147e-13,8.0435e-17,69.108,-101.27,-38.556,-27.174,0,0.016576,0,1,4.805,0,-4.805,0
0,0,0,0,0,0,7.3953e-05,-0.00040771,4.4471e-35,1.437e-06,-2.7963e-18,5.4888e-22,2.3839,0.00044928,-0.00040772,1.4568e-32,7.396e-05,-27.146,-101.19,-38.523,0.22108,-4.2994e-13,8.1374e-17,69.059,-101.19,-38.523,-27.145,0,0.016578,0,1,4.81,0,-4.81,0
0,0,0,0,0,0,7.3928e-05,-0.0004074,4.4724e-35,1.4111e-06,-2.7863e-18,5.5461e-22,2.3826,0.00044895,-0.00040741,1.436e-32,7.3935e-05,-27.117,-101.11,-38.49,0.2171,-4.284e-13,8.2293e-17,69.009,-101.11,-38.49,-27.116,0,0.01658,0,1,4.815,0,-4.815,0
0,0,0,0,0,0,7.3903e-05,-0.00040709,4.4976e-35,1.3854e-06,-2.7762e-18,5.602e-22,2.3813,0.00044863,-0.00040709,1.4153e-32,7.391e-05,-27.088,-101.02,-38.457,0.21314,-4.2684e-13,8.3191e-17,68.959,-101.03,-38.457,-27.087,0,0.016582,0,1,4.82,0,-4.82,0
0,0,0,0,0,0,7.3878e-05,-0.00040678,4.5225e-35,1.3599e-06,-2.766e-18,5.6567e-22,2.3799,0.0004483,-0.00040678,1.3949e-32,7.3885e-05,-27.058,-100.94,-38.424,0.20923,-4.2527e-13,8.4068e-17,68.909,-100.94,-38.424,-27.057,0,0.016584,0,1,4.825,0,-4.825,0
0,0,0,0,0,0,7.3853e-05,-0.00040646,4.5471e-35,1.3347e-06,-2.7556e-18,5.7099e-22,2.3786,0.00044798,-0.00040647,1.3747e-32,7.386e-05,-27.029,-100.86,-38.391,0.20534,-4.2369e-13,8.4925e-17,68.859,-100.86,-38.391,-27.028,0,0.016586,0,1,4.83,0,-4.83,0
0,0,0,0,0,0,7.3829e-05,-0.00040615,4.5715e-35,1.3096e-06,-2.7453e-18,5.7619e-22,2.3773,0.00044765,-0.00040616,1.3546e-32,7.3836e-05,-27,-100.78,-38.358,0.20149,-4.2209e-13,8.576e-17,68.809,-100.78,-38.358,-26.998,0,0.016588,0,1,4.835,0,-4.835,0
0,0,0,0,0,0,7.3805e-05,-0.00040584,4.5957e-35,1.2848e-06,-2.7348e-18,5.8125e-22,2.376,0.00044733,-0.00040584,1.3348e-32,7.3812e-05,-26.97,-100.7,-38.324,0.19767,-4.2048e-13,8.6575e-17,68.759,-100.7,-38.324,-26.969,0,0.01659,0,1,4.84,0,-4.84,0
0,0,0,0,0,0,7.3781e-05,-0.00040553,4.6196e-35,1.2602e-06,-2.7242e-18,5.8617e-22,2.3747,0.000447,-0.00040553,1.3151e-32,7.3788e-05,-26.94,-100.62,-38.291,0.19389,-4.1885e-13,8.7369e-17,68.71,-100.62,-38.291,-26.939,0,0.016592,0,1,4.845,0,-4.845,0
0,0,0,0,0,0,7.3757e-05,-0.00040521,4.6433e-35,1.2358e-06,-2.7135e-18,5.9096e-22,2.3734,0.00044668,-0.00040522,1.2956e-32,7.3764e-05,-26.911,-100.54,-38.258,0.19014,-4.1721e-13,8.8142e-17,68.66,-100.54,-38.258,-26.91,0,0.016594,0,1,4.85,0,-4.85,0
0,0,0,0,0,0,7.3734e-05,-0.0004049,4.6667e-35,1.2117e-06,-2.7027e-18,5.9562e-22,2.3721,0.00044636,-0.00040491,1.2763e-32,7.374e-05,-26.881,-100.46,-38.224,0.18642,-4.1556e-13,8.8895e-17,68.61,-100.46,-38.224,-26.88,0,0.016596,0,1,4.855,0,-4.855,0
0,0,0,0,0,0,7.371e-05,-0.00040459,4.6899e-35,1.1877e-06,-2.6919e-18,6.0014e-22,2.3708,0.00044603,-0.00040459,1.2573e-32,7.3716e-05,-26.851,-100.37,-38.191,0.18274,-4.1389e-13,8.9626e-17,68.56,-100.38,-38.191,-26.85,0,0.016598,0,1,4.86,0,-4.86,0
0,0,0,0,0,0,7.3687e-05,-0.00040427,4.7129e-35,1.164e-06,-2.6809e-18,6.0453e-22,2.3695,0.00044571,-0.00040428,1.2384e-32,7.3693e-05,-26.821,-100.29,-38.157,0.17909,-4.1221e-13,9.0337e-17,68.51,-100.29,-38.157,-26.82,0,0.0166,0,1,4.865,0,-4.865,0
0,0,0,0,0,0,7.3664e-05,-0.00040396,4.7356e-35,1.1405e-06,-2.6699e-18,6.0878e-22,2.3682,0.00044538,-0.00040396,1.2197e-32,7.367e-05,-26.791,-100.21,-38.124,0.17547,-4.1051e-13,9.1027e-17,68.46,-100.21,-38.124,-26.79,0,0.016602,0,1,4.87,0,-4.87,0
0,0,0,0,0,0,7.3641e-05,-0.00040364,4.7581e-35,1.1172e-06,-2.6588e-18,6.129e-22,2.3668,0.00044506,-0.00040365,1.2012e-32,7.3647e-05,-26.761,-100.13,-38.09,0.17189,-4.088e-13,9.1696e-17,68.41,-100.13,-38.09,-26.76,0,0.016604,0,1,4.875,0,-4.875,0
0,0,0,0,0,0,7.3619e-05,-0.00040333,4.7803e-35,1.0941e-06,-2.6476e-18,6.1689e-22,2.3655,0.00044473,-0.00040334,1.1829e-32,7.3624e-05,-26.731,-100.05,-38.056,0.16834,-4.0708e-13,9.2344e-17,68.36,-100.05,-38.056,-26.73,0,0.016606,0,1,4.88,0,-4.88,0
0,0,0,0,0,0,7.3596e-05,-0.00040302,4.8023e-35,1.0712e-06,-2.6363e-18,6.2074e-22,2.3642,0.0004444,-0.00040302,1.1647e-32,7.3602e-05,-26.7,-99.965,-38.023,0.16482,-4.0534e-13,9.2972e-17,68.31,-99.966,-38.023,-26.699,0,0.016608,0,1,4.885,0,-4.885,0
0,0,0,0,0,0,7.3574e-05,-0.0004027,4.8241e-35,1.0486e-06,-2.6249e-18,6.2446e-22,2.3629,0.00044408,-0.00040271,1.1468e-32,7.358e-05,-26.67,-99.883,-37.989,0.16134,-4.0358e-13,9.3578e-17,68.26,-99.884,-37.989,-26.669,0,0.01661,0,1,4.89,0,-4.89,0
0,0,0,0,0,0,7.3552e-05,-0.00040239,4.8456e-35,1.0262e-06,-2.6134e-18,6.2804e-22,2.3616,0.00044375,-0.00040239,1.1291e-32,7.3558e-05,-26.64,-99.801,-37.955,0.15789,-4.0182e-13,9.4164e-17,68.21,-99.802,-37.955,-26.639,0,0.016613,0,1,4.895,0,-4.895,0
0,0,0,0,0,0,7.353e-05,-0.00040207,4.8669e-35,1.0039e-06,-2.6018e-18,6.3149e-22,2.3603,0.00044343,-0.00040208,1.1116e-32,7.3536e-05,-26.609,-99.719,-37.921,0.15447,-4.0004e-13,9.4729e-17,68.161,-99.72,-37.921,-26.608,0,0.016615,0,1,4.9,0,-4.9,0
0,0,0,0,0,0,7.3509e-05,-0.00040176,4.8879e-35,9.8195e-07,-2.5901e-18,6.348e-22,2.359,0.0004431,-0.00040176,1.0942e-32,7.3514e-05,-26.579,-99.636,-37.887,0.15109,-3.9824e-13,9.5274e-17,68.111,-99.637,-37.887,-26.578,0,0.016617,0,1,4.905,0,-4.905,0
0,0,0,0,0,0,7.3487e-05,-0.00040144,4.9087e-35,9.6017e-07,-2.5783e-18,6.3798e-22,2.3577,0.00044278,-0.00040145,1.0771e-32,7.3492e-05,-26.548,-99.554,-37.853,0.14774,-3.9644e-13,9.5797e-17,68.061,-99.555,-37.853,-26.547,0,0.016619,0,1,4.91,0,-4.91,0
0,0,0,0,0,0,7.3466e-05,-0.00040113,4.9293e-35,9.3861e-07,-2.5665e-18,6.4103e-22,2.3564,0.00044245,-0.00040113,1.0601e-32,7.3471e-05,-26.517,-99.472,-37.819,0.14442,-3.9461e-13,9.63e-17,68.011,-99.473,-37.819,-26.516,0,0.016621,0,1,4.915,0,-4.915,0
0,0,0,0,0,0,7.3445e-05,-0.00040081,4.9496e-35,9.1727e-07,-2.5545e-18,6.4394e-22,2.3551,0.00044213,-0.00040082,1.0434e-32,7.345e-05,-26.486,-99.389,-37.785,0.14114,-3.9278e-13,9.6782e-17,67.961,-99.39,-37.785,-26.486,0,0.016623,0,1,4.92,0,-4.92,0
0,0,0,0,0,0,7.3424e-05,-0.0004005,4.9697e-35,8.9614e-07,-2.5425e-18,6.4672e-22,2.3537,0.0004418,-0.0004005,1.0268e-32,7.3429e-05,-26.456,-99.307,-37.751,0.13789,-3.9093e-13,9.7243e-17,67.911,-99.307,-37.751,-26.455,0,0.016625,0,1,4.925,0,-4.925,0
0,0,0,0,0,0,7.3404e-05,-0.00040018,4.9895e-35,8.7523e-07,-2.5304e-18,6.4936e-22,2.3524,0.00044148,-0.00040018,1.0104e-32,7.3408e-05,-26.425,-99.224,-37.717,0.13467,-3.8906e-13,9.7683e-17,67.861,-99.225,-37.717,-26.424,0,0.016627,0,1,4.93,0,-4.93,0
0,0,0,0,0,0,7.3383e-05,-0.00039986,5.0091e-35,8.5454e-07,-2.5182e-18,6.5187e-22,2.3511,0.00044115,-0.00039987,9.9423e-33,7.3388e-05,-26.394,-99.141,-37.683,0.13149,-3.8718e-13,9.8102e-17,67.811,-99.142,-37.683,-26.393,0,0.016629,0,1,4.935,0,-4.935,0
0,0,0,0,0,0,7.3363e-05,-0.00039955,5.0285e-35,8.3406e-07,-2.5058e-18,6.5424e-22,2.3498,0.00044082,-0.00039955,9.7824e-33,7.3367e-05,-26.363,-99.059,-37.649,0.12834,-3.8529e-13,9.8501e-17,67.761,-99.059,-37.649,-26.362,0,0.016631,0,1,4.94,0,-4.94,0
0,0,0,0,0,0,7.3343e-05,-0.00039923,5.0476e-35,8.1381e-07,-2.4934e-18,6.5648e-22,2.3485,0.0004405,-0.00039924,9.6245e-33,7.3347e-05,-26.331,-98.976,-37.615,0.12523,-3.8338e-13,9.8879e-17,67.711,-98.977,-37.615,-26.331,0,0.016633,0,1,4.945,0,-4.945,0
0,0,0,0,0,0,7.3323e-05,-0.00039891,5.0665e-35,7.9377e-07,-2.4809e-18,6.5859e-22,2.3472,0.00044017,-0.00039892,9.4685e-33,7.3327e-05,-26.3,-98.893,-37.58,0.12214,-3.8146e-13,9.9236e-17,67.661,-98.894,-37.58,-26.3,0,0.016635,0,1,4.95,0,-4.95,0
0,0,0,0,0,0,7.3303e-05,-0.0003986,5.0851e-35,7.7395e-07,-2.4684e-18,6.6056e-22,2.3459,0.00043985,-0.0003986,9.3144e-33,7.3308e-05,-26.269,-98.81,-37.546,0.1191,-3.7953e-13,9.9572e-17,67.61,-98.811,-37.546,-26.268,0,0.016637,0,1,4.955,0,-4.955,0
0,0,0,0,0,0,7.3284e-05,-0.00039828,5.1035e-35,7.5434e-07,-2.4557e-18,6.6239e-22,2.3446,0.00043952,-0.00039828,9.1623e-33,7.3288e-05,-26.238,-98.727,-37.512,0.11608,-3.7758e-13,9.9887e-17,67.56,-98.728,-37.512,-26.237,0,0.016639,0,1,4.96,0,-4.96,0
0,0,0,0,0,0,7.3265e-05,-0.00039796,5.1216e-35,7.3495e-07,-2.4429e-18,6.641e-22,2.3433,0.00043919,-0.00039797,9.0121e-33,7.3269e-05,-26.206,-98.644,-37.477,0.1131,-3.7562e-13,1.0018e-16,67.51,-98.644,-37.477,-26.205,0,0.016641,0,1,4.965,0,-4.965,0
0,0,0,0,0,0,7.3246e-05,-0.00039765,5.1396e-35,7.1578e-07,-2.4301e-18,6.6567e-22,2.342,0.00043887,-0.00039765,8.8639e-33,7.325e-05,-26.175,-98.561,-37.443,0.11015,-3.7364e-13,1.0046e-16,67.46,-98.561,-37.443,-26.174,0,0.016643,0,1,4.97,0,-4.97,0
0,0,0,0,0,0,7.3227e-05,-0.00039733,5.1572e-35,6.9683e-07,-2.4171e-18,6.671e-22,2.3406,0.00043854,-0.00039733,8.7175e-33,7.3231e-05,-26.143,-98.477,-37.408,0.10723,-3.7165e-13,1.0071e-16,67.41,-98.478,-37.408,-26.142,0,0.016645,0,1,4.975,0,-4.975,0
0,0,0,0,0,0,7.3208e-05,-0.00039701,5.1747e-35,6.7809e-07,-2.4041e-18,6.684e-22,2.3393,0.00043822,-0.00039701,8.5732e-33,7.3212e-05,-26.111,-98.394,-37.374,0.10435,-3.6965e-13,1.0094e-16,67.36,-98.395,-37.374,-26.111,0,0.016647,0,1,4.98,0,-4.98,0
0,0,0,0,0,0,7.319e-05,-0.00039669,5.1919e-35,6.5957e-07,-2.3909e-18,6.6957e-22,2.338,0.00043789,-0.0003967,8.4307e-33,7.3193e-05,-26.08,-98.311,-37.339,0.1015,-3.6763e-13,1.0115e-16,67.31,-98.311,-37.339,-26.079,0,0.016649,0,1,4.985,0,-4.985,0
0,0,0,0,0,0,7.3171e-05,-0.00039637,5.2088e-35,6.4127e-07,-2.3777e-18,6.706e-22,2.3367,0.00043756,-0.00039638,8.2902e-33,7.3175e-05,-26.048,-98.227,-37.305,0.098688,-3.656e-13,1.0134e-16,67.26,-98.228,-37.305,-26.047,0,0.016651,0,1,4.99,0,-4.99,0
0,0,0,0,0,0,7.3153e-05,-0.00039606,5.2255e-35,6.2318e-07,-2.3644e-18,6.715e-22,2.3354,0.00043724,-0.00039606,8.1516e-33,7.3157e-05,-26.016,-98.144,-37.27,0.095906,-3.6355e-13,1.0151e-16,67.21,-98.144,-37.27,-26.015,0,0.016653,0,1,4.995,0,-4.995,0
0,0,0,0,0,0,7.3135e-05,-0.00039574,5.242e-35,6.0532e-07,-2.351e-18,6.7226e-22,2.3341,0.00043691,-0.00039574,8.015e-33,7.3139e-05,-25.984,-98.06,-37.235,0.093158,-3.6149e-13,1.0166e-16,67.16,-98.06,-37.235,-25.983,0,0.016655,0,1,5,0,-5,0
