"CONTACT:0","CONTACT:1","CONTACT:2","CONTACT:3","CONTACT:4","CONTACT:5","E:0","E:1","E:2","E:3","E:4","E:5","ERROR","E_Mises","E_Principal:0","E_Principal:1","E_Principal:2","S:0","S:1","S:2","S:3","S:4","S:5","S_Mises","S_Principal:0","S_Principal:1","S_Principal:2","U:0","U:1","U:2","vtkValidPointMask","arc_length","Points:0","Points:1","Points:2"
-0.00079226,0,0,7922.6,0,0,-0.0013874,-0.0060039,2.6878e-37,-0.0045865,-4.2857e-19,1.3542e-20,59.956,0.0096307,-0.0088302,-2.4063e-35,0.001439,-1070.9,-1758,-858.41,-697.02,-6.5305e-14,2.0875e-15,1456.3,-2191.5,-858.41,-637.35,-1.8177e-29,0.010764,0,1,0,0,0,0
0,0,0,0,0,0,-0.0011046,-0.0029066,-8.2428e-39,0.0023976,8.6717e-19,-2.5239e-22,59.519,0.0048707,-0.0045683,-3.2637e-34,0.00055706,-633.81,-905.55,-464.46,366.18,1.3302e-13,-1.0304e-16,742.49,-1160.5,-464.46,-378.9,0,0.011733,0,1,0.005,0,-0.005,0
0,0,0,0,0,0,-0.0010983,-0.0029029,-1.3154e-38,0.0023894,8.6503e-19,-2.4332e-22,59.519,0.0048594,-0.0045573,-3.2458e-34,0.00055616,-631.68,-903.84,-463.3,364.93,1.327e-13,-1.0132e-16,740.77,-1157.6,-463.3,-377.88,0,0.011748,0,1,0.01,0,-0.01,0
0,0,0,0,0,0,-0.001092,-0.0028992,-1.8064e-38,0.0023812,8.6288e-19,-2.3424e-22,59.519,0.004848,-0.0045464,-3.2278e-34,0.00055525,-629.56,-902.13,-462.14,363.68,1.3237e-13,-9.9595e-17,739.04,-1154.8,-462.14,-376.85,0,0.011762,0,1,0.015,0,-0.015,0
0,0,0,0,0,0,-0.0010857,-0.0028955,-2.2975e-38,0.0023729,8.6074e-19,-2.2517e-22,59.519,0.0048366,-0.0045355,-3.2099e-34,0.00055435,-627.43,-900.43,-460.98,362.42,1.3204e-13,-9.7874e-17,737.32,-1152,-460.98,-375.83,0,0.011777,0,1,0.02,0,-0.02,0
0,0,0,0,0,0,-0.0010794,-0.0028918,-2.7886e-38,0.0023647,8.586e-19,-2.1609e-22,59.519,0.0048252,-0.0045246,-3.192e-34,0.00055345,-625.3,-898.72,-459.82,361.17,1.3171e-13,-9.6153e-17,735.59,-1149.2,-459.82,-374.81,0,0.011791,0,1,0.025,0,-0.025,0
0,0,0,0,0,0,-0.0010731,-0.0028881,-3.2797e-38,0.0023565,8.5646e-19,-2.0702e-22,59.519,0.0048139,-0.0045137,-3.1741e-34,0.00055255,-623.17,-897.01,-458.66,359.92,1.3138e-13,-9.4432e-17,733.87,-1146.4,-458.66,-373.79,0,0.011806,0,1,0.03,0,-0.03,0
0,0,0,0,0,0,-0.0010668,-0.0028844,-3.7707e-38,0.0023483,8.5432e-19,-1.9794e-22,59.519,0.0048025,-0.0045028,-3.1562e-34,0.00055165,-621.05,-895.3,-457.5,358.66,1.3105e-13,-9.271e-17,732.15,-1143.6,-457.5,-372.76,0,0.01182,0,1,0.035,0,-0.035,0
0,0,0,0,0,0,-0.0010605,-0.0028807,-4.2618e-38,0.00234,8.5217e-19,-1.8887e-22,59.519,0.0047911,-0.0044919,-3.1383e-34,0.00055075,-618.92,-893.6,-456.34,357.41,1.3072e-13,-9.0989e-17,730.42,-1140.8,-456.34,-371.74,0,0.011835,0,1,0.04,0,-0.04,0
0,0,0,0,0,0,-0.0010541,-0.002877,-4.7529e-38,0.0023318,8.5003e-19,-1.7979e-22,59.519,0.0047798,-0.004481,-3.1203e-34,0.00054985,-616.79,-891.89,-455.18,356.16,1.304e-13,-8.9268e-17,728.7,-1138,-455.18,-370.72,0,0.01185,0,1,0.045,0,-0.045,0
0,0,0,0,0,0,-0.0010478,-0.0028733,-5.244e-38,0.0023236,8.4789e-19,-1.7072e-22,59.519,0.0047684,-0.0044701,-3.1024e-34,0.00054895,-614.66,-890.18,-454.02,354.91,1.3007e-13,-8.7547e-17,726.98,-1135.1,-454.02,-369.7,0,0.011864,0,1,0.05,0,-0.05,0
0,0,0,0,0,0,-0.0010415,-0.0028696,-5.735e-38,0.0023154,8.4575e-19,-1.6164e-22,59.519,0.004757,-0.0044592,-3.0845e-34,0.00054805,-612.54,-888.47,-452.86,353.65,1.2974e-13,-8.5825e-17,725.25,-1132.3,-452.86,-368.67,0,0.011879,0,1,0.055,0,-0.055,0
0,0,0,0,0,0,-0.0010352,-0.0028659,-6.2261e-38,0.0023071,8.4361e-19,-1.5257e-22,59.519,0.0047456,-0.0044483,-3.0666e-34,0.00054715,-610.41,-886.77,-451.7,352.4,1.2941e-13,-8.4104e-17,723.53,-1129.5,-451.7,-367.65,0,0.011893,0,1,0.06,0,-0.06,0
0,0,0,0,0,0,-0.0010289,-0.0028622,-6.7172e-38,0.0022989,8.4146e-19,-1.4349e-22,59.519,0.0047343,-0.0044374,-3.0487e-34,0.00054624,-608.28,-885.06,-450.53,351.15,1.2908e-13,-8.2383e-17,721.8,-1126.7,-450.53,-366.63,0,0.011908,0,1,0.065,0,-0.065,0
0,0,0,0,0,0,-0.0010226,-0.0028585,-7.2083e-38,0.0022907,8.3932e-19,-1.3441e-22,59.519,0.0047229,-0.0044265,-3.0307e-34,0.00054534,-606.15,-883.35,-449.37,349.9,1.2875e-13,-8.0662e-17,720.08,-1123.9,-449.37,-365.61,0,0.011922,0,1,0.07,0,-0.07,0
0,0,0,0,0,0,-0.0010163,-0.0028548,-7.6993e-38,0.0022825,8.3718e-19,-1.2534e-22,59.519,0.0047115,-0.0044156,-3.0128e-34,0.00054444,-604.03,-881.64,-448.21,348.64,1.2843e-13,-7.894e-17,718.36,-1121.1,-448.21,-364.58,0,0.011937,0,1,0.075,0,-0.075,0
0,0,0,0,0,0,-0.00101,-0.0028512,-8.1904e-38,0.0022742,8.3504e-19,-1.1626e-22,59.519,0.0047002,-0.0044047,-2.9949e-34,0.00054354,-601.9,-879.94,-447.05,347.39,1.281e-13,-7.7219e-17,716.63,-1118.3,-447.05,-363.56,0,0.011952,0,1,0.08,0,-0.08,0
0,0,0,0,0,0,-0.0010037,-0.0028475,-8.6815e-38,0.002266,8.3289e-19,-1.0719e-22,59.519,0.0046888,-0.0043938,-2.977e-34,0.00054264,-599.77,-878.23,-445.89,346.14,1.2777e-13,-7.5498e-17,714.91,-1115.5,-445.89,-362.54,0,0.011966,0,1,0.085,0,-0.085,0
0,0,0,0,0,0,-0.00099738,-0.0028438,-9.1726e-38,0.0022578,8.3075e-19,-9.8115e-23,59.519,0.0046774,-0.0043829,-2.9591e-34,0.00054174,-597.64,-876.52,-444.73,344.89,1.2744e-13,-7.3777e-17,713.18,-1112.6,-444.73,-361.52,0,0.011981,0,1,0.09,0,-0.09,0
0,0,0,0,0,0,-0.00099107,-0.0028401,-9.6636e-38,0.0022496,8.2861e-19,-8.9039e-23,59.519,0.004666,-0.004372,-2.9412e-34,0.00054084,-595.52,-874.81,-443.57,343.63,1.2711e-13,-7.2056e-17,711.46,-1109.8,-443.57,-360.49,0,0.011995,0,1,0.095,0,-0.095,0
0,0,0,0,0,0,-0.00098476,-0.0028364,-1.0155e-37,0.0022413,8.2647e-19,-7.9964e-23,59.519,0.0046547,-0.0043611,-2.9232e-34,0.00053994,-593.39,-873.1,-442.41,342.38,1.2678e-13,-7.0334e-17,709.74,-1107,-442.41,-359.47,0,0.01201,0,1,0.1,0,-0.1,0
0,0,0,0,0,0,-0.00097845,-0.0028327,-1.0646e-37,0.0022331,8.2433e-19,-7.0889e-23,59.519,0.0046433,-0.0043502,-2.9053e-34,0.00053904,-591.26,-871.4,-441.25,341.13,1.2645e-13,-6.8613e-17,708.01,-1104.2,-441.25,-358.45,0,0.012024,0,1,0.105,0,-0.105,0
0,0,0,0,0,0,-0.00097214,-0.002829,-1.1137e-37,0.0022249,8.2218e-19,-6.1814e-23,59.519,0.0046319,-0.0043393,-2.8874e-34,0.00053813,-589.13,-869.69,-440.09,339.87,1.2613e-13,-6.6892e-17,706.29,-1101.4,-440.09,-357.43,0,0.012039,0,1,0.11,0,-0.11,0
0,0,0,0,0,0,-0.00096584,-0.0028253,-1.1628e-37,0.0022167,8.2004e-19,-5.2739e-23,59.519,0.0046206,-0.0043284,-2.8695e-34,0.00053723,-587.01,-867.98,-438.93,338.62,1.258e-13,-6.5171e-17,704.57,-1098.6,-438.93,-356.4,0,0.012054,0,1,0.115,0,-0.115,0
0,0,0,0,0,0,-0.00095953,-0.0028216,-1.2119e-37,0.0022084,8.179e-19,-4.3664e-23,59.519,0.0046092,-0.0043175,-2.8516e-34,0.00053633,-584.88,-866.27,-437.77,337.37,1.2547e-13,-6.3449e-17,702.84,-1095.8,-437.77,-355.38,0,0.012068,0,1,0.12,0,-0.12,0
0,0,0,0,0,0,-0.00095322,-0.0028179,-1.261e-37,0.0022002,8.1576e-19,-3.4589e-23,59.519,0.0045978,-0.0043065,-2.8337e-34,0.00053543,-582.75,-864.57,-436.61,336.12,1.2514e-13,-6.1728e-17,701.12,-1093,-436.61,-354.36,0,0.012083,0,1,0.125,0,-0.125,0
0,0,0,0,0,0,-0.00094691,-0.0028142,-1.3101e-37,0.002192,8.1361e-19,-2.5514e-23,59.519,0.0045864,-0.0042956,-2.8157e-34,0.00053453,-580.62,-862.86,-435.45,334.86,1.2481e-13,-6.0007e-17,699.39,-1090.1,-435.45,-353.34,0,0.012097,0,1,0.13,0,-0.13,0
0,0,0,0,0,0,-0.0009406,-0.0028105,-1.3592e-37,0.0021838,8.1147e-19,-1.6439e-23,59.519,0.0045751,-0.0042847,-2.7978e-34,0.00053363,-578.5,-861.15,-434.29,333.61,1.2448e-13,-5.8286e-17,697.67,-1087.3,-434.29,-352.32,0,0.012112,0,1,0.135,0,-0.135,0
0,0,0,0,0,0,-0.0009343,-0.0028068,-1.4083e-37,0.0021755,8.0933e-19,-7.3638e-24,59.519,0.0045637,-0.0042738,-2.7799e-34,0.00053273,-576.37,-859.44,-433.13,332.36,1.2416e-13,-5.6564e-17,695.95,-1084.5,-433.13,-351.29,0,0.012126,0,1,0.14,0,-0.14,0
0,0,0,0,0,0,-0.00092799,-0.0028031,-1.4574e-37,0.0021673,8.0719e-19,1.7113e-24,59.519,0.0045523,-0.0042629,-2.762e-34,0.00053183,-574.24,-857.74,-431.97,331.11,1.2383e-13,-5.4843e-17,694.22,-1081.7,-431.97,-350.27,0,0.012141,0,1,0.145,0,-0.145,0
0,0,0,0,0,0,-0.00092168,-0.0027994,-1.5065e-37,0.0021591,8.0505e-19,1.0786e-23,59.519,0.004541,-0.004252,-2.7441e-34,0.00053093,-572.11,-856.03,-430.81,329.85,1.235e-13,-5.3122e-17,692.5,-1078.9,-430.81,-349.25,0,0.012156,0,1,0.15,0,-0.15,0
0,0,0,0,0,0,-0.00091537,-0.0027957,-1.5557e-37,0.0021509,8.029e-19,1.9861e-23,59.519,0.0045296,-0.0042411,-2.7262e-34,0.00053002,-569.99,-854.32,-429.65,328.6,1.2317e-13,-5.1401e-17,690.78,-1076.1,-429.65,-348.23,0,0.01217,0,1,0.155,0,-0.155,0
0,0,0,0,0,0,-0.00090906,-0.002792,-1.6048e-37,0.0021426,8.0076e-19,2.8937e-23,59.519,0.0045182,-0.0042302,-2.7082e-34,0.00052912,-567.86,-852.61,-428.49,327.35,1.2284e-13,-4.9679e-17,689.05,-1073.3,-428.49,-347.2,0,0.012185,0,1,0.16,0,-0.16,0
0,0,0,0,0,0,-0.00090276,-0.0027883,-1.6539e-37,0.0021344,7.9862e-19,3.8012e-23,59.519,0.0045068,-0.0042193,-2.6903e-34,0.00052822,-565.73,-850.91,-427.33,326.1,1.2251e-13,-4.7958e-17,687.33,-1070.5,-427.33,-346.18,0,0.012199,0,1,0.165,0,-0.165,0
0,0,0,0,0,0,-0.00089645,-0.0027846,-1.703e-37,0.0021262,7.9648e-19,4.7087e-23,59.519,0.0044955,-0.0042084,-2.6724e-34,0.00052732,-563.61,-849.2,-426.17,324.84,1.2218e-13,-4.6237e-17,685.6,-1067.6,-426.17,-345.16,0,0.012214,0,1,0.17,0,-0.17,0
0,0,0,0,0,0,-0.00089014,-0.0027809,-1.7521e-37,0.002118,7.9434e-19,5.6162e-23,59.519,0.0044841,-0.0041975,-2.6545e-34,0.00052642,-561.48,-847.49,-425.01,323.59,1.2186e-13,-4.4516e-17,683.88,-1064.8,-425.01,-344.14,0,0.012228,0,1,0.175,0,-0.175,0
0,0,0,0,0,0,-0.00088383,-0.0027772,-1.8012e-37,0.0021097,7.9219e-19,6.5237e-23,59.519,0.0044727,-0.0041866,-2.6366e-34,0.00052552,-559.35,-845.78,-423.85,322.34,1.2153e-13,-4.2795e-17,682.16,-1062,-423.85,-343.11,0,0.012243,0,1,0.18,0,-0.18,0
0,0,0,0,0,0,-0.00087752,-0.0027736,-1.8503e-37,0.0021015,7.9005e-19,7.4312e-23,59.519,0.0044613,-0.0041757,-2.6186e-34,0.00052462,-557.22,-844.08,-422.69,321.09,1.212e-13,-4.1073e-17,680.43,-1059.2,-422.69,-342.09,0,0.012258,0,1,0.185,0,-0.185,0
0,0,0,0,0,0,-0.00087121,-0.0027699,-1.8994e-37,0.0020933,7.8791e-19,8.3387e-23,59.519,0.00445,-0.0041648,-2.6007e-34,0.00052372,-555.1,-842.37,-421.53,319.83,1.2087e-13,-3.9352e-17,678.71,-1056.4,-421.53,-341.07,0,0.012272,0,1,0.19,0,-0.19,0
0,0,0,0,0,0,-0.00086491,-0.0027662,-1.9485e-37,0.002085,7.8577e-19,9.2462e-23,59.519,0.0044386,-0.0041539,-2.5828e-34,0.00052282,-552.97,-840.66,-420.36,318.58,1.2054e-13,-3.7631e-17,676.99,-1053.6,-420.36,-340.05,0,0.012287,0,1,0.195,0,-0.195,0
0,0,0,0,0,0,-0.0008586,-0.0027625,-1.9976e-37,0.0020768,7.8362e-19,1.0154e-22,59.519,0.0044272,-0.004143,-2.5649e-34,0.00052192,-550.84,-838.95,-419.2,317.33,1.2021e-13,-3.591e-17,675.26,-1050.8,-419.2,-339.02,0,0.012301,0,1,0.2,0,-0.2,0
0,0,0,0,0,0,-0.00085229,-0.0027588,-2.0467e-37,0.0020686,7.8148e-19,1.1061e-22,59.519,0.0044159,-0.0041321,-2.547e-34,0.00052101,-548.71,-837.25,-418.04,316.07,1.1989e-13,-3.4188e-17,673.54,-1048,-418.04,-338,0,0.012316,0,1,0.205,0,-0.205,0
0,0,0,0,0,0,-0.00084598,-0.0027551,-2.0958e-37,0.0020604,7.7934e-19,1.1969e-22,59.519,0.0044045,-0.0041212,-2.5291e-34,0.00052011,-546.59,-835.54,-416.88,314.82,1.1956e-13,-3.2467e-17,671.81,-1045.1,-416.88,-336.98,0,0.01233,0,1,0.21,0,-0.21,0
0,0,0,0,0,0,-0.00083967,-0.0027514,-2.1449e-37,0.0020521,7.772e-19,1.2876e-22,59.519,0.0043931,-0.0041103,-2.5111e-34,0.00051921,-544.46,-833.83,-415.72,313.57,1.1923e-13,-3.0746e-17,670.09,-1042.3,-415.72,-335.96,0,0.012345,0,1,0.215,0,-0.215,0
0,0,0,0,0,0,-0.00083337,-0.0027477,-2.194e-37,0.0020439,7.7506e-19,1.3784e-22,59.519,0.0043817,-0.0040994,-2.4932e-34,0.00051831,-542.33,-832.12,-414.56,312.32,1.189e-13,-2.9025e-17,668.37,-1039.5,-414.56,-334.93,0,0.012359,0,1,0.22,0,-0.22,0
0,0,0,0,0,0,-0.00082706,-0.002744,-2.2432e-37,0.0020357,7.7291e-19,1.4691e-22,59.519,0.0043704,-0.0040885,-2.4753e-34,0.00051741,-540.2,-830.42,-413.4,311.06,1.1857e-13,-2.7303e-17,666.64,-1036.7,-413.4,-333.91,0,0.012374,0,1,0.225,0,-0.225,0
0,0,0,0,0,0,-0.00082075,-0.0027403,-2.2923e-37,0.0020275,7.7077e-19,1.5599e-22,59.519,0.004359,-0.0040776,-2.4574e-34,0.00051651,-538.08,-828.71,-412.24,309.81,1.1824e-13,-2.5582e-17,664.92,-1033.9,-412.24,-332.89,0,0.012389,0,1,0.23,0,-0.23,0
0,0,0,0,0,0,-0.00081444,-0.0027366,-2.3414e-37,0.0020192,7.6863e-19,1.6506e-22,59.519,0.0043476,-0.0040666,-2.4395e-34,0.00051561,-535.95,-827,-411.08,308.56,1.1791e-13,-2.3861e-17,663.19,-1031.1,-411.08,-331.87,0,0.012403,0,1,0.235,0,-0.235,0
0,0,0,0,0,0,-0.00080813,-0.0027329,-2.3905e-37,0.002011,7.6649e-19,1.7414e-22,59.519,0.0043363,-0.0040557,-2.4216e-34,0.00051471,-533.82,-825.29,-409.92,307.31,1.1759e-13,-2.214e-17,661.47,-1028.3,-409.92,-330.84,0,0.012418,0,1,0.24,0,-0.24,0
0,0,0,0,0,0,-0.00080183,-0.0027292,-2.4396e-37,0.0020028,7.6435e-19,1.8321e-22,59.519,0.0043249,-0.0040448,-2.4036e-34,0.00051381,-531.69,-823.59,-408.76,306.05,1.1726e-13,-2.0418e-17,659.75,-1025.5,-408.76,-329.82,0,0.012432,0,1,0.245,0,-0.245,0
0,0,0,0,0,0,-0.00079552,-0.0027255,-2.4887e-37,0.0019946,7.622e-19,1.9229e-22,59.519,0.0043135,-0.0040339,-2.3857e-34,0.0005129,-529.57,-821.88,-407.6,304.8,1.1693e-13,-1.8697e-17,658.02,-1022.6,-407.6,-328.8,0,0.012447,0,1,0.25,0,-0.25,0
0,0,0,0,0,0,-0.00078921,-0.0027218,-2.5378e-37,0.0019863,7.6006e-19,2.0136e-22,59.519,0.0043021,-0.004023,-2.3678e-34,0.000512,-527.44,-820.17,-406.44,303.55,1.166e-13,-1.6976e-17,656.3,-1019.8,-406.44,-327.78,0,0.012461,0,1,0.255,0,-0.255,0
0,0,0,0,0,0,-0.0007829,-0.0027181,-2.5869e-37,0.0019781,7.5792e-19,2.1044e-22,59.519,0.0042908,-0.0040121,-2.3499e-34,0.0005111,-525.31,-818.46,-405.28,302.3,1.1627e-13,-1.5255e-17,654.58,-1017,-405.28,-326.75,0,0.012476,0,1,0.26,0,-0.26,0
0,0,0,0,0,0,-0.00077659,-0.0027144,-2.636e-37,0.0019699,7.5578e-19,2.1951e-22,59.519,0.0042794,-0.0040012,-2.332e-34,0.0005102,-523.18,-816.76,-404.12,301.04,1.1594e-13,-1.3534e-17,652.85,-1014.2,-404.12,-325.73,0,0.012491,0,1,0.265,0,-0.265,0
0,0,0,0,0,0,-0.00077029,-0.0027107,-2.6851e-37,0.0019617,7.5363e-19,2.2859e-22,59.519,0.004268,-0.0039903,-2.314e-34,0.0005093,-521.06,-815.05,-402.96,299.79,1.1562e-13,-1.1812e-17,651.13,-1011.4,-402.96,-324.71,0,0.012505,0,1,0.27,0,-0.27,0
0,0,0,0,0,0,-0.00076398,-0.002707,-2.7342e-37,0.0019534,7.5149e-19,2.3766e-22,59.519,0.0042567,-0.0039794,-2.2961e-34,0.0005084,-518.93,-813.34,-401.8,298.54,1.1529e-13,-1.0091e-17,649.4,-1008.6,-401.8,-323.69,0,0.01252,0,1,0.275,0,-0.275,0
0,0,0,0,0,0,-0.00075767,-0.0027033,-2.7833e-37,0.0019452,7.4935e-19,2.4674e-22,59.519,0.0042453,-0.0039685,-2.2782e-34,0.0005075,-516.8,-811.63,-400.64,297.29,1.1496e-13,-8.3698e-18,647.68,-1005.8,-400.64,-322.66,0,0.012534,0,1,0.28,0,-0.28,0
0,0,0,0,0,0,-0.00075136,-0.0026996,-2.8324e-37,0.001937,7.4721e-19,2.5581e-22,59.519,0.0042339,-0.0039576,-2.2603e-34,0.0005066,-514.67,-809.93,-399.48,296.03,1.1463e-13,-6.6486e-18,645.96,-1003,-399.48,-321.64,0,0.012549,0,1,0.285,0,-0.285,0
0,0,0,0,0,0,-0.00074505,-0.0026959,-2.8816e-37,0.0019288,7.4507e-19,2.6489e-22,59.519,0.0042225,-0.0039467,-2.2424e-34,0.0005057,-512.55,-808.22,-398.32,294.78,1.143e-13,-4.9274e-18,644.23,-1000.1,-398.32,-320.62,0,0.012563,0,1,0.29,0,-0.29,0
0,0,0,0,0,0,-0.00073875,-0.0026923,-2.9307e-37,0.0019205,7.4292e-19,2.7396e-22,59.519,0.0042112,-0.0039358,-2.2245e-34,0.00050479,-510.42,-806.51,-397.16,293.53,1.1397e-13,-3.2061e-18,642.51,-997.33,-397.16,-319.6,0,0.012578,0,1,0.295,0,-0.295,0
0,0,0,0,0,0,-0.00073244,-0.0026886,-2.9798e-37,0.0019123,7.4078e-19,2.8304e-22,59.519,0.0041998,-0.0039249,-2.2065e-34,0.00050389,-508.29,-804.8,-396,292.27,1.1364e-13,-1.4849e-18,640.79,-994.52,-396,-318.57,0,0.012593,0,1,0.3,0,-0.3,0
0,0,0,0,0,0,-0.00072613,-0.0026849,-3.0289e-37,0.0019041,7.3864e-19,2.9211e-22,59.519,0.0041884,-0.003914,-2.1886e-34,0.00050299,-506.16,-803.1,-394.84,291.02,1.1332e-13,2.3634e-19,639.06,-991.71,-394.84,-317.55,0,0.012607,0,1,0.305,0,-0.305,0
0,0,0,0,0,0,-0.00071982,-0.0026812,-3.078e-37,0.0018959,7.365e-19,3.0119e-22,59.519,0.0041771,-0.0039031,-2.1707e-34,0.00050209,-504.04,-801.39,-393.68,289.77,1.1299e-13,1.9576e-18,637.34,-988.89,-393.68,-316.53,0,0.012622,0,1,0.31,0,-0.31,0
0,0,0,0,0,0,-0.00071351,-0.0026775,-3.1271e-37,0.0018876,7.3436e-19,3.1026e-22,59.519,0.0041657,-0.0038922,-2.1528e-34,0.00050119,-501.91,-799.68,-392.52,288.52,1.1266e-13,3.6788e-18,635.61,-986.08,-392.52,-315.51,0,0.012636,0,1,0.315,0,-0.315,0
0,0,0,0,0,0,-0.00070721,-0.0026738,-3.1762e-37,0.0018794,7.3221e-19,3.1934e-22,59.519,0.0041543,-0.0038813,-2.1349e-34,0.00050029,-499.78,-797.97,-391.36,287.26,1.1233e-13,5.4e-18,633.89,-983.27,-391.36,-314.49,0,0.012651,0,1,0.32,0,-0.32,0
0,0,0,0,0,0,-0.0007009,-0.0026701,-3.2253e-37,0.0018712,7.3007e-19,3.2841e-22,59.519,0.0041429,-0.0038704,-2.117e-34,0.00049939,-497.65,-796.27,-390.19,286.01,1.12e-13,7.1213e-18,632.17,-980.46,-390.19,-313.46,0,0.012665,0,1,0.325,0,-0.325,0
0,0,0,0,0,0,-0.00069459,-0.0026664,-3.2744e-37,0.001863,7.2793e-19,3.3749e-22,59.519,0.0041316,-0.0038595,-2.099e-34,0.00049849,-495.53,-794.56,-389.03,284.76,1.1167e-13,8.8425e-18,630.44,-977.64,-389.03,-312.44,0,0.01268,0,1,0.33,0,-0.33,0
0,0,0,0,0,0,-0.00068828,-0.0026627,-3.3235e-37,0.0018547,7.2579e-19,3.4656e-22,59.519,0.0041202,-0.0038486,-2.0811e-34,0.00049759,-493.4,-792.85,-387.87,283.51,1.1135e-13,1.0564e-17,628.72,-974.83,-387.87,-311.42,0,0.012695,0,1,0.335,0,-0.335,0
0,0,0,0,0,0,-0.00068197,-0.002659,-3.3726e-37,0.0018465,7.2364e-19,3.5564e-22,59.519,0.0041088,-0.0038377,-2.0632e-34,0.00049669,-491.27,-791.14,-386.71,282.25,1.1102e-13,1.2285e-17,627,-972.02,-386.71,-310.4,0,0.012709,0,1,0.34,0,-0.34,0
0,0,0,0,0,0,-0.00067567,-0.0026553,-3.4217e-37,0.0018383,7.215e-19,3.6471e-22,59.519,0.0040974,-0.0038267,-2.0453e-34,0.00049578,-489.14,-789.44,-385.55,281,1.1069e-13,1.4006e-17,625.27,-969.21,-385.55,-309.37,0,0.012724,0,1,0.345,0,-0.345,0
0,0,0,0,0,0,-0.00066936,-0.0026516,-3.4708e-37,0.0018301,7.1936e-19,3.7379e-22,59.519,0.0040861,-0.0038158,-2.0274e-34,0.00049488,-487.02,-787.73,-384.39,279.75,1.1036e-13,1.5727e-17,623.55,-966.39,-384.39,-308.35,0,0.012738,0,1,0.35,0,-0.35,0
0,0,0,0,0,0,-0.00066305,-0.0026479,-3.5199e-37,0.0018218,7.1722e-19,3.8286e-22,59.519,0.0040747,-0.0038049,-2.0095e-34,0.00049398,-484.89,-786.02,-383.23,278.5,1.1003e-13,1.7449e-17,621.82,-963.58,-383.23,-307.33,0,0.012753,0,1,0.355,0,-0.355,0
0,0,0,0,0,0,-0.00065674,-0.0026442,-3.5691e-37,0.0018136,7.1508e-19,3.9194e-22,59.519,0.0040633,-0.003794,-1.9915e-34,0.00049308,-482.76,-784.31,-382.07,277.24,1.097e-13,1.917e-17,620.1,-960.77,-382.07,-306.31,0,0.012767,0,1,0.36,0,-0.36,0
0,0,0,0,0,0,-0.00065043,-0.0026405,-3.6182e-37,0.0018054,7.1293e-19,4.0101e-22,59.519,0.004052,-0.0037831,-1.9736e-34,0.00049218,-480.63,-782.6,-380.91,275.99,1.0937e-13,2.0891e-17,618.38,-957.96,-380.91,-305.28,0,0.012782,0,1,0.365,0,-0.365,0
0,0,0,0,0,0,-0.00064413,-0.0026368,-3.6673e-37,0.0017972,7.1079e-19,4.1009e-22,59.519,0.0040406,-0.0037722,-1.9557e-34,0.00049128,-478.51,-780.9,-379.75,274.74,1.0905e-13,2.2612e-17,616.65,-955.14,-379.75,-304.26,0,0.012797,0,1,0.37,0,-0.37,0
0,0,0,0,0,0,-0.00063782,-0.0026331,-3.7164e-37,0.0017889,7.0865e-19,4.1916e-22,59.519,0.0040292,-0.0037613,-1.9378e-34,0.00049038,-476.38,-779.19,-378.59,273.49,1.0872e-13,2.4334e-17,614.93,-952.33,-378.59,-303.24,0,0.012811,0,1,0.375,0,-0.375,0
0,0,0,0,0,0,-0.00063151,-0.0026294,-3.7655e-37,0.0017807,7.0651e-19,4.2824e-22,59.519,0.0040178,-0.0037504,-1.9199e-34,0.00048948,-474.25,-777.48,-377.43,272.23,1.0839e-13,2.6055e-17,613.2,-949.52,-377.43,-302.22,0,0.012826,0,1,0.38,0,-0.38,0
0,0,0,0,0,0,-0.0006252,-0.0026257,-3.8146e-37,0.0017725,7.0437e-19,4.3732e-22,59.519,0.0040065,-0.0037395,-1.9019e-34,0.00048858,-472.13,-775.77,-376.27,270.98,1.0806e-13,2.7776e-17,611.48,-946.71,-376.27,-301.19,0,0.01284,0,1,0.385,0,-0.385,0
0,0,0,0,0,0,-0.00061889,-0.002622,-3.8637e-37,0.0017643,7.0222e-19,4.4639e-22,59.519,0.0039951,-0.0037286,-1.884e-34,0.00048767,-470,-774.07,-375.11,269.73,1.0773e-13,2.9497e-17,609.76,-943.89,-375.11,-300.17,0,0.012855,0,1,0.39,0,-0.39,0
0,0,0,0,0,0,-0.00061259,-0.0026183,-3.9128e-37,0.001756,7.0008e-19,4.5547e-22,59.519,0.0039837,-0.0037177,-1.8661e-34,0.00048677,-467.87,-772.36,-373.95,268.47,1.074e-13,3.1219e-17,608.03,-941.08,-373.95,-299.15,0,0.012869,0,1,0.395,0,-0.395,0
0,0,0,0,0,0,-0.00060628,-0.0026146,-3.9619e-37,0.0017478,6.9794e-19,4.6454e-22,59.519,0.0039724,-0.0037068,-1.8482e-34,0.00048587,-465.74,-770.65,-372.79,267.22,1.0708e-13,3.294e-17,606.31,-938.27,-372.79,-298.13,0,0.012884,0,1,0.4,0,-0.4,0
0,0,0,0,0,0,-0.00059997,-0.002611,-4.011e-37,0.0017396,6.958e-19,4.7362e-22,59.519,0.003961,-0.0036959,-1.8303e-34,0.00048497,-463.62,-768.94,-371.63,265.97,1.0675e-13,3.4661e-17,604.59,-935.46,-371.63,-297.1,0,0.012899,0,1,0.405,0,-0.405,0
0,0,0,0,0,0,-0.00059366,-0.0026073,-4.0601e-37,0.0017314,6.9365e-19,4.8269e-22,59.519,0.0039496,-0.003685,-1.8124e-34,0.00048407,-461.49,-767.24,-370.47,264.72,1.0642e-13,3.6382e-17,602.86,-932.64,-370.47,-296.08,0,0.012913,0,1,0.41,0,-0.41,0
0,0,0,0,0,0,-0.00058735,-0.0026036,-4.1092e-37,0.0017231,6.9151e-19,4.9177e-22,59.519,0.0039382,-0.0036741,-1.7944e-34,0.00048317,-459.36,-765.53,-369.31,263.46,1.0609e-13,3.8104e-17,601.14,-929.83,-369.31,-295.06,0,0.012928,0,1,0.415,0,-0.415,0
0,0,0,0,0,0,-0.00058105,-0.0025999,-4.1583e-37,0.0017149,6.8937e-19,5.0084e-22,59.519,0.0039269,-0.0036632,-1.7765e-34,0.00048227,-457.23,-763.82,-368.15,262.21,1.0576e-13,3.9825e-17,599.41,-927.02,-368.15,-294.04,0,0.012942,0,1,0.42,0,-0.42,0
0,0,0,0,0,0,-0.00057474,-0.0025962,-4.2075e-37,0.0017067,6.8723e-19,5.0992e-22,59.519,0.0039155,-0.0036523,-1.7586e-34,0.00048137,-455.11,-762.11,-366.99,260.96,1.0543e-13,4.1546e-17,597.69,-924.21,-366.99,-293.01,0,0.012957,0,1,0.425,0,-0.425,0
0,0,0,0,0,0,-0.00056843,-0.0025925,-4.2566e-37,0.0016985,6.8509e-19,5.1899e-22,59.519,0.0039041,-0.0036414,-1.7407e-34,0.00048047,-452.98,-760.41,-365.83,259.71,1.051e-13,4.3267e-17,595.97,-921.39,-365.83,-291.99,0,0.012971,0,1,0.43,0,-0.43,0
0,0,0,0,0,0,-0.00056212,-0.0025888,-4.3057e-37,0.0016902,6.8294e-19,5.2807e-22,59.519,0.0038928,-0.0036305,-1.7228e-34,0.00047957,-450.85,-758.7,-364.67,258.45,1.0478e-13,4.4988e-17,594.24,-918.58,-364.67,-290.97,0,0.012986,0,1,0.435,0,-0.435,0
0,0,0,0,0,0,-0.00055581,-0.0025851,-4.3548e-37,0.001682,6.808e-19,5.3714e-22,59.519,0.0038814,-0.0036196,-1.7049e-34,0.00047866,-448.72,-756.99,-363.51,257.2,1.0445e-13,4.671e-17,592.52,-915.77,-363.51,-289.95,0,0.013,0,1,0.44,0,-0.44,0
0,0,0,0,0,0,-0.00054951,-0.0025814,-4.4039e-37,0.0016738,6.7866e-19,5.4622e-22,59.519,0.00387,-0.0036087,-1.6869e-34,0.00047776,-446.6,-755.28,-362.35,255.95,1.0412e-13,4.8431e-17,590.8,-912.96,-362.35,-288.92,0,0.013015,0,1,0.445,0,-0.445,0
0,0,0,0,0,0,-0.0005432,-0.0025777,-4.453e-37,0.0016656,6.7652e-19,5.5529e-22,59.519,0.0038586,-0.0035978,-1.669e-34,0.00047686,-444.47,-753.58,-361.19,254.7,1.0379e-13,5.0152e-17,589.07,-910.14,-361.19,-287.9,0,0.01303,0,1,0.45,0,-0.45,0
0,0,0,0,0,0,-0.00053689,-0.002574,-4.5021e-37,0.0016573,6.7437e-19,5.6437e-22,59.519,0.0038473,-0.0035868,-1.6511e-34,0.00047596,-442.34,-751.87,-360.02,253.44,1.0346e-13,5.1873e-17,587.35,-907.33,-360.02,-286.88,0,0.013044,0,1,0.455,0,-0.455,0
0,0,0,0,0,0,-0.00053058,-0.0025703,-4.5512e-37,0.0016491,6.7223e-19,5.7344e-22,59.519,0.0038359,-0.0035759,-1.6332e-34,0.00047506,-440.21,-750.16,-358.86,252.19,1.0313e-13,5.3595e-17,585.62,-904.52,-358.86,-285.86,0,0.013059,0,1,0.46,0,-0.46,0
0,0,0,0,0,0,-0.00052427,-0.0025666,-4.6003e-37,0.0016409,6.7009e-19,5.8252e-22,59.519,0.0038245,-0.003565,-1.6153e-34,0.00047416,-438.09,-748.45,-357.7,250.94,1.0281e-13,5.5316e-17,583.9,-901.71,-357.7,-284.83,0,0.013073,0,1,0.465,0,-0.465,0
0,0,0,0,0,0,-0.00051797,-0.0025629,-4.6494e-37,0.0016327,6.6795e-19,5.9159e-22,59.519,0.0038132,-0.0035541,-1.5974e-34,0.00047326,-435.96,-746.75,-356.54,249.68,1.0248e-13,5.7037e-17,582.18,-898.89,-356.54,-283.81,0,0.013088,0,1,0.47,0,-0.47,0
0,0,0,0,0,0,-0.00051166,-0.0025592,-4.6985e-37,0.0016244,6.6581e-19,6.0067e-22,59.519,0.0038018,-0.0035432,-1.5794e-34,0.00047236,-433.83,-745.04,-355.38,248.43,1.0215e-13,5.8758e-17,580.45,-896.08,-355.38,-282.79,0,0.013102,0,1,0.475,0,-0.475,0
0,0,0,0,0,0,-0.00050535,-0.0025555,-4.7476e-37,0.0016162,6.6366e-19,6.0974e-22,59.519,0.0037904,-0.0035323,-1.5615e-34,0.00047146,-431.7,-743.33,-354.22,247.18,1.0182e-13,6.048e-17,578.73,-893.27,-354.22,-281.77,0,0.013117,0,1,0.48,0,-0.48,0
0,0,0,0,0,0,-0.00049904,-0.0025518,-4.7967e-37,0.001608,6.6152e-19,6.1882e-22,59.519,0.003779,-0.0035214,-1.5436e-34,0.00047055,-429.58,-741.62,-353.06,245.93,1.0149e-13,6.2201e-17,577.01,-890.45,-353.06,-280.75,0,0.013132,0,1,0.485,0,-0.485,0
0,0,0,0,0,0,-0.00049273,-0.0025481,-4.8459e-37,0.0015998,6.5938e-19,6.2789e-22,59.519,0.0037677,-0.0035105,-1.5257e-34,0.00046965,-427.45,-739.92,-351.9,244.67,1.0116e-13,6.3922e-17,575.28,-887.64,-351.9,-279.72,0,0.013146,0,1,0.49,0,-0.49,0
0,0,0,0,0,0,-0.00048643,-0.0025444,-4.895e-37,0.0015915,6.5724e-19,6.3697e-22,59.519,0.0037563,-0.0034996,-1.5078e-34,0.00046875,-425.32,-738.21,-350.74,243.42,1.0083e-13,6.5643e-17,573.56,-884.83,-350.74,-278.7,0,0.013161,0,1,0.495,0,-0.495,0
0,0,0,0,0,0,-0.00048012,-0.0025407,-4.9441e-37,0.0015833,6.551e-19,6.4604e-22,59.519,0.0037449,-0.0034887,-1.4898e-34,0.00046785,-423.19,-736.5,-349.58,242.17,1.0051e-13,6.7365e-17,571.83,-882.02,-349.58,-277.68,0,0.013175,0,1,0.5,0,-0.5,0
0,0,0,0,0,0,-0.00047381,-0.002537,-4.9932e-37,0.0015751,6.5295e-19,6.5512e-22,59.519,0.0037335,-0.0034778,-1.4719e-34,0.00046695,-421.07,-734.79,-348.42,240.92,1.0018e-13,6.9086e-17,570.11,-879.2,-348.42,-276.66,0,0.01319,0,1,0.505,0,-0.505,0
0,0,0,0,0,0,-0.0004675,-0.0025333,-5.0423e-37,0.0015669,6.5081e-19,6.6419e-22,59.519,0.0037222,-0.0034669,-1.454e-34,0.00046605,-418.94,-733.09,-347.26,239.66,9.9849e-14,7.0807e-17,568.39,-876.39,-347.26,-275.63,0,0.013204,0,1,0.51,0,-0.51,0
0,0,0,0,0,0,-0.00046119,-0.0025297,-5.0914e-37,0.0015586,6.4867e-19,6.7327e-22,59.519,0.0037108,-0.003456,-1.4361e-34,0.00046515,-416.81,-731.38,-346.1,238.41,9.9521e-14,7.2528e-17,566.66,-873.58,-346.1,-274.61,0,0.013219,0,1,0.515,0,-0.515,0
0,0,0,0,0,0,-0.00045488,-0.002526,-5.1405e-37,0.0015504,6.4653e-19,6.8234e-22,59.519,0.0036994,-0.0034451,-1.4182e-34,0.00046425,-414.68,-729.67,-344.94,237.16,9.9192e-14,7.4249e-17,564.94,-870.77,-344.94,-273.59,0,0.013234,0,1,0.52,0,-0.52,0
0,0,0,0,0,0,-0.00044858,-0.0025223,-5.1896e-37,0.0015422,6.4438e-19,6.9142e-22,59.519,0.0036881,-0.0034342,-1.4003e-34,0.00046335,-412.56,-727.96,-343.78,235.91,9.8864e-14,7.5971e-17,563.21,-867.95,-343.78,-272.57,0,0.013248,0,1,0.525,0,-0.525,0
0,0,0,0,0,0,-0.00044227,-0.0025186,-5.2387e-37,0.0015339,6.4224e-19,7.0049e-22,59.519,0.0036767,-0.0034233,-1.3823e-34,0.00046244,-410.43,-726.26,-342.62,234.65,9.8535e-14,7.7692e-17,561.49,-865.14,-342.62,-271.54,0,0.013263,0,1,0.53,0,-0.53,0
0,0,0,0,0,0,-0.00043596,-0.0025149,-5.2878e-37,0.0015257,6.401e-19,7.0957e-22,59.519,0.0036653,-0.0034124,-1.3644e-34,0.00046154,-408.3,-724.55,-341.46,233.4,9.8207e-14,7.9413e-17,559.77,-862.33,-341.46,-270.52,0,0.013277,0,1,0.535,0,-0.535,0
0,0,0,0,0,0,-0.00042965,-0.0025112,-5.3369e-37,0.0015175,6.3796e-19,7.1864e-22,59.519,0.0036539,-0.0034015,-1.3465e-34,0.00046064,-406.17,-722.84,-340.3,232.15,9.7878e-14,8.1134e-17,558.04,-859.52,-340.3,-269.5,0,0.013292,0,1,0.54,0,-0.54,0
0,0,0,0,0,0,-0.00042334,-0.0025075,-5.386e-37,0.0015093,6.3582e-19,7.2772e-22,59.519,0.0036426,-0.0033906,-1.3286e-34,0.00045974,-404.05,-721.13,-339.14,230.9,9.755e-14,8.2856e-17,556.32,-856.7,-339.14,-268.48,0,0.013306,0,1,0.545,0,-0.545,0
0,0,0,0,0,0,-0.00041704,-0.0025038,-5.4351e-37,0.001501,6.3367e-19,7.3679e-22,59.519,0.0036312,-0.0033797,-1.3107e-34,0.00045884,-401.92,-719.43,-337.98,229.64,9.7221e-14,8.4577e-17,554.6,-853.89,-337.98,-267.45,0,0.013321,0,1,0.55,0,-0.55,0
0,0,0,0,0,0,-0.00041073,-0.0025001,-5.4842e-37,0.0014928,6.3153e-19,7.4587e-22,59.519,0.0036198,-0.0033688,-1.2928e-34,0.00045794,-399.79,-717.72,-336.82,228.39,9.6893e-14,8.6298e-17,552.87,-851.08,-336.82,-266.43,0,0.013336,0,1,0.555,0,-0.555,0
0,0,0,0,0,0,-0.00040442,-0.0024964,-5.5334e-37,0.0014846,6.2939e-19,7.5494e-22,59.519,0.0036085,-0.0033579,-1.2748e-34,0.00045704,-397.66,-716.01,-335.66,227.14,9.6564e-14,8.8019e-17,551.15,-848.27,-335.66,-265.41,0,0.01335,0,1,0.56,0,-0.56,0
0,0,0,0,0,0,-0.00039811,-0.0024927,-5.5825e-37,0.0014764,6.2725e-19,7.6402e-22,59.519,0.0035971,-0.0033469,-1.2569e-34,0.00045614,-395.54,-714.3,-334.5,225.88,9.6236e-14,8.9741e-17,549.42,-845.45,-334.5,-264.39,0,0.013365,0,1,0.565,0,-0.565,0
0,0,0,0,0,0,-0.0003918,-0.002489,-5.6316e-37,0.0014681,6.2511e-19,7.7309e-22,59.519,0.0035857,-0.003336,-1.239e-34,0.00045524,-393.41,-712.6,-333.34,224.63,9.5908e-14,9.1462e-17,547.7,-842.64,-333.34,-263.36,0,0.013379,0,1,0.57,0,-0.57,0
0,0,0,0,0,0,-0.0003855,-0.0024853,-5.6807e-37,0.0014599,6.2296e-19,7.8217e-22,59.519,0.0035743,-0.0033251,-1.2211e-34,0.00045434,-391.28,-710.89,-332.18,223.38,9.5579e-14,9.3183e-17,545.98,-839.83,-332.18,-262.34,0,0.013394,0,1,0.575,0,-0.575,0
0,0,0,0,0,0,-0.00037919,-0.0024816,-5.7298e-37,0.0014517,6.2082e-19,7.9124e-22,59.519,0.003563,-0.0033142,-1.2032e-34,0.00045343,-389.15,-709.18,-331.02,222.13,9.5251e-14,9.4904e-17,544.25,-837.02,-331.02,-261.32,0,0.013408,0,1,0.58,0,-0.58,0
0,0,0,0,0,0,-0.00037288,-0.0024779,-5.7789e-37,0.0014435,6.1868e-19,8.0032e-22,59.519,0.0035516,-0.0033033,-1.1853e-34,0.00045253,-387.03,-707.47,-329.85,220.87,9.4922e-14,9.6625e-17,542.53,-834.2,-329.85,-260.3,0,0.013423,0,1,0.585,0,-0.585,0
0,0,0,0,0,0,-0.00036657,-0.0024742,-5.828e-37,0.0014352,6.1654e-19,8.0939e-22,59.519,0.0035402,-0.0032924,-1.1673e-34,0.00045163,-384.9,-705.77,-328.69,219.62,9.4594e-14,9.8347e-17,540.81,-831.39,-328.69,-259.27,0,0.013438,0,1,0.59,0,-0.59,0
0,0,0,0,0,0,-0.00036026,-0.0024705,-5.8771e-37,0.001427,6.1439e-19,8.1847e-22,59.519,0.0035289,-0.0032815,-1.1494e-34,0.00045073,-382.77,-704.06,-327.53,218.37,9.4265e-14,1.0007e-16,539.08,-828.58,-327.53,-258.25,0,0.013452,0,1,0.595,0,-0.595,0
0,0,0,0,0,0,-0.00035396,-0.0024668,-5.9262e-37,0.0014188,6.1225e-19,8.2754e-22,59.519,0.0035175,-0.0032706,-1.1315e-34,0.00044983,-380.65,-702.35,-326.37,217.12,9.3937e-14,1.0179e-16,537.36,-825.77,-326.37,-257.23,0,0.013467,0,1,0.6,0,-0.6,0
0,0,0,0,0,0,-0.00034765,-0.0024631,-5.9753e-37,0.0014106,6.1011e-19,8.3662e-22,59.519,0.0035061,-0.0032597,-1.1136e-34,0.00044893,-378.52,-700.64,-325.21,215.86,9.3608e-14,1.0351e-16,535.63,-822.95,-325.21,-256.21,0,0.013481,0,1,0.605,0,-0.605,0
0,0,0,0,0,0,-0.00034134,-0.0024594,-6.0244e-37,0.0014023,6.0797e-19,8.4569e-22,59.519,0.0034947,-0.0032488,-1.0957e-34,0.00044803,-376.39,-698.93,-324.05,214.61,9.328e-14,1.0523e-16,533.91,-820.14,-324.05,-255.18,0,0.013496,0,1,0.61,0,-0.61,0
0,0,0,0,0,0,-0.00033503,-0.0024557,-6.0735e-37,0.0013941,6.0583e-19,8.5477e-22,59.519,0.0034834,-0.0032379,-1.0777e-34,0.00044713,-374.26,-697.23,-322.89,213.36,9.2951e-14,1.0695e-16,532.19,-817.33,-322.89,-254.16,0,0.01351,0,1,0.615,0,-0.615,0
0,0,0,0,0,0,-0.00032872,-0.0024521,-6.1226e-37,0.0013859,6.0368e-19,8.6384e-22,59.519,0.003472,-0.003227,-1.0598e-34,0.00044623,-372.14,-695.52,-321.73,212.11,9.2623e-14,1.0867e-16,530.46,-814.52,-321.73,-253.14,0,0.013525,0,1,0.62,0,-0.62,0
0,0,0,0,0,0,-0.00032242,-0.0024484,-6.1718e-37,0.0013777,6.0154e-19,8.7292e-22,59.519,0.0034606,-0.0032161,-1.0419e-34,0.00044532,-370.01,-693.81,-320.57,210.85,9.2295e-14,1.104e-16,528.74,-811.7,-320.57,-252.12,0,0.013539,0,1,0.625,0,-0.625,0
0,0,0,0,0,0,-0.00031611,-0.0024447,-6.2209e-37,0.0013694,5.994e-19,8.8199e-22,59.519,0.0034493,-0.0032052,-1.024e-34,0.00044442,-367.88,-692.1,-319.41,209.6,9.1966e-14,1.1212e-16,527.02,-808.89,-319.41,-251.09,0,0.013554,0,1,0.63,0,-0.63,0
0,0,0,0,0,0,-0.0003098,-0.002441,-6.27e-37,0.0013612,5.9726e-19,8.9107e-22,59.519,0.0034379,-0.0031943,-1.0061e-34,0.00044352,-365.75,-690.4,-318.25,208.35,9.1638e-14,1.1384e-16,525.29,-806.08,-318.25,-250.07,0,0.013569,0,1,0.635,0,-0.635,0
0,0,0,0,0,0,-0.00030349,-0.0024373,-6.3191e-37,0.001353,5.9512e-19,9.0014e-22,59.519,0.0034265,-0.0031834,-9.8816e-35,0.00044262,-363.63,-688.69,-317.09,207.1,9.1309e-14,1.1556e-16,523.57,-803.27,-317.09,-249.05,0,0.013583,0,1,0.64,0,-0.64,0
0,0,0,0,0,0,-0.00029718,-0.0024336,-6.3682e-37,0.0013448,5.9297e-19,9.0922e-22,59.519,0.0034151,-0.0031725,-9.7024e-35,0.00044172,-361.5,-686.98,-315.93,205.84,9.0981e-14,1.1728e-16,521.84,-800.45,-315.93,-248.03,0,0.013598,0,1,0.645,0,-0.645,0
0,0,0,0,0,0,-0.00029088,-0.0024299,-6.4173e-37,0.0013365,5.9083e-19,9.1829e-22,59.519,0.0034038,-0.0031616,-9.5233e-35,0.00044082,-359.37,-685.27,-314.77,204.59,9.0652e-14,1.19e-16,520.12,-797.64,-314.77,-247,0,0.013612,0,1,0.65,0,-0.65,0
0,0,0,0,0,0,-0.00028457,-0.0024262,-6.4664e-37,0.0013283,5.8869e-19,9.2737e-22,59.519,0.0033924,-0.0031507,-9.3441e-35,0.00043992,-357.24,-683.57,-313.61,203.34,9.0324e-14,1.2072e-16,518.4,-794.83,-313.61,-245.98,0,0.013627,0,1,0.655,0,-0.655,0
0,0,0,0,0,0,-0.00027826,-0.0024225,-6.5155e-37,0.0013201,5.8655e-19,9.3644e-22,59.519,0.003381,-0.0031398,-9.1649e-35,0.00043902,-355.12,-681.86,-312.45,202.08,8.9995e-14,1.2244e-16,516.67,-792.02,-312.45,-244.96,0,0.013641,0,1,0.66,0,-0.66,0
0,0,0,0,0,0,-0.00027195,-0.0024188,-6.5646e-37,0.0013119,5.844e-19,9.4552e-22,59.519,0.0033696,-0.0031289,-8.9857e-35,0.00043812,-352.99,-680.15,-311.29,200.83,8.9667e-14,1.2417e-16,514.95,-789.2,-311.29,-243.94,0,0.013656,0,1,0.665,0,-0.665,0
0,0,0,0,0,0,-0.00026564,-0.0024151,-6.6137e-37,0.0013036,5.8226e-19,9.5459e-22,59.519,0.0033583,-0.003118,-8.8066e-35,0.00043721,-350.86,-678.44,-310.13,199.58,8.9338e-14,1.2589e-16,513.22,-786.39,-310.13,-242.92,0,0.013671,0,1,0.67,0,-0.67,0
0,0,0,0,0,0,-0.00025934,-0.0024114,-6.6628e-37,0.0012954,5.8012e-19,9.6367e-22,59.519,0.0033469,-0.0031071,-8.6274e-35,0.00043631,-348.73,-676.74,-308.97,198.33,8.901e-14,1.2761e-16,511.5,-783.58,-308.97,-241.89,0,0.013685,0,1,0.675,0,-0.675,0
0,0,0,0,0,0,-0.00025303,-0.0024077,-6.7119e-37,0.0012872,5.7798e-19,9.7274e-22,59.519,0.0033355,-0.0030961,-8.4482e-35,0.00043541,-346.61,-675.03,-307.81,197.07,8.8681e-14,1.2933e-16,509.78,-780.77,-307.81,-240.87,0,0.0137,0,1,0.68,0,-0.68,0
0,0,0,0,0,0,-0.00024672,-0.002404,-6.761e-37,0.001279,5.7584e-19,9.8182e-22,59.519,0.0033242,-0.0030852,-8.269e-35,0.00043451,-344.48,-673.32,-306.65,195.82,8.8353e-14,1.3105e-16,508.05,-777.95,-306.65,-239.85,0,0.013714,0,1,0.685,0,-0.685,0
0,0,0,0,0,0,-0.00024041,-0.0024003,-6.8101e-37,0.0012707,5.7369e-19,9.909e-22,59.519,0.0033128,-0.0030743,-8.0899e-35,0.00043361,-342.35,-671.61,-305.49,194.57,8.8025e-14,1.3277e-16,506.33,-775.14,-305.49,-238.83,0,0.013729,0,1,0.69,0,-0.69,0
0,0,0,0,0,0,-0.0002341,-0.0023966,-6.8593e-37,0.0012625,5.7155e-19,9.9997e-22,59.519,0.0033014,-0.0030634,-7.9107e-35,0.00043271,-340.22,-669.91,-304.33,193.32,8.7696e-14,1.3449e-16,504.61,-772.33,-304.33,-237.8,0,0.013743,0,1,0.695,0,-0.695,0
0,0,0,0,0,0,-0.0002278,-0.0023929,-6.9084e-37,0.0012543,5.6941e-19,1.009e-21,59.519,0.00329,-0.0030525,-7.7315e-35,0.00043181,-338.1,-668.2,-303.17,192.06,8.7368e-14,1.3621e-16,502.88,-769.51,-303.17,-236.78,0,0.013758,0,1,0.7,0,-0.7,0
0,0,0,0,0,0,-0.00022149,-0.0023892,-6.9575e-37,0.0012461,5.6727e-19,1.0181e-21,59.519,0.0032787,-0.0030416,-7.5523e-35,0.00043091,-335.97,-666.49,-302.01,190.81,8.7039e-14,1.3794e-16,501.16,-766.7,-302.01,-235.76,0,0.013773,0,1,0.705,0,-0.705,0
0,0,0,0,0,0,-0.00021518,-0.0023855,-7.0066e-37,0.0012378,5.6512e-19,1.0272e-21,59.519,0.0032673,-0.0030307,-7.3732e-35,0.00043001,-333.84,-664.78,-300.85,189.56,8.6711e-14,1.3966e-16,499.43,-763.89,-300.85,-234.74,0,0.013787,0,1,0.71,0,-0.71,0
0,0,0,0,0,0,-0.00020887,-0.0023818,-7.0557e-37,0.0012296,5.6298e-19,1.0363e-21,59.519,0.0032559,-0.0030198,-7.194e-35,0.00042911,-331.71,-663.08,-299.68,188.31,8.6382e-14,1.4138e-16,497.71,-761.08,-299.68,-233.71,0,0.013802,0,1,0.715,0,-0.715,0
0,0,0,0,0,0,-0.00020256,-0.0023781,-7.1048e-37,0.0012214,5.6084e-19,1.0453e-21,59.519,0.0032446,-0.0030089,-7.0148e-35,0.0004282,-329.59,-661.37,-298.52,187.05,8.6054e-14,1.431e-16,495.99,-758.26,-298.52,-232.69,0,0.013816,0,1,0.72,0,-0.72,0
0,0,0,0,0,0,-0.00019626,-0.0023744,-7.1539e-37,0.0012132,5.587e-19,1.0544e-21,59.519,0.0032332,-0.002998,-6.8356e-35,0.0004273,-327.46,-659.66,-297.36,185.8,8.5725e-14,1.4482e-16,494.26,-755.45,-297.36,-231.67,0,0.013831,0,1,0.725,0,-0.725,0
0,0,0,0,0,0,-0.00018995,-0.0023708,-7.203e-37,0.0012049,5.5656e-19,1.0635e-21,59.519,0.0032218,-0.0029871,-6.6565e-35,0.0004264,-325.33,-657.95,-296.2,184.55,8.5397e-14,1.4654e-16,492.54,-752.64,-296.2,-230.65,0,0.013845,0,1,0.73,0,-0.73,0
0,0,0,0,0,0,-0.00018364,-0.0023671,-7.2521e-37,0.0011967,5.5441e-19,1.0726e-21,59.519,0.0032104,-0.0029762,-6.4773e-35,0.0004255,-323.2,-656.25,-295.04,183.29,8.5068e-14,1.4826e-16,490.82,-749.83,-295.04,-229.62,0,0.01386,0,1,0.735,0,-0.735,0
0,0,0,0,0,0,-0.00017733,-0.0023634,-7.3012e-37,0.0011885,5.5227e-19,1.0816e-21,59.519,0.0031991,-0.0029653,-6.2981e-35,0.0004246,-321.08,-654.54,-293.88,182.04,8.474e-14,1.4998e-16,489.09,-747.01,-293.88,-228.6,0,0.013875,0,1,0.74,0,-0.74,0
0,0,0,0,0,0,-0.00017102,-0.0023597,-7.3503e-37,0.0011803,5.5013e-19,1.0907e-21,59.519,0.0031877,-0.0029544,-6.1189e-35,0.0004237,-318.95,-652.83,-292.72,180.79,8.4411e-14,1.5171e-16,487.37,-744.2,-292.72,-227.58,0,0.013889,0,1,0.745,0,-0.745,0
0,0,0,0,0,0,-0.00016472,-0.002356,-7.3994e-37,0.001172,5.4799e-19,1.0998e-21,59.519,0.0031763,-0.0029435,-5.9398e-35,0.0004228,-316.82,-651.12,-291.56,179.54,8.4083e-14,1.5343e-16,485.64,-741.39,-291.56,-226.56,0,0.013904,0,1,0.75,0,-0.75,0
0,0,0,0,0,0,-0.00015841,-0.0023523,-7.4485e-37,0.0011638,5.4585e-19,1.1089e-21,59.519,0.003165,-0.0029326,-5.7606e-35,0.0004219,-314.69,-649.42,-290.4,178.28,8.3755e-14,1.5515e-16,483.92,-738.58,-290.4,-225.53,0,0.013918,0,1,0.755,0,-0.755,0
0,0,0,0,0,0,-0.0001521,-0.0023486,-7.4977e-37,0.0011556,5.437e-19,1.1179e-21,59.519,0.0031536,-0.0029217,-5.5814e-35,0.000421,-312.57,-647.71,-289.24,177.03,8.3426e-14,1.5687e-16,482.2,-735.76,-289.24,-224.51,0,0.013933,0,1,0.76,0,-0.76,0
0,0,0,0,0,0,-0.00014579,-0.0023449,-7.5468e-37,0.0011474,5.4156e-19,1.127e-21,59.519,0.0031422,-0.0029108,-5.4022e-35,0.00042009,-310.44,-646,-288.08,175.78,8.3098e-14,1.5859e-16,480.47,-732.95,-288.08,-223.49,0,0.013947,0,1,0.765,0,-0.765,0
0,0,0,0,0,0,-0.00013948,-0.0023412,-7.5959e-37,0.0011391,5.3942e-19,1.1361e-21,59.519,0.0031308,-0.0028999,-5.2231e-35,0.00041919,-308.31,-644.29,-286.92,174.53,8.2769e-14,1.6031e-16,478.75,-730.14,-286.92,-222.47,0,0.013962,0,1,0.77,0,-0.77,0
0,0,0,0,0,0,-0.00013318,-0.0023375,-7.645e-37,0.0011309,5.3728e-19,1.1452e-21,59.519,0.0031195,-0.002889,-5.0439e-35,0.00041829,-306.18,-642.59,-285.76,173.27,8.2441e-14,1.6203e-16,477.03,-727.33,-285.76,-221.44,0,0.013977,0,1,0.775,0,-0.775,0
0,0,0,0,0,0,-0.00012687,-0.0023338,-7.6941e-37,0.0011227,5.3513e-19,1.1542e-21,59.519,0.0031081,-0.0028781,-4.8647e-35,0.00041739,-304.06,-640.88,-284.6,172.02,8.2112e-14,1.6375e-16,475.3,-724.51,-284.6,-220.42,0,0.013991,0,1,0.78,0,-0.78,0
0,0,0,0,0,0,-0.00012056,-0.0023301,-7.7432e-37,0.0011145,5.3299e-19,1.1633e-21,59.519,0.0030967,-0.0028672,-4.6855e-35,0.00041649,-301.93,-639.17,-283.44,170.77,8.1784e-14,1.6547e-16,473.58,-721.7,-283.44,-219.4,0,0.014006,0,1,0.785,0,-0.785,0
0,0,0,0,0,0,-0.00011425,-0.0023264,-7.7923e-37,0.0011062,5.3085e-19,1.1724e-21,59.519,0.0030854,-0.0028562,-4.5064e-35,0.00041559,-299.8,-637.46,-282.28,169.52,8.1455e-14,1.672e-16,471.85,-718.89,-282.28,-218.38,0,0.01402,0,1,0.79,0,-0.79,0
0,0,0,0,0,0,-0.00010794,-0.0023227,-7.8414e-37,0.001098,5.2871e-19,1.1815e-21,59.519,0.003074,-0.0028453,-4.3272e-35,0.00041469,-297.68,-635.76,-281.12,168.26,8.1127e-14,1.6892e-16,470.13,-716.08,-281.12,-217.35,0,0.014035,0,1,0.795,0,-0.795,0
0,0,0,0,0,0,-0.00010164,-0.002319,-7.8905e-37,0.0010898,5.2657e-19,1.1905e-21,59.519,0.0030626,-0.0028344,-4.148e-35,0.00041379,-295.55,-634.05,-279.96,167.01,8.0798e-14,1.7064e-16,468.41,-713.26,-279.96,-216.33,0,0.014049,0,1,0.8,0,-0.8,0
0,0,0,0,0,0,-9.5327e-05,-0.0023153,-7.9396e-37,0.0010816,5.2442e-19,1.1996e-21,59.519,0.0030512,-0.0028235,-3.9689e-35,0.00041289,-293.42,-632.34,-278.8,165.76,8.047e-14,1.7236e-16,466.68,-710.45,-278.8,-215.31,0,0.014064,0,1,0.805,0,-0.805,0
0,0,0,0,0,0,-8.9019e-05,-0.0023116,-7.9887e-37,0.0010733,5.2228e-19,1.2087e-21,59.519,0.0030399,-0.0028126,-3.7897e-35,0.00041198,-291.29,-630.63,-277.64,164.51,8.0141e-14,1.7408e-16,464.96,-707.64,-277.64,-214.29,0,0.014079,0,1,0.81,0,-0.81,0
0,0,0,0,0,0,-8.2711e-05,-0.0023079,-8.0378e-37,0.0010651,5.2014e-19,1.2178e-21,59.519,0.0030285,-0.0028017,-3.6105e-35,0.00041108,-289.17,-628.93,-276.48,163.25,7.9813e-14,1.758e-16,463.23,-704.83,-276.48,-213.26,0,0.014093,0,1,0.815,0,-0.815,0
0,0,0,0,0,0,-7.6403e-05,-0.0023042,-8.0869e-37,0.0010569,5.18e-19,1.2268e-21,59.519,0.0030171,-0.0027908,-3.4313e-35,0.00041018,-287.04,-627.22,-275.32,162,7.9485e-14,1.7752e-16,461.51,-702.01,-275.32,-212.24,0,0.014108,0,1,0.82,0,-0.82,0
0,0,0,0,0,0,-7.0095e-05,-0.0023005,-8.136e-37,0.0010487,5.1586e-19,1.2359e-21,59.519,0.0030057,-0.0027799,-3.2522e-35,0.00040928,-284.91,-625.51,-274.16,160.75,7.9156e-14,1.7924e-16,459.79,-699.2,-274.16,-211.22,0,0.014122,0,1,0.825,0,-0.825,0
0,0,0,0,0,0,-6.3787e-05,-0.0022968,-8.1852e-37,0.0010404,5.1371e-19,1.245e-21,59.519,0.0029944,-0.002769,-3.073e-35,0.00040838,-282.78,-623.8,-273,159.49,7.8828e-14,1.8097e-16,458.06,-696.39,-273,-210.2,0,0.014137,0,1,0.83,0,-0.83,0
0,0,0,0,0,0,-5.7479e-05,-0.0022931,-8.2343e-37,0.0010322,5.1157e-19,1.2541e-21,59.519,0.002983,-0.0027581,-2.8938e-35,0.00040748,-280.66,-622.1,-271.84,158.24,7.8499e-14,1.8269e-16,456.34,-693.58,-271.84,-209.18,0,0.014151,0,1,0.835,0,-0.835,0
0,0,0,0,0,0,-5.1171e-05,-0.0022895,-8.2834e-37,0.001024,5.0943e-19,1.2631e-21,59.519,0.0029716,-0.0027472,-2.7146e-35,0.00040658,-278.53,-620.39,-270.68,156.99,7.8171e-14,1.8441e-16,454.62,-690.76,-270.68,-208.15,0,0.014166,0,1,0.84,0,-0.84,0
0,0,0,0,0,0,-4.4863e-05,-0.0022858,-8.3325e-37,0.0010157,5.0729e-19,1.2722e-21,59.519,0.0029603,-0.0027363,-2.5355e-35,0.00040568,-276.4,-618.68,-269.51,155.74,7.7842e-14,1.8613e-16,452.89,-687.95,-269.51,-207.13,0,0.01418,0,1,0.845,0,-0.845,0
0,0,0,0,0,0,-3.8555e-05,-0.0022821,-8.3816e-37,0.0010075,5.0514e-19,1.2813e-21,59.519,0.0029489,-0.0027254,-2.3563e-35,0.00040478,-274.27,-616.97,-268.35,154.48,7.7514e-14,1.8785e-16,451.17,-685.14,-268.35,-206.11,0,0.014195,0,1,0.85,0,-0.85,0
0,0,0,0,0,0,-3.2247e-05,-0.0022784,-8.4307e-37,0.0009993,5.03e-19,1.2904e-21,59.519,0.0029375,-0.0027145,-2.1771e-35,0.00040388,-272.15,-615.26,-267.19,153.23,7.7185e-14,1.8957e-16,449.44,-682.33,-267.19,-205.09,0,0.01421,0,1,0.855,0,-0.855,0
0,0,0,0,0,0,-2.5939e-05,-0.0022747,-8.4798e-37,0.00099107,5.0086e-19,1.2994e-21,59.519,0.0029261,-0.0027036,-1.9979e-35,0.00040297,-270.02,-613.56,-266.03,151.98,7.6857e-14,1.9129e-16,447.72,-679.51,-266.03,-204.06,0,0.014224,0,1,0.86,0,-0.86,0
0,0,0,0,0,0,-1.9631e-05,-0.002271,-8.5289e-37,0.00098285,4.9872e-19,1.3085e-21,59.519,0.0029148,-0.0026927,-1.8188e-35,0.00040207,-267.89,-611.85,-264.87,150.73,7.6528e-14,1.9301e-16,446,-676.7,-264.87,-203.04,0,0.014239,0,1,0.865,0,-0.865,0
0,0,0,0,0,0,-1.3323e-05,-0.0022673,-8.578e-37,0.00097462,4.9658e-19,1.3176e-21,59.519,0.0029034,-0.0026818,-1.6396e-35,0.00040117,-265.76,-610.14,-263.71,149.47,7.62e-14,1.9474e-16,444.27,-673.89,-263.71,-202.02,0,0.014253,0,1,0.87,0,-0.87,0
0,0,0,0,0,0,-7.0147e-06,-0.0022636,-8.6271e-37,0.0009664,4.9443e-19,1.3267e-21,59.519,0.002892,-0.0026709,-1.4604e-35,0.00040027,-263.64,-608.43,-262.55,148.22,7.5871e-14,1.9646e-16,442.55,-671.08,-262.55,-201,0,0.014268,0,1,0.875,0,-0.875,0
0,0,0,0,0,0,-7.0673e-07,-0.0022599,-8.6762e-37,0.00095817,4.9229e-19,1.3357e-21,59.519,0.0028807,-0.00266,-1.2812e-35,0.00039937,-261.51,-606.73,-261.39,146.97,7.5543e-14,1.9818e-16,440.83,-668.26,-261.39,-199.97,0,0.014282,0,1,0.88,0,-0.88,0
0,0,0,0,0,0,5.6013e-06,-0.0022562,-8.7253e-37,0.00094995,4.9015e-19,1.3448e-21,59.519,0.0028693,-0.0026491,-1.1021e-35,0.00039847,-259.38,-605.02,-260.23,145.72,7.5215e-14,1.999e-16,439.1,-665.45,-260.23,-198.95,0,0.014297,0,1,0.885,0,-0.885,0
0,0,0,0,0,0,1.1909e-05,-0.0022525,-8.7744e-37,0.00094172,4.8801e-19,1.3539e-21,59.519,0.0028579,-0.0026382,-9.2289e-36,0.00039757,-257.25,-603.31,-259.07,144.46,7.4886e-14,2.0162e-16,437.38,-662.64,-259.07,-197.93,0,0.014312,0,1,0.89,0,-0.89,0
0,0,0,0,0,0,1.8217e-05,-0.0022488,-8.8236e-37,0.0009335,4.8587e-19,1.363e-21,59.519,0.0028465,-0.0026273,-7.4372e-36,0.00039667,-255.13,-601.6,-257.91,143.21,7.4558e-14,2.0334e-16,435.65,-659.82,-257.91,-196.91,0,0.014326,0,1,0.895,0,-0.895,0
0,0,0,0,0,0,2.4525e-05,-0.0022451,-8.8727e-37,0.00092527,4.8372e-19,1.372e-21,59.519,0.0028352,-0.0026163,-5.6454e-36,0.00039577,-253,-599.9,-256.75,141.96,7.4229e-14,2.0506e-16,433.93,-657.01,-256.75,-195.88,0,0.014341,0,1,0.9,0,-0.9,0
0,0,0,0,0,0,3.0833e-05,-0.0022414,-8.9218e-37,0.00091704,4.8158e-19,1.3811e-21,59.519,0.0028238,-0.0026054,-3.8537e-36,0.00039486,-250.87,-598.19,-255.59,140.71,7.3901e-14,2.0678e-16,432.21,-654.2,-255.59,-194.86,0,0.014355,0,1,0.905,0,-0.905,0
0,0,0,0,0,0,3.7141e-05,-0.0022377,-8.9709e-37,0.00090882,4.7944e-19,1.3902e-21,59.519,0.0028124,-0.0025945,-2.0619e-36,0.00039396,-248.74,-596.48,-254.43,139.45,7.3572e-14,2.0851e-16,430.48,-651.39,-254.43,-193.84,0,0.01437,0,1,0.91,0,-0.91,0
0,0,0,0,0,0,4.345e-05,-0.002234,-9.02e-37,0.00090059,4.773e-19,1.3993e-21,59.519,0.0028011,-0.0025836,-2.7017e-37,0.00039306,-246.62,-594.77,-253.27,138.2,7.3244e-14,2.1023e-16,428.76,-648.57,-253.27,-192.82,0,0.014384,0,1,0.915,0,-0.915,0
0,0,0,0,0,0,4.9758e-05,-0.0022303,-9.0691e-37,0.00089237,4.7515e-19,1.4083e-21,59.519,0.0027897,-0.0025727,1.5216e-36,0.00039216,-244.49,-593.07,-252.11,136.95,7.2915e-14,2.1195e-16,427.04,-645.76,-252.11,-191.79,0,0.014399,0,1,0.92,0,-0.92,0
0,0,0,0,0,0,5.6066e-05,-0.0022266,-9.1182e-37,0.00088414,4.7301e-19,1.4174e-21,59.519,0.0027783,-0.0025618,3.3133e-36,0.00039126,-242.36,-591.36,-250.95,135.69,7.2587e-14,2.1367e-16,425.31,-642.95,-250.95,-190.77,0,0.014414,0,1,0.925,0,-0.925,0
0,0,0,0,0,0,6.2374e-05,-0.0022229,-9.1673e-37,0.00087592,4.7087e-19,1.4265e-21,59.519,0.0027669,-0.0025509,5.105e-36,0.00039036,-240.23,-589.65,-249.79,134.44,7.2258e-14,2.1539e-16,423.59,-640.14,-249.79,-189.75,0,0.014428,0,1,0.93,0,-0.93,0
0,0,0,0,0,0,6.8682e-05,-0.0022192,-9.2164e-37,0.00086769,4.6873e-19,1.4356e-21,59.519,0.0027556,-0.00254,6.8968e-36,0.00038946,-238.11,-587.94,-248.63,133.19,7.193e-14,2.1711e-16,421.86,-637.32,-248.63,-188.73,0,0.014443,0,1,0.935,0,-0.935,0
0,0,0,0,0,0,7.499e-05,-0.0022155,-9.2655e-37,0.00085947,4.6659e-19,1.4446e-21,59.519,0.0027442,-0.0025291,8.6885e-36,0.00038856,-235.98,-586.24,-247.47,131.94,7.1602e-14,2.1883e-16,420.14,-634.51,-247.47,-187.7,0,0.014457,0,1,0.94,0,-0.94,0
0,0,0,0,0,0,8.1298e-05,-0.0022118,-9.3146e-37,0.00085124,4.6444e-19,1.4537e-21,59.519,0.0027328,-0.0025182,1.048e-35,0.00038766,-233.85,-584.53,-246.31,130.68,7.1273e-14,2.2055e-16,418.42,-631.7,-246.31,-186.68,0,0.014472,0,1,0.945,0,-0.945,0
0,0,0,0,0,0,8.7606e-05,-0.0022082,-9.3637e-37,0.00084302,4.623e-19,1.4628e-21,59.519,0.0027215,-0.0025073,1.2272e-35,0.00038675,-231.72,-582.82,-245.15,129.43,7.0945e-14,2.2228e-16,416.69,-628.89,-245.15,-185.66,0,0.014486,0,1,0.95,0,-0.95,0
0,0,0,0,0,0,9.3914e-05,-0.0022045,-9.4128e-37,0.00083479,4.6016e-19,1.4719e-21,59.519,0.0027101,-0.0024964,1.4064e-35,0.00038585,-229.6,-581.11,-243.99,128.18,7.0616e-14,2.24e-16,414.97,-626.07,-243.99,-184.64,0,0.014501,0,1,0.955,0,-0.955,0
0,0,0,0,0,0,0.00010022,-0.0022008,-9.462e-37,0.00082657,4.5802e-19,1.4809e-21,59.519,0.0026987,-0.0024855,1.5855e-35,0.00038495,-227.47,-579.41,-242.83,126.93,7.0288e-14,2.2572e-16,413.24,-623.26,-242.83,-183.61,0,0.014516,0,1,0.96,0,-0.96,0
0,0,0,0,0,0,0.00010653,-0.0021971,-9.5111e-37,0.00081834,4.5588e-19,1.49e-21,59.519,0.0026873,-0.0024746,1.7647e-35,0.00038405,-225.34,-577.7,-241.67,125.67,6.9959e-14,2.2744e-16,411.52,-620.45,-241.67,-182.59,0,0.01453,0,1,0.965,0,-0.965,0
0,0,0,0,0,0,0.00011284,-0.0021934,-9.5602e-37,0.00081011,4.5373e-19,1.4991e-21,59.519,0.002676,-0.0024637,1.9439e-35,0.00038315,-223.21,-575.99,-240.51,124.42,6.9631e-14,2.2916e-16,409.8,-617.64,-240.51,-181.57,0,0.014545,0,1,0.97,0,-0.97,0
0,0,0,0,0,0,0.00011915,-0.0021897,-9.6093e-37,0.00080189,4.5159e-19,1.5082e-21,59.519,0.0026646,-0.0024528,2.1231e-35,0.00038225,-221.09,-574.28,-239.34,123.17,6.9302e-14,2.3088e-16,408.07,-614.82,-239.34,-180.55,0,0.014559,0,1,0.975,0,-0.975,0
0,0,0,0,0,0,0.00012545,-0.002186,-9.6584e-37,0.00079366,4.4945e-19,1.5172e-21,59.519,0.0026532,-0.0024419,2.3022e-35,0.00038135,-218.96,-572.58,-238.18,121.92,6.8974e-14,2.326e-16,406.35,-612.01,-238.18,-179.52,0,0.014574,0,1,0.98,0,-0.98,0
0,0,0,0,0,0,0.00013176,-0.0021823,-9.7075e-37,0.00078544,4.4731e-19,1.5263e-21,59.519,0.0026418,-0.002431,2.4814e-35,0.00038045,-216.83,-570.87,-237.02,120.66,6.8645e-14,2.3432e-16,404.63,-609.2,-237.02,-178.5,0,0.014588,0,1,0.985,0,-0.985,0
0,0,0,0,0,0,0.00013807,-0.0021786,-9.7566e-37,0.00077721,4.4516e-19,1.5354e-21,59.519,0.0026305,-0.0024201,2.6606e-35,0.00037955,-214.7,-569.16,-235.86,119.41,6.8317e-14,2.3605e-16,402.9,-606.39,-235.86,-177.48,0,0.014603,0,1,0.99,0,-0.99,0
0,0,0,0,0,0,0.00014438,-0.0021749,-9.8057e-37,0.00076899,4.4302e-19,1.5445e-21,59.519,0.0026191,-0.0024092,2.8398e-35,0.00037865,-212.58,-567.45,-234.7,118.16,6.7988e-14,2.3777e-16,401.18,-603.57,-234.7,-176.46,0,0.014618,0,1,0.995,0,-0.995,0
0,0,0,0,0,0,0.00015069,-0.0021712,-9.8548e-37,0.00076076,4.4088e-19,1.5535e-21,59.519,0.0026077,-0.0023983,3.0189e-35,0.00037774,-210.45,-565.75,-233.54,116.91,6.766e-14,2.3949e-16,399.45,-600.76,-233.54,-175.43,0,0.014632,0,1,1,0,-1,0
0,0,0,0,0,0,0.00015045,-0.0021663,-9.5131e-37,0.00075844,4.4067e-19,1.5546e-21,59.398,0.0026015,-0.0023926,3.048e-35,0.00037671,-209.95,-564.46,-233,116.55,6.7629e-14,2.3964e-16,398.49,-599.35,-233,-175.06,0,0.014639,0,1,1.005,0,-1.005,0
0,0,0,0,0,0,0.00015021,-0.0021614,-9.1714e-37,0.00075612,4.4046e-19,1.5556e-21,59.277,0.0025952,-0.0023869,3.0771e-35,0.00037567,-209.44,-563.17,-232.47,116.19,6.7597e-14,2.3979e-16,397.53,-597.94,-232.47,-174.68,0,0.014646,0,1,1.01,0,-1.01,0
0,0,0,0,0,0,0.00014998,-0.0021565,-8.8298e-37,0.00075381,4.4024e-19,1.5567e-21,59.156,0.0025889,-0.0023812,3.1062e-35,0.00037463,-208.94,-561.89,-231.93,115.84,6.7566e-14,2.3994e-16,396.57,-596.53,-231.93,-174.3,0,0.014654,0,1,1.015,0,-1.015,0
0,0,0,0,0,0,0.00014974,-0.0021516,-8.4881e-37,0.00075149,4.4003e-19,1.5577e-21,59.035,0.0025826,-0.0023755,3.1353e-35,0.00037359,-208.44,-560.6,-231.39,115.48,6.7534e-14,2.4009e-16,395.61,-595.12,-231.39,-173.92,0,0.014661,0,1,1.02,0,-1.02,0
0,0,0,0,0,0,0.0001495,-0.0021467,-8.1464e-37,0.00074917,4.3982e-19,1.5587e-21,58.914,0.0025763,-0.0023698,3.1643e-35,0.00037255,-207.94,-559.32,-230.85,115.12,6.7503e-14,2.4025e-16,394.65,-593.71,-230.85,-173.54,0,0.014668,0,1,1.025,0,-1.025,0
0,0,0,0,0,0,0.00014927,-0.0021418,-7.8047e-37,0.00074685,4.3961e-19,1.5598e-21,58.792,0.0025701,-0.0023641,3.1934e-35,0.00037151,-207.43,-558.03,-230.31,114.77,6.7472e-14,2.404e-16,393.69,-592.3,-230.31,-173.16,0,0.014675,0,1,1.03,0,-1.03,0
0,0,0,0,0,0,0.00014903,-0.0021369,-7.463e-37,0.00074453,4.3939e-19,1.5608e-21,58.671,0.0025638,-0.0023584,3.2225e-35,0.00037047,-206.93,-556.74,-229.77,114.41,6.744e-14,2.4055e-16,392.73,-590.89,-229.77,-172.78,0,0.014682,0,1,1.035,0,-1.035,0
0,0,0,0,0,0,0.00014879,-0.002132,-7.1213e-37,0.00074221,4.3918e-19,1.5618e-21,58.55,0.0025575,-0.0023527,3.2516e-35,0.00036943,-206.43,-555.46,-229.23,114.05,6.7409e-14,2.407e-16,391.77,-589.48,-229.23,-172.4,0,0.014689,0,1,1.04,0,-1.04,0
0,0,0,0,0,0,0.00014855,-0.0021271,-6.7797e-37,0.00073989,4.3897e-19,1.5629e-21,58.429,0.0025512,-0.002347,3.2807e-35,0.00036839,-205.92,-554.17,-228.69,113.7,6.7377e-14,2.4085e-16,390.81,-588.07,-228.69,-172.02,0,0.014697,0,1,1.045,0,-1.045,0
0,0,0,0,0,0,0.00014832,-0.0021222,-6.438e-37,0.00073758,4.3876e-19,1.5639e-21,58.308,0.0025449,-0.0023413,3.3097e-35,0.00036735,-205.42,-552.89,-228.15,113.34,6.7346e-14,2.41e-16,389.85,-586.66,-228.15,-171.65,0,0.014704,0,1,1.05,0,-1.05,0
0,0,0,0,0,0,0.00014808,-0.0021174,-6.0963e-37,0.00073526,4.3854e-19,1.5649e-21,58.187,0.0025387,-0.0023356,3.3388e-35,0.00036631,-204.92,-551.6,-227.62,112.99,6.7314e-14,2.4116e-16,388.89,-585.25,-227.62,-171.27,0,0.014711,0,1,1.055,0,-1.055,0
0,0,0,0,0,0,0.00014784,-0.0021125,-5.7546e-37,0.00073294,4.3833e-19,1.566e-21,58.066,0.0025324,-0.0023299,3.3679e-35,0.00036527,-204.42,-550.32,-227.08,112.63,6.7283e-14,2.4131e-16,387.93,-583.84,-227.08,-170.89,0,0.014718,0,1,1.06,0,-1.06,0
0,0,0,0,0,0,0.00014761,-0.0021076,-5.4129e-37,0.00073062,4.3812e-19,1.567e-21,57.945,0.0025261,-0.0023242,3.397e-35,0.00036424,-203.91,-549.03,-226.54,112.27,6.7252e-14,2.4146e-16,386.97,-582.43,-226.54,-170.51,0,0.014725,0,1,1.065,0,-1.065,0
0,0,0,0,0,0,0.00014737,-0.0021027,-5.0712e-37,0.0007283,4.3791e-19,1.5681e-21,57.824,0.0025198,-0.0023185,3.426e-35,0.0003632,-203.41,-547.74,-226,111.92,6.722e-14,2.4161e-16,386.01,-581.03,-226,-170.13,0,0.014732,0,1,1.07,0,-1.07,0
0,0,0,0,0,0,0.00014713,-0.0020978,-4.7295e-37,0.00072598,4.3769e-19,1.5691e-21,57.703,0.0025135,-0.0023128,3.4551e-35,0.00036216,-202.91,-546.46,-225.46,111.56,6.7189e-14,2.4176e-16,385.05,-579.62,-225.46,-169.75,0,0.01474,0,1,1.075,0,-1.075,0
0,0,0,0,0,0,0.0001469,-0.0020929,-4.3879e-37,0.00072366,4.3748e-19,1.5701e-21,57.581,0.0025073,-0.0023071,3.4842e-35,0.00036112,-202.41,-545.17,-224.92,111.2,6.7157e-14,2.4191e-16,384.09,-578.21,-224.92,-169.37,0,0.014747,0,1,1.08,0,-1.08,0
0,0,0,0,0,0,0.00014666,-0.002088,-4.0462e-37,0.00072135,4.3727e-19,1.5712e-21,57.46,0.002501,-0.0023014,3.5133e-35,0.00036008,-201.9,-543.89,-224.38,110.85,6.7126e-14,2.4207e-16,383.13,-576.8,-224.38,-168.99,0,0.014754,0,1,1.085,0,-1.085,0
0,0,0,0,0,0,0.00014642,-0.0020831,-3.7045e-37,0.00071903,4.3706e-19,1.5722e-21,57.339,0.0024947,-0.0022957,3.5424e-35,0.00035904,-201.4,-542.6,-223.84,110.49,6.7095e-14,2.4222e-16,382.17,-575.39,-223.84,-168.61,0,0.014761,0,1,1.09,0,-1.09,0
0,0,0,0,0,0,0.00014619,-0.0020782,-3.3628e-37,0.00071671,4.3684e-19,1.5732e-21,57.218,0.0024884,-0.00229,3.5714e-35,0.000358,-200.9,-541.31,-223.31,110.13,6.7063e-14,2.4237e-16,381.21,-573.98,-223.31,-168.23,0,0.014768,0,1,1.095,0,-1.095,0
0,0,0,0,0,0,0.00014595,-0.0020733,-3.0211e-37,0.00071439,4.3663e-19,1.5743e-21,57.097,0.0024821,-0.0022843,3.6005e-35,0.00035696,-200.39,-540.03,-222.77,109.78,6.7032e-14,2.4252e-16,380.24,-572.57,-222.77,-167.86,0,0.014775,0,1,1.1,0,-1.1,0
0,0,0,0,0,0,0.00014571,-0.0020684,-2.6794e-37,0.00071207,4.3642e-19,1.5753e-21,56.976,0.0024759,-0.0022786,3.6296e-35,0.00035592,-199.89,-538.74,-222.23,109.42,6.7e-14,2.4267e-16,379.28,-571.16,-222.23,-167.48,0,0.014783,0,1,1.105,0,-1.105,0
0,0,0,0,0,0,0.00014548,-0.0020635,-2.3378e-37,0.00070975,4.3621e-19,1.5763e-21,56.855,0.0024696,-0.0022729,3.6587e-35,0.00035488,-199.39,-537.46,-221.69,109.07,6.6969e-14,2.4282e-16,378.32,-569.75,-221.69,-167.1,0,0.01479,0,1,1.11,0,-1.11,0
0,0,0,0,0,0,0.00014524,-0.0020586,-1.9961e-37,0.00070743,4.3599e-19,1.5774e-21,56.734,0.0024633,-0.0022672,3.6878e-35,0.00035384,-198.89,-536.17,-221.15,108.71,6.6937e-14,2.4298e-16,377.36,-568.34,-221.15,-166.72,0,0.014797,0,1,1.115,0,-1.115,0
0,0,0,0,0,0,0.000145,-0.0020537,-1.6544e-37,0.00070512,4.3578e-19,1.5784e-21,56.613,0.002457,-0.0022615,3.7168e-35,0.0003528,-198.38,-534.88,-220.61,108.35,6.6906e-14,2.4313e-16,376.4,-566.93,-220.61,-166.34,0,0.014804,0,1,1.12,0,-1.12,0
0,0,0,0,0,0,0.00014477,-0.0020488,-1.3127e-37,0.0007028,4.3557e-19,1.5795e-21,56.492,0.0024507,-0.0022558,3.7459e-35,0.00035177,-197.88,-533.6,-220.07,108,6.6875e-14,2.4328e-16,375.44,-565.52,-220.07,-165.96,0,0.014811,0,1,1.125,0,-1.125,0
0,0,0,0,0,0,0.00014453,-0.0020439,-9.7102e-38,0.00070048,4.3536e-19,1.5805e-21,56.37,0.0024445,-0.0022501,3.775e-35,0.00035073,-197.38,-532.31,-219.53,107.64,6.6843e-14,2.4343e-16,374.48,-564.11,-219.53,-165.58,0,0.014818,0,1,1.13,0,-1.13,0
0,0,0,0,0,0,0.00014429,-0.002039,-6.2934e-38,0.00069816,4.3514e-19,1.5815e-21,56.249,0.0024382,-0.0022444,3.8041e-35,0.00034969,-196.87,-531.03,-218.99,107.28,6.6812e-14,2.4358e-16,373.52,-562.7,-218.99,-165.2,0,0.014826,0,1,1.135,0,-1.135,0
0,0,0,0,0,0,0.00014406,-0.0020341,-2.8765e-38,0.00069584,4.3493e-19,1.5826e-21,56.128,0.0024319,-0.0022387,3.8332e-35,0.00034865,-196.37,-529.74,-218.46,106.93,6.678e-14,2.4373e-16,372.56,-561.29,-218.46,-164.82,0,0.014833,0,1,1.14,0,-1.14,0
0,0,0,0,0,0,0.00014382,-0.0020292,5.403e-39,0.00069352,4.3472e-19,1.5836e-21,56.007,0.0024256,-0.002233,3.8622e-35,0.00034761,-195.87,-528.46,-217.92,106.57,6.6749e-14,2.4389e-16,371.6,-559.88,-217.92,-164.45,0,0.01484,0,1,1.145,0,-1.145,0
0,0,0,0,0,0,0.00014358,-0.0020243,3.9571e-38,0.0006912,4.3451e-19,1.5846e-21,55.886,0.0024193,-0.0022273,3.8913e-35,0.00034657,-195.37,-527.17,-217.38,106.22,6.6718e-14,2.4404e-16,370.64,-558.47,-217.38,-164.07,0,0.014847,0,1,1.15,0,-1.15,0
0,0,0,0,0,0,0.00014335,-0.0020194,7.374e-38,0.00068889,4.3429e-19,1.5857e-21,55.765,0.0024131,-0.0022216,3.9204e-35,0.00034553,-194.86,-525.88,-216.84,105.86,6.6686e-14,2.4419e-16,369.68,-557.06,-216.84,-163.69,0,0.014854,0,1,1.155,0,-1.155,0
0,0,0,0,0,0,0.00014311,-0.0020146,1.0791e-37,0.00068657,4.3408e-19,1.5867e-21,55.644,0.0024068,-0.0022159,3.9495e-35,0.00034449,-194.36,-524.6,-216.3,105.5,6.6655e-14,2.4434e-16,368.72,-555.65,-216.3,-163.31,0,0.014861,0,1,1.16,0,-1.16,0
0,0,0,0,0,0,0.00014287,-0.0020097,1.4208e-37,0.00068425,4.3387e-19,1.5877e-21,55.523,0.0024005,-0.0022102,3.9785e-35,0.00034345,-193.86,-523.31,-215.76,105.15,6.6623e-14,2.4449e-16,367.76,-554.24,-215.76,-162.93,0,0.014869,0,1,1.165,0,-1.165,0
0,0,0,0,0,0,0.00014264,-0.0020048,1.7624e-37,0.00068193,4.3366e-19,1.5888e-21,55.402,0.0023942,-0.0022045,4.0076e-35,0.00034241,-193.36,-522.03,-215.22,104.79,6.6592e-14,2.4464e-16,366.8,-552.83,-215.22,-162.55,0,0.014876,0,1,1.17,0,-1.17,0
0,0,0,0,0,0,0.0001424,-0.0019999,2.1041e-37,0.00067961,4.3344e-19,1.5898e-21,55.281,0.0023879,-0.0021988,4.0367e-35,0.00034137,-192.85,-520.74,-214.68,104.43,6.656e-14,2.448e-16,365.84,-551.42,-214.68,-162.17,0,0.014883,0,1,1.175,0,-1.175,0
0,0,0,0,0,0,0.00014216,-0.001995,2.4458e-37,0.00067729,4.3323e-19,1.5909e-21,55.16,0.0023817,-0.0021931,4.0658e-35,0.00034033,-192.35,-519.45,-214.15,104.08,6.6529e-14,2.4495e-16,364.88,-550.01,-214.15,-161.79,0,0.01489,0,1,1.18,0,-1.18,0
0,0,0,0,0,0,0.00014192,-0.0019901,2.7875e-37,0.00067497,4.3302e-19,1.5919e-21,55.038,0.0023754,-0.0021874,4.0949e-35,0.0003393,-191.85,-518.17,-213.61,103.72,6.6498e-14,2.451e-16,363.92,-548.6,-213.61,-161.41,0,0.014897,0,1,1.185,0,-1.185,0
0,0,0,0,0,0,0.00014169,-0.0019852,3.1292e-37,0.00067266,4.3281e-19,1.5929e-21,54.917,0.0023691,-0.0021817,4.1239e-35,0.00033826,-191.34,-516.88,-213.07,103.36,6.6466e-14,2.4525e-16,362.96,-547.19,-213.07,-161.03,0,0.014904,0,1,1.19,0,-1.19,0
0,0,0,0,0,0,0.00014145,-0.0019803,3.4709e-37,0.00067034,4.3259e-19,1.594e-21,54.796,0.0023628,-0.0021761,4.153e-35,0.00033722,-190.84,-515.6,-212.53,103.01,6.6435e-14,2.454e-16,362,-545.78,-212.53,-160.66,0,0.014912,0,1,1.195,0,-1.195,0
0,0,0,0,0,0,0.00014121,-0.0019754,3.8126e-37,0.00066802,4.3238e-19,1.595e-21,54.675,0.0023565,-0.0021704,4.1821e-35,0.00033618,-190.34,-514.31,-211.99,102.65,6.6403e-14,2.4555e-16,361.04,-544.37,-211.99,-160.28,0,0.014919,0,1,1.2,0,-1.2,0
0,0,0,0,0,0,0.00014098,-0.0019705,4.1542e-37,0.0006657,4.3217e-19,1.596e-21,54.554,0.0023503,-0.0021647,4.2112e-35,0.00033514,-189.84,-513.03,-211.45,102.3,6.6372e-14,2.4571e-16,360.07,-542.96,-211.45,-159.9,0,0.014926,0,1,1.205,0,-1.205,0
0,0,0,0,0,0,0.00014074,-0.0019656,4.4959e-37,0.00066338,4.3196e-19,1.5971e-21,54.433,0.002344,-0.002159,4.2403e-35,0.0003341,-189.33,-511.74,-210.91,101.94,6.6341e-14,2.4586e-16,359.11,-541.55,-210.91,-159.52,0,0.014933,0,1,1.21,0,-1.21,0
0,0,0,0,0,0,0.0001405,-0.0019607,4.8376e-37,0.00066106,4.3174e-19,1.5981e-21,54.312,0.0023377,-0.0021533,4.2693e-35,0.00033306,-188.83,-510.45,-210.37,101.58,6.6309e-14,2.4601e-16,358.15,-540.14,-210.37,-159.14,0,0.01494,0,1,1.215,0,-1.215,0
0,0,0,0,0,0,0.00014027,-0.0019558,5.1793e-37,0.00065874,4.3153e-19,1.5991e-21,54.191,0.0023314,-0.0021476,4.2984e-35,0.00033202,-188.33,-509.17,-209.83,101.23,6.6278e-14,2.4616e-16,357.19,-538.73,-209.83,-158.76,0,0.014947,0,1,1.22,0,-1.22,0
0,0,0,0,0,0,0.00014003,-0.0019509,5.521e-37,0.00065643,4.3132e-19,1.6002e-21,54.07,0.0023251,-0.0021419,4.3275e-35,0.00033098,-187.82,-507.88,-209.3,100.87,6.6246e-14,2.4631e-16,356.23,-537.32,-209.3,-158.38,0,0.014955,0,1,1.225,0,-1.225,0
0,0,0,0,0,0,0.00013979,-0.001946,5.8627e-37,0.00065411,4.3111e-19,1.6012e-21,53.949,0.0023189,-0.0021362,4.3566e-35,0.00032994,-187.32,-506.6,-208.76,100.51,6.6215e-14,2.4646e-16,355.27,-535.91,-208.76,-158,0,0.014962,0,1,1.23,0,-1.23,0
0,0,0,0,0,0,0.00013956,-0.0019411,6.2043e-37,0.00065179,4.309e-19,1.6023e-21,53.827,0.0023126,-0.0021305,4.3857e-35,0.0003289,-186.82,-505.31,-208.22,100.16,6.6184e-14,2.4662e-16,354.31,-534.51,-208.22,-157.62,0,0.014969,0,1,1.235,0,-1.235,0
0,0,0,0,0,0,0.00013932,-0.0019362,6.546e-37,0.00064947,4.3068e-19,1.6033e-21,53.706,0.0023063,-0.0021248,4.4147e-35,0.00032787,-186.32,-504.02,-207.68,99.801,6.6152e-14,2.4677e-16,353.35,-533.1,-207.68,-157.24,0,0.014976,0,1,1.24,0,-1.24,0
0,0,0,0,0,0,0.00013908,-0.0019313,6.8877e-37,0.00064715,4.3047e-19,1.6043e-21,53.585,0.0023,-0.0021191,4.4438e-35,0.00032683,-185.81,-502.74,-207.14,99.445,6.6121e-14,2.4692e-16,352.39,-531.69,-207.14,-156.87,0,0.014983,0,1,1.245,0,-1.245,0
0,0,0,0,0,0,0.00013885,-0.0019264,7.2294e-37,0.00064483,4.3026e-19,1.6054e-21,53.464,0.0022937,-0.0021134,4.4729e-35,0.00032579,-185.31,-501.45,-206.6,99.089,6.6089e-14,2.4707e-16,351.43,-530.28,-206.6,-156.49,0,0.01499,0,1,1.25,0,-1.25,0
0,0,0,0,0,0,0.00013861,-0.0019215,7.5711e-37,0.00064251,4.3005e-19,1.6064e-21,53.343,0.0022875,-0.0021077,4.502e-35,0.00032475,-184.81,-500.17,-206.06,98.732,6.6058e-14,2.4722e-16,350.47,-528.87,-206.06,-156.11,0,0.014998,0,1,1.255,0,-1.255,0
0,0,0,0,0,0,0.00013837,-0.0019166,7.9128e-37,0.0006402,4.2983e-19,1.6074e-21,53.222,0.0022812,-0.002102,4.531e-35,0.00032371,-184.31,-498.88,-205.52,98.376,6.6026e-14,2.4737e-16,349.51,-527.46,-205.52,-155.73,0,0.015005,0,1,1.26,0,-1.26,0
0,0,0,0,0,0,0.00013814,-0.0019118,8.2544e-37,0.00063788,4.2962e-19,1.6085e-21,53.101,0.0022749,-0.0020963,4.5601e-35,0.00032267,-183.8,-497.59,-204.99,98.02,6.5995e-14,2.4753e-16,348.55,-526.05,-204.99,-155.35,0,0.015012,0,1,1.265,0,-1.265,0
0,0,0,0,0,0,0.0001379,-0.0019069,8.5961e-37,0.00063556,4.2941e-19,1.6095e-21,52.98,0.0022686,-0.0020906,4.5892e-35,0.00032163,-183.3,-496.31,-204.45,97.663,6.5964e-14,2.4768e-16,347.59,-524.64,-204.45,-154.97,0,0.015019,0,1,1.27,0,-1.27,0
0,0,0,0,0,0,0.00013766,-0.001902,8.9378e-37,0.00063324,4.292e-19,1.6105e-21,52.859,0.0022623,-0.0020849,4.6183e-35,0.00032059,-182.8,-495.02,-203.91,97.307,6.5932e-14,2.4783e-16,346.63,-523.23,-203.91,-154.59,0,0.015026,0,1,1.275,0,-1.275,0
0,0,0,0,0,0,0.00013743,-0.0018971,9.2795e-37,0.00063092,4.2898e-19,1.6116e-21,52.738,0.0022561,-0.0020792,4.6474e-35,0.00031955,-182.29,-493.74,-203.37,96.951,6.5901e-14,2.4798e-16,345.67,-521.82,-203.37,-154.21,0,0.015033,0,1,1.28,0,-1.28,0
0,0,0,0,0,0,0.00013719,-0.0018922,9.6212e-37,0.0006286,4.2877e-19,1.6126e-21,52.617,0.0022498,-0.0020735,4.6764e-35,0.00031851,-181.79,-492.45,-202.83,96.594,6.5869e-14,2.4813e-16,344.71,-520.41,-202.83,-153.83,0,0.015041,0,1,1.285,0,-1.285,0
0,0,0,0,0,0,0.00013695,-0.0018873,9.9629e-37,0.00062628,4.2856e-19,1.6136e-21,52.495,0.0022435,-0.0020678,4.7055e-35,0.00031747,-181.29,-491.17,-202.29,96.238,6.5838e-14,2.4828e-16,343.75,-519,-202.29,-153.46,0,0.015048,0,1,1.29,0,-1.29,0
0,0,0,0,0,0,0.00013672,-0.0018824,1.0305e-36,0.00062397,4.2835e-19,1.6147e-21,52.374,0.0022372,-0.0020621,4.7346e-35,0.00031643,-180.79,-489.88,-201.75,95.882,6.5807e-14,2.4844e-16,342.79,-517.59,-201.75,-153.08,0,0.015055,0,1,1.295,0,-1.295,0
0,0,0,0,0,0,0.00013648,-0.0018775,1.0646e-36,0.00062165,4.2813e-19,1.6157e-21,52.253,0.0022309,-0.0020564,4.7637e-35,0.0003154,-180.28,-488.59,-201.21,95.525,6.5775e-14,2.4859e-16,341.83,-516.18,-201.21,-152.7,0,0.015062,0,1,1.3,0,-1.3,0
0,0,0,0,0,0,0.00013624,-0.0018726,1.0988e-36,0.00061933,4.2792e-19,1.6168e-21,52.132,0.0022247,-0.0020507,4.7928e-35,0.00031436,-179.78,-487.31,-200.67,95.169,6.5744e-14,2.4874e-16,340.86,-514.77,-200.67,-152.32,0,0.015069,0,1,1.305,0,-1.305,0
0,0,0,0,0,0,0.00013601,-0.0018677,1.133e-36,0.00061701,4.2771e-19,1.6178e-21,52.011,0.0022184,-0.002045,4.8218e-35,0.00031332,-179.28,-486.02,-200.14,94.813,6.5712e-14,2.4889e-16,339.9,-513.36,-200.14,-151.94,0,0.015076,0,1,1.31,0,-1.31,0
0,0,0,0,0,0,0.00013577,-0.0018628,1.1671e-36,0.00061469,4.275e-19,1.6188e-21,51.89,0.0022121,-0.0020393,4.8509e-35,0.00031228,-178.77,-484.74,-199.6,94.456,6.5681e-14,2.4904e-16,338.94,-511.95,-199.6,-151.56,0,0.015084,0,1,1.315,0,-1.315,0
0,0,0,0,0,0,0.00013553,-0.0018579,1.2013e-36,0.00061237,4.2728e-19,1.6199e-21,51.769,0.0022058,-0.0020336,4.88e-35,0.00031124,-178.27,-483.45,-199.06,94.1,6.5649e-14,2.4919e-16,337.98,-510.54,-199.06,-151.18,0,0.015091,0,1,1.32,0,-1.32,0
0,0,0,0,0,0,0.00013529,-0.001853,1.2355e-36,0.00061005,4.2707e-19,1.6209e-21,51.648,0.0021995,-0.0020279,4.9091e-35,0.0003102,-177.77,-482.16,-198.52,93.744,6.5618e-14,2.4935e-16,337.02,-509.13,-198.52,-150.8,0,0.015098,0,1,1.325,0,-1.325,0
0,0,0,0,0,0,0.00013506,-0.0018481,1.2696e-36,0.00060774,4.2686e-19,1.6219e-21,51.527,0.0021933,-0.0020222,4.9382e-35,0.00030916,-177.27,-480.88,-197.98,93.387,6.5587e-14,2.495e-16,336.06,-507.72,-197.98,-150.42,0,0.015105,0,1,1.33,0,-1.33,0
0,0,0,0,0,0,0.00013482,-0.0018432,1.3038e-36,0.00060542,4.2665e-19,1.623e-21,51.406,0.002187,-0.0020165,4.9672e-35,0.00030812,-176.76,-479.59,-197.44,93.031,6.5555e-14,2.4965e-16,335.1,-506.31,-197.44,-150.04,0,0.015112,0,1,1.335,0,-1.335,0
0,0,0,0,0,0,0.00013458,-0.0018383,1.338e-36,0.0006031,4.2643e-19,1.624e-21,51.284,0.0021807,-0.0020108,4.9963e-35,0.00030708,-176.26,-478.31,-196.9,92.675,6.5524e-14,2.498e-16,334.14,-504.9,-196.9,-149.67,0,0.015119,0,1,1.34,0,-1.34,0
0,0,0,0,0,0,0.00013435,-0.0018334,1.3721e-36,0.00060078,4.2622e-19,1.625e-21,51.163,0.0021744,-0.0020051,5.0254e-35,0.00030604,-175.76,-477.02,-196.36,92.318,6.5492e-14,2.4995e-16,333.18,-503.49,-196.36,-149.29,0,0.015127,0,1,1.345,0,-1.345,0
0,0,0,0,0,0,0.00013411,-0.0018285,1.4063e-36,0.00059846,4.2601e-19,1.6261e-21,51.042,0.0021681,-0.0019994,5.0545e-35,0.000305,-175.26,-475.73,-195.83,91.962,6.5461e-14,2.501e-16,332.22,-502.08,-195.83,-148.91,0,0.015134,0,1,1.35,0,-1.35,0
0,0,0,0,0,0,0.00013387,-0.0018236,1.4405e-36,0.00059614,4.258e-19,1.6271e-21,50.921,0.0021619,-0.0019937,5.0835e-35,0.00030396,-174.75,-474.45,-195.29,91.606,6.543e-14,2.5026e-16,331.26,-500.67,-195.29,-148.53,0,0.015141,0,1,1.355,0,-1.355,0
0,0,0,0,0,0,0.00013364,-0.0018187,1.4746e-36,0.00059382,4.2558e-19,1.6282e-21,50.8,0.0021556,-0.001988,5.1126e-35,0.00030293,-174.25,-473.16,-194.75,91.249,6.5398e-14,2.5041e-16,330.3,-499.26,-194.75,-148.15,0,0.015148,0,1,1.36,0,-1.36,0
0,0,0,0,0,0,0.0001334,-0.0018138,1.5088e-36,0.00059151,4.2537e-19,1.6292e-21,50.679,0.0021493,-0.0019823,5.1417e-35,0.00030189,-173.75,-471.88,-194.21,90.893,6.5367e-14,2.5056e-16,329.34,-497.85,-194.21,-147.77,0,0.015155,0,1,1.365,0,-1.365,0
0,0,0,0,0,0,0.00013316,-0.0018089,1.543e-36,0.00058919,4.2516e-19,1.6302e-21,50.558,0.002143,-0.0019766,5.1708e-35,0.00030085,-173.24,-470.59,-193.67,90.537,6.5335e-14,2.5071e-16,328.38,-496.44,-193.67,-147.39,0,0.015162,0,1,1.37,0,-1.37,0
0,0,0,0,0,0,0.00013293,-0.0018041,1.5772e-36,0.00058687,4.2495e-19,1.6313e-21,50.437,0.0021367,-0.0019709,5.1999e-35,0.00029981,-172.74,-469.31,-193.13,90.18,6.5304e-14,2.5086e-16,327.42,-495.03,-193.13,-147.01,0,0.01517,0,1,1.375,0,-1.375,0
0,0,0,0,0,0,0.00013269,-0.0017992,1.6113e-36,0.00058455,4.2473e-19,1.6323e-21,50.316,0.0021305,-0.0019652,5.2289e-35,0.00029877,-172.24,-468.02,-192.59,89.824,6.5272e-14,2.5101e-16,326.46,-493.62,-192.59,-146.63,0,0.015177,0,1,1.38,0,-1.38,0
0,0,0,0,0,0,0.00013245,-0.0017943,1.6455e-36,0.00058223,4.2452e-19,1.6333e-21,50.195,0.0021242,-0.0019595,5.258e-35,0.00029773,-171.74,-466.73,-192.05,89.468,6.5241e-14,2.5117e-16,325.5,-492.21,-192.05,-146.25,0,0.015184,0,1,1.385,0,-1.385,0
0,0,0,0,0,0,0.00013222,-0.0017894,1.6797e-36,0.00057991,4.2431e-19,1.6344e-21,50.073,0.0021179,-0.0019538,5.2871e-35,0.00029669,-171.23,-465.45,-191.51,89.111,6.521e-14,2.5132e-16,324.54,-490.8,-191.51,-145.88,0,0.015191,0,1,1.39,0,-1.39,0
0,0,0,0,0,0,0.00013198,-0.0017845,1.7138e-36,0.00057759,4.241e-19,1.6354e-21,49.952,0.0021116,-0.0019481,5.3162e-35,0.00029565,-170.73,-464.16,-190.98,88.755,6.5178e-14,2.5147e-16,323.58,-489.39,-190.98,-145.5,0,0.015198,0,1,1.395,0,-1.395,0
0,0,0,0,0,0,0.00013174,-0.0017796,1.748e-36,0.00057528,4.2388e-19,1.6364e-21,49.831,0.0021053,-0.0019424,5.3453e-35,0.00029461,-170.23,-462.88,-190.44,88.399,6.5147e-14,2.5162e-16,322.62,-487.99,-190.44,-145.12,0,0.015205,0,1,1.4,0,-1.4,0
0,0,0,0,0,0,0.00013151,-0.0017747,1.7822e-36,0.00057296,4.2367e-19,1.6375e-21,49.71,0.0020991,-0.0019367,5.3743e-35,0.00029357,-169.72,-461.59,-189.9,88.042,6.5115e-14,2.5177e-16,321.65,-486.58,-189.9,-144.74,0,0.015213,0,1,1.405,0,-1.405,0
0,0,0,0,0,0,0.00013127,-0.0017698,1.8163e-36,0.00057064,4.2346e-19,1.6385e-21,49.589,0.0020928,-0.0019311,5.4034e-35,0.00029253,-169.22,-460.3,-189.36,87.686,6.5084e-14,2.5192e-16,320.69,-485.17,-189.36,-144.36,0,0.01522,0,1,1.41,0,-1.41,0
0,0,0,0,0,0,0.00013103,-0.0017649,1.8505e-36,0.00056832,4.2325e-19,1.6396e-21,49.468,0.0020865,-0.0019254,5.4325e-35,0.00029149,-168.72,-459.02,-188.82,87.33,6.5053e-14,2.5208e-16,319.73,-483.76,-188.82,-143.98,0,0.015227,0,1,1.415,0,-1.415,0
0,0,0,0,0,0,0.0001308,-0.00176,1.8847e-36,0.000566,4.2303e-19,1.6406e-21,49.347,0.0020802,-0.0019197,5.4616e-35,0.00029046,-168.22,-457.73,-188.28,86.974,6.5021e-14,2.5223e-16,318.77,-482.35,-188.28,-143.6,0,0.015234,0,1,1.42,0,-1.42,0
0,0,0,0,0,0,0.00013056,-0.0017551,1.9188e-36,0.00056368,4.2282e-19,1.6416e-21,49.226,0.0020739,-0.001914,5.4906e-35,0.00028942,-167.71,-456.45,-187.74,86.617,6.499e-14,2.5238e-16,317.81,-480.94,-187.74,-143.22,0,0.015241,0,1,1.425,0,-1.425,0
0,0,0,0,0,0,0.00013032,-0.0017502,1.953e-36,0.00056136,4.2261e-19,1.6427e-21,49.105,0.0020677,-0.0019083,5.5197e-35,0.00028838,-167.21,-455.16,-187.2,86.261,6.4958e-14,2.5253e-16,316.85,-479.53,-187.2,-142.84,0,0.015248,0,1,1.43,0,-1.43,0
0,0,0,0,0,0,0.00013009,-0.0017453,1.9872e-36,0.00055905,4.224e-19,1.6437e-21,48.984,0.0020614,-0.0019026,5.5488e-35,0.00028734,-166.71,-453.87,-186.67,85.905,6.4927e-14,2.5268e-16,315.89,-478.12,-186.67,-142.47,0,0.015255,0,1,1.435,0,-1.435,0
0,0,0,0,0,0,0.00012985,-0.0017404,2.0213e-36,0.00055673,4.2218e-19,1.6447e-21,48.863,0.0020551,-0.0018969,5.5779e-35,0.0002863,-166.2,-452.59,-186.13,85.548,6.4896e-14,2.5283e-16,314.93,-476.71,-186.13,-142.09,0,0.015263,0,1,1.44,0,-1.44,0
0,0,0,0,0,0,0.00012961,-0.0017355,2.0555e-36,0.00055441,4.2197e-19,1.6458e-21,48.741,0.0020488,-0.0018912,5.607e-35,0.00028526,-165.7,-451.3,-185.59,85.192,6.4864e-14,2.5299e-16,313.97,-475.3,-185.59,-141.71,0,0.01527,0,1,1.445,0,-1.445,0
0,0,0,0,0,0,0.00012938,-0.0017306,2.0897e-36,0.00055209,4.2176e-19,1.6468e-21,48.62,0.0020425,-0.0018855,5.636e-35,0.00028422,-165.2,-450.02,-185.05,84.836,6.4833e-14,2.5314e-16,313.01,-473.89,-185.05,-141.33,0,0.015277,0,1,1.45,0,-1.45,0
0,0,0,0,0,0,0.00012914,-0.0017257,2.1238e-36,0.00054977,4.2155e-19,1.6478e-21,48.499,0.0020363,-0.0018798,5.6651e-35,0.00028318,-164.7,-448.73,-184.51,84.479,6.4801e-14,2.5329e-16,312.05,-472.48,-184.51,-140.95,0,0.015284,0,1,1.455,0,-1.455,0
0,0,0,0,0,0,0.0001289,-0.0017208,2.158e-36,0.00054745,4.2134e-19,1.6489e-21,48.378,0.00203,-0.0018741,5.6942e-35,0.00028214,-164.19,-447.45,-183.97,84.123,6.477e-14,2.5344e-16,311.09,-471.07,-183.97,-140.57,0,0.015291,0,1,1.46,0,-1.46,0
0,0,0,0,0,0,0.00012866,-0.0017159,2.1922e-36,0.00054513,4.2112e-19,1.6499e-21,48.257,0.0020237,-0.0018684,5.7233e-35,0.0002811,-163.69,-446.16,-183.43,83.767,6.4738e-14,2.5359e-16,310.13,-469.66,-183.43,-140.19,0,0.015298,0,1,1.465,0,-1.465,0
0,0,0,0,0,0,0.00012843,-0.001711,2.2264e-36,0.00054282,4.2091e-19,1.651e-21,48.136,0.0020174,-0.0018627,5.7524e-35,0.00028006,-163.19,-444.87,-182.89,83.41,6.4707e-14,2.5374e-16,309.17,-468.25,-182.89,-139.81,0,0.015306,0,1,1.47,0,-1.47,0
0,0,0,0,0,0,0.00012819,-0.0017061,2.2605e-36,0.0005405,4.207e-19,1.652e-21,48.015,0.0020111,-0.001857,5.7814e-35,0.00027903,-162.69,-443.59,-182.35,83.054,6.4676e-14,2.539e-16,308.21,-466.84,-182.35,-139.43,0,0.015313,0,1,1.475,0,-1.475,0
0,0,0,0,0,0,0.00012795,-0.0017013,2.2947e-36,0.00053818,4.2049e-19,1.653e-21,47.894,0.0020049,-0.0018513,5.8105e-35,0.00027799,-162.18,-442.3,-181.82,82.698,6.4644e-14,2.5405e-16,307.25,-465.43,-181.82,-139.05,0,0.01532,0,1,1.48,0,-1.48,0
0,0,0,0,0,0,0.00012772,-0.0016964,2.3289e-36,0.00053586,4.2027e-19,1.6541e-21,47.773,0.0019986,-0.0018456,5.8396e-35,0.00027695,-161.68,-441.02,-181.28,82.341,6.4613e-14,2.542e-16,306.29,-464.02,-181.28,-138.68,0,0.015327,0,1,1.485,0,-1.485,0
0,0,0,0,0,0,0.00012748,-0.0016915,2.363e-36,0.00053354,4.2006e-19,1.6551e-21,47.652,0.0019923,-0.0018399,5.8687e-35,0.00027591,-161.18,-439.73,-180.74,81.985,6.4581e-14,2.5435e-16,305.33,-462.61,-180.74,-138.3,0,0.015334,0,1,1.49,0,-1.49,0
0,0,0,0,0,0,0.00012724,-0.0016866,2.3972e-36,0.00053122,4.1985e-19,1.6561e-21,47.53,0.001986,-0.0018342,5.8978e-35,0.00027487,-160.67,-438.44,-180.2,81.629,6.455e-14,2.545e-16,304.37,-461.2,-180.2,-137.92,0,0.015341,0,1,1.495,0,-1.495,0
0,0,0,0,0,0,0.00012701,-0.0016817,2.4314e-36,0.0005289,4.1964e-19,1.6572e-21,47.409,0.0019797,-0.0018285,5.9268e-35,0.00027383,-160.17,-437.16,-179.66,81.272,6.4519e-14,2.5465e-16,303.41,-459.79,-179.66,-137.54,0,0.015349,0,1,1.5,0,-1.5,0
0,0,0,0,0,0,0.00012677,-0.0016768,2.4655e-36,0.00052659,4.1942e-19,1.6582e-21,47.288,0.0019735,-0.0018228,5.9559e-35,0.00027279,-159.67,-435.87,-179.12,80.916,6.4487e-14,2.5481e-16,302.45,-458.38,-179.12,-137.16,0,0.015356,0,1,1.505,0,-1.505,0
0,0,0,0,0,0,0.00012653,-0.0016719,2.4997e-36,0.00052427,4.1921e-19,1.6592e-21,47.167,0.0019672,-0.0018171,5.985e-35,0.00027175,-159.17,-434.59,-178.58,80.56,6.4456e-14,2.5496e-16,301.48,-456.97,-178.58,-136.78,0,0.015363,0,1,1.51,0,-1.51,0
0,0,0,0,0,0,0.0001263,-0.001667,2.5339e-36,0.00052195,4.19e-19,1.6603e-21,47.046,0.0019609,-0.0018114,6.0141e-35,0.00027071,-158.66,-433.3,-178.04,80.203,6.4424e-14,2.5511e-16,300.52,-455.56,-178.04,-136.4,0,0.01537,0,1,1.515,0,-1.515,0
0,0,0,0,0,0,0.00012606,-0.0016621,2.568e-36,0.00051963,4.1879e-19,1.6613e-21,46.925,0.0019546,-0.0018057,6.0431e-35,0.00026967,-158.16,-432.01,-177.5,79.847,6.4393e-14,2.5526e-16,299.56,-454.15,-177.5,-136.02,0,0.015377,0,1,1.52,0,-1.52,0
0,0,0,0,0,0,0.00012582,-0.0016572,2.6022e-36,0.00051731,4.1857e-19,1.6623e-21,46.804,0.0019483,-0.0018,6.0722e-35,0.00026863,-157.66,-430.73,-176.97,79.491,6.4361e-14,2.5541e-16,298.6,-452.74,-176.97,-135.64,0,0.015384,0,1,1.525,0,-1.525,0
0,0,0,0,0,0,0.00012559,-0.0016523,2.6364e-36,0.00051499,4.1836e-19,1.6634e-21,46.683,0.0019421,-0.0017943,6.1013e-35,0.00026759,-157.15,-429.44,-176.43,79.134,6.433e-14,2.5556e-16,297.64,-451.33,-176.43,-135.26,0,0.015392,0,1,1.53,0,-1.53,0
0,0,0,0,0,0,0.00012535,-0.0016474,2.6705e-36,0.00051267,4.1815e-19,1.6644e-21,46.562,0.0019358,-0.0017886,6.1304e-35,0.00026656,-156.65,-428.16,-175.89,78.778,6.4299e-14,2.5572e-16,296.68,-449.92,-175.89,-134.89,0,0.015399,0,1,1.535,0,-1.535,0
0,0,0,0,0,0,0.00012511,-0.0016425,2.7047e-36,0.00051036,4.1794e-19,1.6655e-21,46.441,0.0019295,-0.0017829,6.1595e-35,0.00026552,-156.15,-426.87,-175.35,78.422,6.4267e-14,2.5587e-16,295.72,-448.51,-175.35,-134.51,0,0.015406,0,1,1.54,0,-1.54,0
0,0,0,0,0,0,0.00012488,-0.0016376,2.7389e-36,0.00050804,4.1772e-19,1.6665e-21,46.319,0.0019232,-0.0017772,6.1885e-35,0.00026448,-155.65,-425.59,-174.81,78.065,6.4236e-14,2.5602e-16,294.76,-447.1,-174.81,-134.13,0,0.015413,0,1,1.545,0,-1.545,0
0,0,0,0,0,0,0.00012464,-0.0016327,2.773e-36,0.00050572,4.1751e-19,1.6675e-21,46.198,0.0019169,-0.0017715,6.2176e-35,0.00026344,-155.14,-424.3,-174.27,77.709,6.4204e-14,2.5617e-16,293.8,-445.69,-174.27,-133.75,0,0.01542,0,1,1.55,0,-1.55,0
0,0,0,0,0,0,0.0001244,-0.0016278,2.8072e-36,0.0005034,4.173e-19,1.6686e-21,46.077,0.0019107,-0.0017658,6.2467e-35,0.0002624,-154.64,-423.01,-173.73,77.353,6.4173e-14,2.5632e-16,292.84,-444.28,-173.73,-133.37,0,0.015427,0,1,1.555,0,-1.555,0
0,0,0,0,0,0,0.00012417,-0.0016229,2.8414e-36,0.00050108,4.1709e-19,1.6696e-21,45.956,0.0019044,-0.0017601,6.2758e-35,0.00026136,-154.14,-421.73,-173.19,76.996,6.4142e-14,2.5647e-16,291.88,-442.87,-173.19,-132.99,0,0.015435,0,1,1.56,0,-1.56,0
0,0,0,0,0,0,0.00012393,-0.001618,2.8756e-36,0.00049876,4.1687e-19,1.6706e-21,45.835,0.0018981,-0.0017544,6.3049e-35,0.00026032,-153.64,-420.44,-172.66,76.64,6.411e-14,2.5663e-16,290.92,-441.47,-172.66,-132.61,0,0.015442,0,1,1.565,0,-1.565,0
0,0,0,0,0,0,0.00012369,-0.0016131,2.9097e-36,0.00049644,4.1666e-19,1.6717e-21,45.714,0.0018918,-0.0017487,6.3339e-35,0.00025928,-153.13,-419.16,-172.12,76.284,6.4079e-14,2.5678e-16,289.96,-440.06,-172.12,-132.23,0,0.015449,0,1,1.57,0,-1.57,0
0,0,0,0,0,0,0.00012346,-0.0016082,2.9439e-36,0.00049413,4.1645e-19,1.6727e-21,45.593,0.0018855,-0.001743,6.363e-35,0.00025824,-152.63,-417.87,-171.58,75.927,6.4047e-14,2.5693e-16,289,-438.65,-171.58,-131.85,0,0.015456,0,1,1.575,0,-1.575,0
0,0,0,0,0,0,0.00012322,-0.0016033,2.9781e-36,0.00049181,4.1624e-19,1.6737e-21,45.472,0.0018793,-0.0017373,6.3921e-35,0.0002572,-152.13,-416.58,-171.04,75.571,6.4016e-14,2.5708e-16,288.04,-437.24,-171.04,-131.48,0,0.015463,0,1,1.58,0,-1.58,0
0,0,0,0,0,0,0.00012298,-0.0015985,3.0122e-36,0.00048949,4.1602e-19,1.6748e-21,45.351,0.001873,-0.0017316,6.4212e-35,0.00025616,-151.62,-415.3,-170.5,75.215,6.3984e-14,2.5723e-16,287.08,-435.83,-170.5,-131.1,0,0.01547,0,1,1.585,0,-1.585,0
0,0,0,0,0,0,0.00012274,-0.0015936,3.0464e-36,0.00048717,4.1581e-19,1.6758e-21,45.23,0.0018667,-0.0017259,6.4503e-35,0.00025512,-151.12,-414.01,-169.96,74.858,6.3953e-14,2.5738e-16,286.12,-434.42,-169.96,-130.72,0,0.015478,0,1,1.59,0,-1.59,0
0,0,0,0,0,0,0.00012251,-0.0015887,3.0806e-36,0.00048485,4.156e-19,1.6769e-21,45.109,0.0018604,-0.0017202,6.4793e-35,0.00025409,-150.62,-412.73,-169.42,74.502,6.3922e-14,2.5754e-16,285.16,-433.01,-169.42,-130.34,0,0.015485,0,1,1.595,0,-1.595,0
0,0,0,0,0,0,0.00012227,-0.0015838,3.1147e-36,0.00048253,4.1539e-19,1.6779e-21,44.987,0.0018541,-0.0017145,6.5084e-35,0.00025305,-150.12,-411.44,-168.88,74.146,6.389e-14,2.5769e-16,284.2,-431.6,-168.88,-129.96,0,0.015492,0,1,1.6,0,-1.6,0
0,0,0,0,0,0,0.00012203,-0.0015789,3.1489e-36,0.00048021,4.1517e-19,1.6789e-21,44.866,0.0018479,-0.0017088,6.5375e-35,0.00025201,-149.61,-410.15,-168.34,73.789,6.3859e-14,2.5784e-16,283.24,-430.19,-168.34,-129.58,0,0.015499,0,1,1.605,0,-1.605,0
0,0,0,0,0,0,0.0001218,-0.001574,3.1831e-36,0.0004779,4.1496e-19,1.68e-21,44.745,0.0018416,-0.0017031,6.5666e-35,0.00025097,-149.11,-408.87,-167.81,73.433,6.3827e-14,2.5799e-16,282.27,-428.78,-167.81,-129.2,0,0.015506,0,1,1.61,0,-1.61,0
0,0,0,0,0,0,0.00012156,-0.0015691,3.2172e-36,0.00047558,4.1475e-19,1.681e-21,44.624,0.0018353,-0.0016974,6.5956e-35,0.00024993,-148.61,-407.58,-167.27,73.077,6.3796e-14,2.5814e-16,281.31,-427.37,-167.27,-128.82,0,0.015513,0,1,1.615,0,-1.615,0
0,0,0,0,0,0,0.00012132,-0.0015642,3.2514e-36,0.00047326,4.1454e-19,1.682e-21,44.503,0.001829,-0.0016918,6.6247e-35,0.00024889,-148.1,-406.3,-166.73,72.72,6.3765e-14,2.5829e-16,280.35,-425.96,-166.73,-128.44,0,0.015521,0,1,1.62,0,-1.62,0
0,0,0,0,0,0,0.00012109,-0.0015593,3.2856e-36,0.00047094,4.1432e-19,1.6831e-21,44.382,0.0018228,-0.0016861,6.6538e-35,0.00024785,-147.6,-405.01,-166.19,72.364,6.3733e-14,2.5845e-16,279.39,-424.55,-166.19,-128.06,0,0.015528,0,1,1.625,0,-1.625,0
0,0,0,0,0,0,0.00012085,-0.0015544,3.3197e-36,0.00046862,4.1411e-19,1.6841e-21,44.261,0.0018165,-0.0016804,6.6829e-35,0.00024681,-147.1,-403.73,-165.65,72.008,6.3702e-14,2.586e-16,278.43,-423.14,-165.65,-127.69,0,0.015535,0,1,1.63,0,-1.63,0
0,0,0,0,0,0,0.00012061,-0.0015495,3.3539e-36,0.0004663,4.139e-19,1.6851e-21,44.14,0.0018102,-0.0016747,6.712e-35,0.00024577,-146.6,-402.44,-165.11,71.651,6.367e-14,2.5875e-16,277.47,-421.73,-165.11,-127.31,0,0.015542,0,1,1.635,0,-1.635,0
0,0,0,0,0,0,0.00012038,-0.0015446,3.3881e-36,0.00046398,4.1369e-19,1.6862e-21,44.019,0.0018039,-0.001669,6.741e-35,0.00024473,-146.09,-401.15,-164.57,71.295,6.3639e-14,2.589e-16,276.51,-420.32,-164.57,-126.93,0,0.015549,0,1,1.64,0,-1.64,0
0,0,0,0,0,0,0.00012014,-0.0015397,3.4222e-36,0.00046167,4.1347e-19,1.6872e-21,43.898,0.0017976,-0.0016633,6.7701e-35,0.00024369,-145.59,-399.87,-164.03,70.939,6.3608e-14,2.5905e-16,275.55,-418.91,-164.03,-126.55,0,0.015556,0,1,1.645,0,-1.645,0
0,0,0,0,0,0,0.0001199,-0.0015348,3.4564e-36,0.00045935,4.1326e-19,1.6883e-21,43.776,0.0017914,-0.0016576,6.7992e-35,0.00024265,-145.09,-398.58,-163.5,70.582,6.3576e-14,2.592e-16,274.59,-417.5,-163.5,-126.17,0,0.015564,0,1,1.65,0,-1.65,0
0,0,0,0,0,0,0.00011967,-0.0015299,3.4906e-36,0.00045703,4.1305e-19,1.6893e-21,43.655,0.0017851,-0.0016519,6.8283e-35,0.00024162,-144.59,-397.3,-162.96,70.226,6.3545e-14,2.5936e-16,273.63,-416.09,-162.96,-125.79,0,0.015571,0,1,1.655,0,-1.655,0
0,0,0,0,0,0,0.00011943,-0.001525,3.5247e-36,0.00045471,4.1284e-19,1.6903e-21,43.534,0.0017788,-0.0016462,6.8574e-35,0.00024058,-144.08,-396.01,-162.42,69.87,6.3513e-14,2.5951e-16,272.67,-414.68,-162.42,-125.41,0,0.015578,0,1,1.66,0,-1.66,0
0,0,0,0,0,0,0.00011919,-0.0015201,3.5589e-36,0.00045239,4.1262e-19,1.6914e-21,43.413,0.0017725,-0.0016405,6.8864e-35,0.00023954,-143.58,-394.72,-161.88,69.513,6.3482e-14,2.5966e-16,271.71,-413.27,-161.88,-125.03,0,0.015585,0,1,1.665,0,-1.665,0
0,0,0,0,0,0,0.00011896,-0.0015152,3.5931e-36,0.00045007,4.1241e-19,1.6924e-21,43.292,0.0017662,-0.0016348,6.9155e-35,0.0002385,-143.08,-393.44,-161.34,69.157,6.345e-14,2.5981e-16,270.75,-411.86,-161.34,-124.65,0,0.015592,0,1,1.67,0,-1.67,0
0,0,0,0,0,0,0.00011872,-0.0015103,3.6273e-36,0.00044775,4.122e-19,1.6934e-21,43.171,0.00176,-0.0016291,6.9446e-35,0.00023746,-142.57,-392.15,-160.8,68.801,6.3419e-14,2.5996e-16,269.79,-410.45,-160.8,-124.28,0,0.015599,0,1,1.675,0,-1.675,0
0,0,0,0,0,0,0.00011848,-0.0015054,3.6614e-36,0.00044544,4.1199e-19,1.6945e-21,43.05,0.0017537,-0.0016234,6.9737e-35,0.00023642,-142.07,-390.87,-160.26,68.444,6.3388e-14,2.6011e-16,268.83,-409.04,-160.26,-123.9,0,0.015607,0,1,1.68,0,-1.68,0
0,0,0,0,0,0,0.00011825,-0.0015005,3.6956e-36,0.00044312,4.1177e-19,1.6955e-21,42.929,0.0017474,-0.0016177,7.0028e-35,0.00023538,-141.57,-389.58,-159.72,68.088,6.3356e-14,2.6027e-16,267.87,-407.63,-159.72,-123.52,0,0.015614,0,1,1.685,0,-1.685,0
0,0,0,0,0,0,0.00011801,-0.0014957,3.7298e-36,0.0004408,4.1156e-19,1.6965e-21,42.808,0.0017411,-0.001612,7.0318e-35,0.00023434,-141.07,-388.29,-159.18,67.732,6.3325e-14,2.6042e-16,266.91,-406.22,-159.18,-123.14,0,0.015621,0,1,1.69,0,-1.69,0
0,0,0,0,0,0,0.00011777,-0.0014908,3.7639e-36,0.00043848,4.1135e-19,1.6976e-21,42.687,0.0017348,-0.0016063,7.0609e-35,0.0002333,-140.56,-387.01,-158.65,67.376,6.3293e-14,2.6057e-16,265.95,-404.81,-158.65,-122.76,0,0.015628,0,1,1.695,0,-1.695,0
0,0,0,0,0,0,0.00011754,-0.0014859,3.7981e-36,0.00043616,4.1114e-19,1.6986e-21,42.566,0.0017286,-0.0016006,7.09e-35,0.00023226,-140.06,-385.72,-158.11,67.019,6.3262e-14,2.6072e-16,264.99,-403.4,-158.11,-122.38,0,0.015635,0,1,1.7,0,-1.7,0
0,0,0,0,0,0,0.0001173,-0.001481,3.8323e-36,0.00043384,4.1093e-19,1.6997e-21,42.444,0.0017223,-0.0015949,7.1191e-35,0.00023122,-139.56,-384.44,-157.57,66.663,6.3231e-14,2.6087e-16,264.03,-401.99,-157.57,-122,0,0.015642,0,1,1.705,0,-1.705,0
0,0,0,0,0,0,0.00011706,-0.0014761,3.8664e-36,0.00043152,4.1071e-19,1.7007e-21,42.323,0.001716,-0.0015892,7.1481e-35,0.00023019,-139.05,-383.15,-157.03,66.307,6.3199e-14,2.6102e-16,263.06,-400.58,-157.03,-121.62,0,0.01565,0,1,1.71,0,-1.71,0
0,0,0,0,0,0,0.00011683,-0.0014712,3.9006e-36,0.00042921,4.105e-19,1.7017e-21,42.202,0.0017097,-0.0015835,7.1772e-35,0.00022915,-138.55,-381.87,-156.49,65.95,6.3168e-14,2.6118e-16,262.1,-399.17,-156.49,-121.24,0,0.015657,0,1,1.715,0,-1.715,0
0,0,0,0,0,0,0.00011659,-0.0014663,3.9348e-36,0.00042689,4.1029e-19,1.7028e-21,42.081,0.0017034,-0.0015778,7.2063e-35,0.00022811,-138.05,-380.58,-155.95,65.594,6.3136e-14,2.6133e-16,261.14,-397.76,-155.95,-120.86,0,0.015664,0,1,1.72,0,-1.72,0
0,0,0,0,0,0,0.00011635,-0.0014614,3.9689e-36,0.00042457,4.1008e-19,1.7038e-21,41.96,0.0016972,-0.0015721,7.2354e-35,0.00022707,-137.55,-379.29,-155.41,65.238,6.3105e-14,2.6148e-16,260.18,-396.35,-155.41,-120.49,0,0.015671,0,1,1.725,0,-1.725,0
0,0,0,0,0,0,0.00011611,-0.0014565,4.0031e-36,0.00042225,4.0986e-19,1.7048e-21,41.839,0.0016909,-0.0015664,7.2645e-35,0.00022603,-137.04,-378.01,-154.87,64.881,6.3073e-14,2.6163e-16,259.22,-394.94,-154.87,-120.11,0,0.015678,0,1,1.73,0,-1.73,0
0,0,0,0,0,0,0.00011588,-0.0014516,4.0373e-36,0.00041993,4.0965e-19,1.7059e-21,41.718,0.0016846,-0.0015607,7.2935e-35,0.00022499,-136.54,-376.72,-154.34,64.525,6.3042e-14,2.6178e-16,258.26,-393.54,-154.34,-119.73,0,0.015685,0,1,1.735,0,-1.735,0
0,0,0,0,0,0,0.00011564,-0.0014467,4.0714e-36,0.00041761,4.0944e-19,1.7069e-21,41.597,0.0016783,-0.001555,7.3226e-35,0.00022395,-136.04,-375.44,-153.8,64.169,6.3011e-14,2.6193e-16,257.3,-392.13,-153.8,-119.35,0,0.015693,0,1,1.74,0,-1.74,0
0,0,0,0,0,0,0.0001154,-0.0014418,4.1056e-36,0.00041529,4.0923e-19,1.7079e-21,41.476,0.001672,-0.0015493,7.3517e-35,0.00022291,-135.54,-374.15,-153.26,63.812,6.2979e-14,2.6209e-16,256.34,-390.72,-153.26,-118.97,0,0.0157,0,1,1.745,0,-1.745,0
0,0,0,0,0,0,0.00011517,-0.0014369,4.1398e-36,0.00041298,4.0901e-19,1.709e-21,41.355,0.0016658,-0.0015436,7.3808e-35,0.00022187,-135.03,-372.86,-152.72,63.456,6.2948e-14,2.6224e-16,255.38,-389.31,-152.72,-118.59,0,0.015707,0,1,1.75,0,-1.75,0
0,0,0,0,0,0,0.00011493,-0.001432,4.1739e-36,0.00041066,4.088e-19,1.71e-21,41.233,0.0016595,-0.0015379,7.4099e-35,0.00022083,-134.53,-371.58,-152.18,63.1,6.2916e-14,2.6239e-16,254.42,-387.9,-152.18,-118.21,0,0.015714,0,1,1.755,0,-1.755,0
0,0,0,0,0,0,0.00011469,-0.0014271,4.2081e-36,0.00040834,4.0859e-19,1.711e-21,41.112,0.0016532,-0.0015322,7.4389e-35,0.00021979,-134.03,-370.29,-151.64,62.743,6.2885e-14,2.6254e-16,253.46,-386.49,-151.64,-117.83,0,0.015721,0,1,1.76,0,-1.76,0
0,0,0,0,0,0,0.00011446,-0.0014222,4.2423e-36,0.00040602,4.0838e-19,1.7121e-21,40.991,0.0016469,-0.0015265,7.468e-35,0.00021875,-133.52,-369.01,-151.1,62.387,6.2854e-14,2.6269e-16,252.5,-385.08,-151.1,-117.45,0,0.015728,0,1,1.765,0,-1.765,0
0,0,0,0,0,0,0.00011422,-0.0014173,4.2765e-36,0.0004037,4.0816e-19,1.7131e-21,40.87,0.0016406,-0.0015208,7.4971e-35,0.00021772,-133.02,-367.72,-150.56,62.031,6.2822e-14,2.6284e-16,251.54,-383.67,-150.56,-117.07,0,0.015736,0,1,1.77,0,-1.77,0
0,0,0,0,0,0,0.00011398,-0.0014124,4.3106e-36,0.00040138,4.0795e-19,1.7142e-21,40.749,0.0016344,-0.0015151,7.5262e-35,0.00021668,-132.52,-366.44,-150.02,61.674,6.2791e-14,2.63e-16,250.58,-382.26,-150.02,-116.7,0,0.015743,0,1,1.775,0,-1.775,0
0,0,0,0,0,0,0.00011375,-0.0014075,4.3448e-36,0.00039906,4.0774e-19,1.7152e-21,40.628,0.0016281,-0.0015094,7.5553e-35,0.00021564,-132.02,-365.15,-149.49,61.318,6.2759e-14,2.6315e-16,249.62,-380.85,-149.49,-116.32,0,0.01575,0,1,1.78,0,-1.78,0
0,0,0,0,0,0,0.00011351,-0.0014026,4.379e-36,0.00039675,4.0753e-19,1.7162e-21,40.507,0.0016218,-0.0015037,7.5843e-35,0.0002146,-131.51,-363.86,-148.95,60.962,6.2728e-14,2.633e-16,248.66,-379.44,-148.95,-115.94,0,0.015757,0,1,1.785,0,-1.785,0
0,0,0,0,0,0,0.00011327,-0.0013977,4.4131e-36,0.00039443,4.0731e-19,1.7173e-21,40.386,0.0016155,-0.001498,7.6134e-35,0.00021356,-131.01,-362.58,-148.41,60.605,6.2697e-14,2.6345e-16,247.7,-378.03,-148.41,-115.56,0,0.015764,0,1,1.79,0,-1.79,0
0,0,0,0,0,0,0.00011304,-0.0013929,4.4473e-36,0.00039211,4.071e-19,1.7183e-21,40.265,0.0016092,-0.0014923,7.6425e-35,0.00021252,-130.51,-361.29,-147.87,60.249,6.2665e-14,2.636e-16,246.74,-376.62,-147.87,-115.18,0,0.015771,0,1,1.795,0,-1.795,0
0,0,0,0,0,0,0.0001128,-0.001388,4.4815e-36,0.00038979,4.0689e-19,1.7193e-21,40.144,0.001603,-0.0014866,7.6716e-35,0.00021148,-130,-360.01,-147.33,59.893,6.2634e-14,2.6375e-16,245.78,-375.21,-147.33,-114.8,0,0.015779,0,1,1.8,0,-1.8,0
0,0,0,0,0,0,0.00011256,-0.0013831,4.5156e-36,0.00038747,4.0668e-19,1.7204e-21,40.022,0.0015967,-0.0014809,7.7006e-35,0.00021044,-129.5,-358.72,-146.79,59.536,6.2602e-14,2.6391e-16,244.82,-373.8,-146.79,-114.42,0,0.015786,0,1,1.805,0,-1.805,0
0,0,0,0,0,0,0.00011233,-0.0013782,4.5498e-36,0.00038515,4.0646e-19,1.7214e-21,39.901,0.0015904,-0.0014752,7.7297e-35,0.0002094,-129,-357.43,-146.25,59.18,6.2571e-14,2.6406e-16,243.86,-372.39,-146.25,-114.04,0,0.015793,0,1,1.81,0,-1.81,0
0,0,0,0,0,0,0.00011209,-0.0013733,4.584e-36,0.00038283,4.0625e-19,1.7224e-21,39.78,0.0015841,-0.0014695,7.7588e-35,0.00020836,-128.5,-356.15,-145.71,58.824,6.2539e-14,2.6421e-16,242.89,-370.98,-145.71,-113.66,0,0.0158,0,1,1.815,0,-1.815,0
0,0,0,0,0,0,0.00011185,-0.0013684,4.6181e-36,0.00038052,4.0604e-19,1.7235e-21,39.659,0.0015778,-0.0014638,7.7879e-35,0.00020732,-127.99,-354.86,-145.18,58.467,6.2508e-14,2.6436e-16,241.93,-369.57,-145.18,-113.29,0,0.015807,0,1,1.82,0,-1.82,0
0,0,0,0,0,0,0.00011162,-0.0013635,4.6523e-36,0.0003782,4.0583e-19,1.7245e-21,39.538,0.0015716,-0.0014581,7.817e-35,0.00020628,-127.49,-353.58,-144.64,58.111,6.2477e-14,2.6451e-16,240.97,-368.16,-144.64,-112.91,0,0.015814,0,1,1.825,0,-1.825,0
0,0,0,0,0,0,0.00011138,-0.0013586,4.6865e-36,0.00037588,4.0561e-19,1.7256e-21,39.417,0.0015653,-0.0014525,7.846e-35,0.00020525,-126.99,-352.29,-144.1,57.755,6.2445e-14,2.6466e-16,240.01,-366.75,-144.1,-112.53,0,0.015822,0,1,1.83,0,-1.83,0
0,0,0,0,0,0,0.00011114,-0.0013537,4.7206e-36,0.00037356,4.054e-19,1.7266e-21,39.296,0.001559,-0.0014468,7.8751e-35,0.00020421,-126.49,-351,-143.56,57.398,6.2414e-14,2.6482e-16,239.05,-365.34,-143.56,-112.15,0,0.015829,0,1,1.835,0,-1.835,0
0,0,0,0,0,0,0.00011091,-0.0013488,4.7548e-36,0.00037124,4.0519e-19,1.7276e-21,39.175,0.0015527,-0.0014411,7.9042e-35,0.00020317,-125.98,-349.72,-143.02,57.042,6.2382e-14,2.6497e-16,238.09,-363.93,-143.02,-111.77,0,0.015836,0,1,1.84,0,-1.84,0
0,0,0,0,0,0,0.00011067,-0.0013439,4.789e-36,0.00036892,4.0498e-19,1.7287e-21,39.054,0.0015464,-0.0014354,7.9333e-35,0.00020213,-125.48,-348.43,-142.48,56.686,6.2351e-14,2.6512e-16,237.13,-362.52,-142.48,-111.39,0,0.015843,0,1,1.845,0,-1.845,0
0,0,0,0,0,0,0.00011043,-0.001339,4.8231e-36,0.0003666,4.0476e-19,1.7297e-21,38.933,0.0015402,-0.0014297,7.9624e-35,0.00020109,-124.98,-347.15,-141.94,56.329,6.232e-14,2.6527e-16,236.17,-361.11,-141.94,-111.01,0,0.01585,0,1,1.85,0,-1.85,0
0,0,0,0,0,0,0.0001102,-0.0013341,4.8573e-36,0.00036429,4.0455e-19,1.7307e-21,38.812,0.0015339,-0.001424,7.9914e-35,0.00020005,-124.47,-345.86,-141.4,55.973,6.2288e-14,2.6542e-16,235.21,-359.7,-141.4,-110.63,0,0.015857,0,1,1.855,0,-1.855,0
0,0,0,0,0,0,0.00010996,-0.0013292,4.8915e-36,0.00036197,4.0434e-19,1.7318e-21,38.69,0.0015276,-0.0014183,8.0205e-35,0.00019901,-123.97,-344.58,-140.86,55.617,6.2257e-14,2.6557e-16,234.25,-358.29,-140.86,-110.25,0,0.015865,0,1,1.86,0,-1.86,0
0,0,0,0,0,0,0.00010972,-0.0013243,4.9257e-36,0.00035965,4.0413e-19,1.7328e-21,38.569,0.0015213,-0.0014126,8.0496e-35,0.00019797,-123.47,-343.29,-140.33,55.26,6.2225e-14,2.6573e-16,233.29,-356.88,-140.33,-109.87,0,0.015872,0,1,1.865,0,-1.865,0
0,0,0,0,0,0,0.00010948,-0.0013194,4.9598e-36,0.00035733,4.0391e-19,1.7338e-21,38.448,0.001515,-0.0014069,8.0787e-35,0.00019693,-122.97,-342,-139.79,54.904,6.2194e-14,2.6588e-16,232.33,-355.47,-139.79,-109.5,0,0.015879,0,1,1.87,0,-1.87,0
0,0,0,0,0,0,0.00010925,-0.0013145,4.994e-36,0.00035501,4.037e-19,1.7349e-21,38.327,0.0015088,-0.0014012,8.1077e-35,0.00019589,-122.46,-340.72,-139.25,54.548,6.2162e-14,2.6603e-16,231.37,-354.06,-139.25,-109.12,0,0.015886,0,1,1.875,0,-1.875,0
0,0,0,0,0,0,0.00010901,-0.0013096,5.0282e-36,0.00035269,4.0349e-19,1.7359e-21,38.206,0.0015025,-0.0013955,8.1368e-35,0.00019485,-121.96,-339.43,-138.71,54.191,6.2131e-14,2.6618e-16,230.41,-352.65,-138.71,-108.74,0,0.015893,0,1,1.88,0,-1.88,0
0,0,0,0,0,0,0.00010877,-0.0013047,5.0623e-36,0.00035037,4.0328e-19,1.737e-21,38.085,0.0014962,-0.0013898,8.1659e-35,0.00019381,-121.46,-338.15,-138.17,53.835,6.21e-14,2.6633e-16,229.45,-351.24,-138.17,-108.36,0,0.0159,0,1,1.885,0,-1.885,0
0,0,0,0,0,0,0.00010854,-0.0012998,5.0965e-36,0.00034806,4.0306e-19,1.738e-21,37.964,0.0014899,-0.0013841,8.195e-35,0.00019278,-120.95,-336.86,-137.63,53.479,6.2068e-14,2.6648e-16,228.49,-349.83,-137.63,-107.98,0,0.015908,0,1,1.89,0,-1.89,0
0,0,0,0,0,0,0.0001083,-0.0012949,5.1307e-36,0.00034574,4.0285e-19,1.739e-21,37.843,0.0014836,-0.0013784,8.2241e-35,0.00019174,-120.45,-335.57,-137.09,53.122,6.2037e-14,2.6663e-16,227.53,-348.42,-137.09,-107.6,0,0.015915,0,1,1.895,0,-1.895,0
0,0,0,0,0,0,0.00010806,-0.0012901,5.1648e-36,0.00034342,4.0264e-19,1.7401e-21,37.722,0.0014774,-0.0013727,8.2531e-35,0.0001907,-119.95,-334.29,-136.55,52.766,6.2005e-14,2.6679e-16,226.57,-347.02,-136.55,-107.22,0,0.015922,0,1,1.9,0,-1.9,0
0,0,0,0,0,0,0.00010783,-0.0012852,5.199e-36,0.0003411,4.0243e-19,1.7411e-21,37.601,0.0014711,-0.001367,8.2822e-35,0.00018966,-119.45,-333,-136.02,52.41,6.1974e-14,2.6694e-16,225.61,-345.61,-136.02,-106.84,0,0.015929,0,1,1.905,0,-1.905,0
0,0,0,0,0,0,0.00010759,-0.0012803,5.2332e-36,0.00033878,4.0221e-19,1.7421e-21,37.479,0.0014648,-0.0013613,8.3113e-35,0.00018862,-118.94,-331.72,-135.48,52.053,6.1943e-14,2.6709e-16,224.65,-344.2,-135.48,-106.46,0,0.015936,0,1,1.91,0,-1.91,0
0,0,0,0,0,0,0.00010735,-0.0012754,5.2673e-36,0.00033646,4.02e-19,1.7432e-21,37.358,0.0014585,-0.0013556,8.3404e-35,0.00018758,-118.44,-330.43,-134.94,51.697,6.1911e-14,2.6724e-16,223.68,-342.79,-134.94,-106.08,0,0.015943,0,1,1.915,0,-1.915,0
0,0,0,0,0,0,0.00010712,-0.0012705,5.3015e-36,0.00033414,4.0179e-19,1.7442e-21,37.237,0.0014522,-0.0013499,8.3695e-35,0.00018654,-117.94,-329.14,-134.4,51.341,6.188e-14,2.6739e-16,222.72,-341.38,-134.4,-105.71,0,0.015951,0,1,1.92,0,-1.92,0
0,0,0,0,0,0,0.00010688,-0.0012656,5.3357e-36,0.00033183,4.0158e-19,1.7452e-21,37.116,0.001446,-0.0013442,8.3985e-35,0.0001855,-117.43,-327.86,-133.86,50.984,6.1848e-14,2.6754e-16,221.76,-339.97,-133.86,-105.33,0,0.015958,0,1,1.925,0,-1.925,0
0,0,0,0,0,0,0.00010664,-0.0012607,5.3698e-36,0.00032951,4.0137e-19,1.7463e-21,36.995,0.0014397,-0.0013385,8.4276e-35,0.00018446,-116.93,-326.57,-133.32,50.628,6.1817e-14,2.677e-16,220.8,-338.56,-133.32,-104.95,0,0.015965,0,1,1.93,0,-1.93,0
0,0,0,0,0,0,0.00010641,-0.0012558,5.404e-36,0.00032719,4.0115e-19,1.7473e-21,36.874,0.0014334,-0.0013328,8.4567e-35,0.00018342,-116.43,-325.29,-132.78,50.272,6.1785e-14,2.6785e-16,219.84,-337.15,-132.78,-104.57,0,0.015972,0,1,1.935,0,-1.935,0
0,0,0,0,0,0,0.00010617,-0.0012509,5.4382e-36,0.00032487,4.0094e-19,1.7484e-21,36.753,0.0014271,-0.0013271,8.4858e-35,0.00018238,-115.93,-324,-132.24,49.915,6.1754e-14,2.68e-16,218.88,-335.74,-132.24,-104.19,0,0.015979,0,1,1.94,0,-1.94,0
0,0,0,0,0,0,0.00010593,-0.001246,5.4724e-36,0.00032255,4.0073e-19,1.7494e-21,36.632,0.0014208,-0.0013214,8.5149e-35,0.00018134,-115.42,-322.72,-131.7,49.559,6.1723e-14,2.6815e-16,217.92,-334.33,-131.7,-103.81,0,0.015986,0,1,1.945,0,-1.945,0
0,0,0,0,0,0,0.0001057,-0.0012411,5.5065e-36,0.00032023,4.0052e-19,1.7504e-21,36.511,0.0014146,-0.0013157,8.5439e-35,0.00018031,-114.92,-321.43,-131.17,49.203,6.1691e-14,2.683e-16,216.96,-332.92,-131.17,-103.43,0,0.015994,0,1,1.95,0,-1.95,0
0,0,0,0,0,0,0.00010546,-0.0012362,5.5407e-36,0.00031791,4.003e-19,1.7515e-21,36.39,0.0014083,-0.00131,8.573e-35,0.00017927,-114.42,-320.14,-130.63,48.846,6.166e-14,2.6845e-16,216,-331.51,-130.63,-103.05,0,0.016001,0,1,1.955,0,-1.955,0
0,0,0,0,0,0,0.00010522,-0.0012313,5.5749e-36,0.0003156,4.0009e-19,1.7525e-21,36.268,0.001402,-0.0013043,8.6021e-35,0.00017823,-113.92,-318.86,-130.09,48.49,6.1628e-14,2.6861e-16,215.04,-330.1,-130.09,-102.67,0,0.016008,0,1,1.96,0,-1.96,0
0,0,0,0,0,0,0.00010499,-0.0012264,5.609e-36,0.00031328,3.9988e-19,1.7535e-21,36.147,0.0013957,-0.0012986,8.6312e-35,0.00017719,-113.41,-317.57,-129.55,48.134,6.1597e-14,2.6876e-16,214.08,-328.69,-129.55,-102.3,0,0.016015,0,1,1.965,0,-1.965,0
0,0,0,0,0,0,0.00010475,-0.0012215,5.6432e-36,0.00031096,3.9967e-19,1.7546e-21,36.026,0.0013894,-0.0012929,8.6602e-35,0.00017615,-112.91,-316.29,-129.01,47.778,6.1566e-14,2.6891e-16,213.12,-327.28,-129.01,-101.92,0,0.016022,0,1,1.97,0,-1.97,0
0,0,0,0,0,0,0.00010451,-0.0012166,5.6774e-36,0.00030864,3.9945e-19,1.7556e-21,35.905,0.0013832,-0.0012872,8.6893e-35,0.00017511,-112.41,-315,-128.47,47.421,6.1534e-14,2.6906e-16,212.16,-325.87,-128.47,-101.54,0,0.016029,0,1,1.975,0,-1.975,0
0,0,0,0,0,0,0.00010428,-0.0012117,5.7115e-36,0.00030632,3.9924e-19,1.7566e-21,35.784,0.0013769,-0.0012815,8.7184e-35,0.00017407,-111.9,-313.71,-127.93,47.065,6.1503e-14,2.6921e-16,211.2,-324.46,-127.93,-101.16,0,0.016037,0,1,1.98,0,-1.98,0
0,0,0,0,0,0,0.00010404,-0.0012068,5.7457e-36,0.000304,3.9903e-19,1.7577e-21,35.663,0.0013706,-0.0012758,8.7475e-35,0.00017303,-111.4,-312.43,-127.39,46.709,6.1471e-14,2.6936e-16,210.24,-323.05,-127.39,-100.78,0,0.016044,0,1,1.985,0,-1.985,0
0,0,0,0,0,0,0.0001038,-0.0012019,5.7799e-36,0.00030168,3.9882e-19,1.7587e-21,35.542,0.0013643,-0.0012701,8.7766e-35,0.00017199,-110.9,-311.14,-126.86,46.352,6.144e-14,2.6952e-16,209.28,-321.64,-126.86,-100.4,0,0.016051,0,1,1.99,0,-1.99,0
0,0,0,0,0,0,0.00010357,-0.001197,5.814e-36,0.00029937,3.986e-19,1.7598e-21,35.421,0.001358,-0.0012644,8.8056e-35,0.00017095,-110.4,-309.86,-126.32,45.996,6.1409e-14,2.6967e-16,208.32,-320.23,-126.32,-100.02,0,0.016058,0,1,1.995,0,-1.995,0
0,0,0,0,0,0,0.00010333,-0.0011921,5.8482e-36,0.00029705,3.9839e-19,1.7608e-21,35.3,0.0013518,-0.0012587,8.8347e-35,0.00016991,-109.89,-308.57,-125.78,45.64,6.1377e-14,2.6982e-16,207.36,-318.82,-125.78,-99.642,0,0.016065,0,1,2,0,-2,0
0,0,0,0,0,0,0.00010309,-0.0011872,5.8824e-36,0.00029473,3.9818e-19,1.7618e-21,35.179,0.0013455,-0.001253,8.8638e-35,0.00016888,-109.39,-307.28,-125.24,45.283,6.1346e-14,2.6997e-16,206.4,-317.41,-125.24,-99.263,0,0.016072,0,1,2.005,0,-2.005,0
0,0,0,0,0,0,0.00010285,-0.0011824,5.9165e-36,0.00029241,3.9797e-19,1.7629e-21,35.058,0.0013392,-0.0012473,8.8929e-35,0.00016784,-108.89,-306,-124.7,44.927,6.1314e-14,2.7012e-16,205.44,-316,-124.7,-98.885,0,0.01608,0,1,2.01,0,-2.01,0
0,0,0,0,0,0,0.00010262,-0.0011775,5.9507e-36,0.00029009,3.9775e-19,1.7639e-21,34.936,0.0013329,-0.0012416,8.922e-35,0.0001668,-108.38,-304.71,-124.16,44.571,6.1283e-14,2.7027e-16,204.48,-314.59,-124.16,-98.506,0,0.016087,0,1,2.015,0,-2.015,0
0,0,0,0,0,0,0.00010238,-0.0011726,5.9849e-36,0.00028777,3.9754e-19,1.7649e-21,34.815,0.0013266,-0.0012359,8.951e-35,0.00016576,-107.88,-303.43,-123.62,44.214,6.1251e-14,2.7043e-16,203.51,-313.18,-123.62,-98.127,0,0.016094,0,1,2.02,0,-2.02,0
0,0,0,0,0,0,0.00010214,-0.0011677,6.019e-36,0.00028545,3.9733e-19,1.766e-21,34.694,0.0013204,-0.0012302,8.9801e-35,0.00016472,-107.38,-302.14,-123.08,43.858,6.122e-14,2.7058e-16,202.55,-311.77,-123.08,-97.748,0,0.016101,0,1,2.025,0,-2.025,0
0,0,0,0,0,0,0.00010191,-0.0011628,6.0532e-36,0.00028314,3.9712e-19,1.767e-21,34.573,0.0013141,-0.0012245,9.0092e-35,0.00016368,-106.88,-300.86,-122.54,43.502,6.1189e-14,2.7073e-16,201.59,-310.36,-122.54,-97.369,0,0.016108,0,1,2.03,0,-2.03,0
0,0,0,0,0,0,0.00010167,-0.0011579,6.0874e-36,0.00028082,3.969e-19,1.768e-21,34.452,0.0013078,-0.0012188,9.0383e-35,0.00016264,-106.37,-299.57,-122.01,43.145,6.1157e-14,2.7088e-16,200.63,-308.95,-122.01,-96.99,0,0.016115,0,1,2.035,0,-2.035,0
0,0,0,0,0,0,0.00010143,-0.001153,6.1215e-36,0.0002785,3.9669e-19,1.7691e-21,34.331,0.0013015,-0.0012132,9.0674e-35,0.0001616,-105.87,-298.28,-121.47,42.789,6.1126e-14,2.7103e-16,199.67,-307.54,-121.47,-96.611,0,0.016123,0,1,2.04,0,-2.04,0
0,0,0,0,0,0,0.0001012,-0.0011481,6.1557e-36,0.00027618,3.9648e-19,1.7701e-21,34.21,0.0012952,-0.0012075,9.0964e-35,0.00016056,-105.37,-297,-120.93,42.433,6.1094e-14,2.7118e-16,198.71,-306.13,-120.93,-96.232,0,0.01613,0,1,2.045,0,-2.045,0
0,0,0,0,0,0,0.00010096,-0.0011432,6.1899e-36,0.00027386,3.9627e-19,1.7711e-21,34.089,0.001289,-0.0012018,9.1255e-35,0.00015952,-104.87,-295.71,-120.39,42.076,6.1063e-14,2.7134e-16,197.75,-304.72,-120.39,-95.853,0,0.016137,0,1,2.05,0,-2.05,0
0,0,0,0,0,0,0.00010072,-0.0011383,6.2241e-36,0.00027154,3.9605e-19,1.7722e-21,33.968,0.0012827,-0.0011961,9.1546e-35,0.00015848,-104.36,-294.43,-119.85,41.72,6.1032e-14,2.7149e-16,196.79,-303.31,-119.85,-95.474,0,0.016144,0,1,2.055,0,-2.055,0
0,0,0,0,0,0,0.00010049,-0.0011334,6.2582e-36,0.00026922,3.9584e-19,1.7732e-21,33.847,0.0012764,-0.0011904,9.1837e-35,0.00015744,-103.86,-293.14,-119.31,41.364,6.1e-14,2.7164e-16,195.83,-301.9,-119.31,-95.095,0,0.016151,0,1,2.06,0,-2.06,0
0,0,0,0,0,0,0.00010025,-0.0011285,6.2924e-36,0.00026691,3.9563e-19,1.7743e-21,33.725,0.0012701,-0.0011847,9.2127e-35,0.00015641,-103.36,-291.85,-118.77,41.007,6.0969e-14,2.7179e-16,194.87,-300.5,-118.77,-94.716,0,0.016158,0,1,2.065,0,-2.065,0
0,0,0,0,0,0,0.00010001,-0.0011236,6.3266e-36,0.00026459,3.9542e-19,1.7753e-21,33.604,0.0012638,-0.001179,9.2418e-35,0.00015537,-102.85,-290.57,-118.23,40.651,6.0937e-14,2.7194e-16,193.91,-299.09,-118.23,-94.337,0,0.016166,0,1,2.07,0,-2.07,0
0,0,0,0,0,0,9.9777e-05,-0.0011187,6.3607e-36,0.00026227,3.952e-19,1.7763e-21,33.483,0.0012576,-0.0011733,9.2709e-35,0.00015433,-102.35,-289.28,-117.7,40.295,6.0906e-14,2.7209e-16,192.95,-297.68,-117.7,-93.958,0,0.016173,0,1,2.075,0,-2.075,0
0,0,0,0,0,0,9.954e-05,-0.0011138,6.3949e-36,0.00025995,3.9499e-19,1.7774e-21,33.362,0.0012513,-0.0011676,9.3e-35,0.00015329,-101.85,-288,-117.16,39.938,6.0874e-14,2.7225e-16,191.99,-296.27,-117.16,-93.579,0,0.01618,0,1,2.08,0,-2.08,0
0,0,0,0,0,0,9.9303e-05,-0.0011089,6.4291e-36,0.00025763,3.9478e-19,1.7784e-21,33.241,0.001245,-0.0011619,9.3291e-35,0.00015225,-101.35,-286.71,-116.62,39.582,6.0843e-14,2.724e-16,191.03,-294.86,-116.62,-93.2,0,0.016187,0,1,2.085,0,-2.085,0
0,0,0,0,0,0,9.9066e-05,-0.001104,6.4632e-36,0.00025531,3.9457e-19,1.7794e-21,33.12,0.0012387,-0.0011562,9.3581e-35,0.00015121,-100.84,-285.42,-116.08,39.226,6.0812e-14,2.7255e-16,190.07,-293.45,-116.08,-92.821,0,0.016194,0,1,2.09,0,-2.09,0
0,0,0,0,0,0,9.8829e-05,-0.0010991,6.4974e-36,0.00025299,3.9435e-19,1.7805e-21,32.999,0.0012324,-0.0011505,9.3872e-35,0.00015017,-100.34,-284.14,-115.54,38.869,6.078e-14,2.727e-16,189.11,-292.04,-115.54,-92.442,0,0.016201,0,1,2.095,0,-2.095,0
0,0,0,0,0,0,9.8593e-05,-0.0010942,6.5316e-36,0.00025068,3.9414e-19,1.7815e-21,32.878,0.0012262,-0.0011448,9.4163e-35,0.00014913,-99.838,-282.85,-115,38.513,6.0749e-14,2.7285e-16,188.15,-290.63,-115,-92.063,0,0.016209,0,1,2.1,0,-2.1,0
0,0,0,0,0,0,9.8467e-05,-0.0010923,6.5238e-36,0.00025014,3.8054e-19,1.7696e-21,32.798,0.001224,-0.0011427,1.3492e-34,0.00014888,-99.649,-282.35,-114.79,38.43,5.8658e-14,2.7101e-16,187.81,-290.11,-114.79,-91.894,0,0.016212,0,1,2.105,0,-2.105,0
0,0,0,0,0,0,9.8341e-05,-0.0010904,6.516e-36,0.0002496,3.6694e-19,1.7577e-21,32.719,0.0012218,-0.0011407,1.7567e-34,0.00014863,-99.461,-281.85,-114.59,38.348,5.6567e-14,2.6918e-16,187.48,-289.59,-114.59,-91.725,0,0.016216,0,1,2.11,0,-2.11,0
0,0,0,0,0,0,9.8215e-05,-0.0010885,6.5082e-36,0.00024906,3.5334e-19,1.7458e-21,32.64,0.0012196,-0.0011386,2.1642e-34,0.00014838,-99.273,-281.35,-114.38,38.265,5.4475e-14,2.6734e-16,187.14,-289.06,-114.38,-91.557,0,0.01622,0,1,2.115,0,-2.115,0
0,0,0,0,0,0,9.8089e-05,-0.0010866,6.5004e-36,0.00024852,3.3974e-19,1.7339e-21,32.56,0.0012174,-0.0011366,2.5717e-34,0.00014813,-99.085,-280.85,-114.17,38.183,5.2384e-14,2.655e-16,186.81,-288.54,-114.17,-91.388,0,0.016224,0,1,2.12,0,-2.12,0
0,0,0,0,0,0,9.7963e-05,-0.0010846,6.4926e-36,0.00024799,3.2614e-19,1.722e-21,32.481,0.0012152,-0.0011345,2.9792e-34,0.00014788,-98.897,-280.34,-113.96,38.1,5.0293e-14,2.6366e-16,186.47,-288.02,-113.96,-91.219,0,0.016227,0,1,2.125,0,-2.125,0
0,0,0,0,0,0,9.7837e-05,-0.0010827,6.4849e-36,0.00024745,3.1254e-19,1.7101e-21,32.401,0.0012131,-0.0011325,3.3867e-34,0.00014762,-98.708,-279.84,-113.76,38.017,4.8202e-14,2.6182e-16,186.14,-287.5,-113.76,-91.05,0,0.016231,0,1,2.13,0,-2.13,0
0,0,0,0,0,0,9.7711e-05,-0.0010808,6.4771e-36,0.00024691,2.9894e-19,1.6982e-21,32.322,0.0012109,-0.0011305,3.7942e-34,0.00014737,-98.52,-279.34,-113.55,37.935,4.6111e-14,2.5998e-16,185.81,-286.98,-113.55,-90.881,0,0.016235,0,1,2.135,0,-2.135,0
0,0,0,0,0,0,9.7585e-05,-0.0010789,6.4693e-36,0.00024637,2.8533e-19,1.6863e-21,32.243,0.0012087,-0.0011284,4.2018e-34,0.00014712,-98.332,-278.84,-113.34,37.852,4.402e-14,2.5814e-16,185.47,-286.46,-113.34,-90.712,0,0.016239,0,1,2.14,0,-2.14,0
0,0,0,0,0,0,9.7459e-05,-0.0010769,6.4615e-36,0.00024583,2.7173e-19,1.6743e-21,32.163,0.0012065,-0.0011264,4.6093e-34,0.00014687,-98.144,-278.34,-113.13,37.77,4.1929e-14,2.563e-16,185.14,-285.94,-113.13,-90.543,0,0.016243,0,1,2.145,0,-2.145,0
0,0,0,0,0,0,9.7333e-05,-0.001075,6.4537e-36,0.0002453,2.5813e-19,1.6624e-21,32.084,0.0012043,-0.0011243,5.0168e-34,0.00014662,-97.956,-277.83,-112.93,37.687,3.9837e-14,2.5447e-16,184.8,-285.42,-112.93,-90.374,0,0.016246,0,1,2.15,0,-2.15,0
0,0,0,0,0,0,9.7207e-05,-0.0010731,6.4459e-36,0.00024476,2.4453e-19,1.6505e-21,32.004,0.0012021,-0.0011223,5.4243e-34,0.00014637,-97.768,-277.33,-112.72,37.604,3.7746e-14,2.5263e-16,184.47,-284.9,-112.72,-90.205,0,0.01625,0,1,2.155,0,-2.155,0
0,0,0,0,0,0,9.7081e-05,-0.0010712,6.4381e-36,0.00024422,2.3093e-19,1.6386e-21,31.925,0.0012,-0.0011202,5.8318e-34,0.00014612,-97.579,-276.83,-112.51,37.522,3.5655e-14,2.5079e-16,184.13,-284.37,-112.51,-90.036,0,0.016254,0,1,2.16,0,-2.16,0
0,0,0,0,0,0,9.6955e-05,-0.0010693,6.4304e-36,0.00024368,2.1733e-19,1.6267e-21,31.845,0.0011978,-0.0011182,6.2393e-34,0.00014587,-97.391,-276.33,-112.3,37.439,3.3564e-14,2.4895e-16,183.8,-283.85,-112.3,-89.867,0,0.016258,0,1,2.165,0,-2.165,0
0,0,0,0,0,0,9.6829e-05,-0.0010673,6.4226e-36,0.00024315,2.0373e-19,1.6148e-21,31.766,0.0011956,-0.0011161,6.6469e-34,0.00014562,-97.203,-275.83,-112.1,37.357,3.1473e-14,2.4711e-16,183.46,-283.33,-112.1,-89.699,0,0.016261,0,1,2.17,0,-2.17,0
0,0,0,0,0,0,9.6703e-05,-0.0010654,6.4148e-36,0.00024261,1.9013e-19,1.6029e-21,31.687,0.0011934,-0.0011141,7.0544e-34,0.00014536,-97.015,-275.33,-111.89,37.274,2.9382e-14,2.4527e-16,183.13,-282.81,-111.89,-89.53,0,0.016265,0,1,2.175,0,-2.175,0
0,0,0,0,0,0,9.6577e-05,-0.0010635,6.407e-36,0.00024207,1.7653e-19,1.591e-21,31.607,0.0011912,-0.001112,7.4619e-34,0.00014511,-96.827,-274.82,-111.68,37.191,2.7291e-14,2.4343e-16,182.79,-282.29,-111.68,-89.361,0,0.016269,0,1,2.18,0,-2.18,0
0,0,0,0,0,0,9.6451e-05,-0.0010616,6.3992e-36,0.00024153,1.6293e-19,1.5791e-21,31.528,0.001189,-0.00111,7.8694e-34,0.00014486,-96.639,-274.32,-111.47,37.109,2.52e-14,2.4159e-16,182.46,-281.77,-111.47,-89.192,0,0.016273,0,1,2.185,0,-2.185,0
0,0,0,0,0,0,9.6325e-05,-0.0010596,6.3914e-36,0.00024099,1.4933e-19,1.5672e-21,31.448,0.0011869,-0.0011079,8.2769e-34,0.00014461,-96.45,-273.82,-111.27,37.026,2.3109e-14,2.3975e-16,182.13,-281.25,-111.27,-89.023,0,0.016277,0,1,2.19,0,-2.19,0
0,0,0,0,0,0,9.62e-05,-0.0010577,6.3836e-36,0.00024046,1.3573e-19,1.5553e-21,31.369,0.0011847,-0.0011059,8.6844e-34,0.00014436,-96.262,-273.32,-111.06,36.944,2.1017e-14,2.3792e-16,181.79,-280.73,-111.06,-88.854,0,0.01628,0,1,2.195,0,-2.195,0
0,0,0,0,0,0,9.6074e-05,-0.0010558,6.3759e-36,0.00023992,1.2212e-19,1.5434e-21,31.29,0.0011825,-0.0011038,9.092e-34,0.00014411,-96.074,-272.82,-110.85,36.861,1.8926e-14,2.3608e-16,181.46,-280.21,-110.85,-88.685,0,0.016284,0,1,2.2,0,-2.2,0
0,0,0,0,0,0,9.5948e-05,-0.0010539,6.3681e-36,0.00023938,1.0852e-19,1.5315e-21,31.21,0.0011803,-0.0011018,9.4995e-34,0.00014386,-95.886,-272.32,-110.64,36.779,1.6835e-14,2.3424e-16,181.12,-279.68,-110.64,-88.516,0,0.016288,0,1,2.205,0,-2.205,0
0,0,0,0,0,0,9.5822e-05,-0.001052,6.3603e-36,0.00023884,9.4922e-20,1.5196e-21,31.131,0.0011781,-0.0010997,9.907e-34,0.00014361,-95.698,-271.81,-110.44,36.696,1.4744e-14,2.324e-16,180.79,-279.16,-110.44,-88.347,0,0.016292,0,1,2.21,0,-2.21,0
0,0,0,0,0,0,9.5696e-05,-0.00105,6.3525e-36,0.0002383,8.1322e-20,1.5077e-21,31.051,0.0011759,-0.0010977,1.0314e-33,0.00014335,-95.51,-271.31,-110.23,36.613,1.2653e-14,2.3056e-16,180.45,-278.64,-110.23,-88.178,0,0.016296,0,1,2.215,0,-2.215,0
0,0,0,0,0,0,9.557e-05,-0.0010481,6.3447e-36,0.00023777,6.7721e-20,1.4958e-21,30.972,0.0011738,-0.0010957,1.0722e-33,0.0001431,-95.321,-270.81,-110.02,36.531,1.0562e-14,2.2872e-16,180.12,-278.12,-110.02,-88.009,0,0.016299,0,1,2.22,0,-2.22,0
0,0,0,0,0,0,9.5444e-05,-0.0010462,6.3369e-36,0.00023723,5.412e-20,1.4838e-21,30.893,0.0011716,-0.0010936,1.113e-33,0.00014285,-95.133,-270.31,-109.81,36.448,8.4707e-15,2.2688e-16,179.78,-277.6,-109.81,-87.841,0,0.016303,0,1,2.225,0,-2.225,0
0,0,0,0,0,0,9.5318e-05,-0.0010443,6.3291e-36,0.00023669,4.0519e-20,1.4719e-21,30.813,0.0011694,-0.0010916,1.1537e-33,0.0001426,-94.945,-269.81,-109.61,36.366,6.3796e-15,2.2504e-16,179.45,-277.08,-109.61,-87.672,0,0.016307,0,1,2.23,0,-2.23,0
0,0,0,0,0,0,9.5192e-05,-0.0010424,6.3214e-36,0.00023615,2.6918e-20,1.46e-21,30.734,0.0011672,-0.0010895,1.1945e-33,0.00014235,-94.757,-269.3,-109.4,36.283,4.2885e-15,2.2321e-16,179.11,-276.56,-109.4,-87.503,0,0.016311,0,1,2.235,0,-2.235,0
0,0,0,0,0,0,9.5066e-05,-0.0010404,6.3136e-36,0.00023561,1.3317e-20,1.4481e-21,30.654,0.001165,-0.0010875,1.2352e-33,0.0001421,-94.569,-268.8,-109.19,36.2,2.1973e-15,2.2137e-16,178.78,-276.04,-109.19,-87.334,0,0.016314,0,1,2.24,0,-2.24,0
0,0,0,0,0,0,9.494e-05,-0.0010385,6.3058e-36,0.00023508,-2.8334e-22,1.4362e-21,30.575,0.0011629,-0.0010854,1.276e-33,0.00014185,-94.381,-268.3,-108.98,36.118,1.0624e-16,2.1953e-16,178.45,-275.52,-108.98,-87.165,0,0.016318,0,1,2.245,0,-2.245,0
0,0,0,0,0,0,9.4814e-05,-0.0010366,6.298e-36,0.00023454,-1.3885e-20,1.4243e-21,30.495,0.0011607,-0.0010834,1.3167e-33,0.0001416,-94.192,-267.8,-108.78,36.035,-1.9849e-15,2.1769e-16,178.11,-275,-108.78,-86.996,0,0.016322,0,1,2.25,0,-2.25,0
0,0,0,0,0,0,9.4688e-05,-0.0010347,6.2902e-36,0.000234,-2.7486e-20,1.4124e-21,30.416,0.0011585,-0.0010813,1.3575e-33,0.00014135,-94.004,-267.3,-108.57,35.953,-4.0761e-15,2.1585e-16,177.78,-274.47,-108.57,-86.827,0,0.016326,0,1,2.255,0,-2.255,0
0,0,0,0,0,0,9.4562e-05,-0.0010327,6.2824e-36,0.00023346,-4.1086e-20,1.4005e-21,30.337,0.0011563,-0.0010793,1.3982e-33,0.00014109,-93.816,-266.8,-108.36,35.87,-6.1672e-15,2.1401e-16,177.44,-273.95,-108.36,-86.658,0,0.01633,0,1,2.26,0,-2.26,0
0,0,0,0,0,0,9.4436e-05,-0.0010308,6.2746e-36,0.00023292,-5.4687e-20,1.3886e-21,30.257,0.0011541,-0.0010772,1.439e-33,0.00014084,-93.628,-266.29,-108.15,35.787,-8.2583e-15,2.1217e-16,177.11,-273.43,-108.15,-86.489,0,0.016333,0,1,2.265,0,-2.265,0
0,0,0,0,0,0,9.431e-05,-0.0010289,6.2668e-36,0.00023239,-6.8288e-20,1.3767e-21,30.178,0.0011519,-0.0010752,1.4797e-33,0.00014059,-93.44,-265.79,-107.94,35.705,-1.0349e-14,2.1033e-16,176.77,-272.91,-107.94,-86.32,0,0.016337,0,1,2.27,0,-2.27,0
0,0,0,0,0,0,9.4184e-05,-0.001027,6.2591e-36,0.00023185,-8.1889e-20,1.3648e-21,30.098,0.0011498,-0.0010731,1.5205e-33,0.00014034,-93.252,-265.29,-107.74,35.622,-1.2441e-14,2.085e-16,176.44,-272.39,-107.74,-86.151,0,0.016341,0,1,2.275,0,-2.275,0
0,0,0,0,0,0,9.4058e-05,-0.0010251,6.2513e-36,0.00023131,-9.549e-20,1.3529e-21,30.019,0.0011476,-0.0010711,1.5612e-33,0.00014009,-93.063,-264.79,-107.53,35.54,-1.4532e-14,2.0666e-16,176.1,-271.87,-107.53,-85.983,0,0.016345,0,1,2.28,0,-2.28,0
0,0,0,0,0,0,9.3932e-05,-0.0010231,6.2435e-36,0.00023077,-1.0909e-19,1.341e-21,29.94,0.0011454,-0.001069,1.602e-33,0.00013984,-92.875,-264.29,-107.32,35.457,-1.6623e-14,2.0482e-16,175.77,-271.35,-107.32,-85.814,0,0.016348,0,1,2.285,0,-2.285,0
0,0,0,0,0,0,9.3806e-05,-0.0010212,6.2357e-36,0.00023024,-1.2269e-19,1.3291e-21,29.86,0.0011432,-0.001067,1.6427e-33,0.00013959,-92.687,-263.78,-107.11,35.374,-1.8714e-14,2.0298e-16,175.44,-270.83,-107.11,-85.645,0,0.016352,0,1,2.29,0,-2.29,0
0,0,0,0,0,0,9.368e-05,-0.0010193,6.2279e-36,0.0002297,-1.3629e-19,1.3172e-21,29.781,0.001141,-0.001065,1.6835e-33,0.00013934,-92.499,-263.28,-106.91,35.292,-2.0805e-14,2.0114e-16,175.1,-270.31,-106.91,-85.476,0,0.016356,0,1,2.295,0,-2.295,0
0,0,0,0,0,0,9.3555e-05,-0.0010174,6.2201e-36,0.00022916,-1.4989e-19,1.3052e-21,29.701,0.0011388,-0.0010629,1.7242e-33,0.00013908,-92.311,-262.78,-106.7,35.209,-2.2896e-14,1.993e-16,174.77,-269.78,-106.7,-85.307,0,0.01636,0,1,2.3,0,-2.3,0
0,0,0,0,0,0,9.3429e-05,-0.0010155,6.2123e-36,0.00022862,-1.6349e-19,1.2933e-21,29.622,0.0011367,-0.0010609,1.765e-33,0.00013883,-92.123,-262.28,-106.49,35.127,-2.4987e-14,1.9746e-16,174.43,-269.26,-106.49,-85.138,0,0.016364,0,1,2.305,0,-2.305,0
0,0,0,0,0,0,9.3303e-05,-0.0010135,6.2046e-36,0.00022808,-1.7709e-19,1.2814e-21,29.542,0.0011345,-0.0010588,1.8057e-33,0.00013858,-91.934,-261.78,-106.28,35.044,-2.7078e-14,1.9562e-16,174.1,-268.74,-106.28,-84.969,0,0.016367,0,1,2.31,0,-2.31,0
0,0,0,0,0,0,9.3177e-05,-0.0010116,6.1968e-36,0.00022755,-1.907e-19,1.2695e-21,29.463,0.0011323,-0.0010568,1.8465e-33,0.00013833,-91.746,-261.28,-106.08,34.961,-2.917e-14,1.9379e-16,173.76,-268.22,-106.08,-84.8,0,0.016371,0,1,2.315,0,-2.315,0
0,0,0,0,0,0,9.3051e-05,-0.0010097,6.189e-36,0.00022701,-2.043e-19,1.2576e-21,29.384,0.0011301,-0.0010547,1.8872e-33,0.00013808,-91.558,-260.77,-105.87,34.879,-3.1261e-14,1.9195e-16,173.43,-267.7,-105.87,-84.631,0,0.016375,0,1,2.32,0,-2.32,0
0,0,0,0,0,0,9.2925e-05,-0.0010078,6.1812e-36,0.00022647,-2.179e-19,1.2457e-21,29.304,0.0011279,-0.0010527,1.928e-33,0.00013783,-91.37,-260.27,-105.66,34.796,-3.3352e-14,1.9011e-16,173.09,-267.18,-105.66,-84.462,0,0.016379,0,1,2.325,0,-2.325,0
0,0,0,0,0,0,9.2799e-05,-0.0010058,6.1734e-36,0.00022593,-2.315e-19,1.2338e-21,29.225,0.0011257,-0.0010506,1.9687e-33,0.00013758,-91.182,-259.77,-105.45,34.714,-3.5443e-14,1.8827e-16,172.76,-266.66,-105.45,-84.293,0,0.016383,0,1,2.33,0,-2.33,0
0,0,0,0,0,0,9.2673e-05,-0.0010039,6.1656e-36,0.00022539,-2.451e-19,1.2219e-21,29.145,0.0011236,-0.0010486,2.0095e-33,0.00013733,-90.994,-259.27,-105.25,34.631,-3.7534e-14,1.8643e-16,172.42,-266.14,-105.25,-84.125,0,0.016386,0,1,2.335,0,-2.335,0
0,0,0,0,0,0,9.2547e-05,-0.001002,6.1578e-36,0.00022486,-2.587e-19,1.21e-21,29.066,0.0011214,-0.0010465,2.0502e-33,0.00013708,-90.805,-258.77,-105.04,34.548,-3.9625e-14,1.8459e-16,172.09,-265.62,-105.04,-83.956,0,0.01639,0,1,2.34,0,-2.34,0
0,0,0,0,0,0,9.2421e-05,-0.0010001,6.1501e-36,0.00022432,-2.723e-19,1.1981e-21,28.987,0.0011192,-0.0010445,2.091e-33,0.00013682,-90.617,-258.26,-104.83,34.466,-4.1716e-14,1.8275e-16,171.76,-265.1,-104.83,-83.787,0,0.016394,0,1,2.345,0,-2.345,0
0,0,0,0,0,0,9.2295e-05,-0.00099816,6.1423e-36,0.00022378,-2.859e-19,1.1862e-21,28.907,0.001117,-0.0010424,2.1317e-33,0.00013657,-90.429,-257.76,-104.62,34.383,-4.3807e-14,1.8091e-16,171.42,-264.57,-104.62,-83.618,0,0.016398,0,1,2.35,0,-2.35,0
0,0,0,0,0,0,9.2169e-05,-0.00099623,6.1345e-36,0.00022324,-2.995e-19,1.1743e-21,28.828,0.0011148,-0.0010404,2.1725e-33,0.00013632,-90.241,-257.26,-104.42,34.301,-4.5899e-14,1.7908e-16,171.09,-264.05,-104.42,-83.449,0,0.016401,0,1,2.355,0,-2.355,0
0,0,0,0,0,0,9.2043e-05,-0.00099431,6.1267e-36,0.0002227,-3.131e-19,1.1624e-21,28.748,0.0011126,-0.0010383,2.2132e-33,0.00013607,-90.053,-256.76,-104.21,34.218,-4.799e-14,1.7724e-16,170.75,-263.53,-104.21,-83.28,0,0.016405,0,1,2.36,0,-2.36,0
0,0,0,0,0,0,9.1917e-05,-0.00099239,6.1189e-36,0.00022217,-3.267e-19,1.1505e-21,28.669,0.0011105,-0.0010363,2.254e-33,0.00013582,-89.865,-256.26,-104,34.136,-5.0081e-14,1.754e-16,170.42,-263.01,-104,-83.111,0,0.016409,0,1,2.365,0,-2.365,0
0,0,0,0,0,0,9.1791e-05,-0.00099047,6.1111e-36,0.00022163,-3.4031e-19,1.1386e-21,28.59,0.0011083,-0.0010342,2.2947e-33,0.00013557,-89.676,-255.76,-103.79,34.053,-5.2172e-14,1.7356e-16,170.08,-262.49,-103.79,-82.942,0,0.016413,0,1,2.37,0,-2.37,0
0,0,0,0,0,0,9.1665e-05,-0.00098855,6.1033e-36,0.00022109,-3.5391e-19,1.1266e-21,28.51,0.0011061,-0.0010322,2.3355e-33,0.00013532,-89.488,-255.25,-103.59,33.97,-5.4263e-14,1.7172e-16,169.75,-261.97,-103.59,-82.773,0,0.016417,0,1,2.375,0,-2.375,0
0,0,0,0,0,0,9.1539e-05,-0.00098663,6.0956e-36,0.00022055,-3.6751e-19,1.1147e-21,28.431,0.0011039,-0.0010302,2.3763e-33,0.00013507,-89.3,-254.75,-103.38,33.888,-5.6354e-14,1.6988e-16,169.41,-261.45,-103.38,-82.604,0,0.01642,0,1,2.38,0,-2.38,0
0,0,0,0,0,0,9.1413e-05,-0.0009847,6.0878e-36,0.00022002,-3.8111e-19,1.1028e-21,28.351,0.0011017,-0.0010281,2.417e-33,0.00013481,-89.112,-254.25,-103.17,33.805,-5.8445e-14,1.6804e-16,169.08,-260.93,-103.17,-82.435,0,0.016424,0,1,2.385,0,-2.385,0
0,0,0,0,0,0,9.1287e-05,-0.00098278,6.08e-36,0.00021948,-3.9471e-19,1.0909e-21,28.272,0.0010995,-0.0010261,2.4578e-33,0.00013456,-88.924,-253.75,-102.96,33.723,-6.0536e-14,1.662e-16,168.75,-260.41,-102.96,-82.267,0,0.016428,0,1,2.39,0,-2.39,0
0,0,0,0,0,0,9.1161e-05,-0.00098086,6.0722e-36,0.00021894,-4.0831e-19,1.079e-21,28.192,0.0010974,-0.001024,2.4985e-33,0.00013431,-88.736,-253.25,-102.76,33.64,-6.2627e-14,1.6436e-16,168.41,-259.88,-102.76,-82.098,0,0.016432,0,1,2.395,0,-2.395,0
0,0,0,0,0,0,9.1035e-05,-0.00097894,6.0644e-36,0.0002184,-4.2191e-19,1.0671e-21,28.113,0.0010952,-0.001022,2.5393e-33,0.00013406,-88.547,-252.74,-102.55,33.557,-6.4719e-14,1.6253e-16,168.08,-259.36,-102.55,-81.929,0,0.016436,0,1,2.4,0,-2.4,0
0,0,0,0,0,0,9.091e-05,-0.00097702,6.0566e-36,0.00021786,-4.3551e-19,1.0552e-21,28.034,0.001093,-0.0010199,2.58e-33,0.00013381,-88.359,-252.24,-102.34,33.475,-6.681e-14,1.6069e-16,167.74,-258.84,-102.34,-81.76,0,0.016439,0,1,2.405,0,-2.405,0
0,0,0,0,0,0,9.0784e-05,-0.0009751,6.0488e-36,0.00021733,-4.4911e-19,1.0433e-21,27.954,0.0010908,-0.0010179,2.6208e-33,0.00013356,-88.171,-251.74,-102.13,33.392,-6.8901e-14,1.5885e-16,167.41,-258.32,-102.13,-81.591,0,0.016443,0,1,2.41,0,-2.41,0
0,0,0,0,0,0,9.0658e-05,-0.00097317,6.0411e-36,0.00021679,-4.6271e-19,1.0314e-21,27.875,0.0010886,-0.0010158,2.6615e-33,0.00013331,-87.983,-251.24,-101.93,33.31,-7.0992e-14,1.5701e-16,167.07,-257.8,-101.93,-81.422,0,0.016447,0,1,2.415,0,-2.415,0
0,0,0,0,0,0,9.0532e-05,-0.00097125,6.0333e-36,0.00021625,-4.7631e-19,1.0195e-21,27.795,0.0010864,-0.0010138,2.7023e-33,0.00013306,-87.795,-250.74,-101.72,33.227,-7.3083e-14,1.5517e-16,166.74,-257.28,-101.72,-81.253,0,0.016451,0,1,2.42,0,-2.42,0
0,0,0,0,0,0,9.0406e-05,-0.00096933,6.0255e-36,0.00021571,-4.8992e-19,1.0076e-21,27.716,0.0010843,-0.0010117,2.743e-33,0.00013281,-87.607,-250.24,-101.51,33.144,-7.5174e-14,1.5333e-16,166.4,-256.76,-101.51,-81.084,0,0.016454,0,1,2.425,0,-2.425,0
0,0,0,0,0,0,9.028e-05,-0.00096741,6.0177e-36,0.00021517,-5.0352e-19,9.9567e-22,27.637,0.0010821,-0.0010097,2.7838e-33,0.00013255,-87.418,-249.73,-101.3,33.062,-7.7265e-14,1.5149e-16,166.07,-256.24,-101.3,-80.915,0,0.016458,0,1,2.43,0,-2.43,0
0,0,0,0,0,0,9.0154e-05,-0.00096549,6.0099e-36,0.00021464,-5.1712e-19,9.8376e-22,27.557,0.0010799,-0.0010076,2.8245e-33,0.0001323,-87.23,-249.23,-101.1,32.979,-7.9356e-14,1.4965e-16,165.73,-255.72,-101.1,-80.746,0,0.016462,0,1,2.435,0,-2.435,0
0,0,0,0,0,0,9.0028e-05,-0.00096357,6.0021e-36,0.0002141,-5.3072e-19,9.7186e-22,27.478,0.0010777,-0.0010056,2.8653e-33,0.00013205,-87.042,-248.73,-100.89,32.897,-8.1448e-14,1.4782e-16,165.4,-255.19,-100.89,-80.577,0,0.016466,0,1,2.44,0,-2.44,0
0,0,0,0,0,0,8.9902e-05,-0.00096164,5.9943e-36,0.00021356,-5.4432e-19,9.5995e-22,27.398,0.0010755,-0.0010035,2.906e-33,0.0001318,-86.854,-248.23,-100.68,32.814,-8.3539e-14,1.4598e-16,165.07,-254.67,-100.68,-80.409,0,0.01647,0,1,2.445,0,-2.445,0
0,0,0,0,0,0,8.9776e-05,-0.00095972,5.9866e-36,0.00021302,-5.5792e-19,9.4804e-22,27.319,0.0010733,-0.0010015,2.9468e-33,0.00013155,-86.666,-247.73,-100.47,32.731,-8.563e-14,1.4414e-16,164.73,-254.15,-100.47,-80.24,0,0.016473,0,1,2.45,0,-2.45,0
0,0,0,0,0,0,8.965e-05,-0.0009578,5.9788e-36,0.00021248,-5.7152e-19,9.3614e-22,27.24,0.0010712,-0.00099945,2.9875e-33,0.0001313,-86.478,-247.22,-100.27,32.649,-8.7721e-14,1.423e-16,164.4,-253.63,-100.27,-80.071,0,0.016477,0,1,2.455,0,-2.455,0
0,0,0,0,0,0,8.9524e-05,-0.00095588,5.971e-36,0.00021195,-5.8512e-19,9.2423e-22,27.16,0.001069,-0.0009974,3.0283e-33,0.00013105,-86.289,-246.72,-100.06,32.566,-8.9812e-14,1.4046e-16,164.06,-253.11,-100.06,-79.902,0,0.016481,0,1,2.46,0,-2.46,0
0,0,0,0,0,0,8.9398e-05,-0.00095396,5.9632e-36,0.00021141,-5.9872e-19,9.1232e-22,27.081,0.0010668,-0.00099536,3.069e-33,0.0001308,-86.101,-246.22,-99.851,32.484,-9.1903e-14,1.3862e-16,163.73,-252.59,-99.851,-79.733,0,0.016485,0,1,2.465,0,-2.465,0
0,0,0,0,0,0,8.9272e-05,-0.00095204,5.9554e-36,0.00021087,-6.1232e-19,9.0042e-22,27.001,0.0010646,-0.00099331,3.1098e-33,0.00013055,-85.913,-245.72,-99.644,32.401,-9.3994e-14,1.3678e-16,163.39,-252.07,-99.644,-79.564,0,0.016488,0,1,2.47,0,-2.47,0
0,0,0,0,0,0,8.9146e-05,-0.00095011,5.9476e-36,0.00021033,-6.2592e-19,8.8851e-22,26.922,0.0010624,-0.00099126,3.1505e-33,0.00013029,-85.725,-245.22,-99.436,32.318,-9.6085e-14,1.3494e-16,163.06,-251.55,-99.436,-79.395,0,0.016492,0,1,2.475,0,-2.475,0
0,0,0,0,0,0,8.902e-05,-0.00094819,5.9398e-36,0.00020979,-6.3952e-19,8.766e-22,26.842,0.0010602,-0.00098922,3.1913e-33,0.00013004,-85.537,-244.72,-99.228,32.236,-9.8177e-14,1.3311e-16,162.72,-251.03,-99.228,-79.226,0,0.016496,0,1,2.48,0,-2.48,0
0,0,0,0,0,0,8.8894e-05,-0.00094627,5.9321e-36,0.00020926,-6.5313e-19,8.647e-22,26.763,0.0010581,-0.00098717,3.232e-33,0.00012979,-85.349,-244.21,-99.021,32.153,-1.0027e-13,1.3127e-16,162.39,-250.51,-99.021,-79.057,0,0.0165,0,1,2.485,0,-2.485,0
0,0,0,0,0,0,8.8768e-05,-0.00094435,5.9243e-36,0.00020872,-6.6673e-19,8.5279e-22,26.684,0.0010559,-0.00098512,3.2728e-33,0.00012954,-85.16,-243.71,-98.813,32.071,-1.0236e-13,1.2943e-16,162.05,-249.98,-98.813,-78.888,0,0.016504,0,1,2.49,0,-2.49,0
0,0,0,0,0,0,8.8642e-05,-0.00094243,5.9165e-36,0.00020818,-6.8033e-19,8.4088e-22,26.604,0.0010537,-0.00098307,3.3135e-33,0.00012929,-84.972,-243.21,-98.606,31.988,-1.0445e-13,1.2759e-16,161.72,-249.46,-98.606,-78.719,0,0.016507,0,1,2.495,0,-2.495,0
0,0,0,0,0,0,8.8516e-05,-0.00094051,5.9087e-36,0.00020764,-6.9393e-19,8.2898e-22,26.525,0.0010515,-0.00098103,3.3543e-33,0.00012904,-84.784,-242.71,-98.398,31.905,-1.0654e-13,1.2575e-16,161.39,-248.94,-98.398,-78.551,0,0.016511,0,1,2.5,0,-2.5,0
0,0,0,0,0,0,8.8391e-05,-0.00093858,5.9009e-36,0.00020711,-7.0753e-19,8.1707e-22,26.445,0.0010493,-0.00097898,3.395e-33,0.00012879,-84.596,-242.21,-98.191,31.823,-1.0863e-13,1.2391e-16,161.05,-248.42,-98.191,-78.382,0,0.016515,0,1,2.505,0,-2.505,0
0,0,0,0,0,0,8.8265e-05,-0.00093666,5.8931e-36,0.00020657,-7.2113e-19,8.0516e-22,26.366,0.0010471,-0.00097693,3.4358e-33,0.00012854,-84.408,-241.7,-97.983,31.74,-1.1072e-13,1.2207e-16,160.72,-247.9,-97.983,-78.213,0,0.016519,0,1,2.51,0,-2.51,0
0,0,0,0,0,0,8.8139e-05,-0.00093474,5.8853e-36,0.00020603,-7.3473e-19,7.9326e-22,26.287,0.001045,-0.00097489,3.4765e-33,0.00012828,-84.22,-241.2,-97.776,31.658,-1.1281e-13,1.2023e-16,160.38,-247.38,-97.776,-78.044,0,0.016523,0,1,2.515,0,-2.515,0
0,0,0,0,0,0,8.8013e-05,-0.00093282,5.8776e-36,0.00020549,-7.4833e-19,7.8135e-22,26.207,0.0010428,-0.00097284,3.5173e-33,0.00012803,-84.031,-240.7,-97.568,31.575,-1.1491e-13,1.184e-16,160.05,-246.86,-97.568,-77.875,0,0.016526,0,1,2.52,0,-2.52,0
0,0,0,0,0,0,8.7887e-05,-0.0009309,5.8698e-36,0.00020495,-7.6193e-19,7.6944e-22,26.128,0.0010406,-0.00097079,3.558e-33,0.00012778,-83.843,-240.2,-97.361,31.493,-1.17e-13,1.1656e-16,159.71,-246.34,-97.361,-77.706,0,0.01653,0,1,2.525,0,-2.525,0
0,0,0,0,0,0,8.7761e-05,-0.00092898,5.862e-36,0.00020442,-7.7553e-19,7.5754e-22,26.048,0.0010384,-0.00096875,3.5988e-33,0.00012753,-83.655,-239.7,-97.153,31.41,-1.1909e-13,1.1472e-16,159.38,-245.82,-97.153,-77.537,0,0.016534,0,1,2.53,0,-2.53,0
0,0,0,0,0,0,8.7635e-05,-0.00092705,5.8542e-36,0.00020388,-7.8913e-19,7.4563e-22,25.969,0.0010362,-0.0009667,3.6396e-33,0.00012728,-83.467,-239.2,-96.946,31.327,-1.2118e-13,1.1288e-16,159.04,-245.29,-96.946,-77.368,0,0.016538,0,1,2.535,0,-2.535,0
0,0,0,0,0,0,8.7509e-05,-0.00092513,5.8464e-36,0.00020334,-8.0274e-19,7.3372e-22,25.89,0.001034,-0.00096465,3.6803e-33,0.00012703,-83.279,-238.69,-96.738,31.245,-1.2327e-13,1.1104e-16,158.71,-244.77,-96.738,-77.199,0,0.016541,0,1,2.54,0,-2.54,0
0,0,0,0,0,0,8.7383e-05,-0.00092321,5.8386e-36,0.0002028,-8.1634e-19,7.2182e-22,25.81,0.0010319,-0.00096261,3.7211e-33,0.00012678,-83.091,-238.19,-96.531,31.162,-1.2536e-13,1.092e-16,158.38,-244.25,-96.531,-77.03,0,0.016545,0,1,2.545,0,-2.545,0
0,0,0,0,0,0,8.7257e-05,-0.00092129,5.8308e-36,0.00020226,-8.2994e-19,7.0991e-22,25.731,0.0010297,-0.00096056,3.7618e-33,0.00012653,-82.902,-237.69,-96.323,31.08,-1.2745e-13,1.0736e-16,158.04,-243.73,-96.323,-76.861,0,0.016549,0,1,2.55,0,-2.55,0
0,0,0,0,0,0,8.7131e-05,-0.00091937,5.8231e-36,0.00020173,-8.4354e-19,6.98e-22,25.651,0.0010275,-0.00095851,3.8026e-33,0.00012628,-82.714,-237.19,-96.115,30.997,-1.2954e-13,1.0552e-16,157.71,-243.21,-96.115,-76.693,0,0.016553,0,1,2.555,0,-2.555,0
0,0,0,0,0,0,8.7005e-05,-0.00091745,5.8153e-36,0.00020119,-8.5714e-19,6.861e-22,25.572,0.0010253,-0.00095647,3.8433e-33,0.00012602,-82.526,-236.69,-95.908,30.914,-1.3163e-13,1.0369e-16,157.37,-242.69,-95.908,-76.524,0,0.016557,0,1,2.56,0,-2.56,0
0,0,0,0,0,0,8.6879e-05,-0.00091552,5.8075e-36,0.00020065,-8.7074e-19,6.7419e-22,25.492,0.0010231,-0.00095442,3.8841e-33,0.00012577,-82.338,-236.19,-95.7,30.832,-1.3373e-13,1.0185e-16,157.04,-242.17,-95.7,-76.355,0,0.01656,0,1,2.565,0,-2.565,0
0,0,0,0,0,0,8.6753e-05,-0.0009136,5.7997e-36,0.00020011,-8.8434e-19,6.6228e-22,25.413,0.0010209,-0.00095237,3.9248e-33,0.00012552,-82.15,-235.68,-95.493,30.749,-1.3582e-13,1.0001e-16,156.7,-241.65,-95.493,-76.186,0,0.016564,0,1,2.57,0,-2.57,0
0,0,0,0,0,0,8.6627e-05,-0.00091168,5.7919e-36,0.00019957,-8.9794e-19,6.5038e-22,25.334,0.0010188,-0.00095032,3.9656e-33,0.00012527,-81.962,-235.18,-95.285,30.667,-1.3791e-13,9.8169e-17,156.37,-241.13,-95.285,-76.017,0,0.016568,0,1,2.575,0,-2.575,0
0,0,0,0,0,0,8.6501e-05,-0.00090976,5.7841e-36,0.00019904,-9.1154e-19,6.3847e-22,25.254,0.0010166,-0.00094828,4.0063e-33,0.00012502,-81.773,-234.68,-95.078,30.584,-1.4e-13,9.633e-17,156.03,-240.6,-95.078,-75.848,0,0.016572,0,1,2.58,0,-2.58,0
0,0,0,0,0,0,8.6375e-05,-0.00090784,5.7763e-36,0.0001985,-9.2514e-19,6.2656e-22,25.175,0.0010144,-0.00094623,4.0471e-33,0.00012477,-81.585,-234.18,-94.87,30.501,-1.4209e-13,9.4491e-17,155.7,-240.08,-94.87,-75.679,0,0.016575,0,1,2.585,0,-2.585,0
0,0,0,0,0,0,8.6249e-05,-0.00090592,5.7686e-36,0.00019796,-9.3874e-19,6.1466e-22,25.095,0.0010122,-0.00094418,4.0878e-33,0.00012452,-81.397,-233.68,-94.663,30.419,-1.4418e-13,9.2652e-17,155.36,-239.56,-94.663,-75.51,0,0.016579,0,1,2.59,0,-2.59,0
0,0,0,0,0,0,8.6123e-05,-0.00090399,5.7608e-36,0.00019742,-9.5235e-19,6.0275e-22,25.016,0.00101,-0.00094214,4.1286e-33,0.00012427,-81.209,-233.17,-94.455,30.336,-1.4627e-13,9.0814e-17,155.03,-239.04,-94.455,-75.341,0,0.016583,0,1,2.595,0,-2.595,0
0,0,0,0,0,0,8.5997e-05,-0.00090207,5.753e-36,0.00019689,-9.6595e-19,5.9084e-22,24.937,0.0010078,-0.00094009,4.1693e-33,0.00012401,-81.021,-232.67,-94.248,30.254,-1.4836e-13,8.8975e-17,154.7,-238.52,-94.248,-75.172,0,0.016587,0,1,2.6,0,-2.6,0
0,0,0,0,0,0,8.5871e-05,-0.00090015,5.7452e-36,0.00019635,-9.7955e-19,5.7894e-22,24.857,0.0010057,-0.00093804,4.2101e-33,0.00012376,-80.833,-232.17,-94.04,30.171,-1.5045e-13,8.7136e-17,154.36,-238,-94.04,-75.003,0,0.016591,0,1,2.605,0,-2.605,0
0,0,0,0,0,0,8.5746e-05,-0.00089823,5.7374e-36,0.00019581,-9.9315e-19,5.6703e-22,24.778,0.0010035,-0.000936,4.2508e-33,0.00012351,-80.644,-231.67,-93.833,30.088,-1.5255e-13,8.5297e-17,154.03,-237.48,-93.833,-74.835,0,0.016594,0,1,2.61,0,-2.61,0
0,0,0,0,0,0,8.562e-05,-0.00089631,5.7296e-36,0.00019527,-1.0067e-18,5.5512e-22,24.698,0.0010013,-0.00093395,4.2916e-33,0.00012326,-80.456,-231.17,-93.625,30.006,-1.5464e-13,8.3459e-17,153.69,-236.96,-93.625,-74.666,0,0.016598,0,1,2.615,0,-2.615,0
0,0,0,0,0,0,8.5494e-05,-0.00089439,5.7218e-36,0.00019473,-1.0203e-18,5.4322e-22,24.619,0.0009991,-0.0009319,4.3323e-33,0.00012301,-80.268,-230.67,-93.418,29.923,-1.5673e-13,8.162e-17,153.36,-236.44,-93.418,-74.497,0,0.016602,0,1,2.62,0,-2.62,0
0,0,0,0,0,0,8.5368e-05,-0.00089246,5.714e-36,0.0001942,-1.034e-18,5.3131e-22,24.54,0.00099692,-0.00092986,4.3731e-33,0.00012276,-80.08,-230.16,-93.21,29.841,-1.5882e-13,7.9781e-17,153.02,-235.92,-93.21,-74.328,0,0.016606,0,1,2.625,0,-2.625,0
0,0,0,0,0,0,8.5242e-05,-0.00089054,5.7063e-36,0.00019366,-1.0476e-18,5.194e-22,24.46,0.00099474,-0.00092781,4.4138e-33,0.00012251,-79.892,-229.66,-93.002,29.758,-1.6091e-13,7.7942e-17,152.69,-235.39,-93.002,-74.159,0,0.01661,0,1,2.63,0,-2.63,0
0,0,0,0,0,0,8.5116e-05,-0.00088862,5.6985e-36,0.00019312,-1.0612e-18,5.075e-22,24.381,0.00099256,-0.00092576,4.4546e-33,0.00012226,-79.704,-229.16,-92.795,29.675,-1.63e-13,7.6103e-17,152.35,-234.87,-92.795,-73.99,0,0.016613,0,1,2.635,0,-2.635,0
0,0,0,0,0,0,8.499e-05,-0.0008867,5.6907e-36,0.00019258,-1.0748e-18,4.9559e-22,24.301,0.00099037,-0.00092371,4.4953e-33,0.00012201,-79.515,-228.66,-92.587,29.593,-1.6509e-13,7.4265e-17,152.02,-234.35,-92.587,-73.821,0,0.016617,0,1,2.64,0,-2.64,0
0,0,0,0,0,0,8.4864e-05,-0.00088478,5.6829e-36,0.00019204,-1.0884e-18,4.8368e-22,24.222,0.00098819,-0.00092167,4.5361e-33,0.00012175,-79.327,-228.16,-92.38,29.51,-1.6718e-13,7.2426e-17,151.68,-233.83,-92.38,-73.652,0,0.016621,0,1,2.645,0,-2.645,0
0,0,0,0,0,0,8.4738e-05,-0.00088286,5.6751e-36,0.00019151,-1.102e-18,4.7178e-22,24.142,0.00098601,-0.00091962,4.5768e-33,0.0001215,-79.139,-227.65,-92.172,29.428,-1.6927e-13,7.0587e-17,151.35,-233.31,-92.172,-73.483,0,0.016625,0,1,2.65,0,-2.65,0
0,0,0,0,0,0,8.4612e-05,-0.00088093,5.6673e-36,0.00019097,-1.1156e-18,4.5987e-22,24.063,0.00098382,-0.00091757,4.6176e-33,0.00012125,-78.951,-227.15,-91.965,29.345,-1.7137e-13,6.8748e-17,151.02,-232.79,-91.965,-73.314,0,0.016628,0,1,2.655,0,-2.655,0
0,0,0,0,0,0,8.4486e-05,-0.00087901,5.6595e-36,0.00019043,-1.1292e-18,4.4796e-22,23.984,0.00098164,-0.00091553,4.6583e-33,0.000121,-78.763,-226.65,-91.757,29.262,-1.7346e-13,6.6909e-17,150.68,-232.27,-91.757,-73.145,0,0.016632,0,1,2.66,0,-2.66,0
0,0,0,0,0,0,8.436e-05,-0.00087709,5.6518e-36,0.00018989,-1.1428e-18,4.3606e-22,23.904,0.00097946,-0.00091348,4.6991e-33,0.00012075,-78.574,-226.15,-91.55,29.18,-1.7555e-13,6.5071e-17,150.35,-231.75,-91.55,-72.977,0,0.016636,0,1,2.665,0,-2.665,0
0,0,0,0,0,0,8.4234e-05,-0.00087517,5.644e-36,0.00018935,-1.1564e-18,4.2415e-22,23.825,0.00097727,-0.00091143,4.7398e-33,0.0001205,-78.386,-225.65,-91.342,29.097,-1.7764e-13,6.3232e-17,150.01,-231.23,-91.342,-72.808,0,0.01664,0,1,2.67,0,-2.67,0
0,0,0,0,0,0,8.4108e-05,-0.00087325,5.6362e-36,0.00018882,-1.17e-18,4.1224e-22,23.745,0.00097509,-0.00090939,4.7806e-33,0.00012025,-78.198,-225.15,-91.135,29.015,-1.7973e-13,6.1393e-17,149.68,-230.7,-91.135,-72.639,0,0.016644,0,1,2.675,0,-2.675,0
0,0,0,0,0,0,8.3982e-05,-0.00087133,5.6284e-36,0.00018828,-1.1836e-18,4.0034e-22,23.666,0.00097291,-0.00090734,4.8213e-33,0.00012,-78.01,-224.64,-90.927,28.932,-1.8182e-13,5.9554e-17,149.34,-230.18,-90.927,-72.47,0,0.016647,0,1,2.68,0,-2.68,0
0,0,0,0,0,0,8.3856e-05,-0.0008694,5.6206e-36,0.00018774,-1.1972e-18,3.8843e-22,23.587,0.00097072,-0.00090529,4.8621e-33,0.00011974,-77.822,-224.14,-90.72,28.85,-1.8391e-13,5.7716e-17,149.01,-229.66,-90.72,-72.301,0,0.016651,0,1,2.685,0,-2.685,0
0,0,0,0,0,0,8.373e-05,-0.00086748,5.6128e-36,0.0001872,-1.2108e-18,3.7652e-22,23.507,0.00096854,-0.00090325,4.9028e-33,0.00011949,-77.634,-223.64,-90.512,28.767,-1.86e-13,5.5877e-17,148.67,-229.14,-90.512,-72.132,0,0.016655,0,1,2.69,0,-2.69,0
0,0,0,0,0,0,8.3604e-05,-0.00086556,5.605e-36,0.00018666,-1.2244e-18,3.6462e-22,23.428,0.00096636,-0.0009012,4.9436e-33,0.00011924,-77.445,-223.14,-90.305,28.684,-1.8809e-13,5.4038e-17,148.34,-228.62,-90.305,-71.963,0,0.016659,0,1,2.695,0,-2.695,0
0,0,0,0,0,0,8.3478e-05,-0.00086364,5.5973e-36,0.00018613,-1.238e-18,3.5271e-22,23.348,0.00096417,-0.00089915,4.9844e-33,0.00011899,-77.257,-222.64,-90.097,28.602,-1.9019e-13,5.2199e-17,148.01,-228.1,-90.097,-71.794,0,0.016663,0,1,2.7,0,-2.7,0
0,0,0,0,0,0,8.3352e-05,-0.00086172,5.5895e-36,0.00018559,-1.2516e-18,3.408e-22,23.269,0.00096199,-0.00089711,5.0251e-33,0.00011874,-77.069,-222.13,-89.889,28.519,-1.9228e-13,5.036e-17,147.67,-227.58,-89.889,-71.625,0,0.016666,0,1,2.705,0,-2.705,0
0,0,0,0,0,0,8.3226e-05,-0.0008598,5.5817e-36,0.00018505,-1.2652e-18,3.289e-22,23.19,0.00095981,-0.00089506,5.0659e-33,0.00011849,-76.881,-221.63,-89.682,28.437,-1.9437e-13,4.8522e-17,147.34,-227.06,-89.682,-71.456,0,0.01667,0,1,2.71,0,-2.71,0
0,0,0,0,0,0,8.3101e-05,-0.00085787,5.5739e-36,0.00018451,-1.2788e-18,3.1699e-22,23.11,0.00095762,-0.00089301,5.1066e-33,0.00011824,-76.693,-221.13,-89.474,28.354,-1.9646e-13,4.6683e-17,147,-226.54,-89.474,-71.287,0,0.016674,0,1,2.715,0,-2.715,0
0,0,0,0,0,0,8.2975e-05,-0.00085595,5.5661e-36,0.00018398,-1.2924e-18,3.0508e-22,23.031,0.00095544,-0.00089096,5.1474e-33,0.00011799,-76.505,-220.63,-89.267,28.271,-1.9855e-13,4.4844e-17,146.67,-226.02,-89.267,-71.119,0,0.016678,0,1,2.72,0,-2.72,0
0,0,0,0,0,0,8.2849e-05,-0.00085403,5.5583e-36,0.00018344,-1.306e-18,2.9318e-22,22.951,0.00095326,-0.00088892,5.1881e-33,0.00011774,-76.316,-220.13,-89.059,28.189,-2.0064e-13,4.3005e-17,146.33,-225.49,-89.059,-70.95,0,0.016681,0,1,2.725,0,-2.725,0
0,0,0,0,0,0,8.2723e-05,-0.00085211,5.5505e-36,0.0001829,-1.3196e-18,2.8127e-22,22.872,0.00095107,-0.00088687,5.2289e-33,0.00011748,-76.128,-219.63,-88.852,28.106,-2.0273e-13,4.1167e-17,146,-224.97,-88.852,-70.781,0,0.016685,0,1,2.73,0,-2.73,0
0,0,0,0,0,0,8.2597e-05,-0.00085019,5.5428e-36,0.00018236,-1.3332e-18,2.6937e-22,22.792,0.00094889,-0.00088482,5.2696e-33,0.00011723,-75.94,-219.12,-88.644,28.024,-2.0482e-13,3.9328e-17,145.66,-224.45,-88.644,-70.612,0,0.016689,0,1,2.735,0,-2.735,0
0,0,0,0,0,0,8.2471e-05,-0.00084827,5.535e-36,0.00018182,-1.3468e-18,2.5746e-22,22.713,0.00094671,-0.00088278,5.3104e-33,0.00011698,-75.752,-218.62,-88.437,27.941,-2.0691e-13,3.7489e-17,145.33,-223.93,-88.437,-70.443,0,0.016693,0,1,2.74,0,-2.74,0
0,0,0,0,0,0,8.2345e-05,-0.00084634,5.5272e-36,0.00018129,-1.3604e-18,2.4555e-22,22.634,0.00094452,-0.00088073,5.3511e-33,0.00011673,-75.564,-218.12,-88.229,27.858,-2.0901e-13,3.565e-17,144.99,-223.41,-88.229,-70.274,0,0.016697,0,1,2.745,0,-2.745,0
0,0,0,0,0,0,8.2219e-05,-0.00084442,5.5194e-36,0.00018075,-1.374e-18,2.3364e-22,22.554,0.00094234,-0.00087868,5.3919e-33,0.00011648,-75.376,-217.62,-88.022,27.776,-2.111e-13,3.3811e-17,144.66,-222.89,-88.022,-70.105,0,0.0167,0,1,2.75,0,-2.75,0
0,0,0,0,0,0,8.2093e-05,-0.0008425,5.5116e-36,0.00018021,-1.3876e-18,2.2174e-22,22.475,0.00094016,-0.00087664,5.4326e-33,0.00011623,-75.187,-217.12,-87.814,27.693,-2.1319e-13,3.1973e-17,144.33,-222.37,-87.814,-69.936,0,0.016704,0,1,2.755,0,-2.755,0
0,0,0,0,0,0,8.1967e-05,-0.00084058,5.5038e-36,0.00017967,-1.4012e-18,2.0983e-22,22.395,0.00093797,-0.00087459,5.4734e-33,0.00011598,-74.999,-216.61,-87.607,27.611,-2.1528e-13,3.0134e-17,143.99,-221.85,-87.607,-69.767,0,0.016708,0,1,2.76,0,-2.76,0
0,0,0,0,0,0,8.1841e-05,-0.00083866,5.496e-36,0.00017913,-1.4148e-18,1.9792e-22,22.316,0.00093579,-0.00087254,5.5141e-33,0.00011573,-74.811,-216.11,-87.399,27.528,-2.1737e-13,2.8295e-17,143.66,-221.33,-87.399,-69.598,0,0.016712,0,1,2.765,0,-2.765,0
0,0,0,0,0,0,8.1715e-05,-0.00083674,5.4883e-36,0.0001786,-1.4284e-18,1.8602e-22,22.237,0.00093361,-0.0008705,5.5549e-33,0.00011548,-74.623,-215.61,-87.192,27.445,-2.1946e-13,2.6456e-17,143.32,-220.8,-87.192,-69.429,0,0.016715,0,1,2.77,0,-2.77,0
0,0,0,0,0,0,8.1589e-05,-0.00083481,5.4805e-36,0.00017806,-1.442e-18,1.7411e-22,22.157,0.00093142,-0.00086845,5.5956e-33,0.00011522,-74.435,-215.11,-86.984,27.363,-2.2155e-13,2.4618e-17,142.99,-220.28,-86.984,-69.261,0,0.016719,0,1,2.775,0,-2.775,0
0,0,0,0,0,0,8.1463e-05,-0.00083289,5.4727e-36,0.00017752,-1.4556e-18,1.6221e-22,22.078,0.00092924,-0.0008664,5.6364e-33,0.00011497,-74.247,-214.61,-86.777,27.28,-2.2364e-13,2.2779e-17,142.65,-219.76,-86.777,-69.092,0,0.016723,0,1,2.78,0,-2.78,0
0,0,0,0,0,0,8.1337e-05,-0.00083097,5.4649e-36,0.00017698,-1.4692e-18,1.503e-22,21.998,0.00092706,-0.00086435,5.6771e-33,0.00011472,-74.058,-214.11,-86.569,27.198,-2.2574e-13,2.094e-17,142.32,-219.24,-86.569,-68.923,0,0.016727,0,1,2.785,0,-2.785,0
0,0,0,0,0,0,8.1211e-05,-0.00082905,5.4571e-36,0.00017644,-1.4828e-18,1.3839e-22,21.919,0.00092487,-0.00086231,5.7179e-33,0.00011447,-73.87,-213.6,-86.361,27.115,-2.2783e-13,1.9101e-17,141.98,-218.72,-86.361,-68.754,0,0.016731,0,1,2.79,0,-2.79,0
0,0,0,0,0,0,8.1085e-05,-0.00082713,5.4493e-36,0.00017591,-1.4964e-18,1.2648e-22,21.84,0.00092269,-0.00086026,5.7586e-33,0.00011422,-73.682,-213.1,-86.154,27.032,-2.2992e-13,1.7262e-17,141.65,-218.2,-86.154,-68.585,0,0.016734,0,1,2.795,0,-2.795,0
0,0,0,0,0,0,8.0959e-05,-0.00082521,5.4415e-36,0.00017537,-1.51e-18,1.1458e-22,21.76,0.00092051,-0.00085821,5.7994e-33,0.00011397,-73.494,-212.6,-85.946,26.95,-2.3201e-13,1.5424e-17,141.32,-217.68,-85.946,-68.416,0,0.016738,0,1,2.8,0,-2.8,0
0,0,0,0,0,0,8.0833e-05,-0.00082328,5.4338e-36,0.00017483,-1.5236e-18,1.0267e-22,21.681,0.00091832,-0.00085617,5.8401e-33,0.00011372,-73.306,-212.1,-85.739,26.867,-2.341e-13,1.3585e-17,140.98,-217.16,-85.739,-68.247,0,0.016742,0,1,2.805,0,-2.805,0
0,0,0,0,0,0,8.0707e-05,-0.00082136,5.426e-36,0.00017429,-1.5372e-18,9.0765e-23,21.601,0.00091614,-0.00085412,5.8809e-33,0.00011347,-73.118,-211.6,-85.531,26.785,-2.3619e-13,1.1746e-17,140.65,-216.64,-85.531,-68.078,0,0.016746,0,1,2.81,0,-2.81,0
0,0,0,0,0,0,8.0582e-05,-0.00081944,5.4182e-36,0.00017375,-1.5508e-18,7.8858e-23,21.522,0.00091396,-0.00085207,5.9216e-33,0.00011321,-72.929,-211.09,-85.324,26.702,-2.3828e-13,9.9073e-18,140.31,-216.11,-85.324,-67.909,0,0.01675,0,1,2.815,0,-2.815,0
0,0,0,0,0,0,8.0456e-05,-0.00081752,5.4104e-36,0.00017322,-1.5644e-18,6.6952e-23,21.442,0.00091177,-0.00085003,5.9624e-33,0.00011296,-72.741,-210.59,-85.116,26.619,-2.4037e-13,8.0685e-18,139.98,-215.59,-85.116,-67.74,0,0.016753,0,1,2.82,0,-2.82,0
0,0,0,0,0,0,8.033e-05,-0.0008156,5.4026e-36,0.00017268,-1.578e-18,5.5045e-23,21.363,0.00090959,-0.00084798,6.0031e-33,0.00011271,-72.553,-210.09,-84.909,26.537,-2.4246e-13,6.2297e-18,139.64,-215.07,-84.909,-67.572,0,0.016757,0,1,2.825,0,-2.825,0
0,0,0,0,0,0,8.0204e-05,-0.00081368,5.3948e-36,0.00017214,-1.5916e-18,4.3139e-23,21.284,0.00090741,-0.00084593,6.0439e-33,0.00011246,-72.365,-209.59,-84.701,26.454,-2.4456e-13,4.391e-18,139.31,-214.55,-84.701,-67.403,0,0.016761,0,1,2.83,0,-2.83,0
0,0,0,0,0,0,8.0078e-05,-0.00081175,5.387e-36,0.0001716,-1.6052e-18,3.1232e-23,21.204,0.00090522,-0.00084389,6.0846e-33,0.00011221,-72.177,-209.09,-84.494,26.372,-2.4665e-13,2.5522e-18,138.97,-214.03,-84.494,-67.234,0,0.016765,0,1,2.835,0,-2.835,0
0,0,0,0,0,0,7.9952e-05,-0.00080983,5.3793e-36,0.00017107,-1.6188e-18,1.9325e-23,21.125,0.00090304,-0.00084184,6.1254e-33,0.00011196,-71.989,-208.59,-84.286,26.289,-2.4874e-13,7.1342e-19,138.64,-213.51,-84.286,-67.065,0,0.016768,0,1,2.84,0,-2.84,0
0,0,0,0,0,0,7.9826e-05,-0.00080791,5.3715e-36,0.00017053,-1.6324e-18,7.4185e-24,21.045,0.00090086,-0.00083979,6.1661e-33,0.00011171,-71.8,-208.08,-84.079,26.207,-2.5083e-13,-1.1254e-18,138.3,-212.99,-84.079,-66.896,0,0.016772,0,1,2.845,0,-2.845,0
0,0,0,0,0,0,7.97e-05,-0.00080599,5.3637e-36,0.00016999,-1.646e-18,-4.4879e-24,20.966,0.00089867,-0.00083775,6.2069e-33,0.00011146,-71.612,-207.58,-83.871,26.124,-2.5292e-13,-2.9641e-18,137.97,-212.47,-83.871,-66.727,0,0.016776,0,1,2.85,0,-2.85,0
0,0,0,0,0,0,7.9574e-05,-0.00080407,5.3559e-36,0.00016945,-1.6596e-18,-1.6395e-23,20.887,0.00089649,-0.0008357,6.2477e-33,0.00011121,-71.424,-207.08,-83.664,26.041,-2.5501e-13,-4.803e-18,137.64,-211.95,-83.664,-66.558,0,0.01678,0,1,2.855,0,-2.855,0
0,0,0,0,0,0,7.9448e-05,-0.00080215,5.3481e-36,0.00016891,-1.6732e-18,-2.8301e-23,20.807,0.00089431,-0.00083365,6.2884e-33,0.00011095,-71.236,-206.58,-83.456,25.959,-2.571e-13,-6.6417e-18,137.3,-211.43,-83.456,-66.389,0,0.016784,0,1,2.86,0,-2.86,0
0,0,0,0,0,0,7.9322e-05,-0.00080022,5.3403e-36,0.00016838,-1.6868e-18,-4.0208e-23,20.728,0.00089212,-0.0008316,6.3292e-33,0.0001107,-71.048,-206.08,-83.248,25.876,-2.5919e-13,-8.4805e-18,136.97,-210.9,-83.248,-66.22,0,0.016787,0,1,2.865,0,-2.865,0
0,0,0,0,0,0,7.9196e-05,-0.0007983,5.3325e-36,0.00016784,-1.7004e-18,-5.2114e-23,20.648,0.00088994,-0.00082956,6.3699e-33,0.00011045,-70.86,-205.57,-83.041,25.794,-2.6128e-13,-1.0319e-17,136.63,-210.38,-83.041,-66.051,0,0.016791,0,1,2.87,0,-2.87,0
0,0,0,0,0,0,7.907e-05,-0.00079638,5.3248e-36,0.0001673,-1.714e-18,-6.4021e-23,20.569,0.00088776,-0.00082751,6.4107e-33,0.0001102,-70.671,-205.07,-82.833,25.711,-2.6338e-13,-1.2158e-17,136.3,-209.86,-82.833,-65.882,0,0.016795,0,1,2.875,0,-2.875,0
0,0,0,0,0,0,7.8944e-05,-0.00079446,5.317e-36,0.00016676,-1.7276e-18,-7.5928e-23,20.49,0.00088557,-0.00082546,6.4514e-33,0.00010995,-70.483,-204.57,-82.626,25.628,-2.6547e-13,-1.3997e-17,135.96,-209.34,-82.626,-65.714,0,0.016799,0,1,2.88,0,-2.88,0
0,0,0,0,0,0,7.8818e-05,-0.00079254,5.3092e-36,0.00016622,-1.7412e-18,-8.7835e-23,20.41,0.00088339,-0.00082342,6.4922e-33,0.0001097,-70.295,-204.07,-82.418,25.546,-2.6756e-13,-1.5836e-17,135.63,-208.82,-82.418,-65.545,0,0.016803,0,1,2.885,0,-2.885,0
0,0,0,0,0,0,7.8692e-05,-0.00079062,5.3014e-36,0.00016569,-1.7548e-18,-9.9742e-23,20.331,0.00088121,-0.00082137,6.5329e-33,0.00010945,-70.107,-203.57,-82.211,25.463,-2.6965e-13,-1.7674e-17,135.29,-208.3,-82.211,-65.376,0,0.016806,0,1,2.89,0,-2.89,0
0,0,0,0,0,0,7.8566e-05,-0.00078869,5.2936e-36,0.00016515,-1.7684e-18,-1.1165e-22,20.251,0.00087903,-0.00081932,6.5737e-33,0.0001092,-69.919,-203.07,-82.003,25.381,-2.7174e-13,-1.9513e-17,134.96,-207.78,-82.003,-65.207,0,0.01681,0,1,2.895,0,-2.895,0
0,0,0,0,0,0,7.844e-05,-0.00078677,5.2858e-36,0.00016461,-1.782e-18,-1.2355e-22,20.172,0.00087684,-0.00081728,6.6144e-33,0.00010894,-69.731,-202.56,-81.796,25.298,-2.7383e-13,-2.1352e-17,134.62,-207.26,-81.796,-65.038,0,0.016814,0,1,2.9,0,-2.9,0
0,0,0,0,0,0,7.8314e-05,-0.00078485,5.278e-36,0.00016407,-1.7956e-18,-1.3546e-22,20.092,0.00087466,-0.00081523,6.6552e-33,0.00010869,-69.542,-202.06,-81.588,25.215,-2.7592e-13,-2.3191e-17,134.29,-206.74,-81.588,-64.869,0,0.016818,0,1,2.905,0,-2.905,0
0,0,0,0,0,0,7.8188e-05,-0.00078293,5.2703e-36,0.00016353,-1.8092e-18,-1.4737e-22,20.013,0.00087248,-0.00081318,6.6959e-33,0.00010844,-69.354,-201.56,-81.381,25.133,-2.7801e-13,-2.503e-17,133.96,-206.21,-81.381,-64.7,0,0.016821,0,1,2.91,0,-2.91,0
0,0,0,0,0,0,7.8062e-05,-0.00078101,5.2625e-36,0.000163,-1.8228e-18,-1.5927e-22,19.934,0.00087029,-0.00081114,6.7367e-33,0.00010819,-69.166,-201.06,-81.173,25.05,-2.801e-13,-2.6868e-17,133.62,-205.69,-81.173,-64.531,0,0.016825,0,1,2.915,0,-2.915,0
0,0,0,0,0,0,7.7937e-05,-0.00077909,5.2547e-36,0.00016246,-1.8364e-18,-1.7118e-22,19.854,0.00086811,-0.00080909,6.7774e-33,0.00010794,-68.978,-200.56,-80.966,24.968,-2.822e-13,-2.8707e-17,133.29,-205.17,-80.966,-64.362,0,0.016829,0,1,2.92,0,-2.92,0
0,0,0,0,0,0,7.7811e-05,-0.00077716,5.2469e-36,0.00016192,-1.85e-18,-1.8309e-22,19.775,0.00086593,-0.00080704,6.8182e-33,0.00010769,-68.79,-200.06,-80.758,24.885,-2.8429e-13,-3.0546e-17,132.95,-204.65,-80.758,-64.193,0,0.016833,0,1,2.925,0,-2.925,0
0,0,0,0,0,0,7.7685e-05,-0.00077524,5.2391e-36,0.00016138,-1.8636e-18,-1.9499e-22,19.695,0.00086374,-0.000805,6.8589e-33,0.00010744,-68.602,-199.55,-80.551,24.802,-2.8638e-13,-3.2385e-17,132.62,-204.13,-80.551,-64.024,0,0.016837,0,1,2.93,0,-2.93,0
0,0,0,0,0,0,7.7559e-05,-0.00077332,5.2313e-36,0.00016085,-1.8772e-18,-2.069e-22,19.616,0.00086156,-0.00080295,6.8997e-33,0.00010719,-68.413,-199.05,-80.343,24.72,-2.8847e-13,-3.4223e-17,132.28,-203.61,-80.343,-63.856,0,0.01684,0,1,2.935,0,-2.935,0
0,0,0,0,0,0,7.7433e-05,-0.0007714,5.2235e-36,0.00016031,-1.8908e-18,-2.1881e-22,19.537,0.00085938,-0.0008009,6.9404e-33,0.00010694,-68.225,-198.55,-80.135,24.637,-2.9056e-13,-3.6062e-17,131.95,-203.09,-80.135,-63.687,0,0.016844,0,1,2.94,0,-2.94,0
0,0,0,0,0,0,7.7307e-05,-0.00076948,5.2158e-36,0.00015977,-1.9044e-18,-2.3071e-22,19.457,0.00085719,-0.00079885,6.9812e-33,0.00010668,-68.037,-198.05,-79.928,24.555,-2.9265e-13,-3.7901e-17,131.61,-202.57,-79.928,-63.518,0,0.016848,0,1,2.945,0,-2.945,0
0,0,0,0,0,0,7.7181e-05,-0.00076756,5.208e-36,0.00015923,-1.918e-18,-2.4262e-22,19.378,0.00085501,-0.00079681,7.0219e-33,0.00010643,-67.849,-197.55,-79.72,24.472,-2.9474e-13,-3.974e-17,131.28,-202.05,-79.72,-63.349,0,0.016852,0,1,2.95,0,-2.95,0
0,0,0,0,0,0,7.7055e-05,-0.00076563,5.2002e-36,0.00015869,-1.9316e-18,-2.5453e-22,19.298,0.00085283,-0.00079476,7.0627e-33,0.00010618,-67.661,-197.04,-79.513,24.389,-2.9683e-13,-4.1579e-17,130.95,-201.53,-79.513,-63.18,0,0.016855,0,1,2.955,0,-2.955,0
0,0,0,0,0,0,7.6929e-05,-0.00076371,5.1924e-36,0.00015816,-1.9452e-18,-2.6643e-22,19.219,0.00085064,-0.00079271,7.1034e-33,0.00010593,-67.473,-196.54,-79.305,24.307,-2.9892e-13,-4.3417e-17,130.61,-201,-79.305,-63.011,0,0.016859,0,1,2.96,0,-2.96,0
0,0,0,0,0,0,7.6803e-05,-0.00076179,5.1846e-36,0.00015762,-1.9588e-18,-2.7834e-22,19.14,0.00084846,-0.00079067,7.1442e-33,0.00010568,-67.284,-196.04,-79.098,24.224,-3.0102e-13,-4.5256e-17,130.28,-200.48,-79.098,-62.842,0,0.016863,0,1,2.965,0,-2.965,0
0,0,0,0,0,0,7.6677e-05,-0.00075987,5.1768e-36,0.00015708,-1.9724e-18,-2.9025e-22,19.06,0.00084628,-0.00078862,7.1849e-33,0.00010543,-67.096,-195.54,-78.89,24.142,-3.0311e-13,-4.7095e-17,129.94,-199.96,-78.89,-62.673,0,0.016867,0,1,2.97,0,-2.97,0
0,0,0,0,0,0,7.6551e-05,-0.00075795,5.169e-36,0.00015654,-1.986e-18,-3.0215e-22,18.981,0.00084409,-0.00078657,7.2257e-33,0.00010518,-66.908,-195.04,-78.683,24.059,-3.052e-13,-4.8934e-17,129.61,-199.44,-78.683,-62.504,0,0.016871,0,1,2.975,0,-2.975,0
0,0,0,0,0,0,7.6425e-05,-0.00075603,5.1612e-36,0.000156,-1.9996e-18,-3.1406e-22,18.901,0.00084191,-0.00078453,7.2664e-33,0.00010493,-66.72,-194.54,-78.475,23.976,-3.0729e-13,-5.0772e-17,129.27,-198.92,-78.475,-62.335,0,0.016874,0,1,2.98,0,-2.98,0
0,0,0,0,0,0,7.6299e-05,-0.0007541,5.1535e-36,0.00015547,-2.0132e-18,-3.2597e-22,18.822,0.00083973,-0.00078248,7.3072e-33,0.00010467,-66.532,-194.03,-78.268,23.894,-3.0938e-13,-5.2611e-17,128.94,-198.4,-78.268,-62.166,0,0.016878,0,1,2.985,0,-2.985,0
0,0,0,0,0,0,7.6173e-05,-0.00075218,5.1457e-36,0.00015493,-2.0268e-18,-3.3787e-22,18.742,0.00083754,-0.00078043,7.3479e-33,0.00010442,-66.344,-193.53,-78.06,23.811,-3.1147e-13,-5.445e-17,128.6,-197.88,-78.06,-61.998,0,0.016882,0,1,2.99,0,-2.99,0
0,0,0,0,0,0,7.6047e-05,-0.00075026,5.1379e-36,0.00015439,-2.0404e-18,-3.4978e-22,18.663,0.00083536,-0.00077839,7.3887e-33,0.00010417,-66.155,-193.03,-77.853,23.729,-3.1356e-13,-5.6289e-17,128.27,-197.36,-77.853,-61.829,0,0.016886,0,1,2.995,0,-2.995,0
0,0,0,0,0,0,7.5921e-05,-0.00074834,5.1301e-36,0.00015385,-2.054e-18,-3.6169e-22,18.584,0.00083318,-0.00077634,7.4294e-33,0.00010392,-65.967,-192.53,-77.645,23.646,-3.1565e-13,-5.8128e-17,127.93,-196.84,-77.645,-61.66,0,0.01689,0,1,3,0,-3,0
0,0,0,0,0,0,7.5795e-05,-0.00074642,5.1223e-36,0.00015331,-2.0676e-18,-3.7359e-22,18.504,0.00083099,-0.00077429,7.4702e-33,0.00010367,-65.779,-192.03,-77.438,23.564,-3.1774e-13,-5.9966e-17,127.6,-196.31,-77.438,-61.491,0,0.016893,0,1,3.005,0,-3.005,0
0,0,0,0,0,0,7.5669e-05,-0.0007445,5.1145e-36,0.00015278,-2.0812e-18,-3.855e-22,18.425,0.00082881,-0.00077225,7.5109e-33,0.00010342,-65.591,-191.52,-77.23,23.481,-3.1984e-13,-6.1805e-17,127.27,-195.79,-77.23,-61.322,0,0.016897,0,1,3.01,0,-3.01,0
0,0,0,0,0,0,7.5543e-05,-0.00074257,5.1067e-36,0.00015224,-2.0948e-18,-3.9741e-22,18.345,0.00082663,-0.0007702,7.5517e-33,0.00010317,-65.403,-191.02,-77.022,23.398,-3.2193e-13,-6.3644e-17,126.93,-195.27,-77.022,-61.153,0,0.016901,0,1,3.015,0,-3.015,0
0,0,0,0,0,0,7.5417e-05,-0.00074065,5.099e-36,0.0001517,-2.1084e-18,-4.0931e-22,18.266,0.00082444,-0.00076815,7.5925e-33,0.00010292,-65.215,-190.52,-76.815,23.316,-3.2402e-13,-6.5483e-17,126.6,-194.75,-76.815,-60.984,0,0.016905,0,1,3.02,0,-3.02,0
0,0,0,0,0,0,7.5292e-05,-0.00073873,5.0912e-36,0.00015116,-2.122e-18,-4.2122e-22,18.187,0.00082226,-0.0007661,7.6332e-33,0.00010267,-65.026,-190.02,-76.607,23.233,-3.2611e-13,-6.7322e-17,126.26,-194.23,-76.607,-60.815,0,0.016908,0,1,3.025,0,-3.025,0
0,0,0,0,0,0,7.5166e-05,-0.00073681,5.0834e-36,0.00015062,-2.1356e-18,-4.3313e-22,18.107,0.00082008,-0.00076406,7.674e-33,0.00010241,-64.838,-189.52,-76.4,23.151,-3.282e-13,-6.916e-17,125.93,-193.71,-76.4,-60.646,0,0.016912,0,1,3.03,0,-3.03,0
0,0,0,0,0,0,7.504e-05,-0.00073489,5.0756e-36,0.00015009,-2.1492e-18,-4.4503e-22,18.028,0.00081789,-0.00076201,7.7147e-33,0.00010216,-64.65,-189.02,-76.192,23.068,-3.3029e-13,-7.0999e-17,125.59,-193.19,-76.192,-60.477,0,0.016916,0,1,3.035,0,-3.035,0
0,0,0,0,0,0,7.4914e-05,-0.00073297,5.0678e-36,0.00014955,-2.1628e-18,-4.5694e-22,17.948,0.00081571,-0.00075996,7.7555e-33,0.00010191,-64.462,-188.51,-75.985,22.985,-3.3238e-13,-7.2838e-17,125.26,-192.67,-75.985,-60.308,0,0.01692,0,1,3.04,0,-3.04,0
0,0,0,0,0,0,7.4788e-05,-0.00073104,5.06e-36,0.00014901,-2.1764e-18,-4.6885e-22,17.869,0.00081353,-0.00075792,7.7962e-33,0.00010166,-64.274,-188.01,-75.777,22.903,-3.3447e-13,-7.4677e-17,124.92,-192.15,-75.777,-60.14,0,0.016924,0,1,3.045,0,-3.045,0
0,0,0,0,0,0,7.4662e-05,-0.00072912,5.0522e-36,0.00014847,-2.19e-18,-4.8075e-22,17.79,0.00081134,-0.00075587,7.837e-33,0.00010141,-64.086,-187.51,-75.57,22.82,-3.3656e-13,-7.6515e-17,124.59,-191.62,-75.57,-59.971,0,0.016927,0,1,3.05,0,-3.05,0
0,0,0,0,0,0,7.4536e-05,-0.0007272,5.0445e-36,0.00014794,-2.2036e-18,-4.9266e-22,17.71,0.00080916,-0.00075382,7.8777e-33,0.00010116,-63.897,-187.01,-75.362,22.738,-3.3866e-13,-7.8354e-17,124.25,-191.1,-75.362,-59.802,0,0.016931,0,1,3.055,0,-3.055,0
0,0,0,0,0,0,7.441e-05,-0.00072528,5.0367e-36,0.0001474,-2.2172e-18,-5.0457e-22,17.631,0.00080698,-0.00075178,7.9185e-33,0.00010091,-63.709,-186.51,-75.155,22.655,-3.4075e-13,-8.0193e-17,123.92,-190.58,-75.155,-59.633,0,0.016935,0,1,3.06,0,-3.06,0
0,0,0,0,0,0,7.4284e-05,-0.00072336,5.0289e-36,0.00014686,-2.2308e-18,-5.1647e-22,17.551,0.00080479,-0.00074973,7.9592e-33,0.00010066,-63.521,-186,-74.947,22.572,-3.4284e-13,-8.2032e-17,123.59,-190.06,-74.947,-59.464,0,0.016939,0,1,3.065,0,-3.065,0
0,0,0,0,0,0,7.4158e-05,-0.00072144,5.0211e-36,0.00014632,-2.2444e-18,-5.2838e-22,17.472,0.00080261,-0.00074768,8e-33,0.00010041,-63.333,-185.5,-74.74,22.49,-3.4493e-13,-8.3871e-17,123.25,-189.54,-74.74,-59.295,0,0.016942,0,1,3.07,0,-3.07,0
0,0,0,0,0,0,7.4032e-05,-0.00071951,5.0133e-36,0.00014578,-2.258e-18,-5.4029e-22,17.392,0.00080043,-0.00074564,8.0407e-33,0.00010015,-63.145,-185,-74.532,22.407,-3.4702e-13,-8.5709e-17,122.92,-189.02,-74.532,-59.126,0,0.016946,0,1,3.075,0,-3.075,0
0,0,0,0,0,0,7.3906e-05,-0.00071759,5.0055e-36,0.00014525,-2.2716e-18,-5.5219e-22,17.313,0.00079824,-0.00074359,8.0815e-33,9.9903e-05,-62.957,-184.5,-74.325,22.325,-3.4911e-13,-8.7548e-17,122.58,-188.5,-74.325,-58.957,0,0.01695,0,1,3.08,0,-3.08,0
0,0,0,0,0,0,7.378e-05,-0.00071567,4.9977e-36,0.00014471,-2.2852e-18,-5.641e-22,17.234,0.00079606,-0.00074154,8.1222e-33,9.9652e-05,-62.768,-184,-74.117,22.242,-3.512e-13,-8.9387e-17,122.25,-187.98,-74.117,-58.788,0,0.016954,0,1,3.085,0,-3.085,0
0,0,0,0,0,0,7.3654e-05,-0.00071375,4.99e-36,0.00014417,-2.2988e-18,-5.7601e-22,17.154,0.00079388,-0.00073949,8.163e-33,9.94e-05,-62.58,-183.5,-73.909,22.159,-3.5329e-13,-9.1226e-17,121.91,-187.46,-73.909,-58.619,0,0.016958,0,1,3.09,0,-3.09,0
0,0,0,0,0,0,7.3528e-05,-0.00071183,4.9822e-36,0.00014363,-2.3124e-18,-5.8791e-22,17.075,0.00079169,-0.00073745,8.2037e-33,9.9149e-05,-62.392,-182.99,-73.702,22.077,-3.5538e-13,-9.3064e-17,121.58,-186.94,-73.702,-58.45,0,0.016961,0,1,3.095,0,-3.095,0
0,0,0,0,0,0,7.3402e-05,-0.00070991,4.9744e-36,0.00014309,-2.326e-18,-5.9982e-22,16.995,0.00078951,-0.0007354,8.2445e-33,9.8898e-05,-62.204,-182.49,-73.494,21.994,-3.5748e-13,-9.4903e-17,121.24,-186.41,-73.494,-58.282,0,0.016965,0,1,3.1,0,-3.1,0
0,0,0,0,0,0,7.3276e-05,-0.00070798,4.9666e-36,0.00014256,-2.3396e-18,-6.1173e-22,16.916,0.00078733,-0.00073335,8.2852e-33,9.8647e-05,-62.016,-181.99,-73.287,21.912,-3.5957e-13,-9.6742e-17,120.91,-185.89,-73.287,-58.113,0,0.016969,0,1,3.105,0,-3.105,0
0,0,0,0,0,0,7.315e-05,-0.00070606,4.9588e-36,0.00014202,-2.3532e-18,-6.2363e-22,16.837,0.00078514,-0.00073131,8.326e-33,9.8396e-05,-61.828,-181.49,-73.079,21.829,-3.6166e-13,-9.8581e-17,120.58,-185.37,-73.079,-57.944,0,0.016973,0,1,3.11,0,-3.11,0
0,0,0,0,0,0,7.3024e-05,-0.00070414,4.951e-36,0.00014148,-2.3668e-18,-6.3554e-22,16.757,0.00078296,-0.00072926,8.3667e-33,9.8145e-05,-61.639,-180.99,-72.872,21.746,-3.6375e-13,-1.0042e-16,120.24,-184.85,-72.872,-57.775,0,0.016977,0,1,3.115,0,-3.115,0
0,0,0,0,0,0,7.2898e-05,-0.00070222,4.9432e-36,0.00014094,-2.3804e-18,-6.4745e-22,16.678,0.00078078,-0.00072721,8.4075e-33,9.7893e-05,-61.451,-180.48,-72.664,21.664,-3.6584e-13,-1.0226e-16,119.91,-184.33,-72.664,-57.606,0,0.01698,0,1,3.12,0,-3.12,0
0,0,0,0,0,0,7.2773e-05,-0.0007003,4.9355e-36,0.0001404,-2.394e-18,-6.5935e-22,16.598,0.00077859,-0.00072517,8.4482e-33,9.7642e-05,-61.263,-179.98,-72.457,21.581,-3.6793e-13,-1.041e-16,119.57,-183.81,-72.457,-57.437,0,0.016984,0,1,3.125,0,-3.125,0
0,0,0,0,0,0,7.2647e-05,-0.00069838,4.9277e-36,0.00013987,-2.4076e-18,-6.7126e-22,16.519,0.00077641,-0.00072312,8.489e-33,9.7391e-05,-61.075,-179.48,-72.249,21.499,-3.7002e-13,-1.0594e-16,119.24,-183.29,-72.249,-57.268,0,0.016988,0,1,3.13,0,-3.13,0
0,0,0,0,0,0,7.2521e-05,-0.00069645,4.9199e-36,0.00013933,-2.4212e-18,-6.8317e-22,16.44,0.00077423,-0.00072107,8.5297e-33,9.714e-05,-60.887,-178.98,-72.042,21.416,-3.7211e-13,-1.0777e-16,118.9,-182.77,-72.042,-57.099,0,0.016992,0,1,3.135,0,-3.135,0
0,0,0,0,0,0,7.2395e-05,-0.00069453,4.9121e-36,0.00013879,-2.4348e-18,-6.9507e-22,16.36,0.00077204,-0.00071903,8.5705e-33,9.6889e-05,-60.699,-178.48,-71.834,21.333,-3.742e-13,-1.0961e-16,118.57,-182.25,-71.834,-56.93,0,0.016995,0,1,3.14,0,-3.14,0
0,0,0,0,0,0,7.2269e-05,-0.00069261,4.9043e-36,0.00013825,-2.4484e-18,-7.0698e-22,16.281,0.00076986,-0.00071698,8.6112e-33,9.6638e-05,-60.51,-177.98,-71.627,21.251,-3.763e-13,-1.1145e-16,118.23,-181.72,-71.627,-56.761,0,0.016999,0,1,3.145,0,-3.145,0
0,0,0,0,0,0,7.2143e-05,-0.00069069,4.8965e-36,0.00013772,-2.462e-18,-7.1889e-22,16.201,0.00076768,-0.00071493,8.652e-33,9.6386e-05,-60.322,-177.47,-71.419,21.168,-3.7839e-13,-1.1329e-16,117.9,-181.2,-71.419,-56.592,0,0.017003,0,1,3.15,0,-3.15,0
0,0,0,0,0,0,7.2017e-05,-0.00068877,4.8887e-36,0.00013718,-2.4756e-18,-7.3079e-22,16.122,0.00076549,-0.00071289,8.6927e-33,9.6135e-05,-60.134,-176.97,-71.212,21.086,-3.8048e-13,-1.1513e-16,117.56,-180.68,-71.212,-56.424,0,0.017007,0,1,3.155,0,-3.155,0
0,0,0,0,0,0,7.1891e-05,-0.00068685,4.881e-36,0.00013664,-2.4892e-18,-7.427e-22,16.042,0.00076331,-0.00071084,8.7335e-33,9.5884e-05,-59.946,-176.47,-71.004,21.003,-3.8257e-13,-1.1697e-16,117.23,-180.16,-71.004,-56.255,0,0.017011,0,1,3.16,0,-3.16,0
0,0,0,0,0,0,7.1765e-05,-0.00068492,4.8732e-36,0.0001361,-2.5028e-18,-7.5461e-22,15.963,0.00076113,-0.00070879,8.7742e-33,9.5633e-05,-59.758,-175.97,-70.796,20.921,-3.8466e-13,-1.1881e-16,116.9,-179.64,-70.796,-56.086,0,0.017014,0,1,3.165,0,-3.165,0
0,0,0,0,0,0,7.1639e-05,-0.000683,4.8654e-36,0.00013556,-2.5164e-18,-7.6651e-22,15.884,0.00075895,-0.00070674,8.815e-33,9.5382e-05,-59.57,-175.47,-70.589,20.838,-3.8675e-13,-1.2065e-16,116.56,-179.12,-70.589,-55.917,0,0.017018,0,1,3.17,0,-3.17,0
0,0,0,0,0,0,7.1513e-05,-0.00068108,4.8576e-36,0.00013503,-2.53e-18,-7.7842e-22,15.804,0.00075676,-0.0007047,8.8557e-33,9.5131e-05,-59.381,-174.96,-70.381,20.755,-3.8884e-13,-1.2248e-16,116.23,-178.6,-70.381,-55.748,0,0.017022,0,1,3.175,0,-3.175,0
0,0,0,0,0,0,7.1387e-05,-0.00067916,4.8498e-36,0.00013449,-2.5436e-18,-7.9033e-22,15.725,0.00075458,-0.00070265,8.8965e-33,9.4879e-05,-59.193,-174.46,-70.174,20.673,-3.9093e-13,-1.2432e-16,115.89,-178.08,-70.174,-55.579,0,0.017026,0,1,3.18,0,-3.18,0
0,0,0,0,0,0,7.1261e-05,-0.00067724,4.842e-36,0.00013395,-2.5572e-18,-8.0223e-22,15.645,0.0007524,-0.0007006,8.9373e-33,9.4628e-05,-59.005,-173.96,-69.966,20.59,-3.9302e-13,-1.2616e-16,115.56,-177.56,-69.966,-55.41,0,0.01703,0,1,3.185,0,-3.185,0
0,0,0,0,0,0,7.1135e-05,-0.00067532,4.8342e-36,0.00013341,-2.5708e-18,-8.1414e-22,15.566,0.00075021,-0.00069856,8.978e-33,9.4377e-05,-58.817,-173.46,-69.759,20.508,-3.9512e-13,-1.28e-16,115.22,-177.03,-69.759,-55.241,0,0.017033,0,1,3.19,0,-3.19,0
0,0,0,0,0,0,7.1009e-05,-0.00067339,4.8265e-36,0.00013287,-2.5844e-18,-8.2605e-22,15.487,0.00074803,-0.00069651,9.0188e-33,9.4126e-05,-58.629,-172.96,-69.551,20.425,-3.9721e-13,-1.2984e-16,114.89,-176.51,-69.551,-55.072,0,0.017037,0,1,3.195,0,-3.195,0
0,0,0,0,0,0,7.0883e-05,-0.00067147,4.8187e-36,0.00013234,-2.5981e-18,-8.3795e-22,15.407,0.00074585,-0.00069446,9.0595e-33,9.3875e-05,-58.44,-172.46,-69.344,20.342,-3.993e-13,-1.3168e-16,114.55,-175.99,-69.344,-54.903,0,0.017041,0,1,3.2,0,-3.2,0
0,0,0,0,0,0,7.0757e-05,-0.00066955,4.8109e-36,0.0001318,-2.6117e-18,-8.4986e-22,15.328,0.00074366,-0.00069242,9.1003e-33,9.3624e-05,-58.252,-171.95,-69.136,20.26,-4.0139e-13,-1.3352e-16,114.22,-175.47,-69.136,-54.734,0,0.017045,0,1,3.205,0,-3.205,0
0,0,0,0,0,0,7.0631e-05,-0.00066763,4.8031e-36,0.00013126,-2.6253e-18,-8.6177e-22,15.248,0.00074148,-0.00069037,9.141e-33,9.3372e-05,-58.064,-171.45,-68.929,20.177,-4.0348e-13,-1.3536e-16,113.89,-174.95,-68.929,-54.566,0,0.017048,0,1,3.21,0,-3.21,0
0,0,0,0,0,0,7.0505e-05,-0.00066571,4.7953e-36,0.00013072,-2.6389e-18,-8.7367e-22,15.169,0.0007393,-0.00068832,9.1818e-33,9.3121e-05,-57.876,-170.95,-68.721,20.095,-4.0557e-13,-1.372e-16,113.55,-174.43,-68.721,-54.397,0,0.017052,0,1,3.215,0,-3.215,0
0,0,0,0,0,0,7.0379e-05,-0.00066379,4.7875e-36,0.00013018,-2.6525e-18,-8.8558e-22,15.09,0.00073711,-0.00068628,9.2225e-33,9.287e-05,-57.688,-170.45,-68.514,20.012,-4.0766e-13,-1.3903e-16,113.22,-173.91,-68.514,-54.228,0,0.017056,0,1,3.22,0,-3.22,0
0,0,0,0,0,0,7.0253e-05,-0.00066186,4.7797e-36,0.00012965,-2.6661e-18,-8.9749e-22,15.01,0.00073493,-0.00068423,9.2633e-33,9.2619e-05,-57.5,-169.95,-68.306,19.929,-4.0975e-13,-1.4087e-16,112.88,-173.39,-68.306,-54.059,0,0.01706,0,1,3.225,0,-3.225,0
0,0,0,0,0,0,7.0128e-05,-0.00065994,4.772e-36,0.00012911,-2.6797e-18,-9.0939e-22,14.931,0.00073275,-0.00068218,9.304e-33,9.2368e-05,-57.311,-169.44,-68.099,19.847,-4.1185e-13,-1.4271e-16,112.55,-172.87,-68.099,-53.89,0,0.017064,0,1,3.23,0,-3.23,0
0,0,0,0,0,0,7.0002e-05,-0.00065802,4.7642e-36,0.00012857,-2.6933e-18,-9.213e-22,14.851,0.00073056,-0.00068014,9.3448e-33,9.2117e-05,-57.123,-168.94,-67.891,19.764,-4.1394e-13,-1.4455e-16,112.21,-172.35,-67.891,-53.721,0,0.017067,0,1,3.235,0,-3.235,0
0,0,0,0,0,0,6.9876e-05,-0.0006561,4.7564e-36,0.00012803,-2.7069e-18,-9.3321e-22,14.772,0.00072838,-0.00067809,9.3855e-33,9.1865e-05,-56.935,-168.44,-67.683,19.682,-4.1603e-13,-1.4639e-16,111.88,-171.82,-67.683,-53.552,0,0.017071,0,1,3.24,0,-3.24,0
0,0,0,0,0,0,6.975e-05,-0.00065418,4.7486e-36,0.00012749,-2.7205e-18,-9.4511e-22,14.692,0.0007262,-0.00067604,9.4263e-33,9.1614e-05,-56.747,-167.94,-67.476,19.599,-4.1812e-13,-1.4823e-16,111.54,-171.3,-67.476,-53.383,0,0.017075,0,1,3.245,0,-3.245,0
0,0,0,0,0,0,6.9624e-05,-0.00065226,4.7408e-36,0.00012696,-2.7341e-18,-9.5702e-22,14.613,0.00072401,-0.00067399,9.467e-33,9.1363e-05,-56.559,-167.44,-67.268,19.516,-4.2021e-13,-1.5007e-16,111.21,-170.78,-67.268,-53.214,0,0.017079,0,1,3.25,0,-3.25,0
0,0,0,0,0,0,6.9498e-05,-0.00065033,4.733e-36,0.00012642,-2.7477e-18,-9.6893e-22,14.534,0.00072183,-0.00067195,9.5078e-33,9.1112e-05,-56.371,-166.94,-67.061,19.434,-4.223e-13,-1.5191e-16,110.87,-170.26,-67.061,-53.045,0,0.017082,0,1,3.255,0,-3.255,0
0,0,0,0,0,0,6.9372e-05,-0.00064841,4.7252e-36,0.00012588,-2.7613e-18,-9.8083e-22,14.454,0.00071965,-0.0006699,9.5485e-33,9.0861e-05,-56.182,-166.43,-66.853,19.351,-4.2439e-13,-1.5374e-16,110.54,-169.74,-66.853,-52.876,0,0.017086,0,1,3.26,0,-3.26,0
0,0,0,0,0,0,6.9246e-05,-0.00064649,4.7175e-36,0.00012534,-2.7749e-18,-9.9274e-22,14.375,0.00071746,-0.00066785,9.5893e-33,9.061e-05,-55.994,-165.93,-66.646,19.269,-4.2648e-13,-1.5558e-16,110.21,-169.22,-66.646,-52.708,0,0.01709,0,1,3.265,0,-3.265,0
0,0,0,0,0,0,6.912e-05,-0.00064457,4.7097e-36,0.00012481,-2.7885e-18,-1.0046e-21,14.295,0.00071528,-0.00066581,9.63e-33,9.0358e-05,-55.806,-165.43,-66.438,19.186,-4.2857e-13,-1.5742e-16,109.87,-168.7,-66.438,-52.539,0,0.017094,0,1,3.27,0,-3.27,0
0,0,0,0,0,0,6.8994e-05,-0.00064265,4.7019e-36,0.00012427,-2.8021e-18,-1.0166e-21,14.216,0.0007131,-0.00066376,9.6708e-33,9.0107e-05,-55.618,-164.93,-66.231,19.103,-4.3067e-13,-1.5926e-16,109.54,-168.18,-66.231,-52.37,0,0.017098,0,1,3.275,0,-3.275,0
0,0,0,0,0,0,6.8868e-05,-0.00064073,4.6941e-36,0.00012373,-2.8157e-18,-1.0285e-21,14.137,0.00071091,-0.00066171,9.7115e-33,8.9856e-05,-55.43,-164.43,-66.023,19.021,-4.3276e-13,-1.611e-16,109.2,-167.66,-66.023,-52.201,0,0.017101,0,1,3.28,0,-3.28,0
0,0,0,0,0,0,6.8742e-05,-0.0006388,4.6863e-36,0.00012319,-2.8293e-18,-1.0404e-21,14.057,0.00070873,-0.00065967,9.7523e-33,8.9605e-05,-55.242,-163.93,-65.816,18.938,-4.3485e-13,-1.6294e-16,108.87,-167.13,-65.816,-52.032,0,0.017105,0,1,3.285,0,-3.285,0
0,0,0,0,0,0,6.8616e-05,-0.00063688,4.6785e-36,0.00012265,-2.8429e-18,-1.0523e-21,13.978,0.00070655,-0.00065762,9.793e-33,8.9354e-05,-55.053,-163.42,-65.608,18.856,-4.3694e-13,-1.6478e-16,108.53,-166.61,-65.608,-51.863,0,0.017109,0,1,3.29,0,-3.29,0
0,0,0,0,0,0,6.849e-05,-0.00063496,4.6707e-36,0.00012212,-2.8565e-18,-1.0642e-21,13.898,0.00070436,-0.00065557,9.8338e-33,8.9103e-05,-54.865,-162.92,-65.401,18.773,-4.3903e-13,-1.6662e-16,108.2,-166.09,-65.401,-51.694,0,0.017113,0,1,3.295,0,-3.295,0
0,0,0,0,0,0,6.8364e-05,-0.00063304,4.663e-36,0.00012158,-2.8701e-18,-1.0761e-21,13.819,0.00070218,-0.00065353,9.8745e-33,8.8851e-05,-54.677,-162.42,-65.193,18.69,-4.4112e-13,-1.6845e-16,107.86,-165.57,-65.193,-51.525,0,0.017117,0,1,3.3,0,-3.3,0
0,0,0,0,0,0,6.8238e-05,-0.00063112,4.6552e-36,0.00012104,-2.8837e-18,-1.088e-21,13.74,0.0007,-0.00065148,9.9153e-33,8.86e-05,-54.489,-161.92,-64.986,18.608,-4.4321e-13,-1.7029e-16,107.53,-165.05,-64.986,-51.356,0,0.01712,0,1,3.305,0,-3.305,0
0,0,0,0,0,0,6.8112e-05,-0.0006292,4.6474e-36,0.0001205,-2.8973e-18,-1.0999e-21,13.66,0.00069781,-0.00064943,9.956e-33,8.8349e-05,-54.301,-161.42,-64.778,18.525,-4.453e-13,-1.7213e-16,107.19,-164.53,-64.778,-51.187,0,0.017124,0,1,3.31,0,-3.31,0
0,0,0,0,0,0,6.8062e-05,-0.00062846,4.6387e-36,0.00012031,-2.8789e-18,-1.0882e-21,13.635,0.00069699,-0.00064866,9.9473e-33,8.8259e-05,-54.23,-161.23,-64.699,18.496,-4.4247e-13,-1.7033e-16,107.07,-164.33,-64.699,-51.122,0,0.017127,0,1,3.315,0,-3.315,0
0,0,0,0,0,0,6.8012e-05,-0.00062773,4.63e-36,0.00012012,-2.8605e-18,-1.0766e-21,13.611,0.00069618,-0.00064789,9.9385e-33,8.817e-05,-54.159,-161.03,-64.621,18.467,-4.3965e-13,-1.6852e-16,106.94,-164.14,-64.621,-51.058,0,0.017129,0,1,3.32,0,-3.32,0
0,0,0,0,0,0,6.7961e-05,-0.000627,4.6213e-36,0.00011993,-2.8421e-18,-1.0649e-21,13.586,0.00069536,-0.00064712,9.9298e-33,8.808e-05,-54.088,-160.84,-64.542,18.438,-4.3682e-13,-1.6671e-16,106.82,-163.94,-64.542,-50.993,0,0.017132,0,1,3.325,0,-3.325,0
0,0,0,0,0,0,6.7911e-05,-0.00062627,4.6127e-36,0.00011974,-2.8237e-18,-1.0532e-21,13.561,0.00069454,-0.00064635,9.921e-33,8.7991e-05,-54.017,-160.65,-64.463,18.408,-4.3399e-13,-1.649e-16,106.69,-163.74,-64.463,-50.928,0,0.017134,0,1,3.33,0,-3.33,0
0,0,0,0,0,0,6.7861e-05,-0.00062554,4.604e-36,0.00011955,-2.8053e-18,-1.0416e-21,13.536,0.00069372,-0.00064558,9.9122e-33,8.7901e-05,-53.946,-160.46,-64.385,18.379,-4.3116e-13,-1.631e-16,106.57,-163.54,-64.385,-50.863,0,0.017137,0,1,3.335,0,-3.335,0
0,0,0,0,0,0,6.781e-05,-0.0006248,4.5953e-36,0.00011936,-2.7869e-18,-1.0299e-21,13.512,0.0006929,-0.00064481,9.9035e-33,8.7812e-05,-53.875,-160.27,-64.306,18.35,-4.2833e-13,-1.6129e-16,106.44,-163.35,-64.306,-50.798,0,0.017139,0,1,3.34,0,-3.34,0
0,0,0,0,0,0,6.776e-05,-0.00062407,4.5866e-36,0.00011917,-2.7685e-18,-1.0183e-21,13.487,0.00069208,-0.00064404,9.8947e-33,8.7722e-05,-53.804,-160.08,-64.227,18.321,-4.2551e-13,-1.5948e-16,106.31,-163.15,-64.227,-50.733,0,0.017142,0,1,3.345,0,-3.345,0
0,0,0,0,0,0,6.771e-05,-0.00062334,4.578e-36,0.00011898,-2.7501e-18,-1.0066e-21,13.462,0.00069126,-0.00064326,9.886e-33,8.7632e-05,-53.733,-159.89,-64.148,18.292,-4.2268e-13,-1.5768e-16,106.19,-162.95,-64.148,-50.668,0,0.017144,0,1,3.35,0,-3.35,0
0,0,0,0,0,0,6.7659e-05,-0.00062261,4.5693e-36,0.00011879,-2.7317e-18,-9.9493e-22,13.437,0.00069044,-0.00064249,9.8772e-33,8.7543e-05,-53.662,-159.7,-64.07,18.262,-4.1985e-13,-1.5587e-16,106.06,-162.76,-64.07,-50.603,0,0.017147,0,1,3.355,0,-3.355,0
0,0,0,0,0,0,6.7609e-05,-0.00062188,4.5606e-36,0.0001186,-2.7133e-18,-9.8327e-22,13.413,0.00068962,-0.00064172,9.8684e-33,8.7453e-05,-53.591,-159.51,-63.991,18.233,-4.1702e-13,-1.5406e-16,105.94,-162.56,-63.991,-50.538,0,0.017149,0,1,3.36,0,-3.36,0
0,0,0,0,0,0,6.7559e-05,-0.00062115,4.5519e-36,0.00011841,-2.6949e-18,-9.716e-22,13.388,0.0006888,-0.00064095,9.8597e-33,8.7364e-05,-53.52,-159.32,-63.912,18.204,-4.1419e-13,-1.5226e-16,105.81,-162.36,-63.912,-50.473,0,0.017152,0,1,3.365,0,-3.365,0
0,0,0,0,0,0,6.7508e-05,-0.00062041,4.5432e-36,0.00011822,-2.6765e-18,-9.5994e-22,13.363,0.00068798,-0.00064018,9.8509e-33,8.7274e-05,-53.449,-159.12,-63.834,18.175,-4.1136e-13,-1.5045e-16,105.69,-162.17,-63.834,-50.408,0,0.017154,0,1,3.37,0,-3.37,0
0,0,0,0,0,0,6.7458e-05,-0.00061968,4.5346e-36,0.00011803,-2.6581e-18,-9.4828e-22,13.338,0.00068716,-0.00063941,9.8421e-33,8.7184e-05,-53.378,-158.93,-63.755,18.145,-4.0854e-13,-1.4864e-16,105.56,-161.97,-63.755,-50.343,0,0.017157,0,1,3.375,0,-3.375,0
0,0,0,0,0,0,6.7408e-05,-0.00061895,4.5259e-36,0.00011784,-2.6397e-18,-9.3661e-22,13.314,0.00068634,-0.00063864,9.8334e-33,8.7095e-05,-53.307,-158.74,-63.676,18.116,-4.0571e-13,-1.4684e-16,105.43,-161.77,-63.676,-50.279,0,0.017159,0,1,3.38,0,-3.38,0
0,0,0,0,0,0,6.7357e-05,-0.00061822,4.5172e-36,0.00011765,-2.6213e-18,-9.2495e-22,13.289,0.00068552,-0.00063787,9.8246e-33,8.7005e-05,-53.236,-158.55,-63.598,18.087,-4.0288e-13,-1.4503e-16,105.31,-161.57,-63.598,-50.214,0,0.017162,0,1,3.385,0,-3.385,0
0,0,0,0,0,0,6.7307e-05,-0.00061749,4.5085e-36,0.00011746,-2.6029e-18,-9.1328e-22,13.264,0.00068471,-0.0006371,9.8159e-33,8.6916e-05,-53.166,-158.36,-63.519,18.058,-4.0005e-13,-1.4322e-16,105.18,-161.38,-63.519,-50.149,0,0.017164,0,1,3.39,0,-3.39,0
0,0,0,0,0,0,6.7257e-05,-0.00061676,4.4998e-36,0.00011727,-2.5845e-18,-9.0162e-22,13.239,0.00068389,-0.00063633,9.8071e-33,8.6826e-05,-53.095,-158.17,-63.44,18.029,-3.9722e-13,-1.4142e-16,105.06,-161.18,-63.44,-50.084,0,0.017167,0,1,3.395,0,-3.395,0
0,0,0,0,0,0,6.7206e-05,-0.00061602,4.4912e-36,0.00011708,-2.5661e-18,-8.8996e-22,13.215,0.00068307,-0.00063555,9.7983e-33,8.6737e-05,-53.024,-157.98,-63.361,17.999,-3.944e-13,-1.3961e-16,104.93,-160.98,-63.361,-50.019,0,0.017169,0,1,3.4,0,-3.4,0
0,0,0,0,0,0,6.7156e-05,-0.00061529,4.4825e-36,0.00011689,-2.5477e-18,-8.7829e-22,13.19,0.00068225,-0.00063478,9.7896e-33,8.6647e-05,-52.953,-157.79,-63.283,17.97,-3.9157e-13,-1.378e-16,104.81,-160.79,-63.283,-49.954,0,0.017172,0,1,3.405,0,-3.405,0
0,0,0,0,0,0,6.7106e-05,-0.00061456,4.4738e-36,0.0001167,-2.5293e-18,-8.6663e-22,13.165,0.00068143,-0.00063401,9.7808e-33,8.6557e-05,-52.882,-157.6,-63.204,17.941,-3.8874e-13,-1.36e-16,104.68,-160.59,-63.204,-49.889,0,0.017174,0,1,3.41,0,-3.41,0
0,0,0,0,0,0,6.7055e-05,-0.00061383,4.4651e-36,0.00011651,-2.5109e-18,-8.5497e-22,13.14,0.00068061,-0.00063324,9.7721e-33,8.6468e-05,-52.811,-157.41,-63.125,17.912,-3.8591e-13,-1.3419e-16,104.55,-160.39,-63.125,-49.824,0,0.017177,0,1,3.415,0,-3.415,0
0,0,0,0,0,0,6.7005e-05,-0.0006131,4.4565e-36,0.00011632,-2.4925e-18,-8.433e-22,13.116,0.00067979,-0.00063247,9.7633e-33,8.6378e-05,-52.74,-157.22,-63.047,17.882,-3.8308e-13,-1.3238e-16,104.43,-160.2,-63.047,-49.759,0,0.017179,0,1,3.42,0,-3.42,0
0,0,0,0,0,0,6.6955e-05,-0.00061237,4.4478e-36,0.00011613,-2.4741e-18,-8.3164e-22,13.091,0.00067897,-0.0006317,9.7545e-33,8.6289e-05,-52.669,-157.02,-62.968,17.853,-3.8025e-13,-1.3058e-16,104.3,-160,-62.968,-49.694,0,0.017182,0,1,3.425,0,-3.425,0
0,0,0,0,0,0,6.6904e-05,-0.00061163,4.4391e-36,0.00011594,-2.4557e-18,-8.1998e-22,13.066,0.00067815,-0.00063093,9.7458e-33,8.6199e-05,-52.598,-156.83,-62.889,17.824,-3.7743e-13,-1.2877e-16,104.18,-159.8,-62.889,-49.629,0,0.017184,0,1,3.43,0,-3.43,0
0,0,0,0,0,0,6.6854e-05,-0.0006109,4.4304e-36,0.00011575,-2.4373e-18,-8.0831e-22,13.041,0.00067733,-0.00063016,9.737e-33,8.6109e-05,-52.527,-156.64,-62.811,17.795,-3.746e-13,-1.2696e-16,104.05,-159.6,-62.811,-49.564,0,0.017187,0,1,3.435,0,-3.435,0
0,0,0,0,0,0,6.6804e-05,-0.00061017,4.4217e-36,0.00011556,-2.4189e-18,-7.9665e-22,13.017,0.00067651,-0.00062939,9.7282e-33,8.602e-05,-52.456,-156.45,-62.732,17.766,-3.7177e-13,-1.2516e-16,103.93,-159.41,-62.732,-49.5,0,0.017189,0,1,3.44,0,-3.44,0
0,0,0,0,0,0,6.6753e-05,-0.00060944,4.4131e-36,0.00011537,-2.4005e-18,-7.8499e-22,12.992,0.00067569,-0.00062862,9.7195e-33,8.593e-05,-52.385,-156.26,-62.653,17.736,-3.6894e-13,-1.2335e-16,103.8,-159.21,-62.653,-49.435,0,0.017192,0,1,3.445,0,-3.445,0
0,0,0,0,0,0,6.6703e-05,-0.00060871,4.4044e-36,0.00011518,-2.3821e-18,-7.7332e-22,12.967,0.00067487,-0.00062785,9.7107e-33,8.5841e-05,-52.314,-156.07,-62.575,17.707,-3.6611e-13,-1.2154e-16,103.67,-159.01,-62.575,-49.37,0,0.017194,0,1,3.45,0,-3.45,0
0,0,0,0,0,0,6.6653e-05,-0.00060798,4.3957e-36,0.00011499,-2.3637e-18,-7.6166e-22,12.942,0.00067405,-0.00062707,9.702e-33,8.5751e-05,-52.243,-155.88,-62.496,17.678,-3.6329e-13,-1.1974e-16,103.55,-158.82,-62.496,-49.305,0,0.017197,0,1,3.455,0,-3.455,0
0,0,0,0,0,0,6.6602e-05,-0.00060724,4.387e-36,0.0001148,-2.3453e-18,-7.5e-22,12.918,0.00067324,-0.0006263,9.6932e-33,8.5662e-05,-52.172,-155.69,-62.417,17.649,-3.6046e-13,-1.1793e-16,103.42,-158.62,-62.417,-49.24,0,0.017199,0,1,3.46,0,-3.46,0
0,0,0,0,0,0,6.6552e-05,-0.00060651,4.3784e-36,0.00011461,-2.3269e-18,-7.3833e-22,12.893,0.00067242,-0.00062553,9.6844e-33,8.5572e-05,-52.101,-155.5,-62.338,17.619,-3.5763e-13,-1.1612e-16,103.3,-158.42,-62.338,-49.175,0,0.017202,0,1,3.465,0,-3.465,0
0,0,0,0,0,0,6.6502e-05,-0.00060578,4.3697e-36,0.00011442,-2.3085e-18,-7.2667e-22,12.868,0.0006716,-0.00062476,9.6757e-33,8.5482e-05,-52.03,-155.31,-62.26,17.59,-3.548e-13,-1.1432e-16,103.17,-158.23,-62.26,-49.11,0,0.017204,0,1,3.47,0,-3.47,0
0,0,0,0,0,0,6.6451e-05,-0.00060505,4.361e-36,0.00011423,-2.2901e-18,-7.1501e-22,12.843,0.00067078,-0.00062399,9.6669e-33,8.5393e-05,-51.959,-155.12,-62.181,17.561,-3.5197e-13,-1.1251e-16,103.05,-158.03,-62.181,-49.045,0,0.017207,0,1,3.475,0,-3.475,0
0,0,0,0,0,0,6.6401e-05,-0.00060432,4.3523e-36,0.00011404,-2.2717e-18,-7.0334e-22,12.819,0.00066996,-0.00062322,9.6582e-33,8.5303e-05,-51.888,-154.92,-62.102,17.532,-3.4914e-13,-1.107e-16,102.92,-157.83,-62.102,-48.98,0,0.017209,0,1,3.48,0,-3.48,0
0,0,0,0,0,0,6.6351e-05,-0.00060359,4.3436e-36,0.00011385,-2.2533e-18,-6.9168e-22,12.794,0.00066914,-0.00062245,9.6494e-33,8.5214e-05,-51.817,-154.73,-62.024,17.503,-3.4632e-13,-1.089e-16,102.79,-157.64,-62.024,-48.915,0,0.017212,0,1,3.485,0,-3.485,0
0,0,0,0,0,0,6.63e-05,-0.00060285,4.335e-36,0.00011366,-2.2349e-18,-6.8002e-22,12.769,0.00066832,-0.00062168,9.6406e-33,8.5124e-05,-51.746,-154.54,-61.945,17.473,-3.4349e-13,-1.0709e-16,102.67,-157.44,-61.945,-48.85,0,0.017214,0,1,3.49,0,-3.49,0
0,0,0,0,0,0,6.625e-05,-0.00060212,4.3263e-36,0.00011347,-2.2165e-18,-6.6835e-22,12.744,0.0006675,-0.00062091,9.6319e-33,8.5035e-05,-51.675,-154.35,-61.866,17.444,-3.4066e-13,-1.0528e-16,102.54,-157.24,-61.866,-48.785,0,0.017217,0,1,3.495,0,-3.495,0
0,0,0,0,0,0,6.62e-05,-0.00060139,4.3176e-36,0.00011328,-2.1981e-18,-6.5669e-22,12.72,0.00066668,-0.00062014,9.6231e-33,8.4945e-05,-51.604,-154.16,-61.788,17.415,-3.3783e-13,-1.0347e-16,102.42,-157.04,-61.788,-48.721,0,0.01722,0,1,3.5,0,-3.5,0
0,0,0,0,0,0,6.6149e-05,-0.00060066,4.3089e-36,0.00011309,-2.1797e-18,-6.4503e-22,12.695,0.00066586,-0.00061937,9.6143e-33,8.4855e-05,-51.534,-153.97,-61.709,17.386,-3.35e-13,-1.0167e-16,102.29,-156.85,-61.709,-48.656,0,0.017222,0,1,3.505,0,-3.505,0
0,0,0,0,0,0,6.6099e-05,-0.00059993,4.3002e-36,0.0001129,-2.1613e-18,-6.3336e-22,12.67,0.00066504,-0.00061859,9.6056e-33,8.4766e-05,-51.463,-153.78,-61.63,17.356,-3.3218e-13,-9.9861e-17,102.17,-156.65,-61.63,-48.591,0,0.017225,0,1,3.51,0,-3.51,0
0,0,0,0,0,0,6.6049e-05,-0.0005992,4.2916e-36,0.00011271,-2.1429e-18,-6.217e-22,12.645,0.00066422,-0.00061782,9.5968e-33,8.4676e-05,-51.392,-153.59,-61.551,17.327,-3.2935e-13,-9.8055e-17,102.04,-156.45,-61.551,-48.526,0,0.017227,0,1,3.515,0,-3.515,0
0,0,0,0,0,0,6.5998e-05,-0.00059846,4.2829e-36,0.00011252,-2.1245e-18,-6.1004e-22,12.621,0.0006634,-0.00061705,9.5881e-33,8.4587e-05,-51.321,-153.4,-61.473,17.298,-3.2652e-13,-9.6248e-17,101.91,-156.26,-61.473,-48.461,0,0.01723,0,1,3.52,0,-3.52,0
0,0,0,0,0,0,6.5948e-05,-0.00059773,4.2742e-36,0.00011233,-2.1061e-18,-5.9837e-22,12.596,0.00066258,-0.00061628,9.5793e-33,8.4497e-05,-51.25,-153.21,-61.394,17.269,-3.2369e-13,-9.4441e-17,101.79,-156.06,-61.394,-48.396,0,0.017232,0,1,3.525,0,-3.525,0
0,0,0,0,0,0,6.5898e-05,-0.000597,4.2655e-36,0.00011214,-2.0877e-18,-5.8671e-22,12.571,0.00066177,-0.00061551,9.5705e-33,8.4407e-05,-51.179,-153.01,-61.315,17.24,-3.2086e-13,-9.2634e-17,101.66,-155.86,-61.315,-48.331,0,0.017235,0,1,3.53,0,-3.53,0
0,0,0,0,0,0,6.5847e-05,-0.00059627,4.2569e-36,0.00011195,-2.0693e-18,-5.7504e-22,12.546,0.00066095,-0.00061474,9.5618e-33,8.4318e-05,-51.108,-152.82,-61.237,17.21,-3.1803e-13,-9.0827e-17,101.54,-155.67,-61.237,-48.266,0,0.017237,0,1,3.535,0,-3.535,0
0,0,0,0,0,0,6.5797e-05,-0.00059554,4.2482e-36,0.00011176,-2.0509e-18,-5.6338e-22,12.522,0.00066013,-0.00061397,9.553e-33,8.4228e-05,-51.037,-152.63,-61.158,17.181,-3.1521e-13,-8.9021e-17,101.41,-155.47,-61.158,-48.201,0,0.01724,0,1,3.54,0,-3.54,0
0,0,0,0,0,0,6.5747e-05,-0.00059481,4.2395e-36,0.00011157,-2.0325e-18,-5.5172e-22,12.497,0.00065931,-0.0006132,9.5443e-33,8.4139e-05,-50.966,-152.44,-61.079,17.152,-3.1238e-13,-8.7214e-17,101.29,-155.27,-61.079,-48.136,0,0.017242,0,1,3.545,0,-3.545,0
0,0,0,0,0,0,6.5696e-05,-0.00059407,4.2308e-36,0.00011137,-2.0141e-18,-5.4005e-22,12.472,0.00065849,-0.00061243,9.5355e-33,8.4049e-05,-50.895,-152.25,-61.001,17.123,-3.0955e-13,-8.5407e-17,101.16,-155.07,-61.001,-48.071,0,0.017245,0,1,3.55,0,-3.55,0
0,0,0,0,0,0,6.5646e-05,-0.00059334,4.2221e-36,0.00011118,-1.9958e-18,-5.2839e-22,12.448,0.00065767,-0.00061166,9.5267e-33,8.396e-05,-50.824,-152.06,-60.922,17.093,-3.0672e-13,-8.36e-17,101.03,-154.88,-60.922,-48.006,0,0.017247,0,1,3.555,0,-3.555,0
0,0,0,0,0,0,6.5596e-05,-0.00059261,4.2135e-36,0.00011099,-1.9774e-18,-5.1673e-22,12.423,0.00065685,-0.00061088,9.518e-33,8.387e-05,-50.753,-151.87,-60.843,17.064,-3.0389e-13,-8.1794e-17,100.91,-154.68,-60.843,-47.942,0,0.01725,0,1,3.56,0,-3.56,0
0,0,0,0,0,0,6.5545e-05,-0.00059188,4.2048e-36,0.0001108,-1.959e-18,-5.0506e-22,12.398,0.00065603,-0.00061011,9.5092e-33,8.378e-05,-50.682,-151.68,-60.765,17.035,-3.0106e-13,-7.9987e-17,100.78,-154.48,-60.765,-47.877,0,0.017252,0,1,3.565,0,-3.565,0
0,0,0,0,0,0,6.5495e-05,-0.00059115,4.1961e-36,0.00011061,-1.9406e-18,-4.934e-22,12.373,0.00065521,-0.00060934,9.5004e-33,8.3691e-05,-50.611,-151.49,-60.686,17.006,-2.9824e-13,-7.818e-17,100.66,-154.29,-60.686,-47.812,0,0.017255,0,1,3.57,0,-3.57,0
0,0,0,0,0,0,6.5445e-05,-0.00059042,4.1874e-36,0.00011042,-1.9222e-18,-4.8174e-22,12.349,0.00065439,-0.00060857,9.4917e-33,8.3601e-05,-50.54,-151.3,-60.607,16.977,-2.9541e-13,-7.6373e-17,100.53,-154.09,-60.607,-47.747,0,0.017257,0,1,3.575,0,-3.575,0
0,0,0,0,0,0,6.5394e-05,-0.00058968,4.1788e-36,0.00011023,-1.9038e-18,-4.7007e-22,12.324,0.00065357,-0.0006078,9.4829e-33,8.3512e-05,-50.469,-151.11,-60.528,16.947,-2.9258e-13,-7.4567e-17,100.41,-153.89,-60.528,-47.682,0,0.01726,0,1,3.58,0,-3.58,0
0,0,0,0,0,0,6.5344e-05,-0.00058895,4.1701e-36,0.00011004,-1.8854e-18,-4.5841e-22,12.299,0.00065275,-0.00060703,9.4742e-33,8.3422e-05,-50.398,-150.91,-60.45,16.918,-2.8975e-13,-7.276e-17,100.28,-153.7,-60.45,-47.617,0,0.017262,0,1,3.585,0,-3.585,0
0,0,0,0,0,0,6.5294e-05,-0.00058822,4.1614e-36,0.00010985,-1.867e-18,-4.4675e-22,12.274,0.00065193,-0.00060626,9.4654e-33,8.3332e-05,-50.327,-150.72,-60.371,16.889,-2.8692e-13,-7.0953e-17,100.15,-153.5,-60.371,-47.552,0,0.017265,0,1,3.59,0,-3.59,0
0,0,0,0,0,0,6.5243e-05,-0.00058749,4.1527e-36,0.00010966,-1.8486e-18,-4.3508e-22,12.25,0.00065111,-0.00060549,9.4566e-33,8.3243e-05,-50.256,-150.53,-60.292,16.86,-2.841e-13,-6.9146e-17,100.03,-153.3,-60.292,-47.487,0,0.017267,0,1,3.595,0,-3.595,0
0,0,0,0,0,0,6.5193e-05,-0.00058676,4.144e-36,0.00010947,-1.8302e-18,-4.2342e-22,12.225,0.0006503,-0.00060472,9.4479e-33,8.3153e-05,-50.185,-150.34,-60.214,16.83,-2.8127e-13,-6.734e-17,99.903,-153.1,-60.214,-47.422,0,0.01727,0,1,3.6,0,-3.6,0
0,0,0,0,0,0,6.5143e-05,-0.00058603,4.1354e-36,0.00010928,-1.8118e-18,-4.1176e-22,12.2,0.00064948,-0.00060395,9.4391e-33,8.3064e-05,-50.114,-150.15,-60.135,16.801,-2.7844e-13,-6.5533e-17,99.777,-152.91,-60.135,-47.357,0,0.017272,0,1,3.605,0,-3.605,0
0,0,0,0,0,0,6.5092e-05,-0.00058529,4.1267e-36,0.00010909,-1.7934e-18,-4.0009e-22,12.175,0.00064866,-0.00060318,9.4304e-33,8.2974e-05,-50.043,-149.96,-60.056,16.772,-2.7561e-13,-6.3726e-17,99.652,-152.71,-60.056,-47.292,0,0.017275,0,1,3.61,0,-3.61,0
0,0,0,0,0,0,6.5042e-05,-0.00058456,4.118e-36,0.0001089,-1.775e-18,-3.8843e-22,12.151,0.00064784,-0.0006024,9.4216e-33,8.2885e-05,-49.973,-149.77,-59.978,16.743,-2.7278e-13,-6.1919e-17,99.526,-152.51,-59.978,-47.227,0,0.017277,0,1,3.615,0,-3.615,0
0,0,0,0,0,0,6.4992e-05,-0.00058383,4.1093e-36,0.00010871,-1.7566e-18,-3.7677e-22,12.126,0.00064702,-0.00060163,9.4128e-33,8.2795e-05,-49.902,-149.58,-59.899,16.714,-2.6995e-13,-6.0113e-17,99.4,-152.32,-59.899,-47.163,0,0.01728,0,1,3.62,0,-3.62,0
0,0,0,0,0,0,6.4941e-05,-0.0005831,4.1006e-36,0.00010852,-1.7382e-18,-3.651e-22,12.101,0.0006462,-0.00060086,9.4041e-33,8.2705e-05,-49.831,-149.39,-59.82,16.684,-2.6713e-13,-5.8306e-17,99.275,-152.12,-59.82,-47.098,0,0.017282,0,1,3.625,0,-3.625,0
0,0,0,0,0,0,6.4891e-05,-0.00058237,4.092e-36,0.00010833,-1.7198e-18,-3.5344e-22,12.076,0.00064538,-0.00060009,9.3953e-33,8.2616e-05,-49.76,-149.2,-59.741,16.655,-2.643e-13,-5.6499e-17,99.149,-151.92,-59.741,-47.033,0,0.017285,0,1,3.63,0,-3.63,0
0,0,0,0,0,0,6.4841e-05,-0.00058164,4.0833e-36,0.00010814,-1.7014e-18,-3.4178e-22,12.052,0.00064456,-0.00059932,9.3866e-33,8.2526e-05,-49.689,-149,-59.663,16.626,-2.6147e-13,-5.4692e-17,99.023,-151.73,-59.663,-46.968,0,0.017287,0,1,3.635,0,-3.635,0
0,0,0,0,0,0,6.479e-05,-0.0005809,4.0746e-36,0.00010795,-1.683e-18,-3.3011e-22,12.027,0.00064374,-0.00059855,9.3778e-33,8.2437e-05,-49.618,-148.81,-59.584,16.597,-2.5864e-13,-5.2885e-17,98.897,-151.53,-59.584,-46.903,0,0.01729,0,1,3.64,0,-3.64,0
0,0,0,0,0,0,6.474e-05,-0.00058017,4.0659e-36,0.00010776,-1.6646e-18,-3.1845e-22,12.002,0.00064292,-0.00059778,9.369e-33,8.2347e-05,-49.547,-148.62,-59.505,16.567,-2.5581e-13,-5.1079e-17,98.772,-151.33,-59.505,-46.838,0,0.017292,0,1,3.645,0,-3.645,0
0,0,0,0,0,0,6.469e-05,-0.00057944,4.0573e-36,0.00010757,-1.6462e-18,-3.0679e-22,11.977,0.0006421,-0.00059701,9.3603e-33,8.2258e-05,-49.476,-148.43,-59.427,16.538,-2.5299e-13,-4.9272e-17,98.646,-151.13,-59.427,-46.773,0,0.017295,0,1,3.65,0,-3.65,0
0,0,0,0,0,0,6.4639e-05,-0.00057871,4.0486e-36,0.00010738,-1.6278e-18,-2.9512e-22,11.953,0.00064128,-0.00059624,9.3515e-33,8.2168e-05,-49.405,-148.24,-59.348,16.509,-2.5016e-13,-4.7465e-17,98.52,-150.94,-59.348,-46.708,0,0.017297,0,1,3.655,0,-3.655,0
0,0,0,0,0,0,6.4589e-05,-0.00057798,4.0399e-36,0.00010719,-1.6094e-18,-2.8346e-22,11.928,0.00064046,-0.00059547,9.3427e-33,8.2078e-05,-49.334,-148.05,-59.269,16.48,-2.4733e-13,-4.5658e-17,98.395,-150.74,-59.269,-46.643,0,0.0173,0,1,3.66,0,-3.66,0
0,0,0,0,0,0,6.4539e-05,-0.00057724,4.0312e-36,0.000107,-1.591e-18,-2.718e-22,11.903,0.00063965,-0.0005947,9.334e-33,8.1989e-05,-49.263,-147.86,-59.191,16.451,-2.445e-13,-4.3852e-17,98.269,-150.54,-59.191,-46.578,0,0.017302,0,1,3.665,0,-3.665,0
0,0,0,0,0,0,6.4488e-05,-0.00057651,4.0225e-36,0.00010681,-1.5726e-18,-2.6013e-22,11.878,0.00063883,-0.00059392,9.3252e-33,8.1899e-05,-49.192,-147.67,-59.112,16.421,-2.4167e-13,-4.2045e-17,98.143,-150.35,-59.112,-46.513,0,0.017305,0,1,3.67,0,-3.67,0
0,0,0,0,0,0,6.4438e-05,-0.00057578,4.0139e-36,0.00010662,-1.5542e-18,-2.4847e-22,11.854,0.00063801,-0.00059315,9.3165e-33,8.181e-05,-49.121,-147.48,-59.033,16.392,-2.3884e-13,-4.0238e-17,98.017,-150.15,-59.033,-46.448,0,0.017307,0,1,3.675,0,-3.675,0
0,0,0,0,0,0,6.4388e-05,-0.00057505,4.0052e-36,0.00010643,-1.5358e-18,-2.368e-22,11.829,0.00063719,-0.00059238,9.3077e-33,8.172e-05,-49.05,-147.29,-58.955,16.363,-2.3602e-13,-3.8431e-17,97.892,-149.95,-58.955,-46.384,0,0.01731,0,1,3.68,0,-3.68,0
0,0,0,0,0,0,6.4337e-05,-0.00057432,3.9965e-36,0.00010624,-1.5174e-18,-2.2514e-22,11.804,0.00063637,-0.00059161,9.2989e-33,8.163e-05,-48.979,-147.1,-58.876,16.334,-2.3319e-13,-3.6625e-17,97.766,-149.76,-58.876,-46.319,0,0.017312,0,1,3.685,0,-3.685,0
0,0,0,0,0,0,6.4287e-05,-0.00057359,3.9878e-36,0.00010605,-1.499e-18,-2.1348e-22,11.779,0.00063555,-0.00059084,9.2902e-33,8.1541e-05,-48.908,-146.9,-58.797,16.304,-2.3036e-13,-3.4818e-17,97.64,-149.56,-58.797,-46.254,0,0.017315,0,1,3.69,0,-3.69,0
0,0,0,0,0,0,6.4237e-05,-0.00057285,3.9791e-36,0.00010586,-1.4806e-18,-2.0181e-22,11.755,0.00063473,-0.00059007,9.2814e-33,8.1451e-05,-48.837,-146.71,-58.718,16.275,-2.2753e-13,-3.3011e-17,97.515,-149.36,-58.718,-46.189,0,0.017317,0,1,3.695,0,-3.695,0
0,0,0,0,0,0,6.4186e-05,-0.00057212,3.9705e-36,0.00010567,-1.4622e-18,-1.9015e-22,11.73,0.00063391,-0.0005893,9.2727e-33,8.1362e-05,-48.766,-146.52,-58.64,16.246,-2.247e-13,-3.1204e-17,97.389,-149.17,-58.64,-46.124,0,0.01732,0,1,3.7,0,-3.7,0
0,0,0,0,0,0,6.4136e-05,-0.00057139,3.9618e-36,0.00010548,-1.4438e-18,-1.7849e-22,11.705,0.00063309,-0.00058853,9.2639e-33,8.1272e-05,-48.695,-146.33,-58.561,16.217,-2.2188e-13,-2.9398e-17,97.263,-148.97,-58.561,-46.059,0,0.017322,0,1,3.705,0,-3.705,0
0,0,0,0,0,0,6.4086e-05,-0.00057066,3.9531e-36,0.00010529,-1.4254e-18,-1.6682e-22,11.68,0.00063227,-0.00058776,9.2551e-33,8.1183e-05,-48.624,-146.14,-58.482,16.188,-2.1905e-13,-2.7591e-17,97.137,-148.77,-58.482,-45.994,0,0.017325,0,1,3.71,0,-3.71,0
0,0,0,0,0,0,6.4035e-05,-0.00056993,3.9444e-36,0.0001051,-1.407e-18,-1.5516e-22,11.656,0.00063145,-0.00058699,9.2464e-33,8.1093e-05,-48.553,-145.95,-58.404,16.158,-2.1622e-13,-2.5784e-17,97.012,-148.57,-58.404,-45.929,0,0.017327,0,1,3.715,0,-3.715,0
0,0,0,0,0,0,6.3985e-05,-0.0005692,3.9358e-36,0.00010491,-1.3886e-18,-1.435e-22,11.631,0.00063063,-0.00058621,9.2376e-33,8.1003e-05,-48.482,-145.76,-58.325,16.129,-2.1339e-13,-2.3977e-17,96.886,-148.38,-58.325,-45.864,0,0.01733,0,1,3.72,0,-3.72,0
0,0,0,0,0,0,6.3935e-05,-0.00056846,3.9271e-36,0.00010472,-1.3702e-18,-1.3183e-22,11.606,0.00062981,-0.00058544,9.2288e-33,8.0914e-05,-48.412,-145.57,-58.246,16.1,-2.1056e-13,-2.217e-17,96.76,-148.18,-58.246,-45.799,0,0.017333,0,1,3.725,0,-3.725,0
0,0,0,0,0,0,6.3884e-05,-0.00056773,3.9184e-36,0.00010453,-1.3518e-18,-1.2017e-22,11.581,0.00062899,-0.00058467,9.2201e-33,8.0824e-05,-48.341,-145.38,-58.168,16.071,-2.0773e-13,-2.0364e-17,96.635,-147.98,-58.168,-45.734,0,0.017335,0,1,3.73,0,-3.73,0
0,0,0,0,0,0,6.3834e-05,-0.000567,3.9097e-36,0.00010434,-1.3334e-18,-1.0851e-22,11.557,0.00062818,-0.0005839,9.2113e-33,8.0735e-05,-48.27,-145.19,-58.089,16.041,-2.0491e-13,-1.8557e-17,96.509,-147.79,-58.089,-45.669,0,0.017338,0,1,3.735,0,-3.735,0
0,0,0,0,0,0,6.3784e-05,-0.00056627,3.901e-36,0.00010415,-1.315e-18,-9.6843e-23,11.532,0.00062736,-0.00058313,9.2026e-33,8.0645e-05,-48.199,-145,-58.01,16.012,-2.0208e-13,-1.675e-17,96.383,-147.59,-58.01,-45.605,0,0.01734,0,1,3.74,0,-3.74,0
0,0,0,0,0,0,6.3733e-05,-0.00056554,3.8924e-36,0.00010396,-1.2966e-18,-8.518e-23,11.507,0.00062654,-0.00058236,9.1938e-33,8.0555e-05,-48.128,-144.8,-57.932,15.983,-1.9925e-13,-1.4943e-17,96.257,-147.39,-57.932,-45.54,0,0.017343,0,1,3.745,0,-3.745,0
0,0,0,0,0,0,6.3683e-05,-0.00056481,3.8837e-36,0.00010377,-1.2782e-18,-7.3516e-23,11.482,0.00062572,-0.00058159,9.185e-33,8.0466e-05,-48.057,-144.61,-57.853,15.954,-1.9642e-13,-1.3137e-17,96.132,-147.2,-57.853,-45.475,0,0.017345,0,1,3.75,0,-3.75,0
0,0,0,0,0,0,6.3633e-05,-0.00056407,3.875e-36,0.00010358,-1.2598e-18,-6.1853e-23,11.458,0.0006249,-0.00058082,9.1763e-33,8.0376e-05,-47.986,-144.42,-57.774,15.925,-1.9359e-13,-1.133e-17,96.006,-147,-57.774,-45.41,0,0.017348,0,1,3.755,0,-3.755,0
0,0,0,0,0,0,6.3582e-05,-0.00056334,3.8663e-36,0.00010339,-1.2414e-18,-5.0189e-23,11.433,0.00062408,-0.00058005,9.1675e-33,8.0287e-05,-47.915,-144.23,-57.695,15.895,-1.9077e-13,-9.5231e-18,95.88,-146.8,-57.695,-45.345,0,0.01735,0,1,3.76,0,-3.76,0
0,0,0,0,0,0,6.3532e-05,-0.00056261,3.8577e-36,0.0001032,-1.223e-18,-3.8526e-23,11.408,0.00062326,-0.00057928,9.1588e-33,8.0197e-05,-47.844,-144.04,-57.617,15.866,-1.8794e-13,-7.7163e-18,95.755,-146.6,-57.617,-45.28,0,0.017353,0,1,3.765,0,-3.765,0
0,0,0,0,0,0,6.3482e-05,-0.00056188,3.849e-36,0.00010301,-1.2046e-18,-2.6863e-23,11.383,0.00062244,-0.00057851,9.15e-33,8.0108e-05,-47.773,-143.85,-57.538,15.837,-1.8511e-13,-5.9095e-18,95.629,-146.41,-57.538,-45.215,0,0.017355,0,1,3.77,0,-3.77,0
0,0,0,0,0,0,6.3431e-05,-0.00056115,3.8403e-36,0.00010282,-1.1862e-18,-1.5199e-23,11.359,0.00062162,-0.00057773,9.1412e-33,8.0018e-05,-47.702,-143.66,-57.459,15.808,-1.8228e-13,-4.1027e-18,95.503,-146.21,-57.459,-45.15,0,0.017358,0,1,3.775,0,-3.775,0
0,0,0,0,0,0,6.3381e-05,-0.00056042,3.8316e-36,0.00010263,-1.1678e-18,-3.5356e-24,11.334,0.0006208,-0.00057696,9.1325e-33,7.9928e-05,-47.631,-143.47,-57.381,15.779,-1.7945e-13,-2.296e-18,95.377,-146.01,-57.381,-45.085,0,0.01736,0,1,3.78,0,-3.78,0
0,0,0,0,0,0,6.3331e-05,-0.00055968,3.8229e-36,0.00010244,-1.1494e-18,8.1281e-24,11.309,0.00061998,-0.00057619,9.1237e-33,7.9839e-05,-47.56,-143.28,-57.302,15.749,-1.7662e-13,-4.892e-19,95.252,-145.82,-57.302,-45.02,0,0.017363,0,1,3.785,0,-3.785,0
0,0,0,0,0,0,6.328e-05,-0.00055895,3.8143e-36,0.00010225,-1.131e-18,1.9791e-23,11.284,0.00061916,-0.00057542,9.1149e-33,7.9749e-05,-47.489,-143.09,-57.223,15.72,-1.738e-13,1.3175e-18,95.126,-145.62,-57.223,-44.955,0,0.017365,0,1,3.79,0,-3.79,0
0,0,0,0,0,0,6.323e-05,-0.00055822,3.8056e-36,0.00010206,-1.1126e-18,3.1455e-23,11.26,0.00061834,-0.00057465,9.1062e-33,7.966e-05,-47.418,-142.89,-57.145,15.691,-1.7097e-13,3.1243e-18,95,-145.42,-57.145,-44.89,0,0.017368,0,1,3.795,0,-3.795,0
0,0,0,0,0,0,6.318e-05,-0.00055749,3.7969e-36,0.00010187,-1.0942e-18,4.3118e-23,11.235,0.00061752,-0.00057388,9.0974e-33,7.957e-05,-47.347,-142.7,-57.066,15.662,-1.6814e-13,4.9311e-18,94.874,-145.23,-57.066,-44.825,0,0.01737,0,1,3.8,0,-3.8,0
0,0,0,0,0,0,6.3129e-05,-0.00055676,3.7882e-36,0.00010168,-1.0758e-18,5.4782e-23,11.21,0.00061671,-0.00057311,9.0887e-33,7.948e-05,-47.276,-142.51,-56.987,15.632,-1.6531e-13,6.7379e-18,94.749,-145.03,-56.987,-44.761,0,0.017373,0,1,3.805,0,-3.805,0
0,0,0,0,0,0,6.3079e-05,-0.00055603,3.7795e-36,0.00010149,-1.0574e-18,6.6445e-23,11.185,0.00061589,-0.00057234,9.0799e-33,7.9391e-05,-47.205,-142.32,-56.908,15.603,-1.6248e-13,8.5446e-18,94.623,-144.83,-56.908,-44.696,0,0.017375,0,1,3.81,0,-3.81,0
0,0,0,0,0,0,6.3029e-05,-0.00055529,3.7709e-36,0.0001013,-1.039e-18,7.8109e-23,11.161,0.00061507,-0.00057157,9.0711e-33,7.9301e-05,-47.134,-142.13,-56.83,15.574,-1.5966e-13,1.0351e-17,94.497,-144.63,-56.83,-44.631,0,0.017378,0,1,3.815,0,-3.815,0
0,0,0,0,0,0,6.2978e-05,-0.00055456,3.7622e-36,0.00010111,-1.0206e-18,8.9772e-23,11.136,0.00061425,-0.0005708,9.0624e-33,7.9212e-05,-47.063,-141.94,-56.751,15.545,-1.5683e-13,1.2158e-17,94.372,-144.44,-56.751,-44.566,0,0.01738,0,1,3.82,0,-3.82,0
0,0,0,0,0,0,6.2928e-05,-0.00055383,3.7535e-36,0.00010092,-1.0022e-18,1.0144e-22,11.111,0.00061343,-0.00057003,9.0536e-33,7.9122e-05,-46.992,-141.75,-56.672,15.516,-1.54e-13,1.3965e-17,94.246,-144.24,-56.672,-44.501,0,0.017383,0,1,3.825,0,-3.825,0
0,0,0,0,0,0,6.2878e-05,-0.0005531,3.7448e-36,0.00010073,-9.8384e-19,1.131e-22,11.086,0.00061261,-0.00056925,9.0449e-33,7.9033e-05,-46.921,-141.56,-56.594,15.486,-1.5117e-13,1.5772e-17,94.12,-144.04,-56.594,-44.436,0,0.017385,0,1,3.83,0,-3.83,0
0,0,0,0,0,0,6.2827e-05,-0.00055237,3.7362e-36,0.00010054,-9.6544e-19,1.2476e-22,11.062,0.00061179,-0.00056848,9.0361e-33,7.8943e-05,-46.85,-141.37,-56.515,15.457,-1.4834e-13,1.7578e-17,93.994,-143.85,-56.515,-44.371,0,0.017388,0,1,3.835,0,-3.835,0
0,0,0,0,0,0,6.2777e-05,-0.00055164,3.7275e-36,0.00010035,-9.4705e-19,1.3643e-22,11.037,0.00061097,-0.00056771,9.0273e-33,7.8853e-05,-46.78,-141.18,-56.436,15.428,-1.4551e-13,1.9385e-17,93.869,-143.65,-56.436,-44.306,0,0.01739,0,1,3.84,0,-3.84,0
0,0,0,0,0,0,6.2727e-05,-0.0005509,3.7188e-36,0.00010016,-9.2865e-19,1.4809e-22,11.012,0.00061015,-0.00056694,9.0186e-33,7.8764e-05,-46.709,-140.99,-56.358,15.399,-1.4269e-13,2.1192e-17,93.743,-143.45,-56.358,-44.241,0,0.017393,0,1,3.845,0,-3.845,0
0,0,0,0,0,0,6.2676e-05,-0.00055017,3.7101e-36,9.9966e-05,-9.1025e-19,1.5975e-22,10.987,0.00060933,-0.00056617,9.0098e-33,7.8674e-05,-46.638,-140.79,-56.279,15.369,-1.3986e-13,2.2999e-17,93.617,-143.26,-56.279,-44.176,0,0.017395,0,1,3.85,0,-3.85,0
0,0,0,0,0,0,6.2626e-05,-0.00054944,3.7014e-36,9.9776e-05,-8.9185e-19,1.7142e-22,10.963,0.00060851,-0.0005654,9.001e-33,7.8585e-05,-46.567,-140.6,-56.2,15.34,-1.3703e-13,2.4805e-17,93.492,-143.06,-56.2,-44.111,0,0.017398,0,1,3.855,0,-3.855,0
0,0,0,0,0,0,6.2576e-05,-0.00054871,3.6928e-36,9.9586e-05,-8.7345e-19,1.8308e-22,10.938,0.00060769,-0.00056463,8.9923e-33,7.8495e-05,-46.496,-140.41,-56.122,15.311,-1.342e-13,2.6612e-17,93.366,-142.86,-56.122,-44.046,0,0.0174,0,1,3.86,0,-3.86,0
0,0,0,0,0,0,6.2525e-05,-0.00054798,3.6841e-36,9.9396e-05,-8.5505e-19,1.9474e-22,10.913,0.00060687,-0.00056386,8.9835e-33,7.8406e-05,-46.425,-140.22,-56.043,15.282,-1.3137e-13,2.8419e-17,93.24,-142.66,-56.043,-43.982,0,0.017403,0,1,3.865,0,-3.865,0
0,0,0,0,0,0,6.2475e-05,-0.00054725,3.6754e-36,9.9206e-05,-8.3666e-19,2.0641e-22,10.888,0.00060605,-0.00056309,8.9748e-33,7.8316e-05,-46.354,-140.03,-55.964,15.253,-1.2854e-13,3.0226e-17,93.114,-142.47,-55.964,-43.917,0,0.017405,0,1,3.87,0,-3.87,0
0,0,0,0,0,0,6.2425e-05,-0.00054651,3.6667e-36,9.9015e-05,-8.1826e-19,2.1807e-22,10.864,0.00060524,-0.00056232,8.966e-33,7.8226e-05,-46.283,-139.84,-55.885,15.223,-1.2572e-13,3.2033e-17,92.989,-142.27,-55.885,-43.852,0,0.017408,0,1,3.875,0,-3.875,0
0,0,0,0,0,0,6.2374e-05,-0.00054578,3.6581e-36,9.8825e-05,-7.9986e-19,2.2973e-22,10.839,0.00060442,-0.00056154,8.9572e-33,7.8137e-05,-46.212,-139.65,-55.807,15.194,-1.2289e-13,3.3839e-17,92.863,-142.07,-55.807,-43.787,0,0.01741,0,1,3.88,0,-3.88,0
0,0,0,0,0,0,6.2324e-05,-0.00054505,3.6494e-36,9.8635e-05,-7.8146e-19,2.414e-22,10.814,0.0006036,-0.00056077,8.9485e-33,7.8047e-05,-46.141,-139.46,-55.728,15.165,-1.2006e-13,3.5646e-17,92.737,-141.88,-55.728,-43.722,0,0.017413,0,1,3.885,0,-3.885,0
0,0,0,0,0,0,6.2274e-05,-0.00054432,3.6407e-36,9.8445e-05,-7.6306e-19,2.5306e-22,10.789,0.00060278,-0.00056,8.9397e-33,7.7958e-05,-46.07,-139.27,-55.649,15.136,-1.1723e-13,3.7453e-17,92.612,-141.68,-55.649,-43.657,0,0.017415,0,1,3.89,0,-3.89,0
0,0,0,0,0,0,6.2223e-05,-0.00054359,3.632e-36,9.8255e-05,-7.4466e-19,2.6472e-22,10.765,0.00060196,-0.00055923,8.931e-33,7.7868e-05,-45.999,-139.08,-55.571,15.106,-1.144e-13,3.926e-17,92.486,-141.48,-55.571,-43.592,0,0.017418,0,1,3.895,0,-3.895,0
0,0,0,0,0,0,6.2173e-05,-0.00054286,3.6233e-36,9.8065e-05,-7.2626e-19,2.7639e-22,10.74,0.00060114,-0.00055846,8.9222e-33,7.7778e-05,-45.928,-138.89,-55.492,15.077,-1.1158e-13,4.1066e-17,92.36,-141.29,-55.492,-43.527,0,0.01742,0,1,3.9,0,-3.9,0
0,0,0,0,0,0,6.2123e-05,-0.00054212,3.6147e-36,9.7875e-05,-7.0787e-19,2.8805e-22,10.715,0.00060032,-0.00055769,8.9134e-33,7.7689e-05,-45.857,-138.69,-55.413,15.048,-1.0875e-13,4.2873e-17,92.234,-141.09,-55.413,-43.462,0,0.017423,0,1,3.905,0,-3.905,0
0,0,0,0,0,0,6.2072e-05,-0.00054139,3.606e-36,9.7684e-05,-6.8947e-19,2.9971e-22,10.69,0.0005995,-0.00055692,8.9047e-33,7.7599e-05,-45.786,-138.5,-55.335,15.019,-1.0592e-13,4.468e-17,92.109,-140.89,-55.335,-43.397,0,0.017425,0,1,3.91,0,-3.91,0
0,0,0,0,0,0,6.2022e-05,-0.00054066,3.5973e-36,9.7494e-05,-6.7107e-19,3.1138e-22,10.666,0.00059868,-0.00055615,8.8959e-33,7.751e-05,-45.715,-138.31,-55.256,14.99,-1.0309e-13,4.6487e-17,91.983,-140.7,-55.256,-43.332,0,0.017428,0,1,3.915,0,-3.915,0
0,0,0,0,0,0,6.1972e-05,-0.00053993,3.5886e-36,9.7304e-05,-6.5267e-19,3.2304e-22,10.641,0.00059786,-0.00055538,8.8871e-33,7.742e-05,-45.644,-138.12,-55.177,14.96,-1.0026e-13,4.8293e-17,91.857,-140.5,-55.177,-43.267,0,0.01743,0,1,3.92,0,-3.92,0
0,0,0,0,0,0,6.1921e-05,-0.0005392,3.5799e-36,9.7114e-05,-6.3427e-19,3.347e-22,10.616,0.00059704,-0.00055461,8.8784e-33,7.7331e-05,-45.573,-137.93,-55.098,14.931,-9.7435e-14,5.01e-17,91.732,-140.3,-55.098,-43.203,0,0.017433,0,1,3.925,0,-3.925,0
0,0,0,0,0,0,6.1871e-05,-0.00053847,3.5713e-36,9.6924e-05,-6.1587e-19,3.4637e-22,10.591,0.00059622,-0.00055384,8.8696e-33,7.7241e-05,-45.502,-137.74,-55.02,14.902,-9.4606e-14,5.1907e-17,91.606,-140.1,-55.02,-43.138,0,0.017435,0,1,3.93,0,-3.93,0
0,0,0,0,0,0,6.1821e-05,-0.00053773,3.5626e-36,9.6734e-05,-5.9748e-19,3.5803e-22,10.567,0.0005954,-0.00055306,8.8609e-33,7.7151e-05,-45.431,-137.55,-54.941,14.873,-9.1778e-14,5.3714e-17,91.48,-139.91,-54.941,-43.073,0,0.017438,0,1,3.935,0,-3.935,0
0,0,0,0,0,0,6.177e-05,-0.000537,3.5539e-36,9.6544e-05,-5.7908e-19,3.6969e-22,10.542,0.00059458,-0.00055229,8.8521e-33,7.7062e-05,-45.36,-137.36,-54.862,14.843,-8.895e-14,5.5521e-17,91.354,-139.71,-54.862,-43.008,0,0.01744,0,1,3.94,0,-3.94,0
0,0,0,0,0,0,6.172e-05,-0.00053627,3.5452e-36,9.6353e-05,-5.6068e-19,3.8136e-22,10.517,0.00059377,-0.00055152,8.8433e-33,7.6972e-05,-45.289,-137.17,-54.784,14.814,-8.6122e-14,5.7327e-17,91.229,-139.51,-54.784,-42.943,0,0.017443,0,1,3.945,0,-3.945,0
0,0,0,0,0,0,6.167e-05,-0.00053554,3.5366e-36,9.6163e-05,-5.4228e-19,3.9302e-22,10.492,0.00059295,-0.00055075,8.8346e-33,7.6883e-05,-45.219,-136.98,-54.705,14.785,-8.3294e-14,5.9134e-17,91.103,-139.32,-54.705,-42.878,0,0.017445,0,1,3.95,0,-3.95,0
0,0,0,0,0,0,6.1619e-05,-0.00053481,3.5279e-36,9.5973e-05,-5.2388e-19,4.0468e-22,10.468,0.00059213,-0.00054998,8.8258e-33,7.6793e-05,-45.148,-136.78,-54.626,14.756,-8.0466e-14,6.0941e-17,90.977,-139.12,-54.626,-42.813,0,0.017448,0,1,3.955,0,-3.955,0
0,0,0,0,0,0,6.1569e-05,-0.00053408,3.5192e-36,9.5783e-05,-5.0548e-19,4.1635e-22,10.443,0.00059131,-0.00054921,8.8171e-33,7.6703e-05,-45.077,-136.59,-54.548,14.727,-7.7637e-14,6.2748e-17,90.852,-138.92,-54.548,-42.748,0,0.017451,0,1,3.96,0,-3.96,0
0,0,0,0,0,0,6.1519e-05,-0.00053334,3.5105e-36,9.5593e-05,-4.8709e-19,4.2801e-22,10.418,0.00059049,-0.00054844,8.8083e-33,7.6614e-05,-45.006,-136.4,-54.469,14.697,-7.4809e-14,6.4554e-17,90.726,-138.73,-54.469,-42.683,0,0.017453,0,1,3.965,0,-3.965,0
0,0,0,0,0,0,6.1468e-05,-0.00053261,3.5018e-36,9.5403e-05,-4.6869e-19,4.3968e-22,10.394,0.00058967,-0.00054767,8.7995e-33,7.6524e-05,-44.935,-136.21,-54.39,14.668,-7.1981e-14,6.6361e-17,90.6,-138.53,-54.39,-42.618,0,0.017456,0,1,3.97,0,-3.97,0
0,0,0,0,0,0,6.1418e-05,-0.00053188,3.4932e-36,9.5213e-05,-4.5029e-19,4.5134e-22,10.369,0.00058885,-0.0005469,8.7908e-33,7.6435e-05,-44.864,-136.02,-54.312,14.639,-6.9153e-14,6.8168e-17,90.474,-138.33,-54.312,-42.553,0,0.017458,0,1,3.975,0,-3.975,0
0,0,0,0,0,0,6.1368e-05,-0.00053115,3.4845e-36,9.5022e-05,-4.3189e-19,4.63e-22,10.344,0.00058803,-0.00054613,8.782e-33,7.6345e-05,-44.793,-135.83,-54.233,14.61,-6.6325e-14,6.9975e-17,90.349,-138.13,-54.233,-42.488,0,0.017461,0,1,3.98,0,-3.98,0
0,0,0,0,0,0,6.1317e-05,-0.00053042,3.4758e-36,9.4832e-05,-4.1349e-19,4.7467e-22,10.319,0.00058721,-0.00054536,8.7733e-33,7.6256e-05,-44.722,-135.64,-54.154,14.58,-6.3496e-14,7.1781e-17,90.223,-137.94,-54.154,-42.424,0,0.017463,0,1,3.985,0,-3.985,0
0,0,0,0,0,0,6.1267e-05,-0.00052969,3.4671e-36,9.4642e-05,-3.9509e-19,4.8633e-22,10.295,0.00058639,-0.00054458,8.7645e-33,7.6166e-05,-44.651,-135.45,-54.075,14.551,-6.0668e-14,7.3588e-17,90.097,-137.74,-54.075,-42.359,0,0.017466,0,1,3.99,0,-3.99,0
0,0,0,0,0,0,6.1217e-05,-0.00052895,3.4584e-36,9.4452e-05,-3.767e-19,4.9799e-22,10.27,0.00058557,-0.00054381,8.7557e-33,7.6076e-05,-44.58,-135.26,-53.997,14.522,-5.784e-14,7.5395e-17,89.971,-137.54,-53.997,-42.294,0,0.017468,0,1,3.995,0,-3.995,0
0,0,0,0,0,0,6.1166e-05,-0.00052822,3.4498e-36,9.4262e-05,-3.583e-19,5.0966e-22,10.245,0.00058475,-0.00054304,8.747e-33,7.5987e-05,-44.509,-135.07,-53.918,14.493,-5.5012e-14,7.7202e-17,89.846,-137.35,-53.918,-42.229,0,0.017471,0,1,4,0,-4,0
0,0,0,0,0,0,6.1116e-05,-0.00052749,3.4411e-36,9.4072e-05,-3.399e-19,5.2132e-22,10.22,0.00058393,-0.00054227,8.7382e-33,7.5897e-05,-44.438,-134.88,-53.839,14.464,-5.2183e-14,7.9009e-17,89.72,-137.15,-53.839,-42.164,0,0.017473,0,1,4.005,0,-4.005,0
0,0,0,0,0,0,6.1066e-05,-0.00052676,3.4324e-36,9.3882e-05,-3.215e-19,5.3298e-22,10.196,0.00058312,-0.0005415,8.7294e-33,7.5808e-05,-44.367,-134.68,-53.761,14.434,-4.9355e-14,8.0815e-17,89.594,-136.95,-53.761,-42.099,0,0.017476,0,1,4.01,0,-4.01,0
0,0,0,0,0,0,6.1015e-05,-0.00052603,3.4237e-36,9.3691e-05,-3.031e-19,5.4465e-22,10.171,0.0005823,-0.00054073,8.7207e-33,7.5718e-05,-44.296,-134.49,-53.682,14.405,-4.6527e-14,8.2622e-17,89.469,-136.76,-53.682,-42.034,0,0.017478,0,1,4.015,0,-4.015,0
0,0,0,0,0,0,6.0965e-05,-0.00052529,3.4151e-36,9.3501e-05,-2.847e-19,5.5631e-22,10.146,0.00058148,-0.00053996,8.7119e-33,7.5629e-05,-44.225,-134.3,-53.603,14.376,-4.3699e-14,8.4429e-17,89.343,-136.56,-53.603,-41.969,0,0.017481,0,1,4.02,0,-4.02,0
0,0,0,0,0,0,6.0915e-05,-0.00052456,3.4064e-36,9.3311e-05,-2.6631e-19,5.6797e-22,10.121,0.00058066,-0.00053919,8.7032e-33,7.5539e-05,-44.154,-134.11,-53.525,14.347,-4.0871e-14,8.6236e-17,89.217,-136.36,-53.525,-41.904,0,0.017483,0,1,4.025,0,-4.025,0
0,0,0,0,0,0,6.0864e-05,-0.00052383,3.3977e-36,9.3121e-05,-2.4791e-19,5.7964e-22,10.097,0.00057984,-0.00053842,8.6944e-33,7.5449e-05,-44.083,-133.92,-53.446,14.317,-3.8042e-14,8.8042e-17,89.091,-136.16,-53.446,-41.839,0,0.017486,0,1,4.03,0,-4.03,0
0,0,0,0,0,0,6.0814e-05,-0.0005231,3.389e-36,9.2931e-05,-2.2951e-19,5.913e-22,10.072,0.00057902,-0.00053765,8.6856e-33,7.536e-05,-44.012,-133.73,-53.367,14.288,-3.5214e-14,8.9849e-17,88.966,-135.97,-53.367,-41.774,0,0.017488,0,1,4.035,0,-4.035,0
0,0,0,0,0,0,6.0764e-05,-0.00052237,3.3803e-36,9.2741e-05,-2.1111e-19,6.0296e-22,10.047,0.0005782,-0.00053687,8.6769e-33,7.527e-05,-43.941,-133.54,-53.288,14.259,-3.2386e-14,9.1656e-17,88.84,-135.77,-53.288,-41.709,0,0.017491,0,1,4.04,0,-4.04,0
0,0,0,0,0,0,6.0713e-05,-0.00052164,3.3717e-36,9.2551e-05,-1.9271e-19,6.1463e-22,10.022,0.00057738,-0.0005361,8.6681e-33,7.5181e-05,-43.87,-133.35,-53.21,14.23,-2.9558e-14,9.3463e-17,88.714,-135.57,-53.21,-41.645,0,0.017493,0,1,4.045,0,-4.045,0
0,0,0,0,0,0,6.0663e-05,-0.0005209,3.363e-36,9.236e-05,-1.7431e-19,6.2629e-22,9.9976,0.00057656,-0.00053533,8.6594e-33,7.5091e-05,-43.799,-133.16,-53.131,14.201,-2.673e-14,9.5269e-17,88.589,-135.38,-53.131,-41.58,0,0.017496,0,1,4.05,0,-4.05,0
0,0,0,0,0,0,6.0613e-05,-0.00052017,3.3543e-36,9.217e-05,-1.5592e-19,6.3795e-22,9.9728,0.00057574,-0.00053456,8.6506e-33,7.5001e-05,-43.728,-132.97,-53.052,14.171,-2.3902e-14,9.7076e-17,88.463,-135.18,-53.052,-41.515,0,0.017498,0,1,4.055,0,-4.055,0
0,0,0,0,0,0,6.0562e-05,-0.00051944,3.3456e-36,9.198e-05,-1.3752e-19,6.4962e-22,9.9481,0.00057492,-0.00053379,8.6418e-33,7.4912e-05,-43.658,-132.78,-52.974,14.142,-2.1073e-14,9.8883e-17,88.337,-134.98,-52.974,-41.45,0,0.017501,0,1,4.06,0,-4.06,0
0,0,0,0,0,0,6.0512e-05,-0.00051871,3.337e-36,9.179e-05,-1.1912e-19,6.6128e-22,9.9233,0.0005741,-0.00053302,8.6331e-33,7.4822e-05,-43.587,-132.58,-52.895,14.113,-1.8245e-14,1.0069e-16,88.211,-134.79,-52.895,-41.385,0,0.017503,0,1,4.065,0,-4.065,0
0,0,0,0,0,0,6.0462e-05,-0.00051798,3.3283e-36,9.16e-05,-1.0072e-19,6.7294e-22,9.8986,0.00057328,-0.00053225,8.6243e-33,7.4733e-05,-43.516,-132.39,-52.816,14.084,-1.5417e-14,1.025e-16,88.086,-134.59,-52.816,-41.32,0,0.017506,0,1,4.07,0,-4.07,0
0,0,0,0,0,0,6.0411e-05,-0.00051725,3.3196e-36,9.141e-05,-8.2323e-20,6.8461e-22,9.8738,0.00057246,-0.00053148,8.6155e-33,7.4643e-05,-43.445,-132.2,-52.738,14.054,-1.2589e-14,1.043e-16,87.96,-134.39,-52.738,-41.255,0,0.017508,0,1,4.075,0,-4.075,0
0,0,0,0,0,0,6.0361e-05,-0.00051651,3.3109e-36,9.1219e-05,-6.3924e-20,6.9627e-22,9.8491,0.00057165,-0.00053071,8.6068e-33,7.4554e-05,-43.374,-132.01,-52.659,14.025,-9.7606e-15,1.0611e-16,87.834,-134.19,-52.659,-41.19,0,0.017511,0,1,4.08,0,-4.08,0
0,0,0,0,0,0,6.0311e-05,-0.00051578,3.3022e-36,9.1029e-05,-4.5526e-20,7.0793e-22,9.8243,0.00057083,-0.00052994,8.598e-33,7.4464e-05,-43.303,-131.82,-52.58,13.996,-6.9324e-15,1.0792e-16,87.709,-134,-52.58,-41.125,0,0.017513,0,1,4.085,0,-4.085,0
0,0,0,0,0,0,6.026e-05,-0.00051505,3.2936e-36,9.0839e-05,-2.7127e-20,7.196e-22,9.7996,0.00057001,-0.00052917,8.5893e-33,7.4374e-05,-43.232,-131.63,-52.502,13.967,-4.1041e-15,1.0972e-16,87.583,-133.8,-52.502,-41.06,0,0.017516,0,1,4.09,0,-4.09,0
0,0,0,0,0,0,6.021e-05,-0.00051432,3.2849e-36,9.0649e-05,-8.7297e-21,7.3126e-22,9.7748,0.00056919,-0.00052839,8.5805e-33,7.4285e-05,-43.161,-131.44,-52.423,13.938,-1.2761e-15,1.1153e-16,87.457,-133.6,-52.423,-40.995,0,0.017518,0,1,4.095,0,-4.095,0
0,0,0,0,0,0,6.016e-05,-0.00051359,3.2762e-36,9.0459e-05,9.669e-21,7.4292e-22,9.7501,0.00056837,-0.00052762,8.5717e-33,7.4195e-05,-43.09,-131.25,-52.344,13.908,1.5521e-15,1.1334e-16,87.331,-133.41,-52.344,-40.93,0,0.017521,0,1,4.1,0,-4.1,0
0,0,0,0,0,0,6.0109e-05,-0.00051286,3.2675e-36,9.0269e-05,2.8068e-20,7.5459e-22,9.7253,0.00056755,-0.00052685,8.563e-33,7.4106e-05,-43.019,-131.06,-52.265,13.879,4.3804e-15,1.1514e-16,87.206,-133.21,-52.265,-40.866,0,0.017523,0,1,4.105,0,-4.105,0
0,0,0,0,0,0,6.0059e-05,-0.00051212,3.2588e-36,9.0079e-05,4.6467e-20,7.6625e-22,9.7006,0.00056673,-0.00052608,8.5542e-33,7.4016e-05,-42.948,-130.87,-52.187,13.85,7.2087e-15,1.1695e-16,87.08,-133.01,-52.187,-40.801,0,0.017526,0,1,4.11,0,-4.11,0
0,0,0,0,0,0,6.0009e-05,-0.00051139,3.2502e-36,8.9888e-05,6.4864e-20,7.7792e-22,9.6758,0.00056591,-0.00052531,8.5455e-33,7.3926e-05,-42.877,-130.67,-52.108,13.821,1.0037e-14,1.1876e-16,86.954,-132.82,-52.108,-40.736,0,0.017528,0,1,4.115,0,-4.115,0
0,0,0,0,0,0,5.9958e-05,-0.00051066,3.2415e-36,8.9698e-05,8.3262e-20,7.8958e-22,9.6511,0.00056509,-0.00052454,8.5367e-33,7.3837e-05,-42.806,-130.48,-52.029,13.791,1.2865e-14,1.2056e-16,86.829,-132.62,-52.029,-40.671,0,0.017531,0,1,4.12,0,-4.12,0
0,0,0,0,0,0,5.9908e-05,-0.00050993,3.2328e-36,8.9508e-05,1.0166e-19,8.0124e-22,9.6264,0.00056427,-0.00052377,8.5279e-33,7.3747e-05,-42.735,-130.29,-51.951,13.762,1.5693e-14,1.2237e-16,86.703,-132.42,-51.951,-40.606,0,0.017533,0,1,4.125,0,-4.125,0
0,0,0,0,0,0,5.9858e-05,-0.0005092,3.2241e-36,8.9318e-05,1.2006e-19,8.1291e-22,9.6016,0.00056345,-0.000523,8.5192e-33,7.3658e-05,-42.664,-130.1,-51.872,13.733,1.8521e-14,1.2418e-16,86.577,-132.23,-51.872,-40.541,0,0.017536,0,1,4.13,0,-4.13,0
0,0,0,0,0,0,5.9807e-05,-0.00050847,3.2155e-36,8.9128e-05,1.3846e-19,8.2457e-22,9.5769,0.00056263,-0.00052223,8.5104e-33,7.3568e-05,-42.593,-129.91,-51.793,13.704,2.135e-14,1.2598e-16,86.451,-132.03,-51.793,-40.476,0,0.017538,0,1,4.135,0,-4.135,0
0,0,0,0,0,0,5.9757e-05,-0.00050773,3.2068e-36,8.8938e-05,1.5686e-19,8.3623e-22,9.5521,0.00056181,-0.00052146,8.5016e-33,7.3479e-05,-42.522,-129.72,-51.715,13.675,2.4178e-14,1.2779e-16,86.326,-131.83,-51.715,-40.411,0,0.017541,0,1,4.14,0,-4.14,0
0,0,0,0,0,0,5.9707e-05,-0.000507,3.1981e-36,8.8748e-05,1.7525e-19,8.479e-22,9.5274,0.00056099,-0.00052069,8.4929e-33,7.3389e-05,-42.451,-129.53,-51.636,13.645,2.7006e-14,1.296e-16,86.2,-131.63,-51.636,-40.346,0,0.017543,0,1,4.145,0,-4.145,0
0,0,0,0,0,0,5.9656e-05,-0.00050627,3.1894e-36,8.8557e-05,1.9365e-19,8.5956e-22,9.5026,0.00056018,-0.00051991,8.4841e-33,7.3299e-05,-42.38,-129.34,-51.557,13.616,2.9834e-14,1.314e-16,86.074,-131.44,-51.557,-40.281,0,0.017546,0,1,4.15,0,-4.15,0
0,0,0,0,0,0,5.9606e-05,-0.00050554,3.1807e-36,8.8367e-05,2.1205e-19,8.7122e-22,9.4779,0.00055936,-0.00051914,8.4754e-33,7.321e-05,-42.309,-129.15,-51.478,13.587,3.2662e-14,1.3321e-16,85.949,-131.24,-51.478,-40.216,0,0.017548,0,1,4.155,0,-4.155,0
0,0,0,0,0,0,5.9556e-05,-0.00050481,3.1721e-36,8.8177e-05,2.3045e-19,8.8289e-22,9.4531,0.00055854,-0.00051837,8.4666e-33,7.312e-05,-42.238,-128.96,-51.4,13.558,3.549e-14,1.3502e-16,85.823,-131.04,-51.4,-40.151,0,0.017551,0,1,4.16,0,-4.16,0
0,0,0,0,0,0,5.9505e-05,-0.00050408,3.1634e-36,8.7987e-05,2.4885e-19,8.9455e-22,9.4284,0.00055772,-0.0005176,8.4578e-33,7.3031e-05,-42.167,-128.77,-51.321,13.528,3.8319e-14,1.3682e-16,85.697,-130.85,-51.321,-40.087,0,0.017553,0,1,4.165,0,-4.165,0
0,0,0,0,0,0,5.9455e-05,-0.00050334,3.1547e-36,8.7797e-05,2.6725e-19,9.0621e-22,9.4036,0.0005569,-0.00051683,8.4491e-33,7.2941e-05,-42.096,-128.57,-51.242,13.499,4.1147e-14,1.3863e-16,85.571,-130.65,-51.242,-40.022,0,0.017556,0,1,4.17,0,-4.17,0
0,0,0,0,0,0,5.9405e-05,-0.00050261,3.146e-36,8.7607e-05,2.8565e-19,9.1788e-22,9.3789,0.00055608,-0.00051606,8.4403e-33,7.2852e-05,-42.026,-128.38,-51.164,13.47,4.3975e-14,1.4044e-16,85.446,-130.45,-51.164,-39.957,0,0.017558,0,1,4.175,0,-4.175,0
0,0,0,0,0,0,5.9354e-05,-0.00050188,3.1374e-36,8.7417e-05,3.0404e-19,9.2954e-22,9.3541,0.00055526,-0.00051529,8.4316e-33,7.2762e-05,-41.955,-128.19,-51.085,13.441,4.6803e-14,1.4225e-16,85.32,-130.26,-51.085,-39.892,0,0.017561,0,1,4.18,0,-4.18,0
0,0,0,0,0,0,5.9304e-05,-0.00050115,3.1287e-36,8.7226e-05,3.2244e-19,9.412e-22,9.3294,0.00055444,-0.00051452,8.4228e-33,7.2672e-05,-41.884,-128,-51.006,13.412,4.9632e-14,1.4405e-16,85.194,-130.06,-51.006,-39.827,0,0.017564,0,1,4.185,0,-4.185,0
0,0,0,0,0,0,5.9254e-05,-0.00050042,3.12e-36,8.7036e-05,3.4084e-19,9.5287e-22,9.3046,0.00055362,-0.00051375,8.414e-33,7.2583e-05,-41.813,-127.81,-50.928,13.382,5.246e-14,1.4586e-16,85.068,-129.86,-50.928,-39.762,0,0.017566,0,1,4.19,0,-4.19,0
0,0,0,0,0,0,5.9203e-05,-0.00049969,3.1113e-36,8.6846e-05,3.5924e-19,9.6453e-22,9.2799,0.0005528,-0.00051298,8.4053e-33,7.2493e-05,-41.742,-127.62,-50.849,13.353,5.5288e-14,1.4767e-16,84.943,-129.66,-50.849,-39.697,0,0.017569,0,1,4.195,0,-4.195,0
0,0,0,0,0,0,5.9153e-05,-0.00049895,3.1026e-36,8.6656e-05,3.7764e-19,9.7619e-22,9.2551,0.00055198,-0.0005122,8.3965e-33,7.2404e-05,-41.671,-127.43,-50.77,13.324,5.8116e-14,1.4947e-16,84.817,-129.47,-50.77,-39.632,0,0.017571,0,1,4.2,0,-4.2,0
0,0,0,0,0,0,5.9103e-05,-0.00049822,3.094e-36,8.6466e-05,3.9603e-19,9.8786e-22,9.2304,0.00055116,-0.00051143,8.3877e-33,7.2314e-05,-41.6,-127.24,-50.692,13.295,6.0944e-14,1.5128e-16,84.691,-129.27,-50.692,-39.567,0,0.017574,0,1,4.205,0,-4.205,0
0,0,0,0,0,0,5.9052e-05,-0.00049749,3.0853e-36,8.6276e-05,4.1443e-19,9.9952e-22,9.2057,0.00055034,-0.00051066,8.379e-33,7.2224e-05,-41.529,-127.05,-50.613,13.265,6.3773e-14,1.5309e-16,84.566,-129.07,-50.613,-39.502,0,0.017576,0,1,4.21,0,-4.21,0
0,0,0,0,0,0,5.9002e-05,-0.00049676,3.0766e-36,8.6086e-05,4.3283e-19,1.0112e-21,9.1809,0.00054952,-0.00050989,8.3702e-33,7.2135e-05,-41.458,-126.86,-50.534,13.236,6.6601e-14,1.5489e-16,84.44,-128.88,-50.534,-39.437,0,0.017579,0,1,4.215,0,-4.215,0
0,0,0,0,0,0,5.8952e-05,-0.00049603,3.0679e-36,8.5895e-05,4.5123e-19,1.0228e-21,9.1562,0.00054871,-0.00050912,8.3615e-33,7.2045e-05,-41.387,-126.67,-50.455,13.207,6.9429e-14,1.567e-16,84.314,-128.68,-50.455,-39.372,0,0.017581,0,1,4.22,0,-4.22,0
0,0,0,0,0,0,5.8901e-05,-0.0004953,3.0592e-36,8.5705e-05,4.6963e-19,1.0345e-21,9.1314,0.00054789,-0.00050835,8.3527e-33,7.1956e-05,-41.316,-126.47,-50.377,13.178,7.2257e-14,1.5851e-16,84.188,-128.48,-50.377,-39.308,0,0.017584,0,1,4.225,0,-4.225,0
0,0,0,0,0,0,5.8851e-05,-0.00049456,3.0506e-36,8.5515e-05,4.8803e-19,1.0462e-21,9.1067,0.00054707,-0.00050758,8.3439e-33,7.1866e-05,-41.245,-126.28,-50.298,13.149,7.5085e-14,1.6031e-16,84.063,-128.29,-50.298,-39.243,0,0.017586,0,1,4.23,0,-4.23,0
0,0,0,0,0,0,5.8801e-05,-0.00049383,3.0419e-36,8.5325e-05,5.0643e-19,1.0578e-21,9.0819,0.00054625,-0.00050681,8.3352e-33,7.1777e-05,-41.174,-126.09,-50.219,13.119,7.7914e-14,1.6212e-16,83.937,-128.09,-50.219,-39.178,0,0.017589,0,1,4.235,0,-4.235,0
0,0,0,0,0,0,5.875e-05,-0.0004931,3.0332e-36,8.5135e-05,5.2482e-19,1.0695e-21,9.0572,0.00054543,-0.00050604,8.3264e-33,7.1687e-05,-41.103,-125.9,-50.141,13.09,8.0742e-14,1.6393e-16,83.811,-127.89,-50.141,-39.113,0,0.017591,0,1,4.24,0,-4.24,0
0,0,0,0,0,0,5.87e-05,-0.00049237,3.0245e-36,8.4945e-05,5.4322e-19,1.0812e-21,9.0324,0.00054461,-0.00050527,8.3177e-33,7.1597e-05,-41.032,-125.71,-50.062,13.061,8.357e-14,1.6573e-16,83.686,-127.69,-50.062,-39.048,0,0.017594,0,1,4.245,0,-4.245,0
0,0,0,0,0,0,5.865e-05,-0.00049164,3.0159e-36,8.4755e-05,5.6162e-19,1.0928e-21,9.0077,0.00054379,-0.0005045,8.3089e-33,7.1508e-05,-40.961,-125.52,-49.983,13.032,8.6398e-14,1.6754e-16,83.56,-127.5,-49.983,-38.983,0,0.017596,0,1,4.25,0,-4.25,0
0,0,0,0,0,0,5.8599e-05,-0.00049091,3.0072e-36,8.4564e-05,5.8002e-19,1.1045e-21,8.9829,0.00054297,-0.00050372,8.3001e-33,7.1418e-05,-40.89,-125.33,-49.905,13.002,8.9226e-14,1.6935e-16,83.434,-127.3,-49.905,-38.918,0,0.017599,0,1,4.255,0,-4.255,0
0,0,0,0,0,0,5.8549e-05,-0.00049017,2.9985e-36,8.4374e-05,5.9842e-19,1.1162e-21,8.9582,0.00054215,-0.00050295,8.2914e-33,7.1329e-05,-40.819,-125.14,-49.826,12.973,9.2055e-14,1.7115e-16,83.308,-127.1,-49.826,-38.853,0,0.017601,0,1,4.26,0,-4.26,0
0,0,0,0,0,0,5.8499e-05,-0.00048944,2.9898e-36,8.4184e-05,6.1681e-19,1.1278e-21,8.9334,0.00054133,-0.00050218,8.2826e-33,7.1239e-05,-40.748,-124.95,-49.747,12.944,9.4883e-14,1.7296e-16,83.183,-126.91,-49.747,-38.788,0,0.017604,0,1,4.265,0,-4.265,0
0,0,0,0,0,0,5.8448e-05,-0.00048871,2.9811e-36,8.3994e-05,6.3521e-19,1.1395e-21,8.9087,0.00054051,-0.00050141,8.2739e-33,7.1149e-05,-40.677,-124.76,-49.668,12.915,9.7711e-14,1.7477e-16,83.057,-126.71,-49.668,-38.723,0,0.017606,0,1,4.27,0,-4.27,0
0,0,0,0,0,0,5.8398e-05,-0.00048798,2.9725e-36,8.3804e-05,6.5361e-19,1.1511e-21,8.8839,0.00053969,-0.00050064,8.2651e-33,7.106e-05,-40.606,-124.56,-49.59,12.886,1.0054e-13,1.7657e-16,82.931,-126.51,-49.59,-38.658,0,0.017609,0,1,4.275,0,-4.275,0
0,0,0,0,0,0,5.8348e-05,-0.00048725,2.9638e-36,8.3614e-05,6.7201e-19,1.1628e-21,8.8592,0.00053887,-0.00049987,8.2563e-33,7.097e-05,-40.535,-124.37,-49.511,12.856,1.0337e-13,1.7838e-16,82.806,-126.32,-49.511,-38.593,0,0.017611,0,1,4.28,0,-4.28,0
0,0,0,0,0,0,5.8297e-05,-0.00048652,2.9551e-36,8.3424e-05,6.9041e-19,1.1745e-21,8.8345,0.00053806,-0.0004991,8.2476e-33,7.0881e-05,-40.465,-124.18,-49.432,12.827,1.062e-13,1.8019e-16,82.68,-126.12,-49.432,-38.529,0,0.017614,0,1,4.285,0,-4.285,0
0,0,0,0,0,0,5.8247e-05,-0.00048578,2.9464e-36,8.3233e-05,7.0881e-19,1.1861e-21,8.8097,0.00053724,-0.00049833,8.2388e-33,7.0791e-05,-40.394,-123.99,-49.354,12.798,1.0902e-13,1.8199e-16,82.554,-125.92,-49.354,-38.464,0,0.017616,0,1,4.29,0,-4.29,0
0,0,0,0,0,0,5.8197e-05,-0.00048505,2.9377e-36,8.3043e-05,7.2721e-19,1.1978e-21,8.785,0.00053642,-0.00049756,8.23e-33,7.0702e-05,-40.323,-123.8,-49.275,12.769,1.1185e-13,1.838e-16,82.428,-125.72,-49.275,-38.399,0,0.017619,0,1,4.295,0,-4.295,0
0,0,0,0,0,0,5.8146e-05,-0.00048432,2.9291e-36,8.2853e-05,7.456e-19,1.2095e-21,8.7602,0.0005356,-0.00049679,8.2213e-33,7.0612e-05,-40.252,-123.61,-49.196,12.739,1.1468e-13,1.8561e-16,82.303,-125.53,-49.196,-38.334,0,0.017621,0,1,4.3,0,-4.3,0
0,0,0,0,0,0,5.8096e-05,-0.00048359,2.9204e-36,8.2663e-05,7.64e-19,1.2211e-21,8.7355,0.00053478,-0.00049602,8.2125e-33,7.0522e-05,-40.181,-123.42,-49.118,12.71,1.1751e-13,1.8741e-16,82.177,-125.33,-49.118,-38.269,0,0.017624,0,1,4.305,0,-4.305,0
0,0,0,0,0,0,5.8046e-05,-0.00048286,2.9117e-36,8.2473e-05,7.824e-19,1.2328e-21,8.7107,0.00053396,-0.00049524,8.2038e-33,7.0433e-05,-40.11,-123.23,-49.039,12.681,1.2034e-13,1.8922e-16,82.051,-125.13,-49.039,-38.204,0,0.017626,0,1,4.31,0,-4.31,0
0,0,0,0,0,0,5.7995e-05,-0.00048213,2.903e-36,8.2283e-05,8.008e-19,1.2445e-21,8.686,0.00053314,-0.00049447,8.195e-33,7.0343e-05,-40.039,-123.04,-48.96,12.652,1.2316e-13,1.9103e-16,81.926,-124.94,-48.96,-38.139,0,0.017629,0,1,4.315,0,-4.315,0
0,0,0,0,0,0,5.7945e-05,-0.00048139,2.8944e-36,8.2092e-05,8.192e-19,1.2561e-21,8.6612,0.00053232,-0.0004937,8.1862e-33,7.0254e-05,-39.968,-122.85,-48.882,12.623,1.2599e-13,1.9283e-16,81.8,-124.74,-48.882,-38.074,0,0.017631,0,1,4.32,0,-4.32,0
0,0,0,0,0,0,5.7895e-05,-0.00048066,2.8857e-36,8.1902e-05,8.3759e-19,1.2678e-21,8.6365,0.0005315,-0.00049293,8.1775e-33,7.0164e-05,-39.897,-122.66,-48.803,12.593,1.2882e-13,1.9464e-16,81.674,-124.54,-48.803,-38.009,0,0.017634,0,1,4.325,0,-4.325,0
0,0,0,0,0,0,5.7844e-05,-0.00047993,2.877e-36,8.1712e-05,8.5599e-19,1.2794e-21,8.6117,0.00053068,-0.00049216,8.1687e-33,7.0075e-05,-39.826,-122.46,-48.724,12.564,1.3165e-13,1.9645e-16,81.548,-124.35,-48.724,-37.944,0,0.017636,0,1,4.33,0,-4.33,0
0,0,0,0,0,0,5.7794e-05,-0.0004792,2.8683e-36,8.1522e-05,8.7439e-19,1.2911e-21,8.587,0.00052986,-0.00049139,8.16e-33,6.9985e-05,-39.755,-122.27,-48.645,12.535,1.3448e-13,1.9826e-16,81.423,-124.15,-48.645,-37.879,0,0.017639,0,1,4.335,0,-4.335,0
0,0,0,0,0,0,5.7744e-05,-0.00047847,2.8596e-36,8.1332e-05,8.9279e-19,1.3028e-21,8.5622,0.00052904,-0.00049062,8.1512e-33,6.9895e-05,-39.684,-122.08,-48.567,12.506,1.3731e-13,2.0006e-16,81.297,-123.95,-48.567,-37.814,0,0.017641,0,1,4.34,0,-4.34,0
0,0,0,0,0,0,5.7693e-05,-0.00047774,2.851e-36,8.1142e-05,9.1119e-19,1.3144e-21,8.5375,0.00052822,-0.00048985,8.1424e-33,6.9806e-05,-39.613,-121.89,-48.488,12.476,1.4013e-13,2.0187e-16,81.171,-123.76,-48.488,-37.75,0,0.017644,0,1,4.345,0,-4.345,0
0,0,0,0,0,0,5.7643e-05,-0.000477,2.8423e-36,8.0952e-05,9.2959e-19,1.3261e-21,8.5127,0.0005274,-0.00048908,8.1337e-33,6.9716e-05,-39.542,-121.7,-48.409,12.447,1.4296e-13,2.0368e-16,81.046,-123.56,-48.409,-37.685,0,0.017646,0,1,4.35,0,-4.35,0
0,0,0,0,0,0,5.7593e-05,-0.00047627,2.8336e-36,8.0761e-05,9.4799e-19,1.3378e-21,8.488,0.00052659,-0.00048831,8.1249e-33,6.9627e-05,-39.471,-121.51,-48.331,12.418,1.4579e-13,2.0548e-16,80.92,-123.36,-48.331,-37.62,0,0.017649,0,1,4.355,0,-4.355,0
0,0,0,0,0,0,5.7542e-05,-0.00047554,2.8249e-36,8.0571e-05,9.6638e-19,1.3494e-21,8.4632,0.00052577,-0.00048753,8.1161e-33,6.9537e-05,-39.4,-121.32,-48.252,12.389,1.4862e-13,2.0729e-16,80.794,-123.16,-48.252,-37.555,0,0.017651,0,1,4.36,0,-4.36,0
0,0,0,0,0,0,5.7492e-05,-0.00047481,2.8163e-36,8.0381e-05,9.8478e-19,1.3611e-21,8.4385,0.00052495,-0.00048676,8.1074e-33,6.9447e-05,-39.329,-121.13,-48.173,12.36,1.5145e-13,2.091e-16,80.668,-122.97,-48.173,-37.49,0,0.017654,0,1,4.365,0,-4.365,0
0,0,0,0,0,0,5.7442e-05,-0.00047408,2.8076e-36,8.0191e-05,1.0032e-18,1.3728e-21,8.4138,0.00052413,-0.00048599,8.0986e-33,6.9358e-05,-39.258,-120.94,-48.095,12.33,1.5427e-13,2.109e-16,80.543,-122.77,-48.095,-37.425,0,0.017656,0,1,4.37,0,-4.37,0
0,0,0,0,0,0,5.7391e-05,-0.00047334,2.7989e-36,8.0001e-05,1.0216e-18,1.3844e-21,8.389,0.00052331,-0.00048522,8.0899e-33,6.9268e-05,-39.187,-120.75,-48.016,12.301,1.571e-13,2.1271e-16,80.417,-122.57,-48.016,-37.36,0,0.017659,0,1,4.375,0,-4.375,0
0,0,0,0,0,0,5.7341e-05,-0.00047261,2.7902e-36,7.9811e-05,1.04e-18,1.3961e-21,8.3643,0.00052249,-0.00048445,8.0811e-33,6.9179e-05,-39.116,-120.56,-47.937,12.272,1.5993e-13,2.1452e-16,80.291,-122.38,-47.937,-37.295,0,0.017661,0,1,4.38,0,-4.38,0
0,0,0,0,0,0,5.7291e-05,-0.00047188,2.7815e-36,7.9621e-05,1.0584e-18,1.4077e-21,8.3395,0.00052167,-0.00048368,8.0723e-33,6.9089e-05,-39.045,-120.36,-47.858,12.243,1.6276e-13,2.1632e-16,80.165,-122.18,-47.858,-37.23,0,0.017664,0,1,4.385,0,-4.385,0
0,0,0,0,0,0,5.724e-05,-0.00047115,2.7729e-36,7.943e-05,1.0768e-18,1.4194e-21,8.3148,0.00052085,-0.00048291,8.0636e-33,6.9e-05,-38.974,-120.17,-47.78,12.214,1.6559e-13,2.1813e-16,80.04,-121.98,-47.78,-37.165,0,0.017666,0,1,4.39,0,-4.39,0
0,0,0,0,0,0,5.719e-05,-0.00047042,2.7642e-36,7.924e-05,1.0952e-18,1.4311e-21,8.29,0.00052003,-0.00048214,8.0548e-33,6.891e-05,-38.903,-119.98,-47.701,12.184,1.6842e-13,2.1994e-16,79.914,-121.79,-47.701,-37.1,0,0.017669,0,1,4.395,0,-4.395,0
0,0,0,0,0,0,5.714e-05,-0.00046969,2.7555e-36,7.905e-05,1.1136e-18,1.4427e-21,8.2653,0.00051921,-0.00048137,8.0461e-33,6.882e-05,-38.833,-119.79,-47.622,12.155,1.7124e-13,2.2174e-16,79.788,-121.59,-47.622,-37.035,0,0.017671,0,1,4.4,0,-4.4,0
0,0,0,0,0,0,5.7089e-05,-0.00046895,2.7468e-36,7.886e-05,1.132e-18,1.4544e-21,8.2405,0.00051839,-0.0004806,8.0373e-33,6.8731e-05,-38.762,-119.6,-47.544,12.126,1.7407e-13,2.2355e-16,79.663,-121.39,-47.544,-36.971,0,0.017674,0,1,4.405,0,-4.405,0
0,0,0,0,0,0,5.7039e-05,-0.00046822,2.7381e-36,7.867e-05,1.1504e-18,1.4661e-21,8.2158,0.00051757,-0.00047983,8.0285e-33,6.8641e-05,-38.691,-119.41,-47.465,12.097,1.769e-13,2.2536e-16,79.537,-121.19,-47.465,-36.906,0,0.017676,0,1,4.41,0,-4.41,0
0,0,0,0,0,0,5.6989e-05,-0.00046749,2.7295e-36,7.848e-05,1.1688e-18,1.4777e-21,8.191,0.00051675,-0.00047905,8.0198e-33,6.8552e-05,-38.62,-119.22,-47.386,12.067,1.7973e-13,2.2716e-16,79.411,-121,-47.386,-36.841,0,0.017679,0,1,4.415,0,-4.415,0
0,0,0,0,0,0,5.6938e-05,-0.00046676,2.7208e-36,7.829e-05,1.1872e-18,1.4894e-21,8.1663,0.00051593,-0.00047828,8.011e-33,6.8462e-05,-38.549,-119.03,-47.308,12.038,1.8256e-13,2.2897e-16,79.285,-120.8,-47.308,-36.776,0,0.017682,0,1,4.42,0,-4.42,0
0,0,0,0,0,0,5.6888e-05,-0.00046603,2.7121e-36,7.8099e-05,1.2056e-18,1.501e-21,8.1415,0.00051512,-0.00047751,8.0022e-33,6.8372e-05,-38.478,-118.84,-47.229,12.009,1.8539e-13,2.3078e-16,79.16,-120.6,-47.229,-36.711,0,0.017684,0,1,4.425,0,-4.425,0
0,0,0,0,0,0,5.6838e-05,-0.0004653,2.7034e-36,7.7909e-05,1.224e-18,1.5127e-21,8.1168,0.0005143,-0.00047674,7.9935e-33,6.8283e-05,-38.407,-118.65,-47.15,11.98,1.8821e-13,2.3258e-16,79.034,-120.41,-47.15,-36.646,0,0.017687,0,1,4.43,0,-4.43,0
0,0,0,0,0,0,5.6787e-05,-0.00046456,2.6948e-36,7.7719e-05,1.2424e-18,1.5244e-21,8.092,0.00051348,-0.00047597,7.9847e-33,6.8193e-05,-38.336,-118.45,-47.072,11.951,1.9104e-13,2.3439e-16,78.908,-120.21,-47.072,-36.581,0,0.017689,0,1,4.435,0,-4.435,0
0,0,0,0,0,0,5.6737e-05,-0.00046383,2.6861e-36,7.7529e-05,1.2608e-18,1.536e-21,8.0673,0.00051266,-0.0004752,7.976e-33,6.8104e-05,-38.265,-118.26,-46.993,11.921,1.9387e-13,2.362e-16,78.783,-120.01,-46.993,-36.516,0,0.017692,0,1,4.44,0,-4.44,0
0,0,0,0,0,0,5.6687e-05,-0.0004631,2.6774e-36,7.7339e-05,1.2792e-18,1.5477e-21,8.0425,0.00051184,-0.00047443,7.9672e-33,6.8014e-05,-38.194,-118.07,-46.914,11.892,1.967e-13,2.38e-16,78.657,-119.82,-46.914,-36.451,0,0.017694,0,1,4.445,0,-4.445,0
0,0,0,0,0,0,5.6636e-05,-0.00046237,2.6687e-36,7.7149e-05,1.2976e-18,1.5594e-21,8.0178,0.00051102,-0.00047366,7.9584e-33,6.7925e-05,-38.123,-117.88,-46.835,11.863,1.9953e-13,2.3981e-16,78.531,-119.62,-46.835,-36.386,0,0.017697,0,1,4.45,0,-4.45,0
0,0,0,0,0,0,5.6586e-05,-0.00046164,2.66e-36,7.6959e-05,1.316e-18,1.571e-21,7.9931,0.0005102,-0.00047289,7.9497e-33,6.7835e-05,-38.052,-117.69,-46.757,11.834,2.0235e-13,2.4162e-16,78.405,-119.42,-46.757,-36.321,0,0.017699,0,1,4.455,0,-4.455,0
0,0,0,0,0,0,5.6536e-05,-0.00046091,2.6514e-36,7.6768e-05,1.3344e-18,1.5827e-21,7.9683,0.00050938,-0.00047212,7.9409e-33,6.7745e-05,-37.981,-117.5,-46.678,11.804,2.0518e-13,2.4342e-16,78.28,-119.22,-46.678,-36.256,0,0.017702,0,1,4.46,0,-4.46,0
0,0,0,0,0,0,5.6485e-05,-0.00046017,2.6427e-36,7.6578e-05,1.3527e-18,1.5944e-21,7.9436,0.00050856,-0.00047134,7.9322e-33,6.7656e-05,-37.91,-117.31,-46.599,11.775,2.0801e-13,2.4523e-16,78.154,-119.03,-46.599,-36.191,0,0.017704,0,1,4.465,0,-4.465,0
0,0,0,0,0,0,5.6435e-05,-0.00045944,2.634e-36,7.6388e-05,1.3711e-18,1.606e-21,7.9188,0.00050774,-0.00047057,7.9234e-33,6.7566e-05,-37.839,-117.12,-46.521,11.746,2.1084e-13,2.4704e-16,78.028,-118.83,-46.521,-36.127,0,0.017707,0,1,4.47,0,-4.47,0
0,0,0,0,0,0,5.6385e-05,-0.00045871,2.6253e-36,7.6198e-05,1.3895e-18,1.6177e-21,7.8941,0.00050692,-0.0004698,7.9146e-33,6.7477e-05,-37.768,-116.93,-46.442,11.717,2.1367e-13,2.4884e-16,77.903,-118.63,-46.442,-36.062,0,0.017709,0,1,4.475,0,-4.475,0
0,0,0,0,0,0,5.6334e-05,-0.00045798,2.6167e-36,7.6008e-05,1.4079e-18,1.6293e-21,7.8693,0.0005061,-0.00046903,7.9059e-33,6.7387e-05,-37.697,-116.74,-46.363,11.688,2.165e-13,2.5065e-16,77.777,-118.44,-46.363,-35.997,0,0.017712,0,1,4.48,0,-4.48,0
0,0,0,0,0,0,5.6284e-05,-0.00045725,2.608e-36,7.5818e-05,1.4263e-18,1.641e-21,7.8446,0.00050528,-0.00046826,7.8971e-33,6.7297e-05,-37.626,-116.55,-46.285,11.658,2.1932e-13,2.5246e-16,77.651,-118.24,-46.285,-35.932,0,0.017714,0,1,4.485,0,-4.485,0
0,0,0,0,0,0,5.6234e-05,-0.00045652,2.5993e-36,7.5628e-05,1.4447e-18,1.6527e-21,7.8198,0.00050446,-0.00046749,7.8883e-33,6.7208e-05,-37.555,-116.35,-46.206,11.629,2.2215e-13,2.5426e-16,77.525,-118.04,-46.206,-35.867,0,0.017717,0,1,4.49,0,-4.49,0
0,0,0,0,0,0,5.6183e-05,-0.00045578,2.5906e-36,7.5437e-05,1.4631e-18,1.6643e-21,7.7951,0.00050365,-0.00046672,7.8796e-33,6.7118e-05,-37.484,-116.16,-46.127,11.6,2.2498e-13,2.5607e-16,77.4,-117.85,-46.127,-35.802,0,0.017719,0,1,4.495,0,-4.495,0
0,0,0,0,0,0,5.6133e-05,-0.00045505,2.5819e-36,7.5247e-05,1.4815e-18,1.676e-21,7.7703,0.00050283,-0.00046595,7.8708e-33,6.7029e-05,-37.413,-115.97,-46.049,11.571,2.2781e-13,2.5788e-16,77.274,-117.65,-46.049,-35.737,0,0.017722,0,1,4.5,0,-4.5,0
0,0,0,0,0,0,5.6083e-05,-0.00045432,2.5733e-36,7.5057e-05,1.4999e-18,1.6877e-21,7.7456,0.00050201,-0.00046518,7.8621e-33,6.6939e-05,-37.342,-115.78,-45.97,11.541,2.3064e-13,2.5969e-16,77.148,-117.45,-45.97,-35.672,0,0.017724,0,1,4.505,0,-4.505,0
0,0,0,0,0,0,5.6032e-05,-0.00045359,2.5646e-36,7.4867e-05,1.5183e-18,1.6993e-21,7.7208,0.00050119,-0.00046441,7.8533e-33,6.685e-05,-37.272,-115.59,-45.891,11.512,2.3346e-13,2.6149e-16,77.023,-117.25,-45.891,-35.607,0,0.017727,0,1,4.51,0,-4.51,0
0,0,0,0,0,0,5.5982e-05,-0.00045286,2.5559e-36,7.4677e-05,1.5367e-18,1.711e-21,7.6961,0.00050037,-0.00046364,7.8445e-33,6.676e-05,-37.201,-115.4,-45.812,11.483,2.3629e-13,2.633e-16,76.897,-117.06,-45.812,-35.542,0,0.017729,0,1,4.515,0,-4.515,0
0,0,0,0,0,0,5.5932e-05,-0.00045213,2.5472e-36,7.4487e-05,1.5551e-18,1.7227e-21,7.6713,0.00049955,-0.00046286,7.8358e-33,6.667e-05,-37.13,-115.21,-45.734,11.454,2.3912e-13,2.6511e-16,76.771,-116.86,-45.734,-35.477,0,0.017732,0,1,4.52,0,-4.52,0
0,0,0,0,0,0,5.5881e-05,-0.00045139,2.5385e-36,7.4296e-05,1.5735e-18,1.7343e-21,7.6466,0.00049873,-0.00046209,7.827e-33,6.6581e-05,-37.059,-115.02,-45.655,11.425,2.4195e-13,2.6691e-16,76.645,-116.66,-45.655,-35.412,0,0.017734,0,1,4.525,0,-4.525,0
0,0,0,0,0,0,5.5831e-05,-0.00045066,2.5299e-36,7.4106e-05,1.5919e-18,1.746e-21,7.6218,0.00049791,-0.00046132,7.8183e-33,6.6491e-05,-36.988,-114.83,-45.576,11.395,2.4478e-13,2.6872e-16,76.52,-116.47,-45.576,-35.348,0,0.017737,0,1,4.53,0,-4.53,0
0,0,0,0,0,0,5.5781e-05,-0.00044993,2.5212e-36,7.3916e-05,1.6103e-18,1.7576e-21,7.5971,0.00049709,-0.00046055,7.8095e-33,6.6402e-05,-36.917,-114.64,-45.498,11.366,2.4761e-13,2.7053e-16,76.394,-116.27,-45.498,-35.283,0,0.017739,0,1,4.535,0,-4.535,0
0,0,0,0,0,0,5.573e-05,-0.0004492,2.5125e-36,7.3726e-05,1.6287e-18,1.7693e-21,7.5724,0.00049627,-0.00045978,7.8007e-33,6.6312e-05,-36.846,-114.44,-45.419,11.337,2.5043e-13,2.7233e-16,76.268,-116.07,-45.419,-35.218,0,0.017742,0,1,4.54,0,-4.54,0
0,0,0,0,0,0,5.568e-05,-0.00044847,2.5038e-36,7.3536e-05,1.6471e-18,1.781e-21,7.5476,0.00049545,-0.00045901,7.792e-33,6.6223e-05,-36.775,-114.25,-45.34,11.308,2.5326e-13,2.7414e-16,76.143,-115.88,-45.34,-35.153,0,0.017744,0,1,4.545,0,-4.545,0
0,0,0,0,0,0,5.563e-05,-0.00044774,2.4952e-36,7.3346e-05,1.6655e-18,1.7926e-21,7.5229,0.00049463,-0.00045824,7.7832e-33,6.6133e-05,-36.704,-114.06,-45.262,11.278,2.5609e-13,2.7595e-16,76.017,-115.68,-45.262,-35.088,0,0.017747,0,1,4.55,0,-4.55,0
0,0,0,0,0,0,5.5579e-05,-0.000447,2.4865e-36,7.3156e-05,1.6839e-18,1.8043e-21,7.4981,0.00049381,-0.00045747,7.7745e-33,6.6043e-05,-36.633,-113.87,-45.183,11.249,2.5892e-13,2.7775e-16,75.891,-115.48,-45.183,-35.023,0,0.017749,0,1,4.555,0,-4.555,0
0,0,0,0,0,0,5.5529e-05,-0.00044627,2.4778e-36,7.2965e-05,1.7023e-18,1.816e-21,7.4734,0.00049299,-0.0004567,7.7657e-33,6.5954e-05,-36.562,-113.68,-45.104,11.22,2.6175e-13,2.7956e-16,75.765,-115.29,-45.104,-34.958,0,0.017752,0,1,4.56,0,-4.56,0
0,0,0,0,0,0,5.5479e-05,-0.00044554,2.4691e-36,7.2775e-05,1.7207e-18,1.8276e-21,7.4486,0.00049218,-0.00045593,7.7569e-33,6.5864e-05,-36.491,-113.49,-45.025,11.191,2.6457e-13,2.8137e-16,75.64,-115.09,-45.025,-34.893,0,0.017754,0,1,4.565,0,-4.565,0
0,0,0,0,0,0,5.5428e-05,-0.00044481,2.4604e-36,7.2585e-05,1.7391e-18,1.8393e-21,7.4239,0.00049136,-0.00045516,7.7482e-33,6.5775e-05,-36.42,-113.3,-44.947,11.162,2.674e-13,2.8317e-16,75.514,-114.89,-44.947,-34.828,0,0.017757,0,1,4.57,0,-4.57,0
0,0,0,0,0,0,5.5378e-05,-0.00044408,2.4518e-36,7.2395e-05,1.7575e-18,1.851e-21,7.3991,0.00049054,-0.00045438,7.7394e-33,6.5685e-05,-36.349,-113.11,-44.868,11.132,2.7023e-13,2.8498e-16,75.388,-114.69,-44.868,-34.763,0,0.017759,0,1,4.575,0,-4.575,0
0,0,0,0,0,0,5.5328e-05,-0.00044335,2.4431e-36,7.2205e-05,1.7759e-18,1.8626e-21,7.3744,0.00048972,-0.00045361,7.7306e-33,6.5595e-05,-36.278,-112.92,-44.789,11.103,2.7306e-13,2.8679e-16,75.263,-114.5,-44.789,-34.698,0,0.017762,0,1,4.58,0,-4.58,0
0,0,0,0,0,0,5.5277e-05,-0.00044261,2.4344e-36,7.2015e-05,1.7943e-18,1.8743e-21,7.3496,0.0004889,-0.00045284,7.7219e-33,6.5506e-05,-36.207,-112.73,-44.711,11.074,2.7589e-13,2.8859e-16,75.137,-114.3,-44.711,-34.633,0,0.017764,0,1,4.585,0,-4.585,0
0,0,0,0,0,0,5.5227e-05,-0.00044188,2.4257e-36,7.1825e-05,1.8127e-18,1.8859e-21,7.3249,0.00048808,-0.00045207,7.7131e-33,6.5416e-05,-36.136,-112.54,-44.632,11.045,2.7872e-13,2.904e-16,75.011,-114.1,-44.632,-34.569,0,0.017767,0,1,4.59,0,-4.59,0
0,0,0,0,0,0,5.5177e-05,-0.00044115,2.4171e-36,7.1634e-05,1.8311e-18,1.8976e-21,7.3001,0.00048726,-0.0004513,7.7044e-33,6.5327e-05,-36.065,-112.34,-44.553,11.015,2.8154e-13,2.9221e-16,74.885,-113.91,-44.553,-34.504,0,0.017769,0,1,4.595,0,-4.595,0
0,0,0,0,0,0,5.5126e-05,-0.00044042,2.4084e-36,7.1444e-05,1.8495e-18,1.9093e-21,7.2754,0.00048644,-0.00045053,7.6956e-33,6.5237e-05,-35.994,-112.15,-44.475,10.986,2.8437e-13,2.9401e-16,74.76,-113.71,-44.475,-34.439,0,0.017772,0,1,4.6,0,-4.6,0
0,0,0,0,0,0,5.5076e-05,-0.00043969,2.3997e-36,7.1254e-05,1.8679e-18,1.9209e-21,7.2506,0.00048562,-0.00044976,7.6868e-33,6.5148e-05,-35.923,-111.96,-44.396,10.957,2.872e-13,2.9582e-16,74.634,-113.51,-44.396,-34.374,0,0.017774,0,1,4.605,0,-4.605,0
0,0,0,0,0,0,5.5026e-05,-0.00043896,2.391e-36,7.1064e-05,1.8863e-18,1.9326e-21,7.2259,0.0004848,-0.00044899,7.6781e-33,6.5058e-05,-35.852,-111.77,-44.317,10.928,2.9003e-13,2.9763e-16,74.508,-113.32,-44.317,-34.309,0,0.017777,0,1,4.61,0,-4.61,0
0,0,0,0,0,0,5.4975e-05,-0.00043822,2.3823e-36,7.0874e-05,1.9047e-18,1.9443e-21,7.2012,0.00048398,-0.00044822,7.6693e-33,6.4968e-05,-35.781,-111.58,-44.239,10.899,2.9286e-13,2.9943e-16,74.382,-113.12,-44.239,-34.244,0,0.017779,0,1,4.615,0,-4.615,0
0,0,0,0,0,0,5.4925e-05,-0.00043749,2.3737e-36,7.0684e-05,1.9231e-18,1.9559e-21,7.1764,0.00048316,-0.00044745,7.6606e-33,6.4879e-05,-35.711,-111.39,-44.16,10.869,2.9568e-13,3.0124e-16,74.257,-112.92,-44.16,-34.179,0,0.017782,0,1,4.62,0,-4.62,0
0,0,0,0,0,0,5.4875e-05,-0.00043676,2.365e-36,7.0494e-05,1.9415e-18,1.9676e-21,7.1517,0.00048234,-0.00044667,7.6518e-33,6.4789e-05,-35.64,-111.2,-44.081,10.84,2.9851e-13,3.0305e-16,74.131,-112.72,-44.081,-34.114,0,0.017784,0,1,4.625,0,-4.625,0
0,0,0,0,0,0,5.4824e-05,-0.00043603,2.3563e-36,7.0303e-05,1.9599e-18,1.9793e-21,7.1269,0.00048153,-0.0004459,7.643e-33,6.47e-05,-35.569,-111.01,-44.002,10.811,3.0134e-13,3.0485e-16,74.005,-112.53,-44.002,-34.049,0,0.017787,0,1,4.63,0,-4.63,0
0,0,0,0,0,0,5.4774e-05,-0.0004353,2.3476e-36,7.0113e-05,1.9783e-18,1.9909e-21,7.1022,0.00048071,-0.00044513,7.6343e-33,6.461e-05,-35.498,-110.82,-43.924,10.782,3.0417e-13,3.0666e-16,73.88,-112.33,-43.924,-33.984,0,0.017789,0,1,4.635,0,-4.635,0
0,0,0,0,0,0,5.4709e-05,-0.00043449,2.3386e-36,6.9901e-05,2.0016e-18,2.0068e-21,7.074,0.0004798,-0.00044428,7.6289e-33,6.4501e-05,-35.422,-110.61,-43.838,10.749,3.0775e-13,3.0912e-16,73.74,-112.11,-43.838,-33.916,0,0.017792,0,1,4.64,0,-4.64,0
0,0,0,0,0,0,5.4731e-05,-0.00043412,2.3317e-36,6.9821e-05,1.9955e-18,1.9974e-21,7.0662,0.00047942,-0.0004439,7.6033e-33,6.4508e-05,-35.374,-110.51,-43.793,10.737,3.0681e-13,3.0768e-16,73.683,-112.01,-43.793,-33.87,0,0.017794,0,1,4.645,0,-4.645,0
0,0,0,0,0,0,5.4752e-05,-0.00043376,2.3248e-36,6.9742e-05,1.9894e-18,1.9881e-21,7.0584,0.00047905,-0.00044352,7.5777e-33,6.4515e-05,-35.326,-110.41,-43.748,10.725,3.0587e-13,3.0623e-16,73.625,-111.91,-43.748,-33.824,0,0.017796,0,1,4.65,0,-4.65,0
0,0,0,0,0,0,5.4773e-05,-0.00043339,2.3179e-36,6.9662e-05,1.9833e-18,1.9787e-21,7.0506,0.00047867,-0.00044314,7.552e-33,6.4521e-05,-35.277,-110.3,-43.703,10.712,3.0493e-13,3.0479e-16,73.567,-111.8,-43.703,-33.778,0,0.017798,0,1,4.655,0,-4.655,0
0,0,0,0,0,0,5.4794e-05,-0.00043302,2.311e-36,6.9582e-05,1.9772e-18,1.9694e-21,7.0427,0.0004783,-0.00044275,7.5264e-33,6.4528e-05,-35.229,-110.2,-43.658,10.7,3.0399e-13,3.0335e-16,73.51,-111.7,-43.658,-33.732,0,0.017799,0,1,4.66,0,-4.66,0
0,0,0,0,0,0,5.4816e-05,-0.00043265,2.3041e-36,6.9502e-05,1.971e-18,1.96e-21,7.0349,0.00047792,-0.00044237,7.5008e-33,6.4534e-05,-35.181,-110.1,-43.613,10.688,3.0305e-13,3.0191e-16,73.452,-111.6,-43.613,-33.686,0,0.017801,0,1,4.665,0,-4.665,0
0,0,0,0,0,0,5.4837e-05,-0.00043228,2.2972e-36,6.9423e-05,1.9649e-18,1.9507e-21,7.0271,0.00047754,-0.00044199,7.4752e-33,6.4541e-05,-35.133,-110,-43.568,10.676,3.0211e-13,3.0047e-16,73.394,-111.49,-43.568,-33.64,0,0.017803,0,1,4.67,0,-4.67,0
0,0,0,0,0,0,5.4858e-05,-0.00043191,2.2902e-36,6.9343e-05,1.9588e-18,1.9413e-21,7.0193,0.00047717,-0.0004416,7.4496e-33,6.4548e-05,-35.084,-109.9,-43.523,10.663,3.0117e-13,2.9902e-16,73.337,-111.39,-43.523,-33.593,0,0.017805,0,1,4.675,0,-4.675,0
0,0,0,0,0,0,5.4879e-05,-0.00043155,2.2833e-36,6.9263e-05,1.9527e-18,1.932e-21,7.0114,0.00047679,-0.00044122,7.424e-33,6.4554e-05,-35.036,-109.8,-43.478,10.651,3.0024e-13,2.9758e-16,73.279,-111.28,-43.478,-33.547,0,0.017807,0,1,4.68,0,-4.68,0
0,0,0,0,0,0,5.4901e-05,-0.00043118,2.2764e-36,6.9184e-05,1.9466e-18,1.9226e-21,7.0036,0.00047642,-0.00044084,7.3984e-33,6.4561e-05,-34.988,-109.69,-43.433,10.639,2.993e-13,2.9614e-16,73.221,-111.18,-43.433,-33.501,0,0.017809,0,1,4.685,0,-4.685,0
0,0,0,0,0,0,5.4922e-05,-0.00043081,2.2695e-36,6.9104e-05,1.9405e-18,1.9133e-21,6.9958,0.00047604,-0.00044045,7.3728e-33,6.4568e-05,-34.94,-109.59,-43.388,10.627,2.9836e-13,2.947e-16,73.164,-111.08,-43.388,-33.455,0,0.01781,0,1,4.69,0,-4.69,0
0,0,0,0,0,0,5.4943e-05,-0.00043044,2.2626e-36,6.9024e-05,1.9344e-18,1.9039e-21,6.988,0.00047567,-0.00044007,7.3471e-33,6.4574e-05,-34.891,-109.49,-43.343,10.614,2.9742e-13,2.9326e-16,73.106,-110.97,-43.343,-33.409,0,0.017812,0,1,4.695,0,-4.695,0
0,0,0,0,0,0,5.4964e-05,-0.00043007,2.2557e-36,6.8945e-05,1.9283e-18,1.8946e-21,6.9801,0.00047529,-0.00043969,7.3215e-33,6.4581e-05,-34.843,-109.39,-43.298,10.602,2.9648e-13,2.9181e-16,73.048,-110.87,-43.298,-33.363,0,0.017814,0,1,4.7,0,-4.7,0
0,0,0,0,0,0,5.4986e-05,-0.0004297,2.2488e-36,6.8865e-05,1.9222e-18,1.8852e-21,6.9723,0.00047492,-0.0004393,7.2959e-33,6.4588e-05,-34.795,-109.29,-43.253,10.59,2.9554e-13,2.9037e-16,72.991,-110.77,-43.253,-33.317,0,0.017816,0,1,4.705,0,-4.705,0
0,0,0,0,0,0,5.5007e-05,-0.00042933,2.2419e-36,6.8785e-05,1.916e-18,1.8758e-21,6.9645,0.00047454,-0.00043892,7.2703e-33,6.4594e-05,-34.746,-109.19,-43.208,10.578,2.946e-13,2.8893e-16,72.933,-110.66,-43.208,-33.271,0,0.017818,0,1,4.71,0,-4.71,0
0,0,0,0,0,0,5.5028e-05,-0.00042897,2.235e-36,6.8705e-05,1.9099e-18,1.8665e-21,6.9567,0.00047417,-0.00043854,7.2447e-33,6.4601e-05,-34.698,-109.08,-43.163,10.565,2.9366e-13,2.8749e-16,72.876,-110.56,-43.163,-33.225,0,0.01782,0,1,4.715,0,-4.715,0
0,0,0,0,0,0,5.5049e-05,-0.0004286,2.2281e-36,6.8626e-05,1.9038e-18,1.8571e-21,6.9488,0.00047379,-0.00043816,7.2191e-33,6.4607e-05,-34.65,-108.98,-43.118,10.553,2.9272e-13,2.8605e-16,72.818,-110.45,-43.118,-33.179,0,0.017821,0,1,4.72,0,-4.72,0
0,0,0,0,0,0,5.507e-05,-0.00042823,2.2212e-36,6.8546e-05,1.8977e-18,1.8478e-21,6.941,0.00047341,-0.00043777,7.1935e-33,6.4614e-05,-34.602,-108.88,-43.073,10.541,2.9178e-13,2.846e-16,72.76,-110.35,-43.073,-33.133,0,0.017823,0,1,4.725,0,-4.725,0
0,0,0,0,0,0,5.5092e-05,-0.00042786,2.2143e-36,6.8466e-05,1.8916e-18,1.8384e-21,6.9332,0.00047304,-0.00043739,7.1679e-33,6.4621e-05,-34.553,-108.78,-43.028,10.528,2.9084e-13,2.8316e-16,72.703,-110.25,-43.028,-33.087,0,0.017825,0,1,4.73,0,-4.73,0
0,0,0,0,0,0,5.5113e-05,-0.00042749,2.2074e-36,6.8387e-05,1.8855e-18,1.8291e-21,6.9254,0.00047266,-0.00043701,7.1423e-33,6.4627e-05,-34.505,-108.68,-42.983,10.516,2.899e-13,2.8172e-16,72.645,-110.14,-42.983,-33.041,0,0.017827,0,1,4.735,0,-4.735,0
0,0,0,0,0,0,5.5134e-05,-0.00042712,2.2005e-36,6.8307e-05,1.8794e-18,1.8197e-21,6.9175,0.00047229,-0.00043662,7.1166e-33,6.4634e-05,-34.457,-108.58,-42.938,10.504,2.8896e-13,2.8028e-16,72.587,-110.04,-42.938,-32.995,0,0.017829,0,1,4.74,0,-4.74,0
0,0,0,0,0,0,5.5155e-05,-0.00042676,2.1936e-36,6.8227e-05,1.8733e-18,1.8104e-21,6.9097,0.00047191,-0.00043624,7.091e-33,6.4641e-05,-34.409,-108.48,-42.893,10.492,2.8802e-13,2.7884e-16,72.53,-109.93,-42.893,-32.949,0,0.017831,0,1,4.745,0,-4.745,0
0,0,0,0,0,0,5.5177e-05,-0.00042639,2.1867e-36,6.8147e-05,1.8672e-18,1.801e-21,6.9019,0.00047154,-0.00043586,7.0654e-33,6.4647e-05,-34.36,-108.37,-42.848,10.479,2.8708e-13,2.7739e-16,72.472,-109.83,-42.848,-32.903,0,0.017832,0,1,4.75,0,-4.75,0
0,0,0,0,0,0,5.5198e-05,-0.00042602,2.1797e-36,6.8068e-05,1.8611e-18,1.7917e-21,6.8941,0.00047116,-0.00043547,7.0398e-33,6.4654e-05,-34.312,-108.27,-42.803,10.467,2.8614e-13,2.7595e-16,72.414,-109.73,-42.803,-32.857,0,0.017834,0,1,4.755,0,-4.755,0
0,0,0,0,0,0,5.5219e-05,-0.00042565,2.1728e-36,6.7988e-05,1.8549e-18,1.7823e-21,6.8862,0.00047079,-0.00043509,7.0142e-33,6.4661e-05,-34.264,-108.17,-42.758,10.455,2.852e-13,2.7451e-16,72.357,-109.62,-42.758,-32.811,0,0.017836,0,1,4.76,0,-4.76,0
0,0,0,0,0,0,5.524e-05,-0.00042528,2.1659e-36,6.7908e-05,1.8488e-18,1.773e-21,6.8784,0.00047041,-0.00043471,6.9886e-33,6.4667e-05,-34.216,-108.07,-42.713,10.443,2.8427e-13,2.7307e-16,72.299,-109.52,-42.713,-32.765,0,0.017838,0,1,4.765,0,-4.765,0
0,0,0,0,0,0,5.5262e-05,-0.00042491,2.159e-36,6.7829e-05,1.8427e-18,1.7636e-21,6.8706,0.00047004,-0.00043433,6.963e-33,6.4674e-05,-34.167,-107.97,-42.668,10.43,2.8333e-13,2.7163e-16,72.241,-109.42,-42.668,-32.719,0,0.01784,0,1,4.77,0,-4.77,0
0,0,0,0,0,0,5.5283e-05,-0.00042454,2.1521e-36,6.7749e-05,1.8366e-18,1.7543e-21,6.8628,0.00046966,-0.00043394,6.9374e-33,6.468e-05,-34.119,-107.87,-42.623,10.418,2.8239e-13,2.7018e-16,72.184,-109.31,-42.623,-32.673,0,0.017842,0,1,4.775,0,-4.775,0
0,0,0,0,0,0,5.5304e-05,-0.00042418,2.1452e-36,6.7669e-05,1.8305e-18,1.7449e-21,6.8549,0.00046928,-0.00043356,6.9117e-33,6.4687e-05,-34.071,-107.76,-42.578,10.406,2.8145e-13,2.6874e-16,72.126,-109.21,-42.578,-32.627,0,0.017843,0,1,4.78,0,-4.78,0
0,0,0,0,0,0,5.5325e-05,-0.00042381,2.1383e-36,6.7589e-05,1.8244e-18,1.7356e-21,6.8471,0.00046891,-0.00043318,6.8861e-33,6.4694e-05,-34.023,-107.66,-42.533,10.394,2.8051e-13,2.673e-16,72.068,-109.1,-42.533,-32.581,0,0.017845,0,1,4.785,0,-4.785,0
0,0,0,0,0,0,5.5347e-05,-0.00042344,2.1314e-36,6.751e-05,1.8183e-18,1.7262e-21,6.8393,0.00046853,-0.00043279,6.8605e-33,6.47e-05,-33.974,-107.56,-42.488,10.381,2.7957e-13,2.6586e-16,72.011,-109,-42.488,-32.535,0,0.017847,0,1,4.79,0,-4.79,0
0,0,0,0,0,0,5.5368e-05,-0.00042307,2.1245e-36,6.743e-05,1.8122e-18,1.7169e-21,6.8315,0.00046816,-0.00043241,6.8349e-33,6.4707e-05,-33.926,-107.46,-42.443,10.369,2.7863e-13,2.6442e-16,71.953,-108.9,-42.443,-32.489,0,0.017849,0,1,4.795,0,-4.795,0
0,0,0,0,0,0,5.5389e-05,-0.0004227,2.1176e-36,6.735e-05,1.8061e-18,1.7075e-21,6.8236,0.00046778,-0.00043203,6.8093e-33,6.4714e-05,-33.878,-107.36,-42.399,10.357,2.7769e-13,2.6297e-16,71.895,-108.79,-42.399,-32.443,0,0.017851,0,1,4.8,0,-4.8,0
0,0,0,0,0,0,5.541e-05,-0.00042233,2.1107e-36,6.7271e-05,1.8e-18,1.6982e-21,6.8158,0.00046741,-0.00043164,6.7837e-33,6.472e-05,-33.829,-107.26,-42.354,10.345,2.7675e-13,2.6153e-16,71.838,-108.69,-42.354,-32.397,0,0.017853,0,1,4.805,0,-4.805,0
0,0,0,0,0,0,5.5432e-05,-0.00042197,2.1038e-36,6.7191e-05,1.7938e-18,1.6888e-21,6.808,0.00046703,-0.00043126,6.7581e-33,6.4727e-05,-33.781,-107.16,-42.309,10.332,2.7581e-13,2.6009e-16,71.78,-108.59,-42.309,-32.351,0,0.017854,0,1,4.81,0,-4.81,0
0,0,0,0,0,0,5.5453e-05,-0.0004216,2.0969e-36,6.7111e-05,1.7877e-18,1.6794e-21,6.8002,0.00046666,-0.00043088,6.7325e-33,6.4734e-05,-33.733,-107.05,-42.264,10.32,2.7487e-13,2.5865e-16,71.723,-108.48,-42.264,-32.305,0,0.017856,0,1,4.815,0,-4.815,0
0,0,0,0,0,0,5.5474e-05,-0.00042123,2.09e-36,6.7031e-05,1.7816e-18,1.6701e-21,6.7923,0.00046628,-0.00043049,6.7068e-33,6.474e-05,-33.685,-106.95,-42.219,10.308,2.7393e-13,2.5721e-16,71.665,-108.38,-42.219,-32.259,0,0.017858,0,1,4.82,0,-4.82,0
0,0,0,0,0,0,5.5495e-05,-0.00042086,2.0831e-36,6.6952e-05,1.7755e-18,1.6607e-21,6.7845,0.0004659,-0.00043011,6.6812e-33,6.4747e-05,-33.636,-106.85,-42.174,10.296,2.7299e-13,2.5577e-16,71.607,-108.27,-42.174,-32.213,0,0.01786,0,1,4.825,0,-4.825,0
0,0,0,0,0,0,5.5517e-05,-0.00042049,2.0762e-36,6.6872e-05,1.7694e-18,1.6514e-21,6.7767,0.00046553,-0.00042973,6.6556e-33,6.4754e-05,-33.588,-106.75,-42.129,10.283,2.7205e-13,2.5432e-16,71.55,-108.17,-42.129,-32.167,0,0.017862,0,1,4.83,0,-4.83,0
0,0,0,0,0,0,5.5538e-05,-0.00042012,2.0692e-36,6.6792e-05,1.7633e-18,1.642e-21,6.7689,0.00046515,-0.00042935,6.63e-33,6.476e-05,-33.54,-106.65,-42.084,10.271,2.7111e-13,2.5288e-16,71.492,-108.07,-42.084,-32.121,0,0.017864,0,1,4.835,0,-4.835,0
0,0,0,0,0,0,5.5559e-05,-0.00041976,2.0623e-36,6.6713e-05,1.7572e-18,1.6327e-21,6.761,0.00046478,-0.00042896,6.6044e-33,6.4767e-05,-33.492,-106.55,-42.039,10.259,2.7017e-13,2.5144e-16,71.434,-107.96,-42.039,-32.075,0,0.017866,0,1,4.84,0,-4.84,0
0,0,0,0,0,0,5.558e-05,-0.00041939,2.0554e-36,6.6633e-05,1.7511e-18,1.6233e-21,6.7532,0.0004644,-0.00042858,6.5788e-33,6.4773e-05,-33.443,-106.44,-41.994,10.247,2.6924e-13,2.5e-16,71.377,-107.86,-41.994,-32.029,0,0.017867,0,1,4.845,0,-4.845,0
0,0,0,0,0,0,5.5602e-05,-0.00041902,2.0485e-36,6.6553e-05,1.745e-18,1.614e-21,6.7454,0.00046403,-0.0004282,6.5532e-33,6.478e-05,-33.395,-106.34,-41.949,10.234,2.683e-13,2.4856e-16,71.319,-107.75,-41.949,-31.983,0,0.017869,0,1,4.85,0,-4.85,0
0,0,0,0,0,0,5.5623e-05,-0.00041865,2.0416e-36,6.6474e-05,1.7388e-18,1.6046e-21,6.7376,0.00046365,-0.00042781,6.5276e-33,6.4787e-05,-33.347,-106.24,-41.904,10.222,2.6736e-13,2.4711e-16,71.261,-107.65,-41.904,-31.937,0,0.017871,0,1,4.855,0,-4.855,0
0,0,0,0,0,0,5.5644e-05,-0.00041828,2.0347e-36,6.6394e-05,1.7327e-18,1.5953e-21,6.7297,0.00046328,-0.00042743,6.502e-33,6.4793e-05,-33.299,-106.14,-41.859,10.21,2.6642e-13,2.4567e-16,71.204,-107.55,-41.859,-31.891,0,0.017873,0,1,4.86,0,-4.86,0
0,0,0,0,0,0,5.5665e-05,-0.00041791,2.0278e-36,6.6314e-05,1.7266e-18,1.5859e-21,6.7219,0.0004629,-0.00042705,6.4763e-33,6.48e-05,-33.25,-106.04,-41.814,10.198,2.6548e-13,2.4423e-16,71.146,-107.44,-41.814,-31.845,0,0.017875,0,1,4.865,0,-4.865,0
0,0,0,0,0,0,5.5687e-05,-0.00041754,2.0209e-36,6.6234e-05,1.7205e-18,1.5766e-21,6.7141,0.00046253,-0.00042666,6.4507e-33,6.4807e-05,-33.202,-105.94,-41.769,10.185,2.6454e-13,2.4279e-16,71.088,-107.34,-41.769,-31.799,0,0.017877,0,1,4.87,0,-4.87,0
0,0,0,0,0,0,5.5708e-05,-0.00041718,2.014e-36,6.6155e-05,1.7144e-18,1.5672e-21,6.7063,0.00046215,-0.00042628,6.4251e-33,6.4813e-05,-33.154,-105.83,-41.724,10.173,2.636e-13,2.4135e-16,71.031,-107.24,-41.724,-31.753,0,0.017878,0,1,4.875,0,-4.875,0
0,0,0,0,0,0,5.5729e-05,-0.00041681,2.0071e-36,6.6075e-05,1.7083e-18,1.5579e-21,6.6984,0.00046177,-0.0004259,6.3995e-33,6.482e-05,-33.106,-105.73,-41.679,10.161,2.6266e-13,2.399e-16,70.973,-107.13,-41.679,-31.707,0,0.01788,0,1,4.88,0,-4.88,0
0,0,0,0,0,0,5.575e-05,-0.00041644,2.0002e-36,6.5995e-05,1.7022e-18,1.5485e-21,6.6906,0.0004614,-0.00042552,6.3739e-33,6.4827e-05,-33.057,-105.63,-41.634,10.149,2.6172e-13,2.3846e-16,70.915,-107.03,-41.634,-31.661,0,0.017882,0,1,4.885,0,-4.885,0
0,0,0,0,0,0,5.5771e-05,-0.00041607,1.9933e-36,6.5916e-05,1.6961e-18,1.5392e-21,6.6828,0.00046102,-0.00042513,6.3483e-33,6.4833e-05,-33.009,-105.53,-41.589,10.136,2.6078e-13,2.3702e-16,70.858,-106.92,-41.589,-31.615,0,0.017884,0,1,4.89,0,-4.89,0
0,0,0,0,0,0,5.5793e-05,-0.0004157,1.9864e-36,6.5836e-05,1.69e-18,1.5298e-21,6.675,0.00046065,-0.00042475,6.3227e-33,6.484e-05,-32.961,-105.43,-41.544,10.124,2.5984e-13,2.3558e-16,70.8,-106.82,-41.544,-31.569,0,0.017886,0,1,4.895,0,-4.895,0
0,0,0,0,0,0,5.5814e-05,-0.00041533,1.9795e-36,6.5756e-05,1.6839e-18,1.5205e-21,6.6671,0.00046027,-0.00042437,6.2971e-33,6.4846e-05,-32.912,-105.33,-41.499,10.112,2.589e-13,2.3414e-16,70.742,-106.72,-41.499,-31.523,0,0.017888,0,1,4.9,0,-4.9,0
0,0,0,0,0,0,5.5835e-05,-0.00041497,1.9726e-36,6.5676e-05,1.6777e-18,1.5111e-21,6.6593,0.0004599,-0.00042398,6.2714e-33,6.4853e-05,-32.864,-105.23,-41.454,10.1,2.5796e-13,2.3269e-16,70.685,-106.61,-41.454,-31.477,0,0.017889,0,1,4.905,0,-4.905,0
0,0,0,0,0,0,5.5856e-05,-0.0004146,1.9657e-36,6.5597e-05,1.6716e-18,1.5018e-21,6.6515,0.00045952,-0.0004236,6.2458e-33,6.486e-05,-32.816,-105.12,-41.409,10.087,2.5702e-13,2.3125e-16,70.627,-106.51,-41.409,-31.431,0,0.017891,0,1,4.91,0,-4.91,0
0,0,0,0,0,0,5.5878e-05,-0.00041423,1.9587e-36,6.5517e-05,1.6655e-18,1.4924e-21,6.6437,0.00045915,-0.00042322,6.2202e-33,6.4866e-05,-32.768,-105.02,-41.364,10.075,2.5608e-13,2.2981e-16,70.569,-106.41,-41.364,-31.385,0,0.017893,0,1,4.915,0,-4.915,0
0,0,0,0,0,0,5.5899e-05,-0.00041386,1.9518e-36,6.5437e-05,1.6594e-18,1.483e-21,6.6358,0.00045877,-0.00042283,6.1946e-33,6.4873e-05,-32.719,-104.92,-41.319,10.063,2.5514e-13,2.2837e-16,70.512,-106.3,-41.319,-31.339,0,0.017895,0,1,4.92,0,-4.92,0
0,0,0,0,0,0,5.592e-05,-0.00041349,1.9449e-36,6.5358e-05,1.6533e-18,1.4737e-21,6.628,0.0004584,-0.00042245,6.169e-33,6.488e-05,-32.671,-104.82,-41.274,10.051,2.542e-13,2.2693e-16,70.454,-106.2,-41.274,-31.293,0,0.017897,0,1,4.925,0,-4.925,0
0,0,0,0,0,0,5.5941e-05,-0.00041312,1.938e-36,6.5278e-05,1.6472e-18,1.4643e-21,6.6202,0.00045802,-0.00042207,6.1434e-33,6.4886e-05,-32.623,-104.72,-41.229,10.038,2.5327e-13,2.2548e-16,70.397,-106.09,-41.229,-31.247,0,0.017899,0,1,4.93,0,-4.93,0
0,0,0,0,0,0,5.5963e-05,-0.00041275,1.9311e-36,6.5198e-05,1.6411e-18,1.455e-21,6.6124,0.00045764,-0.00042168,6.1178e-33,6.4893e-05,-32.575,-104.62,-41.184,10.026,2.5233e-13,2.2404e-16,70.339,-105.99,-41.184,-31.201,0,0.0179,0,1,4.935,0,-4.935,0
0,0,0,0,0,0,5.5984e-05,-0.00041239,1.9242e-36,6.5118e-05,1.635e-18,1.4456e-21,6.6045,0.00045727,-0.0004213,6.0922e-33,6.49e-05,-32.526,-104.51,-41.139,10.014,2.5139e-13,2.226e-16,70.281,-105.89,-41.139,-31.155,0,0.017902,0,1,4.94,0,-4.94,0
0,0,0,0,0,0,5.6005e-05,-0.00041202,1.9173e-36,6.5039e-05,1.6289e-18,1.4363e-21,6.5967,0.00045689,-0.00042092,6.0666e-33,6.4906e-05,-32.478,-104.41,-41.094,10.002,2.5045e-13,2.2116e-16,70.224,-105.78,-41.094,-31.109,0,0.017904,0,1,4.945,0,-4.945,0
0,0,0,0,0,0,5.6026e-05,-0.00041165,1.9104e-36,6.4959e-05,1.6228e-18,1.4269e-21,6.5889,0.00045652,-0.00042054,6.0409e-33,6.4913e-05,-32.43,-104.31,-41.049,9.9894,2.4951e-13,2.1972e-16,70.166,-105.68,-41.049,-31.063,0,0.017906,0,1,4.95,0,-4.95,0
0,0,0,0,0,0,5.6048e-05,-0.00041128,1.9035e-36,6.4879e-05,1.6166e-18,1.4176e-21,6.5811,0.00045614,-0.00042015,6.0153e-33,6.4919e-05,-32.382,-104.21,-41.004,9.9771,2.4857e-13,2.1827e-16,70.108,-105.57,-41.004,-31.017,0,0.017908,0,1,4.955,0,-4.955,0
0,0,0,0,0,0,5.6069e-05,-0.00041091,1.8966e-36,6.48e-05,1.6105e-18,1.4082e-21,6.5732,0.00045577,-0.00041977,5.9897e-33,6.4926e-05,-32.333,-104.11,-40.959,9.9649,2.4763e-13,2.1683e-16,70.051,-105.47,-40.959,-30.971,0,0.01791,0,1,4.96,0,-4.96,0
0,0,0,0,0,0,5.609e-05,-0.00041054,1.8897e-36,6.472e-05,1.6044e-18,1.3989e-21,6.5654,0.00045539,-0.00041939,5.9641e-33,6.4933e-05,-32.285,-104.01,-40.914,9.9526,2.4669e-13,2.1539e-16,69.993,-105.37,-40.914,-30.925,0,0.017911,0,1,4.965,0,-4.965,0
0,0,0,0,0,0,5.6111e-05,-0.00041018,1.8828e-36,6.464e-05,1.5983e-18,1.3895e-21,6.5576,0.00045502,-0.000419,5.9385e-33,6.4939e-05,-32.237,-103.91,-40.869,9.9404,2.4575e-13,2.1395e-16,69.935,-105.26,-40.869,-30.879,0,0.017913,0,1,4.97,0,-4.97,0
0,0,0,0,0,0,5.6133e-05,-0.00040981,1.8759e-36,6.456e-05,1.5922e-18,1.3802e-21,6.5498,0.00045464,-0.00041862,5.9129e-33,6.4946e-05,-32.189,-103.8,-40.824,9.9281,2.4481e-13,2.1251e-16,69.878,-105.16,-40.824,-30.832,0,0.017915,0,1,4.975,0,-4.975,0
0,0,0,0,0,0,5.6154e-05,-0.00040944,1.869e-36,6.4481e-05,1.5861e-18,1.3708e-21,6.5419,0.00045426,-0.00041824,5.8873e-33,6.4953e-05,-32.14,-103.7,-40.779,9.9159,2.4387e-13,2.1106e-16,69.82,-105.06,-40.779,-30.786,0,0.017917,0,1,4.98,0,-4.98,0
0,0,0,0,0,0,5.6175e-05,-0.00040907,1.8621e-36,6.4401e-05,1.58e-18,1.3615e-21,6.5341,0.00045389,-0.00041785,5.8617e-33,6.4959e-05,-32.092,-103.6,-40.734,9.9036,2.4293e-13,2.0962e-16,69.762,-104.95,-40.734,-30.74,0,0.017919,0,1,4.985,0,-4.985,0
0,0,0,0,0,0,5.6196e-05,-0.0004087,1.8552e-36,6.4321e-05,1.5739e-18,1.3521e-21,6.5263,0.00045351,-0.00041747,5.836e-33,6.4966e-05,-32.044,-103.5,-40.689,9.8914,2.4199e-13,2.0818e-16,69.705,-104.85,-40.689,-30.694,0,0.017921,0,1,4.99,0,-4.99,0
0,0,0,0,0,0,5.6218e-05,-0.00040833,1.8482e-36,6.4242e-05,1.5678e-18,1.3428e-21,6.5185,0.00045314,-0.00041709,5.8104e-33,6.4973e-05,-31.995,-103.4,-40.644,9.8791,2.4105e-13,2.0674e-16,69.647,-104.74,-40.644,-30.648,0,0.017922,0,1,4.995,0,-4.995,0
0,0,0,0,0,0,5.6239e-05,-0.00040796,1.8413e-36,6.4162e-05,1.5617e-18,1.3334e-21,6.5106,0.00045276,-0.00041671,5.7848e-33,6.4979e-05,-31.947,-103.3,-40.599,9.8668,2.4011e-13,2.053e-16,69.589,-104.64,-40.599,-30.602,0,0.017924,0,1,5,0,-5,0
