"CONTACT:0","CONTACT:1","CONTACT:2","CONTACT:3","CONTACT:4","CONTACT:5","E:0","E:1","E:2","E:3","E:4","E:5","ERROR","E_Mises","E_Principal:0","E_Principal:1","E_Principal:2","S:0","S:1","S:2","S:3","S:4","S:5","S_Mises","S_Principal:0","S_Principal:1","S_Principal:2","U:0","U:1","U:2","vtkValidPointMask","arc_length","Points:0","Points:1","Points:2"
0,0,0,0,0,0,-0.004647,-0.0047422,1.5081e-35,1.4725e-05,-1.5712e-18,-3.2568e-20,4.2408,0.0046954,-0.0047445,-0.0046447,5.3595e-34,-1799.8,-1812.1,-1093.4,2.0181,-2.3943e-13,-4.7728e-15,712.62,-1812.4,-1799.5,-1093.4,0,0.010323,0,1,0,0,0,0
0,0,0,0,0,0,-0.0044325,-0.0047598,1.5174e-35,2.0317e-05,-1.6908e-18,-3.1502e-20,4.2408,0.0046853,-0.004762,-0.004407,-2.3224e-05,-1744.3,-1791.7,-1070.4,2.8776,-2.5769e-13,-4.6365e-15,711.02,-1792.1,-1740.4,-1073.9,0,0.010347,0,1,0.005,0,-0.005,0
0,0,0,0,0,0,-0.004222,-0.0047772,1.5314e-35,2.5903e-05,-1.8024e-18,-3.0448e-20,4.2408,0.0046767,-0.0047795,-0.0041752,-4.4512e-05,-1689.7,-1771.8,-1047.7,3.7361,-2.7474e-13,-4.5012e-15,709.68,-1772.2,-1682.5,-1054.6,0,0.010371,0,1,0.01,0,-0.01,0
0,0,0,0,0,0,-0.0040155,-0.0047945,1.5501e-35,3.1481e-05,-1.9061e-18,-2.9408e-20,4.2408,0.0046698,-0.0047968,-0.0039493,-6.3865e-05,-1636.2,-1752.3,-1025.6,4.5937,-2.9057e-13,-4.3667e-15,708.58,-1752.7,-1626.1,-1035.4,0,0.010395,0,1,0.015,0,-0.015,0
0,0,0,0,0,0,-0.0038129,-0.0048116,1.5735e-35,3.7052e-05,-2.0018e-18,-2.8379e-20,4.2408,0.0046645,-0.004814,-0.0037293,-8.1283e-05,-1583.8,-1733.3,-1003.9,5.4504,-3.0518e-13,-4.2333e-15,707.72,-1733.6,-1570.9,-1016.4,0,0.010419,0,1,0.02,0,-0.02,0
0,0,0,0,0,0,-0.0036144,-0.0048286,1.6018e-35,4.2617e-05,-2.0895e-18,-2.7363e-20,4.2408,0.0046608,-0.004831,-0.0035152,-9.6766e-05,-1532.4,-1714.6,-982.59,6.3063,-3.1858e-13,-4.1007e-15,707.12,-1715,-1517.1,-997.51,0,0.010443,0,1,0.025,0,-0.025,0
0,0,0,0,0,0,-0.0034198,-0.0048454,1.6347e-35,4.8174e-05,-2.1693e-18,-2.636e-20,4.2408,0.0046587,-0.0048479,-0.003307,-0.00011031,-1482.1,-1696.4,-961.77,7.1612,-3.3076e-13,-3.9691e-15,706.76,-1696.8,-1464.7,-978.78,0,0.010467,0,1,0.03,0,-0.03,0
0,0,0,0,0,0,-0.0032293,-0.0048621,1.6724e-35,5.3725e-05,-2.2411e-18,-2.5369e-20,4.2408,0.0046582,-0.0048647,-0.0031048,-0.00012192,-1432.8,-1678.7,-941.4,8.0153,-3.4173e-13,-3.8385e-15,706.65,-1679,-1413.6,-960.21,0,0.010491,0,1,0.035,0,-0.035,0
0,0,0,0,0,0,-0.0030427,-0.0048787,1.7148e-35,5.9268e-05,-2.3049e-18,-2.439e-20,4.2408,0.0046593,-0.0048813,-0.0029084,-0.0001316,-1384.6,-1661.3,-921.49,8.8685,-3.5148e-13,-3.7088e-15,706.79,-1661.7,-1363.9,-941.78,0,0.010516,0,1,0.04,0,-0.04,0
0,0,0,0,0,0,-0.00286,-0.0048951,1.762e-35,6.4805e-05,-2.3608e-18,-2.3424e-20,4.2408,0.0046619,-0.0048978,-0.002718,-0.00013934,-1337.4,-1644.4,-902.02,9.7207,-3.6001e-13,-3.58e-15,707.17,-1644.8,-1315.5,-923.51,0,0.01054,0,1,0.045,0,-0.045,0
0,0,0,0,0,0,-0.0026814,-0.0049114,1.8139e-35,7.0334e-05,-2.4087e-18,-2.2471e-20,4.2408,0.0046662,-0.0049141,-0.0025335,-0.00014515,-1291.3,-1627.9,-883.01,10.572,-3.6732e-13,-3.4522e-15,707.8,-1628.3,-1268.5,-905.39,0,0.010565,0,1,0.05,0,-0.05,0
0,0,0,0,0,0,-0.0025068,-0.0049275,1.8706e-35,7.5856e-05,-2.4487e-18,-2.153e-20,4.2408,0.0046721,-0.0049304,-0.0023549,-0.00014902,-1246.2,-1611.8,-864.45,11.423,-3.7342e-13,-3.3253e-15,708.68,-1612.3,-1222.8,-887.43,0,0.010589,0,1,0.055,0,-0.055,0
0,0,0,0,0,0,-0.0023361,-0.0049435,1.932e-35,8.1372e-05,-2.4806e-18,-2.0601e-20,4.2408,0.0046796,-0.0049464,-0.0021822,-0.00015095,-1202.2,-1596.2,-846.34,12.272,-3.7831e-13,-3.1994e-15,709.8,-1596.6,-1178.4,-869.62,0,0.010614,0,1,0.06,0,-0.06,0
0,0,0,0,0,0,-0.0021694,-0.0049593,1.9982e-35,8.688e-05,-2.5046e-18,-1.9685e-20,4.2408,0.0046887,-0.0049624,-0.0020154,-0.00015095,-1159.2,-1581,-828.68,13.121,-3.8198e-13,-3.0744e-15,711.17,-1581.4,-1135.4,-851.96,0,0.010639,0,1,0.065,0,-0.065,0
0,0,0,0,0,0,-0.0020067,-0.004975,2.0691e-35,9.2382e-05,-2.5207e-18,-1.8781e-20,4.2408,0.0046994,-0.0049782,-0.0018545,-0.00014902,-1117.3,-1566.2,-811.47,13.969,-3.8443e-13,-2.9504e-15,712.79,-1566.7,-1093.8,-834.45,0,0.010663,0,1,0.07,0,-0.07,0
0,0,0,0,0,0,-0.001848,-0.0049906,2.1447e-35,9.7876e-05,-2.5287e-18,-1.789e-20,4.2408,0.0047117,-0.0049939,-0.0016995,-0.00014515,-1076.4,-1551.8,-794.71,14.816,-3.8566e-13,-2.8273e-15,714.66,-1552.3,-1053.5,-817.1,0,0.010688,0,1,0.075,0,-0.075,0
0,0,0,0,0,0,-0.0016933,-0.005006,2.2251e-35,0.00010336,-2.5288e-18,-1.7011e-20,4.2408,0.0047257,-0.0050094,-0.0015505,-0.00013934,-1036.6,-1537.9,-778.41,15.662,-3.8568e-13,-2.7051e-15,716.77,-1538.4,-1014.5,-799.89,0,0.010713,0,1,0.08,0,-0.08,0
0,0,0,0,0,0,-0.0015426,-0.0050212,2.3102e-35,0.00010884,-2.521e-18,-1.6145e-20,4.2408,0.0047412,-0.0050248,-0.0014073,-0.0001316,-997.78,-1524.4,-762.55,16.507,-3.8448e-13,-2.5839e-15,719.14,-1524.9,-976.94,-782.84,0,0.010738,0,1,0.085,0,-0.085,0
0,0,0,0,0,0,-0.0013958,-0.0050364,2.4001e-35,0.00011432,-2.5052e-18,-1.5291e-20,4.2408,0.0047583,-0.0050401,-0.0012701,-0.00012192,-960.05,-1511.3,-747.15,17.351,-3.8207e-13,-2.4637e-15,721.74,-1511.9,-940.68,-765.95,0,0.010764,0,1,0.09,0,-0.09,0
0,0,0,0,0,0,-0.001253,-0.0050513,2.4947e-35,0.00011978,-2.4814e-18,-1.445e-20,4.2408,0.004777,-0.0050552,-0.0011388,-0.00011031,-923.38,-1498.7,-732.19,18.194,-3.7844e-13,-2.3443e-15,724.6,-1499.3,-905.78,-749.2,0,0.010789,0,1,0.095,0,-0.095,0
0,0,0,0,0,0,-0.0011142,-0.0050662,2.594e-35,0.00012524,-2.4496e-18,-1.3621e-20,4.2408,0.0047973,-0.0050703,-0.0010134,-9.6766e-05,-887.76,-1486.5,-717.69,19.037,-3.7359e-13,-2.226e-15,727.7,-1487.1,-872.22,-732.61,0,0.010814,0,1,0.1,0,-0.1,0
0,0,0,0,0,0,-0.00097941,-0.0050809,2.6981e-35,0.0001307,-2.4099e-18,-1.2805e-20,4.2408,0.0048192,-0.0050851,-0.00089389,-8.1283e-05,-853.19,-1474.7,-703.64,19.878,-3.6753e-13,-2.1085e-15,731.05,-1475.3,-840.01,-716.17,0,0.010839,0,1,0.105,0,-0.105,0
0,0,0,0,0,0,-0.00084858,-0.0050954,2.807e-35,0.00013614,-2.3622e-18,-1.2001e-20,4.2408,0.0048428,-0.0050999,-0.0007803,-6.3865e-05,-819.67,-1463.3,-690.04,20.719,-3.6025e-13,-1.992e-15,734.65,-1464,-809.15,-699.89,0,0.010865,0,1,0.11,0,-0.11,0
0,0,0,0,0,0,-0.00072174,-0.0051099,2.9206e-35,0.00014158,-2.3065e-18,-1.121e-20,4.2408,0.0048679,-0.0051144,-0.00067263,-4.4512e-05,-787.2,-1452.4,-676.89,21.559,-3.5175e-13,-1.8765e-15,738.49,-1453.1,-779.63,-683.75,0,0.010891,0,1,0.115,0,-0.115,0
0,0,0,0,0,0,-0.00059888,-0.0051241,3.0389e-35,0.00014701,-2.2429e-18,-1.0431e-20,4.2408,0.0048946,-0.0051289,-0.00057087,-2.3224e-05,-755.78,-1441.9,-664.19,22.398,-3.4204e-13,-1.7619e-15,742.59,-1442.6,-751.47,-667.77,0,0.010916,0,1,0.12,0,-0.12,0
0,0,0,0,0,0,-0.00048,-0.0051382,3.1619e-35,0.00015244,-2.1713e-18,-9.6646e-21,4.2408,0.0049229,-0.0051432,-0.00047502,9.607e-34,-725.41,-1431.8,-651.95,23.236,-3.3111e-13,-1.6482e-15,746.92,-1432.6,-724.65,-651.95,0,0.010942,0,1,0.125,0,-0.125,0
0,0,0,0,0,0,-0.00036511,-0.0051522,3.2898e-35,0.00015785,-2.0917e-18,-8.9107e-21,4.2408,0.0049529,-0.0051574,-0.00038508,2.5159e-05,-696.1,-1422.2,-640.15,24.073,-3.1896e-13,-1.5355e-15,751.51,-1422.9,-699.18,-636.27,0,0.010968,0,1,0.13,0,-0.13,0
0,0,0,0,0,0,-0.0002542,-0.0051661,3.4223e-35,0.00016326,-2.0042e-18,-8.1693e-21,4.2408,0.0049844,-0.0051715,-0.00030105,5.2254e-05,-667.83,-1412.9,-628.81,24.909,-3.056e-13,-1.4238e-15,756.34,-1413.8,-675.06,-620.75,0,0.010994,0,1,0.135,0,-0.135,0
0,0,0,0,0,0,-0.00014727,-0.0051798,3.5596e-35,0.00016867,-1.9087e-18,-7.4403e-21,4.2408,0.0050175,-0.0051854,-0.00022294,8.1283e-05,-640.62,-1404.1,-617.91,25.744,-2.9102e-13,-1.3129e-15,761.42,-1405,-652.29,-605.38,0,0.01102,0,1,0.14,0,-0.14,0
0,0,0,0,0,0,-4.4328e-05,-0.0051933,3.7017e-35,0.00017406,-1.8053e-18,-6.7238e-21,4.2408,0.0050523,-0.0051992,-0.00015073,0.00011225,-614.45,-1395.8,-607.47,26.579,-2.7523e-13,-1.203e-15,766.75,-1396.7,-630.86,-590.16,0,0.011046,0,1,0.145,0,-0.145,0
0,0,0,0,0,0,5.4632e-05,-0.0052067,3.8484e-35,0.00017945,-1.6938e-18,-6.0198e-21,4.2408,0.0050886,-0.0052128,-8.4438e-05,0.00014515,-589.34,-1387.8,-597.48,27.412,-2.5822e-13,-1.0941e-15,772.33,-1388.8,-610.79,-575.1,0,0.011072,0,1,0.15,0,-0.15,0
0,0,0,0,0,0,0.00014961,-0.00522,4e-35,0.00018484,-1.5744e-18,-5.3283e-21,4.2408,0.0051266,-0.0052263,-2.4057e-05,0.00017998,-565.28,-1380.3,-587.94,28.245,-2.3999e-13,-9.8611e-16,778.15,-1381.3,-592.06,-560.18,0,0.011098,0,1,0.155,0,-0.155,0
0,0,0,0,0,0,0.0002406,-0.0052332,4.1562e-35,0.00019021,-1.4471e-18,-4.6492e-21,4.2408,0.0051661,-0.0052397,3.0413e-05,0.00021676,-542.27,-1373.2,-578.85,29.076,-2.2055e-13,-8.7905e-16,784.22,-1374.2,-574.68,-545.42,0,0.011124,0,1,0.16,0,-0.16,0
0,0,0,0,0,0,0.00032761,-0.0052461,4.3173e-35,0.00019558,-1.3118e-18,-3.9826e-21,4.2408,0.0052073,-0.005253,7.8971e-05,0.00025546,-520.31,-1366.6,-570.21,29.907,-1.9989e-13,-7.7294e-16,790.53,-1367.6,-558.65,-530.82,0,0.011151,0,1,0.165,0,-0.165,0
0,0,0,0,0,0,0.00041064,-0.005259,4.483e-35,0.00020094,-1.1685e-18,-3.3285e-21,4.2408,0.00525,-0.0052661,0.00012162,0.0002961,-499.4,-1360.4,-562.02,30.737,-1.7802e-13,-6.6778e-16,797.1,-1361.4,-543.96,-516.36,0,0.011177,0,1,0.17,0,-0.17,0
0,0,0,0,0,0,0.00048968,-0.0052717,4.6535e-35,0.0002063,-1.0172e-18,-2.6869e-21,4.2408,0.0052944,-0.005279,0.00015835,0.00033868,-479.54,-1354.6,-554.29,31.566,-1.5492e-13,-5.6356e-16,803.91,-1355.7,-530.63,-502.06,0,0.011203,0,1,0.175,0,-0.175,0
0,0,0,0,0,0,0.00056474,-0.0052842,4.8288e-35,0.00021164,-8.5798e-19,-2.0577e-21,4.2408,0.0053403,-0.0052919,0.00018918,0.00038319,-460.73,-1349.2,-547,32.394,-1.3062e-13,-4.6028e-16,810.97,-1350.4,-518.64,-487.91,0,0.01123,0,1,0.18,0,-0.18,0
0,0,0,0,0,0,0.00063581,-0.0052967,5.0088e-35,0.00021698,-6.9079e-19,-1.4411e-21,4.2408,0.0053879,-0.0053046,0.00021409,0.00042964,-442.97,-1344.2,-540.17,33.222,-1.0509e-13,-3.5795e-16,818.27,-1345.5,-508,-473.92,0,0.011257,0,1,0.185,0,-0.185,0
0,0,0,0,0,0,0.0007029,-0.0053089,5.1935e-35,0.00022232,-5.1563e-19,-8.3687e-22,4.2408,0.0054371,-0.0053171,0.00023309,0.00047802,-426.27,-1339.7,-533.79,34.048,-7.835e-14,-2.5656e-16,825.82,-1341,-498.71,-460.07,0,0.011284,0,1,0.19,0,-0.19,0
0,0,0,0,0,0,0.00076601,-0.0053211,5.383e-35,0.00022764,-3.3251e-19,-2.4515e-22,4.2408,0.0054878,-0.0053296,0.00024618,0.00052834,-410.61,-1335.6,-527.85,34.874,-5.0393e-14,-1.5611e-16,833.62,-1336.9,-490.77,-446.38,0,0.01131,0,1,0.195,0,-0.195,0
0,0,0,0,0,0,0.00082514,-0.005333,5.5772e-35,0.00023296,-1.4142e-19,3.3409e-22,4.2408,0.0055402,-0.0053419,0.00025336,0.00058059,-396.01,-1332,-522.37,35.698,-2.1219e-14,-5.6608e-17,841.67,-1333.3,-484.17,-432.84,0,0.011337,0,1,0.2,0,-0.2,0
0,0,0,0,0,0,0.00088028,-0.0053449,5.7761e-35,0.00023828,5.764e-20,9.0086e-22,4.2408,0.0055942,-0.005354,0.00025462,0.00063478,-382.45,-1328.7,-517.34,36.522,9.1711e-15,4.1951e-17,849.96,-1330.2,-478.93,-419.46,0,0.011364,0,1,0.205,0,-0.205,0
0,0,0,0,0,0,0.00093144,-0.0053566,5.9798e-35,0.00024358,2.6466e-19,1.4551e-21,4.2408,0.0056497,-0.005366,0.00024998,0.00069091,-369.95,-1325.9,-512.77,37.345,4.0777e-14,1.3957e-16,858.5,-1327.4,-475.03,-406.22,0,0.011391,0,1,0.21,0,-0.21,0
0,0,0,0,0,0,0.00097861,-0.0053682,6.1883e-35,0.00024888,4.7965e-19,1.997e-21,4.2408,0.0057069,-0.0053779,0.00023942,0.00074897,-358.5,-1323.6,-508.64,38.166,7.36e-14,2.3624e-16,867.29,-1325.1,-472.48,-393.14,0,0.011419,0,1,0.215,0,-0.215,0
0,0,0,0,0,0,0.0010218,-0.0053796,6.4015e-35,0.00025417,7.0261e-19,2.5263e-21,4.2408,0.0057657,-0.0053897,0.00022295,0.00080896,-348.1,-1321.6,-504.96,38.988,1.0764e-13,3.3197e-16,876.33,-1323.2,-471.28,-380.22,0,0.011446,0,1,0.22,0,-0.22,0
0,0,0,0,0,0,0.001061,-0.0053908,6.6194e-35,0.00025946,9.3353e-19,3.0432e-21,4.2408,0.0058261,-0.0054013,0.00020057,0.00087089,-338.75,-1320.1,-501.74,39.808,1.4289e-13,4.2675e-16,885.61,-1321.7,-471.42,-367.44,0,0.011473,0,1,0.225,0,-0.225,0
0,0,0,0,0,0,0.0010962,-0.005402,6.8421e-35,0.00026474,1.1724e-18,3.5475e-21,4.2408,0.005888,-0.0054128,0.00017228,0.00093476,-330.45,-1319,-498.96,40.627,1.7937e-13,5.2059e-16,895.14,-1320.7,-472.92,-354.82,0,0.011501,0,1,0.23,0,-0.23,0
0,0,0,0,0,0,0.0011275,-0.005413,7.0695e-35,0.00027001,1.4193e-18,4.0394e-21,4.2408,0.0059516,-0.0054241,0.00013808,0.0010006,-323.2,-1318.3,-496.64,41.445,2.1705e-13,6.1349e-16,904.92,-1320.1,-475.76,-342.35,0,0.011528,0,1,0.235,0,-0.235,0
0,0,0,0,0,0,0.0011547,-0.0054238,7.3017e-35,0.00027527,1.6741e-18,4.5189e-21,4.2408,0.0060168,-0.0054353,9.7964e-05,0.0010683,-317,-1318.1,-494.77,42.263,2.5596e-13,7.0544e-16,914.94,-1319.9,-479.95,-330.03,0,0.011556,0,1,0.24,0,-0.24,0
0,0,0,0,0,0,0.001178,-0.0054345,7.5386e-35,0.00028053,1.9369e-18,4.9858e-21,4.2408,0.0060836,-0.0054464,5.1937e-05,0.001138,-311.85,-1318.3,-493.35,43.079,2.9608e-13,7.9645e-16,925.22,-1320.1,-485.49,-317.87,0,0.011583,0,1,0.245,0,-0.245,0
0,0,0,0,0,0,0.0011973,-0.0054451,7.7802e-35,0.00028578,2.2076e-18,5.4403e-21,4.2408,0.006152,-0.0054574,9.6073e-34,0.0012096,-307.76,-1318.9,-492.38,43.895,3.3742e-13,8.8651e-16,935.73,-1320.8,-492.38,-305.85,0,0.011611,0,1,0.25,0,-0.25,0
0,0,0,0,0,0,0.0012085,-0.005403,9.2237e-35,0.00027292,2.1854e-18,4.6176e-21,4.2334,0.006117,-0.0054146,9.6287e-34,0.0012201,-299.84,-1306.4,-486.18,41.921,3.3398e-13,7.5949e-16,930.53,-1308.2,-486.18,-298.04,0,0.011638,0,1,0.255,0,-0.255,0
0,0,0,0,0,0,0.0012192,-0.0053612,1.0607e-34,0.00026041,2.1638e-18,3.8276e-21,4.2261,0.006082,-0.0053722,9.6506e-34,0.0012302,-292.08,-1294,-480.06,40.001,3.3065e-13,6.3749e-16,925.32,-1295.7,-480.06,-290.38,0,0.011664,0,1,0.26,0,-0.26,0
0,0,0,0,0,0,0.0012295,-0.0053196,1.1929e-34,0.00024825,2.1429e-18,3.0704e-21,4.2187,0.006047,-0.00533,9.673e-34,0.0012399,-284.47,-1281.8,-474.02,38.133,3.2742e-13,5.2053e-16,920.1,-1283.4,-474.02,-282.87,0,0.011691,0,1,0.265,0,-0.265,0
0,0,0,0,0,0,0.0012393,-0.0052782,1.3191e-34,0.00023643,2.1228e-18,2.346e-21,4.2114,0.0060119,-0.005288,9.6959e-34,0.0012491,-277.02,-1269.6,-468.06,36.319,3.2431e-13,4.0859e-16,914.87,-1271.1,-468.06,-275.5,0,0.011717,0,1,0.27,0,-0.27,0
0,0,0,0,0,0,0.0012487,-0.0052371,1.4393e-34,0.00022496,2.1033e-18,1.6543e-21,4.204,0.0059768,-0.0052463,9.7193e-34,0.0012579,-269.71,-1257.6,-462.19,34.557,3.2131e-13,3.0169e-16,909.63,-1259,-462.19,-268.29,0,0.011743,0,1,0.275,0,-0.275,0
0,0,0,0,0,0,0.0012575,-0.0051962,1.5534e-34,0.00021383,2.0846e-18,9.9539e-22,4.1967,0.0059417,-0.0052049,9.7433e-34,0.0012662,-262.56,-1245.7,-456.39,32.849,3.1842e-13,1.9982e-16,904.39,-1247,-456.39,-261.23,0,0.011769,0,1,0.28,0,-0.28,0
0,0,0,0,0,0,0.001266,-0.0051556,1.6614e-34,0.00020305,2.0665e-18,3.6922e-22,4.1893,0.0059065,-0.0051637,9.7677e-34,0.0012741,-255.56,-1233.9,-450.68,31.193,3.1564e-13,1.0298e-16,899.13,-1235.1,-450.68,-254.31,0,0.011794,0,1,0.285,0,-0.285,0
0,0,0,0,0,0,0.0012739,-0.0051152,1.7634e-34,0.00019261,2.0492e-18,-2.242e-22,4.1819,0.0058712,-0.0051228,9.7926e-34,0.0012815,-248.72,-1222.2,-445.05,29.591,3.1296e-13,1.1173e-17,893.87,-1223.4,-445.05,-247.55,0,0.01182,0,1,0.29,0,-0.29,0
0,0,0,0,0,0,0.0012814,-0.005075,1.8593e-34,0.00018252,2.0325e-18,-7.8485e-22,4.1746,0.0058359,-0.0050821,9.818e-34,0.0012885,-242.02,-1210.6,-439.5,28.042,3.104e-13,-7.5605e-17,888.6,-1211.7,-439.5,-240.93,0,0.011845,0,1,0.295,0,-0.295,0
0,0,0,0,0,0,0.0012885,-0.0050351,1.9492e-34,0.00017278,2.0166e-18,-1.3128e-21,4.1672,0.0058006,-0.0050416,9.8439e-34,0.001295,-235.48,-1199.2,-434.04,26.545,3.0795e-13,-1.5735e-16,883.32,-1200.2,-434.04,-234.47,0,0.01187,0,1,0.3,0,-0.3,0
0,0,0,0,0,0,0.0012951,-0.0049954,2.033e-34,0.00016337,2.0014e-18,-1.8079e-21,4.1599,0.0057652,-0.0050015,9.8704e-34,0.0013011,-229.09,-1187.9,-428.65,25.102,3.056e-13,-2.3407e-16,878.03,-1188.8,-428.65,-228.15,0,0.011895,0,1,0.305,0,-0.305,0
0,0,0,0,0,0,0.0013012,-0.004956,2.1108e-34,0.00015432,1.9869e-18,-2.2703e-21,4.1525,0.0057298,-0.0049616,9.8973e-34,0.0013068,-222.85,-1176.6,-423.35,23.712,3.0337e-13,-3.0575e-16,872.74,-1177.5,-423.35,-221.99,0,0.01192,0,1,0.31,0,-0.31,0
0,0,0,0,0,0,0.0013069,-0.0049167,2.1826e-34,0.00014561,1.973e-18,-2.6999e-21,4.1452,0.0056944,-0.0049219,9.9248e-34,0.001312,-216.77,-1165.5,-418.13,22.375,3.0124e-13,-3.7241e-16,867.43,-1166.3,-418.13,-215.97,0,0.011945,0,1,0.315,0,-0.315,0
0,0,0,0,0,0,0.0013121,-0.0048778,2.2482e-34,0.00013724,1.9599e-18,-3.0968e-21,4.1378,0.0056589,-0.0048825,9.9527e-34,0.0013168,-210.83,-1154.5,-412.99,21.09,2.9923e-13,-4.3403e-16,862.12,-1155.3,-412.99,-210.1,0,0.011969,0,1,0.32,0,-0.32,0
0,0,0,0,0,0,0.0013168,-0.004839,2.3079e-34,0.00012922,1.9475e-18,-3.4609e-21,4.1304,0.0056233,-0.0048433,9.9812e-34,0.0013211,-205.05,-1143.7,-407.93,19.859,2.9732e-13,-4.9062e-16,856.8,-1144.3,-407.93,-204.39,0,0.011993,0,1,0.325,0,-0.325,0
0,0,0,0,0,0,0.0013211,-0.0048005,2.3614e-34,0.00012155,1.9358e-18,-3.7923e-21,4.1231,0.0055878,-0.0048044,1.001e-33,0.001325,-199.43,-1132.9,-402.95,18.681,2.9552e-13,-5.4218e-16,851.47,-1133.5,-402.95,-198.82,0,0.012017,0,1,0.33,0,-0.33,0
0,0,0,0,0,0,0.0013249,-0.0047622,2.409e-34,0.00011422,1.9249e-18,-4.0909e-21,4.1157,0.0055521,-0.0047658,1.004e-33,0.0013284,-193.95,-1122.3,-398.05,17.556,2.9384e-13,-5.8871e-16,846.13,-1122.8,-398.05,-193.4,0,0.012041,0,1,0.335,0,-0.335,0
0,0,0,0,0,0,0.0013282,-0.0047242,2.4504e-34,0.00010724,1.9146e-18,-4.3567e-21,4.1084,0.0055165,-0.0047274,1.007e-33,0.0013314,-188.62,-1111.8,-393.24,16.484,2.9226e-13,-6.3021e-16,840.78,-1112.3,-393.24,-188.13,0,0.012065,0,1,0.34,0,-0.34,0
0,0,0,0,0,0,0.0013311,-0.0046864,2.4859e-34,0.0001006,1.905e-18,-4.5898e-21,4.101,0.0054808,-0.0046893,1.01e-33,0.001334,-183.45,-1101.4,-388.51,15.465,2.9079e-13,-6.6668e-16,835.43,-1101.8,-388.51,-183.01,0,0.012089,0,1,0.345,0,-0.345,0
0,0,0,0,0,0,0.0013336,-0.0046489,2.5152e-34,9.4306e-05,1.8961e-18,-4.7902e-21,4.0937,0.005445,-0.0046514,1.0131e-33,0.0013361,-178.43,-1091.1,-383.86,14.499,2.8944e-13,-6.9812e-16,830.06,-1091.5,-383.86,-178.05,0,0.012112,0,1,0.35,0,-0.35,0
0,0,0,0,0,0,0.0013355,-0.0046115,2.5386e-34,8.8358e-05,1.8879e-18,-4.9578e-21,4.0863,0.0054092,-0.0046137,1.0162e-33,0.0013377,-173.57,-1080.9,-379.29,13.586,2.8819e-13,-7.2452e-16,824.69,-1081.2,-379.29,-173.23,0,0.012135,0,1,0.355,0,-0.355,0
0,0,0,0,0,0,0.0013371,-0.0045745,2.5558e-34,8.2756e-05,1.8805e-18,-5.0926e-21,4.0789,0.0053734,-0.0045764,1.0194e-33,0.001339,-168.85,-1070.8,-374.8,12.726,2.8705e-13,-7.459e-16,819.31,-1071.1,-374.8,-168.56,0,0.012158,0,1,0.36,0,-0.36,0
0,0,0,0,0,0,0.0013381,-0.0045376,2.567e-34,7.7499e-05,1.8737e-18,-5.1947e-21,4.0716,0.0053375,-0.0045392,1.0227e-33,0.0013397,-164.29,-1060.9,-370.39,11.919,2.8602e-13,-7.6224e-16,813.92,-1061.2,-370.39,-164.04,0,0.012181,0,1,0.365,0,-0.365,0
0,0,0,0,0,0,0.0013387,-0.004501,2.5722e-34,7.2587e-05,1.8677e-18,-5.264e-21,4.0642,0.0053016,-0.0045024,1.026e-33,0.0013401,-159.88,-1051.1,-366.07,11.165,2.851e-13,-7.7356e-16,808.52,-1051.3,-366.07,-159.67,0,0.012204,0,1,0.37,0,-0.37,0
0,0,0,0,0,0,0.0013388,-0.0044646,2.5713e-34,6.802e-05,1.8623e-18,-5.3005e-21,4.0569,0.0052656,-0.0044658,1.0293e-33,0.0013399,-155.62,-1041.4,-361.82,10.464,2.8429e-13,-7.7984e-16,803.12,-1041.5,-361.82,-155.45,0,0.012226,0,1,0.375,0,-0.375,0
0,0,0,0,0,0,0.0013385,-0.0044285,2.5644e-34,6.3799e-05,1.8577e-18,-5.3043e-21,4.0495,0.0052296,-0.0044294,1.0327e-33,0.0013394,-151.52,-1031.8,-357.66,9.8158,2.8359e-13,-7.8109e-16,797.7,-1031.9,-357.66,-151.38,0,0.012248,0,1,0.38,0,-0.38,0
0,0,0,0,0,0,0.0013377,-0.0043926,2.5514e-34,5.9923e-05,1.8538e-18,-5.2754e-21,4.0422,0.0051936,-0.0043933,1.0362e-33,0.0013384,-147.56,-1022.3,-353.58,9.2209,2.83e-13,-7.7731e-16,792.28,-1022.4,-353.58,-147.45,0,0.01227,0,1,0.385,0,-0.385,0
0,0,0,0,0,0,0.0013364,-0.004357,2.5324e-34,5.6393e-05,1.8505e-18,-5.2137e-21,4.0348,0.0051575,-0.0043575,1.0397e-33,0.0013369,-143.76,-1012.9,-349.58,8.6791,2.8252e-13,-7.685e-16,786.85,-1013,-349.58,-143.68,0,0.012292,0,1,0.39,0,-0.39,0
0,0,0,0,0,0,0.0013347,-0.0043215,2.5073e-34,5.3207e-05,1.848e-18,-5.1192e-21,4.0275,0.0051214,-0.0043219,1.0432e-33,0.0013351,-140.11,-1003.7,-345.67,8.1902,2.8214e-13,-7.5466e-16,781.41,-1003.7,-345.67,-140.06,0,0.012314,0,1,0.395,0,-0.395,0
0,0,0,0,0,0,0.0013325,-0.0042863,2.4761e-34,5.0367e-05,1.8462e-18,-4.992e-21,4.0201,0.0050852,-0.0042865,1.0468e-33,0.0013327,-136.62,-994.57,-341.83,7.7545,2.8188e-13,-7.3578e-16,775.96,-994.6,-341.83,-136.59,0,0.012336,0,1,0.4,0,-0.4,0
0,0,0,0,0,0,0.0013299,-0.0042514,2.4389e-34,4.7873e-05,1.8451e-18,-4.832e-21,4.0127,0.005049,-0.0042514,1.0505e-33,0.0013299,-133.27,-985.56,-338.08,7.3717,2.8173e-13,-7.1188e-16,770.5,-985.56,-338.08,-133.27,0,0.012357,0,1,0.405,0,-0.405,0
0,0,0,0,0,0,0.0013268,-0.0042167,2.3957e-34,4.5723e-05,1.8447e-18,-4.6393e-21,4.0054,0.0050127,-0.0042166,1.0542e-33,0.0013267,-130.08,-976.66,-334.41,7.0419,2.8169e-13,-6.8295e-16,765.04,-976.65,-334.41,-130.09,0,0.012378,0,1,0.41,0,-0.41,0
0,0,0,0,0,0,0.0013232,-0.0041822,2.3464e-34,4.3919e-05,1.845e-18,-4.4138e-21,3.998,0.0049764,-0.004182,1.0579e-33,0.0013231,-127.04,-967.88,-330.81,6.7652,2.8175e-13,-6.4898e-16,759.56,-967.85,-330.81,-127.07,0,0.012399,0,1,0.415,0,-0.415,0
0,0,0,0,0,0,0.0013192,-0.004148,2.291e-34,4.2461e-05,1.846e-18,-4.1556e-21,3.9907,0.0049401,-0.0041477,1.0617e-33,0.0013189,-124.15,-959.22,-327.31,6.5415,2.8193e-13,-6.0998e-16,754.08,-959.17,-327.31,-124.2,0,0.01242,0,1,0.42,0,-0.42,0
0,0,0,0,0,0,0.0013147,-0.004114,2.2296e-34,4.1347e-05,1.8477e-18,-3.8646e-21,3.9833,0.0049037,-0.0041136,1.0656e-33,0.0013144,-121.42,-950.67,-323.88,6.3709,2.8222e-13,-5.6596e-16,748.59,-950.61,-323.88,-121.47,0,0.012441,0,1,0.425,0,-0.425,0
0,0,0,0,0,0,0.0013098,-0.0040802,2.1622e-34,4.0579e-05,1.8501e-18,-3.5408e-21,3.976,0.0048673,-0.0040798,1.0695e-33,0.0013094,-118.84,-942.23,-320.53,6.2532,2.8261e-13,-5.169e-16,743.09,-942.17,-320.53,-118.9,0,0.012461,0,1,0.43,0,-0.43,0
0,0,0,0,0,0,0.0013044,-0.0040467,2.0887e-34,4.0156e-05,1.8532e-18,-3.1843e-21,3.9686,0.0048308,-0.0040463,1.0735e-33,0.0013039,-116.41,-933.92,-317.27,6.1886,2.8312e-13,-4.6281e-16,737.58,-933.85,-317.27,-116.47,0,0.012482,0,1,0.435,0,-0.435,0
0,0,0,0,0,0,0.0012985,-0.0040134,2.0091e-34,4.0079e-05,1.857e-18,-2.795e-21,3.9612,0.0047943,-0.004013,1.0775e-33,0.0012981,-114.13,-925.72,-314.08,6.177,2.8373e-13,-4.0369e-16,732.07,-925.65,-314.08,-114.2,0,0.012502,0,1,0.44,0,-0.44,0
0,0,0,0,0,0,0.0012922,-0.0039804,1.9235e-34,4.0346e-05,1.8616e-18,-2.373e-21,3.9539,0.0047578,-0.0039799,1.0815e-33,0.0012917,-112,-917.63,-310.98,6.2184,2.8445e-13,-3.3954e-16,726.54,-917.56,-310.98,-112.07,0,0.012522,0,1,0.445,0,-0.445,0
0,0,0,0,0,0,0.0012854,-0.0039476,1.8318e-34,4.0959e-05,1.8668e-18,-1.9182e-21,3.9465,0.0047212,-0.0039471,1.0856e-33,0.001285,-110.03,-909.67,-307.96,6.3129,2.8529e-13,-2.7036e-16,721.01,-909.6,-307.96,-110.1,0,0.012541,0,1,0.45,0,-0.45,0
0,0,0,0,0,0,0.0012781,-0.003915,1.7341e-34,4.1918e-05,1.8728e-18,-1.4307e-21,3.9392,0.0046845,-0.0039146,1.0898e-33,0.0012777,-108.21,-901.81,-305.03,6.4604,2.8623e-13,-1.9614e-16,715.47,-901.75,-305.03,-108.27,0,0.012561,0,1,0.455,0,-0.455,0
0,0,0,0,0,0,0.0012704,-0.0038827,1.6304e-34,4.3221e-05,1.8794e-18,-9.1041e-22,3.9318,0.0046479,-0.0038823,1.094e-33,0.0012701,-106.54,-894.08,-302.17,6.6609,2.8728e-13,-1.169e-16,709.92,-894.02,-302.17,-106.6,0,0.01258,0,1,0.46,0,-0.46,0
0,0,0,0,0,0,0.0012623,-0.0038506,1.5206e-34,4.487e-05,1.8868e-18,-3.5737e-22,3.9245,0.0046111,-0.0038503,1.0982e-33,0.001262,-105.02,-886.46,-299.39,6.9144,2.8845e-13,-3.2627e-17,704.36,-886.41,-299.39,-105.07,0,0.0126,0,1,0.465,0,-0.465,0
0,0,0,0,0,0,0.0012536,-0.0038187,1.4047e-34,4.6865e-05,1.8948e-18,2.2843e-22,3.9171,0.0045744,-0.0038185,1.1025e-33,0.0012534,-103.66,-878.96,-296.7,7.221,2.8972e-13,5.6678e-17,698.79,-878.92,-296.7,-103.69,0,0.012619,0,1,0.47,0,-0.47,0
0,0,0,0,0,0,0.0012445,-0.0037871,1.2828e-34,4.9204e-05,1.9036e-18,8.4699e-22,3.9097,0.0045376,-0.003787,1.1069e-33,0.0012444,-102.45,-871.57,-294.09,7.5806,2.911e-13,1.5101e-16,693.22,-871.55,-294.09,-102.46,0,0.012638,0,1,0.475,0,-0.475,0
0,0,0,0,0,0,0.001235,-0.0037557,1.1548e-34,5.1889e-05,1.9131e-18,1.4983e-21,3.9024,0.0045007,-0.0037557,1.1113e-33,0.001235,-101.39,-864.3,-291.56,7.9932,2.9259e-13,2.5038e-16,687.63,-864.3,-291.56,-101.39,0,0.012656,0,1,0.48,0,-0.48,0
0,0,0,0,0,0,0.001225,-0.0037245,1.0208e-34,5.4919e-05,1.9232e-18,2.1824e-21,3.895,0.0044639,-0.0037247,1.1158e-33,0.0012251,-100.48,-857.14,-289.11,8.4588,2.9419e-13,3.5478e-16,682.04,-857.16,-289.11,-100.46,0,0.012675,0,1,0.485,0,-0.485,0
0,0,0,0,0,0,0.0012145,-0.0036936,8.8072e-35,5.8295e-05,1.9341e-18,2.8992e-21,3.8877,0.0044269,-0.0036939,1.1203e-33,0.0012148,-99.724,-850.1,-286.74,8.9775,2.959e-13,4.6421e-16,676.44,-850.14,-286.74,-99.68,0,0.012693,0,1,0.49,0,-0.49,0
0,0,0,0,0,0,0.0012035,-0.0036629,7.3459e-35,6.2016e-05,1.9457e-18,3.6488e-21,3.8803,0.00439,-0.0036634,1.1248e-33,0.001204,-99.121,-843.18,-284.46,9.5492,2.9772e-13,5.7867e-16,670.83,-843.25,-284.46,-99.052,0,0.012711,0,1,0.495,0,-0.495,0
0,0,0,0,0,0,0.0011921,-0.0036325,5.8242e-35,6.6082e-05,1.958e-18,4.4311e-21,3.873,0.0043529,-0.0036331,1.1294e-33,0.0011928,-98.671,-836.37,-282.25,10.174,2.9965e-13,6.9816e-16,665.21,-836.47,-282.25,-98.572,0,0.012729,0,1,0.5,0,-0.5,0
0,0,0,0,0,0,0.0011803,-0.0036023,4.242e-35,7.0493e-05,1.971e-18,5.2462e-21,3.8656,0.0043159,-0.0036031,1.1341e-33,0.0011811,-98.372,-829.68,-280.13,10.852,3.0169e-13,8.2268e-16,659.59,-829.81,-280.13,-98.243,0,0.012747,0,1,0.505,0,-0.505,0
0,0,0,0,0,0,0.001168,-0.0035723,2.5992e-35,7.525e-05,1.9847e-18,6.094e-21,3.8583,0.0042788,-0.0035734,1.1388e-33,0.001169,-98.226,-823.1,-278.09,11.582,3.0384e-13,9.5223e-16,653.95,-823.27,-278.09,-98.063,0,0.012765,0,1,0.51,0,-0.51,0
0,0,0,0,0,0,0.0011552,-0.0035426,8.9591e-36,8.0352e-05,1.9991e-18,6.9746e-21,3.8509,0.0042416,-0.0035439,1.1436e-33,0.0011565,-98.233,-816.64,-276.13,12.366,3.061e-13,1.0868e-15,648.31,-816.84,-276.13,-98.033,0,0.012782,0,1,0.515,0,-0.515,0
0,0,0,0,0,0,0.0011419,-0.0035131,-8.6789e-36,8.5799e-05,2.0142e-18,7.888e-21,3.8435,0.0042045,-0.0035147,1.1484e-33,0.0011435,-98.391,-810.3,-274.25,13.203,3.0847e-13,1.2264e-15,642.66,-810.54,-274.25,-98.152,0,0.0128,0,1,0.52,0,-0.52,0
0,0,0,0,0,0,0.0011282,-0.0034839,-2.6922e-35,9.1592e-05,2.0301e-18,8.8341e-21,3.8362,0.0041672,-0.0034857,1.1532e-33,0.00113,-98.702,-804.07,-272.46,14.093,3.1094e-13,1.3711e-15,637,-804.35,-272.46,-98.421,0,0.012817,0,1,0.525,0,-0.525,0
0,0,0,0,0,0,0.0011225,-0.003466,-2.761e-35,8.8643e-05,1.874e-18,8.7559e-21,3.8189,0.0041458,-0.0034677,1.1457e-33,0.0011242,-98.186,-799.95,-271.05,13.639,2.8704e-13,1.3577e-15,633.74,-800.23,-271.05,-97.912,0,0.012834,0,1,0.53,0,-0.53,0
0,0,0,0,0,0,0.001118,-0.0034499,-2.543e-35,8.4341e-05,1.6937e-18,8.5106e-21,3.8001,0.0041269,-0.0034515,1.1362e-33,0.0011197,-97.523,-796.16,-269.7,12.978,2.5942e-13,1.3185e-15,630.87,-796.42,-269.7,-97.263,0,0.012852,0,1,0.535,0,-0.535,0
0,0,0,0,0,0,0.0011135,-0.0034337,-2.3316e-35,8.0156e-05,1.5178e-18,8.2691e-21,3.7812,0.0041079,-0.0034353,1.1268e-33,0.0011151,-96.862,-792.36,-268.35,12.334,2.3245e-13,1.2799e-15,627.99,-792.61,-268.35,-96.617,0,0.01287,0,1,0.54,0,-0.54,0
0,0,0,0,0,0,0.001109,-0.0034175,-2.1269e-35,7.6087e-05,1.346e-18,8.0313e-21,3.7623,0.0040889,-0.003419,1.1175e-33,0.0011105,-96.204,-788.55,-266.99,11.709,2.0614e-13,1.242e-15,625.1,-788.78,-266.99,-95.972,0,0.012887,0,1,0.545,0,-0.545,0
0,0,0,0,0,0,0.0011044,-0.0034012,-1.9287e-35,7.2135e-05,1.1786e-18,7.7974e-21,3.7435,0.0040698,-0.0034026,1.1084e-33,0.0011058,-95.549,-784.73,-265.63,11.101,1.8049e-13,1.2046e-15,622.2,-784.95,-265.63,-95.33,0,0.012905,0,1,0.55,0,-0.55,0
0,0,0,0,0,0,0.0010998,-0.0033849,-1.7371e-35,6.8299e-05,1.0154e-18,7.5672e-21,3.7246,0.0040507,-0.0033862,1.0994e-33,0.0011012,-94.896,-780.9,-264.27,10.511,1.5549e-13,1.1679e-15,619.29,-781.11,-264.27,-94.69,0,0.012922,0,1,0.555,0,-0.555,0
0,0,0,0,0,0,0.0010952,-0.0033686,-1.5521e-35,6.458e-05,8.5654e-19,7.3408e-21,3.7057,0.0040315,-0.0033698,1.0905e-33,0.0010965,-94.245,-777.07,-262.91,9.9391,1.3114e-13,1.1318e-15,616.38,-777.26,-262.91,-94.052,0,0.012939,0,1,0.56,0,-0.56,0
0,0,0,0,0,0,0.0010906,-0.0033522,-1.3737e-35,6.0977e-05,7.0192e-19,7.1182e-21,3.6869,0.0040122,-0.0033533,1.0817e-33,0.0010917,-93.597,-773.22,-261.55,9.3851,1.0745e-13,1.0963e-15,613.45,-773.4,-261.55,-93.416,0,0.012956,0,1,0.565,0,-0.565,0
0,0,0,0,0,0,0.0010859,-0.0033357,-1.2018e-35,5.7491e-05,5.5158e-19,6.8994e-21,3.668,0.0039929,-0.0033368,1.0731e-33,0.001087,-92.952,-769.36,-260.18,8.8491,8.4414e-14,1.0615e-15,610.51,-769.53,-260.18,-92.782,0,0.012973,0,1,0.57,0,-0.57,0
0,0,0,0,0,0,0.0010812,-0.0033192,-1.0366e-35,5.4121e-05,4.0551e-19,6.6844e-21,3.6491,0.0039735,-0.0033202,1.0645e-33,0.0010822,-92.309,-765.5,-258.82,8.3309,6.2032e-14,1.0272e-15,607.56,-765.65,-258.82,-92.151,0,0.01299,0,1,0.575,0,-0.575,0
0,0,0,0,0,0,0.0010765,-0.0033027,-8.7798e-36,5.0869e-05,2.6372e-19,6.4731e-21,3.6303,0.003954,-0.0033036,1.0561e-33,0.0010774,-91.668,-761.62,-257.45,7.8307,4.0306e-14,9.9361e-16,604.61,-761.77,-257.45,-91.521,0,0.013007,0,1,0.58,0,-0.58,0
0,0,0,0,0,0,0.0010717,-0.0032861,-7.2593e-36,4.7732e-05,1.262e-19,6.2657e-21,3.6114,0.0039345,-0.003287,1.0479e-33,0.0010726,-91.03,-757.74,-256.08,7.3484,1.9234e-14,9.606e-16,601.64,-757.87,-256.08,-90.894,0,0.013024,0,1,0.585,0,-0.585,0
0,0,0,0,0,0,0.0010669,-0.0032695,-5.8049e-36,4.4712e-05,-7.0424e-21,6.062e-21,3.5925,0.0039149,-0.0032703,1.0397e-33,0.0010678,-90.395,-753.85,-254.7,6.884,-1.1829e-15,9.282e-16,598.67,-753.97,-254.7,-90.269,0,0.013041,0,1,0.59,0,-0.59,0
0,0,0,0,0,0,0.0010621,-0.0032528,-4.4163e-36,4.1809e-05,-1.3601e-19,5.8621e-21,3.5737,0.0038953,-0.0032535,1.0317e-33,0.0010629,-89.762,-749.94,-253.33,6.4375,-2.0945e-14,8.9642e-16,595.68,-750.06,-253.33,-89.646,0,0.013057,0,1,0.595,0,-0.595,0
0,0,0,0,0,0,0.0010573,-0.0032361,-3.0936e-36,3.9023e-05,-2.6071e-19,5.666e-21,3.5548,0.0038756,-0.0032368,1.0237e-33,0.001058,-89.131,-746.03,-251.95,6.009,-4.0052e-14,8.6527e-16,592.69,-746.14,-251.95,-89.026,0,0.013074,0,1,0.6,0,-0.6,0
0,0,0,0,0,0,0.0010524,-0.0032193,-1.8369e-36,3.6353e-05,-3.8112e-19,5.4737e-21,3.5359,0.0038558,-0.0032199,1.0159e-33,0.001053,-88.504,-742.11,-250.57,5.5984,-5.8505e-14,8.3472e-16,589.69,-742.21,-250.57,-88.407,0,0.01309,0,1,0.605,0,-0.605,0
0,0,0,0,0,0,0.0010475,-0.0032025,-6.4612e-37,3.3799e-05,-4.9727e-19,5.2852e-21,3.5171,0.003836,-0.003203,1.0083e-33,0.0010481,-87.878,-738.18,-249.19,5.2057,-7.6302e-14,8.048e-16,586.67,-738.27,-249.19,-87.791,0,0.013106,0,1,0.61,0,-0.61,0
0,0,0,0,0,0,0.0010426,-0.0031856,4.7875e-37,3.1362e-05,-6.0914e-19,5.1004e-21,3.4982,0.0038161,-0.0031861,1.0007e-33,0.0010431,-87.256,-734.24,-247.81,4.8309,-9.3444e-14,7.7549e-16,583.65,-734.32,-247.81,-87.176,0,0.013122,0,1,0.615,0,-0.615,0
0,0,0,0,0,0,0.0010376,-0.0031687,1.5377e-36,2.9042e-05,-7.1673e-19,4.9195e-21,3.4793,0.0037962,-0.0031692,9.9327e-34,0.0010381,-86.635,-730.3,-246.43,4.4741,-1.0993e-13,7.468e-16,580.62,-730.37,-246.43,-86.564,0,0.013139,0,1,0.62,0,-0.62,0
0,0,0,0,0,0,0.0010326,-0.0031518,2.5307e-36,2.6838e-05,-8.2005e-19,4.7423e-21,3.4605,0.0037762,-0.0031522,9.8595e-34,0.001033,-86.018,-726.34,-245.04,4.1351,-1.2576e-13,7.1873e-16,577.58,-726.4,-245.04,-85.954,0,0.013155,0,1,0.625,0,-0.625,0
0,0,0,0,0,0,0.0010276,-0.0031348,3.4578e-36,2.4751e-05,-9.1909e-19,4.5689e-21,3.4416,0.0037561,-0.0031351,9.7876e-34,0.001028,-85.402,-722.37,-243.65,3.8141,-1.4094e-13,6.9127e-16,574.53,-722.43,-243.65,-85.346,0,0.01317,0,1,0.63,0,-0.63,0
0,0,0,0,0,0,0.0010226,-0.0031177,4.319e-36,2.278e-05,-1.0139e-18,4.3993e-21,3.4227,0.003736,-0.003118,9.717e-34,0.0010229,-84.79,-718.4,-242.26,3.511,-1.5547e-13,6.6443e-16,571.47,-718.45,-242.26,-84.741,0,0.013186,0,1,0.635,0,-0.635,0
0,0,0,0,0,0,0.0010175,-0.0031006,5.1143e-36,2.0926e-05,-1.1044e-18,4.2335e-21,3.4038,0.0037158,-0.0031009,9.6475e-34,0.0010178,-84.18,-714.41,-240.87,3.2258,-1.6933e-13,6.3821e-16,568.4,-714.46,-240.87,-84.137,0,0.013202,0,1,0.64,0,-0.64,0
0,0,0,0,0,0,0.0010124,-0.0030835,5.8436e-36,1.9189e-05,-1.1906e-18,4.0714e-21,3.385,0.0036956,-0.0030837,9.5792e-34,0.0010126,-83.572,-710.42,-239.47,2.9586,-1.8255e-13,6.126e-16,565.32,-710.46,-239.47,-83.536,0,0.013217,0,1,0.645,0,-0.645,0
0,0,0,0,0,0,0.0010072,-0.0030663,6.507e-36,1.7568e-05,-1.2725e-18,3.9132e-21,3.3661,0.0036753,-0.0030665,9.5122e-34,0.0010074,-82.967,-706.42,-238.08,2.7093,-1.9511e-13,5.8761e-16,562.23,-706.45,-238.08,-82.937,0,0.013233,0,1,0.65,0,-0.65,0
0,0,0,0,0,0,0.0010021,-0.0030491,7.1045e-36,1.6063e-05,-1.3502e-18,3.7587e-21,3.3472,0.0036549,-0.0030492,9.4463e-34,0.0010022,-82.364,-702.41,-236.68,2.4778,-2.0701e-13,5.6324e-16,559.13,-702.43,-236.68,-82.34,0,0.013248,0,1,0.655,0,-0.655,0
0,0,0,0,0,0,0.00099688,-0.0030318,7.636e-36,1.4675e-05,-1.4236e-18,3.608e-21,3.3284,0.0036345,-0.0030319,9.3817e-34,0.00099701,-81.764,-698.39,-235.28,2.2643,-2.1826e-13,5.3949e-16,556.03,-698.4,-235.28,-81.745,0,0.013263,0,1,0.66,0,-0.66,0
0,0,0,0,0,0,0.00099166,-0.0030145,8.1017e-36,1.3404e-05,-1.4927e-18,3.4612e-21,3.3095,0.003614,-0.0030146,9.3183e-34,0.00099175,-81.167,-694.35,-233.87,2.0688,-2.2885e-13,5.1635e-16,552.91,-694.37,-233.87,-81.152,0,0.013279,0,1,0.665,0,-0.665,0
0,0,0,0,0,0,0.00098641,-0.0029971,8.5014e-36,1.225e-05,-1.5576e-18,3.318e-21,3.2906,0.0035934,-0.0029972,9.2561e-34,0.00098647,-80.572,-690.32,-232.47,1.8911,-2.3879e-13,4.9383e-16,549.78,-690.33,-232.47,-80.561,0,0.013294,0,1,0.67,0,-0.67,0
0,0,0,0,0,0,0.00098113,-0.0029797,8.8352e-36,1.1211e-05,-1.6181e-18,3.1787e-21,3.2718,0.0035728,-0.0029797,9.1952e-34,0.00098117,-79.979,-686.27,-231.06,1.7314,-2.4808e-13,4.7193e-16,546.65,-686.27,-231.06,-79.973,0,0.013309,0,1,0.675,0,-0.675,0
0,0,0,0,0,0,0.00097582,-0.0029622,9.103e-36,1.029e-05,-1.6744e-18,3.0432e-21,3.2529,0.0035521,-0.0029622,9.1354e-34,0.00097583,-79.389,-682.21,-229.66,1.5896,-2.567e-13,4.5064e-16,543.5,-682.21,-229.66,-79.387,0,0.013324,0,1,0.68,0,-0.68,0
0,0,0,0,0,0,0.00097048,-0.0029447,9.305e-36,9.485e-06,-1.7264e-18,2.9114e-21,3.234,0.0035314,-0.0029447,9.0769e-34,0.00097048,-78.802,-678.14,-228.25,1.4657,-2.6468e-13,4.2997e-16,540.35,-678.14,-228.25,-78.802,0,0.013338,0,1,0.685,0,-0.685,0
0,0,0,0,0,0,0.00096511,-0.0029271,9.441e-36,8.7966e-06,-1.7742e-18,2.7835e-21,3.2152,0.0035106,-0.0029271,9.0196e-34,0.00096509,-78.217,-674.07,-226.83,1.3597,-2.72e-13,4.0992e-16,537.18,-674.06,-226.83,-78.22,0,0.013353,0,1,0.69,0,-0.69,0
0,0,0,0,0,0,0.00095972,-0.0029095,9.5111e-36,8.2248e-06,-1.8177e-18,2.6593e-21,3.1963,0.0034897,-0.0029095,8.9635e-34,0.00095968,-77.634,-669.98,-225.42,1.2717,-2.7866e-13,3.9049e-16,534.01,-669.98,-225.42,-77.641,0,0.013368,0,1,0.695,0,-0.695,0
0,0,0,0,0,0,0.00095429,-0.0028919,9.5152e-36,7.7696e-06,-1.8569e-18,2.5389e-21,3.1774,0.0034688,-0.0028918,8.9086e-34,0.00095424,-77.055,-665.89,-224,1.2016,-2.8467e-13,3.7167e-16,530.82,-665.88,-224,-77.063,0,0.013382,0,1,0.7,0,-0.7,0
0,0,0,0,0,0,0.00094884,-0.0028742,9.4535e-36,7.4309e-06,-1.8918e-18,2.4223e-21,3.1586,0.0034478,-0.0028741,8.8549e-34,0.00094877,-76.477,-661.78,-222.59,1.1494,-2.9003e-13,3.5347e-16,527.63,-661.77,-222.59,-76.487,0,0.013396,0,1,0.705,0,-0.705,0
0,0,0,0,0,0,0.00094335,-0.0028565,9.3258e-36,7.2088e-06,-1.9224e-18,2.3095e-21,3.1397,0.0034268,-0.0028564,8.8024e-34,0.00094328,-75.902,-657.67,-221.17,1.1151,-2.9473e-13,3.3589e-16,524.43,-657.66,-221.17,-75.914,0,0.013411,0,1,0.71,0,-0.71,0
0,0,0,0,0,0,0.00093784,-0.0028387,9.1322e-36,7.1032e-06,-1.9488e-18,2.2004e-21,3.1208,0.0034057,-0.0028386,8.7512e-34,0.00093776,-75.33,-653.55,-219.74,1.0987,-2.9877e-13,3.1892e-16,521.22,-653.54,-219.74,-75.343,0,0.013425,0,1,0.715,0,-0.715,0
0,0,0,0,0,0,0.0009323,-0.0028208,8.8727e-36,7.1143e-06,-1.9709e-18,2.0952e-21,3.102,0.0033845,-0.0028207,8.7012e-34,0.00093221,-74.76,-649.42,-218.32,1.1003,-3.0216e-13,3.0257e-16,518,-649.4,-218.32,-74.774,0,0.013439,0,1,0.72,0,-0.72,0
0,0,0,0,0,0,0.00092673,-0.002803,8.5472e-36,7.2419e-06,-1.9887e-18,1.9937e-21,3.0831,0.0033633,-0.0028029,8.6524e-34,0.00092664,-74.193,-645.28,-216.89,1.1198,-3.049e-13,2.8684e-16,514.76,-645.26,-216.89,-74.207,0,0.013453,0,1,0.725,0,-0.725,0
0,0,0,0,0,0,0.00092113,-0.002785,8.1558e-36,7.4861e-06,-2.0023e-18,1.896e-21,3.0642,0.003342,-0.0027849,8.6048e-34,0.00092104,-73.628,-641.13,-215.47,1.1572,-3.0698e-13,2.7173e-16,511.52,-641.11,-215.47,-73.642,0,0.013467,0,1,0.73,0,-0.73,0
0,0,0,0,0,0,0.0009155,-0.0027671,7.6985e-36,7.8468e-06,-2.0115e-18,1.8021e-21,3.0454,0.0033207,-0.002767,8.5584e-34,0.00091541,-73.066,-636.97,-214.04,1.2125,-3.0841e-13,2.5723e-16,508.27,-636.96,-214.04,-73.08,0,0.013481,0,1,0.735,0,-0.735,0
0,0,0,0,0,0,0.00090984,-0.002749,7.1753e-36,8.3241e-06,-2.0165e-18,1.712e-21,3.0265,0.0032993,-0.002749,8.5132e-34,0.00090976,-72.506,-632.8,-212.61,1.2857,-3.0918e-13,2.4335e-16,505.02,-632.79,-212.61,-72.519,0,0.013494,0,1,0.74,0,-0.74,0
0,0,0,0,0,0,0.00090415,-0.002731,6.5862e-36,8.918e-06,-2.0173e-18,1.6257e-21,3.0076,0.0032778,-0.0027309,8.4693e-34,0.00090408,-71.949,-628.63,-211.17,1.3769,-3.0929e-13,2.3009e-16,501.75,-628.61,-211.17,-71.961,0,0.013508,0,1,0.745,0,-0.745,0
0,0,0,0,0,0,0.00089844,-0.0027129,5.9311e-36,9.6284e-06,-2.0137e-18,1.5432e-21,2.9888,0.0032563,-0.0027128,8.4265e-34,0.00089837,-71.395,-624.44,-209.74,1.486,-3.0875e-13,2.1744e-16,498.47,-624.43,-209.74,-71.405,0,0.013521,0,1,0.75,0,-0.75,0
0,0,0,0,0,0,0.00089269,-0.0026947,5.2101e-36,1.0455e-05,-2.0059e-18,1.4644e-21,2.9699,0.0032347,-0.0026946,8.385e-34,0.00089264,-70.843,-620.24,-208.3,1.613,-3.0756e-13,2.0541e-16,495.18,-620.24,-208.3,-70.851,0,0.013535,0,1,0.755,0,-0.755,0
0,0,0,0,0,0,0.00088692,-0.0026765,4.4232e-36,1.1399e-05,-1.9938e-18,1.3894e-21,2.951,0.003213,-0.0026765,8.3447e-34,0.00088688,-70.293,-616.04,-206.86,1.7579,-3.0571e-13,1.94e-16,491.88,-616.03,-206.86,-70.299,0,0.013548,0,1,0.76,0,-0.76,0
0,0,0,0,0,0,0.00088111,-0.0026582,3.5704e-36,1.2459e-05,-1.9774e-18,1.3183e-21,2.9322,0.0031913,-0.0026582,8.3056e-34,0.00088109,-69.746,-611.83,-205.42,1.9207,-3.0321e-13,1.832e-16,488.58,-611.82,-205.42,-69.749,0,0.013561,0,1,0.765,0,-0.765,0
0,0,0,0,0,0,0.00087528,-0.0026399,2.6516e-36,1.3636e-05,-1.9568e-18,1.2509e-21,2.9133,0.0031696,-0.0026399,8.2678e-34,0.00087528,-69.202,-607.6,-203.98,2.1015,-3.0005e-13,1.7303e-16,485.26,-607.6,-203.98,-69.202,0,0.013574,0,1,0.77,0,-0.77,0
0,0,0,0,0,0,0.00086942,-0.0026216,1.667e-36,1.4929e-05,-1.9318e-18,1.1872e-21,2.8944,0.0031477,-0.0026216,8.2311e-34,0.00086944,-68.66,-603.37,-202.53,2.3002,-2.9624e-13,1.6347e-16,481.94,-603.38,-202.53,-68.656,0,0.013587,0,1,0.775,0,-0.775,0
0,0,0,0,0,0,0.00086353,-0.0026032,6.1637e-37,1.6339e-05,-1.9026e-18,1.1274e-21,2.8756,0.0031258,-0.0026033,8.1957e-34,0.00086357,-68.12,-599.13,-201.08,2.5168,-2.9177e-13,1.5452e-16,478.6,-599.14,-201.08,-68.113,0,0.0136,0,1,0.78,0,-0.78,0
0,0,0,0,0,0,0.00085761,-0.0025848,-5.0016e-37,1.7865e-05,-1.8692e-18,1.0714e-21,2.8567,0.0031039,-0.0025849,8.1614e-34,0.00085768,-67.583,-594.88,-199.63,2.7513,-2.8665e-13,1.462e-16,475.26,-594.89,-199.63,-67.572,0,0.013613,0,1,0.785,0,-0.785,0
0,0,0,0,0,0,0.00085166,-0.0025663,-1.6826e-36,1.9508e-05,-1.8314e-18,1.0191e-21,2.8378,0.0030819,-0.0025664,8.1284e-34,0.00085176,-67.049,-590.62,-198.18,3.0038,-2.8087e-13,1.3849e-16,471.9,-590.64,-198.18,-67.033,0,0.013626,0,1,0.79,0,-0.79,0
0,0,0,0,0,0,0.00084568,-0.0025478,-2.931e-36,2.1268e-05,-1.7894e-18,9.7064e-22,2.819,0.0030598,-0.0025479,8.0966e-34,0.00084581,-66.517,-586.35,-196.73,3.2741,-2.7444e-13,1.3139e-16,468.54,-586.37,-196.73,-66.497,0,0.013638,0,1,0.795,0,-0.795,0
0,0,0,0,0,0,0.00083968,-0.0025292,-4.2453e-36,2.3144e-05,-1.7431e-18,9.2595e-22,2.8001,0.0030376,-0.0025294,8.0661e-34,0.00083984,-65.987,-582.08,-195.27,3.5624,-2.6735e-13,1.2492e-16,465.17,-582.1,-195.27,-65.962,0,0.013651,0,1,0.8,0,-0.8,0
0,0,0,0,0,0,0.00083364,-0.0025106,-5.6255e-36,2.5137e-05,-1.6925e-18,8.8505e-22,2.7812,0.0030154,-0.0025108,8.0367e-34,0.00083384,-65.461,-577.79,-193.82,3.8686,-2.5961e-13,1.1906e-16,461.78,-577.82,-193.82,-65.43,0,0.013663,0,1,0.805,0,-0.805,0
0,0,0,0,0,0,0.00082758,-0.0024919,-7.0716e-36,2.7246e-05,-1.6377e-18,8.4794e-22,2.7624,0.0029932,-0.0024921,8.0085e-34,0.00082782,-64.936,-573.49,-192.36,4.1928,-2.5121e-13,1.1382e-16,458.39,-573.53,-192.36,-64.899,0,0.013676,0,1,0.81,0,-0.81,0
0,0,0,0,0,0,0.00082148,-0.0024732,-8.5837e-36,2.9472e-05,-1.5785e-18,8.1461e-22,2.7435,0.0029709,-0.0024735,7.9816e-34,0.00082176,-64.414,-569.19,-190.9,4.5348,-2.4216e-13,1.092e-16,454.99,-569.23,-190.9,-64.371,0,0.013688,0,1,0.815,0,-0.815,0
0,0,0,0,0,0,0.00081536,-0.0024544,-1.0162e-35,3.1814e-05,-1.5152e-18,7.8506e-22,2.7246,0.0029485,-0.0024548,7.9559e-34,0.00081568,-63.895,-564.88,-189.43,4.8948,-2.3245e-13,1.0519e-16,451.58,-564.93,-189.43,-63.845,0,0.0137,0,1,0.82,0,-0.82,0
0,0,0,0,0,0,0.00080921,-0.0024356,-1.1806e-35,3.4273e-05,-1.4475e-18,7.593e-22,2.7058,0.002926,-0.002436,7.9314e-34,0.00080958,-63.378,-560.55,-187.97,5.2727,-2.2209e-13,1.018e-16,448.16,-560.61,-187.97,-63.321,0,0.013712,0,1,0.825,0,-0.825,0
0,0,0,0,0,0,0.0008036,-0.0024196,-1.1994e-35,3.5641e-05,-1.4115e-18,5.9789e-22,2.6903,0.0029067,-0.00242,8.085e-34,0.000804,-63.039,-556.92,-186.77,5.4828,-2.1659e-13,7.7682e-17,445.21,-556.98,-186.77,-62.978,0,0.013724,0,1,0.83,0,-0.83,0
0,0,0,0,0,0,0.00079944,-0.0024108,-8.4202e-36,3.4017e-05,-1.4636e-18,9.5918e-23,2.6833,0.0028952,-0.0024112,8.6732e-34,0.00079982,-63.141,-555.04,-186.23,5.2331,-2.2456e-13,1.4364e-18,443.46,-555.09,-186.23,-63.082,0,0.013736,0,1,0.835,0,-0.835,0
0,0,0,0,0,0,0.0007953,-0.002402,-4.9518e-36,3.2432e-05,-1.5131e-18,-3.8891e-22,2.6763,0.0028837,-0.0024023,9.2402e-34,0.00079566,-63.236,-553.15,-185.68,4.9894,-2.3216e-13,-7.2195e-17,441.7,-553.2,-185.68,-63.18,0,0.013749,0,1,0.84,0,-0.84,0
0,0,0,0,0,0,0.00079116,-0.0023931,-1.5881e-36,3.0887e-05,-1.5603e-18,-8.5661e-22,2.6693,0.0028722,-0.0023935,9.7861e-34,0.00079151,-63.326,-551.25,-185.14,4.7518,-2.3938e-13,-1.4321e-16,439.95,-551.3,-185.14,-63.273,0,0.013761,0,1,0.845,0,-0.845,0
0,0,0,0,0,0,0.00078704,-0.0023842,1.6706e-36,2.938e-05,-1.6049e-18,-1.3071e-21,2.6623,0.0028607,-0.0023845,1.0311e-33,0.00078737,-63.41,-549.35,-184.59,4.5201,-2.4623e-13,-2.1162e-16,438.19,-549.4,-184.59,-63.359,0,0.013773,0,1,0.85,0,-0.85,0
0,0,0,0,0,0,0.00078293,-0.0023753,4.8244e-36,2.7913e-05,-1.6471e-18,-1.7405e-21,2.6553,0.0028492,-0.0023756,1.0814e-33,0.00078323,-63.488,-547.43,-184.03,4.2945,-2.527e-13,-2.7741e-16,436.43,-547.48,-184.03,-63.44,0,0.013785,0,1,0.855,0,-0.855,0
0,0,0,0,0,0,0.00077882,-0.0023664,7.8734e-36,2.6485e-05,-1.6868e-18,-2.1568e-21,2.6483,0.0028376,-0.0023667,1.1297e-33,0.00077912,-63.56,-545.51,-183.47,4.0749,-2.5879e-13,-3.4058e-16,434.66,-545.56,-183.47,-63.515,0,0.013797,0,1,0.86,0,-0.86,0
0,0,0,0,0,0,0.00077473,-0.0023574,1.0818e-35,2.5096e-05,-1.7241e-18,-2.5559e-21,2.6413,0.002826,-0.0023577,1.1758e-33,0.00077501,-63.627,-543.58,-182.9,3.8613,-2.645e-13,-4.0114e-16,432.9,-543.63,-182.9,-63.584,0,0.013809,0,1,0.865,0,-0.865,0
0,0,0,0,0,0,0.00077065,-0.0023484,1.3657e-35,2.3746e-05,-1.7589e-18,-2.9379e-21,2.6343,0.0028145,-0.0023487,1.2198e-33,0.00077091,-63.687,-541.65,-182.34,3.6537,-2.6984e-13,-4.5909e-16,431.13,-541.69,-182.34,-63.647,0,0.013821,0,1,0.87,0,-0.87,0
0,0,0,0,0,0,0.00076658,-0.0023394,1.6391e-35,2.2435e-05,-1.7913e-18,-3.3027e-21,2.6273,0.0028029,-0.0023396,1.2617e-33,0.00076682,-63.742,-539.7,-181.76,3.4521,-2.7479e-13,-5.1442e-16,429.36,-539.74,-181.76,-63.705,0,0.013833,0,1,0.875,0,-0.875,0
0,0,0,0,0,0,0.00076251,-0.0023303,1.9021e-35,2.1163e-05,-1.8212e-18,-3.6504e-21,2.6203,0.0027912,-0.0023306,1.3015e-33,0.00076274,-63.791,-537.75,-181.19,3.2565,-2.7938e-13,-5.6714e-16,427.59,-537.78,-181.19,-63.756,0,0.013845,0,1,0.88,0,-0.88,0
0,0,0,0,0,0,0.00075846,-0.0023213,2.1546e-35,1.993e-05,-1.8486e-18,-3.9809e-21,2.6134,0.0027796,-0.0023215,1.3391e-33,0.00075868,-63.835,-535.79,-180.61,3.0669,-2.8358e-13,-6.1724e-16,425.81,-535.82,-180.61,-63.801,0,0.013857,0,1,0.885,0,-0.885,0
0,0,0,0,0,0,0.00075442,-0.0023122,2.3965e-35,1.8736e-05,-1.8736e-18,-4.2943e-21,2.6064,0.002768,-0.0023124,1.3747e-33,0.00075462,-63.872,-533.82,-180.02,2.8834,-2.8741e-13,-6.6473e-16,424.03,-533.85,-180.02,-63.841,0,0.013868,0,1,0.89,0,-0.89,0
0,0,0,0,0,0,0.00075039,-0.0023031,2.628e-35,1.7582e-05,-1.8961e-18,-4.5905e-21,2.5994,0.0027563,-0.0023032,1.4081e-33,0.00075058,-63.904,-531.84,-179.43,2.7058,-2.9086e-13,-7.0961e-16,422.25,-531.87,-179.43,-63.875,0,0.01388,0,1,0.895,0,-0.895,0
0,0,0,0,0,0,0.00074637,-0.0022939,2.849e-35,1.6466e-05,-1.9162e-18,-4.8696e-21,2.5924,0.0027446,-0.0022941,1.4394e-33,0.00074655,-63.93,-529.85,-178.84,2.5343,-2.9393e-13,-7.5187e-16,420.46,-529.88,-178.84,-63.903,0,0.013892,0,1,0.9,0,-0.9,0
0,0,0,0,0,0,0.00074237,-0.0022847,3.0596e-35,1.539e-05,-1.9338e-18,-5.1316e-21,2.5854,0.0027329,-0.0022849,1.4686e-33,0.00074253,-63.95,-527.86,-178.24,2.3688,-2.9663e-13,-7.9152e-16,418.68,-527.88,-178.24,-63.925,0,0.013903,0,1,0.905,0,-0.905,0
0,0,0,0,0,0,0.00073837,-0.0022755,3.2596e-35,1.4353e-05,-1.9489e-18,-5.3764e-21,2.5784,0.0027212,-0.0022757,1.4957e-33,0.00073852,-63.964,-525.86,-177.64,2.2093,-2.9894e-13,-8.2855e-16,416.89,-525.88,-177.64,-63.941,0,0.013915,0,1,0.91,0,-0.91,0
0,0,0,0,0,0,0.00073438,-0.0022663,3.4492e-35,1.3354e-05,-1.9616e-18,-5.604e-21,2.5714,0.0027095,-0.0022664,1.5206e-33,0.00073452,-63.973,-523.85,-177.03,2.0558,-3.0088e-13,-8.6297e-16,415.1,-523.87,-177.03,-63.951,0,0.013926,0,1,0.915,0,-0.915,0
0,0,0,0,0,0,0.0007304,-0.0022571,3.6282e-35,1.2395e-05,-1.9718e-18,-5.8145e-21,2.5644,0.0026977,-0.0022572,1.5435e-33,0.00073053,-63.975,-521.83,-176.42,1.9083,-3.0245e-13,-8.9477e-16,413.3,-521.85,-176.42,-63.956,0,0.013938,0,1,0.92,0,-0.92,0
0,0,0,0,0,0,0.00072644,-0.0022478,3.7968e-35,1.1475e-05,-1.9796e-18,-6.0079e-21,2.5574,0.0026859,-0.0022479,1.5642e-33,0.00072655,-63.972,-519.8,-175.81,1.7668,-3.0364e-13,-9.2396e-16,411.5,-519.82,-175.81,-63.954,0,0.013949,0,1,0.925,0,-0.925,0
0,0,0,0,0,0,0.00072248,-0.0022385,3.9549e-35,1.0594e-05,-1.9848e-18,-6.1841e-21,2.5504,0.0026741,-0.0022386,1.5828e-33,0.00072258,-63.963,-517.77,-175.19,1.6313,-3.0445e-13,-9.5054e-16,409.7,-517.78,-175.19,-63.947,0,0.01396,0,1,0.93,0,-0.93,0
0,0,0,0,0,0,0.00071853,-0.0022292,4.1025e-35,9.7526e-06,-1.9877e-18,-6.3432e-21,2.5434,0.0026623,-0.0022292,1.5993e-33,0.00071863,-63.948,-515.72,-174.57,1.5019,-3.0488e-13,-9.745e-16,407.9,-515.74,-174.57,-63.934,0,0.013971,0,1,0.935,0,-0.935,0
0,0,0,0,0,0,0.0007146,-0.0022198,4.2397e-35,8.9499e-06,-1.9881e-18,-6.4852e-21,2.5364,0.0026505,-0.0022199,1.6137e-33,0.00071468,-63.928,-513.67,-173.94,1.3784,-3.0493e-13,-9.9585e-16,406.1,-513.69,-173.94,-63.915,0,0.013983,0,1,0.94,0,-0.94,0
0,0,0,0,0,0,0.00071067,-0.0022104,4.3663e-35,8.1863e-06,-1.986e-18,-6.6099e-21,2.5294,0.0026387,-0.0022105,1.6259e-33,0.00071075,-63.901,-511.61,-173.31,1.261,-3.0461e-13,-1.0146e-15,404.29,-511.62,-173.31,-63.89,0,0.013994,0,1,0.945,0,-0.945,0
0,0,0,0,0,0,0.00070676,-0.002201,4.4824e-35,7.4618e-06,-1.9814e-18,-6.7176e-21,2.5225,0.0026268,-0.0022011,1.6361e-33,0.00070682,-63.869,-509.55,-172.67,1.1496,-3.0391e-13,-1.0307e-15,402.48,-509.56,-172.67,-63.859,0,0.014005,0,1,0.95,0,-0.95,0
0,0,0,0,0,0,0.00070286,-0.0021916,4.5881e-35,6.7764e-06,-1.9744e-18,-6.8081e-21,2.5155,0.002615,-0.0021916,1.6441e-33,0.00070291,-63.831,-507.47,-172.03,1.0441,-3.0283e-13,-1.0442e-15,400.67,-507.48,-172.03,-63.822,0,0.014016,0,1,0.955,0,-0.955,0
0,0,0,0,0,0,0.00069896,-0.0021821,4.6833e-35,6.13e-06,-1.965e-18,-6.8815e-21,2.5085,0.0026031,-0.0021822,1.65e-33,0.00069901,-63.787,-505.39,-171.39,0.94474,-3.0138e-13,-1.0551e-15,398.85,-505.39,-171.39,-63.78,0,0.014027,0,1,0.96,0,-0.96,0
0,0,0,0,0,0,0.00069508,-0.0021727,4.768e-35,5.5228e-06,-1.953e-18,-6.9377e-21,2.5015,0.0025912,-0.0021727,1.6538e-33,0.00069512,-63.738,-503.29,-170.74,0.85135,-2.9955e-13,-1.0634e-15,397.03,-503.3,-170.74,-63.732,0,0.014038,0,1,0.965,0,-0.965,0
0,0,0,0,0,0,0.00069121,-0.0021631,4.8422e-35,4.9547e-06,-1.9387e-18,-6.9767e-21,2.4945,0.0025792,-0.0021632,1.6555e-33,0.00069124,-63.682,-501.19,-170.09,0.76397,-2.9734e-13,-1.069e-15,395.21,-501.2,-170.09,-63.677,0,0.014049,0,1,0.97,0,-0.97,0
0,0,0,0,0,0,0.00068735,-0.0021536,4.9059e-35,4.4256e-06,-1.9218e-18,-6.9987e-21,2.4875,0.0025673,-0.0021536,1.6551e-33,0.00068737,-63.621,-499.09,-169.43,0.6826,-2.9476e-13,-1.0721e-15,393.39,-499.09,-169.43,-63.617,0,0.01406,0,1,0.975,0,-0.975,0
0,0,0,0,0,0,0.00068349,-0.0021441,4.9592e-35,3.9357e-06,-1.9025e-18,-7.0034e-21,2.4805,0.0025553,-0.0021441,1.6525e-33,0.00068351,-63.554,-496.97,-168.77,0.60724,-2.9179e-13,-1.0725e-15,391.56,-496.97,-168.77,-63.551,0,0.01407,0,1,0.98,0,-0.98,0
0,0,0,0,0,0,0.00067965,-0.0021345,5.0019e-35,3.4848e-06,-1.8808e-18,-6.9911e-21,2.4735,0.0025434,-0.0021345,1.6478e-33,0.00067967,-63.481,-494.85,-168.11,0.53789,-2.8845e-13,-1.0703e-15,389.73,-494.85,-168.11,-63.479,0,0.014081,0,1,0.985,0,-0.985,0
0,0,0,0,0,0,0.00067582,-0.0021249,5.0342e-35,3.0731e-06,-1.8565e-18,-6.9616e-21,2.4665,0.0025314,-0.0021249,1.6411e-33,0.00067583,-63.403,-492.71,-167.44,0.47455,-2.8474e-13,-1.0656e-15,387.9,-492.71,-167.44,-63.401,0,0.014092,0,1,0.99,0,-0.99,0
0,0,0,0,0,0,0.000672,-0.0021152,5.0559e-35,2.7004e-06,-1.8298e-18,-6.9149e-21,2.4595,0.0025194,-0.0021152,1.6322e-33,0.00067201,-63.318,-490.57,-166.77,0.41723,-2.8064e-13,-1.0581e-15,386.07,-490.57,-166.77,-63.318,0,0.014102,0,1,0.995,0,-0.995,0
0,0,0,0,0,0,0.00066819,-0.0021056,5.0672e-35,2.3669e-06,-1.8007e-18,-6.8511e-21,2.4525,0.0025073,-0.0021056,1.6211e-33,0.00066819,-63.228,-488.42,-166.09,0.36591,-2.7617e-13,-1.0481e-15,384.23,-488.42,-166.09,-63.228,0,0.014113,0,1,1,0,-1,0
0,0,0,0,0,0,0.0006644,-0.0020959,5.068e-35,2.0724e-06,-1.7691e-18,-6.7702e-21,2.4455,0.0024953,-0.0020959,1.608e-33,0.00066439,-63.132,-486.27,-165.41,0.32061,-2.7132e-13,-1.0355e-15,382.39,-486.27,-165.41,-63.133,0,0.014123,0,1,1.005,0,-1.005,0
0,0,0,0,0,0,0.00066061,-0.0020862,5.0584e-35,1.8171e-06,-1.735e-18,-6.6721e-21,2.4386,0.0024833,-0.0020862,1.5928e-33,0.0006606,-63.03,-484.1,-164.72,0.28131,-2.661e-13,-1.0202e-15,380.55,-484.1,-164.72,-63.032,0,0.014134,0,1,1.01,0,-1.01,0
0,0,0,0,0,0,0.00065683,-0.0020764,5.0382e-35,1.6008e-06,-1.6985e-18,-6.5569e-21,2.4316,0.0024712,-0.0020764,1.5754e-33,0.00065682,-62.923,-481.93,-164.03,0.24803,-2.605e-13,-1.0024e-15,378.71,-481.93,-164.03,-62.925,0,0.014144,0,1,1.015,0,-1.015,0
0,0,0,0,0,0,0.00065306,-0.0020667,5.0075e-35,1.4236e-06,-1.6595e-18,-6.4245e-21,2.4246,0.0024591,-0.0020667,1.5559e-33,0.00065305,-62.809,-479.75,-163.34,0.22076,-2.5452e-13,-9.8189e-16,376.86,-479.74,-163.34,-62.812,0,0.014155,0,1,1.02,0,-1.02,0
0,0,0,0,0,0,0.00064931,-0.0020569,4.9664e-35,1.2855e-06,-1.6181e-18,-6.275e-21,2.4176,0.002447,-0.0020569,1.5343e-33,0.00064929,-62.69,-477.56,-162.64,0.1995,-2.4816e-13,-9.588e-16,375.01,-477.55,-162.64,-62.693,0,0.014165,0,1,1.025,0,-1.025,0
0,0,0,0,0,0,0.00064556,-0.0020471,4.9148e-35,1.1866e-06,-1.5742e-18,-6.1083e-21,2.4106,0.0024349,-0.002047,1.5106e-33,0.00064554,-62.565,-475.36,-161.94,0.18424,-2.4142e-13,-9.3309e-16,373.16,-475.36,-161.94,-62.568,0,0.014175,0,1,1.03,0,-1.03,0
0,0,0,0,0,0,0.00064182,-0.0020372,4.8527e-35,1.1267e-06,-1.5278e-18,-5.9245e-21,2.4036,0.0024227,-0.0020372,1.4848e-33,0.0006418,-62.434,-473.15,-161.23,0.175,-2.3431e-13,-9.0477e-16,371.3,-473.15,-161.23,-62.438,0,0.014185,0,1,1.035,0,-1.035,0
0,0,0,0,0,0,0.0006381,-0.0020274,4.7801e-35,1.1059e-06,-1.479e-18,-5.7235e-21,2.3966,0.0024106,-0.0020273,1.4568e-33,0.00063807,-62.297,-470.94,-160.52,0.17178,-2.2682e-13,-8.7384e-16,369.45,-470.94,-160.52,-62.301,0,0.014196,0,1,1.04,0,-1.04,0
0,0,0,0,0,0,0.00063438,-0.0020175,4.697e-35,1.1242e-06,-1.4277e-18,-5.5054e-21,2.3896,0.0023984,-0.0020174,1.4268e-33,0.00063436,-62.155,-468.72,-159.81,0.17456,-2.1896e-13,-8.4029e-16,367.59,-468.71,-159.81,-62.159,0,0.014206,0,1,1.045,0,-1.045,0
0,0,0,0,0,0,0.00063068,-0.0020075,4.6034e-35,1.1816e-06,-1.374e-18,-5.2702e-21,2.3826,0.0023862,-0.0020075,1.3946e-33,0.00063065,-62.007,-466.49,-159.09,0.18335,-2.1071e-13,-8.0412e-16,365.72,-466.48,-159.09,-62.011,0,0.014216,0,1,1.05,0,-1.05,0
0,0,0,0,0,0,0.00062699,-0.0019976,4.4994e-35,1.278e-06,-1.3178e-18,-5.0178e-21,2.3756,0.002374,-0.0019976,1.3603e-33,0.00062696,-61.852,-464.25,-158.37,0.19815,-2.0209e-13,-7.6535e-16,363.86,-464.24,-158.37,-61.857,0,0.014226,0,1,1.055,0,-1.055,0
0,0,0,0,0,0,0.0006233,-0.0019876,4.3849e-35,1.4136e-06,-1.2591e-18,-4.7483e-21,2.3686,0.0023617,-0.0019876,1.3239e-33,0.00062328,-61.693,-462,-157.64,0.21897,-1.931e-13,-7.2395e-16,361.99,-462,-157.64,-61.697,0,0.014236,0,1,1.06,0,-1.06,0
0,0,0,0,0,0,0.00061963,-0.0019776,4.2598e-35,1.5883e-06,-1.198e-18,-4.4616e-21,2.3616,0.0023495,-0.0019776,1.2853e-33,0.0006196,-61.527,-459.75,-156.91,0.24579,-1.8372e-13,-6.7995e-16,360.12,-459.74,-156.91,-61.531,0,0.014245,0,1,1.065,0,-1.065,0
0,0,0,0,0,0,0.00061597,-0.0019676,4.1243e-35,1.8021e-06,-1.1344e-18,-4.1578e-21,2.3547,0.0023372,-0.0019676,1.2447e-33,0.00061594,-61.355,-457.48,-156.17,0.27863,-1.7397e-13,-6.3333e-16,358.25,-457.48,-156.17,-61.359,0,0.014255,0,1,1.07,0,-1.07,0
0,0,0,0,0,0,0.00061232,-0.0019576,3.9783e-35,2.0549e-06,-1.0684e-18,-3.8368e-21,2.3477,0.002325,-0.0019576,1.2019e-33,0.00061229,-61.178,-455.21,-155.43,0.31747,-1.6384e-13,-5.8409e-16,356.37,-455.21,-155.43,-61.182,0,0.014265,0,1,1.075,0,-1.075,0
0,0,0,0,0,0,0.00060868,-0.0019475,3.8219e-35,2.3469e-06,-9.9987e-19,-3.4987e-21,2.3407,0.0023127,-0.0019475,1.1571e-33,0.00060865,-60.995,-452.93,-154.69,0.36233,-1.5333e-13,-5.3225e-16,354.49,-452.93,-154.69,-60.998,0,0.014275,0,1,1.08,0,-1.08,0
0,0,0,0,0,0,0.00060505,-0.0019374,3.6549e-35,2.678e-06,-9.289e-19,-3.1435e-21,2.3337,0.0023004,-0.0019374,1.1101e-33,0.00060503,-60.806,-450.65,-153.94,0.4132,-1.4245e-13,-4.7778e-16,352.61,-450.64,-153.94,-60.809,0,0.014284,0,1,1.085,0,-1.085,0
0,0,0,0,0,0,0.00060143,-0.0019273,3.4774e-35,3.0481e-06,-8.5548e-19,-2.7711e-21,2.3267,0.002288,-0.0019273,1.061e-33,0.00060141,-60.611,-448.35,-153.19,0.47008,-1.3119e-13,-4.2071e-16,350.73,-448.35,-153.19,-60.614,0,0.014294,0,1,1.09,0,-1.09,0
0,0,0,0,0,0,0.00059782,-0.0019171,3.2895e-35,3.4574e-06,-7.796e-19,-2.3815e-21,2.3197,0.0022757,-0.0019171,1.0097e-33,0.0005978,-60.411,-446.05,-152.43,0.53297,-1.1955e-13,-3.6102e-16,348.84,-446.04,-152.43,-60.413,0,0.014303,0,1,1.095,0,-1.095,0
0,0,0,0,0,0,0.00059422,-0.001907,3.0911e-35,3.9057e-06,-7.0126e-19,-1.9748e-21,2.3127,0.0022633,-0.001907,9.5641e-34,0.00059421,-60.204,-443.74,-151.67,0.60187,-1.0754e-13,-2.9871e-16,346.96,-443.73,-151.67,-60.206,0,0.014313,0,1,1.1,0,-1.1,0
0,0,0,0,0,0,0.00059063,-0.0018968,2.8822e-35,4.3932e-06,-6.2046e-19,-1.551e-21,2.3057,0.0022509,-0.0018968,9.0095e-34,0.00059062,-59.992,-441.42,-150.91,0.67678,-9.5143e-14,-2.3379e-16,345.06,-441.41,-150.91,-59.993,0,0.014322,0,1,1.105,0,-1.105,0
0,0,0,0,0,0,0.00058705,-0.0018865,2.6628e-35,4.9197e-06,-5.372e-19,-1.11e-21,2.2987,0.0022385,-0.0018865,8.4338e-34,0.00058705,-59.774,-439.09,-150.14,0.7577,-8.2373e-14,-1.6626e-16,343.17,-439.09,-150.14,-59.775,0,0.014332,0,1,1.11,0,-1.11,0
0,0,0,0,0,0,0.00058348,-0.0018763,2.4329e-35,5.4853e-06,-4.5148e-19,-6.5193e-22,2.2917,0.0022261,-0.0018763,7.8369e-34,0.00058349,-59.551,-436.75,-149.36,0.84463,-6.9227e-14,-9.6115e-17,341.27,-436.75,-149.36,-59.55,0,0.014341,0,1,1.115,0,-1.115,0
0,0,0,0,0,0,0.00057993,-0.001866,2.1925e-35,6.09e-06,-3.633e-19,-1.7667e-22,2.2847,0.0022137,-0.001866,7.2188e-34,0.00057993,-59.321,-434.41,-148.59,0.93758,-5.5703e-14,-2.3354e-17,339.37,-434.41,-148.59,-59.32,0,0.01435,0,1,1.12,0,-1.12,0
0,0,0,0,0,0,0.00057638,-0.0018557,1.9417e-35,6.7338e-06,-2.7266e-19,3.1574e-22,2.2777,0.0022013,-0.0018557,6.5796e-34,0.00057639,-59.086,-432.05,-147.8,1.0365,-4.1802e-14,5.2021e-17,337.47,-432.06,-147.8,-59.084,0,0.01436,0,1,1.125,0,-1.125,0
0,0,0,0,0,0,0.00057284,-0.0018454,1.6803e-35,7.4168e-06,-1.7956e-19,8.2529e-22,2.2708,0.0021888,-0.0018454,5.9193e-34,0.00057286,-58.845,-429.69,-147.02,1.1415,-2.7523e-14,1.3001e-16,335.57,-429.7,-147.02,-58.841,0,0.014369,0,1,1.13,0,-1.13,0
0,0,0,0,0,0,0.00056932,-0.001835,1.4085e-35,8.1388e-06,-8.3995e-20,1.352e-21,2.2638,0.0021763,-0.0018351,5.2377e-34,0.00056935,-58.598,-427.32,-146.23,1.2525,-1.2868e-14,2.1061e-16,333.66,-427.33,-146.23,-58.593,0,0.014378,0,1,1.135,0,-1.135,0
0,0,0,0,0,0,0.0005658,-0.0018246,1.1262e-35,8.8999e-06,1.4025e-20,1.8958e-21,2.2568,0.0021638,-0.0018247,4.535e-34,0.00056584,-58.345,-424.95,-145.43,1.3695,2.1651e-15,2.9383e-16,331.75,-424.95,-145.43,-58.34,0,0.014387,0,1,1.14,0,-1.14,0
0,0,0,0,0,0,0.0005623,-0.0018142,8.3342e-36,9.7001e-06,1.1451e-19,2.4568e-21,2.2498,0.0021513,-0.0018143,3.8112e-34,0.00056234,-58.086,-422.56,-144.64,1.4925,1.7575e-14,3.7966e-16,329.84,-422.57,-144.64,-58.08,0,0.014396,0,1,1.145,0,-1.145,0
0,0,0,0,0,0,0.00055881,-0.0018038,5.3014e-36,1.0539e-05,2.1745e-19,3.0349e-21,2.2428,0.0021388,-0.0018039,3.0662e-34,0.00055885,-57.822,-420.17,-143.83,1.6215,3.3362e-14,4.6811e-16,327.93,-420.18,-143.83,-57.814,0,0.014405,0,1,1.15,0,-1.15,0
0,0,0,0,0,0,0.00055532,-0.0017934,2.1637e-36,1.1418e-05,3.2285e-19,3.6302e-21,2.2358,0.0021262,-0.0017934,2.3e-34,0.00055538,-57.552,-417.77,-143.03,1.7565,4.9527e-14,5.5917e-16,326.01,-417.78,-143.03,-57.543,0,0.014414,0,1,1.155,0,-1.155,0
0,0,0,0,0,0,0.00055185,-0.0017829,-1.0788e-36,1.2335e-05,4.3071e-19,4.2426e-21,2.2288,0.0021136,-0.0017829,1.5126e-34,0.00055191,-57.276,-415.36,-142.22,1.8975,6.6068e-14,6.5284e-16,324.09,-415.37,-142.22,-57.266,0,0.014423,0,1,1.16,0,-1.16,0
0,0,0,0,0,0,0.00054893,-0.0017756,-1.2601e-36,1.2308e-05,3.557e-19,4.2311e-21,2.2232,0.0021046,-0.0017757,3.6469e-34,0.000549,-57.222,-413.75,-141.71,1.8933,5.4553e-14,6.5053e-16,322.7,-413.76,-141.71,-57.212,0,0.014432,0,1,1.165,0,-1.165,0
0,0,0,0,0,0,0.00054634,-0.0017702,3.3083e-37,1.1735e-05,1.7821e-19,3.8647e-21,2.2184,0.0020975,-0.0017703,7.3898e-34,0.00054641,-57.296,-412.6,-141.39,1.8053,2.7315e-14,5.9365e-16,321.63,-412.61,-141.39,-57.286,0,0.014441,0,1,1.17,0,-1.17,0
0,0,0,0,0,0,0.00054376,-0.0017648,1.8961e-36,1.1176e-05,4.5778e-21,3.5092e-21,2.2136,0.0020905,-0.0017648,1.1045e-33,0.00054382,-57.366,-411.44,-141.06,1.7193,6.6682e-16,5.3844e-16,320.55,-411.45,-141.06,-57.356,0,0.01445,0,1,1.175,0,-1.175,0
0,0,0,0,0,0,0.00054118,-0.0017594,3.4358e-36,1.063e-05,-1.6521e-19,3.1645e-21,2.2088,0.0020835,-0.0017594,1.4612e-33,0.00054124,-57.432,-410.29,-140.73,1.6354,-2.539e-14,4.8493e-16,319.47,-410.29,-140.73,-57.423,0,0.014459,0,1,1.18,0,-1.18,0
0,0,0,0,0,0,0.00053862,-0.0017539,4.9498e-36,1.0098e-05,-3.3115e-19,2.8307e-21,2.204,0.0020764,-0.001754,1.8092e-33,0.00053868,-57.495,-409.12,-140.4,1.5535,-5.0857e-14,4.3309e-16,318.39,-409.13,-140.4,-57.487,0,0.014467,0,1,1.185,0,-1.185,0
0,0,0,0,0,0,0.00053607,-0.0017485,6.4383e-36,9.579e-06,-4.9324e-19,2.5077e-21,2.1992,0.0020694,-0.0017485,2.1484e-33,0.00053612,-57.555,-407.96,-140.06,1.4737,-7.5733e-14,3.8294e-16,317.32,-407.97,-140.06,-57.547,0,0.014476,0,1,1.19,0,-1.19,0
0,0,0,0,0,0,0.00053352,-0.001743,7.9011e-36,9.0734e-06,-6.5148e-19,2.1956e-21,2.1943,0.0020623,-0.0017431,2.4788e-33,0.00053357,-57.611,-406.79,-139.73,1.3959,-1.0002e-13,3.3447e-16,316.24,-406.8,-139.73,-57.604,0,0.014485,0,1,1.195,0,-1.195,0
0,0,0,0,0,0,0.00053099,-0.0017376,9.3383e-36,8.5811e-06,-8.0587e-19,1.8943e-21,2.1895,0.0020553,-0.0017376,2.8004e-33,0.00053103,-57.664,-405.62,-139.39,1.3202,-1.2371e-13,2.8769e-16,315.16,-405.63,-139.39,-57.657,0,0.014494,0,1,1.2,0,-1.2,0
0,0,0,0,0,0,0.00052846,-0.0017321,1.075e-35,8.1022e-06,-9.5641e-19,1.6039e-21,2.1847,0.0020482,-0.0017322,3.1132e-33,0.0005285,-57.713,-404.45,-139.05,1.2466,-1.4682e-13,2.4259e-16,314.08,-404.45,-139.05,-57.706,0,0.014503,0,1,1.205,0,-1.205,0
0,0,0,0,0,0,0.00052594,-0.0017266,1.2136e-35,7.6366e-06,-1.1031e-18,1.3244e-21,2.1799,0.0020412,-0.0017267,3.4173e-33,0.00052598,-57.759,-403.27,-138.71,1.175,-1.6933e-13,1.9918e-16,313,-403.28,-138.71,-57.753,0,0.014511,0,1,1.21,0,-1.21,0
0,0,0,0,0,0,0.00052343,-0.0017212,1.3496e-35,7.1844e-06,-1.2459e-18,1.0557e-21,2.1751,0.0020341,-0.0017212,3.7126e-33,0.00052347,-57.802,-402.09,-138.37,1.1055,-1.9125e-13,1.5745e-16,311.92,-402.1,-138.37,-57.795,0,0.01452,0,1,1.215,0,-1.215,0
0,0,0,0,0,0,0.00052094,-0.0017157,1.4831e-35,6.7456e-06,-1.3849e-18,7.9786e-22,2.1703,0.0020271,-0.0017157,3.9991e-33,0.00052097,-57.841,-400.91,-138.02,1.038,-2.1259e-13,1.1741e-16,310.84,-400.91,-138.02,-57.835,0,0.014529,0,1,1.22,0,-1.22,0
0,0,0,0,0,0,0.00051845,-0.0017102,1.614e-35,6.3202e-06,-1.5201e-18,5.5088e-22,2.1655,0.00202,-0.0017102,4.2768e-33,0.00051848,-57.876,-399.72,-137.67,0.97257,-2.3333e-13,7.9045e-17,309.76,-399.73,-137.67,-57.871,0,0.014537,0,1,1.225,0,-1.225,0
0,0,0,0,0,0,0.00051597,-0.0017047,1.7424e-35,5.9082e-06,-1.6514e-18,3.1476e-22,2.1607,0.002013,-0.0017047,4.5458e-33,0.000516,-57.908,-398.53,-137.32,0.90921,-2.5348e-13,4.2368e-17,308.69,-398.54,-137.32,-57.903,0,0.014546,0,1,1.23,0,-1.23,0
0,0,0,0,0,0,0.0005135,-0.0016992,1.8682e-35,5.5095e-06,-1.7788e-18,8.9485e-23,2.1559,0.0020059,-0.0016992,4.8059e-33,0.00051353,-57.937,-397.34,-136.97,0.8479,-2.7304e-13,7.3748e-18,307.61,-397.34,-136.97,-57.932,0,0.014554,0,1,1.235,0,-1.235,0
0,0,0,0,0,0,0.00051104,-0.0016936,1.9914e-35,5.1241e-06,-1.9024e-18,-1.2493e-22,2.1511,0.0019988,-0.0016937,5.0573e-33,0.00051107,-57.962,-396.14,-136.62,0.78865,-2.9201e-13,-2.5934e-17,306.53,-396.14,-136.62,-57.957,0,0.014563,0,1,1.24,0,-1.24,0
0,0,0,0,0,0,0.00050859,-0.0016881,2.1121e-35,4.7522e-06,-2.0222e-18,-3.2849e-22,2.1462,0.0019918,-0.0016881,5.2999e-33,0.00050861,-57.984,-394.94,-136.26,0.73146,-3.1039e-13,-5.7559e-17,305.45,-394.94,-136.26,-57.979,0,0.014571,0,1,1.245,0,-1.245,0
0,0,0,0,0,0,0.00050614,-0.0016826,2.2302e-35,4.3936e-06,-2.1381e-18,-5.2119e-22,2.1414,0.0019847,-0.0016826,5.5338e-33,0.00050617,-58.002,-393.74,-135.9,0.67632,-3.2818e-13,-8.7499e-17,304.37,-393.74,-135.9,-57.998,0,0.01458,0,1,1.25,0,-1.25,0
0,0,0,0,0,0,0.00050371,-0.001677,2.3457e-35,4.0484e-06,-2.2501e-18,-7.0304e-22,2.1366,0.0019777,-0.0016771,5.7588e-33,0.00050373,-58.017,-392.53,-135.54,0.62323,-3.4538e-13,-1.1576e-16,303.29,-392.54,-135.54,-58.013,0,0.014588,0,1,1.255,0,-1.255,0
0,0,0,0,0,0,0.00050129,-0.0016715,2.4587e-35,3.7166e-06,-2.3583e-18,-8.7403e-22,2.1318,0.0019706,-0.0016715,5.9751e-33,0.00050131,-58.028,-391.32,-135.18,0.5722,-3.6199e-13,-1.4233e-16,302.2,-391.33,-135.18,-58.025,0,0.014597,0,1,1.26,0,-1.26,0
0,0,0,0,0,0,0.00049887,-0.0016659,2.5691e-35,3.3981e-06,-2.4627e-18,-1.0342e-21,2.127,0.0019635,-0.0016659,6.1826e-33,0.00049889,-58.036,-390.11,-134.82,0.52323,-3.78e-13,-1.6722e-16,301.12,-390.11,-134.82,-58.033,0,0.014605,0,1,1.265,0,-1.265,0
0,0,0,0,0,0,0.00049647,-0.0016604,2.677e-35,3.093e-06,-2.5632e-18,-1.1835e-21,2.1222,0.0019565,-0.0016604,6.3813e-33,0.00049649,-58.04,-388.89,-134.45,0.47631,-3.9343e-13,-1.9042e-16,300.04,-388.9,-134.45,-58.037,0,0.014614,0,1,1.27,0,-1.27,0
0,0,0,0,0,0,0.00049407,-0.0016548,2.7823e-35,2.8013e-06,-2.6598e-18,-1.3219e-21,2.1174,0.0019494,-0.0016548,6.5712e-33,0.00049409,-58.041,-387.67,-134.08,0.43145,-4.0827e-13,-2.1194e-16,298.96,-387.68,-134.08,-58.039,0,0.014622,0,1,1.275,0,-1.275,0
0,0,0,0,0,0,0.00049169,-0.0016492,2.885e-35,2.5229e-06,-2.7526e-18,-1.4494e-21,2.1126,0.0019423,-0.0016492,6.7524e-33,0.0004917,-58.039,-386.45,-133.71,0.38864,-4.2251e-13,-2.3177e-16,297.88,-386.45,-133.71,-58.037,0,0.01463,0,1,1.28,0,-1.28,0
0,0,0,0,0,0,0.00048931,-0.0016436,2.9852e-35,2.258e-06,-2.8416e-18,-1.5662e-21,2.1078,0.0019353,-0.0016436,6.9248e-33,0.00048933,-58.033,-385.23,-133.34,0.34789,-4.3617e-13,-2.4993e-16,296.8,-385.23,-133.34,-58.031,0,0.014638,0,1,1.285,0,-1.285,0
0,0,0,0,0,0,0.00048695,-0.001638,3.0828e-35,2.0064e-06,-2.9267e-18,-1.672e-21,2.103,0.0019282,-0.001638,7.0884e-33,0.00048696,-58.023,-384,-132.97,0.3092,-4.4923e-13,-2.6639e-16,295.72,-384,-132.97,-58.022,0,0.014647,0,1,1.29,0,-1.29,0
0,0,0,0,0,0,0.00048459,-0.0016324,3.1779e-35,1.7681e-06,-3.008e-18,-1.767e-21,2.0981,0.0019211,-0.0016324,7.2432e-33,0.0004846,-58.011,-382.77,-132.59,0.27256,-4.6171e-13,-2.8118e-16,294.64,-382.77,-132.59,-58.009,0,0.014655,0,1,1.295,0,-1.295,0
0,0,0,0,0,0,0.00048224,-0.0016268,3.2704e-35,1.5432e-06,-3.0854e-18,-1.8512e-21,2.0933,0.001914,-0.0016268,7.3892e-33,0.00048225,-57.994,-381.53,-132.21,0.23798,-4.7359e-13,-2.9428e-16,293.55,-381.53,-132.21,-57.993,0,0.014663,0,1,1.3,0,-1.3,0
0,0,0,0,0,0,0.0004799,-0.0016212,3.3603e-35,1.3317e-06,-3.1589e-18,-1.9245e-21,2.0885,0.001907,-0.0016212,7.5265e-33,0.00047991,-57.975,-380.29,-131.83,0.20545,-4.8488e-13,-3.0569e-16,292.47,-380.29,-131.83,-57.973,0,0.014671,0,1,1.305,0,-1.305,0
0,0,0,0,0,0,0.00047757,-0.0016155,3.4477e-35,1.1336e-06,-3.2286e-18,-1.9869e-21,2.0837,0.0018999,-0.0016155,7.655e-33,0.00047758,-57.951,-379.05,-131.45,0.17498,-4.9558e-13,-3.1542e-16,291.39,-379.05,-131.45,-57.95,0,0.014679,0,1,1.31,0,-1.31,0
0,0,0,0,0,0,0.00047525,-0.0016099,3.5325e-35,9.4884e-07,-3.2945e-18,-2.0385e-21,2.0789,0.0018928,-0.0016099,7.7747e-33,0.00047526,-57.925,-377.81,-131.07,0.14656,-5.057e-13,-3.2347e-16,290.31,-377.81,-131.07,-57.924,0,0.014687,0,1,1.315,0,-1.315,0
0,0,0,0,0,0,0.00047294,-0.0016042,3.6148e-35,7.7745e-07,-3.3565e-18,-2.0792e-21,2.0741,0.0018857,-0.0016042,7.8856e-33,0.00047295,-57.895,-376.56,-130.68,0.1202,-5.1522e-13,-3.2983e-16,289.22,-376.56,-130.68,-57.894,0,0.014695,0,1,1.32,0,-1.32,0
0,0,0,0,0,0,0.00047064,-0.0015986,3.6944e-35,6.1944e-07,-3.4147e-18,-2.1091e-21,2.0693,0.0018787,-0.0015986,7.9878e-33,0.00047065,-57.861,-375.31,-130.29,0.095897,-5.2415e-13,-3.3451e-16,288.14,-375.31,-130.29,-57.861,0,0.014703,0,1,1.325,0,-1.325,0
0,0,0,0,0,0,0.00046835,-0.0015929,3.7716e-35,4.7479e-07,-3.469e-18,-2.1281e-21,2.0645,0.0018716,-0.0015929,8.0812e-33,0.00046835,-57.824,-374.05,-129.9,0.073649,-5.3249e-13,-3.375e-16,287.06,-374.05,-129.9,-57.824,0,0.014711,0,1,1.33,0,-1.33,0
0,0,0,0,0,0,0.00046607,-0.0015873,3.8461e-35,3.4351e-07,-3.5195e-18,-2.1363e-21,2.0597,0.0018645,-0.0015873,8.1658e-33,0.00046607,-57.784,-372.79,-129.51,0.053456,-5.4024e-13,-3.3881e-16,285.97,-372.79,-129.51,-57.784,0,0.014719,0,1,1.335,0,-1.335,0
0,0,0,0,0,0,0.0004638,-0.0015816,3.9181e-35,2.256e-07,-3.5661e-18,-2.1336e-21,2.0549,0.0018574,-0.0015816,8.2416e-33,0.0004638,-57.74,-371.53,-129.12,0.035319,-5.4739e-13,-3.3844e-16,284.89,-371.53,-129.12,-57.74,0,0.014727,0,1,1.34,0,-1.34,0
0,0,0,0,0,0,0.00046153,-0.0015759,3.9876e-35,1.2107e-07,-3.6088e-18,-2.12e-21,2.05,0.0018503,-0.0015759,8.3086e-33,0.00046153,-57.693,-370.27,-128.72,0.019237,-5.5396e-13,-3.3638e-16,283.81,-370.27,-128.72,-57.693,0,0.014735,0,1,1.345,0,-1.345,0
0,0,0,0,0,0,0.00045928,-0.0015702,4.0545e-35,2.9898e-08,-3.6478e-18,-2.0956e-21,2.0452,0.0018433,-0.0015702,8.3669e-33,0.00045928,-57.642,-369,-128.33,0.0052108,-5.5994e-13,-3.3264e-16,282.72,-369,-128.33,-57.642,0,0.014743,0,1,1.35,0,-1.35,0
0,0,0,0,0,0,0.00045703,-0.0015645,4.1188e-35,-4.79e-08,-3.6828e-18,-2.0603e-21,2.0404,0.0018362,-0.0015645,8.4163e-33,0.00045703,-57.588,-367.73,-127.93,-0.0067596,-5.6533e-13,-3.2721e-16,281.64,-367.73,-127.93,-57.588,0,0.014751,0,1,1.355,0,-1.355,0
0,0,0,0,0,0,0.0004548,-0.0015588,4.1806e-35,-1.1233e-07,-3.7141e-18,-2.0142e-21,2.0356,0.0018291,-0.0015588,8.457e-33,0.0004548,-57.53,-366.45,-127.52,-0.016674,-5.7012e-13,-3.201e-16,280.55,-366.45,-127.52,-57.53,0,0.014759,0,1,1.36,0,-1.36,0
0,0,0,0,0,0,0.00045257,-0.0015531,4.2398e-35,-1.6338e-07,-3.7414e-18,-1.9572e-21,2.0308,0.001822,-0.0015531,8.489e-33,0.00045257,-57.469,-365.18,-127.12,-0.024533,-5.7433e-13,-3.113e-16,279.47,-365.18,-127.12,-57.469,0,0.014766,0,1,1.365,0,-1.365,0
0,0,0,0,0,0,0.00045036,-0.0015473,4.2964e-35,-2.0106e-07,-3.765e-18,-1.8894e-21,2.026,0.0018149,-0.0015473,8.5121e-33,0.00045035,-57.404,-363.9,-126.71,-0.030335,-5.7795e-13,-3.0082e-16,278.38,-363.9,-126.71,-57.405,0,0.014774,0,1,1.37,0,-1.37,0
0,0,0,0,0,0,0.00044815,-0.0015416,4.3505e-35,-2.2537e-07,-3.7846e-18,-1.8107e-21,2.0212,0.0018078,-0.0015416,8.5265e-33,0.00044815,-57.336,-362.61,-126.31,-0.034082,-5.8097e-13,-2.8866e-16,277.3,-362.61,-126.31,-57.337,0,0.014782,0,1,1.375,0,-1.375,0
0,0,0,0,0,0,0.00044595,-0.0015359,4.402e-35,-2.3631e-07,-3.8004e-18,-1.7211e-21,2.0164,0.0018007,-0.0015359,8.532e-33,0.00044595,-57.265,-361.33,-125.9,-0.035772,-5.834e-13,-2.7481e-16,276.21,-361.33,-125.9,-57.265,0,0.01479,0,1,1.38,0,-1.38,0
0,0,0,0,0,0,0.00044376,-0.0015301,4.4509e-35,-2.3388e-07,-3.8124e-18,-1.6207e-21,2.0116,0.0017936,-0.0015301,8.5288e-33,0.00044376,-57.19,-360.04,-125.48,-0.035407,-5.8525e-13,-2.5928e-16,275.13,-360.04,-125.48,-57.19,0,0.014797,0,1,1.385,0,-1.385,0
0,0,0,0,0,0,0.00044158,-0.0015243,4.4973e-35,-2.1807e-07,-3.8205e-18,-1.5095e-21,2.0068,0.0017865,-0.0015243,8.5169e-33,0.00044158,-57.111,-358.74,-125.07,-0.032986,-5.865e-13,-2.4206e-16,274.04,-358.74,-125.07,-57.112,0,0.014805,0,1,1.39,0,-1.39,0
0,0,0,0,0,0,0.00043941,-0.0015186,4.5412e-35,-1.8889e-07,-3.8248e-18,-1.3874e-21,2.0019,0.0017794,-0.0015186,8.4961e-33,0.00043941,-57.029,-357.45,-124.65,-0.028508,-5.8716e-13,-2.2316e-16,272.96,-357.44,-124.65,-57.03,0,0.014813,0,1,1.395,0,-1.395,0
0,0,0,0,0,0,0.00043725,-0.0015128,4.5824e-35,-1.4634e-07,-3.8252e-18,-1.2544e-21,1.9971,0.0017723,-0.0015128,8.4666e-33,0.00043725,-56.944,-356.15,-124.24,-0.021975,-5.8723e-13,-2.0257e-16,271.87,-356.14,-124.24,-56.945,0,0.01482,0,1,1.4,0,-1.4,0
0,0,0,0,0,0,0.0004351,-0.001507,4.6211e-35,-9.0421e-08,-3.8218e-18,-1.1106e-21,1.9923,0.0017652,-0.001507,8.4282e-33,0.0004351,-56.855,-354.84,-123.82,-0.013386,-5.8671e-13,-1.803e-16,270.79,-354.84,-123.82,-56.856,0,0.014828,0,1,1.405,0,-1.405,0
0,0,0,0,0,0,0.00043296,-0.0015012,4.6573e-35,-2.1127e-08,-3.8145e-18,-9.5586e-22,1.9875,0.0017581,-0.0015012,8.3811e-33,0.00043296,-56.763,-353.54,-123.39,-0.002741,-5.856e-13,-1.5634e-16,269.7,-353.53,-123.39,-56.764,0,0.014835,0,1,1.41,0,-1.41,0
0,0,0,0,0,0,0.00043083,-0.0014954,4.6909e-35,6.1539e-08,-3.8034e-18,-7.9031e-22,1.9827,0.001751,-0.0014954,8.3253e-33,0.00043083,-56.667,-352.23,-122.97,0.0099601,-5.839e-13,-1.3071e-16,268.61,-352.23,-122.97,-56.668,0,0.014843,0,1,1.415,0,-1.415,0
0,0,0,0,0,0,0.00042871,-0.0014896,4.7219e-35,1.5758e-07,-3.7884e-18,-6.1391e-22,1.9779,0.0017439,-0.0014896,8.2606e-33,0.0004287,-56.568,-350.91,-122.54,0.024717,-5.8161e-13,-1.0338e-16,267.53,-350.91,-122.54,-56.569,0,0.01485,0,1,1.42,0,-1.42,0
0,0,0,0,0,0,0.00042659,-0.0014838,4.7504e-35,2.6699e-07,-3.7696e-18,-4.2665e-22,1.9731,0.0017368,-0.0014838,8.1872e-33,0.00042659,-56.466,-349.6,-122.12,0.04153,-5.7873e-13,-7.4374e-17,266.44,-349.6,-122.12,-56.466,0,0.014857,0,1,1.425,0,-1.425,0
0,0,0,0,0,0,0.00042449,-0.001478,4.7763e-35,3.8977e-07,-3.7469e-18,-2.2853e-22,1.9683,0.0017297,-0.001478,8.105e-33,0.00042449,-56.36,-348.28,-121.69,0.060399,-5.7526e-13,-4.3682e-17,265.35,-348.28,-121.69,-56.36,0,0.014865,0,1,1.43,0,-1.43,0
0,0,0,0,0,0,0.0004224,-0.0014722,4.7996e-35,5.2592e-07,-3.7204e-18,-1.956e-23,1.9635,0.0017226,-0.0014722,8.014e-33,0.00042239,-56.25,-346.95,-121.25,0.081324,-5.712e-13,-1.1306e-17,264.27,-346.95,-121.25,-56.251,0,0.014872,0,1,1.435,0,-1.435,0
0,0,0,0,0,0,0.00042031,-0.0014663,4.8204e-35,6.7545e-07,-3.6901e-18,2.0028e-22,1.9587,0.0017155,-0.0014663,7.9142e-33,0.00042031,-56.137,-345.63,-120.82,0.10431,-5.6654e-13,2.2756e-17,263.18,-345.63,-120.82,-56.137,0,0.01488,0,1,1.44,0,-1.44,0
0,0,0,0,0,0,0.00041824,-0.0014605,4.8386e-35,8.3835e-07,-3.6558e-18,4.3096e-22,1.9538,0.0017084,-0.0014605,7.8056e-33,0.00041823,-56.021,-344.3,-120.38,0.12934,-5.613e-13,5.8501e-17,262.09,-344.3,-120.38,-56.021,0,0.014887,0,1,1.445,0,-1.445,0
0,0,0,0,0,0,0.00041617,-0.0014546,4.8543e-35,1.0146e-06,-3.6178e-18,6.7251e-22,1.949,0.0017013,-0.0014546,7.6883e-33,0.00041617,-55.901,-342.97,-119.95,0.15643,-5.5546e-13,9.5931e-17,261,-342.97,-119.95,-55.901,0,0.014894,0,1,1.45,0,-1.45,0
0,0,0,0,0,0,0.00041411,-0.0014488,4.8673e-35,1.2043e-06,-3.5758e-18,9.2491e-22,1.9442,0.0016942,-0.0014488,7.5622e-33,0.00041411,-55.778,-341.63,-119.51,0.18558,-5.4904e-13,1.3504e-16,259.91,-341.63,-119.51,-55.778,0,0.014901,0,1,1.455,0,-1.455,0
0,0,0,0,0,0,0.00041207,-0.0014429,4.8779e-35,1.4073e-06,-3.5301e-18,1.1882e-21,1.9394,0.0016871,-0.0014429,7.4273e-33,0.00041207,-55.651,-340.29,-119.07,0.21679,-5.4202e-13,1.7584e-16,258.83,-340.29,-119.07,-55.651,0,0.014909,0,1,1.46,0,-1.46,0
0,0,0,0,0,0,0.00041003,-0.001437,4.8859e-35,1.6237e-06,-3.4805e-18,1.4623e-21,1.9346,0.00168,-0.001437,7.2836e-33,0.00041003,-55.521,-338.95,-118.62,0.25005,-5.3441e-13,2.1833e-16,257.74,-338.95,-118.62,-55.521,0,0.014916,0,1,1.465,0,-1.465,0
0,0,0,0,0,0,0.000408,-0.0014311,4.8913e-35,1.8534e-06,-3.427e-18,1.7473e-21,1.9298,0.0016729,-0.0014311,7.1311e-33,0.000408,-55.387,-337.61,-118.18,0.28537,-5.2622e-13,2.6249e-16,256.65,-337.61,-118.18,-55.387,0,0.014923,0,1,1.47,0,-1.47,0
0,0,0,0,0,0,0.00040598,-0.0014252,4.8941e-35,2.0966e-06,-3.3697e-18,2.0431e-21,1.925,0.0016657,-0.0014252,6.9699e-33,0.00040598,-55.25,-336.26,-117.73,0.32274,-5.1743e-13,3.0834e-16,255.56,-336.26,-117.73,-55.25,0,0.01493,0,1,1.475,0,-1.475,0
0,0,0,0,0,0,0.00040397,-0.0014193,4.8944e-35,2.3531e-06,-3.3085e-18,2.3498e-21,1.9202,0.0016586,-0.0014193,6.7999e-33,0.00040397,-55.11,-334.91,-117.28,0.36217,-5.0805e-13,3.5588e-16,254.47,-334.91,-117.28,-55.109,0,0.014937,0,1,1.48,0,-1.48,0
0,0,0,0,0,0,0.00040197,-0.0014134,4.8921e-35,2.6229e-06,-3.2435e-18,2.6673e-21,1.9154,0.0016515,-0.0014134,6.6211e-33,0.00040198,-54.966,-333.55,-116.83,0.40365,-4.9808e-13,4.051e-16,253.38,-333.55,-116.83,-54.965,0,0.014944,0,1,1.485,0,-1.485,0
0,0,0,0,0,0,0.00039998,-0.0014075,4.8873e-35,2.9062e-06,-3.1746e-18,2.9957e-21,1.9106,0.0016444,-0.0014075,6.4335e-33,0.00039999,-54.818,-332.19,-116.37,0.44719,-4.8752e-13,4.56e-16,252.29,-332.19,-116.37,-54.817,0,0.014951,0,1,1.49,0,-1.49,0
0,0,0,0,0,0,0.000398,-0.0014016,4.8799e-35,3.2028e-06,-3.1019e-18,3.335e-21,1.9057,0.0016373,-0.0014016,6.2372e-33,0.000398,-54.667,-330.83,-115.92,0.49279,-4.7637e-13,5.0859e-16,251.2,-330.83,-115.92,-54.666,0,0.014958,0,1,1.495,0,-1.495,0
0,0,0,0,0,0,0.00039602,-0.0013957,4.8699e-35,3.5128e-06,-3.0253e-18,3.6851e-21,1.9009,0.0016302,-0.0013957,6.032e-33,0.00039603,-54.513,-329.47,-115.46,0.54044,-4.6463e-13,5.6286e-16,250.11,-329.47,-115.46,-54.511,0,0.014965,0,1,1.5,0,-1.5,0
0,0,0,0,0,0,0.00039406,-0.0013897,4.8574e-35,3.8361e-06,-2.9449e-18,4.046e-21,1.8961,0.001623,-0.0013897,5.8181e-33,0.00039407,-54.355,-328.1,-115,0.59015,-4.523e-13,6.1882e-16,249.02,-328.1,-115,-54.353,0,0.014972,0,1,1.505,0,-1.505,0
0,0,0,0,0,0,0.00039211,-0.0013838,4.8423e-35,4.1729e-06,-2.8606e-18,4.4179e-21,1.8913,0.0016159,-0.0013838,5.5954e-33,0.00039212,-54.194,-326.73,-114.54,0.64191,-4.3937e-13,6.7646e-16,247.93,-326.73,-114.54,-54.192,0,0.014979,0,1,1.51,0,-1.51,0
0,0,0,0,0,0,0.00039016,-0.0013778,4.8247e-35,4.523e-06,-2.7725e-18,4.8005e-21,1.8865,0.0016088,-0.0013778,5.364e-33,0.00039018,-54.029,-325.35,-114.07,0.69573,-4.2586e-13,7.3579e-16,246.84,-325.36,-114.07,-54.027,0,0.014986,0,1,1.515,0,-1.515,0
0,0,0,0,0,0,0.00038823,-0.0013718,4.8045e-35,4.8865e-06,-2.6806e-18,5.1941e-21,1.8817,0.0016017,-0.0013719,5.1237e-33,0.00038824,-53.861,-323.98,-113.61,0.75161,-4.1176e-13,7.968e-16,245.75,-323.98,-113.61,-53.859,0,0.014993,0,1,1.52,0,-1.52,0
0,0,0,0,0,0,0.0003863,-0.0013659,4.7817e-35,5.2633e-06,-2.5848e-18,5.5985e-21,1.8769,0.0015945,-0.0013659,4.8747e-33,0.00038632,-53.689,-322.59,-113.14,0.80954,-3.9706e-13,8.5949e-16,244.66,-322.6,-113.14,-53.687,0,0.014999,0,1,1.525,0,-1.525,0
0,0,0,0,0,0,0.00038448,-0.0013607,4.8142e-35,5.4538e-06,-2.4075e-18,5.8938e-21,1.8726,0.0015882,-0.0013607,4.926e-33,0.0003845,-53.58,-321.41,-112.75,0.83883,-3.6985e-13,9.0552e-16,243.7,-321.41,-112.75,-53.578,0,0.015006,0,1,1.53,0,-1.53,0
0,0,0,0,0,0,0.00038286,-0.0013572,4.9708e-35,5.2079e-06,-2.0617e-18,5.9231e-21,1.8696,0.0015838,-0.0013572,5.6498e-33,0.00038288,-53.615,-320.67,-112.53,0.80102,-3.1674e-13,9.1084e-16,243.01,-320.67,-112.53,-53.613,0,0.015013,0,1,1.535,0,-1.535,0
0,0,0,0,0,0,0.00038125,-0.0013537,5.1212e-35,4.9674e-06,-1.7245e-18,5.9484e-21,1.8665,0.0015793,-0.0013537,6.3547e-33,0.00038127,-53.649,-319.92,-112.32,0.76403,-2.6493e-13,9.1552e-16,242.33,-319.92,-112.32,-53.646,0,0.01502,0,1,1.54,0,-1.54,0
0,0,0,0,0,0,0.00037965,-0.0013503,5.2656e-35,4.7321e-06,-1.3957e-18,5.9696e-21,1.8635,0.0015748,-0.0013503,7.0406e-33,0.00037966,-53.68,-319.18,-112.1,0.72785,-2.1442e-13,9.1954e-16,241.64,-319.18,-112.1,-53.678,0,0.015027,0,1,1.545,0,-1.545,0
0,0,0,0,0,0,0.00037805,-0.0013468,5.4038e-35,4.5021e-06,-1.0753e-18,5.9867e-21,1.8604,0.0015704,-0.0013468,7.7074e-33,0.00037806,-53.71,-318.43,-111.89,0.69249,-1.6522e-13,9.2292e-16,240.96,-318.43,-111.89,-53.708,0,0.015033,0,1,1.55,0,-1.55,0
0,0,0,0,0,0,0.00037645,-0.0013433,5.5359e-35,4.2775e-06,-7.6348e-19,5.9997e-21,1.8573,0.0015659,-0.0013433,8.3553e-33,0.00037647,-53.737,-317.68,-111.67,0.65795,-1.1731e-13,9.2564e-16,240.28,-317.68,-111.67,-53.735,0,0.01504,0,1,1.555,0,-1.555,0
0,0,0,0,0,0,0.00037487,-0.0013398,5.662e-35,4.0581e-06,-4.6009e-19,6.0086e-21,1.8543,0.0015614,-0.0013398,8.9842e-33,0.00037488,-53.763,-316.93,-111.45,0.62422,-7.0709e-14,9.2771e-16,239.59,-316.93,-111.45,-53.761,0,0.015047,0,1,1.56,0,-1.56,0
0,0,0,0,0,0,0.00037329,-0.0013364,5.7819e-35,3.8441e-06,-1.6518e-19,6.0135e-21,1.8512,0.001557,-0.0013364,9.594e-33,0.0003733,-53.787,-316.18,-111.23,0.59131,-2.5407e-14,9.2914e-16,238.91,-316.18,-111.23,-53.785,0,0.015054,0,1,1.565,0,-1.565,0
0,0,0,0,0,0,0.00037171,-0.0013329,5.8957e-35,3.6354e-06,1.2126e-19,6.0142e-21,1.8482,0.0015525,-0.0013329,1.0185e-32,0.00037172,-53.809,-315.42,-111.01,0.55922,1.8593e-14,9.2991e-16,238.23,-315.42,-111.01,-53.807,0,0.01506,0,1,1.57,0,-1.57,0
0,0,0,0,0,0,0.00037014,-0.0013294,6.0034e-35,3.432e-06,3.9923e-19,6.0109e-21,1.8451,0.001548,-0.0013294,1.0757e-32,0.00037015,-53.829,-314.67,-110.79,0.52794,6.1291e-14,9.3003e-16,237.54,-314.67,-110.79,-53.827,0,0.015067,0,1,1.575,0,-1.575,0
0,0,0,0,0,0,0.00036858,-0.0013259,6.105e-35,3.2339e-06,6.6872e-19,6.0035e-21,1.8421,0.0015436,-0.0013259,1.131e-32,0.00036859,-53.847,-313.91,-110.57,0.49748,1.0269e-13,9.295e-16,236.86,-313.91,-110.57,-53.845,0,0.015074,0,1,1.58,0,-1.58,0
0,0,0,0,0,0,0.00036702,-0.0013224,6.2005e-35,3.0411e-06,9.2974e-19,5.992e-21,1.839,0.0015391,-0.0013224,1.1843e-32,0.00036703,-53.863,-313.15,-110.34,0.46784,1.4278e-13,9.2832e-16,236.18,-313.16,-110.34,-53.861,0,0.01508,0,1,1.585,0,-1.585,0
0,0,0,0,0,0,0.00036547,-0.0013189,6.29e-35,2.8536e-06,1.1823e-18,5.9764e-21,1.836,0.0015347,-0.0013189,1.2358e-32,0.00036548,-53.877,-312.4,-110.12,0.43901,1.8158e-13,9.2649e-16,235.49,-312.4,-110.12,-53.875,0,0.015087,0,1,1.59,0,-1.59,0
0,0,0,0,0,0,0.00036393,-0.0013154,6.3733e-35,2.6714e-06,1.4264e-18,5.9568e-21,1.8329,0.0015302,-0.0013154,1.2854e-32,0.00036394,-53.889,-311.63,-109.89,0.411,2.1907e-13,9.24e-16,234.81,-311.64,-109.89,-53.888,0,0.015094,0,1,1.595,0,-1.595,0
0,0,0,0,0,0,0.00036239,-0.0013119,6.4504e-35,2.4946e-06,1.662e-18,5.933e-21,1.8299,0.0015258,-0.0013119,1.3331e-32,0.0003624,-53.899,-310.87,-109.67,0.38381,2.5526e-13,9.2087e-16,234.13,-310.87,-109.67,-53.898,0,0.0151,0,1,1.6,0,-1.6,0
0,0,0,0,0,0,0.00036085,-0.0013084,6.5215e-35,2.323e-06,1.8891e-18,5.9052e-21,1.8268,0.0015213,-0.0013084,1.3789e-32,0.00036086,-53.908,-310.11,-109.44,0.35743,2.9015e-13,9.1709e-16,233.45,-310.11,-109.44,-53.906,0,0.015107,0,1,1.605,0,-1.605,0
0,0,0,0,0,0,0.00035933,-0.0013049,6.5865e-35,2.1568e-06,2.1077e-18,5.8733e-21,1.8237,0.0015169,-0.0013049,1.4228e-32,0.00035933,-53.914,-309.35,-109.21,0.33187,3.2373e-13,9.1265e-16,232.77,-309.35,-109.21,-53.913,0,0.015113,0,1,1.61,0,-1.61,0
0,0,0,0,0,0,0.00035781,-0.0013014,6.6454e-35,1.9958e-06,2.3179e-18,5.8373e-21,1.8207,0.0015124,-0.0013014,1.4648e-32,0.00035781,-53.919,-308.58,-108.98,0.30712,3.5602e-13,9.0757e-16,232.09,-308.58,-108.98,-53.918,0,0.01512,0,1,1.615,0,-1.615,0
0,0,0,0,0,0,0.00035629,-0.0012979,6.6982e-35,1.8402e-06,2.5196e-18,5.7972e-21,1.8176,0.001508,-0.0012979,1.5048e-32,0.0003563,-53.921,-307.81,-108.75,0.28319,3.87e-13,9.0183e-16,231.4,-307.81,-108.75,-53.92,0,0.015127,0,1,1.62,0,-1.62,0
0,0,0,0,0,0,0.00035478,-0.0012944,6.7449e-35,1.6899e-06,2.7129e-18,5.753e-21,1.8146,0.0015035,-0.0012944,1.543e-32,0.00035479,-53.922,-307.04,-108.52,0.26008,4.1669e-13,8.9544e-16,230.72,-307.04,-108.52,-53.921,0,0.015133,0,1,1.625,0,-1.625,0
0,0,0,0,0,0,0.00035328,-0.0012909,6.7854e-35,1.5449e-06,2.8976e-18,5.7048e-21,1.8115,0.0014991,-0.0012909,1.5793e-32,0.00035328,-53.921,-306.27,-108.28,0.23779,4.4507e-13,8.8841e-16,230.04,-306.27,-108.28,-53.92,0,0.01514,0,1,1.63,0,-1.63,0
0,0,0,0,0,0,0.00035178,-0.0012873,6.8199e-35,1.4052e-06,3.0739e-18,5.6524e-21,1.8085,0.0014946,-0.0012873,1.6137e-32,0.00035179,-53.918,-305.5,-108.05,0.21631,4.7215e-13,8.8072e-16,229.36,-305.5,-108.05,-53.917,0,0.015146,0,1,1.635,0,-1.635,0
0,0,0,0,0,0,0.00035029,-0.0012838,6.8483e-35,1.2709e-06,3.2417e-18,5.596e-21,1.8054,0.0014902,-0.0012838,1.6462e-32,0.0003503,-53.913,-304.73,-107.82,0.19564,4.9793e-13,8.7238e-16,228.68,-304.73,-107.82,-53.912,0,0.015152,0,1,1.64,0,-1.64,0
0,0,0,0,0,0,0.00034881,-0.0012803,6.8705e-35,1.1418e-06,3.4011e-18,5.5355e-21,1.8024,0.0014858,-0.0012803,1.6768e-32,0.00034881,-53.906,-303.95,-107.58,0.1758,5.224e-13,8.6339e-16,228,-303.96,-107.58,-53.905,0,0.015159,0,1,1.645,0,-1.645,0
0,0,0,0,0,0,0.00034733,-0.0012768,6.8867e-35,1.0181e-06,3.5519e-18,5.4709e-21,1.7993,0.0014813,-0.0012768,1.7054e-32,0.00034733,-53.897,-303.18,-107.34,0.15677,5.4558e-13,8.5375e-16,227.32,-303.18,-107.34,-53.896,0,0.015165,0,1,1.65,0,-1.65,0
0,0,0,0,0,0,0.00034585,-0.0012732,6.8967e-35,8.9961e-07,3.6943e-18,5.4023e-21,1.7963,0.0014769,-0.0012733,1.7322e-32,0.00034586,-53.886,-302.4,-107.11,0.13856,5.6745e-13,8.4346e-16,226.64,-302.4,-107.11,-53.886,0,0.015172,0,1,1.655,0,-1.655,0
0,0,0,0,0,0,0.00034439,-0.0012697,6.9007e-35,7.8648e-07,3.8282e-18,5.3295e-21,1.7932,0.0014724,-0.0012697,1.7571e-32,0.00034439,-53.874,-301.62,-106.87,0.12116,5.8802e-13,8.3252e-16,225.96,-301.62,-106.87,-53.873,0,0.015178,0,1,1.66,0,-1.66,0
0,0,0,0,0,0,0.00034292,-0.0012662,6.8985e-35,6.7866e-07,3.9537e-18,5.2527e-21,1.7901,0.001468,-0.0012662,1.7801e-32,0.00034293,-53.859,-300.84,-106.63,0.10458,6.0729e-13,8.2093e-16,225.29,-300.84,-106.63,-53.859,0,0.015184,0,1,1.665,0,-1.665,0
0,0,0,0,0,0,0.00034147,-0.0012626,6.8903e-35,5.7614e-07,4.0707e-18,5.1717e-21,1.7871,0.0014636,-0.0012626,1.8012e-32,0.00034147,-53.842,-300.06,-106.39,0.088816,6.2526e-13,8.0868e-16,224.61,-300.06,-106.39,-53.842,0,0.015191,0,1,1.67,0,-1.67,0
0,0,0,0,0,0,0.00034002,-0.0012591,6.8759e-35,4.7894e-07,4.1792e-18,5.0867e-21,1.784,0.0014592,-0.0012591,1.8203e-32,0.00034002,-53.824,-299.28,-106.15,0.073869,6.4193e-13,7.9579e-16,223.93,-299.28,-106.15,-53.824,0,0.015197,0,1,1.675,0,-1.675,0
0,0,0,0,0,0,0.00033858,-0.0012556,6.8554e-35,3.8705e-07,4.2792e-18,4.9976e-21,1.781,0.0014547,-0.0012556,1.8376e-32,0.00033858,-53.804,-298.49,-105.9,0.059738,6.573e-13,7.8224e-16,223.25,-298.49,-105.9,-53.803,0,0.015203,0,1,1.68,0,-1.68,0
0,0,0,0,0,0,0.00033714,-0.001252,6.8288e-35,3.0047e-07,4.3708e-18,4.9044e-21,1.7779,0.0014503,-0.001252,1.853e-32,0.00033714,-53.781,-297.71,-105.66,0.046424,6.7136e-13,7.6805e-16,222.57,-297.71,-105.66,-53.781,0,0.01521,0,1,1.685,0,-1.685,0
0,0,0,0,0,0,0.00033571,-0.0012485,6.7962e-35,2.192e-07,4.4538e-18,4.8072e-21,1.7749,0.0014459,-0.0012485,1.8665e-32,0.00033571,-53.757,-296.92,-105.42,0.033926,6.8412e-13,7.532e-16,221.89,-296.92,-105.42,-53.757,0,0.015216,0,1,1.69,0,-1.69,0
0,0,0,0,0,0,0.00033428,-0.0012449,6.7574e-35,1.4324e-07,4.5284e-18,4.7058e-21,1.7718,0.0014414,-0.0012449,1.8781e-32,0.00033428,-53.731,-296.13,-105.17,0.022245,6.9558e-13,7.3771e-16,221.22,-296.13,-105.17,-53.731,0,0.015222,0,1,1.695,0,-1.695,0
0,0,0,0,0,0,0.00033286,-0.0012414,6.7125e-35,7.2593e-08,4.5946e-18,4.6004e-21,1.7688,0.001437,-0.0012414,1.8878e-32,0.00033287,-53.703,-295.34,-104.92,0.011381,7.0574e-13,7.2156e-16,220.54,-295.34,-104.92,-53.703,0,0.015228,0,1,1.7,0,-1.7,0
0,0,0,0,0,0,0.00033145,-0.0012378,6.6615e-35,7.2543e-09,4.6522e-18,4.4909e-21,1.7657,0.0014326,-0.0012378,1.8955e-32,0.00033145,-53.673,-294.55,-104.68,0.0013325,7.146e-13,7.0476e-16,219.86,-294.55,-104.68,-53.673,0,0.015235,0,1,1.705,0,-1.705,0
0,0,0,0,0,0,0.00033004,-0.0012343,6.6044e-35,-5.2773e-08,4.7014e-18,4.3773e-21,1.7627,0.0014282,-0.0012343,1.9014e-32,0.00033004,-53.641,-293.76,-104.43,-0.0078992,7.2216e-13,6.8731e-16,219.18,-293.76,-104.43,-53.641,0,0.015241,0,1,1.71,0,-1.71,0
0,0,0,0,0,0,0.00032864,-0.0012307,6.5412e-35,-1.0749e-07,4.7422e-18,4.2596e-21,1.7596,0.0014238,-0.0012307,1.9054e-32,0.00032864,-53.607,-292.97,-104.18,-0.016314,7.2841e-13,6.6921e-16,218.51,-292.97,-104.18,-53.607,0,0.015247,0,1,1.715,0,-1.715,0
0,0,0,0,0,0,0.00032725,-0.0012271,6.4719e-35,-1.569e-07,4.7744e-18,4.1378e-21,1.7566,0.0014193,-0.0012271,1.9075e-32,0.00032725,-53.572,-292.17,-103.93,-0.023913,7.3337e-13,6.5046e-16,217.83,-292.17,-103.93,-53.572,0,0.015253,0,1,1.72,0,-1.72,0
0,0,0,0,0,0,0.00032586,-0.0012236,6.3965e-35,-2.0099e-07,4.7982e-18,4.012e-21,1.7535,0.0014149,-0.0012236,1.9077e-32,0.00032586,-53.534,-291.37,-103.68,-0.030695,7.3702e-13,6.3106e-16,217.15,-291.37,-103.68,-53.534,0,0.015259,0,1,1.725,0,-1.725,0
0,0,0,0,0,0,0.00032447,-0.00122,6.315e-35,-2.3978e-07,4.8135e-18,3.882e-21,1.7504,0.0014105,-0.00122,1.9059e-32,0.00032447,-53.495,-290.57,-103.42,-0.036661,7.3937e-13,6.1101e-16,216.48,-290.57,-103.42,-53.495,0,0.015265,0,1,1.73,0,-1.73,0
0,0,0,0,0,0,0.0003231,-0.0012164,6.2274e-35,-2.7326e-07,4.8203e-18,3.748e-21,1.7474,0.0014061,-0.0012164,1.9023e-32,0.0003231,-53.453,-289.78,-103.17,-0.04181,7.4042e-13,5.9031e-16,215.8,-289.78,-103.17,-53.453,0,0.015271,0,1,1.735,0,-1.735,0
0,0,0,0,0,0,0.00032173,-0.0012129,6.1337e-35,-3.0142e-07,4.8186e-18,3.6099e-21,1.7443,0.0014017,-0.0012129,1.8968e-32,0.00032173,-53.41,-288.97,-102.92,-0.046143,7.4016e-13,5.6895e-16,215.13,-288.97,-102.92,-53.41,0,0.015277,0,1,1.74,0,-1.74,0
0,0,0,0,0,0,0.00032036,-0.0012093,6.0339e-35,-3.2427e-07,4.8085e-18,3.4677e-21,1.7413,0.0013973,-0.0012093,1.8894e-32,0.00032036,-53.364,-288.17,-102.66,-0.049659,7.3861e-13,5.4695e-16,214.45,-288.17,-102.66,-53.364,0,0.015284,0,1,1.745,0,-1.745,0
0,0,0,0,0,0,0.000319,-0.0012057,5.9279e-35,-3.4182e-07,4.7899e-18,3.3214e-21,1.7382,0.0013929,-0.0012057,1.8801e-32,0.000319,-53.317,-287.37,-102.4,-0.052359,7.3575e-13,5.243e-16,213.78,-287.37,-102.4,-53.317,0,0.01529,0,1,1.75,0,-1.75,0
0,0,0,0,0,0,0.00031765,-0.0012021,5.8159e-35,-3.5405e-07,4.7629e-18,3.171e-21,1.7352,0.0013885,-0.0012021,1.8688e-32,0.00031765,-53.268,-286.56,-102.15,-0.054242,7.316e-13,5.0099e-16,213.1,-286.56,-102.15,-53.268,0,0.015296,0,1,1.755,0,-1.755,0
0,0,0,0,0,0,0.0003163,-0.0011985,5.6978e-35,-3.6097e-07,4.7273e-18,3.0166e-21,1.7321,0.0013841,-0.0011985,1.8557e-32,0.0003163,-53.217,-285.76,-101.89,-0.055309,7.2614e-13,4.7703e-16,212.43,-285.76,-101.89,-53.217,0,0.015302,0,1,1.76,0,-1.76,0
0,0,0,0,0,0,0.00031496,-0.001195,5.5735e-35,-3.6259e-07,4.6833e-18,2.8581e-21,1.7291,0.0013797,-0.001195,1.8407e-32,0.00031496,-53.164,-284.95,-101.63,-0.055559,7.1938e-13,4.5243e-16,211.75,-284.95,-101.63,-53.164,0,0.015308,0,1,1.765,0,-1.765,0
0,0,0,0,0,0,0.00031362,-0.0011914,5.4432e-35,-3.5889e-07,4.6308e-18,2.6954e-21,1.726,0.0013753,-0.0011914,1.8238e-32,0.00031362,-53.109,-284.14,-101.37,-0.054993,7.1132e-13,4.2717e-16,211.08,-284.14,-101.37,-53.109,0,0.015314,0,1,1.77,0,-1.77,0
0,0,0,0,0,0,0.00031229,-0.0011878,5.3067e-35,-3.4988e-07,4.5698e-18,2.5287e-21,1.723,0.0013709,-0.0011878,1.805e-32,0.00031229,-53.052,-283.33,-101.11,-0.05361,7.0195e-13,4.0126e-16,210.4,-283.33,-101.11,-53.052,0,0.015319,0,1,1.775,0,-1.775,0
0,0,0,0,0,0,0.00031097,-0.0011842,5.1642e-35,-3.3556e-07,4.5004e-18,2.358e-21,1.7199,0.0013665,-0.0011842,1.7842e-32,0.00031097,-52.994,-282.52,-100.84,-0.051411,6.9129e-13,3.747e-16,209.73,-282.52,-100.84,-52.994,0,0.015325,0,1,1.78,0,-1.78,0
0,0,0,0,0,0,0.00030965,-0.0011806,5.0155e-35,-3.1593e-07,4.4225e-18,2.1831e-21,1.7168,0.0013621,-0.0011806,1.7616e-32,0.00030965,-52.933,-281.7,-100.58,-0.048395,6.7932e-13,3.4749e-16,209.06,-281.7,-100.58,-52.933,0,0.015331,0,1,1.785,0,-1.785,0
0,0,0,0,0,0,0.00030834,-0.001177,4.8608e-35,-2.9099e-07,4.3361e-18,2.0041e-21,1.7138,0.0013577,-0.001177,1.7371e-32,0.00030834,-52.87,-280.89,-100.32,-0.044563,6.6605e-13,3.1963e-16,208.38,-280.89,-100.32,-52.87,0,0.015337,0,1,1.79,0,-1.79,0
0,0,0,0,0,0,0.00030704,-0.0011734,4.6999e-35,-2.6074e-07,4.2413e-18,1.8211e-21,1.7107,0.0013533,-0.0011734,1.7107e-32,0.00030704,-52.806,-280.07,-100.05,-0.039914,6.5148e-13,2.9112e-16,207.71,-280.07,-100.05,-52.806,0,0.015343,0,1,1.795,0,-1.795,0
0,0,0,0,0,0,0.00030574,-0.0011698,4.533e-35,-2.2518e-07,4.1379e-18,1.634e-21,1.7077,0.0013489,-0.0011698,1.6823e-32,0.00030574,-52.739,-279.25,-99.784,-0.034449,6.3561e-13,2.6196e-16,207.04,-279.25,-99.784,-52.74,0,0.015349,0,1,1.8,0,-1.8,0
0,0,0,0,0,0,0.00030444,-0.0011662,4.3599e-35,-1.8431e-07,4.0261e-18,1.4428e-21,1.7046,0.0013445,-0.0011662,1.6521e-32,0.00030444,-52.671,-278.43,-99.517,-0.028167,6.1844e-13,2.3215e-16,206.36,-278.43,-99.517,-52.671,0,0.015355,0,1,1.805,0,-1.805,0
0,0,0,0,0,0,0.00030316,-0.0011626,4.1807e-35,-1.3813e-07,3.9059e-18,1.2475e-21,1.7016,0.0013401,-0.0011626,1.62e-32,0.00030316,-52.601,-277.61,-99.248,-0.021069,5.9996e-13,2.0168e-16,205.69,-277.61,-99.248,-52.601,0,0.015361,0,1,1.81,0,-1.81,0
0,0,0,0,0,0,0.00030187,-0.001159,3.9954e-35,-8.6635e-08,3.7771e-18,1.0481e-21,1.6985,0.0013357,-0.001159,1.586e-32,0.00030187,-52.529,-276.79,-98.979,-0.013155,5.8019e-13,1.7057e-16,205.02,-276.79,-98.979,-52.529,0,0.015366,0,1,1.815,0,-1.815,0
0,0,0,0,0,0,0.0003006,-0.0011553,3.8041e-35,-2.9833e-08,3.6399e-18,8.4463e-22,1.6955,0.0013313,-0.0011553,1.5501e-32,0.0003006,-52.455,-275.97,-98.709,-0.0044234,5.5911e-13,1.3881e-16,204.35,-275.97,-98.709,-52.455,0,0.015372,0,1,1.82,0,-1.82,0
0,0,0,0,0,0,0.00029933,-0.0011517,3.6066e-35,3.2281e-08,3.4942e-18,6.3708e-22,1.6924,0.0013269,-0.0011517,1.5122e-32,0.00029933,-52.379,-275.14,-98.437,0.0051242,5.3673e-13,1.0639e-16,203.68,-275.14,-98.437,-52.379,0,0.015378,0,1,1.825,0,-1.825,0
0,0,0,0,0,0,0.00029807,-0.0011481,3.403e-35,9.9705e-08,3.34e-18,4.2545e-22,1.6894,0.0013226,-0.0011481,1.4725e-32,0.00029807,-52.301,-274.32,-98.165,0.015488,5.1305e-13,7.3324e-17,203,-274.32,-98.165,-52.301,0,0.015384,0,1,1.83,0,-1.83,0
0,0,0,0,0,0,0.00029681,-0.0011445,3.1933e-35,1.7244e-07,3.1774e-18,2.0974e-22,1.6863,0.0013182,-0.0011445,1.4309e-32,0.00029681,-52.221,-273.49,-97.891,0.026669,4.8807e-13,3.9607e-17,202.33,-273.49,-97.891,-52.221,0,0.015389,0,1,1.835,0,-1.835,0
0,0,0,0,0,0,0.00029556,-0.0011409,2.9775e-35,2.5048e-07,3.0063e-18,-1.0062e-23,1.6832,0.0013138,-0.0011409,1.3874e-32,0.00029556,-52.139,-272.66,-97.617,0.038666,4.6179e-13,5.2397e-18,201.66,-272.66,-97.617,-52.139,0,0.015395,0,1,1.84,0,-1.84,0
0,0,0,0,0,0,0.00029431,-0.0011372,2.7556e-35,3.3384e-07,2.8267e-18,-2.3395e-22,1.6802,0.0013094,-0.0011372,1.3419e-32,0.00029431,-52.056,-271.83,-97.342,0.051479,4.342e-13,-2.9779e-17,200.99,-271.83,-97.342,-52.055,0,0.015401,0,1,1.845,0,-1.845,0
0,0,0,0,0,0,0.00029307,-0.0011336,2.5276e-35,4.225e-07,2.6386e-18,-4.6191e-22,1.6771,0.001305,-0.0011336,1.2946e-32,0.00029307,-51.97,-271,-97.065,0.06511,4.0531e-13,-6.5448e-17,200.32,-271,-97.065,-51.97,0,0.015406,0,1,1.85,0,-1.85,0
0,0,0,0,0,0,0.00029184,-0.00113,2.2935e-35,5.1648e-07,2.4421e-18,-6.9397e-22,1.6741,0.0013007,-0.00113,1.2454e-32,0.00029184,-51.882,-270.16,-96.788,0.079556,3.7513e-13,-1.0177e-16,199.65,-270.16,-96.788,-51.882,0,0.015412,0,1,1.855,0,-1.855,0
0,0,0,0,0,0,0.00029061,-0.0011263,2.0533e-35,6.1577e-07,2.2371e-18,-9.301e-22,1.671,0.0012963,-0.0011263,1.1943e-32,0.00029061,-51.793,-269.33,-96.51,0.094819,3.4364e-13,-1.3874e-16,198.98,-269.33,-96.51,-51.793,0,0.015418,0,1,1.86,0,-1.86,0
0,0,0,0,0,0,0.00028939,-0.0011227,1.8069e-35,7.2036e-07,2.0236e-18,-1.1703e-21,1.668,0.0012919,-0.0011227,1.1412e-32,0.00028939,-51.702,-268.49,-96.23,0.1109,3.1084e-13,-1.7636e-16,198.31,-268.49,-96.23,-51.702,0,0.015423,0,1,1.865,0,-1.865,0
0,0,0,0,0,0,0.00028817,-0.001119,1.5545e-35,8.3027e-07,1.8017e-18,-1.4146e-21,1.6649,0.0012875,-0.001119,1.0863e-32,0.00028818,-51.608,-267.65,-95.95,0.12779,2.7675e-13,-2.1463e-16,197.64,-267.65,-95.95,-51.608,0,0.015429,0,1,1.87,0,-1.87,0
0,0,0,0,0,0,0.00028696,-0.0011154,1.296e-35,9.4549e-07,1.5712e-18,-1.663e-21,1.6619,0.0012832,-0.0011154,1.0295e-32,0.00028697,-51.513,-266.81,-95.669,0.14551,2.4136e-13,-2.5355e-16,196.97,-266.82,-95.669,-51.513,0,0.015434,0,1,1.875,0,-1.875,0
0,0,0,0,0,0,0.00028576,-0.0011118,1.0314e-35,1.066e-06,1.3324e-18,-1.9155e-21,1.6588,0.0012788,-0.0011118,9.7076e-33,0.00028576,-51.416,-265.97,-95.386,0.16404,2.0466e-13,-2.9313e-16,196.3,-265.97,-95.386,-51.416,0,0.01544,0,1,1.88,0,-1.88,0
0,0,0,0,0,0,0.00028456,-0.0011081,7.6063e-36,1.1919e-06,1.085e-18,-2.1721e-21,1.6558,0.0012744,-0.0011081,9.1014e-33,0.00028457,-51.317,-265.13,-95.103,0.18338,1.6666e-13,-3.3335e-16,195.63,-265.13,-95.103,-51.317,0,0.015446,0,1,1.885,0,-1.885,0
0,0,0,0,0,0,0.00028337,-0.0011045,4.8379e-36,1.323e-06,8.2914e-19,-2.4327e-21,1.6527,0.0012701,-0.0011045,8.4761e-33,0.00028337,-51.216,-264.29,-94.819,0.20354,1.2737e-13,-3.7422e-16,194.96,-264.29,-94.819,-51.216,0,0.015451,0,1,1.89,0,-1.89,0
0,0,0,0,0,0,0.00028219,-0.0011008,2.0085e-36,1.4595e-06,5.6482e-19,-2.6974e-21,1.6497,0.0012657,-0.0011008,7.8319e-33,0.00028219,-51.113,-263.44,-94.533,0.22452,8.6765e-14,-4.1575e-16,194.29,-263.45,-94.533,-51.113,0,0.015457,0,1,1.895,0,-1.895,0
0,0,0,0,0,0,0.00028101,-0.0010971,-8.8197e-37,1.6012e-06,2.9203e-19,-2.9662e-21,1.6466,0.0012613,-0.0010971,7.1686e-33,0.00028101,-51.009,-262.6,-94.247,0.24632,4.4863e-14,-4.5793e-16,193.63,-262.6,-94.247,-51.008,0,0.015462,0,1,1.9,0,-1.9,0
0,0,0,0,0,0,0.00027983,-0.0010935,-3.8335e-36,1.7483e-06,1.0766e-20,-3.2391e-21,1.6435,0.001257,-0.0010935,6.4864e-33,0.00027984,-50.902,-261.75,-93.96,0.26893,1.6592e-15,-5.0075e-16,192.96,-261.75,-93.96,-50.901,0,0.015468,0,1,1.905,0,-1.905,0
0,0,0,0,0,0,0.00027867,-0.0010898,-6.846e-36,1.9007e-06,-2.7897e-19,-3.5161e-21,1.6405,0.0012526,-0.0010898,5.7851e-33,0.00027867,-50.793,-260.9,-93.671,0.29236,-4.2846e-14,-5.4423e-16,192.29,-260.9,-93.671,-50.793,0,0.015473,0,1,1.91,0,-1.91,0
0,0,0,0,0,0,0.0002775,-0.0010862,-9.9196e-36,2.0584e-06,-5.7718e-19,-3.7972e-21,1.6374,0.0012483,-0.0010862,5.0648e-33,0.00027751,-50.683,-260.05,-93.382,0.3166,-8.8653e-14,-5.8836e-16,191.62,-260.05,-93.382,-50.682,0,0.015478,0,1,1.915,0,-1.915,0
0,0,0,0,0,0,0.00027635,-0.0010825,-1.3054e-35,2.2214e-06,-8.8386e-19,-4.0823e-21,1.6344,0.0012439,-0.0010825,4.3256e-33,0.00027635,-50.57,-259.2,-93.092,0.34166,-1.3576e-13,-6.3314e-16,190.95,-259.2,-93.092,-50.57,0,0.015484,0,1,1.92,0,-1.92,0
0,0,0,0,0,0,0.0002752,-0.0010788,-1.625e-35,2.3897e-06,-1.199e-18,-4.3716e-21,1.6313,0.0012396,-0.0010788,3.5673e-33,0.0002752,-50.456,-258.35,-92.8,0.36754,-1.8417e-13,-6.7857e-16,190.29,-258.35,-92.8,-50.455,0,0.015489,0,1,1.925,0,-1.925,0
0,0,0,0,0,0,0.00027405,-0.0010751,-1.9507e-35,2.5634e-06,-1.5226e-18,-4.6649e-21,1.6283,0.0012352,-0.0010752,2.7901e-33,0.00027406,-50.34,-257.49,-92.508,0.39423,-2.3388e-13,-7.2465e-16,189.62,-257.49,-92.508,-50.339,0,0.015495,0,1,1.93,0,-1.93,0
0,0,0,0,0,0,0.000273,-0.0010723,-1.5809e-35,2.5566e-06,-1.8256e-18,-4.6704e-21,1.6259,0.0012318,-0.0010724,4.204e-33,0.000273,-50.301,-256.86,-92.307,0.39319,-2.8043e-13,-7.2583e-16,189.09,-256.86,-92.307,-50.3,0,0.0155,0,1,1.935,0,-1.935,0
0,0,0,0,0,0,0.00027199,-0.0010701,-8.1395e-36,2.4436e-06,-2.1076e-18,-4.5069e-21,1.6239,0.0012288,-0.0010701,6.862e-33,0.00027199,-50.308,-256.36,-92.158,0.37582,-3.2375e-13,-7.0066e-16,188.65,-256.36,-92.158,-50.307,0,0.015505,0,1,1.94,0,-1.94,0
0,0,0,0,0,0,0.00027098,-0.0010678,-6.4037e-37,2.333e-06,-2.3827e-18,-4.3455e-21,1.6219,0.0012259,-0.0010678,9.4578e-33,0.00027099,-50.314,-255.86,-92.009,0.3588,-3.6601e-13,-6.7581e-16,188.2,-255.86,-92.009,-50.313,0,0.015511,0,1,1.945,0,-1.945,0
0,0,0,0,0,0,0.00026998,-0.0010655,6.6891e-36,2.2246e-06,-2.6509e-18,-4.1863e-21,1.6199,0.001223,-0.0010655,1.1992e-32,0.00026998,-50.319,-255.36,-91.86,0.34213,-4.0723e-13,-6.5128e-16,187.75,-255.36,-91.86,-50.318,0,0.015516,0,1,1.95,0,-1.95,0
0,0,0,0,0,0,0.00026898,-0.0010632,1.3849e-35,2.1184e-06,-2.9124e-18,-4.0292e-21,1.6179,0.0012201,-0.0010632,1.4464e-32,0.00026899,-50.322,-254.86,-91.71,0.32582,-4.474e-13,-6.2708e-16,187.31,-254.86,-91.71,-50.322,0,0.015521,0,1,1.955,0,-1.955,0
0,0,0,0,0,0,0.00026799,-0.0010609,2.0839e-35,2.0146e-06,-3.167e-18,-3.8742e-21,1.616,0.0012172,-0.0010609,1.6873e-32,0.00026799,-50.325,-254.36,-91.559,0.30985,-4.8653e-13,-6.0321e-16,186.86,-254.36,-91.559,-50.324,0,0.015527,0,1,1.96,0,-1.96,0
0,0,0,0,0,0,0.000267,-0.0010586,2.766e-35,1.9131e-06,-3.4148e-18,-3.7213e-21,1.614,0.0012143,-0.0010586,1.9221e-32,0.000267,-50.326,-253.86,-91.408,0.29424,-5.246e-13,-5.7966e-16,186.42,-253.86,-91.408,-50.326,0,0.015532,0,1,1.965,0,-1.965,0
0,0,0,0,0,0,0.00026601,-0.0010563,3.431e-35,1.8138e-06,-3.6558e-18,-3.5706e-21,1.612,0.0012114,-0.0010563,2.1507e-32,0.00026601,-50.327,-253.35,-91.257,0.27898,-5.6163e-13,-5.5644e-16,185.97,-253.35,-91.257,-50.326,0,0.015537,0,1,1.97,0,-1.97,0
0,0,0,0,0,0,0.00026502,-0.001054,4.0792e-35,1.7169e-06,-3.8899e-18,-3.422e-21,1.61,0.0012085,-0.001054,2.3731e-32,0.00026503,-50.326,-252.85,-91.105,0.26407,-5.976e-13,-5.3354e-16,185.53,-252.85,-91.105,-50.325,0,0.015543,0,1,1.975,0,-1.975,0
0,0,0,0,0,0,0.00026404,-0.0010517,4.7103e-35,1.6222e-06,-4.1173e-18,-3.2755e-21,1.608,0.0012056,-0.0010517,2.5892e-32,0.00026405,-50.324,-252.34,-90.952,0.24951,-6.3253e-13,-5.1097e-16,185.08,-252.34,-90.952,-50.324,0,0.015548,0,1,1.98,0,-1.98,0
0,0,0,0,0,0,0.00026307,-0.0010494,5.3245e-35,1.5298e-06,-4.3378e-18,-3.1312e-21,1.606,0.0012027,-0.0010494,2.7992e-32,0.00026307,-50.321,-251.84,-90.799,0.23531,-6.6641e-13,-4.8872e-16,184.64,-251.84,-90.799,-50.321,0,0.015553,0,1,1.985,0,-1.985,0
0,0,0,0,0,0,0.0002621,-0.0010471,5.9217e-35,1.4397e-06,-4.5515e-18,-2.989e-21,1.604,0.0011998,-0.0010471,3.003e-32,0.0002621,-50.317,-251.33,-90.645,0.22145,-6.9925e-13,-4.668e-16,184.19,-251.33,-90.645,-50.317,0,0.015558,0,1,1.99,0,-1.99,0
0,0,0,0,0,0,0.00026113,-0.0010448,6.502e-35,1.3519e-06,-4.7583e-18,-2.8489e-21,1.602,0.0011969,-0.0010448,3.2005e-32,0.00026113,-50.312,-250.83,-90.491,0.20795,-7.3103e-13,-4.452e-16,183.75,-250.83,-90.491,-50.312,0,0.015564,0,1,1.995,0,-1.995,0
0,0,0,0,0,0,0.00026016,-0.0010425,7.0652e-35,1.2664e-06,-4.9584e-18,-2.7109e-21,1.6001,0.001194,-0.0010425,3.3919e-32,0.00026016,-50.306,-250.32,-90.336,0.1948,-7.6177e-13,-4.2393e-16,183.31,-250.32,-90.336,-50.306,0,0.015569,0,1,2,0,-2,0
0,0,0,0,0,0,0.0002592,-0.0010402,7.6116e-35,1.1831e-06,-5.1516e-18,-2.5751e-21,1.5981,0.0011911,-0.0010402,3.577e-32,0.0002592,-50.299,-249.81,-90.181,0.182,-7.9146e-13,-4.0299e-16,182.86,-249.81,-90.181,-50.299,0,0.015574,0,1,2.005,0,-2.005,0
0,0,0,0,0,0,0.00025824,-0.0010378,8.1409e-35,1.1022e-06,-5.338e-18,-2.4413e-21,1.5961,0.0011882,-0.0010379,3.756e-32,0.00025824,-50.291,-249.3,-90.025,0.16956,-8.201e-13,-3.8237e-16,182.42,-249.3,-90.025,-50.29,0,0.015579,0,1,2.01,0,-2.01,0
0,0,0,0,0,0,0.00025728,-0.0010355,8.6533e-35,1.0235e-06,-5.5176e-18,-2.3098e-21,1.5941,0.0011853,-0.0010355,3.9287e-32,0.00025729,-50.281,-248.79,-89.869,0.15746,-8.4769e-13,-3.6208e-16,181.98,-248.79,-89.869,-50.281,0,0.015585,0,1,2.015,0,-2.015,0
0,0,0,0,0,0,0.00025633,-0.0010332,9.1487e-35,9.4716e-07,-5.6904e-18,-2.1803e-21,1.5921,0.0011824,-0.0010332,4.0953e-32,0.00025634,-50.271,-248.28,-89.712,0.14572,-8.7424e-13,-3.4211e-16,181.53,-248.28,-89.712,-50.271,0,0.01559,0,1,2.02,0,-2.02,0
0,0,0,0,0,0,0.00025539,-0.0010309,9.6272e-35,8.7307e-07,-5.8563e-18,-2.053e-21,1.5901,0.0011795,-0.0010309,4.2556e-32,0.00025539,-50.259,-247.77,-89.554,0.13433,-8.9973e-13,-3.2247e-16,181.09,-247.77,-89.554,-50.259,0,0.015595,0,1,2.025,0,-2.025,0
0,0,0,0,0,0,0.00025444,-0.0010286,1.0089e-34,8.0128e-07,-6.0154e-18,-1.9278e-21,1.5881,0.0011767,-0.0010286,4.4098e-32,0.00025444,-50.247,-247.26,-89.397,0.12329,-9.2418e-13,-3.0315e-16,180.65,-247.26,-89.397,-50.246,0,0.0156,0,1,2.03,0,-2.03,0
0,0,0,0,0,0,0.0002535,-0.0010263,1.0533e-34,7.3177e-07,-6.1677e-18,-1.8047e-21,1.5862,0.0011738,-0.0010263,4.5577e-32,0.0002535,-50.233,-246.75,-89.238,0.1126,-9.4758e-13,-2.8416e-16,180.21,-246.75,-89.238,-50.233,0,0.015605,0,1,2.035,0,-2.035,0
0,0,0,0,0,0,0.00025256,-0.001024,1.0961e-34,6.6455e-07,-6.3132e-18,-1.6837e-21,1.5842,0.0011709,-0.001024,4.6995e-32,0.00025257,-50.218,-246.23,-89.079,0.10227,-9.6993e-13,-2.655e-16,179.76,-246.23,-89.079,-50.218,0,0.01561,0,1,2.04,0,-2.04,0
0,0,0,0,0,0,0.00025163,-0.0010217,1.1371e-34,5.9962e-07,-6.4518e-18,-1.5649e-21,1.5822,0.001168,-0.0010217,4.835e-32,0.00025163,-50.202,-245.72,-88.92,0.092282,-9.9124e-13,-2.4716e-16,179.32,-245.72,-88.92,-50.202,0,0.015615,0,1,2.045,0,-2.045,0
0,0,0,0,0,0,0.0002507,-0.0010194,1.1765e-34,5.3698e-07,-6.5836e-18,-1.4482e-21,1.5802,0.0011651,-0.0010194,4.9643e-32,0.0002507,-50.185,-245.2,-88.76,0.08265,-1.0115e-12,-2.2914e-16,178.88,-245.2,-88.76,-50.185,0,0.015621,0,1,2.05,0,-2.05,0
0,0,0,0,0,0,0.00024978,-0.001017,1.2142e-34,4.7662e-07,-6.7086e-18,-1.3337e-21,1.5782,0.0011622,-0.001017,5.0875e-32,0.00024978,-50.167,-244.69,-88.599,0.073369,-1.0307e-12,-2.1145e-16,178.44,-244.69,-88.599,-50.167,0,0.015626,0,1,2.055,0,-2.055,0
0,0,0,0,0,0,0.00024885,-0.0010147,1.2501e-34,4.1855e-07,-6.8268e-18,-1.2212e-21,1.5762,0.0011594,-0.0010147,5.2044e-32,0.00024885,-50.148,-244.17,-88.438,0.06444,-1.0489e-12,-1.9409e-16,178,-244.17,-88.438,-50.148,0,0.015631,0,1,2.06,0,-2.06,0
0,0,0,0,0,0,0.00024793,-0.0010124,1.2844e-34,3.6277e-07,-6.9382e-18,-1.1109e-21,1.5742,0.0011565,-0.0010124,5.3151e-32,0.00024794,-50.128,-243.66,-88.276,0.055863,-1.066e-12,-1.7705e-16,177.56,-243.66,-88.276,-50.128,0,0.015636,0,1,2.065,0,-2.065,0
0,0,0,0,0,0,0.00024702,-0.0010101,1.317e-34,3.0928e-07,-7.0427e-18,-1.0027e-21,1.5722,0.0011536,-0.0010101,5.4196e-32,0.00024702,-50.107,-243.14,-88.114,0.047638,-1.082e-12,-1.6034e-16,177.12,-243.14,-88.114,-50.107,0,0.015641,0,1,2.07,0,-2.07,0
0,0,0,0,0,0,0.00024611,-0.0010078,1.3478e-34,2.5807e-07,-7.1404e-18,-8.9664e-22,1.5703,0.0011507,-0.0010078,5.5179e-32,0.00024611,-50.084,-242.62,-87.951,0.039764,-1.097e-12,-1.4396e-16,176.68,-242.62,-87.951,-50.084,0,0.015646,0,1,2.075,0,-2.075,0
0,0,0,0,0,0,0.0002452,-0.0010055,1.377e-34,2.0916e-07,-7.2313e-18,-7.9271e-22,1.5683,0.0011479,-0.0010055,5.6101e-32,0.0002452,-50.061,-242.1,-87.788,0.032243,-1.111e-12,-1.279e-16,176.24,-242.1,-87.788,-50.061,0,0.015651,0,1,2.08,0,-2.08,0
0,0,0,0,0,0,0.00024429,-0.0010031,1.4045e-34,1.6253e-07,-7.3154e-18,-6.909e-22,1.5663,0.001145,-0.0010031,5.696e-32,0.0002443,-50.036,-241.58,-87.624,0.025072,-1.1239e-12,-1.1216e-16,175.8,-241.58,-87.624,-50.036,0,0.015656,0,1,2.085,0,-2.085,0
0,0,0,0,0,0,0.00024339,-0.0010008,1.4303e-34,1.1819e-07,-7.3927e-18,-5.9122e-22,1.5643,0.0011421,-0.0010008,5.7757e-32,0.00024339,-50.011,-241.06,-87.46,0.018254,-1.1358e-12,-9.6752e-17,175.36,-241.06,-87.46,-50.011,0,0.015661,0,1,2.09,0,-2.09,0
0,0,0,0,0,0,0.0002425,-0.00099848,1.4544e-34,7.6132e-08,-7.4631e-18,-4.9367e-22,1.5623,0.0011393,-0.00099848,5.8492e-32,0.0002425,-49.984,-240.54,-87.295,0.011788,-1.1466e-12,-8.1668e-17,174.92,-240.54,-87.295,-49.984,0,0.015666,0,1,2.095,0,-2.095,0
0,0,0,0,0,0,0.0002416,-0.00099616,1.4768e-34,3.6367e-08,-7.5267e-18,-3.9824e-22,1.5603,0.0011364,-0.00099616,5.9165e-32,0.0002416,-49.956,-240.02,-87.13,0.0056731,-1.1564e-12,-6.691e-17,174.48,-240.02,-87.13,-49.956,0,0.015671,0,1,2.1,0,-2.1,0
0,0,0,0,0,0,0.00024071,-0.00099383,1.4975e-34,-1.1116e-09,-7.5835e-18,-3.0494e-22,1.5583,0.0011335,-0.00099384,5.9776e-32,0.00024071,-49.927,-239.5,-86.964,-8.9972e-05,-1.1651e-12,-5.2478e-17,174.04,-239.5,-86.964,-49.927,0,0.015676,0,1,2.105,0,-2.105,0
0,0,0,0,0,0,0.00023983,-0.00099151,1.5165e-34,-3.6301e-08,-7.6334e-18,-2.1377e-22,1.5563,0.0011307,-0.00099151,6.0325e-32,0.00023983,-49.898,-238.98,-86.798,-0.0055011,-1.1728e-12,-3.8371e-17,173.6,-238.98,-86.798,-49.897,0,0.015681,0,1,2.11,0,-2.11,0
0,0,0,0,0,0,0.00023894,-0.00098918,1.5338e-34,-6.9203e-08,-7.6766e-18,-1.2472e-22,1.5544,0.0011278,-0.00098918,6.0812e-32,0.00023894,-49.866,-238.45,-86.631,-0.010561,-1.1794e-12,-2.4589e-17,173.16,-238.45,-86.631,-49.866,0,0.015686,0,1,2.115,0,-2.115,0
0,0,0,0,0,0,0.00023806,-0.00098685,1.5494e-34,-9.9817e-08,-7.7129e-18,-3.7807e-23,1.5524,0.0011249,-0.00098685,6.1237e-32,0.00023806,-49.834,-237.93,-86.463,-0.015268,-1.185e-12,-1.1133e-17,172.72,-237.93,-86.463,-49.834,0,0.015691,0,1,2.12,0,-2.12,0
0,0,0,0,0,0,0.00023719,-0.00098452,1.5633e-34,-1.2814e-07,-7.7424e-18,4.6986e-23,1.5504,0.0011221,-0.00098452,6.16e-32,0.00023719,-49.801,-237.41,-86.296,-0.019624,-1.1895e-12,1.9972e-18,172.28,-237.41,-86.296,-49.801,0,0.015696,0,1,2.125,0,-2.125,0
0,0,0,0,0,0,0.00023632,-0.00098219,1.5755e-34,-1.5418e-07,-7.7651e-18,1.2965e-22,1.5484,0.0011192,-0.00098219,6.1901e-32,0.00023632,-49.767,-236.88,-86.127,-0.023628,-1.193e-12,1.4802e-17,171.84,-236.88,-86.127,-49.767,0,0.015701,0,1,2.13,0,-2.13,0
0,0,0,0,0,0,0.00023545,-0.00097986,1.586e-34,-1.7793e-07,-7.7809e-18,2.1019e-22,1.5464,0.0011164,-0.00097986,6.214e-32,0.00023545,-49.731,-236.35,-85.958,-0.027281,-1.1955e-12,2.7281e-17,171.41,-236.35,-85.958,-49.731,0,0.015706,0,1,2.135,0,-2.135,0
0,0,0,0,0,0,0.00023458,-0.00097753,1.5949e-34,-1.994e-07,-7.7899e-18,2.886e-22,1.5444,0.0011135,-0.00097753,6.2317e-32,0.00023458,-49.695,-235.83,-85.788,-0.030581,-1.1968e-12,3.9435e-17,170.97,-235.83,-85.788,-49.695,0,0.015711,0,1,2.14,0,-2.14,0
0,0,0,0,0,0,0.00023372,-0.0009752,1.602e-34,-2.1857e-07,-7.7921e-18,3.6488e-22,1.5424,0.0011107,-0.0009752,6.2431e-32,0.00023372,-49.657,-235.3,-85.618,-0.03353,-1.1972e-12,5.1263e-17,170.53,-235.3,-85.618,-49.657,0,0.015715,0,1,2.145,0,-2.145,0
0,0,0,0,0,0,0.00023286,-0.00097286,1.6074e-34,-2.3546e-07,-7.7875e-18,4.3904e-22,1.5405,0.0011078,-0.00097286,6.2484e-32,0.00023286,-49.619,-234.77,-85.448,-0.036127,-1.1965e-12,6.2765e-17,170.09,-234.77,-85.448,-49.619,0,0.01572,0,1,2.15,0,-2.15,0
0,0,0,0,0,0,0.00023201,-0.00097053,1.6112e-34,-2.5006e-07,-7.7761e-18,5.1107e-22,1.5385,0.001105,-0.00097053,6.2475e-32,0.00023201,-49.579,-234.24,-85.277,-0.038373,-1.1947e-12,7.3942e-17,169.66,-234.24,-85.277,-49.579,0,0.015725,0,1,2.155,0,-2.155,0
0,0,0,0,0,0,0.00023116,-0.00096819,1.6132e-34,-2.6237e-07,-7.7578e-18,5.8098e-22,1.5365,0.0011021,-0.00096819,6.2404e-32,0.00023116,-49.538,-233.71,-85.105,-0.040266,-1.1919e-12,8.4794e-17,169.22,-233.71,-85.105,-49.538,0,0.01573,0,1,2.16,0,-2.16,0
0,0,0,0,0,0,0.00023031,-0.00096585,1.6135e-34,-2.7239e-07,-7.7327e-18,6.4876e-22,1.5345,0.0010993,-0.00096585,6.227e-32,0.00023031,-49.496,-233.18,-84.933,-0.041808,-1.1881e-12,9.532e-17,168.78,-233.18,-84.933,-49.496,0,0.015735,0,1,2.165,0,-2.165,0
0,0,0,0,0,0,0.00022947,-0.00096352,1.6122e-34,-2.8013e-07,-7.7008e-18,7.1441e-22,1.5325,0.0010964,-0.00096352,6.2075e-32,0.00022947,-49.453,-232.65,-84.76,-0.042998,-1.1832e-12,1.0552e-16,168.35,-232.65,-84.76,-49.453,0,0.01574,0,1,2.17,0,-2.17,0
0,0,0,0,0,0,0.00022863,-0.00096118,1.6091e-34,-2.8557e-07,-7.6621e-18,7.7793e-22,1.5305,0.0010936,-0.00096118,6.1818e-32,0.00022863,-49.409,-232.12,-84.587,-0.043836,-1.1772e-12,1.154e-16,167.91,-232.12,-84.587,-49.409,0,0.015745,0,1,2.175,0,-2.175,0
0,0,0,0,0,0,0.00022779,-0.00095884,1.6044e-34,-2.8873e-07,-7.6165e-18,8.3933e-22,1.5285,0.0010907,-0.00095884,6.1498e-32,0.00022779,-49.364,-231.59,-84.413,-0.044323,-1.1702e-12,1.2495e-16,167.47,-231.59,-84.413,-49.364,0,0.015749,0,1,2.18,0,-2.18,0
0,0,0,0,0,0,0.00022696,-0.0009565,1.5979e-34,-2.8961e-07,-7.5642e-18,8.986e-22,1.5265,0.0010879,-0.0009565,6.1117e-32,0.00022696,-49.318,-231.06,-84.239,-0.044457,-1.1622e-12,1.3417e-16,167.04,-231.06,-84.239,-49.318,0,0.015754,0,1,2.185,0,-2.185,0
0,0,0,0,0,0,0.00022613,-0.00095415,1.5898e-34,-2.8819e-07,-7.505e-18,9.5575e-22,1.5246,0.001085,-0.00095415,6.0673e-32,0.00022613,-49.271,-230.52,-84.064,-0.04424,-1.1531e-12,1.4307e-16,166.6,-230.52,-84.064,-49.271,0,0.015759,0,1,2.19,0,-2.19,0
0,0,0,0,0,0,0.00022531,-0.00095181,1.5799e-34,-2.8448e-07,-7.439e-18,1.0108e-21,1.5226,0.0010822,-0.00095181,6.0168e-32,0.00022531,-49.222,-229.99,-83.888,-0.043671,-1.1429e-12,1.5164e-16,166.17,-229.99,-83.888,-49.222,0,0.015764,0,1,2.195,0,-2.195,0
0,0,0,0,0,0,0.00022449,-0.00094947,1.5684e-34,-2.7849e-07,-7.3661e-18,1.0637e-21,1.5206,0.0010794,-0.00094947,5.96e-32,0.00022449,-49.173,-229.45,-83.712,-0.042751,-1.1317e-12,1.5989e-16,165.73,-229.45,-83.712,-49.173,0,0.015768,0,1,2.2,0,-2.2,0
0,0,0,0,0,0,0.00022367,-0.00094712,1.5551e-34,-2.7021e-07,-7.2864e-18,1.1144e-21,1.5186,0.0010765,-0.00094712,5.8971e-32,0.00022367,-49.122,-228.92,-83.536,-0.041478,-1.1195e-12,1.6781e-16,165.3,-228.92,-83.536,-49.122,0,0.015773,0,1,2.205,0,-2.205,0
0,0,0,0,0,0,0.00022285,-0.00094478,1.5402e-34,-2.5964e-07,-7.2e-18,1.163e-21,1.5166,0.0010737,-0.00094478,5.8279e-32,0.00022285,-49.071,-228.38,-83.359,-0.039854,-1.1062e-12,1.754e-16,164.86,-228.38,-83.359,-49.071,0,0.015778,0,1,2.21,0,-2.21,0
0,0,0,0,0,0,0.00022204,-0.00094243,1.5236e-34,-2.4679e-07,-7.1066e-18,1.2096e-21,1.5146,0.0010709,-0.00094243,5.7526e-32,0.00022204,-49.018,-227.85,-83.182,-0.037878,-1.0919e-12,1.8267e-16,164.43,-227.85,-83.182,-49.018,0,0.015783,0,1,2.215,0,-2.215,0
0,0,0,0,0,0,0.00022124,-0.00094008,1.5053e-34,-2.3164e-07,-7.0065e-18,1.2539e-21,1.5126,0.001068,-0.00094008,5.671e-32,0.00022124,-48.964,-227.31,-83.004,-0.03555,-1.0765e-12,1.8962e-16,163.99,-227.31,-83.004,-48.964,0,0.015787,0,1,2.22,0,-2.22,0
0,0,0,0,0,0,0.00022043,-0.00093773,1.4852e-34,-2.1421e-07,-6.8996e-18,1.2962e-21,1.5106,0.0010652,-0.00093773,5.5832e-32,0.00022043,-48.909,-226.77,-82.825,-0.03287,-1.0601e-12,1.9624e-16,163.56,-226.77,-82.825,-48.909,0,0.015792,0,1,2.225,0,-2.225,0
0,0,0,0,0,0,0.00021963,-0.00093538,1.4635e-34,-1.9449e-07,-6.7858e-18,1.3363e-21,1.5087,0.0010624,-0.00093538,5.4892e-32,0.00021963,-48.853,-226.23,-82.646,-0.029838,-1.0426e-12,2.0253e-16,163.13,-226.23,-82.646,-48.853,0,0.015797,0,1,2.23,0,-2.23,0
0,0,0,0,0,0,0.00021884,-0.00093303,1.4401e-34,-1.7248e-07,-6.6652e-18,1.3743e-21,1.5067,0.0010595,-0.00093303,5.3891e-32,0.00021884,-48.796,-225.69,-82.466,-0.026455,-1.0241e-12,2.085e-16,162.69,-225.69,-82.466,-48.796,0,0.015801,0,1,2.235,0,-2.235,0
0,0,0,0,0,0,0.00021804,-0.00093068,1.415e-34,-1.4818e-07,-6.5377e-18,1.4102e-21,1.5047,0.0010567,-0.00093068,5.2827e-32,0.00021804,-48.738,-225.15,-82.286,-0.02272,-1.0045e-12,2.1414e-16,162.26,-225.15,-82.286,-48.738,0,0.015806,0,1,2.24,0,-2.24,0
0,0,0,0,0,0,0.00021726,-0.00092833,1.3882e-34,-1.2159e-07,-6.4035e-18,1.4439e-21,1.5027,0.0010539,-0.00092833,5.1701e-32,0.00021726,-48.679,-224.61,-82.105,-0.018633,-9.8386e-13,2.1946e-16,161.83,-224.61,-82.105,-48.679,0,0.015811,0,1,2.245,0,-2.245,0
0,0,0,0,0,0,0.00021647,-0.00092597,1.3597e-34,-9.272e-08,-6.2624e-18,1.4755e-21,1.5007,0.0010511,-0.00092597,5.0513e-32,0.00021647,-48.619,-224.07,-81.924,-0.014194,-9.6219e-13,2.2445e-16,161.39,-224.07,-81.924,-48.619,0,0.015815,0,1,2.25,0,-2.25,0
0,0,0,0,0,0,0.00021569,-0.00092362,1.3295e-34,-6.1558e-08,-6.1145e-18,1.505e-21,1.4987,0.0010482,-0.00092362,4.9263e-32,0.00021569,-48.557,-223.53,-81.743,-0.0094038,-9.3946e-13,2.2911e-16,160.96,-223.53,-81.743,-48.557,0,0.01582,0,1,2.255,0,-2.255,0
0,0,0,0,0,0,0.00021491,-0.00092126,1.2976e-34,-2.8109e-08,-5.9598e-18,1.5324e-21,1.4967,0.0010454,-0.00092126,4.7951e-32,0.00021491,-48.495,-222.98,-81.56,-0.0042616,-9.1569e-13,2.3345e-16,160.53,-222.98,-81.56,-48.495,0,0.015824,0,1,2.26,0,-2.26,0
0,0,0,0,0,0,0.00021413,-0.00091891,1.264e-34,7.6293e-09,-5.7983e-18,1.5576e-21,1.4947,0.0010426,-0.00091891,4.6577e-32,0.00021413,-48.431,-222.44,-81.377,0.0012326,-8.9088e-13,2.3747e-16,160.1,-222.44,-81.377,-48.431,0,0.015829,0,1,2.265,0,-2.265,0
0,0,0,0,0,0,0.00021336,-0.00091655,1.2287e-34,4.5654e-08,-5.6299e-18,1.5807e-21,1.4928,0.0010398,-0.00091655,4.5141e-32,0.00021336,-48.366,-221.89,-81.194,0.0070783,-8.6501e-13,2.4116e-16,159.66,-221.89,-81.194,-48.366,0,0.015834,0,1,2.27,0,-2.27,0
0,0,0,0,0,0,0.0002126,-0.00091419,1.1917e-34,8.5969e-08,-5.4547e-18,1.6017e-21,1.4908,0.001037,-0.00091419,4.3643e-32,0.0002126,-48.301,-221.35,-81.01,0.013276,-8.3809e-13,2.4452e-16,159.23,-221.35,-81.01,-48.301,0,0.015838,0,1,2.275,0,-2.275,0
0,0,0,0,0,0,0.00021183,-0.00091183,1.153e-34,1.2857e-07,-5.2727e-18,1.6206e-21,1.4888,0.0010341,-0.00091183,4.2083e-32,0.00021183,-48.234,-220.8,-80.826,0.019826,-8.1013e-13,2.4756e-16,158.8,-220.8,-80.826,-48.234,0,0.015843,0,1,2.28,0,-2.28,0
0,0,0,0,0,0,0.00021107,-0.00090947,1.1126e-34,1.7346e-07,-5.0839e-18,1.6373e-21,1.4868,0.0010313,-0.00090947,4.0461e-32,0.00021107,-48.166,-220.26,-80.641,0.026727,-7.8112e-13,2.5027e-16,158.37,-220.26,-80.641,-48.166,0,0.015847,0,1,2.285,0,-2.285,0
0,0,0,0,0,0,0.00021032,-0.00090711,1.0705e-34,2.2064e-07,-4.8882e-18,1.6519e-21,1.4848,0.0010285,-0.00090711,3.8777e-32,0.00021032,-48.097,-219.71,-80.456,0.03398,-7.5106e-13,2.5265e-16,157.94,-219.71,-80.456,-48.097,0,0.015852,0,1,2.29,0,-2.29,0
0,0,0,0,0,0,0.00020956,-0.00090475,1.0267e-34,2.701e-07,-4.6858e-18,1.6644e-21,1.4828,0.0010257,-0.00090475,3.7031e-32,0.00020956,-48.027,-219.16,-80.27,0.041585,-7.1995e-13,2.5471e-16,157.51,-219.16,-80.27,-48.027,0,0.015856,0,1,2.295,0,-2.295,0
0,0,0,0,0,0,0.00020881,-0.00090238,9.8126e-35,3.2186e-07,-4.4765e-18,1.6747e-21,1.4808,0.0010229,-0.00090238,3.5223e-32,0.00020881,-47.956,-218.61,-80.083,0.049541,-6.878e-13,2.5645e-16,157.08,-218.61,-80.083,-47.956,0,0.015861,0,1,2.3,0,-2.3,0
0,0,0,0,0,0,0.00020807,-0.00090002,9.3408e-35,3.759e-07,-4.2603e-18,1.6829e-21,1.4789,0.0010201,-0.00090002,3.3353e-32,0.00020807,-47.884,-218.06,-79.896,0.05785,-6.5459e-13,2.5786e-16,156.65,-218.06,-79.896,-47.884,0,0.015865,0,1,2.305,0,-2.305,0
0,0,0,0,0,0,0.00020732,-0.00089765,8.8522e-35,4.3223e-07,-4.0374e-18,1.689e-21,1.4769,0.0010173,-0.00089765,3.142e-32,0.00020733,-47.81,-217.51,-79.709,0.06651,-6.2034e-13,2.5894e-16,156.22,-217.51,-79.709,-47.81,0,0.01587,0,1,2.31,0,-2.31,0
0,0,0,0,0,0,0.00020659,-0.00089529,8.3465e-35,4.9085e-07,-3.8076e-18,1.693e-21,1.4749,0.0010145,-0.00089529,2.9426e-32,0.00020659,-47.736,-216.96,-79.521,0.075522,-5.8504e-13,2.597e-16,155.78,-216.96,-79.521,-47.736,0,0.015874,0,1,2.315,0,-2.315,0
0,0,0,0,0,0,0.00020585,-0.00089292,7.8239e-35,5.5175e-07,-3.5711e-18,1.6948e-21,1.4729,0.0010117,-0.00089292,2.737e-32,0.00020585,-47.66,-216.41,-79.332,0.084886,-5.4869e-13,2.6013e-16,155.36,-216.41,-79.332,-47.66,0,0.015879,0,1,2.32,0,-2.32,0
0,0,0,0,0,0,0.00020512,-0.00089055,7.2843e-35,6.1495e-07,-3.3276e-18,1.6946e-21,1.4709,0.0010089,-0.00089055,2.5251e-32,0.00020512,-47.584,-215.86,-79.143,0.094602,-5.1129e-13,2.6024e-16,154.93,-215.86,-79.143,-47.584,0,0.015883,0,1,2.325,0,-2.325,0
0,0,0,0,0,0,0.00020439,-0.00088818,6.7277e-35,6.8043e-07,-3.0774e-18,1.6921e-21,1.4689,0.0010061,-0.00088818,2.3071e-32,0.00020439,-47.506,-215.31,-78.953,0.10467,-4.7285e-13,2.6002e-16,154.5,-215.31,-78.953,-47.506,0,0.015888,0,1,2.33,0,-2.33,0
0,0,0,0,0,0,0.00020367,-0.00088581,6.1541e-35,7.482e-07,-2.8204e-18,1.6876e-21,1.4669,0.0010033,-0.00088581,2.0829e-32,0.00020367,-47.427,-214.75,-78.763,0.11509,-4.3336e-13,2.5948e-16,154.07,-214.75,-78.763,-47.427,0,0.015892,0,1,2.335,0,-2.335,0
0,0,0,0,0,0,0.00020295,-0.00088344,5.5637e-35,8.1826e-07,-2.5565e-18,1.6809e-21,1.4649,0.0010005,-0.00088344,1.8524e-32,0.00020295,-47.348,-214.2,-78.572,0.12586,-3.9281e-13,2.5861e-16,153.64,-214.2,-78.572,-47.347,0,0.015897,0,1,2.34,0,-2.34,0
0,0,0,0,0,0,0.00020223,-0.00088107,4.9562e-35,8.9061e-07,-2.2858e-18,1.6721e-21,1.463,0.00099767,-0.00088107,1.6158e-32,0.00020223,-47.267,-213.64,-78.381,0.13698,-3.5122e-13,2.5741e-16,153.21,-213.65,-78.381,-47.267,0,0.015901,0,1,2.345,0,-2.345,0
0,0,0,0,0,0,0.00020152,-0.0008787,4.3317e-35,9.6524e-07,-2.0083e-18,1.6612e-21,1.461,0.00099488,-0.0008787,1.3729e-32,0.00020152,-47.185,-213.09,-78.189,0.14846,-3.0859e-13,2.5589e-16,152.78,-213.09,-78.189,-47.185,0,0.015905,0,1,2.35,0,-2.35,0
0,0,0,0,0,0,0.00020081,-0.00087632,3.6903e-35,1.0422e-06,-1.7239e-18,1.6481e-21,1.459,0.00099208,-0.00087632,1.1239e-32,0.00020081,-47.102,-212.53,-77.997,0.16028,-2.649e-13,2.5404e-16,152.35,-212.53,-77.997,-47.101,0,0.01591,0,1,2.355,0,-2.355,0
0,0,0,0,0,0,0.0002001,-0.00087395,3.032e-35,1.1214e-06,-1.4327e-18,1.633e-21,1.457,0.00098929,-0.00087395,8.6863e-33,0.0002001,-47.018,-211.98,-77.804,0.17246,-2.2016e-13,2.5187e-16,151.92,-211.98,-77.804,-47.017,0,0.015914,0,1,2.36,0,-2.36,0
0,0,0,0,0,0,0.0001994,-0.00087157,2.3566e-35,1.2029e-06,-1.1347e-18,1.6157e-21,1.455,0.0009865,-0.00087157,6.0716e-33,0.0001994,-46.932,-211.42,-77.611,0.18499,-1.7438e-13,2.4937e-16,151.5,-211.42,-77.611,-46.932,0,0.015918,0,1,2.365,0,-2.365,0
0,0,0,0,0,0,0.0001987,-0.00086919,1.6643e-35,1.2867e-06,-8.2993e-19,1.5962e-21,1.453,0.00098371,-0.00086919,3.395e-33,0.0001987,-46.846,-210.86,-77.417,0.19787,-1.2755e-13,2.4655e-16,151.07,-210.86,-77.417,-46.846,0,0.015923,0,1,2.37,0,-2.37,0
0,0,0,0,0,0,0.000198,-0.00086682,9.5499e-36,1.3727e-06,-5.1828e-19,1.5747e-21,1.451,0.00098092,-0.00086682,6.5632e-34,0.000198,-46.759,-210.3,-77.222,0.21111,-7.9669e-14,2.434e-16,150.64,-210.3,-77.222,-46.758,0,0.015927,0,1,2.375,0,-2.375,0
0,0,0,0,0,0,0.00019736,-0.00086514,1.0427e-35,1.3351e-06,-3.4242e-19,1.5472e-21,1.4496,0.00097886,-0.00086514,6.3771e-34,0.00019736,-46.738,-209.93,-77.103,0.20533,-5.2645e-14,2.3932e-16,150.32,-209.93,-77.103,-46.738,0,0.015931,0,1,2.38,0,-2.38,0
0,0,0,0,0,0,0.00019672,-0.00086357,1.2576e-35,1.2782e-06,-1.9247e-19,1.5192e-21,1.4483,0.00097691,-0.00086358,1.06e-33,0.00019673,-46.729,-209.58,-76.996,0.19657,-2.96e-14,2.3516e-16,150.03,-209.58,-76.996,-46.728,0,0.015936,0,1,2.385,0,-2.385,0
0,0,0,0,0,0,0.00019609,-0.00086201,1.4681e-35,1.2223e-06,-4.5902e-20,1.4916e-21,1.447,0.00097497,-0.00086201,1.4741e-33,0.00019609,-46.718,-209.23,-76.888,0.18798,-7.0761e-15,2.3105e-16,149.73,-209.23,-76.888,-46.718,0,0.01594,0,1,2.39,0,-2.39,0
0,0,0,0,0,0,0.00019546,-0.00086045,1.6741e-35,1.1675e-06,9.7263e-20,1.4643e-21,1.4457,0.00097302,-0.00086045,1.88e-33,0.00019546,-46.707,-208.88,-76.78,0.17955,1.4925e-14,2.2699e-16,149.43,-208.88,-76.78,-46.707,0,0.015944,0,1,2.395,0,-2.395,0
0,0,0,0,0,0,0.00019483,-0.00085888,1.8756e-35,1.1138e-06,2.3704e-19,1.4373e-21,1.4444,0.00097108,-0.00085888,2.2778e-33,0.00019484,-46.696,-208.54,-76.672,0.17129,3.6406e-14,2.2297e-16,149.13,-208.54,-76.672,-46.696,0,0.015949,0,1,2.4,0,-2.4,0
0,0,0,0,0,0,0.00019421,-0.00085732,2.0727e-35,1.0611e-06,3.7341e-19,1.4106e-21,1.4431,0.00096913,-0.00085732,2.6673e-33,0.00019421,-46.684,-208.19,-76.564,0.16319,5.7363e-14,2.19e-16,148.83,-208.19,-76.564,-46.683,0,0.015953,0,1,2.405,0,-2.405,0
0,0,0,0,0,0,0.00019359,-0.00085575,2.2653e-35,1.0095e-06,5.064e-19,1.3843e-21,1.4418,0.00096719,-0.00085575,3.0486e-33,0.00019359,-46.671,-207.84,-76.455,0.15525,7.78e-14,2.1508e-16,148.53,-207.84,-76.455,-46.671,0,0.015957,0,1,2.41,0,-2.41,0
0,0,0,0,0,0,0.00019296,-0.00085419,2.4535e-35,9.5897e-07,6.3598e-19,1.3582e-21,1.4404,0.00096525,-0.00085419,3.4217e-33,0.00019297,-46.657,-207.49,-76.346,0.14749,9.7714e-14,2.112e-16,148.24,-207.49,-76.346,-46.657,0,0.015962,0,1,2.415,0,-2.415,0
0,0,0,0,0,0,0.00019234,-0.00085262,2.6373e-35,9.095e-07,7.6217e-19,1.3325e-21,1.4391,0.00096331,-0.00085262,3.7866e-33,0.00019235,-46.643,-207.14,-76.236,0.13988,1.1711e-13,2.0737e-16,147.94,-207.14,-76.236,-46.643,0,0.015966,0,1,2.42,0,-2.42,0
0,0,0,0,0,0,0.00019173,-0.00085106,2.8166e-35,8.6111e-07,8.8497e-19,1.3072e-21,1.4378,0.00096137,-0.00085106,4.1433e-33,0.00019173,-46.628,-206.79,-76.127,0.13244,1.3598e-13,2.0359e-16,147.64,-206.79,-76.127,-46.628,0,0.01597,0,1,2.425,0,-2.425,0
0,0,0,0,0,0,0.00019111,-0.00084949,2.9914e-35,8.1378e-07,1.0044e-18,1.2821e-21,1.4365,0.00095944,-0.00084949,4.4918e-33,0.00019111,-46.613,-206.44,-76.017,0.12516,1.5433e-13,1.9985e-16,147.35,-206.44,-76.017,-46.613,0,0.015974,0,1,2.43,0,-2.43,0
0,0,0,0,0,0,0.0001905,-0.00084792,3.1618e-35,7.6753e-07,1.1204e-18,1.2574e-21,1.4352,0.0009575,-0.00084792,4.8321e-33,0.0001905,-46.597,-206.09,-75.906,0.11805,1.7215e-13,1.9616e-16,147.05,-206.09,-75.906,-46.597,0,0.015979,0,1,2.435,0,-2.435,0
0,0,0,0,0,0,0.00018989,-0.00084635,3.3278e-35,7.2234e-07,1.233e-18,1.233e-21,1.4339,0.00095556,-0.00084636,5.1642e-33,0.00018989,-46.58,-205.74,-75.796,0.1111,1.8946e-13,1.9251e-16,146.75,-205.74,-75.796,-46.58,0,0.015983,0,1,2.44,0,-2.44,0
0,0,0,0,0,0,0.00018928,-0.00084479,3.4893e-35,6.7823e-07,1.3422e-18,1.2089e-21,1.4326,0.00095363,-0.00084479,5.4881e-33,0.00018928,-46.563,-205.39,-75.685,0.10432,2.0624e-13,1.8892e-16,146.45,-205.39,-75.685,-46.563,0,0.015987,0,1,2.445,0,-2.445,0
0,0,0,0,0,0,0.00018868,-0.00084322,3.6463e-35,6.3518e-07,1.448e-18,1.1852e-21,1.4313,0.0009517,-0.00084322,5.8038e-33,0.00018868,-46.545,-205.04,-75.574,0.097699,2.2251e-13,1.8536e-16,146.16,-205.04,-75.574,-46.545,0,0.015991,0,1,2.45,0,-2.45,0
0,0,0,0,0,0,0.00018807,-0.00084165,3.7989e-35,5.932e-07,1.5504e-18,1.1617e-21,1.4299,0.00094976,-0.00084165,6.1113e-33,0.00018807,-46.527,-204.69,-75.462,0.091244,2.3825e-13,1.8186e-16,145.86,-204.69,-75.462,-46.527,0,0.015996,0,1,2.455,0,-2.455,0
0,0,0,0,0,0,0.00018747,-0.00084008,3.947e-35,5.5229e-07,1.6495e-18,1.1386e-21,1.4286,0.00094783,-0.00084008,6.4106e-33,0.00018747,-46.508,-204.33,-75.35,0.084953,2.5347e-13,1.784e-16,145.57,-204.33,-75.35,-46.507,0,0.016,0,1,2.46,0,-2.46,0
0,0,0,0,0,0,0.00018687,-0.00083851,4.0907e-35,5.1245e-07,1.7451e-18,1.1158e-21,1.4273,0.0009459,-0.00083851,6.7017e-33,0.00018687,-46.488,-203.98,-75.238,0.078827,2.6816e-13,1.7499e-16,145.27,-203.98,-75.238,-46.488,0,0.016004,0,1,2.465,0,-2.465,0
0,0,0,0,0,0,0.00018627,-0.00083694,4.23e-35,4.7367e-07,1.8373e-18,1.0934e-21,1.426,0.00094397,-0.00083694,6.9846e-33,0.00018627,-46.467,-203.63,-75.126,0.072865,2.8234e-13,1.7163e-16,144.97,-203.63,-75.126,-46.467,0,0.016008,0,1,2.47,0,-2.47,0
0,0,0,0,0,0,0.00018568,-0.00083537,4.3648e-35,4.3597e-07,1.9262e-18,1.0713e-21,1.4247,0.00094204,-0.00083537,7.2593e-33,0.00018568,-46.446,-203.28,-75.013,0.067068,2.9599e-13,1.6831e-16,144.68,-203.28,-75.013,-46.446,0,0.016012,0,1,2.475,0,-2.475,0
0,0,0,0,0,0,0.00018508,-0.0008338,4.4951e-35,3.9934e-07,2.0116e-18,1.0494e-21,1.4234,0.00094011,-0.0008338,7.5258e-33,0.00018509,-46.425,-202.92,-74.9,0.061435,3.0912e-13,1.6504e-16,144.38,-202.92,-74.9,-46.424,0,0.016017,0,1,2.48,0,-2.48,0
0,0,0,0,0,0,0.00018449,-0.00083223,4.621e-35,3.6377e-07,2.0937e-18,1.028e-21,1.4221,0.00093819,-0.00083223,7.7841e-33,0.00018449,-46.402,-202.57,-74.787,0.055967,3.2173e-13,1.6181e-16,144.09,-202.57,-74.787,-46.402,0,0.016021,0,1,2.485,0,-2.485,0
0,0,0,0,0,0,0.00018391,-0.00083066,4.7424e-35,3.2927e-07,2.1723e-18,1.0068e-21,1.4208,0.00093626,-0.00083066,8.0342e-33,0.00018391,-46.379,-202.21,-74.674,0.050662,3.3382e-13,1.5863e-16,143.79,-202.21,-74.674,-46.379,0,0.016025,0,1,2.49,0,-2.49,0
0,0,0,0,0,0,0.00018332,-0.00082909,4.8594e-35,2.9585e-07,2.2476e-18,9.8595e-22,1.4195,0.00093434,-0.00082909,8.2761e-33,0.00018332,-46.356,-201.86,-74.56,0.045522,3.4538e-13,1.555e-16,143.5,-201.86,-74.56,-46.356,0,0.016029,0,1,2.495,0,-2.495,0
0,0,0,0,0,0,0.00018273,-0.00082751,4.972e-35,2.6349e-07,2.3195e-18,9.6543e-22,1.4181,0.00093241,-0.00082751,8.5098e-33,0.00018273,-46.332,-201.5,-74.446,0.040547,3.5643e-13,1.5242e-16,143.2,-201.5,-74.446,-46.331,0,0.016033,0,1,2.5,0,-2.5,0
0,0,0,0,0,0,0.00018215,-0.00082594,5.0801e-35,2.322e-07,2.3879e-18,9.4524e-22,1.4168,0.00093049,-0.00082594,8.7353e-33,0.00018215,-46.307,-201.15,-74.331,0.035736,3.6695e-13,1.4938e-16,142.91,-201.15,-74.331,-46.307,0,0.016037,0,1,2.505,0,-2.505,0
0,0,0,0,0,0,0.00018157,-0.00082437,5.1837e-35,2.0198e-07,2.453e-18,9.2537e-22,1.4155,0.00092857,-0.00082437,8.9525e-33,0.00018157,-46.281,-200.79,-74.217,0.031089,3.7695e-13,1.4639e-16,142.61,-200.79,-74.217,-46.281,0,0.016042,0,1,2.51,0,-2.51,0
0,0,0,0,0,0,0.00018099,-0.00082279,5.2829e-35,1.7283e-07,2.5147e-18,9.0583e-22,1.4142,0.00092665,-0.0008228,9.1616e-33,0.00018099,-46.255,-200.44,-74.101,0.026607,3.8643e-13,1.4344e-16,142.32,-200.44,-74.101,-46.255,0,0.016046,0,1,2.515,0,-2.515,0
0,0,0,0,0,0,0.00018042,-0.00082122,5.3776e-35,1.4475e-07,2.573e-18,8.8661e-22,1.4129,0.00092473,-0.00082122,9.3625e-33,0.00018042,-46.228,-200.08,-73.986,0.022289,3.9539e-13,1.4055e-16,142.02,-200.08,-73.986,-46.228,0,0.01605,0,1,2.52,0,-2.52,0
0,0,0,0,0,0,0.00017984,-0.00081965,5.4679e-35,1.1774e-07,2.6278e-18,8.6771e-22,1.4116,0.00092281,-0.00081965,9.5552e-33,0.00017985,-46.201,-199.72,-73.871,0.018135,4.0382e-13,1.3769e-16,141.73,-199.72,-73.871,-46.201,0,0.016054,0,1,2.525,0,-2.525,0
0,0,0,0,0,0,0.00017927,-0.00081807,5.5538e-35,9.1792e-08,2.6793e-18,8.4914e-22,1.4103,0.0009209,-0.00081807,9.7397e-33,0.00017927,-46.173,-199.37,-73.755,0.014146,4.1174e-13,1.3489e-16,141.43,-199.37,-73.755,-46.173,0,0.016058,0,1,2.53,0,-2.53,0
0,0,0,0,0,0,0.0001787,-0.0008165,5.6352e-35,6.6917e-08,2.7274e-18,8.3088e-22,1.409,0.00091898,-0.0008165,9.916e-33,0.0001787,-46.144,-199.01,-73.638,0.010321,4.1913e-13,1.3213e-16,141.14,-199.01,-73.638,-46.144,0,0.016062,0,1,2.535,0,-2.535,0
0,0,0,0,0,0,0.00017814,-0.00081492,5.7121e-35,4.3112e-08,2.7721e-18,8.1296e-22,1.4076,0.00091706,-0.00081492,1.0084e-32,0.00017814,-46.115,-198.65,-73.522,0.0066607,4.26e-13,1.2942e-16,140.85,-198.65,-73.522,-46.115,0,0.016066,0,1,2.54,0,-2.54,0
0,0,0,0,0,0,0.00017757,-0.00081335,5.7846e-35,2.0376e-08,2.8134e-18,7.9536e-22,1.4063,0.00091515,-0.00081335,1.0244e-32,0.00017757,-46.085,-198.29,-73.405,0.0031645,4.3235e-13,1.2675e-16,140.55,-198.29,-73.405,-46.085,0,0.01607,0,1,2.545,0,-2.545,0
0,0,0,0,0,0,0.00017701,-0.00081177,5.8526e-35,-1.2913e-09,2.8514e-18,7.7808e-22,1.405,0.00091324,-0.00081177,1.0396e-32,0.00017701,-46.055,-197.93,-73.288,-0.00016713,4.3817e-13,1.2414e-16,140.26,-197.93,-73.288,-46.055,0,0.016074,0,1,2.55,0,-2.55,0
0,0,0,0,0,0,0.00017645,-0.00081019,5.9162e-35,-2.189e-08,2.8859e-18,7.6112e-22,1.4037,0.00091132,-0.00081019,1.0539e-32,0.00017645,-46.024,-197.57,-73.171,-0.0033345,4.4348e-13,1.2156e-16,139.97,-197.57,-73.171,-46.024,0,0.016078,0,1,2.555,0,-2.555,0
0,0,0,0,0,0,0.00017589,-0.00080862,5.9753e-35,-4.1419e-08,2.917e-18,7.4449e-22,1.4024,0.00090941,-0.00080862,1.0674e-32,0.00017589,-45.992,-197.21,-73.053,-0.0063374,4.4826e-13,1.1904e-16,139.67,-197.21,-73.053,-45.992,0,0.016082,0,1,2.56,0,-2.56,0
0,0,0,0,0,0,0.00017533,-0.00080704,6.03e-35,-5.9879e-08,2.9447e-18,7.2818e-22,1.4011,0.0009075,-0.00080704,1.0801e-32,0.00017534,-45.959,-196.85,-72.935,-0.0091761,4.5252e-13,1.1656e-16,139.38,-196.85,-72.935,-45.959,0,0.016086,0,1,2.565,0,-2.565,0
0,0,0,0,0,0,0.00017478,-0.00080546,6.0803e-35,-7.727e-08,2.969e-18,7.122e-22,1.3998,0.00090559,-0.00080546,1.092e-32,0.00017478,-45.926,-196.49,-72.817,-0.01185,4.5626e-13,1.1413e-16,139.09,-196.49,-72.817,-45.926,0,0.01609,0,1,2.57,0,-2.57,0
0,0,0,0,0,0,0.00017423,-0.00080388,6.126e-35,-9.3592e-08,2.99e-18,6.9654e-22,1.3985,0.00090369,-0.00080388,1.1031e-32,0.00017423,-45.893,-196.13,-72.698,-0.01436,4.5948e-13,1.1174e-16,138.79,-196.13,-72.698,-45.893,0,0.016095,0,1,2.575,0,-2.575,0
0,0,0,0,0,0,0.00017368,-0.0008023,6.1674e-35,-1.0885e-07,3.0075e-18,6.812e-22,1.3972,0.00090178,-0.0008023,1.1134e-32,0.00017368,-45.859,-195.77,-72.579,-0.016705,4.6217e-13,1.094e-16,138.5,-195.77,-72.579,-45.858,0,0.016099,0,1,2.58,0,-2.58,0
0,0,0,0,0,0,0.00017313,-0.00080072,6.2043e-35,-1.2303e-07,3.0217e-18,6.6619e-22,1.3958,0.00089987,-0.00080072,1.1228e-32,0.00017313,-45.824,-195.41,-72.46,-0.018887,4.6435e-13,1.0711e-16,138.21,-195.41,-72.46,-45.824,0,0.016103,0,1,2.585,0,-2.585,0
0,0,0,0,0,0,0.00017259,-0.00079915,6.2367e-35,-1.3614e-07,3.0324e-18,6.515e-22,1.3945,0.00089797,-0.00079915,1.1314e-32,0.00017259,-45.788,-195.05,-72.341,-0.020903,4.66e-13,1.0487e-16,137.92,-195.05,-72.341,-45.788,0,0.016107,0,1,2.59,0,-2.59,0
0,0,0,0,0,0,0.00017204,-0.00079757,6.2647e-35,-1.4819e-07,3.0398e-18,6.3713e-22,1.3932,0.00089606,-0.00079757,1.1392e-32,0.00017204,-45.752,-194.69,-72.221,-0.022756,4.6713e-13,1.0267e-16,137.63,-194.69,-72.221,-45.752,0,0.016111,0,1,2.595,0,-2.595,0
0,0,0,0,0,0,0.0001715,-0.00079599,6.2882e-35,-1.5917e-07,3.0437e-18,6.2309e-22,1.3919,0.00089416,-0.00079599,1.1461e-32,0.0001715,-45.715,-194.33,-72.101,-0.024443,4.6774e-13,1.0051e-16,137.33,-194.33,-72.101,-45.715,0,0.016115,0,1,2.6,0,-2.6,0
0,0,0,0,0,0,0.00017096,-0.0007944,6.3073e-35,-1.6907e-07,3.0443e-18,6.0937e-22,1.3906,0.00089226,-0.0007944,1.1523e-32,0.00017096,-45.678,-193.96,-71.98,-0.025967,4.6782e-13,9.8409e-17,137.04,-193.96,-71.98,-45.678,0,0.016119,0,1,2.605,0,-2.605,0
0,0,0,0,0,0,0.00017043,-0.00079282,6.3219e-35,-1.7791e-07,3.0414e-18,5.9598e-22,1.3893,0.00089036,-0.00079282,1.1576e-32,0.00017043,-45.639,-193.6,-71.86,-0.027326,4.6739e-13,9.635e-17,136.75,-193.6,-71.86,-45.639,0,0.016122,0,1,2.61,0,-2.61,0
0,0,0,0,0,0,0.00016989,-0.00079124,6.3321e-35,-1.8568e-07,3.0352e-18,5.8291e-22,1.388,0.00088846,-0.00079124,1.1621e-32,0.00016989,-45.601,-193.24,-71.739,-0.028521,4.6643e-13,9.4337e-17,136.46,-193.24,-71.739,-45.601,0,0.016126,0,1,2.615,0,-2.615,0
0,0,0,0,0,0,0.00016936,-0.00078966,6.3379e-35,-1.9238e-07,3.0256e-18,5.7016e-22,1.3867,0.00088656,-0.00078966,1.1658e-32,0.00016936,-45.561,-192.87,-71.618,-0.029551,4.6495e-13,9.2371e-17,136.17,-192.87,-71.618,-45.561,0,0.01613,0,1,2.62,0,-2.62,0
0,0,0,0,0,0,0.00016883,-0.00078808,6.3391e-35,-1.9801e-07,3.0126e-18,5.5774e-22,1.3853,0.00088466,-0.00078808,1.1687e-32,0.00016883,-45.521,-192.51,-71.496,-0.030418,4.6295e-13,9.0452e-17,135.88,-192.51,-71.496,-45.521,0,0.016134,0,1,2.625,0,-2.625,0
0,0,0,0,0,0,0.0001683,-0.0007865,6.336e-35,-2.0258e-07,2.9962e-18,5.4564e-22,1.384,0.00088276,-0.0007865,1.1707e-32,0.0001683,-45.481,-192.15,-71.374,-0.031119,4.6043e-13,8.858e-17,135.59,-192.15,-71.374,-45.481,0,0.016138,0,1,2.63,0,-2.63,0
0,0,0,0,0,0,0.00016778,-0.00078491,6.3284e-35,-2.0607e-07,2.9763e-18,5.3386e-22,1.3827,0.00088087,-0.00078491,1.1719e-32,0.00016778,-45.44,-191.78,-71.252,-0.031657,4.5738e-13,8.6754e-17,135.29,-191.78,-71.252,-45.44,0,0.016142,0,1,2.635,0,-2.635,0
0,0,0,0,0,0,0.00016725,-0.00078333,6.3163e-35,-2.0849e-07,2.9531e-18,5.2241e-22,1.3814,0.00087897,-0.00078333,1.1724e-32,0.00016725,-45.398,-191.42,-71.13,-0.032029,4.5382e-13,8.4974e-17,135,-191.42,-71.13,-45.398,0,0.016146,0,1,2.64,0,-2.64,0
0,0,0,0,0,0,0.00016673,-0.00078175,6.2998e-35,-2.0985e-07,2.9265e-18,5.1128e-22,1.3801,0.00087708,-0.00078175,1.1719e-32,0.00016673,-45.355,-191.05,-71.007,-0.032238,4.4973e-13,8.3242e-17,134.71,-191.05,-71.007,-45.355,0,0.01615,0,1,2.645,0,-2.645,0
0,0,0,0,0,0,0.00016621,-0.00078016,6.2788e-35,-2.1014e-07,2.8965e-18,5.0048e-22,1.3788,0.00087518,-0.00078016,1.1707e-32,0.00016621,-45.312,-190.68,-70.884,-0.032282,4.4512e-13,8.1556e-17,134.42,-190.68,-70.884,-45.312,0,0.016154,0,1,2.65,0,-2.65,0
0,0,0,0,0,0,0.0001657,-0.00077858,6.2534e-35,-2.0935e-07,2.8631e-18,4.8999e-22,1.3775,0.00087329,-0.00077858,1.1687e-32,0.0001657,-45.268,-190.32,-70.76,-0.032162,4.3999e-13,7.9916e-17,134.13,-190.32,-70.76,-45.268,0,0.016158,0,1,2.655,0,-2.655,0
0,0,0,0,0,0,0.00016518,-0.00077699,6.2235e-35,-2.075e-07,2.8264e-18,4.7984e-22,1.3762,0.0008714,-0.00077699,1.1658e-32,0.00016518,-45.224,-189.95,-70.637,-0.031877,4.3434e-13,7.8323e-17,133.84,-189.95,-70.637,-45.224,0,0.016162,0,1,2.66,0,-2.66,0
0,0,0,0,0,0,0.00016467,-0.00077541,6.1892e-35,-2.0458e-07,2.7862e-18,4.7e-22,1.3749,0.00086951,-0.00077541,1.1621e-32,0.00016467,-45.179,-189.58,-70.513,-0.031428,4.2816e-13,7.6777e-17,133.55,-189.58,-70.513,-45.179,0,0.016166,0,1,2.665,0,-2.665,0
0,0,0,0,0,0,0.00016416,-0.00077382,6.1504e-35,-2.0059e-07,2.7426e-18,4.6049e-22,1.3735,0.00086762,-0.00077382,1.1576e-32,0.00016416,-45.133,-189.22,-70.389,-0.030815,4.2147e-13,7.5278e-17,133.26,-189.22,-70.389,-45.133,0,0.016169,0,1,2.67,0,-2.67,0
0,0,0,0,0,0,0.00016365,-0.00077223,6.1072e-35,-1.9553e-07,2.6956e-18,4.5131e-22,1.3722,0.00086573,-0.00077223,1.1522e-32,0.00016365,-45.087,-188.85,-70.264,-0.030037,4.1425e-13,7.3825e-17,132.97,-188.85,-70.264,-45.087,0,0.016173,0,1,2.675,0,-2.675,0
0,0,0,0,0,0,0.00016314,-0.00077065,6.0595e-35,-1.894e-07,2.6453e-18,4.4244e-22,1.3709,0.00086385,-0.00077065,1.1461e-32,0.00016314,-45.04,-188.48,-70.139,-0.029095,4.0651e-13,7.2419e-17,132.68,-188.48,-70.139,-45.04,0,0.016177,0,1,2.68,0,-2.68,0
0,0,0,0,0,0,0.00016264,-0.00076906,6.0074e-35,-1.8221e-07,2.5915e-18,4.3391e-22,1.3696,0.00086196,-0.00076906,1.1391e-32,0.00016264,-44.993,-188.11,-70.014,-0.027989,3.9824e-13,7.1059e-17,132.39,-188.11,-70.014,-44.993,0,0.016181,0,1,2.685,0,-2.685,0
0,0,0,0,0,0,0.00016214,-0.00076747,5.9508e-35,-1.7394e-07,2.5343e-18,4.2569e-22,1.3683,0.00086008,-0.00076747,1.1313e-32,0.00016214,-44.944,-187.74,-69.889,-0.026718,3.8946e-13,6.9746e-17,132.11,-187.74,-69.889,-44.944,0,0.016185,0,1,2.69,0,-2.69,0
0,0,0,0,0,0,0.00016164,-0.00076589,5.8898e-35,-1.646e-07,2.4738e-18,4.178e-22,1.367,0.00085819,-0.00076589,1.1227e-32,0.00016164,-44.896,-187.38,-69.763,-0.025283,3.8016e-13,6.8479e-17,131.82,-187.38,-69.763,-44.896,0,0.016189,0,1,2.695,0,-2.695,0
0,0,0,0,0,0,0.00016114,-0.0007643,5.8243e-35,-1.542e-07,2.4098e-18,4.1023e-22,1.3657,0.00085631,-0.0007643,1.1133e-32,0.00016114,-44.846,-187.01,-69.637,-0.023683,3.7033e-13,6.726e-17,131.53,-187.01,-69.637,-44.846,0,0.016193,0,1,2.7,0,-2.7,0
0,0,0,0,0,0,0.00016064,-0.00076271,5.7544e-35,-1.4273e-07,2.3425e-18,4.0299e-22,1.3644,0.00085443,-0.00076271,1.103e-32,0.00016064,-44.796,-186.64,-69.511,-0.021919,3.5998e-13,6.6086e-17,131.24,-186.64,-69.511,-44.796,0,0.016196,0,1,2.705,0,-2.705,0
0,0,0,0,0,0,0.00016015,-0.00076112,5.6801e-35,-1.3018e-07,2.2717e-18,3.9607e-22,1.363,0.00085255,-0.00076112,1.0919e-32,0.00016015,-44.745,-186.27,-69.384,-0.019991,3.4911e-13,6.496e-17,130.95,-186.27,-69.384,-44.745,0,0.0162,0,1,2.71,0,-2.71,0
0,0,0,0,0,0,0.00015966,-0.00075953,5.6012e-35,-1.1657e-07,2.1976e-18,3.8947e-22,1.3617,0.00085067,-0.00075953,1.08e-32,0.00015966,-44.694,-185.9,-69.257,-0.017898,3.3771e-13,6.388e-17,130.66,-185.9,-69.257,-44.694,0,0.016204,0,1,2.715,0,-2.715,0
0,0,0,0,0,0,0.00015917,-0.00075794,5.518e-35,-1.0189e-07,2.1201e-18,3.832e-22,1.3604,0.00084879,-0.00075794,1.0673e-32,0.00015917,-44.642,-185.52,-69.13,-0.015641,3.258e-13,6.2847e-17,130.37,-185.52,-69.13,-44.642,0,0.016208,0,1,2.72,0,-2.72,0
0,0,0,0,0,0,0.00015868,-0.00075635,5.4302e-35,-8.6141e-08,2.0391e-18,3.7725e-22,1.3591,0.00084691,-0.00075635,1.0538e-32,0.00015868,-44.59,-185.15,-69.003,-0.01322,3.1336e-13,6.186e-17,130.09,-185.15,-69.003,-44.59,0,0.016212,0,1,2.725,0,-2.725,0
0,0,0,0,0,0,0.0001582,-0.00075476,5.3381e-35,-6.9322e-08,1.9548e-18,3.7162e-22,1.3578,0.00084503,-0.00075476,1.0394e-32,0.0001582,-44.536,-184.78,-68.875,-0.010634,3.0041e-13,6.092e-17,129.8,-184.78,-68.875,-44.536,0,0.016215,0,1,2.73,0,-2.73,0
0,0,0,0,0,0,0.00015772,-0.00075317,5.2414e-35,-5.1434e-08,1.8671e-18,3.6632e-22,1.3565,0.00084316,-0.00075317,1.0243e-32,0.00015772,-44.482,-184.41,-68.747,-0.0078835,2.8693e-13,6.0026e-17,129.51,-184.41,-68.747,-44.482,0,0.016219,0,1,2.735,0,-2.735,0
0,0,0,0,0,0,0.00015724,-0.00075158,5.1404e-35,-3.2477e-08,1.776e-18,3.6134e-22,1.3552,0.00084128,-0.00075158,1.0083e-32,0.00015724,-44.428,-184.04,-68.619,-0.0049689,2.7292e-13,5.918e-17,129.22,-184.04,-68.619,-44.428,0,0.016223,0,1,2.74,0,-2.74,0
0,0,0,0,0,0,0.00015676,-0.00074999,5.0348e-35,-1.2451e-08,1.6815e-18,3.5669e-22,1.3539,0.00083941,-0.00074999,9.9145e-33,0.00015676,-44.373,-183.66,-68.49,-0.0018899,2.584e-13,5.8379e-17,128.94,-183.66,-68.49,-44.373,0,0.016227,0,1,2.745,0,-2.745,0
0,0,0,0,0,0,0.00015628,-0.00074839,4.9249e-35,8.6442e-09,1.5836e-18,3.5236e-22,1.3526,0.00083754,-0.00074839,9.7381e-33,0.00015628,-44.317,-183.29,-68.361,0.0013535,2.4335e-13,5.7626e-17,128.65,-183.29,-68.361,-44.317,0,0.01623,0,1,2.75,0,-2.75,0
0,0,0,0,0,0,0.00015581,-0.0007468,4.8104e-35,3.0809e-08,1.4823e-18,3.4835e-22,1.3512,0.00083567,-0.0007468,9.5536e-33,0.00015581,-44.261,-182.92,-68.232,0.0047613,2.2779e-13,5.6919e-17,128.36,-182.92,-68.232,-44.261,0,0.016234,0,1,2.755,0,-2.755,0
0,0,0,0,0,0,0.00015534,-0.00074521,4.6916e-35,5.4042e-08,1.3776e-18,3.4467e-22,1.3499,0.0008338,-0.00074521,9.3608e-33,0.00015534,-44.204,-182.54,-68.102,0.0083333,2.117e-13,5.6258e-17,128.07,-182.54,-68.102,-44.204,0,0.016238,0,1,2.76,0,-2.76,0
0,0,0,0,0,0,0.00015487,-0.00074361,4.5682e-35,7.8344e-08,1.2695e-18,3.4131e-22,1.3486,0.00083193,-0.00074361,9.1598e-33,0.00015487,-44.146,-182.17,-67.972,0.01207,1.9509e-13,5.5645e-17,127.79,-182.17,-67.972,-44.146,0,0.016242,0,1,2.765,0,-2.765,0
0,0,0,0,0,0,0.0001544,-0.00074202,4.4405e-35,1.0372e-07,1.158e-18,3.3827e-22,1.3473,0.00083006,-0.00074202,8.9507e-33,0.0001544,-44.088,-181.8,-67.842,0.015971,1.7796e-13,5.5078e-17,127.5,-181.8,-67.842,-44.088,0,0.016245,0,1,2.77,0,-2.77,0
0,0,0,0,0,0,0.00015394,-0.00074043,4.3082e-35,1.3016e-07,1.0431e-18,3.3556e-22,1.346,0.00082819,-0.00074043,8.7333e-33,0.00015394,-44.029,-181.42,-67.712,0.020036,1.603e-13,5.4557e-17,127.21,-181.42,-67.712,-44.029,0,0.016249,0,1,2.775,0,-2.775,0
0,0,0,0,0,0,0.00015347,-0.00073883,4.1716e-35,1.5766e-07,9.2484e-19,3.3317e-22,1.3447,0.00082632,-0.00073883,8.5078e-33,0.00015347,-43.969,-181.05,-67.581,0.024266,1.4213e-13,5.4083e-17,126.93,-181.05,-67.581,-43.969,0,0.016253,0,1,2.78,0,-2.78,0
0,0,0,0,0,0,0.00015301,-0.00073724,4.0304e-35,1.8624e-07,8.0316e-19,3.3111e-22,1.3434,0.00082446,-0.00073724,8.274e-33,0.00015301,-43.909,-180.67,-67.45,0.02866,1.2343e-13,5.3656e-17,126.64,-180.67,-67.45,-43.909,0,0.016256,0,1,2.785,0,-2.785,0
0,0,0,0,0,0,0.00015255,-0.00073564,3.8849e-35,2.1589e-07,6.781e-19,3.2936e-22,1.3421,0.00082259,-0.00073564,8.032e-33,0.00015255,-43.849,-180.29,-67.319,0.033218,1.0421e-13,5.3276e-17,126.36,-180.29,-67.319,-43.848,0,0.01626,0,1,2.79,0,-2.79,0
0,0,0,0,0,0,0.0001521,-0.00073405,3.7348e-35,2.4661e-07,5.4963e-19,3.2795e-22,1.3407,0.00082073,-0.00073405,7.7819e-33,0.0001521,-43.787,-179.92,-67.187,0.037941,8.4466e-14,5.2942e-17,126.07,-179.92,-67.187,-43.787,0,0.016264,0,1,2.795,0,-2.795,0
0,0,0,0,0,0,0.00015164,-0.00073245,3.5803e-35,2.7839e-07,4.1778e-19,3.2685e-22,1.3394,0.00081887,-0.00073245,7.5235e-33,0.00015164,-43.725,-179.54,-67.055,0.042828,6.4203e-14,5.2654e-17,125.78,-179.54,-67.055,-43.725,0,0.016267,0,1,2.8,0,-2.8,0
0,0,0,0,0,0,0.00015119,-0.00073085,3.4214e-35,3.1125e-07,2.8252e-19,3.2608e-22,1.3381,0.00081701,-0.00073085,7.2569e-33,0.00015119,-43.662,-179.16,-66.923,0.047879,4.3418e-14,5.2414e-17,125.5,-179.16,-66.923,-43.662,0,0.016271,0,1,2.805,0,-2.805,0
0,0,0,0,0,0,0.00015074,-0.00072926,3.258e-35,3.4517e-07,1.4387e-19,3.2564e-22,1.3368,0.00081515,-0.00072926,6.9822e-33,0.00015074,-43.599,-178.79,-66.79,0.053095,2.2111e-14,5.2219e-17,125.21,-178.79,-66.79,-43.599,0,0.016275,0,1,2.81,0,-2.81,0
0,0,0,0,0,0,0.00015029,-0.00072766,3.0902e-35,3.8017e-07,1.8236e-21,3.2552e-22,1.3355,0.00081329,-0.00072766,6.6992e-33,0.00015029,-43.535,-178.41,-66.658,0.058476,2.8232e-16,5.2072e-17,124.93,-178.41,-66.658,-43.535,0,0.016278,0,1,2.815,0,-2.815,0
0,0,0,0,0,0,0.00014985,-0.00072606,2.9179e-35,4.1623e-07,-1.4361e-19,3.2572e-22,1.3342,0.00081143,-0.00072606,6.408e-33,0.00014985,-43.471,-178.03,-66.524,0.06402,-2.2068e-14,5.1971e-17,124.64,-178.03,-66.524,-43.47,0,0.016282,0,1,2.82,0,-2.82,0
0,0,0,0,0,0,0.00014941,-0.00072446,2.7412e-35,4.5336e-07,-2.9245e-19,3.2624e-22,1.3329,0.00080957,-0.00072446,6.1087e-33,0.00014941,-43.405,-177.65,-66.391,0.069729,-4.494e-14,5.1917e-17,124.36,-177.65,-66.391,-43.405,0,0.016285,0,1,2.825,0,-2.825,0
0,0,0,0,0,0,0.00014896,-0.00072287,2.56e-35,4.9156e-07,-4.4468e-19,3.2709e-22,1.3316,0.00080771,-0.00072287,5.8011e-33,0.00014897,-43.34,-177.27,-66.257,0.075602,-6.8334e-14,5.1909e-17,124.07,-177.27,-66.257,-43.339,0,0.016289,0,1,2.83,0,-2.83,0
0,0,0,0,0,0,0.00014853,-0.00072127,2.3744e-35,5.3083e-07,-6.0031e-19,3.2826e-22,1.3303,0.00080586,-0.00072127,5.4853e-33,0.00014853,-43.273,-176.9,-66.123,0.08164,-9.225e-14,5.1948e-17,123.79,-176.9,-66.123,-43.273,0,0.016293,0,1,2.835,0,-2.835,0
0,0,0,0,0,0,0.00014809,-0.00071967,2.1843e-35,5.7116e-07,-7.5933e-19,3.2976e-22,1.3289,0.000804,-0.00071967,5.1614e-33,0.00014809,-43.206,-176.52,-65.989,0.087842,-1.1669e-13,5.2034e-17,123.5,-176.52,-65.989,-43.206,0,0.016296,0,1,2.84,0,-2.84,0
0,0,0,0,0,0,0.00014765,-0.00071807,1.9898e-35,6.1257e-07,-9.2175e-19,3.3158e-22,1.3276,0.00080215,-0.00071807,4.8292e-33,0.00014766,-43.138,-176.14,-65.855,0.094209,-1.4165e-13,5.2166e-17,123.22,-176.14,-65.855,-43.138,0,0.0163,0,1,2.845,0,-2.845,0
0,0,0,0,0,0,0.00014722,-0.00071647,1.7908e-35,6.5505e-07,-1.0876e-18,3.3372e-22,1.3263,0.0008003,-0.00071647,4.4888e-33,0.00014722,-43.07,-175.76,-65.72,0.10074,-1.6713e-13,5.2345e-17,122.94,-175.76,-65.72,-43.07,0,0.016303,0,1,2.85,0,-2.85,0
0,0,0,0,0,0,0.00014679,-0.00071487,1.5874e-35,6.9859e-07,-1.2568e-18,3.3619e-22,1.325,0.00079845,-0.00071487,4.1402e-33,0.00014679,-43.001,-175.38,-65.584,0.10744,-1.9313e-13,5.2571e-17,122.65,-175.38,-65.584,-43.001,0,0.016307,0,1,2.855,0,-2.855,0
0,0,0,0,0,0,0.00014636,-0.00071327,1.3795e-35,7.4321e-07,-1.4294e-18,3.3898e-22,1.3237,0.0007966,-0.00071327,3.7835e-33,0.00014636,-42.931,-174.99,-65.449,0.11429,-2.1965e-13,5.2843e-17,122.37,-174.99,-65.449,-42.931,0,0.016311,0,1,2.86,0,-2.86,0
0,0,0,0,0,0,0.00014594,-0.00071176,1.2231e-35,7.7465e-07,-1.604e-18,3.2725e-22,1.3225,0.00079484,-0.00071176,3.6018e-33,0.00014594,-42.871,-174.64,-65.323,0.11913,-2.465e-13,5.0882e-17,122.1,-174.64,-65.323,-42.87,0,0.016314,0,1,2.865,0,-2.865,0
0,0,0,0,0,0,0.00014555,-0.00071067,1.3117e-35,7.4367e-07,-1.7717e-18,2.5044e-22,1.3216,0.00079352,-0.00071067,4.2272e-33,0.00014555,-42.851,-174.39,-65.243,0.11436,-2.7226e-13,3.8933e-17,121.9,-174.39,-65.243,-42.851,0,0.016318,0,1,2.87,0,-2.87,0
0,0,0,0,0,0,0.00014515,-0.00070958,1.3977e-35,7.1321e-07,-1.9349e-18,1.7472e-22,1.3207,0.00079219,-0.00070958,4.8481e-33,0.00014515,-42.832,-174.14,-65.163,0.10968,-2.9736e-13,2.7153e-17,121.69,-174.14,-65.163,-42.832,0,0.016321,0,1,2.875,0,-2.875,0
0,0,0,0,0,0,0.00014476,-0.00070848,1.481e-35,6.8329e-07,-2.0939e-18,1.0009e-22,1.3198,0.00079086,-0.00070849,5.4645e-33,0.00014476,-42.812,-173.89,-65.082,0.10508,-3.218e-13,1.5544e-17,121.49,-173.89,-65.082,-42.812,0,0.016325,0,1,2.88,0,-2.88,0
0,0,0,0,0,0,0.00014436,-0.00070739,1.5617e-35,6.539e-07,-2.2485e-18,2.655e-23,1.319,0.00078954,-0.00070739,6.0762e-33,0.00014437,-42.791,-173.65,-65.001,0.10056,-3.4556e-13,4.1043e-18,121.29,-173.65,-65.001,-42.791,0,0.016328,0,1,2.885,0,-2.885,0
0,0,0,0,0,0,0.00014397,-0.0007063,1.6397e-35,6.2503e-07,-2.3988e-18,-4.591e-23,1.3181,0.00078821,-0.0007063,6.6834e-33,0.00014397,-42.771,-173.4,-64.921,0.096123,-3.6866e-13,-7.1654e-18,121.08,-173.4,-64.921,-42.771,0,0.016332,0,1,2.89,0,-2.89,0
0,0,0,0,0,0,0.00014358,-0.00070521,1.7151e-35,5.967e-07,-2.5447e-18,-1.1728e-22,1.3172,0.00078689,-0.00070521,7.2861e-33,0.00014358,-42.75,-173.15,-64.839,0.091766,-3.9109e-13,-1.8265e-17,120.88,-173.15,-64.839,-42.749,0,0.016335,0,1,2.895,0,-2.895,0
0,0,0,0,0,0,0.0001432,-0.00070412,1.7879e-35,5.6889e-07,-2.6863e-18,-1.8757e-22,1.3164,0.00078557,-0.00070412,7.8841e-33,0.0001432,-42.728,-172.9,-64.758,0.08749,-4.1285e-13,-2.9194e-17,120.68,-172.9,-64.758,-42.728,0,0.016339,0,1,2.9,0,-2.9,0
0,0,0,0,0,0,0.00014281,-0.00070303,1.858e-35,5.4161e-07,-2.8235e-18,-2.5676e-22,1.3155,0.00078425,-0.00070303,8.4776e-33,0.00014281,-42.706,-172.65,-64.677,0.083296,-4.3395e-13,-3.9953e-17,120.47,-172.65,-64.677,-42.706,0,0.016343,0,1,2.905,0,-2.905,0
0,0,0,0,0,0,0.00014242,-0.00070193,1.9256e-35,5.1487e-07,-2.9564e-18,-3.2488e-22,1.3146,0.00078292,-0.00070193,9.0666e-33,0.00014242,-42.684,-172.4,-64.595,0.079183,-4.5438e-13,-5.0543e-17,120.27,-172.4,-64.595,-42.684,0,0.016346,0,1,2.91,0,-2.91,0
0,0,0,0,0,0,0.00014204,-0.00070084,1.9904e-35,4.8865e-07,-3.085e-18,-3.919e-22,1.3137,0.0007816,-0.00070084,9.651e-33,0.00014204,-42.661,-172.15,-64.513,0.075151,-4.7414e-13,-6.0962e-17,120.07,-172.15,-64.513,-42.661,0,0.01635,0,1,2.915,0,-2.915,0
0,0,0,0,0,0,0.00014165,-0.00069975,2.0527e-35,4.6295e-07,-3.2092e-18,-4.5784e-22,1.3129,0.00078028,-0.00069975,1.0231e-32,0.00014165,-42.638,-171.9,-64.431,0.071201,-4.9324e-13,-7.1212e-17,119.86,-171.9,-64.431,-42.638,0,0.016353,0,1,2.92,0,-2.92,0
0,0,0,0,0,0,0.00014127,-0.00069865,2.1123e-35,4.3779e-07,-3.3291e-18,-5.2269e-22,1.312,0.00077896,-0.00069865,1.0806e-32,0.00014127,-42.615,-171.65,-64.349,0.067332,-5.1166e-13,-8.1291e-17,119.66,-171.65,-64.349,-42.615,0,0.016357,0,1,2.925,0,-2.925,0
0,0,0,0,0,0,0.00014089,-0.00069756,2.1693e-35,4.1316e-07,-3.4447e-18,-5.8646e-22,1.3111,0.00077764,-0.00069756,1.1377e-32,0.00014089,-42.591,-171.4,-64.267,0.063544,-5.2943e-13,-9.1201e-17,119.46,-171.4,-64.267,-42.591,0,0.01636,0,1,2.93,0,-2.93,0
0,0,0,0,0,0,0.00014051,-0.00069647,2.2237e-35,3.8906e-07,-3.5559e-18,-6.4914e-22,1.3103,0.00077632,-0.00069647,1.1943e-32,0.00014051,-42.567,-171.15,-64.184,0.059838,-5.4652e-13,-1.0094e-16,119.26,-171.15,-64.184,-42.567,0,0.016364,0,1,2.935,0,-2.935,0
0,0,0,0,0,0,0.00014013,-0.00069537,2.2754e-35,3.6548e-07,-3.6627e-18,-7.1073e-22,1.3094,0.00077501,-0.00069537,1.2505e-32,0.00014013,-42.543,-170.9,-64.102,0.056212,-5.6295e-13,-1.1051e-16,119.06,-170.9,-64.102,-42.543,0,0.016367,0,1,2.94,0,-2.94,0
0,0,0,0,0,0,0.00013976,-0.00069428,2.3245e-35,3.4244e-07,-3.7653e-18,-7.7124e-22,1.3085,0.00077369,-0.00069428,1.3062e-32,0.00013976,-42.518,-170.65,-64.019,0.052669,-5.7871e-13,-1.1991e-16,118.85,-170.65,-64.019,-42.518,0,0.01637,0,1,2.945,0,-2.945,0
0,0,0,0,0,0,0.00013938,-0.00069319,2.3709e-35,3.1992e-07,-3.8635e-18,-8.3066e-22,1.3076,0.00077237,-0.00069319,1.3614e-32,0.00013938,-42.492,-170.4,-63.936,0.049206,-5.938e-13,-1.2914e-16,118.65,-170.4,-63.936,-42.492,0,0.016374,0,1,2.95,0,-2.95,0
0,0,0,0,0,0,0.00013901,-0.00069209,2.4147e-35,2.9793e-07,-3.9573e-18,-8.8899e-22,1.3068,0.00077106,-0.00069209,1.4162e-32,0.00013901,-42.467,-170.15,-63.853,0.045825,-6.0823e-13,-1.382e-16,118.45,-170.15,-63.853,-42.467,0,0.016377,0,1,2.955,0,-2.955,0
0,0,0,0,0,0,0.00013864,-0.000691,2.4559e-35,2.7647e-07,-4.0468e-18,-9.4624e-22,1.3059,0.00076974,-0.000691,1.4705e-32,0.00013864,-42.441,-169.9,-63.769,0.042526,-6.2199e-13,-1.4709e-16,118.25,-169.9,-63.769,-42.441,0,0.016381,0,1,2.96,0,-2.96,0
0,0,0,0,0,0,0.00013826,-0.0006899,2.4945e-35,2.5554e-07,-4.132e-18,-1.0024e-21,1.305,0.00076843,-0.0006899,1.5244e-32,0.00013826,-42.414,-169.65,-63.686,0.039307,-6.3508e-13,-1.5581e-16,118.05,-169.65,-63.686,-42.414,0,0.016384,0,1,2.965,0,-2.965,0
0,0,0,0,0,0,0.00013789,-0.00068881,2.5304e-35,2.3514e-07,-4.2128e-18,-1.0575e-21,1.3041,0.00076711,-0.00068881,1.5778e-32,0.00013789,-42.388,-169.4,-63.602,0.03617,-6.4751e-13,-1.6436e-16,117.84,-169.4,-63.602,-42.388,0,0.016388,0,1,2.97,0,-2.97,0
0,0,0,0,0,0,0.00013753,-0.00068771,2.5637e-35,2.1527e-07,-4.2893e-18,-1.1115e-21,1.3033,0.0007658,-0.00068772,1.6308e-32,0.00013753,-42.36,-169.15,-63.518,0.033115,-6.5927e-13,-1.7274e-16,117.64,-169.15,-63.518,-42.36,0,0.016391,0,1,2.975,0,-2.975,0
0,0,0,0,0,0,0.00013716,-0.00068662,2.5944e-35,1.9593e-07,-4.3615e-18,-1.1644e-21,1.3024,0.00076449,-0.00068662,1.6833e-32,0.00013716,-42.333,-168.89,-63.434,0.03014,-6.7036e-13,-1.8095e-16,117.44,-168.89,-63.434,-42.333,0,0.016395,0,1,2.98,0,-2.98,0
0,0,0,0,0,0,0.00013679,-0.00068552,2.6224e-35,1.7711e-07,-4.4293e-18,-1.2162e-21,1.3015,0.00076318,-0.00068553,1.7354e-32,0.00013679,-42.305,-168.64,-63.35,0.027248,-6.8078e-13,-1.8898e-16,117.24,-168.64,-63.35,-42.305,0,0.016398,0,1,2.985,0,-2.985,0
0,0,0,0,0,0,0.00013643,-0.00068443,2.6478e-35,1.5883e-07,-4.4928e-18,-1.2669e-21,1.3007,0.00076186,-0.00068443,1.787e-32,0.00013643,-42.277,-168.39,-63.266,0.024436,-6.9054e-13,-1.9685e-16,117.04,-168.39,-63.266,-42.277,0,0.016402,0,1,2.99,0,-2.99,0
0,0,0,0,0,0,0.00013606,-0.00068333,2.6706e-35,1.4107e-07,-4.5519e-18,-1.3165e-21,1.2998,0.00076055,-0.00068333,1.8381e-32,0.00013606,-42.248,-168.14,-63.181,0.021706,-6.9963e-13,-2.0455e-16,116.84,-168.14,-63.181,-42.248,0,0.016405,0,1,2.995,0,-2.995,0
0,0,0,0,0,0,0.0001357,-0.00068224,2.6907e-35,1.2385e-07,-4.6067e-18,-1.3651e-21,1.2989,0.00075924,-0.00068224,1.8888e-32,0.0001357,-42.219,-167.88,-63.096,0.019057,-7.0806e-13,-2.1208e-16,116.64,-167.88,-63.096,-42.219,0,0.016408,0,1,3,0,-3,0
0,0,0,0,0,0,0.00013534,-0.00068114,2.7082e-35,1.0715e-07,-4.6572e-18,-1.4126e-21,1.298,0.00075794,-0.00068114,1.939e-32,0.00013534,-42.19,-167.63,-63.011,0.016489,-7.1581e-13,-2.1944e-16,116.44,-167.63,-63.011,-42.19,0,0.016412,0,1,3.005,0,-3.005,0
0,0,0,0,0,0,0.00013498,-0.00068005,2.7231e-35,9.0979e-08,-4.7033e-18,-1.4589e-21,1.2972,0.00075663,-0.00068005,1.9888e-32,0.00013498,-42.16,-167.38,-62.926,0.014003,-7.229e-13,-2.2663e-16,116.24,-167.38,-62.926,-42.16,0,0.016415,0,1,3.01,0,-3.01,0
0,0,0,0,0,0,0.00013462,-0.00067895,2.7353e-35,7.5339e-08,-4.7451e-18,-1.5042e-21,1.2963,0.00075532,-0.00067895,2.0381e-32,0.00013462,-42.13,-167.12,-62.841,0.011598,-7.2933e-13,-2.3365e-16,116.03,-167.12,-62.841,-42.13,0,0.016419,0,1,3.015,0,-3.015,0
0,0,0,0,0,0,0.00013427,-0.00067785,2.7449e-35,6.0228e-08,-4.7826e-18,-1.5485e-21,1.2954,0.00075401,-0.00067785,2.087e-32,0.00013427,-42.099,-166.87,-62.756,0.0092742,-7.3508e-13,-2.405e-16,115.83,-166.87,-62.756,-42.099,0,0.016422,0,1,3.02,0,-3.02,0
0,0,0,0,0,0,0.00013391,-0.00067676,2.7519e-35,4.5646e-08,-4.8157e-18,-1.5916e-21,1.2946,0.00075271,-0.00067676,2.1354e-32,0.00013391,-42.068,-166.62,-62.67,0.0070319,-7.4017e-13,-2.4718e-16,115.63,-166.62,-62.67,-42.068,0,0.016425,0,1,3.025,0,-3.025,0
0,0,0,0,0,0,0.00013356,-0.00067566,2.7562e-35,3.1593e-08,-4.8444e-18,-1.6336e-21,1.2937,0.0007514,-0.00067566,2.1834e-32,0.00013356,-42.037,-166.36,-62.584,0.004871,-7.4459e-13,-2.5369e-16,115.43,-166.36,-62.584,-42.037,0,0.016429,0,1,3.03,0,-3.03,0
0,0,0,0,0,0,0.00013321,-0.00067456,2.7579e-35,1.8069e-08,-4.8689e-18,-1.6746e-21,1.2928,0.00075009,-0.00067456,2.2309e-32,0.00013321,-42.005,-166.11,-62.498,0.0027914,-7.4835e-13,-2.6003e-16,115.23,-166.11,-62.498,-42.005,0,0.016432,0,1,3.035,0,-3.035,0
0,0,0,0,0,0,0.00013285,-0.00067347,2.757e-35,5.0743e-09,-4.8889e-18,-1.7144e-21,1.2919,0.00074879,-0.00067347,2.2779e-32,0.00013285,-41.973,-165.85,-62.412,0.0007932,-7.5144e-13,-2.662e-16,115.03,-165.85,-62.412,-41.973,0,0.016436,0,1,3.04,0,-3.04,0
0,0,0,0,0,0,0.0001325,-0.00067237,2.7534e-35,-7.392e-09,-4.9047e-18,-1.7532e-21,1.2911,0.00074749,-0.00067237,2.3245e-32,0.0001325,-41.941,-165.6,-62.326,-0.0011237,-7.5386e-13,-2.722e-16,114.83,-165.6,-62.326,-41.941,0,0.016439,0,1,3.045,0,-3.045,0
0,0,0,0,0,0,0.00013216,-0.00067127,2.7472e-35,-1.9329e-08,-4.9161e-18,-1.7909e-21,1.2902,0.00074618,-0.00067127,2.3706e-32,0.00013216,-41.908,-165.35,-62.239,-0.0029593,-7.5561e-13,-2.7803e-16,114.63,-165.35,-62.239,-41.908,0,0.016442,0,1,3.05,0,-3.05,0
0,0,0,0,0,0,0.00013181,-0.00067018,2.7384e-35,-3.0737e-08,-4.9232e-18,-1.8275e-21,1.2893,0.00074488,-0.00067018,2.4163e-32,0.00013181,-41.875,-165.09,-62.153,-0.0047135,-7.567e-13,-2.8369e-16,114.43,-165.09,-62.153,-41.875,0,0.016446,0,1,3.055,0,-3.055,0
0,0,0,0,0,0,0.00013146,-0.00066908,2.7269e-35,-4.1616e-08,-4.9259e-18,-1.863e-21,1.2885,0.00074358,-0.00066908,2.4615e-32,0.00013146,-41.841,-164.84,-62.066,-0.0063864,-7.5712e-13,-2.8918e-16,114.23,-164.84,-62.066,-41.841,0,0.016449,0,1,3.06,0,-3.06,0
0,0,0,0,0,0,0.00013112,-0.00066798,2.7128e-35,-5.1966e-08,-4.9243e-18,-1.8974e-21,1.2876,0.00074228,-0.00066798,2.5063e-32,0.00013112,-41.807,-164.58,-61.979,-0.0079779,-7.5687e-13,-2.945e-16,114.03,-164.58,-61.979,-41.807,0,0.016452,0,1,3.065,0,-3.065,0
0,0,0,0,0,0,0.00013077,-0.00066688,2.6961e-35,-6.1787e-08,-4.9184e-18,-1.9308e-21,1.2867,0.00074098,-0.00066688,2.5506e-32,0.00013077,-41.773,-164.32,-61.892,-0.0094881,-7.5596e-13,-2.9965e-16,113.83,-164.32,-61.892,-41.773,0,0.016456,0,1,3.07,0,-3.07,0
0,0,0,0,0,0,0.00013043,-0.00066578,2.6768e-35,-7.108e-08,-4.9081e-18,-1.963e-21,1.2858,0.00073968,-0.00066578,2.5944e-32,0.00013043,-41.738,-164.07,-61.804,-0.010917,-7.5438e-13,-3.0463e-16,113.63,-164.07,-61.804,-41.738,0,0.016459,0,1,3.075,0,-3.075,0
0,0,0,0,0,0,0.00013009,-0.00066468,2.6548e-35,-7.9843e-08,-4.8934e-18,-1.9942e-21,1.285,0.00073838,-0.00066468,2.6378e-32,0.00013009,-41.703,-163.81,-61.717,-0.012265,-7.5213e-13,-3.0943e-16,113.44,-163.81,-61.717,-41.703,0,0.016462,0,1,3.08,0,-3.08,0
0,0,0,0,0,0,0.00012975,-0.00066359,2.6301e-35,-8.8077e-08,-4.8745e-18,-2.0243e-21,1.2841,0.00073708,-0.00066359,2.6807e-32,0.00012975,-41.668,-163.56,-61.629,-0.013531,-7.4922e-13,-3.1407e-16,113.24,-163.56,-61.629,-41.668,0,0.016466,0,1,3.085,0,-3.085,0
0,0,0,0,0,0,0.00012941,-0.00066249,2.6029e-35,-9.5782e-08,-4.8512e-18,-2.0533e-21,1.2832,0.00073578,-0.00066249,2.7232e-32,0.00012941,-41.632,-163.3,-61.541,-0.014716,-7.4563e-13,-3.1854e-16,113.04,-163.3,-61.541,-41.632,0,0.016469,0,1,3.09,0,-3.09,0
0,0,0,0,0,0,0.00012908,-0.00066139,2.573e-35,-1.0296e-07,-4.8235e-18,-2.0812e-21,1.2823,0.00073448,-0.00066139,2.7652e-32,0.00012908,-41.596,-163.04,-61.453,-0.015819,-7.4139e-13,-3.2284e-16,112.84,-163.04,-61.453,-41.596,0,0.016472,0,1,3.095,0,-3.095,0
0,0,0,0,0,0,0.00012874,-0.00066029,2.5405e-35,-1.0961e-07,-4.7916e-18,-2.108e-21,1.2815,0.00073319,-0.00066029,2.8068e-32,0.00012874,-41.559,-162.79,-61.365,-0.016841,-7.3647e-13,-3.2697e-16,112.64,-162.79,-61.365,-41.559,0,0.016476,0,1,3.1,0,-3.1,0
0,0,0,0,0,0,0.00012841,-0.00065919,2.5053e-35,-1.1572e-07,-4.7552e-18,-2.1338e-21,1.2806,0.00073189,-0.00065919,2.8479e-32,0.00012841,-41.522,-162.53,-61.277,-0.017782,-7.3089e-13,-3.3093e-16,112.44,-162.53,-61.277,-41.522,0,0.016479,0,1,3.105,0,-3.105,0
0,0,0,0,0,0,0.00012807,-0.00065809,2.4676e-35,-1.2131e-07,-4.7146e-18,-2.1584e-21,1.2797,0.0007306,-0.00065809,2.8886e-32,0.00012807,-41.485,-162.27,-61.188,-0.018642,-7.2464e-13,-3.3472e-16,112.24,-162.27,-61.188,-41.485,0,0.016482,0,1,3.11,0,-3.11,0
0,0,0,0,0,0,0.00012774,-0.00065699,2.4271e-35,-1.2637e-07,-4.6696e-18,-2.182e-21,1.2789,0.0007293,-0.00065699,2.9288e-32,0.00012774,-41.447,-162.02,-61.099,-0.01942,-7.1772e-13,-3.3834e-16,112.04,-162.02,-61.099,-41.447,0,0.016485,0,1,3.115,0,-3.115,0
0,0,0,0,0,0,0.00012741,-0.00065589,2.3841e-35,-1.309e-07,-4.6202e-18,-2.2045e-21,1.278,0.00072801,-0.00065589,2.9685e-32,0.00012741,-41.409,-161.76,-61.011,-0.020116,-7.1014e-13,-3.4179e-16,111.84,-161.76,-61.011,-41.409,0,0.016489,0,1,3.12,0,-3.12,0
0,0,0,0,0,0,0.00012708,-0.00065479,2.3384e-35,-1.3491e-07,-4.5666e-18,-2.2259e-21,1.2771,0.00072671,-0.00065479,3.0078e-32,0.00012708,-41.37,-161.5,-60.921,-0.020732,-7.0189e-13,-3.4507e-16,111.65,-161.5,-60.921,-41.37,0,0.016492,0,1,3.125,0,-3.125,0
0,0,0,0,0,0,0.00012676,-0.00065369,2.2901e-35,-1.3838e-07,-4.5085e-18,-2.2462e-21,1.2762,0.00072542,-0.00065369,3.0466e-32,0.00012676,-41.331,-161.24,-60.832,-0.021266,-6.9297e-13,-3.4818e-16,111.45,-161.24,-60.832,-41.331,0,0.016495,0,1,3.13,0,-3.13,0
0,0,0,0,0,0,0.00012643,-0.00065259,2.2391e-35,-1.4132e-07,-4.4462e-18,-2.2654e-21,1.2754,0.00072413,-0.00065259,3.085e-32,0.00012643,-41.292,-160.98,-60.743,-0.021719,-6.8339e-13,-3.5112e-16,111.25,-160.98,-60.743,-41.292,0,0.016499,0,1,3.135,0,-3.135,0
0,0,0,0,0,0,0.0001261,-0.00065149,2.1856e-35,-1.4374e-07,-4.3795e-18,-2.2835e-21,1.2745,0.00072284,-0.00065149,3.1229e-32,0.0001261,-41.253,-160.73,-60.653,-0.02209,-6.7313e-13,-3.5389e-16,111.05,-160.73,-60.653,-41.253,0,0.016502,0,1,3.14,0,-3.14,0
0,0,0,0,0,0,0.00012578,-0.00065039,2.1294e-35,-1.4563e-07,-4.3085e-18,-2.3006e-21,1.2736,0.00072155,-0.00065039,3.1604e-32,0.00012578,-41.213,-160.47,-60.563,-0.02238,-6.6222e-13,-3.5649e-16,110.85,-160.47,-60.563,-41.213,0,0.016505,0,1,3.145,0,-3.145,0
0,0,0,0,0,0,0.00012546,-0.00064929,2.0705e-35,-1.4698e-07,-4.2331e-18,-2.3165e-21,1.2728,0.00072026,-0.00064929,3.1974e-32,0.00012546,-41.172,-160.21,-60.473,-0.022589,-6.5063e-13,-3.5892e-16,110.65,-160.21,-60.473,-41.172,0,0.016508,0,1,3.15,0,-3.15,0
0,0,0,0,0,0,0.00012514,-0.00064819,2.009e-35,-1.4781e-07,-4.1534e-18,-2.3314e-21,1.2719,0.00071897,-0.00064819,3.2339e-32,0.00012514,-41.132,-159.95,-60.383,-0.022717,-6.3838e-13,-3.6118e-16,110.46,-159.95,-60.383,-41.132,0,0.016512,0,1,3.155,0,-3.155,0
0,0,0,0,0,0,0.00012482,-0.00064709,1.9449e-35,-1.4811e-07,-4.0693e-18,-2.3452e-21,1.271,0.00071768,-0.00064709,3.27e-32,0.00012482,-41.09,-159.69,-60.293,-0.022763,-6.2546e-13,-3.6327e-16,110.26,-159.69,-60.293,-41.09,0,0.016515,0,1,3.16,0,-3.16,0
0,0,0,0,0,0,0.0001245,-0.00064598,1.8782e-35,-1.4788e-07,-3.9809e-18,-2.3579e-21,1.2701,0.00071639,-0.00064598,3.3057e-32,0.0001245,-41.049,-159.43,-60.203,-0.022728,-6.1187e-13,-3.6519e-16,110.06,-159.43,-60.203,-41.049,0,0.016518,0,1,3.165,0,-3.165,0
0,0,0,0,0,0,0.00012418,-0.00064488,1.8088e-35,-1.4712e-07,-3.8882e-18,-2.3695e-21,1.2693,0.00071511,-0.00064488,3.3409e-32,0.00012418,-41.007,-159.17,-60.112,-0.022611,-5.9762e-13,-3.6694e-16,109.86,-159.17,-60.112,-41.007,0,0.016521,0,1,3.17,0,-3.17,0
0,0,0,0,0,0,0.00012387,-0.00064378,1.7368e-35,-1.4584e-07,-3.7911e-18,-2.38e-21,1.2684,0.00071382,-0.00064378,3.3756e-32,0.00012387,-40.965,-158.91,-60.021,-0.022413,-5.827e-13,-3.6851e-16,109.67,-158.91,-60.021,-40.965,0,0.016524,0,1,3.175,0,-3.175,0
0,0,0,0,0,0,0.00012355,-0.00064268,1.6622e-35,-1.4402e-07,-3.6897e-18,-2.3895e-21,1.2675,0.00071253,-0.00064268,3.4099e-32,0.00012355,-40.922,-158.65,-59.93,-0.022134,-5.6711e-13,-3.6992e-16,109.47,-158.65,-59.93,-40.922,0,0.016528,0,1,3.18,0,-3.18,0
0,0,0,0,0,0,0.00012324,-0.00064158,1.5849e-35,-1.4167e-07,-3.584e-18,-2.3978e-21,1.2667,0.00071125,-0.00064158,3.4437e-32,0.00012324,-40.879,-158.39,-59.839,-0.021773,-5.5086e-13,-3.7116e-16,109.27,-158.39,-59.839,-40.879,0,0.016531,0,1,3.185,0,-3.185,0
0,0,0,0,0,0,0.00012293,-0.00064047,1.505e-35,-1.388e-07,-3.4739e-18,-2.4051e-21,1.2658,0.00070996,-0.00064047,3.477e-32,0.00012293,-40.836,-158.13,-59.748,-0.021331,-5.3394e-13,-3.7223e-16,109.08,-158.13,-59.748,-40.836,0,0.016534,0,1,3.19,0,-3.19,0
0,0,0,0,0,0,0.00012262,-0.00063937,1.4224e-35,-1.354e-07,-3.3595e-18,-2.4113e-21,1.2649,0.00070868,-0.00063937,3.5099e-32,0.00012262,-40.792,-157.87,-59.656,-0.020808,-5.1635e-13,-3.7313e-16,108.88,-157.87,-59.656,-40.792,0,0.016537,0,1,3.195,0,-3.195,0
0,0,0,0,0,0,0.00012231,-0.00063827,1.3373e-35,-1.3146e-07,-3.2407e-18,-2.4164e-21,1.264,0.0007074,-0.00063827,3.5424e-32,0.00012231,-40.748,-157.61,-59.564,-0.020203,-4.9809e-13,-3.7386e-16,108.68,-157.61,-59.564,-40.748,0,0.016541,0,1,3.2,0,-3.2,0
0,0,0,0,0,0,0.000122,-0.00063717,1.2495e-35,-1.27e-07,-3.1176e-18,-2.4204e-21,1.2632,0.00070611,-0.00063717,3.5744e-32,0.000122,-40.703,-157.35,-59.473,-0.019517,-4.7917e-13,-3.7442e-16,108.48,-157.35,-59.473,-40.703,0,0.016544,0,1,3.205,0,-3.205,0
0,0,0,0,0,0,0.0001217,-0.00063606,1.159e-35,-1.2201e-07,-2.9901e-18,-2.4233e-21,1.2623,0.00070483,-0.00063606,3.6059e-32,0.0001217,-40.658,-157.09,-59.381,-0.01875,-4.5958e-13,-3.7481e-16,108.29,-157.09,-59.381,-40.658,0,0.016547,0,1,3.21,0,-3.21,0
0,0,0,0,0,0,0.00012139,-0.00063496,1.066e-35,-1.1649e-07,-2.8584e-18,-2.4251e-21,1.2614,0.00070355,-0.00063496,3.637e-32,0.00012139,-40.613,-156.83,-59.288,-0.017901,-4.3933e-13,-3.7503e-16,108.09,-156.83,-59.288,-40.613,0,0.01655,0,1,3.215,0,-3.215,0
0,0,0,0,0,0,0.00012109,-0.00063386,9.7027e-36,-1.1044e-07,-2.7222e-18,-2.4259e-21,1.2605,0.00070227,-0.00063386,3.6676e-32,0.00012109,-40.567,-156.56,-59.196,-0.016971,-4.184e-13,-3.7508e-16,107.89,-156.56,-59.196,-40.567,0,0.016553,0,1,3.22,0,-3.22,0
0,0,0,0,0,0,0.00012079,-0.00063275,8.7194e-36,-1.0387e-07,-2.5818e-18,-2.4255e-21,1.2597,0.00070099,-0.00063275,3.6978e-32,0.00012079,-40.521,-156.3,-59.103,-0.01596,-3.9681e-13,-3.7496e-16,107.7,-156.3,-59.103,-40.521,0,0.016556,0,1,3.225,0,-3.225,0
0,0,0,0,0,0,0.00012048,-0.00063165,7.7097e-36,-9.676e-08,-2.437e-18,-2.4241e-21,1.2588,0.00069971,-0.00063165,3.7275e-32,0.00012048,-40.475,-156.04,-59.011,-0.014867,-3.7456e-13,-3.7467e-16,107.5,-156.04,-59.011,-40.475,0,0.01656,0,1,3.23,0,-3.23,0
0,0,0,0,0,0,0.00012018,-0.00063055,6.6738e-36,-8.9125e-08,-2.2878e-18,-2.4216e-21,1.2579,0.00069843,-0.00063055,3.7568e-32,0.00012018,-40.428,-155.78,-58.918,-0.013693,-3.5163e-13,-3.7421e-16,107.31,-155.78,-58.918,-40.428,0,0.016563,0,1,3.235,0,-3.235,0
0,0,0,0,0,0,0.00011989,-0.00062944,5.6115e-36,-8.0961e-08,-2.1344e-18,-2.418e-21,1.2571,0.00069716,-0.00062944,3.7856e-32,0.00011989,-40.381,-155.52,-58.825,-0.012438,-3.2804e-13,-3.7358e-16,107.11,-155.52,-58.825,-40.381,0,0.016566,0,1,3.24,0,-3.24,0
0,0,0,0,0,0,0.00011959,-0.00062834,4.5229e-36,-7.2268e-08,-1.9765e-18,-2.4133e-21,1.2562,0.00069588,-0.00062834,3.8139e-32,0.00011959,-40.333,-155.25,-58.732,-0.011101,-3.0379e-13,-3.7278e-16,106.91,-155.25,-58.732,-40.333,0,0.016569,0,1,3.245,0,-3.245,0
0,0,0,0,0,0,0.00011929,-0.00062723,3.4079e-36,-6.3045e-08,-1.8144e-18,-2.4076e-21,1.2553,0.0006946,-0.00062723,3.8418e-32,0.00011929,-40.286,-154.99,-58.638,-0.0096834,-2.7886e-13,-3.7181e-16,106.72,-154.99,-58.638,-40.286,0,0.016572,0,1,3.25,0,-3.25,0
0,0,0,0,0,0,0.000119,-0.00062613,2.2666e-36,-5.3294e-08,-1.6479e-18,-2.4007e-21,1.2544,0.00069333,-0.00062613,3.8692e-32,0.000119,-40.237,-154.73,-58.545,-0.008184,-2.5327e-13,-3.7067e-16,106.52,-154.73,-58.545,-40.237,0,0.016575,0,1,3.255,0,-3.255,0
0,0,0,0,0,0,0.00011871,-0.00062502,1.099e-36,-4.3014e-08,-1.477e-18,-2.3928e-21,1.2536,0.00069205,-0.00062502,3.8962e-32,0.00011871,-40.189,-154.46,-58.451,-0.0066033,-2.2701e-13,-3.6936e-16,106.33,-154.46,-58.451,-40.189,0,0.016578,0,1,3.26,0,-3.26,0
0,0,0,0,0,0,0.00011841,-0.00062392,-9.4936e-38,-3.2204e-08,-1.3019e-18,-2.3837e-21,1.2527,0.00069078,-0.00062392,3.9227e-32,0.00011841,-40.139,-154.2,-58.357,-0.0049412,-2.0008e-13,-3.6788e-16,106.13,-154.2,-58.357,-40.139,0,0.016582,0,1,3.265,0,-3.265,0
0,0,0,0,0,0,0.00011812,-0.00062281,-1.3152e-36,-2.0866e-08,-1.1224e-18,-2.3736e-21,1.2518,0.0006895,-0.00062281,3.9488e-32,0.00011812,-40.09,-153.94,-58.263,-0.0031979,-1.7249e-13,-3.6622e-16,105.94,-153.94,-58.263,-40.09,0,0.016585,0,1,3.27,0,-3.27,0
0,0,0,0,0,0,0.00011784,-0.00062171,-2.5618e-36,-8.9987e-09,-9.385e-19,-2.3624e-21,1.251,0.00068823,-0.00062171,3.9744e-32,0.00011784,-40.04,-153.67,-58.168,-0.0013731,-1.4423e-13,-3.644e-16,105.74,-153.67,-58.168,-40.04,0,0.016588,0,1,3.275,0,-3.275,0
0,0,0,0,0,0,0.00011755,-0.0006206,-3.8346e-36,3.3972e-09,-7.5032e-19,-2.3501e-21,1.2501,0.00068696,-0.0006206,3.9995e-32,0.00011755,-39.99,-153.41,-58.074,0.00053287,-1.153e-13,-3.6241e-16,105.54,-153.41,-58.074,-39.99,0,0.016591,0,1,3.28,0,-3.28,0
0,0,0,0,0,0,0.00011726,-0.0006195,-5.1339e-36,1.6323e-08,-5.5778e-19,-2.3368e-21,1.2492,0.00068569,-0.0006195,4.0242e-32,0.00011726,-39.939,-153.14,-57.979,0.0025203,-8.571e-14,-3.6025e-16,105.35,-153.14,-57.979,-39.939,0,0.016594,0,1,3.285,0,-3.285,0
0,0,0,0,0,0,0.00011698,-0.00061839,-6.4594e-36,2.9777e-08,-3.6091e-19,-2.3223e-21,1.2483,0.00068441,-0.00061839,4.0485e-32,0.00011698,-39.889,-152.88,-57.885,0.004589,-5.545e-14,-3.5792e-16,105.15,-152.88,-57.885,-39.889,0,0.016597,0,1,3.29,0,-3.29,0
0,0,0,0,0,0,0.00011669,-0.00061728,-7.8113e-36,4.376e-08,-1.597e-19,-2.3067e-21,1.2475,0.00068314,-0.00061728,4.0723e-32,0.00011669,-39.837,-152.62,-57.79,0.0067391,-2.4522e-14,-3.5542e-16,104.96,-152.62,-57.79,-39.837,0,0.0166,0,1,3.295,0,-3.295,0
0,0,0,0,0,0,0.00011641,-0.00061618,-9.1895e-36,5.8272e-08,4.5844e-20,-2.2901e-21,1.2466,0.00068187,-0.00061618,4.0956e-32,0.00011641,-39.785,-152.35,-57.694,0.0089705,7.0722e-15,-3.5275e-16,104.76,-152.35,-57.694,-39.785,0,0.016603,0,1,3.3,0,-3.3,0
0,0,0,0,0,0,0.00011613,-0.00061507,-1.0594e-35,7.3313e-08,2.5574e-19,-2.2724e-21,1.2457,0.0006806,-0.00061507,4.1185e-32,0.00011613,-39.733,-152.09,-57.599,0.011283,3.9335e-14,-3.4991e-16,104.57,-152.09,-57.599,-39.733,0,0.016606,0,1,3.305,0,-3.305,0
0,0,0,0,0,0,0.00011585,-0.00061397,-1.2025e-35,8.8883e-08,4.6996e-19,-2.2536e-21,1.2449,0.00067934,-0.00061397,4.1409e-32,0.00011585,-39.681,-151.82,-57.504,0.013677,7.2262e-14,-3.469e-16,104.38,-151.82,-57.504,-39.681,0,0.016609,0,1,3.31,0,-3.31,0
0,0,0,0,0,0,0.00011557,-0.00061286,-1.3482e-35,1.0498e-07,6.8853e-19,-2.2337e-21,1.244,0.00067807,-0.00061286,4.1628e-32,0.00011557,-39.628,-151.55,-57.408,0.016153,1.0586e-13,-3.4372e-16,104.18,-151.55,-57.408,-39.628,0,0.016612,0,1,3.315,0,-3.315,0
0,0,0,0,0,0,0.00011529,-0.00061175,-1.4966e-35,1.2161e-07,9.1143e-19,-2.2127e-21,1.2431,0.0006768,-0.00061175,4.1843e-32,0.00011529,-39.575,-151.29,-57.312,0.01871,1.4012e-13,-3.4037e-16,103.99,-151.29,-57.312,-39.575,0,0.016616,0,1,3.32,0,-3.32,0
0,0,0,0,0,0,0.00011502,-0.00061064,-1.6475e-35,1.3877e-07,1.1387e-18,-2.1906e-21,1.2422,0.00067554,-0.00061064,4.2054e-32,0.00011502,-39.521,-151.02,-57.216,0.021348,1.7505e-13,-3.3685e-16,103.79,-151.02,-57.216,-39.521,0,0.016619,0,1,3.325,0,-3.325,0
0,0,0,0,0,0,0.00011474,-0.00060954,-1.8011e-35,1.5645e-07,1.3703e-18,-2.1675e-21,1.2414,0.00067427,-0.00060954,4.226e-32,0.00011474,-39.467,-150.76,-57.12,0.024067,2.1065e-13,-3.3316e-16,103.6,-150.76,-57.12,-39.467,0,0.016622,0,1,3.33,0,-3.33,0
0,0,0,0,0,0,0.00011447,-0.00060843,-1.9574e-35,1.7467e-07,1.6062e-18,-2.1432e-21,1.2405,0.000673,-0.00060843,4.2461e-32,0.00011447,-39.413,-150.49,-57.024,0.026868,2.4691e-13,-3.293e-16,103.4,-150.49,-57.024,-39.413,0,0.016625,0,1,3.335,0,-3.335,0
0,0,0,0,0,0,0.0001142,-0.00060732,-2.1163e-35,1.9341e-07,1.8464e-18,-2.1179e-21,1.2396,0.00067174,-0.00060732,4.2658e-32,0.0001142,-39.358,-150.22,-56.927,0.02975,2.8384e-13,-3.2527e-16,103.21,-150.22,-56.927,-39.358,0,0.016628,0,1,3.34,0,-3.34,0
0,0,0,0,0,0,0.00011393,-0.00060621,-2.2778e-35,2.1269e-07,2.0911e-18,-2.0915e-21,1.2387,0.00067048,-0.00060621,4.285e-32,0.00011393,-39.303,-149.96,-56.83,0.032714,3.2144e-13,-3.2107e-16,103.02,-149.96,-56.83,-39.303,0,0.016631,0,1,3.345,0,-3.345,0
0,0,0,0,0,0,0.00011366,-0.00060511,-2.4419e-35,2.3249e-07,2.34e-18,-2.064e-21,1.2379,0.00066921,-0.00060511,4.3038e-32,0.00011366,-39.248,-149.69,-56.733,0.035758,3.597e-13,-3.167e-16,102.82,-149.69,-56.733,-39.248,0,0.016634,0,1,3.35,0,-3.35,0
0,0,0,0,0,0,0.00011339,-0.000604,-2.6087e-35,2.5282e-07,2.5933e-18,-2.0354e-21,1.237,0.00066795,-0.000604,4.3221e-32,0.00011339,-39.192,-149.42,-56.636,0.038884,3.9863e-13,-3.1216e-16,102.63,-149.42,-56.636,-39.192,0,0.016637,0,1,3.355,0,-3.355,0
0,0,0,0,0,0,0.00011312,-0.00060289,-2.7781e-35,2.7368e-07,2.8509e-18,-2.0057e-21,1.2361,0.00066669,-0.00060289,4.3399e-32,0.00011312,-39.136,-149.16,-56.539,0.042092,4.3823e-13,-3.0745e-16,102.43,-149.16,-56.539,-39.136,0,0.01664,0,1,3.36,0,-3.36,0
0,0,0,0,0,0,0.00011286,-0.00060178,-2.9502e-35,2.9507e-07,3.1128e-18,-1.975e-21,1.2353,0.00066543,-0.00060178,4.3573e-32,0.00011286,-39.079,-148.89,-56.442,0.045381,4.785e-13,-3.0256e-16,102.24,-148.89,-56.442,-39.079,0,0.016643,0,1,3.365,0,-3.365,0
0,0,0,0,0,0,0.0001126,-0.00060067,-3.1248e-35,3.1698e-07,3.3791e-18,-1.9431e-21,1.2344,0.00066417,-0.00060067,4.3743e-32,0.0001126,-39.022,-148.62,-56.344,0.048751,5.1943e-13,-2.9751e-16,102.05,-148.62,-56.344,-39.022,0,0.016646,0,1,3.37,0,-3.37,0
0,0,0,0,0,0,0.00011233,-0.00059956,-3.3022e-35,3.3943e-07,3.6498e-18,-1.9102e-21,1.2335,0.00066291,-0.00059956,4.3908e-32,0.00011233,-38.965,-148.35,-56.246,0.052202,5.6103e-13,-2.9229e-16,101.85,-148.35,-56.246,-38.965,0,0.016649,0,1,3.375,0,-3.375,0
0,0,0,0,0,0,0.00011207,-0.00059845,-3.4821e-35,3.6241e-07,3.9248e-18,-1.8762e-21,1.2326,0.00066165,-0.00059846,4.4068e-32,0.00011207,-38.907,-148.09,-56.148,0.055735,6.033e-13,-2.869e-16,101.66,-148.09,-56.148,-38.907,0,0.016652,0,1,3.38,0,-3.38,0
0,0,0,0,0,0,0.00011181,-0.00059735,-3.6647e-35,3.8591e-07,4.2041e-18,-1.8411e-21,1.2318,0.00066039,-0.00059735,4.4224e-32,0.00011181,-38.849,-147.82,-56.05,0.05935,6.4623e-13,-2.8134e-16,101.47,-147.82,-56.05,-38.849,0,0.016655,0,1,3.385,0,-3.385,0
0,0,0,0,0,0,0.00011155,-0.00059624,-3.8499e-35,4.0995e-07,4.4877e-18,-1.8049e-21,1.2309,0.00065913,-0.00059624,4.4375e-32,0.00011155,-38.79,-147.55,-55.952,0.063045,6.8983e-13,-2.7561e-16,101.27,-147.55,-55.952,-38.79,0,0.016658,0,1,3.39,0,-3.39,0
0,0,0,0,0,0,0.0001113,-0.00059513,-4.0377e-35,4.3451e-07,4.7757e-18,-1.7676e-21,1.23,0.00065787,-0.00059513,4.4522e-32,0.0001113,-38.731,-147.28,-55.854,0.066822,7.341e-13,-2.6971e-16,101.08,-147.28,-55.854,-38.731,0,0.016661,0,1,3.395,0,-3.395,0
0,0,0,0,0,0,0.00011104,-0.00059402,-4.2282e-35,4.596e-07,5.0681e-18,-1.7292e-21,1.2292,0.00065662,-0.00059402,4.4664e-32,0.00011104,-38.672,-147.01,-55.755,0.07068,7.7903e-13,-2.6364e-16,100.89,-147.01,-55.755,-38.672,0,0.016664,0,1,3.4,0,-3.4,0
0,0,0,0,0,0,0.0001108,-0.00059314,-4.052e-35,4.5455e-07,5.0395e-18,-1.679e-21,1.2285,0.0006556,-0.00059314,4.3953e-32,0.0001108,-38.637,-146.8,-55.682,0.069902,7.7464e-13,-2.5591e-16,100.73,-146.8,-55.682,-38.637,0,0.016667,0,1,3.405,0,-3.405,0
0,0,0,0,0,0,0.00011056,-0.00059237,-3.7271e-35,4.3715e-07,4.879e-18,-1.6248e-21,1.2279,0.00065469,-0.00059237,4.2903e-32,0.00011056,-38.612,-146.62,-55.62,0.067227,7.4997e-13,-2.4763e-16,100.59,-146.62,-55.62,-38.612,0,0.01667,0,1,3.41,0,-3.41,0
0,0,0,0,0,0,0.00011032,-0.00059159,-3.4058e-35,4.2003e-07,4.7203e-18,-1.5712e-21,1.2273,0.00065377,-0.00059159,4.1865e-32,0.00011032,-38.586,-146.44,-55.558,0.064595,7.2557e-13,-2.3944e-16,100.45,-146.44,-55.558,-38.586,0,0.016673,0,1,3.415,0,-3.415,0
0,0,0,0,0,0,0.00011008,-0.00059081,-3.0882e-35,4.0318e-07,4.5633e-18,-1.5183e-21,1.2268,0.00065285,-0.00059081,4.0839e-32,0.00011008,-38.56,-146.26,-55.496,0.062004,7.0144e-13,-2.3136e-16,100.31,-146.26,-55.496,-38.56,0,0.016676,0,1,3.42,0,-3.42,0
0,0,0,0,0,0,0.00010984,-0.00059004,-2.7743e-35,3.8661e-07,4.4081e-18,-1.466e-21,1.2262,0.00065194,-0.00059004,3.9826e-32,0.00010985,-38.535,-146.08,-55.433,0.059456,6.7758e-13,-2.2338e-16,100.17,-146.08,-55.433,-38.534,0,0.016679,0,1,3.425,0,-3.425,0
0,0,0,0,0,0,0.00010961,-0.00058926,-2.464e-35,3.7031e-07,4.2547e-18,-1.4144e-21,1.2256,0.00065102,-0.00058926,3.8826e-32,0.00010961,-38.508,-145.9,-55.371,0.05695,6.54e-13,-2.1551e-16,100.03,-145.9,-55.371,-38.508,0,0.016682,0,1,3.43,0,-3.43,0
0,0,0,0,0,0,0.00010937,-0.00058848,-2.1573e-35,3.5429e-07,4.103e-18,-1.3635e-21,1.2251,0.00065011,-0.00058848,3.7838e-32,0.00010937,-38.482,-145.72,-55.308,0.054486,6.3068e-13,-2.0773e-16,99.89,-145.72,-55.308,-38.482,0,0.016684,0,1,3.435,0,-3.435,0
0,0,0,0,0,0,0.00010914,-0.00058771,-1.8544e-35,3.3854e-07,3.9531e-18,-1.3133e-21,1.2245,0.0006492,-0.00058771,3.6862e-32,0.00010914,-38.455,-145.53,-55.246,0.052065,6.0764e-13,-2.0006e-16,99.749,-145.53,-55.246,-38.455,0,0.016687,0,1,3.44,0,-3.44,0
0,0,0,0,0,0,0.00010891,-0.00058693,-1.5551e-35,3.2307e-07,3.8049e-18,-1.2637e-21,1.2239,0.00064828,-0.00058693,3.5899e-32,0.00010891,-38.428,-145.35,-55.183,0.049686,5.8487e-13,-1.9248e-16,99.609,-145.35,-55.183,-38.428,0,0.01669,0,1,3.445,0,-3.445,0
0,0,0,0,0,0,0.00010867,-0.00058615,-1.2595e-35,3.0788e-07,3.6586e-18,-1.2147e-21,1.2233,0.00064737,-0.00058615,3.4949e-32,0.00010867,-38.401,-145.17,-55.12,0.047349,5.6236e-13,-1.8501e-16,99.469,-145.17,-55.12,-38.401,0,0.016693,0,1,3.45,0,-3.45,0
0,0,0,0,0,0,0.00010844,-0.00058538,-9.675e-36,2.9295e-07,3.514e-18,-1.1665e-21,1.2228,0.00064646,-0.00058538,3.4011e-32,0.00010844,-38.374,-144.99,-55.057,0.045054,5.4013e-13,-1.7764e-16,99.329,-144.99,-55.057,-38.374,0,0.016696,0,1,3.455,0,-3.455,0
0,0,0,0,0,0,0.00010821,-0.0005846,-6.7919e-36,2.7831e-07,3.3711e-18,-1.1189e-21,1.2222,0.00064554,-0.0005846,3.3085e-32,0.00010821,-38.346,-144.81,-54.994,0.042802,5.1818e-13,-1.7037e-16,99.189,-144.81,-54.994,-38.346,0,0.016699,0,1,3.46,0,-3.46,0
0,0,0,0,0,0,0.00010798,-0.00058382,-3.9456e-36,2.6393e-07,3.23e-18,-1.0719e-21,1.2216,0.00064463,-0.00058382,3.2172e-32,0.00010798,-38.318,-144.62,-54.931,0.040592,4.9649e-13,-1.6321e-16,99.049,-144.62,-54.931,-38.318,0,0.016702,0,1,3.465,0,-3.465,0
0,0,0,0,0,0,0.00010775,-0.00058304,-1.1358e-36,2.4984e-07,3.0907e-18,-1.0256e-21,1.221,0.00064372,-0.00058304,3.1272e-32,0.00010775,-38.29,-144.44,-54.867,0.038424,4.7507e-13,-1.5614e-16,98.909,-144.44,-54.867,-38.29,0,0.016705,0,1,3.47,0,-3.47,0
0,0,0,0,0,0,0.00010752,-0.00058227,1.6373e-36,2.3601e-07,2.9532e-18,-9.8003e-22,1.2205,0.00064281,-0.00058227,3.0384e-32,0.00010752,-38.262,-144.26,-54.804,0.036298,4.5393e-13,-1.4918e-16,98.769,-144.26,-54.804,-38.262,0,0.016708,0,1,3.475,0,-3.475,0
0,0,0,0,0,0,0.0001073,-0.00058149,4.3738e-36,2.2247e-07,2.8174e-18,-9.3508e-22,1.2199,0.0006419,-0.00058149,2.9508e-32,0.0001073,-38.234,-144.07,-54.741,0.034215,4.3305e-13,-1.4232e-16,98.63,-144.07,-54.741,-38.234,0,0.016711,0,1,3.48,0,-3.48,0
0,0,0,0,0,0,0.00010707,-0.00058071,7.0736e-36,2.0919e-07,2.6833e-18,-8.908e-22,1.2193,0.00064099,-0.00058071,2.8646e-32,0.00010707,-38.205,-143.89,-54.677,0.032174,4.1245e-13,-1.3556e-16,98.49,-143.89,-54.677,-38.205,0,0.016714,0,1,3.485,0,-3.485,0
0,0,0,0,0,0,0.00010684,-0.00057993,9.7369e-36,1.962e-07,2.5511e-18,-8.4718e-22,1.2188,0.00064008,-0.00057993,2.7795e-32,0.00010684,-38.176,-143.71,-54.613,0.030175,3.9212e-13,-1.289e-16,98.35,-143.71,-54.613,-38.176,0,0.016717,0,1,3.49,0,-3.49,0
0,0,0,0,0,0,0.00010662,-0.00057916,1.2363e-35,1.8347e-07,2.4206e-18,-8.0422e-22,1.2182,0.00063917,-0.00057916,2.6957e-32,0.00010662,-38.147,-143.53,-54.549,0.028219,3.7206e-13,-1.2235e-16,98.211,-143.53,-54.549,-38.147,0,0.01672,0,1,3.495,0,-3.495,0
0,0,0,0,0,0,0.00010639,-0.00057838,1.4953e-35,1.7102e-07,2.2919e-18,-7.6193e-22,1.2176,0.00063826,-0.00057838,2.6132e-32,0.00010639,-38.117,-143.34,-54.485,0.026304,3.5228e-13,-1.1589e-16,98.071,-143.34,-54.485,-38.117,0,0.016722,0,1,3.5,0,-3.5,0
0,0,0,0,0,0,0.00010617,-0.0005776,1.7507e-35,1.5885e-07,2.1649e-18,-7.203e-22,1.217,0.00063735,-0.0005776,2.5319e-32,0.00010617,-38.088,-143.16,-54.421,0.024432,3.3276e-13,-1.0954e-16,97.932,-143.16,-54.421,-38.088,0,0.016725,0,1,3.505,0,-3.505,0
0,0,0,0,0,0,0.00010595,-0.00057682,2.0023e-35,1.4695e-07,2.0397e-18,-6.7934e-22,1.2165,0.00063645,-0.00057682,2.4518e-32,0.00010595,-38.058,-142.98,-54.357,0.022603,3.1351e-13,-1.0329e-16,97.792,-142.98,-54.357,-38.058,0,0.016728,0,1,3.51,0,-3.51,0
0,0,0,0,0,0,0.00010573,-0.00057604,2.2504e-35,1.3533e-07,1.9163e-18,-6.3904e-22,1.2159,0.00063554,-0.00057604,2.373e-32,0.00010573,-38.028,-142.79,-54.293,0.020815,2.9454e-13,-9.7137e-17,97.653,-142.79,-54.293,-38.028,0,0.016731,0,1,3.515,0,-3.515,0
0,0,0,0,0,0,0.00010551,-0.00057527,2.4947e-35,1.2398e-07,1.7946e-18,-5.994e-22,1.2153,0.00063463,-0.00057527,2.2955e-32,0.00010551,-37.997,-142.61,-54.229,0.01907,2.7584e-13,-9.1089e-17,97.514,-142.61,-54.229,-37.997,0,0.016734,0,1,3.52,0,-3.52,0
0,0,0,0,0,0,0.00010529,-0.00057449,2.7354e-35,1.1291e-07,1.6747e-18,-5.6043e-22,1.2147,0.00063373,-0.00057449,2.2192e-32,0.00010529,-37.967,-142.42,-54.164,0.017367,2.5741e-13,-8.5143e-17,97.375,-142.42,-54.164,-37.967,0,0.016737,0,1,3.525,0,-3.525,0
0,0,0,0,0,0,0.00010507,-0.00057371,2.9724e-35,1.0211e-07,1.5566e-18,-5.2212e-22,1.2142,0.00063282,-0.00057371,2.1441e-32,0.00010507,-37.936,-142.24,-54.1,0.015707,2.3925e-13,-7.9298e-17,97.236,-142.24,-54.1,-37.936,0,0.01674,0,1,3.53,0,-3.53,0
0,0,0,0,0,0,0.00010485,-0.00057293,3.2058e-35,9.1583e-08,1.4402e-18,-4.8448e-22,1.2136,0.00063191,-0.00057293,2.0703e-32,0.00010485,-37.905,-142.06,-54.035,0.014089,2.2136e-13,-7.3554e-17,97.097,-142.06,-54.035,-37.905,0,0.016743,0,1,3.535,0,-3.535,0
0,0,0,0,0,0,0.00010463,-0.00057215,3.4354e-35,8.1334e-08,1.3256e-18,-4.475e-22,1.213,0.00063101,-0.00057215,1.9978e-32,0.00010463,-37.873,-141.87,-53.97,0.012513,2.0374e-13,-6.7913e-17,96.958,-141.87,-53.97,-37.873,0,0.016745,0,1,3.54,0,-3.54,0
0,0,0,0,0,0,0.00010441,-0.00057137,3.6615e-35,7.136e-08,1.2128e-18,-4.1118e-22,1.2124,0.0006301,-0.00057137,1.9265e-32,0.00010441,-37.842,-141.69,-53.905,0.010979,1.864e-13,-6.2373e-17,96.819,-141.69,-53.905,-37.842,0,0.016748,0,1,3.545,0,-3.545,0
0,0,0,0,0,0,0.0001042,-0.00057059,3.8838e-35,6.1661e-08,1.1017e-18,-3.7553e-22,1.2119,0.0006292,-0.00057059,1.8564e-32,0.0001042,-37.81,-141.5,-53.84,0.0094872,1.6932e-13,-5.6935e-17,96.68,-141.5,-53.84,-37.81,0,0.016751,0,1,3.55,0,-3.55,0
0,0,0,0,0,0,0.00010398,-0.00056982,4.1025e-35,5.2236e-08,9.9238e-19,-3.4054e-22,1.2113,0.0006283,-0.00056982,1.7876e-32,0.00010398,-37.778,-141.32,-53.775,0.008038,1.5252e-13,-5.1598e-17,96.541,-141.32,-53.775,-37.778,0,0.016754,0,1,3.555,0,-3.555,0
0,0,0,0,0,0,0.00010377,-0.00056904,4.3176e-35,4.3087e-08,8.8483e-19,-3.0622e-22,1.2107,0.00062739,-0.00056904,1.7201e-32,0.00010377,-37.746,-141.13,-53.71,0.006631,1.3599e-13,-4.6363e-17,96.402,-141.13,-53.71,-37.746,0,0.016757,0,1,3.56,0,-3.56,0
0,0,0,0,0,0,0.00010355,-0.00056826,4.5289e-35,3.4212e-08,7.7905e-19,-2.7256e-22,1.2102,0.00062649,-0.00056826,1.6538e-32,0.00010355,-37.713,-140.95,-53.645,0.0052663,1.1973e-13,-4.1229e-17,96.264,-140.95,-53.645,-37.713,0,0.01676,0,1,3.565,0,-3.565,0
0,0,0,0,0,0,0.00010334,-0.00056748,4.7366e-35,2.5612e-08,6.7504e-19,-2.3956e-22,1.2096,0.00062559,-0.00056748,1.5887e-32,0.00010334,-37.681,-140.76,-53.579,0.0039439,1.0374e-13,-3.6197e-17,96.125,-140.76,-53.579,-37.681,0,0.016763,0,1,3.57,0,-3.57,0
0,0,0,0,0,0,0.00010313,-0.0005667,4.9407e-35,1.7287e-08,5.7279e-19,-2.0723e-22,1.209,0.00062468,-0.0005667,1.5249e-32,0.00010313,-37.648,-140.58,-53.514,0.0026637,8.8021e-14,-3.1267e-17,95.987,-140.58,-53.514,-37.648,0,0.016765,0,1,3.575,0,-3.575,0
0,0,0,0,0,0,0.00010292,-0.00056592,5.1411e-35,9.2369e-09,4.7231e-19,-1.7556e-22,1.2084,0.00062378,-0.00056592,1.4624e-32,0.00010292,-37.615,-140.39,-53.448,0.0014258,7.2576e-14,-2.6439e-17,95.848,-140.39,-53.448,-37.615,0,0.016768,0,1,3.58,0,-3.58,0
0,0,0,0,0,0,0.00010271,-0.00056514,5.3378e-35,1.4616e-09,3.7359e-19,-1.4456e-22,1.2079,0.00062288,-0.00056514,1.4011e-32,0.00010271,-37.581,-140.21,-53.382,0.00023018,5.7401e-14,-2.1712e-17,95.71,-140.21,-53.382,-37.581,0,0.016771,0,1,3.585,0,-3.585,0
0,0,0,0,0,0,0.0001025,-0.00056436,5.5308e-35,-6.0386e-09,2.7664e-19,-1.1422e-22,1.2073,0.00062198,-0.00056436,1.341e-32,0.0001025,-37.548,-140.02,-53.316,-0.00092314,4.2497e-14,-1.7086e-17,95.572,-140.02,-53.316,-37.548,0,0.016774,0,1,3.59,0,-3.59,0
0,0,0,0,0,0,0.00010229,-0.00056358,5.7202e-35,-1.3264e-08,1.8145e-19,-8.4545e-23,1.2067,0.00062108,-0.00056358,1.2822e-32,0.00010229,-37.514,-139.84,-53.251,-0.0020343,2.7865e-14,-1.2563e-17,95.433,-139.84,-53.251,-37.514,0,0.016777,0,1,3.595,0,-3.595,0
0,0,0,0,0,0,0.00010208,-0.0005628,5.906e-35,-2.0215e-08,8.8035e-20,-5.5534e-23,1.2061,0.00062018,-0.0005628,1.2247e-32,0.00010208,-37.48,-139.65,-53.184,-0.003103,1.3505e-14,-8.1406e-18,95.295,-139.65,-53.184,-37.48,0,0.01678,0,1,3.6,0,-3.6,0
0,0,0,0,0,0,0.00010188,-0.00056202,6.088e-35,-2.689e-08,-3.6238e-21,-2.7186e-23,1.2056,0.00061928,-0.00056202,1.1684e-32,0.00010188,-37.445,-139.47,-53.118,-0.0041296,-5.8504e-16,-3.82e-18,95.157,-139.47,-53.118,-37.445,0,0.016782,0,1,3.605,0,-3.605,0
0,0,0,0,0,0,0.00010167,-0.00056124,6.2664e-35,-3.3291e-08,-9.3513e-20,4.9651e-25,1.205,0.00061838,-0.00056124,1.1133e-32,0.00010167,-37.411,-139.28,-53.052,-0.0051139,-1.4403e-14,3.9867e-19,95.019,-139.28,-53.052,-37.411,0,0.016785,0,1,3.61,0,-3.61,0
0,0,0,0,0,0,0.00010146,-0.00056046,6.4412e-35,-3.9417e-08,-1.8164e-19,2.7516e-23,1.2044,0.00061748,-0.00056046,1.0595e-32,0.00010146,-37.376,-139.09,-52.986,-0.0060559,-2.795e-14,4.5159e-18,94.881,-139.09,-52.986,-37.376,0,0.016788,0,1,3.615,0,-3.615,0
0,0,0,0,0,0,0.00010126,-0.00055968,6.6122e-35,-4.5268e-08,-2.68e-19,5.3871e-23,1.2039,0.00061658,-0.00055968,1.007e-32,0.00010126,-37.341,-138.91,-52.919,-0.0069556,-4.1225e-14,8.5314e-18,94.743,-138.91,-52.919,-37.341,0,0.016791,0,1,3.62,0,-3.62,0
0,0,0,0,0,0,0.00010106,-0.0005589,6.7797e-35,-5.0844e-08,-3.526e-19,7.9563e-23,1.2033,0.00061568,-0.0005589,9.5567e-33,0.00010106,-37.306,-138.72,-52.853,-0.0078131,-5.4229e-14,1.2445e-17,94.605,-138.72,-52.853,-37.306,0,0.016794,0,1,3.625,0,-3.625,0
0,0,0,0,0,0,0.00010085,-0.00055812,6.9434e-35,-5.6146e-08,-4.3543e-19,1.0459e-22,1.2027,0.00061479,-0.00055812,9.0562e-33,0.00010085,-37.27,-138.54,-52.786,-0.0086283,-6.6962e-14,1.6258e-17,94.468,-138.54,-52.786,-37.27,0,0.016796,0,1,3.63,0,-3.63,0
0,0,0,0,0,0,0.00010065,-0.00055734,7.1035e-35,-6.1172e-08,-5.1649e-19,1.2895e-22,1.2021,0.00061389,-0.00055734,8.5682e-33,0.00010065,-37.235,-138.35,-52.719,-0.0094012,-7.9423e-14,1.9968e-17,94.33,-138.35,-52.719,-37.235,0,0.016799,0,1,3.635,0,-3.635,0
0,0,0,0,0,0,0.00010045,-0.00055656,7.2599e-35,-6.5923e-08,-5.9579e-19,1.5265e-22,1.2016,0.00061299,-0.00055656,8.0927e-33,0.00010045,-37.199,-138.16,-52.652,-0.010132,-9.1613e-14,2.3577e-17,94.192,-138.16,-52.652,-37.199,0,0.016802,0,1,3.64,0,-3.64,0
0,0,0,0,0,0,0.00010025,-0.00055578,7.4127e-35,-7.04e-08,-6.7333e-19,1.7569e-22,1.201,0.0006121,-0.00055578,7.6297e-33,0.00010025,-37.163,-137.98,-52.585,-0.01082,-1.0353e-13,2.7085e-17,94.055,-137.98,-52.585,-37.163,0,0.016805,0,1,3.645,0,-3.645,0
0,0,0,0,0,0,0.00010005,-0.000555,7.5618e-35,-7.4602e-08,-7.491e-19,1.9806e-22,1.2004,0.0006112,-0.000555,7.1791e-33,0.00010005,-37.126,-137.79,-52.518,-0.011466,-1.1518e-13,3.0491e-17,93.917,-137.79,-52.518,-37.126,0,0.016808,0,1,3.65,0,-3.65,0
0,0,0,0,0,0,9.9852e-05,-0.00055422,7.7072e-35,-7.8528e-08,-8.231e-19,2.1976e-22,1.1998,0.00061031,-0.00055422,6.7411e-33,9.9852e-05,-37.09,-137.6,-52.451,-0.01207,-1.2655e-13,3.3795e-17,93.78,-137.6,-52.451,-37.09,0,0.01681,0,1,3.655,0,-3.655,0
0,0,0,0,0,0,9.9654e-05,-0.00055344,7.849e-35,-8.2181e-08,-8.9534e-19,2.4081e-22,1.1993,0.00060941,-0.00055344,6.3156e-33,9.9654e-05,-37.053,-137.41,-52.384,-0.012632,-1.3766e-13,3.6997e-17,93.642,-137.41,-52.384,-37.053,0,0.016813,0,1,3.66,0,-3.66,0
0,0,0,0,0,0,9.9457e-05,-0.00055266,7.9871e-35,-8.5557e-08,-9.6581e-19,2.6119e-22,1.1987,0.00060852,-0.00055266,5.9026e-33,9.9457e-05,-37.016,-137.23,-52.316,-0.013151,-1.4849e-13,4.0098e-17,93.505,-137.23,-52.316,-37.016,0,0.016816,0,1,3.665,0,-3.665,0
0,0,0,0,0,0,9.9261e-05,-0.00055188,8.1215e-35,-8.866e-08,-1.0345e-18,2.809e-22,1.1981,0.00060762,-0.00055188,5.5021e-33,9.9261e-05,-36.978,-137.04,-52.249,-0.013628,-1.5905e-13,4.3097e-17,93.368,-137.04,-52.249,-36.978,0,0.016819,0,1,3.67,0,-3.67,0
0,0,0,0,0,0,9.9066e-05,-0.0005511,8.2523e-35,-9.1487e-08,-1.1015e-18,2.9995e-22,1.1975,0.00060673,-0.0005511,5.114e-33,9.9066e-05,-36.941,-136.85,-52.181,-0.014063,-1.6934e-13,4.5995e-17,93.231,-136.85,-52.181,-36.941,0,0.016821,0,1,3.675,0,-3.675,0
0,0,0,0,0,0,9.8871e-05,-0.00055032,8.3794e-35,-9.4039e-08,-1.1666e-18,3.1834e-22,1.197,0.00060583,-0.00055032,4.7385e-33,9.8871e-05,-36.903,-136.67,-52.114,-0.014455,-1.7936e-13,4.8791e-17,93.093,-136.67,-52.114,-36.903,0,0.016824,0,1,3.68,0,-3.68,0
0,0,0,0,0,0,9.8677e-05,-0.00054954,8.5029e-35,-9.6317e-08,-1.2301e-18,3.3606e-22,1.1964,0.00060494,-0.00054954,4.3755e-33,9.8677e-05,-36.865,-136.48,-52.046,-0.014806,-1.8911e-13,5.1485e-17,92.956,-136.48,-52.046,-36.865,0,0.016827,0,1,3.685,0,-3.685,0
0,0,0,0,0,0,9.8484e-05,-0.00054876,8.6226e-35,-9.832e-08,-1.2917e-18,3.5312e-22,1.1958,0.00060405,-0.00054876,4.025e-33,9.8484e-05,-36.827,-136.29,-51.978,-0.015114,-1.9859e-13,5.4078e-17,92.819,-136.29,-51.978,-36.827,0,0.01683,0,1,3.69,0,-3.69,0
0,0,0,0,0,0,9.8292e-05,-0.00054797,8.7388e-35,-1.0005e-07,-1.3516e-18,3.6951e-22,1.1953,0.00060316,-0.00054797,3.6869e-33,9.8292e-05,-36.788,-136.1,-51.91,-0.015379,-2.0779e-13,5.6569e-17,92.683,-136.1,-51.91,-36.788,0,0.016832,0,1,3.695,0,-3.695,0
0,0,0,0,0,0,9.8101e-05,-0.00054719,8.8512e-35,-1.015e-07,-1.4097e-18,3.8524e-22,1.1947,0.00060227,-0.00054719,3.3614e-33,9.8101e-05,-36.75,-135.91,-51.842,-0.015603,-2.1673e-13,5.8958e-17,92.546,-135.91,-51.842,-36.75,0,0.016835,0,1,3.7,0,-3.7,0
0,0,0,0,0,0,9.7911e-05,-0.00054641,8.96e-35,-1.0268e-07,-1.466e-18,4.0031e-22,1.1941,0.00060137,-0.00054641,3.0484e-33,9.7911e-05,-36.711,-135.73,-51.773,-0.015784,-2.2539e-13,6.1246e-17,92.409,-135.73,-51.773,-36.711,0,0.016838,0,1,3.705,0,-3.705,0
0,0,0,0,0,0,9.7721e-05,-0.00054563,9.0652e-35,-1.0358e-07,-1.5206e-18,4.1471e-22,1.1935,0.00060048,-0.00054563,2.7479e-33,9.7721e-05,-36.671,-135.54,-51.705,-0.015923,-2.3378e-13,6.3432e-17,92.272,-135.54,-51.705,-36.671,0,0.016841,0,1,3.71,0,-3.71,0
0,0,0,0,0,0,9.7532e-05,-0.00054485,9.1666e-35,-1.0421e-07,-1.5735e-18,4.2845e-22,1.193,0.00059959,-0.00054485,2.4599e-33,9.7532e-05,-36.632,-135.35,-51.637,-0.016019,-2.419e-13,6.5517e-17,92.136,-135.35,-51.637,-36.632,0,0.016843,0,1,3.715,0,-3.715,0
0,0,0,0,0,0,9.7344e-05,-0.00054407,9.2644e-35,-1.0456e-07,-1.6245e-18,4.4152e-22,1.1924,0.0005987,-0.00054407,2.1843e-33,9.7344e-05,-36.592,-135.16,-51.568,-0.016074,-2.4975e-13,6.75e-17,91.999,-135.16,-51.568,-36.592,0,0.016846,0,1,3.72,0,-3.72,0
0,0,0,0,0,0,9.7157e-05,-0.00054329,9.3586e-35,-1.0464e-07,-1.6738e-18,4.5393e-22,1.1918,0.00059781,-0.00054329,1.9213e-33,9.7157e-05,-36.553,-134.97,-51.499,-0.016086,-2.5732e-13,6.9381e-17,91.862,-134.97,-51.499,-36.553,0,0.016849,0,1,3.725,0,-3.725,0
0,0,0,0,0,0,9.6971e-05,-0.0005425,9.449e-35,-1.0445e-07,-1.7213e-18,4.6568e-22,1.1912,0.00059693,-0.0005425,1.6708e-33,9.6971e-05,-36.512,-134.78,-51.431,-0.016056,-2.6463e-13,7.1161e-17,91.726,-134.78,-51.431,-36.512,0,0.016851,0,1,3.73,0,-3.73,0
0,0,0,0,0,0,9.6785e-05,-0.00054172,9.5359e-35,-1.0397e-07,-1.7671e-18,4.7676e-22,1.1907,0.00059604,-0.00054172,1.4328e-33,9.6785e-05,-36.472,-134.59,-51.362,-0.015983,-2.7166e-13,7.2839e-17,91.59,-134.59,-51.362,-36.472,0,0.016854,0,1,3.735,0,-3.735,0
0,0,0,0,0,0,9.6601e-05,-0.00054094,9.619e-35,-1.0323e-07,-1.8111e-18,4.8718e-22,1.1901,0.00059515,-0.00054094,1.2072e-33,9.6601e-05,-36.432,-134.41,-51.293,-0.015868,-2.7843e-13,7.4415e-17,91.453,-134.41,-51.293,-36.432,0,0.016857,0,1,3.74,0,-3.74,0
0,0,0,0,0,0,9.6417e-05,-0.00054016,9.6985e-35,-1.0221e-07,-1.8533e-18,4.9693e-22,1.1895,0.00059426,-0.00054016,9.9418e-34,9.6417e-05,-36.391,-134.22,-51.224,-0.015711,-2.8492e-13,7.589e-17,91.317,-134.22,-51.224,-36.391,0,0.01686,0,1,3.745,0,-3.745,0
0,0,0,0,0,0,9.6234e-05,-0.00053938,9.7743e-35,-1.0091e-07,-1.8938e-18,5.0602e-22,1.1889,0.00059337,-0.00053938,7.9364e-34,9.6234e-05,-36.35,-134.03,-51.154,-0.015512,-2.9114e-13,7.7263e-17,91.181,-134.03,-51.154,-36.35,0,0.016862,0,1,3.75,0,-3.75,0
0,0,0,0,0,0,9.6052e-05,-0.00053859,9.8465e-35,-9.9341e-08,-1.9325e-18,5.1445e-22,1.1884,0.00059249,-0.00053859,6.056e-34,9.6052e-05,-36.308,-133.84,-51.085,-0.015271,-2.9709e-13,7.8534e-17,91.045,-133.84,-51.085,-36.308,0,0.016865,0,1,3.755,0,-3.755,0
0,0,0,0,0,0,9.5871e-05,-0.00053781,9.915e-35,-9.7495e-08,-1.9694e-18,5.2221e-22,1.1878,0.0005916,-0.00053781,4.3006e-34,9.5871e-05,-36.267,-133.65,-51.016,-0.014987,-3.0276e-13,7.9704e-17,90.909,-133.65,-51.016,-36.267,0,0.016868,0,1,3.76,0,-3.76,0
0,0,0,0,0,0,9.569e-05,-0.00053703,9.9798e-35,-9.5375e-08,-2.0046e-18,5.2931e-22,1.1872,0.00059072,-0.00053703,2.6701e-34,9.569e-05,-36.225,-133.46,-50.946,-0.014661,-3.0817e-13,8.0773e-17,90.773,-133.46,-50.946,-36.225,0,0.01687,0,1,3.765,0,-3.765,0
0,0,0,0,0,0,9.551e-05,-0.00053625,1.0041e-34,-9.2979e-08,-2.038e-18,5.3574e-22,1.1867,0.00058983,-0.00053625,1.1647e-34,9.551e-05,-36.183,-133.27,-50.877,-0.014293,-3.133e-13,8.1739e-17,90.637,-133.27,-50.877,-36.183,0,0.016873,0,1,3.77,0,-3.77,0
0,0,0,0,0,0,9.5331e-05,-0.00053546,1.0099e-34,-9.0309e-08,-2.0696e-18,5.4151e-22,1.1861,0.00058894,-0.00053546,-2.1577e-35,9.5331e-05,-36.141,-133.08,-50.807,-0.013882,-3.1817e-13,8.2604e-17,90.501,-133.08,-50.807,-36.141,0,0.016876,0,1,3.775,0,-3.775,0
0,0,0,0,0,0,9.5153e-05,-0.00053468,1.0152e-34,-8.7364e-08,-2.0995e-18,5.4662e-22,1.1855,0.00058806,-0.00053468,-1.4712e-34,9.5153e-05,-36.099,-132.89,-50.737,-0.013429,-3.2276e-13,8.3368e-17,90.365,-132.89,-50.737,-36.099,0,0.016878,0,1,3.78,0,-3.78,0
0,0,0,0,0,0,9.4976e-05,-0.0005339,1.0203e-34,-8.4144e-08,-2.1276e-18,5.5106e-22,1.1849,0.00058718,-0.0005339,-2.6018e-34,9.4976e-05,-36.056,-132.7,-50.667,-0.012934,-3.2708e-13,8.4029e-17,90.229,-132.7,-50.667,-36.056,0,0.016881,0,1,3.785,0,-3.785,0
0,0,0,0,0,0,9.48e-05,-0.00053312,1.0249e-34,-8.065e-08,-2.1539e-18,5.5484e-22,1.1844,0.00058629,-0.00053312,-3.6073e-34,9.48e-05,-36.013,-132.51,-50.597,-0.012397,-3.3113e-13,8.4589e-17,90.094,-132.51,-50.597,-36.013,0,0.016884,0,1,3.79,0,-3.79,0
0,0,0,0,0,0,9.4624e-05,-0.00053233,1.0292e-34,-7.688e-08,-2.1785e-18,5.5795e-22,1.1838,0.00058541,-0.00053233,-4.4878e-34,9.4624e-05,-35.97,-132.32,-50.527,-0.011817,-3.3491e-13,8.5048e-17,89.958,-132.32,-50.527,-35.97,0,0.016886,0,1,3.795,0,-3.795,0
0,0,0,0,0,0,9.445e-05,-0.00053155,1.0331e-34,-7.2836e-08,-2.2013e-18,5.604e-22,1.1832,0.00058453,-0.00053155,-5.2434e-34,9.445e-05,-35.927,-132.13,-50.457,-0.011195,-3.3842e-13,8.5405e-17,89.822,-132.13,-50.457,-35.927,0,0.016889,0,1,3.8,0,-3.8,0
0,0,0,0,0,0,9.4276e-05,-0.00053077,1.0367e-34,-6.8516e-08,-2.2224e-18,5.6219e-22,1.1826,0.00058364,-0.00053077,-5.874e-34,9.4276e-05,-35.883,-131.94,-50.387,-0.010531,-3.4165e-13,8.566e-17,89.687,-131.94,-50.387,-35.883,0,0.016892,0,1,3.805,0,-3.805,0
0,0,0,0,0,0,9.4103e-05,-0.00052998,1.0399e-34,-6.3922e-08,-2.2417e-18,5.6331e-22,1.1821,0.00058276,-0.00052998,-6.3796e-34,9.4103e-05,-35.839,-131.75,-50.316,-0.0098244,-3.4462e-13,8.5814e-17,89.552,-131.75,-50.316,-35.839,0,0.016894,0,1,3.81,0,-3.81,0
0,0,0,0,0,0,9.393e-05,-0.0005292,1.0427e-34,-5.9053e-08,-2.2592e-18,5.6377e-22,1.1815,0.00058188,-0.0005292,-6.7603e-34,9.393e-05,-35.795,-131.56,-50.246,-0.0090756,-3.4731e-13,8.5866e-17,89.416,-131.56,-50.246,-35.795,0,0.016897,0,1,3.815,0,-3.815,0
0,0,0,0,0,0,9.3759e-05,-0.00052842,1.0451e-34,-5.3909e-08,-2.2749e-18,5.6356e-22,1.1809,0.000581,-0.00052842,-7.0159e-34,9.3759e-05,-35.751,-131.37,-50.175,-0.0082847,-3.4973e-13,8.5816e-17,89.281,-131.37,-50.175,-35.751,0,0.0169,0,1,3.82,0,-3.82,0
0,0,0,0,0,0,9.3588e-05,-0.00052763,1.0472e-34,-4.849e-08,-2.2889e-18,5.6269e-22,1.1803,0.00058012,-0.00052763,-7.1466e-34,9.3588e-05,-35.706,-131.17,-50.104,-0.0074514,-3.5188e-13,8.5665e-17,89.146,-131.17,-50.104,-35.706,0,0.016902,0,1,3.825,0,-3.825,0
0,0,0,0,0,0,9.3418e-05,-0.00052685,1.0489e-34,-4.2797e-08,-2.3011e-18,5.6116e-22,1.1798,0.00057924,-0.00052685,-7.1523e-34,9.3418e-05,-35.662,-130.98,-50.033,-0.0065759,-3.5376e-13,8.5412e-17,89.011,-130.98,-50.033,-35.662,0,0.016905,0,1,3.83,0,-3.83,0
0,0,0,0,0,0,9.3249e-05,-0.00052607,1.0503e-34,-3.6828e-08,-2.3116e-18,5.5896e-22,1.1792,0.00057836,-0.00052607,-7.033e-34,9.3249e-05,-35.617,-130.79,-49.962,-0.0056581,-3.5537e-13,8.5058e-17,88.876,-130.79,-49.962,-35.617,0,0.016908,0,1,3.835,0,-3.835,0
0,0,0,0,0,0,9.3081e-05,-0.00052528,1.0513e-34,-3.0585e-08,-2.3203e-18,5.561e-22,1.1786,0.00057748,-0.00052528,-6.7888e-34,9.3081e-05,-35.571,-130.6,-49.891,-0.0046981,-3.567e-13,8.4602e-17,88.741,-130.6,-49.891,-35.571,0,0.01691,0,1,3.84,0,-3.84,0
0,0,0,0,0,0,9.2914e-05,-0.0005245,1.0519e-34,-2.4067e-08,-2.3272e-18,5.5257e-22,1.1781,0.0005766,-0.0005245,-6.4195e-34,9.2914e-05,-35.526,-130.41,-49.82,-0.0036957,-3.5777e-13,8.4044e-17,88.606,-130.41,-49.82,-35.526,0,0.016913,0,1,3.845,0,-3.845,0
0,0,0,0,0,0,9.2747e-05,-0.00052372,1.0522e-34,-1.7274e-08,-2.3324e-18,5.4838e-22,1.1775,0.00057572,-0.00052372,-5.9253e-34,9.2748e-05,-35.48,-130.22,-49.749,-0.0026512,-3.5856e-13,8.3385e-17,88.471,-130.22,-49.749,-35.48,0,0.016915,0,1,3.85,0,-3.85,0
0,0,0,0,0,0,9.2582e-05,-0.00052293,1.0521e-34,-1.0206e-08,-2.3358e-18,5.4353e-22,1.1769,0.00057484,-0.00052293,-5.3061e-34,9.2582e-05,-35.434,-130.03,-49.677,-0.0015643,-3.5908e-13,8.2624e-17,88.336,-130.03,-49.677,-35.434,0,0.016918,0,1,3.855,0,-3.855,0
0,0,0,0,0,0,9.2417e-05,-0.00052215,1.0516e-34,-2.8631e-09,-2.3374e-18,5.3801e-22,1.1763,0.00057396,-0.00052215,-4.5619e-34,9.2417e-05,-35.388,-129.83,-49.606,-0.0004352,-3.5933e-13,8.1761e-17,88.201,-129.83,-49.606,-35.388,0,0.016921,0,1,3.86,0,-3.86,0
0,0,0,0,0,0,9.2253e-05,-0.00052137,1.0507e-34,4.7547e-09,-2.3373e-18,5.3183e-22,1.1758,0.00057309,-0.00052137,-3.6927e-34,9.2253e-05,-35.342,-129.64,-49.534,0.00073622,-3.5931e-13,8.0797e-17,88.067,-129.64,-49.534,-35.342,0,0.016923,0,1,3.865,0,-3.865,0
0,0,0,0,0,0,9.209e-05,-0.00052058,1.0495e-34,1.2647e-08,-2.3354e-18,5.2498e-22,1.1752,0.00057221,-0.00052058,-2.6986e-34,9.209e-05,-35.295,-129.45,-49.463,0.0019498,-3.5902e-13,7.9731e-17,87.932,-129.45,-49.463,-35.295,0,0.016926,0,1,3.87,0,-3.87,0
0,0,0,0,0,0,9.1927e-05,-0.0005198,1.0479e-34,2.0815e-08,-2.3317e-18,5.1747e-22,1.1746,0.00057133,-0.0005198,-1.5795e-34,9.1927e-05,-35.249,-129.26,-49.391,0.0032058,-3.5846e-13,7.8564e-17,87.797,-129.26,-49.391,-35.248,0,0.016928,0,1,3.875,0,-3.875,0
0,0,0,0,0,0,9.1766e-05,-0.00051901,1.046e-34,2.9257e-08,-2.3263e-18,5.093e-22,1.174,0.00057046,-0.00051901,-3.3536e-35,9.1766e-05,-35.201,-129.07,-49.319,0.004504,-3.5762e-13,7.7294e-17,87.663,-129.07,-49.319,-35.201,0,0.016931,0,1,3.88,0,-3.88,0
0,0,0,0,0,0,9.1605e-05,-0.00051823,1.0437e-34,3.7974e-08,-2.3191e-18,5.0046e-22,1.1735,0.00056958,-0.00051823,1.0337e-34,9.1605e-05,-35.154,-128.87,-49.247,0.0058444,-3.5652e-13,7.5924e-17,87.529,-128.87,-49.247,-35.154,0,0.016934,0,1,3.885,0,-3.885,0
0,0,0,0,0,0,9.1445e-05,-0.00051744,1.041e-34,4.6966e-08,-2.3101e-18,4.9096e-22,1.1729,0.00056871,-0.00051744,2.5278e-34,9.1445e-05,-35.107,-128.68,-49.175,0.0072272,-3.5514e-13,7.4451e-17,87.394,-128.68,-49.175,-35.107,0,0.016936,0,1,3.89,0,-3.89,0
0,0,0,0,0,0,9.1286e-05,-0.00051666,1.038e-34,5.6233e-08,-2.2994e-18,4.8079e-22,1.1723,0.00056783,-0.00051666,4.1468e-34,9.1286e-05,-35.059,-128.49,-49.102,0.0086521,-3.5349e-13,7.2878e-17,87.26,-128.49,-49.102,-35.059,0,0.016939,0,1,3.895,0,-3.895,0
0,0,0,0,0,0,9.1128e-05,-0.00051587,1.0346e-34,6.5775e-08,-2.2869e-18,4.6996e-22,1.1717,0.00056696,-0.00051587,5.8908e-34,9.1128e-05,-35.011,-128.3,-49.03,0.010119,-3.5157e-13,7.1202e-17,87.126,-128.3,-49.03,-35.011,0,0.016941,0,1,3.9,0,-3.9,0
0,0,0,0,0,0,9.0971e-05,-0.00051509,1.0308e-34,7.5591e-08,-2.2726e-18,4.5847e-22,1.1712,0.00056608,-0.00051509,7.7598e-34,9.0971e-05,-34.963,-128.1,-48.958,0.011629,-3.4938e-13,6.9425e-17,86.992,-128.1,-48.958,-34.963,0,0.016944,0,1,3.905,0,-3.905,0
0,0,0,0,0,0,9.0814e-05,-0.00051431,1.0267e-34,8.5683e-08,-2.2566e-18,4.4631e-22,1.1706,0.00056521,-0.00051431,9.7538e-34,9.0814e-05,-34.914,-127.91,-48.885,0.013181,-3.4692e-13,6.7546e-17,86.857,-127.91,-48.885,-34.914,0,0.016946,0,1,3.91,0,-3.91,0
0,0,0,0,0,0,9.0658e-05,-0.00051352,1.0222e-34,9.6049e-08,-2.2388e-18,4.3349e-22,1.17,0.00056434,-0.00051352,1.1873e-33,9.0658e-05,-34.866,-127.72,-48.812,0.014775,-3.4418e-13,6.5566e-17,86.723,-127.72,-48.812,-34.866,0,0.016949,0,1,3.915,0,-3.915,0
0,0,0,0,0,0,9.0503e-05,-0.00051274,1.0173e-34,1.0669e-07,-2.2193e-18,4.2e-22,1.1695,0.00056346,-0.00051274,1.4117e-33,9.0503e-05,-34.817,-127.52,-48.74,0.016411,-3.4118e-13,6.3483e-17,86.589,-127.52,-48.74,-34.817,0,0.016952,0,1,3.92,0,-3.92,0
0,0,0,0,0,0,9.0349e-05,-0.00051195,1.012e-34,1.1761e-07,-2.198e-18,4.0585e-22,1.1689,0.00056259,-0.00051195,1.6486e-33,9.0349e-05,-34.767,-127.33,-48.667,0.01809,-3.379e-13,6.13e-17,86.456,-127.33,-48.667,-34.767,0,0.016954,0,1,3.925,0,-3.925,0
0,0,0,0,0,0,9.0196e-05,-0.00051117,1.0064e-34,1.288e-07,-2.1749e-18,3.9104e-22,1.1683,0.00056172,-0.00051117,1.898e-33,9.0196e-05,-34.718,-127.14,-48.594,0.019811,-3.3435e-13,5.9014e-17,86.322,-127.14,-48.594,-34.718,0,0.016957,0,1,3.93,0,-3.93,0
0,0,0,0,0,0,9.0043e-05,-0.00051038,1.0005e-34,1.4026e-07,-2.15e-18,3.7556e-22,1.1677,0.00056085,-0.00051038,2.1598e-33,9.0043e-05,-34.668,-126.94,-48.521,0.021574,-3.3054e-13,5.6628e-17,86.188,-126.94,-48.521,-34.668,0,0.016959,0,1,3.935,0,-3.935,0
0,0,0,0,0,0,8.9892e-05,-0.00050959,9.9414e-35,1.52e-07,-2.1234e-18,3.5942e-22,1.1672,0.00055998,-0.0005096,2.4342e-33,8.9892e-05,-34.619,-126.75,-48.448,0.023379,-3.2644e-13,5.4139e-17,86.054,-126.75,-48.448,-34.619,0,0.016962,0,1,3.94,0,-3.94,0
0,0,0,0,0,0,8.9741e-05,-0.00050881,9.8743e-35,1.6402e-07,-2.0951e-18,3.4261e-22,1.1666,0.00055911,-0.00050881,2.7211e-33,8.9741e-05,-34.569,-126.56,-48.374,0.025227,-3.2208e-13,5.1549e-17,85.921,-126.56,-48.374,-34.569,0,0.016964,0,1,3.945,0,-3.945,0
0,0,0,0,0,0,8.9591e-05,-0.00050802,9.8036e-35,1.7631e-07,-2.0649e-18,3.2514e-22,1.166,0.00055824,-0.00050802,3.0205e-33,8.9591e-05,-34.518,-126.36,-48.301,0.027117,-3.1745e-13,4.8857e-17,85.787,-126.36,-48.301,-34.518,0,0.016967,0,1,3.95,0,-3.95,0
0,0,0,0,0,0,8.9442e-05,-0.00050724,9.7293e-35,1.8887e-07,-2.033e-18,3.0701e-22,1.1654,0.00055737,-0.00050724,3.3324e-33,8.9442e-05,-34.468,-126.17,-48.228,0.029049,-3.1255e-13,4.6064e-17,85.654,-126.17,-48.228,-34.468,0,0.016969,0,1,3.955,0,-3.955,0
0,0,0,0,0,0,8.9293e-05,-0.00050645,9.6512e-35,2.0171e-07,-1.9993e-18,2.8821e-22,1.1649,0.0005565,-0.00050645,3.6567e-33,8.9294e-05,-34.417,-125.97,-48.154,0.031023,-3.0737e-13,4.3168e-17,85.52,-125.97,-48.154,-34.417,0,0.016972,0,1,3.96,0,-3.96,0
0,0,0,0,0,0,8.9146e-05,-0.00050567,9.5696e-35,2.1483e-07,-1.9639e-18,2.6875e-22,1.1643,0.00055563,-0.00050567,3.9936e-33,8.9146e-05,-34.366,-125.78,-48.08,0.03304,-3.0192e-13,4.0172e-17,85.387,-125.78,-48.08,-34.366,0,0.016975,0,1,3.965,0,-3.965,0
0,0,0,0,0,0,8.8999e-05,-0.00050488,9.4842e-35,2.2822e-07,-1.9267e-18,2.4862e-22,1.1637,0.00055476,-0.00050488,4.343e-33,8.8999e-05,-34.315,-125.59,-48.006,0.035099,-2.962e-13,3.7073e-17,85.254,-125.59,-48.006,-34.315,0,0.016977,0,1,3.97,0,-3.97,0
0,0,0,0,0,0,8.8853e-05,-0.0005041,9.3952e-35,2.4188e-07,-1.8877e-18,2.2783e-22,1.1632,0.00055389,-0.0005041,4.7049e-33,8.8854e-05,-34.263,-125.39,-47.933,0.0372,-2.9021e-13,3.3874e-17,85.12,-125.39,-47.933,-34.263,0,0.01698,0,1,3.975,0,-3.975,0
0,0,0,0,0,0,8.8708e-05,-0.00050331,9.3025e-35,2.5582e-07,-1.847e-18,2.0637e-22,1.1626,0.00055303,-0.00050331,5.0792e-33,8.8708e-05,-34.212,-125.2,-47.859,0.039344,-2.8395e-13,3.0572e-17,84.987,-125.2,-47.859,-34.211,0,0.016982,0,1,3.98,0,-3.98,0
0,0,0,0,0,0,8.8564e-05,-0.00050252,9.2062e-35,2.7004e-07,-1.8045e-18,1.8426e-22,1.162,0.00055216,-0.00050252,5.4661e-33,8.8564e-05,-34.16,-125,-47.784,0.041529,-2.7742e-13,2.7169e-17,84.854,-125,-47.784,-34.16,0,0.016985,0,1,3.985,0,-3.985,0
0,0,0,0,0,0,8.8421e-05,-0.00050174,9.1062e-35,2.8453e-07,-1.7602e-18,1.6147e-22,1.1614,0.00055129,-0.00050174,5.8655e-33,8.8421e-05,-34.107,-124.81,-47.71,0.043758,-2.7062e-13,2.3664e-17,84.721,-124.81,-47.71,-34.107,0,0.016987,0,1,3.99,0,-3.99,0
0,0,0,0,0,0,8.8282e-05,-0.00050105,9.0686e-35,2.8813e-07,-1.6895e-18,1.3806e-22,1.161,0.00055053,-0.00050105,6.1654e-33,8.8282e-05,-34.066,-124.64,-47.647,0.044312,-2.5974e-13,2.0083e-17,84.604,-124.64,-47.647,-34.066,0,0.01699,0,1,3.995,0,-3.995,0
0,0,0,0,0,0,8.8148e-05,-0.00050049,9.1126e-35,2.7783e-07,-1.5876e-18,1.1479e-22,1.1606,0.00054989,-0.00050049,6.3291e-33,8.8148e-05,-34.037,-124.5,-47.598,0.042728,-2.4408e-13,1.6549e-17,84.506,-124.5,-47.598,-34.037,0,0.016992,0,1,4,0,-4,0
0,0,0,0,0,0,8.8015e-05,-0.00049993,9.1553e-35,2.6768e-07,-1.4866e-18,9.1913e-23,1.1602,0.00054925,-0.00049993,6.4952e-33,8.8015e-05,-34.008,-124.37,-47.548,0.041166,-2.2854e-13,1.3076e-17,84.408,-124.37,-47.548,-34.008,0,0.016995,0,1,4.005,0,-4.005,0
0,0,0,0,0,0,8.7882e-05,-0.00049937,9.1967e-35,2.5767e-07,-1.3864e-18,6.9432e-23,1.1599,0.00054862,-0.00049937,6.6637e-33,8.7882e-05,-33.979,-124.23,-47.499,0.039628,-2.1314e-13,9.6625e-18,84.31,-124.23,-47.499,-33.979,0,0.016997,0,1,4.01,0,-4.01,0
0,0,0,0,0,0,8.775e-05,-0.00049881,9.2369e-35,2.4782e-07,-1.287e-18,4.7349e-23,1.1595,0.00054798,-0.00049881,6.8345e-33,8.775e-05,-33.95,-124.1,-47.449,0.038112,-1.9787e-13,6.3099e-18,84.212,-124.1,-47.449,-33.95,0,0.017,0,1,4.015,0,-4.015,0
0,0,0,0,0,0,8.7618e-05,-0.00049825,9.2758e-35,2.3811e-07,-1.1885e-18,2.566e-23,1.1592,0.00054734,-0.00049825,7.0076e-33,8.7619e-05,-33.92,-123.96,-47.4,0.036619,-1.8272e-13,3.0174e-18,84.115,-123.96,-47.4,-33.92,0,0.017002,0,1,4.02,0,-4.02,0
0,0,0,0,0,0,8.7487e-05,-0.00049769,9.3134e-35,2.2855e-07,-1.0909e-18,4.3664e-24,1.1588,0.00054671,-0.00049769,7.1831e-33,8.7488e-05,-33.891,-123.83,-47.35,0.035149,-1.6771e-13,-2.1478e-19,84.017,-123.83,-47.35,-33.891,0,0.017005,0,1,4.025,0,-4.025,0
0,0,0,0,0,0,8.7357e-05,-0.00049713,9.3498e-35,2.1914e-07,-9.9407e-19,-1.6531e-23,1.1584,0.00054607,-0.00049713,7.361e-33,8.7357e-05,-33.861,-123.69,-47.3,0.033702,-1.5282e-13,-3.3866e-18,83.919,-123.69,-47.3,-33.861,0,0.017007,0,1,4.03,0,-4.03,0
0,0,0,0,0,0,8.7227e-05,-0.00049656,9.3849e-35,2.0988e-07,-8.981e-19,-3.703e-23,1.1581,0.00054543,-0.00049656,7.5412e-33,8.7227e-05,-33.832,-123.55,-47.251,0.032278,-1.3807e-13,-6.4978e-18,83.822,-123.55,-47.251,-33.832,0,0.01701,0,1,4.035,0,-4.035,0
0,0,0,0,0,0,8.7097e-05,-0.000496,9.4188e-35,2.0077e-07,-8.0298e-19,-5.7136e-23,1.1577,0.0005448,-0.000496,7.7238e-33,8.7097e-05,-33.802,-123.42,-47.201,0.030876,-1.2345e-13,-9.549e-18,83.724,-123.42,-47.201,-33.802,0,0.017012,0,1,4.04,0,-4.04,0
0,0,0,0,0,0,8.6968e-05,-0.00049544,9.4513e-35,1.918e-07,-7.0869e-19,-7.6846e-23,1.1574,0.00054416,-0.00049544,7.9087e-33,8.6968e-05,-33.772,-123.28,-47.151,0.029498,-1.0895e-13,-1.254e-17,83.627,-123.28,-47.151,-33.772,0,0.017015,0,1,4.045,0,-4.045,0
0,0,0,0,0,0,8.684e-05,-0.00049488,9.4826e-35,1.8298e-07,-6.1525e-19,-9.6159e-23,1.157,0.00054353,-0.00049488,8.096e-33,8.684e-05,-33.741,-123.15,-47.101,0.028142,-9.4584e-14,-1.547e-17,83.529,-123.15,-47.101,-33.741,0,0.017017,0,1,4.05,0,-4.05,0
0,0,0,0,0,0,8.6712e-05,-0.00049432,9.5127e-35,1.7431e-07,-5.2266e-19,-1.1508e-22,1.1566,0.0005429,-0.00049432,8.2856e-33,8.6712e-05,-33.711,-123.01,-47.051,0.026809,-8.0348e-14,-1.834e-17,83.432,-123.01,-47.051,-33.711,0,0.017019,0,1,4.055,0,-4.055,0
0,0,0,0,0,0,8.6584e-05,-0.00049376,9.5415e-35,1.6579e-07,-4.309e-19,-1.336e-22,1.1563,0.00054226,-0.00049376,8.4776e-33,8.6584e-05,-33.681,-122.87,-47.001,0.025498,-6.6242e-14,-2.115e-17,83.335,-122.87,-47.001,-33.681,0,0.017022,0,1,4.06,0,-4.06,0
0,0,0,0,0,0,8.6457e-05,-0.0004932,9.569e-35,1.5742e-07,-3.3999e-19,-1.5172e-22,1.1559,0.00054163,-0.0004932,8.6719e-33,8.6457e-05,-33.65,-122.74,-46.951,0.024211,-5.2265e-14,-2.3899e-17,83.237,-122.74,-46.951,-33.65,0,0.017024,0,1,4.065,0,-4.065,0
0,0,0,0,0,0,8.6331e-05,-0.00049264,9.5952e-35,1.492e-07,-2.4992e-19,-1.6945e-22,1.1556,0.00054099,-0.00049264,8.8686e-33,8.6331e-05,-33.619,-122.6,-46.901,0.022946,-3.8417e-14,-2.6588e-17,83.14,-122.6,-46.901,-33.619,0,0.017027,0,1,4.07,0,-4.07,0
0,0,0,0,0,0,8.6205e-05,-0.00049208,9.6202e-35,1.4112e-07,-1.6071e-19,-1.8679e-22,1.1552,0.00054036,-0.00049208,9.0677e-33,8.6205e-05,-33.588,-122.46,-46.85,0.021705,-2.4701e-14,-2.9217e-17,83.043,-122.46,-46.85,-33.588,0,0.017029,0,1,4.075,0,-4.075,0
0,0,0,0,0,0,8.608e-05,-0.00049151,9.6439e-35,1.332e-07,-7.2325e-20,-2.0373e-22,1.1548,0.00053973,-0.00049151,9.2691e-33,8.608e-05,-33.557,-122.33,-46.8,0.020486,-1.1113e-14,-3.1785e-17,82.946,-122.33,-46.8,-33.557,0,0.017032,0,1,4.08,0,-4.08,0
0,0,0,0,0,0,8.5955e-05,-0.00049095,9.6664e-35,1.2542e-07,1.5213e-20,-2.2027e-22,1.1545,0.00053909,-0.00049095,9.4728e-33,8.5955e-05,-33.526,-122.19,-46.749,0.01929,2.3459e-15,-3.4293e-17,82.849,-122.19,-46.749,-33.526,0,0.017034,0,1,4.085,0,-4.085,0
0,0,0,0,0,0,8.5831e-05,-0.00049039,9.6875e-35,1.1779e-07,1.0191e-19,-2.3641e-22,1.1541,0.00053846,-0.00049039,9.6789e-33,8.5831e-05,-33.495,-122.05,-46.699,0.018116,1.5675e-14,-3.6741e-17,82.751,-122.05,-46.699,-33.495,0,0.017037,0,1,4.09,0,-4.09,0
0,0,0,0,0,0,8.5707e-05,-0.00048983,9.7075e-35,1.1031e-07,1.8775e-19,-2.5216e-22,1.1538,0.00053783,-0.00048983,9.8874e-33,8.5707e-05,-33.463,-121.92,-46.648,0.016966,2.8873e-14,-3.9128e-17,82.654,-121.92,-46.648,-33.463,0,0.017039,0,1,4.095,0,-4.095,0
0,0,0,0,0,0,8.5584e-05,-0.00048927,9.7261e-35,1.0298e-07,2.7276e-19,-2.6752e-22,1.1534,0.0005372,-0.00048927,1.0098e-32,8.5584e-05,-33.432,-121.78,-46.598,0.015838,4.1942e-14,-4.1455e-17,82.557,-121.78,-46.598,-33.432,0,0.017042,0,1,4.1,0,-4.1,0
0,0,0,0,0,0,8.5461e-05,-0.00048871,9.7435e-35,9.5793e-08,3.5693e-19,-2.8248e-22,1.153,0.00053657,-0.00048871,1.0311e-32,8.5461e-05,-33.4,-121.64,-46.547,0.014734,5.4882e-14,-4.3722e-17,82.46,-121.64,-46.547,-33.4,0,0.017044,0,1,4.105,0,-4.105,0
0,0,0,0,0,0,8.5339e-05,-0.00048815,9.7596e-35,8.8757e-08,4.4025e-19,-2.9704e-22,1.1527,0.00053594,-0.00048815,1.0527e-32,8.5339e-05,-33.368,-121.51,-46.496,0.013651,6.7692e-14,-4.5928e-17,82.363,-121.51,-46.496,-33.368,0,0.017047,0,1,4.11,0,-4.11,0
0,0,0,0,0,0,8.5217e-05,-0.00048758,9.7745e-35,8.187e-08,5.2272e-19,-3.1121e-22,1.1523,0.0005353,-0.00048758,1.0745e-32,8.5217e-05,-33.336,-121.37,-46.446,0.012592,8.0372e-14,-4.8074e-17,82.267,-121.37,-46.446,-33.336,0,0.017049,0,1,4.115,0,-4.115,0
0,0,0,0,0,0,8.5096e-05,-0.00048702,9.7881e-35,7.5131e-08,6.0435e-19,-3.2498e-22,1.152,0.00053467,-0.00048702,1.0965e-32,8.5096e-05,-33.304,-121.23,-46.395,0.011556,9.2923e-14,-5.016e-17,82.17,-121.23,-46.395,-33.304,0,0.017051,0,1,4.12,0,-4.12,0
0,0,0,0,0,0,8.4975e-05,-0.00048646,9.8004e-35,6.854e-08,6.8515e-19,-3.3835e-22,1.1516,0.00053404,-0.00048646,1.1188e-32,8.4975e-05,-33.271,-121.1,-46.344,0.010543,1.0534e-13,-5.2185e-17,82.073,-121.1,-46.344,-33.271,0,0.017054,0,1,4.125,0,-4.125,0
0,0,0,0,0,0,8.4855e-05,-0.0004859,9.8114e-35,6.2098e-08,7.6509e-19,-3.5133e-22,1.1512,0.00053341,-0.0004859,1.1412e-32,8.4855e-05,-33.239,-120.96,-46.293,0.0095518,1.1764e-13,-5.415e-17,81.976,-120.96,-46.293,-33.239,0,0.017056,0,1,4.13,0,-4.13,0
0,0,0,0,0,0,8.4735e-05,-0.00048534,9.8212e-35,5.5804e-08,8.442e-19,-3.6392e-22,1.1509,0.00053278,-0.00048534,1.164e-32,8.4735e-05,-33.206,-120.82,-46.242,0.0085839,1.298e-13,-5.6055e-17,81.879,-120.82,-46.242,-33.206,0,0.017059,0,1,4.135,0,-4.135,0
0,0,0,0,0,0,8.4616e-05,-0.00048477,9.8298e-35,4.9659e-08,9.2245e-19,-3.761e-22,1.1505,0.00053215,-0.00048477,1.1869e-32,8.4616e-05,-33.173,-120.68,-46.191,0.0076389,1.4183e-13,-5.7899e-17,81.783,-120.68,-46.191,-33.173,0,0.017061,0,1,4.14,0,-4.14,0
0,0,0,0,0,0,8.4498e-05,-0.00048421,9.837e-35,4.3662e-08,9.9987e-19,-3.879e-22,1.1502,0.00053152,-0.00048421,1.2101e-32,8.4498e-05,-33.14,-120.55,-46.139,0.0067167,1.5373e-13,-5.9683e-17,81.686,-120.55,-46.139,-33.14,0,0.017064,0,1,4.145,0,-4.145,0
0,0,0,0,0,0,8.4379e-05,-0.00048365,9.843e-35,3.7813e-08,1.0764e-18,-3.9929e-22,1.1498,0.00053089,-0.00048365,1.2336e-32,8.438e-05,-33.107,-120.41,-46.088,0.0058173,1.655e-13,-6.1407e-17,81.59,-120.41,-46.088,-33.107,0,0.017066,0,1,4.15,0,-4.15,0
0,0,0,0,0,0,8.4262e-05,-0.00048309,9.8477e-35,3.2113e-08,1.1522e-18,-4.1029e-22,1.1494,0.00053027,-0.00048309,1.2572e-32,8.4262e-05,-33.074,-120.27,-46.037,0.0049407,1.7715e-13,-6.307e-17,81.493,-120.27,-46.037,-33.074,0,0.017068,0,1,4.155,0,-4.155,0
0,0,0,0,0,0,8.4145e-05,-0.00048253,9.8512e-35,2.6562e-08,1.2271e-18,-4.2089e-22,1.1491,0.00052964,-0.00048253,1.2811e-32,8.4145e-05,-33.041,-120.13,-45.985,0.004087,1.8866e-13,-6.4673e-17,81.397,-120.13,-45.985,-33.041,0,0.017071,0,1,4.16,0,-4.16,0
0,0,0,0,0,0,8.4028e-05,-0.00048196,9.8534e-35,2.1158e-08,1.3011e-18,-4.311e-22,1.1487,0.00052901,-0.00048196,1.3053e-32,8.4029e-05,-33.007,-120,-45.934,0.0032561,2.0004e-13,-6.6215e-17,81.3,-120,-45.934,-33.007,0,0.017073,0,1,4.165,0,-4.165,0
0,0,0,0,0,0,8.3913e-05,-0.0004814,9.8543e-35,1.5903e-08,1.3743e-18,-4.4092e-22,1.1484,0.00052838,-0.0004814,1.3297e-32,8.3913e-05,-32.973,-119.86,-45.883,0.002448,2.113e-13,-6.7698e-17,81.204,-119.86,-45.883,-32.973,0,0.017076,0,1,4.17,0,-4.17,0
0,0,0,0,0,0,8.3797e-05,-0.00048084,9.854e-35,1.0797e-08,1.4467e-18,-4.5033e-22,1.148,0.00052775,-0.00048084,1.3543e-32,8.3797e-05,-32.939,-119.72,-45.831,0.0016627,2.2242e-13,-6.912e-17,81.107,-119.72,-45.831,-32.939,0,0.017078,0,1,4.175,0,-4.175,0
0,0,0,0,0,0,8.3682e-05,-0.00048028,9.8524e-35,5.8392e-09,1.5182e-18,-4.5935e-22,1.1476,0.00052713,-0.00048028,1.3791e-32,8.3682e-05,-32.906,-119.58,-45.779,0.00090031,2.3342e-13,-7.0481e-17,81.011,-119.58,-45.779,-32.906,0,0.01708,0,1,4.18,0,-4.18,0
0,0,0,0,0,0,8.3568e-05,-0.00047972,9.8495e-35,1.0295e-09,1.5888e-18,-4.6798e-22,1.1473,0.0005265,-0.00047972,1.4042e-32,8.3568e-05,-32.871,-119.44,-45.728,0.00016067,2.4428e-13,-7.1782e-17,80.915,-119.44,-45.728,-32.871,0,0.017083,0,1,4.185,0,-4.185,0
0,0,0,0,0,0,8.3454e-05,-0.00047915,9.8454e-35,-3.6317e-09,1.6587e-18,-4.7621e-22,1.1469,0.00052587,-0.00047915,1.4295e-32,8.3454e-05,-32.837,-119.31,-45.676,-0.00055615,2.5502e-13,-7.3023e-17,80.818,-119.31,-45.676,-32.837,0,0.017085,0,1,4.19,0,-4.19,0
0,0,0,0,0,0,8.3341e-05,-0.00047859,9.84e-35,-8.1445e-09,1.7277e-18,-4.8404e-22,1.1466,0.00052524,-0.00047859,1.4551e-32,8.3341e-05,-32.803,-119.17,-45.624,-0.0012501,2.6562e-13,-7.4204e-17,80.722,-119.17,-45.624,-32.803,0,0.017088,0,1,4.195,0,-4.195,0
0,0,0,0,0,0,8.3228e-05,-0.00047803,9.8333e-35,-1.2509e-08,1.7958e-18,-4.9148e-22,1.1462,0.00052462,-0.00047803,1.4808e-32,8.3228e-05,-32.768,-119.03,-45.572,-0.0019212,2.761e-13,-7.5324e-17,80.626,-119.03,-45.572,-32.768,0,0.01709,0,1,4.2,0,-4.2,0
0,0,0,0,0,0,8.3115e-05,-0.00047747,9.8254e-35,-1.6724e-08,1.8631e-18,-4.9852e-22,1.1458,0.00052399,-0.00047747,1.5069e-32,8.3115e-05,-32.733,-118.89,-45.52,-0.0025696,2.8645e-13,-7.6384e-17,80.53,-118.89,-45.52,-32.733,0,0.017092,0,1,4.205,0,-4.205,0
0,0,0,0,0,0,8.3004e-05,-0.0004769,9.8162e-35,-2.0792e-08,1.9295e-18,-5.0516e-22,1.1455,0.00052337,-0.0004769,1.5331e-32,8.3004e-05,-32.699,-118.75,-45.468,-0.0031951,2.9666e-13,-7.7383e-17,80.434,-118.75,-45.468,-32.699,0,0.017095,0,1,4.21,0,-4.21,0
0,0,0,0,0,0,8.2892e-05,-0.00047634,9.8057e-35,-2.4711e-08,1.9952e-18,-5.1141e-22,1.1451,0.00052274,-0.00047634,1.5596e-32,8.2892e-05,-32.664,-118.61,-45.416,-0.0037978,3.0675e-13,-7.8322e-17,80.338,-118.61,-45.416,-32.664,0,0.017097,0,1,4.215,0,-4.215,0
0,0,0,0,0,0,8.2782e-05,-0.00047578,9.794e-35,-2.8482e-08,2.0599e-18,-5.1726e-22,1.1448,0.00052212,-0.00047578,1.5863e-32,8.2782e-05,-32.629,-118.48,-45.364,-0.0043776,3.1671e-13,-7.9201e-17,80.242,-118.48,-45.364,-32.628,0,0.0171,0,1,4.22,0,-4.22,0
0,0,0,0,0,0,8.2671e-05,-0.00047522,9.781e-35,-3.2104e-08,2.1238e-18,-5.2272e-22,1.1444,0.00052149,-0.00047522,1.6133e-32,8.2671e-05,-32.593,-118.34,-45.311,-0.0049346,3.2654e-13,-8.002e-17,80.146,-118.34,-45.311,-32.593,0,0.017102,0,1,4.225,0,-4.225,0
0,0,0,0,0,0,8.2562e-05,-0.00047465,9.7668e-35,-3.5578e-08,2.1869e-18,-5.2778e-22,1.144,0.00052087,-0.00047465,1.6405e-32,8.2562e-05,-32.558,-118.2,-45.259,-0.0054688,3.3624e-13,-8.0778e-17,80.05,-118.2,-45.259,-32.558,0,0.017104,0,1,4.23,0,-4.23,0
0,0,0,0,0,0,8.2452e-05,-0.00047409,9.7512e-35,-3.8903e-08,2.2492e-18,-5.3245e-22,1.1437,0.00052024,-0.00047409,1.6679e-32,8.2453e-05,-32.522,-118.06,-45.207,-0.0059802,3.458e-13,-8.1476e-17,79.954,-118.06,-45.207,-32.522,0,0.017107,0,1,4.235,0,-4.235,0
0,0,0,0,0,0,8.2344e-05,-0.00047353,9.7344e-35,-4.208e-08,2.3106e-18,-5.3672e-22,1.1433,0.00051962,-0.00047353,1.6956e-32,8.2344e-05,-32.487,-117.92,-45.154,-0.0064687,3.5524e-13,-8.2113e-17,79.858,-117.92,-45.154,-32.486,0,0.017109,0,1,4.24,0,-4.24,0
0,0,0,0,0,0,8.2236e-05,-0.00047297,9.7164e-35,-4.5108e-08,2.3711e-18,-5.4059e-22,1.143,0.00051899,-0.00047297,1.7235e-32,8.2236e-05,-32.451,-117.78,-45.102,-0.0069345,3.6455e-13,-8.269e-17,79.763,-117.78,-45.102,-32.451,0,0.017111,0,1,4.245,0,-4.245,0
0,0,0,0,0,0,8.2128e-05,-0.0004724,9.6971e-35,-4.7989e-08,2.4308e-18,-5.4407e-22,1.1426,0.00051837,-0.0004724,1.7517e-32,8.2128e-05,-32.415,-117.64,-45.049,-0.0073774,3.7373e-13,-8.3207e-17,79.667,-117.64,-45.049,-32.415,0,0.017114,0,1,4.25,0,-4.25,0
0,0,0,0,0,0,8.2021e-05,-0.00047184,9.6765e-35,-5.072e-08,2.4897e-18,-5.4715e-22,1.1422,0.00051775,-0.00047184,1.78e-32,8.2021e-05,-32.378,-117.5,-44.997,-0.0077975,3.8278e-13,-8.3663e-17,79.571,-117.5,-44.997,-32.378,0,0.017116,0,1,4.255,0,-4.255,0
0,0,0,0,0,0,8.1914e-05,-0.00047128,9.6546e-35,-5.3304e-08,2.5477e-18,-5.4984e-22,1.1419,0.00051712,-0.00047128,1.8086e-32,8.1914e-05,-32.342,-117.37,-44.944,-0.0081948,3.917e-13,-8.406e-17,79.475,-117.37,-44.944,-32.342,0,0.017118,0,1,4.26,0,-4.26,0
0,0,0,0,0,0,8.1808e-05,-0.00047071,9.6315e-35,-5.5738e-08,2.6049e-18,-5.5213e-22,1.1415,0.0005165,-0.00047071,1.8375e-32,8.1808e-05,-32.306,-117.23,-44.891,-0.0085692,4.0049e-13,-8.4395e-17,79.38,-117.23,-44.891,-32.306,0,0.017121,0,1,4.265,0,-4.265,0
0,0,0,0,0,0,8.1703e-05,-0.00047015,9.6071e-35,-5.8025e-08,2.6612e-18,-5.5403e-22,1.1412,0.00051588,-0.00047015,1.8666e-32,8.1703e-05,-32.269,-117.09,-44.838,-0.0089208,4.0915e-13,-8.4671e-17,79.284,-117.09,-44.838,-32.269,0,0.017123,0,1,4.27,0,-4.27,0
0,0,0,0,0,0,8.1598e-05,-0.00046959,9.5815e-35,-6.0163e-08,2.7167e-18,-5.5553e-22,1.1408,0.00051526,-0.00046959,1.8959e-32,8.1598e-05,-32.232,-116.95,-44.786,-0.0092496,4.1769e-13,-8.4886e-17,79.189,-116.95,-44.786,-32.232,0,0.017126,0,1,4.275,0,-4.275,0
0,0,0,0,0,0,8.1493e-05,-0.00046903,9.5545e-35,-6.2152e-08,2.7713e-18,-5.5663e-22,1.1404,0.00051463,-0.00046903,1.9254e-32,8.1493e-05,-32.196,-116.81,-44.733,-0.0095555,4.2609e-13,-8.5041e-17,79.093,-116.81,-44.733,-32.196,0,0.017128,0,1,4.28,0,-4.28,0
0,0,0,0,0,0,8.1389e-05,-0.00046846,9.5264e-35,-6.3993e-08,2.8251e-18,-5.5734e-22,1.1401,0.00051401,-0.00046846,1.9552e-32,8.1389e-05,-32.158,-116.67,-44.68,-0.0098387,4.3436e-13,-8.5135e-17,78.998,-116.67,-44.68,-32.158,0,0.01713,0,1,4.285,0,-4.285,0
0,0,0,0,0,0,8.1286e-05,-0.0004679,9.4969e-35,-6.5686e-08,2.8781e-18,-5.5765e-22,1.1397,0.00051339,-0.0004679,1.9852e-32,8.1286e-05,-32.121,-116.53,-44.626,-0.010099,4.425e-13,-8.5169e-17,78.902,-116.53,-44.626,-32.121,0,0.017133,0,1,4.29,0,-4.29,0
0,0,0,0,0,0,8.1183e-05,-0.00046734,9.4662e-35,-6.7231e-08,2.9302e-18,-5.5756e-22,1.1394,0.00051277,-0.00046734,2.0155e-32,8.1183e-05,-32.084,-116.39,-44.573,-0.010336,4.5052e-13,-8.5143e-17,78.807,-116.39,-44.573,-32.084,0,0.017135,0,1,4.295,0,-4.295,0
0,0,0,0,0,0,8.1081e-05,-0.00046677,9.4342e-35,-6.8627e-08,2.9815e-18,-5.5708e-22,1.139,0.00051215,-0.00046677,2.046e-32,8.1081e-05,-32.047,-116.25,-44.52,-0.010551,4.584e-13,-8.5056e-17,78.712,-116.25,-44.52,-32.047,0,0.017137,0,1,4.3,0,-4.3,0
0,0,0,0,0,0,8.0979e-05,-0.00046621,9.401e-35,-6.9874e-08,3.0319e-18,-5.562e-22,1.1386,0.00051153,-0.00046621,2.0767e-32,8.0979e-05,-32.009,-116.11,-44.467,-0.010743,4.6615e-13,-8.4909e-17,78.617,-116.11,-44.467,-32.009,0,0.01714,0,1,4.305,0,-4.305,0
0,0,0,0,0,0,8.0877e-05,-0.00046565,9.3665e-35,-7.0973e-08,3.0815e-18,-5.5493e-22,1.1383,0.00051091,-0.00046565,2.1077e-32,8.0877e-05,-31.971,-115.97,-44.413,-0.010912,4.7378e-13,-8.4702e-17,78.521,-115.97,-44.413,-31.971,0,0.017142,0,1,4.31,0,-4.31,0
0,0,0,0,0,0,8.0777e-05,-0.00046508,9.3307e-35,-7.1924e-08,3.1303e-18,-5.5326e-22,1.1379,0.00051029,-0.00046508,2.1389e-32,8.0777e-05,-31.933,-115.83,-44.36,-0.011058,4.8127e-13,-8.4434e-17,78.426,-115.83,-44.36,-31.933,0,0.017144,0,1,4.315,0,-4.315,0
0,0,0,0,0,0,8.0676e-05,-0.00046452,9.2936e-35,-7.2726e-08,3.1782e-18,-5.512e-22,1.1376,0.00050967,-0.00046452,2.1703e-32,8.0676e-05,-31.895,-115.69,-44.307,-0.011182,4.8863e-13,-8.4106e-17,78.331,-115.69,-44.307,-31.895,0,0.017147,0,1,4.32,0,-4.32,0
0,0,0,0,0,0,8.0577e-05,-0.00046396,9.2553e-35,-7.338e-08,3.2252e-18,-5.4874e-22,1.1372,0.00050905,-0.00046396,2.202e-32,8.0577e-05,-31.857,-115.55,-44.253,-0.011282,4.9587e-13,-8.3718e-17,78.236,-115.55,-44.253,-31.857,0,0.017149,0,1,4.325,0,-4.325,0
0,0,0,0,0,0,8.0477e-05,-0.00046339,9.2158e-35,-7.3885e-08,3.2714e-18,-5.4588e-22,1.1368,0.00050843,-0.00046339,2.2339e-32,8.0477e-05,-31.819,-115.41,-44.199,-0.01136,5.0297e-13,-8.3269e-17,78.141,-115.41,-44.199,-31.819,0,0.017151,0,1,4.33,0,-4.33,0
0,0,0,0,0,0,8.0379e-05,-0.00046283,9.1749e-35,-7.4242e-08,3.3168e-18,-5.4263e-22,1.1365,0.00050781,-0.00046283,2.266e-32,8.0379e-05,-31.78,-115.27,-44.146,-0.011415,5.0995e-13,-8.276e-17,78.046,-115.27,-44.146,-31.78,0,0.017154,0,1,4.335,0,-4.335,0
0,0,0,0,0,0,8.028e-05,-0.00046227,9.1328e-35,-7.4451e-08,3.3613e-18,-5.3899e-22,1.1361,0.00050719,-0.00046227,2.2984e-32,8.028e-05,-31.742,-115.13,-44.092,-0.011447,5.168e-13,-8.2191e-17,77.951,-115.13,-44.092,-31.742,0,0.017156,0,1,4.34,0,-4.34,0
0,0,0,0,0,0,8.0183e-05,-0.0004617,9.0894e-35,-7.4511e-08,3.405e-18,-5.3494e-22,1.1358,0.00050658,-0.0004617,2.331e-32,8.0183e-05,-31.703,-114.99,-44.038,-0.011456,5.2351e-13,-8.1561e-17,77.856,-114.99,-44.038,-31.703,0,0.017158,0,1,4.345,0,-4.345,0
0,0,0,0,0,0,8.0086e-05,-0.00046114,9.0448e-35,-7.4422e-08,3.4478e-18,-5.305e-22,1.1354,0.00050596,-0.00046114,2.3639e-32,8.0086e-05,-31.664,-114.85,-43.984,-0.011442,5.301e-13,-8.0871e-17,77.761,-114.85,-43.984,-31.664,0,0.01716,0,1,4.35,0,-4.35,0
0,0,0,0,0,0,7.9989e-05,-0.00046057,8.9989e-35,-7.4186e-08,3.4898e-18,-5.2567e-22,1.135,0.00050534,-0.00046057,2.3969e-32,7.9989e-05,-31.625,-114.71,-43.93,-0.011406,5.3656e-13,-8.0121e-17,77.666,-114.71,-43.93,-31.625,0,0.017163,0,1,4.355,0,-4.355,0
0,0,0,0,0,0,7.9893e-05,-0.00046001,8.9517e-35,-7.3801e-08,3.531e-18,-5.2044e-22,1.1347,0.00050472,-0.00046001,2.4303e-32,7.9893e-05,-31.586,-114.57,-43.876,-0.011347,5.4288e-13,-7.931e-17,77.571,-114.57,-43.876,-31.586,0,0.017165,0,1,4.36,0,-4.36,0
0,0,0,0,0,0,7.9797e-05,-0.00045945,8.9033e-35,-7.3267e-08,3.5713e-18,-5.1481e-22,1.1343,0.0005041,-0.00045945,2.4638e-32,7.9797e-05,-31.546,-114.43,-43.822,-0.011265,5.4908e-13,-7.8439e-17,77.477,-114.43,-43.822,-31.546,0,0.017167,0,1,4.365,0,-4.365,0
0,0,0,0,0,0,7.9702e-05,-0.00045888,8.8536e-35,-7.2585e-08,3.6108e-18,-5.0879e-22,1.134,0.00050349,-0.00045888,2.4976e-32,7.9702e-05,-31.507,-114.29,-43.768,-0.01116,5.5515e-13,-7.7508e-17,77.382,-114.29,-43.768,-31.507,0,0.01717,0,1,4.37,0,-4.37,0
0,0,0,0,0,0,7.9608e-05,-0.00045832,8.8026e-35,-7.1755e-08,3.6494e-18,-5.0237e-22,1.1336,0.00050287,-0.00045832,2.5316e-32,7.9608e-05,-31.467,-114.15,-43.714,-0.011032,5.6109e-13,-7.6516e-17,77.287,-114.15,-43.714,-31.467,0,0.017172,0,1,4.375,0,-4.375,0
0,0,0,0,0,0,7.9513e-05,-0.00045776,8.7504e-35,-7.0776e-08,3.6872e-18,-4.9555e-22,1.1332,0.00050226,-0.00045776,2.5659e-32,7.9513e-05,-31.427,-114.01,-43.66,-0.010882,5.6689e-13,-7.5464e-17,77.193,-114.01,-43.66,-31.427,0,0.017174,0,1,4.38,0,-4.38,0
0,0,0,0,0,0,7.942e-05,-0.00045719,8.6969e-35,-6.9649e-08,3.7241e-18,-4.8834e-22,1.1329,0.00050164,-0.00045719,2.6004e-32,7.942e-05,-31.387,-113.87,-43.606,-0.010708,5.7257e-13,-7.4352e-17,77.098,-113.87,-43.606,-31.387,0,0.017177,0,1,4.385,0,-4.385,0
0,0,0,0,0,0,7.9327e-05,-0.00045663,8.6421e-35,-6.8374e-08,3.7602e-18,-4.8074e-22,1.1325,0.00050102,-0.00045663,2.6351e-32,7.9327e-05,-31.347,-113.72,-43.551,-0.010512,5.7812e-13,-7.3179e-17,77.004,-113.72,-43.551,-31.347,0,0.017179,0,1,4.39,0,-4.39,0
0,0,0,0,0,0,7.9234e-05,-0.00045606,8.5861e-35,-6.695e-08,3.7954e-18,-4.7274e-22,1.1322,0.00050041,-0.00045606,2.67e-32,7.9235e-05,-31.307,-113.58,-43.497,-0.010293,5.8354e-13,-7.1946e-17,76.909,-113.58,-43.497,-31.307,0,0.017181,0,1,4.395,0,-4.395,0
0,0,0,0,0,0,7.9143e-05,-0.0004555,8.5288e-35,-6.5377e-08,3.8299e-18,-4.6434e-22,1.1318,0.00049979,-0.0004555,2.7052e-32,7.9143e-05,-31.267,-113.44,-43.442,-0.010051,5.8883e-13,-7.0653e-17,76.815,-113.44,-43.442,-31.267,0,0.017183,0,1,4.4,0,-4.4,0
0,0,0,0,0,0,7.9051e-05,-0.00045494,8.4702e-35,-6.3656e-08,3.8634e-18,-4.5555e-22,1.1314,0.00049918,-0.00045494,2.7407e-32,7.9051e-05,-31.226,-113.3,-43.388,-0.0097867,5.9399e-13,-6.9299e-17,76.72,-113.3,-43.388,-31.226,0,0.017186,0,1,4.405,0,-4.405,0
0,0,0,0,0,0,7.896e-05,-0.00045437,8.4104e-35,-6.1787e-08,3.8961e-18,-4.4636e-22,1.1311,0.00049856,-0.00045437,2.7763e-32,7.896e-05,-31.186,-113.16,-43.333,-0.0094993,5.9902e-13,-6.7885e-17,76.626,-113.16,-43.333,-31.186,0,0.017188,0,1,4.41,0,-4.41,0
0,0,0,0,0,0,7.887e-05,-0.00045381,8.3493e-35,-5.977e-08,3.928e-18,-4.3677e-22,1.1307,0.00049795,-0.00045381,2.8123e-32,7.887e-05,-31.145,-113.02,-43.278,-0.009189,6.0393e-13,-6.6411e-17,76.532,-113.02,-43.278,-31.145,0,0.01719,0,1,4.415,0,-4.415,0
0,0,0,0,0,0,7.878e-05,-0.00045324,8.287e-35,-5.7604e-08,3.9591e-18,-4.2679e-22,1.1304,0.00049733,-0.00045324,2.8484e-32,7.878e-05,-31.104,-112.88,-43.223,-0.0088559,6.087e-13,-6.4876e-17,76.437,-112.88,-43.223,-31.104,0,0.017192,0,1,4.42,0,-4.42,0
0,0,0,0,0,0,7.8691e-05,-0.00045268,8.2234e-35,-5.5289e-08,3.9892e-18,-4.1641e-22,1.13,0.00049672,-0.00045268,2.8848e-32,7.8691e-05,-31.063,-112.74,-43.169,-0.0085,6.1334e-13,-6.3281e-17,76.343,-112.74,-43.169,-31.063,0,0.017195,0,1,4.425,0,-4.425,0
0,0,0,0,0,0,7.8602e-05,-0.00045211,8.1585e-35,-5.2826e-08,4.0186e-18,-4.0564e-22,1.1296,0.00049611,-0.00045211,2.9214e-32,7.8602e-05,-31.021,-112.59,-43.114,-0.0081213,6.1785e-13,-6.1626e-17,76.249,-112.59,-43.114,-31.021,0,0.017197,0,1,4.43,0,-4.43,0
0,0,0,0,0,0,7.8514e-05,-0.00045155,8.0923e-35,-5.0215e-08,4.0471e-18,-3.9447e-22,1.1293,0.00049549,-0.00045155,2.9582e-32,7.8514e-05,-30.98,-112.45,-43.059,-0.0077197,6.2223e-13,-5.991e-17,76.155,-112.45,-43.059,-30.98,0,0.017199,0,1,4.435,0,-4.435,0
0,0,0,0,0,0,7.8426e-05,-0.00045099,8.0249e-35,-4.7455e-08,4.0748e-18,-3.8291e-22,1.1289,0.00049488,-0.00045099,2.9953e-32,7.8426e-05,-30.939,-112.31,-43.004,-0.0072953,6.2649e-13,-5.8134e-17,76.061,-112.31,-43.004,-30.939,0,0.017201,0,1,4.44,0,-4.44,0
0,0,0,0,0,0,7.8339e-05,-0.00045042,7.9562e-35,-4.4547e-08,4.1016e-18,-3.7095e-22,1.1286,0.00049427,-0.00045042,3.0326e-32,7.8339e-05,-30.897,-112.17,-42.949,-0.0068481,6.3061e-13,-5.6297e-17,75.966,-112.17,-42.949,-30.897,0,0.017204,0,1,4.445,0,-4.445,0
0,0,0,0,0,0,7.8252e-05,-0.00044986,7.8863e-35,-4.1491e-08,4.1275e-18,-3.5859e-22,1.1282,0.00049366,-0.00044986,3.0702e-32,7.8252e-05,-30.855,-112.03,-42.893,-0.0063781,6.346e-13,-5.4401e-17,75.872,-112.03,-42.893,-30.855,0,0.017206,0,1,4.45,0,-4.45,0
0,0,0,0,0,0,7.8166e-05,-0.00044929,7.815e-35,-3.8286e-08,4.1527e-18,-3.4584e-22,1.1278,0.00049304,-0.00044929,3.108e-32,7.8166e-05,-30.813,-111.89,-42.838,-0.0058852,6.3847e-13,-5.2444e-17,75.778,-111.89,-42.838,-30.813,0,0.017208,0,1,4.455,0,-4.455,0
0,0,0,0,0,0,7.808e-05,-0.00044873,7.7426e-35,-3.4933e-08,4.177e-18,-3.3269e-22,1.1275,0.00049243,-0.00044873,3.146e-32,7.808e-05,-30.771,-111.74,-42.783,-0.0053695,6.422e-13,-5.0426e-17,75.684,-111.74,-42.783,-30.771,0,0.01721,0,1,4.46,0,-4.46,0
0,0,0,0,0,0,7.7995e-05,-0.00044816,7.6688e-35,-3.1431e-08,4.2004e-18,-3.1915e-22,1.1271,0.00049182,-0.00044816,3.1842e-32,7.7995e-05,-30.729,-111.6,-42.727,-0.004831,6.4581e-13,-4.8348e-17,75.591,-111.6,-42.727,-30.729,0,0.017213,0,1,4.465,0,-4.465,0
0,0,0,0,0,0,7.791e-05,-0.0004476,7.5938e-35,-2.7781e-08,4.223e-18,-3.0521e-22,1.1268,0.00049121,-0.0004476,3.2227e-32,7.791e-05,-30.686,-111.46,-42.672,-0.0042697,6.4928e-13,-4.6211e-17,75.497,-111.46,-42.672,-30.686,0,0.017215,0,1,4.47,0,-4.47,0
0,0,0,0,0,0,7.7826e-05,-0.00044703,7.5175e-35,-2.3982e-08,4.2448e-18,-2.9087e-22,1.1264,0.0004906,-0.00044703,3.2614e-32,7.7826e-05,-30.644,-111.32,-42.617,-0.0036856,6.5263e-13,-4.4012e-17,75.403,-111.32,-42.617,-30.644,0,0.017217,0,1,4.475,0,-4.475,0
0,0,0,0,0,0,7.7742e-05,-0.00044647,7.44e-35,-2.0035e-08,4.2657e-18,-2.7614e-22,1.126,0.00048999,-0.00044647,3.3004e-32,7.7742e-05,-30.601,-111.17,-42.561,-0.0030786,6.5584e-13,-4.1753e-17,75.309,-111.17,-42.561,-30.601,0,0.017219,0,1,4.48,0,-4.48,0
0,0,0,0,0,0,7.7659e-05,-0.0004459,7.3612e-35,-1.594e-08,4.2857e-18,-2.6101e-22,1.1257,0.00048938,-0.0004459,3.3396e-32,7.7659e-05,-30.558,-111.03,-42.505,-0.0024488,6.5893e-13,-3.9434e-17,75.215,-111.03,-42.505,-30.558,0,0.017222,0,1,4.485,0,-4.485,0
0,0,0,0,0,0,7.7577e-05,-0.00044534,7.2811e-35,-1.1696e-08,4.305e-18,-2.4549e-22,1.1253,0.00048877,-0.00044534,3.379e-32,7.7577e-05,-30.515,-110.89,-42.45,-0.0017962,6.6189e-13,-3.7055e-17,75.122,-110.89,-42.45,-30.515,0,0.017224,0,1,4.49,0,-4.49,0
0,0,0,0,0,0,7.7495e-05,-0.00044477,7.1997e-35,-7.3042e-09,4.3234e-18,-2.2957e-22,1.125,0.00048816,-0.00044477,3.4187e-32,7.7495e-05,-30.472,-110.75,-42.394,-0.0011207,6.6471e-13,-3.4615e-17,75.028,-110.75,-42.394,-30.472,0,0.017226,0,1,4.495,0,-4.495,0
0,0,0,0,0,0,7.7413e-05,-0.00044421,7.1171e-35,-2.7635e-09,4.3409e-18,-2.1326e-22,1.1246,0.00048755,-0.00044421,3.4586e-32,7.7413e-05,-30.429,-110.6,-42.338,-0.00042246,6.6741e-13,-3.2115e-17,74.934,-110.6,-42.338,-30.429,0,0.017228,0,1,4.5,0,-4.5,0
0,0,0,0,0,0,7.7332e-05,-0.00044364,7.0333e-35,1.9256e-09,4.3576e-18,-1.9654e-22,1.1242,0.00048694,-0.00044364,3.4988e-32,7.7332e-05,-30.385,-110.46,-42.282,0.00029865,6.6998e-13,-2.9554e-17,74.841,-110.46,-42.282,-30.385,0,0.017231,0,1,4.505,0,-4.505,0
0,0,0,0,0,0,7.7252e-05,-0.00044308,6.9481e-35,6.7631e-09,4.3735e-18,-1.7944e-22,1.1239,0.00048633,-0.00044308,3.5391e-32,7.7252e-05,-30.342,-110.32,-42.226,0.0010426,6.7242e-13,-2.6934e-17,74.747,-110.32,-42.226,-30.342,0,0.017233,0,1,4.51,0,-4.51,0
0,0,0,0,0,0,7.7172e-05,-0.00044251,6.8617e-35,1.1749e-08,4.3885e-18,-1.6194e-22,1.1235,0.00048572,-0.00044251,3.5797e-32,7.7172e-05,-30.298,-110.18,-42.17,0.0018093,6.7472e-13,-2.4253e-17,74.654,-110.18,-42.17,-30.298,0,0.017235,0,1,4.515,0,-4.515,0
0,0,0,0,0,0,7.7092e-05,-0.00044195,6.774e-35,1.6883e-08,4.4026e-18,-1.4404e-22,1.1232,0.00048511,-0.00044195,3.6206e-32,7.7092e-05,-30.254,-110.03,-42.114,0.0025988,6.769e-13,-2.1511e-17,74.561,-110.03,-42.114,-30.254,0,0.017237,0,1,4.52,0,-4.52,0
0,0,0,0,0,0,7.7013e-05,-0.00044138,6.6851e-35,2.2166e-08,4.416e-18,-1.2574e-22,1.1228,0.0004845,-0.00044138,3.6617e-32,7.7014e-05,-30.21,-109.89,-42.058,0.0034112,6.7895e-13,-1.8709e-17,74.467,-109.89,-42.058,-30.21,0,0.017239,0,1,4.525,0,-4.525,0
0,0,0,0,0,0,7.6935e-05,-0.00044082,6.5949e-35,2.7597e-08,4.4284e-18,-1.0705e-22,1.1224,0.0004839,-0.00044082,3.703e-32,7.6935e-05,-30.166,-109.75,-42.002,0.0042464,6.8087e-13,-1.5847e-17,74.374,-109.75,-42.002,-30.166,0,0.017242,0,1,4.53,0,-4.53,0
0,0,0,0,0,0,7.6857e-05,-0.00044025,6.5034e-35,3.3176e-08,4.4401e-18,-8.7968e-23,1.1221,0.00048329,-0.00044025,3.7445e-32,7.6857e-05,-30.122,-109.6,-41.946,0.0051044,6.8266e-13,-1.2925e-17,74.28,-109.6,-41.946,-30.122,0,0.017244,0,1,4.535,0,-4.535,0
0,0,0,0,0,0,7.678e-05,-0.00043969,6.4107e-35,3.8904e-08,4.4509e-18,-6.8486e-23,1.1217,0.00048268,-0.00043969,3.7863e-32,7.678e-05,-30.077,-109.46,-41.889,0.0059853,6.8432e-13,-9.942e-18,74.187,-109.46,-41.889,-30.077,0,0.017246,0,1,4.54,0,-4.54,0
0,0,0,0,0,0,7.6703e-05,-0.00043912,6.3167e-35,4.478e-08,4.4608e-18,-4.8608e-23,1.1214,0.00048207,-0.00043912,3.8283e-32,7.6703e-05,-30.033,-109.32,-41.833,0.006889,6.8585e-13,-6.8988e-18,74.094,-109.32,-41.833,-30.033,0,0.017248,0,1,4.545,0,-4.545,0
0,0,0,0,0,0,7.6627e-05,-0.00043856,6.2214e-35,5.0805e-08,4.4699e-18,-2.8335e-23,1.121,0.00048147,-0.00043856,3.8706e-32,7.6627e-05,-29.988,-109.18,-41.776,0.0078155,6.8725e-13,-3.7952e-18,74.001,-109.18,-41.776,-29.988,0,0.01725,0,1,4.55,0,-4.55,0
0,0,0,0,0,0,7.6551e-05,-0.00043799,6.1249e-35,5.6978e-08,4.4782e-18,-7.6669e-24,1.1206,0.00048086,-0.00043799,3.9131e-32,7.6551e-05,-29.943,-109.03,-41.72,0.0087647,6.8852e-13,-6.3167e-19,73.908,-109.03,-41.72,-29.943,0,0.017253,0,1,4.555,0,-4.555,0
0,0,0,0,0,0,7.6476e-05,-0.00043743,6.0271e-35,6.33e-08,4.4856e-18,1.3399e-23,1.1203,0.00048025,-0.00043743,3.9558e-32,7.6476e-05,-29.898,-108.89,-41.663,0.0097369,6.8966e-13,2.5925e-18,73.815,-108.89,-41.663,-29.898,0,0.017255,0,1,4.56,0,-4.56,0
0,0,0,0,0,0,7.6401e-05,-0.00043686,5.928e-35,6.977e-08,4.4922e-18,3.486e-23,1.1199,0.00047965,-0.00043686,3.9988e-32,7.6401e-05,-29.853,-108.75,-41.607,0.010732,6.9068e-13,5.8771e-18,73.722,-108.75,-41.607,-29.853,0,0.017257,0,1,4.565,0,-4.565,0
0,0,0,0,0,0,7.6327e-05,-0.0004363,5.8277e-35,7.6388e-08,4.4979e-18,5.6717e-23,1.1196,0.00047904,-0.0004363,4.042e-32,7.6327e-05,-29.807,-108.6,-41.55,0.01175,6.9156e-13,9.222e-18,73.629,-108.6,-41.55,-29.807,0,0.017259,0,1,4.57,0,-4.57,0
0,0,0,0,0,0,7.6253e-05,-0.00043573,5.7261e-35,8.3154e-08,4.5028e-18,7.8968e-23,1.1192,0.00047844,-0.00043573,4.0854e-32,7.6253e-05,-29.762,-108.46,-41.493,0.01279,6.9231e-13,1.2627e-17,73.536,-108.46,-41.493,-29.762,0,0.017261,0,1,4.575,0,-4.575,0
0,0,0,0,0,0,7.618e-05,-0.00043516,5.6233e-35,9.007e-08,4.5069e-18,1.0162e-22,1.1188,0.00047783,-0.00043516,4.1291e-32,7.618e-05,-29.716,-108.31,-41.436,0.013854,6.9293e-13,1.6092e-17,73.443,-108.31,-41.436,-29.716,0,0.017264,0,1,4.58,0,-4.58,0
0,0,0,0,0,0,7.6107e-05,-0.0004346,5.5191e-35,9.7133e-08,4.5101e-18,1.2466e-22,1.1185,0.00047723,-0.0004346,4.173e-32,7.6107e-05,-29.671,-108.17,-41.379,0.01494,6.9343e-13,1.9618e-17,73.35,-108.17,-41.379,-29.671,0,0.017266,0,1,4.585,0,-4.585,0
0,0,0,0,0,0,7.6035e-05,-0.00043403,5.4137e-35,1.0435e-07,4.5124e-18,1.481e-22,1.1181,0.00047662,-0.00043403,4.2171e-32,7.6035e-05,-29.625,-108.03,-41.322,0.016049,6.9379e-13,2.3205e-17,73.257,-108.03,-41.322,-29.625,0,0.017268,0,1,4.59,0,-4.59,0
0,0,0,0,0,0,7.5964e-05,-0.00043347,5.3071e-35,1.1171e-07,4.514e-18,1.7194e-22,1.1178,0.00047602,-0.00043347,4.2615e-32,7.5964e-05,-29.579,-107.88,-41.265,0.017181,6.9403e-13,2.6851e-17,73.164,-107.88,-41.265,-29.579,0,0.01727,0,1,4.595,0,-4.595,0
0,0,0,0,0,0,7.5893e-05,-0.0004329,5.1992e-35,1.1921e-07,4.5146e-18,1.9617e-22,1.1174,0.00047541,-0.0004329,4.3061e-32,7.5893e-05,-29.533,-107.74,-41.208,0.018336,6.9413e-13,3.0558e-17,73.071,-107.74,-41.208,-29.533,0,0.017272,0,1,4.6,0,-4.6,0
0,0,0,0,0,0,7.5822e-05,-0.00043234,5.09e-35,1.2687e-07,4.5145e-18,2.208e-22,1.117,0.00047481,-0.00043234,4.3509e-32,7.5822e-05,-29.486,-107.59,-41.151,0.019513,6.941e-13,3.4325e-17,72.979,-107.59,-41.151,-29.486,0,0.017274,0,1,4.605,0,-4.605,0
0,0,0,0,0,0,7.5752e-05,-0.00043177,4.9795e-35,1.3468e-07,4.5135e-18,2.4582e-22,1.1167,0.00047421,-0.00043177,4.396e-32,7.5752e-05,-29.44,-107.45,-41.094,0.020714,6.9395e-13,3.8153e-17,72.886,-107.45,-41.094,-29.44,0,0.017277,0,1,4.61,0,-4.61,0
0,0,0,0,0,0,7.5683e-05,-0.0004312,4.8678e-35,1.4263e-07,4.5116e-18,2.7124e-22,1.1163,0.0004736,-0.0004312,4.4413e-32,7.5683e-05,-29.393,-107.31,-41.036,0.021937,6.9367e-13,4.204e-17,72.793,-107.31,-41.036,-29.393,0,0.017279,0,1,4.615,0,-4.615,0
0,0,0,0,0,0,7.5614e-05,-0.00043064,4.7548e-35,1.5073e-07,4.5089e-18,2.9706e-22,1.116,0.000473,-0.00043064,4.4869e-32,7.5614e-05,-29.346,-107.16,-40.979,0.023183,6.9325e-13,4.5988e-17,72.701,-107.16,-40.979,-29.346,0,0.017281,0,1,4.62,0,-4.62,0
0,0,0,0,0,0,7.5545e-05,-0.00043007,4.6406e-35,1.5898e-07,4.5054e-18,3.2327e-22,1.1156,0.0004724,-0.00043007,4.5327e-32,7.5545e-05,-29.299,-107.02,-40.921,0.024452,6.9271e-13,4.9997e-17,72.608,-107.02,-40.921,-29.299,0,0.017283,0,1,4.625,0,-4.625,0
0,0,0,0,0,0,7.5477e-05,-0.00042951,4.525e-35,1.6738e-07,4.501e-18,3.4988e-22,1.1152,0.00047179,-0.00042951,4.5787e-32,7.5477e-05,-29.252,-106.87,-40.864,0.025743,6.9203e-13,5.4066e-17,72.516,-106.87,-40.864,-29.252,0,0.017285,0,1,4.63,0,-4.63,0
0,0,0,0,0,0,7.541e-05,-0.00042894,4.4082e-35,1.7593e-07,4.4958e-18,3.7688e-22,1.1149,0.00047119,-0.00042894,4.625e-32,7.541e-05,-29.205,-106.73,-40.806,0.027058,6.9123e-13,5.8195e-17,72.423,-106.73,-40.806,-29.205,0,0.017287,0,1,4.635,0,-4.635,0
0,0,0,0,0,0,7.5343e-05,-0.00042837,4.2902e-35,1.8463e-07,4.4897e-18,4.0428e-22,1.1145,0.00047059,-0.00042837,4.6714e-32,7.5343e-05,-29.158,-106.58,-40.749,0.028395,6.903e-13,6.2385e-17,72.331,-106.58,-40.749,-29.158,0,0.017289,0,1,4.64,0,-4.64,0
0,0,0,0,0,0,7.5278e-05,-0.00042785,4.2385e-35,1.889e-07,4.5054e-18,4.1626e-22,1.1142,0.00047004,-0.00042785,4.7347e-32,7.5278e-05,-29.115,-106.45,-40.696,0.029052,6.9271e-13,6.4213e-17,72.246,-106.45,-40.696,-29.115,0,0.017292,0,1,4.645,0,-4.645,0
0,0,0,0,0,0,7.5217e-05,-0.00042744,4.3428e-35,1.826e-07,4.5724e-18,3.9177e-22,1.114,0.00046959,-0.00042744,4.8354e-32,7.5217e-05,-29.084,-106.35,-40.656,0.028084,7.0302e-13,6.0457e-17,72.178,-106.35,-40.656,-29.084,0,0.017294,0,1,4.65,0,-4.65,0
0,0,0,0,0,0,7.5156e-05,-0.00042704,4.4452e-35,1.7639e-07,4.6379e-18,3.6772e-22,1.1138,0.00046915,-0.00042704,4.9343e-32,7.5156e-05,-29.054,-106.25,-40.616,0.027128,7.1309e-13,5.6765e-17,72.11,-106.25,-40.616,-29.053,0,0.017296,0,1,4.655,0,-4.655,0
0,0,0,0,0,0,7.5096e-05,-0.00042663,4.5459e-35,1.7026e-07,4.7019e-18,3.4409e-22,1.1136,0.00046871,-0.00042663,5.0313e-32,7.5096e-05,-29.022,-106.14,-40.575,0.026186,7.2293e-13,5.314e-17,72.042,-106.14,-40.575,-29.022,0,0.017298,0,1,4.66,0,-4.66,0
0,0,0,0,0,0,7.5036e-05,-0.00042622,4.6448e-35,1.6422e-07,4.7643e-18,3.2088e-22,1.1134,0.00046826,-0.00042622,5.1266e-32,7.5036e-05,-28.991,-106.04,-40.535,0.025256,7.3253e-13,4.958e-17,71.974,-106.04,-40.535,-28.991,0,0.0173,0,1,4.665,0,-4.665,0
0,0,0,0,0,0,7.4976e-05,-0.00042581,4.7418e-35,1.5825e-07,4.8252e-18,2.9811e-22,1.1132,0.00046782,-0.00042581,5.22e-32,7.4976e-05,-28.96,-105.94,-40.495,0.024339,7.4189e-13,4.6085e-17,71.906,-105.94,-40.495,-28.96,0,0.017302,0,1,4.67,0,-4.67,0
0,0,0,0,0,0,7.4917e-05,-0.0004254,4.837e-35,1.5237e-07,4.8845e-18,2.7575e-22,1.113,0.00046738,-0.0004254,5.3116e-32,7.4917e-05,-28.929,-105.83,-40.454,0.023434,7.5101e-13,4.2656e-17,71.838,-105.83,-40.454,-28.929,0,0.017304,0,1,4.675,0,-4.675,0
0,0,0,0,0,0,7.4858e-05,-0.00042499,4.9304e-35,1.4657e-07,4.9423e-18,2.5383e-22,1.1128,0.00046694,-0.00042499,5.4014e-32,7.4858e-05,-28.897,-105.73,-40.414,0.022543,7.599e-13,3.9292e-17,71.77,-105.73,-40.414,-28.897,0,0.017306,0,1,4.68,0,-4.68,0
0,0,0,0,0,0,7.4799e-05,-0.00042458,5.022e-35,1.4086e-07,4.9986e-18,2.3234e-22,1.1126,0.0004665,-0.00042458,5.4894e-32,7.4799e-05,-28.866,-105.63,-40.373,0.021664,7.6854e-13,3.5994e-17,71.702,-105.63,-40.373,-28.866,0,0.017309,0,1,4.685,0,-4.685,0
0,0,0,0,0,0,7.4741e-05,-0.00042417,5.1118e-35,1.3523e-07,5.0533e-18,2.1127e-22,1.1124,0.00046605,-0.00042417,5.5756e-32,7.4741e-05,-28.834,-105.52,-40.333,0.020798,7.7695e-13,3.2761e-17,71.635,-105.52,-40.333,-28.834,0,0.017311,0,1,4.69,0,-4.69,0
0,0,0,0,0,0,7.4683e-05,-0.00042376,5.1998e-35,1.2968e-07,5.1064e-18,1.9063e-22,1.1122,0.00046561,-0.00042376,5.6599e-32,7.4683e-05,-28.803,-105.42,-40.292,0.019944,7.8513e-13,2.9594e-17,71.567,-105.42,-40.292,-28.803,0,0.017313,0,1,4.695,0,-4.695,0
0,0,0,0,0,0,7.4625e-05,-0.00042335,5.2859e-35,1.2421e-07,5.158e-18,1.7041e-22,1.112,0.00046517,-0.00042335,5.7424e-32,7.4625e-05,-28.771,-105.32,-40.252,0.019103,7.9306e-13,2.6493e-17,71.499,-105.32,-40.252,-28.771,0,0.017315,0,1,4.7,0,-4.7,0
0,0,0,0,0,0,7.4568e-05,-0.00042294,5.3703e-35,1.1883e-07,5.2081e-18,1.5063e-22,1.1118,0.00046473,-0.00042294,5.8231e-32,7.4568e-05,-28.739,-105.21,-40.211,0.018275,8.0076e-13,2.3457e-17,71.431,-105.21,-40.211,-28.739,0,0.017317,0,1,4.705,0,-4.705,0
0,0,0,0,0,0,7.451e-05,-0.00042253,5.4528e-35,1.1352e-07,5.2566e-18,1.3126e-22,1.1116,0.00046429,-0.00042253,5.902e-32,7.4511e-05,-28.707,-105.11,-40.17,0.01746,8.0822e-13,2.0486e-17,71.364,-105.11,-40.17,-28.707,0,0.017319,0,1,4.71,0,-4.71,0
0,0,0,0,0,0,7.4454e-05,-0.00042212,5.5335e-35,1.0831e-07,5.3035e-18,1.1233e-22,1.1114,0.00046385,-0.00042212,5.979e-32,7.4454e-05,-28.675,-105,-40.129,0.016657,8.1544e-13,1.7581e-17,71.296,-105,-40.129,-28.675,0,0.017321,0,1,4.715,0,-4.715,0
0,0,0,0,0,0,7.4397e-05,-0.00042171,5.6124e-35,1.0317e-07,5.349e-18,9.3826e-23,1.1112,0.00046341,-0.00042171,6.0543e-32,7.4397e-05,-28.643,-104.9,-40.089,0.015867,8.2242e-13,1.4741e-17,71.228,-104.9,-40.089,-28.643,0,0.017323,0,1,4.72,0,-4.72,0
0,0,0,0,0,0,7.4341e-05,-0.0004213,5.6895e-35,9.8116e-08,5.3928e-18,7.5746e-23,1.111,0.00046297,-0.0004213,6.1277e-32,7.4341e-05,-28.611,-104.8,-40.048,0.01509,8.2917e-13,1.1967e-17,71.161,-104.8,-40.048,-28.611,0,0.017326,0,1,4.725,0,-4.725,0
0,0,0,0,0,0,7.4286e-05,-0.00042089,5.7648e-35,9.3145e-08,5.4352e-18,5.8094e-23,1.1108,0.00046253,-0.00042089,6.1993e-32,7.4286e-05,-28.578,-104.69,-40.007,0.014326,8.3568e-13,9.2581e-18,71.093,-104.69,-40.007,-28.578,0,0.017328,0,1,4.73,0,-4.73,0
0,0,0,0,0,0,7.423e-05,-0.00042048,5.8382e-35,8.8258e-08,5.4759e-18,4.0868e-23,1.1106,0.00046209,-0.00042048,6.2691e-32,7.423e-05,-28.546,-104.59,-39.966,0.013574,8.4195e-13,6.6149e-18,71.025,-104.59,-39.966,-28.546,0,0.01733,0,1,4.735,0,-4.735,0
0,0,0,0,0,0,7.4175e-05,-0.00042007,5.9099e-35,8.3453e-08,5.5152e-18,2.4071e-23,1.1104,0.00046165,-0.00042007,6.3371e-32,7.4175e-05,-28.514,-104.49,-39.925,0.012835,8.4798e-13,4.0374e-18,70.958,-104.49,-39.925,-28.514,0,0.017332,0,1,4.74,0,-4.74,0
0,0,0,0,0,0,7.4121e-05,-0.00041966,5.9797e-35,7.873e-08,5.5529e-18,7.6999e-24,1.1102,0.00046121,-0.00041966,6.4032e-32,7.4121e-05,-28.481,-104.38,-39.884,0.012109,8.5378e-13,1.5251e-18,70.89,-104.38,-39.884,-28.481,0,0.017334,0,1,4.745,0,-4.745,0
0,0,0,0,0,0,7.4066e-05,-0.00041925,6.0477e-35,7.4091e-08,5.589e-18,-8.2445e-24,1.11,0.00046077,-0.00041925,6.4675e-32,7.4066e-05,-28.448,-104.28,-39.843,0.011395,8.5933e-13,-9.2163e-19,70.823,-104.28,-39.843,-28.448,0,0.017336,0,1,4.75,0,-4.75,0
0,0,0,0,0,0,7.4012e-05,-0.00041884,6.1139e-35,6.9534e-08,5.6236e-18,-2.3762e-23,1.1098,0.00046033,-0.00041884,6.53e-32,7.4012e-05,-28.415,-104.17,-39.802,0.010695,8.6465e-13,-3.3029e-18,70.756,-104.17,-39.802,-28.415,0,0.017338,0,1,4.755,0,-4.755,0
0,0,0,0,0,0,7.3959e-05,-0.00041843,6.1783e-35,6.506e-08,5.6567e-18,-3.8852e-23,1.1096,0.00045989,-0.00041843,6.5907e-32,7.3959e-05,-28.383,-104.07,-39.761,0.010006,8.6974e-13,-5.6186e-18,70.688,-104.07,-39.761,-28.383,0,0.01734,0,1,4.76,0,-4.76,0
0,0,0,0,0,0,7.3905e-05,-0.00041802,6.2409e-35,6.0669e-08,5.6882e-18,-5.3514e-23,1.1094,0.00045945,-0.00041802,6.6496e-32,7.3905e-05,-28.35,-103.97,-39.719,0.0093312,8.7458e-13,-7.8687e-18,70.621,-103.97,-39.719,-28.35,0,0.017342,0,1,4.765,0,-4.765,0
0,0,0,0,0,0,7.3852e-05,-0.00041761,6.3017e-35,5.636e-08,5.7181e-18,-6.775e-23,1.1092,0.00045901,-0.00041761,6.7066e-32,7.3852e-05,-28.317,-103.86,-39.678,0.0086685,8.7919e-13,-1.0053e-17,70.553,-103.86,-39.678,-28.317,0,0.017344,0,1,4.77,0,-4.77,0
0,0,0,0,0,0,7.38e-05,-0.0004172,6.3606e-35,5.2134e-08,5.7465e-18,-8.1559e-23,1.109,0.00045858,-0.0004172,6.7619e-32,7.38e-05,-28.283,-103.76,-39.637,0.0080186,8.8356e-13,-1.2173e-17,70.486,-103.76,-39.637,-28.283,0,0.017347,0,1,4.775,0,-4.775,0
0,0,0,0,0,0,7.3747e-05,-0.00041679,6.4178e-35,4.7991e-08,5.7734e-18,-9.494e-23,1.1088,0.00045814,-0.00041679,6.8153e-32,7.3747e-05,-28.25,-103.65,-39.596,0.0073815,8.8769e-13,-1.4226e-17,70.419,-103.65,-39.596,-28.25,0,0.017349,0,1,4.78,0,-4.78,0
0,0,0,0,0,0,7.3695e-05,-0.00041638,6.4731e-35,4.3931e-08,5.7987e-18,-1.0789e-22,1.1086,0.0004577,-0.00041638,6.8669e-32,7.3695e-05,-28.217,-103.55,-39.554,0.0067571,8.9158e-13,-1.6215e-17,70.351,-103.55,-39.554,-28.217,0,0.017351,0,1,4.785,0,-4.785,0
0,0,0,0,0,0,7.3644e-05,-0.00041597,6.5266e-35,3.9953e-08,5.8225e-18,-1.2042e-22,1.1084,0.00045726,-0.00041597,6.9167e-32,7.3644e-05,-28.183,-103.44,-39.513,0.0061453,8.9524e-13,-1.8137e-17,70.284,-103.44,-39.513,-28.183,0,0.017353,0,1,4.79,0,-4.79,0
0,0,0,0,0,0,7.3592e-05,-0.00041556,6.5783e-35,3.6058e-08,5.8447e-18,-1.3252e-22,1.1082,0.00045682,-0.00041556,6.9646e-32,7.3592e-05,-28.15,-103.34,-39.472,0.0055463,8.9866e-13,-1.9995e-17,70.217,-103.34,-39.472,-28.15,0,0.017355,0,1,4.795,0,-4.795,0
0,0,0,0,0,0,7.3541e-05,-0.00041515,6.6282e-35,3.2246e-08,5.8654e-18,-1.442e-22,1.108,0.00045639,-0.00041515,7.0108e-32,7.3541e-05,-28.116,-103.24,-39.43,0.00496,9.0184e-13,-2.1786e-17,70.15,-103.24,-39.43,-28.116,0,0.017357,0,1,4.8,0,-4.8,0
0,0,0,0,0,0,7.3491e-05,-0.00041474,6.6762e-35,2.8517e-08,5.8846e-18,-1.5544e-22,1.1078,0.00045595,-0.00041474,7.0551e-32,7.3491e-05,-28.082,-103.13,-39.389,0.0043865,9.0478e-13,-2.3512e-17,70.083,-103.13,-39.389,-28.082,0,0.017359,0,1,4.805,0,-4.805,0
0,0,0,0,0,0,7.3441e-05,-0.00041433,6.7225e-35,2.487e-08,5.9022e-18,-1.6626e-22,1.1076,0.00045551,-0.00041433,7.0976e-32,7.3441e-05,-28.049,-103.03,-39.347,0.0038257,9.0749e-13,-2.5173e-17,70.016,-103.03,-39.347,-28.049,0,0.017361,0,1,4.81,0,-4.81,0
0,0,0,0,0,0,7.3391e-05,-0.00041392,6.7669e-35,2.1306e-08,5.9182e-18,-1.7665e-22,1.1074,0.00045508,-0.00041392,7.1383e-32,7.3391e-05,-28.015,-102.92,-39.305,0.0032776,9.0996e-13,-2.6769e-17,69.948,-102.92,-39.305,-28.015,0,0.017363,0,1,4.815,0,-4.815,0
0,0,0,0,0,0,7.3341e-05,-0.00041351,6.8096e-35,1.7825e-08,5.9327e-18,-1.8662e-22,1.1072,0.00045464,-0.00041351,7.1771e-32,7.3341e-05,-27.981,-102.82,-39.264,0.0027423,9.1219e-13,-2.8298e-17,69.881,-102.82,-39.264,-27.981,0,0.017365,0,1,4.82,0,-4.82,0
0,0,0,0,0,0,7.3292e-05,-0.0004131,6.8504e-35,1.4427e-08,5.9457e-18,-1.9616e-22,1.107,0.0004542,-0.0004131,7.2142e-32,7.3292e-05,-27.947,-102.71,-39.222,0.0022197,9.1418e-13,-2.9762e-17,69.814,-102.71,-39.222,-27.947,0,0.017367,0,1,4.825,0,-4.825,0
0,0,0,0,0,0,7.3243e-05,-0.00041269,6.8894e-35,1.1111e-08,5.9571e-18,-2.0527e-22,1.1068,0.00045377,-0.00041269,7.2494e-32,7.3243e-05,-27.912,-102.61,-39.18,0.0017097,9.1593e-13,-3.1161e-17,69.747,-102.61,-39.18,-27.912,0,0.017369,0,1,4.83,0,-4.83,0
0,0,0,0,0,0,7.3194e-05,-0.00041228,6.9266e-35,7.8785e-09,5.967e-18,-2.1395e-22,1.1066,0.00045333,-0.00041228,7.2828e-32,7.3194e-05,-27.878,-102.5,-39.139,0.0012125,9.1745e-13,-3.2495e-17,69.68,-102.5,-39.139,-27.878,0,0.017371,0,1,4.835,0,-4.835,0
0,0,0,0,0,0,7.3146e-05,-0.00041187,6.9619e-35,4.7283e-09,5.9753e-18,-2.2221e-22,1.1064,0.00045289,-0.00041187,7.3144e-32,7.3146e-05,-27.844,-102.4,-39.097,0.00072807,9.1873e-13,-3.3762e-17,69.613,-102.4,-39.097,-27.844,0,0.017374,0,1,4.84,0,-4.84,0
0,0,0,0,0,0,7.3098e-05,-0.00041146,6.9955e-35,1.6611e-09,5.982e-18,-2.3004e-22,1.1062,0.00045246,-0.00041146,7.3442e-32,7.3098e-05,-27.809,-102.29,-39.055,0.00025637,9.1977e-13,-3.4964e-17,69.546,-102.29,-39.055,-27.809,0,0.017376,0,1,4.845,0,-4.845,0
0,0,0,0,0,0,7.305e-05,-0.00041105,7.0272e-35,-1.3236e-09,5.9873e-18,-2.3744e-22,1.106,0.00045202,-0.00041105,7.3721e-32,7.305e-05,-27.775,-102.19,-39.013,-0.00020264,9.2058e-13,-3.6101e-17,69.48,-102.19,-39.013,-27.775,0,0.017378,0,1,4.85,0,-4.85,0
0,0,0,0,0,0,7.3003e-05,-0.00041064,7.0572e-35,-4.2255e-09,5.991e-18,-2.4442e-22,1.1058,0.00045159,-0.00041064,7.3982e-32,7.3003e-05,-27.74,-102.08,-38.971,-0.00064894,9.2114e-13,-3.7173e-17,69.413,-102.08,-38.971,-27.74,0,0.01738,0,1,4.855,0,-4.855,0
0,0,0,0,0,0,7.2956e-05,-0.00041023,7.0853e-35,-7.0447e-09,5.9931e-18,-2.5097e-22,1.1056,0.00045115,-0.00041023,7.4226e-32,7.2956e-05,-27.705,-101.98,-38.929,-0.0010825,9.2147e-13,-3.8178e-17,69.346,-101.98,-38.929,-27.705,0,0.017382,0,1,4.86,0,-4.86,0
0,0,0,0,0,0,7.2909e-05,-0.00040982,7.1116e-35,-9.7809e-09,5.9937e-18,-2.5709e-22,1.1054,0.00045072,-0.00040982,7.445e-32,7.2909e-05,-27.671,-101.87,-38.887,-0.0015033,9.2156e-13,-3.9119e-17,69.279,-101.87,-38.887,-27.671,0,0.017384,0,1,4.865,0,-4.865,0
0,0,0,0,0,0,7.2863e-05,-0.00040941,7.1361e-35,-1.2435e-08,5.9927e-18,-2.6278e-22,1.1052,0.00045028,-0.00040941,7.4657e-32,7.2863e-05,-27.636,-101.77,-38.845,-0.0019114,9.2142e-13,-3.9993e-17,69.212,-101.77,-38.845,-27.636,0,0.017386,0,1,4.87,0,-4.87,0
0,0,0,0,0,0,7.2817e-05,-0.000409,7.1587e-35,-1.5006e-08,5.9902e-18,-2.6805e-22,1.105,0.00044985,-0.000409,7.4846e-32,7.2817e-05,-27.601,-101.66,-38.803,-0.0023068,9.2103e-13,-4.0803e-17,69.146,-101.66,-38.803,-27.601,0,0.017388,0,1,4.875,0,-4.875,0
0,0,0,0,0,0,7.2771e-05,-0.00040859,7.1796e-35,-1.7494e-08,5.9862e-18,-2.7289e-22,1.1048,0.00044941,-0.00040859,7.5016e-32,7.2771e-05,-27.566,-101.56,-38.761,-0.0026895,9.2041e-13,-4.1547e-17,69.079,-101.56,-38.761,-27.566,0,0.01739,0,1,4.88,0,-4.88,0
0,0,0,0,0,0,7.2726e-05,-0.00040818,7.1987e-35,-1.9899e-08,5.9806e-18,-2.773e-22,1.1046,0.00044898,-0.00040818,7.5168e-32,7.2726e-05,-27.53,-101.45,-38.719,-0.0030594,9.1955e-13,-4.2225e-17,69.012,-101.45,-38.719,-27.53,0,0.017392,0,1,4.885,0,-4.885,0
0,0,0,0,0,0,7.2681e-05,-0.00040777,7.2159e-35,-2.2222e-08,5.9734e-18,-2.8129e-22,1.1044,0.00044854,-0.00040777,7.5302e-32,7.2681e-05,-27.495,-101.35,-38.677,-0.0034166,9.1845e-13,-4.2838e-17,68.945,-101.35,-38.677,-27.495,0,0.017394,0,1,4.89,0,-4.89,0
0,0,0,0,0,0,7.2637e-05,-0.00040735,7.2313e-35,-2.4462e-08,5.9648e-18,-2.8485e-22,1.1042,0.00044811,-0.00040735,7.5418e-32,7.2637e-05,-27.46,-101.24,-38.634,-0.003761,9.1712e-13,-4.3385e-17,68.879,-101.24,-38.634,-27.46,0,0.017396,0,1,4.895,0,-4.895,0
0,0,0,0,0,0,7.2592e-05,-0.00040694,7.2449e-35,-2.6619e-08,5.9545e-18,-2.8798e-22,1.104,0.00044768,-0.00040694,7.5516e-32,7.2592e-05,-27.424,-101.14,-38.592,-0.0040928,9.1555e-13,-4.3867e-17,68.812,-101.14,-38.592,-27.424,0,0.017398,0,1,4.9,0,-4.9,0
0,0,0,0,0,0,7.2548e-05,-0.00040653,7.2567e-35,-2.8693e-08,5.9428e-18,-2.9069e-22,1.1038,0.00044724,-0.00040653,7.5595e-32,7.2548e-05,-27.389,-101.03,-38.55,-0.0044118,9.1373e-13,-4.4283e-17,68.746,-101.03,-38.55,-27.389,0,0.0174,0,1,4.905,0,-4.905,0
0,0,0,0,0,0,7.2505e-05,-0.00040612,7.2667e-35,-3.0685e-08,5.9294e-18,-2.9296e-22,1.1036,0.00044681,-0.00040612,7.5656e-32,7.2505e-05,-27.353,-100.93,-38.507,-0.0047181,9.1169e-13,-4.4634e-17,68.679,-100.93,-38.507,-27.353,0,0.017402,0,1,4.91,0,-4.91,0
0,0,0,0,0,0,7.2462e-05,-0.00040571,7.2749e-35,-3.2594e-08,5.9146e-18,-2.9482e-22,1.1034,0.00044638,-0.00040571,7.5699e-32,7.2462e-05,-27.317,-100.82,-38.465,-0.0050117,9.094e-13,-4.4919e-17,68.613,-100.82,-38.465,-27.317,0,0.017404,0,1,4.915,0,-4.915,0
0,0,0,0,0,0,7.2419e-05,-0.0004053,7.2812e-35,-3.442e-08,5.8982e-18,-2.9624e-22,1.1032,0.00044594,-0.0004053,7.5724e-32,7.2419e-05,-27.281,-100.72,-38.422,-0.0052925,9.0688e-13,-4.5139e-17,68.546,-100.72,-38.422,-27.281,0,0.017406,0,1,4.92,0,-4.92,0
0,0,0,0,0,0,7.2376e-05,-0.00040489,7.2858e-35,-3.6163e-08,5.8802e-18,-2.9724e-22,1.103,0.00044551,-0.00040489,7.5731e-32,7.2376e-05,-27.245,-100.61,-38.38,-0.0055607,9.0412e-13,-4.5293e-17,68.48,-100.61,-38.38,-27.245,0,0.017408,0,1,4.925,0,-4.925,0
0,0,0,0,0,0,7.2334e-05,-0.00040448,7.2885e-35,-3.7824e-08,5.8607e-18,-2.9781e-22,1.1028,0.00044508,-0.00040448,7.5719e-32,7.2334e-05,-27.209,-100.5,-38.337,-0.005816,9.0112e-13,-4.5382e-17,68.413,-100.5,-38.337,-27.209,0,0.01741,0,1,4.93,0,-4.93,0
0,0,0,0,0,0,7.2292e-05,-0.00040407,7.2894e-35,-3.9402e-08,5.8396e-18,-2.9795e-22,1.1026,0.00044464,-0.00040407,7.569e-32,7.2292e-05,-27.173,-100.4,-38.295,-0.0060587,8.9788e-13,-4.5405e-17,68.347,-100.4,-38.295,-27.173,0,0.017412,0,1,4.935,0,-4.935,0
0,0,0,0,0,0,7.225e-05,-0.00040366,7.2885e-35,-4.0897e-08,5.817e-18,-2.9766e-22,1.1024,0.00044421,-0.00040366,7.5642e-32,7.225e-05,-27.137,-100.29,-38.252,-0.0062886,8.9441e-13,-4.5363e-17,68.28,-100.29,-38.252,-27.137,0,0.017414,0,1,4.94,0,-4.94,0
0,0,0,0,0,0,7.2209e-05,-0.00040325,7.2858e-35,-4.231e-08,5.7929e-18,-2.9695e-22,1.1022,0.00044378,-0.00040325,7.5576e-32,7.2209e-05,-27.101,-100.19,-38.209,-0.0065059,8.9069e-13,-4.5256e-17,68.214,-100.19,-38.209,-27.101,0,0.017416,0,1,4.945,0,-4.945,0
0,0,0,0,0,0,7.2168e-05,-0.00040284,7.2812e-35,-4.3639e-08,5.7672e-18,-2.9582e-22,1.102,0.00044335,-0.00040284,7.5492e-32,7.2168e-05,-27.064,-100.08,-38.167,-0.0067103,8.8675e-13,-4.5082e-17,68.148,-100.08,-38.167,-27.064,0,0.017418,0,1,4.95,0,-4.95,0
0,0,0,0,0,0,7.2128e-05,-0.00040243,7.2749e-35,-4.4886e-08,5.74e-18,-2.9425e-22,1.1018,0.00044292,-0.00040243,7.5389e-32,7.2128e-05,-27.028,-99.976,-38.124,-0.0069021,8.8256e-13,-4.4844e-17,68.081,-99.976,-38.124,-27.028,0,0.01742,0,1,4.955,0,-4.955,0
0,0,0,0,0,0,7.2087e-05,-0.00040202,7.2667e-35,-4.605e-08,5.7112e-18,-2.9226e-22,1.1016,0.00044248,-0.00040202,7.5268e-32,7.2087e-05,-26.991,-99.87,-38.081,-0.0070811,8.7813e-13,-4.454e-17,68.015,-99.87,-38.081,-26.991,0,0.017422,0,1,4.96,0,-4.96,0
0,0,0,0,0,0,7.2048e-05,-0.0004016,7.2568e-35,-4.7132e-08,5.6809e-18,-2.8984e-22,1.1014,0.00044205,-0.0004016,7.513e-32,7.2048e-05,-26.954,-99.764,-38.038,-0.0072475,8.7347e-13,-4.417e-17,67.949,-99.764,-38.038,-26.954,0,0.017424,0,1,4.965,0,-4.965,0
0,0,0,0,0,0,7.2008e-05,-0.00040119,7.245e-35,-4.813e-08,5.649e-18,-2.8699e-22,1.1012,0.00044162,-0.00040119,7.4973e-32,7.2008e-05,-26.918,-99.658,-37.996,-0.007401,8.6857e-13,-4.3735e-17,67.883,-99.658,-37.996,-26.918,0,0.017426,0,1,4.97,0,-4.97,0
0,0,0,0,0,0,7.1969e-05,-0.00040078,7.2314e-35,-4.9046e-08,5.6156e-18,-2.8372e-22,1.101,0.00044119,-0.00040078,7.4797e-32,7.1969e-05,-26.881,-99.552,-37.953,-0.0075419,8.6343e-13,-4.3234e-17,67.816,-99.552,-37.953,-26.881,0,0.017428,0,1,4.975,0,-4.975,0
0,0,0,0,0,0,7.193e-05,-0.00040037,7.216e-35,-4.988e-08,5.5806e-18,-2.8002e-22,1.1008,0.00044076,-0.00040037,7.4604e-32,7.193e-05,-26.844,-99.446,-37.91,-0.00767,8.5806e-13,-4.2668e-17,67.75,-99.446,-37.91,-26.844,0,0.01743,0,1,4.98,0,-4.98,0
0,0,0,0,0,0,7.1891e-05,-0.00039996,7.1988e-35,-5.063e-08,5.5441e-18,-2.7589e-22,1.1006,0.00044033,-0.00039996,7.4392e-32,7.1891e-05,-26.807,-99.34,-37.867,-0.0077855,8.5244e-13,-4.2036e-17,67.684,-99.34,-37.867,-26.807,0,0.017432,0,1,4.985,0,-4.985,0
0,0,0,0,0,0,7.1853e-05,-0.00039955,7.1797e-35,-5.1298e-08,5.5061e-18,-2.7133e-22,1.1004,0.0004399,-0.00039955,7.4163e-32,7.1853e-05,-26.769,-99.234,-37.824,-0.0078881,8.4659e-13,-4.1339e-17,67.618,-99.234,-37.824,-26.769,0,0.017434,0,1,4.99,0,-4.99,0
0,0,0,0,0,0,7.1815e-05,-0.00039914,7.1589e-35,-5.1883e-08,5.4664e-18,-2.6635e-22,1.1003,0.00043947,-0.00039914,7.3915e-32,7.1815e-05,-26.732,-99.127,-37.781,-0.0079781,8.405e-13,-4.0577e-17,67.552,-99.127,-37.781,-26.732,0,0.017436,0,1,4.995,0,-4.995,0
0,0,0,0,0,0,7.1778e-05,-0.00039873,7.1362e-35,-5.2385e-08,5.4253e-18,-2.6094e-22,1.1001,0.00043904,-0.00039873,7.3648e-32,7.1778e-05,-26.695,-99.021,-37.737,-0.0080553,8.3418e-13,-3.9749e-17,67.486,-99.021,-37.737,-26.695,0,0.017438,0,1,5,0,-5,0
