"CONTACT:0","CONTACT:1","CONTACT:2","CONTACT:3","CONTACT:4","CONTACT:5","E:0","E:1","E:2","E:3","E:4","E:5","ERROR","E_Mises","E_Principal:0","E_Principal:1","E_Principal:2","S:0","S:1","S:2","S:3","S:4","S:5","S_Mises","S_Principal:0","S_Principal:1","S_Principal:2","U:0","U:1","U:2","vtkValidPointMask","arc_length","Points:0","Points:1","Points:2"
-0.00017162,0,0,1716.2,0,0,-0.0043798,-0.0046002,-4.0648e-36,0.0015244,2.9755e-18,-2.7111e-20,3.5832,0.0052123,-0.0060184,-0.0029616,1.1249e-22,-1711.7,-1741.5,-1045.5,229.78,4.5361e-13,-3.2971e-15,789.3,-1956.8,-1496.3,-1045.5,-1.528e-21,0.010148,0,1,0,0,0,0
0,0,0,0,0,0,-0.0027274,-0.0054966,4.2015e-35,0.0022316,-5.3984e-19,1.9569e-20,21.037,0.0061468,-0.0067477,-0.001479,2.6146e-06,-1373,-1786.2,-956.56,337.67,-8.2585e-14,3.3392e-15,928.7,-1976.9,-1182.7,-956.16,0,0.010278,0,1,0.005,0,-0.005,0
0,0,0,0,0,0,-0.0026509,-0.0054834,4.2643e-35,0.0022047,-5.2634e-19,1.9364e-20,21.037,0.0061233,-0.0067057,-0.0014342,5.4881e-06,-1350.9,-1773.8,-946.07,333.65,-8.0515e-14,3.3018e-15,925.24,-1960.1,-1165.4,-945.24,0,0.010305,0,1,0.01,0,-0.01,0
0,0,0,0,0,0,-0.0025751,-0.0054702,4.3263e-35,0.0021779,-5.1314e-19,1.916e-20,21.037,0.0060999,-0.006664,-0.00139,8.6207e-06,-1328.9,-1761.5,-935.66,329.65,-7.8493e-14,3.2648e-15,921.82,-1943.5,-1148.2,-934.35,0,0.010333,0,1,0.015,0,-0.015,0
0,0,0,0,0,0,-0.0025,-0.0054568,4.3874e-35,0.0021513,-5.0026e-19,1.8959e-20,21.037,0.0060768,-0.0066225,-0.0013464,1.2012e-05,-1307.1,-1749.2,-925.32,325.68,-7.6518e-14,3.228e-15,918.43,-1927,-1131.2,-923.49,0,0.01036,0,1,0.02,0,-0.02,0
0,0,0,0,0,0,-0.0024256,-0.0054434,4.4477e-35,0.0021248,-4.8769e-19,1.876e-20,21.037,0.0060539,-0.0065813,-0.0013034,1.5663e-05,-1285.5,-1737.1,-915.05,321.74,-7.4591e-14,3.1914e-15,915.08,-1910.6,-1114.3,-912.66,0,0.010387,0,1,0.025,0,-0.025,0
0,0,0,0,0,0,-0.0023519,-0.0054299,4.5071e-35,0.0020986,-4.7543e-19,1.8562e-20,21.037,0.0060312,-0.0065404,-0.001261,1.9572e-05,-1264,-1724.9,-904.86,317.81,-7.2712e-14,3.1552e-15,911.75,-1894.3,-1097.7,-901.87,0,0.010415,0,1,0.03,0,-0.03,0
0,0,0,0,0,0,-0.0022789,-0.0054164,4.5657e-35,0.0020725,-4.6348e-19,1.8366e-20,21.037,0.0060087,-0.0064997,-0.0012192,2.374e-05,-1242.7,-1712.9,-894.74,313.92,-7.088e-14,3.1193e-15,908.46,-1878.1,-1081.2,-891.11,0,0.010442,0,1,0.035,0,-0.035,0
0,0,0,0,0,0,-0.0022065,-0.0054028,4.6234e-35,0.0020465,-4.5184e-19,1.8173e-20,21.037,0.0059864,-0.0064594,-0.0011781,2.8168e-05,-1221.7,-1700.9,-884.69,310.04,-6.9096e-14,3.0836e-15,905.2,-1862,-1064.8,-880.38,0,0.010469,0,1,0.04,0,-0.04,0
0,0,0,0,0,0,-0.0021348,-0.0053891,4.6802e-35,0.0020207,-4.4051e-19,1.7981e-20,21.037,0.0059644,-0.0064192,-0.0011375,3.2854e-05,-1200.7,-1688.9,-874.71,306.19,-6.736e-14,3.0482e-15,901.97,-1846.1,-1048.6,-869.69,0,0.010496,0,1,0.045,0,-0.045,0
0,0,0,0,0,0,-0.0020638,-0.0053753,4.7362e-35,0.0019951,-4.2949e-19,1.7791e-20,21.037,0.0059425,-0.0063794,-0.0010976,3.7799e-05,-1180,-1677.1,-864.81,302.36,-6.5672e-14,3.0131e-15,898.77,-1830.2,-1032.6,-859.03,0,0.010523,0,1,0.05,0,-0.05,0
0,0,0,0,0,0,-0.0019935,-0.0053615,4.7913e-35,0.0019696,-4.1879e-19,1.7602e-20,21.037,0.0059209,-0.0063398,-0.0010583,4.3004e-05,-1159.4,-1665.2,-854.98,298.56,-6.4031e-14,2.9783e-15,895.6,-1814.5,-1016.8,-848.4,0,0.01055,0,1,0.055,0,-0.055,0
0,0,0,0,0,0,-0.0019239,-0.0053476,4.8456e-35,0.0019443,-4.0839e-19,1.7416e-20,21.037,0.0058994,-0.0063005,-0.0010195,4.8467e-05,-1139.1,-1653.5,-845.22,294.78,-6.2438e-14,2.9437e-15,892.46,-1798.8,-1001.1,-837.8,0,0.010576,0,1,0.06,0,-0.06,0
0,0,0,0,0,0,-0.001855,-0.0053337,4.899e-35,0.0019192,-3.9831e-19,1.7232e-20,21.037,0.0058782,-0.0062614,-0.00098142,5.4189e-05,-1118.8,-1641.8,-835.53,291.03,-6.0893e-14,2.9095e-15,889.36,-1783.3,-985.6,-827.24,0,0.010603,0,1,0.065,0,-0.065,0
0,0,0,0,0,0,-0.0017867,-0.0053197,4.9516e-35,0.0018943,-3.8854e-19,1.7049e-20,21.037,0.0058572,-0.0062226,-0.00094392,6.017e-05,-1098.8,-1630.2,-825.92,287.3,-5.9395e-14,2.8755e-15,886.29,-1767.9,-970.25,-816.71,0,0.01063,0,1,0.07,0,-0.07,0
0,0,0,0,0,0,-0.0017191,-0.0053056,5.0033e-35,0.0018695,-3.7907e-19,1.6869e-20,21.037,0.0058364,-0.0061841,-0.00090703,6.6411e-05,-1079,-1618.6,-816.38,283.59,-5.7945e-14,2.8418e-15,883.25,-1752.7,-955.07,-806.21,0,0.010656,0,1,0.075,0,-0.075,0
0,0,0,0,0,0,-0.0016523,-0.0052915,5.0541e-35,0.0018448,-3.6992e-19,1.669e-20,21.037,0.0058159,-0.0061459,-0.00087075,7.291e-05,-1059.3,-1607.1,-806.91,279.91,-5.6543e-14,2.8084e-15,880.24,-1737.5,-940.06,-795.74,0,0.010683,0,1,0.08,0,-0.08,0
0,0,0,0,0,0,-0.0015861,-0.0052772,5.1041e-35,0.0018204,-3.6108e-19,1.6513e-20,21.037,0.0057955,-0.0061079,-0.00083508,7.9668e-05,-1039.8,-1595.6,-797.52,276.25,-5.5189e-14,2.7753e-15,877.27,-1722.4,-925.21,-785.31,0,0.010709,0,1,0.085,0,-0.085,0
0,0,0,0,0,0,-0.0015206,-0.005263,5.1532e-35,0.001796,-3.5255e-19,1.6338e-20,21.037,0.0057753,-0.0060702,-0.00080002,8.6685e-05,-1020.4,-1584.3,-788.2,272.61,-5.3882e-14,2.7424e-15,874.32,-1707.5,-910.52,-774.91,0,0.010735,0,1,0.09,0,-0.09,0
0,0,0,0,0,0,-0.0014557,-0.0052486,5.2015e-35,0.0017719,-3.4434e-19,1.6165e-20,21.037,0.0057554,-0.0060327,-0.00076556,9.3961e-05,-1001.3,-1572.9,-778.95,269,-5.2623e-14,2.7098e-15,871.41,-1692.6,-896.01,-764.54,0,0.010762,0,1,0.095,0,-0.095,0
0,0,0,0,0,0,-0.0013916,-0.0052342,5.2489e-35,0.0017479,-3.3643e-19,1.5993e-20,21.037,0.0057357,-0.0059956,-0.00073172,0.0001015,-982.33,-1561.7,-769.77,265.42,-5.1412e-14,2.6775e-15,868.53,-1677.9,-881.65,-754.21,0,0.010788,0,1,0.1,0,-0.1,0
0,0,0,0,0,0,-0.0013282,-0.0052197,5.2955e-35,0.0017241,-3.2883e-19,1.5824e-20,21.037,0.0057162,-0.0059587,-0.00069849,0.00010929,-963.53,-1550.5,-760.67,261.85,-5.0249e-14,2.6455e-15,865.68,-1663.3,-867.47,-743.9,0,0.010814,0,1,0.105,0,-0.105,0
0,0,0,0,0,0,-0.0012654,-0.0052051,5.3412e-35,0.0017005,-3.2155e-19,1.5656e-20,21.037,0.0056969,-0.005922,-0.00066587,0.00011734,-944.91,-1539.3,-751.64,258.31,-4.9133e-14,2.6138e-15,862.86,-1648.8,-853.45,-733.63,0,0.01084,0,1,0.11,0,-0.11,0
0,0,0,0,0,0,-0.0012033,-0.0051905,5.386e-35,0.001677,-3.1457e-19,1.5491e-20,21.037,0.0056778,-0.0058856,-0.00063385,0.00012565,-926.47,-1528.3,-742.68,254.8,-4.8065e-14,2.5824e-15,860.07,-1634.4,-839.6,-723.4,0,0.010866,0,1,0.115,0,-0.115,0
0,0,0,0,0,0,-0.0011419,-0.0051758,5.43e-35,0.0016537,-3.0791e-19,1.5327e-20,21.037,0.0056589,-0.0058495,-0.00060245,0.00013423,-908.2,-1517.2,-733.79,251.31,-4.7044e-14,2.5512e-15,857.32,-1620.1,-825.91,-713.19,0,0.010892,0,1,0.12,0,-0.12,0
0,0,0,0,0,0,-0.0010812,-0.0051611,5.4731e-35,0.0016305,-3.0156e-19,1.5165e-20,21.037,0.0056403,-0.0058137,-0.00057166,0.00014306,-890.12,-1506.3,-724.98,247.84,-4.6072e-14,2.5203e-15,854.6,-1606,-812.39,-703.02,0,0.010917,0,1,0.125,0,-0.125,0
0,0,0,0,0,0,-0.0010212,-0.0051463,5.5154e-35,0.0016076,-2.9552e-19,1.5005e-20,21.037,0.0056218,-0.0057781,-0.00054147,0.00015214,-872.2,-1495.4,-716.24,244.39,-4.5147e-14,2.4897e-15,851.91,-1591.9,-799.03,-692.88,0,0.010943,0,1,0.13,0,-0.13,0
0,0,0,0,0,0,-0.00096184,-0.0051314,5.5568e-35,0.0015847,-2.8979e-19,1.4847e-20,21.037,0.0056036,-0.0057428,-0.0005119,0.00016149,-854.47,-1484.6,-707.57,240.98,-4.427e-14,2.4594e-15,849.25,-1578,-785.84,-682.77,0,0.010969,0,1,0.135,0,-0.135,0
0,0,0,0,0,0,-0.00090319,-0.0051164,5.5974e-35,0.0015621,-2.8437e-19,1.469e-20,21.037,0.0055856,-0.0057078,-0.00048294,0.0001711,-836.91,-1473.8,-698.97,237.58,-4.3441e-14,2.4293e-15,846.62,-1564.2,-772.82,-672.7,0,0.010994,0,1,0.14,0,-0.14,0
0,0,0,0,0,0,-0.00084522,-0.0051014,5.6371e-35,0.0015396,-2.7926e-19,1.4536e-20,21.037,0.0055677,-0.005673,-0.00045458,0.00018096,-819.53,-1463.1,-690.45,234.21,-4.2659e-14,2.3996e-15,844.03,-1550.5,-759.96,-662.66,0,0.01102,0,1,0.145,0,-0.145,0
0,0,0,0,0,0,-0.00078793,-0.0050863,5.6759e-35,0.0015173,-2.7446e-19,1.4383e-20,21.037,0.0055501,-0.0056385,-0.00042684,0.00019109,-802.32,-1452.4,-682,230.86,-4.1925e-14,2.3701e-15,841.46,-1536.9,-747.27,-652.65,0,0.011045,0,1,0.15,0,-0.15,0
0,0,0,0,0,0,-0.00073133,-0.0050711,5.7139e-35,0.0014951,-2.6998e-19,1.4233e-20,21.037,0.0055328,-0.0056043,-0.0003997,0.00020147,-785.29,-1441.9,-673.63,227.54,-4.1239e-14,2.3409e-15,838.93,-1523.4,-734.74,-642.67,0,0.011071,0,1,0.155,0,-0.155,0
0,0,0,0,0,0,-0.00067542,-0.0050559,5.7511e-35,0.0014731,-2.658e-19,1.4084e-20,21.037,0.0055156,-0.0055703,-0.00037318,0.00021212,-768.44,-1431.3,-665.32,224.24,-4.06e-14,2.312e-15,836.43,-1510,-722.38,-632.73,0,0.011096,0,1,0.16,0,-0.16,0
0,0,0,0,0,0,-0.00062019,-0.0050406,5.7873e-35,0.0014513,-2.6194e-19,1.3937e-20,21.037,0.0054986,-0.0055366,-0.00034726,0.00022302,-751.76,-1420.9,-657.09,220.96,-4.0009e-14,2.2834e-15,833.96,-1496.7,-710.19,-622.82,0,0.011121,0,1,0.165,0,-0.165,0
0,0,0,0,0,0,-0.00056565,-0.0050253,5.8228e-35,0.0014296,-2.5838e-19,1.3792e-20,21.037,0.0054819,-0.0055031,-0.00032196,0.00023418,-735.27,-1410.5,-648.93,217.71,-3.9466e-14,2.255e-15,831.53,-1483.6,-698.16,-612.94,0,0.011146,0,1,0.17,0,-0.17,0
0,0,0,0,0,0,-0.00051179,-0.0050098,5.8573e-35,0.0014081,-2.5514e-19,1.3649e-20,21.037,0.0054654,-0.00547,-0.00029726,0.0002456,-718.94,-1400.1,-640.85,214.48,-3.8971e-14,2.2269e-15,829.12,-1470.5,-686.3,-603.09,0,0.011171,0,1,0.175,0,-0.175,0
0,0,0,0,0,0,-0.00045862,-0.0049944,5.891e-35,0.0013868,-2.5221e-19,1.3507e-20,21.037,0.005449,-0.0054371,-0.00027318,0.00025728,-702.8,-1389.9,-632.83,211.28,-3.8523e-14,2.1991e-15,826.75,-1457.6,-674.6,-593.28,0,0.011196,0,1,0.18,0,-0.18,0
0,0,0,0,0,0,-0.00040614,-0.0049788,5.9239e-35,0.0013656,-2.4959e-19,1.3368e-20,21.037,0.0054329,-0.0054044,-0.0002497,0.00026921,-686.83,-1379.6,-624.89,208.1,-3.8123e-14,2.1716e-15,824.41,-1444.8,-663.07,-583.5,0,0.011221,0,1,0.185,0,-0.185,0
0,0,0,0,0,0,-0.00035434,-0.0049632,5.9559e-35,0.0013446,-2.4728e-19,1.323e-20,21.037,0.005417,-0.0053721,-0.00022683,0.00028141,-671.04,-1369.5,-617.02,204.94,-3.7771e-14,2.1444e-15,822.1,-1432.1,-651.71,-573.75,0,0.011246,0,1,0.19,0,-0.19,0
0,0,0,0,0,0,-0.00030322,-0.0049475,5.987e-35,0.0013238,-2.4528e-19,1.3095e-20,21.037,0.0054014,-0.00534,-0.00020458,0.00029387,-655.42,-1359.4,-609.23,201.81,-3.7467e-14,2.1175e-15,819.82,-1419.5,-640.51,-564.04,0,0.011271,0,1,0.195,0,-0.195,0
0,0,0,0,0,0,-0.00025279,-0.0049317,6.0173e-35,0.0013031,-2.4359e-19,1.2961e-20,21.037,0.0053859,-0.0053082,-0.00018293,0.00030658,-639.98,-1349.4,-601.5,198.7,-3.721e-14,2.0908e-15,817.57,-1407,-629.48,-554.36,0,0.011296,0,1,0.2,0,-0.2,0
0,0,0,0,0,0,-0.00020305,-0.0049159,6.0467e-35,0.0012826,-2.4222e-19,1.2829e-20,21.037,0.0053706,-0.0052766,-0.00016189,0.00031955,-624.72,-1339.4,-593.86,195.61,-3.7001e-14,2.0644e-15,815.36,-1394.7,-618.61,-544.71,0,0.01132,0,1,0.205,0,-0.205,0
0,0,0,0,0,0,-0.00015399,-0.0049,6.0753e-35,0.0012622,-2.4115e-19,1.2699e-20,21.037,0.0053556,-0.0052453,-0.00014147,0.00033279,-609.63,-1329.5,-586.28,192.55,-3.684e-14,2.0383e-15,813.18,-1382.4,-607.91,-535.09,0,0.011345,0,1,0.21,0,-0.21,0
0,0,0,0,0,0,-0.00010561,-0.004884,6.103e-35,0.001242,-2.404e-19,1.2571e-20,21.037,0.0053408,-0.0052143,-0.00012165,0.00034628,-594.73,-1319.6,-578.77,189.52,-3.6726e-14,2.0125e-15,811.03,-1370.3,-597.37,-525.51,0,0.011369,0,1,0.215,0,-0.215,0
0,0,0,0,0,0,-5.7923e-05,-0.004868,6.1298e-35,0.001222,-2.3996e-19,1.2445e-20,21.037,0.0053261,-0.0051835,-0.00010244,0.00036003,-579.99,-1309.9,-571.34,186.5,-3.666e-14,1.987e-15,808.91,-1358.2,-587.01,-515.95,0,0.011394,0,1,0.22,0,-0.22,0
0,0,0,0,0,0,-1.092e-05,-0.0048519,6.1558e-35,0.0012022,-2.3982e-19,1.232e-20,21.037,0.0053117,-0.005153,-8.3843e-05,0.00037404,-565.44,-1300.1,-563.98,183.51,-3.6642e-14,1.9617e-15,806.82,-1346.3,-576.8,-506.43,0,0.011418,0,1,0.225,0,-0.225,0
0,0,0,0,0,0,3.5398e-05,-0.0048357,6.181e-35,0.0011825,-2.4e-19,1.2198e-20,21.037,0.0052975,-0.0051228,-6.5855e-05,0.00038831,-551.06,-1290.5,-556.7,180.55,-3.6672e-14,1.9367e-15,804.76,-1334.5,-566.77,-496.95,0,0.011442,0,1,0.23,0,-0.23,0
0,0,0,0,0,0,8.1031e-05,-0.0048195,6.2053e-35,0.001163,-2.4049e-19,1.2077e-20,21.037,0.0052836,-0.0050928,-4.8477e-05,0.00040283,-536.86,-1280.9,-549.48,177.61,-3.6749e-14,1.912e-15,802.74,-1322.8,-556.89,-487.49,0,0.011466,0,1,0.235,0,-0.235,0
0,0,0,0,0,0,0.00012598,-0.0048032,6.2287e-35,0.0011436,-2.4129e-19,1.1958e-20,21.037,0.0052698,-0.0050631,-3.1708e-05,0.00041762,-522.83,-1271.3,-542.34,174.69,-3.6874e-14,1.8876e-15,800.75,-1311.2,-547.19,-478.07,0,0.01149,0,1,0.24,0,-0.24,0
0,0,0,0,0,0,0.00017024,-0.0047868,6.2513e-35,0.0011244,-2.424e-19,1.1841e-20,21.037,0.0052562,-0.0050337,-1.5549e-05,0.00043266,-508.98,-1261.9,-535.27,171.8,-3.7047e-14,1.8635e-15,798.79,-1299.8,-537.65,-468.68,0,0.011514,0,1,0.245,0,-0.245,0
0,0,0,0,0,0,0.00021382,-0.0047704,6.273e-35,0.0011054,-2.4383e-19,1.1726e-20,21.037,0.0052429,-0.0050046,7.0927e-35,0.00044797,-495.31,-1252.4,-528.28,168.93,-3.7267e-14,1.8396e-15,796.86,-1288.4,-528.28,-459.33,0,0.011538,0,1,0.25,0,-0.25,0
0,0,0,0,0,0,0.00025671,-0.0047539,6.2938e-35,0.0010865,-2.4556e-19,1.1613e-20,21.037,0.0052298,-0.0049757,1.4939e-05,0.00046353,-481.81,-1243.1,-521.35,166.08,-3.7536e-14,1.8161e-15,794.96,-1277.2,-519.07,-450.01,0,0.011562,0,1,0.255,0,-0.255,0
0,0,0,0,0,0,0.00029891,-0.0047373,6.3138e-35,0.0010678,-2.476e-19,1.1502e-20,21.037,0.0052169,-0.004947,2.9269e-05,0.00047935,-468.5,-1233.8,-514.5,163.26,-3.7852e-14,1.7928e-15,793.1,-1266,-510.03,-440.71,0,0.011586,0,1,0.26,0,-0.26,0
0,0,0,0,0,0,0.00034043,-0.0047207,6.333e-35,0.0010493,-2.4996e-19,1.1392e-20,21.037,0.0052042,-0.0049187,4.2989e-05,0.00049543,-455.35,-1224.6,-507.73,160.47,-3.8215e-14,1.7698e-15,791.26,-1255,-501.15,-431.46,0,0.01161,0,1,0.265,0,-0.265,0
0,0,0,0,0,0,0.00038127,-0.004704,6.3513e-35,0.0010309,-2.5263e-19,1.1285e-20,21.037,0.0051917,-0.0048906,5.6099e-05,0.00051177,-442.39,-1215.4,-501.02,157.69,-3.8627e-14,1.7471e-15,789.46,-1244.1,-492.44,-422.23,0,0.011633,0,1,0.27,0,-0.27,0
0,0,0,0,0,0,0.00042142,-0.0046872,6.3687e-35,0.0010127,-2.556e-19,1.1179e-20,21.037,0.0051794,-0.0048628,6.8599e-05,0.00052837,-429.6,-1206.3,-494.39,154.94,-3.9086e-14,1.7246e-15,787.69,-1233.3,-483.9,-413.04,0,0.011657,0,1,0.275,0,-0.275,0
0,0,0,0,0,0,0.00046088,-0.0046704,6.3853e-35,0.00099469,-2.5889e-19,1.1075e-20,21.037,0.0051673,-0.0048352,8.0489e-05,0.00054523,-416.99,-1197.2,-487.83,152.22,-3.9593e-14,1.7024e-15,785.95,-1222.6,-475.52,-403.88,0,0.011681,0,1,0.28,0,-0.28,0
0,0,0,0,0,0,0.00049966,-0.0046535,6.401e-35,0.00097681,-2.6249e-19,1.0973e-20,21.037,0.0051555,-0.0048079,9.177e-05,0.00056235,-404.55,-1188.2,-481.34,149.52,-4.0147e-14,1.6806e-15,784.25,-1212.1,-467.31,-394.75,0,0.011704,0,1,0.285,0,-0.285,0
0,0,0,0,0,0,0.00053776,-0.0046365,6.4158e-35,0.0009591,-2.664e-19,1.0873e-20,21.037,0.0051438,-0.0047809,0.00010244,0.00057972,-392.29,-1179.3,-474.93,146.84,-4.0749e-14,1.659e-15,782.57,-1201.6,-459.27,-385.66,0,0.011727,0,1,0.29,0,-0.29,0
0,0,0,0,0,0,0.00057517,-0.0046195,6.4298e-35,0.00094156,-2.7062e-19,1.0775e-20,21.037,0.0051324,-0.0047542,0.0001125,0.00059736,-380.21,-1170.5,-468.59,144.19,-4.1399e-14,1.6377e-15,780.93,-1191.3,-451.39,-376.6,0,0.011751,0,1,0.295,0,-0.295,0
0,0,0,0,0,0,0.00061189,-0.0046024,6.443e-35,0.00092418,-2.7516e-19,1.0679e-20,21.037,0.0051212,-0.0047277,0.00012195,0.00061525,-368.31,-1161.7,-462.32,141.56,-4.2097e-14,1.6166e-15,779.32,-1181,-443.67,-367.57,0,0.011774,0,1,0.3,0,-0.3,0
0,0,0,0,0,0,0.00064793,-0.0045852,6.4553e-35,0.00090696,-2.8e-19,1.0585e-20,21.037,0.0051102,-0.0047015,0.0001308,0.00063341,-356.58,-1152.9,-456.12,138.95,-4.2843e-14,1.5959e-15,777.74,-1170.9,-436.12,-358.57,0,0.011797,0,1,0.305,0,-0.305,0
0,0,0,0,0,0,0.00068328,-0.004568,6.4667e-35,0.00088992,-2.8515e-19,1.0492e-20,21.037,0.0050994,-0.0046755,0.00013903,0.00065182,-345.02,-1144.2,-450,136.37,-4.3636e-14,1.5754e-15,776.19,-1160.9,-428.74,-349.6,0,0.01182,0,1,0.31,0,-0.31,0
0,0,0,0,0,0,0.00071795,-0.0045507,6.4773e-35,0.00087303,-2.9062e-19,1.0401e-20,21.037,0.0050888,-0.0046498,0.00014665,0.00067049,-333.65,-1135.6,-443.95,133.81,-4.4477e-14,1.5552e-15,774.68,-1151,-421.53,-340.67,0,0.011843,0,1,0.315,0,-0.315,0
0,0,0,0,0,0,0.00075193,-0.0045333,6.487e-35,0.00085631,-2.964e-19,1.0313e-20,21.037,0.0050785,-0.0046244,0.00015366,0.00068942,-322.45,-1127.1,-437.97,131.28,-4.5365e-14,1.5353e-15,773.19,-1141.2,-414.48,-331.77,0,0.011866,0,1,0.32,0,-0.32,0
0,0,0,0,0,0,0.00078523,-0.0045158,6.4958e-35,0.00083976,-3.0248e-19,1.0226e-20,21.037,0.0050683,-0.0045993,0.00016006,0.00070861,-311.43,-1118.6,-432.07,128.77,-4.6302e-14,1.5157e-15,771.74,-1131.6,-407.59,-322.91,0,0.011889,0,1,0.325,0,-0.325,0
0,0,0,0,0,0,0.00081784,-0.0044983,6.5038e-35,0.00082337,-3.0888e-19,1.0141e-20,21.037,0.0050584,-0.0045744,0.00016586,0.00072805,-300.58,-1110.1,-426.23,126.28,-4.7286e-14,1.4963e-15,770.32,-1122,-400.87,-314.08,0,0.011911,0,1,0.33,0,-0.33,0
0,0,0,0,0,0,0.00084976,-0.0044808,6.511e-35,0.00080714,-3.1559e-19,1.0057e-20,21.037,0.0050487,-0.0045498,0.00017104,0.00074776,-289.91,-1101.8,-420.47,123.82,-4.8317e-14,1.4772e-15,768.93,-1112.6,-394.32,-305.27,0,0.011934,0,1,0.335,0,-0.335,0
0,0,0,0,0,0,0.000881,-0.0044631,6.5173e-35,0.00079108,-3.2261e-19,9.9761e-21,21.037,0.0050392,-0.0045254,0.00017561,0.00076773,-279.42,-1093.5,-414.79,121.38,-4.9397e-14,1.4585e-15,767.58,-1103.2,-387.93,-296.51,0,0.011957,0,1,0.34,0,-0.34,0
0,0,0,0,0,0,0.00091156,-0.0044454,6.5227e-35,0.00077518,-3.2994e-19,9.8967e-21,21.037,0.0050299,-0.0045014,0.00017958,0.00078795,-269.11,-1085.2,-409.17,118.97,-5.0524e-14,1.4399e-15,766.25,-1094,-381.71,-287.77,0,0.011979,0,1,0.345,0,-0.345,0
0,0,0,0,0,0,0.00094143,-0.0044276,6.5273e-35,0.00075945,-3.3759e-19,9.8192e-21,21.037,0.0050208,-0.0044776,0.00018293,0.00080843,-258.97,-1077,-403.63,116.58,-5.1699e-14,1.4217e-15,764.96,-1084.9,-375.66,-279.07,0,0.012002,0,1,0.35,0,-0.35,0
0,0,0,0,0,0,0.00097061,-0.0044098,6.531e-35,0.00074389,-3.4554e-19,9.7435e-21,21.037,0.0050119,-0.004454,0.00018567,0.00082918,-249,-1068.9,-398.16,114.21,-5.2922e-14,1.4038e-15,763.7,-1075.9,-369.77,-270.4,0,0.012024,0,1,0.355,0,-0.355,0
0,0,0,0,0,0,0.00099911,-0.0043919,6.5339e-35,0.00072849,-3.538e-19,9.6697e-21,21.037,0.0050033,-0.0044307,0.00018781,0.00085018,-239.22,-1060.8,-392.77,111.87,-5.4192e-14,1.3861e-15,762.47,-1067,-364.05,-261.76,0,0.012046,0,1,0.36,0,-0.36,0
0,0,0,0,0,0,0.0010269,-0.0043739,6.5359e-35,0.00071325,-3.6238e-19,9.5978e-21,21.037,0.0049948,-0.0044077,0.00018933,0.00087144,-229.61,-1052.8,-387.44,109.55,-5.551e-14,1.3687e-15,761.27,-1058.2,-358.49,-253.16,0,0.012069,0,1,0.365,0,-0.365,0
0,0,0,0,0,0,0.0010541,-0.0043558,6.537e-35,0.00069818,-3.7127e-19,9.5278e-21,21.037,0.0049866,-0.004385,0.00019025,0.00089296,-220.18,-1044.9,-382.19,107.25,-5.6876e-14,1.3516e-15,760.1,-1049.6,-353.1,-244.58,0,0.012091,0,1,0.37,0,-0.37,0
0,0,0,0,0,0,0.0010805,-0.0043377,6.5373e-35,0.00068327,-3.8046e-19,9.4596e-21,21.037,0.0049786,-0.0043625,0.00019055,0.00091474,-210.92,-1037,-377.01,104.98,-5.829e-14,1.3348e-15,758.97,-1041,-347.88,-236.04,0,0.012113,0,1,0.375,0,-0.375,0
0,0,0,0,0,0,0.0011063,-0.0043195,6.5368e-35,0.00066853,-3.8997e-19,9.3933e-21,21.037,0.0049708,-0.0043403,0.00019025,0.00093677,-201.84,-1029.2,-371.91,102.74,-5.9751e-14,1.3183e-15,757.86,-1032.6,-342.82,-227.54,0,0.012135,0,1,0.38,0,-0.38,0
0,0,0,0,0,0,0.0011313,-0.0043013,6.5353e-35,0.00065396,-3.9979e-19,9.3289e-21,21.037,0.0049632,-0.0043184,0.00018933,0.00095907,-192.94,-1021.5,-366.87,100.51,-6.126e-14,1.302e-15,756.79,-1024.3,-337.92,-219.06,0,0.012157,0,1,0.385,0,-0.385,0
0,0,0,0,0,0,0.0011557,-0.004283,6.5331e-35,0.00063954,-4.0992e-19,9.2664e-21,21.037,0.0049558,-0.0042967,0.00018781,0.00098163,-184.22,-1013.8,-361.91,98.315,-6.2817e-14,1.2861e-15,755.75,-1016.1,-333.2,-210.62,0,0.012179,0,1,0.39,0,-0.39,0
0,0,0,0,0,0,0.0011794,-0.0042646,6.5299e-35,0.0006253,-4.2036e-19,9.2057e-21,21.037,0.0049486,-0.0042753,0.00018567,0.0010044,-175.67,-1006.1,-357.03,96.14,-6.4421e-14,1.2704e-15,754.74,-1008,-328.64,-202.21,0,0.012201,0,1,0.395,0,-0.395,0
0,0,0,0,0,0,0.0012024,-0.0042462,6.5259e-35,0.00061122,-4.3112e-19,9.147e-21,21.037,0.0049416,-0.0042542,0.00018293,0.0010275,-167.3,-998.55,-352.21,93.989,-6.6073e-14,1.255e-15,753.77,-999.99,-324.24,-193.83,0,0.012222,0,1,0.4,0,-0.4,0
0,0,0,0,0,0,0.0012248,-0.0042276,6.5211e-35,0.0005973,-4.4218e-19,9.0901e-21,21.037,0.0049349,-0.0042333,0.00017958,0.0010508,-159.1,-991.04,-347.47,91.862,-6.7773e-14,1.2398e-15,752.82,-992.11,-320.01,-185.49,0,0.012244,0,1,0.405,0,-0.405,0
0,0,0,0,0,0,0.0012464,-0.0042091,6.5154e-35,0.00058355,-4.5355e-19,9.035e-21,21.037,0.0049284,-0.0042127,0.00017561,0.0010744,-151.08,-983.6,-342.8,89.759,-6.9521e-14,1.225e-15,751.91,-984.35,-315.95,-177.18,0,0.012266,0,1,0.41,0,-0.41,0
0,0,0,0,0,0,0.0012674,-0.0041904,6.5088e-35,0.00056996,-4.6524e-19,8.9819e-21,21.037,0.0049221,-0.0041924,0.00017104,0.0010983,-143.24,-976.21,-338.2,87.68,-7.1316e-14,1.2104e-15,751.03,-976.7,-312.05,-168.9,0,0.012287,0,1,0.415,0,-0.415,0
0,0,0,0,0,0,0.0012876,-0.0041717,6.5014e-35,0.00055654,-4.7724e-19,8.9306e-21,21.037,0.004916,-0.0041723,0.00016586,0.0011224,-135.57,-968.88,-333.68,85.625,-7.3159e-14,1.1962e-15,750.18,-969.16,-308.32,-160.66,0,0.012308,0,1,0.42,0,-0.42,0
0,0,0,0,0,0,0.0013072,-0.0041529,6.4931e-35,0.00054328,-4.8954e-19,8.8812e-21,21.037,0.0049101,-0.0041525,0.00016006,0.0011468,-128.09,-961.62,-329.23,83.593,-7.505e-14,1.1821e-15,749.36,-961.74,-304.75,-152.44,0,0.01233,0,1,0.425,0,-0.425,0
0,0,0,0,0,0,0.0013261,-0.0041341,6.484e-35,0.00053018,-5.0216e-19,8.8336e-21,21.037,0.0049044,-0.004133,0.00015366,0.0011714,-120.77,-954.42,-324.85,81.586,-7.6989e-14,1.1684e-15,748.58,-954.43,-301.35,-144.26,0,0.012351,0,1,0.43,0,-0.43,0
0,0,0,0,0,0,0.0013444,-0.0041151,6.474e-35,0.00051726,-5.1509e-19,8.788e-21,21.037,0.0048989,-0.0041137,0.00014665,0.0011963,-113.64,-947.28,-320.54,79.603,-7.8975e-14,1.155e-15,747.83,-947.23,-298.12,-136.11,0,0.012372,0,1,0.435,0,-0.435,0
0,0,0,0,0,0,0.0013619,-0.0040961,6.4632e-35,0.00050449,-5.2833e-19,8.7442e-21,21.037,0.0048937,-0.0040947,0.00013903,0.0012214,-106.68,-940.2,-316.31,77.643,-8.1009e-14,1.1418e-15,747.1,-940.14,-295.05,-128,0,0.012393,0,1,0.44,0,-0.44,0
0,0,0,0,0,0,0.0013787,-0.0040771,6.4515e-35,0.0004919,-5.4188e-19,8.7023e-21,21.037,0.0048886,-0.004076,0.0001308,0.0012468,-99.898,-933.18,-312.15,75.708,-8.3091e-14,1.129e-15,746.41,-933.16,-292.15,-119.92,0,0.012414,0,1,0.445,0,-0.445,0
0,0,0,0,0,0,0.0013949,-0.004058,6.4389e-35,0.00047946,-5.5574e-19,8.6623e-21,21.037,0.0048838,-0.0040575,0.00012195,0.0012725,-93.292,-926.23,-308.06,73.796,-8.522e-14,1.1164e-15,745.76,-926.3,-289.42,-111.87,0,0.012435,0,1,0.45,0,-0.45,0
0,0,0,0,0,0,0.0014104,-0.0040388,6.4255e-35,0.00046719,-5.6992e-19,8.6241e-21,21.037,0.0048792,-0.0040393,0.0001125,0.0012984,-86.863,-919.33,-304.05,71.909,-8.7397e-14,1.104e-15,745.13,-919.55,-286.85,-103.85,0,0.012456,0,1,0.455,0,-0.455,0
0,0,0,0,0,0,0.0014252,-0.0040195,6.4112e-35,0.00045509,-5.844e-19,8.5878e-21,21.037,0.0048748,-0.0040214,0.00010244,0.0013246,-80.611,-912.5,-300.11,70.045,-8.9622e-14,1.092e-15,744.53,-912.91,-284.44,-95.865,0,0.012477,0,1,0.46,0,-0.46,0
0,0,0,0,0,0,0.0014393,-0.0040002,6.3961e-35,0.00044315,-5.992e-19,8.5534e-21,21.037,0.0048706,-0.0040037,9.177e-05,0.001351,-74.536,-905.73,-296.24,68.205,-9.1895e-14,1.0803e-15,743.97,-906.38,-282.2,-87.913,0,0.012498,0,1,0.465,0,-0.465,0
0,0,0,0,0,0,0.0014527,-0.0039808,6.3801e-35,0.00043138,-6.143e-19,8.5209e-21,21.037,0.0048666,-0.0039863,8.0489e-05,0.0013777,-68.637,-899.02,-292.44,66.39,-9.4215e-14,1.0688e-15,743.44,-899.97,-280.13,-79.993,0,0.012519,0,1,0.47,0,-0.47,0
0,0,0,0,0,0,0.0014654,-0.0039614,6.3633e-35,0.00041977,-6.2972e-19,8.4903e-21,21.037,0.0048628,-0.0039692,6.8599e-05,0.0014047,-62.915,-892.37,-288.71,64.598,-9.6583e-14,1.0576e-15,742.94,-893.67,-278.23,-72.107,0,0.012539,0,1,0.475,0,-0.475,0
0,0,0,0,0,0,0.0014775,-0.0039418,6.3456e-35,0.00040832,-6.4545e-19,8.4615e-21,21.037,0.0048593,-0.0039524,5.6099e-05,0.0014319,-57.37,-885.78,-285.06,62.83,-9.8999e-14,1.0467e-15,742.47,-887.48,-276.49,-64.253,0,0.01256,0,1,0.48,0,-0.48,0
0,0,0,0,0,0,0.0014888,-0.0039222,6.327e-35,0.00039704,-6.6149e-19,8.4346e-21,21.037,0.0048559,-0.0039358,4.2989e-05,0.0014594,-52.001,-879.25,-281.48,61.086,-1.0146e-13,1.0361e-15,742.04,-881.4,-274.91,-56.431,0,0.01258,0,1,0.485,0,-0.485,0
0,0,0,0,0,0,0.0014995,-0.0039026,6.3076e-35,0.00038593,-6.7784e-19,8.4096e-21,21.037,0.0048528,-0.0039194,2.9269e-05,0.0014871,-46.809,-872.79,-277.98,59.366,-1.0397e-13,1.0257e-15,741.63,-875.43,-273.5,-48.643,0,0.012601,0,1,0.49,0,-0.49,0
0,0,0,0,0,0,0.0015095,-0.0038829,6.2873e-35,0.00037498,-6.945e-19,8.3864e-21,21.037,0.0048499,-0.0039034,1.4939e-05,0.0015151,-41.794,-866.39,-274.54,57.67,-1.0653e-13,1.0157e-15,741.26,-869.58,-272.26,-40.887,0,0.012621,0,1,0.495,0,-0.495,0
0,0,0,0,0,0,0.0015188,-0.0038631,6.2662e-35,0.00036419,-7.1147e-19,8.3651e-21,21.037,0.0048472,-0.0038876,1.9148e-34,0.0015434,-36.955,-860.05,-271.18,55.998,-1.0914e-13,1.0059e-15,740.92,-863.84,-271.18,-33.163,0,0.012641,0,1,0.5,0,-0.5,0
0,0,0,0,0,0,0.0015137,-0.0038395,6.6863e-35,0.00035502,-5.5312e-19,7.5247e-21,20.909,0.0048197,-0.0038634,3.9199e-34,0.0015375,-35.624,-854.35,-269.05,54.586,-8.486e-14,8.8752e-16,736.73,-858.04,-269.05,-31.935,0,0.01266,0,1,0.505,0,-0.505,0
0,0,0,0,0,0,0.0015084,-0.003816,7.0972e-35,0.00034596,-3.9756e-19,6.6998e-21,20.781,0.0047921,-0.0038392,5.8875e-34,0.0015316,-34.323,-848.68,-266.94,53.193,-6.1008e-14,7.7139e-16,732.56,-852.27,-266.94,-30.737,0,0.012678,0,1,0.51,0,-0.51,0
0,0,0,0,0,0,0.0015031,-0.0037926,7.4987e-35,0.00033702,-2.4478e-19,5.8904e-21,20.654,0.0047647,-0.0038152,7.8176e-34,0.0015256,-33.054,-843.05,-264.84,51.818,-3.7583e-14,6.5748e-16,728.39,-846.54,-264.84,-29.568,0,0.012696,0,1,0.515,0,-0.515,0
0,0,0,0,0,0,0.0014977,-0.0037693,7.891e-35,0.00032819,-9.479e-20,5.0965e-21,20.526,0.0047373,-0.0037912,9.7102e-34,0.0015196,-31.816,-837.45,-262.76,50.46,-1.4585e-14,5.458e-16,724.23,-840.84,-262.76,-28.43,0,0.012714,0,1,0.52,0,-0.52,0
0,0,0,0,0,0,0.0014922,-0.0037461,8.2741e-35,0.00031947,5.2417e-20,4.3181e-21,20.398,0.0047099,-0.0037673,1.1565e-33,0.0015135,-30.609,-831.88,-260.71,49.12,7.9858e-15,4.3635e-16,720.07,-835.17,-260.71,-27.321,0,0.012733,0,1,0.525,0,-0.525,0
0,0,0,0,0,0,0.0014866,-0.0037229,8.6479e-35,0.00031087,1.9684e-19,3.5552e-21,20.27,0.0046826,-0.0037436,1.3383e-33,0.0015073,-29.433,-826.35,-258.67,47.798,3.013e-14,3.2912e-16,715.92,-829.54,-258.67,-26.242,0,0.012751,0,1,0.53,0,-0.53,0
0,0,0,0,0,0,0.001481,-0.0036999,9.0124e-35,0.00030239,3.3848e-19,2.8078e-21,20.143,0.0046553,-0.0037199,1.5163e-33,0.001501,-28.288,-820.85,-256.65,46.493,5.1847e-14,2.2412e-16,711.78,-823.94,-256.65,-25.193,0,0.012769,0,1,0.535,0,-0.535,0
0,0,0,0,0,0,0.0014753,-0.0036769,9.3677e-35,0.00029402,4.7733e-19,2.0759e-21,20.015,0.004628,-0.0036963,1.6905e-33,0.0014947,-27.175,-815.38,-254.65,45.206,7.3136e-14,1.2134e-16,707.64,-818.38,-254.65,-24.174,0,0.012786,0,1,0.54,0,-0.54,0
0,0,0,0,0,0,0.0014695,-0.0036541,9.7137e-35,0.00028577,6.1339e-19,1.3595e-21,19.887,0.0046009,-0.0036729,1.861e-33,0.0014883,-26.093,-809.94,-252.67,43.937,9.3999e-14,2.0787e-17,703.51,-812.85,-252.67,-23.185,0,0.012804,0,1,0.545,0,-0.545,0
0,0,0,0,0,0,0.0014636,-0.0036313,1.005e-34,0.00027764,7.4667e-19,6.5864e-22,19.759,0.0045737,-0.0036495,2.0277e-33,0.0014818,-25.042,-804.53,-250.71,42.686,1.1443e-13,-7.7538e-17,699.38,-807.35,-250.71,-22.226,0,0.012822,0,1,0.55,0,-0.55,0
0,0,0,0,0,0,0.0014577,-0.0036086,1.0378e-34,0.00026962,8.7716e-19,-2.6726e-23,19.632,0.0045466,-0.0036262,2.1907e-33,0.0014753,-24.022,-799.16,-248.77,41.452,1.3444e-13,-1.7364e-16,695.27,-801.88,-248.77,-21.297,0,0.012839,0,1,0.555,0,-0.555,0
0,0,0,0,0,0,0.0014516,-0.003586,1.0696e-34,0.00026171,1.0049e-18,-6.9658e-22,19.504,0.0045195,-0.003603,2.3499e-33,0.0014687,-23.034,-793.82,-246.85,40.237,1.5402e-13,-2.6751e-16,691.15,-796.45,-246.85,-20.397,0,0.012857,0,1,0.56,0,-0.56,0
0,0,0,0,0,0,0.0014455,-0.0035635,1.1005e-34,0.00025392,1.1298e-18,-1.3509e-21,19.376,0.0044925,-0.0035799,2.5054e-33,0.001462,-22.076,-788.51,-244.94,39.039,1.7318e-13,-3.5916e-16,687.05,-791.06,-244.94,-19.528,0,0.012874,0,1,0.565,0,-0.565,0
0,0,0,0,0,0,0.0014393,-0.003541,1.1305e-34,0.00024624,1.2519e-18,-1.9898e-21,19.248,0.0044656,-0.003557,2.6571e-33,0.0014553,-21.15,-783.23,-243.06,37.858,1.9191e-13,-4.4858e-16,682.95,-785.69,-243.06,-18.688,0,0.012891,0,1,0.57,0,-0.57,0
0,0,0,0,0,0,0.0014331,-0.0035187,1.1595e-34,0.00023868,1.3713e-18,-2.6131e-21,19.121,0.0044386,-0.0035341,2.8051e-33,0.0014485,-20.255,-777.99,-241.2,36.696,2.1021e-13,-5.3578e-16,678.86,-780.36,-241.2,-17.879,0,0.012909,0,1,0.575,0,-0.575,0
0,0,0,0,0,0,0.0014268,-0.0034964,1.1876e-34,0.00023124,1.4879e-18,-3.221e-21,18.993,0.0044117,-0.0035113,2.9493e-33,0.0014416,-19.391,-772.78,-239.35,35.551,2.2808e-13,-6.2075e-16,674.77,-775.07,-239.35,-17.099,0,0.012926,0,1,0.58,0,-0.58,0
0,0,0,0,0,0,0.0014203,-0.0034743,1.2148e-34,0.00022391,1.6016e-18,-3.8133e-21,18.865,0.0043849,-0.0034886,3.0898e-33,0.0014346,-18.559,-767.6,-237.53,34.424,2.4552e-13,-7.0349e-16,670.69,-769.81,-237.53,-16.349,0,0.012943,0,1,0.585,0,-0.585,0
0,0,0,0,0,0,0.0014138,-0.0034522,1.2411e-34,0.0002167,1.7126e-18,-4.3901e-21,18.737,0.0043581,-0.003466,3.2265e-33,0.0014276,-17.757,-762.45,-235.72,33.315,2.6254e-13,-7.8401e-16,666.62,-764.58,-235.72,-15.629,0,0.01296,0,1,0.59,0,-0.59,0
0,0,0,0,0,0,0.0014073,-0.0034302,1.2664e-34,0.0002096,1.8208e-18,-4.9514e-21,18.61,0.0043314,-0.0034435,3.3595e-33,0.0014205,-16.987,-757.34,-233.93,32.223,2.7914e-13,-8.623e-16,662.56,-759.38,-233.93,-14.939,0,0.012976,0,1,0.595,0,-0.595,0
0,0,0,0,0,0,0.0014006,-0.0034083,1.2908e-34,0.00020262,1.9263e-18,-5.4972e-21,18.482,0.0043047,-0.003421,3.4887e-33,0.0014134,-16.248,-752.25,-232.16,31.15,2.953e-13,-9.3837e-16,658.5,-754.22,-232.16,-14.279,0,0.012993,0,1,0.6,0,-0.6,0
0,0,0,0,0,0,0.0013939,-0.0033865,1.3143e-34,0.00019575,2.0289e-18,-6.0275e-21,18.354,0.004278,-0.0033987,3.6141e-33,0.0014061,-15.54,-747.2,-230.42,30.094,3.1104e-13,-1.0122e-15,654.44,-749.1,-230.42,-13.649,0,0.01301,0,1,0.605,0,-0.605,0
0,0,0,0,0,0,0.0013871,-0.0033648,1.3369e-34,0.000189,2.1288e-18,-6.5423e-21,18.226,0.0042514,-0.0033765,3.7358e-33,0.0013988,-14.863,-742.19,-228.69,29.055,3.2635e-13,-1.0838e-15,650.4,-744,-228.69,-13.048,0,0.013026,0,1,0.61,0,-0.61,0
0,0,0,0,0,0,0.0013802,-0.0033431,1.3585e-34,0.00018236,2.2258e-18,-7.0416e-21,18.099,0.0042248,-0.0033544,3.8537e-33,0.0013915,-14.218,-737.2,-226.98,28.035,3.4123e-13,-1.1532e-15,646.36,-738.94,-226.98,-12.478,0,0.013043,0,1,0.615,0,-0.615,0
0,0,0,0,0,0,0.0013732,-0.0033216,1.3792e-34,0.00017584,2.3201e-18,-7.5254e-21,17.971,0.0041983,-0.0033324,3.9679e-33,0.001384,-13.604,-732.25,-225.28,27.032,3.5569e-13,-1.2204e-15,642.32,-733.92,-225.28,-11.937,0,0.013059,0,1,0.62,0,-0.62,0
0,0,0,0,0,0,0.0013662,-0.0033001,1.399e-34,0.00016944,2.4116e-18,-7.9937e-21,17.843,0.0041718,-0.0033104,4.0784e-33,0.0013765,-13.021,-727.33,-223.61,26.047,3.6972e-13,-1.2853e-15,638.29,-728.92,-223.61,-11.427,0,0.013075,0,1,0.625,0,-0.625,0
0,0,0,0,0,0,0.0013591,-0.0032788,1.4178e-34,0.00016315,2.5003e-18,-8.4464e-21,17.715,0.0041454,-0.0032886,4.185e-33,0.0013689,-12.469,-722.44,-221.96,25.08,3.8332e-13,-1.348e-15,634.27,-723.96,-221.96,-10.946,0,0.013092,0,1,0.63,0,-0.63,0
0,0,0,0,0,0,0.0013519,-0.0032575,1.4358e-34,0.00015697,2.5862e-18,-8.8837e-21,17.588,0.004119,-0.0032669,4.288e-33,0.0013613,-11.948,-717.59,-220.33,24.13,3.965e-13,-1.4085e-15,630.26,-719.04,-220.33,-10.495,0,0.013108,0,1,0.635,0,-0.635,0
0,0,0,0,0,0,0.0013446,-0.0032363,1.4528e-34,0.00015091,2.6694e-18,-9.3055e-21,17.46,0.0040927,-0.0032452,4.3871e-33,0.0013536,-11.459,-712.76,-218.71,23.199,4.0924e-13,-1.4668e-15,626.25,-714.15,-218.71,-10.074,0,0.013124,0,1,0.64,0,-0.64,0
0,0,0,0,0,0,0.0013373,-0.0032152,1.4688e-34,0.00014497,2.7497e-18,-9.7117e-21,17.332,0.0040664,-0.0032237,4.4826e-33,0.0013458,-11,-707.97,-217.12,22.285,4.2156e-13,-1.5228e-15,622.25,-709.29,-217.12,-9.683,0,0.01314,0,1,0.645,0,-0.645,0
0,0,0,0,0,0,0.0013299,-0.0031942,1.484e-34,0.00013914,2.8273e-18,-1.0102e-20,17.204,0.0040401,-0.0032023,4.5742e-33,0.001338,-10.573,-703.21,-215.54,21.388,4.3346e-13,-1.5766e-15,618.25,-704.47,-215.54,-9.3218,0,0.013155,0,1,0.65,0,-0.65,0
0,0,0,0,0,0,0.0013224,-0.0031732,1.4982e-34,0.00013342,2.9021e-18,-1.0478e-20,17.077,0.0040139,-0.0031809,4.6622e-33,0.00133,-10.177,-698.49,-213.99,20.51,4.4493e-13,-1.6282e-15,614.27,-699.68,-213.99,-8.9905,0,0.013171,0,1,0.655,0,-0.655,0
0,0,0,0,0,0,0.0013148,-0.0031524,1.5115e-34,0.00012783,2.9741e-18,-1.0837e-20,16.949,0.0039877,-0.0031597,4.7463e-33,0.001322,-9.8125,-693.79,-212.45,19.649,4.5597e-13,-1.6776e-15,610.28,-694.92,-212.45,-8.6892,0,0.013187,0,1,0.66,0,-0.66,0
0,0,0,0,0,0,0.0013071,-0.0031316,1.5239e-34,0.00012234,3.0433e-18,-1.1182e-20,16.821,0.0039616,-0.0031385,4.8267e-33,0.001314,-9.4789,-689.13,-210.93,18.806,4.6658e-13,-1.7247e-15,606.31,-690.19,-210.93,-8.4177,0,0.013202,0,1,0.665,0,-0.665,0
0,0,0,0,0,0,0.0012994,-0.003111,1.5353e-34,0.00011698,3.1097e-18,-1.151e-20,16.693,0.0039355,-0.0031174,4.9034e-33,0.0013058,-9.1766,-684.5,-209.43,17.981,4.7676e-13,-1.7696e-15,602.34,-685.51,-209.43,-8.1761,0,0.013218,0,1,0.67,0,-0.67,0
0,0,0,0,0,0,0.0012916,-0.0030904,1.5458e-34,0.00011173,3.1734e-18,-1.1824e-20,16.566,0.0039095,-0.0030965,4.9763e-33,0.0012976,-8.9054,-679.91,-207.95,17.173,4.8652e-13,-1.8123e-15,598.37,-680.85,-207.95,-7.9644,0,0.013233,0,1,0.675,0,-0.675,0
0,0,0,0,0,0,0.0012837,-0.0030699,1.5554e-34,0.00010659,3.2342e-18,-1.2121e-20,16.438,0.0038835,-0.0030756,5.0454e-33,0.0012894,-8.6654,-675.34,-206.49,16.384,4.9585e-13,-1.8527e-15,594.42,-676.23,-206.49,-7.7826,0,0.013248,0,1,0.68,0,-0.68,0
0,0,0,0,0,0,0.0012757,-0.0030495,1.5641e-34,0.00010157,3.2923e-18,-1.2404e-20,16.31,0.0038576,-0.0030549,5.1108e-33,0.001281,-8.4567,-670.81,-205.05,15.612,5.0476e-13,-1.8909e-15,590.47,-671.64,-205.05,-7.6308,0,0.013264,0,1,0.685,0,-0.685,0
0,0,0,0,0,0,0.0012676,-0.0030292,1.5718e-34,9.6663e-05,3.3476e-18,-1.267e-20,16.182,0.0038317,-0.0030342,5.1725e-33,0.0012726,-8.2791,-666.31,-203.63,14.857,5.1324e-13,-1.9269e-15,586.52,-667.08,-203.63,-7.5088,0,0.013279,0,1,0.69,0,-0.69,0
0,0,0,0,0,0,0.0012595,-0.003009,1.5786e-34,9.1872e-05,3.4001e-18,-1.2921e-20,16.055,0.0038058,-0.0030136,5.2304e-33,0.0012642,-8.1327,-661.85,-202.23,14.121,5.2129e-13,-1.9607e-15,582.59,-662.56,-202.23,-7.4167,0,0.013294,0,1,0.695,0,-0.695,0
0,0,0,0,0,0,0.0012513,-0.0029888,1.5845e-34,8.7198e-05,3.4498e-18,-1.3157e-20,15.927,0.00378,-0.0029931,5.2845e-33,0.0012556,-8.0175,-657.41,-200.85,13.402,5.2891e-13,-1.9923e-15,578.66,-658.08,-200.85,-7.3545,0,0.013309,0,1,0.7,0,-0.7,0
0,0,0,0,0,0,0.001243,-0.0029688,1.5894e-34,8.2638e-05,3.4967e-18,-1.3377e-20,15.799,0.0037543,-0.0029727,5.3349e-33,0.001247,-7.9335,-653.01,-199.48,12.701,5.3611e-13,-2.0216e-15,574.73,-653.62,-199.48,-7.3222,0,0.013324,0,1,0.705,0,-0.705,0
0,0,0,0,0,0,0.0012347,-0.0029488,1.5935e-34,7.8194e-05,3.5409e-18,-1.3582e-20,15.671,0.0037285,-0.0029525,5.3815e-33,0.0012383,-7.8807,-648.64,-198.14,12.018,5.4288e-13,-2.0487e-15,570.82,-649.2,-198.14,-7.3198,0,0.013338,0,1,0.71,0,-0.71,0
0,0,0,0,0,0,0.0012262,-0.002929,1.5966e-34,7.3866e-05,3.5822e-18,-1.3771e-20,15.544,0.0037029,-0.0029323,5.4244e-33,0.0012296,-7.8591,-644.3,-196.81,11.352,5.4922e-13,-2.0736e-15,566.9,-644.81,-196.81,-7.3473,0,0.013353,0,1,0.715,0,-0.715,0
0,0,0,0,0,0,0.0012177,-0.0029092,1.5988e-34,6.9652e-05,3.6208e-18,-1.3945e-20,15.416,0.0036772,-0.0029122,5.4635e-33,0.0012207,-7.8687,-640,-195.51,10.705,5.5513e-13,-2.0962e-15,563,-640.46,-195.51,-7.4048,0,0.013367,0,1,0.72,0,-0.72,0
0,0,0,0,0,0,0.0012091,-0.0028895,1.6e-34,6.5554e-05,3.6566e-18,-1.4103e-20,15.288,0.0036516,-0.0028922,5.4989e-33,0.0012118,-7.9094,-635.73,-194.22,10.075,5.6062e-13,-2.1166e-15,559.1,-636.14,-194.22,-7.4921,0,0.013382,0,1,0.725,0,-0.725,0
0,0,0,0,0,0,0.0012005,-0.0028699,1.6003e-34,6.1572e-05,3.6896e-18,-1.4246e-20,15.16,0.0036261,-0.0028723,5.5305e-33,0.0012029,-7.9814,-631.48,-192.95,9.4625,5.6568e-13,-2.1348e-15,555.21,-631.86,-192.95,-7.6093,0,0.013396,0,1,0.73,0,-0.73,0
0,0,0,0,0,0,0.0011917,-0.0028504,1.5997e-34,5.7705e-05,3.7198e-18,-1.4373e-20,15.033,0.0036006,-0.0028525,5.5583e-33,0.0011938,-8.0845,-627.28,-191.71,8.868,5.7032e-13,-2.1508e-15,551.32,-627.61,-191.71,-7.7564,0,0.013411,0,1,0.735,0,-0.735,0
0,0,0,0,0,0,0.0011829,-0.0028309,1.5982e-34,5.3953e-05,3.7472e-18,-1.4484e-20,14.905,0.0035752,-0.0028328,5.5824e-33,0.0011847,-8.2189,-623.1,-190.48,8.2913,5.7452e-13,-2.1645e-15,547.44,-623.39,-190.48,-7.9334,0,0.013425,0,1,0.74,0,-0.74,0
0,0,0,0,0,0,0.001174,-0.0028116,1.5957e-34,5.0317e-05,3.7719e-18,-1.458e-20,14.777,0.0035498,-0.0028132,5.6028e-33,0.0011756,-8.3844,-618.96,-189.27,7.7323,5.783e-13,-2.1761e-15,543.57,-619.2,-189.27,-8.1403,0,0.013439,0,1,0.745,0,-0.745,0
0,0,0,0,0,0,0.001165,-0.0027923,1.5924e-34,4.6796e-05,3.7937e-18,-1.4661e-20,14.649,0.0035244,-0.0027937,5.6194e-33,0.0011663,-8.5811,-614.85,-188.08,7.191,5.8165e-13,-2.1853e-15,539.71,-615.05,-188.08,-8.3771,0,0.013453,0,1,0.75,0,-0.75,0
0,0,0,0,0,0,0.001156,-0.0027732,1.5881e-34,4.3391e-05,3.8128e-18,-1.4726e-20,14.522,0.0034991,-0.0027742,5.6322e-33,0.001157,-8.8091,-610.77,-186.91,6.6676,5.8458e-13,-2.1924e-15,535.85,-610.93,-186.91,-8.6438,0,0.013467,0,1,0.755,0,-0.755,0
0,0,0,0,0,0,0.0011468,-0.0027541,1.5828e-34,4.01e-05,3.8291e-18,-1.4776e-20,14.394,0.0034738,-0.0027549,5.6413e-33,0.0011476,-9.0682,-606.72,-185.75,6.1618,5.8708e-13,-2.1972e-15,531.99,-606.85,-185.75,-8.9404,0,0.013481,0,1,0.76,0,-0.76,0
0,0,0,0,0,0,0.0011376,-0.0027351,1.5767e-34,3.6926e-05,3.8426e-18,-1.481e-20,14.266,0.0034486,-0.0027357,5.6467e-33,0.0011382,-9.3585,-602.71,-184.62,5.6739,5.8915e-13,-2.1999e-15,528.15,-602.8,-184.62,-9.2669,0,0.013494,0,1,0.765,0,-0.765,0
0,0,0,0,0,0,0.0011283,-0.0027162,1.5696e-34,3.3866e-05,3.8533e-18,-1.4828e-20,14.138,0.0034234,-0.0027166,5.6483e-33,0.0011287,-9.68,-598.73,-183.51,5.2036,5.9079e-13,-2.2002e-15,524.31,-598.79,-183.51,-9.6233,0,0.013508,0,1,0.77,0,-0.77,0
0,0,0,0,0,0,0.0011189,-0.0026974,1.5616e-34,3.0922e-05,3.8613e-18,-1.4832e-20,14.011,0.0033983,-0.0026975,5.6461e-33,0.0011191,-10.033,-594.78,-182.42,4.7512,5.9201e-13,-2.1984e-15,520.47,-594.8,-182.42,-10.01,0,0.013522,0,1,0.775,0,-0.775,0
0,0,0,0,0,0,0.0011095,-0.0026787,1.5526e-34,2.8094e-05,3.8664e-18,-1.4819e-20,13.883,0.0033732,-0.0026786,5.6402e-33,0.0011094,-10.417,-590.86,-181.34,4.3165,5.928e-13,-2.1943e-15,516.65,-590.85,-181.34,-10.426,0,0.013535,0,1,0.78,0,-0.78,0
0,0,0,0,0,0,0.0011,-0.00266,1.5428e-34,2.5381e-05,3.8688e-18,-1.4791e-20,13.755,0.0033481,-0.0026598,5.6305e-33,0.0010997,-10.832,-586.98,-180.28,3.8995,5.9317e-13,-2.1881e-15,512.82,-586.94,-180.28,-10.872,0,0.013548,0,1,0.785,0,-0.785,0
0,0,0,0,0,0,0.0010904,-0.0026415,1.532e-34,2.2783e-05,3.8683e-18,-1.4748e-20,13.627,0.0033231,-0.002641,5.6171e-33,0.0010899,-11.278,-583.13,-179.25,3.5003,5.931e-13,-2.1795e-15,509.01,-583.06,-179.25,-11.348,0,0.013562,0,1,0.79,0,-0.79,0
0,0,0,0,0,0,0.0010807,-0.002623,1.5203e-34,2.0301e-05,3.8651e-18,-1.4689e-20,13.5,0.0032982,-0.0026224,5.5999e-33,0.0010801,-11.755,-579.31,-178.23,3.1188,5.9261e-13,-2.1688e-15,505.2,-579.21,-178.23,-11.854,0,0.013575,0,1,0.795,0,-0.795,0
0,0,0,0,0,0,0.0010709,-0.0026047,1.5076e-34,1.7934e-05,3.8591e-18,-1.4614e-20,13.372,0.0032732,-0.0026039,5.579e-33,0.0010701,-12.264,-575.52,-177.23,2.7551,5.9169e-13,-2.1558e-15,501.4,-575.4,-177.23,-12.39,0,0.013588,0,1,0.8,0,-0.8,0
0,0,0,0,0,0,0.0010611,-0.0025864,1.494e-34,1.5682e-05,3.8504e-18,-1.4524e-20,13.244,0.0032484,-0.0025854,5.5543e-33,0.0010601,-12.804,-571.77,-176.26,2.4091,5.9035e-13,-2.1406e-15,497.61,-571.62,-176.26,-12.955,0,0.013601,0,1,0.805,0,-0.805,0
0,0,0,0,0,0,0.0010512,-0.0025682,1.4795e-34,1.3546e-05,3.8388e-18,-1.4419e-20,13.116,0.0032236,-0.002567,5.5259e-33,0.00105,-13.375,-568.04,-175.3,2.0809,5.8857e-13,-2.1232e-15,493.82,-567.87,-175.3,-13.551,0,0.013614,0,1,0.81,0,-0.81,0
0,0,0,0,0,0,0.0010412,-0.0025501,1.4641e-34,1.1525e-05,3.8244e-18,-1.4298e-20,12.989,0.0031988,-0.0025488,5.4937e-33,0.0010399,-13.977,-564.35,-174.36,1.7705,5.8638e-13,-2.1036e-15,490.03,-564.16,-174.36,-14.176,0,0.013627,0,1,0.815,0,-0.815,0
0,0,0,0,0,0,0.0010311,-0.0025321,1.4478e-34,9.6196e-06,3.8073e-18,-1.4162e-20,12.861,0.003174,-0.0025306,5.4577e-33,0.0010297,-14.61,-560.7,-173.44,1.4777,5.8375e-13,-2.0817e-15,486.26,-560.48,-173.44,-14.832,0,0.013639,0,1,0.82,0,-0.82,0
0,0,0,0,0,0,0.001021,-0.0025141,1.4305e-34,7.8295e-06,3.7874e-18,-1.401e-20,12.733,0.0031494,-0.0025126,5.418e-33,0.0010194,-15.275,-557.07,-172.53,1.2028,5.807e-13,-2.0576e-15,482.49,-556.83,-172.53,-15.517,0,0.013652,0,1,0.825,0,-0.825,0
0,0,0,0,0,0,0.0010107,-0.0024963,1.4123e-34,6.1549e-06,3.7647e-18,-1.3842e-20,12.605,0.0031247,-0.0024946,5.3746e-33,0.0010091,-15.971,-553.48,-171.65,0.94558,5.7722e-13,-2.0313e-15,478.73,-553.22,-171.65,-16.232,0,0.013665,0,1,0.83,0,-0.83,0
0,0,0,0,0,0,0.0010004,-0.0024785,1.3932e-34,4.5956e-06,3.7392e-18,-1.3659e-20,12.478,0.0031001,-0.0024767,5.3274e-33,0.00099864,-16.698,-549.92,-170.79,0.70612,5.7331e-13,-2.0027e-15,474.97,-549.64,-170.79,-16.977,0,0.013677,0,1,0.835,0,-0.835,0
0,0,0,0,0,0,0.00099007,-0.0024609,1.3731e-34,3.1517e-06,3.7109e-18,-1.3461e-20,12.35,0.0030755,-0.002459,5.2764e-33,0.00098815,-17.456,-546.39,-169.95,0.48441,5.6897e-13,-1.972e-15,471.22,-546.1,-169.95,-17.752,0,0.013689,0,1,0.84,0,-0.84,0
0,0,0,0,0,0,0.00097961,-0.0024433,1.3521e-34,1.8232e-06,3.6798e-18,-1.3247e-20,12.222,0.003051,-0.0024413,5.2217e-33,0.00097759,-18.245,-542.9,-169.12,0.28045,5.6421e-13,-1.939e-15,467.48,-542.58,-169.12,-18.557,0,0.013702,0,1,0.845,0,-0.845,0
0,0,0,0,0,0,0.00096907,-0.0024258,1.3302e-34,6.1008e-07,3.646e-18,-1.3017e-20,12.094,0.0030266,-0.0024237,5.1632e-33,0.00096697,-19.066,-539.43,-168.32,0.094237,5.5902e-13,-1.9037e-15,463.74,-539.11,-168.32,-19.392,0,0.013714,0,1,0.85,0,-0.85,0
0,0,0,0,0,0,0.00095846,-0.0024084,1.3074e-34,-4.8764e-07,3.6094e-18,-1.2772e-20,11.967,0.0030022,-0.0024062,5.101e-33,0.00095627,-19.918,-536,-167.53,-0.074221,5.5341e-13,-1.8663e-15,460.01,-535.66,-167.53,-20.256,0,0.013726,0,1,0.855,0,-0.855,0
0,0,0,0,0,0,0.00094777,-0.0023911,1.2836e-34,-1.47e-06,3.5699e-18,-1.2512e-20,11.839,0.0029778,-0.0023888,5.035e-33,0.0009455,-20.801,-532.6,-166.76,-0.22493,5.4736e-13,-1.8266e-15,456.29,-532.25,-166.76,-21.151,0,0.013738,0,1,0.86,0,-0.86,0
0,0,0,0,0,0,0.000937,-0.0023739,1.2589e-34,-2.3369e-06,3.5277e-18,-1.2236e-20,11.711,0.0029534,-0.0023715,4.9653e-33,0.00093467,-21.715,-529.24,-166.02,-0.35789,5.409e-13,-1.7847e-15,452.57,-528.88,-166.02,-22.075,0,0.01375,0,1,0.865,0,-0.865,0
0,0,0,0,0,0,0.00092616,-0.0023567,1.2333e-34,-3.0885e-06,3.4827e-18,-1.1944e-20,11.584,0.0029292,-0.0023544,4.8918e-33,0.00092376,-22.66,-525.9,-165.29,-0.47309,5.34e-13,-1.7406e-15,448.86,-525.53,-165.29,-23.03,0,0.013762,0,1,0.87,0,-0.87,0
0,0,0,0,0,0,0.00091523,-0.0023397,1.2068e-34,-3.7247e-06,3.435e-18,-1.1637e-20,11.456,0.0029049,-0.0023373,4.8146e-33,0.00091279,-23.637,-522.6,-164.58,-0.57055,5.2667e-13,-1.6942e-15,445.15,-522.22,-164.58,-24.014,0,0.013774,0,1,0.875,0,-0.875,0
0,0,0,0,0,0,0.00090423,-0.0023227,1.1793e-34,-4.2455e-06,3.3844e-18,-1.1315e-20,11.328,0.0028807,-0.0023203,4.7336e-33,0.00090175,-24.644,-519.33,-163.89,-0.65025,5.1892e-13,-1.6456e-15,441.45,-518.95,-163.89,-25.028,0,0.013785,0,1,0.88,0,-0.88,0
0,0,0,0,0,0,0.00089315,-0.0023059,1.1509e-34,-4.6509e-06,3.3311e-18,-1.0977e-20,11.2,0.0028566,-0.0023033,4.6489e-33,0.00089064,-25.683,-516.1,-163.22,-0.71221,5.1075e-13,-1.5948e-15,437.76,-515.71,-163.22,-26.072,0,0.013797,0,1,0.885,0,-0.885,0
0,0,0,0,0,0,0.000882,-0.0022891,1.1216e-34,-4.9409e-06,3.2749e-18,-1.0623e-20,11.073,0.0028324,-0.0022865,4.5604e-33,0.00087945,-26.753,-512.89,-162.57,-0.75641,5.0214e-13,-1.5418e-15,434.08,-512.5,-162.57,-27.146,0,0.013808,0,1,0.89,0,-0.89,0
0,0,0,0,0,0,0.00087076,-0.0022724,1.0914e-34,-5.1155e-06,3.216e-18,-1.0254e-20,10.945,0.0028084,-0.0022698,4.4682e-33,0.0008682,-27.855,-509.72,-161.94,-0.78287,4.9311e-13,-1.4865e-15,430.4,-509.33,-161.94,-28.25,0,0.01382,0,1,0.895,0,-0.895,0
0,0,0,0,0,0,0.00085945,-0.0022558,1.0602e-34,-5.1748e-06,3.1543e-18,-9.8694e-21,10.817,0.0027844,-0.0022532,4.3722e-33,0.00085688,-28.987,-506.58,-161.32,-0.79157,4.8365e-13,-1.4291e-15,426.73,-506.18,-161.32,-29.384,0,0.013831,0,1,0.9,0,-0.9,0
0,0,0,0,0,0,0.00084806,-0.0022393,1.0281e-34,-5.1187e-06,3.0898e-18,-9.4693e-21,10.689,0.0027604,-0.0022367,4.2724e-33,0.00084549,-30.151,-503.47,-160.73,-0.78253,4.7376e-13,-1.3694e-15,423.06,-503.08,-160.73,-30.547,0,0.013842,0,1,0.905,0,-0.905,0
0,0,0,0,0,0,0.00083659,-0.0022228,9.9508e-35,-4.9471e-06,3.0225e-18,-9.0538e-21,10.562,0.0027365,-0.0022203,4.1689e-33,0.00083403,-31.346,-500.4,-160.16,-0.75573,4.6345e-13,-1.3074e-15,419.4,-500,-160.16,-31.741,0,0.013853,0,1,0.91,0,-0.91,0
0,0,0,0,0,0,0.00082504,-0.0022065,9.6113e-35,-4.6602e-06,2.9525e-18,-8.6227e-21,10.434,0.0027126,-0.002204,4.0616e-33,0.0008225,-32.572,-497.36,-159.6,-0.71118,4.5271e-13,-1.2433e-15,415.75,-496.96,-159.6,-32.964,0,0.013864,0,1,0.915,0,-0.915,0
0,0,0,0,0,0,0.00081342,-0.0021902,9.2625e-35,-4.2579e-06,2.8796e-18,-8.1761e-21,10.306,0.0026887,-0.0021877,3.9506e-33,0.0008109,-33.829,-494.35,-159.07,-0.64888,4.4154e-13,-1.1769e-15,412.1,-493.96,-159.07,-34.218,0,0.013875,0,1,0.92,0,-0.92,0
0,0,0,0,0,0,0.00080172,-0.0021741,8.9045e-35,-3.7402e-06,2.804e-18,-7.714e-21,10.178,0.0026649,-0.0021716,3.8359e-33,0.00079924,-35.117,-491.37,-158.55,-0.56883,4.2995e-13,-1.1083e-15,408.46,-490.99,-158.55,-35.501,0,0.013886,0,1,0.925,0,-0.925,0
0,0,0,0,0,0,0.00078994,-0.002158,8.5372e-35,-3.1072e-06,2.7256e-18,-7.2364e-21,10.051,0.0026412,-0.0021556,3.7174e-33,0.0007875,-36.437,-488.43,-158.05,-0.47103,4.1793e-13,-1.0374e-15,404.83,-488.05,-158.05,-36.814,0,0.013897,0,1,0.93,0,-0.93,0
0,0,0,0,0,0,0.00077808,-0.002142,8.1607e-35,-2.3587e-06,2.6444e-18,-6.7433e-21,9.9228,0.0026175,-0.0021396,3.5951e-33,0.00077569,-37.788,-485.51,-157.58,-0.35548,4.0548e-13,-9.6436e-16,401.2,-485.14,-157.58,-38.157,0,0.013907,0,1,0.935,0,-0.935,0
0,0,0,0,0,0,0.00076615,-0.0021261,7.7749e-35,-1.4949e-06,2.5604e-18,-6.2347e-21,9.795,0.0025938,-0.0021238,3.4691e-33,0.00076382,-39.17,-482.63,-157.12,-0.22218,3.926e-13,-8.8907e-16,397.58,-482.27,-157.12,-39.53,0,0.013918,0,1,0.94,0,-0.94,0
0,0,0,0,0,0,0.00075414,-0.0021103,7.3798e-35,-5.1565e-07,2.4736e-18,-5.7106e-21,9.6673,0.0025702,-0.002108,3.3393e-33,0.00075187,-40.583,-479.78,-156.68,-0.071134,3.793e-13,-8.1155e-16,393.97,-479.43,-156.68,-40.933,0,0.013928,0,1,0.945,0,-0.945,0
0,0,0,0,0,0,0.00074205,-0.0020946,6.9755e-35,5.7897e-07,2.3841e-18,-5.171e-21,9.5396,0.0025466,-0.0020924,3.2058e-33,0.00073986,-42.027,-476.97,-156.26,0.097667,3.6557e-13,-7.3181e-16,390.36,-476.63,-156.26,-42.366,0,0.013939,0,1,0.95,0,-0.95,0
0,0,0,0,0,0,0.00072988,-0.0020789,6.5619e-35,1.789e-06,2.2917e-18,-4.6159e-21,9.4118,0.0025231,-0.0020768,3.0685e-33,0.00072778,-43.503,-474.18,-155.86,0.28422,3.5141e-13,-6.4984e-16,386.76,-473.86,-155.86,-43.828,0,0.013949,0,1,0.955,0,-0.955,0
0,0,0,0,0,0,0.00071764,-0.0020634,6.139e-35,3.1144e-06,2.1966e-18,-4.0453e-21,9.2841,0.0024996,-0.0020614,2.9274e-33,0.00071562,-45.01,-471.43,-155.48,0.48852,3.3683e-13,-5.6565e-16,383.16,-471.12,-155.48,-45.321,0,0.013959,0,1,0.96,0,-0.96,0
0,0,0,0,0,0,0.00070531,-0.0020479,5.7069e-35,4.5551e-06,2.0987e-18,-3.4591e-21,9.1563,0.0024762,-0.002046,2.7827e-33,0.0007034,-46.547,-468.72,-155.11,0.71057,3.2182e-13,-4.7923e-16,379.57,-468.42,-155.11,-46.843,0,0.013969,0,1,0.965,0,-0.965,0
0,0,0,0,0,0,0.00069291,-0.0020326,5.2655e-35,6.1113e-06,1.998e-18,-2.8575e-21,9.0286,0.0024528,-0.0020308,2.6341e-33,0.00069111,-48.117,-466.03,-154.77,0.95038,3.0638e-13,-3.9059e-16,375.99,-465.75,-154.77,-48.396,0,0.013979,0,1,0.97,0,-0.97,0
0,0,0,0,0,0,0.00068043,-0.0020173,4.8148e-35,7.7829e-06,1.8945e-18,-2.2404e-21,8.9008,0.0024294,-0.0020156,2.4818e-33,0.00067875,-49.717,-463.38,-154.45,1.2079,2.9051e-13,-2.9972e-16,372.42,-463.11,-154.45,-49.978,0,0.013989,0,1,0.975,0,-0.975,0
0,0,0,0,0,0,0.00066788,-0.0020021,4.3549e-35,9.5698e-06,1.7882e-18,-1.6077e-21,8.7731,0.0024061,-0.0020005,2.3258e-33,0.00066632,-51.349,-460.75,-154.14,1.4832,2.7422e-13,-2.0662e-16,368.85,-460.51,-154.14,-51.59,0,0.013999,0,1,0.98,0,-0.98,0
0,0,0,0,0,0,0.00065524,-0.001987,3.8857e-35,1.1472e-05,1.6792e-18,-9.5955e-22,8.6453,0.0023829,-0.0019856,2.166e-33,0.00065382,-53.011,-458.17,-153.86,1.7763,2.575e-13,-1.113e-16,365.28,-457.94,-153.86,-53.232,0,0.014009,0,1,0.985,0,-0.985,0
0,0,0,0,0,0,0.00064253,-0.001972,3.4073e-35,1.349e-05,1.5673e-18,-2.9589e-22,8.5176,0.0023597,-0.0019707,2.0024e-33,0.00064125,-54.705,-455.61,-153.59,2.0871,2.4036e-13,-1.3752e-17,361.73,-455.41,-153.59,-54.904,0,0.014018,0,1,0.99,0,-0.99,0
0,0,0,0,0,0,0.00062974,-0.001957,2.9196e-35,1.5623e-05,1.4527e-18,3.8327e-22,8.3898,0.0023365,-0.0019559,1.8351e-33,0.00062861,-56.43,-453.08,-153.34,2.4157,2.2278e-13,8.6022e-17,358.18,-452.91,-153.34,-56.606,0,0.014028,0,1,0.995,0,-0.995,0
0,0,0,0,0,0,0.00061688,-0.0019422,2.4226e-35,1.7871e-05,1.3353e-18,1.0779e-21,8.2621,0.0023134,-0.0019412,1.664e-33,0.0006159,-58.187,-450.59,-153.12,2.762,2.0478e-13,1.8802e-16,354.64,-450.44,-153.12,-58.337,0,0.014037,0,1,1,0,-1,0
0,0,0,0,0,0,0.00060393,-0.0019274,1.9164e-35,2.0235e-05,1.2151e-18,1.7881e-21,8.1343,0.0022903,-0.0019266,1.4892e-33,0.00060312,-59.974,-448.13,-152.91,3.126,1.8635e-13,2.9225e-16,351.1,-448.01,-152.91,-60.099,0,0.014047,0,1,1.005,0,-1.005,0
0,0,0,0,0,0,0.00059091,-0.0019128,1.4009e-35,2.2715e-05,1.0921e-18,2.5138e-21,8.0066,0.0022672,-0.0019121,1.3107e-33,0.00059028,-61.793,-445.71,-152.72,3.5078,1.675e-13,3.987e-16,347.57,-445.61,-152.72,-61.89,0,0.014056,0,1,1.01,0,-1.01,0
0,0,0,0,0,0,0.00057781,-0.0018982,8.7612e-36,2.5309e-05,9.6636e-19,3.255e-21,7.8788,0.0022443,-0.0018978,1.1283e-33,0.00057736,-63.643,-443.31,-152.55,3.9074,1.4822e-13,5.0737e-16,344.04,-443.24,-152.55,-63.712,0,0.014065,0,1,1.015,0,-1.015,0
0,0,0,0,0,0,0.00056463,-0.0018837,3.421e-36,2.8019e-05,8.378e-19,4.0117e-21,7.7511,0.0022213,-0.0018835,9.4226e-34,0.00056437,-65.524,-440.95,-152.4,4.3247,1.2851e-13,6.1828e-16,340.53,-440.91,-152.4,-65.563,0,0.014074,0,1,1.02,0,-1.02,0
0,0,0,0,0,0,0.00055138,-0.0018693,-2.0119e-36,3.0845e-05,7.0647e-19,4.7839e-21,7.6234,0.0021984,-0.0018693,7.5243e-34,0.00055132,-67.436,-438.62,-152.27,4.7597,1.0837e-13,7.314e-16,337.02,-438.61,-152.27,-67.444,0,0.014083,0,1,1.025,0,-1.025,0
0,0,0,0,0,0,0.00053804,-0.001855,-7.5373e-36,3.3785e-05,5.7234e-19,5.5716e-21,7.4956,0.0021756,-0.0018552,5.5885e-34,0.0005382,-69.379,-436.32,-152.16,5.2126,8.7811e-14,8.4676e-16,333.51,-436.34,-152.16,-69.355,0,0.014092,0,1,1.03,0,-1.03,0
0,0,0,0,0,0,0.00052463,-0.0018408,-1.3155e-35,3.6842e-05,4.3543e-19,6.3748e-21,7.3679,0.0021527,-0.0018411,3.6151e-34,0.000525,-71.354,-434.06,-152.06,5.6831,6.6822e-14,9.6434e-16,330.01,-434.11,-152.06,-71.296,0,0.014101,0,1,1.035,0,-1.035,0
0,0,0,0,0,0,0.00051114,-0.0018266,-1.8866e-35,4.0013e-05,2.9574e-19,7.1935e-21,7.2401,0.00213,-0.0018272,1.6043e-34,0.00051174,-73.36,-431.82,-151.99,6.1714,4.5405e-14,1.0841e-15,326.52,-431.92,-151.99,-73.267,0,0.01411,0,1,1.04,0,-1.04,0
0,0,0,0,0,0,0.00049991,-0.0018145,-2.3063e-35,4.247e-05,1.4866e-19,7.7804e-21,7.1296,0.0021106,-0.0018153,9.8704e-35,0.00050069,-74.986,-429.86,-151.89,6.5497,2.285e-14,1.1695e-15,323.56,-429.98,-151.89,-74.865,0,0.014119,0,1,1.045,0,-1.045,0
0,0,0,0,0,0,0.00049887,-0.0018107,-2.0292e-35,4.1351e-05,-1.8101e-20,7.2957e-21,7.0942,0.0021062,-0.0018114,6.5632e-34,0.00049963,-74.825,-428.96,-151.57,6.3773,-2.7508e-15,1.0957e-15,322.87,-429.08,-151.57,-74.707,0,0.014128,0,1,1.05,0,-1.05,0
0,0,0,0,0,0,0.00049783,-0.0018068,-1.7569e-35,4.025e-05,-1.8221e-19,6.8192e-21,7.0589,0.0021017,-0.0018076,1.2047e-33,0.00049856,-74.662,-428.05,-151.24,6.2076,-2.7944e-14,1.0233e-15,322.19,-428.16,-151.24,-74.548,0,0.014138,0,1,1.055,0,-1.055,0
0,0,0,0,0,0,0.00049678,-0.001803,-1.4892e-35,3.9166e-05,-3.4366e-19,6.3509e-21,7.0236,0.0020972,-0.0018037,1.7437e-33,0.0004975,-74.496,-427.14,-150.92,6.0407,-5.2729e-14,9.5202e-16,321.5,-427.25,-150.92,-74.386,0,0.014147,0,1,1.06,0,-1.06,0
0,0,0,0,0,0,0.00049575,-0.0017991,-1.2263e-35,3.81e-05,-5.0245e-19,5.8907e-21,6.9882,0.0020927,-0.0017998,2.2735e-33,0.00049643,-74.329,-426.22,-150.59,5.8763,-7.7106e-14,8.8202e-16,320.81,-426.33,-150.59,-74.222,0,0.014157,0,1,1.065,0,-1.065,0
0,0,0,0,0,0,0.00049471,-0.0017953,-9.6797e-36,3.7051e-05,-6.5859e-19,5.4386e-21,6.9529,0.0020881,-0.0017959,2.7939e-33,0.00049537,-74.16,-425.3,-150.26,5.7147,-1.0108e-13,8.1327e-16,320.12,-425.41,-150.26,-74.057,0,0.014166,0,1,1.07,0,-1.07,0
0,0,0,0,0,0,0.00049367,-0.0017914,-7.1437e-36,3.602e-05,-8.1207e-19,4.9948e-21,6.9176,0.0020836,-0.001792,3.3051e-33,0.00049431,-73.988,-424.38,-149.93,5.5558,-1.2464e-13,7.4576e-16,319.43,-424.48,-149.93,-73.889,0,0.014175,0,1,1.075,0,-1.075,0
0,0,0,0,0,0,0.00049263,-0.0017875,-4.6544e-36,3.5006e-05,-9.629e-19,4.559e-21,6.8823,0.0020791,-0.0017881,3.807e-33,0.00049325,-73.815,-423.45,-149.6,5.3996,-1.4779e-13,6.7949e-16,318.73,-423.55,-149.6,-73.719,0,0.014185,0,1,1.08,0,-1.08,0
0,0,0,0,0,0,0.0004916,-0.0017835,-2.2121e-36,3.4009e-05,-1.1111e-18,4.1315e-21,6.8469,0.0020745,-0.0017841,4.2995e-33,0.0004922,-73.64,-422.52,-149.27,5.246,-1.7054e-13,6.1446e-16,318.03,-422.61,-149.27,-73.547,0,0.014194,0,1,1.085,0,-1.085,0
0,0,0,0,0,0,0.00049056,-0.0017796,1.8347e-37,3.303e-05,-1.2566e-18,3.7121e-21,6.8116,0.0020699,-0.0017802,4.7828e-33,0.00049114,-73.462,-421.58,-148.93,5.0951,-1.9288e-13,5.5068e-16,317.34,-421.67,-148.93,-73.372,0,0.014203,0,1,1.09,0,-1.09,0
0,0,0,0,0,0,0.00048953,-0.0017757,2.5322e-36,3.2068e-05,-1.3994e-18,3.3008e-21,6.7763,0.0020653,-0.0017762,5.2569e-33,0.00049009,-73.283,-420.64,-148.59,4.9469,-2.1481e-13,4.8814e-16,316.63,-420.73,-148.59,-73.196,0,0.014213,0,1,1.095,0,-1.095,0
0,0,0,0,0,0,0.0004885,-0.0017717,4.834e-36,3.1124e-05,-1.5396e-18,2.8977e-21,6.741,0.0020607,-0.0017722,5.7216e-33,0.00048904,-73.101,-419.69,-148.25,4.8014,-2.3633e-13,4.2685e-16,315.93,-419.78,-148.25,-73.018,0,0.014222,0,1,1.1,0,-1.1,0
0,0,0,0,0,0,0.00048747,-0.0017677,7.089e-36,3.0197e-05,-1.6772e-18,2.5028e-21,6.7056,0.0020561,-0.0017682,6.177e-33,0.00048799,-72.918,-418.74,-147.91,4.6586,-2.5745e-13,3.668e-16,315.22,-418.82,-147.91,-72.837,0,0.014231,0,1,1.105,0,-1.105,0
0,0,0,0,0,0,0.00048644,-0.0017637,9.2971e-36,2.9288e-05,-1.8121e-18,2.116e-21,6.6703,0.0020515,-0.0017642,6.6231e-33,0.00048694,-72.732,-417.79,-147.57,4.5185,-2.7816e-13,3.0799e-16,314.52,-417.87,-147.57,-72.655,0,0.01424,0,1,1.11,0,-1.11,0
0,0,0,0,0,0,0.00048541,-0.0017597,1.1458e-35,2.8396e-05,-1.9443e-18,1.7374e-21,6.635,0.0020468,-0.0017602,7.06e-33,0.00048589,-72.544,-416.83,-147.22,4.3811,-2.9846e-13,2.5042e-16,313.81,-416.91,-147.22,-72.47,0,0.014249,0,1,1.115,0,-1.115,0
0,0,0,0,0,0,0.00048438,-0.0017557,1.3573e-35,2.7522e-05,-2.0739e-18,1.367e-21,6.5996,0.0020422,-0.0017561,7.4875e-33,0.00048484,-72.355,-415.87,-146.88,4.2463,-3.1835e-13,1.941e-16,313.1,-415.94,-146.88,-72.283,0,0.014259,0,1,1.12,0,-1.12,0
0,0,0,0,0,0,0.00048336,-0.0017516,1.5641e-35,2.6665e-05,-2.2008e-18,1.0046e-21,6.5643,0.0020375,-0.0017521,7.9058e-33,0.0004838,-72.163,-414.91,-146.53,4.1142,-3.3783e-13,1.3902e-16,312.38,-414.97,-146.53,-72.094,0,0.014268,0,1,1.125,0,-1.125,0
0,0,0,0,0,0,0.00048233,-0.0017476,1.7661e-35,2.5825e-05,-2.3251e-18,6.505e-22,6.529,0.0020328,-0.001748,8.3148e-33,0.00048276,-71.969,-413.94,-146.18,3.9848,-3.5691e-13,8.518e-17,311.67,-414,-146.18,-71.903,0,0.014277,0,1,1.13,0,-1.13,0
0,0,0,0,0,0,0.00048131,-0.0017435,1.9635e-35,2.5003e-05,-2.4467e-18,3.0451e-22,6.4937,0.0020281,-0.0017439,8.7145e-33,0.00048172,-71.773,-412.96,-145.82,3.8581,-3.7558e-13,3.2585e-17,310.95,-413.02,-145.82,-71.71,0,0.014286,0,1,1.135,0,-1.135,0
0,0,0,0,0,0,0.00048029,-0.0017394,2.1562e-35,2.4199e-05,-2.5657e-18,-3.3325e-23,6.4583,0.0020234,-0.0017398,9.1049e-33,0.00048068,-71.575,-411.98,-145.47,3.7341,-3.9384e-13,-1.8766e-17,310.23,-412.04,-145.47,-71.515,0,0.014295,0,1,1.14,0,-1.14,0
0,0,0,0,0,0,0.00047927,-0.0017353,2.3442e-35,2.3411e-05,-2.682e-18,-3.63e-22,6.423,0.0020187,-0.0017357,9.486e-33,0.00047964,-71.375,-411,-145.11,3.6128,-4.117e-13,-6.8875e-17,309.51,-411.06,-145.11,-71.318,0,0.014304,0,1,1.145,0,-1.145,0
0,0,0,0,0,0,0.00047825,-0.0017312,2.5276e-35,2.2642e-05,-2.7956e-18,-6.8452e-22,6.3877,0.0020139,-0.0017316,9.8578e-33,0.0004786,-71.173,-410.01,-144.76,3.4941,-4.2914e-13,-1.1774e-16,308.78,-410.07,-144.76,-71.118,0,0.014313,0,1,1.15,0,-1.15,0
0,0,0,0,0,0,0.00047723,-0.0017271,2.7062e-35,2.1889e-05,-2.9066e-18,-9.9789e-22,6.3523,0.0020092,-0.0017274,1.022e-32,0.00047757,-70.969,-409.02,-144.4,3.3782,-4.4618e-13,-1.6536e-16,308.06,-409.07,-144.4,-70.917,0,0.014322,0,1,1.155,0,-1.155,0
0,0,0,0,0,0,0.00047621,-0.0017229,2.8802e-35,2.1154e-05,-3.0149e-18,-1.3031e-21,6.317,0.0020044,-0.0017232,1.0574e-32,0.00047654,-70.763,-408.03,-144.03,3.2649,-4.6281e-13,-2.1174e-16,307.33,-408.08,-144.03,-70.713,0,0.01433,0,1,1.16,0,-1.16,0
0,0,0,0,0,0,0.0004752,-0.0017188,3.0495e-35,2.0437e-05,-3.1206e-18,-1.6001e-21,6.2817,0.0019997,-0.0017191,1.0917e-32,0.0004755,-70.555,-407.03,-143.67,3.1543,-4.7904e-13,-2.5688e-16,306.6,-407.08,-143.67,-70.507,0,0.014339,0,1,1.165,0,-1.165,0
0,0,0,0,0,0,0.00047418,-0.0017146,3.2141e-35,1.9737e-05,-3.2236e-18,-1.889e-21,6.2464,0.0019949,-0.0017149,1.1252e-32,0.00047447,-70.345,-406.02,-143.3,3.0464,-4.9485e-13,-3.0077e-16,305.87,-406.07,-143.3,-70.3,0,0.014348,0,1,1.17,0,-1.17,0
0,0,0,0,0,0,0.00047317,-0.0017104,3.374e-35,1.9054e-05,-3.324e-18,-2.1698e-21,6.211,0.0019901,-0.0017107,1.1578e-32,0.00047345,-70.133,-405.02,-142.94,2.9412,-5.1026e-13,-3.4343e-16,305.14,-405.06,-142.94,-70.09,0,0.014357,0,1,1.175,0,-1.175,0
0,0,0,0,0,0,0.00047215,-0.0017062,3.5292e-35,1.8389e-05,-3.4217e-18,-2.4424e-21,6.1757,0.0019853,-0.0017065,1.1894e-32,0.00047242,-69.919,-404,-142.57,2.8387,-5.2526e-13,-3.8483e-16,304.4,-404.05,-142.57,-69.878,0,0.014366,0,1,1.18,0,-1.18,0
0,0,0,0,0,0,0.00047114,-0.001702,3.6798e-35,1.7742e-05,-3.5168e-18,-2.7068e-21,6.1404,0.0019804,-0.0017022,1.22e-32,0.00047139,-69.703,-402.99,-142.2,2.7388,-5.3985e-13,-4.25e-16,303.66,-403.03,-142.2,-69.664,0,0.014374,0,1,1.185,0,-1.185,0
0,0,0,0,0,0,0.00047013,-0.0016977,3.8257e-35,1.7111e-05,-3.6092e-18,-2.963e-21,6.1051,0.0019756,-0.001698,1.2498e-32,0.00047037,-69.484,-401.97,-141.82,2.6417,-5.5404e-13,-4.6392e-16,302.92,-402.01,-141.82,-69.447,0,0.014383,0,1,1.19,0,-1.19,0
0,0,0,0,0,0,0.00046912,-0.0016935,3.9668e-35,1.6499e-05,-3.6989e-18,-3.2112e-21,6.0697,0.0019707,-0.0016937,1.2786e-32,0.00046935,-69.264,-400.94,-141.45,2.5472,-5.6782e-13,-5.016e-16,302.18,-400.98,-141.45,-69.229,0,0.014392,0,1,1.195,0,-1.195,0
0,0,0,0,0,0,0.00046812,-0.0016892,4.1033e-35,1.5903e-05,-3.786e-18,-3.4511e-21,6.0344,0.0019659,-0.0016894,1.3065e-32,0.00046833,-69.042,-399.92,-141.07,2.4554,-5.8119e-13,-5.3804e-16,301.44,-399.95,-141.07,-69.009,0,0.014401,0,1,1.2,0,-1.2,0
0,0,0,0,0,0,0.00046711,-0.0016849,4.2351e-35,1.5326e-05,-3.8704e-18,-3.6829e-21,5.9991,0.001961,-0.0016851,1.3335e-32,0.00046731,-68.817,-398.88,-140.69,2.3663,-5.9415e-13,-5.7323e-16,300.69,-398.91,-140.69,-68.786,0,0.014409,0,1,1.205,0,-1.205,0
0,0,0,0,0,0,0.0004661,-0.0016806,4.3623e-35,1.4765e-05,-3.9522e-18,-3.9065e-21,5.9637,0.0019561,-0.0016808,1.3595e-32,0.00046629,-68.591,-397.85,-140.31,2.2799,-6.067e-13,-6.0718e-16,299.94,-397.88,-140.31,-68.561,0,0.014418,0,1,1.21,0,-1.21,0
0,0,0,0,0,0,0.0004651,-0.0016763,4.4847e-35,1.4222e-05,-4.0313e-18,-4.122e-21,5.9284,0.0019512,-0.0016765,1.3846e-32,0.00046528,-68.362,-396.81,-139.93,2.1961,-6.1885e-13,-6.3989e-16,299.19,-396.83,-139.93,-68.335,0,0.014426,0,1,1.215,0,-1.215,0
0,0,0,0,0,0,0.0004641,-0.001672,4.6025e-35,1.3697e-05,-4.1078e-18,-4.3293e-21,5.8931,0.0019463,-0.0016722,1.4088e-32,0.00046426,-68.132,-395.76,-139.54,2.1151,-6.3059e-13,-6.7135e-16,298.44,-395.79,-139.54,-68.106,0,0.014435,0,1,1.22,0,-1.22,0
0,0,0,0,0,0,0.00046309,-0.0016677,4.7155e-35,1.3189e-05,-4.1816e-18,-4.5285e-21,5.8578,0.0019413,-0.0016678,1.432e-32,0.00046325,-67.899,-394.71,-139.16,2.0367,-6.4192e-13,-7.0157e-16,297.69,-394.74,-139.16,-67.875,0,0.014443,0,1,1.225,0,-1.225,0
0,0,0,0,0,0,0.00046209,-0.0016633,4.8239e-35,1.2698e-05,-4.2528e-18,-4.7195e-21,5.8224,0.0019364,-0.0016634,1.4543e-32,0.00046224,-67.665,-393.66,-138.77,1.9611,-6.5284e-13,-7.3055e-16,296.93,-393.68,-138.77,-67.642,0,0.014452,0,1,1.23,0,-1.23,0
0,0,0,0,0,0,0.00046109,-0.0016589,4.9276e-35,1.2225e-05,-4.3213e-18,-4.9024e-21,5.7871,0.0019314,-0.0016591,1.4757e-32,0.00046123,-67.428,-392.6,-138.38,1.8881,-6.6336e-13,-7.5829e-16,296.17,-392.62,-138.38,-67.407,0,0.01446,0,1,1.235,0,-1.235,0
0,0,0,0,0,0,0.00046009,-0.0016545,5.0266e-35,1.1769e-05,-4.3871e-18,-5.0771e-21,5.7518,0.0019264,-0.0016547,1.4962e-32,0.00046022,-67.189,-391.54,-137.99,1.8178,-6.7347e-13,-7.8478e-16,295.41,-391.56,-137.99,-67.17,0,0.014469,0,1,1.24,0,-1.24,0
0,0,0,0,0,0,0.0004591,-0.0016501,5.121e-35,1.1331e-05,-4.4503e-18,-5.2436e-21,5.7165,0.0019215,-0.0016503,1.5157e-32,0.00045921,-66.949,-390.47,-137.59,1.7501,-6.8317e-13,-8.1003e-16,294.65,-390.49,-137.59,-66.93,0,0.014477,0,1,1.245,0,-1.245,0
0,0,0,0,0,0,0.0004581,-0.0016457,5.2106e-35,1.091e-05,-4.5108e-18,-5.402e-21,5.6811,0.0019165,-0.0016458,1.5343e-32,0.00045821,-66.706,-389.4,-137.2,1.6852,-6.9246e-13,-8.3404e-16,293.89,-389.42,-137.2,-66.689,0,0.014486,0,1,1.25,0,-1.25,0
0,0,0,0,0,0,0.00045711,-0.0016413,5.2956e-35,1.0506e-05,-4.5687e-18,-5.5522e-21,5.6458,0.0019114,-0.0016414,1.552e-32,0.00045721,-66.461,-388.33,-136.8,1.623,-7.0135e-13,-8.568e-16,293.12,-388.34,-136.8,-66.445,0,0.014494,0,1,1.255,0,-1.255,0
0,0,0,0,0,0,0.00045611,-0.0016369,5.3759e-35,1.012e-05,-4.6239e-18,-5.6943e-21,5.6105,0.0019064,-0.0016369,1.5687e-32,0.00045621,-66.214,-387.25,-136.4,1.5634,-7.0982e-13,-8.7832e-16,292.35,-387.26,-136.4,-66.2,0,0.014502,0,1,1.26,0,-1.26,0
0,0,0,0,0,0,0.00045512,-0.0016324,5.4514e-35,9.7518e-06,-4.6765e-18,-5.8282e-21,5.5751,0.0019014,-0.0016325,1.5845e-32,0.00045521,-65.965,-386.17,-136,1.5065,-7.1789e-13,-8.986e-16,291.58,-386.18,-136,-65.952,0,0.01451,0,1,1.265,0,-1.265,0
0,0,0,0,0,0,0.00045413,-0.0016279,5.5224e-35,9.4007e-06,-4.7264e-18,-5.9539e-21,5.5398,0.0018963,-0.001628,1.5994e-32,0.00045421,-65.714,-385.08,-135.6,1.4523,-7.2555e-13,-9.1764e-16,290.81,-385.09,-135.6,-65.702,0,0.014519,0,1,1.27,0,-1.27,0
0,0,0,0,0,0,0.00045314,-0.0016234,5.5886e-35,9.0671e-06,-4.7736e-18,-6.0715e-21,5.5045,0.0018913,-0.0016235,1.6134e-32,0.00045321,-65.461,-383.99,-135.19,1.4008,-7.3281e-13,-9.3543e-16,290.04,-384,-135.19,-65.45,0,0.014527,0,1,1.275,0,-1.275,0
0,0,0,0,0,0,0.00045215,-0.0016189,5.6501e-35,8.7509e-06,-4.8182e-18,-6.181e-21,5.4692,0.0018862,-0.001619,1.6264e-32,0.00045222,-65.206,-382.89,-134.79,1.352,-7.3965e-13,-9.5198e-16,289.26,-382.9,-134.79,-65.196,0,0.014535,0,1,1.28,0,-1.28,0
0,0,0,0,0,0,0.00045116,-0.0016144,5.707e-35,8.4521e-06,-4.8602e-18,-6.2823e-21,5.4338,0.0018811,-0.0016145,1.6385e-32,0.00045122,-64.949,-381.8,-134.38,1.3059,-7.4609e-13,-9.6728e-16,288.48,-381.8,-134.38,-64.94,0,0.014543,0,1,1.285,0,-1.285,0
0,0,0,0,0,0,0.00045018,-0.0016099,5.7591e-35,8.1708e-06,-4.8995e-18,-6.3754e-21,5.3985,0.001876,-0.0016099,1.6497e-32,0.00045023,-64.69,-380.69,-133.97,1.2624,-7.5212e-13,-9.8135e-16,287.7,-380.7,-133.97,-64.682,0,0.014551,0,1,1.29,0,-1.29,0
0,0,0,0,0,0,0.00044919,-0.0016053,5.8066e-35,7.907e-06,-4.9361e-18,-6.4604e-21,5.3632,0.0018709,-0.0016054,1.6599e-32,0.00044924,-64.429,-379.58,-133.55,1.2217,-7.5775e-13,-9.9417e-16,286.92,-379.59,-133.55,-64.421,0,0.01456,0,1,1.295,0,-1.295,0
0,0,0,0,0,0,0.00044821,-0.0016007,5.8494e-35,7.6605e-06,-4.9701e-18,-6.5372e-21,5.3278,0.0018657,-0.0016008,1.6692e-32,0.00044825,-64.166,-378.47,-133.14,1.1836,-7.6296e-13,-1.0057e-15,286.13,-378.48,-133.14,-64.159,0,0.014568,0,1,1.3,0,-1.3,0
0,0,0,0,0,0,0.00044722,-0.0015962,5.8876e-35,7.4316e-06,-5.0014e-18,-6.6058e-21,5.2925,0.0018606,-0.0015962,1.6776e-32,0.00044726,-63.901,-377.36,-132.72,1.1482,-7.6777e-13,-1.0161e-15,285.35,-377.36,-132.72,-63.894,0,0.014576,0,1,1.305,0,-1.305,0
0,0,0,0,0,0,0.00044624,-0.0015916,5.921e-35,7.22e-06,-5.03e-18,-6.6663e-21,5.2572,0.0018554,-0.0015916,1.6851e-32,0.00044628,-63.633,-376.24,-132.31,1.1155,-7.7217e-13,-1.0252e-15,284.56,-376.24,-132.31,-63.628,0,0.014584,0,1,1.31,0,-1.31,0
0,0,0,0,0,0,0.00044526,-0.001587,5.9497e-35,7.0259e-06,-5.056e-18,-6.7187e-21,5.2219,0.0018503,-0.001587,1.6916e-32,0.00044529,-63.364,-375.11,-131.89,1.0855,-7.7617e-13,-1.033e-15,283.77,-375.12,-131.89,-63.359,0,0.014592,0,1,1.315,0,-1.315,0
0,0,0,0,0,0,0.00044428,-0.0015823,5.9738e-35,6.8493e-06,-5.0794e-18,-6.7628e-21,5.1865,0.0018451,-0.0015824,1.6972e-32,0.00044431,-63.093,-373.98,-131.46,1.0581,-7.7975e-13,-1.0396e-15,282.98,-373.99,-131.46,-63.088,0,0.0146,0,1,1.32,0,-1.32,0
0,0,0,0,0,0,0.0004433,-0.0015777,5.9932e-35,6.6901e-06,-5.1001e-18,-6.7989e-21,5.1512,0.0018399,-0.0015777,1.7018e-32,0.00044333,-62.819,-372.85,-131.04,1.0335,-7.8293e-13,-1.045e-15,282.18,-372.86,-131.04,-62.815,0,0.014608,0,1,1.325,0,-1.325,0
0,0,0,0,0,0,0.00044233,-0.001573,6.0079e-35,6.5483e-06,-5.1181e-18,-6.8267e-21,5.1159,0.0018347,-0.0015731,1.7056e-32,0.00044235,-62.544,-371.71,-130.62,1.0115,-7.857e-13,-1.0491e-15,281.39,-371.72,-130.62,-62.54,0,0.014615,0,1,1.33,0,-1.33,0
0,0,0,0,0,0,0.00044135,-0.0015684,6.0179e-35,6.424e-06,-5.1335e-18,-6.8465e-21,5.0806,0.0018294,-0.0015684,1.7084e-32,0.00044137,-62.267,-370.57,-130.19,0.99224,-7.8806e-13,-1.052e-15,280.59,-370.58,-130.19,-62.263,0,0.014623,0,1,1.335,0,-1.335,0
0,0,0,0,0,0,0.00044037,-0.0015637,6.0232e-35,6.3172e-06,-5.1462e-18,-6.858e-21,5.0452,0.0018242,-0.0015637,1.7103e-32,0.0004404,-61.987,-369.43,-129.76,0.97565,-7.9001e-13,-1.0536e-15,279.79,-369.43,-129.76,-61.984,0,0.014631,0,1,1.34,0,-1.34,0
0,0,0,0,0,0,0.0004394,-0.001559,6.0239e-35,6.2278e-06,-5.1563e-18,-6.8614e-21,5.0099,0.001819,-0.001559,1.7112e-32,0.00043942,-61.706,-368.28,-129.33,0.96174,-7.9156e-13,-1.054e-15,278.98,-368.28,-129.33,-61.703,0,0.014639,0,1,1.345,0,-1.345,0
0,0,0,0,0,0,0.00043843,-0.0015543,6.0198e-35,6.1558e-06,-5.1637e-18,-6.8567e-21,4.9746,0.0018137,-0.0015543,1.7112e-32,0.00043845,-61.422,-367.13,-128.89,0.95052,-7.927e-13,-1.0532e-15,278.18,-367.13,-128.89,-61.419,0,0.014647,0,1,1.35,0,-1.35,0
0,0,0,0,0,0,0.00043746,-0.0015495,6.0111e-35,6.1013e-06,-5.1685e-18,-6.8437e-21,4.9392,0.0018084,-0.0015495,1.7103e-32,0.00043748,-61.136,-365.97,-128.46,0.94198,-7.9343e-13,-1.0511e-15,277.37,-365.97,-128.46,-61.134,0,0.014655,0,1,1.355,0,-1.355,0
0,0,0,0,0,0,0.00043649,-0.0015448,5.9977e-35,6.0642e-06,-5.1706e-18,-6.8227e-21,4.9039,0.0018031,-0.0015448,1.7085e-32,0.00043651,-60.849,-364.81,-128.02,0.93613,-7.9375e-13,-1.0477e-15,276.56,-364.81,-128.02,-60.846,0,0.014662,0,1,1.36,0,-1.36,0
0,0,0,0,0,0,0.00043552,-0.00154,5.9796e-35,6.0445e-06,-5.17e-18,-6.7934e-21,4.8686,0.0017978,-0.00154,1.7057e-32,0.00043554,-60.559,-363.64,-127.58,0.93297,-7.9367e-13,-1.0431e-15,275.75,-363.64,-127.58,-60.556,0,0.01467,0,1,1.365,0,-1.365,0
0,0,0,0,0,0,0.00043455,-0.0015352,5.9568e-35,6.0423e-06,-5.1668e-18,-6.7561e-21,4.8333,0.0017925,-0.0015353,1.702e-32,0.00043457,-60.267,-362.47,-127.14,0.93249,-7.9318e-13,-1.0373e-15,274.94,-362.47,-127.14,-60.264,0,0.014678,0,1,1.37,0,-1.37,0
0,0,0,0,0,0,0.00043358,-0.0015305,5.9293e-35,6.0576e-06,-5.161e-18,-6.7105e-21,4.7979,0.0017872,-0.0015305,1.6974e-32,0.00043361,-59.973,-361.3,-126.7,0.9347,-7.9228e-13,-1.0303e-15,274.13,-361.3,-126.7,-59.97,0,0.014685,0,1,1.375,0,-1.375,0
0,0,0,0,0,0,0.00043262,-0.0015256,5.8972e-35,6.0903e-06,-5.1524e-18,-6.6568e-21,4.7626,0.0017818,-0.0015257,1.6919e-32,0.00043264,-59.678,-360.12,-126.26,0.93959,-7.9097e-13,-1.0219e-15,273.31,-360.12,-126.26,-59.674,0,0.014693,0,1,1.38,0,-1.38,0
0,0,0,0,0,0,0.00043166,-0.0015208,5.8603e-35,6.1404e-06,-5.1413e-18,-6.595e-21,4.7273,0.0017765,-0.0015208,1.6854e-32,0.00043168,-59.38,-358.94,-125.81,0.94717,-7.8926e-13,-1.0124e-15,272.49,-358.94,-125.81,-59.376,0,0.0147,0,1,1.385,0,-1.385,0
0,0,0,0,0,0,0.00043069,-0.001516,5.8188e-35,6.208e-06,-5.1274e-18,-6.5249e-21,4.6919,0.0017711,-0.001516,1.678e-32,0.00043072,-59.08,-357.75,-125.36,0.95743,-7.8713e-13,-1.0016e-15,271.67,-357.75,-125.36,-59.076,0,0.014708,0,1,1.39,0,-1.39,0
0,0,0,0,0,0,0.00042973,-0.0015111,5.7726e-35,6.2931e-06,-5.111e-18,-6.4468e-21,4.6566,0.0017657,-0.0015112,1.6696e-32,0.00042976,-58.778,-356.56,-124.91,0.97038,-7.846e-13,-9.8955e-16,270.85,-356.56,-124.91,-58.773,0,0.014716,0,1,1.395,0,-1.395,0
0,0,0,0,0,0,0.00042877,-0.0015063,5.7217e-35,6.3955e-06,-5.0918e-18,-6.3605e-21,4.6213,0.0017603,-0.0015063,1.6604e-32,0.0004288,-58.474,-355.36,-124.46,0.98602,-7.8166e-13,-9.7627e-16,270.02,-355.37,-124.46,-58.469,0,0.014723,0,1,1.4,0,-1.4,0
0,0,0,0,0,0,0.00042781,-0.0015014,5.6662e-35,6.5154e-06,-5.07e-18,-6.266e-21,4.586,0.0017549,-0.0015014,1.6502e-32,0.00042785,-58.168,-354.16,-124.01,1.0043,-7.7832e-13,-9.6175e-16,269.2,-354.17,-124.01,-58.162,0,0.01473,0,1,1.405,0,-1.405,0
0,0,0,0,0,0,0.00042685,-0.0014965,5.6059e-35,6.6528e-06,-5.0456e-18,-6.1633e-21,4.5506,0.0017495,-0.0014965,1.639e-32,0.00042689,-57.86,-352.96,-123.55,1.0253,-7.7456e-13,-9.4598e-16,268.37,-352.97,-123.55,-57.854,0,0.014738,0,1,1.41,0,-1.41,0
0,0,0,0,0,0,0.0004259,-0.0014916,5.541e-35,6.8076e-06,-5.0184e-18,-6.0525e-21,4.5153,0.0017441,-0.0014916,1.627e-32,0.00042594,-57.55,-351.75,-123.1,1.049,-7.704e-13,-9.2897e-16,267.54,-351.76,-123.1,-57.543,0,0.014745,0,1,1.415,0,-1.415,0
0,0,0,0,0,0,0.00042494,-0.0014867,5.4713e-35,6.9799e-06,-4.9887e-18,-5.9336e-21,4.48,0.0017386,-0.0014867,1.614e-32,0.00042499,-57.238,-350.54,-122.64,1.0754,-7.6583e-13,-9.1072e-16,266.7,-350.55,-122.64,-57.23,0,0.014753,0,1,1.42,0,-1.42,0
0,0,0,0,0,0,0.00042399,-0.0014817,5.397e-35,7.1696e-06,-4.9563e-18,-5.8065e-21,4.4447,0.0017332,-0.0014818,1.6001e-32,0.00042404,-56.923,-349.33,-122.18,1.1045,-7.6086e-13,-8.9122e-16,265.87,-349.33,-122.18,-56.915,0,0.01476,0,1,1.425,0,-1.425,0
0,0,0,0,0,0,0.00042303,-0.0014768,5.318e-35,7.3767e-06,-4.9212e-18,-5.6712e-21,4.4093,0.0017277,-0.0014768,1.5852e-32,0.00042309,-56.607,-348.11,-121.71,1.1362,-7.5547e-13,-8.7048e-16,265.03,-348.12,-121.71,-56.598,0,0.014767,0,1,1.43,0,-1.43,0
0,0,0,0,0,0,0.00042208,-0.0014718,5.2344e-35,7.6013e-06,-4.8834e-18,-5.5278e-21,4.374,0.0017222,-0.0014719,1.5695e-32,0.00042214,-56.289,-346.88,-121.25,1.1707,-7.4968e-13,-8.485e-16,264.19,-346.89,-121.25,-56.279,0,0.014775,0,1,1.435,0,-1.435,0
0,0,0,0,0,0,0.00042113,-0.0014668,5.146e-35,7.8433e-06,-4.8431e-18,-5.3762e-21,4.3387,0.0017167,-0.0014669,1.5528e-32,0.0004212,-55.968,-345.65,-120.78,1.2078,-7.4348e-13,-8.2527e-16,263.35,-345.66,-120.78,-55.958,0,0.014782,0,1,1.44,0,-1.44,0
0,0,0,0,0,0,0.00042018,-0.0014618,5.0529e-35,8.1028e-06,-4.8e-18,-5.2164e-21,4.3033,0.0017112,-0.0014619,1.5351e-32,0.00042026,-55.646,-344.42,-120.31,1.2476,-7.3687e-13,-8.0081e-16,262.51,-344.43,-120.31,-55.634,0,0.014789,0,1,1.445,0,-1.445,0
0,0,0,0,0,0,0.00041923,-0.0014568,4.9552e-35,8.3797e-06,-4.7543e-18,-5.0485e-21,4.268,0.0017057,-0.0014569,1.5166e-32,0.00041931,-55.322,-343.18,-119.84,1.2901,-7.2986e-13,-7.7509e-16,261.66,-343.2,-119.84,-55.309,0,0.014796,0,1,1.45,0,-1.45,0
0,0,0,0,0,0,0.00041828,-0.0014518,4.8528e-35,8.6741e-06,-4.706e-18,-4.8725e-21,4.2327,0.0017001,-0.0014518,1.4971e-32,0.00041837,-54.995,-341.94,-119.37,1.3353,-7.2244e-13,-7.4814e-16,260.82,-341.96,-119.37,-54.981,0,0.014804,0,1,1.455,0,-1.455,0
0,0,0,0,0,0,0.00041734,-0.0014467,4.7457e-35,8.9859e-06,-4.6549e-18,-4.6883e-21,4.1974,0.0016946,-0.0014468,1.4767e-32,0.00041744,-54.667,-340.7,-118.9,1.3831,-7.1461e-13,-7.1994e-16,259.97,-340.71,-118.9,-54.652,0,0.014811,0,1,1.46,0,-1.46,0
0,0,0,0,0,0,0.00041639,-0.0014416,4.6339e-35,9.3152e-06,-4.6013e-18,-4.4959e-21,4.162,0.001689,-0.0014418,1.4553e-32,0.0004165,-54.336,-339.45,-118.42,1.4337,-7.0637e-13,-6.905e-16,259.12,-339.47,-118.42,-54.32,0,0.014818,0,1,1.465,0,-1.465,0
0,0,0,0,0,0,0.00041545,-0.0014366,4.5174e-35,9.6619e-06,-4.545e-18,-4.2954e-21,4.1267,0.0016834,-0.0014367,1.433e-32,0.00041556,-54.004,-338.2,-117.94,1.4869,-6.9772e-13,-6.5982e-16,258.26,-338.21,-117.94,-53.986,0,0.014825,0,1,1.47,0,-1.47,0
0,0,0,0,0,0,0.0004145,-0.0014315,4.3963e-35,1.0026e-05,-4.486e-18,-4.0867e-21,4.0914,0.0016778,-0.0014316,1.4098e-32,0.00041463,-53.669,-336.94,-117.46,1.5428,-6.8867e-13,-6.279e-16,257.41,-336.96,-117.46,-53.65,0,0.014832,0,1,1.475,0,-1.475,0
0,0,0,0,0,0,0.00041356,-0.0014264,4.2704e-35,1.0408e-05,-4.4243e-18,-3.8699e-21,4.056,0.0016722,-0.0014265,1.3857e-32,0.0004137,-53.332,-335.68,-116.98,1.6014,-6.7921e-13,-5.9473e-16,256.55,-335.7,-116.98,-53.312,0,0.014839,0,1,1.48,0,-1.48,0
0,0,0,0,0,0,0.00041262,-0.0014213,4.1399e-35,1.0807e-05,-4.3601e-18,-3.6449e-21,4.0207,0.0016666,-0.0014214,1.3606e-32,0.00041277,-52.994,-334.41,-116.5,1.6627,-6.6934e-13,-5.6031e-16,255.69,-334.43,-116.5,-52.972,0,0.014846,0,1,1.485,0,-1.485,0
0,0,0,0,0,0,0.00041168,-0.0014161,4.0047e-35,1.1223e-05,-4.2931e-18,-3.4117e-21,3.9854,0.001661,-0.0014163,1.3346e-32,0.00041184,-52.653,-333.14,-116.01,1.7267,-6.5906e-13,-5.2466e-16,254.83,-333.16,-116.01,-52.629,0,0.014853,0,1,1.49,0,-1.49,0
0,0,0,0,0,0,0.00041075,-0.001411,3.8648e-35,1.1657e-05,-4.2235e-18,-3.1704e-21,3.9501,0.0016553,-0.0014111,1.3077e-32,0.00041091,-52.31,-331.87,-115.53,1.7933,-6.4838e-13,-4.8776e-16,253.97,-331.89,-115.53,-52.285,0,0.01486,0,1,1.495,0,-1.495,0
0,0,0,0,0,0,0.00040981,-0.0014058,3.7202e-35,1.2108e-05,-4.1512e-18,-2.921e-21,3.9147,0.0016497,-0.001406,1.2799e-32,0.00040998,-51.966,-330.59,-115.04,1.8627,-6.3729e-13,-4.4962e-16,253.1,-330.62,-115.04,-51.939,0,0.014867,0,1,1.5,0,-1.5,0
0,0,0,0,0,0,0.00040887,-0.0014006,3.571e-35,1.2577e-05,-4.0763e-18,-2.6633e-21,3.8794,0.001644,-0.0014008,1.2511e-32,0.00040906,-51.619,-329.31,-114.55,1.9347,-6.2579e-13,-4.1024e-16,252.24,-329.33,-114.55,-51.59,0,0.014874,0,1,1.505,0,-1.505,0
0,0,0,0,0,0,0.00040794,-0.0013954,3.417e-35,1.3064e-05,-3.9988e-18,-2.3976e-21,3.8441,0.0016383,-0.0013956,1.2214e-32,0.00040814,-51.27,-328.02,-114.05,2.0094,-6.1388e-13,-3.6961e-16,251.37,-328.05,-114.05,-51.239,0,0.014881,0,1,1.51,0,-1.51,0
0,0,0,0,0,0,0.00040701,-0.0013902,3.2584e-35,1.3567e-05,-3.9185e-18,-2.1236e-21,3.8088,0.0016326,-0.0013904,1.1907e-32,0.00040722,-50.919,-326.73,-113.56,2.0869,-6.0156e-13,-3.2774e-16,250.5,-326.76,-113.56,-50.886,0,0.014887,0,1,1.515,0,-1.515,0
0,0,0,0,0,0,0.00040607,-0.001385,3.0951e-35,1.4088e-05,-3.8357e-18,-1.8415e-21,3.7734,0.0016269,-0.0013852,1.1592e-32,0.0004063,-50.566,-325.43,-113.06,2.1669,-5.8884e-13,-2.8463e-16,249.62,-325.47,-113.06,-50.532,0,0.014894,0,1,1.52,0,-1.52,0
0,0,0,0,0,0,0.00040514,-0.0013797,2.9271e-35,1.4627e-05,-3.7501e-18,-1.5513e-21,3.7381,0.0016212,-0.00138,1.1267e-32,0.00040538,-50.211,-324.13,-112.56,2.2497,-5.7571e-13,-2.4028e-16,248.75,-324.17,-112.56,-50.175,0,0.014901,0,1,1.525,0,-1.525,0
0,0,0,0,0,0,0.00040421,-0.0013745,2.7544e-35,1.5183e-05,-3.6619e-18,-1.2529e-21,3.7028,0.0016154,-0.0013747,1.0933e-32,0.00040446,-49.854,-322.83,-112.06,2.3352,-5.6217e-13,-1.9468e-16,247.87,-322.87,-112.06,-49.815,0,0.014908,0,1,1.53,0,-1.53,0
0,0,0,0,0,0,0.00040328,-0.0013692,2.577e-35,1.5756e-05,-3.5711e-18,-9.463e-22,3.6674,0.0016097,-0.0013695,1.0589e-32,0.00040355,-49.495,-321.52,-111.56,2.4233,-5.4823e-13,-1.4784e-16,246.99,-321.56,-111.56,-49.454,0,0.014914,0,1,1.535,0,-1.535,0
0,0,0,0,0,0,0.00040236,-0.0013639,2.3949e-35,1.6347e-05,-3.4776e-18,-6.3158e-22,3.6321,0.0016039,-0.0013642,1.0236e-32,0.00040263,-49.134,-320.21,-111.06,2.5142,-5.3387e-13,-9.9752e-17,246.11,-320.25,-111.06,-49.091,0,0.014921,0,1,1.54,0,-1.54,0
0,0,0,0,0,0,0.00040143,-0.0013586,2.2082e-35,1.6956e-05,-3.3814e-18,-3.087e-22,3.5968,0.0015982,-0.0013589,9.8741e-33,0.00040172,-48.77,-318.9,-110.55,2.6077,-5.1911e-13,-5.0425e-17,245.23,-318.94,-110.55,-48.726,0,0.014928,0,1,1.545,0,-1.545,0
0,0,0,0,0,0,0.00040051,-0.0013533,2.0168e-35,1.7582e-05,-3.2826e-18,2.2333e-23,3.5615,0.0015924,-0.0013536,9.5027e-33,0.00040081,-48.405,-317.58,-110.05,2.7039,-5.0394e-13,1.4474e-19,244.34,-317.62,-110.05,-48.358,0,0.014934,0,1,1.55,0,-1.55,0
0,0,0,0,0,0,0.00039958,-0.001348,1.8207e-35,1.8225e-05,-3.1811e-18,3.6153e-22,3.5261,0.0015866,-0.0013483,9.122e-33,0.0003999,-48.038,-316.25,-109.54,2.8028,-4.8837e-13,5.1958e-17,243.45,-316.3,-109.54,-47.989,0,0.014941,0,1,1.555,0,-1.555,0
0,0,0,0,0,0,0.00039866,-0.0013426,1.6199e-35,1.8886e-05,-3.077e-18,7.0887e-22,3.4908,0.0015807,-0.001343,8.732e-33,0.000399,-47.669,-314.92,-109.02,2.9043,-4.7238e-13,1.0501e-16,242.56,-314.98,-109.02,-47.617,0,0.014948,0,1,1.56,0,-1.56,0
0,0,0,0,0,0,0.00039774,-0.0013373,1.4144e-35,1.9564e-05,-2.9702e-18,1.0644e-21,3.4555,0.0015749,-0.0013376,8.3328e-33,0.00039809,-47.297,-313.59,-108.51,3.0086,-4.5599e-13,1.5931e-16,241.67,-313.65,-108.51,-47.243,0,0.014954,0,1,1.565,0,-1.565,0
0,0,0,0,0,0,0.00039682,-0.0013319,1.2042e-35,2.0259e-05,-2.8608e-18,1.4281e-21,3.4202,0.0015691,-0.0013323,7.9242e-33,0.00039719,-46.924,-312.26,-108,3.1155,-4.3919e-13,2.1486e-16,240.78,-312.31,-108,-46.867,0,0.014961,0,1,1.57,0,-1.57,0
0,0,0,0,0,0,0.0003959,-0.0013265,9.8938e-36,2.0972e-05,-2.7487e-18,1.7999e-21,3.3848,0.0015632,-0.0013269,7.5063e-33,0.00039628,-46.549,-310.91,-107.48,3.2252,-4.2198e-13,2.7164e-16,239.88,-310.97,-107.48,-46.489,0,0.014967,0,1,1.575,0,-1.575,0
0,0,0,0,0,0,0.00039498,-0.0013211,7.6985e-36,2.1703e-05,-2.6339e-18,2.1798e-21,3.3495,0.0015573,-0.0013215,7.0792e-33,0.00039538,-46.171,-309.57,-106.96,3.3375,-4.0437e-13,3.2967e-16,238.99,-309.63,-106.96,-46.109,0,0.014973,0,1,1.58,0,-1.58,0
0,0,0,0,0,0,0.00039406,-0.0013157,5.4563e-36,2.2451e-05,-2.5165e-18,2.568e-21,3.3142,0.0015515,-0.0013161,6.6428e-33,0.00039448,-45.792,-308.22,-106.44,3.4525,-3.8635e-13,3.8894e-16,238.09,-308.29,-106.44,-45.727,0,0.01498,0,1,1.585,0,-1.585,0
0,0,0,0,0,0,0.00039315,-0.0013102,3.1673e-36,2.3216e-05,-2.3965e-18,2.9643e-21,3.2788,0.0015456,-0.0013107,6.197e-33,0.00039359,-45.41,-306.87,-105.92,3.5702,-3.6792e-13,4.4945e-16,237.18,-306.93,-105.92,-45.343,0,0.014986,0,1,1.59,0,-1.59,0
0,0,0,0,0,0,0.00039223,-0.0013048,8.3148e-37,2.3999e-05,-2.2737e-18,3.3687e-21,3.2435,0.0015397,-0.0013053,5.742e-33,0.00039269,-45.026,-305.51,-105.39,3.6906,-3.4908e-13,5.1121e-16,236.28,-305.58,-105.39,-44.956,0,0.014993,0,1,1.595,0,-1.595,0
0,0,0,0,0,0,0.00039132,-0.0012993,-1.5512e-36,2.4799e-05,-2.1484e-18,3.7813e-21,3.2082,0.0015337,-0.0012998,5.2777e-33,0.0003918,-44.641,-304.15,-104.87,3.8136,-3.2983e-13,5.7421e-16,235.37,-304.22,-104.87,-44.568,0,0.014999,0,1,1.6,0,-1.6,0
0,0,0,0,0,0,0.00039041,-0.0012939,-3.9808e-36,2.5617e-05,-2.0203e-18,4.2021e-21,3.1729,0.0015278,-0.0012943,4.8041e-33,0.0003909,-44.253,-302.78,-104.34,3.9394,-3.1018e-13,6.3845e-16,234.47,-302.86,-104.34,-44.177,0,0.015005,0,1,1.605,0,-1.605,0
0,0,0,0,0,0,0.0003895,-0.0012884,-6.4571e-36,2.6452e-05,-1.8897e-18,4.631e-21,3.1375,0.0015219,-0.0012889,4.3212e-33,0.00039001,-43.863,-301.41,-103.81,4.0678,-2.9012e-13,7.0394e-16,233.56,-301.49,-103.81,-43.784,0,0.015012,0,1,1.61,0,-1.61,0
0,0,0,0,0,0,0.00038859,-0.0012828,-8.9804e-36,2.7305e-05,-1.7563e-18,5.0681e-21,3.1022,0.0015159,-0.0012834,3.8291e-33,0.00038912,-43.472,-300.04,-103.28,4.1989,-2.6965e-13,7.7066e-16,232.65,-300.12,-103.28,-43.389,0,0.015018,0,1,1.615,0,-1.615,0
0,0,0,0,0,0,0.00038768,-0.0012773,-1.155e-35,2.8175e-05,-1.6203e-18,5.5133e-21,3.0669,0.0015099,-0.0012779,3.3276e-33,0.00038823,-43.078,-298.66,-102.74,4.3327,-2.4877e-13,8.3864e-16,231.73,-298.75,-102.74,-42.993,0,0.015024,0,1,1.62,0,-1.62,0
0,0,0,0,0,0,0.00038677,-0.0012718,-1.4167e-35,2.9062e-05,-1.4817e-18,5.9667e-21,3.0315,0.0015039,-0.0012724,2.8168e-33,0.00038735,-42.682,-297.28,-102.21,4.4692,-2.2749e-13,9.0785e-16,230.82,-297.37,-102.21,-42.594,0,0.01503,0,1,1.625,0,-1.625,0
0,0,0,0,0,0,0.00038587,-0.0012662,-1.6831e-35,2.9967e-05,-1.3404e-18,6.4282e-21,2.9962,0.0014979,-0.0012668,2.2968e-33,0.00038646,-42.284,-295.89,-101.67,4.6084,-2.0579e-13,9.7831e-16,229.9,-295.98,-101.67,-42.192,0,0.015036,0,1,1.63,0,-1.63,0
0,0,0,0,0,0,0.00038496,-0.0012607,-1.9542e-35,3.089e-05,-1.1964e-18,6.898e-21,2.9609,0.0014919,-0.0012613,1.7675e-33,0.00038558,-41.884,-294.5,-101.13,4.7502,-1.837e-13,1.05e-15,228.98,-294.6,-101.13,-41.789,0,0.015042,0,1,1.635,0,-1.635,0
0,0,0,0,0,0,0.00038406,-0.0012551,-2.2299e-35,3.1829e-05,-1.0498e-18,7.3758e-21,2.9256,0.0014859,-0.0012557,1.2288e-33,0.0003847,-41.482,-293.11,-100.59,4.8948,-1.6119e-13,1.1229e-15,228.06,-293.2,-100.59,-41.384,0,0.015049,0,1,1.64,0,-1.64,0
0,0,0,0,0,0,0.00038316,-0.0012495,-2.5104e-35,3.2787e-05,-9.005e-19,7.8618e-21,2.8902,0.0014798,-0.0012501,6.8092e-34,0.00038382,-41.078,-291.71,-100.04,5.042,-1.3827e-13,1.1971e-15,227.13,-291.81,-100.04,-40.976,0,0.015055,0,1,1.645,0,-1.645,0
0,0,0,0,0,0,0.00038176,-0.0012465,-2.4059e-35,3.2366e-05,-8.6109e-19,8.0188e-21,2.881,0.001476,-0.0012472,5.6527e-34,0.00038241,-41.115,-291.08,-99.866,4.9774,-1.3222e-13,1.2212e-15,226.55,-291.18,-99.866,-41.014,0,0.015061,0,1,1.65,0,-1.65,0
0,0,0,0,0,0,0.00038027,-0.0012441,-2.2244e-35,3.1669e-05,-8.4479e-19,8.1056e-21,2.8771,0.0014726,-0.0012448,5.3985e-34,0.0003809,-41.24,-290.61,-99.761,4.8701,-1.2972e-13,1.2347e-15,226.03,-290.7,-99.761,-41.142,0,0.015067,0,1,1.655,0,-1.655,0
0,0,0,0,0,0,0.00037877,-0.0012417,-2.0455e-35,3.0979e-05,-8.2883e-19,8.1903e-21,2.8731,0.0014693,-0.0012423,5.1508e-34,0.0003794,-41.364,-290.13,-99.655,4.764,-1.2727e-13,1.2478e-15,225.51,-290.23,-99.655,-41.268,0,0.015074,0,1,1.66,0,-1.66,0
0,0,0,0,0,0,0.00037728,-0.0012393,-1.8691e-35,3.0296e-05,-8.132e-19,8.273e-21,2.8692,0.0014659,-0.0012399,4.9096e-34,0.00037789,-41.487,-289.66,-99.549,4.6591,-1.2486e-13,1.2605e-15,224.99,-289.75,-99.549,-41.393,0,0.01508,0,1,1.665,0,-1.665,0
0,0,0,0,0,0,0.0003758,-0.0012369,-1.6953e-35,2.9621e-05,-7.979e-19,8.3536e-21,2.8653,0.0014625,-0.0012375,4.6748e-34,0.00037639,-41.608,-289.18,-99.441,4.5553,-1.2251e-13,1.273e-15,224.47,-289.27,-99.441,-41.516,0,0.015087,0,1,1.67,0,-1.67,0
0,0,0,0,0,0,0.00037431,-0.0012345,-1.5241e-35,2.8954e-05,-7.8294e-19,8.4322e-21,2.8614,0.0014591,-0.001235,4.4466e-34,0.00037489,-41.727,-288.7,-99.332,4.4527,-1.2022e-13,1.2852e-15,223.95,-288.79,-99.332,-41.638,0,0.015093,0,1,1.675,0,-1.675,0
0,0,0,0,0,0,0.00037283,-0.001232,-1.3554e-35,2.8295e-05,-7.683e-19,8.5088e-21,2.8575,0.0014557,-0.0012326,4.2249e-34,0.0003734,-41.845,-288.22,-99.222,4.3513,-1.1797e-13,1.297e-15,223.43,-288.3,-99.222,-41.758,0,0.015099,0,1,1.68,0,-1.68,0
0,0,0,0,0,0,0.00037136,-0.0012296,-1.1893e-35,2.7643e-05,-7.54e-19,8.5834e-21,2.8536,0.0014523,-0.0012301,4.0096e-34,0.00037191,-41.962,-287.73,-99.111,4.2511,-1.1577e-13,1.3086e-15,222.91,-287.82,-99.111,-41.877,0,0.015106,0,1,1.685,0,-1.685,0
0,0,0,0,0,0,0.00036988,-0.0012271,-1.0257e-35,2.6999e-05,-7.4003e-19,8.6559e-21,2.8496,0.0014489,-0.0012277,3.8008e-34,0.00037042,-42.077,-287.25,-98.999,4.1521,-1.1363e-13,1.3198e-15,222.38,-287.33,-98.999,-41.995,0,0.015112,0,1,1.69,0,-1.69,0
0,0,0,0,0,0,0.00036841,-0.0012247,-8.6475e-36,2.6362e-05,-7.264e-19,8.7264e-21,2.8457,0.0014455,-0.0012252,3.5985e-34,0.00036893,-42.191,-286.76,-98.886,4.0542,-1.1153e-13,1.3307e-15,221.86,-286.84,-98.886,-42.11,0,0.015118,0,1,1.695,0,-1.695,0
0,0,0,0,0,0,0.00036694,-0.0012222,-7.0632e-36,2.5733e-05,-7.1309e-19,8.7949e-21,2.8418,0.0014421,-0.0012227,3.4027e-34,0.00036745,-42.303,-286.27,-98.772,3.9575,-1.0949e-13,1.3414e-15,221.34,-286.35,-98.772,-42.225,0,0.015125,0,1,1.7,0,-1.7,0
0,0,0,0,0,0,0.00036547,-0.0012198,-5.5046e-36,2.5112e-05,-7.0012e-19,8.8613e-21,2.8379,0.0014386,-0.0012203,3.2134e-34,0.00036597,-42.414,-285.78,-98.658,3.862,-1.0749e-13,1.3517e-15,220.82,-285.85,-98.658,-42.338,0,0.015131,0,1,1.705,0,-1.705,0
0,0,0,0,0,0,0.00036401,-0.0012173,-3.9715e-36,2.4499e-05,-6.8748e-19,8.9257e-21,2.834,0.0014352,-0.0012178,3.0305e-34,0.00036449,-42.524,-285.28,-98.542,3.7676,-1.0555e-13,1.3616e-15,220.29,-285.36,-98.542,-42.449,0,0.015137,0,1,1.71,0,-1.71,0
0,0,0,0,0,0,0.00036255,-0.0012148,-2.4642e-36,2.3893e-05,-6.7517e-19,8.9881e-21,2.8301,0.0014318,-0.0012153,2.8542e-34,0.00036302,-42.632,-284.79,-98.425,3.6744,-1.0366e-13,1.3713e-15,219.77,-284.86,-98.425,-42.559,0,0.015143,0,1,1.715,0,-1.715,0
0,0,0,0,0,0,0.00036109,-0.0012124,-9.824e-37,2.3294e-05,-6.6319e-19,9.0484e-21,2.8261,0.0014284,-0.0012128,2.6843e-34,0.00036155,-42.738,-284.29,-98.307,3.5824,-1.0182e-13,1.3807e-15,219.24,-284.36,-98.307,-42.668,0,0.015149,0,1,1.72,0,-1.72,0
0,0,0,0,0,0,0.00035964,-0.0012099,4.7374e-37,2.2703e-05,-6.5155e-19,9.1067e-21,2.8222,0.0014249,-0.0012103,2.521e-34,0.00036008,-42.843,-283.79,-98.188,3.4916,-1.0003e-13,1.3897e-15,218.72,-283.86,-98.188,-42.775,0,0.015156,0,1,1.725,0,-1.725,0
0,0,0,0,0,0,0.00035818,-0.0012074,1.9042e-36,2.212e-05,-6.4024e-19,9.163e-21,2.8183,0.0014215,-0.0012078,2.3641e-34,0.00035861,-42.947,-283.29,-98.068,3.4019,-9.8298e-14,1.3985e-15,218.19,-283.36,-98.068,-42.88,0,0.015162,0,1,1.73,0,-1.73,0
0,0,0,0,0,0,0.00035673,-0.0012049,3.3091e-36,2.1545e-05,-6.2926e-19,9.2172e-21,2.8144,0.0014181,-0.0012053,2.2137e-34,0.00035715,-43.049,-282.79,-97.947,3.3134,-9.6611e-14,1.4069e-15,217.66,-282.85,-97.947,-42.984,0,0.015168,0,1,1.735,0,-1.735,0
0,0,0,0,0,0,0.00035529,-0.0012024,4.6884e-36,2.0977e-05,-6.1861e-19,9.2694e-21,2.8105,0.0014146,-0.0012028,2.0698e-34,0.00035569,-43.15,-282.28,-97.825,3.2261,-9.4976e-14,1.415e-15,217.13,-282.35,-97.825,-43.087,0,0.015174,0,1,1.74,0,-1.74,0
0,0,0,0,0,0,0.00035384,-0.0011999,6.042e-36,2.0417e-05,-6.083e-19,9.3196e-21,2.8066,0.0014112,-0.0012003,1.9323e-34,0.00035424,-43.249,-281.78,-97.701,3.14,-9.3392e-14,1.4228e-15,216.61,-281.84,-97.701,-43.188,0,0.01518,0,1,1.745,0,-1.745,0
0,0,0,0,0,0,0.0003524,-0.0011974,7.37e-36,1.9864e-05,-5.9831e-19,9.3677e-21,2.8026,0.0014077,-0.0011977,1.8014e-34,0.00035279,-43.347,-281.27,-97.577,3.055,-9.1859e-14,1.4303e-15,216.08,-281.33,-97.577,-43.288,0,0.015186,0,1,1.75,0,-1.75,0
0,0,0,0,0,0,0.00035096,-0.0011948,8.6724e-36,1.932e-05,-5.8866e-19,9.4139e-21,2.7987,0.0014043,-0.0011952,1.6769e-34,0.00035134,-43.443,-280.76,-97.452,2.9712,-9.0376e-14,1.4375e-15,215.55,-280.81,-97.452,-43.386,0,0.015193,0,1,1.755,0,-1.755,0
0,0,0,0,0,0,0.00034953,-0.0011923,9.9492e-36,1.8782e-05,-5.7934e-19,9.4579e-21,2.7948,0.0014008,-0.0011927,1.559e-34,0.00034989,-43.538,-280.24,-97.326,2.8886,-8.8945e-14,1.4444e-15,215.02,-280.3,-97.326,-43.482,0,0.015199,0,1,1.76,0,-1.76,0
0,0,0,0,0,0,0.0003481,-0.0011898,1.12e-35,1.8253e-05,-5.7035e-19,9.5e-21,2.7909,0.0013974,-0.0011901,1.4475e-34,0.00034845,-43.631,-279.73,-97.199,2.8072,-8.7565e-14,1.4509e-15,214.49,-279.78,-97.199,-43.578,0,0.015205,0,1,1.765,0,-1.765,0
0,0,0,0,0,0,0.00034667,-0.0011872,1.2426e-35,1.7731e-05,-5.617e-19,9.54e-21,2.787,0.0013939,-0.0011876,1.3425e-34,0.000347,-43.723,-279.21,-97.071,2.7269,-8.6236e-14,1.4572e-15,213.96,-279.27,-97.071,-43.671,0,0.015211,0,1,1.77,0,-1.77,0
0,0,0,0,0,0,0.00034524,-0.0011847,1.3626e-35,1.7216e-05,-5.5338e-19,9.578e-21,2.783,0.0013904,-0.001185,1.244e-34,0.00034557,-43.814,-278.69,-96.942,2.6478,-8.4958e-14,1.4631e-15,213.43,-278.75,-96.942,-43.763,0,0.015217,0,1,1.775,0,-1.775,0
0,0,0,0,0,0,0.00034382,-0.0011821,1.48e-35,1.671e-05,-5.4539e-19,9.614e-21,2.7791,0.001387,-0.0011825,1.152e-34,0.00034413,-43.903,-278.17,-96.812,2.5699,-8.3731e-14,1.4687e-15,212.9,-278.22,-96.812,-43.854,0,0.015223,0,1,1.78,0,-1.78,0
0,0,0,0,0,0,0.0003424,-0.0011796,1.5949e-35,1.6211e-05,-5.3773e-19,9.6479e-21,2.7752,0.0013835,-0.0011799,1.0664e-34,0.0003427,-43.99,-277.65,-96.68,2.4932,-8.2556e-14,1.474e-15,212.36,-277.7,-96.68,-43.943,0,0.015229,0,1,1.785,0,-1.785,0
0,0,0,0,0,0,0.00034098,-0.001177,1.7072e-35,1.5719e-05,-5.304e-19,9.6798e-21,2.7713,0.00138,-0.0011773,9.8737e-35,0.00034127,-44.076,-277.13,-96.548,2.4176,-8.1431e-14,1.479e-15,211.83,-277.17,-96.548,-44.031,0,0.015235,0,1,1.79,0,-1.79,0
0,0,0,0,0,0,0.00033956,-0.0011745,1.8169e-35,1.5235e-05,-5.2341e-19,9.7096e-21,2.7674,0.0013765,-0.0011747,9.1481e-35,0.00033984,-44.161,-276.6,-96.415,2.3432,-8.0357e-14,1.4837e-15,211.3,-276.65,-96.415,-44.118,0,0.015241,0,1,1.795,0,-1.795,0
0,0,0,0,0,0,0.00033815,-0.0011719,1.9241e-35,1.4759e-05,-5.1675e-19,9.7375e-21,2.7635,0.0013731,-0.0011722,8.4874e-35,0.00033842,-44.244,-276.07,-96.281,2.27,-7.9334e-14,1.4881e-15,210.76,-276.12,-96.281,-44.202,0,0.015247,0,1,1.8,0,-1.8,0
0,0,0,0,0,0,0.00033674,-0.0011693,2.0287e-35,1.4291e-05,-5.1042e-19,9.7633e-21,2.7595,0.0013696,-0.0011696,7.8915e-35,0.000337,-44.326,-275.54,-96.145,2.198,-7.8363e-14,1.4922e-15,210.23,-275.58,-96.145,-44.286,0,0.015253,0,1,1.805,0,-1.805,0
0,0,0,0,0,0,0.00033533,-0.0011667,2.1307e-35,1.383e-05,-5.0442e-19,9.787e-21,2.7556,0.0013661,-0.001167,7.3605e-35,0.00033559,-44.406,-275.01,-96.009,2.1271,-7.7442e-14,1.4959e-15,209.69,-275.05,-96.009,-44.368,0,0.015259,0,1,1.81,0,-1.81,0
0,0,0,0,0,0,0.00033393,-0.0011641,2.2302e-35,1.3376e-05,-4.9875e-19,9.8088e-21,2.7517,0.0013626,-0.0011644,6.8943e-35,0.00033417,-44.485,-274.48,-95.872,2.0574,-7.6572e-14,1.4994e-15,209.16,-274.51,-95.872,-44.448,0,0.015264,0,1,1.815,0,-1.815,0
0,0,0,0,0,0,0.00033253,-0.0011615,2.3271e-35,1.2931e-05,-4.9342e-19,9.8285e-21,2.7478,0.0013591,-0.0011618,6.493e-35,0.00033276,-44.563,-273.94,-95.734,1.9889,-7.5754e-14,1.5025e-15,208.62,-273.98,-95.734,-44.527,0,0.01527,0,1,1.82,0,-1.82,0
0,0,0,0,0,0,0.00033113,-0.0011589,2.4215e-35,1.2493e-05,-4.8842e-19,9.8461e-21,2.7439,0.0013556,-0.0011592,6.1566e-35,0.00033135,-44.639,-273.4,-95.594,1.9215,-7.4986e-14,1.5053e-15,208.08,-273.44,-95.594,-44.604,0,0.015276,0,1,1.825,0,-1.825,0
0,0,0,0,0,0,0.00032973,-0.0011563,2.5133e-35,1.2063e-05,-4.8375e-19,9.8618e-21,2.74,0.0013521,-0.0011565,5.885e-35,0.00032995,-44.713,-272.86,-95.454,1.8554,-7.427e-14,1.5078e-15,207.55,-272.9,-95.454,-44.68,0,0.015282,0,1,1.83,0,-1.83,0
0,0,0,0,0,0,0.00032834,-0.0011537,2.6025e-35,1.164e-05,-4.7941e-19,9.8754e-21,2.736,0.0013486,-0.0011539,5.6784e-35,0.00032855,-44.786,-272.32,-95.312,1.7904,-7.3604e-14,1.51e-15,207.01,-272.35,-95.312,-44.755,0,0.015288,0,1,1.835,0,-1.835,0
0,0,0,0,0,0,0.00032695,-0.0011511,2.6892e-35,1.1225e-05,-4.7541e-19,9.8869e-21,2.7321,0.0013451,-0.0011513,5.5365e-35,0.00032715,-44.858,-271.78,-95.17,1.7266,-7.299e-14,1.5119e-15,206.47,-271.81,-95.17,-44.828,0,0.015294,0,1,1.84,0,-1.84,0
0,0,0,0,0,0,0.00032557,-0.0011485,2.7733e-35,1.0817e-05,-4.7174e-19,9.8965e-21,2.7282,0.0013416,-0.0011486,5.4596e-35,0.00032575,-44.928,-271.23,-95.027,1.6639,-7.2427e-14,1.5135e-15,205.93,-271.26,-95.027,-44.899,0,0.0153,0,1,1.845,0,-1.845,0
0,0,0,0,0,0,0.00032418,-0.0011458,2.8549e-35,1.0418e-05,-4.684e-19,9.904e-21,2.7243,0.001338,-0.001146,5.4475e-35,0.00032436,-44.997,-270.69,-94.882,1.6024,-7.1914e-14,1.5147e-15,205.39,-270.71,-94.882,-44.969,0,0.015305,0,1,1.85,0,-1.85,0
0,0,0,0,0,0,0.0003228,-0.0011432,2.9339e-35,1.0025e-05,-4.6539e-19,9.9095e-21,2.7204,0.0013345,-0.0011433,5.5003e-35,0.00032297,-45.064,-270.14,-94.737,1.5421,-7.1453e-14,1.5157e-15,204.85,-270.16,-94.737,-45.038,0,0.015311,0,1,1.855,0,-1.855,0
0,0,0,0,0,0,0.00032142,-0.0011405,3.0103e-35,9.6409e-06,-4.6271e-19,9.9129e-21,2.7165,0.001331,-0.0011407,5.6179e-35,0.00032158,-45.129,-269.58,-94.59,1.483,-7.1043e-14,1.5163e-15,204.31,-269.61,-94.59,-45.105,0,0.015317,0,1,1.86,0,-1.86,0
0,0,0,0,0,0,0.00032005,-0.0011379,3.0841e-35,9.264e-06,-4.6037e-19,9.9143e-21,2.7125,0.0013275,-0.001138,5.8004e-35,0.0003202,-45.194,-269.03,-94.443,1.4251,-7.0684e-14,1.5166e-15,203.77,-269.05,-94.443,-45.17,0,0.015323,0,1,1.865,0,-1.865,0
0,0,0,0,0,0,0.00031867,-0.0011352,3.1554e-35,8.8948e-06,-4.5836e-19,9.9137e-21,2.7086,0.0013239,-0.0011354,6.0478e-35,0.00031882,-45.257,-268.48,-94.294,1.3683,-7.0376e-14,1.5166e-15,203.23,-268.5,-94.294,-45.235,0,0.015328,0,1,1.87,0,-1.87,0
0,0,0,0,0,0,0.0003173,-0.0011326,3.2242e-35,8.5332e-06,-4.5668e-19,9.9111e-21,2.7047,0.0013204,-0.0011327,6.36e-35,0.00031744,-45.318,-267.92,-94.145,1.3127,-7.0119e-14,1.5163e-15,202.69,-267.94,-94.145,-45.297,0,0.015334,0,1,1.875,0,-1.875,0
0,0,0,0,0,0,0.00031594,-0.0011299,3.2903e-35,8.1792e-06,-4.5533e-19,9.9064e-21,2.7008,0.0013168,-0.00113,6.7371e-35,0.00031606,-45.378,-267.36,-93.994,1.2582,-6.9913e-14,1.5157e-15,202.14,-267.38,-93.994,-45.358,0,0.01534,0,1,1.88,0,-1.88,0
0,0,0,0,0,0,0.00031457,-0.0011272,3.354e-35,7.8329e-06,-4.5432e-19,9.8997e-21,2.6969,0.0013133,-0.0011273,7.1791e-35,0.00031469,-45.436,-266.8,-93.843,1.205,-6.9758e-14,1.5148e-15,201.6,-266.82,-93.843,-45.418,0,0.015346,0,1,1.885,0,-1.885,0
0,0,0,0,0,0,0.00031321,-0.0011245,3.415e-35,7.4942e-06,-4.5363e-19,9.8909e-21,2.6929,0.0013098,-0.0011246,7.686e-35,0.00031332,-45.493,-266.24,-93.69,1.1529,-6.9654e-14,1.5136e-15,201.06,-266.25,-93.69,-45.476,0,0.015351,0,1,1.89,0,-1.89,0
0,0,0,0,0,0,0.00031185,-0.0011218,3.4735e-35,7.1631e-06,-4.5328e-19,9.8802e-21,2.689,0.0013062,-0.001122,8.2577e-35,0.00031196,-45.549,-265.67,-93.537,1.102,-6.9601e-14,1.512e-15,200.51,-265.69,-93.537,-45.533,0,0.015357,0,1,1.895,0,-1.895,0
0,0,0,0,0,0,0.0003105,-0.0011192,3.5294e-35,6.8397e-06,-4.5326e-19,9.8674e-21,2.6851,0.0013026,-0.0011193,8.8942e-35,0.0003106,-45.603,-265.1,-93.382,1.0523,-6.9599e-14,1.5102e-15,199.97,-265.12,-93.382,-45.588,0,0.015363,0,1,1.9,0,-1.9,0
0,0,0,0,0,0,0.00030915,-0.0011165,3.5828e-35,6.524e-06,-4.5358e-19,9.8525e-21,2.6812,0.0012991,-0.0011165,9.5957e-35,0.00030924,-45.656,-264.54,-93.227,1.0037,-6.9648e-14,1.508e-15,199.42,-264.55,-93.227,-45.642,0,0.015368,0,1,1.905,0,-1.905,0
0,0,0,0,0,0,0.0003078,-0.0011138,3.6336e-35,6.2158e-06,-4.5422e-19,9.8357e-21,2.6773,0.0012955,-0.0011138,1.0362e-34,0.00030788,-45.707,-263.96,-93.07,0.95634,-6.9748e-14,1.5055e-15,198.88,-263.98,-93.07,-45.694,0,0.015374,0,1,1.91,0,-1.91,0
0,0,0,0,0,0,0.00030645,-0.001111,3.6818e-35,5.9153e-06,-4.552e-19,9.8168e-21,2.6734,0.001292,-0.0011111,1.1193e-34,0.00030652,-45.757,-263.39,-92.912,0.91013,-6.99e-14,1.5027e-15,198.33,-263.4,-92.912,-45.745,0,0.015379,0,1,1.915,0,-1.915,0
0,0,0,0,0,0,0.0003051,-0.0011083,3.7275e-35,5.6225e-06,-4.5651e-19,9.7958e-21,2.6694,0.0012884,-0.0011084,1.2089e-34,0.00030517,-45.805,-262.82,-92.754,0.8651,-7.0102e-14,1.4996e-15,197.78,-262.83,-92.754,-45.794,0,0.015385,0,1,1.92,0,-1.92,0
0,0,0,0,0,0,0.00030376,-0.0011056,3.7706e-35,5.3372e-06,-4.5815e-19,9.7729e-21,2.6655,0.0012848,-0.0011057,1.305e-34,0.00030383,-45.852,-262.24,-92.594,0.82124,-7.0355e-14,1.4962e-15,197.24,-262.25,-92.594,-45.842,0,0.01539,0,1,1.925,0,-1.925,0
0,0,0,0,0,0,0.00030242,-0.0011029,3.8111e-35,5.0596e-06,-4.6013e-19,9.7479e-21,2.6616,0.0012813,-0.0011029,1.4076e-34,0.00030248,-45.897,-261.66,-92.433,0.77856,-7.066e-14,1.4925e-15,196.69,-261.67,-92.433,-45.889,0,0.015396,0,1,1.93,0,-1.93,0
0,0,0,0,0,0,0.00030109,-0.0011001,3.8491e-35,4.7897e-06,-4.6243e-19,9.7208e-21,2.6577,0.0012777,-0.0011002,1.5167e-34,0.00030114,-45.941,-261.08,-92.272,0.73705,-7.1015e-14,1.4885e-15,196.14,-261.09,-92.272,-45.933,0,0.015402,0,1,1.935,0,-1.935,0
0,0,0,0,0,0,0.00029976,-0.0010974,3.8845e-35,4.5274e-06,-4.6507e-19,9.6918e-21,2.6538,0.0012741,-0.0010974,1.6322e-34,0.0002998,-45.984,-260.5,-92.109,0.69671,-7.1422e-14,1.4841e-15,195.59,-260.51,-92.109,-45.977,0,0.015407,0,1,1.94,0,-1.94,0
0,0,0,0,0,0,0.00029843,-0.0010946,3.9174e-35,4.2727e-06,-4.6804e-19,9.6607e-21,2.6499,0.0012705,-0.0010947,1.7542e-34,0.00029846,-46.025,-259.92,-91.945,0.65755,-7.1879e-14,1.4794e-15,195.04,-259.92,-91.945,-46.019,0,0.015413,0,1,1.945,0,-1.945,0
0,0,0,0,0,0,0.0002971,-0.0010919,3.9477e-35,4.0257e-06,-4.7134e-19,9.6276e-21,2.6459,0.0012669,-0.0010919,1.8828e-34,0.00029713,-46.064,-259.33,-91.781,0.61956,-7.2388e-14,1.4745e-15,194.49,-259.33,-91.781,-46.059,0,0.015418,0,1,1.95,0,-1.95,0
0,0,0,0,0,0,0.00029577,-0.0010891,3.9754e-35,3.7863e-06,-4.7498e-19,9.5924e-21,2.642,0.0012633,-0.0010892,2.0178e-34,0.0002958,-46.102,-258.74,-91.615,0.58275,-7.2948e-14,1.4692e-15,193.94,-258.75,-91.615,-46.098,0,0.015424,0,1,1.955,0,-1.955,0
0,0,0,0,0,0,0.00029445,-0.0010864,4.0006e-35,3.5545e-06,-4.7895e-19,9.5552e-21,2.6381,0.0012597,-0.0010864,2.1593e-34,0.00029448,-46.139,-258.15,-91.448,0.54711,-7.3558e-14,1.4636e-15,193.39,-258.16,-91.448,-46.136,0,0.015429,0,1,1.96,0,-1.96,0
0,0,0,0,0,0,0.00029313,-0.0010836,4.0232e-35,3.3304e-06,-4.8324e-19,9.516e-21,2.6342,0.0012561,-0.0010836,2.3073e-34,0.00029315,-46.174,-257.56,-91.28,0.51264,-7.422e-14,1.4577e-15,192.84,-257.56,-91.28,-46.172,0,0.015434,0,1,1.965,0,-1.965,0
0,0,0,0,0,0,0.00029182,-0.0010808,4.0432e-35,3.1139e-06,-4.8788e-19,9.4747e-21,2.6303,0.0012525,-0.0010808,2.4617e-34,0.00029183,-46.208,-256.97,-91.111,0.47935,-7.4933e-14,1.4515e-15,192.28,-256.97,-91.111,-46.206,0,0.01544,0,1,1.97,0,-1.97,0
0,0,0,0,0,0,0.00029051,-0.001078,4.0607e-35,2.905e-06,-4.9284e-19,9.4315e-21,2.6264,0.0012489,-0.0010781,2.6227e-34,0.00029051,-46.24,-256.37,-90.942,0.44724,-7.5697e-14,1.4449e-15,191.73,-256.37,-90.942,-46.239,0,0.015445,0,1,1.975,0,-1.975,0
0,0,0,0,0,0,0.0002892,-0.0010753,4.0757e-35,2.7038e-06,-4.9814e-19,9.3861e-21,2.6224,0.0012453,-0.0010753,2.7901e-34,0.0002892,-46.271,-255.77,-90.771,0.4163,-7.6511e-14,1.4381e-15,191.18,-255.77,-90.771,-46.271,0,0.015451,0,1,1.98,0,-1.98,0
0,0,0,0,0,0,0.00028789,-0.0010725,4.088e-35,2.5102e-06,-5.0376e-19,9.3388e-21,2.6185,0.0012417,-0.0010725,2.964e-34,0.00028789,-46.3,-255.17,-90.599,0.38653,-7.7377e-14,1.4309e-15,190.62,-255.17,-90.599,-46.301,0,0.015456,0,1,1.985,0,-1.985,0
0,0,0,0,0,0,0.00028658,-0.0010697,4.0978e-35,2.3243e-06,-5.0972e-19,9.2894e-21,2.6146,0.0012381,-0.0010697,3.1445e-34,0.00028658,-46.328,-254.57,-90.426,0.35794,-7.8294e-14,1.4235e-15,190.07,-254.57,-90.426,-46.329,0,0.015461,0,1,1.99,0,-1.99,0
0,0,0,0,0,0,0.00028528,-0.0010669,4.105e-35,2.146e-06,-5.1601e-19,9.238e-21,2.6107,0.0012344,-0.0010668,3.3314e-34,0.00028527,-46.355,-253.97,-90.252,0.33052,-7.9262e-14,1.4157e-15,189.51,-253.97,-90.252,-46.357,0,0.015467,0,1,1.995,0,-1.995,0
0,0,0,0,0,0,0.00028398,-0.001064,4.1097e-35,1.9753e-06,-5.2264e-19,9.1846e-21,2.6068,0.0012308,-0.001064,3.5247e-34,0.00028397,-46.38,-253.36,-90.077,0.30428,-8.0281e-14,1.4076e-15,188.96,-253.36,-90.077,-46.382,0,0.015472,0,1,2,0,-2,0
0,0,0,0,0,0,0.00028269,-0.0010612,4.1118e-35,1.8123e-06,-5.296e-19,9.1291e-21,2.6029,0.0012272,-0.0010612,3.7246e-34,0.00028267,-46.403,-252.75,-89.901,0.27921,-8.1351e-14,1.3992e-15,188.4,-252.75,-89.901,-46.406,0,0.015477,0,1,2.005,0,-2.005,0
0,0,0,0,0,0,0.00028139,-0.0010584,4.1114e-35,1.6569e-06,-5.3688e-19,9.0716e-21,2.5989,0.0012236,-0.0010584,3.931e-34,0.00028137,-46.426,-252.15,-89.724,0.25531,-8.2472e-14,1.3905e-15,187.84,-252.14,-89.724,-46.429,0,0.015483,0,1,2.01,0,-2.01,0
0,0,0,0,0,0,0.0002801,-0.0010556,4.1083e-35,1.5092e-06,-5.445e-19,9.0121e-21,2.595,0.0012199,-0.0010555,4.1438e-34,0.00028008,-46.446,-251.53,-89.546,0.23259,-8.3645e-14,1.3815e-15,187.29,-251.53,-89.546,-46.45,0,0.015488,0,1,2.015,0,-2.015,0
0,0,0,0,0,0,0.00027882,-0.0010527,4.1028e-35,1.3691e-06,-5.5246e-19,8.9505e-21,2.5911,0.0012163,-0.0010527,4.3631e-34,0.00027879,-46.465,-250.92,-89.367,0.21105,-8.4868e-14,1.3721e-15,186.73,-250.92,-89.367,-46.47,0,0.015493,0,1,2.02,0,-2.02,0
0,0,0,0,0,0,0.00027753,-0.0010499,4.0946e-35,1.2366e-06,-5.6074e-19,8.8869e-21,2.5872,0.0012126,-0.0010499,4.589e-34,0.0002775,-46.483,-250.31,-89.187,0.19067,-8.6142e-14,1.3625e-15,186.17,-250.3,-89.187,-46.488,0,0.015498,0,1,2.025,0,-2.025,0
0,0,0,0,0,0,0.00027625,-0.001047,4.0839e-35,1.1118e-06,-5.6936e-19,8.8213e-21,2.5833,0.001209,-0.001047,4.8212e-34,0.00027622,-46.499,-249.69,-89.006,0.17148,-8.7467e-14,1.3525e-15,185.61,-249.68,-89.006,-46.505,0,0.015504,0,1,2.03,0,-2.03,0
0,0,0,0,0,0,0.00027497,-0.0010442,4.0707e-35,9.9456e-07,-5.7831e-19,8.7536e-21,2.5793,0.0012053,-0.0010442,5.06e-34,0.00027493,-46.514,-249.07,-88.824,0.15345,-8.8843e-14,1.3422e-15,185.05,-249.06,-88.824,-46.52,0,0.015509,0,1,2.035,0,-2.035,0
0,0,0,0,0,0,0.0002737,-0.0010413,4.0548e-35,8.85e-07,-5.8759e-19,8.6839e-21,2.5754,0.0012017,-0.0010413,5.3053e-34,0.00027365,-46.528,-248.45,-88.641,0.1366,-9.0271e-14,1.3317e-15,184.49,-248.44,-88.641,-46.534,0,0.015514,0,1,2.04,0,-2.04,0
0,0,0,0,0,0,0.00027242,-0.0010385,4.0364e-35,7.8307e-07,-5.972e-19,8.6122e-21,2.5715,0.001198,-0.0010384,5.5571e-34,0.00027238,-46.54,-247.83,-88.457,0.12093,-9.1749e-14,1.3208e-15,183.93,-247.82,-88.457,-46.546,0,0.015519,0,1,2.045,0,-2.045,0
0,0,0,0,0,0,0.00027115,-0.0010356,4.0155e-35,6.8878e-07,-6.0715e-19,8.5385e-21,2.5676,0.0011944,-0.0010355,5.8153e-34,0.00027111,-46.55,-247.2,-88.272,0.10643,-9.3279e-14,1.3096e-15,183.37,-247.19,-88.272,-46.557,0,0.015524,0,1,2.05,0,-2.05,0
0,0,0,0,0,0,0.00026989,-0.0010327,3.992e-35,6.0213e-07,-6.1742e-19,8.4627e-21,2.5637,0.0011907,-0.0010327,6.08e-34,0.00026984,-46.559,-246.57,-88.086,0.0931,-9.4859e-14,1.2981e-15,182.81,-246.57,-88.086,-46.567,0,0.015529,0,1,2.055,0,-2.055,0
0,0,0,0,0,0,0.00026862,-0.0010298,3.9659e-35,5.2311e-07,-6.2803e-19,8.3848e-21,2.5598,0.001187,-0.0010298,6.3513e-34,0.00026857,-46.567,-245.95,-87.899,0.080948,-9.6491e-14,1.2862e-15,182.25,-245.94,-87.899,-46.575,0,0.015535,0,1,2.06,0,-2.06,0
0,0,0,0,0,0,0.00026736,-0.0010269,3.9372e-35,4.5173e-07,-6.3898e-19,8.305e-21,2.5558,0.0011834,-0.0010269,6.629e-34,0.00026731,-46.573,-245.32,-87.711,0.06997,-9.8173e-14,1.2741e-15,181.68,-245.31,-87.711,-46.581,0,0.01554,0,1,2.065,0,-2.065,0
0,0,0,0,0,0,0.0002661,-0.001024,3.906e-35,3.8799e-07,-6.5025e-19,8.2231e-21,2.5519,0.0011797,-0.001024,6.9132e-34,0.00026604,-46.577,-244.68,-87.522,0.060166,-9.9907e-14,1.2616e-15,181.12,-244.67,-87.522,-46.586,0,0.015545,0,1,2.07,0,-2.07,0
0,0,0,0,0,0,0.00026484,-0.0010211,3.8723e-35,3.3188e-07,-6.6186e-19,8.1392e-21,2.548,0.001176,-0.0010211,7.2038e-34,0.00026479,-46.58,-244.05,-87.332,0.051536,-1.0169e-13,1.2489e-15,180.56,-244.04,-87.332,-46.589,0,0.01555,0,1,2.075,0,-2.075,0
0,0,0,0,0,0,0.00026359,-0.0010182,3.8359e-35,2.8342e-07,-6.7379e-19,8.0533e-21,2.5441,0.0011723,-0.0010182,7.501e-34,0.00026353,-46.582,-243.41,-87.14,0.044081,-1.0353e-13,1.2358e-15,179.99,-243.4,-87.14,-46.591,0,0.015555,0,1,2.08,0,-2.08,0
0,0,0,0,0,0,0.00026234,-0.0010153,3.797e-35,2.4258e-07,-6.8606e-19,7.9653e-21,2.5402,0.0011687,-0.0010153,7.8047e-34,0.00026228,-46.582,-242.77,-86.948,0.0378,-1.0541e-13,1.2224e-15,179.43,-242.76,-86.948,-46.592,0,0.01556,0,1,2.085,0,-2.085,0
0,0,0,0,0,0,0.00026109,-0.0010124,3.7556e-35,2.0939e-07,-6.9867e-19,7.8753e-21,2.5363,0.001165,-0.0010123,8.1148e-34,0.00026103,-46.581,-242.13,-86.755,0.032693,-1.0735e-13,1.2087e-15,178.86,-242.12,-86.755,-46.591,0,0.015565,0,1,2.09,0,-2.09,0
0,0,0,0,0,0,0.00025985,-0.0010095,3.7116e-35,1.8383e-07,-7.116e-19,7.7832e-21,2.5323,0.0011613,-0.0010094,8.4314e-34,0.00025979,-46.579,-241.49,-86.561,0.028761,-1.0934e-13,1.1947e-15,178.29,-241.48,-86.561,-46.588,0,0.01557,0,1,2.095,0,-2.095,0
0,0,0,0,0,0,0.00025861,-0.0010065,3.665e-35,1.6591e-07,-7.2487e-19,7.6892e-21,2.5284,0.0011576,-0.0010065,8.7545e-34,0.00025854,-46.575,-240.85,-86.366,0.026002,-1.1138e-13,1.1804e-15,177.73,-240.84,-86.366,-46.584,0,0.015575,0,1,2.1,0,-2.1,0
0,0,0,0,0,0,0.00025737,-0.0010036,3.6159e-35,1.5563e-07,-7.3847e-19,7.5931e-21,2.5245,0.0011539,-0.0010035,9.0841e-34,0.0002573,-46.569,-240.2,-86.169,0.024418,-1.1347e-13,1.1657e-15,177.16,-240.19,-86.169,-46.579,0,0.01558,0,1,2.105,0,-2.105,0
0,0,0,0,0,0,0.00025613,-0.0010007,3.5642e-35,1.5298e-07,-7.524e-19,7.4949e-21,2.5206,0.0011502,-0.0010006,9.4202e-34,0.00025607,-46.562,-239.55,-85.972,0.024009,-1.1561e-13,1.1508e-15,176.59,-239.54,-85.972,-46.572,0,0.015585,0,1,2.11,0,-2.11,0
0,0,0,0,0,0,0.0002549,-0.00099772,3.5099e-35,1.5797e-07,-7.6666e-19,7.3948e-21,2.5167,0.0011465,-0.00099765,9.7628e-34,0.00025483,-46.554,-238.9,-85.774,0.024773,-1.1781e-13,1.1355e-15,176.03,-238.89,-85.774,-46.564,0,0.01559,0,1,2.115,0,-2.115,0
0,0,0,0,0,0,0.00025367,-0.00099476,3.4531e-35,1.706e-07,-7.8126e-19,7.2926e-21,2.5128,0.0011428,-0.0009947,1.0112e-33,0.0002536,-46.544,-238.25,-85.575,0.026712,-1.2005e-13,1.12e-15,175.46,-238.24,-85.575,-46.554,0,0.015595,0,1,2.12,0,-2.12,0
0,0,0,0,0,0,0.00025244,-0.0009918,3.3937e-35,1.9086e-07,-7.9618e-19,7.1883e-21,2.5088,0.001139,-0.00099173,1.0467e-33,0.00025237,-46.532,-237.6,-85.374,0.029825,-1.2234e-13,1.1041e-15,174.89,-237.59,-85.374,-46.542,0,0.0156,0,1,2.125,0,-2.125,0
0,0,0,0,0,0,0.00025122,-0.00098883,3.3317e-35,2.1876e-07,-8.1144e-19,7.0821e-21,2.5049,0.0011353,-0.00098877,1.0829e-33,0.00025115,-46.519,-236.94,-85.173,0.034112,-1.2469e-13,1.0879e-15,174.32,-236.93,-85.173,-46.53,0,0.015605,0,1,2.13,0,-2.13,0
0,0,0,0,0,0,0.00024999,-0.00098586,3.2672e-35,2.543e-07,-8.2703e-19,6.9738e-21,2.501,0.0011316,-0.00098579,1.1198e-33,0.00024993,-46.505,-236.28,-84.971,0.039574,-1.2709e-13,1.0714e-15,173.75,-236.27,-84.971,-46.515,0,0.01561,0,1,2.135,0,-2.135,0
0,0,0,0,0,0,0.00024877,-0.00098288,3.2001e-35,2.9748e-07,-8.4296e-19,6.8635e-21,2.4971,0.0011279,-0.00098282,1.1573e-33,0.00024871,-46.489,-235.63,-84.767,0.04621,-1.2954e-13,1.0546e-15,173.18,-235.61,-84.767,-46.5,0,0.015615,0,1,2.14,0,-2.14,0
0,0,0,0,0,0,0.00024756,-0.0009799,3.1305e-35,3.4829e-07,-8.5921e-19,6.7511e-21,2.4932,0.0011242,-0.00097983,1.1954e-33,0.00024749,-46.472,-234.96,-84.563,0.054019,-1.3204e-13,1.0375e-15,172.6,-234.95,-84.563,-46.482,0,0.015619,0,1,2.145,0,-2.145,0
0,0,0,0,0,0,0.00024635,-0.00097691,3.0583e-35,4.0674e-07,-8.758e-19,6.6367e-21,2.4892,0.0011204,-0.00097684,1.2342e-33,0.00024628,-46.454,-234.3,-84.357,0.063004,-1.3459e-13,1.02e-15,172.03,-234.29,-84.357,-46.464,0,0.015624,0,1,2.15,0,-2.15,0
0,0,0,0,0,0,0.00024513,-0.00097391,2.9835e-35,4.7282e-07,-8.9272e-19,6.5203e-21,2.4853,0.0011167,-0.00097384,1.2737e-33,0.00024507,-46.434,-233.63,-84.151,0.073162,-1.3719e-13,1.0023e-15,171.46,-233.62,-84.151,-46.443,0,0.015629,0,1,2.155,0,-2.155,0
0,0,0,0,0,0,0.00024393,-0.00097091,2.9062e-35,5.4655e-07,-9.0998e-19,6.4018e-21,2.4814,0.001113,-0.00097084,1.3138e-33,0.00024386,-46.412,-232.97,-83.944,0.084495,-1.3984e-13,9.8421e-16,170.89,-232.96,-83.944,-46.422,0,0.015634,0,1,2.16,0,-2.16,0
0,0,0,0,0,0,0.00024272,-0.0009679,2.8263e-35,6.279e-07,-9.2756e-19,6.2814e-21,2.4775,0.0011092,-0.00096783,1.3545e-33,0.00024266,-46.389,-232.3,-83.735,0.097002,-1.4254e-13,9.6584e-16,170.31,-232.29,-83.735,-46.399,0,0.015639,0,1,2.165,0,-2.165,0
0,0,0,0,0,0,0.00024152,-0.00096488,2.7438e-35,7.169e-07,-9.4548e-19,6.1588e-21,2.4736,0.0011055,-0.00096482,1.3959e-33,0.00024146,-46.365,-231.63,-83.526,0.11068,-1.453e-13,9.4715e-16,169.74,-231.62,-83.526,-46.374,0,0.015643,0,1,2.17,0,-2.17,0
0,0,0,0,0,0,0.00024032,-0.00096186,2.6588e-35,8.1353e-07,-9.6372e-19,6.0343e-21,2.4697,0.0011017,-0.0009618,1.4379e-33,0.00024026,-46.339,-230.95,-83.315,0.12554,-1.481e-13,9.2816e-16,169.16,-230.94,-83.315,-46.348,0,0.015648,0,1,2.175,0,-2.175,0
0,0,0,0,0,0,0.00023912,-0.00095883,2.5712e-35,9.1781e-07,-9.8231e-19,5.9077e-21,2.4657,0.001098,-0.00095878,1.4806e-33,0.00023907,-46.311,-230.28,-83.104,0.14157,-1.5096e-13,9.0885e-16,168.59,-230.27,-83.104,-46.32,0,0.015653,0,1,2.18,0,-2.18,0
0,0,0,0,0,0,0.00023793,-0.0009558,2.4811e-35,1.0297e-06,-1.0012e-18,5.7791e-21,2.4618,0.0010942,-0.00095575,1.524e-33,0.00023788,-46.282,-229.6,-82.891,0.15877,-1.5387e-13,8.8923e-16,168.01,-229.59,-82.891,-46.291,0,0.015658,0,1,2.185,0,-2.185,0
0,0,0,0,0,0,0.00023674,-0.00095276,2.3884e-35,1.1493e-06,-1.0205e-18,5.6485e-21,2.4579,0.0010905,-0.00095271,1.568e-33,0.00023669,-46.252,-228.92,-82.678,0.17715,-1.5683e-13,8.693e-16,167.44,-228.91,-82.678,-46.26,0,0.015662,0,1,2.19,0,-2.19,0
0,0,0,0,0,0,0.00023555,-0.00094972,2.2931e-35,1.2764e-06,-1.04e-18,5.5158e-21,2.454,0.0010867,-0.00094967,1.6126e-33,0.0002355,-46.22,-228.24,-82.463,0.1967,-1.5983e-13,8.4906e-16,166.86,-228.23,-82.463,-46.228,0,0.015667,0,1,2.195,0,-2.195,0
0,0,0,0,0,0,0.00023437,-0.00094667,2.1953e-35,1.4113e-06,-1.06e-18,5.3811e-21,2.4501,0.0010829,-0.00094662,1.6579e-33,0.00023432,-46.187,-227.56,-82.247,0.21743,-1.629e-13,8.285e-16,166.28,-227.55,-82.247,-46.195,0,0.015672,0,1,2.2,0,-2.2,0
0,0,0,0,0,0,0.00023319,-0.00094361,2.0949e-35,1.5537e-06,-1.0802e-18,5.2444e-21,2.4462,0.0010792,-0.00094356,1.7038e-33,0.00023314,-46.153,-226.87,-82.031,0.23933,-1.6601e-13,8.0764e-16,165.7,-226.87,-82.031,-46.16,0,0.015676,0,1,2.205,0,-2.205,0
0,0,0,0,0,0,0.00023201,-0.00094055,1.992e-35,1.7038e-06,-1.1008e-18,5.1056e-21,2.4422,0.0010754,-0.0009405,1.7504e-33,0.00023196,-46.116,-226.19,-81.813,0.26241,-1.6917e-13,7.8646e-16,165.13,-226.18,-81.813,-46.123,0,0.015681,0,1,2.21,0,-2.21,0
0,0,0,0,0,0,0.00023083,-0.00093748,1.8865e-35,1.8615e-06,-1.1217e-18,4.9648e-21,2.4383,0.0010716,-0.00093744,1.7976e-33,0.00023079,-46.079,-225.5,-81.595,0.28666,-1.7238e-13,7.6497e-16,164.55,-225.49,-81.595,-46.085,0,0.015686,0,1,2.215,0,-2.215,0
0,0,0,0,0,0,0.00022966,-0.00093441,1.7784e-35,2.0269e-06,-1.1429e-18,4.822e-21,2.4344,0.0010678,-0.00093437,1.8455e-33,0.00022962,-46.04,-224.81,-81.375,0.31208,-1.7565e-13,7.4317e-16,163.97,-224.8,-81.375,-46.046,0,0.01569,0,1,2.22,0,-2.22,0
0,0,0,0,0,0,0.00022849,-0.00093133,1.6677e-35,2.1999e-06,-1.1645e-18,4.6771e-21,2.4305,0.001064,-0.00093129,1.894e-33,0.00022845,-45.999,-224.12,-81.154,0.33868,-1.7896e-13,7.2106e-16,163.39,-224.11,-81.154,-46.005,0,0.015695,0,1,2.225,0,-2.225,0
0,0,0,0,0,0,0.00022732,-0.00092824,1.5545e-35,2.3805e-06,-1.1864e-18,4.5302e-21,2.4266,0.0010602,-0.00092821,1.9432e-33,0.00022728,-45.957,-223.42,-80.933,0.36645,-1.8233e-13,6.9863e-16,162.81,-223.42,-80.933,-45.963,0,0.0157,0,1,2.23,0,-2.23,0
0,0,0,0,0,0,0.00022615,-0.00092515,1.4388e-35,2.5688e-06,-1.2086e-18,4.3813e-21,2.4227,0.0010565,-0.00092512,1.993e-33,0.00022612,-45.914,-222.73,-80.71,0.3954,-1.8575e-13,6.759e-16,162.22,-222.72,-80.71,-45.919,0,0.015704,0,1,2.235,0,-2.235,0
0,0,0,0,0,0,0.00022499,-0.00092205,1.3204e-35,2.7647e-06,-1.2312e-18,4.2303e-21,2.4187,0.0010527,-0.00092202,2.0435e-33,0.00022496,-45.869,-222.03,-80.486,0.42552,-1.8922e-13,6.5285e-16,161.64,-222.02,-80.486,-45.873,0,0.015709,0,1,2.24,0,-2.24,0
0,0,0,0,0,0,0.00022383,-0.00091895,1.1996e-35,2.9683e-06,-1.2541e-18,4.0774e-21,2.4148,0.0010489,-0.00091892,2.0946e-33,0.00022381,-45.823,-221.33,-80.262,0.45681,-1.9274e-13,6.2949e-16,161.06,-221.32,-80.262,-45.827,0,0.015713,0,1,2.245,0,-2.245,0
0,0,0,0,0,0,0.00022267,-0.00091584,1.0761e-35,3.1795e-06,-1.2773e-18,3.9223e-21,2.4109,0.0010451,-0.00091582,2.1464e-33,0.00022266,-45.775,-220.63,-80.036,0.48928,-1.9631e-13,6.0582e-16,160.48,-220.62,-80.036,-45.778,0,0.015718,0,1,2.25,0,-2.25,0
0,0,0,0,0,0,0.00022152,-0.00091272,9.5009e-36,3.3983e-06,-1.3009e-18,3.7653e-21,2.407,0.0010413,-0.0009127,2.1988e-33,0.00022151,-45.726,-219.92,-79.809,0.52293,-1.9993e-13,5.8184e-16,159.89,-219.92,-79.809,-45.728,0,0.015722,0,1,2.255,0,-2.255,0
0,0,0,0,0,0,0.00022037,-0.0009096,8.2151e-36,3.6248e-06,-1.3248e-18,3.6062e-21,2.4031,0.0010374,-0.00090959,2.2519e-33,0.00022036,-45.675,-219.22,-79.581,0.55775,-2.036e-13,5.5755e-16,159.31,-219.21,-79.581,-45.677,0,0.015727,0,1,2.26,0,-2.26,0
0,0,0,0,0,0,0.00021922,-0.00090647,6.9037e-36,3.8589e-06,-1.349e-18,3.4451e-21,2.3991,0.0010336,-0.00090646,2.3056e-33,0.00021921,-45.623,-218.51,-79.353,0.59374,-2.0733e-13,5.3294e-16,158.73,-218.51,-79.353,-45.624,0,0.015731,0,1,2.265,0,-2.265,0
0,0,0,0,0,0,0.00021808,-0.00090334,5.5667e-36,4.1006e-06,-1.3736e-18,3.2819e-21,2.3952,0.0010298,-0.00090333,2.3599e-33,0.00021807,-45.57,-217.8,-79.123,0.63091,-2.111e-13,5.0803e-16,158.14,-217.8,-79.123,-45.57,0,0.015736,0,1,2.27,0,-2.27,0
0,0,0,0,0,0,0.00021693,-0.0009002,4.204e-36,4.35e-06,-1.3984e-18,3.1168e-21,2.3913,0.001026,-0.0009002,2.415e-33,0.00021694,-45.515,-217.09,-78.892,0.66925,-2.1493e-13,4.828e-16,157.56,-217.09,-78.892,-45.514,0,0.01574,0,1,2.275,0,-2.275,0
0,0,0,0,0,0,0.0002158,-0.00089705,2.8158e-36,4.607e-06,-1.4237e-18,2.9495e-21,2.3874,0.0010222,-0.00089706,2.4706e-33,0.0002158,-45.458,-216.37,-78.66,0.70876,-2.1881e-13,4.5726e-16,156.97,-216.37,-78.66,-45.457,0,0.015745,0,1,2.28,0,-2.28,0
0,0,0,0,0,0,0.00021466,-0.0008939,1.4019e-36,4.8716e-06,-1.4492e-18,2.7803e-21,2.3835,0.0010183,-0.00089391,2.5269e-33,0.00021467,-45.4,-215.66,-78.427,0.74945,-2.2274e-13,4.3141e-16,156.38,-215.66,-78.427,-45.399,0,0.015749,0,1,2.285,0,-2.285,0
0,0,0,0,0,0,0.00021352,-0.00089074,-3.7601e-38,5.1439e-06,-1.4751e-18,2.609e-21,2.3796,0.0010145,-0.00089076,2.5839e-33,0.00021354,-45.341,-214.94,-78.194,0.79131,-2.2672e-13,4.0524e-16,155.8,-214.94,-78.194,-45.338,0,0.015753,0,1,2.29,0,-2.29,0
0,0,0,0,0,0,0.00021239,-0.00088758,-1.5028e-36,5.4238e-06,-1.5013e-18,2.4357e-21,2.3756,0.0010107,-0.0008876,2.6415e-33,0.00021242,-45.28,-214.22,-77.959,0.83435,-2.3075e-13,3.7877e-16,155.21,-214.22,-77.959,-45.277,0,0.015758,0,1,2.295,0,-2.295,0
0,0,0,0,0,0,0.00021127,-0.00088441,-2.9935e-36,5.7114e-06,-1.5279e-18,2.2604e-21,2.3717,0.0010068,-0.00088444,2.6998e-33,0.00021129,-45.218,-213.5,-77.723,0.87856,-2.3483e-13,3.5198e-16,154.62,-213.5,-77.723,-45.214,0,0.015762,0,1,2.3,0,-2.3,0
0,0,0,0,0,0,0.00021014,-0.00088123,-4.5099e-36,6.0066e-06,-1.5548e-18,2.083e-21,2.3678,0.001003,-0.00088127,2.7587e-33,0.00021017,-45.154,-212.78,-77.486,0.92395,-2.3896e-13,3.2488e-16,154.03,-212.78,-77.486,-45.149,0,0.015767,0,1,2.305,0,-2.305,0
0,0,0,0,0,0,0.0002093,-0.00087905,-4.1058e-36,6.0593e-06,-1.4887e-18,1.9529e-21,2.3644,0.0010003,-0.00087908,3.1341e-33,0.00020933,-45.129,-212.29,-77.331,0.93205,-2.288e-13,3.0492e-16,153.62,-212.29,-77.331,-45.123,0,0.015771,0,1,2.31,0,-2.31,0
0,0,0,0,0,0,0.00020869,-0.00087768,-2.1098e-36,5.9088e-06,-1.3469e-18,1.8636e-21,2.3614,0.00099857,-0.00087771,3.7637e-33,0.00020872,-45.135,-211.99,-77.243,0.90891,-2.0701e-13,2.9113e-16,153.35,-211.99,-77.243,-45.13,0,0.015775,0,1,2.315,0,-2.315,0
0,0,0,0,0,0,0.00020808,-0.00087631,-1.238e-37,5.7602e-06,-1.2067e-18,1.7753e-21,2.3584,0.00099683,-0.00087634,4.3849e-33,0.00020811,-45.141,-211.69,-77.155,0.88606,-1.8547e-13,2.7748e-16,153.08,-211.7,-77.155,-45.136,0,0.01578,0,1,2.32,0,-2.32,0
0,0,0,0,0,0,0.00020747,-0.00087494,1.8524e-36,5.6135e-06,-1.0682e-18,1.6878e-21,2.3554,0.00099508,-0.00087497,4.9978e-33,0.0002075,-45.146,-211.39,-77.067,0.86349,-1.6418e-13,2.6396e-16,152.82,-211.4,-77.067,-45.141,0,0.015784,0,1,2.325,0,-2.325,0
0,0,0,0,0,0,0.00020686,-0.00087356,3.8187e-36,5.4686e-06,-9.3129e-19,1.6012e-21,2.3524,0.00099334,-0.00087359,5.6022e-33,0.00020689,-45.151,-211.09,-76.978,0.84121,-1.4314e-13,2.5058e-16,152.55,-211.1,-76.978,-45.146,0,0.015789,0,1,2.33,0,-2.33,0
0,0,0,0,0,0,0.00020626,-0.00087219,5.7752e-36,5.3255e-06,-7.96e-19,1.5155e-21,2.3494,0.00099159,-0.00087222,6.1983e-33,0.00020629,-45.155,-210.79,-76.889,0.8192,-1.2235e-13,2.3734e-16,152.28,-210.8,-76.889,-45.15,0,0.015793,0,1,2.335,0,-2.335,0
0,0,0,0,0,0,0.00020566,-0.00087081,7.7217e-36,5.1843e-06,-6.6234e-19,1.4307e-21,2.3464,0.00098985,-0.00087084,6.786e-33,0.00020568,-45.158,-210.49,-76.8,0.79749,-1.0181e-13,2.2424e-16,152.01,-210.5,-76.8,-45.154,0,0.015798,0,1,2.34,0,-2.34,0
0,0,0,0,0,0,0.00020505,-0.00086943,9.6585e-36,5.0449e-06,-5.303e-19,1.3468e-21,2.3434,0.0009881,-0.00086946,7.3654e-33,0.00020508,-45.161,-210.19,-76.71,0.77605,-8.1518e-14,2.1127e-16,151.74,-210.2,-76.71,-45.157,0,0.015802,0,1,2.345,0,-2.345,0
0,0,0,0,0,0,0.00020445,-0.00086806,1.1585e-35,4.9073e-06,-3.9989e-19,1.2638e-21,2.3405,0.00098636,-0.00086808,7.9363e-33,0.00020448,-45.164,-209.89,-76.62,0.7549,-6.1476e-14,1.9845e-16,151.48,-209.9,-76.62,-45.159,0,0.015806,0,1,2.35,0,-2.35,0
0,0,0,0,0,0,0.00020386,-0.00086667,1.3502e-35,4.7717e-06,-2.711e-19,1.1816e-21,2.3375,0.00098461,-0.0008667,8.4989e-33,0.00020388,-45.165,-209.59,-76.53,0.73403,-4.1683e-14,1.8576e-16,151.21,-209.59,-76.53,-45.161,0,0.015811,0,1,2.355,0,-2.355,0
0,0,0,0,0,0,0.00020326,-0.00086529,1.5409e-35,4.6378e-06,-1.4394e-19,1.1004e-21,2.3345,0.00098287,-0.00086532,9.0531e-33,0.00020329,-45.166,-209.29,-76.439,0.71345,-2.214e-14,1.732e-16,150.94,-209.29,-76.439,-45.162,0,0.015815,0,1,2.36,0,-2.36,0
0,0,0,0,0,0,0.00020266,-0.00086391,1.7307e-35,4.5058e-06,-1.8389e-20,1.02e-21,2.3315,0.00098112,-0.00086394,9.5989e-33,0.00020269,-45.167,-208.98,-76.348,0.69315,-2.8453e-15,1.6079e-16,150.67,-208.99,-76.348,-45.163,0,0.01582,0,1,2.365,0,-2.365,0
0,0,0,0,0,0,0.00020207,-0.00086252,1.9194e-35,4.3757e-06,1.0553e-19,9.4052e-22,2.3285,0.00097937,-0.00086255,1.0136e-32,0.0002021,-45.167,-208.68,-76.257,0.67314,1.6199e-14,1.4851e-16,150.41,-208.68,-76.257,-45.163,0,0.015824,0,1,2.37,0,-2.37,0
0,0,0,0,0,0,0.00020148,-0.00086114,2.1071e-35,4.2474e-06,2.2783e-19,8.6193e-22,2.3255,0.00097763,-0.00086116,1.0665e-32,0.0002015,-45.166,-208.38,-76.165,0.65341,3.4994e-14,1.3637e-16,150.14,-208.38,-76.165,-45.162,0,0.015828,0,1,2.375,0,-2.375,0
0,0,0,0,0,0,0.00020089,-0.00085975,2.2939e-35,4.1209e-06,3.4851e-19,7.8423e-22,2.3225,0.00097588,-0.00085977,1.1186e-32,0.00020091,-45.165,-208.07,-76.073,0.63396,5.354e-14,1.2436e-16,149.87,-208.07,-76.073,-45.161,0,0.015833,0,1,2.38,0,-2.38,0
0,0,0,0,0,0,0.0002003,-0.00085836,2.4797e-35,3.9963e-06,4.6755e-19,7.0743e-22,2.3195,0.00097413,-0.00085838,1.1698e-32,0.00020032,-45.163,-207.77,-75.98,0.6148,7.1836e-14,1.125e-16,149.6,-207.77,-75.98,-45.159,0,0.015837,0,1,2.385,0,-2.385,0
0,0,0,0,0,0,0.00019971,-0.00085697,2.6644e-35,3.8735e-06,5.8498e-19,6.3151e-22,2.3165,0.00097238,-0.00085699,1.2202e-32,0.00019974,-45.16,-207.46,-75.887,0.59592,8.9883e-14,1.0077e-16,149.33,-207.46,-75.887,-45.157,0,0.015841,0,1,2.39,0,-2.39,0
0,0,0,0,0,0,0.00019913,-0.00085558,2.8482e-35,3.7526e-06,7.0079e-19,5.5648e-22,2.3135,0.00097063,-0.0008556,1.2698e-32,0.00019915,-45.157,-207.15,-75.794,0.57732,1.0768e-13,8.9176e-17,149.07,-207.16,-75.794,-45.154,0,0.015846,0,1,2.395,0,-2.395,0
0,0,0,0,0,0,0.00019854,-0.00085419,3.031e-35,3.6335e-06,8.1497e-19,4.8233e-22,2.3105,0.00096888,-0.00085421,1.3185e-32,0.00019857,-45.153,-206.85,-75.701,0.55901,1.2523e-13,7.7721e-17,148.8,-206.85,-75.701,-45.15,0,0.01585,0,1,2.4,0,-2.4,0
0,0,0,0,0,0,0.00019796,-0.00085279,3.2129e-35,3.5163e-06,9.2752e-19,4.0908e-22,2.3075,0.00096714,-0.00085281,1.3664e-32,0.00019798,-45.149,-206.54,-75.607,0.54098,1.4253e-13,6.6405e-17,148.53,-206.54,-75.607,-45.146,0,0.015854,0,1,2.405,0,-2.405,0
0,0,0,0,0,0,0.00019738,-0.00085139,3.3937e-35,3.4009e-06,1.0385e-18,3.3672e-22,2.3045,0.00096539,-0.00085141,1.4134e-32,0.0001974,-45.144,-206.23,-75.512,0.52324,1.5958e-13,5.5225e-17,148.26,-206.23,-75.512,-45.141,0,0.015859,0,1,2.41,0,-2.41,0
0,0,0,0,0,0,0.0001968,-0.00085,3.5735e-35,3.2874e-06,1.1478e-18,2.6525e-22,2.3015,0.00096364,-0.00085002,1.4596e-32,0.00019682,-45.138,-205.92,-75.418,0.50578,1.7637e-13,4.4183e-17,147.99,-205.92,-75.418,-45.135,0,0.015863,0,1,2.415,0,-2.415,0
0,0,0,0,0,0,0.00019623,-0.0008486,3.7524e-35,3.1757e-06,1.2555e-18,1.9466e-22,2.2985,0.00096188,-0.00084862,1.505e-32,0.00019624,-45.132,-205.61,-75.323,0.4886,1.9292e-13,3.3278e-17,147.72,-205.61,-75.323,-45.129,0,0.015867,0,1,2.42,0,-2.42,0
0,0,0,0,0,0,0.00019565,-0.0008472,3.9303e-35,3.0658e-06,1.3615e-18,1.2497e-22,2.2956,0.00096013,-0.00084721,1.5495e-32,0.00019567,-45.125,-205.3,-75.227,0.47171,2.0923e-13,2.2511e-17,147.45,-205.3,-75.227,-45.123,0,0.015871,0,1,2.425,0,-2.425,0
0,0,0,0,0,0,0.00019508,-0.00084579,4.1072e-35,2.9578e-06,1.466e-18,5.6158e-23,2.2926,0.00095838,-0.00084581,1.5932e-32,0.00019509,-45.118,-204.99,-75.132,0.4551,2.2528e-13,1.1881e-17,147.19,-204.99,-75.132,-45.115,0,0.015876,0,1,2.43,0,-2.43,0
0,0,0,0,0,0,0.0001945,-0.00084439,4.283e-35,2.8517e-06,1.5688e-18,-1.1759e-23,2.2896,0.00095663,-0.00084441,1.6361e-32,0.00019452,-45.11,-204.68,-75.036,0.43877,2.4108e-13,1.3886e-18,146.92,-204.68,-75.036,-45.108,0,0.01588,0,1,2.435,0,-2.435,0
0,0,0,0,0,0,0.00019393,-0.00084299,4.458e-35,2.7474e-06,1.67e-18,-7.8789e-23,2.2866,0.00095488,-0.000843,1.6781e-32,0.00019395,-45.102,-204.37,-74.939,0.42273,2.5663e-13,-8.9668e-18,146.65,-204.37,-74.939,-45.099,0,0.015884,0,1,2.44,0,-2.44,0
0,0,0,0,0,0,0.00019336,-0.00084158,4.6319e-35,2.6449e-06,1.7696e-18,-1.4493e-22,2.2836,0.00095313,-0.00084159,1.7192e-32,0.00019338,-45.092,-204.06,-74.843,0.40697,2.7193e-13,-1.9184e-17,146.38,-204.06,-74.843,-45.09,0,0.015888,0,1,2.445,0,-2.445,0
0,0,0,0,0,0,0.0001928,-0.00084017,4.8048e-35,2.5443e-06,1.8675e-18,-2.1018e-22,2.2806,0.00095137,-0.00084019,1.7596e-32,0.00019281,-45.083,-203.74,-74.745,0.3915,2.8699e-13,-2.9265e-17,146.11,-203.75,-74.745,-45.08,0,0.015893,0,1,2.45,0,-2.45,0
0,0,0,0,0,0,0.00019223,-0.00083876,4.9767e-35,2.4455e-06,1.9638e-18,-2.7454e-22,2.2776,0.00094962,-0.00083878,1.7991e-32,0.00019224,-45.072,-203.43,-74.648,0.37631,3.0179e-13,-3.9208e-17,145.84,-203.43,-74.648,-45.07,0,0.015897,0,1,2.455,0,-2.455,0
0,0,0,0,0,0,0.00019167,-0.00083735,5.1477e-35,2.3486e-06,2.0585e-18,-3.3801e-22,2.2746,0.00094787,-0.00083736,1.8377e-32,0.00019168,-45.061,-203.12,-74.55,0.3614,3.1634e-13,-4.9014e-17,145.57,-203.12,-74.55,-45.059,0,0.015901,0,1,2.46,0,-2.46,0
0,0,0,0,0,0,0.0001911,-0.00083594,5.3177e-35,2.2535e-06,2.1516e-18,-4.006e-22,2.2716,0.00094611,-0.00083595,1.8756e-32,0.00019112,-45.05,-202.8,-74.452,0.34678,3.3065e-13,-5.8682e-17,145.3,-202.8,-74.452,-45.048,0,0.015905,0,1,2.465,0,-2.465,0
0,0,0,0,0,0,0.00019054,-0.00083452,5.4867e-35,2.1603e-06,2.2431e-18,-4.6229e-22,2.2686,0.00094436,-0.00083454,1.9126e-32,0.00019056,-45.038,-202.49,-74.354,0.33244,3.447e-13,-6.8213e-17,145.04,-202.49,-74.354,-45.036,0,0.01591,0,1,2.47,0,-2.47,0
0,0,0,0,0,0,0.00018998,-0.00083311,5.6547e-35,2.0689e-06,2.3329e-18,-5.231e-22,2.2656,0.00094261,-0.00083312,1.9487e-32,0.00019,-45.025,-202.17,-74.255,0.31839,3.5851e-13,-7.7606e-17,144.77,-202.17,-74.255,-45.023,0,0.015914,0,1,2.475,0,-2.475,0
0,0,0,0,0,0,0.00018942,-0.00083169,5.8217e-35,1.9794e-06,2.4211e-18,-5.8301e-22,2.2626,0.00094085,-0.0008317,1.984e-32,0.00018944,-45.012,-201.85,-74.155,0.30462,3.7207e-13,-8.6862e-17,144.5,-201.86,-74.155,-45.01,0,0.015918,0,1,2.48,0,-2.48,0
0,0,0,0,0,0,0.00018887,-0.00083027,5.9877e-35,1.8917e-06,2.5077e-18,-6.4204e-22,2.2596,0.0009391,-0.00083029,2.0185e-32,0.00018888,-44.998,-201.54,-74.056,0.29113,3.8537e-13,-9.5981e-17,144.23,-201.54,-74.056,-44.996,0,0.015922,0,1,2.485,0,-2.485,0
0,0,0,0,0,0,0.00018831,-0.00082885,6.1527e-35,1.8058e-06,2.5927e-18,-7.0018e-22,2.2566,0.00093734,-0.00082887,2.0521e-32,0.00018832,-44.983,-201.22,-73.956,0.27793,3.9843e-13,-1.0496e-16,143.96,-201.22,-73.956,-44.981,0,0.015926,0,1,2.49,0,-2.49,0
0,0,0,0,0,0,0.00018776,-0.00082743,6.3168e-35,1.7218e-06,2.676e-18,-7.5743e-22,2.2536,0.00093558,-0.00082744,2.0849e-32,0.00018777,-44.968,-200.9,-73.856,0.26501,4.1124e-13,-1.1381e-16,143.69,-200.9,-73.856,-44.966,0,0.01593,0,1,2.495,0,-2.495,0
0,0,0,0,0,0,0.00018721,-0.00082601,6.4798e-35,1.6396e-06,2.7577e-18,-8.1379e-22,2.2507,0.00093383,-0.00082602,2.1169e-32,0.00018722,-44.952,-200.58,-73.755,0.25238,4.238e-13,-1.2251e-16,143.42,-200.58,-73.755,-44.951,0,0.015935,0,1,2.5,0,-2.5,0
0,0,0,0,0,0,0.00018666,-0.00082459,6.6419e-35,1.5593e-06,2.8378e-18,-8.6926e-22,2.2477,0.00093207,-0.0008246,2.148e-32,0.00018667,-44.936,-200.26,-73.654,0.24002,4.3611e-13,-1.3108e-16,143.15,-200.27,-73.654,-44.934,0,0.015939,0,1,2.505,0,-2.505,0
0,0,0,0,0,0,0.00018611,-0.00082316,6.803e-35,1.4809e-06,2.9163e-18,-9.2384e-22,2.2447,0.00093031,-0.00082317,2.1783e-32,0.00018612,-44.919,-199.94,-73.553,0.22796,4.4817e-13,-1.3951e-16,142.88,-199.95,-73.553,-44.917,0,0.015943,0,1,2.51,0,-2.51,0
0,0,0,0,0,0,0.00018556,-0.00082174,6.9631e-35,1.4042e-06,2.9931e-18,-9.7754e-22,2.2417,0.00092856,-0.00082174,2.2077e-32,0.00018557,-44.901,-199.62,-73.451,0.21617,4.5998e-13,-1.4781e-16,142.61,-199.63,-73.451,-44.9,0,0.015947,0,1,2.515,0,-2.515,0
0,0,0,0,0,0,0.00018502,-0.00082031,7.1222e-35,1.3295e-06,3.0683e-18,-1.0303e-21,2.2387,0.0009268,-0.00082032,2.2363e-32,0.00018503,-44.883,-199.3,-73.349,0.20467,4.7154e-13,-1.5596e-16,142.34,-199.3,-73.349,-44.882,0,0.015951,0,1,2.52,0,-2.52,0
0,0,0,0,0,0,0.00018448,-0.00081888,7.2803e-35,1.2565e-06,3.142e-18,-1.0823e-21,2.2357,0.00092504,-0.00081888,2.2641e-32,0.00018448,-44.864,-198.98,-73.247,0.19346,4.8285e-13,-1.6398e-16,142.07,-198.98,-73.247,-44.863,0,0.015955,0,1,2.525,0,-2.525,0
0,0,0,0,0,0,0.00018393,-0.00081745,7.4374e-35,1.1855e-06,3.2139e-18,-1.1333e-21,2.2327,0.00092328,-0.00081745,2.291e-32,0.00018394,-44.845,-198.66,-73.144,0.18253,4.9391e-13,-1.7187e-16,141.8,-198.66,-73.144,-44.844,0,0.015959,0,1,2.53,0,-2.53,0
0,0,0,0,0,0,0.00018339,-0.00081601,7.5936e-35,1.1162e-06,3.2843e-18,-1.1834e-21,2.2297,0.00092152,-0.00081602,2.3171e-32,0.0001834,-44.825,-198.34,-73.041,0.17188,5.0473e-13,-1.7961e-16,141.53,-198.34,-73.041,-44.824,0,0.015964,0,1,2.535,0,-2.535,0
0,0,0,0,0,0,0.00018286,-0.00081458,7.7487e-35,1.0488e-06,3.353e-18,-1.2327e-21,2.2267,0.00091976,-0.00081459,2.3424e-32,0.00018286,-44.804,-198.01,-72.937,0.16151,5.1529e-13,-1.8722e-16,141.26,-198.01,-72.937,-44.803,0,0.015968,0,1,2.54,0,-2.54,0
0,0,0,0,0,0,0.00018232,-0.00081314,7.9029e-35,9.8328e-07,3.4201e-18,-1.281e-21,2.2237,0.00091801,-0.00081315,2.3668e-32,0.00018232,-44.783,-197.69,-72.833,0.15143,5.256e-13,-1.9469e-16,140.99,-197.69,-72.833,-44.782,0,0.015972,0,1,2.545,0,-2.545,0
0,0,0,0,0,0,0.00018178,-0.00081171,8.0561e-35,9.1958e-07,3.4856e-18,-1.3285e-21,2.2207,0.00091625,-0.00081171,2.3904e-32,0.00018179,-44.761,-197.37,-72.729,0.14164,5.3567e-13,-2.0202e-16,140.72,-197.37,-72.729,-44.76,0,0.015976,0,1,2.55,0,-2.55,0
0,0,0,0,0,0,0.00018125,-0.00081027,8.2083e-35,8.5773e-07,3.5495e-18,-1.3751e-21,2.2177,0.00091448,-0.00081027,2.4131e-32,0.00018126,-44.739,-197.04,-72.625,0.13212,5.4548e-13,-2.0922e-16,140.45,-197.04,-72.625,-44.738,0,0.01598,0,1,2.555,0,-2.555,0
0,0,0,0,0,0,0.00018072,-0.00080883,8.3595e-35,7.9772e-07,3.6117e-18,-1.4208e-21,2.2147,0.00091272,-0.00080883,2.435e-32,0.00018072,-44.716,-196.71,-72.52,0.12289,5.5505e-13,-2.1627e-16,140.18,-196.72,-72.52,-44.715,0,0.015984,0,1,2.56,0,-2.56,0
0,0,0,0,0,0,0.00018019,-0.00080739,8.5097e-35,7.3955e-07,3.6723e-18,-1.4656e-21,2.2117,0.00091096,-0.00080739,2.4561e-32,0.00018019,-44.692,-196.39,-72.415,0.11395,5.6436e-13,-2.232e-16,139.91,-196.39,-72.415,-44.692,0,0.015988,0,1,2.565,0,-2.565,0
0,0,0,0,0,0,0.00017966,-0.00080594,8.6589e-35,6.8324e-07,3.7313e-18,-1.5095e-21,2.2087,0.0009092,-0.00080595,2.4763e-32,0.00017966,-44.668,-196.06,-72.309,0.10529,5.7343e-13,-2.2998e-16,139.64,-196.06,-72.309,-44.667,0,0.015992,0,1,2.57,0,-2.57,0
0,0,0,0,0,0,0.00017913,-0.0008045,8.8072e-35,6.2877e-07,3.7887e-18,-1.5525e-21,2.2058,0.00090744,-0.0008045,2.4957e-32,0.00017913,-44.643,-195.73,-72.203,0.096909,5.8225e-13,-2.3662e-16,139.37,-195.74,-72.203,-44.643,0,0.015996,0,1,2.575,0,-2.575,0
0,0,0,0,0,0,0.00017861,-0.00080305,8.9545e-35,5.7614e-07,3.8444e-18,-1.5946e-21,2.2028,0.00090568,-0.00080306,2.5143e-32,0.00017861,-44.618,-195.41,-72.097,0.088815,5.9081e-13,-2.4313e-16,139.1,-195.41,-72.097,-44.617,0,0.016,0,1,2.58,0,-2.58,0
0,0,0,0,0,0,0.00017808,-0.00080161,9.1007e-35,5.2536e-07,3.8985e-18,-1.6359e-21,2.1998,0.00090392,-0.00080161,2.532e-32,0.00017808,-44.592,-195.08,-71.99,0.081005,5.9913e-13,-2.495e-16,138.83,-195.08,-71.99,-44.591,0,0.016004,0,1,2.585,0,-2.585,0
0,0,0,0,0,0,0.00017756,-0.00080016,9.246e-35,4.7643e-07,3.951e-18,-1.6762e-21,2.1968,0.00090215,-0.00080016,2.5488e-32,0.00017756,-44.565,-194.75,-71.883,0.073479,6.072e-13,-2.5574e-16,138.56,-194.75,-71.883,-44.565,0,0.016008,0,1,2.59,0,-2.59,0
0,0,0,0,0,0,0.00017704,-0.00079871,9.3903e-35,4.2934e-07,4.0019e-18,-1.7157e-21,2.1938,0.00090039,-0.00079871,2.5649e-32,0.00017704,-44.538,-194.42,-71.776,0.066237,6.1502e-13,-2.6183e-16,138.29,-194.42,-71.776,-44.538,0,0.016012,0,1,2.595,0,-2.595,0
0,0,0,0,0,0,0.00017652,-0.00079726,9.5336e-35,3.841e-07,4.0512e-18,-1.7543e-21,2.1908,0.00089863,-0.00079726,2.5801e-32,0.00017652,-44.51,-194.09,-71.668,0.059279,6.2259e-13,-2.6779e-16,138.02,-194.09,-71.668,-44.51,0,0.016016,0,1,2.6,0,-2.6,0
0,0,0,0,0,0,0.000176,-0.0007958,9.6759e-35,3.4071e-07,4.0988e-18,-1.792e-21,2.1878,0.00089686,-0.00079581,2.5945e-32,0.000176,-44.482,-193.76,-71.56,0.052604,6.2991e-13,-2.7361e-16,137.75,-193.76,-71.56,-44.482,0,0.01602,0,1,2.605,0,-2.605,0
0,0,0,0,0,0,0.00017548,-0.00079435,9.8173e-35,2.9916e-07,4.1448e-18,-1.8288e-21,2.1848,0.0008951,-0.00079435,2.608e-32,0.00017549,-44.453,-193.43,-71.452,0.046213,6.3698e-13,-2.793e-16,137.48,-193.43,-71.452,-44.453,0,0.016024,0,1,2.61,0,-2.61,0
0,0,0,0,0,0,0.00017497,-0.00079289,9.9576e-35,2.5945e-07,4.1892e-18,-1.8647e-21,2.1818,0.00089333,-0.0007929,2.6207e-32,0.00017497,-44.423,-193.1,-71.343,0.040106,6.438e-13,-2.8484e-16,137.21,-193.1,-71.343,-44.423,0,0.016028,0,1,2.615,0,-2.615,0
0,0,0,0,0,0,0.00017446,-0.00079144,1.0097e-34,2.216e-07,4.2319e-18,-1.8997e-21,2.1788,0.00089157,-0.00079144,2.6325e-32,0.00017446,-44.393,-192.76,-71.234,0.034283,6.5037e-13,-2.9025e-16,136.94,-192.76,-71.234,-44.393,0,0.016032,0,1,2.62,0,-2.62,0
0,0,0,0,0,0,0.00017395,-0.00078998,1.0235e-34,1.8558e-07,4.2731e-18,-1.9339e-21,2.1758,0.0008898,-0.00078998,2.6435e-32,0.00017395,-44.362,-192.43,-71.124,0.028744,6.5669e-13,-2.9553e-16,136.67,-192.43,-71.124,-44.362,0,0.016036,0,1,2.625,0,-2.625,0
0,0,0,0,0,0,0.00017344,-0.00078852,1.0373e-34,1.5142e-07,4.3126e-18,-1.9671e-21,2.1728,0.00088804,-0.00078852,2.6537e-32,0.00017344,-44.331,-192.1,-71.015,0.023489,6.6277e-13,-3.0066e-16,136.4,-192.1,-71.015,-44.331,0,0.01604,0,1,2.63,0,-2.63,0
0,0,0,0,0,0,0.00017293,-0.00078706,1.0509e-34,1.191e-07,4.3505e-18,-1.9995e-21,2.1698,0.00088627,-0.00078706,2.663e-32,0.00017293,-44.299,-191.76,-70.904,0.018517,6.6859e-13,-3.0566e-16,136.13,-191.76,-70.904,-44.299,0,0.016044,0,1,2.635,0,-2.635,0
0,0,0,0,0,0,0.00017242,-0.00078559,1.0645e-34,8.8622e-08,4.3868e-18,-2.0309e-21,2.1668,0.0008845,-0.00078559,2.6715e-32,0.00017242,-44.266,-191.43,-70.794,0.013829,6.7416e-13,-3.1052e-16,135.85,-191.43,-70.794,-44.266,0,0.016048,0,1,2.64,0,-2.64,0
0,0,0,0,0,0,0.00017192,-0.00078413,1.0779e-34,5.9994e-08,4.4214e-18,-2.0615e-21,2.1638,0.00088274,-0.00078413,2.6792e-32,0.00017192,-44.233,-191.09,-70.683,0.0094257,6.7949e-13,-3.1524e-16,135.58,-191.09,-70.683,-44.233,0,0.016052,0,1,2.645,0,-2.645,0
0,0,0,0,0,0,0.00017141,-0.00078266,1.0912e-34,3.321e-08,4.4544e-18,-2.0912e-21,2.1609,0.00088097,-0.00078266,2.686e-32,0.00017142,-44.199,-190.76,-70.572,0.0053056,6.8456e-13,-3.1982e-16,135.31,-190.76,-70.572,-44.199,0,0.016056,0,1,2.65,0,-2.65,0
0,0,0,0,0,0,0.00017091,-0.0007812,1.1045e-34,8.2739e-09,4.4858e-18,-2.12e-21,2.1579,0.0008792,-0.0007812,2.692e-32,0.00017091,-44.165,-190.42,-70.46,0.0014696,6.8939e-13,-3.2427e-16,135.04,-190.42,-70.46,-44.165,0,0.01606,0,1,2.655,0,-2.655,0
0,0,0,0,0,0,0.00017041,-0.00077973,1.1176e-34,-1.4818e-08,4.5156e-18,-2.1479e-21,2.1549,0.00087744,-0.00077973,2.6971e-32,0.00017041,-44.13,-190.08,-70.348,-0.0020828,6.9397e-13,-3.2858e-16,134.77,-190.08,-70.348,-44.13,0,0.016064,0,1,2.66,0,-2.66,0
0,0,0,0,0,0,0.00016992,-0.00077826,1.1307e-34,-3.6063e-08,4.5437e-18,-2.1749e-21,2.1519,0.00087567,-0.00077826,2.7014e-32,0.00016992,-44.094,-189.74,-70.236,-0.0053512,6.9829e-13,-3.3275e-16,134.5,-189.74,-70.236,-44.094,0,0.016067,0,1,2.665,0,-2.665,0
0,0,0,0,0,0,0.00016942,-0.00077678,1.1436e-34,-5.5462e-08,4.5703e-18,-2.2011e-21,2.1489,0.0008739,-0.00077678,2.7049e-32,0.00016942,-44.058,-189.41,-70.123,-0.0083359,7.0237e-13,-3.3679e-16,134.23,-189.41,-70.123,-44.058,0,0.016071,0,1,2.67,0,-2.67,0
0,0,0,0,0,0,0.00016892,-0.00077531,1.1565e-34,-7.3016e-08,4.5952e-18,-2.2263e-21,2.1459,0.00087213,-0.00077531,2.7075e-32,0.00016892,-44.021,-189.07,-70.01,-0.011037,7.062e-13,-3.4069e-16,133.96,-189.07,-70.01,-44.021,0,0.016075,0,1,2.675,0,-2.675,0
0,0,0,0,0,0,0.00016843,-0.00077384,1.1692e-34,-8.8724e-08,4.6185e-18,-2.2507e-21,2.1429,0.00087036,-0.00077384,2.7093e-32,0.00016843,-43.984,-188.73,-69.897,-0.013454,7.0978e-13,-3.4445e-16,133.68,-188.73,-69.897,-43.984,0,0.016079,0,1,2.68,0,-2.68,0
0,0,0,0,0,0,0.00016794,-0.00077236,1.1819e-34,-1.0259e-07,4.6401e-18,-2.2741e-21,2.1399,0.00086859,-0.00077236,2.7103e-32,0.00016794,-43.946,-188.39,-69.783,-0.015587,7.1311e-13,-3.4807e-16,133.41,-188.39,-69.783,-43.946,0,0.016083,0,1,2.685,0,-2.685,0
0,0,0,0,0,0,0.00016745,-0.00077088,1.1944e-34,-1.146e-07,4.6601e-18,-2.2967e-21,2.1369,0.00086682,-0.00077088,2.7104e-32,0.00016745,-43.907,-188.05,-69.669,-0.017436,7.1618e-13,-3.5156e-16,133.14,-188.05,-69.669,-43.907,0,0.016087,0,1,2.69,0,-2.69,0
0,0,0,0,0,0,0.00016696,-0.0007694,1.2069e-34,-1.2477e-07,4.6786e-18,-2.3184e-21,2.1339,0.00086505,-0.0007694,2.7097e-32,0.00016696,-43.868,-187.71,-69.555,-0.019001,7.1901e-13,-3.5491e-16,132.87,-187.71,-69.555,-43.868,0,0.016091,0,1,2.695,0,-2.695,0
0,0,0,0,0,0,0.00016647,-0.00076792,1.2192e-34,-1.331e-07,4.6953e-18,-2.3392e-21,2.1309,0.00086328,-0.00076792,2.7081e-32,0.00016647,-43.828,-187.36,-69.44,-0.020283,7.216e-13,-3.5812e-16,132.6,-187.36,-69.44,-43.828,0,0.016095,0,1,2.7,0,-2.7,0
0,0,0,0,0,0,0.00016599,-0.00076644,1.2315e-34,-1.3957e-07,4.7105e-18,-2.3591e-21,2.1279,0.00086151,-0.00076644,2.7057e-32,0.00016599,-43.788,-187.02,-69.325,-0.021281,7.2393e-13,-3.6119e-16,132.33,-187.02,-69.325,-43.788,0,0.016098,0,1,2.705,0,-2.705,0
0,0,0,0,0,0,0.0001655,-0.00076496,1.2437e-34,-1.4421e-07,4.724e-18,-2.3781e-21,2.1249,0.00085974,-0.00076496,2.7025e-32,0.0001655,-43.747,-186.68,-69.209,-0.021995,7.2601e-13,-3.6413e-16,132.06,-186.68,-69.209,-43.747,0,0.016102,0,1,2.71,0,-2.71,0
0,0,0,0,0,0,0.00016502,-0.00076347,1.2557e-34,-1.4699e-07,4.736e-18,-2.3962e-21,2.1219,0.00085796,-0.00076347,2.6984e-32,0.00016502,-43.705,-186.34,-69.094,-0.022425,7.2784e-13,-3.6693e-16,131.78,-186.34,-69.094,-43.705,0,0.016106,0,1,2.715,0,-2.715,0
0,0,0,0,0,0,0.00016454,-0.00076199,1.2677e-34,-1.4793e-07,4.7463e-18,-2.4135e-21,2.1189,0.00085619,-0.00076199,2.6935e-32,0.00016454,-43.663,-185.99,-68.977,-0.022571,7.2942e-13,-3.6959e-16,131.51,-185.99,-68.977,-43.663,0,0.01611,0,1,2.72,0,-2.72,0
0,0,0,0,0,0,0.00016406,-0.0007605,1.2795e-34,-1.4703e-07,4.7549e-18,-2.4298e-21,2.116,0.00085442,-0.0007605,2.6878e-32,0.00016406,-43.62,-185.65,-68.861,-0.022434,7.3076e-13,-3.7211e-16,131.24,-185.65,-68.861,-43.62,0,0.016114,0,1,2.725,0,-2.725,0
0,0,0,0,0,0,0.00016358,-0.00075901,1.2913e-34,-1.4428e-07,4.762e-18,-2.4453e-21,2.113,0.00085265,-0.00075901,2.6812e-32,0.00016358,-43.576,-185.3,-68.744,-0.022012,7.3184e-13,-3.745e-16,130.97,-185.3,-68.744,-43.577,0,0.016117,0,1,2.73,0,-2.73,0
0,0,0,0,0,0,0.00016311,-0.00075752,1.303e-34,-1.3968e-07,4.7674e-18,-2.4599e-21,2.11,0.00085087,-0.00075752,2.6738e-32,0.00016311,-43.532,-184.96,-68.627,-0.021307,7.3267e-13,-3.7675e-16,130.7,-184.96,-68.627,-43.533,0,0.016121,0,1,2.735,0,-2.735,0
0,0,0,0,0,0,0.00016263,-0.00075603,1.3145e-34,-1.3324e-07,4.7712e-18,-2.4736e-21,2.107,0.0008491,-0.00075603,2.6655e-32,0.00016263,-43.488,-184.61,-68.509,-0.020318,7.3326e-13,-3.7886e-16,130.42,-184.61,-68.509,-43.488,0,0.016125,0,1,2.74,0,-2.74,0
0,0,0,0,0,0,0.00016216,-0.00075453,1.326e-34,-1.2495e-07,4.7734e-18,-2.4864e-21,2.104,0.00084733,-0.00075453,2.6564e-32,0.00016216,-43.443,-184.26,-68.391,-0.019045,7.3359e-13,-3.8083e-16,130.15,-184.26,-68.391,-43.443,0,0.016129,0,1,2.745,0,-2.745,0
0,0,0,0,0,0,0.00016169,-0.00075304,1.3374e-34,-1.1482e-07,4.7739e-18,-2.4983e-21,2.101,0.00084555,-0.00075304,2.6465e-32,0.00016169,-43.397,-183.92,-68.273,-0.017488,7.3368e-13,-3.8267e-16,129.88,-183.92,-68.273,-43.397,0,0.016133,0,1,2.75,0,-2.75,0
0,0,0,0,0,0,0.00016122,-0.00075154,1.3486e-34,-1.0284e-07,4.7729e-18,-2.5093e-21,2.098,0.00084378,-0.00075154,2.6357e-32,0.00016122,-43.35,-183.57,-68.154,-0.015647,7.3352e-13,-3.8437e-16,129.61,-183.57,-68.154,-43.35,0,0.016136,0,1,2.755,0,-2.755,0
0,0,0,0,0,0,0.00016075,-0.00075004,1.3598e-34,-8.9011e-08,4.7702e-18,-2.5194e-21,2.095,0.000842,-0.00075004,2.6241e-32,0.00016075,-43.303,-183.22,-68.035,-0.013523,7.331e-13,-3.8593e-16,129.33,-183.22,-68.035,-43.303,0,0.01614,0,1,2.76,0,-2.76,0
0,0,0,0,0,0,0.00016029,-0.00074854,1.3709e-34,-7.3339e-08,4.7659e-18,-2.5287e-21,2.092,0.00084022,-0.00074854,2.6116e-32,0.00016029,-43.256,-182.87,-67.916,-0.011115,7.3244e-13,-3.8736e-16,129.06,-182.87,-67.916,-43.256,0,0.016144,0,1,2.765,0,-2.765,0
0,0,0,0,0,0,0.00015982,-0.00074704,1.3819e-34,-5.5822e-08,4.7599e-18,-2.537e-21,2.089,0.00083845,-0.00074704,2.5984e-32,0.00015982,-43.207,-182.52,-67.796,-0.0084225,7.3153e-13,-3.8865e-16,128.79,-182.52,-67.796,-43.207,0,0.016147,0,1,2.77,0,-2.77,0
0,0,0,0,0,0,0.00015936,-0.00074554,1.3927e-34,-3.6458e-08,4.7524e-18,-2.5445e-21,2.086,0.00083667,-0.00074554,2.5842e-32,0.00015936,-43.158,-182.17,-67.676,-0.0054464,7.3037e-13,-3.898e-16,128.52,-182.17,-67.676,-43.159,0,0.016151,0,1,2.775,0,-2.775,0
0,0,0,0,0,0,0.0001589,-0.00074404,1.4035e-34,-1.5249e-08,4.7432e-18,-2.551e-21,2.083,0.0008349,-0.00074404,2.5693e-32,0.0001589,-43.109,-181.82,-67.556,-0.0021867,7.2896e-13,-3.9081e-16,128.24,-181.82,-67.556,-43.109,0,0.016155,0,1,2.78,0,-2.78,0
0,0,0,0,0,0,0.00015844,-0.00074253,1.4142e-34,7.8067e-09,4.7324e-18,-2.5567e-21,2.08,0.00083312,-0.00074253,2.5535e-32,0.00015844,-43.059,-181.47,-67.435,0.0013571,7.273e-13,-3.9169e-16,127.97,-181.47,-67.435,-43.059,0,0.016159,0,1,2.785,0,-2.785,0
0,0,0,0,0,0,0.00015798,-0.00074103,1.4248e-34,3.2707e-08,4.7199e-18,-2.5615e-21,2.077,0.00083134,-0.00074103,2.5368e-32,0.00015798,-43.008,-181.12,-67.314,0.0051845,7.2539e-13,-3.9242e-16,127.7,-181.12,-67.314,-43.008,0,0.016162,0,1,2.79,0,-2.79,0
0,0,0,0,0,0,0.00015753,-0.00073952,1.4352e-34,5.9455e-08,4.7059e-18,-2.5654e-21,2.074,0.00082956,-0.00073952,2.5193e-32,0.00015752,-42.957,-180.76,-67.192,0.0092959,7.2323e-13,-3.9302e-16,127.43,-180.76,-67.192,-42.957,0,0.016166,0,1,2.795,0,-2.795,0
0,0,0,0,0,0,0.00015707,-0.00073801,1.4456e-34,8.8047e-08,4.6902e-18,-2.5684e-21,2.0711,0.00082779,-0.00073801,2.501e-32,0.00015707,-42.905,-180.41,-67.07,0.013691,7.2082e-13,-3.9349e-16,127.15,-180.41,-67.07,-42.905,0,0.01617,0,1,2.8,0,-2.8,0
0,0,0,0,0,0,0.00015662,-0.0007365,1.4559e-34,1.1849e-07,4.6729e-18,-2.5706e-21,2.0681,0.00082601,-0.0007365,2.4819e-32,0.00015662,-42.853,-180.06,-66.948,0.01837,7.1816e-13,-3.9381e-16,126.88,-180.06,-66.948,-42.853,0,0.016173,0,1,2.805,0,-2.805,0
0,0,0,0,0,0,0.00015617,-0.00073499,1.4661e-34,1.5077e-07,4.654e-18,-2.5718e-21,2.0651,0.00082423,-0.00073499,2.4619e-32,0.00015617,-42.8,-179.7,-66.826,0.023333,7.1526e-13,-3.94e-16,126.61,-179.7,-66.826,-42.8,0,0.016177,0,1,2.81,0,-2.81,0
0,0,0,0,0,0,0.00015572,-0.00073347,1.4762e-34,1.849e-07,4.6334e-18,-2.5722e-21,2.0621,0.00082245,-0.00073347,2.4411e-32,0.00015572,-42.746,-179.35,-66.703,0.02858,7.121e-13,-3.9405e-16,126.34,-179.35,-66.703,-42.746,0,0.016181,0,1,2.815,0,-2.815,0
0,0,0,0,0,0,0.00015527,-0.00073196,1.4862e-34,2.2088e-07,4.6113e-18,-2.5716e-21,2.0591,0.00082067,-0.00073196,2.4194e-32,0.00015527,-42.692,-178.99,-66.58,0.03411,7.0869e-13,-3.9397e-16,126.06,-178.99,-66.58,-42.692,0,0.016184,0,1,2.82,0,-2.82,0
0,0,0,0,0,0,0.00015482,-0.00073044,1.496e-34,2.587e-07,4.5875e-18,-2.5702e-21,2.0561,0.00081889,-0.00073044,2.3969e-32,0.00015482,-42.637,-178.63,-66.456,0.039925,7.0504e-13,-3.9374e-16,125.79,-178.63,-66.456,-42.637,0,0.016188,0,1,2.825,0,-2.825,0
0,0,0,0,0,0,0.00015438,-0.00072892,1.5058e-34,2.9837e-07,4.5621e-18,-2.5679e-21,2.0531,0.00081711,-0.00072892,2.3735e-32,0.00015438,-42.581,-178.28,-66.332,0.046023,7.0113e-13,-3.9338e-16,125.52,-178.28,-66.332,-42.581,0,0.016192,0,1,2.83,0,-2.83,0
0,0,0,0,0,0,0.00015393,-0.0007274,1.5155e-34,3.3988e-07,4.535e-18,-2.5647e-21,2.0501,0.00081533,-0.0007274,2.3494e-32,0.00015393,-42.525,-177.92,-66.208,0.052405,6.9698e-13,-3.9288e-16,125.24,-177.92,-66.208,-42.525,0,0.016195,0,1,2.835,0,-2.835,0
0,0,0,0,0,0,0.00015349,-0.00072588,1.5251e-34,3.8324e-07,4.5064e-18,-2.5606e-21,2.0471,0.00081355,-0.00072588,2.3243e-32,0.00015349,-42.469,-177.56,-66.083,0.059071,6.9257e-13,-3.9225e-16,124.97,-177.56,-66.083,-42.468,0,0.016199,0,1,2.84,0,-2.84,0
0,0,0,0,0,0,0.00015305,-0.00072436,1.5346e-34,4.2845e-07,4.4761e-18,-2.5556e-21,2.0441,0.00081177,-0.00072436,2.2985e-32,0.00015305,-42.411,-177.2,-65.958,0.06602,6.8792e-13,-3.9148e-16,124.7,-177.2,-65.958,-42.411,0,0.016202,0,1,2.845,0,-2.845,0
0,0,0,0,0,0,0.00015261,-0.00072283,1.544e-34,4.755e-07,4.4442e-18,-2.5497e-21,2.0411,0.00080999,-0.00072284,2.2718e-32,0.00015261,-42.353,-176.85,-65.833,0.073254,6.8302e-13,-3.9057e-16,124.42,-176.85,-65.833,-42.353,0,0.016206,0,1,2.85,0,-2.85,0
0,0,0,0,0,0,0.00015217,-0.00072131,1.5533e-34,5.2439e-07,4.4106e-18,-2.543e-21,2.0381,0.0008082,-0.00072131,2.2443e-32,0.00015218,-42.295,-176.49,-65.707,0.080771,6.7786e-13,-3.8952e-16,124.15,-176.49,-65.707,-42.295,0,0.01621,0,1,2.855,0,-2.855,0
0,0,0,0,0,0,0.00015174,-0.00071978,1.5625e-34,5.7514e-07,4.3755e-18,-2.5353e-21,2.0351,0.00080642,-0.00071978,2.2159e-32,0.00015174,-42.236,-176.13,-65.581,0.088573,6.7246e-13,-3.8833e-16,123.88,-176.13,-65.581,-42.236,0,0.016213,0,1,2.86,0,-2.86,0
0,0,0,0,0,0,0.00015131,-0.00071825,1.5716e-34,6.2773e-07,4.3387e-18,-2.5268e-21,2.0321,0.00080464,-0.00071826,2.1867e-32,0.00015131,-42.176,-175.76,-65.454,0.096658,6.6681e-13,-3.8701e-16,123.6,-175.76,-65.454,-42.176,0,0.016217,0,1,2.865,0,-2.865,0
0,0,0,0,0,0,0.00015087,-0.00071672,1.5806e-34,6.8216e-07,4.3003e-18,-2.5173e-21,2.0291,0.00080285,-0.00071673,2.1566e-32,0.00015088,-42.116,-175.4,-65.328,0.10503,6.6091e-13,-3.8555e-16,123.33,-175.4,-65.328,-42.116,0,0.01622,0,1,2.87,0,-2.87,0
0,0,0,0,0,0,0.00015044,-0.00071519,1.5895e-34,7.3844e-07,4.2603e-18,-2.507e-21,2.0262,0.00080107,-0.0007152,2.1257e-32,0.00015044,-42.055,-175.04,-65.2,0.11368,6.5476e-13,-3.8395e-16,123.06,-175.04,-65.2,-42.055,0,0.016224,0,1,2.875,0,-2.875,0
0,0,0,0,0,0,0.00015001,-0.00071366,1.5983e-34,7.9657e-07,4.2186e-18,-2.4958e-21,2.0232,0.00079929,-0.00071366,2.094e-32,0.00015002,-41.994,-174.68,-65.073,0.12262,6.4836e-13,-3.8222e-16,122.78,-174.68,-65.073,-41.993,0,0.016228,0,1,2.88,0,-2.88,0
0,0,0,0,0,0,0.00014959,-0.00071213,1.607e-34,8.5654e-07,4.1754e-18,-2.4837e-21,2.0202,0.0007975,-0.00071213,2.0615e-32,0.00014959,-41.931,-174.32,-64.945,0.13184,6.4171e-13,-3.8035e-16,122.51,-174.32,-64.945,-41.931,0,0.016231,0,1,2.885,0,-2.885,0
0,0,0,0,0,0,0.00014916,-0.00071059,1.6156e-34,9.1836e-07,4.1305e-18,-2.4707e-21,2.0172,0.00079572,-0.00071059,2.0281e-32,0.00014916,-41.869,-173.95,-64.817,0.14134,6.3481e-13,-3.7834e-16,122.23,-173.95,-64.817,-41.868,0,0.016235,0,1,2.89,0,-2.89,0
0,0,0,0,0,0,0.00014874,-0.00070905,1.6241e-34,9.8202e-07,4.0839e-18,-2.4569e-21,2.0142,0.00079393,-0.00070906,1.9938e-32,0.00014874,-41.805,-173.59,-64.688,0.15113,6.2766e-13,-3.7619e-16,121.96,-173.59,-64.688,-41.805,0,0.016238,0,1,2.895,0,-2.895,0
0,0,0,0,0,0,0.00014831,-0.00070752,1.6325e-34,1.0475e-06,4.0358e-18,-2.4421e-21,2.0112,0.00079215,-0.00070752,1.9588e-32,0.00014832,-41.742,-173.22,-64.559,0.1612,6.2026e-13,-3.739e-16,121.69,-173.22,-64.559,-41.741,0,0.016242,0,1,2.9,0,-2.9,0
0,0,0,0,0,0,0.00014789,-0.00070598,1.6408e-34,1.1149e-06,3.986e-18,-2.4264e-21,2.0082,0.00079036,-0.00070598,1.9228e-32,0.0001479,-41.677,-172.86,-64.43,0.17156,6.1262e-13,-3.7148e-16,121.41,-172.86,-64.43,-41.676,0,0.016245,0,1,2.905,0,-2.905,0
0,0,0,0,0,0,0.00014747,-0.00070443,1.649e-34,1.1841e-06,3.9346e-18,-2.4099e-21,2.0052,0.00078858,-0.00070444,1.8861e-32,0.00014748,-41.612,-172.49,-64.301,0.1822,6.0472e-13,-3.6892e-16,121.14,-172.49,-64.301,-41.611,0,0.016249,0,1,2.91,0,-2.91,0
0,0,0,0,0,0,0.00014706,-0.00070289,1.6571e-34,1.2551e-06,3.8816e-18,-2.3925e-21,2.0022,0.00078679,-0.0007029,1.8485e-32,0.00014706,-41.546,-172.13,-64.171,0.19312,5.9657e-13,-3.6623e-16,120.86,-172.13,-64.171,-41.546,0,0.016252,0,1,2.915,0,-2.915,0
0,0,0,0,0,0,0.00014664,-0.00070135,1.6651e-34,1.328e-06,3.827e-18,-2.3741e-21,1.9992,0.000785,-0.00070135,1.8101e-32,0.00014664,-41.48,-171.76,-64.04,0.20433,5.8818e-13,-3.6339e-16,120.59,-171.76,-64.04,-41.479,0,0.016256,0,1,2.92,0,-2.92,0
0,0,0,0,0,0,0.00014622,-0.0006998,1.6731e-34,1.4028e-06,3.7707e-18,-2.3549e-21,1.9962,0.00078322,-0.00069981,1.7708e-32,0.00014623,-41.413,-171.39,-63.91,0.21582,5.7953e-13,-3.6042e-16,120.32,-171.39,-63.91,-41.412,0,0.016259,0,1,2.925,0,-2.925,0
0,0,0,0,0,0,0.00014581,-0.00069825,1.6809e-34,1.4794e-06,3.7129e-18,-2.3348e-21,1.9932,0.00078143,-0.00069826,1.7307e-32,0.00014582,-41.346,-171.02,-63.779,0.22759,5.7064e-13,-3.5731e-16,120.04,-171.02,-63.779,-41.345,0,0.016263,0,1,2.93,0,-2.93,0
0,0,0,0,0,0,0.0001454,-0.00069671,1.6886e-34,1.5578e-06,3.6534e-18,-2.3139e-21,1.9902,0.00077964,-0.00069671,1.6898e-32,0.00014541,-41.278,-170.65,-63.647,0.23965,5.615e-13,-3.5407e-16,119.77,-170.65,-63.647,-41.277,0,0.016266,0,1,2.935,0,-2.935,0
0,0,0,0,0,0,0.00014499,-0.00069516,1.6962e-34,1.6381e-06,3.5922e-18,-2.292e-21,1.9872,0.00077785,-0.00069516,1.648e-32,0.000145,-41.209,-170.28,-63.515,0.252,5.521e-13,-3.5068e-16,119.49,-170.28,-63.515,-41.208,0,0.01627,0,1,2.94,0,-2.94,0
0,0,0,0,0,0,0.00014458,-0.0006936,1.7037e-34,1.7202e-06,3.5295e-18,-2.2692e-21,1.9843,0.00077606,-0.00069361,1.6054e-32,0.00014459,-41.14,-169.91,-63.383,0.26462,5.4246e-13,-3.4716e-16,119.22,-169.92,-63.383,-41.138,0,0.016273,0,1,2.945,0,-2.945,0
0,0,0,0,0,0,0.00014418,-0.00069205,1.7111e-34,1.8042e-06,3.4651e-18,-2.2456e-21,1.9813,0.00077427,-0.00069206,1.5619e-32,0.00014418,-41.07,-169.54,-63.251,0.27753,5.3257e-13,-3.435e-16,118.94,-169.54,-63.251,-41.068,0,0.016276,0,1,2.95,0,-2.95,0
0,0,0,0,0,0,0.00014377,-0.0006905,1.7185e-34,1.89e-06,3.3991e-18,-2.221e-21,1.9783,0.00077249,-0.0006905,1.5176e-32,0.00014378,-40.999,-169.17,-63.118,0.29073,5.2243e-13,-3.3971e-16,118.67,-169.17,-63.118,-40.998,0,0.01628,0,1,2.955,0,-2.955,0
0,0,0,0,0,0,0.00014337,-0.00068894,1.7257e-34,1.9776e-06,3.3315e-18,-2.1956e-21,1.9753,0.0007707,-0.00068895,1.4725e-32,0.00014338,-40.928,-168.8,-62.985,0.3042,5.1204e-13,-3.3578e-16,118.4,-168.8,-62.985,-40.927,0,0.016283,0,1,2.96,0,-2.96,0
0,0,0,0,0,0,0.00014297,-0.00068738,1.7328e-34,2.0671e-06,3.2623e-18,-2.1693e-21,1.9723,0.00076891,-0.00068739,1.4265e-32,0.00014298,-40.856,-168.43,-62.851,0.31797,5.014e-13,-3.3171e-16,118.12,-168.43,-62.851,-40.855,0,0.016287,0,1,2.965,0,-2.965,0
0,0,0,0,0,0,0.00014257,-0.00068582,1.7398e-34,2.1585e-06,3.1914e-18,-2.142e-21,1.9693,0.00076712,-0.00068583,1.3797e-32,0.00014258,-40.784,-168.06,-62.718,0.33201,4.905e-13,-3.275e-16,117.85,-168.06,-62.718,-40.783,0,0.01629,0,1,2.97,0,-2.97,0
0,0,0,0,0,0,0.00014217,-0.00068426,1.7467e-34,2.2517e-06,3.1189e-18,-2.1139e-21,1.9663,0.00076532,-0.00068427,1.3321e-32,0.00014218,-40.711,-167.68,-62.583,0.34634,4.7937e-13,-3.2315e-16,117.57,-167.68,-62.583,-40.71,0,0.016294,0,1,2.975,0,-2.975,0
0,0,0,0,0,0,0.00014177,-0.0006827,1.7536e-34,2.3467e-06,3.0448e-18,-2.085e-21,1.9633,0.00076353,-0.00068271,1.2836e-32,0.00014178,-40.638,-167.31,-62.449,0.36095,4.6798e-13,-3.1867e-16,117.3,-167.31,-62.449,-40.636,0,0.016297,0,1,2.98,0,-2.98,0
0,0,0,0,0,0,0.00014138,-0.00068114,1.7603e-34,2.4436e-06,2.969e-18,-2.0551e-21,1.9603,0.00076174,-0.00068115,1.2343e-32,0.00014139,-40.563,-166.93,-62.314,0.37585,4.5634e-13,-3.1405e-16,117.02,-166.93,-62.314,-40.562,0,0.0163,0,1,2.985,0,-2.985,0
0,0,0,0,0,0,0.00014098,-0.00067957,1.7669e-34,2.5423e-06,2.8917e-18,-2.0243e-21,1.9573,0.00075995,-0.00067959,1.1841e-32,0.00014099,-40.489,-166.56,-62.179,0.39103,4.4445e-13,-3.0929e-16,116.75,-166.56,-62.179,-40.487,0,0.016304,0,1,2.99,0,-2.99,0
0,0,0,0,0,0,0.00014059,-0.00067801,1.7735e-34,2.6429e-06,2.8127e-18,-1.9927e-21,1.9543,0.00075816,-0.00067802,1.1332e-32,0.0001406,-40.413,-166.18,-62.043,0.4065,4.3231e-13,-3.044e-16,116.47,-166.18,-62.043,-40.412,0,0.016307,0,1,2.995,0,-2.995,0
0,0,0,0,0,0,0.0001402,-0.00067644,1.7799e-34,2.7454e-06,2.7321e-18,-1.9601e-21,1.9513,0.00075636,-0.00067645,1.0813e-32,0.00014021,-40.337,-165.81,-61.907,0.42225,4.1993e-13,-2.9937e-16,116.2,-165.81,-61.907,-40.336,0,0.01631,0,1,3,0,-3,0
0,0,0,0,0,0,0.00013981,-0.00067487,1.7862e-34,2.8496e-06,2.6499e-18,-1.9267e-21,1.9483,0.00075457,-0.00067488,1.0286e-32,0.00013982,-40.261,-165.43,-61.771,0.43828,4.0729e-13,-2.942e-16,115.92,-165.43,-61.771,-40.259,0,0.016314,0,1,3.005,0,-3.005,0
0,0,0,0,0,0,0.00013943,-0.0006733,1.7925e-34,2.9557e-06,2.566e-18,-1.8924e-21,1.9453,0.00075278,-0.00067331,9.7514e-33,0.00013944,-40.184,-165.05,-61.634,0.4546,3.944e-13,-2.8889e-16,115.65,-165.05,-61.634,-40.182,0,0.016317,0,1,3.01,0,-3.01,0
0,0,0,0,0,0,0.00013904,-0.00067173,1.7986e-34,3.0637e-06,2.4805e-18,-1.8571e-21,1.9423,0.00075098,-0.00067174,9.2079e-33,0.00013905,-40.106,-164.67,-61.497,0.4712,3.8127e-13,-2.8345e-16,115.37,-164.68,-61.497,-40.104,0,0.01632,0,1,3.015,0,-3.015,0
0,0,0,0,0,0,0.00013866,-0.00067016,1.8046e-34,3.1735e-06,2.3934e-18,-1.821e-21,1.9394,0.00074919,-0.00067017,8.6561e-33,0.00013867,-40.028,-164.29,-61.36,0.48808,3.6789e-13,-2.7786e-16,115.1,-164.3,-61.36,-40.026,0,0.016324,0,1,3.02,0,-3.02,0
0,0,0,0,0,0,0.00013827,-0.00066858,1.8106e-34,3.2852e-06,2.3047e-18,-1.7841e-21,1.9364,0.0007474,-0.0006686,8.0959e-33,0.00013829,-39.949,-163.92,-61.222,0.50525,3.5425e-13,-2.7215e-16,114.82,-163.92,-61.222,-39.947,0,0.016327,0,1,3.025,0,-3.025,0
0,0,0,0,0,0,0.00013789,-0.00066701,1.8164e-34,3.3987e-06,2.2144e-18,-1.7462e-21,1.9334,0.0007456,-0.00066702,7.5273e-33,0.00013791,-39.869,-163.54,-61.084,0.5227,3.4037e-13,-2.6629e-16,114.55,-163.54,-61.084,-39.867,0,0.01633,0,1,3.03,0,-3.03,0
0,0,0,0,0,0,0.00013752,-0.00066555,1.8235e-34,3.4809e-06,2.1236e-18,-1.6905e-21,1.9306,0.00074393,-0.00066557,7.0498e-33,0.00013754,-39.801,-163.19,-60.959,0.53535,3.2642e-13,-2.5771e-16,114.29,-163.19,-60.959,-39.799,0,0.016334,0,1,3.035,0,-3.035,0
0,0,0,0,0,0,0.00013719,-0.00066468,1.8369e-34,3.4051e-06,2.0385e-18,-1.554e-21,1.929,0.00074286,-0.00066469,7.0475e-33,0.0001372,-39.791,-162.99,-60.897,0.52369,3.1334e-13,-2.3683e-16,114.12,-162.99,-60.897,-39.789,0,0.016337,0,1,3.04,0,-3.04,0
0,0,0,0,0,0,0.00013685,-0.0006638,1.85e-34,3.3301e-06,1.9544e-18,-1.4198e-21,1.9275,0.00074178,-0.00066382,7.0447e-33,0.00013686,-39.78,-162.8,-60.834,0.51216,3.004e-13,-2.1628e-16,113.96,-162.8,-60.834,-39.778,0,0.01634,0,1,3.045,0,-3.045,0
0,0,0,0,0,0,0.00013652,-0.00066293,1.8629e-34,3.2559e-06,1.8711e-18,-1.2878e-21,1.9259,0.00074071,-0.00066294,7.0414e-33,0.00013653,-39.769,-162.6,-60.772,0.50074,2.8761e-13,-1.9608e-16,113.8,-162.6,-60.772,-39.767,0,0.016344,0,1,3.05,0,-3.05,0
0,0,0,0,0,0,0.00013618,-0.00066206,1.8756e-34,3.1825e-06,1.7888e-18,-1.158e-21,1.9243,0.00073963,-0.00066207,7.0375e-33,0.0001362,-39.758,-162.4,-60.709,0.48945,2.7496e-13,-1.7622e-16,113.63,-162.4,-60.709,-39.756,0,0.016347,0,1,3.055,0,-3.055,0
0,0,0,0,0,0,0.00013585,-0.00066118,1.8881e-34,3.1098e-06,1.7075e-18,-1.0305e-21,1.9227,0.00073856,-0.00066119,7.0332e-33,0.00013586,-39.747,-162.21,-60.647,0.47828,2.6245e-13,-1.5669e-16,113.47,-162.21,-60.647,-39.745,0,0.01635,0,1,3.06,0,-3.06,0
0,0,0,0,0,0,0.00013552,-0.00066031,1.9004e-34,3.038e-06,1.627e-18,-9.0515e-22,1.9211,0.00073749,-0.00066032,7.0284e-33,0.00013553,-39.735,-162.01,-60.584,0.46723,2.5008e-13,-1.3751e-16,113.3,-162.01,-60.584,-39.733,0,0.016354,0,1,3.065,0,-3.065,0
0,0,0,0,0,0,0.00013519,-0.00065943,1.9124e-34,2.9669e-06,1.5475e-18,-7.8204e-22,1.9196,0.00073641,-0.00065944,7.023e-33,0.0001352,-39.723,-161.81,-60.521,0.4563,2.3786e-13,-1.1867e-16,113.14,-161.81,-60.521,-39.721,0,0.016357,0,1,3.07,0,-3.07,0
0,0,0,0,0,0,0.00013486,-0.00065855,1.9242e-34,2.8966e-06,1.4689e-18,-6.6114e-22,1.918,0.00073534,-0.00065857,7.0172e-33,0.00013487,-39.711,-161.61,-60.458,0.4455,2.2578e-13,-1.0017e-16,112.97,-161.62,-60.458,-39.709,0,0.01636,0,1,3.075,0,-3.075,0
0,0,0,0,0,0,0.00013453,-0.00065768,1.9358e-34,2.8271e-06,1.3913e-18,-5.4247e-22,1.9164,0.00073427,-0.00065769,7.0109e-33,0.00013454,-39.698,-161.42,-60.395,0.43481,2.1385e-13,-8.2005e-17,112.81,-161.42,-60.395,-39.696,0,0.016364,0,1,3.08,0,-3.08,0
0,0,0,0,0,0,0.0001342,-0.0006568,1.9472e-34,2.7584e-06,1.3146e-18,-4.2602e-22,1.9148,0.00073319,-0.00065681,7.004e-33,0.00013421,-39.685,-161.22,-60.331,0.42424,2.0206e-13,-6.4183e-17,112.64,-161.22,-60.331,-39.683,0,0.016367,0,1,3.085,0,-3.085,0
0,0,0,0,0,0,0.00013387,-0.00065592,1.9583e-34,2.6905e-06,1.2388e-18,-3.1179e-22,1.9132,0.00073212,-0.00065593,6.9967e-33,0.00013389,-39.672,-161.02,-60.268,0.4138,1.9041e-13,-4.6702e-17,112.48,-161.02,-60.268,-39.67,0,0.01637,0,1,3.09,0,-3.09,0
0,0,0,0,0,0,0.00013355,-0.00065505,1.9693e-34,2.6234e-06,1.164e-18,-1.9977e-22,1.9116,0.00073105,-0.00065506,6.9889e-33,0.00013356,-39.658,-160.82,-60.204,0.40348,1.789e-13,-2.9561e-17,112.31,-160.82,-60.204,-39.656,0,0.016374,0,1,3.095,0,-3.095,0
0,0,0,0,0,0,0.00013322,-0.00065417,1.98e-34,2.5571e-06,1.0901e-18,-8.9982e-23,1.9101,0.00072998,-0.00065418,6.9805e-33,0.00013323,-39.645,-160.62,-60.14,0.39328,1.6754e-13,-1.276e-17,112.15,-160.63,-60.14,-39.643,0,0.016377,0,1,3.1,0,-3.1,0
0,0,0,0,0,0,0.0001329,-0.00065329,1.9904e-34,2.4915e-06,1.0171e-18,1.7593e-23,1.9085,0.0007289,-0.0006533,6.9717e-33,0.00013291,-39.63,-160.42,-60.076,0.3832,1.5632e-13,3.7004e-18,111.98,-160.43,-60.076,-39.629,0,0.01638,0,1,3.105,0,-3.105,0
0,0,0,0,0,0,0.00013257,-0.00065241,2.0007e-34,2.4267e-06,9.4503e-19,1.2294e-22,1.9069,0.00072783,-0.00065242,6.9623e-33,0.00013258,-39.616,-160.23,-60.012,0.37324,1.4525e-13,1.982e-17,111.82,-160.23,-60.012,-39.614,0,0.016384,0,1,3.11,0,-3.11,0
0,0,0,0,0,0,0.00013225,-0.00065153,2.0107e-34,2.3628e-06,8.7391e-19,2.2608e-22,1.9053,0.00072676,-0.00065154,6.9525e-33,0.00013226,-39.601,-160.03,-59.948,0.3634,1.3432e-13,3.56e-17,111.65,-160.03,-59.948,-39.6,0,0.016387,0,1,3.115,0,-3.115,0
0,0,0,0,0,0,0.00013193,-0.00065065,2.0205e-34,2.2996e-06,8.0372e-19,3.2699e-22,1.9037,0.00072569,-0.00065066,6.9421e-33,0.00013194,-39.587,-159.83,-59.883,0.35368,1.2353e-13,5.104e-17,111.49,-159.83,-59.883,-39.585,0,0.01639,0,1,3.12,0,-3.12,0
0,0,0,0,0,0,0.00013161,-0.00064977,2.0301e-34,2.2372e-06,7.3446e-19,4.2568e-22,1.9022,0.00072462,-0.00064978,6.9313e-33,0.00013162,-39.571,-159.63,-59.819,0.34409,1.1288e-13,6.614e-17,111.33,-159.63,-59.819,-39.57,0,0.016393,0,1,3.125,0,-3.125,0
0,0,0,0,0,0,0.00013129,-0.00064889,2.0395e-34,2.1756e-06,6.6614e-19,5.2215e-22,1.9006,0.00072354,-0.0006489,6.9199e-33,0.0001313,-39.556,-159.43,-59.754,0.33461,1.0238e-13,8.0899e-17,111.16,-159.43,-59.754,-39.554,0,0.016397,0,1,3.13,0,-3.13,0
0,0,0,0,0,0,0.00013097,-0.00064801,2.0486e-34,2.1148e-06,5.9875e-19,6.164e-22,1.899,0.00072247,-0.00064802,6.908e-33,0.00013098,-39.54,-159.23,-59.689,0.32526,9.2019e-14,9.5317e-17,111,-159.23,-59.689,-39.539,0,0.0164,0,1,3.135,0,-3.135,0
0,0,0,0,0,0,0.00013065,-0.00064713,2.0576e-34,2.0547e-06,5.3229e-19,7.0844e-22,1.8974,0.0007214,-0.00064714,6.8957e-33,0.00013066,-39.524,-159.03,-59.624,0.31603,8.1802e-14,1.094e-16,110.83,-159.03,-59.624,-39.523,0,0.016403,0,1,3.14,0,-3.14,0
0,0,0,0,0,0,0.00013033,-0.00064624,2.0663e-34,1.9955e-06,4.6676e-19,7.9824e-22,1.8958,0.00072033,-0.00064625,6.8828e-33,0.00013034,-39.508,-158.83,-59.559,0.30692,7.173e-14,1.2313e-16,110.67,-158.83,-59.559,-39.506,0,0.016406,0,1,3.145,0,-3.145,0
0,0,0,0,0,0,0.00013002,-0.00064536,2.0747e-34,1.937e-06,4.0216e-19,8.8584e-22,1.8943,0.00071926,-0.00064537,6.8695e-33,0.00013003,-39.491,-158.63,-59.494,0.29793,6.18e-14,1.3653e-16,110.5,-158.63,-59.494,-39.49,0,0.01641,0,1,3.15,0,-3.15,0
0,0,0,0,0,0,0.0001297,-0.00064448,2.083e-34,1.8793e-06,3.385e-19,9.7121e-22,1.8927,0.00071819,-0.00064449,6.8556e-33,0.00012971,-39.474,-158.43,-59.428,0.28906,5.2013e-14,1.4959e-16,110.34,-158.43,-59.428,-39.473,0,0.016413,0,1,3.155,0,-3.155,0
0,0,0,0,0,0,0.00012939,-0.0006436,2.091e-34,1.8225e-06,2.7576e-19,1.0544e-21,1.8911,0.00071712,-0.0006436,6.8412e-33,0.00012939,-39.457,-158.22,-59.362,0.28031,4.237e-14,1.6231e-16,110.17,-158.23,-59.362,-39.456,0,0.016416,0,1,3.16,0,-3.16,0
0,0,0,0,0,0,0.00012907,-0.00064271,2.0988e-34,1.7664e-06,2.1396e-19,1.1353e-21,1.8895,0.00071605,-0.00064272,6.8264e-33,0.00012908,-39.439,-158.02,-59.297,0.27169,3.287e-14,1.7469e-16,110.01,-158.02,-59.297,-39.438,0,0.016419,0,1,3.165,0,-3.165,0
0,0,0,0,0,0,0.00012876,-0.00064183,2.1064e-34,1.7111e-06,1.5309e-19,1.214e-21,1.8879,0.00071498,-0.00064184,6.811e-33,0.00012877,-39.422,-157.82,-59.231,0.26318,2.3513e-14,1.8672e-16,109.85,-157.82,-59.231,-39.42,0,0.016423,0,1,3.17,0,-3.17,0
0,0,0,0,0,0,0.00012845,-0.00064094,2.1138e-34,1.6566e-06,9.3152e-20,1.2905e-21,1.8864,0.00071391,-0.00064095,6.7951e-33,0.00012845,-39.404,-157.62,-59.165,0.2548,1.4299e-14,1.9842e-16,109.68,-157.62,-59.165,-39.402,0,0.016426,0,1,3.175,0,-3.175,0
0,0,0,0,0,0,0.00012814,-0.00064006,2.1209e-34,1.6028e-06,3.4144e-20,1.3648e-21,1.8848,0.00071284,-0.00064007,6.7787e-33,0.00012814,-39.385,-157.42,-59.098,0.24654,5.2285e-15,2.0978e-16,109.52,-157.42,-59.098,-39.384,0,0.016429,0,1,3.18,0,-3.18,0
0,0,0,0,0,0,0.00012782,-0.00063917,2.1278e-34,1.5499e-06,-2.393e-20,1.4368e-21,1.8832,0.00071177,-0.00063918,6.7618e-33,0.00012783,-39.367,-157.22,-59.032,0.2384,-3.6985e-15,2.2079e-16,109.35,-157.22,-59.032,-39.365,0,0.016432,0,1,3.185,0,-3.185,0
0,0,0,0,0,0,0.00012752,-0.00063829,2.1345e-34,1.4977e-06,-8.1075e-20,1.5066e-21,1.8816,0.0007107,-0.00063829,6.7445e-33,0.00012752,-39.348,-157.01,-58.965,0.23038,-1.2483e-14,2.3147e-16,109.19,-157.01,-58.965,-39.347,0,0.016435,0,1,3.19,0,-3.19,0
0,0,0,0,0,0,0.00012721,-0.0006374,2.141e-34,1.4464e-06,-1.3729e-19,1.5742e-21,1.88,0.00070963,-0.00063741,6.7266e-33,0.00012721,-39.328,-156.81,-58.899,0.22248,-2.1123e-14,2.418e-16,109.03,-156.81,-58.899,-39.327,0,0.016439,0,1,3.195,0,-3.195,0
0,0,0,0,0,0,0.0001269,-0.00063651,2.1472e-34,1.3958e-06,-1.9257e-19,1.6396e-21,1.8784,0.00070856,-0.00063652,6.7082e-33,0.00012691,-39.309,-156.61,-58.832,0.2147,-2.9621e-14,2.518e-16,108.86,-156.61,-58.832,-39.308,0,0.016442,0,1,3.2,0,-3.2,0
0,0,0,0,0,0,0.00012659,-0.00063563,2.1533e-34,1.346e-06,-2.4691e-19,1.7028e-21,1.8769,0.00070749,-0.00063563,6.6893e-33,0.0001266,-39.289,-156.4,-58.765,0.20704,-3.7975e-14,2.6145e-16,108.7,-156.41,-58.765,-39.288,0,0.016445,0,1,3.205,0,-3.205,0
0,0,0,0,0,0,0.00012629,-0.00063474,2.1591e-34,1.297e-06,-3.0033e-19,1.7638e-21,1.8753,0.00070642,-0.00063475,6.6699e-33,0.00012629,-39.269,-156.2,-58.698,0.19951,-4.6187e-14,2.7077e-16,108.53,-156.2,-58.698,-39.268,0,0.016448,0,1,3.21,0,-3.21,0
0,0,0,0,0,0,0.00012598,-0.00063385,2.1647e-34,1.2488e-06,-3.5282e-19,1.8225e-21,1.8737,0.00070535,-0.00063386,6.65e-33,0.00012599,-39.249,-156,-58.63,0.19209,-5.4255e-14,2.7974e-16,108.37,-156,-58.63,-39.248,0,0.016451,0,1,3.215,0,-3.215,0
0,0,0,0,0,0,0.00012568,-0.00063296,2.17e-34,1.2014e-06,-4.0437e-19,1.879e-21,1.8721,0.00070428,-0.00063297,6.6296e-33,0.00012568,-39.228,-155.79,-58.563,0.1848,-6.218e-14,2.8838e-16,108.2,-155.79,-58.563,-39.227,0,0.016455,0,1,3.22,0,-3.22,0
0,0,0,0,0,0,0.00012537,-0.00063207,2.1752e-34,1.1547e-06,-4.5499e-19,1.9333e-21,1.8705,0.00070321,-0.00063208,6.6087e-33,0.00012538,-39.207,-155.59,-58.495,0.17763,-6.9961e-14,2.9667e-16,108.04,-155.59,-58.495,-39.206,0,0.016458,0,1,3.225,0,-3.225,0
0,0,0,0,0,0,0.00012507,-0.00063119,2.1801e-34,1.1089e-06,-5.0468e-19,1.9854e-21,1.869,0.00070214,-0.00063119,6.5873e-33,0.00012508,-39.186,-155.39,-58.427,0.17058,-7.7599e-14,3.0463e-16,107.88,-155.39,-58.427,-39.185,0,0.016461,0,1,3.23,0,-3.23,0
0,0,0,0,0,0,0.00012477,-0.0006303,2.1848e-34,1.0638e-06,-5.5344e-19,2.0352e-21,1.8674,0.00070107,-0.0006303,6.5654e-33,0.00012477,-39.165,-155.18,-58.36,0.16365,-8.5094e-14,3.1224e-16,107.71,-155.18,-58.36,-39.164,0,0.016464,0,1,3.235,0,-3.235,0
0,0,0,0,0,0,0.00012447,-0.00062941,2.1892e-34,1.0196e-06,-6.0127e-19,2.0828e-21,1.8658,0.0007,-0.00062941,6.543e-33,0.00012447,-39.143,-154.98,-58.291,0.15684,-9.2446e-14,3.1951e-16,107.55,-154.98,-58.291,-39.142,0,0.016467,0,1,3.24,0,-3.24,0
0,0,0,0,0,0,0.00012417,-0.00062851,2.1935e-34,9.7607e-07,-6.4816e-19,2.1282e-21,1.8642,0.00069894,-0.00062852,6.5201e-33,0.00012417,-39.121,-154.77,-58.223,0.15016,-9.9655e-14,3.2645e-16,107.38,-154.77,-58.223,-39.12,0,0.01647,0,1,3.245,0,-3.245,0
0,0,0,0,0,0,0.00012387,-0.00062762,2.1975e-34,9.3337e-07,-6.9413e-19,2.1714e-21,1.8626,0.00069787,-0.00062763,6.4967e-33,0.00012387,-39.098,-154.57,-58.155,0.14359,-1.0672e-13,3.3304e-16,107.22,-154.57,-58.155,-39.098,0,0.016474,0,1,3.25,0,-3.25,0
0,0,0,0,0,0,0.00012357,-0.00062673,2.2013e-34,8.9146e-07,-7.3916e-19,2.2124e-21,1.8611,0.0006968,-0.00062674,6.4728e-33,0.00012357,-39.076,-154.36,-58.086,0.13715,-1.1364e-13,3.3929e-16,107.06,-154.36,-58.086,-39.075,0,0.016477,0,1,3.255,0,-3.255,0
0,0,0,0,0,0,0.00012327,-0.00062584,2.2049e-34,8.5035e-07,-7.8326e-19,2.2511e-21,1.8595,0.00069573,-0.00062585,6.4484e-33,0.00012328,-39.053,-154.16,-58.018,0.13082,-1.2042e-13,3.452e-16,106.89,-154.16,-58.018,-39.052,0,0.01648,0,1,3.26,0,-3.26,0
0,0,0,0,0,0,0.00012298,-0.00062495,2.2082e-34,8.1002e-07,-8.2643e-19,2.2877e-21,1.8579,0.00069466,-0.00062495,6.4235e-33,0.00012298,-39.03,-153.95,-57.949,0.12462,-1.2706e-13,3.5078e-16,106.73,-153.95,-57.949,-39.029,0,0.016483,0,1,3.265,0,-3.265,0
0,0,0,0,0,0,0.00012268,-0.00062406,2.2114e-34,7.7047e-07,-8.6866e-19,2.322e-21,1.8563,0.00069359,-0.00062406,6.3981e-33,0.00012269,-39.006,-153.74,-57.88,0.11854,-1.3355e-13,3.5601e-16,106.56,-153.75,-57.88,-39.005,0,0.016486,0,1,3.27,0,-3.27,0
0,0,0,0,0,0,0.00012239,-0.00062316,2.2143e-34,7.3172e-07,-9.0997e-19,2.3541e-21,1.8547,0.00069253,-0.00062317,6.3722e-33,0.00012239,-38.982,-153.54,-57.811,0.11258,-1.399e-13,3.609e-16,106.4,-153.54,-57.811,-38.982,0,0.016489,0,1,3.275,0,-3.275,0
0,0,0,0,0,0,0.00012209,-0.00062227,2.217e-34,6.9375e-07,-9.5034e-19,2.3839e-21,1.8532,0.00069146,-0.00062227,6.3457e-33,0.0001221,-38.958,-153.33,-57.742,0.10674,-1.4611e-13,3.6545e-16,106.24,-153.33,-57.742,-38.958,0,0.016492,0,1,3.28,0,-3.28,0
0,0,0,0,0,0,0.0001218,-0.00062138,2.2194e-34,6.5658e-07,-9.8978e-19,2.4116e-21,1.8516,0.00069039,-0.00062138,6.3188e-33,0.0001218,-38.934,-153.13,-57.672,0.10102,-1.5217e-13,3.6966e-16,106.07,-153.13,-57.672,-38.933,0,0.016495,0,1,3.285,0,-3.285,0
0,0,0,0,0,0,0.00012151,-0.00062048,2.2217e-34,6.2019e-07,-1.0283e-18,2.437e-21,1.85,0.00068933,-0.00062048,6.2914e-33,0.00012151,-38.909,-152.92,-57.603,0.095429,-1.5809e-13,3.7353e-16,105.91,-152.92,-57.603,-38.909,0,0.016499,0,1,3.29,0,-3.29,0
0,0,0,0,0,0,0.00012122,-0.00061959,2.2237e-34,5.8458e-07,-1.0659e-18,2.4602e-21,1.8484,0.00068826,-0.00061959,6.2635e-33,0.00012122,-38.884,-152.71,-57.533,0.089954,-1.6386e-13,3.7706e-16,105.75,-152.71,-57.533,-38.884,0,0.016502,0,1,3.295,0,-3.295,0
0,0,0,0,0,0,0.00012093,-0.00061869,2.2255e-34,5.4977e-07,-1.1025e-18,2.4812e-21,1.8468,0.00068719,-0.00061869,6.235e-33,0.00012093,-38.859,-152.5,-57.463,0.0846,-1.695e-13,3.8025e-16,105.58,-152.51,-57.463,-38.859,0,0.016505,0,1,3.3,0,-3.3,0
0,0,0,0,0,0,0.00012064,-0.0006178,2.2271e-34,5.1575e-07,-1.1382e-18,2.5e-21,1.8453,0.00068612,-0.0006178,6.2061e-33,0.00012064,-38.834,-152.3,-57.393,0.079368,-1.7499e-13,3.831e-16,105.42,-152.3,-57.393,-38.833,0,0.016508,0,1,3.305,0,-3.305,0
0,0,0,0,0,0,0.00012035,-0.0006169,2.2284e-34,4.8251e-07,-1.173e-18,2.5165e-21,1.8437,0.00068506,-0.0006169,6.1767e-33,0.00012035,-38.808,-152.09,-57.323,0.074257,-1.8033e-13,3.8561e-16,105.25,-152.09,-57.323,-38.807,0,0.016511,0,1,3.31,0,-3.31,0
0,0,0,0,0,0,0.00012006,-0.000616,2.2296e-34,4.5006e-07,-1.2069e-18,2.5308e-21,1.8421,0.00068399,-0.00061601,6.1467e-33,0.00012006,-38.782,-151.88,-57.252,0.069267,-1.8554e-13,3.8778e-16,105.09,-151.88,-57.252,-38.781,0,0.016514,0,1,3.315,0,-3.315,0
0,0,0,0,0,0,0.00011977,-0.00061511,2.2305e-34,4.184e-07,-1.2398e-18,2.5429e-21,1.8405,0.00068292,-0.00061511,6.1163e-33,0.00011978,-38.755,-151.67,-57.182,0.064398,-1.906e-13,3.8961e-16,104.93,-151.67,-57.182,-38.755,0,0.016517,0,1,3.32,0,-3.32,0
0,0,0,0,0,0,0.00011949,-0.00061421,2.2312e-34,3.8753e-07,-1.2718e-18,2.5528e-21,1.8389,0.00068186,-0.00061421,6.0854e-33,0.00011949,-38.729,-151.47,-57.111,0.05965,-1.9552e-13,3.911e-16,104.76,-151.47,-57.111,-38.728,0,0.01652,0,1,3.325,0,-3.325,0
0,0,0,0,0,0,0.0001192,-0.00061331,2.2316e-34,3.5744e-07,-1.3028e-18,2.5605e-21,1.8373,0.00068079,-0.00061331,6.0539e-33,0.00011921,-38.702,-151.26,-57.041,0.055024,-2.0029e-13,3.9225e-16,104.6,-151.26,-57.041,-38.702,0,0.016523,0,1,3.33,0,-3.33,0
0,0,0,0,0,0,0.00011892,-0.00061241,2.2319e-34,3.2814e-07,-1.333e-18,2.5659e-21,1.8358,0.00067973,-0.00061241,6.022e-33,0.00011892,-38.675,-151.05,-56.97,0.050518,-2.0492e-13,3.9306e-16,104.44,-151.05,-56.97,-38.674,0,0.016526,0,1,3.335,0,-3.335,0
0,0,0,0,0,0,0.00011864,-0.00061151,2.2319e-34,2.9964e-07,-1.3621e-18,2.5692e-21,1.8342,0.00067866,-0.00061152,5.9895e-33,0.00011864,-38.647,-150.84,-56.899,0.046134,-2.0941e-13,3.9352e-16,104.27,-150.84,-56.899,-38.647,0,0.016529,0,1,3.34,0,-3.34,0
0,0,0,0,0,0,0.00011835,-0.00061061,2.2317e-34,2.7192e-07,-1.3904e-18,2.5702e-21,1.8326,0.0006776,-0.00061062,5.9566e-33,0.00011836,-38.619,-150.63,-56.827,0.041872,-2.1375e-13,3.9365e-16,104.11,-150.63,-56.827,-38.619,0,0.016533,0,1,3.345,0,-3.345,0
0,0,0,0,0,0,0.00011807,-0.00060972,2.2313e-34,2.4498e-07,-1.4177e-18,2.569e-21,1.831,0.00067653,-0.00060972,5.9231e-33,0.00011807,-38.591,-150.42,-56.756,0.03773,-2.1795e-13,3.9344e-16,103.95,-150.42,-56.756,-38.591,0,0.016536,0,1,3.35,0,-3.35,0
0,0,0,0,0,0,0.00011779,-0.00060882,2.2306e-34,2.1884e-07,-1.4441e-18,2.5655e-21,1.8294,0.00067546,-0.00060882,5.8892e-33,0.00011779,-38.563,-150.21,-56.684,0.033709,-2.2201e-13,3.9289e-16,103.78,-150.21,-56.684,-38.563,0,0.016539,0,1,3.355,0,-3.355,0
0,0,0,0,0,0,0.00011751,-0.00060791,2.2297e-34,1.9348e-07,-1.4696e-18,2.5599e-21,1.8279,0.0006744,-0.00060792,5.8547e-33,0.00011751,-38.534,-150,-56.613,0.02981,-2.2593e-13,3.9199e-16,103.62,-150,-56.613,-38.534,0,0.016542,0,1,3.36,0,-3.36,0
0,0,0,0,0,0,0.00011723,-0.00060701,2.2286e-34,1.6892e-07,-1.4941e-18,2.552e-21,1.8263,0.00067333,-0.00060702,5.8198e-33,0.00011723,-38.505,-149.79,-56.541,0.026032,-2.297e-13,3.9076e-16,103.46,-149.79,-56.541,-38.505,0,0.016545,0,1,3.365,0,-3.365,0
0,0,0,0,0,0,0.00011695,-0.00060611,2.2273e-34,1.4514e-07,-1.5177e-18,2.5419e-21,1.8247,0.00067227,-0.00060611,5.7843e-33,0.00011696,-38.476,-149.58,-56.469,0.022375,-2.3333e-13,3.8919e-16,103.29,-149.58,-56.469,-38.476,0,0.016548,0,1,3.37,0,-3.37,0
0,0,0,0,0,0,0.00011668,-0.00060521,2.2258e-34,1.2215e-07,-1.5404e-18,2.5296e-21,1.8231,0.0006712,-0.00060521,5.7484e-33,0.00011668,-38.447,-149.37,-56.397,0.01884,-2.3681e-13,3.8727e-16,103.13,-149.37,-56.397,-38.447,0,0.016551,0,1,3.375,0,-3.375,0
0,0,0,0,0,0,0.0001164,-0.00060431,2.224e-34,9.9941e-08,-1.5622e-18,2.515e-21,1.8215,0.00067014,-0.00060431,5.7119e-33,0.0001164,-38.417,-149.16,-56.325,0.015425,-2.4015e-13,3.8502e-16,102.96,-149.16,-56.325,-38.417,0,0.016554,0,1,3.38,0,-3.38,0
0,0,0,0,0,0,0.00011613,-0.00060341,2.222e-34,7.8527e-08,-1.583e-18,2.4983e-21,1.82,0.00066907,-0.00060341,5.6749e-33,0.00011613,-38.387,-148.95,-56.252,0.012132,-2.4335e-13,3.8243e-16,102.8,-148.95,-56.252,-38.387,0,0.016557,0,1,3.385,0,-3.385,0
0,0,0,0,0,0,0.00011585,-0.0006025,2.2198e-34,5.7899e-08,-1.6028e-18,2.4793e-21,1.8184,0.00066801,-0.0006025,5.6375e-33,0.00011585,-38.356,-148.74,-56.18,0.0089596,-2.4641e-13,3.7949e-16,102.64,-148.74,-56.18,-38.356,0,0.01656,0,1,3.39,0,-3.39,0
0,0,0,0,0,0,0.00011558,-0.0006016,2.2174e-34,3.8061e-08,-1.6218e-18,2.4581e-21,1.8168,0.00066695,-0.0006016,5.5995e-33,0.00011558,-38.326,-148.53,-56.107,0.0059088,-2.4932e-13,3.7622e-16,102.47,-148.53,-56.107,-38.326,0,0.016563,0,1,3.395,0,-3.395,0
0,0,0,0,0,0,0.00011531,-0.0006007,2.2148e-34,1.901e-08,-1.6398e-18,2.4347e-21,1.8152,0.00066588,-0.0006007,5.561e-33,0.00011531,-38.295,-148.32,-56.034,0.002979,-2.5209e-13,3.726e-16,102.31,-148.32,-56.034,-38.295,0,0.016566,0,1,3.4,0,-3.4,0
0,0,0,0,0,0,0.00011503,-0.00059979,2.2119e-34,7.4772e-10,-1.6569e-18,2.4091e-21,1.8136,0.00066482,-0.00059979,5.522e-33,0.00011503,-38.264,-148.1,-55.961,0.00017056,-2.5471e-13,3.6865e-16,102.15,-148.1,-55.961,-38.264,0,0.016569,0,1,3.405,0,-3.405,0
0,0,0,0,0,0,0.00011476,-0.00059889,2.2088e-34,-1.6727e-08,-1.673e-18,2.3812e-21,1.8121,0.00066375,-0.00059889,5.4826e-33,0.00011476,-38.232,-147.89,-55.888,-0.0025168,-2.572e-13,3.6435e-16,101.98,-147.89,-55.888,-38.232,0,0.016572,0,1,3.41,0,-3.41,0
0,0,0,0,0,0,0.00011449,-0.00059798,2.2055e-34,-3.3413e-08,-1.6882e-18,2.3511e-21,1.8105,0.00066269,-0.00059798,5.4426e-33,0.00011449,-38.2,-147.68,-55.814,-0.0050829,-2.5954e-13,3.5971e-16,101.82,-147.68,-55.814,-38.2,0,0.016575,0,1,3.415,0,-3.415,0
0,0,0,0,0,0,0.00011422,-0.00059708,2.2019e-34,-4.9311e-08,-1.7025e-18,2.3188e-21,1.8089,0.00066163,-0.00059708,5.4021e-33,0.00011422,-38.168,-147.47,-55.741,-0.0075279,-2.6173e-13,3.5474e-16,101.66,-147.47,-55.741,-38.168,0,0.016578,0,1,3.42,0,-3.42,0
0,0,0,0,0,0,0.00011396,-0.00059617,2.1982e-34,-6.4421e-08,-1.7159e-18,2.2843e-21,1.8073,0.00066056,-0.00059617,5.3611e-33,0.00011396,-38.136,-147.25,-55.667,-0.0098515,-2.6378e-13,3.4942e-16,101.5,-147.25,-55.667,-38.136,0,0.016581,0,1,3.425,0,-3.425,0
0,0,0,0,0,0,0.00011369,-0.00059527,2.1942e-34,-7.8743e-08,-1.7283e-18,2.2476e-21,1.8057,0.0006595,-0.00059527,5.3196e-33,0.00011369,-38.103,-147.04,-55.593,-0.012054,-2.6569e-13,3.4376e-16,101.33,-147.04,-55.593,-38.103,0,0.016584,0,1,3.43,0,-3.43,0
0,0,0,0,0,0,0.00011342,-0.00059436,2.19e-34,-9.2277e-08,-1.7398e-18,2.2086e-21,1.8042,0.00065844,-0.00059436,5.2777e-33,0.00011342,-38.07,-146.83,-55.52,-0.014135,-2.6746e-13,3.3777e-16,101.17,-146.83,-55.52,-38.07,0,0.016587,0,1,3.435,0,-3.435,0
0,0,0,0,0,0,0.00011316,-0.00059345,2.1855e-34,-1.0502e-07,-1.7504e-18,2.1674e-21,1.8026,0.00065737,-0.00059345,5.2352e-33,0.00011316,-38.037,-146.62,-55.445,-0.016096,-2.6908e-13,3.3143e-16,101.01,-146.62,-55.445,-38.037,0,0.01659,0,1,3.44,0,-3.44,0
0,0,0,0,0,0,0.00011289,-0.00059254,2.1809e-34,-1.1698e-07,-1.76e-18,2.124e-21,1.801,0.00065631,-0.00059254,5.1922e-33,0.00011289,-38.004,-146.4,-55.371,-0.017934,-2.7056e-13,3.2475e-16,100.84,-146.4,-55.371,-38.004,0,0.016593,0,1,3.445,0,-3.445,0
0,0,0,0,0,0,0.00011263,-0.00059164,2.176e-34,-1.2815e-07,-1.7687e-18,2.0784e-21,1.7994,0.00065525,-0.00059164,5.1487e-33,0.00011263,-37.97,-146.19,-55.297,-0.019652,-2.719e-13,3.1774e-16,100.68,-146.19,-55.297,-37.97,0,0.016596,0,1,3.45,0,-3.45,0
0,0,0,0,0,0,0.00011236,-0.00059073,2.1709e-34,-1.3853e-07,-1.7764e-18,2.0306e-21,1.7978,0.00065419,-0.00059073,5.1047e-33,0.00011236,-37.936,-145.97,-55.222,-0.021249,-2.7309e-13,3.1038e-16,100.52,-145.97,-55.222,-37.936,0,0.016599,0,1,3.455,0,-3.455,0
0,0,0,0,0,0,0.0001121,-0.00058982,2.1656e-34,-1.4812e-07,-1.7833e-18,1.9805e-21,1.7962,0.00065312,-0.00058982,5.0602e-33,0.0001121,-37.901,-145.76,-55.148,-0.022724,-2.7414e-13,3.0268e-16,100.35,-145.76,-55.148,-37.902,0,0.016602,0,1,3.46,0,-3.46,0
0,0,0,0,0,0,0.00011184,-0.00058891,2.16e-34,-1.5693e-07,-1.7892e-18,1.9283e-21,1.7947,0.00065206,-0.00058891,5.0152e-33,0.00011184,-37.867,-145.55,-55.073,-0.024078,-2.7505e-13,2.9464e-16,100.19,-145.55,-55.073,-37.867,0,0.016605,0,1,3.465,0,-3.465,0
0,0,0,0,0,0,0.00011158,-0.000588,2.1543e-34,-1.6494e-07,-1.7941e-18,1.8738e-21,1.7931,0.000651,-0.000588,4.9697e-33,0.00011158,-37.832,-145.33,-54.998,-0.025311,-2.7582e-13,2.8626e-16,100.03,-145.33,-54.998,-37.832,0,0.016607,0,1,3.47,0,-3.47,0
0,0,0,0,0,0,0.00011132,-0.00058709,2.1483e-34,-1.7217e-07,-1.7982e-18,1.817e-21,1.7915,0.00064994,-0.00058709,4.9237e-33,0.00011132,-37.797,-145.12,-54.923,-0.026423,-2.7644e-13,2.7754e-16,99.864,-145.12,-54.923,-37.797,0,0.01661,0,1,3.475,0,-3.475,0
0,0,0,0,0,0,0.00011106,-0.00058618,2.1421e-34,-1.7861e-07,-1.8013e-18,1.7581e-21,1.7899,0.00064887,-0.00058618,4.8772e-33,0.00011106,-37.761,-144.9,-54.847,-0.027414,-2.7691e-13,2.6848e-16,99.701,-144.9,-54.847,-37.761,0,0.016613,0,1,3.48,0,-3.48,0
0,0,0,0,0,0,0.0001108,-0.00058527,2.1356e-34,-1.8427e-07,-1.8035e-18,1.6969e-21,1.7883,0.00064781,-0.00058527,4.8302e-33,0.0001108,-37.725,-144.69,-54.772,-0.028283,-2.7725e-13,2.5908e-16,99.538,-144.69,-54.772,-37.726,0,0.016616,0,1,3.485,0,-3.485,0
0,0,0,0,0,0,0.00011055,-0.00058436,2.129e-34,-1.8913e-07,-1.8047e-18,1.6336e-21,1.7868,0.00064675,-0.00058436,4.7827e-33,0.00011055,-37.689,-144.47,-54.696,-0.029031,-2.7744e-13,2.4934e-16,99.375,-144.47,-54.696,-37.689,0,0.016619,0,1,3.49,0,-3.49,0
0,0,0,0,0,0,0.00011029,-0.00058344,2.1221e-34,-1.9321e-07,-1.805e-18,1.568e-21,1.7852,0.00064569,-0.00058344,4.7347e-33,0.00011029,-37.653,-144.26,-54.62,-0.029658,-2.7749e-13,2.3926e-16,99.212,-144.26,-54.62,-37.653,0,0.016622,0,1,3.495,0,-3.495,0
0,0,0,0,0,0,0.00011004,-0.00058253,2.115e-34,-1.9649e-07,-1.8044e-18,1.5001e-21,1.7836,0.00064463,-0.00058253,4.6862e-33,0.00011004,-37.616,-144.04,-54.545,-0.030164,-2.7739e-13,2.2884e-16,99.049,-144.04,-54.545,-37.616,0,0.016625,0,1,3.5,0,-3.5,0
0,0,0,0,0,0,0.00010978,-0.00058162,2.1077e-34,-1.9899e-07,-1.8028e-18,1.4301e-21,1.782,0.00064357,-0.00058162,4.6371e-33,0.00010978,-37.579,-143.82,-54.469,-0.030549,-2.7715e-13,2.1808e-16,98.887,-143.82,-54.469,-37.58,0,0.016628,0,1,3.505,0,-3.505,0
0,0,0,0,0,0,0.00010953,-0.00058071,2.1001e-34,-2.0071e-07,-1.8004e-18,1.3578e-21,1.7804,0.00064251,-0.00058071,4.5876e-33,0.00010953,-37.542,-143.61,-54.392,-0.030812,-2.7677e-13,2.0698e-16,98.724,-143.61,-54.392,-37.542,0,0.016631,0,1,3.51,0,-3.51,0
0,0,0,0,0,0,0.00010928,-0.00057979,2.0923e-34,-2.0163e-07,-1.7969e-18,1.2834e-21,1.7789,0.00064145,-0.00057979,4.5376e-33,0.00010928,-37.505,-143.39,-54.316,-0.030954,-2.7625e-13,1.9554e-16,98.561,-143.39,-54.316,-37.505,0,0.016634,0,1,3.515,0,-3.515,0
0,0,0,0,0,0,0.00010902,-0.00057888,2.0843e-34,-2.0176e-07,-1.7926e-18,1.2067e-21,1.7773,0.00064038,-0.00057888,4.4871e-33,0.00010902,-37.467,-143.17,-54.239,-0.030975,-2.7558e-13,1.8376e-16,98.398,-143.17,-54.239,-37.467,0,0.016637,0,1,3.52,0,-3.52,0
0,0,0,0,0,0,0.00010877,-0.00057796,2.0761e-34,-2.0111e-07,-1.7873e-18,1.1277e-21,1.7757,0.00063932,-0.00057796,4.4361e-33,0.00010877,-37.429,-142.96,-54.163,-0.030875,-2.7477e-13,1.7164e-16,98.235,-142.96,-54.163,-37.429,0,0.01664,0,1,3.525,0,-3.525,0
0,0,0,0,0,0,0.00010852,-0.00057705,2.0677e-34,-1.9967e-07,-1.7811e-18,1.0466e-21,1.7741,0.00063826,-0.00057705,4.3845e-33,0.00010852,-37.39,-142.74,-54.086,-0.030654,-2.7381e-13,1.5918e-16,98.073,-142.74,-54.086,-37.391,0,0.016642,0,1,3.53,0,-3.53,0
0,0,0,0,0,0,0.00010827,-0.00057613,2.059e-34,-1.9744e-07,-1.774e-18,9.6324e-22,1.7725,0.0006372,-0.00057613,4.3325e-33,0.00010827,-37.352,-142.52,-54.009,-0.030311,-2.7271e-13,1.4637e-16,97.91,-142.52,-54.009,-37.352,0,0.016645,0,1,3.535,0,-3.535,0
0,0,0,0,0,0,0.00010803,-0.00057522,2.0501e-34,-1.9442e-07,-1.7659e-18,8.7766e-22,1.771,0.00063614,-0.00057522,4.28e-33,0.00010803,-37.313,-142.3,-53.932,-0.029847,-2.7147e-13,1.3323e-16,97.747,-142.3,-53.932,-37.313,0,0.016648,0,1,3.54,0,-3.54,0
0,0,0,0,0,0,0.00010778,-0.0005743,2.041e-34,-1.9062e-07,-1.7569e-18,7.8986e-22,1.7694,0.00063508,-0.0005743,4.2269e-33,0.00010778,-37.274,-142.09,-53.855,-0.029262,-2.7009e-13,1.1975e-16,97.584,-142.09,-53.855,-37.274,0,0.016651,0,1,3.545,0,-3.545,0
0,0,0,0,0,0,0.00010753,-0.00057339,2.0317e-34,-1.8603e-07,-1.7469e-18,6.9984e-22,1.7678,0.00063402,-0.00057338,4.1734e-33,0.00010753,-37.234,-141.87,-53.777,-0.028556,-2.6856e-13,1.0593e-16,97.422,-141.87,-53.777,-37.234,0,0.016654,0,1,3.55,0,-3.55,0
0,0,0,0,0,0,0.00010729,-0.00057247,2.0222e-34,-1.8064e-07,-1.7361e-18,6.076e-22,1.7662,0.00063296,-0.00057247,4.1194e-33,0.00010729,-37.194,-141.65,-53.7,-0.027729,-2.6689e-13,9.1762e-17,97.259,-141.65,-53.7,-37.195,0,0.016657,0,1,3.555,0,-3.555,0
0,0,0,0,0,0,0.00010704,-0.00057155,2.0124e-34,-1.7447e-07,-1.7243e-18,5.1314e-22,1.7646,0.0006319,-0.00057155,4.0648e-33,0.00010704,-37.154,-141.43,-53.622,-0.02678,-2.6508e-13,7.7258e-17,97.096,-141.43,-53.622,-37.154,0,0.01666,0,1,3.56,0,-3.56,0
0,0,0,0,0,0,0.0001068,-0.00057063,2.0024e-34,-1.6752e-07,-1.7115e-18,4.1645e-22,1.7631,0.00063084,-0.00057063,4.0098e-33,0.0001068,-37.114,-141.21,-53.544,-0.025711,-2.6312e-13,6.2414e-17,96.934,-141.21,-53.544,-37.114,0,0.016662,0,1,3.565,0,-3.565,0
0,0,0,0,0,0,0.00010656,-0.00056972,1.9922e-34,-1.5977e-07,-1.6979e-18,3.1755e-22,1.7615,0.00062978,-0.00056971,3.9543e-33,0.00010656,-37.073,-140.99,-53.466,-0.02452,-2.6102e-13,4.723e-17,96.771,-140.99,-53.466,-37.073,0,0.016665,0,1,3.57,0,-3.57,0
0,0,0,0,0,0,0.00010631,-0.0005688,1.9817e-34,-1.5124e-07,-1.6833e-18,2.1643e-22,1.7599,0.00062873,-0.0005688,3.8982e-33,0.00010631,-37.032,-140.78,-53.388,-0.023208,-2.5877e-13,3.1706e-17,96.608,-140.78,-53.388,-37.033,0,0.016668,0,1,3.575,0,-3.575,0
0,0,0,0,0,0,0.00010607,-0.00056788,1.9711e-34,-1.4191e-07,-1.6677e-18,1.1309e-22,1.7583,0.00062767,-0.00056788,3.8417e-33,0.00010607,-36.991,-140.56,-53.31,-0.021774,-2.5639e-13,1.5842e-17,96.446,-140.56,-53.31,-36.991,0,0.016671,0,1,3.58,0,-3.58,0
0,0,0,0,0,0,0.00010583,-0.00056696,1.9602e-34,-1.318e-07,-1.6513e-18,7.5273e-24,1.7567,0.00062661,-0.00056696,3.7846e-33,0.00010583,-36.95,-140.34,-53.231,-0.02022,-2.5386e-13,-3.6362e-19,96.283,-140.34,-53.231,-36.95,0,0.016674,0,1,3.585,0,-3.585,0
0,0,0,0,0,0,0.00010559,-0.00056604,1.9491e-34,-1.209e-07,-1.6339e-18,-1.0025e-22,1.7551,0.00062555,-0.00056604,3.7271e-33,0.00010559,-36.908,-140.12,-53.153,-0.018544,-2.5118e-13,-1.6908e-17,96.121,-140.12,-53.153,-36.908,0,0.016677,0,1,3.59,0,-3.59,0
0,0,0,0,0,0,0.00010536,-0.00056512,1.9377e-34,-1.0922e-07,-1.6156e-18,-2.1026e-22,1.7536,0.00062449,-0.00056512,3.669e-33,0.00010535,-36.866,-139.9,-53.074,-0.016747,-2.4837e-13,-3.3794e-17,95.958,-139.9,-53.074,-36.866,0,0.016679,0,1,3.595,0,-3.595,0
0,0,0,0,0,0,0.00010512,-0.0005642,1.9262e-34,-9.6742e-08,-1.5963e-18,-3.2248e-22,1.752,0.00062343,-0.0005642,3.6105e-33,0.00010512,-36.823,-139.68,-52.995,-0.014829,-2.4541e-13,-5.1019e-17,95.796,-139.68,-52.995,-36.824,0,0.016682,0,1,3.6,0,-3.6,0
0,0,0,0,0,0,0.00010488,-0.00056328,1.9144e-34,-8.3479e-08,-1.5761e-18,-4.3692e-22,1.7504,0.00062237,-0.00056327,3.5514e-33,0.00010488,-36.781,-139.46,-52.916,-0.01279,-2.4231e-13,-6.8586e-17,95.633,-139.46,-52.916,-36.781,0,0.016685,0,1,3.605,0,-3.605,0
0,0,0,0,0,0,0.00010465,-0.00056235,1.9024e-34,-6.9428e-08,-1.555e-18,-5.5358e-22,1.7488,0.00062131,-0.00056235,3.4918e-33,0.00010464,-36.738,-139.24,-52.837,-0.010629,-2.3906e-13,-8.6491e-17,95.471,-139.24,-52.837,-36.738,0,0.016688,0,1,3.61,0,-3.61,0
0,0,0,0,0,0,0.00010441,-0.00056143,1.8902e-34,-5.4588e-08,-1.533e-18,-6.7247e-22,1.7472,0.00062026,-0.00056143,3.4318e-33,0.00010441,-36.695,-139.02,-52.757,-0.0083477,-2.3567e-13,-1.0474e-16,95.309,-139.01,-52.757,-36.695,0,0.016691,0,1,3.615,0,-3.615,0
0,0,0,0,0,0,0.00010418,-0.00056051,1.8777e-34,-3.8961e-08,-1.51e-18,-7.9357e-22,1.7457,0.0006192,-0.00056051,3.3712e-33,0.00010418,-36.651,-138.79,-52.678,-0.0059448,-2.3214e-13,-1.2332e-16,95.146,-138.79,-52.678,-36.651,0,0.016694,0,1,3.62,0,-3.62,0
0,0,0,0,0,0,0.00010394,-0.00055959,1.8651e-34,-2.2545e-08,-1.4861e-18,-9.1689e-22,1.7441,0.00061814,-0.00055959,3.3101e-33,0.00010394,-36.607,-138.57,-52.598,-0.0034207,-2.2846e-13,-1.4225e-16,94.984,-138.57,-52.598,-36.607,0,0.016696,0,1,3.625,0,-3.625,0
0,0,0,0,0,0,0.00010371,-0.00055866,1.8522e-34,-5.3411e-09,-1.4612e-18,-1.0424e-21,1.7425,0.00061708,-0.00055866,3.2486e-33,0.00010371,-36.563,-138.35,-52.518,-0.00077537,-2.2464e-13,-1.6152e-16,94.821,-138.35,-52.518,-36.563,0,0.016699,0,1,3.63,0,-3.63,0
0,0,0,0,0,0,0.00010348,-0.00055774,1.8391e-34,1.265e-08,-1.4354e-18,-1.1702e-21,1.7409,0.00061603,-0.00055774,3.1865e-33,0.00010348,-36.519,-138.13,-52.438,0.001991,-2.2068e-13,-1.8113e-16,94.659,-138.13,-52.438,-36.519,0,0.016702,0,1,3.635,0,-3.635,0
0,0,0,0,0,0,0.00010325,-0.00055682,1.8257e-34,3.1431e-08,-1.4087e-18,-1.3002e-21,1.7393,0.00061497,-0.00055681,3.1239e-33,0.00010325,-36.474,-137.91,-52.358,0.0048788,-2.1657e-13,-2.0107e-16,94.497,-137.91,-52.358,-36.474,0,0.016705,0,1,3.64,0,-3.64,0
0,0,0,0,0,0,0.00010302,-0.00055589,1.8122e-34,5.0999e-08,-1.3811e-18,-1.4324e-21,1.7378,0.00061391,-0.00055589,3.0609e-33,0.00010302,-36.429,-137.69,-52.278,0.0078875,-2.1233e-13,-2.2136e-16,94.334,-137.69,-52.278,-36.429,0,0.016707,0,1,3.645,0,-3.645,0
0,0,0,0,0,0,0.00010279,-0.00055497,1.7984e-34,7.1355e-08,-1.3525e-18,-1.5668e-21,1.7362,0.00061285,-0.00055496,2.9973e-33,0.00010279,-36.384,-137.46,-52.198,0.011018,-2.0793e-13,-2.4199e-16,94.172,-137.46,-52.198,-36.384,0,0.01671,0,1,3.65,0,-3.65,0
0,0,0,0,0,0,0.00010256,-0.00055404,1.7844e-34,9.2499e-08,-1.323e-18,-1.7035e-21,1.7346,0.0006118,-0.00055404,2.9332e-33,0.00010256,-36.339,-137.24,-52.117,0.014269,-2.034e-13,-2.6296e-16,94.01,-137.24,-52.117,-36.339,0,0.016713,0,1,3.655,0,-3.655,0
0,0,0,0,0,0,0.00010234,-0.00055311,1.7702e-34,1.1443e-07,-1.2926e-18,-1.8423e-21,1.733,0.00061074,-0.00055311,2.8686e-33,0.00010234,-36.293,-137.02,-52.036,0.017641,-1.9872e-13,-2.8427e-16,93.848,-137.02,-52.036,-36.293,0,0.016716,0,1,3.66,0,-3.66,0
0,0,0,0,0,0,0.00010211,-0.00055219,1.7557e-34,1.3715e-07,-1.2612e-18,-1.9834e-21,1.7314,0.00060968,-0.00055219,2.8035e-33,0.00010211,-36.247,-136.79,-51.955,0.021135,-1.939e-13,-3.0592e-16,93.686,-136.79,-51.955,-36.247,0,0.016718,0,1,3.665,0,-3.665,0
0,0,0,0,0,0,0.00010188,-0.00055126,1.7411e-34,1.6066e-07,-1.2289e-18,-2.1267e-21,1.7299,0.00060863,-0.00055126,2.7379e-33,0.00010188,-36.2,-136.57,-51.874,0.02475,-1.8893e-13,-3.2791e-16,93.523,-136.57,-51.874,-36.2,0,0.016721,0,1,3.67,0,-3.67,0
0,0,0,0,0,0,0.00010166,-0.00055033,1.7262e-34,1.8496e-07,-1.1957e-18,-2.2722e-21,1.7283,0.00060757,-0.00055033,2.6719e-33,0.00010166,-36.154,-136.35,-51.793,0.028486,-1.8383e-13,-3.5024e-16,93.361,-136.35,-51.793,-36.154,0,0.016724,0,1,3.675,0,-3.675,0
0,0,0,0,0,0,0.00010144,-0.00054941,1.7111e-34,2.1004e-07,-1.1615e-18,-2.42e-21,1.7267,0.00060651,-0.00054941,2.6053e-33,0.00010144,-36.107,-136.12,-51.712,0.032343,-1.7858e-13,-3.7291e-16,93.199,-136.12,-51.712,-36.107,0,0.016727,0,1,3.68,0,-3.68,0
0,0,0,0,0,0,0.00010121,-0.00054848,1.6957e-34,2.3592e-07,-1.1264e-18,-2.5699e-21,1.7251,0.00060546,-0.00054848,2.5382e-33,0.00010121,-36.059,-135.9,-51.63,0.036321,-1.7318e-13,-3.9592e-16,93.037,-135.9,-51.63,-36.06,0,0.016729,0,1,3.685,0,-3.685,0
0,0,0,0,0,0,0.00010099,-0.00054755,1.6802e-34,2.6258e-07,-1.0904e-18,-2.7221e-21,1.7235,0.0006044,-0.00054755,2.4706e-33,0.00010099,-36.012,-135.68,-51.549,0.040421,-1.6764e-13,-4.1927e-16,92.875,-135.68,-51.549,-36.012,0,0.016732,0,1,3.69,0,-3.69,0
0,0,0,0,0,0,0.00010077,-0.00054662,1.6644e-34,2.9003e-07,-1.0535e-18,-2.8765e-21,1.722,0.00060335,-0.00054662,2.4025e-33,0.00010077,-35.964,-135.45,-51.467,0.044642,-1.6196e-13,-4.4296e-16,92.713,-135.45,-51.467,-35.964,0,0.016735,0,1,3.695,0,-3.695,0
0,0,0,0,0,0,0.00010055,-0.00054569,1.6484e-34,3.1827e-07,-1.0156e-18,-3.0332e-21,1.7204,0.00060229,-0.00054569,2.3339e-33,0.00010055,-35.916,-135.23,-51.385,0.048984,-1.5614e-13,-4.6699e-16,92.551,-135.23,-51.385,-35.916,0,0.016738,0,1,3.7,0,-3.7,0
0,0,0,0,0,0,0.00010033,-0.00054476,1.6321e-34,3.4729e-07,-9.7675e-19,-3.192e-21,1.7188,0.00060123,-0.00054476,2.2648e-33,0.00010033,-35.868,-135,-51.303,0.053447,-1.5017e-13,-4.9136e-16,92.389,-135,-51.303,-35.868,0,0.01674,0,1,3.705,0,-3.705,0
0,0,0,0,0,0,0.00010011,-0.00054383,1.6157e-34,3.7711e-07,-9.37e-19,-3.3531e-21,1.7172,0.00060018,-0.00054383,2.1952e-33,0.00010011,-35.819,-134.78,-51.221,0.058031,-1.4406e-13,-5.1607e-16,92.227,-134.78,-51.221,-35.819,0,0.016743,0,1,3.71,0,-3.71,0
0,0,0,0,0,0,9.9897e-05,-0.0005429,1.599e-34,4.0771e-07,-8.9631e-19,-3.5163e-21,1.7156,0.00059912,-0.0005429,2.1251e-33,9.9897e-05,-35.77,-134.55,-51.138,0.062737,-1.3781e-13,-5.4112e-16,92.065,-134.55,-51.138,-35.77,0,0.016746,0,1,3.715,0,-3.715,0
0,0,0,0,0,0,9.9681e-05,-0.00054197,1.5821e-34,4.391e-07,-8.547e-19,-3.6819e-21,1.7141,0.00059807,-0.00054197,2.0545e-33,9.9681e-05,-35.721,-134.33,-51.056,0.067564,-1.3141e-13,-5.6651e-16,91.903,-134.33,-51.056,-35.721,0,0.016749,0,1,3.72,0,-3.72,0
0,0,0,0,0,0,9.9465e-05,-0.00054104,1.565e-34,4.7128e-07,-8.1215e-19,-3.8496e-21,1.7125,0.00059701,-0.00054104,1.9834e-33,9.9465e-05,-35.671,-134.1,-50.973,0.072512,-1.2487e-13,-5.9225e-16,91.741,-134.1,-50.973,-35.671,0,0.016751,0,1,3.725,0,-3.725,0
0,0,0,0,0,0,9.925e-05,-0.00054011,1.5477e-34,5.0424e-07,-7.6867e-19,-4.0195e-21,1.7109,0.00059596,-0.00054011,1.9118e-33,9.9251e-05,-35.622,-133.88,-50.89,0.077581,-1.1819e-13,-6.1832e-16,91.579,-133.88,-50.89,-35.622,0,0.016754,0,1,3.73,0,-3.73,0
0,0,0,0,0,0,9.9037e-05,-0.00053917,1.5301e-34,5.38e-07,-7.2426e-19,-4.1917e-21,1.7093,0.0005949,-0.00053917,1.8397e-33,9.9037e-05,-35.572,-133.65,-50.807,0.082771,-1.1136e-13,-6.4473e-16,91.417,-133.65,-50.807,-35.571,0,0.016757,0,1,3.735,0,-3.735,0
0,0,0,0,0,0,9.8824e-05,-0.00053824,1.5123e-34,5.7254e-07,-6.7892e-19,-4.3661e-21,1.7077,0.00059385,-0.00053824,1.767e-33,9.8824e-05,-35.521,-133.42,-50.724,0.088083,-1.0439e-13,-6.7148e-16,91.255,-133.42,-50.724,-35.521,0,0.016759,0,1,3.74,0,-3.74,0
0,0,0,0,0,0,9.8612e-05,-0.00053731,1.4943e-34,6.0787e-07,-6.3265e-19,-4.5427e-21,1.7061,0.00059279,-0.00053731,1.6939e-33,9.8612e-05,-35.47,-133.2,-50.641,0.093516,-9.7277e-14,-6.9858e-16,91.093,-133.2,-50.641,-35.47,0,0.016762,0,1,3.745,0,-3.745,0
0,0,0,0,0,0,9.84e-05,-0.00053637,1.4761e-34,6.4399e-07,-5.8544e-19,-4.7215e-21,1.7046,0.00059174,-0.00053638,1.6203e-33,9.8401e-05,-35.42,-132.97,-50.558,0.09907,-9.0021e-14,-7.2601e-16,90.931,-132.97,-50.558,-35.419,0,0.016765,0,1,3.75,0,-3.75,0
0,0,0,0,0,0,9.819e-05,-0.00053544,1.4576e-34,6.809e-07,-5.373e-19,-4.9026e-21,1.703,0.00059069,-0.00053544,1.5462e-33,9.8191e-05,-35.368,-132.74,-50.474,0.10474,-8.2621e-14,-7.5379e-16,90.769,-132.74,-50.474,-35.368,0,0.016767,0,1,3.755,0,-3.755,0
0,0,0,0,0,0,9.7981e-05,-0.00053451,1.4389e-34,7.1859e-07,-4.8824e-19,-5.0858e-21,1.7014,0.00058963,-0.00053451,1.4716e-33,9.7982e-05,-35.317,-132.52,-50.39,0.11054,-7.5079e-14,-7.819e-16,90.608,-132.52,-50.39,-35.317,0,0.01677,0,1,3.76,0,-3.76,0
0,0,0,0,0,0,9.7772e-05,-0.00053357,1.4201e-34,7.5708e-07,-4.3823e-19,-5.2713e-21,1.6998,0.00058858,-0.00053357,1.3964e-33,9.7773e-05,-35.265,-132.29,-50.306,0.11646,-6.7393e-14,-8.1035e-16,90.446,-132.29,-50.306,-35.265,0,0.016773,0,1,3.765,0,-3.765,0
0,0,0,0,0,0,9.7564e-05,-0.00053264,1.4009e-34,7.9635e-07,-3.873e-19,-5.459e-21,1.6982,0.00058752,-0.00053264,1.3208e-33,9.7566e-05,-35.213,-132.06,-50.222,0.1225,-5.9564e-14,-8.3915e-16,90.284,-132.06,-50.222,-35.213,0,0.016775,0,1,3.77,0,-3.77,0
0,0,0,0,0,0,9.7358e-05,-0.0005317,1.3816e-34,8.3641e-07,-3.3544e-19,-5.649e-21,1.6967,0.00058647,-0.0005317,1.2447e-33,9.7359e-05,-35.161,-131.83,-50.138,0.12866,-5.1591e-14,-8.6828e-16,90.122,-131.83,-50.138,-35.16,0,0.016778,0,1,3.775,0,-3.775,0
0,0,0,0,0,0,9.7152e-05,-0.00053076,1.362e-34,8.7726e-07,-2.8264e-19,-5.8411e-21,1.6951,0.00058542,-0.00053077,1.168e-33,9.7153e-05,-35.108,-131.61,-50.054,0.13494,-4.3476e-14,-8.9776e-16,89.961,-131.61,-50.054,-35.108,0,0.016781,0,1,3.78,0,-3.78,0
0,0,0,0,0,0,9.6947e-05,-0.00052983,1.3422e-34,9.1889e-07,-2.2892e-19,-6.0355e-21,1.6935,0.00058436,-0.00052983,1.0909e-33,9.6948e-05,-35.055,-131.38,-49.969,0.14134,-3.5217e-14,-9.2757e-16,89.799,-131.38,-49.969,-35.055,0,0.016783,0,1,3.785,0,-3.785,0
0,0,0,0,0,0,9.6742e-05,-0.00052889,1.3222e-34,9.6132e-07,-1.7426e-19,-6.232e-21,1.6919,0.00058331,-0.00052889,1.0133e-33,9.6744e-05,-35.002,-131.15,-49.885,0.14786,-2.6815e-14,-9.5773e-16,89.637,-131.15,-49.885,-35.001,0,0.016786,0,1,3.79,0,-3.79,0
0,0,0,0,0,0,9.6539e-05,-0.00052795,1.302e-34,1.0045e-06,-1.1867e-19,-6.4309e-21,1.6903,0.00058226,-0.00052795,9.3513e-34,9.6541e-05,-34.948,-130.92,-49.8,0.15451,-1.827e-14,-9.8823e-16,89.475,-130.92,-49.8,-34.948,0,0.016788,0,1,3.795,0,-3.795,0
0,0,0,0,0,0,9.6337e-05,-0.00052701,1.2815e-34,1.0485e-06,-6.2145e-20,-6.6319e-21,1.6888,0.0005812,-0.00052702,8.5649e-34,9.6339e-05,-34.894,-130.69,-49.715,0.16127,-9.5819e-15,-1.0191e-15,89.314,-130.69,-49.715,-34.894,0,0.016791,0,1,3.8,0,-3.8,0
0,0,0,0,0,0,9.6135e-05,-0.00052608,1.2609e-34,1.0933e-06,-4.6898e-21,-6.8351e-21,1.6872,0.00058015,-0.00052608,7.7735e-34,9.6137e-05,-34.84,-130.46,-49.63,0.16816,-7.5008e-16,-1.0502e-15,89.152,-130.46,-49.63,-34.84,0,0.016794,0,1,3.805,0,-3.805,0
0,0,0,0,0,0,9.5935e-05,-0.00052514,1.24e-34,1.1389e-06,5.3694e-20,-7.0406e-21,1.6856,0.0005791,-0.00052514,6.9771e-34,9.5937e-05,-34.786,-130.23,-49.545,0.17517,8.2245e-15,-1.0818e-15,88.991,-130.23,-49.545,-34.786,0,0.016796,0,1,3.81,0,-3.81,0
0,0,0,0,0,0,9.5735e-05,-0.0005242,1.2188e-34,1.1853e-06,1.1301e-19,-7.2483e-21,1.684,0.00057805,-0.0005242,6.1756e-34,9.5737e-05,-34.731,-130,-49.459,0.1823,1.7343e-14,-1.1136e-15,88.829,-130,-49.459,-34.731,0,0.016799,0,1,3.815,0,-3.815,0
0,0,0,0,0,0,9.5536e-05,-0.00052326,1.1975e-34,1.2324e-06,1.7326e-19,-7.4582e-21,1.6824,0.00057699,-0.00052326,5.3691e-34,9.5539e-05,-34.676,-129.77,-49.374,0.18955,2.6604e-14,-1.1458e-15,88.667,-129.77,-49.374,-34.676,0,0.016802,0,1,3.82,0,-3.82,0
0,0,0,0,0,0,9.5338e-05,-0.00052232,1.1759e-34,1.2804e-06,2.3444e-19,-7.6703e-21,1.6809,0.00057594,-0.00052232,4.5576e-34,9.5341e-05,-34.621,-129.54,-49.288,0.19692,3.6009e-14,-1.1783e-15,88.506,-129.54,-49.288,-34.621,0,0.016804,0,1,3.825,0,-3.825,0
0,0,0,0,0,0,9.5141e-05,-0.00052138,1.1541e-34,1.3291e-06,2.9655e-19,-7.8847e-21,1.6793,0.00057489,-0.00052138,3.7411e-34,9.5144e-05,-34.566,-129.31,-49.202,0.20442,4.5556e-14,-1.2112e-15,88.344,-129.31,-49.202,-34.565,0,0.016807,0,1,3.83,0,-3.83,0
0,0,0,0,0,0,9.4963e-05,-0.0005206,1.1342e-34,1.3449e-06,3.4666e-19,-7.9509e-21,1.678,0.00057401,-0.0005206,2.9274e-34,9.4966e-05,-34.523,-129.12,-49.133,0.20685,5.3259e-14,-1.2214e-15,88.209,-129.12,-49.133,-34.523,0,0.016809,0,1,3.835,0,-3.835,0
0,0,0,0,0,0,9.481e-05,-0.00052004,1.1174e-34,1.3147e-06,3.792e-19,-7.8108e-21,1.677,0.00057336,-0.00052004,2.1804e-34,9.4813e-05,-34.5,-128.99,-49.086,0.20221,5.8262e-14,-1.1999e-15,88.109,-128.99,-49.086,-34.499,0,0.016812,0,1,3.84,0,-3.84,0
0,0,0,0,0,0,9.4658e-05,-0.00051948,1.1006e-34,1.2849e-06,4.1179e-19,-7.6718e-21,1.6761,0.00057271,-0.00051948,1.5143e-34,9.4661e-05,-34.476,-128.86,-49.038,0.19761,6.3273e-14,-1.1785e-15,88.01,-128.86,-49.038,-34.476,0,0.016815,0,1,3.845,0,-3.845,0
0,0,0,0,0,0,9.4507e-05,-0.00051892,1.0841e-34,1.2553e-06,4.4443e-19,-7.5338e-21,1.6751,0.00057206,-0.00051892,9.2909e-35,9.4509e-05,-34.452,-128.72,-48.991,0.19306,6.8292e-14,-1.1573e-15,87.91,-128.73,-48.991,-34.452,0,0.016817,0,1,3.85,0,-3.85,0
0,0,0,0,0,0,9.4355e-05,-0.00051836,1.0677e-34,1.226e-06,4.7712e-19,-7.3968e-21,1.6742,0.00057141,-0.00051836,4.2467e-35,9.4358e-05,-34.428,-128.59,-48.944,0.18856,7.3318e-14,-1.1362e-15,87.811,-128.59,-48.944,-34.428,0,0.01682,0,1,3.855,0,-3.855,0
0,0,0,0,0,0,9.4205e-05,-0.0005178,1.0514e-34,1.197e-06,5.0986e-19,-7.2608e-21,1.6732,0.00057076,-0.0005178,1.1041e-37,9.4208e-05,-34.404,-128.46,-48.897,0.18411,7.8352e-14,-1.1154e-15,87.711,-128.46,-48.897,-34.404,0,0.016822,0,1,3.86,0,-3.86,0
0,0,0,0,0,0,9.4055e-05,-0.00051724,1.0353e-34,1.1684e-06,5.4266e-19,-7.1258e-21,1.6723,0.00057012,-0.00051724,-3.4164e-35,9.4057e-05,-34.38,-128.32,-48.849,0.1797,8.3394e-14,-1.0946e-15,87.612,-128.33,-48.849,-34.379,0,0.016825,0,1,3.865,0,-3.865,0
0,0,0,0,0,0,9.3905e-05,-0.00051668,1.0193e-34,1.14e-06,5.755e-19,-6.9918e-21,1.6713,0.00056947,-0.00051668,-6.0352e-35,9.3908e-05,-34.355,-128.19,-48.802,0.17534,8.8444e-14,-1.074e-15,87.512,-128.19,-48.802,-34.355,0,0.016828,0,1,3.87,0,-3.87,0
0,0,0,0,0,0,9.3756e-05,-0.00051611,1.0035e-34,1.112e-06,6.0839e-19,-6.8589e-21,1.6704,0.00056882,-0.00051612,-7.8458e-35,9.3758e-05,-34.331,-128.06,-48.754,0.17103,9.3502e-14,-1.0536e-15,87.413,-128.06,-48.754,-34.33,0,0.01683,0,1,3.875,0,-3.875,0
0,0,0,0,0,0,9.3607e-05,-0.00051555,9.8788e-35,1.0843e-06,6.4133e-19,-6.7269e-21,1.6695,0.00056817,-0.00051556,-8.8479e-35,9.361e-05,-34.306,-127.92,-48.707,0.16676,9.8567e-14,-1.0334e-15,87.314,-127.92,-48.707,-34.306,0,0.016833,0,1,3.88,0,-3.88,0
0,0,0,0,0,0,9.3459e-05,-0.00051499,9.7239e-35,1.0568e-06,6.7433e-19,-6.596e-21,1.6685,0.00056753,-0.00051499,-9.0416e-35,9.3462e-05,-34.281,-127.79,-48.659,0.16255,1.0364e-13,-1.0132e-15,87.214,-127.79,-48.659,-34.281,0,0.016835,0,1,3.885,0,-3.885,0
0,0,0,0,0,0,9.3311e-05,-0.00051443,9.5705e-35,1.0297e-06,7.0737e-19,-6.4661e-21,1.6676,0.00056688,-0.00051443,-8.4268e-35,9.3314e-05,-34.256,-127.66,-48.611,0.15838,1.0872e-13,-9.9329e-16,87.115,-127.66,-48.611,-34.256,0,0.016838,0,1,3.89,0,-3.89,0
0,0,0,0,0,0,9.3164e-05,-0.00051387,9.4187e-35,1.0029e-06,7.4046e-19,-6.3372e-21,1.6666,0.00056623,-0.00051387,-7.0037e-35,9.3167e-05,-34.231,-127.52,-48.563,0.15425,1.1381e-13,-9.7349e-16,87.016,-127.52,-48.563,-34.23,0,0.016841,0,1,3.895,0,-3.895,0
0,0,0,0,0,0,9.3018e-05,-0.00051331,9.2683e-35,9.7641e-07,7.7361e-19,-6.2094e-21,1.6657,0.00056559,-0.00051331,-4.7722e-35,9.302e-05,-34.205,-127.39,-48.515,0.15018,1.1891e-13,-9.5384e-16,86.916,-127.39,-48.515,-34.205,0,0.016843,0,1,3.9,0,-3.9,0
0,0,0,0,0,0,9.2871e-05,-0.00051275,9.1196e-35,9.5022e-07,8.068e-19,-6.0825e-21,1.6647,0.00056494,-0.00051275,-1.7323e-35,9.2874e-05,-34.18,-127.25,-48.467,0.14615,1.2401e-13,-9.3435e-16,86.817,-127.25,-48.467,-34.18,0,0.016846,0,1,3.905,0,-3.905,0
0,0,0,0,0,0,9.2726e-05,-0.00051218,8.9723e-35,9.2434e-07,8.4005e-19,-5.9567e-21,1.6638,0.00056429,-0.00051219,2.1161e-35,9.2728e-05,-34.154,-127.12,-48.419,0.14217,1.2912e-13,-9.1502e-16,86.718,-127.12,-48.419,-34.154,0,0.016848,0,1,3.91,0,-3.91,0
0,0,0,0,0,0,9.258e-05,-0.00051162,8.8266e-35,8.9876e-07,8.7334e-19,-5.8318e-21,1.6628,0.00056365,-0.00051162,6.7727e-35,9.2582e-05,-34.128,-126.99,-48.371,0.13824,1.3424e-13,-8.9585e-16,86.619,-126.99,-48.371,-34.128,0,0.016851,0,1,3.915,0,-3.915,0
0,0,0,0,0,0,9.2436e-05,-0.00051106,8.6825e-35,8.735e-07,9.0669e-19,-5.708e-21,1.6619,0.000563,-0.00051106,1.2238e-34,9.2438e-05,-34.103,-126.85,-48.323,0.13435,1.3937e-13,-8.7682e-16,86.52,-126.85,-48.323,-34.102,0,0.016853,0,1,3.92,0,-3.92,0
0,0,0,0,0,0,9.2291e-05,-0.0005105,8.5399e-35,8.4854e-07,9.4008e-19,-5.5852e-21,1.6609,0.00056236,-0.0005105,1.8511e-34,9.2293e-05,-34.076,-126.72,-48.275,0.13051,1.445e-13,-8.5796e-16,86.42,-126.72,-48.275,-34.076,0,0.016856,0,1,3.925,0,-3.925,0
0,0,0,0,0,0,9.2147e-05,-0.00050993,8.3988e-35,8.2389e-07,9.7353e-19,-5.4634e-21,1.66,0.00056171,-0.00050994,2.5594e-34,9.2149e-05,-34.05,-126.58,-48.226,0.12672,1.4964e-13,-8.3925e-16,86.321,-126.58,-48.226,-34.05,0,0.016859,0,1,3.93,0,-3.93,0
0,0,0,0,0,0,9.2004e-05,-0.00050937,8.2592e-35,7.9955e-07,1.007e-18,-5.3427e-21,1.6591,0.00056106,-0.00050937,3.3484e-34,9.2006e-05,-34.024,-126.45,-48.178,0.12298,1.5479e-13,-8.207e-16,86.222,-126.45,-48.178,-34.024,0,0.016861,0,1,3.935,0,-3.935,0
0,0,0,0,0,0,9.1861e-05,-0.00050881,8.1212e-35,7.7551e-07,1.0406e-18,-5.2229e-21,1.6581,0.00056042,-0.00050881,4.2183e-34,9.1863e-05,-33.997,-126.31,-48.129,0.11928,1.5995e-13,-8.023e-16,86.123,-126.31,-48.129,-33.997,0,0.016864,0,1,3.94,0,-3.94,0
0,0,0,0,0,0,9.1719e-05,-0.00050825,7.9848e-35,7.5178e-07,1.0742e-18,-5.1042e-21,1.6572,0.00055977,-0.00050825,5.169e-34,9.1721e-05,-33.971,-126.18,-48.081,0.11563,1.6512e-13,-7.8406e-16,86.024,-126.18,-48.081,-33.97,0,0.016866,0,1,3.945,0,-3.945,0
0,0,0,0,0,0,9.1577e-05,-0.00050768,7.8498e-35,7.2837e-07,1.1078e-18,-4.9864e-21,1.6562,0.00055913,-0.00050768,6.2005e-34,9.1579e-05,-33.944,-126.04,-48.032,0.11203,1.7029e-13,-7.6597e-16,85.925,-126.04,-48.032,-33.944,0,0.016869,0,1,3.95,0,-3.95,0
0,0,0,0,0,0,9.1436e-05,-0.00050712,7.7164e-35,7.0526e-07,1.1415e-18,-4.8697e-21,1.6553,0.00055848,-0.00050712,7.3129e-34,9.1438e-05,-33.917,-125.91,-47.983,0.10848,1.7547e-13,-7.4804e-16,85.826,-125.91,-47.983,-33.917,0,0.016871,0,1,3.955,0,-3.955,0
0,0,0,0,0,0,9.1295e-05,-0.00050656,7.5846e-35,6.8245e-07,1.1753e-18,-4.754e-21,1.6543,0.00055784,-0.00050656,8.5062e-34,9.1297e-05,-33.89,-125.77,-47.935,0.10497,1.8066e-13,-7.3027e-16,85.727,-125.77,-47.935,-33.889,0,0.016874,0,1,3.96,0,-3.96,0
0,0,0,0,0,0,9.1155e-05,-0.00050599,7.4543e-35,6.5996e-07,1.2091e-18,-4.6394e-21,1.6534,0.00055719,-0.00050599,9.7802e-34,9.1156e-05,-33.862,-125.64,-47.886,0.10151,1.8586e-13,-7.1265e-16,85.628,-125.64,-47.886,-33.862,0,0.016876,0,1,3.965,0,-3.965,0
0,0,0,0,0,0,9.1015e-05,-0.00050543,7.3255e-35,6.3777e-07,1.2429e-18,-4.5257e-21,1.6524,0.00055655,-0.00050543,1.1135e-33,9.1016e-05,-33.835,-125.5,-47.837,0.098101,1.9106e-13,-6.9519e-16,85.529,-125.5,-47.837,-33.835,0,0.016879,0,1,3.97,0,-3.97,0
0,0,0,0,0,0,9.0875e-05,-0.00050486,7.1983e-35,6.159e-07,1.2768e-18,-4.4131e-21,1.6515,0.00055591,-0.00050487,1.2571e-33,9.0877e-05,-33.807,-125.36,-47.788,0.094737,1.9628e-13,-6.7788e-16,85.43,-125.37,-47.788,-33.807,0,0.016881,0,1,3.975,0,-3.975,0
0,0,0,0,0,0,9.0736e-05,-0.0005043,7.0726e-35,5.9433e-07,1.3108e-18,-4.3014e-21,1.6505,0.00055526,-0.0005043,1.4088e-33,9.0738e-05,-33.78,-125.23,-47.739,0.09142,2.015e-13,-6.6073e-16,85.331,-125.23,-47.739,-33.779,0,0.016884,0,1,3.98,0,-3.98,0
0,0,0,0,0,0,9.0598e-05,-0.00050374,6.9484e-35,5.7307e-07,1.3448e-18,-4.1908e-21,1.6496,0.00055462,-0.00050374,1.5685e-33,9.0599e-05,-33.752,-125.09,-47.69,0.08815,2.0672e-13,-6.4373e-16,85.232,-125.09,-47.69,-33.752,0,0.016887,0,1,3.985,0,-3.985,0
0,0,0,0,0,0,9.046e-05,-0.00050317,6.8258e-35,5.5211e-07,1.3788e-18,-4.0812e-21,1.6487,0.00055397,-0.00050317,1.7363e-33,9.0461e-05,-33.724,-124.96,-47.64,0.084928,2.1196e-13,-6.2689e-16,85.133,-124.96,-47.64,-33.724,0,0.016889,0,1,3.99,0,-3.99,0
0,0,0,0,0,0,9.0322e-05,-0.00050261,6.7047e-35,5.3147e-07,1.4129e-18,-3.9726e-21,1.6477,0.00055333,-0.00050261,1.9122e-33,9.0324e-05,-33.696,-124.82,-47.591,0.081753,2.172e-13,-6.1021e-16,85.035,-124.82,-47.591,-33.695,0,0.016892,0,1,3.995,0,-3.995,0
0,0,0,0,0,0,9.0185e-05,-0.00050204,6.5851e-35,5.1113e-07,1.4471e-18,-3.865e-21,1.6468,0.00055269,-0.00050204,2.0962e-33,9.0187e-05,-33.667,-124.69,-47.542,0.078625,2.2245e-13,-5.9368e-16,84.936,-124.69,-47.542,-33.667,0,0.016894,0,1,4,0,-4,0
0,0,0,0,0,0,9.0049e-05,-0.00050148,6.4671e-35,4.911e-07,1.4813e-18,-3.7585e-21,1.6458,0.00055204,-0.00050148,2.2883e-33,9.005e-05,-33.639,-124.55,-47.492,0.075545,2.2771e-13,-5.7731e-16,84.837,-124.55,-47.492,-33.639,0,0.016897,0,1,4.005,0,-4.005,0
0,0,0,0,0,0,8.9913e-05,-0.00050091,6.3507e-35,4.7138e-07,1.5155e-18,-3.6529e-21,1.6449,0.0005514,-0.00050091,2.4885e-33,8.9914e-05,-33.61,-124.41,-47.443,0.072512,2.3298e-13,-5.6109e-16,84.738,-124.41,-47.443,-33.61,0,0.016899,0,1,4.01,0,-4.01,0
0,0,0,0,0,0,8.9777e-05,-0.00050035,6.2358e-35,4.5197e-07,1.5498e-18,-3.5484e-21,1.6439,0.00055076,-0.00050035,2.6967e-33,8.9779e-05,-33.582,-124.28,-47.393,0.069527,2.3825e-13,-5.4504e-16,84.639,-124.28,-47.393,-33.581,0,0.016902,0,1,4.015,0,-4.015,0
0,0,0,0,0,0,8.9642e-05,-0.00049978,6.1224e-35,4.3286e-07,1.5842e-18,-3.4449e-21,1.643,0.00055011,-0.00049978,2.9131e-33,8.9644e-05,-33.553,-124.14,-47.343,0.066589,2.4353e-13,-5.2913e-16,84.541,-124.14,-47.343,-33.552,0,0.016904,0,1,4.02,0,-4.02,0
0,0,0,0,0,0,8.9508e-05,-0.00049922,6.0105e-35,4.1406e-07,1.6186e-18,-3.3424e-21,1.642,0.00054947,-0.00049922,3.1375e-33,8.9509e-05,-33.524,-124,-47.294,0.063698,2.4882e-13,-5.1338e-16,84.442,-124,-47.294,-33.523,0,0.016907,0,1,4.025,0,-4.025,0
0,0,0,0,0,0,8.9374e-05,-0.00049865,5.9002e-35,3.9558e-07,1.653e-18,-3.2409e-21,1.6411,0.00054883,-0.00049865,3.37e-33,8.9375e-05,-33.494,-123.87,-47.244,0.060854,2.5412e-13,-4.9779e-16,84.343,-123.87,-47.244,-33.494,0,0.016909,0,1,4.03,0,-4.03,0
0,0,0,0,0,0,8.924e-05,-0.00049809,5.7914e-35,3.774e-07,1.6875e-18,-3.1404e-21,1.6402,0.00054818,-0.00049809,3.6106e-33,8.9241e-05,-33.465,-123.73,-47.194,0.058059,2.5943e-13,-4.8235e-16,84.245,-123.73,-47.194,-33.465,0,0.016912,0,1,4.035,0,-4.035,0
0,0,0,0,0,0,8.9107e-05,-0.00049752,5.6842e-35,3.5952e-07,1.7221e-18,-3.041e-21,1.6392,0.00054754,-0.00049752,3.8592e-33,8.9108e-05,-33.436,-123.59,-47.144,0.05531,2.6474e-13,-4.6707e-16,84.146,-123.59,-47.144,-33.435,0,0.016914,0,1,4.04,0,-4.04,0
0,0,0,0,0,0,8.8974e-05,-0.00049695,5.5785e-35,3.4196e-07,1.7567e-18,-2.9425e-21,1.6383,0.0005469,-0.00049696,4.116e-33,8.8975e-05,-33.406,-123.46,-47.094,0.052609,2.7006e-13,-4.5195e-16,84.048,-123.46,-47.094,-33.406,0,0.016917,0,1,4.045,0,-4.045,0
0,0,0,0,0,0,8.8842e-05,-0.00049639,5.4743e-35,3.247e-07,1.7913e-18,-2.8451e-21,1.6373,0.00054626,-0.00049639,4.3808e-33,8.8843e-05,-33.376,-123.32,-47.044,0.049955,2.7539e-13,-4.3698e-16,83.949,-123.32,-47.044,-33.376,0,0.016919,0,1,4.05,0,-4.05,0
0,0,0,0,0,0,8.8711e-05,-0.00049582,5.3717e-35,3.0776e-07,1.826e-18,-2.7487e-21,1.6364,0.00054562,-0.00049582,4.6537e-33,8.8712e-05,-33.346,-123.18,-46.994,0.047349,2.8072e-13,-4.2216e-16,83.85,-123.18,-46.994,-33.346,0,0.016922,0,1,4.055,0,-4.055,0
0,0,0,0,0,0,8.8579e-05,-0.00049526,5.2706e-35,2.9111e-07,1.8608e-18,-2.6533e-21,1.6354,0.00054497,-0.00049526,4.9347e-33,8.858e-05,-33.316,-123.05,-46.943,0.04479,2.8607e-13,-4.075e-16,83.752,-123.05,-46.943,-33.316,0,0.016924,0,1,4.06,0,-4.06,0
0,0,0,0,0,0,8.8449e-05,-0.00049469,5.1711e-35,2.7478e-07,1.8956e-18,-2.5589e-21,1.6345,0.00054433,-0.00049469,5.2238e-33,8.845e-05,-33.286,-122.91,-46.893,0.042278,2.9142e-13,-3.93e-16,83.653,-122.91,-46.893,-33.286,0,0.016927,0,1,4.065,0,-4.065,0
0,0,0,0,0,0,8.8319e-05,-0.00049412,5.0731e-35,2.5876e-07,1.9304e-18,-2.4656e-21,1.6335,0.00054369,-0.00049412,5.521e-33,8.8319e-05,-33.255,-122.77,-46.843,0.039814,2.9678e-13,-3.7865e-16,83.555,-122.77,-46.843,-33.255,0,0.016929,0,1,4.07,0,-4.07,0
0,0,0,0,0,0,8.8189e-05,-0.00049356,4.9766e-35,2.4304e-07,1.9653e-18,-2.3732e-21,1.6326,0.00054305,-0.00049356,5.8262e-33,8.819e-05,-33.225,-122.63,-46.792,0.037397,3.0215e-13,-3.6447e-16,83.456,-122.63,-46.792,-33.225,0,0.016931,0,1,4.075,0,-4.075,0
0,0,0,0,0,0,8.806e-05,-0.00049299,4.8817e-35,2.2764e-07,2.0003e-18,-2.2819e-21,1.6316,0.00054241,-0.00049299,6.1396e-33,8.806e-05,-33.194,-122.5,-46.741,0.035028,3.0752e-13,-3.5043e-16,83.358,-122.5,-46.741,-33.194,0,0.016934,0,1,4.08,0,-4.08,0
0,0,0,0,0,0,8.7931e-05,-0.00049242,4.7883e-35,2.1254e-07,2.0353e-18,-2.1916e-21,1.6307,0.00054177,-0.00049242,6.461e-33,8.7932e-05,-33.163,-122.36,-46.691,0.032706,3.129e-13,-3.3655e-16,83.26,-122.36,-46.691,-33.163,0,0.016936,0,1,4.085,0,-4.085,0
0,0,0,0,0,0,8.7803e-05,-0.00049185,4.6964e-35,1.9774e-07,2.0704e-18,-2.1023e-21,1.6298,0.00054113,-0.00049186,6.7905e-33,8.7803e-05,-33.132,-122.22,-46.64,0.030431,3.1829e-13,-3.2283e-16,83.161,-122.22,-46.64,-33.132,0,0.016939,0,1,4.09,0,-4.09,0
0,0,0,0,0,0,8.7675e-05,-0.00049129,4.6061e-35,1.8326e-07,2.1055e-18,-2.014e-21,1.6288,0.00054049,-0.00049129,7.1281e-33,8.7676e-05,-33.101,-122.08,-46.589,0.028204,3.2369e-13,-3.0926e-16,83.063,-122.08,-46.589,-33.101,0,0.016941,0,1,4.095,0,-4.095,0
0,0,0,0,0,0,8.7548e-05,-0.00049072,4.5174e-35,1.6909e-07,2.1406e-18,-1.9267e-21,1.6279,0.00053985,-0.00049072,7.4738e-33,8.7548e-05,-33.07,-121.94,-46.539,0.026024,3.291e-13,-2.9585e-16,82.965,-121.94,-46.539,-33.07,0,0.016944,0,1,4.1,0,-4.1,0
0,0,0,0,0,0,8.7421e-05,-0.00049015,4.4301e-35,1.5522e-07,2.1758e-18,-1.8405e-21,1.6269,0.00053921,-0.00049015,7.8276e-33,8.7422e-05,-33.039,-121.81,-46.488,0.023891,3.3451e-13,-2.8259e-16,82.866,-121.81,-46.488,-33.039,0,0.016946,0,1,4.105,0,-4.105,0
0,0,0,0,0,0,8.7295e-05,-0.00048958,4.3444e-35,1.4166e-07,2.2111e-18,-1.7552e-21,1.626,0.00053857,-0.00048958,8.1894e-33,8.7295e-05,-33.007,-121.67,-46.437,0.021806,3.3993e-13,-2.6949e-16,82.768,-121.67,-46.437,-33.007,0,0.016949,0,1,4.11,0,-4.11,0
0,0,0,0,0,0,8.7169e-05,-0.00048902,4.2603e-35,1.2841e-07,2.2464e-18,-1.671e-21,1.625,0.00053793,-0.00048902,8.5593e-33,8.7169e-05,-32.975,-121.53,-46.386,0.019768,3.4536e-13,-2.5655e-16,82.67,-121.53,-46.386,-32.975,0,0.016951,0,1,4.115,0,-4.115,0
0,0,0,0,0,0,8.7043e-05,-0.00048845,4.1777e-35,1.1547e-07,2.2818e-18,-1.5878e-21,1.6241,0.00053729,-0.00048845,8.9373e-33,8.7044e-05,-32.944,-121.39,-46.334,0.017778,3.508e-13,-2.4376e-16,82.571,-121.39,-46.334,-32.943,0,0.016954,0,1,4.12,0,-4.12,0
0,0,0,0,0,0,8.6919e-05,-0.00048788,4.0966e-35,1.0283e-07,2.3172e-18,-1.5056e-21,1.6231,0.00053665,-0.00048788,9.3235e-33,8.6919e-05,-32.912,-121.25,-46.283,0.015835,3.5624e-13,-2.3113e-16,82.473,-121.25,-46.283,-32.911,0,0.016956,0,1,4.125,0,-4.125,0
0,0,0,0,0,0,8.6794e-05,-0.00048731,4.017e-35,9.0506e-08,2.3526e-18,-1.4244e-21,1.6222,0.00053601,-0.00048731,9.7176e-33,8.6795e-05,-32.879,-121.11,-46.232,0.013939,3.6169e-13,-2.1865e-16,82.375,-121.11,-46.232,-32.879,0,0.016959,0,1,4.13,0,-4.13,0
0,0,0,0,0,0,8.667e-05,-0.00048674,3.939e-35,7.8487e-08,2.3881e-18,-1.3442e-21,1.6212,0.00053537,-0.00048674,1.012e-32,8.6671e-05,-32.847,-120.98,-46.181,0.012091,3.6715e-13,-2.0633e-16,82.277,-120.98,-46.181,-32.847,0,0.016961,0,1,4.135,0,-4.135,0
0,0,0,0,0,0,8.6547e-05,-0.00048617,3.8626e-35,6.6778e-08,2.4237e-18,-1.2651e-21,1.6203,0.00053473,-0.00048617,1.053e-32,8.6548e-05,-32.815,-120.84,-46.129,0.01029,3.7262e-13,-1.9417e-16,82.179,-120.84,-46.129,-32.815,0,0.016963,0,1,4.14,0,-4.14,0
0,0,0,0,0,0,8.6424e-05,-0.0004856,3.7876e-35,5.5375e-08,2.4593e-18,-1.1869e-21,1.6194,0.00053409,-0.00048561,1.0949e-32,8.6425e-05,-32.782,-120.7,-46.078,0.0085363,3.781e-13,-1.8216e-16,82.081,-120.7,-46.078,-32.782,0,0.016966,0,1,4.145,0,-4.145,0
0,0,0,0,0,0,8.6302e-05,-0.00048504,3.7143e-35,4.4281e-08,2.495e-18,-1.1098e-21,1.6184,0.00053345,-0.00048504,1.1375e-32,8.6302e-05,-32.749,-120.56,-46.026,0.0068301,3.8358e-13,-1.703e-16,81.983,-120.56,-46.026,-32.749,0,0.016968,0,1,4.15,0,-4.15,0
0,0,0,0,0,0,8.618e-05,-0.00048447,3.6424e-35,3.3495e-08,2.5307e-18,-1.0337e-21,1.6175,0.00053281,-0.00048447,1.181e-32,8.618e-05,-32.716,-120.42,-45.974,0.0051713,3.8907e-13,-1.586e-16,81.884,-120.42,-45.974,-32.716,0,0.016971,0,1,4.155,0,-4.155,0
0,0,0,0,0,0,8.6058e-05,-0.0004839,3.5721e-35,2.3018e-08,2.5664e-18,-9.5862e-22,1.6165,0.00053217,-0.0004839,1.2252e-32,8.6059e-05,-32.683,-120.28,-45.923,0.00356,3.9457e-13,-1.4706e-16,81.786,-120.28,-45.923,-32.683,0,0.016973,0,1,4.16,0,-4.16,0
0,0,0,0,0,0,8.5937e-05,-0.00048333,3.5033e-35,1.2848e-08,2.6022e-18,-8.8454e-22,1.6156,0.00053153,-0.00048333,1.2703e-32,8.5938e-05,-32.65,-120.14,-45.871,0.001996,4.0007e-13,-1.3568e-16,81.688,-120.14,-45.871,-32.65,0,0.016976,0,1,4.165,0,-4.165,0
0,0,0,0,0,0,8.5817e-05,-0.00048276,3.4361e-35,2.9858e-09,2.6381e-18,-8.1148e-22,1.6146,0.0005309,-0.00048276,1.3162e-32,8.5817e-05,-32.617,-120,-45.819,0.00047937,4.0559e-13,-1.2445e-16,81.59,-120,-45.819,-32.617,0,0.016978,0,1,4.17,0,-4.17,0
0,0,0,0,0,0,8.5697e-05,-0.00048219,3.3704e-35,-6.568e-09,2.674e-18,-7.3943e-22,1.6137,0.00053026,-0.00048219,1.3629e-32,8.5697e-05,-32.583,-119.86,-45.767,-0.00098989,4.1111e-13,-1.1337e-16,81.492,-119.86,-45.767,-32.583,0,0.01698,0,1,4.175,0,-4.175,0
0,0,0,0,0,0,8.5578e-05,-0.00048162,3.3063e-35,-1.5813e-08,2.71e-18,-6.684e-22,1.6127,0.00052962,-0.00048162,1.4104e-32,8.5578e-05,-32.55,-119.72,-45.715,-0.0024116,4.1664e-13,-1.0245e-16,81.394,-119.72,-45.715,-32.55,0,0.016983,0,1,4.18,0,-4.18,0
0,0,0,0,0,0,8.5459e-05,-0.00048105,3.2436e-35,-2.475e-08,2.746e-18,-5.9839e-22,1.6118,0.00052898,-0.00048105,1.4587e-32,8.5459e-05,-32.516,-119.58,-45.663,-0.0037861,4.2218e-13,-9.1692e-17,81.297,-119.58,-45.663,-32.516,0,0.016985,0,1,4.185,0,-4.185,0
0,0,0,0,0,0,8.534e-05,-0.00048048,3.1826e-35,-3.338e-08,2.7821e-18,-5.2938e-22,1.6108,0.00052834,-0.00048048,1.5078e-32,8.534e-05,-32.482,-119.44,-45.611,-0.0051132,4.2772e-13,-8.1085e-17,81.199,-119.44,-45.611,-32.482,0,0.016988,0,1,4.19,0,-4.19,0
0,0,0,0,0,0,8.5222e-05,-0.00047991,3.123e-35,-4.1701e-08,2.8182e-18,-4.6139e-22,1.6099,0.00052771,-0.00047991,1.5578e-32,8.5222e-05,-32.448,-119.31,-45.559,-0.006393,4.3327e-13,-7.0633e-17,81.101,-119.31,-45.559,-32.448,0,0.01699,0,1,4.195,0,-4.195,0
0,0,0,0,0,0,8.5104e-05,-0.00047934,3.065e-35,-4.9714e-08,2.8543e-18,-3.9443e-22,1.609,0.00052707,-0.00047934,1.6085e-32,8.5105e-05,-32.414,-119.17,-45.506,-0.0076252,4.3883e-13,-6.0339e-17,81.003,-119.17,-45.506,-32.414,0,0.016992,0,1,4.2,0,-4.2,0
0,0,0,0,0,0,8.4987e-05,-0.00047877,3.0085e-35,-5.7419e-08,2.8905e-18,-3.2847e-22,1.608,0.00052643,-0.00047877,1.66e-32,8.4988e-05,-32.379,-119.03,-45.454,-0.0088102,4.444e-13,-5.0199e-17,80.905,-119.03,-45.454,-32.379,0,0.016995,0,1,4.205,0,-4.205,0
0,0,0,0,0,0,8.4871e-05,-0.0004782,2.9536e-35,-6.4816e-08,2.9268e-18,-2.6352e-22,1.6071,0.00052579,-0.0004782,1.7124e-32,8.4871e-05,-32.345,-118.89,-45.401,-0.0099478,4.4998e-13,-4.0215e-17,80.807,-118.89,-45.401,-32.345,0,0.016997,0,1,4.21,0,-4.21,0
0,0,0,0,0,0,8.4755e-05,-0.00047762,2.9002e-35,-7.1905e-08,2.9631e-18,-1.996e-22,1.6061,0.00052516,-0.00047762,1.7656e-32,8.4755e-05,-32.31,-118.75,-45.349,-0.011038,4.5556e-13,-3.0387e-17,80.709,-118.75,-45.349,-32.31,0,0.017,0,1,4.215,0,-4.215,0
0,0,0,0,0,0,8.4639e-05,-0.00047705,2.8484e-35,-7.8685e-08,2.9995e-18,-1.3669e-22,1.6052,0.00052452,-0.00047705,1.8195e-32,8.4639e-05,-32.275,-118.6,-45.296,-0.012081,4.6115e-13,-2.0716e-17,80.612,-118.6,-45.296,-32.275,0,0.017002,0,1,4.22,0,-4.22,0
0,0,0,0,0,0,8.4524e-05,-0.00047648,2.7981e-35,-8.5158e-08,3.0359e-18,-7.479e-23,1.6042,0.00052388,-0.00047648,1.8743e-32,8.4524e-05,-32.24,-118.46,-45.244,-0.013076,4.6675e-13,-1.1199e-17,80.514,-118.46,-45.244,-32.24,0,0.017004,0,1,4.225,0,-4.225,0
0,0,0,0,0,0,8.4409e-05,-0.00047591,2.7493e-35,-9.1322e-08,3.0724e-18,-1.3906e-23,1.6033,0.00052325,-0.00047591,1.9299e-32,8.441e-05,-32.205,-118.32,-45.191,-0.014024,4.7236e-13,-1.8386e-18,80.416,-118.32,-45.191,-32.205,0,0.017007,0,1,4.23,0,-4.23,0
0,0,0,0,0,0,8.4295e-05,-0.00047534,2.7021e-35,-9.7179e-08,3.1089e-18,4.5962e-23,1.6023,0.00052261,-0.00047534,1.9863e-32,8.4295e-05,-32.17,-118.18,-45.138,-0.014925,4.7798e-13,7.3663e-18,80.319,-118.18,-45.138,-32.17,0,0.017009,0,1,4.235,0,-4.235,0
0,0,0,0,0,0,8.4182e-05,-0.00047477,2.6564e-35,-1.0273e-07,3.1454e-18,1.0481e-22,1.6014,0.00052197,-0.00047477,2.0435e-32,8.4182e-05,-32.135,-118.04,-45.085,-0.015778,4.836e-13,1.6414e-17,80.221,-118.04,-45.085,-32.135,0,0.017011,0,1,4.24,0,-4.24,0
0,0,0,0,0,0,8.4068e-05,-0.0004742,2.6122e-35,-1.0797e-07,3.1821e-18,1.6265e-22,1.6004,0.00052134,-0.0004742,2.1015e-32,8.4069e-05,-32.099,-117.9,-45.032,-0.016584,4.8923e-13,2.5308e-17,80.123,-117.9,-45.032,-32.099,0,0.017014,0,1,4.245,0,-4.245,0
0,0,0,0,0,0,8.3956e-05,-0.00047362,2.5696e-35,-1.129e-07,3.2187e-18,2.1947e-22,1.5995,0.0005207,-0.00047362,2.1603e-32,8.3956e-05,-32.063,-117.76,-44.979,-0.017342,4.9487e-13,3.4045e-17,80.026,-117.76,-44.979,-32.063,0,0.017016,0,1,4.25,0,-4.25,0
0,0,0,0,0,0,8.3844e-05,-0.00047305,2.5285e-35,-1.1752e-07,3.2554e-18,2.7528e-22,1.5986,0.00052007,-0.00047305,2.22e-32,8.3844e-05,-32.027,-117.62,-44.926,-0.018054,5.0051e-13,4.2627e-17,79.928,-117.62,-44.926,-32.027,0,0.017019,0,1,4.255,0,-4.255,0
0,0,0,0,0,0,8.3732e-05,-0.00047248,2.489e-35,-1.2184e-07,3.2922e-18,3.3007e-22,1.5976,0.00051943,-0.00047248,2.2804e-32,8.3732e-05,-31.991,-117.48,-44.873,-0.018717,5.0616e-13,5.1052e-17,79.83,-117.48,-44.873,-31.991,0,0.017021,0,1,4.26,0,-4.26,0
0,0,0,0,0,0,8.3621e-05,-0.00047191,2.451e-35,-1.2585e-07,3.329e-18,3.8384e-22,1.5967,0.0005188,-0.00047191,2.3416e-32,8.3621e-05,-31.955,-117.34,-44.82,-0.019334,5.1182e-13,5.9322e-17,79.733,-117.34,-44.82,-31.955,0,0.017023,0,1,4.265,0,-4.265,0
0,0,0,0,0,0,8.351e-05,-0.00047133,2.4145e-35,-1.2955e-07,3.3659e-18,4.3661e-22,1.5957,0.00051816,-0.00047133,2.4037e-32,8.351e-05,-31.919,-117.2,-44.766,-0.019903,5.1749e-13,6.7436e-17,79.635,-117.2,-44.766,-31.919,0,0.017026,0,1,4.27,0,-4.27,0
0,0,0,0,0,0,8.34e-05,-0.00047076,2.3796e-35,-1.3294e-07,3.4028e-18,4.8835e-22,1.5948,0.00051753,-0.00047076,2.4665e-32,8.34e-05,-31.883,-117.06,-44.713,-0.020424,5.2317e-13,7.5394e-17,79.538,-117.06,-44.713,-31.883,0,0.017028,0,1,4.275,0,-4.275,0
0,0,0,0,0,0,8.329e-05,-0.00047019,2.3462e-35,-1.3602e-07,3.4398e-18,5.3909e-22,1.5938,0.00051689,-0.00047019,2.5302e-32,8.329e-05,-31.846,-116.91,-44.659,-0.020899,5.2885e-13,8.3197e-17,79.44,-116.91,-44.659,-31.846,0,0.01703,0,1,4.28,0,-4.28,0
0,0,0,0,0,0,8.3181e-05,-0.00046962,2.3144e-35,-1.388e-07,3.4768e-18,5.888e-22,1.5929,0.00051626,-0.00046962,2.5947e-32,8.3181e-05,-31.809,-116.77,-44.606,-0.021325,5.3455e-13,9.0843e-17,79.343,-116.77,-44.606,-31.809,0,0.017033,0,1,4.285,0,-4.285,0
0,0,0,0,0,0,8.3072e-05,-0.00046904,2.2841e-35,-1.4126e-07,3.5139e-18,6.375e-22,1.5919,0.00051562,-0.00046904,2.66e-32,8.3072e-05,-31.772,-116.63,-44.552,-0.021705,5.4025e-13,9.8333e-17,79.245,-116.63,-44.552,-31.772,0,0.017035,0,1,4.29,0,-4.29,0
0,0,0,0,0,0,8.2964e-05,-0.00046847,2.2553e-35,-1.4342e-07,3.551e-18,6.8519e-22,1.591,0.00051499,-0.00046847,2.7261e-32,8.2963e-05,-31.735,-116.49,-44.499,-0.022037,5.4595e-13,1.0567e-16,79.148,-116.49,-44.499,-31.735,0,0.017037,0,1,4.295,0,-4.295,0
0,0,0,0,0,0,8.2856e-05,-0.0004679,2.2281e-35,-1.4527e-07,3.5882e-18,7.3186e-22,1.59,0.00051435,-0.0004679,2.793e-32,8.2856e-05,-31.698,-116.35,-44.445,-0.022322,5.5167e-13,1.1285e-16,79.051,-116.35,-44.445,-31.698,0,0.01704,0,1,4.3,0,-4.3,0
0,0,0,0,0,0,8.2748e-05,-0.00046732,2.2024e-35,-1.4682e-07,3.6254e-18,7.7752e-22,1.5891,0.00051372,-0.00046732,2.8607e-32,8.2748e-05,-31.661,-116.21,-44.391,-0.022559,5.5739e-13,1.1987e-16,78.953,-116.21,-44.391,-31.661,0,0.017042,0,1,4.305,0,-4.305,0
0,0,0,0,0,0,8.2642e-05,-0.00046675,2.1782e-35,-1.4805e-07,3.6626e-18,8.2216e-22,1.5882,0.00051308,-0.00046675,2.9292e-32,8.2641e-05,-31.623,-116.06,-44.337,-0.022749,5.6312e-13,1.2674e-16,78.856,-116.06,-44.337,-31.623,0,0.017044,0,1,4.31,0,-4.31,0
0,0,0,0,0,0,8.2535e-05,-0.00046617,2.1556e-35,-1.4898e-07,3.7e-18,8.6579e-22,1.5872,0.00051245,-0.00046617,2.9985e-32,8.2535e-05,-31.586,-115.92,-44.283,-0.022891,5.6886e-13,1.3345e-16,78.759,-115.92,-44.283,-31.586,0,0.017047,0,1,4.315,0,-4.315,0
0,0,0,0,0,0,8.2429e-05,-0.0004656,2.1345e-35,-1.496e-07,3.7373e-18,9.084e-22,1.5863,0.00051182,-0.0004656,3.0687e-32,8.2429e-05,-31.548,-115.78,-44.229,-0.022986,5.7461e-13,1.4001e-16,78.661,-115.78,-44.229,-31.548,0,0.017049,0,1,4.32,0,-4.32,0
0,0,0,0,0,0,8.2324e-05,-0.00046503,2.115e-35,-1.4991e-07,3.7748e-18,9.4999e-22,1.5853,0.00051118,-0.00046503,3.1396e-32,8.2324e-05,-31.51,-115.64,-44.175,-0.023034,5.8036e-13,1.4641e-16,78.564,-115.64,-44.175,-31.51,0,0.017051,0,1,4.325,0,-4.325,0
0,0,0,0,0,0,8.2219e-05,-0.00046445,2.097e-35,-1.4991e-07,3.8122e-18,9.9057e-22,1.5844,0.00051055,-0.00046445,3.2114e-32,8.2219e-05,-31.472,-115.49,-44.121,-0.023035,5.8612e-13,1.5265e-16,78.467,-115.49,-44.121,-31.472,0,0.017054,0,1,4.33,0,-4.33,0
0,0,0,0,0,0,8.2115e-05,-0.00046388,2.0805e-35,-1.496e-07,3.8497e-18,1.0301e-21,1.5834,0.00050992,-0.00046388,3.2839e-32,8.2114e-05,-31.434,-115.35,-44.066,-0.022988,5.9189e-13,1.5874e-16,78.37,-115.35,-44.066,-31.434,0,0.017056,0,1,4.335,0,-4.335,0
0,0,0,0,0,0,8.2011e-05,-0.0004633,2.0656e-35,-1.4899e-07,3.8873e-18,1.0687e-21,1.5825,0.00050928,-0.0004633,3.3573e-32,8.2011e-05,-31.395,-115.21,-44.012,-0.022893,5.9767e-13,1.6467e-16,78.272,-115.21,-44.012,-31.395,0,0.017058,0,1,4.34,0,-4.34,0
0,0,0,0,0,0,8.1907e-05,-0.00046273,2.0522e-35,-1.4807e-07,3.9249e-18,1.1062e-21,1.5815,0.00050865,-0.00046273,3.4315e-32,8.1907e-05,-31.357,-115.07,-43.958,-0.022752,6.0345e-13,1.7045e-16,78.175,-115.07,-43.958,-31.357,0,0.017061,0,1,4.345,0,-4.345,0
0,0,0,0,0,0,8.1804e-05,-0.00046215,2.0404e-35,-1.4684e-07,3.9626e-18,1.1427e-21,1.5806,0.00050802,-0.00046215,3.5065e-32,8.1804e-05,-31.318,-114.92,-43.903,-0.022562,6.0925e-13,1.7607e-16,78.078,-114.92,-43.903,-31.318,0,0.017063,0,1,4.35,0,-4.35,0
0,0,0,0,0,0,8.1702e-05,-0.00046158,2.0301e-35,-1.453e-07,4.0003e-18,1.1783e-21,1.5796,0.00050739,-0.00046158,3.5823e-32,8.1702e-05,-31.279,-114.78,-43.848,-0.022326,6.1505e-13,1.8153e-16,77.981,-114.78,-43.848,-31.279,0,0.017065,0,1,4.355,0,-4.355,0
0,0,0,0,0,0,8.16e-05,-0.000461,2.0213e-35,-1.4345e-07,4.0381e-18,1.2127e-21,1.5787,0.00050675,-0.000461,3.6589e-32,8.16e-05,-31.24,-114.64,-43.794,-0.022042,6.2086e-13,1.8684e-16,77.884,-114.64,-43.794,-31.24,0,0.017068,0,1,4.36,0,-4.36,0
0,0,0,0,0,0,8.1498e-05,-0.00046043,2.0141e-35,-1.413e-07,4.0759e-18,1.2462e-21,1.5778,0.00050612,-0.00046043,3.7363e-32,8.1498e-05,-31.201,-114.5,-43.739,-0.021711,6.2667e-13,1.92e-16,77.787,-114.5,-43.739,-31.201,0,0.01707,0,1,4.365,0,-4.365,0
0,0,0,0,0,0,8.1397e-05,-0.00045985,2.0084e-35,-1.3884e-07,4.1138e-18,1.2787e-21,1.5768,0.00050549,-0.00045985,3.8145e-32,8.1397e-05,-31.162,-114.35,-43.684,-0.021332,6.3249e-13,1.9699e-16,77.69,-114.35,-43.684,-31.162,0,0.017072,0,1,4.37,0,-4.37,0
0,0,0,0,0,0,8.1297e-05,-0.00045928,2.0042e-35,-1.3607e-07,4.1517e-18,1.3101e-21,1.5759,0.00050486,-0.00045928,3.8935e-32,8.1297e-05,-31.123,-114.21,-43.629,-0.020906,6.3833e-13,2.0184e-16,77.593,-114.21,-43.629,-31.123,0,0.017075,0,1,4.375,0,-4.375,0
0,0,0,0,0,0,8.1197e-05,-0.0004587,2.0016e-35,-1.3299e-07,4.1897e-18,1.3406e-21,1.5749,0.00050423,-0.0004587,3.9734e-32,8.1197e-05,-31.083,-114.07,-43.574,-0.020433,6.4416e-13,2.0652e-16,77.496,-114.07,-43.574,-31.083,0,0.017077,0,1,4.38,0,-4.38,0
0,0,0,0,0,0,8.1097e-05,-0.00045812,2.0006e-35,-1.296e-07,4.2277e-18,1.37e-21,1.574,0.00050359,-0.00045812,4.054e-32,8.1097e-05,-31.043,-113.92,-43.519,-0.019912,6.5001e-13,2.1105e-16,77.399,-113.92,-43.519,-31.043,0,0.017079,0,1,4.385,0,-4.385,0
0,0,0,0,0,0,8.0998e-05,-0.00045755,2.001e-35,-1.259e-07,4.2658e-18,1.3984e-21,1.573,0.00050296,-0.00045755,4.1355e-32,8.0998e-05,-31.003,-113.78,-43.464,-0.019344,6.5587e-13,2.1543e-16,77.302,-113.78,-43.464,-31.004,0,0.017081,0,1,4.39,0,-4.39,0
0,0,0,0,0,0,8.0899e-05,-0.00045697,2.003e-35,-1.219e-07,4.3039e-18,1.4258e-21,1.5721,0.00050233,-0.00045697,4.2178e-32,8.0899e-05,-30.964,-113.64,-43.409,-0.018728,6.6173e-13,2.1965e-16,77.205,-113.64,-43.409,-30.964,0,0.017084,0,1,4.395,0,-4.395,0
0,0,0,0,0,0,8.0801e-05,-0.00045639,2.0066e-35,-1.1759e-07,4.3421e-18,1.4521e-21,1.5711,0.0005017,-0.00045639,4.3008e-32,8.0801e-05,-30.923,-113.49,-43.354,-0.018065,6.676e-13,2.2371e-16,77.108,-113.49,-43.354,-30.923,0,0.017086,0,1,4.4,0,-4.4,0
0,0,0,0,0,0,8.0704e-05,-0.00045582,2.0116e-35,-1.1297e-07,4.3803e-18,1.4775e-21,1.5702,0.00050107,-0.00045582,4.3847e-32,8.0704e-05,-30.883,-113.35,-43.299,-0.017355,6.7348e-13,2.2762e-16,77.011,-113.35,-43.299,-30.883,0,0.017088,0,1,4.405,0,-4.405,0
0,0,0,0,0,0,8.0607e-05,-0.00045524,2.0183e-35,-1.0804e-07,4.4186e-18,1.5018e-21,1.5692,0.00050044,-0.00045524,4.4694e-32,8.0607e-05,-30.843,-113.2,-43.243,-0.016597,6.7936e-13,2.3137e-16,76.914,-113.2,-43.243,-30.843,0,0.017091,0,1,4.41,0,-4.41,0
0,0,0,0,0,0,8.051e-05,-0.00045466,2.0264e-35,-1.0281e-07,4.4569e-18,1.5252e-21,1.5683,0.00049981,-0.00045466,4.5549e-32,8.051e-05,-30.802,-113.06,-43.188,-0.015792,6.8525e-13,2.3496e-16,76.817,-113.06,-43.188,-30.802,0,0.017093,0,1,4.415,0,-4.415,0
0,0,0,0,0,0,8.0414e-05,-0.00045409,2.0361e-35,-9.7265e-08,4.4953e-18,1.5475e-21,1.5674,0.00049918,-0.00045409,4.6412e-32,8.0414e-05,-30.761,-112.92,-43.132,-0.01494,6.9116e-13,2.384e-16,76.721,-112.92,-43.132,-30.761,0,0.017095,0,1,4.42,0,-4.42,0
0,0,0,0,0,0,8.0318e-05,-0.00045351,2.0473e-35,-9.1413e-08,4.5337e-18,1.5688e-21,1.5664,0.00049855,-0.00045351,4.7283e-32,8.0318e-05,-30.72,-112.77,-43.077,-0.01404,6.9706e-13,2.4169e-16,76.624,-112.77,-43.077,-30.72,0,0.017097,0,1,4.425,0,-4.425,0
0,0,0,0,0,0,8.0223e-05,-0.00045293,2.0601e-35,-8.5254e-08,4.5722e-18,1.589e-21,1.5655,0.00049792,-0.00045293,4.8162e-32,8.0223e-05,-30.679,-112.63,-43.021,-0.013093,7.0298e-13,2.4481e-16,76.527,-112.63,-43.021,-30.679,0,0.0171,0,1,4.43,0,-4.43,0
0,0,0,0,0,0,8.0128e-05,-0.00045236,2.0744e-35,-7.8786e-08,4.6107e-18,1.6083e-21,1.5645,0.00049729,-0.00045236,4.905e-32,8.0128e-05,-30.638,-112.48,-42.965,-0.012098,7.089e-13,2.4779e-16,76.43,-112.48,-42.965,-30.638,0,0.017102,0,1,4.435,0,-4.435,0
0,0,0,0,0,0,8.0034e-05,-0.00045178,2.0903e-35,-7.201e-08,4.6493e-18,1.6266e-21,1.5636,0.00049666,-0.00045178,4.9945e-32,8.0034e-05,-30.597,-112.34,-42.909,-0.011056,7.1484e-13,2.506e-16,76.333,-112.34,-42.909,-30.597,0,0.017104,0,1,4.44,0,-4.44,0
0,0,0,0,0,0,7.994e-05,-0.0004512,2.1077e-35,-6.4926e-08,4.688e-18,1.6438e-21,1.5626,0.00049603,-0.0004512,5.0849e-32,7.994e-05,-30.555,-112.19,-42.854,-0.0099666,7.2078e-13,2.5326e-16,76.237,-112.19,-42.854,-30.555,0,0.017106,0,1,4.445,0,-4.445,0
0,0,0,0,0,0,7.9847e-05,-0.00045062,2.1266e-35,-5.7534e-08,4.7266e-18,1.66e-21,1.5617,0.0004954,-0.00045062,5.176e-32,7.9847e-05,-30.514,-112.05,-42.798,-0.0088299,7.2672e-13,2.5577e-16,76.14,-112.05,-42.798,-30.514,0,0.017109,0,1,4.45,0,-4.45,0
0,0,0,0,0,0,7.9754e-05,-0.00045004,2.1471e-35,-4.9834e-08,4.7654e-18,1.6752e-21,1.5607,0.00049477,-0.00045004,5.268e-32,7.9754e-05,-30.472,-111.9,-42.742,-0.0076458,7.3268e-13,2.5812e-16,76.043,-111.9,-42.742,-30.472,0,0.017111,0,1,4.455,0,-4.455,0
0,0,0,0,0,0,7.9662e-05,-0.00044947,2.1691e-35,-4.1825e-08,4.8041e-18,1.6894e-21,1.5598,0.00049414,-0.00044947,5.3607e-32,7.9662e-05,-30.43,-111.76,-42.685,-0.0064142,7.3864e-13,2.6031e-16,75.947,-111.76,-42.685,-30.43,0,0.017113,0,1,4.46,0,-4.46,0
0,0,0,0,0,0,7.957e-05,-0.00044889,2.1926e-35,-3.3509e-08,4.843e-18,1.7026e-21,1.5588,0.00049351,-0.00044889,5.4543e-32,7.957e-05,-30.388,-111.61,-42.629,-0.0051353,7.4461e-13,2.6235e-16,75.85,-111.61,-42.629,-30.388,0,0.017115,0,1,4.465,0,-4.465,0
0,0,0,0,0,0,7.9479e-05,-0.00044831,2.2177e-35,-2.4885e-08,4.8818e-18,1.7147e-21,1.5579,0.00049288,-0.00044831,5.5487e-32,7.9479e-05,-30.346,-111.47,-42.573,-0.0038091,7.5059e-13,2.6423e-16,75.754,-111.47,-42.573,-30.346,0,0.017118,0,1,4.47,0,-4.47,0
0,0,0,0,0,0,7.9388e-05,-0.00044773,2.2443e-35,-1.5952e-08,4.9208e-18,1.7259e-21,1.557,0.00049225,-0.00044773,5.6439e-32,7.9388e-05,-30.303,-111.32,-42.517,-0.0024354,7.5658e-13,2.6595e-16,75.657,-111.32,-42.517,-30.303,0,0.01712,0,1,4.475,0,-4.475,0
0,0,0,0,0,0,7.9298e-05,-0.00044715,2.2725e-35,-6.7107e-09,4.9598e-18,1.736e-21,1.556,0.00049162,-0.00044715,5.7399e-32,7.9298e-05,-30.261,-111.18,-42.46,-0.0010144,7.6257e-13,2.6752e-16,75.561,-111.18,-42.46,-30.261,0,0.017122,0,1,4.48,0,-4.48,0
0,0,0,0,0,0,7.9208e-05,-0.00044657,2.3022e-35,2.8384e-09,4.9988e-18,1.7451e-21,1.5551,0.00049099,-0.00044657,5.8367e-32,7.9208e-05,-30.218,-111.03,-42.404,0.00045411,7.6857e-13,2.6894e-16,75.464,-111.03,-42.404,-30.218,0,0.017124,0,1,4.485,0,-4.485,0
0,0,0,0,0,0,7.9119e-05,-0.00044599,2.3334e-35,1.2695e-08,5.0379e-18,1.7532e-21,1.5541,0.00049036,-0.00044599,5.9344e-32,7.9119e-05,-30.175,-110.89,-42.347,0.0019698,7.7458e-13,2.702e-16,75.368,-110.89,-42.347,-30.175,0,0.017127,0,1,4.49,0,-4.49,0
0,0,0,0,0,0,7.903e-05,-0.00044541,2.3662e-35,2.286e-08,5.077e-18,1.7603e-21,1.5532,0.00048974,-0.00044541,6.0328e-32,7.903e-05,-30.133,-110.74,-42.291,0.003533,7.806e-13,2.713e-16,75.271,-110.74,-42.291,-30.133,0,0.017129,0,1,4.495,0,-4.495,0
0,0,0,0,0,0,7.8942e-05,-0.00044484,2.4005e-35,3.3333e-08,5.1162e-18,1.7664e-21,1.5522,0.00048911,-0.00044484,6.132e-32,7.8942e-05,-30.089,-110.6,-42.234,0.0051436,7.8662e-13,2.7225e-16,75.175,-110.6,-42.234,-30.089,0,0.017131,0,1,4.5,0,-4.5,0
0,0,0,0,0,0,7.8854e-05,-0.00044426,2.4363e-35,4.4115e-08,5.1554e-18,1.7714e-21,1.5513,0.00048848,-0.00044426,6.2321e-32,7.8854e-05,-30.046,-110.45,-42.177,0.0068016,7.9266e-13,2.7304e-16,75.078,-110.45,-42.177,-30.046,0,0.017133,0,1,4.505,0,-4.505,0
0,0,0,0,0,0,7.8766e-05,-0.00044368,2.4737e-35,5.5205e-08,5.1947e-18,1.7755e-21,1.5503,0.00048785,-0.00044368,6.3329e-32,7.8766e-05,-30.003,-110.31,-42.12,0.008507,7.987e-13,2.7367e-16,74.982,-110.31,-42.12,-30.003,0,0.017135,0,1,4.51,0,-4.51,0
0,0,0,0,0,0,7.8679e-05,-0.0004431,2.5126e-35,6.6601e-08,5.234e-18,1.7785e-21,1.5494,0.00048722,-0.0004431,6.4346e-32,7.8679e-05,-29.959,-110.16,-42.063,0.01026,8.0474e-13,2.7415e-16,74.886,-110.16,-42.063,-29.959,0,0.017138,0,1,4.515,0,-4.515,0
0,0,0,0,0,0,7.8593e-05,-0.00044252,2.5531e-35,7.8307e-08,5.2734e-18,1.7805e-21,1.5484,0.0004866,-0.00044252,6.5371e-32,7.8593e-05,-29.916,-110.01,-42.006,0.01206,8.108e-13,2.7447e-16,74.789,-110.01,-42.006,-29.916,0,0.01714,0,1,4.52,0,-4.52,0
0,0,0,0,0,0,7.8507e-05,-0.00044194,2.5951e-35,9.0321e-08,5.3128e-18,1.7815e-21,1.5475,0.00048597,-0.00044194,6.6404e-32,7.8507e-05,-29.872,-109.87,-41.949,0.013907,8.1686e-13,2.7464e-16,74.693,-109.87,-41.949,-29.872,0,0.017142,0,1,4.525,0,-4.525,0
0,0,0,0,0,0,7.8421e-05,-0.00044136,2.6387e-35,1.0264e-07,5.3523e-18,1.7815e-21,1.5466,0.00048534,-0.00044136,6.7445e-32,7.8422e-05,-29.828,-109.72,-41.892,0.015802,8.2293e-13,2.7465e-16,74.597,-109.72,-41.892,-29.828,0,0.017144,0,1,4.53,0,-4.53,0
0,0,0,0,0,0,7.8337e-05,-0.00044078,2.6837e-35,1.1527e-07,5.3919e-18,1.7805e-21,1.5456,0.00048472,-0.00044078,6.8493e-32,7.8337e-05,-29.784,-109.57,-41.835,0.017744,8.2901e-13,2.7451e-16,74.5,-109.57,-41.835,-29.784,0,0.017146,0,1,4.535,0,-4.535,0
0,0,0,0,0,0,7.8252e-05,-0.0004402,2.7304e-35,1.2821e-07,5.4314e-18,1.7784e-21,1.5447,0.00048409,-0.0004402,6.9551e-32,7.8252e-05,-29.739,-109.43,-41.778,0.019734,8.351e-13,2.7421e-16,74.404,-109.43,-41.778,-29.739,0,0.017149,0,1,4.54,0,-4.54,0
0,0,0,0,0,0,7.8168e-05,-0.00043961,2.7785e-35,1.4146e-07,5.4711e-18,1.7753e-21,1.5437,0.00048346,-0.00043961,7.0616e-32,7.8168e-05,-29.695,-109.28,-41.72,0.021771,8.4119e-13,2.7375e-16,74.308,-109.28,-41.72,-29.695,0,0.017151,0,1,4.545,0,-4.545,0
0,0,0,0,0,0,7.8085e-05,-0.00043903,2.8282e-35,1.5501e-07,5.5108e-18,1.7713e-21,1.5428,0.00048284,-0.00043903,7.1689e-32,7.8085e-05,-29.65,-109.14,-41.663,0.023855,8.473e-13,2.7314e-16,74.212,-109.14,-41.663,-29.65,0,0.017153,0,1,4.55,0,-4.55,0
0,0,0,0,0,0,7.8001e-05,-0.00043845,2.8795e-35,1.6887e-07,5.5505e-18,1.7662e-21,1.5418,0.00048221,-0.00043845,7.277e-32,7.8002e-05,-29.606,-108.99,-41.606,0.025987,8.534e-13,2.7238e-16,74.115,-108.99,-41.606,-29.606,0,0.017155,0,1,4.555,0,-4.555,0
0,0,0,0,0,0,7.7919e-05,-0.00043787,2.9322e-35,1.8304e-07,5.5903e-18,1.7601e-21,1.5409,0.00048158,-0.00043787,7.386e-32,7.7919e-05,-29.561,-108.84,-41.548,0.028166,8.5952e-13,2.7145e-16,74.019,-108.84,-41.548,-29.561,0,0.017157,0,1,4.56,0,-4.56,0
0,0,0,0,0,0,7.7837e-05,-0.00043729,2.9865e-35,1.9752e-07,5.6301e-18,1.7529e-21,1.5399,0.00048096,-0.00043729,7.4957e-32,7.7837e-05,-29.516,-108.7,-41.49,0.030393,8.6565e-13,2.7037e-16,73.923,-108.7,-41.49,-29.516,0,0.01716,0,1,4.565,0,-4.565,0
0,0,0,0,0,0,7.7755e-05,-0.00043671,3.0424e-35,2.1231e-07,5.67e-18,1.7448e-21,1.539,0.00048033,-0.00043671,7.6063e-32,7.7756e-05,-29.47,-108.55,-41.433,0.032667,8.7178e-13,2.6914e-16,73.827,-108.55,-41.433,-29.47,0,0.017162,0,1,4.57,0,-4.57,0
0,0,0,0,0,0,7.7674e-05,-0.00043613,3.0998e-35,2.274e-07,5.7099e-18,1.7356e-21,1.538,0.0004797,-0.00043613,7.7176e-32,7.7675e-05,-29.425,-108.4,-41.375,0.034988,8.7792e-13,2.6775e-16,73.731,-108.4,-41.375,-29.425,0,0.017164,0,1,4.575,0,-4.575,0
0,0,0,0,0,0,7.7594e-05,-0.00043555,3.1587e-35,2.4281e-07,5.7499e-18,1.7255e-21,1.5371,0.00047908,-0.00043555,7.8298e-32,7.7594e-05,-29.38,-108.25,-41.317,0.037357,8.8407e-13,2.662e-16,73.635,-108.25,-41.317,-29.38,0,0.017166,0,1,4.58,0,-4.58,0
0,0,0,0,0,0,7.7514e-05,-0.00043496,3.2192e-35,2.5852e-07,5.79e-18,1.7143e-21,1.5362,0.00047845,-0.00043496,7.9428e-32,7.7514e-05,-29.334,-108.11,-41.259,0.039773,8.9023e-13,2.645e-16,73.539,-108.11,-41.259,-29.334,0,0.017168,0,1,4.585,0,-4.585,0
0,0,0,0,0,0,7.7434e-05,-0.00043438,3.2812e-35,2.7454e-07,5.8301e-18,1.7021e-21,1.5352,0.00047783,-0.00043438,8.0566e-32,7.7434e-05,-29.288,-107.96,-41.201,0.042236,8.9639e-13,2.6264e-16,73.443,-107.96,-41.201,-29.288,0,0.01717,0,1,4.59,0,-4.59,0
0,0,0,0,0,0,7.7355e-05,-0.0004338,3.3447e-35,2.9086e-07,5.8702e-18,1.6889e-21,1.5343,0.0004772,-0.0004338,8.1712e-32,7.7355e-05,-29.242,-107.81,-41.143,0.044747,9.0256e-13,2.6063e-16,73.347,-107.81,-41.143,-29.242,0,0.017173,0,1,4.595,0,-4.595,0
0,0,0,0,0,0,7.7276e-05,-0.00043322,3.4098e-35,3.075e-07,5.9104e-18,1.6746e-21,1.5333,0.00047658,-0.00043322,8.2866e-32,7.7277e-05,-29.196,-107.66,-41.085,0.047305,9.0874e-13,2.5846e-16,73.251,-107.66,-41.085,-29.196,0,0.017175,0,1,4.6,0,-4.6,0
0,0,0,0,0,0,7.7198e-05,-0.00043263,3.4764e-35,3.2444e-07,5.9506e-18,1.6594e-21,1.5324,0.00047595,-0.00043264,8.4028e-32,7.7198e-05,-29.15,-107.52,-41.027,0.049911,9.1493e-13,2.5613e-16,73.155,-107.52,-41.027,-29.15,0,0.017177,0,1,4.605,0,-4.605,0
0,0,0,0,0,0,7.712e-05,-0.00043205,3.5446e-35,3.4169e-07,5.9909e-18,1.6431e-21,1.5314,0.00047533,-0.00043205,8.5198e-32,7.7121e-05,-29.104,-107.37,-40.968,0.052564,9.2112e-13,2.5365e-16,73.059,-107.37,-40.968,-29.104,0,0.017179,0,1,4.61,0,-4.61,0
0,0,0,0,0,0,7.7043e-05,-0.00043147,3.6143e-35,3.5925e-07,6.0312e-18,1.6259e-21,1.5305,0.0004747,-0.00043147,8.6377e-32,7.7044e-05,-29.057,-107.22,-40.91,0.055264,9.2733e-13,2.5101e-16,72.963,-107.22,-40.91,-29.057,0,0.017181,0,1,4.615,0,-4.615,0
0,0,0,0,0,0,7.6966e-05,-0.00043089,3.6855e-35,3.7712e-07,6.0716e-18,1.6076e-21,1.5295,0.00047408,-0.00043089,8.7563e-32,7.6967e-05,-29.011,-107.07,-40.851,0.058012,9.3354e-13,2.4822e-16,72.867,-107.07,-40.851,-29.011,0,0.017183,0,1,4.62,0,-4.62,0
0,0,0,0,0,0,7.689e-05,-0.0004303,3.7583e-35,3.953e-07,6.1121e-18,1.5883e-21,1.5286,0.00047346,-0.0004303,8.8758e-32,7.6891e-05,-28.964,-106.92,-40.793,0.060807,9.3976e-13,2.4527e-16,72.771,-106.93,-40.793,-28.964,0,0.017186,0,1,4.625,0,-4.625,0
0,0,0,0,0,0,7.6814e-05,-0.00042972,3.8326e-35,4.1378e-07,6.1526e-18,1.5679e-21,1.5276,0.00047283,-0.00042972,8.996e-32,7.6815e-05,-28.917,-106.78,-40.734,0.063649,9.4598e-13,2.4217e-16,72.676,-106.78,-40.734,-28.917,0,0.017188,0,1,4.63,0,-4.63,0
0,0,0,0,0,0,7.6739e-05,-0.00042914,3.9085e-35,4.3257e-07,6.1931e-18,1.5466e-21,1.5267,0.00047221,-0.00042914,9.1171e-32,7.674e-05,-28.87,-106.63,-40.676,0.066539,9.5222e-13,2.3891e-16,72.58,-106.63,-40.676,-28.87,0,0.01719,0,1,4.635,0,-4.635,0
0,0,0,0,0,0,7.6664e-05,-0.00042855,3.9859e-35,4.5167e-07,6.2337e-18,1.5242e-21,1.5258,0.00047158,-0.00042855,9.239e-32,7.6665e-05,-28.823,-106.48,-40.617,0.069476,9.5846e-13,2.3549e-16,72.484,-106.48,-40.617,-28.822,0,0.017192,0,1,4.64,0,-4.64,0
0,0,0,0,0,0,7.659e-05,-0.00042797,4.0648e-35,4.7108e-07,6.2743e-18,1.5009e-21,1.5248,0.00047096,-0.00042797,9.3616e-32,7.6591e-05,-28.775,-106.33,-40.558,0.072461,9.6471e-13,2.3192e-16,72.388,-106.33,-40.558,-28.775,0,0.017194,0,1,4.645,0,-4.645,0
0,0,0,0,0,0,7.6516e-05,-0.00042739,4.1453e-35,4.908e-07,6.315e-18,1.4765e-21,1.5239,0.00047034,-0.00042739,9.4851e-32,7.6517e-05,-28.728,-106.18,-40.499,0.075493,9.7096e-13,2.2819e-16,72.293,-106.18,-40.499,-28.728,0,0.017196,0,1,4.65,0,-4.65,0
0,0,0,0,0,0,7.6443e-05,-0.0004268,4.2273e-35,5.1082e-07,6.3558e-18,1.4511e-21,1.5229,0.00046971,-0.0004268,9.6094e-32,7.6444e-05,-28.68,-106.03,-40.44,0.078573,9.7723e-13,2.2431e-16,72.197,-106.03,-40.44,-28.68,0,0.017198,0,1,4.655,0,-4.655,0
0,0,0,0,0,0,7.637e-05,-0.00042622,4.3108e-35,5.3115e-07,6.3966e-18,1.4247e-21,1.522,0.00046909,-0.00042622,9.7345e-32,7.6371e-05,-28.632,-105.89,-40.381,0.081699,9.835e-13,2.2027e-16,72.101,-105.89,-40.381,-28.632,0,0.017201,0,1,4.66,0,-4.66,0
0,0,0,0,0,0,7.6298e-05,-0.00042563,4.3959e-35,5.5179e-07,6.4374e-18,1.3973e-21,1.521,0.00046847,-0.00042563,9.8605e-32,7.6299e-05,-28.584,-105.74,-40.322,0.084873,9.8978e-13,2.1608e-16,72.006,-105.74,-40.322,-28.584,0,0.017203,0,1,4.665,0,-4.665,0
0,0,0,0,0,0,7.6226e-05,-0.00042505,4.4825e-35,5.7274e-07,6.4783e-18,1.3688e-21,1.5201,0.00046784,-0.00042505,9.9872e-32,7.6227e-05,-28.536,-105.59,-40.263,0.088095,9.9607e-13,2.1172e-16,71.91,-105.59,-40.263,-28.536,0,0.017205,0,1,4.67,0,-4.67,0
0,0,0,0,0,0,7.6155e-05,-0.00042446,4.5707e-35,5.94e-07,6.5192e-18,1.3394e-21,1.5191,0.00046722,-0.00042447,1.0115e-31,7.6156e-05,-28.488,-105.44,-40.204,0.091364,1.0024e-12,2.0722e-16,71.814,-105.44,-40.204,-28.488,0,0.017207,0,1,4.675,0,-4.675,0
0,0,0,0,0,0,7.6084e-05,-0.00042388,4.6604e-35,6.1556e-07,6.5602e-18,1.3089e-21,1.5182,0.0004666,-0.00042388,1.0243e-31,7.6085e-05,-28.439,-105.29,-40.144,0.09468,1.0087e-12,2.0255e-16,71.719,-105.29,-40.144,-28.439,0,0.017209,0,1,4.68,0,-4.68,0
0,0,0,0,0,0,7.6013e-05,-0.00042329,4.7516e-35,6.3744e-07,6.6013e-18,1.2774e-21,1.5172,0.00046598,-0.0004233,1.0372e-31,7.6014e-05,-28.391,-105.14,-40.085,0.098044,1.015e-12,1.9774e-16,71.623,-105.14,-40.085,-28.391,0,0.017211,0,1,4.685,0,-4.685,0
0,0,0,0,0,0,7.5944e-05,-0.00042271,4.8444e-35,6.5962e-07,6.6424e-18,1.2449e-21,1.5163,0.00046535,-0.00042271,1.0502e-31,7.5945e-05,-28.342,-104.99,-40.025,0.10145,1.0213e-12,1.9276e-16,71.528,-104.99,-40.025,-28.342,0,0.017213,0,1,4.69,0,-4.69,0
0,0,0,0,0,0,7.5874e-05,-0.00042212,4.9387e-35,6.8211e-07,6.6835e-18,1.2114e-21,1.5154,0.00046473,-0.00042213,1.0633e-31,7.5875e-05,-28.293,-104.84,-39.966,0.10491,1.0276e-12,1.8763e-16,71.432,-104.84,-39.966,-28.293,0,0.017215,0,1,4.695,0,-4.695,0
0,0,0,0,0,0,7.5805e-05,-0.00042154,5.0346e-35,7.0491e-07,6.7247e-18,1.1769e-21,1.5144,0.00046411,-0.00042154,1.0765e-31,7.5806e-05,-28.244,-104.69,-39.906,0.10842,1.034e-12,1.8235e-16,71.337,-104.69,-39.906,-28.244,0,0.017217,0,1,4.7,0,-4.7,0
0,0,0,0,0,0,7.5737e-05,-0.00042095,5.132e-35,7.2801e-07,6.766e-18,1.1413e-21,1.5135,0.00046349,-0.00042096,1.0897e-31,7.5738e-05,-28.195,-104.54,-39.847,0.11197,1.0403e-12,1.769e-16,71.241,-104.54,-39.847,-28.195,0,0.01722,0,1,4.705,0,-4.705,0
0,0,0,0,0,0,7.5669e-05,-0.00042037,5.2309e-35,7.5143e-07,6.8073e-18,1.1048e-21,1.5125,0.00046287,-0.00042037,1.103e-31,7.567e-05,-28.146,-104.39,-39.787,0.11557,1.0466e-12,1.7131e-16,71.146,-104.39,-39.787,-28.145,0,0.017222,0,1,4.71,0,-4.71,0
0,0,0,0,0,0,7.5613e-05,-0.00041997,5.2888e-35,7.4004e-07,6.7112e-18,1.0702e-21,1.5119,0.00046244,-0.00041997,1.0886e-31,7.5614e-05,-28.115,-104.29,-39.747,0.11382,1.0319e-12,1.6598e-16,71.08,-104.29,-39.747,-28.115,0,0.017224,0,1,4.715,0,-4.715,0
0,0,0,0,0,0,7.5559e-05,-0.0004196,5.3405e-35,7.2438e-07,6.5987e-18,1.0361e-21,1.5114,0.00046204,-0.0004196,1.0708e-31,7.556e-05,-28.086,-104.2,-39.711,0.11141,1.0146e-12,1.6073e-16,71.018,-104.2,-39.711,-28.086,0,0.017226,0,1,4.72,0,-4.72,0
0,0,0,0,0,0,7.5505e-05,-0.00041923,5.3915e-35,7.0887e-07,6.4872e-18,1.0023e-21,1.5109,0.00046164,-0.00041923,1.0531e-31,7.5506e-05,-28.058,-104.11,-39.674,0.10903,9.9744e-13,1.5551e-16,70.957,-104.11,-39.674,-28.058,0,0.017228,0,1,4.725,0,-4.725,0
0,0,0,0,0,0,7.5452e-05,-0.00041885,5.4416e-35,6.9351e-07,6.3766e-18,9.6879e-22,1.5104,0.00046123,-0.00041886,1.0356e-31,7.5453e-05,-28.029,-104.01,-39.637,0.10667,9.8043e-13,1.5034e-16,70.895,-104.01,-39.637,-28.029,0,0.01723,0,1,4.73,0,-4.73,0
0,0,0,0,0,0,7.5399e-05,-0.00041848,5.4908e-35,6.7829e-07,6.267e-18,9.3548e-22,1.5099,0.00046083,-0.00041848,1.0182e-31,7.54e-05,-28.001,-103.92,-39.6,0.10432,9.6357e-13,1.452e-16,70.833,-103.92,-39.6,-28,0,0.017232,0,1,4.735,0,-4.735,0
0,0,0,0,0,0,7.5346e-05,-0.00041811,5.5392e-35,6.6322e-07,6.1583e-18,9.0243e-22,1.5094,0.00046043,-0.00041811,1.0009e-31,7.5347e-05,-27.972,-103.82,-39.563,0.10201,9.4686e-13,1.401e-16,70.772,-103.82,-39.563,-27.972,0,0.017234,0,1,4.74,0,-4.74,0
0,0,0,0,0,0,7.5293e-05,-0.00041774,5.5867e-35,6.4829e-07,6.0505e-18,8.6961e-22,1.5088,0.00046003,-0.00041774,9.8377e-32,7.5294e-05,-27.943,-103.73,-39.526,0.099711,9.3029e-13,1.3504e-16,70.71,-103.73,-39.526,-27.943,0,0.017236,0,1,4.745,0,-4.745,0
0,0,0,0,0,0,7.5241e-05,-0.00041736,5.6334e-35,6.3351e-07,5.9437e-18,8.3705e-22,1.5083,0.00045963,-0.00041737,9.6678e-32,7.5242e-05,-27.914,-103.63,-39.489,0.097437,9.1387e-13,1.3002e-16,70.648,-103.64,-39.489,-27.914,0,0.017238,0,1,4.75,0,-4.75,0
0,0,0,0,0,0,7.5189e-05,-0.00041699,5.6793e-35,6.1887e-07,5.8378e-18,8.0472e-22,1.5078,0.00045923,-0.00041699,9.4992e-32,7.519e-05,-27.885,-103.54,-39.452,0.095186,8.9759e-13,1.2503e-16,70.587,-103.54,-39.452,-27.885,0,0.017241,0,1,4.755,0,-4.755,0
0,0,0,0,0,0,7.5137e-05,-0.00041662,5.7243e-35,6.0438e-07,5.7329e-18,7.7265e-22,1.5073,0.00045882,-0.00041662,9.332e-32,7.5138e-05,-27.856,-103.45,-39.415,0.092958,8.8145e-13,1.2008e-16,70.525,-103.45,-39.415,-27.856,0,0.017243,0,1,4.76,0,-4.76,0
0,0,0,0,0,0,7.5086e-05,-0.00041625,5.7685e-35,5.9004e-07,5.6289e-18,7.4082e-22,1.5068,0.00045842,-0.00041625,9.1662e-32,7.5087e-05,-27.827,-103.35,-39.378,0.090752,8.6546e-13,1.1517e-16,70.463,-103.35,-39.378,-27.827,0,0.017245,0,1,4.765,0,-4.765,0
0,0,0,0,0,0,7.5034e-05,-0.00041587,5.8118e-35,5.7584e-07,5.5258e-18,7.0923e-22,1.5062,0.00045802,-0.00041587,9.0017e-32,7.5035e-05,-27.797,-103.26,-39.341,0.088568,8.4962e-13,1.103e-16,70.402,-103.26,-39.341,-27.797,0,0.017247,0,1,4.77,0,-4.77,0
0,0,0,0,0,0,7.4983e-05,-0.0004155,5.8543e-35,5.6178e-07,5.4237e-18,6.7789e-22,1.5057,0.00045762,-0.0004155,8.8386e-32,7.4984e-05,-27.768,-103.16,-39.304,0.086407,8.3392e-13,1.0546e-16,70.34,-103.16,-39.304,-27.768,0,0.017249,0,1,4.775,0,-4.775,0
0,0,0,0,0,0,7.4933e-05,-0.00041513,5.8959e-35,5.4787e-07,5.3226e-18,6.4679e-22,1.5052,0.00045722,-0.00041513,8.6768e-32,7.4934e-05,-27.739,-103.07,-39.267,0.084268,8.1836e-13,1.0067e-16,70.279,-103.07,-39.267,-27.738,0,0.017251,0,1,4.78,0,-4.78,0
0,0,0,0,0,0,7.4882e-05,-0.00041475,5.9367e-35,5.3411e-07,5.2224e-18,6.1594e-22,1.5047,0.00045682,-0.00041475,8.5164e-32,7.4883e-05,-27.709,-102.97,-39.229,0.082151,8.0295e-13,9.5906e-17,70.217,-102.97,-39.229,-27.709,0,0.017253,0,1,4.785,0,-4.785,0
0,0,0,0,0,0,7.4832e-05,-0.00041438,5.9766e-35,5.205e-07,5.1231e-18,5.8533e-22,1.5042,0.00045642,-0.00041438,8.3574e-32,7.4833e-05,-27.679,-102.88,-39.192,0.080057,7.8769e-13,9.1185e-17,70.156,-102.88,-39.192,-27.679,0,0.017255,0,1,4.79,0,-4.79,0
0,0,0,0,0,0,7.4783e-05,-0.00041401,6.0157e-35,5.0703e-07,5.0247e-18,5.5497e-22,1.5036,0.00045602,-0.00041401,8.1997e-32,7.4783e-05,-27.65,-102.78,-39.155,0.077986,7.7257e-13,8.6501e-17,70.094,-102.78,-39.155,-27.65,0,0.017257,0,1,4.795,0,-4.795,0
0,0,0,0,0,0,7.4733e-05,-0.00041363,6.054e-35,4.937e-07,4.9273e-18,5.2486e-22,1.5031,0.00045562,-0.00041363,8.0434e-32,7.4734e-05,-27.62,-102.69,-39.117,0.075936,7.5759e-13,8.1855e-17,70.033,-102.69,-39.117,-27.62,0,0.017259,0,1,4.8,0,-4.8,0
0,0,0,0,0,0,7.4684e-05,-0.00041326,6.0914e-35,4.8053e-07,4.8309e-18,4.9499e-22,1.5026,0.00045522,-0.00041326,7.8885e-32,7.4685e-05,-27.59,-102.6,-39.08,0.07391,7.4276e-13,7.7247e-17,69.971,-102.6,-39.08,-27.59,0,0.017261,0,1,4.805,0,-4.805,0
0,0,0,0,0,0,7.4635e-05,-0.00041289,6.1279e-35,4.6749e-07,4.7354e-18,4.6536e-22,1.5021,0.00045482,-0.00041289,7.7349e-32,7.4636e-05,-27.56,-102.5,-39.042,0.071905,7.2808e-13,7.2676e-17,69.91,-102.5,-39.042,-27.56,0,0.017263,0,1,4.81,0,-4.81,0
0,0,0,0,0,0,7.4586e-05,-0.00041251,6.1636e-35,4.546e-07,4.6408e-18,4.3598e-22,1.5016,0.00045442,-0.00041251,7.5827e-32,7.4587e-05,-27.53,-102.41,-39.005,0.069923,7.1354e-13,6.8143e-17,69.848,-102.41,-39.005,-27.53,0,0.017265,0,1,4.815,0,-4.815,0
0,0,0,0,0,0,7.4538e-05,-0.00041214,6.1985e-35,4.4186e-07,4.5472e-18,4.0685e-22,1.501,0.00045402,-0.00041214,7.4318e-32,7.4538e-05,-27.5,-102.31,-38.967,0.067964,6.9914e-13,6.3648e-17,69.787,-102.31,-38.967,-27.5,0,0.017268,0,1,4.82,0,-4.82,0
0,0,0,0,0,0,7.449e-05,-0.00041177,6.2325e-35,4.2927e-07,4.4545e-18,3.7796e-22,1.5005,0.00045362,-0.00041177,7.2823e-32,7.449e-05,-27.47,-102.22,-38.93,0.066027,6.8489e-13,5.9192e-17,69.726,-102.22,-38.93,-27.47,0,0.01727,0,1,4.825,0,-4.825,0
0,0,0,0,0,0,7.4442e-05,-0.00041139,6.2657e-35,4.1682e-07,4.3628e-18,3.4931e-22,1.5,0.00045322,-0.00041139,7.1342e-32,7.4442e-05,-27.44,-102.12,-38.892,0.064112,6.7079e-13,5.4772e-17,69.664,-102.12,-38.892,-27.44,0,0.017272,0,1,4.83,0,-4.83,0
0,0,0,0,0,0,7.4394e-05,-0.00041102,6.298e-35,4.0451e-07,4.272e-18,3.2091e-22,1.4995,0.00045282,-0.00041102,6.9874e-32,7.4395e-05,-27.409,-102.03,-38.854,0.062219,6.5682e-13,5.0391e-17,69.603,-102.03,-38.854,-27.409,0,0.017274,0,1,4.835,0,-4.835,0
0,0,0,0,0,0,7.4347e-05,-0.00041065,6.3295e-35,3.9236e-07,4.1821e-18,2.9276e-22,1.499,0.00045242,-0.00041065,6.842e-32,7.4347e-05,-27.379,-101.93,-38.817,0.06035,6.4301e-13,4.6047e-17,69.542,-101.93,-38.817,-27.379,0,0.017276,0,1,4.84,0,-4.84,0
0,0,0,0,0,0,7.43e-05,-0.00041027,6.3601e-35,3.8034e-07,4.0932e-18,2.6485e-22,1.4984,0.00045202,-0.00041027,6.6979e-32,7.43e-05,-27.348,-101.84,-38.779,0.058502,6.2934e-13,4.1741e-17,69.48,-101.84,-38.779,-27.348,0,0.017278,0,1,4.845,0,-4.845,0
0,0,0,0,0,0,7.4253e-05,-0.0004099,6.3899e-35,3.6848e-07,4.0052e-18,2.3719e-22,1.4979,0.00045162,-0.0004099,6.5552e-32,7.4254e-05,-27.318,-101.74,-38.741,0.056677,6.1581e-13,3.7473e-17,69.419,-101.74,-38.741,-27.318,0,0.01728,0,1,4.85,0,-4.85,0
0,0,0,0,0,0,7.4207e-05,-0.00040952,6.4189e-35,3.5676e-07,3.9182e-18,2.0977e-22,1.4974,0.00045122,-0.00040952,6.4139e-32,7.4207e-05,-27.287,-101.65,-38.703,0.054874,6.0243e-13,3.3243e-17,69.358,-101.65,-38.703,-27.287,0,0.017282,0,1,4.855,0,-4.855,0
0,0,0,0,0,0,7.416e-05,-0.00040915,6.4469e-35,3.4518e-07,3.8321e-18,1.8259e-22,1.4969,0.00045083,-0.00040915,6.2739e-32,7.4161e-05,-27.256,-101.55,-38.666,0.053094,5.8919e-13,2.905e-17,69.297,-101.55,-38.666,-27.256,0,0.017284,0,1,4.86,0,-4.86,0
0,0,0,0,0,0,7.4114e-05,-0.00040878,6.4742e-35,3.3375e-07,3.747e-18,1.5567e-22,1.4964,0.00045043,-0.00040878,6.1353e-32,7.4115e-05,-27.226,-101.45,-38.628,0.051336,5.761e-13,2.4896e-17,69.235,-101.45,-38.628,-27.226,0,0.017286,0,1,4.865,0,-4.865,0
0,0,0,0,0,0,7.4069e-05,-0.0004084,6.5006e-35,3.2247e-07,3.6628e-18,1.2898e-22,1.4959,0.00045003,-0.0004084,5.9981e-32,7.4069e-05,-27.195,-101.36,-38.59,0.049601,5.6316e-13,2.0779e-17,69.174,-101.36,-38.59,-27.195,0,0.017288,0,1,4.87,0,-4.87,0
0,0,0,0,0,0,7.4023e-05,-0.00040803,6.5262e-35,3.1133e-07,3.5795e-18,1.0255e-22,1.4953,0.00044963,-0.00040803,5.8622e-32,7.4024e-05,-27.164,-101.26,-38.552,0.047888,5.5036e-13,1.67e-17,69.113,-101.26,-38.552,-27.164,0,0.01729,0,1,4.875,0,-4.875,0
0,0,0,0,0,0,7.3978e-05,-0.00040765,6.5509e-35,3.0034e-07,3.4972e-18,7.6352e-23,1.4948,0.00044923,-0.00040765,5.7276e-32,7.3979e-05,-27.133,-101.17,-38.514,0.046197,5.377e-13,1.2658e-17,69.052,-101.17,-38.514,-27.133,0,0.017292,0,1,4.88,0,-4.88,0
0,0,0,0,0,0,7.3934e-05,-0.00040728,6.5748e-35,2.8949e-07,3.4158e-18,5.0404e-23,1.4943,0.00044883,-0.00040728,5.5945e-32,7.3934e-05,-27.102,-101.07,-38.476,0.044529,5.2519e-13,8.6546e-18,68.991,-101.07,-38.476,-27.101,0,0.017294,0,1,4.885,0,-4.885,0
0,0,0,0,0,0,7.3889e-05,-0.0004069,6.5978e-35,2.7879e-07,3.3354e-18,2.4704e-23,1.4938,0.00044844,-0.00040691,5.4627e-32,7.389e-05,-27.07,-100.98,-38.438,0.042884,5.1282e-13,4.6892e-18,68.929,-100.98,-38.438,-27.07,0,0.017296,0,1,4.89,0,-4.89,0
0,0,0,0,0,0,7.3845e-05,-0.00040653,6.6199e-35,2.6823e-07,3.2559e-18,-7.5403e-25,1.4933,0.00044804,-0.00040653,5.3322e-32,7.3845e-05,-27.039,-100.88,-38.4,0.04126,5.006e-13,7.6111e-19,68.868,-100.88,-38.4,-27.039,0,0.017298,0,1,4.895,0,-4.895,0
0,0,0,0,0,0,7.3801e-05,-0.00040616,6.6413e-35,2.5783e-07,3.1774e-18,-2.5967e-23,1.4927,0.00044764,-0.00040616,5.2032e-32,7.3801e-05,-27.008,-100.79,-38.361,0.039659,4.8852e-13,-3.1291e-18,68.807,-100.79,-38.361,-27.007,0,0.0173,0,1,4.9,0,-4.9,0
0,0,0,0,0,0,7.3757e-05,-0.00040578,6.6618e-35,2.4756e-07,3.0998e-18,-5.0934e-23,1.4922,0.00044724,-0.00040578,5.0754e-32,7.3758e-05,-26.976,-100.69,-38.323,0.038081,4.7659e-13,-6.9816e-18,68.746,-100.69,-38.323,-26.976,0,0.017302,0,1,4.905,0,-4.905,0
0,0,0,0,0,0,7.3714e-05,-0.00040541,6.6814e-35,2.3744e-07,3.0231e-18,-7.5654e-23,1.4917,0.00044684,-0.00040541,4.9491e-32,7.3714e-05,-26.945,-100.59,-38.285,0.036525,4.648e-13,-1.0796e-17,68.685,-100.59,-38.285,-26.944,0,0.017304,0,1,4.91,0,-4.91,0
0,0,0,0,0,0,7.3671e-05,-0.00040503,6.7002e-35,2.2747e-07,2.9474e-18,-1.0013e-22,1.4912,0.00044645,-0.00040503,4.8241e-32,7.3671e-05,-26.913,-100.5,-38.247,0.034991,4.5316e-13,-1.4573e-17,68.624,-100.5,-38.247,-26.913,0,0.017306,0,1,4.915,0,-4.915,0
0,0,0,0,0,0,7.3628e-05,-0.00040466,6.7181e-35,2.1765e-07,2.8726e-18,-1.2436e-22,1.4907,0.00044605,-0.00040466,4.7004e-32,7.3628e-05,-26.881,-100.4,-38.208,0.03348,4.4166e-13,-1.8312e-17,68.563,-100.4,-38.208,-26.881,0,0.017308,0,1,4.92,0,-4.92,0
0,0,0,0,0,0,7.3585e-05,-0.00040428,6.7353e-35,2.0797e-07,2.7988e-18,-1.4835e-22,1.4901,0.00044565,-0.00040428,4.5782e-32,7.3586e-05,-26.849,-100.31,-38.17,0.031991,4.3031e-13,-2.2013e-17,68.502,-100.31,-38.17,-26.849,0,0.01731,0,1,4.925,0,-4.925,0
0,0,0,0,0,0,7.3543e-05,-0.00040391,6.7515e-35,1.9843e-07,2.7259e-18,-1.7209e-22,1.4896,0.00044526,-0.00040391,4.4573e-32,7.3544e-05,-26.817,-100.21,-38.132,0.030525,4.191e-13,-2.5676e-17,68.441,-100.21,-38.132,-26.817,0,0.017313,0,1,4.93,0,-4.93,0
0,0,0,0,0,0,7.3501e-05,-0.00040353,6.7669e-35,1.8904e-07,2.654e-18,-1.9558e-22,1.4891,0.00044486,-0.00040353,4.3377e-32,7.3502e-05,-26.785,-100.11,-38.093,0.029081,4.0804e-13,-2.9302e-17,68.38,-100.12,-38.093,-26.785,0,0.017315,0,1,4.935,0,-4.935,0
0,0,0,0,0,0,7.3459e-05,-0.00040316,6.7815e-35,1.798e-07,2.583e-18,-2.1884e-22,1.4886,0.00044446,-0.00040316,4.2195e-32,7.346e-05,-26.753,-100.02,-38.055,0.027659,3.9712e-13,-3.289e-17,68.319,-100.02,-38.055,-26.753,0,0.017317,0,1,4.94,0,-4.94,0
0,0,0,0,0,0,7.3418e-05,-0.00040278,6.7952e-35,1.707e-07,2.5129e-18,-2.4184e-22,1.4881,0.00044407,-0.00040278,4.1027e-32,7.3418e-05,-26.721,-99.923,-38.016,0.02626,3.8635e-13,-3.644e-17,68.258,-99.923,-38.016,-26.721,0,0.017319,0,1,4.945,0,-4.945,0
0,0,0,0,0,0,7.3377e-05,-0.00040241,6.8081e-35,1.6175e-07,2.4438e-18,-2.646e-22,1.4875,0.00044367,-0.00040241,3.9872e-32,7.3377e-05,-26.689,-99.827,-37.978,0.024883,3.7572e-13,-3.9952e-17,68.197,-99.827,-37.978,-26.689,0,0.017321,0,1,4.95,0,-4.95,0
0,0,0,0,0,0,7.3336e-05,-0.00040203,6.8201e-35,1.5294e-07,2.3756e-18,-2.8712e-22,1.487,0.00044327,-0.00040203,3.8731e-32,7.3336e-05,-26.657,-99.731,-37.939,0.023529,3.6524e-13,-4.3427e-17,68.136,-99.731,-37.939,-26.657,0,0.017323,0,1,4.955,0,-4.955,0
0,0,0,0,0,0,7.3295e-05,-0.00040166,6.8313e-35,1.4428e-07,2.3084e-18,-3.0939e-22,1.4865,0.00044288,-0.00040166,3.7604e-32,7.3296e-05,-26.624,-99.634,-37.9,0.022197,3.549e-13,-4.6863e-17,68.076,-99.634,-37.9,-26.624,0,0.017325,0,1,4.96,0,-4.96,0
0,0,0,0,0,0,7.3255e-05,-0.00040128,6.8416e-35,1.3577e-07,2.2421e-18,-3.3141e-22,1.486,0.00044248,-0.00040128,3.649e-32,7.3255e-05,-26.592,-99.538,-37.862,0.020888,3.4471e-13,-5.0262e-17,68.015,-99.538,-37.862,-26.592,0,0.017327,0,1,4.965,0,-4.965,0
0,0,0,0,0,0,7.3215e-05,-0.00040091,6.8511e-35,1.274e-07,2.1767e-18,-3.5319e-22,1.4855,0.00044208,-0.00040091,3.539e-32,7.3215e-05,-26.559,-99.442,-37.823,0.019601,3.3466e-13,-5.3623e-17,67.954,-99.442,-37.823,-26.559,0,0.017329,0,1,4.97,0,-4.97,0
0,0,0,0,0,0,7.3175e-05,-0.00040053,6.8598e-35,1.1918e-07,2.1123e-18,-3.7472e-22,1.4849,0.00044169,-0.00040053,3.4303e-32,7.3176e-05,-26.527,-99.345,-37.784,0.018336,3.2476e-13,-5.6946e-17,67.893,-99.345,-37.784,-26.527,0,0.017331,0,1,4.975,0,-4.975,0
0,0,0,0,0,0,7.3136e-05,-0.00040016,6.8676e-35,1.111e-07,2.0489e-18,-3.9601e-22,1.4844,0.00044129,-0.00040016,3.323e-32,7.3136e-05,-26.494,-99.249,-37.746,0.017094,3.15e-13,-6.0232e-17,67.832,-99.249,-37.746,-26.494,0,0.017333,0,1,4.98,0,-4.98,0
0,0,0,0,0,0,7.3097e-05,-0.00039978,6.8745e-35,1.0317e-07,1.9863e-18,-4.1706e-22,1.4839,0.0004409,-0.00039978,3.2171e-32,7.3097e-05,-26.461,-99.152,-37.707,0.015874,3.0539e-13,-6.348e-17,67.771,-99.152,-37.707,-26.461,0,0.017335,0,1,4.985,0,-4.985,0
0,0,0,0,0,0,7.3058e-05,-0.00039941,6.8806e-35,9.5384e-08,1.9248e-18,-4.3786e-22,1.4834,0.0004405,-0.00039941,3.1125e-32,7.3058e-05,-26.428,-99.056,-37.668,0.014677,2.9592e-13,-6.6689e-17,67.711,-99.056,-37.668,-26.428,0,0.017337,0,1,4.99,0,-4.99,0
0,0,0,0,0,0,7.3019e-05,-0.00039903,6.8859e-35,8.7744e-08,1.8641e-18,-4.5841e-22,1.4829,0.0004401,-0.00039903,3.0093e-32,7.3019e-05,-26.395,-98.959,-37.629,0.013502,2.866e-13,-6.9862e-17,67.65,-98.959,-37.629,-26.395,0,0.017339,0,1,4.995,0,-4.995,0
0,0,0,0,0,0,7.2981e-05,-0.00039865,6.8903e-35,8.025e-08,1.8044e-18,-4.7872e-22,1.4823,0.00043971,-0.00039866,2.9074e-32,7.2981e-05,-26.362,-98.863,-37.59,0.012349,2.7742e-13,-7.2996e-17,67.589,-98.863,-37.59,-26.362,0,0.017341,0,1,5,0,-5,0
