    1C
    1UUSER                                                              
    1UDATE              15.may.2021                                     
    1UTIME              14:51:40                                        
    1UHOST                                                              
    1UPGM               CalculiX                                        
    1UVERSION           Version 2.17                             
    1UCOMPILETIME       Thu Jul 23 21:43:50 CEST 2020                    
    1UDIR                                                               
    1UDBN                                                               
    1UMAT    1STEEL                                                     
    1UMAT    2CONTACT                                                   
    2C                          1412                                     1
 -1         1 4.00000E+01 0.00000E+00 0.00000E+00
 -1         2 0.00000E+00 0.00000E+00 0.00000E+00
 -1         3 0.00000E+00-2.00000E+01 0.00000E+00
 -1         4 4.00000E+01-2.00000E+01 0.00000E+00
 -1         5 0.00000E+00 0.00000E+00 0.00000E+00
 -1         6 1.00000E+01 1.00000E+01 0.00000E+00
 -1         7 0.00000E+00 1.00000E+01 0.00000E+00
 -1         9 3.71577E+01 0.00000E+00 0.00000E+00
 -1        10 3.35525E+01 0.00000E+00 0.00000E+00
 -1        11 3.02750E+01 0.00000E+00 0.00000E+00
 -1        12 2.72954E+01 0.00000E+00 0.00000E+00
 -1        13 2.45868E+01 0.00000E+00 0.00000E+00
 -1        14 2.21243E+01 0.00000E+00 0.00000E+00
 -1        15 1.98858E+01 0.00000E+00 0.00000E+00
 -1        16 1.78507E+01 0.00000E+00 0.00000E+00
 -1        17 1.60006E+01 0.00000E+00 0.00000E+00
 -1        18 1.43187E+01 0.00000E+00 0.00000E+00
 -1        19 1.27898E+01 0.00000E+00 0.00000E+00
 -1        20 1.13998E+01 0.00000E+00 0.00000E+00
 -1        21 1.01362E+01 0.00000E+00 0.00000E+00
 -1        22 8.98743E+00 0.00000E+00 0.00000E+00
 -1        23 7.94312E+00 0.00000E+00 0.00000E+00
 -1        24 6.99375E+00 0.00000E+00 0.00000E+00
 -1        25 6.13068E+00 0.00000E+00 0.00000E+00
 -1        26 5.34607E+00 0.00000E+00 0.00000E+00
 -1        27 4.63279E+00 0.00000E+00 0.00000E+00
 -1        28 3.98436E+00 0.00000E+00 0.00000E+00
 -1        29 3.39487E+00 0.00000E+00 0.00000E+00
 -1        30 2.85897E+00 0.00000E+00 0.00000E+00
 -1        31 2.37179E+00 0.00000E+00 0.00000E+00
 -1        32 1.92890E+00 0.00000E+00 0.00000E+00
 -1        33 1.52628E+00 0.00000E+00 0.00000E+00
 -1        34 1.16025E+00 0.00000E+00 0.00000E+00
 -1        35 8.27500E-01 0.00000E+00 0.00000E+00
 -1        36 5.25000E-01 0.00000E+00 0.00000E+00
 -1        37 2.50000E-01 0.00000E+00 0.00000E+00
 -1        38 0.00000E+00-2.50000E-01 0.00000E+00
 -1        39 0.00000E+00-5.25703E-01 0.00000E+00
 -1        40 0.00000E+00-8.28584E-01 0.00000E+00
 -1        41 0.00000E+00-1.16182E+00 0.00000E+00
 -1        42 0.00000E+00-1.52845E+00 0.00000E+00
 -1        43 0.00000E+00-1.93185E+00 0.00000E+00
 -1        44 0.00000E+00-2.37570E+00 0.00000E+00
 -1        45 0.00000E+00-2.86408E+00 0.00000E+00
 -1        46 0.00000E+00-3.40146E+00 0.00000E+00
 -1        47 0.00000E+00-3.99279E+00 0.00000E+00
 -1        48 0.00000E+00-4.64350E+00 0.00000E+00
 -1        49 0.00000E+00-5.35957E+00 0.00000E+00
 -1        50 0.00000E+00-6.14762E+00 0.00000E+00
 -1        51 0.00000E+00-7.01491E+00 0.00000E+00
 -1        52 0.00000E+00-7.96946E+00 0.00000E+00
 -1        53 0.00000E+00-9.02012E+00 0.00000E+00
 -1        54 0.00000E+00-1.01766E+01 0.00000E+00
 -1        55 0.00000E+00-1.14497E+01 0.00000E+00
 -1        56 0.00000E+00-1.28512E+01 0.00000E+00
 -1        57 0.00000E+00-1.43943E+01 0.00000E+00
 -1        58 0.00000E+00-1.60933E+01 0.00000E+00
 -1        59 0.00000E+00-1.79649E+01 0.00000E+00
 -1        60 2.50000E-01-2.00000E+01 0.00000E+00
 -1        61 5.25000E-01-2.00000E+01 0.00000E+00
 -1        62 8.27500E-01-2.00000E+01 0.00000E+00
 -1        63 1.16025E+00-2.00000E+01 0.00000E+00
 -1        64 1.52628E+00-2.00000E+01 0.00000E+00
 -1        65 1.92890E+00-2.00000E+01 0.00000E+00
 -1        66 2.37179E+00-2.00000E+01 0.00000E+00
 -1        67 2.85897E+00-2.00000E+01 0.00000E+00
 -1        68 3.39487E+00-2.00000E+01 0.00000E+00
 -1        69 3.98436E+00-2.00000E+01 0.00000E+00
 -1        70 4.63279E+00-2.00000E+01 0.00000E+00
 -1        71 5.34607E+00-2.00000E+01 0.00000E+00
 -1        72 6.13068E+00-2.00000E+01 0.00000E+00
 -1        73 6.99375E+00-2.00000E+01 0.00000E+00
 -1        74 7.94312E+00-2.00000E+01 0.00000E+00
 -1        75 8.98743E+00-2.00000E+01 0.00000E+00
 -1        76 1.01362E+01-2.00000E+01 0.00000E+00
 -1        77 1.13998E+01-2.00000E+01 0.00000E+00
 -1        78 1.27898E+01-2.00000E+01 0.00000E+00
 -1        79 1.43187E+01-2.00000E+01 0.00000E+00
 -1        80 1.60006E+01-2.00000E+01 0.00000E+00
 -1        81 1.78507E+01-2.00000E+01 0.00000E+00
 -1        82 1.98858E+01-2.00000E+01 0.00000E+00
 -1        83 2.21243E+01-2.00000E+01 0.00000E+00
 -1        84 2.45868E+01-2.00000E+01 0.00000E+00
 -1        85 2.72954E+01-2.00000E+01 0.00000E+00
 -1        86 3.02750E+01-2.00000E+01 0.00000E+00
 -1        87 3.35525E+01-2.00000E+01 0.00000E+00
 -1        88 3.71577E+01-2.00000E+01 0.00000E+00
 -1        89 4.00000E+01-1.79649E+01 0.00000E+00
 -1        90 4.00000E+01-1.60933E+01 0.00000E+00
 -1        91 4.00000E+01-1.43943E+01 0.00000E+00
 -1        92 4.00000E+01-1.28512E+01 0.00000E+00
 -1        93 4.00000E+01-1.14497E+01 0.00000E+00
 -1        94 4.00000E+01-1.01766E+01 0.00000E+00
 -1        95 4.00000E+01-9.02012E+00 0.00000E+00
 -1        96 4.00000E+01-7.96946E+00 0.00000E+00
 -1        97 4.00000E+01-7.01491E+00 0.00000E+00
 -1        98 4.00000E+01-6.14762E+00 0.00000E+00
 -1        99 4.00000E+01-5.35957E+00 0.00000E+00
 -1       100 4.00000E+01-4.64350E+00 0.00000E+00
 -1       101 4.00000E+01-3.99279E+00 0.00000E+00
 -1       102 4.00000E+01-3.40146E+00 0.00000E+00
 -1       103 4.00000E+01-2.86408E+00 0.00000E+00
 -1       104 4.00000E+01-2.37570E+00 0.00000E+00
 -1       105 4.00000E+01-1.93185E+00 0.00000E+00
 -1       106 4.00000E+01-1.52845E+00 0.00000E+00
 -1       107 4.00000E+01-1.16182E+00 0.00000E+00
 -1       108 4.00000E+01-8.28584E-01 0.00000E+00
 -1       109 4.00000E+01-5.25703E-01 0.00000E+00
 -1       110 4.00000E+01-2.50000E-01 0.00000E+00
 -1       111 1.24997E-01 7.81240E-04 0.00000E+00
 -1       112 2.62470E-01 3.44511E-03 0.00000E+00
 -1       113 4.13632E-01 8.55823E-03 0.00000E+00
 -1       114 5.79800E-01 1.68225E-02 0.00000E+00
 -1       115 7.62397E-01 2.91048E-02 0.00000E+00
 -1       116 9.62957E-01 4.64723E-02 0.00000E+00
 -1       117 1.18312E+00 7.02351E-02 0.00000E+00
 -1       118 1.42462E+00 1.01998E-01 0.00000E+00
 -1       119 1.68930E+00 1.43719E-01 0.00000E+00
 -1       120 1.97903E+00 1.97783E-01 0.00000E+00
 -1       121 2.29574E+00 2.67087E-01 0.00000E+00
 -1       122 2.64132E+00 3.55134E-01 0.00000E+00
 -1       123 3.01756E+00 4.66148E-01 0.00000E+00
 -1       124 3.42604E+00 6.05201E-01 0.00000E+00
 -1       125 3.86797E+00 7.78352E-01 0.00000E+00
 -1       126 4.34400E+00 9.92798E-01 0.00000E+00
 -1       127 4.85390E+00 1.25702E+00 0.00000E+00
 -1       128 5.39623E+00 1.58093E+00 0.00000E+00
 -1       129 5.96785E+00 1.97599E+00 0.00000E+00
 -1       130 6.56325E+00 2.45522E+00 0.00000E+00
 -1       131 7.17378E+00 3.03316E+00 0.00000E+00
 -1       132 7.78664E+00 3.72559E+00 0.00000E+00
 -1       133 8.38371E+00 4.54900E+00 0.00000E+00
 -1       134 8.94010E+00 5.51953E+00 0.00000E+00
 -1       135 9.42267E+00 6.65139E+00 0.00000E+00
 -1       136 9.78852E+00 7.95430E+00 0.00000E+00
 -1       137 9.98373E+00 9.42984E+00 0.00000E+00
 -1       138 9.87500E+00 1.00000E+01 0.00000E+00
 -1       139 9.73715E+00 1.00000E+01 0.00000E+00
 -1       140 9.58571E+00 1.00000E+01 0.00000E+00
 -1       141 9.41909E+00 1.00000E+01 0.00000E+00
 -1       142 9.23577E+00 1.00000E+01 0.00000E+00
 -1       143 9.03407E+00 1.00000E+01 0.00000E+00
 -1       144 8.81215E+00 1.00000E+01 0.00000E+00
 -1       145 8.56796E+00 1.00000E+01 0.00000E+00
 -1       146 8.29927E+00 1.00000E+01 0.00000E+00
 -1       147 8.00361E+00 1.00000E+01 0.00000E+00
 -1       148 7.67825E+00 1.00000E+01 0.00000E+00
 -1       149 7.32021E+00 1.00000E+01 0.00000E+00
 -1       150 6.92619E+00 1.00000E+01 0.00000E+00
 -1       151 6.49254E+00 1.00000E+01 0.00000E+00
 -1       152 6.01527E+00 1.00000E+01 0.00000E+00
 -1       153 5.48994E+00 1.00000E+01 0.00000E+00
 -1       154 4.91170E+00 1.00000E+01 0.00000E+00
 -1       155 4.27515E+00 1.00000E+01 0.00000E+00
 -1       156 3.57439E+00 1.00000E+01 0.00000E+00
 -1       157 2.80286E+00 1.00000E+01 0.00000E+00
 -1       158 1.95334E+00 1.00000E+01 0.00000E+00
 -1       159 1.01753E+00 1.00000E+01 0.00000E+00
 -1       160 0.00000E+00 1.25000E-01 0.00000E+00
 -1       161 0.00000E+00 2.62851E-01 0.00000E+00
 -1       162 0.00000E+00 4.14292E-01 0.00000E+00
 -1       163 0.00000E+00 5.80909E-01 0.00000E+00
 -1       164 0.00000E+00 7.64227E-01 0.00000E+00
 -1       165 0.00000E+00 9.65926E-01 0.00000E+00
 -1       166 0.00000E+00 1.18785E+00 0.00000E+00
 -1       167 0.00000E+00 1.43204E+00 0.00000E+00
 -1       168 0.00000E+00 1.70073E+00 0.00000E+00
 -1       169 0.00000E+00 1.99639E+00 0.00000E+00
 -1       170 0.00000E+00 2.32175E+00 0.00000E+00
 -1       171 0.00000E+00 2.67979E+00 0.00000E+00
 -1       172 0.00000E+00 3.07381E+00 0.00000E+00
 -1       173 0.00000E+00 3.50746E+00 0.00000E+00
 -1       174 0.00000E+00 3.98473E+00 0.00000E+00
 -1       175 0.00000E+00 4.51006E+00 0.00000E+00
 -1       176 0.00000E+00 5.08830E+00 0.00000E+00
 -1       177 0.00000E+00 5.72485E+00 0.00000E+00
 -1       178 0.00000E+00 6.42561E+00 0.00000E+00
 -1       179 0.00000E+00 7.19714E+00 0.00000E+00
 -1       180 0.00000E+00 8.04666E+00 0.00000E+00
 -1       181 0.00000E+00 8.98247E+00 0.00000E+00
 -1       182 1.23434E-01 1.25771E-01 0.00000E+00
 -1       183 1.21711E-01 2.63612E-01 0.00000E+00
 -1       184 1.19818E-01 4.15041E-01 0.00000E+00
 -1       185 1.17736E-01 5.81645E-01 0.00000E+00
 -1       186 1.15444E-01 7.64949E-01 0.00000E+00
 -1       187 1.12923E-01 9.66631E-01 0.00000E+00
 -1       188 1.10149E-01 1.18854E+00 0.00000E+00
 -1       189 1.07097E-01 1.43271E+00 0.00000E+00
 -1       190 1.03738E-01 1.70138E+00 0.00000E+00
 -1       191 1.00042E-01 1.99702E+00 0.00000E+00
 -1       192 9.59757E-02 2.32235E+00 0.00000E+00
 -1       193 9.15003E-02 2.68036E+00 0.00000E+00
 -1       194 8.65751E-02 3.07435E+00 0.00000E+00
 -1       195 8.11547E-02 3.50796E+00 0.00000E+00
 -1       196 7.51889E-02 3.98520E+00 0.00000E+00
 -1       197 6.86225E-02 4.51049E+00 0.00000E+00
 -1       198 6.13946E-02 5.08869E+00 0.00000E+00
 -1       199 5.34380E-02 5.72518E+00 0.00000E+00
 -1       200 4.46787E-02 6.42589E+00 0.00000E+00
 -1       201 3.50348E-02 7.19736E+00 0.00000E+00
 -1       202 2.44161E-02 8.04681E+00 0.00000E+00
 -1       203 1.27188E-02 8.98254E+00 0.00000E+00
 -1       204 2.59189E-01 1.28402E-01 0.00000E+00
 -1       205 2.55571E-01 2.66206E-01 0.00000E+00
 -1       206 2.51596E-01 4.17594E-01 0.00000E+00
 -1       207 2.47223E-01 5.84154E-01 0.00000E+00
 -1       208 2.42411E-01 7.67409E-01 0.00000E+00
 -1       209 2.37117E-01 9.69038E-01 0.00000E+00
 -1       210 2.31292E-01 1.19089E+00 0.00000E+00
 -1       211 2.24883E-01 1.43499E+00 0.00000E+00
 -1       212 2.17831E-01 1.70359E+00 0.00000E+00
 -1       213 2.10071E-01 1.99915E+00 0.00000E+00
 -1       214 2.01531E-01 2.32439E+00 0.00000E+00
 -1       215 1.92134E-01 2.68231E+00 0.00000E+00
 -1       216 1.81792E-01 3.07620E+00 0.00000E+00
 -1       217 1.70410E-01 3.50969E+00 0.00000E+00
 -1       218 1.57883E-01 3.98680E+00 0.00000E+00
 -1       219 1.44094E-01 4.51195E+00 0.00000E+00
 -1       220 1.28917E-01 5.09000E+00 0.00000E+00
 -1       221 1.12210E-01 5.72632E+00 0.00000E+00
 -1       222 9.38169E-02 6.42684E+00 0.00000E+00
 -1       223 7.35665E-02 7.19811E+00 0.00000E+00
 -1       224 5.12693E-02 8.04733E+00 0.00000E+00
 -1       225 2.67072E-02 8.98282E+00 0.00000E+00
 -1       226 4.08462E-01 1.33451E-01 0.00000E+00
 -1       227 4.02760E-01 2.71185E-01 0.00000E+00
 -1       228 3.96496E-01 4.22496E-01 0.00000E+00
 -1       229 3.89604E-01 5.88970E-01 0.00000E+00
 -1       230 3.82021E-01 7.72132E-01 0.00000E+00
 -1       231 3.73678E-01 9.73657E-01 0.00000E+00
 -1       232 3.64499E-01 1.19539E+00 0.00000E+00
 -1       233 3.54398E-01 1.43937E+00 0.00000E+00
 -1       234 3.43284E-01 1.70783E+00 0.00000E+00
 -1       235 3.31055E-01 2.00324E+00 0.00000E+00
 -1       236 3.17597E-01 2.32832E+00 0.00000E+00
 -1       237 3.02787E-01 2.68605E+00 0.00000E+00
 -1       238 2.86489E-01 3.07974E+00 0.00000E+00
 -1       239 2.68552E-01 3.51301E+00 0.00000E+00
 -1       240 2.48811E-01 3.98988E+00 0.00000E+00
 -1       241 2.27082E-01 4.51476E+00 0.00000E+00
 -1       242 2.03163E-01 5.09251E+00 0.00000E+00
 -1       243 1.76834E-01 5.72851E+00 0.00000E+00
 -1       244 1.47848E-01 6.42867E+00 0.00000E+00
 -1       245 1.15935E-01 7.19954E+00 0.00000E+00
 -1       246 8.07963E-02 8.04833E+00 0.00000E+00
 -1       247 4.20885E-02 8.98334E+00 0.00000E+00
 -1       248 5.72552E-01 1.41612E-01 0.00000E+00
 -1       249 5.64560E-01 2.79232E-01 0.00000E+00
 -1       250 5.55779E-01 4.30417E-01 0.00000E+00
 -1       251 5.46119E-01 5.96754E-01 0.00000E+00
 -1       252 5.35490E-01 7.79764E-01 0.00000E+00
 -1       253 5.23795E-01 9.81123E-01 0.00000E+00
 -1       254 5.10928E-01 1.20268E+00 0.00000E+00
 -1       255 4.96770E-01 1.44645E+00 0.00000E+00
 -1       256 4.81191E-01 1.71469E+00 0.00000E+00
 -1       257 4.64049E-01 2.00986E+00 0.00000E+00
 -1       258 4.45185E-01 2.33466E+00 0.00000E+00
 -1       259 4.24426E-01 2.69210E+00 0.00000E+00
 -1       260 4.01580E-01 3.08546E+00 0.00000E+00
 -1       261 3.76437E-01 3.51838E+00 0.00000E+00
 -1       262 3.48765E-01 3.99485E+00 0.00000E+00
 -1       263 3.18307E-01 4.51929E+00 0.00000E+00
 -1       264 2.84780E-01 5.09657E+00 0.00000E+00
 -1       265 2.47873E-01 5.73204E+00 0.00000E+00
 -1       266 2.07243E-01 6.43162E+00 0.00000E+00
 -1       267 1.62510E-01 7.20186E+00 0.00000E+00
 -1       268 1.13255E-01 8.04995E+00 0.00000E+00
 -1       269 5.89966E-02 8.98418E+00 0.00000E+00
 -1       270 7.52867E-01 1.53741E-01 0.00000E+00
 -1       271 7.42357E-01 2.91191E-01 0.00000E+00
 -1       272 7.30811E-01 4.42191E-01 0.00000E+00
 -1       273 7.18109E-01 6.08323E-01 0.00000E+00
 -1       274 7.04132E-01 7.91108E-01 0.00000E+00
 -1       275 6.88755E-01 9.92219E-01 0.00000E+00
 -1       276 6.71836E-01 1.21350E+00 0.00000E+00
 -1       277 6.53219E-01 1.45698E+00 0.00000E+00
 -1       278 6.32734E-01 1.72489E+00 0.00000E+00
 -1       279 6.10192E-01 2.01969E+00 0.00000E+00
 -1       280 5.85388E-01 2.34409E+00 0.00000E+00
 -1       281 5.58091E-01 2.70109E+00 0.00000E+00
 -1       282 5.28051E-01 3.09397E+00 0.00000E+00
 -1       283 4.94990E-01 3.52635E+00 0.00000E+00
 -1       284 4.58602E-01 4.00224E+00 0.00000E+00
 -1       285 4.18552E-01 4.52604E+00 0.00000E+00
 -1       286 3.74466E-01 5.10260E+00 0.00000E+00
 -1       287 3.25936E-01 5.73729E+00 0.00000E+00
 -1       288 2.72510E-01 6.43602E+00 0.00000E+00
 -1       289 2.13689E-01 7.20530E+00 0.00000E+00
 -1       290 1.48922E-01 8.05235E+00 0.00000E+00
 -1       291 7.75765E-02 8.98543E+00 0.00000E+00
 -1       292 9.50920E-01 1.70891E-01 0.00000E+00
 -1       293 9.37645E-01 3.08102E-01 0.00000E+00
 -1       294 9.23062E-01 4.58839E-01 0.00000E+00
 -1       295 9.07018E-01 6.24682E-01 0.00000E+00
 -1       296 8.89365E-01 8.07148E-01 0.00000E+00
 -1       297 8.69942E-01 1.00791E+00 0.00000E+00
 -1       298 8.48572E-01 1.22880E+00 0.00000E+00
 -1       299 8.25058E-01 1.47186E+00 0.00000E+00
 -1       300 7.99184E-01 1.73930E+00 0.00000E+00
 -1       301 7.70713E-01 2.03359E+00 0.00000E+00
 -1       302 7.39383E-01 2.35743E+00 0.00000E+00
 -1       303 7.04905E-01 2.71380E+00 0.00000E+00
 -1       304 6.66962E-01 3.10600E+00 0.00000E+00
 -1       305 6.25204E-01 3.53763E+00 0.00000E+00
 -1       306 5.79244E-01 4.01269E+00 0.00000E+00
 -1       307 5.28658E-01 4.53557E+00 0.00000E+00
 -1       308 4.72975E-01 5.11113E+00 0.00000E+00
 -1       309 4.11679E-01 5.74471E+00 0.00000E+00
 -1       310 3.44198E-01 6.44222E+00 0.00000E+00
 -1       311 2.69903E-01 7.21017E+00 0.00000E+00
 -1       312 1.88098E-01 8.05574E+00 0.00000E+00
 -1       313 9.79842E-02 8.98719E+00 0.00000E+00
 -1       314 1.16833E+00 1.94357E-01 0.00000E+00
 -1       315 1.15202E+00 3.31240E-01 0.00000E+00
 -1       316 1.13410E+00 4.81617E-01 0.00000E+00
 -1       317 1.11439E+00 6.47064E-01 0.00000E+00
 -1       318 1.09270E+00 8.29095E-01 0.00000E+00
 -1       319 1.06884E+00 1.02938E+00 0.00000E+00
 -1       320 1.04258E+00 1.24974E+00 0.00000E+00
 -1       321 1.01369E+00 1.49222E+00 0.00000E+00
 -1       322 9.81902E-01 1.75902E+00 0.00000E+00
 -1       323 9.46922E-01 2.05261E+00 0.00000E+00
 -1       324 9.08428E-01 2.37568E+00 0.00000E+00
 -1       325 8.66068E-01 2.73120E+00 0.00000E+00
 -1       326 8.19450E-01 3.12246E+00 0.00000E+00
 -1       327 7.68145E-01 3.55306E+00 0.00000E+00
 -1       328 7.11678E-01 4.02698E+00 0.00000E+00
 -1       329 6.49525E-01 4.54862E+00 0.00000E+00
 -1       330 5.81112E-01 5.12280E+00 0.00000E+00
 -1       331 5.05801E-01 5.75487E+00 0.00000E+00
 -1       332 4.22893E-01 6.45072E+00 0.00000E+00
 -1       333 3.31611E-01 7.21683E+00 0.00000E+00
 -1       334 2.31103E-01 8.06038E+00 0.00000E+00
 -1       335 1.20386E-01 8.98961E+00 0.00000E+00
 -1       336 1.40681E+00 2.25723E-01 0.00000E+00
 -1       337 1.38718E+00 3.62168E-01 0.00000E+00
 -1       338 1.36560E+00 5.12064E-01 0.00000E+00
 -1       339 1.34186E+00 6.76982E-01 0.00000E+00
 -1       340 1.31575E+00 8.58430E-01 0.00000E+00
 -1       341 1.28701E+00 1.05807E+00 0.00000E+00
 -1       342 1.25540E+00 1.27773E+00 0.00000E+00
 -1       343 1.22061E+00 1.51943E+00 0.00000E+00
 -1       344 1.18233E+00 1.78538E+00 0.00000E+00
 -1       345 1.14021E+00 2.07803E+00 0.00000E+00
 -1       346 1.09386E+00 2.40006E+00 0.00000E+00
 -1       347 1.04285E+00 2.75445E+00 0.00000E+00
 -1       348 9.86721E-01 3.14446E+00 0.00000E+00
 -1       349 9.24942E-01 3.57368E+00 0.00000E+00
 -1       350 8.56949E-01 4.04609E+00 0.00000E+00
 -1       351 7.82110E-01 4.56605E+00 0.00000E+00
 -1       352 6.99731E-01 5.13840E+00 0.00000E+00
 -1       353 6.09048E-01 5.76845E+00 0.00000E+00
 -1       354 5.09215E-01 6.46207E+00 0.00000E+00
 -1       355 3.99301E-01 7.22573E+00 0.00000E+00
 -1       356 2.78277E-01 8.06658E+00 0.00000E+00
 -1       357 1.44960E-01 8.99284E+00 0.00000E+00
 -1       358 1.66818E+00 2.66922E-01 0.00000E+00
 -1       359 1.64489E+00 4.02792E-01 0.00000E+00
 -1       360 1.61931E+00 5.52056E-01 0.00000E+00
 -1       361 1.59116E+00 7.16279E-01 0.00000E+00
 -1       362 1.56019E+00 8.96963E-01 0.00000E+00
 -1       363 1.52612E+00 1.09576E+00 0.00000E+00
 -1       364 1.48863E+00 1.31450E+00 0.00000E+00
 -1       365 1.44738E+00 1.55518E+00 0.00000E+00
 -1       366 1.40199E+00 1.82001E+00 0.00000E+00
 -1       367 1.35205E+00 2.11142E+00 0.00000E+00
 -1       368 1.29708E+00 2.43210E+00 0.00000E+00
 -1       369 1.23660E+00 2.78499E+00 0.00000E+00
 -1       370 1.17004E+00 3.17335E+00 0.00000E+00
 -1       371 1.09678E+00 3.60077E+00 0.00000E+00
 -1       372 1.01616E+00 4.07118E+00 0.00000E+00
 -1       373 9.27413E-01 4.58896E+00 0.00000E+00
 -1       374 8.29730E-01 5.15889E+00 0.00000E+00
 -1       375 7.22200E-01 5.78629E+00 0.00000E+00
 -1       376 6.03820E-01 6.47698E+00 0.00000E+00
 -1       377 4.73485E-01 7.23743E+00 0.00000E+00
 -1       378 3.29977E-01 8.07473E+00 0.00000E+00
 -1       379 1.71892E-01 8.99709E+00 0.00000E+00
 -1       380 1.95429E+00 3.20311E-01 0.00000E+00
 -1       381 1.92701E+00 4.55436E-01 0.00000E+00
 -1       382 1.89704E+00 6.03881E-01 0.00000E+00
 -1       383 1.86406E+00 7.67203E-01 0.00000E+00
 -1       384 1.82778E+00 9.46896E-01 0.00000E+00
 -1       385 1.78787E+00 1.14460E+00 0.00000E+00
 -1       386 1.74395E+00 1.36214E+00 0.00000E+00
 -1       387 1.69562E+00 1.60150E+00 0.00000E+00
 -1       388 1.64245E+00 1.86488E+00 0.00000E+00
 -1       389 1.58394E+00 2.15469E+00 0.00000E+00
 -1       390 1.51955E+00 2.47361E+00 0.00000E+00
 -1       391 1.44869E+00 2.82457E+00 0.00000E+00
 -1       392 1.37071E+00 3.21080E+00 0.00000E+00
 -1       393 1.28489E+00 3.63587E+00 0.00000E+00
 -1       394 1.19044E+00 4.10370E+00 0.00000E+00
 -1       395 1.08647E+00 4.61864E+00 0.00000E+00
 -1       396 9.72038E-01 5.18545E+00 0.00000E+00
 -1       397 8.46064E-01 5.80940E+00 0.00000E+00
 -1       398 7.07381E-01 6.49631E+00 0.00000E+00
 -1       399 5.54693E-01 7.25258E+00 0.00000E+00
 -1       400 3.86571E-01 8.08529E+00 0.00000E+00
 -1       401 2.01373E-01 9.00259E+00 0.00000E+00
 -1       402 2.26704E+00 3.88748E-01 0.00000E+00
 -1       403 2.23539E+00 5.22918E-01 0.00000E+00
 -1       404 2.20063E+00 6.70314E-01 0.00000E+00
 -1       405 2.16237E+00 8.32481E-01 0.00000E+00
 -1       406 2.12029E+00 1.01090E+00 0.00000E+00
 -1       407 2.07399E+00 1.20721E+00 0.00000E+00
 -1       408 2.02304E+00 1.42321E+00 0.00000E+00
 -1       409 1.96698E+00 1.66088E+00 0.00000E+00
 -1       410 1.90529E+00 1.92239E+00 0.00000E+00
 -1       411 1.83742E+00 2.21016E+00 0.00000E+00
 -1       412 1.76272E+00 2.52682E+00 0.00000E+00
 -1       413 1.68053E+00 2.87530E+00 0.00000E+00
 -1       414 1.59007E+00 3.25880E+00 0.00000E+00
 -1       415 1.49052E+00 3.68086E+00 0.00000E+00
 -1       416 1.38095E+00 4.14539E+00 0.00000E+00
 -1       417 1.26035E+00 4.65669E+00 0.00000E+00
 -1       418 1.12760E+00 5.21949E+00 0.00000E+00
 -1       419 9.81463E-01 5.83903E+00 0.00000E+00
 -1       420 8.20585E-01 6.52108E+00 0.00000E+00
 -1       421 6.43462E-01 7.27200E+00 0.00000E+00
 -1       422 4.48435E-01 8.09883E+00 0.00000E+00
 -1       423 2.33599E-01 9.00964E+00 0.00000E+00
 -1       424 2.60830E+00 4.75695E-01 0.00000E+00
 -1       425 2.57189E+00 6.08650E-01 0.00000E+00
 -1       426 2.53189E+00 7.54713E-01 0.00000E+00
 -1       427 2.48788E+00 9.15413E-01 0.00000E+00
 -1       428 2.43946E+00 1.09222E+00 0.00000E+00
 -1       429 2.38619E+00 1.28676E+00 0.00000E+00
 -1       430 2.32757E+00 1.50080E+00 0.00000E+00
 -1       431 2.26307E+00 1.73632E+00 0.00000E+00
 -1       432 2.19210E+00 1.99547E+00 0.00000E+00
 -1       433 2.11401E+00 2.28063E+00 0.00000E+00
 -1       434 2.02807E+00 2.59443E+00 0.00000E+00
 -1       435 1.93350E+00 2.93975E+00 0.00000E+00
 -1       436 1.82943E+00 3.31978E+00 0.00000E+00
 -1       437 1.71489E+00 3.73803E+00 0.00000E+00
 -1       438 1.58882E+00 4.19835E+00 0.00000E+00
 -1       439 1.45007E+00 4.70502E+00 0.00000E+00
 -1       440 1.29733E+00 5.26274E+00 0.00000E+00
 -1       441 1.12920E+00 5.87667E+00 0.00000E+00
 -1       442 9.44109E-01 6.55255E+00 0.00000E+00
 -1       443 7.40323E-01 7.29668E+00 0.00000E+00
 -1       444 5.15939E-01 8.11603E+00 0.00000E+00
 -1       445 2.68763E-01 9.01860E+00 0.00000E+00
 -1       446 2.97984E+00 5.85321E-01 0.00000E+00
 -1       447 2.93824E+00 7.16746E-01 0.00000E+00
 -1       448 2.89254E+00 8.61128E-01 0.00000E+00
 -1       449 2.84227E+00 1.01998E+00 0.00000E+00
 -1       450 2.78695E+00 1.19475E+00 0.00000E+00
 -1       451 2.72609E+00 1.38705E+00 0.00000E+00
 -1       452 2.65912E+00 1.59863E+00 0.00000E+00
 -1       453 2.58543E+00 1.83143E+00 0.00000E+00
 -1       454 2.50435E+00 2.08760E+00 0.00000E+00
 -1       455 2.41514E+00 2.36948E+00 0.00000E+00
 -1       456 2.31696E+00 2.67967E+00 0.00000E+00
 -1       457 2.20892E+00 3.02102E+00 0.00000E+00
 -1       458 2.09002E+00 3.39667E+00 0.00000E+00
 -1       459 1.95916E+00 3.81010E+00 0.00000E+00
 -1       460 1.81514E+00 4.26513E+00 0.00000E+00
 -1       461 1.65662E+00 4.76597E+00 0.00000E+00
 -1       462 1.48213E+00 5.31726E+00 0.00000E+00
 -1       463 1.29005E+00 5.92413E+00 0.00000E+00
 -1       464 1.07859E+00 6.59223E+00 0.00000E+00
 -1       465 8.45779E-01 7.32780E+00 0.00000E+00
 -1       466 5.89432E-01 8.13772E+00 0.00000E+00
 -1       467 3.07047E-01 9.02990E+00 0.00000E+00
 -1       468 3.38321E+00 7.22636E-01 0.00000E+00
 -1       469 3.33599E+00 8.52145E-01 0.00000E+00
 -1       470 3.28410E+00 9.94420E-01 0.00000E+00
 -1       471 3.22702E+00 1.15095E+00 0.00000E+00
 -1       472 3.16421E+00 1.32318E+00 0.00000E+00
 -1       473 3.09511E+00 1.51267E+00 0.00000E+00
 -1       474 3.01908E+00 1.72116E+00 0.00000E+00
 -1       475 2.93542E+00 1.95057E+00 0.00000E+00
 -1       476 2.84336E+00 2.20300E+00 0.00000E+00
 -1       477 2.74207E+00 2.48077E+00 0.00000E+00
 -1       478 2.63060E+00 2.78644E+00 0.00000E+00
 -1       479 2.50793E+00 3.12281E+00 0.00000E+00
 -1       480 2.37294E+00 3.49298E+00 0.00000E+00
 -1       481 2.22437E+00 3.90039E+00 0.00000E+00
 -1       482 2.06085E+00 4.34878E+00 0.00000E+00
 -1       483 1.88088E+00 4.84231E+00 0.00000E+00
 -1       484 1.68277E+00 5.38556E+00 0.00000E+00
 -1       485 1.46468E+00 5.98358E+00 0.00000E+00
 -1       486 1.22460E+00 6.64193E+00 0.00000E+00
 -1       487 9.60270E-01 7.36677E+00 0.00000E+00
 -1       488 6.69222E-01 8.16488E+00 0.00000E+00
 -1       489 3.48611E-01 9.04405E+00 0.00000E+00
 -1       490 3.81962E+00 8.93623E-01 0.00000E+00
 -1       491 3.76630E+00 1.02074E+00 0.00000E+00
 -1       492 3.70773E+00 1.16040E+00 0.00000E+00
 -1       493 3.64328E+00 1.31405E+00 0.00000E+00
 -1       494 3.57237E+00 1.48310E+00 0.00000E+00
 -1       495 3.49436E+00 1.66909E+00 0.00000E+00
 -1       496 3.40852E+00 1.87375E+00 0.00000E+00
 -1       497 3.31406E+00 2.09893E+00 0.00000E+00
 -1       498 3.21013E+00 2.34671E+00 0.00000E+00
 -1       499 3.09577E+00 2.61936E+00 0.00000E+00
 -1       500 2.96993E+00 2.91939E+00 0.00000E+00
 -1       501 2.83144E+00 3.24956E+00 0.00000E+00
 -1       502 2.67903E+00 3.61291E+00 0.00000E+00
 -1       503 2.51130E+00 4.01280E+00 0.00000E+00
 -1       504 2.32669E+00 4.45293E+00 0.00000E+00
 -1       505 2.12349E+00 4.93737E+00 0.00000E+00
 -1       506 1.89983E+00 5.47061E+00 0.00000E+00
 -1       507 1.65362E+00 6.05760E+00 0.00000E+00
 -1       508 1.38256E+00 6.70382E+00 0.00000E+00
 -1       509 1.08414E+00 7.41530E+00 0.00000E+00
 -1       510 7.55546E-01 8.19870E+00 0.00000E+00
 -1       511 3.93580E-01 9.06167E+00 0.00000E+00
 -1       512 4.28970E+00 1.10539E+00 0.00000E+00
 -1       513 4.22981E+00 1.22955E+00 0.00000E+00
 -1       514 4.16403E+00 1.36596E+00 0.00000E+00
 -1       515 4.09165E+00 1.51603E+00 0.00000E+00
 -1       516 4.01202E+00 1.68115E+00 0.00000E+00
 -1       517 3.92440E+00 1.86283E+00 0.00000E+00
 -1       518 3.82799E+00 2.06272E+00 0.00000E+00
 -1       519 3.72192E+00 2.28266E+00 0.00000E+00
 -1       520 3.60520E+00 2.52468E+00 0.00000E+00
 -1       521 3.47676E+00 2.79099E+00 0.00000E+00
 -1       522 3.33543E+00 3.08404E+00 0.00000E+00
 -1       523 3.17990E+00 3.40654E+00 0.00000E+00
 -1       524 3.00873E+00 3.76144E+00 0.00000E+00
 -1       525 2.82036E+00 4.15203E+00 0.00000E+00
 -1       526 2.61303E+00 4.58193E+00 0.00000E+00
 -1       527 2.38483E+00 5.05510E+00 0.00000E+00
 -1       528 2.13364E+00 5.57594E+00 0.00000E+00
 -1       529 1.85713E+00 6.14928E+00 0.00000E+00
 -1       530 1.55271E+00 6.78048E+00 0.00000E+00
 -1       531 1.21756E+00 7.47541E+00 0.00000E+00
 -1       532 8.48530E-01 8.24059E+00 0.00000E+00
 -1       533 4.42017E-01 9.08349E+00 0.00000E+00
 -1       534 4.79322E+00 1.36631E+00 0.00000E+00
 -1       535 4.72631E+00 1.48683E+00 0.00000E+00
 -1       536 4.65280E+00 1.61924E+00 0.00000E+00
 -1       537 4.57193E+00 1.76491E+00 0.00000E+00
 -1       538 4.48295E+00 1.92518E+00 0.00000E+00
 -1       539 4.38505E+00 2.10153E+00 0.00000E+00
 -1       540 4.27733E+00 2.29556E+00 0.00000E+00
 -1       541 4.15880E+00 2.50905E+00 0.00000E+00
 -1       542 4.02838E+00 2.74397E+00 0.00000E+00
 -1       543 3.88487E+00 3.00246E+00 0.00000E+00
 -1       544 3.72694E+00 3.28692E+00 0.00000E+00
 -1       545 3.55316E+00 3.59995E+00 0.00000E+00
 -1       546 3.36190E+00 3.94445E+00 0.00000E+00
 -1       547 3.15141E+00 4.32358E+00 0.00000E+00
 -1       548 2.91975E+00 4.74086E+00 0.00000E+00
 -1       549 2.66476E+00 5.20015E+00 0.00000E+00
 -1       550 2.38409E+00 5.70571E+00 0.00000E+00
 -1       551 2.07512E+00 6.26224E+00 0.00000E+00
 -1       552 1.73497E+00 6.87492E+00 0.00000E+00
 -1       553 1.36048E+00 7.54947E+00 0.00000E+00
 -1       554 9.48131E-01 8.29220E+00 0.00000E+00
 -1       555 4.93901E-01 9.11037E+00 0.00000E+00
 -1       556 5.32878E+00 1.68617E+00 0.00000E+00
 -1       557 5.25439E+00 1.80223E+00 0.00000E+00
 -1       558 5.17267E+00 1.92973E+00 0.00000E+00
 -1       559 5.08276E+00 2.07001E+00 0.00000E+00
 -1       560 4.98384E+00 2.22434E+00 0.00000E+00
 -1       561 4.87500E+00 2.39415E+00 0.00000E+00
 -1       562 4.75524E+00 2.58099E+00 0.00000E+00
 -1       563 4.62347E+00 2.78658E+00 0.00000E+00
 -1       564 4.47848E+00 3.01279E+00 0.00000E+00
 -1       565 4.31893E+00 3.26171E+00 0.00000E+00
 -1       566 4.14336E+00 3.53563E+00 0.00000E+00
 -1       567 3.95016E+00 3.83706E+00 0.00000E+00
 -1       568 3.73753E+00 4.16880E+00 0.00000E+00
 -1       569 3.50353E+00 4.53389E+00 0.00000E+00
 -1       570 3.24598E+00 4.93571E+00 0.00000E+00
 -1       571 2.96250E+00 5.37798E+00 0.00000E+00
 -1       572 2.65047E+00 5.86481E+00 0.00000E+00
 -1       573 2.30697E+00 6.40072E+00 0.00000E+00
 -1       574 1.92882E+00 6.99070E+00 0.00000E+00
 -1       575 1.51249E+00 7.64026E+00 0.00000E+00
 -1       576 1.05407E+00 8.35547E+00 0.00000E+00
 -1       577 5.49085E-01 9.14333E+00 0.00000E+00
 -1       578 5.89325E+00 2.07629E+00 0.00000E+00
 -1       579 5.81099E+00 2.18690E+00 0.00000E+00
 -1       580 5.72061E+00 2.30842E+00 0.00000E+00
 -1       581 5.62117E+00 2.44211E+00 0.00000E+00
 -1       582 5.51177E+00 2.58921E+00 0.00000E+00
 -1       583 5.39140E+00 2.75105E+00 0.00000E+00
 -1       584 5.25896E+00 2.92912E+00 0.00000E+00
 -1       585 5.11323E+00 3.12506E+00 0.00000E+00
 -1       586 4.95288E+00 3.34066E+00 0.00000E+00
 -1       587 4.77643E+00 3.57790E+00 0.00000E+00
 -1       588 4.58227E+00 3.83896E+00 0.00000E+00
 -1       589 4.36860E+00 4.12625E+00 0.00000E+00
 -1       590 4.13345E+00 4.44242E+00 0.00000E+00
 -1       591 3.87465E+00 4.79038E+00 0.00000E+00
 -1       592 3.58982E+00 5.17334E+00 0.00000E+00
 -1       593 3.27632E+00 5.59486E+00 0.00000E+00
 -1       594 2.93123E+00 6.05885E+00 0.00000E+00
 -1       595 2.55135E+00 6.56961E+00 0.00000E+00
 -1       596 2.13314E+00 7.13191E+00 0.00000E+00
 -1       597 1.67270E+00 7.75098E+00 0.00000E+00
 -1       598 1.16572E+00 8.43264E+00 0.00000E+00
 -1       599 6.07249E-01 9.18353E+00 0.00000E+00
 -1       600 6.48121E+00 2.54953E+00 0.00000E+00
 -1       601 6.39073E+00 2.65353E+00 0.00000E+00
 -1       602 6.29134E+00 2.76779E+00 0.00000E+00
 -1       603 6.18198E+00 2.89350E+00 0.00000E+00
 -1       604 6.06167E+00 3.03181E+00 0.00000E+00
 -1       605 5.92929E+00 3.18399E+00 0.00000E+00
 -1       606 5.78363E+00 3.35143E+00 0.00000E+00
 -1       607 5.62337E+00 3.53566E+00 0.00000E+00
 -1       608 5.44702E+00 3.73838E+00 0.00000E+00
 -1       609 5.25297E+00 3.96145E+00 0.00000E+00
 -1       610 5.03943E+00 4.20693E+00 0.00000E+00
 -1       611 4.80444E+00 4.47706E+00 0.00000E+00
 -1       612 4.54583E+00 4.77434E+00 0.00000E+00
 -1       613 4.26122E+00 5.10152E+00 0.00000E+00
 -1       614 3.94797E+00 5.46161E+00 0.00000E+00
 -1       615 3.60319E+00 5.85796E+00 0.00000E+00
 -1       616 3.22367E+00 6.29423E+00 0.00000E+00
 -1       617 2.80589E+00 6.77449E+00 0.00000E+00
 -1       618 2.34596E+00 7.30320E+00 0.00000E+00
 -1       619 1.83959E+00 7.88531E+00 0.00000E+00
 -1       620 1.28203E+00 8.52625E+00 0.00000E+00
 -1       621 6.67833E-01 9.23229E+00 0.00000E+00
 -1       622 7.08411E+00 3.12024E+00 0.00000E+00
 -1       623 6.98521E+00 3.21628E+00 0.00000E+00
 -1       624 6.87657E+00 3.32179E+00 0.00000E+00
 -1       625 6.75705E+00 3.43787E+00 0.00000E+00
 -1       626 6.62554E+00 3.56558E+00 0.00000E+00
 -1       627 6.48084E+00 3.70610E+00 0.00000E+00
 -1       628 6.32164E+00 3.86071E+00 0.00000E+00
 -1       629 6.14647E+00 4.03084E+00 0.00000E+00
 -1       630 5.95371E+00 4.21803E+00 0.00000E+00
 -1       631 5.74161E+00 4.42401E+00 0.00000E+00
 -1       632 5.50821E+00 4.65068E+00 0.00000E+00
 -1       633 5.25136E+00 4.90012E+00 0.00000E+00
 -1       634 4.96870E+00 5.17463E+00 0.00000E+00
 -1       635 4.65761E+00 5.47675E+00 0.00000E+00
 -1       636 4.31522E+00 5.80926E+00 0.00000E+00
 -1       637 3.93836E+00 6.17524E+00 0.00000E+00
 -1       638 3.52354E+00 6.57810E+00 0.00000E+00
 -1       639 3.06690E+00 7.02157E+00 0.00000E+00
 -1       640 2.56419E+00 7.50978E+00 0.00000E+00
 -1       641 2.01071E+00 8.04729E+00 0.00000E+00
 -1       642 1.40128E+00 8.63914E+00 0.00000E+00
 -1       643 7.29957E-01 9.29110E+00 0.00000E+00
 -1       644 7.68931E+00 3.80402E+00 0.00000E+00
 -1       645 7.58197E+00 3.89052E+00 0.00000E+00
 -1       646 7.46405E+00 3.98554E+00 0.00000E+00
 -1       647 7.33431E+00 4.09008E+00 0.00000E+00
 -1       648 7.19157E+00 4.20510E+00 0.00000E+00
 -1       649 7.03451E+00 4.33165E+00 0.00000E+00
 -1       650 6.86171E+00 4.47090E+00 0.00000E+00
 -1       651 6.67157E+00 4.62411E+00 0.00000E+00
 -1       652 6.46235E+00 4.79270E+00 0.00000E+00
 -1       653 6.23212E+00 4.97821E+00 0.00000E+00
 -1       654 5.97878E+00 5.18235E+00 0.00000E+00
 -1       655 5.69999E+00 5.40700E+00 0.00000E+00
 -1       656 5.39318E+00 5.65423E+00 0.00000E+00
 -1       657 5.05551E+00 5.92631E+00 0.00000E+00
 -1       658 4.68387E+00 6.22578E+00 0.00000E+00
 -1       659 4.27482E+00 6.55539E+00 0.00000E+00
 -1       660 3.82456E+00 6.91820E+00 0.00000E+00
 -1       661 3.32891E+00 7.31760E+00 0.00000E+00
 -1       662 2.78325E+00 7.75728E+00 0.00000E+00
 -1       663 2.18249E+00 8.24137E+00 0.00000E+00
 -1       664 1.52100E+00 8.77440E+00 0.00000E+00
 -1       665 7.92318E-01 9.36156E+00 0.00000E+00
 -1       666 8.27891E+00 4.61714E+00 0.00000E+00
 -1       667 8.16334E+00 4.69228E+00 0.00000E+00
 -1       668 8.03638E+00 4.77483E+00 0.00000E+00
 -1       669 7.89669E+00 4.86565E+00 0.00000E+00
 -1       670 7.74300E+00 4.96558E+00 0.00000E+00
 -1       671 7.57391E+00 5.07552E+00 0.00000E+00
 -1       672 7.38785E+00 5.19650E+00 0.00000E+00
 -1       673 7.18313E+00 5.32960E+00 0.00000E+00
 -1       674 6.95787E+00 5.47607E+00 0.00000E+00
 -1       675 6.70999E+00 5.63723E+00 0.00000E+00
 -1       676 6.43722E+00 5.81458E+00 0.00000E+00
 -1       677 6.13705E+00 6.00975E+00 0.00000E+00
 -1       678 5.80672E+00 6.22453E+00 0.00000E+00
 -1       679 5.44316E+00 6.46091E+00 0.00000E+00
 -1       680 5.04303E+00 6.72108E+00 0.00000E+00
 -1       681 4.60261E+00 7.00743E+00 0.00000E+00
 -1       682 4.11782E+00 7.32263E+00 0.00000E+00
 -1       683 3.58416E+00 7.66961E+00 0.00000E+00
 -1       684 2.99666E+00 8.05160E+00 0.00000E+00
 -1       685 2.34983E+00 8.47216E+00 0.00000E+00
 -1       686 1.63762E+00 8.93524E+00 0.00000E+00
 -1       687 8.53071E-01 9.44534E+00 0.00000E+00
 -1       688 8.82835E+00 5.57553E+00 0.00000E+00
 -1       689 8.70511E+00 5.63730E+00 0.00000E+00
 -1       690 8.56972E+00 5.70515E+00 0.00000E+00
 -1       691 8.42076E+00 5.77980E+00 0.00000E+00
 -1       692 8.25687E+00 5.86194E+00 0.00000E+00
 -1       693 8.07655E+00 5.95231E+00 0.00000E+00
 -1       694 7.87815E+00 6.05174E+00 0.00000E+00
 -1       695 7.65984E+00 6.16115E+00 0.00000E+00
 -1       696 7.41963E+00 6.28154E+00 0.00000E+00
 -1       697 7.15530E+00 6.41401E+00 0.00000E+00
 -1       698 6.86443E+00 6.55978E+00 0.00000E+00
 -1       699 6.54434E+00 6.72020E+00 0.00000E+00
 -1       700 6.19208E+00 6.89674E+00 0.00000E+00
 -1       701 5.80440E+00 7.09103E+00 0.00000E+00
 -1       702 5.37771E+00 7.30488E+00 0.00000E+00
 -1       703 4.90806E+00 7.54025E+00 0.00000E+00
 -1       704 4.39110E+00 7.79933E+00 0.00000E+00
 -1       705 3.82203E+00 8.08453E+00 0.00000E+00
 -1       706 3.19554E+00 8.39851E+00 0.00000E+00
 -1       707 2.50578E+00 8.74419E+00 0.00000E+00
 -1       708 1.74630E+00 9.12481E+00 0.00000E+00
 -1       709 9.09686E-01 9.54410E+00 0.00000E+00
 -1       710 9.30489E+00 6.69324E+00 0.00000E+00
 -1       711 9.17500E+00 6.73941E+00 0.00000E+00
 -1       712 9.03230E+00 6.79012E+00 0.00000E+00
 -1       713 8.87530E+00 6.84591E+00 0.00000E+00
 -1       714 8.70257E+00 6.90730E+00 0.00000E+00
 -1       715 8.51251E+00 6.97484E+00 0.00000E+00
 -1       716 8.30340E+00 7.04915E+00 0.00000E+00
 -1       717 8.07331E+00 7.13092E+00 0.00000E+00
 -1       718 7.82013E+00 7.22090E+00 0.00000E+00
 -1       719 7.54154E+00 7.31990E+00 0.00000E+00
 -1       720 7.23497E+00 7.42885E+00 0.00000E+00
 -1       721 6.89760E+00 7.54874E+00 0.00000E+00
 -1       722 6.52632E+00 7.68069E+00 0.00000E+00
 -1       723 6.11771E+00 7.82590E+00 0.00000E+00
 -1       724 5.66799E+00 7.98572E+00 0.00000E+00
 -1       725 5.17299E+00 8.16163E+00 0.00000E+00
 -1       726 4.62813E+00 8.35526E+00 0.00000E+00
 -1       727 4.02834E+00 8.56842E+00 0.00000E+00
 -1       728 3.36803E+00 8.80308E+00 0.00000E+00
 -1       729 2.64104E+00 9.06143E+00 0.00000E+00
 -1       730 1.84057E+00 9.34590E+00 0.00000E+00
 -1       731 9.58789E-01 9.65927E+00 0.00000E+00
 -1       732 9.66616E+00 7.97987E+00 0.00000E+00
 -1       733 9.53123E+00 8.00807E+00 0.00000E+00
 -1       734 9.38299E+00 8.03905E+00 0.00000E+00
 -1       735 9.21990E+00 8.07314E+00 0.00000E+00
 -1       736 9.04045E+00 8.11064E+00 0.00000E+00
 -1       737 8.84302E+00 8.15190E+00 0.00000E+00
 -1       738 8.62579E+00 8.19730E+00 0.00000E+00
 -1       739 8.38677E+00 8.24725E+00 0.00000E+00
 -1       740 8.12376E+00 8.30222E+00 0.00000E+00
 -1       741 7.83435E+00 8.36270E+00 0.00000E+00
 -1       742 7.51587E+00 8.42926E+00 0.00000E+00
 -1       743 7.16541E+00 8.50251E+00 0.00000E+00
 -1       744 6.77971E+00 8.58311E+00 0.00000E+00
 -1       745 6.35524E+00 8.67182E+00 0.00000E+00
 -1       746 5.88806E+00 8.76946E+00 0.00000E+00
 -1       747 5.37384E+00 8.87692E+00 0.00000E+00
 -1       748 4.80782E+00 8.99522E+00 0.00000E+00
 -1       749 4.18474E+00 9.12543E+00 0.00000E+00
 -1       750 3.49880E+00 9.26879E+00 0.00000E+00
 -1       751 2.74358E+00 9.42662E+00 0.00000E+00
 -1       752 1.91203E+00 9.60041E+00 0.00000E+00
 -1       753 9.96015E-01 9.79184E+00 0.00000E+00
 -1       754 9.85894E+00 9.43697E+00 0.00000E+00
 -1       755 9.72131E+00 9.44483E+00 0.00000E+00
 -1       756 9.57012E+00 9.45346E+00 0.00000E+00
 -1       757 9.40377E+00 9.46296E+00 0.00000E+00
 -1       758 9.22075E+00 9.47341E+00 0.00000E+00
 -1       759 9.01938E+00 9.48491E+00 0.00000E+00
 -1       760 8.79781E+00 9.49757E+00 0.00000E+00
 -1       761 8.55402E+00 9.51149E+00 0.00000E+00
 -1       762 8.28577E+00 9.52681E+00 0.00000E+00
 -1       763 7.99059E+00 9.54367E+00 0.00000E+00
 -1       764 7.66576E+00 9.56222E+00 0.00000E+00
 -1       765 7.30831E+00 9.58263E+00 0.00000E+00
 -1       766 6.91492E+00 9.60510E+00 0.00000E+00
 -1       767 6.48198E+00 9.62982E+00 0.00000E+00
 -1       768 6.00548E+00 9.65703E+00 0.00000E+00
 -1       769 5.48101E+00 9.68699E+00 0.00000E+00
 -1       770 4.90371E+00 9.71995E+00 0.00000E+00
 -1       771 4.26820E+00 9.75625E+00 0.00000E+00
 -1       772 3.56857E+00 9.79620E+00 0.00000E+00
 -1       773 2.79830E+00 9.84019E+00 0.00000E+00
 -1       774 1.95016E+00 9.88863E+00 0.00000E+00
 -1       775 1.01588E+00 9.94198E+00 0.00000E+00
 -1       776 3.71577E+01-2.50000E-01 0.00000E+00
 -1       777 3.71577E+01-5.25703E-01 0.00000E+00
 -1       778 3.71577E+01-8.28584E-01 0.00000E+00
 -1       779 3.71577E+01-1.16182E+00 0.00000E+00
 -1       780 3.71577E+01-1.52845E+00 0.00000E+00
 -1       781 3.71577E+01-1.93185E+00 0.00000E+00
 -1       782 3.71577E+01-2.37570E+00 0.00000E+00
 -1       783 3.71577E+01-2.86408E+00 0.00000E+00
 -1       784 3.71577E+01-3.40146E+00 0.00000E+00
 -1       785 3.71577E+01-3.99279E+00 0.00000E+00
 -1       786 3.71577E+01-4.64350E+00 0.00000E+00
 -1       787 3.71577E+01-5.35957E+00 0.00000E+00
 -1       788 3.71577E+01-6.14762E+00 0.00000E+00
 -1       789 3.71577E+01-7.01491E+00 0.00000E+00
 -1       790 3.71577E+01-7.96946E+00 0.00000E+00
 -1       791 3.71577E+01-9.02012E+00 0.00000E+00
 -1       792 3.71577E+01-1.01766E+01 0.00000E+00
 -1       793 3.71577E+01-1.14497E+01 0.00000E+00
 -1       794 3.71577E+01-1.28512E+01 0.00000E+00
 -1       795 3.71577E+01-1.43943E+01 0.00000E+00
 -1       796 3.71577E+01-1.60933E+01 0.00000E+00
 -1       797 3.71577E+01-1.79649E+01 0.00000E+00
 -1       798 3.35525E+01-2.50000E-01 0.00000E+00
 -1       799 3.35525E+01-5.25703E-01 0.00000E+00
 -1       800 3.35525E+01-8.28584E-01 0.00000E+00
 -1       801 3.35525E+01-1.16182E+00 0.00000E+00
 -1       802 3.35525E+01-1.52845E+00 0.00000E+00
 -1       803 3.35525E+01-1.93185E+00 0.00000E+00
 -1       804 3.35525E+01-2.37570E+00 0.00000E+00
 -1       805 3.35525E+01-2.86408E+00 0.00000E+00
 -1       806 3.35525E+01-3.40146E+00 0.00000E+00
 -1       807 3.35525E+01-3.99279E+00 0.00000E+00
 -1       808 3.35525E+01-4.64350E+00 0.00000E+00
 -1       809 3.35525E+01-5.35957E+00 0.00000E+00
 -1       810 3.35525E+01-6.14762E+00 0.00000E+00
 -1       811 3.35525E+01-7.01491E+00 0.00000E+00
 -1       812 3.35525E+01-7.96946E+00 0.00000E+00
 -1       813 3.35525E+01-9.02012E+00 0.00000E+00
 -1       814 3.35525E+01-1.01766E+01 0.00000E+00
 -1       815 3.35525E+01-1.14497E+01 0.00000E+00
 -1       816 3.35525E+01-1.28512E+01 0.00000E+00
 -1       817 3.35525E+01-1.43943E+01 0.00000E+00
 -1       818 3.35525E+01-1.60933E+01 0.00000E+00
 -1       819 3.35525E+01-1.79649E+01 0.00000E+00
 -1       820 3.02750E+01-2.50000E-01 0.00000E+00
 -1       821 3.02750E+01-5.25703E-01 0.00000E+00
 -1       822 3.02750E+01-8.28584E-01 0.00000E+00
 -1       823 3.02750E+01-1.16182E+00 0.00000E+00
 -1       824 3.02750E+01-1.52845E+00 0.00000E+00
 -1       825 3.02750E+01-1.93185E+00 0.00000E+00
 -1       826 3.02750E+01-2.37570E+00 0.00000E+00
 -1       827 3.02750E+01-2.86408E+00 0.00000E+00
 -1       828 3.02750E+01-3.40146E+00 0.00000E+00
 -1       829 3.02750E+01-3.99279E+00 0.00000E+00
 -1       830 3.02750E+01-4.64350E+00 0.00000E+00
 -1       831 3.02750E+01-5.35957E+00 0.00000E+00
 -1       832 3.02750E+01-6.14762E+00 0.00000E+00
 -1       833 3.02750E+01-7.01491E+00 0.00000E+00
 -1       834 3.02750E+01-7.96946E+00 0.00000E+00
 -1       835 3.02750E+01-9.02012E+00 0.00000E+00
 -1       836 3.02750E+01-1.01766E+01 0.00000E+00
 -1       837 3.02750E+01-1.14497E+01 0.00000E+00
 -1       838 3.02750E+01-1.28512E+01 0.00000E+00
 -1       839 3.02750E+01-1.43943E+01 0.00000E+00
 -1       840 3.02750E+01-1.60933E+01 0.00000E+00
 -1       841 3.02750E+01-1.79649E+01 0.00000E+00
 -1       842 2.72954E+01-2.50000E-01 0.00000E+00
 -1       843 2.72954E+01-5.25703E-01 0.00000E+00
 -1       844 2.72954E+01-8.28584E-01 0.00000E+00
 -1       845 2.72954E+01-1.16182E+00 0.00000E+00
 -1       846 2.72954E+01-1.52845E+00 0.00000E+00
 -1       847 2.72954E+01-1.93185E+00 0.00000E+00
 -1       848 2.72954E+01-2.37570E+00 0.00000E+00
 -1       849 2.72954E+01-2.86408E+00 0.00000E+00
 -1       850 2.72954E+01-3.40146E+00 0.00000E+00
 -1       851 2.72954E+01-3.99279E+00 0.00000E+00
 -1       852 2.72954E+01-4.64350E+00 0.00000E+00
 -1       853 2.72954E+01-5.35957E+00 0.00000E+00
 -1       854 2.72954E+01-6.14762E+00 0.00000E+00
 -1       855 2.72954E+01-7.01491E+00 0.00000E+00
 -1       856 2.72954E+01-7.96946E+00 0.00000E+00
 -1       857 2.72954E+01-9.02012E+00 0.00000E+00
 -1       858 2.72954E+01-1.01766E+01 0.00000E+00
 -1       859 2.72954E+01-1.14497E+01 0.00000E+00
 -1       860 2.72954E+01-1.28512E+01 0.00000E+00
 -1       861 2.72954E+01-1.43943E+01 0.00000E+00
 -1       862 2.72954E+01-1.60933E+01 0.00000E+00
 -1       863 2.72954E+01-1.79649E+01 0.00000E+00
 -1       864 2.45868E+01-2.50000E-01 0.00000E+00
 -1       865 2.45868E+01-5.25703E-01 0.00000E+00
 -1       866 2.45868E+01-8.28584E-01 0.00000E+00
 -1       867 2.45868E+01-1.16182E+00 0.00000E+00
 -1       868 2.45868E+01-1.52845E+00 0.00000E+00
 -1       869 2.45868E+01-1.93185E+00 0.00000E+00
 -1       870 2.45868E+01-2.37570E+00 0.00000E+00
 -1       871 2.45868E+01-2.86408E+00 0.00000E+00
 -1       872 2.45868E+01-3.40146E+00 0.00000E+00
 -1       873 2.45868E+01-3.99279E+00 0.00000E+00
 -1       874 2.45868E+01-4.64350E+00 0.00000E+00
 -1       875 2.45868E+01-5.35957E+00 0.00000E+00
 -1       876 2.45868E+01-6.14762E+00 0.00000E+00
 -1       877 2.45868E+01-7.01491E+00 0.00000E+00
 -1       878 2.45868E+01-7.96946E+00 0.00000E+00
 -1       879 2.45868E+01-9.02012E+00 0.00000E+00
 -1       880 2.45868E+01-1.01766E+01 0.00000E+00
 -1       881 2.45868E+01-1.14497E+01 0.00000E+00
 -1       882 2.45868E+01-1.28512E+01 0.00000E+00
 -1       883 2.45868E+01-1.43943E+01 0.00000E+00
 -1       884 2.45868E+01-1.60933E+01 0.00000E+00
 -1       885 2.45868E+01-1.79649E+01 0.00000E+00
 -1       886 2.21243E+01-2.50000E-01 0.00000E+00
 -1       887 2.21243E+01-5.25703E-01 0.00000E+00
 -1       888 2.21243E+01-8.28584E-01 0.00000E+00
 -1       889 2.21243E+01-1.16182E+00 0.00000E+00
 -1       890 2.21243E+01-1.52845E+00 0.00000E+00
 -1       891 2.21243E+01-1.93185E+00 0.00000E+00
 -1       892 2.21243E+01-2.37570E+00 0.00000E+00
 -1       893 2.21243E+01-2.86408E+00 0.00000E+00
 -1       894 2.21243E+01-3.40146E+00 0.00000E+00
 -1       895 2.21243E+01-3.99279E+00 0.00000E+00
 -1       896 2.21243E+01-4.64350E+00 0.00000E+00
 -1       897 2.21243E+01-5.35957E+00 0.00000E+00
 -1       898 2.21243E+01-6.14762E+00 0.00000E+00
 -1       899 2.21243E+01-7.01491E+00 0.00000E+00
 -1       900 2.21243E+01-7.96946E+00 0.00000E+00
 -1       901 2.21243E+01-9.02012E+00 0.00000E+00
 -1       902 2.21243E+01-1.01766E+01 0.00000E+00
 -1       903 2.21243E+01-1.14497E+01 0.00000E+00
 -1       904 2.21243E+01-1.28512E+01 0.00000E+00
 -1       905 2.21243E+01-1.43943E+01 0.00000E+00
 -1       906 2.21243E+01-1.60933E+01 0.00000E+00
 -1       907 2.21243E+01-1.79649E+01 0.00000E+00
 -1       908 1.98858E+01-2.50000E-01 0.00000E+00
 -1       909 1.98858E+01-5.25703E-01 0.00000E+00
 -1       910 1.98858E+01-8.28584E-01 0.00000E+00
 -1       911 1.98858E+01-1.16182E+00 0.00000E+00
 -1       912 1.98858E+01-1.52845E+00 0.00000E+00
 -1       913 1.98858E+01-1.93185E+00 0.00000E+00
 -1       914 1.98858E+01-2.37570E+00 0.00000E+00
 -1       915 1.98858E+01-2.86408E+00 0.00000E+00
 -1       916 1.98858E+01-3.40146E+00 0.00000E+00
 -1       917 1.98858E+01-3.99279E+00 0.00000E+00
 -1       918 1.98858E+01-4.64350E+00 0.00000E+00
 -1       919 1.98858E+01-5.35957E+00 0.00000E+00
 -1       920 1.98858E+01-6.14762E+00 0.00000E+00
 -1       921 1.98858E+01-7.01491E+00 0.00000E+00
 -1       922 1.98858E+01-7.96946E+00 0.00000E+00
 -1       923 1.98858E+01-9.02012E+00 0.00000E+00
 -1       924 1.98858E+01-1.01766E+01 0.00000E+00
 -1       925 1.98858E+01-1.14497E+01 0.00000E+00
 -1       926 1.98858E+01-1.28512E+01 0.00000E+00
 -1       927 1.98858E+01-1.43943E+01 0.00000E+00
 -1       928 1.98858E+01-1.60933E+01 0.00000E+00
 -1       929 1.98858E+01-1.79649E+01 0.00000E+00
 -1       930 1.78507E+01-2.50000E-01 0.00000E+00
 -1       931 1.78507E+01-5.25703E-01 0.00000E+00
 -1       932 1.78507E+01-8.28584E-01 0.00000E+00
 -1       933 1.78507E+01-1.16182E+00 0.00000E+00
 -1       934 1.78507E+01-1.52845E+00 0.00000E+00
 -1       935 1.78507E+01-1.93185E+00 0.00000E+00
 -1       936 1.78507E+01-2.37570E+00 0.00000E+00
 -1       937 1.78507E+01-2.86408E+00 0.00000E+00
 -1       938 1.78507E+01-3.40146E+00 0.00000E+00
 -1       939 1.78507E+01-3.99279E+00 0.00000E+00
 -1       940 1.78507E+01-4.64350E+00 0.00000E+00
 -1       941 1.78507E+01-5.35957E+00 0.00000E+00
 -1       942 1.78507E+01-6.14762E+00 0.00000E+00
 -1       943 1.78507E+01-7.01491E+00 0.00000E+00
 -1       944 1.78507E+01-7.96946E+00 0.00000E+00
 -1       945 1.78507E+01-9.02012E+00 0.00000E+00
 -1       946 1.78507E+01-1.01766E+01 0.00000E+00
 -1       947 1.78507E+01-1.14497E+01 0.00000E+00
 -1       948 1.78507E+01-1.28512E+01 0.00000E+00
 -1       949 1.78507E+01-1.43943E+01 0.00000E+00
 -1       950 1.78507E+01-1.60933E+01 0.00000E+00
 -1       951 1.78507E+01-1.79649E+01 0.00000E+00
 -1       952 1.60006E+01-2.50000E-01 0.00000E+00
 -1       953 1.60006E+01-5.25703E-01 0.00000E+00
 -1       954 1.60006E+01-8.28584E-01 0.00000E+00
 -1       955 1.60006E+01-1.16182E+00 0.00000E+00
 -1       956 1.60006E+01-1.52845E+00 0.00000E+00
 -1       957 1.60006E+01-1.93185E+00 0.00000E+00
 -1       958 1.60006E+01-2.37570E+00 0.00000E+00
 -1       959 1.60006E+01-2.86408E+00 0.00000E+00
 -1       960 1.60006E+01-3.40146E+00 0.00000E+00
 -1       961 1.60006E+01-3.99279E+00 0.00000E+00
 -1       962 1.60006E+01-4.64350E+00 0.00000E+00
 -1       963 1.60006E+01-5.35957E+00 0.00000E+00
 -1       964 1.60006E+01-6.14762E+00 0.00000E+00
 -1       965 1.60006E+01-7.01491E+00 0.00000E+00
 -1       966 1.60006E+01-7.96946E+00 0.00000E+00
 -1       967 1.60006E+01-9.02012E+00 0.00000E+00
 -1       968 1.60006E+01-1.01766E+01 0.00000E+00
 -1       969 1.60006E+01-1.14497E+01 0.00000E+00
 -1       970 1.60006E+01-1.28512E+01 0.00000E+00
 -1       971 1.60006E+01-1.43943E+01 0.00000E+00
 -1       972 1.60006E+01-1.60933E+01 0.00000E+00
 -1       973 1.60006E+01-1.79649E+01 0.00000E+00
 -1       974 1.43187E+01-2.50000E-01 0.00000E+00
 -1       975 1.43187E+01-5.25703E-01 0.00000E+00
 -1       976 1.43187E+01-8.28584E-01 0.00000E+00
 -1       977 1.43187E+01-1.16182E+00 0.00000E+00
 -1       978 1.43187E+01-1.52845E+00 0.00000E+00
 -1       979 1.43187E+01-1.93185E+00 0.00000E+00
 -1       980 1.43187E+01-2.37570E+00 0.00000E+00
 -1       981 1.43187E+01-2.86408E+00 0.00000E+00
 -1       982 1.43187E+01-3.40146E+00 0.00000E+00
 -1       983 1.43187E+01-3.99279E+00 0.00000E+00
 -1       984 1.43187E+01-4.64350E+00 0.00000E+00
 -1       985 1.43187E+01-5.35957E+00 0.00000E+00
 -1       986 1.43187E+01-6.14762E+00 0.00000E+00
 -1       987 1.43187E+01-7.01491E+00 0.00000E+00
 -1       988 1.43187E+01-7.96946E+00 0.00000E+00
 -1       989 1.43187E+01-9.02012E+00 0.00000E+00
 -1       990 1.43187E+01-1.01766E+01 0.00000E+00
 -1       991 1.43187E+01-1.14497E+01 0.00000E+00
 -1       992 1.43187E+01-1.28512E+01 0.00000E+00
 -1       993 1.43187E+01-1.43943E+01 0.00000E+00
 -1       994 1.43187E+01-1.60933E+01 0.00000E+00
 -1       995 1.43187E+01-1.79649E+01 0.00000E+00
 -1       996 1.27898E+01-2.50000E-01 0.00000E+00
 -1       997 1.27898E+01-5.25703E-01 0.00000E+00
 -1       998 1.27898E+01-8.28584E-01 0.00000E+00
 -1       999 1.27898E+01-1.16182E+00 0.00000E+00
 -1      1000 1.27898E+01-1.52845E+00 0.00000E+00
 -1      1001 1.27898E+01-1.93185E+00 0.00000E+00
 -1      1002 1.27898E+01-2.37570E+00 0.00000E+00
 -1      1003 1.27898E+01-2.86408E+00 0.00000E+00
 -1      1004 1.27898E+01-3.40146E+00 0.00000E+00
 -1      1005 1.27898E+01-3.99279E+00 0.00000E+00
 -1      1006 1.27898E+01-4.64350E+00 0.00000E+00
 -1      1007 1.27898E+01-5.35957E+00 0.00000E+00
 -1      1008 1.27898E+01-6.14762E+00 0.00000E+00
 -1      1009 1.27898E+01-7.01491E+00 0.00000E+00
 -1      1010 1.27898E+01-7.96946E+00 0.00000E+00
 -1      1011 1.27898E+01-9.02012E+00 0.00000E+00
 -1      1012 1.27898E+01-1.01766E+01 0.00000E+00
 -1      1013 1.27898E+01-1.14497E+01 0.00000E+00
 -1      1014 1.27898E+01-1.28512E+01 0.00000E+00
 -1      1015 1.27898E+01-1.43943E+01 0.00000E+00
 -1      1016 1.27898E+01-1.60933E+01 0.00000E+00
 -1      1017 1.27898E+01-1.79649E+01 0.00000E+00
 -1      1018 1.13998E+01-2.50000E-01 0.00000E+00
 -1      1019 1.13998E+01-5.25703E-01 0.00000E+00
 -1      1020 1.13998E+01-8.28584E-01 0.00000E+00
 -1      1021 1.13998E+01-1.16182E+00 0.00000E+00
 -1      1022 1.13998E+01-1.52845E+00 0.00000E+00
 -1      1023 1.13998E+01-1.93185E+00 0.00000E+00
 -1      1024 1.13998E+01-2.37570E+00 0.00000E+00
 -1      1025 1.13998E+01-2.86408E+00 0.00000E+00
 -1      1026 1.13998E+01-3.40146E+00 0.00000E+00
 -1      1027 1.13998E+01-3.99279E+00 0.00000E+00
 -1      1028 1.13998E+01-4.64350E+00 0.00000E+00
 -1      1029 1.13998E+01-5.35957E+00 0.00000E+00
 -1      1030 1.13998E+01-6.14762E+00 0.00000E+00
 -1      1031 1.13998E+01-7.01491E+00 0.00000E+00
 -1      1032 1.13998E+01-7.96946E+00 0.00000E+00
 -1      1033 1.13998E+01-9.02012E+00 0.00000E+00
 -1      1034 1.13998E+01-1.01766E+01 0.00000E+00
 -1      1035 1.13998E+01-1.14497E+01 0.00000E+00
 -1      1036 1.13998E+01-1.28512E+01 0.00000E+00
 -1      1037 1.13998E+01-1.43943E+01 0.00000E+00
 -1      1038 1.13998E+01-1.60933E+01 0.00000E+00
 -1      1039 1.13998E+01-1.79649E+01 0.00000E+00
 -1      1040 1.01362E+01-2.50000E-01 0.00000E+00
 -1      1041 1.01362E+01-5.25703E-01 0.00000E+00
 -1      1042 1.01362E+01-8.28584E-01 0.00000E+00
 -1      1043 1.01362E+01-1.16182E+00 0.00000E+00
 -1      1044 1.01362E+01-1.52845E+00 0.00000E+00
 -1      1045 1.01362E+01-1.93185E+00 0.00000E+00
 -1      1046 1.01362E+01-2.37570E+00 0.00000E+00
 -1      1047 1.01362E+01-2.86408E+00 0.00000E+00
 -1      1048 1.01362E+01-3.40146E+00 0.00000E+00
 -1      1049 1.01362E+01-3.99279E+00 0.00000E+00
 -1      1050 1.01362E+01-4.64350E+00 0.00000E+00
 -1      1051 1.01362E+01-5.35957E+00 0.00000E+00
 -1      1052 1.01362E+01-6.14762E+00 0.00000E+00
 -1      1053 1.01362E+01-7.01491E+00 0.00000E+00
 -1      1054 1.01362E+01-7.96946E+00 0.00000E+00
 -1      1055 1.01362E+01-9.02012E+00 0.00000E+00
 -1      1056 1.01362E+01-1.01766E+01 0.00000E+00
 -1      1057 1.01362E+01-1.14497E+01 0.00000E+00
 -1      1058 1.01362E+01-1.28512E+01 0.00000E+00
 -1      1059 1.01362E+01-1.43943E+01 0.00000E+00
 -1      1060 1.01362E+01-1.60933E+01 0.00000E+00
 -1      1061 1.01362E+01-1.79649E+01 0.00000E+00
 -1      1062 8.98743E+00-2.50000E-01 0.00000E+00
 -1      1063 8.98743E+00-5.25703E-01 0.00000E+00
 -1      1064 8.98743E+00-8.28584E-01 0.00000E+00
 -1      1065 8.98743E+00-1.16182E+00 0.00000E+00
 -1      1066 8.98743E+00-1.52845E+00 0.00000E+00
 -1      1067 8.98743E+00-1.93185E+00 0.00000E+00
 -1      1068 8.98743E+00-2.37570E+00 0.00000E+00
 -1      1069 8.98743E+00-2.86408E+00 0.00000E+00
 -1      1070 8.98743E+00-3.40146E+00 0.00000E+00
 -1      1071 8.98743E+00-3.99279E+00 0.00000E+00
 -1      1072 8.98743E+00-4.64350E+00 0.00000E+00
 -1      1073 8.98743E+00-5.35957E+00 0.00000E+00
 -1      1074 8.98743E+00-6.14762E+00 0.00000E+00
 -1      1075 8.98743E+00-7.01491E+00 0.00000E+00
 -1      1076 8.98743E+00-7.96946E+00 0.00000E+00
 -1      1077 8.98743E+00-9.02012E+00 0.00000E+00
 -1      1078 8.98743E+00-1.01766E+01 0.00000E+00
 -1      1079 8.98743E+00-1.14497E+01 0.00000E+00
 -1      1080 8.98743E+00-1.28512E+01 0.00000E+00
 -1      1081 8.98743E+00-1.43943E+01 0.00000E+00
 -1      1082 8.98743E+00-1.60933E+01 0.00000E+00
 -1      1083 8.98743E+00-1.79649E+01 0.00000E+00
 -1      1084 7.94312E+00-2.50000E-01 0.00000E+00
 -1      1085 7.94312E+00-5.25703E-01 0.00000E+00
 -1      1086 7.94312E+00-8.28584E-01 0.00000E+00
 -1      1087 7.94312E+00-1.16182E+00 0.00000E+00
 -1      1088 7.94312E+00-1.52845E+00 0.00000E+00
 -1      1089 7.94312E+00-1.93185E+00 0.00000E+00
 -1      1090 7.94312E+00-2.37570E+00 0.00000E+00
 -1      1091 7.94312E+00-2.86408E+00 0.00000E+00
 -1      1092 7.94312E+00-3.40146E+00 0.00000E+00
 -1      1093 7.94312E+00-3.99279E+00 0.00000E+00
 -1      1094 7.94312E+00-4.64350E+00 0.00000E+00
 -1      1095 7.94312E+00-5.35957E+00 0.00000E+00
 -1      1096 7.94312E+00-6.14762E+00 0.00000E+00
 -1      1097 7.94312E+00-7.01491E+00 0.00000E+00
 -1      1098 7.94312E+00-7.96946E+00 0.00000E+00
 -1      1099 7.94312E+00-9.02012E+00 0.00000E+00
 -1      1100 7.94312E+00-1.01766E+01 0.00000E+00
 -1      1101 7.94312E+00-1.14497E+01 0.00000E+00
 -1      1102 7.94312E+00-1.28512E+01 0.00000E+00
 -1      1103 7.94312E+00-1.43943E+01 0.00000E+00
 -1      1104 7.94312E+00-1.60933E+01 0.00000E+00
 -1      1105 7.94312E+00-1.79649E+01 0.00000E+00
 -1      1106 6.99375E+00-2.50000E-01 0.00000E+00
 -1      1107 6.99375E+00-5.25703E-01 0.00000E+00
 -1      1108 6.99375E+00-8.28584E-01 0.00000E+00
 -1      1109 6.99375E+00-1.16182E+00 0.00000E+00
 -1      1110 6.99375E+00-1.52845E+00 0.00000E+00
 -1      1111 6.99375E+00-1.93185E+00 0.00000E+00
 -1      1112 6.99375E+00-2.37570E+00 0.00000E+00
 -1      1113 6.99375E+00-2.86408E+00 0.00000E+00
 -1      1114 6.99375E+00-3.40146E+00 0.00000E+00
 -1      1115 6.99375E+00-3.99279E+00 0.00000E+00
 -1      1116 6.99375E+00-4.64350E+00 0.00000E+00
 -1      1117 6.99375E+00-5.35957E+00 0.00000E+00
 -1      1118 6.99375E+00-6.14762E+00 0.00000E+00
 -1      1119 6.99375E+00-7.01491E+00 0.00000E+00
 -1      1120 6.99375E+00-7.96946E+00 0.00000E+00
 -1      1121 6.99375E+00-9.02012E+00 0.00000E+00
 -1      1122 6.99375E+00-1.01766E+01 0.00000E+00
 -1      1123 6.99375E+00-1.14497E+01 0.00000E+00
 -1      1124 6.99375E+00-1.28512E+01 0.00000E+00
 -1      1125 6.99375E+00-1.43943E+01 0.00000E+00
 -1      1126 6.99375E+00-1.60933E+01 0.00000E+00
 -1      1127 6.99375E+00-1.79649E+01 0.00000E+00
 -1      1128 6.13068E+00-2.50000E-01 0.00000E+00
 -1      1129 6.13068E+00-5.25703E-01 0.00000E+00
 -1      1130 6.13068E+00-8.28584E-01 0.00000E+00
 -1      1131 6.13068E+00-1.16182E+00 0.00000E+00
 -1      1132 6.13068E+00-1.52845E+00 0.00000E+00
 -1      1133 6.13068E+00-1.93185E+00 0.00000E+00
 -1      1134 6.13068E+00-2.37570E+00 0.00000E+00
 -1      1135 6.13068E+00-2.86408E+00 0.00000E+00
 -1      1136 6.13068E+00-3.40146E+00 0.00000E+00
 -1      1137 6.13068E+00-3.99279E+00 0.00000E+00
 -1      1138 6.13068E+00-4.64350E+00 0.00000E+00
 -1      1139 6.13068E+00-5.35957E+00 0.00000E+00
 -1      1140 6.13068E+00-6.14762E+00 0.00000E+00
 -1      1141 6.13068E+00-7.01491E+00 0.00000E+00
 -1      1142 6.13068E+00-7.96946E+00 0.00000E+00
 -1      1143 6.13068E+00-9.02012E+00 0.00000E+00
 -1      1144 6.13068E+00-1.01766E+01 0.00000E+00
 -1      1145 6.13068E+00-1.14497E+01 0.00000E+00
 -1      1146 6.13068E+00-1.28512E+01 0.00000E+00
 -1      1147 6.13068E+00-1.43943E+01 0.00000E+00
 -1      1148 6.13068E+00-1.60933E+01 0.00000E+00
 -1      1149 6.13068E+00-1.79649E+01 0.00000E+00
 -1      1150 5.34607E+00-2.50000E-01 0.00000E+00
 -1      1151 5.34607E+00-5.25703E-01 0.00000E+00
 -1      1152 5.34607E+00-8.28584E-01 0.00000E+00
 -1      1153 5.34607E+00-1.16182E+00 0.00000E+00
 -1      1154 5.34607E+00-1.52845E+00 0.00000E+00
 -1      1155 5.34607E+00-1.93185E+00 0.00000E+00
 -1      1156 5.34607E+00-2.37570E+00 0.00000E+00
 -1      1157 5.34607E+00-2.86408E+00 0.00000E+00
 -1      1158 5.34607E+00-3.40146E+00 0.00000E+00
 -1      1159 5.34607E+00-3.99279E+00 0.00000E+00
 -1      1160 5.34607E+00-4.64350E+00 0.00000E+00
 -1      1161 5.34607E+00-5.35957E+00 0.00000E+00
 -1      1162 5.34607E+00-6.14762E+00 0.00000E+00
 -1      1163 5.34607E+00-7.01491E+00 0.00000E+00
 -1      1164 5.34607E+00-7.96946E+00 0.00000E+00
 -1      1165 5.34607E+00-9.02012E+00 0.00000E+00
 -1      1166 5.34607E+00-1.01766E+01 0.00000E+00
 -1      1167 5.34607E+00-1.14497E+01 0.00000E+00
 -1      1168 5.34607E+00-1.28512E+01 0.00000E+00
 -1      1169 5.34607E+00-1.43943E+01 0.00000E+00
 -1      1170 5.34607E+00-1.60933E+01 0.00000E+00
 -1      1171 5.34607E+00-1.79649E+01 0.00000E+00
 -1      1172 4.63279E+00-2.50000E-01 0.00000E+00
 -1      1173 4.63279E+00-5.25703E-01 0.00000E+00
 -1      1174 4.63279E+00-8.28584E-01 0.00000E+00
 -1      1175 4.63279E+00-1.16182E+00 0.00000E+00
 -1      1176 4.63279E+00-1.52845E+00 0.00000E+00
 -1      1177 4.63279E+00-1.93185E+00 0.00000E+00
 -1      1178 4.63279E+00-2.37570E+00 0.00000E+00
 -1      1179 4.63279E+00-2.86408E+00 0.00000E+00
 -1      1180 4.63279E+00-3.40146E+00 0.00000E+00
 -1      1181 4.63279E+00-3.99279E+00 0.00000E+00
 -1      1182 4.63279E+00-4.64350E+00 0.00000E+00
 -1      1183 4.63279E+00-5.35957E+00 0.00000E+00
 -1      1184 4.63279E+00-6.14762E+00 0.00000E+00
 -1      1185 4.63279E+00-7.01491E+00 0.00000E+00
 -1      1186 4.63279E+00-7.96946E+00 0.00000E+00
 -1      1187 4.63279E+00-9.02012E+00 0.00000E+00
 -1      1188 4.63279E+00-1.01766E+01 0.00000E+00
 -1      1189 4.63279E+00-1.14497E+01 0.00000E+00
 -1      1190 4.63279E+00-1.28512E+01 0.00000E+00
 -1      1191 4.63279E+00-1.43943E+01 0.00000E+00
 -1      1192 4.63279E+00-1.60933E+01 0.00000E+00
 -1      1193 4.63279E+00-1.79649E+01 0.00000E+00
 -1      1194 3.98436E+00-2.50000E-01 0.00000E+00
 -1      1195 3.98436E+00-5.25703E-01 0.00000E+00
 -1      1196 3.98436E+00-8.28584E-01 0.00000E+00
 -1      1197 3.98436E+00-1.16182E+00 0.00000E+00
 -1      1198 3.98436E+00-1.52845E+00 0.00000E+00
 -1      1199 3.98436E+00-1.93185E+00 0.00000E+00
 -1      1200 3.98436E+00-2.37570E+00 0.00000E+00
 -1      1201 3.98436E+00-2.86408E+00 0.00000E+00
 -1      1202 3.98436E+00-3.40146E+00 0.00000E+00
 -1      1203 3.98436E+00-3.99279E+00 0.00000E+00
 -1      1204 3.98436E+00-4.64350E+00 0.00000E+00
 -1      1205 3.98436E+00-5.35957E+00 0.00000E+00
 -1      1206 3.98436E+00-6.14762E+00 0.00000E+00
 -1      1207 3.98436E+00-7.01491E+00 0.00000E+00
 -1      1208 3.98436E+00-7.96946E+00 0.00000E+00
 -1      1209 3.98436E+00-9.02012E+00 0.00000E+00
 -1      1210 3.98436E+00-1.01766E+01 0.00000E+00
 -1      1211 3.98436E+00-1.14497E+01 0.00000E+00
 -1      1212 3.98436E+00-1.28512E+01 0.00000E+00
 -1      1213 3.98436E+00-1.43943E+01 0.00000E+00
 -1      1214 3.98436E+00-1.60933E+01 0.00000E+00
 -1      1215 3.98436E+00-1.79649E+01 0.00000E+00
 -1      1216 3.39487E+00-2.50000E-01 0.00000E+00
 -1      1217 3.39487E+00-5.25703E-01 0.00000E+00
 -1      1218 3.39487E+00-8.28584E-01 0.00000E+00
 -1      1219 3.39487E+00-1.16182E+00 0.00000E+00
 -1      1220 3.39487E+00-1.52845E+00 0.00000E+00
 -1      1221 3.39487E+00-1.93185E+00 0.00000E+00
 -1      1222 3.39487E+00-2.37570E+00 0.00000E+00
 -1      1223 3.39487E+00-2.86408E+00 0.00000E+00
 -1      1224 3.39487E+00-3.40146E+00 0.00000E+00
 -1      1225 3.39487E+00-3.99279E+00 0.00000E+00
 -1      1226 3.39487E+00-4.64350E+00 0.00000E+00
 -1      1227 3.39487E+00-5.35957E+00 0.00000E+00
 -1      1228 3.39487E+00-6.14762E+00 0.00000E+00
 -1      1229 3.39487E+00-7.01491E+00 0.00000E+00
 -1      1230 3.39487E+00-7.96946E+00 0.00000E+00
 -1      1231 3.39487E+00-9.02012E+00 0.00000E+00
 -1      1232 3.39487E+00-1.01766E+01 0.00000E+00
 -1      1233 3.39487E+00-1.14497E+01 0.00000E+00
 -1      1234 3.39487E+00-1.28512E+01 0.00000E+00
 -1      1235 3.39487E+00-1.43943E+01 0.00000E+00
 -1      1236 3.39487E+00-1.60933E+01 0.00000E+00
 -1      1237 3.39487E+00-1.79649E+01 0.00000E+00
 -1      1238 2.85897E+00-2.50000E-01 0.00000E+00
 -1      1239 2.85897E+00-5.25703E-01 0.00000E+00
 -1      1240 2.85897E+00-8.28584E-01 0.00000E+00
 -1      1241 2.85897E+00-1.16182E+00 0.00000E+00
 -1      1242 2.85897E+00-1.52845E+00 0.00000E+00
 -1      1243 2.85897E+00-1.93185E+00 0.00000E+00
 -1      1244 2.85897E+00-2.37570E+00 0.00000E+00
 -1      1245 2.85897E+00-2.86408E+00 0.00000E+00
 -1      1246 2.85897E+00-3.40146E+00 0.00000E+00
 -1      1247 2.85897E+00-3.99279E+00 0.00000E+00
 -1      1248 2.85897E+00-4.64350E+00 0.00000E+00
 -1      1249 2.85897E+00-5.35957E+00 0.00000E+00
 -1      1250 2.85897E+00-6.14762E+00 0.00000E+00
 -1      1251 2.85897E+00-7.01491E+00 0.00000E+00
 -1      1252 2.85897E+00-7.96946E+00 0.00000E+00
 -1      1253 2.85897E+00-9.02012E+00 0.00000E+00
 -1      1254 2.85897E+00-1.01766E+01 0.00000E+00
 -1      1255 2.85897E+00-1.14497E+01 0.00000E+00
 -1      1256 2.85897E+00-1.28512E+01 0.00000E+00
 -1      1257 2.85897E+00-1.43943E+01 0.00000E+00
 -1      1258 2.85897E+00-1.60933E+01 0.00000E+00
 -1      1259 2.85897E+00-1.79649E+01 0.00000E+00
 -1      1260 2.37179E+00-2.50000E-01 0.00000E+00
 -1      1261 2.37179E+00-5.25703E-01 0.00000E+00
 -1      1262 2.37179E+00-8.28584E-01 0.00000E+00
 -1      1263 2.37179E+00-1.16182E+00 0.00000E+00
 -1      1264 2.37179E+00-1.52845E+00 0.00000E+00
 -1      1265 2.37179E+00-1.93185E+00 0.00000E+00
 -1      1266 2.37179E+00-2.37570E+00 0.00000E+00
 -1      1267 2.37179E+00-2.86408E+00 0.00000E+00
 -1      1268 2.37179E+00-3.40146E+00 0.00000E+00
 -1      1269 2.37179E+00-3.99279E+00 0.00000E+00
 -1      1270 2.37179E+00-4.64350E+00 0.00000E+00
 -1      1271 2.37179E+00-5.35957E+00 0.00000E+00
 -1      1272 2.37179E+00-6.14762E+00 0.00000E+00
 -1      1273 2.37179E+00-7.01491E+00 0.00000E+00
 -1      1274 2.37179E+00-7.96946E+00 0.00000E+00
 -1      1275 2.37179E+00-9.02012E+00 0.00000E+00
 -1      1276 2.37179E+00-1.01766E+01 0.00000E+00
 -1      1277 2.37179E+00-1.14497E+01 0.00000E+00
 -1      1278 2.37179E+00-1.28512E+01 0.00000E+00
 -1      1279 2.37179E+00-1.43943E+01 0.00000E+00
 -1      1280 2.37179E+00-1.60933E+01 0.00000E+00
 -1      1281 2.37179E+00-1.79649E+01 0.00000E+00
 -1      1282 1.92890E+00-2.50000E-01 0.00000E+00
 -1      1283 1.92890E+00-5.25703E-01 0.00000E+00
 -1      1284 1.92890E+00-8.28584E-01 0.00000E+00
 -1      1285 1.92890E+00-1.16182E+00 0.00000E+00
 -1      1286 1.92890E+00-1.52845E+00 0.00000E+00
 -1      1287 1.92890E+00-1.93185E+00 0.00000E+00
 -1      1288 1.92890E+00-2.37570E+00 0.00000E+00
 -1      1289 1.92890E+00-2.86408E+00 0.00000E+00
 -1      1290 1.92890E+00-3.40146E+00 0.00000E+00
 -1      1291 1.92890E+00-3.99279E+00 0.00000E+00
 -1      1292 1.92890E+00-4.64350E+00 0.00000E+00
 -1      1293 1.92890E+00-5.35957E+00 0.00000E+00
 -1      1294 1.92890E+00-6.14762E+00 0.00000E+00
 -1      1295 1.92890E+00-7.01491E+00 0.00000E+00
 -1      1296 1.92890E+00-7.96946E+00 0.00000E+00
 -1      1297 1.92890E+00-9.02012E+00 0.00000E+00
 -1      1298 1.92890E+00-1.01766E+01 0.00000E+00
 -1      1299 1.92890E+00-1.14497E+01 0.00000E+00
 -1      1300 1.92890E+00-1.28512E+01 0.00000E+00
 -1      1301 1.92890E+00-1.43943E+01 0.00000E+00
 -1      1302 1.92890E+00-1.60933E+01 0.00000E+00
 -1      1303 1.92890E+00-1.79649E+01 0.00000E+00
 -1      1304 1.52628E+00-2.50000E-01 0.00000E+00
 -1      1305 1.52628E+00-5.25703E-01 0.00000E+00
 -1      1306 1.52628E+00-8.28584E-01 0.00000E+00
 -1      1307 1.52628E+00-1.16182E+00 0.00000E+00
 -1      1308 1.52628E+00-1.52845E+00 0.00000E+00
 -1      1309 1.52628E+00-1.93185E+00 0.00000E+00
 -1      1310 1.52628E+00-2.37570E+00 0.00000E+00
 -1      1311 1.52628E+00-2.86408E+00 0.00000E+00
 -1      1312 1.52628E+00-3.40146E+00 0.00000E+00
 -1      1313 1.52628E+00-3.99279E+00 0.00000E+00
 -1      1314 1.52628E+00-4.64350E+00 0.00000E+00
 -1      1315 1.52628E+00-5.35957E+00 0.00000E+00
 -1      1316 1.52628E+00-6.14762E+00 0.00000E+00
 -1      1317 1.52628E+00-7.01491E+00 0.00000E+00
 -1      1318 1.52628E+00-7.96946E+00 0.00000E+00
 -1      1319 1.52628E+00-9.02012E+00 0.00000E+00
 -1      1320 1.52628E+00-1.01766E+01 0.00000E+00
 -1      1321 1.52628E+00-1.14497E+01 0.00000E+00
 -1      1322 1.52628E+00-1.28512E+01 0.00000E+00
 -1      1323 1.52628E+00-1.43943E+01 0.00000E+00
 -1      1324 1.52628E+00-1.60933E+01 0.00000E+00
 -1      1325 1.52628E+00-1.79649E+01 0.00000E+00
 -1      1326 1.16025E+00-2.50000E-01 0.00000E+00
 -1      1327 1.16025E+00-5.25703E-01 0.00000E+00
 -1      1328 1.16025E+00-8.28584E-01 0.00000E+00
 -1      1329 1.16025E+00-1.16182E+00 0.00000E+00
 -1      1330 1.16025E+00-1.52845E+00 0.00000E+00
 -1      1331 1.16025E+00-1.93185E+00 0.00000E+00
 -1      1332 1.16025E+00-2.37570E+00 0.00000E+00
 -1      1333 1.16025E+00-2.86408E+00 0.00000E+00
 -1      1334 1.16025E+00-3.40146E+00 0.00000E+00
 -1      1335 1.16025E+00-3.99279E+00 0.00000E+00
 -1      1336 1.16025E+00-4.64350E+00 0.00000E+00
 -1      1337 1.16025E+00-5.35957E+00 0.00000E+00
 -1      1338 1.16025E+00-6.14762E+00 0.00000E+00
 -1      1339 1.16025E+00-7.01491E+00 0.00000E+00
 -1      1340 1.16025E+00-7.96946E+00 0.00000E+00
 -1      1341 1.16025E+00-9.02012E+00 0.00000E+00
 -1      1342 1.16025E+00-1.01766E+01 0.00000E+00
 -1      1343 1.16025E+00-1.14497E+01 0.00000E+00
 -1      1344 1.16025E+00-1.28512E+01 0.00000E+00
 -1      1345 1.16025E+00-1.43943E+01 0.00000E+00
 -1      1346 1.16025E+00-1.60933E+01 0.00000E+00
 -1      1347 1.16025E+00-1.79649E+01 0.00000E+00
 -1      1348 8.27500E-01-2.50000E-01 0.00000E+00
 -1      1349 8.27500E-01-5.25703E-01 0.00000E+00
 -1      1350 8.27500E-01-8.28584E-01 0.00000E+00
 -1      1351 8.27500E-01-1.16182E+00 0.00000E+00
 -1      1352 8.27500E-01-1.52845E+00 0.00000E+00
 -1      1353 8.27500E-01-1.93185E+00 0.00000E+00
 -1      1354 8.27500E-01-2.37570E+00 0.00000E+00
 -1      1355 8.27500E-01-2.86408E+00 0.00000E+00
 -1      1356 8.27500E-01-3.40146E+00 0.00000E+00
 -1      1357 8.27500E-01-3.99279E+00 0.00000E+00
 -1      1358 8.27500E-01-4.64350E+00 0.00000E+00
 -1      1359 8.27500E-01-5.35957E+00 0.00000E+00
 -1      1360 8.27500E-01-6.14762E+00 0.00000E+00
 -1      1361 8.27500E-01-7.01491E+00 0.00000E+00
 -1      1362 8.27500E-01-7.96946E+00 0.00000E+00
 -1      1363 8.27500E-01-9.02012E+00 0.00000E+00
 -1      1364 8.27500E-01-1.01766E+01 0.00000E+00
 -1      1365 8.27500E-01-1.14497E+01 0.00000E+00
 -1      1366 8.27500E-01-1.28512E+01 0.00000E+00
 -1      1367 8.27500E-01-1.43943E+01 0.00000E+00
 -1      1368 8.27500E-01-1.60933E+01 0.00000E+00
 -1      1369 8.27500E-01-1.79649E+01 0.00000E+00
 -1      1370 5.25000E-01-2.50000E-01 0.00000E+00
 -1      1371 5.25000E-01-5.25703E-01 0.00000E+00
 -1      1372 5.25000E-01-8.28584E-01 0.00000E+00
 -1      1373 5.25000E-01-1.16182E+00 0.00000E+00
 -1      1374 5.25000E-01-1.52845E+00 0.00000E+00
 -1      1375 5.25000E-01-1.93185E+00 0.00000E+00
 -1      1376 5.25000E-01-2.37570E+00 0.00000E+00
 -1      1377 5.25000E-01-2.86408E+00 0.00000E+00
 -1      1378 5.25000E-01-3.40146E+00 0.00000E+00
 -1      1379 5.25000E-01-3.99279E+00 0.00000E+00
 -1      1380 5.25000E-01-4.64350E+00 0.00000E+00
 -1      1381 5.25000E-01-5.35957E+00 0.00000E+00
 -1      1382 5.25000E-01-6.14762E+00 0.00000E+00
 -1      1383 5.25000E-01-7.01491E+00 0.00000E+00
 -1      1384 5.25000E-01-7.96946E+00 0.00000E+00
 -1      1385 5.25000E-01-9.02012E+00 0.00000E+00
 -1      1386 5.25000E-01-1.01766E+01 0.00000E+00
 -1      1387 5.25000E-01-1.14497E+01 0.00000E+00
 -1      1388 5.25000E-01-1.28512E+01 0.00000E+00
 -1      1389 5.25000E-01-1.43943E+01 0.00000E+00
 -1      1390 5.25000E-01-1.60933E+01 0.00000E+00
 -1      1391 5.25000E-01-1.79649E+01 0.00000E+00
 -1      1392 2.50000E-01-2.50000E-01 0.00000E+00
 -1      1393 2.50000E-01-5.25703E-01 0.00000E+00
 -1      1394 2.50000E-01-8.28584E-01 0.00000E+00
 -1      1395 2.50000E-01-1.16182E+00 0.00000E+00
 -1      1396 2.50000E-01-1.52845E+00 0.00000E+00
 -1      1397 2.50000E-01-1.93185E+00 0.00000E+00
 -1      1398 2.50000E-01-2.37570E+00 0.00000E+00
 -1      1399 2.50000E-01-2.86408E+00 0.00000E+00
 -1      1400 2.50000E-01-3.40146E+00 0.00000E+00
 -1      1401 2.50000E-01-3.99279E+00 0.00000E+00
 -1      1402 2.50000E-01-4.64350E+00 0.00000E+00
 -1      1403 2.50000E-01-5.35957E+00 0.00000E+00
 -1      1404 2.50000E-01-6.14762E+00 0.00000E+00
 -1      1405 2.50000E-01-7.01491E+00 0.00000E+00
 -1      1406 2.50000E-01-7.96946E+00 0.00000E+00
 -1      1407 2.50000E-01-9.02012E+00 0.00000E+00
 -1      1408 2.50000E-01-1.01766E+01 0.00000E+00
 -1      1409 2.50000E-01-1.14497E+01 0.00000E+00
 -1      1410 2.50000E-01-1.28512E+01 0.00000E+00
 -1      1411 2.50000E-01-1.43943E+01 0.00000E+00
 -1      1412 2.50000E-01-1.60933E+01 0.00000E+00
 -1      1413 2.50000E-01-1.79649E+01 0.00000E+00
 -3
    3C                          1334                                     1
 -1         1    9    0    1
 -2         5       111       182       160
 -1         2    9    0    1
 -2       160       182       183       161
 -1         3    9    0    1
 -2       161       183       184       162
 -1         4    9    0    1
 -2       162       184       185       163
 -1         5    9    0    1
 -2       163       185       186       164
 -1         6    9    0    1
 -2       164       186       187       165
 -1         7    9    0    1
 -2       165       187       188       166
 -1         8    9    0    1
 -2       166       188       189       167
 -1         9    9    0    1
 -2       167       189       190       168
 -1        10    9    0    1
 -2       168       190       191       169
 -1        11    9    0    1
 -2       169       191       192       170
 -1        12    9    0    1
 -2       170       192       193       171
 -1        13    9    0    1
 -2       171       193       194       172
 -1        14    9    0    1
 -2       172       194       195       173
 -1        15    9    0    1
 -2       173       195       196       174
 -1        16    9    0    1
 -2       174       196       197       175
 -1        17    9    0    1
 -2       175       197       198       176
 -1        18    9    0    1
 -2       176       198       199       177
 -1        19    9    0    1
 -2       177       199       200       178
 -1        20    9    0    1
 -2       178       200       201       179
 -1        21    9    0    1
 -2       179       201       202       180
 -1        22    9    0    1
 -2       180       202       203       181
 -1        23    7    0    1
 -2       181       203         7
 -1        24    9    0    1
 -2       111       112       204       182
 -1        25    9    0    1
 -2       182       204       205       183
 -1        26    9    0    1
 -2       183       205       206       184
 -1        27    9    0    1
 -2       184       206       207       185
 -1        28    9    0    1
 -2       185       207       208       186
 -1        29    9    0    1
 -2       186       208       209       187
 -1        30    9    0    1
 -2       187       209       210       188
 -1        31    9    0    1
 -2       188       210       211       189
 -1        32    9    0    1
 -2       189       211       212       190
 -1        33    9    0    1
 -2       190       212       213       191
 -1        34    9    0    1
 -2       191       213       214       192
 -1        35    9    0    1
 -2       192       214       215       193
 -1        36    9    0    1
 -2       193       215       216       194
 -1        37    9    0    1
 -2       194       216       217       195
 -1        38    9    0    1
 -2       195       217       218       196
 -1        39    9    0    1
 -2       196       218       219       197
 -1        40    9    0    1
 -2       197       219       220       198
 -1        41    9    0    1
 -2       198       220       221       199
 -1        42    9    0    1
 -2       199       221       222       200
 -1        43    9    0    1
 -2       200       222       223       201
 -1        44    9    0    1
 -2       201       223       224       202
 -1        45    9    0    1
 -2       202       224       225       203
 -1        46    7    0    1
 -2       203       225         7
 -1        47    9    0    1
 -2       112       113       226       204
 -1        48    9    0    1
 -2       204       226       227       205
 -1        49    9    0    1
 -2       205       227       228       206
 -1        50    9    0    1
 -2       206       228       229       207
 -1        51    9    0    1
 -2       207       229       230       208
 -1        52    9    0    1
 -2       208       230       231       209
 -1        53    9    0    1
 -2       209       231       232       210
 -1        54    9    0    1
 -2       210       232       233       211
 -1        55    9    0    1
 -2       211       233       234       212
 -1        56    9    0    1
 -2       212       234       235       213
 -1        57    9    0    1
 -2       213       235       236       214
 -1        58    9    0    1
 -2       214       236       237       215
 -1        59    9    0    1
 -2       215       237       238       216
 -1        60    9    0    1
 -2       216       238       239       217
 -1        61    9    0    1
 -2       217       239       240       218
 -1        62    9    0    1
 -2       218       240       241       219
 -1        63    9    0    1
 -2       219       241       242       220
 -1        64    9    0    1
 -2       220       242       243       221
 -1        65    9    0    1
 -2       221       243       244       222
 -1        66    9    0    1
 -2       222       244       245       223
 -1        67    9    0    1
 -2       223       245       246       224
 -1        68    9    0    1
 -2       224       246       247       225
 -1        69    7    0    1
 -2       225       247         7
 -1        70    9    0    1
 -2       113       114       248       226
 -1        71    9    0    1
 -2       226       248       249       227
 -1        72    9    0    1
 -2       227       249       250       228
 -1        73    9    0    1
 -2       228       250       251       229
 -1        74    9    0    1
 -2       229       251       252       230
 -1        75    9    0    1
 -2       230       252       253       231
 -1        76    9    0    1
 -2       231       253       254       232
 -1        77    9    0    1
 -2       232       254       255       233
 -1        78    9    0    1
 -2       233       255       256       234
 -1        79    9    0    1
 -2       234       256       257       235
 -1        80    9    0    1
 -2       235       257       258       236
 -1        81    9    0    1
 -2       236       258       259       237
 -1        82    9    0    1
 -2       237       259       260       238
 -1        83    9    0    1
 -2       238       260       261       239
 -1        84    9    0    1
 -2       239       261       262       240
 -1        85    9    0    1
 -2       240       262       263       241
 -1        86    9    0    1
 -2       241       263       264       242
 -1        87    9    0    1
 -2       242       264       265       243
 -1        88    9    0    1
 -2       243       265       266       244
 -1        89    9    0    1
 -2       244       266       267       245
 -1        90    9    0    1
 -2       245       267       268       246
 -1        91    9    0    1
 -2       246       268       269       247
 -1        92    7    0    1
 -2       247       269         7
 -1        93    9    0    1
 -2       114       115       270       248
 -1        94    9    0    1
 -2       248       270       271       249
 -1        95    9    0    1
 -2       249       271       272       250
 -1        96    9    0    1
 -2       250       272       273       251
 -1        97    9    0    1
 -2       251       273       274       252
 -1        98    9    0    1
 -2       252       274       275       253
 -1        99    9    0    1
 -2       253       275       276       254
 -1       100    9    0    1
 -2       254       276       277       255
 -1       101    9    0    1
 -2       255       277       278       256
 -1       102    9    0    1
 -2       256       278       279       257
 -1       103    9    0    1
 -2       257       279       280       258
 -1       104    9    0    1
 -2       258       280       281       259
 -1       105    9    0    1
 -2       259       281       282       260
 -1       106    9    0    1
 -2       260       282       283       261
 -1       107    9    0    1
 -2       261       283       284       262
 -1       108    9    0    1
 -2       262       284       285       263
 -1       109    9    0    1
 -2       263       285       286       264
 -1       110    9    0    1
 -2       264       286       287       265
 -1       111    9    0    1
 -2       265       287       288       266
 -1       112    9    0    1
 -2       266       288       289       267
 -1       113    9    0    1
 -2       267       289       290       268
 -1       114    9    0    1
 -2       268       290       291       269
 -1       115    7    0    1
 -2       269       291         7
 -1       116    9    0    1
 -2       115       116       292       270
 -1       117    9    0    1
 -2       270       292       293       271
 -1       118    9    0    1
 -2       271       293       294       272
 -1       119    9    0    1
 -2       272       294       295       273
 -1       120    9    0    1
 -2       273       295       296       274
 -1       121    9    0    1
 -2       274       296       297       275
 -1       122    9    0    1
 -2       275       297       298       276
 -1       123    9    0    1
 -2       276       298       299       277
 -1       124    9    0    1
 -2       277       299       300       278
 -1       125    9    0    1
 -2       278       300       301       279
 -1       126    9    0    1
 -2       279       301       302       280
 -1       127    9    0    1
 -2       280       302       303       281
 -1       128    9    0    1
 -2       281       303       304       282
 -1       129    9    0    1
 -2       282       304       305       283
 -1       130    9    0    1
 -2       283       305       306       284
 -1       131    9    0    1
 -2       284       306       307       285
 -1       132    9    0    1
 -2       285       307       308       286
 -1       133    9    0    1
 -2       286       308       309       287
 -1       134    9    0    1
 -2       287       309       310       288
 -1       135    9    0    1
 -2       288       310       311       289
 -1       136    9    0    1
 -2       289       311       312       290
 -1       137    9    0    1
 -2       290       312       313       291
 -1       138    7    0    1
 -2       291       313         7
 -1       139    9    0    1
 -2       116       117       314       292
 -1       140    9    0    1
 -2       292       314       315       293
 -1       141    9    0    1
 -2       293       315       316       294
 -1       142    9    0    1
 -2       294       316       317       295
 -1       143    9    0    1
 -2       295       317       318       296
 -1       144    9    0    1
 -2       296       318       319       297
 -1       145    9    0    1
 -2       297       319       320       298
 -1       146    9    0    1
 -2       298       320       321       299
 -1       147    9    0    1
 -2       299       321       322       300
 -1       148    9    0    1
 -2       300       322       323       301
 -1       149    9    0    1
 -2       301       323       324       302
 -1       150    9    0    1
 -2       302       324       325       303
 -1       151    9    0    1
 -2       303       325       326       304
 -1       152    9    0    1
 -2       304       326       327       305
 -1       153    9    0    1
 -2       305       327       328       306
 -1       154    9    0    1
 -2       306       328       329       307
 -1       155    9    0    1
 -2       307       329       330       308
 -1       156    9    0    1
 -2       308       330       331       309
 -1       157    9    0    1
 -2       309       331       332       310
 -1       158    9    0    1
 -2       310       332       333       311
 -1       159    9    0    1
 -2       311       333       334       312
 -1       160    9    0    1
 -2       312       334       335       313
 -1       161    7    0    1
 -2       313       335         7
 -1       162    9    0    1
 -2       117       118       336       314
 -1       163    9    0    1
 -2       314       336       337       315
 -1       164    9    0    1
 -2       315       337       338       316
 -1       165    9    0    1
 -2       316       338       339       317
 -1       166    9    0    1
 -2       317       339       340       318
 -1       167    9    0    1
 -2       318       340       341       319
 -1       168    9    0    1
 -2       319       341       342       320
 -1       169    9    0    1
 -2       320       342       343       321
 -1       170    9    0    1
 -2       321       343       344       322
 -1       171    9    0    1
 -2       322       344       345       323
 -1       172    9    0    1
 -2       323       345       346       324
 -1       173    9    0    1
 -2       324       346       347       325
 -1       174    9    0    1
 -2       325       347       348       326
 -1       175    9    0    1
 -2       326       348       349       327
 -1       176    9    0    1
 -2       327       349       350       328
 -1       177    9    0    1
 -2       328       350       351       329
 -1       178    9    0    1
 -2       329       351       352       330
 -1       179    9    0    1
 -2       330       352       353       331
 -1       180    9    0    1
 -2       331       353       354       332
 -1       181    9    0    1
 -2       332       354       355       333
 -1       182    9    0    1
 -2       333       355       356       334
 -1       183    9    0    1
 -2       334       356       357       335
 -1       184    7    0    1
 -2       335       357         7
 -1       185    9    0    1
 -2       118       119       358       336
 -1       186    9    0    1
 -2       336       358       359       337
 -1       187    9    0    1
 -2       337       359       360       338
 -1       188    9    0    1
 -2       338       360       361       339
 -1       189    9    0    1
 -2       339       361       362       340
 -1       190    9    0    1
 -2       340       362       363       341
 -1       191    9    0    1
 -2       341       363       364       342
 -1       192    9    0    1
 -2       342       364       365       343
 -1       193    9    0    1
 -2       343       365       366       344
 -1       194    9    0    1
 -2       344       366       367       345
 -1       195    9    0    1
 -2       345       367       368       346
 -1       196    9    0    1
 -2       346       368       369       347
 -1       197    9    0    1
 -2       347       369       370       348
 -1       198    9    0    1
 -2       348       370       371       349
 -1       199    9    0    1
 -2       349       371       372       350
 -1       200    9    0    1
 -2       350       372       373       351
 -1       201    9    0    1
 -2       351       373       374       352
 -1       202    9    0    1
 -2       352       374       375       353
 -1       203    9    0    1
 -2       353       375       376       354
 -1       204    9    0    1
 -2       354       376       377       355
 -1       205    9    0    1
 -2       355       377       378       356
 -1       206    9    0    1
 -2       356       378       379       357
 -1       207    7    0    1
 -2       357       379         7
 -1       208    9    0    1
 -2       119       120       380       358
 -1       209    9    0    1
 -2       358       380       381       359
 -1       210    9    0    1
 -2       359       381       382       360
 -1       211    9    0    1
 -2       360       382       383       361
 -1       212    9    0    1
 -2       361       383       384       362
 -1       213    9    0    1
 -2       362       384       385       363
 -1       214    9    0    1
 -2       363       385       386       364
 -1       215    9    0    1
 -2       364       386       387       365
 -1       216    9    0    1
 -2       365       387       388       366
 -1       217    9    0    1
 -2       366       388       389       367
 -1       218    9    0    1
 -2       367       389       390       368
 -1       219    9    0    1
 -2       368       390       391       369
 -1       220    9    0    1
 -2       369       391       392       370
 -1       221    9    0    1
 -2       370       392       393       371
 -1       222    9    0    1
 -2       371       393       394       372
 -1       223    9    0    1
 -2       372       394       395       373
 -1       224    9    0    1
 -2       373       395       396       374
 -1       225    9    0    1
 -2       374       396       397       375
 -1       226    9    0    1
 -2       375       397       398       376
 -1       227    9    0    1
 -2       376       398       399       377
 -1       228    9    0    1
 -2       377       399       400       378
 -1       229    9    0    1
 -2       378       400       401       379
 -1       230    7    0    1
 -2       379       401         7
 -1       231    9    0    1
 -2       120       121       402       380
 -1       232    9    0    1
 -2       380       402       403       381
 -1       233    9    0    1
 -2       381       403       404       382
 -1       234    9    0    1
 -2       382       404       405       383
 -1       235    9    0    1
 -2       383       405       406       384
 -1       236    9    0    1
 -2       384       406       407       385
 -1       237    9    0    1
 -2       385       407       408       386
 -1       238    9    0    1
 -2       386       408       409       387
 -1       239    9    0    1
 -2       387       409       410       388
 -1       240    9    0    1
 -2       388       410       411       389
 -1       241    9    0    1
 -2       389       411       412       390
 -1       242    9    0    1
 -2       390       412       413       391
 -1       243    9    0    1
 -2       391       413       414       392
 -1       244    9    0    1
 -2       392       414       415       393
 -1       245    9    0    1
 -2       393       415       416       394
 -1       246    9    0    1
 -2       394       416       417       395
 -1       247    9    0    1
 -2       395       417       418       396
 -1       248    9    0    1
 -2       396       418       419       397
 -1       249    9    0    1
 -2       397       419       420       398
 -1       250    9    0    1
 -2       398       420       421       399
 -1       251    9    0    1
 -2       399       421       422       400
 -1       252    9    0    1
 -2       400       422       423       401
 -1       253    7    0    1
 -2       401       423         7
 -1       254    9    0    1
 -2       121       122       424       402
 -1       255    9    0    1
 -2       402       424       425       403
 -1       256    9    0    1
 -2       403       425       426       404
 -1       257    9    0    1
 -2       404       426       427       405
 -1       258    9    0    1
 -2       405       427       428       406
 -1       259    9    0    1
 -2       406       428       429       407
 -1       260    9    0    1
 -2       407       429       430       408
 -1       261    9    0    1
 -2       408       430       431       409
 -1       262    9    0    1
 -2       409       431       432       410
 -1       263    9    0    1
 -2       410       432       433       411
 -1       264    9    0    1
 -2       411       433       434       412
 -1       265    9    0    1
 -2       412       434       435       413
 -1       266    9    0    1
 -2       413       435       436       414
 -1       267    9    0    1
 -2       414       436       437       415
 -1       268    9    0    1
 -2       415       437       438       416
 -1       269    9    0    1
 -2       416       438       439       417
 -1       270    9    0    1
 -2       417       439       440       418
 -1       271    9    0    1
 -2       418       440       441       419
 -1       272    9    0    1
 -2       419       441       442       420
 -1       273    9    0    1
 -2       420       442       443       421
 -1       274    9    0    1
 -2       421       443       444       422
 -1       275    9    0    1
 -2       422       444       445       423
 -1       276    7    0    1
 -2       423       445         7
 -1       277    9    0    1
 -2       122       123       446       424
 -1       278    9    0    1
 -2       424       446       447       425
 -1       279    9    0    1
 -2       425       447       448       426
 -1       280    9    0    1
 -2       426       448       449       427
 -1       281    9    0    1
 -2       427       449       450       428
 -1       282    9    0    1
 -2       428       450       451       429
 -1       283    9    0    1
 -2       429       451       452       430
 -1       284    9    0    1
 -2       430       452       453       431
 -1       285    9    0    1
 -2       431       453       454       432
 -1       286    9    0    1
 -2       432       454       455       433
 -1       287    9    0    1
 -2       433       455       456       434
 -1       288    9    0    1
 -2       434       456       457       435
 -1       289    9    0    1
 -2       435       457       458       436
 -1       290    9    0    1
 -2       436       458       459       437
 -1       291    9    0    1
 -2       437       459       460       438
 -1       292    9    0    1
 -2       438       460       461       439
 -1       293    9    0    1
 -2       439       461       462       440
 -1       294    9    0    1
 -2       440       462       463       441
 -1       295    9    0    1
 -2       441       463       464       442
 -1       296    9    0    1
 -2       442       464       465       443
 -1       297    9    0    1
 -2       443       465       466       444
 -1       298    9    0    1
 -2       444       466       467       445
 -1       299    7    0    1
 -2       445       467         7
 -1       300    9    0    1
 -2       123       124       468       446
 -1       301    9    0    1
 -2       446       468       469       447
 -1       302    9    0    1
 -2       447       469       470       448
 -1       303    9    0    1
 -2       448       470       471       449
 -1       304    9    0    1
 -2       449       471       472       450
 -1       305    9    0    1
 -2       450       472       473       451
 -1       306    9    0    1
 -2       451       473       474       452
 -1       307    9    0    1
 -2       452       474       475       453
 -1       308    9    0    1
 -2       453       475       476       454
 -1       309    9    0    1
 -2       454       476       477       455
 -1       310    9    0    1
 -2       455       477       478       456
 -1       311    9    0    1
 -2       456       478       479       457
 -1       312    9    0    1
 -2       457       479       480       458
 -1       313    9    0    1
 -2       458       480       481       459
 -1       314    9    0    1
 -2       459       481       482       460
 -1       315    9    0    1
 -2       460       482       483       461
 -1       316    9    0    1
 -2       461       483       484       462
 -1       317    9    0    1
 -2       462       484       485       463
 -1       318    9    0    1
 -2       463       485       486       464
 -1       319    9    0    1
 -2       464       486       487       465
 -1       320    9    0    1
 -2       465       487       488       466
 -1       321    9    0    1
 -2       466       488       489       467
 -1       322    7    0    1
 -2       467       489         7
 -1       323    9    0    1
 -2       124       125       490       468
 -1       324    9    0    1
 -2       468       490       491       469
 -1       325    9    0    1
 -2       469       491       492       470
 -1       326    9    0    1
 -2       470       492       493       471
 -1       327    9    0    1
 -2       471       493       494       472
 -1       328    9    0    1
 -2       472       494       495       473
 -1       329    9    0    1
 -2       473       495       496       474
 -1       330    9    0    1
 -2       474       496       497       475
 -1       331    9    0    1
 -2       475       497       498       476
 -1       332    9    0    1
 -2       476       498       499       477
 -1       333    9    0    1
 -2       477       499       500       478
 -1       334    9    0    1
 -2       478       500       501       479
 -1       335    9    0    1
 -2       479       501       502       480
 -1       336    9    0    1
 -2       480       502       503       481
 -1       337    9    0    1
 -2       481       503       504       482
 -1       338    9    0    1
 -2       482       504       505       483
 -1       339    9    0    1
 -2       483       505       506       484
 -1       340    9    0    1
 -2       484       506       507       485
 -1       341    9    0    1
 -2       485       507       508       486
 -1       342    9    0    1
 -2       486       508       509       487
 -1       343    9    0    1
 -2       487       509       510       488
 -1       344    9    0    1
 -2       488       510       511       489
 -1       345    7    0    1
 -2       489       511         7
 -1       346    9    0    1
 -2       125       126       512       490
 -1       347    9    0    1
 -2       490       512       513       491
 -1       348    9    0    1
 -2       491       513       514       492
 -1       349    9    0    1
 -2       492       514       515       493
 -1       350    9    0    1
 -2       493       515       516       494
 -1       351    9    0    1
 -2       494       516       517       495
 -1       352    9    0    1
 -2       495       517       518       496
 -1       353    9    0    1
 -2       496       518       519       497
 -1       354    9    0    1
 -2       497       519       520       498
 -1       355    9    0    1
 -2       498       520       521       499
 -1       356    9    0    1
 -2       499       521       522       500
 -1       357    9    0    1
 -2       500       522       523       501
 -1       358    9    0    1
 -2       501       523       524       502
 -1       359    9    0    1
 -2       502       524       525       503
 -1       360    9    0    1
 -2       503       525       526       504
 -1       361    9    0    1
 -2       504       526       527       505
 -1       362    9    0    1
 -2       505       527       528       506
 -1       363    9    0    1
 -2       506       528       529       507
 -1       364    9    0    1
 -2       507       529       530       508
 -1       365    9    0    1
 -2       508       530       531       509
 -1       366    9    0    1
 -2       509       531       532       510
 -1       367    9    0    1
 -2       510       532       533       511
 -1       368    7    0    1
 -2       511       533         7
 -1       369    9    0    1
 -2       126       127       534       512
 -1       370    9    0    1
 -2       512       534       535       513
 -1       371    9    0    1
 -2       513       535       536       514
 -1       372    9    0    1
 -2       514       536       537       515
 -1       373    9    0    1
 -2       515       537       538       516
 -1       374    9    0    1
 -2       516       538       539       517
 -1       375    9    0    1
 -2       517       539       540       518
 -1       376    9    0    1
 -2       518       540       541       519
 -1       377    9    0    1
 -2       519       541       542       520
 -1       378    9    0    1
 -2       520       542       543       521
 -1       379    9    0    1
 -2       521       543       544       522
 -1       380    9    0    1
 -2       522       544       545       523
 -1       381    9    0    1
 -2       523       545       546       524
 -1       382    9    0    1
 -2       524       546       547       525
 -1       383    9    0    1
 -2       525       547       548       526
 -1       384    9    0    1
 -2       526       548       549       527
 -1       385    9    0    1
 -2       527       549       550       528
 -1       386    9    0    1
 -2       528       550       551       529
 -1       387    9    0    1
 -2       529       551       552       530
 -1       388    9    0    1
 -2       530       552       553       531
 -1       389    9    0    1
 -2       531       553       554       532
 -1       390    9    0    1
 -2       532       554       555       533
 -1       391    7    0    1
 -2       533       555         7
 -1       392    9    0    1
 -2       127       128       556       534
 -1       393    9    0    1
 -2       534       556       557       535
 -1       394    9    0    1
 -2       535       557       558       536
 -1       395    9    0    1
 -2       536       558       559       537
 -1       396    9    0    1
 -2       537       559       560       538
 -1       397    9    0    1
 -2       538       560       561       539
 -1       398    9    0    1
 -2       539       561       562       540
 -1       399    9    0    1
 -2       540       562       563       541
 -1       400    9    0    1
 -2       541       563       564       542
 -1       401    9    0    1
 -2       542       564       565       543
 -1       402    9    0    1
 -2       543       565       566       544
 -1       403    9    0    1
 -2       544       566       567       545
 -1       404    9    0    1
 -2       545       567       568       546
 -1       405    9    0    1
 -2       546       568       569       547
 -1       406    9    0    1
 -2       547       569       570       548
 -1       407    9    0    1
 -2       548       570       571       549
 -1       408    9    0    1
 -2       549       571       572       550
 -1       409    9    0    1
 -2       550       572       573       551
 -1       410    9    0    1
 -2       551       573       574       552
 -1       411    9    0    1
 -2       552       574       575       553
 -1       412    9    0    1
 -2       553       575       576       554
 -1       413    9    0    1
 -2       554       576       577       555
 -1       414    7    0    1
 -2       555       577         7
 -1       415    9    0    1
 -2       128       129       578       556
 -1       416    9    0    1
 -2       556       578       579       557
 -1       417    9    0    1
 -2       557       579       580       558
 -1       418    9    0    1
 -2       558       580       581       559
 -1       419    9    0    1
 -2       559       581       582       560
 -1       420    9    0    1
 -2       560       582       583       561
 -1       421    9    0    1
 -2       561       583       584       562
 -1       422    9    0    1
 -2       562       584       585       563
 -1       423    9    0    1
 -2       563       585       586       564
 -1       424    9    0    1
 -2       564       586       587       565
 -1       425    9    0    1
 -2       565       587       588       566
 -1       426    9    0    1
 -2       566       588       589       567
 -1       427    9    0    1
 -2       567       589       590       568
 -1       428    9    0    1
 -2       568       590       591       569
 -1       429    9    0    1
 -2       569       591       592       570
 -1       430    9    0    1
 -2       570       592       593       571
 -1       431    9    0    1
 -2       571       593       594       572
 -1       432    9    0    1
 -2       572       594       595       573
 -1       433    9    0    1
 -2       573       595       596       574
 -1       434    9    0    1
 -2       574       596       597       575
 -1       435    9    0    1
 -2       575       597       598       576
 -1       436    9    0    1
 -2       576       598       599       577
 -1       437    7    0    1
 -2       577       599         7
 -1       438    9    0    1
 -2       129       130       600       578
 -1       439    9    0    1
 -2       578       600       601       579
 -1       440    9    0    1
 -2       579       601       602       580
 -1       441    9    0    1
 -2       580       602       603       581
 -1       442    9    0    1
 -2       581       603       604       582
 -1       443    9    0    1
 -2       582       604       605       583
 -1       444    9    0    1
 -2       583       605       606       584
 -1       445    9    0    1
 -2       584       606       607       585
 -1       446    9    0    1
 -2       585       607       608       586
 -1       447    9    0    1
 -2       586       608       609       587
 -1       448    9    0    1
 -2       587       609       610       588
 -1       449    9    0    1
 -2       588       610       611       589
 -1       450    9    0    1
 -2       589       611       612       590
 -1       451    9    0    1
 -2       590       612       613       591
 -1       452    9    0    1
 -2       591       613       614       592
 -1       453    9    0    1
 -2       592       614       615       593
 -1       454    9    0    1
 -2       593       615       616       594
 -1       455    9    0    1
 -2       594       616       617       595
 -1       456    9    0    1
 -2       595       617       618       596
 -1       457    9    0    1
 -2       596       618       619       597
 -1       458    9    0    1
 -2       597       619       620       598
 -1       459    9    0    1
 -2       598       620       621       599
 -1       460    7    0    1
 -2       599       621         7
 -1       461    9    0    1
 -2       130       131       622       600
 -1       462    9    0    1
 -2       600       622       623       601
 -1       463    9    0    1
 -2       601       623       624       602
 -1       464    9    0    1
 -2       602       624       625       603
 -1       465    9    0    1
 -2       603       625       626       604
 -1       466    9    0    1
 -2       604       626       627       605
 -1       467    9    0    1
 -2       605       627       628       606
 -1       468    9    0    1
 -2       606       628       629       607
 -1       469    9    0    1
 -2       607       629       630       608
 -1       470    9    0    1
 -2       608       630       631       609
 -1       471    9    0    1
 -2       609       631       632       610
 -1       472    9    0    1
 -2       610       632       633       611
 -1       473    9    0    1
 -2       611       633       634       612
 -1       474    9    0    1
 -2       612       634       635       613
 -1       475    9    0    1
 -2       613       635       636       614
 -1       476    9    0    1
 -2       614       636       637       615
 -1       477    9    0    1
 -2       615       637       638       616
 -1       478    9    0    1
 -2       616       638       639       617
 -1       479    9    0    1
 -2       617       639       640       618
 -1       480    9    0    1
 -2       618       640       641       619
 -1       481    9    0    1
 -2       619       641       642       620
 -1       482    9    0    1
 -2       620       642       643       621
 -1       483    7    0    1
 -2       621       643         7
 -1       484    9    0    1
 -2       131       132       644       622
 -1       485    9    0    1
 -2       622       644       645       623
 -1       486    9    0    1
 -2       623       645       646       624
 -1       487    9    0    1
 -2       624       646       647       625
 -1       488    9    0    1
 -2       625       647       648       626
 -1       489    9    0    1
 -2       626       648       649       627
 -1       490    9    0    1
 -2       627       649       650       628
 -1       491    9    0    1
 -2       628       650       651       629
 -1       492    9    0    1
 -2       629       651       652       630
 -1       493    9    0    1
 -2       630       652       653       631
 -1       494    9    0    1
 -2       631       653       654       632
 -1       495    9    0    1
 -2       632       654       655       633
 -1       496    9    0    1
 -2       633       655       656       634
 -1       497    9    0    1
 -2       634       656       657       635
 -1       498    9    0    1
 -2       635       657       658       636
 -1       499    9    0    1
 -2       636       658       659       637
 -1       500    9    0    1
 -2       637       659       660       638
 -1       501    9    0    1
 -2       638       660       661       639
 -1       502    9    0    1
 -2       639       661       662       640
 -1       503    9    0    1
 -2       640       662       663       641
 -1       504    9    0    1
 -2       641       663       664       642
 -1       505    9    0    1
 -2       642       664       665       643
 -1       506    7    0    1
 -2       643       665         7
 -1       507    9    0    1
 -2       132       133       666       644
 -1       508    9    0    1
 -2       644       666       667       645
 -1       509    9    0    1
 -2       645       667       668       646
 -1       510    9    0    1
 -2       646       668       669       647
 -1       511    9    0    1
 -2       647       669       670       648
 -1       512    9    0    1
 -2       648       670       671       649
 -1       513    9    0    1
 -2       649       671       672       650
 -1       514    9    0    1
 -2       650       672       673       651
 -1       515    9    0    1
 -2       651       673       674       652
 -1       516    9    0    1
 -2       652       674       675       653
 -1       517    9    0    1
 -2       653       675       676       654
 -1       518    9    0    1
 -2       654       676       677       655
 -1       519    9    0    1
 -2       655       677       678       656
 -1       520    9    0    1
 -2       656       678       679       657
 -1       521    9    0    1
 -2       657       679       680       658
 -1       522    9    0    1
 -2       658       680       681       659
 -1       523    9    0    1
 -2       659       681       682       660
 -1       524    9    0    1
 -2       660       682       683       661
 -1       525    9    0    1
 -2       661       683       684       662
 -1       526    9    0    1
 -2       662       684       685       663
 -1       527    9    0    1
 -2       663       685       686       664
 -1       528    9    0    1
 -2       664       686       687       665
 -1       529    7    0    1
 -2       665       687         7
 -1       530    9    0    1
 -2       133       134       688       666
 -1       531    9    0    1
 -2       666       688       689       667
 -1       532    9    0    1
 -2       667       689       690       668
 -1       533    9    0    1
 -2       668       690       691       669
 -1       534    9    0    1
 -2       669       691       692       670
 -1       535    9    0    1
 -2       670       692       693       671
 -1       536    9    0    1
 -2       671       693       694       672
 -1       537    9    0    1
 -2       672       694       695       673
 -1       538    9    0    1
 -2       673       695       696       674
 -1       539    9    0    1
 -2       674       696       697       675
 -1       540    9    0    1
 -2       675       697       698       676
 -1       541    9    0    1
 -2       676       698       699       677
 -1       542    9    0    1
 -2       677       699       700       678
 -1       543    9    0    1
 -2       678       700       701       679
 -1       544    9    0    1
 -2       679       701       702       680
 -1       545    9    0    1
 -2       680       702       703       681
 -1       546    9    0    1
 -2       681       703       704       682
 -1       547    9    0    1
 -2       682       704       705       683
 -1       548    9    0    1
 -2       683       705       706       684
 -1       549    9    0    1
 -2       684       706       707       685
 -1       550    9    0    1
 -2       685       707       708       686
 -1       551    9    0    1
 -2       686       708       709       687
 -1       552    7    0    1
 -2       687       709         7
 -1       553    9    0    1
 -2       134       135       710       688
 -1       554    9    0    1
 -2       688       710       711       689
 -1       555    9    0    1
 -2       689       711       712       690
 -1       556    9    0    1
 -2       690       712       713       691
 -1       557    9    0    1
 -2       691       713       714       692
 -1       558    9    0    1
 -2       692       714       715       693
 -1       559    9    0    1
 -2       693       715       716       694
 -1       560    9    0    1
 -2       694       716       717       695
 -1       561    9    0    1
 -2       695       717       718       696
 -1       562    9    0    1
 -2       696       718       719       697
 -1       563    9    0    1
 -2       697       719       720       698
 -1       564    9    0    1
 -2       698       720       721       699
 -1       565    9    0    1
 -2       699       721       722       700
 -1       566    9    0    1
 -2       700       722       723       701
 -1       567    9    0    1
 -2       701       723       724       702
 -1       568    9    0    1
 -2       702       724       725       703
 -1       569    9    0    1
 -2       703       725       726       704
 -1       570    9    0    1
 -2       704       726       727       705
 -1       571    9    0    1
 -2       705       727       728       706
 -1       572    9    0    1
 -2       706       728       729       707
 -1       573    9    0    1
 -2       707       729       730       708
 -1       574    9    0    1
 -2       708       730       731       709
 -1       575    7    0    1
 -2       709       731         7
 -1       576    9    0    1
 -2       135       136       732       710
 -1       577    9    0    1
 -2       710       732       733       711
 -1       578    9    0    1
 -2       711       733       734       712
 -1       579    9    0    1
 -2       712       734       735       713
 -1       580    9    0    1
 -2       713       735       736       714
 -1       581    9    0    1
 -2       714       736       737       715
 -1       582    9    0    1
 -2       715       737       738       716
 -1       583    9    0    1
 -2       716       738       739       717
 -1       584    9    0    1
 -2       717       739       740       718
 -1       585    9    0    1
 -2       718       740       741       719
 -1       586    9    0    1
 -2       719       741       742       720
 -1       587    9    0    1
 -2       720       742       743       721
 -1       588    9    0    1
 -2       721       743       744       722
 -1       589    9    0    1
 -2       722       744       745       723
 -1       590    9    0    1
 -2       723       745       746       724
 -1       591    9    0    1
 -2       724       746       747       725
 -1       592    9    0    1
 -2       725       747       748       726
 -1       593    9    0    1
 -2       726       748       749       727
 -1       594    9    0    1
 -2       727       749       750       728
 -1       595    9    0    1
 -2       728       750       751       729
 -1       596    9    0    1
 -2       729       751       752       730
 -1       597    9    0    1
 -2       730       752       753       731
 -1       598    7    0    1
 -2       731       753         7
 -1       599    9    0    1
 -2       136       137       754       732
 -1       600    9    0    1
 -2       732       754       755       733
 -1       601    9    0    1
 -2       733       755       756       734
 -1       602    9    0    1
 -2       734       756       757       735
 -1       603    9    0    1
 -2       735       757       758       736
 -1       604    9    0    1
 -2       736       758       759       737
 -1       605    9    0    1
 -2       737       759       760       738
 -1       606    9    0    1
 -2       738       760       761       739
 -1       607    9    0    1
 -2       739       761       762       740
 -1       608    9    0    1
 -2       740       762       763       741
 -1       609    9    0    1
 -2       741       763       764       742
 -1       610    9    0    1
 -2       742       764       765       743
 -1       611    9    0    1
 -2       743       765       766       744
 -1       612    9    0    1
 -2       744       766       767       745
 -1       613    9    0    1
 -2       745       767       768       746
 -1       614    9    0    1
 -2       746       768       769       747
 -1       615    9    0    1
 -2       747       769       770       748
 -1       616    9    0    1
 -2       748       770       771       749
 -1       617    9    0    1
 -2       749       771       772       750
 -1       618    9    0    1
 -2       750       772       773       751
 -1       619    9    0    1
 -2       751       773       774       752
 -1       620    9    0    1
 -2       752       774       775       753
 -1       621    7    0    1
 -2       753       775         7
 -1       622    9    0    1
 -2       137         6       138       754
 -1       623    9    0    1
 -2       754       138       139       755
 -1       624    9    0    1
 -2       755       139       140       756
 -1       625    9    0    1
 -2       756       140       141       757
 -1       626    9    0    1
 -2       757       141       142       758
 -1       627    9    0    1
 -2       758       142       143       759
 -1       628    9    0    1
 -2       759       143       144       760
 -1       629    9    0    1
 -2       760       144       145       761
 -1       630    9    0    1
 -2       761       145       146       762
 -1       631    9    0    1
 -2       762       146       147       763
 -1       632    9    0    1
 -2       763       147       148       764
 -1       633    9    0    1
 -2       764       148       149       765
 -1       634    9    0    1
 -2       765       149       150       766
 -1       635    9    0    1
 -2       766       150       151       767
 -1       636    9    0    1
 -2       767       151       152       768
 -1       637    9    0    1
 -2       768       152       153       769
 -1       638    9    0    1
 -2       769       153       154       770
 -1       639    9    0    1
 -2       770       154       155       771
 -1       640    9    0    1
 -2       771       155       156       772
 -1       641    9    0    1
 -2       772       156       157       773
 -1       642    9    0    1
 -2       773       157       158       774
 -1       643    9    0    1
 -2       774       158       159       775
 -1       644    7    0    1
 -2       775       159         7
 -1       645    9    0    1
 -2         1         9       776       110
 -1       646    9    0    1
 -2       110       776       777       109
 -1       647    9    0    1
 -2       109       777       778       108
 -1       648    9    0    1
 -2       108       778       779       107
 -1       649    9    0    1
 -2       107       779       780       106
 -1       650    9    0    1
 -2       106       780       781       105
 -1       651    9    0    1
 -2       105       781       782       104
 -1       652    9    0    1
 -2       104       782       783       103
 -1       653    9    0    1
 -2       103       783       784       102
 -1       654    9    0    1
 -2       102       784       785       101
 -1       655    9    0    1
 -2       101       785       786       100
 -1       656    9    0    1
 -2       100       786       787        99
 -1       657    9    0    1
 -2        99       787       788        98
 -1       658    9    0    1
 -2        98       788       789        97
 -1       659    9    0    1
 -2        97       789       790        96
 -1       660    9    0    1
 -2        96       790       791        95
 -1       661    9    0    1
 -2        95       791       792        94
 -1       662    9    0    1
 -2        94       792       793        93
 -1       663    9    0    1
 -2        93       793       794        92
 -1       664    9    0    1
 -2        92       794       795        91
 -1       665    9    0    1
 -2        91       795       796        90
 -1       666    9    0    1
 -2        90       796       797        89
 -1       667    9    0    1
 -2        89       797        88         4
 -1       668    9    0    1
 -2         9        10       798       776
 -1       669    9    0    1
 -2       776       798       799       777
 -1       670    9    0    1
 -2       777       799       800       778
 -1       671    9    0    1
 -2       778       800       801       779
 -1       672    9    0    1
 -2       779       801       802       780
 -1       673    9    0    1
 -2       780       802       803       781
 -1       674    9    0    1
 -2       781       803       804       782
 -1       675    9    0    1
 -2       782       804       805       783
 -1       676    9    0    1
 -2       783       805       806       784
 -1       677    9    0    1
 -2       784       806       807       785
 -1       678    9    0    1
 -2       785       807       808       786
 -1       679    9    0    1
 -2       786       808       809       787
 -1       680    9    0    1
 -2       787       809       810       788
 -1       681    9    0    1
 -2       788       810       811       789
 -1       682    9    0    1
 -2       789       811       812       790
 -1       683    9    0    1
 -2       790       812       813       791
 -1       684    9    0    1
 -2       791       813       814       792
 -1       685    9    0    1
 -2       792       814       815       793
 -1       686    9    0    1
 -2       793       815       816       794
 -1       687    9    0    1
 -2       794       816       817       795
 -1       688    9    0    1
 -2       795       817       818       796
 -1       689    9    0    1
 -2       796       818       819       797
 -1       690    9    0    1
 -2       797       819        87        88
 -1       691    9    0    1
 -2        10        11       820       798
 -1       692    9    0    1
 -2       798       820       821       799
 -1       693    9    0    1
 -2       799       821       822       800
 -1       694    9    0    1
 -2       800       822       823       801
 -1       695    9    0    1
 -2       801       823       824       802
 -1       696    9    0    1
 -2       802       824       825       803
 -1       697    9    0    1
 -2       803       825       826       804
 -1       698    9    0    1
 -2       804       826       827       805
 -1       699    9    0    1
 -2       805       827       828       806
 -1       700    9    0    1
 -2       806       828       829       807
 -1       701    9    0    1
 -2       807       829       830       808
 -1       702    9    0    1
 -2       808       830       831       809
 -1       703    9    0    1
 -2       809       831       832       810
 -1       704    9    0    1
 -2       810       832       833       811
 -1       705    9    0    1
 -2       811       833       834       812
 -1       706    9    0    1
 -2       812       834       835       813
 -1       707    9    0    1
 -2       813       835       836       814
 -1       708    9    0    1
 -2       814       836       837       815
 -1       709    9    0    1
 -2       815       837       838       816
 -1       710    9    0    1
 -2       816       838       839       817
 -1       711    9    0    1
 -2       817       839       840       818
 -1       712    9    0    1
 -2       818       840       841       819
 -1       713    9    0    1
 -2       819       841        86        87
 -1       714    9    0    1
 -2        11        12       842       820
 -1       715    9    0    1
 -2       820       842       843       821
 -1       716    9    0    1
 -2       821       843       844       822
 -1       717    9    0    1
 -2       822       844       845       823
 -1       718    9    0    1
 -2       823       845       846       824
 -1       719    9    0    1
 -2       824       846       847       825
 -1       720    9    0    1
 -2       825       847       848       826
 -1       721    9    0    1
 -2       826       848       849       827
 -1       722    9    0    1
 -2       827       849       850       828
 -1       723    9    0    1
 -2       828       850       851       829
 -1       724    9    0    1
 -2       829       851       852       830
 -1       725    9    0    1
 -2       830       852       853       831
 -1       726    9    0    1
 -2       831       853       854       832
 -1       727    9    0    1
 -2       832       854       855       833
 -1       728    9    0    1
 -2       833       855       856       834
 -1       729    9    0    1
 -2       834       856       857       835
 -1       730    9    0    1
 -2       835       857       858       836
 -1       731    9    0    1
 -2       836       858       859       837
 -1       732    9    0    1
 -2       837       859       860       838
 -1       733    9    0    1
 -2       838       860       861       839
 -1       734    9    0    1
 -2       839       861       862       840
 -1       735    9    0    1
 -2       840       862       863       841
 -1       736    9    0    1
 -2       841       863        85        86
 -1       737    9    0    1
 -2        12        13       864       842
 -1       738    9    0    1
 -2       842       864       865       843
 -1       739    9    0    1
 -2       843       865       866       844
 -1       740    9    0    1
 -2       844       866       867       845
 -1       741    9    0    1
 -2       845       867       868       846
 -1       742    9    0    1
 -2       846       868       869       847
 -1       743    9    0    1
 -2       847       869       870       848
 -1       744    9    0    1
 -2       848       870       871       849
 -1       745    9    0    1
 -2       849       871       872       850
 -1       746    9    0    1
 -2       850       872       873       851
 -1       747    9    0    1
 -2       851       873       874       852
 -1       748    9    0    1
 -2       852       874       875       853
 -1       749    9    0    1
 -2       853       875       876       854
 -1       750    9    0    1
 -2       854       876       877       855
 -1       751    9    0    1
 -2       855       877       878       856
 -1       752    9    0    1
 -2       856       878       879       857
 -1       753    9    0    1
 -2       857       879       880       858
 -1       754    9    0    1
 -2       858       880       881       859
 -1       755    9    0    1
 -2       859       881       882       860
 -1       756    9    0    1
 -2       860       882       883       861
 -1       757    9    0    1
 -2       861       883       884       862
 -1       758    9    0    1
 -2       862       884       885       863
 -1       759    9    0    1
 -2       863       885        84        85
 -1       760    9    0    1
 -2        13        14       886       864
 -1       761    9    0    1
 -2       864       886       887       865
 -1       762    9    0    1
 -2       865       887       888       866
 -1       763    9    0    1
 -2       866       888       889       867
 -1       764    9    0    1
 -2       867       889       890       868
 -1       765    9    0    1
 -2       868       890       891       869
 -1       766    9    0    1
 -2       869       891       892       870
 -1       767    9    0    1
 -2       870       892       893       871
 -1       768    9    0    1
 -2       871       893       894       872
 -1       769    9    0    1
 -2       872       894       895       873
 -1       770    9    0    1
 -2       873       895       896       874
 -1       771    9    0    1
 -2       874       896       897       875
 -1       772    9    0    1
 -2       875       897       898       876
 -1       773    9    0    1
 -2       876       898       899       877
 -1       774    9    0    1
 -2       877       899       900       878
 -1       775    9    0    1
 -2       878       900       901       879
 -1       776    9    0    1
 -2       879       901       902       880
 -1       777    9    0    1
 -2       880       902       903       881
 -1       778    9    0    1
 -2       881       903       904       882
 -1       779    9    0    1
 -2       882       904       905       883
 -1       780    9    0    1
 -2       883       905       906       884
 -1       781    9    0    1
 -2       884       906       907       885
 -1       782    9    0    1
 -2       885       907        83        84
 -1       783    9    0    1
 -2        14        15       908       886
 -1       784    9    0    1
 -2       886       908       909       887
 -1       785    9    0    1
 -2       887       909       910       888
 -1       786    9    0    1
 -2       888       910       911       889
 -1       787    9    0    1
 -2       889       911       912       890
 -1       788    9    0    1
 -2       890       912       913       891
 -1       789    9    0    1
 -2       891       913       914       892
 -1       790    9    0    1
 -2       892       914       915       893
 -1       791    9    0    1
 -2       893       915       916       894
 -1       792    9    0    1
 -2       894       916       917       895
 -1       793    9    0    1
 -2       895       917       918       896
 -1       794    9    0    1
 -2       896       918       919       897
 -1       795    9    0    1
 -2       897       919       920       898
 -1       796    9    0    1
 -2       898       920       921       899
 -1       797    9    0    1
 -2       899       921       922       900
 -1       798    9    0    1
 -2       900       922       923       901
 -1       799    9    0    1
 -2       901       923       924       902
 -1       800    9    0    1
 -2       902       924       925       903
 -1       801    9    0    1
 -2       903       925       926       904
 -1       802    9    0    1
 -2       904       926       927       905
 -1       803    9    0    1
 -2       905       927       928       906
 -1       804    9    0    1
 -2       906       928       929       907
 -1       805    9    0    1
 -2       907       929        82        83
 -1       806    9    0    1
 -2        15        16       930       908
 -1       807    9    0    1
 -2       908       930       931       909
 -1       808    9    0    1
 -2       909       931       932       910
 -1       809    9    0    1
 -2       910       932       933       911
 -1       810    9    0    1
 -2       911       933       934       912
 -1       811    9    0    1
 -2       912       934       935       913
 -1       812    9    0    1
 -2       913       935       936       914
 -1       813    9    0    1
 -2       914       936       937       915
 -1       814    9    0    1
 -2       915       937       938       916
 -1       815    9    0    1
 -2       916       938       939       917
 -1       816    9    0    1
 -2       917       939       940       918
 -1       817    9    0    1
 -2       918       940       941       919
 -1       818    9    0    1
 -2       919       941       942       920
 -1       819    9    0    1
 -2       920       942       943       921
 -1       820    9    0    1
 -2       921       943       944       922
 -1       821    9    0    1
 -2       922       944       945       923
 -1       822    9    0    1
 -2       923       945       946       924
 -1       823    9    0    1
 -2       924       946       947       925
 -1       824    9    0    1
 -2       925       947       948       926
 -1       825    9    0    1
 -2       926       948       949       927
 -1       826    9    0    1
 -2       927       949       950       928
 -1       827    9    0    1
 -2       928       950       951       929
 -1       828    9    0    1
 -2       929       951        81        82
 -1       829    9    0    1
 -2        16        17       952       930
 -1       830    9    0    1
 -2       930       952       953       931
 -1       831    9    0    1
 -2       931       953       954       932
 -1       832    9    0    1
 -2       932       954       955       933
 -1       833    9    0    1
 -2       933       955       956       934
 -1       834    9    0    1
 -2       934       956       957       935
 -1       835    9    0    1
 -2       935       957       958       936
 -1       836    9    0    1
 -2       936       958       959       937
 -1       837    9    0    1
 -2       937       959       960       938
 -1       838    9    0    1
 -2       938       960       961       939
 -1       839    9    0    1
 -2       939       961       962       940
 -1       840    9    0    1
 -2       940       962       963       941
 -1       841    9    0    1
 -2       941       963       964       942
 -1       842    9    0    1
 -2       942       964       965       943
 -1       843    9    0    1
 -2       943       965       966       944
 -1       844    9    0    1
 -2       944       966       967       945
 -1       845    9    0    1
 -2       945       967       968       946
 -1       846    9    0    1
 -2       946       968       969       947
 -1       847    9    0    1
 -2       947       969       970       948
 -1       848    9    0    1
 -2       948       970       971       949
 -1       849    9    0    1
 -2       949       971       972       950
 -1       850    9    0    1
 -2       950       972       973       951
 -1       851    9    0    1
 -2       951       973        80        81
 -1       852    9    0    1
 -2        17        18       974       952
 -1       853    9    0    1
 -2       952       974       975       953
 -1       854    9    0    1
 -2       953       975       976       954
 -1       855    9    0    1
 -2       954       976       977       955
 -1       856    9    0    1
 -2       955       977       978       956
 -1       857    9    0    1
 -2       956       978       979       957
 -1       858    9    0    1
 -2       957       979       980       958
 -1       859    9    0    1
 -2       958       980       981       959
 -1       860    9    0    1
 -2       959       981       982       960
 -1       861    9    0    1
 -2       960       982       983       961
 -1       862    9    0    1
 -2       961       983       984       962
 -1       863    9    0    1
 -2       962       984       985       963
 -1       864    9    0    1
 -2       963       985       986       964
 -1       865    9    0    1
 -2       964       986       987       965
 -1       866    9    0    1
 -2       965       987       988       966
 -1       867    9    0    1
 -2       966       988       989       967
 -1       868    9    0    1
 -2       967       989       990       968
 -1       869    9    0    1
 -2       968       990       991       969
 -1       870    9    0    1
 -2       969       991       992       970
 -1       871    9    0    1
 -2       970       992       993       971
 -1       872    9    0    1
 -2       971       993       994       972
 -1       873    9    0    1
 -2       972       994       995       973
 -1       874    9    0    1
 -2       973       995        79        80
 -1       875    9    0    1
 -2        18        19       996       974
 -1       876    9    0    1
 -2       974       996       997       975
 -1       877    9    0    1
 -2       975       997       998       976
 -1       878    9    0    1
 -2       976       998       999       977
 -1       879    9    0    1
 -2       977       999      1000       978
 -1       880    9    0    1
 -2       978      1000      1001       979
 -1       881    9    0    1
 -2       979      1001      1002       980
 -1       882    9    0    1
 -2       980      1002      1003       981
 -1       883    9    0    1
 -2       981      1003      1004       982
 -1       884    9    0    1
 -2       982      1004      1005       983
 -1       885    9    0    1
 -2       983      1005      1006       984
 -1       886    9    0    1
 -2       984      1006      1007       985
 -1       887    9    0    1
 -2       985      1007      1008       986
 -1       888    9    0    1
 -2       986      1008      1009       987
 -1       889    9    0    1
 -2       987      1009      1010       988
 -1       890    9    0    1
 -2       988      1010      1011       989
 -1       891    9    0    1
 -2       989      1011      1012       990
 -1       892    9    0    1
 -2       990      1012      1013       991
 -1       893    9    0    1
 -2       991      1013      1014       992
 -1       894    9    0    1
 -2       992      1014      1015       993
 -1       895    9    0    1
 -2       993      1015      1016       994
 -1       896    9    0    1
 -2       994      1016      1017       995
 -1       897    9    0    1
 -2       995      1017        78        79
 -1       898    9    0    1
 -2        19        20      1018       996
 -1       899    9    0    1
 -2       996      1018      1019       997
 -1       900    9    0    1
 -2       997      1019      1020       998
 -1       901    9    0    1
 -2       998      1020      1021       999
 -1       902    9    0    1
 -2       999      1021      1022      1000
 -1       903    9    0    1
 -2      1000      1022      1023      1001
 -1       904    9    0    1
 -2      1001      1023      1024      1002
 -1       905    9    0    1
 -2      1002      1024      1025      1003
 -1       906    9    0    1
 -2      1003      1025      1026      1004
 -1       907    9    0    1
 -2      1004      1026      1027      1005
 -1       908    9    0    1
 -2      1005      1027      1028      1006
 -1       909    9    0    1
 -2      1006      1028      1029      1007
 -1       910    9    0    1
 -2      1007      1029      1030      1008
 -1       911    9    0    1
 -2      1008      1030      1031      1009
 -1       912    9    0    1
 -2      1009      1031      1032      1010
 -1       913    9    0    1
 -2      1010      1032      1033      1011
 -1       914    9    0    1
 -2      1011      1033      1034      1012
 -1       915    9    0    1
 -2      1012      1034      1035      1013
 -1       916    9    0    1
 -2      1013      1035      1036      1014
 -1       917    9    0    1
 -2      1014      1036      1037      1015
 -1       918    9    0    1
 -2      1015      1037      1038      1016
 -1       919    9    0    1
 -2      1016      1038      1039      1017
 -1       920    9    0    1
 -2      1017      1039        77        78
 -1       921    9    0    1
 -2        20        21      1040      1018
 -1       922    9    0    1
 -2      1018      1040      1041      1019
 -1       923    9    0    1
 -2      1019      1041      1042      1020
 -1       924    9    0    1
 -2      1020      1042      1043      1021
 -1       925    9    0    1
 -2      1021      1043      1044      1022
 -1       926    9    0    1
 -2      1022      1044      1045      1023
 -1       927    9    0    1
 -2      1023      1045      1046      1024
 -1       928    9    0    1
 -2      1024      1046      1047      1025
 -1       929    9    0    1
 -2      1025      1047      1048      1026
 -1       930    9    0    1
 -2      1026      1048      1049      1027
 -1       931    9    0    1
 -2      1027      1049      1050      1028
 -1       932    9    0    1
 -2      1028      1050      1051      1029
 -1       933    9    0    1
 -2      1029      1051      1052      1030
 -1       934    9    0    1
 -2      1030      1052      1053      1031
 -1       935    9    0    1
 -2      1031      1053      1054      1032
 -1       936    9    0    1
 -2      1032      1054      1055      1033
 -1       937    9    0    1
 -2      1033      1055      1056      1034
 -1       938    9    0    1
 -2      1034      1056      1057      1035
 -1       939    9    0    1
 -2      1035      1057      1058      1036
 -1       940    9    0    1
 -2      1036      1058      1059      1037
 -1       941    9    0    1
 -2      1037      1059      1060      1038
 -1       942    9    0    1
 -2      1038      1060      1061      1039
 -1       943    9    0    1
 -2      1039      1061        76        77
 -1       944    9    0    1
 -2        21        22      1062      1040
 -1       945    9    0    1
 -2      1040      1062      1063      1041
 -1       946    9    0    1
 -2      1041      1063      1064      1042
 -1       947    9    0    1
 -2      1042      1064      1065      1043
 -1       948    9    0    1
 -2      1043      1065      1066      1044
 -1       949    9    0    1
 -2      1044      1066      1067      1045
 -1       950    9    0    1
 -2      1045      1067      1068      1046
 -1       951    9    0    1
 -2      1046      1068      1069      1047
 -1       952    9    0    1
 -2      1047      1069      1070      1048
 -1       953    9    0    1
 -2      1048      1070      1071      1049
 -1       954    9    0    1
 -2      1049      1071      1072      1050
 -1       955    9    0    1
 -2      1050      1072      1073      1051
 -1       956    9    0    1
 -2      1051      1073      1074      1052
 -1       957    9    0    1
 -2      1052      1074      1075      1053
 -1       958    9    0    1
 -2      1053      1075      1076      1054
 -1       959    9    0    1
 -2      1054      1076      1077      1055
 -1       960    9    0    1
 -2      1055      1077      1078      1056
 -1       961    9    0    1
 -2      1056      1078      1079      1057
 -1       962    9    0    1
 -2      1057      1079      1080      1058
 -1       963    9    0    1
 -2      1058      1080      1081      1059
 -1       964    9    0    1
 -2      1059      1081      1082      1060
 -1       965    9    0    1
 -2      1060      1082      1083      1061
 -1       966    9    0    1
 -2      1061      1083        75        76
 -1       967    9    0    1
 -2        22        23      1084      1062
 -1       968    9    0    1
 -2      1062      1084      1085      1063
 -1       969    9    0    1
 -2      1063      1085      1086      1064
 -1       970    9    0    1
 -2      1064      1086      1087      1065
 -1       971    9    0    1
 -2      1065      1087      1088      1066
 -1       972    9    0    1
 -2      1066      1088      1089      1067
 -1       973    9    0    1
 -2      1067      1089      1090      1068
 -1       974    9    0    1
 -2      1068      1090      1091      1069
 -1       975    9    0    1
 -2      1069      1091      1092      1070
 -1       976    9    0    1
 -2      1070      1092      1093      1071
 -1       977    9    0    1
 -2      1071      1093      1094      1072
 -1       978    9    0    1
 -2      1072      1094      1095      1073
 -1       979    9    0    1
 -2      1073      1095      1096      1074
 -1       980    9    0    1
 -2      1074      1096      1097      1075
 -1       981    9    0    1
 -2      1075      1097      1098      1076
 -1       982    9    0    1
 -2      1076      1098      1099      1077
 -1       983    9    0    1
 -2      1077      1099      1100      1078
 -1       984    9    0    1
 -2      1078      1100      1101      1079
 -1       985    9    0    1
 -2      1079      1101      1102      1080
 -1       986    9    0    1
 -2      1080      1102      1103      1081
 -1       987    9    0    1
 -2      1081      1103      1104      1082
 -1       988    9    0    1
 -2      1082      1104      1105      1083
 -1       989    9    0    1
 -2      1083      1105        74        75
 -1       990    9    0    1
 -2        23        24      1106      1084
 -1       991    9    0    1
 -2      1084      1106      1107      1085
 -1       992    9    0    1
 -2      1085      1107      1108      1086
 -1       993    9    0    1
 -2      1086      1108      1109      1087
 -1       994    9    0    1
 -2      1087      1109      1110      1088
 -1       995    9    0    1
 -2      1088      1110      1111      1089
 -1       996    9    0    1
 -2      1089      1111      1112      1090
 -1       997    9    0    1
 -2      1090      1112      1113      1091
 -1       998    9    0    1
 -2      1091      1113      1114      1092
 -1       999    9    0    1
 -2      1092      1114      1115      1093
 -1      1000    9    0    1
 -2      1093      1115      1116      1094
 -1      1001    9    0    1
 -2      1094      1116      1117      1095
 -1      1002    9    0    1
 -2      1095      1117      1118      1096
 -1      1003    9    0    1
 -2      1096      1118      1119      1097
 -1      1004    9    0    1
 -2      1097      1119      1120      1098
 -1      1005    9    0    1
 -2      1098      1120      1121      1099
 -1      1006    9    0    1
 -2      1099      1121      1122      1100
 -1      1007    9    0    1
 -2      1100      1122      1123      1101
 -1      1008    9    0    1
 -2      1101      1123      1124      1102
 -1      1009    9    0    1
 -2      1102      1124      1125      1103
 -1      1010    9    0    1
 -2      1103      1125      1126      1104
 -1      1011    9    0    1
 -2      1104      1126      1127      1105
 -1      1012    9    0    1
 -2      1105      1127        73        74
 -1      1013    9    0    1
 -2        24        25      1128      1106
 -1      1014    9    0    1
 -2      1106      1128      1129      1107
 -1      1015    9    0    1
 -2      1107      1129      1130      1108
 -1      1016    9    0    1
 -2      1108      1130      1131      1109
 -1      1017    9    0    1
 -2      1109      1131      1132      1110
 -1      1018    9    0    1
 -2      1110      1132      1133      1111
 -1      1019    9    0    1
 -2      1111      1133      1134      1112
 -1      1020    9    0    1
 -2      1112      1134      1135      1113
 -1      1021    9    0    1
 -2      1113      1135      1136      1114
 -1      1022    9    0    1
 -2      1114      1136      1137      1115
 -1      1023    9    0    1
 -2      1115      1137      1138      1116
 -1      1024    9    0    1
 -2      1116      1138      1139      1117
 -1      1025    9    0    1
 -2      1117      1139      1140      1118
 -1      1026    9    0    1
 -2      1118      1140      1141      1119
 -1      1027    9    0    1
 -2      1119      1141      1142      1120
 -1      1028    9    0    1
 -2      1120      1142      1143      1121
 -1      1029    9    0    1
 -2      1121      1143      1144      1122
 -1      1030    9    0    1
 -2      1122      1144      1145      1123
 -1      1031    9    0    1
 -2      1123      1145      1146      1124
 -1      1032    9    0    1
 -2      1124      1146      1147      1125
 -1      1033    9    0    1
 -2      1125      1147      1148      1126
 -1      1034    9    0    1
 -2      1126      1148      1149      1127
 -1      1035    9    0    1
 -2      1127      1149        72        73
 -1      1036    9    0    1
 -2        25        26      1150      1128
 -1      1037    9    0    1
 -2      1128      1150      1151      1129
 -1      1038    9    0    1
 -2      1129      1151      1152      1130
 -1      1039    9    0    1
 -2      1130      1152      1153      1131
 -1      1040    9    0    1
 -2      1131      1153      1154      1132
 -1      1041    9    0    1
 -2      1132      1154      1155      1133
 -1      1042    9    0    1
 -2      1133      1155      1156      1134
 -1      1043    9    0    1
 -2      1134      1156      1157      1135
 -1      1044    9    0    1
 -2      1135      1157      1158      1136
 -1      1045    9    0    1
 -2      1136      1158      1159      1137
 -1      1046    9    0    1
 -2      1137      1159      1160      1138
 -1      1047    9    0    1
 -2      1138      1160      1161      1139
 -1      1048    9    0    1
 -2      1139      1161      1162      1140
 -1      1049    9    0    1
 -2      1140      1162      1163      1141
 -1      1050    9    0    1
 -2      1141      1163      1164      1142
 -1      1051    9    0    1
 -2      1142      1164      1165      1143
 -1      1052    9    0    1
 -2      1143      1165      1166      1144
 -1      1053    9    0    1
 -2      1144      1166      1167      1145
 -1      1054    9    0    1
 -2      1145      1167      1168      1146
 -1      1055    9    0    1
 -2      1146      1168      1169      1147
 -1      1056    9    0    1
 -2      1147      1169      1170      1148
 -1      1057    9    0    1
 -2      1148      1170      1171      1149
 -1      1058    9    0    1
 -2      1149      1171        71        72
 -1      1059    9    0    1
 -2        26        27      1172      1150
 -1      1060    9    0    1
 -2      1150      1172      1173      1151
 -1      1061    9    0    1
 -2      1151      1173      1174      1152
 -1      1062    9    0    1
 -2      1152      1174      1175      1153
 -1      1063    9    0    1
 -2      1153      1175      1176      1154
 -1      1064    9    0    1
 -2      1154      1176      1177      1155
 -1      1065    9    0    1
 -2      1155      1177      1178      1156
 -1      1066    9    0    1
 -2      1156      1178      1179      1157
 -1      1067    9    0    1
 -2      1157      1179      1180      1158
 -1      1068    9    0    1
 -2      1158      1180      1181      1159
 -1      1069    9    0    1
 -2      1159      1181      1182      1160
 -1      1070    9    0    1
 -2      1160      1182      1183      1161
 -1      1071    9    0    1
 -2      1161      1183      1184      1162
 -1      1072    9    0    1
 -2      1162      1184      1185      1163
 -1      1073    9    0    1
 -2      1163      1185      1186      1164
 -1      1074    9    0    1
 -2      1164      1186      1187      1165
 -1      1075    9    0    1
 -2      1165      1187      1188      1166
 -1      1076    9    0    1
 -2      1166      1188      1189      1167
 -1      1077    9    0    1
 -2      1167      1189      1190      1168
 -1      1078    9    0    1
 -2      1168      1190      1191      1169
 -1      1079    9    0    1
 -2      1169      1191      1192      1170
 -1      1080    9    0    1
 -2      1170      1192      1193      1171
 -1      1081    9    0    1
 -2      1171      1193        70        71
 -1      1082    9    0    1
 -2        27        28      1194      1172
 -1      1083    9    0    1
 -2      1172      1194      1195      1173
 -1      1084    9    0    1
 -2      1173      1195      1196      1174
 -1      1085    9    0    1
 -2      1174      1196      1197      1175
 -1      1086    9    0    1
 -2      1175      1197      1198      1176
 -1      1087    9    0    1
 -2      1176      1198      1199      1177
 -1      1088    9    0    1
 -2      1177      1199      1200      1178
 -1      1089    9    0    1
 -2      1178      1200      1201      1179
 -1      1090    9    0    1
 -2      1179      1201      1202      1180
 -1      1091    9    0    1
 -2      1180      1202      1203      1181
 -1      1092    9    0    1
 -2      1181      1203      1204      1182
 -1      1093    9    0    1
 -2      1182      1204      1205      1183
 -1      1094    9    0    1
 -2      1183      1205      1206      1184
 -1      1095    9    0    1
 -2      1184      1206      1207      1185
 -1      1096    9    0    1
 -2      1185      1207      1208      1186
 -1      1097    9    0    1
 -2      1186      1208      1209      1187
 -1      1098    9    0    1
 -2      1187      1209      1210      1188
 -1      1099    9    0    1
 -2      1188      1210      1211      1189
 -1      1100    9    0    1
 -2      1189      1211      1212      1190
 -1      1101    9    0    1
 -2      1190      1212      1213      1191
 -1      1102    9    0    1
 -2      1191      1213      1214      1192
 -1      1103    9    0    1
 -2      1192      1214      1215      1193
 -1      1104    9    0    1
 -2      1193      1215        69        70
 -1      1105    9    0    1
 -2        28        29      1216      1194
 -1      1106    9    0    1
 -2      1194      1216      1217      1195
 -1      1107    9    0    1
 -2      1195      1217      1218      1196
 -1      1108    9    0    1
 -2      1196      1218      1219      1197
 -1      1109    9    0    1
 -2      1197      1219      1220      1198
 -1      1110    9    0    1
 -2      1198      1220      1221      1199
 -1      1111    9    0    1
 -2      1199      1221      1222      1200
 -1      1112    9    0    1
 -2      1200      1222      1223      1201
 -1      1113    9    0    1
 -2      1201      1223      1224      1202
 -1      1114    9    0    1
 -2      1202      1224      1225      1203
 -1      1115    9    0    1
 -2      1203      1225      1226      1204
 -1      1116    9    0    1
 -2      1204      1226      1227      1205
 -1      1117    9    0    1
 -2      1205      1227      1228      1206
 -1      1118    9    0    1
 -2      1206      1228      1229      1207
 -1      1119    9    0    1
 -2      1207      1229      1230      1208
 -1      1120    9    0    1
 -2      1208      1230      1231      1209
 -1      1121    9    0    1
 -2      1209      1231      1232      1210
 -1      1122    9    0    1
 -2      1210      1232      1233      1211
 -1      1123    9    0    1
 -2      1211      1233      1234      1212
 -1      1124    9    0    1
 -2      1212      1234      1235      1213
 -1      1125    9    0    1
 -2      1213      1235      1236      1214
 -1      1126    9    0    1
 -2      1214      1236      1237      1215
 -1      1127    9    0    1
 -2      1215      1237        68        69
 -1      1128    9    0    1
 -2        29        30      1238      1216
 -1      1129    9    0    1
 -2      1216      1238      1239      1217
 -1      1130    9    0    1
 -2      1217      1239      1240      1218
 -1      1131    9    0    1
 -2      1218      1240      1241      1219
 -1      1132    9    0    1
 -2      1219      1241      1242      1220
 -1      1133    9    0    1
 -2      1220      1242      1243      1221
 -1      1134    9    0    1
 -2      1221      1243      1244      1222
 -1      1135    9    0    1
 -2      1222      1244      1245      1223
 -1      1136    9    0    1
 -2      1223      1245      1246      1224
 -1      1137    9    0    1
 -2      1224      1246      1247      1225
 -1      1138    9    0    1
 -2      1225      1247      1248      1226
 -1      1139    9    0    1
 -2      1226      1248      1249      1227
 -1      1140    9    0    1
 -2      1227      1249      1250      1228
 -1      1141    9    0    1
 -2      1228      1250      1251      1229
 -1      1142    9    0    1
 -2      1229      1251      1252      1230
 -1      1143    9    0    1
 -2      1230      1252      1253      1231
 -1      1144    9    0    1
 -2      1231      1253      1254      1232
 -1      1145    9    0    1
 -2      1232      1254      1255      1233
 -1      1146    9    0    1
 -2      1233      1255      1256      1234
 -1      1147    9    0    1
 -2      1234      1256      1257      1235
 -1      1148    9    0    1
 -2      1235      1257      1258      1236
 -1      1149    9    0    1
 -2      1236      1258      1259      1237
 -1      1150    9    0    1
 -2      1237      1259        67        68
 -1      1151    9    0    1
 -2        30        31      1260      1238
 -1      1152    9    0    1
 -2      1238      1260      1261      1239
 -1      1153    9    0    1
 -2      1239      1261      1262      1240
 -1      1154    9    0    1
 -2      1240      1262      1263      1241
 -1      1155    9    0    1
 -2      1241      1263      1264      1242
 -1      1156    9    0    1
 -2      1242      1264      1265      1243
 -1      1157    9    0    1
 -2      1243      1265      1266      1244
 -1      1158    9    0    1
 -2      1244      1266      1267      1245
 -1      1159    9    0    1
 -2      1245      1267      1268      1246
 -1      1160    9    0    1
 -2      1246      1268      1269      1247
 -1      1161    9    0    1
 -2      1247      1269      1270      1248
 -1      1162    9    0    1
 -2      1248      1270      1271      1249
 -1      1163    9    0    1
 -2      1249      1271      1272      1250
 -1      1164    9    0    1
 -2      1250      1272      1273      1251
 -1      1165    9    0    1
 -2      1251      1273      1274      1252
 -1      1166    9    0    1
 -2      1252      1274      1275      1253
 -1      1167    9    0    1
 -2      1253      1275      1276      1254
 -1      1168    9    0    1
 -2      1254      1276      1277      1255
 -1      1169    9    0    1
 -2      1255      1277      1278      1256
 -1      1170    9    0    1
 -2      1256      1278      1279      1257
 -1      1171    9    0    1
 -2      1257      1279      1280      1258
 -1      1172    9    0    1
 -2      1258      1280      1281      1259
 -1      1173    9    0    1
 -2      1259      1281        66        67
 -1      1174    9    0    1
 -2        31        32      1282      1260
 -1      1175    9    0    1
 -2      1260      1282      1283      1261
 -1      1176    9    0    1
 -2      1261      1283      1284      1262
 -1      1177    9    0    1
 -2      1262      1284      1285      1263
 -1      1178    9    0    1
 -2      1263      1285      1286      1264
 -1      1179    9    0    1
 -2      1264      1286      1287      1265
 -1      1180    9    0    1
 -2      1265      1287      1288      1266
 -1      1181    9    0    1
 -2      1266      1288      1289      1267
 -1      1182    9    0    1
 -2      1267      1289      1290      1268
 -1      1183    9    0    1
 -2      1268      1290      1291      1269
 -1      1184    9    0    1
 -2      1269      1291      1292      1270
 -1      1185    9    0    1
 -2      1270      1292      1293      1271
 -1      1186    9    0    1
 -2      1271      1293      1294      1272
 -1      1187    9    0    1
 -2      1272      1294      1295      1273
 -1      1188    9    0    1
 -2      1273      1295      1296      1274
 -1      1189    9    0    1
 -2      1274      1296      1297      1275
 -1      1190    9    0    1
 -2      1275      1297      1298      1276
 -1      1191    9    0    1
 -2      1276      1298      1299      1277
 -1      1192    9    0    1
 -2      1277      1299      1300      1278
 -1      1193    9    0    1
 -2      1278      1300      1301      1279
 -1      1194    9    0    1
 -2      1279      1301      1302      1280
 -1      1195    9    0    1
 -2      1280      1302      1303      1281
 -1      1196    9    0    1
 -2      1281      1303        65        66
 -1      1197    9    0    1
 -2        32        33      1304      1282
 -1      1198    9    0    1
 -2      1282      1304      1305      1283
 -1      1199    9    0    1
 -2      1283      1305      1306      1284
 -1      1200    9    0    1
 -2      1284      1306      1307      1285
 -1      1201    9    0    1
 -2      1285      1307      1308      1286
 -1      1202    9    0    1
 -2      1286      1308      1309      1287
 -1      1203    9    0    1
 -2      1287      1309      1310      1288
 -1      1204    9    0    1
 -2      1288      1310      1311      1289
 -1      1205    9    0    1
 -2      1289      1311      1312      1290
 -1      1206    9    0    1
 -2      1290      1312      1313      1291
 -1      1207    9    0    1
 -2      1291      1313      1314      1292
 -1      1208    9    0    1
 -2      1292      1314      1315      1293
 -1      1209    9    0    1
 -2      1293      1315      1316      1294
 -1      1210    9    0    1
 -2      1294      1316      1317      1295
 -1      1211    9    0    1
 -2      1295      1317      1318      1296
 -1      1212    9    0    1
 -2      1296      1318      1319      1297
 -1      1213    9    0    1
 -2      1297      1319      1320      1298
 -1      1214    9    0    1
 -2      1298      1320      1321      1299
 -1      1215    9    0    1
 -2      1299      1321      1322      1300
 -1      1216    9    0    1
 -2      1300      1322      1323      1301
 -1      1217    9    0    1
 -2      1301      1323      1324      1302
 -1      1218    9    0    1
 -2      1302      1324      1325      1303
 -1      1219    9    0    1
 -2      1303      1325        64        65
 -1      1220    9    0    1
 -2        33        34      1326      1304
 -1      1221    9    0    1
 -2      1304      1326      1327      1305
 -1      1222    9    0    1
 -2      1305      1327      1328      1306
 -1      1223    9    0    1
 -2      1306      1328      1329      1307
 -1      1224    9    0    1
 -2      1307      1329      1330      1308
 -1      1225    9    0    1
 -2      1308      1330      1331      1309
 -1      1226    9    0    1
 -2      1309      1331      1332      1310
 -1      1227    9    0    1
 -2      1310      1332      1333      1311
 -1      1228    9    0    1
 -2      1311      1333      1334      1312
 -1      1229    9    0    1
 -2      1312      1334      1335      1313
 -1      1230    9    0    1
 -2      1313      1335      1336      1314
 -1      1231    9    0    1
 -2      1314      1336      1337      1315
 -1      1232    9    0    1
 -2      1315      1337      1338      1316
 -1      1233    9    0    1
 -2      1316      1338      1339      1317
 -1      1234    9    0    1
 -2      1317      1339      1340      1318
 -1      1235    9    0    1
 -2      1318      1340      1341      1319
 -1      1236    9    0    1
 -2      1319      1341      1342      1320
 -1      1237    9    0    1
 -2      1320      1342      1343      1321
 -1      1238    9    0    1
 -2      1321      1343      1344      1322
 -1      1239    9    0    1
 -2      1322      1344      1345      1323
 -1      1240    9    0    1
 -2      1323      1345      1346      1324
 -1      1241    9    0    1
 -2      1324      1346      1347      1325
 -1      1242    9    0    1
 -2      1325      1347        63        64
 -1      1243    9    0    1
 -2        34        35      1348      1326
 -1      1244    9    0    1
 -2      1326      1348      1349      1327
 -1      1245    9    0    1
 -2      1327      1349      1350      1328
 -1      1246    9    0    1
 -2      1328      1350      1351      1329
 -1      1247    9    0    1
 -2      1329      1351      1352      1330
 -1      1248    9    0    1
 -2      1330      1352      1353      1331
 -1      1249    9    0    1
 -2      1331      1353      1354      1332
 -1      1250    9    0    1
 -2      1332      1354      1355      1333
 -1      1251    9    0    1
 -2      1333      1355      1356      1334
 -1      1252    9    0    1
 -2      1334      1356      1357      1335
 -1      1253    9    0    1
 -2      1335      1357      1358      1336
 -1      1254    9    0    1
 -2      1336      1358      1359      1337
 -1      1255    9    0    1
 -2      1337      1359      1360      1338
 -1      1256    9    0    1
 -2      1338      1360      1361      1339
 -1      1257    9    0    1
 -2      1339      1361      1362      1340
 -1      1258    9    0    1
 -2      1340      1362      1363      1341
 -1      1259    9    0    1
 -2      1341      1363      1364      1342
 -1      1260    9    0    1
 -2      1342      1364      1365      1343
 -1      1261    9    0    1
 -2      1343      1365      1366      1344
 -1      1262    9    0    1
 -2      1344      1366      1367      1345
 -1      1263    9    0    1
 -2      1345      1367      1368      1346
 -1      1264    9    0    1
 -2      1346      1368      1369      1347
 -1      1265    9    0    1
 -2      1347      1369        62        63
 -1      1266    9    0    1
 -2        35        36      1370      1348
 -1      1267    9    0    1
 -2      1348      1370      1371      1349
 -1      1268    9    0    1
 -2      1349      1371      1372      1350
 -1      1269    9    0    1
 -2      1350      1372      1373      1351
 -1      1270    9    0    1
 -2      1351      1373      1374      1352
 -1      1271    9    0    1
 -2      1352      1374      1375      1353
 -1      1272    9    0    1
 -2      1353      1375      1376      1354
 -1      1273    9    0    1
 -2      1354      1376      1377      1355
 -1      1274    9    0    1
 -2      1355      1377      1378      1356
 -1      1275    9    0    1
 -2      1356      1378      1379      1357
 -1      1276    9    0    1
 -2      1357      1379      1380      1358
 -1      1277    9    0    1
 -2      1358      1380      1381      1359
 -1      1278    9    0    1
 -2      1359      1381      1382      1360
 -1      1279    9    0    1
 -2      1360      1382      1383      1361
 -1      1280    9    0    1
 -2      1361      1383      1384      1362
 -1      1281    9    0    1
 -2      1362      1384      1385      1363
 -1      1282    9    0    1
 -2      1363      1385      1386      1364
 -1      1283    9    0    1
 -2      1364      1386      1387      1365
 -1      1284    9    0    1
 -2      1365      1387      1388      1366
 -1      1285    9    0    1
 -2      1366      1388      1389      1367
 -1      1286    9    0    1
 -2      1367      1389      1390      1368
 -1      1287    9    0    1
 -2      1368      1390      1391      1369
 -1      1288    9    0    1
 -2      1369      1391        61        62
 -1      1289    9    0    1
 -2        36        37      1392      1370
 -1      1290    9    0    1
 -2      1370      1392      1393      1371
 -1      1291    9    0    1
 -2      1371      1393      1394      1372
 -1      1292    9    0    1
 -2      1372      1394      1395      1373
 -1      1293    9    0    1
 -2      1373      1395      1396      1374
 -1      1294    9    0    1
 -2      1374      1396      1397      1375
 -1      1295    9    0    1
 -2      1375      1397      1398      1376
 -1      1296    9    0    1
 -2      1376      1398      1399      1377
 -1      1297    9    0    1
 -2      1377      1399      1400      1378
 -1      1298    9    0    1
 -2      1378      1400      1401      1379
 -1      1299    9    0    1
 -2      1379      1401      1402      1380
 -1      1300    9    0    1
 -2      1380      1402      1403      1381
 -1      1301    9    0    1
 -2      1381      1403      1404      1382
 -1      1302    9    0    1
 -2      1382      1404      1405      1383
 -1      1303    9    0    1
 -2      1383      1405      1406      1384
 -1      1304    9    0    1
 -2      1384      1406      1407      1385
 -1      1305    9    0    1
 -2      1385      1407      1408      1386
 -1      1306    9    0    1
 -2      1386      1408      1409      1387
 -1      1307    9    0    1
 -2      1387      1409      1410      1388
 -1      1308    9    0    1
 -2      1388      1410      1411      1389
 -1      1309    9    0    1
 -2      1389      1411      1412      1390
 -1      1310    9    0    1
 -2      1390      1412      1413      1391
 -1      1311    9    0    1
 -2      1391      1413        60        61
 -1      1312    9    0    1
 -2        37         2        38      1392
 -1      1313    9    0    1
 -2      1392        38        39      1393
 -1      1314    9    0    1
 -2      1393        39        40      1394
 -1      1315    9    0    1
 -2      1394        40        41      1395
 -1      1316    9    0    1
 -2      1395        41        42      1396
 -1      1317    9    0    1
 -2      1396        42        43      1397
 -1      1318    9    0    1
 -2      1397        43        44      1398
 -1      1319    9    0    1
 -2      1398        44        45      1399
 -1      1320    9    0    1
 -2      1399        45        46      1400
 -1      1321    9    0    1
 -2      1400        46        47      1401
 -1      1322    9    0    1
 -2      1401        47        48      1402
 -1      1323    9    0    1
 -2      1402        48        49      1403
 -1      1324    9    0    1
 -2      1403        49        50      1404
 -1      1325    9    0    1
 -2      1404        50        51      1405
 -1      1326    9    0    1
 -2      1405        51        52      1406
 -1      1327    9    0    1
 -2      1406        52        53      1407
 -1      1328    9    0    1
 -2      1407        53        54      1408
 -1      1329    9    0    1
 -2      1408        54        55      1409
 -1      1330    9    0    1
 -2      1409        55        56      1410
 -1      1331    9    0    1
 -2      1410        56        57      1411
 -1      1332    9    0    1
 -2      1411        57        58      1412
 -1      1333    9    0    1
 -2      1412        58        59      1413
 -1      1334    9    0    1
 -2      1413        59         3        60
 -3
    1PSTEP                         1           1           1          
  100CL  101 1.000000000        1412                     0    1           1
 -4  DISP        4    1
 -5  D1          1    2    1    0
 -5  D2          1    2    2    0
 -5  D3          1    2    3    0
 -5  ALL         1    2    0    0    1ALL
 -1         1-6.53623E-03 4.50773E-02 0.00000E+00
 -1         2 0.00000E+00 1.01604E-02 0.00000E+00
 -1         3 0.00000E+00 2.06192E-02 0.00000E+00
 -1         4 8.07759E-03 4.55389E-02 0.00000E+00
 -1         5 0.00000E+00 1.00508E-02 0.00000E+00
 -1         6 1.27997E-03 0.00000E+00 0.00000E+00
 -1         7 0.00000E+00 0.00000E+00 0.00000E+00
 -1         9-6.53776E-03 4.29690E-02 0.00000E+00
 -1        10-6.52666E-03 4.02592E-02 0.00000E+00
 -1        11-6.47698E-03 3.77573E-02 0.00000E+00
 -1        12-6.37390E-03 3.54637E-02 0.00000E+00
 -1        13-6.21650E-03 3.33803E-02 0.00000E+00
 -1        14-6.01037E-03 3.15041E-02 0.00000E+00
 -1        15-5.76417E-03 2.98271E-02 0.00000E+00
 -1        16-5.48775E-03 2.83372E-02 0.00000E+00
 -1        17-5.19089E-03 2.70193E-02 0.00000E+00
 -1        18-4.88263E-03 2.58567E-02 0.00000E+00
 -1        19-4.57078E-03 2.48317E-02 0.00000E+00
 -1        20-4.26176E-03 2.39264E-02 0.00000E+00
 -1        21-3.96061E-03 2.31239E-02 0.00000E+00
 -1        22-3.67104E-03 2.24079E-02 0.00000E+00
 -1        23-3.39563E-03 2.17636E-02 0.00000E+00
 -1        24-3.13601E-03 2.11773E-02 0.00000E+00
 -1        25-2.89304E-03 2.06366E-02 0.00000E+00
 -1        26-2.66699E-03 2.01303E-02 0.00000E+00
 -1        27-2.45769E-03 1.96479E-02 0.00000E+00
 -1        28-2.26465E-03 1.91793E-02 0.00000E+00
 -1        29-2.08718E-03 1.87148E-02 0.00000E+00
 -1        30-1.92443E-03 1.82439E-02 0.00000E+00
 -1        31-1.77549E-03 1.77546E-02 0.00000E+00
 -1        32-1.63938E-03 1.72319E-02 0.00000E+00
 -1        33-1.51527E-03 1.66540E-02 0.00000E+00
 -1        34-1.40150E-03 1.59880E-02 0.00000E+00
 -1        35-1.29865E-03 1.51572E-02 0.00000E+00
 -1        36-1.15820E-03 1.40509E-02 0.00000E+00
 -1        37-7.50431E-04 1.17648E-02 0.00000E+00
 -1        38 0.00000E+00 1.15352E-02 0.00000E+00
 -1        39 0.00000E+00 1.27052E-02 0.00000E+00
 -1        40 0.00000E+00 1.35728E-02 0.00000E+00
 -1        41 0.00000E+00 1.42579E-02 0.00000E+00
 -1        42 0.00000E+00 1.48243E-02 0.00000E+00
 -1        43 0.00000E+00 1.53093E-02 0.00000E+00
 -1        44 0.00000E+00 1.57357E-02 0.00000E+00
 -1        45 0.00000E+00 1.61182E-02 0.00000E+00
 -1        46 0.00000E+00 1.64668E-02 0.00000E+00
 -1        47 0.00000E+00 1.67889E-02 0.00000E+00
 -1        48 0.00000E+00 1.70900E-02 0.00000E+00
 -1        49 0.00000E+00 1.73744E-02 0.00000E+00
 -1        50 0.00000E+00 1.76457E-02 0.00000E+00
 -1        51 0.00000E+00 1.79071E-02 0.00000E+00
 -1        52 0.00000E+00 1.81614E-02 0.00000E+00
 -1        53 0.00000E+00 1.84119E-02 0.00000E+00
 -1        54 0.00000E+00 1.86617E-02 0.00000E+00
 -1        55 0.00000E+00 1.89153E-02 0.00000E+00
 -1        56 0.00000E+00 1.91783E-02 0.00000E+00
 -1        57 0.00000E+00 1.94598E-02 0.00000E+00
 -1        58 0.00000E+00 1.97743E-02 0.00000E+00
 -1        59 0.00000E+00 2.01472E-02 0.00000E+00
 -1        60 1.26558E-04 2.06213E-02 0.00000E+00
 -1        61 2.65686E-04 2.06285E-02 0.00000E+00
 -1        62 4.18521E-04 2.06422E-02 0.00000E+00
 -1        63 5.86260E-04 2.06643E-02 0.00000E+00
 -1        64 7.70138E-04 2.06971E-02 0.00000E+00
 -1        65 9.71409E-04 2.07434E-02 0.00000E+00
 -1        66 1.19131E-03 2.08066E-02 0.00000E+00
 -1        67 1.43100E-03 2.08907E-02 0.00000E+00
 -1        68 1.69151E-03 2.10005E-02 0.00000E+00
 -1        69 1.97366E-03 2.11419E-02 0.00000E+00
 -1        70 2.27795E-03 2.13214E-02 0.00000E+00
 -1        71 2.60442E-03 2.15468E-02 0.00000E+00
 -1        72 2.95253E-03 2.18271E-02 0.00000E+00
 -1        73 3.32102E-03 2.21723E-02 0.00000E+00
 -1        74 3.70776E-03 2.25935E-02 0.00000E+00
 -1        75 4.10966E-03 2.31026E-02 0.00000E+00
 -1        76 4.52257E-03 2.37126E-02 0.00000E+00
 -1        77 4.94135E-03 2.44367E-02 0.00000E+00
 -1        78 5.35990E-03 2.52887E-02 0.00000E+00
 -1        79 5.77137E-03 2.62823E-02 0.00000E+00
 -1        80 6.16836E-03 2.74309E-02 0.00000E+00
 -1        81 6.54315E-03 2.87474E-02 0.00000E+00
 -1        82 6.88798E-03 3.02440E-02 0.00000E+00
 -1        83 7.19531E-03 3.19314E-02 0.00000E+00
 -1        84 7.45830E-03 3.38183E-02 0.00000E+00
 -1        85 7.67152E-03 3.59106E-02 0.00000E+00
 -1        86 7.83247E-03 3.82104E-02 0.00000E+00
 -1        87 7.94476E-03 4.07162E-02 0.00000E+00
 -1        88 8.02448E-03 4.34284E-02 0.00000E+00
 -1        89 6.56843E-03 4.54449E-02 0.00000E+00
 -1        90 5.18778E-03 4.53583E-02 0.00000E+00
 -1        91 3.94503E-03 4.52842E-02 0.00000E+00
 -1        92 2.82474E-03 4.52242E-02 0.00000E+00
 -1        93 1.81241E-03 4.51778E-02 0.00000E+00
 -1        94 8.95256E-04 4.51434E-02 0.00000E+00
 -1        95 6.24621E-05 4.51187E-02 0.00000E+00
 -1        96-6.95053E-04 4.51018E-02 0.00000E+00
 -1        97-1.38494E-03 4.50906E-02 0.00000E+00
 -1        98-2.01371E-03 4.50836E-02 0.00000E+00
 -1        99-2.58700E-03 4.50795E-02 0.00000E+00
 -1       100-3.10974E-03 4.50773E-02 0.00000E+00
 -1       101-3.58635E-03 4.50764E-02 0.00000E+00
 -1       102-4.02077E-03 4.50762E-02 0.00000E+00
 -1       103-4.41659E-03 4.50763E-02 0.00000E+00
 -1       104-4.77709E-03 4.50767E-02 0.00000E+00
 -1       105-5.10528E-03 4.50770E-02 0.00000E+00
 -1       106-5.40392E-03 4.50773E-02 0.00000E+00
 -1       107-5.67557E-03 4.50775E-02 0.00000E+00
 -1       108-5.92254E-03 4.50776E-02 0.00000E+00
 -1       109-6.14700E-03 4.50775E-02 0.00000E+00
 -1       110-6.35122E-03 4.50774E-02 0.00000E+00
 -1       111-4.75723E-04 9.96850E-03 0.00000E+00
 -1       112-8.30643E-04 8.32760E-03 0.00000E+00
 -1       113-9.38149E-04 6.84176E-03 0.00000E+00
 -1       114-9.12544E-04 5.97673E-03 0.00000E+00
 -1       115-8.68272E-04 5.30344E-03 0.00000E+00
 -1       116-8.21133E-04 4.74635E-03 0.00000E+00
 -1       117-7.69345E-04 4.26163E-03 0.00000E+00
 -1       118-7.12774E-04 3.82867E-03 0.00000E+00
 -1       119-6.50902E-04 3.43463E-03 0.00000E+00
 -1       120-5.83293E-04 3.07139E-03 0.00000E+00
 -1       121-5.09484E-04 2.73351E-03 0.00000E+00
 -1       122-4.29029E-04 2.41733E-03 0.00000E+00
 -1       123-3.41504E-04 2.12042E-03 0.00000E+00
 -1       124-2.46536E-04 1.84122E-03 0.00000E+00
 -1       125-1.43840E-04 1.57893E-03 0.00000E+00
 -1       126-3.32606E-05 1.33332E-03 0.00000E+00
 -1       127 8.51574E-05 1.10465E-03 0.00000E+00
 -1       128 2.11086E-04 8.93674E-04 0.00000E+00
 -1       129 3.43799E-04 7.01517E-04 0.00000E+00
 -1       130 4.82030E-04 5.29648E-04 0.00000E+00
 -1       131 6.23779E-04 3.79773E-04 0.00000E+00
 -1       132 7.66092E-04 2.53676E-04 0.00000E+00
 -1       133 9.04775E-04 1.52967E-04 0.00000E+00
 -1       134 1.03406E-03 7.86923E-05 0.00000E+00
 -1       135 1.14629E-03 3.06230E-05 0.00000E+00
 -1       136 1.23126E-03 6.70102E-06 0.00000E+00
 -1       137 1.27641E-03-1.47306E-06 0.00000E+00
 -1       138 1.28005E-03 0.00000E+00 0.00000E+00
 -1       139 1.27981E-03 0.00000E+00 0.00000E+00
 -1       140 1.27920E-03 0.00000E+00 0.00000E+00
 -1       141 1.27815E-03 0.00000E+00 0.00000E+00
 -1       142 1.27656E-03 0.00000E+00 0.00000E+00
 -1       143 1.27426E-03 0.00000E+00 0.00000E+00
 -1       144 1.27104E-03 0.00000E+00 0.00000E+00
 -1       145 1.26661E-03 0.00000E+00 0.00000E+00
 -1       146 1.26055E-03 0.00000E+00 0.00000E+00
 -1       147 1.25233E-03 0.00000E+00 0.00000E+00
 -1       148 1.24123E-03 0.00000E+00 0.00000E+00
 -1       149 1.22627E-03 0.00000E+00 0.00000E+00
 -1       150 1.20614E-03 0.00000E+00 0.00000E+00
 -1       151 1.17911E-03 0.00000E+00 0.00000E+00
 -1       152 1.14284E-03 0.00000E+00 0.00000E+00
 -1       153 1.09428E-03 0.00000E+00 0.00000E+00
 -1       154 1.02947E-03 0.00000E+00 0.00000E+00
 -1       155 9.43435E-04 0.00000E+00 0.00000E+00
 -1       156 8.30269E-04 0.00000E+00 0.00000E+00
 -1       157 6.83515E-04 0.00000E+00 0.00000E+00
 -1       158 4.97243E-04 0.00000E+00 0.00000E+00
 -1       159 2.67726E-04 0.00000E+00 0.00000E+00
 -1       160 0.00000E+00 9.52079E-03 0.00000E+00
 -1       161 0.00000E+00 8.74286E-03 0.00000E+00
 -1       162 0.00000E+00 7.99803E-03 0.00000E+00
 -1       163 0.00000E+00 7.34194E-03 0.00000E+00
 -1       164 0.00000E+00 6.76353E-03 0.00000E+00
 -1       165 0.00000E+00 6.24616E-03 0.00000E+00
 -1       166 0.00000E+00 5.77573E-03 0.00000E+00
 -1       167 0.00000E+00 5.34151E-03 0.00000E+00
 -1       168 0.00000E+00 4.93546E-03 0.00000E+00
 -1       169 0.00000E+00 4.55144E-03 0.00000E+00
 -1       170 0.00000E+00 4.18465E-03 0.00000E+00
 -1       171 0.00000E+00 3.83123E-03 0.00000E+00
 -1       172 0.00000E+00 3.48795E-03 0.00000E+00
 -1       173 0.00000E+00 3.15202E-03 0.00000E+00
 -1       174 0.00000E+00 2.82089E-03 0.00000E+00
 -1       175 0.00000E+00 2.49210E-03 0.00000E+00
 -1       176 0.00000E+00 2.16320E-03 0.00000E+00
 -1       177 0.00000E+00 1.83151E-03 0.00000E+00
 -1       178 0.00000E+00 1.49400E-03 0.00000E+00
 -1       179 0.00000E+00 1.14705E-03 0.00000E+00
 -1       180 0.00000E+00 7.86035E-04 0.00000E+00
 -1       181 0.00000E+00 4.04720E-04 0.00000E+00
 -1       182 2.23195E-05 9.22227E-03 0.00000E+00
 -1       183 1.66750E-04 8.51500E-03 0.00000E+00
 -1       184 1.78673E-04 7.85795E-03 0.00000E+00
 -1       185 1.60133E-04 7.25607E-03 0.00000E+00
 -1       186 1.36697E-04 6.70965E-03 0.00000E+00
 -1       187 1.15376E-04 6.21136E-03 0.00000E+00
 -1       188 9.74235E-05 5.75268E-03 0.00000E+00
 -1       189 8.26164E-05 5.32594E-03 0.00000E+00
 -1       190 7.04099E-05 4.92478E-03 0.00000E+00
 -1       191 6.02749E-05 4.54403E-03 0.00000E+00
 -1       192 5.17718E-05 4.17948E-03 0.00000E+00
 -1       193 4.45536E-05 3.82761E-03 0.00000E+00
 -1       194 3.83497E-05 3.48542E-03 0.00000E+00
 -1       195 3.29484E-05 3.15025E-03 0.00000E+00
 -1       196 2.81822E-05 2.81966E-03 0.00000E+00
 -1       197 2.39164E-05 2.49127E-03 0.00000E+00
 -1       198 2.00395E-05 2.16264E-03 0.00000E+00
 -1       199 1.64561E-05 1.83114E-03 0.00000E+00
 -1       200 1.30811E-05 1.49377E-03 0.00000E+00
 -1       201 9.83372E-06 1.14691E-03 0.00000E+00
 -1       202 6.63146E-06 7.85960E-04 0.00000E+00
 -1       203 3.37475E-06 4.04688E-04 0.00000E+00
 -1       204-6.02282E-06 8.16397E-03 0.00000E+00
 -1       205 2.44852E-04 7.84099E-03 0.00000E+00
 -1       206 3.07494E-04 7.43165E-03 0.00000E+00
 -1       207 2.97368E-04 6.98584E-03 0.00000E+00
 -1       208 2.65592E-04 6.53559E-03 0.00000E+00
 -1       209 2.30386E-04 6.09700E-03 0.00000E+00
 -1       210 1.97908E-04 5.67608E-03 0.00000E+00
 -1       211 1.69686E-04 5.27379E-03 0.00000E+00
 -1       212 1.45661E-04 4.88882E-03 0.00000E+00
 -1       213 1.25294E-04 4.51900E-03 0.00000E+00
 -1       214 1.07967E-04 4.16195E-03 0.00000E+00
 -1       215 9.31192E-05 3.81530E-03 0.00000E+00
 -1       216 8.02739E-05 3.47679E-03 0.00000E+00
 -1       217 6.90396E-05 3.14423E-03 0.00000E+00
 -1       218 5.90950E-05 2.81550E-03 0.00000E+00
 -1       219 5.01748E-05 2.48842E-03 0.00000E+00
 -1       220 4.20552E-05 2.16073E-03 0.00000E+00
 -1       221 3.45428E-05 1.82990E-03 0.00000E+00
 -1       222 2.74625E-05 1.49299E-03 0.00000E+00
 -1       223 2.06470E-05 1.14644E-03 0.00000E+00
 -1       224 1.39243E-05 7.85704E-04 0.00000E+00
 -1       225 7.08630E-06 4.04577E-04 0.00000E+00
 -1       226-2.12477E-04 6.93148E-03 0.00000E+00
 -1       227 1.77346E-04 6.93731E-03 0.00000E+00
 -1       228 3.34235E-04 6.79751E-03 0.00000E+00
 -1       229 3.75472E-04 6.55093E-03 0.00000E+00
 -1       230 3.63542E-04 6.23954E-03 0.00000E+00
 -1       231 3.31160E-04 5.89502E-03 0.00000E+00
 -1       232 2.93395E-04 5.53733E-03 0.00000E+00
 -1       233 2.56647E-04 5.17769E-03 0.00000E+00
 -1       234 2.23247E-04 4.82176E-03 0.00000E+00
 -1       235 1.93745E-04 4.47193E-03 0.00000E+00
 -1       236 1.67963E-04 4.12881E-03 0.00000E+00
 -1       237 1.45463E-04 3.79194E-03 0.00000E+00
 -1       238 1.25754E-04 3.46036E-03 0.00000E+00
 -1       239 1.08367E-04 3.13274E-03 0.00000E+00
 -1       240 9.28837E-05 2.80753E-03 0.00000E+00
 -1       241 7.89364E-05 2.48298E-03 0.00000E+00
 -1       242 6.62045E-05 2.15708E-03 0.00000E+00
 -1       243 5.44015E-05 1.82751E-03 0.00000E+00
 -1       244 4.32629E-05 1.49148E-03 0.00000E+00
 -1       245 3.25320E-05 1.14554E-03 0.00000E+00
 -1       246 2.19419E-05 7.85212E-04 0.00000E+00
 -1       247 1.11673E-05 4.04366E-04 0.00000E+00
 -1       248-3.97367E-04 6.02736E-03 0.00000E+00
 -1       249 1.82425E-05 6.09688E-03 0.00000E+00
 -1       250 2.64687E-04 6.10450E-03 0.00000E+00
 -1       251 3.79454E-04 6.01765E-03 0.00000E+00
 -1       252 4.13515E-04 5.84556E-03 0.00000E+00
 -1       253 4.04187E-04 5.61031E-03 0.00000E+00
 -1       254 3.74633E-04 5.33374E-03 0.00000E+00
 -1       255 3.37629E-04 5.03269E-03 0.00000E+00
 -1       256 2.99637E-04 4.71858E-03 0.00000E+00
 -1       257 2.63612E-04 4.39852E-03 0.00000E+00
 -1       258 2.30681E-04 4.07659E-03 0.00000E+00
 -1       259 2.01075E-04 3.75488E-03 0.00000E+00
 -1       260 1.74611E-04 3.43416E-03 0.00000E+00
 -1       261 1.50937E-04 3.11435E-03 0.00000E+00
 -1       262 1.29650E-04 2.79475E-03 0.00000E+00
 -1       263 1.10345E-04 2.47422E-03 0.00000E+00
 -1       264 9.26409E-05 2.15120E-03 0.00000E+00
 -1       265 7.61768E-05 1.82366E-03 0.00000E+00
 -1       266 6.06073E-05 1.48905E-03 0.00000E+00
 -1       267 4.55874E-05 1.14409E-03 0.00000E+00
 -1       268 3.07529E-05 7.84418E-04 0.00000E+00
 -1       269 1.56533E-05 4.04023E-04 0.00000E+00
 -1       270-4.84246E-04 5.34730E-03 0.00000E+00
 -1       271-1.25277E-04 5.40983E-03 0.00000E+00
 -1       272 1.51005E-04 5.46080E-03 0.00000E+00
 -1       273 3.25155E-04 5.46239E-03 0.00000E+00
 -1       274 4.13147E-04 5.39561E-03 0.00000E+00
 -1       275 4.41463E-04 5.26126E-03 0.00000E+00
 -1       276 4.33604E-04 5.07064E-03 0.00000E+00
 -1       277 4.06428E-04 4.83797E-03 0.00000E+00
 -1       278 3.70586E-04 4.57612E-03 0.00000E+00
 -1       279 3.32213E-04 4.29510E-03 0.00000E+00
 -1       280 2.94547E-04 4.00197E-03 0.00000E+00
 -1       281 2.59109E-04 3.70135E-03 0.00000E+00
 -1       282 2.26455E-04 3.39603E-03 0.00000E+00
 -1       283 1.96632E-04 3.08742E-03 0.00000E+00
 -1       284 1.69428E-04 2.77596E-03 0.00000E+00
 -1       285 1.44513E-04 2.46131E-03 0.00000E+00
 -1       286 1.21507E-04 2.14250E-03 0.00000E+00
 -1       287 1.00014E-04 1.81796E-03 0.00000E+00
 -1       288 7.96252E-05 1.48545E-03 0.00000E+00
 -1       289 5.99181E-05 1.14193E-03 0.00000E+00
 -1       290 4.04308E-05 7.83239E-04 0.00000E+00
 -1       291 2.05824E-05 4.03514E-04 0.00000E+00
 -1       292-5.20517E-04 4.78394E-03 0.00000E+00
 -1       293-2.20819E-04 4.83828E-03 0.00000E+00
 -1       294 4.27537E-05 4.89574E-03 0.00000E+00
 -1       295 2.44063E-04 4.93410E-03 0.00000E+00
 -1       296 3.74911E-04 4.93109E-03 0.00000E+00
 -1       297 4.43737E-04 4.87392E-03 0.00000E+00
 -1       298 4.66181E-04 4.76086E-03 0.00000E+00
 -1       299 4.57994E-04 4.59779E-03 0.00000E+00
 -1       300 4.31799E-04 4.39407E-03 0.00000E+00
 -1       301 3.96439E-04 4.15939E-03 0.00000E+00
 -1       302 3.57534E-04 3.90209E-03 0.00000E+00
 -1       303 3.18359E-04 3.62866E-03 0.00000E+00
 -1       304 2.80648E-04 3.34369E-03 0.00000E+00
 -1       305 2.45178E-04 3.05017E-03 0.00000E+00
 -1       306 2.12165E-04 2.74980E-03 0.00000E+00
 -1       307 1.81507E-04 2.44325E-03 0.00000E+00
 -1       308 1.52927E-04 2.13030E-03 0.00000E+00
 -1       309 1.26052E-04 1.80994E-03 0.00000E+00
 -1       310 1.00449E-04 1.48038E-03 0.00000E+00
 -1       311 7.56337E-05 1.13888E-03 0.00000E+00
 -1       312 5.10539E-05 7.81573E-04 0.00000E+00
 -1       313 2.59959E-05 4.02795E-04 0.00000E+00
 -1       314-5.26974E-04 4.29626E-03 0.00000E+00
 -1       315-2.77072E-04 4.34388E-03 0.00000E+00
 -1       316-4.02666E-05 4.39903E-03 0.00000E+00
 -1       317 1.62945E-04 4.44964E-03 0.00000E+00
 -1       318 3.17667E-04 4.47944E-03 0.00000E+00
 -1       319 4.19498E-04 4.47317E-03 0.00000E+00
 -1       320 4.73510E-04 4.42122E-03 0.00000E+00
 -1       321 4.89895E-04 4.32099E-03 0.00000E+00
 -1       322 4.79870E-04 4.17552E-03 0.00000E+00
 -1       323 4.53212E-04 3.99112E-03 0.00000E+00
 -1       324 4.17330E-04 3.77514E-03 0.00000E+00
 -1       325 3.77294E-04 3.53449E-03 0.00000E+00
 -1       326 3.36283E-04 3.27490E-03 0.00000E+00
 -1       327 2.96114E-04 3.00068E-03 0.00000E+00
 -1       328 2.57688E-04 2.71477E-03 0.00000E+00
 -1       329 2.21327E-04 2.41892E-03 0.00000E+00
 -1       330 1.86991E-04 2.11379E-03 0.00000E+00
 -1       331 1.54420E-04 1.79906E-03 0.00000E+00
 -1       332 1.23211E-04 1.47347E-03 0.00000E+00
 -1       333 9.28479E-05 1.13473E-03 0.00000E+00
 -1       334 6.27050E-05 7.79296E-04 0.00000E+00
 -1       335 3.19376E-05 4.01811E-04 0.00000E+00
 -1       336-5.13317E-04 3.86135E-03 0.00000E+00
 -1       337-3.03601E-04 3.90437E-03 0.00000E+00
 -1       338-9.58656E-05 3.95545E-03 0.00000E+00
 -1       339 9.59512E-05 4.00848E-03 0.00000E+00
 -1       340 2.57980E-04 4.05314E-03 0.00000E+00
 -1       341 3.80705E-04 4.07687E-03 0.00000E+00
 -1       342 4.61278E-04 4.06809E-03 0.00000E+00
 -1       343 5.03036E-04 4.01899E-03 0.00000E+00
 -1       344 5.13157E-04 3.92663E-03 0.00000E+00
 -1       345 5.00084E-04 3.79243E-03 0.00000E+00
 -1       346 4.71655E-04 3.62077E-03 0.00000E+00
 -1       347 4.34176E-04 3.41729E-03 0.00000E+00
 -1       348 3.92210E-04 3.18772E-03 0.00000E+00
 -1       349 3.48775E-04 2.93708E-03 0.00000E+00
 -1       350 3.05684E-04 2.66928E-03 0.00000E+00
 -1       351 2.63887E-04 2.38707E-03 0.00000E+00
 -1       352 2.23745E-04 2.09204E-03 0.00000E+00
 -1       353 1.85227E-04 1.78464E-03 0.00000E+00
 -1       354 1.48036E-04 1.46429E-03 0.00000E+00
 -1       355 1.11676E-04 1.12919E-03 0.00000E+00
 -1       356 7.54705E-05 7.76256E-04 0.00000E+00
 -1       357 3.84542E-05 4.00495E-04 0.00000E+00
 -1       358-4.84410E-04 3.46603E-03 0.00000E+00
 -1       359-3.07196E-04 3.50579E-03 0.00000E+00
 -1       360-1.26656E-04 3.55311E-03 0.00000E+00
 -1       361 4.81703E-05 3.60496E-03 0.00000E+00
 -1       362 2.06559E-04 3.65526E-03 0.00000E+00
 -1       363 3.38575E-04 3.69512E-03 0.00000E+00
 -1       364 4.37505E-04 3.71430E-03 0.00000E+00
 -1       365 5.01274E-04 3.70334E-03 0.00000E+00
 -1       366 5.32248E-04 3.65548E-03 0.00000E+00
 -1       367 5.35823E-04 3.56767E-03 0.00000E+00
 -1       368 5.18666E-04 3.44035E-03 0.00000E+00
 -1       369 4.87274E-04 3.27656E-03 0.00000E+00
 -1       370 4.47113E-04 3.08074E-03 0.00000E+00
 -1       371 4.02307E-04 2.85768E-03 0.00000E+00
 -1       372 3.55684E-04 2.61172E-03 0.00000E+00
 -1       373 3.08996E-04 2.34636E-03 0.00000E+00
 -1       374 2.63172E-04 2.06401E-03 0.00000E+00
 -1       375 2.18551E-04 1.76596E-03 0.00000E+00
 -1       376 1.75041E-04 1.45233E-03 0.00000E+00
 -1       377 1.32232E-04 1.12196E-03 0.00000E+00
 -1       378 8.94388E-05 7.72272E-04 0.00000E+00
 -1       379 4.55942E-05 3.98768E-04 0.00000E+00
 -1       380-4.42901E-04 3.10185E-03 0.00000E+00
 -1       381-2.92265E-04 3.13927E-03 0.00000E+00
 -1       382-1.35927E-04 3.18347E-03 0.00000E+00
 -1       383 2.03819E-05 3.23306E-03 0.00000E+00
 -1       384 1.68987E-04 3.28461E-03 0.00000E+00
 -1       385 3.01470E-04 3.33231E-03 0.00000E+00
 -1       386 4.10247E-04 3.36830E-03 0.00000E+00
 -1       387 4.90228E-04 3.38380E-03 0.00000E+00
 -1       388 5.39793E-04 3.37063E-03 0.00000E+00
 -1       389 5.60741E-04 3.32274E-03 0.00000E+00
 -1       390 5.57360E-04 3.23698E-03 0.00000E+00
 -1       391 5.35150E-04 3.11314E-03 0.00000E+00
 -1       392 4.99660E-04 2.95337E-03 0.00000E+00
 -1       393 4.55716E-04 2.76119E-03 0.00000E+00
 -1       394 4.07067E-04 2.54061E-03 0.00000E+00
 -1       395 3.56341E-04 2.29540E-03 0.00000E+00
 -1       396 3.05177E-04 2.02857E-03 0.00000E+00
 -1       397 2.54424E-04 1.74216E-03 0.00000E+00
 -1       398 2.04319E-04 1.43700E-03 0.00000E+00
 -1       399 1.54624E-04 1.11264E-03 0.00000E+00
 -1       400 1.04699E-04 7.67122E-04 0.00000E+00
 -1       401 5.34079E-05 3.96529E-04 0.00000E+00
 -1       402-3.90270E-04 2.76324E-03 0.00000E+00
 -1       403-2.61662E-04 2.79890E-03 0.00000E+00
 -1       404-1.26480E-04 2.84058E-03 0.00000E+00
 -1       405 1.16950E-05 2.88778E-03 0.00000E+00
 -1       406 1.47584E-04 2.93863E-03 0.00000E+00
 -1       407 2.74705E-04 2.98951E-03 0.00000E+00
 -1       408 3.86176E-04 3.03489E-03 0.00000E+00
 -1       409 4.75915E-04 3.06762E-03 0.00000E+00
 -1       410 5.39850E-04 3.07984E-03 0.00000E+00
 -1       411 5.76671E-04 3.06421E-03 0.00000E+00
 -1       412 5.87842E-04 3.01507E-03 0.00000E+00
 -1       413 5.76947E-04 2.92923E-03 0.00000E+00
 -1       414 5.48697E-04 2.80601E-03 0.00000E+00
 -1       415 5.07967E-04 2.64691E-03 0.00000E+00
 -1       416 4.59090E-04 2.45474E-03 0.00000E+00
 -1       417 4.05486E-04 2.23288E-03 0.00000E+00
 -1       418 3.49571E-04 1.98456E-03 0.00000E+00
 -1       419 2.92826E-04 1.71230E-03 0.00000E+00
 -1       420 2.35939E-04 1.41762E-03 0.00000E+00
 -1       421 1.78948E-04 1.10079E-03 0.00000E+00
 -1       422 1.21338E-04 7.60542E-04 0.00000E+00
 -1       423 6.19458E-05 3.93660E-04 0.00000E+00
 -1       424-3.27347E-04 2.44643E-03 0.00000E+00
 -1       425-2.17240E-04 2.48069E-03 0.00000E+00
 -1       426-1.00472E-04 2.52035E-03 0.00000E+00
 -1       427 2.07587E-05 2.56532E-03 0.00000E+00
 -1       428 1.42903E-04 2.61467E-03 0.00000E+00
 -1       429 2.61226E-04 2.66625E-03 0.00000E+00
 -1       430 3.70114E-04 2.71635E-03 0.00000E+00
 -1       431 4.63741E-04 2.75963E-03 0.00000E+00
 -1       432 5.37028E-04 2.78941E-03 0.00000E+00
 -1       433 5.86592E-04 2.79842E-03 0.00000E+00
 -1       434 6.11360E-04 2.77980E-03 0.00000E+00
 -1       435 6.12609E-04 2.72815E-03 0.00000E+00
 -1       436 5.93472E-04 2.64019E-03 0.00000E+00
 -1       437 5.58123E-04 2.51494E-03 0.00000E+00
 -1       438 5.10947E-04 2.35334E-03 0.00000E+00
 -1       439 4.55886E-04 2.15769E-03 0.00000E+00
 -1       440 3.96066E-04 1.93080E-03 0.00000E+00
 -1       441 3.33661E-04 1.67538E-03 0.00000E+00
 -1       442 2.69924E-04 1.39344E-03 0.00000E+00
 -1       443 2.05283E-04 1.08588E-03 0.00000E+00
 -1       444 1.39435E-04 7.52218E-04 0.00000E+00
 -1       445 7.12576E-05 3.90016E-04 0.00000E+00
 -1       446-2.54586E-04 2.14892E-03 0.00000E+00
 -1       447-1.60216E-04 2.18201E-03 0.00000E+00
 -1       448-5.95043E-05 2.21997E-03 0.00000E+00
 -1       449 4.62340E-05 2.26294E-03 0.00000E+00
 -1       450 1.54654E-04 2.31053E-03 0.00000E+00
 -1       451 2.62406E-04 2.36151E-03 0.00000E+00
 -1       452 3.65178E-04 2.41353E-03 0.00000E+00
 -1       453 4.57985E-04 2.46279E-03 0.00000E+00
 -1       454 5.35745E-04 2.50405E-03 0.00000E+00
 -1       455 5.94083E-04 2.53091E-03 0.00000E+00
 -1       456 6.30111E-04 2.53642E-03 0.00000E+00
 -1       457 6.42954E-04 2.51403E-03 0.00000E+00
 -1       458 6.33802E-04 2.45844E-03 0.00000E+00
 -1       459 6.05503E-04 2.36628E-03 0.00000E+00
 -1       460 5.61869E-04 2.23628E-03 0.00000E+00
 -1       461 5.06920E-04 2.06900E-03 0.00000E+00
 -1       462 4.44271E-04 1.86626E-03 0.00000E+00
 -1       463 3.76753E-04 1.63040E-03 0.00000E+00
 -1       464 3.06248E-04 1.36361E-03 0.00000E+00
 -1       465 2.33680E-04 1.06732E-03 0.00000E+00
 -1       466 1.59059E-04 7.41778E-04 0.00000E+00
 -1       467 8.13896E-05 3.85423E-04 0.00000E+00
 -1       468-1.72235E-04 1.86912E-03 0.00000E+00
 -1       469-9.14151E-05 1.90117E-03 0.00000E+00
 -1       470-4.77151E-06 1.93764E-03 0.00000E+00
 -1       471 8.69381E-05 1.97880E-03 0.00000E+00
 -1       472 1.82187E-04 2.02457E-03 0.00000E+00
 -1       473 2.78658E-04 2.07432E-03 0.00000E+00
 -1       474 3.73162E-04 2.12657E-03 0.00000E+00
 -1       475 4.61702E-04 2.17879E-03 0.00000E+00
 -1       476 5.39751E-04 2.22709E-03 0.00000E+00
 -1       477 6.02765E-04 2.26622E-03 0.00000E+00
 -1       478 6.46877E-04 2.28989E-03 0.00000E+00
 -1       479 6.69577E-04 2.29131E-03 0.00000E+00
 -1       480 6.70170E-04 2.26404E-03 0.00000E+00
 -1       481 6.49827E-04 2.20282E-03 0.00000E+00
 -1       482 6.11232E-04 2.10413E-03 0.00000E+00
 -1       483 5.57948E-04 1.96648E-03 0.00000E+00
 -1       484 4.93711E-04 1.79009E-03 0.00000E+00
 -1       485 4.21834E-04 1.57638E-03 0.00000E+00
 -1       486 3.44816E-04 1.32727E-03 0.00000E+00
 -1       487 2.64148E-04 1.04445E-03 0.00000E+00
 -1       488 1.80261E-04 7.28790E-04 0.00000E+00
 -1       489 9.23820E-05 3.79673E-04 0.00000E+00
 -1       490-8.04617E-05 1.60618E-03 0.00000E+00
 -1       491-1.14369E-05 1.63722E-03 0.00000E+00
 -1       492 6.28020E-05 1.67232E-03 0.00000E+00
 -1       493 1.41847E-04 1.71180E-03 0.00000E+00
 -1       494 2.24720E-04 1.75576E-03 0.00000E+00
 -1       495 3.09841E-04 1.80391E-03 0.00000E+00
 -1       496 3.94909E-04 1.85543E-03 0.00000E+00
 -1       497 4.76854E-04 1.90865E-03 0.00000E+00
 -1       498 5.51908E-04 1.96080E-03 0.00000E+00
 -1       499 6.15876E-04 2.00786E-03 0.00000E+00
 -1       500 6.64605E-04 2.04451E-03 0.00000E+00
 -1       501 6.94610E-04 2.06441E-03 0.00000E+00
 -1       502 7.03684E-04 2.06078E-03 0.00000E+00
 -1       503 6.91303E-04 2.02718E-03 0.00000E+00
 -1       504 6.58672E-04 1.95825E-03 0.00000E+00
 -1       505 6.08393E-04 1.85037E-03 0.00000E+00
 -1       506 5.43856E-04 1.70178E-03 0.00000E+00
 -1       507 4.68546E-04 1.51246E-03 0.00000E+00
 -1       508 3.85452E-04 1.28352E-03 0.00000E+00
 -1       509 2.96646E-04 1.01652E-03 0.00000E+00
 -1       510 2.03063E-04 7.12751E-04 0.00000E+00
 -1       511 1.04265E-04 3.72517E-04 0.00000E+00
 -1       512 2.05507E-05 1.35983E-03 0.00000E+00
 -1       513 7.92031E-05 1.38984E-03 0.00000E+00
 -1       514 1.42429E-04 1.42359E-03 0.00000E+00
 -1       515 2.10035E-04 1.46144E-03 0.00000E+00
 -1       516 2.81404E-04 1.50357E-03 0.00000E+00
 -1       517 3.55471E-04 1.54994E-03 0.00000E+00
 -1       518 4.30605E-04 1.60010E-03 0.00000E+00
 -1       519 5.04506E-04 1.65303E-03 0.00000E+00
 -1       520 5.74176E-04 1.70683E-03 0.00000E+00
 -1       521 6.36008E-04 1.75852E-03 0.00000E+00
 -1       522 6.86041E-04 1.80388E-03 0.00000E+00
 -1       523 7.20410E-04 1.83739E-03 0.00000E+00
 -1       524 7.35923E-04 1.85258E-03 0.00000E+00
 -1       525 7.30625E-04 1.84255E-03 0.00000E+00
 -1       526 7.04165E-04 1.80070E-03 0.00000E+00
 -1       527 6.57821E-04 1.72155E-03 0.00000E+00
 -1       528 5.94167E-04 1.60129E-03 0.00000E+00
 -1       529 5.16449E-04 1.43803E-03 0.00000E+00
 -1       530 4.27890E-04 1.23153E-03 0.00000E+00
 -1       531 3.31064E-04 9.82748E-04 0.00000E+00
 -1       532 2.27449E-04 6.93094E-04 0.00000E+00
 -1       533 1.17052E-04 3.63662E-04 0.00000E+00
 -1       534 1.30505E-04 1.13031E-03 0.00000E+00
 -1       535 1.79952E-04 1.15921E-03 0.00000E+00
 -1       536 2.33335E-04 1.19158E-03 0.00000E+00
 -1       537 2.90583E-04 1.22777E-03 0.00000E+00
 -1       538 3.51317E-04 1.26802E-03 0.00000E+00
 -1       539 4.14823E-04 1.31243E-03 0.00000E+00
 -1       540 4.79952E-04 1.36080E-03 0.00000E+00
 -1       541 5.45010E-04 1.41255E-03 0.00000E+00
 -1       542 6.07679E-04 1.46642E-03 0.00000E+00
 -1       543 6.64995E-04 1.52031E-03 0.00000E+00
 -1       544 7.13447E-04 1.57096E-03 0.00000E+00
 -1       545 7.49233E-04 1.61387E-03 0.00000E+00
 -1       546 7.68698E-04 1.64326E-03 0.00000E+00
 -1       547 7.68879E-04 1.65239E-03 0.00000E+00
 -1       548 7.48040E-04 1.63409E-03 0.00000E+00
 -1       549 7.06003E-04 1.58155E-03 0.00000E+00
 -1       550 6.44148E-04 1.48908E-03 0.00000E+00
 -1       551 5.65038E-04 1.35275E-03 0.00000E+00
 -1       552 4.71765E-04 1.17057E-03 0.00000E+00
 -1       553 3.67205E-04 9.42345E-04 0.00000E+00
 -1       554 2.53350E-04 6.69180E-04 0.00000E+00
 -1       555 1.30734E-04 3.52763E-04 0.00000E+00
 -1       556 2.48881E-04 9.18330E-04 0.00000E+00
 -1       557 2.90095E-04 9.45990E-04 0.00000E+00
 -1       558 3.34626E-04 9.76864E-04 0.00000E+00
 -1       559 3.82471E-04 1.01130E-03 0.00000E+00
 -1       560 4.33397E-04 1.04955E-03 0.00000E+00
 -1       561 4.86926E-04 1.09180E-03 0.00000E+00
 -1       562 5.42249E-04 1.13803E-03 0.00000E+00
 -1       563 5.98126E-04 1.18792E-03 0.00000E+00
 -1       564 6.52793E-04 1.24071E-03 0.00000E+00
 -1       565 7.03884E-04 1.29494E-03 0.00000E+00
 -1       566 7.48431E-04 1.34821E-03 0.00000E+00
 -1       567 7.82962E-04 1.39698E-03 0.00000E+00
 -1       568 8.03774E-04 1.43637E-03 0.00000E+00
 -1       569 8.07356E-04 1.46023E-03 0.00000E+00
 -1       570 7.90925E-04 1.46143E-03 0.00000E+00
 -1       571 7.52939E-04 1.43245E-03 0.00000E+00
 -1       572 6.93392E-04 1.36617E-03 0.00000E+00
 -1       573 6.13771E-04 1.25671E-03 0.00000E+00
 -1       574 5.16611E-04 1.10010E-03 0.00000E+00
 -1       575 4.04773E-04 8.94525E-04 0.00000E+00
 -1       576 2.80625E-04 6.40315E-04 0.00000E+00
 -1       577 1.45269E-04 3.39421E-04 0.00000E+00
 -1       578 3.74812E-04 7.24976E-04 0.00000E+00
 -1       579 4.08617E-04 7.51212E-04 0.00000E+00
 -1       580 4.45149E-04 7.80418E-04 0.00000E+00
 -1       581 4.84436E-04 8.12923E-04 0.00000E+00
 -1       582 5.26331E-04 8.48996E-04 0.00000E+00
 -1       583 5.70507E-04 8.88847E-04 0.00000E+00
 -1       584 6.16390E-04 9.32569E-04 0.00000E+00
 -1       585 6.63069E-04 9.80047E-04 0.00000E+00
 -1       586 7.09206E-04 1.03083E-03 0.00000E+00
 -1       587 7.52945E-04 1.08395E-03 0.00000E+00
 -1       588 7.91846E-04 1.13770E-03 0.00000E+00
 -1       589 8.22893E-04 1.18938E-03 0.00000E+00
 -1       590 8.42606E-04 1.23507E-03 0.00000E+00
 -1       591 8.47318E-04 1.26946E-03 0.00000E+00
 -1       592 8.33607E-04 1.28590E-03 0.00000E+00
 -1       593 7.98827E-04 1.27677E-03 0.00000E+00
 -1       594 7.41605E-04 1.23408E-03 0.00000E+00
 -1       595 6.62094E-04 1.15041E-03 0.00000E+00
 -1       596 5.61861E-04 1.01981E-03 0.00000E+00
 -1       597 4.43348E-04 8.38575E-04 0.00000E+00
 -1       598 3.09041E-04 6.05759E-04 0.00000E+00
 -1       599 1.60567E-04 3.23179E-04 0.00000E+00
 -1       600 5.06926E-04 5.51677E-04 0.00000E+00
 -1       601 5.34042E-04 5.76255E-04 0.00000E+00
 -1       602 5.63328E-04 6.03556E-04 0.00000E+00
 -1       603 5.94818E-04 6.33888E-04 0.00000E+00
 -1       604 6.28413E-04 6.67514E-04 0.00000E+00
 -1       605 6.63880E-04 7.04662E-04 0.00000E+00
 -1       606 7.00799E-04 7.45485E-04 0.00000E+00
 -1       607 7.38488E-04 7.89993E-04 0.00000E+00
 -1       608 7.75929E-04 8.37955E-04 0.00000E+00
 -1       609 8.11668E-04 8.88762E-04 0.00000E+00
 -1       610 8.43735E-04 9.41238E-04 0.00000E+00
 -1       611 8.69582E-04 9.93395E-04 0.00000E+00
 -1       612 8.86100E-04 1.04218E-03 0.00000E+00
 -1       613 8.89747E-04 1.08320E-03 0.00000E+00
 -1       614 8.76830E-04 1.11062E-03 0.00000E+00
 -1       615 8.43959E-04 1.11720E-03 0.00000E+00
 -1       616 7.88581E-04 1.09474E-03 0.00000E+00
 -1       617 7.09451E-04 1.03478E-03 0.00000E+00
 -1       618 6.06851E-04 9.29716E-04 0.00000E+00
 -1       619 4.82370E-04 7.73897E-04 0.00000E+00
 -1       620 3.38249E-04 5.64751E-04 0.00000E+00
 -1       621 1.76479E-04 3.03524E-04 0.00000E+00
 -1       622 6.43161E-04 4.00093E-04 0.00000E+00
 -1       623 6.64236E-04 4.22724E-04 0.00000E+00
 -1       624 6.86964E-04 4.47818E-04 0.00000E+00
 -1       625 7.11367E-04 4.75658E-04 0.00000E+00
 -1       626 7.37367E-04 5.06493E-04 0.00000E+00
 -1       627 7.64785E-04 5.40552E-04 0.00000E+00
 -1       628 7.93297E-04 5.78017E-04 0.00000E+00
 -1       629 8.22380E-04 6.18973E-04 0.00000E+00
 -1       630 8.51240E-04 6.63337E-04 0.00000E+00
 -1       631 8.78732E-04 7.10753E-04 0.00000E+00
 -1       632 9.03267E-04 7.60435E-04 0.00000E+00
 -1       633 9.22729E-04 8.10967E-04 0.00000E+00
 -1       634 9.34421E-04 8.60044E-04 0.00000E+00
 -1       635 9.35090E-04 9.04189E-04 0.00000E+00
 -1       636 9.21061E-04 9.38493E-04 0.00000E+00
 -1       637 8.88551E-04 9.56491E-04 0.00000E+00
 -1       638 8.34130E-04 9.50289E-04 0.00000E+00
 -1       639 7.55273E-04 9.11084E-04 0.00000E+00
 -1       640 6.50820E-04 8.30118E-04 0.00000E+00
 -1       641 5.21127E-04 7.00043E-04 0.00000E+00
 -1       642 3.67752E-04 5.16536E-04 0.00000E+00
 -1       643 1.92770E-04 2.79894E-04 0.00000E+00
 -1       644 7.80526E-04 2.71962E-04 0.00000E+00
 -1       645 7.96179E-04 2.92298E-04 0.00000E+00
 -1       646 8.13007E-04 3.14817E-04 0.00000E+00
 -1       647 8.31014E-04 3.39772E-04 0.00000E+00
 -1       648 8.50125E-04 3.67388E-04 0.00000E+00
 -1       649 8.70187E-04 3.97885E-04 0.00000E+00
 -1       650 8.90933E-04 4.31451E-04 0.00000E+00
 -1       651 9.11942E-04 4.68211E-04 0.00000E+00
 -1       652 9.32575E-04 5.08175E-04 0.00000E+00
 -1       653 9.51913E-04 5.51157E-04 0.00000E+00
 -1       654 9.68662E-04 5.96659E-04 0.00000E+00
 -1       655 9.81069E-04 6.43700E-04 0.00000E+00
 -1       656 9.86830E-04 6.90599E-04 0.00000E+00
 -1       657 9.83044E-04 7.34694E-04 0.00000E+00
 -1       658 9.66241E-04 7.72041E-04 0.00000E+00
 -1       659 9.32533E-04 7.97154E-04 0.00000E+00
 -1       660 8.77948E-04 8.02908E-04 0.00000E+00
 -1       661 7.98926E-04 7.80776E-04 0.00000E+00
 -1       662 6.92894E-04 7.21558E-04 0.00000E+00
 -1       663 5.58729E-04 6.16730E-04 0.00000E+00
 -1       664 3.96876E-04 4.60394E-04 0.00000E+00
 -1       665 2.09096E-04 2.51687E-04 0.00000E+00
 -1       666 9.14833E-04 1.68845E-04 0.00000E+00
 -1       667 9.25683E-04 1.86480E-04 0.00000E+00
 -1       668 9.37280E-04 2.05989E-04 0.00000E+00
 -1       669 9.49602E-04 2.27589E-04 0.00000E+00
 -1       670 9.62567E-04 2.51478E-04 0.00000E+00
 -1       671 9.76030E-04 2.77850E-04 0.00000E+00
 -1       672 9.89752E-04 3.06886E-04 0.00000E+00
 -1       673 1.00337E-03 3.38724E-04 0.00000E+00
 -1       674 1.01636E-03 3.73426E-04 0.00000E+00
 -1       675 1.02795E-03 4.10917E-04 0.00000E+00
 -1       676 1.03708E-03 4.50897E-04 0.00000E+00
 -1       677 1.04226E-03 4.92714E-04 0.00000E+00
 -1       678 1.04154E-03 5.35184E-04 0.00000E+00
 -1       679 1.03236E-03 5.76346E-04 0.00000E+00
 -1       680 1.01155E-03 6.13168E-04 0.00000E+00
 -1       681 9.75312E-04 6.41234E-04 0.00000E+00
 -1       682 9.19427E-04 6.54499E-04 0.00000E+00
 -1       683 8.39608E-04 6.45279E-04 0.00000E+00
 -1       684 7.32054E-04 6.04694E-04 0.00000E+00
 -1       685 5.94096E-04 5.23807E-04 0.00000E+00
 -1       686 4.24738E-04 3.95664E-04 0.00000E+00
 -1       687 2.24970E-04 2.18293E-04 0.00000E+00
 -1       688 1.04035E-03 9.17285E-05 0.00000E+00
 -1       689 1.04707E-03 1.06204E-04 0.00000E+00
 -1       690 1.05417E-03 1.22206E-04 0.00000E+00
 -1       691 1.06159E-03 1.39908E-04 0.00000E+00
 -1       692 1.06923E-03 1.59473E-04 0.00000E+00
 -1       693 1.07695E-03 1.81069E-04 0.00000E+00
 -1       694 1.08453E-03 2.04851E-04 0.00000E+00
 -1       695 1.09164E-03 2.30953E-04 0.00000E+00
 -1       696 1.09781E-03 2.59457E-04 0.00000E+00
 -1       697 1.10239E-03 2.90349E-04 0.00000E+00
 -1       698 1.10445E-03 3.23466E-04 0.00000E+00
 -1       699 1.10275E-03 3.58393E-04 0.00000E+00
 -1       700 1.09557E-03 3.94330E-04 0.00000E+00
 -1       701 1.08069E-03 4.29901E-04 0.00000E+00
 -1       702 1.05521E-03 4.62899E-04 0.00000E+00
 -1       703 1.01555E-03 4.89982E-04 0.00000E+00
 -1       704 9.57456E-04 5.06371E-04 0.00000E+00
 -1       705 8.76210E-04 5.05680E-04 0.00000E+00
 -1       706 7.67065E-04 4.80087E-04 0.00000E+00
 -1       707 6.25926E-04 4.21171E-04 0.00000E+00
 -1       708 4.50210E-04 3.21757E-04 0.00000E+00
 -1       709 2.39731E-04 1.79121E-04 0.00000E+00
 -1       710 1.14954E-03 4.03928E-05 0.00000E+00
 -1       711 1.15288E-03 5.11965E-05 0.00000E+00
 -1       712 1.15628E-03 6.31190E-05 0.00000E+00
 -1       713 1.15967E-03 7.63044E-05 0.00000E+00
 -1       714 1.16295E-03 9.08819E-05 0.00000E+00
 -1       715 1.16596E-03 1.06979E-04 0.00000E+00
 -1       716 1.16848E-03 1.24716E-04 0.00000E+00
 -1       717 1.17020E-03 1.44198E-04 0.00000E+00
 -1       718 1.17069E-03 1.65498E-04 0.00000E+00
 -1       719 1.16936E-03 1.88631E-04 0.00000E+00
 -1       720 1.16538E-03 2.13516E-04 0.00000E+00
 -1       721 1.15765E-03 2.39908E-04 0.00000E+00
 -1       722 1.14467E-03 2.67306E-04 0.00000E+00
 -1       723 1.12443E-03 2.94816E-04 0.00000E+00
 -1       724 1.09432E-03 3.20959E-04 0.00000E+00
 -1       725 1.05097E-03 3.43425E-04 0.00000E+00
 -1       726 9.90217E-04 3.58799E-04 0.00000E+00
 -1       727 9.07148E-04 3.62326E-04 0.00000E+00
 -1       728 7.96374E-04 3.47910E-04 0.00000E+00
 -1       729 6.52647E-04 3.08626E-04 0.00000E+00
 -1       730 4.71884E-04 2.38152E-04 0.00000E+00
 -1       731 2.52501E-04 1.33659E-04 0.00000E+00
 -1       732 1.23219E-03 1.24471E-05 0.00000E+00
 -1       733 1.23307E-03 1.89389E-05 0.00000E+00
 -1       734 1.23382E-03 2.61882E-05 0.00000E+00
 -1       735 1.23434E-03 3.42495E-05 0.00000E+00
 -1       736 1.23450E-03 4.31773E-05 0.00000E+00
 -1       737 1.23414E-03 5.30339E-05 0.00000E+00
 -1       738 1.23303E-03 6.38856E-05 0.00000E+00
 -1       739 1.23085E-03 7.57960E-05 0.00000E+00
 -1       740 1.22719E-03 8.88158E-05 0.00000E+00
 -1       741 1.22149E-03 1.02967E-04 0.00000E+00
 -1       742 1.21300E-03 1.18217E-04 0.00000E+00
 -1       743 1.20070E-03 1.34446E-04 0.00000E+00
 -1       744 1.18322E-03 1.51388E-04 0.00000E+00
 -1       745 1.15872E-03 1.68553E-04 0.00000E+00
 -1       746 1.12479E-03 1.85111E-04 0.00000E+00
 -1       747 1.07824E-03 1.99738E-04 0.00000E+00
 -1       748 1.01503E-03 2.10424E-04 0.00000E+00
 -1       749 9.30199E-04 2.14298E-04 0.00000E+00
 -1       750 8.17983E-04 2.07549E-04 0.00000E+00
 -1       751 6.72345E-04 1.85681E-04 0.00000E+00
 -1       752 4.88030E-04 1.44389E-04 0.00000E+00
 -1       753 2.62157E-04 8.15505E-05 0.00000E+00
 -1       754 1.27635E-03 8.30944E-07 0.00000E+00
 -1       755 1.27609E-03 3.12858E-06 0.00000E+00
 -1       756 1.27555E-03 5.46808E-06 0.00000E+00
 -1       757 1.27463E-03 7.90900E-06 0.00000E+00
 -1       758 1.27320E-03 1.05040E-05 0.00000E+00
 -1       759 1.27109E-03 1.33004E-05 0.00000E+00
 -1       760 1.26806E-03 1.63390E-05 0.00000E+00
 -1       761 1.26382E-03 1.96531E-05 0.00000E+00
 -1       762 1.25796E-03 2.32667E-05 0.00000E+00
 -1       763 1.24995E-03 2.71920E-05 0.00000E+00
 -1       764 1.23904E-03 3.14248E-05 0.00000E+00
 -1       765 1.22428E-03 3.59356E-05 0.00000E+00
 -1       766 1.20436E-03 4.06562E-05 0.00000E+00
 -1       767 1.17751E-03 4.54581E-05 0.00000E+00
 -1       768 1.14142E-03 5.01211E-05 0.00000E+00
 -1       769 1.09302E-03 5.42899E-05 0.00000E+00
 -1       770 1.02833E-03 5.74192E-05 0.00000E+00
 -1       771 9.42390E-04 5.87168E-05 0.00000E+00
 -1       772 8.29304E-04 5.71139E-05 0.00000E+00
 -1       773 6.82645E-04 5.13218E-05 0.00000E+00
 -1       774 4.96530E-04 4.00736E-05 0.00000E+00
 -1       775 2.67298E-04 2.27130E-05 0.00000E+00
 -1       776-6.35131E-03 4.29690E-02 0.00000E+00
 -1       777-6.14586E-03 4.29690E-02 0.00000E+00
 -1       778-5.92038E-03 4.29690E-02 0.00000E+00
 -1       779-5.67261E-03 4.29690E-02 0.00000E+00
 -1       780-5.40041E-03 4.29691E-02 0.00000E+00
 -1       781-5.10148E-03 4.29692E-02 0.00000E+00
 -1       782-4.77331E-03 4.29696E-02 0.00000E+00
 -1       783-4.41319E-03 4.29704E-02 0.00000E+00
 -1       784-4.01819E-03 4.29717E-02 0.00000E+00
 -1       785-3.58509E-03 4.29737E-02 0.00000E+00
 -1       786-3.11038E-03 4.29769E-02 0.00000E+00
 -1       787-2.59019E-03 4.29817E-02 0.00000E+00
 -1       788-2.02020E-03 4.29885E-02 0.00000E+00
 -1       789-1.39556E-03 4.29982E-02 0.00000E+00
 -1       790-7.10676E-04 4.30118E-02 0.00000E+00
 -1       791 4.09658E-05 4.30303E-02 0.00000E+00
 -1       792 8.67087E-04 4.30552E-02 0.00000E+00
 -1       793 1.77696E-03 4.30882E-02 0.00000E+00
 -1       794 2.78180E-03 4.31311E-02 0.00000E+00
 -1       795 3.89503E-03 4.31857E-02 0.00000E+00
 -1       796 5.13223E-03 4.32537E-02 0.00000E+00
 -1       797 6.51053E-03 4.33356E-02 0.00000E+00
 -1       798-6.33752E-03 4.02584E-02 0.00000E+00
 -1       799-6.12956E-03 4.02575E-02 0.00000E+00
 -1       800-5.90185E-03 4.02565E-02 0.00000E+00
 -1       801-5.65223E-03 4.02553E-02 0.00000E+00
 -1       802-5.37866E-03 4.02541E-02 0.00000E+00
 -1       803-5.07893E-03 4.02528E-02 0.00000E+00
 -1       804-4.75066E-03 4.02516E-02 0.00000E+00
 -1       805-4.39122E-03 4.02506E-02 0.00000E+00
 -1       806-3.99779E-03 4.02500E-02 0.00000E+00
 -1       807-3.56727E-03 4.02501E-02 0.00000E+00
 -1       808-3.09623E-03 4.02513E-02 0.00000E+00
 -1       809-2.58093E-03 4.02540E-02 0.00000E+00
 -1       810-2.01713E-03 4.02589E-02 0.00000E+00
 -1       811-1.40006E-03 4.02669E-02 0.00000E+00
 -1       812-7.24180E-04 4.02790E-02 0.00000E+00
 -1       813 1.69997E-05 4.02965E-02 0.00000E+00
 -1       814 8.31276E-04 4.03209E-02 0.00000E+00
 -1       815 1.72814E-03 4.03541E-02 0.00000E+00
 -1       816 2.71928E-03 4.03983E-02 0.00000E+00
 -1       817 3.81910E-03 4.04556E-02 0.00000E+00
 -1       818 5.04516E-03 4.05282E-02 0.00000E+00
 -1       819 6.41894E-03 4.06165E-02 0.00000E+00
 -1       820-6.28554E-03 3.77548E-02 0.00000E+00
 -1       821-6.07551E-03 3.77521E-02 0.00000E+00
 -1       822-5.84607E-03 3.77490E-02 0.00000E+00
 -1       823-5.59513E-03 3.77456E-02 0.00000E+00
 -1       824-5.32078E-03 3.77420E-02 0.00000E+00
 -1       825-5.02096E-03 3.77382E-02 0.00000E+00
 -1       826-4.69342E-03 3.77342E-02 0.00000E+00
 -1       827-4.33571E-03 3.77303E-02 0.00000E+00
 -1       828-3.94516E-03 3.77265E-02 0.00000E+00
 -1       829-3.51887E-03 3.77234E-02 0.00000E+00
 -1       830-3.05361E-03 3.77211E-02 0.00000E+00
 -1       831-2.54579E-03 3.77204E-02 0.00000E+00
 -1       832-1.99137E-03 3.77220E-02 0.00000E+00
 -1       833-1.38572E-03 3.77268E-02 0.00000E+00
 -1       834-7.23429E-04 3.77361E-02 0.00000E+00
 -1       835 1.96209E-06 3.77515E-02 0.00000E+00
 -1       836 7.98324E-04 3.77749E-02 0.00000E+00
 -1       837 1.67544E-03 3.78087E-02 0.00000E+00
 -1       838 2.64570E-03 3.78554E-02 0.00000E+00
 -1       839 3.72491E-03 3.79178E-02 0.00000E+00
 -1       840 4.93343E-03 3.79981E-02 0.00000E+00
 -1       841 6.29803E-03 3.80972E-02 0.00000E+00
 -1       842-6.18187E-03 3.54589E-02 0.00000E+00
 -1       843-5.97152E-03 3.54537E-02 0.00000E+00
 -1       844-5.74213E-03 3.54480E-02 0.00000E+00
 -1       845-5.49172E-03 3.54418E-02 0.00000E+00
 -1       846-5.21850E-03 3.54352E-02 0.00000E+00
 -1       847-4.92056E-03 3.54282E-02 0.00000E+00
 -1       848-4.59582E-03 3.54209E-02 0.00000E+00
 -1       849-4.24201E-03 3.54134E-02 0.00000E+00
 -1       850-3.85670E-03 3.54060E-02 0.00000E+00
 -1       851-3.43718E-03 3.53990E-02 0.00000E+00
 -1       852-2.98050E-03 3.53928E-02 0.00000E+00
 -1       853-2.48333E-03 3.53881E-02 0.00000E+00
 -1       854-1.94188E-03 3.53858E-02 0.00000E+00
 -1       855-1.35178E-03 3.53870E-02 0.00000E+00
 -1       856-7.07818E-04 3.53931E-02 0.00000E+00
 -1       857-3.66228E-06 3.54060E-02 0.00000E+00
 -1       858 7.68581E-04 3.54280E-02 0.00000E+00
 -1       859 1.61900E-03 3.54619E-02 0.00000E+00
 -1       860 2.56073E-03 3.55110E-02 0.00000E+00
 -1       861 3.61117E-03 3.55786E-02 0.00000E+00
 -1       862 4.79359E-03 3.56676E-02 0.00000E+00
 -1       863 6.13980E-03 3.57796E-02 0.00000E+00
 -1       864-6.02558E-03 3.33729E-02 0.00000E+00
 -1       865-5.81674E-03 3.33649E-02 0.00000E+00
 -1       866-5.58933E-03 3.33562E-02 0.00000E+00
 -1       867-5.34149E-03 3.33468E-02 0.00000E+00
 -1       868-5.07155E-03 3.33368E-02 0.00000E+00
 -1       869-4.77773E-03 3.33262E-02 0.00000E+00
 -1       870-4.45813E-03 3.33151E-02 0.00000E+00
 -1       871-4.11070E-03 3.33036E-02 0.00000E+00
 -1       872-3.73320E-03 3.32921E-02 0.00000E+00
 -1       873-3.32321E-03 3.32808E-02 0.00000E+00
 -1       874-2.87804E-03 3.32703E-02 0.00000E+00
 -1       875-2.39469E-03 3.32612E-02 0.00000E+00
 -1       876-1.86969E-03 3.32545E-02 0.00000E+00
 -1       877-1.29900E-03 3.32515E-02 0.00000E+00
 -1       878-6.77712E-04 3.32539E-02 0.00000E+00
 -1       879 2.59367E-07 3.32639E-02 0.00000E+00
 -1       880 7.42730E-04 3.32840E-02 0.00000E+00
 -1       881 1.55998E-03 3.33177E-02 0.00000E+00
 -1       882 2.46582E-03 3.33689E-02 0.00000E+00
 -1       883 3.47911E-03 3.34417E-02 0.00000E+00
 -1       884 4.62587E-03 3.35400E-02 0.00000E+00
 -1       885 5.94254E-03 3.36665E-02 0.00000E+00
 -1       886-5.82208E-03 3.14939E-02 0.00000E+00
 -1       887-5.61635E-03 3.14829E-02 0.00000E+00
 -1       888-5.39263E-03 3.14710E-02 0.00000E+00
 -1       889-5.14914E-03 3.14583E-02 0.00000E+00
 -1       890-4.88436E-03 3.14446E-02 0.00000E+00
 -1       891-4.59665E-03 3.14302E-02 0.00000E+00
 -1       892-4.28428E-03 3.14151E-02 0.00000E+00
 -1       893-3.94539E-03 3.13994E-02 0.00000E+00
 -1       894-3.57800E-03 3.13834E-02 0.00000E+00
 -1       895-3.17995E-03 3.13675E-02 0.00000E+00
 -1       896-2.74886E-03 3.13523E-02 0.00000E+00
 -1       897-2.28208E-03 3.13384E-02 0.00000E+00
 -1       898-1.77654E-03 3.13270E-02 0.00000E+00
 -1       899-1.22860E-03 3.13195E-02 0.00000E+00
 -1       900-6.33760E-04 3.13177E-02 0.00000E+00
 -1       901 1.37245E-05 3.13242E-02 0.00000E+00
 -1       902 7.21445E-04 3.13421E-02 0.00000E+00
 -1       903 1.49972E-03 3.13753E-02 0.00000E+00
 -1       904 2.36287E-03 3.14283E-02 0.00000E+00
 -1       905 3.33102E-03 3.15063E-02 0.00000E+00
 -1       906 4.43265E-03 3.16145E-02 0.00000E+00
 -1       907 5.70857E-03 3.17568E-02 0.00000E+00
 -1       908-5.57972E-03 2.98141E-02 0.00000E+00
 -1       909-5.37839E-03 2.98001E-02 0.00000E+00
 -1       910-5.15969E-03 2.97850E-02 0.00000E+00
 -1       911-4.92196E-03 2.97688E-02 0.00000E+00
 -1       912-4.66380E-03 2.97516E-02 0.00000E+00
 -1       913-4.38372E-03 2.97333E-02 0.00000E+00
 -1       914-4.08016E-03 2.97140E-02 0.00000E+00
 -1       915-3.75148E-03 2.96940E-02 0.00000E+00
 -1       916-3.39593E-03 2.96734E-02 0.00000E+00
 -1       917-3.01165E-03 2.96527E-02 0.00000E+00
 -1       918-2.59661E-03 2.96325E-02 0.00000E+00
 -1       919-2.14855E-03 2.96136E-02 0.00000E+00
 -1       920-1.66485E-03 2.95972E-02 0.00000E+00
 -1       921-1.14233E-03 2.95848E-02 0.00000E+00
 -1       922-5.77013E-04 2.95786E-02 0.00000E+00
 -1       923 3.64001E-05 2.95815E-02 0.00000E+00
 -1       924 7.05155E-04 2.95969E-02 0.00000E+00
 -1       925 1.43946E-03 2.96293E-02 0.00000E+00
 -1       926 2.25396E-03 2.96843E-02 0.00000E+00
 -1       927 3.16981E-03 2.97678E-02 0.00000E+00
 -1       928 4.21770E-03 2.98863E-02 0.00000E+00
 -1       929 5.44244E-03 3.00452E-02 0.00000E+00
 -1       930-5.30799E-03 2.83215E-02 0.00000E+00
 -1       931-5.11195E-03 2.83046E-02 0.00000E+00
 -1       932-4.89919E-03 2.82864E-02 0.00000E+00
 -1       933-4.66816E-03 2.82668E-02 0.00000E+00
 -1       934-4.41759E-03 2.82460E-02 0.00000E+00
 -1       935-4.14613E-03 2.82238E-02 0.00000E+00
 -1       936-3.85240E-03 2.82005E-02 0.00000E+00
 -1       937-3.53498E-03 2.81761E-02 0.00000E+00
 -1       938-3.19240E-03 2.81509E-02 0.00000E+00
 -1       939-2.82310E-03 2.81254E-02 0.00000E+00
 -1       940-2.42543E-03 2.81002E-02 0.00000E+00
 -1       941-1.99759E-03 2.80761E-02 0.00000E+00
 -1       942-1.53744E-03 2.80546E-02 0.00000E+00
 -1       943-1.04239E-03 2.80373E-02 0.00000E+00
 -1       944-5.09004E-04 2.80267E-02 0.00000E+00
 -1       945 6.74636E-05 2.80260E-02 0.00000E+00
 -1       946 6.93825E-04 2.80392E-02 0.00000E+00
 -1       947 1.38008E-03 2.80713E-02 0.00000E+00
 -1       948 2.14103E-03 2.81286E-02 0.00000E+00
 -1       949 2.99865E-03 2.82181E-02 0.00000E+00
 -1       950 3.98546E-03 2.83474E-02 0.00000E+00
 -1       951 5.14990E-03 2.85235E-02 0.00000E+00
 -1       952-5.01632E-03 2.70011E-02 0.00000E+00
 -1       953-4.82605E-03 2.69815E-02 0.00000E+00
 -1       954-4.61970E-03 2.69603E-02 0.00000E+00
 -1       955-4.39584E-03 2.69376E-02 0.00000E+00
 -1       956-4.15331E-03 2.69133E-02 0.00000E+00
 -1       957-3.89092E-03 2.68874E-02 0.00000E+00
 -1       958-3.60749E-03 2.68601E-02 0.00000E+00
 -1       959-3.30182E-03 2.68314E-02 0.00000E+00
 -1       960-2.97273E-03 2.68017E-02 0.00000E+00
 -1       961-2.61903E-03 2.67713E-02 0.00000E+00
 -1       962-2.23950E-03 2.67411E-02 0.00000E+00
 -1       963-1.83281E-03 2.67121E-02 0.00000E+00
 -1       964-1.39743E-03 2.66856E-02 0.00000E+00
 -1       965-9.31342E-04 2.66637E-02 0.00000E+00
 -1       966-4.31750E-04 2.66491E-02 0.00000E+00
 -1       967 1.05516E-04 2.66454E-02 0.00000E+00
 -1       968 6.86810E-04 2.66572E-02 0.00000E+00
 -1       969 1.32187E-03 2.66900E-02 0.00000E+00
 -1       970 2.02559E-03 2.67507E-02 0.00000E+00
 -1       971 2.82049E-03 2.68470E-02 0.00000E+00
 -1       972 3.74055E-03 2.69877E-02 0.00000E+00
 -1       973 4.83718E-03 2.71814E-02 0.00000E+00
 -1       974-4.71335E-03 2.58362E-02 0.00000E+00
 -1       975-4.52892E-03 2.58140E-02 0.00000E+00
 -1       976-4.32902E-03 2.57901E-02 0.00000E+00
 -1       977-4.11233E-03 2.57643E-02 0.00000E+00
 -1       978-3.87781E-03 2.57368E-02 0.00000E+00
 -1       979-3.62445E-03 2.57073E-02 0.00000E+00
 -1       980-3.35126E-03 2.56761E-02 0.00000E+00
 -1       981-3.05731E-03 2.56433E-02 0.00000E+00
 -1       982-2.74176E-03 2.56092E-02 0.00000E+00
 -1       983-2.40381E-03 2.55742E-02 0.00000E+00
 -1       984-2.04275E-03 2.55392E-02 0.00000E+00
 -1       985-1.65779E-03 2.55054E-02 0.00000E+00
 -1       986-1.24802E-03 2.54744E-02 0.00000E+00
 -1       987-8.12062E-04 2.54486E-02 0.00000E+00
 -1       988-3.47742E-04 2.54310E-02 0.00000E+00
 -1       989 1.48572E-04 2.54257E-02 0.00000E+00
 -1       990 6.82827E-04 2.54376E-02 0.00000E+00
 -1       991 1.26454E-03 2.54728E-02 0.00000E+00
 -1       992 1.90860E-03 2.55384E-02 0.00000E+00
 -1       993 2.63791E-03 2.56429E-02 0.00000E+00
 -1       994 3.48738E-03 2.57958E-02 0.00000E+00
 -1       995 4.51059E-03 2.60073E-02 0.00000E+00
 -1       996-4.40653E-03 2.48091E-02 0.00000E+00
 -1       997-4.22763E-03 2.47845E-02 0.00000E+00
 -1       998-4.03380E-03 2.47581E-02 0.00000E+00
 -1       999-3.82385E-03 2.47295E-02 0.00000E+00
 -1      1000-3.59687E-03 2.46989E-02 0.00000E+00
 -1      1001-3.35203E-03 2.46661E-02 0.00000E+00
 -1      1002-3.08859E-03 2.46311E-02 0.00000E+00
 -1      1003-2.80593E-03 2.45943E-02 0.00000E+00
 -1      1004-2.50360E-03 2.45559E-02 0.00000E+00
 -1      1005-2.18127E-03 2.45165E-02 0.00000E+00
 -1      1006-1.83877E-03 2.44772E-02 0.00000E+00
 -1      1007-1.47594E-03 2.44392E-02 0.00000E+00
 -1      1008-1.09249E-03 2.44045E-02 0.00000E+00
 -1      1009-6.87690E-04 2.43760E-02 0.00000E+00
 -1      1010-2.59882E-04 2.43571E-02 0.00000E+00
 -1      1011 1.94139E-04 2.43521E-02 0.00000E+00
 -1      1012 6.80051E-04 2.43663E-02 0.00000E+00
 -1      1013 1.20724E-03 2.44062E-02 0.00000E+00
 -1      1014 1.79059E-03 2.44790E-02 0.00000E+00
 -1      1015 2.45309E-03 2.45934E-02 0.00000E+00
 -1      1016 3.23004E-03 2.47595E-02 0.00000E+00
 -1      1017 4.17618E-03 2.49887E-02 0.00000E+00
 -1      1018-4.10195E-03 2.39020E-02 0.00000E+00
 -1      1019-3.92789E-03 2.38753E-02 0.00000E+00
 -1      1020-3.73938E-03 2.38465E-02 0.00000E+00
 -1      1021-3.53534E-03 2.38154E-02 0.00000E+00
 -1      1022-3.31503E-03 2.37818E-02 0.00000E+00
 -1      1023-3.07784E-03 2.37458E-02 0.00000E+00
 -1      1024-2.82333E-03 2.37073E-02 0.00000E+00
 -1      1025-2.55125E-03 2.36666E-02 0.00000E+00
 -1      1026-2.26161E-03 2.36242E-02 0.00000E+00
 -1      1027-1.95465E-03 2.35808E-02 0.00000E+00
 -1      1028-1.63080E-03 2.35376E-02 0.00000E+00
 -1      1029-1.29055E-03 2.34963E-02 0.00000E+00
 -1      1030-9.34219E-04 2.34594E-02 0.00000E+00
 -1      1031-5.61594E-04 2.34300E-02 0.00000E+00
 -1      1032-1.71397E-04 2.34119E-02 0.00000E+00
 -1      1033 2.39373E-04 2.34100E-02 0.00000E+00
 -1      1034 6.76327E-04 2.34296E-02 0.00000E+00
 -1      1035 1.14885E-03 2.34771E-02 0.00000E+00
 -1      1036 1.67175E-03 2.35597E-02 0.00000E+00
 -1      1037 2.26785E-03 2.36858E-02 0.00000E+00
 -1      1038 2.97219E-03 2.38659E-02 0.00000E+00
 -1      1039 3.83960E-03 2.41128E-02 0.00000E+00
 -1      1040-3.80431E-03 2.30978E-02 0.00000E+00
 -1      1041-3.63407E-03 2.30693E-02 0.00000E+00
 -1      1042-3.44976E-03 2.30384E-02 0.00000E+00
 -1      1043-3.25045E-03 2.30048E-02 0.00000E+00
 -1      1044-3.03562E-03 2.29684E-02 0.00000E+00
 -1      1045-2.80493E-03 2.29292E-02 0.00000E+00
 -1      1046-2.55829E-03 2.28873E-02 0.00000E+00
 -1      1047-2.29596E-03 2.28430E-02 0.00000E+00
 -1      1048-2.01848E-03 2.27969E-02 0.00000E+00
 -1      1049-1.72673E-03 2.27499E-02 0.00000E+00
 -1      1050-1.42182E-03 2.27038E-02 0.00000E+00
 -1      1051-1.10485E-03 2.26606E-02 0.00000E+00
 -1      1052-7.76650E-04 2.26233E-02 0.00000E+00
 -1      1053-4.37317E-04 2.25954E-02 0.00000E+00
 -1      1054-8.56868E-05 2.25814E-02 0.00000E+00
 -1      1055 2.81315E-04 2.25859E-02 0.00000E+00
 -1      1056 6.69449E-04 2.26144E-02 0.00000E+00
 -1      1057 1.08818E-03 2.26727E-02 0.00000E+00
 -1      1058 1.55219E-03 2.27677E-02 0.00000E+00
 -1      1059 2.08378E-03 2.29074E-02 0.00000E+00
 -1      1060 2.71707E-03 2.31022E-02 0.00000E+00
 -1      1061 3.50588E-03 2.33662E-02 0.00000E+00
 -1      1062-3.51702E-03 2.23804E-02 0.00000E+00
 -1      1063-3.34924E-03 2.23502E-02 0.00000E+00
 -1      1064-3.16769E-03 2.23173E-02 0.00000E+00
 -1      1065-2.97164E-03 2.22813E-02 0.00000E+00
 -1      1066-2.76081E-03 2.22422E-02 0.00000E+00
 -1      1067-2.53525E-03 2.22000E-02 0.00000E+00
 -1      1068-2.29537E-03 2.21548E-02 0.00000E+00
 -1      1069-2.04198E-03 2.21070E-02 0.00000E+00
 -1      1070-1.77632E-03 2.20576E-02 0.00000E+00
 -1      1071-1.49998E-03 2.20080E-02 0.00000E+00
 -1      1072-1.21472E-03 2.19602E-02 0.00000E+00
 -1      1073-9.22139E-04 2.19171E-02 0.00000E+00
 -1      1074-6.23359E-04 2.18820E-02 0.00000E+00
 -1      1075-3.18484E-04 2.18591E-02 0.00000E+00
 -1      1076-6.12055E-06 2.18527E-02 0.00000E+00
 -1      1077 3.17167E-04 2.18675E-02 0.00000E+00
 -1      1078 6.57466E-04 2.19085E-02 0.00000E+00
 -1      1079 1.02434E-03 2.19810E-02 0.00000E+00
 -1      1080 1.43215E-03 2.20907E-02 0.00000E+00
 -1      1081 1.90232E-03 2.22454E-02 0.00000E+00
 -1      1082 2.46747E-03 2.24553E-02 0.00000E+00
 -1      1083 3.17935E-03 2.27356E-02 0.00000E+00
 -1      1084-3.24235E-03 2.17348E-02 0.00000E+00
 -1      1085-3.07535E-03 2.17031E-02 0.00000E+00
 -1      1086-2.89481E-03 2.16683E-02 0.00000E+00
 -1      1087-2.70024E-03 2.16300E-02 0.00000E+00
 -1      1088-2.49175E-03 2.15882E-02 0.00000E+00
 -1      1089-2.26989E-03 2.15429E-02 0.00000E+00
 -1      1090-2.03569E-03 2.14944E-02 0.00000E+00
 -1      1091-1.79072E-03 2.14436E-02 0.00000E+00
 -1      1092-1.53698E-03 2.13916E-02 0.00000E+00
 -1      1093-1.27679E-03 2.13406E-02 0.00000E+00
 -1      1094-1.01245E-03 2.12932E-02 0.00000E+00
 -1      1095-7.45845E-04 2.12528E-02 0.00000E+00
 -1      1096-4.77999E-04 2.12235E-02 0.00000E+00
 -1      1097-2.08636E-04 2.12094E-02 0.00000E+00
 -1      1098 6.42197E-05 2.12149E-02 0.00000E+00
 -1      1099 3.44589E-04 2.12441E-02 0.00000E+00
 -1      1100 6.38945E-04 2.13013E-02 0.00000E+00
 -1      1101 9.56850E-04 2.13905E-02 0.00000E+00
 -1      1102 1.31210E-03 2.15170E-02 0.00000E+00
 -1      1103 1.72487E-03 2.16875E-02 0.00000E+00
 -1      1104 2.22574E-03 2.19124E-02 0.00000E+00
 -1      1105 2.86355E-03 2.22078E-02 0.00000E+00
 -1      1106-2.98158E-03 2.11475E-02 0.00000E+00
 -1      1107-2.81335E-03 2.11143E-02 0.00000E+00
 -1      1108-2.63175E-03 2.10775E-02 0.00000E+00
 -1      1109-2.43666E-03 2.10369E-02 0.00000E+00
 -1      1110-2.22873E-03 2.09923E-02 0.00000E+00
 -1      1111-2.00918E-03 2.09440E-02 0.00000E+00
 -1      1112-1.77988E-03 2.08924E-02 0.00000E+00
 -1      1113-1.54329E-03 2.08390E-02 0.00000E+00
 -1      1114-1.30225E-03 2.07856E-02 0.00000E+00
 -1      1115-1.05971E-03 2.07351E-02 0.00000E+00
 -1      1116-8.18235E-04 2.06909E-02 0.00000E+00
 -1      1117-5.79565E-04 2.06570E-02 0.00000E+00
 -1      1118-3.44179E-04 2.06377E-02 0.00000E+00
 -1      1119-1.10992E-04 2.06371E-02 0.00000E+00
 -1      1120 1.22817E-04 2.06589E-02 0.00000E+00
 -1      1121 3.61940E-04 2.07064E-02 0.00000E+00
 -1      1122 6.13143E-04 2.07827E-02 0.00000E+00
 -1      1123 8.85762E-04 2.08909E-02 0.00000E+00
 -1      1124 1.19275E-03 2.10352E-02 0.00000E+00
 -1      1125 1.55271E-03 2.12218E-02 0.00000E+00
 -1      1126 1.99377E-03 2.14610E-02 0.00000E+00
 -1      1127 2.56124E-03 2.17703E-02 0.00000E+00
 -1      1128-2.73520E-03 2.06059E-02 0.00000E+00
 -1      1129-2.56335E-03 2.05712E-02 0.00000E+00
 -1      1130-2.37829E-03 2.05325E-02 0.00000E+00
 -1      1131-2.18046E-03 2.04894E-02 0.00000E+00
 -1      1132-1.97128E-03 2.04418E-02 0.00000E+00
 -1      1133-1.75291E-03 2.03904E-02 0.00000E+00
 -1      1134-1.52829E-03 2.03362E-02 0.00000E+00
 -1      1135-1.30086E-03 2.02812E-02 0.00000E+00
 -1      1136-1.07424E-03 2.02283E-02 0.00000E+00
 -1      1137-8.51704E-04 2.01811E-02 0.00000E+00
 -1      1138-6.35608E-04 2.01440E-02 0.00000E+00
 -1      1139-4.26975E-04 2.01213E-02 0.00000E+00
 -1      1140-2.25232E-04 2.01171E-02 0.00000E+00
 -1      1141-2.81707E-05 2.01348E-02 0.00000E+00
 -1      1142 1.67974E-04 2.01771E-02 0.00000E+00
 -1      1143 3.68446E-04 2.02462E-02 0.00000E+00
 -1      1144 5.80064E-04 2.03438E-02 0.00000E+00
 -1      1145 8.11651E-04 2.04721E-02 0.00000E+00
 -1      1146 1.07504E-03 2.06344E-02 0.00000E+00
 -1      1147 1.38702E-03 2.08367E-02 0.00000E+00
 -1      1148 1.77303E-03 2.10893E-02 0.00000E+00
 -1      1149 2.27441E-03 2.14109E-02 0.00000E+00
 -1      1150-2.50301E-03 2.00987E-02 0.00000E+00
 -1      1151-2.32468E-03 2.00626E-02 0.00000E+00
 -1      1152-2.13341E-03 2.00217E-02 0.00000E+00
 -1      1153-1.93048E-03 1.99757E-02 0.00000E+00
 -1      1154-1.71841E-03 1.99251E-02 0.00000E+00
 -1      1155-1.50065E-03 1.98707E-02 0.00000E+00
 -1      1156-1.28137E-03 1.98146E-02 0.00000E+00
 -1      1157-1.06502E-03 1.97598E-02 0.00000E+00
 -1      1158-8.55656E-04 1.97103E-02 0.00000E+00
 -1      1159-6.56292E-04 1.96709E-02 0.00000E+00
 -1      1160-4.68377E-04 1.96460E-02 0.00000E+00
 -1      1161-2.91585E-04 1.96400E-02 0.00000E+00
 -1      1162-1.23905E-04 1.96562E-02 0.00000E+00
 -1      1163 3.80980E-05 1.96969E-02 0.00000E+00
 -1      1164 1.98975E-04 1.97633E-02 0.00000E+00
 -1      1165 3.64228E-04 1.98562E-02 0.00000E+00
 -1      1166 5.40390E-04 1.99762E-02 0.00000E+00
 -1      1167 7.35484E-04 2.01248E-02 0.00000E+00
 -1      1168 9.60016E-04 2.03046E-02 0.00000E+00
 -1      1169 1.22883E-03 2.05215E-02 0.00000E+00
 -1      1170 1.56456E-03 2.07862E-02 0.00000E+00
 -1      1171 2.00437E-03 2.11185E-02 0.00000E+00
 -1      1172-2.28423E-03 1.96154E-02 0.00000E+00
 -1      1173-2.09601E-03 1.95776E-02 0.00000E+00
 -1      1174-1.89540E-03 1.95342E-02 0.00000E+00
 -1      1175-1.68496E-03 1.94851E-02 0.00000E+00
 -1      1176-1.46880E-03 1.94311E-02 0.00000E+00
 -1      1177-1.25201E-03 1.93743E-02 0.00000E+00
 -1      1178-1.04011E-03 1.93179E-02 0.00000E+00
 -1      1179-8.38201E-04 1.92665E-02 0.00000E+00
 -1      1180-6.50060E-04 1.92251E-02 0.00000E+00
 -1      1181-4.77538E-04 1.91990E-02 0.00000E+00
 -1      1182-3.20363E-04 1.91928E-02 0.00000E+00
 -1      1183-1.76374E-04 1.92096E-02 0.00000E+00
 -1      1184-4.20103E-05 1.92515E-02 0.00000E+00
 -1      1185 8.71711E-05 1.93189E-02 0.00000E+00
 -1      1186 2.16128E-04 1.94118E-02 0.00000E+00
 -1      1187 3.50208E-04 1.95296E-02 0.00000E+00
 -1      1188 4.95321E-04 1.96720E-02 0.00000E+00
 -1      1189 6.58464E-04 1.98400E-02 0.00000E+00
 -1      1190 8.48708E-04 2.00361E-02 0.00000E+00
 -1      1191 1.07894E-03 2.02662E-02 0.00000E+00
 -1      1192 1.36898E-03 2.05416E-02 0.00000E+00
 -1      1193 1.75179E-03 2.08829E-02 0.00000E+00
 -1      1194-2.07754E-03 1.91460E-02 0.00000E+00
 -1      1195-1.87528E-03 1.91062E-02 0.00000E+00
 -1      1196-1.66179E-03 1.90597E-02 0.00000E+00
 -1      1197-1.44163E-03 1.90070E-02 0.00000E+00
 -1      1198-1.22111E-03 1.89499E-02 0.00000E+00
 -1      1199-1.00725E-03 1.88920E-02 0.00000E+00
 -1      1200-8.06624E-04 1.88385E-02 0.00000E+00
 -1      1201-6.24086E-04 1.87953E-02 0.00000E+00
 -1      1202-4.61940E-04 1.87686E-02 0.00000E+00
 -1      1203-3.19778E-04 1.87633E-02 0.00000E+00
 -1      1204-1.94952E-04 1.87828E-02 0.00000E+00
 -1      1205-8.33483E-05 1.88285E-02 0.00000E+00
 -1      1206 1.98368E-05 1.89003E-02 0.00000E+00
 -1      1207 1.19554E-04 1.89972E-02 0.00000E+00
 -1      1208 2.20649E-04 1.91175E-02 0.00000E+00
 -1      1209 3.27907E-04 1.92598E-02 0.00000E+00
 -1      1210 4.46356E-04 1.94236E-02 0.00000E+00
 -1      1211 5.81855E-04 1.96094E-02 0.00000E+00
 -1      1212 7.42036E-04 1.98201E-02 0.00000E+00
 -1      1213 9.37887E-04 2.00618E-02 0.00000E+00
 -1      1214 1.18655E-03 2.03462E-02 0.00000E+00
 -1      1215 1.51687E-03 2.06952E-02 0.00000E+00
 -1      1216-1.88105E-03 1.86805E-02 0.00000E+00
 -1      1217-1.65960E-03 1.86381E-02 0.00000E+00
 -1      1218-1.42936E-03 1.85878E-02 0.00000E+00
 -1      1219-1.19792E-03 1.85311E-02 0.00000E+00
 -1      1220-9.74496E-04 1.84718E-02 0.00000E+00
 -1      1221-7.67920E-04 1.84158E-02 0.00000E+00
 -1      1222-5.84705E-04 1.83706E-02 0.00000E+00
 -1      1223-4.27791E-04 1.83435E-02 0.00000E+00
 -1      1224-2.96433E-04 1.83403E-02 0.00000E+00
 -1      1225-1.87058E-04 1.83643E-02 0.00000E+00
 -1      1226-9.45118E-05 1.84166E-02 0.00000E+00
 -1      1227-1.31709E-05 1.84962E-02 0.00000E+00
 -1      1228 6.23294E-05 1.86008E-02 0.00000E+00
 -1      1229 1.36783E-04 1.87279E-02 0.00000E+00
 -1      1230 2.14427E-04 1.88751E-02 0.00000E+00
 -1      1231 2.99186E-04 1.90405E-02 0.00000E+00
 -1      1232 3.95086E-04 1.92236E-02 0.00000E+00
 -1      1233 5.06844E-04 1.94252E-02 0.00000E+00
 -1      1234 6.40741E-04 1.96485E-02 0.00000E+00
 -1      1235 8.06005E-04 1.99000E-02 0.00000E+00
 -1      1236 1.01726E-03 2.01921E-02 0.00000E+00
 -1      1237 1.29939E-03 2.05472E-02 0.00000E+00
 -1      1238-1.69212E-03 1.82083E-02 0.00000E+00
 -1      1239-1.44503E-03 1.81625E-02 0.00000E+00
 -1      1240-1.19409E-03 1.81074E-02 0.00000E+00
 -1      1241-9.51435E-04 1.80468E-02 0.00000E+00
 -1      1242-7.29579E-04 1.79879E-02 0.00000E+00
 -1      1243-5.37885E-04 1.79399E-02 0.00000E+00
 -1      1244-3.80376E-04 1.79123E-02 0.00000E+00
 -1      1245-2.55679E-04 1.79121E-02 0.00000E+00
 -1      1246-1.58633E-04 1.79429E-02 0.00000E+00
 -1      1247-8.23551E-05 1.80049E-02 0.00000E+00
 -1      1248-1.98600E-05 1.80959E-02 0.00000E+00
 -1      1249 3.50238E-05 1.82124E-02 0.00000E+00
 -1      1250 8.73527E-05 1.83506E-02 0.00000E+00
 -1      1251 1.41156E-04 1.85071E-02 0.00000E+00
 -1      1252 1.99724E-04 1.86792E-02 0.00000E+00
 -1      1253 2.65997E-04 1.88653E-02 0.00000E+00
 -1      1254 3.43011E-04 1.90653E-02 0.00000E+00
 -1      1255 4.34439E-04 1.92804E-02 0.00000E+00
 -1      1256 5.45349E-04 1.95142E-02 0.00000E+00
 -1      1257 6.83378E-04 1.97738E-02 0.00000E+00
 -1      1258 8.60833E-04 2.00720E-02 0.00000E+00
 -1      1259 1.09885E-03 2.04321E-02 0.00000E+00
 -1      1260-1.50702E-03 1.77172E-02 0.00000E+00
 -1      1261-1.22614E-03 1.76665E-02 0.00000E+00
 -1      1262-9.51294E-04 1.76058E-02 0.00000E+00
 -1      1263-7.00976E-04 1.75431E-02 0.00000E+00
 -1      1264-4.89935E-04 1.74909E-02 0.00000E+00
 -1      1265-3.24379E-04 1.74622E-02 0.00000E+00
 -1      1266-2.01868E-04 1.74660E-02 0.00000E+00
 -1      1267-1.14482E-04 1.75063E-02 0.00000E+00
 -1      1268-5.24862E-05 1.75821E-02 0.00000E+00
 -1      1269-6.77941E-06 1.76893E-02 0.00000E+00
 -1      1270 3.00405E-05 1.78225E-02 0.00000E+00
 -1      1271 6.35243E-05 1.79765E-02 0.00000E+00
 -1      1272 9.76711E-05 1.81469E-02 0.00000E+00
 -1      1273 1.35375E-04 1.83302E-02 0.00000E+00
 -1      1274 1.78876E-04 1.85242E-02 0.00000E+00
 -1      1275 2.30172E-04 1.87281E-02 0.00000E+00
 -1      1276 2.91427E-04 1.89422E-02 0.00000E+00
 -1      1277 3.65422E-04 1.91684E-02 0.00000E+00
 -1      1278 4.56173E-04 1.94108E-02 0.00000E+00
 -1      1279 5.69906E-04 1.96769E-02 0.00000E+00
 -1      1280 7.16805E-04 1.99799E-02 0.00000E+00
 -1      1281 9.14525E-04 2.03440E-02 0.00000E+00
 -1      1282-1.32010E-03 1.71916E-02 0.00000E+00
 -1      1283-9.95249E-04 1.71341E-02 0.00000E+00
 -1      1284-6.96300E-04 1.70675E-02 0.00000E+00
 -1      1285-4.48833E-04 1.70089E-02 0.00000E+00
 -1      1286-2.64304E-04 1.69774E-02 0.00000E+00
 -1      1287-1.38557E-04 1.69865E-02 0.00000E+00
 -1      1288-5.85571E-05 1.70404E-02 0.00000E+00
 -1      1289-9.69487E-06 1.71357E-02 0.00000E+00
 -1      1290 2.04177E-05 1.72655E-02 0.00000E+00
 -1      1291 4.09132E-05 1.74217E-02 0.00000E+00
 -1      1292 5.79908E-05 1.75972E-02 0.00000E+00
 -1      1293 7.56644E-05 1.77866E-02 0.00000E+00
 -1      1294 9.64987E-05 1.79858E-02 0.00000E+00
 -1      1295 1.22199E-04 1.81923E-02 0.00000E+00
 -1      1296 1.54056E-04 1.84048E-02 0.00000E+00
 -1      1297 1.93291E-04 1.86232E-02 0.00000E+00
 -1      1298 2.41367E-04 1.88486E-02 0.00000E+00
 -1      1299 3.00339E-04 1.90836E-02 0.00000E+00
 -1      1300 3.73333E-04 1.93327E-02 0.00000E+00
 -1      1301 4.65331E-04 1.96039E-02 0.00000E+00
 -1      1302 5.84593E-04 1.99107E-02 0.00000E+00
 -1      1303 7.45544E-04 2.02777E-02 0.00000E+00
 -1      1304-1.12202E-03 1.66095E-02 0.00000E+00
 -1      1305-7.41624E-04 1.65418E-02 0.00000E+00
 -1      1306-4.27425E-04 1.64737E-02 0.00000E+00
 -1      1307-2.05196E-04 1.64362E-02 0.00000E+00
 -1      1308-6.86673E-05 1.64522E-02 0.00000E+00
 -1      1309 5.72412E-06 1.65262E-02 0.00000E+00
 -1      1310 4.15447E-05 1.66503E-02 0.00000E+00
 -1      1311 5.63754E-05 1.68122E-02 0.00000E+00
 -1      1312 6.16552E-05 1.70000E-02 0.00000E+00
 -1      1313 6.42510E-05 1.72045E-02 0.00000E+00
 -1      1314 6.80748E-05 1.74191E-02 0.00000E+00
 -1      1315 7.52844E-05 1.76394E-02 0.00000E+00
 -1      1316 8.70720E-05 1.78628E-02 0.00000E+00
 -1      1317 1.04161E-04 1.80882E-02 0.00000E+00
 -1      1318 1.27124E-04 1.83154E-02 0.00000E+00
 -1      1319 1.56618E-04 1.85452E-02 0.00000E+00
 -1      1320 1.93589E-04 1.87794E-02 0.00000E+00
 -1      1321 2.39518E-04 1.90211E-02 0.00000E+00
 -1      1322 2.96787E-04 1.92753E-02 0.00000E+00
 -1      1323 3.69282E-04 1.95502E-02 0.00000E+00
 -1      1324 4.63524E-04 1.98598E-02 0.00000E+00
 -1      1325 5.90964E-04 2.02290E-02 0.00000E+00
 -1      1326-8.94822E-04 1.59331E-02 0.00000E+00
 -1      1327-4.52845E-04 1.58551E-02 0.00000E+00
 -1      1328-1.54330E-04 1.58043E-02 0.00000E+00
 -1      1329 5.25917E-06 1.58297E-02 0.00000E+00
 -1      1330 7.48738E-05 1.59363E-02 0.00000E+00
 -1      1331 9.62040E-05 1.61053E-02 0.00000E+00
 -1      1332 9.51623E-05 1.63146E-02 0.00000E+00
 -1      1333 8.59832E-05 1.65469E-02 0.00000E+00
 -1      1334 7.59054E-05 1.67904E-02 0.00000E+00
 -1      1335 6.83850E-05 1.70379E-02 0.00000E+00
 -1      1336 6.49484E-05 1.72853E-02 0.00000E+00
 -1      1337 6.61932E-05 1.75305E-02 0.00000E+00
 -1      1338 7.23159E-05 1.77730E-02 0.00000E+00
 -1      1339 8.33945E-05 1.80128E-02 0.00000E+00
 -1      1340 9.95556E-05 1.82511E-02 0.00000E+00
 -1      1341 1.21094E-04 1.84893E-02 0.00000E+00
 -1      1342 1.48597E-04 1.87300E-02 0.00000E+00
 -1      1343 1.83102E-04 1.89766E-02 0.00000E+00
 -1      1344 2.26365E-04 1.92345E-02 0.00000E+00
 -1      1345 2.81310E-04 1.95122E-02 0.00000E+00
 -1      1346 3.52881E-04 1.98238E-02 0.00000E+00
 -1      1347 4.49802E-04 2.01946E-02 0.00000E+00
 -1      1348-6.02390E-04 1.50971E-02 0.00000E+00
 -1      1349-1.26672E-04 1.50168E-02 0.00000E+00
 -1      1350 8.00666E-05 1.50582E-02 0.00000E+00
 -1      1351 1.43442E-04 1.52258E-02 0.00000E+00
 -1      1352 1.46667E-04 1.54713E-02 0.00000E+00
 -1      1353 1.28645E-04 1.57544E-02 0.00000E+00
 -1      1354 1.06150E-04 1.60506E-02 0.00000E+00
 -1      1355 8.58118E-05 1.63470E-02 0.00000E+00
 -1      1356 6.99432E-05 1.66372E-02 0.00000E+00
 -1      1357 5.90911E-05 1.69188E-02 0.00000E+00
 -1      1358 5.31363E-05 1.71912E-02 0.00000E+00
 -1      1359 5.17610E-05 1.74549E-02 0.00000E+00
 -1      1360 5.46481E-05 1.77111E-02 0.00000E+00
 -1      1361 6.15709E-05 1.79612E-02 0.00000E+00
 -1      1362 7.24430E-05 1.82073E-02 0.00000E+00
 -1      1363 8.73639E-05 1.84514E-02 0.00000E+00
 -1      1364 1.06680E-04 1.86966E-02 0.00000E+00
 -1      1365 1.31088E-04 1.89465E-02 0.00000E+00
 -1      1366 1.61811E-04 1.92069E-02 0.00000E+00
 -1      1367 2.00917E-04 1.94865E-02 0.00000E+00
 -1      1368 2.51928E-04 1.97995E-02 0.00000E+00
 -1      1369 3.21072E-04 2.01713E-02 0.00000E+00
 -1      1370-1.74927E-04 1.39132E-02 0.00000E+00
 -1      1371 1.45263E-04 1.40055E-02 0.00000E+00
 -1      1372 1.96727E-04 1.43153E-02 0.00000E+00
 -1      1373 1.77308E-04 1.47064E-02 0.00000E+00
 -1      1374 1.43133E-04 1.51102E-02 0.00000E+00
 -1      1375 1.11020E-04 1.55002E-02 0.00000E+00
 -1      1376 8.49648E-05 1.58681E-02 0.00000E+00
 -1      1377 6.52434E-05 1.62132E-02 0.00000E+00
 -1      1378 5.11420E-05 1.65369E-02 0.00000E+00
 -1      1379 4.18146E-05 1.68420E-02 0.00000E+00
 -1      1380 3.65247E-05 1.71312E-02 0.00000E+00
 -1      1381 3.46971E-05 1.74071E-02 0.00000E+00
 -1      1382 3.59144E-05 1.76722E-02 0.00000E+00
 -1      1383 3.99050E-05 1.79290E-02 0.00000E+00
 -1      1384 4.65369E-05 1.81800E-02 0.00000E+00
 -1      1385 5.58254E-05 1.84278E-02 0.00000E+00
 -1      1386 6.79607E-05 1.86758E-02 0.00000E+00
 -1      1387 8.33655E-05 1.89279E-02 0.00000E+00
 -1      1388 1.02804E-04 1.91899E-02 0.00000E+00
 -1      1389 1.27582E-04 1.94706E-02 0.00000E+00
 -1      1390 1.59932E-04 1.97844E-02 0.00000E+00
 -1      1391 2.03806E-04 2.01569E-02 0.00000E+00
 -1      1392 1.30837E-04 1.23366E-02 0.00000E+00
 -1      1393 1.83219E-04 1.30718E-02 0.00000E+00
 -1      1394 1.51031E-04 1.37644E-02 0.00000E+00
 -1      1395 1.13254E-04 1.43680E-02 0.00000E+00
 -1      1396 8.33645E-05 1.48925E-02 0.00000E+00
 -1      1397 6.12624E-05 1.53541E-02 0.00000E+00
 -1      1398 4.52953E-05 1.57664E-02 0.00000E+00
 -1      1399 3.39549E-05 1.61400E-02 0.00000E+00
 -1      1400 2.61292E-05 1.64829E-02 0.00000E+00
 -1      1401 2.10322E-05 1.68011E-02 0.00000E+00
 -1      1402 1.81148E-05 1.70994E-02 0.00000E+00
 -1      1403 1.69961E-05 1.73818E-02 0.00000E+00
 -1      1404 1.74176E-05 1.76517E-02 0.00000E+00
 -1      1405 1.92152E-05 1.79120E-02 0.00000E+00
 -1      1406 2.23057E-05 1.81656E-02 0.00000E+00
 -1      1407 2.66837E-05 1.84155E-02 0.00000E+00
 -1      1408 3.24321E-05 1.86649E-02 0.00000E+00
 -1      1409 3.97474E-05 1.89181E-02 0.00000E+00
 -1      1410 4.89905E-05 1.91809E-02 0.00000E+00
 -1      1411 6.07814E-05 1.94623E-02 0.00000E+00
 -1      1412 7.61827E-05 1.97766E-02 0.00000E+00
 -1      1413 9.70764E-05 2.01494E-02 0.00000E+00
 -3
    1PSTEP                         2           1           1          
  100CL  101 1.000000000        1412                     0    1           1
 -4  STRESS      6    1
 -5  SXX         1    4    1    1
 -5  SYY         1    4    2    2
 -5  SZZ         1    4    3    3
 -5  SXY         1    4    1    2
 -5  SYZ         1    4    2    3
 -5  SZX         1    4    3    1
 -1         1 1.74800E-01-8.89614E-03 4.97711E-02 1.31897E-01-9.88571E-13 1.13482E-13
 -1         2-1.43918E+03-1.81034E+03-9.84589E+02 4.82701E+02-5.32710E-15 2.56726E-16
 -1         3 1.09645E+02-4.00778E+00 3.16578E+01 6.45515E-01-1.99787E-13-5.74417E-17
 -1         4-1.90524E-01-1.01669E+01-3.10749E+00 7.62720E-02-6.79888E-13 2.61346E-14
 -1         5-1.51532E+03-1.57803E+03-9.34891E+02-4.65278E+01-1.81086E-13 1.12277E-15
 -1         6 1.26720E-01 6.23974E-01 2.25209E-01 4.82105E-01-3.91534E-16-1.72635E-14
 -1         7 2.53475E+01-7.63661E+01-1.53278E+01-1.65542E-01-1.32130E-14 2.68343E-16
 -1         9-2.51942E-01-7.91455E-02-9.93273E-02 6.92121E-02 4.45423E-13-8.95711E-14
 -1        10-2.00355E+00-1.46063E-01-6.44901E-01 7.07844E-02 2.08072E-14 9.43777E-15
 -1        11-5.44473E+00-9.87296E-02-1.66313E+00 5.77933E-02 4.48342E-13-8.78693E-14
 -1        12-1.01577E+01-8.51926E-02-3.07318E+00 9.73796E-02 4.94652E-13-1.40156E-14
 -1        13-1.55574E+01-9.25642E-02-4.69567E+00 1.36648E-01 2.45909E-13 2.93322E-14
 -1        14-2.12632E+01-1.06888E-01-6.41227E+00 1.73964E-01 1.16872E-13-1.05998E-14
 -1        15-2.69981E+01-1.24149E-01-8.13869E+00 2.06897E-01 9.02978E-14-4.39296E-14
 -1        16-3.25524E+01-1.41039E-01-9.81094E+00 2.34406E-01 1.30056E-13-8.49995E-15
 -1        17-3.77726E+01-1.54669E-01-1.13821E+01 2.55943E-01-9.74004E-14 6.48922E-14
 -1        18-4.25559E+01-1.61958E-01-1.28203E+01 2.71578E-01 9.64353E-14 5.37919E-14
 -1        19-4.68432E+01-1.59542E-01-1.41068E+01 2.81948E-01 1.18038E-13 1.49561E-14
 -1        20-5.06119E+01-1.43628E-01-1.52337E+01 2.88183E-01-2.09636E-14-4.76743E-14
 -1        21-5.38667E+01-1.09757E-01-1.62009E+01 2.91820E-01 1.68705E-14-1.14087E-14
 -1        22-5.66315E+01-5.23912E-02-1.70139E+01 2.94758E-01-1.46818E-13 5.53069E-14
 -1        23-5.89422E+01 3.57301E-02-1.76814E+01 2.99295E-01 8.71665E-14-6.63696E-14
 -1        24-6.08400E+01 1.64601E-01-1.82128E+01 3.08295E-01 2.96022E-13-4.89215E-14
 -1        25-6.23665E+01 3.48517E-01-1.86161E+01 3.25567E-01-1.24341E-13 3.76547E-14
 -1        26-6.35592E+01 6.08622E-01-1.88963E+01 3.56579E-01 2.50984E-13 1.06235E-14
 -1        27-6.44482E+01 9.77009E-01-1.90528E+01 4.09805E-01-2.14585E-13 9.83216E-15
 -1        28-6.50508E+01 1.50450E+00-1.90757E+01 4.99472E-01-2.32495E-13 6.74464E-15
 -1        29-6.53675E+01 2.27191E+00-1.89407E+01 6.50484E-01 1.22347E-13 8.56612E-15
 -1        30-6.53638E+01 3.42510E+00-1.85938E+01 9.12721E-01-1.02482E-13-1.41976E-14
 -1        31-6.49778E+01 5.18446E+00-1.79503E+01 1.37829E+00 2.00824E-13 2.47587E-14
 -1        32-6.39254E+01 8.16877E+00-1.67392E+01 2.31589E+00 1.80148E-13-3.81931E-15
 -1        33-6.22881E+01 1.26826E+01-1.48935E+01 4.12310E+00-9.85397E-14 9.14241E-15
 -1        34-5.72404E+01 2.42933E+01-9.89531E+00 1.00202E+01-5.88009E-14 7.18384E-15
 -1        35-7.47290E+01 2.19087E+01-1.58615E+01 2.23123E+01-1.35372E-13 4.47767E-15
 -1        36-1.92904E+02 4.28670E+01-4.54654E+01 1.56830E+02-5.52777E-14-1.77536E-14
 -1        37-8.61096E+02-8.65223E+02-5.20521E+02 2.92174E+02-7.69714E-14 3.24908E-15
 -1        38-4.21408E+02-1.23962E+03-5.01924E+02 2.44558E+02 3.73365E-14 6.95481E-16
 -1        39-2.12650E+02-8.66344E+02-3.25586E+02 1.12084E+02-2.91330E-14-5.42666E-16
 -1        40-1.21131E+02-5.89832E+02-2.14165E+02 5.87080E+01 5.86564E-14 2.17317E-17
 -1        41-8.57135E+01-4.30918E+02-1.55450E+02 3.37573E+01 2.31745E-13 1.38386E-17
 -1        42-6.86944E+01-3.30464E+02-1.20014E+02 2.09410E+01 7.24490E-15-2.45730E-17
 -1        43-5.88123E+01-2.62369E+02-9.65199E+01 1.37489E+01-1.96921E-14-2.96154E-16
 -1        44-5.18268E+01-2.13492E+02-7.97035E+01 9.44250E+00-1.22074E-14-1.31021E-16
 -1        45-4.60498E+01-1.76858E+02-6.69458E+01 6.72657E+00-1.59005E-14 6.09288E-17
 -1        46-4.07234E+01-1.48448E+02-5.68028E+01 4.94263E+00 4.00785E-13 1.81030E-17
 -1        47-3.54753E+01-1.25795E+02-4.84178E+01 3.73184E+00-5.79578E-13-9.89106E-17
 -1        48-3.01009E+01-1.07304E+02-4.12482E+01 2.88797E+00 9.84885E-14-1.92254E-17
 -1        49-2.44714E+01-9.18979E+01-3.49304E+01 2.28694E+00-1.40795E-13 8.57929E-18
 -1        50-1.84896E+01-7.88224E+01-2.92082E+01 1.85125E+00 3.82361E-13 6.64148E-17
 -1        51-1.20657E+01-6.75345E+01-2.38911E+01 1.53091E+00 1.51907E-13-4.50829E-17
 -1        52-5.10148E+00-5.76350E+01-1.88294E+01 1.29278E+00 3.12580E-14 3.17057E-17
 -1        53 2.52583E+00-4.88284E+01-1.38976E+01 1.11444E+00-2.45668E-13-6.15714E-17
 -1        54 1.09813E+01-4.09006E+01-8.98174E+00 9.80397E-01-1.19719E-13-1.07576E-16
 -1        55 2.04990E+01-3.37102E+01-3.96921E+00 8.79773E-01-1.29869E-13 3.83506E-17
 -1        56 3.14236E+01-2.71947E+01 1.26199E+00 8.04774E-01 2.04129E-13 1.35002E-16
 -1        57 4.42817E+01-2.14004E+01 6.85565E+00 7.49599E-01 6.45581E-14 3.10245E-16
 -1        58 5.99110E+01-1.65576E+01 1.29933E+01 7.09166E-01 1.20062E-13 1.39545E-18
 -1        59 7.97339E+01-1.32182E+01 1.99347E+01 6.78328E-01-4.20298E-14-4.15948E-16
 -1        60 1.09609E+02-4.01176E+00 3.16457E+01 2.08183E-01-1.97812E-13-1.32079E-15
 -1        61 1.09496E+02-4.02078E+00 3.16091E+01 4.04802E-01-2.16514E-13 6.66856E-15
 -1        62 1.09290E+02-4.03368E+00 3.15436E+01 6.20084E-01-1.59849E-13 5.41321E-15
 -1        63 1.08966E+02-4.05164E+00 3.14412E+01 8.54618E-01 1.47944E-13 1.01219E-14
 -1        64 1.08493E+02-4.07608E+00 3.12923E+01 1.10859E+00 2.56324E-13 8.30230E-15
 -1        65 1.07834E+02-4.10872E+00 3.10852E+01 1.38153E+00-1.66561E-13 1.41666E-14
 -1        66 1.06947E+02-4.15162E+00 3.08067E+01 1.67210E+00 2.03287E-13-1.96511E-15
 -1        67 1.05781E+02-4.20726E+00 3.04410E+01 1.97770E+00 1.24030E-13 2.17658E-14
 -1        68 1.04282E+02-4.27860E+00 2.99706E+01 2.29418E+00-1.32462E-13 1.66111E-14
 -1        69 1.02388E+02-4.36912E+00 2.93763E+01 2.61543E+00 1.95535E-13 3.01549E-14
 -1        70 1.00036E+02-4.48282E+00 2.86377E+01 2.93314E+00-3.99347E-14-4.25980E-14
 -1        71 9.71608E+01-4.62421E+00 2.77343E+01 3.23660E+00-1.54090E-13 5.08372E-14
 -1        72 9.37051E+01-4.79809E+00 2.66472E+01 3.51290E+00 3.15129E-13 9.11898E-14
 -1        73 8.96214E+01-5.00926E+00 2.53607E+01 3.74741E+00-2.40580E-13 2.74388E-14
 -1        74 8.48818E+01-5.26200E+00 2.38652E+01 3.92500E+00-5.31179E-14-2.01979E-14
 -1        75 7.94850E+01-5.55921E+00 2.21594E+01 4.03165E+00-1.18214E-13 2.04954E-14
 -1        76 7.34633E+01-5.90147E+00 2.02527E+01 4.05663E+00 7.07479E-13 2.19133E-13
 -1        77 6.68859E+01-6.28599E+00 1.81666E+01 3.99461E+00 2.70951E-14 8.83173E-14
 -1        78 5.98579E+01-6.70600E+00 1.59347E+01 3.84722E+00-8.81316E-14 1.03104E-13
 -1        79 5.25135E+01-7.15076E+00 1.36002E+01 3.62332E+00-3.08548E-13 1.17198E-13
 -1        80 4.50053E+01-7.60654E+00 1.12131E+01 3.33756E+00 8.56595E-13 1.05454E-13
 -1        81 3.74923E+01-8.05834E+00 8.82539E+00 3.00756E+00-2.55245E-13 7.73444E-14
 -1        82 3.01310E+01-8.49178E+00 6.48843E+00 2.65014E+00-7.51441E-14 8.55355E-14
 -1        83 2.30746E+01-8.89432E+00 4.25187E+00 2.27804E+00-6.00889E-13 3.00231E-14
 -1        84 1.64834E+01-9.25465E+00 2.16725E+00 1.89754E+00 2.07185E-13 1.83066E-13
 -1        85 1.05529E+01-9.55845E+00 2.97518E-01 1.50742E+00-5.35202E-13 1.24909E-13
 -1        86 5.57398E+00-9.77542E+00-1.26093E+00 1.09894E+00-5.79159E-14 6.32311E-14
 -1        87 2.04281E+00-9.83127E+00-2.33687E+00 6.70691E-01-3.94824E-13 3.85419E-14
 -1        88 3.32853E-01-9.82537E+00-2.84803E+00 2.71562E-01-2.83444E-13 1.26355E-13
 -1        89 2.56575E-01-9.98721E+00-2.91947E+00 1.97089E-01-3.94443E-13 1.27206E-13
 -1        90 1.80275E-01-9.74056E+00-2.86835E+00 4.58949E-01-5.79705E-13-5.31712E-14
 -1        91 7.93489E-02-8.97217E+00-2.66807E+00 7.39218E-01-7.82503E-14 2.27421E-15
 -1        92 1.70947E-02-7.84185E+00-2.34760E+00 9.45148E-01-7.39941E-13-7.88580E-14
 -1        93-1.07361E-02-6.55321E+00-1.96931E+00 1.06595E+00 2.28652E-14 3.00934E-14
 -1        94-1.95132E-02-5.26061E+00-1.58412E+00 1.11153E+00-3.27450E-13-4.73934E-14
 -1        95-2.17029E-02-4.06203E+00-1.22518E+00 1.09714E+00-6.34084E-13 2.83820E-14
 -1        96-2.51913E-02-3.01117E+00-9.10942E-01 1.03805E+00 3.36781E-13-1.36473E-14
 -1        97-3.39883E-02-2.13060E+00-6.49397E-01 9.47875E-01-4.93140E-13 1.94466E-14
 -1        98-4.92538E-02-1.42232E+00-4.41483E-01 8.38218E-01-1.16894E-13-2.33624E-14
 -1        99-7.01900E-02-8.75503E-01-2.83714E-01 7.18676E-01-6.59561E-13 6.40347E-14
 -1       100-9.47494E-02-4.72063E-01-1.70047E-01 5.97048E-01-1.40738E-13 7.21703E-14
 -1       101-1.20180E-01-1.90466E-01-9.31953E-02 4.79553E-01-3.32399E-13-7.63428E-14
 -1       102-1.43436E-01-8.31177E-03-4.55254E-02 3.71033E-01-1.84871E-13-3.96752E-14
 -1       103-1.61482E-01 9.59700E-02-1.96543E-02 2.75158E-01-6.77380E-13 1.87056E-14
 -1       104-1.71484E-01 1.42076E-01-8.82306E-03 1.94617E-01-2.49813E-13 2.19311E-14
 -1       105-1.70923E-01 1.47243E-01-7.10446E-03 1.31320E-01-2.04529E-13-2.52994E-14
 -1       106-1.57623E-01 1.25994E-01-9.48899E-03 8.65913E-02-1.39246E-13-1.67495E-14
 -1       107-1.29729E-01 9.01119E-02-1.18852E-02 6.13634E-02-3.94637E-14-7.92080E-14
 -1       108-8.56482E-02 4.87712E-02-1.10631E-02 5.63502E-02 8.95848E-14-2.86957E-14
 -1       109-2.39992E-02 8.73601E-03-4.57889E-03 7.22012E-02-2.16977E-13-1.76397E-14
 -1       110 5.66684E-02-2.51817E-02 9.44611E-03 1.09560E-01-3.36862E-13 2.37054E-14
 -1       111-1.56605E+03-1.98048E+03-1.07523E+03-1.72416E+02-4.05610E-14-5.64093E-15
 -1       112-6.59874E+02-6.20427E+02-3.85909E+02-3.27073E+02-3.26403E-14 1.33643E-14
 -1       113-8.39265E+01 6.03969E+01-7.41673E+00-1.33627E+02-6.14401E-14 8.63279E-15
 -1       114 9.30624E+00 3.86026E+01 1.43842E+01-2.52825E+01-6.79665E-14-3.70224E-15
 -1       115 1.46558E+01 3.03494E+01 1.35044E+01-1.22362E+01-2.64606E-15-7.11940E-15
 -1       116 8.36726E+00 1.76158E+01 7.79607E+00-6.10945E+00 2.28653E-14-6.89189E-16
 -1       117 5.78774E+00 1.18107E+01 5.27987E+00-3.79615E+00-4.90345E-14-8.31015E-16
 -1       118 4.00204E+00 8.03073E+00 3.60993E+00-2.51136E+00 2.03713E-14 9.23699E-15
 -1       119 2.89513E+00 5.67442E+00 2.57088E+00-1.78640E+00-9.43569E-15-3.14965E-15
 -1       120 2.14035E+00 4.09225E+00 1.86976E+00-1.33088E+00-2.53041E-14-2.04160E-15
 -1       121 1.61872E+00 3.00581E+00 1.38733E+00-1.03072E+00-3.25765E-14-1.66397E-15
 -1       122 1.24728E+00 2.23725E+00 1.04533E+00-8.22802E-01-3.28107E-14 3.86009E-16
 -1       123 9.78223E-01 1.68211E+00 7.98077E-01-6.73437E-01 1.50581E-15 5.62921E-15
 -1       124 7.80392E-01 1.27345E+00 6.16134E-01-5.62722E-01-6.04494E-15-5.22695E-15
 -1       125 6.33472E-01 9.67680E-01 4.80330E-01-4.78510E-01-1.27257E-14 1.99742E-15
 -1       126 5.23729E-01 7.35408E-01 3.77728E-01-4.13009E-01-2.29650E-14-6.08296E-15
 -1       127 4.41726E-01 5.56360E-01 2.99415E-01-3.61027E-01 4.21709E-14 6.49403E-15
 -1       128 3.80871E-01 4.16222E-01 2.39119E-01-3.18960E-01-3.88499E-14-2.84349E-15
 -1       129 3.36532E-01 3.04678E-01 1.92356E-01-2.84189E-01 2.57339E-14-2.59497E-15
 -1       130 3.05428E-01 2.14088E-01 1.55848E-01-2.54691E-01-1.03280E-14-8.74327E-15
 -1       131 2.85350E-01 1.38860E-01 1.27257E-01-2.28831E-01-2.69239E-15-1.39897E-14
 -1       132 2.74671E-01 7.39434E-02 1.04580E-01-2.04965E-01 1.64175E-15 2.22096E-16
 -1       133 2.72082E-01 1.82467E-02 8.70943E-02-1.82269E-01-1.97551E-14 1.52091E-14
 -1       134 2.81802E-01-4.25453E-02 7.17728E-02-1.55239E-01-4.54702E-16 1.43362E-14
 -1       135 2.72577E-01-6.63689E-02 6.18586E-02-1.48206E-01 5.06924E-15-3.07394E-15
 -1       136 3.63425E-01-3.07793E-01 1.66836E-02-1.66527E-02-1.40479E-16-5.93832E-15
 -1       137 4.13454E-01 1.82151E-01 1.78678E-01-1.50929E-02-1.04662E-15 1.62793E-14
 -1       138-1.87945E-02-3.30405E-01-1.04759E-01 5.04729E-01 7.97791E-16-1.05874E-14
 -1       139 1.29060E-01-1.18084E+00-3.15538E-01 5.09215E-01-3.84279E-16 1.14438E-14
 -1       140 2.35128E-01-2.09522E+00-5.58041E-01 5.02382E-01-9.64664E-16-1.26796E-14
 -1       141 3.20308E-01-3.09583E+00-8.32686E-01 4.87747E-01 1.62982E-15 1.12560E-14
 -1       142 4.05247E-01-4.20575E+00-1.14020E+00 4.68078E-01-2.25408E-15 6.44895E-15
 -1       143 5.08781E-01-5.45111E+00-1.48279E+00 4.45304E-01-5.00570E-16-1.74605E-14
 -1       144 6.48577E-01-6.86151E+00-1.86402E+00 4.20506E-01-4.43929E-16-6.12446E-15
 -1       145 8.42099E-01-8.47082E+00-2.28883E+00 3.94031E-01 8.84687E-16 8.02481E-15
 -1       146 1.10805E+00-1.03181E+01-2.76334E+00 3.65688E-01-2.98346E-15 2.96149E-15
 -1       147 1.46810E+00-1.24490E+01-3.29473E+00 3.34978E-01 1.30977E-14-3.04461E-14
 -1       148 1.94876E+00-1.49166E+01-3.89102E+00 3.01326E-01-1.73552E-15 1.49494E-14
 -1       149 2.58304E+00-1.77829E+01-4.56095E+00 2.64276E-01-1.54517E-15 1.78431E-16
 -1       150 3.41174E+00-2.11192E+01-5.31364E+00 2.23659E-01-7.50346E-15-1.02740E-14
 -1       151 4.48383E+00-2.50046E+01-6.15825E+00 1.79751E-01-8.74628E-15-8.61349E-15
 -1       152 5.85485E+00-2.95221E+01-7.10305E+00 1.33462E-01 9.15844E-15 8.79753E-16
 -1       153 7.58190E+00-3.47477E+01-8.15380E+00 8.65627E-02 6.90296E-15 1.15379E-14
 -1       154 9.71217E+00-4.07292E+01-9.31081E+00 4.19241E-02 2.10464E-14-2.42541E-15
 -1       155 1.22617E+01-4.74475E+01-1.05636E+01 3.64342E-03 2.26215E-15-5.19283E-15
 -1       156 1.51809E+01-5.47534E+01-1.18825E+01-2.31815E-02-1.16233E-14-2.67360E-15
 -1       157 1.83048E+01-6.22801E+01-1.32068E+01-3.33201E-02 3.65198E-15 2.35604E-15
 -1       158 2.13359E+01-6.93242E+01-1.44143E+01-2.28032E-02 9.90901E-15-1.37299E-15
 -1       159 2.35554E+01-7.53908E+01-1.55718E+01 5.22844E-03-2.05121E-14-8.99621E-16
 -1       160-5.24405E+02-1.29905E+03-5.50846E+02-1.81112E+02 1.75024E-13-1.25896E-15
 -1       161-2.40230E+02-1.25084E+03-4.51263E+02-1.40428E+02-1.27284E-13 5.17874E-16
 -1       162-1.08493E+02-1.01093E+03-3.38525E+02-8.74096E+01-1.70997E-15 2.07996E-16
 -1       163-4.20726E+01-7.91938E+02-2.51908E+02-5.42531E+01-3.21127E-14-7.25669E-16
 -1       164-1.04245E+01-6.29505E+02-1.93078E+02-3.44718E+01 1.64972E-15 4.33156E-16
 -1       165 5.43794E+00-5.10118E+02-1.52138E+02-2.25640E+01 7.65141E-14 1.16087E-16
 -1       166 1.37544E+01-4.20827E+02-1.22628E+02-1.51541E+01-9.14824E-14-5.01289E-16
 -1       167 1.83335E+01-3.52460E+02-1.00599E+02-1.03963E+01 6.99961E-14 7.22705E-17
 -1       168 2.09632E+01-2.98971E+02-8.36656E+01-7.25118E+00 3.15579E-14-4.47543E-18
 -1       169 2.25312E+01-2.56334E+02-7.03371E+01-5.12000E+00-2.66114E-14-1.75713E-16
 -1       170 2.34972E+01-2.21814E+02-5.96445E+01-3.64533E+00-9.93661E-15 2.85597E-16
 -1       171 2.41099E+01-1.93513E+02-5.09364E+01-2.60706E+00 5.36754E-15 1.93596E-16
 -1       172 2.45085E+01-1.70077E+02-4.37614E+01-1.86557E+00-9.20379E-15-3.54181E-17
 -1       173 2.47738E+01-1.50527E+02-3.77986E+01-1.32997E+00-5.08708E-14-1.56158E-16
 -1       174 2.49539E+01-1.34142E+02-3.28153E+01-9.39706E-01-3.08211E-14 2.84927E-18
 -1       175 2.50780E+01-1.20385E+02-2.86407E+01-6.53630E-01-6.15448E-15-9.42426E-17
 -1       176 2.51644E+01-1.08859E+02-2.51491E+01-4.43311E-01-6.49457E-14-2.90570E-17
 -1       177 2.52239E+01-9.92734E+01-2.22495E+01-2.88856E-01 9.09295E-15 5.30503E-17
 -1       178 2.52624E+01-9.14266E+01-1.98793E+01-1.76258E-01-2.77968E-14-8.36722E-17
 -1       179 2.52810E+01-8.52031E+01-1.80033E+01-9.56877E-02 5.31085E-15 2.99146E-17
 -1       180 2.52843E+01-8.05695E+01-1.66098E+01-4.03283E-02-8.44812E-15-1.09198E-17
 -1       181 2.51369E+01-7.76482E+01-1.57762E+01-5.08055E-03 3.98344E-14 5.08478E-18
 -1       182-6.59669E+02-1.49928E+03-6.53077E+02-1.92496E+02 8.29230E-15-1.29332E-15
 -1       183-2.89207E+02-1.16220E+03-4.39041E+02-2.15314E+02 6.12351E-14-9.69187E-16
 -1       184-1.28376E+02-9.26978E+02-3.19009E+02-1.64724E+02-2.60747E-15 6.72112E-17
 -1       185-5.52759E+01-7.46908E+02-2.42235E+02-1.12707E+02-1.85403E-14-7.60930E-16
 -1       186-1.85996E+01-6.06094E+02-1.88456E+02-7.57327E+01-1.35791E-14 1.00698E-15
 -1       187 4.65604E-01-4.97760E+02-1.49901E+02-5.11933E+01 3.88776E-15-1.73700E-15
 -1       188 1.07740E+01-4.14076E+02-1.21488E+02-3.50722E+01-1.34253E-14 5.47147E-16
 -1       189 1.65436E+01-3.48661E+02-9.99909E+01-2.43663E+01-3.09151E-14 7.55431E-16
 -1       190 1.98833E+01-2.96777E+02-8.33289E+01-1.71368E+01-3.54994E-14 9.35558E-16
 -1       191 2.18760E+01-2.55041E+02-7.01446E+01-1.21684E+01 2.09746E-14 9.13494E-16
 -1       192 2.30983E+01-2.21041E+02-5.95316E+01-8.69754E+00 2.82982E-15-2.95207E-16
 -1       193 2.38666E+01-1.93046E+02-5.08690E+01-6.23760E+00-7.75352E-15-5.93796E-16
 -1       194 2.43605E+01-1.69794E+02-4.37207E+01-4.47262E+00 7.36483E-15-1.95798E-16
 -1       195 2.46843E+01-1.50355E+02-3.77738E+01-3.19349E+00 4.01195E-16 3.59574E-16
 -1       196 2.49004E+01-1.34038E+02-3.28001E+01-2.25922E+00-1.18798E-14-7.88426E-16
 -1       197 2.50467E+01-1.20323E+02-2.86315E+01-1.57319E+00 4.48255E-14 1.33330E-16
 -1       198 2.51466E+01-1.08823E+02-2.51435E+01-1.06820E+00-4.50721E-14-1.32203E-16
 -1       199 2.52142E+01-9.92525E+01-2.22461E+01-6.97032E-01-5.99521E-15-2.08411E-16
 -1       200 2.52575E+01-9.14152E+01-1.98773E+01-4.26321E-01 1.48522E-14 2.39069E-16
 -1       201 2.52789E+01-8.51973E+01-1.80022E+01-2.32592E-01-1.55905E-14-2.06958E-17
 -1       202 2.52837E+01-8.05667E+01-1.66092E+01-9.97998E-02 1.93847E-14-2.27587E-17
 -1       203 2.51372E+01-7.76469E+01-1.57757E+01-1.62743E-02-2.42283E-14 1.44103E-17
 -1       204-4.71643E+02-6.41110E+02-3.35510E+02-2.89611E+02-9.10363E-15 2.40059E-15
 -1       205-2.96381E+02-7.06720E+02-3.02868E+02-3.36767E+02 3.46352E-14-1.45825E-15
 -1       206-1.65128E+02-6.78277E+02-2.54653E+02-2.71296E+02-8.58156E-14 3.11550E-15
 -1       207-8.55351E+01-6.11282E+02-2.10279E+02-1.99175E+02 3.36240E-14-3.58430E-15
 -1       208-3.94212E+01-5.32790E+02-1.72558E+02-1.40816E+02 1.84018E-14-1.61454E-15
 -1       209-1.28717E+01-4.57612E+02-1.41788E+02-9.86014E+01-9.16012E-14 1.67563E-15
 -1       210 2.46831E+00-3.91617E+02-1.17209E+02-6.91695E+01 2.80830E-14-1.95581E-16
 -1       211 1.14307E+01-3.35806E+02-9.76522E+01-4.88302E+01-2.33015E-14-2.96941E-15
 -1       212 1.67458E+01-2.89267E+02-8.20089E+01-3.47190E+01-2.24796E-14 1.01490E-17
 -1       213 1.99515E+01-2.50579E+02-6.93791E+01-2.48395E+01 1.72925E-15-2.87636E-16
 -1       214 2.19180E+01-2.18357E+02-5.90780E+01-1.78482E+01-2.33386E-14-1.02208E-15
 -1       215 2.31442E+01-1.91417E+02-5.05958E+01-1.28480E+01-7.32160E-15 3.45815E-16
 -1       216 2.39204E+01-1.68801E+02-4.35542E+01-9.23705E+00-3.74964E-15-1.21874E-16
 -1       217 2.44185E+01-1.49750E+02-3.76717E+01-6.60794E+00-1.36536E-14 2.88032E-16
 -1       218 2.47421E+01-1.33672E+02-3.27375E+01-4.68122E+00 1.46501E-14 6.84470E-16
 -1       219 2.49544E+01-1.20104E+02-2.85931E+01-3.26298E+00-5.56283E-14-9.01172E-16
 -1       220 2.50944E+01-1.08694E+02-2.51203E+01-2.21719E+00 3.70073E-14 3.62154E-16
 -1       221 2.51861E+01-9.91785E+01-2.22323E+01-1.44756E+00-1.21434E-14 6.25660E-19
 -1       222 2.52436E+01-9.13746E+01-1.98693E+01-8.85713E-01-4.79627E-15-1.24873E-16
 -1       223 2.52730E+01-8.51764E+01-1.79977E+01-4.83386E-01-9.62235E-15-1.57027E-16
 -1       224 2.52820E+01-8.05571E+01-1.66068E+01-2.07498E-01 1.41790E-14 4.96620E-17
 -1       225 2.51384E+01-7.76422E+01-1.57739E+01-3.39364E-02-1.17482E-14 9.46931E-19
 -1       226-3.67536E+02-1.31292E+02-1.50375E+02-2.00622E+02 5.48018E-14-6.52938E-15
 -1       227-2.89937E+02-2.68407E+02-1.68398E+02-2.86520E+02-6.94415E-15-4.58582E-16
 -1       228-1.98706E+02-3.85350E+02-1.76152E+02-2.81523E+02-1.99408E-14-6.67097E-15
 -1       229-1.21517E+02-4.27710E+02-1.65605E+02-2.34551E+02 1.68147E-14 1.64069E-15
 -1       230-6.75804E+01-4.22130E+02-1.47599E+02-1.81244E+02-1.74186E-14 2.04667E-15
 -1       231-3.25291E+01-3.92084E+02-1.27920E+02-1.34879E+02 2.33242E-14 3.44292E-15
 -1       232-1.05284E+01-3.52932E+02-1.09448E+02-9.86556E+01 2.86666E-14 1.59335E-15
 -1       233 3.07880E+00-3.12844E+02-9.32413E+01-7.16718E+01 5.28992E-14 3.92181E-15
 -1       234 1.14619E+01-2.75516E+02-7.94541E+01-5.19800E+01-1.20028E-14-2.31382E-15
 -1       235 1.66393E+01-2.42269E+02-6.78718E+01-3.77067E+01 7.58769E-15 9.39085E-16
 -1       236 1.98556E+01-2.13297E+02-5.81743E+01-2.73589E+01-4.23443E-14-5.63286E-15
 -1       237 2.18684E+01-1.88320E+02-5.00470E+01-1.98310E+01-3.08330E-14 9.41776E-16
 -1       238 2.31377E+01-1.66902E+02-4.32180E+01-1.43283E+01 9.21364E-15-9.56592E-16
 -1       239 2.39437E+01-1.48588E+02-3.74648E+01-1.02867E+01-3.07954E-14-1.14714E-15
 -1       240 2.44587E+01-1.32965E+02-3.26100E+01-7.30619E+00-1.78002E-14-3.91353E-16
 -1       241 2.47891E+01-1.19679E+02-2.85150E+01-5.10224E+00 5.18465E-14 2.22788E-16
 -1       242 2.50012E+01-1.08443E+02-2.50729E+01-3.47167E+00-1.68837E-14-8.23187E-16
 -1       243 2.51362E+01-9.90348E+01-2.22041E+01-2.26882E+00 4.99484E-14 3.93778E-16
 -1       244 2.52190E+01-9.12957E+01-1.98530E+01-1.38922E+00 1.52639E-14 1.76345E-16
 -1       245 2.52626E+01-8.51359E+01-1.79886E+01-7.58594E-01-1.60714E-14-1.27566E-16
 -1       246 2.52792E+01-8.05383E+01-1.66020E+01-3.25808E-01-2.07258E-14 1.54171E-17
 -1       247 2.51407E+01-7.76331E+01-1.57705E+01-5.34002E-02-8.50124E-16 8.58690E-17
 -1       248-2.46679E+02-6.26448E+01-9.30382E+01-8.67689E+01-4.63454E-14-4.11749E-15
 -1       249-2.72277E+02-1.11146E+02-1.15468E+02-1.73457E+02 5.75855E-14-3.64396E-16
 -1       250-2.16267E+02-1.93325E+02-1.23396E+02-2.19574E+02-5.90543E-14-8.90215E-16
 -1       251-1.51135E+02-2.65325E+02-1.25466E+02-2.17713E+02-1.19810E-14-2.65170E-15
 -1       252-9.58448E+01-3.03750E+02-1.20364E+02-1.89585E+02-1.06887E-14 5.27357E-15
 -1       253-5.49557E+01-3.12433E+02-1.10633E+02-1.53527E+02-4.61680E-14-3.81226E-15
 -1       254-2.67389E+01-3.01598E+02-9.88431E+01-1.19205E+02 8.15780E-15 1.42759E-15
 -1       255-8.02761E+00-2.80479E+02-8.68258E+01-9.03327E+01-4.76902E-14-3.44960E-16
 -1       256 4.10149E+00-2.55311E+02-7.55796E+01-6.74981E+01-2.16143E-14 2.36459E-15
 -1       257 1.18674E+01-2.29700E+02-6.55210E+01-5.00114E+01 4.48854E-14 1.95134E-15
 -1       258 1.68109E+01-2.05486E+02-5.67380E+01-3.68390E+01 1.92443E-14-3.61156E-16
 -1       259 1.99514E+01-1.83471E+02-4.91636E+01-2.69932E+01 8.21283E-15 2.89472E-16
 -1       260 2.19465E+01-1.63898E+02-4.26719E+01-1.96560E+01-2.43237E-15 1.87482E-16
 -1       261 2.32147E+01-1.46736E+02-3.71265E+01-1.41916E+01-6.57152E-16 6.31303E-16
 -1       262 2.40209E+01-1.31832E+02-3.24008E+01-1.01211E+01 7.61668E-15 5.52490E-16
 -1       263 2.45328E+01-1.18995E+02-2.83863E+01-7.08910E+00-3.90848E-15 6.70917E-16
 -1       264 2.48563E+01-1.08038E+02-2.49947E+01-4.83404E+00-3.67848E-14 2.88750E-16
 -1       265 2.50585E+01-9.88022E+01-2.21575E+01-3.16414E+00 4.75229E-15 1.63490E-16
 -1       266 2.51807E+01-9.11679E+01-1.98260E+01-1.93965E+00-2.19429E-14 2.65027E-16
 -1       267 2.52466E+01-8.50702E+01-1.79737E+01-1.06007E+00 2.69878E-15 1.55351E-16
 -1       268 2.52750E+01-8.05078E+01-1.65941E+01-4.55650E-01-2.16416E-16 4.30879E-16
 -1       269 2.51446E+01-7.76185E+01-1.57649E+01-7.48763E-02 1.00682E-14 2.05147E-17
 -1       270-1.28241E+02-2.08791E+01-4.47945E+01-3.94034E+01 1.59142E-14 3.36241E-15
 -1       271-2.01733E+02-5.53690E+01-7.73146E+01-9.55658E+01-9.32843E-14-4.12856E-15
 -1       272-1.99716E+02-1.01684E+02-9.06930E+01-1.47110E+02 1.17790E-13 5.27674E-16
 -1       273-1.61447E+02-1.57180E+02-9.59050E+01-1.72678E+02-2.80386E-14-2.14180E-15
 -1       274-1.15775E+02-2.04644E+02-9.64503E+01-1.71445E+02 1.51985E-14-1.95404E-15
 -1       275-7.52036E+01-2.33875E+02-9.30291E+01-1.53275E+02 4.45874E-14 1.22894E-15
 -1       276-4.36064E+01-2.44655E+02-8.67490E+01-1.28135E+02-4.87475E-15 4.85414E-15
 -1       277-2.07299E+01-2.41425E+02-7.88768E+01-1.02545E+02 3.15860E-14 9.10916E-17
 -1       278-4.89902E+00-2.29424E+02-7.04878E+01-7.97468E+01-5.55341E-14-2.38038E-15
 -1       279 5.74257E+00-2.12896E+02-6.23020E+01-6.08326E+01-3.69479E-14 1.77191E-15
 -1       280 1.27620E+01-1.94722E+02-5.47145E+01-4.57692E+01 3.79994E-14 4.11327E-15
 -1       281 1.73352E+01-1.76640E+02-4.78941E+01-3.40575E+01-4.69271E-15-2.72643E-15
 -1       282 2.02897E+01-1.59600E+02-4.18764E+01-2.50800E+01 1.87397E-14 3.93480E-15
 -1       283 2.21865E+01-1.44055E+02-3.66289E+01-1.82566E+01 2.42015E-14-5.47359E-16
 -1       284 2.33972E+01-1.30179E+02-3.20909E+01-1.30982E+01 1.35658E-14 1.94756E-16
 -1       285 2.41649E+01-1.17991E+02-2.81949E+01-9.21455E+00 2.86387E-14-1.15158E-15
 -1       286 2.46474E+01-1.07441E+02-2.48780E+01-6.30342E+00-2.16406E-15-5.84889E-16
 -1       287 2.49461E+01-9.84582E+01-2.20877E+01-4.13549E+00 2.01236E-14 9.48582E-16
 -1       288 2.51254E+01-9.09783E+01-1.97857E+01-2.53938E+00-1.79867E-14-3.98967E-16
 -1       289 2.52236E+01-8.49727E+01-1.79513E+01-1.38959E+00-1.36828E-14-4.43791E-18
 -1       290 2.52689E+01-8.04626E+01-1.65823E+01-5.97971E-01 1.63675E-14-1.84411E-16
 -1       291 2.51503E+01-7.75968E+01-1.57567E+01-9.86096E-02-2.34558E-14-2.18197E-16
 -1       292-7.49956E+01-9.00307E+00-2.52186E+01-2.18495E+01-2.77836E-14 1.15027E-14
 -1       293-1.34581E+02-2.74458E+01-4.86812E+01-5.50017E+01 2.80185E-14-9.43554E-15
 -1       294-1.59269E+02-5.65615E+01-6.48845E+01-9.43409E+01-1.40586E-14 8.18513E-15
 -1       295-1.49865E+02-9.41189E+01-7.33768E+01-1.25573E+02 7.39004E-14 3.81263E-15
 -1       296-1.21729E+02-1.34011E+02-7.69293E+01-1.40287E+02-4.12824E-14-4.36682E-15
 -1       297-8.85427E+01-1.67693E+02-7.70844E+01-1.38611E+02-3.17712E-14-1.74409E-16
 -1       298-5.80423E+01-1.89890E+02-7.45841E+01-1.25626E+02-1.02812E-14-3.32707E-15
 -1       299-3.33083E+01-1.99847E+02-7.01321E+01-1.07119E+02-7.89075E-15-2.19514E-15
 -1       300-1.47076E+01-1.99676E+02-6.44770E+01-8.74653E+01 1.13418E-14 3.76872E-15
 -1       301-1.39778E+00-1.92462E+02-5.82958E+01-6.92268E+01 2.92301E-14 3.87354E-17
 -1       302 7.80516E+00-1.81079E+02-5.20975E+01-5.35422E+01-3.21779E-14 8.25878E-16
 -1       303 1.40150E+01-1.67717E+02-4.62065E+01-4.06670E+01-5.40955E-15 4.14297E-15
 -1       304 1.81305E+01-1.53858E+02-4.07978E+01-3.04053E+01-2.46541E-14-2.16478E-17
 -1       305 2.08198E+01-1.40416E+02-3.59448E+01-2.23824E+01-4.32332E-15-2.84383E-15
 -1       306 2.25561E+01-1.27908E+02-3.16606E+01-1.61913E+01-1.62266E-14 2.33294E-15
 -1       307 2.36636E+01-1.16600E+02-2.79271E+01-1.14598E+01-3.73003E-14 1.05694E-17
 -1       308 2.43606E+01-1.06609E+02-2.47139E+01-7.87423E+00 3.57935E-14 1.24201E-15
 -1       309 2.47910E+01-9.79761E+01-2.19894E+01-5.18284E+00-1.37373E-14-2.97084E-16
 -1       310 2.50486E+01-9.07118E+01-1.97286E+01-3.19004E+00-1.04599E-14 1.05010E-16
 -1       311 2.51915E+01-8.48353E+01-1.79196E+01-1.74873E+00 1.39949E-14 1.05449E-16
 -1       312 2.52605E+01-8.03989E+01-1.65657E+01-7.53718E-01 2.20576E-15-3.14881E-16
 -1       313 2.51582E+01-7.75664E+01-1.57452E+01-1.24886E-01 2.75872E-15-1.54353E-16
 -1       314-4.74393E+01-4.45309E+00-1.55751E+01-1.36208E+01 9.46020E-15-3.25665E-15
 -1       315-9.06844E+01-1.48686E+01-3.16973E+01-3.42302E+01-4.60198E-14-5.69664E-16
 -1       316-1.18605E+02-3.25886E+01-4.54240E+01-6.13970E+01-1.68806E-14-9.05046E-15
 -1       317-1.25736E+02-5.76931E+01-5.51293E+01-8.83961E+01-9.61594E-15 3.49202E-15
 -1       318-1.14541E+02-8.75711E+01-6.07612E+01-1.08129E+02 3.00171E-15-4.11051E-15
 -1       319-9.26394E+01-1.17582E+02-6.32098E+01-1.16739E+02 1.09623E-14 2.30884E-15
 -1       320-6.74511E+01-1.42768E+02-6.32139E+01-1.14520E+02 3.11224E-14 5.22567E-15
 -1       321-4.38621E+01-1.59994E+02-6.13004E+01-1.04419E+02 4.77210E-14-1.53683E-15
 -1       322-2.41905E+01-1.68562E+02-5.79585E+01-9.00538E+01-5.99748E-14 3.40641E-15
 -1       323-8.97760E+00-1.69579E+02-5.36853E+01-7.44382E+01-3.15156E-14 2.40227E-15
 -1       324 2.18364E+00-1.64980E+02-4.89418E+01-5.95487E+01 3.18715E-14-2.61446E-15
 -1       325 1.00636E+01-1.56765E+02-4.40984E+01-4.64119E+01 1.46850E-14 4.24233E-15
 -1       326 1.54675E+01-1.46602E+02-3.94149E+01-3.53849E+01 2.44174E-14-2.75118E-15
 -1       327 1.90891E+01-1.35715E+02-3.50508E+01-2.64325E+01-3.17483E-14-1.96091E-15
 -1       328 2.14696E+01-1.24927E+02-3.10904E+01-1.93312E+01 4.82393E-15 1.18963E-15
 -1       329 2.30065E+01-1.14752E+02-2.75688E+01-1.37934E+01 4.30596E-14-2.20901E-16
 -1       330 2.39804E+01-1.05494E+02-2.44927E+01-9.53446E+00-6.30339E-14-2.43083E-15
 -1       331 2.45839E+01-9.73262E+01-2.18562E+01-6.30318E+00 2.84893E-14 1.66728E-15
 -1       332 2.49456E+01-9.03509E+01-1.96510E+01-3.89209E+00-3.55701E-15 4.79329E-16
 -1       333 2.51484E+01-8.46487E+01-1.78764E+01-2.13872E+00-9.11133E-15-9.94077E-16
 -1       334 2.52492E+01-8.03124E+01-1.65431E+01-9.23799E-01-1.46862E-14 3.53182E-16
 -1       335 2.51691E+01-7.75252E+01-1.57296E+01-1.54038E-01 2.94868E-14 2.27808E-17
 -1       336-3.17169E+01-2.60862E+00-1.03010E+01-9.28000E+00 5.23467E-15 7.07892E-16
 -1       337-6.25958E+01-8.81269E+00-2.14371E+01-2.27811E+01-2.35735E-14 1.01867E-14
 -1       338-8.68204E+01-1.98426E+01-3.20318E+01-4.14008E+01 1.23520E-14-3.82238E-15
 -1       339-9.97391E+01-3.64212E+01-4.09031E+01-6.22223E+01-5.42875E-15 4.57631E-16
 -1       340-9.95965E+01-5.78702E+01-4.73163E+01-8.10112E+01-2.06031E-14 3.89823E-15
 -1       341-8.84617E+01-8.19339E+01-5.12118E+01-9.38717E+01 8.26601E-14 4.29492E-15
 -1       342-7.07347E+01-1.05339E+02-5.29257E+01-9.88187E+01-2.84835E-15-6.62750E-16
 -1       343-5.08879E+01-1.24905E+02-5.28449E+01-9.61594E+01-1.97490E-14-2.12995E-15
 -1       344-3.21505E+01-1.38578E+02-5.13233E+01-8.77830E+01-8.98149E-15-3.19399E-15
 -1       345-1.62464E+01-1.45794E+02-4.87103E+01-7.61107E+01 3.12505E-14-4.15197E-15
 -1       346-3.70964E+00-1.47193E+02-4.53597E+01-6.33000E+01 9.13112E-15-5.51785E-16
 -1       347 5.64904E+00-1.44069E+02-4.16048E+01-5.08819E+01-3.85985E-15 1.21250E-16
 -1       348 1.23499E+01-1.37873E+02-3.77257E+01-3.97362E+01-1.96304E-14-2.33691E-16
 -1       349 1.69910E+01-1.29900E+02-3.39319E+01-3.02350E+01-1.33612E-14 5.95764E-15
 -1       350 2.01178E+01-1.21161E+02-3.03637E+01-2.24232E+01-1.89237E-15-3.25663E-15
 -1       351 2.21728E+01-1.12380E+02-2.71060E+01-1.61683E+01-1.51461E-14-4.90013E-17
 -1       352 2.34911E+01-1.04046E+02-2.42043E+01-1.12637E+01-5.08746E-15 1.62844E-16
 -1       353 2.43142E+01-9.64750E+01-2.16813E+01-7.48946E+00-3.49941E-14-2.61745E-15
 -1       354 2.48104E+01-8.98755E+01-1.95487E+01-4.64427E+00 2.78411E-14 1.53710E-16
 -1       355 2.50913E+01-8.44020E+01-1.78194E+01-2.56020E+00 2.99457E-15-1.55629E-16
 -1       356 2.52341E+01-8.01978E+01-1.65132E+01-1.10902E+00-5.30206E-17-6.61985E-16
 -1       357 2.51833E+01-7.74708E+01-1.57090E+01-1.86457E-01 6.21442E-15 6.61867E-16
 -1       358-2.19978E+01-1.73665E+00-7.12196E+00-6.72971E+00-3.56821E-15 4.26490E-15
 -1       359-4.42556E+01-5.74210E+00-1.50065E+01-1.60522E+01 3.01224E-14-3.32268E-15
 -1       360-6.36040E+01-1.28599E+01-2.29562E+01-2.90318E+01-1.92095E-14 1.69659E-15
 -1       361-7.70747E+01-2.39208E+01-3.03289E+01-4.45073E+01 2.04101E-14 1.99368E-17
 -1       362-8.23648E+01-3.90502E+01-3.64696E+01-6.02605E+01 3.24827E-14 4.03810E-15
 -1       363-7.89902E+01-5.74002E+01-4.09761E+01-7.35525E+01-4.24488E-14-3.33674E-15
 -1       364-6.85160E+01-7.71509E+01-4.37703E+01-8.20613E+01-1.96310E-15 9.15421E-15
 -1       365-5.37611E+01-9.59481E+01-4.49901E+01-8.46743E+01 3.76904E-14-4.94611E-16
 -1       366-3.76508E+01-1.11597E+02-4.48546E+01-8.16825E+01 5.15659E-15 3.03538E-15
 -1       367-2.24236E+01-1.22663E+02-4.36051E+01-7.44003E+01 2.71336E-14 1.44985E-15
 -1       368-9.37202E+00-1.28703E+02-4.14975E+01-6.45504E+01-3.90071E-15 5.00291E-15
 -1       369 1.03717E+00-1.30125E+02-3.87952E+01-5.37395E+01-2.68869E-14-7.88633E-16
 -1       370 8.88975E+00-1.27854E+02-3.57514E+01-4.31727E+01 3.20194E-15-2.40743E-16
 -1       371 1.45556E+01-1.22990E+02-3.25853E+01-3.35917E+01 1.40560E-14 9.34699E-16
 -1       372 1.84949E+01-1.16566E+02-2.94693E+01-2.53474E+01-2.31254E-14 3.14135E-15
 -1       373 2.11462E+01-1.09428E+02-2.65265E+01-1.85199E+01 1.02242E-14-1.85134E-15
 -1       374 2.28768E+01-1.02216E+02-2.38386E+01-1.30311E+01-8.86118E-15 2.06851E-16
 -1       375 2.39709E+01-9.53877E+01-2.14574E+01-8.72922E+00-8.91686E-15-2.86996E-15
 -1       376 2.46363E+01-8.92635E+01-1.94170E+01-5.44293E+00-3.02045E-15 2.11330E-16
 -1       377 2.50172E+01-8.40828E+01-1.77457E+01-3.01296E+00-5.77401E-16 1.00292E-15
 -1       378 2.52143E+01-8.00493E+01-1.64745E+01-1.31002E+00 1.86722E-15 5.05304E-16
 -1       379 2.52015E+01-7.74006E+01-1.56824E+01-2.22593E-01-7.07973E-15 1.91634E-16
 -1       380-1.56713E+01-1.29653E+00-5.09122E+00-5.11463E+00 5.21298E-14-5.58356E-16
 -1       381-3.19097E+01-4.07833E+00-1.08002E+01-1.18464E+01-2.77170E-15 1.81820E-15
 -1       382-4.69203E+01-8.90436E+00-1.67565E+01-2.11371E+01-1.81312E-14-4.55439E-15
 -1       383-5.89251E+01-1.64599E+01-2.26324E+01-3.25719E+01 1.30796E-14 2.42553E-15
 -1       384-6.61153E+01-2.71410E+01-2.80034E+01-4.50808E+01-2.03811E-14-6.44720E-15
 -1       385-6.73076E+01-4.08092E+01-3.24719E+01-5.70127E+01 1.63210E-14 3.42018E-15
 -1       386-6.24766E+01-5.66330E+01-3.57794E+01-6.65207E+01-1.30754E-14-1.20337E-14
 -1       387-5.28147E+01-7.31558E+01-3.78455E+01-7.21261E+01 5.12068E-15 5.53613E-15
 -1       388-4.02707E+01-8.86208E+01-3.87271E+01-7.31693E+01-3.78226E-14 1.63813E-15
 -1       389-2.68850E+01-1.01430E+02-3.85563E+01-6.99236E+01 2.54117E-16 2.72154E-15
 -1       390-1.42773E+01-1.10530E+02-3.75037E+01-6.33682E+01-2.52689E-14-3.47613E-15
 -1       391-3.43168E+00-1.15578E+02-3.57620E+01-5.47961E+01-2.98532E-14-5.30342E-15
 -1       392 5.26502E+00-1.16867E+02-3.35353E+01-4.54498E+01-9.27058E-15 3.80098E-16
 -1       393 1.18543E+01-1.15099E+02-3.10233E+01-3.62976E+01 1.41399E-14-5.49860E-15
 -1       394 1.66161E+01-1.11145E+02-2.84037E+01-2.79639E+01-5.61731E-15-1.54624E-15
 -1       395 1.99186E+01-1.05858E+02-2.58217E+01-2.07652E+01-1.07064E-14 1.23910E-15
 -1       396 2.21240E+01-9.99616E+01-2.33868E+01-1.47935E+01 1.84155E-14 1.72058E-15
 -1       397 2.35421E+01-9.40289E+01-2.11777E+01-1.00031E+01 1.10458E-14 2.39868E-15
 -1       398 2.44156E+01-8.84910E+01-1.92510E+01-6.28112E+00-9.32275E-15-4.37561E-15
 -1       399 2.49221E+01-8.36774E+01-1.76524E+01-3.49548E+00 1.00212E-14-2.51993E-16
 -1       400 2.51884E+01-7.98603E+01-1.64255E+01-1.52708E+00 2.05306E-14-8.38741E-16
 -1       401 2.52244E+01-7.73116E+01-1.56488E+01-2.62960E-01-5.08957E-14 7.44224E-16
 -1       402-1.13860E+01-1.05747E+00-3.73352E+00-4.02663E+00 5.01685E-15 3.05671E-15
 -1       403-2.33707E+01-3.12646E+00-7.95122E+00-9.07633E+00-9.11028E-15 3.04356E-15
 -1       404-3.48915E+01-6.57307E+00-1.24445E+01-1.59151E+01-5.39594E-15 1.09278E-15
 -1       405-4.49032E+01-1.19110E+01-1.70539E+01-2.44365E+01 2.99182E-15-2.09342E-15
 -1       406-5.21680E+01-1.95573E+01-2.15333E+01-3.41598E+01-3.17529E-14 4.07365E-15
 -1       407-5.55651E+01-2.96775E+01-2.55957E+01-4.41748E+01 2.87574E-14-3.19128E-15
 -1       408-5.44648E+01-4.20144E+01-2.89741E+01-5.32397E+01 9.20342E-15 3.95194E-15
 -1       409-4.90167E+01-5.58077E+01-3.14847E+01-6.00557E+01-6.85054E-15-1.94235E-15
 -1       410-4.01567E+01-6.98753E+01-3.30528E+01-6.36315E+01 1.19155E-14 5.76904E-15
 -1       411-2.93141E+01-8.28570E+01-3.36985E+01-6.35653E+01 3.59890E-14-4.14824E-15
 -1       412-1.79879E+01-9.35376E+01-3.35068E+01-6.01173E+01-8.98428E-15-4.66219E-15
 -1       413-7.39376E+00-1.01118E+02-3.26028E+01-5.40609E+01 3.00650E-14 7.08882E-15
 -1       414 1.70717E+00-1.05338E+02-3.11369E+01-4.64132E+01 3.41980E-15 3.09556E-15
 -1       415 9.00370E+00-1.06430E+02-2.92727E+01-3.81691E+01-5.16059E-14-6.53532E-15
 -1       416 1.45239E+01-1.04964E+02-2.71734E+01-3.01236E+01 2.25767E-14-1.29362E-15
 -1       417 1.84948E+01-1.01663E+02-2.49880E+01-2.28053E+01-6.33620E-15 2.89706E-15
 -1       418 2.12233E+01-9.72502E+01-2.28421E+01-1.64945E+01-2.81257E-14-8.18093E-15
 -1       419 2.30166E+01-9.23662E+01-2.08356E+01-1.12835E+01-6.39227E-15 3.06404E-15
 -1       420 2.41400E+01-8.75338E+01-1.90460E+01-7.14758E+00 1.98149E-14 2.82272E-15
 -1       421 2.48013E+01-8.31711E+01-1.75365E+01-4.00447E+00-3.06481E-14-3.61354E-15
 -1       422 2.51548E+01-7.96235E+01-1.63644E+01-1.76003E+00 1.19315E-14-3.82316E-16
 -1       423 2.52524E+01-7.72009E+01-1.56071E+01-3.08124E-01-1.00702E-15-7.83399E-16
 -1       424-8.39378E+00-9.20987E-01-2.79471E+00-3.25603E+00-3.73168E-15-4.38933E-15
 -1       425-1.73243E+01-2.55440E+00-5.96479E+00-7.16501E+00 3.88214E-14 1.37812E-15
 -1       426-2.61365E+01-5.14584E+00-9.38762E+00-1.23359E+01 3.27939E-14-2.93080E-15
 -1       427-3.42151E+01-9.06549E+00-1.29898E+01-1.87809E+01 1.84422E-15 1.19196E-15
 -1       428-4.07577E+01-1.46686E+01-1.66373E+01-2.63061E+01 1.17115E-14 1.16016E-15
 -1       429-4.49042E+01-2.22119E+01-2.01490E+01-3.44416E+01-2.10544E-15 2.14524E-15
 -1       430-4.59361E+01-3.17267E+01-2.33185E+01-4.24293E+01 4.77330E-15 7.55370E-16
 -1       431-4.35184E+01-4.29071E+01-2.59529E+01-4.93148E+01-3.17886E-14-3.28604E-15
 -1       432-3.78686E+01-5.50712E+01-2.79125E+01-5.41505E+01 1.39912E-14-2.71394E-15
 -1       433-2.97458E+01-6.72387E+01-2.91304E+01-5.62459E+01-2.06194E-14 3.40771E-15
 -1       434-2.02504E+01-7.83213E+01-2.96098E+01-5.53583E+01-1.03315E-14 3.30917E-15
 -1       435-1.05310E+01-8.73633E+01-2.94082E+01-5.17406E+01-1.40887E-14-1.45041E-16
 -1       436-1.52852E+00-9.37435E+01-2.86218E+01-4.60351E+01 3.81400E-15-8.99631E-15
 -1       437 6.16046E+00-9.72702E+01-2.73721E+01-3.90761E+01 1.46795E-14 2.08345E-15
 -1       438 1.22920E+01-9.81507E+01-2.57950E+01-3.16859E+01-1.12220E-14-4.94806E-15
 -1       439 1.68970E+01-9.68749E+01-2.40283E+01-2.45314E+01 1.87708E-14 6.93077E-15
 -1       440 2.01726E+01-9.40690E+01-2.22012E+01-1.80650E+01-4.14823E-15-1.75870E-15
 -1       441 2.23849E+01-9.03737E+01-2.04263E+01-1.25332E+01-1.59141E-14 6.82861E-16
 -1       442 2.38007E+01-8.63689E+01-1.87977E+01-8.02563E+00-6.09907E-15-9.73338E-16
 -1       443 2.46495E+01-8.25486E+01-1.73950E+01-4.53419E+00 4.04260E-14 1.15057E-15
 -1       444 2.51112E+01-7.93316E+01-1.62897E+01-2.00791E+00-2.19122E-14-2.23777E-15
 -1       445 2.52859E+01-7.70656E+01-1.55564E+01-3.58674E-01-4.43867E-15 7.32250E-17
 -1       446-6.25301E+00-8.39752E-01-2.12800E+00-2.68708E+00 1.64392E-14-3.48945E-15
 -1       447-1.29569E+01-2.19599E+00-4.54655E+00-5.79136E+00 1.12204E-14 5.40927E-15
 -1       448-1.96917E+01-4.24026E+00-7.18131E+00-9.79727E+00-1.98665E-14 3.43734E-15
 -1       449-2.60928E+01-7.23692E+00-1.00023E+01-1.47558E+01-2.04905E-14-1.80436E-15
 -1       450-3.16503E+01-1.14646E+01-1.29402E+01-2.06064E+01 1.48096E-14 2.30175E-15
 -1       451-3.57589E+01-1.71773E+01-1.58897E+01-2.71222E+01-1.23373E-15-1.17794E-15
 -1       452-3.78069E+01-2.45249E+01-1.87122E+01-3.38699E+01 1.88660E-14 3.61542E-15
 -1       453-3.73228E+01-3.34595E+01-2.12516E+01-4.02164E+01 8.52380E-16-3.57649E-15
 -1       454-3.41389E+01-4.36590E+01-2.33607E+01-4.54111E+01 2.53203E-14 4.76345E-15
 -1       455-2.84981E+01-5.45109E+01-2.49282E+01-4.87410E+01-2.83829E-14-2.03938E-15
 -1       456-2.10363E+01-6.51837E+01-2.58951E+01-4.97129E+01 2.82017E-14 1.52838E-15
 -1       457-1.26352E+01-7.47813E+01-2.62567E+01-4.81898E+01-5.26756E-15 7.73510E-15
 -1       458-4.20609E+00-8.25318E+01-2.60547E+01-4.44229E+01 3.14233E-14-5.71186E-15
 -1       459 3.50430E+00-8.79455E+01-2.53661E+01-3.89698E+01-1.97746E-14 7.79460E-16
 -1       460 1.00242E+01-9.08905E+01-2.42931E+01-3.25407E+01 2.21584E-14-7.23287E-17
 -1       461 1.51687E+01-9.15702E+01-2.29524E+01-2.58355E+01-7.86483E-15-4.70625E-15
 -1       462 1.89802E+01-9.04297E+01-2.14651E+01-1.94263E+01-1.14788E-14 6.80112E-15
 -1       463 2.16407E+01-8.80361E+01-1.99470E+01-1.37053E+01 1.44704E-14 2.18957E-16
 -1       464 2.33889E+01-8.49765E+01-1.85028E+01-8.89209E+00-2.18500E-15-2.84971E-15
 -1       465 2.44602E+01-8.17956E+01-1.72254E+01-5.07562E+00-2.58578E-15 1.58198E-15
 -1       466 2.50547E+01-7.89769E+01-1.62001E+01-2.26863E+00-1.60265E-14-6.80291E-16
 -1       467 2.53248E+01-7.69032E+01-1.54960E+01-4.15161E-01 6.06912E-15 4.77179E-16
 -1       468-4.69082E+00-7.90088E-01-1.64438E+00-2.25210E+00-4.24782E-14 5.63642E-15
 -1       469-9.74849E+00-1.96345E+00-3.51400E+00-4.76792E+00-8.31690E-15 8.98049E-16
 -1       470-1.48938E+01-3.64695E+00-5.56325E+00-7.93741E+00 2.15353E-14 4.97110E-16
 -1       471-1.99081E+01-6.03028E+00-7.78357E+00-1.18182E+01 1.75570E-14 1.82795E-15
 -1       472-2.44693E+01-9.32478E+00-1.01418E+01-1.64080E+01 2.12570E-16 1.23885E-15
 -1       473-2.81681E+01-1.37485E+01-1.25805E+01-2.16074E+01 1.30134E-14 1.97532E-15
 -1       474-3.05411E+01-1.94814E+01-1.50149E+01-2.71820E+01 1.13205E-15 1.50898E-15
 -1       475-3.11450E+01-2.66015E+01-1.73352E+01-3.27393E+01 6.74148E-15 5.24796E-15
 -1       476-2.96666E+01-3.50125E+01-1.94184E+01-3.77455E+01-5.68564E-15-2.71999E-15
 -1       477-2.60399E+01-4.43903E+01-2.11473E+01-4.15970E+01 6.62261E-15 3.84799E-15
 -1       478-2.05159E+01-5.41793E+01-2.24303E+01-4.37443E+01-2.17626E-14-1.74791E-15
 -1       479-1.36435E+01-6.36588E+01-2.32154E+01-4.38310E+01 3.77091E-14-6.00452E-15
 -1       480-6.15290E+00-7.20728E+01-2.34947E+01-4.17959E+01-4.08846E-15 8.10957E-15
 -1       481 1.21156E+00-7.87853E+01-2.33005E+01-3.78939E+01 2.84349E-15-7.88694E-15
 -1       482 7.84571E+00-8.34089E+01-2.26980E+01-3.26283E+01-2.20388E-14 2.24554E-15
 -1       483 1.33756E+01-8.58667E+01-2.17762E+01-2.66246E+01-1.06999E-14-3.53513E-15
 -1       484 1.76685E+01-8.63729E+01-2.06394E+01-2.04959E+01 7.19316E-15-7.37260E-15
 -1       485 2.07836E+01-8.53532E+01-1.93978E+01-1.47440E+01-1.18194E-14 3.64154E-15
 -1       486 2.28966E+01-8.33428E+01-1.81594E+01-9.71655E+00-4.10720E-14-1.24987E-15
 -1       487 2.42263E+01-8.08990E+01-1.70261E+01-5.61568E+00 5.87450E-15 2.43680E-15
 -1       488 2.49816E+01-7.85529E+01-1.60946E+01-2.53850E+00 2.79379E-14 1.11439E-15
 -1       489 2.53682E+01-7.67122E+01-1.54256E+01-4.77985E-01 1.10538E-14 6.71917E-16
 -1       490-3.53193E+00-7.59454E-01-1.28748E+00-1.90961E+00 1.57215E-14-1.03449E-15
 -1       491-7.35753E+00-1.80836E+00-2.75003E+00-3.98071E+00-1.35275E-14-1.99629E-15
 -1       492-1.12839E+01-3.24726E+00-4.35998E+00-6.53295E+00 1.58598E-14 4.39306E-15
 -1       493-1.51784E+01-5.21408E+00-6.11902E+00-9.61870E+00 9.64211E-15-5.72976E-15
 -1       494-1.88371E+01-7.86735E+00-8.01354E+00-1.32582E+01 3.68502E-15-5.30299E-15
 -1       495-2.19880E+01-1.13833E+01-1.00149E+01-1.74162E+01-1.90300E-14 5.82402E-15
 -1       496-2.42998E+01-1.59323E+01-1.20749E+01-2.19729E+01-4.43608E-15-5.69839E-16
 -1       497-2.54132E+01-2.16407E+01-1.41236E+01-2.66970E+01-1.19260E-14-9.54761E-15
 -1       498-2.50021E+01-2.85363E+01-1.60716E+01-3.12345E+01 2.62510E-14 3.22325E-15
 -1       499-2.28602E+01-3.64920E+01-1.78186E+01-3.51289E+01-1.35833E-14 3.97828E-15
 -1       500-1.89864E+01-4.51867E+01-1.92679E+01-3.78858E+01 2.76323E-15-6.43631E-16
 -1       501-1.36344E+01-5.41099E+01-2.03421E+01-3.90745E+01-6.68194E-15-3.07614E-15
 -1       502-7.28984E+00-6.26245E+01-2.09957E+01-3.84389E+01 8.73145E-15 5.06423E-15
 -1       503-5.75127E-01-7.00797E+01-2.12200E+01-3.59768E+01-2.21044E-14-6.95422E-15
 -1       504 5.88749E+00-7.59443E+01-2.10419E+01-3.19522E+01-1.73824E-14-7.45646E-15
 -1       505 1.16025E+01-7.99155E+01-2.05195E+01-2.68359E+01 6.77603E-15 3.84009E-15
 -1       506 1.62757E+01-8.19697E+01-1.97339E+01-2.11970E+01-1.97498E-15 4.87536E-15
 -1       507 1.98214E+01-8.23436E+01-1.87820E+01-1.55879E+01 4.99040E-15-2.88663E-15
 -1       508 2.23183E+01-8.14625E+01-1.77678E+01-1.04613E+01 2.27473E-14 4.35204E-15
 -1       509 2.39402E+01-7.98494E+01-1.67965E+01-6.13635E+00-8.03904E-16-5.36363E-15
 -1       510 2.48871E+01-7.80540E+01-1.59730E+01-2.81163E+00-1.17412E-14 2.32560E-15
 -1       511 2.54144E+01-7.64929E+01-1.53458E+01-5.47204E-01 1.11481E-16-7.58010E-16
 -1       512-2.66016E+00-7.40967E-01-1.02038E+00-1.63302E+00 1.22771E-14-3.01811E-15
 -1       513-5.55374E+00-1.70288E+00-2.17715E+00-3.35782E+00-2.20262E-14-3.52079E-15
 -1       514-8.54163E+00-2.97177E+00-3.45443E+00-5.44206E+00-6.98874E-15-3.88233E-15
 -1       515-1.15425E+01-4.64963E+00-4.85845E+00-7.92950E+00-2.39424E-14 6.11138E-15
 -1       516-1.44260E+01-6.85568E+00-6.38590E+00-1.08467E+01-4.84303E-15 3.71792E-15
 -1       517-1.70126E+01-9.72856E+00-8.02463E+00-1.41886E+01 1.35603E-15-6.47590E-15
 -1       518-1.90723E+01-1.34153E+01-9.74973E+00-1.78989E+01 2.10057E-14 5.79201E-15
 -1       519-2.03343E+01-1.80498E+01-1.15202E+01-2.18471E+01-2.23245E-15-6.57829E-15
 -1       520-2.05169E+01-2.37178E+01-1.32773E+01-2.58096E+01-9.27547E-15 1.14012E-15
 -1       521-1.93789E+01-3.04113E+01-1.49462E+01-2.94657E+01 1.24252E-14-5.67557E-16
 -1       522-1.67886E+01-3.79819E+01-1.64427E+01-3.24201E+01 2.58975E-14 8.12562E-16
 -1       523-1.27904E+01-4.61125E+01-1.76850E+01-3.42614E+01 8.45356E-15 6.68587E-15
 -1       524-7.63802E+00-5.43277E+01-1.86065E+01-3.46492E+01-2.43965E-15 2.93858E-15
 -1       525-1.77159E+00-6.20538E+01-1.91667E+01-3.34058E+01-7.52680E-15 3.68756E-15
 -1       526 4.26589E+00-6.87222E+01-1.93579E+01-3.05790E+01 1.39221E-14 4.06110E-16
 -1       527 9.94479E+00-7.38862E+01-1.92048E+01-2.64481E+01-2.62046E-14 2.79712E-16
 -1       528 1.48560E+01-7.73173E+01-1.87616E+01-2.14685E+01 1.57030E-14 3.96758E-15
 -1       529 1.87725E+01-7.90461E+01-1.81056E+01-1.61752E+01 5.96052E-15-5.64229E-15
 -1       530 2.16525E+01-7.93416E+01-1.73302E+01-1.10825E+01 2.67958E-15 1.53938E-15
 -1       531 2.35942E+01-7.86418E+01-1.65374E+01-6.61412E+00-2.29908E-14 4.80752E-16
 -1       532 2.47650E+01-7.74771E+01-1.58363E+01-3.07926E+00 2.31090E-14 2.36155E-15
 -1       533 2.54598E+01-7.62478E+01-1.52586E+01-6.22251E-01-5.82907E-14-1.16074E-15
 -1       534-1.99643E+00-7.30751E-01-8.18186E-01-1.40462E+00-2.29442E-14-2.14057E-15
 -1       535-4.17852E+00-1.63050E+00-1.74281E+00-2.85229E+00-2.90095E-14 5.68279E-15
 -1       536-6.44070E+00-2.77858E+00-2.76604E+00-4.57223E+00 1.89680E-14-3.26968E-15
 -1       537-8.73228E+00-4.25196E+00-3.89579E+00-6.59955E+00-4.46907E-15 1.99995E-15
 -1       538-1.09690E+01-6.14115E+00-5.13396E+00-8.96012E+00 7.13245E-15-9.36033E-16
 -1       539-1.30323E+01-8.55439E+00-6.47750E+00-1.16620E+01-6.37026E-15-4.04119E-15
 -1       540-1.47645E+01-1.16130E+01-7.91554E+00-1.46824E+01-3.25353E-15 8.47459E-15
 -1       541-1.59696E+01-1.54406E+01-9.42641E+00-1.79511E+01-7.14639E-15-2.87408E-15
 -1       542-1.64249E+01-2.01424E+01-1.09749E+01-2.13320E+01 8.62463E-15-1.01081E-15
 -1       543-1.59077E+01-2.57732E+01-1.25106E+01-2.46107E+01 2.48290E-15 1.29331E-14
 -1       544-1.42402E+01-3.22977E+01-1.39697E+01-2.74943E+01-1.15543E-14 2.58878E-15
 -1       545-1.13458E+01-3.95515E+01-1.52797E+01-2.96367E+01 1.04706E-14-5.89952E-15
 -1       546-7.30209E+00-4.72205E+01-1.63697E+01-3.06922E+01-1.69132E-14 1.05353E-15
 -1       547-2.36365E+00-5.48560E+01-1.71811E+01-3.03926E+01-9.95158E-15 1.08614E-14
 -1       548 3.06303E+00-6.19336E+01-1.76786E+01-2.86255E+01 8.44061E-15-1.88299E-15
 -1       549 8.49509E+00-6.79504E+01-1.78559E+01-2.54858E+01 1.37744E-14-6.02702E-15
 -1       550 1.34759E+01-7.25323E+01-1.77376E+01-2.12756E+01-1.49035E-14 4.56471E-15
 -1       551 1.76682E+01-7.55195E+01-1.73771E+01-1.64508E+01 6.35877E-15 7.23674E-16
 -1       552 2.09042E+01-7.69990E+01-1.68506E+01-1.15328E+01-1.50570E-15 2.89904E-15
 -1       553 2.31818E+01-7.72779E+01-1.62512E+01-7.02005E+00 1.12607E-14 4.94326E-15
 -1       554 2.46080E+01-7.68223E+01-1.56866E+01-3.32906E+00-2.69671E-14-2.29885E-15
 -1       555 2.54983E+01-7.59834E+01-1.51676E+01-7.01530E-01-7.57277E-16-1.11306E-15
 -1       556-1.48572E+00-7.26606E-01-6.63721E-01-1.21217E+00-1.28839E-14 1.58065E-15
 -1       557-3.12052E+00-1.58109E+00-1.41056E+00-2.43243E+00 2.63673E-14-9.73997E-16
 -1       558-4.81904E+00-2.64172E+00-2.23840E+00-3.86145E+00-1.48519E-14-1.04472E-15
 -1       559-6.54909E+00-3.96780E+00-3.15541E+00-5.52685E+00-1.28228E-14 8.31609E-15
 -1       560-8.25540E+00-5.62906E+00-4.16595E+00-7.45121E+00 1.85322E-14 3.11182E-15
 -1       561-9.85903E+00-7.71021E+00-5.27176E+00-9.64711E+00-5.53113E-15-5.70451E-15
 -1       562-1.12523E+01-1.03096E+01-6.47009E+00-1.21088E+01-8.23577E-15-1.69921E-15
 -1       563-1.22962E+01-1.35342E+01-7.75140E+00-1.48004E+01 4.97275E-15 5.76890E-15
 -1       564-1.28232E+01-1.74888E+01-9.09684E+00-1.76419E+01-1.08079E-14-6.07730E-15
 -1       565-1.26489E+01-2.22555E+01-1.04758E+01-2.04949E+01 5.91334E-15-2.59640E-15
 -1       566-1.15969E+01-2.78649E+01-1.18445E+01-2.31534E+01-2.71109E-14-1.07864E-14
 -1       567-9.53810E+00-3.42598E+01-1.31472E+01-2.53486E+01 2.93719E-14-2.24102E-15
 -1       568-6.43880E+00-4.12625E+01-1.43202E+01-2.67744E+01-5.08054E-15 3.74141E-15
 -1       569-2.40263E+00-4.85599E+01-1.53008E+01-2.71394E+01-1.19210E-14-3.58911E-15
 -1       570 2.31386E+00-5.57229E+01-1.60370E+01-2.62369E+01-3.23105E-14-2.08220E-15
 -1       571 7.32902E+00-6.22659E+01-1.64974E+01-2.40141E+01 5.97632E-15-3.08459E-15
 -1       572 1.22071E+01-6.77412E+01-1.66785E+01-2.06146E+01 4.18142E-17-9.98882E-15
 -1       573 1.65516E+01-7.18396E+01-1.66062E+01-1.63739E+01 9.28542E-15 3.53666E-15
 -1       574 2.00873E+01-7.44671E+01-1.63348E+01-1.17658E+01 1.09918E-14-6.67476E-15
 -1       575 2.26994E+01-7.57664E+01-1.59417E+01-7.32078E+00-9.96043E-15 1.15620E-15
 -1       576 2.44078E+01-7.60932E+01-1.55275E+01-3.54470E+00 5.50564E-14-5.16034E-15
 -1       577 2.55211E+01-7.57103E+01-1.50788E+01-7.81921E-01-3.03613E-14 2.27080E-15
 -1       578-1.08898E+00-7.27317E-01-5.44905E-01-1.04689E+00-5.31680E-15 3.78253E-15
 -1       579-2.30027E+00-1.54838E+00-1.15465E+00-2.07613E+00-3.47094E-14 3.89409E-15
 -1       580-3.55938E+00-2.54472E+00-1.83135E+00-3.26703E+00 1.83860E-14 7.89411E-15
 -1       581-4.84540E+00-3.76308E+00-2.58277E+00-4.64104E+00 1.16622E-14 1.57827E-15
 -1       582-6.12132E+00-5.25809E+00-3.41423E+00-6.21685E+00-1.54125E-14-3.11074E-16
 -1       583-7.33393E+00-7.09669E+00-4.32986E+00-8.00752E+00-1.88716E-14-3.73517E-15
 -1       584-8.40944E+00-9.35823E+00-5.33134E+00-1.00152E+01-2.48266E-16-3.30380E-15
 -1       585-9.25012E+00-1.21328E+01-6.41642E+00-1.22234E+01-6.12946E-15-4.95489E-15
 -1       586-9.73319E+00-1.55156E+01-7.57690E+00-1.45862E+01 5.85840E-15-3.10485E-15
 -1       587-9.71466E+00-1.95960E+01-8.79637E+00-1.70167E+01-1.40837E-14-5.70140E-15
 -1       588-9.04126E+00-2.44377E+01-1.00480E+01-1.93754E+01 1.88685E-14 1.22704E-15
 -1       589-7.57384E+00-3.00511E+01-1.12932E+01-2.14642E+01-1.22761E-14-2.60323E-15
 -1       590-5.22252E+00-3.63607E+01-1.24824E+01-2.30348E+01-3.77580E-16-5.14963E-15
 -1       591-1.98813E+00-4.31763E+01-1.35587E+01-2.38157E+01-1.21168E-14-6.80726E-15
 -1       592 2.00347E+00-5.01834E+01-1.44655E+01-2.35629E+01 6.76690E-15 8.64132E-15
 -1       593 6.49246E+00-5.69664E+01-1.51559E+01-2.21265E+01-8.59571E-15-1.68782E-15
 -1       594 1.11156E+01-6.30708E+01-1.56024E+01-1.95135E+01 4.11923E-15-8.75033E-16
 -1       595 1.54753E+01-6.80962E+01-1.58041E+01-1.59237E+01 7.50946E-15 9.38601E-15
 -1       596 1.92267E+01-7.17924E+01-1.57892E+01-1.17413E+01-9.56993E-15 8.11798E-15
 -1       597 2.21488E+01-7.41250E+01-1.56135E+01-7.48079E+00-4.39184E-15-8.63392E-16
 -1       598 2.41563E+01-7.52977E+01-1.53639E+01-3.70594E+00 1.81642E-14 3.80996E-15
 -1       599 2.55153E+01-7.54444E+01-1.50006E+01-8.58271E-01 3.54656E-14-1.25695E-15
 -1       600-7.78069E-01-7.32319E-01-4.53130E-01-9.02189E-01-8.64648E-15 6.35352E-15
 -1       601-1.66025E+00-1.52844E+00-9.56644E-01-1.76743E+00 7.94722E-15 3.31310E-15
 -1       602-2.57596E+00-2.47696E+00-1.51596E+00-2.75866E+00-4.65208E-15-5.63548E-15
 -1       603-3.51119E+00-3.61556E+00-2.13818E+00-3.89241E+00 1.88213E-14 3.11330E-15
 -1       604-4.44055E+00-4.98791E+00-2.82882E+00-5.18369E+00 3.81078E-16-1.53054E-15
 -1       605-5.32750E+00-6.64765E+00-3.59301E+00-6.64434E+00-2.33530E-14 4.92222E-15
 -1       606-6.12095E+00-8.65909E+00-4.43473E+00-8.27970E+00 1.03577E-14 3.39276E-15
 -1       607-6.75210E+00-1.10972E+01-5.35587E+00-1.00834E+01 5.19425E-15-9.46417E-15
 -1       608-7.13216E+00-1.40452E+01-6.35480E+00-1.20303E+01-7.22189E-15-2.64661E-15
 -1       609-7.15229E+00-1.75891E+01-7.42468E+00-1.40667E+01 7.27782E-15 1.10927E-14
 -1       610-6.68832E+00-2.18055E+01-8.55128E+00-1.61004E+01-7.10841E-15 4.75764E-15
 -1       611-5.61285E+00-2.67427E+01-9.71094E+00-1.79916E+01-1.98537E-15 5.50976E-15
 -1       612-3.81750E+00-3.23943E+01-1.08692E+01-1.95497E+01-6.23602E-15 2.36118E-15
 -1       613-1.24496E+00-3.86680E+01-1.19812E+01-2.05448E+01-9.15461E-15-7.17573E-15
 -1       614 2.07450E+00-4.53611E+01-1.29953E+01-2.07369E+01 2.12257E-14-1.64055E-15
 -1       615 5.99495E+00-5.21544E+01-1.38593E+01-1.99275E+01-1.94923E-14 7.97761E-15
 -1       616 1.02516E+01-5.86402E+01-1.45303E+01-1.80246E+01-1.53911E-14 4.44959E-15
 -1       617 1.44945E+01-6.43876E+01-1.49838E+01-1.51017E+01 1.46138E-14 2.01500E-15
 -1       618 1.83577E+01-6.90353E+01-1.52212E+01-1.14301E+01-1.80633E-15-1.43215E-15
 -1       619 2.15401E+01-7.23808E+01-1.52719E+01-7.46560E+00 1.70744E-14-2.67208E-15
 -1       620 2.38472E+01-7.44480E+01-1.52012E+01-3.78947E+00 1.73278E-14-1.77660E-16
 -1       621 2.54648E+01-7.52062E+01-1.49442E+01-9.23021E-01-1.35232E-14 2.07157E-15
 -1       622-5.32316E-01-7.41372E-01-3.82117E-01-7.72942E-01-6.13242E-15 2.46341E-15
 -1       623-1.15826E+00-1.51879E+00-8.03141E-01-1.49431E+00-1.45440E-14 1.31077E-14
 -1       624-1.80558E+00-2.43152E+00-1.27119E+00-2.31403E+00 1.57261E-14 1.97509E-15
 -1       625-2.46429E+00-3.51065E+00-1.79259E+00-3.24483E+00-1.23485E-15-7.05084E-15
 -1       626-3.11642E+00-4.79177E+00-2.37266E+00-4.29845E+00 2.02647E-14-1.38932E-15
 -1       627-3.73634E+00-6.31861E+00-3.01681E+00-5.48487E+00 1.20927E-14 9.01888E-16
 -1       628-4.28809E+00-8.14391E+00-3.73011E+00-6.81021E+00-1.50613E-14 3.46214E-15
 -1       629-4.72283E+00-1.03301E+01-4.51665E+00-8.27333E+00 1.43214E-14 1.01368E-14
 -1       630-4.97639E+00-1.29487E+01-5.37868E+00-9.86087E+00-3.58525E-15-1.77508E-15
 -1       631-4.96784E+00-1.60780E+01-6.31538E+00-1.15405E+01 4.19490E-15 3.84724E-15
 -1       632-4.60036E+00-1.97961E+01-7.32123E+00-1.32524E+01-2.48239E-14 6.98579E-15
 -1       633-3.76660E+00-2.41695E+01-8.38402E+00-1.49003E+01 2.95408E-15-1.18220E-17
 -1       634-2.36104E+00-2.92338E+01-9.48277E+00-1.63447E+01 5.72734E-15 4.85168E-15
 -1       635-3.01453E-01-3.49674E+01-1.05864E+01-1.74029E+01-8.16195E-15 3.05574E-15
 -1       636 2.44123E+00-4.12621E+01-1.16537E+01-1.78629E+01-1.25977E-15-5.24417E-16
 -1       637 5.81032E+00-4.79007E+01-1.26366E+01-1.75166E+01 1.34784E-14-2.06127E-15
 -1       638 9.64032E+00-5.45551E+01-1.34862E+01-1.62139E+01-4.46574E-15 7.98635E-16
 -1       639 1.36589E+01-6.08176E+01-1.41617E+01-1.39285E+01-2.33100E-14-6.51159E-15
 -1       640 1.75242E+01-6.62700E+01-1.46402E+01-1.08166E+01-6.62175E-17 7.82484E-15
 -1       641 2.08942E+01-7.05730E+01-1.49224E+01-7.24518E+00-6.34230E-15-1.78543E-15
 -1       642 2.34797E+01-7.35612E+01-1.50449E+01-3.77063E+00-2.76927E-14-1.70511E-15
 -1       643 2.53510E+01-7.50196E+01-1.49222E+01-9.66224E-01 2.47778E-14 1.92200E-15
 -1       644-3.36918E-01-7.54984E-01-3.27579E-01-6.54608E-01-3.74342E-15 1.23608E-15
 -1       645-7.63941E-01-1.51846E+00-6.84740E-01-1.24719E+00-3.89922E-15-5.65497E-15
 -1       646-1.20158E+00-2.40436E+00-1.08182E+00-1.91621E+00 1.36028E-14 2.90120E-16
 -1       647-1.64303E+00-3.43884E+00-1.52464E+00-2.67121E+00-5.81303E-15-2.18143E-15
 -1       648-2.07519E+00-4.65172E+00-2.01822E+00-3.52126E+00-1.48724E-14 5.85228E-15
 -1       649-2.47939E+00-6.07947E+00-2.56789E+00-4.47444E+00 7.77584E-16 8.11444E-15
 -1       650-2.82961E+00-7.76601E+00-3.17906E+00-5.53655E+00 1.21993E-14-1.10494E-14
 -1       651-3.09056E+00-9.76374E+00-3.85686E+00-6.70882E+00-1.58538E-14 8.11321E-15
 -1       652-3.21552E+00-1.21339E+01-4.60566E+00-7.98461E+00-4.65245E-15-5.62578E-15
 -1       653-3.14447E+00-1.49458E+01-5.42829E+00-9.34466E+00-5.05655E-15-7.98571E-15
 -1       654-2.80330E+00-1.82739E+01-6.32488E+00-1.07508E+01-6.71782E-16-5.83296E-15
 -1       655-2.10543E+00-2.21909E+01-7.29131E+00-1.21384E+01 5.20565E-15 3.51910E-15
 -1       656-9.57892E-01-2.67552E+01-8.31726E+00-1.34086E+01 1.61426E-14-8.03166E-15
 -1       657 7.25941E-01-3.19913E+01-9.38412E+00-1.44234E+01 1.50490E-14-7.55772E-15
 -1       658 3.00530E+00-3.78634E+01-1.04634E+01-1.50093E+01-8.68482E-15 8.09973E-16
 -1       659 5.88357E+00-4.42462E+01-1.15166E+01-1.49746E+01-1.06153E-14 1.19883E-14
 -1       660 9.27852E+00-5.09040E+01-1.24977E+01-1.41478E+01 1.03097E-14-4.13794E-15
 -1       661 1.30032E+01-5.74908E+01-1.33588E+01-1.24368E+01 4.63121E-15-2.76001E-15
 -1       662 1.67723E+01-6.35847E+01-1.40589E+01-9.89794E+00 6.87775E-15-5.28515E-15
 -1       663 2.02428E+01-6.87555E+01-1.45715E+01-6.79621E+00-1.65947E-14 7.65205E-16
 -1       664 2.30616E+01-7.26609E+01-1.48997E+01-3.62559E+00 5.35308E-14-2.75612E-15
 -1       665 2.51573E+01-7.49079E+01-1.49467E+01-9.76093E-01-1.77374E-14 1.73631E-15
 -1       666-1.79695E-01-7.72716E-01-2.85730E-01-5.44302E-01 1.50885E-14-1.21078E-14
 -1       667-4.51735E-01-1.52595E+00-5.93320E-01-1.01864E+00 1.28960E-14 2.40185E-15
 -1       668-7.28180E-01-2.39167E+00-9.35988E-01-1.55141E+00 4.58619E-15 2.61535E-15
 -1       669-1.00191E+00-3.39318E+00-1.31859E+00-2.14983E+00 2.96640E-15 1.26457E-14
 -1       670-1.26221E+00-4.55595E+00-1.74556E+00-2.82078E+00-4.09158E-15-9.18369E-15
 -1       671-1.49504E+00-5.91068E+00-2.22189E+00-3.57055E+00 1.13618E-14-8.05615E-15
 -1       672-1.68125E+00-7.49443E+00-2.75299E+00-4.40396E+00-1.25910E-14 1.51816E-14
 -1       673-1.79492E+00-9.35177E+00-3.34443E+00-5.32297E+00-2.67033E-15-3.02621E-15
 -1       674-1.80145E+00-1.15356E+01-4.00174E+00-6.32451E+00 3.53586E-15 5.01526E-17
 -1       675-1.65587E+00-1.41073E+01-4.72987E+00-7.39734E+00 2.91393E-15-1.00384E-14
 -1       676-1.30147E+00-1.71356E+01-5.53245E+00-8.51754E+00-6.79799E-15 1.44475E-14
 -1       677-6.69754E-01-2.06932E+01-6.41074E+00-9.64269E+00 8.52977E-15-9.16861E-15
 -1       678 3.17223E-01-2.48488E+01-7.36210E+00-1.07050E+01-4.06158E-15-6.75292E-15
 -1       679 1.74005E+00-2.96546E+01-8.37797E+00-1.16050E+01-2.27361E-14 1.28486E-14
 -1       680 3.66866E+00-3.51248E+01-9.44173E+00-1.22091E+01 1.65563E-15 2.11845E-15
 -1       681 6.14101E+00-4.12082E+01-1.05267E+01-1.23564E+01 1.77321E-14 2.19313E-15
 -1       682 9.13508E+00-4.77583E+01-1.15956E+01-1.18820E+01-1.42649E-14 1.12233E-14
 -1       683 1.25405E+01-5.45103E+01-1.26020E+01-1.06620E+01-2.52940E-14 2.06185E-15
 -1       684 1.61412E+01-6.10812E+01-1.34958E+01-8.68010E+00 2.84878E-14 1.04041E-14
 -1       685 1.96257E+01-6.70003E+01-1.42291E+01-6.10206E+00 7.92214E-15-8.02681E-15
 -1       686 2.26127E+01-7.17799E+01-1.47695E+01-3.33304E+00 3.61217E-15-1.37994E-15
 -1       687 2.48758E+01-7.48887E+01-1.50253E+01-9.40022E-01 2.08317E-14 5.35659E-16
 -1       688-5.33857E-02-7.99728E-01-2.55940E-01-4.34071E-01 1.13783E-15 5.99304E-16
 -1       689-2.15651E-01-1.54478E+00-5.28143E-01-7.99215E-01-5.70648E-15-1.46146E-15
 -1       690-3.68994E-01-2.39764E+00-8.30016E-01-1.20690E+00-1.82637E-15-1.37845E-14
 -1       691-5.11798E-01-3.37639E+00-1.16651E+00-1.66295E+00-2.40327E-15-2.10463E-15
 -1       692-6.37744E-01-4.50235E+00-1.54212E+00-2.17245E+00 4.79431E-15 1.49680E-14
 -1       693-7.36645E-01-5.80227E+00-1.96182E+00-2.73984E+00 5.59393E-15-1.22371E-14
 -1       694-7.93666E-01-7.30889E+00-2.43099E+00-3.36869E+00 9.09753E-15 5.42597E-15
 -1       695-7.88505E-01-9.06161E+00-2.95537E+00-4.06088E+00-2.55102E-15-6.23444E-16
 -1       696-6.94285E-01-1.11073E+01-3.54097E+00-4.81528E+00-7.09808E-15-4.51510E-15
 -1       697-4.76227E-01-1.35008E+01-4.19382E+00-5.62565E+00-6.32691E-15-6.76052E-15
 -1       698-9.02879E-02-1.63049E+01-4.91960E+00-6.47755E+00 1.16882E-14-1.36348E-15
 -1       699 5.17764E-01-1.95891E+01-5.72288E+00-7.34408E+00-7.34534E-15 1.13069E-14
 -1       700 1.41197E+00-2.34255E+01-6.60617E+00-8.18055E+00 5.03608E-15-5.45842E-16
 -1       701 2.66311E+00-2.78808E+01-7.56825E+00-8.91868E+00-2.08405E-15-4.39746E-15
 -1       702 4.34101E+00-3.30013E+01-8.60214E+00-9.46203E+00 1.27088E-14 3.41429E-15
 -1       703 6.49999E+00-3.87899E+01-9.69253E+00-9.68653E+00-8.12366E-15-2.35566E-16
 -1       704 9.15615E+00-4.51752E+01-1.08132E+01-9.45213E+00 1.52000E-14-1.34381E-14
 -1       705 1.22577E+01-5.19762E+01-1.19254E+01-8.63296E+00-1.75389E-15 1.73580E-15
 -1       706 1.56549E+01-5.88733E+01-1.29782E+01-7.17119E+00-4.21622E-14-5.54184E-15
 -1       707 1.90829E+01-6.53999E+01-1.39109E+01-5.15082E+00 3.86751E-15 7.69094E-15
 -1       708 2.21651E+01-7.09646E+01-1.46587E+01-2.87485E+00-1.21175E-15-5.89991E-15
 -1       709 2.45175E+01-7.49659E+01-1.51558E+01-8.45674E-01-1.98571E-14 1.72488E-15
 -1       710 3.44457E-02-8.26302E-01-2.37563E-01-3.43009E-01 3.19169E-15 4.27051E-15
 -1       711-1.94175E-02-1.57850E+00-4.79386E-01-5.93918E-01 3.45659E-15 6.67560E-15
 -1       712-7.65698E-02-2.42252E+00-7.49750E-01-8.79824E-01-3.30074E-15 2.67391E-15
 -1       713-1.28087E-01-3.38053E+00-1.05263E+00-1.20098E+00 9.81716E-15 3.50106E-15
 -1       714-1.63330E-01-4.47551E+00-1.39172E+00-1.55869E+00 3.04410E-15-1.08822E-14
 -1       715-1.70593E-01-5.73359E+00-1.77137E+00-1.95507E+00-1.88178E-15-1.12669E-15
 -1       716-1.36119E-01-7.18492E+00-2.19649E+00-2.39255E+00-4.26858E-15 1.60517E-15
 -1       717-4.30241E-02-8.86479E+00-2.67262E+00-2.87298E+00-6.82518E-17-7.92030E-15
 -1       718 1.30026E-01-1.08149E+01-3.20586E+00-3.39656E+00 3.22379E-16 2.79590E-15
 -1       719 4.10297E-01-1.30842E+01-3.80278E+00-3.96032E+00-3.96797E-15-5.61176E-15
 -1       720 8.32506E-01-1.57304E+01-4.47022E+00-4.55613E+00 3.22730E-15 1.93735E-17
 -1       721 1.44013E+00-1.88188E+01-5.21483E+00-5.16791E+00-1.79730E-15-1.90275E-14
 -1       722 2.28599E+00-2.24215E+01-6.04241E+00-5.76797E+00 5.88221E-15 2.92666E-15
 -1       723 3.43120E+00-2.66122E+01-6.95677E+00-6.31269E+00-1.11541E-16-5.28639E-15
 -1       724 4.94104E+00-3.14560E+01-7.95797E+00-6.73815E+00-2.74255E-15 5.12476E-15
 -1       725 6.87540E+00-3.69922E+01-9.03988E+00-6.95808E+00-8.78471E-16-8.26007E-16
 -1       726 9.27149E+00-4.32055E+01-1.01868E+01-6.86817E+00-4.76048E-15 8.98211E-15
 -1       727 1.21169E+01-4.99867E+01-1.13699E+01-6.36346E+00 1.22767E-14 3.82133E-15
 -1       728 1.53144E+01-5.70856E+01-1.25432E+01-5.37569E+00 3.12052E-14 2.01905E-16
 -1       729 1.86458E+01-6.40667E+01-1.36414E+01-3.93295E+00-7.94681E-15-5.69346E-16
 -1       730 2.17591E+01-7.02766E+01-1.45737E+01-2.23633E+00 6.65111E-15-2.87397E-15
 -1       731 2.41224E+01-7.51209E+01-1.53208E+01-6.82069E-01-1.96484E-14-8.77699E-16
 -1       732 1.66410E-01-9.75967E-01-2.42874E-01-1.58211E-01-2.09648E-15-1.86623E-15
 -1       733 1.11153E-01-1.66606E+00-4.66485E-01-3.52372E-01 2.06353E-15 1.95945E-15
 -1       734 8.09689E-02-2.46973E+00-7.16650E-01-5.43070E-01-5.05794E-16-6.88718E-15
 -1       735 7.70900E-02-3.40000E+00-9.96911E-01-7.39054E-01-1.72826E-15 5.31827E-15
 -1       736 1.03169E-01-4.47210E+00-1.31074E+00-9.47662E-01-4.19516E-15 1.11154E-14
 -1       737 1.64942E-01-5.70565E+00-1.66231E+00-1.17470E+00 2.00373E-15 4.08042E-15
 -1       738 2.71019E-01-7.12545E+00-2.05648E+00-1.42439E+00 6.13056E-15 1.77880E-14
 -1       739 4.33638E-01-8.76229E+00-2.49883E+00-1.69932E+00-3.31472E-15-6.52012E-15
 -1       740 6.69558E-01-1.06538E+01-2.99563E+00-2.00029E+00-4.06464E-16-6.06531E-15
 -1       741 1.00108E+00-1.28455E+01-3.55385E+00-2.32593E+00 4.72667E-15-5.46085E-15
 -1       742 1.45720E+00-1.53913E+01-4.18098E+00-2.67190E+00-2.18752E-15-1.08663E-14
 -1       743 2.07474E+00-1.83540E+01-4.88487E+00-3.02959E+00 7.58871E-15 1.72015E-14
 -1       744 2.89923E+00-2.18048E+01-5.67321E+00-3.38414E+00-5.43226E-15-9.20042E-15
 -1       745 3.98478E+00-2.58201E+01-6.55281E+00-3.71185E+00 1.47642E-15 9.34874E-15
 -1       746 5.39191E+00-3.04753E+01-7.52813E+00-3.97726E+00 6.86155E-15 6.62075E-15
 -1       747 7.18123E+00-3.58306E+01-8.59918E+00-4.13091E+00 2.34218E-15-1.58129E-14
 -1       748 9.40018E+00-4.19067E+01-9.75805E+00-4.11028E+00 2.73269E-15-6.02489E-15
 -1       749 1.20595E+01-4.86454E+01-1.09841E+01-3.84773E+00 1.52502E-14-2.67944E-15
 -1       750 1.50971E+01-5.58522E+01-1.22377E+01-3.29132E+00-2.12087E-14-1.30047E-15
 -1       751 1.83307E+01-6.31284E+01-1.34539E+01-2.44196E+00 1.66549E-14-5.55507E-15
 -1       752 2.14376E+01-6.97908E+01-1.45240E+01-1.40875E+00-4.81989E-15 7.73060E-15
 -1       753 2.37649E+01-7.53041E+01-1.54830E+01-4.41954E-01 2.61943E-14 2.85281E-15
 -1       754 2.20820E-01-6.26378E-01-1.21671E-01 3.54850E-02 1.85551E-15 9.02865E-16
 -1       755 2.04294E-01-1.44630E+00-3.72610E-01 1.15711E-01 1.72335E-15-5.28797E-15
 -1       756 2.17951E-01-2.33456E+00-6.35000E-01 1.46878E-01 2.01686E-16-1.66656E-15
 -1       757 2.59347E-01-3.31481E+00-9.16669E-01 1.39332E-01 1.06566E-15-7.68798E-15
 -1       758 3.29460E-01-4.41122E+00-1.22458E+00 1.02030E-01 2.36848E-15 1.04153E-14
 -1       759 4.32261E-01-5.65038E+00-1.56553E+00 4.20671E-02-1.73411E-15 8.85588E-15
 -1       760 5.75321E-01-7.06188E+00-1.94611E+00-3.53683E-02 1.41930E-15-1.53011E-14
 -1       761 7.70229E-01-8.67925E+00-2.37292E+00-1.26802E-01-3.36979E-15-1.49760E-15
 -1       762 1.03308E+00-1.05411E+01-2.85273E+00-2.30057E-01 4.27057E-15 1.35813E-15
 -1       763 1.38511E+00-1.26925E+01-3.39270E+00-3.43667E-01-5.37464E-15 1.58886E-14
 -1       764 1.85350E+00-1.51863E+01-4.00054E+00-4.66188E-01-3.43367E-15 4.77189E-15
 -1       765 2.47240E+00-1.80841E+01-4.68451E+00-5.95420E-01-4.10110E-15 6.89744E-15
 -1       766 3.28384E+00-2.14564E+01-5.45321E+00-7.27546E-01 8.05073E-15 1.13817E-15
 -1       767 4.33809E+00-2.53811E+01-6.31496E+00-8.56149E-01-4.85802E-16-2.02565E-15
 -1       768 5.69237E+00-2.99381E+01-7.27665E+00-9.71125E-01-2.81437E-16-1.06693E-14
 -1       769 7.40608E+00-3.51982E+01-8.34176E+00-1.05771E+00-2.44773E-14-4.64236E-15
 -1       770 9.52979E+00-4.12004E+01-9.50698E+00-1.09622E+00-5.82002E-15 7.45629E-15
 -1       771 1.20839E+01-4.79134E+01-1.07569E+01-1.06373E+00-2.33221E-14-4.08564E-16
 -1       772 1.50234E+01-5.51742E+01-1.20561E+01-9.39670E-01 7.45006E-15 5.48327E-15
 -1       773 1.81863E+01-6.26070E+01-1.33405E+01-7.16997E-01-5.68947E-15 6.49283E-15
 -1       774 2.12711E+01-6.95161E+01-1.44914E+01-4.20375E-01 2.27937E-14 2.73156E-15
 -1       775 2.35588E+01-7.54137E+01-1.55777E+01-1.23234E-01-2.46033E-14 6.52744E-16
 -1       776-4.11467E-01-1.30100E-01-1.62472E-01 1.02768E-01 5.63079E-14-1.62839E-14
 -1       777-5.50800E-01-1.65187E-01-2.14798E-01 1.65326E-01-1.70398E-13 6.39018E-14
 -1       778-6.80975E-01-2.18249E-01-2.69771E-01 2.39513E-01-3.99225E-13 1.85038E-15
 -1       779-7.99836E-01-2.91601E-01-3.27435E-01 3.28700E-01 1.68957E-14-3.60205E-14
 -1       780-9.04628E-01-3.87706E-01-3.87706E-01 4.35772E-01 4.22522E-13 2.30995E-14
 -1       781-9.92316E-01-5.09461E-01-4.50540E-01 5.62910E-01-1.93727E-13-3.23928E-14
 -1       782-1.05964E+00-6.60359E-01-5.16010E-01 7.11428E-01 8.02853E-14-3.48618E-14
 -1       783-1.10323E+00-8.44679E-01-5.84386E-01 8.81550E-01 3.81448E-13 5.15978E-14
 -1       784-1.11970E+00-1.06769E+00-6.56232E-01 1.07216E+00 2.52809E-14-9.14310E-15
 -1       785-1.10576E+00-1.33578E+00-7.32483E-01 1.28050E+00 2.13964E-13-1.07381E-14
 -1       786-1.05836E+00-1.65654E+00-8.14498E-01 1.50179E+00 6.25545E-13 2.07643E-15
 -1       787-9.74813E-01-2.03857E+00-9.04053E-01 1.72882E+00-2.85707E-13-1.59630E-14
 -1       788-8.52888E-01-2.49108E+00-1.00324E+00 1.95147E+00 4.41962E-13 4.87959E-14
 -1       789-6.91006E-01-3.02293E+00-1.11425E+00 2.15617E+00-4.25521E-13 2.30927E-14
 -1       790-4.88490E-01-3.64118E+00-1.23898E+00 2.32545E+00-5.29082E-14-5.15746E-15
 -1       791-2.46072E-01-4.34879E+00-1.37856E+00 2.43756E+00 2.63229E-14 2.04979E-14
 -1       792 3.30661E-02-5.14166E+00-1.53271E+00 2.46650E+00-4.45526E-14-4.65854E-14
 -1       793 3.41133E-01-6.00499E+00-1.69931E+00 2.38297E+00-3.67314E-14 4.29968E-14
 -1       794 6.61198E-01-6.90984E+00-1.87478E+00 2.15771E+00-9.59408E-14-3.59776E-14
 -1       795 9.57676E-01-7.81078E+00-2.05615E+00 1.76992E+00 4.44715E-13-4.29231E-14
 -1       796 1.15646E+00-8.64297E+00-2.24620E+00 1.22885E+00-1.11247E-13 5.40812E-14
 -1       797 1.11078E+00-9.28534E+00-2.45264E+00 6.18788E-01 9.96658E-14-4.06399E-14
 -1       798-2.18318E+00-1.93068E-01-7.12892E-01 1.86640E-01 4.33781E-13-2.36424E-14
 -1       799-2.33576E+00-2.07923E-01-7.63128E-01 4.01156E-01-4.90071E-13-4.02132E-14
 -1       800-2.47567E+00-2.38990E-01-8.14423E-01 6.35568E-01-5.08303E-13 9.15433E-14
 -1       801-2.59865E+00-2.90534E-01-8.66784E-01 8.90442E-01-4.90287E-14-1.10488E-14
 -1       802-2.69959E+00-3.66955E-01-9.19999E-01 1.16649E+00-4.87152E-13-2.74434E-14
 -1       803-2.77289E+00-4.72948E-01-9.73794E-01 1.46429E+00 9.33433E-14 7.69175E-14
 -1       804-2.81246E+00-6.13438E-01-1.02782E+00 1.78401E+00-3.48382E-13 9.28446E-15
 -1       805-2.81180E+00-7.93555E-01-1.08167E+00 2.12512E+00 2.11872E-14-3.16966E-14
 -1       806-2.76411E+00-1.01862E+00-1.13489E+00 2.48585E+00-1.41214E-14 4.78360E-14
 -1       807-2.66238E+00-1.29412E+00-1.18704E+00 2.86257E+00-3.72933E-13-3.10432E-14
 -1       808-2.49962E+00-1.62570E+00-1.23770E+00 3.24914E+00-1.11766E-13 1.78383E-14
 -1       809-2.26899E+00-2.01911E+00-1.28655E+00 3.63596E+00 2.51327E-13-5.83968E-15
 -1       810-1.96421E+00-2.48011E+00-1.33344E+00 4.00905E+00-5.00584E-13 6.85271E-14
 -1       811-1.57995E+00-3.01418E+00-1.37841E+00 4.34898E+00 4.07491E-13-4.84034E-15
 -1       812-1.11261E+00-3.62605E+00-1.42180E+00 4.62977E+00 3.93878E-13-9.19221E-15
 -1       813-5.61563E-01-4.31876E+00-1.46433E+00 4.81808E+00-1.44428E-13 1.96230E-14
 -1       814 6.85923E-02-5.09210E+00-1.50731E+00 4.87279E+00 1.49348E-14-5.88115E-14
 -1       815 7.64079E-01-5.93982E+00-1.55301E+00 4.74582E+00-5.51389E-13 4.40629E-14
 -1       816 1.49459E+00-6.84459E+00-1.60531E+00 4.38530E+00 8.02216E-14-6.44255E-14
 -1       817 2.19949E+00-7.76784E+00-1.67084E+00 3.74273E+00 9.75665E-14-7.99737E-15
 -1       818 2.76105E+00-8.62606E+00-1.75985E+00 2.78465E+00-5.42917E-13 3.22346E-15
 -1       819 2.94443E+00-9.24367E+00-1.89012E+00 1.50830E+00 3.41948E-13 2.34497E-14
 -1       820-5.55681E+00-1.28376E-01-1.70565E+00 2.61443E-01-4.87442E-14-2.94744E-14
 -1       821-5.64293E+00-1.38729E-01-1.73460E+00 6.32246E-01-1.83770E-13 3.27986E-15
 -1       822-5.71102E+00-1.64304E-01-1.76271E+00 1.02662E+00 3.21988E-13 2.19210E-14
 -1       823-5.75534E+00-2.08534E-01-1.78928E+00 1.44529E+00 4.62986E-13-2.65244E-14
 -1       824-5.76899E+00-2.75408E-01-1.81345E+00 1.88860E+00 3.61381E-13-1.61061E-14
 -1       825-5.74406E+00-3.69609E-01-1.83424E+00 2.35614E+00 4.56623E-13 2.23467E-15
 -1       826-5.67161E+00-4.96491E-01-1.85058E+00 2.84667E+00-8.82021E-14 3.13534E-14
 -1       827-5.54169E+00-6.62041E-01-1.86129E+00 3.35794E+00-1.45213E-14 1.99996E-14
 -1       828-5.34339E+00-8.72814E-01-1.86505E+00 3.88621E+00 2.73436E-13-5.14868E-15
 -1       829-5.06500E+00-1.13583E+00-1.86047E+00 4.42582E+00 1.66100E-13-2.27067E-14
 -1       830-4.69423E+00-1.45846E+00-1.84605E+00 4.96835E+00 1.96591E-13 1.35752E-16
 -1       831-4.21848E+00-1.84823E+00-1.82029E+00 5.50178E+00 2.56015E-13-1.80776E-14
 -1       832-3.62543E+00-2.31256E+00-1.78171E+00 6.00924E+00 1.31357E-14 3.76157E-14
 -1       833-2.90375E+00-2.85843E+00-1.72901E+00 6.46764E+00 6.53812E-14-2.42410E-14
 -1       834-2.04437E+00-3.49161E+00-1.66119E+00 6.84599E+00 5.33926E-13 1.11666E-15
 -1       835-1.04254E+00-4.21561E+00-1.57788E+00 7.10384E+00-9.28695E-14 2.03768E-14
 -1       836 9.86455E-02-5.02953E+00-1.47974E+00 7.18969E+00-2.36719E-14-5.22064E-14
 -1       837 1.36230E+00-5.92437E+00-1.36913E+00 7.04012E+00 2.27920E-13 3.90273E-14
 -1       838 2.70726E+00-6.87631E+00-1.25125E+00 6.58000E+00 2.09683E-13-1.69003E-14
 -1       839 4.04981E+00-7.83462E+00-1.13599E+00 5.72404E+00 2.77849E-14-2.32475E-14
 -1       840 5.23106E+00-8.70216E+00-1.04188E+00 4.37851E+00-1.73816E-14 2.16350E-15
 -1       841 5.96056E+00-9.30942E+00-1.00519E+00 2.44422E+00-1.15744E-13-4.09661E-14
 -1       842-1.01351E+01-8.57943E-02-3.06656E+00 3.64632E-01 3.12870E-14-1.48927E-14
 -1       843-1.00921E+01-9.88262E-02-3.05758E+00 8.50801E-01 2.40676E-13-3.26583E-15
 -1       844-1.00217E+01-1.24350E-01-3.04411E+00 1.36926E+00 2.89848E-13 2.62315E-14
 -1       845-9.91694E+00-1.65852E-01-3.02515E+00 1.91988E+00-1.32258E-13-7.59419E-14
 -1       846-9.76995E+00-2.27425E-01-2.99953E+00 2.50214E+00 1.91460E-13-3.29045E-14
 -1       847-9.57139E+00-3.13791E-01-2.96589E+00 3.11468E+00-3.53640E-13 2.57294E-16
 -1       848-9.31045E+00-4.30382E-01-2.92260E+00 3.75516E+00 3.13376E-13-1.05197E-14
 -1       849-8.97473E+00-5.83402E-01-2.86781E+00 4.41996E+00-3.65632E-13 4.35269E-14
 -1       850-8.55020E+00-7.79859E-01-2.79941E+00 5.10370E+00-1.53841E-13-2.01731E-14
 -1       851-8.02120E+00-1.02756E+00-2.71505E+00 5.79873E+00 1.38684E-13 3.34762E-15
 -1       852-7.37055E+00-1.33503E+00-2.61214E+00 6.49430E+00-1.90501E-13 5.51091E-16
 -1       853-6.57986E+00-1.71134E+00-2.48787E+00 7.17561E+00 1.40584E-13-2.06507E-14
 -1       854-5.63007E+00-2.16584E+00-2.33932E+00 7.82245E+00 4.42113E-13 3.76460E-14
 -1       855-4.50241E+00-2.70753E+00-2.16358E+00 8.40748E+00-9.26099E-14 1.34710E-14
 -1       856-3.18006E+00-3.34423E+00-1.95794E+00 8.89417E+00 9.94561E-14-7.88309E-15
 -1       857-1.65090E+00-4.08093E+00-1.72025E+00 9.23423E+00 5.92775E-14 1.91958E-14
 -1       858 8.78828E-02-4.91713E+00-1.44952E+00 9.36485E+00 2.09179E-13-4.73034E-14
 -1       859 2.02221E+00-5.84233E+00-1.14683E+00 9.20574E+00 2.03189E-13 5.09690E-14
 -1       860 4.10861E+00-6.82861E+00-8.16822E-01 8.65638E+00-1.63063E-13-4.83313E-14
 -1       861 6.25408E+00-7.81906E+00-4.70336E-01 7.59354E+00-2.40217E-13 1.91090E-14
 -1       862 8.28420E+00-8.71119E+00-1.28943E-01 5.86864E+00 2.98195E-13 1.82458E-14
 -1       863 9.89685E+00-9.33744E+00 1.66990E-01 3.31449E+00 1.32256E-13-2.63633E-14
 -1       864-1.53805E+01-5.73784E-02-4.63202E+00 4.56391E-01 9.21722E-14 4.64015E-15
 -1       865-1.51862E+01-6.86402E-02-4.57711E+00 1.03766E+00-4.33327E-13 7.83909E-14
 -1       866-1.49526E+01-9.18917E-02-4.51399E+00 1.65741E+00-3.08841E-14-3.84551E-14
 -1       867-1.46715E+01-1.29895E-01-4.44107E+00 2.31593E+00-4.99387E-14-1.10791E-14
 -1       868-1.43340E+01-1.86273E-01-4.35673E+00 3.01294E+00 2.02853E-13 4.91266E-14
 -1       869-1.39294E+01-2.65347E-01-4.25908E+00 3.74704E+00 1.12412E-13 2.75323E-14
 -1       870-1.34454E+01-3.72272E-01-4.14594E+00 4.51563E+00 3.93984E-13 6.01418E-15
 -1       871-1.28673E+01-5.13126E-01-4.01480E+00 5.31459E+00-4.88389E-14-3.93443E-14
 -1       872-1.21786E+01-6.95002E-01-3.86277E+00 6.13775E+00 6.62878E-14-1.32905E-16
 -1       873-1.13601E+01-9.26069E-01-3.68656E+00 6.97628E+00-3.44498E-13 1.26955E-14
 -1       874-1.03902E+01-1.21558E+00-3.48248E+00 7.81777E+00 5.28528E-13 1.34575E-15
 -1       875-9.24492E+00-1.57377E+00-3.24640E+00 8.64511E+00-2.98616E-13-1.32944E-14
 -1       876-7.89830E+00-2.01160E+00-2.97381E+00 9.43482E+00 1.21867E-13 5.03274E-14
 -1       877-6.32336E+00-2.54011E+00-2.65993E+00 1.01550E+01 1.86746E-13-1.55529E-14
 -1       878-4.49396E+00-3.16943E+00-2.29997E+00 1.07628E+01-4.17767E-14-2.04689E-15
 -1       879-2.38794E+00-3.90681E+00-1.88943E+00 1.12007E+01-3.23524E-15 1.99001E-14
 -1       880 7.47635E-03-4.75355E+00-1.42489E+00 1.13929E+01 3.62566E-13-4.75055E-14
 -1       881 2.68699E+00-5.69993E+00-9.05005E-01 1.12404E+01-1.80648E-14 4.19738E-14
 -1       882 5.61347E+00-6.71733E+00-3.32328E-01 1.06165E+01-1.31855E-13-4.17212E-14
 -1       883 8.69668E+00-7.74630E+00 2.83902E-01 9.36077E+00 4.70269E-13-4.61270E-14
 -1       884 1.17610E+01-8.67980E+00 9.23103E-01 7.27562E+00-8.19191E-14 3.53023E-14
 -1       885 1.45015E+01-9.33835E+00 1.54765E+00 4.13637E+00-7.81270E-14-4.38385E-14
 -1       886-2.09274E+01-3.53721E-02-6.29006E+00 5.34645E-01 8.11674E-14-2.37363E-14
 -1       887-2.05783E+01-4.54276E-02-6.18829E+00 1.19067E+00 1.74846E-13-2.63920E-14
 -1       888-2.01775E+01-6.57177E-02-6.07412E+00 1.89116E+00-3.38863E-14-1.12835E-14
 -1       889-1.97159E+01-9.87269E-02-5.94551E+00 2.63669E+00-1.51583E-13 3.73694E-14
 -1       890-1.91832E+01-1.47905E-01-5.80045E+00 3.42736E+00 1.01120E-13-3.24780E-15
 -1       891-1.85676E+01-2.17356E-01-5.63658E+00 4.26214E+00-1.23549E-13 5.05526E-14
 -1       892-1.78548E+01-3.12057E-01-5.45115E+00 5.13880E+00-1.38621E-13-2.50748E-14
 -1       893-1.70282E+01-4.38023E-01-5.24094E+00 6.05342E+00 4.86036E-15 5.39316E-14
 -1       894-1.60681E+01-6.02477E-01-5.00226E+00 6.99985E+00-6.51529E-14-8.25785E-15
 -1       895-1.49517E+01-8.13993E-01-4.73080E+00 7.96892E+00 2.67142E-13-6.34737E-15
 -1       896-1.36524E+01-1.08259E+00-4.42162E+00 8.94737E+00-2.22691E-13-1.48386E-14
 -1       897-1.21401E+01-1.41971E+00-4.06907E+00 9.91636E+00 1.25062E-15-3.52952E-14
 -1       898-1.03809E+01-1.83795E+00-3.66683E+00 1.08495E+01 1.49263E-13 5.21980E-14
 -1       899-8.33857E+00-2.35042E+00-3.20792E+00 1.17104E+01 1.45796E-13-2.72477E-15
 -1       900-5.97606E+00-2.96958E+00-2.68498E+00 1.24491E+01 3.50207E-13-5.73865E-16
 -1       901-3.25919E+00-3.70504E+00-2.09062E+00 1.29982E+01 4.28487E-14 1.96605E-14
 -1       902-1.62571E-01-4.56014E+00-1.41823E+00 1.32679E+01-2.78117E-13-4.43625E-14
 -1       903 3.32099E+00-5.52657E+00-6.63169E-01 1.31400E+01 1.56644E-13 3.74338E-14
 -1       904 7.16584E+00-6.57608E+00 1.75356E-01 1.24611E+01-8.34082E-14-1.69852E-14
 -1       905 1.12912E+01-7.64790E+00 1.09135E+00 1.10357E+01-1.27442E-13-1.38057E-14
 -1       906 1.55273E+01-8.63006E+00 2.06741E+00 8.61884E+00 3.41448E-16 6.23135E-14
 -1       907 1.95670E+01-9.32671E+00 3.07014E+00 4.92820E+00 1.45877E-13-5.41700E-14
 -1       908-2.65110E+01-1.76145E-02-7.96053E+00 5.97656E-01-1.57049E-13 4.77299E-14
 -1       909-2.60148E+01-2.58517E-02-7.81406E+00 1.30913E+00-1.58743E-13 2.25759E-14
 -1       910-2.54562E+01-4.24714E-02-7.65142E+00 2.07056E+00 7.39082E-14 2.12909E-14
 -1       911-2.48248E+01-6.94669E-02-7.47005E+00 2.88327E+00-2.81483E-13 4.08774E-14
 -1       912-2.41093E+01-1.10035E-01-7.26750E+00 3.74813E+00 2.88447E-13-2.60292E-14
 -1       913-2.32961E+01-1.68101E-01-7.04091E+00 4.66495E+00-1.04754E-13 2.05426E-14
 -1       914-2.23689E+01-2.48609E-01-6.78688E+00 5.63234E+00-1.46574E-13 4.56462E-14
 -1       915-2.13085E+01-3.57743E-01-6.50147E+00 6.64720E+00-2.47380E-13 1.61415E-14
 -1       916-2.00917E+01-5.03155E-01-6.18000E+00 7.70401E+00 1.29034E-13-7.12119E-15
 -1       917-1.86907E+01-6.94184E-01-5.81700E+00 8.79387E+00-6.51617E-14-1.49210E-14
 -1       918-1.70730E+01-9.41992E-01-5.40603E+00 9.90309E+00 1.22746E-14 2.04623E-14
 -1       919-1.52008E+01-1.25954E+00-4.93963E+00 1.10114E+01-3.13603E-13-3.04560E-16
 -1       920-1.30310E+01-1.66124E+00-4.40923E+00 1.20894E+01-1.51819E-14 4.39789E-14
 -1       921-1.05165E+01-2.16221E+00-3.80520E+00 1.30958E+01-1.30853E-13 4.32356E-15
 -1       922-7.60804E+00-2.77672E+00-3.11707E+00 1.39728E+01-2.98548E-13 8.86196E-15
 -1       923-4.25849E+00-3.51582E+00-2.33401E+00 1.46423E+01-2.13061E-13 1.72532E-14
 -1       924-4.29065E-01-4.38362E+00-1.44560E+00 1.49999E+01 5.04573E-14-4.73745E-14
 -1       925 3.90080E+00-5.37188E+00-4.43214E-01 1.49084E+01-2.83485E-14 3.71465E-14
 -1       926 8.71882E+00-6.45196E+00 6.78048E-01 1.41901E+01 1.00932E-13-4.48003E-14
 -1       927 1.39577E+01-7.56226E+00 1.91647E+00 1.26168E+01-1.31863E-13 8.41658E-15
 -1       928 1.94599E+01-8.58793E+00 3.25918E+00 9.89880E+00-7.98029E-14-6.70468E-15
 -1       929 2.49240E+01-9.31840E+00 4.67891E+00 5.69218E+00-7.95634E-14-3.86066E-14
 -1       930-3.19328E+01-3.64876E-03-9.58373E+00 6.44589E-01 1.59319E-13-1.84696E-14
 -1       931-3.13089E+01-9.81957E-03-9.39833E+00 1.39294E+00-5.97789E-14 4.34960E-14
 -1       932-3.06142E+01-2.21695E-02-9.19354E+00 2.19696E+00 4.37657E-14-6.64818E-14
 -1       933-2.98371E+01-4.23729E-02-8.96637E+00 3.05903E+00 1.72635E-13-1.09431E-14
 -1       934-2.89650E+01-7.35307E-02-8.71398E+00 3.98128E+00-9.25865E-14 2.73347E-14
 -1       935-2.79824E+01-1.19605E-01-8.43293E+00 4.96489E+00 3.95559E-14 1.88948E-14
 -1       936-2.68705E+01-1.85805E-01-8.11916E+00 6.00988E+00 2.06642E-13-8.55915E-15
 -1       937-2.56065E+01-2.78889E-01-7.76781E+00 7.11450E+00 1.22048E-13-7.24549E-15
 -1       938-2.41624E+01-4.07451E-01-7.37307E+00 8.27432E+00-1.29367E-13-1.32207E-14
 -1       939-2.25043E+01-5.82165E-01-6.92801E+00 9.48091E+00-1.38611E-13 2.28012E-14
 -1       940-2.05918E+01-8.15880E-01-6.42434E+00 1.07201E+01 2.89743E-14 2.23269E-14
 -1       941-1.83776E+01-1.12345E+00-5.85231E+00 1.19698E+01-1.11866E-13-1.50423E-14
 -1       942-1.58075E+01-1.52111E+00-5.20058E+00 1.31965E+01-2.70806E-13 3.35182E-14
 -1       943-1.28225E+01-2.02528E+00-4.45633E+00 1.43525E+01 3.23408E-13-3.37407E-15
 -1       944-9.36074E+00-2.65061E+00-3.60544E+00 1.53709E+01 1.92853E-13-9.50298E-15
 -1       945-5.36299E+00-3.40711E+00-2.63312E+00 1.61617E+01 2.57017E-13 1.58718E-14
 -1       946-7.78937E-01-4.29651E+00-1.52481E+00 1.66057E+01 1.19398E-13-4.01367E-14
 -1       947 4.42330E+00-5.30749E+00-2.67560E-01 1.65491E+01 4.69472E-14 3.81749E-14
 -1       948 1.02442E+01-6.40901E+00 1.14808E+00 1.57940E+01-2.45809E-13-4.72944E-14
 -1       949 1.66330E+01-7.53939E+00 2.72533E+00 1.40860E+01 2.96109E-13-3.64740E-14
 -1       950 2.34534E+01-8.58580E+00 4.45715E+00 1.10957E+01 1.56437E-13 2.63652E-14
 -1       951 3.04277E+01-9.33115E+00 6.32515E+00 6.41554E+00 2.16882E-13-4.80342E-14
 -1       952-3.70508E+01 6.80372E-03-1.11170E+01 6.75710E-01 1.15218E-14-3.12706E-14
 -1       953-3.63299E+01 2.77815E-03-1.09018E+01 1.44417E+00-1.77227E-14-2.44930E-14
 -1       954-3.55328E+01-5.20996E-03-1.06649E+01 2.27488E+00-1.55604E-14-3.61994E-14
 -1       955-3.46465E+01-1.87151E-02-1.04029E+01 3.17185E+00-4.58527E-15-6.39310E-15
 -1       956-3.36568E+01-4.10369E-02-1.01126E+01 4.13903E+00 8.85657E-14-1.78837E-15
 -1       957-3.25459E+01-7.66085E-02-9.78986E+00 5.17954E+00-1.21866E-13 7.26211E-15
 -1       958-3.12913E+01-1.31486E-01-9.42984E+00 6.29537E+00-1.95922E-13 1.83529E-14
 -1       959-2.98653E+01-2.13712E-01-9.02658E+00 7.48654E+00 2.37649E-13-4.03632E-15
 -1       960-2.82332E+01-3.33629E-01-8.57282E+00 8.74978E+00 1.81229E-13-1.57670E-14
 -1       961-2.63528E+01-5.04053E-01-8.05973E+00 1.00769E+01 8.76409E-14-9.98495E-15
 -1       962-2.41735E+01-7.40144E-01-7.47668E+00 1.14523E+01 5.57745E-14 1.44457E-14
 -1       963-2.16362E+01-1.05882E+00-6.81102E+00 1.28501E+01-9.64547E-14-1.78998E-14
 -1       964-1.86744E+01-1.47753E+00-6.04807E+00 1.42309E+01 2.56781E-13 2.55836E-14
 -1       965-1.52169E+01-2.01225E+00-5.17120E+00 1.55376E+01 9.68564E-14-1.05707E-14
 -1       966-1.11913E+01-2.67485E+00-4.16229E+00 1.66920E+01-9.67704E-14 3.16544E-15
 -1       967-6.52970E+00-3.46995E+00-3.00239E+00 1.75906E+01 9.04734E-14 1.13152E-14
 -1       968-1.17553E+00-4.39183E+00-1.67279E+00 1.81014E+01-1.34348E-13-3.13452E-14
 -1       969 4.90955E+00-5.42145E+00-1.56299E-01 1.80580E+01-3.53042E-14 3.56523E-14
 -1       970 1.17364E+01-6.52298E+00 1.56106E+00 1.72504E+01 6.67315E-14-1.11817E-14
 -1       971 1.92741E+01-7.63654E+00 3.48790E+00 1.54085E+01-3.26312E-13-4.22476E-14
 -1       972 2.74203E+01-8.65946E+00 5.62429E+00 1.21727E+01 7.34693E-14 5.34299E-14
 -1       973 3.59464E+01-9.38339E+00 7.96392E+00 7.07337E+00-2.40722E-13-1.11681E-14
 -1       974-4.17740E+01 1.40621E-02-1.25328E+01 6.92419E-01 2.56992E-13-2.01265E-14
 -1       975-4.09979E+01 1.19282E-02-1.23004E+01 1.46709E+00 1.49488E-14-1.07892E-14
 -1       976-4.01436E+01 7.74981E-03-1.20452E+01 2.31250E+00-3.29845E-14 2.40883E-14
 -1       977-3.91967E+01-3.35686E-04-1.17634E+01 3.23492E+00 8.53171E-14-2.66637E-14
 -1       978-3.81405E+01-1.63650E-02-1.14512E+01 4.24083E+00-7.46591E-15 2.61131E-14
 -1       979-3.69535E+01-4.59771E-02-1.11038E+01 5.33596E+00 3.97814E-13-3.12924E-15
 -1       980-3.56080E+01-9.70029E-02-1.07153E+01 6.52472E+00-1.38274E-13-1.54178E-14
 -1       981-3.40690E+01-1.79858E-01-1.02783E+01 7.80897E+00 1.14851E-13-1.49605E-14
 -1       982-3.22923E+01-3.07771E-01-9.78353E+00 9.18616E+00 1.18299E-14-2.46482E-14
 -1       983-3.02245E+01-4.96670E-01-9.21971E+00 1.06469E+01 2.11394E-13-4.91896E-16
 -1       984-2.78018E+01-7.64515E-01-8.57311E+00 1.21721E+01-1.49503E-13 1.41794E-14
 -1       985-2.49515E+01-1.12986E+00-7.82752E+00 1.37288E+01 4.90222E-13-4.10616E-14
 -1       986-2.15946E+01-1.60952E+00-6.96424E+00 1.52675E+01 1.84769E-13 2.65344E-14
 -1       987-1.76498E+01-2.21549E+00-5.96253E+00 1.67181E+01-3.30459E-14-1.08171E-14
 -1       988-1.30392E+01-2.95157E+00-4.80015E+00 1.79880E+01 5.05033E-14-5.84943E-15
 -1       989-7.69415E+00-3.81049E+00-3.45432E+00 1.89609E+01 1.52092E-13 9.27299E-15
 -1       990-1.55985E+00-4.77254E+00-1.90271E+00 1.94949E+01 6.25556E-14-3.77460E-14
 -1       991 5.40150E+00-5.80612E+00-1.24549E-01 1.94195E+01 1.86077E-13 3.06678E-14
 -1       992 1.32086E+01-6.86931E+00 1.89831E+00 1.85245E+01 4.23772E-14-2.63889E-14
 -1       993 2.18549E+01-7.90807E+00 4.18005E+00 1.65378E+01-9.91989E-14-3.67236E-14
 -1       994 3.12877E+01-8.84145E+00 6.72902E+00 1.30828E+01 2.05830E-13 4.31547E-14
 -1       995 4.13588E+01-9.49088E+00 9.55405E+00 7.63349E+00 3.45156E-13 7.74796E-15
 -1       996-4.60555E+01 1.85669E-02-1.38169E+01 6.97158E-01 1.20791E-13-3.24666E-14
 -1       997-4.52779E+01 1.76390E-02-1.35837E+01 1.46806E+00 1.96394E-13-9.88564E-15
 -1       998-4.44240E+01 1.58280E-02-1.33279E+01 2.32141E+00-2.92313E-14 1.30099E-15
 -1       999-4.34771E+01 1.02648E-02-1.30453E+01 3.26666E+00-3.24439E-14 2.21476E-14
 -1      1000-4.24167E+01-4.71542E-03-1.27315E+01 4.31363E+00-1.63572E-13-2.19025E-15
 -1      1001-4.12155E+01-3.71252E-02-1.23807E+01 5.47127E+00-1.33958E-13 5.70065E-15
 -1      1002-3.98377E+01-9.79752E-02-1.19854E+01 6.74662E+00 4.82660E-13 1.35193E-14
 -1      1003-3.82373E+01-2.01584E-01-1.15362E+01 8.14285E+00-1.63506E-13-2.49751E-14
 -1      1004-3.63571E+01-3.65483E-01-1.10211E+01 9.65656E+00 3.21092E-13-2.74778E-14
 -1      1005-3.41282E+01-6.09626E-01-1.04255E+01 1.12744E+01 1.85681E-13-2.15956E-14
 -1      1006-3.14710E+01-9.54634E-01-9.73164E+00 1.29691E+01-4.10308E-14 8.96775E-15
 -1      1007-2.82984E+01-1.41890E+00-8.91898E+00 1.46957E+01 1.18411E-13-2.84816E-14
 -1      1008-2.45212E+01-2.01469E+00-7.96441E+00 1.63889E+01 6.62429E-14 2.43964E-14
 -1      1009-2.00545E+01-2.74387E+00-6.84302E+00 1.79611E+01-5.32637E-14-8.67885E-15
 -1      1010-1.48245E+01-3.59439E+00-5.52907E+00 1.93042E+01 1.85855E-13-7.51794E-15
 -1      1011-8.77284E+00-4.53899E+00-3.99691E+00 2.02913E+01 9.65925E-14 1.15982E-14
 -1      1012-1.85720E+00-5.53749E+00-2.22182E+00 2.07790E+01 1.53667E-13-3.49831E-14
 -1      1013 5.95296E+00-6.54271E+00-1.80511E-01 2.06043E+01-2.98899E-14 3.45702E-14
 -1      1014 1.46834E+01-7.50839E+00 2.14856E+00 1.95718E+01-6.50736E-14-2.26951E-14
 -1      1015 2.43595E+01-8.39376E+00 4.78508E+00 1.74226E+01 1.90198E-13-4.46410E-15
 -1      1016 3.49950E+01-9.15357E+00 7.74664E+00 1.37773E+01 7.88229E-15 2.60105E-14
 -1      1017 4.65549E+01-9.66298E+00 1.10598E+01 8.06302E+00 6.90174E-14-1.38974E-14
 -1      1018-4.98864E+01 2.07999E-02-1.49665E+01 6.93238E-01-1.19170E-13-1.76367E-14
 -1      1019-4.91740E+01 1.98116E-02-1.47529E+01 1.45525E+00-1.33620E-13 1.65704E-14
 -1      1020-4.83913E+01 1.77252E-02-1.45185E+01 2.31656E+00 1.73255E-13-2.94485E-14
 -1      1021-4.75178E+01 9.54830E-03-1.42588E+01 3.29090E+00 1.01352E-13-1.33610E-14
 -1      1022-4.65266E+01-1.34167E-02-1.39681E+01 4.39237E+00 2.19482E-13-2.86712E-14
 -1      1023-4.53811E+01-6.33235E-02-1.36392E+01 5.63361E+00 1.22373E-13-4.24888E-14
 -1      1024-4.40327E+01-1.56369E-01-1.32624E+01 7.02384E+00 1.73809E-13-6.12979E-15
 -1      1025-4.24196E+01-3.12754E-01-1.28252E+01 8.56583E+00 6.86789E-14-1.49186E-14
 -1      1026-4.04660E+01-5.55788E-01-1.23118E+01 1.02519E+01 5.90842E-14-2.39561E-14
 -1      1027-3.80833E+01-9.09745E-01-1.17029E+01 1.20592E+01 7.41001E-15-9.51913E-15
 -1      1028-3.51744E+01-1.39623E+00-1.09760E+01 1.39458E+01-2.57558E-13 6.35657E-15
 -1      1029-3.16404E+01-2.02913E+00-1.01054E+01 1.58469E+01 3.94843E-14-1.81037E-14
 -1      1030-2.73890E+01-2.80902E+00-9.06373E+00 1.76749E+01-6.02323E-14 2.80691E-14
 -1      1031-2.23435E+01-3.71829E+00-7.82266E+00 1.93219E+01 3.09775E-14-1.14317E-14
 -1      1032-1.64487E+01-4.71921E+00-6.35431E+00 2.06660E+01-6.92353E-14-4.47780E-15
 -1      1033-9.67039E+00-5.75657E+00-4.63191E+00 2.15781E+01-8.85633E-15 7.79497E-15
 -1      1034-1.98842E+00-6.76579E+00-2.63009E+00 2.19260E+01-1.16138E-13-3.13527E-14
 -1      1035 6.61709E+00-7.68564E+00-3.24560E-01 2.15697E+01 1.18186E-13 2.32018E-14
 -1      1036 1.61826E+01-8.47229E+00 2.30867E+00 2.03436E+01 1.80251E-13-2.41073E-14
 -1      1037 2.67751E+01-9.10910E+00 5.29455E+00 1.80158E+01-2.37464E-13 1.02624E-14
 -1      1038 3.84921E+01-9.60122E+00 8.66054E+00 1.42159E+01-5.76941E-14 2.73205E-14
 -1      1039 5.14403E+01-9.90022E+00 1.24528E+01 8.33514E+00 3.34014E-13 3.12127E-14
 -1      1040-5.32881E+01 2.11811E-02-1.59879E+01 6.84708E-01-3.06822E-14-1.60814E-14
 -1      1041-5.27236E+01 1.80445E-02-1.58193E+01 1.43862E+00-5.00431E-14-1.18933E-14
 -1      1042-5.20988E+01 1.13102E-02-1.56337E+01 2.31650E+00-1.94114E-13-5.03427E-15
 -1      1043-5.13864E+01-7.88906E-03-1.54256E+01 3.33777E+00 2.62924E-13-4.30154E-14
 -1      1044-5.05489E+01-5.34509E-02-1.51879E+01 4.52173E+00 2.03508E-13-2.32798E-14
 -1      1045-4.95347E+01-1.44261E-01-1.49106E+01 5.88459E+00 7.43633E-14 2.82096E-15
 -1      1046-4.82756E+01-3.04407E-01-1.45808E+01 7.43605E+00 7.99780E-14 2.06351E-15
 -1      1047-4.66867E+01-5.62225E-01-1.41812E+01 9.17455E+00 1.61046E-13 1.02940E-15
 -1      1048-4.46672E+01-9.47734E-01-1.36908E+01 1.10815E+01-2.34901E-13-1.61416E-14
 -1      1049-4.21058E+01-1.48809E+00-1.30842E+01 1.31161E+01 1.36053E-13-1.38116E-14
 -1      1050-3.88899E+01-2.20109E+00-1.23331E+01 1.52112E+01 7.75962E-14-8.57471E-15
 -1      1051-3.49168E+01-3.08768E+00-1.14068E+01 1.72735E+01 1.81797E-14-7.96825E-15
 -1      1052-3.01060E+01-4.12530E+00-1.02745E+01 1.91880E+01 4.53781E-14 1.66089E-14
 -1      1053-2.44073E+01-5.26466E+00-8.90637E+00 2.08279E+01-1.08733E-13-7.07842E-15
 -1      1054-1.78016E+01-6.43233E+00-7.27467E+00 2.20666E+01-2.36600E-14-7.46021E-15
 -1      1055-1.02915E+01-7.54040E+00-5.35385E+00 2.27875E+01 1.49570E-13 7.34001E-15
 -1      1056-1.88383E+00-8.50206E+00-3.11999E+00 2.28868E+01 9.31155E-14-3.09981E-14
 -1      1057 7.43364E+00-9.25047E+00-5.49424E-01 2.22638E+01-1.52511E-13 1.54287E-14
 -1      1058 1.77169E+01-9.75656E+00 2.38326E+00 2.07948E+01-2.84878E-15-1.49090E-14
 -1      1059 2.90868E+01-1.00409E+01 5.70792E+00 1.82829E+01-2.92132E-14 1.45488E-14
 -1      1060 4.17384E+01-1.01718E+01 9.46238E+00 1.43741E+01-1.68802E-13 1.21745E-15
 -1      1061 5.59413E+01-1.01941E+01 1.37134E+01 8.43434E+00-2.28529E-13-4.05697E-14
 -1      1062-5.63063E+01 1.99468E-02-1.68946E+01 6.76372E-01 1.90873E-13-1.64703E-14
 -1      1063-5.59929E+01 1.13254E-02-1.68031E+01 1.43029E+00 2.82995E-14 1.43482E-14
 -1      1064-5.56323E+01-7.09449E-03-1.67003E+01 2.34458E+00-8.74267E-14-6.80246E-15
 -1      1065-5.51857E+01-5.07990E-02-1.65794E+01 3.44606E+00-1.43248E-13 1.39141E-14
 -1      1066-5.45976E+01-1.42179E-01-1.64303E+01 4.75975E+00-3.20087E-15 3.87570E-14
 -1      1067-5.37923E+01-3.10520E-01-1.62391E+01 6.30401E+00-2.29894E-13 2.26141E-15
 -1      1068-5.26723E+01-5.91151E-01-1.59871E+01 8.08477E+00 9.83286E-14 1.43944E-14
 -1      1069-5.11199E+01-1.02246E+00-1.56505E+01 1.00883E+01-2.27601E-13 1.91976E-14
 -1      1070-4.90039E+01-1.64026E+00-1.52008E+01 1.22740E+01-2.74541E-14 1.12374E-14
 -1      1071-4.61912E+01-2.46938E+00-1.46054E+01 1.45694E+01-5.74738E-14 1.34259E-14
 -1      1072-4.25629E+01-3.51372E+00-1.38298E+01 1.68700E+01-8.45472E-14 1.53753E-14
 -1      1073-3.80310E+01-4.74702E+00-1.28398E+01 1.90460E+01-6.92495E-14 3.89801E-15
 -1      1074-3.25504E+01-6.10792E+00-1.16034E+01 2.09560E+01-6.82733E-14 3.08376E-14
 -1      1075-2.61201E+01-7.50243E+00-1.00922E+01 2.24644E+01-1.21613E-13 2.12082E-15
 -1      1076-1.87735E+01-8.81526E+00-8.28168E+00 2.34580E+01 2.19183E-14 2.54757E-15
 -1      1077-1.05559E+01-9.92865E+00-6.15010E+00 2.38538E+01 3.93368E-15 9.40562E-15
 -1      1078-1.49700E+00-1.07449E+01-3.67716E+00 2.35954E+01-2.65393E-13-2.27048E-14
 -1      1079 8.41907E+00-1.12078E+01-8.41326E-01 2.26338E+01-5.16039E-14 2.32973E-14
 -1      1080 1.92812E+01-1.13192E+01 2.38334E+00 2.08920E+01-1.94644E-13-4.35129E-14
 -1      1081 3.12753E+01-1.11494E+01 6.03139E+00 1.82088E+01-4.63956E-14-3.30822E-15
 -1      1082 4.47031E+01-1.08371E+01 1.01514E+01 1.42475E+01-1.00358E-14-2.37409E-14
 -1      1083 6.00068E+01-1.05289E+01 1.48312E+01 8.35888E+00 1.35401E-13-7.00435E-15
 -1      1084-5.90065E+01 1.69941E-02-1.77064E+01 6.74056E-01 5.92104E-14-1.58134E-16
 -1      1085-5.90753E+01-2.47118E-03-1.77329E+01 1.44563E+00 1.41528E-13-8.81590E-15
 -1      1086-5.91113E+01-4.39598E-02-1.77562E+01 2.43156E+00-3.04475E-13 2.58436E-14
 -1      1087-5.90554E+01-1.33885E-01-1.77664E+01 3.66776E+00-1.14310E-13 3.75533E-15
 -1      1088-5.88224E+01-3.08055E-01-1.77488E+01 5.18440E+00 2.11133E-13-3.78422E-14
 -1      1089-5.82985E+01-6.11083E-01-1.76825E+01 6.99770E+00 1.79329E-13 2.39677E-14
 -1      1090-5.73429E+01-1.09304E+00-1.75403E+01 9.10064E+00 4.65153E-14-2.12372E-14
 -1      1091-5.57957E+01-1.80247E+00-1.72888E+01 1.14531E+01-7.61691E-15-1.16410E-15
 -1      1092-5.34937E+01-2.77558E+00-1.68898E+01 1.39745E+01-3.85071E-14-1.10875E-14
 -1      1093-5.02925E+01-4.02282E+00-1.63032E+01 1.65433E+01 2.71035E-13-5.16238E-15
 -1      1094-4.60900E+01-5.51612E+00-1.54900E+01 1.90057E+01-1.10871E-13 1.05762E-14
 -1      1095-4.08440E+01-7.18143E+00-1.44152E+01 2.11944E+01-2.10919E-13-1.46255E-14
 -1      1096-3.45751E+01-8.90104E+00-1.30497E+01 2.29538E+01-2.26784E-13 2.39519E-14
 -1      1097-2.73535E+01-1.05275E+01-1.13705E+01 2.41627E+01 1.56105E-13-3.48454E-15
 -1      1098-1.92726E+01-1.19073E+01-9.35956E+00 2.47484E+01 1.13431E-13-2.08554E-15
 -1      1099-1.04140E+01-1.29076E+01-7.00164E+00 2.46856E+01 1.66118E-13 6.45405E-15
 -1      1100-8.14747E-01-1.34416E+01-4.28181E+00 2.39796E+01 1.39769E-13-2.14194E-14
 -1      1101 9.56232E+00-1.34851E+01-1.18183E+00 2.26362E+01-4.12535E-14 1.49952E-14
 -1      1102 2.08535E+01-1.30874E+01 2.32426E+00 2.06208E+01 1.32667E-14-1.45833E-14
 -1      1103 3.33180E+01-1.23758E+01 6.27584E+00 1.78001E+01 1.56843E-13-1.11705E-14
 -1      1104 4.73658E+01-1.15594E+01 1.07327E+01 1.38518E+01 4.27465E-14 3.28281E-15
 -1      1105 6.36101E+01-1.08854E+01 1.58040E+01 8.12023E+00 4.14007E-14 1.49752E-14
 -1      1106-6.14724E+01 1.16368E-02-1.84486E+01 6.85253E-01-1.46835E-13 1.24846E-14
 -1      1107-6.20936E+01-2.74705E-02-1.86469E+01 1.50549E+00-3.30151E-13 6.25130E-14
 -1      1108-6.26933E+01-1.10786E-01-1.88520E+01 2.62039E+00 9.76653E-14-1.87079E-14
 -1      1109-6.31769E+01-2.82421E-01-1.90488E+01 4.07613E+00 8.47190E-14-3.08993E-14
 -1      1110-6.34101E+01-5.98761E-01-1.92139E+01 5.90446E+00 1.60142E-13-2.37424E-14
 -1      1111-6.32205E+01-1.12574E+00-1.93152E+01 8.10923E+00-2.71190E-13 2.10268E-14
 -1      1112-6.24072E+01-1.93026E+00-1.93125E+01 1.06526E+01-6.94646E-14 5.80221E-15
 -1      1113-6.07621E+01-3.06605E+00-1.91596E+01 1.34439E+01 7.44168E-15 1.63063E-14
 -1      1114-5.81008E+01-4.55552E+00-1.88077E+01 1.63375E+01 1.53394E-13 6.28656E-15
 -1      1115-5.42969E+01-6.37163E+00-1.82108E+01 1.91438E+01-8.28905E-14 8.28809E-16
 -1      1116-4.93072E+01-8.42670E+00-1.73297E+01 2.16559E+01-6.48159E-14 3.30623E-15
 -1      1117-4.31772E+01-1.05744E+01-1.61342E+01 2.36838E+01 1.06892E-13-5.75910E-15
 -1      1118-3.60235E+01-1.26279E+01-1.46032E+01 2.50877E+01-6.28718E-15 2.31004E-14
 -1      1119-2.79977E+01-1.43902E+01-1.27233E+01 2.57972E+01-1.29814E-13-6.82545E-16
 -1      1120-1.92436E+01-1.56887E+01-1.04858E+01 2.58115E+01-1.69806E-13 2.05330E-16
 -1      1121-9.85798E+00-1.64047E+01-7.88433E+00 2.51808E+01-1.08584E-13 7.45324E-15
 -1      1122 1.39326E-01-1.64906E+01-4.91059E+00 2.39751E+01-2.01946E-14-1.37910E-14
 -1      1123 1.08269E+01-1.59765E+01-1.55013E+00 2.22470E+01-2.10024E-13 1.07621E-14
 -1      1124 2.23996E+01-1.49691E+01 2.22334E+00 1.99896E+01 1.23883E-13-9.74027E-15
 -1      1125 3.51922E+01-1.36525E+01 6.45466E+00 1.70851E+01-2.11740E-13-1.87795E-15
 -1      1126 4.97166E+01-1.22985E+01 1.12156E+01 1.32194E+01-5.71329E-14 2.55410E-14
 -1      1127 6.67463E+01-1.12438E+01 1.66361E+01 7.74017E+00-7.33744E-14-4.12968E-14
 -1      1128-6.38078E+01 2.14817E-03-1.91528E+01 7.20399E-01 2.66646E-13-1.50827E-14
 -1      1129-6.52078E+01-7.14648E-02-1.95954E+01 1.64021E+00-8.13798E-14-7.05410E-15
 -1      1130-6.65850E+01-2.28253E-01-2.00561E+01 2.97469E+00-9.08306E-14-7.20043E-15
 -1      1131-6.77829E+01-5.40591E-01-2.05097E+01 4.77902E+00 1.95932E-13-1.09920E-14
 -1      1132-6.85868E+01-1.09531E+00-2.09177E+01 7.07624E+00-9.00321E-14 2.56399E-15
 -1      1133-6.87373E+01-1.98542E+00-2.12302E+01 9.83587E+00 1.35471E-13-7.12254E-15
 -1      1134-6.79587E+01-3.29141E+00-2.13885E+01 1.29566E+01 9.02917E-14-1.02312E-14
 -1      1135-6.60032E+01-5.05612E+00-2.13311E+01 1.62603E+01-6.48065E-14-4.78031E-15
 -1      1136-6.27025E+01-7.25852E+00-2.10011E+01 1.95062E+01-8.70081E-14-1.74254E-14
 -1      1137-5.80060E+01-9.79636E+00-2.03528E+01 2.24272E+01 2.96614E-14-1.02853E-14
 -1      1138-5.19901E+01-1.24874E+01-1.93543E+01 2.47801E+01 3.14331E-14 3.12788E-16
 -1      1139-4.48314E+01-1.50933E+01-1.79873E+01 2.63925E+01 1.41593E-13-1.54854E-14
 -1      1140-3.67568E+01-1.73616E+01-1.62443E+01 2.71903E+01 1.51042E-13 9.34533E-15
 -1      1141-2.79858E+01-1.90713E+01-1.41247E+01 2.71961E+01-1.65755E-13-6.77551E-15
 -1      1142-1.86830E+01-2.00696E+01-1.16324E+01 2.65050E+01 3.14379E-13-3.76414E-15
 -1      1143-8.92624E+00-2.02903E+01-8.77081E+00 2.52460E+01 1.05695E-13 8.07798E-15
 -1      1144 1.30895E+00-1.97539E+01-5.53890E+00 2.35409E+01-6.97490E-15-1.51086E-14
 -1      1145 1.21584E+01-1.85582E+01-1.92537E+00 2.14683E+01 2.60076E-13 2.53868E-14
 -1      1146 2.38800E+01-1.68679E+01 2.09760E+00 1.90299E+01-1.52339E-13-7.14401E-15
 -1      1147 3.68788E+01-1.49146E+01 6.58170E+00 1.61084E+01-3.68969E-14 1.16440E-14
 -1      1148 5.17567E+01-1.30175E+01 1.16113E+01 1.23941E+01 3.58991E-13 8.34776E-15
 -1      1149 6.94293E+01-1.15874E+01 1.73369E+01 7.24678E+00-1.05434E-13 5.44241E-15
 -1      1150-6.61443E+01-1.51613E-02-1.98598E+01 7.95253E-01-5.49960E-14-1.10892E-14
 -1      1151-6.86317E+01-1.49190E-01-2.06472E+01 1.89702E+00 2.46110E-13-3.09036E-14
 -1      1152-7.10622E+01-4.34132E-01-2.14628E+01 3.59352E+00-1.83953E-14 1.81335E-14
 -1      1153-7.31710E+01-9.86799E-01-2.22621E+01 5.94110E+00 1.34335E-13-3.90754E-14
 -1      1154-7.46150E+01-1.93662E+00-2.29811E+01 8.92872E+00 1.11206E-14 1.36559E-14
 -1      1155-7.50148E+01-3.40492E+00-2.35420E+01 1.24478E+01-2.39231E-13 1.57109E-14
 -1      1156-7.40204E+01-5.46907E+00-2.38631E+01 1.62785E+01 2.84960E-13-1.44428E-15
 -1      1157-7.13906E+01-8.12344E+00-2.38702E+01 2.01065E+01-5.35335E-15 1.21801E-15
 -1      1158-6.70554E+01-1.12513E+01-2.35072E+01 2.35741E+01 1.61911E-13-1.10376E-14
 -1      1159-6.11303E+01-1.46238E+01-2.27404E+01 2.63554E+01-7.04898E-14-1.06737E-14
 -1      1160-5.38761E+01-1.79326E+01-2.15554E+01 2.82259E+01 5.41987E-14 3.67806E-15
 -1      1161-4.56225E+01-2.08496E+01-1.99528E+01 2.91008E+01-3.97806E-14-6.97396E-15
 -1      1162-3.66873E+01-2.30908E+01-1.79431E+01 2.90309E+01 1.18958E-13 1.38792E-14
 -1      1163-2.73152E+01-2.44642E+01-1.55421E+01 2.81652E+01-2.69774E-14-2.99760E-15
 -1      1164-1.76444E+01-2.48896E+01-1.27672E+01 2.66976E+01 4.20422E-14 9.06047E-16
 -1      1165-7.69747E+00-2.43910E+01-9.63264E+00 2.48168E+01-1.88832E-13 2.60264E-15
 -1      1166 2.61583E+00-2.30747E+01-6.14326E+00 2.26685E+01-2.87762E-14-9.96382E-15
 -1      1167 1.34950E+01-2.11063E+01-2.28893E+00 2.03304E+01 2.97537E-14 6.13465E-15
 -1      1168 2.52570E+01-1.86963E+01 1.96199E+00 1.77919E+01-1.87480E-14-1.84546E-14
 -1      1169 3.83657E+01-1.61071E+01 6.66973E+00 1.49257E+01 1.75716E-13 3.26749E-15
 -1      1170 5.34970E+01-1.36872E+01 1.19320E+01 1.14243E+01-1.34797E-15 1.30578E-14
 -1      1171 7.16874E+01-1.19033E+01 1.79186E+01 6.67034E+00 5.02602E-14-9.59001E-15
 -1      1172-6.86572E+01-4.79369E-02-2.06244E+01 9.35370E-01 3.01956E-14 1.09155E-14
 -1      1173-7.26628E+01-2.89008E-01-2.19000E+01 2.35356E+00-2.44752E-14 1.58806E-14
 -1      1174-7.65014E+01-7.98821E-01-2.32061E+01 4.63759E+00-1.85410E-14 1.89185E-14
 -1      1175-7.97194E+01-1.76217E+00-2.44621E+01 7.81996E+00-7.70259E-14 2.28491E-15
 -1      1176-8.17767E+01-3.36205E+00-2.55605E+01 1.17988E+01 4.42978E-14-1.21644E-15
 -1      1177-8.21522E+01-5.73436E+00-2.63856E+01 1.63052E+01 4.17403E-14 1.42609E-14
 -1      1178-8.04741E+01-8.90732E+00-2.68342E+01 2.09190E+01 9.67536E-14 1.38673E-14
 -1      1179-7.66266E+01-1.27540E+01-2.68334E+01 2.51436E+01-4.38099E-14 1.77887E-14
 -1      1180-7.07780E+01-1.69842E+01-2.63467E+01 2.85215E+01 1.38036E-14 4.71118E-16
 -1      1181-6.33132E+01-2.11905E+01-2.53675E+01 3.07438E+01 9.62198E-15 9.61448E-15
 -1      1182-5.47123E+01-2.49363E+01-2.39091E+01 3.17068E+01-9.85991E-14 1.00316E-14
 -1      1183-4.54291E+01-2.78500E+01-2.19962E+01 3.15005E+01-1.71706E-14 3.92864E-16
 -1      1184-3.58093E+01-2.96913E+01-1.96607E+01 3.03473E+01 9.63282E-14 1.52959E-14
 -1      1185-2.60564E+01-3.03710E+01-1.69370E+01 2.85242E+01-9.83657E-14 8.76454E-16
 -1      1186-1.62325E+01-2.99324E+01-1.38569E+01 2.62962E+01 1.30272E-13 1.46736E-15
 -1      1187-6.27707E+00-2.85121E+01-1.04431E+01 2.38724E+01-1.98837E-13 3.85003E-15
 -1      1188 3.97362E+00-2.62999E+01-6.70360E+00 2.13857E+01 2.29058E-14-1.83513E-14
 -1      1189 1.47781E+01-2.35123E+01-2.62593E+00 1.88866E+01-1.54345E-16 5.41528E-15
 -1      1190 2.65005E+01-2.03850E+01 1.82830E+00 1.63377E+01-1.46525E-13-1.19540E-14
 -1      1191 3.96490E+01-1.71902E+01 6.72955E+00 1.35959E+01 2.89327E-13-3.04394E-15
 -1      1192 5.49563E+01-1.42879E+01 1.21891E+01 1.03583E+01-2.46896E-13 2.32520E-15
 -1      1193 7.35578E+01-1.21836E+01 1.83949E+01 6.04010E+00-1.66562E-13-1.30449E-14
 -1      1194-7.15969E+01-1.12117E-01-2.15267E+01 1.18484E+00-1.74209E-14 6.86287E-16
 -1      1195-7.77357E+01-5.47108E-01-2.35014E+01 3.14381E+00-1.69501E-14-1.01484E-15
 -1      1196-8.34274E+01-1.45650E+00-2.54843E+01 6.37642E+00-2.27089E-13 1.87885E-15
 -1      1197-8.78939E+01-3.12413E+00-2.73270E+01 1.08247E+01 3.68266E-13-6.74273E-15
 -1      1198-9.03184E+01-5.78432E+00-2.88542E+01 1.61751E+01-2.50881E-13 1.57375E-14
 -1      1199-9.00817E+01-9.53599E+00-2.99096E+01 2.18585E+01 6.12293E-14 1.58357E-14
 -1      1200-8.69627E+01-1.42574E+01-3.03902E+01 2.71584E+01-3.44679E-14 5.79436E-15
 -1      1201-8.11993E+01-1.95800E+01-3.02569E+01 3.13995E+01-3.66699E-14 7.02455E-15
 -1      1202-7.33726E+01-2.49513E+01-2.95184E+01 3.41314E+01-5.30431E-14 6.89560E-16
 -1      1203-6.41962E+01-2.97709E+01-2.82090E+01 3.52175E+01 1.87656E-13-1.37021E-15
 -1      1204-5.43241E+01-3.35387E+01-2.63751E+01 3.48081E+01 1.50717E-13 4.14191E-15
 -1      1205-4.42377E+01-3.59499E+01-2.40700E+01 3.32355E+01-5.20682E-15-1.24131E-15
 -1      1206-3.42138E+01-3.69147E+01-2.13499E+01 3.08937E+01 1.79777E-13 1.02919E-14
 -1      1207-2.43458E+01-3.65180E+01-1.82684E+01 2.81444E+01-7.22907E-14-1.22895E-15
 -1      1208-1.45847E+01-3.49541E+01-1.48693E+01 2.52664E+01 1.20574E-14 2.72282E-15
 -1      1209-4.77892E+00-3.24648E+01-1.11796E+01 2.24398E+01-4.29679E-14 7.78141E-16
 -1      1210 5.30143E+00-2.92987E+01-7.20498E+00 1.97513E+01 7.44407E-16-2.54301E-15
 -1      1211 1.59596E+01-2.56944E+01-2.92618E+00 1.72061E+01-4.73453E-14 1.46065E-14
 -1      1212 2.75911E+01-2.18871E+01 1.70473E+00 1.47337E+01-9.07533E-14-1.58002E-14
 -1      1213 4.07331E+01-1.81399E+01 6.76971E+00 1.21762E+01 5.46610E-14 2.69355E-15
 -1      1214 5.61592E+01-1.48091E+01 1.23933E+01 9.23975E+00 6.95727E-14 4.23734E-15
 -1      1215 7.50833E+01-1.24245E+01 1.87796E+01 5.38200E+00 5.01543E-15-1.10794E-14
 -1      1216-7.53503E+01-2.42630E-01-2.26934E+01 1.62434E+00-1.04027E-13-4.58617E-15
 -1      1217-8.45163E+01-1.03873E+00-2.56861E+01 4.50941E+00-1.36819E-13-1.52844E-15
 -1      1218-9.25787E+01-2.66963E+00-2.85982E+01 9.27508E+00-1.93125E-14-4.12602E-15
 -1      1219-9.82173E+01-5.54666E+00-3.11565E+01 1.56060E+01 1.98423E-13 1.55606E-15
 -1      1220-1.00317E+02-9.91082E+00-3.30980E+01 2.27374E+01-3.57504E-15-3.98504E-15
 -1      1221-9.84001E+01-1.56899E+01-3.42576E+01 2.95969E+01-4.54425E-14 9.81214E-15
 -1      1222-9.27894E+01-2.24248E+01-3.45940E+01 3.51300E+01 2.33049E-13 4.09862E-15
 -1      1223-8.43934E+01-2.93459E+01-3.41495E+01 3.86322E+01-1.07583E-13 3.69470E-15
 -1      1224-7.43151E+01-3.55941E+01-3.29975E+01 3.99077E+01 7.59312E-14-8.92695E-16
 -1      1225-6.35216E+01-4.04676E+01-3.12181E+01 3.92071E+01-2.88728E-14-3.33742E-15
 -1      1226-5.26849E+01-4.35713E+01-2.88949E+01 3.70380E+01 5.71177E-14 1.38695E-15
 -1      1227-4.21670E+01-4.48299E+01-2.61139E+01 3.39689E+01-1.55172E-14-3.26066E-15
 -1      1228-3.20793E+01-4.44066E+01-2.29578E+01 3.04944E+01-1.61932E-13 7.06496E-15
 -1      1229-2.23617E+01-4.25933E+01-1.94962E+01 2.69763E+01-9.79341E-14-1.41640E-15
 -1      1230-1.28478E+01-3.97185E+01-1.57778E+01 2.36383E+01-3.74480E-15 2.81161E-18
 -1      1231-3.30809E+00-3.60905E+01-1.18262E+01 2.05879E+01 3.98737E-13 3.38807E-15
 -1      1232 6.53371E+00-3.19756E+01-7.63841E+00 1.78450E+01-8.45675E-14-1.05264E-14
 -1      1233 1.70064E+01-2.76010E+01-3.18417E+00 1.53641E+01 1.77024E-13 9.51916E-15
 -1      1234 2.85208E+01-2.31784E+01 1.59622E+00 1.30439E+01-2.22857E-13-8.73155E-15
 -1      1235 4.16296E+01-1.89465E+01 6.79655E+00 1.07171E+01-1.00234E-13-7.81072E-15
 -1      1236 5.71337E+01-1.52478E+01 1.25538E+01 8.10577E+00-2.00855E-15 6.64425E-15
 -1      1237 7.63081E+01-1.26257E+01 1.90862E+01 4.71754E+00 8.78941E-14-3.28987E-15
 -1      1238-8.05644E+01-5.17911E-01-2.43424E+01 2.41030E+00-2.39566E-15 1.29433E-14
 -1      1239-9.40728E+01-2.01135E+00-2.88496E+01 6.90798E+00-2.52727E-14 8.16463E-15
 -1      1240-1.04969E+02-4.96178E+00-3.30102E+01 1.41537E+01-1.98054E-13 8.19290E-15
 -1      1241-1.11123E+02-9.90733E+00-3.63454E+01 2.31808E+01-1.26529E-13 6.64220E-15
 -1      1242-1.11393E+02-1.69352E+01-3.85373E+01 3.23404E+01-1.28997E-13 2.72998E-15
 -1      1243-1.06150E+02-2.55186E+01-3.95394E+01 3.98768E+01 9.47779E-14 7.07987E-15
 -1      1244-9.68887E+01-3.45646E+01-3.94727E+01 4.45926E+01-2.14606E-13 1.09174E-14
 -1      1245-8.54148E+01-4.27825E+01-3.84921E+01 4.61723E+01-1.09971E-13 4.49924E-15
 -1      1246-7.32160E+01-4.91321E+01-3.67329E+01 4.50447E+01-7.84402E-14 5.21238E-16
 -1      1247-6.12438E+01-5.30839E+01-3.43223E+01 4.20152E+01 2.01351E-13 7.14481E-16
 -1      1248-4.99558E+01-5.46094E+01-3.13893E+01 3.79260E+01-1.72221E-13 2.30650E-15
 -1      1249-3.94567E+01-5.40156E+01-2.80576E+01 3.34610E+01-4.89268E-14-1.07908E-15
 -1      1250-2.96403E+01-5.17565E+01-2.44317E+01 2.90842E+01 1.14742E-13 5.32891E-15
 -1      1251-2.02929E+01-4.82948E+01-2.05864E+01 2.50591E+01-1.00301E-13-4.83296E-16
 -1      1252-1.11552E+01-4.40302E+01-1.65637E+01 2.14981E+01 2.09878E-14-7.31654E-16
 -1      1253-1.94830E+00-3.92774E+01-1.23744E+01 1.84135E+01-1.90164E-13-1.58237E-15
 -1      1254 7.62527E+00-3.42748E+01-8.00076E+00 1.57552E+01-1.23993E-13-5.08979E-15
 -1      1255 1.79010E+01-2.92097E+01-3.39842E+00 1.34332E+01-6.24621E-14 4.81778E-15
 -1      1256 2.92916E+01-2.42533E+01 1.50494E+00 1.13245E+01-2.23912E-14-9.77323E-15
 -1      1257 4.23549E+01-1.96113E+01 6.81459E+00 9.26051E+00 2.54281E-13 3.13125E-15
 -1      1258 5.79091E+01-1.56067E+01 1.26785E+01 6.98570E+00-1.42185E-15-9.34682E-15
 -1      1259 7.72753E+01-1.27893E+01 1.93268E+01 4.06348E+00-5.62611E-15-1.90487E-14
 -1      1260-8.84246E+01-1.13806E+00-2.68902E+01 3.87145E+00-3.04790E-14 1.20170E-15
 -1      1261-1.08176E+02-4.01590E+00-3.36901E+01 1.12451E+01-1.75503E-14 2.68009E-15
 -1      1262-1.21857E+02-9.40368E+00-3.94211E+01 2.24798E+01 6.63049E-14 3.03634E-15
 -1      1263-1.26502E+02-1.78181E+01-4.33457E+01 3.50424E+01 1.28273E-13 9.16301E-16
 -1      1264-1.22234E+02-2.88224E+01-4.53688E+01 4.58134E+01 2.85240E-13 2.62719E-15
 -1      1265-1.11667E+02-4.08761E+01-4.58126E+01 5.25357E+01 2.04336E-14 7.59897E-15
 -1      1266-9.80012E+01-5.19348E+01-4.50257E+01 5.46193E+01 5.09987E-14 4.45937E-15
 -1      1267-8.36578E+01-6.03371E+01-4.32373E+01 5.28311E+01-3.19015E-14 2.26623E-15
 -1      1268-7.00064E+01-6.53376E+01-4.06357E+01 4.85151E+01 1.99313E-13-8.67927E-17
 -1      1269-5.75958E+01-6.70303E+01-3.74144E+01 4.29657E+01 1.18595E-13-3.82521E-17
 -1      1270-4.64706E+01-6.59923E+01-3.37602E+01 3.71419E+01-1.06132E-13 9.70562E-16
 -1      1271-3.64215E+01-6.29487E+01-2.98279E+01 3.16302E+01 1.08584E-13-1.00185E-15
 -1      1272-2.71419E+01-5.85673E+01-2.57259E+01 2.67210E+01-1.45979E-13 2.43114E-15
 -1      1273-1.83080E+01-5.33761E+01-2.15156E+01 2.25076E+01-9.05482E-14-9.03542E-16
 -1      1274-9.61070E+00-4.77557E+01-1.72181E+01 1.89689E+01-9.55637E-14 7.92097E-17
 -1      1275-7.56006E-01-4.19648E+01-1.28230E+01 1.60247E+01 1.43461E-13 1.96578E-15
 -1      1276 8.55156E+00-3.61775E+01-8.29372E+00 1.35677E+01 7.97207E-14-4.92720E-15
 -1      1277 1.86394E+01-3.05219E+01-3.57058E+00 1.14778E+01 8.72015E-14 4.04066E-15
 -1      1278 2.99131E+01-2.51208E+01 1.43110E+00 9.62179E+00-5.13622E-14-6.11933E-15
 -1      1279 4.29285E+01-2.01436E+01 6.82690E+00 7.83889E+00-2.62741E-13-6.93386E-15
 -1      1280 5.85140E+01-1.58923E+01 1.27741E+01 5.90147E+00-7.36390E-14 9.40301E-15
 -1      1281 7.80253E+01-1.29188E+01 1.95127E+01 3.43213E+00-1.99081E-14-7.54581E-15
 -1      1282-1.01299E+02-2.60499E+00-3.11994E+01 6.74145E+00-7.81921E-14 3.96795E-15
 -1      1283-1.29815E+02-8.36599E+00-4.15023E+01 1.94424E+01 3.08011E-14 9.82921E-16
 -1      1284-1.44164E+02-1.81503E+01-4.87584E+01 3.68204E+01 6.36495E-15 2.77688E-15
 -1      1285-1.42651E+02-3.22331E+01-5.25363E+01 5.30447E+01 1.71077E-13 2.10385E-15
 -1      1286-1.30071E+02-4.86531E+01-5.36867E+01 6.32967E+01-1.15737E-13-1.00742E-15
 -1      1287-1.12829E+02-6.40455E+01-5.31257E+01 6.62470E+01 9.53903E-14 6.07451E-15
 -1      1288-9.51570E+01-7.54545E+01-5.12379E+01 6.33539E+01-3.17819E-14 1.91147E-15
 -1      1289-7.90395E+01-8.17517E+01-4.82826E+01 5.70167E+01 1.58799E-13 1.14013E-15
 -1      1290-6.50529E+01-8.33437E+01-4.45556E+01 4.93113E+01-2.75510E-13-4.38923E-16
 -1      1291-5.30646E+01-8.13399E+01-4.03504E+01 4.15975E+01-2.27098E-13-4.53591E-16
 -1      1292-4.26644E+01-7.69300E+01-3.59011E+01 3.45910E+01 2.02176E-13 3.00531E-16
 -1      1293-3.33855E+01-7.10912E+01-3.13607E+01 2.85708E+01 6.92270E-14-1.21405E-15
 -1      1294-2.47979E+01-6.45218E+01-2.68095E+01 2.35662E+01 1.76120E-13 3.41756E-15
 -1      1295-1.65341E+01-5.76762E+01-2.22737E+01 1.94851E+01-3.97750E-14-6.95980E-16
 -1      1296-8.28173E+00-5.08297E+01-1.77418E+01 1.61879E+01 8.16675E-14 8.98484E-16
 -1      1297 2.39307E-01-4.41395E+01-1.31768E+01 1.35263E+01 1.15658E-13 1.34337E-15
 -1      1298 9.30581E+00-3.76944E+01-8.52252E+00 1.13581E+01-9.63641E-14-4.03993E-15
 -1      1299 1.92282E+01-3.15564E+01-3.70430E+00 9.55009E+00 1.21104E-13 3.75160E-15
 -1      1300 3.03997E+01-2.57988E+01 1.37361E+00 7.97120E+00-1.82082E-13-4.92219E-15
 -1      1301 4.33708E+01-2.05570E+01 6.83552E+00 6.47582E+00 1.35619E-13 5.48963E-15
 -1      1302 5.89755E+01-1.61130E+01 1.28463E+01 4.86835E+00 1.59556E-13-1.91041E-15
 -1      1303 7.85947E+01-1.30184E+01 1.96534E+01 2.83185E+00 1.22912E-14 3.48164E-15
 -1      1304-1.24752E+02-6.65932E+00-3.94665E+01 1.30123E+01-1.04377E-13 5.11477E-16
 -1      1305-1.63247E+02-1.80282E+01-5.44632E+01 3.56084E+01-9.12570E-16 1.19353E-15
 -1      1306-1.70340E+02-3.57072E+01-6.19155E+01 6.13229E+01 1.02233E-13 5.39671E-16
 -1      1307-1.54473E+02-5.83918E+01-6.39618E+01 7.82821E+01-1.15800E-13 6.19025E-16
 -1      1308-1.31017E+02-8.08864E+01-6.36642E+01 8.28051E+01-1.39340E-13 1.40305E-15
 -1      1309-1.08047E+02-9.70081E+01-6.15962E+01 7.78755E+01-7.35660E-14 4.10608E-15
 -1      1310-8.83230E+01-1.04842E+02-5.80149E+01 6.81648E+01 3.30487E-14 1.98934E-15
 -1      1311-7.21961E+01-1.05646E+02-5.34046E+01 5.71620E+01-1.04335E-13 1.19092E-15
 -1      1312-5.91056E+01-1.01644E+02-4.82657E+01 4.67824E+01 9.21520E-14 3.24550E-16
 -1      1313-4.82731E+01-9.48425E+01-4.29660E+01 3.78188E+01 2.63475E-13 8.32565E-16
 -1      1314-3.89746E+01-8.66704E+01-3.77175E+01 3.04387E+01-3.03216E-13-5.94606E-16
 -1      1315-3.06223E+01-7.80268E+01-3.26131E+01 2.45216E+01 2.99748E-14-1.55948E-16
 -1      1316-2.27633E+01-6.94241E+01-2.76702E+01 1.98446E+01 4.74965E-14 7.89653E-16
 -1      1317-1.50494E+01-6.11257E+01-2.28633E+01 1.61711E+01 1.71139E-13-1.17998E-16
 -1      1318-7.20056E+00-5.32474E+01-1.81428E+01 1.32870E+01 1.05609E-13 3.88917E-16
 -1      1319 1.03083E+00-4.58243E+01-1.34449E+01 1.10098E+01 1.27320E-15-6.32539E-16
 -1      1320 9.89450E+00-3.88564E+01-8.69450E+00 9.18738E+00 3.90146E-14-2.08340E-15
 -1      1321 1.96804E+01-3.23420E+01-3.80430E+00 7.68965E+00 4.63863E-14 1.82029E-15
 -1      1322 3.07683E+01-2.63105E+01 1.33068E+00 6.39781E+00 1.55003E-13-3.17543E-15
 -1      1323 4.37021E+01-2.08675E+01 6.84172E+00 5.18704E+00 1.32287E-14-1.72425E-15
 -1      1324 5.93182E+01-1.62780E+01 1.28995E+01 3.89601E+00-2.76716E-14-3.67579E-16
 -1      1325 7.90158E+01-1.30925E+01 1.97572E+01 2.26786E+00-1.36829E-13-2.76120E-15
 -1      1326-1.71866E+02-1.79691E+01-5.70364E+01 2.78920E+01 1.04820E-13 7.23587E-15
 -1      1327-2.11214E+02-4.05634E+01-7.56866E+01 6.91898E+01-7.67259E-14 1.31929E-14
 -1      1328-1.89305E+02-7.06511E+01-7.81485E+01 9.99670E+01 1.31231E-14 2.17106E-15
 -1      1329-1.54045E+02-1.05982E+02-7.81550E+01 1.07565E+02 1.11276E-13 5.02181E-15
 -1      1330-1.22518E+02-1.30188E+02-7.59357E+01 9.84274E+01-3.55435E-14 2.15859E-15
 -1      1331-9.76239E+01-1.39444E+02-7.12201E+01 8.27007E+01-4.64582E-14 2.34538E-15
 -1      1332-7.87280E+01-1.37633E+02-6.49858E+01 6.64982E+01 1.34526E-13 1.22393E-16
 -1      1333-6.43533E+01-1.29481E+02-5.82093E+01 5.23556E+01-2.76810E-13-3.61402E-16
 -1      1334-5.30885E+01-1.18412E+02-5.14947E+01 4.08958E+01 1.92006E-14 8.97656E-16
 -1      1335-4.38230E+01-1.06452E+02-4.51159E+01 3.19385E+01-1.27981E-13-8.28320E-16
 -1      1336-3.57535E+01-9.46595E+01-3.91489E+01 2.50554E+01 3.24993E-13 1.04947E-15
 -1      1337-2.83187E+01-8.35194E+01-3.35703E+01 1.98023E+01 1.43180E-14-6.32725E-16
 -1      1338-2.11253E+01-7.32062E+01-2.83137E+01 1.57971E+01-7.58164E-14 1.68127E-16
 -1      1339-1.38857E+01-6.37355E+01-2.32972E+01 1.27346E+01-2.15476E-13-3.26535E-16
 -1      1340-6.37076E+00-5.50498E+01-1.84346E+01 1.03788E+01-1.15982E-13-5.59199E-16
 -1      1341 1.62822E+00-4.70665E+01-1.36383E+01 8.54786E+00-4.93922E-14-8.45193E-16
 -1      1342 1.03327E+01-3.97058E+01-8.81789E+00 7.10087E+00-1.12295E-13-3.06522E-15
 -1      1343 2.00131E+01-3.29127E+01-3.87571E+00 5.92399E+00 4.85591E-14 2.03707E-16
 -1      1344 3.10367E+01-2.66805E+01 1.30019E+00 4.91782E+00 1.51041E-13-1.92679E-15
 -1      1345 4.39412E+01-2.10912E+01 6.84632E+00 3.98185E+00 5.73077E-15 1.04886E-15
 -1      1346 5.95639E+01-1.63963E+01 1.29377E+01 2.98972E+00-1.51041E-13-4.52036E-15
 -1      1347 7.93163E+01-1.31456E+01 1.98313E+01 1.74282E+00-1.31313E-14-8.93148E-15
 -1      1348-2.75811E+02-5.87663E+01-1.00624E+02 7.31523E+01 1.11996E-13 3.39205E-15
 -1      1349-2.42685E+02-8.60889E+01-9.89143E+01 1.32350E+02 9.49510E-14 1.67873E-15
 -1      1350-1.82928E+02-1.47996E+02-9.95294E+01 1.46724E+02-1.21373E-13-2.59052E-15
 -1      1351-1.38240E+02-1.87548E+02-9.79474E+01 1.27884E+02 1.01495E-13 5.81157E-16
 -1      1352-1.06381E+02-1.95837E+02-9.08297E+01 1.00826E+02-1.06556E-13-6.12035E-16
 -1      1353-8.41670E+01-1.86188E+02-8.12291E+01 7.64038E+01 3.43609E-14-6.99888E-16
 -1      1354-6.84770E+01-1.69116E+02-7.13673E+01 5.71726E+01-4.42020E-14-5.03720E-16
 -1      1355-5.69176E+01-1.50236E+02-6.22111E+01 4.28010E+01 2.97801E-13-3.12683E-16
 -1      1356-4.78376E+01-1.32037E+02-5.40098E+01 3.22603E+01-6.96229E-14 3.01595E-16
 -1      1357-4.01654E+01-1.15433E+02-4.67144E+01 2.45579E+01-4.25582E-14 8.80816E-17
 -1      1358-3.32206E+01-1.00625E+02-4.01795E+01 1.89112E+01 6.03495E-14-8.97516E-17
 -1      1359-2.65663E+01-8.75171E+01-3.42442E+01 1.47442E+01 2.44075E-13-2.87337E-16
 -1      1360-1.99100E+01-7.59078E+01-2.87598E+01 1.16442E+01 7.68549E-14 7.95936E-16
 -1      1361-1.30388E+01-6.55738E+01-2.35947E+01 9.31680E+00 1.04052E-13-5.39663E-16
 -1      1362-5.77581E+00-5.63063E+01-1.86331E+01 7.55098E+00-1.17200E-13 8.85736E-17
 -1      1363 2.05143E+00-4.79257E+01-1.37691E+01 6.19330E+00 8.10414E-15 6.88498E-16
 -1      1364 1.06401E+01-4.02900E+01-8.90092E+00 5.12944E+00-1.93872E-14-1.62307E-15
 -1      1365 2.02445E+01-3.33034E+01-3.92352E+00 4.27027E+00 2.48035E-14 1.28481E-15
 -1      1366 3.12218E+01-2.69329E+01 1.28001E+00 3.54018E+00-1.99126E-13-2.69646E-15
 -1      1367 4.41050E+01-2.12433E+01 6.84980E+00 2.86459E+00 1.04638E-13 6.22048E-16
 -1      1368 5.97314E+01-1.64763E+01 1.29638E+01 2.15142E+00-4.08271E-14 2.16467E-15
 -1      1369 7.95201E+01-1.31815E+01 1.98816E+01 1.25757E+00 9.79795E-14 5.38315E-19
 -1      1370-3.23734E+02-1.12589E+02-1.31396E+02 1.74053E+02 1.61167E-13-2.41995E-15
 -1      1371-2.16576E+02-2.40506E+02-1.37596E+02 2.07277E+02 3.08411E-14-1.40235E-15
 -1      1372-1.55686E+02-3.06933E+02-1.39200E+02 1.66681E+02-8.75406E-14 1.30797E-15
 -1      1373-1.14698E+02-2.98265E+02-1.24195E+02 1.18875E+02 4.97220E-14 2.70898E-16
 -1      1374-8.83637E+01-2.64504E+02-1.06073E+02 8.28122E+01 3.38444E-14 1.28139E-15
 -1      1375-7.13477E+01-2.27477E+02-8.97922E+01 5.79597E+01-5.08416E-14-2.19200E-15
 -1      1376-5.97149E+01-1.94020E+02-7.62203E+01 4.11686E+01 1.75950E-13 1.24502E-16
 -1      1377-5.10372E+01-1.65499E+02-6.50306E+01 2.97592E+01-2.30727E-13-2.14421E-16
 -1      1378-4.39131E+01-1.41575E+02-5.56962E+01 2.18969E+01 3.29071E-14 2.23767E-16
 -1      1379-3.75426E+01-1.21511E+02-4.77520E+01 1.63900E+01 8.20891E-14 7.34045E-16
 -1      1380-3.14588E+01-1.04567E+02-4.08342E+01 1.24704E+01-3.05676E-15 1.14683E-16
 -1      1381-2.53747E+01-9.01143E+01-3.46662E+01 9.63835E+00-2.33850E-13 4.92719E-17
 -1      1382-1.90977E+01-7.76413E+01-2.90362E+01 7.56369E+00 2.02227E-13 3.33308E-16
 -1      1383-1.24801E+01-6.67427E+01-2.37778E+01 6.02381E+00-1.86672E-13-1.88111E-16
 -1      1384-5.38737E+00-5.70998E+01-1.87546E+01 4.86556E+00 1.82181E-13 1.01235E-15
 -1      1385 2.32547E+00-4.84655E+01-1.38489E+01 3.98100E+00-6.26043E-14 2.52531E-16
 -1      1386 1.08377E+01-4.06556E+01-8.95130E+00 3.29160E+00 4.32521E-14-4.76077E-16
 -1      1387 2.03923E+01-3.35472E+01-3.95231E+00 2.73737E+00-1.61283E-13 1.19118E-15
 -1      1388 3.13394E+01-2.70900E+01 1.26815E+00 2.26830E+00-4.54552E-14 3.65733E-16
 -1      1389 4.42085E+01-2.13377E+01 6.85248E+00 1.83584E+00 1.31598E-13 7.37763E-16
 -1      1390 5.98367E+01-1.65257E+01 1.29806E+01 1.38065E+00-1.77889E-13 1.67555E-15
 -1      1391 7.96470E+01-1.32037E+01 1.99130E+01 8.11549E-01 9.26721E-14-2.51977E-16
 -1      1392-3.62639E+02-6.95039E+02-3.18688E+02 1.99733E+02-4.23137E-14 2.09942E-15
 -1      1393-2.04966E+02-6.28698E+02-2.51247E+02 1.82780E+02-5.45819E-14-1.03452E-15
 -1      1394-1.32453E+02-5.04937E+02-1.91923E+02 1.14483E+02-9.51984E-15 2.75126E-16
 -1      1395-9.45718E+01-3.95469E+02-1.47428E+02 7.15267E+01-3.17393E-14-2.81549E-16
 -1      1396-7.43621E+01-3.14032E+02-1.16771E+02 4.60682E+01 2.30727E-14 1.80612E-16
 -1      1397-6.22520E+01-2.54005E+02-9.50377E+01 3.07483E+01 1.12327E-13-7.89578E-16
 -1      1398-5.39224E+01-2.08935E+02-7.89634E+01 2.11946E+01-9.89415E-15-5.44799E-16
 -1      1399-4.73451E+01-1.74239E+02-6.65479E+01 1.50233E+01-3.09976E-14-5.89621E-16
 -1      1400-4.15388E+01-1.46879E+02-5.65764E+01 1.09095E+01-7.85106E-16-3.08162E-17
 -1      1401-3.59979E+01-1.24824E+02-4.82830E+01 8.09230E+00 6.08324E-14-8.41189E-17
 -1      1402-3.04414E+01-1.06687E+02-4.11650E+01 6.11839E+00-1.07363E-13-1.01244E-16
 -1      1403-2.46966E+01-9.14967E+01-3.48776E+01 4.70811E+00 2.16636E-13-1.13695E-16
 -1      1404-1.86405E+01-7.85574E+01-2.91739E+01 3.68338E+00-2.17763E-13-2.81470E-17
 -1      1405-1.21682E+01-6.73571E+01-2.38686E+01 2.92739E+00-1.10288E-14-5.60459E-17
 -1      1406-5.17196E+00-5.75153E+01-1.88147E+01 2.36139E+00-1.43425E-13-1.11295E-16
 -1      1407 2.47658E+00-4.87473E+01-1.38881E+01 1.93072E+00 2.61439E-13 2.65107E-16
 -1      1408 1.09461E+01-4.08459E+01-8.97589E+00 1.59612E+00 4.20514E-16-5.79886E-16
 -1      1409 2.04730E+01-3.36739E+01-3.96612E+00 1.32790E+00-3.01968E-14 2.17193E-16
 -1      1410 3.14032E+01-2.71714E+01 1.26284E+00 1.10157E+00 1.09016E-13-6.60063E-16
 -1      1411 4.42641E+01-2.13866E+01 6.85452E+00 8.93588E-01-1.41212E-13-4.18577E-16
 -1      1412 5.98932E+01-1.65508E+01 1.29900E+01 6.75319E-01 1.35230E-13 4.57901E-16
 -1      1413 7.97137E+01-1.32151E+01 1.99295E+01 4.03287E-01-8.51229E-14-2.39200E-15
 -3
    1PSTEP                         3           1           1          
  100CL  101 1.000000000        1412                     0    1           1
 -4  TOSTRAIN    6    1
 -5  EXX         1    4    1    1
 -5  EYY         1    4    2    2
 -5  EZZ         1    4    3    3
 -5  EXY         1    4    1    2
 -5  EYZ         1    4    2    3
 -5  EZX         1    4    3    1
 -1         1 8.13958E-07-3.82609E-07 1.84933E-35 8.56441E-07-6.42626E-18 7.32864E-19
 -1         2-2.97846E-03-5.48606E-03-3.21096E-37 3.19114E-03-3.56347E-20 2.20654E-21
 -1         3 5.06343E-04-2.31902E-04 4.74752E-36 4.18986E-06-1.29877E-18-3.74119E-22
 -1         4 1.89605E-05-4.58914E-05 4.69822E-35 4.47678E-07-4.41966E-18 1.66596E-19
 -1         5-3.80822E-03-4.23223E-03 1.64185E-36-3.12690E-04-1.18671E-18 8.01909E-21
 -1         6-6.40212E-07 2.59202E-06-2.23827E-39 3.13365E-06-2.54589E-21-1.12213E-19
 -1         7 2.64267E-04-3.97090E-04 4.93444E-38-1.07593E-06-8.59246E-20 1.74386E-21
 -1         9-9.91320E-07 1.30487E-07 2.90871E-35 4.50728E-07 2.89568E-18-5.80066E-19
 -1        10-8.83078E-06 3.24171E-06 1.06963E-35 4.69293E-07 1.35199E-19 6.14386E-20
 -1        11-2.45814E-05 1.01679E-05 3.23122E-35 4.02337E-07 2.91465E-18-5.68945E-19
 -1        12-4.60539E-05 1.94205E-05 1.34852E-35 6.83345E-07 3.21529E-18-8.86315E-20
 -1        13-7.06116E-05 2.99176E-05 3.89504E-36 9.65116E-07 1.59824E-18 1.91900E-19
 -1        14-9.65507E-05 4.09810E-05 5.32766E-37 1.23457E-06 7.59715E-19-6.83316E-20
 -1        15-1.22619E-04 5.20888E-05-1.45558E-36 1.47408E-06 5.87130E-19-2.85147E-19
 -1        16-1.47867E-04 6.28467E-05-1.10028E-36 1.67566E-06 8.45382E-19-5.46587E-20
 -1        17-1.71603E-04 7.29686E-05-8.43457E-37 1.83511E-06-6.33381E-19 4.21450E-19
 -1        18-1.93364E-04 8.22676E-05 1.11208E-37 1.95277E-06 6.26577E-19 3.50164E-19
 -1        19-2.12888E-04 9.06438E-05 3.95189E-36 2.03313E-06 7.67168E-19 9.77431E-20
 -1        20-2.30077E-04 9.80698E-05 5.10867E-36 2.08415E-06-1.36058E-19-3.10070E-19
 -1        21-2.44963E-04 1.04575E-04 1.63494E-36 2.11669E-06 1.09698E-19-7.41150E-20
 -1        22-2.57664E-04 1.10231E-04 4.05371E-36 2.14403E-06-9.54510E-19 3.59026E-19
 -1        23-2.68357E-04 1.15141E-04 1.72951E-37 2.18211E-06 5.66830E-19-4.31204E-19
 -1        24-2.77250E-04 1.19431E-04 1.92543E-36 2.25064E-06 1.92426E-18-3.16911E-19
 -1        25-2.84560E-04 1.23246E-04-2.47405E-36 2.37548E-06-8.08340E-19 2.44342E-19
 -1        26-2.90498E-04 1.26757E-04 2.25657E-37 2.59349E-06 1.63128E-18 7.01702E-20
 -1        27-2.95264E-04 1.30166E-04-1.38967E-36 2.96127E-06-1.39477E-18 6.29915E-20
 -1        28-2.99036E-04 1.33740E-04 8.35003E-36 3.57333E-06-1.51118E-18 4.27293E-20
 -1        29-3.01972E-04 1.37846E-04 2.95837E-36 4.59445E-06 7.95169E-19 5.63656E-20
 -1        30-3.04199E-04 1.43078E-04 3.21590E-36 6.35333E-06-6.66021E-19-9.29694E-20
 -1        31-3.05861E-04 1.50314E-04 7.71446E-37 9.45597E-06 1.30511E-18 1.62357E-19
 -1        32-3.06861E-04 1.61805E-04-6.52398E-37 1.56632E-05 1.17091E-18-2.32727E-20
 -1        33-3.08138E-04 1.79067E-04 3.79343E-36 2.75839E-05-6.40530E-19 5.85361E-20
 -1        34-3.07527E-04 2.21739E-04 2.47851E-37 6.62451E-05-3.82312E-19 4.60164E-20
 -1        35-3.81746E-04 2.44194E-04 9.81792E-37 1.46904E-04-8.79995E-19 2.67152E-20
 -1        36-9.52603E-04 5.58207E-04-8.17847E-37 1.02958E-03-3.58928E-19-1.16942E-19
 -1        37-2.21305E-03-2.27984E-03 8.51276E-37 1.91561E-03-5.03393E-19 1.96843E-20
 -1        38 5.27553E-04-4.86035E-03-3.56177E-37 1.59500E-03 2.43853E-19 4.75339E-21
 -1        39 7.34045E-04-3.54759E-03 6.45122E-37 7.30501E-04-1.90373E-19-3.53569E-21
 -1        40 6.04551E-04-2.45707E-03-8.32762E-37 3.82239E-04 3.82675E-19 1.11982E-22
 -1        41 4.53191E-04-1.79855E-03 4.03333E-36 2.19683E-04 1.51025E-18 7.22463E-23
 -1        42 3.33535E-04-1.37255E-03 9.29340E-38 1.36244E-04 4.72915E-20-1.62373E-22
 -1        43 2.45085E-04-1.08088E-03 8.72749E-38 8.94384E-05-1.28152E-19-1.92448E-21
 -1        44 1.81197E-04-8.71477E-04 7.01971E-37 6.14187E-05-7.93564E-20-8.56267E-22
 -1        45 1.35827E-04-7.15683E-04-3.15768E-37 4.37493E-05-1.03430E-19 3.96353E-22
 -1        46 1.04520E-04-5.96566E-04 1.99320E-36 3.21443E-05 2.60725E-18 1.11073E-22
 -1        47 8.41299E-05-5.03573E-04 1.43948E-35 2.42682E-05-3.77001E-18-6.37449E-22
 -1        48 7.24595E-05-4.29815E-04 1.14569E-36 1.87792E-05 6.40629E-19-1.26025E-22
 -1        49 6.79844E-05-3.70622E-04 4.35146E-36 1.48699E-05-9.15583E-19 5.54634E-23
 -1        50 6.96701E-05-3.22743E-04 1.23337E-36 1.20360E-05 2.48649E-18 4.32609E-22
 -1        51 7.68609E-05-2.83874E-04 4.10084E-36 9.95244E-06 9.87717E-19-2.92357E-22
 -1        52 8.92231E-05-2.52385E-04 2.88419E-36 8.40363E-06 2.03175E-19 2.07205E-22
 -1        53 1.06736E-04-2.27167E-04 1.55368E-36 7.24362E-06-1.59734E-18-4.02513E-22
 -1        54 1.29732E-04-2.07567E-04 1.65732E-36 6.37166E-06-7.78361E-19-7.00741E-22
 -1        55 1.58996E-04-1.93395E-04 6.26402E-36 5.71699E-06-8.44305E-19 2.47342E-22
 -1        56 1.95973E-04-1.85036E-04 9.42727E-37 5.22889E-06 1.32707E-18 8.80458E-22
 -1        57 2.43145E-04-1.83726E-04 1.30141E-36 4.86958E-06 4.19676E-19 2.01670E-21
 -1        58 3.04764E-04-1.92144E-04 5.81112E-36 4.60598E-06 7.80508E-19 1.06179E-23
 -1        59 3.88364E-04-2.15569E-04-1.60055E-36 4.40456E-06-2.73221E-19-2.70341E-21
 -1        60 5.06185E-04-2.31849E-04 1.97294E-36 1.34055E-06-1.28590E-18-8.60191E-21
 -1        61 5.05688E-04-2.31670E-04 5.75924E-36 2.60501E-06-1.40749E-18 4.32690E-20
 -1        62 5.04779E-04-2.31328E-04 8.19842E-36 3.98951E-06-1.03914E-18 3.51052E-20
 -1        63 5.03342E-04-2.30780E-04 1.25121E-36 5.49784E-06 9.61728E-19 6.58142E-20
 -1        64 5.01241E-04-2.29970E-04-4.91581E-38 7.13117E-06 1.66630E-18 5.40904E-20
 -1        65 4.98313E-04-2.28837E-04 3.17398E-36 8.88656E-06-1.08278E-18 9.19127E-20
 -1        66 4.94366E-04-2.27305E-04 7.24993E-37 1.07553E-05 1.32151E-18-1.25875E-20
 -1        67 4.89179E-04-2.25290E-04 4.56898E-36 1.27206E-05 8.06247E-19 1.41532E-19
 -1        68 4.82507E-04-2.22697E-04 7.54506E-36 1.47559E-05-8.61123E-19 1.07735E-19
 -1        69 4.74080E-04-2.19422E-04 6.42474E-36 1.68218E-05 1.27106E-18 1.96180E-19
 -1        70 4.63614E-04-2.15361E-04-1.89660E-36 1.88649E-05-2.59518E-19-2.76796E-19
 -1        71 4.50828E-04-2.10408E-04 2.29752E-36 2.08163E-05-1.00181E-18 3.29959E-19
 -1        72 4.35466E-04-2.04472E-04 6.21082E-36 2.25927E-05 2.04831E-18 5.93116E-19
 -1        73 4.17322E-04-1.97482E-04-1.20095E-36 2.41003E-05-1.56400E-18 1.77709E-19
 -1        74 3.96277E-04-1.89403E-04 2.14804E-36 2.52414E-05-3.45241E-19-1.31371E-19
 -1        75 3.72330E-04-1.80245E-04 1.52043E-36 2.59261E-05-7.68532E-19 1.32769E-19
 -1        76 3.45628E-04-1.70074E-04 2.69471E-35 2.60854E-05 4.59825E-18 1.42607E-18
 -1        77 3.16480E-04-1.59011E-04-3.51155E-36 2.56851E-05 1.75770E-19 5.73957E-19
 -1        78 2.85348E-04-1.47229E-04 2.15945E-36 2.47361E-05-5.73334E-19 6.69627E-19
 -1        79 2.52823E-04-1.34941E-04-3.00900E-36 2.32955E-05-2.00622E-18 7.60284E-19
 -1        80 2.19571E-04-1.22382E-04 2.96086E-35 2.14580E-05 5.56782E-18 6.88890E-19
 -1        81 1.86285E-04-1.09792E-04 5.66336E-37 1.93371E-05-1.65960E-18 5.01494E-19
 -1        82 1.53649E-04-9.74131E-05 1.29305E-36 1.70410E-05-4.88889E-19 5.55523E-19
 -1        83 1.22337E-04-8.54856E-05 7.77926E-36 1.46511E-05-3.90620E-18 1.92266E-19
 -1        84 9.30549E-05-7.42715E-05 1.41449E-35 1.22068E-05 1.34588E-18 1.19082E-18
 -1        85 6.66656E-05-6.40869E-05 6.98992E-36 9.69844E-06-3.47965E-18 8.09254E-19
 -1        86 4.44337E-05-5.53615E-05 2.26303E-35 7.06731E-06-3.76791E-19 4.10707E-19
 -1        87 2.84730E-05-4.87254E-05 1.93109E-35 4.30144E-06-2.56670E-18 2.48597E-19
 -1        88 2.06777E-05-4.53600E-05 6.58596E-36 1.71601E-06-1.84310E-18 8.19934E-19
 -1        89 2.06456E-05-4.59470E-05 1.17250E-36 1.23183E-06-2.56464E-18 8.24932E-19
 -1        90 1.98199E-05-4.46783E-05 1.11899E-35 2.93578E-06-3.76804E-18-3.48375E-19
 -1        91 1.78648E-05-4.09875E-05 1.45538E-35 4.76202E-06-5.08651E-19 1.44234E-20
 -1        92 1.53791E-05-3.57245E-05 4.94989E-35 6.10646E-06-4.80944E-18-5.16045E-19
 -1        93 1.27405E-05-2.98075E-05 7.32729E-36 6.89801E-06 1.48501E-19 1.95717E-19
 -1        94 1.01802E-05-2.39091E-05 4.32258E-36 7.20041E-06-2.12827E-18-3.09587E-19
 -1        95 7.83276E-06-1.84508E-05 1.42211E-36 7.11248E-06-4.12178E-18 1.81521E-19
 -1        96 5.76707E-06-1.36618E-05 1.15851E-35 6.73328E-06 2.18917E-18-8.71239E-20
 -1        97 4.00905E-06-9.63713E-06 4.81821E-36 6.15132E-06-3.20555E-18 1.24087E-19
 -1        98 2.55739E-06-6.38357E-06-4.77771E-36 5.44193E-06-7.59708E-19-1.52404E-19
 -1        99 1.39471E-06-3.85356E-06 2.57515E-35 4.66757E-06-4.28749E-18 4.13109E-19
 -1       100 4.95108E-07-1.96885E-06 6.71205E-36 3.87902E-06-9.15154E-19 4.68445E-19
 -1       101-1.70826E-07-6.36868E-07 3.24393E-35 3.11676E-06-2.16023E-18-4.97817E-19
 -1       102-6.32874E-07 2.38320E-07-3.95157E-36 2.41236E-06-1.20147E-18-2.58774E-19
 -1       103-9.19246E-07 7.48908E-07 3.85407E-35 1.78976E-06-4.40306E-18 1.18343E-19
 -1       104-1.05543E-06 9.78964E-07 1.29125E-35 1.26652E-06-1.62389E-18 1.41352E-19
 -1       105-1.06356E-06 1.00199E-06 1.95870E-35 8.55113E-07-1.32932E-18-1.65428E-19
 -1       106-9.62039E-07 8.79800E-07-6.95757E-37 5.64210E-07-9.05020E-19-1.09542E-19
 -1       107-7.65393E-07 6.62388E-07 2.50123E-36 3.99922E-07-2.56132E-19-5.15042E-19
 -1       108-4.84259E-07 3.88378E-07 4.01399E-36 3.66924E-07 5.82439E-19-1.86088E-19
 -1       109-1.25534E-07 8.58504E-08-1.88488E-35 4.69465E-07-1.41026E-18-1.15702E-19
 -1       110 3.08003E-07-2.26137E-07 1.87360E-35 7.11745E-07-2.18972E-18 1.52463E-19
 -1       111-3.21217E-03-6.02367E-03 7.87151E-40-1.12619E-03-2.66660E-19-3.54263E-20
 -1       112-1.76225E-03-1.57280E-03 5.68729E-38-2.14480E-03-2.11708E-19 8.86571E-20
 -1       113-4.87396E-04 4.22860E-04-9.13631E-39-8.76776E-04-3.98999E-19 5.84215E-20
 -1       114-3.08743E-05 1.55362E-04 7.71494E-37-1.64946E-04-4.41822E-19-2.24376E-20
 -1       115 8.24542E-06 1.08747E-04-1.39859E-37-7.97778E-05-1.73934E-20-4.64338E-20
 -1       116 4.00869E-06 6.35409E-05 6.97169E-37-3.98259E-05 1.48611E-19-4.93066E-21
 -1       117 3.44491E-06 4.23074E-05 1.16346E-37-2.47360E-05-3.18729E-19-4.79738E-21
 -1       118 2.62531E-06 2.86578E-05-2.83105E-38-1.63571E-05 1.32508E-19 5.98307E-20
 -1       119 2.15216E-06 2.01273E-05 5.73266E-38-1.16303E-05-6.13658E-20-2.03653E-20
 -1       120 1.78625E-06 1.44176E-05-1.45414E-38-8.66137E-06-1.64492E-19-1.30625E-20
 -1       121 1.52174E-06 1.05014E-05 7.38885E-38-6.70575E-06-2.11756E-19-1.05977E-20
 -1       122 1.32455E-06 7.73478E-06 1.29561E-37-5.35159E-06-2.13263E-19 2.69131E-21
 -1       123 1.17917E-06 5.73736E-06 5.12114E-39-4.37910E-06 9.81255E-21 3.65835E-20
 -1       124 1.07349E-06 4.26626E-06 1.11143E-39-3.65848E-06-3.93138E-20-3.39486E-20
 -1       125 9.99604E-07 3.16321E-06-6.79369E-39-3.11051E-06-8.27110E-20 1.30316E-20
 -1       126 9.52054E-07 2.32156E-06 1.16916E-38-2.68440E-06-1.49291E-19-3.94692E-20
 -1       127 9.27257E-07 1.66766E-06 8.33086E-39-2.34631E-06 2.74129E-19 4.20979E-20
 -1       128 9.23031E-07 1.14932E-06 5.28189E-38-2.07276E-06-2.52531E-19-1.83906E-20
 -1       129 9.38351E-07 7.28724E-07 1.80433E-38-1.84669E-06 1.67266E-19-1.69200E-20
 -1       130 9.73127E-07 3.77553E-07 5.39472E-41-1.65493E-06-6.71477E-20-5.68120E-20
 -1       131 1.02819E-06 7.47007E-08 5.10863E-39-1.48685E-06-1.75207E-20-9.09280E-20
 -1       132 1.10597E-06-1.99621E-07 2.38539E-38-1.33174E-06 1.06733E-20 1.44383E-21
 -1       133 1.20262E-06-4.47806E-07 1.42309E-38-1.18426E-06-1.28392E-19 9.88790E-20
 -1       134 1.36523E-06-7.43200E-07 2.08074E-38-1.00861E-06-2.94441E-21 9.31837E-20
 -1       135 1.36959E-06-8.33488E-07 3.30643E-39-9.62999E-07 3.29479E-20-1.99838E-20
 -1       136 2.25354E-06-2.10895E-06 7.96695E-39-1.07959E-07-9.14858E-22-3.85985E-20
 -1       137 1.52590E-06 2.26515E-08 1.56687E-38-9.80139E-08-6.80139E-21 1.05815E-19
 -1       138 5.58725E-07-1.46664E-06 1.43000E-38 3.28075E-06 5.18540E-21-6.88179E-20
 -1       139 2.88983E-06-5.62448E-06 2.58674E-38 3.30995E-06-2.49756E-21 7.43844E-20
 -1       140 5.15551E-06-9.99184E-06 6.74352E-39 3.26558E-06-6.27067E-21-8.24171E-20
 -1       141 7.49433E-06-1.47109E-05 4.73899E-39 3.17048E-06 1.05943E-20 7.31638E-20
 -1       142 1.00452E-05-1.99269E-05 2.73284E-38 3.04268E-06-1.46522E-20 4.19178E-20
 -1       143 1.29449E-05-2.57955E-05-2.73157E-39 2.89468E-06-3.25415E-21-1.13493E-19
 -1       144 1.63314E-05-3.24860E-05 1.89770E-38 2.73354E-06-2.88556E-21-3.98084E-20
 -1       145 2.03504E-05-4.01865E-05-3.98518E-39 2.56149E-06 5.75103E-21 5.21607E-20
 -1       146 2.51630E-05-4.91114E-05 2.37958E-38 2.37729E-06-1.93938E-20 1.92493E-20
 -1       147 3.09569E-05-5.95104E-05 9.98586E-39 2.17771E-06 8.51402E-20-1.97897E-19
 -1       148 3.79563E-05-7.16774E-05-7.06738E-40 1.95900E-06-1.12816E-20 9.71694E-20
 -1       149 4.64324E-05-8.59591E-05 2.50347E-38 1.71819E-06-1.00449E-20 1.15918E-21
 -1       150 5.67098E-05-1.02759E-04 3.57340E-39 1.45418E-06-4.87794E-20-6.67789E-20
 -1       151 6.91657E-05-1.22534E-04 5.77967E-38 1.16876E-06-5.68609E-20-5.59846E-20
 -1       152 8.42146E-05-1.45771E-04-1.33594E-38 8.67838E-07 5.95397E-20 5.71834E-21
 -1       153 1.02264E-04-1.72926E-04-1.33762E-38 5.62913E-07 4.48798E-20 7.49911E-20
 -1       154 1.23623E-04-2.04311E-04 1.26406E-37 2.72651E-07 1.36836E-19-1.57644E-20
 -1       155 1.48327E-04-2.39870E-04-4.14864E-38 2.36958E-08 1.47111E-20-3.37490E-20
 -1       156 1.75859E-04-2.78830E-04 1.97151E-38-1.50790E-07-7.55756E-20-1.73768E-20
 -1       157 2.04753E-04-3.19198E-04 1.61926E-39-2.16761E-07 2.37470E-20 1.53125E-20
 -1       158 2.32282E-04-3.57191E-04 3.30110E-39-1.48361E-07 6.44365E-20-8.92214E-21
 -1       159 2.54214E-04-3.89152E-04 2.89399E-38 3.40147E-08-1.33389E-19-5.84662E-21
 -1       160 1.77249E-04-4.92973E-03 3.26115E-37-1.18724E-03 1.14656E-18-8.65347E-21
 -1       161 1.37098E-03-5.26663E-03 4.06445E-37-9.15459E-04-8.33443E-19 3.45711E-21
 -1       162 1.49291E-03-4.41795E-03-2.85930E-37-5.68959E-04-1.09365E-20 1.33607E-21
 -1       163 1.36169E-03-3.53997E-03 5.42735E-37-3.52860E-04-2.09475E-19-4.71908E-21
 -1       164 1.18543E-03-2.85589E-03-2.25674E-37-2.24111E-04 1.08880E-20 2.81294E-21
 -1       165 1.02283E-03-2.33957E-03 6.49338E-37-1.46663E-04 4.98714E-19 7.65558E-22
 -1       166 8.85393E-04-1.94701E-03-3.83448E-37-9.84876E-05-5.96071E-19-3.26516E-21
 -1       167 7.72204E-04-1.64328E-03 4.19089E-37-6.75617E-05 4.56003E-19 4.75598E-22
 -1       168 6.79411E-04-1.40398E-03 1.27438E-37-4.71208E-05 2.05498E-19-2.62198E-23
 -1       169 6.03101E-04-1.21231E-03 9.75678E-38-3.32708E-05-1.73261E-19-1.14310E-21
 -1       170 5.39978E-04-1.05663E-03-4.24781E-39-2.36877E-05-6.46654E-20 1.85624E-21
 -1       171 4.87434E-04-9.28685E-04 1.56332E-37-1.69408E-05 3.48990E-20 1.25804E-21
 -1       172 4.43446E-04-8.22565E-04-1.08727E-37-1.21225E-05-5.98823E-20-2.30722E-22
 -1       173 4.06457E-04-7.33936E-04 2.89225E-37-8.64209E-06-3.30974E-19-1.01499E-21
 -1       174 3.75272E-04-6.59589E-04 4.19465E-38-6.10615E-06-2.00506E-19 1.82073E-23
 -1       175 3.48972E-04-5.97129E-04-5.21072E-38-4.24723E-06-4.00322E-20-6.12644E-22
 -1       176 3.26860E-04-5.44771E-04 2.32152E-37-2.88059E-06-4.22421E-19-1.88952E-22
 -1       177 3.08416E-04-5.01207E-04-3.23717E-38-1.87696E-06 5.91407E-20 3.44763E-22
 -1       178 2.93274E-04-4.65532E-04 3.67998E-38-1.14530E-06-1.80780E-19-5.43784E-22
 -1       179 2.81212E-04-4.37216E-04 3.44338E-39-6.21768E-07 3.45370E-20 1.94416E-22
 -1       180 2.72183E-04-4.16114E-04 7.85626E-39-2.62049E-07-5.49409E-20-7.09769E-23
 -1       181 2.65812E-04-4.02520E-04 7.11748E-38-3.30132E-08 2.59047E-19 3.30550E-23
 -1       182-3.55173E-05-5.59454E-03 3.22230E-37-1.24709E-03 5.43554E-20-9.36906E-21
 -1       183 9.75109E-04-4.76582E-03 5.85085E-37-1.40181E-03 4.00787E-19-6.60897E-21
 -1       184 1.23757E-03-3.99461E-03 6.03236E-37-1.07280E-03-1.73949E-20 4.50552E-22
 -1       185 1.21334E-03-3.30822E-03-1.35227E-37-7.33768E-04-1.21108E-19-4.96058E-21
 -1       186 1.10241E-03-2.73297E-03 3.99997E-37-4.92861E-04-8.87026E-20 6.52519E-21
 -1       187 9.76048E-04-2.27346E-03-1.39664E-37-3.33057E-04 2.52996E-20-1.12744E-20
 -1       188 8.58648E-04-1.91041E-03 6.98206E-37-2.28122E-04-8.75862E-20 3.53632E-21
 -1       189 7.56643E-04-1.62246E-03 2.72912E-39-1.58459E-04-2.01339E-19 4.90328E-21
 -1       190 6.70216E-04-1.39187E-03 2.67958E-37-1.11430E-04-2.31105E-19 6.07643E-21
 -1       191 5.97598E-04-1.20514E-03-3.00567E-39-7.91154E-05 1.36521E-19 5.93827E-21
 -1       192 5.36655E-04-1.05232E-03 1.38573E-37-5.65444E-05 1.84249E-20-1.91716E-21
 -1       193 4.85417E-04-9.26084E-04-2.13900E-38-4.05493E-05-5.04551E-20-3.85929E-21
 -1       194 4.42220E-04-8.20986E-04 1.93839E-37-2.90741E-05 4.79186E-20-1.27260E-21
 -1       195 4.05715E-04-7.32979E-04 9.16550E-38-2.07583E-05 2.61244E-21 2.33696E-21
 -1       196 3.74826E-04-6.59012E-04 5.97910E-38-1.46849E-05-7.72658E-20-5.12387E-21
 -1       197 3.48708E-04-5.96785E-04 1.90532E-38-1.02254E-05 2.91584E-19 8.67504E-22
 -1       198 3.26708E-04-5.44570E-04 2.86344E-37-6.94289E-06-2.93171E-19-8.60132E-22
 -1       199 3.08331E-04-5.01093E-04 1.05431E-39-4.53036E-06-3.89917E-20-1.35446E-21
 -1       200 2.93230E-04-4.65470E-04 2.59563E-38-2.77084E-06 9.65913E-20 1.55368E-21
 -1       201 2.81191E-04-4.37185E-04 3.95291E-38-1.51170E-06-1.01392E-19-1.34560E-22
 -1       202 2.72175E-04-4.16100E-04 1.60707E-38-6.48644E-07 1.26061E-19-1.47890E-22
 -1       203 2.65811E-04-4.02514E-04 2.99038E-38-1.05801E-07-1.57559E-19 9.36359E-23
 -1       204-8.77387E-04-2.02315E-03 5.71881E-37-1.88968E-03-5.93523E-20 1.61195E-20
 -1       205 4.61889E-05-2.66465E-03 9.03460E-38-2.19430E-03 2.25632E-19-1.00337E-20
 -1       206 5.82170E-04-2.78445E-03 1.98404E-37-1.76665E-03-5.59915E-19 2.03349E-20
 -1       207 8.09852E-04-2.62898E-03 1.00025E-37-1.29653E-03 2.19359E-19-2.32854E-20
 -1       208 8.64198E-04-2.35746E-03 2.06683E-37-9.16347E-04 1.19942E-19-1.04790E-20
 -1       209 8.36862E-04-2.06416E-03 5.53065E-37-6.41471E-04-5.96941E-19 1.08147E-20
 -1       210 7.76979E-04-1.79174E-03-1.05253E-37-4.49900E-04 1.82966E-19-1.25641E-21
 -1       211 7.08278E-04-1.55387E-03 1.38255E-37-3.17554E-04-1.51770E-19-1.93112E-20
 -1       212 6.41281E-04-1.35151E-03 1.34704E-37-2.25757E-04-1.46363E-19 5.89607E-23
 -1       213 5.80134E-04-1.18105E-03 3.41766E-38-1.61500E-04 1.12487E-20-1.86760E-21
 -1       214 5.26047E-04-1.03779E-03 1.72393E-37-1.16035E-04-1.51915E-19-6.64877E-21
 -1       215 4.78952E-04-9.17253E-04 7.25785E-39-8.35221E-05-4.76445E-20 2.24628E-21
 -1       216 4.38281E-04-8.15606E-04 3.04366E-38-6.00452E-05-2.43852E-20-7.92577E-22
 -1       217 4.03326E-04-7.29706E-04 1.47071E-37-4.29529E-05-8.88324E-20 1.87103E-21
 -1       218 3.73391E-04-6.57034E-04-5.80644E-38-3.04278E-05 9.52947E-20 4.44865E-21
 -1       219 3.47860E-04-5.95605E-04 1.23374E-37-2.12087E-05-3.61844E-19-5.85875E-21
 -1       220 3.26218E-04-5.43879E-04-1.93643E-38-1.44109E-05 2.40714E-19 2.35478E-21
 -1       221 3.08059E-04-5.00701E-04 3.57163E-38-9.40841E-06-7.89813E-20 3.65185E-24
 -1       222 2.93087E-04-4.65258E-04 3.84447E-38-5.75663E-06-3.11893E-20-8.11481E-22
 -1       223 2.81123E-04-4.37078E-04-7.53730E-41-3.14171E-06-6.25767E-20-1.02052E-21
 -1       224 2.72148E-04-4.16053E-04 2.02431E-38-1.34863E-06 9.22100E-20 3.22822E-22
 -1       225 2.65807E-04-4.02495E-04 1.65652E-38-2.20625E-07-7.63993E-20 6.14277E-24
 -1       226-1.40702E-03 1.05079E-04 2.60313E-37-1.31771E-03 3.55980E-19-4.45530E-20
 -1       227-7.85480E-04-6.72004E-04 1.62244E-37-1.86962E-03-4.52090E-20-2.67579E-21
 -1       228-1.44688E-04-1.37974E-03 3.38739E-37-1.83369E-03-1.29793E-19-4.30826E-20
 -1       229 2.86785E-04-1.72003E-03-3.22086E-38-1.52673E-03 1.09594E-19 1.06714E-20
 -1       230 5.19620E-04-1.79720E-03 1.03219E-37-1.17934E-03-1.13454E-19 1.33066E-20
 -1       231 6.19332E-04-1.72675E-03 1.27131E-37-8.77440E-04 1.52015E-19 2.23941E-20
 -1       232 6.42268E-04-1.58992E-03-1.63433E-38-6.41670E-04 1.86730E-19 1.03787E-20
 -1       233 6.25438E-04-1.43287E-03 1.87123E-37-4.66093E-04 3.44486E-19 2.55226E-20
 -1       234 5.90397E-04-1.27852E-03 4.38273E-38-3.37993E-04-7.81853E-20-1.50468E-20
 -1       235 5.48846E-04-1.13672E-03 2.96458E-38-2.45159E-04 4.93712E-20 6.10405E-21
 -1       236 5.06790E-04-1.01071E-03 3.32174E-37-1.77867E-04-2.75614E-19-3.66221E-20
 -1       237 4.67105E-04-9.00656E-04 8.92646E-38-1.28917E-04-2.00636E-19 6.11254E-21
 -1       238 4.31016E-04-8.05430E-04 1.16964E-37-9.31408E-05 5.99428E-20-6.21580E-21
 -1       239 3.98899E-04-7.23487E-04 2.97143E-39-6.68658E-05-2.00344E-19-7.45817E-21
 -1       240 3.70723E-04-6.53262E-04 1.07464E-37-4.74901E-05-1.15776E-19-2.54376E-21
 -1       241 3.46279E-04-5.93347E-04 1.59795E-37-3.31635E-05 3.37248E-19 1.45127E-21
 -1       242 3.25305E-04-5.42556E-04 4.74060E-38-2.25646E-05-1.09808E-19-5.34962E-21
 -1       243 3.07552E-04-4.99949E-04 2.85425E-38-1.47462E-05 3.24861E-19 2.56055E-21
 -1       244 2.92821E-04-4.64851E-04 2.85269E-38-9.02914E-06 9.92688E-20 1.14625E-21
 -1       245 2.80997E-04-4.36874E-04 3.83675E-38-4.93040E-06-1.04517E-19-8.29156E-22
 -1       246 2.72099E-04-4.15962E-04 1.75067E-38-2.11758E-06-1.34784E-19 1.00077E-22
 -1       247 2.65800E-04-4.02459E-04 4.74579E-39-3.47160E-07-5.52819E-21 5.58041E-22
 -1       248-9.97206E-04 1.91539E-04 6.65037E-38-5.70322E-04-3.01385E-19-2.58005E-20
 -1       249-1.01715E-03 1.74198E-05 2.30182E-37-1.13410E-03 3.74548E-19-3.07744E-21
 -1       250-6.01652E-04-4.66662E-04 8.23458E-37-1.43141E-03-3.84167E-19-5.37912E-21
 -1       251-1.65850E-04-9.20364E-04 2.65438E-37-1.41752E-03-7.81103E-20-1.72918E-20
 -1       252 1.59553E-04-1.20164E-03 5.08292E-37-1.23369E-03-6.94884E-20 3.43039E-20
 -1       253 3.61644E-04-1.31956E-03 1.54398E-37-9.98743E-04-3.00645E-19-2.47926E-20
 -1       254 4.68240E-04-1.32415E-03 1.46609E-37-7.75310E-04 5.31175E-20 9.28768E-21
 -1       255 5.11708E-04-1.26363E-03 3.25939E-38-5.87439E-04-3.10493E-19-2.27571E-21
 -1       256 5.17466E-04-1.17206E-03 3.95730E-37-4.38893E-04-1.40684E-19 1.53523E-20
 -1       257 5.02605E-04-1.07013E-03-5.48734E-38-3.25159E-04 2.92155E-19 1.27058E-20
 -1       258 4.77696E-04-9.69181E-04-1.07956E-38-2.39498E-04 1.25246E-19-2.33915E-21
 -1       259 4.48922E-04-8.74823E-04-4.91054E-39-1.75477E-04 5.34368E-20 1.88173E-21
 -1       260 4.19736E-04-7.89421E-04 9.26402E-38-1.27773E-04-1.58421E-20 1.21543E-21
 -1       261 3.91968E-04-7.13627E-04 8.35873E-38-9.22482E-05-4.28370E-21 4.10114E-21
 -1       262 3.66521E-04-6.47248E-04 2.15782E-38-6.57867E-05 4.95414E-20 3.59065E-21
 -1       263 3.43779E-04-5.89733E-04-1.53234E-38-4.60776E-05-2.54334E-20 4.35916E-21
 -1       264 3.23856E-04-5.40430E-04 1.98000E-37-3.14195E-05-2.39260E-19 1.87382E-21
 -1       265 3.06745E-04-4.98739E-04 2.67006E-38-2.05654E-05 3.09074E-20 1.06278E-21
 -1       266 2.92398E-04-4.64194E-04 3.48085E-38-1.26066E-05-1.42706E-19 1.72183E-21
 -1       267 2.80796E-04-4.36543E-04-4.20003E-39-6.88982E-06 1.75530E-20 1.00971E-21
 -1       268 2.72020E-04-4.15815E-04 2.36509E-38-2.96148E-06-1.40591E-21 2.80022E-21
 -1       269 2.65789E-04-4.02399E-04 1.16933E-39-4.86778E-07 6.54744E-20 1.33361E-22
 -1       270-5.41579E-04 1.53501E-04 1.14929E-37-2.58561E-04 1.03581E-19 2.15145E-20
 -1       271-8.07776E-04 1.38184E-04 5.08477E-37-6.25002E-04-6.06561E-19-2.55170E-20
 -1       272-7.07408E-04-7.79763E-05 1.80463E-37-9.59677E-04 7.66037E-19 2.38021E-21
 -1       273-4.24965E-04-4.05526E-04 2.22789E-37-1.12479E-03-1.82346E-19-1.37352E-20
 -1       274-1.25040E-04-7.10173E-04 9.96922E-38-1.11586E-03 9.88122E-20-1.27922E-20
 -1       275 1.15990E-04-9.21601E-04 3.29572E-37-9.97174E-04 2.90219E-19 7.95421E-21
 -1       276 2.80273E-04-1.03154E-03 5.38473E-38-8.33405E-04-3.16935E-20 3.15485E-20
 -1       277 3.77663E-04-1.06080E-03 2.90114E-37-6.66852E-04 2.05610E-19 6.11802E-22
 -1       278 4.25985E-04-1.03651E-03 1.17402E-37-5.18534E-04-3.61462E-19-1.55054E-20
 -1       279 4.41944E-04-9.81602E-04 3.93663E-37-3.95512E-04-2.40427E-19 1.14990E-20
 -1       280 4.38271E-04-9.12237E-04-8.63100E-38-2.97553E-04 2.47297E-19 2.67502E-20
 -1       281 4.23692E-04-8.38601E-04 1.51019E-37-2.21400E-04-3.05433E-20-1.77207E-20
 -1       282 4.03812E-04-7.66608E-04 5.86109E-38-1.63031E-04 1.21933E-19 2.55761E-20
 -1       283 3.82060E-04-6.99409E-04 2.08549E-38-1.18672E-04 1.57437E-19-3.55248E-21
 -1       284 3.60458E-04-6.38502E-04 1.56643E-37-8.51381E-05 8.82388E-20 1.26679E-21
 -1       285 3.40147E-04-5.84442E-04 7.94376E-38-5.98925E-05 1.86283E-19-7.48007E-21
 -1       286 3.21742E-04-5.37304E-04-5.88391E-38-4.09699E-05-1.40780E-20-3.80169E-21
 -1       287 3.05562E-04-4.96952E-04 9.82875E-38-2.68787E-05 1.30877E-19 6.16530E-21
 -1       288 2.91776E-04-4.63222E-04 2.20064E-38-1.65045E-05-1.16978E-19-2.59335E-21
 -1       289 2.80501E-04-4.36054E-04 3.06403E-38-9.03149E-06-8.89856E-20-2.92497E-23
 -1       290 2.71905E-04-4.15597E-04 2.13024E-38-3.88649E-06 1.06440E-19-1.19829E-21
 -1       291 2.65772E-04-4.02312E-04 5.84449E-38-6.41069E-07-1.52536E-19-1.41816E-21
 -1       292-3.23089E-04 1.04568E-04-5.49721E-38-1.43137E-04-1.80406E-19 7.52403E-20
 -1       293-5.57758E-04 1.36039E-04 1.10273E-37-3.59514E-04 1.81959E-19-6.18257E-20
 -1       294-6.12759E-04 5.07529E-05 5.35611E-37-6.15502E-04-9.13391E-20 5.31859E-20
 -1       295-4.96375E-04-1.39150E-04 2.09301E-37-8.18187E-04 4.80656E-19 2.43496E-20
 -1       296-2.90566E-04-3.75712E-04 1.54386E-37-9.13273E-04-2.68615E-19-2.82674E-20
 -1       297-7.41350E-05-5.93487E-04-6.96407E-38-9.01884E-04-2.06661E-19-1.05988E-21
 -1       298 1.07598E-04-7.53579E-04 6.60082E-38-8.17130E-04-6.69465E-20-2.16302E-20
 -1       299 2.39247E-04-8.46693E-04 1.03554E-37-6.96615E-04-5.13425E-20-1.42635E-20
 -1       300 3.23288E-04-8.81779E-04-3.07268E-38-5.68724E-04 7.38231E-20 2.44967E-20
 -1       301 3.69578E-04-8.74554E-04-3.04044E-38-4.50087E-04 1.90211E-19 2.65871E-22
 -1       302 3.89096E-04-8.40404E-04 1.11268E-37-3.48085E-04-2.09383E-19 5.35121E-21
 -1       303 3.91176E-04-7.91471E-04 3.64205E-39-2.64366E-04-3.51834E-20 2.69212E-20
 -1       304 3.82787E-04-7.36242E-04 8.40232E-38-1.97647E-04-1.60400E-19-1.48893E-22
 -1       305 3.68743E-04-6.80167E-04 4.78606E-38-1.45489E-04-2.81276E-20-1.84813E-20
 -1       306 3.52202E-04-6.26518E-04-1.28829E-38-1.05243E-04-1.05546E-19 1.51586E-20
 -1       307 3.35152E-04-5.77128E-04 2.51426E-37-7.44859E-05-2.42624E-19 6.28569E-23
 -1       308 3.18813E-04-5.32954E-04 1.28672E-37-5.11795E-05 2.32812E-19 8.07547E-21
 -1       309 3.03916E-04-4.94454E-04 6.22401E-39-3.36859E-05-8.93472E-20-1.93184E-21
 -1       310 2.90907E-04-4.61859E-04 5.13760E-39-2.07334E-05-6.80266E-20 6.81929E-22
 -1       311 2.80087E-04-4.35366E-04 2.47338E-38-1.13657E-05 9.10154E-20 6.85737E-22
 -1       312 2.71742E-04-4.15291E-04 3.83182E-38-4.89875E-06 1.43444E-20-2.04627E-21
 -1       313 2.65749E-04-4.02189E-04-1.97579E-38-8.11887E-07 1.79403E-20-1.00309E-21
 -1       314-2.06850E-04 7.18794E-05 1.47048E-37-8.91080E-05 6.14591E-20-2.12932E-20
 -1       315-3.83027E-04 1.08394E-04 3.61124E-38-2.23587E-04-2.99134E-19-3.19794E-21
 -1       316-4.75181E-04 8.16672E-05 2.23690E-37-4.00478E-04-1.09847E-19-5.87153E-20
 -1       317-4.58377E-04-1.91771E-05 6.54031E-38-5.75983E-04-6.24966E-20 2.27319E-20
 -1       318-3.49031E-04-1.77287E-04-5.07056E-38-7.04014E-04 1.94648E-20-2.67421E-20
 -1       319-1.90888E-04-3.56630E-04 5.24774E-37-7.59661E-04 7.13416E-20 1.49708E-20
 -1       320-2.73263E-05-5.20229E-04 8.59350E-38-7.44948E-04 2.02517E-19 3.39524E-20
 -1       321 1.13390E-04-6.44380E-04 1.76584E-37-6.79080E-04 3.10474E-19-9.98798E-21
 -1       322 2.19403E-04-7.21459E-04 4.31894E-37-5.85564E-04-3.90193E-19 2.21305E-20
 -1       323 2.90432E-04-7.55489E-04 1.61287E-37-4.83971E-04-2.05030E-19 1.56026E-20
 -1       324 3.32107E-04-7.56090E-04 5.67050E-38-3.87133E-04 2.07359E-19-1.69762E-20
 -1       325 3.51831E-04-7.33871E-04 1.93984E-38-3.01711E-04 9.55593E-20 2.75779E-20
 -1       326 3.56515E-04-6.97994E-04 3.14220E-37-2.30016E-04 1.58842E-19-1.78695E-20
 -1       327 3.51699E-04-6.55380E-04 3.03317E-38-1.71815E-04-2.06533E-19-1.27523E-20
 -1       328 3.41444E-04-6.10821E-04 5.24296E-38-1.25651E-04 3.13856E-20 7.73285E-21
 -1       329 3.28558E-04-5.67430E-04 1.58156E-40-8.96533E-05 2.80081E-19-1.42783E-21
 -1       330 3.14908E-04-5.27133E-04 1.34213E-37-6.19702E-05-4.09984E-19-1.58048E-20
 -1       331 3.01706E-04-4.91090E-04 3.87233E-38-4.09675E-05 1.85296E-19 1.08381E-20
 -1       332 2.89734E-04-4.60014E-04 7.69839E-38-2.52963E-05-2.31302E-20 3.11516E-21
 -1       333 2.79526E-04-4.34431E-04 4.58401E-39-1.39003E-05-5.92546E-20-6.46049E-21
 -1       334 2.71522E-04-4.14874E-04-1.79615E-38-6.00418E-06-9.55050E-20 2.29518E-21
 -1       335 2.65718E-04-4.02022E-04 1.47085E-37-1.00140E-06 1.91756E-19 1.48306E-22
 -1       336-1.39040E-04 4.97701E-05 6.83052E-38-6.06354E-05 3.40253E-20 4.55919E-21
 -1       337-2.67271E-04 8.15169E-05 2.60267E-37-1.48698E-04-1.53098E-19 6.64223E-20
 -1       338-3.55780E-04 7.82510E-05-9.97772E-38-2.69954E-04 8.02443E-20-2.49495E-20
 -1       339-3.82027E-04 2.76626E-05 1.59599E-37-4.05389E-04-3.52909E-20 3.03446E-21
 -1       340-3.39397E-04-7.05073E-05 1.23657E-37-5.27464E-04-1.33915E-19 2.54241E-20
 -1       341-2.41749E-04-2.01889E-04 2.01268E-37-6.10897E-04 5.37579E-19 2.76980E-20
 -1       342-1.15490E-04-3.42989E-04 5.02215E-38-6.42857E-04-1.85435E-20-4.30548E-21
 -1       343 1.28557E-05-4.70635E-04 1.12017E-37-6.25394E-04-1.28476E-19-1.38371E-20
 -1       344 1.24636E-04-5.69241E-04-2.31530E-38-5.70813E-04-5.84506E-20-2.07633E-20
 -1       345 2.10934E-04-6.32913E-04 4.38323E-38-4.94851E-04 2.03283E-19-2.69771E-20
 -1       346 2.70583E-04-6.63546E-04 1.69297E-37-4.11522E-04 5.94015E-20-3.58214E-21
 -1       347 3.06974E-04-6.67419E-04-1.93501E-38-3.30768E-04-2.51151E-20 7.86168E-22
 -1       348 3.25302E-04-6.52151E-04 1.40468E-38-2.58300E-04-1.27706E-19-1.52640E-21
 -1       349 3.30809E-04-6.24799E-04 5.67702E-38-1.96531E-04-8.69019E-20 3.87129E-20
 -1       350 3.27947E-04-5.91030E-04 8.46384E-43-1.45748E-04-1.23187E-20-2.11652E-20
 -1       351 3.20138E-04-5.55001E-04 4.24417E-38-1.05089E-04-9.85179E-20-3.21194E-22
 -1       352 3.09857E-04-5.19584E-04 2.65229E-38-7.32094E-05-3.30877E-20 1.05770E-21
 -1       353 2.98819E-04-4.86687E-04 5.54993E-38-4.86776E-05-2.27592E-19-1.70126E-20
 -1       354 2.88192E-04-4.57585E-04 1.27532E-39-3.01850E-05 1.81067E-19 1.00086E-21
 -1       355 2.78786E-04-4.33197E-04 7.44053E-38-1.66397E-05 1.94787E-20-1.01071E-21
 -1       356 2.71229E-04-4.14323E-04 8.35196E-38-7.20802E-06-3.44010E-22-4.30200E-21
 -1       357 2.65676E-04-4.01802E-04-9.92482E-39-1.21214E-06 4.04130E-20 4.30136E-21
 -1       358-9.65871E-05 3.48661E-05 1.62961E-37-4.39252E-05-2.31595E-20 2.77515E-20
 -1       359-1.89941E-04 5.99009E-05 7.93751E-38-1.04705E-04 1.95770E-19-2.18740E-20
 -1       360-2.63966E-04 6.50528E-05 1.52491E-37-1.89227E-04-1.24853E-19 1.11692E-20
 -1       361-3.03550E-04 4.07700E-05 3.45041E-38-2.89914E-04 1.32688E-19 8.33497E-24
 -1       362-2.97993E-04-1.79749E-05 1.55574E-37-3.92327E-04 2.11203E-19 2.60985E-20
 -1       363-2.46773E-04-1.08226E-04 1.16973E-37-4.78665E-04-2.76039E-19-2.15671E-20
 -1       364-1.60581E-04-2.18617E-04 8.64429E-38-5.33861E-04-1.26987E-20 5.95029E-20
 -1       365-5.68310E-05-3.32931E-04 9.57641E-38-5.50719E-04 2.45106E-19-3.26994E-21
 -1       366 4.69060E-05-4.35495E-04 1.13733E-37-5.31159E-04 3.35485E-20 1.97234E-20
 -1       367 1.37671E-04-5.15440E-04 5.70266E-38-4.83738E-04 1.76503E-19 9.42433E-21
 -1       368 2.08735E-04-5.68251E-04-1.49536E-38-4.19654E-04-2.53515E-20 3.25181E-20
 -1       369 2.58783E-04-5.94896E-04 7.07448E-38-3.49345E-04-1.74903E-19-5.13445E-21
 -1       370 2.90013E-04-5.99762E-04 3.06902E-39-2.80638E-04 2.08275E-20-1.56376E-21
 -1       371 3.06249E-04-5.88576E-04-2.70528E-38-2.18349E-04 9.14350E-20 6.07933E-21
 -1       372 3.11599E-04-5.66934E-04 2.21825E-38-1.64755E-04-1.50415E-19 2.04086E-20
 -1       373 3.09708E-04-5.39552E-04 4.33397E-38-1.20374E-04 6.64991E-20-1.20289E-20
 -1       374 3.03493E-04-5.10052E-04 2.72886E-38-8.46964E-05-5.76354E-20 1.34227E-21
 -1       375 2.95135E-04-4.81065E-04-6.51144E-39-5.67352E-05-5.79971E-20-1.86526E-20
 -1       376 2.86205E-04-4.54458E-04 1.71011E-38-3.53757E-05-1.96442E-20 1.37311E-21
 -1       377 2.77826E-04-4.31598E-04 2.32118E-38-1.95822E-05-3.75612E-21 6.51745E-21
 -1       378 2.70849E-04-4.13608E-04-1.11190E-38-8.51434E-06 1.21428E-20 3.28384E-21
 -1       379 2.65622E-04-4.01518E-04 8.51073E-38-1.44705E-06-4.60394E-20 1.24543E-21
 -1       380-6.86998E-05 2.45772E-05 1.02927E-37-3.33537E-05 3.38844E-19-4.01987E-21
 -1       381-1.37087E-04 4.34944E-05 5.62729E-38-7.72238E-05-1.79999E-20 1.18390E-20
 -1       382-1.95889E-04 5.06868E-05 6.38406E-38-1.37715E-04-1.17891E-19-2.95049E-20
 -1       383-2.35682E-04 3.95740E-05 9.18736E-38-2.12117E-04 8.50387E-20 1.56864E-20
 -1       384-2.47477E-04 4.84126E-06 1.21339E-37-2.93461E-04-1.32560E-19-4.18505E-20
 -1       385-2.26174E-04-5.51685E-05 2.12724E-37-3.71007E-04 1.06150E-19 2.21830E-20
 -1       386-1.73294E-04-1.36697E-04-1.80897E-38-4.32757E-04-8.51018E-20-7.82034E-20
 -1       387-9.71107E-05-2.30776E-04 3.83503E-38-4.69113E-04 3.33357E-20 3.59903E-20
 -1       388-9.91438E-06-3.25608E-04 2.97776E-37-4.75810E-04-2.45960E-19 1.06801E-20
 -1       389 7.59064E-05-4.09950E-04 6.33181E-38-4.54638E-04 1.65915E-21 1.76835E-20
 -1       390 1.50945E-04-4.75871E-04 7.46849E-38-4.11972E-04-1.64373E-19-2.25975E-20
 -1       391 2.10066E-04-5.19907E-04 4.13503E-38-3.56215E-04-1.94196E-19-3.44766E-20
 -1       392 2.52084E-04-5.42639E-04 6.37011E-38-2.95439E-04-6.02991E-20 2.46753E-21
 -1       393 2.78563E-04-5.47360E-04 4.98791E-38-2.35937E-04 9.19542E-20-3.57316E-20
 -1       394 2.92478E-04-5.38583E-04 9.12150E-38-1.81761E-04-3.65391E-20-1.00507E-20
 -1       395 2.97159E-04-5.20897E-04 2.47952E-38-1.34967E-04-6.96341E-20 8.05008E-21
 -1       396 2.95670E-04-4.98315E-04 2.25943E-38-9.61507E-05 1.19775E-19 1.11851E-20
 -1       397 2.90534E-04-4.74040E-04 4.11003E-38-6.50147E-05 7.18413E-20 1.55901E-20
 -1       398 2.83695E-04-4.50509E-04-1.32410E-38-4.08233E-05-6.06329E-20-2.84368E-20
 -1       399 2.76602E-04-4.29566E-04 4.37990E-38-2.27183E-05 6.51716E-20-1.63697E-21
 -1       400 2.70363E-04-4.12697E-04 1.49224E-39-9.92512E-06 1.33513E-19-5.45040E-21
 -1       401 2.65553E-04-4.01157E-04 9.70307E-38-1.70944E-06-3.30978E-19 4.83606E-21
 -1       402-4.96920E-05 1.73355E-05 1.63998E-38-2.62392E-05 3.26289E-20 1.98388E-20
 -1       403-1.00138E-04 3.12323E-05 1.32523E-37-5.91331E-05-5.91962E-20 1.98330E-20
 -1       404-1.45778E-04 3.79382E-05 5.16940E-38-1.03651E-04-3.50664E-20 7.12931E-21
 -1       405-1.80857E-04 3.30785E-05 1.67040E-37-1.59095E-04 1.94309E-20-1.36226E-20
 -1       406-1.98935E-04 1.23482E-05-9.16247E-38-2.22332E-04-2.06384E-19 2.66132E-20
 -1       407-1.94596E-04-2.71827E-05 1.32869E-37-2.87439E-04 1.86914E-19-2.08808E-20
 -1       408-1.65488E-04-8.55573E-05 1.21498E-37-3.46341E-04 5.98540E-20 2.56536E-20
 -1       409-1.13781E-04-1.59011E-04 1.81452E-38-3.90603E-04-4.45719E-20-1.26315E-20
 -1       410-4.60427E-05-2.40332E-04-2.62803E-38-4.13789E-04 7.75259E-20 3.74983E-20
 -1       411 2.85738E-05-3.20542E-04-1.02418E-38-4.13302E-04 2.34013E-19-2.69858E-20
 -1       412 1.00887E-04-3.91195E-04 2.49032E-37-3.90840E-04-5.84376E-20-3.02969E-20
 -1       413 1.63818E-04-4.46296E-04 7.42087E-38-3.51436E-04 1.95577E-19 4.60807E-20
 -1       414 2.13403E-04-4.83183E-04 1.07034E-38-3.01702E-04 2.22530E-20 2.01216E-20
 -1       415 2.48684E-04-5.02316E-04 1.10927E-37-2.48101E-04-3.35669E-19-4.24884E-20
 -1       416 2.70901E-04-5.06349E-04 4.21877E-39-1.95798E-04 1.46839E-19-8.40088E-21
 -1       417 2.82498E-04-4.99013E-04-9.21529E-39-1.48227E-04-4.12037E-20 1.88262E-20
 -1       418 2.86283E-04-4.84209E-04 1.30051E-37-1.07206E-04-1.82934E-19-5.31707E-20
 -1       419 2.84900E-04-4.65442E-04-4.03983E-38-7.33361E-05-4.15674E-20 1.99123E-20
 -1       420 2.80574E-04-4.45612E-04 1.55621E-37-4.64545E-05 1.28870E-19 1.83470E-20
 -1       421 2.75065E-04-4.27024E-04-1.02642E-38-2.60263E-05-1.99314E-19-2.34849E-20
 -1       422 2.69748E-04-4.11553E-04 3.45193E-38-1.14391E-05 7.75934E-20-2.48405E-21
 -1       423 2.65464E-04-4.00708E-04 4.54785E-38-2.00300E-06-6.54771E-21-5.09086E-21
 -1       424-3.63590E-05 1.21386E-05-4.84877E-38-2.12050E-05-2.42816E-20-2.85160E-20
 -1       425-7.37730E-05 2.20806E-05 1.00127E-37-4.66580E-05 2.52349E-19 8.75483E-21
 -1       426-1.08774E-04 2.74215E-05 2.58966E-38-8.03121E-05 2.13142E-19-1.92089E-20
 -1       427-1.37842E-04 2.52770E-05 1.01149E-37-1.22242E-04 1.19990E-20 7.74853E-21
 -1       428-1.56637E-04 1.24679E-05 3.94248E-38-1.71184E-04 7.61426E-20 7.50132E-21
 -1       429-1.60747E-04-1.38467E-05 7.92533E-38-2.24080E-04-1.36778E-20 1.39632E-20
 -1       430-1.46848E-04-5.52033E-05 3.39562E-38-2.75997E-04 3.10372E-20 4.89733E-21
 -1       431-1.14019E-04-1.10855E-04 5.91779E-38-3.20732E-04-2.06696E-19-2.12997E-20
 -1       432-6.45841E-05-1.77265E-04 1.07500E-38-3.52131E-04 9.09471E-20-1.76730E-20
 -1       433-3.90975E-06-2.48490E-04 9.80969E-38-3.65710E-04-1.34074E-19 2.21608E-20
 -1       434 6.08778E-05-3.17430E-04-5.21658E-38-3.59902E-04-6.71636E-20 2.15159E-20
 -1       435 1.22695E-04-3.77501E-04 8.52530E-38-3.36354E-04-9.16233E-20-9.43354E-22
 -1       436 1.76055E-04-4.24049E-04 5.85039E-38-2.99245E-04 2.47666E-20-5.84734E-20
 -1       437 2.17876E-04-4.55045E-04 3.73094E-38-2.53996E-04 9.54804E-20 1.35448E-20
 -1       438 2.47455E-04-4.70961E-04 1.59584E-38-2.05952E-04-7.29972E-20-3.21607E-20
 -1       439 2.65889E-04-4.74091E-04 1.11016E-37-1.59445E-04 1.22092E-19 4.50465E-20
 -1       440 2.75297E-04-4.67671E-04 3.28126E-38-1.17413E-04-2.69830E-20-1.14314E-20
 -1       441 2.78139E-04-4.55135E-04 6.88031E-38-8.14580E-05-1.03499E-19 4.43522E-21
 -1       442 2.76757E-04-4.39644E-04-2.46098E-38-5.21610E-05-3.96658E-20-6.32620E-21
 -1       443 2.73159E-04-4.23893E-04 7.57126E-38-2.94689E-05 2.62901E-19 7.47955E-21
 -1       444 2.68980E-04-4.10138E-04 8.78334E-40-1.30501E-05-1.42498E-19-1.45431E-20
 -1       445 2.65352E-04-4.00157E-04 1.63822E-37-2.33156E-06-2.88641E-20 4.76022E-22
 -1       446-2.67873E-05 8.34482E-06 1.05899E-37-1.74913E-05 1.06840E-19-2.27574E-20
 -1       447-5.46202E-05 1.52182E-05-3.72777E-38-3.76974E-05 7.29603E-20 3.51191E-20
 -1       448-8.12484E-05 1.90142E-05 5.88554E-38-6.37637E-05-1.29114E-19 2.24368E-20
 -1       449-1.04497E-04 1.78183E-05 2.93775E-38-9.60195E-05-1.33202E-19-1.16484E-20
 -1       450-1.21504E-04 9.36886E-06 5.22493E-38-1.34069E-04 9.62755E-20 1.49060E-20
 -1       451-1.29023E-04-8.66825E-06 1.53144E-38-1.76436E-04-8.03018E-21-7.65391E-21
 -1       452-1.23981E-04-3.81642E-05 9.46981E-38-2.20299E-04 1.22666E-19 2.34616E-20
 -1       453-1.04330E-04-7.98156E-05-2.51912E-38-2.61544E-04 5.52197E-21-2.32539E-20
 -1       454-6.99394E-05-1.32478E-04 1.33942E-37-2.95291E-04 1.64658E-19 3.09419E-20
 -1       455-2.31111E-05-1.92886E-04-8.69988E-39-3.16910E-04-1.84557E-19-1.32299E-20
 -1       456 3.16393E-05-2.56013E-04 1.65239E-37-3.23198E-04 1.83384E-19 9.91674E-21
 -1       457 8.85560E-05-3.16062E-04-1.80647E-38-3.13271E-04-3.42148E-20 5.02827E-20
 -1       458 1.41991E-04-3.67747E-04 1.60158E-37-2.88765E-04 2.04320E-19-3.71287E-20
 -1       459 1.87597E-04-4.07388E-04 8.66063E-39-2.53305E-04-1.28597E-19 5.06427E-21
 -1       460 2.22973E-04-4.33469E-04 1.02038E-37-2.11507E-04 1.44105E-19-4.65238E-22
 -1       461 2.47678E-04-4.46559E-04 3.98711E-38-1.67920E-04-5.11564E-20-3.05876E-20
 -1       462 2.62773E-04-4.48770E-04-2.75470E-38-1.26260E-04-7.46421E-20 4.41979E-20
 -1       463 2.70193E-04-4.43037E-04 1.04540E-37-8.90753E-05 9.41074E-20 1.42615E-21
 -1       464 2.72167E-04-4.32499E-04-1.87396E-38-5.77921E-05-1.42111E-20-1.85198E-20
 -1       465 2.70829E-04-4.20094E-04 4.58994E-38-3.29877E-05-1.68149E-20 1.02810E-20
 -1       466 2.68031E-04-4.08412E-04 2.31136E-38-1.47445E-05-1.04222E-19-4.42161E-21
 -1       467 2.65212E-04-3.99493E-04 1.09569E-37-2.69868E-06 3.94686E-20 3.10144E-21
 -1       468-1.97833E-05 5.53212E-06 5.76554E-38-1.46542E-05-2.76086E-19 3.68076E-20
 -1       469-4.04894E-05 1.00356E-05 2.88635E-38-3.10249E-05-5.40565E-20 5.86913E-21
 -1       470-6.05966E-05 1.23841E-05 5.30457E-38-5.16445E-05 1.39985E-19 3.14429E-21
 -1       471-7.87408E-05 1.12878E-05 3.05125E-38-7.68864E-05 1.14128E-19 1.18175E-20
 -1       472-9.30442E-05 5.15684E-06 3.41172E-38-1.06735E-04 1.38629E-21 8.05244E-21
 -1       473-1.01221E-04-7.79833E-06 6.92563E-38-1.40542E-04 8.46014E-20 1.28061E-20
 -1       474-1.00813E-04-2.92988E-05 1.27378E-38-1.76782E-04 7.36695E-21 9.80962E-21
 -1       475-8.96540E-05-6.05612E-05 2.45836E-38-2.12903E-04 4.38497E-20 3.41014E-20
 -1       476-6.65097E-05-1.01755E-04-8.94154E-39-2.45434E-04-3.69801E-20-1.76770E-20
 -1       477-3.17134E-05-1.51529E-04 1.62064E-38-2.70453E-04 4.30732E-20 2.50058E-20
 -1       478 1.25063E-05-2.06864E-04 1.07862E-38-2.84391E-04-1.41509E-19-1.13484E-20
 -1       479 6.22481E-05-2.63407E-04 1.25611E-37-2.84934E-04 2.45175E-19-3.90437E-20
 -1       480 1.12717E-04-3.16296E-04-3.65199E-38-2.71688E-04-2.65638E-20 5.27103E-20
 -1       481 1.59289E-04-3.61187E-04 1.48073E-37-2.46311E-04 1.84744E-20-5.12583E-20
 -1       482 1.98464E-04-3.95141E-04-1.68912E-38-2.12076E-04-1.43321E-19 1.45904E-20
 -1       483 2.28394E-04-4.17085E-04 2.47122E-38-1.73048E-04-6.95935E-20-2.29780E-20
 -1       484 2.48892E-04-4.27735E-04 8.59209E-38-1.33212E-04 4.67735E-20-4.79124E-20
 -1       485 2.61060E-04-4.29146E-04-2.66601E-38-9.58258E-05-7.68619E-20 2.36635E-20
 -1       486 2.66741E-04-4.24098E-04 1.08471E-37-6.31502E-05-2.67103E-19-8.12730E-21
 -1       487 2.68016E-04-4.15554E-04-4.33607E-38-3.64975E-05 3.82055E-20 1.58368E-20
 -1       488 2.66871E-04-4.06338E-04 2.05296E-37-1.64983E-05 1.81684E-19 7.24396E-21
 -1       489 2.65037E-04-3.98708E-04 5.52543E-38-3.10697E-06 7.18835E-20 4.36699E-21
 -1       490-1.45751E-05 3.41700E-06 4.37882E-38-1.24219E-05 1.02186E-19-6.78497E-21
 -1       491-2.99228E-05 6.08980E-06 1.50273E-38-2.58952E-05-8.79359E-20-1.29303E-20
 -1       492-4.49664E-05 7.18136E-06 4.87392E-39-4.24960E-05 1.03107E-19 2.85062E-20
 -1       493-5.88342E-05 5.80553E-06-2.65349E-38-6.25643E-05 6.26519E-20-3.72707E-20
 -1       494-7.02882E-05 8.42467E-07 8.73001E-39-8.62310E-05 2.39336E-20-3.44821E-20
 -1       495-7.77491E-05-9.03917E-06 2.38615E-38-1.13266E-04-1.23676E-19 3.79162E-20
 -1       496-7.93772E-05-2.52611E-05 8.78237E-39-1.42889E-04-2.88377E-20-3.69514E-21
 -1       497-7.32931E-05-4.90964E-05 3.57394E-38-1.73596E-04-7.75747E-20-6.20471E-20
 -1       498-5.79611E-05-8.13062E-05 6.85946E-38-2.03086E-04 1.70678E-19 2.09154E-20
 -1       499-3.26915E-05-1.21712E-04 2.67496E-38-2.28391E-04-8.82989E-20 2.58749E-20
 -1       500 1.89165E-06-1.68852E-04 5.94219E-38-2.46298E-04 1.79638E-20-4.18655E-21
 -1       501 4.36388E-05-2.19906E-04 2.53226E-38-2.54010E-04-4.34639E-20-1.99975E-20
 -1       502 8.90978E-05-2.71028E-04 1.02388E-37-2.49865E-04 5.67819E-20 3.29096E-20
 -1       503 1.34170E-04-3.18042E-04 2.32948E-38-2.33849E-04-1.43765E-19-4.52023E-20
 -1       504 1.74990E-04-3.57320E-04 4.44989E-38-2.07681E-04-1.13054E-19-4.84644E-20
 -1       505 2.08716E-04-3.86520E-04 2.12674E-38-1.74421E-04 4.40732E-20 2.49589E-20
 -1       506 2.33966E-04-4.04964E-04 8.11053E-39-1.37767E-04-1.28355E-20 3.16843E-20
 -1       507 2.50812E-04-4.13562E-04 1.02063E-37-1.01310E-04 3.24470E-20-1.87588E-20
 -1       508 2.60442E-04-4.14406E-04 9.05119E-39-6.79903E-05 1.47934E-19 2.82857E-20
 -1       509 2.64667E-04-4.10215E-04 3.99397E-38-3.98812E-05-5.23115E-21-3.48568E-20
 -1       510 2.65468E-04-4.03881E-04 2.08740E-38-1.82734E-05-7.63529E-20 1.51128E-20
 -1       511 2.64819E-04-3.97798E-04 2.08413E-38-3.55678E-06 7.24801E-22-4.92587E-21
 -1       512-1.06483E-05 1.80498E-06 6.37390E-38-1.06201E-05 7.97928E-20-1.96557E-20
 -1       513-2.19284E-05 3.06006E-06 2.55131E-38-2.18382E-05-1.43182E-19-2.28189E-20
 -1       514-3.30377E-05 3.10022E-06-3.35454E-39-3.53926E-05-4.54417E-20-2.52161E-20
 -1       515-4.34072E-05 1.30247E-06 1.06544E-37-5.15678E-05-1.55610E-19 3.97943E-20
 -1       516-5.22112E-05-3.13019E-06-2.13365E-38-7.05356E-05-3.14657E-20 2.41780E-20
 -1       517-5.83635E-05-1.11784E-05 4.12269E-39-9.22633E-05 8.78983E-21-4.21033E-20
 -1       518-6.05305E-05-2.39598E-05 5.25182E-38-1.16384E-04 1.36567E-19 3.76045E-20
 -1       519-5.72208E-05-4.26108E-05 3.09706E-38-1.42048E-04-1.45373E-20-4.27573E-20
 -1       520-4.69857E-05-6.80706E-05 6.69896E-39-1.67803E-04-6.02906E-20 7.42781E-21
 -1       521-2.87452E-05-1.00771E-04 7.05360E-38-1.91563E-04 8.07712E-20-3.70671E-21
 -1       522-2.19122E-06-1.40292E-04 4.68168E-38-2.10759E-04 1.68377E-19 5.26304E-21
 -1       523 3.18556E-05-1.85102E-04 1.07377E-38-2.22717E-04 5.49890E-20 4.34567E-20
 -1       524 7.13125E-05-2.32542E-04 2.93792E-38-2.25228E-04-1.58528E-20 1.91031E-20
 -1       525 1.13060E-04-2.79143E-04 5.32586E-39-2.17137E-04-4.89257E-20 2.39713E-20
 -1       526 1.53518E-04-3.21258E-04 2.03744E-39-1.98755E-04 9.05267E-20 2.63913E-21
 -1       527 1.89410E-04-3.55825E-04 3.02706E-38-1.71900E-04-1.70403E-19 1.81452E-21
 -1       528 2.18430E-04-3.81005E-04 5.41093E-38-1.39532E-04 1.02123E-19 2.57875E-20
 -1       529 2.39607E-04-3.96498E-04 7.87539E-38-1.05127E-04 3.87536E-20-3.66685E-20
 -1       530 2.53276E-04-4.03448E-04-5.74343E-39-7.20272E-05 1.74265E-20 1.00044E-20
 -1       531 2.60737E-04-4.04041E-04 2.89035E-38-4.29861E-05-1.49511E-19 3.12230E-21
 -1       532 2.63787E-04-4.01016E-04 4.05767E-38-2.00126E-05 1.50280E-19 1.53473E-20
 -1       533 2.64547E-04-3.96771E-04 1.54622E-37-4.04443E-06-3.79066E-19-7.54442E-21
 -1       534-7.65092E-06 5.59998E-07 8.48240E-39-9.13298E-06-1.49142E-19-1.38515E-20
 -1       535-1.58175E-05 7.13373E-07 5.64458E-38-1.85469E-05-1.88548E-19 3.70138E-20
 -1       536-2.38634E-05-1.08454E-07 1.76008E-38-2.97306E-05 1.23285E-19-2.13002E-20
 -1       537-3.14076E-05-2.35473E-06 5.45919E-39-4.29122E-05-2.90429E-20 1.30135E-20
 -1       538-3.78905E-05-6.60178E-06 9.34275E-38-5.82596E-05 4.63609E-20-6.10025E-21
 -1       539-4.25618E-05-1.35734E-05-3.46257E-38-7.58250E-05-4.14203E-20-2.62532E-20
 -1       540-4.44672E-05-2.41293E-05 4.59492E-38-9.54601E-05-2.11195E-20 5.50964E-20
 -1       541-4.24750E-05-3.92137E-05 3.46576E-38-1.16707E-04-4.64679E-20-1.86725E-20
 -1       542-3.53673E-05-5.97390E-05-5.62613E-39-1.38683E-04 5.60620E-20-6.58431E-21
 -1       543-2.20249E-05-8.63886E-05 2.06896E-38-1.59991E-04 1.61864E-20 8.40702E-20
 -1       544-1.70827E-06-1.19347E-04 2.94185E-38-1.78730E-04-7.51092E-20 1.68378E-20
 -1       545 2.56088E-05-1.58015E-04 3.92555E-38-1.92650E-04 6.80585E-20-3.83545E-20
 -1       546 5.89607E-05-2.00811E-04 1.12497E-38-1.99503E-04-1.09966E-19 6.85293E-21
 -1       547 9.63136E-05-2.45194E-04 3.85847E-38-1.97548E-04-6.46771E-20 7.05981E-20
 -1       548 1.34796E-04-2.87987E-04 7.34590E-38-1.86057E-04 5.48750E-20-1.22404E-20
 -1       549 1.71232E-04-3.25959E-04-1.70301E-38-1.65645E-04 8.95612E-20-3.91697E-20
 -1       550 2.02816E-04-3.56519E-04 3.79889E-38-1.38278E-04-9.69017E-20 2.96663E-20
 -1       551 2.27703E-04-3.78282E-04 2.39647E-38-1.06918E-04 4.13545E-20 4.70433E-21
 -1       552 2.45301E-04-3.91319E-04-5.32051E-39-7.49535E-05-9.79008E-21 1.88404E-20
 -1       553 2.56200E-04-3.97024E-04 2.85692E-38-4.56241E-05 7.32330E-20 3.21257E-20
 -1       554 2.61795E-04-3.97727E-04 8.03944E-38-2.16359E-05-1.75369E-19-1.49409E-20
 -1       555 2.64206E-04-3.95642E-04 2.26208E-38-4.55954E-06-4.92478E-21-7.23339E-21
 -1       556-5.33729E-06-4.14938E-07 3.27763E-38-7.88048E-06-8.37419E-20 1.03035E-20
 -1       557-1.11039E-05-1.12077E-06-8.16754E-39-1.58144E-05 1.71387E-19-6.39027E-21
 -1       558-1.67578E-05-2.64129E-06 3.62603E-38-2.51053E-05-9.65398E-20-6.75872E-21
 -1       559-2.20368E-05-5.30934E-06 3.89418E-38-3.59325E-05-8.33287E-20 5.40832E-20
 -1       560-2.65535E-05-9.55005E-06 4.31030E-38-4.84429E-05 1.20470E-19 2.01889E-20
 -1       561-2.97835E-05-1.59029E-05 5.99597E-38-6.27179E-05-3.59710E-20-3.70684E-20
 -1       562-3.10454E-05-2.50255E-05 1.41582E-38-7.87199E-05-5.35409E-20-1.10315E-20
 -1       563-2.94983E-05-3.76759E-05 2.99955E-38-9.62158E-05 3.23435E-20 3.74927E-20
 -1       564-2.41762E-05-5.46567E-05 6.63258E-38-1.14685E-04-7.02762E-20-3.94895E-20
 -1       565-1.40801E-05-7.67018E-05 2.88182E-38-1.33228E-04 3.84302E-20-1.68862E-20
 -1       566 1.65132E-06-1.04293E-04 4.31196E-38-1.50506E-04-1.76279E-19-7.00914E-20
 -1       567 2.34929E-05-1.37422E-04 5.34638E-39-1.64770E-04 1.90946E-19-1.45875E-20
 -1       568 5.12509E-05-1.75344E-04 4.36765E-38-1.74033E-04-3.30165E-20 2.43261E-20
 -1       569 8.38429E-05-2.16432E-04-2.43892E-39-1.76401E-04-7.75195E-20-2.33256E-20
 -1       570 1.19265E-04-2.58232E-04 5.73083E-38-1.70530E-04-2.10090E-19-1.35311E-20
 -1       571 1.54834E-04-2.97791E-04 1.94769E-38-1.56079E-04 3.88532E-20-2.00490E-20
 -1       572 1.87695E-04-3.32221E-04 5.34215E-39-1.33981E-04 2.52105E-22-6.49201E-20
 -1       573 2.15445E-04-3.59344E-04 1.44650E-38-1.06418E-04 6.03858E-20 2.29855E-20
 -1       574 2.36646E-04-3.78194E-04 4.61364E-38-7.64677E-05 7.14738E-20-4.33777E-20
 -1       575 2.51057E-04-3.89199E-04 4.54413E-38-4.75784E-05-6.47741E-20 7.51323E-21
 -1       576 2.59462E-04-3.94016E-04 1.75929E-37-2.30373E-05 3.58033E-19-3.35336E-20
 -1       577 2.63777E-04-3.94442E-04-4.36954E-38-5.08182E-06-1.97440E-19 1.47567E-20
 -1       578-3.53226E-06-1.19024E-06-2.42025E-39-6.80516E-06-3.45514E-20 2.45977E-20
 -1       579-7.43853E-06-2.56831E-06 5.69212E-38-1.34963E-05-2.25605E-19 2.53810E-20
 -1       580-1.12201E-05-4.65129E-06 2.06761E-38-2.12381E-05 1.19525E-19 5.12787E-20
 -1       581-1.46907E-05-7.69286E-06-1.15831E-38-3.01702E-05 7.58094E-20 1.02376E-20
 -1       582-1.75753E-05-1.20138E-05 3.54157E-38-4.04138E-05-1.00184E-19-1.99601E-21
 -1       583-1.95014E-05-1.80227E-05 2.27990E-38-5.20539E-05-1.22677E-19-2.42474E-20
 -1       584-1.99784E-05-2.62244E-05 1.25846E-38-6.51044E-05-1.61964E-21-2.14761E-20
 -1       585-1.83864E-05-3.72194E-05 2.42118E-38-7.94573E-05-3.98566E-20-3.22020E-20
 -1       586-1.39810E-05-5.16810E-05 5.57727E-40-9.48152E-05 3.80746E-20-2.01896E-20
 -1       587-5.93346E-06-7.02958E-05 3.42889E-38-1.10613E-04-9.15703E-20-3.70463E-20
 -1       588 6.57744E-06-9.36525E-05-3.32183E-39-1.25942E-04 1.22668E-19 7.95931E-21
 -1       589 2.42046E-05-1.22070E-04 2.04971E-38-1.39517E-04-7.98174E-20-1.69129E-20
 -1       590 4.72090E-05-1.55378E-04 6.45355E-38-1.49722E-04-2.46263E-21-3.34709E-20
 -1       591 7.52156E-05-1.92711E-04 1.68129E-38-1.54794E-04-7.87923E-20-4.42408E-20
 -1       592 1.07038E-04-2.32390E-04 1.10293E-38-1.53148E-04 4.40210E-20 5.61675E-20
 -1       593 1.40685E-04-2.72018E-04 1.28297E-38-1.43810E-04-5.58938E-20-1.09699E-20
 -1       594 1.73616E-04-3.08819E-04 6.24033E-39-1.26824E-04 2.67805E-20-5.68732E-21
 -1       595 2.03244E-04-3.40194E-04 2.11963E-38-1.03492E-04 4.88412E-20 6.10015E-20
 -1       596 2.27513E-04-3.64333E-04 1.69729E-38-7.63085E-05-6.22241E-20 5.27574E-20
 -1       597 2.45350E-04-3.80649E-04-2.22366E-39-4.86182E-05-2.85599E-20-5.61107E-21
 -1       598 2.56766E-04-3.89902E-04-4.29078E-38-2.40850E-05 1.18121E-19 2.47612E-20
 -1       599 2.63232E-04-3.93220E-04 2.52113E-37-5.57779E-06 2.30630E-19-8.16781E-21
 -1       600-2.10905E-06-1.81806E-06 7.05482E-39-5.86397E-06-5.61906E-20 4.13118E-20
 -1       601-4.56760E-06-3.72325E-06 1.23593E-38-1.14884E-05 5.16644E-20 2.15211E-20
 -1       602-6.88122E-06-6.25690E-06-2.56987E-39-1.79316E-05-3.02492E-20-3.66237E-20
 -1       603-8.91260E-06-9.61798E-06 2.44621E-38-2.53013E-05 1.22346E-19 2.02081E-20
 -1       604-1.04611E-05-1.40548E-05-2.03501E-38-3.36948E-05 2.47425E-21-9.95014E-21
 -1       605-1.12558E-05-1.98826E-05 4.58216E-38-4.31890E-05-1.51789E-19 3.20274E-20
 -1       606-1.09389E-05-2.74940E-05 1.43810E-38-5.38187E-05 6.73361E-20 2.20402E-20
 -1       607-9.05137E-06-3.73640E-05 1.81377E-38-6.55426E-05 3.37458E-20-6.15266E-20
 -1       608-5.02671E-06-5.00452E-05 9.60547E-39-7.81964E-05-4.69529E-20-1.71949E-20
 -1       609 1.79737E-06-6.61404E-05 1.34557E-38-9.14321E-05 4.73333E-20 7.20973E-20
 -1       610 1.21351E-05-8.62406E-05 1.57150E-38-1.04650E-04-4.61992E-20 3.09302E-20
 -1       611 2.66601E-05-1.10814E-04-6.03431E-39-1.16940E-04-1.28961E-20 3.58150E-20
 -1       612 4.58523E-05-1.40043E-04 1.34496E-38-1.27066E-04-4.05365E-20 1.53495E-20
 -1       613 6.97922E-05-1.73619E-04 2.52176E-38-1.33532E-04-5.95374E-20-4.66407E-20
 -1       614 9.79465E-05-2.10559E-04-2.14025E-39-1.34779E-04 1.37999E-19-1.06674E-20
 -1       615 1.29029E-04-2.49128E-04 5.58420E-38-1.29517E-04-1.26724E-19 5.18533E-20
 -1       616 1.61039E-04-2.86952E-04 1.60873E-38-1.17147E-04-1.00070E-19 2.89190E-20
 -1       617 1.91546E-04-3.21389E-04 1.64370E-38-9.81494E-05 9.50274E-20 1.30970E-20
 -1       618 2.18180E-04-3.50080E-04-1.58845E-39-7.42858E-05-1.17466E-20-9.30755E-21
 -1       619 2.39178E-04-3.71517E-04 9.78037E-39-4.85195E-05 1.11030E-19-1.73644E-20
 -1       620 2.53703E-04-3.85429E-04 1.91991E-37-2.46278E-05 1.12686E-19-1.15394E-21
 -1       621 2.62537E-04-3.92036E-04-5.31595E-39-5.99833E-06-8.79420E-20 1.34623E-20
 -1       622-9.74136E-07-2.33754E-06 1.01923E-38-5.02353E-06-3.98569E-20 1.60198E-20
 -1       623-2.30411E-06-4.65640E-06 4.77058E-38-9.71230E-06-9.45163E-20 8.52192E-20
 -1       624-3.46728E-06-7.54957E-06 1.21775E-38-1.50404E-05 1.02226E-19 1.28152E-20
 -1       625-4.35752E-06-1.11780E-05 1.51786E-39-2.10904E-05-8.03873E-21-4.58290E-20
 -1       626-4.82366E-06-1.57389E-05 2.45826E-38-2.79386E-05 1.31722E-19-9.05645E-21
 -1       627-4.66380E-06-2.14812E-05 6.97844E-39-3.56500E-05 7.86067E-20 5.84613E-21
 -1       628-3.61150E-06-2.87151E-05 3.89822E-39-4.42642E-05-9.78966E-20 2.25208E-20
 -1       629-1.32283E-06-3.78199E-05 2.19889E-38-5.37738E-05 9.31122E-20 6.58754E-20
 -1       630 2.63369E-06-4.92467E-05 3.39920E-39-6.40920E-05-2.33088E-20-1.15346E-20
 -1       631 8.77851E-06-6.35088E-05-1.66935E-38-7.50085E-05 2.72766E-20 2.50043E-20
 -1       632 1.77047E-05-8.11513E-05 5.66029E-38-8.61346E-05-1.61359E-19 4.54271E-20
 -1       633 3.00300E-05-1.02686E-04 4.22209E-38-9.68448E-05 1.92066E-20-7.75648E-23
 -1       634 4.63036E-05-1.28481E-04 4.19341E-38-1.06232E-04 3.72431E-20 3.15326E-20
 -1       635 6.68569E-05-1.58597E-04 5.47077E-39-1.13109E-04-5.30573E-20 1.98650E-20
 -1       636 9.16113E-05-1.92600E-04 7.68629E-39-1.16097E-04-8.19176E-21-3.40859E-21
 -1       637 1.19885E-04-2.29390E-04 1.61205E-38-1.13845E-04 8.76297E-20-1.33986E-20
 -1       638 1.50285E-04-2.67152E-04-6.95692E-39-1.05378E-04-2.90337E-20 5.19077E-21
 -1       639 1.80778E-04-3.03498E-04 1.16203E-38-9.05241E-05-1.51576E-19-4.23212E-20
 -1       640 2.08993E-04-3.35859E-04 2.42249E-38-7.02984E-05-4.27287E-22 5.08541E-20
 -1       641 2.32713E-04-3.62024E-04 6.16907E-38-4.70871E-05-4.12471E-20-1.16041E-20
 -1       642 2.50301E-04-3.80673E-04-1.74677E-38-2.45053E-05-1.80083E-19-1.10818E-20
 -1       643 2.61656E-04-3.90964E-04 3.32204E-38-6.27883E-06 1.61128E-19 1.24910E-20
 -1       644-5.92472E-08-2.77977E-06 3.47172E-40-4.25419E-06-2.43316E-20 8.03853E-21
 -1       645-5.11988E-07-5.42240E-06 2.34325E-38-8.10564E-06-2.53526E-20-3.67548E-20
 -1       646-7.74129E-07-8.60160E-06 1.85865E-38-1.24539E-05 8.84213E-20 1.86920E-21
 -1       647-7.63734E-07-1.24497E-05 4.94724E-39-1.73610E-05-3.77878E-20-1.41734E-20
 -1       648-3.62949E-07-1.71280E-05 7.81332E-39-2.28858E-05-9.66650E-20 3.80566E-20
 -1       649 5.84272E-07-2.28389E-05 1.43992E-38-2.90809E-05 5.06510E-21 5.27428E-20
 -1       650 2.28196E-06-2.98331E-05 1.76593E-38-3.59839E-05 7.92831E-20-7.18330E-20
 -1       651 4.99282E-06-3.84178E-05 1.39066E-38-4.36029E-05-1.03045E-19 5.27515E-20
 -1       652 9.04882E-06-4.89629E-05 1.03257E-38-5.18947E-05-3.02511E-20-3.65655E-20
 -1       653 1.48582E-05-6.19012E-05 3.52285E-38-6.07341E-05-3.28840E-20-5.19046E-20
 -1       654 2.29034E-05-7.77160E-05 8.49097E-39-6.98731E-05-4.37670E-21-3.79155E-20
 -1       655 3.37197E-05-9.69070E-05-1.96487E-40-7.88913E-05 3.38442E-20 2.28705E-20
 -1       656 4.78440E-05-1.19922E-04 2.74912E-38-8.71462E-05 1.04931E-19-5.22117E-20
 -1       657 6.57180E-05-1.47040E-04 1.29579E-38-9.37418E-05 9.78246E-20-4.91295E-20
 -1       658 8.75408E-05-1.78215E-04 1.93045E-38-9.75494E-05-5.64616E-20 5.26702E-21
 -1       659 1.13084E-04-2.12884E-04 2.27033E-38-9.73233E-05-6.90037E-20 7.79196E-20
 -1       660 1.41513E-04-2.49814E-04 3.42528E-38-9.19496E-05 6.70254E-20-2.68961E-20
 -1       661 1.71303E-04-2.87066E-04-6.51681E-39-8.08289E-05 3.01104E-20-1.79384E-20
 -1       662 2.00333E-04-3.22161E-04 9.20821E-39-6.43283E-05 4.47193E-20-3.43479E-20
 -1       663 2.26204E-04-3.52475E-04-2.25904E-38-4.41694E-05-1.07912E-19 4.97190E-21
 -1       664 2.46643E-04-3.75757E-04 1.25585E-37-2.35628E-05 3.48103E-19-1.79096E-20
 -1       665 2.60557E-04-3.90078E-04-1.44623E-39-6.34273E-06-1.15345E-19 1.12835E-20
 -1       666 6.90130E-07-3.16646E-06 2.26380E-38-3.53716E-06 9.80636E-20-7.87149E-20
 -1       667 9.22088E-07-6.06417E-06 2.71315E-39-6.61996E-06 8.38264E-20 1.56001E-20
 -1       668 1.35348E-06-9.46531E-06 2.32693E-39-1.00825E-05 2.98140E-20 1.69956E-20
 -1       669 2.06214E-06-1.34898E-05 1.83715E-38-1.39717E-05 1.92958E-20 8.21934E-20
 -1       670 3.14649E-06-1.82744E-05 8.62185E-39-1.83324E-05-2.66052E-20-5.96913E-20
 -1       671 4.73034E-06-2.39864E-05 2.10153E-39-2.32052E-05 7.38443E-20-5.23749E-20
 -1       672 6.97300E-06-3.08316E-05 3.37812E-38-2.86217E-05-8.18270E-20 9.86917E-20
 -1       673 1.00794E-05-3.90637E-05 4.28280E-39-3.45944E-05-1.73626E-20-1.96688E-20
 -1       674 1.43101E-05-4.89907E-05 3.03386E-38-4.11036E-05 2.29848E-20 3.23242E-22
 -1       675 1.99895E-05-6.09799E-05 1.17744E-38-4.80761E-05 1.89307E-20-6.52505E-20
 -1       676 2.75094E-05-7.54550E-05-6.74647E-40-5.53565E-05-4.41733E-20 9.39126E-20
 -1       677 3.73232E-05-9.28799E-05 2.85970E-38-6.26690E-05 5.54386E-20-5.95990E-20
 -1       678 4.99198E-05-1.13721E-04-1.09662E-38-6.95730E-05-2.64108E-20-4.38911E-20
 -1       679 6.57670E-05-1.38371E-04 2.53660E-38-7.54221E-05-1.47794E-19 8.35203E-20
 -1       680 8.52107E-05-1.67032E-04 2.58310E-38-7.93483E-05 1.07658E-20 1.37690E-20
 -1       681 1.08324E-04-1.99547E-04 1.72207E-38-8.03059E-05 1.15290E-19 1.42533E-20
 -1       682 1.34720E-04-2.35205E-04 5.28421E-39-7.72230E-05-9.27358E-20 7.29455E-20
 -1       683 1.63381E-04-2.72587E-04 5.48838E-38-6.92944E-05-1.64463E-19 1.33997E-20
 -1       684 1.92577E-04-3.09527E-04 2.63808E-38-5.64135E-05 1.85244E-19 6.76190E-20
 -1       685 2.19972E-04-3.43276E-04 6.27361E-38-3.96583E-05 5.15085E-20-5.21665E-20
 -1       686 2.42882E-04-3.70868E-04 3.04327E-39-2.16617E-05 2.34898E-20-8.96740E-21
 -1       687 2.59239E-04-3.89441E-04 4.26528E-38-6.10815E-06 1.35468E-19 3.48112E-21
 -1       688 1.31706E-06-3.53521E-06 6.46178E-39-2.82072E-06 7.39679E-21 3.89545E-21
 -1       689 2.03218E-06-6.60940E-06 3.93182E-40-5.19376E-06-3.70936E-20-9.49488E-21
 -1       690 2.99818E-06-1.01916E-05 3.56838E-38-7.84326E-06-1.18820E-20-8.95978E-20
 -1       691 4.25773E-06-1.43674E-05 8.13204E-40-1.08071E-05-1.56242E-20-1.36790E-20
 -1       692 5.88111E-06-1.92459E-05 7.26316E-39-1.41183E-05 3.11766E-20 9.72882E-20
 -1       693 7.96690E-06-2.49690E-05 1.43512E-38-1.78057E-05 3.63511E-20-7.95443E-20
 -1       694 1.06464E-05-3.17145E-05 2.28421E-38-2.18926E-05 5.91417E-20 3.52631E-20
 -1       695 1.40889E-05-3.97014E-05 1.55727E-38-2.63912E-05-1.65838E-20-4.05163E-21
 -1       696 1.85080E-05-4.91954E-05 1.38609E-38-3.12940E-05-4.61448E-20-2.93447E-20
 -1       697 2.41689E-05-6.05141E-05 2.17414E-38-3.65607E-05-4.11350E-20-4.39395E-20
 -1       698 3.13945E-05-7.40292E-05 1.74563E-38-4.20972E-05 7.59774E-20-8.86754E-21
 -1       699 4.05671E-05-9.01630E-05-5.25165E-39-4.77289E-05-4.77401E-20 7.34964E-20
 -1       700 5.21186E-05-1.09369E-04 3.01041E-38-5.31652E-05 3.27382E-20-3.55007E-21
 -1       701 6.65010E-05-1.32088E-04 5.26002E-39-5.79625E-05-1.35534E-20-2.85832E-20
 -1       702 8.41222E-05-1.58668E-04-3.99133E-40-6.14940E-05 8.26270E-20 2.21895E-20
 -1       703 1.05235E-04-1.89230E-04 1.45084E-38-6.29534E-05-5.28161E-20-1.53052E-21
 -1       704 1.29774E-04-2.23479E-04 1.13011E-38-6.14303E-05 9.88175E-20-8.73411E-20
 -1       705 1.57148E-04-2.60491E-04 1.81042E-38-5.61068E-05-1.14032E-20 1.12815E-20
 -1       706 1.86056E-04-2.98521E-04 2.40420E-38-4.66069E-05-2.74155E-19-3.60187E-20
 -1       707 2.14380E-04-3.34927E-04 1.51187E-38-3.34763E-05 2.51491E-20 4.99837E-20
 -1       708 2.39255E-04-3.66281E-04 2.48061E-38-1.86840E-05-7.88267E-21-3.83431E-20
 -1       709 2.57761E-04-3.89094E-04 6.81518E-38-5.49497E-06-1.29129E-19 1.12098E-20
 -1       710 1.76818E-06-3.82706E-06 8.56534E-39-2.22895E-06 2.07481E-20 2.77570E-20
 -1       711 2.99018E-06-7.14484E-06 2.31944E-38-3.85952E-06 2.24725E-20 4.33894E-20
 -1       712 4.37632E-06-1.08741E-05 2.05079E-39-5.71754E-06-2.14530E-20 1.73816E-20
 -1       713 6.01044E-06-1.51331E-05 1.48195E-38-7.80470E-06 6.38146E-20 2.27522E-20
 -1       714 7.98575E-06-2.00472E-05 2.10122E-39-1.01293E-05 1.97809E-20-7.07351E-20
 -1       715 1.04065E-05-2.57581E-05-1.46523E-39-1.27054E-05-1.22324E-20-7.32206E-21
 -1       716 1.33941E-05-3.24300E-05 3.60931E-39-1.55484E-05-2.77457E-20 1.04351E-20
 -1       717 1.70941E-05-4.02563E-05 1.58941E-38-1.86707E-05-4.49089E-22-5.14826E-20
 -1       718 2.16850E-05-4.94683E-05-2.69211E-39-2.20734E-05 2.09715E-21 1.81733E-20
 -1       719 2.73865E-05-6.03429E-05 1.25145E-38-2.57372E-05-2.57973E-20-3.64746E-20
 -1       720 3.44687E-05-7.32090E-05 1.54145E-39-2.96094E-05 2.09782E-20 1.24739E-22
 -1       721 4.32571E-05-8.84502E-05 2.50674E-38-3.35854E-05-1.16964E-20-1.23676E-19
 -1       722 5.41325E-05-1.06497E-04-1.39495E-38-3.74853E-05 3.82413E-20 1.90218E-20
 -1       723 6.75167E-05-1.27805E-04 4.19112E-38-4.10256E-05-7.27919E-22-3.43589E-20
 -1       724 8.38339E-05-1.52798E-04 1.64078E-38-4.37909E-05-1.78261E-20 3.33104E-20
 -1       725 1.03433E-04-1.81772E-04-4.97907E-39-4.52205E-05-5.71193E-21-5.36941E-21
 -1       726 1.26453E-04-2.14731E-04 9.31045E-39-4.46365E-05-3.09454E-20 5.83796E-20
 -1       727 1.52625E-04-2.51154E-04 2.46445E-38-4.13568E-05 7.98229E-20 2.48360E-20
 -1       728 1.81018E-04-2.89714E-04 5.61903E-38-3.49377E-05 2.02905E-19 1.31253E-21
 -1       729 2.09790E-04-3.28001E-04-1.97287E-38-2.55613E-05-5.16737E-20-3.70109E-21
 -1       730 2.36066E-04-3.62355E-04 2.51493E-38-1.45344E-05 4.32514E-20-1.86774E-20
 -1       731 2.56267E-04-3.89029E-04 5.53395E-38-4.43186E-06-1.27772E-19-5.70428E-21
 -1       732 2.66017E-06-4.76508E-06 8.59453E-39-1.02793E-06-1.36281E-20-1.21304E-20
 -1       733 3.75458E-06-7.79743E-06 5.90872E-39-2.28980E-06 1.34140E-20 1.27356E-20
 -1       734 5.18457E-06-1.13955E-05 6.62479E-39-3.52911E-06-3.29043E-21-4.47661E-20
 -1       735 6.98113E-06-1.56210E-05 2.65271E-39-4.80277E-06-1.12324E-20 3.45691E-20
 -1       736 9.19060E-06-2.05502E-05 8.51451E-39-6.15845E-06-2.72650E-20 7.22512E-20
 -1       737 1.18774E-05-2.62839E-05 3.89026E-39-7.63388E-06 1.30267E-20 2.65223E-20
 -1       738 1.51290E-05-3.29515E-05 4.85684E-38-9.25653E-06 3.98561E-20 1.15619E-19
 -1       739 1.90612E-05-4.07172E-05 1.42337E-38-1.10432E-05-2.15490E-20-4.23794E-20
 -1       740 2.38236E-05-4.97851E-05 3.28569E-39-1.29992E-05-2.64425E-21-3.94244E-20
 -1       741 2.96065E-05-6.04056E-05 2.08130E-38-1.51155E-05 3.07239E-20-3.54965E-20
 -1       742 3.66470E-05-7.28808E-05 4.93073E-39-1.73639E-05-1.42254E-20-7.06290E-20
 -1       743 4.52351E-05-8.75689E-05 2.43081E-38-1.96885E-05 4.93402E-20 1.11806E-19
 -1       744 5.57168E-05-1.04882E-04 1.18047E-38-2.19928E-05-3.53182E-20-5.98000E-20
 -1       745 6.84875E-05-1.25275E-04-3.56811E-39-2.41227E-05 9.60163E-21 6.07649E-20
 -1       746 8.39693E-05-1.49209E-04 2.95034E-38-2.58477E-05 4.46105E-20 4.30314E-20
 -1       747 1.02556E-04-1.77076E-04 1.83780E-38-2.68465E-05 1.52212E-20-1.02777E-19
 -1       748 1.24503E-04-2.09065E-04 7.20544E-38-2.67127E-05 1.77676E-20-3.91593E-20
 -1       749 1.49745E-04-2.44932E-04 6.45961E-39-2.50068E-05 9.91556E-20-1.74145E-20
 -1       750 1.77622E-04-2.83671E-04 1.44533E-38-2.13910E-05-1.37901E-19-8.45231E-21
 -1       751 2.06526E-04-3.23113E-04 5.93604E-41-1.58711E-05 1.08297E-19-3.61019E-20
 -1       752 2.33656E-04-3.59515E-04 5.66234E-39-9.15588E-06-3.13433E-20 5.02402E-20
 -1       753 2.54998E-04-3.89166E-04 1.16698E-37-2.87167E-06 1.70338E-19 1.85398E-20
 -1       754 2.22604E-06-3.28052E-06-4.26330E-39 2.30798E-07 1.20608E-20 5.86822E-21
 -1       755 3.74969E-06-6.97897E-06 4.38612E-39 7.52352E-07 1.12013E-20-3.43721E-20
 -1       756 5.54398E-06-1.10473E-05 1.48970E-38 9.55030E-07 1.31056E-21-1.08327E-20
 -1       757 7.64387E-06-1.55883E-05 7.99690E-39 9.06088E-07 6.92597E-21-4.99718E-20
 -1       758 1.01010E-05-2.07139E-05 1.79126E-38 6.63737E-07 1.53962E-20 6.76992E-20
 -1       759 1.29853E-05-2.65530E-05 1.30715E-38 2.74094E-07-1.12709E-20 5.75629E-20
 -1       760 1.63888E-05-3.32548E-05 1.39639E-39-2.29111E-07 9.22322E-21-9.94570E-20
 -1       761 2.04298E-05-4.09947E-05 1.25820E-38-8.23299E-07-2.19045E-20-9.73427E-21
 -1       762 2.52568E-05-4.99798E-05-1.04785E-39-1.49432E-06 2.77609E-20 8.82764E-21
 -1       763 3.10542E-05-6.04567E-05 2.73880E-38-2.23266E-06-3.49366E-20 1.03274E-19
 -1       764 3.80490E-05-7.27191E-05 1.03404E-38-3.02891E-06-2.23201E-20 3.10173E-20
 -1       765 4.65165E-05-8.71140E-05 1.01376E-38-3.86881E-06-2.66595E-20 4.48329E-20
 -1       766 5.67857E-05-1.04045E-04 2.33015E-39-4.72754E-06 5.23369E-20 7.39741E-21
 -1       767 6.92371E-05-1.23964E-04 1.91338E-38-5.56341E-06-3.15901E-21-1.31665E-20
 -1       768 8.42869E-05-1.47347E-04 1.31733E-38-6.31077E-06-1.83096E-21-6.93473E-20
 -1       769 1.02344E-04-1.74634E-04 5.33680E-38-6.87368E-06-1.59136E-19-3.01720E-20
 -1       770 1.23713E-04-2.06100E-04-5.11703E-39-7.12419E-06-3.78395E-20 4.84629E-20
 -1       771 1.48427E-04-2.41645E-04 3.55606E-38-6.91331E-06-1.51640E-19-2.65593E-21
 -1       772 1.75964E-04-2.80439E-04 4.16643E-38-6.10724E-06 4.84381E-20 3.56380E-20
 -1       773 2.04852E-04-3.20456E-04 1.57207E-37-4.66021E-06-3.69983E-20 4.21966E-20
 -1       774 2.32362E-04-3.57939E-04-7.84587E-40-2.73231E-06 1.48220E-19 1.77519E-20
 -1       775 2.54275E-04-3.89263E-04 4.82775E-38-8.00699E-07-1.59994E-19 4.24201E-21
 -1       776-1.61748E-06 2.09392E-07 5.75836E-37 6.69369E-07 3.66081E-19-1.05575E-19
 -1       777-2.18242E-06 3.20843E-07 4.26497E-35 1.07651E-06-1.10790E-18 4.14539E-19
 -1       778-2.67054E-06 3.32535E-07 7.17954E-36 1.55910E-06-2.59498E-18 1.00976E-20
 -1       779-3.06746E-06 2.29701E-07 1.57919E-35 2.13905E-06 1.10002E-19-2.34054E-19
 -1       780-3.35584E-06-4.26484E-09 1.05186E-35 2.83506E-06 2.74628E-18 1.52184E-19
 -1       781-3.51617E-06-3.88491E-07 8.61001E-36 3.66131E-06-1.25907E-18-2.11489E-19
 -1       782-3.52684E-06-9.45223E-07 1.95453E-35 4.62628E-06 5.22024E-19-2.26215E-19
 -1       783-3.36412E-06-1.70053E-06 1.00533E-35 5.73142E-06 2.47917E-18 3.37210E-19
 -1       784-3.00235E-06-2.68495E-06 7.45413E-36 6.96942E-06 1.64374E-19-5.93109E-20
 -1       785-2.41416E-06-3.93398E-06 7.58582E-36 8.32230E-06 1.39082E-18-6.87802E-20
 -1       786-1.57093E-06-5.48800E-06 1.67115E-35 9.75898E-06 4.06606E-18 1.64556E-20
 -1       787-4.43663E-07-7.39139E-06 8.44931E-36 1.12325E-05-1.85704E-18-1.05100E-19
 -1       788 9.95586E-07-9.69025E-06 4.35686E-36 1.26770E-05 2.87256E-18 3.19238E-19
 -1       789 2.77120E-06-1.24279E-05 1.19598E-35 1.40043E-05-2.76605E-18 1.48121E-19
 -1       790 4.89983E-06-1.56376E-05 1.93729E-35 1.51008E-05-3.43886E-19-3.37645E-20
 -1       791 7.38377E-06-1.93312E-05 3.46787E-35 1.58251E-05 1.71012E-19 1.33361E-19
 -1       792 1.02003E-05-2.34836E-05 3.03442E-36 1.60082E-05-2.89373E-19-3.03010E-19
 -1       793 1.32848E-05-2.80120E-05 2.48665E-35 1.54597E-05-2.38972E-19 2.79303E-19
 -1       794 1.65036E-05-3.27514E-05-2.79573E-36 1.39896E-05-6.23460E-19-2.34295E-19
 -1       795 1.96059E-05-3.74255E-05 2.41661E-35 1.14630E-05 2.89099E-18-2.76901E-19
 -1       796 2.21282E-05-4.15948E-05 9.13006E-36 7.94070E-06-7.23395E-19 3.51003E-19
 -1       797 2.31672E-05-4.44230E-05 3.04761E-35 3.97201E-06 6.48053E-19-2.63676E-19
 -1       798-9.55529E-06 3.37697E-06 1.31145E-35 1.22302E-06 2.81969E-18-1.51547E-19
 -1       799-1.02185E-05 3.60483E-06 1.81160E-35 2.61806E-06-3.18526E-18-2.63791E-19
 -1       800-1.07923E-05 3.73399E-06 2.33825E-35 4.14229E-06-3.30441E-18 5.92556E-19
 -1       801-1.12488E-05 3.73678E-06 4.82311E-37 5.79934E-06-3.18630E-19-7.20653E-20
 -1       802-1.15564E-05 3.58321E-06 9.05398E-36 7.59383E-06-3.16635E-18-1.80742E-19
 -1       803-1.16804E-05 3.24097E-06 2.81749E-36 9.52935E-06 6.06355E-19 5.00421E-19
 -1       804-1.15835E-05 2.67578E-06 1.74135E-35 1.16071E-05-2.26453E-18 5.86797E-20
 -1       805-1.12260E-05 1.85164E-06 1.32042E-35 1.38235E-05 1.37874E-19-2.05931E-19
 -1       806-1.05667E-05 7.31077E-07 1.24247E-36 1.61669E-05-9.20252E-20 3.10874E-19
 -1       807-9.56304E-06-7.24484E-07 1.59043E-35 1.86139E-05-2.42392E-18-2.03548E-19
 -1       808-8.17222E-06-2.55436E-06 4.83692E-36 2.11243E-05-7.26571E-19 1.15423E-19
 -1       809-6.35208E-06-4.79792E-06 1.28110E-35 2.36357E-05 1.63367E-18-3.67777E-20
 -1       810-4.06289E-06-7.49347E-06 9.31726E-36 2.60572E-05-3.25417E-18 4.43108E-19
 -1       811-1.26989E-06-1.06762E-05 1.34654E-35 2.82623E-05 2.64875E-18-2.95694E-20
 -1       812 2.05229E-06-1.43744E-05 5.62778E-36 3.00824E-05 2.56031E-18-5.79331E-20
 -1       813 5.91210E-06-1.86028E-05 5.93534E-37 3.13005E-05-9.38903E-19 1.26887E-19
 -1       814 1.02879E-05-2.33511E-05 2.30868E-35 3.16494E-05 9.73734E-20-3.82210E-19
 -1       815 1.51043E-05-2.85635E-05 1.95935E-35 3.08167E-05-3.58437E-18 2.83886E-19
 -1       816 2.01892E-05-3.41017E-05 3.89488E-36 2.84653E-05 5.21787E-19-4.18380E-19
 -1       817 2.51909E-05-3.96712E-05 8.23912E-36 2.42805E-05 6.34266E-19-5.15169E-20
 -1       818 2.94106E-05-4.46624E-05 1.72515E-35 1.80456E-05-3.52917E-18 1.83772E-20
 -1       819 3.14372E-05-4.78179E-05-2.59785E-36 9.74472E-06 2.22266E-18 1.54055E-19
 -1       820-2.50316E-05 1.02496E-05 2.46776E-36 1.72650E-06-3.16690E-19-1.91834E-19
 -1       821-2.53996E-05 1.03667E-05 5.74030E-36 4.13713E-06-1.19452E-18 2.04031E-20
 -1       822-2.56557E-05 1.03792E-05 1.27505E-35 6.70077E-06 2.09281E-18 1.44071E-19
 -1       823-2.57670E-05 1.02602E-05 3.39164E-35 9.42221E-06 3.00953E-18-1.70150E-19
 -1       824-2.56944E-05 9.97820E-06 1.53487E-35 1.23035E-05 2.34905E-18-1.02947E-19
 -1       825-2.53928E-05 9.49636E-06 1.21864E-35 1.53419E-05 2.96802E-18 1.67210E-20
 -1       826-2.48110E-05 8.77293E-06-1.36447E-36 1.85295E-05-5.73467E-19 2.03379E-19
 -1       827-2.38922E-05 7.76129E-06-1.33788E-36 2.18514E-05-9.44876E-20 1.29920E-19
 -1       828-2.25739E-05 6.41039E-06 3.41029E-36 2.52832E-05 1.77736E-18-3.21803E-20
 -1       829-2.07893E-05 4.66549E-06 1.95502E-36 2.87881E-05 1.07977E-18-1.46822E-19
 -1       830-1.84680E-05 2.46917E-06 1.05411E-35 3.23113E-05 1.27785E-18 1.78924E-21
 -1       831-1.55384E-05-2.37238E-07 1.07617E-35 3.57744E-05 1.66420E-18-1.16331E-19
 -1       832-1.19298E-05-3.51147E-06 1.26206E-35 3.90679E-05 8.51965E-20 2.44580E-19
 -1       833-7.57747E-06-7.40702E-06 6.63778E-36 4.20414E-05 4.25098E-19-1.57267E-19
 -1       834-2.42907E-06-1.19677E-05 1.64897E-35 4.44936E-05 3.47058E-18 9.65584E-21
 -1       835 3.54341E-06-1.72182E-05 7.79724E-36 4.61613E-05-6.03762E-19 1.32029E-19
 -1       836 1.03238E-05-2.31480E-05 1.98231E-36 4.67099E-05-1.53611E-19-3.39449E-19
 -1       837 1.78170E-05-2.96826E-05-6.09125E-36 4.57272E-05 1.48133E-18 2.54706E-19
 -1       838 2.57886E-05-3.66326E-05 1.61971E-35 4.27250E-05 1.36309E-18-1.08891E-19
 -1       839 3.37580E-05-4.36031E-05 6.71702E-36 3.71496E-05 1.80730E-19-1.50973E-19
 -1       840 4.08117E-05-4.98412E-05 5.46047E-37 2.83930E-05-1.12993E-19 1.39921E-20
 -1       841 4.52966E-05-5.40081E-05 6.03573E-36 1.58125E-05-7.52182E-19-2.66833E-19
 -1       842-4.59469E-05 1.93708E-05 1.11148E-35 2.42043E-06 2.03432E-19-9.66625E-20
 -1       843-4.57211E-05 1.92229E-05 1.27632E-35 5.58032E-06 1.56440E-18-2.00562E-20
 -1       844-4.53457E-05 1.89642E-05 6.87833E-36 8.94990E-06 1.88387E-18 1.71930E-19
 -1       845-4.47828E-05 1.85657E-05 2.03479E-36 1.25282E-05-8.59286E-19-4.94301E-19
 -1       846-4.39883E-05 1.79931E-05 1.79627E-36 1.63120E-05 1.24465E-18-2.12976E-19
 -1       847-4.29105E-05 1.72068E-05 2.79241E-35 2.02922E-05-2.29865E-18-4.61491E-24
 -1       848-4.14896E-05 1.61612E-05 2.00359E-35 2.44535E-05 2.03700E-18-6.69003E-20
 -1       849-3.96573E-05 1.48037E-05 1.18395E-35 2.87724E-05-2.37682E-18 2.81225E-19
 -1       850-3.73361E-05 1.30752E-05 5.53309E-36 3.32138E-05-9.99862E-19-1.31834E-19
 -1       851-3.44396E-05 1.09097E-05 2.28479E-36 3.77277E-05 9.01429E-19 2.23822E-20
 -1       852-3.08730E-05 8.23508E-06-6.66628E-37 4.22444E-05-1.23827E-18 2.72201E-21
 -1       853-2.65352E-05 4.97424E-06 8.88955E-36 4.66673E-05 9.13911E-19-1.33616E-19
 -1       854-2.13214E-05 1.04776E-06 9.84785E-36 5.08650E-05 2.87357E-18 2.46680E-19
 -1       855-1.51289E-05-3.62177E-06 9.40439E-36 5.46597E-05-6.02041E-19 8.71538E-20
 -1       856-7.86618E-06-9.10231E-06-3.24058E-36 5.78138E-05 6.46514E-19-5.08140E-20
 -1       857 5.31169E-07-1.54398E-05 1.67250E-35 6.00132E-05 3.85211E-19 1.25025E-19
 -1       858 1.00744E-05-2.26368E-05 1.21982E-35 6.08496E-05 1.35996E-18-3.06561E-19
 -1       859 2.06782E-05-3.06173E-05 2.47906E-36 5.98014E-05 1.32053E-18 3.32180E-19
 -1       860 3.20896E-05-3.91686E-05 6.14253E-36 5.62153E-05-1.05969E-18-3.14855E-19
 -1       861 4.37729E-05-4.78491E-05 9.63834E-36 4.92909E-05-1.56158E-18 1.23145E-19
 -1       862 5.47332E-05-5.58507E-05 6.30599E-36 3.80637E-05 1.93828E-18 1.19952E-19
 -1       863 6.32672E-05-6.18198E-05 1.32435E-35 2.14493E-05 8.59862E-19-1.70668E-19
 -1       864-6.98719E-05 2.97294E-05 1.28089E-36 3.04285E-06 5.99093E-19 3.06147E-20
 -1       865-6.89602E-05 2.92936E-05 1.80606E-35 6.82021E-06-2.81698E-18 5.07450E-19
 -1       866-6.78456E-05 2.87260E-05 2.01634E-37 1.08474E-05-2.00554E-19-2.50133E-19
 -1       867-6.64861E-05 2.79984E-05 1.76921E-35 1.51263E-05-3.24552E-19-7.22501E-20
 -1       868-6.48336E-05 2.70768E-05 1.53225E-35 1.96551E-05 1.31829E-18 3.20309E-19
 -1       869-6.28314E-05 2.59207E-05 1.75723E-36 2.44244E-05 7.30530E-19 1.79511E-19
 -1       870-6.04128E-05 2.44826E-05 9.93164E-36 2.94175E-05 2.56084E-18 4.09186E-20
 -1       871-5.75002E-05 2.27066E-05 1.98163E-36 3.46074E-05-3.17253E-19-2.55990E-19
 -1       872-5.40040E-05 2.05279E-05 2.76157E-35 3.99538E-05 4.30876E-19-5.79574E-22
 -1       873-4.98213E-05 1.78721E-05 1.33070E-35 4.53992E-05-2.23929E-18 8.09750E-20
 -1       874-4.48358E-05 1.46552E-05 1.19413E-35 5.08629E-05 3.43543E-18 1.10822E-20
 -1       875-3.89186E-05 1.07840E-05 4.43415E-36 5.62334E-05-1.94094E-18-8.77314E-20
 -1       876-3.19304E-05 6.15809E-06 4.80779E-36 6.13580E-05 7.91880E-19 3.27675E-19
 -1       877-2.37272E-05 6.74982E-07 1.57415E-35 6.60293E-05 1.21395E-18-1.00321E-19
 -1       878-1.41707E-05-5.76194E-06-2.88796E-36 6.99678E-05-2.71548E-19-1.34720E-20
 -1       879-3.14643E-06-1.32284E-05 3.13465E-36 7.28003E-05-2.11368E-20 1.29337E-19
 -1       880 9.40553E-06-2.17544E-05 6.92853E-36 7.40337E-05 2.35698E-18-3.07285E-19
 -1       881 2.34413E-05-3.12846E-05 7.32535E-36 7.30252E-05-1.17648E-19 2.72741E-19
 -1       882 3.87348E-05-4.16150E-05 1.07282E-35 6.89496E-05-8.56868E-19-2.71732E-19
 -1       883 5.47580E-05-5.22975E-05 5.73615E-36 6.07668E-05 3.05713E-18-2.97772E-19
 -1       884 7.05009E-05-6.25005E-05 4.30246E-36 4.71925E-05-5.32691E-19 2.29054E-19
 -1       885 8.42236E-05-7.08103E-05-4.47043E-36 2.67690E-05-5.07639E-19-2.85326E-19
 -1       886-9.51587E-05 4.06480E-05 3.19819E-36 3.57787E-06 5.27699E-19-1.53921E-19
 -1       887-9.35436E-05 3.99147E-05 1.73410E-36 7.84044E-06 1.13662E-18-1.70738E-19
 -1       888-9.16733E-05 3.90339E-05 7.87422E-36 1.23917E-05-2.20202E-19-7.35225E-20
 -1       889-8.95010E-05 3.79760E-05-6.02123E-37 1.72354E-05-9.85460E-19 2.42208E-19
 -1       890-8.69737E-05 3.67057E-05 8.68982E-36 2.23721E-05 6.57286E-19-2.06338E-20
 -1       891-8.40288E-05 3.51810E-05 1.70128E-35 2.77951E-05-8.03304E-19 3.28030E-19
 -1       892-8.05924E-05 3.33514E-05-1.31605E-36 3.34896E-05-9.00906E-19-1.63633E-19
 -1       893-7.65766E-05 3.11573E-05 4.51359E-36 3.94301E-05 3.13296E-20 3.50604E-19
 -1       894-7.18784E-05 2.85275E-05 2.40389E-36 4.55767E-05-4.23456E-19-5.39465E-20
 -1       895-6.63770E-05 2.53785E-05 8.34264E-36 5.18694E-05 1.73645E-18-4.01089E-20
 -1       896-5.99323E-05 2.16131E-05 3.34684E-36 5.82219E-05-1.44741E-18-9.74218E-20
 -1       897-5.23845E-05 1.71205E-05 2.10047E-36 6.45115E-05 8.31001E-21-2.29430E-19
 -1       898-4.35561E-05 1.17779E-05 2.43557E-36 7.05667E-05 9.69948E-19 3.39925E-19
 -1       899-3.32562E-05 5.45499E-06-1.94611E-36 7.61501E-05 9.47697E-19-1.71361E-20
 -1       900-2.12927E-05-1.97653E-06 2.64309E-35 8.09374E-05 2.27640E-18-2.32931E-21
 -1       901-7.49192E-06-1.06265E-05 4.78608E-36 8.44902E-05 2.78432E-19 1.27961E-19
 -1       902 8.26749E-06-2.05587E-05 3.92769E-36 8.62242E-05-1.80758E-18-2.89467E-19
 -1       903 2.60008E-05-3.17483E-05 3.96758E-36 8.53708E-05 1.01803E-18 2.43929E-19
 -1       904 4.55349E-05-4.40152E-05-1.63540E-36 8.09338E-05-5.42097E-19-1.10725E-19
 -1       905 6.63819E-05-5.69234E-05 1.07125E-35 7.16426E-05-8.28335E-19-9.02543E-20
 -1       906 8.75476E-05-6.96297E-05 3.77954E-36 5.59065E-05 1.91026E-21 4.05000E-19
 -1       907 1.07249E-04-8.06407E-05 1.28851E-35 3.18923E-05 9.48555E-19-3.51337E-19
 -1       908-1.20606E-04 5.16195E-05 9.80646E-36 4.01241E-06-1.02103E-18 3.09545E-19
 -1       909-1.18324E-04 5.06072E-05 7.37439E-36 8.63479E-06-1.03193E-18 1.46005E-19
 -1       910-1.15743E-04 4.94348E-05 3.77124E-36 1.35816E-05 4.80290E-19 1.38765E-19
 -1       911-1.12809E-04 4.80726E-05 2.71607E-36 1.88612E-05-1.82981E-18 2.64452E-19
 -1       912-1.09465E-04 4.64841E-05 3.16590E-36 2.44794E-05 1.87500E-18-1.67892E-19
 -1       913-1.05642E-04 4.46250E-05 6.30090E-37 3.04349E-05-6.80991E-19 1.33067E-19
 -1       914-1.01257E-04 4.24413E-05 1.95299E-35 3.67183E-05-9.52942E-19 2.96103E-19
 -1       915-9.62097E-05 3.98669E-05 1.66905E-35 4.33095E-05-1.60803E-18 1.03869E-19
 -1       916-9.03790E-05 3.68219E-05-1.01523E-36 5.01726E-05 8.38749E-19-4.57474E-20
 -1       917-8.36215E-05 3.32101E-05 1.14685E-36 5.72493E-05-4.23474E-19-9.72775E-20
 -1       918-7.57672E-05 2.89172E-05 1.08374E-36 6.44505E-05 7.96851E-20 1.33065E-19
 -1       919-6.66189E-05 2.38107E-05 9.66277E-36 7.16443E-05-2.03841E-18-3.24746E-21
 -1       920-5.59531E-05 1.77412E-05 1.14848E-36 7.86396E-05-9.89007E-20 2.85817E-19
 -1       921-4.35259E-05 1.05486E-05 1.46245E-35 8.51664E-05-8.50558E-19 2.75733E-20
 -1       922-2.90863E-05 2.07239E-06 3.43448E-36 9.08505E-05-1.94063E-18 5.64680E-20
 -1       923-1.23987E-05-7.82897E-06 7.15414E-36 9.51830E-05-1.38501E-18 1.11353E-19
 -1       924 6.72041E-06-1.92488E-05 1.88677E-36 9.74849E-05 3.28227E-19-3.07746E-19
 -1       925 2.83471E-05-3.21884E-05-5.29924E-37 9.68647E-05-1.84451E-19 2.41332E-19
 -1       926 5.23681E-05-4.64917E-05 1.17309E-35 9.21669E-05 6.56337E-19-2.90771E-19
 -1       927 7.83548E-05-6.17451E-05 3.01863E-36 8.19096E-05-8.57180E-19 5.42168E-20
 -1       928 1.05363E-04-7.71154E-05-1.93526E-37 6.42097E-05-5.18702E-19-4.38758E-20
 -1       929 1.31605E-04-9.10532E-05 1.14980E-35 3.68351E-05-5.16990E-19-2.51209E-19
 -1       930-1.45311E-04 6.22591E-05 5.67839E-36 4.33987E-06 1.03564E-18-1.19313E-19
 -1       931-1.42452E-04 6.10071E-05-1.12088E-36 9.20149E-06-3.88759E-19 2.82502E-19
 -1       932-1.39259E-04 5.95883E-05 1.90788E-36 1.44246E-05 2.84788E-19-4.32005E-19
 -1       933-1.35675E-04 5.79724E-05 2.95988E-36 2.00246E-05 1.12216E-18-7.03691E-20
 -1       934-1.31636E-04 5.61208E-05 3.07421E-36 2.60153E-05-6.01931E-19 1.77300E-19
 -1       935-1.27065E-04 5.39853E-05 4.10862E-36 3.24043E-05 2.57016E-19 1.23014E-19
 -1       936-1.21867E-04 5.15058E-05-3.83613E-36 3.91915E-05 1.34319E-18-5.47593E-20
 -1       937-1.15923E-04 4.86066E-05-3.27068E-37 4.63656E-05 7.93333E-19-4.65608E-20
 -1       938-1.09090E-04 4.51943E-05 1.22487E-35 5.38973E-05-8.40812E-19-8.64774E-20
 -1       939-1.01193E-04 4.11543E-05-2.83147E-36 6.17319E-05-9.01071E-19 1.47686E-19
 -1       940-9.20240E-05 3.63495E-05 1.52157E-35 6.97772E-05 1.88229E-19 1.45244E-19
 -1       941-8.13376E-05 3.06202E-05-6.59135E-37 7.78883E-05-7.27047E-19-9.82108E-20
 -1       942-6.88570E-05 2.37874E-05 3.99068E-36 8.58487E-05-1.76040E-18 2.16895E-19
 -1       943-5.42812E-05 1.56612E-05 9.28505E-36 9.33464E-05 2.10218E-18-2.07587E-20
 -1       944-3.73019E-05 6.05567E-06 3.38040E-36 9.99474E-05 1.25360E-18-6.10710E-20
 -1       945-1.76300E-05-5.18988E-06 6.60381E-36 1.05065E-04 1.67056E-18 1.04083E-19
 -1       946 4.96532E-06-1.81803E-05 8.16429E-36 1.07926E-04 7.76312E-19-2.60494E-19
 -1       947 3.06057E-05-3.29246E-05 6.83957E-36 1.07528E-04 3.04996E-19 2.48287E-19
 -1       948 5.92308E-05-4.92808E-05-1.39661E-36 1.02587E-04-1.59759E-18-3.08262E-19
 -1       949 9.04867E-05-6.68666E-05 6.91417E-36 9.14496E-05 1.92499E-18-2.35982E-19
 -1       950 1.23530E-04-8.48997E-05 1.16035E-36 7.19743E-05 1.01677E-18 1.71943E-19
 -1       951 1.56666E-04-1.01845E-04 1.01938E-35 4.15153E-05 1.41009E-18-3.11195E-19
 -1       952-1.68629E-04 7.22913E-05 3.26417E-36 4.56137E-06 7.50338E-20-2.03236E-19
 -1       953-1.65333E-04 7.08596E-05 5.39412E-36 9.55338E-06-1.15086E-19-1.59317E-19
 -1       954-1.61681E-04 6.92606E-05 3.42120E-36 1.49497E-05-1.00981E-19-2.35412E-19
 -1       955-1.57613E-04 6.74620E-05 2.38907E-36 2.07763E-05-2.97752E-20-4.15758E-20
 -1       956-1.53056E-04 6.54211E-05 1.98620E-36 2.70587E-05 5.75669E-19-1.12348E-20
 -1       957-1.47921E-04 6.30827E-05 1.66246E-36 3.38172E-05-7.92146E-19 4.67045E-20
 -1       958-1.42094E-04 6.03758E-05 6.52937E-36 4.10645E-05-1.27356E-18 1.18517E-19
 -1       959-1.35434E-04 5.72094E-05 9.21970E-36 4.88006E-05 1.54471E-18-2.52754E-20
 -1       960-1.27761E-04 5.34690E-05 6.32467E-37 5.70041E-05 1.17804E-18-1.01797E-19
 -1       961-1.18860E-04 4.90141E-05 4.77450E-36 6.56213E-05 5.69708E-19-6.45698E-20
 -1       962-1.08471E-04 4.36770E-05 2.67554E-36 7.45507E-05 3.62459E-19 9.41201E-20
 -1       963-9.62912E-05 3.72659E-05 4.42055E-36 8.36242E-05-6.26871E-19-1.16670E-19
 -1       964-8.19861E-05 2.95723E-05 8.97028E-36 9.25843E-05 1.66894E-18 1.67255E-19
 -1       965-6.51997E-05 2.03846E-05-4.62640E-37 1.01060E-04 6.29613E-19-6.83991E-20
 -1       966-4.55806E-05 9.50874E-06 7.64509E-36 1.08542E-04-6.29041E-19 2.02537E-20
 -1       967-2.28124E-05-3.20770E-06 1.98387E-36 1.14359E-04 5.88031E-19 7.38389E-20
 -1       968 3.35062E-06-1.78480E-05 3.53423E-36 1.17651E-04-8.73136E-19-2.04197E-19
 -1       969 3.30440E-05-3.43987E-05 2.47456E-36 1.17336E-04-2.29644E-19 2.31611E-19
 -1       970 6.62453E-05-5.27161E-05 8.50437E-36 1.12050E-04 4.33831E-19-7.24541E-20
 -1       971 1.02694E-04-7.24645E-05-2.83795E-37 1.00038E-04-2.12095E-18-2.75711E-19
 -1       972 1.41720E-04-9.29739E-05 4.57863E-37 7.89619E-05 4.77330E-19 3.47506E-19
 -1       973 1.81870E-04-1.12845E-04 4.59309E-36 4.57722E-05-1.56478E-18-7.36399E-20
 -1       974-1.90145E-04 8.15392E-05 8.70899E-36 4.68593E-06 1.67049E-18-1.29721E-19
 -1       975-1.86601E-04 8.00085E-05 6.32849E-36 9.71822E-06 9.72144E-20-7.00779E-20
 -1       976-1.82696E-04 7.83153E-05 5.11078E-36 1.52100E-05-2.14502E-19 1.56468E-19
 -1       977-1.78362E-04 7.64231E-05-2.50937E-36 2.12020E-05 5.54665E-19-1.72980E-19
 -1       978-1.73515E-04 7.42809E-05 8.67968E-36 2.77361E-05-4.86439E-20 1.69739E-19
 -1       979-1.68045E-04 7.18209E-05 8.58467E-36 3.48495E-05 2.58574E-18-1.87423E-20
 -1       980-1.61811E-04 6.89537E-05 8.84076E-36 4.25708E-05-8.98691E-19-1.00767E-19
 -1       981-1.54634E-04 6.55632E-05 1.78914E-36 5.09117E-05 7.46585E-19-9.68230E-20
 -1       982-1.46287E-04 6.15038E-05 1.96970E-36 5.98555E-05 7.70035E-20-1.60200E-19
 -1       983-1.36496E-04 5.65983E-05 2.60317E-37 6.93411E-05 1.37404E-18-2.41789E-21
 -1       984-1.24936E-04 5.06409E-05 7.70737E-36 7.92429E-05-9.71832E-19 9.16722E-20
 -1       985-1.11240E-04 4.34060E-05 1.46313E-35 8.93481E-05 3.18660E-18-2.65220E-19
 -1       986-9.50164E-05 3.46632E-05 5.02215E-36 9.93329E-05 1.20086E-18 1.73123E-19
 -1       987-7.58728E-05 2.42002E-05 1.06439E-35 1.08742E-04-2.14753E-19-7.04334E-20
 -1       988-5.34482E-05 1.18486E-05-5.53631E-37 1.16973E-04 3.28296E-19-3.78600E-20
 -1       989-2.74451E-05-2.49144E-06 3.93186E-36 1.23270E-04 9.88550E-19 6.07457E-20
 -1       990 2.34575E-06-1.88357E-05 6.16466E-36 1.26710E-04 4.06798E-19-2.45163E-19
 -1       991 3.60332E-05-3.71128E-05 7.15262E-36 1.26185E-04 1.20938E-18 1.99875E-19
 -1       992 7.36183E-05-5.71662E-05 3.76523E-36 1.20328E-04 2.75572E-19-1.71408E-19
 -1       993 1.14963E-04-7.87349E-05 1.14338E-35 1.07371E-04-6.44704E-19-2.39019E-19
 -1       994 1.59665E-04-1.01344E-04 4.92360E-36 8.48665E-05 1.33779E-18 2.81125E-19
 -1       995 2.06694E-04-1.23886E-04 8.53634E-36 4.93977E-05 2.24366E-18 5.16517E-20
 -1       996-2.09646E-04 8.99136E-05 9.87307E-37 4.72978E-06 7.85259E-19-2.10582E-19
 -1       997-2.06097E-04 8.83854E-05 5.69723E-36 9.73770E-06 1.27656E-18-6.34492E-20
 -1       998-2.02199E-04 8.67039E-05 2.02043E-36 1.52813E-05-1.90006E-19 8.34181E-21
 -1       999-1.97870E-04 8.48231E-05 1.16276E-35 2.14218E-05-2.10979E-19 1.43874E-19
 -1      1000-1.93005E-04 8.26773E-05 2.88243E-36 2.82230E-05-1.06318E-18-1.49004E-20
 -1      1001-1.87464E-04 8.01765E-05 3.64501E-36 3.57429E-05-8.70728E-19 3.65432E-20
 -1      1002-1.81063E-04 7.72010E-05 9.28762E-36 4.40271E-05 3.13716E-18 8.97441E-20
 -1      1003-1.73566E-04 7.35958E-05 9.00548E-37 5.30959E-05-1.06265E-18-1.62973E-19
 -1      1004-1.64677E-04 6.91698E-05 6.41131E-36 6.29268E-05 2.08717E-18-1.77482E-19
 -1      1005-1.54044E-04 6.36977E-05 8.86265E-36 7.34326E-05 1.20701E-18-1.39785E-19
 -1      1006-1.41264E-04 5.69307E-05-4.28504E-36 8.44358E-05-2.66729E-19 5.81495E-20
 -1      1007-1.25908E-04 4.86160E-05 5.00910E-36 9.56442E-05 7.69788E-19-1.84784E-19
 -1      1008-1.07544E-04 3.85243E-05 3.77440E-36 1.06631E-04 4.30461E-19 1.58807E-19
 -1      1009-8.57849E-05 2.64822E-05-4.75127E-37 1.16829E-04-3.46175E-19-5.65854E-20
 -1      1010-6.03181E-05 1.24017E-05 7.67025E-36 1.25533E-04 1.20811E-18-4.83510E-20
 -1      1011-3.09329E-05-3.70594E-06 3.55919E-36 1.31920E-04 6.27824E-19 7.56482E-20
 -1      1012 2.48352E-06-2.17390E-05-1.01057E-36 1.35057E-04 9.99034E-19-2.26992E-19
 -1      1013 3.99765E-05-4.15411E-05 2.30234E-36 1.33884E-04-1.94453E-19 2.24607E-19
 -1      1014 8.15712E-05-6.29502E-05-2.19401E-36 1.27131E-04-4.22912E-19-1.47696E-19
 -1      1015 1.27300E-04-8.58276E-05 6.13288E-36 1.13116E-04 1.23641E-18-2.84567E-20
 -1      1016 1.77132E-04-1.09991E-04 5.29938E-36 8.93731E-05 5.11040E-20 1.69022E-19
 -1      1017 2.30657E-04-1.34796E-04 7.27928E-37 5.21786E-05 4.48717E-19-9.00617E-20
 -1      1018-2.27092E-04 9.73989E-05 2.29525E-36 4.71509E-06-7.74503E-19-1.15165E-19
 -1      1019-2.23840E-04 9.59979E-05 1.63600E-36 9.66563E-06-8.68570E-19 1.07197E-19
 -1      1020-2.20266E-04 9.44541E-05 1.90609E-36 1.52614E-05 1.12624E-18-1.90778E-19
 -1      1021-2.16265E-04 9.27045E-05-3.92399E-37 2.15915E-05 6.58825E-19-8.64606E-20
 -1      1022-2.11699E-04 9.06570E-05 7.10932E-36 2.87474E-05 1.42672E-18-1.85555E-19
 -1      1023-2.06377E-04 8.81848E-05 6.37097E-37 3.68111E-05 7.95577E-19-2.75780E-19
 -1      1024-2.00047E-04 8.51195E-05 8.14773E-36 4.58423E-05 1.12976E-18-3.92260E-20
 -1      1025-1.92388E-04 8.12485E-05 1.92430E-36 5.58586E-05 4.46463E-19-9.67561E-20
 -1      1026-1.83009E-04 7.63179E-05 6.89215E-37 6.68094E-05 3.84145E-19-1.55561E-19
 -1      1027-1.71460E-04 7.00450E-05 3.00727E-36 7.85467E-05 4.82032E-20-6.18636E-20
 -1      1028-1.57259E-04 6.21424E-05 4.88018E-36 9.07960E-05-1.67413E-18 4.05267E-20
 -1      1029-1.39927E-04 5.23544E-05 2.08418E-37 1.03137E-04 2.56725E-19-1.17575E-19
 -1      1030-1.19046E-04 4.04995E-05 4.99959E-36 1.14998E-04-3.91635E-19 1.82307E-19
 -1      1031-9.43010E-05 2.65091E-05 8.43962E-37 1.25679E-04 2.01407E-19-7.42422E-20
 -1      1032-6.55160E-05 1.04482E-05-9.72586E-38 1.34388E-04-4.50012E-19-2.93023E-20
 -1      1033-3.26443E-05-7.49744E-06-6.00990E-38 1.40285E-04-5.76047E-20 5.06487E-20
 -1      1034 4.27854E-06-2.70723E-05 1.38352E-35 1.42511E-04-7.54809E-19-2.04080E-19
 -1      1035 4.52221E-05-4.80351E-05-3.26156E-37 1.40156E-04 7.68164E-19 1.51082E-19
 -1      1036 9.02649E-05-7.02562E-05 7.37622E-36 1.32144E-04 1.17183E-18-1.56228E-19
 -1      1037 1.39676E-04-9.37883E-05 1.88531E-36 1.16968E-04-1.54365E-18 6.60848E-20
 -1      1038 1.93904E-04-1.18841E-04-6.96651E-37 9.22195E-05-3.75143E-19 1.77379E-19
 -1      1039 2.53331E-04-1.45396E-04 7.82096E-36 5.39410E-05 2.17118E-18 2.03887E-19
 -1      1040-2.42581E-04 1.04039E-04 1.22011E-36 4.66906E-06-1.99359E-19-1.04685E-19
 -1      1041-2.39998E-04 1.02917E-04 3.64099E-37 9.56765E-06-3.25221E-19-7.75288E-20
 -1      1042-2.37133E-04 1.01660E-04 6.22623E-36 1.52718E-05-1.26168E-18-3.34886E-20
 -1      1043-2.33845E-04 1.00174E-04 4.98644E-36 2.19078E-05 1.70913E-18-2.78669E-19
 -1      1044-2.29934E-04 9.83231E-05 4.39532E-36 2.96007E-05 1.32285E-18-1.50596E-19
 -1      1045-2.25129E-04 9.59201E-05 6.81010E-36 3.84555E-05 4.83330E-19 1.86269E-20
 -1      1046-2.19074E-04 9.27228E-05 1.20566E-36 4.85351E-05 5.19830E-19 1.36995E-20
 -1      1047-2.11325E-04 8.84362E-05 5.27225E-36 5.98287E-05 1.04677E-18 7.23058E-21
 -1      1048-2.01367E-04 8.27274E-05 2.42142E-36 7.22154E-05-1.52675E-18-1.05726E-19
 -1      1049-1.88640E-04 7.52565E-05 2.59453E-37 8.54285E-05 8.84384E-19-8.93684E-20
 -1      1050-1.72598E-04 6.57232E-05 4.70156E-36 9.90316E-05 5.04409E-19-5.55249E-20
 -1      1051-1.52773E-04 5.39237E-05 2.16941E-36 1.12417E-04 1.18193E-19-5.17404E-20
 -1      1052-1.28843E-04 3.98050E-05 1.17739E-36 1.24839E-04 2.94883E-19 1.08096E-19
 -1      1053-1.00677E-04 2.34944E-05 2.30864E-36 1.35472E-04-7.06753E-19-4.62840E-20
 -1      1054-6.83330E-05 5.28967E-06 1.71253E-36 1.43493E-04-1.53775E-19-4.85321E-20
 -1      1055-3.19951E-05-1.44029E-05 3.11026E-36 1.48145E-04 9.72211E-19 4.80391E-20
 -1      1056 8.13485E-06-3.51742E-05 2.74031E-36 1.48753E-04 6.05403E-19-2.01286E-19
 -1      1057 5.19812E-05-5.67431E-05 3.40809E-36 1.44665E-04-9.91454E-19 9.99427E-20
 -1      1058 9.97405E-05-7.90854E-05 4.80418E-37 1.35074E-04-1.84635E-20-9.69269E-20
 -1      1059 1.51999E-04-1.02528E-04 3.37531E-36 1.18702E-04-1.89964E-19 9.44843E-20
 -1      1060 2.09773E-04-1.27759E-04 1.74645E-36 9.32466E-05-1.09731E-18 7.48477E-21
 -1      1061 2.74365E-04-1.55501E-04 2.27715E-36 5.45844E-05-1.48542E-18-2.64333E-19
 -1      1062-2.56321E-04 1.09923E-04 2.71482E-36 4.62393E-06 1.24069E-18-1.06335E-19
 -1      1063-2.54871E-04 1.09266E-04 3.79548E-36 9.52362E-06 1.83882E-19 9.33983E-20
 -1      1064-2.53187E-04 1.08471E-04 1.26155E-36 1.54656E-05-5.68230E-19-4.45650E-20
 -1      1065-2.51059E-04 1.07392E-04 4.54692E-36 2.26240E-05-9.31136E-19 8.99265E-20
 -1      1066-2.48194E-04 1.05819E-04 1.22547E-38 3.11611E-05-2.09598E-20 2.51985E-19
 -1      1067-2.44188E-04 1.03469E-04 3.89870E-36 4.11960E-05-1.49427E-18 1.38816E-20
 -1      1068-2.38529E-04 9.99935E-05 3.74431E-36 5.27664E-05 6.39053E-19 9.39371E-20
 -1      1069-2.30607E-04 9.49871E-05 1.45323E-36 6.57826E-05-1.47944E-18 1.24061E-19
 -1      1070-2.19755E-04 8.80315E-05-2.36242E-37 7.99798E-05-1.78496E-19 7.29850E-20
 -1      1071-2.05319E-04 7.87549E-05 3.62476E-36 9.48867E-05-3.73631E-19 8.71223E-20
 -1      1072-1.86753E-04 6.69086E-05 4.47439E-36 1.09823E-04-5.49620E-19 9.97314E-20
 -1      1073-1.63708E-04 5.24416E-05 6.25817E-36 1.23946E-04-4.50138E-19 2.51677E-20
 -1      1074-1.36099E-04 3.55460E-05 4.26857E-36 1.36334E-04-4.43907E-19 2.00299E-19
 -1      1075-1.04108E-04 1.66492E-05-1.50700E-36 1.46109E-04-7.90517E-19 1.35292E-20
 -1      1076-6.81109E-05-3.65863E-06 3.75797E-36 1.52534E-04 1.42441E-19 1.66392E-20
 -1      1077-2.85459E-05-2.47524E-05-8.37519E-37 1.55072E-04 2.55282E-20 6.11393E-20
 -1      1078 1.42612E-05-4.61292E-05 5.85374E-36 1.53355E-04-1.72508E-18-1.48075E-19
 -1      1079 6.02719E-05-6.75636E-05 2.54904E-36 1.47067E-04-3.35528E-19 1.51320E-19
 -1      1080 1.09893E-04-8.92370E-05 2.22383E-36 1.35704E-04-1.26513E-18-2.83182E-19
 -1      1081 1.64104E-04-1.11829E-04 2.51923E-36 1.18221E-04-3.01593E-19-2.16081E-20
 -1      1082 2.24543E-04-1.36557E-04-1.15709E-36 9.24258E-05-6.51567E-20-1.54287E-19
 -1      1083 2.93496E-04-1.64943E-04 9.28411E-36 5.40973E-05 8.80254E-19-4.50953E-20
 -1      1084-2.68610E-04 1.15179E-04 5.15675E-36 4.61869E-06 3.84851E-19-7.87088E-22
 -1      1085-2.68880E-04 1.15218E-04 2.69044E-36 9.63472E-06 9.19934E-19-5.67712E-20
 -1      1086-2.68955E-04 1.15092E-04 4.06004E-36 1.60440E-05-1.97912E-18 1.66870E-19
 -1      1087-2.68516E-04 1.14564E-04-8.01141E-37 2.40796E-05-7.42999E-19 2.39889E-20
 -1      1088-2.67104E-04 1.13305E-04 1.20174E-36 3.39373E-05 1.37247E-18-2.45283E-19
 -1      1089-2.64115E-04 1.10891E-04 7.60188E-36 4.57218E-05 1.16550E-18 1.56454E-19
 -1      1090-2.58810E-04 1.06817E-04 3.14540E-36 5.93866E-05 3.02438E-19-1.37957E-19
 -1      1091-2.50367E-04 1.00553E-04 9.59379E-38 7.46701E-05-4.95031E-20-7.59701E-21
 -1      1092-2.37973E-04 9.16164E-05 1.71939E-36 9.10481E-05-2.50241E-19-7.22131E-20
 -1      1093-2.20953E-04 7.96780E-05 4.45688E-36 1.07730E-04 1.76174E-18-3.28369E-20
 -1      1094-1.98897E-04 6.46684E-05 3.21401E-36 1.23714E-04-7.20708E-19 6.84756E-20
 -1      1095-1.71759E-04 4.68433E-05 1.27924E-36 1.37915E-04-1.37094E-18-9.55525E-20
 -1      1096-1.39864E-04 2.67798E-05 9.51381E-37 1.49321E-04-1.47425E-18 1.55250E-19
 -1      1097-1.03822E-04 5.28688E-06 4.62582E-36 1.57146E-04 1.01471E-18-2.23138E-20
 -1      1098-6.43556E-05-1.67543E-05 5.74612E-36 1.60918E-04 7.37345E-19-1.33391E-20
 -1      1099-2.20972E-05-3.85802E-05 5.23718E-36 1.60474E-04 1.07983E-18 4.22210E-20
 -1      1100 2.26149E-05-5.97228E-05 2.83514E-36 1.55848E-04 9.08633E-19-1.38979E-19
 -1      1101 6.99028E-05-8.01455E-05 3.39226E-36 1.47079E-04-2.68223E-19 9.73877E-20
 -1      1102 1.20481E-04-1.00337E-04 3.05824E-36 1.33941E-04 8.62876E-20-9.47561E-20
 -1      1103 1.75774E-04-1.21381E-04 3.11030E-37 1.15567E-04 1.01962E-18-7.23155E-20
 -1      1104 2.38049E-04-1.45024E-04 1.33761E-36 8.98590E-05 2.77853E-19 2.14291E-20
 -1      1105 3.10567E-04-1.73581E-04 2.52510E-36 5.25539E-05 2.69119E-19 9.74233E-20
 -1      1106-2.79828E-04 1.19966E-04 8.58196E-37 4.70326E-06-9.54437E-19 8.05833E-20
 -1      1107-2.82574E-04 1.20994E-04 5.35105E-36 1.00378E-05-2.14615E-18 4.05181E-19
 -1      1108-2.85134E-04 1.21777E-04 3.56345E-36 1.72877E-05 6.34877E-19-1.21271E-19
 -1      1109-2.86991E-04 1.21928E-04 4.43496E-36 2.67524E-05 5.50776E-19-2.00598E-19
 -1      1110-2.87422E-04 1.20930E-04 4.63540E-36 3.86378E-05 1.04099E-18-1.53826E-19
 -1      1111-2.85516E-04 1.18146E-04 3.16498E-36 5.29677E-05-1.76276E-18 1.35792E-19
 -1      1112-2.80227E-04 1.12880E-04 2.58497E-36 6.94951E-05-4.51534E-19 3.75170E-20
 -1      1113-2.70504E-04 1.04482E-04 1.50962E-36 8.76297E-05 4.83021E-20 1.06055E-19
 -1      1114-2.55466E-04 9.24928E-05 3.79401E-37 1.06424E-04 9.97016E-19 4.13165E-20
 -1      1115-2.34591E-04 7.67893E-05 6.73749E-36 1.24645E-04-5.38779E-19 5.14999E-21
 -1      1116-2.07856E-04 5.76883E-05-8.60653E-37 1.40947E-04-4.21306E-19 2.13199E-20
 -1      1117-1.75756E-04 3.59458E-05 8.75954E-36 1.54098E-04 6.94865E-19-3.72413E-20
 -1      1118-1.39186E-04 1.26407E-05-1.99345E-37 1.63189E-04-4.09514E-20 1.50154E-19
 -1      1119-9.92219E-05-1.10347E-05 4.99111E-36 1.67765E-04-8.43802E-19-4.69860E-21
 -1      1120-5.68543E-05-3.40149E-05-1.39485E-36 1.67822E-04-1.10383E-18 1.07302E-21
 -1      1121-1.27557E-05-5.55708E-05 5.64440E-36 1.63687E-04-7.05883E-19 4.82825E-20
 -1      1122 3.28912E-05-7.54481E-05 1.07489E-36 1.55815E-04-1.31224E-19-8.96703E-20
 -1      1123 8.05018E-05-9.39364E-05 3.82570E-36 1.44547E-04-1.36535E-18 6.96621E-20
 -1      1124 1.31170E-04-1.11901E-04-2.99230E-37 1.29839E-04 8.05353E-19-6.31382E-20
 -1      1125 1.86775E-04-1.30832E-04 7.79765E-36 1.10923E-04-1.37644E-18-1.25537E-20
 -1      1126 2.50170E-04-1.52959E-04-1.72704E-36 8.57569E-05-3.71477E-19 1.65889E-19
 -1      1127 3.25517E-04-1.81317E-04 4.60014E-36 5.00949E-05-4.76862E-19-2.68504E-19
 -1      1128-2.90444E-04 1.24480E-04 6.84135E-36 4.94691E-06 1.73319E-18-9.69898E-20
 -1      1129-2.96668E-04 1.26870E-04 8.45468E-37 1.09320E-05-5.28917E-19-4.62032E-20
 -1      1130-3.02624E-04 1.28834E-04 1.40112E-36 1.96123E-05-5.90343E-19-4.71672E-20
 -1      1131-3.07456E-04 1.29737E-04 3.75004E-36 3.13458E-05 1.27355E-18-7.07354E-20
 -1      1132-3.10018E-04 1.28764E-04 5.21181E-36 4.62809E-05-5.85206E-19 1.63651E-20
 -1      1133-3.08949E-04 1.24988E-04-5.32800E-37 6.42181E-05 8.80570E-19-4.58616E-20
 -1      1134-3.02836E-04 1.17504E-04 8.80461E-36 8.44971E-05 5.86919E-19-6.62425E-20
 -1      1135-2.90471E-04 1.05636E-04-1.87786E-36 1.05959E-04-4.21222E-19-3.12599E-20
 -1      1136-2.71130E-04 8.91530E-05 1.61764E-36 1.27038E-04-5.65486E-19-1.13517E-19
 -1      1137-2.44784E-04 6.84246E-05 9.61504E-37 1.45998E-04 1.92852E-19-6.68145E-20
 -1      1138-2.12140E-04 4.44302E-05 3.67572E-36 1.61259E-04 2.04305E-19 2.12566E-21
 -1      1139-1.74466E-04 1.86001E-05-3.67741E-37 1.71704E-04 9.20455E-19-1.00406E-19
 -1      1140-1.33290E-04-7.47380E-06 4.08651E-36 1.76851E-04 9.81819E-19 6.09919E-20
 -1      1141-9.00414E-05-3.23583E-05 9.28111E-38 1.76851E-04-1.07750E-18-4.42716E-20
 -1      1142-4.57661E-05-5.50381E-05 6.56336E-36 1.72323E-04 2.04370E-18-2.40627E-20
 -1      1143-9.48100E-07-7.50600E-05 1.77569E-36 1.64104E-04 6.87066E-19 5.26346E-20
 -1      1144 4.45649E-05-9.25666E-05 1.26170E-36 1.52988E-04-4.52938E-20-9.82159E-20
 -1      1145 9.15810E-05-1.08268E-04 4.74517E-36 1.39485E-04 1.69061E-18 1.65328E-19
 -1      1146 1.41594E-04-1.23415E-04 4.98184E-36 1.23604E-04-9.90295E-19-4.66415E-20
 -1      1147 1.96895E-04-1.39850E-04-5.84929E-37 1.04582E-04-2.39881E-19 7.56283E-20
 -1      1148 2.60838E-04-1.60197E-04 8.50178E-36 8.04026E-05 2.33366E-18 5.48245E-20
 -1      1149 3.38377E-04-1.88102E-04 3.28387E-36 4.69022E-05-6.85395E-19 3.51801E-20
 -1      1150-3.01049E-04 1.28961E-04 4.12896E-36 5.45386E-06-3.57417E-19-7.23561E-20
 -1      1151-3.12106E-04 1.33196E-04 4.81556E-36 1.26265E-05 1.59978E-18-1.99924E-19
 -1      1152-3.22606E-04 1.36630E-04-1.42416E-37 2.36646E-05-1.19642E-19 1.17834E-19
 -1      1153-3.31113E-04 1.38212E-04 3.63014E-36 3.89330E-05 8.73302E-19-2.53559E-19
 -1      1154-3.35815E-04 1.36686E-04-6.79958E-37 5.83578E-05 7.22207E-20 8.88348E-20
 -1      1155-3.34749E-04 1.30760E-04 4.05463E-36 8.12309E-05-1.55503E-18 1.01396E-19
 -1      1156-3.26170E-04 1.19400E-04 4.43224E-36 1.06122E-04 1.85222E-18-8.51407E-21
 -1      1157-3.08997E-04 1.02166E-04 3.34034E-36 1.30985E-04-3.48019E-20 7.90235E-21
 -1      1158-2.83141E-04 7.94529E-05 1.38638E-36 1.53497E-04 1.05250E-18-7.14046E-20
 -1      1159-2.49576E-04 5.25320E-05 1.04489E-36 1.71541E-04-4.58145E-19-6.95674E-20
 -1      1160-2.10094E-04 2.33154E-05-3.91949E-37 1.83659E-04 3.52292E-19 2.40202E-20
 -1      1161-1.66835E-04-6.05989E-06 1.00558E-37 1.89304E-04-2.58563E-19-4.54092E-20
 -1      1162-1.21800E-04-3.36827E-05 3.16247E-36 1.88808E-04 7.73258E-19 9.03895E-20
 -1      1163-7.64763E-05-5.82040E-05 1.06784E-36 1.83142E-04-1.75356E-19-1.95252E-20
 -1      1164-3.16481E-05-7.89894E-05 2.61920E-36 1.73566E-04 2.73302E-19 5.93157E-21
 -1      1165 1.26296E-05-9.61058E-05 3.66468E-36 1.61308E-04-1.22758E-18 1.67272E-20
 -1      1166 5.69750E-05-1.10214E-04 2.36079E-36 1.47315E-04-1.87033E-19-6.47939E-20
 -1      1167 1.02618E-04-1.22455E-04 6.31292E-36 1.32089E-04 1.93403E-19 3.98990E-20
 -1      1168 1.51410E-04-1.34407E-04-9.14482E-37 1.15561E-04-1.21822E-19-1.19951E-19
 -1      1169 2.05971E-04-1.48163E-04 4.24244E-36 9.69022E-05 1.14228E-18 2.14615E-20
 -1      1170 2.70047E-04-1.66626E-04-2.26504E-37 7.41114E-05-8.79754E-21 8.48458E-20
 -1      1171 3.49251E-04-1.93934E-04 3.29750E-36 4.31719E-05 3.26774E-19-6.21891E-20
 -1      1172-3.12427E-04 1.33714E-04 4.04733E-36 6.39263E-06 1.96213E-19 7.11056E-20
 -1      1173-3.30187E-04 1.40423E-04 1.68456E-36 1.56294E-05-1.59156E-19 1.03150E-19
 -1      1174-3.46655E-04 1.45576E-04 5.30434E-36 3.04933E-05-1.20606E-19 1.22934E-19
 -1      1175-3.59408E-04 1.47448E-04 1.03581E-36 5.11927E-05-5.00651E-19 1.45360E-20
 -1      1176-3.65628E-04 1.44153E-04 1.65198E-36 7.70618E-05 2.87928E-19-7.71130E-21
 -1      1177-3.62681E-04 1.34059E-04 3.38914E-36 1.06350E-04 2.71216E-19 9.29231E-20
 -1      1178-3.48823E-04 1.16315E-04 4.91758E-36 1.36324E-04 6.28847E-19 9.04444E-20
 -1      1179-3.23779E-04 9.12773E-05 1.20888E-36 1.63755E-04-2.84839E-19 1.15547E-19
 -1      1180-2.88884E-04 6.05984E-05 2.69858E-36 1.85673E-04 8.97262E-20 3.09562E-21
 -1      1181-2.46689E-04 2.68850E-05 3.26198E-36 2.00072E-04 6.24952E-20 6.25403E-20
 -1      1182-2.00230E-04-6.93918E-06 9.54535E-37 2.06284E-04-6.41001E-19 6.50794E-20
 -1      1183-1.52298E-04-3.83001E-05 7.10180E-37 2.04895E-04-1.11613E-19 2.52278E-21
 -1      1184-1.04933E-04-6.54312E-05 3.95082E-36 1.97355E-04 6.26169E-19 9.95475E-20
 -1      1185-5.92340E-05-8.75324E-05 2.47136E-36 1.85466E-04-6.39483E-19 5.60496E-21
 -1      1186-1.53975E-05-1.04681E-04 3.39783E-36 1.70949E-04 8.46903E-19 9.64573E-21
 -1      1187 2.71187E-05-1.17617E-04 1.68972E-36 1.55164E-04-1.29267E-18 2.48686E-20
 -1      1188 6.94303E-05-1.27525E-04 1.24254E-36 1.38975E-04 1.48961E-19-1.19263E-19
 -1      1189 1.13135E-04-1.35893E-04 3.71093E-36 1.22706E-04-1.01300E-21 3.51991E-20
 -1      1190 1.60348E-04-1.44503E-04 6.72077E-36 1.06115E-04-9.52516E-19-7.78418E-20
 -1      1191 2.13908E-04-1.55583E-04-7.44836E-37 8.82687E-05 1.88087E-18-1.94820E-20
 -1      1192 2.77845E-04-1.72195E-04 5.20902E-36 6.71958E-05-1.60501E-18 1.48457E-20
 -1      1193 3.58295E-04-1.98848E-04 7.84716E-36 3.90932E-05-1.08274E-18-8.50036E-20
 -1      1194-3.25686E-04 1.39156E-04 1.84962E-36 8.05344E-06-1.13220E-19 4.38673E-21
 -1      1195-3.52778E-04 1.49141E-04 4.63007E-37 2.08170E-05-1.10166E-19-6.67811E-21
 -1      1196-3.76900E-04 1.56084E-04 2.37524E-36 4.18566E-05-1.47601E-18 1.12005E-20
 -1      1197-3.93955E-04 1.57177E-04 4.30392E-36 7.07901E-05 2.39367E-18-4.23593E-20
 -1      1198-3.99770E-04 1.49763E-04 7.87064E-36 1.05574E-04-1.63073E-18 1.01342E-19
 -1      1199-3.91338E-04 1.32189E-04-2.14295E-37 1.42506E-04 3.97918E-19 1.03159E-19
 -1      1200-3.67895E-04 1.04583E-04 5.96427E-37 1.76925E-04-2.24066E-19 3.75645E-20
 -1      1201-3.31251E-04 6.90934E-05 1.79258E-37 2.04449E-04-2.38395E-19 4.55883E-20
 -1      1202-2.85131E-04 2.93703E-05-5.35213E-38 2.22151E-04-3.44803E-19 4.37958E-21
 -1      1203-2.33955E-04-1.04630E-05 3.85249E-36 2.29153E-04 1.21994E-18-8.65187E-21
 -1      1204-1.81676E-04-4.68566E-05 3.52525E-36 2.26435E-04 9.79779E-19 2.71221E-20
 -1      1205-1.31075E-04-7.74879E-05 2.50107E-36 2.16162E-04-3.38403E-20-8.08007E-21
 -1      1206-8.35870E-05-1.01411E-04 3.77448E-36 2.00895E-04 1.16873E-18 6.70541E-20
 -1      1207-3.94678E-05-1.18834E-04 2.23025E-37 1.82987E-04-4.69974E-19-8.04474E-21
 -1      1208 1.88473E-06-1.30736E-04-3.75609E-38 1.64249E-04 7.83880E-20 1.77030E-20
 -1      1209 4.16333E-05-1.38514E-04 1.35939E-36 1.45849E-04-2.79357E-19 5.04306E-21
 -1      1210 8.13084E-05-1.43748E-04 4.67814E-38 1.28351E-04 4.84930E-21-1.65366E-20
 -1      1211 1.22754E-04-1.48114E-04 2.42626E-36 1.11786E-04-3.07833E-19 9.49045E-20
 -1      1212 1.68227E-04-1.53453E-04 7.50782E-36 9.56960E-05-5.89946E-19-1.02750E-19
 -1      1213 2.20681E-04-1.62008E-04 2.69979E-36 7.90510E-05 3.55339E-19 1.75447E-20
 -1      1214 2.84323E-04-1.76903E-04 5.83477E-36 5.99397E-05 4.52266E-19 2.76022E-20
 -1      1215 3.65694E-04-2.02912E-04 2.58406E-36 3.48340E-05 3.26208E-20-7.19980E-20
 -1      1216-3.42519E-04 1.45882E-04 6.07677E-37 1.09666E-05-6.76115E-19-3.03907E-20
 -1      1217-3.82685E-04 1.60122E-04 1.29408E-36 2.97688E-05-8.89267E-19-1.06099E-20
 -1      1218-4.16185E-04 1.68395E-04-2.33049E-37 6.07876E-05-1.25508E-19-2.68742E-20
 -1      1219-4.36205E-04 1.66255E-04 3.06449E-36 1.01964E-04 1.28970E-18 1.10147E-20
 -1      1220-4.37203E-04 1.50437E-04 1.27778E-36 1.48318E-04-2.32239E-20-2.59260E-20
 -1      1221-4.17161E-04 1.20350E-04 1.42369E-36 1.92877E-04-2.95469E-19 6.37441E-20
 -1      1222-3.78446E-04 7.87210E-05 1.72439E-36 2.28790E-04 1.51492E-18 2.71965E-20
 -1      1223-3.26705E-04 3.08304E-05 1.30882E-36 2.51487E-04-6.99378E-19 2.38069E-20
 -1      1224-2.68635E-04-1.72617E-05 1.96377E-36 2.59704E-04 4.93666E-19-5.72873E-21
 -1      1225-2.10005E-04-6.04796E-05 9.17259E-37 2.55080E-04-1.87688E-19-2.17433E-20
 -1      1226-1.54640E-04-9.57199E-05 8.81354E-37 2.40919E-04 3.71365E-19 9.04846E-21
 -1      1227-1.04332E-04-1.21938E-04-1.18142E-36 2.20916E-04-1.00884E-19-2.12056E-20
 -1      1228-5.92662E-05-1.39662E-04 2.79983E-37 1.98288E-04-1.05282E-18 4.58246E-20
 -1      1229-1.85980E-05-1.50341E-04 3.37799E-36 1.75386E-04-6.36715E-19-9.26105E-21
 -1      1230 1.90707E-05-1.55793E-04 3.50019E-36 1.53660E-04-2.43328E-20 9.93520E-24
 -1      1231 5.53866E-05-1.57870E-04 4.01102E-36 1.33810E-04 2.59232E-18 2.22362E-20
 -1      1232 9.21253E-05-1.58321E-04 1.06950E-36 1.15961E-04-5.49768E-19-6.84702E-20
 -1      1233 1.31225E-04-1.58820E-04-2.64504E-37 9.98176E-05 1.15083E-18 6.19732E-20
 -1      1234 1.74966E-04-1.61132E-04 5.29957E-36 8.47196E-05-1.44879E-18-5.68857E-20
 -1      1235 2.26323E-04-1.67417E-04 5.74540E-36 6.95778E-05-6.51595E-19-5.08278E-20
 -1      1236 2.89603E-04-1.80792E-04-1.16637E-36 5.25833E-05-1.30691E-20 4.31707E-20
 -1      1237 3.71650E-04-2.06210E-04-4.57054E-37 3.05336E-05 5.71387E-19-2.12809E-20
 -1      1238-3.65717E-04 1.54793E-04 1.64831E-36 1.61594E-05-1.56518E-20 8.41340E-20
 -1      1239-4.24286E-04 1.74319E-04 1.82345E-37 4.54751E-05-1.64322E-19 5.29179E-20
 -1      1240-4.68099E-04 1.82092E-04 3.19983E-36 9.26343E-05-1.28735E-18 5.22587E-20
 -1      1241-4.86411E-04 1.71518E-04 2.18205E-36 1.51336E-04-8.22487E-19 4.26858E-20
 -1      1242-4.73867E-04 1.39989E-04 5.65128E-37 2.10853E-04-8.38569E-19 1.73780E-20
 -1      1243-4.33203E-04 9.06458E-05-3.89534E-37 2.59777E-04 6.16058E-19 4.63177E-20
 -1      1244-3.73370E-04 3.13907E-05 2.49497E-36 2.90341E-04-1.39524E-18 7.06211E-20
 -1      1245-3.05103E-04-2.83849E-05 4.73637E-36 3.00512E-04-7.15020E-19 2.91511E-20
 -1      1246-2.37199E-04-8.10529E-05-3.89909E-37 2.93092E-04-5.10014E-19 3.33702E-21
 -1      1247-1.75015E-04-1.22357E-04 2.85616E-36 2.73321E-04 1.30914E-18 4.78891E-21
 -1      1248-1.20685E-04-1.51282E-04 9.42571E-37 2.46676E-04-1.11976E-18 1.48874E-20
 -1      1249-7.40829E-05-1.69024E-04 5.72706E-36 2.17601E-04-3.18119E-19-7.03544E-21
 -1      1250-3.38372E-05-1.77860E-04 3.00875E-37 1.89111E-04 7.46021E-19 3.46870E-20
 -1      1251 1.92793E-06-1.80312E-04-1.63109E-37 1.62915E-04-6.52130E-19-3.18360E-21
 -1      1252 3.51729E-05-1.78704E-04 2.84824E-38 1.39744E-04 1.36464E-19-4.75429E-21
 -1      1253 6.77799E-05-1.75013E-04 5.04573E-36 1.19675E-04-1.23634E-18-1.03657E-20
 -1      1254 1.01567E-04-1.70902E-04 3.88934E-36 1.02380E-04-8.06112E-19-3.31368E-20
 -1      1255 1.38424E-04-1.67876E-04 4.41091E-36 8.72725E-05-4.06091E-19 3.12832E-20
 -1      1256 1.80561E-04-1.67518E-04-1.98363E-36 7.35516E-05-1.45550E-19-6.35228E-20
 -1      1257 2.30912E-04-1.71849E-04 3.13064E-36 6.01209E-05 1.65306E-18 2.04960E-20
 -1      1258 2.93822E-04-1.83931E-04 4.80942E-36 4.53172E-05-9.23245E-21-6.07242E-20
 -1      1259 3.76362E-04-2.08836E-04-6.55942E-37 2.63005E-05-3.65365E-20-1.23757E-19
 -1      1260-4.00282E-04 1.67288E-04 1.32071E-36 2.57891E-05-1.98107E-19 7.61527E-21
 -1      1261-4.84559E-04 1.92664E-04 1.14673E-37 7.38529E-05-1.14105E-19 1.73152E-20
 -1      1262-5.36265E-04 1.94733E-04 5.75278E-37 1.46964E-04 4.30941E-19 2.01420E-20
 -1      1263-5.40907E-04 1.65386E-04 1.65092E-36 2.28627E-04 8.33759E-19 6.58559E-21
 -1      1264-4.99936E-04 1.06894E-04 3.05771E-36 2.98565E-04 1.85421E-18 1.80154E-20
 -1      1265-4.28272E-04 3.13868E-05 3.10912E-36 3.42137E-04 1.32803E-19 4.94503E-20
 -1      1266-3.44483E-04-4.55878E-05 4.15947E-36 3.55544E-04 3.31597E-19 2.90150E-20
 -1      1267-2.62819E-04-1.11765E-04 6.00321E-38 3.43795E-04-2.07448E-19 1.47013E-20
 -1      1268-1.90955E-04-1.61098E-04 4.47724E-36 3.15636E-04 1.29601E-18-4.70071E-22
 -1      1269-1.31198E-04-1.92956E-04 5.62075E-37 2.79481E-04 7.71175E-19-2.18860E-22
 -1      1270-8.26185E-05-2.09884E-04 9.23847E-37 2.41561E-04-6.90142E-19 6.28943E-21
 -1      1271-4.28492E-05-2.15593E-04-1.43515E-36 2.05686E-04 7.06027E-19-6.47698E-21
 -1      1272-9.18947E-06-2.13719E-04 2.97091E-36 1.73739E-04-9.49182E-19 1.57606E-20
 -1      1273 2.08636E-05-2.07298E-04 5.57993E-36 1.46324E-04-5.88743E-19-5.89956E-21
 -1      1274 4.94591E-05-1.98661E-04-2.37079E-37 1.23301E-04-6.21331E-19 4.83569E-22
 -1      1275 7.84383E-05-1.89559E-04 1.53434E-36 1.04148E-04 9.32722E-19 1.28288E-20
 -1      1276 1.09485E-04-1.81358E-04 1.38085E-36 8.81641E-05 5.18309E-19-3.19977E-20
 -1      1277 1.44335E-04-1.75280E-04-3.88774E-37 7.45679E-05 5.66908E-19 2.62957E-20
 -1      1278 1.85073E-04-1.72670E-04-3.46903E-37 6.24924E-05-3.33915E-19-3.97884E-20
 -1      1279 2.34553E-04-1.75383E-04 5.23669E-36 5.08914E-05-1.70806E-18-4.51872E-20
 -1      1280 2.97125E-04-1.86405E-04 1.88420E-36 3.82837E-05-4.78720E-19 6.10660E-20
 -1      1281 3.80021E-04-2.10884E-04 1.78550E-36 2.22142E-05-1.29419E-19-4.90559E-20
 -1      1282-4.56008E-04 1.85685E-04 1.55443E-36 4.46694E-05-5.08257E-19 2.51621E-20
 -1      1283-5.74530E-04 2.14974E-04 3.98984E-37 1.27456E-04 2.00180E-19 6.63360E-21
 -1      1284-6.20645E-04 1.98253E-04 1.01638E-36 2.40505E-04 4.13591E-20 1.80421E-20
 -1      1285-5.86151E-04 1.31045E-04 1.99783E-36 3.45888E-04 1.11208E-18 1.44296E-20
 -1      1286-4.96772E-04 3.17035E-05 3.60898E-36 4.12342E-04-7.52417E-19-6.84713E-21
 -1      1287-3.88253E-04-7.19585E-05 1.29117E-37 4.31312E-04 6.20226E-19 3.96382E-20
 -1      1288-2.85585E-04-1.58281E-04 1.29938E-36 4.12324E-04-2.06733E-19 1.24406E-20
 -1      1289-1.99984E-04-2.18291E-04 3.14037E-38 3.70985E-04 1.03265E-18 7.47680E-21
 -1      1290-1.33265E-04-2.52735E-04 3.12475E-36 3.20788E-04-1.79162E-18-2.94307E-21
 -1      1291-8.26544E-05-2.66927E-04 1.78351E-36 2.70564E-04-1.47678E-18-2.99805E-21
 -1      1292-4.39613E-05-2.67085E-04 1.83051E-36 2.24960E-04 1.31471E-18 1.99010E-21
 -1      1293-1.31540E-05-2.58565E-04 1.93156E-36 1.85784E-04 4.50166E-19-7.88206E-21
 -1      1294 1.30857E-05-2.45381E-04 2.92636E-36 1.53223E-04 1.14517E-18 2.22522E-20
 -1      1295 3.73159E-05-2.30317E-04-3.55899E-37 1.26672E-04-2.58634E-19-4.52969E-21
 -1      1296 6.14949E-05-2.15233E-04 7.36572E-37 1.05223E-04 5.30996E-19 5.85864E-21
 -1      1297 8.72018E-05-2.01388E-04 4.96450E-36 8.79094E-05 7.51981E-19 8.75829E-21
 -1      1298 1.15868E-04-1.89725E-04 2.33785E-37 7.38053E-05-6.26497E-19-2.62873E-20
 -1      1299 1.49026E-04-1.81129E-04-3.54081E-37 6.20437E-05 7.87330E-19 2.44186E-20
 -1      1300 1.88604E-04-1.76699E-04 6.67793E-36 5.17718E-05-1.18373E-18-3.20553E-20
 -1      1301 2.37367E-04-1.78123E-04 2.79916E-36 4.20420E-05 8.81652E-19 3.57286E-20
 -1      1302 2.99651E-04-1.88305E-04 5.67110E-36 3.15817E-05 1.03725E-18-1.23197E-20
 -1      1303 3.82801E-04-2.12444E-04-8.79883E-37 1.83291E-05 7.99037E-20 2.26355E-20
 -1      1304-5.54798E-04 2.12869E-04-5.32750E-37 8.58643E-05-6.78440E-19 2.28662E-21
 -1      1305-7.07741E-04 2.35953E-04 3.93249E-36 2.33118E-04-5.96139E-21 8.03629E-21
 -1      1306-7.05299E-04 1.68988E-04 1.57276E-36 4.00254E-04 6.64594E-19 4.01026E-21
 -1      1307-5.88661E-04 3.46307E-05-1.45391E-37 5.10185E-04-7.52792E-19 3.50319E-21
 -1      1308-4.37999E-04-1.13456E-04 3.23700E-36 5.39233E-04-9.06173E-19 8.97004E-21
 -1      1309-3.02060E-04-2.31492E-04 1.89029E-37 5.06904E-04-4.78441E-19 2.66499E-20
 -1      1310-1.97084E-04-3.05462E-04 2.96556E-36 4.43570E-04 2.14871E-19 1.29713E-20
 -1      1311-1.22190E-04-3.40436E-04 2.04832E-36 3.71896E-04-6.78546E-19 7.72896E-21
 -1      1312-7.04817E-05-3.47647E-04 1.31319E-36 3.04318E-04 5.99275E-19 2.13289E-21
 -1      1313-3.45032E-05-3.37731E-04 6.79590E-37 2.45975E-04 1.71348E-18 5.42289E-21
 -1      1314-8.16971E-06-3.18609E-04 3.39591E-36 1.97950E-04-1.97186E-18-3.88232E-21
 -1      1315 1.29454E-05-2.95512E-04-5.26079E-37 1.59450E-04 1.94936E-19-1.01352E-21
 -1      1316 3.19012E-05-2.71652E-04 4.60659E-37 1.29023E-04 3.08848E-19 5.14025E-21
 -1      1317 5.07948E-05-2.48904E-04 3.35586E-36 1.05126E-04 1.11281E-18-7.47014E-22
 -1      1318 7.11246E-05-2.28337E-04 6.22627E-37 8.63656E-05 6.86679E-19 2.54355E-21
 -1      1319 9.40842E-05-2.10593E-04 1.48841E-36 7.15538E-05 8.28041E-21-4.11451E-21
 -1      1320 1.20808E-04-1.96155E-04 1.62555E-36 5.96994E-05 2.53651E-19-1.35330E-20
 -1      1321 1.52611E-04-1.85581E-04 5.18848E-36 4.99569E-05 3.01563E-19 1.18424E-20
 -1      1322 1.91275E-04-1.79742E-04 3.05550E-36 4.15528E-05 1.00770E-18-2.05877E-20
 -1      1323 2.39476E-04-1.80178E-04-3.55269E-36 3.36750E-05 8.59986E-20-1.12027E-20
 -1      1324 3.01528E-04-1.89721E-04 1.11086E-35 2.52740E-05-1.79886E-19-2.40040E-21
 -1      1325 3.84858E-04-2.13601E-04 4.33766E-36 1.46788E-05-8.89513E-19-1.80306E-20
 -1      1326-7.47037E-04 2.52964E-04 9.18266E-37 1.83580E-04 6.81192E-19 4.82128E-20
 -1      1327-8.81706E-04 2.26190E-04-2.47750E-37 4.52481E-04-4.98950E-19 8.50903E-20
 -1      1328-7.22891E-04 4.60579E-05 4.08058E-37 6.51965E-04 8.53728E-20 1.41347E-20
 -1      1329-4.93483E-04-1.83408E-04 8.61284E-37 7.00656E-04 7.23507E-19 3.30147E-20
 -1      1330-3.02922E-04-3.54760E-04 4.84913E-37 6.40774E-04-2.31203E-19 1.40044E-20
 -1      1331-1.71718E-04-4.45146E-04 4.72239E-37 5.38224E-04-3.02237E-19 1.52588E-20
 -1      1332-8.93809E-05-4.73514E-04 1.31381E-36 4.32685E-04 8.75034E-19 8.07170E-22
 -1      1333-3.99652E-05-4.64262E-04 4.23774E-36 3.40606E-04-1.80063E-18-2.31165E-21
 -1      1334-1.03727E-05-4.35715E-04 6.05156E-36 2.66015E-04 1.24860E-19 5.83862E-21
 -1      1335 8.40115E-06-3.99253E-04-1.02003E-36 2.07723E-04-8.32359E-19-5.37963E-21
 -1      1336 2.20723E-05-3.61248E-04 7.62781E-36 1.62937E-04 2.11359E-18 6.81699E-21
 -1      1337 3.41390E-05-3.24997E-04-1.02049E-36 1.28761E-04 9.30852E-20-4.11068E-21
 -1      1338 4.67282E-05-2.92053E-04 9.64682E-36 1.02706E-04-4.93059E-19 1.09499E-21
 -1      1339 6.11760E-05-2.63044E-04 1.17592E-36 8.27854E-05-1.40112E-18-2.14442E-21
 -1      1340 7.84116E-05-2.38153E-04 3.96713E-36 6.74616E-05-7.54109E-19-3.65113E-21
 -1      1341 9.92212E-05-2.17406E-04 1.82605E-36 5.55529E-05-3.21141E-19-5.50102E-21
 -1      1342 1.24455E-04-2.00871E-04-1.15680E-36 4.61411E-05-7.30082E-19-1.99436E-20
 -1      1343 1.55235E-04-1.88823E-04 1.24511E-36 3.84859E-05 3.15717E-19 1.33266E-21
 -1      1344 1.93214E-04-1.81946E-04 2.78051E-36 3.19404E-05 9.81950E-19-1.24935E-20
 -1      1345 2.40997E-04-1.81659E-04 6.35780E-36 2.58508E-05 3.72508E-20 6.81793E-21
 -1      1346 3.02874E-04-1.90736E-04 2.77270E-36 1.93948E-05-9.81898E-19-2.94188E-20
 -1      1347 3.86326E-04-2.14426E-04 1.09538E-36 1.12807E-05-8.53483E-20-5.80316E-20
 -1      1348-1.13987E-03 2.68546E-04 5.12499E-37 4.80598E-04 7.27969E-19 2.38411E-20
 -1      1349-9.34776E-04 7.82244E-05 1.43168E-36 8.64261E-04 6.17167E-19 1.17871E-20
 -1      1350-5.42133E-04-3.19735E-04 2.73337E-37 9.56005E-04-7.89487E-19-1.72544E-20
 -1      1351-2.62025E-04-5.86150E-04 1.49554E-36 8.32671E-04 6.60562E-19 3.76228E-21
 -1      1352-1.01192E-04-6.85388E-04 1.99045E-38 6.56283E-04-6.93385E-19-3.95470E-21
 -1      1353-1.91644E-05-6.84328E-04 4.17635E-37 4.97206E-04 2.23586E-19-4.56142E-21
 -1      1354 1.87516E-05-6.36886E-04-4.32863E-37 3.71989E-04-2.87584E-19-3.26290E-21
 -1      1355 3.43920E-05-5.73263E-04 3.00125E-36 2.78439E-04 1.93737E-18-2.10254E-21
 -1      1356 4.01143E-05-5.07979E-04 1.33655E-36 2.09838E-04-4.52943E-19 1.97738E-21
 -1      1357 4.25683E-05-4.47262E-04 8.60079E-38 1.59718E-04-2.76798E-19 5.75024E-22
 -1      1358 4.52351E-05-3.93336E-04 2.50248E-36 1.22979E-04 3.92553E-19-5.90639E-22
 -1      1359 4.99094E-05-3.46604E-04 3.01868E-36 9.58704E-05 1.58727E-18-1.86695E-21
 -1      1360 5.75249E-05-3.06714E-04-1.33936E-36 7.57049E-05 4.99748E-19 5.17976E-21
 -1      1361 6.86125E-05-2.73058E-04-9.09174E-37 6.05663E-05 6.76581E-19-3.50112E-21
 -1      1362 8.35665E-05-2.45027E-04-1.90657E-37 4.90809E-05-7.62050E-19 5.66722E-22
 -1      1363 1.02820E-04-2.22138E-04 8.32847E-37 4.02504E-05 5.26827E-20 4.47818E-21
 -1      1364 1.26991E-04-2.04126E-04 2.68244E-36 3.33308E-05-1.26049E-19-1.05519E-20
 -1      1365 1.57047E-04-1.91050E-04 4.54441E-36 2.77423E-05 1.61242E-19 8.35724E-21
 -1      1366 1.94547E-04-1.83454E-04-2.67663E-37 2.29928E-05-1.29455E-18-1.75539E-20
 -1      1367 2.42037E-04-1.82669E-04 2.28778E-36 1.85973E-05 6.80253E-19 4.06020E-21
 -1      1368 3.03791E-04-1.91426E-04-1.93062E-36 1.39567E-05-2.65413E-19 1.40554E-20
 -1      1369 3.87321E-04-2.14986E-04 3.55387E-36 8.13998E-06 6.36959E-19 3.33896E-23
 -1      1370-1.24990E-03 1.11977E-04 2.16002E-36 1.13988E-03 1.04810E-18-1.31048E-20
 -1      1371-5.12794E-04-6.78420E-04 5.53330E-37 1.35078E-03 2.01183E-19-9.35060E-21
 -1      1372-1.07273E-04-1.09774E-03 1.46798E-36 1.08554E-03-5.70290E-19 8.55455E-21
 -1      1373 6.15805E-05-1.13680E-03 1.23628E-36 7.73968E-04 3.23914E-19 1.69688E-21
 -1      1374 1.15017E-04-1.03347E-03 1.00395E-36 5.39027E-04 2.20265E-19 8.31225E-21
 -1      1375 1.19846E-04-8.97437E-04 4.36189E-37 3.77176E-04-3.30855E-19-1.42378E-20
 -1      1376 1.07268E-04-7.67405E-04 2.17671E-36 2.67857E-04 1.14484E-18 7.59056E-22
 -1      1377 9.09518E-05-6.54230E-04 1.43134E-36 1.93593E-04-1.50113E-18-1.34247E-21
 -1      1378 7.65908E-05-5.59057E-04 8.75375E-38 1.42427E-04 2.14094E-19 1.44655E-21
 -1      1379 6.63634E-05-4.80041E-04 2.27411E-36 1.06595E-04 5.33895E-19 4.76897E-21
 -1      1380 6.09423E-05-4.14712E-04 1.67158E-36 8.10936E-05-1.99530E-20 7.50559E-22
 -1      1381 6.03962E-05-3.60746E-04 2.12070E-36 6.26705E-05-1.52082E-18 3.21103E-22
 -1      1382 6.46004E-05-3.16184E-04 4.53712E-36 4.91752E-05 1.31506E-18 2.17045E-21
 -1      1383 7.34326E-05-2.79464E-04 5.93334E-36 3.91591E-05-1.21387E-18-1.22879E-21
 -1      1384 8.68798E-05-2.49393E-04-5.83417E-39 3.16257E-05 1.18455E-18 6.58985E-21
 -1      1385 1.05118E-04-2.25127E-04 3.97644E-36 2.58725E-05-4.07068E-19 1.64057E-21
 -1      1386 1.28601E-04-2.06173E-04 3.18106E-36 2.13886E-05 2.81197E-19-3.09150E-21
 -1      1387 1.58194E-04-1.92446E-04 1.24774E-36 1.77836E-05-1.04856E-18 7.72808E-21
 -1      1388 1.95387E-04-1.84396E-04 3.24607E-36 1.47322E-05-2.95503E-19 2.37539E-21
 -1      1389 2.42690E-04-1.83299E-04 6.60979E-37 1.19186E-05 8.55520E-19 4.80619E-21
 -1      1390 3.04365E-04-1.91854E-04 8.19818E-36 8.95663E-06-1.15644E-18 1.08618E-20
 -1      1391 3.87941E-04-2.15334E-04-9.23597E-37 5.25323E-06 6.02444E-19-1.62506E-21
 -1      1392-2.83888E-04-2.47141E-03 6.53307E-37 1.30055E-03-2.76223E-19 1.34862E-20
 -1      1393 3.00728E-04-2.47369E-03 1.12998E-36 1.19140E-03-3.55940E-19-6.70902E-21
 -1      1394 3.86312E-04-2.04688E-03 8.80652E-37 7.45880E-04-6.26111E-20 1.79826E-21
 -1      1395 3.43428E-04-1.61948E-03 2.75840E-37 4.65771E-04-2.06576E-19-1.82974E-21
 -1      1396 2.75596E-04-1.28657E-03 1.06916E-36 2.99874E-04 1.50301E-19 1.15798E-21
 -1      1397 2.13084E-04-1.03606E-03 1.63618E-36 2.00097E-04 7.31109E-19-5.16599E-21
 -1      1398 1.62761E-04-8.46636E-04 2.10208E-36 1.37898E-04-6.43523E-20-3.54416E-21
 -1      1399 1.24820E-04-7.01232E-04-2.35708E-37 9.77299E-05-2.01674E-19-3.83192E-21
 -1      1400 9.77475E-05-5.87834E-04 4.16224E-37 7.09592E-05-5.11149E-21-2.03671E-22
 -1      1401 7.98566E-05-4.98133E-04-1.01248E-36 5.26290E-05 3.95683E-19-5.46118E-22
 -1      1402 6.97055E-05-4.26340E-04 9.56103E-37 3.97871E-05-6.98268E-19-6.57056E-22
 -1      1403 6.61776E-05-3.68358E-04 5.35482E-37 3.06129E-05 1.40886E-18-7.40227E-22
 -1      1404 6.84668E-05-3.21243E-04 3.04623E-36 2.39473E-05-1.41611E-18-1.84056E-22
 -1      1405 7.60491E-05-2.82867E-04 3.90383E-37 1.90301E-05-7.16859E-20-3.64841E-22
 -1      1406 8.86693E-05-2.51703E-04 2.81277E-36 1.53488E-05-9.32535E-19-7.27920E-22
 -1      1407 1.06354E-04-2.26703E-04 2.35296E-36 1.25477E-05 1.69987E-18 1.73042E-21
 -1      1408 1.29465E-04-2.07250E-04-2.44910E-37 1.03715E-05 2.72876E-21-3.77021E-21
 -1      1409 1.58807E-04-1.93179E-04 2.08965E-36 8.62685E-06-1.96331E-19 1.40970E-21
 -1      1410 1.95835E-04-1.84891E-04 1.53852E-36 7.15453E-06 7.08725E-19-4.28014E-21
 -1      1411 2.43038E-04-1.83629E-04 3.05202E-36 5.80140E-06-9.18009E-19-2.73148E-21
 -1      1412 3.04670E-04-1.92078E-04 2.68339E-36 4.38110E-06 8.79109E-19 2.98397E-21
 -1      1413 3.88266E-04-2.15515E-04 5.99853E-36 2.61084E-06-5.53376E-19-1.55520E-20
 -3
    1PSTEP                         4           1           1          
  100CL  101 1.000000000        1412                     0    1           1
 -4  CONTACT     6    1
 -5  COPEN       1    4    1    1
 -5  CSLIP1      1    4    2    2
 -5  CSLIP2      1    4    3    3
 -5  CPRESS      1    4    1    2
 -5  CSHEAR1     1    4    2    3
 -5  CSHEAR2     1    4    3    1
 -1         1 0.00000E+00 0.00000E+00 0.00000E+00 0.00000E+00 0.00000E+00 0.00000E+00
 -1         2 0.00000E+00 0.00000E+00 0.00000E+00 0.00000E+00 0.00000E+00 0.00000E+00
 -1         3 0.00000E+00 0.00000E+00 0.00000E+00 0.00000E+00 0.00000E+00 0.00000E+00
 -1         4 0.00000E+00 0.00000E+00 0.00000E+00 0.00000E+00 0.00000E+00 0.00000E+00
 -1         5-1.12661E-04 0.00000E+00 0.00000E+00 1.12661E+03 0.00000E+00 0.00000E+00
 -1         6 0.00000E+00 0.00000E+00 0.00000E+00 0.00000E+00 0.00000E+00 0.00000E+00
 -1         7 0.00000E+00 0.00000E+00 0.00000E+00 0.00000E+00 0.00000E+00 0.00000E+00
 -1         9 0.00000E+00 0.00000E+00 0.00000E+00 0.00000E+00 0.00000E+00 0.00000E+00
 -1        10 0.00000E+00 0.00000E+00 0.00000E+00 0.00000E+00 0.00000E+00 0.00000E+00
 -1        11 0.00000E+00 0.00000E+00 0.00000E+00 0.00000E+00 0.00000E+00 0.00000E+00
 -1        12 0.00000E+00 0.00000E+00 0.00000E+00 0.00000E+00 0.00000E+00 0.00000E+00
 -1        13 0.00000E+00 0.00000E+00 0.00000E+00 0.00000E+00 0.00000E+00 0.00000E+00
 -1        14 0.00000E+00 0.00000E+00 0.00000E+00 0.00000E+00 0.00000E+00 0.00000E+00
 -1        15 0.00000E+00 0.00000E+00 0.00000E+00 0.00000E+00 0.00000E+00 0.00000E+00
 -1        16 0.00000E+00 0.00000E+00 0.00000E+00 0.00000E+00 0.00000E+00 0.00000E+00
 -1        17 0.00000E+00 0.00000E+00 0.00000E+00 0.00000E+00 0.00000E+00 0.00000E+00
 -1        18 0.00000E+00 0.00000E+00 0.00000E+00 0.00000E+00 0.00000E+00 0.00000E+00
 -1        19 0.00000E+00 0.00000E+00 0.00000E+00 0.00000E+00 0.00000E+00 0.00000E+00
 -1        20 0.00000E+00 0.00000E+00 0.00000E+00 0.00000E+00 0.00000E+00 0.00000E+00
 -1        21 0.00000E+00 0.00000E+00 0.00000E+00 0.00000E+00 0.00000E+00 0.00000E+00
 -1        22 0.00000E+00 0.00000E+00 0.00000E+00 0.00000E+00 0.00000E+00 0.00000E+00
 -1        23 0.00000E+00 0.00000E+00 0.00000E+00 0.00000E+00 0.00000E+00 0.00000E+00
 -1        24 0.00000E+00 0.00000E+00 0.00000E+00 0.00000E+00 0.00000E+00 0.00000E+00
 -1        25 0.00000E+00 0.00000E+00 0.00000E+00 0.00000E+00 0.00000E+00 0.00000E+00
 -1        26 0.00000E+00 0.00000E+00 0.00000E+00 0.00000E+00 0.00000E+00 0.00000E+00
 -1        27 0.00000E+00 0.00000E+00 0.00000E+00 0.00000E+00 0.00000E+00 0.00000E+00
 -1        28 0.00000E+00 0.00000E+00 0.00000E+00 0.00000E+00 0.00000E+00 0.00000E+00
 -1        29 0.00000E+00 0.00000E+00 0.00000E+00 0.00000E+00 0.00000E+00 0.00000E+00
 -1        30 0.00000E+00 0.00000E+00 0.00000E+00 0.00000E+00 0.00000E+00 0.00000E+00
 -1        31 0.00000E+00 0.00000E+00 0.00000E+00 0.00000E+00 0.00000E+00 0.00000E+00
 -1        32 0.00000E+00 0.00000E+00 0.00000E+00 0.00000E+00 0.00000E+00 0.00000E+00
 -1        33 0.00000E+00 0.00000E+00 0.00000E+00 0.00000E+00 0.00000E+00 0.00000E+00
 -1        34 0.00000E+00 0.00000E+00 0.00000E+00 0.00000E+00 0.00000E+00 0.00000E+00
 -1        35 0.00000E+00 0.00000E+00 0.00000E+00 0.00000E+00 0.00000E+00 0.00000E+00
 -1        36 0.00000E+00 0.00000E+00 0.00000E+00 0.00000E+00 0.00000E+00 0.00000E+00
 -1        37 0.00000E+00 0.00000E+00 0.00000E+00 0.00000E+00 0.00000E+00 0.00000E+00
 -1        38 0.00000E+00 0.00000E+00 0.00000E+00 0.00000E+00 0.00000E+00 0.00000E+00
 -1        39 0.00000E+00 0.00000E+00 0.00000E+00 0.00000E+00 0.00000E+00 0.00000E+00
 -1        40 0.00000E+00 0.00000E+00 0.00000E+00 0.00000E+00 0.00000E+00 0.00000E+00
 -1        41 0.00000E+00 0.00000E+00 0.00000E+00 0.00000E+00 0.00000E+00 0.00000E+00
 -1        42 0.00000E+00 0.00000E+00 0.00000E+00 0.00000E+00 0.00000E+00 0.00000E+00
 -1        43 0.00000E+00 0.00000E+00 0.00000E+00 0.00000E+00 0.00000E+00 0.00000E+00
 -1        44 0.00000E+00 0.00000E+00 0.00000E+00 0.00000E+00 0.00000E+00 0.00000E+00
 -1        45 0.00000E+00 0.00000E+00 0.00000E+00 0.00000E+00 0.00000E+00 0.00000E+00
 -1        46 0.00000E+00 0.00000E+00 0.00000E+00 0.00000E+00 0.00000E+00 0.00000E+00
 -1        47 0.00000E+00 0.00000E+00 0.00000E+00 0.00000E+00 0.00000E+00 0.00000E+00
 -1        48 0.00000E+00 0.00000E+00 0.00000E+00 0.00000E+00 0.00000E+00 0.00000E+00
 -1        49 0.00000E+00 0.00000E+00 0.00000E+00 0.00000E+00 0.00000E+00 0.00000E+00
 -1        50 0.00000E+00 0.00000E+00 0.00000E+00 0.00000E+00 0.00000E+00 0.00000E+00
 -1        51 0.00000E+00 0.00000E+00 0.00000E+00 0.00000E+00 0.00000E+00 0.00000E+00
 -1        52 0.00000E+00 0.00000E+00 0.00000E+00 0.00000E+00 0.00000E+00 0.00000E+00
 -1        53 0.00000E+00 0.00000E+00 0.00000E+00 0.00000E+00 0.00000E+00 0.00000E+00
 -1        54 0.00000E+00 0.00000E+00 0.00000E+00 0.00000E+00 0.00000E+00 0.00000E+00
 -1        55 0.00000E+00 0.00000E+00 0.00000E+00 0.00000E+00 0.00000E+00 0.00000E+00
 -1        56 0.00000E+00 0.00000E+00 0.00000E+00 0.00000E+00 0.00000E+00 0.00000E+00
 -1        57 0.00000E+00 0.00000E+00 0.00000E+00 0.00000E+00 0.00000E+00 0.00000E+00
 -1        58 0.00000E+00 0.00000E+00 0.00000E+00 0.00000E+00 0.00000E+00 0.00000E+00
 -1        59 0.00000E+00 0.00000E+00 0.00000E+00 0.00000E+00 0.00000E+00 0.00000E+00
 -1        60 0.00000E+00 0.00000E+00 0.00000E+00 0.00000E+00 0.00000E+00 0.00000E+00
 -1        61 0.00000E+00 0.00000E+00 0.00000E+00 0.00000E+00 0.00000E+00 0.00000E+00
 -1        62 0.00000E+00 0.00000E+00 0.00000E+00 0.00000E+00 0.00000E+00 0.00000E+00
 -1        63 0.00000E+00 0.00000E+00 0.00000E+00 0.00000E+00 0.00000E+00 0.00000E+00
 -1        64 0.00000E+00 0.00000E+00 0.00000E+00 0.00000E+00 0.00000E+00 0.00000E+00
 -1        65 0.00000E+00 0.00000E+00 0.00000E+00 0.00000E+00 0.00000E+00 0.00000E+00
 -1        66 0.00000E+00 0.00000E+00 0.00000E+00 0.00000E+00 0.00000E+00 0.00000E+00
 -1        67 0.00000E+00 0.00000E+00 0.00000E+00 0.00000E+00 0.00000E+00 0.00000E+00
 -1        68 0.00000E+00 0.00000E+00 0.00000E+00 0.00000E+00 0.00000E+00 0.00000E+00
 -1        69 0.00000E+00 0.00000E+00 0.00000E+00 0.00000E+00 0.00000E+00 0.00000E+00
 -1        70 0.00000E+00 0.00000E+00 0.00000E+00 0.00000E+00 0.00000E+00 0.00000E+00
 -1        71 0.00000E+00 0.00000E+00 0.00000E+00 0.00000E+00 0.00000E+00 0.00000E+00
 -1        72 0.00000E+00 0.00000E+00 0.00000E+00 0.00000E+00 0.00000E+00 0.00000E+00
 -1        73 0.00000E+00 0.00000E+00 0.00000E+00 0.00000E+00 0.00000E+00 0.00000E+00
 -1        74 0.00000E+00 0.00000E+00 0.00000E+00 0.00000E+00 0.00000E+00 0.00000E+00
 -1        75 0.00000E+00 0.00000E+00 0.00000E+00 0.00000E+00 0.00000E+00 0.00000E+00
 -1        76 0.00000E+00 0.00000E+00 0.00000E+00 0.00000E+00 0.00000E+00 0.00000E+00
 -1        77 0.00000E+00 0.00000E+00 0.00000E+00 0.00000E+00 0.00000E+00 0.00000E+00
 -1        78 0.00000E+00 0.00000E+00 0.00000E+00 0.00000E+00 0.00000E+00 0.00000E+00
 -1        79 0.00000E+00 0.00000E+00 0.00000E+00 0.00000E+00 0.00000E+00 0.00000E+00
 -1        80 0.00000E+00 0.00000E+00 0.00000E+00 0.00000E+00 0.00000E+00 0.00000E+00
 -1        81 0.00000E+00 0.00000E+00 0.00000E+00 0.00000E+00 0.00000E+00 0.00000E+00
 -1        82 0.00000E+00 0.00000E+00 0.00000E+00 0.00000E+00 0.00000E+00 0.00000E+00
 -1        83 0.00000E+00 0.00000E+00 0.00000E+00 0.00000E+00 0.00000E+00 0.00000E+00
 -1        84 0.00000E+00 0.00000E+00 0.00000E+00 0.00000E+00 0.00000E+00 0.00000E+00
 -1        85 0.00000E+00 0.00000E+00 0.00000E+00 0.00000E+00 0.00000E+00 0.00000E+00
 -1        86 0.00000E+00 0.00000E+00 0.00000E+00 0.00000E+00 0.00000E+00 0.00000E+00
 -1        87 0.00000E+00 0.00000E+00 0.00000E+00 0.00000E+00 0.00000E+00 0.00000E+00
 -1        88 0.00000E+00 0.00000E+00 0.00000E+00 0.00000E+00 0.00000E+00 0.00000E+00
 -1        89 0.00000E+00 0.00000E+00 0.00000E+00 0.00000E+00 0.00000E+00 0.00000E+00
 -1        90 0.00000E+00 0.00000E+00 0.00000E+00 0.00000E+00 0.00000E+00 0.00000E+00
 -1        91 0.00000E+00 0.00000E+00 0.00000E+00 0.00000E+00 0.00000E+00 0.00000E+00
 -1        92 0.00000E+00 0.00000E+00 0.00000E+00 0.00000E+00 0.00000E+00 0.00000E+00
 -1        93 0.00000E+00 0.00000E+00 0.00000E+00 0.00000E+00 0.00000E+00 0.00000E+00
 -1        94 0.00000E+00 0.00000E+00 0.00000E+00 0.00000E+00 0.00000E+00 0.00000E+00
 -1        95 0.00000E+00 0.00000E+00 0.00000E+00 0.00000E+00 0.00000E+00 0.00000E+00
 -1        96 0.00000E+00 0.00000E+00 0.00000E+00 0.00000E+00 0.00000E+00 0.00000E+00
 -1        97 0.00000E+00 0.00000E+00 0.00000E+00 0.00000E+00 0.00000E+00 0.00000E+00
 -1        98 0.00000E+00 0.00000E+00 0.00000E+00 0.00000E+00 0.00000E+00 0.00000E+00
 -1        99 0.00000E+00 0.00000E+00 0.00000E+00 0.00000E+00 0.00000E+00 0.00000E+00
 -1       100 0.00000E+00 0.00000E+00 0.00000E+00 0.00000E+00 0.00000E+00 0.00000E+00
 -1       101 0.00000E+00 0.00000E+00 0.00000E+00 0.00000E+00 0.00000E+00 0.00000E+00
 -1       102 0.00000E+00 0.00000E+00 0.00000E+00 0.00000E+00 0.00000E+00 0.00000E+00
 -1       103 0.00000E+00 0.00000E+00 0.00000E+00 0.00000E+00 0.00000E+00 0.00000E+00
 -1       104 0.00000E+00 0.00000E+00 0.00000E+00 0.00000E+00 0.00000E+00 0.00000E+00
 -1       105 0.00000E+00 0.00000E+00 0.00000E+00 0.00000E+00 0.00000E+00 0.00000E+00
 -1       106 0.00000E+00 0.00000E+00 0.00000E+00 0.00000E+00 0.00000E+00 0.00000E+00
 -1       107 0.00000E+00 0.00000E+00 0.00000E+00 0.00000E+00 0.00000E+00 0.00000E+00
 -1       108 0.00000E+00 0.00000E+00 0.00000E+00 0.00000E+00 0.00000E+00 0.00000E+00
 -1       109 0.00000E+00 0.00000E+00 0.00000E+00 0.00000E+00 0.00000E+00 0.00000E+00
 -1       110 0.00000E+00 0.00000E+00 0.00000E+00 0.00000E+00 0.00000E+00 0.00000E+00
 -1       111-2.08624E-04 0.00000E+00 0.00000E+00 2.08624E+03 0.00000E+00 0.00000E+00
 -1       112-4.25648E-05 0.00000E+00 0.00000E+00 4.25648E+02 0.00000E+00 0.00000E+00
 -1       113 0.00000E+00 0.00000E+00 0.00000E+00 0.00000E+00 0.00000E+00 0.00000E+00
 -1       114 0.00000E+00 0.00000E+00 0.00000E+00 0.00000E+00 0.00000E+00 0.00000E+00
 -1       115 0.00000E+00 0.00000E+00 0.00000E+00 0.00000E+00 0.00000E+00 0.00000E+00
 -1       116 0.00000E+00 0.00000E+00 0.00000E+00 0.00000E+00 0.00000E+00 0.00000E+00
 -1       117 0.00000E+00 0.00000E+00 0.00000E+00 0.00000E+00 0.00000E+00 0.00000E+00
 -1       118 0.00000E+00 0.00000E+00 0.00000E+00 0.00000E+00 0.00000E+00 0.00000E+00
 -1       119 0.00000E+00 0.00000E+00 0.00000E+00 0.00000E+00 0.00000E+00 0.00000E+00
 -1       120 0.00000E+00 0.00000E+00 0.00000E+00 0.00000E+00 0.00000E+00 0.00000E+00
 -1       121 0.00000E+00 0.00000E+00 0.00000E+00 0.00000E+00 0.00000E+00 0.00000E+00
 -1       122 0.00000E+00 0.00000E+00 0.00000E+00 0.00000E+00 0.00000E+00 0.00000E+00
 -1       123 0.00000E+00 0.00000E+00 0.00000E+00 0.00000E+00 0.00000E+00 0.00000E+00
 -1       124 0.00000E+00 0.00000E+00 0.00000E+00 0.00000E+00 0.00000E+00 0.00000E+00
 -1       125 0.00000E+00 0.00000E+00 0.00000E+00 0.00000E+00 0.00000E+00 0.00000E+00
 -1       126 0.00000E+00 0.00000E+00 0.00000E+00 0.00000E+00 0.00000E+00 0.00000E+00
 -1       127 0.00000E+00 0.00000E+00 0.00000E+00 0.00000E+00 0.00000E+00 0.00000E+00
 -1       128 0.00000E+00 0.00000E+00 0.00000E+00 0.00000E+00 0.00000E+00 0.00000E+00
 -1       129 0.00000E+00 0.00000E+00 0.00000E+00 0.00000E+00 0.00000E+00 0.00000E+00
 -1       130 0.00000E+00 0.00000E+00 0.00000E+00 0.00000E+00 0.00000E+00 0.00000E+00
 -1       131 0.00000E+00 0.00000E+00 0.00000E+00 0.00000E+00 0.00000E+00 0.00000E+00
 -1       132 0.00000E+00 0.00000E+00 0.00000E+00 0.00000E+00 0.00000E+00 0.00000E+00
 -1       133 0.00000E+00 0.00000E+00 0.00000E+00 0.00000E+00 0.00000E+00 0.00000E+00
 -1       134 0.00000E+00 0.00000E+00 0.00000E+00 0.00000E+00 0.00000E+00 0.00000E+00
 -1       135 0.00000E+00 0.00000E+00 0.00000E+00 0.00000E+00 0.00000E+00 0.00000E+00
 -1       136 0.00000E+00 0.00000E+00 0.00000E+00 0.00000E+00 0.00000E+00 0.00000E+00
 -1       137 0.00000E+00 0.00000E+00 0.00000E+00 0.00000E+00 0.00000E+00 0.00000E+00
 -1       138 0.00000E+00 0.00000E+00 0.00000E+00 0.00000E+00 0.00000E+00 0.00000E+00
 -1       139 0.00000E+00 0.00000E+00 0.00000E+00 0.00000E+00 0.00000E+00 0.00000E+00
 -1       140 0.00000E+00 0.00000E+00 0.00000E+00 0.00000E+00 0.00000E+00 0.00000E+00
 -1       141 0.00000E+00 0.00000E+00 0.00000E+00 0.00000E+00 0.00000E+00 0.00000E+00
 -1       142 0.00000E+00 0.00000E+00 0.00000E+00 0.00000E+00 0.00000E+00 0.00000E+00
 -1       143 0.00000E+00 0.00000E+00 0.00000E+00 0.00000E+00 0.00000E+00 0.00000E+00
 -1       144 0.00000E+00 0.00000E+00 0.00000E+00 0.00000E+00 0.00000E+00 0.00000E+00
 -1       145 0.00000E+00 0.00000E+00 0.00000E+00 0.00000E+00 0.00000E+00 0.00000E+00
 -1       146 0.00000E+00 0.00000E+00 0.00000E+00 0.00000E+00 0.00000E+00 0.00000E+00
 -1       147 0.00000E+00 0.00000E+00 0.00000E+00 0.00000E+00 0.00000E+00 0.00000E+00
 -1       148 0.00000E+00 0.00000E+00 0.00000E+00 0.00000E+00 0.00000E+00 0.00000E+00
 -1       149 0.00000E+00 0.00000E+00 0.00000E+00 0.00000E+00 0.00000E+00 0.00000E+00
 -1       150 0.00000E+00 0.00000E+00 0.00000E+00 0.00000E+00 0.00000E+00 0.00000E+00
 -1       151 0.00000E+00 0.00000E+00 0.00000E+00 0.00000E+00 0.00000E+00 0.00000E+00
 -1       152 0.00000E+00 0.00000E+00 0.00000E+00 0.00000E+00 0.00000E+00 0.00000E+00
 -1       153 0.00000E+00 0.00000E+00 0.00000E+00 0.00000E+00 0.00000E+00 0.00000E+00
 -1       154 0.00000E+00 0.00000E+00 0.00000E+00 0.00000E+00 0.00000E+00 0.00000E+00
 -1       155 0.00000E+00 0.00000E+00 0.00000E+00 0.00000E+00 0.00000E+00 0.00000E+00
 -1       156 0.00000E+00 0.00000E+00 0.00000E+00 0.00000E+00 0.00000E+00 0.00000E+00
 -1       157 0.00000E+00 0.00000E+00 0.00000E+00 0.00000E+00 0.00000E+00 0.00000E+00
 -1       158 0.00000E+00 0.00000E+00 0.00000E+00 0.00000E+00 0.00000E+00 0.00000E+00
 -1       159 0.00000E+00 0.00000E+00 0.00000E+00 0.00000E+00 0.00000E+00 0.00000E+00
 -1       160 0.00000E+00 0.00000E+00 0.00000E+00 0.00000E+00 0.00000E+00 0.00000E+00
 -1       161 0.00000E+00 0.00000E+00 0.00000E+00 0.00000E+00 0.00000E+00 0.00000E+00
 -1       162 0.00000E+00 0.00000E+00 0.00000E+00 0.00000E+00 0.00000E+00 0.00000E+00
 -1       163 0.00000E+00 0.00000E+00 0.00000E+00 0.00000E+00 0.00000E+00 0.00000E+00
 -1       164 0.00000E+00 0.00000E+00 0.00000E+00 0.00000E+00 0.00000E+00 0.00000E+00
 -1       165 0.00000E+00 0.00000E+00 0.00000E+00 0.00000E+00 0.00000E+00 0.00000E+00
 -1       166 0.00000E+00 0.00000E+00 0.00000E+00 0.00000E+00 0.00000E+00 0.00000E+00
 -1       167 0.00000E+00 0.00000E+00 0.00000E+00 0.00000E+00 0.00000E+00 0.00000E+00
 -1       168 0.00000E+00 0.00000E+00 0.00000E+00 0.00000E+00 0.00000E+00 0.00000E+00
 -1       169 0.00000E+00 0.00000E+00 0.00000E+00 0.00000E+00 0.00000E+00 0.00000E+00
 -1       170 0.00000E+00 0.00000E+00 0.00000E+00 0.00000E+00 0.00000E+00 0.00000E+00
 -1       171 0.00000E+00 0.00000E+00 0.00000E+00 0.00000E+00 0.00000E+00 0.00000E+00
 -1       172 0.00000E+00 0.00000E+00 0.00000E+00 0.00000E+00 0.00000E+00 0.00000E+00
 -1       173 0.00000E+00 0.00000E+00 0.00000E+00 0.00000E+00 0.00000E+00 0.00000E+00
 -1       174 0.00000E+00 0.00000E+00 0.00000E+00 0.00000E+00 0.00000E+00 0.00000E+00
 -1       175 0.00000E+00 0.00000E+00 0.00000E+00 0.00000E+00 0.00000E+00 0.00000E+00
 -1       176 0.00000E+00 0.00000E+00 0.00000E+00 0.00000E+00 0.00000E+00 0.00000E+00
 -1       177 0.00000E+00 0.00000E+00 0.00000E+00 0.00000E+00 0.00000E+00 0.00000E+00
 -1       178 0.00000E+00 0.00000E+00 0.00000E+00 0.00000E+00 0.00000E+00 0.00000E+00
 -1       179 0.00000E+00 0.00000E+00 0.00000E+00 0.00000E+00 0.00000E+00 0.00000E+00
 -1       180 0.00000E+00 0.00000E+00 0.00000E+00 0.00000E+00 0.00000E+00 0.00000E+00
 -1       181 0.00000E+00 0.00000E+00 0.00000E+00 0.00000E+00 0.00000E+00 0.00000E+00
 -1       182 0.00000E+00 0.00000E+00 0.00000E+00 0.00000E+00 0.00000E+00 0.00000E+00
 -1       183 0.00000E+00 0.00000E+00 0.00000E+00 0.00000E+00 0.00000E+00 0.00000E+00
 -1       184 0.00000E+00 0.00000E+00 0.00000E+00 0.00000E+00 0.00000E+00 0.00000E+00
 -1       185 0.00000E+00 0.00000E+00 0.00000E+00 0.00000E+00 0.00000E+00 0.00000E+00
 -1       186 0.00000E+00 0.00000E+00 0.00000E+00 0.00000E+00 0.00000E+00 0.00000E+00
 -1       187 0.00000E+00 0.00000E+00 0.00000E+00 0.00000E+00 0.00000E+00 0.00000E+00
 -1       188 0.00000E+00 0.00000E+00 0.00000E+00 0.00000E+00 0.00000E+00 0.00000E+00
 -1       189 0.00000E+00 0.00000E+00 0.00000E+00 0.00000E+00 0.00000E+00 0.00000E+00
 -1       190 0.00000E+00 0.00000E+00 0.00000E+00 0.00000E+00 0.00000E+00 0.00000E+00
 -1       191 0.00000E+00 0.00000E+00 0.00000E+00 0.00000E+00 0.00000E+00 0.00000E+00
 -1       192 0.00000E+00 0.00000E+00 0.00000E+00 0.00000E+00 0.00000E+00 0.00000E+00
 -1       193 0.00000E+00 0.00000E+00 0.00000E+00 0.00000E+00 0.00000E+00 0.00000E+00
 -1       194 0.00000E+00 0.00000E+00 0.00000E+00 0.00000E+00 0.00000E+00 0.00000E+00
 -1       195 0.00000E+00 0.00000E+00 0.00000E+00 0.00000E+00 0.00000E+00 0.00000E+00
 -1       196 0.00000E+00 0.00000E+00 0.00000E+00 0.00000E+00 0.00000E+00 0.00000E+00
 -1       197 0.00000E+00 0.00000E+00 0.00000E+00 0.00000E+00 0.00000E+00 0.00000E+00
 -1       198 0.00000E+00 0.00000E+00 0.00000E+00 0.00000E+00 0.00000E+00 0.00000E+00
 -1       199 0.00000E+00 0.00000E+00 0.00000E+00 0.00000E+00 0.00000E+00 0.00000E+00
 -1       200 0.00000E+00 0.00000E+00 0.00000E+00 0.00000E+00 0.00000E+00 0.00000E+00
 -1       201 0.00000E+00 0.00000E+00 0.00000E+00 0.00000E+00 0.00000E+00 0.00000E+00
 -1       202 0.00000E+00 0.00000E+00 0.00000E+00 0.00000E+00 0.00000E+00 0.00000E+00
 -1       203 0.00000E+00 0.00000E+00 0.00000E+00 0.00000E+00 0.00000E+00 0.00000E+00
 -1       204 0.00000E+00 0.00000E+00 0.00000E+00 0.00000E+00 0.00000E+00 0.00000E+00
 -1       205 0.00000E+00 0.00000E+00 0.00000E+00 0.00000E+00 0.00000E+00 0.00000E+00
 -1       206 0.00000E+00 0.00000E+00 0.00000E+00 0.00000E+00 0.00000E+00 0.00000E+00
 -1       207 0.00000E+00 0.00000E+00 0.00000E+00 0.00000E+00 0.00000E+00 0.00000E+00
 -1       208 0.00000E+00 0.00000E+00 0.00000E+00 0.00000E+00 0.00000E+00 0.00000E+00
 -1       209 0.00000E+00 0.00000E+00 0.00000E+00 0.00000E+00 0.00000E+00 0.00000E+00
 -1       210 0.00000E+00 0.00000E+00 0.00000E+00 0.00000E+00 0.00000E+00 0.00000E+00
 -1       211 0.00000E+00 0.00000E+00 0.00000E+00 0.00000E+00 0.00000E+00 0.00000E+00
 -1       212 0.00000E+00 0.00000E+00 0.00000E+00 0.00000E+00 0.00000E+00 0.00000E+00
 -1       213 0.00000E+00 0.00000E+00 0.00000E+00 0.00000E+00 0.00000E+00 0.00000E+00
 -1       214 0.00000E+00 0.00000E+00 0.00000E+00 0.00000E+00 0.00000E+00 0.00000E+00
 -1       215 0.00000E+00 0.00000E+00 0.00000E+00 0.00000E+00 0.00000E+00 0.00000E+00
 -1       216 0.00000E+00 0.00000E+00 0.00000E+00 0.00000E+00 0.00000E+00 0.00000E+00
 -1       217 0.00000E+00 0.00000E+00 0.00000E+00 0.00000E+00 0.00000E+00 0.00000E+00
 -1       218 0.00000E+00 0.00000E+00 0.00000E+00 0.00000E+00 0.00000E+00 0.00000E+00
 -1       219 0.00000E+00 0.00000E+00 0.00000E+00 0.00000E+00 0.00000E+00 0.00000E+00
 -1       220 0.00000E+00 0.00000E+00 0.00000E+00 0.00000E+00 0.00000E+00 0.00000E+00
 -1       221 0.00000E+00 0.00000E+00 0.00000E+00 0.00000E+00 0.00000E+00 0.00000E+00
 -1       222 0.00000E+00 0.00000E+00 0.00000E+00 0.00000E+00 0.00000E+00 0.00000E+00
 -1       223 0.00000E+00 0.00000E+00 0.00000E+00 0.00000E+00 0.00000E+00 0.00000E+00
 -1       224 0.00000E+00 0.00000E+00 0.00000E+00 0.00000E+00 0.00000E+00 0.00000E+00
 -1       225 0.00000E+00 0.00000E+00 0.00000E+00 0.00000E+00 0.00000E+00 0.00000E+00
 -1       226 0.00000E+00 0.00000E+00 0.00000E+00 0.00000E+00 0.00000E+00 0.00000E+00
 -1       227 0.00000E+00 0.00000E+00 0.00000E+00 0.00000E+00 0.00000E+00 0.00000E+00
 -1       228 0.00000E+00 0.00000E+00 0.00000E+00 0.00000E+00 0.00000E+00 0.00000E+00
 -1       229 0.00000E+00 0.00000E+00 0.00000E+00 0.00000E+00 0.00000E+00 0.00000E+00
 -1       230 0.00000E+00 0.00000E+00 0.00000E+00 0.00000E+00 0.00000E+00 0.00000E+00
 -1       231 0.00000E+00 0.00000E+00 0.00000E+00 0.00000E+00 0.00000E+00 0.00000E+00
 -1       232 0.00000E+00 0.00000E+00 0.00000E+00 0.00000E+00 0.00000E+00 0.00000E+00
 -1       233 0.00000E+00 0.00000E+00 0.00000E+00 0.00000E+00 0.00000E+00 0.00000E+00
 -1       234 0.00000E+00 0.00000E+00 0.00000E+00 0.00000E+00 0.00000E+00 0.00000E+00
 -1       235 0.00000E+00 0.00000E+00 0.00000E+00 0.00000E+00 0.00000E+00 0.00000E+00
 -1       236 0.00000E+00 0.00000E+00 0.00000E+00 0.00000E+00 0.00000E+00 0.00000E+00
 -1       237 0.00000E+00 0.00000E+00 0.00000E+00 0.00000E+00 0.00000E+00 0.00000E+00
 -1       238 0.00000E+00 0.00000E+00 0.00000E+00 0.00000E+00 0.00000E+00 0.00000E+00
 -1       239 0.00000E+00 0.00000E+00 0.00000E+00 0.00000E+00 0.00000E+00 0.00000E+00
 -1       240 0.00000E+00 0.00000E+00 0.00000E+00 0.00000E+00 0.00000E+00 0.00000E+00
 -1       241 0.00000E+00 0.00000E+00 0.00000E+00 0.00000E+00 0.00000E+00 0.00000E+00
 -1       242 0.00000E+00 0.00000E+00 0.00000E+00 0.00000E+00 0.00000E+00 0.00000E+00
 -1       243 0.00000E+00 0.00000E+00 0.00000E+00 0.00000E+00 0.00000E+00 0.00000E+00
 -1       244 0.00000E+00 0.00000E+00 0.00000E+00 0.00000E+00 0.00000E+00 0.00000E+00
 -1       245 0.00000E+00 0.00000E+00 0.00000E+00 0.00000E+00 0.00000E+00 0.00000E+00
 -1       246 0.00000E+00 0.00000E+00 0.00000E+00 0.00000E+00 0.00000E+00 0.00000E+00
 -1       247 0.00000E+00 0.00000E+00 0.00000E+00 0.00000E+00 0.00000E+00 0.00000E+00
 -1       248 0.00000E+00 0.00000E+00 0.00000E+00 0.00000E+00 0.00000E+00 0.00000E+00
 -1       249 0.00000E+00 0.00000E+00 0.00000E+00 0.00000E+00 0.00000E+00 0.00000E+00
 -1       250 0.00000E+00 0.00000E+00 0.00000E+00 0.00000E+00 0.00000E+00 0.00000E+00
 -1       251 0.00000E+00 0.00000E+00 0.00000E+00 0.00000E+00 0.00000E+00 0.00000E+00
 -1       252 0.00000E+00 0.00000E+00 0.00000E+00 0.00000E+00 0.00000E+00 0.00000E+00
 -1       253 0.00000E+00 0.00000E+00 0.00000E+00 0.00000E+00 0.00000E+00 0.00000E+00
 -1       254 0.00000E+00 0.00000E+00 0.00000E+00 0.00000E+00 0.00000E+00 0.00000E+00
 -1       255 0.00000E+00 0.00000E+00 0.00000E+00 0.00000E+00 0.00000E+00 0.00000E+00
 -1       256 0.00000E+00 0.00000E+00 0.00000E+00 0.00000E+00 0.00000E+00 0.00000E+00
 -1       257 0.00000E+00 0.00000E+00 0.00000E+00 0.00000E+00 0.00000E+00 0.00000E+00
 -1       258 0.00000E+00 0.00000E+00 0.00000E+00 0.00000E+00 0.00000E+00 0.00000E+00
 -1       259 0.00000E+00 0.00000E+00 0.00000E+00 0.00000E+00 0.00000E+00 0.00000E+00
 -1       260 0.00000E+00 0.00000E+00 0.00000E+00 0.00000E+00 0.00000E+00 0.00000E+00
 -1       261 0.00000E+00 0.00000E+00 0.00000E+00 0.00000E+00 0.00000E+00 0.00000E+00
 -1       262 0.00000E+00 0.00000E+00 0.00000E+00 0.00000E+00 0.00000E+00 0.00000E+00
 -1       263 0.00000E+00 0.00000E+00 0.00000E+00 0.00000E+00 0.00000E+00 0.00000E+00
 -1       264 0.00000E+00 0.00000E+00 0.00000E+00 0.00000E+00 0.00000E+00 0.00000E+00
 -1       265 0.00000E+00 0.00000E+00 0.00000E+00 0.00000E+00 0.00000E+00 0.00000E+00
 -1       266 0.00000E+00 0.00000E+00 0.00000E+00 0.00000E+00 0.00000E+00 0.00000E+00
 -1       267 0.00000E+00 0.00000E+00 0.00000E+00 0.00000E+00 0.00000E+00 0.00000E+00
 -1       268 0.00000E+00 0.00000E+00 0.00000E+00 0.00000E+00 0.00000E+00 0.00000E+00
 -1       269 0.00000E+00 0.00000E+00 0.00000E+00 0.00000E+00 0.00000E+00 0.00000E+00
 -1       270 0.00000E+00 0.00000E+00 0.00000E+00 0.00000E+00 0.00000E+00 0.00000E+00
 -1       271 0.00000E+00 0.00000E+00 0.00000E+00 0.00000E+00 0.00000E+00 0.00000E+00
 -1       272 0.00000E+00 0.00000E+00 0.00000E+00 0.00000E+00 0.00000E+00 0.00000E+00
 -1       273 0.00000E+00 0.00000E+00 0.00000E+00 0.00000E+00 0.00000E+00 0.00000E+00
 -1       274 0.00000E+00 0.00000E+00 0.00000E+00 0.00000E+00 0.00000E+00 0.00000E+00
 -1       275 0.00000E+00 0.00000E+00 0.00000E+00 0.00000E+00 0.00000E+00 0.00000E+00
 -1       276 0.00000E+00 0.00000E+00 0.00000E+00 0.00000E+00 0.00000E+00 0.00000E+00
 -1       277 0.00000E+00 0.00000E+00 0.00000E+00 0.00000E+00 0.00000E+00 0.00000E+00
 -1       278 0.00000E+00 0.00000E+00 0.00000E+00 0.00000E+00 0.00000E+00 0.00000E+00
 -1       279 0.00000E+00 0.00000E+00 0.00000E+00 0.00000E+00 0.00000E+00 0.00000E+00
 -1       280 0.00000E+00 0.00000E+00 0.00000E+00 0.00000E+00 0.00000E+00 0.00000E+00
 -1       281 0.00000E+00 0.00000E+00 0.00000E+00 0.00000E+00 0.00000E+00 0.00000E+00
 -1       282 0.00000E+00 0.00000E+00 0.00000E+00 0.00000E+00 0.00000E+00 0.00000E+00
 -1       283 0.00000E+00 0.00000E+00 0.00000E+00 0.00000E+00 0.00000E+00 0.00000E+00
 -1       284 0.00000E+00 0.00000E+00 0.00000E+00 0.00000E+00 0.00000E+00 0.00000E+00
 -1       285 0.00000E+00 0.00000E+00 0.00000E+00 0.00000E+00 0.00000E+00 0.00000E+00
 -1       286 0.00000E+00 0.00000E+00 0.00000E+00 0.00000E+00 0.00000E+00 0.00000E+00
 -1       287 0.00000E+00 0.00000E+00 0.00000E+00 0.00000E+00 0.00000E+00 0.00000E+00
 -1       288 0.00000E+00 0.00000E+00 0.00000E+00 0.00000E+00 0.00000E+00 0.00000E+00
 -1       289 0.00000E+00 0.00000E+00 0.00000E+00 0.00000E+00 0.00000E+00 0.00000E+00
 -1       290 0.00000E+00 0.00000E+00 0.00000E+00 0.00000E+00 0.00000E+00 0.00000E+00
 -1       291 0.00000E+00 0.00000E+00 0.00000E+00 0.00000E+00 0.00000E+00 0.00000E+00
 -1       292 0.00000E+00 0.00000E+00 0.00000E+00 0.00000E+00 0.00000E+00 0.00000E+00
 -1       293 0.00000E+00 0.00000E+00 0.00000E+00 0.00000E+00 0.00000E+00 0.00000E+00
 -1       294 0.00000E+00 0.00000E+00 0.00000E+00 0.00000E+00 0.00000E+00 0.00000E+00
 -1       295 0.00000E+00 0.00000E+00 0.00000E+00 0.00000E+00 0.00000E+00 0.00000E+00
 -1       296 0.00000E+00 0.00000E+00 0.00000E+00 0.00000E+00 0.00000E+00 0.00000E+00
 -1       297 0.00000E+00 0.00000E+00 0.00000E+00 0.00000E+00 0.00000E+00 0.00000E+00
 -1       298 0.00000E+00 0.00000E+00 0.00000E+00 0.00000E+00 0.00000E+00 0.00000E+00
 -1       299 0.00000E+00 0.00000E+00 0.00000E+00 0.00000E+00 0.00000E+00 0.00000E+00
 -1       300 0.00000E+00 0.00000E+00 0.00000E+00 0.00000E+00 0.00000E+00 0.00000E+00
 -1       301 0.00000E+00 0.00000E+00 0.00000E+00 0.00000E+00 0.00000E+00 0.00000E+00
 -1       302 0.00000E+00 0.00000E+00 0.00000E+00 0.00000E+00 0.00000E+00 0.00000E+00
 -1       303 0.00000E+00 0.00000E+00 0.00000E+00 0.00000E+00 0.00000E+00 0.00000E+00
 -1       304 0.00000E+00 0.00000E+00 0.00000E+00 0.00000E+00 0.00000E+00 0.00000E+00
 -1       305 0.00000E+00 0.00000E+00 0.00000E+00 0.00000E+00 0.00000E+00 0.00000E+00
 -1       306 0.00000E+00 0.00000E+00 0.00000E+00 0.00000E+00 0.00000E+00 0.00000E+00
 -1       307 0.00000E+00 0.00000E+00 0.00000E+00 0.00000E+00 0.00000E+00 0.00000E+00
 -1       308 0.00000E+00 0.00000E+00 0.00000E+00 0.00000E+00 0.00000E+00 0.00000E+00
 -1       309 0.00000E+00 0.00000E+00 0.00000E+00 0.00000E+00 0.00000E+00 0.00000E+00
 -1       310 0.00000E+00 0.00000E+00 0.00000E+00 0.00000E+00 0.00000E+00 0.00000E+00
 -1       311 0.00000E+00 0.00000E+00 0.00000E+00 0.00000E+00 0.00000E+00 0.00000E+00
 -1       312 0.00000E+00 0.00000E+00 0.00000E+00 0.00000E+00 0.00000E+00 0.00000E+00
 -1       313 0.00000E+00 0.00000E+00 0.00000E+00 0.00000E+00 0.00000E+00 0.00000E+00
 -1       314 0.00000E+00 0.00000E+00 0.00000E+00 0.00000E+00 0.00000E+00 0.00000E+00
 -1       315 0.00000E+00 0.00000E+00 0.00000E+00 0.00000E+00 0.00000E+00 0.00000E+00
 -1       316 0.00000E+00 0.00000E+00 0.00000E+00 0.00000E+00 0.00000E+00 0.00000E+00
 -1       317 0.00000E+00 0.00000E+00 0.00000E+00 0.00000E+00 0.00000E+00 0.00000E+00
 -1       318 0.00000E+00 0.00000E+00 0.00000E+00 0.00000E+00 0.00000E+00 0.00000E+00
 -1       319 0.00000E+00 0.00000E+00 0.00000E+00 0.00000E+00 0.00000E+00 0.00000E+00
 -1       320 0.00000E+00 0.00000E+00 0.00000E+00 0.00000E+00 0.00000E+00 0.00000E+00
 -1       321 0.00000E+00 0.00000E+00 0.00000E+00 0.00000E+00 0.00000E+00 0.00000E+00
 -1       322 0.00000E+00 0.00000E+00 0.00000E+00 0.00000E+00 0.00000E+00 0.00000E+00
 -1       323 0.00000E+00 0.00000E+00 0.00000E+00 0.00000E+00 0.00000E+00 0.00000E+00
 -1       324 0.00000E+00 0.00000E+00 0.00000E+00 0.00000E+00 0.00000E+00 0.00000E+00
 -1       325 0.00000E+00 0.00000E+00 0.00000E+00 0.00000E+00 0.00000E+00 0.00000E+00
 -1       326 0.00000E+00 0.00000E+00 0.00000E+00 0.00000E+00 0.00000E+00 0.00000E+00
 -1       327 0.00000E+00 0.00000E+00 0.00000E+00 0.00000E+00 0.00000E+00 0.00000E+00
 -1       328 0.00000E+00 0.00000E+00 0.00000E+00 0.00000E+00 0.00000E+00 0.00000E+00
 -1       329 0.00000E+00 0.00000E+00 0.00000E+00 0.00000E+00 0.00000E+00 0.00000E+00
 -1       330 0.00000E+00 0.00000E+00 0.00000E+00 0.00000E+00 0.00000E+00 0.00000E+00
 -1       331 0.00000E+00 0.00000E+00 0.00000E+00 0.00000E+00 0.00000E+00 0.00000E+00
 -1       332 0.00000E+00 0.00000E+00 0.00000E+00 0.00000E+00 0.00000E+00 0.00000E+00
 -1       333 0.00000E+00 0.00000E+00 0.00000E+00 0.00000E+00 0.00000E+00 0.00000E+00
 -1       334 0.00000E+00 0.00000E+00 0.00000E+00 0.00000E+00 0.00000E+00 0.00000E+00
 -1       335 0.00000E+00 0.00000E+00 0.00000E+00 0.00000E+00 0.00000E+00 0.00000E+00
 -1       336 0.00000E+00 0.00000E+00 0.00000E+00 0.00000E+00 0.00000E+00 0.00000E+00
 -1       337 0.00000E+00 0.00000E+00 0.00000E+00 0.00000E+00 0.00000E+00 0.00000E+00
 -1       338 0.00000E+00 0.00000E+00 0.00000E+00 0.00000E+00 0.00000E+00 0.00000E+00
 -1       339 0.00000E+00 0.00000E+00 0.00000E+00 0.00000E+00 0.00000E+00 0.00000E+00
 -1       340 0.00000E+00 0.00000E+00 0.00000E+00 0.00000E+00 0.00000E+00 0.00000E+00
 -1       341 0.00000E+00 0.00000E+00 0.00000E+00 0.00000E+00 0.00000E+00 0.00000E+00
 -1       342 0.00000E+00 0.00000E+00 0.00000E+00 0.00000E+00 0.00000E+00 0.00000E+00
 -1       343 0.00000E+00 0.00000E+00 0.00000E+00 0.00000E+00 0.00000E+00 0.00000E+00
 -1       344 0.00000E+00 0.00000E+00 0.00000E+00 0.00000E+00 0.00000E+00 0.00000E+00
 -1       345 0.00000E+00 0.00000E+00 0.00000E+00 0.00000E+00 0.00000E+00 0.00000E+00
 -1       346 0.00000E+00 0.00000E+00 0.00000E+00 0.00000E+00 0.00000E+00 0.00000E+00
 -1       347 0.00000E+00 0.00000E+00 0.00000E+00 0.00000E+00 0.00000E+00 0.00000E+00
 -1       348 0.00000E+00 0.00000E+00 0.00000E+00 0.00000E+00 0.00000E+00 0.00000E+00
 -1       349 0.00000E+00 0.00000E+00 0.00000E+00 0.00000E+00 0.00000E+00 0.00000E+00
 -1       350 0.00000E+00 0.00000E+00 0.00000E+00 0.00000E+00 0.00000E+00 0.00000E+00
 -1       351 0.00000E+00 0.00000E+00 0.00000E+00 0.00000E+00 0.00000E+00 0.00000E+00
 -1       352 0.00000E+00 0.00000E+00 0.00000E+00 0.00000E+00 0.00000E+00 0.00000E+00
 -1       353 0.00000E+00 0.00000E+00 0.00000E+00 0.00000E+00 0.00000E+00 0.00000E+00
 -1       354 0.00000E+00 0.00000E+00 0.00000E+00 0.00000E+00 0.00000E+00 0.00000E+00
 -1       355 0.00000E+00 0.00000E+00 0.00000E+00 0.00000E+00 0.00000E+00 0.00000E+00
 -1       356 0.00000E+00 0.00000E+00 0.00000E+00 0.00000E+00 0.00000E+00 0.00000E+00
 -1       357 0.00000E+00 0.00000E+00 0.00000E+00 0.00000E+00 0.00000E+00 0.00000E+00
 -1       358 0.00000E+00 0.00000E+00 0.00000E+00 0.00000E+00 0.00000E+00 0.00000E+00
 -1       359 0.00000E+00 0.00000E+00 0.00000E+00 0.00000E+00 0.00000E+00 0.00000E+00
 -1       360 0.00000E+00 0.00000E+00 0.00000E+00 0.00000E+00 0.00000E+00 0.00000E+00
 -1       361 0.00000E+00 0.00000E+00 0.00000E+00 0.00000E+00 0.00000E+00 0.00000E+00
 -1       362 0.00000E+00 0.00000E+00 0.00000E+00 0.00000E+00 0.00000E+00 0.00000E+00
 -1       363 0.00000E+00 0.00000E+00 0.00000E+00 0.00000E+00 0.00000E+00 0.00000E+00
 -1       364 0.00000E+00 0.00000E+00 0.00000E+00 0.00000E+00 0.00000E+00 0.00000E+00
 -1       365 0.00000E+00 0.00000E+00 0.00000E+00 0.00000E+00 0.00000E+00 0.00000E+00
 -1       366 0.00000E+00 0.00000E+00 0.00000E+00 0.00000E+00 0.00000E+00 0.00000E+00
 -1       367 0.00000E+00 0.00000E+00 0.00000E+00 0.00000E+00 0.00000E+00 0.00000E+00
 -1       368 0.00000E+00 0.00000E+00 0.00000E+00 0.00000E+00 0.00000E+00 0.00000E+00
 -1       369 0.00000E+00 0.00000E+00 0.00000E+00 0.00000E+00 0.00000E+00 0.00000E+00
 -1       370 0.00000E+00 0.00000E+00 0.00000E+00 0.00000E+00 0.00000E+00 0.00000E+00
 -1       371 0.00000E+00 0.00000E+00 0.00000E+00 0.00000E+00 0.00000E+00 0.00000E+00
 -1       372 0.00000E+00 0.00000E+00 0.00000E+00 0.00000E+00 0.00000E+00 0.00000E+00
 -1       373 0.00000E+00 0.00000E+00 0.00000E+00 0.00000E+00 0.00000E+00 0.00000E+00
 -1       374 0.00000E+00 0.00000E+00 0.00000E+00 0.00000E+00 0.00000E+00 0.00000E+00
 -1       375 0.00000E+00 0.00000E+00 0.00000E+00 0.00000E+00 0.00000E+00 0.00000E+00
 -1       376 0.00000E+00 0.00000E+00 0.00000E+00 0.00000E+00 0.00000E+00 0.00000E+00
 -1       377 0.00000E+00 0.00000E+00 0.00000E+00 0.00000E+00 0.00000E+00 0.00000E+00
 -1       378 0.00000E+00 0.00000E+00 0.00000E+00 0.00000E+00 0.00000E+00 0.00000E+00
 -1       379 0.00000E+00 0.00000E+00 0.00000E+00 0.00000E+00 0.00000E+00 0.00000E+00
 -1       380 0.00000E+00 0.00000E+00 0.00000E+00 0.00000E+00 0.00000E+00 0.00000E+00
 -1       381 0.00000E+00 0.00000E+00 0.00000E+00 0.00000E+00 0.00000E+00 0.00000E+00
 -1       382 0.00000E+00 0.00000E+00 0.00000E+00 0.00000E+00 0.00000E+00 0.00000E+00
 -1       383 0.00000E+00 0.00000E+00 0.00000E+00 0.00000E+00 0.00000E+00 0.00000E+00
 -1       384 0.00000E+00 0.00000E+00 0.00000E+00 0.00000E+00 0.00000E+00 0.00000E+00
 -1       385 0.00000E+00 0.00000E+00 0.00000E+00 0.00000E+00 0.00000E+00 0.00000E+00
 -1       386 0.00000E+00 0.00000E+00 0.00000E+00 0.00000E+00 0.00000E+00 0.00000E+00
 -1       387 0.00000E+00 0.00000E+00 0.00000E+00 0.00000E+00 0.00000E+00 0.00000E+00
 -1       388 0.00000E+00 0.00000E+00 0.00000E+00 0.00000E+00 0.00000E+00 0.00000E+00
 -1       389 0.00000E+00 0.00000E+00 0.00000E+00 0.00000E+00 0.00000E+00 0.00000E+00
 -1       390 0.00000E+00 0.00000E+00 0.00000E+00 0.00000E+00 0.00000E+00 0.00000E+00
 -1       391 0.00000E+00 0.00000E+00 0.00000E+00 0.00000E+00 0.00000E+00 0.00000E+00
 -1       392 0.00000E+00 0.00000E+00 0.00000E+00 0.00000E+00 0.00000E+00 0.00000E+00
 -1       393 0.00000E+00 0.00000E+00 0.00000E+00 0.00000E+00 0.00000E+00 0.00000E+00
 -1       394 0.00000E+00 0.00000E+00 0.00000E+00 0.00000E+00 0.00000E+00 0.00000E+00
 -1       395 0.00000E+00 0.00000E+00 0.00000E+00 0.00000E+00 0.00000E+00 0.00000E+00
 -1       396 0.00000E+00 0.00000E+00 0.00000E+00 0.00000E+00 0.00000E+00 0.00000E+00
 -1       397 0.00000E+00 0.00000E+00 0.00000E+00 0.00000E+00 0.00000E+00 0.00000E+00
 -1       398 0.00000E+00 0.00000E+00 0.00000E+00 0.00000E+00 0.00000E+00 0.00000E+00
 -1       399 0.00000E+00 0.00000E+00 0.00000E+00 0.00000E+00 0.00000E+00 0.00000E+00
 -1       400 0.00000E+00 0.00000E+00 0.00000E+00 0.00000E+00 0.00000E+00 0.00000E+00
 -1       401 0.00000E+00 0.00000E+00 0.00000E+00 0.00000E+00 0.00000E+00 0.00000E+00
 -1       402 0.00000E+00 0.00000E+00 0.00000E+00 0.00000E+00 0.00000E+00 0.00000E+00
 -1       403 0.00000E+00 0.00000E+00 0.00000E+00 0.00000E+00 0.00000E+00 0.00000E+00
 -1       404 0.00000E+00 0.00000E+00 0.00000E+00 0.00000E+00 0.00000E+00 0.00000E+00
 -1       405 0.00000E+00 0.00000E+00 0.00000E+00 0.00000E+00 0.00000E+00 0.00000E+00
 -1       406 0.00000E+00 0.00000E+00 0.00000E+00 0.00000E+00 0.00000E+00 0.00000E+00
 -1       407 0.00000E+00 0.00000E+00 0.00000E+00 0.00000E+00 0.00000E+00 0.00000E+00
 -1       408 0.00000E+00 0.00000E+00 0.00000E+00 0.00000E+00 0.00000E+00 0.00000E+00
 -1       409 0.00000E+00 0.00000E+00 0.00000E+00 0.00000E+00 0.00000E+00 0.00000E+00
 -1       410 0.00000E+00 0.00000E+00 0.00000E+00 0.00000E+00 0.00000E+00 0.00000E+00
 -1       411 0.00000E+00 0.00000E+00 0.00000E+00 0.00000E+00 0.00000E+00 0.00000E+00
 -1       412 0.00000E+00 0.00000E+00 0.00000E+00 0.00000E+00 0.00000E+00 0.00000E+00
 -1       413 0.00000E+00 0.00000E+00 0.00000E+00 0.00000E+00 0.00000E+00 0.00000E+00
 -1       414 0.00000E+00 0.00000E+00 0.00000E+00 0.00000E+00 0.00000E+00 0.00000E+00
 -1       415 0.00000E+00 0.00000E+00 0.00000E+00 0.00000E+00 0.00000E+00 0.00000E+00
 -1       416 0.00000E+00 0.00000E+00 0.00000E+00 0.00000E+00 0.00000E+00 0.00000E+00
 -1       417 0.00000E+00 0.00000E+00 0.00000E+00 0.00000E+00 0.00000E+00 0.00000E+00
 -1       418 0.00000E+00 0.00000E+00 0.00000E+00 0.00000E+00 0.00000E+00 0.00000E+00
 -1       419 0.00000E+00 0.00000E+00 0.00000E+00 0.00000E+00 0.00000E+00 0.00000E+00
 -1       420 0.00000E+00 0.00000E+00 0.00000E+00 0.00000E+00 0.00000E+00 0.00000E+00
 -1       421 0.00000E+00 0.00000E+00 0.00000E+00 0.00000E+00 0.00000E+00 0.00000E+00
 -1       422 0.00000E+00 0.00000E+00 0.00000E+00 0.00000E+00 0.00000E+00 0.00000E+00
 -1       423 0.00000E+00 0.00000E+00 0.00000E+00 0.00000E+00 0.00000E+00 0.00000E+00
 -1       424 0.00000E+00 0.00000E+00 0.00000E+00 0.00000E+00 0.00000E+00 0.00000E+00
 -1       425 0.00000E+00 0.00000E+00 0.00000E+00 0.00000E+00 0.00000E+00 0.00000E+00
 -1       426 0.00000E+00 0.00000E+00 0.00000E+00 0.00000E+00 0.00000E+00 0.00000E+00
 -1       427 0.00000E+00 0.00000E+00 0.00000E+00 0.00000E+00 0.00000E+00 0.00000E+00
 -1       428 0.00000E+00 0.00000E+00 0.00000E+00 0.00000E+00 0.00000E+00 0.00000E+00
 -1       429 0.00000E+00 0.00000E+00 0.00000E+00 0.00000E+00 0.00000E+00 0.00000E+00
 -1       430 0.00000E+00 0.00000E+00 0.00000E+00 0.00000E+00 0.00000E+00 0.00000E+00
 -1       431 0.00000E+00 0.00000E+00 0.00000E+00 0.00000E+00 0.00000E+00 0.00000E+00
 -1       432 0.00000E+00 0.00000E+00 0.00000E+00 0.00000E+00 0.00000E+00 0.00000E+00
 -1       433 0.00000E+00 0.00000E+00 0.00000E+00 0.00000E+00 0.00000E+00 0.00000E+00
 -1       434 0.00000E+00 0.00000E+00 0.00000E+00 0.00000E+00 0.00000E+00 0.00000E+00
 -1       435 0.00000E+00 0.00000E+00 0.00000E+00 0.00000E+00 0.00000E+00 0.00000E+00
 -1       436 0.00000E+00 0.00000E+00 0.00000E+00 0.00000E+00 0.00000E+00 0.00000E+00
 -1       437 0.00000E+00 0.00000E+00 0.00000E+00 0.00000E+00 0.00000E+00 0.00000E+00
 -1       438 0.00000E+00 0.00000E+00 0.00000E+00 0.00000E+00 0.00000E+00 0.00000E+00
 -1       439 0.00000E+00 0.00000E+00 0.00000E+00 0.00000E+00 0.00000E+00 0.00000E+00
 -1       440 0.00000E+00 0.00000E+00 0.00000E+00 0.00000E+00 0.00000E+00 0.00000E+00
 -1       441 0.00000E+00 0.00000E+00 0.00000E+00 0.00000E+00 0.00000E+00 0.00000E+00
 -1       442 0.00000E+00 0.00000E+00 0.00000E+00 0.00000E+00 0.00000E+00 0.00000E+00
 -1       443 0.00000E+00 0.00000E+00 0.00000E+00 0.00000E+00 0.00000E+00 0.00000E+00
 -1       444 0.00000E+00 0.00000E+00 0.00000E+00 0.00000E+00 0.00000E+00 0.00000E+00
 -1       445 0.00000E+00 0.00000E+00 0.00000E+00 0.00000E+00 0.00000E+00 0.00000E+00
 -1       446 0.00000E+00 0.00000E+00 0.00000E+00 0.00000E+00 0.00000E+00 0.00000E+00
 -1       447 0.00000E+00 0.00000E+00 0.00000E+00 0.00000E+00 0.00000E+00 0.00000E+00
 -1       448 0.00000E+00 0.00000E+00 0.00000E+00 0.00000E+00 0.00000E+00 0.00000E+00
 -1       449 0.00000E+00 0.00000E+00 0.00000E+00 0.00000E+00 0.00000E+00 0.00000E+00
 -1       450 0.00000E+00 0.00000E+00 0.00000E+00 0.00000E+00 0.00000E+00 0.00000E+00
 -1       451 0.00000E+00 0.00000E+00 0.00000E+00 0.00000E+00 0.00000E+00 0.00000E+00
 -1       452 0.00000E+00 0.00000E+00 0.00000E+00 0.00000E+00 0.00000E+00 0.00000E+00
 -1       453 0.00000E+00 0.00000E+00 0.00000E+00 0.00000E+00 0.00000E+00 0.00000E+00
 -1       454 0.00000E+00 0.00000E+00 0.00000E+00 0.00000E+00 0.00000E+00 0.00000E+00
 -1       455 0.00000E+00 0.00000E+00 0.00000E+00 0.00000E+00 0.00000E+00 0.00000E+00
 -1       456 0.00000E+00 0.00000E+00 0.00000E+00 0.00000E+00 0.00000E+00 0.00000E+00
 -1       457 0.00000E+00 0.00000E+00 0.00000E+00 0.00000E+00 0.00000E+00 0.00000E+00
 -1       458 0.00000E+00 0.00000E+00 0.00000E+00 0.00000E+00 0.00000E+00 0.00000E+00
 -1       459 0.00000E+00 0.00000E+00 0.00000E+00 0.00000E+00 0.00000E+00 0.00000E+00
 -1       460 0.00000E+00 0.00000E+00 0.00000E+00 0.00000E+00 0.00000E+00 0.00000E+00
 -1       461 0.00000E+00 0.00000E+00 0.00000E+00 0.00000E+00 0.00000E+00 0.00000E+00
 -1       462 0.00000E+00 0.00000E+00 0.00000E+00 0.00000E+00 0.00000E+00 0.00000E+00
 -1       463 0.00000E+00 0.00000E+00 0.00000E+00 0.00000E+00 0.00000E+00 0.00000E+00
 -1       464 0.00000E+00 0.00000E+00 0.00000E+00 0.00000E+00 0.00000E+00 0.00000E+00
 -1       465 0.00000E+00 0.00000E+00 0.00000E+00 0.00000E+00 0.00000E+00 0.00000E+00
 -1       466 0.00000E+00 0.00000E+00 0.00000E+00 0.00000E+00 0.00000E+00 0.00000E+00
 -1       467 0.00000E+00 0.00000E+00 0.00000E+00 0.00000E+00 0.00000E+00 0.00000E+00
 -1       468 0.00000E+00 0.00000E+00 0.00000E+00 0.00000E+00 0.00000E+00 0.00000E+00
 -1       469 0.00000E+00 0.00000E+00 0.00000E+00 0.00000E+00 0.00000E+00 0.00000E+00
 -1       470 0.00000E+00 0.00000E+00 0.00000E+00 0.00000E+00 0.00000E+00 0.00000E+00
 -1       471 0.00000E+00 0.00000E+00 0.00000E+00 0.00000E+00 0.00000E+00 0.00000E+00
 -1       472 0.00000E+00 0.00000E+00 0.00000E+00 0.00000E+00 0.00000E+00 0.00000E+00
 -1       473 0.00000E+00 0.00000E+00 0.00000E+00 0.00000E+00 0.00000E+00 0.00000E+00
 -1       474 0.00000E+00 0.00000E+00 0.00000E+00 0.00000E+00 0.00000E+00 0.00000E+00
 -1       475 0.00000E+00 0.00000E+00 0.00000E+00 0.00000E+00 0.00000E+00 0.00000E+00
 -1       476 0.00000E+00 0.00000E+00 0.00000E+00 0.00000E+00 0.00000E+00 0.00000E+00
 -1       477 0.00000E+00 0.00000E+00 0.00000E+00 0.00000E+00 0.00000E+00 0.00000E+00
 -1       478 0.00000E+00 0.00000E+00 0.00000E+00 0.00000E+00 0.00000E+00 0.00000E+00
 -1       479 0.00000E+00 0.00000E+00 0.00000E+00 0.00000E+00 0.00000E+00 0.00000E+00
 -1       480 0.00000E+00 0.00000E+00 0.00000E+00 0.00000E+00 0.00000E+00 0.00000E+00
 -1       481 0.00000E+00 0.00000E+00 0.00000E+00 0.00000E+00 0.00000E+00 0.00000E+00
 -1       482 0.00000E+00 0.00000E+00 0.00000E+00 0.00000E+00 0.00000E+00 0.00000E+00
 -1       483 0.00000E+00 0.00000E+00 0.00000E+00 0.00000E+00 0.00000E+00 0.00000E+00
 -1       484 0.00000E+00 0.00000E+00 0.00000E+00 0.00000E+00 0.00000E+00 0.00000E+00
 -1       485 0.00000E+00 0.00000E+00 0.00000E+00 0.00000E+00 0.00000E+00 0.00000E+00
 -1       486 0.00000E+00 0.00000E+00 0.00000E+00 0.00000E+00 0.00000E+00 0.00000E+00
 -1       487 0.00000E+00 0.00000E+00 0.00000E+00 0.00000E+00 0.00000E+00 0.00000E+00
 -1       488 0.00000E+00 0.00000E+00 0.00000E+00 0.00000E+00 0.00000E+00 0.00000E+00
 -1       489 0.00000E+00 0.00000E+00 0.00000E+00 0.00000E+00 0.00000E+00 0.00000E+00
 -1       490 0.00000E+00 0.00000E+00 0.00000E+00 0.00000E+00 0.00000E+00 0.00000E+00
 -1       491 0.00000E+00 0.00000E+00 0.00000E+00 0.00000E+00 0.00000E+00 0.00000E+00
 -1       492 0.00000E+00 0.00000E+00 0.00000E+00 0.00000E+00 0.00000E+00 0.00000E+00
 -1       493 0.00000E+00 0.00000E+00 0.00000E+00 0.00000E+00 0.00000E+00 0.00000E+00
 -1       494 0.00000E+00 0.00000E+00 0.00000E+00 0.00000E+00 0.00000E+00 0.00000E+00
 -1       495 0.00000E+00 0.00000E+00 0.00000E+00 0.00000E+00 0.00000E+00 0.00000E+00
 -1       496 0.00000E+00 0.00000E+00 0.00000E+00 0.00000E+00 0.00000E+00 0.00000E+00
 -1       497 0.00000E+00 0.00000E+00 0.00000E+00 0.00000E+00 0.00000E+00 0.00000E+00
 -1       498 0.00000E+00 0.00000E+00 0.00000E+00 0.00000E+00 0.00000E+00 0.00000E+00
 -1       499 0.00000E+00 0.00000E+00 0.00000E+00 0.00000E+00 0.00000E+00 0.00000E+00
 -1       500 0.00000E+00 0.00000E+00 0.00000E+00 0.00000E+00 0.00000E+00 0.00000E+00
 -1       501 0.00000E+00 0.00000E+00 0.00000E+00 0.00000E+00 0.00000E+00 0.00000E+00
 -1       502 0.00000E+00 0.00000E+00 0.00000E+00 0.00000E+00 0.00000E+00 0.00000E+00
 -1       503 0.00000E+00 0.00000E+00 0.00000E+00 0.00000E+00 0.00000E+00 0.00000E+00
 -1       504 0.00000E+00 0.00000E+00 0.00000E+00 0.00000E+00 0.00000E+00 0.00000E+00
 -1       505 0.00000E+00 0.00000E+00 0.00000E+00 0.00000E+00 0.00000E+00 0.00000E+00
 -1       506 0.00000E+00 0.00000E+00 0.00000E+00 0.00000E+00 0.00000E+00 0.00000E+00
 -1       507 0.00000E+00 0.00000E+00 0.00000E+00 0.00000E+00 0.00000E+00 0.00000E+00
 -1       508 0.00000E+00 0.00000E+00 0.00000E+00 0.00000E+00 0.00000E+00 0.00000E+00
 -1       509 0.00000E+00 0.00000E+00 0.00000E+00 0.00000E+00 0.00000E+00 0.00000E+00
 -1       510 0.00000E+00 0.00000E+00 0.00000E+00 0.00000E+00 0.00000E+00 0.00000E+00
 -1       511 0.00000E+00 0.00000E+00 0.00000E+00 0.00000E+00 0.00000E+00 0.00000E+00
 -1       512 0.00000E+00 0.00000E+00 0.00000E+00 0.00000E+00 0.00000E+00 0.00000E+00
 -1       513 0.00000E+00 0.00000E+00 0.00000E+00 0.00000E+00 0.00000E+00 0.00000E+00
 -1       514 0.00000E+00 0.00000E+00 0.00000E+00 0.00000E+00 0.00000E+00 0.00000E+00
 -1       515 0.00000E+00 0.00000E+00 0.00000E+00 0.00000E+00 0.00000E+00 0.00000E+00
 -1       516 0.00000E+00 0.00000E+00 0.00000E+00 0.00000E+00 0.00000E+00 0.00000E+00
 -1       517 0.00000E+00 0.00000E+00 0.00000E+00 0.00000E+00 0.00000E+00 0.00000E+00
 -1       518 0.00000E+00 0.00000E+00 0.00000E+00 0.00000E+00 0.00000E+00 0.00000E+00
 -1       519 0.00000E+00 0.00000E+00 0.00000E+00 0.00000E+00 0.00000E+00 0.00000E+00
 -1       520 0.00000E+00 0.00000E+00 0.00000E+00 0.00000E+00 0.00000E+00 0.00000E+00
 -1       521 0.00000E+00 0.00000E+00 0.00000E+00 0.00000E+00 0.00000E+00 0.00000E+00
 -1       522 0.00000E+00 0.00000E+00 0.00000E+00 0.00000E+00 0.00000E+00 0.00000E+00
 -1       523 0.00000E+00 0.00000E+00 0.00000E+00 0.00000E+00 0.00000E+00 0.00000E+00
 -1       524 0.00000E+00 0.00000E+00 0.00000E+00 0.00000E+00 0.00000E+00 0.00000E+00
 -1       525 0.00000E+00 0.00000E+00 0.00000E+00 0.00000E+00 0.00000E+00 0.00000E+00
 -1       526 0.00000E+00 0.00000E+00 0.00000E+00 0.00000E+00 0.00000E+00 0.00000E+00
 -1       527 0.00000E+00 0.00000E+00 0.00000E+00 0.00000E+00 0.00000E+00 0.00000E+00
 -1       528 0.00000E+00 0.00000E+00 0.00000E+00 0.00000E+00 0.00000E+00 0.00000E+00
 -1       529 0.00000E+00 0.00000E+00 0.00000E+00 0.00000E+00 0.00000E+00 0.00000E+00
 -1       530 0.00000E+00 0.00000E+00 0.00000E+00 0.00000E+00 0.00000E+00 0.00000E+00
 -1       531 0.00000E+00 0.00000E+00 0.00000E+00 0.00000E+00 0.00000E+00 0.00000E+00
 -1       532 0.00000E+00 0.00000E+00 0.00000E+00 0.00000E+00 0.00000E+00 0.00000E+00
 -1       533 0.00000E+00 0.00000E+00 0.00000E+00 0.00000E+00 0.00000E+00 0.00000E+00
 -1       534 0.00000E+00 0.00000E+00 0.00000E+00 0.00000E+00 0.00000E+00 0.00000E+00
 -1       535 0.00000E+00 0.00000E+00 0.00000E+00 0.00000E+00 0.00000E+00 0.00000E+00
 -1       536 0.00000E+00 0.00000E+00 0.00000E+00 0.00000E+00 0.00000E+00 0.00000E+00
 -1       537 0.00000E+00 0.00000E+00 0.00000E+00 0.00000E+00 0.00000E+00 0.00000E+00
 -1       538 0.00000E+00 0.00000E+00 0.00000E+00 0.00000E+00 0.00000E+00 0.00000E+00
 -1       539 0.00000E+00 0.00000E+00 0.00000E+00 0.00000E+00 0.00000E+00 0.00000E+00
 -1       540 0.00000E+00 0.00000E+00 0.00000E+00 0.00000E+00 0.00000E+00 0.00000E+00
 -1       541 0.00000E+00 0.00000E+00 0.00000E+00 0.00000E+00 0.00000E+00 0.00000E+00
 -1       542 0.00000E+00 0.00000E+00 0.00000E+00 0.00000E+00 0.00000E+00 0.00000E+00
 -1       543 0.00000E+00 0.00000E+00 0.00000E+00 0.00000E+00 0.00000E+00 0.00000E+00
 -1       544 0.00000E+00 0.00000E+00 0.00000E+00 0.00000E+00 0.00000E+00 0.00000E+00
 -1       545 0.00000E+00 0.00000E+00 0.00000E+00 0.00000E+00 0.00000E+00 0.00000E+00
 -1       546 0.00000E+00 0.00000E+00 0.00000E+00 0.00000E+00 0.00000E+00 0.00000E+00
 -1       547 0.00000E+00 0.00000E+00 0.00000E+00 0.00000E+00 0.00000E+00 0.00000E+00
 -1       548 0.00000E+00 0.00000E+00 0.00000E+00 0.00000E+00 0.00000E+00 0.00000E+00
 -1       549 0.00000E+00 0.00000E+00 0.00000E+00 0.00000E+00 0.00000E+00 0.00000E+00
 -1       550 0.00000E+00 0.00000E+00 0.00000E+00 0.00000E+00 0.00000E+00 0.00000E+00
 -1       551 0.00000E+00 0.00000E+00 0.00000E+00 0.00000E+00 0.00000E+00 0.00000E+00
 -1       552 0.00000E+00 0.00000E+00 0.00000E+00 0.00000E+00 0.00000E+00 0.00000E+00
 -1       553 0.00000E+00 0.00000E+00 0.00000E+00 0.00000E+00 0.00000E+00 0.00000E+00
 -1       554 0.00000E+00 0.00000E+00 0.00000E+00 0.00000E+00 0.00000E+00 0.00000E+00
 -1       555 0.00000E+00 0.00000E+00 0.00000E+00 0.00000E+00 0.00000E+00 0.00000E+00
 -1       556 0.00000E+00 0.00000E+00 0.00000E+00 0.00000E+00 0.00000E+00 0.00000E+00
 -1       557 0.00000E+00 0.00000E+00 0.00000E+00 0.00000E+00 0.00000E+00 0.00000E+00
 -1       558 0.00000E+00 0.00000E+00 0.00000E+00 0.00000E+00 0.00000E+00 0.00000E+00
 -1       559 0.00000E+00 0.00000E+00 0.00000E+00 0.00000E+00 0.00000E+00 0.00000E+00
 -1       560 0.00000E+00 0.00000E+00 0.00000E+00 0.00000E+00 0.00000E+00 0.00000E+00
 -1       561 0.00000E+00 0.00000E+00 0.00000E+00 0.00000E+00 0.00000E+00 0.00000E+00
 -1       562 0.00000E+00 0.00000E+00 0.00000E+00 0.00000E+00 0.00000E+00 0.00000E+00
 -1       563 0.00000E+00 0.00000E+00 0.00000E+00 0.00000E+00 0.00000E+00 0.00000E+00
 -1       564 0.00000E+00 0.00000E+00 0.00000E+00 0.00000E+00 0.00000E+00 0.00000E+00
 -1       565 0.00000E+00 0.00000E+00 0.00000E+00 0.00000E+00 0.00000E+00 0.00000E+00
 -1       566 0.00000E+00 0.00000E+00 0.00000E+00 0.00000E+00 0.00000E+00 0.00000E+00
 -1       567 0.00000E+00 0.00000E+00 0.00000E+00 0.00000E+00 0.00000E+00 0.00000E+00
 -1       568 0.00000E+00 0.00000E+00 0.00000E+00 0.00000E+00 0.00000E+00 0.00000E+00
 -1       569 0.00000E+00 0.00000E+00 0.00000E+00 0.00000E+00 0.00000E+00 0.00000E+00
 -1       570 0.00000E+00 0.00000E+00 0.00000E+00 0.00000E+00 0.00000E+00 0.00000E+00
 -1       571 0.00000E+00 0.00000E+00 0.00000E+00 0.00000E+00 0.00000E+00 0.00000E+00
 -1       572 0.00000E+00 0.00000E+00 0.00000E+00 0.00000E+00 0.00000E+00 0.00000E+00
 -1       573 0.00000E+00 0.00000E+00 0.00000E+00 0.00000E+00 0.00000E+00 0.00000E+00
 -1       574 0.00000E+00 0.00000E+00 0.00000E+00 0.00000E+00 0.00000E+00 0.00000E+00
 -1       575 0.00000E+00 0.00000E+00 0.00000E+00 0.00000E+00 0.00000E+00 0.00000E+00
 -1       576 0.00000E+00 0.00000E+00 0.00000E+00 0.00000E+00 0.00000E+00 0.00000E+00
 -1       577 0.00000E+00 0.00000E+00 0.00000E+00 0.00000E+00 0.00000E+00 0.00000E+00
 -1       578 0.00000E+00 0.00000E+00 0.00000E+00 0.00000E+00 0.00000E+00 0.00000E+00
 -1       579 0.00000E+00 0.00000E+00 0.00000E+00 0.00000E+00 0.00000E+00 0.00000E+00
 -1       580 0.00000E+00 0.00000E+00 0.00000E+00 0.00000E+00 0.00000E+00 0.00000E+00
 -1       581 0.00000E+00 0.00000E+00 0.00000E+00 0.00000E+00 0.00000E+00 0.00000E+00
 -1       582 0.00000E+00 0.00000E+00 0.00000E+00 0.00000E+00 0.00000E+00 0.00000E+00
 -1       583 0.00000E+00 0.00000E+00 0.00000E+00 0.00000E+00 0.00000E+00 0.00000E+00
 -1       584 0.00000E+00 0.00000E+00 0.00000E+00 0.00000E+00 0.00000E+00 0.00000E+00
 -1       585 0.00000E+00 0.00000E+00 0.00000E+00 0.00000E+00 0.00000E+00 0.00000E+00
 -1       586 0.00000E+00 0.00000E+00 0.00000E+00 0.00000E+00 0.00000E+00 0.00000E+00
 -1       587 0.00000E+00 0.00000E+00 0.00000E+00 0.00000E+00 0.00000E+00 0.00000E+00
 -1       588 0.00000E+00 0.00000E+00 0.00000E+00 0.00000E+00 0.00000E+00 0.00000E+00
 -1       589 0.00000E+00 0.00000E+00 0.00000E+00 0.00000E+00 0.00000E+00 0.00000E+00
 -1       590 0.00000E+00 0.00000E+00 0.00000E+00 0.00000E+00 0.00000E+00 0.00000E+00
 -1       591 0.00000E+00 0.00000E+00 0.00000E+00 0.00000E+00 0.00000E+00 0.00000E+00
 -1       592 0.00000E+00 0.00000E+00 0.00000E+00 0.00000E+00 0.00000E+00 0.00000E+00
 -1       593 0.00000E+00 0.00000E+00 0.00000E+00 0.00000E+00 0.00000E+00 0.00000E+00
 -1       594 0.00000E+00 0.00000E+00 0.00000E+00 0.00000E+00 0.00000E+00 0.00000E+00
 -1       595 0.00000E+00 0.00000E+00 0.00000E+00 0.00000E+00 0.00000E+00 0.00000E+00
 -1       596 0.00000E+00 0.00000E+00 0.00000E+00 0.00000E+00 0.00000E+00 0.00000E+00
 -1       597 0.00000E+00 0.00000E+00 0.00000E+00 0.00000E+00 0.00000E+00 0.00000E+00
 -1       598 0.00000E+00 0.00000E+00 0.00000E+00 0.00000E+00 0.00000E+00 0.00000E+00
 -1       599 0.00000E+00 0.00000E+00 0.00000E+00 0.00000E+00 0.00000E+00 0.00000E+00
 -1       600 0.00000E+00 0.00000E+00 0.00000E+00 0.00000E+00 0.00000E+00 0.00000E+00
 -1       601 0.00000E+00 0.00000E+00 0.00000E+00 0.00000E+00 0.00000E+00 0.00000E+00
 -1       602 0.00000E+00 0.00000E+00 0.00000E+00 0.00000E+00 0.00000E+00 0.00000E+00
 -1       603 0.00000E+00 0.00000E+00 0.00000E+00 0.00000E+00 0.00000E+00 0.00000E+00
 -1       604 0.00000E+00 0.00000E+00 0.00000E+00 0.00000E+00 0.00000E+00 0.00000E+00
 -1       605 0.00000E+00 0.00000E+00 0.00000E+00 0.00000E+00 0.00000E+00 0.00000E+00
 -1       606 0.00000E+00 0.00000E+00 0.00000E+00 0.00000E+00 0.00000E+00 0.00000E+00
 -1       607 0.00000E+00 0.00000E+00 0.00000E+00 0.00000E+00 0.00000E+00 0.00000E+00
 -1       608 0.00000E+00 0.00000E+00 0.00000E+00 0.00000E+00 0.00000E+00 0.00000E+00
 -1       609 0.00000E+00 0.00000E+00 0.00000E+00 0.00000E+00 0.00000E+00 0.00000E+00
 -1       610 0.00000E+00 0.00000E+00 0.00000E+00 0.00000E+00 0.00000E+00 0.00000E+00
 -1       611 0.00000E+00 0.00000E+00 0.00000E+00 0.00000E+00 0.00000E+00 0.00000E+00
 -1       612 0.00000E+00 0.00000E+00 0.00000E+00 0.00000E+00 0.00000E+00 0.00000E+00
 -1       613 0.00000E+00 0.00000E+00 0.00000E+00 0.00000E+00 0.00000E+00 0.00000E+00
 -1       614 0.00000E+00 0.00000E+00 0.00000E+00 0.00000E+00 0.00000E+00 0.00000E+00
 -1       615 0.00000E+00 0.00000E+00 0.00000E+00 0.00000E+00 0.00000E+00 0.00000E+00
 -1       616 0.00000E+00 0.00000E+00 0.00000E+00 0.00000E+00 0.00000E+00 0.00000E+00
 -1       617 0.00000E+00 0.00000E+00 0.00000E+00 0.00000E+00 0.00000E+00 0.00000E+00
 -1       618 0.00000E+00 0.00000E+00 0.00000E+00 0.00000E+00 0.00000E+00 0.00000E+00
 -1       619 0.00000E+00 0.00000E+00 0.00000E+00 0.00000E+00 0.00000E+00 0.00000E+00
 -1       620 0.00000E+00 0.00000E+00 0.00000E+00 0.00000E+00 0.00000E+00 0.00000E+00
 -1       621 0.00000E+00 0.00000E+00 0.00000E+00 0.00000E+00 0.00000E+00 0.00000E+00
 -1       622 0.00000E+00 0.00000E+00 0.00000E+00 0.00000E+00 0.00000E+00 0.00000E+00
 -1       623 0.00000E+00 0.00000E+00 0.00000E+00 0.00000E+00 0.00000E+00 0.00000E+00
 -1       624 0.00000E+00 0.00000E+00 0.00000E+00 0.00000E+00 0.00000E+00 0.00000E+00
 -1       625 0.00000E+00 0.00000E+00 0.00000E+00 0.00000E+00 0.00000E+00 0.00000E+00
 -1       626 0.00000E+00 0.00000E+00 0.00000E+00 0.00000E+00 0.00000E+00 0.00000E+00
 -1       627 0.00000E+00 0.00000E+00 0.00000E+00 0.00000E+00 0.00000E+00 0.00000E+00
 -1       628 0.00000E+00 0.00000E+00 0.00000E+00 0.00000E+00 0.00000E+00 0.00000E+00
 -1       629 0.00000E+00 0.00000E+00 0.00000E+00 0.00000E+00 0.00000E+00 0.00000E+00
 -1       630 0.00000E+00 0.00000E+00 0.00000E+00 0.00000E+00 0.00000E+00 0.00000E+00
 -1       631 0.00000E+00 0.00000E+00 0.00000E+00 0.00000E+00 0.00000E+00 0.00000E+00
 -1       632 0.00000E+00 0.00000E+00 0.00000E+00 0.00000E+00 0.00000E+00 0.00000E+00
 -1       633 0.00000E+00 0.00000E+00 0.00000E+00 0.00000E+00 0.00000E+00 0.00000E+00
 -1       634 0.00000E+00 0.00000E+00 0.00000E+00 0.00000E+00 0.00000E+00 0.00000E+00
 -1       635 0.00000E+00 0.00000E+00 0.00000E+00 0.00000E+00 0.00000E+00 0.00000E+00
 -1       636 0.00000E+00 0.00000E+00 0.00000E+00 0.00000E+00 0.00000E+00 0.00000E+00
 -1       637 0.00000E+00 0.00000E+00 0.00000E+00 0.00000E+00 0.00000E+00 0.00000E+00
 -1       638 0.00000E+00 0.00000E+00 0.00000E+00 0.00000E+00 0.00000E+00 0.00000E+00
 -1       639 0.00000E+00 0.00000E+00 0.00000E+00 0.00000E+00 0.00000E+00 0.00000E+00
 -1       640 0.00000E+00 0.00000E+00 0.00000E+00 0.00000E+00 0.00000E+00 0.00000E+00
 -1       641 0.00000E+00 0.00000E+00 0.00000E+00 0.00000E+00 0.00000E+00 0.00000E+00
 -1       642 0.00000E+00 0.00000E+00 0.00000E+00 0.00000E+00 0.00000E+00 0.00000E+00
 -1       643 0.00000E+00 0.00000E+00 0.00000E+00 0.00000E+00 0.00000E+00 0.00000E+00
 -1       644 0.00000E+00 0.00000E+00 0.00000E+00 0.00000E+00 0.00000E+00 0.00000E+00
 -1       645 0.00000E+00 0.00000E+00 0.00000E+00 0.00000E+00 0.00000E+00 0.00000E+00
 -1       646 0.00000E+00 0.00000E+00 0.00000E+00 0.00000E+00 0.00000E+00 0.00000E+00
 -1       647 0.00000E+00 0.00000E+00 0.00000E+00 0.00000E+00 0.00000E+00 0.00000E+00
 -1       648 0.00000E+00 0.00000E+00 0.00000E+00 0.00000E+00 0.00000E+00 0.00000E+00
 -1       649 0.00000E+00 0.00000E+00 0.00000E+00 0.00000E+00 0.00000E+00 0.00000E+00
 -1       650 0.00000E+00 0.00000E+00 0.00000E+00 0.00000E+00 0.00000E+00 0.00000E+00
 -1       651 0.00000E+00 0.00000E+00 0.00000E+00 0.00000E+00 0.00000E+00 0.00000E+00
 -1       652 0.00000E+00 0.00000E+00 0.00000E+00 0.00000E+00 0.00000E+00 0.00000E+00
 -1       653 0.00000E+00 0.00000E+00 0.00000E+00 0.00000E+00 0.00000E+00 0.00000E+00
 -1       654 0.00000E+00 0.00000E+00 0.00000E+00 0.00000E+00 0.00000E+00 0.00000E+00
 -1       655 0.00000E+00 0.00000E+00 0.00000E+00 0.00000E+00 0.00000E+00 0.00000E+00
 -1       656 0.00000E+00 0.00000E+00 0.00000E+00 0.00000E+00 0.00000E+00 0.00000E+00
 -1       657 0.00000E+00 0.00000E+00 0.00000E+00 0.00000E+00 0.00000E+00 0.00000E+00
 -1       658 0.00000E+00 0.00000E+00 0.00000E+00 0.00000E+00 0.00000E+00 0.00000E+00
 -1       659 0.00000E+00 0.00000E+00 0.00000E+00 0.00000E+00 0.00000E+00 0.00000E+00
 -1       660 0.00000E+00 0.00000E+00 0.00000E+00 0.00000E+00 0.00000E+00 0.00000E+00
 -1       661 0.00000E+00 0.00000E+00 0.00000E+00 0.00000E+00 0.00000E+00 0.00000E+00
 -1       662 0.00000E+00 0.00000E+00 0.00000E+00 0.00000E+00 0.00000E+00 0.00000E+00
 -1       663 0.00000E+00 0.00000E+00 0.00000E+00 0.00000E+00 0.00000E+00 0.00000E+00
 -1       664 0.00000E+00 0.00000E+00 0.00000E+00 0.00000E+00 0.00000E+00 0.00000E+00
 -1       665 0.00000E+00 0.00000E+00 0.00000E+00 0.00000E+00 0.00000E+00 0.00000E+00
 -1       666 0.00000E+00 0.00000E+00 0.00000E+00 0.00000E+00 0.00000E+00 0.00000E+00
 -1       667 0.00000E+00 0.00000E+00 0.00000E+00 0.00000E+00 0.00000E+00 0.00000E+00
 -1       668 0.00000E+00 0.00000E+00 0.00000E+00 0.00000E+00 0.00000E+00 0.00000E+00
 -1       669 0.00000E+00 0.00000E+00 0.00000E+00 0.00000E+00 0.00000E+00 0.00000E+00
 -1       670 0.00000E+00 0.00000E+00 0.00000E+00 0.00000E+00 0.00000E+00 0.00000E+00
 -1       671 0.00000E+00 0.00000E+00 0.00000E+00 0.00000E+00 0.00000E+00 0.00000E+00
 -1       672 0.00000E+00 0.00000E+00 0.00000E+00 0.00000E+00 0.00000E+00 0.00000E+00
 -1       673 0.00000E+00 0.00000E+00 0.00000E+00 0.00000E+00 0.00000E+00 0.00000E+00
 -1       674 0.00000E+00 0.00000E+00 0.00000E+00 0.00000E+00 0.00000E+00 0.00000E+00
 -1       675 0.00000E+00 0.00000E+00 0.00000E+00 0.00000E+00 0.00000E+00 0.00000E+00
 -1       676 0.00000E+00 0.00000E+00 0.00000E+00 0.00000E+00 0.00000E+00 0.00000E+00
 -1       677 0.00000E+00 0.00000E+00 0.00000E+00 0.00000E+00 0.00000E+00 0.00000E+00
 -1       678 0.00000E+00 0.00000E+00 0.00000E+00 0.00000E+00 0.00000E+00 0.00000E+00
 -1       679 0.00000E+00 0.00000E+00 0.00000E+00 0.00000E+00 0.00000E+00 0.00000E+00
 -1       680 0.00000E+00 0.00000E+00 0.00000E+00 0.00000E+00 0.00000E+00 0.00000E+00
 -1       681 0.00000E+00 0.00000E+00 0.00000E+00 0.00000E+00 0.00000E+00 0.00000E+00
 -1       682 0.00000E+00 0.00000E+00 0.00000E+00 0.00000E+00 0.00000E+00 0.00000E+00
 -1       683 0.00000E+00 0.00000E+00 0.00000E+00 0.00000E+00 0.00000E+00 0.00000E+00
 -1       684 0.00000E+00 0.00000E+00 0.00000E+00 0.00000E+00 0.00000E+00 0.00000E+00
 -1       685 0.00000E+00 0.00000E+00 0.00000E+00 0.00000E+00 0.00000E+00 0.00000E+00
 -1       686 0.00000E+00 0.00000E+00 0.00000E+00 0.00000E+00 0.00000E+00 0.00000E+00
 -1       687 0.00000E+00 0.00000E+00 0.00000E+00 0.00000E+00 0.00000E+00 0.00000E+00
 -1       688 0.00000E+00 0.00000E+00 0.00000E+00 0.00000E+00 0.00000E+00 0.00000E+00
 -1       689 0.00000E+00 0.00000E+00 0.00000E+00 0.00000E+00 0.00000E+00 0.00000E+00
 -1       690 0.00000E+00 0.00000E+00 0.00000E+00 0.00000E+00 0.00000E+00 0.00000E+00
 -1       691 0.00000E+00 0.00000E+00 0.00000E+00 0.00000E+00 0.00000E+00 0.00000E+00
 -1       692 0.00000E+00 0.00000E+00 0.00000E+00 0.00000E+00 0.00000E+00 0.00000E+00
 -1       693 0.00000E+00 0.00000E+00 0.00000E+00 0.00000E+00 0.00000E+00 0.00000E+00
 -1       694 0.00000E+00 0.00000E+00 0.00000E+00 0.00000E+00 0.00000E+00 0.00000E+00
 -1       695 0.00000E+00 0.00000E+00 0.00000E+00 0.00000E+00 0.00000E+00 0.00000E+00
 -1       696 0.00000E+00 0.00000E+00 0.00000E+00 0.00000E+00 0.00000E+00 0.00000E+00
 -1       697 0.00000E+00 0.00000E+00 0.00000E+00 0.00000E+00 0.00000E+00 0.00000E+00
 -1       698 0.00000E+00 0.00000E+00 0.00000E+00 0.00000E+00 0.00000E+00 0.00000E+00
 -1       699 0.00000E+00 0.00000E+00 0.00000E+00 0.00000E+00 0.00000E+00 0.00000E+00
 -1       700 0.00000E+00 0.00000E+00 0.00000E+00 0.00000E+00 0.00000E+00 0.00000E+00
 -1       701 0.00000E+00 0.00000E+00 0.00000E+00 0.00000E+00 0.00000E+00 0.00000E+00
 -1       702 0.00000E+00 0.00000E+00 0.00000E+00 0.00000E+00 0.00000E+00 0.00000E+00
 -1       703 0.00000E+00 0.00000E+00 0.00000E+00 0.00000E+00 0.00000E+00 0.00000E+00
 -1       704 0.00000E+00 0.00000E+00 0.00000E+00 0.00000E+00 0.00000E+00 0.00000E+00
 -1       705 0.00000E+00 0.00000E+00 0.00000E+00 0.00000E+00 0.00000E+00 0.00000E+00
 -1       706 0.00000E+00 0.00000E+00 0.00000E+00 0.00000E+00 0.00000E+00 0.00000E+00
 -1       707 0.00000E+00 0.00000E+00 0.00000E+00 0.00000E+00 0.00000E+00 0.00000E+00
 -1       708 0.00000E+00 0.00000E+00 0.00000E+00 0.00000E+00 0.00000E+00 0.00000E+00
 -1       709 0.00000E+00 0.00000E+00 0.00000E+00 0.00000E+00 0.00000E+00 0.00000E+00
 -1       710 0.00000E+00 0.00000E+00 0.00000E+00 0.00000E+00 0.00000E+00 0.00000E+00
 -1       711 0.00000E+00 0.00000E+00 0.00000E+00 0.00000E+00 0.00000E+00 0.00000E+00
 -1       712 0.00000E+00 0.00000E+00 0.00000E+00 0.00000E+00 0.00000E+00 0.00000E+00
 -1       713 0.00000E+00 0.00000E+00 0.00000E+00 0.00000E+00 0.00000E+00 0.00000E+00
 -1       714 0.00000E+00 0.00000E+00 0.00000E+00 0.00000E+00 0.00000E+00 0.00000E+00
 -1       715 0.00000E+00 0.00000E+00 0.00000E+00 0.00000E+00 0.00000E+00 0.00000E+00
 -1       716 0.00000E+00 0.00000E+00 0.00000E+00 0.00000E+00 0.00000E+00 0.00000E+00
 -1       717 0.00000E+00 0.00000E+00 0.00000E+00 0.00000E+00 0.00000E+00 0.00000E+00
 -1       718 0.00000E+00 0.00000E+00 0.00000E+00 0.00000E+00 0.00000E+00 0.00000E+00
 -1       719 0.00000E+00 0.00000E+00 0.00000E+00 0.00000E+00 0.00000E+00 0.00000E+00
 -1       720 0.00000E+00 0.00000E+00 0.00000E+00 0.00000E+00 0.00000E+00 0.00000E+00
 -1       721 0.00000E+00 0.00000E+00 0.00000E+00 0.00000E+00 0.00000E+00 0.00000E+00
 -1       722 0.00000E+00 0.00000E+00 0.00000E+00 0.00000E+00 0.00000E+00 0.00000E+00
 -1       723 0.00000E+00 0.00000E+00 0.00000E+00 0.00000E+00 0.00000E+00 0.00000E+00
 -1       724 0.00000E+00 0.00000E+00 0.00000E+00 0.00000E+00 0.00000E+00 0.00000E+00
 -1       725 0.00000E+00 0.00000E+00 0.00000E+00 0.00000E+00 0.00000E+00 0.00000E+00
 -1       726 0.00000E+00 0.00000E+00 0.00000E+00 0.00000E+00 0.00000E+00 0.00000E+00
 -1       727 0.00000E+00 0.00000E+00 0.00000E+00 0.00000E+00 0.00000E+00 0.00000E+00
 -1       728 0.00000E+00 0.00000E+00 0.00000E+00 0.00000E+00 0.00000E+00 0.00000E+00
 -1       729 0.00000E+00 0.00000E+00 0.00000E+00 0.00000E+00 0.00000E+00 0.00000E+00
 -1       730 0.00000E+00 0.00000E+00 0.00000E+00 0.00000E+00 0.00000E+00 0.00000E+00
 -1       731 0.00000E+00 0.00000E+00 0.00000E+00 0.00000E+00 0.00000E+00 0.00000E+00
 -1       732 0.00000E+00 0.00000E+00 0.00000E+00 0.00000E+00 0.00000E+00 0.00000E+00
 -1       733 0.00000E+00 0.00000E+00 0.00000E+00 0.00000E+00 0.00000E+00 0.00000E+00
 -1       734 0.00000E+00 0.00000E+00 0.00000E+00 0.00000E+00 0.00000E+00 0.00000E+00
 -1       735 0.00000E+00 0.00000E+00 0.00000E+00 0.00000E+00 0.00000E+00 0.00000E+00
 -1       736 0.00000E+00 0.00000E+00 0.00000E+00 0.00000E+00 0.00000E+00 0.00000E+00
 -1       737 0.00000E+00 0.00000E+00 0.00000E+00 0.00000E+00 0.00000E+00 0.00000E+00
 -1       738 0.00000E+00 0.00000E+00 0.00000E+00 0.00000E+00 0.00000E+00 0.00000E+00
 -1       739 0.00000E+00 0.00000E+00 0.00000E+00 0.00000E+00 0.00000E+00 0.00000E+00
 -1       740 0.00000E+00 0.00000E+00 0.00000E+00 0.00000E+00 0.00000E+00 0.00000E+00
 -1       741 0.00000E+00 0.00000E+00 0.00000E+00 0.00000E+00 0.00000E+00 0.00000E+00
 -1       742 0.00000E+00 0.00000E+00 0.00000E+00 0.00000E+00 0.00000E+00 0.00000E+00
 -1       743 0.00000E+00 0.00000E+00 0.00000E+00 0.00000E+00 0.00000E+00 0.00000E+00
 -1       744 0.00000E+00 0.00000E+00 0.00000E+00 0.00000E+00 0.00000E+00 0.00000E+00
 -1       745 0.00000E+00 0.00000E+00 0.00000E+00 0.00000E+00 0.00000E+00 0.00000E+00
 -1       746 0.00000E+00 0.00000E+00 0.00000E+00 0.00000E+00 0.00000E+00 0.00000E+00
 -1       747 0.00000E+00 0.00000E+00 0.00000E+00 0.00000E+00 0.00000E+00 0.00000E+00
 -1       748 0.00000E+00 0.00000E+00 0.00000E+00 0.00000E+00 0.00000E+00 0.00000E+00
 -1       749 0.00000E+00 0.00000E+00 0.00000E+00 0.00000E+00 0.00000E+00 0.00000E+00
 -1       750 0.00000E+00 0.00000E+00 0.00000E+00 0.00000E+00 0.00000E+00 0.00000E+00
 -1       751 0.00000E+00 0.00000E+00 0.00000E+00 0.00000E+00 0.00000E+00 0.00000E+00
 -1       752 0.00000E+00 0.00000E+00 0.00000E+00 0.00000E+00 0.00000E+00 0.00000E+00
 -1       753 0.00000E+00 0.00000E+00 0.00000E+00 0.00000E+00 0.00000E+00 0.00000E+00
 -1       754 0.00000E+00 0.00000E+00 0.00000E+00 0.00000E+00 0.00000E+00 0.00000E+00
 -1       755 0.00000E+00 0.00000E+00 0.00000E+00 0.00000E+00 0.00000E+00 0.00000E+00
 -1       756 0.00000E+00 0.00000E+00 0.00000E+00 0.00000E+00 0.00000E+00 0.00000E+00
 -1       757 0.00000E+00 0.00000E+00 0.00000E+00 0.00000E+00 0.00000E+00 0.00000E+00
 -1       758 0.00000E+00 0.00000E+00 0.00000E+00 0.00000E+00 0.00000E+00 0.00000E+00
 -1       759 0.00000E+00 0.00000E+00 0.00000E+00 0.00000E+00 0.00000E+00 0.00000E+00
 -1       760 0.00000E+00 0.00000E+00 0.00000E+00 0.00000E+00 0.00000E+00 0.00000E+00
 -1       761 0.00000E+00 0.00000E+00 0.00000E+00 0.00000E+00 0.00000E+00 0.00000E+00
 -1       762 0.00000E+00 0.00000E+00 0.00000E+00 0.00000E+00 0.00000E+00 0.00000E+00
 -1       763 0.00000E+00 0.00000E+00 0.00000E+00 0.00000E+00 0.00000E+00 0.00000E+00
 -1       764 0.00000E+00 0.00000E+00 0.00000E+00 0.00000E+00 0.00000E+00 0.00000E+00
 -1       765 0.00000E+00 0.00000E+00 0.00000E+00 0.00000E+00 0.00000E+00 0.00000E+00
 -1       766 0.00000E+00 0.00000E+00 0.00000E+00 0.00000E+00 0.00000E+00 0.00000E+00
 -1       767 0.00000E+00 0.00000E+00 0.00000E+00 0.00000E+00 0.00000E+00 0.00000E+00
 -1       768 0.00000E+00 0.00000E+00 0.00000E+00 0.00000E+00 0.00000E+00 0.00000E+00
 -1       769 0.00000E+00 0.00000E+00 0.00000E+00 0.00000E+00 0.00000E+00 0.00000E+00
 -1       770 0.00000E+00 0.00000E+00 0.00000E+00 0.00000E+00 0.00000E+00 0.00000E+00
 -1       771 0.00000E+00 0.00000E+00 0.00000E+00 0.00000E+00 0.00000E+00 0.00000E+00
 -1       772 0.00000E+00 0.00000E+00 0.00000E+00 0.00000E+00 0.00000E+00 0.00000E+00
 -1       773 0.00000E+00 0.00000E+00 0.00000E+00 0.00000E+00 0.00000E+00 0.00000E+00
 -1       774 0.00000E+00 0.00000E+00 0.00000E+00 0.00000E+00 0.00000E+00 0.00000E+00
 -1       775 0.00000E+00 0.00000E+00 0.00000E+00 0.00000E+00 0.00000E+00 0.00000E+00
 -1       776 0.00000E+00 0.00000E+00 0.00000E+00 0.00000E+00 0.00000E+00 0.00000E+00
 -1       777 0.00000E+00 0.00000E+00 0.00000E+00 0.00000E+00 0.00000E+00 0.00000E+00
 -1       778 0.00000E+00 0.00000E+00 0.00000E+00 0.00000E+00 0.00000E+00 0.00000E+00
 -1       779 0.00000E+00 0.00000E+00 0.00000E+00 0.00000E+00 0.00000E+00 0.00000E+00
 -1       780 0.00000E+00 0.00000E+00 0.00000E+00 0.00000E+00 0.00000E+00 0.00000E+00
 -1       781 0.00000E+00 0.00000E+00 0.00000E+00 0.00000E+00 0.00000E+00 0.00000E+00
 -1       782 0.00000E+00 0.00000E+00 0.00000E+00 0.00000E+00 0.00000E+00 0.00000E+00
 -1       783 0.00000E+00 0.00000E+00 0.00000E+00 0.00000E+00 0.00000E+00 0.00000E+00
 -1       784 0.00000E+00 0.00000E+00 0.00000E+00 0.00000E+00 0.00000E+00 0.00000E+00
 -1       785 0.00000E+00 0.00000E+00 0.00000E+00 0.00000E+00 0.00000E+00 0.00000E+00
 -1       786 0.00000E+00 0.00000E+00 0.00000E+00 0.00000E+00 0.00000E+00 0.00000E+00
 -1       787 0.00000E+00 0.00000E+00 0.00000E+00 0.00000E+00 0.00000E+00 0.00000E+00
 -1       788 0.00000E+00 0.00000E+00 0.00000E+00 0.00000E+00 0.00000E+00 0.00000E+00
 -1       789 0.00000E+00 0.00000E+00 0.00000E+00 0.00000E+00 0.00000E+00 0.00000E+00
 -1       790 0.00000E+00 0.00000E+00 0.00000E+00 0.00000E+00 0.00000E+00 0.00000E+00
 -1       791 0.00000E+00 0.00000E+00 0.00000E+00 0.00000E+00 0.00000E+00 0.00000E+00
 -1       792 0.00000E+00 0.00000E+00 0.00000E+00 0.00000E+00 0.00000E+00 0.00000E+00
 -1       793 0.00000E+00 0.00000E+00 0.00000E+00 0.00000E+00 0.00000E+00 0.00000E+00
 -1       794 0.00000E+00 0.00000E+00 0.00000E+00 0.00000E+00 0.00000E+00 0.00000E+00
 -1       795 0.00000E+00 0.00000E+00 0.00000E+00 0.00000E+00 0.00000E+00 0.00000E+00
 -1       796 0.00000E+00 0.00000E+00 0.00000E+00 0.00000E+00 0.00000E+00 0.00000E+00
 -1       797 0.00000E+00 0.00000E+00 0.00000E+00 0.00000E+00 0.00000E+00 0.00000E+00
 -1       798 0.00000E+00 0.00000E+00 0.00000E+00 0.00000E+00 0.00000E+00 0.00000E+00
 -1       799 0.00000E+00 0.00000E+00 0.00000E+00 0.00000E+00 0.00000E+00 0.00000E+00
 -1       800 0.00000E+00 0.00000E+00 0.00000E+00 0.00000E+00 0.00000E+00 0.00000E+00
 -1       801 0.00000E+00 0.00000E+00 0.00000E+00 0.00000E+00 0.00000E+00 0.00000E+00
 -1       802 0.00000E+00 0.00000E+00 0.00000E+00 0.00000E+00 0.00000E+00 0.00000E+00
 -1       803 0.00000E+00 0.00000E+00 0.00000E+00 0.00000E+00 0.00000E+00 0.00000E+00
 -1       804 0.00000E+00 0.00000E+00 0.00000E+00 0.00000E+00 0.00000E+00 0.00000E+00
 -1       805 0.00000E+00 0.00000E+00 0.00000E+00 0.00000E+00 0.00000E+00 0.00000E+00
 -1       806 0.00000E+00 0.00000E+00 0.00000E+00 0.00000E+00 0.00000E+00 0.00000E+00
 -1       807 0.00000E+00 0.00000E+00 0.00000E+00 0.00000E+00 0.00000E+00 0.00000E+00
 -1       808 0.00000E+00 0.00000E+00 0.00000E+00 0.00000E+00 0.00000E+00 0.00000E+00
 -1       809 0.00000E+00 0.00000E+00 0.00000E+00 0.00000E+00 0.00000E+00 0.00000E+00
 -1       810 0.00000E+00 0.00000E+00 0.00000E+00 0.00000E+00 0.00000E+00 0.00000E+00
 -1       811 0.00000E+00 0.00000E+00 0.00000E+00 0.00000E+00 0.00000E+00 0.00000E+00
 -1       812 0.00000E+00 0.00000E+00 0.00000E+00 0.00000E+00 0.00000E+00 0.00000E+00
 -1       813 0.00000E+00 0.00000E+00 0.00000E+00 0.00000E+00 0.00000E+00 0.00000E+00
 -1       814 0.00000E+00 0.00000E+00 0.00000E+00 0.00000E+00 0.00000E+00 0.00000E+00
 -1       815 0.00000E+00 0.00000E+00 0.00000E+00 0.00000E+00 0.00000E+00 0.00000E+00
 -1       816 0.00000E+00 0.00000E+00 0.00000E+00 0.00000E+00 0.00000E+00 0.00000E+00
 -1       817 0.00000E+00 0.00000E+00 0.00000E+00 0.00000E+00 0.00000E+00 0.00000E+00
 -1       818 0.00000E+00 0.00000E+00 0.00000E+00 0.00000E+00 0.00000E+00 0.00000E+00
 -1       819 0.00000E+00 0.00000E+00 0.00000E+00 0.00000E+00 0.00000E+00 0.00000E+00
 -1       820 0.00000E+00 0.00000E+00 0.00000E+00 0.00000E+00 0.00000E+00 0.00000E+00
 -1       821 0.00000E+00 0.00000E+00 0.00000E+00 0.00000E+00 0.00000E+00 0.00000E+00
 -1       822 0.00000E+00 0.00000E+00 0.00000E+00 0.00000E+00 0.00000E+00 0.00000E+00
 -1       823 0.00000E+00 0.00000E+00 0.00000E+00 0.00000E+00 0.00000E+00 0.00000E+00
 -1       824 0.00000E+00 0.00000E+00 0.00000E+00 0.00000E+00 0.00000E+00 0.00000E+00
 -1       825 0.00000E+00 0.00000E+00 0.00000E+00 0.00000E+00 0.00000E+00 0.00000E+00
 -1       826 0.00000E+00 0.00000E+00 0.00000E+00 0.00000E+00 0.00000E+00 0.00000E+00
 -1       827 0.00000E+00 0.00000E+00 0.00000E+00 0.00000E+00 0.00000E+00 0.00000E+00
 -1       828 0.00000E+00 0.00000E+00 0.00000E+00 0.00000E+00 0.00000E+00 0.00000E+00
 -1       829 0.00000E+00 0.00000E+00 0.00000E+00 0.00000E+00 0.00000E+00 0.00000E+00
 -1       830 0.00000E+00 0.00000E+00 0.00000E+00 0.00000E+00 0.00000E+00 0.00000E+00
 -1       831 0.00000E+00 0.00000E+00 0.00000E+00 0.00000E+00 0.00000E+00 0.00000E+00
 -1       832 0.00000E+00 0.00000E+00 0.00000E+00 0.00000E+00 0.00000E+00 0.00000E+00
 -1       833 0.00000E+00 0.00000E+00 0.00000E+00 0.00000E+00 0.00000E+00 0.00000E+00
 -1       834 0.00000E+00 0.00000E+00 0.00000E+00 0.00000E+00 0.00000E+00 0.00000E+00
 -1       835 0.00000E+00 0.00000E+00 0.00000E+00 0.00000E+00 0.00000E+00 0.00000E+00
 -1       836 0.00000E+00 0.00000E+00 0.00000E+00 0.00000E+00 0.00000E+00 0.00000E+00
 -1       837 0.00000E+00 0.00000E+00 0.00000E+00 0.00000E+00 0.00000E+00 0.00000E+00
 -1       838 0.00000E+00 0.00000E+00 0.00000E+00 0.00000E+00 0.00000E+00 0.00000E+00
 -1       839 0.00000E+00 0.00000E+00 0.00000E+00 0.00000E+00 0.00000E+00 0.00000E+00
 -1       840 0.00000E+00 0.00000E+00 0.00000E+00 0.00000E+00 0.00000E+00 0.00000E+00
 -1       841 0.00000E+00 0.00000E+00 0.00000E+00 0.00000E+00 0.00000E+00 0.00000E+00
 -1       842 0.00000E+00 0.00000E+00 0.00000E+00 0.00000E+00 0.00000E+00 0.00000E+00
 -1       843 0.00000E+00 0.00000E+00 0.00000E+00 0.00000E+00 0.00000E+00 0.00000E+00
 -1       844 0.00000E+00 0.00000E+00 0.00000E+00 0.00000E+00 0.00000E+00 0.00000E+00
 -1       845 0.00000E+00 0.00000E+00 0.00000E+00 0.00000E+00 0.00000E+00 0.00000E+00
 -1       846 0.00000E+00 0.00000E+00 0.00000E+00 0.00000E+00 0.00000E+00 0.00000E+00
 -1       847 0.00000E+00 0.00000E+00 0.00000E+00 0.00000E+00 0.00000E+00 0.00000E+00
 -1       848 0.00000E+00 0.00000E+00 0.00000E+00 0.00000E+00 0.00000E+00 0.00000E+00
 -1       849 0.00000E+00 0.00000E+00 0.00000E+00 0.00000E+00 0.00000E+00 0.00000E+00
 -1       850 0.00000E+00 0.00000E+00 0.00000E+00 0.00000E+00 0.00000E+00 0.00000E+00
 -1       851 0.00000E+00 0.00000E+00 0.00000E+00 0.00000E+00 0.00000E+00 0.00000E+00
 -1       852 0.00000E+00 0.00000E+00 0.00000E+00 0.00000E+00 0.00000E+00 0.00000E+00
 -1       853 0.00000E+00 0.00000E+00 0.00000E+00 0.00000E+00 0.00000E+00 0.00000E+00
 -1       854 0.00000E+00 0.00000E+00 0.00000E+00 0.00000E+00 0.00000E+00 0.00000E+00
 -1       855 0.00000E+00 0.00000E+00 0.00000E+00 0.00000E+00 0.00000E+00 0.00000E+00
 -1       856 0.00000E+00 0.00000E+00 0.00000E+00 0.00000E+00 0.00000E+00 0.00000E+00
 -1       857 0.00000E+00 0.00000E+00 0.00000E+00 0.00000E+00 0.00000E+00 0.00000E+00
 -1       858 0.00000E+00 0.00000E+00 0.00000E+00 0.00000E+00 0.00000E+00 0.00000E+00
 -1       859 0.00000E+00 0.00000E+00 0.00000E+00 0.00000E+00 0.00000E+00 0.00000E+00
 -1       860 0.00000E+00 0.00000E+00 0.00000E+00 0.00000E+00 0.00000E+00 0.00000E+00
 -1       861 0.00000E+00 0.00000E+00 0.00000E+00 0.00000E+00 0.00000E+00 0.00000E+00
 -1       862 0.00000E+00 0.00000E+00 0.00000E+00 0.00000E+00 0.00000E+00 0.00000E+00
 -1       863 0.00000E+00 0.00000E+00 0.00000E+00 0.00000E+00 0.00000E+00 0.00000E+00
 -1       864 0.00000E+00 0.00000E+00 0.00000E+00 0.00000E+00 0.00000E+00 0.00000E+00
 -1       865 0.00000E+00 0.00000E+00 0.00000E+00 0.00000E+00 0.00000E+00 0.00000E+00
 -1       866 0.00000E+00 0.00000E+00 0.00000E+00 0.00000E+00 0.00000E+00 0.00000E+00
 -1       867 0.00000E+00 0.00000E+00 0.00000E+00 0.00000E+00 0.00000E+00 0.00000E+00
 -1       868 0.00000E+00 0.00000E+00 0.00000E+00 0.00000E+00 0.00000E+00 0.00000E+00
 -1       869 0.00000E+00 0.00000E+00 0.00000E+00 0.00000E+00 0.00000E+00 0.00000E+00
 -1       870 0.00000E+00 0.00000E+00 0.00000E+00 0.00000E+00 0.00000E+00 0.00000E+00
 -1       871 0.00000E+00 0.00000E+00 0.00000E+00 0.00000E+00 0.00000E+00 0.00000E+00
 -1       872 0.00000E+00 0.00000E+00 0.00000E+00 0.00000E+00 0.00000E+00 0.00000E+00
 -1       873 0.00000E+00 0.00000E+00 0.00000E+00 0.00000E+00 0.00000E+00 0.00000E+00
 -1       874 0.00000E+00 0.00000E+00 0.00000E+00 0.00000E+00 0.00000E+00 0.00000E+00
 -1       875 0.00000E+00 0.00000E+00 0.00000E+00 0.00000E+00 0.00000E+00 0.00000E+00
 -1       876 0.00000E+00 0.00000E+00 0.00000E+00 0.00000E+00 0.00000E+00 0.00000E+00
 -1       877 0.00000E+00 0.00000E+00 0.00000E+00 0.00000E+00 0.00000E+00 0.00000E+00
 -1       878 0.00000E+00 0.00000E+00 0.00000E+00 0.00000E+00 0.00000E+00 0.00000E+00
 -1       879 0.00000E+00 0.00000E+00 0.00000E+00 0.00000E+00 0.00000E+00 0.00000E+00
 -1       880 0.00000E+00 0.00000E+00 0.00000E+00 0.00000E+00 0.00000E+00 0.00000E+00
 -1       881 0.00000E+00 0.00000E+00 0.00000E+00 0.00000E+00 0.00000E+00 0.00000E+00
 -1       882 0.00000E+00 0.00000E+00 0.00000E+00 0.00000E+00 0.00000E+00 0.00000E+00
 -1       883 0.00000E+00 0.00000E+00 0.00000E+00 0.00000E+00 0.00000E+00 0.00000E+00
 -1       884 0.00000E+00 0.00000E+00 0.00000E+00 0.00000E+00 0.00000E+00 0.00000E+00
 -1       885 0.00000E+00 0.00000E+00 0.00000E+00 0.00000E+00 0.00000E+00 0.00000E+00
 -1       886 0.00000E+00 0.00000E+00 0.00000E+00 0.00000E+00 0.00000E+00 0.00000E+00
 -1       887 0.00000E+00 0.00000E+00 0.00000E+00 0.00000E+00 0.00000E+00 0.00000E+00
 -1       888 0.00000E+00 0.00000E+00 0.00000E+00 0.00000E+00 0.00000E+00 0.00000E+00
 -1       889 0.00000E+00 0.00000E+00 0.00000E+00 0.00000E+00 0.00000E+00 0.00000E+00
 -1       890 0.00000E+00 0.00000E+00 0.00000E+00 0.00000E+00 0.00000E+00 0.00000E+00
 -1       891 0.00000E+00 0.00000E+00 0.00000E+00 0.00000E+00 0.00000E+00 0.00000E+00
 -1       892 0.00000E+00 0.00000E+00 0.00000E+00 0.00000E+00 0.00000E+00 0.00000E+00
 -1       893 0.00000E+00 0.00000E+00 0.00000E+00 0.00000E+00 0.00000E+00 0.00000E+00
 -1       894 0.00000E+00 0.00000E+00 0.00000E+00 0.00000E+00 0.00000E+00 0.00000E+00
 -1       895 0.00000E+00 0.00000E+00 0.00000E+00 0.00000E+00 0.00000E+00 0.00000E+00
 -1       896 0.00000E+00 0.00000E+00 0.00000E+00 0.00000E+00 0.00000E+00 0.00000E+00
 -1       897 0.00000E+00 0.00000E+00 0.00000E+00 0.00000E+00 0.00000E+00 0.00000E+00
 -1       898 0.00000E+00 0.00000E+00 0.00000E+00 0.00000E+00 0.00000E+00 0.00000E+00
 -1       899 0.00000E+00 0.00000E+00 0.00000E+00 0.00000E+00 0.00000E+00 0.00000E+00
 -1       900 0.00000E+00 0.00000E+00 0.00000E+00 0.00000E+00 0.00000E+00 0.00000E+00
 -1       901 0.00000E+00 0.00000E+00 0.00000E+00 0.00000E+00 0.00000E+00 0.00000E+00
 -1       902 0.00000E+00 0.00000E+00 0.00000E+00 0.00000E+00 0.00000E+00 0.00000E+00
 -1       903 0.00000E+00 0.00000E+00 0.00000E+00 0.00000E+00 0.00000E+00 0.00000E+00
 -1       904 0.00000E+00 0.00000E+00 0.00000E+00 0.00000E+00 0.00000E+00 0.00000E+00
 -1       905 0.00000E+00 0.00000E+00 0.00000E+00 0.00000E+00 0.00000E+00 0.00000E+00
 -1       906 0.00000E+00 0.00000E+00 0.00000E+00 0.00000E+00 0.00000E+00 0.00000E+00
 -1       907 0.00000E+00 0.00000E+00 0.00000E+00 0.00000E+00 0.00000E+00 0.00000E+00
 -1       908 0.00000E+00 0.00000E+00 0.00000E+00 0.00000E+00 0.00000E+00 0.00000E+00
 -1       909 0.00000E+00 0.00000E+00 0.00000E+00 0.00000E+00 0.00000E+00 0.00000E+00
 -1       910 0.00000E+00 0.00000E+00 0.00000E+00 0.00000E+00 0.00000E+00 0.00000E+00
 -1       911 0.00000E+00 0.00000E+00 0.00000E+00 0.00000E+00 0.00000E+00 0.00000E+00
 -1       912 0.00000E+00 0.00000E+00 0.00000E+00 0.00000E+00 0.00000E+00 0.00000E+00
 -1       913 0.00000E+00 0.00000E+00 0.00000E+00 0.00000E+00 0.00000E+00 0.00000E+00
 -1       914 0.00000E+00 0.00000E+00 0.00000E+00 0.00000E+00 0.00000E+00 0.00000E+00
 -1       915 0.00000E+00 0.00000E+00 0.00000E+00 0.00000E+00 0.00000E+00 0.00000E+00
 -1       916 0.00000E+00 0.00000E+00 0.00000E+00 0.00000E+00 0.00000E+00 0.00000E+00
 -1       917 0.00000E+00 0.00000E+00 0.00000E+00 0.00000E+00 0.00000E+00 0.00000E+00
 -1       918 0.00000E+00 0.00000E+00 0.00000E+00 0.00000E+00 0.00000E+00 0.00000E+00
 -1       919 0.00000E+00 0.00000E+00 0.00000E+00 0.00000E+00 0.00000E+00 0.00000E+00
 -1       920 0.00000E+00 0.00000E+00 0.00000E+00 0.00000E+00 0.00000E+00 0.00000E+00
 -1       921 0.00000E+00 0.00000E+00 0.00000E+00 0.00000E+00 0.00000E+00 0.00000E+00
 -1       922 0.00000E+00 0.00000E+00 0.00000E+00 0.00000E+00 0.00000E+00 0.00000E+00
 -1       923 0.00000E+00 0.00000E+00 0.00000E+00 0.00000E+00 0.00000E+00 0.00000E+00
 -1       924 0.00000E+00 0.00000E+00 0.00000E+00 0.00000E+00 0.00000E+00 0.00000E+00
 -1       925 0.00000E+00 0.00000E+00 0.00000E+00 0.00000E+00 0.00000E+00 0.00000E+00
 -1       926 0.00000E+00 0.00000E+00 0.00000E+00 0.00000E+00 0.00000E+00 0.00000E+00
 -1       927 0.00000E+00 0.00000E+00 0.00000E+00 0.00000E+00 0.00000E+00 0.00000E+00
 -1       928 0.00000E+00 0.00000E+00 0.00000E+00 0.00000E+00 0.00000E+00 0.00000E+00
 -1       929 0.00000E+00 0.00000E+00 0.00000E+00 0.00000E+00 0.00000E+00 0.00000E+00
 -1       930 0.00000E+00 0.00000E+00 0.00000E+00 0.00000E+00 0.00000E+00 0.00000E+00
 -1       931 0.00000E+00 0.00000E+00 0.00000E+00 0.00000E+00 0.00000E+00 0.00000E+00
 -1       932 0.00000E+00 0.00000E+00 0.00000E+00 0.00000E+00 0.00000E+00 0.00000E+00
 -1       933 0.00000E+00 0.00000E+00 0.00000E+00 0.00000E+00 0.00000E+00 0.00000E+00
 -1       934 0.00000E+00 0.00000E+00 0.00000E+00 0.00000E+00 0.00000E+00 0.00000E+00
 -1       935 0.00000E+00 0.00000E+00 0.00000E+00 0.00000E+00 0.00000E+00 0.00000E+00
 -1       936 0.00000E+00 0.00000E+00 0.00000E+00 0.00000E+00 0.00000E+00 0.00000E+00
 -1       937 0.00000E+00 0.00000E+00 0.00000E+00 0.00000E+00 0.00000E+00 0.00000E+00
 -1       938 0.00000E+00 0.00000E+00 0.00000E+00 0.00000E+00 0.00000E+00 0.00000E+00
 -1       939 0.00000E+00 0.00000E+00 0.00000E+00 0.00000E+00 0.00000E+00 0.00000E+00
 -1       940 0.00000E+00 0.00000E+00 0.00000E+00 0.00000E+00 0.00000E+00 0.00000E+00
 -1       941 0.00000E+00 0.00000E+00 0.00000E+00 0.00000E+00 0.00000E+00 0.00000E+00
 -1       942 0.00000E+00 0.00000E+00 0.00000E+00 0.00000E+00 0.00000E+00 0.00000E+00
 -1       943 0.00000E+00 0.00000E+00 0.00000E+00 0.00000E+00 0.00000E+00 0.00000E+00
 -1       944 0.00000E+00 0.00000E+00 0.00000E+00 0.00000E+00 0.00000E+00 0.00000E+00
 -1       945 0.00000E+00 0.00000E+00 0.00000E+00 0.00000E+00 0.00000E+00 0.00000E+00
 -1       946 0.00000E+00 0.00000E+00 0.00000E+00 0.00000E+00 0.00000E+00 0.00000E+00
 -1       947 0.00000E+00 0.00000E+00 0.00000E+00 0.00000E+00 0.00000E+00 0.00000E+00
 -1       948 0.00000E+00 0.00000E+00 0.00000E+00 0.00000E+00 0.00000E+00 0.00000E+00
 -1       949 0.00000E+00 0.00000E+00 0.00000E+00 0.00000E+00 0.00000E+00 0.00000E+00
 -1       950 0.00000E+00 0.00000E+00 0.00000E+00 0.00000E+00 0.00000E+00 0.00000E+00
 -1       951 0.00000E+00 0.00000E+00 0.00000E+00 0.00000E+00 0.00000E+00 0.00000E+00
 -1       952 0.00000E+00 0.00000E+00 0.00000E+00 0.00000E+00 0.00000E+00 0.00000E+00
 -1       953 0.00000E+00 0.00000E+00 0.00000E+00 0.00000E+00 0.00000E+00 0.00000E+00
 -1       954 0.00000E+00 0.00000E+00 0.00000E+00 0.00000E+00 0.00000E+00 0.00000E+00
 -1       955 0.00000E+00 0.00000E+00 0.00000E+00 0.00000E+00 0.00000E+00 0.00000E+00
 -1       956 0.00000E+00 0.00000E+00 0.00000E+00 0.00000E+00 0.00000E+00 0.00000E+00
 -1       957 0.00000E+00 0.00000E+00 0.00000E+00 0.00000E+00 0.00000E+00 0.00000E+00
 -1       958 0.00000E+00 0.00000E+00 0.00000E+00 0.00000E+00 0.00000E+00 0.00000E+00
 -1       959 0.00000E+00 0.00000E+00 0.00000E+00 0.00000E+00 0.00000E+00 0.00000E+00
 -1       960 0.00000E+00 0.00000E+00 0.00000E+00 0.00000E+00 0.00000E+00 0.00000E+00
 -1       961 0.00000E+00 0.00000E+00 0.00000E+00 0.00000E+00 0.00000E+00 0.00000E+00
 -1       962 0.00000E+00 0.00000E+00 0.00000E+00 0.00000E+00 0.00000E+00 0.00000E+00
 -1       963 0.00000E+00 0.00000E+00 0.00000E+00 0.00000E+00 0.00000E+00 0.00000E+00
 -1       964 0.00000E+00 0.00000E+00 0.00000E+00 0.00000E+00 0.00000E+00 0.00000E+00
 -1       965 0.00000E+00 0.00000E+00 0.00000E+00 0.00000E+00 0.00000E+00 0.00000E+00
 -1       966 0.00000E+00 0.00000E+00 0.00000E+00 0.00000E+00 0.00000E+00 0.00000E+00
 -1       967 0.00000E+00 0.00000E+00 0.00000E+00 0.00000E+00 0.00000E+00 0.00000E+00
 -1       968 0.00000E+00 0.00000E+00 0.00000E+00 0.00000E+00 0.00000E+00 0.00000E+00
 -1       969 0.00000E+00 0.00000E+00 0.00000E+00 0.00000E+00 0.00000E+00 0.00000E+00
 -1       970 0.00000E+00 0.00000E+00 0.00000E+00 0.00000E+00 0.00000E+00 0.00000E+00
 -1       971 0.00000E+00 0.00000E+00 0.00000E+00 0.00000E+00 0.00000E+00 0.00000E+00
 -1       972 0.00000E+00 0.00000E+00 0.00000E+00 0.00000E+00 0.00000E+00 0.00000E+00
 -1       973 0.00000E+00 0.00000E+00 0.00000E+00 0.00000E+00 0.00000E+00 0.00000E+00
 -1       974 0.00000E+00 0.00000E+00 0.00000E+00 0.00000E+00 0.00000E+00 0.00000E+00
 -1       975 0.00000E+00 0.00000E+00 0.00000E+00 0.00000E+00 0.00000E+00 0.00000E+00
 -1       976 0.00000E+00 0.00000E+00 0.00000E+00 0.00000E+00 0.00000E+00 0.00000E+00
 -1       977 0.00000E+00 0.00000E+00 0.00000E+00 0.00000E+00 0.00000E+00 0.00000E+00
 -1       978 0.00000E+00 0.00000E+00 0.00000E+00 0.00000E+00 0.00000E+00 0.00000E+00
 -1       979 0.00000E+00 0.00000E+00 0.00000E+00 0.00000E+00 0.00000E+00 0.00000E+00
 -1       980 0.00000E+00 0.00000E+00 0.00000E+00 0.00000E+00 0.00000E+00 0.00000E+00
 -1       981 0.00000E+00 0.00000E+00 0.00000E+00 0.00000E+00 0.00000E+00 0.00000E+00
 -1       982 0.00000E+00 0.00000E+00 0.00000E+00 0.00000E+00 0.00000E+00 0.00000E+00
 -1       983 0.00000E+00 0.00000E+00 0.00000E+00 0.00000E+00 0.00000E+00 0.00000E+00
 -1       984 0.00000E+00 0.00000E+00 0.00000E+00 0.00000E+00 0.00000E+00 0.00000E+00
 -1       985 0.00000E+00 0.00000E+00 0.00000E+00 0.00000E+00 0.00000E+00 0.00000E+00
 -1       986 0.00000E+00 0.00000E+00 0.00000E+00 0.00000E+00 0.00000E+00 0.00000E+00
 -1       987 0.00000E+00 0.00000E+00 0.00000E+00 0.00000E+00 0.00000E+00 0.00000E+00
 -1       988 0.00000E+00 0.00000E+00 0.00000E+00 0.00000E+00 0.00000E+00 0.00000E+00
 -1       989 0.00000E+00 0.00000E+00 0.00000E+00 0.00000E+00 0.00000E+00 0.00000E+00
 -1       990 0.00000E+00 0.00000E+00 0.00000E+00 0.00000E+00 0.00000E+00 0.00000E+00
 -1       991 0.00000E+00 0.00000E+00 0.00000E+00 0.00000E+00 0.00000E+00 0.00000E+00
 -1       992 0.00000E+00 0.00000E+00 0.00000E+00 0.00000E+00 0.00000E+00 0.00000E+00
 -1       993 0.00000E+00 0.00000E+00 0.00000E+00 0.00000E+00 0.00000E+00 0.00000E+00
 -1       994 0.00000E+00 0.00000E+00 0.00000E+00 0.00000E+00 0.00000E+00 0.00000E+00
 -1       995 0.00000E+00 0.00000E+00 0.00000E+00 0.00000E+00 0.00000E+00 0.00000E+00
 -1       996 0.00000E+00 0.00000E+00 0.00000E+00 0.00000E+00 0.00000E+00 0.00000E+00
 -1       997 0.00000E+00 0.00000E+00 0.00000E+00 0.00000E+00 0.00000E+00 0.00000E+00
 -1       998 0.00000E+00 0.00000E+00 0.00000E+00 0.00000E+00 0.00000E+00 0.00000E+00
 -1       999 0.00000E+00 0.00000E+00 0.00000E+00 0.00000E+00 0.00000E+00 0.00000E+00
 -1      1000 0.00000E+00 0.00000E+00 0.00000E+00 0.00000E+00 0.00000E+00 0.00000E+00
 -1      1001 0.00000E+00 0.00000E+00 0.00000E+00 0.00000E+00 0.00000E+00 0.00000E+00
 -1      1002 0.00000E+00 0.00000E+00 0.00000E+00 0.00000E+00 0.00000E+00 0.00000E+00
 -1      1003 0.00000E+00 0.00000E+00 0.00000E+00 0.00000E+00 0.00000E+00 0.00000E+00
 -1      1004 0.00000E+00 0.00000E+00 0.00000E+00 0.00000E+00 0.00000E+00 0.00000E+00
 -1      1005 0.00000E+00 0.00000E+00 0.00000E+00 0.00000E+00 0.00000E+00 0.00000E+00
 -1      1006 0.00000E+00 0.00000E+00 0.00000E+00 0.00000E+00 0.00000E+00 0.00000E+00
 -1      1007 0.00000E+00 0.00000E+00 0.00000E+00 0.00000E+00 0.00000E+00 0.00000E+00
 -1      1008 0.00000E+00 0.00000E+00 0.00000E+00 0.00000E+00 0.00000E+00 0.00000E+00
 -1      1009 0.00000E+00 0.00000E+00 0.00000E+00 0.00000E+00 0.00000E+00 0.00000E+00
 -1      1010 0.00000E+00 0.00000E+00 0.00000E+00 0.00000E+00 0.00000E+00 0.00000E+00
 -1      1011 0.00000E+00 0.00000E+00 0.00000E+00 0.00000E+00 0.00000E+00 0.00000E+00
 -1      1012 0.00000E+00 0.00000E+00 0.00000E+00 0.00000E+00 0.00000E+00 0.00000E+00
 -1      1013 0.00000E+00 0.00000E+00 0.00000E+00 0.00000E+00 0.00000E+00 0.00000E+00
 -1      1014 0.00000E+00 0.00000E+00 0.00000E+00 0.00000E+00 0.00000E+00 0.00000E+00
 -1      1015 0.00000E+00 0.00000E+00 0.00000E+00 0.00000E+00 0.00000E+00 0.00000E+00
 -1      1016 0.00000E+00 0.00000E+00 0.00000E+00 0.00000E+00 0.00000E+00 0.00000E+00
 -1      1017 0.00000E+00 0.00000E+00 0.00000E+00 0.00000E+00 0.00000E+00 0.00000E+00
 -1      1018 0.00000E+00 0.00000E+00 0.00000E+00 0.00000E+00 0.00000E+00 0.00000E+00
 -1      1019 0.00000E+00 0.00000E+00 0.00000E+00 0.00000E+00 0.00000E+00 0.00000E+00
 -1      1020 0.00000E+00 0.00000E+00 0.00000E+00 0.00000E+00 0.00000E+00 0.00000E+00
 -1      1021 0.00000E+00 0.00000E+00 0.00000E+00 0.00000E+00 0.00000E+00 0.00000E+00
 -1      1022 0.00000E+00 0.00000E+00 0.00000E+00 0.00000E+00 0.00000E+00 0.00000E+00
 -1      1023 0.00000E+00 0.00000E+00 0.00000E+00 0.00000E+00 0.00000E+00 0.00000E+00
 -1      1024 0.00000E+00 0.00000E+00 0.00000E+00 0.00000E+00 0.00000E+00 0.00000E+00
 -1      1025 0.00000E+00 0.00000E+00 0.00000E+00 0.00000E+00 0.00000E+00 0.00000E+00
 -1      1026 0.00000E+00 0.00000E+00 0.00000E+00 0.00000E+00 0.00000E+00 0.00000E+00
 -1      1027 0.00000E+00 0.00000E+00 0.00000E+00 0.00000E+00 0.00000E+00 0.00000E+00
 -1      1028 0.00000E+00 0.00000E+00 0.00000E+00 0.00000E+00 0.00000E+00 0.00000E+00
 -1      1029 0.00000E+00 0.00000E+00 0.00000E+00 0.00000E+00 0.00000E+00 0.00000E+00
 -1      1030 0.00000E+00 0.00000E+00 0.00000E+00 0.00000E+00 0.00000E+00 0.00000E+00
 -1      1031 0.00000E+00 0.00000E+00 0.00000E+00 0.00000E+00 0.00000E+00 0.00000E+00
 -1      1032 0.00000E+00 0.00000E+00 0.00000E+00 0.00000E+00 0.00000E+00 0.00000E+00
 -1      1033 0.00000E+00 0.00000E+00 0.00000E+00 0.00000E+00 0.00000E+00 0.00000E+00
 -1      1034 0.00000E+00 0.00000E+00 0.00000E+00 0.00000E+00 0.00000E+00 0.00000E+00
 -1      1035 0.00000E+00 0.00000E+00 0.00000E+00 0.00000E+00 0.00000E+00 0.00000E+00
 -1      1036 0.00000E+00 0.00000E+00 0.00000E+00 0.00000E+00 0.00000E+00 0.00000E+00
 -1      1037 0.00000E+00 0.00000E+00 0.00000E+00 0.00000E+00 0.00000E+00 0.00000E+00
 -1      1038 0.00000E+00 0.00000E+00 0.00000E+00 0.00000E+00 0.00000E+00 0.00000E+00
 -1      1039 0.00000E+00 0.00000E+00 0.00000E+00 0.00000E+00 0.00000E+00 0.00000E+00
 -1      1040 0.00000E+00 0.00000E+00 0.00000E+00 0.00000E+00 0.00000E+00 0.00000E+00
 -1      1041 0.00000E+00 0.00000E+00 0.00000E+00 0.00000E+00 0.00000E+00 0.00000E+00
 -1      1042 0.00000E+00 0.00000E+00 0.00000E+00 0.00000E+00 0.00000E+00 0.00000E+00
 -1      1043 0.00000E+00 0.00000E+00 0.00000E+00 0.00000E+00 0.00000E+00 0.00000E+00
 -1      1044 0.00000E+00 0.00000E+00 0.00000E+00 0.00000E+00 0.00000E+00 0.00000E+00
 -1      1045 0.00000E+00 0.00000E+00 0.00000E+00 0.00000E+00 0.00000E+00 0.00000E+00
 -1      1046 0.00000E+00 0.00000E+00 0.00000E+00 0.00000E+00 0.00000E+00 0.00000E+00
 -1      1047 0.00000E+00 0.00000E+00 0.00000E+00 0.00000E+00 0.00000E+00 0.00000E+00
 -1      1048 0.00000E+00 0.00000E+00 0.00000E+00 0.00000E+00 0.00000E+00 0.00000E+00
 -1      1049 0.00000E+00 0.00000E+00 0.00000E+00 0.00000E+00 0.00000E+00 0.00000E+00
 -1      1050 0.00000E+00 0.00000E+00 0.00000E+00 0.00000E+00 0.00000E+00 0.00000E+00
 -1      1051 0.00000E+00 0.00000E+00 0.00000E+00 0.00000E+00 0.00000E+00 0.00000E+00
 -1      1052 0.00000E+00 0.00000E+00 0.00000E+00 0.00000E+00 0.00000E+00 0.00000E+00
 -1      1053 0.00000E+00 0.00000E+00 0.00000E+00 0.00000E+00 0.00000E+00 0.00000E+00
 -1      1054 0.00000E+00 0.00000E+00 0.00000E+00 0.00000E+00 0.00000E+00 0.00000E+00
 -1      1055 0.00000E+00 0.00000E+00 0.00000E+00 0.00000E+00 0.00000E+00 0.00000E+00
 -1      1056 0.00000E+00 0.00000E+00 0.00000E+00 0.00000E+00 0.00000E+00 0.00000E+00
 -1      1057 0.00000E+00 0.00000E+00 0.00000E+00 0.00000E+00 0.00000E+00 0.00000E+00
 -1      1058 0.00000E+00 0.00000E+00 0.00000E+00 0.00000E+00 0.00000E+00 0.00000E+00
 -1      1059 0.00000E+00 0.00000E+00 0.00000E+00 0.00000E+00 0.00000E+00 0.00000E+00
 -1      1060 0.00000E+00 0.00000E+00 0.00000E+00 0.00000E+00 0.00000E+00 0.00000E+00
 -1      1061 0.00000E+00 0.00000E+00 0.00000E+00 0.00000E+00 0.00000E+00 0.00000E+00
 -1      1062 0.00000E+00 0.00000E+00 0.00000E+00 0.00000E+00 0.00000E+00 0.00000E+00
 -1      1063 0.00000E+00 0.00000E+00 0.00000E+00 0.00000E+00 0.00000E+00 0.00000E+00
 -1      1064 0.00000E+00 0.00000E+00 0.00000E+00 0.00000E+00 0.00000E+00 0.00000E+00
 -1      1065 0.00000E+00 0.00000E+00 0.00000E+00 0.00000E+00 0.00000E+00 0.00000E+00
 -1      1066 0.00000E+00 0.00000E+00 0.00000E+00 0.00000E+00 0.00000E+00 0.00000E+00
 -1      1067 0.00000E+00 0.00000E+00 0.00000E+00 0.00000E+00 0.00000E+00 0.00000E+00
 -1      1068 0.00000E+00 0.00000E+00 0.00000E+00 0.00000E+00 0.00000E+00 0.00000E+00
 -1      1069 0.00000E+00 0.00000E+00 0.00000E+00 0.00000E+00 0.00000E+00 0.00000E+00
 -1      1070 0.00000E+00 0.00000E+00 0.00000E+00 0.00000E+00 0.00000E+00 0.00000E+00
 -1      1071 0.00000E+00 0.00000E+00 0.00000E+00 0.00000E+00 0.00000E+00 0.00000E+00
 -1      1072 0.00000E+00 0.00000E+00 0.00000E+00 0.00000E+00 0.00000E+00 0.00000E+00
 -1      1073 0.00000E+00 0.00000E+00 0.00000E+00 0.00000E+00 0.00000E+00 0.00000E+00
 -1      1074 0.00000E+00 0.00000E+00 0.00000E+00 0.00000E+00 0.00000E+00 0.00000E+00
 -1      1075 0.00000E+00 0.00000E+00 0.00000E+00 0.00000E+00 0.00000E+00 0.00000E+00
 -1      1076 0.00000E+00 0.00000E+00 0.00000E+00 0.00000E+00 0.00000E+00 0.00000E+00
 -1      1077 0.00000E+00 0.00000E+00 0.00000E+00 0.00000E+00 0.00000E+00 0.00000E+00
 -1      1078 0.00000E+00 0.00000E+00 0.00000E+00 0.00000E+00 0.00000E+00 0.00000E+00
 -1      1079 0.00000E+00 0.00000E+00 0.00000E+00 0.00000E+00 0.00000E+00 0.00000E+00
 -1      1080 0.00000E+00 0.00000E+00 0.00000E+00 0.00000E+00 0.00000E+00 0.00000E+00
 -1      1081 0.00000E+00 0.00000E+00 0.00000E+00 0.00000E+00 0.00000E+00 0.00000E+00
 -1      1082 0.00000E+00 0.00000E+00 0.00000E+00 0.00000E+00 0.00000E+00 0.00000E+00
 -1      1083 0.00000E+00 0.00000E+00 0.00000E+00 0.00000E+00 0.00000E+00 0.00000E+00
 -1      1084 0.00000E+00 0.00000E+00 0.00000E+00 0.00000E+00 0.00000E+00 0.00000E+00
 -1      1085 0.00000E+00 0.00000E+00 0.00000E+00 0.00000E+00 0.00000E+00 0.00000E+00
 -1      1086 0.00000E+00 0.00000E+00 0.00000E+00 0.00000E+00 0.00000E+00 0.00000E+00
 -1      1087 0.00000E+00 0.00000E+00 0.00000E+00 0.00000E+00 0.00000E+00 0.00000E+00
 -1      1088 0.00000E+00 0.00000E+00 0.00000E+00 0.00000E+00 0.00000E+00 0.00000E+00
 -1      1089 0.00000E+00 0.00000E+00 0.00000E+00 0.00000E+00 0.00000E+00 0.00000E+00
 -1      1090 0.00000E+00 0.00000E+00 0.00000E+00 0.00000E+00 0.00000E+00 0.00000E+00
 -1      1091 0.00000E+00 0.00000E+00 0.00000E+00 0.00000E+00 0.00000E+00 0.00000E+00
 -1      1092 0.00000E+00 0.00000E+00 0.00000E+00 0.00000E+00 0.00000E+00 0.00000E+00
 -1      1093 0.00000E+00 0.00000E+00 0.00000E+00 0.00000E+00 0.00000E+00 0.00000E+00
 -1      1094 0.00000E+00 0.00000E+00 0.00000E+00 0.00000E+00 0.00000E+00 0.00000E+00
 -1      1095 0.00000E+00 0.00000E+00 0.00000E+00 0.00000E+00 0.00000E+00 0.00000E+00
 -1      1096 0.00000E+00 0.00000E+00 0.00000E+00 0.00000E+00 0.00000E+00 0.00000E+00
 -1      1097 0.00000E+00 0.00000E+00 0.00000E+00 0.00000E+00 0.00000E+00 0.00000E+00
 -1      1098 0.00000E+00 0.00000E+00 0.00000E+00 0.00000E+00 0.00000E+00 0.00000E+00
 -1      1099 0.00000E+00 0.00000E+00 0.00000E+00 0.00000E+00 0.00000E+00 0.00000E+00
 -1      1100 0.00000E+00 0.00000E+00 0.00000E+00 0.00000E+00 0.00000E+00 0.00000E+00
 -1      1101 0.00000E+00 0.00000E+00 0.00000E+00 0.00000E+00 0.00000E+00 0.00000E+00
 -1      1102 0.00000E+00 0.00000E+00 0.00000E+00 0.00000E+00 0.00000E+00 0.00000E+00
 -1      1103 0.00000E+00 0.00000E+00 0.00000E+00 0.00000E+00 0.00000E+00 0.00000E+00
 -1      1104 0.00000E+00 0.00000E+00 0.00000E+00 0.00000E+00 0.00000E+00 0.00000E+00
 -1      1105 0.00000E+00 0.00000E+00 0.00000E+00 0.00000E+00 0.00000E+00 0.00000E+00
 -1      1106 0.00000E+00 0.00000E+00 0.00000E+00 0.00000E+00 0.00000E+00 0.00000E+00
 -1      1107 0.00000E+00 0.00000E+00 0.00000E+00 0.00000E+00 0.00000E+00 0.00000E+00
 -1      1108 0.00000E+00 0.00000E+00 0.00000E+00 0.00000E+00 0.00000E+00 0.00000E+00
 -1      1109 0.00000E+00 0.00000E+00 0.00000E+00 0.00000E+00 0.00000E+00 0.00000E+00
 -1      1110 0.00000E+00 0.00000E+00 0.00000E+00 0.00000E+00 0.00000E+00 0.00000E+00
 -1      1111 0.00000E+00 0.00000E+00 0.00000E+00 0.00000E+00 0.00000E+00 0.00000E+00
 -1      1112 0.00000E+00 0.00000E+00 0.00000E+00 0.00000E+00 0.00000E+00 0.00000E+00
 -1      1113 0.00000E+00 0.00000E+00 0.00000E+00 0.00000E+00 0.00000E+00 0.00000E+00
 -1      1114 0.00000E+00 0.00000E+00 0.00000E+00 0.00000E+00 0.00000E+00 0.00000E+00
 -1      1115 0.00000E+00 0.00000E+00 0.00000E+00 0.00000E+00 0.00000E+00 0.00000E+00
 -1      1116 0.00000E+00 0.00000E+00 0.00000E+00 0.00000E+00 0.00000E+00 0.00000E+00
 -1      1117 0.00000E+00 0.00000E+00 0.00000E+00 0.00000E+00 0.00000E+00 0.00000E+00
 -1      1118 0.00000E+00 0.00000E+00 0.00000E+00 0.00000E+00 0.00000E+00 0.00000E+00
 -1      1119 0.00000E+00 0.00000E+00 0.00000E+00 0.00000E+00 0.00000E+00 0.00000E+00
 -1      1120 0.00000E+00 0.00000E+00 0.00000E+00 0.00000E+00 0.00000E+00 0.00000E+00
 -1      1121 0.00000E+00 0.00000E+00 0.00000E+00 0.00000E+00 0.00000E+00 0.00000E+00
 -1      1122 0.00000E+00 0.00000E+00 0.00000E+00 0.00000E+00 0.00000E+00 0.00000E+00
 -1      1123 0.00000E+00 0.00000E+00 0.00000E+00 0.00000E+00 0.00000E+00 0.00000E+00
 -1      1124 0.00000E+00 0.00000E+00 0.00000E+00 0.00000E+00 0.00000E+00 0.00000E+00
 -1      1125 0.00000E+00 0.00000E+00 0.00000E+00 0.00000E+00 0.00000E+00 0.00000E+00
 -1      1126 0.00000E+00 0.00000E+00 0.00000E+00 0.00000E+00 0.00000E+00 0.00000E+00
 -1      1127 0.00000E+00 0.00000E+00 0.00000E+00 0.00000E+00 0.00000E+00 0.00000E+00
 -1      1128 0.00000E+00 0.00000E+00 0.00000E+00 0.00000E+00 0.00000E+00 0.00000E+00
 -1      1129 0.00000E+00 0.00000E+00 0.00000E+00 0.00000E+00 0.00000E+00 0.00000E+00
 -1      1130 0.00000E+00 0.00000E+00 0.00000E+00 0.00000E+00 0.00000E+00 0.00000E+00
 -1      1131 0.00000E+00 0.00000E+00 0.00000E+00 0.00000E+00 0.00000E+00 0.00000E+00
 -1      1132 0.00000E+00 0.00000E+00 0.00000E+00 0.00000E+00 0.00000E+00 0.00000E+00
 -1      1133 0.00000E+00 0.00000E+00 0.00000E+00 0.00000E+00 0.00000E+00 0.00000E+00
 -1      1134 0.00000E+00 0.00000E+00 0.00000E+00 0.00000E+00 0.00000E+00 0.00000E+00
 -1      1135 0.00000E+00 0.00000E+00 0.00000E+00 0.00000E+00 0.00000E+00 0.00000E+00
 -1      1136 0.00000E+00 0.00000E+00 0.00000E+00 0.00000E+00 0.00000E+00 0.00000E+00
 -1      1137 0.00000E+00 0.00000E+00 0.00000E+00 0.00000E+00 0.00000E+00 0.00000E+00
 -1      1138 0.00000E+00 0.00000E+00 0.00000E+00 0.00000E+00 0.00000E+00 0.00000E+00
 -1      1139 0.00000E+00 0.00000E+00 0.00000E+00 0.00000E+00 0.00000E+00 0.00000E+00
 -1      1140 0.00000E+00 0.00000E+00 0.00000E+00 0.00000E+00 0.00000E+00 0.00000E+00
 -1      1141 0.00000E+00 0.00000E+00 0.00000E+00 0.00000E+00 0.00000E+00 0.00000E+00
 -1      1142 0.00000E+00 0.00000E+00 0.00000E+00 0.00000E+00 0.00000E+00 0.00000E+00
 -1      1143 0.00000E+00 0.00000E+00 0.00000E+00 0.00000E+00 0.00000E+00 0.00000E+00
 -1      1144 0.00000E+00 0.00000E+00 0.00000E+00 0.00000E+00 0.00000E+00 0.00000E+00
 -1      1145 0.00000E+00 0.00000E+00 0.00000E+00 0.00000E+00 0.00000E+00 0.00000E+00
 -1      1146 0.00000E+00 0.00000E+00 0.00000E+00 0.00000E+00 0.00000E+00 0.00000E+00
 -1      1147 0.00000E+00 0.00000E+00 0.00000E+00 0.00000E+00 0.00000E+00 0.00000E+00
 -1      1148 0.00000E+00 0.00000E+00 0.00000E+00 0.00000E+00 0.00000E+00 0.00000E+00
 -1      1149 0.00000E+00 0.00000E+00 0.00000E+00 0.00000E+00 0.00000E+00 0.00000E+00
 -1      1150 0.00000E+00 0.00000E+00 0.00000E+00 0.00000E+00 0.00000E+00 0.00000E+00
 -1      1151 0.00000E+00 0.00000E+00 0.00000E+00 0.00000E+00 0.00000E+00 0.00000E+00
 -1      1152 0.00000E+00 0.00000E+00 0.00000E+00 0.00000E+00 0.00000E+00 0.00000E+00
 -1      1153 0.00000E+00 0.00000E+00 0.00000E+00 0.00000E+00 0.00000E+00 0.00000E+00
 -1      1154 0.00000E+00 0.00000E+00 0.00000E+00 0.00000E+00 0.00000E+00 0.00000E+00
 -1      1155 0.00000E+00 0.00000E+00 0.00000E+00 0.00000E+00 0.00000E+00 0.00000E+00
 -1      1156 0.00000E+00 0.00000E+00 0.00000E+00 0.00000E+00 0.00000E+00 0.00000E+00
 -1      1157 0.00000E+00 0.00000E+00 0.00000E+00 0.00000E+00 0.00000E+00 0.00000E+00
 -1      1158 0.00000E+00 0.00000E+00 0.00000E+00 0.00000E+00 0.00000E+00 0.00000E+00
 -1      1159 0.00000E+00 0.00000E+00 0.00000E+00 0.00000E+00 0.00000E+00 0.00000E+00
 -1      1160 0.00000E+00 0.00000E+00 0.00000E+00 0.00000E+00 0.00000E+00 0.00000E+00
 -1      1161 0.00000E+00 0.00000E+00 0.00000E+00 0.00000E+00 0.00000E+00 0.00000E+00
 -1      1162 0.00000E+00 0.00000E+00 0.00000E+00 0.00000E+00 0.00000E+00 0.00000E+00
 -1      1163 0.00000E+00 0.00000E+00 0.00000E+00 0.00000E+00 0.00000E+00 0.00000E+00
 -1      1164 0.00000E+00 0.00000E+00 0.00000E+00 0.00000E+00 0.00000E+00 0.00000E+00
 -1      1165 0.00000E+00 0.00000E+00 0.00000E+00 0.00000E+00 0.00000E+00 0.00000E+00
 -1      1166 0.00000E+00 0.00000E+00 0.00000E+00 0.00000E+00 0.00000E+00 0.00000E+00
 -1      1167 0.00000E+00 0.00000E+00 0.00000E+00 0.00000E+00 0.00000E+00 0.00000E+00
 -1      1168 0.00000E+00 0.00000E+00 0.00000E+00 0.00000E+00 0.00000E+00 0.00000E+00
 -1      1169 0.00000E+00 0.00000E+00 0.00000E+00 0.00000E+00 0.00000E+00 0.00000E+00
 -1      1170 0.00000E+00 0.00000E+00 0.00000E+00 0.00000E+00 0.00000E+00 0.00000E+00
 -1      1171 0.00000E+00 0.00000E+00 0.00000E+00 0.00000E+00 0.00000E+00 0.00000E+00
 -1      1172 0.00000E+00 0.00000E+00 0.00000E+00 0.00000E+00 0.00000E+00 0.00000E+00
 -1      1173 0.00000E+00 0.00000E+00 0.00000E+00 0.00000E+00 0.00000E+00 0.00000E+00
 -1      1174 0.00000E+00 0.00000E+00 0.00000E+00 0.00000E+00 0.00000E+00 0.00000E+00
 -1      1175 0.00000E+00 0.00000E+00 0.00000E+00 0.00000E+00 0.00000E+00 0.00000E+00
 -1      1176 0.00000E+00 0.00000E+00 0.00000E+00 0.00000E+00 0.00000E+00 0.00000E+00
 -1      1177 0.00000E+00 0.00000E+00 0.00000E+00 0.00000E+00 0.00000E+00 0.00000E+00
 -1      1178 0.00000E+00 0.00000E+00 0.00000E+00 0.00000E+00 0.00000E+00 0.00000E+00
 -1      1179 0.00000E+00 0.00000E+00 0.00000E+00 0.00000E+00 0.00000E+00 0.00000E+00
 -1      1180 0.00000E+00 0.00000E+00 0.00000E+00 0.00000E+00 0.00000E+00 0.00000E+00
 -1      1181 0.00000E+00 0.00000E+00 0.00000E+00 0.00000E+00 0.00000E+00 0.00000E+00
 -1      1182 0.00000E+00 0.00000E+00 0.00000E+00 0.00000E+00 0.00000E+00 0.00000E+00
 -1      1183 0.00000E+00 0.00000E+00 0.00000E+00 0.00000E+00 0.00000E+00 0.00000E+00
 -1      1184 0.00000E+00 0.00000E+00 0.00000E+00 0.00000E+00 0.00000E+00 0.00000E+00
 -1      1185 0.00000E+00 0.00000E+00 0.00000E+00 0.00000E+00 0.00000E+00 0.00000E+00
 -1      1186 0.00000E+00 0.00000E+00 0.00000E+00 0.00000E+00 0.00000E+00 0.00000E+00
 -1      1187 0.00000E+00 0.00000E+00 0.00000E+00 0.00000E+00 0.00000E+00 0.00000E+00
 -1      1188 0.00000E+00 0.00000E+00 0.00000E+00 0.00000E+00 0.00000E+00 0.00000E+00
 -1      1189 0.00000E+00 0.00000E+00 0.00000E+00 0.00000E+00 0.00000E+00 0.00000E+00
 -1      1190 0.00000E+00 0.00000E+00 0.00000E+00 0.00000E+00 0.00000E+00 0.00000E+00
 -1      1191 0.00000E+00 0.00000E+00 0.00000E+00 0.00000E+00 0.00000E+00 0.00000E+00
 -1      1192 0.00000E+00 0.00000E+00 0.00000E+00 0.00000E+00 0.00000E+00 0.00000E+00
 -1      1193 0.00000E+00 0.00000E+00 0.00000E+00 0.00000E+00 0.00000E+00 0.00000E+00
 -1      1194 0.00000E+00 0.00000E+00 0.00000E+00 0.00000E+00 0.00000E+00 0.00000E+00
 -1      1195 0.00000E+00 0.00000E+00 0.00000E+00 0.00000E+00 0.00000E+00 0.00000E+00
 -1      1196 0.00000E+00 0.00000E+00 0.00000E+00 0.00000E+00 0.00000E+00 0.00000E+00
 -1      1197 0.00000E+00 0.00000E+00 0.00000E+00 0.00000E+00 0.00000E+00 0.00000E+00
 -1      1198 0.00000E+00 0.00000E+00 0.00000E+00 0.00000E+00 0.00000E+00 0.00000E+00
 -1      1199 0.00000E+00 0.00000E+00 0.00000E+00 0.00000E+00 0.00000E+00 0.00000E+00
 -1      1200 0.00000E+00 0.00000E+00 0.00000E+00 0.00000E+00 0.00000E+00 0.00000E+00
 -1      1201 0.00000E+00 0.00000E+00 0.00000E+00 0.00000E+00 0.00000E+00 0.00000E+00
 -1      1202 0.00000E+00 0.00000E+00 0.00000E+00 0.00000E+00 0.00000E+00 0.00000E+00
 -1      1203 0.00000E+00 0.00000E+00 0.00000E+00 0.00000E+00 0.00000E+00 0.00000E+00
 -1      1204 0.00000E+00 0.00000E+00 0.00000E+00 0.00000E+00 0.00000E+00 0.00000E+00
 -1      1205 0.00000E+00 0.00000E+00 0.00000E+00 0.00000E+00 0.00000E+00 0.00000E+00
 -1      1206 0.00000E+00 0.00000E+00 0.00000E+00 0.00000E+00 0.00000E+00 0.00000E+00
 -1      1207 0.00000E+00 0.00000E+00 0.00000E+00 0.00000E+00 0.00000E+00 0.00000E+00
 -1      1208 0.00000E+00 0.00000E+00 0.00000E+00 0.00000E+00 0.00000E+00 0.00000E+00
 -1      1209 0.00000E+00 0.00000E+00 0.00000E+00 0.00000E+00 0.00000E+00 0.00000E+00
 -1      1210 0.00000E+00 0.00000E+00 0.00000E+00 0.00000E+00 0.00000E+00 0.00000E+00
 -1      1211 0.00000E+00 0.00000E+00 0.00000E+00 0.00000E+00 0.00000E+00 0.00000E+00
 -1      1212 0.00000E+00 0.00000E+00 0.00000E+00 0.00000E+00 0.00000E+00 0.00000E+00
 -1      1213 0.00000E+00 0.00000E+00 0.00000E+00 0.00000E+00 0.00000E+00 0.00000E+00
 -1      1214 0.00000E+00 0.00000E+00 0.00000E+00 0.00000E+00 0.00000E+00 0.00000E+00
 -1      1215 0.00000E+00 0.00000E+00 0.00000E+00 0.00000E+00 0.00000E+00 0.00000E+00
 -1      1216 0.00000E+00 0.00000E+00 0.00000E+00 0.00000E+00 0.00000E+00 0.00000E+00
 -1      1217 0.00000E+00 0.00000E+00 0.00000E+00 0.00000E+00 0.00000E+00 0.00000E+00
 -1      1218 0.00000E+00 0.00000E+00 0.00000E+00 0.00000E+00 0.00000E+00 0.00000E+00
 -1      1219 0.00000E+00 0.00000E+00 0.00000E+00 0.00000E+00 0.00000E+00 0.00000E+00
 -1      1220 0.00000E+00 0.00000E+00 0.00000E+00 0.00000E+00 0.00000E+00 0.00000E+00
 -1      1221 0.00000E+00 0.00000E+00 0.00000E+00 0.00000E+00 0.00000E+00 0.00000E+00
 -1      1222 0.00000E+00 0.00000E+00 0.00000E+00 0.00000E+00 0.00000E+00 0.00000E+00
 -1      1223 0.00000E+00 0.00000E+00 0.00000E+00 0.00000E+00 0.00000E+00 0.00000E+00
 -1      1224 0.00000E+00 0.00000E+00 0.00000E+00 0.00000E+00 0.00000E+00 0.00000E+00
 -1      1225 0.00000E+00 0.00000E+00 0.00000E+00 0.00000E+00 0.00000E+00 0.00000E+00
 -1      1226 0.00000E+00 0.00000E+00 0.00000E+00 0.00000E+00 0.00000E+00 0.00000E+00
 -1      1227 0.00000E+00 0.00000E+00 0.00000E+00 0.00000E+00 0.00000E+00 0.00000E+00
 -1      1228 0.00000E+00 0.00000E+00 0.00000E+00 0.00000E+00 0.00000E+00 0.00000E+00
 -1      1229 0.00000E+00 0.00000E+00 0.00000E+00 0.00000E+00 0.00000E+00 0.00000E+00
 -1      1230 0.00000E+00 0.00000E+00 0.00000E+00 0.00000E+00 0.00000E+00 0.00000E+00
 -1      1231 0.00000E+00 0.00000E+00 0.00000E+00 0.00000E+00 0.00000E+00 0.00000E+00
 -1      1232 0.00000E+00 0.00000E+00 0.00000E+00 0.00000E+00 0.00000E+00 0.00000E+00
 -1      1233 0.00000E+00 0.00000E+00 0.00000E+00 0.00000E+00 0.00000E+00 0.00000E+00
 -1      1234 0.00000E+00 0.00000E+00 0.00000E+00 0.00000E+00 0.00000E+00 0.00000E+00
 -1      1235 0.00000E+00 0.00000E+00 0.00000E+00 0.00000E+00 0.00000E+00 0.00000E+00
 -1      1236 0.00000E+00 0.00000E+00 0.00000E+00 0.00000E+00 0.00000E+00 0.00000E+00
 -1      1237 0.00000E+00 0.00000E+00 0.00000E+00 0.00000E+00 0.00000E+00 0.00000E+00
 -1      1238 0.00000E+00 0.00000E+00 0.00000E+00 0.00000E+00 0.00000E+00 0.00000E+00
 -1      1239 0.00000E+00 0.00000E+00 0.00000E+00 0.00000E+00 0.00000E+00 0.00000E+00
 -1      1240 0.00000E+00 0.00000E+00 0.00000E+00 0.00000E+00 0.00000E+00 0.00000E+00
 -1      1241 0.00000E+00 0.00000E+00 0.00000E+00 0.00000E+00 0.00000E+00 0.00000E+00
 -1      1242 0.00000E+00 0.00000E+00 0.00000E+00 0.00000E+00 0.00000E+00 0.00000E+00
 -1      1243 0.00000E+00 0.00000E+00 0.00000E+00 0.00000E+00 0.00000E+00 0.00000E+00
 -1      1244 0.00000E+00 0.00000E+00 0.00000E+00 0.00000E+00 0.00000E+00 0.00000E+00
 -1      1245 0.00000E+00 0.00000E+00 0.00000E+00 0.00000E+00 0.00000E+00 0.00000E+00
 -1      1246 0.00000E+00 0.00000E+00 0.00000E+00 0.00000E+00 0.00000E+00 0.00000E+00
 -1      1247 0.00000E+00 0.00000E+00 0.00000E+00 0.00000E+00 0.00000E+00 0.00000E+00
 -1      1248 0.00000E+00 0.00000E+00 0.00000E+00 0.00000E+00 0.00000E+00 0.00000E+00
 -1      1249 0.00000E+00 0.00000E+00 0.00000E+00 0.00000E+00 0.00000E+00 0.00000E+00
 -1      1250 0.00000E+00 0.00000E+00 0.00000E+00 0.00000E+00 0.00000E+00 0.00000E+00
 -1      1251 0.00000E+00 0.00000E+00 0.00000E+00 0.00000E+00 0.00000E+00 0.00000E+00
 -1      1252 0.00000E+00 0.00000E+00 0.00000E+00 0.00000E+00 0.00000E+00 0.00000E+00
 -1      1253 0.00000E+00 0.00000E+00 0.00000E+00 0.00000E+00 0.00000E+00 0.00000E+00
 -1      1254 0.00000E+00 0.00000E+00 0.00000E+00 0.00000E+00 0.00000E+00 0.00000E+00
 -1      1255 0.00000E+00 0.00000E+00 0.00000E+00 0.00000E+00 0.00000E+00 0.00000E+00
 -1      1256 0.00000E+00 0.00000E+00 0.00000E+00 0.00000E+00 0.00000E+00 0.00000E+00
 -1      1257 0.00000E+00 0.00000E+00 0.00000E+00 0.00000E+00 0.00000E+00 0.00000E+00
 -1      1258 0.00000E+00 0.00000E+00 0.00000E+00 0.00000E+00 0.00000E+00 0.00000E+00
 -1      1259 0.00000E+00 0.00000E+00 0.00000E+00 0.00000E+00 0.00000E+00 0.00000E+00
 -1      1260 0.00000E+00 0.00000E+00 0.00000E+00 0.00000E+00 0.00000E+00 0.00000E+00
 -1      1261 0.00000E+00 0.00000E+00 0.00000E+00 0.00000E+00 0.00000E+00 0.00000E+00
 -1      1262 0.00000E+00 0.00000E+00 0.00000E+00 0.00000E+00 0.00000E+00 0.00000E+00
 -1      1263 0.00000E+00 0.00000E+00 0.00000E+00 0.00000E+00 0.00000E+00 0.00000E+00
 -1      1264 0.00000E+00 0.00000E+00 0.00000E+00 0.00000E+00 0.00000E+00 0.00000E+00
 -1      1265 0.00000E+00 0.00000E+00 0.00000E+00 0.00000E+00 0.00000E+00 0.00000E+00
 -1      1266 0.00000E+00 0.00000E+00 0.00000E+00 0.00000E+00 0.00000E+00 0.00000E+00
 -1      1267 0.00000E+00 0.00000E+00 0.00000E+00 0.00000E+00 0.00000E+00 0.00000E+00
 -1      1268 0.00000E+00 0.00000E+00 0.00000E+00 0.00000E+00 0.00000E+00 0.00000E+00
 -1      1269 0.00000E+00 0.00000E+00 0.00000E+00 0.00000E+00 0.00000E+00 0.00000E+00
 -1      1270 0.00000E+00 0.00000E+00 0.00000E+00 0.00000E+00 0.00000E+00 0.00000E+00
 -1      1271 0.00000E+00 0.00000E+00 0.00000E+00 0.00000E+00 0.00000E+00 0.00000E+00
 -1      1272 0.00000E+00 0.00000E+00 0.00000E+00 0.00000E+00 0.00000E+00 0.00000E+00
 -1      1273 0.00000E+00 0.00000E+00 0.00000E+00 0.00000E+00 0.00000E+00 0.00000E+00
 -1      1274 0.00000E+00 0.00000E+00 0.00000E+00 0.00000E+00 0.00000E+00 0.00000E+00
 -1      1275 0.00000E+00 0.00000E+00 0.00000E+00 0.00000E+00 0.00000E+00 0.00000E+00
 -1      1276 0.00000E+00 0.00000E+00 0.00000E+00 0.00000E+00 0.00000E+00 0.00000E+00
 -1      1277 0.00000E+00 0.00000E+00 0.00000E+00 0.00000E+00 0.00000E+00 0.00000E+00
 -1      1278 0.00000E+00 0.00000E+00 0.00000E+00 0.00000E+00 0.00000E+00 0.00000E+00
 -1      1279 0.00000E+00 0.00000E+00 0.00000E+00 0.00000E+00 0.00000E+00 0.00000E+00
 -1      1280 0.00000E+00 0.00000E+00 0.00000E+00 0.00000E+00 0.00000E+00 0.00000E+00
 -1      1281 0.00000E+00 0.00000E+00 0.00000E+00 0.00000E+00 0.00000E+00 0.00000E+00
 -1      1282 0.00000E+00 0.00000E+00 0.00000E+00 0.00000E+00 0.00000E+00 0.00000E+00
 -1      1283 0.00000E+00 0.00000E+00 0.00000E+00 0.00000E+00 0.00000E+00 0.00000E+00
 -1      1284 0.00000E+00 0.00000E+00 0.00000E+00 0.00000E+00 0.00000E+00 0.00000E+00
 -1      1285 0.00000E+00 0.00000E+00 0.00000E+00 0.00000E+00 0.00000E+00 0.00000E+00
 -1      1286 0.00000E+00 0.00000E+00 0.00000E+00 0.00000E+00 0.00000E+00 0.00000E+00
 -1      1287 0.00000E+00 0.00000E+00 0.00000E+00 0.00000E+00 0.00000E+00 0.00000E+00
 -1      1288 0.00000E+00 0.00000E+00 0.00000E+00 0.00000E+00 0.00000E+00 0.00000E+00
 -1      1289 0.00000E+00 0.00000E+00 0.00000E+00 0.00000E+00 0.00000E+00 0.00000E+00
 -1      1290 0.00000E+00 0.00000E+00 0.00000E+00 0.00000E+00 0.00000E+00 0.00000E+00
 -1      1291 0.00000E+00 0.00000E+00 0.00000E+00 0.00000E+00 0.00000E+00 0.00000E+00
 -1      1292 0.00000E+00 0.00000E+00 0.00000E+00 0.00000E+00 0.00000E+00 0.00000E+00
 -1      1293 0.00000E+00 0.00000E+00 0.00000E+00 0.00000E+00 0.00000E+00 0.00000E+00
 -1      1294 0.00000E+00 0.00000E+00 0.00000E+00 0.00000E+00 0.00000E+00 0.00000E+00
 -1      1295 0.00000E+00 0.00000E+00 0.00000E+00 0.00000E+00 0.00000E+00 0.00000E+00
 -1      1296 0.00000E+00 0.00000E+00 0.00000E+00 0.00000E+00 0.00000E+00 0.00000E+00
 -1      1297 0.00000E+00 0.00000E+00 0.00000E+00 0.00000E+00 0.00000E+00 0.00000E+00
 -1      1298 0.00000E+00 0.00000E+00 0.00000E+00 0.00000E+00 0.00000E+00 0.00000E+00
 -1      1299 0.00000E+00 0.00000E+00 0.00000E+00 0.00000E+00 0.00000E+00 0.00000E+00
 -1      1300 0.00000E+00 0.00000E+00 0.00000E+00 0.00000E+00 0.00000E+00 0.00000E+00
 -1      1301 0.00000E+00 0.00000E+00 0.00000E+00 0.00000E+00 0.00000E+00 0.00000E+00
 -1      1302 0.00000E+00 0.00000E+00 0.00000E+00 0.00000E+00 0.00000E+00 0.00000E+00
 -1      1303 0.00000E+00 0.00000E+00 0.00000E+00 0.00000E+00 0.00000E+00 0.00000E+00
 -1      1304 0.00000E+00 0.00000E+00 0.00000E+00 0.00000E+00 0.00000E+00 0.00000E+00
 -1      1305 0.00000E+00 0.00000E+00 0.00000E+00 0.00000E+00 0.00000E+00 0.00000E+00
 -1      1306 0.00000E+00 0.00000E+00 0.00000E+00 0.00000E+00 0.00000E+00 0.00000E+00
 -1      1307 0.00000E+00 0.00000E+00 0.00000E+00 0.00000E+00 0.00000E+00 0.00000E+00
 -1      1308 0.00000E+00 0.00000E+00 0.00000E+00 0.00000E+00 0.00000E+00 0.00000E+00
 -1      1309 0.00000E+00 0.00000E+00 0.00000E+00 0.00000E+00 0.00000E+00 0.00000E+00
 -1      1310 0.00000E+00 0.00000E+00 0.00000E+00 0.00000E+00 0.00000E+00 0.00000E+00
 -1      1311 0.00000E+00 0.00000E+00 0.00000E+00 0.00000E+00 0.00000E+00 0.00000E+00
 -1      1312 0.00000E+00 0.00000E+00 0.00000E+00 0.00000E+00 0.00000E+00 0.00000E+00
 -1      1313 0.00000E+00 0.00000E+00 0.00000E+00 0.00000E+00 0.00000E+00 0.00000E+00
 -1      1314 0.00000E+00 0.00000E+00 0.00000E+00 0.00000E+00 0.00000E+00 0.00000E+00
 -1      1315 0.00000E+00 0.00000E+00 0.00000E+00 0.00000E+00 0.00000E+00 0.00000E+00
 -1      1316 0.00000E+00 0.00000E+00 0.00000E+00 0.00000E+00 0.00000E+00 0.00000E+00
 -1      1317 0.00000E+00 0.00000E+00 0.00000E+00 0.00000E+00 0.00000E+00 0.00000E+00
 -1      1318 0.00000E+00 0.00000E+00 0.00000E+00 0.00000E+00 0.00000E+00 0.00000E+00
 -1      1319 0.00000E+00 0.00000E+00 0.00000E+00 0.00000E+00 0.00000E+00 0.00000E+00
 -1      1320 0.00000E+00 0.00000E+00 0.00000E+00 0.00000E+00 0.00000E+00 0.00000E+00
 -1      1321 0.00000E+00 0.00000E+00 0.00000E+00 0.00000E+00 0.00000E+00 0.00000E+00
 -1      1322 0.00000E+00 0.00000E+00 0.00000E+00 0.00000E+00 0.00000E+00 0.00000E+00
 -1      1323 0.00000E+00 0.00000E+00 0.00000E+00 0.00000E+00 0.00000E+00 0.00000E+00
 -1      1324 0.00000E+00 0.00000E+00 0.00000E+00 0.00000E+00 0.00000E+00 0.00000E+00
 -1      1325 0.00000E+00 0.00000E+00 0.00000E+00 0.00000E+00 0.00000E+00 0.00000E+00
 -1      1326 0.00000E+00 0.00000E+00 0.00000E+00 0.00000E+00 0.00000E+00 0.00000E+00
 -1      1327 0.00000E+00 0.00000E+00 0.00000E+00 0.00000E+00 0.00000E+00 0.00000E+00
 -1      1328 0.00000E+00 0.00000E+00 0.00000E+00 0.00000E+00 0.00000E+00 0.00000E+00
 -1      1329 0.00000E+00 0.00000E+00 0.00000E+00 0.00000E+00 0.00000E+00 0.00000E+00
 -1      1330 0.00000E+00 0.00000E+00 0.00000E+00 0.00000E+00 0.00000E+00 0.00000E+00
 -1      1331 0.00000E+00 0.00000E+00 0.00000E+00 0.00000E+00 0.00000E+00 0.00000E+00
 -1      1332 0.00000E+00 0.00000E+00 0.00000E+00 0.00000E+00 0.00000E+00 0.00000E+00
 -1      1333 0.00000E+00 0.00000E+00 0.00000E+00 0.00000E+00 0.00000E+00 0.00000E+00
 -1      1334 0.00000E+00 0.00000E+00 0.00000E+00 0.00000E+00 0.00000E+00 0.00000E+00
 -1      1335 0.00000E+00 0.00000E+00 0.00000E+00 0.00000E+00 0.00000E+00 0.00000E+00
 -1      1336 0.00000E+00 0.00000E+00 0.00000E+00 0.00000E+00 0.00000E+00 0.00000E+00
 -1      1337 0.00000E+00 0.00000E+00 0.00000E+00 0.00000E+00 0.00000E+00 0.00000E+00
 -1      1338 0.00000E+00 0.00000E+00 0.00000E+00 0.00000E+00 0.00000E+00 0.00000E+00
 -1      1339 0.00000E+00 0.00000E+00 0.00000E+00 0.00000E+00 0.00000E+00 0.00000E+00
 -1      1340 0.00000E+00 0.00000E+00 0.00000E+00 0.00000E+00 0.00000E+00 0.00000E+00
 -1      1341 0.00000E+00 0.00000E+00 0.00000E+00 0.00000E+00 0.00000E+00 0.00000E+00
 -1      1342 0.00000E+00 0.00000E+00 0.00000E+00 0.00000E+00 0.00000E+00 0.00000E+00
 -1      1343 0.00000E+00 0.00000E+00 0.00000E+00 0.00000E+00 0.00000E+00 0.00000E+00
 -1      1344 0.00000E+00 0.00000E+00 0.00000E+00 0.00000E+00 0.00000E+00 0.00000E+00
 -1      1345 0.00000E+00 0.00000E+00 0.00000E+00 0.00000E+00 0.00000E+00 0.00000E+00
 -1      1346 0.00000E+00 0.00000E+00 0.00000E+00 0.00000E+00 0.00000E+00 0.00000E+00
 -1      1347 0.00000E+00 0.00000E+00 0.00000E+00 0.00000E+00 0.00000E+00 0.00000E+00
 -1      1348 0.00000E+00 0.00000E+00 0.00000E+00 0.00000E+00 0.00000E+00 0.00000E+00
 -1      1349 0.00000E+00 0.00000E+00 0.00000E+00 0.00000E+00 0.00000E+00 0.00000E+00
 -1      1350 0.00000E+00 0.00000E+00 0.00000E+00 0.00000E+00 0.00000E+00 0.00000E+00
 -1      1351 0.00000E+00 0.00000E+00 0.00000E+00 0.00000E+00 0.00000E+00 0.00000E+00
 -1      1352 0.00000E+00 0.00000E+00 0.00000E+00 0.00000E+00 0.00000E+00 0.00000E+00
 -1      1353 0.00000E+00 0.00000E+00 0.00000E+00 0.00000E+00 0.00000E+00 0.00000E+00
 -1      1354 0.00000E+00 0.00000E+00 0.00000E+00 0.00000E+00 0.00000E+00 0.00000E+00
 -1      1355 0.00000E+00 0.00000E+00 0.00000E+00 0.00000E+00 0.00000E+00 0.00000E+00
 -1      1356 0.00000E+00 0.00000E+00 0.00000E+00 0.00000E+00 0.00000E+00 0.00000E+00
 -1      1357 0.00000E+00 0.00000E+00 0.00000E+00 0.00000E+00 0.00000E+00 0.00000E+00
 -1      1358 0.00000E+00 0.00000E+00 0.00000E+00 0.00000E+00 0.00000E+00 0.00000E+00
 -1      1359 0.00000E+00 0.00000E+00 0.00000E+00 0.00000E+00 0.00000E+00 0.00000E+00
 -1      1360 0.00000E+00 0.00000E+00 0.00000E+00 0.00000E+00 0.00000E+00 0.00000E+00
 -1      1361 0.00000E+00 0.00000E+00 0.00000E+00 0.00000E+00 0.00000E+00 0.00000E+00
 -1      1362 0.00000E+00 0.00000E+00 0.00000E+00 0.00000E+00 0.00000E+00 0.00000E+00
 -1      1363 0.00000E+00 0.00000E+00 0.00000E+00 0.00000E+00 0.00000E+00 0.00000E+00
 -1      1364 0.00000E+00 0.00000E+00 0.00000E+00 0.00000E+00 0.00000E+00 0.00000E+00
 -1      1365 0.00000E+00 0.00000E+00 0.00000E+00 0.00000E+00 0.00000E+00 0.00000E+00
 -1      1366 0.00000E+00 0.00000E+00 0.00000E+00 0.00000E+00 0.00000E+00 0.00000E+00
 -1      1367 0.00000E+00 0.00000E+00 0.00000E+00 0.00000E+00 0.00000E+00 0.00000E+00
 -1      1368 0.00000E+00 0.00000E+00 0.00000E+00 0.00000E+00 0.00000E+00 0.00000E+00
 -1      1369 0.00000E+00 0.00000E+00 0.00000E+00 0.00000E+00 0.00000E+00 0.00000E+00
 -1      1370 0.00000E+00 0.00000E+00 0.00000E+00 0.00000E+00 0.00000E+00 0.00000E+00
 -1      1371 0.00000E+00 0.00000E+00 0.00000E+00 0.00000E+00 0.00000E+00 0.00000E+00
 -1      1372 0.00000E+00 0.00000E+00 0.00000E+00 0.00000E+00 0.00000E+00 0.00000E+00
 -1      1373 0.00000E+00 0.00000E+00 0.00000E+00 0.00000E+00 0.00000E+00 0.00000E+00
 -1      1374 0.00000E+00 0.00000E+00 0.00000E+00 0.00000E+00 0.00000E+00 0.00000E+00
 -1      1375 0.00000E+00 0.00000E+00 0.00000E+00 0.00000E+00 0.00000E+00 0.00000E+00
 -1      1376 0.00000E+00 0.00000E+00 0.00000E+00 0.00000E+00 0.00000E+00 0.00000E+00
 -1      1377 0.00000E+00 0.00000E+00 0.00000E+00 0.00000E+00 0.00000E+00 0.00000E+00
 -1      1378 0.00000E+00 0.00000E+00 0.00000E+00 0.00000E+00 0.00000E+00 0.00000E+00
 -1      1379 0.00000E+00 0.00000E+00 0.00000E+00 0.00000E+00 0.00000E+00 0.00000E+00
 -1      1380 0.00000E+00 0.00000E+00 0.00000E+00 0.00000E+00 0.00000E+00 0.00000E+00
 -1      1381 0.00000E+00 0.00000E+00 0.00000E+00 0.00000E+00 0.00000E+00 0.00000E+00
 -1      1382 0.00000E+00 0.00000E+00 0.00000E+00 0.00000E+00 0.00000E+00 0.00000E+00
 -1      1383 0.00000E+00 0.00000E+00 0.00000E+00 0.00000E+00 0.00000E+00 0.00000E+00
 -1      1384 0.00000E+00 0.00000E+00 0.00000E+00 0.00000E+00 0.00000E+00 0.00000E+00
 -1      1385 0.00000E+00 0.00000E+00 0.00000E+00 0.00000E+00 0.00000E+00 0.00000E+00
 -1      1386 0.00000E+00 0.00000E+00 0.00000E+00 0.00000E+00 0.00000E+00 0.00000E+00
 -1      1387 0.00000E+00 0.00000E+00 0.00000E+00 0.00000E+00 0.00000E+00 0.00000E+00
 -1      1388 0.00000E+00 0.00000E+00 0.00000E+00 0.00000E+00 0.00000E+00 0.00000E+00
 -1      1389 0.00000E+00 0.00000E+00 0.00000E+00 0.00000E+00 0.00000E+00 0.00000E+00
 -1      1390 0.00000E+00 0.00000E+00 0.00000E+00 0.00000E+00 0.00000E+00 0.00000E+00
 -1      1391 0.00000E+00 0.00000E+00 0.00000E+00 0.00000E+00 0.00000E+00 0.00000E+00
 -1      1392 0.00000E+00 0.00000E+00 0.00000E+00 0.00000E+00 0.00000E+00 0.00000E+00
 -1      1393 0.00000E+00 0.00000E+00 0.00000E+00 0.00000E+00 0.00000E+00 0.00000E+00
 -1      1394 0.00000E+00 0.00000E+00 0.00000E+00 0.00000E+00 0.00000E+00 0.00000E+00
 -1      1395 0.00000E+00 0.00000E+00 0.00000E+00 0.00000E+00 0.00000E+00 0.00000E+00
 -1      1396 0.00000E+00 0.00000E+00 0.00000E+00 0.00000E+00 0.00000E+00 0.00000E+00
 -1      1397 0.00000E+00 0.00000E+00 0.00000E+00 0.00000E+00 0.00000E+00 0.00000E+00
 -1      1398 0.00000E+00 0.00000E+00 0.00000E+00 0.00000E+00 0.00000E+00 0.00000E+00
 -1      1399 0.00000E+00 0.00000E+00 0.00000E+00 0.00000E+00 0.00000E+00 0.00000E+00
 -1      1400 0.00000E+00 0.00000E+00 0.00000E+00 0.00000E+00 0.00000E+00 0.00000E+00
 -1      1401 0.00000E+00 0.00000E+00 0.00000E+00 0.00000E+00 0.00000E+00 0.00000E+00
 -1      1402 0.00000E+00 0.00000E+00 0.00000E+00 0.00000E+00 0.00000E+00 0.00000E+00
 -1      1403 0.00000E+00 0.00000E+00 0.00000E+00 0.00000E+00 0.00000E+00 0.00000E+00
 -1      1404 0.00000E+00 0.00000E+00 0.00000E+00 0.00000E+00 0.00000E+00 0.00000E+00
 -1      1405 0.00000E+00 0.00000E+00 0.00000E+00 0.00000E+00 0.00000E+00 0.00000E+00
 -1      1406 0.00000E+00 0.00000E+00 0.00000E+00 0.00000E+00 0.00000E+00 0.00000E+00
 -1      1407 0.00000E+00 0.00000E+00 0.00000E+00 0.00000E+00 0.00000E+00 0.00000E+00
 -1      1408 0.00000E+00 0.00000E+00 0.00000E+00 0.00000E+00 0.00000E+00 0.00000E+00
 -1      1409 0.00000E+00 0.00000E+00 0.00000E+00 0.00000E+00 0.00000E+00 0.00000E+00
 -1      1410 0.00000E+00 0.00000E+00 0.00000E+00 0.00000E+00 0.00000E+00 0.00000E+00
 -1      1411 0.00000E+00 0.00000E+00 0.00000E+00 0.00000E+00 0.00000E+00 0.00000E+00
 -1      1412 0.00000E+00 0.00000E+00 0.00000E+00 0.00000E+00 0.00000E+00 0.00000E+00
 -1      1413 0.00000E+00 0.00000E+00 0.00000E+00 0.00000E+00 0.00000E+00 0.00000E+00
 -3
    1PSTEP                         5           1           1          
  100CL  101 1.000000000        1412                     0    1           1
 -4  ERROR       1    1
 -5  STR(%)      1    1    0    0
 -1         1 5.48783E+01
 -1         2 3.92462E+01
 -1         3 1.32122E+01
 -1         4 1.42314E+00
 -1         5 2.25229E+01
 -1         6 7.12916E+01
 -1         7 0.00000E+00
 -1         9 5.48783E+01
 -1        10 3.09360E+01
 -1        11 1.25986E+01
 -1        12 6.16927E+00
 -1        13 4.27436E+00
 -1        14 3.51189E+00
 -1        15 2.99033E+00
 -1        16 2.59758E+00
 -1        17 2.27789E+00
 -1        18 1.99920E+00
 -1        19 1.73985E+00
 -1        20 1.48260E+00
 -1        21 1.21137E+00
 -1        22 9.08896E-01
 -1        23 5.82926E-01
 -1        24 1.03047E+00
 -1        25 1.66289E+00
 -1        26 2.54163E+00
 -1        27 3.75579E+00
 -1        28 5.43350E+00
 -1        29 7.75915E+00
 -1        30 1.09835E+01
 -1        31 1.54637E+01
 -1        32 2.15072E+01
 -1        33 2.97921E+01
 -1        34 3.80768E+01
 -1        35 4.48377E+01
 -1        36 4.48377E+01
 -1        37 3.92462E+01
 -1        38 3.92462E+01
 -1        39 2.05636E+01
 -1        40 9.61838E+00
 -1        41 6.51673E+00
 -1        42 4.69010E+00
 -1        43 3.51913E+00
 -1        44 2.71073E+00
 -1        45 2.11684E+00
 -1        46 1.64750E+00
 -1        47 1.24807E+00
 -1        48 8.81337E-01
 -1        49 5.18564E-01
 -1        50 6.93034E-01
 -1        51 1.14161E+00
 -1        52 1.75389E+00
 -1        53 2.61999E+00
 -1        54 3.90428E+00
 -1        55 5.91648E+00
 -1        56 1.30159E+01
 -1        57 1.30159E+01
 -1        58 1.25336E+01
 -1        59 1.32122E+01
 -1        60 1.32122E+01
 -1        61 1.32101E+01
 -1        62 1.32065E+01
 -1        63 1.32009E+01
 -1        64 1.31926E+01
 -1        65 1.31807E+01
 -1        66 1.31641E+01
 -1        67 1.31414E+01
 -1        68 1.31108E+01
 -1        69 1.30702E+01
 -1        70 1.30169E+01
 -1        71 1.29477E+01
 -1        72 1.28590E+01
 -1        73 1.27466E+01
 -1        74 1.26060E+01
 -1        75 1.24331E+01
 -1        76 1.22242E+01
 -1        77 1.19772E+01
 -1        78 1.16920E+01
 -1        79 1.13710E+01
 -1        80 1.10174E+01
 -1        81 1.06330E+01
 -1        82 1.02110E+01
 -1        83 9.72367E+00
 -1        84 9.09179E+00
 -1        85 1.01292E+01
 -1        86 1.01292E+01
 -1        87 8.03519E+00
 -1        88 5.13432E+00
 -1        89 3.26079E+00
 -1        90 5.19502E+00
 -1        91 5.54554E+00
 -1        92 5.54554E+00
 -1        93 4.68247E+00
 -1        94 4.86664E+00
 -1        95 9.02986E+00
 -1        96 1.36147E+01
 -1        97 1.84065E+01
 -1        98 2.31632E+01
 -1        99 2.76073E+01
 -1       100 3.14051E+01
 -1       101 3.41190E+01
 -1       102 3.51081E+01
 -1       103 3.51081E+01
 -1       104 3.33464E+01
 -1       105 2.71426E+01
 -1       106 2.31325E+01
 -1       107 3.85884E+01
 -1       108 6.38297E+01
 -1       109 7.18200E+01
 -1       110 7.18200E+01
 -1       111 4.08427E+01
 -1       112 4.08427E+01
 -1       113 6.11136E+01
 -1       114 6.11136E+01
 -1       115 6.00702E+01
 -1       116 5.97828E+01
 -1       117 5.81766E+01
 -1       118 5.69984E+01
 -1       119 5.56283E+01
 -1       120 5.42365E+01
 -1       121 5.27503E+01
 -1       122 5.11858E+01
 -1       123 4.95377E+01
 -1       124 4.78136E+01
 -1       125 4.60219E+01
 -1       126 4.41747E+01
 -1       127 4.22869E+01
 -1       128 4.03753E+01
 -1       129 3.84583E+01
 -1       130 3.65562E+01
 -1       131 3.46890E+01
 -1       132 3.28856E+01
 -1       133 3.11343E+01
 -1       134 2.96442E+01
 -1       135 2.92921E+01
 -1       136 2.92921E+01
 -1       137 7.12916E+01
 -1       138 7.12916E+01
 -1       139 4.40689E+01
 -1       140 2.52970E+01
 -1       141 1.82619E+01
 -1       142 1.47908E+01
 -1       143 1.27784E+01
 -1       144 1.15392E+01
 -1       145 1.07747E+01
 -1       146 1.02632E+01
 -1       147 9.91532E+00
 -1       148 9.68087E+00
 -1       149 9.52783E+00
 -1       150 9.43197E+00
 -1       151 9.37070E+00
 -1       152 9.31885E+00
 -1       153 9.24487E+00
 -1       154 9.10641E+00
 -1       155 8.84531E+00
 -1       156 8.38186E+00
 -1       157 7.60799E+00
 -1       158 6.37404E+00
 -1       159 4.58964E+00
 -1       160 2.25229E+01
 -1       161 8.76813E+00
 -1       162 6.63748E+00
 -1       163 4.38876E+00
 -1       164 3.71043E+00
 -1       165 3.07600E+00
 -1       166 2.58944E+00
 -1       167 2.22312E+00
 -1       168 1.94749E+00
 -1       169 1.73654E+00
 -1       170 1.57152E+00
 -1       171 1.43880E+00
 -1       172 1.32851E+00
 -1       173 1.23318E+00
 -1       174 1.14688E+00
 -1       175 1.06457E+00
 -1       176 9.81534E-01
 -1       177 8.93028E-01
 -1       178 7.93774E-01
 -1       179 6.77338E-01
 -1       180 5.33831E-01
 -1       181 3.66914E-01
 -1       182 4.08427E+01
 -1       183 2.82094E+01
 -1       184 2.07930E+01
 -1       185 1.42242E+01
 -1       186 9.26742E+00
 -1       187 5.80805E+00
 -1       188 4.21804E+00
 -1       189 3.40201E+00
 -1       190 2.79914E+00
 -1       191 2.35139E+00
 -1       192 2.01467E+00
 -1       193 1.75709E+00
 -1       194 1.55564E+00
 -1       195 1.39355E+00
 -1       196 1.25827E+00
 -1       197 1.14002E+00
 -1       198 1.03073E+00
 -1       199 9.23182E-01
 -1       200 8.10359E-01
 -1       201 6.84596E-01
 -1       202 5.35205E-01
 -1       203 3.66914E-01
 -1       204 4.08427E+01
 -1       205 3.40866E+01
 -1       206 2.87779E+01
 -1       207 2.26613E+01
 -1       208 1.67147E+01
 -1       209 1.18221E+01
 -1       210 8.09789E+00
 -1       211 5.39818E+00
 -1       212 3.48695E+00
 -1       213 2.79545E+00
 -1       214 2.34992E+00
 -1       215 2.00417E+00
 -1       216 1.73349E+00
 -1       217 1.51811E+00
 -1       218 1.34240E+00
 -1       219 1.19388E+00
 -1       220 1.06227E+00
 -1       221 9.38624E-01
 -1       222 8.14625E-01
 -1       223 6.84596E-01
 -1       224 5.35205E-01
 -1       225 3.65364E-01
 -1       226 6.11136E+01
 -1       227 3.40866E+01
 -1       228 2.87779E+01
 -1       229 2.46788E+01
 -1       230 2.10804E+01
 -1       231 1.66844E+01
 -1       232 1.25710E+01
 -1       233 9.13738E+00
 -1       234 6.45190E+00
 -1       235 4.42812E+00
 -1       236 2.93500E+00
 -1       237 2.14833E+00
 -1       238 1.84027E+00
 -1       239 1.59146E+00
 -1       240 1.38804E+00
 -1       241 1.21769E+00
 -1       242 1.06962E+00
 -1       243 9.38624E-01
 -1       244 8.14625E-01
 -1       245 6.81694E-01
 -1       246 5.28625E-01
 -1       247 3.58397E-01
 -1       248 6.11136E+01
 -1       249 2.51989E+01
 -1       250 2.51989E+01
 -1       251 2.46788E+01
 -1       252 2.10804E+01
 -1       253 1.89884E+01
 -1       254 1.58200E+01
 -1       255 1.24919E+01
 -1       256 9.48025E+00
 -1       257 6.96803E+00
 -1       258 4.97250E+00
 -1       259 3.43533E+00
 -1       260 2.27487E+00
 -1       261 1.59633E+00
 -1       262 1.38804E+00
 -1       263 1.21769E+00
 -1       264 1.06962E+00
 -1       265 9.34198E-01
 -1       266 8.02466E-01
 -1       267 6.65392E-01
 -1       268 5.11646E-01
 -1       269 3.44401E-01
 -1       270 6.00702E+01
 -1       271 2.73464E+01
 -1       272 2.00564E+01
 -1       273 2.10241E+01
 -1       274 2.10241E+01
 -1       275 1.89884E+01
 -1       276 1.71170E+01
 -1       277 1.47769E+01
 -1       278 1.20716E+01
 -1       279 9.45556E+00
 -1       280 7.15498E+00
 -1       281 5.24670E+00
 -1       282 3.72356E+00
 -1       283 2.54012E+00
 -1       284 1.63971E+00
 -1       285 1.20156E+00
 -1       286 1.04503E+00
 -1       287 9.03739E-01
 -1       288 7.68940E-01
 -1       289 6.31775E-01
 -1       290 4.81311E-01
 -1       291 3.21425E-01
 -1       292 5.97828E+01
 -1       293 3.07806E+01
 -1       294 1.34353E+01
 -1       295 1.70631E+01
 -1       296 1.83092E+01
 -1       297 1.83092E+01
 -1       298 1.71170E+01
 -1       299 1.55707E+01
 -1       300 1.37720E+01
 -1       301 1.15275E+01
 -1       302 9.23921E+00
 -1       303 7.13971E+00
 -1       304 5.33628E+00
 -1       305 3.85498E+00
 -1       306 2.67734E+00
 -1       307 1.76552E+00
 -1       308 1.07724E+00
 -1       309 8.40078E-01
 -1       310 7.08236E-01
 -1       311 5.76205E-01
 -1       312 4.34098E-01
 -1       313 2.87139E-01
 -1       314 5.81766E+01
 -1       315 3.20646E+01
 -1       316 1.81497E+01
 -1       317 1.07195E+01
 -1       318 1.51234E+01
 -1       319 1.63132E+01
 -1       320 1.63132E+01
 -1       321 1.55707E+01
 -1       322 1.43032E+01
 -1       323 1.28603E+01
 -1       324 1.09504E+01
 -1       325 8.92094E+00
 -1       326 6.99574E+00
 -1       327 5.29570E+00
 -1       328 3.86749E+00
 -1       329 2.71189E+00
 -1       330 1.80586E+00
 -1       331 1.11722E+00
 -1       332 6.13712E-01
 -1       333 4.93302E-01
 -1       334 3.65887E-01
 -1       335 2.38801E-01
 -1       336 5.69984E+01
 -1       337 3.26584E+01
 -1       338 2.07408E+01
 -1       339 1.13387E+01
 -1       340 1.03575E+01
 -1       341 1.37370E+01
 -1       342 1.47999E+01
 -1       343 1.47999E+01
 -1       344 1.43032E+01
 -1       345 1.32475E+01
 -1       346 1.20416E+01
 -1       347 1.03736E+01
 -1       348 8.54443E+00
 -1       349 6.76402E+00
 -1       350 5.15801E+00
 -1       351 3.78560E+00
 -1       352 2.66097E+00
 -1       353 1.77221E+00
 -1       354 1.09523E+00
 -1       355 6.02775E-01
 -1       356 2.71978E-01
 -1       357 1.73255E-01
 -1       358 5.56283E+01
 -1       359 3.28464E+01
 -1       360 2.22573E+01
 -1       361 1.44607E+01
 -1       362 7.22969E+00
 -1       363 9.95968E+00
 -1       364 1.26730E+01
 -1       365 1.36072E+01
 -1       366 1.36072E+01
 -1       367 1.32475E+01
 -1       368 1.23453E+01
 -1       369 1.12983E+01
 -1       370 9.80481E+00
 -1       371 8.12871E+00
 -1       372 6.46574E+00
 -1       373 4.94192E+00
 -1       374 3.62383E+00
 -1       375 2.53474E+00
 -1       376 1.67074E+00
 -1       377 1.01367E+00
 -1       378 5.41340E-01
 -1       379 2.14014E-01
 -1       380 5.42365E+01
 -1       381 3.28464E+01
 -1       382 2.31518E+01
 -1       383 1.64896E+01
 -1       384 1.05151E+01
 -1       385 5.59438E+00
 -1       386 9.55756E+00
 -1       387 1.18111E+01
 -1       388 1.26299E+01
 -1       389 1.26299E+01
 -1       390 1.23453E+01
 -1       391 1.15499E+01
 -1       392 1.06083E+01
 -1       393 9.23970E+00
 -1       394 7.67910E+00
 -1       395 6.10976E+00
 -1       396 4.65608E+00
 -1       397 3.38871E+00
 -1       398 2.33664E+00
 -1       399 1.50103E+00
 -1       400 8.68205E-01
 -1       401 3.99436E-01
 -1       402 5.27503E+01
 -1       403 3.28222E+01
 -1       404 2.36736E+01
 -1       405 1.78218E+01
 -1       406 1.28135E+01
 -1       407 7.88307E+00
 -1       408 5.87138E+00
 -1       409 9.16021E+00
 -1       410 1.10800E+01
 -1       411 1.17972E+01
 -1       412 1.17972E+01
 -1       413 1.15499E+01
 -1       414 1.08238E+01
 -1       415 9.94945E+00
 -1       416 8.66788E+00
 -1       417 7.19259E+00
 -1       418 5.69640E+00
 -1       419 4.30119E+00
 -1       420 3.07919E+00
 -1       421 2.06200E+00
 -1       422 1.25349E+00
 -1       423 6.22184E-01
 -1       424 5.11858E+01
 -1       425 3.26551E+01
 -1       426 2.39552E+01
 -1       427 1.86985E+01
 -1       428 1.44213E+01
 -1       429 1.03122E+01
 -1       430 6.07221E+00
 -1       431 5.95516E+00
 -1       432 8.76574E+00
 -1       433 1.04325E+01
 -1       434 1.10588E+01
 -1       435 1.10588E+01
 -1       436 1.08238E+01
 -1       437 1.01355E+01
 -1       438 9.29931E+00
 -1       439 8.07507E+00
 -1       440 6.66015E+00
 -1       441 5.21895E+00
 -1       442 3.87011E+00
 -1       443 2.68483E+00
 -1       444 1.69447E+00
 -1       445 8.83234E-01
 -1       446 4.95377E+01
 -1       447 3.23859E+01
 -1       448 2.40735E+01
 -1       449 1.92668E+01
 -1       450 1.55433E+01
 -1       451 1.20927E+01
 -1       452 8.55582E+00
 -1       453 4.81378E+00
 -1       454 5.91104E+00
 -1       455 8.36657E+00
 -1       456 9.83344E+00
 -1       457 1.03763E+01
 -1       458 1.03763E+01
 -1       459 1.01355E+01
 -1       460 9.45645E+00
 -1       461 8.63513E+00
 -1       462 7.44347E+00
 -1       463 6.06700E+00
 -1       464 4.66299E+00
 -1       465 3.34530E+00
 -1       466 2.18114E+00
 -1       467 1.18023E+00
 -1       468 4.78136E+01
 -1       469 3.20327E+01
 -1       470 2.40735E+01
 -1       471 1.96189E+01
 -1       472 1.63185E+01
 -1       473 1.33865E+01
 -1       474 1.04444E+01
 -1       475 7.31193E+00
 -1       476 3.95076E+00
 -1       477 5.77030E+00
 -1       478 7.95163E+00
 -1       479 9.25425E+00
 -1       480 9.71790E+00
 -1       481 9.71790E+00
 -1       482 9.45645E+00
 -1       483 8.75926E+00
 -1       484 7.93230E+00
 -1       485 6.75076E+00
 -1       486 5.39111E+00
 -1       487 4.00314E+00
 -1       488 2.69315E+00
 -1       489 1.50558E+00
 -1       490 4.60219E+01
 -1       491 3.16045E+01
 -1       492 2.40733E+01
 -1       493 1.98132E+01
 -1       494 1.68404E+01
 -1       495 1.43146E+01
 -1       496 1.18596E+01
 -1       497 9.26885E+00
 -1       498 6.44442E+00
 -1       499 3.38813E+00
 -1       500 5.54546E+00
 -1       501 7.50708E+00
 -1       502 8.66911E+00
 -1       503 9.05459E+00
 -1       504 9.05459E+00
 -1       505 8.75926E+00
 -1       506 8.01513E+00
 -1       507 7.16246E+00
 -1       508 5.96782E+00
 -1       509 4.59918E+00
 -1       510 3.19635E+00
 -1       511 1.84405E+00
 -1       512 4.41747E+01
 -1       513 3.11048E+01
 -1       514 2.39813E+01
 -1       515 1.98868E+01
 -1       516 1.71721E+01
 -1       517 1.49645E+01
 -1       518 1.29014E+01
 -1       519 1.07706E+01
 -1       520 8.44531E+00
 -1       521 5.87013E+00
 -1       522 3.06804E+00
 -1       523 5.23735E+00
 -1       524 7.01624E+00
 -1       525 8.05262E+00
 -1       526 8.35786E+00
 -1       527 8.35786E+00
 -1       528 8.01513E+00
 -1       529 7.19179E+00
 -1       530 6.29092E+00
 -1       531 5.05454E+00
 -1       532 3.63976E+00
 -1       533 2.16992E+00
 -1       534 4.22869E+01
 -1       535 3.05345E+01
 -1       536 2.38126E+01
 -1       537 1.98868E+01
 -1       538 1.73555E+01
 -1       539 1.53984E+01
 -1       540 1.36478E+01
 -1       541 1.18967E+01
 -1       542 1.00092E+01
 -1       543 7.90007E+00
 -1       544 5.53752E+00
 -1       545 2.95617E+00
 -1       546 4.83849E+00
 -1       547 6.45922E+00
 -1       548 7.37793E+00
 -1       549 7.59742E+00
 -1       550 7.59742E+00
 -1       551 7.19179E+00
 -1       552 6.29092E+00
 -1       553 5.27317E+00
 -1       554 3.95389E+00
 -1       555 2.44430E+00
 -1       556 4.03753E+01
 -1       557 2.98939E+01
 -1       558 2.35756E+01
 -1       559 1.98630E+01
 -1       560 1.74185E+01
 -1       561 1.56593E+01
 -1       562 1.41564E+01
 -1       563 1.27135E+01
 -1       564 1.11960E+01
 -1       565 9.50765E+00
 -1       566 7.58660E+00
 -1       567 5.41487E+00
 -1       568 3.03351E+00
 -1       569 4.33475E+00
 -1       570 5.81246E+00
 -1       571 6.61545E+00
 -1       572 6.73946E+00
 -1       573 6.73946E+00
 -1       574 6.25133E+00
 -1       575 5.27317E+00
 -1       576 4.05204E+00
 -1       577 2.61317E+00
 -1       578 3.84583E+01
 -1       579 2.91839E+01
 -1       580 2.32738E+01
 -1       581 1.97560E+01
 -1       582 1.74185E+01
 -1       583 1.57763E+01
 -1       584 1.44689E+01
 -1       585 1.32725E+01
 -1       586 1.20598E+01
 -1       587 1.07343E+01
 -1       588 9.22185E+00
 -1       589 7.47462E+00
 -1       590 5.48272E+00
 -1       591 3.29051E+00
 -1       592 3.70653E+00
 -1       593 5.04871E+00
 -1       594 5.73229E+00
 -1       595 5.74604E+00
 -1       596 5.74604E+00
 -1       597 5.14890E+00
 -1       598 4.05204E+00
 -1       599 2.61317E+00
 -1       600 3.65562E+01
 -1       601 2.84066E+01
 -1       602 2.29085E+01
 -1       603 1.95733E+01
 -1       604 1.73780E+01
 -1       605 1.57763E+01
 -1       606 1.46130E+01
 -1       607 1.36111E+01
 -1       608 1.26441E+01
 -1       609 1.16211E+01
 -1       610 1.04667E+01
 -1       611 9.12026E+00
 -1       612 7.54237E+00
 -1       613 5.72766E+00
 -1       614 3.72163E+00
 -1       615 2.93070E+00
 -1       616 4.13890E+00
 -1       617 4.69469E+00
 -1       618 4.69469E+00
 -1       619 4.57818E+00
 -1       620 3.83630E+00
 -1       621 2.60786E+00
 -1       622 3.46890E+01
 -1       623 2.75669E+01
 -1       624 2.24785E+01
 -1       625 1.93174E+01
 -1       626 1.72435E+01
 -1       627 1.57673E+01
 -1       628 1.46130E+01
 -1       629 1.37539E+01
 -1       630 1.29806E+01
 -1       631 1.22021E+01
 -1       632 1.13482E+01
 -1       633 1.03567E+01
 -1       634 9.17533E+00
 -1       635 7.76946E+00
 -1       636 6.13550E+00
 -1       637 4.31786E+00
 -1       638 2.42277E+00
 -1       639 3.05951E+00
 -1       640 3.47872E+00
 -1       641 3.47872E+00
 -1       642 3.21053E+00
 -1       643 2.35004E+00
 -1       644 3.28856E+01
 -1       645 2.66717E+01
 -1       646 2.19840E+01
 -1       647 1.89885E+01
 -1       648 1.70177E+01
 -1       649 1.56407E+01
 -1       650 1.46048E+01
 -1       651 1.37539E+01
 -1       652 1.30875E+01
 -1       653 1.24998E+01
 -1       654 1.18881E+01
 -1       655 1.11950E+01
 -1       656 1.03665E+01
 -1       657 9.35508E+00
 -1       658 8.12794E+00
 -1       659 6.68056E+00
 -1       660 5.05331E+00
 -1       661 3.34531E+00
 -1       662 1.91552E+00
 -1       663 2.10203E+00
 -1       664 2.10203E+00
 -1       665 1.76425E+00
 -1       666 3.11343E+01
 -1       667 2.57354E+01
 -1       668 2.14180E+01
 -1       669 1.85760E+01
 -1       670 1.66953E+01
 -1       671 1.53974E+01
 -1       672 1.44512E+01
 -1       673 1.37135E+01
 -1       674 1.30875E+01
 -1       675 1.25213E+01
 -1       676 1.20977E+01
 -1       677 1.16436E+01
 -1       678 1.11094E+01
 -1       679 1.04465E+01
 -1       680 9.60983E+00
 -1       681 8.56601E+00
 -1       682 7.30575E+00
 -1       683 5.85974E+00
 -1       684 4.31162E+00
 -1       685 2.79944E+00
 -1       686 1.50098E+00
 -1       687 9.24386E-01
 -1       688 2.96442E+01
 -1       689 2.47542E+01
 -1       690 2.07831E+01
 -1       691 1.80920E+01
 -1       692 1.62818E+01
 -1       693 1.50338E+01
 -1       694 1.41443E+01
 -1       695 1.34840E+01
 -1       696 1.29650E+01
 -1       697 1.25213E+01
 -1       698 1.20977E+01
 -1       699 1.17043E+01
 -1       700 1.13961E+01
 -1       701 1.10138E+01
 -1       702 1.05126E+01
 -1       703 9.84738E+00
 -1       704 8.97966E+00
 -1       705 7.88800E+00
 -1       706 6.58152E+00
 -1       707 5.11006E+00
 -1       708 3.56582E+00
 -1       709 2.03750E+00
 -1       710 2.92921E+01
 -1       711 2.37207E+01
 -1       712 2.00867E+01
 -1       713 1.74595E+01
 -1       714 1.56726E+01
 -1       715 1.44601E+01
 -1       716 1.36237E+01
 -1       717 1.30327E+01
 -1       718 1.26004E+01
 -1       719 1.22655E+01
 -1       720 1.19806E+01
 -1       721 1.17043E+01
 -1       722 1.13961E+01
 -1       723 1.10184E+01
 -1       724 1.07694E+01
 -1       725 1.04122E+01
 -1       726 9.89640E+00
 -1       727 9.17000E+00
 -1       728 8.18614E+00
 -1       729 6.91053E+00
 -1       730 5.32549E+00
 -1       731 3.45880E+00
 -1       732 2.92921E+01
 -1       733 2.31319E+01
 -1       734 1.89513E+01
 -1       735 1.63981E+01
 -1       736 1.47806E+01
 -1       737 1.37021E+01
 -1       738 1.29525E+01
 -1       739 1.24180E+01
 -1       740 1.20318E+01
 -1       741 1.17496E+01
 -1       742 1.15378E+01
 -1       743 1.13662E+01
 -1       744 1.12044E+01
 -1       745 1.10184E+01
 -1       746 1.07694E+01
 -1       747 1.04122E+01
 -1       748 9.89640E+00
 -1       749 9.46203E+00
 -1       750 8.79477E+00
 -1       751 7.79353E+00
 -1       752 6.34699E+00
 -1       753 4.41127E+00
 -1       754 7.12916E+01
 -1       755 4.40689E+01
 -1       756 2.52970E+01
 -1       757 1.82619E+01
 -1       758 1.47908E+01
 -1       759 1.28811E+01
 -1       760 1.21577E+01
 -1       761 1.15975E+01
 -1       762 1.11849E+01
 -1       763 1.08931E+01
 -1       764 1.06941E+01
 -1       765 1.05613E+01
 -1       766 1.04693E+01
 -1       767 1.03910E+01
 -1       768 1.02952E+01
 -1       769 1.01432E+01
 -1       770 9.88613E+00
 -1       771 9.46203E+00
 -1       772 8.79477E+00
 -1       773 7.79353E+00
 -1       774 6.37404E+00
 -1       775 4.58964E+00
 -1       776 7.18200E+01
 -1       777 7.18200E+01
 -1       778 6.38297E+01
 -1       779 3.85884E+01
 -1       780 2.31325E+01
 -1       781 2.71426E+01
 -1       782 3.33464E+01
 -1       783 3.51081E+01
 -1       784 3.51081E+01
 -1       785 3.41190E+01
 -1       786 3.14051E+01
 -1       787 2.76073E+01
 -1       788 2.31632E+01
 -1       789 1.84065E+01
 -1       790 1.36147E+01
 -1       791 9.02986E+00
 -1       792 6.59438E+00
 -1       793 6.67269E+00
 -1       794 6.67269E+00
 -1       795 6.58538E+00
 -1       796 6.18678E+00
 -1       797 5.13432E+00
 -1       798 3.09360E+01
 -1       799 3.08404E+01
 -1       800 2.79074E+01
 -1       801 2.38532E+01
 -1       802 1.95504E+01
 -1       803 1.53880E+01
 -1       804 1.15268E+01
 -1       805 8.22754E+00
 -1       806 6.42916E+00
 -1       807 4.86534E+00
 -1       808 3.53352E+00
 -1       809 3.41345E+00
 -1       810 4.71739E+00
 -1       811 5.96675E+00
 -1       812 7.13694E+00
 -1       813 8.22205E+00
 -1       814 9.18596E+00
 -1       815 9.93764E+00
 -1       816 1.02960E+01
 -1       817 1.02960E+01
 -1       818 9.95874E+00
 -1       819 8.56841E+00
 -1       820 1.25986E+01
 -1       821 1.25223E+01
 -1       822 1.19290E+01
 -1       823 1.09240E+01
 -1       824 9.60946E+00
 -1       825 8.08427E+00
 -1       826 6.49002E+00
 -1       827 5.68357E+00
 -1       828 4.89137E+00
 -1       829 4.13547E+00
 -1       830 3.47078E+00
 -1       831 4.73467E+00
 -1       832 5.98867E+00
 -1       833 7.22884E+00
 -1       834 8.44836E+00
 -1       835 9.62936E+00
 -1       836 1.07300E+01
 -1       837 1.16651E+01
 -1       838 1.22845E+01
 -1       839 1.23661E+01
 -1       840 1.23661E+01
 -1       841 1.16684E+01
 -1       842 6.16927E+00
 -1       843 5.91746E+00
 -1       844 5.53280E+00
 -1       845 5.19233E+00
 -1       846 4.92934E+00
 -1       847 4.60441E+00
 -1       848 4.23064E+00
 -1       849 3.82424E+00
 -1       850 3.40188E+00
 -1       851 3.25546E+00
 -1       852 4.37128E+00
 -1       853 5.53917E+00
 -1       854 6.75512E+00
 -1       855 8.01505E+00
 -1       856 9.31179E+00
 -1       857 1.06298E+01
 -1       858 1.19365E+01
 -1       859 1.31693E+01
 -1       860 1.42190E+01
 -1       861 1.49105E+01
 -1       862 1.49105E+01
 -1       863 1.16684E+01
 -1       864 4.27436E+00
 -1       865 4.19013E+00
 -1       866 4.07648E+00
 -1       867 3.93465E+00
 -1       868 3.76370E+00
 -1       869 3.56518E+00
 -1       870 3.34274E+00
 -1       871 3.10204E+00
 -1       872 2.85023E+00
 -1       873 3.80801E+00
 -1       874 4.85540E+00
 -1       875 5.99106E+00
 -1       876 7.21817E+00
 -1       877 8.53917E+00
 -1       878 9.95342E+00
 -1       879 1.14533E+01
 -1       880 1.30181E+01
 -1       881 1.46046E+01
 -1       882 1.51255E+01
 -1       883 1.51255E+01
 -1       884 1.49105E+01
 -1       885 1.01993E+01
 -1       886 3.51189E+00
 -1       887 3.45454E+00
 -1       888 3.38253E+00
 -1       889 3.29844E+00
 -1       890 3.20033E+00
 -1       891 3.08839E+00
 -1       892 2.96404E+00
 -1       893 2.82994E+00
 -1       894 3.14215E+00
 -1       895 4.05849E+00
 -1       896 5.08689E+00
 -1       897 6.23703E+00
 -1       898 7.51842E+00
 -1       899 8.93908E+00
 -1       900 1.05034E+01
 -1       901 1.22091E+01
 -1       902 1.40439E+01
 -1       903 1.75332E+01
 -1       904 1.75332E+01
 -1       905 1.55554E+01
 -1       906 1.32108E+01
 -1       907 1.06095E+01
 -1       908 2.99033E+00
 -1       909 2.96788E+00
 -1       910 2.93761E+00
 -1       911 2.90405E+00
 -1       912 2.86556E+00
 -1       913 2.82224E+00
 -1       914 2.77461E+00
 -1       915 2.72385E+00
 -1       916 3.23415E+00
 -1       917 4.13158E+00
 -1       918 5.17116E+00
 -1       919 6.36899E+00
 -1       920 7.73895E+00
 -1       921 9.29082E+00
 -1       922 1.10285E+01
 -1       923 1.29486E+01
 -1       924 1.50405E+01
 -1       925 1.77293E+01
 -1       926 1.77293E+01
 -1       927 1.58632E+01
 -1       928 1.37150E+01
 -1       929 1.10922E+01
 -1       930 2.60432E+00
 -1       931 2.60870E+00
 -1       932 2.61615E+00
 -1       933 2.62541E+00
 -1       934 2.63679E+00
 -1       935 2.65069E+00
 -1       936 2.66763E+00
 -1       937 2.69130E+00
 -1       938 3.23415E+00
 -1       939 4.13158E+00
 -1       940 5.18752E+00
 -1       941 6.46021E+00
 -1       942 7.94590E+00
 -1       943 9.65095E+00
 -1       944 1.15716E+01
 -1       945 1.36960E+01
 -1       946 1.60086E+01
 -1       947 1.77997E+01
 -1       948 1.77997E+01
 -1       949 1.60302E+01
 -1       950 1.40519E+01
 -1       951 1.16397E+01
 -1       952 2.30752E+00
 -1       953 2.33874E+00
 -1       954 2.37771E+00
 -1       955 2.42374E+00
 -1       956 2.47759E+00
 -1       957 2.53990E+00
 -1       958 2.61110E+00
 -1       959 2.69130E+00
 -1       960 3.21316E+00
 -1       961 4.11237E+00
 -1       962 5.20217E+00
 -1       963 6.57585E+00
 -1       964 8.19819E+00
 -1       965 1.00657E+01
 -1       966 1.21597E+01
 -1       967 1.44535E+01
 -1       968 1.69245E+01
 -1       969 1.77997E+01
 -1       970 1.77997E+01
 -1       971 1.60562E+01
 -1       972 1.42405E+01
 -1       973 1.20836E+01
 -1       974 2.04562E+00
 -1       975 2.09671E+00
 -1       976 2.15904E+00
 -1       977 2.23256E+00
 -1       978 2.31863E+00
 -1       979 2.41836E+00
 -1       980 2.53243E+00
 -1       981 2.66080E+00
 -1       982 3.13969E+00
 -1       983 4.06491E+00
 -1       984 5.27476E+00
 -1       985 6.77498E+00
 -1       986 8.54639E+00
 -1       987 1.05681E+01
 -1       988 1.28010E+01
 -1       989 1.52016E+01
 -1       990 1.77431E+01
 -1       991 1.77431E+01
 -1       992 1.77329E+01
 -1       993 1.60562E+01
 -1       994 1.43012E+01
 -1       995 1.23992E+01
 -1       996 1.79755E+00
 -1       997 1.86251E+00
 -1       998 1.94153E+00
 -1       999 2.03532E+00
 -1      1000 2.14589E+00
 -1      1001 2.27497E+00
 -1      1002 2.42364E+00
 -1      1003 2.59181E+00
 -1      1004 3.06110E+00
 -1      1005 4.10205E+00
 -1      1006 5.46117E+00
 -1      1007 7.10887E+00
 -1      1008 9.02733E+00
 -1      1009 1.11718E+01
 -1      1010 1.34813E+01
 -1      1011 1.59001E+01
 -1      1012 1.84058E+01
 -1      1013 1.84058E+01
 -1      1014 1.75389E+01
 -1      1015 1.59546E+01
 -1      1016 1.43012E+01
 -1      1017 1.26109E+01
 -1      1018 1.54671E+00
 -1      1019 1.62071E+00
 -1      1020 1.71156E+00
 -1      1021 1.82091E+00
 -1      1022 1.95157E+00
 -1      1023 2.10589E+00
 -1      1024 2.28521E+00
 -1      1025 2.48912E+00
 -1      1026 3.07088E+00
 -1      1027 4.29322E+00
 -1      1028 5.81274E+00
 -1      1029 7.61582E+00
 -1      1030 9.65672E+00
 -1      1031 1.18647E+01
 -1      1032 1.41624E+01
 -1      1033 1.64926E+01
 -1      1034 1.88506E+01
 -1      1035 1.88506E+01
 -1      1036 1.72414E+01
 -1      1037 1.57493E+01
 -1      1038 1.42575E+01
 -1      1039 1.27396E+01
 -1      1040 1.27779E+00
 -1      1041 1.35760E+00
 -1      1042 1.45791E+00
 -1      1043 1.58160E+00
 -1      1044 1.73235E+00
 -1      1045 1.91294E+00
 -1      1046 2.12440E+00
 -1      1047 2.36499E+00
 -1      1048 3.26380E+00
 -1      1049 4.67226E+00
 -1      1050 6.37115E+00
 -1      1051 8.31324E+00
 -1      1052 1.04215E+01
 -1      1053 1.26052E+01
 -1      1054 1.47832E+01
 -1      1055 1.69129E+01
 -1      1056 1.90210E+01
 -1      1057 1.90210E+01
 -1      1058 1.68727E+01
 -1      1059 1.54701E+01
 -1      1060 1.41357E+01
 -1      1061 1.28049E+01
 -1      1062 9.74827E-01
 -1      1063 1.05968E+00
 -1      1064 1.17081E+00
 -1      1065 1.31266E+00
 -1      1066 1.48953E+00
 -1      1067 1.70387E+00
 -1      1068 1.95496E+00
 -1      1069 2.33602E+00
 -1      1070 3.66394E+00
 -1      1071 5.28919E+00
 -1      1072 7.15900E+00
 -1      1073 9.18805E+00
 -1      1074 1.12746E+01
 -1      1075 1.33228E+01
 -1      1076 1.52666E+01
 -1      1077 1.70941E+01
 -1      1078 1.90210E+01
 -1      1079 1.90210E+01
 -1      1080 1.64681E+01
 -1      1081 1.51479E+01
 -1      1082 1.39620E+01
 -1      1083 1.28260E+01
 -1      1084 6.84335E-01
 -1      1085 7.35013E-01
 -1      1086 8.42162E-01
 -1      1087 1.01334E+00
 -1      1088 1.23036E+00
 -1      1089 1.49334E+00
 -1      1090 1.79694E+00
 -1      1091 2.74095E+00
 -1      1092 4.33553E+00
 -1      1093 6.17738E+00
 -1      1094 8.16691E+00
 -1      1095 1.01884E+01
 -1      1096 1.21340E+01
 -1      1097 1.39252E+01
 -1      1098 1.55299E+01
 -1      1099 1.70941E+01
 -1      1100 1.88748E+01
 -1      1101 1.88748E+01
 -1      1102 1.60612E+01
 -1      1103 1.48113E+01
 -1      1104 1.37606E+01
 -1      1105 1.28325E+01
 -1      1106 1.18539E+00
 -1      1107 1.25431E+00
 -1      1108 1.25431E+00
 -1      1109 1.18455E+00
 -1      1110 9.70223E-01
 -1      1111 1.30391E+00
 -1      1112 1.84252E+00
 -1      1113 3.45740E+00
 -1      1114 5.32927E+00
 -1      1115 7.33594E+00
 -1      1116 9.34051E+00
 -1      1117 1.12206E+01
 -1      1118 1.28901E+01
 -1      1119 1.43108E+01
 -1      1120 1.55299E+01
 -1      1121 1.69795E+01
 -1      1122 1.83911E+01
 -1      1123 1.83911E+01
 -1      1124 1.56807E+01
 -1      1125 1.44839E+01
 -1      1126 1.35510E+01
 -1      1127 1.28325E+01
 -1      1128 1.86247E+00
 -1      1129 1.91611E+00
 -1      1130 1.91611E+00
 -1      1131 1.75120E+00
 -1      1132 1.27732E+00
 -1      1133 1.16583E+00
 -1      1134 2.58807E+00
 -1      1135 4.56164E+00
 -1      1136 6.65862E+00
 -1      1137 8.71007E+00
 -1      1138 1.05731E+01
 -1      1139 1.21548E+01
 -1      1140 1.34196E+01
 -1      1141 1.43855E+01
 -1      1142 1.54987E+01
 -1      1143 1.65330E+01
 -1      1144 1.75763E+01
 -1      1145 1.75902E+01
 -1      1146 1.75902E+01
 -1      1147 1.41826E+01
 -1      1148 1.33482E+01
 -1      1149 1.28590E+01
 -1      1150 2.75842E+00
 -1      1151 2.75842E+00
 -1      1152 2.73093E+00
 -1      1153 2.36194E+00
 -1      1154 1.54292E+00
 -1      1155 1.64157E+00
 -1      1156 3.80771E+00
 -1      1157 6.08989E+00
 -1      1158 8.27062E+00
 -1      1159 1.01772E+01
 -1      1160 1.17095E+01
 -1      1161 1.28413E+01
 -1      1162 1.36059E+01
 -1      1163 1.43855E+01
 -1      1164 1.51207E+01
 -1      1165 1.57483E+01
 -1      1166 1.64657E+01
 -1      1167 1.75902E+01
 -1      1168 1.75902E+01
 -1      1169 1.39373E+01
 -1      1170 1.31619E+01
 -1      1171 1.29477E+01
 -1      1172 3.92432E+00
 -1      1173 3.92432E+00
 -1      1174 3.69267E+00
 -1      1175 2.93744E+00
 -1      1176 1.54806E+00
 -1      1177 2.97682E+00
 -1      1178 5.57442E+00
 -1      1179 7.99498E+00
 -1      1180 1.00219E+01
 -1      1181 1.15480E+01
 -1      1182 1.25652E+01
 -1      1183 1.31355E+01
 -1      1184 1.36059E+01
 -1      1185 1.40807E+01
 -1      1186 1.43786E+01
 -1      1187 1.46532E+01
 -1      1188 1.51218E+01
 -1      1189 1.61157E+01
 -1      1190 1.61157E+01
 -1      1191 1.38143E+01
 -1      1192 1.30039E+01
 -1      1193 1.30169E+01
 -1      1194 5.43350E+00
 -1      1195 5.41411E+00
 -1      1196 4.75531E+00
 -1      1197 3.31761E+00
 -1      1198 1.92821E+00
 -1      1199 5.03486E+00
 -1      1200 7.85506E+00
 -1      1201 1.01056E+01
 -1      1202 1.16748E+01
 -1      1203 1.25893E+01
 -1      1204 1.29583E+01
 -1      1205 1.31355E+01
 -1      1206 1.33618E+01
 -1      1207 1.33687E+01
 -1      1208 1.33687E+01
 -1      1209 1.33089E+01
 -1      1210 1.36265E+01
 -1      1211 1.45788E+01
 -1      1212 1.45788E+01
 -1      1213 1.37253E+01
 -1      1214 1.28838E+01
 -1      1215 1.30702E+01
 -1      1216 7.75915E+00
 -1      1217 7.26625E+00
 -1      1218 5.78882E+00
 -1      1219 3.31761E+00
 -1      1220 4.34245E+00
 -1      1221 7.81527E+00
 -1      1222 1.04403E+01
 -1      1223 1.21126E+01
 -1      1224 1.29256E+01
 -1      1225 1.30674E+01
 -1      1226 1.30674E+01
 -1      1227 1.29583E+01
 -1      1228 1.29277E+01
 -1      1229 1.26503E+01
 -1      1230 1.22726E+01
 -1      1231 1.19375E+01
 -1      1232 1.20703E+01
 -1      1233 1.30619E+01
 -1      1234 1.36155E+01
 -1      1235 1.36155E+01
 -1      1236 1.27766E+01
 -1      1237 1.31108E+01
 -1      1238 1.09835E+01
 -1      1239 9.46930E+00
 -1      1240 6.48081E+00
 -1      1241 3.24450E+00
 -1      1242 7.81373E+00
 -1      1243 1.10577E+01
 -1      1244 1.29109E+01
 -1      1245 1.36051E+01
 -1      1246 1.36051E+01
 -1      1247 1.34649E+01
 -1      1248 1.30674E+01
 -1      1249 1.27501E+01
 -1      1250 1.21713E+01
 -1      1251 1.14976E+01
 -1      1252 1.08663E+01
 -1      1253 1.03994E+01
 -1      1254 1.05401E+01
 -1      1255 1.16338E+01
 -1      1256 1.35004E+01
 -1      1257 1.35004E+01
 -1      1258 1.26907E+01
 -1      1259 1.31414E+01
 -1      1260 1.54637E+01
 -1      1261 1.18302E+01
 -1      1262 6.48081E+00
 -1      1263 7.70941E+00
 -1      1264 1.20190E+01
 -1      1265 1.41636E+01
 -1      1266 1.46860E+01
 -1      1267 1.46860E+01
 -1      1268 1.41612E+01
 -1      1269 1.34649E+01
 -1      1270 1.28044E+01
 -1      1271 1.18844E+01
 -1      1272 1.09012E+01
 -1      1273 9.99384E+00
 -1      1274 9.26244E+00
 -1      1275 8.79310E+00
 -1      1276 9.10896E+00
 -1      1277 1.03443E+01
 -1      1278 1.33909E+01
 -1      1279 1.33909E+01
 -1      1280 1.26190E+01
 -1      1281 1.31641E+01
 -1      1282 2.15072E+01
 -1      1283 1.38475E+01
 -1      1284 7.10866E+00
 -1      1285 1.34376E+01
 -1      1286 1.60412E+01
 -1      1287 1.62627E+01
 -1      1288 1.62627E+01
 -1      1289 1.51672E+01
 -1      1290 1.41612E+01
 -1      1291 1.30623E+01
 -1      1292 1.17365E+01
 -1      1293 1.04142E+01
 -1      1294 9.23499E+00
 -1      1295 8.27786E+00
 -1      1296 7.59241E+00
 -1      1297 7.25796E+00
 -1      1298 7.82943E+00
 -1      1299 9.22319E+00
 -1      1300 1.32934E+01
 -1      1301 1.32934E+01
 -1      1302 1.25940E+01
 -1      1303 1.31807E+01
 -1      1304 2.97921E+01
 -1      1305 1.38475E+01
 -1      1306 1.55437E+01
 -1      1307 1.88622E+01
 -1      1308 1.88622E+01
 -1      1309 1.84732E+01
 -1      1310 1.64704E+01
 -1      1311 1.51672E+01
 -1      1312 1.34783E+01
 -1      1313 1.16537E+01
 -1      1314 9.95295E+00
 -1      1315 8.50268E+00
 -1      1316 7.35094E+00
 -1      1317 6.50924E+00
 -1      1318 5.98221E+00
 -1      1319 5.99517E+00
 -1      1320 6.73214E+00
 -1      1321 8.28223E+00
 -1      1322 1.32111E+01
 -1      1323 1.32111E+01
 -1      1324 1.25754E+01
 -1      1325 1.31926E+01
 -1      1326 3.80768E+01
 -1      1327 1.88984E+01
 -1      1328 2.32250E+01
 -1      1329 2.32250E+01
 -1      1330 2.14635E+01
 -1      1331 1.84732E+01
 -1      1332 1.64704E+01
 -1      1333 1.39580E+01
 -1      1334 1.15146E+01
 -1      1335 9.39934E+00
 -1      1336 7.69239E+00
 -1      1337 6.38767E+00
 -1      1338 5.44829E+00
 -1      1339 4.83692E+00
 -1      1340 4.54552E+00
 -1      1341 4.93151E+00
 -1      1342 5.82768E+00
 -1      1343 7.51872E+00
 -1      1344 1.31448E+01
 -1      1345 1.31448E+01
 -1      1346 1.25609E+01
 -1      1347 1.32009E+01
 -1      1348 4.48377E+01
 -1      1349 3.00783E+01
 -1      1350 3.00783E+01
 -1      1351 2.51276E+01
 -1      1352 2.14635E+01
 -1      1353 1.79520E+01
 -1      1354 1.42821E+01
 -1      1355 1.10993E+01
 -1      1356 8.57175E+00
 -1      1357 6.66576E+00
 -1      1358 5.28298E+00
 -1      1359 4.32266E+00
 -1      1360 3.70427E+00
 -1      1361 3.37441E+00
 -1      1362 3.52299E+00
 -1      1363 4.07579E+00
 -1      1364 5.11095E+00
 -1      1365 6.91995E+00
 -1      1366 1.30939E+01
 -1      1367 1.30939E+01
 -1      1368 1.25502E+01
 -1      1369 1.32065E+01
 -1      1370 4.48377E+01
 -1      1371 3.96014E+01
 -1      1372 3.00783E+01
 -1      1373 2.51276E+01
 -1      1374 1.91195E+01
 -1      1375 1.39218E+01
 -1      1376 9.98930E+00
 -1      1377 7.18087E+00
 -1      1378 5.23459E+00
 -1      1379 3.91535E+00
 -1      1380 3.04900E+00
 -1      1381 2.51671E+00
 -1      1382 2.24329E+00
 -1      1383 2.34169E+00
 -1      1384 2.72821E+00
 -1      1385 3.41945E+00
 -1      1386 4.56625E+00
 -1      1387 6.46739E+00
 -1      1388 1.30568E+01
 -1      1389 1.30568E+01
 -1      1390 1.25424E+01
 -1      1391 1.32101E+01
 -1      1392 3.96014E+01
 -1      1393 3.96014E+01
 -1      1394 2.78923E+01
 -1      1395 1.82473E+01
 -1      1396 1.16049E+01
 -1      1397 7.40061E+00
 -1      1398 4.78475E+00
 -1      1399 3.46688E+00
 -1      1400 2.67328E+00
 -1      1401 2.03560E+00
 -1      1402 1.49405E+00
 -1      1403 1.12628E+00
 -1      1404 1.29914E+00
 -1      1405 1.62657E+00
 -1      1406 2.14709E+00
 -1      1407 2.94271E+00
 -1      1408 4.17195E+00
 -1      1409 6.13997E+00
 -1      1410 1.30315E+01
 -1      1411 1.30315E+01
 -1      1412 1.25371E+01
 -1      1413 1.32122E+01
 -3
 9999
