    1C
    1UUSER                                                              
    1UDATE              15.may.2021                                     
    1UTIME              14:51:16                                        
    1UHOST                                                              
    1UPGM               CalculiX                                        
    1UVERSION           Version 2.17                             
    1UCOMPILETIME       Thu Jul 23 21:43:50 CEST 2020                    
    1UDIR                                                               
    1UDBN                                                               
    1UMAT    1STEEL                                                     
    1UMAT    2CONTACT                                                   
    2C                           427                                     1
 -1         1 0.00000E+00 0.00000E+00 0.00000E+00
 -1         2 1.00000E+01 1.00000E+01 0.00000E+00
 -1         3 4.99792E-01 1.24974E-02 0.00000E+00
 -1         4 1.04212E+00 5.44489E-02 0.00000E+00
 -1         5 1.63835E+00 1.35122E-01 0.00000E+00
 -1         6 2.28673E+00 2.64967E-01 0.00000E+00
 -1         7 2.98765E+00 4.56732E-01 0.00000E+00
 -1         8 3.73954E+00 7.25528E-01 0.00000E+00
 -1         9 4.53803E+00 1.08898E+00 0.00000E+00
 -1        10 5.37479E+00 1.56723E+00 0.00000E+00
 -1        11 6.23615E+00 2.18268E+00 0.00000E+00
 -1        12 7.10134E+00 2.95934E+00 0.00000E+00
 -1        13 7.94049E+00 3.92146E+00 0.00000E+00
 -1        14 8.71235E+00 5.09134E+00 0.00000E+00
 -1        15 9.36216E+00 6.48575E+00 0.00000E+00
 -1        16 9.82028E+00 8.11264E+00 0.00000E+00
 -1        17 9.50000E+00 1.00000E+01 0.00000E+00
 -1        18 8.95000E+00 1.00000E+01 0.00000E+00
 -1        19 8.34500E+00 1.00000E+01 0.00000E+00
 -1        20 7.67950E+00 1.00000E+01 0.00000E+00
 -1        21 6.94745E+00 1.00000E+01 0.00000E+00
 -1        22 6.14220E+00 1.00000E+01 0.00000E+00
 -1        23 5.25641E+00 1.00000E+01 0.00000E+00
 -1        24 4.28206E+00 1.00000E+01 0.00000E+00
 -1        25 3.21026E+00 1.00000E+01 0.00000E+00
 -1        26 2.03129E+00 1.00000E+01 0.00000E+00
 -1        27 7.34416E-01 1.00000E+01 0.00000E+00
 -1        28 0.00000E+00 1.00000E+01 0.00000E+00
 -1        29 0.00000E+00 5.00000E-01 0.00000E+00
 -1        30 0.00000E+00 1.05000E+00 0.00000E+00
 -1        31 0.00000E+00 1.65500E+00 0.00000E+00
 -1        32 0.00000E+00 2.32050E+00 0.00000E+00
 -1        33 0.00000E+00 3.05255E+00 0.00000E+00
 -1        34 0.00000E+00 3.85781E+00 0.00000E+00
 -1        35 0.00000E+00 4.74359E+00 0.00000E+00
 -1        36 0.00000E+00 5.71794E+00 0.00000E+00
 -1        37 0.00000E+00 6.78974E+00 0.00000E+00
 -1        38 0.00000E+00 7.96871E+00 0.00000E+00
 -1        39 0.00000E+00 9.26558E+00 0.00000E+00
 -1        40 4.74802E-01 5.11873E-01 0.00000E+00
 -1        41 4.47314E-01 1.06119E+00 0.00000E+00
 -1        42 4.17076E-01 1.66543E+00 0.00000E+00
 -1        43 3.83815E-01 2.33010E+00 0.00000E+00
 -1        44 3.47228E-01 3.06123E+00 0.00000E+00
 -1        45 3.06982E-01 3.86548E+00 0.00000E+00
 -1        46 2.62711E-01 4.75015E+00 0.00000E+00
 -1        47 2.14014E-01 5.72330E+00 0.00000E+00
 -1        48 1.60446E-01 6.79375E+00 0.00000E+00
 -1        49 1.01522E-01 7.97125E+00 0.00000E+00
 -1        50 3.67055E-02 9.26650E+00 0.00000E+00
 -1        51 9.90013E-01 5.51726E-01 0.00000E+00
 -1        52 9.32697E-01 1.09873E+00 0.00000E+00
 -1        53 8.69649E-01 1.70044E+00 0.00000E+00
 -1        54 8.00296E-01 2.36231E+00 0.00000E+00
 -1        55 7.24007E-01 3.09038E+00 0.00000E+00
 -1        56 6.40090E-01 3.89125E+00 0.00000E+00
 -1        57 5.47781E-01 4.77221E+00 0.00000E+00
 -1        58 4.46241E-01 5.74126E+00 0.00000E+00
 -1        59 3.34548E-01 6.80722E+00 0.00000E+00
 -1        60 2.11684E-01 7.97977E+00 0.00000E+00
 -1        61 7.65350E-02 9.26958E+00 0.00000E+00
 -1        62 1.55643E+00 6.28366E-01 0.00000E+00
 -1        63 1.46632E+00 1.17093E+00 0.00000E+00
 -1        64 1.36720E+00 1.76776E+00 0.00000E+00
 -1        65 1.25817E+00 2.42427E+00 0.00000E+00
 -1        66 1.13824E+00 3.14643E+00 0.00000E+00
 -1        67 1.00631E+00 3.94080E+00 0.00000E+00
 -1        68 8.61185E-01 4.81461E+00 0.00000E+00
 -1        69 7.01551E-01 5.77580E+00 0.00000E+00
 -1        70 5.25953E-01 6.83312E+00 0.00000E+00
 -1        71 3.32796E-01 7.99616E+00 0.00000E+00
 -1        72 1.20323E-01 9.27551E+00 0.00000E+00
 -1        73 2.17239E+00 7.51719E-01 0.00000E+00
 -1        74 2.04662E+00 1.28715E+00 0.00000E+00
 -1        75 1.90828E+00 1.87611E+00 0.00000E+00
 -1        76 1.75609E+00 2.52398E+00 0.00000E+00
 -1        77 1.58869E+00 3.23663E+00 0.00000E+00
 -1        78 1.40455E+00 4.02055E+00 0.00000E+00
 -1        79 1.20200E+00 4.88286E+00 0.00000E+00
 -1        80 9.79190E-01 5.83140E+00 0.00000E+00
 -1        81 7.34100E-01 6.87480E+00 0.00000E+00
 -1        82 4.64501E-01 8.02253E+00 0.00000E+00
 -1        83 1.67941E-01 9.28504E+00 0.00000E+00
 -1        84 2.83827E+00 9.33896E-01 0.00000E+00
 -1        85 2.67395E+00 1.45878E+00 0.00000E+00
 -1        86 2.49319E+00 2.03614E+00 0.00000E+00
 -1        87 2.29436E+00 2.67125E+00 0.00000E+00
 -1        88 2.07565E+00 3.36986E+00 0.00000E+00
 -1        89 1.83507E+00 4.13834E+00 0.00000E+00
 -1        90 1.57043E+00 4.98366E+00 0.00000E+00
 -1        91 1.27933E+00 5.91352E+00 0.00000E+00
 -1        92 9.59113E-01 6.93636E+00 0.00000E+00
 -1        93 6.06877E-01 8.06149E+00 0.00000E+00
 -1        94 2.19418E-01 9.29913E+00 0.00000E+00
 -1        95 3.55257E+00 1.18925E+00 0.00000E+00
 -1        96 3.34689E+00 1.69935E+00 0.00000E+00
 -1        97 3.12065E+00 2.26045E+00 0.00000E+00
 -1        98 2.87178E+00 2.87767E+00 0.00000E+00
 -1        99 2.59803E+00 3.55661E+00 0.00000E+00
 -1       100 2.29690E+00 4.30344E+00 0.00000E+00
 -1       101 1.96566E+00 5.12495E+00 0.00000E+00
 -1       102 1.60129E+00 6.02862E+00 0.00000E+00
 -1       103 1.20049E+00 7.02265E+00 0.00000E+00
 -1       104 7.59609E-01 8.11609E+00 0.00000E+00
 -1       105 2.74638E-01 9.31887E+00 0.00000E+00
 -1       106 4.31113E+00 1.53453E+00 0.00000E+00
 -1       107 4.06154E+00 2.02464E+00 0.00000E+00
 -1       108 3.78699E+00 2.56375E+00 0.00000E+00
 -1       109 3.48498E+00 3.15678E+00 0.00000E+00
 -1       110 3.15277E+00 3.80911E+00 0.00000E+00
 -1       111 2.78735E+00 4.52668E+00 0.00000E+00
 -1       112 2.38538E+00 5.31600E+00 0.00000E+00
 -1       113 1.94321E+00 6.18425E+00 0.00000E+00
 -1       114 1.45683E+00 7.13933E+00 0.00000E+00
 -1       115 9.21804E-01 8.18992E+00 0.00000E+00
 -1       116 3.33280E-01 9.34556E+00 0.00000E+00
 -1       117 5.10605E+00 1.98887E+00 0.00000E+00
 -1       118 4.81044E+00 2.45267E+00 0.00000E+00
 -1       119 4.48526E+00 2.96285E+00 0.00000E+00
 -1       120 4.12757E+00 3.52405E+00 0.00000E+00
 -1       121 3.73411E+00 4.14137E+00 0.00000E+00
 -1       122 3.30130E+00 4.82043E+00 0.00000E+00
 -1       123 2.82521E+00 5.56739E+00 0.00000E+00
 -1       124 2.30151E+00 6.38904E+00 0.00000E+00
 -1       125 1.72545E+00 7.29286E+00 0.00000E+00
 -1       126 1.09177E+00 8.28706E+00 0.00000E+00
 -1       127 3.94733E-01 9.38068E+00 0.00000E+00
 -1       128 5.92434E+00 2.57355E+00 0.00000E+00
 -1       129 5.58135E+00 3.00350E+00 0.00000E+00
 -1       130 5.20406E+00 3.47645E+00 0.00000E+00
 -1       131 4.78905E+00 3.99669E+00 0.00000E+00
 -1       132 4.33253E+00 4.56896E+00 0.00000E+00
 -1       133 3.83036E+00 5.19845E+00 0.00000E+00
 -1       134 3.27798E+00 5.89089E+00 0.00000E+00
 -1       135 2.67035E+00 6.65258E+00 0.00000E+00
 -1       136 2.00197E+00 7.49044E+00 0.00000E+00
 -1       137 1.26674E+00 8.41208E+00 0.00000E+00
 -1       138 4.57993E-01 9.42588E+00 0.00000E+00
 -1       139 6.74627E+00 3.31137E+00 0.00000E+00
 -1       140 6.35570E+00 3.69861E+00 0.00000E+00
 -1       141 5.92607E+00 4.12457E+00 0.00000E+00
 -1       142 5.45347E+00 4.59312E+00 0.00000E+00
 -1       143 4.93362E+00 5.10853E+00 0.00000E+00
 -1       144 4.36178E+00 5.67549E+00 0.00000E+00
 -1       145 3.73276E+00 6.29914E+00 0.00000E+00
 -1       146 3.04083E+00 6.98515E+00 0.00000E+00
 -1       147 2.27972E+00 7.73976E+00 0.00000E+00
 -1       148 1.44249E+00 8.56984E+00 0.00000E+00
 -1       149 5.21534E-01 9.48292E+00 0.00000E+00
 -1       150 7.54346E+00 4.22539E+00 0.00000E+00
 -1       151 7.10674E+00 4.55971E+00 0.00000E+00
 -1       152 6.62634E+00 4.92746E+00 0.00000E+00
 -1       153 6.09790E+00 5.33198E+00 0.00000E+00
 -1       154 5.51661E+00 5.77696E+00 0.00000E+00
 -1       155 4.87720E+00 6.26644E+00 0.00000E+00
 -1       156 4.17385E+00 6.80487E+00 0.00000E+00
 -1       157 3.40016E+00 7.39714E+00 0.00000E+00
 -1       158 2.54910E+00 8.04863E+00 0.00000E+00
 -1       159 1.61294E+00 8.76527E+00 0.00000E+00
 -1       160 5.83162E-01 9.55358E+00 0.00000E+00
 -1       161 8.27674E+00 5.33678E+00 0.00000E+00
 -1       162 7.79756E+00 5.60675E+00 0.00000E+00
 -1       163 7.27046E+00 5.90373E+00 0.00000E+00
 -1       164 6.69065E+00 6.23040E+00 0.00000E+00
 -1       165 6.05286E+00 6.58974E+00 0.00000E+00
 -1       166 5.35130E+00 6.98501E+00 0.00000E+00
 -1       167 4.57957E+00 7.41981E+00 0.00000E+00
 -1       168 3.73068E+00 7.89809E+00 0.00000E+00
 -1       169 2.79689E+00 8.42419E+00 0.00000E+00
 -1       170 1.76973E+00 9.00291E+00 0.00000E+00
 -1       171 6.39850E-01 9.63950E+00 0.00000E+00
 -1       172 8.89405E+00 6.66146E+00 0.00000E+00
 -1       173 8.37913E+00 6.85475E+00 0.00000E+00
 -1       174 7.81272E+00 7.06736E+00 0.00000E+00
 -1       175 7.18967E+00 7.30123E+00 0.00000E+00
 -1       176 6.50431E+00 7.55849E+00 0.00000E+00
 -1       177 5.75042E+00 7.84148E+00 0.00000E+00
 -1       178 4.92114E+00 8.15277E+00 0.00000E+00
 -1       179 4.00893E+00 8.49518E+00 0.00000E+00
 -1       180 3.00550E+00 8.87183E+00 0.00000E+00
 -1       181 1.90172E+00 9.28615E+00 0.00000E+00
 -1       182 6.87572E-01 9.74191E+00 0.00000E+00
 -1       183 9.32926E+00 8.20701E+00 0.00000E+00
 -1       184 8.78915E+00 8.31081E+00 0.00000E+00
 -1       185 8.19502E+00 8.42500E+00 0.00000E+00
 -1       186 7.54148E+00 8.55060E+00 0.00000E+00
 -1       187 6.82259E+00 8.68877E+00 0.00000E+00
 -1       188 6.03181E+00 8.84075E+00 0.00000E+00
 -1       189 5.16195E+00 9.00793E+00 0.00000E+00
 -1       190 4.20510E+00 9.19182E+00 0.00000E+00
 -1       191 3.15257E+00 9.39411E+00 0.00000E+00
 -1       192 1.99478E+00 9.61662E+00 0.00000E+00
 -1       193 7.21217E-01 9.86139E+00 0.00000E+00
 -1       194 4.00000E+01 0.00000E+00 0.00000E+00
 -1       195 0.00000E+00 0.00000E+00 0.00000E+00
 -1       196 0.00000E+00-2.00000E+01 0.00000E+00
 -1       197 4.00000E+01-2.00000E+01 0.00000E+00
 -1       199 3.54050E+01 0.00000E+00 0.00000E+00
 -1       200 3.13274E+01 0.00000E+00 0.00000E+00
 -1       201 2.76174E+01 0.00000E+00 0.00000E+00
 -1       202 2.42365E+01 0.00000E+00 0.00000E+00
 -1       203 2.11562E+01 0.00000E+00 0.00000E+00
 -1       204 1.83504E+01 0.00000E+00 0.00000E+00
 -1       205 1.57950E+01 0.00000E+00 0.00000E+00
 -1       206 1.34681E+01 0.00000E+00 0.00000E+00
 -1       207 1.13496E+01 0.00000E+00 0.00000E+00
 -1       208 9.42113E+00 0.00000E+00 0.00000E+00
 -1       209 7.66580E+00 0.00000E+00 0.00000E+00
 -1       210 6.06827E+00 0.00000E+00 0.00000E+00
 -1       211 4.61451E+00 0.00000E+00 0.00000E+00
 -1       212 3.29169E+00 0.00000E+00 0.00000E+00
 -1       213 2.08813E+00 0.00000E+00 0.00000E+00
 -1       214 1.00000E+00 0.00000E+00 0.00000E+00
 -1       215 0.00000E+00-1.00000E+00 0.00000E+00
 -1       216 0.00000E+00-2.10000E+00 0.00000E+00
 -1       217 0.00000E+00-3.31000E+00 0.00000E+00
 -1       218 0.00000E+00-4.64100E+00 0.00000E+00
 -1       219 0.00000E+00-6.10510E+00 0.00000E+00
 -1       220 0.00000E+00-7.71561E+00 0.00000E+00
 -1       221 0.00000E+00-9.48717E+00 0.00000E+00
 -1       222 0.00000E+00-1.14359E+01 0.00000E+00
 -1       223 0.00000E+00-1.35795E+01 0.00000E+00
 -1       224 0.00000E+00-1.59374E+01 0.00000E+00
 -1       225 0.00000E+00-1.85312E+01 0.00000E+00
 -1       226 1.00000E+00-2.00000E+01 0.00000E+00
 -1       227 2.08813E+00-2.00000E+01 0.00000E+00
 -1       228 3.29169E+00-2.00000E+01 0.00000E+00
 -1       229 4.61451E+00-2.00000E+01 0.00000E+00
 -1       230 6.06827E+00-2.00000E+01 0.00000E+00
 -1       231 7.66580E+00-2.00000E+01 0.00000E+00
 -1       232 9.42113E+00-2.00000E+01 0.00000E+00
 -1       233 1.13496E+01-2.00000E+01 0.00000E+00
 -1       234 1.34681E+01-2.00000E+01 0.00000E+00
 -1       235 1.57950E+01-2.00000E+01 0.00000E+00
 -1       236 1.83504E+01-2.00000E+01 0.00000E+00
 -1       237 2.11562E+01-2.00000E+01 0.00000E+00
 -1       238 2.42365E+01-2.00000E+01 0.00000E+00
 -1       239 2.76174E+01-2.00000E+01 0.00000E+00
 -1       240 3.13274E+01-2.00000E+01 0.00000E+00
 -1       241 3.54050E+01-2.00000E+01 0.00000E+00
 -1       242 4.00000E+01-1.85312E+01 0.00000E+00
 -1       243 4.00000E+01-1.59374E+01 0.00000E+00
 -1       244 4.00000E+01-1.35795E+01 0.00000E+00
 -1       245 4.00000E+01-1.14359E+01 0.00000E+00
 -1       246 4.00000E+01-9.48717E+00 0.00000E+00
 -1       247 4.00000E+01-7.71561E+00 0.00000E+00
 -1       248 4.00000E+01-6.10510E+00 0.00000E+00
 -1       249 4.00000E+01-4.64100E+00 0.00000E+00
 -1       250 4.00000E+01-3.31000E+00 0.00000E+00
 -1       251 4.00000E+01-2.10000E+00 0.00000E+00
 -1       252 4.00000E+01-1.00000E+00 0.00000E+00
 -1       253 3.54050E+01-1.00000E+00 0.00000E+00
 -1       254 3.54050E+01-2.10000E+00 0.00000E+00
 -1       255 3.54050E+01-3.31000E+00 0.00000E+00
 -1       256 3.54050E+01-4.64100E+00 0.00000E+00
 -1       257 3.54050E+01-6.10510E+00 0.00000E+00
 -1       258 3.54050E+01-7.71561E+00 0.00000E+00
 -1       259 3.54050E+01-9.48717E+00 0.00000E+00
 -1       260 3.54050E+01-1.14359E+01 0.00000E+00
 -1       261 3.54050E+01-1.35795E+01 0.00000E+00
 -1       262 3.54050E+01-1.59374E+01 0.00000E+00
 -1       263 3.54050E+01-1.85312E+01 0.00000E+00
 -1       264 3.13274E+01-1.00000E+00 0.00000E+00
 -1       265 3.13274E+01-2.10000E+00 0.00000E+00
 -1       266 3.13274E+01-3.31000E+00 0.00000E+00
 -1       267 3.13274E+01-4.64100E+00 0.00000E+00
 -1       268 3.13274E+01-6.10510E+00 0.00000E+00
 -1       269 3.13274E+01-7.71561E+00 0.00000E+00
 -1       270 3.13274E+01-9.48717E+00 0.00000E+00
 -1       271 3.13274E+01-1.14359E+01 0.00000E+00
 -1       272 3.13274E+01-1.35795E+01 0.00000E+00
 -1       273 3.13274E+01-1.59374E+01 0.00000E+00
 -1       274 3.13274E+01-1.85312E+01 0.00000E+00
 -1       275 2.76174E+01-1.00000E+00 0.00000E+00
 -1       276 2.76174E+01-2.10000E+00 0.00000E+00
 -1       277 2.76174E+01-3.31000E+00 0.00000E+00
 -1       278 2.76174E+01-4.64100E+00 0.00000E+00
 -1       279 2.76174E+01-6.10510E+00 0.00000E+00
 -1       280 2.76174E+01-7.71561E+00 0.00000E+00
 -1       281 2.76174E+01-9.48717E+00 0.00000E+00
 -1       282 2.76174E+01-1.14359E+01 0.00000E+00
 -1       283 2.76174E+01-1.35795E+01 0.00000E+00
 -1       284 2.76174E+01-1.59374E+01 0.00000E+00
 -1       285 2.76174E+01-1.85312E+01 0.00000E+00
 -1       286 2.42365E+01-1.00000E+00 0.00000E+00
 -1       287 2.42365E+01-2.10000E+00 0.00000E+00
 -1       288 2.42365E+01-3.31000E+00 0.00000E+00
 -1       289 2.42365E+01-4.64100E+00 0.00000E+00
 -1       290 2.42365E+01-6.10510E+00 0.00000E+00
 -1       291 2.42365E+01-7.71561E+00 0.00000E+00
 -1       292 2.42365E+01-9.48717E+00 0.00000E+00
 -1       293 2.42365E+01-1.14359E+01 0.00000E+00
 -1       294 2.42365E+01-1.35795E+01 0.00000E+00
 -1       295 2.42365E+01-1.59374E+01 0.00000E+00
 -1       296 2.42365E+01-1.85312E+01 0.00000E+00
 -1       297 2.11562E+01-1.00000E+00 0.00000E+00
 -1       298 2.11562E+01-2.10000E+00 0.00000E+00
 -1       299 2.11562E+01-3.31000E+00 0.00000E+00
 -1       300 2.11562E+01-4.64100E+00 0.00000E+00
 -1       301 2.11562E+01-6.10510E+00 0.00000E+00
 -1       302 2.11562E+01-7.71561E+00 0.00000E+00
 -1       303 2.11562E+01-9.48717E+00 0.00000E+00
 -1       304 2.11562E+01-1.14359E+01 0.00000E+00
 -1       305 2.11562E+01-1.35795E+01 0.00000E+00
 -1       306 2.11562E+01-1.59374E+01 0.00000E+00
 -1       307 2.11562E+01-1.85312E+01 0.00000E+00
 -1       308 1.83504E+01-1.00000E+00 0.00000E+00
 -1       309 1.83504E+01-2.10000E+00 0.00000E+00
 -1       310 1.83504E+01-3.31000E+00 0.00000E+00
 -1       311 1.83504E+01-4.64100E+00 0.00000E+00
 -1       312 1.83504E+01-6.10510E+00 0.00000E+00
 -1       313 1.83504E+01-7.71561E+00 0.00000E+00
 -1       314 1.83504E+01-9.48717E+00 0.00000E+00
 -1       315 1.83504E+01-1.14359E+01 0.00000E+00
 -1       316 1.83504E+01-1.35795E+01 0.00000E+00
 -1       317 1.83504E+01-1.59374E+01 0.00000E+00
 -1       318 1.83504E+01-1.85312E+01 0.00000E+00
 -1       319 1.57950E+01-1.00000E+00 0.00000E+00
 -1       320 1.57950E+01-2.10000E+00 0.00000E+00
 -1       321 1.57950E+01-3.31000E+00 0.00000E+00
 -1       322 1.57950E+01-4.64100E+00 0.00000E+00
 -1       323 1.57950E+01-6.10510E+00 0.00000E+00
 -1       324 1.57950E+01-7.71561E+00 0.00000E+00
 -1       325 1.57950E+01-9.48717E+00 0.00000E+00
 -1       326 1.57950E+01-1.14359E+01 0.00000E+00
 -1       327 1.57950E+01-1.35795E+01 0.00000E+00
 -1       328 1.57950E+01-1.59374E+01 0.00000E+00
 -1       329 1.57950E+01-1.85312E+01 0.00000E+00
 -1       330 1.34681E+01-1.00000E+00 0.00000E+00
 -1       331 1.34681E+01-2.10000E+00 0.00000E+00
 -1       332 1.34681E+01-3.31000E+00 0.00000E+00
 -1       333 1.34681E+01-4.64100E+00 0.00000E+00
 -1       334 1.34681E+01-6.10510E+00 0.00000E+00
 -1       335 1.34681E+01-7.71561E+00 0.00000E+00
 -1       336 1.34681E+01-9.48717E+00 0.00000E+00
 -1       337 1.34681E+01-1.14359E+01 0.00000E+00
 -1       338 1.34681E+01-1.35795E+01 0.00000E+00
 -1       339 1.34681E+01-1.59374E+01 0.00000E+00
 -1       340 1.34681E+01-1.85312E+01 0.00000E+00
 -1       341 1.13496E+01-1.00000E+00 0.00000E+00
 -1       342 1.13496E+01-2.10000E+00 0.00000E+00
 -1       343 1.13496E+01-3.31000E+00 0.00000E+00
 -1       344 1.13496E+01-4.64100E+00 0.00000E+00
 -1       345 1.13496E+01-6.10510E+00 0.00000E+00
 -1       346 1.13496E+01-7.71561E+00 0.00000E+00
 -1       347 1.13496E+01-9.48717E+00 0.00000E+00
 -1       348 1.13496E+01-1.14359E+01 0.00000E+00
 -1       349 1.13496E+01-1.35795E+01 0.00000E+00
 -1       350 1.13496E+01-1.59374E+01 0.00000E+00
 -1       351 1.13496E+01-1.85312E+01 0.00000E+00
 -1       352 9.42113E+00-1.00000E+00 0.00000E+00
 -1       353 9.42113E+00-2.10000E+00 0.00000E+00
 -1       354 9.42113E+00-3.31000E+00 0.00000E+00
 -1       355 9.42113E+00-4.64100E+00 0.00000E+00
 -1       356 9.42113E+00-6.10510E+00 0.00000E+00
 -1       357 9.42113E+00-7.71561E+00 0.00000E+00
 -1       358 9.42113E+00-9.48717E+00 0.00000E+00
 -1       359 9.42113E+00-1.14359E+01 0.00000E+00
 -1       360 9.42113E+00-1.35795E+01 0.00000E+00
 -1       361 9.42113E+00-1.59374E+01 0.00000E+00
 -1       362 9.42113E+00-1.85312E+01 0.00000E+00
 -1       363 7.66580E+00-1.00000E+00 0.00000E+00
 -1       364 7.66580E+00-2.10000E+00 0.00000E+00
 -1       365 7.66580E+00-3.31000E+00 0.00000E+00
 -1       366 7.66580E+00-4.64100E+00 0.00000E+00
 -1       367 7.66580E+00-6.10510E+00 0.00000E+00
 -1       368 7.66580E+00-7.71561E+00 0.00000E+00
 -1       369 7.66580E+00-9.48717E+00 0.00000E+00
 -1       370 7.66580E+00-1.14359E+01 0.00000E+00
 -1       371 7.66580E+00-1.35795E+01 0.00000E+00
 -1       372 7.66580E+00-1.59374E+01 0.00000E+00
 -1       373 7.66580E+00-1.85312E+01 0.00000E+00
 -1       374 6.06827E+00-1.00000E+00 0.00000E+00
 -1       375 6.06827E+00-2.10000E+00 0.00000E+00
 -1       376 6.06827E+00-3.31000E+00 0.00000E+00
 -1       377 6.06827E+00-4.64100E+00 0.00000E+00
 -1       378 6.06827E+00-6.10510E+00 0.00000E+00
 -1       379 6.06827E+00-7.71561E+00 0.00000E+00
 -1       380 6.06827E+00-9.48717E+00 0.00000E+00
 -1       381 6.06827E+00-1.14359E+01 0.00000E+00
 -1       382 6.06827E+00-1.35795E+01 0.00000E+00
 -1       383 6.06827E+00-1.59374E+01 0.00000E+00
 -1       384 6.06827E+00-1.85312E+01 0.00000E+00
 -1       385 4.61451E+00-1.00000E+00 0.00000E+00
 -1       386 4.61451E+00-2.10000E+00 0.00000E+00
 -1       387 4.61451E+00-3.31000E+00 0.00000E+00
 -1       388 4.61451E+00-4.64100E+00 0.00000E+00
 -1       389 4.61451E+00-6.10510E+00 0.00000E+00
 -1       390 4.61451E+00-7.71561E+00 0.00000E+00
 -1       391 4.61451E+00-9.48717E+00 0.00000E+00
 -1       392 4.61451E+00-1.14359E+01 0.00000E+00
 -1       393 4.61451E+00-1.35795E+01 0.00000E+00
 -1       394 4.61451E+00-1.59374E+01 0.00000E+00
 -1       395 4.61451E+00-1.85312E+01 0.00000E+00
 -1       396 3.29169E+00-1.00000E+00 0.00000E+00
 -1       397 3.29169E+00-2.10000E+00 0.00000E+00
 -1       398 3.29169E+00-3.31000E+00 0.00000E+00
 -1       399 3.29169E+00-4.64100E+00 0.00000E+00
 -1       400 3.29169E+00-6.10510E+00 0.00000E+00
 -1       401 3.29169E+00-7.71561E+00 0.00000E+00
 -1       402 3.29169E+00-9.48717E+00 0.00000E+00
 -1       403 3.29169E+00-1.14359E+01 0.00000E+00
 -1       404 3.29169E+00-1.35795E+01 0.00000E+00
 -1       405 3.29169E+00-1.59374E+01 0.00000E+00
 -1       406 3.29169E+00-1.85312E+01 0.00000E+00
 -1       407 2.08813E+00-1.00000E+00 0.00000E+00
 -1       408 2.08813E+00-2.10000E+00 0.00000E+00
 -1       409 2.08813E+00-3.31000E+00 0.00000E+00
 -1       410 2.08813E+00-4.64100E+00 0.00000E+00
 -1       411 2.08813E+00-6.10510E+00 0.00000E+00
 -1       412 2.08813E+00-7.71561E+00 0.00000E+00
 -1       413 2.08813E+00-9.48717E+00 0.00000E+00
 -1       414 2.08813E+00-1.14359E+01 0.00000E+00
 -1       415 2.08813E+00-1.35795E+01 0.00000E+00
 -1       416 2.08813E+00-1.59374E+01 0.00000E+00
 -1       417 2.08813E+00-1.85312E+01 0.00000E+00
 -1       418 1.00000E+00-1.00000E+00 0.00000E+00
 -1       419 1.00000E+00-2.10000E+00 0.00000E+00
 -1       420 1.00000E+00-3.31000E+00 0.00000E+00
 -1       421 1.00000E+00-4.64100E+00 0.00000E+00
 -1       422 1.00000E+00-6.10510E+00 0.00000E+00
 -1       423 1.00000E+00-7.71561E+00 0.00000E+00
 -1       424 1.00000E+00-9.48717E+00 0.00000E+00
 -1       425 1.00000E+00-1.14359E+01 0.00000E+00
 -1       426 1.00000E+00-1.35795E+01 0.00000E+00
 -1       427 1.00000E+00-1.59374E+01 0.00000E+00
 -1       428 1.00000E+00-1.85312E+01 0.00000E+00
 -3
    3C                           384                                     1
 -1         1    9    0    1
 -2         1         3        40        29
 -1         2    9    0    1
 -2        29        40        41        30
 -1         3    9    0    1
 -2        30        41        42        31
 -1         4    9    0    1
 -2        31        42        43        32
 -1         5    9    0    1
 -2        32        43        44        33
 -1         6    9    0    1
 -2        33        44        45        34
 -1         7    9    0    1
 -2        34        45        46        35
 -1         8    9    0    1
 -2        35        46        47        36
 -1         9    9    0    1
 -2        36        47        48        37
 -1        10    9    0    1
 -2        37        48        49        38
 -1        11    9    0    1
 -2        38        49        50        39
 -1        12    7    0    1
 -2        39        50        28
 -1        13    9    0    1
 -2         3         4        51        40
 -1        14    9    0    1
 -2        40        51        52        41
 -1        15    9    0    1
 -2        41        52        53        42
 -1        16    9    0    1
 -2        42        53        54        43
 -1        17    9    0    1
 -2        43        54        55        44
 -1        18    9    0    1
 -2        44        55        56        45
 -1        19    9    0    1
 -2        45        56        57        46
 -1        20    9    0    1
 -2        46        57        58        47
 -1        21    9    0    1
 -2        47        58        59        48
 -1        22    9    0    1
 -2        48        59        60        49
 -1        23    9    0    1
 -2        49        60        61        50
 -1        24    7    0    1
 -2        50        61        28
 -1        25    9    0    1
 -2         4         5        62        51
 -1        26    9    0    1
 -2        51        62        63        52
 -1        27    9    0    1
 -2        52        63        64        53
 -1        28    9    0    1
 -2        53        64        65        54
 -1        29    9    0    1
 -2        54        65        66        55
 -1        30    9    0    1
 -2        55        66        67        56
 -1        31    9    0    1
 -2        56        67        68        57
 -1        32    9    0    1
 -2        57        68        69        58
 -1        33    9    0    1
 -2        58        69        70        59
 -1        34    9    0    1
 -2        59        70        71        60
 -1        35    9    0    1
 -2        60        71        72        61
 -1        36    7    0    1
 -2        61        72        28
 -1        37    9    0    1
 -2         5         6        73        62
 -1        38    9    0    1
 -2        62        73        74        63
 -1        39    9    0    1
 -2        63        74        75        64
 -1        40    9    0    1
 -2        64        75        76        65
 -1        41    9    0    1
 -2        65        76        77        66
 -1        42    9    0    1
 -2        66        77        78        67
 -1        43    9    0    1
 -2        67        78        79        68
 -1        44    9    0    1
 -2        68        79        80        69
 -1        45    9    0    1
 -2        69        80        81        70
 -1        46    9    0    1
 -2        70        81        82        71
 -1        47    9    0    1
 -2        71        82        83        72
 -1        48    7    0    1
 -2        72        83        28
 -1        49    9    0    1
 -2         6         7        84        73
 -1        50    9    0    1
 -2        73        84        85        74
 -1        51    9    0    1
 -2        74        85        86        75
 -1        52    9    0    1
 -2        75        86        87        76
 -1        53    9    0    1
 -2        76        87        88        77
 -1        54    9    0    1
 -2        77        88        89        78
 -1        55    9    0    1
 -2        78        89        90        79
 -1        56    9    0    1
 -2        79        90        91        80
 -1        57    9    0    1
 -2        80        91        92        81
 -1        58    9    0    1
 -2        81        92        93        82
 -1        59    9    0    1
 -2        82        93        94        83
 -1        60    7    0    1
 -2        83        94        28
 -1        61    9    0    1
 -2         7         8        95        84
 -1        62    9    0    1
 -2        84        95        96        85
 -1        63    9    0    1
 -2        85        96        97        86
 -1        64    9    0    1
 -2        86        97        98        87
 -1        65    9    0    1
 -2        87        98        99        88
 -1        66    9    0    1
 -2        88        99       100        89
 -1        67    9    0    1
 -2        89       100       101        90
 -1        68    9    0    1
 -2        90       101       102        91
 -1        69    9    0    1
 -2        91       102       103        92
 -1        70    9    0    1
 -2        92       103       104        93
 -1        71    9    0    1
 -2        93       104       105        94
 -1        72    7    0    1
 -2        94       105        28
 -1        73    9    0    1
 -2         8         9       106        95
 -1        74    9    0    1
 -2        95       106       107        96
 -1        75    9    0    1
 -2        96       107       108        97
 -1        76    9    0    1
 -2        97       108       109        98
 -1        77    9    0    1
 -2        98       109       110        99
 -1        78    9    0    1
 -2        99       110       111       100
 -1        79    9    0    1
 -2       100       111       112       101
 -1        80    9    0    1
 -2       101       112       113       102
 -1        81    9    0    1
 -2       102       113       114       103
 -1        82    9    0    1
 -2       103       114       115       104
 -1        83    9    0    1
 -2       104       115       116       105
 -1        84    7    0    1
 -2       105       116        28
 -1        85    9    0    1
 -2         9        10       117       106
 -1        86    9    0    1
 -2       106       117       118       107
 -1        87    9    0    1
 -2       107       118       119       108
 -1        88    9    0    1
 -2       108       119       120       109
 -1        89    9    0    1
 -2       109       120       121       110
 -1        90    9    0    1
 -2       110       121       122       111
 -1        91    9    0    1
 -2       111       122       123       112
 -1        92    9    0    1
 -2       112       123       124       113
 -1        93    9    0    1
 -2       113       124       125       114
 -1        94    9    0    1
 -2       114       125       126       115
 -1        95    9    0    1
 -2       115       126       127       116
 -1        96    7    0    1
 -2       116       127        28
 -1        97    9    0    1
 -2        10        11       128       117
 -1        98    9    0    1
 -2       117       128       129       118
 -1        99    9    0    1
 -2       118       129       130       119
 -1       100    9    0    1
 -2       119       130       131       120
 -1       101    9    0    1
 -2       120       131       132       121
 -1       102    9    0    1
 -2       121       132       133       122
 -1       103    9    0    1
 -2       122       133       134       123
 -1       104    9    0    1
 -2       123       134       135       124
 -1       105    9    0    1
 -2       124       135       136       125
 -1       106    9    0    1
 -2       125       136       137       126
 -1       107    9    0    1
 -2       126       137       138       127
 -1       108    7    0    1
 -2       127       138        28
 -1       109    9    0    1
 -2        11        12       139       128
 -1       110    9    0    1
 -2       128       139       140       129
 -1       111    9    0    1
 -2       129       140       141       130
 -1       112    9    0    1
 -2       130       141       142       131
 -1       113    9    0    1
 -2       131       142       143       132
 -1       114    9    0    1
 -2       132       143       144       133
 -1       115    9    0    1
 -2       133       144       145       134
 -1       116    9    0    1
 -2       134       145       146       135
 -1       117    9    0    1
 -2       135       146       147       136
 -1       118    9    0    1
 -2       136       147       148       137
 -1       119    9    0    1
 -2       137       148       149       138
 -1       120    7    0    1
 -2       138       149        28
 -1       121    9    0    1
 -2        12        13       150       139
 -1       122    9    0    1
 -2       139       150       151       140
 -1       123    9    0    1
 -2       140       151       152       141
 -1       124    9    0    1
 -2       141       152       153       142
 -1       125    9    0    1
 -2       142       153       154       143
 -1       126    9    0    1
 -2       143       154       155       144
 -1       127    9    0    1
 -2       144       155       156       145
 -1       128    9    0    1
 -2       145       156       157       146
 -1       129    9    0    1
 -2       146       157       158       147
 -1       130    9    0    1
 -2       147       158       159       148
 -1       131    9    0    1
 -2       148       159       160       149
 -1       132    7    0    1
 -2       149       160        28
 -1       133    9    0    1
 -2        13        14       161       150
 -1       134    9    0    1
 -2       150       161       162       151
 -1       135    9    0    1
 -2       151       162       163       152
 -1       136    9    0    1
 -2       152       163       164       153
 -1       137    9    0    1
 -2       153       164       165       154
 -1       138    9    0    1
 -2       154       165       166       155
 -1       139    9    0    1
 -2       155       166       167       156
 -1       140    9    0    1
 -2       156       167       168       157
 -1       141    9    0    1
 -2       157       168       169       158
 -1       142    9    0    1
 -2       158       169       170       159
 -1       143    9    0    1
 -2       159       170       171       160
 -1       144    7    0    1
 -2       160       171        28
 -1       145    9    0    1
 -2        14        15       172       161
 -1       146    9    0    1
 -2       161       172       173       162
 -1       147    9    0    1
 -2       162       173       174       163
 -1       148    9    0    1
 -2       163       174       175       164
 -1       149    9    0    1
 -2       164       175       176       165
 -1       150    9    0    1
 -2       165       176       177       166
 -1       151    9    0    1
 -2       166       177       178       167
 -1       152    9    0    1
 -2       167       178       179       168
 -1       153    9    0    1
 -2       168       179       180       169
 -1       154    9    0    1
 -2       169       180       181       170
 -1       155    9    0    1
 -2       170       181       182       171
 -1       156    7    0    1
 -2       171       182        28
 -1       157    9    0    1
 -2        15        16       183       172
 -1       158    9    0    1
 -2       172       183       184       173
 -1       159    9    0    1
 -2       173       184       185       174
 -1       160    9    0    1
 -2       174       185       186       175
 -1       161    9    0    1
 -2       175       186       187       176
 -1       162    9    0    1
 -2       176       187       188       177
 -1       163    9    0    1
 -2       177       188       189       178
 -1       164    9    0    1
 -2       178       189       190       179
 -1       165    9    0    1
 -2       179       190       191       180
 -1       166    9    0    1
 -2       180       191       192       181
 -1       167    9    0    1
 -2       181       192       193       182
 -1       168    7    0    1
 -2       182       193        28
 -1       169    9    0    1
 -2        16         2        17       183
 -1       170    9    0    1
 -2       183        17        18       184
 -1       171    9    0    1
 -2       184        18        19       185
 -1       172    9    0    1
 -2       185        19        20       186
 -1       173    9    0    1
 -2       186        20        21       187
 -1       174    9    0    1
 -2       187        21        22       188
 -1       175    9    0    1
 -2       188        22        23       189
 -1       176    9    0    1
 -2       189        23        24       190
 -1       177    9    0    1
 -2       190        24        25       191
 -1       178    9    0    1
 -2       191        25        26       192
 -1       179    9    0    1
 -2       192        26        27       193
 -1       180    7    0    1
 -2       193        27        28
 -1       181    9    0    1
 -2       194       199       253       252
 -1       182    9    0    1
 -2       252       253       254       251
 -1       183    9    0    1
 -2       251       254       255       250
 -1       184    9    0    1
 -2       250       255       256       249
 -1       185    9    0    1
 -2       249       256       257       248
 -1       186    9    0    1
 -2       248       257       258       247
 -1       187    9    0    1
 -2       247       258       259       246
 -1       188    9    0    1
 -2       246       259       260       245
 -1       189    9    0    1
 -2       245       260       261       244
 -1       190    9    0    1
 -2       244       261       262       243
 -1       191    9    0    1
 -2       243       262       263       242
 -1       192    9    0    1
 -2       242       263       241       197
 -1       193    9    0    1
 -2       199       200       264       253
 -1       194    9    0    1
 -2       253       264       265       254
 -1       195    9    0    1
 -2       254       265       266       255
 -1       196    9    0    1
 -2       255       266       267       256
 -1       197    9    0    1
 -2       256       267       268       257
 -1       198    9    0    1
 -2       257       268       269       258
 -1       199    9    0    1
 -2       258       269       270       259
 -1       200    9    0    1
 -2       259       270       271       260
 -1       201    9    0    1
 -2       260       271       272       261
 -1       202    9    0    1
 -2       261       272       273       262
 -1       203    9    0    1
 -2       262       273       274       263
 -1       204    9    0    1
 -2       263       274       240       241
 -1       205    9    0    1
 -2       200       201       275       264
 -1       206    9    0    1
 -2       264       275       276       265
 -1       207    9    0    1
 -2       265       276       277       266
 -1       208    9    0    1
 -2       266       277       278       267
 -1       209    9    0    1
 -2       267       278       279       268
 -1       210    9    0    1
 -2       268       279       280       269
 -1       211    9    0    1
 -2       269       280       281       270
 -1       212    9    0    1
 -2       270       281       282       271
 -1       213    9    0    1
 -2       271       282       283       272
 -1       214    9    0    1
 -2       272       283       284       273
 -1       215    9    0    1
 -2       273       284       285       274
 -1       216    9    0    1
 -2       274       285       239       240
 -1       217    9    0    1
 -2       201       202       286       275
 -1       218    9    0    1
 -2       275       286       287       276
 -1       219    9    0    1
 -2       276       287       288       277
 -1       220    9    0    1
 -2       277       288       289       278
 -1       221    9    0    1
 -2       278       289       290       279
 -1       222    9    0    1
 -2       279       290       291       280
 -1       223    9    0    1
 -2       280       291       292       281
 -1       224    9    0    1
 -2       281       292       293       282
 -1       225    9    0    1
 -2       282       293       294       283
 -1       226    9    0    1
 -2       283       294       295       284
 -1       227    9    0    1
 -2       284       295       296       285
 -1       228    9    0    1
 -2       285       296       238       239
 -1       229    9    0    1
 -2       202       203       297       286
 -1       230    9    0    1
 -2       286       297       298       287
 -1       231    9    0    1
 -2       287       298       299       288
 -1       232    9    0    1
 -2       288       299       300       289
 -1       233    9    0    1
 -2       289       300       301       290
 -1       234    9    0    1
 -2       290       301       302       291
 -1       235    9    0    1
 -2       291       302       303       292
 -1       236    9    0    1
 -2       292       303       304       293
 -1       237    9    0    1
 -2       293       304       305       294
 -1       238    9    0    1
 -2       294       305       306       295
 -1       239    9    0    1
 -2       295       306       307       296
 -1       240    9    0    1
 -2       296       307       237       238
 -1       241    9    0    1
 -2       203       204       308       297
 -1       242    9    0    1
 -2       297       308       309       298
 -1       243    9    0    1
 -2       298       309       310       299
 -1       244    9    0    1
 -2       299       310       311       300
 -1       245    9    0    1
 -2       300       311       312       301
 -1       246    9    0    1
 -2       301       312       313       302
 -1       247    9    0    1
 -2       302       313       314       303
 -1       248    9    0    1
 -2       303       314       315       304
 -1       249    9    0    1
 -2       304       315       316       305
 -1       250    9    0    1
 -2       305       316       317       306
 -1       251    9    0    1
 -2       306       317       318       307
 -1       252    9    0    1
 -2       307       318       236       237
 -1       253    9    0    1
 -2       204       205       319       308
 -1       254    9    0    1
 -2       308       319       320       309
 -1       255    9    0    1
 -2       309       320       321       310
 -1       256    9    0    1
 -2       310       321       322       311
 -1       257    9    0    1
 -2       311       322       323       312
 -1       258    9    0    1
 -2       312       323       324       313
 -1       259    9    0    1
 -2       313       324       325       314
 -1       260    9    0    1
 -2       314       325       326       315
 -1       261    9    0    1
 -2       315       326       327       316
 -1       262    9    0    1
 -2       316       327       328       317
 -1       263    9    0    1
 -2       317       328       329       318
 -1       264    9    0    1
 -2       318       329       235       236
 -1       265    9    0    1
 -2       205       206       330       319
 -1       266    9    0    1
 -2       319       330       331       320
 -1       267    9    0    1
 -2       320       331       332       321
 -1       268    9    0    1
 -2       321       332       333       322
 -1       269    9    0    1
 -2       322       333       334       323
 -1       270    9    0    1
 -2       323       334       335       324
 -1       271    9    0    1
 -2       324       335       336       325
 -1       272    9    0    1
 -2       325       336       337       326
 -1       273    9    0    1
 -2       326       337       338       327
 -1       274    9    0    1
 -2       327       338       339       328
 -1       275    9    0    1
 -2       328       339       340       329
 -1       276    9    0    1
 -2       329       340       234       235
 -1       277    9    0    1
 -2       206       207       341       330
 -1       278    9    0    1
 -2       330       341       342       331
 -1       279    9    0    1
 -2       331       342       343       332
 -1       280    9    0    1
 -2       332       343       344       333
 -1       281    9    0    1
 -2       333       344       345       334
 -1       282    9    0    1
 -2       334       345       346       335
 -1       283    9    0    1
 -2       335       346       347       336
 -1       284    9    0    1
 -2       336       347       348       337
 -1       285    9    0    1
 -2       337       348       349       338
 -1       286    9    0    1
 -2       338       349       350       339
 -1       287    9    0    1
 -2       339       350       351       340
 -1       288    9    0    1
 -2       340       351       233       234
 -1       289    9    0    1
 -2       207       208       352       341
 -1       290    9    0    1
 -2       341       352       353       342
 -1       291    9    0    1
 -2       342       353       354       343
 -1       292    9    0    1
 -2       343       354       355       344
 -1       293    9    0    1
 -2       344       355       356       345
 -1       294    9    0    1
 -2       345       356       357       346
 -1       295    9    0    1
 -2       346       357       358       347
 -1       296    9    0    1
 -2       347       358       359       348
 -1       297    9    0    1
 -2       348       359       360       349
 -1       298    9    0    1
 -2       349       360       361       350
 -1       299    9    0    1
 -2       350       361       362       351
 -1       300    9    0    1
 -2       351       362       232       233
 -1       301    9    0    1
 -2       208       209       363       352
 -1       302    9    0    1
 -2       352       363       364       353
 -1       303    9    0    1
 -2       353       364       365       354
 -1       304    9    0    1
 -2       354       365       366       355
 -1       305    9    0    1
 -2       355       366       367       356
 -1       306    9    0    1
 -2       356       367       368       357
 -1       307    9    0    1
 -2       357       368       369       358
 -1       308    9    0    1
 -2       358       369       370       359
 -1       309    9    0    1
 -2       359       370       371       360
 -1       310    9    0    1
 -2       360       371       372       361
 -1       311    9    0    1
 -2       361       372       373       362
 -1       312    9    0    1
 -2       362       373       231       232
 -1       313    9    0    1
 -2       209       210       374       363
 -1       314    9    0    1
 -2       363       374       375       364
 -1       315    9    0    1
 -2       364       375       376       365
 -1       316    9    0    1
 -2       365       376       377       366
 -1       317    9    0    1
 -2       366       377       378       367
 -1       318    9    0    1
 -2       367       378       379       368
 -1       319    9    0    1
 -2       368       379       380       369
 -1       320    9    0    1
 -2       369       380       381       370
 -1       321    9    0    1
 -2       370       381       382       371
 -1       322    9    0    1
 -2       371       382       383       372
 -1       323    9    0    1
 -2       372       383       384       373
 -1       324    9    0    1
 -2       373       384       230       231
 -1       325    9    0    1
 -2       210       211       385       374
 -1       326    9    0    1
 -2       374       385       386       375
 -1       327    9    0    1
 -2       375       386       387       376
 -1       328    9    0    1
 -2       376       387       388       377
 -1       329    9    0    1
 -2       377       388       389       378
 -1       330    9    0    1
 -2       378       389       390       379
 -1       331    9    0    1
 -2       379       390       391       380
 -1       332    9    0    1
 -2       380       391       392       381
 -1       333    9    0    1
 -2       381       392       393       382
 -1       334    9    0    1
 -2       382       393       394       383
 -1       335    9    0    1
 -2       383       394       395       384
 -1       336    9    0    1
 -2       384       395       229       230
 -1       337    9    0    1
 -2       211       212       396       385
 -1       338    9    0    1
 -2       385       396       397       386
 -1       339    9    0    1
 -2       386       397       398       387
 -1       340    9    0    1
 -2       387       398       399       388
 -1       341    9    0    1
 -2       388       399       400       389
 -1       342    9    0    1
 -2       389       400       401       390
 -1       343    9    0    1
 -2       390       401       402       391
 -1       344    9    0    1
 -2       391       402       403       392
 -1       345    9    0    1
 -2       392       403       404       393
 -1       346    9    0    1
 -2       393       404       405       394
 -1       347    9    0    1
 -2       394       405       406       395
 -1       348    9    0    1
 -2       395       406       228       229
 -1       349    9    0    1
 -2       212       213       407       396
 -1       350    9    0    1
 -2       396       407       408       397
 -1       351    9    0    1
 -2       397       408       409       398
 -1       352    9    0    1
 -2       398       409       410       399
 -1       353    9    0    1
 -2       399       410       411       400
 -1       354    9    0    1
 -2       400       411       412       401
 -1       355    9    0    1
 -2       401       412       413       402
 -1       356    9    0    1
 -2       402       413       414       403
 -1       357    9    0    1
 -2       403       414       415       404
 -1       358    9    0    1
 -2       404       415       416       405
 -1       359    9    0    1
 -2       405       416       417       406
 -1       360    9    0    1
 -2       406       417       227       228
 -1       361    9    0    1
 -2       213       214       418       407
 -1       362    9    0    1
 -2       407       418       419       408
 -1       363    9    0    1
 -2       408       419       420       409
 -1       364    9    0    1
 -2       409       420       421       410
 -1       365    9    0    1
 -2       410       421       422       411
 -1       366    9    0    1
 -2       411       422       423       412
 -1       367    9    0    1
 -2       412       423       424       413
 -1       368    9    0    1
 -2       413       424       425       414
 -1       369    9    0    1
 -2       414       425       426       415
 -1       370    9    0    1
 -2       415       426       427       416
 -1       371    9    0    1
 -2       416       427       428       417
 -1       372    9    0    1
 -2       417       428       226       227
 -1       373    9    0    1
 -2       214       195       215       418
 -1       374    9    0    1
 -2       418       215       216       419
 -1       375    9    0    1
 -2       419       216       217       420
 -1       376    9    0    1
 -2       420       217       218       421
 -1       377    9    0    1
 -2       421       218       219       422
 -1       378    9    0    1
 -2       422       219       220       423
 -1       379    9    0    1
 -2       423       220       221       424
 -1       380    9    0    1
 -2       424       221       222       425
 -1       381    9    0    1
 -2       425       222       223       426
 -1       382    9    0    1
 -2       426       223       224       427
 -1       383    9    0    1
 -2       427       224       225       428
 -1       384    9    0    1
 -2       428       225       196       226
 -3
    1PSTEP                         1           1           1          
  100CL  101 1.000000000         427                     0    1           1
 -4  DISP        4    1
 -5  D1          1    2    1    0
 -5  D2          1    2    2    0
 -5  D3          1    2    3    0
 -5  ALL         1    2    0    0    1ALL
 -1         1 0.00000E+00 1.07643E-02 0.00000E+00
 -1         2 1.28254E-03 0.00000E+00 0.00000E+00
 -1         3-7.03207E-04 6.10328E-03 0.00000E+00
 -1         4-8.01199E-04 4.56171E-03 0.00000E+00
 -1         5-6.61851E-04 3.48741E-03 0.00000E+00
 -1         6-5.12128E-04 2.73287E-03 0.00000E+00
 -1         7-3.47871E-04 2.13509E-03 0.00000E+00
 -1         8-1.72902E-04 1.64602E-03 0.00000E+00
 -1         9 1.27987E-05 1.23833E-03 0.00000E+00
 -1        10 2.07217E-04 8.98262E-04 0.00000E+00
 -1        11 4.07276E-04 6.18277E-04 0.00000E+00
 -1        12 6.08193E-04 3.94392E-04 0.00000E+00
 -1        13 8.03084E-04 2.24295E-04 0.00000E+00
 -1        14 9.82437E-04 1.05800E-04 0.00000E+00
 -1        15 1.13361E-03 3.51408E-05 0.00000E+00
 -1        16 1.24051E-03 4.91257E-06 0.00000E+00
 -1        17 1.28015E-03 0.00000E+00 0.00000E+00
 -1        18 1.27403E-03 0.00000E+00 0.00000E+00
 -1        19 1.26210E-03 0.00000E+00 0.00000E+00
 -1        20 1.24123E-03 0.00000E+00 0.00000E+00
 -1        21 1.20688E-03 0.00000E+00 0.00000E+00
 -1        22 1.15246E-03 0.00000E+00 0.00000E+00
 -1        23 1.06881E-03 0.00000E+00 0.00000E+00
 -1        24 9.43998E-04 0.00000E+00 0.00000E+00
 -1        25 7.64157E-04 0.00000E+00 0.00000E+00
 -1        26 5.16501E-04 0.00000E+00 0.00000E+00
 -1        27 1.96673E-04 0.00000E+00 0.00000E+00
 -1        28 0.00000E+00 0.00000E+00 0.00000E+00
 -1        29 0.00000E+00 7.75503E-03 0.00000E+00
 -1        30 0.00000E+00 6.04137E-03 0.00000E+00
 -1        31 0.00000E+00 4.98635E-03 0.00000E+00
 -1        32 0.00000E+00 4.17552E-03 0.00000E+00
 -1        33 0.00000E+00 3.49816E-03 0.00000E+00
 -1        34 0.00000E+00 2.90015E-03 0.00000E+00
 -1        35 0.00000E+00 2.35150E-03 0.00000E+00
 -1        36 0.00000E+00 1.83182E-03 0.00000E+00
 -1        37 0.00000E+00 1.32524E-03 0.00000E+00
 -1        38 0.00000E+00 8.17233E-04 0.00000E+00
 -1        39 0.00000E+00 2.91647E-04 0.00000E+00
 -1        40 4.78976E-04 6.37653E-03 0.00000E+00
 -1        41 3.52101E-04 5.64807E-03 0.00000E+00
 -1        42 2.64367E-04 4.82392E-03 0.00000E+00
 -1        43 1.97400E-04 4.09928E-03 0.00000E+00
 -1        44 1.50570E-04 3.45907E-03 0.00000E+00
 -1        45 1.15607E-04 2.87956E-03 0.00000E+00
 -1        46 8.82132E-05 2.34056E-03 0.00000E+00
 -1        47 6.55504E-05 1.82614E-03 0.00000E+00
 -1        48 4.57711E-05 1.32244E-03 0.00000E+00
 -1        49 2.75010E-05 8.15996E-04 0.00000E+00
 -1        50 9.71432E-06 2.91303E-04 0.00000E+00
 -1        51 1.53502E-04 4.69055E-03 0.00000E+00
 -1        52 4.90774E-04 4.71654E-03 0.00000E+00
 -1        53 4.56745E-04 4.36140E-03 0.00000E+00
 -1        54 3.77799E-04 3.86242E-03 0.00000E+00
 -1        55 3.00681E-04 3.33381E-03 0.00000E+00
 -1        56 2.35936E-04 2.81213E-03 0.00000E+00
 -1        57 1.81992E-04 2.30439E-03 0.00000E+00
 -1        58 1.36007E-04 1.80721E-03 0.00000E+00
 -1        59 9.52448E-05 1.31306E-03 0.00000E+00
 -1        60 5.73106E-05 8.11847E-04 0.00000E+00
 -1        61 2.02526E-05 2.90148E-04 0.00000E+00
 -1        62-1.78271E-05 3.64255E-03 0.00000E+00
 -1        63 4.07664E-04 3.76622E-03 0.00000E+00
 -1        64 5.40880E-04 3.72738E-03 0.00000E+00
 -1        65 5.13039E-04 3.48332E-03 0.00000E+00
 -1        66 4.38473E-04 3.11649E-03 0.00000E+00
 -1        67 3.56776E-04 2.68994E-03 0.00000E+00
 -1        68 2.80598E-04 2.23716E-03 0.00000E+00
 -1        69 2.11865E-04 1.77149E-03 0.00000E+00
 -1        70 1.49171E-04 1.29518E-03 0.00000E+00
 -1        71 9.00052E-05 8.03889E-04 0.00000E+00
 -1        72 3.18314E-05 2.87923E-04 0.00000E+00
 -1        73-5.14583E-05 2.86463E-03 0.00000E+00
 -1        74 3.30471E-04 3.01144E-03 0.00000E+00
 -1        75 5.43078E-04 3.08716E-03 0.00000E+00
 -1        76 5.94055E-04 3.02625E-03 0.00000E+00
 -1        77 5.51168E-04 2.82202E-03 0.00000E+00
 -1        78 4.70583E-04 2.51233E-03 0.00000E+00
 -1        79 3.80327E-04 2.13516E-03 0.00000E+00
 -1        80 2.91566E-04 1.71583E-03 0.00000E+00
 -1        81 2.06981E-04 1.26684E-03 0.00000E+00
 -1        82 1.25418E-04 7.91140E-04 0.00000E+00
 -1        83 4.44116E-05 2.84328E-04 0.00000E+00
 -1        84-6.50452E-06 2.25797E-03 0.00000E+00
 -1        85 3.07220E-04 2.39929E-03 0.00000E+00
 -1        86 5.31923E-04 2.51750E-03 0.00000E+00
 -1        87 6.36023E-04 2.55635E-03 0.00000E+00
 -1        88 6.36088E-04 2.47992E-03 0.00000E+00
 -1        89 5.71938E-04 2.28652E-03 0.00000E+00
 -1        90 4.77748E-04 1.99743E-03 0.00000E+00
 -1        91 3.73556E-04 1.63766E-03 0.00000E+00
 -1        92 2.68175E-04 1.22599E-03 0.00000E+00
 -1        93 1.63476E-04 7.72445E-04 0.00000E+00
 -1        94 5.79954E-05 2.78993E-04 0.00000E+00
 -1        95 8.59197E-05 1.76120E-03 0.00000E+00
 -1        96 3.36025E-04 1.89455E-03 0.00000E+00
 -1        97 5.40259E-04 2.02424E-03 0.00000E+00
 -1        98 6.65051E-04 2.11306E-03 0.00000E+00
 -1        99 6.99530E-04 2.12173E-03 0.00000E+00
 -1       100 6.58854E-04 2.02686E-03 0.00000E+00
 -1       101 5.69795E-04 1.82696E-03 0.00000E+00
 -1       102 4.55959E-04 1.53564E-03 0.00000E+00
 -1       103 3.31976E-04 1.17070E-03 0.00000E+00
 -1       104 2.03974E-04 7.46517E-04 0.00000E+00
 -1       105 7.25499E-05 2.71463E-04 0.00000E+00
 -1       106 2.09991E-04 1.34679E-03 0.00000E+00
 -1       107 4.05822E-04 1.47140E-03 0.00000E+00
 -1       108 5.77797E-04 1.60071E-03 0.00000E+00
 -1       109 6.99828E-04 1.71135E-03 0.00000E+00
 -1       110 7.52585E-04 1.77128E-03 0.00000E+00
 -1       111 7.33127E-04 1.75027E-03 0.00000E+00
 -1       112 6.54539E-04 1.63057E-03 0.00000E+00
 -1       113 5.36778E-04 1.41036E-03 0.00000E+00
 -1       114 3.97307E-04 1.09946E-03 0.00000E+00
 -1       115 2.46531E-04 7.11977E-04 0.00000E+00
 -1       116 8.79949E-05 2.61194E-04 0.00000E+00
 -1       117 3.56254E-04 9.99562E-04 0.00000E+00
 -1       118 5.06337E-04 1.11505E-03 0.00000E+00
 -1       119 6.43585E-04 1.23848E-03 0.00000E+00
 -1       120 7.49486E-04 1.35552E-03 0.00000E+00
 -1       121 8.05249E-04 1.44283E-03 0.00000E+00
 -1       122 7.99085E-04 1.47194E-03 0.00000E+00
 -1       123 7.31538E-04 1.41742E-03 0.00000E+00
 -1       124 6.14161E-04 1.26446E-03 0.00000E+00
 -1       125 4.62798E-04 1.01150E-03 0.00000E+00
 -1       126 2.90542E-04 6.67445E-04 0.00000E+00
 -1       127 1.04188E-04 2.47547E-04 0.00000E+00
 -1       128 5.17361E-04 7.11385E-04 0.00000E+00
 -1       129 6.28744E-04 8.16816E-04 0.00000E+00
 -1       130 7.32570E-04 9.31130E-04 0.00000E+00
 -1       131 8.16027E-04 1.04558E-03 0.00000E+00
 -1       132 8.63682E-04 1.14408E-03 0.00000E+00
 -1       133 8.61385E-04 1.20333E-03 0.00000E+00
 -1       134 8.01593E-04 1.19694E-03 0.00000E+00
 -1       135 6.86598E-04 1.10229E-03 0.00000E+00
 -1       136 5.26807E-04 9.06995E-04 0.00000E+00
 -1       137 3.35114E-04 6.11655E-04 0.00000E+00
 -1       138 1.20907E-04 2.29797E-04 0.00000E+00
 -1       139 6.86143E-04 4.77771E-04 0.00000E+00
 -1       140 7.64675E-04 5.71687E-04 0.00000E+00
 -1       141 8.37902E-04 6.74258E-04 0.00000E+00
 -1       142 8.96895E-04 7.80156E-04 0.00000E+00
 -1       143 9.29758E-04 8.78649E-04 0.00000E+00
 -1       144 9.23190E-04 9.52207E-04 0.00000E+00
 -1       145 8.65947E-04 9.77355E-04 0.00000E+00
 -1       146 7.52974E-04 9.28973E-04 0.00000E+00
 -1       147 5.87478E-04 7.87095E-04 0.00000E+00
 -1       148 3.78998E-04 5.43590E-04 0.00000E+00
 -1       149 1.37814E-04 2.07170E-04 0.00000E+00
 -1       150 8.54414E-04 2.96002E-04 0.00000E+00
 -1       151 9.05225E-04 3.76451E-04 0.00000E+00
 -1       152 9.51388E-04 4.64644E-04 0.00000E+00
 -1       153 9.86511E-04 5.57368E-04 0.00000E+00
 -1       154 1.00156E-03 6.47653E-04 0.00000E+00
 -1       155 9.85161E-04 7.23061E-04 0.00000E+00
 -1       156 9.25284E-04 7.64806E-04 0.00000E+00
 -1       157 8.12370E-04 7.49350E-04 0.00000E+00
 -1       158 6.42805E-04 6.53530E-04 0.00000E+00
 -1       159 4.20535E-04 4.62558E-04 0.00000E+00
 -1       160 1.54409E-04 1.78914E-04 0.00000E+00
 -1       161 1.01211E-03 1.63553E-04 0.00000E+00
 -1       162 1.04010E-03 2.28161E-04 0.00000E+00
 -1       163 1.06329E-03 2.99124E-04 0.00000E+00
 -1       164 1.07692E-03 3.74563E-04 0.00000E+00
 -1       165 1.07400E-03 4.50114E-04 0.00000E+00
 -1       166 1.04512E-03 5.17458E-04 0.00000E+00
 -1       167 9.78873E-04 5.62881E-04 0.00000E+00
 -1       168 8.63635E-04 5.67093E-04 0.00000E+00
 -1       169 6.90668E-04 5.08065E-04 0.00000E+00
 -1       170 4.57650E-04 3.68171E-04 0.00000E+00
 -1       171 1.69936E-04 1.44402E-04 0.00000E+00
 -1       172 1.14665E-03 7.64230E-05 0.00000E+00
 -1       173 1.15691E-03 1.22474E-04 0.00000E+00
 -1       174 1.16195E-03 1.73123E-04 0.00000E+00
 -1       175 1.15795E-03 2.27345E-04 0.00000E+00
 -1       176 1.13931E-03 2.82599E-04 0.00000E+00
 -1       177 1.09814E-03 3.33806E-04 0.00000E+00
 -1       178 1.02405E-03 3.72076E-04 0.00000E+00
 -1       179 9.04889E-04 3.83831E-04 0.00000E+00
 -1       180 7.28761E-04 3.51837E-04 0.00000E+00
 -1       181 4.87904E-04 2.60229E-04 0.00000E+00
 -1       182 1.83277E-04 1.03254E-04 0.00000E+00
 -1       183 1.24237E-03 2.68571E-05 0.00000E+00
 -1       184 1.24077E-03 5.14609E-05 0.00000E+00
 -1       185 1.23354E-03 7.85977E-05 0.00000E+00
 -1       186 1.21739E-03 1.07783E-04 0.00000E+00
 -1       187 1.18750E-03 1.37824E-04 0.00000E+00
 -1       188 1.13693E-03 1.66278E-04 0.00000E+00
 -1       189 1.05616E-03 1.88711E-04 0.00000E+00
 -1       190 9.33132E-04 1.98000E-04 0.00000E+00
 -1       191 7.54413E-04 1.84479E-04 0.00000E+00
 -1       192 5.08578E-04 1.38472E-04 0.00000E+00
 -1       193 1.92865E-04 5.53779E-05 0.00000E+00
 -1       194-6.52394E-03 4.57016E-02 0.00000E+00
 -1       195 0.00000E+00 1.17185E-02 0.00000E+00
 -1       196 0.00000E+00 2.13069E-02 0.00000E+00
 -1       197 8.06336E-03 4.61618E-02 0.00000E+00
 -1       199-6.51942E-03 4.22888E-02 0.00000E+00
 -1       200-6.48182E-03 3.92037E-02 0.00000E+00
 -1       201-6.37068E-03 3.63587E-02 0.00000E+00
 -1       202-6.17344E-03 3.37656E-02 0.00000E+00
 -1       203-5.89396E-03 3.14344E-02 0.00000E+00
 -1       204-5.54418E-03 2.93645E-02 0.00000E+00
 -1       205-5.14014E-03 2.75453E-02 0.00000E+00
 -1       206-4.69919E-03 2.59568E-02 0.00000E+00
 -1       207-4.23804E-03 2.45719E-02 0.00000E+00
 -1       208-3.77138E-03 2.33578E-02 0.00000E+00
 -1       209-3.31128E-03 2.22762E-02 0.00000E+00
 -1       210-2.86675E-03 2.12833E-02 0.00000E+00
 -1       211-2.44474E-03 2.03233E-02 0.00000E+00
 -1       212-2.04543E-03 1.93249E-02 0.00000E+00
 -1       213-1.67211E-03 1.81012E-02 0.00000E+00
 -1       214-1.12217E-03 1.65444E-02 0.00000E+00
 -1       215 0.00000E+00 1.46321E-02 0.00000E+00
 -1       216 0.00000E+00 1.62085E-02 0.00000E+00
 -1       217 0.00000E+00 1.71241E-02 0.00000E+00
 -1       218 0.00000E+00 1.77925E-02 0.00000E+00
 -1       219 0.00000E+00 1.83296E-02 0.00000E+00
 -1       220 0.00000E+00 1.87908E-02 0.00000E+00
 -1       221 0.00000E+00 1.92073E-02 0.00000E+00
 -1       222 0.00000E+00 1.96029E-02 0.00000E+00
 -1       223 0.00000E+00 2.00008E-02 0.00000E+00
 -1       224 0.00000E+00 2.04337E-02 0.00000E+00
 -1       225 0.00000E+00 2.09597E-02 0.00000E+00
 -1       226 5.04739E-04 2.13402E-02 0.00000E+00
 -1       227 1.04875E-03 2.14517E-02 0.00000E+00
 -1       228 1.63827E-03 2.16641E-02 0.00000E+00
 -1       229 2.26449E-03 2.20006E-02 0.00000E+00
 -1       230 2.91864E-03 2.24865E-02 0.00000E+00
 -1       231 3.58855E-03 2.31467E-02 0.00000E+00
 -1       232 4.25921E-03 2.40051E-02 0.00000E+00
 -1       233 4.91388E-03 2.50822E-02 0.00000E+00
 -1       234 5.53554E-03 2.63949E-02 0.00000E+00
 -1       235 6.10829E-03 2.79560E-02 0.00000E+00
 -1       236 6.61831E-03 2.97748E-02 0.00000E+00
 -1       237 7.05431E-03 3.18564E-02 0.00000E+00
 -1       238 7.40797E-03 3.42018E-02 0.00000E+00
 -1       239 7.67492E-03 3.68064E-02 0.00000E+00
 -1       240 7.85740E-03 3.96586E-02 0.00000E+00
 -1       241 7.97201E-03 4.27474E-02 0.00000E+00
 -1       242 6.97590E-03 4.60940E-02 0.00000E+00
 -1       243 5.06615E-03 4.59755E-02 0.00000E+00
 -1       244 3.34891E-03 4.58777E-02 0.00000E+00
 -1       245 1.80130E-03 4.58049E-02 0.00000E+00
 -1       246 3.99694E-04 4.57557E-02 0.00000E+00
 -1       247-8.75649E-04 4.57258E-02 0.00000E+00
 -1       248-2.04006E-03 4.57097E-02 0.00000E+00
 -1       249-3.10514E-03 4.57028E-02 0.00000E+00
 -1       250-4.07972E-03 4.57008E-02 0.00000E+00
 -1       251-4.97072E-03 4.57010E-02 0.00000E+00
 -1       252-5.78381E-03 4.57016E-02 0.00000E+00
 -1       253-5.77305E-03 4.22878E-02 0.00000E+00
 -1       254-4.95776E-03 4.22870E-02 0.00000E+00
 -1       255-4.06878E-03 4.22880E-02 0.00000E+00
 -1       256-3.10046E-03 4.22926E-02 0.00000E+00
 -1       257-2.04589E-03 4.23032E-02 0.00000E+00
 -1       258-8.96038E-04 4.23226E-02 0.00000E+00
 -1       259 3.61257E-04 4.23542E-02 0.00000E+00
 -1       260 1.74252E-03 4.24021E-02 0.00000E+00
 -1       261 3.26979E-03 4.24704E-02 0.00000E+00
 -1       262 4.97088E-03 4.25623E-02 0.00000E+00
 -1       263 6.87665E-03 4.26784E-02 0.00000E+00
 -1       264-5.72533E-03 3.91963E-02 0.00000E+00
 -1       265-4.90727E-03 3.91882E-02 0.00000E+00
 -1       266-4.02233E-03 3.91813E-02 0.00000E+00
 -1       267-3.06453E-03 3.91779E-02 0.00000E+00
 -1       268-2.02656E-03 3.91811E-02 0.00000E+00
 -1       269-8.98935E-04 3.91945E-02 0.00000E+00
 -1       270 3.31230E-04 3.92227E-02 0.00000E+00
 -1       271 1.68179E-03 3.92709E-02 0.00000E+00
 -1       272 3.17745E-03 3.93445E-02 0.00000E+00
 -1       273 4.85173E-03 3.94477E-02 0.00000E+00
 -1       274 6.74898E-03 3.95800E-02 0.00000E+00
 -1       275-5.61158E-03 3.63409E-02 0.00000E+00
 -1       276-4.79704E-03 3.63227E-02 0.00000E+00
 -1       277-3.92274E-03 3.63056E-02 0.00000E+00
 -1       278-2.98326E-03 3.62923E-02 0.00000E+00
 -1       279-1.97156E-03 3.62863E-02 0.00000E+00
 -1       280-8.78095E-04 3.62922E-02 0.00000E+00
 -1       281 3.10634E-04 3.63157E-02 0.00000E+00
 -1       282 1.61408E-03 3.63635E-02 0.00000E+00
 -1       283 3.06051E-03 3.64427E-02 0.00000E+00
 -1       284 4.69081E-03 3.65588E-02 0.00000E+00
 -1       285 6.56356E-03 3.67126E-02 0.00000E+00
 -1       286-5.42176E-03 3.37352E-02 0.00000E+00
 -1       287-4.62047E-03 3.37045E-02 0.00000E+00
 -1       288-3.76628E-03 3.36754E-02 0.00000E+00
 -1       289-2.85479E-03 3.36505E-02 0.00000E+00
 -1       290-1.87988E-03 3.36339E-02 0.00000E+00
 -1       291-8.32545E-04 3.36309E-02 0.00000E+00
 -1       292 3.00759E-04 3.36483E-02 0.00000E+00
 -1       293 1.54078E-03 3.36946E-02 0.00000E+00
 -1       294 2.91931E-03 3.37788E-02 0.00000E+00
 -1       295 4.48461E-03 3.39091E-02 0.00000E+00
 -1       296 6.30859E-03 3.40888E-02 0.00000E+00
 -1       297-5.15893E-03 3.13903E-02 0.00000E+00
 -1       298-4.37992E-03 3.13460E-02 0.00000E+00
 -1       299-3.55477E-03 3.13033E-02 0.00000E+00
 -1       300-2.68040E-03 3.12654E-02 0.00000E+00
 -1       301-1.75203E-03 3.12367E-02 0.00000E+00
 -1       302-7.61877E-04 3.12233E-02 0.00000E+00
 -1       303 3.03004E-04 3.12333E-02 0.00000E+00
 -1       304 1.46402E-03 3.12772E-02 0.00000E+00
 -1       305 2.75595E-03 3.13664E-02 0.00000E+00
 -1       306 4.23383E-03 3.15121E-02 0.00000E+00
 -1       307 5.98249E-03 3.17211E-02 0.00000E+00
 -1       308-4.83312E-03 2.93065E-02 0.00000E+00
 -1       309-4.08333E-03 2.92480E-02 0.00000E+00
 -1       310-3.29403E-03 2.91912E-02 0.00000E+00
 -1       311-2.46389E-03 2.91393E-02 0.00000E+00
 -1       312-1.59007E-03 2.90974E-02 0.00000E+00
 -1       313-6.66643E-04 2.90726E-02 0.00000E+00
 -1       314 3.18136E-04 2.90748E-02 0.00000E+00
 -1       315 1.38581E-03 2.91162E-02 0.00000E+00
 -1       316 2.57355E-03 2.92111E-02 0.00000E+00
 -1       317 3.94249E-03 2.93738E-02 0.00000E+00
 -1       318 5.58961E-03 2.96150E-02 0.00000E+00
 -1       319-4.45764E-03 2.74736E-02 0.00000E+00
 -1       320-3.74112E-03 2.74011E-02 0.00000E+00
 -1       321-2.99174E-03 2.73298E-02 0.00000E+00
 -1       322-2.21058E-03 2.72635E-02 0.00000E+00
 -1       323-1.39749E-03 2.72081E-02 0.00000E+00
 -1       324-5.48921E-04 2.71724E-02 0.00000E+00
 -1       325 3.45379E-04 2.71680E-02 0.00000E+00
 -1       326 1.30704E-03 2.72092E-02 0.00000E+00
 -1       327 2.37536E-03 2.73124E-02 0.00000E+00
 -1       328 3.61653E-03 2.74944E-02 0.00000E+00
 -1       329 5.13800E-03 2.77701E-02 0.00000E+00
 -1       330-4.04644E-03 2.58724E-02 0.00000E+00
 -1       331-3.36395E-03 2.57863E-02 0.00000E+00
 -1       332-2.65571E-03 2.57006E-02 0.00000E+00
 -1       333-1.92629E-03 2.56200E-02 0.00000E+00
 -1       334-1.17900E-03 2.55523E-02 0.00000E+00
 -1       335-4.12850E-04 2.55082E-02 0.00000E+00
 -1       336 3.81527E-04 2.55015E-02 0.00000E+00
 -1       337 1.22658E-03 2.55479E-02 0.00000E+00
 -1       338 2.16376E-03 2.56647E-02 0.00000E+00
 -1       339 3.26278E-03 2.58699E-02 0.00000E+00
 -1       340 4.63822E-03 2.61820E-02 0.00000E+00
 -1       341-3.61223E-03 2.44760E-02 0.00000E+00
 -1       342-2.96091E-03 2.43766E-02 0.00000E+00
 -1       343-2.29260E-03 2.42768E-02 0.00000E+00
 -1       344-1.61684E-03 2.41831E-02 0.00000E+00
 -1       345-9.40906E-04 2.41061E-02 0.00000E+00
 -1       346-2.65324E-04 2.40598E-02 0.00000E+00
 -1       347 4.20325E-04 2.40596E-02 0.00000E+00
 -1       348 1.14091E-03 2.41209E-02 0.00000E+00
 -1       349 1.93998E-03 2.42594E-02 0.00000E+00
 -1       350 2.88833E-03 2.44927E-02 0.00000E+00
 -1       351 4.10269E-03 2.48425E-02 0.00000E+00
 -1       352-3.16491E-03 2.32513E-02 0.00000E+00
 -1       353-2.53821E-03 2.31389E-02 0.00000E+00
 -1       354-1.90727E-03 2.30253E-02 0.00000E+00
 -1       355-1.28843E-03 2.29213E-02 0.00000E+00
 -1       356-6.92016E-04 2.28425E-02 0.00000E+00
 -1       357-1.16741E-04 2.28057E-02 0.00000E+00
 -1       358 4.52530E-04 2.28260E-02 0.00000E+00
 -1       359 1.04477E-03 2.29157E-02 0.00000E+00
 -1       360 1.70460E-03 2.30860E-02 0.00000E+00
 -1       361 2.50045E-03 2.33524E-02 0.00000E+00
 -1       362 3.54497E-03 2.37400E-02 0.00000E+00
 -1       363-2.71030E-03 2.21600E-02 0.00000E+00
 -1       364-2.09796E-03 2.20339E-02 0.00000E+00
 -1       365-1.50294E-03 2.19079E-02 0.00000E+00
 -1       366-9.49272E-04 2.18007E-02 0.00000E+00
 -1       367-4.45449E-04 2.17344E-02 0.00000E+00
 -1       368 1.86911E-05 2.17266E-02 0.00000E+00
 -1       369 4.67102E-04 2.17871E-02 0.00000E+00
 -1       370 9.32798E-04 2.19205E-02 0.00000E+00
 -1       371 1.45871E-03 2.21321E-02 0.00000E+00
 -1       372 2.10663E-03 2.24351E-02 0.00000E+00
 -1       373 2.97894E-03 2.28587E-02 0.00000E+00
 -1       374-2.24836E-03 2.11568E-02 0.00000E+00
 -1       375-1.63738E-03 2.10159E-02 0.00000E+00
 -1       376-1.08347E-03 2.08820E-02 0.00000E+00
 -1       377-6.13611E-04 2.07887E-02 0.00000E+00
 -1       378-2.20518E-04 2.07618E-02 0.00000E+00
 -1       379 1.24117E-04 2.08113E-02 0.00000E+00
 -1       380 4.53849E-04 2.09339E-02 0.00000E+00
 -1       381 8.01795E-04 2.11244E-02 0.00000E+00
 -1       382 1.20489E-03 2.13831E-02 0.00000E+00
 -1       383 1.71448E-03 2.17230E-02 0.00000E+00
 -1       384 2.41772E-03 2.21789E-02 0.00000E+00
 -1       385-1.76965E-03 2.01862E-02 0.00000E+00
 -1       386-1.14891E-03 2.00281E-02 0.00000E+00
 -1       387-6.60827E-04 1.99047E-02 0.00000E+00
 -1       388-3.07629E-04 1.98633E-02 0.00000E+00
 -1       389-4.25814E-05 1.99202E-02 0.00000E+00
 -1       390 1.84154E-04 2.00594E-02 0.00000E+00
 -1       391 4.07023E-04 2.02618E-02 0.00000E+00
 -1       392 6.52478E-04 2.05158E-02 0.00000E+00
 -1       393 9.47665E-04 2.08214E-02 0.00000E+00
 -1       394 1.33140E-03 2.11949E-02 0.00000E+00
 -1       395 1.87278E-03 2.16776E-02 0.00000E+00
 -1       396-1.24603E-03 1.91610E-02 0.00000E+00
 -1       397-6.30622E-04 1.90023E-02 0.00000E+00
 -1       398-2.71116E-04 1.89420E-02 0.00000E+00
 -1       399-7.43907E-05 1.90337E-02 0.00000E+00
 -1       400 6.47511E-05 1.92276E-02 0.00000E+00
 -1       401 1.91360E-04 1.94798E-02 0.00000E+00
 -1       402 3.28106E-04 1.97665E-02 0.00000E+00
 -1       403 4.89790E-04 2.00801E-02 0.00000E+00
 -1       404 6.92922E-04 2.04263E-02 0.00000E+00
 -1       405 9.63948E-04 2.08267E-02 0.00000E+00
 -1       406 1.35320E-03 2.13297E-02 0.00000E+00
 -1       407-6.21618E-04 1.79609E-02 0.00000E+00
 -1       408-1.23340E-04 1.78413E-02 0.00000E+00
 -1       409-6.61015E-06 1.80348E-02 0.00000E+00
 -1       410 4.68850E-05 1.83596E-02 0.00000E+00
 -1       411 9.34263E-05 1.87190E-02 0.00000E+00
 -1       412 1.51244E-04 1.90807E-02 0.00000E+00
 -1       413 2.25672E-04 1.94386E-02 0.00000E+00
 -1       414 3.21471E-04 1.97983E-02 0.00000E+00
 -1       415 4.46756E-04 2.01741E-02 0.00000E+00
 -1       416 6.17341E-04 2.05933E-02 0.00000E+00
 -1       417 8.65432E-04 2.11098E-02 0.00000E+00
 -1       418 1.50073E-04 1.61570E-02 0.00000E+00
 -1       419 9.85125E-05 1.67105E-02 0.00000E+00
 -1       420 6.80871E-05 1.73652E-02 0.00000E+00
 -1       421 5.47052E-05 1.79323E-02 0.00000E+00
 -1       422 6.09303E-05 1.84228E-02 0.00000E+00
 -1       423 8.10233E-05 1.88589E-02 0.00000E+00
 -1       424 1.12910E-04 1.92612E-02 0.00000E+00
 -1       425 1.56831E-04 1.96481E-02 0.00000E+00
 -1       426 2.15829E-04 2.00408E-02 0.00000E+00
 -1       427 2.97139E-04 2.04705E-02 0.00000E+00
 -1       428 4.16226E-04 2.09943E-02 0.00000E+00
 -3
    1PSTEP                         2           1           1          
  100CL  101 1.000000000         427                     0    1           1
 -4  STRESS      6    1
 -5  SXX         1    4    1    1
 -5  SYY         1    4    2    2
 -5  SZZ         1    4    3    3
 -5  SXY         1    4    1    2
 -5  SYZ         1    4    2    3
 -5  SZX         1    4    3    1
 -1         1-1.07088E+03-1.75798E+03-8.58407E+02-6.97018E+02-6.53049E-14 2.08749E-15
 -1         2 9.96929E-01-1.22140E-01 2.62431E-01 1.67861E+00 1.57570E-16-3.93028E-15
 -1         3-2.14990E+02-3.48291E+01-7.55160E+01-2.91799E+02-6.88326E-14-4.13046E-16
 -1         4-4.36743E+01-1.46539E+01-1.75168E+01-3.23638E+01-5.85512E-14 8.87579E-15
 -1         5 1.24266E+01 2.01531E+01 9.77375E+00-1.43488E+01 2.58173E-14-5.71474E-15
 -1         6 6.55556E+00 9.94501E+00 4.95097E+00-5.20837E+00-7.00137E-14 2.49340E-15
 -1         7 4.68372E+00 6.46718E+00 3.34548E+00-3.12945E+00-1.96672E-14-2.68164E-15
 -1         8 3.07496E+00 3.99755E+00 2.12184E+00-1.97402E+00 1.86871E-14 7.84474E-15
 -1         9 2.26058E+00 2.64074E+00 1.47043E+00-1.39509E+00-5.09552E-15-5.74550E-15
 -1        10 1.73573E+00 1.76753E+00 1.05099E+00-1.03680E+00 1.57688E-14 8.50694E-15
 -1        11 1.40846E+00 1.19557E+00 7.81212E-01-8.01987E-01-1.11153E-14-2.16907E-15
 -1        12 1.19801E+00 8.01097E-01 5.99731E-01-6.33258E-01-1.89427E-14-1.00568E-14
 -1        13 1.06686E+00 5.19321E-01 4.75852E-01-5.01677E-01 1.86437E-14 4.70625E-15
 -1        14 9.92421E-01 3.10319E-01 3.90819E-01-3.88687E-01-8.39333E-15-1.06236E-14
 -1        15 9.58839E-01 1.60554E-01 3.35815E-01-2.81770E-01 1.24036E-14 5.56742E-15
 -1        16 9.74495E-01-5.92875E-03 2.90566E-01-1.73952E-01-6.97822E-16-1.00130E-14
 -1        17 4.25973E-01-3.08103E+00-7.96543E-01 1.56355E+00 3.91420E-17-7.97915E-15
 -1        18 6.59665E-01-6.37084E+00-1.71346E+00 1.40283E+00-4.12034E-15-7.70595E-15
 -1        19 1.15108E+00-1.04116E+01-2.77847E+00 1.20906E+00 1.44866E-14-1.13691E-14
 -1        20 2.00613E+00-1.53889E+01-4.01553E+00 9.80283E-01-6.84088E-15 9.21808E-16
 -1        21 3.36186E+00-2.15148E+01-5.44732E+00 7.19460E-01 2.59312E-15 4.34367E-15
 -1        22 5.37524E+00-2.89965E+01-7.08907E+00 4.38866E-01 9.58865E-15 8.51369E-15
 -1        23 8.18599E+00-3.79539E+01-8.93518E+00 1.65629E-01 5.66834E-15-1.56109E-14
 -1        24 1.18337E+01-4.82529E+01-1.09338E+01-5.45010E-02-3.64901E-14-6.66156E-15
 -1        25 1.61326E+01-5.92386E+01-1.29443E+01-1.62550E-01-1.82576E-15-1.38394E-14
 -1        26 2.03294E+01-6.96575E+01-1.48161E+01-1.22615E-01-2.07677E-14 1.39035E-15
 -1        27 2.37298E+01-7.65312E+01-1.58622E+01 1.64033E-01 1.66426E-14-2.77108E-16
 -1        28 2.55386E+01-7.65183E+01-1.53163E+01 2.67637E-01-5.45974E-15-2.90255E-20
 -1        29-2.57679E+02-1.10502E+03-4.11558E+02-2.16393E+02-7.66328E-14-1.29369E-15
 -1        30-6.76623E+01-5.60310E+02-1.89227E+02-6.37332E+01 4.22989E-14 1.39627E-16
 -1        31 4.11173E-01-3.24359E+02-9.74867E+01-2.73892E+01 1.28282E-14 2.48228E-16
 -1        32 1.53261E+01-2.28499E+02-6.41081E+01-1.33636E+01-5.61094E-14-6.48125E-16
 -1        33 2.09513E+01-1.74011E+02-4.60122E+01-7.14284E+00-2.50024E-14-5.09434E-16
 -1        34 2.31804E+01-1.39543E+02-3.49716E+01-3.91072E+00-1.45010E-14 4.46106E-17
 -1        35 2.42280E+01-1.16154E+02-2.76232E+01-2.13844E+00 8.07402E-15-3.92963E-16
 -1        36 2.47366E+01-9.98432E+01-2.25668E+01-1.11098E+00 5.44305E-16 1.92445E-16
 -1        37 2.49873E+01-8.84969E+01-1.90812E+01-5.06993E-01-6.15423E-15-1.05875E-16
 -1        38 2.49832E+01-8.11074E+01-1.68617E+01-1.61995E-01-4.34423E-14 5.42657E-17
 -1        39 2.52048E+01-7.73084E+01-1.56537E+01 2.44605E-02 1.38557E-14 3.43406E-17
 -1        40-2.68055E+01-1.30389E+02-4.72463E+01-1.54291E+02 6.43408E-14 1.30858E-15
 -1        41-1.62570E+01-3.16252E+02-1.00086E+02-1.15133E+02-6.62002E-14 1.58503E-15
 -1        42-1.09809E+00-2.76527E+02-8.35230E+01-5.70887E+01-6.51961E-15-9.66809E-17
 -1        43 1.33672E+01-2.13546E+02-6.01946E+01-3.03027E+01-1.73187E-14-1.46510E-15
 -1        44 1.96650E+01-1.68712E+02-4.48039E+01-1.66123E+01 3.08278E-14 1.73162E-16
 -1        45 2.25979E+01-1.37379E+02-3.44958E+01-9.27300E+00 2.09694E-14 2.18092E-16
 -1        46 2.39650E+01-1.15251E+02-2.74307E+01-5.11689E+00-4.28635E-14 3.96071E-16
 -1        47 2.46336E+01-9.94599E+01-2.24825E+01-2.68195E+00 8.56759E-15-8.39307E-16
 -1        48 2.49548E+01-8.83411E+01-1.90442E+01-1.23847E+00 1.86154E-15 3.37560E-16
 -1        49 2.49833E+01-8.10476E+01-1.68437E+01-4.09387E-01-1.25431E-15-6.03253E-17
 -1        50 2.52070E+01-7.72835E+01-1.56456E+01 3.29430E-02 6.38655E-15 6.72406E-17
 -1        51-1.72707E+02-9.83533E+01-8.14924E+01-1.03380E+02 2.87765E-15-1.51587E-15
 -1        52-4.43202E+01-1.19745E+02-4.93568E+01-1.17247E+02 4.67912E-14-3.04066E-15
 -1        53-9.09647E+00-1.75852E+02-5.56189E+01-8.66818E+01 4.36872E-14 5.77515E-15
 -1        54 7.37296E+00-1.73364E+02-4.99032E+01-5.31433E+01 3.78094E-14 6.23960E-16
 -1        55 1.63702E+01-1.52284E+02-4.08519E+01-3.14759E+01-1.60665E-14 2.58508E-15
 -1        56 2.09552E+01-1.30440E+02-3.29024E+01-1.82705E+01-1.36634E-14 1.58586E-15
 -1        57 2.32325E+01-1.12245E+02-2.67468E+01-1.03065E+01 4.22346E-14 3.73759E-16
 -1        58 2.43422E+01-9.81693E+01-2.21820E+01-5.47108E+00-3.46284E-14-1.20506E-15
 -1        59 2.48671E+01-8.78110E+01-1.89111E+01-2.54607E+00 2.99605E-15 1.18945E-15
 -1        60 2.49888E+01-8.08450E+01-1.67812E+01-8.46572E-01-2.53491E-14-4.38216E-16
 -1        61 2.52156E+01-7.72014E+01-1.56183E+01 6.20570E-02 9.79667E-15-3.20039E-17
 -1        62-9.06184E+01-3.58919E+01-3.79922E+01-4.39070E+01 9.15120E-15 2.29120E-15
 -1        63-7.97006E+01-7.12553E+01-4.53609E+01-8.05728E+01-4.28918E-14 5.87692E-15
 -1        64-2.91380E+01-1.02709E+02-3.96305E+01-8.16766E+01-1.70104E-14-8.78668E-15
 -1        65-2.74562E+00-1.26160E+02-3.87439E+01-6.27348E+01-1.16490E-14-1.66852E-15
 -1        66 1.10973E+01-1.27835E+02-3.50826E+01-4.19161E+01-3.75827E-14 7.74014E-16
 -1        67 1.83168E+01-1.18770E+02-3.01857E+01-2.60870E+01-3.30012E-14-3.81694E-16
 -1        68 2.20202E+01-1.06866E+02-2.54937E+01-1.53143E+01-2.11204E-14-3.87195E-15
 -1        69 2.38559E+01-9.57755E+01-2.16084E+01-8.32360E+00 3.04690E-14 2.68593E-15
 -1        70 2.47227E+01-8.68101E+01-1.86537E+01-3.93007E+00-3.05052E-14-1.51444E-15
 -1        71 2.50042E+01-8.04612E+01-1.66612E+01-1.32084E+00 1.47720E-14-2.34989E-16
 -1        72 2.52345E+01-7.70496E+01-1.55670E+01 8.03812E-02-1.32839E-14-7.49515E-16
 -1        73-4.61735E+01-1.61345E+01-1.87027E+01-2.33440E+01 5.45905E-15 8.01016E-15
 -1        74-6.12894E+01-3.99195E+01-3.03931E+01-4.87868E+01 1.19660E-14-3.00471E-15
 -1        75-4.12422E+01-6.67742E+01-3.24481E+01-6.31544E+01-9.61734E-15 1.86215E-15
 -1        76-1.39880E+01-8.94031E+01-3.10646E+01-5.94641E+01 1.03859E-14-4.16548E-15
 -1        77 4.12706E+00-1.02383E+02-2.95226E+01-4.60982E+01 3.04510E-14-4.63949E-16
 -1        78 1.45982E+01-1.04183E+02-2.69167E+01-3.15382E+01-1.83857E-14-4.90837E-15
 -1        79 2.02318E+01-9.94020E+01-2.37868E+01-1.96420E+01 2.43456E-14 8.95375E-15
 -1        80 2.31129E+01-9.22504E+01-2.07718E+01-1.10704E+01-1.93183E-15-3.31702E-15
 -1        81 2.44949E+01-8.52885E+01-1.82647E+01-5.34741E+00-5.62726E-15 3.10040E-15
 -1        82 2.50243E+01-7.98712E+01-1.64779E+01-1.82762E+00-1.68192E-14-2.63366E-15
 -1        83 2.52677E+01-7.68221E+01-1.54887E+01 7.75143E-02-2.13086E-14 2.14575E-16
 -1        84-2.50705E+01-8.33640E+00-1.00252E+01-1.39533E+01 2.32998E-14-4.95998E-15
 -1        85-4.08019E+01-2.40931E+01-1.94810E+01-3.10770E+01-1.18914E-14 1.07219E-14
 -1        86-3.71459E+01-4.44235E+01-2.44934E+01-4.53325E+01-1.95816E-14-6.02005E-15
 -1        87-2.03684E+01-6.49487E+01-2.56248E+01-4.98999E+01 3.44993E-14 8.91315E-15
 -1        88-2.60232E+00-8.07572E+01-2.50408E+01-4.44852E+01-1.63408E-15-6.35952E-15
 -1        89 1.01267E+01-8.91592E+01-2.37427E+01-3.39022E+01 3.94329E-14 5.33843E-15
 -1        90 1.78426E+01-9.05895E+01-2.18551E+01-2.27626E+01-3.62454E-14-7.52003E-15
 -1        91 2.20494E+01-8.77217E+01-1.97299E+01-1.34840E+01-9.84649E-15-1.17884E-15
 -1        92 2.41460E+01-8.32382E+01-1.77532E+01-6.72815E+00 1.47345E-14 1.27924E-15
 -1        93 2.50367E+01-7.90620E+01-1.62311E+01-2.35561E+00-2.12051E-14-1.28441E-15
 -1        94 2.53206E+01-7.65226E+01-1.53829E+01 4.15146E-02 1.15424E-14 1.51714E-16
 -1        95-1.47119E+01-5.46504E+00-6.05424E+00-9.35925E+00 9.20863E-15-1.02386E-15
 -1        96-2.61880E+01-1.58301E+01-1.26108E+01-2.09000E+01-2.50156E-15-4.35243E-16
 -1        97-2.83897E+01-3.09055E+01-1.78002E+01-3.24405E+01-8.29218E-15 2.39283E-15
 -1        98-2.03226E+01-4.81266E+01-2.05527E+01-3.94352E+01-4.96106E-14-7.68989E-15
 -1        99-6.94620E+00-6.39966E+01-2.13056E+01-3.93761E+01 9.95982E-15-4.98965E-15
 -1       100 5.78523E+00-7.54865E+01-2.09358E+01-3.32927E+01-2.62153E-15 3.07182E-15
 -1       101 1.49985E+01-8.13881E+01-1.99430E+01-2.43046E+01-2.64166E-14 1.95064E-15
 -1       102 2.06210E+01-8.24882E+01-1.85857E+01-1.53096E+01 4.23719E-14-1.92111E-15
 -1       103 2.36244E+01-8.07176E+01-1.71522E+01-7.97333E+00-2.83060E-14-1.63726E-15
 -1       104 2.50161E+01-7.80444E+01-1.59315E+01-2.88350E+00 9.13592E-15-2.71253E-16
 -1       105 2.53982E+01-7.61703E+01-1.52538E+01-3.75804E-02 1.17633E-14 2.03471E-16
 -1       106-9.00747E+00-4.17636E+00-3.95566E+00-6.72067E+00 1.79191E-14 6.94720E-15
 -1       107-1.67856E+01-1.15781E+01-8.51162E+00-1.48213E+01 6.51464E-15 6.87904E-16
 -1       108-2.00422E+01-2.27058E+01-1.28305E+01-2.35814E+01 1.71552E-14-2.26276E-15
 -1       109-1.68941E+01-3.66745E+01-1.60812E+01-3.04656E+01 3.61882E-15-6.98962E-15
 -1       110-8.24119E+00-5.12524E+01-1.78633E+01-3.30398E+01-1.10459E-14 3.77303E-15
 -1       111 2.53196E+00-6.38419E+01-1.84120E+01-3.05374E+01-2.27932E-14 9.92678E-15
 -1       112 1.20900E+01-7.25572E+01-1.81616E+01-2.42075E+01 2.45551E-14-1.12060E-14
 -1       113 1.88602E+01-7.69294E+01-1.74434E+01-1.63248E+01-5.85185E-15 6.91585E-15
 -1       114 2.28774E+01-7.78470E+01-1.65136E+01-8.95674E+00-5.07444E-15-4.11364E-15
 -1       115 2.49211E+01-7.68588E+01-1.56037E+01-3.37502E+00-1.95047E-14-8.97756E-16
 -1       116 2.55021E+01-7.58053E+01-1.51130E+01-1.62165E-01 1.58674E-14 4.45843E-16
 -1       117-5.61228E+00-3.55608E+00-2.75076E+00-5.03809E+00 7.93956E-15 2.82104E-18
 -1       118-1.07231E+01-9.27340E+00-6.00021E+00-1.09173E+01-1.15767E-14-6.99218E-15
 -1       119-1.34992E+01-1.77691E+01-9.38380E+00-1.74843E+01 1.30174E-14 5.75917E-15
 -1       120-1.25212E+01-2.89586E+01-1.24503E+01-2.33805E+01-1.79915E-14 2.10528E-15
 -1       121-7.33386E+00-4.17437E+01-1.47334E+01-2.68529E+01 5.80563E-15-2.12593E-15
 -1       122 8.27263E-01-5.42378E+01-1.60371E+01-2.66371E+01-1.05297E-14-1.83897E-15
 -1       123 9.60368E+00-6.45132E+01-1.64901E+01-2.27352E+01 1.26974E-14 8.34751E-15
 -1       124 1.69241E+01-7.13756E+01-1.63552E+01-1.64201E+01-1.72041E-14-4.94455E-15
 -1       125 2.18794E+01-7.47761E+01-1.58902E+01-9.54677E+00-1.07006E-14 5.31445E-15
 -1       126 2.46956E+01-7.55724E+01-1.52848E+01-3.77692E+00 4.55025E-14-2.14413E-15
 -1       127 2.56236E+01-7.54892E+01-1.49816E+01-3.19437E-01-4.64988E-14-6.96252E-16
 -1       128-3.46796E+00-3.23203E+00-2.01014E+00-3.86559E+00 3.75451E-14-5.20618E-15
 -1       129-6.72925E+00-7.96921E+00-4.41024E+00-8.23173E+00 1.02447E-15 9.38951E-15
 -1       130-8.68777E+00-1.47591E+01-7.03597E+00-1.31546E+01 2.14869E-14-7.47412E-15
 -1       131-8.44112E+00-2.38255E+01-9.68387E+00-1.79106E+01-2.31527E-14 6.98673E-15
 -1       132-5.32502E+00-3.47903E+01-1.20413E+01-2.13688E+01-2.74377E-15-4.51335E-15
 -1       133 5.14937E-01-4.65258E+01-1.38133E+01-2.23643E+01 2.36684E-14 2.69313E-15
 -1       134 7.88749E+00-5.74361E+01-1.48782E+01-2.03140E+01-1.68873E-14-5.09776E-15
 -1       135 1.50676E+01-6.60582E+01-1.53141E+01-1.56359E+01-1.56934E-14-2.17965E-15
 -1       136 2.06705E+01-7.16412E+01-1.53107E+01-9.64462E+00-6.08380E-15 5.54111E-15
 -1       137 2.42813E+01-7.42641E+01-1.50159E+01-4.02492E+00 3.88905E-14-1.80824E-15
 -1       138 2.57323E+01-7.52951E+01-1.48907E+01-4.74855E-01 1.92238E-14 6.33644E-16
 -1       139-2.05603E+00-3.05984E+00-1.53484E+00-2.98659E+00-1.35109E-14 1.09601E-14
 -1       140-4.03663E+00-7.20244E+00-3.37214E+00-6.25703E+00 1.71296E-14 4.64626E-16
 -1       141-5.22600E+00-1.28958E+01-5.43770E+00-9.94174E+00-5.00467E-15 6.96942E-16
 -1       142-5.07032E+00-2.04346E+01-7.65394E+00-1.36496E+01 1.01277E-15 4.87284E-16
 -1       143-3.02710E+00-2.98171E+01-9.85776E+00-1.66860E+01 2.09870E-15 6.00850E-15
 -1       144 1.13837E+00-4.05104E+01-1.18189E+01-1.81625E+01-1.67719E-14-8.08346E-15
 -1       145 7.02253E+00-5.14132E+01-1.33279E+01-1.73484E+01 2.10668E-14 7.65802E-15
 -1       146 1.35468E+01-6.11456E+01-1.42940E+01-1.41216E+01 1.73112E-14-1.09035E-14
 -1       147 1.93750E+01-6.85548E+01-1.47717E+01-9.21430E+00-1.71443E-14 5.76385E-15
 -1       148 2.36476E+01-7.30053E+01-1.48276E+01-4.06004E+00-4.40293E-14 2.90501E-15
 -1       149 2.57666E+01-7.52833E+01-1.48769E+01-5.74357E-01 2.51918E-14-2.41581E-15
 -1       150-1.09849E+00-2.97281E+00-1.22144E+00-2.28289E+00 3.08416E-15-6.62973E-15
 -1       151-2.19026E+00-6.74474E+00-2.68077E+00-4.71010E+00-1.48184E-14-1.11500E-14
 -1       152-2.75643E+00-1.17307E+01-4.34688E+00-7.43252E+00 2.01840E-17 5.35836E-15
 -1       153-2.45202E+00-1.82107E+01-6.20047E+00-1.02350E+01 6.85374E-15-5.79984E-15
 -1       154-8.91140E-01-2.63435E+01-8.17354E+00-1.27011E+01-9.89977E-16-1.38238E-15
 -1       155 2.22117E+00-3.59785E+01-1.01326E+01-1.42162E+01-5.94844E-16 1.39435E-14
 -1       156 6.86612E+00-4.64897E+01-1.18955E+01-1.41240E+01 1.10159E-14-4.53625E-15
 -1       157 1.25167E+01-5.67945E+01-1.32955E+01-1.20538E+01 8.89851E-15-1.95645E-15
 -1       158 1.81723E+01-6.56338E+01-1.42545E+01-8.27622E+00 1.41485E-14-6.04786E-15
 -1       159 2.28286E+01-7.18555E+01-1.47276E+01-3.84410E+00 3.54149E-15-6.20118E-15
 -1       160 2.56369E+01-7.54658E+01-1.49705E+01-5.65631E-01-1.71427E-14 2.24072E-15
 -1       161-4.38821E-01-2.93900E+00-1.01339E+00-1.68204E+00 1.10623E-14-1.22503E-14
 -1       162-9.19759E-01-6.48005E+00-2.22013E+00-3.42037E+00-4.44967E-16 1.74320E-14
 -1       163-1.01560E+00-1.10115E+01-3.60866E+00-5.36002E+00 1.00178E-14-1.05862E-14
 -1       164-5.04758E-01-1.67787E+01-5.18620E+00-7.38181E+00-9.62194E-15-1.38117E-15
 -1       165 8.81096E-01-2.39940E+01-6.93616E+00-9.24192E+00 1.71479E-15-6.54745E-15
 -1       166 3.39757E+00-3.27162E+01-8.79969E+00-1.05448E+01 1.59630E-15-7.14368E-15
 -1       167 7.16327E+00-4.26807E+01-1.06620E+01-1.07921E+01 9.83411E-15 5.77518E-15
 -1       168 1.19852E+01-5.31675E+01-1.23651E+01-9.57160E+00 1.24653E-14 7.83888E-16
 -1       169 1.72262E+01-6.30340E+01-1.37570E+01-6.87077E+00-2.67326E-14-1.62129E-15
 -1       170 2.19394E+01-7.08780E+01-1.47004E+01-3.35552E+00 3.75726E-15 8.54143E-15
 -1       171 2.52655E+01-7.57849E+01-1.51777E+01-4.37482E-01-4.67366E-15-3.00397E-15
 -1       172 7.25800E-03-2.94990E+00-8.82822E-01-1.13885E+00-2.06729E-15 2.84312E-15
 -1       173-6.18052E-02-6.35033E+00-1.92378E+00-2.27694E+00 3.92376E-15-9.76824E-15
 -1       174 1.70632E-01-1.05960E+01-3.12801E+00-3.54193E+00-4.32032E-15 3.38101E-15
 -1       175 8.63997E-01-1.59051E+01-4.51321E+00-4.86847E+00 1.26400E-16-1.29250E-16
 -1       176 2.21309E+00-2.24989E+01-6.08753E+00-6.12226E+00-5.68655E-15-2.47415E-15
 -1       177 4.42308E+00-3.05356E+01-7.83705E+00-7.07147E+00-1.06469E-14 2.16418E-15
 -1       178 7.64076E+00-3.99804E+01-9.70756E+00-7.39065E+00 4.11496E-15-2.95460E-15
 -1       179 1.18296E+01-5.04282E+01-1.15887E+01-6.74940E+00-3.02107E-14-3.55835E-15
 -1       180 1.66112E+01-6.09560E+01-1.33169E+01-5.02436E+00-3.05273E-15-2.70958E-16
 -1       181 2.11421E+01-7.01493E+01-1.47204E+01-2.56829E+00 1.10783E-14 2.33350E-15
 -1       182 2.46681E+01-7.61337E+01-1.54616E+01-2.47803E-01-3.57681E-14-2.28675E-15
 -1       183 2.99504E-01-3.01420E+00-8.14438E-01-6.19225E-01 8.99151E-16-4.17863E-15
 -1       184 4.57302E-01-6.32579E+00-1.76066E+00-1.20498E+00-3.11893E-15 6.04001E-15
 -1       185 8.84058E-01-1.04117E+01-2.85861E+00-1.84414E+00 1.94414E-15 8.78266E-16
 -1       186 1.69999E+00-1.54649E+01-4.13021E+00-2.51312E+00 5.48153E-15-1.96445E-14
 -1       187 3.05705E+00-2.17008E+01-5.59463E+00-3.15351E+00 6.15150E-16-8.62126E-16
 -1       188 5.12507E+00-2.93170E+01-7.26043E+00-3.65816E+00-1.20845E-14 6.62559E-15
 -1       189 8.04688E+00-3.83990E+01-9.11064E+00-3.86611E+00 5.70622E-15 3.17077E-15
 -1       190 1.18444E+01-4.87460E+01-1.10788E+01-3.59433E+00 2.21761E-15 3.28637E-15
 -1       191 1.62798E+01-5.96308E+01-1.30181E+01-2.74177E+00-2.14770E-14 2.38467E-15
 -1       192 2.05740E+01-6.97413E+01-1.47680E+01-1.44999E+00-4.53358E-15-1.81843E-15
 -1       193 2.40352E+01-7.64094E+01-1.57341E+01-9.45481E-02-1.32996E-15 1.97562E-15
 -1       194-1.61547E-01-1.27855E-02-5.22997E-02 1.98500E-01-2.71667E-13-3.64864E-14
 -1       195-6.35938E+02-9.07256E+02-4.65620E+02 3.67433E+02 1.33352E-13-1.04759E-16
 -1       196 1.08727E+02-5.38264E+00 3.09698E+01 2.56691E+00 4.09252E-13 8.43462E-16
 -1       197 1.34276E-01-1.00219E+01-2.96655E+00 2.11948E-01 6.07428E-13-1.37213E-13
 -1       199-1.14158E+00-1.89830E-01-3.99431E-01 2.52384E-01 6.29356E-13 7.18849E-14
 -1       200-4.30482E+00-1.46863E-01-1.33557E+00 4.01452E-01 1.56848E-13-9.54473E-14
 -1       201-9.72292E+00-1.98076E-01-2.97658E+00 5.97720E-01 5.76716E-13 1.43103E-14
 -1       202-1.64546E+01-3.22599E-01-5.03392E+00 7.79955E-01-1.09958E-13 2.71548E-14
 -1       203-2.38019E+01-4.60917E-01-7.28040E+00 9.31060E-01 3.40680E-13-7.85990E-14
 -1       204-3.12607E+01-5.87812E-01-9.55724E+00 1.04675E+00-2.31591E-13-4.33796E-14
 -1       205-3.84242E+01-6.77553E-01-1.17345E+01 1.12539E+00-2.02972E-13 6.47881E-14
 -1       206-4.49788E+01-6.99284E-01-1.37089E+01 1.17210E+00 2.52606E-13-1.12670E-13
 -1       207-5.07073E+01-6.12321E-01-1.54029E+01 1.20124E+00-2.37676E-13 6.20271E-14
 -1       208-5.54734E+01-3.45137E-01-1.67540E+01 1.24455E+00 2.47468E-13-2.71967E-14
 -1       209-5.92299E+01 1.85399E-01-1.77230E+01 1.35375E+00 1.54414E-13-4.33171E-14
 -1       210-6.18207E+01 1.35031E+00-1.81518E+01 1.71236E+00 1.01956E-13-9.93377E-16
 -1       211-6.37589E+01 2.85468E+00-1.82827E+01 2.47351E+00 1.20403E-13-3.13700E-14
 -1       212-6.33003E+01 8.97621E+00-1.63098E+01 6.61094E+00-5.85185E-15 8.08689E-15
 -1       213-9.32854E+01-9.01355E+00-3.07140E+01 1.32626E+01 4.51770E-15-2.33359E-16
 -1       214-1.72763E+02 1.21915E+01-4.83468E+01 1.42434E+02-1.44480E-13-1.75404E-14
 -1       215-2.10450E+02-5.65746E+02-2.33543E+02 1.16905E+02 6.76600E-14 2.39488E-16
 -1       216-9.98375E+01-2.82853E+02-1.15001E+02 3.85130E+01 6.07488E-14 2.72853E-16
 -1       217-5.43008E+01-1.61416E+02-6.47780E+01 1.85253E+01-4.45303E-13-1.72132E-16
 -1       218-3.54125E+01-1.10588E+02-4.38293E+01 1.07466E+01 3.07563E-13 3.08829E-16
 -1       219-2.12800E+01-8.08487E+01-3.06543E+01 7.15872E+00 3.24853E-14-1.13404E-16
 -1       220-8.26821E+00-6.08155E+01-2.07345E+01 5.23928E+00-1.02474E-14 2.58707E-16
 -1       221 5.12936E+00-4.59237E+01-1.22448E+01 4.13994E+00 1.75591E-13 3.21539E-16
 -1       222 1.98157E+01-3.41965E+01-4.32012E+00 3.47985E+00 1.93992E-13 3.30764E-16
 -1       223 3.68263E+01-2.47844E+01 3.60513E+00 3.07730E+00-8.13807E-14 9.02235E-16
 -1       224 5.77475E+01-1.77070E+01 1.20000E+01 2.83110E+00 6.10406E-14 2.86541E-16
 -1       225 8.68005E+01-1.10705E+01 2.26961E+01 2.66330E+00-1.59801E-14 2.89622E-15
 -1       226 1.08181E+02-5.42693E+00 3.07932E+01 5.90393E-01-1.15785E-13 4.72988E-16
 -1       227 1.06491E+02-5.53784E+00 3.02539E+01 1.13412E+00-2.62182E-13-1.76053E-14
 -1       228 1.03504E+02-5.69394E+00 2.93124E+01 1.65480E+00-5.79311E-14-1.05210E-14
 -1       229 9.90326E+01-5.90230E+00 2.79110E+01 2.14038E+00 7.40263E-14-6.79962E-14
 -1       230 9.29710E+01-6.17288E+00 2.60145E+01 2.53637E+00-9.48006E-14-3.22709E-14
 -1       231 8.53606E+01-6.50768E+00 2.36346E+01 2.80057E+00-1.39654E-13-1.12173E-13
 -1       232 7.64093E+01-6.90171E+00 2.08349E+01 2.90674E+00-2.84995E-13-1.10528E-13
 -1       233 6.64771E+01-7.34179E+00 1.77272E+01 2.85351E+00-1.66147E-13 2.05732E-14
 -1       234 5.60192E+01-7.80649E+00 1.44540E+01 2.66533E+00 2.15327E-13-1.32997E-13
 -1       235 4.55041E+01-8.26952E+00 1.11635E+01 2.38342E+00-1.43307E-13-7.20286E-14
 -1       236 3.53424E+01-8.70581E+00 7.98655E+00 2.05112E+00-2.01304E-13-3.84103E-14
 -1       237 2.58587E+01-9.09648E+00 5.02598E+00 1.70136E+00-3.84421E-13-7.63438E-14
 -1       238 1.73170E+01-9.42840E+00 2.36508E+00 1.35149E+00-2.36178E-13 4.31598E-14
 -1       239 9.99263E+00-9.69003E+00 8.99837E-02 1.00351E+00-3.67582E-13-2.28283E-13
 -1       240 4.34402E+00-9.82829E+00-1.64571E+00 6.60311E-01 1.91828E-13-1.01500E-14
 -1       241 1.14617E+00-9.77181E+00-2.58799E+00 3.54230E-01-8.96167E-13-9.89623E-14
 -1       242 6.23353E-01-9.76106E+00-2.74159E+00 3.89231E-01 4.12376E-14-5.11244E-14
 -1       243 6.57879E-01-9.23487E+00-2.57335E+00 8.12914E-01-2.45862E-13-6.97491E-14
 -1       244 3.85136E-01-8.06553E+00-2.30432E+00 1.26486E+00-2.85174E-13 8.69618E-14
 -1       245 1.30033E-01-6.38908E+00-1.87785E+00 1.53526E+00 5.79285E-14-6.61576E-15
 -1       246-7.74047E-02-4.60278E+00-1.40413E+00 1.59305E+00 1.29564E-13-3.09794E-14
 -1       247-2.52093E-01-2.99699E+00-9.74765E-01 1.47620E+00 3.26643E-13-9.08295E-16
 -1       248-4.04454E-01-1.72963E+00-6.40244E-01 1.24099E+00-8.31814E-14 3.14425E-14
 -1       249-5.30500E-01-8.52686E-01-4.14965E-01 9.46228E-01 6.47793E-14-2.93688E-14
 -1       250-6.11198E-01-3.42830E-01-2.86212E-01 6.48668E-01 8.25689E-13 2.10338E-14
 -1       251-6.14225E-01-1.26527E-01-2.22228E-01 4.01722E-01-4.51012E-13 4.30372E-14
 -1       252-4.96819E-01-9.79866E-02-1.78442E-01 2.53545E-01 1.02683E-12-3.14120E-14
 -1       253-1.68074E+00-4.62632E-01-6.43026E-01 5.21658E-01-5.65225E-13-3.09367E-14
 -1       254-1.94852E+00-7.88280E-01-8.21063E-01 1.04103E+00-6.44150E-13-3.78381E-14
 -1       255-1.99849E+00-1.26929E+00-9.80373E-01 1.63083E+00-7.58649E-14 6.74875E-15
 -1       256-1.83709E+00-1.90073E+00-1.12140E+00 2.23859E+00-3.65928E-13 6.87233E-15
 -1       257-1.47525E+00-2.68420E+00-1.24792E+00 2.79968E+00-1.11777E-13-3.23090E-14
 -1       258-9.30248E-01-3.62043E+00-1.36532E+00 3.23497E+00-7.15588E-14 1.44921E-14
 -1       259-2.30517E-01-4.69984E+00-1.47927E+00 3.45242E+00 2.46134E-13-6.72244E-17
 -1       260 5.72930E-01-5.89140E+00-1.59574E+00 3.35443E+00-4.39467E-14 2.58564E-14
 -1       261 1.38148E+00-7.12972E+00-1.72471E+00 2.85787E+00 5.81627E-14 2.69164E-14
 -1       262 1.99769E+00-8.28280E+00-1.88581E+00 1.94490E+00 1.99410E-13 1.27928E-13
 -1       263 1.93725E+00-9.18588E+00-2.17489E+00 8.76875E-01 3.61819E-14-4.68212E-14
 -1       264-4.74108E+00-3.45917E-01-1.52618E+00 1.06038E+00-2.06111E-13 2.63341E-14
 -1       265-4.80766E+00-5.65076E-01-1.61193E+00 2.20163E+00-8.35853E-14 5.43746E-14
 -1       266-4.56614E+00-9.86782E-01-1.66602E+00 3.30790E+00 8.25726E-14 4.02436E-14
 -1       267-4.00901E+00-1.60969E+00-1.68580E+00 4.34819E+00-2.58920E-13-9.85589E-15
 -1       268-3.13635E+00-2.42959E+00-1.67003E+00 5.26115E+00 3.49795E-14-2.49636E-14
 -1       269-1.95897E+00-3.43802E+00-1.61940E+00 5.95574E+00 2.87195E-13 2.19172E-14
 -1       270-5.06413E-01-4.61701E+00-1.53739E+00 6.31188E+00-7.33371E-13-7.63065E-15
 -1       271 1.15542E+00-5.92668E+00-1.43179E+00 6.18588E+00 9.35565E-14 4.18913E-14
 -1       272 2.88810E+00-7.27707E+00-1.31714E+00 5.42499E+00-4.57855E-14 6.20753E-14
 -1       273 4.40789E+00-8.46195E+00-1.21668E+00 3.88828E+00 2.04322E-13 2.61361E-14
 -1       274 5.02190E+00-9.26706E+00-1.27400E+00 1.79914E+00 1.18213E-13-1.29145E-13
 -1       275-9.59032E+00-2.66722E-01-2.95740E+00 1.56335E+00-2.47037E-13 1.88466E-14
 -1       276-9.14999E+00-4.80722E-01-2.88953E+00 3.21597E+00-1.54113E-13 9.13738E-15
 -1       277-8.35018E+00-8.67693E-01-2.76573E+00 4.79201E+00-1.05867E-13 1.43645E-14
 -1       278-7.15104E+00-1.45308E+00-2.58167E+00 6.24072E+00 1.56389E-13-2.69759E-14
 -1       279-5.52198E+00-2.25214E+00-2.33274E+00 7.49108E+00-1.91164E-13-6.10553E-15
 -1       280-3.44785E+00-3.26835E+00-2.01545E+00 8.44066E+00 1.07255E-13 2.76623E-14
 -1       281-9.41991E-01-4.48642E+00-1.62919E+00 8.94763E+00-2.60268E-13-4.99230E-15
 -1       282 1.92801E+00-5.85637E+00-1.17924E+00 8.82599E+00 4.36986E-13 3.70513E-14
 -1       283 4.99227E+00-7.26260E+00-6.81876E-01 7.84545E+00-2.28116E-13 3.30896E-14
 -1       284 7.89054E+00-8.47826E+00-1.77111E-01 5.73447E+00-5.25504E-14 5.11841E-14
 -1       285 9.88436E+00-9.23038E+00 1.95390E-01 2.71110E+00-8.61292E-14-4.93968E-14
 -1       286-1.55734E+01-2.10144E-01-4.73579E+00 1.98816E+00 1.70245E-13-5.58147E-14
 -1       287-1.44354E+01-4.05518E-01-4.45300E+00 4.05919E+00-1.74972E-13 7.16620E-14
 -1       288-1.29027E+01-7.62956E-01-4.10042E+00 6.04370E+00 4.41211E-13-4.56805E-14
 -1       289-1.09064E+01-1.30953E+00-3.66558E+00 7.88008E+00-3.50684E-13-1.98777E-14
 -1       290-8.37982E+00-2.07137E+00-3.13622E+00 9.48052E+00-2.52138E-13 8.44017E-15
 -1       291-5.26847E+00-3.06525E+00-2.50107E+00 1.07195E+01-8.73282E-14 1.51043E-14
 -1       292-1.55056E+00-4.28634E+00-1.75212E+00 1.14199E+01 7.03517E-14-1.06156E-14
 -1       293 2.72871E+00-5.68810E+00-8.88951E-01 1.13403E+01-1.80542E-13 3.98505E-14
 -1       294 7.40088E+00-7.15044E+00 7.39178E-02 1.01648E+01 1.78342E-13 7.46655E-15
 -1       295 1.20866E+01-8.43498E+00 1.09420E+00 7.50120E+00-2.91723E-13 4.93386E-14
 -1       296 1.60765E+01-9.11110E+00 2.08818E+00 3.58728E+00-1.43352E-13-1.03934E-13
 -1       297-2.21419E+01-1.57936E-01-6.69135E+00 2.32675E+00 2.32143E-13-2.70634E-14
 -1       298-2.02802E+01-3.26769E-01-6.18340E+00 4.73304E+00-1.35839E-13 4.57955E-14
 -1       299-1.79793E+01-6.41645E-01-5.58755E+00 7.06789E+00 9.93693E-14-4.58063E-15
 -1       300-1.51403E+01-1.13895E+00-4.88506E+00 9.26411E+00-1.35434E-13 1.17426E-15
 -1       301-1.16541E+01-1.85583E+00-4.05428E+00 1.12181E+01-6.29316E-14-1.56942E-14
 -1       302-7.41777E+00-2.82154E+00-3.07318E+00 1.27741E+01 3.42109E-13 1.55648E-14
 -1       303-2.36443E+00-4.04210E+00-1.92344E+00 1.37082E+01-2.95438E-13-7.82432E-16
 -1       304 3.49494E+00-5.47704E+00-5.96234E-01 1.37131E+01 2.14526E-13 4.00282E-14
 -1       305 1.00126E+01-7.00522E+00 9.00456E-01 1.23850E+01 2.09099E-14 2.02094E-14
 -1       306 1.68183E+01-8.37219E+00 2.53187E+00 9.21379E+00 9.23620E-14 7.30418E-14
 -1       307 2.32445E+01-8.94895E+00 4.28628E+00 4.44971E+00 3.87362E-14-8.73077E-14
 -1       308-2.88911E+01-1.06730E-01-8.70173E+00 2.57513E+00-6.52506E-14 4.72613E-14
 -1       309-2.63811E+01-2.45512E-01-7.99013E+00 5.24010E+00-8.31567E-14 4.55277E-14
 -1       310-2.33818E+01-5.15948E-01-7.17129E+00 7.88116E+00 1.07247E-13-7.37350E-15
 -1       311-1.97421E+01-9.68560E-01-6.21508E+00 1.04254E+01-9.24143E-14-2.56847E-14
 -1       312-1.52930E+01-1.65515E+00-5.08630E+00 1.27457E+01 1.35153E-13-1.60275E-14
 -1       313-9.87550E+00-2.61518E+00-3.74909E+00 1.46433E+01-1.32590E-13 2.35816E-14
 -1       314-3.38199E+00-3.85702E+00-2.17367E+00 1.58345E+01-5.57941E-14-5.76125E-15
 -1       315 4.19909E+00-5.33549E+00-3.43047E-01 1.59431E+01-2.55233E-13 1.49747E-14
 -1       316 1.27375E+01-6.92236E+00 1.74215E+00 1.44879E+01 2.63656E-14 2.72013E-14
 -1       317 2.18930E+01-8.35350E+00 4.05900E+00 1.08549E+01 2.72929E-13 3.85653E-14
 -1       318 3.11014E+01-8.78306E+00 6.69172E+00 5.29141E+00 4.79365E-14-9.60272E-14
 -1       319-3.55314E+01-6.19014E-02-1.06815E+01 2.73741E+00 1.64743E-13-2.30718E-14
 -1       320-3.25503E+01-1.79524E-01-9.82212E+00 5.60482E+00 6.57810E-14 1.32315E-15
 -1       321-2.90034E+01-4.27496E-01-8.83212E+00 8.54095E+00 1.20470E-13 1.91330E-14
 -1       322-2.46525E+01-8.77810E-01-7.66173E+00 1.14550E+01-3.75035E-13-7.65036E-15
 -1       323-1.92468E+01-1.59597E+00-6.25534E+00 1.41722E+01-1.42080E-14-2.25127E-14
 -1       324-1.25781E+01-2.61857E+00-4.56147E+00 1.64226E+01-9.47133E-14 1.63788E-14
 -1       325-4.53431E+00-3.93232E+00-2.54249E+00 1.78485E+01 1.36247E-13-6.62839E-16
 -1       326 4.87570E+00-5.46147E+00-1.78423E-01 1.80167E+01 2.42714E-15 2.27077E-14
 -1       327 1.55223E+01-7.06046E+00 2.53545E+00 1.64075E+01 1.03215E-13 1.35421E-14
 -1       328 2.71320E+01-8.47757E+00 5.59240E+00 1.23457E+01-9.03777E-14 4.42458E-14
 -1       329 3.93674E+01-8.66387E+00 9.20547E+00 6.06700E+00 1.93804E-13-6.87611E-15
 -1       330-4.18962E+01-3.54441E-02-1.25844E+01 2.83536E+00 1.17527E-13-5.94060E-15
 -1       331-3.87348E+01-1.65634E-01-1.16745E+01 5.89474E+00-2.81121E-13 1.63548E-14
 -1       332-3.48529E+01-4.58158E-01-1.05973E+01 9.17590E+00 7.95795E-14-1.22986E-14
 -1       333-2.98710E+01-1.01343E+00-9.26893E+00 1.25326E+01 1.04962E-13-1.76287E-15
 -1       334-2.34484E+01-1.89829E+00-7.60733E+00 1.56869E+01-2.37440E-13-9.38746E-15
 -1       335-1.53843E+01-3.11212E+00-5.55205E+00 1.82532E+01 7.71489E-14 1.34254E-14
 -1       336-5.65474E+00-4.57171E+00-3.07102E+00 1.97964E+01-6.06803E-16-1.57409E-15
 -1       337 5.63915E+00-6.13155E+00-1.51008E-01 1.98763E+01 7.51071E-14 3.35347E-14
 -1       338 1.83606E+01-7.62467E+00 3.21689E+00 1.80144E+01-1.37690E-13 4.26504E-14
 -1       339 3.23700E+01-8.86146E+00 7.04740E+00 1.35474E+01 1.79574E-13 5.16760E-14
 -1       340 4.77324E+01-8.64745E+00 1.17177E+01 6.69586E+00-4.57887E-14-1.64336E-14
 -1       341-4.79713E+01-5.02604E-02-1.44129E+01 2.91817E+00 1.05412E-13-2.28401E-14
 -1       342-4.50540E+01-2.73059E-01-1.36040E+01 6.24545E+00 3.64762E-14 4.44282E-14
 -1       343-4.10682E+01-7.55772E-01-1.25526E+01 1.00231E+01-9.38184E-14-2.03430E-14
 -1       344-3.54222E+01-1.62449E+00-1.11188E+01 1.39542E+01-1.90030E-13 6.11348E-15
 -1       345-2.77486E+01-2.90880E+00-9.20156E+00 1.75547E+01-4.77671E-14-1.51179E-14
 -1       346-1.80229E+01-4.49739E+00-6.76000E+00 2.02792E+01 3.30340E-14 8.96995E-15
 -1       347-6.46943E+00-6.16188E+00-3.79311E+00 2.16678E+01-6.04363E-14-8.16497E-15
 -1       348 6.66094E+00-7.65216E+00-3.01256E-01 2.13880E+01 5.90231E-14 1.85505E-14
 -1       349 2.12668E+01-8.81089E+00 3.73212E+00 1.91177E+01 2.29710E-13 1.41270E-14
 -1       350 3.74457E+01-9.60011E+00 8.34719E+00 1.42837E+01-5.74129E-14 1.62746E-14
 -1       351 5.58544E+01-8.77663E+00 1.41130E+01 7.07889E+00-1.45525E-13-1.05166E-13
 -1       352-5.39495E+01-1.53793E-01-1.62390E+01 3.08102E+00-1.83537E-13-9.38276E-15
 -1       353-5.18640E+01-6.41884E-01-1.57595E+01 6.91106E+00-1.15690E-13 1.06419E-14
 -1       354-4.79031E+01-1.59359E+00-1.48562E+01 1.14879E+01 3.37198E-14 5.22047E-15
 -1       355-4.12510E+01-3.13400E+00-1.33219E+01 1.61530E+01-5.49627E-14 2.09589E-15
 -1       356-3.17994E+01-5.15416E+00-1.10916E+01 2.00624E+01 1.36179E-13-9.40587E-15
 -1       357-2.00554E+01-7.30211E+00-8.21205E+00 2.25501E+01 8.30657E-14 1.55188E-14
 -1       358-6.63989E+00-9.11582E+00-4.73107E+00 2.33146E+01-8.93191E-16 2.28981E-15
 -1       359 8.10121E+00-1.02684E+01-6.54618E-01 2.23176E+01-6.76732E-14 2.62372E-14
 -1       360 2.42302E+01-1.07219E+01 4.04709E+00 1.94926E+01-1.01810E-13 1.45134E-14
 -1       361 4.21962E+01-1.07161E+01 9.43626E+00 1.43874E+01-8.37846E-14 4.83080E-14
 -1       362 6.33910E+01-9.05943E+00 1.62865E+01 7.12829E+00 1.27145E-13-3.28445E-14
 -1       363-6.03662E+01-4.70695E-01-1.82611E+01 3.51951E+00-2.55985E-14 1.62853E-14
 -1       364-5.98545E+01-1.57560E+00-1.84392E+01 8.37423E+00-6.33411E-14 2.16288E-14
 -1       365-5.56163E+01-3.50477E+00-1.77460E+01 1.42481E+01 2.60495E-13 7.47133E-15
 -1       366-4.69688E+01-6.26477E+00-1.59785E+01 1.96657E+01-1.41383E-13-2.08810E-14
 -1       367-3.49206E+01-9.41872E+00-1.33088E+01 2.33597E+01-6.96036E-14 5.11909E-15
 -1       368-2.09207E+01-1.21449E+01-9.92540E+00 2.48530E+01 9.08745E-14 1.12435E-14
 -1       369-5.88538E+00-1.37544E+01-5.89689E+00 2.43770E+01-7.83977E-14-1.46431E-15
 -1       370 1.00153E+01-1.40374E+01-1.21157E+00 2.23485E+01-5.12932E-14 1.17134E-14
 -1       371 2.71755E+01-1.32875E+01 4.16036E+00 1.89384E+01-1.40548E-13 9.21433E-15
 -1       372 4.64626E+01-1.21277E+01 1.02915E+01 1.37555E+01 2.43303E-13 3.36445E-14
 -1       373 7.00457E+01-9.46002E+00 1.81602E+01 6.79850E+00 9.46798E-14-3.60890E-14
 -1       374-6.84457E+01-1.32050E+00-2.09427E+01 4.65939E+00-2.04459E-13 1.83678E-14
 -1       375-7.01588E+01-3.79657E+00-2.22007E+01 1.16458E+01-4.11268E-14 3.75601E-14
 -1       376-6.39632E+01-7.50760E+00-2.14545E+01 1.93446E+01-6.61913E-14-6.61531E-15
 -1       377-5.14492E+01-1.22888E+01-1.91324E+01 2.49187E+01-8.89448E-14 1.17541E-14
 -1       378-3.60974E+01-1.67871E+01-1.58739E+01 2.71094E+01 3.14161E-14-5.57630E-15
 -1       379-2.01741E+01-1.95861E+01-1.19347E+01 2.65315E+01-2.31832E-13 9.18805E-15
 -1       380-4.15376E+00-2.00929E+01-7.27944E+00 2.42949E+01 1.30412E-13-2.65702E-15
 -1       381 1.22889E+01-1.87064E+01-1.93056E+00 2.11719E+01-2.32513E-13 1.05864E-14
 -1       382 2.99591E+01-1.62371E+01 4.11003E+00 1.73550E+01 1.24248E-13 5.52929E-15
 -1       383 5.01075E+01-1.36616E+01 1.09238E+01 1.23896E+01-1.57204E-13 3.04813E-15
 -1       384 7.56108E+01-9.91041E+00 1.96923E+01 6.10296E+00 1.27844E-14-3.51408E-14
 -1       385-8.12617E+01-3.92052E+00-2.55728E+01 7.78550E+00-3.27606E-14-9.27652E-15
 -1       386-8.36638E+01-8.80689E+00-2.77620E+01 1.87034E+01-2.00352E-14 3.38056E-16
 -1       387-7.10253E+01-1.57760E+01-2.60584E+01 2.80928E+01 1.01434E-13-3.62063E-15
 -1       388-5.24583E+01-2.32943E+01-2.27394E+01 3.14084E+01-6.41642E-14-7.26363E-15
 -1       389-3.45884E+01-2.85478E+01-1.89509E+01 3.00105E+01-5.36536E-14-5.02884E-15
 -1       390-1.78460E+01-2.96661E+01-1.42610E+01 2.64803E+01-1.94344E-13 5.53683E-15
 -1       391-1.72383E+00-2.75850E+01-8.79848E+00 2.24958E+01-1.18375E-13 8.60027E-16
 -1       392 1.46564E+01-2.36862E+01-2.71453E+00 1.86315E+01 1.70150E-13 8.68292E-15
 -1       393 3.24062E+01-1.91646E+01 3.96554E+00 1.48000E+01-1.41693E-13 1.75542E-14
 -1       394 5.30374E+01-1.51092E+01 1.13676E+01 1.04009E+01 9.64498E-14 2.66159E-14
 -1       395 7.99882E+01-1.03361E+01 2.08759E+01 5.10903E+00-2.06709E-13-7.44719E-15
 -1       396-1.05132E+02-1.11320E+01-3.49102E+01 1.58418E+01 1.41006E-13-2.10911E-14
 -1       397-9.81171E+01-2.06505E+01-3.56627E+01 3.39235E+01-1.62856E-13 1.38474E-14
 -1       398-7.02548E+01-3.21464E+01-3.07434E+01 3.98248E+01 1.88022E-13-1.15914E-15
 -1       399-4.88699E+01-4.30233E+01-2.75845E+01 3.62963E+01-2.05135E-13-1.64886E-15
 -1       400-3.07803E+01-4.49154E+01-2.27203E+01 2.96936E+01 1.97897E-13-1.98046E-15
 -1       401-1.46027E+01-4.12206E+01-1.67551E+01 2.36032E+01-1.44680E-13 4.14542E-15
 -1       402 8.82844E-01-3.50596E+01-1.02592E+01 1.87161E+01-7.49559E-14 4.03567E-16
 -1       403 1.67975E+01-2.82102E+01-3.42956E+00 1.48390E+01-1.16286E-13 8.70564E-15
 -1       404 3.43663E+01-2.16658E+01 3.80296E+00 1.14890E+01-1.17029E-14-5.67996E-16
 -1       405 5.52180E+01-1.62962E+01 1.16651E+01 7.97764E+00 8.69723E-14 9.75202E-15
 -1       406 8.31854E+01-1.06799E+01 2.17305E+01 3.91621E+00-6.32190E-15-2.58001E-14
 -1       407-1.50543E+02-3.70085E+01-5.63371E+01 4.41601E+01-8.78776E-14 9.21813E-15
 -1       408-8.69874E+01-4.28017E+01-3.89767E+01 5.58707E+01-4.79787E-14 5.14851E-15
 -1       409-6.20707E+01-7.09208E+01-3.99274E+01 4.73515E+01 1.40448E-13-1.16440E-15
 -1       410-4.27450E+01-7.20512E+01-3.44595E+01 3.38480E+01-7.64800E-14 2.04191E-16
 -1       411-2.62947E+01-6.28846E+01-2.67672E+01 2.41058E+01-1.97735E-13-2.02888E-15
 -1       412-1.14291E+01-5.17464E+01-1.89614E+01 1.75919E+01 1.28416E-13 7.65132E-16
 -1       413 3.11435E+00-4.11217E+01-1.14086E+01 1.32426E+01-8.07945E-14-2.73864E-15
 -1       414 1.84454E+01-3.16242E+01-3.95945E+00 1.01763E+01 1.40032E-13 6.87317E-15
 -1       415 3.57522E+01-2.34697E+01 3.67739E+00 7.74423E+00-6.90405E-14 3.05063E-15
 -1       416 5.66749E+01-1.71252E+01 1.18531E+01 5.34357E+00-8.03922E-14 8.36514E-15
 -1       417 8.52886E+01-1.09145E+01 2.22900E+01 2.63846E+00 1.18766E-14-1.09789E-14
 -1       418-8.15708E+01-4.75897E+01-3.87674E+01 7.51981E+01 1.56754E-13 2.37435E-15
 -1       419-7.43570E+01-1.46440E+02-6.63093E+01 6.19446E+01 2.20636E-14-1.30100E-15
 -1       420-5.58565E+01-1.30092E+02-5.58321E+01 3.42517E+01-8.69449E-14-8.88891E-16
 -1       421-3.75024E+01-9.96231E+01-4.11639E+01 2.06844E+01 1.21420E-13 1.36279E-16
 -1       422-2.27227E+01-7.62584E+01-2.97094E+01 1.34019E+01-1.04140E-13-7.32110E-17
 -1       423-9.12537E+00-5.85906E+01-2.03241E+01 9.28686E+00 7.38611E-14 9.85167E-16
 -1       424 4.60113E+00-4.47774E+01-1.20594E+01 6.78288E+00 3.05490E-14 5.64903E-16
 -1       425 1.94678E+01-3.35917E+01-4.24306E+00 5.12397E+00 1.18540E-13 1.33364E-15
 -1       426 3.65611E+01-2.44791E+01 3.61717E+00 3.86680E+00 1.09794E-13 1.92633E-15
 -1       427 5.74885E+01-1.75749E+01 1.19620E+01 2.66703E+00-1.29834E-13 6.95476E-15
 -1       428 8.64408E+01-1.10367E+01 2.25985E+01 1.33473E+00-1.73543E-13-7.68158E-15
 -3
    1PSTEP                         3           1           1          
  100CL  101 1.000000000         427                     0    1           1
 -4  TOSTRAIN    6    1
 -5  EXX         1    4    1    1
 -5  EYY         1    4    2    2
 -5  EZZ         1    4    3    3
 -5  EXY         1    4    1    2
 -5  EYZ         1    4    2    3
 -5  EZX         1    4    3    1
 -1         1-1.38742E-03-6.00387E-03 2.68780E-37-4.58652E-03-4.28567E-19 1.35420E-20
 -1         2 4.77371E-06-2.49933E-06 1.36574E-39 1.09110E-05 1.02487E-21-2.55466E-20
 -1         3-8.98872E-04 2.41637E-04 2.25330E-37-1.90381E-03-4.47481E-19-1.65060E-21
 -1         4-1.69212E-04 1.74064E-05 2.63506E-37-2.10933E-04-3.80558E-19 5.83962E-20
 -1         5 1.76008E-05 6.70812E-05 6.96082E-39-9.32873E-05 1.67773E-19-3.73860E-20
 -1         6 1.05285E-05 3.23719E-05 4.05893E-37-3.38545E-05-4.55065E-19 1.66459E-20
 -1         7 8.73977E-06 2.02519E-05-1.36001E-38-2.03405E-05-1.27851E-19-1.73534E-20
 -1         8 6.21439E-06 1.21738E-05 3.29506E-38-1.28297E-05 1.21497E-19 5.09138E-20
 -1         9 5.14601E-06 7.59722E-06-2.49589E-38-9.06641E-06-3.31392E-20-3.73348E-20
 -1        10 4.45640E-06 4.65194E-06 3.20667E-38-6.73751E-06 1.02519E-19 5.52572E-20
 -1        11 4.08033E-06 2.69005E-06-1.03892E-38-5.21132E-06-7.22560E-20-1.40756E-20
 -1        12 3.89060E-06 1.30699E-06 4.40054E-38-4.11476E-06-1.23143E-19-6.53398E-20
 -1        13 3.84247E-06 2.81530E-07 1.80463E-38-3.25968E-06 1.21190E-19 3.05707E-20
 -1        14 3.91076E-06-5.23688E-07-2.67693E-39-2.52547E-06-5.45661E-20-6.90458E-20
 -1        15 4.04959E-06-1.13922E-06 3.40761E-38-1.83077E-06 8.06283E-20 3.61803E-20
 -1        16 4.44517E-06-1.92695E-06 1.05562E-38-1.13026E-06-4.53824E-21-6.50831E-20
 -1        17 7.94583E-06-1.48492E-05 3.87528E-39 1.01635E-05 2.54597E-22-5.18641E-20
 -1        18 1.54246E-05-3.02744E-05-2.37147E-39 9.11921E-06-2.67846E-20-5.00874E-20
 -1        19 2.55407E-05-4.96203E-05 7.98475E-38 7.86001E-06 9.41682E-20-7.39010E-20
 -1        20 3.91381E-05-7.39382E-05 5.68688E-39 6.37315E-06-4.44679E-20 5.99163E-21
 -1        21 5.72541E-05-1.04462E-04 5.30988E-38 4.67783E-06 1.68580E-20 2.82325E-20
 -1        22 8.10069E-05-1.42442E-04 4.78181E-39 2.85372E-06 6.23375E-20 5.53364E-20
 -1        23 1.11266E-04-1.88699E-04-1.40654E-38 1.07711E-06 3.68545E-20-1.01462E-19
 -1        24 1.47951E-04-2.42702E-04 8.52012E-38-3.54515E-07-2.37255E-19-4.32965E-20
 -1        25 1.88938E-04-3.01110E-04 2.36889E-38-1.05744E-06-1.18733E-20-8.99455E-20
 -1        26 2.28355E-04-3.56745E-04 1.35466E-38-7.97775E-07-1.35048E-19 9.03466E-21
 -1        27 2.57233E-04-3.94687E-04-1.79948E-38 1.06725E-06 1.08225E-19-1.80089E-21
 -1        28 2.65434E-04-3.98157E-04 2.53728E-38 1.73989E-06-3.55048E-20-1.23256E-25
 -1        29 1.00161E-03-4.55764E-03 4.11182E-37-1.40696E-03-4.99610E-19-8.45761E-21
 -1        30 7.89585E-04-2.42666E-03-1.70020E-37-4.14763E-04 2.75863E-19 9.37004E-22
 -1        31 6.35804E-04-1.47992E-03 2.37433E-37-1.78049E-04 8.35737E-20 1.60993E-21
 -1        32 5.15937E-04-1.07121E-03 4.69938E-38-8.68514E-05-3.65170E-19-4.21245E-21
 -1        33 4.34973E-04-8.33578E-04 1.46550E-37-4.64174E-05-1.62672E-19-3.31160E-21
 -1        34 3.77761E-04-6.80753E-04-4.33844E-39-2.54126E-05-9.43402E-20 2.89247E-22
 -1        35 3.36847E-04-5.76188E-04-4.93007E-38-1.38957E-05 5.25086E-20-2.55346E-21
 -1        36 3.07314E-04-5.02854E-04 5.31386E-38-7.21914E-06 3.53702E-21 1.25051E-21
 -1        37 2.86305E-04-4.51648E-04-3.62621E-38-3.29442E-06-4.00251E-20-6.88155E-22
 -1        38 2.71864E-04-4.17977E-04 8.20025E-38-1.05264E-06-2.82514E-19 3.52602E-22
 -1        39 2.65457E-04-4.01104E-04 1.69599E-38 1.58939E-07 9.01035E-20 2.23162E-22
 -1        40 1.32650E-04-5.42690E-04 1.27868E-37-1.00237E-03 4.18919E-19 8.25790E-21
 -1        41 5.44250E-04-1.41109E-03 2.55306E-37-7.48936E-04-4.31127E-19 1.02897E-20
 -1        42 5.35288E-04-1.25863E-03 4.58208E-38-3.71309E-04-4.23948E-20-6.29446E-22
 -1        43 4.77794E-04-9.99201E-04 2.42791E-37-1.97038E-04-1.12756E-19-9.53429E-21
 -1        44 4.18771E-04-8.06916E-04-2.18786E-38-1.07999E-04 2.00576E-19 1.13269E-21
 -1        45 3.70887E-04-6.69759E-04 1.33286E-38-6.02783E-05 1.36401E-19 1.41951E-21
 -1        46 3.33888E-04-5.71563E-04 1.09866E-37-3.32597E-05-2.78799E-19 2.57099E-21
 -1        47 3.06097E-04-5.00907E-04-3.70088E-38-1.74319E-05 5.57249E-20-5.45410E-21
 -1        48 2.85853E-04-4.50875E-04 4.83794E-38-8.04958E-06 1.21066E-20 2.19364E-21
 -1        49 2.71748E-04-4.17705E-04 2.62277E-38-2.66090E-06-8.15968E-21-3.92228E-22
 -1        50 2.65419E-04-4.00995E-04 4.62657E-38 2.13915E-07 4.15323E-20 4.36991E-22
 -1        51-5.92464E-04-1.13390E-04 1.56333E-37-6.74154E-04 1.85009E-20-1.02207E-20
 -1        52 3.30925E-05-4.60682E-04 1.92722E-37-7.62335E-04 3.04212E-19-1.99905E-20
 -1        53 3.02199E-04-7.84015E-04 9.74021E-38-5.63544E-04 2.84334E-19 3.75519E-20
 -1        54 3.72038E-04-8.04350E-04 8.17656E-38-3.45491E-04 2.46023E-19 4.07593E-21
 -1        55 3.71708E-04-7.25632E-04 1.52897E-37-2.04615E-04-1.04544E-19 1.67922E-20
 -1        56 3.49870E-04-6.34942E-04 2.47910E-37-1.18762E-04-8.88792E-20 1.03055E-20
 -1        57 3.24689E-04-5.56441E-04 2.00612E-38-6.69912E-05 2.74707E-19 2.43398E-21
 -1        58 3.02253E-04-4.94459E-04 2.44119E-37-3.55602E-05-2.25226E-19-7.83537E-21
 -1        59 2.84420E-04-4.48289E-04-9.95037E-39-1.65483E-05 1.94852E-20 7.73004E-21
 -1        60 2.71377E-04-4.16793E-04 2.12237E-38-5.50245E-06-1.64849E-19-2.84818E-21
 -1        61 2.65298E-04-4.00638E-04 4.26813E-38 4.02939E-07 6.37089E-20-2.07901E-22
 -1        62-3.41825E-04 1.26697E-05-5.50084E-38-2.86140E-04 5.95270E-20 1.48809E-20
 -1        63-2.22912E-04-1.70065E-04 3.26402E-37-5.24332E-04-2.78811E-19 3.84114E-20
 -1        64 6.83047E-05-4.11652E-04 8.46387E-39-5.31038E-04-1.10727E-19-5.71169E-20
 -1        65 2.33886E-04-5.69558E-04 1.07599E-37-4.07809E-04-7.57716E-20-1.08416E-20
 -1        66 3.00003E-04-6.03961E-04 1.31754E-37-2.72462E-04-2.44470E-19 5.01762E-21
 -1        67 3.15093E-04-5.76635E-04 1.06112E-38-1.69564E-04-2.14659E-19-2.48811E-21
 -1        68 3.08678E-04-5.29574E-04 6.93575E-38-9.95387E-05-1.37372E-19-2.51657E-20
 -1        69 2.95369E-04-4.82607E-04-4.21796E-38-5.40998E-05 1.98167E-19 1.74579E-20
 -1        70 2.81810E-04-4.43448E-04 8.67027E-38-2.55435E-05-1.98385E-19-9.84289E-21
 -1        71 2.70698E-04-4.15075E-04 6.03602E-38-8.58498E-06 9.60657E-20-1.52680E-21
 -1        72 2.65087E-04-3.99984E-04-1.80460E-38 5.21840E-07-8.63859E-20-4.87092E-21
 -1        73-1.78396E-04 1.63326E-05-1.65369E-38-1.51984E-04 3.55437E-20 5.20467E-20
 -1        74-2.00648E-04-6.26864E-05 8.98733E-38-3.17460E-04 7.77913E-20-1.95353E-20
 -1        75-5.70153E-05-2.24122E-04 3.30188E-38-4.10700E-04-6.25388E-20 1.20972E-20
 -1        76 1.11015E-04-3.80168E-04-6.32102E-39-3.86565E-04 6.74971E-20-2.70946E-20
 -1        77 2.18637E-04-4.74435E-04 6.41334E-38-2.99638E-04 1.98048E-19-3.00958E-21
 -1        78 2.69715E-04-5.02940E-04 4.46069E-38-2.04989E-04-1.19588E-19-3.19044E-20
 -1        79 2.85978E-04-4.92088E-04 4.62315E-38-1.27664E-04 1.58353E-19 5.81947E-20
 -1        80 2.85111E-04-4.65101E-04 2.46188E-39-7.19511E-05-1.25684E-20-2.15569E-20
 -1        81 2.77804E-04-4.36073E-04-1.18196E-38-3.47549E-05-3.65951E-20 2.01481E-20
 -1        82 2.69638E-04-4.12426E-04 2.50468E-38-1.18786E-05-1.09379E-19-1.71158E-20
 -1        83 2.64795E-04-3.99012E-04 6.10315E-38 5.03039E-07-1.38571E-19 1.39435E-21
 -1        84-9.76988E-05 1.08206E-05 9.90415E-38-9.07913E-05 1.51433E-19-3.23509E-20
 -1        85-1.38463E-04-3.03422E-05-8.14128E-40-2.02164E-04-7.72428E-20 6.97407E-20
 -1        86-8.21243E-05-1.30106E-04 3.89023E-38-2.94802E-04-1.27342E-19-3.91139E-20
 -1        87 3.42268E-05-2.56258E-04 2.71594E-37-3.24412E-04 2.24321E-19 5.78906E-20
 -1        88 1.45826E-04-3.62799E-04 7.98889E-38-2.89159E-04-1.06745E-20-4.13466E-20
 -1        89 2.20065E-04-4.25793E-04 3.12512E-38-2.20351E-04 2.56475E-19 3.47052E-20
 -1        90 2.57917E-04-4.47292E-04 5.25026E-38-1.47943E-04-2.35739E-19-4.88812E-20
 -1        91 2.71437E-04-4.42401E-04 7.90980E-38-8.76363E-05-6.40355E-20-7.66313E-21
 -1        92 2.72216E-04-4.26054E-04 2.01497E-38-4.37281E-05 9.58216E-20 8.31394E-21
 -1        93 2.68115E-04-4.08764E-04-3.91631E-39-1.53100E-05-1.37900E-19-8.34769E-21
 -1        94 2.64450E-04-3.97751E-04 3.53982E-38 2.68959E-07 7.50612E-20 9.86193E-22
 -1        95-5.62179E-05 3.74988E-06-3.52393E-38-6.08740E-05 5.98529E-20-6.68347E-21
 -1        96-8.81680E-05-2.11131E-05 1.00037E-37-1.35924E-04-1.62665E-20-2.80959E-21
 -1        97-6.87439E-05-8.54996E-05-8.62890E-39-2.10942E-04-5.38889E-20 1.55774E-20
 -1        98 1.55810E-06-1.79649E-04 7.54603E-38-2.56379E-04-3.22572E-19-4.99347E-20
 -1        99 9.33457E-05-2.77959E-04 2.51323E-39-2.55956E-04 6.47467E-20-3.24343E-20
 -1       100 1.73638E-04-3.55049E-04 9.65743E-38-2.16391E-04-1.70489E-20 1.99635E-20
 -1       101 2.27029E-04-3.99839E-04 6.44831E-38-1.57964E-04-1.71787E-19 1.26720E-20
 -1       102 2.54730E-04-4.15780E-04 5.30026E-38-9.94996E-05 2.75553E-19-1.24791E-20
 -1       103 2.64926E-04-4.13556E-04 2.66164E-38-5.18198E-05-1.84082E-19-1.06432E-20
 -1       104 2.66036E-04-4.04089E-04-5.17148E-39-1.87405E-05 5.94116E-20-1.76270E-21
 -1       105 2.64116E-04-3.96298E-04 3.17956E-38-2.45102E-07 7.64971E-20 1.32252E-21
 -1       106-3.28023E-05-1.47934E-06 9.80724E-38-4.37000E-05 1.16499E-19 4.51136E-20
 -1       107-5.37246E-05-2.00372E-05-2.12203E-38-9.63699E-05 4.23489E-20 4.46272E-21
 -1       108-4.68124E-05-6.43725E-05 9.22779E-38-1.53317E-04 1.11523E-19-1.47273E-20
 -1       109-5.23068E-06-1.34120E-04 4.40027E-39-1.98055E-04 2.35154E-20-4.54302E-20
 -1       110 6.25653E-05-2.17356E-04 2.38700E-38-2.14768E-04-7.17972E-20 2.45370E-20
 -1       111 1.36112E-04-2.95657E-04 4.16923E-38-1.98485E-04-1.48180E-19 6.45225E-20
 -1       112 1.96569E-04-3.53945E-04 1.20746E-38-1.57333E-04 1.59654E-19-7.28274E-20
 -1       113 2.35876E-04-3.87029E-04 1.60416E-39-1.06097E-04-3.80491E-20 4.49451E-20
 -1       114 2.55928E-04-3.99025E-04 5.99282E-38-5.82103E-05-3.29992E-20-2.67345E-20
 -1       115 2.63290E-04-3.98504E-04-6.24262E-38-2.19344E-05-1.26841E-19-5.83464E-21
 -1       116 2.63876E-04-3.94838E-04 1.62301E-38-1.05464E-06 1.03186E-19 2.89781E-21
 -1       117-1.85785E-05-5.26114E-06 5.30566E-39-3.27528E-05 5.16102E-20 8.06887E-25
 -1       118-3.06616E-05-2.13376E-05 5.49487E-39-7.09743E-05-7.52730E-20-4.54303E-20
 -1       119-2.67053E-05-5.46141E-05-2.32175E-39-1.13663E-04 8.46368E-20 3.74186E-20
 -1       120-4.20214E-07-1.07470E-04 2.92166E-38-1.51985E-04-1.16952E-19 1.37055E-20
 -1       121 4.81190E-05-1.75791E-04 2.46751E-38-1.74547E-04 3.77379E-20-1.38225E-20
 -1       122 1.09609E-04-2.48577E-04 2.67638E-39-1.73134E-04-6.84635E-20-1.19493E-20
 -1       123 1.69562E-04-3.12456E-04 4.40771E-38-1.47765E-04 8.25754E-20 5.42530E-20
 -1       124 2.16234E-04-3.57958E-04 9.73336E-38-1.06716E-04-1.11887E-19-3.21380E-20
 -1       125 2.45397E-04-3.83093E-04-1.08218E-38-6.20444E-05-6.95820E-20 3.45373E-20
 -1       126 2.59755E-04-3.92205E-04 2.68526E-37-2.45458E-05 2.95906E-19-1.39330E-20
 -1       127 2.63811E-04-3.93635E-04 4.27837E-39-2.07636E-06-3.02382E-19-4.52560E-21
 -1       128-9.46252E-06-7.95850E-06 7.85318E-38-2.51268E-05 2.44038E-19-3.39062E-20
 -1       129-1.50497E-05-2.31709E-05 2.27701E-38-5.35082E-05 6.67794E-21 6.10315E-20
 -1       130-1.07065E-05-5.02681E-05 1.30242E-38-8.55068E-05 1.39660E-19-4.86080E-20
 -1       131 8.10706E-06-9.20267E-05 4.99808E-38-1.16419E-04-1.50496E-19 4.54363E-20
 -1       132 4.36739E-05-1.48020E-04-7.73809E-39-1.38894E-04-1.78466E-20-2.93350E-20
 -1       133 9.31300E-05-2.12831E-04 6.02562E-38-1.45360E-04 1.53885E-19 1.74966E-20
 -1       134 1.47943E-04-2.76871E-04-3.99921E-39-1.32029E-04-1.09818E-19-3.31350E-20
 -1       135 1.97414E-04-3.30118E-04 4.26063E-39-1.01621E-04-1.02051E-19-1.41673E-20
 -1       136 2.33783E-04-3.66457E-04 1.78029E-39-6.26804E-05-3.95622E-20 3.60105E-20
 -1       137 2.55318E-04-3.85439E-04 2.65067E-38-2.61572E-05 2.52901E-19-1.17495E-20
 -1       138 2.63927E-04-3.92963E-04 7.18768E-38-3.08573E-06 1.25012E-19 4.11801E-21
 -1       139-3.37956E-06-9.92232E-06 1.26326E-39-1.94112E-05-8.78060E-20 7.12594E-20
 -1       140-4.30435E-06-2.49201E-05 5.22100E-39-4.06684E-05 1.11347E-19 3.00027E-21
 -1       141 1.39538E-06-4.85199E-05 1.15130E-38-6.46177E-05-3.25291E-20 4.53459E-21
 -1       142 1.68129E-05-8.31426E-05 1.14433E-38-8.87170E-05 6.58426E-21 3.16316E-21
 -1       143 4.44119E-05-1.29838E-04 2.99675E-38-1.08451E-04 1.36512E-20 3.90535E-20
 -1       144 8.42197E-05-1.86640E-04 2.70642E-38-1.18047E-04-1.09058E-19-5.25387E-20
 -1       145 1.32251E-04-2.47746E-04 3.38583E-38-1.12753E-04 1.36990E-19 4.97722E-20
 -1       146 1.80909E-04-3.04775E-04-1.28843E-38-9.17795E-05 1.12555E-19-7.08632E-20
 -1       147 2.21868E-04-3.49872E-04 1.12531E-37-5.98844E-05-1.11471E-19 3.74584E-20
 -1       148 2.49980E-04-3.78469E-04 9.46917E-38-2.63854E-05-2.86316E-19 1.88772E-20
 -1       149 2.64060E-04-3.92976E-04 2.06871E-38-3.73137E-06 1.63821E-19-1.56996E-20
 -1       150 8.03929E-07-1.13897E-05 2.14162E-39-1.48365E-05 2.00390E-20-4.30977E-20
 -1       151 3.19699E-06-2.64298E-05 1.99800E-38-3.06117E-05-9.63377E-20-7.24603E-20
 -1       152 1.03494E-05-4.80210E-05 1.92780E-39-4.83057E-05 1.37889E-22 3.48293E-20
 -1       153 2.43763E-05-7.81108E-05 6.05552E-39-6.65202E-05 4.45459E-20-3.77018E-20
 -1       154 4.73425E-05-1.18175E-04-1.71656E-39-8.25481E-05-6.43753E-21-8.98353E-21
 -1       155 8.02954E-05-1.68103E-04 7.78283E-39-9.23955E-05-3.84620E-21 9.06312E-20
 -1       156 1.21928E-04-2.25012E-04 1.15361E-38-9.17957E-05 7.16170E-20-2.94848E-20
 -1       157 1.67731E-04-2.82945E-04 5.46551E-38-7.83406E-05 5.78626E-20-1.27141E-20
 -1       158 2.10698E-04-3.34222E-04 6.72193E-39-5.37886E-05 9.19965E-20-3.93047E-20
 -1       159 2.44012E-04-3.71635E-04 1.20500E-38-2.49824E-05 2.30270E-20-4.03006E-20
 -1       160 2.63827E-04-3.93554E-04 2.53573E-38-3.67348E-06-1.11477E-19 1.45619E-20
 -1       161 3.73705E-06-1.25197E-05 1.22496E-38-1.09310E-05 7.18955E-20-7.96368E-20
 -1       162 8.45688E-06-2.76976E-05 2.72166E-39-2.22284E-05-2.87588E-21 1.13308E-19
 -1       163 1.68607E-05-4.81348E-05 7.58735E-39-3.48344E-05 6.51096E-20-6.88163E-20
 -1       164 3.04347E-05-7.53798E-05 2.11827E-38-4.79743E-05-6.25514E-20-8.97352E-21
 -1       165 5.08141E-05-1.10924E-04 1.82168E-38-6.00637E-05 1.11398E-20-4.25582E-20
 -1       166 7.92759E-05-1.55534E-04 1.11934E-39-6.85320E-05 1.03702E-20-4.64322E-20
 -1       167 1.15843E-04-2.08239E-04 1.91381E-38-7.01400E-05 6.39435E-20 3.75355E-20
 -1       168 1.58234E-04-2.65386E-04-6.61389E-39-6.22083E-05 8.10506E-20 5.09382E-21
 -1       169 2.01320E-04-3.20533E-04 4.16580E-38-4.46551E-05-1.73828E-19-1.05384E-20
 -1       170 2.38060E-04-3.65447E-04 2.72607E-38-2.18079E-05 2.44359E-20 5.55101E-20
 -1       171 2.62761E-04-3.94284E-04 3.81610E-38-2.83970E-06-3.03937E-20-1.95222E-20
 -1       172 5.78635E-06-1.34374E-05 9.99453E-39-7.40068E-06-1.34341E-20 1.84817E-20
 -1       173 1.21045E-05-2.87770E-05 1.41988E-38-1.47969E-05 2.54981E-20-6.34948E-20
 -1       174 2.14431E-05-4.85518E-05 1.47970E-38-2.30180E-05-2.80802E-20 2.19775E-20
 -1       175 3.49529E-05-7.40659E-05-5.84392E-39-3.16392E-05 8.20534E-22-8.41060E-22
 -1       176 5.39521E-05-1.06708E-04 9.41412E-39-3.97878E-05-3.69696E-20-1.60796E-20
 -1       177 7.96822E-05-1.47599E-04 8.84810E-39-4.59574E-05-6.92159E-20 1.40683E-20
 -1       178 1.12743E-04-1.96868E-04 2.46761E-38-4.80326E-05 2.67485E-20-1.92050E-20
 -1       179 1.52179E-04-2.52604E-04 4.85364E-38-4.38660E-05-1.96432E-19-2.31268E-20
 -1       180 1.94467E-04-3.09868E-04 4.86585E-38-3.26553E-05-1.98527E-20-1.76149E-21
 -1       181 2.33012E-04-3.60572E-04-2.93889E-38-1.66923E-05 7.20389E-20 1.51652E-20
 -1       182 2.60724E-04-3.94707E-04 1.29881E-37-1.60688E-06-2.32599E-19-1.48603E-20
 -1       183 7.24047E-06-1.42989E-05 1.07116E-38-4.02393E-06 5.84360E-21-2.71610E-20
 -1       184 1.44167E-05-2.96756E-05 4.75620E-39-7.83061E-06-2.02727E-20 3.92609E-20
 -1       185 2.43269E-05-4.91010E-05 5.76088E-39-1.19843E-05 1.26381E-20 5.70791E-21
 -1       186 3.78946E-05-7.36885E-05 3.11502E-38-1.63320E-05 3.56257E-20-1.27688E-19
 -1       187 5.62314E-05-1.04716E-04-1.26522E-38-2.04940E-05 3.99990E-21-5.60364E-21
 -1       188 8.04953E-05-1.43415E-04 2.46040E-38-2.37740E-05-7.85611E-20 4.30649E-20
 -1       189 1.11503E-04-1.90456E-04 1.83314E-38-2.51260E-05 3.70982E-20 2.06079E-20
 -1       190 1.48962E-04-2.44970E-04 2.70424E-38-2.33604E-05 1.44200E-20 2.13598E-20
 -1       191 1.90373E-04-3.03184E-04 1.91816E-39-1.78200E-05-1.39650E-19 1.54994E-20
 -1       192 2.29632E-04-3.57605E-04 2.06208E-37-9.42435E-06-2.94851E-20-1.18193E-20
 -1       193 2.58384E-04-3.94728E-04-4.14202E-38-6.12090E-07-8.65002E-21 1.28395E-20
 -1       194-7.08190E-07 2.54925E-07-1.07207E-35 1.29096E-06-1.76566E-18-2.38475E-19
 -1       195-1.11092E-03-2.91028E-03-3.33210E-39 2.40584E-03 8.69311E-19-2.61466E-22
 -1       196 5.04848E-04-2.36372E-04 3.54387E-36 1.66613E-05 2.66042E-18 5.53601E-21
 -1       197 2.01568E-05-4.58663E-05-1.04587E-35 1.32879E-06 3.94918E-18-8.88944E-19
 -1       199-4.82162E-06 1.35991E-06 5.89873E-36 1.64517E-06 4.09046E-18 4.70309E-19
 -1       200-1.92973E-05 7.72255E-06-7.84879E-36 2.63011E-06 1.01998E-18-6.19652E-19
 -1       201-4.38502E-05 1.80539E-05 1.72266E-35 3.93268E-06 3.74857E-18 9.58638E-20
 -1       202-7.42398E-05 3.06146E-05-3.08279E-37 5.14953E-06-7.14864E-19 1.75999E-19
 -1       203-1.07408E-04 4.43150E-05 1.51774E-35 6.16511E-06 2.21476E-18-5.09316E-19
 -1       204-1.41109E-04 5.82868E-05 2.74427E-36 6.94820E-06-1.50511E-18-2.83093E-19
 -1       205-1.73542E-04 7.18533E-05-9.33497E-37 7.48593E-06-1.31958E-18 4.20328E-19
 -1       206-2.03339E-04 8.45428E-05 4.38408E-36 7.81086E-06 1.64238E-18-7.31458E-19
 -1       207-2.29590E-04 9.61162E-05 2.38803E-36 8.01692E-06-1.54511E-18 4.02327E-19
 -1       208-2.51812E-04 1.06632E-04 3.45541E-36 8.31277E-06 1.60861E-18-1.75854E-19
 -1       209-2.69951E-04 1.16375E-04 5.29220E-37 9.03840E-06 1.00382E-18-2.81052E-19
 -1       210-2.84017E-04 1.26727E-04-7.30229E-37 1.13934E-05 6.62692E-19-6.05157E-21
 -1       211-2.95768E-04 1.37341E-04 1.72311E-36 1.63832E-05 7.82722E-19-2.03463E-19
 -1       212-3.05560E-04 1.64224E-04 1.25861E-36 4.33839E-05-3.80925E-20 5.25249E-20
 -1       213-4.06915E-04 1.40795E-04-1.80973E-36 8.69095E-05 2.93025E-20-1.51648E-21
 -1       214-8.07576E-04 3.87786E-04 1.51702E-36 9.29100E-04-9.39588E-19-1.15071E-19
 -1       215 1.50686E-04-2.17120E-03-9.85481E-37 7.60762E-04 4.40880E-19 1.55355E-21
 -1       216 9.85926E-05-1.09424E-03 6.53157E-36 2.50676E-04 3.94142E-19 1.78151E-21
 -1       217 6.81123E-05-6.29195E-04 4.64738E-36 1.20502E-04-2.89727E-18-1.09990E-21
 -1       218 5.47136E-05-4.34419E-04 2.33721E-36 6.98851E-05 2.00037E-18 2.00491E-21
 -1       219 6.09338E-05-3.26532E-04 3.14919E-37 4.65444E-05 2.11156E-19-7.33648E-22
 -1       220 8.10255E-05-2.60692E-04 3.01294E-36 3.40588E-05-6.66599E-20 1.68115E-21
 -1       221 1.12913E-04-2.19024E-04 4.58248E-36 2.69077E-05 1.14163E-18 2.09548E-21
 -1       222 1.56838E-04-1.94278E-04 2.96427E-36 2.26131E-05 1.26119E-18 2.15928E-21
 -1       223 2.15843E-04-1.84599E-04-3.30882E-37 1.99928E-05-5.29066E-19 5.85523E-21
 -1       224 2.97171E-04-1.93162E-04 1.84816E-37 1.83883E-05 3.96814E-19 1.87175E-21
 -1       225 4.16296E-04-2.19559E-04 2.49842E-36 1.72919E-05-1.03861E-19 1.88129E-20
 -1       226 5.02456E-04-2.35512E-04 1.00905E-36 3.78777E-06-7.52683E-19 3.07958E-21
 -1       227 4.94995E-04-2.32727E-04 4.00634E-36 7.27095E-06-1.70435E-18-1.14546E-19
 -1       228 4.81727E-04-2.27622E-04 4.86327E-36 1.06044E-05-3.76581E-19-6.84014E-20
 -1       229 4.61818E-04-2.19866E-04 5.29031E-36 1.37133E-05 4.81357E-19-4.41584E-19
 -1       230 4.34804E-04-2.09295E-04 3.40966E-36 1.62475E-05-6.16184E-19-2.09827E-19
 -1       231 4.00874E-04-1.95999E-04 1.11876E-36 1.79366E-05-9.07517E-19-7.29125E-19
 -1       232 3.60959E-04-1.80358E-04 1.40056E-35 1.86127E-05-1.85227E-18-7.18999E-19
 -1       233 3.16670E-04-1.63011E-04 1.05803E-35 1.82677E-05-1.08013E-18 1.33128E-19
 -1       234 2.70032E-04-1.44748E-04 9.47054E-36 1.70594E-05 1.40028E-18-8.63287E-19
 -1       235 2.23123E-04-1.26362E-04-1.01490E-36 1.52528E-05-9.31259E-19-4.68623E-19
 -1       236 1.77761E-04-1.08539E-04 1.26921E-38 1.31260E-05-1.30841E-18-2.50497E-19
 -1       237 1.35388E-04-9.18273E-05 1.75655E-35 1.08896E-05-2.49853E-18-4.97972E-19
 -1       238 9.71799E-05-7.66819E-05 1.19648E-35 8.65270E-06-1.53547E-18 2.79390E-19
 -1       239 6.43681E-05-6.35881E-05 7.01651E-36 6.42515E-06-2.38829E-18-1.48554E-18
 -1       240 3.89367E-05-5.31993E-05 6.60476E-36 4.22217E-06 1.24700E-18-6.50320E-20
 -1       241 2.42745E-05-4.67032E-05 3.99096E-35 2.24949E-06-5.82494E-18-6.47579E-19
 -1       242 2.18751E-05-4.56350E-05-4.55535E-36 2.48014E-06 2.68304E-19-3.32117E-19
 -1       243 2.10101E-05-4.33119E-05-1.05779E-35 5.23679E-06-1.59786E-18-4.54540E-19
 -1       244 1.74929E-05-3.74632E-05 3.16338E-35 8.18167E-06-1.85411E-18 5.63924E-19
 -1       245 1.30654E-05-2.93398E-05 2.99578E-35 9.94862E-06 3.76615E-19-4.27234E-20
 -1       246 8.63856E-06-2.08076E-05-1.48972E-35 1.03336E-05 8.42327E-19-2.00762E-19
 -1       247 4.71120E-06-1.31591E-05 6.90680E-36 9.58243E-06 2.12322E-18-4.37386E-21
 -1       248 1.54434E-06-7.09309E-06 8.41439E-36 8.06023E-06-5.40825E-19 2.03977E-19
 -1       249-7.42001E-07-2.85435E-06-1.05096E-36 6.14899E-06 4.21220E-19-1.90604E-19
 -1       250-2.10623E-06-3.74277E-07 3.89152E-35 4.21765E-06 5.36689E-18 1.40654E-19
 -1       251-2.54415E-06 6.18175E-07 1.72889E-35 2.61355E-06-2.93179E-18 2.77575E-19
 -1       252-2.06701E-06 5.20513E-07 2.54078E-35 1.64997E-06 6.67454E-18-1.99233E-19
 -1       253-6.74026E-06 1.16742E-06 1.77480E-35 3.39679E-06-3.67381E-18-2.03824E-19
 -1       254-7.31865E-06 2.02846E-07 3.89127E-35 6.77250E-06-4.18680E-18-2.49042E-19
 -1       255-6.60243E-06-1.89404E-06 4.80582E-36 1.06042E-05-4.93157E-19 4.35062E-20
 -1       256-4.63098E-06-5.08773E-06 1.92446E-35 1.45509E-05-2.37858E-18 4.29381E-20
 -1       257-1.45157E-06-9.36361E-06-1.70620E-36 1.81927E-05-7.26406E-19-2.10535E-19
 -1       258 2.85794E-06-1.46906E-05-8.08309E-37 2.10151E-05-4.65208E-19 9.38664E-20
 -1       259 8.14865E-06-2.09688E-05 2.31108E-35 2.24202E-05 1.59993E-18 6.79510E-22
 -1       260 1.41271E-05-2.79566E-05-1.51303E-36 2.17737E-05-2.85789E-19 1.67862E-19
 -1       261 2.02162E-05-3.51635E-05-1.57960E-36 1.85360E-05 3.77936E-19 1.75217E-19
 -1       262 2.52600E-05-4.16034E-05 2.63612E-35 1.25927E-05 1.29562E-18 8.32487E-19
 -1       263 2.67360E-05-4.55847E-05 2.05999E-35 5.64594E-06 2.35436E-19-3.04137E-19
 -1       264-2.08877E-05 7.66109E-06 1.77540E-35 6.91439E-06-1.33985E-18 1.70150E-19
 -1       265-2.07523E-05 6.78254E-06 1.72002E-36 1.43319E-05-5.43567E-19 3.53029E-19
 -1       266-1.88206E-05 4.38197E-06 1.08177E-35 2.15196E-05 5.36512E-19 2.61999E-19
 -1       267-1.50611E-05 4.51108E-07 5.42109E-36 2.82759E-05-1.68293E-18-6.52650E-20
 -1       268-9.48317E-06-4.99019E-06 4.36481E-35 3.42022E-05 2.27481E-19-1.62093E-19
 -1       269-2.15320E-06-1.18814E-05 4.31298E-36 3.87066E-05 1.86669E-18 1.43759E-19
 -1       270 6.75832E-06-2.00822E-05 4.52884E-35 4.10089E-05-4.76701E-18-5.29213E-20
 -1       271 1.68724E-05-2.92812E-05 5.43404E-38 4.01755E-05 6.07932E-19 2.72722E-19
 -1       272 2.73824E-05-3.87974E-05 8.94751E-36 3.52144E-05-2.97942E-19 4.03247E-19
 -1       273 3.65935E-05-4.71379E-05-6.65975E-36 2.52119E-05 1.32803E-18 1.70819E-19
 -1       274 4.09372E-05-5.19784E-05 1.30971E-35 1.16245E-05 7.69071E-19-8.38848E-19
 -1       275-4.31034E-05 1.74734E-05 9.62083E-36 1.02085E-05-1.60582E-18 1.21284E-19
 -1       276-4.06665E-05 1.56247E-05 1.09860E-36 2.09476E-05-1.00177E-18 5.86508E-20
 -1       277-3.62577E-05 1.22887E-05 7.67203E-36 3.11863E-05-6.88202E-19 9.28833E-20
 -1       278-2.96465E-05 7.27255E-06 7.40493E-36 4.05944E-05 1.01668E-18-1.74670E-19
 -1       279-2.06644E-05 4.47703E-07 3.36429E-36 4.87101E-05-1.24255E-18-4.05515E-20
 -1       280-9.23667E-06-8.23022E-06 5.16222E-36 5.48676E-05 6.97041E-19 1.80247E-19
 -1       281 4.54492E-06-1.86644E-05 2.35696E-36 5.81449E-05-1.69176E-18-3.35837E-20
 -1       282 2.02737E-05-3.04937E-05 1.17594E-35 5.73334E-05 2.84034E-18 2.42747E-19
 -1       283 3.69491E-05-4.28586E-05 7.66513E-36 5.09375E-05-1.48297E-18 2.14088E-19
 -1       284 5.24866E-05-5.40215E-05 2.23768E-35 3.71948E-05-3.41822E-19 3.32515E-19
 -1       285 6.29956E-05-6.13021E-05 1.00489E-35 1.75279E-05-5.59610E-19-3.21421E-19
 -1       286-7.04375E-05 2.93958E-05 8.48995E-36 1.29995E-05 1.10687E-18-3.62011E-19
 -1       287-6.48581E-05 2.62671E-05 3.21723E-36 2.64551E-05-1.13767E-18 4.65018E-19
 -1       288-5.71678E-05 2.16321E-05 1.13139E-35 3.93456E-05 2.86809E-18-2.94938E-19
 -1       289-4.70016E-05 1.52343E-05 1.18014E-35 5.12700E-05-2.27935E-18-1.30765E-19
 -1       290-3.40050E-05 6.82515E-06 7.68144E-36 6.16571E-05-1.63894E-18 5.37828E-20
 -1       291-1.78988E-05-3.77663E-06 1.63336E-35 6.96908E-05-5.67714E-19 9.78081E-20
 -1       292 1.40522E-06-1.65900E-05 3.66647E-36 7.42198E-05 4.57349E-19-6.87262E-20
 -1       293 2.36085E-05-3.13127E-05 1.06377E-36 7.36740E-05-1.17376E-18 2.58274E-19
 -1       294 4.77073E-05-4.70667E-05 3.06611E-36 6.60031E-05 1.15923E-18 4.92805E-20
 -1       295 7.15065E-05-6.20233E-05 5.45096E-36 4.86586E-05-1.89655E-18 3.19401E-19
 -1       296 9.09392E-05-7.28412E-05 1.24246E-35 2.31935E-05-9.31344E-19-6.76227E-19
 -1       297-1.00430E-04 4.24420E-05 5.99896E-36 1.52312E-05 1.50904E-18-1.74850E-19
 -1       298-9.16060E-05 3.80196E-05 3.99150E-37 3.08630E-05-8.83165E-19 2.97071E-19
 -1       299-8.05001E-05 3.20770E-05 8.66224E-36 4.60274E-05 6.45921E-19-2.93653E-20
 -1       300-6.65919E-05 2.42566E-05 8.41280E-36 6.02873E-05-8.80312E-19 7.01949E-21
 -1       301-4.93131E-05 1.41773E-05 5.34127E-36 7.29683E-05-4.08961E-19-1.02277E-19
 -1       302-2.81405E-05 1.50694E-06 9.78717E-36 8.30578E-05 2.22365E-18 1.02530E-19
 -1       303-2.75918E-06-1.39104E-05 3.67348E-36 8.90995E-05-1.92038E-18-6.25835E-21
 -1       304 2.66988E-05-3.18662E-05 2.47385E-36 8.90959E-05 1.39426E-18 2.61007E-19
 -1       305 5.93210E-05-5.15171E-05 7.87352E-36 8.04237E-05 1.35856E-19 1.31458E-19
 -1       306 9.29215E-05-7.09781E-05 4.03880E-36 5.97696E-05 6.00021E-19 4.75140E-19
 -1       307 1.23235E-04-8.60861E-05 1.16051E-35 2.87673E-05 2.52249E-19-5.67205E-19
 -1       308-1.31248E-04 5.58387E-05 6.33094E-36 1.68748E-05-4.24344E-19 3.06970E-19
 -1       309-1.19529E-04 5.02864E-05 6.03623E-37 3.41855E-05-5.40727E-19 2.95624E-19
 -1       310-1.05328E-04 4.31813E-05 3.30058E-36 5.13379E-05 6.97128E-19-4.74779E-20
 -1       311-8.78608E-05 3.39997E-05 3.90428E-36 6.78566E-05-6.00557E-19-1.67365E-19
 -1       312-6.62565E-05 2.21772E-05 9.76617E-36 8.29153E-05 8.78576E-19-1.03671E-19
 -1       313-3.97174E-05 7.22637E-06-1.77256E-36 9.52201E-05-8.61969E-19 1.52810E-19
 -1       314-7.73977E-06-1.10985E-05 2.55658E-36 1.02927E-04-3.62625E-19-3.76535E-20
 -1       315 2.96374E-05-3.26106E-05 3.12206E-36 1.03590E-04-1.65916E-18 9.64115E-20
 -1       316 7.15668E-05-5.64680E-05 6.86047E-36 9.40826E-05 1.71242E-19 1.76867E-19
 -1       317 1.15978E-04-8.07989E-05 1.12470E-35 7.04165E-05 1.77393E-18 2.51661E-19
 -1       318 1.58653E-04-1.00654E-04-3.95894E-37 3.42069E-05 3.12068E-19-6.23857E-19
 -1       319-1.61561E-04 6.89961E-05 2.55258E-36 1.79550E-05 1.07091E-18-1.49251E-19
 -1       320-1.47737E-04 6.26198E-05 3.39235E-36 3.65803E-05 4.27564E-19 8.86515E-21
 -1       321-1.31086E-04 5.45466E-05 1.47343E-36 5.56491E-05 7.82958E-19 1.24828E-19
 -1       322-1.10383E-04 4.39855E-05 6.13756E-36 7.45694E-05-2.43766E-18-5.11450E-20
 -1       323-8.43609E-05 3.01509E-05 3.98526E-36 9.22042E-05-9.22292E-20-1.46432E-19
 -1       324-5.20039E-05 1.24726E-05 3.70652E-36 1.06798E-04-6.15726E-19 1.06184E-19
 -1       325-1.28303E-05-9.20437E-06 2.69869E-36 1.16024E-04 8.85605E-19-3.84936E-21
 -1       326 3.29674E-05-3.45139E-05 2.18358E-37 1.17067E-04 1.56675E-20 1.47614E-19
 -1       327 8.45101E-05-6.25360E-05 3.18722E-36 1.06551E-04 6.70868E-19 8.83463E-20
 -1       328 1.40055E-04-9.15851E-05-7.89669E-37 8.00895E-05-5.87706E-19 2.87212E-19
 -1       329 1.96016E-04-1.16229E-04 7.00615E-36 3.92203E-05 1.25985E-18-4.39207E-20
 -1       330-1.90587E-04 8.15342E-05 5.30966E-36 1.86130E-05 7.63935E-19-3.81704E-20
 -1       331-1.75917E-04 7.47479E-05 5.66926E-36 3.84862E-05-1.82731E-18 1.05220E-19
 -1       332-1.57651E-04 6.58165E-05 9.78706E-36 5.97971E-05 5.17328E-19-7.96884E-20
 -1       333-1.33868E-04 5.35440E-05 1.98243E-36 8.15926E-05 6.82250E-19-1.11070E-20
 -1       334-1.02890E-04 3.69646E-05 2.04984E-36 1.02065E-04-1.54330E-18-6.17881E-20
 -1       335-6.38085E-05 1.56929E-05 2.65302E-36 1.18706E-04 5.01423E-19 8.75054E-20
 -1       336-1.66798E-05-9.93530E-06 7.33879E-36 1.28689E-04-3.91064E-21-1.02365E-20
 -1       337 3.77477E-05-3.90568E-05 5.00076E-36 1.29153E-04 4.88086E-19 2.18191E-19
 -1       338 9.85209E-05-7.06408E-05 3.88009E-37 1.16989E-04-8.95238E-19 2.76794E-19
 -1       339 1.64626E-04-1.03546E-04 2.88613E-36 8.78867E-05 1.16712E-18 3.36441E-19
 -1       340 2.34023E-04-1.32460E-04 5.00237E-36 4.32865E-05-2.97541E-19-1.06900E-19
 -1       341-2.18216E-04 9.33205E-05 1.15992E-36 1.91696E-05 6.85253E-19-1.48082E-19
 -1       342-2.04475E-04 8.65877E-05 1.97414E-36 4.07858E-05 2.36904E-19 2.88988E-19
 -1       343-1.85362E-04 7.65852E-05 3.25996E-36 6.53240E-05-6.09724E-19-1.32565E-19
 -1       344-1.57941E-04 6.15874E-05 8.50735E-36 9.08510E-05-1.23521E-18 3.91804E-20
 -1       345-1.20489E-04 4.07480E-05 7.30141E-36 1.14218E-04-3.10440E-19-9.83577E-20
 -1       346-7.31138E-05 1.45303E-05 1.76117E-36 1.31881E-04 2.14667E-19 5.84039E-20
 -1       347-1.72882E-05-1.55847E-05 9.27015E-37 1.40853E-04-3.92837E-19-5.31952E-20
 -1       348 4.53559E-05-4.79672E-05 1.96067E-37 1.38975E-04 3.83606E-19 1.20710E-19
 -1       349 1.14046E-04-8.17009E-05 6.74826E-36 1.24154E-04 1.49312E-18 9.23789E-20
 -1       350 1.89144E-04-1.16797E-04-2.27771E-37 9.26648E-05-3.73283E-19 1.05583E-19
 -1       351 2.71202E-04-1.48875E-04-6.56583E-37 4.57645E-05-9.45599E-19-6.83852E-19
 -1       352-2.45232E-04 1.04514E-04 6.05259E-36 2.02464E-05-1.19292E-18-6.17302E-20
 -1       353-2.34757E-04 9.81943E-05 2.83617E-36 4.51341E-05-7.52007E-19 6.87785E-20
 -1       354-2.14838E-04 8.61013E-05 2.88617E-37 7.48669E-05 2.19143E-19 3.40953E-20
 -1       355-1.81524E-04 6.60803E-05 5.04741E-37 1.05159E-04-3.57252E-19 1.34619E-20
 -1       356-1.34542E-04 3.84239E-05-1.59358E-36 1.30526E-04 8.85197E-19-6.07818E-20
 -1       357-7.68948E-05 5.72834E-06 1.49860E-35 1.46642E-04 5.39931E-19 1.01003E-19
 -1       358-1.23106E-05-2.86908E-05-1.07582E-36 1.51553E-04-5.82054E-21 1.48955E-20
 -1       359 5.69980E-05-6.26719E-05 5.79754E-36 1.45012E-04-4.40000E-19 1.70389E-19
 -1       360 1.31238E-04-9.61629E-05-8.58598E-37 1.26588E-04-6.61851E-19 9.41248E-20
 -1       361 2.12912E-04-1.31125E-04 7.86886E-36 9.33386E-05-5.44819E-19 3.13733E-19
 -1       362 3.06012E-04-1.64843E-04 6.46572E-36 4.60857E-05 8.26623E-19-2.13037E-19
 -1       363-2.73829E-04 1.15592E-04 5.05893E-36 2.31204E-05-1.66440E-19 1.05764E-19
 -1       364-2.69310E-04 1.09529E-04 1.77340E-36 5.46740E-05-4.11786E-19 1.40414E-19
 -1       365-2.46214E-04 9.24392E-05 6.95513E-38 9.28343E-05 1.69316E-18 4.93441E-20
 -1       366-2.01434E-04 6.29725E-05 4.26407E-36 1.28007E-04-9.18930E-19-1.36088E-19
 -1       367-1.40426E-04 2.50964E-05 4.93092E-36 1.51960E-04-4.52450E-19 3.31294E-20
 -1       368-7.13928E-05-1.46205E-05 2.96145E-36 1.61604E-04 5.90713E-19 7.32136E-20
 -1       369 1.55440E-07-5.12598E-05 7.36098E-36 1.58449E-04-5.09666E-19-9.61673E-21
 -1       370 7.30376E-05-8.35384E-05-1.02227E-36 1.45208E-04-3.33467E-19 7.60395E-20
 -1       371 1.49618E-04-1.13561E-04 8.28110E-36 1.22987E-04-9.13694E-19 5.96443E-20
 -1       372 2.35049E-04-1.45849E-04 1.99270E-36 8.92394E-05 1.58153E-18 2.19085E-19
 -1       373 3.37037E-04-1.79625E-04 2.56809E-36 4.39552E-05 6.15587E-19-2.34247E-19
 -1       374-3.08954E-04 1.27484E-04 2.85178E-36 3.05698E-05-1.32901E-18 1.18636E-19
 -1       375-3.11878E-04 1.19510E-04-1.35273E-37 7.59873E-05-2.67479E-19 2.44094E-19
 -1       376-2.76384E-04 9.04803E-05 4.96996E-36 1.25995E-04-4.30227E-19-4.31739E-20
 -1       377-2.10063E-04 4.42761E-05 4.18965E-37 1.62160E-04-5.78209E-19 7.62441E-20
 -1       378-1.31409E-04-6.14648E-06 2.80782E-36 1.76324E-04 2.04274E-19-3.62301E-20
 -1       379-5.34934E-05-4.99304E-05 3.11734E-36 1.72500E-04-1.50711E-18 5.94307E-20
 -1       380 2.03768E-05-8.34621E-05 3.16953E-36 1.57906E-04 8.47776E-19-1.71202E-20
 -1       381 9.24629E-05-1.09195E-04 5.18513E-36 1.37558E-04-1.51156E-18 6.85326E-20
 -1       382 1.68008E-04-1.32387E-04-1.94196E-36 1.12703E-04 8.07701E-19 3.61085E-20
 -1       383 2.54596E-04-1.59915E-04 3.19512E-36 8.03779E-05-1.02196E-18 1.95137E-20
 -1       384 3.63203E-04-1.92508E-04-1.07331E-36 3.94594E-05 8.31889E-20-2.28310E-19
 -1       385-3.62221E-04 1.40640E-04 2.34202E-36 5.09734E-05-2.12901E-19-6.05267E-20
 -1       386-3.63558E-04 1.23013E-04 9.87026E-37 1.21944E-04-1.30231E-19 2.12439E-21
 -1       387-2.92366E-04 6.65769E-05 7.00940E-37 1.82893E-04 6.59396E-19-2.33776E-20
 -1       388-1.93173E-04-3.86481E-06 4.60053E-36 2.04335E-04-4.17054E-19-4.73501E-20
 -1       389-1.01608E-04-6.26074E-05-1.16920E-37 1.95161E-04-3.48801E-19-3.27394E-20
 -1       390-2.32570E-05-1.00324E-04 5.49012E-36 1.72151E-04-1.26345E-18 3.58243E-20
 -1       391 4.60215E-05-1.22270E-04 1.39271E-36 1.46204E-04-7.69547E-19 5.47419E-21
 -1       392 1.12921E-04-1.36447E-04 7.56149E-36 1.21048E-04 1.10611E-18 5.65971E-20
 -1       393 1.84824E-04-1.50456E-04 1.24068E-36 9.61090E-05-9.21167E-19 1.13930E-19
 -1       394 2.70723E-04-1.72196E-04 1.58487E-36 6.74760E-05 6.26939E-19 1.73063E-19
 -1       395 3.83920E-04-2.02964E-04 7.92573E-37 3.30340E-05-1.34375E-18-4.87206E-20
 -1       396-4.56801E-04 1.54339E-04 2.79284E-36 1.03542E-04 9.16702E-19-1.36658E-19
 -1       397-4.06167E-04 9.71837E-05 1.78506E-36 2.21006E-04-1.05869E-18 8.95152E-20
 -1       398-2.56873E-04-9.50085E-06 2.90629E-36 2.59148E-04 1.22233E-18-7.27941E-21
 -1       399-1.38351E-04-1.00659E-04 4.74801E-36 2.36077E-04-1.33366E-18-1.09024E-20
 -1       400-5.23666E-05-1.44505E-04 6.63029E-36 1.93076E-04 1.28669E-18-1.27875E-20
 -1       401 1.40161E-05-1.59207E-04-1.47462E-36 1.53436E-04-9.40686E-19 2.68875E-20
 -1       402 7.24366E-05-1.61342E-04 7.68429E-37 1.21634E-04-4.87312E-19 2.58163E-21
 -1       403 1.31462E-04-1.61185E-04 3.42722E-36 9.64064E-05-7.56015E-19 5.65277E-20
 -1       404 1.98598E-04-1.65639E-04 1.03467E-36 7.46065E-05-7.60746E-20-3.71399E-21
 -1       405 2.82938E-04-1.81832E-04 2.81580E-36 5.17553E-05 5.65373E-19 6.34275E-20
 -1       406 3.99114E-04-2.10750E-04 2.69435E-36 2.53224E-05-4.10506E-20-1.67615E-19
 -1       407-6.12865E-04 1.24825E-04 2.35822E-36 2.88170E-04-5.71275E-19 5.94779E-20
 -1       408-3.12132E-04-2.55587E-05 3.14000E-36 3.63625E-04-3.12047E-19 3.34781E-20
 -1       409-1.43960E-04-2.01965E-04-1.47709E-37 3.08022E-04 9.13491E-19-7.59649E-21
 -1       410-5.38564E-05-2.44705E-04 1.92711E-36 2.20128E-04-4.97444E-19 1.35022E-21
 -1       411 3.08171E-06-2.35011E-04 1.72636E-36 1.56734E-04-1.28571E-18-1.32474E-20
 -1       412 4.89689E-05-2.13275E-04 7.30990E-37 1.14355E-04 8.34937E-19 5.01660E-21
 -1       413 9.43946E-05-1.93259E-04-6.84814E-37 8.60601E-05-5.25291E-19-1.78200E-20
 -1       414 1.45600E-04-1.79915E-04-1.40222E-36 6.61128E-05 9.10371E-19 4.47331E-20
 -1       415 2.08405E-04-1.76534E-04 3.11265E-36 5.02888E-05-4.48839E-19 1.97931E-20
 -1       416 2.91168E-04-1.88433E-04 2.83207E-36 3.46670E-05-5.22632E-19 5.42966E-20
 -1       417 4.09125E-04-2.15909E-04 1.32660E-36 1.70617E-05 7.72099E-20-7.13409E-20
 -1       418-2.78443E-04-5.76331E-05 1.73521E-36 4.89351E-04 1.01937E-18 1.58995E-20
 -1       419-5.23772E-05-5.22021E-04-1.83513E-36 4.03073E-04 1.43530E-19-8.40676E-21
 -1       420-1.75210E-07-4.83472E-04 5.23099E-36 2.22821E-04-5.65315E-19-5.80579E-21
 -1       421 2.38008E-05-3.80427E-04 4.11471E-36 1.34521E-04 7.89594E-19 9.00223E-22
 -1       422 4.54167E-05-3.02831E-04 1.28894E-36 8.71369E-05-6.77211E-19-4.78450E-22
 -1       423 7.27894E-05-2.48900E-04 2.26961E-36 6.03674E-05 4.80295E-19 6.40916E-21
 -1       424 1.08278E-04-2.12782E-04 1.04553E-36 4.40797E-05 1.98639E-19 3.68000E-21
 -1       425 1.54079E-04-1.90851E-04 4.45622E-36 3.32888E-05 7.70672E-19 8.69577E-21
 -1       426 2.14044E-04-1.82695E-04 1.06839E-36 2.51099E-05 7.13778E-19 1.25357E-20
 -1       427 2.95738E-04-1.92058E-04 4.16248E-36 1.73030E-05-8.44048E-19 4.51631E-20
 -1       428 4.14597E-04-2.18706E-04 2.89258E-36 8.63218E-06-1.12815E-18-4.99727E-20
 -3
    1PSTEP                         4           1           1          
  100CL  101 1.000000000         427                     0    1           1
 -4  CONTACT     6    1
 -5  COPEN       1    4    1    1
 -5  CSLIP1      1    4    2    2
 -5  CSLIP2      1    4    3    3
 -5  CPRESS      1    4    1    2
 -5  CSHEAR1     1    4    2    3
 -5  CSHEAR2     1    4    3    1
 -1         1-7.92262E-04 0.00000E+00 0.00000E+00 7.92262E+03 0.00000E+00 0.00000E+00
 -1         2 0.00000E+00 0.00000E+00 0.00000E+00 0.00000E+00 0.00000E+00 0.00000E+00
 -1         3-5.01537E-05 0.00000E+00 0.00000E+00 5.01537E+02 0.00000E+00 0.00000E+00
 -1         4 0.00000E+00 0.00000E+00 0.00000E+00 0.00000E+00 0.00000E+00 0.00000E+00
 -1         5 0.00000E+00 0.00000E+00 0.00000E+00 0.00000E+00 0.00000E+00 0.00000E+00
 -1         6 0.00000E+00 0.00000E+00 0.00000E+00 0.00000E+00 0.00000E+00 0.00000E+00
 -1         7 0.00000E+00 0.00000E+00 0.00000E+00 0.00000E+00 0.00000E+00 0.00000E+00
 -1         8 0.00000E+00 0.00000E+00 0.00000E+00 0.00000E+00 0.00000E+00 0.00000E+00
 -1         9 0.00000E+00 0.00000E+00 0.00000E+00 0.00000E+00 0.00000E+00 0.00000E+00
 -1        10 0.00000E+00 0.00000E+00 0.00000E+00 0.00000E+00 0.00000E+00 0.00000E+00
 -1        11 0.00000E+00 0.00000E+00 0.00000E+00 0.00000E+00 0.00000E+00 0.00000E+00
 -1        12 0.00000E+00 0.00000E+00 0.00000E+00 0.00000E+00 0.00000E+00 0.00000E+00
 -1        13 0.00000E+00 0.00000E+00 0.00000E+00 0.00000E+00 0.00000E+00 0.00000E+00
 -1        14 0.00000E+00 0.00000E+00 0.00000E+00 0.00000E+00 0.00000E+00 0.00000E+00
 -1        15 0.00000E+00 0.00000E+00 0.00000E+00 0.00000E+00 0.00000E+00 0.00000E+00
 -1        16 0.00000E+00 0.00000E+00 0.00000E+00 0.00000E+00 0.00000E+00 0.00000E+00
 -1        17 0.00000E+00 0.00000E+00 0.00000E+00 0.00000E+00 0.00000E+00 0.00000E+00
 -1        18 0.00000E+00 0.00000E+00 0.00000E+00 0.00000E+00 0.00000E+00 0.00000E+00
 -1        19 0.00000E+00 0.00000E+00 0.00000E+00 0.00000E+00 0.00000E+00 0.00000E+00
 -1        20 0.00000E+00 0.00000E+00 0.00000E+00 0.00000E+00 0.00000E+00 0.00000E+00
 -1        21 0.00000E+00 0.00000E+00 0.00000E+00 0.00000E+00 0.00000E+00 0.00000E+00
 -1        22 0.00000E+00 0.00000E+00 0.00000E+00 0.00000E+00 0.00000E+00 0.00000E+00
 -1        23 0.00000E+00 0.00000E+00 0.00000E+00 0.00000E+00 0.00000E+00 0.00000E+00
 -1        24 0.00000E+00 0.00000E+00 0.00000E+00 0.00000E+00 0.00000E+00 0.00000E+00
 -1        25 0.00000E+00 0.00000E+00 0.00000E+00 0.00000E+00 0.00000E+00 0.00000E+00
 -1        26 0.00000E+00 0.00000E+00 0.00000E+00 0.00000E+00 0.00000E+00 0.00000E+00
 -1        27 0.00000E+00 0.00000E+00 0.00000E+00 0.00000E+00 0.00000E+00 0.00000E+00
 -1        28 0.00000E+00 0.00000E+00 0.00000E+00 0.00000E+00 0.00000E+00 0.00000E+00
 -1        29 0.00000E+00 0.00000E+00 0.00000E+00 0.00000E+00 0.00000E+00 0.00000E+00
 -1        30 0.00000E+00 0.00000E+00 0.00000E+00 0.00000E+00 0.00000E+00 0.00000E+00
 -1        31 0.00000E+00 0.00000E+00 0.00000E+00 0.00000E+00 0.00000E+00 0.00000E+00
 -1        32 0.00000E+00 0.00000E+00 0.00000E+00 0.00000E+00 0.00000E+00 0.00000E+00
 -1        33 0.00000E+00 0.00000E+00 0.00000E+00 0.00000E+00 0.00000E+00 0.00000E+00
 -1        34 0.00000E+00 0.00000E+00 0.00000E+00 0.00000E+00 0.00000E+00 0.00000E+00
 -1        35 0.00000E+00 0.00000E+00 0.00000E+00 0.00000E+00 0.00000E+00 0.00000E+00
 -1        36 0.00000E+00 0.00000E+00 0.00000E+00 0.00000E+00 0.00000E+00 0.00000E+00
 -1        37 0.00000E+00 0.00000E+00 0.00000E+00 0.00000E+00 0.00000E+00 0.00000E+00
 -1        38 0.00000E+00 0.00000E+00 0.00000E+00 0.00000E+00 0.00000E+00 0.00000E+00
 -1        39 0.00000E+00 0.00000E+00 0.00000E+00 0.00000E+00 0.00000E+00 0.00000E+00
 -1        40 0.00000E+00 0.00000E+00 0.00000E+00 0.00000E+00 0.00000E+00 0.00000E+00
 -1        41 0.00000E+00 0.00000E+00 0.00000E+00 0.00000E+00 0.00000E+00 0.00000E+00
 -1        42 0.00000E+00 0.00000E+00 0.00000E+00 0.00000E+00 0.00000E+00 0.00000E+00
 -1        43 0.00000E+00 0.00000E+00 0.00000E+00 0.00000E+00 0.00000E+00 0.00000E+00
 -1        44 0.00000E+00 0.00000E+00 0.00000E+00 0.00000E+00 0.00000E+00 0.00000E+00
 -1        45 0.00000E+00 0.00000E+00 0.00000E+00 0.00000E+00 0.00000E+00 0.00000E+00
 -1        46 0.00000E+00 0.00000E+00 0.00000E+00 0.00000E+00 0.00000E+00 0.00000E+00
 -1        47 0.00000E+00 0.00000E+00 0.00000E+00 0.00000E+00 0.00000E+00 0.00000E+00
 -1        48 0.00000E+00 0.00000E+00 0.00000E+00 0.00000E+00 0.00000E+00 0.00000E+00
 -1        49 0.00000E+00 0.00000E+00 0.00000E+00 0.00000E+00 0.00000E+00 0.00000E+00
 -1        50 0.00000E+00 0.00000E+00 0.00000E+00 0.00000E+00 0.00000E+00 0.00000E+00
 -1        51 0.00000E+00 0.00000E+00 0.00000E+00 0.00000E+00 0.00000E+00 0.00000E+00
 -1        52 0.00000E+00 0.00000E+00 0.00000E+00 0.00000E+00 0.00000E+00 0.00000E+00
 -1        53 0.00000E+00 0.00000E+00 0.00000E+00 0.00000E+00 0.00000E+00 0.00000E+00
 -1        54 0.00000E+00 0.00000E+00 0.00000E+00 0.00000E+00 0.00000E+00 0.00000E+00
 -1        55 0.00000E+00 0.00000E+00 0.00000E+00 0.00000E+00 0.00000E+00 0.00000E+00
 -1        56 0.00000E+00 0.00000E+00 0.00000E+00 0.00000E+00 0.00000E+00 0.00000E+00
 -1        57 0.00000E+00 0.00000E+00 0.00000E+00 0.00000E+00 0.00000E+00 0.00000E+00
 -1        58 0.00000E+00 0.00000E+00 0.00000E+00 0.00000E+00 0.00000E+00 0.00000E+00
 -1        59 0.00000E+00 0.00000E+00 0.00000E+00 0.00000E+00 0.00000E+00 0.00000E+00
 -1        60 0.00000E+00 0.00000E+00 0.00000E+00 0.00000E+00 0.00000E+00 0.00000E+00
 -1        61 0.00000E+00 0.00000E+00 0.00000E+00 0.00000E+00 0.00000E+00 0.00000E+00
 -1        62 0.00000E+00 0.00000E+00 0.00000E+00 0.00000E+00 0.00000E+00 0.00000E+00
 -1        63 0.00000E+00 0.00000E+00 0.00000E+00 0.00000E+00 0.00000E+00 0.00000E+00
 -1        64 0.00000E+00 0.00000E+00 0.00000E+00 0.00000E+00 0.00000E+00 0.00000E+00
 -1        65 0.00000E+00 0.00000E+00 0.00000E+00 0.00000E+00 0.00000E+00 0.00000E+00
 -1        66 0.00000E+00 0.00000E+00 0.00000E+00 0.00000E+00 0.00000E+00 0.00000E+00
 -1        67 0.00000E+00 0.00000E+00 0.00000E+00 0.00000E+00 0.00000E+00 0.00000E+00
 -1        68 0.00000E+00 0.00000E+00 0.00000E+00 0.00000E+00 0.00000E+00 0.00000E+00
 -1        69 0.00000E+00 0.00000E+00 0.00000E+00 0.00000E+00 0.00000E+00 0.00000E+00
 -1        70 0.00000E+00 0.00000E+00 0.00000E+00 0.00000E+00 0.00000E+00 0.00000E+00
 -1        71 0.00000E+00 0.00000E+00 0.00000E+00 0.00000E+00 0.00000E+00 0.00000E+00
 -1        72 0.00000E+00 0.00000E+00 0.00000E+00 0.00000E+00 0.00000E+00 0.00000E+00
 -1        73 0.00000E+00 0.00000E+00 0.00000E+00 0.00000E+00 0.00000E+00 0.00000E+00
 -1        74 0.00000E+00 0.00000E+00 0.00000E+00 0.00000E+00 0.00000E+00 0.00000E+00
 -1        75 0.00000E+00 0.00000E+00 0.00000E+00 0.00000E+00 0.00000E+00 0.00000E+00
 -1        76 0.00000E+00 0.00000E+00 0.00000E+00 0.00000E+00 0.00000E+00 0.00000E+00
 -1        77 0.00000E+00 0.00000E+00 0.00000E+00 0.00000E+00 0.00000E+00 0.00000E+00
 -1        78 0.00000E+00 0.00000E+00 0.00000E+00 0.00000E+00 0.00000E+00 0.00000E+00
 -1        79 0.00000E+00 0.00000E+00 0.00000E+00 0.00000E+00 0.00000E+00 0.00000E+00
 -1        80 0.00000E+00 0.00000E+00 0.00000E+00 0.00000E+00 0.00000E+00 0.00000E+00
 -1        81 0.00000E+00 0.00000E+00 0.00000E+00 0.00000E+00 0.00000E+00 0.00000E+00
 -1        82 0.00000E+00 0.00000E+00 0.00000E+00 0.00000E+00 0.00000E+00 0.00000E+00
 -1        83 0.00000E+00 0.00000E+00 0.00000E+00 0.00000E+00 0.00000E+00 0.00000E+00
 -1        84 0.00000E+00 0.00000E+00 0.00000E+00 0.00000E+00 0.00000E+00 0.00000E+00
 -1        85 0.00000E+00 0.00000E+00 0.00000E+00 0.00000E+00 0.00000E+00 0.00000E+00
 -1        86 0.00000E+00 0.00000E+00 0.00000E+00 0.00000E+00 0.00000E+00 0.00000E+00
 -1        87 0.00000E+00 0.00000E+00 0.00000E+00 0.00000E+00 0.00000E+00 0.00000E+00
 -1        88 0.00000E+00 0.00000E+00 0.00000E+00 0.00000E+00 0.00000E+00 0.00000E+00
 -1        89 0.00000E+00 0.00000E+00 0.00000E+00 0.00000E+00 0.00000E+00 0.00000E+00
 -1        90 0.00000E+00 0.00000E+00 0.00000E+00 0.00000E+00 0.00000E+00 0.00000E+00
 -1        91 0.00000E+00 0.00000E+00 0.00000E+00 0.00000E+00 0.00000E+00 0.00000E+00
 -1        92 0.00000E+00 0.00000E+00 0.00000E+00 0.00000E+00 0.00000E+00 0.00000E+00
 -1        93 0.00000E+00 0.00000E+00 0.00000E+00 0.00000E+00 0.00000E+00 0.00000E+00
 -1        94 0.00000E+00 0.00000E+00 0.00000E+00 0.00000E+00 0.00000E+00 0.00000E+00
 -1        95 0.00000E+00 0.00000E+00 0.00000E+00 0.00000E+00 0.00000E+00 0.00000E+00
 -1        96 0.00000E+00 0.00000E+00 0.00000E+00 0.00000E+00 0.00000E+00 0.00000E+00
 -1        97 0.00000E+00 0.00000E+00 0.00000E+00 0.00000E+00 0.00000E+00 0.00000E+00
 -1        98 0.00000E+00 0.00000E+00 0.00000E+00 0.00000E+00 0.00000E+00 0.00000E+00
 -1        99 0.00000E+00 0.00000E+00 0.00000E+00 0.00000E+00 0.00000E+00 0.00000E+00
 -1       100 0.00000E+00 0.00000E+00 0.00000E+00 0.00000E+00 0.00000E+00 0.00000E+00
 -1       101 0.00000E+00 0.00000E+00 0.00000E+00 0.00000E+00 0.00000E+00 0.00000E+00
 -1       102 0.00000E+00 0.00000E+00 0.00000E+00 0.00000E+00 0.00000E+00 0.00000E+00
 -1       103 0.00000E+00 0.00000E+00 0.00000E+00 0.00000E+00 0.00000E+00 0.00000E+00
 -1       104 0.00000E+00 0.00000E+00 0.00000E+00 0.00000E+00 0.00000E+00 0.00000E+00
 -1       105 0.00000E+00 0.00000E+00 0.00000E+00 0.00000E+00 0.00000E+00 0.00000E+00
 -1       106 0.00000E+00 0.00000E+00 0.00000E+00 0.00000E+00 0.00000E+00 0.00000E+00
 -1       107 0.00000E+00 0.00000E+00 0.00000E+00 0.00000E+00 0.00000E+00 0.00000E+00
 -1       108 0.00000E+00 0.00000E+00 0.00000E+00 0.00000E+00 0.00000E+00 0.00000E+00
 -1       109 0.00000E+00 0.00000E+00 0.00000E+00 0.00000E+00 0.00000E+00 0.00000E+00
 -1       110 0.00000E+00 0.00000E+00 0.00000E+00 0.00000E+00 0.00000E+00 0.00000E+00
 -1       111 0.00000E+00 0.00000E+00 0.00000E+00 0.00000E+00 0.00000E+00 0.00000E+00
 -1       112 0.00000E+00 0.00000E+00 0.00000E+00 0.00000E+00 0.00000E+00 0.00000E+00
 -1       113 0.00000E+00 0.00000E+00 0.00000E+00 0.00000E+00 0.00000E+00 0.00000E+00
 -1       114 0.00000E+00 0.00000E+00 0.00000E+00 0.00000E+00 0.00000E+00 0.00000E+00
 -1       115 0.00000E+00 0.00000E+00 0.00000E+00 0.00000E+00 0.00000E+00 0.00000E+00
 -1       116 0.00000E+00 0.00000E+00 0.00000E+00 0.00000E+00 0.00000E+00 0.00000E+00
 -1       117 0.00000E+00 0.00000E+00 0.00000E+00 0.00000E+00 0.00000E+00 0.00000E+00
 -1       118 0.00000E+00 0.00000E+00 0.00000E+00 0.00000E+00 0.00000E+00 0.00000E+00
 -1       119 0.00000E+00 0.00000E+00 0.00000E+00 0.00000E+00 0.00000E+00 0.00000E+00
 -1       120 0.00000E+00 0.00000E+00 0.00000E+00 0.00000E+00 0.00000E+00 0.00000E+00
 -1       121 0.00000E+00 0.00000E+00 0.00000E+00 0.00000E+00 0.00000E+00 0.00000E+00
 -1       122 0.00000E+00 0.00000E+00 0.00000E+00 0.00000E+00 0.00000E+00 0.00000E+00
 -1       123 0.00000E+00 0.00000E+00 0.00000E+00 0.00000E+00 0.00000E+00 0.00000E+00
 -1       124 0.00000E+00 0.00000E+00 0.00000E+00 0.00000E+00 0.00000E+00 0.00000E+00
 -1       125 0.00000E+00 0.00000E+00 0.00000E+00 0.00000E+00 0.00000E+00 0.00000E+00
 -1       126 0.00000E+00 0.00000E+00 0.00000E+00 0.00000E+00 0.00000E+00 0.00000E+00
 -1       127 0.00000E+00 0.00000E+00 0.00000E+00 0.00000E+00 0.00000E+00 0.00000E+00
 -1       128 0.00000E+00 0.00000E+00 0.00000E+00 0.00000E+00 0.00000E+00 0.00000E+00
 -1       129 0.00000E+00 0.00000E+00 0.00000E+00 0.00000E+00 0.00000E+00 0.00000E+00
 -1       130 0.00000E+00 0.00000E+00 0.00000E+00 0.00000E+00 0.00000E+00 0.00000E+00
 -1       131 0.00000E+00 0.00000E+00 0.00000E+00 0.00000E+00 0.00000E+00 0.00000E+00
 -1       132 0.00000E+00 0.00000E+00 0.00000E+00 0.00000E+00 0.00000E+00 0.00000E+00
 -1       133 0.00000E+00 0.00000E+00 0.00000E+00 0.00000E+00 0.00000E+00 0.00000E+00
 -1       134 0.00000E+00 0.00000E+00 0.00000E+00 0.00000E+00 0.00000E+00 0.00000E+00
 -1       135 0.00000E+00 0.00000E+00 0.00000E+00 0.00000E+00 0.00000E+00 0.00000E+00
 -1       136 0.00000E+00 0.00000E+00 0.00000E+00 0.00000E+00 0.00000E+00 0.00000E+00
 -1       137 0.00000E+00 0.00000E+00 0.00000E+00 0.00000E+00 0.00000E+00 0.00000E+00
 -1       138 0.00000E+00 0.00000E+00 0.00000E+00 0.00000E+00 0.00000E+00 0.00000E+00
 -1       139 0.00000E+00 0.00000E+00 0.00000E+00 0.00000E+00 0.00000E+00 0.00000E+00
 -1       140 0.00000E+00 0.00000E+00 0.00000E+00 0.00000E+00 0.00000E+00 0.00000E+00
 -1       141 0.00000E+00 0.00000E+00 0.00000E+00 0.00000E+00 0.00000E+00 0.00000E+00
 -1       142 0.00000E+00 0.00000E+00 0.00000E+00 0.00000E+00 0.00000E+00 0.00000E+00
 -1       143 0.00000E+00 0.00000E+00 0.00000E+00 0.00000E+00 0.00000E+00 0.00000E+00
 -1       144 0.00000E+00 0.00000E+00 0.00000E+00 0.00000E+00 0.00000E+00 0.00000E+00
 -1       145 0.00000E+00 0.00000E+00 0.00000E+00 0.00000E+00 0.00000E+00 0.00000E+00
 -1       146 0.00000E+00 0.00000E+00 0.00000E+00 0.00000E+00 0.00000E+00 0.00000E+00
 -1       147 0.00000E+00 0.00000E+00 0.00000E+00 0.00000E+00 0.00000E+00 0.00000E+00
 -1       148 0.00000E+00 0.00000E+00 0.00000E+00 0.00000E+00 0.00000E+00 0.00000E+00
 -1       149 0.00000E+00 0.00000E+00 0.00000E+00 0.00000E+00 0.00000E+00 0.00000E+00
 -1       150 0.00000E+00 0.00000E+00 0.00000E+00 0.00000E+00 0.00000E+00 0.00000E+00
 -1       151 0.00000E+00 0.00000E+00 0.00000E+00 0.00000E+00 0.00000E+00 0.00000E+00
 -1       152 0.00000E+00 0.00000E+00 0.00000E+00 0.00000E+00 0.00000E+00 0.00000E+00
 -1       153 0.00000E+00 0.00000E+00 0.00000E+00 0.00000E+00 0.00000E+00 0.00000E+00
 -1       154 0.00000E+00 0.00000E+00 0.00000E+00 0.00000E+00 0.00000E+00 0.00000E+00
 -1       155 0.00000E+00 0.00000E+00 0.00000E+00 0.00000E+00 0.00000E+00 0.00000E+00
 -1       156 0.00000E+00 0.00000E+00 0.00000E+00 0.00000E+00 0.00000E+00 0.00000E+00
 -1       157 0.00000E+00 0.00000E+00 0.00000E+00 0.00000E+00 0.00000E+00 0.00000E+00
 -1       158 0.00000E+00 0.00000E+00 0.00000E+00 0.00000E+00 0.00000E+00 0.00000E+00
 -1       159 0.00000E+00 0.00000E+00 0.00000E+00 0.00000E+00 0.00000E+00 0.00000E+00
 -1       160 0.00000E+00 0.00000E+00 0.00000E+00 0.00000E+00 0.00000E+00 0.00000E+00
 -1       161 0.00000E+00 0.00000E+00 0.00000E+00 0.00000E+00 0.00000E+00 0.00000E+00
 -1       162 0.00000E+00 0.00000E+00 0.00000E+00 0.00000E+00 0.00000E+00 0.00000E+00
 -1       163 0.00000E+00 0.00000E+00 0.00000E+00 0.00000E+00 0.00000E+00 0.00000E+00
 -1       164 0.00000E+00 0.00000E+00 0.00000E+00 0.00000E+00 0.00000E+00 0.00000E+00
 -1       165 0.00000E+00 0.00000E+00 0.00000E+00 0.00000E+00 0.00000E+00 0.00000E+00
 -1       166 0.00000E+00 0.00000E+00 0.00000E+00 0.00000E+00 0.00000E+00 0.00000E+00
 -1       167 0.00000E+00 0.00000E+00 0.00000E+00 0.00000E+00 0.00000E+00 0.00000E+00
 -1       168 0.00000E+00 0.00000E+00 0.00000E+00 0.00000E+00 0.00000E+00 0.00000E+00
 -1       169 0.00000E+00 0.00000E+00 0.00000E+00 0.00000E+00 0.00000E+00 0.00000E+00
 -1       170 0.00000E+00 0.00000E+00 0.00000E+00 0.00000E+00 0.00000E+00 0.00000E+00
 -1       171 0.00000E+00 0.00000E+00 0.00000E+00 0.00000E+00 0.00000E+00 0.00000E+00
 -1       172 0.00000E+00 0.00000E+00 0.00000E+00 0.00000E+00 0.00000E+00 0.00000E+00
 -1       173 0.00000E+00 0.00000E+00 0.00000E+00 0.00000E+00 0.00000E+00 0.00000E+00
 -1       174 0.00000E+00 0.00000E+00 0.00000E+00 0.00000E+00 0.00000E+00 0.00000E+00
 -1       175 0.00000E+00 0.00000E+00 0.00000E+00 0.00000E+00 0.00000E+00 0.00000E+00
 -1       176 0.00000E+00 0.00000E+00 0.00000E+00 0.00000E+00 0.00000E+00 0.00000E+00
 -1       177 0.00000E+00 0.00000E+00 0.00000E+00 0.00000E+00 0.00000E+00 0.00000E+00
 -1       178 0.00000E+00 0.00000E+00 0.00000E+00 0.00000E+00 0.00000E+00 0.00000E+00
 -1       179 0.00000E+00 0.00000E+00 0.00000E+00 0.00000E+00 0.00000E+00 0.00000E+00
 -1       180 0.00000E+00 0.00000E+00 0.00000E+00 0.00000E+00 0.00000E+00 0.00000E+00
 -1       181 0.00000E+00 0.00000E+00 0.00000E+00 0.00000E+00 0.00000E+00 0.00000E+00
 -1       182 0.00000E+00 0.00000E+00 0.00000E+00 0.00000E+00 0.00000E+00 0.00000E+00
 -1       183 0.00000E+00 0.00000E+00 0.00000E+00 0.00000E+00 0.00000E+00 0.00000E+00
 -1       184 0.00000E+00 0.00000E+00 0.00000E+00 0.00000E+00 0.00000E+00 0.00000E+00
 -1       185 0.00000E+00 0.00000E+00 0.00000E+00 0.00000E+00 0.00000E+00 0.00000E+00
 -1       186 0.00000E+00 0.00000E+00 0.00000E+00 0.00000E+00 0.00000E+00 0.00000E+00
 -1       187 0.00000E+00 0.00000E+00 0.00000E+00 0.00000E+00 0.00000E+00 0.00000E+00
 -1       188 0.00000E+00 0.00000E+00 0.00000E+00 0.00000E+00 0.00000E+00 0.00000E+00
 -1       189 0.00000E+00 0.00000E+00 0.00000E+00 0.00000E+00 0.00000E+00 0.00000E+00
 -1       190 0.00000E+00 0.00000E+00 0.00000E+00 0.00000E+00 0.00000E+00 0.00000E+00
 -1       191 0.00000E+00 0.00000E+00 0.00000E+00 0.00000E+00 0.00000E+00 0.00000E+00
 -1       192 0.00000E+00 0.00000E+00 0.00000E+00 0.00000E+00 0.00000E+00 0.00000E+00
 -1       193 0.00000E+00 0.00000E+00 0.00000E+00 0.00000E+00 0.00000E+00 0.00000E+00
 -1       194 0.00000E+00 0.00000E+00 0.00000E+00 0.00000E+00 0.00000E+00 0.00000E+00
 -1       195 0.00000E+00 0.00000E+00 0.00000E+00 0.00000E+00 0.00000E+00 0.00000E+00
 -1       196 0.00000E+00 0.00000E+00 0.00000E+00 0.00000E+00 0.00000E+00 0.00000E+00
 -1       197 0.00000E+00 0.00000E+00 0.00000E+00 0.00000E+00 0.00000E+00 0.00000E+00
 -1       199 0.00000E+00 0.00000E+00 0.00000E+00 0.00000E+00 0.00000E+00 0.00000E+00
 -1       200 0.00000E+00 0.00000E+00 0.00000E+00 0.00000E+00 0.00000E+00 0.00000E+00
 -1       201 0.00000E+00 0.00000E+00 0.00000E+00 0.00000E+00 0.00000E+00 0.00000E+00
 -1       202 0.00000E+00 0.00000E+00 0.00000E+00 0.00000E+00 0.00000E+00 0.00000E+00
 -1       203 0.00000E+00 0.00000E+00 0.00000E+00 0.00000E+00 0.00000E+00 0.00000E+00
 -1       204 0.00000E+00 0.00000E+00 0.00000E+00 0.00000E+00 0.00000E+00 0.00000E+00
 -1       205 0.00000E+00 0.00000E+00 0.00000E+00 0.00000E+00 0.00000E+00 0.00000E+00
 -1       206 0.00000E+00 0.00000E+00 0.00000E+00 0.00000E+00 0.00000E+00 0.00000E+00
 -1       207 0.00000E+00 0.00000E+00 0.00000E+00 0.00000E+00 0.00000E+00 0.00000E+00
 -1       208 0.00000E+00 0.00000E+00 0.00000E+00 0.00000E+00 0.00000E+00 0.00000E+00
 -1       209 0.00000E+00 0.00000E+00 0.00000E+00 0.00000E+00 0.00000E+00 0.00000E+00
 -1       210 0.00000E+00 0.00000E+00 0.00000E+00 0.00000E+00 0.00000E+00 0.00000E+00
 -1       211 0.00000E+00 0.00000E+00 0.00000E+00 0.00000E+00 0.00000E+00 0.00000E+00
 -1       212 0.00000E+00 0.00000E+00 0.00000E+00 0.00000E+00 0.00000E+00 0.00000E+00
 -1       213 0.00000E+00 0.00000E+00 0.00000E+00 0.00000E+00 0.00000E+00 0.00000E+00
 -1       214 0.00000E+00 0.00000E+00 0.00000E+00 0.00000E+00 0.00000E+00 0.00000E+00
 -1       215 0.00000E+00 0.00000E+00 0.00000E+00 0.00000E+00 0.00000E+00 0.00000E+00
 -1       216 0.00000E+00 0.00000E+00 0.00000E+00 0.00000E+00 0.00000E+00 0.00000E+00
 -1       217 0.00000E+00 0.00000E+00 0.00000E+00 0.00000E+00 0.00000E+00 0.00000E+00
 -1       218 0.00000E+00 0.00000E+00 0.00000E+00 0.00000E+00 0.00000E+00 0.00000E+00
 -1       219 0.00000E+00 0.00000E+00 0.00000E+00 0.00000E+00 0.00000E+00 0.00000E+00
 -1       220 0.00000E+00 0.00000E+00 0.00000E+00 0.00000E+00 0.00000E+00 0.00000E+00
 -1       221 0.00000E+00 0.00000E+00 0.00000E+00 0.00000E+00 0.00000E+00 0.00000E+00
 -1       222 0.00000E+00 0.00000E+00 0.00000E+00 0.00000E+00 0.00000E+00 0.00000E+00
 -1       223 0.00000E+00 0.00000E+00 0.00000E+00 0.00000E+00 0.00000E+00 0.00000E+00
 -1       224 0.00000E+00 0.00000E+00 0.00000E+00 0.00000E+00 0.00000E+00 0.00000E+00
 -1       225 0.00000E+00 0.00000E+00 0.00000E+00 0.00000E+00 0.00000E+00 0.00000E+00
 -1       226 0.00000E+00 0.00000E+00 0.00000E+00 0.00000E+00 0.00000E+00 0.00000E+00
 -1       227 0.00000E+00 0.00000E+00 0.00000E+00 0.00000E+00 0.00000E+00 0.00000E+00
 -1       228 0.00000E+00 0.00000E+00 0.00000E+00 0.00000E+00 0.00000E+00 0.00000E+00
 -1       229 0.00000E+00 0.00000E+00 0.00000E+00 0.00000E+00 0.00000E+00 0.00000E+00
 -1       230 0.00000E+00 0.00000E+00 0.00000E+00 0.00000E+00 0.00000E+00 0.00000E+00
 -1       231 0.00000E+00 0.00000E+00 0.00000E+00 0.00000E+00 0.00000E+00 0.00000E+00
 -1       232 0.00000E+00 0.00000E+00 0.00000E+00 0.00000E+00 0.00000E+00 0.00000E+00
 -1       233 0.00000E+00 0.00000E+00 0.00000E+00 0.00000E+00 0.00000E+00 0.00000E+00
 -1       234 0.00000E+00 0.00000E+00 0.00000E+00 0.00000E+00 0.00000E+00 0.00000E+00
 -1       235 0.00000E+00 0.00000E+00 0.00000E+00 0.00000E+00 0.00000E+00 0.00000E+00
 -1       236 0.00000E+00 0.00000E+00 0.00000E+00 0.00000E+00 0.00000E+00 0.00000E+00
 -1       237 0.00000E+00 0.00000E+00 0.00000E+00 0.00000E+00 0.00000E+00 0.00000E+00
 -1       238 0.00000E+00 0.00000E+00 0.00000E+00 0.00000E+00 0.00000E+00 0.00000E+00
 -1       239 0.00000E+00 0.00000E+00 0.00000E+00 0.00000E+00 0.00000E+00 0.00000E+00
 -1       240 0.00000E+00 0.00000E+00 0.00000E+00 0.00000E+00 0.00000E+00 0.00000E+00
 -1       241 0.00000E+00 0.00000E+00 0.00000E+00 0.00000E+00 0.00000E+00 0.00000E+00
 -1       242 0.00000E+00 0.00000E+00 0.00000E+00 0.00000E+00 0.00000E+00 0.00000E+00
 -1       243 0.00000E+00 0.00000E+00 0.00000E+00 0.00000E+00 0.00000E+00 0.00000E+00
 -1       244 0.00000E+00 0.00000E+00 0.00000E+00 0.00000E+00 0.00000E+00 0.00000E+00
 -1       245 0.00000E+00 0.00000E+00 0.00000E+00 0.00000E+00 0.00000E+00 0.00000E+00
 -1       246 0.00000E+00 0.00000E+00 0.00000E+00 0.00000E+00 0.00000E+00 0.00000E+00
 -1       247 0.00000E+00 0.00000E+00 0.00000E+00 0.00000E+00 0.00000E+00 0.00000E+00
 -1       248 0.00000E+00 0.00000E+00 0.00000E+00 0.00000E+00 0.00000E+00 0.00000E+00
 -1       249 0.00000E+00 0.00000E+00 0.00000E+00 0.00000E+00 0.00000E+00 0.00000E+00
 -1       250 0.00000E+00 0.00000E+00 0.00000E+00 0.00000E+00 0.00000E+00 0.00000E+00
 -1       251 0.00000E+00 0.00000E+00 0.00000E+00 0.00000E+00 0.00000E+00 0.00000E+00
 -1       252 0.00000E+00 0.00000E+00 0.00000E+00 0.00000E+00 0.00000E+00 0.00000E+00
 -1       253 0.00000E+00 0.00000E+00 0.00000E+00 0.00000E+00 0.00000E+00 0.00000E+00
 -1       254 0.00000E+00 0.00000E+00 0.00000E+00 0.00000E+00 0.00000E+00 0.00000E+00
 -1       255 0.00000E+00 0.00000E+00 0.00000E+00 0.00000E+00 0.00000E+00 0.00000E+00
 -1       256 0.00000E+00 0.00000E+00 0.00000E+00 0.00000E+00 0.00000E+00 0.00000E+00
 -1       257 0.00000E+00 0.00000E+00 0.00000E+00 0.00000E+00 0.00000E+00 0.00000E+00
 -1       258 0.00000E+00 0.00000E+00 0.00000E+00 0.00000E+00 0.00000E+00 0.00000E+00
 -1       259 0.00000E+00 0.00000E+00 0.00000E+00 0.00000E+00 0.00000E+00 0.00000E+00
 -1       260 0.00000E+00 0.00000E+00 0.00000E+00 0.00000E+00 0.00000E+00 0.00000E+00
 -1       261 0.00000E+00 0.00000E+00 0.00000E+00 0.00000E+00 0.00000E+00 0.00000E+00
 -1       262 0.00000E+00 0.00000E+00 0.00000E+00 0.00000E+00 0.00000E+00 0.00000E+00
 -1       263 0.00000E+00 0.00000E+00 0.00000E+00 0.00000E+00 0.00000E+00 0.00000E+00
 -1       264 0.00000E+00 0.00000E+00 0.00000E+00 0.00000E+00 0.00000E+00 0.00000E+00
 -1       265 0.00000E+00 0.00000E+00 0.00000E+00 0.00000E+00 0.00000E+00 0.00000E+00
 -1       266 0.00000E+00 0.00000E+00 0.00000E+00 0.00000E+00 0.00000E+00 0.00000E+00
 -1       267 0.00000E+00 0.00000E+00 0.00000E+00 0.00000E+00 0.00000E+00 0.00000E+00
 -1       268 0.00000E+00 0.00000E+00 0.00000E+00 0.00000E+00 0.00000E+00 0.00000E+00
 -1       269 0.00000E+00 0.00000E+00 0.00000E+00 0.00000E+00 0.00000E+00 0.00000E+00
 -1       270 0.00000E+00 0.00000E+00 0.00000E+00 0.00000E+00 0.00000E+00 0.00000E+00
 -1       271 0.00000E+00 0.00000E+00 0.00000E+00 0.00000E+00 0.00000E+00 0.00000E+00
 -1       272 0.00000E+00 0.00000E+00 0.00000E+00 0.00000E+00 0.00000E+00 0.00000E+00
 -1       273 0.00000E+00 0.00000E+00 0.00000E+00 0.00000E+00 0.00000E+00 0.00000E+00
 -1       274 0.00000E+00 0.00000E+00 0.00000E+00 0.00000E+00 0.00000E+00 0.00000E+00
 -1       275 0.00000E+00 0.00000E+00 0.00000E+00 0.00000E+00 0.00000E+00 0.00000E+00
 -1       276 0.00000E+00 0.00000E+00 0.00000E+00 0.00000E+00 0.00000E+00 0.00000E+00
 -1       277 0.00000E+00 0.00000E+00 0.00000E+00 0.00000E+00 0.00000E+00 0.00000E+00
 -1       278 0.00000E+00 0.00000E+00 0.00000E+00 0.00000E+00 0.00000E+00 0.00000E+00
 -1       279 0.00000E+00 0.00000E+00 0.00000E+00 0.00000E+00 0.00000E+00 0.00000E+00
 -1       280 0.00000E+00 0.00000E+00 0.00000E+00 0.00000E+00 0.00000E+00 0.00000E+00
 -1       281 0.00000E+00 0.00000E+00 0.00000E+00 0.00000E+00 0.00000E+00 0.00000E+00
 -1       282 0.00000E+00 0.00000E+00 0.00000E+00 0.00000E+00 0.00000E+00 0.00000E+00
 -1       283 0.00000E+00 0.00000E+00 0.00000E+00 0.00000E+00 0.00000E+00 0.00000E+00
 -1       284 0.00000E+00 0.00000E+00 0.00000E+00 0.00000E+00 0.00000E+00 0.00000E+00
 -1       285 0.00000E+00 0.00000E+00 0.00000E+00 0.00000E+00 0.00000E+00 0.00000E+00
 -1       286 0.00000E+00 0.00000E+00 0.00000E+00 0.00000E+00 0.00000E+00 0.00000E+00
 -1       287 0.00000E+00 0.00000E+00 0.00000E+00 0.00000E+00 0.00000E+00 0.00000E+00
 -1       288 0.00000E+00 0.00000E+00 0.00000E+00 0.00000E+00 0.00000E+00 0.00000E+00
 -1       289 0.00000E+00 0.00000E+00 0.00000E+00 0.00000E+00 0.00000E+00 0.00000E+00
 -1       290 0.00000E+00 0.00000E+00 0.00000E+00 0.00000E+00 0.00000E+00 0.00000E+00
 -1       291 0.00000E+00 0.00000E+00 0.00000E+00 0.00000E+00 0.00000E+00 0.00000E+00
 -1       292 0.00000E+00 0.00000E+00 0.00000E+00 0.00000E+00 0.00000E+00 0.00000E+00
 -1       293 0.00000E+00 0.00000E+00 0.00000E+00 0.00000E+00 0.00000E+00 0.00000E+00
 -1       294 0.00000E+00 0.00000E+00 0.00000E+00 0.00000E+00 0.00000E+00 0.00000E+00
 -1       295 0.00000E+00 0.00000E+00 0.00000E+00 0.00000E+00 0.00000E+00 0.00000E+00
 -1       296 0.00000E+00 0.00000E+00 0.00000E+00 0.00000E+00 0.00000E+00 0.00000E+00
 -1       297 0.00000E+00 0.00000E+00 0.00000E+00 0.00000E+00 0.00000E+00 0.00000E+00
 -1       298 0.00000E+00 0.00000E+00 0.00000E+00 0.00000E+00 0.00000E+00 0.00000E+00
 -1       299 0.00000E+00 0.00000E+00 0.00000E+00 0.00000E+00 0.00000E+00 0.00000E+00
 -1       300 0.00000E+00 0.00000E+00 0.00000E+00 0.00000E+00 0.00000E+00 0.00000E+00
 -1       301 0.00000E+00 0.00000E+00 0.00000E+00 0.00000E+00 0.00000E+00 0.00000E+00
 -1       302 0.00000E+00 0.00000E+00 0.00000E+00 0.00000E+00 0.00000E+00 0.00000E+00
 -1       303 0.00000E+00 0.00000E+00 0.00000E+00 0.00000E+00 0.00000E+00 0.00000E+00
 -1       304 0.00000E+00 0.00000E+00 0.00000E+00 0.00000E+00 0.00000E+00 0.00000E+00
 -1       305 0.00000E+00 0.00000E+00 0.00000E+00 0.00000E+00 0.00000E+00 0.00000E+00
 -1       306 0.00000E+00 0.00000E+00 0.00000E+00 0.00000E+00 0.00000E+00 0.00000E+00
 -1       307 0.00000E+00 0.00000E+00 0.00000E+00 0.00000E+00 0.00000E+00 0.00000E+00
 -1       308 0.00000E+00 0.00000E+00 0.00000E+00 0.00000E+00 0.00000E+00 0.00000E+00
 -1       309 0.00000E+00 0.00000E+00 0.00000E+00 0.00000E+00 0.00000E+00 0.00000E+00
 -1       310 0.00000E+00 0.00000E+00 0.00000E+00 0.00000E+00 0.00000E+00 0.00000E+00
 -1       311 0.00000E+00 0.00000E+00 0.00000E+00 0.00000E+00 0.00000E+00 0.00000E+00
 -1       312 0.00000E+00 0.00000E+00 0.00000E+00 0.00000E+00 0.00000E+00 0.00000E+00
 -1       313 0.00000E+00 0.00000E+00 0.00000E+00 0.00000E+00 0.00000E+00 0.00000E+00
 -1       314 0.00000E+00 0.00000E+00 0.00000E+00 0.00000E+00 0.00000E+00 0.00000E+00
 -1       315 0.00000E+00 0.00000E+00 0.00000E+00 0.00000E+00 0.00000E+00 0.00000E+00
 -1       316 0.00000E+00 0.00000E+00 0.00000E+00 0.00000E+00 0.00000E+00 0.00000E+00
 -1       317 0.00000E+00 0.00000E+00 0.00000E+00 0.00000E+00 0.00000E+00 0.00000E+00
 -1       318 0.00000E+00 0.00000E+00 0.00000E+00 0.00000E+00 0.00000E+00 0.00000E+00
 -1       319 0.00000E+00 0.00000E+00 0.00000E+00 0.00000E+00 0.00000E+00 0.00000E+00
 -1       320 0.00000E+00 0.00000E+00 0.00000E+00 0.00000E+00 0.00000E+00 0.00000E+00
 -1       321 0.00000E+00 0.00000E+00 0.00000E+00 0.00000E+00 0.00000E+00 0.00000E+00
 -1       322 0.00000E+00 0.00000E+00 0.00000E+00 0.00000E+00 0.00000E+00 0.00000E+00
 -1       323 0.00000E+00 0.00000E+00 0.00000E+00 0.00000E+00 0.00000E+00 0.00000E+00
 -1       324 0.00000E+00 0.00000E+00 0.00000E+00 0.00000E+00 0.00000E+00 0.00000E+00
 -1       325 0.00000E+00 0.00000E+00 0.00000E+00 0.00000E+00 0.00000E+00 0.00000E+00
 -1       326 0.00000E+00 0.00000E+00 0.00000E+00 0.00000E+00 0.00000E+00 0.00000E+00
 -1       327 0.00000E+00 0.00000E+00 0.00000E+00 0.00000E+00 0.00000E+00 0.00000E+00
 -1       328 0.00000E+00 0.00000E+00 0.00000E+00 0.00000E+00 0.00000E+00 0.00000E+00
 -1       329 0.00000E+00 0.00000E+00 0.00000E+00 0.00000E+00 0.00000E+00 0.00000E+00
 -1       330 0.00000E+00 0.00000E+00 0.00000E+00 0.00000E+00 0.00000E+00 0.00000E+00
 -1       331 0.00000E+00 0.00000E+00 0.00000E+00 0.00000E+00 0.00000E+00 0.00000E+00
 -1       332 0.00000E+00 0.00000E+00 0.00000E+00 0.00000E+00 0.00000E+00 0.00000E+00
 -1       333 0.00000E+00 0.00000E+00 0.00000E+00 0.00000E+00 0.00000E+00 0.00000E+00
 -1       334 0.00000E+00 0.00000E+00 0.00000E+00 0.00000E+00 0.00000E+00 0.00000E+00
 -1       335 0.00000E+00 0.00000E+00 0.00000E+00 0.00000E+00 0.00000E+00 0.00000E+00
 -1       336 0.00000E+00 0.00000E+00 0.00000E+00 0.00000E+00 0.00000E+00 0.00000E+00
 -1       337 0.00000E+00 0.00000E+00 0.00000E+00 0.00000E+00 0.00000E+00 0.00000E+00
 -1       338 0.00000E+00 0.00000E+00 0.00000E+00 0.00000E+00 0.00000E+00 0.00000E+00
 -1       339 0.00000E+00 0.00000E+00 0.00000E+00 0.00000E+00 0.00000E+00 0.00000E+00
 -1       340 0.00000E+00 0.00000E+00 0.00000E+00 0.00000E+00 0.00000E+00 0.00000E+00
 -1       341 0.00000E+00 0.00000E+00 0.00000E+00 0.00000E+00 0.00000E+00 0.00000E+00
 -1       342 0.00000E+00 0.00000E+00 0.00000E+00 0.00000E+00 0.00000E+00 0.00000E+00
 -1       343 0.00000E+00 0.00000E+00 0.00000E+00 0.00000E+00 0.00000E+00 0.00000E+00
 -1       344 0.00000E+00 0.00000E+00 0.00000E+00 0.00000E+00 0.00000E+00 0.00000E+00
 -1       345 0.00000E+00 0.00000E+00 0.00000E+00 0.00000E+00 0.00000E+00 0.00000E+00
 -1       346 0.00000E+00 0.00000E+00 0.00000E+00 0.00000E+00 0.00000E+00 0.00000E+00
 -1       347 0.00000E+00 0.00000E+00 0.00000E+00 0.00000E+00 0.00000E+00 0.00000E+00
 -1       348 0.00000E+00 0.00000E+00 0.00000E+00 0.00000E+00 0.00000E+00 0.00000E+00
 -1       349 0.00000E+00 0.00000E+00 0.00000E+00 0.00000E+00 0.00000E+00 0.00000E+00
 -1       350 0.00000E+00 0.00000E+00 0.00000E+00 0.00000E+00 0.00000E+00 0.00000E+00
 -1       351 0.00000E+00 0.00000E+00 0.00000E+00 0.00000E+00 0.00000E+00 0.00000E+00
 -1       352 0.00000E+00 0.00000E+00 0.00000E+00 0.00000E+00 0.00000E+00 0.00000E+00
 -1       353 0.00000E+00 0.00000E+00 0.00000E+00 0.00000E+00 0.00000E+00 0.00000E+00
 -1       354 0.00000E+00 0.00000E+00 0.00000E+00 0.00000E+00 0.00000E+00 0.00000E+00
 -1       355 0.00000E+00 0.00000E+00 0.00000E+00 0.00000E+00 0.00000E+00 0.00000E+00
 -1       356 0.00000E+00 0.00000E+00 0.00000E+00 0.00000E+00 0.00000E+00 0.00000E+00
 -1       357 0.00000E+00 0.00000E+00 0.00000E+00 0.00000E+00 0.00000E+00 0.00000E+00
 -1       358 0.00000E+00 0.00000E+00 0.00000E+00 0.00000E+00 0.00000E+00 0.00000E+00
 -1       359 0.00000E+00 0.00000E+00 0.00000E+00 0.00000E+00 0.00000E+00 0.00000E+00
 -1       360 0.00000E+00 0.00000E+00 0.00000E+00 0.00000E+00 0.00000E+00 0.00000E+00
 -1       361 0.00000E+00 0.00000E+00 0.00000E+00 0.00000E+00 0.00000E+00 0.00000E+00
 -1       362 0.00000E+00 0.00000E+00 0.00000E+00 0.00000E+00 0.00000E+00 0.00000E+00
 -1       363 0.00000E+00 0.00000E+00 0.00000E+00 0.00000E+00 0.00000E+00 0.00000E+00
 -1       364 0.00000E+00 0.00000E+00 0.00000E+00 0.00000E+00 0.00000E+00 0.00000E+00
 -1       365 0.00000E+00 0.00000E+00 0.00000E+00 0.00000E+00 0.00000E+00 0.00000E+00
 -1       366 0.00000E+00 0.00000E+00 0.00000E+00 0.00000E+00 0.00000E+00 0.00000E+00
 -1       367 0.00000E+00 0.00000E+00 0.00000E+00 0.00000E+00 0.00000E+00 0.00000E+00
 -1       368 0.00000E+00 0.00000E+00 0.00000E+00 0.00000E+00 0.00000E+00 0.00000E+00
 -1       369 0.00000E+00 0.00000E+00 0.00000E+00 0.00000E+00 0.00000E+00 0.00000E+00
 -1       370 0.00000E+00 0.00000E+00 0.00000E+00 0.00000E+00 0.00000E+00 0.00000E+00
 -1       371 0.00000E+00 0.00000E+00 0.00000E+00 0.00000E+00 0.00000E+00 0.00000E+00
 -1       372 0.00000E+00 0.00000E+00 0.00000E+00 0.00000E+00 0.00000E+00 0.00000E+00
 -1       373 0.00000E+00 0.00000E+00 0.00000E+00 0.00000E+00 0.00000E+00 0.00000E+00
 -1       374 0.00000E+00 0.00000E+00 0.00000E+00 0.00000E+00 0.00000E+00 0.00000E+00
 -1       375 0.00000E+00 0.00000E+00 0.00000E+00 0.00000E+00 0.00000E+00 0.00000E+00
 -1       376 0.00000E+00 0.00000E+00 0.00000E+00 0.00000E+00 0.00000E+00 0.00000E+00
 -1       377 0.00000E+00 0.00000E+00 0.00000E+00 0.00000E+00 0.00000E+00 0.00000E+00
 -1       378 0.00000E+00 0.00000E+00 0.00000E+00 0.00000E+00 0.00000E+00 0.00000E+00
 -1       379 0.00000E+00 0.00000E+00 0.00000E+00 0.00000E+00 0.00000E+00 0.00000E+00
 -1       380 0.00000E+00 0.00000E+00 0.00000E+00 0.00000E+00 0.00000E+00 0.00000E+00
 -1       381 0.00000E+00 0.00000E+00 0.00000E+00 0.00000E+00 0.00000E+00 0.00000E+00
 -1       382 0.00000E+00 0.00000E+00 0.00000E+00 0.00000E+00 0.00000E+00 0.00000E+00
 -1       383 0.00000E+00 0.00000E+00 0.00000E+00 0.00000E+00 0.00000E+00 0.00000E+00
 -1       384 0.00000E+00 0.00000E+00 0.00000E+00 0.00000E+00 0.00000E+00 0.00000E+00
 -1       385 0.00000E+00 0.00000E+00 0.00000E+00 0.00000E+00 0.00000E+00 0.00000E+00
 -1       386 0.00000E+00 0.00000E+00 0.00000E+00 0.00000E+00 0.00000E+00 0.00000E+00
 -1       387 0.00000E+00 0.00000E+00 0.00000E+00 0.00000E+00 0.00000E+00 0.00000E+00
 -1       388 0.00000E+00 0.00000E+00 0.00000E+00 0.00000E+00 0.00000E+00 0.00000E+00
 -1       389 0.00000E+00 0.00000E+00 0.00000E+00 0.00000E+00 0.00000E+00 0.00000E+00
 -1       390 0.00000E+00 0.00000E+00 0.00000E+00 0.00000E+00 0.00000E+00 0.00000E+00
 -1       391 0.00000E+00 0.00000E+00 0.00000E+00 0.00000E+00 0.00000E+00 0.00000E+00
 -1       392 0.00000E+00 0.00000E+00 0.00000E+00 0.00000E+00 0.00000E+00 0.00000E+00
 -1       393 0.00000E+00 0.00000E+00 0.00000E+00 0.00000E+00 0.00000E+00 0.00000E+00
 -1       394 0.00000E+00 0.00000E+00 0.00000E+00 0.00000E+00 0.00000E+00 0.00000E+00
 -1       395 0.00000E+00 0.00000E+00 0.00000E+00 0.00000E+00 0.00000E+00 0.00000E+00
 -1       396 0.00000E+00 0.00000E+00 0.00000E+00 0.00000E+00 0.00000E+00 0.00000E+00
 -1       397 0.00000E+00 0.00000E+00 0.00000E+00 0.00000E+00 0.00000E+00 0.00000E+00
 -1       398 0.00000E+00 0.00000E+00 0.00000E+00 0.00000E+00 0.00000E+00 0.00000E+00
 -1       399 0.00000E+00 0.00000E+00 0.00000E+00 0.00000E+00 0.00000E+00 0.00000E+00
 -1       400 0.00000E+00 0.00000E+00 0.00000E+00 0.00000E+00 0.00000E+00 0.00000E+00
 -1       401 0.00000E+00 0.00000E+00 0.00000E+00 0.00000E+00 0.00000E+00 0.00000E+00
 -1       402 0.00000E+00 0.00000E+00 0.00000E+00 0.00000E+00 0.00000E+00 0.00000E+00
 -1       403 0.00000E+00 0.00000E+00 0.00000E+00 0.00000E+00 0.00000E+00 0.00000E+00
 -1       404 0.00000E+00 0.00000E+00 0.00000E+00 0.00000E+00 0.00000E+00 0.00000E+00
 -1       405 0.00000E+00 0.00000E+00 0.00000E+00 0.00000E+00 0.00000E+00 0.00000E+00
 -1       406 0.00000E+00 0.00000E+00 0.00000E+00 0.00000E+00 0.00000E+00 0.00000E+00
 -1       407 0.00000E+00 0.00000E+00 0.00000E+00 0.00000E+00 0.00000E+00 0.00000E+00
 -1       408 0.00000E+00 0.00000E+00 0.00000E+00 0.00000E+00 0.00000E+00 0.00000E+00
 -1       409 0.00000E+00 0.00000E+00 0.00000E+00 0.00000E+00 0.00000E+00 0.00000E+00
 -1       410 0.00000E+00 0.00000E+00 0.00000E+00 0.00000E+00 0.00000E+00 0.00000E+00
 -1       411 0.00000E+00 0.00000E+00 0.00000E+00 0.00000E+00 0.00000E+00 0.00000E+00
 -1       412 0.00000E+00 0.00000E+00 0.00000E+00 0.00000E+00 0.00000E+00 0.00000E+00
 -1       413 0.00000E+00 0.00000E+00 0.00000E+00 0.00000E+00 0.00000E+00 0.00000E+00
 -1       414 0.00000E+00 0.00000E+00 0.00000E+00 0.00000E+00 0.00000E+00 0.00000E+00
 -1       415 0.00000E+00 0.00000E+00 0.00000E+00 0.00000E+00 0.00000E+00 0.00000E+00
 -1       416 0.00000E+00 0.00000E+00 0.00000E+00 0.00000E+00 0.00000E+00 0.00000E+00
 -1       417 0.00000E+00 0.00000E+00 0.00000E+00 0.00000E+00 0.00000E+00 0.00000E+00
 -1       418 0.00000E+00 0.00000E+00 0.00000E+00 0.00000E+00 0.00000E+00 0.00000E+00
 -1       419 0.00000E+00 0.00000E+00 0.00000E+00 0.00000E+00 0.00000E+00 0.00000E+00
 -1       420 0.00000E+00 0.00000E+00 0.00000E+00 0.00000E+00 0.00000E+00 0.00000E+00
 -1       421 0.00000E+00 0.00000E+00 0.00000E+00 0.00000E+00 0.00000E+00 0.00000E+00
 -1       422 0.00000E+00 0.00000E+00 0.00000E+00 0.00000E+00 0.00000E+00 0.00000E+00
 -1       423 0.00000E+00 0.00000E+00 0.00000E+00 0.00000E+00 0.00000E+00 0.00000E+00
 -1       424 0.00000E+00 0.00000E+00 0.00000E+00 0.00000E+00 0.00000E+00 0.00000E+00
 -1       425 0.00000E+00 0.00000E+00 0.00000E+00 0.00000E+00 0.00000E+00 0.00000E+00
 -1       426 0.00000E+00 0.00000E+00 0.00000E+00 0.00000E+00 0.00000E+00 0.00000E+00
 -1       427 0.00000E+00 0.00000E+00 0.00000E+00 0.00000E+00 0.00000E+00 0.00000E+00
 -1       428 0.00000E+00 0.00000E+00 0.00000E+00 0.00000E+00 0.00000E+00 0.00000E+00
 -3
    1PSTEP                         5           1           1          
  100CL  101 1.000000000         427                     0    1           1
 -4  ERROR       1    1
 -5  STR(%)      1    1    0    0
 -1         1 5.99564E+01
 -1         2 4.49089E+01
 -1         3 5.99564E+01
 -1         4 5.81854E+01
 -1         5 6.33499E+01
 -1         6 6.33499E+01
 -1         7 6.13290E+01
 -1         8 6.03779E+01
 -1         9 5.89527E+01
 -1        10 5.76472E+01
 -1        11 5.62266E+01
 -1        12 5.47502E+01
 -1        13 5.31970E+01
 -1        14 5.15866E+01
 -1        15 4.99248E+01
 -1        16 4.86680E+01
 -1        17 4.49089E+01
 -1        18 3.02838E+01
 -1        19 2.34948E+01
 -1        20 2.00546E+01
 -1        21 1.80536E+01
 -1        22 1.66857E+01
 -1        23 1.54954E+01
 -1        24 1.41328E+01
 -1        25 1.22704E+01
 -1        26 9.59759E+00
 -1        27 5.06553E+00
 -1        28 0.00000E+00
 -1        29 5.99564E+01
 -1        30 3.05713E+01
 -1        31 1.08694E+01
 -1        32 6.60537E+00
 -1        33 4.24712E+00
 -1        34 3.03420E+00
 -1        35 2.24028E+00
 -1        36 1.69193E+00
 -1        37 1.25643E+00
 -1        38 8.75262E-01
 -1        39 3.41119E-01
 -1        40 5.99564E+01
 -1        41 4.52470E+01
 -1        42 2.96348E+01
 -1        43 1.69658E+01
 -1        44 8.83649E+00
 -1        45 4.41079E+00
 -1        46 2.84673E+00
 -1        47 1.97102E+00
 -1        48 1.33865E+00
 -1        49 8.75262E-01
 -1        50 3.41119E-01
 -1        51 5.81854E+01
 -1        52 4.52470E+01
 -1        53 3.24407E+01
 -1        54 2.50117E+01
 -1        55 1.67895E+01
 -1        56 1.01325E+01
 -1        57 5.70100E+00
 -1        58 2.92672E+00
 -1        59 1.33865E+00
 -1        60 8.51183E-01
 -1        61 2.96888E-01
 -1        62 6.33499E+01
 -1        63 3.24407E+01
 -1        64 3.24407E+01
 -1        65 2.50117E+01
 -1        66 2.06957E+01
 -1        67 1.49833E+01
 -1        68 9.71309E+00
 -1        69 5.75684E+00
 -1        70 3.06315E+00
 -1        71 1.34688E+00
 -1        72 4.61290E-01
 -1        73 6.33499E+01
 -1        74 2.64630E+01
 -1        75 2.45644E+01
 -1        76 2.45644E+01
 -1        77 2.06957E+01
 -1        78 1.71974E+01
 -1        79 1.28981E+01
 -1        80 8.59875E+00
 -1        81 5.11861E+00
 -1        82 2.58979E+00
 -1        83 9.69230E-01
 -1        84 6.13290E+01
 -1        85 3.12214E+01
 -1        86 1.66132E+01
 -1        87 1.97095E+01
 -1        88 1.97095E+01
 -1        89 1.71974E+01
 -1        90 1.42732E+01
 -1        91 1.07761E+01
 -1        92 7.10901E+00
 -1        93 3.96596E+00
 -1        94 1.57210E+00
 -1        95 6.03779E+01
 -1        96 3.34465E+01
 -1        97 1.80832E+01
 -1        98 1.45589E+01
 -1        99 1.62446E+01
 -1       100 1.62446E+01
 -1       101 1.42732E+01
 -1       102 1.16321E+01
 -1       103 8.57437E+00
 -1       104 5.25203E+00
 -1       105 2.19628E+00
 -1       106 5.89527E+01
 -1       107 3.43367E+01
 -1       108 2.20999E+01
 -1       109 1.14062E+01
 -1       110 1.24493E+01
 -1       111 1.33934E+01
 -1       112 1.33934E+01
 -1       113 1.16321E+01
 -1       114 9.02404E+00
 -1       115 6.12827E+00
 -1       116 2.71439E+00
 -1       117 5.76472E+01
 -1       118 3.46243E+01
 -1       119 2.43198E+01
 -1       120 1.61737E+01
 -1       121 8.03589E+00
 -1       122 1.03117E+01
 -1       123 1.07547E+01
 -1       124 1.07547E+01
 -1       125 9.02404E+00
 -1       126 6.22097E+00
 -1       127 2.94446E+00
 -1       128 5.62266E+01
 -1       129 3.46243E+01
 -1       130 2.54912E+01
 -1       131 1.91297E+01
 -1       132 1.29974E+01
 -1       133 6.62285E+00
 -1       134 8.04122E+00
 -1       135 8.07197E+00
 -1       136 8.07197E+00
 -1       137 6.22097E+00
 -1       138 2.94446E+00
 -1       139 5.47502E+01
 -1       140 3.45300E+01
 -1       141 2.59825E+01
 -1       142 2.08434E+01
 -1       143 1.62924E+01
 -1       144 1.14990E+01
 -1       145 6.46884E+00
 -1       146 5.53565E+00
 -1       147 5.53565E+00
 -1       148 5.19085E+00
 -1       149 2.67394E+00
 -1       150 5.31970E+01
 -1       151 3.41829E+01
 -1       152 2.59929E+01
 -1       153 2.16601E+01
 -1       154 1.82574E+01
 -1       155 1.48431E+01
 -1       156 1.10784E+01
 -1       157 7.10010E+00
 -1       158 3.43600E+00
 -1       159 2.84540E+00
 -1       160 1.72543E+00
 -1       161 5.15866E+01
 -1       162 3.36336E+01
 -1       163 2.59929E+01
 -1       164 2.17622E+01
 -1       165 1.91329E+01
 -1       166 1.67671E+01
 -1       167 1.41875E+01
 -1       168 1.12134E+01
 -1       169 7.95236E+00
 -1       170 4.71073E+00
 -1       171 2.03807E+00
 -1       172 4.99248E+01
 -1       173 3.29336E+01
 -1       174 2.56011E+01
 -1       175 2.17622E+01
 -1       176 1.91329E+01
 -1       177 1.73758E+01
 -1       178 1.56910E+01
 -1       179 1.36759E+01
 -1       180 1.11380E+01
 -1       181 8.00419E+00
 -1       182 3.97409E+00
 -1       183 4.86680E+01
 -1       184 3.19383E+01
 -1       185 2.47795E+01
 -1       186 2.12229E+01
 -1       187 1.90549E+01
 -1       188 1.73758E+01
 -1       189 1.56910E+01
 -1       190 1.41328E+01
 -1       191 1.22704E+01
 -1       192 9.59759E+00
 -1       193 5.06553E+00
 -1       194 3.91081E+01
 -1       195 5.95190E+01
 -1       196 9.86480E+00
 -1       197 1.78032E+00
 -1       199 3.91081E+01
 -1       200 2.64663E+01
 -1       201 9.00968E+00
 -1       202 6.20947E+00
 -1       203 6.01170E+00
 -1       204 5.72972E+00
 -1       205 5.35674E+00
 -1       206 4.84977E+00
 -1       207 4.13109E+00
 -1       208 3.07324E+00
 -1       209 2.82355E+00
 -1       210 7.11552E+00
 -1       211 1.45839E+01
 -1       212 2.16503E+01
 -1       213 2.48598E+01
 -1       214 5.95190E+01
 -1       215 5.95190E+01
 -1       216 3.28778E+01
 -1       217 1.36601E+01
 -1       218 7.07247E+00
 -1       219 4.78115E+00
 -1       220 5.04130E+00
 -1       221 6.90656E+00
 -1       222 2.03153E+01
 -1       223 2.03153E+01
 -1       224 1.72446E+01
 -1       225 1.67380E+01
 -1       226 9.86541E+00
 -1       227 9.86541E+00
 -1       228 9.84751E+00
 -1       229 9.81388E+00
 -1       230 9.74289E+00
 -1       231 9.62277E+00
 -1       232 9.44707E+00
 -1       233 9.21766E+00
 -1       234 8.94725E+00
 -1       235 8.65802E+00
 -1       236 8.37350E+00
 -1       237 8.10299E+00
 -1       238 7.81278E+00
 -1       239 1.10894E+01
 -1       240 1.10894E+01
 -1       241 8.16663E+00
 -1       242 1.78032E+00
 -1       243 4.28711E+00
 -1       244 4.28711E+00
 -1       245 5.95195E+00
 -1       246 1.15613E+01
 -1       247 1.73500E+01
 -1       248 2.19295E+01
 -1       249 2.29789E+01
 -1       250 2.29789E+01
 -1       251 1.57374E+01
 -1       252 3.91081E+01
 -1       253 3.91081E+01
 -1       254 1.57374E+01
 -1       255 2.29789E+01
 -1       256 2.29789E+01
 -1       257 2.19295E+01
 -1       258 1.73500E+01
 -1       259 1.15613E+01
 -1       260 1.17752E+01
 -1       261 1.17752E+01
 -1       262 1.15097E+01
 -1       263 8.75583E+00
 -1       264 2.64663E+01
 -1       265 1.57371E+01
 -1       266 8.70371E+00
 -1       267 6.90245E+00
 -1       268 9.51616E+00
 -1       269 1.18616E+01
 -1       270 1.37836E+01
 -1       271 1.50608E+01
 -1       272 1.51186E+01
 -1       273 1.51186E+01
 -1       274 1.32564E+01
 -1       275 9.00968E+00
 -1       276 6.59133E+00
 -1       277 6.14246E+00
 -1       278 8.43142E+00
 -1       279 1.11137E+01
 -1       280 1.36343E+01
 -1       281 1.59395E+01
 -1       282 1.78469E+01
 -1       283 1.89817E+01
 -1       284 1.89817E+01
 -1       285 1.32564E+01
 -1       286 6.20947E+00
 -1       287 6.11152E+00
 -1       288 6.73455E+00
 -1       289 9.37686E+00
 -1       290 1.21371E+01
 -1       291 1.49905E+01
 -1       292 1.78738E+01
 -1       293 2.06446E+01
 -1       294 2.06446E+01
 -1       295 1.89817E+01
 -1       296 1.37271E+01
 -1       297 6.01170E+00
 -1       298 5.98474E+00
 -1       299 7.19436E+00
 -1       300 9.87662E+00
 -1       301 1.29081E+01
 -1       302 1.62371E+01
 -1       303 1.97718E+01
 -1       304 2.36473E+01
 -1       305 2.36473E+01
 -1       306 1.93246E+01
 -1       307 1.44723E+01
 -1       308 5.84247E+00
 -1       309 5.93673E+00
 -1       310 7.25514E+00
 -1       311 1.01448E+01
 -1       312 1.36181E+01
 -1       313 1.75280E+01
 -1       314 2.16923E+01
 -1       315 2.40876E+01
 -1       316 2.40876E+01
 -1       317 1.99650E+01
 -1       318 1.52216E+01
 -1       319 5.59030E+00
 -1       320 5.89196E+00
 -1       321 7.25514E+00
 -1       322 1.04151E+01
 -1       323 1.44732E+01
 -1       324 1.89763E+01
 -1       325 2.36110E+01
 -1       326 2.41858E+01
 -1       327 2.41858E+01
 -1       328 2.02538E+01
 -1       329 1.59477E+01
 -1       330 5.17987E+00
 -1       331 5.67510E+00
 -1       332 7.13434E+00
 -1       333 1.09811E+01
 -1       334 1.57002E+01
 -1       335 2.06354E+01
 -1       336 2.53952E+01
 -1       337 2.53952E+01
 -1       338 2.41858E+01
 -1       339 2.02538E+01
 -1       340 1.64607E+01
 -1       341 4.56248E+00
 -1       342 5.28325E+00
 -1       343 7.38257E+00
 -1       344 1.22020E+01
 -1       345 1.74763E+01
 -1       346 2.24257E+01
 -1       347 2.67903E+01
 -1       348 2.67903E+01
 -1       349 2.39009E+01
 -1       350 2.01999E+01
 -1       351 1.67787E+01
 -1       352 3.68257E+00
 -1       353 4.76599E+00
 -1       354 8.61692E+00
 -1       355 1.44388E+01
 -1       356 1.97786E+01
 -1       357 2.40548E+01
 -1       358 2.74296E+01
 -1       359 2.74296E+01
 -1       360 2.32645E+01
 -1       361 1.98578E+01
 -1       362 1.69321E+01
 -1       363 2.82355E+00
 -1       364 4.42141E+00
 -1       365 1.15323E+01
 -1       366 1.77845E+01
 -1       367 2.22079E+01
 -1       368 2.49640E+01
 -1       369 2.74296E+01
 -1       370 2.74296E+01
 -1       371 2.23849E+01
 -1       372 1.93263E+01
 -1       373 1.69656E+01
 -1       374 7.11552E+00
 -1       375 7.96896E+00
 -1       376 1.65841E+01
 -1       377 2.17226E+01
 -1       378 2.37784E+01
 -1       379 2.49640E+01
 -1       380 2.68872E+01
 -1       381 2.68872E+01
 -1       382 2.14404E+01
 -1       383 1.87270E+01
 -1       384 1.69656E+01
 -1       385 1.45839E+01
 -1       386 1.56874E+01
 -1       387 2.34250E+01
 -1       388 2.42324E+01
 -1       389 2.42324E+01
 -1       390 2.44140E+01
 -1       391 2.48009E+01
 -1       392 2.48009E+01
 -1       393 2.14339E+01
 -1       394 1.82013E+01
 -1       395 1.69468E+01
 -1       396 2.16503E+01
 -1       397 2.92000E+01
 -1       398 2.92000E+01
 -1       399 2.67756E+01
 -1       400 2.42324E+01
 -1       401 2.31556E+01
 -1       402 2.17358E+01
 -1       403 2.14304E+01
 -1       404 2.14304E+01
 -1       405 1.78434E+01
 -1       406 1.68937E+01
 -1       407 4.19843E+01
 -1       408 4.19843E+01
 -1       409 3.11570E+01
 -1       410 2.67756E+01
 -1       411 2.28163E+01
 -1       412 1.91659E+01
 -1       413 1.68387E+01
 -1       414 2.11175E+01
 -1       415 2.11175E+01
 -1       416 1.75842E+01
 -1       417 1.68293E+01
 -1       418 5.95190E+01
 -1       419 4.19843E+01
 -1       420 3.11570E+01
 -1       421 2.18972E+01
 -1       422 1.55072E+01
 -1       423 1.20346E+01
 -1       424 1.10858E+01
 -1       425 2.06899E+01
 -1       426 2.06899E+01
 -1       427 1.73747E+01
 -1       428 1.67741E+01
 -3
 9999
