    1C
    1UUSER                                                              
    1UDATE              15.may.2021                                     
    1UTIME              14:50:29                                        
    1UHOST                                                              
    1UPGM               CalculiX                                        
    1UVERSION           Version 2.17                             
    1UCOMPILETIME       Thu Jul 23 21:43:50 CEST 2020                    
    1UDIR                                                               
    1UDBN                                                               
    1UMAT    1STEEL                                                     
    1UMAT    2CONTACT                                                   
    2C                           807                                     1
 -1         1 0.00000E+00 0.00000E+00 0.00000E+00
 -1         2 1.00000E+01 1.00000E+01 0.00000E+00
 -1         3 2.49974E-01 3.12484E-03 0.00000E+00
 -1         4 5.21990E-01 1.36330E-02 0.00000E+00
 -1         5 8.22294E-01 3.38657E-02 0.00000E+00
 -1         6 1.15150E+00 6.65190E-02 0.00000E+00
 -1         7 1.51185E+00 1.14945E-01 0.00000E+00
 -1         8 1.90554E+00 1.83233E-01 0.00000E+00
 -1         9 2.33462E+00 2.76340E-01 0.00000E+00
 -1        10 2.80084E+00 4.00246E-01 0.00000E+00
 -1        11 3.30549E+00 5.62111E-01 0.00000E+00
 -1        12 3.84908E+00 7.70449E-01 0.00000E+00
 -1        13 4.43101E+00 1.03528E+00 0.00000E+00
 -1        14 5.04911E+00 1.36828E+00 0.00000E+00
 -1        15 5.69898E+00 1.78284E+00 0.00000E+00
 -1        16 6.37324E+00 2.29404E+00 0.00000E+00
 -1        17 7.06057E+00 2.91845E+00 0.00000E+00
 -1        18 7.74449E+00 3.67364E+00 0.00000E+00
 -1        19 8.40204E+00 4.57730E+00 0.00000E+00
 -1        20 9.00225E+00 5.64575E+00 0.00000E+00
 -1        21 9.50464E+00 6.89165E+00 0.00000E+00
 -1        22 9.85890E+00 8.32604E+00 0.00000E+00
 -1        23 9.75000E+00 1.00000E+01 0.00000E+00
 -1        24 9.47797E+00 1.00000E+01 0.00000E+00
 -1        25 9.17708E+00 1.00000E+01 0.00000E+00
 -1        26 8.84637E+00 1.00000E+01 0.00000E+00
 -1        27 8.48293E+00 1.00000E+01 0.00000E+00
 -1        28 8.08355E+00 1.00000E+01 0.00000E+00
 -1        29 7.64472E+00 1.00000E+01 0.00000E+00
 -1        30 7.16259E+00 1.00000E+01 0.00000E+00
 -1        31 6.63297E+00 1.00000E+01 0.00000E+00
 -1        32 6.05126E+00 1.00000E+01 0.00000E+00
 -1        33 5.41241E+00 1.00000E+01 0.00000E+00
 -1        34 4.71095E+00 1.00000E+01 0.00000E+00
 -1        35 3.94088E+00 1.00000E+01 0.00000E+00
 -1        36 3.09565E+00 1.00000E+01 0.00000E+00
 -1        37 2.16814E+00 1.00000E+01 0.00000E+00
 -1        38 1.14874E+00 1.00000E+01 0.00000E+00
 -1        39 0.00000E+00 1.00000E+01 0.00000E+00
 -1        40 0.00000E+00 2.50000E-01 0.00000E+00
 -1        41 0.00000E+00 5.22033E-01 0.00000E+00
 -1        42 0.00000E+00 8.22923E-01 0.00000E+00
 -1        43 0.00000E+00 1.15363E+00 0.00000E+00
 -1        44 0.00000E+00 1.51707E+00 0.00000E+00
 -1        45 0.00000E+00 1.91645E+00 0.00000E+00
 -1        46 0.00000E+00 2.35528E+00 0.00000E+00
 -1        47 0.00000E+00 2.83741E+00 0.00000E+00
 -1        48 0.00000E+00 3.36703E+00 0.00000E+00
 -1        49 0.00000E+00 3.94875E+00 0.00000E+00
 -1        50 0.00000E+00 4.58759E+00 0.00000E+00
 -1        51 0.00000E+00 5.28905E+00 0.00000E+00
 -1        52 0.00000E+00 6.05912E+00 0.00000E+00
 -1        53 0.00000E+00 6.90435E+00 0.00000E+00
 -1        54 0.00000E+00 7.83186E+00 0.00000E+00
 -1        55 0.00000E+00 8.85126E+00 0.00000E+00
 -1        56 2.43725E-01 2.53047E-01 0.00000E+00
 -1        57 2.36924E-01 5.24994E-01 0.00000E+00
 -1        58 2.29403E-01 8.25791E-01 0.00000E+00
 -1        59 2.21136E-01 1.15639E+00 0.00000E+00
 -1        60 2.12051E-01 1.51972E+00 0.00000E+00
 -1        61 2.02068E-01 1.91898E+00 0.00000E+00
 -1        62 1.91098E-01 2.35767E+00 0.00000E+00
 -1        63 1.79046E-01 2.83964E+00 0.00000E+00
 -1        64 1.65807E-01 3.36910E+00 0.00000E+00
 -1        65 1.51266E-01 3.95064E+00 0.00000E+00
 -1        66 1.35296E-01 4.58928E+00 0.00000E+00
 -1        67 1.17761E-01 5.29052E+00 0.00000E+00
 -1        68 9.85116E-02 6.06036E+00 0.00000E+00
 -1        69 7.73831E-02 6.90532E+00 0.00000E+00
 -1        70 5.41979E-02 7.83254E+00 0.00000E+00
 -1        71 2.87156E-02 8.85162E+00 0.00000E+00
 -1        72 5.08940E-01 2.63292E-01 0.00000E+00
 -1        73 4.94740E-01 5.34954E-01 0.00000E+00
 -1        74 4.79034E-01 8.35434E-01 0.00000E+00
 -1        75 4.61772E-01 1.16569E+00 0.00000E+00
 -1        76 4.42800E-01 1.52863E+00 0.00000E+00
 -1        77 4.21953E-01 1.92747E+00 0.00000E+00
 -1        78 3.99046E-01 2.36570E+00 0.00000E+00
 -1        79 3.73880E-01 2.84717E+00 0.00000E+00
 -1        80 3.46234E-01 3.37607E+00 0.00000E+00
 -1        81 3.15869E-01 3.95699E+00 0.00000E+00
 -1        82 2.82522E-01 4.59497E+00 0.00000E+00
 -1        83 2.45907E-01 5.29547E+00 0.00000E+00
 -1        84 2.05710E-01 6.06450E+00 0.00000E+00
 -1        85 1.61590E-01 6.90857E+00 0.00000E+00
 -1        86 1.13175E-01 7.83482E+00 0.00000E+00
 -1        87 5.99632E-02 8.85282E+00 0.00000E+00
 -1        88 8.01736E-01 2.83019E-01 0.00000E+00
 -1        89 7.79367E-01 5.54130E-01 0.00000E+00
 -1        90 7.54625E-01 8.54002E-01 0.00000E+00
 -1        91 7.27432E-01 1.18359E+00 0.00000E+00
 -1        92 6.97546E-01 1.54580E+00 0.00000E+00
 -1        93 6.64705E-01 1.94383E+00 0.00000E+00
 -1        94 6.28620E-01 2.38117E+00 0.00000E+00
 -1        95 5.88976E-01 2.86166E+00 0.00000E+00
 -1        96 5.45425E-01 3.38949E+00 0.00000E+00
 -1        97 4.97591E-01 3.96924E+00 0.00000E+00
 -1        98 4.45059E-01 4.60592E+00 0.00000E+00
 -1        99 3.87378E-01 5.30500E+00 0.00000E+00
 -1       100 3.24056E-01 6.07247E+00 0.00000E+00
 -1       101 2.54553E-01 6.91484E+00 0.00000E+00
 -1       102 1.78285E-01 7.83920E+00 0.00000E+00
 -1       103 9.44604E-02 8.85515E+00 0.00000E+00
 -1       104 1.12271E+00 3.14856E-01 0.00000E+00
 -1       105 1.09139E+00 5.85079E-01 0.00000E+00
 -1       106 1.05674E+00 8.83968E-01 0.00000E+00
 -1       107 1.01866E+00 1.21247E+00 0.00000E+00
 -1       108 9.76811E-01 1.57350E+00 0.00000E+00
 -1       109 9.30822E-01 1.97022E+00 0.00000E+00
 -1       110 8.80290E-01 2.40613E+00 0.00000E+00
 -1       111 8.24774E-01 2.88505E+00 0.00000E+00
 -1       112 7.63788E-01 3.41115E+00 0.00000E+00
 -1       113 6.96803E-01 3.98900E+00 0.00000E+00
 -1       114 6.23240E-01 4.62359E+00 0.00000E+00
 -1       115 5.42467E-01 5.32039E+00 0.00000E+00
 -1       116 4.53792E-01 6.08534E+00 0.00000E+00
 -1       117 3.56464E-01 6.92494E+00 0.00000E+00
 -1       118 2.49662E-01 7.84628E+00 0.00000E+00
 -1       119 1.32278E-01 8.85890E+00 0.00000E+00
 -1       120 1.47406E+00 3.62072E-01 0.00000E+00
 -1       121 1.43293E+00 6.30978E-01 0.00000E+00
 -1       122 1.38744E+00 9.28410E-01 0.00000E+00
 -1       123 1.33744E+00 1.25531E+00 0.00000E+00
 -1       124 1.28249E+00 1.61458E+00 0.00000E+00
 -1       125 1.22211E+00 2.00937E+00 0.00000E+00
 -1       126 1.15577E+00 2.44315E+00 0.00000E+00
 -1       127 1.08288E+00 2.91974E+00 0.00000E+00
 -1       128 1.00281E+00 3.44327E+00 0.00000E+00
 -1       129 9.14860E-01 4.01830E+00 0.00000E+00
 -1       130 8.18277E-01 4.64980E+00 0.00000E+00
 -1       131 7.12226E-01 5.34320E+00 0.00000E+00
 -1       132 5.95802E-01 6.10442E+00 0.00000E+00
 -1       133 4.68016E-01 6.93994E+00 0.00000E+00
 -1       134 3.27791E-01 7.85678E+00 0.00000E+00
 -1       135 1.73673E-01 8.86446E+00 0.00000E+00
 -1       136 1.85790E+00 4.28652E-01 0.00000E+00
 -1       137 1.80607E+00 6.95700E-01 0.00000E+00
 -1       138 1.74873E+00 9.91078E-01 0.00000E+00
 -1       139 1.68571E+00 1.31572E+00 0.00000E+00
 -1       140 1.61646E+00 1.67250E+00 0.00000E+00
 -1       141 1.54035E+00 2.06457E+00 0.00000E+00
 -1       142 1.45673E+00 2.49536E+00 0.00000E+00
 -1       143 1.36486E+00 2.96865E+00 0.00000E+00
 -1       144 1.26394E+00 3.48856E+00 0.00000E+00
 -1       145 1.15309E+00 4.05962E+00 0.00000E+00
 -1       146 1.03136E+00 4.68676E+00 0.00000E+00
 -1       147 8.97691E-01 5.37537E+00 0.00000E+00
 -1       148 7.50950E-01 6.13133E+00 0.00000E+00
 -1       149 5.89888E-01 6.96107E+00 0.00000E+00
 -1       150 4.13148E-01 7.87159E+00 0.00000E+00
 -1       151 2.18898E-01 8.87231E+00 0.00000E+00
 -1       152 2.27625E+00 5.19432E-01 0.00000E+00
 -1       153 2.21274E+00 7.83947E-01 0.00000E+00
 -1       154 2.14250E+00 1.07652E+00 0.00000E+00
 -1       155 2.06529E+00 1.39809E+00 0.00000E+00
 -1       156 1.98044E+00 1.75149E+00 0.00000E+00
 -1       157 1.88720E+00 2.13983E+00 0.00000E+00
 -1       158 1.78475E+00 2.56654E+00 0.00000E+00
 -1       159 1.67219E+00 3.03534E+00 0.00000E+00
 -1       160 1.54855E+00 3.55032E+00 0.00000E+00
 -1       161 1.41274E+00 4.11597E+00 0.00000E+00
 -1       162 1.26359E+00 4.73715E+00 0.00000E+00
 -1       163 1.09983E+00 5.41923E+00 0.00000E+00
 -1       164 9.20044E-01 6.16803E+00 0.00000E+00
 -1       165 7.22715E-01 6.98990E+00 0.00000E+00
 -1       166 5.06178E-01 7.89177E+00 0.00000E+00
 -1       167 2.68188E-01 8.88300E+00 0.00000E+00
 -1       168 2.73082E+00 6.40239E-01 0.00000E+00
 -1       169 2.65463E+00 9.01384E-01 0.00000E+00
 -1       170 2.57035E+00 1.19023E+00 0.00000E+00
 -1       171 2.47773E+00 1.50770E+00 0.00000E+00
 -1       172 2.37594E+00 1.85659E+00 0.00000E+00
 -1       173 2.26407E+00 2.23999E+00 0.00000E+00
 -1       174 2.14116E+00 2.66126E+00 0.00000E+00
 -1       175 2.00613E+00 3.12409E+00 0.00000E+00
 -1       176 1.85779E+00 3.63251E+00 0.00000E+00
 -1       177 1.69486E+00 4.19094E+00 0.00000E+00
 -1       178 1.51593E+00 4.80422E+00 0.00000E+00
 -1       179 1.31946E+00 5.47760E+00 0.00000E+00
 -1       180 1.10378E+00 6.21686E+00 0.00000E+00
 -1       181 8.67042E-01 7.02825E+00 0.00000E+00
 -1       182 6.07262E-01 7.91864E+00 0.00000E+00
 -1       183 3.21745E-01 8.89723E+00 0.00000E+00
 -1       184 3.22285E+00 7.98058E-01 0.00000E+00
 -1       185 3.13293E+00 1.05480E+00 0.00000E+00
 -1       186 3.03347E+00 1.33878E+00 0.00000E+00
 -1       187 2.92416E+00 1.65089E+00 0.00000E+00
 -1       188 2.80402E+00 1.99390E+00 0.00000E+00
 -1       189 2.67201E+00 2.37084E+00 0.00000E+00
 -1       190 2.52695E+00 2.78500E+00 0.00000E+00
 -1       191 2.36759E+00 3.24002E+00 0.00000E+00
 -1       192 2.19252E+00 3.73987E+00 0.00000E+00
 -1       193 2.00024E+00 4.28889E+00 0.00000E+00
 -1       194 1.78907E+00 4.89183E+00 0.00000E+00
 -1       195 1.55720E+00 5.55386E+00 0.00000E+00
 -1       196 1.30265E+00 6.28065E+00 0.00000E+00
 -1       197 1.02326E+00 7.07836E+00 0.00000E+00
 -1       198 7.16676E-01 7.95373E+00 0.00000E+00
 -1       199 3.79716E-01 8.91583E+00 0.00000E+00
 -1       200 3.75285E+00 1.00119E+00 0.00000E+00
 -1       201 3.64814E+00 1.25226E+00 0.00000E+00
 -1       202 3.53233E+00 1.52997E+00 0.00000E+00
 -1       203 3.40504E+00 1.83520E+00 0.00000E+00
 -1       204 3.26515E+00 2.17064E+00 0.00000E+00
 -1       205 3.11142E+00 2.53925E+00 0.00000E+00
 -1       206 2.94251E+00 2.94427E+00 0.00000E+00
 -1       207 2.75694E+00 3.38925E+00 0.00000E+00
 -1       208 2.55308E+00 3.87806E+00 0.00000E+00
 -1       209 2.32917E+00 4.41496E+00 0.00000E+00
 -1       210 2.08328E+00 5.00459E+00 0.00000E+00
 -1       211 1.81328E+00 5.65200E+00 0.00000E+00
 -1       212 1.51687E+00 6.36275E+00 0.00000E+00
 -1       213 1.19154E+00 7.14286E+00 0.00000E+00
 -1       214 8.34534E-01 7.99890E+00 0.00000E+00
 -1       215 4.42160E-01 8.93976E+00 0.00000E+00
 -1       216 4.32024E+00 1.25940E+00 0.00000E+00
 -1       217 4.19970E+00 1.50327E+00 0.00000E+00
 -1       218 4.06637E+00 1.77301E+00 0.00000E+00
 -1       219 3.91984E+00 2.06948E+00 0.00000E+00
 -1       220 3.75880E+00 2.39529E+00 0.00000E+00
 -1       221 3.58183E+00 2.75333E+00 0.00000E+00
 -1       222 3.38738E+00 3.14673E+00 0.00000E+00
 -1       223 3.17375E+00 3.57894E+00 0.00000E+00
 -1       224 2.93908E+00 4.05373E+00 0.00000E+00
 -1       225 2.68132E+00 4.57522E+00 0.00000E+00
 -1       226 2.39825E+00 5.14793E+00 0.00000E+00
 -1       227 2.08743E+00 5.77677E+00 0.00000E+00
 -1       228 1.74621E+00 6.46712E+00 0.00000E+00
 -1       229 1.37168E+00 7.22484E+00 0.00000E+00
 -1       230 9.60705E-01 8.05632E+00 0.00000E+00
 -1       231 5.09009E-01 8.97018E+00 0.00000E+00
 -1       232 4.92288E+00 1.58408E+00 0.00000E+00
 -1       233 4.78553E+00 1.81889E+00 0.00000E+00
 -1       234 4.63360E+00 2.07861E+00 0.00000E+00
 -1       235 4.46663E+00 2.36406E+00 0.00000E+00
 -1       236 4.28312E+00 2.67777E+00 0.00000E+00
 -1       237 4.08147E+00 3.02251E+00 0.00000E+00
 -1       238 3.85990E+00 3.40130E+00 0.00000E+00
 -1       239 3.61647E+00 3.81745E+00 0.00000E+00
 -1       240 3.34906E+00 4.27461E+00 0.00000E+00
 -1       241 3.05534E+00 4.77673E+00 0.00000E+00
 -1       242 2.73278E+00 5.32816E+00 0.00000E+00
 -1       243 2.37861E+00 5.93364E+00 0.00000E+00
 -1       244 1.98979E+00 6.59835E+00 0.00000E+00
 -1       245 1.56303E+00 7.32793E+00 0.00000E+00
 -1       246 1.09472E+00 8.12852E+00 0.00000E+00
 -1       247 5.80013E-01 9.00844E+00 0.00000E+00
 -1       248 5.55650E+00 1.98827E+00 0.00000E+00
 -1       249 5.40147E+00 2.21180E+00 0.00000E+00
 -1       250 5.22999E+00 2.45905E+00 0.00000E+00
 -1       251 5.04153E+00 2.73080E+00 0.00000E+00
 -1       252 4.83440E+00 3.02944E+00 0.00000E+00
 -1       253 4.60680E+00 3.35762E+00 0.00000E+00
 -1       254 4.35671E+00 3.71821E+00 0.00000E+00
 -1       255 4.08194E+00 4.11438E+00 0.00000E+00
 -1       256 3.78012E+00 4.54958E+00 0.00000E+00
 -1       257 3.44860E+00 5.02759E+00 0.00000E+00
 -1       258 3.08452E+00 5.55254E+00 0.00000E+00
 -1       259 2.68476E+00 6.12894E+00 0.00000E+00
 -1       260 2.24590E+00 6.76172E+00 0.00000E+00
 -1       261 1.76420E+00 7.45626E+00 0.00000E+00
 -1       262 1.23562E+00 8.21840E+00 0.00000E+00
 -1       263 6.54666E-01 9.05606E+00 0.00000E+00
 -1       264 6.21391E+00 2.48669E+00 0.00000E+00
 -1       265 6.04054E+00 2.69632E+00 0.00000E+00
 -1       266 5.84877E+00 2.92818E+00 0.00000E+00
 -1       267 5.63801E+00 3.18302E+00 0.00000E+00
 -1       268 5.40638E+00 3.46309E+00 0.00000E+00
 -1       269 5.15184E+00 3.77085E+00 0.00000E+00
 -1       270 4.87216E+00 4.10901E+00 0.00000E+00
 -1       271 4.56489E+00 4.48053E+00 0.00000E+00
 -1       272 4.22735E+00 4.88866E+00 0.00000E+00
 -1       273 3.85661E+00 5.33693E+00 0.00000E+00
 -1       274 3.44946E+00 5.82922E+00 0.00000E+00
 -1       275 3.00240E+00 6.36976E+00 0.00000E+00
 -1       276 2.51162E+00 6.96318E+00 0.00000E+00
 -1       277 1.97293E+00 7.61451E+00 0.00000E+00
 -1       278 1.38181E+00 8.32924E+00 0.00000E+00
 -1       279 7.32122E-01 9.11478E+00 0.00000E+00
 -1       280 6.88406E+00 3.09549E+00 0.00000E+00
 -1       281 6.69199E+00 3.28813E+00 0.00000E+00
 -1       282 6.47954E+00 3.50121E+00 0.00000E+00
 -1       283 6.24604E+00 3.73540E+00 0.00000E+00
 -1       284 5.98943E+00 3.99277E+00 0.00000E+00
 -1       285 5.70745E+00 4.27559E+00 0.00000E+00
 -1       286 5.39761E+00 4.58636E+00 0.00000E+00
 -1       287 5.05720E+00 4.92777E+00 0.00000E+00
 -1       288 4.68326E+00 5.30283E+00 0.00000E+00
 -1       289 4.27253E+00 5.71477E+00 0.00000E+00
 -1       290 3.82147E+00 6.16717E+00 0.00000E+00
 -1       291 3.32620E+00 6.66392E+00 0.00000E+00
 -1       292 2.78248E+00 7.20925E+00 0.00000E+00
 -1       293 2.18570E+00 7.80780E+00 0.00000E+00
 -1       294 1.53083E+00 8.46462E+00 0.00000E+00
 -1       295 8.11078E-01 9.18651E+00 0.00000E+00
 -1       296 7.55088E+00 3.83180E+00 0.00000E+00
 -1       297 7.34021E+00 4.00390E+00 0.00000E+00
 -1       298 7.10718E+00 4.19425E+00 0.00000E+00
 -1       299 6.85107E+00 4.40347E+00 0.00000E+00
 -1       300 6.56960E+00 4.63339E+00 0.00000E+00
 -1       301 6.26030E+00 4.88606E+00 0.00000E+00
 -1       302 5.92045E+00 5.16368E+00 0.00000E+00
 -1       303 5.54707E+00 5.46869E+00 0.00000E+00
 -1       304 5.13690E+00 5.80374E+00 0.00000E+00
 -1       305 4.68639E+00 6.17176E+00 0.00000E+00
 -1       306 4.19164E+00 6.57591E+00 0.00000E+00
 -1       307 3.64839E+00 7.01968E+00 0.00000E+00
 -1       308 3.05201E+00 7.50686E+00 0.00000E+00
 -1       309 2.39742E+00 8.04158E+00 0.00000E+00
 -1       310 1.67912E+00 8.62836E+00 0.00000E+00
 -1       311 8.89644E-01 9.27326E+00 0.00000E+00
 -1       312 8.19199E+00 4.71287E+00 0.00000E+00
 -1       313 7.96343E+00 4.86038E+00 0.00000E+00
 -1       314 7.71062E+00 5.02355E+00 0.00000E+00
 -1       315 7.43276E+00 5.20288E+00 0.00000E+00
 -1       316 7.12740E+00 5.39996E+00 0.00000E+00
 -1       317 6.79183E+00 5.61654E+00 0.00000E+00
 -1       318 6.42313E+00 5.85450E+00 0.00000E+00
 -1       319 6.01804E+00 6.11594E+00 0.00000E+00
 -1       320 5.57305E+00 6.40314E+00 0.00000E+00
 -1       321 5.08429E+00 6.71859E+00 0.00000E+00
 -1       322 4.54753E+00 7.06501E+00 0.00000E+00
 -1       323 3.95816E+00 7.44539E+00 0.00000E+00
 -1       324 3.31114E+00 7.86298E+00 0.00000E+00
 -1       325 2.60098E+00 8.32132E+00 0.00000E+00
 -1       326 1.82168E+00 8.82428E+00 0.00000E+00
 -1       327 9.65179E-01 9.37707E+00 0.00000E+00
 -1       328 8.77719E+00 5.75460E+00 0.00000E+00
 -1       329 8.53230E+00 5.87305E+00 0.00000E+00
 -1       330 8.26143E+00 6.00407E+00 0.00000E+00
 -1       331 7.96373E+00 6.14807E+00 0.00000E+00
 -1       332 7.63655E+00 6.30632E+00 0.00000E+00
 -1       333 7.27701E+00 6.48022E+00 0.00000E+00
 -1       334 6.88197E+00 6.67130E+00 0.00000E+00
 -1       335 6.44795E+00 6.88123E+00 0.00000E+00
 -1       336 5.97117E+00 7.11184E+00 0.00000E+00
 -1       337 5.44749E+00 7.36513E+00 0.00000E+00
 -1       338 4.87239E+00 7.64330E+00 0.00000E+00
 -1       339 4.24091E+00 7.94873E+00 0.00000E+00
 -1       340 3.54767E+00 8.28404E+00 0.00000E+00
 -1       341 2.78678E+00 8.65208E+00 0.00000E+00
 -1       342 1.95181E+00 9.05594E+00 0.00000E+00
 -1       343 1.03413E+00 9.49981E+00 0.00000E+00
 -1       344 9.26702E+00 6.96936E+00 0.00000E+00
 -1       345 9.00846E+00 7.05391E+00 0.00000E+00
 -1       346 8.72248E+00 7.14744E+00 0.00000E+00
 -1       347 8.40816E+00 7.25024E+00 0.00000E+00
 -1       348 8.06272E+00 7.36321E+00 0.00000E+00
 -1       349 7.68312E+00 7.48735E+00 0.00000E+00
 -1       350 7.26603E+00 7.62375E+00 0.00000E+00
 -1       351 6.80779E+00 7.77361E+00 0.00000E+00
 -1       352 6.30440E+00 7.93824E+00 0.00000E+00
 -1       353 5.75150E+00 8.11906E+00 0.00000E+00
 -1       354 5.14430E+00 8.31763E+00 0.00000E+00
 -1       355 4.47759E+00 8.53567E+00 0.00000E+00
 -1       356 3.74566E+00 8.77504E+00 0.00000E+00
 -1       357 2.94230E+00 9.03776E+00 0.00000E+00
 -1       358 2.06074E+00 9.32607E+00 0.00000E+00
 -1       359 1.09184E+00 9.64293E+00 0.00000E+00
 -1       360 9.61243E+00 8.36789E+00 0.00000E+00
 -1       361 9.34423E+00 8.41343E+00 0.00000E+00
 -1       362 9.04759E+00 8.46380E+00 0.00000E+00
 -1       363 8.72155E+00 8.51916E+00 0.00000E+00
 -1       364 8.36324E+00 8.57999E+00 0.00000E+00
 -1       365 7.96949E+00 8.64685E+00 0.00000E+00
 -1       366 7.53685E+00 8.72031E+00 0.00000E+00
 -1       367 7.06153E+00 8.80101E+00 0.00000E+00
 -1       368 6.53938E+00 8.88967E+00 0.00000E+00
 -1       369 5.96587E+00 8.98705E+00 0.00000E+00
 -1       370 5.33604E+00 9.09399E+00 0.00000E+00
 -1       371 4.64448E+00 9.21141E+00 0.00000E+00
 -1       372 3.88527E+00 9.34031E+00 0.00000E+00
 -1       373 3.05197E+00 9.48180E+00 0.00000E+00
 -1       374 2.13755E+00 9.63706E+00 0.00000E+00
 -1       375 1.13253E+00 9.80770E+00 0.00000E+00
 -1       376 4.00000E+01 0.00000E+00 0.00000E+00
 -1       377 0.00000E+00 0.00000E+00 0.00000E+00
 -1       378 0.00000E+00-2.00000E+01 0.00000E+00
 -1       379 4.00000E+01-2.00000E+01 0.00000E+00
 -1       381 3.59299E+01 0.00000E+00 0.00000E+00
 -1       382 3.21866E+01 0.00000E+00 0.00000E+00
 -1       383 2.87886E+01 0.00000E+00 0.00000E+00
 -1       384 2.57024E+01 0.00000E+00 0.00000E+00
 -1       385 2.28994E+01 0.00000E+00 0.00000E+00
 -1       386 2.03532E+01 0.00000E+00 0.00000E+00
 -1       387 1.80402E+01 0.00000E+00 0.00000E+00
 -1       388 1.59389E+01 0.00000E+00 0.00000E+00
 -1       389 1.40298E+01 0.00000E+00 0.00000E+00
 -1       390 1.22952E+01 0.00000E+00 0.00000E+00
 -1       391 1.07191E+01 0.00000E+00 0.00000E+00
 -1       392 9.28699E+00 0.00000E+00 0.00000E+00
 -1       393 7.98558E+00 0.00000E+00 0.00000E+00
 -1       394 6.80292E+00 0.00000E+00 0.00000E+00
 -1       395 5.72816E+00 0.00000E+00 0.00000E+00
 -1       396 4.75140E+00 0.00000E+00 0.00000E+00
 -1       397 3.86370E+00 0.00000E+00 0.00000E+00
 -1       398 3.05691E+00 0.00000E+00 0.00000E+00
 -1       399 2.32364E+00 0.00000E+00 0.00000E+00
 -1       400 1.65717E+00 0.00000E+00 0.00000E+00
 -1       401 1.05141E+00 0.00000E+00 0.00000E+00
 -1       402 5.00000E-01 0.00000E+00 0.00000E+00
 -1       403 0.00000E+00-5.00000E-01 0.00000E+00
 -1       404 0.00000E+00-1.04407E+00 0.00000E+00
 -1       405 0.00000E+00-1.64585E+00 0.00000E+00
 -1       406 0.00000E+00-2.30726E+00 0.00000E+00
 -1       407 0.00000E+00-3.03414E+00 0.00000E+00
 -1       408 0.00000E+00-3.83290E+00 0.00000E+00
 -1       409 0.00000E+00-4.71056E+00 0.00000E+00
 -1       410 0.00000E+00-5.67481E+00 0.00000E+00
 -1       411 0.00000E+00-6.73405E+00 0.00000E+00
 -1       412 0.00000E+00-7.89749E+00 0.00000E+00
 -1       413 0.00000E+00-9.17518E+00 0.00000E+00
 -1       414 0.00000E+00-1.05781E+01 0.00000E+00
 -1       415 0.00000E+00-1.21182E+01 0.00000E+00
 -1       416 0.00000E+00-1.38087E+01 0.00000E+00
 -1       417 0.00000E+00-1.56637E+01 0.00000E+00
 -1       418 0.00000E+00-1.77025E+01 0.00000E+00
 -1       419 5.00000E-01-2.00000E+01 0.00000E+00
 -1       420 1.05141E+00-2.00000E+01 0.00000E+00
 -1       421 1.65717E+00-2.00000E+01 0.00000E+00
 -1       422 2.32364E+00-2.00000E+01 0.00000E+00
 -1       423 3.05691E+00-2.00000E+01 0.00000E+00
 -1       424 3.86370E+00-2.00000E+01 0.00000E+00
 -1       425 4.75140E+00-2.00000E+01 0.00000E+00
 -1       426 5.72816E+00-2.00000E+01 0.00000E+00
 -1       427 6.80292E+00-2.00000E+01 0.00000E+00
 -1       428 7.98558E+00-2.00000E+01 0.00000E+00
 -1       429 9.28699E+00-2.00000E+01 0.00000E+00
 -1       430 1.07191E+01-2.00000E+01 0.00000E+00
 -1       431 1.22952E+01-2.00000E+01 0.00000E+00
 -1       432 1.40298E+01-2.00000E+01 0.00000E+00
 -1       433 1.59389E+01-2.00000E+01 0.00000E+00
 -1       434 1.80402E+01-2.00000E+01 0.00000E+00
 -1       435 2.03532E+01-2.00000E+01 0.00000E+00
 -1       436 2.28994E+01-2.00000E+01 0.00000E+00
 -1       437 2.57024E+01-2.00000E+01 0.00000E+00
 -1       438 2.87886E+01-2.00000E+01 0.00000E+00
 -1       439 3.21866E+01-2.00000E+01 0.00000E+00
 -1       440 3.59299E+01-2.00000E+01 0.00000E+00
 -1       441 4.00000E+01-1.77025E+01 0.00000E+00
 -1       442 4.00000E+01-1.56637E+01 0.00000E+00
 -1       443 4.00000E+01-1.38087E+01 0.00000E+00
 -1       444 4.00000E+01-1.21182E+01 0.00000E+00
 -1       445 4.00000E+01-1.05781E+01 0.00000E+00
 -1       446 4.00000E+01-9.17518E+00 0.00000E+00
 -1       447 4.00000E+01-7.89749E+00 0.00000E+00
 -1       448 4.00000E+01-6.73405E+00 0.00000E+00
 -1       449 4.00000E+01-5.67481E+00 0.00000E+00
 -1       450 4.00000E+01-4.71056E+00 0.00000E+00
 -1       451 4.00000E+01-3.83290E+00 0.00000E+00
 -1       452 4.00000E+01-3.03414E+00 0.00000E+00
 -1       453 4.00000E+01-2.30726E+00 0.00000E+00
 -1       454 4.00000E+01-1.64585E+00 0.00000E+00
 -1       455 4.00000E+01-1.04407E+00 0.00000E+00
 -1       456 4.00000E+01-5.00000E-01 0.00000E+00
 -1       457 3.59299E+01-5.00000E-01 0.00000E+00
 -1       458 3.59299E+01-1.04407E+00 0.00000E+00
 -1       459 3.59299E+01-1.64585E+00 0.00000E+00
 -1       460 3.59299E+01-2.30726E+00 0.00000E+00
 -1       461 3.59299E+01-3.03414E+00 0.00000E+00
 -1       462 3.59299E+01-3.83290E+00 0.00000E+00
 -1       463 3.59299E+01-4.71056E+00 0.00000E+00
 -1       464 3.59299E+01-5.67481E+00 0.00000E+00
 -1       465 3.59299E+01-6.73405E+00 0.00000E+00
 -1       466 3.59299E+01-7.89749E+00 0.00000E+00
 -1       467 3.59299E+01-9.17518E+00 0.00000E+00
 -1       468 3.59299E+01-1.05781E+01 0.00000E+00
 -1       469 3.59299E+01-1.21182E+01 0.00000E+00
 -1       470 3.59299E+01-1.38087E+01 0.00000E+00
 -1       471 3.59299E+01-1.56637E+01 0.00000E+00
 -1       472 3.59299E+01-1.77025E+01 0.00000E+00
 -1       473 3.21866E+01-5.00000E-01 0.00000E+00
 -1       474 3.21866E+01-1.04407E+00 0.00000E+00
 -1       475 3.21866E+01-1.64585E+00 0.00000E+00
 -1       476 3.21866E+01-2.30726E+00 0.00000E+00
 -1       477 3.21866E+01-3.03414E+00 0.00000E+00
 -1       478 3.21866E+01-3.83290E+00 0.00000E+00
 -1       479 3.21866E+01-4.71056E+00 0.00000E+00
 -1       480 3.21866E+01-5.67481E+00 0.00000E+00
 -1       481 3.21866E+01-6.73405E+00 0.00000E+00
 -1       482 3.21866E+01-7.89749E+00 0.00000E+00
 -1       483 3.21866E+01-9.17518E+00 0.00000E+00
 -1       484 3.21866E+01-1.05781E+01 0.00000E+00
 -1       485 3.21866E+01-1.21182E+01 0.00000E+00
 -1       486 3.21866E+01-1.38087E+01 0.00000E+00
 -1       487 3.21866E+01-1.56637E+01 0.00000E+00
 -1       488 3.21866E+01-1.77025E+01 0.00000E+00
 -1       489 2.87886E+01-5.00000E-01 0.00000E+00
 -1       490 2.87886E+01-1.04407E+00 0.00000E+00
 -1       491 2.87886E+01-1.64585E+00 0.00000E+00
 -1       492 2.87886E+01-2.30726E+00 0.00000E+00
 -1       493 2.87886E+01-3.03414E+00 0.00000E+00
 -1       494 2.87886E+01-3.83290E+00 0.00000E+00
 -1       495 2.87886E+01-4.71056E+00 0.00000E+00
 -1       496 2.87886E+01-5.67481E+00 0.00000E+00
 -1       497 2.87886E+01-6.73405E+00 0.00000E+00
 -1       498 2.87886E+01-7.89749E+00 0.00000E+00
 -1       499 2.87886E+01-9.17518E+00 0.00000E+00
 -1       500 2.87886E+01-1.05781E+01 0.00000E+00
 -1       501 2.87886E+01-1.21182E+01 0.00000E+00
 -1       502 2.87886E+01-1.38087E+01 0.00000E+00
 -1       503 2.87886E+01-1.56637E+01 0.00000E+00
 -1       504 2.87886E+01-1.77025E+01 0.00000E+00
 -1       505 2.57024E+01-5.00000E-01 0.00000E+00
 -1       506 2.57024E+01-1.04407E+00 0.00000E+00
 -1       507 2.57024E+01-1.64585E+00 0.00000E+00
 -1       508 2.57024E+01-2.30726E+00 0.00000E+00
 -1       509 2.57024E+01-3.03414E+00 0.00000E+00
 -1       510 2.57024E+01-3.83290E+00 0.00000E+00
 -1       511 2.57024E+01-4.71056E+00 0.00000E+00
 -1       512 2.57024E+01-5.67481E+00 0.00000E+00
 -1       513 2.57024E+01-6.73405E+00 0.00000E+00
 -1       514 2.57024E+01-7.89749E+00 0.00000E+00
 -1       515 2.57024E+01-9.17518E+00 0.00000E+00
 -1       516 2.57024E+01-1.05781E+01 0.00000E+00
 -1       517 2.57024E+01-1.21182E+01 0.00000E+00
 -1       518 2.57024E+01-1.38087E+01 0.00000E+00
 -1       519 2.57024E+01-1.56637E+01 0.00000E+00
 -1       520 2.57024E+01-1.77025E+01 0.00000E+00
 -1       521 2.28994E+01-5.00000E-01 0.00000E+00
 -1       522 2.28994E+01-1.04407E+00 0.00000E+00
 -1       523 2.28994E+01-1.64585E+00 0.00000E+00
 -1       524 2.28994E+01-2.30726E+00 0.00000E+00
 -1       525 2.28994E+01-3.03414E+00 0.00000E+00
 -1       526 2.28994E+01-3.83290E+00 0.00000E+00
 -1       527 2.28994E+01-4.71056E+00 0.00000E+00
 -1       528 2.28994E+01-5.67481E+00 0.00000E+00
 -1       529 2.28994E+01-6.73405E+00 0.00000E+00
 -1       530 2.28994E+01-7.89749E+00 0.00000E+00
 -1       531 2.28994E+01-9.17518E+00 0.00000E+00
 -1       532 2.28994E+01-1.05781E+01 0.00000E+00
 -1       533 2.28994E+01-1.21182E+01 0.00000E+00
 -1       534 2.28994E+01-1.38087E+01 0.00000E+00
 -1       535 2.28994E+01-1.56637E+01 0.00000E+00
 -1       536 2.28994E+01-1.77025E+01 0.00000E+00
 -1       537 2.03532E+01-5.00000E-01 0.00000E+00
 -1       538 2.03532E+01-1.04407E+00 0.00000E+00
 -1       539 2.03532E+01-1.64585E+00 0.00000E+00
 -1       540 2.03532E+01-2.30726E+00 0.00000E+00
 -1       541 2.03532E+01-3.03414E+00 0.00000E+00
 -1       542 2.03532E+01-3.83290E+00 0.00000E+00
 -1       543 2.03532E+01-4.71056E+00 0.00000E+00
 -1       544 2.03532E+01-5.67481E+00 0.00000E+00
 -1       545 2.03532E+01-6.73405E+00 0.00000E+00
 -1       546 2.03532E+01-7.89749E+00 0.00000E+00
 -1       547 2.03532E+01-9.17518E+00 0.00000E+00
 -1       548 2.03532E+01-1.05781E+01 0.00000E+00
 -1       549 2.03532E+01-1.21182E+01 0.00000E+00
 -1       550 2.03532E+01-1.38087E+01 0.00000E+00
 -1       551 2.03532E+01-1.56637E+01 0.00000E+00
 -1       552 2.03532E+01-1.77025E+01 0.00000E+00
 -1       553 1.80402E+01-5.00000E-01 0.00000E+00
 -1       554 1.80402E+01-1.04407E+00 0.00000E+00
 -1       555 1.80402E+01-1.64585E+00 0.00000E+00
 -1       556 1.80402E+01-2.30726E+00 0.00000E+00
 -1       557 1.80402E+01-3.03414E+00 0.00000E+00
 -1       558 1.80402E+01-3.83290E+00 0.00000E+00
 -1       559 1.80402E+01-4.71056E+00 0.00000E+00
 -1       560 1.80402E+01-5.67481E+00 0.00000E+00
 -1       561 1.80402E+01-6.73405E+00 0.00000E+00
 -1       562 1.80402E+01-7.89749E+00 0.00000E+00
 -1       563 1.80402E+01-9.17518E+00 0.00000E+00
 -1       564 1.80402E+01-1.05781E+01 0.00000E+00
 -1       565 1.80402E+01-1.21182E+01 0.00000E+00
 -1       566 1.80402E+01-1.38087E+01 0.00000E+00
 -1       567 1.80402E+01-1.56637E+01 0.00000E+00
 -1       568 1.80402E+01-1.77025E+01 0.00000E+00
 -1       569 1.59389E+01-5.00000E-01 0.00000E+00
 -1       570 1.59389E+01-1.04407E+00 0.00000E+00
 -1       571 1.59389E+01-1.64585E+00 0.00000E+00
 -1       572 1.59389E+01-2.30726E+00 0.00000E+00
 -1       573 1.59389E+01-3.03414E+00 0.00000E+00
 -1       574 1.59389E+01-3.83290E+00 0.00000E+00
 -1       575 1.59389E+01-4.71056E+00 0.00000E+00
 -1       576 1.59389E+01-5.67481E+00 0.00000E+00
 -1       577 1.59389E+01-6.73405E+00 0.00000E+00
 -1       578 1.59389E+01-7.89749E+00 0.00000E+00
 -1       579 1.59389E+01-9.17518E+00 0.00000E+00
 -1       580 1.59389E+01-1.05781E+01 0.00000E+00
 -1       581 1.59389E+01-1.21182E+01 0.00000E+00
 -1       582 1.59389E+01-1.38087E+01 0.00000E+00
 -1       583 1.59389E+01-1.56637E+01 0.00000E+00
 -1       584 1.59389E+01-1.77025E+01 0.00000E+00
 -1       585 1.40298E+01-5.00000E-01 0.00000E+00
 -1       586 1.40298E+01-1.04407E+00 0.00000E+00
 -1       587 1.40298E+01-1.64585E+00 0.00000E+00
 -1       588 1.40298E+01-2.30726E+00 0.00000E+00
 -1       589 1.40298E+01-3.03414E+00 0.00000E+00
 -1       590 1.40298E+01-3.83290E+00 0.00000E+00
 -1       591 1.40298E+01-4.71056E+00 0.00000E+00
 -1       592 1.40298E+01-5.67481E+00 0.00000E+00
 -1       593 1.40298E+01-6.73405E+00 0.00000E+00
 -1       594 1.40298E+01-7.89749E+00 0.00000E+00
 -1       595 1.40298E+01-9.17518E+00 0.00000E+00
 -1       596 1.40298E+01-1.05781E+01 0.00000E+00
 -1       597 1.40298E+01-1.21182E+01 0.00000E+00
 -1       598 1.40298E+01-1.38087E+01 0.00000E+00
 -1       599 1.40298E+01-1.56637E+01 0.00000E+00
 -1       600 1.40298E+01-1.77025E+01 0.00000E+00
 -1       601 1.22952E+01-5.00000E-01 0.00000E+00
 -1       602 1.22952E+01-1.04407E+00 0.00000E+00
 -1       603 1.22952E+01-1.64585E+00 0.00000E+00
 -1       604 1.22952E+01-2.30726E+00 0.00000E+00
 -1       605 1.22952E+01-3.03414E+00 0.00000E+00
 -1       606 1.22952E+01-3.83290E+00 0.00000E+00
 -1       607 1.22952E+01-4.71056E+00 0.00000E+00
 -1       608 1.22952E+01-5.67481E+00 0.00000E+00
 -1       609 1.22952E+01-6.73405E+00 0.00000E+00
 -1       610 1.22952E+01-7.89749E+00 0.00000E+00
 -1       611 1.22952E+01-9.17518E+00 0.00000E+00
 -1       612 1.22952E+01-1.05781E+01 0.00000E+00
 -1       613 1.22952E+01-1.21182E+01 0.00000E+00
 -1       614 1.22952E+01-1.38087E+01 0.00000E+00
 -1       615 1.22952E+01-1.56637E+01 0.00000E+00
 -1       616 1.22952E+01-1.77025E+01 0.00000E+00
 -1       617 1.07191E+01-5.00000E-01 0.00000E+00
 -1       618 1.07191E+01-1.04407E+00 0.00000E+00
 -1       619 1.07191E+01-1.64585E+00 0.00000E+00
 -1       620 1.07191E+01-2.30726E+00 0.00000E+00
 -1       621 1.07191E+01-3.03414E+00 0.00000E+00
 -1       622 1.07191E+01-3.83290E+00 0.00000E+00
 -1       623 1.07191E+01-4.71056E+00 0.00000E+00
 -1       624 1.07191E+01-5.67481E+00 0.00000E+00
 -1       625 1.07191E+01-6.73405E+00 0.00000E+00
 -1       626 1.07191E+01-7.89749E+00 0.00000E+00
 -1       627 1.07191E+01-9.17518E+00 0.00000E+00
 -1       628 1.07191E+01-1.05781E+01 0.00000E+00
 -1       629 1.07191E+01-1.21182E+01 0.00000E+00
 -1       630 1.07191E+01-1.38087E+01 0.00000E+00
 -1       631 1.07191E+01-1.56637E+01 0.00000E+00
 -1       632 1.07191E+01-1.77025E+01 0.00000E+00
 -1       633 9.28699E+00-5.00000E-01 0.00000E+00
 -1       634 9.28699E+00-1.04407E+00 0.00000E+00
 -1       635 9.28699E+00-1.64585E+00 0.00000E+00
 -1       636 9.28699E+00-2.30726E+00 0.00000E+00
 -1       637 9.28699E+00-3.03414E+00 0.00000E+00
 -1       638 9.28699E+00-3.83290E+00 0.00000E+00
 -1       639 9.28699E+00-4.71056E+00 0.00000E+00
 -1       640 9.28699E+00-5.67481E+00 0.00000E+00
 -1       641 9.28699E+00-6.73405E+00 0.00000E+00
 -1       642 9.28699E+00-7.89749E+00 0.00000E+00
 -1       643 9.28699E+00-9.17518E+00 0.00000E+00
 -1       644 9.28699E+00-1.05781E+01 0.00000E+00
 -1       645 9.28699E+00-1.21182E+01 0.00000E+00
 -1       646 9.28699E+00-1.38087E+01 0.00000E+00
 -1       647 9.28699E+00-1.56637E+01 0.00000E+00
 -1       648 9.28699E+00-1.77025E+01 0.00000E+00
 -1       649 7.98558E+00-5.00000E-01 0.00000E+00
 -1       650 7.98558E+00-1.04407E+00 0.00000E+00
 -1       651 7.98558E+00-1.64585E+00 0.00000E+00
 -1       652 7.98558E+00-2.30726E+00 0.00000E+00
 -1       653 7.98558E+00-3.03414E+00 0.00000E+00
 -1       654 7.98558E+00-3.83290E+00 0.00000E+00
 -1       655 7.98558E+00-4.71056E+00 0.00000E+00
 -1       656 7.98558E+00-5.67481E+00 0.00000E+00
 -1       657 7.98558E+00-6.73405E+00 0.00000E+00
 -1       658 7.98558E+00-7.89749E+00 0.00000E+00
 -1       659 7.98558E+00-9.17518E+00 0.00000E+00
 -1       660 7.98558E+00-1.05781E+01 0.00000E+00
 -1       661 7.98558E+00-1.21182E+01 0.00000E+00
 -1       662 7.98558E+00-1.38087E+01 0.00000E+00
 -1       663 7.98558E+00-1.56637E+01 0.00000E+00
 -1       664 7.98558E+00-1.77025E+01 0.00000E+00
 -1       665 6.80292E+00-5.00000E-01 0.00000E+00
 -1       666 6.80292E+00-1.04407E+00 0.00000E+00
 -1       667 6.80292E+00-1.64585E+00 0.00000E+00
 -1       668 6.80292E+00-2.30726E+00 0.00000E+00
 -1       669 6.80292E+00-3.03414E+00 0.00000E+00
 -1       670 6.80292E+00-3.83290E+00 0.00000E+00
 -1       671 6.80292E+00-4.71056E+00 0.00000E+00
 -1       672 6.80292E+00-5.67481E+00 0.00000E+00
 -1       673 6.80292E+00-6.73405E+00 0.00000E+00
 -1       674 6.80292E+00-7.89749E+00 0.00000E+00
 -1       675 6.80292E+00-9.17518E+00 0.00000E+00
 -1       676 6.80292E+00-1.05781E+01 0.00000E+00
 -1       677 6.80292E+00-1.21182E+01 0.00000E+00
 -1       678 6.80292E+00-1.38087E+01 0.00000E+00
 -1       679 6.80292E+00-1.56637E+01 0.00000E+00
 -1       680 6.80292E+00-1.77025E+01 0.00000E+00
 -1       681 5.72816E+00-5.00000E-01 0.00000E+00
 -1       682 5.72816E+00-1.04407E+00 0.00000E+00
 -1       683 5.72816E+00-1.64585E+00 0.00000E+00
 -1       684 5.72816E+00-2.30726E+00 0.00000E+00
 -1       685 5.72816E+00-3.03414E+00 0.00000E+00
 -1       686 5.72816E+00-3.83290E+00 0.00000E+00
 -1       687 5.72816E+00-4.71056E+00 0.00000E+00
 -1       688 5.72816E+00-5.67481E+00 0.00000E+00
 -1       689 5.72816E+00-6.73405E+00 0.00000E+00
 -1       690 5.72816E+00-7.89749E+00 0.00000E+00
 -1       691 5.72816E+00-9.17518E+00 0.00000E+00
 -1       692 5.72816E+00-1.05781E+01 0.00000E+00
 -1       693 5.72816E+00-1.21182E+01 0.00000E+00
 -1       694 5.72816E+00-1.38087E+01 0.00000E+00
 -1       695 5.72816E+00-1.56637E+01 0.00000E+00
 -1       696 5.72816E+00-1.77025E+01 0.00000E+00
 -1       697 4.75140E+00-5.00000E-01 0.00000E+00
 -1       698 4.75140E+00-1.04407E+00 0.00000E+00
 -1       699 4.75140E+00-1.64585E+00 0.00000E+00
 -1       700 4.75140E+00-2.30726E+00 0.00000E+00
 -1       701 4.75140E+00-3.03414E+00 0.00000E+00
 -1       702 4.75140E+00-3.83290E+00 0.00000E+00
 -1       703 4.75140E+00-4.71056E+00 0.00000E+00
 -1       704 4.75140E+00-5.67481E+00 0.00000E+00
 -1       705 4.75140E+00-6.73405E+00 0.00000E+00
 -1       706 4.75140E+00-7.89749E+00 0.00000E+00
 -1       707 4.75140E+00-9.17518E+00 0.00000E+00
 -1       708 4.75140E+00-1.05781E+01 0.00000E+00
 -1       709 4.75140E+00-1.21182E+01 0.00000E+00
 -1       710 4.75140E+00-1.38087E+01 0.00000E+00
 -1       711 4.75140E+00-1.56637E+01 0.00000E+00
 -1       712 4.75140E+00-1.77025E+01 0.00000E+00
 -1       713 3.86370E+00-5.00000E-01 0.00000E+00
 -1       714 3.86370E+00-1.04407E+00 0.00000E+00
 -1       715 3.86370E+00-1.64585E+00 0.00000E+00
 -1       716 3.86370E+00-2.30726E+00 0.00000E+00
 -1       717 3.86370E+00-3.03414E+00 0.00000E+00
 -1       718 3.86370E+00-3.83290E+00 0.00000E+00
 -1       719 3.86370E+00-4.71056E+00 0.00000E+00
 -1       720 3.86370E+00-5.67481E+00 0.00000E+00
 -1       721 3.86370E+00-6.73405E+00 0.00000E+00
 -1       722 3.86370E+00-7.89749E+00 0.00000E+00
 -1       723 3.86370E+00-9.17518E+00 0.00000E+00
 -1       724 3.86370E+00-1.05781E+01 0.00000E+00
 -1       725 3.86370E+00-1.21182E+01 0.00000E+00
 -1       726 3.86370E+00-1.38087E+01 0.00000E+00
 -1       727 3.86370E+00-1.56637E+01 0.00000E+00
 -1       728 3.86370E+00-1.77025E+01 0.00000E+00
 -1       729 3.05691E+00-5.00000E-01 0.00000E+00
 -1       730 3.05691E+00-1.04407E+00 0.00000E+00
 -1       731 3.05691E+00-1.64585E+00 0.00000E+00
 -1       732 3.05691E+00-2.30726E+00 0.00000E+00
 -1       733 3.05691E+00-3.03414E+00 0.00000E+00
 -1       734 3.05691E+00-3.83290E+00 0.00000E+00
 -1       735 3.05691E+00-4.71056E+00 0.00000E+00
 -1       736 3.05691E+00-5.67481E+00 0.00000E+00
 -1       737 3.05691E+00-6.73405E+00 0.00000E+00
 -1       738 3.05691E+00-7.89749E+00 0.00000E+00
 -1       739 3.05691E+00-9.17518E+00 0.00000E+00
 -1       740 3.05691E+00-1.05781E+01 0.00000E+00
 -1       741 3.05691E+00-1.21182E+01 0.00000E+00
 -1       742 3.05691E+00-1.38087E+01 0.00000E+00
 -1       743 3.05691E+00-1.56637E+01 0.00000E+00
 -1       744 3.05691E+00-1.77025E+01 0.00000E+00
 -1       745 2.32364E+00-5.00000E-01 0.00000E+00
 -1       746 2.32364E+00-1.04407E+00 0.00000E+00
 -1       747 2.32364E+00-1.64585E+00 0.00000E+00
 -1       748 2.32364E+00-2.30726E+00 0.00000E+00
 -1       749 2.32364E+00-3.03414E+00 0.00000E+00
 -1       750 2.32364E+00-3.83290E+00 0.00000E+00
 -1       751 2.32364E+00-4.71056E+00 0.00000E+00
 -1       752 2.32364E+00-5.67481E+00 0.00000E+00
 -1       753 2.32364E+00-6.73405E+00 0.00000E+00
 -1       754 2.32364E+00-7.89749E+00 0.00000E+00
 -1       755 2.32364E+00-9.17518E+00 0.00000E+00
 -1       756 2.32364E+00-1.05781E+01 0.00000E+00
 -1       757 2.32364E+00-1.21182E+01 0.00000E+00
 -1       758 2.32364E+00-1.38087E+01 0.00000E+00
 -1       759 2.32364E+00-1.56637E+01 0.00000E+00
 -1       760 2.32364E+00-1.77025E+01 0.00000E+00
 -1       761 1.65717E+00-5.00000E-01 0.00000E+00
 -1       762 1.65717E+00-1.04407E+00 0.00000E+00
 -1       763 1.65717E+00-1.64585E+00 0.00000E+00
 -1       764 1.65717E+00-2.30726E+00 0.00000E+00
 -1       765 1.65717E+00-3.03414E+00 0.00000E+00
 -1       766 1.65717E+00-3.83290E+00 0.00000E+00
 -1       767 1.65717E+00-4.71056E+00 0.00000E+00
 -1       768 1.65717E+00-5.67481E+00 0.00000E+00
 -1       769 1.65717E+00-6.73405E+00 0.00000E+00
 -1       770 1.65717E+00-7.89749E+00 0.00000E+00
 -1       771 1.65717E+00-9.17518E+00 0.00000E+00
 -1       772 1.65717E+00-1.05781E+01 0.00000E+00
 -1       773 1.65717E+00-1.21182E+01 0.00000E+00
 -1       774 1.65717E+00-1.38087E+01 0.00000E+00
 -1       775 1.65717E+00-1.56637E+01 0.00000E+00
 -1       776 1.65717E+00-1.77025E+01 0.00000E+00
 -1       777 1.05141E+00-5.00000E-01 0.00000E+00
 -1       778 1.05141E+00-1.04407E+00 0.00000E+00
 -1       779 1.05141E+00-1.64585E+00 0.00000E+00
 -1       780 1.05141E+00-2.30726E+00 0.00000E+00
 -1       781 1.05141E+00-3.03414E+00 0.00000E+00
 -1       782 1.05141E+00-3.83290E+00 0.00000E+00
 -1       783 1.05141E+00-4.71056E+00 0.00000E+00
 -1       784 1.05141E+00-5.67481E+00 0.00000E+00
 -1       785 1.05141E+00-6.73405E+00 0.00000E+00
 -1       786 1.05141E+00-7.89749E+00 0.00000E+00
 -1       787 1.05141E+00-9.17518E+00 0.00000E+00
 -1       788 1.05141E+00-1.05781E+01 0.00000E+00
 -1       789 1.05141E+00-1.21182E+01 0.00000E+00
 -1       790 1.05141E+00-1.38087E+01 0.00000E+00
 -1       791 1.05141E+00-1.56637E+01 0.00000E+00
 -1       792 1.05141E+00-1.77025E+01 0.00000E+00
 -1       793 5.00000E-01-5.00000E-01 0.00000E+00
 -1       794 5.00000E-01-1.04407E+00 0.00000E+00
 -1       795 5.00000E-01-1.64585E+00 0.00000E+00
 -1       796 5.00000E-01-2.30726E+00 0.00000E+00
 -1       797 5.00000E-01-3.03414E+00 0.00000E+00
 -1       798 5.00000E-01-3.83290E+00 0.00000E+00
 -1       799 5.00000E-01-4.71056E+00 0.00000E+00
 -1       800 5.00000E-01-5.67481E+00 0.00000E+00
 -1       801 5.00000E-01-6.73405E+00 0.00000E+00
 -1       802 5.00000E-01-7.89749E+00 0.00000E+00
 -1       803 5.00000E-01-9.17518E+00 0.00000E+00
 -1       804 5.00000E-01-1.05781E+01 0.00000E+00
 -1       805 5.00000E-01-1.21182E+01 0.00000E+00
 -1       806 5.00000E-01-1.38087E+01 0.00000E+00
 -1       807 5.00000E-01-1.56637E+01 0.00000E+00
 -1       808 5.00000E-01-1.77025E+01 0.00000E+00
 -3
    3C                           748                                     1
 -1         1    9    0    1
 -2         1         3        56        40
 -1         2    9    0    1
 -2        40        56        57        41
 -1         3    9    0    1
 -2        41        57        58        42
 -1         4    9    0    1
 -2        42        58        59        43
 -1         5    9    0    1
 -2        43        59        60        44
 -1         6    9    0    1
 -2        44        60        61        45
 -1         7    9    0    1
 -2        45        61        62        46
 -1         8    9    0    1
 -2        46        62        63        47
 -1         9    9    0    1
 -2        47        63        64        48
 -1        10    9    0    1
 -2        48        64        65        49
 -1        11    9    0    1
 -2        49        65        66        50
 -1        12    9    0    1
 -2        50        66        67        51
 -1        13    9    0    1
 -2        51        67        68        52
 -1        14    9    0    1
 -2        52        68        69        53
 -1        15    9    0    1
 -2        53        69        70        54
 -1        16    9    0    1
 -2        54        70        71        55
 -1        17    7    0    1
 -2        55        71        39
 -1        18    9    0    1
 -2         3         4        72        56
 -1        19    9    0    1
 -2        56        72        73        57
 -1        20    9    0    1
 -2        57        73        74        58
 -1        21    9    0    1
 -2        58        74        75        59
 -1        22    9    0    1
 -2        59        75        76        60
 -1        23    9    0    1
 -2        60        76        77        61
 -1        24    9    0    1
 -2        61        77        78        62
 -1        25    9    0    1
 -2        62        78        79        63
 -1        26    9    0    1
 -2        63        79        80        64
 -1        27    9    0    1
 -2        64        80        81        65
 -1        28    9    0    1
 -2        65        81        82        66
 -1        29    9    0    1
 -2        66        82        83        67
 -1        30    9    0    1
 -2        67        83        84        68
 -1        31    9    0    1
 -2        68        84        85        69
 -1        32    9    0    1
 -2        69        85        86        70
 -1        33    9    0    1
 -2        70        86        87        71
 -1        34    7    0    1
 -2        71        87        39
 -1        35    9    0    1
 -2         4         5        88        72
 -1        36    9    0    1
 -2        72        88        89        73
 -1        37    9    0    1
 -2        73        89        90        74
 -1        38    9    0    1
 -2        74        90        91        75
 -1        39    9    0    1
 -2        75        91        92        76
 -1        40    9    0    1
 -2        76        92        93        77
 -1        41    9    0    1
 -2        77        93        94        78
 -1        42    9    0    1
 -2        78        94        95        79
 -1        43    9    0    1
 -2        79        95        96        80
 -1        44    9    0    1
 -2        80        96        97        81
 -1        45    9    0    1
 -2        81        97        98        82
 -1        46    9    0    1
 -2        82        98        99        83
 -1        47    9    0    1
 -2        83        99       100        84
 -1        48    9    0    1
 -2        84       100       101        85
 -1        49    9    0    1
 -2        85       101       102        86
 -1        50    9    0    1
 -2        86       102       103        87
 -1        51    7    0    1
 -2        87       103        39
 -1        52    9    0    1
 -2         5         6       104        88
 -1        53    9    0    1
 -2        88       104       105        89
 -1        54    9    0    1
 -2        89       105       106        90
 -1        55    9    0    1
 -2        90       106       107        91
 -1        56    9    0    1
 -2        91       107       108        92
 -1        57    9    0    1
 -2        92       108       109        93
 -1        58    9    0    1
 -2        93       109       110        94
 -1        59    9    0    1
 -2        94       110       111        95
 -1        60    9    0    1
 -2        95       111       112        96
 -1        61    9    0    1
 -2        96       112       113        97
 -1        62    9    0    1
 -2        97       113       114        98
 -1        63    9    0    1
 -2        98       114       115        99
 -1        64    9    0    1
 -2        99       115       116       100
 -1        65    9    0    1
 -2       100       116       117       101
 -1        66    9    0    1
 -2       101       117       118       102
 -1        67    9    0    1
 -2       102       118       119       103
 -1        68    7    0    1
 -2       103       119        39
 -1        69    9    0    1
 -2         6         7       120       104
 -1        70    9    0    1
 -2       104       120       121       105
 -1        71    9    0    1
 -2       105       121       122       106
 -1        72    9    0    1
 -2       106       122       123       107
 -1        73    9    0    1
 -2       107       123       124       108
 -1        74    9    0    1
 -2       108       124       125       109
 -1        75    9    0    1
 -2       109       125       126       110
 -1        76    9    0    1
 -2       110       126       127       111
 -1        77    9    0    1
 -2       111       127       128       112
 -1        78    9    0    1
 -2       112       128       129       113
 -1        79    9    0    1
 -2       113       129       130       114
 -1        80    9    0    1
 -2       114       130       131       115
 -1        81    9    0    1
 -2       115       131       132       116
 -1        82    9    0    1
 -2       116       132       133       117
 -1        83    9    0    1
 -2       117       133       134       118
 -1        84    9    0    1
 -2       118       134       135       119
 -1        85    7    0    1
 -2       119       135        39
 -1        86    9    0    1
 -2         7         8       136       120
 -1        87    9    0    1
 -2       120       136       137       121
 -1        88    9    0    1
 -2       121       137       138       122
 -1        89    9    0    1
 -2       122       138       139       123
 -1        90    9    0    1
 -2       123       139       140       124
 -1        91    9    0    1
 -2       124       140       141       125
 -1        92    9    0    1
 -2       125       141       142       126
 -1        93    9    0    1
 -2       126       142       143       127
 -1        94    9    0    1
 -2       127       143       144       128
 -1        95    9    0    1
 -2       128       144       145       129
 -1        96    9    0    1
 -2       129       145       146       130
 -1        97    9    0    1
 -2       130       146       147       131
 -1        98    9    0    1
 -2       131       147       148       132
 -1        99    9    0    1
 -2       132       148       149       133
 -1       100    9    0    1
 -2       133       149       150       134
 -1       101    9    0    1
 -2       134       150       151       135
 -1       102    7    0    1
 -2       135       151        39
 -1       103    9    0    1
 -2         8         9       152       136
 -1       104    9    0    1
 -2       136       152       153       137
 -1       105    9    0    1
 -2       137       153       154       138
 -1       106    9    0    1
 -2       138       154       155       139
 -1       107    9    0    1
 -2       139       155       156       140
 -1       108    9    0    1
 -2       140       156       157       141
 -1       109    9    0    1
 -2       141       157       158       142
 -1       110    9    0    1
 -2       142       158       159       143
 -1       111    9    0    1
 -2       143       159       160       144
 -1       112    9    0    1
 -2       144       160       161       145
 -1       113    9    0    1
 -2       145       161       162       146
 -1       114    9    0    1
 -2       146       162       163       147
 -1       115    9    0    1
 -2       147       163       164       148
 -1       116    9    0    1
 -2       148       164       165       149
 -1       117    9    0    1
 -2       149       165       166       150
 -1       118    9    0    1
 -2       150       166       167       151
 -1       119    7    0    1
 -2       151       167        39
 -1       120    9    0    1
 -2         9        10       168       152
 -1       121    9    0    1
 -2       152       168       169       153
 -1       122    9    0    1
 -2       153       169       170       154
 -1       123    9    0    1
 -2       154       170       171       155
 -1       124    9    0    1
 -2       155       171       172       156
 -1       125    9    0    1
 -2       156       172       173       157
 -1       126    9    0    1
 -2       157       173       174       158
 -1       127    9    0    1
 -2       158       174       175       159
 -1       128    9    0    1
 -2       159       175       176       160
 -1       129    9    0    1
 -2       160       176       177       161
 -1       130    9    0    1
 -2       161       177       178       162
 -1       131    9    0    1
 -2       162       178       179       163
 -1       132    9    0    1
 -2       163       179       180       164
 -1       133    9    0    1
 -2       164       180       181       165
 -1       134    9    0    1
 -2       165       181       182       166
 -1       135    9    0    1
 -2       166       182       183       167
 -1       136    7    0    1
 -2       167       183        39
 -1       137    9    0    1
 -2        10        11       184       168
 -1       138    9    0    1
 -2       168       184       185       169
 -1       139    9    0    1
 -2       169       185       186       170
 -1       140    9    0    1
 -2       170       186       187       171
 -1       141    9    0    1
 -2       171       187       188       172
 -1       142    9    0    1
 -2       172       188       189       173
 -1       143    9    0    1
 -2       173       189       190       174
 -1       144    9    0    1
 -2       174       190       191       175
 -1       145    9    0    1
 -2       175       191       192       176
 -1       146    9    0    1
 -2       176       192       193       177
 -1       147    9    0    1
 -2       177       193       194       178
 -1       148    9    0    1
 -2       178       194       195       179
 -1       149    9    0    1
 -2       179       195       196       180
 -1       150    9    0    1
 -2       180       196       197       181
 -1       151    9    0    1
 -2       181       197       198       182
 -1       152    9    0    1
 -2       182       198       199       183
 -1       153    7    0    1
 -2       183       199        39
 -1       154    9    0    1
 -2        11        12       200       184
 -1       155    9    0    1
 -2       184       200       201       185
 -1       156    9    0    1
 -2       185       201       202       186
 -1       157    9    0    1
 -2       186       202       203       187
 -1       158    9    0    1
 -2       187       203       204       188
 -1       159    9    0    1
 -2       188       204       205       189
 -1       160    9    0    1
 -2       189       205       206       190
 -1       161    9    0    1
 -2       190       206       207       191
 -1       162    9    0    1
 -2       191       207       208       192
 -1       163    9    0    1
 -2       192       208       209       193
 -1       164    9    0    1
 -2       193       209       210       194
 -1       165    9    0    1
 -2       194       210       211       195
 -1       166    9    0    1
 -2       195       211       212       196
 -1       167    9    0    1
 -2       196       212       213       197
 -1       168    9    0    1
 -2       197       213       214       198
 -1       169    9    0    1
 -2       198       214       215       199
 -1       170    7    0    1
 -2       199       215        39
 -1       171    9    0    1
 -2        12        13       216       200
 -1       172    9    0    1
 -2       200       216       217       201
 -1       173    9    0    1
 -2       201       217       218       202
 -1       174    9    0    1
 -2       202       218       219       203
 -1       175    9    0    1
 -2       203       219       220       204
 -1       176    9    0    1
 -2       204       220       221       205
 -1       177    9    0    1
 -2       205       221       222       206
 -1       178    9    0    1
 -2       206       222       223       207
 -1       179    9    0    1
 -2       207       223       224       208
 -1       180    9    0    1
 -2       208       224       225       209
 -1       181    9    0    1
 -2       209       225       226       210
 -1       182    9    0    1
 -2       210       226       227       211
 -1       183    9    0    1
 -2       211       227       228       212
 -1       184    9    0    1
 -2       212       228       229       213
 -1       185    9    0    1
 -2       213       229       230       214
 -1       186    9    0    1
 -2       214       230       231       215
 -1       187    7    0    1
 -2       215       231        39
 -1       188    9    0    1
 -2        13        14       232       216
 -1       189    9    0    1
 -2       216       232       233       217
 -1       190    9    0    1
 -2       217       233       234       218
 -1       191    9    0    1
 -2       218       234       235       219
 -1       192    9    0    1
 -2       219       235       236       220
 -1       193    9    0    1
 -2       220       236       237       221
 -1       194    9    0    1
 -2       221       237       238       222
 -1       195    9    0    1
 -2       222       238       239       223
 -1       196    9    0    1
 -2       223       239       240       224
 -1       197    9    0    1
 -2       224       240       241       225
 -1       198    9    0    1
 -2       225       241       242       226
 -1       199    9    0    1
 -2       226       242       243       227
 -1       200    9    0    1
 -2       227       243       244       228
 -1       201    9    0    1
 -2       228       244       245       229
 -1       202    9    0    1
 -2       229       245       246       230
 -1       203    9    0    1
 -2       230       246       247       231
 -1       204    7    0    1
 -2       231       247        39
 -1       205    9    0    1
 -2        14        15       248       232
 -1       206    9    0    1
 -2       232       248       249       233
 -1       207    9    0    1
 -2       233       249       250       234
 -1       208    9    0    1
 -2       234       250       251       235
 -1       209    9    0    1
 -2       235       251       252       236
 -1       210    9    0    1
 -2       236       252       253       237
 -1       211    9    0    1
 -2       237       253       254       238
 -1       212    9    0    1
 -2       238       254       255       239
 -1       213    9    0    1
 -2       239       255       256       240
 -1       214    9    0    1
 -2       240       256       257       241
 -1       215    9    0    1
 -2       241       257       258       242
 -1       216    9    0    1
 -2       242       258       259       243
 -1       217    9    0    1
 -2       243       259       260       244
 -1       218    9    0    1
 -2       244       260       261       245
 -1       219    9    0    1
 -2       245       261       262       246
 -1       220    9    0    1
 -2       246       262       263       247
 -1       221    7    0    1
 -2       247       263        39
 -1       222    9    0    1
 -2        15        16       264       248
 -1       223    9    0    1
 -2       248       264       265       249
 -1       224    9    0    1
 -2       249       265       266       250
 -1       225    9    0    1
 -2       250       266       267       251
 -1       226    9    0    1
 -2       251       267       268       252
 -1       227    9    0    1
 -2       252       268       269       253
 -1       228    9    0    1
 -2       253       269       270       254
 -1       229    9    0    1
 -2       254       270       271       255
 -1       230    9    0    1
 -2       255       271       272       256
 -1       231    9    0    1
 -2       256       272       273       257
 -1       232    9    0    1
 -2       257       273       274       258
 -1       233    9    0    1
 -2       258       274       275       259
 -1       234    9    0    1
 -2       259       275       276       260
 -1       235    9    0    1
 -2       260       276       277       261
 -1       236    9    0    1
 -2       261       277       278       262
 -1       237    9    0    1
 -2       262       278       279       263
 -1       238    7    0    1
 -2       263       279        39
 -1       239    9    0    1
 -2        16        17       280       264
 -1       240    9    0    1
 -2       264       280       281       265
 -1       241    9    0    1
 -2       265       281       282       266
 -1       242    9    0    1
 -2       266       282       283       267
 -1       243    9    0    1
 -2       267       283       284       268
 -1       244    9    0    1
 -2       268       284       285       269
 -1       245    9    0    1
 -2       269       285       286       270
 -1       246    9    0    1
 -2       270       286       287       271
 -1       247    9    0    1
 -2       271       287       288       272
 -1       248    9    0    1
 -2       272       288       289       273
 -1       249    9    0    1
 -2       273       289       290       274
 -1       250    9    0    1
 -2       274       290       291       275
 -1       251    9    0    1
 -2       275       291       292       276
 -1       252    9    0    1
 -2       276       292       293       277
 -1       253    9    0    1
 -2       277       293       294       278
 -1       254    9    0    1
 -2       278       294       295       279
 -1       255    7    0    1
 -2       279       295        39
 -1       256    9    0    1
 -2        17        18       296       280
 -1       257    9    0    1
 -2       280       296       297       281
 -1       258    9    0    1
 -2       281       297       298       282
 -1       259    9    0    1
 -2       282       298       299       283
 -1       260    9    0    1
 -2       283       299       300       284
 -1       261    9    0    1
 -2       284       300       301       285
 -1       262    9    0    1
 -2       285       301       302       286
 -1       263    9    0    1
 -2       286       302       303       287
 -1       264    9    0    1
 -2       287       303       304       288
 -1       265    9    0    1
 -2       288       304       305       289
 -1       266    9    0    1
 -2       289       305       306       290
 -1       267    9    0    1
 -2       290       306       307       291
 -1       268    9    0    1
 -2       291       307       308       292
 -1       269    9    0    1
 -2       292       308       309       293
 -1       270    9    0    1
 -2       293       309       310       294
 -1       271    9    0    1
 -2       294       310       311       295
 -1       272    7    0    1
 -2       295       311        39
 -1       273    9    0    1
 -2        18        19       312       296
 -1       274    9    0    1
 -2       296       312       313       297
 -1       275    9    0    1
 -2       297       313       314       298
 -1       276    9    0    1
 -2       298       314       315       299
 -1       277    9    0    1
 -2       299       315       316       300
 -1       278    9    0    1
 -2       300       316       317       301
 -1       279    9    0    1
 -2       301       317       318       302
 -1       280    9    0    1
 -2       302       318       319       303
 -1       281    9    0    1
 -2       303       319       320       304
 -1       282    9    0    1
 -2       304       320       321       305
 -1       283    9    0    1
 -2       305       321       322       306
 -1       284    9    0    1
 -2       306       322       323       307
 -1       285    9    0    1
 -2       307       323       324       308
 -1       286    9    0    1
 -2       308       324       325       309
 -1       287    9    0    1
 -2       309       325       326       310
 -1       288    9    0    1
 -2       310       326       327       311
 -1       289    7    0    1
 -2       311       327        39
 -1       290    9    0    1
 -2        19        20       328       312
 -1       291    9    0    1
 -2       312       328       329       313
 -1       292    9    0    1
 -2       313       329       330       314
 -1       293    9    0    1
 -2       314       330       331       315
 -1       294    9    0    1
 -2       315       331       332       316
 -1       295    9    0    1
 -2       316       332       333       317
 -1       296    9    0    1
 -2       317       333       334       318
 -1       297    9    0    1
 -2       318       334       335       319
 -1       298    9    0    1
 -2       319       335       336       320
 -1       299    9    0    1
 -2       320       336       337       321
 -1       300    9    0    1
 -2       321       337       338       322
 -1       301    9    0    1
 -2       322       338       339       323
 -1       302    9    0    1
 -2       323       339       340       324
 -1       303    9    0    1
 -2       324       340       341       325
 -1       304    9    0    1
 -2       325       341       342       326
 -1       305    9    0    1
 -2       326       342       343       327
 -1       306    7    0    1
 -2       327       343        39
 -1       307    9    0    1
 -2        20        21       344       328
 -1       308    9    0    1
 -2       328       344       345       329
 -1       309    9    0    1
 -2       329       345       346       330
 -1       310    9    0    1
 -2       330       346       347       331
 -1       311    9    0    1
 -2       331       347       348       332
 -1       312    9    0    1
 -2       332       348       349       333
 -1       313    9    0    1
 -2       333       349       350       334
 -1       314    9    0    1
 -2       334       350       351       335
 -1       315    9    0    1
 -2       335       351       352       336
 -1       316    9    0    1
 -2       336       352       353       337
 -1       317    9    0    1
 -2       337       353       354       338
 -1       318    9    0    1
 -2       338       354       355       339
 -1       319    9    0    1
 -2       339       355       356       340
 -1       320    9    0    1
 -2       340       356       357       341
 -1       321    9    0    1
 -2       341       357       358       342
 -1       322    9    0    1
 -2       342       358       359       343
 -1       323    7    0    1
 -2       343       359        39
 -1       324    9    0    1
 -2        21        22       360       344
 -1       325    9    0    1
 -2       344       360       361       345
 -1       326    9    0    1
 -2       345       361       362       346
 -1       327    9    0    1
 -2       346       362       363       347
 -1       328    9    0    1
 -2       347       363       364       348
 -1       329    9    0    1
 -2       348       364       365       349
 -1       330    9    0    1
 -2       349       365       366       350
 -1       331    9    0    1
 -2       350       366       367       351
 -1       332    9    0    1
 -2       351       367       368       352
 -1       333    9    0    1
 -2       352       368       369       353
 -1       334    9    0    1
 -2       353       369       370       354
 -1       335    9    0    1
 -2       354       370       371       355
 -1       336    9    0    1
 -2       355       371       372       356
 -1       337    9    0    1
 -2       356       372       373       357
 -1       338    9    0    1
 -2       357       373       374       358
 -1       339    9    0    1
 -2       358       374       375       359
 -1       340    7    0    1
 -2       359       375        39
 -1       341    9    0    1
 -2        22         2        23       360
 -1       342    9    0    1
 -2       360        23        24       361
 -1       343    9    0    1
 -2       361        24        25       362
 -1       344    9    0    1
 -2       362        25        26       363
 -1       345    9    0    1
 -2       363        26        27       364
 -1       346    9    0    1
 -2       364        27        28       365
 -1       347    9    0    1
 -2       365        28        29       366
 -1       348    9    0    1
 -2       366        29        30       367
 -1       349    9    0    1
 -2       367        30        31       368
 -1       350    9    0    1
 -2       368        31        32       369
 -1       351    9    0    1
 -2       369        32        33       370
 -1       352    9    0    1
 -2       370        33        34       371
 -1       353    9    0    1
 -2       371        34        35       372
 -1       354    9    0    1
 -2       372        35        36       373
 -1       355    9    0    1
 -2       373        36        37       374
 -1       356    9    0    1
 -2       374        37        38       375
 -1       357    7    0    1
 -2       375        38        39
 -1       358    9    0    1
 -2       376       381       457       456
 -1       359    9    0    1
 -2       456       457       458       455
 -1       360    9    0    1
 -2       455       458       459       454
 -1       361    9    0    1
 -2       454       459       460       453
 -1       362    9    0    1
 -2       453       460       461       452
 -1       363    9    0    1
 -2       452       461       462       451
 -1       364    9    0    1
 -2       451       462       463       450
 -1       365    9    0    1
 -2       450       463       464       449
 -1       366    9    0    1
 -2       449       464       465       448
 -1       367    9    0    1
 -2       448       465       466       447
 -1       368    9    0    1
 -2       447       466       467       446
 -1       369    9    0    1
 -2       446       467       468       445
 -1       370    9    0    1
 -2       445       468       469       444
 -1       371    9    0    1
 -2       444       469       470       443
 -1       372    9    0    1
 -2       443       470       471       442
 -1       373    9    0    1
 -2       442       471       472       441
 -1       374    9    0    1
 -2       441       472       440       379
 -1       375    9    0    1
 -2       381       382       473       457
 -1       376    9    0    1
 -2       457       473       474       458
 -1       377    9    0    1
 -2       458       474       475       459
 -1       378    9    0    1
 -2       459       475       476       460
 -1       379    9    0    1
 -2       460       476       477       461
 -1       380    9    0    1
 -2       461       477       478       462
 -1       381    9    0    1
 -2       462       478       479       463
 -1       382    9    0    1
 -2       463       479       480       464
 -1       383    9    0    1
 -2       464       480       481       465
 -1       384    9    0    1
 -2       465       481       482       466
 -1       385    9    0    1
 -2       466       482       483       467
 -1       386    9    0    1
 -2       467       483       484       468
 -1       387    9    0    1
 -2       468       484       485       469
 -1       388    9    0    1
 -2       469       485       486       470
 -1       389    9    0    1
 -2       470       486       487       471
 -1       390    9    0    1
 -2       471       487       488       472
 -1       391    9    0    1
 -2       472       488       439       440
 -1       392    9    0    1
 -2       382       383       489       473
 -1       393    9    0    1
 -2       473       489       490       474
 -1       394    9    0    1
 -2       474       490       491       475
 -1       395    9    0    1
 -2       475       491       492       476
 -1       396    9    0    1
 -2       476       492       493       477
 -1       397    9    0    1
 -2       477       493       494       478
 -1       398    9    0    1
 -2       478       494       495       479
 -1       399    9    0    1
 -2       479       495       496       480
 -1       400    9    0    1
 -2       480       496       497       481
 -1       401    9    0    1
 -2       481       497       498       482
 -1       402    9    0    1
 -2       482       498       499       483
 -1       403    9    0    1
 -2       483       499       500       484
 -1       404    9    0    1
 -2       484       500       501       485
 -1       405    9    0    1
 -2       485       501       502       486
 -1       406    9    0    1
 -2       486       502       503       487
 -1       407    9    0    1
 -2       487       503       504       488
 -1       408    9    0    1
 -2       488       504       438       439
 -1       409    9    0    1
 -2       383       384       505       489
 -1       410    9    0    1
 -2       489       505       506       490
 -1       411    9    0    1
 -2       490       506       507       491
 -1       412    9    0    1
 -2       491       507       508       492
 -1       413    9    0    1
 -2       492       508       509       493
 -1       414    9    0    1
 -2       493       509       510       494
 -1       415    9    0    1
 -2       494       510       511       495
 -1       416    9    0    1
 -2       495       511       512       496
 -1       417    9    0    1
 -2       496       512       513       497
 -1       418    9    0    1
 -2       497       513       514       498
 -1       419    9    0    1
 -2       498       514       515       499
 -1       420    9    0    1
 -2       499       515       516       500
 -1       421    9    0    1
 -2       500       516       517       501
 -1       422    9    0    1
 -2       501       517       518       502
 -1       423    9    0    1
 -2       502       518       519       503
 -1       424    9    0    1
 -2       503       519       520       504
 -1       425    9    0    1
 -2       504       520       437       438
 -1       426    9    0    1
 -2       384       385       521       505
 -1       427    9    0    1
 -2       505       521       522       506
 -1       428    9    0    1
 -2       506       522       523       507
 -1       429    9    0    1
 -2       507       523       524       508
 -1       430    9    0    1
 -2       508       524       525       509
 -1       431    9    0    1
 -2       509       525       526       510
 -1       432    9    0    1
 -2       510       526       527       511
 -1       433    9    0    1
 -2       511       527       528       512
 -1       434    9    0    1
 -2       512       528       529       513
 -1       435    9    0    1
 -2       513       529       530       514
 -1       436    9    0    1
 -2       514       530       531       515
 -1       437    9    0    1
 -2       515       531       532       516
 -1       438    9    0    1
 -2       516       532       533       517
 -1       439    9    0    1
 -2       517       533       534       518
 -1       440    9    0    1
 -2       518       534       535       519
 -1       441    9    0    1
 -2       519       535       536       520
 -1       442    9    0    1
 -2       520       536       436       437
 -1       443    9    0    1
 -2       385       386       537       521
 -1       444    9    0    1
 -2       521       537       538       522
 -1       445    9    0    1
 -2       522       538       539       523
 -1       446    9    0    1
 -2       523       539       540       524
 -1       447    9    0    1
 -2       524       540       541       525
 -1       448    9    0    1
 -2       525       541       542       526
 -1       449    9    0    1
 -2       526       542       543       527
 -1       450    9    0    1
 -2       527       543       544       528
 -1       451    9    0    1
 -2       528       544       545       529
 -1       452    9    0    1
 -2       529       545       546       530
 -1       453    9    0    1
 -2       530       546       547       531
 -1       454    9    0    1
 -2       531       547       548       532
 -1       455    9    0    1
 -2       532       548       549       533
 -1       456    9    0    1
 -2       533       549       550       534
 -1       457    9    0    1
 -2       534       550       551       535
 -1       458    9    0    1
 -2       535       551       552       536
 -1       459    9    0    1
 -2       536       552       435       436
 -1       460    9    0    1
 -2       386       387       553       537
 -1       461    9    0    1
 -2       537       553       554       538
 -1       462    9    0    1
 -2       538       554       555       539
 -1       463    9    0    1
 -2       539       555       556       540
 -1       464    9    0    1
 -2       540       556       557       541
 -1       465    9    0    1
 -2       541       557       558       542
 -1       466    9    0    1
 -2       542       558       559       543
 -1       467    9    0    1
 -2       543       559       560       544
 -1       468    9    0    1
 -2       544       560       561       545
 -1       469    9    0    1
 -2       545       561       562       546
 -1       470    9    0    1
 -2       546       562       563       547
 -1       471    9    0    1
 -2       547       563       564       548
 -1       472    9    0    1
 -2       548       564       565       549
 -1       473    9    0    1
 -2       549       565       566       550
 -1       474    9    0    1
 -2       550       566       567       551
 -1       475    9    0    1
 -2       551       567       568       552
 -1       476    9    0    1
 -2       552       568       434       435
 -1       477    9    0    1
 -2       387       388       569       553
 -1       478    9    0    1
 -2       553       569       570       554
 -1       479    9    0    1
 -2       554       570       571       555
 -1       480    9    0    1
 -2       555       571       572       556
 -1       481    9    0    1
 -2       556       572       573       557
 -1       482    9    0    1
 -2       557       573       574       558
 -1       483    9    0    1
 -2       558       574       575       559
 -1       484    9    0    1
 -2       559       575       576       560
 -1       485    9    0    1
 -2       560       576       577       561
 -1       486    9    0    1
 -2       561       577       578       562
 -1       487    9    0    1
 -2       562       578       579       563
 -1       488    9    0    1
 -2       563       579       580       564
 -1       489    9    0    1
 -2       564       580       581       565
 -1       490    9    0    1
 -2       565       581       582       566
 -1       491    9    0    1
 -2       566       582       583       567
 -1       492    9    0    1
 -2       567       583       584       568
 -1       493    9    0    1
 -2       568       584       433       434
 -1       494    9    0    1
 -2       388       389       585       569
 -1       495    9    0    1
 -2       569       585       586       570
 -1       496    9    0    1
 -2       570       586       587       571
 -1       497    9    0    1
 -2       571       587       588       572
 -1       498    9    0    1
 -2       572       588       589       573
 -1       499    9    0    1
 -2       573       589       590       574
 -1       500    9    0    1
 -2       574       590       591       575
 -1       501    9    0    1
 -2       575       591       592       576
 -1       502    9    0    1
 -2       576       592       593       577
 -1       503    9    0    1
 -2       577       593       594       578
 -1       504    9    0    1
 -2       578       594       595       579
 -1       505    9    0    1
 -2       579       595       596       580
 -1       506    9    0    1
 -2       580       596       597       581
 -1       507    9    0    1
 -2       581       597       598       582
 -1       508    9    0    1
 -2       582       598       599       583
 -1       509    9    0    1
 -2       583       599       600       584
 -1       510    9    0    1
 -2       584       600       432       433
 -1       511    9    0    1
 -2       389       390       601       585
 -1       512    9    0    1
 -2       585       601       602       586
 -1       513    9    0    1
 -2       586       602       603       587
 -1       514    9    0    1
 -2       587       603       604       588
 -1       515    9    0    1
 -2       588       604       605       589
 -1       516    9    0    1
 -2       589       605       606       590
 -1       517    9    0    1
 -2       590       606       607       591
 -1       518    9    0    1
 -2       591       607       608       592
 -1       519    9    0    1
 -2       592       608       609       593
 -1       520    9    0    1
 -2       593       609       610       594
 -1       521    9    0    1
 -2       594       610       611       595
 -1       522    9    0    1
 -2       595       611       612       596
 -1       523    9    0    1
 -2       596       612       613       597
 -1       524    9    0    1
 -2       597       613       614       598
 -1       525    9    0    1
 -2       598       614       615       599
 -1       526    9    0    1
 -2       599       615       616       600
 -1       527    9    0    1
 -2       600       616       431       432
 -1       528    9    0    1
 -2       390       391       617       601
 -1       529    9    0    1
 -2       601       617       618       602
 -1       530    9    0    1
 -2       602       618       619       603
 -1       531    9    0    1
 -2       603       619       620       604
 -1       532    9    0    1
 -2       604       620       621       605
 -1       533    9    0    1
 -2       605       621       622       606
 -1       534    9    0    1
 -2       606       622       623       607
 -1       535    9    0    1
 -2       607       623       624       608
 -1       536    9    0    1
 -2       608       624       625       609
 -1       537    9    0    1
 -2       609       625       626       610
 -1       538    9    0    1
 -2       610       626       627       611
 -1       539    9    0    1
 -2       611       627       628       612
 -1       540    9    0    1
 -2       612       628       629       613
 -1       541    9    0    1
 -2       613       629       630       614
 -1       542    9    0    1
 -2       614       630       631       615
 -1       543    9    0    1
 -2       615       631       632       616
 -1       544    9    0    1
 -2       616       632       430       431
 -1       545    9    0    1
 -2       391       392       633       617
 -1       546    9    0    1
 -2       617       633       634       618
 -1       547    9    0    1
 -2       618       634       635       619
 -1       548    9    0    1
 -2       619       635       636       620
 -1       549    9    0    1
 -2       620       636       637       621
 -1       550    9    0    1
 -2       621       637       638       622
 -1       551    9    0    1
 -2       622       638       639       623
 -1       552    9    0    1
 -2       623       639       640       624
 -1       553    9    0    1
 -2       624       640       641       625
 -1       554    9    0    1
 -2       625       641       642       626
 -1       555    9    0    1
 -2       626       642       643       627
 -1       556    9    0    1
 -2       627       643       644       628
 -1       557    9    0    1
 -2       628       644       645       629
 -1       558    9    0    1
 -2       629       645       646       630
 -1       559    9    0    1
 -2       630       646       647       631
 -1       560    9    0    1
 -2       631       647       648       632
 -1       561    9    0    1
 -2       632       648       429       430
 -1       562    9    0    1
 -2       392       393       649       633
 -1       563    9    0    1
 -2       633       649       650       634
 -1       564    9    0    1
 -2       634       650       651       635
 -1       565    9    0    1
 -2       635       651       652       636
 -1       566    9    0    1
 -2       636       652       653       637
 -1       567    9    0    1
 -2       637       653       654       638
 -1       568    9    0    1
 -2       638       654       655       639
 -1       569    9    0    1
 -2       639       655       656       640
 -1       570    9    0    1
 -2       640       656       657       641
 -1       571    9    0    1
 -2       641       657       658       642
 -1       572    9    0    1
 -2       642       658       659       643
 -1       573    9    0    1
 -2       643       659       660       644
 -1       574    9    0    1
 -2       644       660       661       645
 -1       575    9    0    1
 -2       645       661       662       646
 -1       576    9    0    1
 -2       646       662       663       647
 -1       577    9    0    1
 -2       647       663       664       648
 -1       578    9    0    1
 -2       648       664       428       429
 -1       579    9    0    1
 -2       393       394       665       649
 -1       580    9    0    1
 -2       649       665       666       650
 -1       581    9    0    1
 -2       650       666       667       651
 -1       582    9    0    1
 -2       651       667       668       652
 -1       583    9    0    1
 -2       652       668       669       653
 -1       584    9    0    1
 -2       653       669       670       654
 -1       585    9    0    1
 -2       654       670       671       655
 -1       586    9    0    1
 -2       655       671       672       656
 -1       587    9    0    1
 -2       656       672       673       657
 -1       588    9    0    1
 -2       657       673       674       658
 -1       589    9    0    1
 -2       658       674       675       659
 -1       590    9    0    1
 -2       659       675       676       660
 -1       591    9    0    1
 -2       660       676       677       661
 -1       592    9    0    1
 -2       661       677       678       662
 -1       593    9    0    1
 -2       662       678       679       663
 -1       594    9    0    1
 -2       663       679       680       664
 -1       595    9    0    1
 -2       664       680       427       428
 -1       596    9    0    1
 -2       394       395       681       665
 -1       597    9    0    1
 -2       665       681       682       666
 -1       598    9    0    1
 -2       666       682       683       667
 -1       599    9    0    1
 -2       667       683       684       668
 -1       600    9    0    1
 -2       668       684       685       669
 -1       601    9    0    1
 -2       669       685       686       670
 -1       602    9    0    1
 -2       670       686       687       671
 -1       603    9    0    1
 -2       671       687       688       672
 -1       604    9    0    1
 -2       672       688       689       673
 -1       605    9    0    1
 -2       673       689       690       674
 -1       606    9    0    1
 -2       674       690       691       675
 -1       607    9    0    1
 -2       675       691       692       676
 -1       608    9    0    1
 -2       676       692       693       677
 -1       609    9    0    1
 -2       677       693       694       678
 -1       610    9    0    1
 -2       678       694       695       679
 -1       611    9    0    1
 -2       679       695       696       680
 -1       612    9    0    1
 -2       680       696       426       427
 -1       613    9    0    1
 -2       395       396       697       681
 -1       614    9    0    1
 -2       681       697       698       682
 -1       615    9    0    1
 -2       682       698       699       683
 -1       616    9    0    1
 -2       683       699       700       684
 -1       617    9    0    1
 -2       684       700       701       685
 -1       618    9    0    1
 -2       685       701       702       686
 -1       619    9    0    1
 -2       686       702       703       687
 -1       620    9    0    1
 -2       687       703       704       688
 -1       621    9    0    1
 -2       688       704       705       689
 -1       622    9    0    1
 -2       689       705       706       690
 -1       623    9    0    1
 -2       690       706       707       691
 -1       624    9    0    1
 -2       691       707       708       692
 -1       625    9    0    1
 -2       692       708       709       693
 -1       626    9    0    1
 -2       693       709       710       694
 -1       627    9    0    1
 -2       694       710       711       695
 -1       628    9    0    1
 -2       695       711       712       696
 -1       629    9    0    1
 -2       696       712       425       426
 -1       630    9    0    1
 -2       396       397       713       697
 -1       631    9    0    1
 -2       697       713       714       698
 -1       632    9    0    1
 -2       698       714       715       699
 -1       633    9    0    1
 -2       699       715       716       700
 -1       634    9    0    1
 -2       700       716       717       701
 -1       635    9    0    1
 -2       701       717       718       702
 -1       636    9    0    1
 -2       702       718       719       703
 -1       637    9    0    1
 -2       703       719       720       704
 -1       638    9    0    1
 -2       704       720       721       705
 -1       639    9    0    1
 -2       705       721       722       706
 -1       640    9    0    1
 -2       706       722       723       707
 -1       641    9    0    1
 -2       707       723       724       708
 -1       642    9    0    1
 -2       708       724       725       709
 -1       643    9    0    1
 -2       709       725       726       710
 -1       644    9    0    1
 -2       710       726       727       711
 -1       645    9    0    1
 -2       711       727       728       712
 -1       646    9    0    1
 -2       712       728       424       425
 -1       647    9    0    1
 -2       397       398       729       713
 -1       648    9    0    1
 -2       713       729       730       714
 -1       649    9    0    1
 -2       714       730       731       715
 -1       650    9    0    1
 -2       715       731       732       716
 -1       651    9    0    1
 -2       716       732       733       717
 -1       652    9    0    1
 -2       717       733       734       718
 -1       653    9    0    1
 -2       718       734       735       719
 -1       654    9    0    1
 -2       719       735       736       720
 -1       655    9    0    1
 -2       720       736       737       721
 -1       656    9    0    1
 -2       721       737       738       722
 -1       657    9    0    1
 -2       722       738       739       723
 -1       658    9    0    1
 -2       723       739       740       724
 -1       659    9    0    1
 -2       724       740       741       725
 -1       660    9    0    1
 -2       725       741       742       726
 -1       661    9    0    1
 -2       726       742       743       727
 -1       662    9    0    1
 -2       727       743       744       728
 -1       663    9    0    1
 -2       728       744       423       424
 -1       664    9    0    1
 -2       398       399       745       729
 -1       665    9    0    1
 -2       729       745       746       730
 -1       666    9    0    1
 -2       730       746       747       731
 -1       667    9    0    1
 -2       731       747       748       732
 -1       668    9    0    1
 -2       732       748       749       733
 -1       669    9    0    1
 -2       733       749       750       734
 -1       670    9    0    1
 -2       734       750       751       735
 -1       671    9    0    1
 -2       735       751       752       736
 -1       672    9    0    1
 -2       736       752       753       737
 -1       673    9    0    1
 -2       737       753       754       738
 -1       674    9    0    1
 -2       738       754       755       739
 -1       675    9    0    1
 -2       739       755       756       740
 -1       676    9    0    1
 -2       740       756       757       741
 -1       677    9    0    1
 -2       741       757       758       742
 -1       678    9    0    1
 -2       742       758       759       743
 -1       679    9    0    1
 -2       743       759       760       744
 -1       680    9    0    1
 -2       744       760       422       423
 -1       681    9    0    1
 -2       399       400       761       745
 -1       682    9    0    1
 -2       745       761       762       746
 -1       683    9    0    1
 -2       746       762       763       747
 -1       684    9    0    1
 -2       747       763       764       748
 -1       685    9    0    1
 -2       748       764       765       749
 -1       686    9    0    1
 -2       749       765       766       750
 -1       687    9    0    1
 -2       750       766       767       751
 -1       688    9    0    1
 -2       751       767       768       752
 -1       689    9    0    1
 -2       752       768       769       753
 -1       690    9    0    1
 -2       753       769       770       754
 -1       691    9    0    1
 -2       754       770       771       755
 -1       692    9    0    1
 -2       755       771       772       756
 -1       693    9    0    1
 -2       756       772       773       757
 -1       694    9    0    1
 -2       757       773       774       758
 -1       695    9    0    1
 -2       758       774       775       759
 -1       696    9    0    1
 -2       759       775       776       760
 -1       697    9    0    1
 -2       760       776       421       422
 -1       698    9    0    1
 -2       400       401       777       761
 -1       699    9    0    1
 -2       761       777       778       762
 -1       700    9    0    1
 -2       762       778       779       763
 -1       701    9    0    1
 -2       763       779       780       764
 -1       702    9    0    1
 -2       764       780       781       765
 -1       703    9    0    1
 -2       765       781       782       766
 -1       704    9    0    1
 -2       766       782       783       767
 -1       705    9    0    1
 -2       767       783       784       768
 -1       706    9    0    1
 -2       768       784       785       769
 -1       707    9    0    1
 -2       769       785       786       770
 -1       708    9    0    1
 -2       770       786       787       771
 -1       709    9    0    1
 -2       771       787       788       772
 -1       710    9    0    1
 -2       772       788       789       773
 -1       711    9    0    1
 -2       773       789       790       774
 -1       712    9    0    1
 -2       774       790       791       775
 -1       713    9    0    1
 -2       775       791       792       776
 -1       714    9    0    1
 -2       776       792       420       421
 -1       715    9    0    1
 -2       401       402       793       777
 -1       716    9    0    1
 -2       777       793       794       778
 -1       717    9    0    1
 -2       778       794       795       779
 -1       718    9    0    1
 -2       779       795       796       780
 -1       719    9    0    1
 -2       780       796       797       781
 -1       720    9    0    1
 -2       781       797       798       782
 -1       721    9    0    1
 -2       782       798       799       783
 -1       722    9    0    1
 -2       783       799       800       784
 -1       723    9    0    1
 -2       784       800       801       785
 -1       724    9    0    1
 -2       785       801       802       786
 -1       725    9    0    1
 -2       786       802       803       787
 -1       726    9    0    1
 -2       787       803       804       788
 -1       727    9    0    1
 -2       788       804       805       789
 -1       728    9    0    1
 -2       789       805       806       790
 -1       729    9    0    1
 -2       790       806       807       791
 -1       730    9    0    1
 -2       791       807       808       792
 -1       731    9    0    1
 -2       792       808       419       420
 -1       732    9    0    1
 -2       402       377       403       793
 -1       733    9    0    1
 -2       793       403       404       794
 -1       734    9    0    1
 -2       794       404       405       795
 -1       735    9    0    1
 -2       795       405       406       796
 -1       736    9    0    1
 -2       796       406       407       797
 -1       737    9    0    1
 -2       797       407       408       798
 -1       738    9    0    1
 -2       798       408       409       799
 -1       739    9    0    1
 -2       799       409       410       800
 -1       740    9    0    1
 -2       800       410       411       801
 -1       741    9    0    1
 -2       801       411       412       802
 -1       742    9    0    1
 -2       802       412       413       803
 -1       743    9    0    1
 -2       803       413       414       804
 -1       744    9    0    1
 -2       804       414       415       805
 -1       745    9    0    1
 -2       805       415       416       806
 -1       746    9    0    1
 -2       806       416       417       807
 -1       747    9    0    1
 -2       807       417       418       808
 -1       748    9    0    1
 -2       808       418       378       419
 -3
    1PSTEP                         1           1           1          
  100CL  101 1.000000000         807                     0    1           1
 -4  DISP        4    1
 -5  D1          1    2    1    0
 -5  D2          1    2    2    0
 -5  D3          1    2    3    0
 -5  ALL         1    2    0    0    1ALL
 -1         1 0.00000E+00 1.00742E-02 0.00000E+00
 -1         2 1.28150E-03 0.00000E+00 0.00000E+00
 -1         3-6.24017E-04 8.53547E-03 0.00000E+00
 -1         4-8.75817E-04 6.23059E-03 0.00000E+00
 -1         5-8.54253E-04 5.13707E-03 0.00000E+00
 -1         6-7.75347E-04 4.32643E-03 0.00000E+00
 -1         7-6.91590E-04 3.69167E-03 0.00000E+00
 -1         8-5.99576E-04 3.15784E-03 0.00000E+00
 -1         9-4.99685E-04 2.69514E-03 0.00000E+00
 -1        10-3.91234E-04 2.28570E-03 0.00000E+00
 -1        11-2.73944E-04 1.91911E-03 0.00000E+00
 -1        12-1.47667E-04 1.58899E-03 0.00000E+00
 -1        13-1.25299E-05 1.29158E-03 0.00000E+00
 -1        14 1.30970E-04 1.02485E-03 0.00000E+00
 -1        15 2.81826E-04 7.88067E-04 0.00000E+00
 -1        16 4.38337E-04 5.81368E-04 0.00000E+00
 -1        17 5.97888E-04 4.05502E-04 0.00000E+00
 -1        18 7.56675E-04 2.61475E-04 0.00000E+00
 -1        19 9.09394E-04 1.50128E-04 0.00000E+00
 -1        20 1.04889E-03 7.15476E-05 0.00000E+00
 -1        21 1.16581E-03 2.41704E-05 0.00000E+00
 -1        22 1.24851E-03 3.64670E-06 0.00000E+00
 -1        23 1.28075E-03 0.00000E+00 0.00000E+00
 -1        24 1.27916E-03 0.00000E+00 0.00000E+00
 -1        25 1.27635E-03 0.00000E+00 0.00000E+00
 -1        26 1.27183E-03 0.00000E+00 0.00000E+00
 -1        27 1.26491E-03 0.00000E+00 0.00000E+00
 -1        28 1.25465E-03 0.00000E+00 0.00000E+00
 -1        29 1.23972E-03 0.00000E+00 0.00000E+00
 -1        30 1.21830E-03 0.00000E+00 0.00000E+00
 -1        31 1.18792E-03 0.00000E+00 0.00000E+00
 -1        32 1.14520E-03 0.00000E+00 0.00000E+00
 -1        33 1.08563E-03 0.00000E+00 0.00000E+00
 -1        34 1.00340E-03 0.00000E+00 0.00000E+00
 -1        35 8.91397E-04 0.00000E+00 0.00000E+00
 -1        36 7.41649E-04 0.00000E+00 0.00000E+00
 -1        37 5.46703E-04 0.00000E+00 0.00000E+00
 -1        38 3.01376E-04 0.00000E+00 0.00000E+00
 -1        39 0.00000E+00 0.00000E+00 0.00000E+00
 -1        40 0.00000E+00 8.68117E-03 0.00000E+00
 -1        41 0.00000E+00 7.48076E-03 0.00000E+00
 -1        42 0.00000E+00 6.56009E-03 0.00000E+00
 -1        43 0.00000E+00 5.81767E-03 0.00000E+00
 -1        44 0.00000E+00 5.18993E-03 0.00000E+00
 -1        45 0.00000E+00 4.63910E-03 0.00000E+00
 -1        46 0.00000E+00 4.14203E-03 0.00000E+00
 -1        47 0.00000E+00 3.68346E-03 0.00000E+00
 -1        48 0.00000E+00 3.25267E-03 0.00000E+00
 -1        49 0.00000E+00 2.84163E-03 0.00000E+00
 -1        50 0.00000E+00 2.44386E-03 0.00000E+00
 -1        51 0.00000E+00 2.05376E-03 0.00000E+00
 -1        52 0.00000E+00 1.66601E-03 0.00000E+00
 -1        53 0.00000E+00 1.27513E-03 0.00000E+00
 -1        54 0.00000E+00 8.74915E-04 0.00000E+00
 -1        55 0.00000E+00 4.56979E-04 0.00000E+00
 -1        56 2.30958E-04 7.92166E-03 0.00000E+00
 -1        57 2.73082E-04 7.14107E-03 0.00000E+00
 -1        58 2.32210E-04 6.39159E-03 0.00000E+00
 -1        59 1.86969E-04 5.72693E-03 0.00000E+00
 -1        60 1.50552E-04 5.13774E-03 0.00000E+00
 -1        61 1.22349E-04 4.60772E-03 0.00000E+00
 -1        62 1.00362E-04 4.12259E-03 0.00000E+00
 -1        63 8.28697E-05 3.67120E-03 0.00000E+00
 -1        64 6.86207E-05 3.24487E-03 0.00000E+00
 -1        65 5.67235E-05 2.83667E-03 0.00000E+00
 -1        66 4.65372E-05 2.44074E-03 0.00000E+00
 -1        67 3.75879E-05 2.05182E-03 0.00000E+00
 -1        68 2.95100E-05 1.66485E-03 0.00000E+00
 -1        69 2.20048E-05 1.27447E-03 0.00000E+00
 -1        70 1.48076E-05 8.74566E-04 0.00000E+00
 -1        71 7.62161E-06 4.56832E-04 0.00000E+00
 -1        72 8.81489E-05 6.39530E-03 0.00000E+00
 -1        73 3.67004E-04 6.27317E-03 0.00000E+00
 -1        74 3.89412E-04 5.90694E-03 0.00000E+00
 -1        75 3.46676E-04 5.44824E-03 0.00000E+00
 -1        76 2.93660E-04 4.97175E-03 0.00000E+00
 -1        77 2.45388E-04 4.50586E-03 0.00000E+00
 -1        78 2.04534E-04 4.05871E-03 0.00000E+00
 -1        79 1.70500E-04 3.63059E-03 0.00000E+00
 -1        80 1.42003E-04 3.21891E-03 0.00000E+00
 -1        81 1.17804E-04 2.82010E-03 0.00000E+00
 -1        82 9.68637E-05 2.43027E-03 0.00000E+00
 -1        83 7.83446E-05 2.04533E-03 0.00000E+00
 -1        84 6.15603E-05 1.66095E-03 0.00000E+00
 -1        85 4.59273E-05 1.27224E-03 0.00000E+00
 -1        86 3.09148E-05 8.73393E-04 0.00000E+00
 -1        87 1.59148E-05 4.56335E-04 0.00000E+00
 -1        88-1.71930E-04 5.22373E-03 0.00000E+00
 -1        89 2.64169E-04 5.30813E-03 0.00000E+00
 -1        90 4.24785E-04 5.23474E-03 0.00000E+00
 -1        91 4.44529E-04 5.00867E-03 0.00000E+00
 -1        92 4.09839E-04 4.68961E-03 0.00000E+00
 -1        93 3.59298E-04 4.32481E-03 0.00000E+00
 -1        94 3.08096E-04 3.94200E-03 0.00000E+00
 -1        95 2.61290E-04 3.55508E-03 0.00000E+00
 -1        96 2.19946E-04 3.17008E-03 0.00000E+00
 -1        97 1.83679E-04 2.78870E-03 0.00000E+00
 -1        98 1.51659E-04 2.41033E-03 0.00000E+00
 -1        99 1.22984E-04 2.03293E-03 0.00000E+00
 -1       100 9.67916E-05 1.65347E-03 0.00000E+00
 -1       101 7.22821E-05 1.26795E-03 0.00000E+00
 -1       102 4.86821E-05 8.71136E-04 0.00000E+00
 -1       103 2.50694E-05 4.55380E-04 0.00000E+00
 -1       104-2.87604E-04 4.40807E-03 0.00000E+00
 -1       105 1.18209E-04 4.50254E-03 0.00000E+00
 -1       106 3.68309E-04 4.54718E-03 0.00000E+00
 -1       107 4.70731E-04 4.48542E-03 0.00000E+00
 -1       108 4.83310E-04 4.31708E-03 0.00000E+00
 -1       109 4.51960E-04 4.06898E-03 0.00000E+00
 -1       110 4.03362E-04 3.76962E-03 0.00000E+00
 -1       111 3.50793E-04 3.44027E-03 0.00000E+00
 -1       112 3.00030E-04 3.09437E-03 0.00000E+00
 -1       113 2.53111E-04 2.73937E-03 0.00000E+00
 -1       114 2.10339E-04 2.37871E-03 0.00000E+00
 -1       115 1.71264E-04 2.01314E-03 0.00000E+00
 -1       116 1.35132E-04 1.64150E-03 0.00000E+00
 -1       117 1.01070E-04 1.26106E-03 0.00000E+00
 -1       118 6.81315E-05 8.67500E-04 0.00000E+00
 -1       119 3.51029E-05 4.53837E-04 0.00000E+00
 -1       120-3.22286E-04 3.76192E-03 0.00000E+00
 -1       121 2.06630E-05 3.85152E-03 0.00000E+00
 -1       122 2.86955E-04 3.92883E-03 0.00000E+00
 -1       123 4.47299E-04 3.95232E-03 0.00000E+00
 -1       124 5.13760E-04 3.89482E-03 0.00000E+00
 -1       125 5.16728E-04 3.75445E-03 0.00000E+00
 -1       126 4.84017E-04 3.54499E-03 0.00000E+00
 -1       127 4.34660E-04 3.28447E-03 0.00000E+00
 -1       128 3.79715E-04 2.98871E-03 0.00000E+00
 -1       129 3.24809E-04 2.66918E-03 0.00000E+00
 -1       130 2.72364E-04 2.33311E-03 0.00000E+00
 -1       131 2.23053E-04 1.98432E-03 0.00000E+00
 -1       132 1.76638E-04 1.62394E-03 0.00000E+00
 -1       133 1.32410E-04 1.25090E-03 0.00000E+00
 -1       134 8.93745E-05 8.62121E-04 0.00000E+00
 -1       135 4.60823E-05 4.51551E-04 0.00000E+00
 -1       136-3.10274E-04 3.22326E-03 0.00000E+00
 -1       137-2.65594E-05 3.30480E-03 0.00000E+00
 -1       138 2.22623E-04 3.38922E-03 0.00000E+00
 -1       139 4.06269E-04 3.45016E-03 0.00000E+00
 -1       140 5.13834E-04 3.46077E-03 0.00000E+00
 -1       141 5.54342E-04 3.40426E-03 0.00000E+00
 -1       142 5.46528E-04 3.27803E-03 0.00000E+00
 -1       143 5.09084E-04 3.08986E-03 0.00000E+00
 -1       144 4.56232E-04 2.85181E-03 0.00000E+00
 -1       145 3.97131E-04 2.57580E-03 0.00000E+00
 -1       146 3.36927E-04 2.27130E-03 0.00000E+00
 -1       147 2.78055E-04 1.94472E-03 0.00000E+00
 -1       148 2.21284E-04 1.59957E-03 0.00000E+00
 -1       149 1.66387E-04 1.23671E-03 0.00000E+00
 -1       150 1.12511E-04 8.54564E-04 0.00000E+00
 -1       151 5.80721E-05 4.48327E-04 0.00000E+00
 -1       152-2.67767E-04 2.75715E-03 0.00000E+00
 -1       153-3.33936E-05 2.83259E-03 0.00000E+00
 -1       154 1.87433E-04 2.91573E-03 0.00000E+00
 -1       155 3.71001E-04 2.99145E-03 0.00000E+00
 -1       156 5.00761E-04 3.03954E-03 0.00000E+00
 -1       157 5.71963E-04 3.04069E-03 0.00000E+00
 -1       158 5.91338E-04 2.98266E-03 0.00000E+00
 -1       159 5.71839E-04 2.86251E-03 0.00000E+00
 -1       160 5.27105E-04 2.68482E-03 0.00000E+00
 -1       161 4.68262E-04 2.45807E-03 0.00000E+00
 -1       162 4.02973E-04 2.19142E-03 0.00000E+00
 -1       163 3.35791E-04 1.89262E-03 0.00000E+00
 -1       164 2.68937E-04 1.56708E-03 0.00000E+00
 -1       165 2.03034E-04 1.21759E-03 0.00000E+00
 -1       166 1.37620E-04 8.44314E-04 0.00000E+00
 -1       167 7.11318E-05 4.43934E-04 0.00000E+00
 -1       168-2.02726E-04 2.34527E-03 0.00000E+00
 -1       169-8.73839E-06 2.41599E-03 0.00000E+00
 -1       170 1.82040E-04 2.49576E-03 0.00000E+00
 -1       171 3.53044E-04 2.57592E-03 0.00000E+00
 -1       172 4.89042E-04 2.64299E-03 0.00000E+00
 -1       173 5.79641E-04 2.68049E-03 0.00000E+00
 -1       174 6.22506E-04 2.67324E-03 0.00000E+00
 -1       175 6.22946E-04 2.61127E-03 0.00000E+00
 -1       176 5.90730E-04 2.49141E-03 0.00000E+00
 -1       177 5.36494E-04 2.31637E-03 0.00000E+00
 -1       178 4.69291E-04 2.09233E-03 0.00000E+00
 -1       179 3.95599E-04 1.82648E-03 0.00000E+00
 -1       180 3.19336E-04 1.52511E-03 0.00000E+00
 -1       181 2.42313E-04 1.19258E-03 0.00000E+00
 -1       182 1.64753E-04 8.30769E-04 0.00000E+00
 -1       183 8.53112E-05 4.38092E-04 0.00000E+00
 -1       184-1.19528E-04 1.97661E-03 0.00000E+00
 -1       185 4.11907E-05 2.04357E-03 0.00000E+00
 -1       186 2.03632E-04 2.11958E-03 0.00000E+00
 -1       187 3.56552E-04 2.19968E-03 0.00000E+00
 -1       188 4.88000E-04 2.27530E-03 0.00000E+00
 -1       189 5.86890E-04 2.33410E-03 0.00000E+00
 -1       190 6.46145E-04 2.36193E-03 0.00000E+00
 -1       191 6.64628E-04 2.34593E-03 0.00000E+00
 -1       192 6.46800E-04 2.27735E-03 0.00000E+00
 -1       193 6.00563E-04 2.15284E-03 0.00000E+00
 -1       194 5.34652E-04 1.97390E-03 0.00000E+00
 -1       195 4.56662E-04 1.74517E-03 0.00000E+00
 -1       196 3.72076E-04 1.47237E-03 0.00000E+00
 -1       197 2.84099E-04 1.16061E-03 0.00000E+00
 -1       198 1.93913E-04 8.13237E-04 0.00000E+00
 -1       199 1.00644E-04 4.30466E-04 0.00000E+00
 -1       200-2.08623E-05 1.64453E-03 0.00000E+00
 -1       201 1.12079E-04 1.70823E-03 0.00000E+00
 -1       202 2.48877E-04 1.78054E-03 0.00000E+00
 -1       203 3.81935E-04 1.85857E-03 0.00000E+00
 -1       204 5.02489E-04 1.93703E-03 0.00000E+00
 -1       205 6.00891E-04 2.00727E-03 0.00000E+00
 -1       206 6.68638E-04 2.05773E-03 0.00000E+00
 -1       207 7.00609E-04 2.07566E-03 0.00000E+00
 -1       208 6.96380E-04 2.04951E-03 0.00000E+00
 -1       209 6.59927E-04 1.97120E-03 0.00000E+00
 -1       210 5.98004E-04 1.83719E-03 0.00000E+00
 -1       211 5.18073E-04 1.64818E-03 0.00000E+00
 -1       212 4.26609E-04 1.40776E-03 0.00000E+00
 -1       213 3.28154E-04 1.12060E-03 0.00000E+00
 -1       214 2.25045E-04 7.90942E-04 0.00000E+00
 -1       215 1.17140E-04 4.20662E-04 0.00000E+00
 -1       216 9.13486E-05 1.34505E-03 0.00000E+00
 -1       217 2.00751E-04 1.40568E-03 0.00000E+00
 -1       218 3.14668E-04 1.47435E-03 0.00000E+00
 -1       219 4.27934E-04 1.54935E-03 0.00000E+00
 -1       220 5.34316E-04 1.62746E-03 0.00000E+00
 -1       221 6.26145E-04 1.70285E-03 0.00000E+00
 -1       222 6.95355E-04 1.76678E-03 0.00000E+00
 -1       223 7.35129E-04 1.80814E-03 0.00000E+00
 -1       224 7.41612E-04 1.81493E-03 0.00000E+00
 -1       225 7.14875E-04 1.77630E-03 0.00000E+00
 -1       226 6.58639E-04 1.68450E-03 0.00000E+00
 -1       227 5.78923E-04 1.53584E-03 0.00000E+00
 -1       228 4.82251E-04 1.33053E-03 0.00000E+00
 -1       229 3.74110E-04 1.07154E-03 0.00000E+00
 -1       230 2.58011E-04 7.63034E-04 0.00000E+00
 -1       231 1.34774E-04 4.08220E-04 0.00000E+00
 -1       232 2.15422E-04 1.07602E-03 0.00000E+00
 -1       233 3.04596E-04 1.13354E-03 0.00000E+00
 -1       234 3.98155E-04 1.19847E-03 0.00000E+00
 -1       235 4.92548E-04 1.26983E-03 0.00000E+00
 -1       236 5.83385E-04 1.34569E-03 0.00000E+00
 -1       237 6.64842E-04 1.42221E-03 0.00000E+00
 -1       238 7.30051E-04 1.49308E-03 0.00000E+00
 -1       239 7.72047E-04 1.54936E-03 0.00000E+00
 -1       240 7.85164E-04 1.58007E-03 0.00000E+00
 -1       241 7.66429E-04 1.57349E-03 0.00000E+00
 -1       242 7.16308E-04 1.51911E-03 0.00000E+00
 -1       243 6.38405E-04 1.40933E-03 0.00000E+00
 -1       244 5.38215E-04 1.24043E-03 0.00000E+00
 -1       245 4.21453E-04 1.01252E-03 0.00000E+00
 -1       246 2.92569E-04 7.28616E-04 0.00000E+00
 -1       247 1.53471E-04 3.92608E-04 0.00000E+00
 -1       248 3.49551E-04 8.36551E-04 0.00000E+00
 -1       249 4.21131E-04 8.90709E-04 0.00000E+00
 -1       250 4.96555E-04 9.51663E-04 0.00000E+00
 -1       251 5.73341E-04 1.01884E-03 0.00000E+00
 -1       252 6.48391E-04 1.09113E-03 0.00000E+00
 -1       253 7.17369E-04 1.16606E-03 0.00000E+00
 -1       254 7.74748E-04 1.23922E-03 0.00000E+00
 -1       255 8.14225E-04 1.30379E-03 0.00000E+00
 -1       256 8.29604E-04 1.35047E-03 0.00000E+00
 -1       257 8.16035E-04 1.36810E-03 0.00000E+00
 -1       258 7.71197E-04 1.34498E-03 0.00000E+00
 -1       259 6.95886E-04 1.27068E-03 0.00000E+00
 -1       260 5.93645E-04 1.13777E-03 0.00000E+00
 -1       261 4.69510E-04 9.42865E-04 0.00000E+00
 -1       262 3.28344E-04 6.86782E-04 0.00000E+00
 -1       263 1.73091E-04 3.73229E-04 0.00000E+00
 -1       264 4.91494E-04 6.26685E-04 0.00000E+00
 -1       265 5.47641E-04 6.77056E-04 0.00000E+00
 -1       266 6.06886E-04 7.33599E-04 0.00000E+00
 -1       267 6.67456E-04 7.95991E-04 0.00000E+00
 -1       268 7.27136E-04 8.63637E-04 0.00000E+00
 -1       269 7.82709E-04 9.34980E-04 0.00000E+00
 -1       270 8.29850E-04 1.00700E-03 0.00000E+00
 -1       271 8.63211E-04 1.07469E-03 0.00000E+00
 -1       272 8.76863E-04 1.13063E-03 0.00000E+00
 -1       273 8.65139E-04 1.16501E-03 0.00000E+00
 -1       274 8.23768E-04 1.16627E-03 0.00000E+00
 -1       275 7.50922E-04 1.12254E-03 0.00000E+00
 -1       276 6.47661E-04 1.02350E-03 0.00000E+00
 -1       277 5.17448E-04 8.62240E-04 0.00000E+00
 -1       278 3.64802E-04 6.36668E-04 0.00000E+00
 -1       279 1.93401E-04 3.49419E-04 0.00000E+00
 -1       280 6.38284E-04 4.47046E-04 0.00000E+00
 -1       281 6.80841E-04 4.93049E-04 0.00000E+00
 -1       282 7.25665E-04 5.44577E-04 0.00000E+00
 -1       283 7.71456E-04 6.01458E-04 0.00000E+00
 -1       284 8.16588E-04 6.63414E-04 0.00000E+00
 -1       285 8.58652E-04 7.29495E-04 0.00000E+00
 -1       286 8.94289E-04 7.97686E-04 0.00000E+00
 -1       287 9.19113E-04 8.64408E-04 0.00000E+00
 -1       288 9.27841E-04 9.23995E-04 0.00000E+00
 -1       289 9.14746E-04 9.68343E-04 0.00000E+00
 -1       290 8.74487E-04 9.86981E-04 0.00000E+00
 -1       291 8.03186E-04 9.67878E-04 0.00000E+00
 -1       292 6.99366E-04 8.99026E-04 0.00000E+00
 -1       293 5.64267E-04 7.70637E-04 0.00000E+00
 -1       294 4.01213E-04 5.77502E-04 0.00000E+00
 -1       295 2.14050E-04 3.20472E-04 0.00000E+00
 -1       296 7.85915E-04 2.98522E-04 0.00000E+00
 -1       297 8.16544E-04 3.39430E-04 0.00000E+00
 -1       298 8.48598E-04 3.85169E-04 0.00000E+00
 -1       299 8.81093E-04 4.35659E-04 0.00000E+00
 -1       300 9.12789E-04 4.90813E-04 0.00000E+00
 -1       301 9.41840E-04 5.50079E-04 0.00000E+00
 -1       302 9.65618E-04 6.12146E-04 0.00000E+00
 -1       303 9.80567E-04 6.74525E-04 0.00000E+00
 -1       304 9.82155E-04 7.33046E-04 0.00000E+00
 -1       305 9.65025E-04 7.81350E-04 0.00000E+00
 -1       306 9.23477E-04 8.10582E-04 0.00000E+00
 -1       307 8.52300E-04 8.09607E-04 0.00000E+00
 -1       308 7.47827E-04 7.66059E-04 0.00000E+00
 -1       309 6.08806E-04 6.68368E-04 0.00000E+00
 -1       310 4.36627E-04 5.08652E-04 0.00000E+00
 -1       311 2.34534E-04 2.85660E-04 0.00000E+00
 -1       312 9.29005E-04 1.81843E-04 0.00000E+00
 -1       313 9.49307E-04 2.16787E-04 0.00000E+00
 -1       314 9.70237E-04 2.55803E-04 0.00000E+00
 -1       315 9.91018E-04 2.98864E-04 0.00000E+00
 -1       316 1.01066E-03 3.45988E-04 0.00000E+00
 -1       317 1.02769E-03 3.96879E-04 0.00000E+00
 -1       318 1.04001E-03 4.50710E-04 0.00000E+00
 -1       319 1.04472E-03 5.05805E-04 0.00000E+00
 -1       320 1.03799E-03 5.59209E-04 0.00000E+00
 -1       321 1.01501E-03 6.06175E-04 0.00000E+00
 -1       322 9.70174E-04 6.39675E-04 0.00000E+00
 -1       323 8.97597E-04 6.50211E-04 0.00000E+00
 -1       324 7.91985E-04 6.26282E-04 0.00000E+00
 -1       325 6.49732E-04 5.55932E-04 0.00000E+00
 -1       326 4.69845E-04 4.29639E-04 0.00000E+00
 -1       327 2.54154E-04 2.44275E-04 0.00000E+00
 -1       328 1.06044E-03 9.69869E-05 0.00000E+00
 -1       329 1.07209E-03 1.24977E-04 0.00000E+00
 -1       330 1.08365E-03 1.56191E-04 0.00000E+00
 -1       331 1.09448E-03 1.90632E-04 0.00000E+00
 -1       332 1.10374E-03 2.28365E-04 0.00000E+00
 -1       333 1.11022E-03 2.69251E-04 0.00000E+00
 -1       334 1.11218E-03 3.12796E-04 0.00000E+00
 -1       335 1.10720E-03 3.57921E-04 0.00000E+00
 -1       336 1.09203E-03 4.02633E-04 0.00000E+00
 -1       337 1.06240E-03 4.43592E-04 0.00000E+00
 -1       338 1.01304E-03 4.75615E-04 0.00000E+00
 -1       339 9.37849E-04 4.91282E-04 0.00000E+00
 -1       340 8.30516E-04 4.80965E-04 0.00000E+00
 -1       341 6.85504E-04 4.33799E-04 0.00000E+00
 -1       342 4.99399E-04 3.40112E-04 0.00000E+00
 -1       343 2.71983E-04 1.95684E-04 0.00000E+00
 -1       344 1.17106E-03 4.23318E-05 0.00000E+00
 -1       345 1.17591E-03 6.22640E-05 0.00000E+00
 -1       346 1.18008E-03 8.44701E-05 0.00000E+00
 -1       347 1.18302E-03 1.08970E-04 0.00000E+00
 -1       348 1.18398E-03 1.35839E-04 0.00000E+00
 -1       349 1.18191E-03 1.65025E-04 0.00000E+00
 -1       350 1.17531E-03 1.96253E-04 0.00000E+00
 -1       351 1.16209E-03 2.28884E-04 0.00000E+00
 -1       352 1.13941E-03 2.61688E-04 0.00000E+00
 -1       353 1.10347E-03 2.92536E-04 0.00000E+00
 -1       354 1.04935E-03 3.18006E-04 0.00000E+00
 -1       355 9.71030E-04 3.32985E-04 0.00000E+00
 -1       356 8.61648E-04 3.30486E-04 0.00000E+00
 -1       357 7.14310E-04 3.02118E-04 0.00000E+00
 -1       358 5.23529E-04 2.39791E-04 0.00000E+00
 -1       359 2.86830E-04 1.39402E-04 0.00000E+00
 -1       360 1.24944E-03 1.32803E-05 0.00000E+00
 -1       361 1.24964E-03 2.39176E-05 0.00000E+00
 -1       362 1.24879E-03 3.58083E-05 0.00000E+00
 -1       363 1.24636E-03 4.89540E-05 0.00000E+00
 -1       364 1.24166E-03 6.33945E-05 0.00000E+00
 -1       365 1.23371E-03 7.91108E-05 0.00000E+00
 -1       366 1.22114E-03 9.59786E-05 0.00000E+00
 -1       367 1.20208E-03 1.13693E-04 0.00000E+00
 -1       368 1.17393E-03 1.31657E-04 0.00000E+00
 -1       369 1.13319E-03 1.48811E-04 0.00000E+00
 -1       370 1.07526E-03 1.63416E-04 0.00000E+00
 -1       371 9.94231E-04 1.72798E-04 0.00000E+00
 -1       372 8.83039E-04 1.73180E-04 0.00000E+00
 -1       373 7.33990E-04 1.59838E-04 0.00000E+00
 -1       374 5.40179E-04 1.27977E-04 0.00000E+00
 -1       375 2.97245E-04 7.49592E-05 0.00000E+00
 -1       376-6.53228E-03 4.47229E-02 0.00000E+00
 -1       377 0.00000E+00 1.02110E-02 0.00000E+00
 -1       378 0.00000E+00 2.02916E-02 0.00000E+00
 -1       379 8.07360E-03 4.51844E-02 0.00000E+00
 -1       381-6.53061E-03 4.16995E-02 0.00000E+00
 -1       382-6.50629E-03 3.88719E-02 0.00000E+00
 -1       383-6.42745E-03 3.62679E-02 0.00000E+00
 -1       384-6.28318E-03 3.38931E-02 0.00000E+00
 -1       385-6.07593E-03 3.17499E-02 0.00000E+00
 -1       386-5.81430E-03 2.98344E-02 0.00000E+00
 -1       387-5.50976E-03 2.81360E-02 0.00000E+00
 -1       388-5.17463E-03 2.66393E-02 0.00000E+00
 -1       389-4.82077E-03 2.53253E-02 0.00000E+00
 -1       390-4.45876E-03 2.41725E-02 0.00000E+00
 -1       391-4.09747E-03 2.31586E-02 0.00000E+00
 -1       392-3.74393E-03 2.22611E-02 0.00000E+00
 -1       393-3.40338E-03 2.14579E-02 0.00000E+00
 -1       394-3.07947E-03 2.07274E-02 0.00000E+00
 -1       395-2.77451E-03 2.00483E-02 0.00000E+00
 -1       396-2.48973E-03 1.93994E-02 0.00000E+00
 -1       397-2.22551E-03 1.87571E-02 0.00000E+00
 -1       398-1.98163E-03 1.80934E-02 0.00000E+00
 -1       399-1.75734E-03 1.73693E-02 0.00000E+00
 -1       400-1.55035E-03 1.65169E-02 0.00000E+00
 -1       401-1.33789E-03 1.53926E-02 0.00000E+00
 -1       402-9.01649E-04 1.34998E-02 0.00000E+00
 -1       403 0.00000E+00 1.24101E-02 0.00000E+00
 -1       404 0.00000E+00 1.37934E-02 0.00000E+00
 -1       405 0.00000E+00 1.46942E-02 0.00000E+00
 -1       406 0.00000E+00 1.53740E-02 0.00000E+00
 -1       407 0.00000E+00 1.59238E-02 0.00000E+00
 -1       408 0.00000E+00 1.63896E-02 0.00000E+00
 -1       409 0.00000E+00 1.67975E-02 0.00000E+00
 -1       410 0.00000E+00 1.71641E-02 0.00000E+00
 -1       411 0.00000E+00 1.75011E-02 0.00000E+00
 -1       412 0.00000E+00 1.78173E-02 0.00000E+00
 -1       413 0.00000E+00 1.81200E-02 0.00000E+00
 -1       414 0.00000E+00 1.84164E-02 0.00000E+00
 -1       415 0.00000E+00 1.87146E-02 0.00000E+00
 -1       416 0.00000E+00 1.90253E-02 0.00000E+00
 -1       417 0.00000E+00 1.93653E-02 0.00000E+00
 -1       418 0.00000E+00 1.97641E-02 0.00000E+00
 -1       419 2.52639E-04 2.02999E-02 0.00000E+00
 -1       420 5.30571E-04 2.03285E-02 0.00000E+00
 -1       421 8.34296E-04 2.03831E-02 0.00000E+00
 -1       422 1.16550E-03 2.04710E-02 0.00000E+00
 -1       423 1.52502E-03 2.06008E-02 0.00000E+00
 -1       424 1.91305E-03 2.07824E-02 0.00000E+00
 -1       425 2.32892E-03 2.10275E-02 0.00000E+00
 -1       426 2.77084E-03 2.13492E-02 0.00000E+00
 -1       427 3.23569E-03 2.17620E-02 0.00000E+00
 -1       428 3.71884E-03 2.22815E-02 0.00000E+00
 -1       429 4.21411E-03 2.29241E-02 0.00000E+00
 -1       430 4.71384E-03 2.37064E-02 0.00000E+00
 -1       431 5.20919E-03 2.46445E-02 0.00000E+00
 -1       432 5.69051E-03 2.57543E-02 0.00000E+00
 -1       433 6.14779E-03 2.70503E-02 0.00000E+00
 -1       434 6.57111E-03 2.85459E-02 0.00000E+00
 -1       435 6.95104E-03 3.02528E-02 0.00000E+00
 -1       436 7.27904E-03 3.21803E-02 0.00000E+00
 -1       437 7.54809E-03 3.43347E-02 0.00000E+00
 -1       438 7.75401E-03 3.67181E-02 0.00000E+00
 -1       439 7.89821E-03 3.93273E-02 0.00000E+00
 -1       440 7.99424E-03 4.21581E-02 0.00000E+00
 -1       441 6.37121E-03 4.50783E-02 0.00000E+00
 -1       442 4.87075E-03 4.49854E-02 0.00000E+00
 -1       443 3.51801E-03 4.49078E-02 0.00000E+00
 -1       444 2.29432E-03 4.48469E-02 0.00000E+00
 -1       445 1.18421E-03 4.48017E-02 0.00000E+00
 -1       446 1.74297E-04 4.47699E-02 0.00000E+00
 -1       447-7.46555E-04 4.47488E-02 0.00000E+00
 -1       448-1.58752E-03 4.47356E-02 0.00000E+00
 -1       449-2.35621E-03 4.47279E-02 0.00000E+00
 -1       450-3.05905E-03 4.47240E-02 0.00000E+00
 -1       451-3.70155E-03 4.47224E-02 0.00000E+00
 -1       452-4.28859E-03 4.47221E-02 0.00000E+00
 -1       453-4.82456E-03 4.47223E-02 0.00000E+00
 -1       454-5.31344E-03 4.47227E-02 0.00000E+00
 -1       455-5.75895E-03 4.47230E-02 0.00000E+00
 -1       456-6.16199E-03 4.47231E-02 0.00000E+00
 -1       457-6.15701E-03 4.16992E-02 0.00000E+00
 -1       458-5.75154E-03 4.16988E-02 0.00000E+00
 -1       459-5.30457E-03 4.16985E-02 0.00000E+00
 -1       460-4.81535E-03 4.16986E-02 0.00000E+00
 -1       461-4.28031E-03 4.16994E-02 0.00000E+00
 -1       462-3.69562E-03 4.17015E-02 0.00000E+00
 -1       463-3.05705E-03 4.17054E-02 0.00000E+00
 -1       464-2.35986E-03 4.17121E-02 0.00000E+00
 -1       465-1.59862E-03 4.17226E-02 0.00000E+00
 -1       466-7.66957E-04 4.17384E-02 0.00000E+00
 -1       467 1.42827E-04 4.17610E-02 0.00000E+00
 -1       468 1.14020E-03 4.17925E-02 0.00000E+00
 -1       469 2.23692E-03 4.18353E-02 0.00000E+00
 -1       470 3.44751E-03 4.18916E-02 0.00000E+00
 -1       471 4.78935E-03 4.19634E-02 0.00000E+00
 -1       472 6.28451E-03 4.20521E-02 0.00000E+00
 -1       473-6.12688E-03 3.88691E-02 0.00000E+00
 -1       474-5.71728E-03 3.88659E-02 0.00000E+00
 -1       475-5.26793E-03 3.88624E-02 0.00000E+00
 -1       476-4.77827E-03 3.88589E-02 0.00000E+00
 -1       477-4.24489E-03 3.88559E-02 0.00000E+00
 -1       478-3.66408E-03 3.88538E-02 0.00000E+00
 -1       479-3.03173E-03 3.88535E-02 0.00000E+00
 -1       480-2.34322E-03 3.88561E-02 0.00000E+00
 -1       481-1.59317E-03 3.88628E-02 0.00000E+00
 -1       482-7.75219E-04 3.88754E-02 0.00000E+00
 -1       483 1.18440E-04 3.88959E-02 0.00000E+00
 -1       484 1.09756E-03 3.89269E-02 0.00000E+00
 -1       485 2.17455E-03 3.89710E-02 0.00000E+00
 -1       486 3.36523E-03 3.90314E-02 0.00000E+00
 -1       487 4.68965E-03 3.91106E-02 0.00000E+00
 -1       488 6.17545E-03 3.92096E-02 0.00000E+00
 -1       489-6.04501E-03 3.62608E-02 0.00000E+00
 -1       490-5.63370E-03 3.62532E-02 0.00000E+00
 -1       491-5.18429E-03 3.62449E-02 0.00000E+00
 -1       492-4.69659E-03 3.62365E-02 0.00000E+00
 -1       493-4.16756E-03 3.62283E-02 0.00000E+00
 -1       494-3.59380E-03 3.62209E-02 0.00000E+00
 -1       495-2.97154E-03 3.62152E-02 0.00000E+00
 -1       496-2.29641E-03 3.62125E-02 0.00000E+00
 -1       497-1.56326E-03 3.62144E-02 0.00000E+00
 -1       498-7.65828E-04 3.62228E-02 0.00000E+00
 -1       499 1.03722E-04 3.62404E-02 0.00000E+00
 -1       500 1.05549E-03 3.62703E-02 0.00000E+00
 -1       501 2.10273E-03 3.63160E-02 0.00000E+00
 -1       502 3.26307E-03 3.63812E-02 0.00000E+00
 -1       503 4.56005E-03 3.64693E-02 0.00000E+00
 -1       504 6.02791E-03 3.65815E-02 0.00000E+00
 -1       505-5.90175E-03 3.38806E-02 0.00000E+00
 -1       506-5.49281E-03 3.38674E-02 0.00000E+00
 -1       507-5.04748E-03 3.38534E-02 0.00000E+00
 -1       508-4.56591E-03 3.38390E-02 0.00000E+00
 -1       509-4.04546E-03 3.38247E-02 0.00000E+00
 -1       510-3.48319E-03 3.38111E-02 0.00000E+00
 -1       511-2.87574E-03 3.37993E-02 0.00000E+00
 -1       512-2.21919E-03 3.37906E-02 0.00000E+00
 -1       513-1.50879E-03 3.37869E-02 0.00000E+00
 -1       514-7.38573E-04 3.37905E-02 0.00000E+00
 -1       515 9.91840E-05 3.38045E-02 0.00000E+00
 -1       516 1.01481E-03 3.38327E-02 0.00000E+00
 -1       517 2.02239E-03 3.38794E-02 0.00000E+00
 -1       518 3.14141E-03 3.39494E-02 0.00000E+00
 -1       519 4.39898E-03 3.40469E-02 0.00000E+00
 -1       520 5.83546E-03 3.41746E-02 0.00000E+00
 -1       521-5.69932E-03 3.17315E-02 0.00000E+00
 -1       522-5.29664E-03 3.17122E-02 0.00000E+00
 -1       523-4.85940E-03 3.16918E-02 0.00000E+00
 -1       524-4.38809E-03 3.16709E-02 0.00000E+00
 -1       525-3.88047E-03 3.16498E-02 0.00000E+00
 -1       526-3.33405E-03 3.16294E-02 0.00000E+00
 -1       527-2.74600E-03 3.16107E-02 0.00000E+00
 -1       528-2.11295E-03 3.15953E-02 0.00000E+00
 -1       529-1.43069E-03 3.15853E-02 0.00000E+00
 -1       530-6.93748E-04 3.15834E-02 0.00000E+00
 -1       531 1.05280E-04 3.15931E-02 0.00000E+00
 -1       532 9.76730E-04 3.16189E-02 0.00000E+00
 -1       533 1.93531E-03 3.16662E-02 0.00000E+00
 -1       534 3.00215E-03 3.17407E-02 0.00000E+00
 -1       535 4.20764E-03 3.18483E-02 0.00000E+00
 -1       536 5.59786E-03 3.19933E-02 0.00000E+00
 -1       537-5.44571E-03 2.98099E-02 0.00000E+00
 -1       538-5.05251E-03 2.97843E-02 0.00000E+00
 -1       539-4.62666E-03 2.97573E-02 0.00000E+00
 -1       540-4.16896E-03 2.97294E-02 0.00000E+00
 -1       541-3.67759E-03 2.97012E-02 0.00000E+00
 -1       542-3.15058E-03 2.96735E-02 0.00000E+00
 -1       543-2.58569E-03 2.96475E-02 0.00000E+00
 -1       544-1.98020E-03 2.96249E-02 0.00000E+00
 -1       545-1.33060E-03 2.96079E-02 0.00000E+00
 -1       546-6.32101E-04 2.95999E-02 0.00000E+00
 -1       547 1.22178E-04 2.96047E-02 0.00000E+00
 -1       548 9.42347E-04 2.96278E-02 0.00000E+00
 -1       549 1.84347E-03 2.96754E-02 0.00000E+00
 -1       550 2.84803E-03 2.97546E-02 0.00000E+00
 -1       551 3.98934E-03 2.98728E-02 0.00000E+00
 -1       552 5.31880E-03 3.00364E-02 0.00000E+00
 -1       553-5.15153E-03 2.81055E-02 0.00000E+00
 -1       554-4.77012E-03 2.80737E-02 0.00000E+00
 -1       555-4.35797E-03 2.80400E-02 0.00000E+00
 -1       556-3.91619E-03 2.80052E-02 0.00000E+00
 -1       557-3.44343E-03 2.79698E-02 0.00000E+00
 -1       558-2.93831E-03 2.79346E-02 0.00000E+00
 -1       559-2.39926E-03 2.79010E-02 0.00000E+00
 -1       560-1.82435E-03 2.78708E-02 0.00000E+00
 -1       561-1.21095E-03 2.78467E-02 0.00000E+00
 -1       562-5.55079E-04 2.78323E-02 0.00000E+00
 -1       563 1.49413E-04 2.78324E-02 0.00000E+00
 -1       564 9.12250E-04 2.78529E-02 0.00000E+00
 -1       565 1.74866E-03 2.79012E-02 0.00000E+00
 -1       566 2.68218E-03 2.79857E-02 0.00000E+00
 -1       567 3.74863E-03 2.81154E-02 0.00000E+00
 -1       568 5.00416E-03 2.82985E-02 0.00000E+00
 -1       569-4.82814E-03 2.66032E-02 0.00000E+00
 -1       570-4.45979E-03 2.65653E-02 0.00000E+00
 -1       571-4.06255E-03 2.65253E-02 0.00000E+00
 -1       572-3.63786E-03 2.64837E-02 0.00000E+00
 -1       573-3.18494E-03 2.64410E-02 0.00000E+00
 -1       574-2.70306E-03 2.63984E-02 0.00000E+00
 -1       575-2.19151E-03 2.63571E-02 0.00000E+00
 -1       576-1.64930E-03 2.63195E-02 0.00000E+00
 -1       577-1.07478E-03 2.62884E-02 0.00000E+00
 -1       578-4.64936E-04 2.62682E-02 0.00000E+00
 -1       579 1.85613E-04 2.62642E-02 0.00000E+00
 -1       580 8.86160E-04 2.62834E-02 0.00000E+00
 -1       581 1.65201E-03 2.63339E-02 0.00000E+00
 -1       582 2.50753E-03 2.64251E-02 0.00000E+00
 -1       583 3.49050E-03 2.65672E-02 0.00000E+00
 -1       584 4.66100E-03 2.67708E-02 0.00000E+00
 -1       585-4.48636E-03 2.52839E-02 0.00000E+00
 -1       586-4.13125E-03 2.52404E-02 0.00000E+00
 -1       587-3.74900E-03 2.51942E-02 0.00000E+00
 -1       588-3.34148E-03 2.51460E-02 0.00000E+00
 -1       589-2.90855E-03 2.50964E-02 0.00000E+00
 -1       590-2.45038E-03 2.50464E-02 0.00000E+00
 -1       591-1.96722E-03 2.49978E-02 0.00000E+00
 -1       592-1.45920E-03 2.49531E-02 0.00000E+00
 -1       593-9.25746E-04 2.49160E-02 0.00000E+00
 -1       594-3.64811E-04 2.48914E-02 0.00000E+00
 -1       595 2.28343E-04 2.48855E-02 0.00000E+00
 -1       596 8.62719E-04 2.49058E-02 0.00000E+00
 -1       597 1.55377E-03 2.49610E-02 0.00000E+00
 -1       598 2.32646E-03 2.50613E-02 0.00000E+00
 -1       599 3.21991E-03 2.52177E-02 0.00000E+00
 -1       600 4.29684E-03 2.54424E-02 0.00000E+00
 -1       601-4.13570E-03 2.41263E-02 0.00000E+00
 -1       602-3.79292E-03 2.40777E-02 0.00000E+00
 -1       603-3.42465E-03 2.40257E-02 0.00000E+00
 -1       604-3.03335E-03 2.39712E-02 0.00000E+00
 -1       605-2.61975E-03 2.39147E-02 0.00000E+00
 -1       606-2.18509E-03 2.38577E-02 0.00000E+00
 -1       607-1.73085E-03 2.38023E-02 0.00000E+00
 -1       608-1.25836E-03 2.37518E-02 0.00000E+00
 -1       609-7.68102E-04 2.37105E-02 0.00000E+00
 -1       610-2.58756E-04 2.36842E-02 0.00000E+00
 -1       611 2.74104E-04 2.36798E-02 0.00000E+00
 -1       612 8.39549E-04 2.37051E-02 0.00000E+00
 -1       613 1.45332E-03 2.37691E-02 0.00000E+00
 -1       614 2.14076E-03 2.38816E-02 0.00000E+00
 -1       615 2.94148E-03 2.40542E-02 0.00000E+00
 -1       616 3.91928E-03 2.43006E-02 0.00000E+00
 -1       617-3.78393E-03 2.31083E-02 0.00000E+00
 -1       618-3.45149E-03 2.30548E-02 0.00000E+00
 -1       619-3.09518E-03 2.29973E-02 0.00000E+00
 -1       620-2.71832E-03 2.29366E-02 0.00000E+00
 -1       621-2.32282E-03 2.28736E-02 0.00000E+00
 -1       622-1.91130E-03 2.28101E-02 0.00000E+00
 -1       623-1.48664E-03 2.27490E-02 0.00000E+00
 -1       624-1.05138E-03 2.26946E-02 0.00000E+00
 -1       625-6.06776E-04 2.26523E-02 0.00000E+00
 -1       626-1.51708E-04 2.26286E-02 0.00000E+00
 -1       627 3.18537E-04 2.26307E-02 0.00000E+00
 -1       628 8.13565E-04 2.26664E-02 0.00000E+00
 -1       629 1.34954E-03 2.27439E-02 0.00000E+00
 -1       630 1.95181E-03 2.28724E-02 0.00000E+00
 -1       631 2.65947E-03 2.30634E-02 0.00000E+00
 -1       632 3.53561E-03 2.33317E-02 0.00000E+00
 -1       633-3.43695E-03 2.22071E-02 0.00000E+00
 -1       634-3.11175E-03 2.21491E-02 0.00000E+00
 -1       635-2.76445E-03 2.20862E-02 0.00000E+00
 -1       636-2.39963E-03 2.20194E-02 0.00000E+00
 -1       637-2.02087E-03 2.19502E-02 0.00000E+00
 -1       638-1.63248E-03 2.18811E-02 0.00000E+00
 -1       639-1.23884E-03 2.18164E-02 0.00000E+00
 -1       640-8.43388E-04 2.17615E-02 0.00000E+00
 -1       641-4.47469E-04 2.17230E-02 0.00000E+00
 -1       642-4.93129E-05 2.17078E-02 0.00000E+00
 -1       643 3.56835E-04 2.17230E-02 0.00000E+00
 -1       644 7.81523E-04 2.17752E-02 0.00000E+00
 -1       645 1.24127E-03 2.18715E-02 0.00000E+00
 -1       646 1.76086E-03 2.20198E-02 0.00000E+00
 -1       647 2.37779E-03 2.22308E-02 0.00000E+00
 -1       648 3.15259E-03 2.25208E-02 0.00000E+00
 -1       649-3.09875E-03 2.14006E-02 0.00000E+00
 -1       650-2.77656E-03 2.13382E-02 0.00000E+00
 -1       651-2.43446E-03 2.12699E-02 0.00000E+00
 -1       652-2.07905E-03 2.11971E-02 0.00000E+00
 -1       653-1.71612E-03 2.11221E-02 0.00000E+00
 -1       654-1.35198E-03 2.10492E-02 0.00000E+00
 -1       655-9.92228E-04 2.09843E-02 0.00000E+00
 -1       656-6.40351E-04 2.09342E-02 0.00000E+00
 -1       657-2.96624E-04 2.09064E-02 0.00000E+00
 -1       658 4.24622E-05 2.09075E-02 0.00000E+00
 -1       659 3.84360E-04 2.09433E-02 0.00000E+00
 -1       660 7.40654E-04 2.10186E-02 0.00000E+00
 -1       661 1.12783E-03 2.11386E-02 0.00000E+00
 -1       662 1.56935E-03 2.13095E-02 0.00000E+00
 -1       663 2.10002E-03 2.15415E-02 0.00000E+00
 -1       664 2.77618E-03 2.18521E-02 0.00000E+00
 -1       665-2.77147E-03 2.06670E-02 0.00000E+00
 -1       666-2.44676E-03 2.06002E-02 0.00000E+00
 -1       667-2.10542E-03 2.05262E-02 0.00000E+00
 -1       668-1.75707E-03 2.04473E-02 0.00000E+00
 -1       669-1.41042E-03 2.03679E-02 0.00000E+00
 -1       670-1.07370E-03 2.02945E-02 0.00000E+00
 -1       671-7.52691E-04 2.02351E-02 0.00000E+00
 -1       672-4.49294E-04 2.01979E-02 0.00000E+00
 -1       673-1.61140E-04 2.01899E-02 0.00000E+00
 -1       674 1.17966E-04 2.02163E-02 0.00000E+00
 -1       675 3.97360E-04 2.02804E-02 0.00000E+00
 -1       676 6.89252E-04 2.03847E-02 0.00000E+00
 -1       677 1.00937E-03 2.05319E-02 0.00000E+00
 -1       678 1.37901E-03 2.07271E-02 0.00000E+00
 -1       679 1.82939E-03 2.09800E-02 0.00000E+00
 -1       680 2.41141E-03 2.13097E-02 0.00000E+00
 -1       681-2.45544E-03 1.99852E-02 0.00000E+00
 -1       682-2.12118E-03 1.99134E-02 0.00000E+00
 -1       683-1.77579E-03 1.98331E-02 0.00000E+00
 -1       684-1.43347E-03 1.97487E-02 0.00000E+00
 -1       685-1.10628E-03 1.96677E-02 0.00000E+00
 -1       686-8.03203E-04 1.95999E-02 0.00000E+00
 -1       687-5.27851E-04 1.95553E-02 0.00000E+00
 -1       688-2.78164E-04 1.95420E-02 0.00000E+00
 -1       689-4.76867E-05 1.95649E-02 0.00000E+00
 -1       690 1.72708E-04 1.96260E-02 0.00000E+00
 -1       691 3.93643E-04 1.97253E-02 0.00000E+00
 -1       692 6.27027E-04 1.98625E-02 0.00000E+00
 -1       693 8.86943E-04 2.00387E-02 0.00000E+00
 -1       694 1.19184E-03 2.02581E-02 0.00000E+00
 -1       695 1.56871E-03 2.05308E-02 0.00000E+00
 -1       696 2.06223E-03 2.08775E-02 0.00000E+00
 -1       697-2.14897E-03 1.93332E-02 0.00000E+00
 -1       698-1.79631E-03 1.92554E-02 0.00000E+00
 -1       699-1.44259E-03 1.91681E-02 0.00000E+00
 -1       700-1.10847E-03 1.90800E-02 0.00000E+00
 -1       701-8.08465E-04 1.90039E-02 0.00000E+00
 -1       702-5.48858E-04 1.89529E-02 0.00000E+00
 -1       703-3.27185E-04 1.89372E-02 0.00000E+00
 -1       704-1.35058E-04 1.89618E-02 0.00000E+00
 -1       705 3.83811E-05 1.90272E-02 0.00000E+00
 -1       706 2.04209E-04 1.91309E-02 0.00000E+00
 -1       707 3.72978E-04 1.92696E-02 0.00000E+00
 -1       708 5.55145E-04 1.94413E-02 0.00000E+00
 -1       709 7.62395E-04 1.96461E-02 0.00000E+00
 -1       710 1.00991E-03 1.98883E-02 0.00000E+00
 -1       711 1.32028E-03 2.01787E-02 0.00000E+00
 -1       712 1.73153E-03 2.05398E-02 0.00000E+00
 -1       713-1.84784E-03 1.86872E-02 0.00000E+00
 -1       714-1.46582E-03 1.86017E-02 0.00000E+00
 -1       715-1.10213E-03 1.85074E-02 0.00000E+00
 -1       716-7.84931E-04 1.84216E-02 0.00000E+00
 -1       717-5.26256E-04 1.83637E-02 0.00000E+00
 -1       718-3.22624E-04 1.83480E-02 0.00000E+00
 -1       719-1.61154E-04 1.83800E-02 0.00000E+00
 -1       720-2.66940E-05 1.84577E-02 0.00000E+00
 -1       721 9.42481E-05 1.85753E-02 0.00000E+00
 -1       722 2.12554E-04 1.87263E-02 0.00000E+00
 -1       723 3.37084E-04 1.89056E-02 0.00000E+00
 -1       724 4.75924E-04 1.91105E-02 0.00000E+00
 -1       725 6.38001E-04 1.93415E-02 0.00000E+00
 -1       726 8.35213E-04 1.96037E-02 0.00000E+00
 -1       727 1.08579E-03 1.99091E-02 0.00000E+00
 -1       728 1.42121E-03 2.02819E-02 0.00000E+00
 -1       729-1.54375E-03 1.80183E-02 0.00000E+00
 -1       730-1.11988E-03 1.79224E-02 0.00000E+00
 -1       731-7.52733E-04 1.78249E-02 0.00000E+00
 -1       732-4.72817E-04 1.77574E-02 0.00000E+00
 -1       733-2.75818E-04 1.77436E-02 0.00000E+00
 -1       734-1.39173E-04 1.77903E-02 0.00000E+00
 -1       735-3.88478E-05 1.78909E-02 0.00000E+00
 -1       736 4.35422E-05 1.80341E-02 0.00000E+00
 -1       737 1.20506E-04 1.82090E-02 0.00000E+00
 -1       738 2.00369E-04 1.84075E-02 0.00000E+00
 -1       739 2.89176E-04 1.86247E-02 0.00000E+00
 -1       740 3.92329E-04 1.88590E-02 0.00000E+00
 -1       741 5.16099E-04 1.91123E-02 0.00000E+00
 -1       742 6.69379E-04 1.93910E-02 0.00000E+00
 -1       743 8.66382E-04 1.97085E-02 0.00000E+00
 -1       744 1.13226E-03 2.00906E-02 0.00000E+00
 -1       745-1.22028E-03 1.72854E-02 0.00000E+00
 -1       746-7.45810E-04 1.71769E-02 0.00000E+00
 -1       747-4.02634E-04 1.70935E-02 0.00000E+00
 -1       748-1.95695E-04 1.70831E-02 0.00000E+00
 -1       749-7.99164E-05 1.71567E-02 0.00000E+00
 -1       750-1.18806E-05 1.72970E-02 0.00000E+00
 -1       751 3.54156E-05 1.74826E-02 0.00000E+00
 -1       752 7.70741E-05 1.76962E-02 0.00000E+00
 -1       753 1.21151E-04 1.79267E-02 0.00000E+00
 -1       754 1.72170E-04 1.81678E-02 0.00000E+00
 -1       755 2.33244E-04 1.84173E-02 0.00000E+00
 -1       756 3.07421E-04 1.86756E-02 0.00000E+00
 -1       757 3.98769E-04 1.89466E-02 0.00000E+00
 -1       758 5.13624E-04 1.92382E-02 0.00000E+00
 -1       759 6.62606E-04 1.95648E-02 0.00000E+00
 -1       760 8.64938E-04 1.99537E-02 0.00000E+00
 -1       761-8.43488E-04 1.64177E-02 0.00000E+00
 -1       762-3.38715E-04 1.63080E-02 0.00000E+00
 -1       763-8.90195E-05 1.63001E-02 0.00000E+00
 -1       764 6.16879E-06 1.64262E-02 0.00000E+00
 -1       765 4.00974E-05 1.66383E-02 0.00000E+00
 -1       766 5.37223E-05 1.68941E-02 0.00000E+00
 -1       767 6.47412E-05 1.71677E-02 0.00000E+00
 -1       768 8.01215E-05 1.74462E-02 0.00000E+00
 -1       769 1.02581E-04 1.77238E-02 0.00000E+00
 -1       770 1.33323E-04 1.79991E-02 0.00000E+00
 -1       771 1.73303E-04 1.82732E-02 0.00000E+00
 -1       772 2.23927E-04 1.85495E-02 0.00000E+00
 -1       773 2.87636E-04 1.88334E-02 0.00000E+00
 -1       774 3.68688E-04 1.91341E-02 0.00000E+00
 -1       775 4.74538E-04 1.94672E-02 0.00000E+00
 -1       776 6.18932E-04 1.98609E-02 0.00000E+00
 -1       777-3.48526E-04 1.52682E-02 0.00000E+00
 -1       778 3.92546E-05 1.52576E-02 0.00000E+00
 -1       779 1.02534E-04 1.55081E-02 0.00000E+00
 -1       780 9.66662E-05 1.58632E-02 0.00000E+00
 -1       781 7.84112E-05 1.62392E-02 0.00000E+00
 -1       782 6.48686E-05 1.66053E-02 0.00000E+00
 -1       783 5.93752E-05 1.69526E-02 0.00000E+00
 -1       784 6.19851E-05 1.72808E-02 0.00000E+00
 -1       785 7.20372E-05 1.75924E-02 0.00000E+00
 -1       786 8.90167E-05 1.78914E-02 0.00000E+00
 -1       787 1.12832E-04 1.81822E-02 0.00000E+00
 -1       788 1.43986E-04 1.84703E-02 0.00000E+00
 -1       789 1.83806E-04 1.87626E-02 0.00000E+00
 -1       790 2.34874E-04 1.90693E-02 0.00000E+00
 -1       791 3.01865E-04 1.94064E-02 0.00000E+00
 -1       792 3.93505E-04 1.98031E-02 0.00000E+00
 -1       793 1.72724E-04 1.35856E-02 0.00000E+00
 -1       794 1.57878E-04 1.42286E-02 0.00000E+00
 -1       795 1.14944E-04 1.49070E-02 0.00000E+00
 -1       796 7.75313E-05 1.54940E-02 0.00000E+00
 -1       797 5.35753E-05 1.59988E-02 0.00000E+00
 -1       798 3.96945E-05 1.64400E-02 0.00000E+00
 -1       799 3.32816E-05 1.68333E-02 0.00000E+00
 -1       800 3.24668E-05 1.71909E-02 0.00000E+00
 -1       801 3.60867E-05 1.75220E-02 0.00000E+00
 -1       802 4.34817E-05 1.78342E-02 0.00000E+00
 -1       803 5.43975E-05 1.81342E-02 0.00000E+00
 -1       804 6.89609E-05 1.84287E-02 0.00000E+00
 -1       805 8.77425E-05 1.87255E-02 0.00000E+00
 -1       806 1.11936E-04 1.90353E-02 0.00000E+00
 -1       807 1.43751E-04 1.93746E-02 0.00000E+00
 -1       808 1.87334E-04 1.97729E-02 0.00000E+00
 -3
    1PSTEP                         2           1           1          
  100CL  101 1.000000000         807                     0    1           1
 -4  STRESS      6    1
 -5  SXX         1    4    1    1
 -5  SYY         1    4    2    2
 -5  SZZ         1    4    3    3
 -5  SXY         1    4    1    2
 -5  SYZ         1    4    2    3
 -5  SZX         1    4    3    1
 -1         1-1.31655E+03-1.77303E+03-9.35843E+02-4.59349E+02 3.42455E-14 1.69996E-15
 -1         2 5.67093E-01-2.30290E-01 1.01035E-01 1.49648E+00 8.06657E-16 1.83611E-14
 -1         3-7.84791E+02-9.08330E+02-5.10557E+02-2.95770E+02 8.91780E-14-2.25653E-15
 -1         4-1.24457E+02 2.65309E+01-2.98142E+01-1.72595E+02 4.06713E-14 6.07823E-15
 -1         5-5.95165E+00 1.95049E+01 4.07017E+00-2.51117E+01-6.08358E-14 6.07276E-16
 -1         6 1.26327E+01 2.41304E+01 1.10305E+01-1.20702E+01-6.91909E-16 3.91310E-15
 -1         7 6.72209E+00 1.29960E+01 5.91633E+00-5.45368E+00 2.48745E-14 2.42313E-15
 -1         8 4.65331E+00 8.56299E+00 3.96515E+00-3.36014E+00 2.16753E-15-1.11473E-15
 -1         9 3.13496E+00 5.62178E+00 2.62712E+00-2.19632E+00 3.80282E-14-1.45391E-15
 -1        10 2.26471E+00 3.87342E+00 1.84147E+00-1.56669E+00-5.00196E-15 6.64332E-15
 -1        11 1.68679E+00 2.72229E+00 1.32273E+00-1.17412E+00-1.93178E-15-4.17980E-15
 -1        12 1.30230E+00 1.94880E+00 9.75328E-01-9.17147E-01-7.98798E-15 1.89379E-15
 -1        13 1.03694E+00 1.40955E+00 7.33942E-01-7.38514E-01 2.59648E-14 1.72732E-15
 -1        14 8.51382E-01 1.02398E+00 5.62603E-01-6.08813E-01-2.07626E-14-9.75998E-15
 -1        15 7.20536E-01 7.41355E-01 4.38561E-01-5.10687E-01 2.92020E-15 2.30658E-15
 -1        16 6.28766E-01 5.29296E-01 3.47413E-01-4.33483E-01 1.06700E-15-3.64453E-15
 -1        17 5.65934E-01 3.66345E-01 2.79679E-01-3.70119E-01 1.07951E-16-9.76444E-15
 -1        18 5.25452E-01 2.37819E-01 2.28977E-01-3.15458E-01-1.12401E-14 4.14184E-15
 -1        19 5.02943E-01 1.34032E-01 1.91088E-01-2.65405E-01-9.96696E-15-1.86770E-14
 -1        20 4.97605E-01 4.64219E-02 1.63204E-01-2.15443E-01-1.31940E-14 4.07705E-17
 -1        21 4.97326E-01-1.58260E-02 1.44446E-01-1.67016E-01 8.61884E-15-1.23074E-15
 -1        22 5.38358E-01-1.33605E-01 1.21421E-01-1.06231E-01-1.15481E-15-7.38562E-15
 -1        23 2.59468E-01-1.67073E+00-4.23389E-01 1.44707E+00-1.48469E-15 1.04179E-14
 -1        24 3.08536E-01-3.17235E+00-8.59174E-01 1.38180E+00-1.17208E-15-8.31673E-15
 -1        25 4.11632E-01-4.93482E+00-1.35703E+00 1.30567E+00 1.74167E-15-4.24104E-15
 -1        26 5.94268E-01-6.99478E+00-1.92029E+00 1.21725E+00 2.71191E-15 4.96709E-16
 -1        27 8.82072E-01-9.41165E+00-2.55913E+00 1.11486E+00-7.18302E-15 1.45021E-14
 -1        28 1.31081E+00-1.22567E+01-3.28421E+00 9.96982E-01 9.51991E-15-9.43528E-15
 -1        29 1.92705E+00-1.56148E+01-4.10705E+00 8.62599E-01-5.14368E-15 1.45199E-14
 -1        30 2.78978E+00-1.95840E+01-5.03944E+00 7.11767E-01 2.10190E-14 1.67510E-15
 -1        31 3.97077E+00-2.42718E+01-6.09217E+00 5.46502E-01-1.96948E-14 1.18831E-14
 -1        32 5.55133E+00-2.97842E+01-7.27272E+00 3.72058E-01 1.31675E-16-8.18085E-15
 -1        33 7.61180E+00-3.62008E+01-8.58106E+00 1.98465E-01 1.65170E-14-1.69693E-14
 -1        34 1.02077E+01-4.35286E+01-1.00027E+01 4.18876E-02 1.93576E-14 1.70878E-14
 -1        35 1.33261E+01-5.16233E+01-1.14985E+01-7.54109E-02-1.45574E-14 1.79132E-15
 -1        36 1.68154E+01-6.00807E+01-1.29926E+01-1.28479E-01 2.73282E-14-1.02985E-14
 -1        37 2.03639E+01-6.80814E+01-1.43323E+01-9.73472E-02-1.91301E-14-1.96649E-15
 -1        38 2.30628E+01-7.51643E+01-1.56514E+01 3.17573E-03-7.00713E-15-8.13648E-16
 -1        39 2.52537E+01-7.63732E+01-1.53581E+01-2.52004E-01-7.45244E-15-2.88660E-16
 -1        40-3.22808E+02-1.22347E+03-4.67480E+02-2.34018E+02 6.91159E-15-6.50919E-16
 -1        41-1.20214E+02-8.66253E+02-2.97926E+02-1.06585E+02 6.91145E-15-3.65673E-16
 -1        42-3.28071E+01-5.93846E+02-1.88967E+02-5.39981E+01 9.25246E-14-7.01231E-16
 -1        43-9.33362E-01-4.35168E+02-1.31366E+02-2.97127E+01-5.60628E-14-7.62953E-16
 -1        44 1.24113E+01-3.34998E+02-9.71009E+01-1.74859E+01-3.38749E-14 3.61601E-16
 -1        45 1.84853E+01-2.67436E+02-7.48968E+01-1.07734E+01 5.33884E-14-5.11180E-16
 -1        46 2.14974E+01-2.19319E+02-5.94922E+01-6.85019E+00 2.24891E-14 6.98219E-16
 -1        47 2.30904E+01-1.83678E+02-4.82808E+01-4.44095E+00 3.94767E-15-1.72528E-16
 -1        48 2.39798E+01-1.56510E+02-3.98371E+01-2.90528E+00 3.82436E-14 1.35756E-16
 -1        49 2.44985E+01-1.35386E+02-3.33260E+01-1.89803E+00 1.36650E-14-1.41430E-16
 -1        50 2.48116E+01-1.18757E+02-2.82310E+01-1.22339E+00 1.78781E-14-6.63637E-17
 -1        51 2.50049E+01-1.05613E+02-2.42209E+01-7.65219E-01-6.75365E-14 5.58142E-17
 -1        52 2.51238E+01-9.52866E+01-2.10810E+01-4.52358E-01 2.81757E-14-5.63975E-17
 -1        53 2.51905E+01-8.73578E+01-1.86780E+01-2.40160E-01 2.22061E-14-9.14299E-17
 -1        54 2.52289E+01-8.15859E+01-1.69319E+01-1.00216E-01 1.93158E-15 1.95669E-17
 -1        55 2.50354E+01-7.79740E+01-1.59045E+01-1.39733E-02 4.43127E-14 2.38736E-17
 -1        56-2.76238E+02-7.22281E+02-3.01016E+02-1.97822E+02-3.37891E-14 4.68183E-15
 -1        57-1.11483E+02-6.45861E+02-2.28447E+02-1.76832E+02-3.65867E-14 1.83325E-16
 -1        58-4.10322E+01-5.16847E+02-1.68154E+02-1.07312E+02-2.76157E-14 1.66850E-15
 -1        59-7.33732E+00-4.04790E+02-1.24122E+02-6.44237E+01-2.27790E-15 1.23027E-15
 -1        60 8.52148E+00-3.21897E+02-9.43203E+01-3.95567E+01 1.38353E-14-1.92400E-15
 -1        61 1.63094E+01-2.61291E+02-7.36997E+01-2.49574E+01 3.08683E-14 1.29164E-15
 -1        62 2.02980E+01-2.16270E+02-5.89346E+01-1.60899E+01-7.29676E-14-1.44822E-15
 -1        63 2.24332E+01-1.82103E+02-4.80043E+01-1.05213E+01-2.36222E-15 5.37515E-16
 -1        64 2.36212E+01-1.55677E+02-3.96940E+01-6.92157E+00 1.05187E-14-7.87478E-16
 -1        65 2.43049E+01-1.34939E+02-3.32498E+01-4.53936E+00 1.17726E-14 5.70899E-16
 -1        66 2.47093E+01-1.18518E+02-2.81897E+01-2.93440E+00-9.09279E-15 3.30601E-16
 -1        67 2.49529E+01-1.05486E+02-2.41984E+01-1.84024E+00-8.05245E-15-3.91076E-16
 -1        68 2.50991E+01-9.52214E+01-2.10689E+01-1.09125E+00-2.56778E-16 2.80849E-16
 -1        69 2.51802E+01-8.73260E+01-1.86715E+01-5.82497E-01-4.22206E-15 5.83869E-17
 -1        70 2.52259E+01-8.15716E+01-1.69285E+01-2.47696E-01 3.37289E-14 1.50154E-17
 -1        71 2.50372E+01-7.79672E+01-1.59019E+01-4.34984E-02-3.33169E-14-1.31246E-16
 -1        72-2.40513E+02-1.33286E+02-1.12587E+02-1.89733E+02 6.51726E-15-6.54871E-15
 -1        73-1.23181E+02-2.72554E+02-1.19216E+02-2.13560E+02 6.91498E-15 5.79341E-16
 -1        74-6.07686E+01-3.35477E+02-1.19338E+02-1.63356E+02 2.28513E-15-3.86107E-15
 -1        75-2.31444E+01-3.21013E+02-1.03607E+02-1.10977E+02-2.56620E-14 8.27375E-16
 -1        76-1.60053E+00-2.82238E+02-8.54111E+01-7.32145E+01-4.57315E-14-6.34232E-15
 -1        77 1.03331E+01-2.41759E+02-6.96132E+01-4.81749E+01-3.53217E-14 7.45392E-16
 -1        78 1.68918E+01-2.06285E+02-5.69522E+01-3.18621E+01 7.47281E-14-3.92603E-16
 -1        79 2.05246E+01-1.76852E+02-4.69975E+01-2.11708E+01-1.13701E-14-1.59272E-15
 -1        80 2.25662E+01-1.52863E+02-3.91644E+01-1.40714E+01-1.46199E-14-1.17526E-15
 -1        81 2.37315E+01-1.33418E+02-3.29646E+01-9.29079E+00 1.56547E-14 1.53336E-15
 -1        82 2.44057E+01-1.17697E+02-2.80342E+01-6.03283E+00 8.55193E-15 2.56779E-17
 -1        83 2.47988E+01-1.05050E+02-2.41135E+01-3.79475E+00-1.04570E-14-1.80618E-16
 -1        84 2.50265E+01-9.49964E+01-2.10230E+01-2.25487E+00 2.07204E-14 1.24289E-15
 -1        85 2.51507E+01-8.72160E+01-1.86473E+01-1.20537E+00 1.81036E-14 1.61975E-16
 -1        86 2.52176E+01-8.15226E+01-1.69162E+01-5.13226E-01-5.26586E-14-2.19818E-16
 -1        87 2.50434E+01-7.79442E+01-1.58932E+01-9.04654E-02-6.53512E-15 3.57017E-16
 -1        88-2.06576E+02-7.43510E+01-8.44684E+01-8.95632E+01 2.01695E-14-5.28863E-17
 -1        89-1.58458E+02-1.13344E+02-8.17906E+01-1.48910E+02 2.37654E-14 5.09673E-15
 -1        90-8.99383E+01-1.81712E+02-8.17530E+01-1.54612E+02 6.07312E-15-3.15352E-16
 -1        91-4.43648E+01-2.20386E+02-7.96618E+01-1.26872E+02 2.45582E-14-1.28494E-15
 -1        92-1.58279E+01-2.24362E+02-7.22539E+01-9.39045E+01 4.40405E-14 1.21743E-15
 -1        93 1.37480E+00-2.09897E+02-6.27116E+01-6.63780E+01-4.19998E-14-6.99652E-16
 -1        94 1.15053E+01-1.88891E+02-5.33354E+01-4.59291E+01-3.65799E-14-1.64735E-15
 -1        95 1.73887E+01-1.67327E+02-4.50736E+01-3.14147E+01 2.01602E-14-7.57403E-16
 -1        96 2.07871E+01-1.47626E+02-3.81235E+01-2.12785E+01 1.32577E-14 3.65094E-15
 -1        97 2.27484E+01-1.30539E+02-3.23939E+01-1.42260E+01-5.96014E-15-1.31935E-15
 -1        98 2.38803E+01-1.16126E+02-2.77195E+01-9.31503E+00-1.54741E-14-1.19074E-15
 -1        99 2.45314E+01-1.04208E+02-2.39406E+01-5.89248E+00 4.89212E-16 2.93409E-16
 -1       100 2.49008E+01-9.45598E+01-2.09295E+01-3.51482E+00-4.37871E-14 2.70697E-16
 -1       101 2.51002E+01-8.70020E+01-1.85981E+01-1.88397E+00 2.03956E-14 9.21508E-16
 -1       102 2.52041E+01-8.14270E+01-1.68916E+01-8.03982E-01 3.11619E-14-8.86783E-17
 -1       103 2.50556E+01-7.79000E+01-1.58762E+01-1.42449E-01-1.38294E-14 3.48588E-17
 -1       104-1.03952E+02-2.55347E+01-3.88887E+01-3.96227E+01 6.60776E-14 3.53639E-15
 -1       105-1.36923E+02-6.04431E+01-5.93216E+01-8.69548E+01-5.40369E-14 2.31664E-15
 -1       106-1.04684E+02-1.00628E+02-6.17350E+01-1.15424E+02-2.01743E-15 6.49703E-15
 -1       107-6.33255E+01-1.41213E+02-6.15099E+01-1.15564E+02-1.20954E-15-7.79081E-16
 -1       108-3.12344E+01-1.65478E+02-5.91533E+01-9.83815E+01-1.06469E-14 3.37947E-15
 -1       109-9.43478E+00-1.71633E+02-5.44421E+01-7.64811E+01 2.39167E-14-3.31485E-15
 -1       110 4.48585E+00-1.65690E+02-4.84624E+01-5.64120E+01 3.19632E-14 1.52836E-15
 -1       111 1.30668E+01-1.53744E+02-4.22854E+01-4.02707E+01-1.36378E-14-7.47933E-15
 -1       112 1.82351E+01-1.39829E+02-3.65446E+01-2.80707E+01 1.55269E-14 1.59943E-15
 -1       113 2.12982E+01-1.26129E+02-3.15033E+01-1.91334E+01-3.07770E-14-5.66996E-16
 -1       114 2.30902E+01-1.13674E+02-2.72194E+01-1.26935E+01 6.32588E-15 1.26543E-16
 -1       115 2.41242E+01-1.02877E+02-2.36626E+01-8.10145E+00-1.04502E-14-2.37002E-15
 -1       116 2.47082E+01-9.38638E+01-2.07781E+01-4.86199E+00 4.14152E-14-3.18190E-16
 -1       117 2.50227E+01-8.66592E+01-1.85183E+01-2.61723E+00 8.64365E-15-2.27565E-16
 -1       118 2.51836E+01-8.12738E+01-1.68517E+01-1.12085E+00 2.45544E-14 5.52793E-17
 -1       119 2.50752E+01-7.78294E+01-1.58491E+01-2.00040E-01-1.96639E-14 2.76471E-16
 -1       120-5.74314E+01-1.12798E+01-2.06260E+01-2.16891E+01-1.42464E-14 5.70368E-15
 -1       121-9.33085E+01-3.13705E+01-3.74478E+01-5.08534E+01 1.02679E-15-1.13434E-14
 -1       122-9.38949E+01-5.95395E+01-4.61033E+01-7.86213E+01 2.72477E-15-5.68773E-15
 -1       123-7.06222E+01-9.05715E+01-4.84473E+01-9.22363E+01 4.65202E-15 1.12828E-14
 -1       124-4.30011E+01-1.17539E+02-4.82561E+01-9.00189E+01 4.27014E-14-9.94338E-16
 -1       125-1.99669E+01-1.34140E+02-4.63226E+01-7.77696E+01-1.85010E-15 4.49507E-15
 -1       126-3.31318E+00-1.39712E+02-4.29893E+01-6.19860E+01 4.95635E-15-8.28196E-16
 -1       127 7.84096E+00-1.37070E+02-3.88394E+01-4.67659E+01 6.13027E-15 6.20374E-16
 -1       128 1.49636E+01-1.29642E+02-3.44634E+01-3.38870E+01-2.92253E-14-2.85401E-15
 -1       129 1.93611E+01-1.20121E+02-3.02782E+01-2.37285E+01-2.13140E-14 3.70904E-15
 -1       130 2.20040E+01-1.10237E+02-2.65120E+01-1.60379E+01 4.43396E-15-3.41101E-15
 -1       131 2.35530E+01-1.00975E+02-2.32623E+01-1.03683E+01-3.22505E-14 1.35314E-15
 -1       132 2.44342E+01-9.28567E+01-2.05576E+01-6.27788E+00 1.30153E-14-7.77388E-16
 -1       133 2.49115E+01-8.61592E+01-1.84014E+01-3.40062E+00-7.20070E-15 7.34883E-16
 -1       134 2.51542E+01-8.10497E+01-1.67931E+01-1.46387E+00-8.73156E-15-6.07834E-16
 -1       135 2.51036E+01-7.77264E+01-1.58097E+01-2.63958E-01-3.59250E-14-2.08019E-16
 -1       136-3.44643E+01-5.79721E+00-1.20829E+01-1.34162E+01 4.36154E-14 6.16582E-15
 -1       137-6.19954E+01-1.77846E+01-2.39523E+01-3.19780E+01-2.42409E-14 1.53654E-15
 -1       138-7.29257E+01-3.63408E+01-3.28161E+01-5.30064E+01-3.38016E-14-3.98138E-15
 -1       139-6.57241E+01-5.94221E+01-3.75953E+01-6.91648E+01-3.30771E-14-2.97399E-15
 -1       140-4.77824E+01-8.29074E+01-3.92680E+01-7.55115E+01-6.66055E-15-4.37660E-15
 -1       141-2.78069E+01-1.02201E+02-3.90671E+01-7.21590E+01-1.62298E-14 3.12477E-15
 -1       142-1.06500E+01-1.14284E+02-3.75436E+01-6.24719E+01 9.37972E-15-1.51457E-15
 -1       143 2.23463E+00-1.18893E+02-3.50561E+01-5.02509E+01-3.14017E-14-3.91267E-15
 -1       144 1.11439E+01-1.17623E+02-3.19962E+01-3.81936E+01 1.92997E-14 1.92235E-15
 -1       145 1.69640E+01-1.12623E+02-2.87435E+01-2.76876E+01-3.36829E-15-3.85898E-15
 -1       146 2.06036E+01-1.05776E+02-2.55913E+01-1.91823E+01-1.40722E-18 2.80557E-15
 -1       147 2.27947E+01-9.84392E+01-2.27277E+01-1.26191E+01-2.95483E-14-1.20345E-15
 -1       148 2.40629E+01-9.14898E+01-2.02582E+01-7.73455E+00 2.65425E-14 6.45609E-16
 -1       149 2.47584E+01-8.54729E+01-1.82411E+01-4.22622E+00 8.07751E-15-1.98461E-15
 -1       150 2.51130E+01-8.07405E+01-1.67126E+01-1.83234E+00 3.04633E-15 1.80127E-16
 -1       151 2.51421E+01-7.75851E+01-1.57557E+01-3.35050E-01 9.98792E-16 1.06767E-16
 -1       152-2.20841E+01-3.63522E+00-7.71765E+00-9.16600E+00 2.71845E-16-4.48474E-15
 -1       153-4.16868E+01-1.10888E+01-1.58408E+01-2.14906E+01 3.64394E-14 1.32186E-14
 -1       154-5.37724E+01-2.34263E+01-2.31776E+01-3.66500E+01-5.18255E-14-9.90243E-15
 -1       155-5.48375E+01-4.00576E+01-2.84974E+01-5.09106E+01 7.14072E-14 5.32461E-15
 -1       156-4.59446E+01-5.89979E+01-3.15210E+01-6.03237E+01 1.30085E-15 3.54991E-15
 -1       157-3.15250E+01-7.71965E+01-3.26609E+01-6.27977E+01-3.63102E-14-8.54865E-15
 -1       158-1.62566E+01-9.17299E+01-3.24433E+01-5.88392E+01-8.48770E-15 8.35513E-15
 -1       159-3.03614E+00-1.00902E+02-3.12284E+01-5.06228E+01 3.15470E-14 4.35314E-15
 -1       160 7.08448E+00-1.04621E+02-2.93055E+01-4.06133E+01-2.82740E-14-4.80133E-15
 -1       161 1.42016E+01-1.03940E+02-2.69624E+01-3.06914E+01-3.42823E-14-4.74101E-15
 -1       162 1.88964E+01-1.00347E+02-2.44716E+01-2.19314E+01 5.27280E-16 4.76676E-15
 -1       163 2.18325E+01-9.52422E+01-2.20555E+01-1.47556E+01 1.25097E-14-4.46019E-15
 -1       164 2.35774E+01-8.97241E+01-1.98731E+01-9.19070E+00-3.46776E-14-2.84653E-15
 -1       165 2.45534E+01-8.45729E+01-1.80321E+01-5.08047E+00 6.02612E-17-1.01382E-16
 -1       166 2.50562E+01-8.03325E+01-1.66070E+01-2.22394E+00 1.60265E-14-4.93275E-16
 -1       167 2.51915E+01-7.73996E+01-1.56851E+01-4.14188E-01-2.77995E-14-1.98686E-16
 -1       168-1.47483E+01-2.62058E+00-5.21154E+00-6.68456E+00-3.16676E-14-4.47264E-15
 -1       169-2.86147E+01-7.67676E+00-1.08913E+01-1.53087E+01-1.57918E-14 1.54521E-15
 -1       170-3.89700E+01-1.61027E+01-1.65310E+01-2.62192E+01 2.59617E-14 6.27350E-15
 -1       171-4.31582E+01-2.80555E+01-2.13803E+01-3.76580E+01-2.19987E-14-4.38079E-15
 -1       172-4.01717E+01-4.27655E+01-2.49046E+01-4.71353E+01-1.25632E-14-1.34842E-15
 -1       173-3.13004E+01-5.84924E+01-2.69676E+01-5.24486E+01 3.59604E-14 1.98965E-15
 -1       174-1.93774E+01-7.30135E+01-2.77515E+01-5.26612E+01-6.19537E-15-1.61776E-15
 -1       175-7.25474E+00-8.43844E+01-2.75282E+01-4.83447E+01-1.42931E-15 2.35927E-15
 -1       176 3.20172E+00-9.15556E+01-2.65429E+01-4.10429E+01 1.35938E-14-2.23133E-15
 -1       177 1.12483E+01-9.45345E+01-2.50213E+01-3.24941E+01 3.94018E-14 2.12638E-15
 -1       178 1.69272E+01-9.41083E+01-2.31875E+01-2.40844E+01 8.07867E-16-4.74534E-15
 -1       179 2.06608E+01-9.14046E+01-2.12537E+01-1.66588E+01 8.09046E-15 3.90256E-15
 -1       180 2.29620E+01-8.75381E+01-1.94007E+01-1.05899E+01-1.13322E-14 7.13103E-16
 -1       181 2.42849E+01-8.34363E+01-1.77711E+01-5.94238E+00 1.80467E-14-1.63204E-15
 -1       182 2.49787E+01-7.98128E+01-1.64741E+01-2.63388E+00 2.39103E-14 1.62831E-15
 -1       183 2.52516E+01-7.71652E+01-1.55967E+01-5.02127E-01-9.02700E-16-9.56337E-16
 -1       184-1.01300E+01-2.10868E+00-3.67206E+00-5.10781E+00 2.13734E-14-7.84918E-16
 -1       185-1.99813E+01-5.82019E+00-7.74243E+00-1.14123E+01-8.77628E-15-2.51158E-15
 -1       186-2.81455E+01-1.18585E+01-1.20061E+01-1.94097E+01 9.42842E-16 2.32541E-16
 -1       187-3.29102E+01-2.05758E+01-1.60550E+01-2.82859E+01 2.37885E-14 4.11951E-15
 -1       188-3.30382E+01-3.18558E+01-1.94824E+01-3.66309E+01-2.52075E-15-9.77258E-16
 -1       189-2.83576E+01-4.48586E+01-2.19843E+01-4.27835E+01-2.85469E-14 7.34670E-15
 -1       190-2.00136E+01-5.81395E+01-2.34700E+01-4.54518E+01 1.98862E-14 1.29462E-15
 -1       191-9.95167E+00-7.00389E+01-2.40247E+01-4.42303E+01 4.07239E-15 5.18156E-15
 -1       192-7.37611E-02-7.91953E+01-2.38102E+01-3.96811E+01 1.18147E-14 3.30490E-17
 -1       193 8.34660E+00-8.49255E+01-2.30037E+01-3.29889E+01-9.20644E-15-4.29944E-15
 -1       194 1.47876E+01-8.73098E+01-2.17862E+01-2.54701E+01-7.89669E-15 3.30275E-15
 -1       195 1.92936E+01-8.70037E+01-2.03412E+01-1.81993E+01-4.08105E-15-2.20162E-15
 -1       196 2.22049E+01-8.49355E+01-1.88457E+01-1.18608E+01-9.18775E-15 6.97015E-16
 -1       197 2.39397E+01-8.20495E+01-1.74578E+01-6.78187E+00 2.08292E-14 3.99597E-15
 -1       198 2.48733E+01-7.91721E+01-1.63131E+01-3.05380E+00-2.21073E-14-9.78172E-16
 -1       199 2.53205E+01-7.68798E+01-1.54902E+01-5.99252E-01 1.40231E-14 6.91162E-16
 -1       200-7.08307E+00-1.82871E+00-2.67378E+00-4.03291E+00 2.69216E-15 7.52813E-16
 -1       201-1.41221E+01-4.75392E+00-5.66388E+00-8.80876E+00 4.42986E-15 8.38568E-15
 -1       202-2.03266E+01-9.31445E+00-8.89503E+00-1.48048E+01-1.57088E-14-3.84620E-15
 -1       203-2.46417E+01-1.58610E+01-1.21561E+01-2.16488E+01-3.88822E-15-1.46853E-15
 -1       204-2.60882E+01-2.45473E+01-1.51993E+01-2.85788E+01-1.37157E-14 3.65271E-15
 -1       205-2.40647E+01-3.50824E+01-1.77567E+01-3.45050E+01-3.53239E-15-7.01642E-15
 -1       206-1.87253E+01-4.66575E+01-1.96314E+01-3.82885E+01-4.12184E-15-6.23875E-15
 -1       207-1.10364E+01-5.80727E+01-2.07530E+01-3.91461E+01-1.68774E-15 6.24438E-15
 -1       208-2.42164E+00-6.80478E+01-2.11639E+01-3.69478E+01-2.66163E-14-9.86851E-15
 -1       209 5.76446E+00-7.55892E+01-2.09723E+01-3.22368E+01 2.14319E-14 7.45516E-15
 -1       210 1.26156E+01-8.02479E+01-2.03154E+01-2.59861E+01-9.97154E-15-1.13747E-15
 -1       211 1.77721E+01-8.21691E+01-1.93447E+01-1.92555E+01-1.08801E-14 6.91976E-16
 -1       212 2.13024E+01-8.19501E+01-1.82193E+01-1.29209E+01 6.73279E-16 2.77986E-16
 -1       213 2.35041E+01-8.04112E+01-1.70962E+01-7.55867E+00-1.53077E-14-4.00180E-15
 -1       214 2.47306E+01-7.84060E+01-1.61257E+01-3.47051E+00 2.45916E-14 1.75589E-15
 -1       215 2.53937E+01-7.65451E+01-1.53678E+01-7.05150E-01-2.95374E-14-1.17856E-15
 -1       216-5.00050E+00-1.66795E+00-2.00067E+00-3.25771E+00 1.03550E-14-1.22284E-15
 -1       217-1.00444E+01-4.11052E+00-4.24708E+00-6.97517E+00-1.33568E-14-4.36973E-15
 -1       218-1.46638E+01-7.73649E+00-6.72165E+00-1.15692E+01 3.07355E-15 4.95735E-15
 -1       219-1.82102E+01-1.28347E+01-9.31661E+00-1.68713E+01 9.87835E-15 9.41246E-15
 -1       220-2.00031E+01-1.96382E+01-1.18977E+01-2.24793E+01 1.34034E-14-2.13058E-15
 -1       221-1.94405E+01-2.81404E+01-1.42824E+01-2.77256E+01-8.88877E-15 7.49245E-15
 -1       222-1.62599E+01-3.79744E+01-1.62816E+01-3.17647E+01 5.07606E-15 4.09467E-15
 -1       223-1.07450E+01-4.83867E+01-1.77541E+01-3.37968E+01 2.32458E-15-6.89953E-15
 -1       224-3.71613E+00-5.83649E+01-1.86420E+01-3.33453E+01 9.99661E-15 8.56102E-16
 -1       225 3.72931E+00-6.68901E+01-1.89684E+01-3.04428E+01 5.85826E-15 4.77079E-15
 -1       226 1.05783E+01-7.32176E+01-1.88137E+01-2.56236E+01-3.14942E-14-3.05907E-15
 -1       227 1.61691E+01-7.70658E+01-1.82919E+01-1.97363E+01-1.53236E-14 6.38571E-15
 -1       228 2.02653E+01-7.86448E+01-1.75370E+01-1.36850E+01 1.25590E-14 2.00082E-15
 -1       229 2.29663E+01-7.85357E+01-1.66939E+01-8.22292E+00-5.05912E-15-2.79867E-15
 -1       230 2.45388E+01-7.75172E+01-1.59162E+01-3.86461E+00 1.34132E-14-6.38176E-16
 -1       231 2.54624E+01-7.61693E+01-1.52342E+01-8.17982E-01 6.21140E-15-2.92005E-16
 -1       232-3.53639E+00-1.57259E+00-1.53278E+00-2.67175E+00-3.58605E-15-5.31041E-16
 -1       233-7.14456E+00-3.70679E+00-3.25577E+00-5.62230E+00 1.42700E-14 1.19304E-14
 -1       234-1.05284E+01-6.72535E+00-5.17706E+00-9.20611E+00 3.88464E-15 8.89807E-15
 -1       235-1.32840E+01-1.08514E+01-7.24253E+00-1.33486E+01 2.15583E-15-6.68207E-17
 -1       236-1.49601E+01-1.63148E+01-9.38578E+00-1.78395E+01 9.46073E-17-5.70905E-15
 -1       237-1.50789E+01-2.32322E+01-1.14986E+01-2.22843E+01-9.91793E-16 1.16715E-14
 -1       238-1.32774E+01-3.15032E+01-1.34419E+01-2.61078E+01-4.79835E-15 4.93305E-15
 -1       239-9.48196E+00-4.07266E+01-1.50730E+01-2.86474E+01 1.62274E-15-3.39910E-15
 -1       240-4.02875E+00-5.02043E+01-1.62833E+01-2.93334E+01 1.10380E-14 1.85769E-15
 -1       241 2.37182E+00-5.90642E+01-1.70238E+01-2.78914E+01 8.37722E-15 1.80131E-15
 -1       242 8.83780E+00-6.64746E+01-1.73095E+01-2.44664E+01-6.92904E-17-1.25098E-14
 -1       243 1.45848E+01-7.18719E+01-1.72063E+01-1.96005E+01 1.43234E-14 6.48490E-15
 -1       244 1.91253E+01-7.51063E+01-1.68157E+01-1.40780E+01 1.44861E-14 7.27339E-16
 -1       245 2.23204E+01-7.64526E+01-1.62616E+01-8.71827E+00-1.47493E-14-4.51244E-15
 -1       246 2.42842E+01-7.65166E+01-1.56918E+01-4.20977E+00-3.59373E-15 2.32885E-15
 -1       247 2.55125E+01-7.57683E+01-1.50987E+01-9.33668E-01-2.41800E-14 4.30070E-17
 -1       248-2.48348E+00-1.51594E+00-1.19988E+00-2.21068E+00-1.20234E-14 1.60100E-15
 -1       249-5.04455E+00-3.44606E+00-2.54741E+00-4.58164E+00 1.44514E-14-1.16043E-15
 -1       250-7.47912E+00-6.05929E+00-4.06211E+00-7.41415E+00-2.31270E-15-7.07853E-16
 -1       251-9.53033E+00-9.52422E+00-5.71756E+00-1.06764E+01 2.49938E-14-1.51708E-15
 -1       252-1.09032E+01-1.40400E+01-7.48511E+00-1.42593E+01-1.92731E-14-4.06374E-15
 -1       253-1.12510E+01-1.97617E+01-9.30727E+00-1.79334E+01-9.08981E-15 2.90887E-15
 -1       254-1.02418E+01-2.67285E+01-1.10963E+01-2.13257E+01-2.99098E-15-4.41370E-15
 -1       255-7.66710E+00-3.47796E+01-1.27414E+01-2.39427E+01-2.12052E-15 6.58189E-15
 -1       256-3.56587E+00-4.34983E+01-1.41292E+01-2.52605E+01-2.58781E-14-4.29113E-15
 -1       257 1.70428E+00-5.22333E+01-1.51713E+01-2.48762E+01-1.23278E-14-7.90832E-15
 -1       258 7.51430E+00-6.02178E+01-1.58263E+01-2.26643E+01 3.38593E-14-9.83959E-16
 -1       259 1.31322E+01-6.67602E+01-1.61059E+01-1.88641E+01-5.72560E-15-4.36080E-15
 -1       260 1.79370E+01-7.14366E+01-1.60693E+01-1.40485E+01-2.14740E-14 4.04847E-16
 -1       261 2.15722E+01-7.42052E+01-1.58106E+01-8.98827E+00-1.87529E-15-1.57841E-15
 -1       262 2.39535E+01-7.54225E+01-1.54622E+01-4.47314E+00-3.76674E-15-4.42413E-15
 -1       263 2.55238E+01-7.53674E+01-1.49749E+01-1.04502E+00 2.09663E-15 2.50565E-16
 -1       264-1.71216E+00-1.48393E+00-9.58863E-01-1.83470E+00 6.50434E-15 2.92119E-15
 -1       265-3.50096E+00-3.27510E+00-2.03296E+00-3.75020E+00-3.62060E-16-1.94370E-15
 -1       266-5.21016E+00-5.61136E+00-3.24683E+00-6.00493E+00-1.39081E-15-7.12109E-15
 -1       267-6.67222E+00-8.61993E+00-4.58842E+00-8.58633E+00-3.76977E-14 1.76189E-15
 -1       268-7.69395E+00-1.24651E+01-6.04911E+00-1.14380E+01 3.03758E-14 6.86420E-15
 -1       269-8.03282E+00-1.73009E+01-7.60244E+00-1.44274E+01 6.37108E-15 1.47731E-15
 -1       270-7.42532E+00-2.32286E+01-9.19979E+00-1.73190E+01-1.72957E-14 7.87384E-15
 -1       271-5.64425E+00-3.02317E+01-1.07681E+01-1.97667E+01 1.73854E-14 1.02624E-15
 -1       272-2.58620E+00-3.81078E+01-1.22156E+01-2.13467E+01-6.61454E-15-1.64536E-14
 -1       273 1.63774E+00-4.64313E+01-1.34479E+01-2.16459E+01 1.53433E-14 5.07975E-15
 -1       274 6.66058E+00-5.45868E+01-1.43903E+01-2.03941E+01-2.28193E-14 9.45184E-15
 -1       275 1.19138E+01-6.18868E+01-1.50070E+01-1.75922E+01-1.67250E-14-5.47096E-15
 -1       276 1.67747E+01-6.77463E+01-1.53089E+01-1.35771E+01 1.85855E-14 3.52283E-15
 -1       277 2.07449E+01-7.18483E+01-1.53505E+01-8.98465E+00-6.94046E-15 7.01743E-15
 -1       278 2.35380E+01-7.42594E+01-1.52373E+01-4.61786E+00 2.06876E-14-5.38601E-15
 -1       279 2.54698E+01-7.50008E+01-1.48809E+01-1.14117E+00-2.79859E-14 1.60788E-15
 -1       280-1.13861E+00-1.46893E+00-7.82287E-01-1.51770E+00 1.67379E-14-3.86285E-15
 -1       281-2.35325E+00-3.16347E+00-1.65511E+00-3.06192E+00-5.30040E-15-1.19813E-15
 -1       282-3.50957E+00-5.30683E+00-2.64517E+00-4.85677E+00 1.44848E-14-6.40351E-15
 -1       283-4.49509E+00-7.99604E+00-3.74786E+00-6.89800E+00 1.91876E-15-2.25678E-16
 -1       284-5.18170E+00-1.13645E+01-4.96480E+00-9.15676E+00-3.40272E-16-6.78414E-15
 -1       285-5.40168E+00-1.55507E+01-6.28732E+00-1.15564E+01 9.38493E-15-3.01449E-16
 -1       286-4.95828E+00-2.06755E+01-7.69267E+00-1.39503E+01-1.08962E-15 1.76809E-15
 -1       287-3.65260E+00-2.67988E+01-9.13926E+00-1.61047E+01 2.11409E-15-3.43091E-15
 -1       288-1.33512E+00-3.38619E+01-1.05646E+01-1.77017E+01-3.94801E-15 9.09958E-15
 -1       289 2.02214E+00-4.16300E+01-1.18900E+01-1.83798E+01-8.00076E-15-7.84964E-16
 -1       290 6.25760E+00-4.96691E+01-1.30336E+01-1.78223E+01 1.11313E-14-2.28071E-15
 -1       291 1.09985E+01-5.73871E+01-1.39294E+01-1.58786E+01 1.12365E-14 8.50115E-15
 -1       292 1.57205E+01-6.41514E+01-1.45449E+01-1.26768E+01-1.84736E-15-5.48684E-15
 -1       293 1.98822E+01-6.94489E+01-1.48881E+01-8.67434E+00 4.94775E-15-1.25068E-15
 -1       294 2.30397E+01-7.30567E+01-1.50253E+01-4.60749E+00 8.56775E-15 7.77887E-15
 -1       295 2.53215E+01-7.47082E+01-1.48375E+01-1.20762E+00 9.53938E-15-7.72742E-16
 -1       296-7.07291E-01-1.46681E+00-6.52248E-01-1.24138E+00-1.71279E-15 1.19041E-14
 -1       297-1.49363E+00-3.09337E+00-1.37617E+00-2.47220E+00-2.36257E-15-1.48912E-14
 -1       298-2.22988E+00-5.10068E+00-2.19934E+00-3.88789E+00-6.96622E-16 1.34824E-14
 -1       299-2.83839E+00-7.56423E+00-3.12115E+00-5.48759E+00-2.05350E-15-3.88017E-15
 -1       300-3.23231E+00-1.05928E+01-4.14818E+00-7.25680E+00-4.80059E-15-7.19594E-15
 -1       301-3.29500E+00-1.43061E+01-5.28148E+00-9.15127E+00 3.69329E-15 5.80307E-15
 -1       302-2.88304E+00-1.88242E+01-6.51402E+00-1.10803E+01-2.61301E-16-3.00396E-15
 -1       303-1.83728E+00-2.42415E+01-7.82646E+00-1.28899E+01 4.08774E-15-1.71857E-15
 -1       304-9.84561E-03-3.05854E+01-9.18277E+00-1.43537E+01 9.42740E-15-4.30308E-15
 -1       305 2.68879E+00-3.77625E+01-1.05281E+01-1.51839E+01-4.32167E-15 5.23853E-15
 -1       306 6.22871E+00-4.55089E+01-1.17923E+01-1.50803E+01-2.14333E-14 1.18786E-16
 -1       307 1.04082E+01-5.33750E+01-1.29010E+01-1.38213E+01 4.52175E-15-1.99912E-18
 -1       308 1.48458E+01-6.07731E+01-1.37921E+01-1.13826E+01-2.70119E-16 2.62222E-15
 -1       309 1.90443E+01-6.70887E+01-1.44302E+01-8.04167E+00-1.06553E-14-4.20710E-15
 -1       310 2.24782E+01-7.18505E+01-1.48312E+01-4.41067E+00-1.37022E-14-1.00528E-14
 -1       311 2.50552E+01-7.45282E+01-1.48632E+01-1.22730E+00-3.81321E-15 1.24665E-15
 -1       312-3.80645E-01-1.47539E+00-5.56824E-01-9.92157E-01-2.34689E-15-6.04697E-15
 -1       313-8.48232E-01-3.05383E+00-1.17067E+00-1.94890E+00 6.06307E-15-6.99126E-15
 -1       314-1.26856E+00-4.96512E+00-1.87023E+00-3.04028E+00 6.28083E-15-2.20624E-15
 -1       315-1.58511E+00-7.26948E+00-2.65664E+00-4.26675E+00-4.84213E-15 8.22823E-15
 -1       316-1.73726E+00-1.00566E+01-3.53864E+00-5.62122E+00-3.74754E-15-5.93816E-15
 -1       317-1.64246E+00-1.34291E+01-4.52231E+00-7.07809E+00-1.30711E-14 1.77100E-14
 -1       318-1.19620E+00-1.74983E+01-5.60971E+00-8.58172E+00 7.44705E-16-7.80869E-15
 -1       319-2.75558E-01-2.23699E+01-6.79578E+00-1.00330E+01 1.50891E-14-3.00798E-15
 -1       320 1.24792E+00-2.81180E+01-8.06427E+00-1.12770E+01 1.27682E-14-8.35860E-16
 -1       321 3.48069E+00-3.47427E+01-9.38339E+00-1.21007E+01-2.34650E-14-5.13628E-15
 -1       322 6.46304E+00-4.21179E+01-1.07033E+01-1.22530E+01 1.19392E-15 4.43067E-15
 -1       323 1.01151E+01-4.99441E+01-1.19581E+01-1.15028E+01-1.24483E-14 7.03649E-15
 -1       324 1.41941E+01-5.77367E+01-1.30751E+01-9.73770E+00 3.80942E-15-5.66179E-15
 -1       325 1.82962E+01-6.48688E+01-1.39874E+01-7.08445E+00 1.74387E-14 3.76997E-15
 -1       326 2.18926E+01-7.06887E+01-1.46576E+01-4.00363E+00 1.38508E-14-7.21871E-15
 -1       327 2.46652E+01-7.44884E+01-1.49681E+01-1.18175E+00 1.02880E-14-1.62527E-17
 -1       328-1.32810E-01-1.49287E+00-4.87717E-01-7.57310E-01 8.27265E-16-2.99833E-15
 -1       329-3.69759E-01-3.03938E+00-1.02278E+00-1.46628E+00 7.32508E-15 2.94178E-15
 -1       330-5.56510E-01-4.88560E+00-1.63273E+00-2.27000E+00-1.07594E-14-5.52926E-15
 -1       331-6.52677E-01-7.07979E+00-2.31994E+00-3.16932E+00 7.60687E-15-1.98080E-16
 -1       332-6.14788E-01-9.69786E+00-3.09417E+00-4.16077E+00-3.37790E-17 5.14685E-15
 -1       333-3.82306E-01-1.28291E+01-3.96407E+00-5.22958E+00 2.33081E-15 3.78732E-16
 -1       334 1.22744E-01-1.65750E+01-4.93673E+00-6.34224E+00-7.69228E-15 7.06455E-15
 -1       335 9.95400E-01-2.10420E+01-6.01566E+00-7.43695E+00-7.19089E-16-9.33851E-15
 -1       336 2.34219E+00-2.63262E+01-7.19780E+00-8.41289E+00-1.67736E-16-7.05153E-15
 -1       337 4.26609E+00-3.24843E+01-8.46936E+00-9.12270E+00-7.47879E-16 1.40390E-14
 -1       338 6.83757E+00-3.94885E+01-9.80101E+00-9.37730E+00 6.22685E-15-9.04529E-15
 -1       339 1.00503E+01-4.71708E+01-1.11443E+01-8.97653E+00-9.48375E-16 3.13350E-15
 -1       340 1.37689E+01-5.51703E+01-1.24315E+01-7.77851E+00-2.86237E-14-9.51281E-15
 -1       341 1.76900E+01-6.29120E+01-1.35812E+01-5.80643E+00 8.52416E-15-6.43532E-15
 -1       342 2.13370E+01-6.96373E+01-1.45082E+01-3.36961E+00-1.95244E-14 8.80665E-15
 -1       343 2.41796E+01-7.45921E+01-1.51448E+01-1.05191E+00 1.69917E-14 1.97829E-16
 -1       344 4.48147E-02-1.52126E+00-4.42943E-01-5.32329E-01 1.46027E-15-9.81450E-15
 -1       345-2.25564E-02-3.05243E+00-9.22528E-01-1.00666E+00-6.04551E-15 5.01756E-15
 -1       346-4.42546E-02-4.85587E+00-1.47012E+00-1.54452E+00 4.07972E-15-6.32370E-15
 -1       347 1.48087E-02-6.97546E+00-2.08836E+00-2.14460E+00-5.13963E-15 6.31009E-15
 -1       348 1.89721E-01-9.47923E+00-2.78715E+00-2.80457E+00 1.15349E-15-1.37842E-14
 -1       349 5.28064E-01-1.24473E+01-3.57630E+00-3.51620E+00 5.24677E-15-1.87036E-15
 -1       350 1.09082E+00-1.59728E+01-4.46546E+00-4.26062E+00 4.17767E-16 4.45424E-15
 -1       351 1.95359E+00-2.01589E+01-5.46299E+00-5.00202E+00-3.15400E-15 1.71750E-15
 -1       352 3.20474E+00-2.51105E+01-6.57391E+00-5.68010E+00 1.83825E-15-5.59872E-15
 -1       353 4.93754E+00-3.09152E+01-7.79661E+00-6.20288E+00 9.96189E-15 1.66774E-15
 -1       354 7.23147E+00-3.76084E+01-9.11805E+00-6.44493E+00-1.26651E-14-3.61098E-15
 -1       355 1.01184E+01-4.51198E+01-1.05076E+01-6.26065E+00 1.33322E-14-1.78593E-15
 -1       356 1.35323E+01-5.32016E+01-1.19110E+01-5.52518E+00-4.22111E-15-4.19196E-15
 -1       357 1.72500E+01-6.13578E+01-1.32461E+01-4.21094E+00-8.33273E-15-8.18672E-15
 -1       358 2.08678E+01-6.87829E+01-1.43920E+01-2.49750E+00 3.72935E-14 1.15920E-14
 -1       359 2.36706E+01-7.48034E+01-1.53608E+01-8.19129E-01-3.49935E-14-5.74329E-15
 -1       360 1.88239E-01-1.59989E+00-4.23507E-01-3.04456E-01 3.60558E-15-1.93629E-14
 -1       361 2.07281E-01-3.10760E+00-8.70126E-01-5.62271E-01 1.13620E-15 5.65925E-15
 -1       362 2.77928E-01-4.87877E+00-1.38032E+00-8.45370E-01-6.70668E-15 3.86130E-15
 -1       363 4.28667E-01-6.95165E+00-1.95704E+00-1.15580E+00 1.46257E-15-6.11035E-15
 -1       364 6.87830E-01-9.38780E+00-2.61026E+00-1.49414E+00 4.53268E-15-1.70488E-15
 -1       365 1.09443E+00-1.22607E+01-3.35035E+00-1.85762E+00-9.11178E-15 2.86809E-14
 -1       366 1.69892E+00-1.56574E+01-4.18830E+00-2.23807E+00 1.41205E-15-2.03851E-14
 -1       367 2.56480E+00-1.96774E+01-5.13501E+00-2.61907E+00 5.50323E-16-8.09356E-16
 -1       368 3.76839E+00-2.44281E+01-6.19984E+00-2.97210E+00 7.18591E-16 8.64010E-15
 -1       369 5.39440E+00-3.00116E+01-7.38814E+00-3.25238E+00 1.20571E-14 8.25902E-16
 -1       370 7.52314E+00-3.64978E+01-8.69691E+00-3.39651E+00-1.04068E-14 9.89443E-15
 -1       371 1.02038E+01-4.38753E+01-1.01081E+01-3.32666E+00-3.02432E-14-1.02425E-14
 -1       372 1.34080E+01-5.19743E+01-1.15795E+01-2.96901E+00 1.50932E-14 6.65849E-15
 -1       373 1.69631E+01-6.03663E+01-1.30341E+01-2.29341E+00-6.61648E-15-4.79335E-15
 -1       374 2.05280E+01-6.82331E+01-1.43287E+01-1.38059E+00-4.04719E-14-2.04639E-15
 -1       375 2.32501E+01-7.50392E+01-1.55577E+01-4.70355E-01 9.47686E-15 2.60495E-15
 -1       376-4.00555E-02-2.32194E-02-1.89823E-02 1.72586E-01 3.85992E-13 1.33066E-13
 -1       377-9.88843E+02-1.37853E+03-7.16162E+02 4.98019E+02-1.68313E-14 2.12769E-15
 -1       378 1.09658E+02-3.48804E+00 3.18176E+01 1.28726E+00-6.11366E-15-9.82924E-16
 -1       379 3.09931E-02-1.00674E+01-3.01120E+00 2.00360E-01 4.25894E-13 9.42767E-14
 -1       381-7.55193E-01-1.34067E-01-2.66782E-01 1.47745E-01 1.16419E-12-9.32705E-14
 -1       382-3.25516E+00-1.28711E-01-1.01520E+00 1.54331E-01 3.05031E-13-1.00638E-13
 -1       383-7.66637E+00-1.04659E-01-2.33149E+00 2.30235E-01-2.00460E-13 5.15043E-14
 -1       384-1.32552E+01-1.38379E-01-4.01858E+00 3.16885E-01 4.60108E-13-9.17429E-14
 -1       385-1.94302E+01-1.87141E-01-5.88625E+00 3.94398E-01 2.54082E-13 2.61811E-15
 -1       386-2.57966E+01-2.40307E-01-7.81290E+00 4.59913E-01-3.90061E-13 9.68955E-14
 -1       387-3.20519E+01-2.89224E-01-9.70516E+00 5.11455E-01-2.93026E-13-1.41096E-14
 -1       388-3.79676E+01-3.26216E-01-1.14921E+01 5.48412E-01-1.41971E-13-3.43147E-15
 -1       389-4.33826E+01-3.42710E-01-1.31227E+01 5.71781E-01 9.56901E-14-7.57672E-15
 -1       390-4.81973E+01-3.28602E-01-1.45641E+01 5.84286E-01 6.95909E-14-1.59507E-14
 -1       391-5.23647E+01-2.71112E-01-1.57982E+01 5.90442E-01-2.06392E-13 8.36014E-15
 -1       392-5.58778E+01-1.52810E-01-1.68177E+01 5.96831E-01-1.53453E-14 5.35961E-14
 -1       393-5.87570E+01 5.19630E-02-1.76209E+01 6.13011E-01 1.84848E-13-5.54739E-15
 -1       394-6.10361E+01 3.83624E-01-1.82060E+01 6.53832E-01-1.46519E-13-2.09818E-14
 -1       395-6.27480E+01 9.09837E-01-1.85624E+01 7.44904E-01 2.08573E-13 1.02643E-14
 -1       396-6.39073E+01 1.75034E+00-1.86585E+01 9.35834E-01-1.51476E-13 2.09752E-14
 -1       397-6.44807E+01 3.13377E+00-1.84159E+01 1.33606E+00-2.14212E-13-3.61956E-15
 -1       398-6.43434E+01 5.51281E+00-1.76612E+01 2.22091E+00-5.04028E-13 3.41439E-14
 -1       399-6.33385E+01 9.88967E+00-1.60468E+01 4.50514E+00 8.11617E-14 1.33027E-15
 -1       400-6.56621E+01 1.57564E+01-1.49860E+01 1.17646E+01 2.54068E-13-3.46608E-14
 -1       401-1.23801E+02 2.44585E+00-3.64985E+01 5.09618E+01-1.41915E-13 8.01445E-15
 -1       402-3.65618E+02-1.92166E+02-1.67776E+02 2.18636E+02 9.32032E-14 3.92897E-15
 -1       403-3.07538E+02-8.88931E+02-3.60709E+02 1.79890E+02-2.63188E-14-2.53630E-16
 -1       404-1.48055E+02-5.05417E+02-1.96671E+02 6.66877E+01-1.15857E-14 5.26191E-16
 -1       405-8.37657E+01-3.12588E+02-1.19146E+02 3.26615E+01 1.38970E-13-2.17091E-16
 -1       406-6.11934E+01-2.21920E+02-8.50524E+01 1.84273E+01 5.50648E-14 2.54564E-16
 -1       407-4.84396E+01-1.67755E+02-6.49249E+01 1.15289E+01-2.19101E-13-2.41456E-16
 -1       408-3.90882E+01-1.31782E+02-5.13018E+01 7.74114E+00-1.87696E-13 7.47993E-17
 -1       409-3.08311E+01-1.05986E+02-4.10714E+01 5.50763E+00 1.51533E-13-4.60090E-17
 -1       410-2.28109E+01-8.64665E+01-3.28007E+01 4.11251E+00 9.46193E-14 1.67826E-16
 -1       411-1.46008E+01-7.10416E+01-2.57048E+01 3.20398E+00-1.90035E-14-1.23054E-16
 -1       412-5.93081E+00-5.84106E+01-1.93111E+01 2.59312E+00 3.87108E-15 2.34995E-16
 -1       413 3.43809E+00-4.77575E+01-1.33025E+01 2.17297E+00-1.28059E-14-4.64189E-16
 -1       414 1.37837E+01-3.85668E+01-7.44078E+00 1.87990E+00 1.23898E-13-1.86852E-17
 -1       415 2.54866E+01-3.05380E+01-1.52152E+00 1.67453E+00-1.34167E-14 1.76772E-16
 -1       416 3.91174E+01-2.35677E+01 4.65712E+00 1.53146E+00-3.06910E-14-5.01740E-16
 -1       417 5.55839E+01-1.78093E+01 1.13209E+01 1.43233E+00 4.05036E-13 1.81413E-16
 -1       418 7.64050E+01-1.39819E+01 1.87083E+01 1.36188E+00-1.99302E-14 1.45627E-15
 -1       419 1.09516E+02-3.50200E+00 3.17709E+01 4.51031E-01 2.38618E-13 1.53536E-15
 -1       420 1.09075E+02-3.53259E+00 3.16298E+01 8.76576E-01 3.11201E-13-5.28738E-15
 -1       421 1.08276E+02-3.57628E+00 3.13775E+01 1.33760E+00-2.19755E-13-9.74395E-16
 -1       422 1.07029E+02-3.63746E+00 3.09856E+01 1.82319E+00-1.79688E-13 2.64989E-15
 -1       423 1.05233E+02-3.72122E+00 3.04228E+01 2.32364E+00-2.76189E-14-1.68085E-14
 -1       424 1.02785E+02-3.83388E+00 2.96560E+01 2.82348E+00 1.61555E-13 3.72187E-14
 -1       425 9.95853E+01-3.98303E+00 2.86529E+01 3.30213E+00-4.38162E-13-4.89159E-14
 -1       426 9.55461E+01-4.17742E+00 2.73849E+01 3.73441E+00-2.64174E-13-5.47565E-14
 -1       427 9.06100E+01-4.42636E+00 2.58318E+01 4.09233E+00 2.26187E-13 1.04082E-14
 -1       428 8.47624E+01-4.73846E+00 2.39867E+01 4.34840E+00-2.01814E-13 9.60430E-15
 -1       429 7.80459E+01-5.11949E+00 2.18603E+01 4.48023E+00 8.30113E-14 6.39442E-14
 -1       430 7.05668E+01-5.56963E+00 1.94845E+01 4.47546E+00-4.19534E-13-1.23304E-13
 -1       431 6.24924E+01-6.08114E+00 1.69116E+01 4.33546E+00 3.68346E-13-1.43930E-14
 -1       432 5.40355E+01-6.63757E+00 1.42104E+01 4.07593E+00 1.37430E-13 2.95704E-14
 -1       433 4.54316E+01-7.21559E+00 1.14581E+01 3.72363E+00 1.29647E-13 6.93568E-15
 -1       434 3.69139E+01-7.78896E+00 8.73283E+00 3.30979E+00-4.85640E-13-3.41428E-15
 -1       435 2.86981E+01-8.33310E+00 6.10640E+00 2.86257E+00 5.94043E-13-1.06895E-14
 -1       436 2.09833E+01-8.82773E+00 3.64473E+00 2.40103E+00-8.79680E-14-1.22473E-13
 -1       437 1.39766E+01-9.25481E+00 1.41541E+00 1.93226E+00-5.85891E-13 5.60955E-15
 -1       438 7.94872E+00-9.58860E+00-4.92603E-01 1.45042E+00-3.20222E-13 2.34716E-14
 -1       439 3.36205E+00-9.75742E+00-1.91900E+00 9.43699E-01 3.66369E-13-5.85604E-14
 -1       440 8.64539E-01-9.70133E+00-2.65132E+00 4.43723E-01-8.75113E-13 1.10176E-13
 -1       441 5.49029E-01-9.78192E+00-2.77014E+00 3.92115E-01-3.02957E-13-1.77198E-13
 -1       442 4.44949E-01-9.35473E+00-2.67319E+00 7.63948E-01 3.35769E-14 1.02034E-13
 -1       443 2.72504E-01-8.38154E+00-2.43292E+00 1.11904E+00 5.57695E-14-7.55165E-16
 -1       444 1.26857E-01-7.06857E+00-2.08267E+00 1.35589E+00 9.92551E-14-1.00225E-13
 -1       445 1.36788E-02-5.64550E+00-1.68965E+00 1.46394E+00 1.93664E-13 8.90139E-14
 -1       446-7.81592E-02-4.28024E+00-1.30759E+00 1.46164E+00-5.15912E-13 1.07749E-13
 -1       447-1.58993E-01-3.07491E+00-9.70210E-01 1.37509E+00 4.09740E-13-9.54104E-14
 -1       448-2.34386E-01-2.07941E+00-6.94160E-01 1.23053E+00-3.33726E-13-7.50582E-15
 -1       449-3.05141E-01-1.30657E+00-4.83524E-01 1.05176E+00-3.15116E-13 1.35089E-14
 -1       450-3.68333E-01-7.44909E-01-3.33979E-01 8.59347E-01 9.24288E-13-2.89875E-14
 -1       451-4.18509E-01-3.68348E-01-2.36061E-01 6.70520E-01 2.32900E-13-3.75177E-14
 -1       452-4.48781E-01-1.43248E-01-1.77611E-01 4.99366E-01-2.44171E-13-4.05933E-15
 -1       453-4.51766E-01-3.33901E-02-1.45548E-01 3.57028E-01 3.88950E-15 1.78624E-14
 -1       454-4.20374E-01-3.32072E-03-1.27109E-01 2.51892E-01 4.90021E-13-6.19911E-14
 -1       455-3.48386E-01-2.02608E-02-1.10595E-01 1.89693E-01-2.29504E-13 1.06172E-13
 -1       456-2.32500E-01-5.63448E-02-8.66534E-02 1.73463E-01-7.76521E-14-8.76919E-14
 -1       457-1.06688E+00-2.54606E-01-3.96453E-01 2.51557E-01-1.55047E-13 5.78515E-14
 -1       458-1.30269E+00-3.67882E-01-5.01180E-01 4.54005E-01 2.62109E-13-2.62709E-14
 -1       459-1.48511E+00-5.37461E-01-6.06783E-01 7.01514E-01 1.07735E-13-1.91993E-14
 -1       460-1.60531E+00-7.65484E-01-7.11256E-01 9.91030E-01-2.09173E-13-3.88977E-14
 -1       461-1.65681E+00-1.05617E+00-8.13919E-01 1.31669E+00-2.12946E-13 3.55967E-14
 -1       462-1.63389E+00-1.41515E+00-9.14748E-01 1.66930E+00 9.50992E-14 2.87928E-14
 -1       463-1.53188E+00-1.84949E+00-1.01446E+00 2.03505E+00-1.35409E-13 3.02614E-14
 -1       464-1.34746E+00-2.36715E+00-1.11445E+00 2.39458E+00 9.87839E-14-3.28513E-14
 -1       465-1.07922E+00-2.97588E+00-1.21662E+00 2.72217E+00 3.18614E-13-3.17793E-14
 -1       466-7.28413E-01-3.68132E+00-1.32303E+00 2.98504E+00 6.35150E-14-2.74160E-14
 -1       467-3.00553E-01-4.48405E+00-1.43552E+00 3.14327E+00 2.17025E-13 2.54335E-14
 -1       468 1.91476E-01-5.37588E+00-1.55549E+00 3.15085E+00 3.69978E-13 1.18571E-13
 -1       469 7.21311E-01-6.33552E+00-1.68446E+00 2.95952E+00-3.45899E-14-5.24463E-14
 -1       470 1.23693E+00-7.32375E+00-1.82627E+00 2.52848E+00-2.05086E-14-2.00684E-14
 -1       471 1.63633E+00-8.27498E+00-1.99185E+00 1.84634E+00 2.38787E-13 2.79528E-14
 -1       472 1.72562E+00-9.04546E+00-2.19623E+00 9.80229E-01 1.28790E-13-2.00153E-14
 -1       473-3.56329E+00-2.19616E-01-1.13492E+00 4.58668E-01-3.84332E-13 2.75197E-14
 -1       474-3.76153E+00-2.67909E-01-1.20889E+00 1.00463E+00-2.27142E-13 4.27130E-14
 -1       475-3.88255E+00-3.80600E-01-1.27901E+00 1.57222E+00-7.44578E-14-2.23572E-14
 -1       476-3.91169E+00-5.64586E-01-1.34297E+00 2.16138E+00-5.27944E-13 9.54045E-15
 -1       477-3.83644E+00-8.27366E-01-1.39925E+00 2.76756E+00 6.20023E-13-3.10684E-14
 -1       478-3.64481E+00-1.17587E+00-1.44633E+00 3.38212E+00-5.50944E-13-1.41127E-14
 -1       479-3.32583E+00-1.61655E+00-1.48287E+00 3.99016E+00-3.09617E-14 3.69609E-14
 -1       480-2.87019E+00-2.15526E+00-1.50782E+00 4.56901E+00 4.11619E-13-1.65420E-14
 -1       481-2.27111E+00-2.79683E+00-1.52061E+00 5.08647E+00-2.86117E-13-2.27950E-14
 -1       482-1.52592E+00-3.54431E+00-1.52133E+00 5.49926E+00-2.72628E-14-2.36500E-14
 -1       483-6.38848E-01-4.39722E+00-1.51113E+00 5.75192E+00-5.68967E-16 2.14342E-14
 -1       484 3.73880E-01-5.34828E+00-1.49266E+00 5.77709E+00-1.64469E-13 1.19415E-13
 -1       485 1.47462E+00-6.37718E+00-1.47115E+00 5.49821E+00-5.37491E-13-8.89877E-14
 -1       486 2.58677E+00-7.43798E+00-1.45577E+00 4.83666E+00 4.79086E-13-1.18142E-14
 -1       487 3.56151E+00-8.43211E+00-1.46160E+00 3.72363E+00-3.96836E-14 3.09505E-14
 -1       488 4.11696E+00-9.13744E+00-1.50655E+00 2.08851E+00-4.18209E-13-4.35490E-14
 -1       489-7.74784E+00-1.48279E-01-2.36902E+00 6.88502E-01 5.96088E-15-1.75804E-14
 -1       490-7.74399E+00-2.03729E-01-2.38451E+00 1.50392E+00 8.19475E-14 4.67958E-14
 -1       491-7.64719E+00-3.08279E-01-2.38685E+00 2.34585E+00-1.73468E-13 9.34143E-15
 -1       492-7.43787E+00-4.73899E-01-2.37377E+00 3.20608E+00 5.11544E-13-2.50469E-14
 -1       493-7.09545E+00-7.12617E-01-2.34269E+00 4.07352E+00-3.49773E-13 3.30592E-14
 -1       494-6.59879E+00-1.03635E+00-2.29085E+00 4.93447E+00-1.29354E-14-3.14290E-14
 -1       495-5.92685E+00-1.45655E+00-2.21537E+00 5.76977E+00 4.36938E-14 2.12525E-14
 -1       496-5.05968E+00-1.98372E+00-2.11341E+00 6.55253E+00-2.96766E-13-2.94707E-15
 -1       497-3.98001E+00-2.62665E+00-1.98245E+00 7.24564E+00-7.64545E-15-2.10080E-14
 -1       498-2.67577E+00-3.39113E+00-1.82057E+00 7.79892E+00-1.59046E-13-2.78095E-14
 -1       499-1.14450E+00-4.27739E+00-1.62712E+00 8.14637E+00-1.16420E-13 2.17161E-14
 -1       500 5.99112E-01-5.27566E+00-1.40357E+00 8.20381E+00-9.92042E-14 1.13744E-13
 -1       501 2.51006E+00-6.35784E+00-1.15498E+00 7.86783E+00 3.77574E-13-5.67856E-14
 -1       502 4.49040E+00-7.46306E+00-8.92470E-01 7.01634E+00-2.32408E-13-3.70255E-14
 -1       503 6.35023E+00-8.47458E+00-6.37986E-01 5.50822E+00 1.86715E-13 1.17673E-14
 -1       504 7.74335E+00-9.19461E+00-4.36041E-01 3.16114E+00 4.57384E-14 4.28896E-14
 -1       505-1.30176E+01-1.06424E-01-3.93771E+00 8.97178E-01-1.48173E-13 5.97931E-14
 -1       506-1.27119E+01-1.57859E-01-3.86142E+00 1.92853E+00-1.50719E-14 4.69705E-14
 -1       507-1.22930E+01-2.54904E-01-3.76485E+00 2.99343E+00 4.59525E-13 2.68970E-14
 -1       508-1.17405E+01-4.08520E-01-3.64521E+00 4.08215E+00-5.34760E-14-1.94588E-14
 -1       509-1.10288E+01-6.29950E-01-3.49817E+00 5.18019E+00-1.62627E-13-6.97267E-15
 -1       510-1.01300E+01-9.32115E-01-3.31920E+00 6.26978E+00-1.71055E-13 1.76743E-14
 -1       511-9.01381E+00-1.32884E+00-3.10342E+00 7.32691E+00 7.36273E-14 4.94092E-14
 -1       512-7.64923E+00-1.83414E+00-2.84569E+00 8.31899E+00-2.62018E-13-2.69694E-14
 -1       513-6.00616E+00-2.46098E+00-2.54088E+00 9.20181E+00-2.00890E-13 2.99253E-15
 -1       514-4.05894E+00-3.21932E+00-2.18428E+00 9.91562E+00 2.37783E-13-2.97130E-14
 -1       515-1.79221E+00-4.11265E+00-1.77233E+00 1.03807E+01 2.16188E-13 2.52914E-14
 -1       516 7.89355E-01-5.13231E+00-1.30382E+00 1.04922E+01 1.43810E-13 1.12113E-13
 -1       517 3.64508E+00-6.24812E+00-7.81898E-01 1.01161E+01 1.82564E-13-8.72214E-14
 -1       518 6.67286E+00-7.39388E+00-2.17335E-01 9.08407E+00 2.06791E-13-1.47869E-14
 -1       519 9.66904E+00-8.44880E+00 3.65015E-01 7.19043E+00-1.19477E-14 2.95688E-14
 -1       520 1.22790E+01-9.21080E+00 9.19398E-01 4.16545E+00 4.54546E-14-5.54000E-14
 -1       521-1.88482E+01-7.42591E-02-5.67775E+00 1.07133E+00 1.03865E-13 2.53978E-14
 -1       522-1.82161E+01-1.20762E-01-5.50204E+00 2.27567E+00-3.27516E-13 3.66861E-14
 -1       523-1.74461E+01-2.06227E-01-5.29665E+00 3.52276E+00 2.34262E-13-7.64502E-14
 -1       524-1.65179E+01-3.43185E-01-5.05925E+00 4.80241E+00-7.51942E-15 2.33748E-14
 -1       525-1.54016E+01-5.42919E-01-4.78429E+00 6.09921E+00-2.18702E-13 6.56672E-14
 -1       526-1.40630E+01-8.19187E-01-4.46561E+00 7.39385E+00 5.56993E-14-1.22122E-14
 -1       527-1.24631E+01-1.18758E+00-4.09620E+00 8.65939E+00-3.01937E-13 1.85987E-14
 -1       528-1.05593E+01-1.66496E+00-3.66830E+00 9.85836E+00 3.29918E-13-3.58696E-14
 -1       529-8.30684E+00-2.26814E+00-3.17358E+00 1.09389E+01 7.53679E-14-1.85741E-14
 -1       530-5.66367E+00-3.01143E+00-2.60369E+00 1.18298E+01-7.92042E-14-2.75999E-14
 -1       531-2.59701E+00-3.90251E+00-1.95109E+00 1.24347E+01 3.96539E-15 2.67355E-14
 -1       532 9.04898E-01-4.93586E+00-1.21060E+00 1.26250E+01-3.42736E-14 1.04795E-13
 -1       533 4.81485E+00-6.08256E+00-3.81703E-01 1.22332E+01-7.09919E-15-4.44678E-14
 -1       534 9.03958E+00-7.27524E+00 5.27832E-01 1.10455E+01 1.75159E-13-1.88020E-14
 -1       535 1.33790E+01-8.38706E+00 1.49601E+00 8.79513E+00-1.40345E-13 3.46116E-14
 -1       536 1.74723E+01-9.20356E+00 2.47893E+00 5.13033E+00-1.44671E-13-8.09557E-15
 -1       537-2.48769E+01-4.69397E-02-7.47889E+00 1.20907E+00 2.43729E-13-1.47273E-15
 -1       538-2.39276E+01-8.65355E-02-7.20586E+00 2.54524E+00-1.30558E-13-4.02347E-14
 -1       539-2.28183E+01-1.57550E-01-6.89431E+00 3.93613E+00 1.08881E-13 6.69573E-15
 -1       540-2.15273E+01-2.73803E-01-6.54183E+00 5.37291E+00-5.96100E-14-2.00961E-14
 -1       541-2.00187E+01-4.47295E-01-6.14127E+00 6.84091E+00 3.10654E-13-2.13530E-14
 -1       542-1.82498E+01-6.93623E-01-5.68447E+00 8.32073E+00-6.52531E-14 4.64607E-14
 -1       543-1.61702E+01-1.03110E+00-5.16184E+00 9.78362E+00 1.84842E-13-2.83486E-14
 -1       544-1.37226E+01-1.48010E+00-4.56227E+00 1.11876E+01-2.79513E-13 2.16275E-14
 -1       545-1.08450E+01-2.06141E+00-3.87343E+00 1.24723E+01-2.04380E-13-2.15823E-14
 -1       546-7.47616E+00-2.79321E+00-3.08236E+00 1.35533E+01 1.75855E-13-2.14070E-14
 -1       547-3.56364E+00-3.68626E+00-2.17660E+00 1.43150E+01-2.61870E-13 1.99571E-14
 -1       548 9.22751E-01-4.73677E+00-1.14593E+00 1.46036E+01 9.49983E-14 9.78465E-14
 -1       549 5.97239E+00-5.91613E+00 1.50415E-02 1.42182E+01-1.75691E-13-7.97999E-14
 -1       550 1.15068E+01-7.15564E+00 1.30336E+00 1.29020E+01-3.45565E-14-4.87291E-14
 -1       551 1.73377E+01-8.32421E+00 2.70186E+00 1.03303E+01-1.97562E-13 3.80715E-14
 -1       552 2.31074E+01-9.19581E+00 4.17097E+00 6.06601E+00-1.24699E-13-3.73679E-14
 -1       553-3.08334E+01-2.35080E-02-9.25970E+00 1.30884E+00 2.47340E-14-8.10985E-15
 -1       554-2.96069E+01-5.49178E-02-8.90102E+00 2.73769E+00 7.74096E-14 4.89827E-14
 -1       555-2.82031E+01-1.09731E-01-8.49619E+00 4.23834E+00 3.32570E-13-2.42847E-14
 -1       556-2.65965E+01-2.04002E-01-8.04235E+00 5.80494E+00-1.90371E-13 3.02683E-14
 -1       557-2.47419E+01-3.51664E-01-7.53016E+00 7.42491E+00-8.40741E-14-3.51410E-14
 -1       558-2.25840E+01-5.71517E-01-6.94866E+00 9.07946E+00 1.11959E-13-1.76721E-14
 -1       559-2.00562E+01-8.85882E-01-6.28460E+00 1.07376E+01 6.01160E-14 5.90995E-14
 -1       560-1.70822E+01-1.31932E+00-5.52241E+00 1.23511E+01-3.01392E-13-1.81193E-14
 -1       561-1.35794E+01-1.89604E+00-4.64459E+00 1.38482E+01-2.21696E-13-1.60504E-14
 -1       562-9.46629E+00-2.63574E+00-3.63259E+00 1.51276E+01 1.04712E-13-1.83290E-14
 -1       563-4.67272E+00-3.54806E+00-2.46828E+00 1.60520E+01 1.74869E-13 2.08166E-14
 -1       564 8.46116E-01-4.62560E+00-1.13600E+00 1.64416E+01 8.07310E-14 9.10872E-14
 -1       565 7.09294E+00-5.83545E+00 3.74927E-01 1.60668E+01 3.23580E-14-4.87697E-14
 -1       566 1.40055E+01-7.10658E+00 2.06711E+00 1.46358E+01 1.25801E-13-3.57805E-16
 -1       567 2.14181E+01-8.30866E+00 3.92990E+00 1.17743E+01-8.68935E-14 1.44459E-14
 -1       568 2.89991E+01-9.21540E+00 5.93152E+00 6.95830E+00-1.03546E-14 3.92760E-14
 -1       569-3.65224E+01-4.38209E-03-1.09617E+01 1.37188E+00 7.59194E-14-5.51187E-15
 -1       570-3.50905E+01-2.77485E-02-1.05389E+01 2.85944E+00-5.73359E-15-1.27063E-14
 -1       571-3.34688E+01-6.78900E-02-1.00642E+01 4.44422E+00 1.69006E-14-4.13181E-14
 -1       572-3.16235E+01-1.44584E-01-9.53346E+00 6.12490E+00-1.32483E-13-2.09094E-14
 -1       573-2.94950E+01-2.75928E-01-8.93413E+00 7.89169E+00-1.51493E-14 3.77484E-14
 -1       574-2.70088E+01-4.86061E-01-8.25118E+00 9.72546E+00-7.97353E-14 1.94895E-14
 -1       575-2.40759E+01-8.02742E-01-7.46618E+00 1.15900E+01 1.20319E-13 3.02733E-15
 -1       576-2.05956E+01-1.25454E+00-6.55757E+00 1.34256E+01-1.12795E-13-7.56432E-15
 -1       577-1.64636E+01-1.86630E+00-5.50143E+00 1.51428E+01 2.83426E-14-1.70138E-14
 -1       578-1.15819E+01-2.65331E+00-4.27301E+00 1.66173E+01-4.09235E-14-1.83299E-14
 -1       579-5.87163E+00-3.61532E+00-2.84859E+00 1.76873E+01 3.27200E-13 1.89569E-14
 -1       580 7.15212E-01-4.73177E+00-1.20758E+00 1.81507E+01-1.48418E-13 8.08312E-14
 -1       581 8.18597E+00-5.95827E+00 6.65485E-01 1.77593E+01 8.63143E-14-5.17859E-14
 -1       582 1.64948E+01-7.22099E+00 2.77897E+00 1.62032E+01-1.03233E-13-1.32926E-14
 -1       583 2.55146E+01-8.40068E+00 5.13038E+00 1.30754E+01 1.59475E-13 2.55960E-14
 -1       584 3.49764E+01-9.29430E+00 7.69976E+00 7.77062E+00-1.51824E-13-1.65401E-14
 -1       585-4.18197E+01 9.74271E-03-1.25478E+01 1.40309E+00 2.15235E-13-2.76434E-14
 -1       586-4.02872E+01-8.16866E-03-1.20931E+01 2.92497E+00-1.15405E-13 3.01495E-14
 -1       587-3.85560E+01-4.03835E-02-1.15832E+01 4.58244E+00-4.89299E-13 1.05792E-14
 -1       588-3.65757E+01-1.13103E-01-1.10106E+01 6.37991E+00 8.02839E-14-1.51914E-14
 -1       589-3.42633E+01-2.52036E-01-1.03583E+01 8.30942E+00-1.66735E-13 1.50947E-14
 -1       590-3.15155E+01-4.89450E-01-9.60501E+00 1.03475E+01 4.75509E-14 5.39649E-15
 -1       591-2.82124E+01-8.59447E-01-8.72489E+00 1.24451E+01-4.08925E-14 3.31017E-14
 -1       592-2.42263E+01-1.39210E+00-7.68871E+00 1.45210E+01 1.26222E-14-6.45694E-15
 -1       593-1.94355E+01-2.10581E+00-6.46546E+00 1.64570E+01 1.58065E-13-1.52036E-14
 -1       594-1.37390E+01-2.99991E+00-5.02466E+00 1.80988E+01-1.10544E-13-9.60880E-15
 -1       595-7.06832E+00-4.05020E+00-3.33854E+00 1.92604E+01-1.53621E-13 1.74052E-14
 -1       596 6.09108E-01-5.21012E+00-1.38339E+00 1.97276E+01-2.40046E-13 6.48631E-14
 -1       597 9.29402E+00-6.41700E+00 8.59764E-01 1.92540E+01 1.29334E-13-3.92819E-14
 -1       598 1.89600E+01-7.59763E+00 3.40487E+00 1.75364E+01 1.60256E-13-1.18038E-14
 -1       599 2.95402E+01-8.66098E+00 6.25904E+00 1.41594E+01-2.58957E-13-2.81099E-14
 -1       600 4.08765E+01-9.46233E+00 9.41793E+00 8.45028E+00-1.95936E-13-1.61032E-14
 -1       601-4.66683E+01 1.79225E-02-1.40011E+01 1.41133E+00 1.07810E-13 5.13509E-15
 -1       602-4.51779E+01-9.11926E-04-1.35593E+01 2.95808E+00 2.59448E-13-5.52083E-14
 -1       603-4.34787E+01-3.99864E-02-1.30610E+01 4.69844E+00 3.28812E-14 1.52046E-16
 -1       604-4.14900E+01-1.36415E-01-1.24930E+01 6.64253E+00-3.25630E-14 3.93400E-15
 -1       605-3.90902E+01-3.28478E-01-1.18304E+01 8.77986E+00 1.95874E-13-1.04501E-14
 -1       606-3.61339E+01-6.59429E-01-1.10425E+01 1.10727E+01-2.44562E-15-4.81025E-14
 -1       607-3.24627E+01-1.16829E+00-1.00935E+01 1.34444E+01 6.21709E-14-8.62486E-15
 -1       608-2.79256E+01-1.87893E+00-8.94533E+00 1.57748E+01 9.85503E-14-2.75570E-14
 -1       609-2.24010E+01-2.78889E+00-7.56071E+00 1.79034E+01 4.99237E-14-3.27952E-14
 -1       610-1.58127E+01-3.86259E+00-5.90616E+00 1.96418E+01-4.84197E-14-2.03074E-14
 -1       611-8.13228E+00-5.03348E+00-3.95322E+00 2.07891E+01 1.07436E-13 7.82033E-15
 -1       612 6.35641E-01-6.21717E+00-1.67802E+00 2.11419E+01 3.12816E-13 7.39278E-14
 -1       613 1.04786E+01-7.33195E+00 9.40130E-01 2.04844E+01-3.35071E-14-3.33205E-14
 -1       614 2.13999E+01-8.31713E+00 3.92035E+00 1.85508E+01 2.15926E-13-7.32310E-15
 -1       615 3.34215E+01-9.13421E+00 7.28048E+00 1.49431E+01 2.22948E-14 6.28255E-14
 -1       616 4.65464E+01-9.73841E+00 1.10345E+01 8.93956E+00 2.16590E-14 1.14285E-14
 -1       617-5.10750E+01 1.85291E-02-1.53241E+01 1.40984E+00-1.34005E-14 2.38787E-14
 -1       618-4.98158E+01-1.37017E-02-1.49557E+01 2.99377E+00-1.58185E-14 2.49120E-14
 -1       619-4.83266E+01-8.72145E-02-1.45307E+01 4.85911E+00-1.31961E-13-9.22133E-15
 -1       620-4.64726E+01-2.57152E-01-1.40252E+01 7.01835E+00-1.93106E-13 1.36122E-14
 -1       621-4.40705E+01-5.80667E-01-1.34013E+01 9.44675E+00-9.93759E-14 8.88369E-16
 -1       622-4.09159E+01-1.11298E+00-1.26143E+01 1.20717E+01 1.78927E-14-7.38203E-17
 -1       623-3.68122E+01-1.89039E+00-1.16160E+01 1.47629E+01 3.59363E-14 1.58958E-14
 -1       624-3.16062E+01-2.91273E+00-1.03605E+01 1.73374E+01-2.86975E-13-7.95871E-15
 -1       625-2.52157E+01-4.13122E+00-8.80860E+00 1.95816E+01-1.40736E-13-6.70315E-15
 -1       626-1.76342E+01-5.44930E+00-6.92927E+00 2.12813E+01-6.74092E-14-8.28801E-15
 -1       627-8.90724E+00-6.74051E+00-4.69835E+00 2.22480E+01 1.80450E-13 1.31074E-14
 -1       628 9.09724E-01-7.88019E+00-2.09517E+00 2.23248E+01-7.87284E-14 6.15125E-14
 -1       629 1.17979E+01-8.78075E+00 9.00815E-01 2.13625E+01 3.13363E-13-5.16611E-14
 -1       630 2.38122E+01-9.41762E+00 4.31323E+00 1.91587E+01-3.26179E-13-2.16454E-14
 -1       631 3.70935E+01-9.83383E+00 8.17122E+00 1.53519E+01-1.93744E-13-1.57808E-14
 -1       632 5.18503E+01-1.01236E+01 1.25085E+01 9.18935E+00 6.43711E-14 1.70621E-14
 -1       633-5.51084E+01 8.19625E-03-1.65384E+01 1.41749E+00 1.06518E-13-2.85603E-14
 -1       634-5.43316E+01-6.04382E-02-1.63258E+01 3.08316E+00-2.20386E-13-6.04011E-15
 -1       635-5.32721E+01-2.17607E-01-1.60549E+01 5.16294E+00-2.04986E-14-3.06390E-14
 -1       636-5.16994E+01-5.47047E-01-1.56817E+01 7.66027E+00 3.64040E-13-2.73065E-14
 -1       637-4.93351E+01-1.13085E+00-1.51472E+01 1.05092E+01-1.00969E-13-6.37139E-15
 -1       638-4.59045E+01-2.03034E+00-1.43875E+01 1.35631E+01-4.50773E-14-1.34345E-14
 -1       639-4.11957E+01-3.25764E+00-1.33425E+01 1.65976E+01-6.43913E-14 8.35913E-15
 -1       640-3.51100E+01-4.75371E+00-1.19651E+01 1.93440E+01 8.15226E-14-1.45765E-14
 -1       641-2.76735E+01-6.38509E+00-1.02230E+01 2.15412E+01-1.20442E-13-1.49822E-14
 -1       642-1.90023E+01-7.96704E+00-8.09568E+00 2.29848E+01 1.48128E-13-1.54454E-14
 -1       643-9.23745E+00-9.30856E+00-5.56835E+00 2.35487E+01-3.91232E-14 4.31127E-15
 -1       644 1.52404E+00-1.02637E+01-2.62636E+00 2.31688E+01-4.99198E-15 4.90864E-14
 -1       645 1.32843E+01-1.07720E+01 7.48886E-01 2.17907E+01-5.55279E-14-1.93229E-14
 -1       646 2.61797E+01-1.08789E+01 4.58453E+00 1.92872E+01 2.05380E-13-2.04585E-14
 -1       647 4.04974E+01-1.07350E+01 8.92111E+00 1.53373E+01-4.94314E-14 1.45035E-14
 -1       648 5.66787E+01-1.05995E+01 1.38126E+01 9.17098E+00-1.31503E-13-1.74272E-14
 -1       649-5.89035E+01-2.04164E-02-1.76867E+01 1.46225E+00-2.98630E-13 2.56429E-14
 -1       650-5.89498E+01-1.68038E-01-1.77449E+01 3.30441E+00-2.39633E-14-3.30757E-14
 -1       651-5.85847E+01-4.96725E-01-1.77340E+01 5.76073E+00 3.72514E-14-1.23904E-14
 -1       652-5.74124E+01-1.13273E+00-1.75730E+01 8.79438E+00-1.02353E-13-6.45938E-15
 -1       653-5.50198E+01-2.18348E+00-1.71702E+01 1.22406E+01 1.02370E-13-1.26056E-14
 -1       654-5.10791E+01-3.69273E+00-1.64403E+01 1.58106E+01 3.26089E-14-7.96027E-15
 -1       655-4.54442E+01-5.60070E+00-1.53215E+01 1.91377E+01-5.33750E-14 7.62466E-16
 -1       656-3.81814E+01-7.73103E+00-1.37809E+01 2.18651E+01 8.30810E-14-2.14356E-14
 -1       657-2.95136E+01-9.82032E+00-1.18065E+01 2.37333E+01-6.07799E-14-1.41042E-14
 -1       658-1.97148E+01-1.15849E+01-9.39551E+00 2.46224E+01 2.64194E-14-1.43614E-14
 -1       659-9.00508E+00-1.27972E+01-6.54571E+00 2.45361E+01-2.04183E-13 8.89787E-15
 -1       660 2.52017E+00-1.33404E+01-3.25092E+00 2.35403E+01 5.04387E-13 5.09602E-14
 -1       661 1.49276E+01-1.32321E+01 5.03508E-01 2.16813E+01-7.97704E-15-2.87412E-14
 -1       662 2.84657E+01-1.26210E+01 4.74719E+00 1.88948E+01-5.80452E-14-4.78534E-15
 -1       663 4.35816E+01-1.17786E+01 9.53247E+00 1.48876E+01 9.36514E-14 4.51212E-14
 -1       664 6.09552E+01-1.11323E+01 1.49343E+01 8.88242E+00 8.98172E-14 4.17745E-15
 -1       665-6.26817E+01-8.36662E-02-1.88404E+01 1.58930E+00 2.61668E-13-3.18610E-14
 -1       666-6.40253E+01-3.91403E-01-1.93363E+01 3.78644E+00-1.77731E-13 1.78611E-14
 -1       667-6.46552E+01-1.05103E+00-1.97236E+01 6.89596E+00-8.22288E-14 1.49779E-14
 -1       668-6.38997E+01-2.24448E+00-1.98550E+01 1.07626E+01 3.94471E-14-2.77626E-14
 -1       669-6.11941E+01-4.08486E+00-1.95952E+01 1.50071E+01 5.80262E-14-8.51447E-16
 -1       670-5.62677E+01-6.53568E+00-1.88518E+01 1.90982E+01-1.58853E-13 5.34820E-16
 -1       671-4.92274E+01-9.37484E+00-1.75904E+01 2.25003E+01 1.21834E-13 7.75889E-15
 -1       672-4.04646E+01-1.22291E+01-1.58166E+01 2.48352E+01-7.40764E-15-6.11766E-15
 -1       673-3.04617E+01-1.46785E+01-1.35493E+01 2.59636E+01-1.57454E-14-8.48436E-15
 -1       674-1.96208E+01-1.63798E+01-1.08064E+01 2.59577E+01-2.04537E-13-6.10805E-15
 -1       675-8.16864E+00-1.71483E+01-7.60056E+00 2.50067E+01 2.83001E-13 1.20422E-14
 -1       676 3.87071E+00-1.69765E+01-3.93689E+00 2.33086E+01-2.43739E-13 3.46436E-14
 -1       677 1.66738E+01-1.60108E+01 1.93445E-01 2.09803E+01-5.76821E-14-1.88832E-14
 -1       678 3.06178E+01-1.45197E+01 4.82281E+00 1.79838E+01 6.30674E-14-2.93706E-15
 -1       679 4.63057E+01-1.28847E+01 1.00171E+01 1.40312E+01-8.44366E-14 1.50854E-14
 -1       680 6.46394E+01-1.16809E+01 1.58736E+01 8.34759E+00-3.64536E-14 1.78092E-14
 -1       681-6.68018E+01-2.19190E-01-2.01185E+01 1.87945E+00-2.42728E-13 5.85274E-15
 -1       682-7.01178E+01-8.47747E-01-2.13032E+01 4.75958E+00 2.19772E-13 4.46843E-15
 -1       683-7.20228E+01-2.13209E+00-2.22610E+01 8.98136E+00-2.02708E-14 1.08979E-15
 -1       684-7.14232E+01-4.30663E+00-2.27339E+01 1.40839E+01 1.13966E-13 1.09936E-14
 -1       685-6.77202E+01-7.41823E+00-2.25560E+01 1.92637E+01-2.00199E-14 4.95253E-15
 -1       686-6.10300E+01-1.12133E+01-2.16863E+01 2.36487E+01 2.88713E-14-8.57409E-16
 -1       687-5.20287E+01-1.51628E+01-2.01691E+01 2.66175E+01 5.67126E-15 1.52785E-14
 -1       688-4.15587E+01-1.86299E+01-1.80665E+01 2.79692E+01 6.01740E-14-1.28178E-15
 -1       689-3.03077E+01-2.10906E+01-1.54277E+01 2.78700E+01 1.37690E-13-2.10413E-15
 -1       690-1.86776E+01-2.22717E+01-1.22916E+01 2.66751E+01 2.44573E-13-1.34329E-15
 -1       691-6.78692E+00-2.21613E+01-8.69029E+00 2.47551E+01-2.36092E-13 3.40869E-15
 -1       692 5.48063E+00-2.09407E+01-4.64342E+00 2.23841E+01-1.26411E-13 2.31567E-14
 -1       693 1.84357E+01-1.89075E+01-1.47243E-01 1.96860E+01 1.27381E-13-8.63663E-15
 -1       694 3.25786E+01-1.64322E+01 4.83695E+00 1.66021E+01 2.98538E-14-1.35725E-14
 -1       695 4.86447E+01-1.39706E+01 1.03925E+01 1.28298E+01 6.56988E-14-5.92079E-15
 -1       696 6.77255E+01-1.22066E+01 1.66405E+01 7.60999E+00-8.48475E-14-2.27196E-14
 -1       697-7.18827E+01-5.18992E-01-2.17346E+01 2.49322E+00-3.68544E-15 3.33591E-14
 -1       698-7.81332E+01-1.79844E+00-2.39963E+01 6.66699E+00-1.93850E-13 1.47136E-14
 -1       699-8.13613E+01-4.25068E+00-2.57024E+01 1.27386E+01 6.96937E-14 1.28164E-14
 -1       700-8.00061E+01-8.10052E+00-2.64513E+01 1.95153E+01-2.78171E-13 3.16267E-14
 -1       701-7.40100E+01-1.31444E+01-2.61646E+01 2.54648E+01 2.37225E-14 7.36759E-15
 -1       702-6.45673E+01-1.86498E+01-2.49814E+01 2.94382E+01-3.09180E-13 9.43365E-15
 -1       703-5.32176E+01-2.36109E+01-2.30623E+01 3.10774E+01-2.05523E-13 2.00319E-14
 -1       704-4.11468E+01-2.71843E+01-2.05106E+01 3.07073E+01-9.02151E-14-1.15332E-16
 -1       705-2.90022E+01-2.89641E+01-1.73990E+01 2.89592E+01-1.29583E-13-1.75235E-15
 -1       706-1.69892E+01-2.89735E+01-1.37961E+01 2.64521E+01-4.27847E-14-3.63602E-15
 -1       707-5.01445E+00-2.75009E+01-9.76071E+00 2.36342E+01 1.19486E-13 8.13174E-16
 -1       708 7.20880E+00-2.49421E+01-5.32556E+00 2.07495E+01 8.57267E-14 1.90972E-14
 -1       709 2.01146E+01-2.17111E+01-4.84782E-01 1.78553E+01-1.65182E-13-2.52785E-14
 -1       710 3.42980E+01-1.82261E+01 4.81435E+00 1.48358E+01-4.88265E-14-2.33997E-14
 -1       711 5.05919E+01-1.49662E+01 1.06774E+01 1.13662E+01-6.71205E-14-1.23884E-14
 -1       712 7.02368E+01-1.26787E+01 1.72513E+01 6.72350E+00 1.31552E-13-1.42683E-14
 -1       713-7.91058E+01-1.22547E+00-2.41165E+01 3.78485E+00 9.30600E-14-5.89967E-15
 -1       714-8.95621E+01-3.85384E+00-2.80471E+01 1.04200E+01 3.53760E-14-3.98506E-15
 -1       715-9.32454E+01-8.44795E+00-3.05335E+01 1.94293E+01 7.52684E-15-1.68316E-14
 -1       716-8.89231E+01-1.50497E+01-3.12173E+01 2.80131E+01 4.93539E-14-1.56413E-14
 -1       717-7.87459E+01-2.27825E+01-3.04816E+01 3.37600E+01-1.45636E-13-4.95669E-15
 -1       718-6.58097E+01-3.00022E+01-2.87632E+01 3.58740E+01 8.56207E-14-1.03676E-14
 -1       719-5.22839E+01-3.52233E+01-2.62681E+01 3.49872E+01 1.66273E-13-3.37948E-16
 -1       720-3.91692E+01-3.78001E+01-2.31034E+01 3.22600E+01-9.30131E-14-7.56336E-15
 -1       721-2.67212E+01-3.78786E+01-1.93898E+01 2.87250E+01 9.67310E-14-4.78725E-15
 -1       722-1.47975E+01-3.59931E+01-1.52449E+01 2.50597E+01-7.12248E-14-3.00376E-15
 -1       723-3.06646E+00-3.27513E+01-1.07517E+01 2.16077E+01 5.89350E-14 1.68700E-15
 -1       724 8.90156E+00-2.86871E+01-5.94134E+00 1.84719E+01-1.04041E-13 1.94829E-14
 -1       725 2.16219E+01-2.42392E+01-7.91143E-01 1.55948E+01 3.56820E-14-7.74074E-15
 -1       726 3.57434E+01-1.98007E+01 4.77536E+00 1.27934E+01 7.31744E-14-6.63352E-15
 -1       727 5.21589E+01-1.58234E+01 1.08900E+01 9.73049E+00-4.95758E-14 9.23018E-15
 -1       728 7.22182E+01-1.30785E+01 1.77250E+01 5.74354E+00 6.23051E-14 6.53886E-15
 -1       729-9.10589E+01-3.07006E+00-2.82614E+01 6.64078E+00 1.35137E-13 1.20737E-14
 -1       730-1.06644E+02-8.45106E+00-3.45612E+01 1.79962E+01-6.00517E-14 1.44219E-14
 -1       731-1.07140E+02-1.68360E+01-3.72291E+01 3.10914E+01-3.34540E-14 1.14471E-14
 -1       732-9.58278E+01-2.77160E+01-3.70970E+01 4.02710E+01 4.34318E-14 6.50008E-15
 -1       733-7.99296E+01-3.85394E+01-3.55695E+01 4.32925E+01 3.03032E-14 4.29441E-15
 -1       734-6.38963E+01-4.63482E+01-3.30966E+01 4.14430E+01-3.34953E-14 3.49229E-15
 -1       735-4.91759E+01-4.99372E+01-2.97521E+01 3.70203E+01 1.33955E-13 8.12531E-15
 -1       736-3.59379E+01-4.98175E+01-2.57405E+01 3.18161E+01-1.04907E-13-2.44051E-16
 -1       737-2.38475E+01-4.70723E+01-2.12865E+01 2.68229E+01 6.61609E-15-1.18191E-15
 -1       738-1.24240E+01-4.27180E+01-1.65507E+01 2.24492E+01-2.69693E-14-3.38925E-15
 -1       739-1.16691E+00-3.75045E+01-1.16079E+01 1.87686E+01 6.25310E-14-9.46296E-16
 -1       740 1.04253E+01-3.19368E+01-6.45921E+00 1.56897E+01-1.61722E-14 1.07093E-14
 -1       741 2.28943E+01-2.63663E+01-1.04762E+00 1.30400E+01-4.36516E-14-1.70607E-14
 -1       742 3.69030E+01-2.10968E+01 4.73430E+00 1.05883E+01-1.94477E-13-1.83316E-14
 -1       743 5.33727E+01-1.65178E+01 1.10455E+01 8.00777E+00-2.83188E-14-8.87798E-15
 -1       744 7.37281E+01-1.33979E+01 1.80815E+01 4.72040E+00 2.81900E-14 3.25818E-15
 -1       745-1.13978E+02-8.38903E+00-3.67462E+01 1.35919E+01-5.76319E-14-1.29777E-15
 -1       746-1.31091E+02-1.89473E+01-4.50648E+01 3.36732E+01-3.51122E-14 1.40108E-14
 -1       747-1.18479E+02-3.37061E+01-4.57079E+01 5.00860E+01 8.33303E-14-3.75802E-15
 -1       748-9.64290E+01-5.06203E+01-4.41591E+01 5.50371E+01-1.47270E-13-1.13163E-15
 -1       749-7.60932E+01-6.29638E+01-4.17525E+01 5.12379E+01 7.71486E-14-8.56792E-16
 -1       750-5.89027E+01-6.77202E+01-3.80142E+01 4.37380E+01-7.14430E-14-1.49340E-15
 -1       751-4.45033E+01-6.65924E+01-3.33491E+01 3.58258E+01 8.77440E-15 2.25630E-15
 -1       752-3.20852E+01-6.19571E+01-2.82278E+01 2.88705E+01 1.34583E-14-1.64173E-15
 -1       753-2.08659E+01-5.55921E+01-2.29485E+01 2.32177E+01-2.08572E-13-9.32881E-16
 -1       754-1.01869E+01-4.85640E+01-1.76336E+01 1.87762E+01 1.15046E-13-1.51501E-15
 -1       755 4.99285E-01-4.14479E+01-1.22912E+01 1.53148E+01-1.36886E-13-1.83472E-15
 -1       756 1.16879E+01-3.45436E+01-6.86252E+00 1.25805E+01 5.77443E-14 1.32483E-14
 -1       757 2.39003E+01-2.80320E+01-1.24559E+00 1.03312E+01 7.36730E-14-4.27102E-15
 -1       758 3.77854E+01-2.20946E+01 4.69958E+00 8.32459E+00-2.88794E-14-8.89509E-15
 -1       759 5.42711E+01-1.70457E+01 1.11565E+01 6.27053E+00-2.23595E-13-4.31129E-15
 -1       760 7.48310E+01-1.36382E+01 1.83398E+01 3.69545E+00 1.87491E-14 2.66632E-15
 -1       761-1.62434E+02-2.54292E+01-5.64376E+01 3.28466E+01 7.63978E-14-6.87596E-16
 -1       762-1.53397E+02-4.19237E+01-5.86867E+01 6.50304E+01-2.17437E-14 6.48342E-15
 -1       763-1.15922E+02-6.90191E+01-5.55559E+01 7.44525E+01-4.13583E-14 3.63460E-15
 -1       764-8.85977E+01-9.08566E+01-5.38944E+01 6.62329E+01-1.41898E-13 1.70467E-15
 -1       765-6.79962E+01-9.62795E+01-4.93264E+01 5.27410E+01-6.49372E-15 1.10920E-15
 -1       766-5.21529E+01-9.17106E+01-4.31908E+01 4.04118E+01 9.76487E-14 8.37784E-16
 -1       767-3.93625E+01-8.28033E+01-3.66724E+01 3.07080E+01-1.70586E-13 7.39401E-16
 -1       768-2.83552E+01-7.26364E+01-3.03136E+01 2.34871E+01-7.46664E-14-7.25988E-16
 -1       769-1.82247E+01-6.25726E+01-2.42508E+01 1.82097E+01-7.05934E-15-1.53808E-15
 -1       770-8.33072E+00-5.31205E+01-1.84439E+01 1.43521E+01-7.09166E-14-8.18612E-16
 -1       771 1.81411E+00-4.44153E+01-1.27870E+01 1.14966E+01 1.91429E-13 1.68808E-15
 -1       772 1.26449E+01-3.64570E+01-7.14947E+00 9.32634E+00 1.21487E-13 5.32326E-15
 -1       773 2.46374E+01-2.92334E+01-1.38489E+00 7.59460E+00 2.86369E-14-5.64193E-15
 -1       774 3.84140E+01-2.28053E+01 4.67490E+00 6.08775E+00 2.22658E-14-3.53460E-15
 -1       775 5.48979E+01-1.74177E+01 1.12327E+01 4.57493E+00-1.06257E-13 1.71096E-16
 -1       776 7.55919E+01-1.38061E+01 1.85174E+01 2.69988E+00 7.42386E-14 2.66291E-15
 -1       777-2.20635E+02-6.44731E+01-8.57177E+01 8.64790E+01 8.33570E-14-7.06927E-16
 -1       778-1.35420E+02-1.01268E+02-7.11358E+01 1.06800E+02 2.07567E-14 6.55315E-15
 -1       779-1.00408E+02-1.47493E+02-7.44787E+01 8.83546E+01-1.17722E-13 4.81450E-16
 -1       780-7.61758E+01-1.48266E+02-6.74118E+01 6.27111E+01 1.87317E-13 1.05761E-15
 -1       781-5.87023E+01-1.32213E+02-5.73286E+01 4.36707E+01-7.67517E-14 2.68990E-16
 -1       782-4.55897E+01-1.13285E+02-4.76988E+01 3.07263E+01-9.62167E-14 4.36587E-16
 -1       783-3.48963E+01-9.57683E+01-3.92240E+01 2.20968E+01 1.07962E-13 2.24717E-16
 -1       784-2.53672E+01-8.05476E+01-3.17914E+01 1.62930E+01-6.80228E-14-7.24861E-16
 -1       785-1.62314E+01-6.74868E+01-2.51274E+01 1.23226E+01-2.12227E-14-1.71966E-16
 -1       786-6.99098E+00-5.62191E+01-1.89717E+01 9.54825E+00 1.79483E-13 2.07453E-16
 -1       787 2.73102E+00-4.63855E+01-1.31030E+01 7.55963E+00-3.05822E-13-1.28055E-15
 -1       788 1.32940E+01-3.77064E+01-7.32958E+00 6.08419E+00 5.72355E-14 3.36292E-15
 -1       789 2.51257E+01-3.00087E+01-1.47102E+00 4.92923E+00-1.68567E-13-3.40607E-15
 -1       790 3.88220E+01-2.32598E+01 4.66088E+00 3.94011E+00 7.09466E-14-1.26825E-15
 -1       791 5.52981E+01-1.76532E+01 1.12821E+01 2.95956E+00 9.93579E-15 3.24357E-17
 -1       792 7.60723E+01-1.39118E+01 1.86296E+01 1.75396E+00 5.86636E-14 2.47369E-15
 -1       793-1.57855E+02-2.15705E+02-1.12247E+02 1.25886E+02-1.50131E-13 1.42540E-15
 -1       794-1.19445E+02-3.04145E+02-1.27360E+02 1.08728E+02-2.81980E-14 5.23231E-16
 -1       795-8.82516E+01-2.58680E+02-1.04264E+02 6.30696E+01 6.43929E-14 1.07690E-15
 -1       796-6.57051E+01-2.01687E+02-8.03237E+01 3.83560E+01-9.41618E-14-2.75493E-16
 -1       797-5.14407E+01-1.58868E+02-6.31558E+01 2.44398E+01 1.22792E-13 5.41430E-16
 -1       798-4.08870E+01-1.27344E+02-5.05090E+01 1.63357E+01 8.00758E-14-2.26873E-16
 -1       799-3.19197E+01-1.03599E+02-4.06815E+01 1.13800E+01 6.47847E-15-2.25756E-16
 -1       800-2.34790E+01-8.51051E+01-3.25926E+01 8.22232E+00 3.59145E-14-3.07010E-16
 -1       801-1.50199E+01-7.02325E+01-2.55878E+01 6.13657E+00-3.90812E-14-4.05650E-16
 -1       802-6.19992E+00-5.79152E+01-1.92432E+01 4.71370E+00-2.05104E-13 1.09479E-16
 -1       803 3.26043E+00-4.74489E+01-1.32632E+01 3.71118E+00 7.36341E-14 4.79276E-17
 -1       804 1.36618E+01-3.83741E+01-7.41952E+00 2.97708E+00-2.32692E-14 1.87670E-15
 -1       805 2.53978E+01-3.04199E+01-1.51276E+00 2.40868E+00 9.86703E-14-2.30052E-15
 -1       806 3.90456E+01-2.34995E+01 4.65608E+00 1.92666E+00-1.63627E-13-9.06823E-16
 -1       807 5.55151E+01-1.77756E+01 1.13104E+01 1.45284E+00-5.71105E-14-2.21688E-15
 -1       808 7.63270E+01-1.39670E+01 1.86894E+01 8.74188E-01-8.98750E-14-6.51334E-16
 -3
    1PSTEP                         3           1           1          
  100CL  101 1.000000000         807                     0    1           1
 -4  TOSTRAIN    6    1
 -5  EXX         1    4    1    1
 -5  EYY         1    4    2    2
 -5  EZZ         1    4    3    3
 -5  EXY         1    4    1    2
 -5  EYZ         1    4    2    3
 -5  EZX         1    4    3    1
 -1         1-2.49064E-03-5.55798E-03 8.03248E-38-3.03214E-03 2.24786E-19 1.11011E-20
 -1         2 3.02898E-06-2.15335E-06 2.50798E-38 9.72718E-06 5.24415E-21 1.19347E-19
 -1         3-1.77781E-03-2.62942E-03 4.18623E-37-1.93477E-03 5.81880E-19-1.67070E-20
 -1         4-6.07615E-04 3.48807E-04 4.18892E-37-1.12902E-03 2.64326E-19 3.85624E-20
 -1         5-6.38431E-05 9.90055E-05 2.55268E-37-1.63612E-04-3.95359E-19 4.98016E-21
 -1         6 1.08843E-05 8.46827E-05-2.22117E-37-7.85489E-05-4.46036E-21 2.53503E-20
 -1         7 5.39910E-06 4.58653E-05 4.70169E-38-3.54868E-05 1.61694E-19 1.54627E-20
 -1         8 4.54743E-06 2.98134E-05 3.03955E-37-2.18598E-05 1.40784E-20-7.30213E-21
 -1         9 3.33883E-06 1.94279E-05 1.54132E-38-1.42853E-05 2.47171E-19-9.70213E-21
 -1        10 2.77239E-06 1.31862E-05 2.52092E-38-1.01879E-05-3.24766E-20 4.32148E-20
 -1        11 2.37922E-06 9.08404E-06 1.12963E-38-7.63366E-06-1.25744E-20-2.71545E-20
 -1        12 2.13341E-06 6.31922E-06 4.45960E-38-5.96199E-06-5.19153E-20 1.23437E-20
 -1        13 1.97479E-06 4.38592E-06 1.04665E-38-4.80017E-06 1.68774E-19 1.11578E-20
 -1        14 1.88059E-06 2.99523E-06 1.06313E-37-3.95674E-06-1.34985E-19-6.33799E-20
 -1        15 1.83522E-06 1.96560E-06 3.43952E-40-3.31875E-06 1.89875E-20 1.49865E-20
 -1        16 1.83039E-06 1.18049E-06-7.94028E-39-2.81686E-06 6.92766E-21-2.36914E-20
 -1        17 1.86170E-06 5.62160E-07 3.35793E-41-2.40500E-06 6.86615E-22-6.34681E-20
 -1        18 1.92773E-06 5.67260E-08 7.08295E-39-2.04975E-06-7.30554E-20 2.69362E-20
 -1        19 2.02738E-06-3.71293E-07 3.62504E-38-1.72447E-06-6.48029E-20-1.21390E-19
 -1        20 2.17368E-06-7.59257E-07-8.61264E-39-1.39982E-06-8.57600E-20 2.73867E-22
 -1        21 2.29360E-06-1.04174E-06 1.47181E-38-1.08518E-06 5.60218E-20-8.00476E-21
 -1        22 2.70979E-06-1.65748E-06-1.34886E-38-6.90239E-07-7.50808E-21-4.80057E-20
 -1        23 4.43818E-06-8.10755E-06-2.57987E-38 9.40618E-06-9.64840E-21 6.77167E-20
 -1        24 7.58970E-06-1.50358E-05 1.00202E-38 8.98213E-06-7.61881E-21-5.40586E-20
 -1        25 1.14958E-05-2.32565E-05 1.08397E-38 8.48745E-06 1.13210E-20-2.75668E-20
 -1        26 1.63440E-05-3.29862E-05 7.97978E-39 7.91285E-06 1.76283E-20 3.22831E-21
 -1        27 2.23668E-05-4.45454E-05 2.14766E-38 7.24748E-06-4.66911E-20 9.42631E-20
 -1        28 2.98661E-05-5.83284E-05 2.99713E-39 6.48144E-06 6.18822E-20-6.13293E-20
 -1        29 3.92191E-05-7.48123E-05 2.01932E-38 5.60806E-06-3.34354E-20 9.43780E-20
 -1        30 5.08857E-05-9.45590E-05 6.11063E-39 4.62768E-06 1.36639E-19 1.08869E-20
 -1        31 6.54021E-05-1.18198E-04 3.82777E-38 3.55339E-06-1.28033E-19 7.72367E-20
 -1        32 8.33448E-05-1.46371E-04 4.01379E-38 2.41931E-06 8.54513E-22-5.31744E-20
 -1        33 1.05235E-04-1.79599E-04 8.82742E-39 1.29062E-06 1.07382E-19-1.10292E-19
 -1        34 1.31339E-04-2.18022E-04-2.47818E-40 2.72402E-07 1.25862E-19 1.11062E-19
 -1        35 1.61315E-04-2.60959E-04 7.25803E-38-4.90531E-07-9.46489E-20 1.16429E-20
 -1        36 1.93687E-04-3.06277E-04 1.52137E-37-8.35802E-07 1.77699E-19-6.69326E-20
 -1        37 2.25437E-04-3.49635E-04-2.96770E-39-6.33350E-07-1.24394E-19-1.27806E-20
 -1        38 2.51533E-04-3.87160E-04 6.56400E-39 2.06454E-08-4.55675E-20-5.28757E-21
 -1        39 2.63855E-04-3.96940E-04 1.76827E-38-1.63793E-06-4.84633E-20-1.87595E-21
 -1        40 9.43913E-04-4.98055E-03-9.02202E-38-1.52441E-03 4.49122E-20-4.45021E-21
 -1        41 1.15394E-03-3.72904E-03 2.50064E-37-6.93823E-04 4.48531E-20-2.37408E-21
 -1        42 1.01382E-03-2.64871E-03 1.16513E-36-3.51171E-04 6.03048E-19-4.54127E-21
 -1        43 8.46865E-04-1.98401E-03-2.31730E-37-1.93150E-04-3.65315E-19-4.96465E-21
 -1        44 7.11121E-04-1.55193E-03 2.30643E-38-1.13646E-04-2.20579E-19 2.34472E-21
 -1        45 6.06448E-04-1.25512E-03 1.05709E-37-7.00130E-05 3.47565E-19-3.31954E-21
 -1        46 5.26016E-04-1.04134E-03 7.98083E-40-4.45148E-05 1.46343E-19 4.53902E-21
 -1        47 4.63581E-04-8.81835E-04 1.49263E-37-2.88580E-05 2.57235E-20-1.12141E-21
 -1        48 4.14538E-04-7.59670E-04 2.48628E-39-1.88786E-05 2.48822E-19 8.82829E-22
 -1        49 3.75631E-04-6.64372E-04 7.92602E-38-1.23334E-05 8.89147E-20-9.18662E-22
 -1        50 3.44582E-04-5.89190E-04-2.34531E-38-7.94950E-06 1.16291E-19-4.30999E-22
 -1        51 3.19797E-04-5.29667E-04 1.60459E-37-4.97234E-06-4.39263E-19 3.62437E-22
 -1        52 3.00179E-04-4.82847E-04 2.29492E-38-2.93939E-06 1.83258E-19-3.66231E-22
 -1        53 2.85006E-04-4.46855E-04 4.95095E-38-1.56054E-06 1.44411E-19-5.94203E-22
 -1        54 2.73915E-04-4.20636E-04 2.19113E-38-6.51193E-07 1.25647E-20 1.27176E-22
 -1        55 2.65986E-04-4.03806E-04 3.74077E-39-9.07983E-08 2.88170E-19 1.55184E-22
 -1        56 1.63550E-04-2.76648E-03 1.71393E-37-1.28550E-03-2.20420E-19 3.14728E-20
 -1        57 7.59622E-04-2.73578E-03 2.23337E-37-1.15121E-03-2.38527E-19 1.27982E-21
 -1        58 8.25282E-04-2.28048E-03 2.50228E-37-6.98423E-04-1.79954E-19 1.08224E-20
 -1        59 7.58256E-04-1.83280E-03 1.73830E-37-4.19122E-04-1.48073E-20 7.99018E-21
 -1        60 6.67813E-04-1.48457E-03 5.20373E-38-2.57266E-04 9.00509E-20-1.25039E-20
 -1        61 5.84548E-04-1.22286E-03 1.75193E-37-1.62282E-04 2.00883E-19 8.40128E-21
 -1        62 5.14608E-04-1.02511E-03 1.77121E-37-1.04608E-04-4.74923E-19-9.42956E-21
 -1        63 4.57518E-04-8.73378E-04-3.43311E-38-6.83972E-05-1.53610E-20 3.49242E-21
 -1        64 4.11280E-04-7.55174E-04 1.94524E-37-4.49930E-05 6.84628E-20-5.11420E-21
 -1        65 3.73879E-04-6.61959E-04 1.14754E-37-2.95062E-05 7.65819E-20 3.71096E-21
 -1        66 3.43649E-04-5.87899E-04 1.29347E-38-1.90731E-05-5.91493E-20 2.14805E-21
 -1        67 3.19313E-04-5.28988E-04-6.82753E-38-1.19609E-05-5.23750E-20-2.54176E-21
 -1        68 2.99939E-04-4.82502E-04 2.45279E-37-7.09256E-06-1.66781E-21 1.82543E-21
 -1        69 2.84897E-04-4.46690E-04 3.98073E-38-3.78590E-06-2.74535E-20 3.79453E-22
 -1        70 2.73873E-04-4.20565E-04 2.25440E-38-1.60990E-06 2.19345E-19 9.77306E-23
 -1        71 2.65981E-04-4.03778E-04 1.06154E-37-2.82782E-07-2.16664E-19-8.52980E-22
 -1        72-8.29096E-04-1.46131E-04-1.40418E-38-1.23921E-03 4.20845E-20-4.29500E-20
 -1        73-2.46195E-05-1.00764E-03 4.75723E-37-1.38967E-03 4.54224E-20 3.93079E-21
 -1        74 3.80466E-04-1.41372E-03-3.96037E-38-1.06265E-03 1.48484E-20-2.50849E-20
 -1        75 5.22484E-04-1.41962E-03-7.33855E-39-7.21812E-04-1.67068E-19 5.36527E-21
 -1        76 5.44260E-04-1.28394E-03 3.39204E-37-4.76121E-04-2.97741E-19-4.12500E-20
 -1        77 5.19212E-04-1.12216E-03-4.40950E-39-3.13240E-04-2.29897E-19 4.83069E-21
 -1        78 4.79619E-04-9.72957E-04 2.15042E-37-2.07148E-04 4.86355E-19-2.52344E-21
 -1        79 4.38587E-04-8.45729E-04 2.66204E-37-1.37628E-04-7.40141E-20-1.03569E-20
 -1        80 4.00990E-04-7.40298E-04 9.07684E-38-9.14698E-05-9.51071E-20-7.63859E-21
 -1        81 3.68303E-04-6.53913E-04 4.92538E-38-6.03908E-05 1.01837E-19 9.96667E-21
 -1        82 3.40667E-04-5.83570E-04-5.51386E-38-3.92123E-05 5.56274E-20 1.67761E-22
 -1        83 3.17761E-04-5.26700E-04 1.30985E-37-2.46645E-05-6.80072E-20-1.17381E-21
 -1        84 2.99170E-04-4.81336E-04 6.05883E-38-1.46555E-05 1.34764E-19 8.07822E-21
 -1        85 2.84548E-04-4.46132E-04 1.04565E-38-7.83425E-06 1.17735E-19 1.05285E-21
 -1        86 2.73740E-04-4.20326E-04 6.06481E-38-3.33571E-06-3.42451E-19-1.42895E-21
 -1        87 2.65964E-04-4.03686E-04 1.72429E-38-5.88113E-07-4.24975E-20 2.32017E-21
 -1        88-7.93008E-04 6.14784E-05 3.45917E-37-5.85744E-04 1.31125E-19-4.29274E-22
 -1        89-4.97205E-04-2.11167E-04-1.12328E-37-9.70281E-04 1.54695E-19 3.29874E-20
 -1        90-5.26907E-05-6.55351E-04 2.60421E-37-1.00592E-03 3.95042E-20-2.07859E-21
 -1        91 2.29374E-04-9.19316E-04 1.17266E-37-8.25114E-04 1.59849E-19-8.34316E-21
 -1        92 3.66497E-04-9.92312E-04 1.77033E-37-6.10613E-04 2.86675E-19 7.93833E-21
 -1        93 4.16244E-04-9.59451E-04 2.52835E-38-4.31575E-04-2.73336E-19-4.56805E-21
 -1        94 4.21160E-04-8.83186E-04 7.42194E-38-2.98594E-04-2.38025E-19-1.07199E-20
 -1        95 4.05731E-04-7.96216E-04 4.47999E-39-2.04218E-04 1.31191E-19-4.91135E-21
 -1        96 3.82677E-04-7.12970E-04 4.89993E-38-1.38317E-04 8.62481E-20 2.37274E-20
 -1        97 3.58214E-04-6.38881E-04 1.64413E-38-9.24698E-05-3.87805E-20-8.57577E-21
 -1        98 3.35212E-04-5.75389E-04 2.58601E-37-6.05459E-05-1.00648E-19-7.73880E-21
 -1        99 3.14901E-04-5.22343E-04-5.74050E-39-3.82989E-05 3.18119E-21 1.90666E-21
 -1       100 2.97746E-04-4.79102E-04 9.43410E-39-2.28446E-05-2.84779E-19 1.75704E-21
 -1       101 2.83901E-04-4.45058E-04 7.37980E-38-1.22447E-05 1.32645E-19 5.98937E-21
 -1       102 2.73492E-04-4.19864E-04 1.16719E-38-5.22548E-06 2.02653E-19-5.75964E-22
 -1       103 2.65933E-04-4.03508E-04 2.19229E-38-9.26055E-07-8.99329E-20 2.26540E-22
 -1       104-4.22462E-04 8.55383E-05 4.71019E-37-2.58800E-04 4.29558E-19 2.23713E-20
 -1       105-5.03893E-04-9.95667E-06 1.49128E-37-5.66849E-04-3.51237E-19 1.55133E-20
 -1       106-2.78621E-04-2.56131E-04-2.80784E-38-7.51317E-04-1.30419E-20 4.22516E-20
 -1       107-1.15572E-05-5.21248E-04 3.04740E-37-7.51677E-04-7.96326E-21-5.13210E-21
 -1       108 1.81443E-04-6.93847E-04 1.19939E-37-6.39726E-04-6.92064E-20 2.19863E-20
 -1       109 2.92377E-04-7.63989E-04 1.79659E-37-4.97248E-04 1.55610E-19-2.15354E-20
 -1       110 3.43943E-04-7.63775E-04 5.31586E-38-3.66735E-04 2.07970E-19 9.94607E-21
 -1       111 3.59562E-04-7.25901E-04 2.01384E-37-2.61783E-04-8.87599E-20-4.86132E-20
 -1       112 3.55853E-04-6.72472E-04-4.44888E-38-1.82467E-04 1.01013E-19 1.03997E-20
 -1       113 3.43012E-04-6.15966E-04 1.46488E-37-1.24367E-04-2.00198E-19-3.69067E-21
 -1       114 3.26833E-04-5.62679E-04-2.96014E-38-8.25046E-05 4.11446E-20 8.22761E-22
 -1       115 3.10452E-04-5.15485E-04 6.85489E-39-5.26562E-05-6.79700E-20-1.54030E-20
 -1       116 2.95512E-04-4.75556E-04 7.94991E-38-3.16005E-05 2.69355E-19-2.06480E-21
 -1       117 2.82879E-04-4.43345E-04-7.27368E-40-1.70105E-05 5.62124E-20-1.47858E-21
 -1       118 2.73100E-04-4.19126E-04 7.86785E-38-7.28496E-06 1.59683E-19 3.59730E-22
 -1       119 2.65885E-04-4.03225E-04 8.18655E-39-1.30044E-06-1.27877E-19 1.79656E-21
 -1       120-2.38969E-04 6.02396E-05-4.29376E-38-1.41491E-04-9.25436E-20 3.72453E-20
 -1       121-3.62771E-04 3.83344E-05-8.88209E-39-3.31394E-04 6.56706E-21-7.37774E-20
 -1       122-3.10275E-04-8.91246E-05 3.07001E-38-5.11839E-04 1.76336E-20-3.70083E-20
 -1       123-1.43840E-04-2.75860E-04 9.16688E-38-6.00053E-04 3.03526E-20 7.33446E-20
 -1       124 3.42790E-05-4.52325E-04-4.30093E-38-5.85394E-04 2.77737E-19-6.49336E-21
 -1       125 1.71278E-04-5.72581E-04 2.21245E-37-5.05632E-04-1.19807E-20 2.92325E-20
 -1       126 2.57767E-04-6.30204E-04 6.48891E-38-4.02967E-04 3.22445E-20-5.38182E-21
 -1       127 3.03253E-04-6.39748E-04-1.96793E-38-3.04001E-04 3.98783E-20 4.03351E-21
 -1       128 3.21094E-04-6.19687E-04 1.21419E-37-2.20271E-04-1.90120E-19-1.85568E-20
 -1       129 3.22477E-04-5.84819E-04 3.98169E-38-1.54233E-04-1.38631E-19 2.40993E-20
 -1       130 3.15185E-04-5.44903E-04 3.45980E-39-1.04241E-04 2.88392E-20-2.21657E-20
 -1       131 3.04142E-04-5.05708E-04 1.41679E-37-6.73896E-05-2.09756E-19 8.78904E-21
 -1       132 2.92301E-04-4.70435E-04 4.61497E-38-4.08028E-05 8.46490E-20-5.05023E-21
 -1       133 2.81398E-04-4.40851E-04-1.01682E-38-2.21019E-05-4.68288E-20 4.77550E-21
 -1       134 2.72529E-04-4.18048E-04 4.65463E-39-9.51437E-06-5.67850E-20-3.95056E-21
 -1       135 2.65813E-04-4.02811E-04 1.33532E-37-1.71593E-06-2.33624E-19-1.35230E-21
 -1       136-1.45324E-04 4.06141E-05 7.26769E-38-8.74449E-05 2.83557E-19 3.97828E-20
 -1       137-2.47060E-04 3.95180E-05-8.24889E-39-2.08293E-04-1.57553E-19 1.01399E-20
 -1       138-2.60454E-04-2.38677E-05 1.44004E-37-3.45041E-04-2.19782E-19-2.57513E-20
 -1       139-1.82588E-04-1.43129E-04 1.15329E-38-4.49986E-04-2.15079E-19-1.92419E-20
 -1       140-5.51744E-05-2.85032E-04 1.23394E-37-4.91089E-04-4.33678E-20-2.84637E-20
 -1       141 7.32457E-05-4.11713E-04 3.69983E-38-4.69173E-04-1.05554E-19 2.03028E-20
 -1       142 1.74763E-04-5.00036E-04 1.44666E-37-4.06130E-04 6.10016E-20-9.84718E-21
 -1       143 2.42280E-04-5.46009E-04 1.41054E-37-3.26653E-04-2.04263E-19-2.54394E-20
 -1       144 2.80268E-04-5.57492E-04 7.07884E-38-2.48262E-04 1.25535E-19 1.24992E-20
 -1       145 2.96943E-04-5.45991E-04 3.71390E-38-1.79965E-04-2.19169E-20-2.50802E-20
 -1       146 3.00112E-04-5.21854E-04 2.55067E-38-1.24678E-04-6.97819E-24 1.82320E-20
 -1       147 2.95746E-04-4.92681E-04 2.24350E-38-8.20182E-05-1.92180E-19-7.82579E-21
 -1       148 2.87945E-04-4.63484E-04 1.51084E-37-5.02701E-05 1.72619E-19 4.19767E-21
 -1       149 2.79362E-04-4.37427E-04 7.13935E-39-2.74678E-05 5.25301E-20-1.28968E-20
 -1       150 2.71738E-04-4.16559E-04 7.06371E-38-1.19092E-05 1.98094E-20 1.17032E-21
 -1       151 2.65712E-04-4.02243E-04-2.85738E-38-2.17805E-06 6.49539E-21 6.93908E-22
 -1       152-9.32868E-05 2.64038E-05 1.19579E-37-5.97005E-05 1.73622E-21-2.91483E-20
 -1       153-1.67848E-04 3.05806E-05 1.69078E-37-1.39921E-04 2.36965E-19 8.57621E-20
 -1       154-1.98680E-04-2.15050E-06-3.54848E-38-2.38520E-04-3.36978E-19-6.41828E-20
 -1       155-1.71017E-04-7.58986E-05 1.61774E-37-3.31206E-04 4.64272E-19 3.44134E-20
 -1       156-9.35907E-05-1.79515E-04 3.13914E-38-3.92324E-04 8.47609E-21 2.30764E-20
 -1       157 7.47863E-06-2.90460E-04 1.27619E-37-4.08320E-04-2.36156E-19-5.55414E-20
 -1       158 1.05227E-04-3.86323E-04 2.91408E-39-3.82520E-04-5.51454E-20 5.43171E-20
 -1       159 1.83194E-04-4.53768E-04-2.75415E-39-3.29072E-04 2.05189E-19 2.82954E-20
 -1       160 2.36433E-04-4.90350E-04 7.53159E-38-2.63988E-04-1.83909E-19-3.12121E-20
 -1       161 2.67438E-04-5.01058E-04 7.47537E-38-1.99488E-04-2.22980E-19-3.08203E-20
 -1       162 2.81754E-04-4.93796E-04 4.28620E-38-1.42545E-04 3.43900E-21 3.09791E-20
 -1       163 2.85132E-04-4.76243E-04-1.05467E-38-9.59037E-05 8.13564E-20-2.89836E-20
 -1       164 2.82291E-04-4.54495E-04 3.08621E-38-5.97338E-05-2.25529E-19-1.85026E-20
 -1       165 2.76673E-04-4.32927E-04-1.06722E-38-3.30196E-05 3.92458E-22-6.58902E-22
 -1       166 2.70684E-04-4.14590E-04-4.56284E-39-1.44543E-05 1.04224E-19-3.20486E-21
 -1       167 2.65575E-04-4.01494E-04 6.55799E-38-2.69244E-06-1.80782E-19-1.29169E-21
 -1       168-6.19283E-05 1.67631E-05 2.41644E-38-4.35142E-05-2.05864E-19-2.89219E-20
 -1       169-1.15099E-04 2.07162E-05 1.70252E-38-9.96340E-05-1.02647E-19 1.01145E-20
 -1       170-1.45719E-04 2.47132E-06 9.18497E-38-1.70596E-04 1.68802E-19 4.06816E-20
 -1       171-1.41408E-04-4.38525E-05 5.44484E-38-2.44961E-04-1.43047E-19-2.84277E-20
 -1       172-9.90973E-05-1.16695E-04 7.41649E-38-3.06541E-04-8.16941E-20-8.75524E-21
 -1       173-2.80607E-05-2.05603E-04-1.32169E-38-3.41030E-04 2.33829E-19 1.28928E-20
 -1       174 5.44780E-05-2.94933E-04 1.84028E-38-3.42361E-04-4.02979E-20-1.05167E-20
 -1       175 1.31764E-04-3.70284E-04 1.05545E-37-3.14266E-04-9.30331E-21 1.53257E-20
 -1       176 1.93275E-04-4.23260E-04-1.93993E-38-2.66781E-04 8.83942E-20-1.45024E-20
 -1       177 2.35652E-04-4.52456E-04 9.36100E-38-2.11204E-04 2.56262E-19 1.38272E-20
 -1       178 2.60625E-04-4.61543E-04-4.82324E-38-1.56537E-04 5.24538E-21-3.08393E-20
 -1       179 2.72315E-04-4.56479E-04 1.58440E-37-1.08273E-04 5.26215E-20 2.53622E-20
 -1       180 2.75227E-04-4.43338E-04 1.05097E-38-6.88271E-05-7.36977E-20 4.63233E-21
 -1       181 2.73234E-04-4.27227E-04 6.78130E-38-3.86212E-05 1.17363E-19-1.06043E-20
 -1       182 2.69317E-04-4.12072E-04 4.62894E-38-1.71184E-05 1.55492E-19 1.05826E-20
 -1       183 2.65391E-04-4.00544E-04-1.06035E-38-3.26399E-06-5.87037E-21-6.21491E-21
 -1       184-4.19366E-05 1.01128E-05 4.00273E-38-3.32358E-05 1.38927E-19-5.19543E-21
 -1       185-7.94813E-05 1.23846E-05-9.04689E-39-7.42503E-05-5.70612E-20-1.62923E-20
 -1       186-1.04809E-04 7.67204E-07-4.26026E-39-1.26262E-04 6.12525E-21 1.50480E-21
 -1       187-1.09447E-04-2.96760E-05 1.18550E-37-1.83971E-04 1.54655E-19 2.67230E-20
 -1       188-8.79996E-05-8.08186E-05 7.56046E-38-2.38209E-04-1.64022E-20-6.35852E-21
 -1       189-4.13316E-05-1.49162E-04 5.82995E-38-2.78179E-04-1.85570E-19 4.77907E-20
 -1       190 2.25260E-05-2.25891E-04 3.15588E-38-2.95491E-04 1.29302E-19 8.39705E-21
 -1       191 9.14872E-05-2.99657E-04 4.19315E-38-2.87521E-04 2.65072E-20 3.36827E-20
 -1       192 1.54252E-04-3.60565E-04 5.19938E-38-2.57929E-04 7.68220E-20 2.12994E-22
 -1       193 2.03704E-04-4.03029E-04 1.91008E-39-2.14419E-04-5.98812E-20-2.79442E-20
 -1       194 2.37629E-04-4.26406E-04 1.19952E-37-1.65543E-04-5.13498E-20 2.14634E-20
 -1       195 2.57510E-04-4.33769E-04-2.09537E-38-1.18284E-04-2.65415E-20-1.43083E-20
 -1       196 2.66705E-04-4.30008E-04 7.52837E-38-7.70864E-05-5.97503E-20 4.52961E-21
 -1       197 2.68958E-04-4.20237E-04 1.84309E-38-4.40768E-05 1.35460E-19 2.59706E-20
 -1       198 2.67587E-04-4.08948E-04 3.87411E-38-1.98475E-05-1.43766E-19-6.35720E-21
 -1       199 2.65147E-04-3.99378E-04-2.91331E-38-3.89520E-06 9.11936E-20 4.49206E-21
 -1       200-2.86331E-05 5.46066E-06 1.42133E-38-2.62329E-05 1.75039E-20 4.88381E-21
 -1       201-5.49285E-05 5.84381E-06 2.81023E-38-5.72961E-05 2.88257E-20 5.45010E-20
 -1       202-7.42352E-05-2.84906E-06 3.21129E-38-9.62872E-05-1.02127E-19-2.49596E-20
 -1       203-8.10723E-05-2.42688E-05 8.24306E-39-1.40784E-04-2.52832E-20-9.53499E-21
 -1       204-7.06891E-05-6.10203E-05 6.14911E-38-1.85830E-04-8.91532E-20 2.37716E-20
 -1       205-4.09207E-05-1.12947E-04 1.04770E-38-2.24341E-04-2.29952E-20-4.56096E-20
 -1       206 5.94998E-06-1.76060E-04-1.68366E-39-2.48916E-04-2.68293E-20-4.05558E-20
 -1       207 6.31846E-05-2.43011E-04 3.32606E-38-2.54470E-04-1.09510E-20 4.05889E-20
 -1       208 1.21813E-04-3.05199E-04 5.52317E-38-2.40163E-04-1.73118E-19-6.41474E-20
 -1       209 1.73739E-04-3.55466E-04 3.95279E-38-2.09531E-04 1.39392E-19 4.84571E-20
 -1       210 2.13970E-04-3.90006E-04 1.64078E-38-1.68896E-04-6.48508E-20-7.39413E-21
 -1       211 2.41157E-04-4.08783E-04 1.96585E-38-1.25148E-04-7.07546E-20 4.49492E-21
 -1       212 2.56776E-04-4.14651E-04 1.56623E-38-8.39757E-05 4.37840E-21 1.80641E-21
 -1       213 2.63781E-04-4.11926E-04-4.57600E-39-4.91251E-05-9.95510E-20-2.60083E-20
 -1       214 2.65443E-04-4.05180E-04-8.79029E-39-2.25555E-05 1.59922E-19 1.14118E-20
 -1       215 2.64827E-04-3.97996E-04 1.03448E-37-4.58336E-06-1.92083E-19-7.65987E-21
 -1       216-1.94799E-05 2.14094E-06 5.99168E-38-2.11850E-05 6.73044E-20-7.97527E-21
 -1       217-3.76472E-05 8.40475E-07-3.27165E-39-4.53596E-05-8.68355E-20-2.83693E-20
 -1       218-5.15735E-05-6.67737E-06-2.33117E-40-7.52303E-05 1.99966E-20 3.22149E-20
 -1       219-5.77463E-05-2.29910E-05 2.44332E-38-1.09701E-04 6.42458E-20 6.11683E-20
 -1       220-5.26168E-05-5.04859E-05 1.43899E-38-1.46155E-04 8.71214E-20-1.38718E-20
 -1       221-3.34614E-05-9.03036E-05 4.14827E-38-1.80252E-04-5.77544E-20 4.87218E-20
 -1       222 1.95187E-07-1.41282E-04 5.00810E-39-2.06497E-04 3.30164E-20 2.66113E-20
 -1       223 4.55913E-05-1.99436E-04 1.64229E-38-2.19693E-04 1.50943E-20-4.48464E-20
 -1       224 9.70197E-05-2.58557E-04 2.07727E-38-2.16745E-04 6.50064E-20 5.56540E-21
 -1       225 1.47503E-04-3.11869E-04-2.00030E-38-1.97869E-04 3.81108E-20 3.10100E-20
 -1       226 1.90985E-04-3.54011E-04 1.00331E-37-1.66540E-04-2.04805E-19-1.98848E-20
 -1       227 2.23908E-04-3.82413E-04 5.37211E-39-1.28272E-04-9.96372E-20 4.14992E-20
 -1       228 2.45610E-04-3.97575E-04 4.84627E-38-8.89413E-05 8.16724E-20 1.30052E-20
 -1       229 2.57676E-04-4.02335E-04-7.25026E-39-5.34418E-05-3.29022E-20-1.81885E-20
 -1       230 2.62837E-04-4.00758E-04 3.78868E-38-2.51167E-05 8.72262E-20-4.14627E-21
 -1       231 2.64406E-04-3.96418E-04 3.22279E-38-5.31652E-06 4.03927E-20-1.89738E-21
 -1       232-1.30102E-05-2.73771E-07 3.56415E-40-1.73711E-05-2.33125E-20-3.44082E-21
 -1       233-2.52522E-05-2.96369E-06 4.72777E-38-3.65555E-05 9.27920E-20 7.75136E-20
 -1       234-3.47475E-05-1.01183E-05 2.81585E-38-5.98553E-05 2.52747E-20 5.78348E-20
 -1       235-3.92240E-05-2.35405E-05-7.03183E-39-8.67851E-05 1.40146E-20-4.37052E-22
 -1       236-3.61814E-05-4.51553E-05 4.02831E-38-1.15978E-04 5.99334E-22-3.71091E-20
 -1       237-2.32199E-05-7.64246E-05 5.70479E-39-1.44867E-04-6.41335E-21 7.58689E-20
 -1       238 1.11467E-06-1.17597E-04-2.09606E-39-1.69715E-04-3.11815E-20 3.20695E-20
 -1       239 3.63729E-05-1.66988E-04 5.23651E-38-1.86215E-04 1.05315E-20-2.21036E-20
 -1       240 7.96631E-05-2.20764E-04 2.07474E-38-1.90666E-04 7.17608E-20 1.20668E-20
 -1       241 1.26053E-04-2.73570E-04 1.81246E-37-1.81285E-04 5.44644E-20 1.17019E-20
 -1       242 1.69909E-04-3.19902E-04-2.72742E-39-1.59018E-04-4.74998E-22-8.13067E-20
 -1       243 2.06568E-04-3.55667E-04 3.73570E-38-1.27389E-04 9.31534E-20 4.21490E-20
 -1       244 2.33521E-04-3.79235E-04-7.88160E-39-9.14955E-05 9.41994E-20 4.72804E-21
 -1       245 2.50674E-04-3.91587E-04 4.10451E-38-5.66608E-05-9.59161E-20-2.93271E-20
 -1       246 2.59726E-04-3.95704E-04 3.58156E-39-2.73596E-05-2.33692E-20 1.51341E-20
 -1       247 2.63851E-04-3.94690E-04 3.60224E-38-6.06814E-06-1.57243E-19 2.78949E-22
 -1       248-8.33411E-06-2.06480E-06 7.89182E-38-1.43712E-05-7.81485E-20 1.04313E-20
 -1       249-1.62138E-05-5.86324E-06-1.16300E-38-2.97851E-05 9.39304E-20-7.57142E-21
 -1       250-2.21849E-05-1.30188E-05 6.11927E-40-4.81987E-05-1.50361E-20-4.59713E-21
 -1       251-2.47501E-05-2.47996E-05 2.08786E-38-6.94050E-05 1.62465E-19-9.90189E-21
 -1       252-2.21796E-05-4.26870E-05 7.32294E-38-9.26943E-05-1.25291E-19-2.63891E-20
 -1       253-1.25945E-05-6.80619E-05 3.63423E-38-1.16575E-04-5.90865E-20 1.89178E-20
 -1       254 5.59099E-06-1.01750E-04 2.57496E-38-1.38622E-04-1.94519E-20-2.86849E-20
 -1       255 3.30104E-05-1.43424E-04 2.62372E-38-1.55628E-04-1.37676E-20 4.27872E-20
 -1       256 6.86729E-05-1.91111E-04 3.11802E-38-1.64188E-04-1.68267E-19-2.78870E-20
 -1       257 1.09681E-04-2.41148E-04 5.07870E-38-1.61685E-04-8.01787E-20-5.14036E-20
 -1       258 1.51677E-04-2.88819E-04 4.35068E-38-1.47305E-04 2.20160E-19-6.39573E-21
 -1       259 1.89986E-04-3.29551E-04 1.37407E-38-1.22603E-04-3.72363E-20-2.83418E-20
 -1       260 2.20956E-04-3.60203E-04 9.11839E-39-9.13033E-05-1.39642E-19 2.62881E-21
 -1       261 2.42885E-04-3.79892E-04 8.44095E-38-5.84154E-05-1.21978E-20-1.02585E-20
 -1       262 2.56088E-04-3.90075E-04-8.23254E-39-2.90710E-05-2.44947E-20-2.87514E-20
 -1       263 2.63120E-04-3.92886E-04 2.62308E-38-6.79154E-06 1.36334E-20 1.62855E-21
 -1       264-4.88997E-06-3.42013E-06 4.78600E-38-1.19256E-05 4.22849E-20 1.89745E-20
 -1       265-9.52972E-06-8.08903E-06 1.51593E-38-2.43772E-05-2.35767E-21-1.26321E-20
 -1       266-1.27436E-05-1.53948E-05 1.19396E-38-3.90335E-05-9.05591E-21-4.62874E-20
 -1       267-1.35214E-05-2.62433E-05 3.83901E-38-5.58128E-05-2.45046E-19 1.15045E-20
 -1       268-1.06640E-05-4.17588E-05 4.03315E-38-7.43486E-05 1.97471E-19 4.45776E-20
 -1       269-2.76822E-06-6.31151E-05 3.22048E-38-9.37786E-05 4.14186E-20 9.59694E-21
 -1       270 1.15618E-05-9.12868E-05 3.43000E-38-1.12572E-04-1.12418E-19 5.11945E-20
 -1       271 3.33268E-05-1.26642E-04 4.09245E-39-1.28479E-04 1.13026E-19 6.66092E-21
 -1       272 6.26016E-05-1.68459E-04 5.59575E-38-1.38746E-04-4.30381E-20-1.06943E-19
 -1       273 9.80502E-05-2.14585E-04 1.10139E-38-1.40688E-04 9.97707E-20 3.30152E-20
 -1       274 1.36803E-04-2.61503E-04 1.91311E-38-1.32549E-04-1.48357E-19 6.14323E-20
 -1       275 1.74933E-04-3.04976E-04 4.63959E-40-1.14337E-04-1.08762E-19-3.55583E-20
 -1       276 2.08468E-04-3.41128E-04 7.36855E-38-8.82401E-05 1.20854E-19 2.28962E-20
 -1       277 2.34524E-04-3.67544E-04 1.03651E-38-5.83919E-05-4.51300E-20 4.56046E-20
 -1       278 2.51928E-04-3.83967E-04 1.29153E-38-3.00115E-05 1.34528E-19-3.50017E-20
 -1       279 2.62159E-04-3.91111E-04 9.11462E-38-7.41602E-06-1.81991E-19 1.04486E-20
 -1       280-2.31174E-06-4.46806E-06 1.51009E-38-9.86424E-06 1.08792E-19-2.51334E-20
 -1       281-4.52954E-06-9.81460E-06 8.83430E-39-1.99015E-05-3.44562E-20-7.77991E-21
 -1       282-5.60618E-06-1.73181E-05 3.88728E-38-3.15677E-05 9.41451E-20-4.16434E-20
 -1       283-4.84089E-06-2.76395E-05 8.16117E-39-4.48351E-05 1.24722E-20-1.46954E-21
 -1       284-1.39077E-06-4.16356E-05 2.71922E-38-5.95162E-05-2.22517E-21-4.40954E-20
 -1       285 5.77734E-06-6.02644E-05 1.35294E-38-7.51129E-05 6.10069E-20-1.96693E-21
 -1       286 1.77935E-05-8.44588E-05-1.00096E-39-9.06716E-05-7.07950E-21 1.14931E-20
 -1       287 3.56793E-05-1.14880E-04 3.99529E-39-1.04673E-04 1.37365E-20-2.23024E-20
 -1       288 5.99998E-05-1.51551E-04 6.96830E-39-1.15052E-04-2.56463E-20 5.91496E-20
 -1       289 9.04242E-05-1.93460E-04 1.45544E-38-1.19458E-04-5.20207E-20-5.10088E-21
 -1       290 1.25370E-04-2.38315E-04 2.59564E-38-1.15833E-04 7.23673E-20-1.48260E-20
 -1       291 1.61988E-04-2.82695E-04 1.35454E-38-1.03199E-04 7.30702E-20 5.52515E-20
 -1       292 1.96658E-04-3.22698E-04 2.77454E-38-8.23886E-05-1.20187E-20-3.56604E-20
 -1       293 2.25918E-04-3.54932E-04-1.23587E-38-5.63754E-05 3.21750E-20-8.12710E-21
 -1       294 2.47316E-04-3.77518E-04 2.82153E-38-2.99441E-05 5.57202E-20 5.05539E-20
 -1       295 2.60914E-04-3.89489E-04 2.70893E-38-7.84758E-06 6.20337E-20-5.02185E-21
 -1       296-3.54941E-07-5.29786E-06 8.64573E-39-8.06777E-06-1.11189E-20 7.73796E-20
 -1       297-7.58024E-07-1.11686E-05 1.74062E-38-1.60675E-05-1.53759E-20-9.67926E-20
 -1       298-1.90374E-07-1.88702E-05 1.73865E-38-2.52687E-05-4.50990E-21 8.76369E-20
 -1       299 1.84855E-06-2.88978E-05 3.80914E-40-3.56657E-05-1.33537E-20-2.52195E-20
 -1       300 5.96579E-06-4.19154E-05 1.32054E-38-4.71645E-05-3.12170E-20-4.67697E-20
 -1       301 1.29258E-05-5.86965E-05 1.53415E-38-5.94773E-05 2.40164E-20 3.77186E-20
 -1       302 2.36146E-05-8.00662E-05 2.67671E-38-7.20144E-05-1.70494E-21-1.95255E-20
 -1       303 3.89402E-05-1.06765E-04 1.36742E-39-8.37757E-05 2.65704E-20-1.11727E-20
 -1       304 5.96287E-05-1.39206E-04 3.93201E-38-9.32889E-05 6.12838E-20-2.79729E-20
 -1       305 8.59047E-05-1.77140E-04 3.72285E-39-9.86845E-05-2.80893E-20 3.40511E-20
 -1       306 1.17117E-04-2.19307E-04 1.58274E-38-9.80105E-05-1.39352E-19 7.74534E-22
 -1       307 1.51472E-04-2.63268E-04 1.90592E-38-8.98274E-05 2.93999E-20-1.33468E-23
 -1       308 1.86087E-04-3.05603E-04 7.18605E-39-7.39778E-05-1.75358E-21 1.70425E-20
 -1       309 2.17502E-04-3.42547E-04 1.58544E-38-5.22639E-05-6.92926E-20-2.73434E-20
 -1       310 2.42408E-04-3.70929E-04 4.69534E-38-2.86650E-05-8.91060E-20-6.53319E-20
 -1       311 2.59352E-04-3.88149E-04 1.24800E-38-7.97518E-06-2.47965E-20 8.10184E-21
 -1       312 1.14686E-06-5.97265E-06 6.76300E-39-6.44773E-06-1.52618E-20-3.93040E-20
 -1       313 2.09919E-06-1.22449E-05 1.77552E-38-1.26657E-05 3.94045E-20-4.54494E-20
 -1       314 3.91582E-06-2.01242E-05-5.61635E-39-1.97588E-05 4.08225E-20-1.43452E-20
 -1       315 6.97144E-06-2.99951E-05 3.10344E-38-2.77298E-05-3.14646E-20 5.34880E-20
 -1       316 1.17166E-05-4.23839E-05 1.07209E-38-3.65327E-05-2.43661E-20-3.85965E-20
 -1       317 1.87273E-05-5.79191E-05 2.38635E-38-4.60011E-05-8.49484E-20 1.15124E-19
 -1       318 2.86956E-05-7.73107E-05-1.03891E-38-5.57735E-05 4.83181E-21-5.07571E-20
 -1       319 4.23871E-05-1.01280E-04 3.23142E-38-6.52055E-05 9.80857E-20-1.95598E-20
 -1       320 6.05305E-05-1.30416E-04 1.75057E-38-7.32910E-05 8.30056E-20-5.43722E-21
 -1       321 8.36101E-05-1.64926E-04 6.36316E-38-7.86445E-05-1.52562E-19-3.33817E-20
 -1       322 1.11563E-04-2.04316E-04-8.13343E-39-7.96343E-05 7.76594E-21 2.87976E-20
 -1       323 1.43442E-04-2.47067E-04 2.40710E-38-7.47586E-05-8.09302E-20 4.57334E-20
 -1       324 1.77196E-04-2.90501E-04-5.70372E-39-6.32872E-05 2.47643E-20-3.67974E-20
 -1       325 2.09767E-04-3.30977E-04 1.00152E-39-4.60432E-05 1.13398E-19 2.45027E-20
 -1       326 2.37478E-04-3.64494E-04 1.41440E-37-2.60199E-05 9.00613E-20-4.69139E-20
 -1       327 2.57501E-04-3.87207E-04-1.28415E-38-7.67909E-06 6.69010E-20-1.05297E-22
 -1       328 2.30774E-06-6.53461E-06 1.54668E-38-4.92134E-06 5.37410E-21-1.94900E-20
 -1       329 4.24639E-06-1.31104E-05-2.73688E-41-9.52888E-06 4.76179E-20 1.91160E-20
 -1       330 6.99808E-06-2.11482E-05 1.94489E-38-1.47521E-05-6.99435E-20-3.59326E-20
 -1       331 1.08407E-05-3.09464E-05 1.18148E-38-2.05968E-05 4.94467E-20-1.29199E-21
 -1       332 1.61199E-05-4.29354E-05 4.38687E-39-2.70402E-05-2.14799E-22 3.34537E-20
 -1       333 2.32856E-05-5.76397E-05-2.53525E-39-3.39864E-05 1.51511E-20 2.46070E-21
 -1       334 3.28901E-05-7.56732E-05 3.24429E-38-4.12177E-05-4.99970E-20 4.59227E-20
 -1       335 4.55736E-05-9.77066E-05 1.45212E-39-4.83324E-05-4.68455E-21-6.06986E-20
 -1       336 6.20080E-05-1.24385E-04 1.99358E-38-5.46752E-05-1.09702E-21-4.58348E-20
 -1       337 8.27723E-05-1.56168E-04 5.09214E-39-5.92887E-05-4.84885E-21 9.12499E-20
 -1       338 1.08133E-04-1.93068E-04 8.19657E-39-6.09438E-05 4.04771E-20-5.87909E-20
 -1       339 1.37733E-04-2.34307E-04 4.06686E-39-5.83397E-05-6.16452E-21 2.03649E-20
 -1       340 1.70253E-04-2.77981E-04 4.79365E-38-5.05540E-05-1.86122E-19-6.18268E-20
 -1       341 2.03191E-04-3.20881E-04 6.33607E-38-3.77374E-05 5.54219E-20-4.18233E-20
 -1       342 2.32900E-04-3.58621E-04-1.32458E-38-2.18997E-05-1.26961E-19 5.72330E-20
 -1       343 2.55495E-04-3.86732E-04 1.00179E-37-6.83532E-06 1.10494E-19 1.28572E-21
 -1       344 3.17066E-06-7.00949E-06 7.20787E-39-3.45923E-06 9.48655E-21-6.37949E-20
 -1       345 5.85045E-06-1.38456E-05 2.53517E-38-6.54173E-06-3.92931E-20 3.26171E-20
 -1       346 9.26909E-06-2.20099E-05 2.05305E-38-1.00372E-05 2.65158E-20-4.11054E-20
 -1       347 1.36718E-05-3.17706E-05 4.15544E-39-1.39370E-05-3.34052E-20 4.10169E-20
 -1       348 1.93510E-05-4.35058E-05 1.19533E-38-1.82260E-05 7.48939E-21-8.95971E-20
 -1       349 2.66795E-05-5.76731E-05 1.80242E-39-2.28509E-05 3.41059E-20-1.21585E-20
 -1       350 3.61161E-05-7.48153E-05-1.44766E-39-2.76888E-05 2.71790E-21 2.89518E-20
 -1       351 4.82063E-05-9.55500E-05 2.01870E-39-3.25072E-05-2.05027E-20 1.11642E-20
 -1       352 6.35567E-05-1.20527E-04 2.30794E-42-3.69143E-05 1.19473E-20-3.63904E-20
 -1       353 8.27622E-05-1.50328E-04 8.02668E-39-4.03121E-05 6.47645E-20 1.08388E-20
 -1       354 1.06254E-04-1.85271E-04 1.34198E-38-4.18857E-05-8.23422E-20-2.34690E-20
 -1       355 1.34039E-04-2.25097E-04-8.84016E-40-4.06886E-05 8.66805E-20-1.16074E-20
 -1       356 1.65334E-04-2.68552E-04 2.15115E-38-3.59092E-05-2.74442E-20-2.72444E-20
 -1       357 1.98156E-04-3.12943E-04 5.30753E-38-2.73682E-05-5.41830E-20-5.32051E-20
 -1       358 2.29098E-04-3.53813E-04-1.47850E-38-1.62320E-05 2.42512E-19 7.53358E-20
 -1       359 2.53592E-04-3.86702E-04 1.30159E-37-5.32272E-06-2.27559E-19-3.73249E-20
 -1       360 3.97616E-06-7.64654E-06 4.69061E-38-1.97844E-06 2.34327E-20-1.25860E-19
 -1       361 7.00304E-06-1.45441E-05 7.49081E-39-3.65390E-06 7.38744E-21 3.67848E-20
 -1       362 1.07786E-05-2.27412E-05 2.10826E-39-5.49367E-06-4.35931E-20 2.51001E-20
 -1       363 1.55070E-05-3.24677E-05 2.51670E-40-7.51105E-06 9.50500E-21-3.97178E-20
 -1       364 2.14372E-05-4.40590E-05-2.32724E-39-9.70986E-06 2.94646E-20-1.10822E-20
 -1       365 2.88902E-05-5.79257E-05 4.97620E-38-1.20721E-05-5.92213E-20 1.86425E-19
 -1       366 3.82651E-05-7.45624E-05 1.62410E-38-1.45446E-05 9.17230E-21-1.32501E-19
 -1       367 5.00453E-05-9.45467E-05 1.64382E-38-1.70208E-05 3.57672E-21-5.26136E-21
 -1       368 6.47872E-05-1.18516E-04 9.18592E-39-1.93152E-05 4.67473E-21 5.61589E-20
 -1       369 8.30755E-05-1.47102E-04 6.09998E-39-2.11368E-05 7.83842E-20 5.36720E-21
 -1       370 1.05412E-04-1.80780E-04 3.50752E-38-2.20738E-05-6.76561E-20 6.43082E-20
 -1       371 1.31998E-04-2.19594E-04 4.50153E-38-2.16202E-05-1.96637E-19-6.65704E-20
 -1       372 1.62373E-04-2.62719E-04 1.50309E-38-1.92962E-05 9.81382E-20 4.32760E-20
 -1       373 1.94916E-04-3.07866E-04-8.14610E-39-1.49056E-05-4.30222E-20-3.11517E-20
 -1       374 2.26479E-04-3.50646E-04 1.51534E-37-8.97295E-06-2.63178E-19-1.33006E-20
 -1       375 2.52140E-04-3.86955E-04-1.77147E-38-3.05641E-06 6.16259E-20 1.69295E-20
 -1       376-1.35306E-07-2.92072E-08-1.80299E-35 1.12189E-06 2.50830E-18 8.66779E-19
 -1       377-1.78188E-03-4.39018E-03-3.33098E-37 3.27418E-03-1.11016E-19 1.40361E-20
 -1       378 5.05387E-04-2.29561E-04-2.86248E-36 8.35521E-06-3.97420E-20-6.40244E-21
 -1       379 1.97757E-05-4.58721E-05-4.04501E-35 1.25370E-06 2.76802E-18 6.14849E-19
 -1       381-3.17327E-06 8.61172E-07 6.33931E-35 9.63389E-07 7.56769E-18-6.00603E-19
 -1       382-1.45588E-05 5.76059E-06-2.08576E-36 1.01868E-06 1.98319E-18-6.52644E-19
 -1       383-3.46775E-05 1.44718E-05-1.55015E-36 1.53430E-06-1.30323E-18 3.33809E-19
 -1       384-6.00437E-05 2.52173E-05 2.53727E-35 2.12512E-06 2.99113E-18-5.94089E-19
 -1       385-8.80499E-05 3.70385E-05 1.96001E-36 2.65836E-06 1.65150E-18 1.82455E-20
 -1       386-1.16921E-04 4.92141E-05 9.49284E-37 3.11277E-06-2.53583E-18 6.28032E-19
 -1       387-1.45298E-04 6.11937E-05 1.27869E-35 3.47363E-06-1.90456E-18-9.30832E-20
 -1       388-1.72154E-04 7.25660E-05 5.68404E-36 3.73587E-06-9.22771E-19-2.29461E-20
 -1       389-1.96773E-04 8.30557E-05-1.25900E-36 3.90570E-06 6.22005E-19-4.88423E-20
 -1       390-2.18721E-04 9.25143E-05-1.14091E-36 4.00126E-06 4.52395E-19-1.03420E-19
 -1       391-2.37807E-04 1.00908E-04 3.04643E-36 4.05286E-06-1.34154E-18 5.35092E-20
 -1       392-2.54033E-04 1.08301E-04-1.30357E-36 4.10470E-06-9.99579E-20 3.48427E-19
 -1       393-2.67543E-04 1.14851E-04 3.54315E-36 4.22066E-06 1.20149E-18-3.53383E-20
 -1       394-2.78567E-04 1.20807E-04 7.11183E-36 4.49940E-06-9.52254E-19-1.37026E-19
 -1       395-2.87389E-04 1.26541E-04-1.30082E-36 5.11010E-06 1.35562E-18 6.76037E-20
 -1       396-2.94305E-04 1.32624E-04 7.31381E-37 6.37904E-06-9.84636E-19 1.35738E-19
 -1       397-2.99608E-04 1.40029E-04 5.16375E-36 9.02372E-06-1.39229E-18-2.45363E-20
 -1       398-3.03607E-04 1.50564E-04 1.07741E-35 1.48451E-05-3.27618E-18 2.19087E-19
 -1       399-3.07513E-04 1.68454E-04-9.14154E-37 2.98165E-05 5.27478E-19 9.00558E-21
 -1       400-3.29322E-04 1.99436E-04 1.52000E-36 7.72840E-05 1.65161E-18-2.23048E-19
 -1       401-5.66928E-04 2.50721E-04 2.79121E-36 3.33722E-04-9.22420E-19 5.04009E-20
 -1       402-1.28340E-03-1.70190E-04 6.55206E-37 1.42909E-03 6.05874E-19 2.68952E-20
 -1       403 3.47248E-04-3.46479E-03 1.94968E-36 1.17135E-03-1.73077E-19-2.00958E-21
 -1       404 3.16073E-04-2.01754E-03-2.54519E-37 4.34329E-04-7.58598E-20 3.42174E-21
 -1       405 2.29986E-04-1.26148E-03 3.21049E-36 2.12544E-04 9.04987E-19-1.41486E-21
 -1       406 1.55095E-04-8.91657E-04 2.30611E-37 1.19877E-04 3.58138E-19 1.65832E-21
 -1       407 1.07162E-04-6.69522E-04 2.93276E-36 7.49866E-05-1.42559E-18-1.55702E-21
 -1       408 7.93937E-05-5.23808E-04-2.18843E-36 5.03433E-05-1.22088E-18 4.89373E-22
 -1       409 6.65652E-05-4.22389E-04 1.28531E-35 3.58140E-05 9.85718E-19-3.00726E-22
 -1       410 6.49345E-05-3.49126E-04-3.02500E-37 2.67393E-05 6.15319E-19 1.09052E-21
 -1       411 7.21739E-05-2.94899E-04 2.42808E-36 2.08298E-05-1.23542E-19-8.00660E-22
 -1       412 8.69642E-05-2.54299E-04 2.19109E-36 1.68566E-05 2.51830E-20 1.52899E-21
 -1       413 1.08797E-04-2.24072E-04-2.29266E-36 1.41237E-05-8.32529E-20-3.01841E-21
 -1       414 1.37926E-04-2.02409E-04 7.34205E-36 1.22171E-05 8.05560E-19-1.19916E-22
 -1       415 1.75493E-04-1.88680E-04 9.24743E-37 1.08808E-05-8.72210E-20 1.14941E-21
 -1       416 2.23888E-04-1.83526E-04 2.02376E-36 9.94938E-06-1.99516E-19-3.25999E-21
 -1       417 2.87532E-04-1.89409E-04 7.63059E-36 9.30342E-06 2.63310E-18 1.19536E-21
 -1       418 3.74723E-04-2.12560E-04 1.27276E-36 8.84341E-06-1.29570E-19 9.46251E-21
 -1       419 5.04769E-04-2.29348E-04 3.25742E-36 2.90662E-06 1.55120E-18 9.99908E-21
 -1       420 5.02828E-04-2.28630E-04 3.60519E-36 5.64594E-06 2.02303E-18-3.42292E-20
 -1       421 4.99284E-04-2.27275E-04 8.31508E-36 8.61396E-06-1.42857E-18-6.45346E-21
 -1       422 4.93736E-04-2.25125E-04 1.70770E-36 1.17400E-05-1.16809E-18 1.70651E-20
 -1       423 4.85743E-04-2.22012E-04 1.05833E-36 1.49618E-05-1.79517E-19-1.09226E-19
 -1       424 4.74843E-04-2.17761E-04-1.91467E-36 1.81797E-05 1.05016E-18 2.42034E-19
 -1       425 4.60596E-04-2.12211E-04 1.30804E-35 2.12610E-05-2.84825E-18-3.18488E-19
 -1       426 4.42623E-04-2.05233E-04 6.83539E-36 2.40436E-05-1.71716E-18-3.56265E-19
 -1       427 4.20680E-04-1.96756E-04 2.93305E-37 2.63473E-05 1.47035E-18 6.81367E-20
 -1       428 3.94717E-04-1.86790E-04 5.87560E-37 2.79950E-05-1.31196E-18 6.18483E-20
 -1       429 3.64935E-04-1.75444E-04-1.34878E-36 2.88425E-05 5.39414E-19 4.15689E-19
 -1       430 3.31819E-04-1.62925E-04 7.95243E-36 2.88103E-05-2.72673E-18-8.02592E-19
 -1       431 2.96110E-04-1.49522E-04 5.33161E-36 2.79077E-05 2.39451E-18-9.22273E-20
 -1       432 2.58746E-04-1.35575E-04-2.20537E-36 2.62360E-05 8.93259E-19 1.92698E-19
 -1       433 2.20750E-04-1.21436E-04-1.62548E-36 2.39681E-05 8.42742E-19 4.56280E-20
 -1       434 1.83132E-04-1.07442E-04 6.42760E-36 2.13054E-05-3.15687E-18-2.43397E-20
 -1       435 1.46825E-04-9.38995E-05-6.56091E-36 1.84289E-05 3.86160E-18-6.67396E-20
 -1       436 1.12695E-04-8.11065E-05 3.27695E-35 1.54607E-05-5.71209E-19-7.96380E-19
 -1       437 8.16521E-05-6.93849E-05 1.18473E-36 1.24448E-05-3.80857E-18 3.36158E-20
 -1       438 5.48764E-05-5.91455E-05 1.70780E-36 9.34105E-06-2.08169E-18 1.50988E-19
 -1       439 3.43337E-05-5.09647E-05 5.54047E-37 6.06974E-06 2.38182E-18-3.78856E-19
 -1       440 2.28565E-05-4.58341E-05 6.28880E-35 2.83303E-06-5.68911E-18 7.11899E-19
 -1       441 2.15777E-05-4.55850E-05 1.25559E-35 2.49914E-06-1.96848E-18-1.15324E-18
 -1       442 2.02745E-05-4.34416E-05 1.15155E-35 4.91896E-06 2.17775E-19 6.63380E-19
 -1       443 1.75954E-05-3.86802E-05 7.01639E-36 7.23285E-06 3.62507E-19-4.65844E-21
 -1       444 1.43743E-05-3.24238E-05 2.79962E-37 8.77946E-06 6.45655E-19-6.51006E-19
 -1       445 1.10852E-05-2.57286E-05 2.47399E-35 9.48909E-06 1.25842E-18 5.79495E-19
 -1       446 8.00488E-06-1.93371E-05 1.19796E-35 9.48100E-06-3.35404E-18 6.97959E-19
 -1       447 5.28579E-06-1.36942E-05 1.32869E-36 8.92439E-06 2.66381E-18-6.18242E-19
 -1       448 3.00011E-06-9.01613E-06 6.11191E-36 7.98976E-06-2.16922E-18-5.03520E-20
 -1       449 1.16944E-06-5.35996E-06 9.37037E-36 6.83174E-06-2.04834E-18 8.63233E-20
 -1       450-2.15139E-07-2.67934E-06 1.46773E-35 5.58399E-06 6.00804E-18-1.84035E-19
 -1       451-1.17952E-06-8.66335E-07 1.97815E-35 4.35864E-06 1.51403E-18-2.42749E-19
 -1       452-1.75784E-06 2.18541E-07-4.34392E-36 3.24736E-06-1.58709E-18-2.75555E-20
 -1       453-1.98700E-06 7.25579E-07-1.02658E-35 2.32270E-06 2.51969E-20 1.16124E-19
 -1       454-1.90381E-06 8.02192E-07 1.38469E-35 1.63931E-06 3.18544E-18-4.00586E-19
 -1       455-1.54382E-06 5.85336E-07 2.70574E-37 1.23458E-06-1.49229E-18 6.89016E-19
 -1       456-9.46326E-07 1.95330E-07 2.24530E-35 1.12836E-06-5.04317E-19-5.70368E-19
 -1       457-4.35542E-06 9.19513E-07 1.01361E-35 1.63911E-06-1.00808E-18 3.75288E-19
 -1       458-5.20550E-06 8.61966E-07 1.14024E-35 2.95564E-06 1.70384E-18-1.69496E-19
 -1       459-5.70245E-06 4.43702E-07 2.71804E-35 4.56454E-06 7.00377E-19-1.24285E-19
 -1       460-5.80196E-06-3.62213E-07 1.75272E-35 6.44590E-06-1.35943E-18-2.53849E-19
 -1       461-5.46636E-06-1.58755E-06 1.34062E-35 8.56161E-06-1.38433E-18 2.30365E-19
 -1       462-4.65869E-06-3.26905E-06-4.45103E-37 1.08518E-05 6.18011E-19 1.87600E-19
 -1       463-3.34409E-06-5.44779E-06 1.92251E-35 1.32266E-05-8.80298E-19 1.96042E-19
 -1       464-1.49219E-06-8.16625E-06 3.77532E-35 1.55603E-05 6.42274E-19-2.13080E-19
 -1       465 9.18417E-07-1.14623E-05 6.07018E-36 1.76856E-05 2.07119E-18-2.05091E-19
 -1       466 3.89268E-06-1.53588E-05 1.22171E-35 1.93893E-05 4.13005E-19-1.77910E-19
 -1       467 7.40628E-06-1.98473E-05 3.60973E-35 2.04120E-05 1.41058E-18 1.66320E-19
 -1       468 1.13842E-05-2.48650E-05 3.25314E-36 2.04547E-05 2.40437E-18 7.72414E-19
 -1       469 1.56646E-05-3.02631E-05 6.36497E-35 1.92039E-05-2.24561E-19-3.41053E-19
 -1       470 1.99338E-05-3.57613E-05 6.66820E-36 1.63947E-05-1.33199E-19-1.30520E-19
 -1       471 2.35997E-05-4.08621E-05 7.27278E-36 1.19539E-05 1.55207E-18 1.82835E-19
 -1       472 2.55003E-05-4.45340E-05 5.08832E-36 6.31955E-06 8.37297E-19-1.29445E-19
 -1       473-1.57806E-05 5.94484E-06 8.51317E-36 2.99797E-06-2.49829E-18 1.77000E-19
 -1       474-1.65832E-05 6.10632E-06 2.65110E-35 6.54752E-06-1.47663E-18 2.76526E-19
 -1       475-1.69086E-05 5.82399E-06-6.12567E-36 1.02370E-05-4.83867E-19-1.45686E-19
 -1       476-1.66768E-05 5.03791E-06 1.40823E-35 1.40658E-05-3.43168E-18 5.94840E-20
 -1       477-1.58162E-05 3.68959E-06-2.66418E-36 1.80044E-05 4.03031E-18-1.99005E-19
 -1       478-1.42589E-05 1.72419E-06 1.98989E-35 2.19965E-05-3.58107E-18-9.43382E-20
 -1       479-1.19425E-05-9.08897E-07 1.45524E-35 2.59452E-05-2.01439E-19 2.40105E-19
 -1       480-8.81339E-06-4.25421E-06 1.88187E-35 2.97030E-05 2.67563E-18-1.05630E-19
 -1       481-4.83167E-06-8.34673E-06 7.12189E-36 3.30607E-05-1.85968E-18-1.49476E-19
 -1       482 2.03664E-08-1.32051E-05 1.77144E-35 3.57367E-05-1.77101E-19-1.53834E-19
 -1       483 5.72207E-06-1.88183E-05-1.29865E-35 3.73707E-05-3.81521E-21 1.39320E-19
 -1       484 1.21848E-05-2.51211E-05 2.54410E-35 3.75248E-05-1.06967E-18 7.75437E-19
 -1       485 1.91970E-05-3.19468E-05-3.97920E-36 3.57018E-05-3.49339E-18-5.80869E-19
 -1       486 2.63198E-05-3.89363E-05 1.53255E-35 3.13909E-05 3.11424E-18-7.46123E-20
 -1       487 3.26831E-05-4.53500E-05 5.98686E-36 2.41461E-05-2.58109E-19 2.00998E-19
 -1       488 3.65702E-05-4.96268E-05 1.99202E-35 1.35108E-05-2.71830E-18-2.85091E-19
 -1       489-3.49586E-05 1.44277E-05 1.03728E-35 4.51331E-06 3.88326E-20-1.14261E-19
 -1       490-3.48250E-05 1.41598E-05 5.09201E-36 9.81336E-06 5.32421E-19 3.04574E-19
 -1       491-3.41725E-05 1.34869E-05 1.48156E-35 1.52850E-05-1.12759E-18 5.99060E-20
 -1       492-3.28888E-05 1.23167E-05 1.07502E-35 2.08748E-05 3.32516E-18-1.60377E-19
 -1       493-3.08571E-05 1.05542E-05 1.81149E-35 2.65103E-05-2.27368E-18 2.13228E-19
 -1       494-2.79578E-05 8.10425E-06-6.21584E-37 3.21027E-05-8.39215E-20-2.04350E-19
 -1       495-2.40732E-05 4.87380E-06 4.70015E-37 3.75269E-05 2.83901E-19 1.38343E-19
 -1       496-1.90923E-05 7.76451E-07 2.00645E-35 4.26082E-05-1.92898E-18-2.05070E-20
 -1       497-1.29197E-05-4.26120E-06-4.26637E-37 4.71052E-05-4.95888E-20-1.36585E-19
 -1       498-5.48959E-06-1.02884E-05 1.84108E-36 5.06916E-05-1.03367E-18-1.81450E-19
 -1       499 3.20913E-06-1.73107E-05 1.10328E-35 5.29383E-05-7.56846E-19 1.40651E-19
 -1       500 1.30897E-05-2.52538E-05 2.73274E-36 5.32983E-05-6.45436E-19 7.38898E-19
 -1       501 2.38917E-05-3.39014E-05-4.10003E-36 5.10997E-05 2.45462E-18-3.67410E-19
 -1       502 3.50495E-05-4.27841E-05 1.86384E-36 4.55496E-05-1.51052E-18-2.41704E-19
 -1       503 4.54700E-05-5.09991E-05 1.27485E-35 3.57319E-05 1.21365E-18 7.73494E-20
 -1       504 5.31902E-05-5.69691E-05-3.24724E-36 2.04642E-05 2.97108E-19 2.79022E-19
 -1       505-5.90190E-05 2.48935E-05 7.63819E-36 5.89617E-06-9.63414E-19 3.87958E-19
 -1       506-5.75174E-05 2.40530E-05 5.62759E-36 1.25983E-05-9.82062E-20 3.05267E-19
 -1       507-5.54114E-05 2.27839E-05 1.38136E-35 1.95178E-05 2.98676E-18 1.77038E-19
 -1       508-5.25874E-05 2.09968E-05 3.78901E-36 2.65912E-05-3.47495E-19-1.26762E-19
 -1       509-4.89071E-05 1.85907E-05 4.95736E-36 3.37241E-05-1.05703E-18-4.60772E-20
 -1       510-4.42178E-05 1.54523E-05 3.29984E-36 4.08007E-05-1.11194E-18 1.14096E-19
 -1       511-3.83557E-05 1.14601E-05 3.28231E-36 4.76648E-05 4.78324E-19 3.21494E-19
 -1       512-3.11522E-05 6.49025E-06 1.23305E-36 5.41043E-05-1.70299E-18-1.76448E-19
 -1       513-2.24458E-05 4.25296E-07 1.47459E-35 5.98318E-05-1.30581E-18 1.85907E-20
 -1       514-1.21006E-05-6.82946E-06 1.37626E-35 6.44585E-05 1.54577E-18-1.92103E-19
 -1       515-4.07689E-08-1.53192E-05 2.36446E-36 6.74659E-05 1.40513E-18 1.65330E-19
 -1       516 1.36947E-05-2.49943E-05 1.40203E-35 6.81737E-05 9.34226E-19 7.29352E-19
 -1       517 2.88605E-05-3.56369E-05 1.87543E-35 6.57090E-05 1.18716E-18-5.66147E-19
 -1       518 4.48615E-05-4.67450E-05 5.05486E-36 5.89799E-05 1.34428E-18-9.52129E-20
 -1       519 6.05331E-05-5.73696E-05-3.00676E-36 4.66503E-05-7.78065E-20 1.92143E-19
 -1       520 7.38651E-05-6.58968E-05 2.84868E-35 2.69696E-05 2.95756E-19-3.59821E-19
 -1       521-8.56148E-05 3.64103E-05 2.03412E-36 7.05636E-06 6.74987E-19 1.65586E-19
 -1       522-8.26360E-05 3.49541E-05 1.50555E-35 1.48815E-05-2.12901E-18 2.36909E-19
 -1       523-7.89532E-05 3.30512E-05-6.87254E-37 2.29837E-05 1.52307E-18-4.95905E-19
 -1       524-7.44500E-05 3.06052E-05 2.44333E-35 3.12965E-05-4.89895E-20 1.51891E-19
 -1       525-6.89688E-05 2.75068E-05 2.88092E-39 3.97195E-05-1.42188E-18 4.25885E-19
 -1       526-6.23270E-05 2.36267E-05 1.98801E-35 4.81271E-05 3.62116E-19-7.91862E-20
 -1       527-5.43173E-05 1.88182E-05 1.12634E-35 5.63438E-05-1.96268E-18 1.19579E-19
 -1       528-4.47126E-05 1.29217E-05 9.35727E-36 6.41257E-05 2.14467E-18-2.31793E-19
 -1       529-3.32779E-05 5.77425E-06-1.86936E-36 7.11356E-05 4.90002E-19-1.20448E-19
 -1       530-1.97939E-05-2.77089E-06 9.02357E-36 7.69104E-05-5.14683E-19-1.79728E-19
 -1       531-4.09750E-06-1.28117E-05 1.25013E-35 8.08227E-05 2.56570E-20 1.73803E-19
 -1       532 1.38528E-05-2.43446E-05 9.79306E-37 8.20377E-05-2.23307E-19 6.81027E-19
 -1       533 3.38753E-05-3.71834E-05-2.71937E-36 7.94661E-05-4.59191E-20-2.89068E-19
 -1       534 5.54122E-05-5.08377E-05 1.61298E-35 7.17191E-05 1.13871E-18-1.21446E-19
 -1       535 7.73027E-05-6.43370E-05 6.08681E-36 5.70639E-05-9.12446E-19 2.24413E-19
 -1       536 9.74830E-05-7.59984E-05 6.48154E-36 3.32167E-05-9.40372E-19-5.32047E-20
 -1       537-1.13105E-04 4.82928E-05 1.89390E-36 7.97922E-06 1.58422E-18-8.41424E-21
 -1       538-1.08695E-04 4.62479E-05 1.67389E-36 1.66599E-05-8.48418E-19-2.62144E-19
 -1       539-1.03495E-04 4.37478E-05 1.13199E-35 2.56954E-05 7.07680E-19 4.40320E-20
 -1       540-9.73797E-05 4.06872E-05-5.23150E-36 3.50281E-05-3.87364E-19-1.30883E-19
 -1       541-9.01630E-05 3.69416E-05 5.74981E-36 4.45623E-05 2.01934E-18-1.37435E-19
 -1       542-8.16199E-05 3.23569E-05 5.13483E-36 5.41719E-05-4.24371E-19 3.01752E-19
 -1       543-7.14856E-05 2.67518E-05-7.75260E-37 6.36694E-05 1.20161E-18-1.83523E-19
 -1       544-5.94601E-05 1.99221E-05 7.78305E-36 7.27814E-05-1.81694E-18 1.39451E-19
 -1       545-4.52218E-05 1.16532E-05 1.03627E-35 8.11157E-05-1.32837E-18-1.41115E-19
 -1       546-2.84565E-05 1.74342E-06-8.81619E-37 8.81228E-05 1.14318E-18-1.38464E-19
 -1       547-8.90629E-06-9.95722E-06 1.25471E-36 9.30515E-05-1.70229E-18 1.28756E-19
 -1       548 1.35576E-05-2.34889E-05 6.26245E-36 9.49004E-05 6.17004E-19 6.36345E-19
 -1       549 3.88292E-05-3.86989E-05-1.97591E-37 9.23651E-05-1.14164E-18-5.19352E-19
 -1       550 6.64149E-05-5.51190E-05-2.37195E-36 8.37768E-05-2.24382E-19-3.16843E-19
 -1       551 9.51988E-05-7.17821E-05 1.44909E-35 6.70260E-05-1.28443E-18 2.46590E-19
 -1       552 1.23107E-04-8.69575E-05 1.11893E-35 3.92738E-05-8.10438E-19-2.43485E-19
 -1       553-1.40262E-04 6.00179E-05-3.36520E-38 8.65267E-06 1.60804E-19-5.26160E-20
 -1       554-1.34605E-04 5.74692E-05 6.33558E-36 1.79348E-05 5.02922E-19 3.18827E-19
 -1       555-1.28096E-04 5.44676E-05 2.01843E-36 2.76828E-05 2.16178E-18-1.56419E-19
 -1       556-1.20586E-04 5.08902E-05 3.65257E-36 3.78581E-05-1.23754E-18 1.95962E-19
 -1       557-1.11843E-04 4.65860E-05 6.79060E-36 4.83790E-05-5.46312E-19-2.28785E-19
 -1       558-1.01580E-04 4.13616E-05 2.44790E-36 5.91229E-05 7.27809E-19-1.14430E-19
 -1       559-8.94495E-05 3.49860E-05 3.16211E-36 6.98881E-05 3.90468E-19 3.84397E-19
 -1       560-7.50575E-05 2.71989E-05 5.20995E-36 8.03600E-05-1.95896E-18-1.18923E-19
 -1       561-5.79813E-05 1.77298E-05 3.52413E-37 9.00725E-05-1.44095E-18-1.05155E-19
 -1       562-3.78125E-05 6.33098E-06 8.13734E-36 9.83663E-05 6.80724E-19-1.18776E-19
 -1       563-1.42146E-05-7.17678E-06 5.09085E-36 1.04348E-04 1.13657E-18 1.35981E-19
 -1       564 1.30003E-05-2.28457E-05 3.05536E-36 1.06850E-04 5.24318E-19 5.92316E-19
 -1       565 4.37783E-05-4.05290E-05 4.04568E-36 1.04378E-04 2.10578E-19-3.16857E-19
 -1       566 7.76944E-05-5.97793E-05 1.32381E-35 9.50375E-05 8.17762E-19-1.83631E-21
 -1       567 1.13737E-04-7.96767E-05 4.03842E-36 7.63960E-05-5.64928E-19 9.35510E-20
 -1       568 1.49948E-04-9.85388E-05 3.06245E-38 4.50502E-05-6.74999E-20 2.55254E-19
 -1       569-1.66195E-04 7.12031E-05 2.46160E-36 9.08392E-06 4.93492E-19-3.55078E-20
 -1       570-1.59619E-04 6.82899E-05 5.71534E-36 1.87471E-05-3.72075E-20-8.26515E-20
 -1       571-1.52145E-04 6.49295E-05 7.29157E-36 2.90412E-05 1.10043E-19-2.68591E-19
 -1       572-1.43582E-04 6.09658E-05 4.68650E-36 3.99575E-05-8.61016E-19-1.36485E-19
 -1       573-1.33624E-04 5.62005E-05 4.25568E-36 5.14320E-05-9.86461E-20 2.45347E-19
 -1       574-1.21884E-04 5.03788E-05-2.47579E-36 6.33398E-05-5.18364E-19 1.26396E-19
 -1       575-1.07903E-04 4.32008E-05 4.99953E-36 7.54452E-05 7.82046E-19 2.01119E-20
 -1       576-9.11701E-05 3.43411E-05 3.92008E-36 8.73593E-05-7.33117E-19-4.95687E-20
 -1       577-7.11606E-05 2.34838E-05 1.09352E-36 9.84998E-05 1.84316E-19-1.10502E-19
 -1       578-4.74009E-05 1.03694E-05 4.76805E-36 1.08059E-04-2.65926E-19-1.19305E-19
 -1       579-1.95342E-05-5.15305E-06 6.33755E-36 1.14984E-04 2.12675E-18 1.24320E-19
 -1       580 1.26163E-05-2.30820E-05 1.38446E-36 1.17960E-04-9.65116E-19 5.24879E-19
 -1       581 4.89950E-05-4.32275E-05 1.15560E-35 1.15377E-04 5.61325E-19-3.36302E-19
 -1       582 8.92461E-05-6.51613E-05-1.56591E-36 1.05218E-04-6.70980E-19-8.67159E-20
 -1       583 1.32554E-04-8.80885E-05-8.67107E-37 8.48397E-05 1.03656E-18 1.66953E-19
 -1       584 1.77290E-04-1.10554E-04 8.14988E-36 5.03098E-05-9.86877E-19-1.08104E-19
 -1       585-1.90338E-04 8.16025E-05 2.01863E-36 9.30461E-06 1.39911E-18-1.78815E-19
 -1       586-1.83314E-04 7.85179E-05 8.11738E-36 1.91908E-05-7.50244E-19 1.95520E-19
 -1       587-1.75357E-04 7.49794E-05 8.12867E-36 2.99574E-05-3.18041E-18 6.67743E-20
 -1       588-1.66186E-04 7.07699E-05 3.83057E-37 4.16326E-05 5.21901E-19-9.84410E-20
 -1       589-1.55374E-04 6.56103E-05 7.58355E-36 5.41645E-05-1.08382E-18 9.75089E-20
 -1       590-1.42389E-04 5.91526E-05 2.25727E-36 6.73994E-05 3.09049E-19 3.52804E-20
 -1       591-1.26618E-04 5.10085E-05-1.61835E-36 8.10188E-05-2.65956E-19 2.15050E-19
 -1       592-1.07424E-04 4.07928E-05 4.59412E-36 9.44927E-05 8.20791E-20-4.19307E-20
 -1       593-8.42161E-05 2.81853E-05 6.21995E-36 1.07053E-04 1.02749E-18-9.83355E-20
 -1       594-5.65390E-05 1.29938E-05 4.92172E-36 1.17696E-04-7.18497E-19-6.28165E-20
 -1       595-2.41295E-05-4.80377E-06-3.61562E-36 1.25213E-04-9.98639E-19 1.12702E-19
 -1       596 1.30675E-05-2.50569E-05 1.65172E-35 1.28211E-04-1.56066E-18 4.20886E-19
 -1       597 5.49310E-05-4.74798E-05 3.62850E-36 1.25090E-04 8.40896E-19-2.54939E-19
 -1       598 1.01194E-04-7.16850E-05-2.97435E-38 1.13877E-04 1.04179E-18-7.62001E-20
 -1       599 1.51371E-04-9.71237E-05 3.93346E-36 9.18752E-05-1.68321E-18-1.83540E-19
 -1       600 2.04450E-04-1.22822E-04 8.03142E-36 5.47112E-05-1.27364E-18-1.05391E-19
 -1       601-2.12428E-04 9.11003E-05 7.57382E-36 9.37284E-06 7.00719E-19 3.38255E-20
 -1       602-2.05594E-04 8.80937E-05 3.89345E-36 1.94211E-05 1.68660E-18-3.57902E-19
 -1       603-1.97768E-04 8.45861E-05-3.25640E-37 3.07270E-05 2.13717E-19 1.13227E-21
 -1       604-1.88512E-04 8.02513E-05 1.19330E-36 4.33557E-05-2.11669E-19 2.54556E-20
 -1       605-1.77198E-04 7.46783E-05 2.70573E-36 5.72383E-05 1.27319E-18-6.72179E-20
 -1       606-1.63079E-04 6.73865E-05 3.02009E-36 7.21286E-05-1.56845E-20-3.12742E-19
 -1       607-1.45360E-04 5.78908E-05 2.39024E-36 8.75279E-05 4.04152E-19-5.58960E-20
 -1       608-1.23309E-04 4.57891E-05 1.88436E-36 1.02654E-04 6.40684E-19-1.78829E-19
 -1       609-9.63785E-05 3.08566E-05 6.44101E-36 1.16463E-04 3.24633E-19-2.13044E-19
 -1       610-6.42927E-05 1.31084E-05 6.80811E-37 1.27731E-04-3.14658E-19-1.32119E-19
 -1       611-2.70540E-05-7.20630E-06 4.54020E-36 1.35152E-04 6.98307E-19 5.11575E-20
 -1       612 1.51499E-05-2.96927E-05 9.59779E-36 1.37403E-04 2.03304E-18 4.81321E-19
 -1       613 6.21005E-05-5.39529E-05 2.64041E-36 1.33084E-04-2.17652E-19-2.16641E-19
 -1       614 1.13692E-04-7.97148E-05 5.93073E-36 1.20465E-04 1.40363E-18-4.70264E-20
 -1       615 1.69943E-04-1.06842E-04 2.46908E-36 9.69615E-05 1.44667E-19 4.08339E-19
 -1       616 2.30770E-04-1.35129E-04 2.05790E-36 5.78806E-05 1.40740E-19 7.43660E-20
 -1       617-2.32493E-04 9.97020E-05 1.64518E-37 9.37567E-06-8.71971E-20 1.55197E-19
 -1       618-2.26685E-04 9.70855E-05-1.99789E-37 1.96669E-05-1.02924E-19 1.61897E-19
 -1       619-2.19747E-04 9.38303E-05 6.05212E-36 3.17862E-05-8.57676E-19-6.04759E-20
 -1       620-2.10959E-04 8.94224E-05 4.08016E-36 4.58142E-05-1.25521E-18 8.78142E-20
 -1       621-1.99376E-04 8.32448E-05 2.02834E-36 6.15888E-05-6.45931E-19 5.43167E-21
 -1       622-1.83960E-04 7.46481E-05 3.63071E-36 7.86373E-05 1.16300E-19-4.23206E-22
 -1       623-1.63747E-04 6.30850E-05-7.60545E-37 9.61108E-05 2.33520E-19 1.03420E-19
 -1       624-1.38042E-04 4.82590E-05 4.26973E-36 1.12821E-04-1.86528E-18-5.25753E-20
 -1       625-1.06569E-04 3.02339E-05 3.58983E-36 1.27378E-04-9.14763E-19-4.39611E-20
 -1       626-6.94880E-05 9.43781E-06 1.08514E-36 1.38390E-04-4.38134E-19-5.40288E-20
 -1       627-2.72544E-05-1.34632E-05 2.11809E-36 1.44633E-04 1.17293E-18 8.56239E-20
 -1       628 1.96343E-05-3.77924E-05-2.92778E-36 1.45089E-04-5.12014E-19 3.99630E-19
 -1       629 7.09203E-05-6.31135E-05 2.64364E-36 1.38787E-04 2.03718E-18-3.35057E-19
 -1       630 1.26802E-04-8.94195E-05 9.88462E-36 1.24413E-04-2.12020E-18-1.41437E-19
 -1       631 1.88000E-04-1.17178E-04 8.72587E-36 9.96152E-05-1.25938E-18-1.03108E-19
 -1       632 2.55634E-04-1.47216E-04 2.05619E-37 5.94996E-05 4.18363E-19 1.11041E-19
 -1       633-2.50838E-04 1.07526E-04 5.13963E-36 9.43739E-06 6.92459E-19-1.85279E-19
 -1       634-2.47155E-04 1.05685E-04 3.21931E-36 2.02620E-05-1.43243E-18-4.01044E-20
 -1       635-2.42008E-04 1.02886E-04 4.33136E-36 3.37771E-05-1.33116E-19-1.99263E-19
 -1       636-2.34188E-04 9.82988E-05 8.28435E-36 5.00037E-05 2.36629E-18-1.76249E-19
 -1       637-2.22267E-04 9.10081E-05-7.32694E-37 6.85117E-05-6.56251E-19-4.17737E-20
 -1       638-2.04875E-04 8.01997E-05 1.18373E-36 8.83462E-05-2.92941E-19-8.74834E-20
 -1       639-1.81029E-04 6.54074E-05 5.91175E-36 1.08048E-04-4.18594E-19 5.41934E-20
 -1       640-1.50396E-04 4.67096E-05 1.30740E-36 1.25871E-04 5.29950E-19-9.45274E-20
 -1       641-1.13358E-04 2.47668E-05 6.05127E-36 1.40118E-04-7.82844E-19-9.76523E-20
 -1       642-7.08055E-05 6.47709E-07 8.26530E-37 1.49461E-04 9.62901E-19-1.00050E-19
 -1       643-2.37545E-05-2.45025E-05 5.18092E-36 1.53085E-04-2.54352E-19 2.79564E-20
 -1       644 2.70685E-05-4.98301E-05 1.27107E-36 1.50571E-04-3.26668E-20 3.19072E-19
 -1       645 8.15538E-05-7.50637E-05 1.35147E-36 1.41567E-04-3.60873E-19-1.25710E-19
 -1       646 1.40408E-04-1.00674E-04 2.96612E-36 1.25246E-04 1.33516E-18-1.32505E-19
 -1       647 2.05226E-04-1.27904E-04 6.75338E-36 9.95204E-05-3.21381E-19 9.41617E-20
 -1       648 2.78509E-04-1.58786E-04 2.82906E-36 5.93822E-05-8.54817E-19-1.13595E-19
 -1       649-2.68062E-04 1.14801E-04 2.25370E-36 9.74197E-06-1.94112E-18 1.65557E-19
 -1       650-2.67971E-04 1.14206E-04 8.25629E-36 2.17170E-05-1.55629E-19-2.15137E-19
 -1       651-2.65650E-04 1.11979E-04 3.19915E-36 3.76822E-05 2.42178E-19-8.04214E-20
 -1       652-2.59051E-04 1.06775E-04 2.60521E-37 5.73961E-05-6.65242E-19-4.23563E-20
 -1       653-2.46086E-04 9.73003E-05 2.59991E-36 7.97852E-05 6.65437E-19-8.16332E-20
 -1       654-2.25181E-04 8.27196E-05 3.34505E-36 1.02971E-04 2.12006E-19-5.17005E-20
 -1       655-1.95791E-04 6.30225E-05 1.58764E-36 1.24569E-04-3.46948E-19 4.82286E-21
 -1       656-1.58564E-04 3.91440E-05 3.59490E-36 1.42262E-04 5.40134E-19-1.39182E-19
 -1       657-1.15033E-04 1.27198E-05 9.34797E-37 1.54365E-04-3.95034E-19-9.18057E-20
 -1       658-6.69966E-05-1.44248E-05 7.99485E-36 1.60101E-04 1.71797E-19-9.33094E-20
 -1       659-1.59023E-05-4.08244E-05-1.45206E-36 1.59496E-04-1.32730E-18 5.74938E-20
 -1       660 3.75886E-05-6.57629E-05 1.48853E-35 1.52980E-04 3.27860E-18 3.32062E-19
 -1       661 9.38129E-05-8.94495E-05-2.98725E-36 1.40854E-04-5.17545E-20-1.86814E-19
 -1       662 1.54189E-04-1.13045E-04 2.25899E-36 1.22697E-04-3.77303E-19-3.11855E-20
 -1       663 2.21274E-04-1.38653E-04 2.33948E-36 9.66027E-05 6.08653E-19 2.93409E-19
 -1       664 2.98982E-04-1.69536E-04 2.41516E-36 5.75149E-05 5.83870E-19 2.74444E-20
 -1       665-2.85142E-04 1.21886E-04-7.90243E-37 1.05858E-05 1.70090E-18-2.06136E-19
 -1       666-2.90644E-04 1.23091E-04 5.80288E-36 2.48734E-05-1.15528E-18 1.15438E-19
 -1       667-2.92203E-04 1.21295E-04 4.13602E-36 4.50880E-05-5.34531E-19 9.70922E-20
 -1       668-2.86410E-04 1.14362E-04 3.50299E-36 7.02167E-05 2.56507E-19-1.80375E-19
 -1       669-2.70475E-04 1.00679E-04 3.64802E-36 9.77915E-05 3.77159E-19-5.33495E-21
 -1       670-2.43244E-04 7.98885E-05 1.37910E-36 1.24357E-04-1.03257E-18 3.11001E-21
 -1       671-2.05641E-04 5.32139E-05 1.13330E-38 1.46434E-04 7.91913E-19 5.07055E-20
 -1       672-1.60179E-04 2.31200E-05 1.74400E-36 1.61568E-04-4.81340E-20-3.97829E-20
 -1       673-1.09874E-04-7.54064E-06 1.55806E-36 1.68856E-04-1.02298E-19-5.52032E-20
 -1       674-5.72239E-05-3.64233E-05 2.51989E-36 1.68772E-04-1.32959E-18-3.99925E-20
 -1       675-3.62191E-06-6.22457E-05 5.54273E-37 1.62548E-04 1.83965E-18 7.86626E-20
 -1       676 5.08095E-05-8.49285E-05-3.65063E-37 1.51470E-04-1.58457E-18 2.24836E-19
 -1       677 1.07159E-04-1.05483E-04 1.67626E-36 1.36297E-04-3.74915E-19-1.22810E-19
 -1       678 1.67664E-04-1.25865E-04 1.69738E-36 1.16780E-04 4.09993E-19-1.89896E-20
 -1       679 2.35805E-04-1.48983E-04 1.17568E-36 9.10456E-05-5.48934E-19 9.78783E-20
 -1       680 3.16793E-04-1.79204E-04 4.65397E-36 5.40528E-05-2.37053E-19 1.15585E-19
 -1       681-3.03637E-04 1.29307E-04 6.99690E-36 1.24984E-05-1.57769E-18 3.70718E-20
 -1       682-3.17490E-04 1.32896E-04-6.79675E-37 3.12336E-05 1.42844E-18 2.99002E-20
 -1       683-3.23630E-04 1.30739E-04-4.33281E-38 5.86823E-05-1.31751E-19 6.99767E-21
 -1       684-3.16625E-04 1.19637E-04 2.36986E-36 9.18426E-05 7.40732E-19 7.17914E-20
 -1       685-2.93665E-04 9.82183E-05 6.28701E-37 1.25488E-04-1.30134E-19 3.21102E-20
 -1       686-2.55782E-04 6.78695E-05 2.33021E-36 1.53951E-04 1.87679E-19-5.51857E-21
 -1       687-2.07091E-04 3.23221E-05 3.82479E-36 1.73199E-04 3.68262E-20 9.93130E-20
 -1       688-1.52670E-04-3.88188E-06 5.78282E-36 1.81933E-04 3.91200E-19-8.26819E-21
 -1       689-9.66701E-05-3.70193E-05 1.22002E-36 1.81238E-04 8.95073E-19-1.34906E-20
 -1       690-4.14505E-05-6.50659E-05 2.57945E-36 1.73426E-04 1.58991E-18-8.43149E-21
 -1       691 1.24279E-05-8.77386E-05 2.17380E-36 1.60905E-04-1.53480E-18 2.18827E-20
 -1       692 6.58490E-05-1.06091E-04 2.25874E-36 1.45457E-04-8.21856E-19 1.50386E-19
 -1       693 1.20806E-04-1.22083E-04 9.25353E-37 1.27885E-04 8.28112E-19-5.59979E-20
 -1       694 1.80295E-04-1.38374E-04 2.05227E-36 1.07807E-04 1.94111E-19-8.81688E-20
 -1       695 2.48544E-04-1.58469E-04 1.23026E-36 8.32497E-05 4.27110E-19-3.83599E-20
 -1       696 3.31838E-04-1.87601E-04 8.61948E-37 4.92773E-05-5.51523E-19-1.47737E-19
 -1       697-3.26184E-04 1.37853E-04 7.77201E-36 1.65301E-05-2.41121E-20 2.16878E-19
 -1       698-3.52122E-04 1.44197E-04 4.08870E-37 4.36872E-05-1.26004E-18 9.49117E-20
 -1       699-3.61997E-04 1.39293E-04 3.32240E-36 8.31644E-05 4.52934E-19 8.35834E-20
 -1       700-3.48274E-04 1.19083E-04 3.74212E-36 1.27198E-04-1.80825E-18 2.04828E-19
 -1       701-3.11102E-04 8.43938E-05 1.46247E-36 1.65827E-04 1.54171E-19 4.79683E-20
 -1       702-2.57357E-04 4.08985E-05 1.05126E-35 1.91595E-04-2.00990E-18 6.08110E-20
 -1       703-1.96013E-04-3.82094E-06 2.37590E-36 2.02186E-04-1.33611E-18 1.29932E-19
 -1       704-1.34109E-04-4.36181E-05 7.66074E-37 1.99720E-04-5.86456E-19-8.69734E-22
 -1       705-7.53793E-05-7.53897E-05 8.37143E-37 1.88305E-04-8.42398E-19-1.15375E-20
 -1       706-2.07088E-05-9.88438E-05 4.68296E-36 1.71965E-04-2.78134E-19-2.36689E-20
 -1       707 3.08914E-05-1.15478E-04 8.55785E-37 1.53612E-04 7.76784E-19 5.38634E-21
 -1       708 8.14987E-05-1.27652E-04 1.10671E-36 1.34831E-04 5.57245E-19 1.24209E-19
 -1       709 1.33894E-04-1.38096E-04 2.19003E-36 1.15991E-04-1.07377E-18-1.64438E-19
 -1       710 1.91598E-04-1.49873E-04 6.10650E-36 9.63359E-05-3.17360E-19-1.52104E-19
 -1       711 2.59327E-04-1.66781E-04-1.16152E-36 7.37527E-05-4.36306E-19-8.05803E-20
 -1       712 3.44167E-04-1.94635E-04 5.04460E-37 4.35374E-05 8.55195E-19-9.25101E-20
 -1       713-3.57687E-04 1.48721E-04-3.99238E-37 2.49969E-05 6.04903E-19-3.79198E-20
 -1       714-4.00131E-04 1.57116E-04 3.64687E-36 6.81757E-05 2.29965E-19-2.57493E-20
 -1       715-4.07882E-04 1.43330E-04 3.00829E-36 1.26746E-04 4.90420E-20-1.09481E-19
 -1       716-3.75270E-04 1.04794E-04-8.09365E-37 1.82499E-04 3.20843E-19-1.01520E-19
 -1       717-3.13822E-04 4.97173E-05 2.49573E-36 2.19777E-04-9.46660E-19-3.25426E-20
 -1       718-2.40845E-04-8.37437E-06 3.17277E-36 2.33430E-04 5.56570E-19-6.71961E-20
 -1       719-1.69104E-04-5.85018E-05 3.49504E-36 2.27588E-04 1.08091E-18-1.97304E-21
 -1       720-1.04406E-04-9.57847E-05 1.94138E-36 2.09797E-04-6.04681E-19-4.92508E-20
 -1       721-4.76213E-05-1.20396E-04 2.25524E-36 1.86769E-04 6.28918E-19-3.10702E-20
 -1       722 2.94174E-06-1.35047E-04 1.46967E-36 1.62905E-04-4.63060E-19-1.95609E-20
 -1       723 4.99795E-05-1.43152E-04 3.60895E-36 1.40436E-04 3.83151E-19 1.09954E-20
 -1       724 9.64882E-05-1.47978E-04 5.94107E-36 1.20028E-04-6.76423E-19 1.26570E-19
 -1       725 1.45666E-04-1.52523E-04-1.21530E-36 1.01305E-04 2.31988E-19-5.02836E-20
 -1       726 2.01229E-04-1.59842E-04 1.46660E-36 8.30726E-05 4.75715E-19-4.30563E-20
 -1       727 2.68113E-04-1.73725E-04 6.45945E-36 6.31387E-05-3.22302E-19 5.99245E-20
 -1       728 3.53946E-04-2.00308E-04 3.99329E-36 3.71921E-05 4.05010E-19 4.25474E-20
 -1       729-4.08495E-04 1.63623E-04-1.01648E-36 4.36926E-05 8.78268E-19 7.92860E-20
 -1       730-4.68897E-04 1.69458E-04 2.74275E-36 1.17588E-04-3.90422E-19 9.35625E-20
 -1       731-4.54709E-04 1.32162E-04-1.23004E-36 2.02686E-04-2.17503E-19 7.43247E-20
 -1       732-3.81923E-04 6.05191E-05 1.26804E-36 2.62243E-04 2.82369E-19 4.23067E-20
 -1       733-2.88426E-04-1.97485E-05 2.02535E-36 2.81751E-04 1.96918E-19 2.80353E-20
 -1       734-2.00229E-04-8.65270E-05-5.07091E-37 2.69617E-04-2.17784E-19 2.26727E-20
 -1       735-1.26254E-04-1.31532E-04 2.34855E-36 2.40784E-04 8.70902E-19 5.29221E-20
 -1       736-6.62662E-05-1.56769E-04 4.15137E-38 2.06893E-04-6.82091E-19-1.63702E-21
 -1       737-1.66236E-05-1.67826E-04 2.36385E-36 1.74392E-04 4.30431E-20-7.69798E-21
 -1       738 2.68446E-05-1.70263E-04 1.04506E-36 1.45929E-04-1.75348E-19-2.20333E-20
 -1       739 6.78786E-05-1.68470E-04 3.57719E-37 1.21981E-04 4.06547E-19-6.12740E-21
 -1       740 1.09745E-04-1.65722E-04 6.87139E-36 1.01948E-04-1.05175E-19 6.96083E-20
 -1       741 1.55590E-04-1.64670E-04 5.17448E-37 8.47070E-05-2.83760E-19-1.10904E-19
 -1       742 2.09020E-04-1.67988E-04 1.58224E-36 6.87536E-05-1.26425E-18-1.19255E-19
 -1       743 2.74977E-04-1.79241E-04 1.19275E-36 5.19604E-05-1.84078E-19-5.77021E-20
 -1       744 3.61427E-04-2.04698E-04 4.74992E-36 3.05671E-05 1.83256E-19 2.12043E-20
 -1       745-5.02421E-04 1.84056E-04 7.46995E-37 8.91591E-05-3.74557E-19-8.67352E-21
 -1       746-5.59617E-04 1.69210E-04 4.59310E-37 2.19794E-04-2.28306E-19 9.08581E-20
 -1       747-4.73272E-04 7.72926E-05 3.19599E-36 3.26309E-04 5.41832E-19-2.43042E-20
 -1       748-3.39882E-04-4.26862E-05 3.06111E-36 3.58255E-04-9.57484E-19-7.58157E-21
 -1       749-2.23274E-04-1.38453E-04 7.38599E-37 3.33381E-04 5.01645E-19-5.51964E-21
 -1       750-1.35796E-04-1.93553E-04 3.75741E-36 2.84509E-04-4.64583E-19-9.71207E-21
 -1       751-7.25009E-05-2.16442E-04-8.45208E-37 2.32995E-04 5.70511E-20 1.46742E-20
 -1       752-2.50617E-05-2.19520E-04 2.64913E-36 1.87728E-04 8.74989E-20-1.06594E-20
 -1       753 1.35511E-05-2.12399E-04 2.77183E-36 1.50946E-04-1.35613E-18-6.12644E-21
 -1       754 4.84140E-05-2.01215E-04-4.63599E-37 1.22050E-04 7.48005E-19-9.80784E-21
 -1       755 8.31391E-05-1.89651E-04 1.72708E-36 9.95320E-05-8.89977E-19-1.19674E-20
 -1       756 1.20562E-04-1.80034E-04 1.42210E-36 8.17440E-05 3.75406E-19 8.61258E-20
 -1       757 1.63405E-04-1.74200E-04 8.03154E-37 6.71103E-05 4.78966E-19-2.77298E-20
 -1       758 2.14970E-04-1.74240E-04 5.49093E-36 5.40542E-05-1.87744E-19-5.78018E-20
 -1       759 2.80085E-04-1.83387E-04 4.53909E-36 4.06878E-05-1.45356E-18-2.81302E-20
 -1       760 3.66905E-04-2.07936E-04 1.09375E-36 2.39303E-05 1.21873E-19 1.73359E-20
 -1       761-6.89639E-04 2.00753E-04 3.18446E-36 2.15053E-04 4.96608E-19-4.17511E-21
 -1       762-6.16008E-04 1.07642E-04-1.26514E-36 4.24047E-04-1.41421E-19 4.20999E-20
 -1       763-3.92524E-04-8.87342E-05 1.47190E-36 4.84738E-04-2.68966E-19 2.35839E-20
 -1       764-2.25651E-04-2.41221E-04 3.00472E-36 4.30997E-04-9.22835E-19 1.10166E-20
 -1       765-1.21392E-04-3.05924E-04 3.89931E-36 3.43111E-04-4.22058E-20 7.21547E-21
 -1       766-5.82660E-05-3.15916E-04 1.12144E-36 2.62852E-04 6.34992E-19 5.46362E-21
 -1       767-1.74841E-05-3.00243E-04 2.21705E-36 1.99701E-04-1.10936E-18 4.79677E-21
 -1       768 1.27367E-05-2.75386E-04 2.01000E-36 1.52718E-04-4.85551E-19-4.72301E-21
 -1       769 3.91764E-05-2.49306E-04 1.43646E-36 1.18384E-04-4.58961E-20-1.00007E-20
 -1       770 6.57378E-05-2.25559E-04 1.19838E-35 9.32905E-05-4.61108E-19-5.32719E-21
 -1       771 9.48999E-05-2.05708E-04-1.08252E-36 7.47163E-05 1.24461E-18 1.10118E-20
 -1       772 1.28640E-04-1.90598E-04 8.99230E-37 6.05988E-05 7.89827E-19 3.46273E-20
 -1       773 1.69094E-04-1.81097E-04-5.12976E-37 4.93334E-05 1.86181E-19-3.66637E-20
 -1       774 2.19209E-04-1.78692E-04 3.96412E-36 3.95296E-05 1.44748E-19-2.29491E-20
 -1       775 2.83655E-04-1.86296E-04 8.69414E-37 2.96856E-05-6.90773E-19 1.07038E-21
 -1       776 3.70688E-04-2.10179E-04 1.41096E-36 1.74837E-05 4.82617E-19 1.73443E-20
 -1       777-8.77604E-04 1.35184E-04-7.98204E-37 5.65162E-04 5.42193E-19-4.00125E-21
 -1       778-4.17855E-04-1.98305E-04 2.91757E-36 6.95436E-04 1.35262E-19 4.23364E-20
 -1       779-1.68632E-04-4.76454E-04 6.12623E-37 5.75025E-04-7.65845E-19 3.07498E-21
 -1       780-5.70195E-05-5.26881E-04 4.63031E-37 4.08041E-04 1.21855E-18 6.87205E-21
 -1       781-8.94969E-06-4.87652E-04 1.66743E-36 2.84093E-04-4.99333E-19 1.76363E-21
 -1       782 1.37049E-05-4.26924E-04 2.17071E-36 1.99849E-04-6.25773E-19 2.84072E-21
 -1       783 2.81321E-05-3.67957E-04 1.87205E-37 1.43697E-04 7.02119E-19 1.46278E-21
 -1       784 4.17605E-05-3.17210E-04 9.28573E-37 1.05938E-04-4.42355E-19-4.71239E-21
 -1       785 5.78254E-05-2.75548E-04 3.27800E-37 8.01100E-05-1.37985E-19-1.12211E-21
 -1       786 7.78709E-05-2.42265E-04-1.25601E-36 6.20641E-05 1.16699E-18 1.37108E-21
 -1       787 1.02908E-04-2.16455E-04 7.92788E-36 4.91294E-05-1.98840E-18-8.36654E-21
 -1       788 1.34024E-04-1.97543E-04 1.20354E-36 3.95324E-05 3.72124E-19 2.18614E-20
 -1       789 1.72823E-04-1.85572E-04 3.01819E-36 3.20195E-05-1.09589E-18-2.21636E-20
 -1       790 2.21947E-04-1.81552E-04 7.49956E-37 2.55844E-05 4.61236E-19-8.23211E-21
 -1       791 2.85931E-04-1.88144E-04-9.74048E-37 1.92040E-05 6.46020E-20 2.20906E-22
 -1       792 3.73075E-04-2.11594E-04 6.01100E-36 1.13586E-05 3.81334E-19 1.60711E-20
 -1       793-2.96510E-04-6.75783E-04 1.09023E-36 8.19471E-04-9.76573E-19 7.98810E-21
 -1       794 5.13067E-05-1.15399E-03 8.81809E-37 7.07985E-04-1.83384E-19 3.40168E-21
 -1       795 1.04021E-04-1.00683E-03 1.49216E-37 4.10553E-04 4.19051E-19 6.98978E-21
 -1       796 9.50055E-05-7.90654E-04 2.34189E-36 2.49590E-04-6.12590E-19-1.77586E-21
 -1       797 7.61475E-05-6.23195E-04 1.26835E-36 1.58992E-04 7.98877E-19 3.50497E-21
 -1       798 6.25457E-05-5.00096E-04 9.23405E-37 1.06249E-04 5.20924E-19-1.48387E-21
 -1       799 5.69547E-05-4.09402E-04 2.03011E-36 7.40038E-05 4.21726E-20-1.47123E-21
 -1       800 5.92399E-05-3.41629E-04 1.81672E-36 5.34614E-05 2.33498E-19-1.99223E-21
 -1       801 6.86897E-05-2.90401E-04-2.55320E-38 3.98940E-05-2.54140E-19-2.63867E-21
 -1       802 8.47748E-05-2.51521E-04 2.70265E-36 3.06391E-05-1.33364E-18 7.00944E-22
 -1       803 1.07388E-04-2.22323E-04 1.97629E-36 2.41185E-05 4.78774E-19 3.15023E-22
 -1       804 1.36997E-04-2.01295E-04-2.64375E-37 1.93438E-05-1.51287E-19 1.21953E-20
 -1       805 1.74860E-04-1.87970E-04 2.58925E-36 1.56464E-05 6.41482E-19-1.49391E-20
 -1       806 2.23430E-04-1.83076E-04 7.26600E-37 1.25105E-05-1.06375E-18-5.91218E-21
 -1       807 2.87154E-04-1.89122E-04 3.09351E-36 9.42741E-06-3.71266E-19-1.44000E-20
 -1       808 3.74339E-04-2.12341E-04 2.47126E-38 5.66183E-06-5.84270E-19-4.25102E-21
 -3
    1PSTEP                         4           1           1          
  100CL  101 1.000000000         807                     0    1           1
 -4  CONTACT     6    1
 -5  COPEN       1    4    1    1
 -5  CSLIP1      1    4    2    2
 -5  CSLIP2      1    4    3    3
 -5  CPRESS      1    4    1    2
 -5  CSHEAR1     1    4    2    3
 -5  CSHEAR2     1    4    3    1
 -1         1-1.38592E-04 0.00000E+00 0.00000E+00 1.38592E+03 0.00000E+00 0.00000E+00
 -1         2 0.00000E+00 0.00000E+00 0.00000E+00 0.00000E+00 0.00000E+00 0.00000E+00
 -1         3-1.06202E-04 0.00000E+00 0.00000E+00 1.06202E+03 0.00000E+00 0.00000E+00
 -1         4 1.03072E-04 0.00000E+00 0.00000E+00-1.03072E+03 0.00000E+00 0.00000E+00
 -1         5 0.00000E+00 0.00000E+00 0.00000E+00 0.00000E+00 0.00000E+00 0.00000E+00
 -1         6 0.00000E+00 0.00000E+00 0.00000E+00 0.00000E+00 0.00000E+00 0.00000E+00
 -1         7 0.00000E+00 0.00000E+00 0.00000E+00 0.00000E+00 0.00000E+00 0.00000E+00
 -1         8 0.00000E+00 0.00000E+00 0.00000E+00 0.00000E+00 0.00000E+00 0.00000E+00
 -1         9 0.00000E+00 0.00000E+00 0.00000E+00 0.00000E+00 0.00000E+00 0.00000E+00
 -1        10 0.00000E+00 0.00000E+00 0.00000E+00 0.00000E+00 0.00000E+00 0.00000E+00
 -1        11 0.00000E+00 0.00000E+00 0.00000E+00 0.00000E+00 0.00000E+00 0.00000E+00
 -1        12 0.00000E+00 0.00000E+00 0.00000E+00 0.00000E+00 0.00000E+00 0.00000E+00
 -1        13 0.00000E+00 0.00000E+00 0.00000E+00 0.00000E+00 0.00000E+00 0.00000E+00
 -1        14 0.00000E+00 0.00000E+00 0.00000E+00 0.00000E+00 0.00000E+00 0.00000E+00
 -1        15 0.00000E+00 0.00000E+00 0.00000E+00 0.00000E+00 0.00000E+00 0.00000E+00
 -1        16 0.00000E+00 0.00000E+00 0.00000E+00 0.00000E+00 0.00000E+00 0.00000E+00
 -1        17 0.00000E+00 0.00000E+00 0.00000E+00 0.00000E+00 0.00000E+00 0.00000E+00
 -1        18 0.00000E+00 0.00000E+00 0.00000E+00 0.00000E+00 0.00000E+00 0.00000E+00
 -1        19 0.00000E+00 0.00000E+00 0.00000E+00 0.00000E+00 0.00000E+00 0.00000E+00
 -1        20 0.00000E+00 0.00000E+00 0.00000E+00 0.00000E+00 0.00000E+00 0.00000E+00
 -1        21 0.00000E+00 0.00000E+00 0.00000E+00 0.00000E+00 0.00000E+00 0.00000E+00
 -1        22 0.00000E+00 0.00000E+00 0.00000E+00 0.00000E+00 0.00000E+00 0.00000E+00
 -1        23 0.00000E+00 0.00000E+00 0.00000E+00 0.00000E+00 0.00000E+00 0.00000E+00
 -1        24 0.00000E+00 0.00000E+00 0.00000E+00 0.00000E+00 0.00000E+00 0.00000E+00
 -1        25 0.00000E+00 0.00000E+00 0.00000E+00 0.00000E+00 0.00000E+00 0.00000E+00
 -1        26 0.00000E+00 0.00000E+00 0.00000E+00 0.00000E+00 0.00000E+00 0.00000E+00
 -1        27 0.00000E+00 0.00000E+00 0.00000E+00 0.00000E+00 0.00000E+00 0.00000E+00
 -1        28 0.00000E+00 0.00000E+00 0.00000E+00 0.00000E+00 0.00000E+00 0.00000E+00
 -1        29 0.00000E+00 0.00000E+00 0.00000E+00 0.00000E+00 0.00000E+00 0.00000E+00
 -1        30 0.00000E+00 0.00000E+00 0.00000E+00 0.00000E+00 0.00000E+00 0.00000E+00
 -1        31 0.00000E+00 0.00000E+00 0.00000E+00 0.00000E+00 0.00000E+00 0.00000E+00
 -1        32 0.00000E+00 0.00000E+00 0.00000E+00 0.00000E+00 0.00000E+00 0.00000E+00
 -1        33 0.00000E+00 0.00000E+00 0.00000E+00 0.00000E+00 0.00000E+00 0.00000E+00
 -1        34 0.00000E+00 0.00000E+00 0.00000E+00 0.00000E+00 0.00000E+00 0.00000E+00
 -1        35 0.00000E+00 0.00000E+00 0.00000E+00 0.00000E+00 0.00000E+00 0.00000E+00
 -1        36 0.00000E+00 0.00000E+00 0.00000E+00 0.00000E+00 0.00000E+00 0.00000E+00
 -1        37 0.00000E+00 0.00000E+00 0.00000E+00 0.00000E+00 0.00000E+00 0.00000E+00
 -1        38 0.00000E+00 0.00000E+00 0.00000E+00 0.00000E+00 0.00000E+00 0.00000E+00
 -1        39 0.00000E+00 0.00000E+00 0.00000E+00 0.00000E+00 0.00000E+00 0.00000E+00
 -1        40 0.00000E+00 0.00000E+00 0.00000E+00 0.00000E+00 0.00000E+00 0.00000E+00
 -1        41 0.00000E+00 0.00000E+00 0.00000E+00 0.00000E+00 0.00000E+00 0.00000E+00
 -1        42 0.00000E+00 0.00000E+00 0.00000E+00 0.00000E+00 0.00000E+00 0.00000E+00
 -1        43 0.00000E+00 0.00000E+00 0.00000E+00 0.00000E+00 0.00000E+00 0.00000E+00
 -1        44 0.00000E+00 0.00000E+00 0.00000E+00 0.00000E+00 0.00000E+00 0.00000E+00
 -1        45 0.00000E+00 0.00000E+00 0.00000E+00 0.00000E+00 0.00000E+00 0.00000E+00
 -1        46 0.00000E+00 0.00000E+00 0.00000E+00 0.00000E+00 0.00000E+00 0.00000E+00
 -1        47 0.00000E+00 0.00000E+00 0.00000E+00 0.00000E+00 0.00000E+00 0.00000E+00
 -1        48 0.00000E+00 0.00000E+00 0.00000E+00 0.00000E+00 0.00000E+00 0.00000E+00
 -1        49 0.00000E+00 0.00000E+00 0.00000E+00 0.00000E+00 0.00000E+00 0.00000E+00
 -1        50 0.00000E+00 0.00000E+00 0.00000E+00 0.00000E+00 0.00000E+00 0.00000E+00
 -1        51 0.00000E+00 0.00000E+00 0.00000E+00 0.00000E+00 0.00000E+00 0.00000E+00
 -1        52 0.00000E+00 0.00000E+00 0.00000E+00 0.00000E+00 0.00000E+00 0.00000E+00
 -1        53 0.00000E+00 0.00000E+00 0.00000E+00 0.00000E+00 0.00000E+00 0.00000E+00
 -1        54 0.00000E+00 0.00000E+00 0.00000E+00 0.00000E+00 0.00000E+00 0.00000E+00
 -1        55 0.00000E+00 0.00000E+00 0.00000E+00 0.00000E+00 0.00000E+00 0.00000E+00
 -1        56 0.00000E+00 0.00000E+00 0.00000E+00 0.00000E+00 0.00000E+00 0.00000E+00
 -1        57 0.00000E+00 0.00000E+00 0.00000E+00 0.00000E+00 0.00000E+00 0.00000E+00
 -1        58 0.00000E+00 0.00000E+00 0.00000E+00 0.00000E+00 0.00000E+00 0.00000E+00
 -1        59 0.00000E+00 0.00000E+00 0.00000E+00 0.00000E+00 0.00000E+00 0.00000E+00
 -1        60 0.00000E+00 0.00000E+00 0.00000E+00 0.00000E+00 0.00000E+00 0.00000E+00
 -1        61 0.00000E+00 0.00000E+00 0.00000E+00 0.00000E+00 0.00000E+00 0.00000E+00
 -1        62 0.00000E+00 0.00000E+00 0.00000E+00 0.00000E+00 0.00000E+00 0.00000E+00
 -1        63 0.00000E+00 0.00000E+00 0.00000E+00 0.00000E+00 0.00000E+00 0.00000E+00
 -1        64 0.00000E+00 0.00000E+00 0.00000E+00 0.00000E+00 0.00000E+00 0.00000E+00
 -1        65 0.00000E+00 0.00000E+00 0.00000E+00 0.00000E+00 0.00000E+00 0.00000E+00
 -1        66 0.00000E+00 0.00000E+00 0.00000E+00 0.00000E+00 0.00000E+00 0.00000E+00
 -1        67 0.00000E+00 0.00000E+00 0.00000E+00 0.00000E+00 0.00000E+00 0.00000E+00
 -1        68 0.00000E+00 0.00000E+00 0.00000E+00 0.00000E+00 0.00000E+00 0.00000E+00
 -1        69 0.00000E+00 0.00000E+00 0.00000E+00 0.00000E+00 0.00000E+00 0.00000E+00
 -1        70 0.00000E+00 0.00000E+00 0.00000E+00 0.00000E+00 0.00000E+00 0.00000E+00
 -1        71 0.00000E+00 0.00000E+00 0.00000E+00 0.00000E+00 0.00000E+00 0.00000E+00
 -1        72 0.00000E+00 0.00000E+00 0.00000E+00 0.00000E+00 0.00000E+00 0.00000E+00
 -1        73 0.00000E+00 0.00000E+00 0.00000E+00 0.00000E+00 0.00000E+00 0.00000E+00
 -1        74 0.00000E+00 0.00000E+00 0.00000E+00 0.00000E+00 0.00000E+00 0.00000E+00
 -1        75 0.00000E+00 0.00000E+00 0.00000E+00 0.00000E+00 0.00000E+00 0.00000E+00
 -1        76 0.00000E+00 0.00000E+00 0.00000E+00 0.00000E+00 0.00000E+00 0.00000E+00
 -1        77 0.00000E+00 0.00000E+00 0.00000E+00 0.00000E+00 0.00000E+00 0.00000E+00
 -1        78 0.00000E+00 0.00000E+00 0.00000E+00 0.00000E+00 0.00000E+00 0.00000E+00
 -1        79 0.00000E+00 0.00000E+00 0.00000E+00 0.00000E+00 0.00000E+00 0.00000E+00
 -1        80 0.00000E+00 0.00000E+00 0.00000E+00 0.00000E+00 0.00000E+00 0.00000E+00
 -1        81 0.00000E+00 0.00000E+00 0.00000E+00 0.00000E+00 0.00000E+00 0.00000E+00
 -1        82 0.00000E+00 0.00000E+00 0.00000E+00 0.00000E+00 0.00000E+00 0.00000E+00
 -1        83 0.00000E+00 0.00000E+00 0.00000E+00 0.00000E+00 0.00000E+00 0.00000E+00
 -1        84 0.00000E+00 0.00000E+00 0.00000E+00 0.00000E+00 0.00000E+00 0.00000E+00
 -1        85 0.00000E+00 0.00000E+00 0.00000E+00 0.00000E+00 0.00000E+00 0.00000E+00
 -1        86 0.00000E+00 0.00000E+00 0.00000E+00 0.00000E+00 0.00000E+00 0.00000E+00
 -1        87 0.00000E+00 0.00000E+00 0.00000E+00 0.00000E+00 0.00000E+00 0.00000E+00
 -1        88 0.00000E+00 0.00000E+00 0.00000E+00 0.00000E+00 0.00000E+00 0.00000E+00
 -1        89 0.00000E+00 0.00000E+00 0.00000E+00 0.00000E+00 0.00000E+00 0.00000E+00
 -1        90 0.00000E+00 0.00000E+00 0.00000E+00 0.00000E+00 0.00000E+00 0.00000E+00
 -1        91 0.00000E+00 0.00000E+00 0.00000E+00 0.00000E+00 0.00000E+00 0.00000E+00
 -1        92 0.00000E+00 0.00000E+00 0.00000E+00 0.00000E+00 0.00000E+00 0.00000E+00
 -1        93 0.00000E+00 0.00000E+00 0.00000E+00 0.00000E+00 0.00000E+00 0.00000E+00
 -1        94 0.00000E+00 0.00000E+00 0.00000E+00 0.00000E+00 0.00000E+00 0.00000E+00
 -1        95 0.00000E+00 0.00000E+00 0.00000E+00 0.00000E+00 0.00000E+00 0.00000E+00
 -1        96 0.00000E+00 0.00000E+00 0.00000E+00 0.00000E+00 0.00000E+00 0.00000E+00
 -1        97 0.00000E+00 0.00000E+00 0.00000E+00 0.00000E+00 0.00000E+00 0.00000E+00
 -1        98 0.00000E+00 0.00000E+00 0.00000E+00 0.00000E+00 0.00000E+00 0.00000E+00
 -1        99 0.00000E+00 0.00000E+00 0.00000E+00 0.00000E+00 0.00000E+00 0.00000E+00
 -1       100 0.00000E+00 0.00000E+00 0.00000E+00 0.00000E+00 0.00000E+00 0.00000E+00
 -1       101 0.00000E+00 0.00000E+00 0.00000E+00 0.00000E+00 0.00000E+00 0.00000E+00
 -1       102 0.00000E+00 0.00000E+00 0.00000E+00 0.00000E+00 0.00000E+00 0.00000E+00
 -1       103 0.00000E+00 0.00000E+00 0.00000E+00 0.00000E+00 0.00000E+00 0.00000E+00
 -1       104 0.00000E+00 0.00000E+00 0.00000E+00 0.00000E+00 0.00000E+00 0.00000E+00
 -1       105 0.00000E+00 0.00000E+00 0.00000E+00 0.00000E+00 0.00000E+00 0.00000E+00
 -1       106 0.00000E+00 0.00000E+00 0.00000E+00 0.00000E+00 0.00000E+00 0.00000E+00
 -1       107 0.00000E+00 0.00000E+00 0.00000E+00 0.00000E+00 0.00000E+00 0.00000E+00
 -1       108 0.00000E+00 0.00000E+00 0.00000E+00 0.00000E+00 0.00000E+00 0.00000E+00
 -1       109 0.00000E+00 0.00000E+00 0.00000E+00 0.00000E+00 0.00000E+00 0.00000E+00
 -1       110 0.00000E+00 0.00000E+00 0.00000E+00 0.00000E+00 0.00000E+00 0.00000E+00
 -1       111 0.00000E+00 0.00000E+00 0.00000E+00 0.00000E+00 0.00000E+00 0.00000E+00
 -1       112 0.00000E+00 0.00000E+00 0.00000E+00 0.00000E+00 0.00000E+00 0.00000E+00
 -1       113 0.00000E+00 0.00000E+00 0.00000E+00 0.00000E+00 0.00000E+00 0.00000E+00
 -1       114 0.00000E+00 0.00000E+00 0.00000E+00 0.00000E+00 0.00000E+00 0.00000E+00
 -1       115 0.00000E+00 0.00000E+00 0.00000E+00 0.00000E+00 0.00000E+00 0.00000E+00
 -1       116 0.00000E+00 0.00000E+00 0.00000E+00 0.00000E+00 0.00000E+00 0.00000E+00
 -1       117 0.00000E+00 0.00000E+00 0.00000E+00 0.00000E+00 0.00000E+00 0.00000E+00
 -1       118 0.00000E+00 0.00000E+00 0.00000E+00 0.00000E+00 0.00000E+00 0.00000E+00
 -1       119 0.00000E+00 0.00000E+00 0.00000E+00 0.00000E+00 0.00000E+00 0.00000E+00
 -1       120 0.00000E+00 0.00000E+00 0.00000E+00 0.00000E+00 0.00000E+00 0.00000E+00
 -1       121 0.00000E+00 0.00000E+00 0.00000E+00 0.00000E+00 0.00000E+00 0.00000E+00
 -1       122 0.00000E+00 0.00000E+00 0.00000E+00 0.00000E+00 0.00000E+00 0.00000E+00
 -1       123 0.00000E+00 0.00000E+00 0.00000E+00 0.00000E+00 0.00000E+00 0.00000E+00
 -1       124 0.00000E+00 0.00000E+00 0.00000E+00 0.00000E+00 0.00000E+00 0.00000E+00
 -1       125 0.00000E+00 0.00000E+00 0.00000E+00 0.00000E+00 0.00000E+00 0.00000E+00
 -1       126 0.00000E+00 0.00000E+00 0.00000E+00 0.00000E+00 0.00000E+00 0.00000E+00
 -1       127 0.00000E+00 0.00000E+00 0.00000E+00 0.00000E+00 0.00000E+00 0.00000E+00
 -1       128 0.00000E+00 0.00000E+00 0.00000E+00 0.00000E+00 0.00000E+00 0.00000E+00
 -1       129 0.00000E+00 0.00000E+00 0.00000E+00 0.00000E+00 0.00000E+00 0.00000E+00
 -1       130 0.00000E+00 0.00000E+00 0.00000E+00 0.00000E+00 0.00000E+00 0.00000E+00
 -1       131 0.00000E+00 0.00000E+00 0.00000E+00 0.00000E+00 0.00000E+00 0.00000E+00
 -1       132 0.00000E+00 0.00000E+00 0.00000E+00 0.00000E+00 0.00000E+00 0.00000E+00
 -1       133 0.00000E+00 0.00000E+00 0.00000E+00 0.00000E+00 0.00000E+00 0.00000E+00
 -1       134 0.00000E+00 0.00000E+00 0.00000E+00 0.00000E+00 0.00000E+00 0.00000E+00
 -1       135 0.00000E+00 0.00000E+00 0.00000E+00 0.00000E+00 0.00000E+00 0.00000E+00
 -1       136 0.00000E+00 0.00000E+00 0.00000E+00 0.00000E+00 0.00000E+00 0.00000E+00
 -1       137 0.00000E+00 0.00000E+00 0.00000E+00 0.00000E+00 0.00000E+00 0.00000E+00
 -1       138 0.00000E+00 0.00000E+00 0.00000E+00 0.00000E+00 0.00000E+00 0.00000E+00
 -1       139 0.00000E+00 0.00000E+00 0.00000E+00 0.00000E+00 0.00000E+00 0.00000E+00
 -1       140 0.00000E+00 0.00000E+00 0.00000E+00 0.00000E+00 0.00000E+00 0.00000E+00
 -1       141 0.00000E+00 0.00000E+00 0.00000E+00 0.00000E+00 0.00000E+00 0.00000E+00
 -1       142 0.00000E+00 0.00000E+00 0.00000E+00 0.00000E+00 0.00000E+00 0.00000E+00
 -1       143 0.00000E+00 0.00000E+00 0.00000E+00 0.00000E+00 0.00000E+00 0.00000E+00
 -1       144 0.00000E+00 0.00000E+00 0.00000E+00 0.00000E+00 0.00000E+00 0.00000E+00
 -1       145 0.00000E+00 0.00000E+00 0.00000E+00 0.00000E+00 0.00000E+00 0.00000E+00
 -1       146 0.00000E+00 0.00000E+00 0.00000E+00 0.00000E+00 0.00000E+00 0.00000E+00
 -1       147 0.00000E+00 0.00000E+00 0.00000E+00 0.00000E+00 0.00000E+00 0.00000E+00
 -1       148 0.00000E+00 0.00000E+00 0.00000E+00 0.00000E+00 0.00000E+00 0.00000E+00
 -1       149 0.00000E+00 0.00000E+00 0.00000E+00 0.00000E+00 0.00000E+00 0.00000E+00
 -1       150 0.00000E+00 0.00000E+00 0.00000E+00 0.00000E+00 0.00000E+00 0.00000E+00
 -1       151 0.00000E+00 0.00000E+00 0.00000E+00 0.00000E+00 0.00000E+00 0.00000E+00
 -1       152 0.00000E+00 0.00000E+00 0.00000E+00 0.00000E+00 0.00000E+00 0.00000E+00
 -1       153 0.00000E+00 0.00000E+00 0.00000E+00 0.00000E+00 0.00000E+00 0.00000E+00
 -1       154 0.00000E+00 0.00000E+00 0.00000E+00 0.00000E+00 0.00000E+00 0.00000E+00
 -1       155 0.00000E+00 0.00000E+00 0.00000E+00 0.00000E+00 0.00000E+00 0.00000E+00
 -1       156 0.00000E+00 0.00000E+00 0.00000E+00 0.00000E+00 0.00000E+00 0.00000E+00
 -1       157 0.00000E+00 0.00000E+00 0.00000E+00 0.00000E+00 0.00000E+00 0.00000E+00
 -1       158 0.00000E+00 0.00000E+00 0.00000E+00 0.00000E+00 0.00000E+00 0.00000E+00
 -1       159 0.00000E+00 0.00000E+00 0.00000E+00 0.00000E+00 0.00000E+00 0.00000E+00
 -1       160 0.00000E+00 0.00000E+00 0.00000E+00 0.00000E+00 0.00000E+00 0.00000E+00
 -1       161 0.00000E+00 0.00000E+00 0.00000E+00 0.00000E+00 0.00000E+00 0.00000E+00
 -1       162 0.00000E+00 0.00000E+00 0.00000E+00 0.00000E+00 0.00000E+00 0.00000E+00
 -1       163 0.00000E+00 0.00000E+00 0.00000E+00 0.00000E+00 0.00000E+00 0.00000E+00
 -1       164 0.00000E+00 0.00000E+00 0.00000E+00 0.00000E+00 0.00000E+00 0.00000E+00
 -1       165 0.00000E+00 0.00000E+00 0.00000E+00 0.00000E+00 0.00000E+00 0.00000E+00
 -1       166 0.00000E+00 0.00000E+00 0.00000E+00 0.00000E+00 0.00000E+00 0.00000E+00
 -1       167 0.00000E+00 0.00000E+00 0.00000E+00 0.00000E+00 0.00000E+00 0.00000E+00
 -1       168 0.00000E+00 0.00000E+00 0.00000E+00 0.00000E+00 0.00000E+00 0.00000E+00
 -1       169 0.00000E+00 0.00000E+00 0.00000E+00 0.00000E+00 0.00000E+00 0.00000E+00
 -1       170 0.00000E+00 0.00000E+00 0.00000E+00 0.00000E+00 0.00000E+00 0.00000E+00
 -1       171 0.00000E+00 0.00000E+00 0.00000E+00 0.00000E+00 0.00000E+00 0.00000E+00
 -1       172 0.00000E+00 0.00000E+00 0.00000E+00 0.00000E+00 0.00000E+00 0.00000E+00
 -1       173 0.00000E+00 0.00000E+00 0.00000E+00 0.00000E+00 0.00000E+00 0.00000E+00
 -1       174 0.00000E+00 0.00000E+00 0.00000E+00 0.00000E+00 0.00000E+00 0.00000E+00
 -1       175 0.00000E+00 0.00000E+00 0.00000E+00 0.00000E+00 0.00000E+00 0.00000E+00
 -1       176 0.00000E+00 0.00000E+00 0.00000E+00 0.00000E+00 0.00000E+00 0.00000E+00
 -1       177 0.00000E+00 0.00000E+00 0.00000E+00 0.00000E+00 0.00000E+00 0.00000E+00
 -1       178 0.00000E+00 0.00000E+00 0.00000E+00 0.00000E+00 0.00000E+00 0.00000E+00
 -1       179 0.00000E+00 0.00000E+00 0.00000E+00 0.00000E+00 0.00000E+00 0.00000E+00
 -1       180 0.00000E+00 0.00000E+00 0.00000E+00 0.00000E+00 0.00000E+00 0.00000E+00
 -1       181 0.00000E+00 0.00000E+00 0.00000E+00 0.00000E+00 0.00000E+00 0.00000E+00
 -1       182 0.00000E+00 0.00000E+00 0.00000E+00 0.00000E+00 0.00000E+00 0.00000E+00
 -1       183 0.00000E+00 0.00000E+00 0.00000E+00 0.00000E+00 0.00000E+00 0.00000E+00
 -1       184 0.00000E+00 0.00000E+00 0.00000E+00 0.00000E+00 0.00000E+00 0.00000E+00
 -1       185 0.00000E+00 0.00000E+00 0.00000E+00 0.00000E+00 0.00000E+00 0.00000E+00
 -1       186 0.00000E+00 0.00000E+00 0.00000E+00 0.00000E+00 0.00000E+00 0.00000E+00
 -1       187 0.00000E+00 0.00000E+00 0.00000E+00 0.00000E+00 0.00000E+00 0.00000E+00
 -1       188 0.00000E+00 0.00000E+00 0.00000E+00 0.00000E+00 0.00000E+00 0.00000E+00
 -1       189 0.00000E+00 0.00000E+00 0.00000E+00 0.00000E+00 0.00000E+00 0.00000E+00
 -1       190 0.00000E+00 0.00000E+00 0.00000E+00 0.00000E+00 0.00000E+00 0.00000E+00
 -1       191 0.00000E+00 0.00000E+00 0.00000E+00 0.00000E+00 0.00000E+00 0.00000E+00
 -1       192 0.00000E+00 0.00000E+00 0.00000E+00 0.00000E+00 0.00000E+00 0.00000E+00
 -1       193 0.00000E+00 0.00000E+00 0.00000E+00 0.00000E+00 0.00000E+00 0.00000E+00
 -1       194 0.00000E+00 0.00000E+00 0.00000E+00 0.00000E+00 0.00000E+00 0.00000E+00
 -1       195 0.00000E+00 0.00000E+00 0.00000E+00 0.00000E+00 0.00000E+00 0.00000E+00
 -1       196 0.00000E+00 0.00000E+00 0.00000E+00 0.00000E+00 0.00000E+00 0.00000E+00
 -1       197 0.00000E+00 0.00000E+00 0.00000E+00 0.00000E+00 0.00000E+00 0.00000E+00
 -1       198 0.00000E+00 0.00000E+00 0.00000E+00 0.00000E+00 0.00000E+00 0.00000E+00
 -1       199 0.00000E+00 0.00000E+00 0.00000E+00 0.00000E+00 0.00000E+00 0.00000E+00
 -1       200 0.00000E+00 0.00000E+00 0.00000E+00 0.00000E+00 0.00000E+00 0.00000E+00
 -1       201 0.00000E+00 0.00000E+00 0.00000E+00 0.00000E+00 0.00000E+00 0.00000E+00
 -1       202 0.00000E+00 0.00000E+00 0.00000E+00 0.00000E+00 0.00000E+00 0.00000E+00
 -1       203 0.00000E+00 0.00000E+00 0.00000E+00 0.00000E+00 0.00000E+00 0.00000E+00
 -1       204 0.00000E+00 0.00000E+00 0.00000E+00 0.00000E+00 0.00000E+00 0.00000E+00
 -1       205 0.00000E+00 0.00000E+00 0.00000E+00 0.00000E+00 0.00000E+00 0.00000E+00
 -1       206 0.00000E+00 0.00000E+00 0.00000E+00 0.00000E+00 0.00000E+00 0.00000E+00
 -1       207 0.00000E+00 0.00000E+00 0.00000E+00 0.00000E+00 0.00000E+00 0.00000E+00
 -1       208 0.00000E+00 0.00000E+00 0.00000E+00 0.00000E+00 0.00000E+00 0.00000E+00
 -1       209 0.00000E+00 0.00000E+00 0.00000E+00 0.00000E+00 0.00000E+00 0.00000E+00
 -1       210 0.00000E+00 0.00000E+00 0.00000E+00 0.00000E+00 0.00000E+00 0.00000E+00
 -1       211 0.00000E+00 0.00000E+00 0.00000E+00 0.00000E+00 0.00000E+00 0.00000E+00
 -1       212 0.00000E+00 0.00000E+00 0.00000E+00 0.00000E+00 0.00000E+00 0.00000E+00
 -1       213 0.00000E+00 0.00000E+00 0.00000E+00 0.00000E+00 0.00000E+00 0.00000E+00
 -1       214 0.00000E+00 0.00000E+00 0.00000E+00 0.00000E+00 0.00000E+00 0.00000E+00
 -1       215 0.00000E+00 0.00000E+00 0.00000E+00 0.00000E+00 0.00000E+00 0.00000E+00
 -1       216 0.00000E+00 0.00000E+00 0.00000E+00 0.00000E+00 0.00000E+00 0.00000E+00
 -1       217 0.00000E+00 0.00000E+00 0.00000E+00 0.00000E+00 0.00000E+00 0.00000E+00
 -1       218 0.00000E+00 0.00000E+00 0.00000E+00 0.00000E+00 0.00000E+00 0.00000E+00
 -1       219 0.00000E+00 0.00000E+00 0.00000E+00 0.00000E+00 0.00000E+00 0.00000E+00
 -1       220 0.00000E+00 0.00000E+00 0.00000E+00 0.00000E+00 0.00000E+00 0.00000E+00
 -1       221 0.00000E+00 0.00000E+00 0.00000E+00 0.00000E+00 0.00000E+00 0.00000E+00
 -1       222 0.00000E+00 0.00000E+00 0.00000E+00 0.00000E+00 0.00000E+00 0.00000E+00
 -1       223 0.00000E+00 0.00000E+00 0.00000E+00 0.00000E+00 0.00000E+00 0.00000E+00
 -1       224 0.00000E+00 0.00000E+00 0.00000E+00 0.00000E+00 0.00000E+00 0.00000E+00
 -1       225 0.00000E+00 0.00000E+00 0.00000E+00 0.00000E+00 0.00000E+00 0.00000E+00
 -1       226 0.00000E+00 0.00000E+00 0.00000E+00 0.00000E+00 0.00000E+00 0.00000E+00
 -1       227 0.00000E+00 0.00000E+00 0.00000E+00 0.00000E+00 0.00000E+00 0.00000E+00
 -1       228 0.00000E+00 0.00000E+00 0.00000E+00 0.00000E+00 0.00000E+00 0.00000E+00
 -1       229 0.00000E+00 0.00000E+00 0.00000E+00 0.00000E+00 0.00000E+00 0.00000E+00
 -1       230 0.00000E+00 0.00000E+00 0.00000E+00 0.00000E+00 0.00000E+00 0.00000E+00
 -1       231 0.00000E+00 0.00000E+00 0.00000E+00 0.00000E+00 0.00000E+00 0.00000E+00
 -1       232 0.00000E+00 0.00000E+00 0.00000E+00 0.00000E+00 0.00000E+00 0.00000E+00
 -1       233 0.00000E+00 0.00000E+00 0.00000E+00 0.00000E+00 0.00000E+00 0.00000E+00
 -1       234 0.00000E+00 0.00000E+00 0.00000E+00 0.00000E+00 0.00000E+00 0.00000E+00
 -1       235 0.00000E+00 0.00000E+00 0.00000E+00 0.00000E+00 0.00000E+00 0.00000E+00
 -1       236 0.00000E+00 0.00000E+00 0.00000E+00 0.00000E+00 0.00000E+00 0.00000E+00
 -1       237 0.00000E+00 0.00000E+00 0.00000E+00 0.00000E+00 0.00000E+00 0.00000E+00
 -1       238 0.00000E+00 0.00000E+00 0.00000E+00 0.00000E+00 0.00000E+00 0.00000E+00
 -1       239 0.00000E+00 0.00000E+00 0.00000E+00 0.00000E+00 0.00000E+00 0.00000E+00
 -1       240 0.00000E+00 0.00000E+00 0.00000E+00 0.00000E+00 0.00000E+00 0.00000E+00
 -1       241 0.00000E+00 0.00000E+00 0.00000E+00 0.00000E+00 0.00000E+00 0.00000E+00
 -1       242 0.00000E+00 0.00000E+00 0.00000E+00 0.00000E+00 0.00000E+00 0.00000E+00
 -1       243 0.00000E+00 0.00000E+00 0.00000E+00 0.00000E+00 0.00000E+00 0.00000E+00
 -1       244 0.00000E+00 0.00000E+00 0.00000E+00 0.00000E+00 0.00000E+00 0.00000E+00
 -1       245 0.00000E+00 0.00000E+00 0.00000E+00 0.00000E+00 0.00000E+00 0.00000E+00
 -1       246 0.00000E+00 0.00000E+00 0.00000E+00 0.00000E+00 0.00000E+00 0.00000E+00
 -1       247 0.00000E+00 0.00000E+00 0.00000E+00 0.00000E+00 0.00000E+00 0.00000E+00
 -1       248 0.00000E+00 0.00000E+00 0.00000E+00 0.00000E+00 0.00000E+00 0.00000E+00
 -1       249 0.00000E+00 0.00000E+00 0.00000E+00 0.00000E+00 0.00000E+00 0.00000E+00
 -1       250 0.00000E+00 0.00000E+00 0.00000E+00 0.00000E+00 0.00000E+00 0.00000E+00
 -1       251 0.00000E+00 0.00000E+00 0.00000E+00 0.00000E+00 0.00000E+00 0.00000E+00
 -1       252 0.00000E+00 0.00000E+00 0.00000E+00 0.00000E+00 0.00000E+00 0.00000E+00
 -1       253 0.00000E+00 0.00000E+00 0.00000E+00 0.00000E+00 0.00000E+00 0.00000E+00
 -1       254 0.00000E+00 0.00000E+00 0.00000E+00 0.00000E+00 0.00000E+00 0.00000E+00
 -1       255 0.00000E+00 0.00000E+00 0.00000E+00 0.00000E+00 0.00000E+00 0.00000E+00
 -1       256 0.00000E+00 0.00000E+00 0.00000E+00 0.00000E+00 0.00000E+00 0.00000E+00
 -1       257 0.00000E+00 0.00000E+00 0.00000E+00 0.00000E+00 0.00000E+00 0.00000E+00
 -1       258 0.00000E+00 0.00000E+00 0.00000E+00 0.00000E+00 0.00000E+00 0.00000E+00
 -1       259 0.00000E+00 0.00000E+00 0.00000E+00 0.00000E+00 0.00000E+00 0.00000E+00
 -1       260 0.00000E+00 0.00000E+00 0.00000E+00 0.00000E+00 0.00000E+00 0.00000E+00
 -1       261 0.00000E+00 0.00000E+00 0.00000E+00 0.00000E+00 0.00000E+00 0.00000E+00
 -1       262 0.00000E+00 0.00000E+00 0.00000E+00 0.00000E+00 0.00000E+00 0.00000E+00
 -1       263 0.00000E+00 0.00000E+00 0.00000E+00 0.00000E+00 0.00000E+00 0.00000E+00
 -1       264 0.00000E+00 0.00000E+00 0.00000E+00 0.00000E+00 0.00000E+00 0.00000E+00
 -1       265 0.00000E+00 0.00000E+00 0.00000E+00 0.00000E+00 0.00000E+00 0.00000E+00
 -1       266 0.00000E+00 0.00000E+00 0.00000E+00 0.00000E+00 0.00000E+00 0.00000E+00
 -1       267 0.00000E+00 0.00000E+00 0.00000E+00 0.00000E+00 0.00000E+00 0.00000E+00
 -1       268 0.00000E+00 0.00000E+00 0.00000E+00 0.00000E+00 0.00000E+00 0.00000E+00
 -1       269 0.00000E+00 0.00000E+00 0.00000E+00 0.00000E+00 0.00000E+00 0.00000E+00
 -1       270 0.00000E+00 0.00000E+00 0.00000E+00 0.00000E+00 0.00000E+00 0.00000E+00
 -1       271 0.00000E+00 0.00000E+00 0.00000E+00 0.00000E+00 0.00000E+00 0.00000E+00
 -1       272 0.00000E+00 0.00000E+00 0.00000E+00 0.00000E+00 0.00000E+00 0.00000E+00
 -1       273 0.00000E+00 0.00000E+00 0.00000E+00 0.00000E+00 0.00000E+00 0.00000E+00
 -1       274 0.00000E+00 0.00000E+00 0.00000E+00 0.00000E+00 0.00000E+00 0.00000E+00
 -1       275 0.00000E+00 0.00000E+00 0.00000E+00 0.00000E+00 0.00000E+00 0.00000E+00
 -1       276 0.00000E+00 0.00000E+00 0.00000E+00 0.00000E+00 0.00000E+00 0.00000E+00
 -1       277 0.00000E+00 0.00000E+00 0.00000E+00 0.00000E+00 0.00000E+00 0.00000E+00
 -1       278 0.00000E+00 0.00000E+00 0.00000E+00 0.00000E+00 0.00000E+00 0.00000E+00
 -1       279 0.00000E+00 0.00000E+00 0.00000E+00 0.00000E+00 0.00000E+00 0.00000E+00
 -1       280 0.00000E+00 0.00000E+00 0.00000E+00 0.00000E+00 0.00000E+00 0.00000E+00
 -1       281 0.00000E+00 0.00000E+00 0.00000E+00 0.00000E+00 0.00000E+00 0.00000E+00
 -1       282 0.00000E+00 0.00000E+00 0.00000E+00 0.00000E+00 0.00000E+00 0.00000E+00
 -1       283 0.00000E+00 0.00000E+00 0.00000E+00 0.00000E+00 0.00000E+00 0.00000E+00
 -1       284 0.00000E+00 0.00000E+00 0.00000E+00 0.00000E+00 0.00000E+00 0.00000E+00
 -1       285 0.00000E+00 0.00000E+00 0.00000E+00 0.00000E+00 0.00000E+00 0.00000E+00
 -1       286 0.00000E+00 0.00000E+00 0.00000E+00 0.00000E+00 0.00000E+00 0.00000E+00
 -1       287 0.00000E+00 0.00000E+00 0.00000E+00 0.00000E+00 0.00000E+00 0.00000E+00
 -1       288 0.00000E+00 0.00000E+00 0.00000E+00 0.00000E+00 0.00000E+00 0.00000E+00
 -1       289 0.00000E+00 0.00000E+00 0.00000E+00 0.00000E+00 0.00000E+00 0.00000E+00
 -1       290 0.00000E+00 0.00000E+00 0.00000E+00 0.00000E+00 0.00000E+00 0.00000E+00
 -1       291 0.00000E+00 0.00000E+00 0.00000E+00 0.00000E+00 0.00000E+00 0.00000E+00
 -1       292 0.00000E+00 0.00000E+00 0.00000E+00 0.00000E+00 0.00000E+00 0.00000E+00
 -1       293 0.00000E+00 0.00000E+00 0.00000E+00 0.00000E+00 0.00000E+00 0.00000E+00
 -1       294 0.00000E+00 0.00000E+00 0.00000E+00 0.00000E+00 0.00000E+00 0.00000E+00
 -1       295 0.00000E+00 0.00000E+00 0.00000E+00 0.00000E+00 0.00000E+00 0.00000E+00
 -1       296 0.00000E+00 0.00000E+00 0.00000E+00 0.00000E+00 0.00000E+00 0.00000E+00
 -1       297 0.00000E+00 0.00000E+00 0.00000E+00 0.00000E+00 0.00000E+00 0.00000E+00
 -1       298 0.00000E+00 0.00000E+00 0.00000E+00 0.00000E+00 0.00000E+00 0.00000E+00
 -1       299 0.00000E+00 0.00000E+00 0.00000E+00 0.00000E+00 0.00000E+00 0.00000E+00
 -1       300 0.00000E+00 0.00000E+00 0.00000E+00 0.00000E+00 0.00000E+00 0.00000E+00
 -1       301 0.00000E+00 0.00000E+00 0.00000E+00 0.00000E+00 0.00000E+00 0.00000E+00
 -1       302 0.00000E+00 0.00000E+00 0.00000E+00 0.00000E+00 0.00000E+00 0.00000E+00
 -1       303 0.00000E+00 0.00000E+00 0.00000E+00 0.00000E+00 0.00000E+00 0.00000E+00
 -1       304 0.00000E+00 0.00000E+00 0.00000E+00 0.00000E+00 0.00000E+00 0.00000E+00
 -1       305 0.00000E+00 0.00000E+00 0.00000E+00 0.00000E+00 0.00000E+00 0.00000E+00
 -1       306 0.00000E+00 0.00000E+00 0.00000E+00 0.00000E+00 0.00000E+00 0.00000E+00
 -1       307 0.00000E+00 0.00000E+00 0.00000E+00 0.00000E+00 0.00000E+00 0.00000E+00
 -1       308 0.00000E+00 0.00000E+00 0.00000E+00 0.00000E+00 0.00000E+00 0.00000E+00
 -1       309 0.00000E+00 0.00000E+00 0.00000E+00 0.00000E+00 0.00000E+00 0.00000E+00
 -1       310 0.00000E+00 0.00000E+00 0.00000E+00 0.00000E+00 0.00000E+00 0.00000E+00
 -1       311 0.00000E+00 0.00000E+00 0.00000E+00 0.00000E+00 0.00000E+00 0.00000E+00
 -1       312 0.00000E+00 0.00000E+00 0.00000E+00 0.00000E+00 0.00000E+00 0.00000E+00
 -1       313 0.00000E+00 0.00000E+00 0.00000E+00 0.00000E+00 0.00000E+00 0.00000E+00
 -1       314 0.00000E+00 0.00000E+00 0.00000E+00 0.00000E+00 0.00000E+00 0.00000E+00
 -1       315 0.00000E+00 0.00000E+00 0.00000E+00 0.00000E+00 0.00000E+00 0.00000E+00
 -1       316 0.00000E+00 0.00000E+00 0.00000E+00 0.00000E+00 0.00000E+00 0.00000E+00
 -1       317 0.00000E+00 0.00000E+00 0.00000E+00 0.00000E+00 0.00000E+00 0.00000E+00
 -1       318 0.00000E+00 0.00000E+00 0.00000E+00 0.00000E+00 0.00000E+00 0.00000E+00
 -1       319 0.00000E+00 0.00000E+00 0.00000E+00 0.00000E+00 0.00000E+00 0.00000E+00
 -1       320 0.00000E+00 0.00000E+00 0.00000E+00 0.00000E+00 0.00000E+00 0.00000E+00
 -1       321 0.00000E+00 0.00000E+00 0.00000E+00 0.00000E+00 0.00000E+00 0.00000E+00
 -1       322 0.00000E+00 0.00000E+00 0.00000E+00 0.00000E+00 0.00000E+00 0.00000E+00
 -1       323 0.00000E+00 0.00000E+00 0.00000E+00 0.00000E+00 0.00000E+00 0.00000E+00
 -1       324 0.00000E+00 0.00000E+00 0.00000E+00 0.00000E+00 0.00000E+00 0.00000E+00
 -1       325 0.00000E+00 0.00000E+00 0.00000E+00 0.00000E+00 0.00000E+00 0.00000E+00
 -1       326 0.00000E+00 0.00000E+00 0.00000E+00 0.00000E+00 0.00000E+00 0.00000E+00
 -1       327 0.00000E+00 0.00000E+00 0.00000E+00 0.00000E+00 0.00000E+00 0.00000E+00
 -1       328 0.00000E+00 0.00000E+00 0.00000E+00 0.00000E+00 0.00000E+00 0.00000E+00
 -1       329 0.00000E+00 0.00000E+00 0.00000E+00 0.00000E+00 0.00000E+00 0.00000E+00
 -1       330 0.00000E+00 0.00000E+00 0.00000E+00 0.00000E+00 0.00000E+00 0.00000E+00
 -1       331 0.00000E+00 0.00000E+00 0.00000E+00 0.00000E+00 0.00000E+00 0.00000E+00
 -1       332 0.00000E+00 0.00000E+00 0.00000E+00 0.00000E+00 0.00000E+00 0.00000E+00
 -1       333 0.00000E+00 0.00000E+00 0.00000E+00 0.00000E+00 0.00000E+00 0.00000E+00
 -1       334 0.00000E+00 0.00000E+00 0.00000E+00 0.00000E+00 0.00000E+00 0.00000E+00
 -1       335 0.00000E+00 0.00000E+00 0.00000E+00 0.00000E+00 0.00000E+00 0.00000E+00
 -1       336 0.00000E+00 0.00000E+00 0.00000E+00 0.00000E+00 0.00000E+00 0.00000E+00
 -1       337 0.00000E+00 0.00000E+00 0.00000E+00 0.00000E+00 0.00000E+00 0.00000E+00
 -1       338 0.00000E+00 0.00000E+00 0.00000E+00 0.00000E+00 0.00000E+00 0.00000E+00
 -1       339 0.00000E+00 0.00000E+00 0.00000E+00 0.00000E+00 0.00000E+00 0.00000E+00
 -1       340 0.00000E+00 0.00000E+00 0.00000E+00 0.00000E+00 0.00000E+00 0.00000E+00
 -1       341 0.00000E+00 0.00000E+00 0.00000E+00 0.00000E+00 0.00000E+00 0.00000E+00
 -1       342 0.00000E+00 0.00000E+00 0.00000E+00 0.00000E+00 0.00000E+00 0.00000E+00
 -1       343 0.00000E+00 0.00000E+00 0.00000E+00 0.00000E+00 0.00000E+00 0.00000E+00
 -1       344 0.00000E+00 0.00000E+00 0.00000E+00 0.00000E+00 0.00000E+00 0.00000E+00
 -1       345 0.00000E+00 0.00000E+00 0.00000E+00 0.00000E+00 0.00000E+00 0.00000E+00
 -1       346 0.00000E+00 0.00000E+00 0.00000E+00 0.00000E+00 0.00000E+00 0.00000E+00
 -1       347 0.00000E+00 0.00000E+00 0.00000E+00 0.00000E+00 0.00000E+00 0.00000E+00
 -1       348 0.00000E+00 0.00000E+00 0.00000E+00 0.00000E+00 0.00000E+00 0.00000E+00
 -1       349 0.00000E+00 0.00000E+00 0.00000E+00 0.00000E+00 0.00000E+00 0.00000E+00
 -1       350 0.00000E+00 0.00000E+00 0.00000E+00 0.00000E+00 0.00000E+00 0.00000E+00
 -1       351 0.00000E+00 0.00000E+00 0.00000E+00 0.00000E+00 0.00000E+00 0.00000E+00
 -1       352 0.00000E+00 0.00000E+00 0.00000E+00 0.00000E+00 0.00000E+00 0.00000E+00
 -1       353 0.00000E+00 0.00000E+00 0.00000E+00 0.00000E+00 0.00000E+00 0.00000E+00
 -1       354 0.00000E+00 0.00000E+00 0.00000E+00 0.00000E+00 0.00000E+00 0.00000E+00
 -1       355 0.00000E+00 0.00000E+00 0.00000E+00 0.00000E+00 0.00000E+00 0.00000E+00
 -1       356 0.00000E+00 0.00000E+00 0.00000E+00 0.00000E+00 0.00000E+00 0.00000E+00
 -1       357 0.00000E+00 0.00000E+00 0.00000E+00 0.00000E+00 0.00000E+00 0.00000E+00
 -1       358 0.00000E+00 0.00000E+00 0.00000E+00 0.00000E+00 0.00000E+00 0.00000E+00
 -1       359 0.00000E+00 0.00000E+00 0.00000E+00 0.00000E+00 0.00000E+00 0.00000E+00
 -1       360 0.00000E+00 0.00000E+00 0.00000E+00 0.00000E+00 0.00000E+00 0.00000E+00
 -1       361 0.00000E+00 0.00000E+00 0.00000E+00 0.00000E+00 0.00000E+00 0.00000E+00
 -1       362 0.00000E+00 0.00000E+00 0.00000E+00 0.00000E+00 0.00000E+00 0.00000E+00
 -1       363 0.00000E+00 0.00000E+00 0.00000E+00 0.00000E+00 0.00000E+00 0.00000E+00
 -1       364 0.00000E+00 0.00000E+00 0.00000E+00 0.00000E+00 0.00000E+00 0.00000E+00
 -1       365 0.00000E+00 0.00000E+00 0.00000E+00 0.00000E+00 0.00000E+00 0.00000E+00
 -1       366 0.00000E+00 0.00000E+00 0.00000E+00 0.00000E+00 0.00000E+00 0.00000E+00
 -1       367 0.00000E+00 0.00000E+00 0.00000E+00 0.00000E+00 0.00000E+00 0.00000E+00
 -1       368 0.00000E+00 0.00000E+00 0.00000E+00 0.00000E+00 0.00000E+00 0.00000E+00
 -1       369 0.00000E+00 0.00000E+00 0.00000E+00 0.00000E+00 0.00000E+00 0.00000E+00
 -1       370 0.00000E+00 0.00000E+00 0.00000E+00 0.00000E+00 0.00000E+00 0.00000E+00
 -1       371 0.00000E+00 0.00000E+00 0.00000E+00 0.00000E+00 0.00000E+00 0.00000E+00
 -1       372 0.00000E+00 0.00000E+00 0.00000E+00 0.00000E+00 0.00000E+00 0.00000E+00
 -1       373 0.00000E+00 0.00000E+00 0.00000E+00 0.00000E+00 0.00000E+00 0.00000E+00
 -1       374 0.00000E+00 0.00000E+00 0.00000E+00 0.00000E+00 0.00000E+00 0.00000E+00
 -1       375 0.00000E+00 0.00000E+00 0.00000E+00 0.00000E+00 0.00000E+00 0.00000E+00
 -1       376 0.00000E+00 0.00000E+00 0.00000E+00 0.00000E+00 0.00000E+00 0.00000E+00
 -1       377 0.00000E+00 0.00000E+00 0.00000E+00 0.00000E+00 0.00000E+00 0.00000E+00
 -1       378 0.00000E+00 0.00000E+00 0.00000E+00 0.00000E+00 0.00000E+00 0.00000E+00
 -1       379 0.00000E+00 0.00000E+00 0.00000E+00 0.00000E+00 0.00000E+00 0.00000E+00
 -1       381 0.00000E+00 0.00000E+00 0.00000E+00 0.00000E+00 0.00000E+00 0.00000E+00
 -1       382 0.00000E+00 0.00000E+00 0.00000E+00 0.00000E+00 0.00000E+00 0.00000E+00
 -1       383 0.00000E+00 0.00000E+00 0.00000E+00 0.00000E+00 0.00000E+00 0.00000E+00
 -1       384 0.00000E+00 0.00000E+00 0.00000E+00 0.00000E+00 0.00000E+00 0.00000E+00
 -1       385 0.00000E+00 0.00000E+00 0.00000E+00 0.00000E+00 0.00000E+00 0.00000E+00
 -1       386 0.00000E+00 0.00000E+00 0.00000E+00 0.00000E+00 0.00000E+00 0.00000E+00
 -1       387 0.00000E+00 0.00000E+00 0.00000E+00 0.00000E+00 0.00000E+00 0.00000E+00
 -1       388 0.00000E+00 0.00000E+00 0.00000E+00 0.00000E+00 0.00000E+00 0.00000E+00
 -1       389 0.00000E+00 0.00000E+00 0.00000E+00 0.00000E+00 0.00000E+00 0.00000E+00
 -1       390 0.00000E+00 0.00000E+00 0.00000E+00 0.00000E+00 0.00000E+00 0.00000E+00
 -1       391 0.00000E+00 0.00000E+00 0.00000E+00 0.00000E+00 0.00000E+00 0.00000E+00
 -1       392 0.00000E+00 0.00000E+00 0.00000E+00 0.00000E+00 0.00000E+00 0.00000E+00
 -1       393 0.00000E+00 0.00000E+00 0.00000E+00 0.00000E+00 0.00000E+00 0.00000E+00
 -1       394 0.00000E+00 0.00000E+00 0.00000E+00 0.00000E+00 0.00000E+00 0.00000E+00
 -1       395 0.00000E+00 0.00000E+00 0.00000E+00 0.00000E+00 0.00000E+00 0.00000E+00
 -1       396 0.00000E+00 0.00000E+00 0.00000E+00 0.00000E+00 0.00000E+00 0.00000E+00
 -1       397 0.00000E+00 0.00000E+00 0.00000E+00 0.00000E+00 0.00000E+00 0.00000E+00
 -1       398 0.00000E+00 0.00000E+00 0.00000E+00 0.00000E+00 0.00000E+00 0.00000E+00
 -1       399 0.00000E+00 0.00000E+00 0.00000E+00 0.00000E+00 0.00000E+00 0.00000E+00
 -1       400 0.00000E+00 0.00000E+00 0.00000E+00 0.00000E+00 0.00000E+00 0.00000E+00
 -1       401 0.00000E+00 0.00000E+00 0.00000E+00 0.00000E+00 0.00000E+00 0.00000E+00
 -1       402 0.00000E+00 0.00000E+00 0.00000E+00 0.00000E+00 0.00000E+00 0.00000E+00
 -1       403 0.00000E+00 0.00000E+00 0.00000E+00 0.00000E+00 0.00000E+00 0.00000E+00
 -1       404 0.00000E+00 0.00000E+00 0.00000E+00 0.00000E+00 0.00000E+00 0.00000E+00
 -1       405 0.00000E+00 0.00000E+00 0.00000E+00 0.00000E+00 0.00000E+00 0.00000E+00
 -1       406 0.00000E+00 0.00000E+00 0.00000E+00 0.00000E+00 0.00000E+00 0.00000E+00
 -1       407 0.00000E+00 0.00000E+00 0.00000E+00 0.00000E+00 0.00000E+00 0.00000E+00
 -1       408 0.00000E+00 0.00000E+00 0.00000E+00 0.00000E+00 0.00000E+00 0.00000E+00
 -1       409 0.00000E+00 0.00000E+00 0.00000E+00 0.00000E+00 0.00000E+00 0.00000E+00
 -1       410 0.00000E+00 0.00000E+00 0.00000E+00 0.00000E+00 0.00000E+00 0.00000E+00
 -1       411 0.00000E+00 0.00000E+00 0.00000E+00 0.00000E+00 0.00000E+00 0.00000E+00
 -1       412 0.00000E+00 0.00000E+00 0.00000E+00 0.00000E+00 0.00000E+00 0.00000E+00
 -1       413 0.00000E+00 0.00000E+00 0.00000E+00 0.00000E+00 0.00000E+00 0.00000E+00
 -1       414 0.00000E+00 0.00000E+00 0.00000E+00 0.00000E+00 0.00000E+00 0.00000E+00
 -1       415 0.00000E+00 0.00000E+00 0.00000E+00 0.00000E+00 0.00000E+00 0.00000E+00
 -1       416 0.00000E+00 0.00000E+00 0.00000E+00 0.00000E+00 0.00000E+00 0.00000E+00
 -1       417 0.00000E+00 0.00000E+00 0.00000E+00 0.00000E+00 0.00000E+00 0.00000E+00
 -1       418 0.00000E+00 0.00000E+00 0.00000E+00 0.00000E+00 0.00000E+00 0.00000E+00
 -1       419 0.00000E+00 0.00000E+00 0.00000E+00 0.00000E+00 0.00000E+00 0.00000E+00
 -1       420 0.00000E+00 0.00000E+00 0.00000E+00 0.00000E+00 0.00000E+00 0.00000E+00
 -1       421 0.00000E+00 0.00000E+00 0.00000E+00 0.00000E+00 0.00000E+00 0.00000E+00
 -1       422 0.00000E+00 0.00000E+00 0.00000E+00 0.00000E+00 0.00000E+00 0.00000E+00
 -1       423 0.00000E+00 0.00000E+00 0.00000E+00 0.00000E+00 0.00000E+00 0.00000E+00
 -1       424 0.00000E+00 0.00000E+00 0.00000E+00 0.00000E+00 0.00000E+00 0.00000E+00
 -1       425 0.00000E+00 0.00000E+00 0.00000E+00 0.00000E+00 0.00000E+00 0.00000E+00
 -1       426 0.00000E+00 0.00000E+00 0.00000E+00 0.00000E+00 0.00000E+00 0.00000E+00
 -1       427 0.00000E+00 0.00000E+00 0.00000E+00 0.00000E+00 0.00000E+00 0.00000E+00
 -1       428 0.00000E+00 0.00000E+00 0.00000E+00 0.00000E+00 0.00000E+00 0.00000E+00
 -1       429 0.00000E+00 0.00000E+00 0.00000E+00 0.00000E+00 0.00000E+00 0.00000E+00
 -1       430 0.00000E+00 0.00000E+00 0.00000E+00 0.00000E+00 0.00000E+00 0.00000E+00
 -1       431 0.00000E+00 0.00000E+00 0.00000E+00 0.00000E+00 0.00000E+00 0.00000E+00
 -1       432 0.00000E+00 0.00000E+00 0.00000E+00 0.00000E+00 0.00000E+00 0.00000E+00
 -1       433 0.00000E+00 0.00000E+00 0.00000E+00 0.00000E+00 0.00000E+00 0.00000E+00
 -1       434 0.00000E+00 0.00000E+00 0.00000E+00 0.00000E+00 0.00000E+00 0.00000E+00
 -1       435 0.00000E+00 0.00000E+00 0.00000E+00 0.00000E+00 0.00000E+00 0.00000E+00
 -1       436 0.00000E+00 0.00000E+00 0.00000E+00 0.00000E+00 0.00000E+00 0.00000E+00
 -1       437 0.00000E+00 0.00000E+00 0.00000E+00 0.00000E+00 0.00000E+00 0.00000E+00
 -1       438 0.00000E+00 0.00000E+00 0.00000E+00 0.00000E+00 0.00000E+00 0.00000E+00
 -1       439 0.00000E+00 0.00000E+00 0.00000E+00 0.00000E+00 0.00000E+00 0.00000E+00
 -1       440 0.00000E+00 0.00000E+00 0.00000E+00 0.00000E+00 0.00000E+00 0.00000E+00
 -1       441 0.00000E+00 0.00000E+00 0.00000E+00 0.00000E+00 0.00000E+00 0.00000E+00
 -1       442 0.00000E+00 0.00000E+00 0.00000E+00 0.00000E+00 0.00000E+00 0.00000E+00
 -1       443 0.00000E+00 0.00000E+00 0.00000E+00 0.00000E+00 0.00000E+00 0.00000E+00
 -1       444 0.00000E+00 0.00000E+00 0.00000E+00 0.00000E+00 0.00000E+00 0.00000E+00
 -1       445 0.00000E+00 0.00000E+00 0.00000E+00 0.00000E+00 0.00000E+00 0.00000E+00
 -1       446 0.00000E+00 0.00000E+00 0.00000E+00 0.00000E+00 0.00000E+00 0.00000E+00
 -1       447 0.00000E+00 0.00000E+00 0.00000E+00 0.00000E+00 0.00000E+00 0.00000E+00
 -1       448 0.00000E+00 0.00000E+00 0.00000E+00 0.00000E+00 0.00000E+00 0.00000E+00
 -1       449 0.00000E+00 0.00000E+00 0.00000E+00 0.00000E+00 0.00000E+00 0.00000E+00
 -1       450 0.00000E+00 0.00000E+00 0.00000E+00 0.00000E+00 0.00000E+00 0.00000E+00
 -1       451 0.00000E+00 0.00000E+00 0.00000E+00 0.00000E+00 0.00000E+00 0.00000E+00
 -1       452 0.00000E+00 0.00000E+00 0.00000E+00 0.00000E+00 0.00000E+00 0.00000E+00
 -1       453 0.00000E+00 0.00000E+00 0.00000E+00 0.00000E+00 0.00000E+00 0.00000E+00
 -1       454 0.00000E+00 0.00000E+00 0.00000E+00 0.00000E+00 0.00000E+00 0.00000E+00
 -1       455 0.00000E+00 0.00000E+00 0.00000E+00 0.00000E+00 0.00000E+00 0.00000E+00
 -1       456 0.00000E+00 0.00000E+00 0.00000E+00 0.00000E+00 0.00000E+00 0.00000E+00
 -1       457 0.00000E+00 0.00000E+00 0.00000E+00 0.00000E+00 0.00000E+00 0.00000E+00
 -1       458 0.00000E+00 0.00000E+00 0.00000E+00 0.00000E+00 0.00000E+00 0.00000E+00
 -1       459 0.00000E+00 0.00000E+00 0.00000E+00 0.00000E+00 0.00000E+00 0.00000E+00
 -1       460 0.00000E+00 0.00000E+00 0.00000E+00 0.00000E+00 0.00000E+00 0.00000E+00
 -1       461 0.00000E+00 0.00000E+00 0.00000E+00 0.00000E+00 0.00000E+00 0.00000E+00
 -1       462 0.00000E+00 0.00000E+00 0.00000E+00 0.00000E+00 0.00000E+00 0.00000E+00
 -1       463 0.00000E+00 0.00000E+00 0.00000E+00 0.00000E+00 0.00000E+00 0.00000E+00
 -1       464 0.00000E+00 0.00000E+00 0.00000E+00 0.00000E+00 0.00000E+00 0.00000E+00
 -1       465 0.00000E+00 0.00000E+00 0.00000E+00 0.00000E+00 0.00000E+00 0.00000E+00
 -1       466 0.00000E+00 0.00000E+00 0.00000E+00 0.00000E+00 0.00000E+00 0.00000E+00
 -1       467 0.00000E+00 0.00000E+00 0.00000E+00 0.00000E+00 0.00000E+00 0.00000E+00
 -1       468 0.00000E+00 0.00000E+00 0.00000E+00 0.00000E+00 0.00000E+00 0.00000E+00
 -1       469 0.00000E+00 0.00000E+00 0.00000E+00 0.00000E+00 0.00000E+00 0.00000E+00
 -1       470 0.00000E+00 0.00000E+00 0.00000E+00 0.00000E+00 0.00000E+00 0.00000E+00
 -1       471 0.00000E+00 0.00000E+00 0.00000E+00 0.00000E+00 0.00000E+00 0.00000E+00
 -1       472 0.00000E+00 0.00000E+00 0.00000E+00 0.00000E+00 0.00000E+00 0.00000E+00
 -1       473 0.00000E+00 0.00000E+00 0.00000E+00 0.00000E+00 0.00000E+00 0.00000E+00
 -1       474 0.00000E+00 0.00000E+00 0.00000E+00 0.00000E+00 0.00000E+00 0.00000E+00
 -1       475 0.00000E+00 0.00000E+00 0.00000E+00 0.00000E+00 0.00000E+00 0.00000E+00
 -1       476 0.00000E+00 0.00000E+00 0.00000E+00 0.00000E+00 0.00000E+00 0.00000E+00
 -1       477 0.00000E+00 0.00000E+00 0.00000E+00 0.00000E+00 0.00000E+00 0.00000E+00
 -1       478 0.00000E+00 0.00000E+00 0.00000E+00 0.00000E+00 0.00000E+00 0.00000E+00
 -1       479 0.00000E+00 0.00000E+00 0.00000E+00 0.00000E+00 0.00000E+00 0.00000E+00
 -1       480 0.00000E+00 0.00000E+00 0.00000E+00 0.00000E+00 0.00000E+00 0.00000E+00
 -1       481 0.00000E+00 0.00000E+00 0.00000E+00 0.00000E+00 0.00000E+00 0.00000E+00
 -1       482 0.00000E+00 0.00000E+00 0.00000E+00 0.00000E+00 0.00000E+00 0.00000E+00
 -1       483 0.00000E+00 0.00000E+00 0.00000E+00 0.00000E+00 0.00000E+00 0.00000E+00
 -1       484 0.00000E+00 0.00000E+00 0.00000E+00 0.00000E+00 0.00000E+00 0.00000E+00
 -1       485 0.00000E+00 0.00000E+00 0.00000E+00 0.00000E+00 0.00000E+00 0.00000E+00
 -1       486 0.00000E+00 0.00000E+00 0.00000E+00 0.00000E+00 0.00000E+00 0.00000E+00
 -1       487 0.00000E+00 0.00000E+00 0.00000E+00 0.00000E+00 0.00000E+00 0.00000E+00
 -1       488 0.00000E+00 0.00000E+00 0.00000E+00 0.00000E+00 0.00000E+00 0.00000E+00
 -1       489 0.00000E+00 0.00000E+00 0.00000E+00 0.00000E+00 0.00000E+00 0.00000E+00
 -1       490 0.00000E+00 0.00000E+00 0.00000E+00 0.00000E+00 0.00000E+00 0.00000E+00
 -1       491 0.00000E+00 0.00000E+00 0.00000E+00 0.00000E+00 0.00000E+00 0.00000E+00
 -1       492 0.00000E+00 0.00000E+00 0.00000E+00 0.00000E+00 0.00000E+00 0.00000E+00
 -1       493 0.00000E+00 0.00000E+00 0.00000E+00 0.00000E+00 0.00000E+00 0.00000E+00
 -1       494 0.00000E+00 0.00000E+00 0.00000E+00 0.00000E+00 0.00000E+00 0.00000E+00
 -1       495 0.00000E+00 0.00000E+00 0.00000E+00 0.00000E+00 0.00000E+00 0.00000E+00
 -1       496 0.00000E+00 0.00000E+00 0.00000E+00 0.00000E+00 0.00000E+00 0.00000E+00
 -1       497 0.00000E+00 0.00000E+00 0.00000E+00 0.00000E+00 0.00000E+00 0.00000E+00
 -1       498 0.00000E+00 0.00000E+00 0.00000E+00 0.00000E+00 0.00000E+00 0.00000E+00
 -1       499 0.00000E+00 0.00000E+00 0.00000E+00 0.00000E+00 0.00000E+00 0.00000E+00
 -1       500 0.00000E+00 0.00000E+00 0.00000E+00 0.00000E+00 0.00000E+00 0.00000E+00
 -1       501 0.00000E+00 0.00000E+00 0.00000E+00 0.00000E+00 0.00000E+00 0.00000E+00
 -1       502 0.00000E+00 0.00000E+00 0.00000E+00 0.00000E+00 0.00000E+00 0.00000E+00
 -1       503 0.00000E+00 0.00000E+00 0.00000E+00 0.00000E+00 0.00000E+00 0.00000E+00
 -1       504 0.00000E+00 0.00000E+00 0.00000E+00 0.00000E+00 0.00000E+00 0.00000E+00
 -1       505 0.00000E+00 0.00000E+00 0.00000E+00 0.00000E+00 0.00000E+00 0.00000E+00
 -1       506 0.00000E+00 0.00000E+00 0.00000E+00 0.00000E+00 0.00000E+00 0.00000E+00
 -1       507 0.00000E+00 0.00000E+00 0.00000E+00 0.00000E+00 0.00000E+00 0.00000E+00
 -1       508 0.00000E+00 0.00000E+00 0.00000E+00 0.00000E+00 0.00000E+00 0.00000E+00
 -1       509 0.00000E+00 0.00000E+00 0.00000E+00 0.00000E+00 0.00000E+00 0.00000E+00
 -1       510 0.00000E+00 0.00000E+00 0.00000E+00 0.00000E+00 0.00000E+00 0.00000E+00
 -1       511 0.00000E+00 0.00000E+00 0.00000E+00 0.00000E+00 0.00000E+00 0.00000E+00
 -1       512 0.00000E+00 0.00000E+00 0.00000E+00 0.00000E+00 0.00000E+00 0.00000E+00
 -1       513 0.00000E+00 0.00000E+00 0.00000E+00 0.00000E+00 0.00000E+00 0.00000E+00
 -1       514 0.00000E+00 0.00000E+00 0.00000E+00 0.00000E+00 0.00000E+00 0.00000E+00
 -1       515 0.00000E+00 0.00000E+00 0.00000E+00 0.00000E+00 0.00000E+00 0.00000E+00
 -1       516 0.00000E+00 0.00000E+00 0.00000E+00 0.00000E+00 0.00000E+00 0.00000E+00
 -1       517 0.00000E+00 0.00000E+00 0.00000E+00 0.00000E+00 0.00000E+00 0.00000E+00
 -1       518 0.00000E+00 0.00000E+00 0.00000E+00 0.00000E+00 0.00000E+00 0.00000E+00
 -1       519 0.00000E+00 0.00000E+00 0.00000E+00 0.00000E+00 0.00000E+00 0.00000E+00
 -1       520 0.00000E+00 0.00000E+00 0.00000E+00 0.00000E+00 0.00000E+00 0.00000E+00
 -1       521 0.00000E+00 0.00000E+00 0.00000E+00 0.00000E+00 0.00000E+00 0.00000E+00
 -1       522 0.00000E+00 0.00000E+00 0.00000E+00 0.00000E+00 0.00000E+00 0.00000E+00
 -1       523 0.00000E+00 0.00000E+00 0.00000E+00 0.00000E+00 0.00000E+00 0.00000E+00
 -1       524 0.00000E+00 0.00000E+00 0.00000E+00 0.00000E+00 0.00000E+00 0.00000E+00
 -1       525 0.00000E+00 0.00000E+00 0.00000E+00 0.00000E+00 0.00000E+00 0.00000E+00
 -1       526 0.00000E+00 0.00000E+00 0.00000E+00 0.00000E+00 0.00000E+00 0.00000E+00
 -1       527 0.00000E+00 0.00000E+00 0.00000E+00 0.00000E+00 0.00000E+00 0.00000E+00
 -1       528 0.00000E+00 0.00000E+00 0.00000E+00 0.00000E+00 0.00000E+00 0.00000E+00
 -1       529 0.00000E+00 0.00000E+00 0.00000E+00 0.00000E+00 0.00000E+00 0.00000E+00
 -1       530 0.00000E+00 0.00000E+00 0.00000E+00 0.00000E+00 0.00000E+00 0.00000E+00
 -1       531 0.00000E+00 0.00000E+00 0.00000E+00 0.00000E+00 0.00000E+00 0.00000E+00
 -1       532 0.00000E+00 0.00000E+00 0.00000E+00 0.00000E+00 0.00000E+00 0.00000E+00
 -1       533 0.00000E+00 0.00000E+00 0.00000E+00 0.00000E+00 0.00000E+00 0.00000E+00
 -1       534 0.00000E+00 0.00000E+00 0.00000E+00 0.00000E+00 0.00000E+00 0.00000E+00
 -1       535 0.00000E+00 0.00000E+00 0.00000E+00 0.00000E+00 0.00000E+00 0.00000E+00
 -1       536 0.00000E+00 0.00000E+00 0.00000E+00 0.00000E+00 0.00000E+00 0.00000E+00
 -1       537 0.00000E+00 0.00000E+00 0.00000E+00 0.00000E+00 0.00000E+00 0.00000E+00
 -1       538 0.00000E+00 0.00000E+00 0.00000E+00 0.00000E+00 0.00000E+00 0.00000E+00
 -1       539 0.00000E+00 0.00000E+00 0.00000E+00 0.00000E+00 0.00000E+00 0.00000E+00
 -1       540 0.00000E+00 0.00000E+00 0.00000E+00 0.00000E+00 0.00000E+00 0.00000E+00
 -1       541 0.00000E+00 0.00000E+00 0.00000E+00 0.00000E+00 0.00000E+00 0.00000E+00
 -1       542 0.00000E+00 0.00000E+00 0.00000E+00 0.00000E+00 0.00000E+00 0.00000E+00
 -1       543 0.00000E+00 0.00000E+00 0.00000E+00 0.00000E+00 0.00000E+00 0.00000E+00
 -1       544 0.00000E+00 0.00000E+00 0.00000E+00 0.00000E+00 0.00000E+00 0.00000E+00
 -1       545 0.00000E+00 0.00000E+00 0.00000E+00 0.00000E+00 0.00000E+00 0.00000E+00
 -1       546 0.00000E+00 0.00000E+00 0.00000E+00 0.00000E+00 0.00000E+00 0.00000E+00
 -1       547 0.00000E+00 0.00000E+00 0.00000E+00 0.00000E+00 0.00000E+00 0.00000E+00
 -1       548 0.00000E+00 0.00000E+00 0.00000E+00 0.00000E+00 0.00000E+00 0.00000E+00
 -1       549 0.00000E+00 0.00000E+00 0.00000E+00 0.00000E+00 0.00000E+00 0.00000E+00
 -1       550 0.00000E+00 0.00000E+00 0.00000E+00 0.00000E+00 0.00000E+00 0.00000E+00
 -1       551 0.00000E+00 0.00000E+00 0.00000E+00 0.00000E+00 0.00000E+00 0.00000E+00
 -1       552 0.00000E+00 0.00000E+00 0.00000E+00 0.00000E+00 0.00000E+00 0.00000E+00
 -1       553 0.00000E+00 0.00000E+00 0.00000E+00 0.00000E+00 0.00000E+00 0.00000E+00
 -1       554 0.00000E+00 0.00000E+00 0.00000E+00 0.00000E+00 0.00000E+00 0.00000E+00
 -1       555 0.00000E+00 0.00000E+00 0.00000E+00 0.00000E+00 0.00000E+00 0.00000E+00
 -1       556 0.00000E+00 0.00000E+00 0.00000E+00 0.00000E+00 0.00000E+00 0.00000E+00
 -1       557 0.00000E+00 0.00000E+00 0.00000E+00 0.00000E+00 0.00000E+00 0.00000E+00
 -1       558 0.00000E+00 0.00000E+00 0.00000E+00 0.00000E+00 0.00000E+00 0.00000E+00
 -1       559 0.00000E+00 0.00000E+00 0.00000E+00 0.00000E+00 0.00000E+00 0.00000E+00
 -1       560 0.00000E+00 0.00000E+00 0.00000E+00 0.00000E+00 0.00000E+00 0.00000E+00
 -1       561 0.00000E+00 0.00000E+00 0.00000E+00 0.00000E+00 0.00000E+00 0.00000E+00
 -1       562 0.00000E+00 0.00000E+00 0.00000E+00 0.00000E+00 0.00000E+00 0.00000E+00
 -1       563 0.00000E+00 0.00000E+00 0.00000E+00 0.00000E+00 0.00000E+00 0.00000E+00
 -1       564 0.00000E+00 0.00000E+00 0.00000E+00 0.00000E+00 0.00000E+00 0.00000E+00
 -1       565 0.00000E+00 0.00000E+00 0.00000E+00 0.00000E+00 0.00000E+00 0.00000E+00
 -1       566 0.00000E+00 0.00000E+00 0.00000E+00 0.00000E+00 0.00000E+00 0.00000E+00
 -1       567 0.00000E+00 0.00000E+00 0.00000E+00 0.00000E+00 0.00000E+00 0.00000E+00
 -1       568 0.00000E+00 0.00000E+00 0.00000E+00 0.00000E+00 0.00000E+00 0.00000E+00
 -1       569 0.00000E+00 0.00000E+00 0.00000E+00 0.00000E+00 0.00000E+00 0.00000E+00
 -1       570 0.00000E+00 0.00000E+00 0.00000E+00 0.00000E+00 0.00000E+00 0.00000E+00
 -1       571 0.00000E+00 0.00000E+00 0.00000E+00 0.00000E+00 0.00000E+00 0.00000E+00
 -1       572 0.00000E+00 0.00000E+00 0.00000E+00 0.00000E+00 0.00000E+00 0.00000E+00
 -1       573 0.00000E+00 0.00000E+00 0.00000E+00 0.00000E+00 0.00000E+00 0.00000E+00
 -1       574 0.00000E+00 0.00000E+00 0.00000E+00 0.00000E+00 0.00000E+00 0.00000E+00
 -1       575 0.00000E+00 0.00000E+00 0.00000E+00 0.00000E+00 0.00000E+00 0.00000E+00
 -1       576 0.00000E+00 0.00000E+00 0.00000E+00 0.00000E+00 0.00000E+00 0.00000E+00
 -1       577 0.00000E+00 0.00000E+00 0.00000E+00 0.00000E+00 0.00000E+00 0.00000E+00
 -1       578 0.00000E+00 0.00000E+00 0.00000E+00 0.00000E+00 0.00000E+00 0.00000E+00
 -1       579 0.00000E+00 0.00000E+00 0.00000E+00 0.00000E+00 0.00000E+00 0.00000E+00
 -1       580 0.00000E+00 0.00000E+00 0.00000E+00 0.00000E+00 0.00000E+00 0.00000E+00
 -1       581 0.00000E+00 0.00000E+00 0.00000E+00 0.00000E+00 0.00000E+00 0.00000E+00
 -1       582 0.00000E+00 0.00000E+00 0.00000E+00 0.00000E+00 0.00000E+00 0.00000E+00
 -1       583 0.00000E+00 0.00000E+00 0.00000E+00 0.00000E+00 0.00000E+00 0.00000E+00
 -1       584 0.00000E+00 0.00000E+00 0.00000E+00 0.00000E+00 0.00000E+00 0.00000E+00
 -1       585 0.00000E+00 0.00000E+00 0.00000E+00 0.00000E+00 0.00000E+00 0.00000E+00
 -1       586 0.00000E+00 0.00000E+00 0.00000E+00 0.00000E+00 0.00000E+00 0.00000E+00
 -1       587 0.00000E+00 0.00000E+00 0.00000E+00 0.00000E+00 0.00000E+00 0.00000E+00
 -1       588 0.00000E+00 0.00000E+00 0.00000E+00 0.00000E+00 0.00000E+00 0.00000E+00
 -1       589 0.00000E+00 0.00000E+00 0.00000E+00 0.00000E+00 0.00000E+00 0.00000E+00
 -1       590 0.00000E+00 0.00000E+00 0.00000E+00 0.00000E+00 0.00000E+00 0.00000E+00
 -1       591 0.00000E+00 0.00000E+00 0.00000E+00 0.00000E+00 0.00000E+00 0.00000E+00
 -1       592 0.00000E+00 0.00000E+00 0.00000E+00 0.00000E+00 0.00000E+00 0.00000E+00
 -1       593 0.00000E+00 0.00000E+00 0.00000E+00 0.00000E+00 0.00000E+00 0.00000E+00
 -1       594 0.00000E+00 0.00000E+00 0.00000E+00 0.00000E+00 0.00000E+00 0.00000E+00
 -1       595 0.00000E+00 0.00000E+00 0.00000E+00 0.00000E+00 0.00000E+00 0.00000E+00
 -1       596 0.00000E+00 0.00000E+00 0.00000E+00 0.00000E+00 0.00000E+00 0.00000E+00
 -1       597 0.00000E+00 0.00000E+00 0.00000E+00 0.00000E+00 0.00000E+00 0.00000E+00
 -1       598 0.00000E+00 0.00000E+00 0.00000E+00 0.00000E+00 0.00000E+00 0.00000E+00
 -1       599 0.00000E+00 0.00000E+00 0.00000E+00 0.00000E+00 0.00000E+00 0.00000E+00
 -1       600 0.00000E+00 0.00000E+00 0.00000E+00 0.00000E+00 0.00000E+00 0.00000E+00
 -1       601 0.00000E+00 0.00000E+00 0.00000E+00 0.00000E+00 0.00000E+00 0.00000E+00
 -1       602 0.00000E+00 0.00000E+00 0.00000E+00 0.00000E+00 0.00000E+00 0.00000E+00
 -1       603 0.00000E+00 0.00000E+00 0.00000E+00 0.00000E+00 0.00000E+00 0.00000E+00
 -1       604 0.00000E+00 0.00000E+00 0.00000E+00 0.00000E+00 0.00000E+00 0.00000E+00
 -1       605 0.00000E+00 0.00000E+00 0.00000E+00 0.00000E+00 0.00000E+00 0.00000E+00
 -1       606 0.00000E+00 0.00000E+00 0.00000E+00 0.00000E+00 0.00000E+00 0.00000E+00
 -1       607 0.00000E+00 0.00000E+00 0.00000E+00 0.00000E+00 0.00000E+00 0.00000E+00
 -1       608 0.00000E+00 0.00000E+00 0.00000E+00 0.00000E+00 0.00000E+00 0.00000E+00
 -1       609 0.00000E+00 0.00000E+00 0.00000E+00 0.00000E+00 0.00000E+00 0.00000E+00
 -1       610 0.00000E+00 0.00000E+00 0.00000E+00 0.00000E+00 0.00000E+00 0.00000E+00
 -1       611 0.00000E+00 0.00000E+00 0.00000E+00 0.00000E+00 0.00000E+00 0.00000E+00
 -1       612 0.00000E+00 0.00000E+00 0.00000E+00 0.00000E+00 0.00000E+00 0.00000E+00
 -1       613 0.00000E+00 0.00000E+00 0.00000E+00 0.00000E+00 0.00000E+00 0.00000E+00
 -1       614 0.00000E+00 0.00000E+00 0.00000E+00 0.00000E+00 0.00000E+00 0.00000E+00
 -1       615 0.00000E+00 0.00000E+00 0.00000E+00 0.00000E+00 0.00000E+00 0.00000E+00
 -1       616 0.00000E+00 0.00000E+00 0.00000E+00 0.00000E+00 0.00000E+00 0.00000E+00
 -1       617 0.00000E+00 0.00000E+00 0.00000E+00 0.00000E+00 0.00000E+00 0.00000E+00
 -1       618 0.00000E+00 0.00000E+00 0.00000E+00 0.00000E+00 0.00000E+00 0.00000E+00
 -1       619 0.00000E+00 0.00000E+00 0.00000E+00 0.00000E+00 0.00000E+00 0.00000E+00
 -1       620 0.00000E+00 0.00000E+00 0.00000E+00 0.00000E+00 0.00000E+00 0.00000E+00
 -1       621 0.00000E+00 0.00000E+00 0.00000E+00 0.00000E+00 0.00000E+00 0.00000E+00
 -1       622 0.00000E+00 0.00000E+00 0.00000E+00 0.00000E+00 0.00000E+00 0.00000E+00
 -1       623 0.00000E+00 0.00000E+00 0.00000E+00 0.00000E+00 0.00000E+00 0.00000E+00
 -1       624 0.00000E+00 0.00000E+00 0.00000E+00 0.00000E+00 0.00000E+00 0.00000E+00
 -1       625 0.00000E+00 0.00000E+00 0.00000E+00 0.00000E+00 0.00000E+00 0.00000E+00
 -1       626 0.00000E+00 0.00000E+00 0.00000E+00 0.00000E+00 0.00000E+00 0.00000E+00
 -1       627 0.00000E+00 0.00000E+00 0.00000E+00 0.00000E+00 0.00000E+00 0.00000E+00
 -1       628 0.00000E+00 0.00000E+00 0.00000E+00 0.00000E+00 0.00000E+00 0.00000E+00
 -1       629 0.00000E+00 0.00000E+00 0.00000E+00 0.00000E+00 0.00000E+00 0.00000E+00
 -1       630 0.00000E+00 0.00000E+00 0.00000E+00 0.00000E+00 0.00000E+00 0.00000E+00
 -1       631 0.00000E+00 0.00000E+00 0.00000E+00 0.00000E+00 0.00000E+00 0.00000E+00
 -1       632 0.00000E+00 0.00000E+00 0.00000E+00 0.00000E+00 0.00000E+00 0.00000E+00
 -1       633 0.00000E+00 0.00000E+00 0.00000E+00 0.00000E+00 0.00000E+00 0.00000E+00
 -1       634 0.00000E+00 0.00000E+00 0.00000E+00 0.00000E+00 0.00000E+00 0.00000E+00
 -1       635 0.00000E+00 0.00000E+00 0.00000E+00 0.00000E+00 0.00000E+00 0.00000E+00
 -1       636 0.00000E+00 0.00000E+00 0.00000E+00 0.00000E+00 0.00000E+00 0.00000E+00
 -1       637 0.00000E+00 0.00000E+00 0.00000E+00 0.00000E+00 0.00000E+00 0.00000E+00
 -1       638 0.00000E+00 0.00000E+00 0.00000E+00 0.00000E+00 0.00000E+00 0.00000E+00
 -1       639 0.00000E+00 0.00000E+00 0.00000E+00 0.00000E+00 0.00000E+00 0.00000E+00
 -1       640 0.00000E+00 0.00000E+00 0.00000E+00 0.00000E+00 0.00000E+00 0.00000E+00
 -1       641 0.00000E+00 0.00000E+00 0.00000E+00 0.00000E+00 0.00000E+00 0.00000E+00
 -1       642 0.00000E+00 0.00000E+00 0.00000E+00 0.00000E+00 0.00000E+00 0.00000E+00
 -1       643 0.00000E+00 0.00000E+00 0.00000E+00 0.00000E+00 0.00000E+00 0.00000E+00
 -1       644 0.00000E+00 0.00000E+00 0.00000E+00 0.00000E+00 0.00000E+00 0.00000E+00
 -1       645 0.00000E+00 0.00000E+00 0.00000E+00 0.00000E+00 0.00000E+00 0.00000E+00
 -1       646 0.00000E+00 0.00000E+00 0.00000E+00 0.00000E+00 0.00000E+00 0.00000E+00
 -1       647 0.00000E+00 0.00000E+00 0.00000E+00 0.00000E+00 0.00000E+00 0.00000E+00
 -1       648 0.00000E+00 0.00000E+00 0.00000E+00 0.00000E+00 0.00000E+00 0.00000E+00
 -1       649 0.00000E+00 0.00000E+00 0.00000E+00 0.00000E+00 0.00000E+00 0.00000E+00
 -1       650 0.00000E+00 0.00000E+00 0.00000E+00 0.00000E+00 0.00000E+00 0.00000E+00
 -1       651 0.00000E+00 0.00000E+00 0.00000E+00 0.00000E+00 0.00000E+00 0.00000E+00
 -1       652 0.00000E+00 0.00000E+00 0.00000E+00 0.00000E+00 0.00000E+00 0.00000E+00
 -1       653 0.00000E+00 0.00000E+00 0.00000E+00 0.00000E+00 0.00000E+00 0.00000E+00
 -1       654 0.00000E+00 0.00000E+00 0.00000E+00 0.00000E+00 0.00000E+00 0.00000E+00
 -1       655 0.00000E+00 0.00000E+00 0.00000E+00 0.00000E+00 0.00000E+00 0.00000E+00
 -1       656 0.00000E+00 0.00000E+00 0.00000E+00 0.00000E+00 0.00000E+00 0.00000E+00
 -1       657 0.00000E+00 0.00000E+00 0.00000E+00 0.00000E+00 0.00000E+00 0.00000E+00
 -1       658 0.00000E+00 0.00000E+00 0.00000E+00 0.00000E+00 0.00000E+00 0.00000E+00
 -1       659 0.00000E+00 0.00000E+00 0.00000E+00 0.00000E+00 0.00000E+00 0.00000E+00
 -1       660 0.00000E+00 0.00000E+00 0.00000E+00 0.00000E+00 0.00000E+00 0.00000E+00
 -1       661 0.00000E+00 0.00000E+00 0.00000E+00 0.00000E+00 0.00000E+00 0.00000E+00
 -1       662 0.00000E+00 0.00000E+00 0.00000E+00 0.00000E+00 0.00000E+00 0.00000E+00
 -1       663 0.00000E+00 0.00000E+00 0.00000E+00 0.00000E+00 0.00000E+00 0.00000E+00
 -1       664 0.00000E+00 0.00000E+00 0.00000E+00 0.00000E+00 0.00000E+00 0.00000E+00
 -1       665 0.00000E+00 0.00000E+00 0.00000E+00 0.00000E+00 0.00000E+00 0.00000E+00
 -1       666 0.00000E+00 0.00000E+00 0.00000E+00 0.00000E+00 0.00000E+00 0.00000E+00
 -1       667 0.00000E+00 0.00000E+00 0.00000E+00 0.00000E+00 0.00000E+00 0.00000E+00
 -1       668 0.00000E+00 0.00000E+00 0.00000E+00 0.00000E+00 0.00000E+00 0.00000E+00
 -1       669 0.00000E+00 0.00000E+00 0.00000E+00 0.00000E+00 0.00000E+00 0.00000E+00
 -1       670 0.00000E+00 0.00000E+00 0.00000E+00 0.00000E+00 0.00000E+00 0.00000E+00
 -1       671 0.00000E+00 0.00000E+00 0.00000E+00 0.00000E+00 0.00000E+00 0.00000E+00
 -1       672 0.00000E+00 0.00000E+00 0.00000E+00 0.00000E+00 0.00000E+00 0.00000E+00
 -1       673 0.00000E+00 0.00000E+00 0.00000E+00 0.00000E+00 0.00000E+00 0.00000E+00
 -1       674 0.00000E+00 0.00000E+00 0.00000E+00 0.00000E+00 0.00000E+00 0.00000E+00
 -1       675 0.00000E+00 0.00000E+00 0.00000E+00 0.00000E+00 0.00000E+00 0.00000E+00
 -1       676 0.00000E+00 0.00000E+00 0.00000E+00 0.00000E+00 0.00000E+00 0.00000E+00
 -1       677 0.00000E+00 0.00000E+00 0.00000E+00 0.00000E+00 0.00000E+00 0.00000E+00
 -1       678 0.00000E+00 0.00000E+00 0.00000E+00 0.00000E+00 0.00000E+00 0.00000E+00
 -1       679 0.00000E+00 0.00000E+00 0.00000E+00 0.00000E+00 0.00000E+00 0.00000E+00
 -1       680 0.00000E+00 0.00000E+00 0.00000E+00 0.00000E+00 0.00000E+00 0.00000E+00
 -1       681 0.00000E+00 0.00000E+00 0.00000E+00 0.00000E+00 0.00000E+00 0.00000E+00
 -1       682 0.00000E+00 0.00000E+00 0.00000E+00 0.00000E+00 0.00000E+00 0.00000E+00
 -1       683 0.00000E+00 0.00000E+00 0.00000E+00 0.00000E+00 0.00000E+00 0.00000E+00
 -1       684 0.00000E+00 0.00000E+00 0.00000E+00 0.00000E+00 0.00000E+00 0.00000E+00
 -1       685 0.00000E+00 0.00000E+00 0.00000E+00 0.00000E+00 0.00000E+00 0.00000E+00
 -1       686 0.00000E+00 0.00000E+00 0.00000E+00 0.00000E+00 0.00000E+00 0.00000E+00
 -1       687 0.00000E+00 0.00000E+00 0.00000E+00 0.00000E+00 0.00000E+00 0.00000E+00
 -1       688 0.00000E+00 0.00000E+00 0.00000E+00 0.00000E+00 0.00000E+00 0.00000E+00
 -1       689 0.00000E+00 0.00000E+00 0.00000E+00 0.00000E+00 0.00000E+00 0.00000E+00
 -1       690 0.00000E+00 0.00000E+00 0.00000E+00 0.00000E+00 0.00000E+00 0.00000E+00
 -1       691 0.00000E+00 0.00000E+00 0.00000E+00 0.00000E+00 0.00000E+00 0.00000E+00
 -1       692 0.00000E+00 0.00000E+00 0.00000E+00 0.00000E+00 0.00000E+00 0.00000E+00
 -1       693 0.00000E+00 0.00000E+00 0.00000E+00 0.00000E+00 0.00000E+00 0.00000E+00
 -1       694 0.00000E+00 0.00000E+00 0.00000E+00 0.00000E+00 0.00000E+00 0.00000E+00
 -1       695 0.00000E+00 0.00000E+00 0.00000E+00 0.00000E+00 0.00000E+00 0.00000E+00
 -1       696 0.00000E+00 0.00000E+00 0.00000E+00 0.00000E+00 0.00000E+00 0.00000E+00
 -1       697 0.00000E+00 0.00000E+00 0.00000E+00 0.00000E+00 0.00000E+00 0.00000E+00
 -1       698 0.00000E+00 0.00000E+00 0.00000E+00 0.00000E+00 0.00000E+00 0.00000E+00
 -1       699 0.00000E+00 0.00000E+00 0.00000E+00 0.00000E+00 0.00000E+00 0.00000E+00
 -1       700 0.00000E+00 0.00000E+00 0.00000E+00 0.00000E+00 0.00000E+00 0.00000E+00
 -1       701 0.00000E+00 0.00000E+00 0.00000E+00 0.00000E+00 0.00000E+00 0.00000E+00
 -1       702 0.00000E+00 0.00000E+00 0.00000E+00 0.00000E+00 0.00000E+00 0.00000E+00
 -1       703 0.00000E+00 0.00000E+00 0.00000E+00 0.00000E+00 0.00000E+00 0.00000E+00
 -1       704 0.00000E+00 0.00000E+00 0.00000E+00 0.00000E+00 0.00000E+00 0.00000E+00
 -1       705 0.00000E+00 0.00000E+00 0.00000E+00 0.00000E+00 0.00000E+00 0.00000E+00
 -1       706 0.00000E+00 0.00000E+00 0.00000E+00 0.00000E+00 0.00000E+00 0.00000E+00
 -1       707 0.00000E+00 0.00000E+00 0.00000E+00 0.00000E+00 0.00000E+00 0.00000E+00
 -1       708 0.00000E+00 0.00000E+00 0.00000E+00 0.00000E+00 0.00000E+00 0.00000E+00
 -1       709 0.00000E+00 0.00000E+00 0.00000E+00 0.00000E+00 0.00000E+00 0.00000E+00
 -1       710 0.00000E+00 0.00000E+00 0.00000E+00 0.00000E+00 0.00000E+00 0.00000E+00
 -1       711 0.00000E+00 0.00000E+00 0.00000E+00 0.00000E+00 0.00000E+00 0.00000E+00
 -1       712 0.00000E+00 0.00000E+00 0.00000E+00 0.00000E+00 0.00000E+00 0.00000E+00
 -1       713 0.00000E+00 0.00000E+00 0.00000E+00 0.00000E+00 0.00000E+00 0.00000E+00
 -1       714 0.00000E+00 0.00000E+00 0.00000E+00 0.00000E+00 0.00000E+00 0.00000E+00
 -1       715 0.00000E+00 0.00000E+00 0.00000E+00 0.00000E+00 0.00000E+00 0.00000E+00
 -1       716 0.00000E+00 0.00000E+00 0.00000E+00 0.00000E+00 0.00000E+00 0.00000E+00
 -1       717 0.00000E+00 0.00000E+00 0.00000E+00 0.00000E+00 0.00000E+00 0.00000E+00
 -1       718 0.00000E+00 0.00000E+00 0.00000E+00 0.00000E+00 0.00000E+00 0.00000E+00
 -1       719 0.00000E+00 0.00000E+00 0.00000E+00 0.00000E+00 0.00000E+00 0.00000E+00
 -1       720 0.00000E+00 0.00000E+00 0.00000E+00 0.00000E+00 0.00000E+00 0.00000E+00
 -1       721 0.00000E+00 0.00000E+00 0.00000E+00 0.00000E+00 0.00000E+00 0.00000E+00
 -1       722 0.00000E+00 0.00000E+00 0.00000E+00 0.00000E+00 0.00000E+00 0.00000E+00
 -1       723 0.00000E+00 0.00000E+00 0.00000E+00 0.00000E+00 0.00000E+00 0.00000E+00
 -1       724 0.00000E+00 0.00000E+00 0.00000E+00 0.00000E+00 0.00000E+00 0.00000E+00
 -1       725 0.00000E+00 0.00000E+00 0.00000E+00 0.00000E+00 0.00000E+00 0.00000E+00
 -1       726 0.00000E+00 0.00000E+00 0.00000E+00 0.00000E+00 0.00000E+00 0.00000E+00
 -1       727 0.00000E+00 0.00000E+00 0.00000E+00 0.00000E+00 0.00000E+00 0.00000E+00
 -1       728 0.00000E+00 0.00000E+00 0.00000E+00 0.00000E+00 0.00000E+00 0.00000E+00
 -1       729 0.00000E+00 0.00000E+00 0.00000E+00 0.00000E+00 0.00000E+00 0.00000E+00
 -1       730 0.00000E+00 0.00000E+00 0.00000E+00 0.00000E+00 0.00000E+00 0.00000E+00
 -1       731 0.00000E+00 0.00000E+00 0.00000E+00 0.00000E+00 0.00000E+00 0.00000E+00
 -1       732 0.00000E+00 0.00000E+00 0.00000E+00 0.00000E+00 0.00000E+00 0.00000E+00
 -1       733 0.00000E+00 0.00000E+00 0.00000E+00 0.00000E+00 0.00000E+00 0.00000E+00
 -1       734 0.00000E+00 0.00000E+00 0.00000E+00 0.00000E+00 0.00000E+00 0.00000E+00
 -1       735 0.00000E+00 0.00000E+00 0.00000E+00 0.00000E+00 0.00000E+00 0.00000E+00
 -1       736 0.00000E+00 0.00000E+00 0.00000E+00 0.00000E+00 0.00000E+00 0.00000E+00
 -1       737 0.00000E+00 0.00000E+00 0.00000E+00 0.00000E+00 0.00000E+00 0.00000E+00
 -1       738 0.00000E+00 0.00000E+00 0.00000E+00 0.00000E+00 0.00000E+00 0.00000E+00
 -1       739 0.00000E+00 0.00000E+00 0.00000E+00 0.00000E+00 0.00000E+00 0.00000E+00
 -1       740 0.00000E+00 0.00000E+00 0.00000E+00 0.00000E+00 0.00000E+00 0.00000E+00
 -1       741 0.00000E+00 0.00000E+00 0.00000E+00 0.00000E+00 0.00000E+00 0.00000E+00
 -1       742 0.00000E+00 0.00000E+00 0.00000E+00 0.00000E+00 0.00000E+00 0.00000E+00
 -1       743 0.00000E+00 0.00000E+00 0.00000E+00 0.00000E+00 0.00000E+00 0.00000E+00
 -1       744 0.00000E+00 0.00000E+00 0.00000E+00 0.00000E+00 0.00000E+00 0.00000E+00
 -1       745 0.00000E+00 0.00000E+00 0.00000E+00 0.00000E+00 0.00000E+00 0.00000E+00
 -1       746 0.00000E+00 0.00000E+00 0.00000E+00 0.00000E+00 0.00000E+00 0.00000E+00
 -1       747 0.00000E+00 0.00000E+00 0.00000E+00 0.00000E+00 0.00000E+00 0.00000E+00
 -1       748 0.00000E+00 0.00000E+00 0.00000E+00 0.00000E+00 0.00000E+00 0.00000E+00
 -1       749 0.00000E+00 0.00000E+00 0.00000E+00 0.00000E+00 0.00000E+00 0.00000E+00
 -1       750 0.00000E+00 0.00000E+00 0.00000E+00 0.00000E+00 0.00000E+00 0.00000E+00
 -1       751 0.00000E+00 0.00000E+00 0.00000E+00 0.00000E+00 0.00000E+00 0.00000E+00
 -1       752 0.00000E+00 0.00000E+00 0.00000E+00 0.00000E+00 0.00000E+00 0.00000E+00
 -1       753 0.00000E+00 0.00000E+00 0.00000E+00 0.00000E+00 0.00000E+00 0.00000E+00
 -1       754 0.00000E+00 0.00000E+00 0.00000E+00 0.00000E+00 0.00000E+00 0.00000E+00
 -1       755 0.00000E+00 0.00000E+00 0.00000E+00 0.00000E+00 0.00000E+00 0.00000E+00
 -1       756 0.00000E+00 0.00000E+00 0.00000E+00 0.00000E+00 0.00000E+00 0.00000E+00
 -1       757 0.00000E+00 0.00000E+00 0.00000E+00 0.00000E+00 0.00000E+00 0.00000E+00
 -1       758 0.00000E+00 0.00000E+00 0.00000E+00 0.00000E+00 0.00000E+00 0.00000E+00
 -1       759 0.00000E+00 0.00000E+00 0.00000E+00 0.00000E+00 0.00000E+00 0.00000E+00
 -1       760 0.00000E+00 0.00000E+00 0.00000E+00 0.00000E+00 0.00000E+00 0.00000E+00
 -1       761 0.00000E+00 0.00000E+00 0.00000E+00 0.00000E+00 0.00000E+00 0.00000E+00
 -1       762 0.00000E+00 0.00000E+00 0.00000E+00 0.00000E+00 0.00000E+00 0.00000E+00
 -1       763 0.00000E+00 0.00000E+00 0.00000E+00 0.00000E+00 0.00000E+00 0.00000E+00
 -1       764 0.00000E+00 0.00000E+00 0.00000E+00 0.00000E+00 0.00000E+00 0.00000E+00
 -1       765 0.00000E+00 0.00000E+00 0.00000E+00 0.00000E+00 0.00000E+00 0.00000E+00
 -1       766 0.00000E+00 0.00000E+00 0.00000E+00 0.00000E+00 0.00000E+00 0.00000E+00
 -1       767 0.00000E+00 0.00000E+00 0.00000E+00 0.00000E+00 0.00000E+00 0.00000E+00
 -1       768 0.00000E+00 0.00000E+00 0.00000E+00 0.00000E+00 0.00000E+00 0.00000E+00
 -1       769 0.00000E+00 0.00000E+00 0.00000E+00 0.00000E+00 0.00000E+00 0.00000E+00
 -1       770 0.00000E+00 0.00000E+00 0.00000E+00 0.00000E+00 0.00000E+00 0.00000E+00
 -1       771 0.00000E+00 0.00000E+00 0.00000E+00 0.00000E+00 0.00000E+00 0.00000E+00
 -1       772 0.00000E+00 0.00000E+00 0.00000E+00 0.00000E+00 0.00000E+00 0.00000E+00
 -1       773 0.00000E+00 0.00000E+00 0.00000E+00 0.00000E+00 0.00000E+00 0.00000E+00
 -1       774 0.00000E+00 0.00000E+00 0.00000E+00 0.00000E+00 0.00000E+00 0.00000E+00
 -1       775 0.00000E+00 0.00000E+00 0.00000E+00 0.00000E+00 0.00000E+00 0.00000E+00
 -1       776 0.00000E+00 0.00000E+00 0.00000E+00 0.00000E+00 0.00000E+00 0.00000E+00
 -1       777 0.00000E+00 0.00000E+00 0.00000E+00 0.00000E+00 0.00000E+00 0.00000E+00
 -1       778 0.00000E+00 0.00000E+00 0.00000E+00 0.00000E+00 0.00000E+00 0.00000E+00
 -1       779 0.00000E+00 0.00000E+00 0.00000E+00 0.00000E+00 0.00000E+00 0.00000E+00
 -1       780 0.00000E+00 0.00000E+00 0.00000E+00 0.00000E+00 0.00000E+00 0.00000E+00
 -1       781 0.00000E+00 0.00000E+00 0.00000E+00 0.00000E+00 0.00000E+00 0.00000E+00
 -1       782 0.00000E+00 0.00000E+00 0.00000E+00 0.00000E+00 0.00000E+00 0.00000E+00
 -1       783 0.00000E+00 0.00000E+00 0.00000E+00 0.00000E+00 0.00000E+00 0.00000E+00
 -1       784 0.00000E+00 0.00000E+00 0.00000E+00 0.00000E+00 0.00000E+00 0.00000E+00
 -1       785 0.00000E+00 0.00000E+00 0.00000E+00 0.00000E+00 0.00000E+00 0.00000E+00
 -1       786 0.00000E+00 0.00000E+00 0.00000E+00 0.00000E+00 0.00000E+00 0.00000E+00
 -1       787 0.00000E+00 0.00000E+00 0.00000E+00 0.00000E+00 0.00000E+00 0.00000E+00
 -1       788 0.00000E+00 0.00000E+00 0.00000E+00 0.00000E+00 0.00000E+00 0.00000E+00
 -1       789 0.00000E+00 0.00000E+00 0.00000E+00 0.00000E+00 0.00000E+00 0.00000E+00
 -1       790 0.00000E+00 0.00000E+00 0.00000E+00 0.00000E+00 0.00000E+00 0.00000E+00
 -1       791 0.00000E+00 0.00000E+00 0.00000E+00 0.00000E+00 0.00000E+00 0.00000E+00
 -1       792 0.00000E+00 0.00000E+00 0.00000E+00 0.00000E+00 0.00000E+00 0.00000E+00
 -1       793 0.00000E+00 0.00000E+00 0.00000E+00 0.00000E+00 0.00000E+00 0.00000E+00
 -1       794 0.00000E+00 0.00000E+00 0.00000E+00 0.00000E+00 0.00000E+00 0.00000E+00
 -1       795 0.00000E+00 0.00000E+00 0.00000E+00 0.00000E+00 0.00000E+00 0.00000E+00
 -1       796 0.00000E+00 0.00000E+00 0.00000E+00 0.00000E+00 0.00000E+00 0.00000E+00
 -1       797 0.00000E+00 0.00000E+00 0.00000E+00 0.00000E+00 0.00000E+00 0.00000E+00
 -1       798 0.00000E+00 0.00000E+00 0.00000E+00 0.00000E+00 0.00000E+00 0.00000E+00
 -1       799 0.00000E+00 0.00000E+00 0.00000E+00 0.00000E+00 0.00000E+00 0.00000E+00
 -1       800 0.00000E+00 0.00000E+00 0.00000E+00 0.00000E+00 0.00000E+00 0.00000E+00
 -1       801 0.00000E+00 0.00000E+00 0.00000E+00 0.00000E+00 0.00000E+00 0.00000E+00
 -1       802 0.00000E+00 0.00000E+00 0.00000E+00 0.00000E+00 0.00000E+00 0.00000E+00
 -1       803 0.00000E+00 0.00000E+00 0.00000E+00 0.00000E+00 0.00000E+00 0.00000E+00
 -1       804 0.00000E+00 0.00000E+00 0.00000E+00 0.00000E+00 0.00000E+00 0.00000E+00
 -1       805 0.00000E+00 0.00000E+00 0.00000E+00 0.00000E+00 0.00000E+00 0.00000E+00
 -1       806 0.00000E+00 0.00000E+00 0.00000E+00 0.00000E+00 0.00000E+00 0.00000E+00
 -1       807 0.00000E+00 0.00000E+00 0.00000E+00 0.00000E+00 0.00000E+00 0.00000E+00
 -1       808 0.00000E+00 0.00000E+00 0.00000E+00 0.00000E+00 0.00000E+00 0.00000E+00
 -3
    1PSTEP                         5           1           1          
  100CL  101 1.000000000         807                     0    1           1
 -4  ERROR       1    1
 -5  STR(%)      1    1    0    0
 -1         1 3.76530E+01
 -1         2 3.41010E+01
 -1         3 4.15717E+01
 -1         4 5.80970E+01
 -1         5 6.02843E+01
 -1         6 6.11983E+01
 -1         7 6.11983E+01
 -1         8 5.94336E+01
 -1         9 5.83596E+01
 -1        10 5.70215E+01
 -1        11 5.57157E+01
 -1        12 5.43197E+01
 -1        13 5.28598E+01
 -1        14 5.13226E+01
 -1        15 4.97147E+01
 -1        16 4.80430E+01
 -1        17 4.63206E+01
 -1        18 4.45657E+01
 -1        19 4.27996E+01
 -1        20 4.10716E+01
 -1        21 3.93350E+01
 -1        22 3.86577E+01
 -1        23 3.41010E+01
 -1        24 2.56131E+01
 -1        25 2.04968E+01
 -1        26 1.73808E+01
 -1        27 1.54620E+01
 -1        28 1.42279E+01
 -1        29 1.34066E+01
 -1        30 1.28392E+01
 -1        31 1.24185E+01
 -1        32 1.20576E+01
 -1        33 1.16722E+01
 -1        34 1.11681E+01
 -1        35 1.04340E+01
 -1        36 9.33688E+00
 -1        37 7.71450E+00
 -1        38 5.55322E+00
 -1        39 0.00000E+00
 -1        40 3.76530E+01
 -1        41 1.95720E+01
 -1        42 9.04552E+00
 -1        43 6.18006E+00
 -1        44 4.44247E+00
 -1        45 3.37415E+00
 -1        46 2.67636E+00
 -1        47 2.19979E+00
 -1        48 1.85652E+00
 -1        49 1.59542E+00
 -1        50 1.38401E+00
 -1        51 1.20024E+00
 -1        52 1.02755E+00
 -1        53 8.51702E-01
 -1        54 6.56727E-01
 -1        55 4.58398E-01
 -1        56 4.15717E+01
 -1        57 3.98718E+01
 -1        58 2.71964E+01
 -1        59 1.68691E+01
 -1        60 9.94605E+00
 -1        61 5.69728E+00
 -1        62 3.99874E+00
 -1        63 3.09757E+00
 -1        64 2.45545E+00
 -1        65 1.98587E+00
 -1        66 1.62982E+00
 -1        67 1.34627E+00
 -1        68 1.10566E+00
 -1        69 8.84960E-01
 -1        70 6.62634E-01
 -1        71 4.58398E-01
 -1        72 5.80970E+01
 -1        73 3.98718E+01
 -1        74 3.13750E+01
 -1        75 2.49856E+01
 -1        76 1.78460E+01
 -1        77 1.19609E+01
 -1        78 7.70271E+00
 -1        79 4.78506E+00
 -1        80 2.86580E+00
 -1        81 2.18661E+00
 -1        82 1.74717E+00
 -1        83 1.40030E+00
 -1        84 1.11504E+00
 -1        85 8.84960E-01
 -1        86 6.62634E-01
 -1        87 4.50787E-01
 -1        88 6.02843E+01
 -1        89 3.13750E+01
 -1        90 3.13750E+01
 -1        91 2.49856E+01
 -1        92 2.16837E+01
 -1        93 1.68186E+01
 -1        94 1.21690E+01
 -1        95 8.38877E+00
 -1        96 5.55104E+00
 -1        97 3.51203E+00
 -1        98 2.08683E+00
 -1        99 1.40030E+00
 -1       100 1.11504E+00
 -1       101 8.65948E-01
 -1       102 6.29712E-01
 -1       103 4.17227E-01
 -1       104 6.11983E+01
 -1       105 2.27877E+01
 -1       106 2.49595E+01
 -1       107 2.49595E+01
 -1       108 2.16837E+01
 -1       109 1.88501E+01
 -1       110 1.53808E+01
 -1       111 1.16827E+01
 -1       112 8.41064E+00
 -1       113 5.78226E+00
 -1       114 3.79020E+00
 -1       115 2.34004E+00
 -1       116 1.32175E+00
 -1       117 7.75937E-01
 -1       118 5.45144E-01
 -1       119 3.49832E-01
 -1       120 6.11983E+01
 -1       121 2.91708E+01
 -1       122 1.82710E+01
 -1       123 2.07208E+01
 -1       124 2.07208E+01
 -1       125 1.88501E+01
 -1       126 1.65896E+01
 -1       127 1.39612E+01
 -1       128 1.09338E+01
 -1       129 8.08687E+00
 -1       130 5.68370E+00
 -1       131 3.78954E+00
 -1       132 2.36984E+00
 -1       133 1.35377E+00
 -1       134 6.69542E-01
 -1       135 2.40712E-01
 -1       136 5.94336E+01
 -1       137 3.14928E+01
 -1       138 1.54565E+01
 -1       139 1.60002E+01
 -1       140 1.78090E+01
 -1       141 1.78090E+01
 -1       142 1.65896E+01
 -1       143 1.47600E+01
 -1       144 1.26469E+01
 -1       145 1.00831E+01
 -1       146 7.56660E+00
 -1       147 5.36582E+00
 -1       148 3.58220E+00
 -1       149 2.21818E+00
 -1       150 1.23186E+00
 -1       151 5.33616E-01
 -1       152 5.83596E+01
 -1       153 3.26239E+01
 -1       154 1.95544E+01
 -1       155 9.27914E+00
 -1       156 1.42980E+01
 -1       157 1.56601E+01
 -1       158 1.56601E+01
 -1       159 1.47600E+01
 -1       160 1.32165E+01
 -1       161 1.14250E+01
 -1       162 9.18043E+00
 -1       163 6.91294E+00
 -1       164 4.88100E+00
 -1       165 3.20182E+00
 -1       166 1.90005E+00
 -1       167 9.17081E-01
 -1       168 5.70215E+01
 -1       169 3.30773E+01
 -1       170 2.19290E+01
 -1       171 1.29130E+01
 -1       172 9.25023E+00
 -1       173 1.29130E+01
 -1       174 1.39573E+01
 -1       175 1.39573E+01
 -1       176 1.32165E+01
 -1       177 1.18462E+01
 -1       178 1.02545E+01
 -1       179 8.22750E+00
 -1       180 6.14244E+00
 -1       181 4.24250E+00
 -1       182 2.64946E+00
 -1       183 1.36662E+00
 -1       184 5.57157E+01
 -1       185 3.32005E+01
 -1       186 2.33141E+01
 -1       187 1.59206E+01
 -1       188 8.93271E+00
 -1       189 8.88425E+00
 -1       190 1.17102E+01
 -1       191 1.25144E+01
 -1       192 1.25144E+01
 -1       193 1.18462E+01
 -1       194 1.05607E+01
 -1       195 9.08659E+00
 -1       196 7.20117E+00
 -1       197 5.24058E+00
 -1       198 3.43081E+00
 -1       199 1.86444E+00
 -1       200 5.43197E+01
 -1       201 3.32005E+01
 -1       202 2.41164E+01
 -1       203 1.78694E+01
 -1       204 1.22198E+01
 -1       205 6.48315E+00
 -1       206 8.34138E+00
 -1       207 1.06003E+01
 -1       208 1.12099E+01
 -1       209 1.12099E+01
 -1       210 1.05607E+01
 -1       211 9.28583E+00
 -1       212 7.86702E+00
 -1       213 6.05907E+00
 -1       214 4.16435E+00
 -1       215 2.37528E+00
 -1       216 5.28598E+01
 -1       217 3.31112E+01
 -1       218 2.45464E+01
 -1       219 1.91215E+01
 -1       220 1.44998E+01
 -1       221 9.86397E+00
 -1       222 5.01002E+00
 -1       223 7.67047E+00
 -1       224 9.51458E+00
 -1       225 9.95474E+00
 -1       226 9.95474E+00
 -1       227 9.28583E+00
 -1       228 7.95202E+00
 -1       229 6.53289E+00
 -1       230 4.73740E+00
 -1       231 2.84127E+00
 -1       232 5.13226E+01
 -1       233 3.28803E+01
 -1       234 2.47247E+01
 -1       235 1.98982E+01
 -1       236 1.60513E+01
 -1       237 1.23308E+01
 -1       238 8.39338E+00
 -1       239 4.21542E+00
 -1       240 6.87485E+00
 -1       241 8.39342E+00
 -1       242 8.67466E+00
 -1       243 8.67466E+00
 -1       244 7.95202E+00
 -1       245 6.53289E+00
 -1       246 5.00868E+00
 -1       247 3.17821E+00
 -1       248 4.97147E+01
 -1       249 3.25396E+01
 -1       250 2.47247E+01
 -1       251 2.03363E+01
 -1       252 1.70689E+01
 -1       253 1.40758E+01
 -1       254 1.09581E+01
 -1       255 7.55910E+00
 -1       256 3.93143E+00
 -1       257 5.93564E+00
 -1       258 7.18049E+00
 -1       259 7.30133E+00
 -1       260 7.30133E+00
 -1       261 6.48824E+00
 -1       262 5.00868E+00
 -1       263 3.27661E+00
 -1       264 4.80430E+01
 -1       265 3.21060E+01
 -1       266 2.47199E+01
 -1       267 2.05199E+01
 -1       268 1.76836E+01
 -1       269 1.52529E+01
 -1       270 1.28188E+01
 -1       271 1.01631E+01
 -1       272 7.21430E+00
 -1       273 4.05819E+00
 -1       274 4.82291E+00
 -1       275 5.82182E+00
 -1       276 5.82182E+00
 -1       277 5.77018E+00
 -1       278 4.82243E+00
 -1       279 3.27661E+00
 -1       280 4.63206E+01
 -1       281 3.15870E+01
 -1       282 2.45707E+01
 -1       283 2.05199E+01
 -1       284 1.79804E+01
 -1       285 1.59746E+01
 -1       286 1.40848E+01
 -1       287 1.20747E+01
 -1       288 9.80990E+00
 -1       289 7.26072E+00
 -1       290 4.52507E+00
 -1       291 3.50759E+00
 -1       292 4.27542E+00
 -1       293 4.27542E+00
 -1       294 4.03415E+00
 -1       295 3.01119E+00
 -1       296 4.45657E+01
 -1       297 3.09861E+01
 -1       298 2.42983E+01
 -1       299 2.04990E+01
 -1       300 1.80111E+01
 -1       301 1.63167E+01
 -1       302 1.48422E+01
 -1       303 1.33566E+01
 -1       304 1.17042E+01
 -1       305 9.79275E+00
 -1       306 7.61105E+00
 -1       307 5.25511E+00
 -1       308 2.93758E+00
 -1       309 2.54850E+00
 -1       310 2.54850E+00
 -1       311 2.26380E+00
 -1       312 4.27996E+01
 -1       313 3.03071E+01
 -1       314 2.39106E+01
 -1       315 2.03007E+01
 -1       316 1.80111E+01
 -1       317 1.63209E+01
 -1       318 1.51460E+01
 -1       319 1.40609E+01
 -1       320 1.29110E+01
 -1       321 1.15802E+01
 -1       322 9.99543E+00
 -1       323 8.14693E+00
 -1       324 6.11334E+00
 -1       325 4.06942E+00
 -1       326 2.26476E+00
 -1       327 1.13126E+00
 -1       328 4.10716E+01
 -1       329 2.95449E+01
 -1       330 2.34145E+01
 -1       331 1.99398E+01
 -1       332 1.78018E+01
 -1       333 1.63209E+01
 -1       334 1.51460E+01
 -1       335 1.42148E+01
 -1       336 1.34425E+01
 -1       337 1.25829E+01
 -1       338 1.15385E+01
 -1       339 1.02378E+01
 -1       340 8.65308E+00
 -1       341 6.81952E+00
 -1       342 4.84192E+00
 -1       343 2.84195E+00
 -1       344 3.93350E+01
 -1       345 2.87819E+01
 -1       346 2.28198E+01
 -1       347 1.93979E+01
 -1       348 1.73381E+01
 -1       349 1.59897E+01
 -1       350 1.50160E+01
 -1       351 1.42148E+01
 -1       352 1.34425E+01
 -1       353 1.27689E+01
 -1       354 1.21396E+01
 -1       355 1.13141E+01
 -1       356 1.02022E+01
 -1       357 8.72826E+00
 -1       358 6.84000E+00
 -1       359 4.59231E+00
 -1       360 3.86577E+01
 -1       361 2.79756E+01
 -1       362 2.19825E+01
 -1       363 1.85835E+01
 -1       364 1.65746E+01
 -1       365 1.53053E+01
 -1       366 1.44507E+01
 -1       367 1.38240E+01
 -1       368 1.32980E+01
 -1       369 1.27689E+01
 -1       370 1.21396E+01
 -1       371 1.13141E+01
 -1       372 1.04340E+01
 -1       373 9.33688E+00
 -1       374 7.71450E+00
 -1       375 5.55322E+00
 -1       376 7.81061E+01
 -1       377 5.42047E+01
 -1       378 1.47360E+01
 -1       379 9.45066E-01
 -1       381 7.81061E+01
 -1       382 2.73432E+01
 -1       383 1.03253E+01
 -1       384 5.27282E+00
 -1       385 4.56082E+00
 -1       386 4.06691E+00
 -1       387 3.67417E+00
 -1       388 3.32355E+00
 -1       389 2.97699E+00
 -1       390 2.60228E+00
 -1       391 2.16521E+00
 -1       392 1.62270E+00
 -1       393 1.02945E+00
 -1       394 2.29871E+00
 -1       395 4.20552E+00
 -1       396 7.06595E+00
 -1       397 1.13653E+01
 -1       398 1.78180E+01
 -1       399 2.66743E+01
 -1       400 3.45044E+01
 -1       401 3.45044E+01
 -1       402 5.42047E+01
 -1       403 5.42047E+01
 -1       404 2.79686E+01
 -1       405 1.15885E+01
 -1       406 6.89917E+00
 -1       407 4.52452E+00
 -1       408 3.07045E+00
 -1       409 2.00499E+00
 -1       410 1.36009E+00
 -1       411 1.81812E+00
 -1       412 2.56192E+00
 -1       413 3.72820E+00
 -1       414 5.60991E+00
 -1       415 1.53398E+01
 -1       416 1.53398E+01
 -1       417 1.39157E+01
 -1       418 1.47360E+01
 -1       419 1.47360E+01
 -1       420 1.47301E+01
 -1       421 1.47199E+01
 -1       422 1.47023E+01
 -1       423 1.46743E+01
 -1       424 1.46315E+01
 -1       425 1.45686E+01
 -1       426 1.44790E+01
 -1       427 1.43550E+01
 -1       428 1.41882E+01
 -1       429 1.39707E+01
 -1       430 1.36966E+01
 -1       431 1.33634E+01
 -1       432 1.29735E+01
 -1       433 1.25328E+01
 -1       434 1.20455E+01
 -1       435 1.15030E+01
 -1       436 1.08602E+01
 -1       437 1.34170E+01
 -1       438 1.34170E+01
 -1       439 8.84615E+00
 -1       440 6.94778E+00
 -1       441 2.94381E+00
 -1       442 4.72883E+00
 -1       443 4.72883E+00
 -1       444 4.58882E+00
 -1       445 5.76299E+00
 -1       446 1.01480E+01
 -1       447 1.46821E+01
 -1       448 1.88997E+01
 -1       449 2.22653E+01
 -1       450 2.40732E+01
 -1       451 2.40732E+01
 -1       452 2.32341E+01
 -1       453 1.78226E+01
 -1       454 1.70785E+01
 -1       455 2.68763E+01
 -1       456 7.81061E+01
 -1       457 7.81061E+01
 -1       458 2.68763E+01
 -1       459 1.74930E+01
 -1       460 1.78226E+01
 -1       461 2.32341E+01
 -1       462 2.40732E+01
 -1       463 2.40732E+01
 -1       464 2.22653E+01
 -1       465 1.88997E+01
 -1       466 1.46821E+01
 -1       467 1.01480E+01
 -1       468 8.90715E+00
 -1       469 9.37020E+00
 -1       470 9.37020E+00
 -1       471 9.21478E+00
 -1       472 7.85636E+00
 -1       473 2.73432E+01
 -1       474 2.29351E+01
 -1       475 1.74930E+01
 -1       476 1.23157E+01
 -1       477 8.36746E+00
 -1       478 6.68197E+00
 -1       479 5.17491E+00
 -1       480 5.75441E+00
 -1       481 7.42754E+00
 -1       482 8.95763E+00
 -1       483 1.03354E+01
 -1       484 1.14866E+01
 -1       485 1.22264E+01
 -1       486 1.22264E+01
 -1       487 1.22153E+01
 -1       488 1.09985E+01
 -1       489 1.03253E+01
 -1       490 9.18709E+00
 -1       491 7.37743E+00
 -1       492 5.97052E+00
 -1       493 5.25776E+00
 -1       494 4.51148E+00
 -1       495 5.39614E+00
 -1       496 7.07834E+00
 -1       497 8.72517E+00
 -1       498 1.03269E+01
 -1       499 1.18555E+01
 -1       500 1.32404E+01
 -1       501 1.43398E+01
 -1       502 1.49178E+01
 -1       503 1.49178E+01
 -1       504 1.47047E+01
 -1       505 5.27282E+00
 -1       506 5.15337E+00
 -1       507 4.91621E+00
 -1       508 4.57361E+00
 -1       509 4.16720E+00
 -1       510 4.66095E+00
 -1       511 6.21240E+00
 -1       512 7.83615E+00
 -1       513 9.52634E+00
 -1       514 1.12731E+01
 -1       515 1.30525E+01
 -1       516 1.48120E+01
 -1       517 1.64502E+01
 -1       518 1.64502E+01
 -1       519 1.49178E+01
 -1       520 1.47047E+01
 -1       521 4.56082E+00
 -1       522 4.44108E+00
 -1       523 4.29573E+00
 -1       524 4.09558E+00
 -1       525 3.86287E+00
 -1       526 5.13181E+00
 -1       527 6.63954E+00
 -1       528 8.29554E+00
 -1       529 1.01027E+01
 -1       530 1.20571E+01
 -1       531 1.41417E+01
 -1       532 1.63177E+01
 -1       533 1.82830E+01
 -1       534 1.82830E+01
 -1       535 1.53499E+01
 -1       536 1.16816E+01
 -1       537 4.06691E+00
 -1       538 4.00969E+00
 -1       539 3.96237E+00
 -1       540 3.88468E+00
 -1       541 3.97804E+00
 -1       542 5.30068E+00
 -1       543 6.83520E+00
 -1       544 8.59540E+00
 -1       545 1.05857E+01
 -1       546 1.27978E+01
 -1       547 1.52090E+01
 -1       548 1.77835E+01
 -1       549 1.86661E+01
 -1       550 1.86661E+01
 -1       551 1.59424E+01
 -1       552 1.26449E+01
 -1       553 3.67689E+00
 -1       554 3.71351E+00
 -1       555 3.73875E+00
 -1       556 3.76558E+00
 -1       557 3.97904E+00
 -1       558 5.30495E+00
 -1       559 6.92009E+00
 -1       560 8.84306E+00
 -1       561 1.10682E+01
 -1       562 1.35658E+01
 -1       563 1.62912E+01
 -1       564 1.92011E+01
 -1       565 1.92011E+01
 -1       566 1.88745E+01
 -1       567 1.63220E+01
 -1       568 1.33391E+01
 -1       569 3.37397E+00
 -1       570 3.47543E+00
 -1       571 3.58308E+00
 -1       572 3.70877E+00
 -1       573 3.97904E+00
 -1       574 5.30495E+00
 -1       575 7.00493E+00
 -1       576 9.14357E+00
 -1       577 1.16347E+01
 -1       578 1.44090E+01
 -1       579 1.73879E+01
 -1       580 2.05206E+01
 -1       581 2.05206E+01
 -1       582 1.88830E+01
 -1       583 1.64958E+01
 -1       584 1.38165E+01
 -1       585 3.06237E+00
 -1       586 3.21224E+00
 -1       587 3.38549E+00
 -1       588 3.59365E+00
 -1       589 3.87428E+00
 -1       590 5.25105E+00
 -1       591 7.20150E+00
 -1       592 9.60091E+00
 -1       593 1.23561E+01
 -1       594 1.53457E+01
 -1       595 1.84590E+01
 -1       596 2.16529E+01
 -1       597 2.16529E+01
 -1       598 1.88830E+01
 -1       599 1.64958E+01
 -1       600 1.41168E+01
 -1       601 2.71246E+00
 -1       602 2.89985E+00
 -1       603 3.12989E+00
 -1       604 3.41304E+00
 -1       605 3.75301E+00
 -1       606 5.37675E+00
 -1       607 7.62589E+00
 -1       608 1.03069E+01
 -1       609 1.32716E+01
 -1       610 1.63503E+01
 -1       611 1.94230E+01
 -1       612 2.24847E+01
 -1       613 2.24847E+01
 -1       614 1.86978E+01
 -1       615 1.64834E+01
 -1       616 1.42730E+01
 -1       617 2.29500E+00
 -1       618 2.51848E+00
 -1       619 2.80997E+00
 -1       620 3.17533E+00
 -1       621 3.70195E+00
 -1       622 5.79544E+00
 -1       623 8.39045E+00
 -1       624 1.13190E+01
 -1       625 1.43654E+01
 -1       626 1.73427E+01
 -1       627 2.01642E+01
 -1       628 2.28991E+01
 -1       629 2.28991E+01
 -1       630 1.83498E+01
 -1       631 1.63177E+01
 -1       632 1.43184E+01
 -1       633 1.77666E+00
 -1       634 2.05154E+00
 -1       635 2.43072E+00
 -1       636 2.90613E+00
 -1       637 4.08197E+00
 -1       638 6.64111E+00
 -1       639 9.57929E+00
 -1       640 1.26284E+01
 -1       641 1.55457E+01
 -1       642 1.81859E+01
 -1       643 2.05452E+01
 -1       644 2.28991E+01
 -1       645 2.28991E+01
 -1       646 1.78873E+01
 -1       647 1.60418E+01
 -1       648 1.43184E+01
 -1       649 1.11696E+00
 -1       650 1.48902E+00
 -1       651 2.01551E+00
 -1       652 2.65272E+00
 -1       653 4.97991E+00
 -1       654 8.05028E+00
 -1       655 1.12034E+01
 -1       656 1.41267E+01
 -1       657 1.66369E+01
 -1       658 1.86995E+01
 -1       659 2.05452E+01
 -1       660 2.27952E+01
 -1       661 2.27952E+01
 -1       662 1.73673E+01
 -1       663 1.57027E+01
 -1       664 1.42864E+01
 -1       665 2.29871E+00
 -1       666 2.28640E+00
 -1       667 1.61851E+00
 -1       668 3.21169E+00
 -1       669 6.62858E+00
 -1       670 1.00833E+01
 -1       671 1.31416E+01
 -1       672 1.55850E+01
 -1       673 1.73937E+01
 -1       674 1.86995E+01
 -1       675 2.04291E+01
 -1       676 2.21081E+01
 -1       677 2.21081E+01
 -1       678 1.68469E+01
 -1       679 1.53443E+01
 -1       680 1.43550E+01
 -1       681 4.20552E+00
 -1       682 3.86092E+00
 -1       683 2.21539E+00
 -1       684 5.08849E+00
 -1       685 9.19402E+00
 -1       686 1.26177E+01
 -1       687 1.50923E+01
 -1       688 1.66655E+01
 -1       689 1.75426E+01
 -1       690 1.86896E+01
 -1       691 1.97096E+01
 -1       692 2.08284E+01
 -1       693 2.08284E+01
 -1       694 1.63839E+01
 -1       695 1.50016E+01
 -1       696 1.44790E+01
 -1       697 7.06595E+00
 -1       698 5.79175E+00
 -1       699 2.96358E+00
 -1       700 8.37301E+00
 -1       701 1.25793E+01
 -1       702 1.52401E+01
 -1       703 1.65722E+01
 -1       704 1.69776E+01
 -1       705 1.75426E+01
 -1       706 1.79943E+01
 -1       707 1.83450E+01
 -1       708 1.90181E+01
 -1       709 1.90181E+01
 -1       710 1.63263E+01
 -1       711 1.47115E+01
 -1       712 1.45686E+01
 -1       713 1.13653E+01
 -1       714 7.80383E+00
 -1       715 7.23318E+00
 -1       716 1.30729E+01
 -1       717 1.61816E+01
 -1       718 1.72113E+01
 -1       719 1.72113E+01
 -1       720 1.70023E+01
 -1       721 1.69776E+01
 -1       722 1.68489E+01
 -1       723 1.65381E+01
 -1       724 1.68139E+01
 -1       725 1.68139E+01
 -1       726 1.62614E+01
 -1       727 1.45092E+01
 -1       728 1.46315E+01
 -1       729 1.78180E+01
 -1       730 8.68704E+00
 -1       731 1.41617E+01
 -1       732 1.82397E+01
 -1       733 1.87503E+01
 -1       734 1.87503E+01
 -1       735 1.76227E+01
 -1       736 1.70023E+01
 -1       737 1.61840E+01
 -1       738 1.52031E+01
 -1       739 1.43805E+01
 -1       740 1.44099E+01
 -1       741 1.61069E+01
 -1       742 1.61069E+01
 -1       743 1.43508E+01
 -1       744 1.46743E+01
 -1       745 2.66743E+01
 -1       746 1.57626E+01
 -1       747 2.21194E+01
 -1       748 2.21194E+01
 -1       749 2.14323E+01
 -1       750 1.87731E+01
 -1       751 1.76227E+01
 -1       752 1.58898E+01
 -1       753 1.41448E+01
 -1       754 1.26985E+01
 -1       755 1.17323E+01
 -1       756 1.20216E+01
 -1       757 1.59141E+01
 -1       758 1.59141E+01
 -1       759 1.42158E+01
 -1       760 1.47023E+01
 -1       761 3.45044E+01
 -1       762 2.92842E+01
 -1       763 2.92842E+01
 -1       764 2.54066E+01
 -1       765 2.14323E+01
 -1       766 1.87731E+01
 -1       767 1.57456E+01
 -1       768 1.30931E+01
 -1       769 1.10482E+01
 -1       770 9.65408E+00
 -1       771 8.91727E+00
 -1       772 9.84291E+00
 -1       773 1.57221E+01
 -1       774 1.57221E+01
 -1       775 1.40999E+01
 -1       776 1.47199E+01
 -1       777 4.13705E+01
 -1       778 4.13705E+01
 -1       779 2.97700E+01
 -1       780 2.54066E+01
 -1       781 2.00559E+01
 -1       782 1.52057E+01
 -1       783 1.15638E+01
 -1       784 9.04333E+00
 -1       785 7.42953E+00
 -1       786 6.53950E+00
 -1       787 6.70421E+00
 -1       788 8.01261E+00
 -1       789 1.55558E+01
 -1       790 1.55558E+01
 -1       791 1.40106E+01
 -1       792 1.47301E+01
 -1       793 5.42047E+01
 -1       794 4.13705E+01
 -1       795 2.97700E+01
 -1       796 1.98297E+01
 -1       797 1.28806E+01
 -1       798 8.63799E+00
 -1       799 6.12838E+00
 -1       800 4.70797E+00
 -1       801 4.00235E+00
 -1       802 4.11921E+00
 -1       803 4.96106E+00
 -1       804 6.60092E+00
 -1       805 1.54276E+01
 -1       806 1.54276E+01
 -1       807 1.39497E+01
 -1       808 1.47360E+01
 -3
    1PSTEP                         6           2           1          
  100CL  102 1.000000000         807                     0    2           1
 -4  DISP        4    1
 -5  D1          1    2    1    0
 -5  D2          1    2    2    0
 -5  D3          1    2    3    0
 -5  ALL         1    2    0    0    1ALL
 -1         1 0.00000E+00 1.00574E-02 0.00000E+00
 -1         2 1.28150E-03 0.00000E+00 0.00000E+00
 -1         3-6.30884E-04 8.53761E-03 0.00000E+00
 -1         4-8.79159E-04 6.23506E-03 0.00000E+00
 -1         5-8.56655E-04 5.13791E-03 0.00000E+00
 -1         6-7.77094E-04 4.32680E-03 0.00000E+00
 -1         7-6.92883E-04 3.69177E-03 0.00000E+00
 -1         8-6.00585E-04 3.15783E-03 0.00000E+00
 -1         9-5.00490E-04 2.69508E-03 0.00000E+00
 -1        10-3.91888E-04 2.28560E-03 0.00000E+00
 -1        11-2.74480E-04 1.91899E-03 0.00000E+00
 -1        12-1.48107E-04 1.58886E-03 0.00000E+00
 -1        13-1.28915E-05 1.29144E-03 0.00000E+00
 -1        14 1.30676E-04 1.02471E-03 0.00000E+00
 -1        15 2.81588E-04 7.87926E-04 0.00000E+00
 -1        16 4.38149E-04 5.81233E-04 0.00000E+00
 -1        17 5.97743E-04 4.05375E-04 0.00000E+00
 -1        18 7.56569E-04 2.61360E-04 0.00000E+00
 -1        19 9.09320E-04 1.50029E-04 0.00000E+00
 -1        20 1.04884E-03 7.14675E-05 0.00000E+00
 -1        21 1.16578E-03 2.41129E-05 0.00000E+00
 -1        22 1.24850E-03 3.61561E-06 0.00000E+00
 -1        23 1.28074E-03 0.00000E+00 0.00000E+00
 -1        24 1.27915E-03 0.00000E+00 0.00000E+00
 -1        25 1.27635E-03 0.00000E+00 0.00000E+00
 -1        26 1.27183E-03 0.00000E+00 0.00000E+00
 -1        27 1.26492E-03 0.00000E+00 0.00000E+00
 -1        28 1.25466E-03 0.00000E+00 0.00000E+00
 -1        29 1.23973E-03 0.00000E+00 0.00000E+00
 -1        30 1.21832E-03 0.00000E+00 0.00000E+00
 -1        31 1.18795E-03 0.00000E+00 0.00000E+00
 -1        32 1.14523E-03 0.00000E+00 0.00000E+00
 -1        33 1.08567E-03 0.00000E+00 0.00000E+00
 -1        34 1.00344E-03 0.00000E+00 0.00000E+00
 -1        35 8.91440E-04 0.00000E+00 0.00000E+00
 -1        36 7.41690E-04 0.00000E+00 0.00000E+00
 -1        37 5.46737E-04 0.00000E+00 0.00000E+00
 -1        38 3.01396E-04 0.00000E+00 0.00000E+00
 -1        39 0.00000E+00 0.00000E+00 0.00000E+00
 -1        40 0.00000E+00 8.67715E-03 0.00000E+00
 -1        41 0.00000E+00 7.48007E-03 0.00000E+00
 -1        42 0.00000E+00 6.56031E-03 0.00000E+00
 -1        43 0.00000E+00 5.81814E-03 0.00000E+00
 -1        44 0.00000E+00 5.19044E-03 0.00000E+00
 -1        45 0.00000E+00 4.63958E-03 0.00000E+00
 -1        46 0.00000E+00 4.14245E-03 0.00000E+00
 -1        47 0.00000E+00 3.68382E-03 0.00000E+00
 -1        48 0.00000E+00 3.25298E-03 0.00000E+00
 -1        49 0.00000E+00 2.84189E-03 0.00000E+00
 -1        50 0.00000E+00 2.44408E-03 0.00000E+00
 -1        51 0.00000E+00 2.05393E-03 0.00000E+00
 -1        52 0.00000E+00 1.66614E-03 0.00000E+00
 -1        53 0.00000E+00 1.27523E-03 0.00000E+00
 -1        54 0.00000E+00 8.74981E-04 0.00000E+00
 -1        55 0.00000E+00 4.57013E-04 0.00000E+00
 -1        56 2.28251E-04 7.92118E-03 0.00000E+00
 -1        57 2.72106E-04 7.14100E-03 0.00000E+00
 -1        58 2.31850E-04 6.39191E-03 0.00000E+00
 -1        59 1.86832E-04 5.72740E-03 0.00000E+00
 -1        60 1.50501E-04 5.13824E-03 0.00000E+00
 -1        61 1.22332E-04 4.60819E-03 0.00000E+00
 -1        62 1.00358E-04 4.12301E-03 0.00000E+00
 -1        63 8.28714E-05 3.67156E-03 0.00000E+00
 -1        64 6.86241E-05 3.24518E-03 0.00000E+00
 -1        65 5.67271E-05 2.83693E-03 0.00000E+00
 -1        66 4.65404E-05 2.44095E-03 0.00000E+00
 -1        67 3.75906E-05 2.05199E-03 0.00000E+00
 -1        68 2.95122E-05 1.66498E-03 0.00000E+00
 -1        69 2.20063E-05 1.27457E-03 0.00000E+00
 -1        70 1.48086E-05 8.74632E-04 0.00000E+00
 -1        71 7.62213E-06 4.56865E-04 0.00000E+00
 -1        72 8.58407E-05 6.39717E-03 0.00000E+00
 -1        73 3.65792E-04 6.27393E-03 0.00000E+00
 -1        74 3.88854E-04 5.90746E-03 0.00000E+00
 -1        75 3.46436E-04 5.44873E-03 0.00000E+00
 -1        76 2.93563E-04 4.97223E-03 0.00000E+00
 -1        77 2.45354E-04 4.50630E-03 0.00000E+00
 -1        78 2.04526E-04 4.05911E-03 0.00000E+00
 -1        79 1.70503E-04 3.63094E-03 0.00000E+00
 -1        80 1.42010E-04 3.21921E-03 0.00000E+00
 -1        81 1.17811E-04 2.82036E-03 0.00000E+00
 -1        82 9.68705E-05 2.43048E-03 0.00000E+00
 -1        83 7.83503E-05 2.04550E-03 0.00000E+00
 -1        84 6.15648E-05 1.66108E-03 0.00000E+00
 -1        85 4.59306E-05 1.27234E-03 0.00000E+00
 -1        86 3.09170E-05 8.73458E-04 0.00000E+00
 -1        87 1.59159E-05 4.56369E-04 0.00000E+00
 -1        88-1.73343E-04 5.22475E-03 0.00000E+00
 -1        89 2.63187E-04 5.30888E-03 0.00000E+00
 -1        90 4.24213E-04 5.23528E-03 0.00000E+00
 -1        91 4.44236E-04 5.00912E-03 0.00000E+00
 -1        92 4.09705E-04 4.69003E-03 0.00000E+00
 -1        93 3.59246E-04 4.32522E-03 0.00000E+00
 -1        94 3.08083E-04 3.94237E-03 0.00000E+00
 -1        95 2.61294E-04 3.55541E-03 0.00000E+00
 -1        96 2.19956E-04 3.17036E-03 0.00000E+00
 -1        97 1.83690E-04 2.78895E-03 0.00000E+00
 -1        98 1.51670E-04 2.41053E-03 0.00000E+00
 -1        99 1.22992E-04 2.03310E-03 0.00000E+00
 -1       100 9.67986E-05 1.65360E-03 0.00000E+00
 -1       101 7.22872E-05 1.26805E-03 0.00000E+00
 -1       102 4.86855E-05 8.71201E-04 0.00000E+00
 -1       103 2.50711E-05 4.55413E-04 0.00000E+00
 -1       104-2.88899E-04 4.40836E-03 0.00000E+00
 -1       105 1.17370E-04 4.50290E-03 0.00000E+00
 -1       106 3.67770E-04 4.54753E-03 0.00000E+00
 -1       107 4.70419E-04 4.48577E-03 0.00000E+00
 -1       108 4.83150E-04 4.31743E-03 0.00000E+00
 -1       109 4.51891E-04 4.06932E-03 0.00000E+00
 -1       110 4.03342E-04 3.76994E-03 0.00000E+00
 -1       111 3.50795E-04 3.44057E-03 0.00000E+00
 -1       112 3.00042E-04 3.09464E-03 0.00000E+00
 -1       113 2.53126E-04 2.73961E-03 0.00000E+00
 -1       114 2.10353E-04 2.37891E-03 0.00000E+00
 -1       115 1.71276E-04 2.01331E-03 0.00000E+00
 -1       116 1.35142E-04 1.64163E-03 0.00000E+00
 -1       117 1.01077E-04 1.26116E-03 0.00000E+00
 -1       118 6.81363E-05 8.67565E-04 0.00000E+00
 -1       119 3.51053E-05 4.53871E-04 0.00000E+00
 -1       120-3.23370E-04 3.76200E-03 0.00000E+00
 -1       121 1.98661E-05 3.85162E-03 0.00000E+00
 -1       122 2.86426E-04 3.92898E-03 0.00000E+00
 -1       123 4.46971E-04 3.95252E-03 0.00000E+00
 -1       124 5.13578E-04 3.89506E-03 0.00000E+00
 -1       125 5.16640E-04 3.75471E-03 0.00000E+00
 -1       126 4.83986E-04 3.54526E-03 0.00000E+00
 -1       127 4.34660E-04 3.28473E-03 0.00000E+00
 -1       128 3.79728E-04 2.98895E-03 0.00000E+00
 -1       129 3.24827E-04 2.66939E-03 0.00000E+00
 -1       130 2.72382E-04 2.33330E-03 0.00000E+00
 -1       131 2.23068E-04 1.98448E-03 0.00000E+00
 -1       132 1.76651E-04 1.62406E-03 0.00000E+00
 -1       133 1.32420E-04 1.25100E-03 0.00000E+00
 -1       134 8.93807E-05 8.62185E-04 0.00000E+00
 -1       135 4.60854E-05 4.51584E-04 0.00000E+00
 -1       136-3.11166E-04 3.22323E-03 0.00000E+00
 -1       137-2.72762E-05 3.30477E-03 0.00000E+00
 -1       138 2.22103E-04 3.38923E-03 0.00000E+00
 -1       139 4.05925E-04 3.45024E-03 0.00000E+00
 -1       140 5.13629E-04 3.46090E-03 0.00000E+00
 -1       141 5.54235E-04 3.40443E-03 0.00000E+00
 -1       142 5.46484E-04 3.27823E-03 0.00000E+00
 -1       143 5.09078E-04 3.09007E-03 0.00000E+00
 -1       144 4.56244E-04 2.85202E-03 0.00000E+00
 -1       145 3.97151E-04 2.57600E-03 0.00000E+00
 -1       146 3.36948E-04 2.27147E-03 0.00000E+00
 -1       147 2.78074E-04 1.94488E-03 0.00000E+00
 -1       148 2.21300E-04 1.59969E-03 0.00000E+00
 -1       149 1.66399E-04 1.23680E-03 0.00000E+00
 -1       150 1.12519E-04 8.54627E-04 0.00000E+00
 -1       151 5.80760E-05 4.48360E-04 0.00000E+00
 -1       152-2.68501E-04 2.75706E-03 0.00000E+00
 -1       153-3.40179E-05 2.83251E-03 0.00000E+00
 -1       154 1.86945E-04 2.91568E-03 0.00000E+00
 -1       155 3.70653E-04 2.99144E-03 0.00000E+00
 -1       156 5.00537E-04 3.03958E-03 0.00000E+00
 -1       157 5.71836E-04 3.04079E-03 0.00000E+00
 -1       158 5.91280E-04 2.98280E-03 0.00000E+00
 -1       159 5.71824E-04 2.86267E-03 0.00000E+00
 -1       160 5.27114E-04 2.68499E-03 0.00000E+00
 -1       161 4.68283E-04 2.45824E-03 0.00000E+00
 -1       162 4.02997E-04 2.19158E-03 0.00000E+00
 -1       163 3.35813E-04 1.89276E-03 0.00000E+00
 -1       164 2.68956E-04 1.56720E-03 0.00000E+00
 -1       165 2.03048E-04 1.21768E-03 0.00000E+00
 -1       166 1.37630E-04 8.44376E-04 0.00000E+00
 -1       167 7.11367E-05 4.43967E-04 0.00000E+00
 -1       168-2.03333E-04 2.34515E-03 0.00000E+00
 -1       169-9.27288E-06 2.41588E-03 0.00000E+00
 -1       170 1.81599E-04 2.49566E-03 0.00000E+00
 -1       171 3.52709E-04 2.57585E-03 0.00000E+00
 -1       172 4.88810E-04 2.64296E-03 0.00000E+00
 -1       173 5.79498E-04 2.68051E-03 0.00000E+00
 -1       174 6.22433E-04 2.67331E-03 0.00000E+00
 -1       175 6.22921E-04 2.61138E-03 0.00000E+00
 -1       176 5.90735E-04 2.49155E-03 0.00000E+00
 -1       177 5.36514E-04 2.31651E-03 0.00000E+00
 -1       178 4.69316E-04 2.09247E-03 0.00000E+00
 -1       179 3.95624E-04 1.82661E-03 0.00000E+00
 -1       180 3.19357E-04 1.52522E-03 0.00000E+00
 -1       181 2.42330E-04 1.19266E-03 0.00000E+00
 -1       182 1.64764E-04 8.30829E-04 0.00000E+00
 -1       183 8.53170E-05 4.38124E-04 0.00000E+00
 -1       184-1.20030E-04 1.97648E-03 0.00000E+00
 -1       185 4.07377E-05 2.04343E-03 0.00000E+00
 -1       186 2.03245E-04 2.11945E-03 0.00000E+00
 -1       187 3.56241E-04 2.19958E-03 0.00000E+00
 -1       188 4.87771E-04 2.27523E-03 0.00000E+00
 -1       189 5.86739E-04 2.33407E-03 0.00000E+00
 -1       190 6.46059E-04 2.36195E-03 0.00000E+00
 -1       191 6.64593E-04 2.34599E-03 0.00000E+00
 -1       192 6.46799E-04 2.27744E-03 0.00000E+00
 -1       193 6.00581E-04 2.15295E-03 0.00000E+00
 -1       194 5.34679E-04 1.97402E-03 0.00000E+00
 -1       195 4.56690E-04 1.74528E-03 0.00000E+00
 -1       196 3.72101E-04 1.47247E-03 0.00000E+00
 -1       197 2.84118E-04 1.16069E-03 0.00000E+00
 -1       198 1.93926E-04 8.13296E-04 0.00000E+00
 -1       199 1.00651E-04 4.30497E-04 0.00000E+00
 -1       200-2.12781E-05 1.64439E-03 0.00000E+00
 -1       201 1.11698E-04 1.70809E-03 0.00000E+00
 -1       202 2.48543E-04 1.78040E-03 0.00000E+00
 -1       203 3.81657E-04 1.85846E-03 0.00000E+00
 -1       204 5.02274E-04 1.93694E-03 0.00000E+00
 -1       205 6.00740E-04 2.00721E-03 0.00000E+00
 -1       206 6.68545E-04 2.05771E-03 0.00000E+00
 -1       207 7.00566E-04 2.07568E-03 0.00000E+00
 -1       208 6.96372E-04 2.04957E-03 0.00000E+00
 -1       209 6.59941E-04 1.97128E-03 0.00000E+00
 -1       210 5.98030E-04 1.83729E-03 0.00000E+00
 -1       211 5.18102E-04 1.64828E-03 0.00000E+00
 -1       212 4.26636E-04 1.40785E-03 0.00000E+00
 -1       213 3.28176E-04 1.12068E-03 0.00000E+00
 -1       214 2.25060E-04 7.90998E-04 0.00000E+00
 -1       215 1.17148E-04 4.20692E-04 0.00000E+00
 -1       216 9.10057E-05 1.34490E-03 0.00000E+00
 -1       217 2.00434E-04 1.40554E-03 0.00000E+00
 -1       218 3.14384E-04 1.47421E-03 0.00000E+00
 -1       219 4.27692E-04 1.54922E-03 0.00000E+00
 -1       220 5.34121E-04 1.62736E-03 0.00000E+00
 -1       221 6.26001E-04 1.70277E-03 0.00000E+00
 -1       222 6.95261E-04 1.76673E-03 0.00000E+00
 -1       223 7.35080E-04 1.80813E-03 0.00000E+00
 -1       224 7.41599E-04 1.81495E-03 0.00000E+00
 -1       225 7.14886E-04 1.77635E-03 0.00000E+00
 -1       226 6.58665E-04 1.68457E-03 0.00000E+00
 -1       227 5.78954E-04 1.53592E-03 0.00000E+00
 -1       228 4.82281E-04 1.33061E-03 0.00000E+00
 -1       229 3.74135E-04 1.07161E-03 0.00000E+00
 -1       230 2.58028E-04 7.63088E-04 0.00000E+00
 -1       231 1.34783E-04 4.08249E-04 0.00000E+00
 -1       232 2.15142E-04 1.07587E-03 0.00000E+00
 -1       233 3.04335E-04 1.13340E-03 0.00000E+00
 -1       234 3.97918E-04 1.19834E-03 0.00000E+00
 -1       235 4.92342E-04 1.26970E-03 0.00000E+00
 -1       236 5.83215E-04 1.34558E-03 0.00000E+00
 -1       237 6.64712E-04 1.42211E-03 0.00000E+00
 -1       238 7.29962E-04 1.49301E-03 0.00000E+00
 -1       239 7.71996E-04 1.54933E-03 0.00000E+00
 -1       240 7.85147E-04 1.58007E-03 0.00000E+00
 -1       241 7.66438E-04 1.57352E-03 0.00000E+00
 -1       242 7.16333E-04 1.51917E-03 0.00000E+00
 -1       243 6.38437E-04 1.40940E-03 0.00000E+00
 -1       244 5.38247E-04 1.24050E-03 0.00000E+00
 -1       245 4.21480E-04 1.01258E-03 0.00000E+00
 -1       246 2.92588E-04 7.28667E-04 0.00000E+00
 -1       247 1.53482E-04 3.92637E-04 0.00000E+00
 -1       248 3.49324E-04 8.36411E-04 0.00000E+00
 -1       249 4.20919E-04 8.90570E-04 0.00000E+00
 -1       250 4.96362E-04 9.51529E-04 0.00000E+00
 -1       251 5.73171E-04 1.01871E-03 0.00000E+00
 -1       252 6.48248E-04 1.09102E-03 0.00000E+00
 -1       253 7.17256E-04 1.16597E-03 0.00000E+00
 -1       254 7.74668E-04 1.23915E-03 0.00000E+00
 -1       255 8.14177E-04 1.30374E-03 0.00000E+00
 -1       256 8.29586E-04 1.35045E-03 0.00000E+00
 -1       257 8.16041E-04 1.36811E-03 0.00000E+00
 -1       258 7.71220E-04 1.34501E-03 0.00000E+00
 -1       259 6.95918E-04 1.27073E-03 0.00000E+00
 -1       260 5.93679E-04 1.13783E-03 0.00000E+00
 -1       261 4.69540E-04 9.42924E-04 0.00000E+00
 -1       262 3.28366E-04 6.86829E-04 0.00000E+00
 -1       263 1.73103E-04 3.73256E-04 0.00000E+00
 -1       264 4.91315E-04 6.26551E-04 0.00000E+00
 -1       265 5.47473E-04 6.76924E-04 0.00000E+00
 -1       266 6.06732E-04 7.33471E-04 0.00000E+00
 -1       267 6.67320E-04 7.95870E-04 0.00000E+00
 -1       268 7.27020E-04 8.63525E-04 0.00000E+00
 -1       269 7.82616E-04 9.34881E-04 0.00000E+00
 -1       270 8.29782E-04 1.00692E-03 0.00000E+00
 -1       271 8.63170E-04 1.07463E-03 0.00000E+00
 -1       272 8.76848E-04 1.13059E-03 0.00000E+00
 -1       273 8.65145E-04 1.16500E-03 0.00000E+00
 -1       274 8.23791E-04 1.16629E-03 0.00000E+00
 -1       275 7.50955E-04 1.12258E-03 0.00000E+00
 -1       276 6.47697E-04 1.02355E-03 0.00000E+00
 -1       277 5.17480E-04 8.62290E-04 0.00000E+00
 -1       278 3.64826E-04 6.36710E-04 0.00000E+00
 -1       279 1.93414E-04 3.49444E-04 0.00000E+00
 -1       280 6.38147E-04 4.46920E-04 0.00000E+00
 -1       281 6.80712E-04 4.92927E-04 0.00000E+00
 -1       282 7.25547E-04 5.44458E-04 0.00000E+00
 -1       283 7.71351E-04 6.01344E-04 0.00000E+00
 -1       284 8.16498E-04 6.63308E-04 0.00000E+00
 -1       285 8.58580E-04 7.29400E-04 0.00000E+00
 -1       286 8.94236E-04 7.97605E-04 0.00000E+00
 -1       287 9.19081E-04 8.64343E-04 0.00000E+00
 -1       288 9.27830E-04 9.23952E-04 0.00000E+00
 -1       289 9.14754E-04 9.68322E-04 0.00000E+00
 -1       290 8.74510E-04 9.86984E-04 0.00000E+00
 -1       291 8.03219E-04 9.67900E-04 0.00000E+00
 -1       292 6.99403E-04 8.99062E-04 0.00000E+00
 -1       293 5.64301E-04 7.70679E-04 0.00000E+00
 -1       294 4.01239E-04 5.77539E-04 0.00000E+00
 -1       295 2.14065E-04 3.20495E-04 0.00000E+00
 -1       296 7.85814E-04 2.98409E-04 0.00000E+00
 -1       297 8.16449E-04 3.39319E-04 0.00000E+00
 -1       298 8.48511E-04 3.85061E-04 0.00000E+00
 -1       299 8.81016E-04 4.35556E-04 0.00000E+00
 -1       300 9.12724E-04 4.90716E-04 0.00000E+00
 -1       301 9.41789E-04 5.49992E-04 0.00000E+00
 -1       302 9.65581E-04 6.12069E-04 0.00000E+00
 -1       303 9.80547E-04 6.74462E-04 0.00000E+00
 -1       304 9.82151E-04 7.33000E-04 0.00000E+00
 -1       305 9.65037E-04 7.81323E-04 0.00000E+00
 -1       306 9.23502E-04 8.10574E-04 0.00000E+00
 -1       307 8.52334E-04 8.09618E-04 0.00000E+00
 -1       308 7.47865E-04 7.66085E-04 0.00000E+00
 -1       309 6.08842E-04 6.68402E-04 0.00000E+00
 -1       310 4.36656E-04 5.08684E-04 0.00000E+00
 -1       311 2.34550E-04 2.85680E-04 0.00000E+00
 -1       312 9.28936E-04 1.81745E-04 0.00000E+00
 -1       313 9.49243E-04 2.16692E-04 0.00000E+00
 -1       314 9.70179E-04 2.55711E-04 0.00000E+00
 -1       315 9.90967E-04 2.98776E-04 0.00000E+00
 -1       316 1.01061E-03 3.45905E-04 0.00000E+00
 -1       317 1.02765E-03 3.96802E-04 0.00000E+00
 -1       318 1.03999E-03 4.50641E-04 0.00000E+00
 -1       319 1.04471E-03 5.05747E-04 0.00000E+00
 -1       320 1.03800E-03 5.59165E-04 0.00000E+00
 -1       321 1.01503E-03 6.06145E-04 0.00000E+00
 -1       322 9.70202E-04 6.39662E-04 0.00000E+00
 -1       323 8.97632E-04 6.50215E-04 0.00000E+00
 -1       324 7.92024E-04 6.26300E-04 0.00000E+00
 -1       325 6.49769E-04 5.55958E-04 0.00000E+00
 -1       326 4.69875E-04 4.29665E-04 0.00000E+00
 -1       327 2.54171E-04 2.44292E-04 0.00000E+00
 -1       328 1.06040E-03 9.69081E-05 0.00000E+00
 -1       329 1.07205E-03 1.24900E-04 0.00000E+00
 -1       330 1.08361E-03 1.56117E-04 0.00000E+00
 -1       331 1.09445E-03 1.90560E-04 0.00000E+00
 -1       332 1.10372E-03 2.28297E-04 0.00000E+00
 -1       333 1.11021E-03 2.69188E-04 0.00000E+00
 -1       334 1.11217E-03 3.12740E-04 0.00000E+00
 -1       335 1.10721E-03 3.57873E-04 0.00000E+00
 -1       336 1.09204E-03 4.02594E-04 0.00000E+00
 -1       337 1.06242E-03 4.43565E-04 0.00000E+00
 -1       338 1.01307E-03 4.75601E-04 0.00000E+00
 -1       339 9.37886E-04 4.91281E-04 0.00000E+00
 -1       340 8.30557E-04 4.80976E-04 0.00000E+00
 -1       341 6.85543E-04 4.33818E-04 0.00000E+00
 -1       342 4.99431E-04 3.40132E-04 0.00000E+00
 -1       343 2.72001E-04 1.95698E-04 0.00000E+00
 -1       344 1.17104E-03 4.22753E-05 0.00000E+00
 -1       345 1.17589E-03 6.22088E-05 0.00000E+00
 -1       346 1.18006E-03 8.44166E-05 0.00000E+00
 -1       347 1.18300E-03 1.08919E-04 0.00000E+00
 -1       348 1.18398E-03 1.35790E-04 0.00000E+00
 -1       349 1.18191E-03 1.64979E-04 0.00000E+00
 -1       350 1.17532E-03 1.96212E-04 0.00000E+00
 -1       351 1.16210E-03 2.28848E-04 0.00000E+00
 -1       352 1.13943E-03 2.61659E-04 0.00000E+00
 -1       353 1.10350E-03 2.92515E-04 0.00000E+00
 -1       354 1.04939E-03 3.17994E-04 0.00000E+00
 -1       355 9.71070E-04 3.32982E-04 0.00000E+00
 -1       356 8.61690E-04 3.30492E-04 0.00000E+00
 -1       357 7.14350E-04 3.02130E-04 0.00000E+00
 -1       358 5.23562E-04 2.39805E-04 0.00000E+00
 -1       359 2.86849E-04 1.39411E-04 0.00000E+00
 -1       360 1.24943E-03 1.32498E-05 0.00000E+00
 -1       361 1.24964E-03 2.38878E-05 0.00000E+00
 -1       362 1.24879E-03 3.57794E-05 0.00000E+00
 -1       363 1.24636E-03 4.89263E-05 0.00000E+00
 -1       364 1.24167E-03 6.33681E-05 0.00000E+00
 -1       365 1.23372E-03 7.90863E-05 0.00000E+00
 -1       366 1.22116E-03 9.59564E-05 0.00000E+00
 -1       367 1.20210E-03 1.13674E-04 0.00000E+00
 -1       368 1.17395E-03 1.31641E-04 0.00000E+00
 -1       369 1.13322E-03 1.48799E-04 0.00000E+00
 -1       370 1.07529E-03 1.63408E-04 0.00000E+00
 -1       371 9.94272E-04 1.72795E-04 0.00000E+00
 -1       372 8.83082E-04 1.73183E-04 0.00000E+00
 -1       373 7.34031E-04 1.59844E-04 0.00000E+00
 -1       374 5.40213E-04 1.27984E-04 0.00000E+00
 -1       375 2.97265E-04 7.49645E-05 0.00000E+00
 -1       376-6.53196E-03 4.47006E-02 0.00000E+00
 -1       377 0.00000E+00 1.02032E-02 0.00000E+00
 -1       378 0.00000E+00 2.02702E-02 0.00000E+00
 -1       379 8.07344E-03 4.51621E-02 0.00000E+00
 -1       381-6.53029E-03 4.16773E-02 0.00000E+00
 -1       382-6.50597E-03 3.88498E-02 0.00000E+00
 -1       383-6.42713E-03 3.62459E-02 0.00000E+00
 -1       384-6.28286E-03 3.38711E-02 0.00000E+00
 -1       385-6.07561E-03 3.17280E-02 0.00000E+00
 -1       386-5.81399E-03 2.98126E-02 0.00000E+00
 -1       387-5.50945E-03 2.81142E-02 0.00000E+00
 -1       388-5.17432E-03 2.66176E-02 0.00000E+00
 -1       389-4.82046E-03 2.53036E-02 0.00000E+00
 -1       390-4.45844E-03 2.41509E-02 0.00000E+00
 -1       391-4.09714E-03 2.31370E-02 0.00000E+00
 -1       392-3.74358E-03 2.22395E-02 0.00000E+00
 -1       393-3.40301E-03 2.14363E-02 0.00000E+00
 -1       394-3.07908E-03 2.07058E-02 0.00000E+00
 -1       395-2.77408E-03 2.00268E-02 0.00000E+00
 -1       396-2.48924E-03 1.93778E-02 0.00000E+00
 -1       397-2.22494E-03 1.87355E-02 0.00000E+00
 -1       398-1.98093E-03 1.80718E-02 0.00000E+00
 -1       399-1.75643E-03 1.73477E-02 0.00000E+00
 -1       400-1.54908E-03 1.64951E-02 0.00000E+00
 -1       401-1.33553E-03 1.53709E-02 0.00000E+00
 -1       402-8.96601E-04 1.34747E-02 0.00000E+00
 -1       403 0.00000E+00 1.23945E-02 0.00000E+00
 -1       404 0.00000E+00 1.37746E-02 0.00000E+00
 -1       405 0.00000E+00 1.46743E-02 0.00000E+00
 -1       406 0.00000E+00 1.53536E-02 0.00000E+00
 -1       407 0.00000E+00 1.59031E-02 0.00000E+00
 -1       408 0.00000E+00 1.63687E-02 0.00000E+00
 -1       409 0.00000E+00 1.67765E-02 0.00000E+00
 -1       410 0.00000E+00 1.71430E-02 0.00000E+00
 -1       411 0.00000E+00 1.74800E-02 0.00000E+00
 -1       412 0.00000E+00 1.77961E-02 0.00000E+00
 -1       413 0.00000E+00 1.80988E-02 0.00000E+00
 -1       414 0.00000E+00 1.83952E-02 0.00000E+00
 -1       415 0.00000E+00 1.86933E-02 0.00000E+00
 -1       416 0.00000E+00 1.90040E-02 0.00000E+00
 -1       417 0.00000E+00 1.93440E-02 0.00000E+00
 -1       418 0.00000E+00 1.97428E-02 0.00000E+00
 -1       419 2.52629E-04 2.02786E-02 0.00000E+00
 -1       420 5.30549E-04 2.03072E-02 0.00000E+00
 -1       421 8.34262E-04 2.03618E-02 0.00000E+00
 -1       422 1.16545E-03 2.04497E-02 0.00000E+00
 -1       423 1.52495E-03 2.05794E-02 0.00000E+00
 -1       424 1.91297E-03 2.07610E-02 0.00000E+00
 -1       425 2.32883E-03 2.10061E-02 0.00000E+00
 -1       426 2.77074E-03 2.13277E-02 0.00000E+00
 -1       427 3.23557E-03 2.17405E-02 0.00000E+00
 -1       428 3.71871E-03 2.22601E-02 0.00000E+00
 -1       429 4.21396E-03 2.29026E-02 0.00000E+00
 -1       430 4.71368E-03 2.36848E-02 0.00000E+00
 -1       431 5.20903E-03 2.46229E-02 0.00000E+00
 -1       432 5.69034E-03 2.57327E-02 0.00000E+00
 -1       433 6.14762E-03 2.70286E-02 0.00000E+00
 -1       434 6.57094E-03 2.85242E-02 0.00000E+00
 -1       435 6.95088E-03 3.02309E-02 0.00000E+00
 -1       436 7.27887E-03 3.21584E-02 0.00000E+00
 -1       437 7.54793E-03 3.43128E-02 0.00000E+00
 -1       438 7.75385E-03 3.66960E-02 0.00000E+00
 -1       439 7.89805E-03 3.93052E-02 0.00000E+00
 -1       440 7.99407E-03 4.21359E-02 0.00000E+00
 -1       441 6.37111E-03 4.50561E-02 0.00000E+00
 -1       442 4.87069E-03 4.49632E-02 0.00000E+00
 -1       443 3.51800E-03 4.48855E-02 0.00000E+00
 -1       444 2.29434E-03 4.48246E-02 0.00000E+00
 -1       445 1.18427E-03 4.47794E-02 0.00000E+00
 -1       446 1.74396E-04 4.47476E-02 0.00000E+00
 -1       447-7.46426E-04 4.47265E-02 0.00000E+00
 -1       448-1.58737E-03 4.47133E-02 0.00000E+00
 -1       449-2.35603E-03 4.47057E-02 0.00000E+00
 -1       450-3.05884E-03 4.47017E-02 0.00000E+00
 -1       451-3.70132E-03 4.47001E-02 0.00000E+00
 -1       452-4.28834E-03 4.46998E-02 0.00000E+00
 -1       453-4.82429E-03 4.47000E-02 0.00000E+00
 -1       454-5.31316E-03 4.47004E-02 0.00000E+00
 -1       455-5.75866E-03 4.47007E-02 0.00000E+00
 -1       456-6.16168E-03 4.47008E-02 0.00000E+00
 -1       457-6.15670E-03 4.16770E-02 0.00000E+00
 -1       458-5.75125E-03 4.16766E-02 0.00000E+00
 -1       459-5.30429E-03 4.16763E-02 0.00000E+00
 -1       460-4.81508E-03 4.16764E-02 0.00000E+00
 -1       461-4.28007E-03 4.16772E-02 0.00000E+00
 -1       462-3.69540E-03 4.16793E-02 0.00000E+00
 -1       463-3.05684E-03 4.16832E-02 0.00000E+00
 -1       464-2.35967E-03 4.16899E-02 0.00000E+00
 -1       465-1.59846E-03 4.17004E-02 0.00000E+00
 -1       466-7.66827E-04 4.17162E-02 0.00000E+00
 -1       467 1.42926E-04 4.17388E-02 0.00000E+00
 -1       468 1.14026E-03 4.17703E-02 0.00000E+00
 -1       469 2.23695E-03 4.18131E-02 0.00000E+00
 -1       470 3.44750E-03 4.18694E-02 0.00000E+00
 -1       471 4.78929E-03 4.19413E-02 0.00000E+00
 -1       472 6.28440E-03 4.20300E-02 0.00000E+00
 -1       473-6.12657E-03 3.88470E-02 0.00000E+00
 -1       474-5.71698E-03 3.88438E-02 0.00000E+00
 -1       475-5.26765E-03 3.88403E-02 0.00000E+00
 -1       476-4.77800E-03 3.88368E-02 0.00000E+00
 -1       477-4.24464E-03 3.88338E-02 0.00000E+00
 -1       478-3.66385E-03 3.88317E-02 0.00000E+00
 -1       479-3.03153E-03 3.88314E-02 0.00000E+00
 -1       480-2.34303E-03 3.88340E-02 0.00000E+00
 -1       481-1.59301E-03 3.88407E-02 0.00000E+00
 -1       482-7.75089E-04 3.88533E-02 0.00000E+00
 -1       483 1.18539E-04 3.88738E-02 0.00000E+00
 -1       484 1.09763E-03 3.89048E-02 0.00000E+00
 -1       485 2.17458E-03 3.89489E-02 0.00000E+00
 -1       486 3.36522E-03 3.90093E-02 0.00000E+00
 -1       487 4.68959E-03 3.90885E-02 0.00000E+00
 -1       488 6.17534E-03 3.91875E-02 0.00000E+00
 -1       489-6.04470E-03 3.62388E-02 0.00000E+00
 -1       490-5.63341E-03 3.62311E-02 0.00000E+00
 -1       491-5.18401E-03 3.62229E-02 0.00000E+00
 -1       492-4.69633E-03 3.62145E-02 0.00000E+00
 -1       493-4.16731E-03 3.62062E-02 0.00000E+00
 -1       494-3.59357E-03 3.61989E-02 0.00000E+00
 -1       495-2.97133E-03 3.61932E-02 0.00000E+00
 -1       496-2.29622E-03 3.61905E-02 0.00000E+00
 -1       497-1.56310E-03 3.61923E-02 0.00000E+00
 -1       498-7.65698E-04 3.62008E-02 0.00000E+00
 -1       499 1.03821E-04 3.62184E-02 0.00000E+00
 -1       500 1.05556E-03 3.62483E-02 0.00000E+00
 -1       501 2.10276E-03 3.62940E-02 0.00000E+00
 -1       502 3.26306E-03 3.63592E-02 0.00000E+00
 -1       503 4.55999E-03 3.64473E-02 0.00000E+00
 -1       504 6.02780E-03 3.65595E-02 0.00000E+00
 -1       505-5.90144E-03 3.38586E-02 0.00000E+00
 -1       506-5.49252E-03 3.38454E-02 0.00000E+00
 -1       507-5.04720E-03 3.38314E-02 0.00000E+00
 -1       508-4.56565E-03 3.38170E-02 0.00000E+00
 -1       509-4.04521E-03 3.38027E-02 0.00000E+00
 -1       510-3.48296E-03 3.37892E-02 0.00000E+00
 -1       511-2.87553E-03 3.37774E-02 0.00000E+00
 -1       512-2.21900E-03 3.37687E-02 0.00000E+00
 -1       513-1.50863E-03 3.37649E-02 0.00000E+00
 -1       514-7.38443E-04 3.37686E-02 0.00000E+00
 -1       515 9.92834E-05 3.37826E-02 0.00000E+00
 -1       516 1.01488E-03 3.38108E-02 0.00000E+00
 -1       517 2.02242E-03 3.38575E-02 0.00000E+00
 -1       518 3.14140E-03 3.39274E-02 0.00000E+00
 -1       519 4.39892E-03 3.40250E-02 0.00000E+00
 -1       520 5.83535E-03 3.41527E-02 0.00000E+00
 -1       521-5.69901E-03 3.17097E-02 0.00000E+00
 -1       522-5.29635E-03 3.16903E-02 0.00000E+00
 -1       523-4.85912E-03 3.16700E-02 0.00000E+00
 -1       524-4.38783E-03 3.16490E-02 0.00000E+00
 -1       525-3.88022E-03 3.16279E-02 0.00000E+00
 -1       526-3.33382E-03 3.16075E-02 0.00000E+00
 -1       527-2.74579E-03 3.15889E-02 0.00000E+00
 -1       528-2.11276E-03 3.15735E-02 0.00000E+00
 -1       529-1.43053E-03 3.15634E-02 0.00000E+00
 -1       530-6.93618E-04 3.15615E-02 0.00000E+00
 -1       531 1.05379E-04 3.15712E-02 0.00000E+00
 -1       532 9.76796E-04 3.15970E-02 0.00000E+00
 -1       533 1.93534E-03 3.16443E-02 0.00000E+00
 -1       534 3.00214E-03 3.17188E-02 0.00000E+00
 -1       535 4.20758E-03 3.18264E-02 0.00000E+00
 -1       536 5.59775E-03 3.19714E-02 0.00000E+00
 -1       537-5.44540E-03 2.97881E-02 0.00000E+00
 -1       538-5.05221E-03 2.97625E-02 0.00000E+00
 -1       539-4.62638E-03 2.97354E-02 0.00000E+00
 -1       540-4.16869E-03 2.97076E-02 0.00000E+00
 -1       541-3.67734E-03 2.96794E-02 0.00000E+00
 -1       542-3.15036E-03 2.96517E-02 0.00000E+00
 -1       543-2.58549E-03 2.96257E-02 0.00000E+00
 -1       544-1.98002E-03 2.96031E-02 0.00000E+00
 -1       545-1.33045E-03 2.95861E-02 0.00000E+00
 -1       546-6.31972E-04 2.95780E-02 0.00000E+00
 -1       547 1.22277E-04 2.95829E-02 0.00000E+00
 -1       548 9.42412E-04 2.96060E-02 0.00000E+00
 -1       549 1.84350E-03 2.96536E-02 0.00000E+00
 -1       550 2.84802E-03 2.97328E-02 0.00000E+00
 -1       551 3.98928E-03 2.98510E-02 0.00000E+00
 -1       552 5.31869E-03 3.00146E-02 0.00000E+00
 -1       553-5.15123E-03 2.80838E-02 0.00000E+00
 -1       554-4.76983E-03 2.80519E-02 0.00000E+00
 -1       555-4.35769E-03 2.80183E-02 0.00000E+00
 -1       556-3.91593E-03 2.79835E-02 0.00000E+00
 -1       557-3.44319E-03 2.79480E-02 0.00000E+00
 -1       558-2.93808E-03 2.79129E-02 0.00000E+00
 -1       559-2.39905E-03 2.78793E-02 0.00000E+00
 -1       560-1.82417E-03 2.78491E-02 0.00000E+00
 -1       561-1.21079E-03 2.78250E-02 0.00000E+00
 -1       562-5.54951E-04 2.78106E-02 0.00000E+00
 -1       563 1.49510E-04 2.78106E-02 0.00000E+00
 -1       564 9.12313E-04 2.78311E-02 0.00000E+00
 -1       565 1.74869E-03 2.78794E-02 0.00000E+00
 -1       566 2.68217E-03 2.79640E-02 0.00000E+00
 -1       567 3.74857E-03 2.80936E-02 0.00000E+00
 -1       568 5.00405E-03 2.82768E-02 0.00000E+00
 -1       569-4.82784E-03 2.65815E-02 0.00000E+00
 -1       570-4.45950E-03 2.65436E-02 0.00000E+00
 -1       571-4.06227E-03 2.65035E-02 0.00000E+00
 -1       572-3.63760E-03 2.64619E-02 0.00000E+00
 -1       573-3.18469E-03 2.64193E-02 0.00000E+00
 -1       574-2.70283E-03 2.63767E-02 0.00000E+00
 -1       575-2.19131E-03 2.63354E-02 0.00000E+00
 -1       576-1.64912E-03 2.62977E-02 0.00000E+00
 -1       577-1.07462E-03 2.62667E-02 0.00000E+00
 -1       578-4.64811E-04 2.62465E-02 0.00000E+00
 -1       579 1.85707E-04 2.62425E-02 0.00000E+00
 -1       580 8.86219E-04 2.62617E-02 0.00000E+00
 -1       581 1.65204E-03 2.63122E-02 0.00000E+00
 -1       582 2.50751E-03 2.64034E-02 0.00000E+00
 -1       583 3.49045E-03 2.65456E-02 0.00000E+00
 -1       584 4.66089E-03 2.67491E-02 0.00000E+00
 -1       585-4.48605E-03 2.52622E-02 0.00000E+00
 -1       586-4.13096E-03 2.52187E-02 0.00000E+00
 -1       587-3.74872E-03 2.51725E-02 0.00000E+00
 -1       588-3.34121E-03 2.51243E-02 0.00000E+00
 -1       589-2.90830E-03 2.50747E-02 0.00000E+00
 -1       590-2.45015E-03 2.50247E-02 0.00000E+00
 -1       591-1.96701E-03 2.49761E-02 0.00000E+00
 -1       592-1.45902E-03 2.49314E-02 0.00000E+00
 -1       593-9.25596E-04 2.48943E-02 0.00000E+00
 -1       594-3.64691E-04 2.48698E-02 0.00000E+00
 -1       595 2.28430E-04 2.48639E-02 0.00000E+00
 -1       596 8.62773E-04 2.48841E-02 0.00000E+00
 -1       597 1.55379E-03 2.49394E-02 0.00000E+00
 -1       598 2.32644E-03 2.50396E-02 0.00000E+00
 -1       599 3.21985E-03 2.51960E-02 0.00000E+00
 -1       600 4.29674E-03 2.54207E-02 0.00000E+00
 -1       601-4.13538E-03 2.41047E-02 0.00000E+00
 -1       602-3.79262E-03 2.40560E-02 0.00000E+00
 -1       603-3.42437E-03 2.40041E-02 0.00000E+00
 -1       604-3.03308E-03 2.39495E-02 0.00000E+00
 -1       605-2.61950E-03 2.38930E-02 0.00000E+00
 -1       606-2.18487E-03 2.38360E-02 0.00000E+00
 -1       607-1.73065E-03 2.37806E-02 0.00000E+00
 -1       608-1.25818E-03 2.37301E-02 0.00000E+00
 -1       609-7.67959E-04 2.36889E-02 0.00000E+00
 -1       610-2.58645E-04 2.36626E-02 0.00000E+00
 -1       611 2.74183E-04 2.36582E-02 0.00000E+00
 -1       612 8.39595E-04 2.36835E-02 0.00000E+00
 -1       613 1.45333E-03 2.37475E-02 0.00000E+00
 -1       614 2.14074E-03 2.38600E-02 0.00000E+00
 -1       615 2.94142E-03 2.40326E-02 0.00000E+00
 -1       616 3.91918E-03 2.42790E-02 0.00000E+00
 -1       617-3.78361E-03 2.30867E-02 0.00000E+00
 -1       618-3.45118E-03 2.30332E-02 0.00000E+00
 -1       619-3.09489E-03 2.29757E-02 0.00000E+00
 -1       620-2.71804E-03 2.29150E-02 0.00000E+00
 -1       621-2.32257E-03 2.28519E-02 0.00000E+00
 -1       622-1.91107E-03 2.27884E-02 0.00000E+00
 -1       623-1.48644E-03 2.27274E-02 0.00000E+00
 -1       624-1.05121E-03 2.26730E-02 0.00000E+00
 -1       625-6.06643E-04 2.26307E-02 0.00000E+00
 -1       626-1.51609E-04 2.26070E-02 0.00000E+00
 -1       627 3.18604E-04 2.26092E-02 0.00000E+00
 -1       628 8.13601E-04 2.26448E-02 0.00000E+00
 -1       629 1.34955E-03 2.27223E-02 0.00000E+00
 -1       630 1.95178E-03 2.28509E-02 0.00000E+00
 -1       631 2.65941E-03 2.30418E-02 0.00000E+00
 -1       632 3.53551E-03 2.33102E-02 0.00000E+00
 -1       633-3.43662E-03 2.21855E-02 0.00000E+00
 -1       634-3.11143E-03 2.21275E-02 0.00000E+00
 -1       635-2.76415E-03 2.20646E-02 0.00000E+00
 -1       636-2.39935E-03 2.19978E-02 0.00000E+00
 -1       637-2.02062E-03 2.19286E-02 0.00000E+00
 -1       638-1.63226E-03 2.18595E-02 0.00000E+00
 -1       639-1.23865E-03 2.17948E-02 0.00000E+00
 -1       640-8.43233E-04 2.17400E-02 0.00000E+00
 -1       641-4.47350E-04 2.17014E-02 0.00000E+00
 -1       642-4.92286E-05 2.16863E-02 0.00000E+00
 -1       643 3.56889E-04 2.17015E-02 0.00000E+00
 -1       644 7.81548E-04 2.17537E-02 0.00000E+00
 -1       645 1.24127E-03 2.18500E-02 0.00000E+00
 -1       646 1.76083E-03 2.19983E-02 0.00000E+00
 -1       647 2.37773E-03 2.22093E-02 0.00000E+00
 -1       648 3.15250E-03 2.24993E-02 0.00000E+00
 -1       649-3.09840E-03 2.13790E-02 0.00000E+00
 -1       650-2.77621E-03 2.13166E-02 0.00000E+00
 -1       651-2.43414E-03 2.12483E-02 0.00000E+00
 -1       652-2.07876E-03 2.11755E-02 0.00000E+00
 -1       653-1.71586E-03 2.11005E-02 0.00000E+00
 -1       654-1.35176E-03 2.10276E-02 0.00000E+00
 -1       655-9.92049E-04 2.09627E-02 0.00000E+00
 -1       656-6.40214E-04 2.09127E-02 0.00000E+00
 -1       657-2.96524E-04 2.08849E-02 0.00000E+00
 -1       658 4.25281E-05 2.08860E-02 0.00000E+00
 -1       659 3.84397E-04 2.09218E-02 0.00000E+00
 -1       660 7.40668E-04 2.09972E-02 0.00000E+00
 -1       661 1.12783E-03 2.11171E-02 0.00000E+00
 -1       662 1.56932E-03 2.12880E-02 0.00000E+00
 -1       663 2.09996E-03 2.15200E-02 0.00000E+00
 -1       664 2.77610E-03 2.18307E-02 0.00000E+00
 -1       665-2.77109E-03 2.06455E-02 0.00000E+00
 -1       666-2.44639E-03 2.05787E-02 0.00000E+00
 -1       667-2.10508E-03 2.05046E-02 0.00000E+00
 -1       668-1.75676E-03 2.04257E-02 0.00000E+00
 -1       669-1.41016E-03 2.03464E-02 0.00000E+00
 -1       670-1.07349E-03 2.02729E-02 0.00000E+00
 -1       671-7.52533E-04 2.02135E-02 0.00000E+00
 -1       672-4.49181E-04 2.01763E-02 0.00000E+00
 -1       673-1.61065E-04 2.01684E-02 0.00000E+00
 -1       674 1.18011E-04 2.01948E-02 0.00000E+00
 -1       675 3.97382E-04 2.02590E-02 0.00000E+00
 -1       676 6.89255E-04 2.03633E-02 0.00000E+00
 -1       677 1.00936E-03 2.05105E-02 0.00000E+00
 -1       678 1.37898E-03 2.07056E-02 0.00000E+00
 -1       679 1.82934E-03 2.09586E-02 0.00000E+00
 -1       680 2.41133E-03 2.12883E-02 0.00000E+00
 -1       681-2.45501E-03 1.99636E-02 0.00000E+00
 -1       682-2.12078E-03 1.98918E-02 0.00000E+00
 -1       683-1.77543E-03 1.98115E-02 0.00000E+00
 -1       684-1.43317E-03 1.97271E-02 0.00000E+00
 -1       685-1.10604E-03 1.96461E-02 0.00000E+00
 -1       686-8.03018E-04 1.95784E-02 0.00000E+00
 -1       687-5.27722E-04 1.95338E-02 0.00000E+00
 -1       688-2.78081E-04 1.95206E-02 0.00000E+00
 -1       689-4.76377E-05 1.95435E-02 0.00000E+00
 -1       690 1.72733E-04 1.96045E-02 0.00000E+00
 -1       691 3.93650E-04 1.97038E-02 0.00000E+00
 -1       692 6.27021E-04 1.98411E-02 0.00000E+00
 -1       693 8.86926E-04 2.00173E-02 0.00000E+00
 -1       694 1.19181E-03 2.02367E-02 0.00000E+00
 -1       695 1.56867E-03 2.05094E-02 0.00000E+00
 -1       696 2.06216E-03 2.08561E-02 0.00000E+00
 -1       697-2.14849E-03 1.93116E-02 0.00000E+00
 -1       698-1.79586E-03 1.92338E-02 0.00000E+00
 -1       699-1.44220E-03 1.91465E-02 0.00000E+00
 -1       700-1.10816E-03 1.90585E-02 0.00000E+00
 -1       701-8.08242E-04 1.89823E-02 0.00000E+00
 -1       702-5.48710E-04 1.89313E-02 0.00000E+00
 -1       703-3.27095E-04 1.89157E-02 0.00000E+00
 -1       704-1.35009E-04 1.89404E-02 0.00000E+00
 -1       705 3.84038E-05 1.90058E-02 0.00000E+00
 -1       706 2.04215E-04 1.91095E-02 0.00000E+00
 -1       707 3.72974E-04 1.92483E-02 0.00000E+00
 -1       708 5.55133E-04 1.94199E-02 0.00000E+00
 -1       709 7.62376E-04 1.96247E-02 0.00000E+00
 -1       710 1.00989E-03 1.98669E-02 0.00000E+00
 -1       711 1.32024E-03 2.01573E-02 0.00000E+00
 -1       712 1.73148E-03 2.05184E-02 0.00000E+00
 -1       713-1.84727E-03 1.86656E-02 0.00000E+00
 -1       714-1.46532E-03 1.85801E-02 0.00000E+00
 -1       715-1.10173E-03 1.84858E-02 0.00000E+00
 -1       716-7.84646E-04 1.84001E-02 0.00000E+00
 -1       717-5.26079E-04 1.83422E-02 0.00000E+00
 -1       718-3.22528E-04 1.83266E-02 0.00000E+00
 -1       719-1.61109E-04 1.83586E-02 0.00000E+00
 -1       720-2.66786E-05 1.84363E-02 0.00000E+00
 -1       721 9.42480E-05 1.85540E-02 0.00000E+00
 -1       722 2.12546E-04 1.87050E-02 0.00000E+00
 -1       723 3.37071E-04 1.88843E-02 0.00000E+00
 -1       724 4.75909E-04 1.90891E-02 0.00000E+00
 -1       725 6.37982E-04 1.93201E-02 0.00000E+00
 -1       726 8.35188E-04 1.95823E-02 0.00000E+00
 -1       727 1.08576E-03 1.98877E-02 0.00000E+00
 -1       728 1.42116E-03 2.02606E-02 0.00000E+00
 -1       729-1.54307E-03 1.79967E-02 0.00000E+00
 -1       730-1.11931E-03 1.79007E-02 0.00000E+00
 -1       731-7.52339E-04 1.78032E-02 0.00000E+00
 -1       732-4.72593E-04 1.77359E-02 0.00000E+00
 -1       733-2.75716E-04 1.77222E-02 0.00000E+00
 -1       734-1.39139E-04 1.77690E-02 0.00000E+00
 -1       735-3.88468E-05 1.78696E-02 0.00000E+00
 -1       736 4.35299E-05 1.80128E-02 0.00000E+00
 -1       737 1.20490E-04 1.81877E-02 0.00000E+00
 -1       738 2.00353E-04 1.83862E-02 0.00000E+00
 -1       739 2.89159E-04 1.86033E-02 0.00000E+00
 -1       740 3.92313E-04 1.88376E-02 0.00000E+00
 -1       741 5.16082E-04 1.90910E-02 0.00000E+00
 -1       742 6.69358E-04 1.93697E-02 0.00000E+00
 -1       743 8.66355E-04 1.96871E-02 0.00000E+00
 -1       744 1.13222E-03 2.00692E-02 0.00000E+00
 -1       745-1.21943E-03 1.72636E-02 0.00000E+00
 -1       746-7.45198E-04 1.71552E-02 0.00000E+00
 -1       747-4.02319E-04 1.70720E-02 0.00000E+00
 -1       748-1.95590E-04 1.70617E-02 0.00000E+00
 -1       749-7.99059E-05 1.71354E-02 0.00000E+00
 -1       750-1.19048E-05 1.72758E-02 0.00000E+00
 -1       751 3.53839E-05 1.74614E-02 0.00000E+00
 -1       752 7.70449E-05 1.76750E-02 0.00000E+00
 -1       753 1.21127E-04 1.79054E-02 0.00000E+00
 -1       754 1.72150E-04 1.81466E-02 0.00000E+00
 -1       755 2.33227E-04 1.83960E-02 0.00000E+00
 -1       756 3.07406E-04 1.86543E-02 0.00000E+00
 -1       757 3.98754E-04 1.89253E-02 0.00000E+00
 -1       758 5.13607E-04 1.92169E-02 0.00000E+00
 -1       759 6.62585E-04 1.95434E-02 0.00000E+00
 -1       760 8.64908E-04 1.99324E-02 0.00000E+00
 -1       761-8.42380E-04 1.63959E-02 0.00000E+00
 -1       762-3.38174E-04 1.62863E-02 0.00000E+00
 -1       763-8.89326E-05 1.62787E-02 0.00000E+00
 -1       764 6.12766E-06 1.64051E-02 0.00000E+00
 -1       765 4.00298E-05 1.66172E-02 0.00000E+00
 -1       766 5.36625E-05 1.68730E-02 0.00000E+00
 -1       767 6.46951E-05 1.71466E-02 0.00000E+00
 -1       768 8.00879E-05 1.74250E-02 0.00000E+00
 -1       769 1.02557E-04 1.77026E-02 0.00000E+00
 -1       770 1.33305E-04 1.79779E-02 0.00000E+00
 -1       771 1.73289E-04 1.82520E-02 0.00000E+00
 -1       772 2.23915E-04 1.85282E-02 0.00000E+00
 -1       773 2.87625E-04 1.88121E-02 0.00000E+00
 -1       774 3.68676E-04 1.91128E-02 0.00000E+00
 -1       775 4.74523E-04 1.94458E-02 0.00000E+00
 -1       776 6.18910E-04 1.98395E-02 0.00000E+00
 -1       777-3.47204E-04 1.52459E-02 0.00000E+00
 -1       778 3.92006E-05 1.52363E-02 0.00000E+00
 -1       779 1.02378E-04 1.54873E-02 0.00000E+00
 -1       780 9.65288E-05 1.58424E-02 0.00000E+00
 -1       781 7.83166E-05 1.62183E-02 0.00000E+00
 -1       782 6.48058E-05 1.65843E-02 0.00000E+00
 -1       783 5.93338E-05 1.69315E-02 0.00000E+00
 -1       784 6.19576E-05 1.72596E-02 0.00000E+00
 -1       785 7.20185E-05 1.75712E-02 0.00000E+00
 -1       786 8.90036E-05 1.78702E-02 0.00000E+00
 -1       787 1.12822E-04 1.81610E-02 0.00000E+00
 -1       788 1.43977E-04 1.84490E-02 0.00000E+00
 -1       789 1.83798E-04 1.87413E-02 0.00000E+00
 -1       790 2.34866E-04 1.90480E-02 0.00000E+00
 -1       791 3.01854E-04 1.93851E-02 0.00000E+00
 -1       792 3.93492E-04 1.97818E-02 0.00000E+00
 -1       793 1.71904E-04 1.35653E-02 0.00000E+00
 -1       794 1.57519E-04 1.42088E-02 0.00000E+00
 -1       795 1.14736E-04 1.48868E-02 0.00000E+00
 -1       796 7.74207E-05 1.54734E-02 0.00000E+00
 -1       797 5.35118E-05 1.59781E-02 0.00000E+00
 -1       798 3.96568E-05 1.64191E-02 0.00000E+00
 -1       799 3.32583E-05 1.68123E-02 0.00000E+00
 -1       800 3.24520E-05 1.71698E-02 0.00000E+00
 -1       801 3.60769E-05 1.75008E-02 0.00000E+00
 -1       802 4.34750E-05 1.78130E-02 0.00000E+00
 -1       803 5.43926E-05 1.81129E-02 0.00000E+00
 -1       804 6.89569E-05 1.84074E-02 0.00000E+00
 -1       805 8.77388E-05 1.87042E-02 0.00000E+00
 -1       806 1.11932E-04 1.90140E-02 0.00000E+00
 -1       807 1.43747E-04 1.93533E-02 0.00000E+00
 -1       808 1.87328E-04 1.97516E-02 0.00000E+00
 -3
    1PSTEP                         7           2           1          
  100CL  102 1.000000000         807                     0    2           1
 -4  STRESS      6    1
 -5  SXX         1    4    1    1
 -5  SYY         1    4    2    2
 -5  SZZ         1    4    3    3
 -5  SXY         1    4    1    2
 -5  SYZ         1    4    2    3
 -5  SZX         1    4    3    1
 -1         1-1.31813E+03-1.76289E+03-9.33179E+02-4.53699E+02 8.21205E-14 9.87554E-16
 -1         2 5.67082E-01-2.26213E-01 1.02255E-01 1.49679E+00 7.81782E-16-1.68217E-14
 -1         3-7.87981E+02-9.11819E+02-5.12570E+02-2.91290E+02 4.43049E-14-3.33734E-15
 -1         4-1.23563E+02 2.46103E+01-3.01171E+01-1.72347E+02 8.46223E-14 6.76587E-15
 -1         5-5.32847E+00 1.98159E+01 4.34995E+00-2.53145E+01-1.13925E-13-1.38552E-15
 -1         6 1.29580E+01 2.41705E+01 1.11401E+01-1.19975E+01-2.80776E-14 8.87971E-15
 -1         7 6.92850E+00 1.30439E+01 5.99262E+00-5.41602E+00 4.66734E-14 1.17840E-15
 -1         8 4.76790E+00 8.58050E+00 4.00479E+00-3.33026E+00-1.68932E-14-7.97818E-15
 -1         9 3.20847E+00 5.63358E+00 2.65271E+00-2.17487E+00 3.50772E-14-2.90102E-15
 -1        10 2.31313E+00 3.88140E+00 1.85839E+00-1.55009E+00 1.42704E-14 9.38786E-15
 -1        11 1.71997E+00 2.72866E+00 1.33459E+00-1.16100E+00-3.96317E-15-5.21486E-15
 -1        12 1.32545E+00 1.95425E+00 9.83907E-01-9.06520E-01-2.25499E-14 2.58188E-15
 -1        13 1.05330E+00 1.41449E+00 7.40331E-01-7.29788E-01 4.64928E-14 1.40801E-15
 -1        14 8.62994E-01 1.02861E+00 5.67476E-01-6.01584E-01-3.38165E-14-8.30779E-15
 -1        15 7.28757E-01 7.45787E-01 4.42357E-01-5.04680E-01-8.69809E-15 3.08135E-15
 -1        16 6.34522E-01 5.33600E-01 3.50431E-01-4.28502E-01 2.46635E-15-3.68603E-15
 -1        17 5.69877E-01 3.70563E-01 2.82127E-01-3.66022E-01 5.55665E-16-1.56719E-16
 -1        18 5.28054E-01 2.41978E-01 2.31005E-01-3.12143E-01-9.00330E-15-3.41461E-15
 -1        19 5.04555E-01 1.38150E-01 1.92807E-01-2.62799E-01-1.04940E-14-2.34156E-14
 -1        20 4.98498E-01 5.05130E-02 1.64699E-01-2.13499E-01-1.23454E-14 1.06326E-14
 -1        21 4.97720E-01-1.17505E-02 1.45787E-01-1.65708E-01 8.78294E-15 1.59884E-15
 -1        22 5.38451E-01-1.29531E-01 1.22671E-01-1.05564E-01-1.04333E-15-1.06202E-14
 -1        23 2.59414E-01-1.66664E+00-4.22179E-01 1.44738E+00-1.45318E-15 1.50566E-15
 -1        24 3.08377E-01-3.16829E+00-8.58004E-01 1.38211E+00-1.21871E-15-1.43947E-14
 -1        25 4.11360E-01-4.93080E+00-1.35590E+00 1.30598E+00 1.74882E-15-8.80400E-15
 -1        26 5.93875E-01-6.99083E+00-1.91922E+00 1.21755E+00 2.72688E-15 3.99634E-15
 -1        27 8.81554E-01-9.40780E+00-2.55813E+00 1.11515E+00-7.04368E-15 1.15851E-14
 -1        28 1.31017E+00-1.22530E+01-3.28329E+00 9.97264E-01 9.60290E-15 2.44756E-15
 -1        29 1.92629E+00-1.56113E+01-4.10623E+00 8.62866E-01-5.23046E-15 6.54119E-15
 -1        30 2.78891E+00-1.95808E+01-5.03874E+00 7.12011E-01 2.09329E-14-5.34691E-15
 -1        31 3.96983E+00-2.42691E+01-6.09162E+00 5.46717E-01-1.93735E-14 6.95156E-15
 -1        32 5.55037E+00-2.97820E+01-7.27235E+00 3.72236E-01 4.80024E-16-1.10216E-14
 -1        33 7.61091E+00-3.61994E+01-8.58090E+00 1.98600E-01 1.64125E-14-4.72504E-15
 -1        34 1.02070E+01-4.35283E+01-1.00028E+01 4.19745E-02 1.92434E-14 1.30807E-14
 -1        35 1.33257E+01-5.16242E+01-1.14989E+01-7.53694E-02-1.45563E-14 8.36188E-15
 -1        36 1.68155E+01-6.00831E+01-1.29933E+01-1.28472E-01 2.74779E-14-9.33955E-15
 -1        37 2.03645E+01-6.80854E+01-1.43333E+01-9.73549E-02-1.90517E-14 1.09431E-16
 -1        38 2.30639E+01-7.51698E+01-1.56527E+01 3.17650E-03-7.01848E-15 2.13939E-15
 -1        39 2.52552E+01-7.63790E+01-1.53593E+01-2.52056E-01-7.45244E-15-1.69152E-16
 -1        40-3.22187E+02-1.21640E+03-4.65128E+02-2.32932E+02 2.27863E-14-5.71025E-16
 -1        41-1.20454E+02-8.64704E+02-2.97525E+02-1.06393E+02-5.06204E-14-7.11241E-16
 -1        42-3.30170E+01-5.93527E+02-1.88933E+02-5.39660E+01 4.48250E-14-3.01649E-16
 -1        43-1.05205E+00-4.35127E+02-1.31389E+02-2.97100E+01 9.17423E-15-5.56855E-16
 -1        44 1.23476E+01-3.35023E+02-9.71272E+01-1.74884E+01-1.70207E-14 8.30147E-18
 -1        45 1.84509E+01-2.67472E+02-7.49182E+01-1.07761E+01 4.43037E-14-3.37013E-16
 -1        46 2.14785E+01-2.19354E+02-5.95083E+01-6.85218E+00-8.47667E-16 3.96096E-16
 -1        47 2.30799E+01-1.83707E+02-4.82927E+01-4.44228E+00 3.36886E-14-1.96896E-16
 -1        48 2.39742E+01-1.56534E+02-3.98458E+01-2.90614E+00 2.57248E-14-2.58639E-17
 -1        49 2.44957E+01-1.35404E+02-3.33325E+01-1.89857E+00-2.57357E-14-8.25570E-17
 -1        50 2.48106E+01-1.18772E+02-2.82358E+01-1.22372E+00 2.42324E-14-3.04322E-17
 -1        51 2.50049E+01-1.05625E+02-2.42245E+01-7.65414E-01-4.02276E-14 3.00641E-17
 -1        52 2.51245E+01-9.52962E+01-2.10837E+01-4.52467E-01 1.25444E-14 2.59037E-17
 -1        53 2.51916E+01-8.73657E+01-1.86800E+01-2.40215E-01 1.27027E-14-1.79366E-17
 -1        54 2.52302E+01-8.15926E+01-1.69335E+01-1.00238E-01 1.12208E-14-2.86546E-17
 -1        55 2.50368E+01-7.79801E+01-1.59059E+01-1.39764E-02 4.83837E-14 2.88904E-17
 -1        56-2.78111E+02-7.23999E+02-3.02094E+02-1.96041E+02-1.58546E-14 4.71553E-15
 -1        57-1.12027E+02-6.45774E+02-2.28582E+02-1.76293E+02-4.47815E-15-2.68758E-15
 -1        58-4.12579E+01-5.16747E+02-1.68191E+02-1.07165E+02 3.79726E-14-2.21942E-15
 -1        59-7.45240E+00-4.04782E+02-1.24154E+02-6.43868E+01-1.82719E-14 7.48179E-16
 -1        60 8.45938E+00-3.21925E+02-9.43475E+01-3.95501E+01-4.01306E-14-7.26523E-16
 -1        61 1.62753E+01-2.61327E+02-7.37208E+01-2.49585E+01-9.77107E-16 1.65594E-15
 -1        62 2.02790E+01-2.16304E+02-5.89505E+01-1.60923E+01-8.55762E-14-2.29038E-15
 -1        63 2.24226E+01-1.82132E+02-4.80161E+01-1.05234E+01-1.03204E-14 5.09269E-16
 -1        64 2.36155E+01-1.55700E+02-3.97027E+01-6.92314E+00-1.07270E-14-1.44239E-16
 -1        65 2.43021E+01-1.34958E+02-3.32562E+01-4.54042E+00 1.84576E-15 3.83092E-16
 -1        66 2.47082E+01-1.18533E+02-2.81945E+01-2.93507E+00-1.29658E-14 4.16550E-16
 -1        67 2.49528E+01-1.05498E+02-2.42020E+01-1.84065E+00-1.73888E-14-4.18453E-16
 -1        68 2.50997E+01-9.52310E+01-2.10716E+01-1.09148E+00-2.80500E-15 3.78045E-17
 -1        69 2.51813E+01-8.73339E+01-1.86736E+01-5.82617E-01-1.80466E-15 3.09143E-17
 -1        70 2.52272E+01-8.15784E+01-1.69301E+01-2.47745E-01 4.18020E-14-3.95482E-17
 -1        71 2.50386E+01-7.79733E+01-1.59033E+01-4.35064E-02-3.75965E-14-4.81912E-17
 -1        72-2.40773E+02-1.34955E+02-1.13163E+02-1.89153E+02-2.40690E-14-6.06183E-15
 -1        73-1.23512E+02-2.73214E+02-1.19513E+02-2.13189E+02 1.65210E-14 2.72462E-15
 -1        74-6.09547E+01-3.35651E+02-1.19446E+02-1.63203E+02 1.90435E-15 1.65053E-15
 -1        75-2.32463E+01-3.21070E+02-1.03654E+02-1.10929E+02-1.73174E-15-8.16661E-18
 -1        76-1.65823E+00-2.82277E+02-8.54400E+01-7.32053E+01-2.37040E-14-5.48096E-15
 -1        77 1.02999E+01-2.41795E+02-6.96338E+01-4.81774E+01-6.17822E-15-2.18417E-15
 -1        78 1.68728E+01-2.06317E+02-5.69674E+01-3.18669E+01 5.84719E-14 1.15579E-15
 -1        79 2.05139E+01-1.76879E+02-4.70088E+01-2.11751E+01-1.72604E-14-3.44506E-16
 -1        80 2.25603E+01-1.52885E+02-3.91729E+01-1.40746E+01 8.39566E-15-2.09313E-16
 -1        81 2.37286E+01-1.33436E+02-3.29709E+01-9.29294E+00 1.38741E-14 9.54954E-16
 -1        82 2.44045E+01-1.17712E+02-2.80389E+01-6.03421E+00-1.86471E-14-1.42526E-16
 -1        83 2.47987E+01-1.05062E+02-2.41171E+01-3.79560E+00-3.94449E-15 1.58219E-16
 -1        84 2.50271E+01-9.50060E+01-2.10257E+01-2.25535E+00 1.65173E-14 1.04698E-15
 -1        85 2.51517E+01-8.72239E+01-1.86494E+01-1.20562E+00 2.88405E-14 5.27002E-16
 -1        86 2.52189E+01-8.15293E+01-1.69179E+01-5.13328E-01-5.03137E-14-5.53335E-16
 -1        87 2.50448E+01-7.79502E+01-1.58945E+01-9.04820E-02-4.37527E-15 2.01306E-16
 -1        88-2.06218E+02-7.42731E+01-8.43371E+01-8.95385E+01-6.12472E-15 1.27662E-15
 -1        89-1.58426E+02-1.13530E+02-8.18367E+01-1.48838E+02 2.20577E-15 4.97994E-15
 -1        90-9.00119E+01-1.81853E+02-8.18172E+01-1.54544E+02 3.36780E-14 9.11672E-16
 -1        91-4.44354E+01-2.20456E+02-7.97041E+01-1.26842E+02 1.46399E-14-4.75420E-15
 -1        92-1.58771E+01-2.24403E+02-7.22809E+01-9.38989E+01 3.10074E-14 1.76405E-15
 -1        93 1.34359E+00-2.09928E+02-6.27305E+01-6.63827E+01-2.99793E-14-3.11960E-15
 -1        94 1.14864E+01-1.88919E+02-5.33494E+01-4.59361E+01-2.78164E-14-4.74111E-15
 -1        95 1.73776E+01-1.67351E+02-4.50843E+01-3.14210E+01 2.41853E-14-2.61667E-15
 -1        96 2.07809E+01-1.47647E+02-3.81315E+01-2.12832E+01 1.67636E-14 4.54788E-15
 -1        97 2.27453E+01-1.30556E+02-3.24001E+01-1.42293E+01-2.45487E-14 3.25828E-17
 -1        98 2.38790E+01-1.16140E+02-2.77241E+01-9.31715E+00 1.14746E-14-1.51119E-15
 -1        99 2.45312E+01-1.04219E+02-2.39441E+01-5.89379E+00-1.86750E-14 2.40978E-17
 -1       100 2.49014E+01-9.45692E+01-2.09321E+01-3.51557E+00-3.40166E-14-1.36371E-16
 -1       101 2.51012E+01-8.70098E+01-1.86002E+01-1.88436E+00 1.86559E-14 3.00973E-16
 -1       102 2.52054E+01-8.14338E+01-1.68932E+01-8.04141E-01 2.82348E-14 5.89215E-16
 -1       103 2.50570E+01-7.79060E+01-1.58776E+01-1.42476E-01-1.45918E-14-7.78515E-17
 -1       104-1.03899E+02-2.55574E+01-3.88798E+01-3.95952E+01 4.27446E-14 3.29848E-15
 -1       105-1.36886E+02-6.04249E+01-5.93050E+01-8.69286E+01 1.09426E-14 8.99409E-16
 -1       106-1.04701E+02-1.00653E+02-6.17476E+01-1.15406E+02-3.11184E-14 8.23316E-15
 -1       107-6.33657E+01-1.41244E+02-6.15315E+01-1.15553E+02-3.16241E-14-1.42152E-16
 -1       108-3.12724E+01-1.65505E+02-5.91727E+01-9.83819E+01 3.21142E-15 1.39231E-15
 -1       109-9.46292E+00-1.71657E+02-5.44575E+01-7.64879E+01-1.56020E-14-5.23069E-16
 -1       110 4.46729E+00-1.65711E+02-4.84745E+01-5.64206E+01 4.04072E-14 4.86212E-15
 -1       111 1.30554E+01-1.53764E+02-4.22949E+01-4.02785E+01-1.73636E-14-4.72832E-15
 -1       112 1.82285E+01-1.39847E+02-3.65521E+01-2.80767E+01-4.97328E-15-1.71371E-15
 -1       113 2.12948E+01-1.26145E+02-3.15091E+01-1.91377E+01 3.71162E-15 4.82136E-17
 -1       114 2.30888E+01-1.13687E+02-2.72238E+01-1.26963E+01-4.12728E-15-1.71484E-15
 -1       115 2.41240E+01-1.02888E+02-2.36660E+01-8.10323E+00-2.70468E-14-1.03120E-15
 -1       116 2.47088E+01-9.38731E+01-2.07807E+01-4.86303E+00 3.58906E-14-4.84249E-16
 -1       117 2.50237E+01-8.66669E+01-1.85204E+01-2.61777E+00 7.53460E-15-8.87306E-17
 -1       118 2.51849E+01-8.12805E+01-1.68533E+01-1.12108E+00 2.27874E-14-7.27584E-17
 -1       119 2.50766E+01-7.78354E+01-1.58505E+01-2.00077E-01-1.90960E-14-1.04520E-16
 -1       120-5.73348E+01-1.12579E+01-2.05904E+01-2.16441E+01 1.97483E-14 2.14925E-15
 -1       121-9.32978E+01-3.13550E+01-3.74399E+01-5.08198E+01-2.24967E-14-1.09031E-14
 -1       122-9.39071E+01-5.95232E+01-4.61021E+01-7.86034E+01-5.18377E-14-4.23794E-15
 -1       123-7.06481E+01-9.05691E+01-4.84544E+01-9.22308E+01 4.36607E-14 5.71904E-15
 -1       124-4.30301E+01-1.17545E+02-4.82669E+01-9.00216E+01 1.77722E-14 3.30717E-15
 -1       125-1.99915E+01-1.34151E+02-4.63335E+01-7.77771E+01 1.03907E-14 1.96797E-15
 -1       126-3.33102E+00-1.39726E+02-4.29989E+01-6.19952E+01-3.48707E-14 3.28853E-16
 -1       127 7.82930E+00-1.37085E+02-3.88475E+01-4.67746E+01-4.80140E-15-2.61403E-16
 -1       128 1.49567E+01-1.29657E+02-3.44700E+01-3.38940E+01-3.04815E-14-2.47802E-16
 -1       129 1.93573E+01-1.20135E+02-3.02836E+01-2.37337E+01-6.10471E-15 1.39978E-15
 -1       130 2.20023E+01-1.10249E+02-2.65162E+01-1.60414E+01 2.21914E-14-3.13084E-15
 -1       131 2.35526E+01-1.00985E+02-2.32656E+01-1.03706E+01-2.56056E-14 9.80963E-16
 -1       132 2.44348E+01-9.28657E+01-2.05601E+01-6.27922E+00 1.56775E-14-1.48486E-15
 -1       133 2.49125E+01-8.61668E+01-1.84034E+01-3.40131E+00-2.17665E-14 1.28576E-15
 -1       134 2.51555E+01-8.10563E+01-1.67947E+01-1.46416E+00-4.33371E-15-9.63890E-16
 -1       135 2.51050E+01-7.77324E+01-1.58110E+01-2.64007E-01-3.66117E-14 1.60286E-16
 -1       136-3.43875E+01-5.78079E+00-1.20549E+01-1.33824E+01 3.30351E-14 9.15411E-15
 -1       137-6.19668E+01-1.77642E+01-2.39375E+01-3.19440E+01-1.34298E-14 1.51018E-15
 -1       138-7.29309E+01-3.63214E+01-3.28118E+01-5.29840E+01-3.41982E-14-4.66189E-15
 -1       139-6.57428E+01-5.94069E+01-3.75963E+01-6.91552E+01-2.25205E-14 2.48591E-15
 -1       140-4.78053E+01-8.29006E+01-3.92728E+01-7.55116E+01 2.41120E-14-1.08899E-15
 -1       141-2.78282E+01-1.02202E+02-3.90737E+01-7.21650E+01 4.54381E-15 8.39843E-15
 -1       142-1.06668E+01-1.14290E+02-3.75506E+01-6.24805E+01-9.47460E-15-6.66604E-15
 -1       143 2.22288E+00-1.18903E+02-3.50626E+01-5.02597E+01-1.76634E-14-2.46456E-15
 -1       144 1.11366E+01-1.17635E+02-3.20018E+01-3.82012E+01 1.56300E-14 1.34768E-15
 -1       145 1.69598E+01-1.12634E+02-2.87482E+01-2.76935E+01-1.52703E-14-4.27956E-15
 -1       146 2.06017E+01-1.05787E+02-2.55952E+01-1.91864E+01 2.57155E-14 4.09359E-15
 -1       147 2.27943E+01-9.84491E+01-2.27308E+01-1.26218E+01 2.09592E-15-3.09494E-17
 -1       148 2.40633E+01-9.14984E+01-2.02606E+01-7.73618E+00 2.45627E-14 3.93426E-16
 -1       149 2.47593E+01-8.54804E+01-1.82431E+01-4.22709E+00-7.32568E-15-1.57592E-15
 -1       150 2.51143E+01-8.07471E+01-1.67142E+01-1.83271E+00 2.49453E-15 6.59518E-16
 -1       151 2.51435E+01-7.75911E+01-1.57570E+01-3.35112E-01-2.79789E-16 5.96167E-16
 -1       152-2.20280E+01-3.62263E+00-7.69703E+00-9.14090E+00-1.88535E-14-4.14105E-15
 -1       153-4.16568E+01-1.10722E+01-1.58268E+01-2.14635E+01 4.74624E-14 1.35036E-14
 -1       154-5.37669E+01-2.34077E+01-2.31704E+01-3.66278E+01-1.95167E-14-7.89391E-15
 -1       155-5.48480E+01-4.00406E+01-2.84955E+01-5.08976E+01 4.63196E-14-5.18852E-16
 -1       156-4.59618E+01-5.89854E+01-3.15224E+01-6.03198E+01-3.34005E-14 2.16329E-15
 -1       157-3.15429E+01-7.71903E+01-3.26645E+01-6.28005E+01-2.13274E-14-5.18321E-15
 -1       158-1.62720E+01-9.17299E+01-3.24479E+01-5.88458E+01 2.41683E-14 9.33948E-15
 -1       159-3.04772E+00-1.00907E+02-3.12333E+01-5.06307E+01 3.38685E-14 6.36017E-15
 -1       160 7.07676E+00-1.04629E+02-2.93102E+01-4.06208E+01-1.77440E-14-9.56884E-15
 -1       161 1.41971E+01-1.03950E+02-2.69665E+01-3.06976E+01-4.67571E-14-2.32324E-15
 -1       162 1.88942E+01-1.00356E+02-2.44751E+01-2.19360E+01-1.33785E-14 6.59574E-15
 -1       163 2.18318E+01-9.52512E+01-2.20584E+01-1.47587E+01 8.41526E-15-3.83779E-15
 -1       164 2.35777E+01-8.97322E+01-1.98755E+01-9.19261E+00-4.24834E-14-1.64743E-15
 -1       165 2.45543E+01-8.45801E+01-1.80340E+01-5.08151E+00 1.44101E-14 7.23700E-16
 -1       166 2.50575E+01-8.03389E+01-1.66085E+01-2.22438E+00 9.76091E-15-6.73016E-16
 -1       167 2.51929E+01-7.74055E+01-1.56865E+01-4.14265E-01-2.47563E-14-3.43200E-16
 -1       168-1.47084E+01-2.61116E+00-5.19672E+00-6.66574E+00-2.26682E-14-2.43990E-15
 -1       169-2.85889E+01-7.66371E+00-1.08797E+01-1.52879E+01-2.37624E-14 1.32438E-15
 -1       170-3.89600E+01-1.60873E+01-1.65234E+01-2.62003E+01 4.33798E-15 6.85444E-15
 -1       171-4.31613E+01-2.80398E+01-2.13765E+01-3.76444E+01 6.00068E-16-1.82641E-16
 -1       172-4.01829E+01-4.27520E+01-2.49039E+01-4.71286E+01-1.48287E-15-2.77400E-15
 -1       173-3.13146E+01-5.84830E+01-2.69690E+01-5.24482E+01 2.68309E-14 2.47590E-16
 -1       174-1.93910E+01-7.30092E+01-2.77542E+01-5.26652E+01 9.12544E-15-4.56598E-15
 -1       175-7.26577E+00-8.43849E+01-2.75317E+01-4.83511E+01 1.54871E-14-2.86554E-16
 -1       176 3.19387E+00-9.15598E+01-2.65465E+01-4.10497E+01 4.60084E-15-7.01661E-17
 -1       177 1.12434E+01-9.45411E+01-2.50247E+01-3.25003E+01 3.07382E-14-1.39949E-15
 -1       178 1.69247E+01-9.41160E+01-2.31906E+01-2.40892E+01 1.18108E-15 8.97353E-16
 -1       179 2.06599E+01-9.14125E+01-2.12563E+01-1.66623E+01-4.08782E-15 2.34496E-15
 -1       180 2.29623E+01-8.75457E+01-1.94030E+01-1.05921E+01-6.85937E-15 4.92992E-16
 -1       181 2.42858E+01-8.34433E+01-1.77729E+01-5.94358E+00 7.50100E-15-1.27329E-15
 -1       182 2.49800E+01-7.98192E+01-1.64756E+01-2.63440E+00 1.54411E-14 1.02534E-15
 -1       183 2.52531E+01-7.71711E+01-1.55980E+01-5.02221E-01-2.46847E-15-1.51534E-16
 -1       184-1.01015E+01-2.10113E+00-3.66123E+00-5.09330E+00 5.72656E-15-9.71994E-16
 -1       185-1.99610E+01-5.80997E+00-7.73327E+00-1.13963E+01 1.44158E-14-2.33376E-15
 -1       186-2.81348E+01-1.18461E+01-1.19992E+01-1.93944E+01 8.90578E-15-1.55765E-15
 -1       187-3.29090E+01-2.05624E+01-1.60506E+01-2.82735E+01 3.07890E-15 1.28114E-15
 -1       188-3.30443E+01-3.18431E+01-1.94804E+01-3.66231E+01 3.04304E-16-2.03381E-15
 -1       189-2.83678E+01-4.48484E+01-2.19843E+01-4.27808E+01-3.38869E-14 8.17692E-15
 -1       190-2.00248E+01-5.81329E+01-2.34713E+01-4.54533E+01-1.98324E-15 7.34856E-15
 -1       191-9.96169E+00-7.00364E+01-2.40269E+01-4.42348E+01 6.92789E-15-1.61473E-15
 -1       192-8.14497E-02-7.91966E+01-2.38129E+01-3.96868E+01 1.65348E-14 3.74700E-15
 -1       193 8.34149E+00-8.49297E+01-2.30065E+01-3.29946E+01 7.06174E-16-7.25821E-15
 -1       194 1.47847E+01-8.73159E+01-2.17888E+01-2.54749E+01 2.16238E-15-2.56515E-15
 -1       195 1.92925E+01-8.70106E+01-2.03436E+01-1.82030E+01-2.64455E-15-4.04046E-16
 -1       196 2.22050E+01-8.49425E+01-1.88478E+01-1.18632E+01-2.15254E-14-1.47822E-15
 -1       197 2.39405E+01-8.20561E+01-1.74596E+01-6.78322E+00 3.11805E-14 2.97234E-15
 -1       198 2.48746E+01-7.91783E+01-1.63146E+01-3.05440E+00-2.61951E-14-4.89651E-16
 -1       199 2.53220E+01-7.68856E+01-1.54915E+01-5.99365E-01 1.14363E-14 4.97805E-16
 -1       200-7.06262E+00-1.82234E+00-2.66573E+00-4.02146E+00 3.98858E-15 5.21030E-16
 -1       201-1.41066E+01-4.74564E+00-5.65674E+00-8.79636E+00 2.22761E-14 7.89786E-15
 -1       202-2.03171E+01-9.30445E+00-8.88918E+00-1.47926E+01-3.09623E-14-3.52772E-15
 -1       203-2.46386E+01-1.58499E+01-1.21518E+01-2.16382E+01 1.16330E-14 1.39303E-17
 -1       204-2.60908E+01-2.45361E+01-1.51967E+01-2.85712E+01-5.39586E-15 5.79720E-15
 -1       205-2.40714E+01-3.50725E+01-1.77558E+01-3.45010E+01-1.09984E-14-6.22726E-16
 -1       206-1.87339E+01-4.66501E+01-1.96318E+01-3.82882E+01 2.06178E-14-7.68581E-15
 -1       207-1.10450E+01-5.80685E+01-2.07543E+01-3.91487E+01-1.03748E-14 5.93476E-15
 -1       208-2.42884E+00-6.80470E+01-2.11658E+01-3.69522E+01-3.52346E-14-5.14068E-15
 -1       209 5.75931E+00-7.55913E+01-2.09745E+01-3.22418E+01 1.74499E-14 1.17910E-15
 -1       210 1.26125E+01-8.02523E+01-2.03176E+01-2.59907E+01-1.56345E-14-3.81197E-15
 -1       211 1.77708E+01-8.21748E+01-1.93468E+01-1.92592E+01-4.45943E-15 2.87200E-15
 -1       212 2.13023E+01-8.19563E+01-1.82212E+01-1.29234E+01 1.23836E-16 2.30194E-15
 -1       213 2.35049E+01-8.04175E+01-1.70978E+01-7.56017E+00-1.32384E-14-2.84961E-15
 -1       214 2.47318E+01-7.84120E+01-1.61271E+01-3.47119E+00 3.21983E-14 1.64928E-15
 -1       215 2.53952E+01-7.65509E+01-1.53690E+01-7.05284E-01-2.84258E-14-5.29492E-16
 -1       216-4.98580E+00-1.66233E+00-1.99458E+00-3.24851E+00-3.74851E-15-1.18641E-15
 -1       217-1.00328E+01-4.10356E+00-4.24152E+00-6.96540E+00-3.67029E-15-4.64584E-15
 -1       218-1.46560E+01-7.72825E+00-6.71685E+00-1.15595E+01-1.17995E-15 3.02878E-15
 -1       219-1.82067E+01-1.28255E+01-9.31279E+00-1.68626E+01 1.98386E-14 9.04472E-15
 -1       220-2.00038E+01-1.96287E+01-1.18951E+01-2.24724E+01-3.01189E-15-1.64914E-15
 -1       221-1.94446E+01-2.81314E+01-1.42809E+01-2.77213E+01-5.34682E-16 1.21235E-16
 -1       222-1.62662E+01-3.79669E+01-1.62812E+01-3.17632E+01-1.41766E-14 5.82068E-15
 -1       223-1.07520E+01-4.83816E+01-1.77547E+01-3.37980E+01 2.28226E-14-1.96337E-15
 -1       224-3.72254E+00-5.83626E+01-1.86432E+01-3.33484E+01 1.51222E-14 3.16549E-15
 -1       225 3.72434E+00-6.68906E+01-1.89701E+01-3.04469E+01-2.13825E-15-7.99845E-16
 -1       226 1.05751E+01-7.32205E+01-1.88156E+01-2.56278E+01-9.74706E-15-1.34310E-15
 -1       227 1.61675E+01-7.70704E+01-1.82938E+01-1.97399E+01-3.17923E-14 1.58794E-15
 -1       228 2.02651E+01-7.86503E+01-1.75388E+01-1.36876E+01 1.94733E-14 1.47975E-15
 -1       229 2.29670E+01-7.85416E+01-1.66954E+01-8.22453E+00 2.01618E-15-5.97345E-15
 -1       230 2.45400E+01-7.75231E+01-1.59176E+01-3.86537E+00 7.00888E-15 1.49872E-17
 -1       231 2.54639E+01-7.61749E+01-1.52355E+01-8.18139E-01 7.78012E-15-3.22796E-16
 -1       232-3.52584E+00-1.56746E+00-1.52807E+00-2.66426E+00 2.82396E-16 1.92883E-15
 -1       233-7.13605E+00-3.70073E+00-3.25140E+00-5.61451E+00 8.12223E-15 1.17680E-14
 -1       234-1.05224E+01-6.71838E+00-5.17316E+00-9.19841E+00 3.09447E-16 9.56414E-15
 -1       235-1.32808E+01-1.08437E+01-7.23924E+00-1.33415E+01-2.24565E-15-3.92167E-15
 -1       236-1.49598E+01-1.63066E+01-9.38326E+00-1.78337E+01-1.08920E-15-1.31983E-15
 -1       237-1.50813E+01-2.32243E+01-1.14969E+01-2.22802E+01-1.97734E-15 1.28161E-14
 -1       238-1.32818E+01-3.14961E+01-1.34411E+01-2.61058E+01 2.68489E-15-5.97755E-15
 -1       239-9.48739E+00-4.07212E+01-1.50730E+01-2.86476E+01-1.61027E-15-2.64826E-15
 -1       240-4.03418E+00-5.02012E+01-1.62839E+01-2.93354E+01 4.80858E-15-4.68772E-15
 -1       241 2.36725E+00-5.90635E+01-1.70250E+01-2.78946E+01 5.47911E-15 7.76409E-15
 -1       242 8.83460E+00-6.64763E+01-1.73109E+01-2.44699E+01-8.24897E-15-5.22889E-15
 -1       243 1.45831E+01-7.18754E+01-1.72079E+01-1.96038E+01 1.94796E-14 8.07435E-15
 -1       244 1.91249E+01-7.51111E+01-1.68172E+01-1.40806E+01 1.55981E-14-4.87139E-16
 -1       245 2.23210E+01-7.64581E+01-1.62630E+01-8.71994E+00-2.03573E-14-1.62057E-15
 -1       246 2.42853E+01-7.65222E+01-1.56932E+01-4.21059E+00-1.79770E-15 1.40322E-15
 -1       247 2.55140E+01-7.57739E+01-1.50999E+01-9.33849E-01-2.52483E-14 9.70164E-16
 -1       248-2.47595E+00-1.51115E+00-1.19619E+00-2.20454E+00-5.08385E-15-4.69632E-15
 -1       249-5.03839E+00-3.44062E+00-2.54393E+00-4.57537E+00 9.13786E-15 6.15430E-15
 -1       250-7.47461E+00-6.05322E+00-4.05893E+00-7.40799E+00 7.15592E-15 2.84553E-15
 -1       251-9.52770E+00-9.51760E+00-5.71478E+00-1.06707E+01 2.29027E-14 9.43132E-15
 -1       252-1.09026E+01-1.40331E+01-7.48283E+00-1.42544E+01-2.20844E-14-4.08322E-15
 -1       253-1.12523E+01-1.97547E+01-9.30559E+00-1.79297E+01-8.66038E-15-3.51136E-15
 -1       254-1.02448E+01-2.67221E+01-1.10953E+01-2.13236E+01-3.33987E-15-1.67406E-15
 -1       255-7.67116E+00-3.47743E+01-1.27411E+01-2.39422E+01-1.33456E-14 2.08351E-15
 -1       256-3.57028E+00-4.34948E+01-1.41295E+01-2.52616E+01-2.45729E-14-4.78356E-15
 -1       257 1.70027E+00-5.22318E+01-1.51721E+01-2.48785E+01-5.32271E-15-4.79644E-15
 -1       258 7.51125E+00-6.02184E+01-1.58274E+01-2.26673E+01 3.60546E-14-6.03260E-16
 -1       259 1.31304E+01-6.67627E+01-1.61072E+01-1.88671E+01-2.78018E-15 8.48377E-16
 -1       260 1.79364E+01-7.14407E+01-1.60707E+01-1.40509E+01-2.52815E-14-1.97429E-15
 -1       261 2.15726E+01-7.42101E+01-1.58120E+01-8.98995E+00 1.32905E-14-4.78263E-15
 -1       262 2.39546E+01-7.54279E+01-1.54635E+01-4.47400E+00 7.82341E-15 9.25972E-16
 -1       263 2.55253E+01-7.53729E+01-1.49761E+01-1.04523E+00 1.32016E-15-2.45137E-15
 -1       264-1.70687E+00-1.47937E+00-9.55907E-01-1.82966E+00 7.70678E-15 5.97851E-15
 -1       265-3.49661E+00-3.27010E+00-2.03016E+00-3.74514E+00-5.84650E-15-3.10502E-15
 -1       266-5.20691E+00-5.60593E+00-3.24423E+00-5.99999E+00 6.06747E-15-4.08170E-15
 -1       267-6.67024E+00-8.61412E+00-4.58608E+00-8.58171E+00-4.07177E-14-5.15233E-16
 -1       268-7.69334E+00-1.24590E+01-6.04711E+00-1.14340E+01 3.55513E-14 7.81120E-15
 -1       269-8.03360E+00-1.72948E+01-7.60085E+00-1.44243E+01 7.65113E-15-1.71509E-15
 -1       270-7.42736E+00-2.32229E+01-9.19868E+00-1.73169E+01-1.86739E-14 4.55402E-15
 -1       271-5.64724E+00-3.02268E+01-1.07675E+01-1.97659E+01 1.22597E-14-2.18026E-15
 -1       272-2.58967E+00-3.81041E+01-1.22155E+01-2.13472E+01-2.07062E-16-9.63258E-15
 -1       273 1.63436E+00-4.64293E+01-1.34483E+01-2.16476E+01-5.46575E-16 7.51307E-15
 -1       274 6.65781E+00-5.45867E+01-1.43911E+01-2.03965E+01-1.36972E-14 1.91910E-15
 -1       275 1.19120E+01-6.18885E+01-1.50080E+01-1.75948E+01-2.13041E-14-1.07861E-14
 -1       276 1.67740E+01-6.77496E+01-1.53101E+01-1.35794E+01 1.58685E-14 2.26691E-15
 -1       277 2.07452E+01-7.18528E+01-1.53517E+01-8.98628E+00-7.77608E-15 9.94247E-15
 -1       278 2.35390E+01-7.42645E+01-1.52385E+01-4.61874E+00 2.00427E-14-1.11130E-14
 -1       279 2.54713E+01-7.50062E+01-1.48821E+01-1.14139E+00-2.53920E-14 1.57481E-15
 -1       280-1.13498E+00-1.46453E+00-7.79880E-01-1.51359E+00 1.73549E-14-1.05959E-14
 -1       281-2.35028E+00-3.15878E+00-1.65281E+00-3.05785E+00-3.49473E-15 2.89145E-15
 -1       282-3.50734E+00-5.30187E+00-2.64301E+00-4.85283E+00 8.23992E-15-2.65610E-15
 -1       283-4.49372E+00-7.99083E+00-3.74588E+00-6.89431E+00 5.02959E-17-5.90688E-15
 -1       284-5.18127E+00-1.13591E+01-4.96306E+00-9.15349E+00-4.39132E-15 6.73310E-15
 -1       285-5.40221E+00-1.55454E+01-6.28587E+00-1.15538E+01 1.27442E-14-3.42317E-15
 -1       286-4.95973E+00-2.06704E+01-7.69157E+00-1.39485E+01-1.03613E-15 1.24462E-14
 -1       287-3.65481E+00-2.67942E+01-9.13855E+00-1.61038E+01 1.57998E-15-7.07281E-15
 -1       288-1.33780E+00-3.38582E+01-1.05644E+01-1.77019E+01-2.44278E-16-7.18927E-15
 -1       289 2.01938E+00-4.16278E+01-1.18902E+01-1.83809E+01-3.96214E-15 1.93889E-15
 -1       290 6.25520E+00-4.96684E+01-1.30341E+01-1.78241E+01 4.72205E-15 3.90599E-15
 -1       291 1.09968E+01-5.73882E+01-1.39303E+01-1.58807E+01 9.20668E-15 1.57163E-15
 -1       292 1.57197E+01-6.41542E+01-1.45459E+01-1.26788E+01 9.14500E-16 4.21737E-15
 -1       293 1.98823E+01-6.94530E+01-1.48893E+01-8.67587E+00 9.03135E-15 2.33251E-16
 -1       294 2.30407E+01-7.30617E+01-1.50265E+01-4.60836E+00 1.24558E-14 5.33715E-15
 -1       295 2.53230E+01-7.47136E+01-1.48386E+01-1.20786E+00 6.37469E-15 1.27723E-16
 -1       296-7.04905E-01-1.46253E+00-6.50248E-01-1.23808E+00-2.32790E-16 5.12818E-15
 -1       297-1.49170E+00-3.08891E+00-1.37425E+00-2.46897E+00-4.50356E-15-1.12436E-14
 -1       298-2.22847E+00-5.09605E+00-2.19753E+00-3.88478E+00 2.50779E-15 9.64952E-15
 -1       299-2.83755E+00-7.55946E+00-3.11946E+00-5.48468E+00-5.57062E-15-1.24798E-15
 -1       300-3.23211E+00-1.05879E+01-4.14667E+00-7.25421E+00-1.80024E-15-9.93618E-15
 -1       301-3.29546E+00-1.43013E+01-5.28017E+00-9.14912E+00-7.45701E-15 1.89066E-15
 -1       302-2.88415E+00-1.88196E+01-6.51297E+00-1.10787E+01 8.97077E-15-2.20002E-15
 -1       303-1.83895E+00-2.42373E+01-7.82571E+00-1.28891E+01 6.87701E-15-2.79147E-15
 -1       304-1.19103E-02-3.05819E+01-9.18235E+00-1.43536E+01 4.08761E-15 1.76265E-15
 -1       305 2.68659E+00-3.77601E+01-1.05281E+01-1.51846E+01 1.13131E-15-1.84586E-15
 -1       306 6.22670E+00-4.55079E+01-1.17926E+01-1.50816E+01-1.29847E-14-7.24989E-16
 -1       307 1.04067E+01-5.33756E+01-1.29016E+01-1.38229E+01-5.84780E-16 3.88992E-15
 -1       308 1.48450E+01-6.07753E+01-1.37930E+01-1.13843E+01-4.13437E-15-2.16073E-15
 -1       309 1.90444E+01-6.70923E+01-1.44312E+01-8.04304E+00-7.77764E-15 2.46135E-16
 -1       310 2.24790E+01-7.18553E+01-1.48323E+01-4.41149E+00-1.29143E-14-7.49010E-15
 -1       311 2.50566E+01-7.45335E+01-1.48644E+01-1.22754E+00-4.00936E-15 7.55126E-16
 -1       312-3.79180E-01-1.47119E+00-5.55124E-01-9.89577E-01-1.47746E-15 8.10879E-16
 -1       313-8.47080E-01-3.04953E+00-1.16903E+00-1.94639E+00 4.44919E-15-1.20011E-14
 -1       314-1.26777E+00-4.96073E+00-1.86868E+00-3.03788E+00 5.57477E-15 2.66771E-15
 -1       315-1.58471E+00-7.26503E+00-2.65518E+00-4.26451E+00-6.15957E-15 1.33990E-15
 -1       316-1.73729E+00-1.00521E+01-3.53731E+00-5.61922E+00-1.83285E-15-4.46671E-15
 -1       317-1.64294E+00-1.34247E+01-4.52113E+00-7.07642E+00-1.43605E-14 1.20041E-14
 -1       318-1.19712E+00-1.74941E+01-5.60872E+00-8.58046E+00 1.97832E-15-9.99177E-15
 -1       319-2.76878E-01-2.23660E+01-6.79502E+00-1.00322E+01 1.07558E-14 2.41989E-15
 -1       320 1.24630E+00-2.81147E+01-8.06378E+00-1.12769E+01 1.27070E-14-7.22388E-15
 -1       321 3.47895E+00-3.47403E+01-9.38320E+00-1.21012E+01-1.81601E-14 3.33467E-15
 -1       322 6.46139E+00-4.21167E+01-1.07034E+01-1.22539E+01 2.10660E-15-2.63408E-16
 -1       323 1.01138E+01-4.99444E+01-1.19585E+01-1.15041E+01-1.87153E-14-5.16790E-15
 -1       324 1.41934E+01-5.77384E+01-1.30759E+01-9.73908E+00 1.01213E-14-1.82456E-15
 -1       325 1.82963E+01-6.48721E+01-1.39884E+01-7.08562E+00 1.32814E-14 6.19487E-17
 -1       326 2.18934E+01-7.06932E+01-1.46587E+01-4.00436E+00 1.49881E-14-5.94244E-15
 -1       327 2.46665E+01-7.44937E+01-1.49693E+01-1.18199E+00 1.17805E-14-1.59463E-15
 -1       328-1.32017E-01-1.48873E+00-4.86237E-01-7.55391E-01-3.21748E-17 4.41841E-15
 -1       329-3.69185E-01-3.03519E+00-1.02135E+00-1.46443E+00 6.63118E-15-4.25482E-15
 -1       330-5.56181E-01-4.88138E+00-1.63137E+00-2.26823E+00-9.10807E-15-1.35420E-14
 -1       331-6.52617E-01-7.07557E+00-2.31866E+00-3.16768E+00 6.01392E-15 1.47400E-15
 -1       332-6.15018E-01-9.69367E+00-3.09298E+00-4.15930E+00 1.11605E-16 1.67905E-14
 -1       333-3.82838E-01-1.28250E+01-3.96301E+00-5.22834E+00 4.63159E-15-9.03127E-15
 -1       334 1.21914E-01-1.65711E+01-4.93581E+00-6.34129E+00-1.03326E-14 7.34044E-15
 -1       335 9.94300E-01-2.10384E+01-6.01492E+00-7.43635E+00 7.41590E-16 2.80403E-15
 -1       336 2.34088E+00-2.63231E+01-7.19728E+00-8.41269E+00 3.39842E-15-6.43789E-15
 -1       337 4.26469E+00-3.24819E+01-8.46908E+00-9.12294E+00 4.80663E-15 1.01293E-14
 -1       338 6.83624E+00-3.94872E+01-9.80101E+00-9.37793E+00-8.94908E-17 1.31751E-15
 -1       339 1.00492E+01-4.71707E+01-1.11446E+01-8.97747E+00 1.83356E-15 1.27810E-14
 -1       340 1.37683E+01-5.51717E+01-1.24321E+01-7.77955E+00-3.32813E-14-6.40267E-15
 -1       341 1.76900E+01-6.29149E+01-1.35820E+01-5.80736E+00 9.85769E-15-1.79823E-15
 -1       342 2.13377E+01-6.96416E+01-1.45092E+01-3.37022E+00-1.81048E-14 7.08859E-15
 -1       343 2.41809E+01-7.45975E+01-1.51460E+01-1.05212E+00 1.53942E-14 1.86773E-15
 -1       344 4.51411E-02-1.51715E+00-4.41614E-01-5.31042E-01 1.48358E-15-2.07355E-14
 -1       345-2.23863E-02-3.04832E+00-9.21244E-01-1.00542E+00-5.84210E-15 1.04588E-14
 -1       346-4.42563E-02-4.85177E+00-1.46889E+00-1.54334E+00 3.17215E-15 1.92027E-14
 -1       347 1.46204E-02-6.97139E+00-2.08719E+00-2.14351E+00-4.37325E-15-8.22311E-15
 -1       348 1.89334E-01-9.47523E+00-2.78607E+00-2.80359E+00 2.07260E-16-1.13726E-14
 -1       349 5.27473E-01-1.24434E+01-3.57531E+00-3.51538E+00 5.02426E-15 5.58380E-15
 -1       350 1.09003E+00-1.59691E+01-4.46459E+00-4.25998E+00 3.16795E-16-3.59479E-15
 -1       351 1.95262E+00-2.01555E+01-5.46227E+00-5.00160E+00-6.44738E-15 7.66837E-15
 -1       352 3.20364E+00-2.51076E+01-6.57337E+00-5.67994E+00 3.53296E-15-9.20981E-15
 -1       353 4.93637E+00-3.09129E+01-7.79628E+00-6.20300E+00 5.48441E-15-1.52949E-14
 -1       354 7.23036E+00-3.76070E+01-9.11797E+00-6.44533E+00-8.07257E-15 2.39946E-15
 -1       355 1.01175E+01-4.51195E+01-1.05078E+01-6.26126E+00 1.05517E-14-3.26831E-15
 -1       356 1.35318E+01-5.32028E+01-1.19115E+01-5.52589E+00-1.74160E-15-2.16292E-15
 -1       357 1.72500E+01-6.13604E+01-1.32469E+01-4.21160E+00-6.07502E-15-9.88642E-15
 -1       358 2.08685E+01-6.87870E+01-1.43931E+01-2.49795E+00 3.57109E-14 7.74572E-15
 -1       359 2.36718E+01-7.48088E+01-1.53621E+01-8.19293E-01-3.33795E-14-4.59305E-15
 -1       360 1.88283E-01-1.59581E+00-4.22268E-01-3.03802E-01 3.55273E-15-1.05310E-14
 -1       361 2.07206E-01-3.10353E+00-8.68927E-01-5.61643E-01 1.34488E-15 1.02349E-14
 -1       362 2.77724E-01-4.87473E+00-1.37917E+00-8.44775E-01-6.70439E-15-1.22786E-14
 -1       363 4.28325E-01-6.94767E+00-1.95595E+00-1.15525E+00 1.03184E-15-2.43293E-15
 -1       364 6.87342E-01-9.38391E+00-2.60924E+00-1.49365E+00 4.91030E-15 4.61527E-15
 -1       365 1.09379E+00-1.22570E+01-3.34941E+00-1.85720E+00-9.56488E-15 2.11251E-15
 -1       366 1.69814E+00-1.56538E+01-4.18747E+00-2.23775E+00 2.29611E-15 1.03223E-15
 -1       367 2.56390E+00-1.96742E+01-5.13430E+00-2.61886E+00 1.04703E-15-5.46889E-15
 -1       368 3.76740E+00-2.44253E+01-6.19930E+00-2.97201E+00 1.45086E-15 2.10155E-15
 -1       369 5.39339E+00-3.00094E+01-7.38778E+00-3.25243E+00 1.27092E-14 1.92254E-15
 -1       370 7.52219E+00-3.64964E+01-8.69677E+00-3.39670E+00-1.14500E-14 1.86327E-14
 -1       371 1.02030E+01-4.38750E+01-1.01083E+01-3.32697E+00-2.85817E-14-5.16090E-15
 -1       372 1.34076E+01-5.19753E+01-1.15799E+01-2.96938E+00 1.38144E-14-3.47781E-15
 -1       373 1.69631E+01-6.03687E+01-1.30349E+01-2.29376E+00-7.39354E-15 8.48725E-16
 -1       374 2.05286E+01-6.82372E+01-1.43297E+01-1.38083E+00-4.09802E-14-7.26415E-15
 -1       375 2.32512E+01-7.50447E+01-1.55590E+01-4.70450E-01 9.89516E-15 5.74598E-16
 -1       376-4.00534E-02-2.32188E-02-1.89815E-02 1.72586E-01-2.21023E-13 4.99666E-14
 -1       377-9.84398E+02-1.37334E+03-7.13221E+02 4.95452E+02-3.20446E-14-7.43768E-16
 -1       378 1.09653E+02-3.48836E+00 3.18161E+01 1.28717E+00 1.75967E-13-1.77908E-15
 -1       379 3.09957E-02-1.00674E+01-3.01120E+00 2.00361E-01 6.96020E-13-4.33148E-14
 -1       381-7.55187E-01-1.34066E-01-2.66780E-01 1.47744E-01 1.02034E-12-4.30090E-14
 -1       382-3.25514E+00-1.28709E-01-1.01519E+00 1.54331E-01 4.23118E-13-1.73814E-13
 -1       383-7.66632E+00-1.04657E-01-2.33147E+00 2.30235E-01-7.76333E-14 4.15835E-14
 -1       384-1.32552E+01-1.38377E-01-4.01856E+00 3.16886E-01 1.94559E-13-1.25514E-13
 -1       385-1.94301E+01-1.87139E-01-5.88623E+00 3.94401E-01 6.27091E-13-1.11886E-13
 -1       386-2.57965E+01-2.40303E-01-7.81287E+00 4.59919E-01-3.81765E-13 1.54456E-13
 -1       387-3.20519E+01-2.89221E-01-9.70514E+00 5.11468E-01 1.46927E-13 3.27315E-14
 -1       388-3.79677E+01-3.26214E-01-1.14921E+01 5.48435E-01 7.63024E-14 2.74584E-14
 -1       389-4.33829E+01-3.42711E-01-1.31228E+01 5.71823E-01 1.20194E-13 1.29573E-14
 -1       390-4.81981E+01-3.28610E-01-1.45644E+01 5.84360E-01-5.33512E-15-3.41083E-15
 -1       391-5.23662E+01-2.71135E-01-1.57987E+01 5.90566E-01-1.69524E-13 9.13301E-14
 -1       392-5.58804E+01-1.52860E-01-1.68185E+01 5.97036E-01-1.63211E-13-7.72644E-15
 -1       393-5.87612E+01 5.18648E-02-1.76223E+01 6.13351E-01 1.21468E-13-1.90538E-14
 -1       394-6.10429E+01 3.83425E-01-1.82081E+01 6.54400E-01 1.82883E-13-2.86882E-15
 -1       395-6.27589E+01 9.09473E-01-1.85657E+01 7.45886E-01-1.60651E-14 1.44833E-14
 -1       396-6.39248E+01 1.74945E+00-1.86640E+01 9.37556E-01 1.62366E-13-6.41893E-16
 -1       397-6.45090E+01 3.13245E+00-1.84248E+01 1.33953E+00-3.35095E-13 3.14650E-14
 -1       398-6.43951E+01 5.50600E+00-1.76788E+01 2.22720E+00-1.97813E-13 3.66998E-14
 -1       399-6.34302E+01 9.88637E+00-1.60753E+01 4.52633E+00 4.13499E-14-9.53515E-15
 -1       400-6.59774E+01 1.56198E+01-1.51217E+01 1.17927E+01 1.21408E-13-3.42535E-14
 -1       401-1.24554E+02 2.39888E+00-3.67394E+01 5.13417E+01 3.73561E-14 8.56092E-15
 -1       402-3.66034E+02-1.94433E+02-1.68582E+02 2.18450E+02-3.00095E-14-2.46018E-15
 -1       403-3.06742E+02-8.86265E+02-3.59661E+02 1.79165E+02 1.60952E-14 4.47708E-16
 -1       404-1.47798E+02-5.04454E+02-1.96303E+02 6.65407E+01 1.42070E-13 6.14610E-16
 -1       405-8.37313E+01-3.12295E+02-1.19047E+02 3.26152E+01 1.56752E-13-3.50057E-16
 -1       406-6.11853E+01-2.21789E+02-8.50103E+01 1.84100E+01-1.69978E-14 3.13473E-16
 -1       407-4.84378E+01-1.67686E+02-6.49036E+01 1.15211E+01-1.11895E-13-1.83475E-16
 -1       408-3.90872E+01-1.31742E+02-5.12893E+01 7.73722E+00 1.47821E-14 3.62652E-17
 -1       409-3.08304E+01-1.05961E+02-4.10635E+01 5.50551E+00 1.82785E-13-5.43228E-17
 -1       410-2.28102E+01-8.64496E+01-3.27955E+01 4.11130E+00 3.43607E-15 2.01930E-16
 -1       411-1.46002E+01-7.10302E+01-2.57012E+01 3.20324E+00-3.25522E-13-5.95111E-17
 -1       412-5.93036E+00-5.84026E+01-1.93086E+01 2.59266E+00 1.42866E-13 2.77595E-16
 -1       413 3.43829E+00-4.77520E+01-1.33008E+01 2.17266E+00-6.41894E-14-4.93327E-16
 -1       414 1.37836E+01-3.85630E+01-7.43967E+00 1.87968E+00 2.90031E-14-2.53869E-16
 -1       415 2.54861E+01-3.05354E+01-1.52091E+00 1.67437E+00 1.60220E-13 3.09962E-16
 -1       416 3.91163E+01-2.35661E+01 4.65729E+00 1.53133E+00-2.26048E-13-2.53787E-16
 -1       417 5.55821E+01-1.78084E+01 1.13206E+01 1.43223E+00 2.76555E-13-1.50532E-16
 -1       418 7.64022E+01-1.39814E+01 1.87076E+01 1.36179E+00 2.41749E-13 1.46258E-15
 -1       419 1.09511E+02-3.50232E+00 3.17694E+01 4.50982E-01-2.35130E-13-3.79961E-15
 -1       420 1.09070E+02-3.53290E+00 3.16283E+01 8.76478E-01 4.03542E-13 4.07253E-15
 -1       421 1.08272E+02-3.57659E+00 3.13761E+01 1.33745E+00 1.06185E-13-8.07857E-15
 -1       422 1.07024E+02-3.63776E+00 3.09842E+01 1.82299E+00 1.28326E-13 6.17045E-15
 -1       423 1.05229E+02-3.72152E+00 3.04214E+01 2.32338E+00-1.97282E-13-5.90975E-15
 -1       424 1.02781E+02-3.83418E+00 2.96547E+01 2.82318E+00 1.52974E-13 3.98197E-14
 -1       425 9.95816E+01-3.98332E+00 2.86518E+01 3.30180E+00-2.07869E-13-5.31085E-14
 -1       426 9.55429E+01-4.17769E+00 2.73839E+01 3.73405E+00-1.86526E-13-3.26424E-14
 -1       427 9.06072E+01-4.42661E+00 2.58309E+01 4.09197E+00-1.05294E-13 2.69426E-14
 -1       428 8.47601E+01-4.73869E+00 2.39859E+01 4.34806E+00-1.15390E-13 9.76468E-15
 -1       429 7.80442E+01-5.11968E+00 2.18597E+01 4.47992E+00 3.54352E-13 1.38846E-13
 -1       430 7.05656E+01-5.56978E+00 1.94841E+01 4.47520E+00 2.31029E-13-6.70764E-14
 -1       431 6.24916E+01-6.08125E+00 1.69114E+01 4.33525E+00-2.43702E-13 6.54537E-14
 -1       432 5.40351E+01-6.63765E+00 1.42102E+01 4.07579E+00 4.85722E-13-1.38146E-14
 -1       433 4.54314E+01-7.21563E+00 1.14581E+01 3.72354E+00-2.06373E-13-1.77603E-14
 -1       434 3.69139E+01-7.78898E+00 8.73281E+00 3.30975E+00 1.45357E-13 2.71395E-14
 -1       435 2.86981E+01-8.33310E+00 6.10641E+00 2.86255E+00 3.22853E-13 6.02239E-14
 -1       436 2.09833E+01-8.82772E+00 3.64476E+00 2.40102E+00-3.84031E-13-1.45292E-13
 -1       437 1.39767E+01-9.25480E+00 1.41544E+00 1.93226E+00-1.18718E-13-5.76929E-15
 -1       438 7.94876E+00-9.58859E+00-4.92588E-01 1.45042E+00 2.50696E-13 3.22722E-14
 -1       439 3.36208E+00-9.75742E+00-1.91899E+00 9.43701E-01-4.76604E-13 5.29306E-14
 -1       440 8.64547E-01-9.70133E+00-2.65132E+00 4.43725E-01-9.34444E-13 4.60825E-14
 -1       441 5.49032E-01-9.78192E+00-2.77014E+00 3.92116E-01-5.08752E-13-2.08868E-14
 -1       442 4.44950E-01-9.35472E+00-2.67319E+00 7.63950E-01-3.98857E-13-3.22727E-15
 -1       443 2.72503E-01-8.38153E+00-2.43292E+00 1.11904E+00 7.57905E-14 1.12275E-15
 -1       444 1.26856E-01-7.06856E+00-2.08266E+00 1.35589E+00 4.61644E-14-1.12481E-13
 -1       445 1.36775E-02-5.64549E+00-1.68965E+00 1.46394E+00 4.37682E-13 1.04874E-13
 -1       446-7.81605E-02-4.28023E+00-1.30758E+00 1.46164E+00-6.04078E-13 1.06536E-13
 -1       447-1.58994E-01-3.07490E+00-9.70208E-01 1.37508E+00 2.76020E-13-8.29820E-14
 -1       448-2.34387E-01-2.07940E+00-6.94158E-01 1.23053E+00-8.02645E-14-4.13595E-14
 -1       449-3.05141E-01-1.30656E+00-4.83522E-01 1.05176E+00-5.44243E-13 7.11883E-15
 -1       450-3.68333E-01-7.44904E-01-3.33978E-01 8.59344E-01 1.94868E-13-5.37957E-14
 -1       451-4.18509E-01-3.68344E-01-2.36060E-01 6.70518E-01-4.58676E-14-2.64099E-14
 -1       452-4.48780E-01-1.43245E-01-1.77610E-01 4.99364E-01 1.89936E-14-4.98783E-14
 -1       453-4.51764E-01-3.33886E-02-1.45547E-01 3.57027E-01 4.76551E-13-4.80542E-14
 -1       454-4.20372E-01-3.31970E-03-1.27109E-01 2.51891E-01 2.77721E-14-6.48167E-15
 -1       455-3.48384E-01-2.02600E-02-1.10594E-01 1.89692E-01-4.50055E-13 9.62311E-14
 -1       456-2.32497E-01-5.63441E-02-8.66525E-02 1.73462E-01 7.85724E-14-6.37887E-14
 -1       457-1.06688E+00-2.54605E-01-3.96451E-01 2.51556E-01-3.36659E-13-5.01487E-14
 -1       458-1.30268E+00-3.67881E-01-5.01178E-01 4.54003E-01 2.04137E-13-1.61346E-14
 -1       459-1.48510E+00-5.37459E-01-6.06781E-01 7.01511E-01 2.41143E-13-3.58237E-14
 -1       460-1.60530E+00-7.65482E-01-7.11254E-01 9.91026E-01 3.05905E-13-2.17418E-15
 -1       461-1.65681E+00-1.05616E+00-8.13917E-01 1.31669E+00-6.47731E-13 3.43864E-14
 -1       462-1.63389E+00-1.41515E+00-9.14747E-01 1.66930E+00 3.82914E-14 9.39921E-15
 -1       463-1.53188E+00-1.84949E+00-1.01446E+00 2.03504E+00-2.03676E-14 4.91963E-14
 -1       464-1.34747E+00-2.36714E+00-1.11445E+00 2.39458E+00 3.50457E-13-4.33078E-14
 -1       465-1.07923E+00-2.97588E+00-1.21662E+00 2.72217E+00 4.32863E-13-2.44066E-14
 -1       466-7.28417E-01-3.68131E+00-1.32303E+00 2.98504E+00 2.36596E-13-2.66679E-14
 -1       467-3.00558E-01-4.48404E+00-1.43552E+00 3.14326E+00 6.57300E-13 2.76479E-14
 -1       468 1.91471E-01-5.37588E+00-1.55549E+00 3.15085E+00 1.60110E-13 1.19980E-13
 -1       469 7.21306E-01-6.33552E+00-1.68446E+00 2.95952E+00 3.61189E-14-5.39901E-14
 -1       470 1.23693E+00-7.32374E+00-1.82627E+00 2.52848E+00 3.67156E-13-2.29479E-14
 -1       471 1.63633E+00-8.27497E+00-1.99185E+00 1.84634E+00-1.69235E-13 8.00284E-14
 -1       472 1.72562E+00-9.04546E+00-2.19623E+00 9.80232E-01-6.95773E-14-7.27520E-14
 -1       473-3.56327E+00-2.19615E-01-1.13491E+00 4.58666E-01-2.42950E-13 7.93477E-14
 -1       474-3.76152E+00-2.67908E-01-1.20888E+00 1.00463E+00 1.57868E-13-1.83528E-15
 -1       475-3.88253E+00-3.80599E-01-1.27901E+00 1.57222E+00-5.79951E-13 3.02989E-14
 -1       476-3.91168E+00-5.64585E-01-1.34296E+00 2.16137E+00 3.55858E-14 1.85507E-14
 -1       477-3.83643E+00-8.27364E-01-1.39924E+00 2.76755E+00 2.96900E-13-1.52119E-14
 -1       478-3.64480E+00-1.17587E+00-1.44633E+00 3.38211E+00-9.85465E-14 2.49618E-14
 -1       479-3.32583E+00-1.61655E+00-1.48287E+00 3.99015E+00-4.32663E-13 1.50318E-14
 -1       480-2.87019E+00-2.15525E+00-1.50782E+00 4.56900E+00-2.05166E-14-6.19214E-15
 -1       481-2.27111E+00-2.79682E+00-1.52061E+00 5.08646E+00 6.30655E-14-1.59396E-14
 -1       482-1.52593E+00-3.54430E+00-1.52134E+00 5.49925E+00 6.63700E-14-2.94576E-14
 -1       483-6.38860E-01-4.39721E+00-1.51113E+00 5.75192E+00-3.98102E-14 2.33366E-14
 -1       484 3.73869E-01-5.34827E+00-1.49267E+00 5.77709E+00 1.45695E-13 1.25583E-13
 -1       485 1.47461E+00-6.37717E+00-1.47115E+00 5.49822E+00-4.90802E-13-9.97277E-14
 -1       486 2.58676E+00-7.43798E+00-1.45577E+00 4.83667E+00-1.50268E-13-1.99535E-14
 -1       487 3.56151E+00-8.43211E+00-1.46160E+00 3.72364E+00-3.16530E-14 2.41998E-14
 -1       488 4.11697E+00-9.13744E+00-1.50655E+00 2.08852E+00-3.15015E-13-1.02433E-13
 -1       489-7.74781E+00-1.48279E-01-2.36901E+00 6.88501E-01-1.35068E-13-1.48597E-14
 -1       490-7.74396E+00-2.03728E-01-2.38450E+00 1.50392E+00-3.62264E-13 4.24902E-14
 -1       491-7.64717E+00-3.08278E-01-2.38685E+00 2.34584E+00 3.40869E-14-2.13244E-14
 -1       492-7.43786E+00-4.73898E-01-2.37376E+00 3.20607E+00 1.19174E-13-4.09385E-14
 -1       493-7.09544E+00-7.12616E-01-2.34268E+00 4.07351E+00-1.38254E-13-1.92599E-15
 -1       494-6.59879E+00-1.03635E+00-2.29085E+00 4.93446E+00-4.27500E-14-3.52420E-15
 -1       495-5.92685E+00-1.45655E+00-2.21537E+00 5.76976E+00 4.71373E-13 2.23507E-14
 -1       496-5.05969E+00-1.98372E+00-2.11342E+00 6.55252E+00-4.85793E-13-2.01162E-14
 -1       497-3.98002E+00-2.62665E+00-1.98245E+00 7.24563E+00 5.08465E-15-2.69590E-14
 -1       498-2.67579E+00-3.39113E+00-1.82058E+00 7.79892E+00 1.92796E-14-2.15211E-14
 -1       499-1.14452E+00-4.27739E+00-1.62713E+00 8.14637E+00-1.16413E-13 2.04367E-14
 -1       500 5.99095E-01-5.27566E+00-1.40357E+00 8.20381E+00 2.07918E-13 1.16453E-13
 -1       501 2.51004E+00-6.35784E+00-1.15499E+00 7.86783E+00 1.84462E-13-6.62271E-14
 -1       502 4.49039E+00-7.46306E+00-8.92473E-01 7.01635E+00 1.42736E-13-4.57039E-14
 -1       503 6.35023E+00-8.47458E+00-6.37986E-01 5.50823E+00-3.46809E-13 2.80075E-16
 -1       504 7.74336E+00-9.19461E+00-4.36036E-01 3.16115E+00 5.68466E-14 2.42124E-14
 -1       505-1.30176E+01-1.06424E-01-3.93769E+00 8.97177E-01 4.50708E-14 2.98293E-14
 -1       506-1.27119E+01-1.57860E-01-3.86140E+00 1.92852E+00-9.19420E-14-3.21324E-14
 -1       507-1.22929E+01-2.54905E-01-3.76484E+00 2.99342E+00 1.50531E-13-1.04500E-14
 -1       508-1.17404E+01-4.08522E-01-3.64520E+00 4.08214E+00 1.31897E-15-2.70992E-14
 -1       509-1.10288E+01-6.29954E-01-3.49817E+00 5.18019E+00-2.75446E-13 1.84384E-15
 -1       510-1.01300E+01-9.32121E-01-3.31921E+00 6.26978E+00 1.34505E-13-1.92816E-14
 -1       511-9.01381E+00-1.32885E+00-3.10342E+00 7.32690E+00-5.48418E-13 3.14681E-14
 -1       512-7.64924E+00-1.83415E+00-2.84570E+00 8.31899E+00 2.40219E-13-2.17505E-14
 -1       513-6.00618E+00-2.46100E+00-2.54089E+00 9.20181E+00-1.32094E-13 6.48946E-16
 -1       514-4.05896E+00-3.21934E+00-2.18430E+00 9.91562E+00-2.55960E-13-2.72033E-14
 -1       515-1.79223E+00-4.11267E+00-1.77234E+00 1.03807E+01 6.64954E-14 2.00196E-14
 -1       516 7.89338E-01-5.13233E+00-1.30383E+00 1.04922E+01 3.62288E-13 1.15112E-13
 -1       517 3.64507E+00-6.24814E+00-7.81908E-01 1.01161E+01-1.60055E-13-7.44407E-14
 -1       518 6.67285E+00-7.39390E+00-2.17344E-01 9.08407E+00-5.43405E-14-3.79588E-14
 -1       519 9.66904E+00-8.44881E+00 3.65011E-01 7.19043E+00 1.97107E-13 3.03230E-14
 -1       520 1.22791E+01-9.21080E+00 9.19401E-01 4.16545E+00-1.03213E-13-1.96300E-14
 -1       521-1.88482E+01-7.42616E-02-5.67773E+00 1.07133E+00-3.95112E-13 5.06773E-14
 -1       522-1.82161E+01-1.20766E-01-5.50203E+00 2.27567E+00 9.41252E-15 2.85514E-14
 -1       523-1.74461E+01-2.06234E-01-5.29664E+00 3.52276E+00 3.57650E-13 4.07796E-15
 -1       524-1.65179E+01-3.43196E-01-5.05925E+00 4.80241E+00-8.21355E-14 3.26957E-14
 -1       525-1.54016E+01-5.42935E-01-4.78429E+00 6.09922E+00-7.98989E-14 4.97100E-14
 -1       526-1.40630E+01-8.19211E-01-4.46562E+00 7.39387E+00-2.44222E-13-5.11588E-15
 -1       527-1.24631E+01-1.18762E+00-4.09621E+00 8.65941E+00 6.61827E-14 2.33942E-14
 -1       528-1.05593E+01-1.66501E+00-3.66832E+00 9.85839E+00 1.59045E-13-1.12938E-14
 -1       529-8.30685E+00-2.26820E+00-3.17360E+00 1.09389E+01-6.26136E-14-2.60152E-14
 -1       530-5.66368E+00-3.01150E+00-2.60371E+00 1.18298E+01 3.61777E-14-1.59087E-14
 -1       531-2.59701E+00-3.90259E+00-1.95111E+00 1.24347E+01 1.59067E-13 2.76636E-14
 -1       532 9.04898E-01-4.93593E+00-1.21062E+00 1.26250E+01-2.54303E-13 1.07642E-13
 -1       533 4.81484E+00-6.08262E+00-3.81723E-01 1.22331E+01 1.25950E-13-5.34838E-14
 -1       534 9.03957E+00-7.27530E+00 5.27813E-01 1.10455E+01 1.42783E-14-2.25627E-14
 -1       535 1.33790E+01-8.38709E+00 1.49600E+00 8.79511E+00-1.62232E-14 4.61568E-14
 -1       536 1.74723E+01-9.20358E+00 2.47893E+00 5.13032E+00-1.98911E-13-2.91920E-14
 -1       537-2.48769E+01-4.69459E-02-7.47888E+00 1.20908E+00 1.58635E-13-1.19458E-14
 -1       538-2.39275E+01-8.65454E-02-7.20586E+00 2.54525E+00 1.24492E-13 2.25227E-14
 -1       539-2.28183E+01-1.57567E-01-6.89431E+00 3.93616E+00-1.22883E-14-3.82491E-14
 -1       540-2.15273E+01-2.73830E-01-6.54184E+00 5.37295E+00-1.51321E-14-1.73853E-14
 -1       541-2.00188E+01-4.47336E-01-6.14129E+00 6.84096E+00 1.39637E-13-1.42060E-14
 -1       542-1.82499E+01-6.93682E-01-5.68450E+00 8.32079E+00 9.41512E-15-1.27340E-14
 -1       543-1.61703E+01-1.03119E+00-5.16187E+00 9.78369E+00-1.19158E-13 1.46182E-15
 -1       544-1.37226E+01-1.48021E+00-4.56230E+00 1.11876E+01-3.24226E-13-5.12698E-15
 -1       545-1.08450E+01-2.06154E+00-3.87347E+00 1.24723E+01 2.27886E-14-1.58689E-14
 -1       546-7.47614E+00-2.79336E+00-3.08240E+00 1.35533E+01 1.82071E-13-2.52394E-14
 -1       547-3.56360E+00-3.68643E+00-2.17663E+00 1.43150E+01-1.70389E-15 2.04525E-14
 -1       548 9.22798E-01-4.73694E+00-1.14596E+00 1.46035E+01 8.31197E-14 1.02779E-13
 -1       549 5.97242E+00-5.91628E+00 1.50067E-02 1.42181E+01-1.61553E-13-8.66721E-14
 -1       550 1.15068E+01-7.15576E+00 1.30333E+00 1.29019E+01 2.41513E-13-3.08747E-14
 -1       551 1.73377E+01-8.32429E+00 2.70183E+00 1.03303E+01 4.46821E-14 5.18062E-15
 -1       552 2.31074E+01-9.19585E+00 4.17094E+00 6.06597E+00-2.40378E-13-4.42834E-14
 -1       553-3.08334E+01-2.35198E-02-9.25971E+00 1.30886E+00 2.25445E-13-2.36092E-14
 -1       554-2.96070E+01-5.49374E-02-8.90105E+00 2.73773E+00-2.13345E-13 5.14064E-14
 -1       555-2.82032E+01-1.09764E-01-8.49623E+00 4.23842E+00 2.03275E-13 3.01441E-14
 -1       556-2.65966E+01-2.04058E-01-8.04240E+00 5.80504E+00-9.62461E-14 1.75600E-14
 -1       557-2.47420E+01-3.51749E-01-7.53022E+00 7.42504E+00 1.53255E-13-7.29285E-15
 -1       558-2.25840E+01-5.71639E-01-6.94872E+00 9.07961E+00 9.28172E-14-7.61628E-16
 -1       559-2.00563E+01-8.86049E-01-6.28466E+00 1.07378E+01 1.28844E-13 2.97370E-14
 -1       560-1.70822E+01-1.31954E+00-5.52247E+00 1.23512E+01-2.75325E-13 2.08792E-14
 -1       561-1.35794E+01-1.89630E+00-4.64465E+00 1.38483E+01 3.87959E-14-2.21298E-14
 -1       562-9.46618E+00-2.63604E+00-3.63265E+00 1.51277E+01 9.57310E-14-2.13991E-14
 -1       563-4.67258E+00-3.54837E+00-2.46834E+00 1.60520E+01-1.67383E-13 1.97198E-14
 -1       564 8.46255E-01-4.62591E+00-1.13605E+00 1.64416E+01 1.15760E-15 9.53263E-14
 -1       565 7.09304E+00-5.83573E+00 3.74876E-01 1.60667E+01 3.37708E-13-3.56386E-14
 -1       566 1.40055E+01-7.10679E+00 2.06705E+00 1.46356E+01 4.83930E-14-2.59363E-14
 -1       567 2.14181E+01-8.30880E+00 3.92984E+00 1.17741E+01 1.04667E-13 1.46389E-14
 -1       568 2.89990E+01-9.21547E+00 5.93146E+00 6.95820E+00-1.82998E-13-5.83633E-14
 -1       569-3.65225E+01-4.40263E-03-1.09618E+01 1.37193E+00-3.35169E-14 1.75559E-14
 -1       570-3.50907E+01-2.77839E-02-1.05390E+01 2.85954E+00-4.20717E-14-5.16509E-14
 -1       571-3.34690E+01-6.79521E-02-1.00643E+01 4.44438E+00 1.05113E-13-1.52171E-14
 -1       572-3.16237E+01-1.44686E-01-9.53356E+00 6.12511E+00-2.06746E-13-1.44987E-14
 -1       573-2.94952E+01-2.76085E-01-8.93424E+00 7.89196E+00-8.91015E-14 1.94110E-15
 -1       574-2.70090E+01-4.86285E-01-8.25129E+00 9.72576E+00-8.06434E-15-1.00333E-14
 -1       575-2.40759E+01-8.03043E-01-7.46629E+00 1.15903E+01 7.92491E-14 2.64520E-14
 -1       576-2.05956E+01-1.25492E+00-6.55766E+00 1.34259E+01 2.24042E-13-1.61151E-14
 -1       577-1.64634E+01-1.86675E+00-5.50152E+00 1.51430E+01-2.47172E-13-1.35447E-14
 -1       578-1.15816E+01-2.65381E+00-4.27308E+00 1.66175E+01 2.25353E-13-1.69204E-14
 -1       579-5.87133E+00-3.61584E+00-2.84865E+00 1.76873E+01 1.29489E-13 1.88340E-14
 -1       580 7.15499E-01-4.73227E+00-1.20765E+00 1.81506E+01 1.90266E-14 8.37659E-14
 -1       581 8.18618E+00-5.95870E+00 6.65418E-01 1.77591E+01-7.21980E-14-5.15873E-14
 -1       582 1.64949E+01-7.22132E+00 2.77889E+00 1.62030E+01 1.31446E-13-2.34993E-14
 -1       583 2.55145E+01-8.40088E+00 5.13029E+00 1.30751E+01-1.30395E-13-1.77122E-15
 -1       584 3.49761E+01-9.29441E+00 7.69966E+00 7.77044E+00-7.53164E-14 4.05107E-15
 -1       585-4.18201E+01 9.70886E-03-1.25479E+01 1.40318E+00 3.62157E-14-3.95422E-14
 -1       586-4.02877E+01-8.22931E-03-1.20933E+01 2.92517E+00-2.50721E-13 7.08082E-14
 -1       587-3.85565E+01-4.04917E-02-1.15833E+01 4.58274E+00 1.20995E-15 1.34386E-14
 -1       588-3.65762E+01-1.13281E-01-1.10108E+01 6.38031E+00-3.65435E-14-8.28743E-16
 -1       589-3.42636E+01-2.52308E-01-1.03585E+01 8.30991E+00-2.01654E-16 2.12645E-14
 -1       590-3.15157E+01-4.89835E-01-9.60519E+00 1.03480E+01 6.98721E-14-2.57540E-15
 -1       591-2.82124E+01-8.59955E-01-8.72505E+00 1.24457E+01-1.88886E-14 1.71972E-14
 -1       592-2.42262E+01-1.39273E+00-7.68885E+00 1.45215E+01-2.37381E-14-1.23645E-14
 -1       593-1.94352E+01-2.10654E+00-6.46556E+00 1.64574E+01-1.36807E-13-1.44124E-14
 -1       594-1.37385E+01-3.00069E+00-5.02475E+00 1.80990E+01 4.41341E-14-1.16923E-14
 -1       595-7.06777E+00-4.05098E+00-3.33861E+00 1.92604E+01 4.22809E-14 2.00933E-14
 -1       596 6.09604E-01-5.21085E+00-1.38346E+00 1.97275E+01-1.71258E-14 5.66465E-14
 -1       597 9.29437E+00-6.41761E+00 8.59685E-01 1.92537E+01-4.91478E-15-3.98245E-14
 -1       598 1.89601E+01-7.59808E+00 3.40477E+00 1.75360E+01 8.47905E-14-2.30152E-14
 -1       599 2.95401E+01-8.66126E+00 6.25891E+00 1.41590E+01-3.02720E-13-1.58073E-14
 -1       600 4.08761E+01-9.46248E+00 9.41777E+00 8.45000E+00-2.74334E-14-3.51137E-14
 -1       601-4.66692E+01 1.78678E-02-1.40014E+01 1.41150E+00 6.67446E-14-2.05648E-14
 -1       602-4.51789E+01-1.01350E-03-1.35596E+01 2.95843E+00 1.49347E-13-3.44979E-14
 -1       603-4.34796E+01-4.01699E-02-1.30613E+01 4.69897E+00-3.15198E-14-2.04369E-14
 -1       604-4.14907E+01-1.36718E-01-1.24933E+01 6.64323E+00 2.06913E-13-7.97467E-15
 -1       605-3.90908E+01-3.28935E-01-1.18307E+01 8.78068E+00 4.05395E-14-5.50946E-14
 -1       606-3.61341E+01-6.60063E-01-1.10427E+01 1.10735E+01 1.43715E-13-3.32102E-14
 -1       607-3.24626E+01-1.16911E+00-1.00937E+01 1.34452E+01 2.49851E-13-3.96217E-15
 -1       608-2.79252E+01-1.87991E+00-8.94550E+00 1.57755E+01 1.67544E-13-1.77972E-14
 -1       609-2.24003E+01-2.78998E+00-7.56084E+00 1.79039E+01-1.57754E-14-2.67215E-14
 -1       610-1.58119E+01-3.86372E+00-5.90625E+00 1.96420E+01-1.31898E-13-2.18309E-14
 -1       611-8.13140E+00-5.03457E+00-3.95329E+00 2.07891E+01 7.25073E-15 8.38391E-15
 -1       612 6.36394E-01-6.21813E+00-1.67809E+00 2.11415E+01 2.33037E-13 7.34390E-14
 -1       613 1.04791E+01-7.33273E+00 9.40049E-01 2.04838E+01 6.23988E-14-3.62131E-14
 -1       614 2.14001E+01-8.31768E+00 3.92023E+00 1.85501E+01-7.28125E-14-7.13732E-15
 -1       615 3.34213E+01-9.13454E+00 7.28031E+00 1.49425E+01 2.54012E-13 3.25896E-14
 -1       616 4.65457E+01-9.73857E+00 1.10343E+01 8.93916E+00-1.04001E-14 4.20644E-15
 -1       617-5.10766E+01 1.84401E-02-1.53246E+01 1.41013E+00-1.59089E-13-6.77900E-15
 -1       618-4.98175E+01-1.38717E-02-1.49563E+01 2.99436E+00 1.15284E-14 2.80473E-14
 -1       619-4.83281E+01-8.75238E-02-1.45313E+01 4.85999E+00-2.68202E-13 2.70786E-14
 -1       620-4.64738E+01-2.57659E-01-1.40257E+01 7.01949E+00-9.45409E-14 1.35876E-14
 -1       621-4.40712E+01-5.81418E-01-1.34018E+01 9.44805E+00-2.21918E-14-9.04871E-15
 -1       622-4.09161E+01-1.11400E+00-1.26147E+01 1.20731E+01 3.18621E-14 1.58012E-14
 -1       623-3.68118E+01-1.89166E+00-1.16163E+01 1.47641E+01-6.35578E-14 1.46687E-14
 -1       624-3.16053E+01-2.91419E+00-1.03607E+01 1.73384E+01-1.62673E-13-1.20533E-14
 -1       625-2.52146E+01-4.13277E+00-8.80872E+00 1.95822E+01-2.43516E-13-2.79161E-15
 -1       626-1.76329E+01-5.45083E+00-6.92932E+00 2.12815E+01 7.55903E-14-6.27349E-15
 -1       627-8.90596E+00-6.74190E+00-4.69838E+00 2.22477E+01-1.16413E-13 1.36157E-14
 -1       628 9.10754E-01-7.88135E+00-2.09521E+00 2.23242E+01 1.39533E-14 5.76414E-14
 -1       629 1.17986E+01-8.78163E+00 9.00746E-01 2.13617E+01-9.41544E-14-2.55785E-14
 -1       630 2.38123E+01-9.41822E+00 4.31310E+00 1.91578E+01-1.39987E-13-3.59458E-14
 -1       631 3.70931E+01-9.83418E+00 8.17101E+00 1.53511E+01-8.51570E-14-5.67462E-15
 -1       632 5.18494E+01-1.01238E+01 1.25082E+01 9.18884E+00-1.19852E-13-1.50095E-14
 -1       633-5.51111E+01 8.04857E-03-1.65393E+01 1.41797E+00 1.41180E-13-2.97743E-14
 -1       634-5.43343E+01-6.07265E-02-1.63267E+01 3.08413E+00 5.61173E-14-8.83407E-16
 -1       635-5.32744E+01-2.18132E-01-1.60557E+01 5.16437E+00-9.22178E-14-3.12900E-14
 -1       636-5.17011E+01-5.47895E-01-1.56824E+01 7.66207E+00 1.09718E-13-2.35417E-14
 -1       637-4.93361E+01-1.13208E+00-1.51479E+01 1.05112E+01 1.16433E-13 1.68106E-14
 -1       638-4.59045E+01-2.03195E+00-1.43879E+01 1.35650E+01-4.07646E-14-2.15900E-14
 -1       639-4.11949E+01-3.25956E+00-1.33428E+01 1.65993E+01 1.31676E-13 9.27051E-15
 -1       640-3.51085E+01-4.75581E+00-1.19653E+01 1.93451E+01-2.63980E-13-1.07847E-14
 -1       641-2.76716E+01-6.38719E+00-1.02230E+01 2.15417E+01 3.59188E-13-1.46644E-14
 -1       642-1.90003E+01-7.96896E+00-8.09568E+00 2.29847E+01-1.42330E-14-1.62852E-14
 -1       643-9.23575E+00-9.31017E+00-5.56833E+00 2.35481E+01 5.13698E-14 4.72785E-15
 -1       644 1.52532E+00-1.02649E+01-2.62635E+00 2.31679E+01-5.89444E-14 4.96417E-14
 -1       645 1.32850E+01-1.07729E+01 7.48846E-01 2.17896E+01 2.68396E-13-3.62676E-14
 -1       646 2.61798E+01-1.08794E+01 4.58441E+00 1.92861E+01 6.21560E-15-5.15470E-15
 -1       647 4.04969E+01-1.07353E+01 8.92088E+00 1.53363E+01 4.68152E-14 2.44371E-14
 -1       648 5.66776E+01-1.05997E+01 1.38123E+01 9.17037E+00 1.60435E-14-4.34716E-14
 -1       649-5.89079E+01-2.06690E-02-1.76881E+01 1.46305E+00-1.09486E-13 7.39635E-15
 -1       650-5.89540E+01-1.68538E-01-1.77463E+01 3.30600E+00 1.15164E-13 4.39988E-15
 -1       651-5.85881E+01-4.97628E-01-1.77353E+01 5.76302E+00 2.00768E-13-1.46134E-14
 -1       652-5.74146E+01-1.13416E+00-1.75741E+01 8.79715E+00 3.25687E-14-1.43500E-14
 -1       653-5.50206E+01-2.18548E+00-1.71710E+01 1.22435E+01 1.65681E-13-1.25252E-14
 -1       654-5.10786E+01-3.69523E+00-1.64408E+01 1.58132E+01-2.07515E-13-1.42376E-14
 -1       655-4.54425E+01-5.60352E+00-1.53218E+01 1.91396E+01 1.32901E-14-4.87005E-15
 -1       656-3.81789E+01-7.73390E+00-1.37810E+01 2.18662E+01 4.37649E-14-1.65292E-14
 -1       657-2.95109E+01-9.82296E+00-1.18065E+01 2.37335E+01-2.16627E-13-1.58095E-14
 -1       658-1.97123E+01-1.15872E+01-9.39542E+00 2.46218E+01-6.68175E-14-1.43996E-14
 -1       659-9.00301E+00-1.27988E+01-6.54560E+00 2.45350E+01-1.11056E-13 7.52283E-15
 -1       660 2.52163E+00-1.33416E+01-3.25084E+00 2.35390E+01 3.53221E-13 5.30235E-14
 -1       661 1.49284E+01-1.32328E+01 5.03519E-01 2.16799E+01-1.95159E-13-3.28624E-14
 -1       662 2.84658E+01-1.26215E+01 4.74709E+00 1.88935E+01-1.77142E-14-3.41254E-15
 -1       663 4.35810E+01-1.17788E+01 9.53221E+00 1.48865E+01 2.28715E-13 3.99529E-14
 -1       664 6.09538E+01-1.11323E+01 1.49338E+01 8.88173E+00-4.00176E-14 1.15213E-14
 -1       665-6.26887E+01-8.41180E-02-1.88426E+01 1.59063E+00 1.32158E-13-4.59037E-14
 -1       666-6.40316E+01-3.92299E-01-1.93385E+01 3.78906E+00-2.20493E-13 3.85070E-15
 -1       667-6.46600E+01-1.05262E+00-1.97255E+01 6.89961E+00-8.65238E-14 1.27589E-14
 -1       668-6.39023E+01-2.24690E+00-1.98566E+01 1.07668E+01 7.77267E-14-3.16917E-14
 -1       669-6.11943E+01-4.08810E+00-1.95962E+01 1.50112E+01 2.28402E-14-6.38243E-16
 -1       670-5.62659E+01-6.53949E+00-1.88524E+01 1.91014E+01 9.75465E-14-1.21518E-14
 -1       671-4.92242E+01-9.37881E+00-1.75906E+01 2.25022E+01 5.25721E-14 9.93823E-15
 -1       672-4.04609E+01-1.22327E+01-1.58166E+01 2.48359E+01-5.45065E-14-9.42160E-15
 -1       673-3.04581E+01-1.46815E+01-1.35492E+01 2.59631E+01 1.69379E-13-7.37967E-15
 -1       674-1.96177E+01-1.63821E+01-1.08062E+01 2.59565E+01-1.71433E-13-5.97395E-15
 -1       675-8.16633E+00-1.71498E+01-7.60032E+00 2.50052E+01 2.95121E-13 7.31624E-15
 -1       676 3.87223E+00-1.69773E+01-3.93670E+00 2.33069E+01-1.13800E-13 3.85081E-14
 -1       677 1.66745E+01-1.60112E+01 1.93526E-01 2.09787E+01-3.03375E-14-1.82171E-14
 -1       678 3.06178E+01-1.45199E+01 4.82274E+00 1.79823E+01-7.99933E-14-1.87621E-15
 -1       679 4.63049E+01-1.28848E+01 1.00169E+01 1.40300E+01-5.73052E-14-2.00535E-14
 -1       680 6.46377E+01-1.16809E+01 1.58730E+01 8.34688E+00-8.89254E-14-9.45465E-15
 -1       681-6.68127E+01-2.20034E-01-2.01220E+01 1.88173E+00-1.54629E-13 1.54163E-14
 -1       682-7.01272E+01-8.49411E-01-2.13065E+01 4.76395E+00 1.76556E-13 5.23533E-15
 -1       683-7.20290E+01-2.13493E+00-2.22638E+01 8.98716E+00-4.11407E-14 1.29141E-14
 -1       684-7.14254E+01-4.31078E+00-2.27358E+01 1.40900E+01 9.11393E-14 6.21023E-15
 -1       685-6.77187E+01-7.42342E+00-2.25571E+01 1.92689E+01 5.39417E-14 3.45866E-15
 -1       686-6.10259E+01-1.12190E+01-2.16868E+01 2.36520E+01 7.97505E-14 1.44989E-15
 -1       687-5.20236E+01-1.51681E+01-2.01692E+01 2.66188E+01 8.30710E-14 1.46981E-14
 -1       688-4.15537E+01-1.86342E+01-1.80663E+01 2.79689E+01-1.23163E-13 3.16767E-15
 -1       689-3.03034E+01-2.10937E+01-1.54273E+01 2.78685E+01-1.14162E-13-2.63078E-15
 -1       690-1.86742E+01-2.22736E+01-1.22912E+01 2.66731E+01 1.80253E-13-2.77016E-15
 -1       691-6.78454E+00-2.21623E+01-8.68988E+00 2.47530E+01-8.46339E-14 5.55488E-15
 -1       692 5.48208E+00-2.09411E+01-4.64310E+00 2.23821E+01-1.42318E-14 2.24829E-14
 -1       693 1.84363E+01-1.89076E+01-1.47075E-01 1.96842E+01 2.66272E-13-2.11229E-14
 -1       694 3.25784E+01-1.64321E+01 4.83691E+00 1.66006E+01 1.65666E-14-6.17860E-15
 -1       695 4.86437E+01-1.39705E+01 1.03922E+01 1.28286E+01 1.06323E-16-6.15219E-15
 -1       696 6.77235E+01-1.22065E+01 1.66400E+01 7.60929E+00 7.62540E-15-9.03227E-17
 -1       697-7.18999E+01-5.20700E-01-2.17403E+01 2.49727E+00-2.64334E-13 3.78353E-15
 -1       698-7.81468E+01-1.80164E+00-2.40014E+01 6.67443E+00-3.46362E-14 2.25184E-14
 -1       699-8.13684E+01-4.25589E+00-2.57061E+01 1.27478E+01 4.26488E-14 1.30500E-14
 -1       700-8.00061E+01-8.10761E+00-2.64534E+01 1.95238E+01-1.49476E-13 2.53002E-14
 -1       701-7.40051E+01-1.31525E+01-2.61656E+01 2.54706E+01 3.44877E-14 1.70483E-14
 -1       702-6.45601E+01-1.86577E+01-2.49816E+01 2.94406E+01-7.99862E-14 1.34469E-14
 -1       703-5.32104E+01-2.36173E+01-2.30621E+01 3.10771E+01-2.03778E-13 1.76209E-14
 -1       704-4.11407E+01-2.71886E+01-2.05101E+01 3.07052E+01-1.27276E-13-1.80564E-15
 -1       705-2.89975E+01-2.89666E+01-1.73983E+01 2.89564E+01-9.16061E-14-2.13973E-15
 -1       706-1.69858E+01-2.89745E+01-1.37954E+01 2.64492E+01-6.66183E-15-8.54068E-16
 -1       707-5.01221E+00-2.75010E+01-9.76008E+00 2.36315E+01-7.20295E-14 1.35189E-15
 -1       708 7.21007E+00-2.49418E+01-5.32508E+00 2.07472E+01 5.12082E-14 1.86640E-14
 -1       709 2.01150E+01-2.17106E+01-4.84519E-01 1.78534E+01-2.96260E-13-2.57286E-14
 -1       710 3.42976E+01-1.82257E+01 4.81436E+00 1.48343E+01-1.87954E-13-2.06558E-14
 -1       711 5.05907E+01-1.49659E+01 1.06772E+01 1.13651E+01 2.07900E-14-2.44814E-15
 -1       712 7.02346E+01-1.26786E+01 1.72507E+01 6.72284E+00-2.25083E-14-1.16905E-14
 -1       713-7.91335E+01-1.22905E+00-2.41259E+01 3.79237E+00 1.03630E-13-2.75065E-15
 -1       714-8.95808E+01-3.86031E+00-2.80547E+01 1.04332E+01-1.60613E-13-1.16911E-14
 -1       715-9.32504E+01-8.45749E+00-3.05378E+01 1.94434E+01 1.00851E-13-3.26166E-15
 -1       716-8.89173E+01-1.50619E+01-3.12192E+01 2.80235E+01-1.34208E-14-9.95743E-15
 -1       717-7.87353E+01-2.27948E+01-3.04821E+01 3.37646E+01-1.17852E-14-8.08104E-15
 -1       718-6.57991E+01-3.00122E+01-2.87630E+01 3.58736E+01 7.87176E-14-1.21912E-14
 -1       719-5.22752E+01-3.52298E+01-2.62674E+01 3.49840E+01 2.42613E-14-2.51381E-16
 -1       720-3.91627E+01-3.78034E+01-2.31024E+01 3.22558E+01 1.06617E-13-6.83125E-15
 -1       721-2.67165E+01-3.78795E+01-1.93887E+01 2.87209E+01 1.46005E-14-4.54762E-15
 -1       722-1.47944E+01-3.59927E+01-1.52439E+01 2.50562E+01 1.03486E-13-3.52246E-15
 -1       723-3.06453E+00-3.27503E+01-1.07508E+01 2.16048E+01-2.25012E-14 8.37846E-17
 -1       724 8.90256E+00-2.86859E+01-5.94070E+00 1.84696E+01-6.20298E-14 1.89176E-14
 -1       725 2.16221E+01-2.42382E+01-7.90786E-01 1.55930E+01 4.19329E-15-7.55147E-15
 -1       726 3.57428E+01-1.98000E+01 4.77542E+00 1.27920E+01 7.90789E-14-1.71439E-15
 -1       727 5.21575E+01-1.58229E+01 1.08897E+01 9.72948E+00-3.80617E-14 7.23756E-15
 -1       728 7.22158E+01-1.30782E+01 1.77243E+01 5.74294E+00 3.95345E-14 1.51459E-14
 -1       729-9.11057E+01-3.07909E+00-2.82781E+01 6.65632E+00-1.50292E-14 4.26401E-16
 -1       730-1.06665E+02-8.46371E+00-3.45713E+01 1.80194E+01-3.52905E-14 1.94246E-14
 -1       731-1.07135E+02-1.68542E+01-3.72330E+01 3.11114E+01-1.41821E-13 5.60861E-15
 -1       732-9.58104E+01-2.77360E+01-3.70977E+01 4.02797E+01-1.15013E-14 6.70126E-15
 -1       733-7.99130E+01-3.85564E+01-3.55696E+01 4.32917E+01 9.72893E-14 4.79556E-15
 -1       734-6.38836E+01-4.63585E+01-3.30959E+01 4.14374E+01 7.76716E-14 3.17666E-15
 -1       735-4.91669E+01-4.99415E+01-2.97507E+01 3.70134E+01 2.62163E-15 8.20529E-15
 -1       736-3.59318E+01-4.98179E+01-2.57388E+01 3.18098E+01 5.94411E-14-9.61403E-16
 -1       737-2.38434E+01-4.70708E+01-2.12848E+01 2.68179E+01 2.07803E-14-1.19751E-15
 -1       738-1.24214E+01-4.27158E+01-1.65492E+01 2.24453E+01-7.44390E-15-3.72045E-15
 -1       739-1.16539E+00-3.75022E+01-1.16068E+01 1.87657E+01-5.40653E-14 4.19406E-16
 -1       740 1.04260E+01-3.19349E+01-6.45843E+00 1.56875E+01 1.30319E-13 1.08802E-14
 -1       741 2.28943E+01-2.63648E+01-1.04718E+00 1.30384E+01-1.93275E-13-1.28017E-14
 -1       742 3.69023E+01-2.10958E+01 4.73440E+00 1.05871E+01-3.29228E-13-1.29158E-14
 -1       743 5.33712E+01-1.65172E+01 1.10452E+01 8.00691E+00 1.25206E-13 1.86038E-15
 -1       744 7.37256E+01-1.33976E+01 1.80808E+01 4.71989E+00 1.45844E-14-6.40785E-15
 -1       745-1.14054E+02-8.40848E+00-3.67750E+01 1.36241E+01 3.33794E-14-2.69964E-15
 -1       746-1.31098E+02-1.89750E+01-4.50751E+01 3.37150E+01-1.33494E-13 1.52417E-14
 -1       747-1.18443E+02-3.37383E+01-4.57069E+01 5.01044E+01 1.69164E-13-2.04849E-15
 -1       748-9.64013E+01-5.06533E+01-4.41607E+01 5.50348E+01 3.45231E-14-1.84608E-16
 -1       749-7.60742E+01-6.29814E+01-4.17521E+01 5.12264E+01-1.24987E-13-1.03987E-15
 -1       750-5.88904E+01-6.77256E+01-3.80121E+01 4.37258E+01-1.47844E-14-1.10168E-15
 -1       751-4.44955E+01-6.65911E+01-3.33464E+01 3.58158E+01-2.88714E-14 1.71456E-15
 -1       752-3.20802E+01-6.19532E+01-2.82251E+01 2.88631E+01-8.04986E-14-9.63864E-16
 -1       753-2.08627E+01-5.55876E+01-2.29462E+01 2.32124E+01 9.37222E-14-1.06811E-15
 -1       754-1.01850E+01-4.85599E+01-1.76318E+01 1.87725E+01 4.88521E-14-2.31483E-15
 -1       755 5.00376E-01-4.14445E+01-1.22898E+01 1.53122E+01-3.95948E-14 1.22939E-15
 -1       756 1.16883E+01-3.45410E+01-6.86160E+00 1.25787E+01 1.73884E-14 9.03892E-15
 -1       757 2.39001E+01-2.80301E+01-1.24508E+00 1.03299E+01 5.89069E-14-7.62056E-15
 -1       758 3.77845E+01-2.20933E+01 4.69970E+00 8.32361E+00-6.93255E-14-7.67268E-15
 -1       759 5.42695E+01-1.70450E+01 1.11562E+01 6.26983E+00-2.01105E-13-7.63242E-15
 -1       760 7.48284E+01-1.36378E+01 1.83391E+01 3.69505E+00 8.27495E-14 2.48120E-15
 -1       761-1.62540E+02-2.54916E+01-5.64884E+01 3.29375E+01 6.15301E-14 6.41541E-15
 -1       762-1.53294E+02-4.19617E+01-5.86671E+01 6.50714E+01 1.02293E-13 7.12004E-15
 -1       763-1.15875E+02-6.90988E+01-5.55655E+01 7.44446E+01-1.93152E-13 3.32662E-15
 -1       764-8.85705E+01-9.08900E+01-5.38962E+01 6.62059E+01-3.33979E-14 1.98805E-15
 -1       765-6.79804E+01-9.62840E+01-4.93230E+01 5.27176E+01 2.10067E-14 6.29167E-16
 -1       766-5.21436E+01-9.17037E+01-4.31859E+01 4.03951E+01-1.28283E-13 5.56540E-16
 -1       767-3.93569E+01-8.27937E+01-3.66679E+01 3.06970E+01-9.14086E-14 1.24116E-15
 -1       768-2.83517E+01-7.26274E+01-3.03099E+01 2.34799E+01-7.18470E-14-3.14240E-17
 -1       769-1.82225E+01-6.25652E+01-2.42479E+01 1.82050E+01 1.62493E-13-4.44966E-16
 -1       770-8.32938E+00-5.31147E+01-1.84417E+01 1.43490E+01-2.24875E-13-5.54683E-16
 -1       771 1.81482E+00-4.44109E+01-1.27855E+01 1.14946E+01 6.06190E-14 1.12787E-15
 -1       772 1.26451E+01-3.64539E+01-7.14846E+00 9.32490E+00 1.09291E-14 8.35228E-15
 -1       773 2.46371E+01-2.92312E+01-1.38433E+00 7.59358E+00 4.67570E-14-2.04955E-15
 -1       774 3.84131E+01-2.28039E+01 4.67504E+00 6.08701E+00 1.22855E-13-3.64948E-15
 -1       775 5.48962E+01-1.74169E+01 1.12325E+01 4.57441E+00-1.01597E-13 2.44961E-15
 -1       776 7.55892E+01-1.38057E+01 1.85167E+01 2.69958E+00-9.12974E-14-3.46689E-17
 -1       777-2.20205E+02-6.43715E+01-8.55579E+01 8.65457E+01-5.71016E-14 2.44288E-15
 -1       778-1.35367E+02-1.01535E+02-7.11999E+01 1.06771E+02 2.83956E-14 5.41113E-15
 -1       779-1.00382E+02-1.47558E+02-7.44903E+01 8.82805E+01 9.36556E-14 7.27528E-16
 -1       780-7.61586E+01-1.48254E+02-6.74030E+01 6.26640E+01 1.64777E-13 7.46656E-16
 -1       781-5.86925E+01-1.32187E+02-5.73178E+01 4.36431E+01-1.52607E-13 1.34103E-16
 -1       782-4.55842E+01-1.13262E+02-4.76902E+01 3.07105E+01-9.04113E-14 6.85170E-16
 -1       783-3.48930E+01-9.57503E+01-3.92176E+01 2.20876E+01 2.21210E-13-4.19844E-17
 -1       784-2.53652E+01-8.05343E+01-3.17868E+01 1.62875E+01 1.70670E-14-4.29751E-16
 -1       785-1.62300E+01-6.74771E+01-2.51241E+01 1.23192E+01 4.07868E-14-8.99021E-16
 -1       786-6.99013E+00-5.62121E+01-1.89693E+01 9.54609E+00-9.55421E-14-1.74613E-15
 -1       787 2.73146E+00-4.63805E+01-1.31014E+01 7.55821E+00-1.51620E-13-7.30116E-16
 -1       788 1.32940E+01-3.77029E+01-7.32851E+00 6.08323E+00-3.25440E-14 2.54897E-15
 -1       789 2.51253E+01-3.00063E+01-1.47042E+00 4.92856E+00-3.84124E-14-3.72502E-15
 -1       790 3.88210E+01-2.32583E+01 4.66105E+00 3.93963E+00 1.30559E-13-2.12814E-15
 -1       791 5.52964E+01-1.76524E+01 1.12818E+01 2.95922E+00 2.29429E-14 7.32940E-16
 -1       792 7.60695E+01-1.39114E+01 1.86289E+01 1.75376E+00-1.04940E-13-1.24360E-15
 -1       793-1.58156E+02-2.16967E+02-1.12717E+02 1.25796E+02-3.33357E-14 1.89290E-15
 -1       794-1.19481E+02-3.04185E+02-1.27383E+02 1.08511E+02-4.73506E-14 9.66511E-17
 -1       795-8.82285E+01-2.58544E+02-1.04216E+02 6.29846E+01-3.95856E-14 7.05587E-16
 -1       796-6.56952E+01-2.01595E+02-8.02930E+01 3.83176E+01-1.37151E-13-1.41681E-16
 -1       797-5.14362E+01-1.58811E+02-6.31372E+01 2.44215E+01 2.23683E-13 7.18816E-16
 -1       798-4.08847E+01-1.27308E+02-5.04974E+01 1.63263E+01-2.13516E-13-4.54352E-16
 -1       799-3.19183E+01-1.03576E+02-4.06740E+01 1.13749E+01-2.63596E-14-2.14298E-16
 -1       800-2.34780E+01-8.50891E+01-3.25875E+01 8.21939E+00-6.54185E-14-1.41827E-16
 -1       801-1.50191E+01-7.02214E+01-2.55842E+01 6.13481E+00-2.66659E-14-5.13121E-16
 -1       802-6.19937E+00-5.79075E+01-1.92407E+01 4.71260E+00-8.44396E-14 9.31248E-17
 -1       803 3.26069E+00-4.74435E+01-1.32615E+01 3.71047E+00-3.35074E-14-8.48694E-16
 -1       804 1.36618E+01-3.83704E+01-7.41842E+00 2.97661E+00 1.94007E-13 1.79817E-15
 -1       805 2.53973E+01-3.04174E+01-1.51216E+00 2.40835E+00-2.95977E-14-1.45243E-15
 -1       806 3.90446E+01-2.34979E+01 4.65625E+00 1.92642E+00 1.90704E-14-1.64109E-15
 -1       807 5.55134E+01-1.77747E+01 1.13101E+01 1.45267E+00-1.55803E-13-1.41920E-15
 -1       808 7.63242E+01-1.39665E+01 1.86887E+01 8.74091E-01-1.36024E-14 2.19072E-15
 -3
    1PSTEP                         8           2           1          
  100CL  102 1.000000000         807                     0    2           1
 -4  TOSTRAIN    6    1
 -5  EXX         1    4    1    1
 -5  EYY         1    4    2    2
 -5  EZZ         1    4    3    3
 -5  EXY         1    4    1    2
 -5  EYZ         1    4    2    3
 -5  EZX         1    4    3    1
 -1         1-2.51855E-03-5.50732E-03 3.47076E-37-2.99493E-03 5.38685E-19 6.40800E-21
 -1         2 3.02098E-06-2.13478E-06 2.01410E-38 9.72919E-06 5.08089E-21-1.09341E-19
 -1         3-1.78573E-03-2.63874E-03 1.69895E-37-1.90538E-03 2.89287E-19-2.27592E-20
 -1         4-5.99807E-04 3.38371E-04 3.83681E-37-1.12731E-03 5.50200E-19 4.21016E-20
 -1         5-6.16009E-05 9.91889E-05 4.76601E-37-1.64927E-04-7.40419E-19-6.89349E-21
 -1         6 1.22850E-05 8.42322E-05-2.07938E-37-7.80719E-05-1.82369E-19 5.79551E-20
 -1         7 6.24439E-06 4.56812E-05 2.21276E-37-3.52403E-05 3.03369E-19 7.13205E-21
 -1         8 5.03426E-06 2.96701E-05-2.94460E-38-2.16648E-05-1.09875E-19-5.17675E-20
 -1         9 3.65001E-06 1.93385E-05 2.17365E-37-1.41455E-05 2.27988E-19-1.90991E-20
 -1        10 2.97697E-06 1.31283E-05-3.25701E-38-1.00798E-05 9.28054E-20 6.09508E-20
 -1        11 2.51762E-06 9.04847E-06-2.84669E-38-7.54825E-06-2.57835E-20-3.38703E-20
 -1        12 2.22802E-06 6.29897E-06 1.64401E-37-5.89285E-06-1.46567E-19 1.68700E-20
 -1        13 2.03953E-06 4.37655E-06-2.72763E-38-4.74341E-06 3.02206E-19 9.02167E-21
 -1        14 1.92437E-06 2.99368E-06 2.32844E-37-3.90974E-06-2.19832E-19-5.39036E-20
 -1        15 1.86396E-06 1.96976E-06-2.24928E-38-3.27970E-06-5.65306E-20 2.00489E-20
 -1        16 1.84817E-06 1.18887E-06 9.17989E-39-2.78449E-06 1.60236E-20-2.39645E-20
 -1        17 1.87141E-06 5.73675E-07-5.82694E-39-2.37837E-06 3.61088E-21-1.01923E-21
 -1        18 1.93145E-06 7.05833E-08 6.25398E-39-2.02820E-06-5.85255E-20-2.21840E-20
 -1        19 2.02668E-06-3.55692E-07 5.23223E-38-1.70754E-06-6.82332E-20-1.52191E-19
 -1        20 2.16976E-06-7.42380E-07 2.21485E-39-1.38719E-06-8.02374E-20 6.91205E-20
 -1        21 2.28745E-06-1.02397E-06 1.14563E-38-1.07668E-06 5.70891E-20 1.03873E-20
 -1        22 2.70227E-06-1.63913E-06 1.03504E-40-6.85909E-07-6.78534E-21-6.90305E-20
 -1        23 4.42997E-06-8.08885E-06-3.28412E-39 9.40818E-06-9.44482E-21 9.78699E-21
 -1        24 7.58106E-06-1.50170E-05 1.72865E-38 8.98413E-06-7.92269E-21-9.35653E-20
 -1        25 1.14867E-05-2.32377E-05-3.83619E-41 8.48944E-06 1.13674E-20-5.72257E-20
 -1        26 1.63345E-05-3.29675E-05 3.12252E-38 7.91480E-06 1.77256E-20 2.59761E-20
 -1        27 2.23569E-05-4.45269E-05-6.62300E-39 7.24939E-06-4.57862E-20 7.53034E-20
 -1        28 2.98559E-05-5.83103E-05 9.72848E-39 6.48327E-06 6.24238E-20 1.59076E-20
 -1        29 3.92088E-05-7.47949E-05 2.55875E-39 5.60979E-06-3.40013E-20 4.25172E-20
 -1        30 5.08755E-05-9.45428E-05 1.66136E-38 4.62926E-06 1.36079E-19-3.47550E-20
 -1        31 6.53924E-05-1.18184E-04 2.05416E-38 3.55479E-06-1.25944E-19 4.51836E-20
 -1        32 8.33362E-05-1.46359E-04 1.61713E-38 2.42047E-06 3.11924E-21-7.16371E-20
 -1        33 1.05228E-04-1.79591E-04 7.03052E-39 1.29149E-06 1.06704E-19-3.07103E-20
 -1        34 1.31335E-04-2.18019E-04 1.31531E-38 2.72967E-07 1.25119E-19 8.50188E-20
 -1        35 1.61315E-04-2.60963E-04 7.35845E-38-4.90261E-07-9.46412E-20 5.43471E-20
 -1        36 1.93692E-04-3.06288E-04 1.39199E-37-8.35758E-07 1.78672E-19-6.06993E-20
 -1        37 2.25448E-04-3.49654E-04-1.04232E-39-6.33399E-07-1.23884E-19 7.11927E-22
 -1        38 2.51548E-04-3.87187E-04 5.90811E-39 2.06504E-08-4.56413E-20 1.39037E-20
 -1        39 2.63873E-04-3.96969E-04 1.82932E-38-1.63827E-06-4.84633E-20-1.09930E-21
 -1        40 9.32711E-04-4.94913E-03-1.38154E-39-1.51736E-03 1.48775E-19-3.51796E-21
 -1        41 1.14980E-03-3.72144E-03 6.35589E-37-6.92571E-04-3.31084E-19-4.60740E-21
 -1        42 1.01223E-03-2.64683E-03 5.00377E-37-3.50963E-04 2.92138E-19-1.96304E-21
 -1        43 8.46245E-04-1.98359E-03-3.59316E-37-1.93133E-04 5.97497E-20-3.61430E-21
 -1        44 7.10880E-04-1.55191E-03 3.43150E-37-1.13662E-04-1.10971E-19 5.36061E-23
 -1        45 6.06363E-04-1.25522E-03 7.55124E-38-7.00303E-05 2.88409E-19-2.18837E-21
 -1        46 5.25997E-04-1.04146E-03-4.34021E-38-4.45277E-05-5.52145E-21 2.57575E-21
 -1        47 4.63590E-04-8.81947E-04 1.67938E-37-2.88667E-05 2.19228E-19-1.27874E-21
 -1        48 4.14558E-04-7.59767E-04 1.33201E-37-1.88842E-05 1.67350E-19-1.67523E-22
 -1        49 3.75655E-04-6.64452E-04 1.00134E-37-1.23369E-05-1.67403E-19-5.36860E-22
 -1        50 3.44606E-04-5.89256E-04-8.24221E-38-7.95165E-06 1.57627E-19-1.97291E-22
 -1        51 3.19820E-04-5.29721E-04 9.03615E-38-4.97361E-06-2.61637E-19 1.95337E-22
 -1        52 3.00201E-04-4.82893E-04 4.12798E-38-2.94009E-06 8.15934E-20 1.68497E-22
 -1        53 2.85026E-04-4.46893E-04 5.78188E-39-1.56089E-06 8.26055E-20-1.16628E-22
 -1        54 2.73934E-04-4.20669E-04 1.17397E-37-6.51335E-07 7.29763E-20-1.86193E-22
 -1        55 2.66004E-04-4.03836E-04-6.38651E-39-9.08184E-08 3.14645E-19 1.87790E-22
 -1        56 1.58399E-04-2.77063E-03 1.82765E-37-1.27389E-03-1.03280E-19 3.10794E-20
 -1        57 7.56982E-04-2.73431E-03 1.48666E-37-1.14769E-03-2.90549E-20-1.74113E-20
 -1        58 8.24060E-04-2.27958E-03 1.85775E-37-6.97464E-04 2.47467E-19-1.44029E-20
 -1        59 7.57716E-04-1.83253E-03 2.86748E-37-4.18881E-04-1.19186E-19 4.84358E-21
 -1        60 6.67587E-04-1.48458E-03-6.83975E-39-2.57223E-04-2.61330E-19-4.74111E-21
 -1        61 5.84464E-04-1.22296E-03 2.42029E-37-1.62289E-04-6.41710E-21 1.07568E-20
 -1        62 5.14588E-04-1.02522E-03 3.00721E-37-1.04624E-04-5.56972E-19-1.49035E-20
 -1        63 4.57526E-04-8.73488E-04-6.70810E-39-6.84111E-05-6.71466E-20 3.30866E-21
 -1        64 4.11300E-04-7.55268E-04 2.31348E-38-4.50032E-05-6.97754E-20-9.37397E-22
 -1        65 3.73903E-04-6.62038E-04-2.10124E-38-2.95130E-05 1.20147E-20 2.48974E-21
 -1        66 3.43673E-04-5.87965E-04 9.45623E-38-1.90775E-05-8.43439E-20 2.70667E-21
 -1        67 3.19336E-04-5.29042E-04-1.45708E-38-1.19636E-05-1.13101E-19-2.71986E-21
 -1        68 2.99961E-04-4.82547E-04 1.40543E-37-7.09409E-06-1.82378E-20 2.45931E-22
 -1        69 2.84917E-04-4.46728E-04 4.35362E-38-3.78668E-06-1.17308E-20 2.00939E-22
 -1        70 2.73893E-04-4.20599E-04 1.35193E-38-1.61022E-06 2.71846E-19-2.56832E-22
 -1        71 2.65999E-04-4.03809E-04 1.30320E-37-2.82834E-07-2.44494E-19-3.13243E-22
 -1        72-8.27042E-04-1.53175E-04-1.27270E-38-1.23542E-03-1.56699E-19-3.92401E-20
 -1        73-2.48354E-05-1.01000E-03 1.69899E-37-1.38726E-03 1.07849E-19 1.77263E-20
 -1        74 3.79963E-04-1.41415E-03-7.07936E-38-1.06165E-03 1.24049E-20 1.07376E-20
 -1        75 5.22133E-04-1.41968E-03 3.27051E-37-7.21499E-04-1.12302E-20-4.35059E-23
 -1        76 5.44073E-04-1.28400E-03 7.32610E-38-4.76061E-04-1.54317E-19-3.56378E-20
 -1        77 5.19131E-04-1.12226E-03-1.04201E-38-3.13256E-04-4.02271E-20-1.41975E-20
 -1        78 4.79595E-04-9.73065E-04 2.74904E-37-2.07179E-04 3.80529E-19 7.52836E-21
 -1        79 4.38591E-04-8.45832E-04 8.58266E-38-1.37655E-04-1.12342E-19-2.24645E-21
 -1        80 4.01007E-04-7.40388E-04 1.02441E-38-9.14904E-05 5.46266E-20-1.35880E-21
 -1        81 3.68326E-04-6.53990E-04 6.47217E-38-6.04047E-05 9.02511E-20 6.20762E-21
 -1        82 3.40691E-04-5.83634E-04 2.30589E-38-3.92213E-05-1.21299E-19-9.27990E-22
 -1        83 3.17784E-04-5.26754E-04 1.00284E-37-2.46700E-05-2.56494E-20 1.02841E-21
 -1        84 2.99191E-04-4.81381E-04 5.69304E-38-1.46587E-05 1.07429E-19 6.80501E-21
 -1        85 2.84568E-04-4.46170E-04 5.40274E-38-7.83586E-06 1.87563E-19 3.42529E-21
 -1        86 2.73759E-04-4.20359E-04 3.72102E-38-3.33637E-06-3.27201E-19-3.59633E-21
 -1        87 2.65982E-04-4.03716E-04 1.68493E-38-5.88221E-07-2.84517E-20 1.30826E-21
 -1        88-7.91523E-04 6.11288E-05-4.96918E-38-5.85580E-04-3.98734E-20 8.29534E-21
 -1        89-4.96693E-04-2.12078E-04 5.65819E-37-9.69812E-04 1.43790E-20 3.21644E-20
 -1        90-5.27501E-05-6.55847E-04 3.79267E-37-1.00548E-03 2.19073E-19 5.81520E-21
 -1        91 2.29191E-04-9.19499E-04-6.58838E-38-8.24917E-04 9.52065E-20-3.09239E-20
 -1        92 3.66353E-04-9.92403E-04 4.99285E-37-6.10577E-04 2.01856E-19 1.14868E-20
 -1        93 4.16164E-04-9.59535E-04 2.51041E-37-4.31606E-04-1.95115E-19-2.02904E-20
 -1        94 4.21129E-04-8.83276E-04 2.14034E-38-2.98640E-04-1.80999E-19-3.08201E-20
 -1        95 4.05729E-04-7.96305E-04 6.93191E-38-2.04259E-04 1.57372E-19-1.69929E-20
 -1        96 3.82690E-04-7.13053E-04 7.31517E-38-1.38348E-04 1.09059E-19 2.95575E-20
 -1        97 3.58233E-04-6.38954E-04 1.83182E-38-9.24910E-05-1.59695E-19 2.06889E-22
 -1        98 3.35233E-04-5.75451E-04 2.71096E-37-6.05597E-05 7.46465E-20-9.81775E-21
 -1        99 3.14923E-04-5.22395E-04 3.50430E-38-3.83074E-05-1.21465E-19 1.55039E-22
 -1       100 2.97767E-04-4.79146E-04-3.27534E-38-2.28495E-05-2.21234E-19-8.87838E-22
 -1       101 2.83921E-04-4.45096E-04 5.90366E-38-1.22473E-05 1.21329E-19 1.95655E-21
 -1       102 2.73511E-04-4.19897E-04 2.49429E-38-5.22651E-06 1.83617E-19 3.82942E-21
 -1       103 2.65952E-04-4.03538E-04 1.68049E-38-9.26226E-07-9.48912E-20-5.05942E-22
 -1       104-4.22179E-04 8.53327E-05 3.47918E-37-2.58621E-04 2.77871E-19 2.10758E-20
 -1       105-5.03759E-04-9.94700E-06 2.01783E-37-5.66678E-04 7.13107E-20 5.98328E-21
 -1       106-2.78648E-04-2.56213E-04 1.03956E-38-7.51195E-04-2.02365E-19 5.36001E-20
 -1       107-1.16770E-05-5.21315E-04 1.24086E-37-7.51610E-04-2.05729E-19-8.96665E-22
 -1       108 1.81323E-04-6.93894E-04 1.40802E-38-6.39729E-04 2.09416E-20 9.06520E-21
 -1       109 2.92295E-04-7.64041E-04 1.29021E-37-4.97293E-04-1.01504E-19-3.40236E-21
 -1       110 3.43901E-04-7.63838E-04 8.12622E-38-3.66791E-04 2.62916E-19 3.16152E-20
 -1       111 3.59550E-04-7.25971E-04 2.65807E-37-2.61834E-04-1.12999E-19-3.07372E-20
 -1       112 3.55859E-04-6.72543E-04 7.17096E-39-1.82506E-04-3.23512E-20-1.11371E-20
 -1       113 3.43028E-04-6.16031E-04 1.04100E-37-1.24395E-04 2.41548E-20 3.15902E-22
 -1       114 3.26853E-04-5.62737E-04-9.60656E-38-8.25231E-05-2.68491E-20-1.11454E-20
 -1       115 3.10473E-04-5.15536E-04 6.32366E-38-5.26678E-05-1.75913E-19-6.70429E-21
 -1       116 2.95533E-04-4.75600E-04 9.22146E-38-3.16072E-05 2.33426E-19-3.14415E-21
 -1       117 2.82899E-04-4.43383E-04-3.06610E-39-1.70140E-05 4.90012E-20-5.76216E-22
 -1       118 2.73119E-04-4.19159E-04 8.61568E-38-7.28640E-06 1.48192E-19-4.72388E-22
 -1       119 2.65903E-04-4.03255E-04 7.70982E-40-1.30068E-06-1.24184E-19-6.79395E-22
 -1       120-2.38573E-04 6.01514E-05 1.55999E-38-1.41197E-04 1.28387E-19 1.38579E-20
 -1       121-3.62752E-04 3.83836E-05 9.04698E-38-3.31175E-04-1.46341E-19-7.07246E-20
 -1       122-3.10361E-04-8.90269E-05 2.37549E-37-5.11723E-04-3.37121E-19-2.73576E-20
 -1       123-1.43963E-04-2.75799E-04 7.82940E-38-6.00018E-04 2.83993E-19 3.70924E-20
 -1       124 3.41606E-05-4.52300E-04 3.11392E-38-5.85412E-04 1.15630E-19 2.14952E-20
 -1       125 1.71189E-04-5.72586E-04 3.31620E-38-5.05681E-04 6.76287E-20 1.28045E-20
 -1       126 2.57714E-04-6.30234E-04 1.07214E-37-4.03027E-04-2.26838E-19 2.12826E-21
 -1       127 3.03229E-04-6.39795E-04-3.17563E-38-3.04057E-04-3.12387E-20-1.70056E-21
 -1       128 3.21092E-04-6.19743E-04 1.42128E-37-2.20317E-04-1.98283E-19-1.62147E-21
 -1       129 3.22487E-04-5.84875E-04-3.93636E-38-1.54267E-04-3.97042E-20 9.09671E-21
 -1       130 3.15202E-04-5.44956E-04 1.73097E-37-1.04265E-04 1.44338E-19-2.03423E-20
 -1       131 3.04161E-04-5.05756E-04 4.67392E-38-6.74043E-05-1.66537E-19 6.37129E-21
 -1       132 2.92321E-04-4.70477E-04 2.73144E-38-4.08115E-05 1.01960E-19-9.64802E-21
 -1       133 2.81417E-04-4.40888E-04 3.94867E-38-2.21065E-05-1.41554E-19 8.35502E-21
 -1       134 2.72547E-04-4.18080E-04-2.10104E-38-9.51626E-06-2.81843E-20-6.26430E-21
 -1       135 2.65831E-04-4.02841E-04 1.43816E-37-1.71625E-06-2.38090E-19 1.04120E-21
 -1       136-1.45007E-04 4.05394E-05 1.20348E-37-8.72246E-05 2.14804E-19 5.93067E-20
 -1       137-2.46969E-04 3.95554E-05-4.91099E-38-2.08072E-04-8.72785E-20 9.89477E-21
 -1       138-2.60516E-04-2.37693E-05 1.70726E-37-3.44896E-04-2.22362E-19-3.01724E-20
 -1       139-1.82703E-04-1.43024E-04 9.88527E-39-4.49924E-04-1.46430E-19 1.61997E-20
 -1       140-5.52916E-05-2.84957E-04 1.19121E-37-4.91090E-04 1.56758E-19-7.13428E-21
 -1       141 7.31505E-05-4.11675E-04 3.05644E-38-4.69212E-04 2.95969E-20 5.45854E-20
 -1       142 1.74699E-04-5.00032E-04-2.64244E-38-4.06185E-04-6.16613E-20-4.33320E-20
 -1       143 2.42246E-04-5.46030E-04 2.41620E-37-3.26710E-04-1.14893E-19-1.60216E-20
 -1       144 2.80257E-04-5.57529E-04-3.27079E-38-2.48311E-04 1.01669E-19 8.76371E-21
 -1       145 2.96947E-04-5.46036E-04 1.17230E-37-1.80003E-04-9.93348E-20-2.78171E-20
 -1       146 3.00124E-04-5.21900E-04 5.04035E-38-1.24705E-04 1.67261E-19 2.66080E-20
 -1       147 2.95763E-04-4.92725E-04-1.21520E-39-8.20359E-05 1.36298E-20-2.01238E-22
 -1       148 2.87963E-04-4.63524E-04 1.51676E-37-5.02807E-05 1.59740E-19 2.55812E-21
 -1       149 2.79381E-04-4.37463E-04-3.33202E-38-2.74734E-05-4.76439E-20-1.02421E-20
 -1       150 2.71757E-04-4.16592E-04 6.91439E-38-1.19115E-05 1.62209E-20 4.28571E-21
 -1       151 2.65730E-04-4.02272E-04-2.14616E-38-2.17846E-06-1.81920E-21 3.87438E-21
 -1       152-9.30562E-05 2.63519E-05-1.39370E-39-5.95370E-05-1.22575E-19-2.67986E-20
 -1       153-1.67745E-04 3.05980E-05 1.13837E-37-1.39745E-04 3.08615E-19 8.75537E-20
 -1       154-1.98691E-04-2.07662E-06 2.02454E-38-2.38376E-04-1.26930E-19-5.12436E-20
 -1       155-1.71097E-04-7.58009E-05 1.32216E-37-3.31121E-04 3.01146E-19-3.49168E-21
 -1       156-9.36930E-05-1.79425E-04 2.94113E-38-3.92298E-04-2.17156E-19 1.41233E-20
 -1       157 7.38503E-06-2.90397E-04 1.16964E-38-4.08338E-04-1.38712E-19-3.36783E-20
 -1       158 1.05157E-04-3.86293E-04 1.60518E-37-3.82563E-04 1.57229E-19 6.07022E-20
 -1       159 1.83151E-04-4.53767E-04 8.41210E-39-3.29123E-04 2.20300E-19 4.13433E-20
 -1       160 2.36413E-04-4.90370E-04 9.54124E-38-2.64037E-04-1.15439E-19-6.21961E-20
 -1       161 2.67435E-04-5.01091E-04 7.06327E-38-1.99528E-04-3.04112E-19-1.51102E-20
 -1       162 2.81762E-04-4.93835E-04 9.82510E-39-1.42575E-04-8.69998E-20 4.28624E-20
 -1       163 2.85146E-04-4.76283E-04-8.64670E-39-9.59239E-05 5.47270E-20-2.49393E-20
 -1       164 2.82309E-04-4.54533E-04 7.53061E-38-5.97462E-05-2.76292E-19-1.07105E-20
 -1       165 2.76692E-04-4.32962E-04 3.29985E-38-3.30264E-05 9.37160E-20 4.70438E-21
 -1       166 2.70702E-04-4.14622E-04-9.26055E-39-1.44571E-05 6.34774E-20-4.37317E-21
 -1       167 2.65593E-04-4.01524E-04 4.98666E-38-2.69294E-06-1.60992E-19-2.23077E-21
 -1       168-6.17651E-05 1.67282E-05 1.63389E-37-4.33917E-05-1.47356E-19-1.57548E-20
 -1       169-1.15007E-04 2.07255E-05 3.24872E-38-9.94983E-05-1.54456E-19 8.71022E-21
 -1       170-1.45704E-04 2.52199E-06 1.74031E-38-1.70474E-04 2.82356E-20 4.45403E-20
 -1       171-1.41453E-04-4.37749E-05 4.71881E-38-2.44873E-04 3.89004E-21-1.19697E-21
 -1       172-9.91746E-05-1.16611E-04-2.39476E-39-3.06497E-04-9.65038E-21-1.80300E-20
 -1       173-2.81434E-05-2.05533E-04 7.92883E-38-3.41027E-04 1.74474E-19 1.58916E-21
 -1       174 5.44078E-05-2.94886E-04-6.78347E-39-3.42387E-04 5.93268E-20-2.96758E-20
 -1       175 1.31714E-04-3.70265E-04 6.70336E-38-3.14307E-04 1.00705E-19-1.86807E-21
 -1       176 1.93247E-04-4.23264E-04-2.16468E-38-2.66825E-04 2.99246E-20-4.54432E-22
 -1       177 2.35643E-04-4.52477E-04 1.48208E-37-2.11243E-04 1.99912E-19-9.08904E-21
 -1       178 2.60629E-04-4.61574E-04-3.42352E-38-1.56569E-04 7.68473E-21 5.83259E-21
 -1       179 2.72326E-04-4.56514E-04 1.16059E-37-1.08295E-04-2.65828E-20 1.52379E-20
 -1       180 2.75243E-04-4.43374E-04-1.41480E-38-6.88412E-05-4.46089E-20 3.20265E-21
 -1       181 2.73252E-04-4.27260E-04 4.04220E-38-3.86290E-05 4.87813E-20-8.27367E-21
 -1       182 2.69335E-04-4.12103E-04 1.06197E-38-1.71218E-05 1.00416E-19 6.66375E-21
 -1       183 2.65409E-04-4.00573E-04-1.90163E-39-3.26460E-06-1.60526E-20-9.84768E-22
 -1       184-4.18216E-05 1.00916E-05 4.14507E-38-3.31414E-05 3.72229E-20-6.35041E-21
 -1       185-7.94088E-05 1.23916E-05 8.35523E-40-7.41464E-05 9.36922E-20-1.52274E-20
 -1       186-1.04785E-04 8.02996E-07 1.35973E-38-1.26163E-04 5.78789E-20-1.01497E-20
 -1       187-1.09468E-04-2.96173E-05 4.94391E-38-1.83891E-04 2.00194E-20 8.32015E-21
 -1       188-8.80521E-05-8.07489E-05 3.36934E-38-2.38158E-04 1.95986E-21-1.32305E-20
 -1       189-4.13980E-05-1.49096E-04 6.82273E-38-2.78161E-04-2.20279E-19 5.31948E-20
 -1       190 2.24622E-05-2.25839E-04 7.74018E-38-2.95501E-04-1.28837E-20 4.77558E-20
 -1       191 9.14369E-05-2.99627E-04 3.88640E-38-2.87550E-04 4.50403E-20-1.04989E-20
 -1       192 1.54220E-04-3.60556E-04 4.08170E-38-2.57967E-04 1.07535E-19 2.43546E-20
 -1       193 2.03689E-04-4.03039E-04 4.94226E-38-2.14456E-04 4.57284E-21-4.71737E-20
 -1       194 2.37628E-04-4.26428E-04 6.25534E-38-1.65575E-04 1.40559E-20-1.66702E-20
 -1       195 2.57518E-04-4.33799E-04 2.56230E-38-1.18308E-04-1.71977E-20-2.62579E-21
 -1       196 2.66719E-04-4.30040E-04 5.41933E-38-7.71019E-05-1.39988E-19-9.60849E-21
 -1       197 2.68975E-04-4.20269E-04 4.64598E-38-4.40857E-05 2.02776E-19 1.93191E-20
 -1       198 2.67605E-04-4.08978E-04 3.16642E-38-1.98514E-05-1.70350E-19-3.18272E-21
 -1       199 2.65165E-04-3.99407E-04-2.79188E-38-3.89593E-06 7.43714E-20 3.23544E-21
 -1       200-2.85525E-05 5.44985E-06-1.77746E-38-2.61584E-05 2.59290E-20 3.37081E-21
 -1       201-5.48742E-05 5.85134E-06 8.14010E-38-5.72154E-05 1.44826E-19 5.12717E-20
 -1       202-7.42116E-05-2.82194E-06 3.19557E-38-9.62080E-05-2.01279E-19-2.28442E-20
 -1       203-8.10800E-05-2.42242E-05-5.35419E-39-1.40715E-04 7.56233E-20 6.13123E-23
 -1       204-7.07228E-05-6.09644E-05 6.85326E-38-1.85780E-04-3.50606E-20 3.76958E-20
 -1       205-4.09705E-05-1.12888E-04-1.32828E-38-2.24315E-04-7.15038E-20-4.03785E-21
 -1       206 5.89611E-06-1.76009E-04 4.86372E-38-2.48914E-04 1.34014E-19-4.99826E-20
 -1       207 6.31372E-05-2.42975E-04 5.43794E-38-2.54487E-04-6.74258E-20 3.85869E-20
 -1       208 1.21778E-04-3.05181E-04 3.68586E-38-2.40192E-04-2.29142E-19-3.34145E-20
 -1       209 1.73720E-04-3.55466E-04 8.55600E-39-2.09563E-04 1.13479E-19 7.66551E-21
 -1       210 2.13965E-04-3.90020E-04 3.70907E-38-1.68926E-04-1.01683E-19-2.47771E-20
 -1       211 2.41162E-04-4.08806E-04 6.68557E-39-1.25172E-04-2.89959E-20 1.86638E-20
 -1       212 2.56787E-04-4.14679E-04 1.15249E-39-8.39921E-05 8.08596E-22 1.49598E-20
 -1       213 2.63797E-04-4.11956E-04-1.23763E-38-4.91348E-05-8.60931E-20-1.85201E-20
 -1       214 2.65461E-04-4.05210E-04 8.25791E-39-2.25600E-05 2.09389E-19 1.07194E-20
 -1       215 2.64845E-04-3.98025E-04 9.86628E-38-4.58423E-06-1.84855E-19-3.44172E-21
 -1       216-1.94241E-05 2.13790E-06 6.32407E-38-2.11252E-05-2.43688E-20-7.69808E-21
 -1       217-3.76082E-05 8.49619E-07 2.16251E-38-4.52961E-05-2.38716E-20-3.01885E-20
 -1       218-5.15543E-05-6.65494E-06 4.58516E-39-7.51674E-05-7.65771E-21 1.96875E-20
 -1       219-5.77483E-05-2.29559E-05 4.16081E-38-1.09644E-04 1.28989E-19 5.87566E-20
 -1       220-5.26383E-05-5.04412E-05 1.11637E-38-1.46110E-04-1.95835E-20-1.07117E-20
 -1       221-3.34976E-05-9.02547E-05 2.55011E-38-1.80224E-04-3.46998E-21 7.94715E-22
 -1       222 1.52065E-07-1.41236E-04-3.28474E-39-2.06487E-04-9.21444E-20 3.78512E-20
 -1       223 4.55495E-05-1.99400E-04 4.39794E-38-2.19701E-04 1.48387E-19-1.27692E-20
 -1       224 9.69861E-05-2.58534E-04 3.32620E-38-2.16765E-04 9.83429E-20 2.05763E-20
 -1       225 1.47482E-04-3.11862E-04-6.61842E-39-1.97896E-04-1.39022E-20-5.19749E-21
 -1       226 1.90976E-04-3.54018E-04 2.58549E-38-1.66567E-04-6.33840E-20-8.72947E-21
 -1       227 2.23910E-04-3.82431E-04 2.03562E-38-1.28295E-04-2.06742E-19 1.03159E-20
 -1       228 2.45620E-04-3.97599E-04 4.57131E-38-8.89583E-05 1.26637E-19 9.61959E-21
 -1       229 2.57690E-04-4.02363E-04 1.13461E-39-5.34522E-05 1.31064E-20-3.88201E-20
 -1       230 2.62853E-04-4.00787E-04 2.75836E-38-2.51216E-05 4.55786E-20 9.81761E-23
 -1       231 2.64423E-04-3.96447E-04 3.77376E-38-5.31754E-06 5.05940E-20-2.09747E-21
 -1       232-1.29722E-05-2.70982E-07-1.65617E-38-1.73224E-05 1.83901E-21 1.25375E-20
 -1       233-2.52253E-05-2.95269E-06 2.36811E-38-3.65048E-05 5.28317E-20 7.64732E-20
 -1       234-3.47337E-05-1.00983E-05 4.55248E-38-5.98053E-05 2.03712E-21 6.21725E-20
 -1       235-3.92245E-05-2.35116E-05-8.57135E-39-8.67390E-05-1.46076E-20-2.54864E-20
 -1       236-3.61958E-05-4.51189E-05 3.27903E-38-1.15939E-04-7.08209E-21-8.57365E-21
 -1       237-2.32460E-05-7.63839E-05 3.54751E-38-1.44840E-04-1.28189E-20 8.33092E-20
 -1       238 1.08112E-06-1.17556E-04-7.36144E-39-1.69702E-04 1.74358E-20-3.88614E-20
 -1       239 3.63378E-05-1.66953E-04 4.17567E-38-1.86216E-04-1.04863E-20-1.72199E-20
 -1       240 7.96323E-05-2.20740E-04-7.12682E-39-1.90679E-04 3.12444E-20-3.04744E-20
 -1       241 1.26030E-04-2.73558E-04 9.86897E-38-1.81306E-04 3.56373E-20 5.04594E-20
 -1       242 1.69898E-04-3.19903E-04 3.00773E-38-1.59041E-04-5.36528E-20-3.39872E-20
 -1       243 2.06567E-04-3.55680E-04 1.77016E-38-1.27411E-04 1.26684E-19 5.24791E-20
 -1       244 2.33528E-04-3.79256E-04-1.04093E-38-9.15123E-05 1.01431E-19-3.16468E-21
 -1       245 2.50687E-04-3.91613E-04 5.94860E-38-5.66717E-05-1.32382E-19-1.05338E-20
 -1       246 2.59742E-04-3.95732E-04-4.33800E-39-2.73650E-05-1.16898E-20 9.11874E-21
 -1       247 2.63869E-04-3.94718E-04 4.20042E-38-6.06931E-06-1.64190E-19 6.30429E-21
 -1       248-8.30924E-06-2.05763E-06 4.62323E-38-1.43313E-05-3.30552E-20-3.05175E-20
 -1       249-1.61965E-05-5.85048E-06 1.49601E-38-2.97443E-05 5.94082E-20 3.99866E-20
 -1       250-2.21762E-05-1.30000E-05 1.13947E-38-4.81586E-05 4.65210E-20 1.84833E-20
 -1       251-2.47510E-05-2.47746E-05 2.37572E-38-6.93678E-05 1.48901E-19 6.12708E-20
 -1       252-2.21903E-05-4.26566E-05 1.09924E-37-9.26623E-05-1.43565E-19-2.65134E-20
 -1       253-1.26140E-05-6.80278E-05 2.36821E-38-1.16551E-04-5.63139E-20-2.28185E-20
 -1       254 5.56502E-06-1.01715E-04 5.35562E-38-1.38608E-04-2.17098E-20-1.08751E-20
 -1       255 3.29817E-05-1.43392E-04 4.83331E-38-1.55625E-04-8.67624E-20 1.35512E-20
 -1       256 6.86459E-05-1.91086E-04 3.45744E-38-1.64196E-04-1.59779E-19-3.10884E-20
 -1       257 1.09660E-04-2.41134E-04 3.79805E-39-1.61701E-04-3.46226E-20-3.11767E-20
 -1       258 1.51665E-04-2.88817E-04 8.22861E-38-1.47324E-04 2.34435E-19-3.92058E-21
 -1       259 1.89983E-04-3.29559E-04 3.84243E-38-1.22622E-04-1.80739E-20 5.51464E-21
 -1       260 2.20961E-04-3.60221E-04-3.42543E-39-9.13193E-05-1.64404E-19-1.28338E-20
 -1       261 2.42897E-04-3.79915E-04 7.38885E-38-5.84263E-05 8.64227E-20-3.10807E-20
 -1       262 2.56103E-04-3.90102E-04-4.39686E-39-2.90766E-05 5.08773E-20 6.01838E-21
 -1       263 2.63138E-04-3.92914E-04 2.81433E-38-6.79286E-06 8.58361E-21-1.59307E-20
 -1       264-4.87482E-06-3.40967E-06 3.86385E-38-1.18929E-05 5.01065E-20 3.88452E-20
 -1       265-9.51967E-06-8.07476E-06 3.21257E-39-2.43443E-05-3.80100E-20-2.01714E-20
 -1       266-1.27394E-05-1.53765E-05 2.05059E-38-3.90015E-05 3.94309E-20-2.65418E-20
 -1       267-1.35237E-05-2.62208E-05 3.72839E-38-5.57829E-05-2.64681E-19-3.29292E-21
 -1       268-1.06731E-05-4.17324E-05 3.41411E-38-7.43223E-05 2.31118E-19 5.07273E-20
 -1       269-2.78359E-06-6.30860E-05 4.56306E-38-9.37579E-05 4.97328E-20-1.11549E-20
 -1       270 1.15414E-05-9.12568E-05 4.46924E-38-1.12559E-04-1.21383E-19 2.96164E-20
 -1       271 3.33036E-05-1.26613E-04 1.11967E-38-1.28474E-04 7.96970E-20-1.41777E-20
 -1       272 6.25786E-05-1.68435E-04 3.48590E-38-1.38749E-04-1.36033E-21-6.26081E-20
 -1       273 9.80310E-05-2.14569E-04 2.06609E-38-1.40699E-04-3.53809E-21 4.88323E-20
 -1       274 1.36790E-04-2.61498E-04-1.59608E-38-1.32565E-04-8.90574E-20 1.24730E-20
 -1       275 1.74928E-04-3.04981E-04 9.70671E-39-1.14353E-04-1.38544E-19-7.01030E-20
 -1       276 2.08472E-04-3.41142E-04 5.22977E-38-8.82548E-05 1.03188E-19 1.47340E-20
 -1       277 2.34534E-04-3.67565E-04 8.46831E-39-5.84025E-05-5.05621E-20 6.46142E-20
 -1       278 2.51943E-04-3.83993E-04 2.45159E-38-3.00172E-05 1.30332E-19-7.22206E-20
 -1       279 2.62177E-04-3.91138E-04 7.32524E-38-7.41747E-06-1.65123E-19 1.02338E-20
 -1       280-2.30383E-06-4.45510E-06 2.26386E-38-9.83756E-06 1.12791E-19-6.88990E-20
 -1       281-4.52513E-06-9.79908E-06 6.93303E-39-1.98751E-05-2.27126E-20 1.88005E-20
 -1       282-5.60575E-06-1.72998E-05 7.07671E-39-3.15421E-05 5.35578E-20-1.72762E-20
 -1       283-4.84483E-06-2.76184E-05 1.41918E-38-4.48112E-05 3.17086E-22-3.83955E-20
 -1       284-1.39927E-06-4.16121E-05 2.87305E-38-5.94950E-05-2.85328E-20 4.37719E-20
 -1       285 5.76445E-06-6.02390E-05 5.55336E-39-7.50957E-05 8.28376E-20-2.22617E-20
 -1       286 1.77769E-05-8.44326E-05-2.03405E-39-9.06596E-05-6.71066E-21 8.09015E-20
 -1       287 3.56604E-05-1.14855E-04 1.34444E-38-1.04668E-04 1.02557E-20-4.59759E-20
 -1       288 5.99806E-05-1.51530E-04 6.27801E-39-1.15053E-04-1.59818E-21-4.67283E-20
 -1       289 9.04072E-05-1.93445E-04 3.39728E-38-1.19465E-04-2.57564E-20 1.26034E-20
 -1       290 1.25358E-04-2.38307E-04 2.39095E-38-1.15845E-04 3.07034E-20 2.53846E-20
 -1       291 1.61982E-04-2.82697E-04-4.31456E-40-1.03212E-04 5.98642E-20 1.02145E-20
 -1       292 1.96660E-04-3.22709E-04 2.05840E-38-8.24016E-05 5.95081E-21 2.74090E-20
 -1       293 2.25927E-04-3.54951E-04-9.82255E-39-5.63853E-05 5.87293E-20 1.51687E-21
 -1       294 2.47330E-04-3.77542E-04 4.90225E-38-2.99497E-05 8.10037E-20 3.46858E-20
 -1       295 2.60931E-04-3.89516E-04 1.38954E-38-7.84912E-06 4.14542E-20 8.29985E-22
 -1       296-3.52447E-07-5.28302E-06-5.23789E-39-8.04633E-06-1.50719E-21 3.33345E-20
 -1       297-7.57924E-07-1.11521E-05 2.10069E-38-1.60464E-05-2.92872E-20-7.30806E-20
 -1       298-1.92953E-07-1.88519E-05 1.76376E-38-2.52484E-05 1.63146E-20 6.27194E-20
 -1       299 1.84306E-06-2.88777E-05 5.28273E-39-3.56468E-05-3.62126E-20-8.10591E-21
 -1       300 5.95726E-06-4.18938E-05 6.03276E-39-4.71477E-05-1.17182E-20-6.45847E-20
 -1       301 1.29143E-05-5.86737E-05 1.34693E-38-5.94633E-05-4.84727E-20 1.22957E-20
 -1       302 2.36006E-05-8.00431E-05 2.69161E-38-7.20042E-05 5.83094E-20-1.43060E-20
 -1       303 3.89245E-05-1.06743E-04 8.27697E-39-8.37701E-05 4.47038E-20-1.81468E-20
 -1       304 5.96126E-05-1.39187E-04 2.08253E-38-9.32884E-05 2.65781E-20 1.14557E-20
 -1       305 8.58900E-05-1.77125E-04 1.04149E-38-9.86889E-05 7.35193E-21-1.19972E-20
 -1       306 1.17106E-04-2.19298E-04 7.18487E-39-9.80191E-05-8.44228E-20-4.71032E-21
 -1       307 1.51466E-04-2.63268E-04 1.75552E-38-8.98384E-05-3.79842E-21 2.52813E-20
 -1       308 1.86087E-04-3.05612E-04 9.64095E-39-7.39889E-05-2.68841E-20-1.40425E-20
 -1       309 2.17509E-04-3.42564E-04 2.10410E-38-5.22728E-05-5.05766E-20 1.59868E-21
 -1       310 2.42421E-04-3.70952E-04 2.86755E-38-2.86704E-05-8.39812E-20-4.86773E-20
 -1       311 2.59368E-04-3.88176E-04 2.42606E-38-7.97675E-06-2.60721E-20 4.90751E-21
 -1       312 1.14533E-06-5.95639E-06 6.65798E-39-6.43096E-06-9.60291E-21 5.27151E-21
 -1       313 2.09604E-06-1.22276E-05 1.47326E-38-1.26494E-05 2.89087E-20-7.80121E-20
 -1       314 3.91088E-06-2.01058E-05-4.43544E-39-1.97432E-05 3.62378E-20 1.73364E-20
 -1       315 6.96459E-06-2.99757E-05 1.27735E-38-2.77152E-05-4.00368E-20 8.71475E-21
 -1       316 1.17078E-05-4.23636E-05 1.41208E-38-3.65197E-05-1.19175E-20-2.90334E-20
 -1       317 1.87165E-05-5.78982E-05 2.10382E-38-4.59902E-05-9.33372E-20 7.80354E-20
 -1       318 2.86832E-05-7.72897E-05-5.93601E-39-5.57653E-05 1.28474E-20-6.49473E-20
 -1       319 4.23736E-05-1.01260E-04 1.87516E-38-6.52006E-05 6.99241E-20 1.57235E-20
 -1       320 6.05168E-05-1.30398E-04 3.07992E-38-7.32899E-05 8.25999E-20-4.69583E-20
 -1       321 8.35975E-05-1.64912E-04 3.88865E-38-7.86472E-05-1.18062E-19 2.16766E-20
 -1       322 1.11553E-04-2.04307E-04-1.28373E-41-7.96404E-05 1.36957E-20-1.71218E-21
 -1       323 1.43436E-04-2.47066E-04 3.40155E-38-7.47670E-05-1.21690E-19-3.35879E-20
 -1       324 1.77197E-04-2.90508E-04-1.51535E-38-6.32962E-05 6.58072E-20-1.18583E-20
 -1       325 2.09774E-04-3.30992E-04-2.71247E-39-4.60508E-05 8.63619E-20 4.03817E-22
 -1       326 2.37490E-04-3.64516E-04 1.42802E-37-2.60247E-05 9.74573E-20-3.86193E-20
 -1       327 2.57517E-04-3.87234E-04-1.20575E-38-7.68060E-06 7.66061E-20-1.03628E-20
 -1       328 2.30327E-06-6.51731E-06-3.35046E-39-4.90887E-06-2.06736E-22 2.87192E-20
 -1       329 4.24084E-06-1.30925E-05 1.49252E-38-9.51682E-06 4.31021E-20-2.76616E-20
 -1       330 6.99135E-06-2.11297E-05 2.18733E-38-1.47407E-05-5.92157E-20-8.80161E-20
 -1       331 1.08327E-05-3.09273E-05-3.14763E-39-2.05861E-05 3.90929E-20 9.57757E-21
 -1       332 1.61107E-05-4.29159E-05 2.77806E-38-2.70307E-05 7.40618E-22 1.09137E-19
 -1       333 2.32752E-05-5.76201E-05-2.68439E-39-3.39783E-05 3.00995E-20-5.87047E-20
 -1       334 3.28787E-05-7.56539E-05 3.32499E-38-4.12115E-05-6.71605E-20 4.77172E-20
 -1       335 4.55616E-05-9.76882E-05-5.42541E-39-4.83285E-05 4.82347E-21 1.82262E-20
 -1       336 6.19961E-05-1.24369E-04 2.04959E-38-5.46740E-05 2.20869E-20-4.18469E-20
 -1       337 8.27614E-05-1.56155E-04-4.11094E-39-5.92902E-05 3.12575E-20 6.58369E-20
 -1       338 1.08124E-04-1.93059E-04 4.98864E-39-6.09479E-05-5.78837E-22 8.56381E-21
 -1       339 1.37728E-04-2.34305E-04 3.09584E-39-5.83457E-05 1.19315E-20 8.30685E-20
 -1       340 1.70253E-04-2.77986E-04 5.44446E-38-5.05608E-05-2.16405E-19-4.16131E-20
 -1       341 2.03197E-04-3.20894E-04 4.26446E-38-3.77435E-05 6.40952E-20-1.16864E-20
 -1       342 2.32911E-04-3.58642E-04-1.88077E-39-2.19037E-05-1.17730E-19 4.60675E-20
 -1       343 2.55511E-04-3.86759E-04 9.46594E-38-6.83667E-06 1.00106E-19 1.21381E-20
 -1       344 3.16414E-06-6.99145E-06 2.16516E-38-3.45087E-06 9.63204E-21-1.34781E-19
 -1       345 5.84320E-06-1.38273E-05-2.61324E-39-6.53367E-06-3.79680E-20 6.79852E-20
 -1       346 9.26109E-06-2.19913E-05 4.33966E-38-1.00295E-05 2.06300E-20 1.24816E-19
 -1       347 1.36631E-05-3.17518E-05 1.33372E-38-1.39299E-05-2.84321E-20-5.34489E-20
 -1       348 1.93415E-05-4.34869E-05 7.25587E-39-1.82197E-05 1.33915E-21-7.39218E-20
 -1       349 2.66692E-05-5.76543E-05 9.56539E-39-2.28455E-05 3.26643E-20 3.62932E-20
 -1       350 3.61053E-05-7.47970E-05-3.69441E-40-2.76846E-05 2.05695E-21-2.33659E-20
 -1       351 4.81953E-05-9.55328E-05 3.10783E-39-3.25045E-05-4.19092E-20 4.98448E-20
 -1       352 6.35460E-05-1.20512E-04 1.16617E-38-3.69132E-05 2.29627E-20-5.98622E-20
 -1       353 8.27525E-05-1.50316E-04 2.40694E-38-4.03129E-05 3.56445E-20-9.94122E-20
 -1       354 1.06246E-04-1.85262E-04 1.46660E-38-4.18882E-05-5.24798E-20 1.55960E-20
 -1       355 1.34035E-04-2.25094E-04-1.11834E-38-4.06925E-05 6.86019E-20-2.12419E-20
 -1       356 1.65334E-04-2.68556E-04 2.85343E-38-3.59138E-05-1.13218E-20-1.40571E-20
 -1       357 1.98162E-04-3.12955E-04 5.96541E-38-2.73724E-05-3.95033E-20-6.42520E-20
 -1       358 2.29109E-04-3.53834E-04-3.20323E-38-1.62349E-05 2.32220E-19 5.03392E-20
 -1       359 2.53608E-04-3.86729E-04 1.27817E-37-5.32378E-06-2.17064E-19-2.98497E-20
 -1       360 3.96838E-06-7.62803E-06 4.28430E-38-1.97418E-06 2.30909E-20-6.84529E-20
 -1       361 6.99476E-06-1.45254E-05 5.60377E-39-3.64981E-06 8.74465E-21 6.65261E-20
 -1       362 1.07698E-05-2.27225E-05 2.28637E-38-5.48981E-06-4.35841E-20-7.98090E-20
 -1       363 1.54977E-05-3.24489E-05-3.65481E-39-7.50748E-06 6.70652E-21-1.58145E-20
 -1       364 2.14274E-05-4.40403E-05 2.00967E-38-9.70667E-06 3.19205E-20 2.99978E-20
 -1       365 2.88800E-05-5.79074E-05 3.97094E-39-1.20694E-05-6.21747E-20 1.37335E-20
 -1       366 3.82547E-05-7.45448E-05 4.30547E-38-1.45425E-05 1.49258E-20 6.70888E-21
 -1       367 5.00349E-05-9.45302E-05 1.47106E-38-1.70194E-05 6.80320E-21-3.55477E-20
 -1       368 6.47772E-05-1.18502E-04 1.37925E-38-1.93146E-05 9.43326E-21 1.36593E-20
 -1       369 8.30666E-05-1.47090E-04 1.34588E-38-2.11372E-05 8.26246E-20 1.24950E-20
 -1       370 1.05405E-04-1.80771E-04 3.65204E-38-2.20751E-05-7.44345E-20 1.21104E-19
 -1       371 1.31994E-04-2.19591E-04 4.79000E-38-2.16222E-05-1.85833E-19-3.35433E-20
 -1       372 1.62373E-04-2.62722E-04 1.36712E-38-1.92986E-05 8.98206E-20-2.26035E-20
 -1       373 1.94921E-04-3.07877E-04-6.12919E-39-1.49079E-05-4.80744E-20 5.51586E-21
 -1       374 2.26490E-04-3.50666E-04 1.54303E-37-8.97453E-06-2.66485E-19-4.72108E-20
 -1       375 2.52156E-04-3.86982E-04-1.93476E-38-3.05703E-06 6.43458E-20 3.73445E-21
 -1       376-1.35298E-07-2.92084E-08-2.11410E-35 1.12189E-06-1.43689E-18 3.23708E-19
 -1       377-1.77200E-03-4.37484E-03-1.21154E-36 3.25715E-03-2.09107E-19-5.07568E-21
 -1       378 5.05366E-04-2.29553E-04 2.75921E-36 8.35465E-06 1.14389E-18-1.15574E-20
 -1       379 1.97757E-05-4.58721E-05-5.34052E-35 1.25371E-06 4.52460E-18-2.78185E-19
 -1       381-3.17324E-06 8.61164E-07 2.44112E-35 9.63388E-07 6.63241E-18-2.74601E-19
 -1       382-1.45587E-05 5.76055E-06 1.45606E-35 1.01868E-06 2.75112E-18-1.12771E-18
 -1       383-3.46773E-05 1.44717E-05-5.31657E-38 1.53430E-06-5.04822E-19 2.69924E-19
 -1       384-6.00434E-05 2.52172E-05 3.28255E-36 2.12512E-06 1.26525E-18-8.14939E-19
 -1       385-8.80495E-05 3.70383E-05 3.89267E-36 2.65837E-06 4.07659E-18-7.24303E-19
 -1       386-1.16921E-04 4.92140E-05-3.74626E-36 3.11280E-06-2.48218E-18 1.00227E-18
 -1       387-1.45298E-04 6.11936E-05 3.75390E-36 3.47370E-06 9.54849E-19 2.13491E-19
 -1       388-1.72154E-04 7.25662E-05 4.34744E-36 3.73601E-06 4.95835E-19 1.78852E-19
 -1       389-1.96774E-04 8.30564E-05 5.57441E-36 3.90597E-06 7.81190E-19 8.47561E-20
 -1       390-2.18724E-04 9.25158E-05 5.21243E-38 4.00173E-06-3.46615E-20-2.22104E-20
 -1       391-2.37813E-04 1.00910E-04 4.88982E-36 4.05366E-06-1.10225E-18 5.93128E-19
 -1       392-2.54045E-04 1.08306E-04-2.91699E-36 4.10603E-06-1.06080E-18-5.08902E-20
 -1       393-2.67562E-04 1.14859E-04 8.12295E-36 4.22288E-06 7.89593E-19-1.23414E-19
 -1       394-2.78598E-04 1.20820E-04 3.11607E-36 4.50311E-06 1.18870E-18-1.79254E-20
 -1       395-2.87437E-04 1.26560E-04 1.72657E-36 5.11652E-06-1.04481E-19 9.40970E-20
 -1       396-2.94382E-04 1.32654E-04-2.17746E-36 6.39031E-06 1.05533E-18-3.42572E-21
 -1       397-2.99734E-04 1.40078E-04 1.13332E-35 9.04640E-06-2.17815E-18 2.02979E-19
 -1       398-3.03829E-04 1.50634E-04 8.71264E-36 1.48863E-05-1.28591E-18 2.37415E-19
 -1       399-3.07924E-04 1.68617E-04-1.74775E-36 2.99550E-05 2.68797E-19-6.18808E-20
 -1       400-3.30491E-04 1.99430E-04 8.47679E-37 7.74690E-05 7.89383E-19-2.21744E-19
 -1       401-5.70256E-04 2.51963E-04-6.30195E-37 3.36208E-04 2.42781E-19 5.61950E-20
 -1       402-1.28089E-03-1.79649E-04 1.77142E-36 1.42783E-03-1.94669E-19-1.65263E-20
 -1       403 3.45597E-04-3.45410E-03 1.02724E-36 1.16664E-03 1.05066E-19 2.94518E-21
 -1       404 3.15353E-04-2.01364E-03 2.01436E-36 4.33370E-04 9.26164E-19 3.98351E-21
 -1       405 2.29569E-04-1.26020E-03 9.65021E-37 2.12242E-04 1.02048E-18-2.29056E-21
 -1       406 1.54874E-04-8.91071E-04-4.88087E-37 1.19764E-04-1.10697E-19 2.04244E-21
 -1       407 1.07036E-04-6.69210E-04-9.74401E-37 7.49353E-05-7.27981E-19-1.18576E-21
 -1       408 7.93183E-05-5.23624E-04 6.29422E-37 5.03178E-05 9.60914E-20 2.32325E-22
 -1       409 6.65186E-05-4.22274E-04 1.01175E-36 3.58003E-05 1.18881E-18-3.54882E-22
 -1       410 6.49049E-05-3.49051E-04 2.95073E-36 2.67314E-05 2.23013E-20 1.31348E-21
 -1       411 7.21544E-05-2.94848E-04 4.21107E-36 2.08250E-05-2.11677E-18-3.89340E-22
 -1       412 8.69508E-05-2.54264E-04 1.16570E-36 1.68535E-05 9.28943E-19 1.80653E-21
 -1       413 1.08787E-04-2.24047E-04 1.15396E-37 1.41216E-05-4.17348E-19-3.20709E-21
 -1       414 1.37918E-04-2.02391E-04 9.29834E-37 1.22157E-05 1.88576E-19-1.65341E-21
 -1       415 1.75486E-04-1.88667E-04 2.52822E-36 1.08798E-05 1.04162E-18 2.01654E-21
 -1       416 2.23880E-04-1.83516E-04 1.67764E-37 9.94856E-06-1.46955E-18-1.65563E-21
 -1       417 2.87523E-04-1.89402E-04 2.99504E-36 9.30272E-06 1.79787E-18-9.66429E-22
 -1       418 3.74709E-04-2.12553E-04 3.50872E-36 8.84279E-06 1.57157E-18 9.50962E-21
 -1       419 5.04748E-04-2.29340E-04 7.51130E-36 2.90630E-06-1.52851E-18-2.47453E-20
 -1       420 5.02807E-04-2.28622E-04 2.44172E-36 5.64531E-06 2.62330E-18 2.65995E-20
 -1       421 4.99264E-04-2.27267E-04-4.58057E-37 8.61300E-06 6.90298E-19-5.24036E-20
 -1       422 4.93717E-04-2.25118E-04 2.14108E-36 1.17387E-05 8.34189E-19 4.02132E-20
 -1       423 4.85724E-04-2.22005E-04-1.99505E-36 1.49602E-05-1.28245E-18-3.86084E-20
 -1       424 4.74826E-04-2.17755E-04 2.29279E-36 1.81778E-05 9.94369E-19 2.58889E-19
 -1       425 4.60580E-04-2.12205E-04 1.95165E-36 2.12589E-05-1.35119E-18-3.45346E-19
 -1       426 4.42609E-04-2.05228E-04 3.16565E-36 2.40413E-05-1.21244E-18-2.12435E-19
 -1       427 4.20668E-04-1.96752E-04 3.61057E-37 2.63450E-05-6.84534E-19 1.74794E-19
 -1       428 3.94707E-04-1.86787E-04 1.78219E-36 2.79928E-05-7.50123E-19 6.30997E-20
 -1       429 3.64928E-04-1.75442E-04 5.32910E-36 2.88405E-05 2.30301E-18 9.03166E-19
 -1       430 3.31813E-04-1.62923E-04 5.19619E-36 2.88087E-05 1.50209E-18-4.35037E-19
 -1       431 2.96107E-04-1.49521E-04 6.21518E-37 2.79064E-05-1.58446E-18 4.24388E-19
 -1       432 2.58744E-04-1.35574E-04 9.50050E-36 2.62351E-05 3.15750E-18-8.78643E-20
 -1       433 2.20749E-04-1.21436E-04 4.72739E-36 2.39676E-05-1.34144E-18-1.16307E-19
 -1       434 1.83132E-04-1.07442E-04-5.22614E-37 2.13051E-05 9.44764E-19 1.76991E-19
 -1       435 1.46825E-04-9.38996E-05 1.11986E-36 1.84288E-05 2.09840E-18 3.92882E-19
 -1       436 1.12696E-04-8.11066E-05 1.30014E-35 1.54607E-05-2.49564E-18-9.46129E-19
 -1       437 8.16524E-05-6.93850E-05 7.60116E-36 1.24449E-05-7.71697E-19-3.81039E-20
 -1       438 5.48766E-05-5.91456E-05 4.16928E-36 9.34107E-06 1.62946E-18 2.10972E-19
 -1       439 3.43338E-05-5.09647E-05 1.47866E-35 6.06976E-06-3.09838E-18 3.41708E-19
 -1       440 2.28566E-05-4.58341E-05 6.11116E-35 2.83304E-06-6.07447E-18 2.95012E-19
 -1       441 2.15777E-05-4.55850E-05 3.57371E-35 2.49914E-06-3.30698E-18-1.38224E-19
 -1       442 2.02745E-05-4.34416E-05 1.27878E-35 4.91897E-06-2.59269E-18-2.28691E-20
 -1       443 1.75953E-05-3.86802E-05-1.28019E-36 7.23287E-06 4.92669E-19 7.66417E-21
 -1       444 1.43743E-05-3.24237E-05 4.44921E-36 8.77947E-06 3.00621E-19-7.30907E-19
 -1       445 1.10852E-05-2.57286E-05 1.30478E-35 9.48909E-06 2.84451E-18 6.83722E-19
 -1       446 8.00485E-06-1.93371E-05-1.40317E-35 9.48099E-06-3.92713E-18 6.89670E-19
 -1       447 5.28576E-06-1.36942E-05 6.14178E-37 8.92438E-06 1.79456E-18-5.38086E-19
 -1       448 3.00009E-06-9.01609E-06 1.97213E-35 7.98975E-06-5.21540E-19-2.69204E-19
 -1       449 1.16942E-06-5.35993E-06 5.47727E-36 6.83172E-06-3.53764E-18 4.37048E-20
 -1       450-2.15147E-07-2.67932E-06 3.74958E-36 5.58397E-06 1.26692E-18-3.48757E-19
 -1       451-1.17953E-06-8.66320E-07 1.53693E-35 4.35862E-06-2.98012E-19-1.71884E-19
 -1       452-1.75783E-06 2.18550E-07 8.26195E-36 3.24735E-06 1.23700E-19-3.24120E-19
 -1       453-1.98699E-06 7.25583E-07 3.52431E-36 2.32269E-06 3.09782E-18-3.10064E-19
 -1       454-1.90380E-06 8.02192E-07-4.76430E-36 1.63930E-06 1.80549E-19-4.19955E-20
 -1       455-1.54381E-06 5.85335E-07 1.55873E-36 1.23458E-06-2.92582E-18 6.23335E-19
 -1       456-9.46317E-07 1.95329E-07 2.69344E-35 1.12835E-06 5.11027E-19-4.14245E-19
 -1       457-4.35539E-06 9.19505E-07 1.41888E-35 1.63911E-06-2.18804E-18-3.27603E-19
 -1       458-5.20547E-06 8.61960E-07 5.09956E-36 2.95563E-06 1.32697E-18-1.03894E-19
 -1       459-5.70243E-06 4.43699E-07 1.67960E-35 4.56452E-06 1.56761E-18-2.31698E-19
 -1       460-5.80194E-06-3.62212E-07 3.14610E-35 6.44588E-06 1.98841E-18-1.26781E-20
 -1       461-5.46635E-06-1.58754E-06 2.61187E-35 8.56158E-06-4.21043E-18 2.20417E-19
 -1       462-4.65869E-06-3.26904E-06 1.45752E-36 1.08517E-05 2.48848E-19 6.12794E-20
 -1       463-3.34410E-06-5.44777E-06 7.09293E-36 1.32266E-05-1.32625E-19 3.19676E-19
 -1       464-1.49221E-06-8.16623E-06 1.51080E-36 1.55603E-05 2.27820E-18-2.79862E-19
 -1       465 9.18390E-07-1.14623E-05 3.63962E-35 1.76855E-05 2.81379E-18-1.56638E-19
 -1       466 3.89265E-06-1.53587E-05 1.18326E-35 1.93893E-05 1.53805E-18-1.72245E-19
 -1       467 7.40625E-06-1.98472E-05 4.96257E-35 2.04119E-05 4.27243E-18 1.82752E-19
 -1       468 1.13842E-05-2.48649E-05 8.05660E-36 2.04547E-05 1.04017E-18 7.80601E-19
 -1       469 1.56646E-05-3.02630E-05 1.56102E-35 1.92039E-05 2.35059E-19-3.50761E-19
 -1       470 1.99338E-05-3.57612E-05 1.12431E-35 1.63947E-05 2.38673E-18-1.47443E-19
 -1       471 2.35997E-05-4.08621E-05 1.38767E-35 1.19540E-05-1.10046E-18 5.19397E-19
 -1       472 2.55003E-05-4.45340E-05 1.22040E-35 6.31957E-06-4.51912E-19-4.73192E-19
 -1       473-1.57806E-05 5.94481E-06-1.92364E-36 2.99796E-06-1.57956E-18 5.14574E-19
 -1       474-1.65831E-05 6.10630E-06 1.72802E-35 6.54750E-06 1.02614E-18-1.11551E-20
 -1       475-1.69085E-05 5.82397E-06 1.41178E-35 1.02369E-05-3.76983E-18 1.94148E-19
 -1       476-1.66767E-05 5.03790E-06 2.02642E-35 1.40657E-05 2.31219E-19 1.20757E-19
 -1       477-1.58162E-05 3.68958E-06-6.31499E-36 1.80044E-05 1.92993E-18-9.74650E-20
 -1       478-1.42589E-05 1.72420E-06 1.30565E-35 2.19964E-05-6.40670E-19 1.61773E-19
 -1       479-1.19425E-05-9.08876E-07 6.08373E-36 2.59451E-05-2.81240E-18 9.56908E-20
 -1       480-8.81342E-06-4.25418E-06 1.87059E-35 2.97030E-05-1.33322E-19-4.03579E-20
 -1       481-4.83172E-06-8.34669E-06 1.02865E-37 3.30606E-05 4.10002E-19-1.03315E-19
 -1       482 2.03074E-08-1.32050E-05 6.39586E-36 3.57367E-05 4.31565E-19-1.91168E-19
 -1       483 5.72200E-06-1.88183E-05 1.30972E-35 3.73707E-05-2.58890E-19 1.51505E-19
 -1       484 1.21848E-05-2.51210E-05 6.21023E-36 3.75248E-05 9.46427E-19 8.16946E-19
 -1       485 1.91970E-05-3.19468E-05-1.01748E-36 3.57018E-05-3.18983E-18-6.50454E-19
 -1       486 2.63198E-05-3.89362E-05 1.67688E-35 3.13909E-05-9.76688E-19-1.30394E-19
 -1       487 3.26831E-05-4.53500E-05 3.48344E-36 2.41461E-05-2.05880E-19 1.57145E-19
 -1       488 3.65702E-05-4.96268E-05 1.43423E-35 1.35108E-05-2.04719E-18-6.67273E-19
 -1       489-3.49585E-05 1.44276E-05 1.01241E-35 4.51330E-06-8.77858E-19-9.72671E-20
 -1       490-3.48249E-05 1.41597E-05 9.09802E-36 9.81333E-06-2.35491E-18 2.74424E-19
 -1       491-3.41724E-05 1.34869E-05-7.38998E-37 1.52849E-05 2.21672E-19-1.38437E-19
 -1       492-3.28888E-05 1.23167E-05-1.77998E-36 2.08747E-05 7.74833E-19-2.65542E-19
 -1       493-3.08570E-05 1.05542E-05 1.07943E-35 2.65103E-05-8.98636E-19-1.31806E-20
 -1       494-2.79578E-05 8.10425E-06 7.47126E-36 3.21026E-05-2.77861E-19-2.30962E-20
 -1       495-2.40732E-05 4.87381E-06 9.51673E-36 3.75268E-05 3.06382E-18 1.47434E-19
 -1       496-1.90924E-05 7.76477E-07 3.98780E-36 4.26082E-05-3.15758E-18-1.32949E-19
 -1       497-1.29198E-05-4.26117E-06 3.40517E-36 4.71051E-05 3.31876E-20-1.75212E-19
 -1       498-5.48967E-06-1.02884E-05 3.72572E-36 5.06916E-05 1.25434E-19-1.39797E-19
 -1       499 3.20904E-06-1.73106E-05-4.30298E-36 5.29383E-05-7.56814E-19 1.32337E-19
 -1       500 1.30896E-05-2.52538E-05 1.48582E-35 5.32984E-05 1.35090E-18 7.57861E-19
 -1       501 2.38916E-05-3.39014E-05 8.41807E-36 5.10997E-05 1.19940E-18-4.29634E-19
 -1       502 3.50494E-05-4.27841E-05 6.51328E-36 4.55496E-05 9.28067E-19-2.96412E-19
 -1       503 4.54700E-05-5.09991E-05 1.86794E-35 3.57319E-05-2.25438E-18 2.34365E-22
 -1       504 5.31903E-05-5.69692E-05-1.25060E-36 2.04643E-05 3.69394E-19 1.57631E-19
 -1       505-5.90188E-05 2.48934E-05 1.99671E-35 5.89616E-06 2.92802E-19 1.94128E-19
 -1       506-5.75172E-05 2.40529E-05 1.03440E-35 1.25983E-05-5.97464E-19-2.09305E-19
 -1       507-5.54113E-05 2.27838E-05-1.43189E-36 1.95178E-05 9.78499E-19-6.72097E-20
 -1       508-5.25874E-05 2.09967E-05 1.78785E-35 2.65912E-05 8.71394E-21-1.76175E-19
 -1       509-4.89071E-05 1.85906E-05 5.08159E-36 3.37240E-05-1.79040E-18 1.07076E-20
 -1       510-4.42178E-05 1.54522E-05-5.15669E-36 4.08007E-05 8.74376E-19-1.24742E-19
 -1       511-3.83557E-05 1.14601E-05 1.65442E-35 4.76648E-05-3.56488E-18 2.02099E-19
 -1       512-3.11523E-05 6.49023E-06 5.59578E-36 5.41043E-05 1.56154E-18-1.40310E-19
 -1       513-2.24458E-05 4.25261E-07 6.78528E-36 5.98318E-05-8.58628E-19 3.65566E-21
 -1       514-1.21007E-05-6.82951E-06 2.22337E-35 6.44585E-05-1.66363E-18-1.77903E-19
 -1       515-4.08114E-08-1.53192E-05-2.75898E-36 6.74659E-05 4.32126E-19 1.30430E-19
 -1       516 1.36946E-05-2.49944E-05 1.02592E-35 6.81737E-05 2.35435E-18 7.49750E-19
 -1       517 2.88605E-05-3.56370E-05 8.26831E-36 6.57090E-05-1.04002E-18-4.84539E-19
 -1       518 4.48615E-05-4.67451E-05 1.03097E-35 5.89799E-05-3.53025E-19-2.46949E-19
 -1       519 6.05331E-05-5.73697E-05-1.61219E-36 4.66503E-05 1.28111E-18 1.97987E-19
 -1       520 7.38651E-05-6.58968E-05 9.72383E-36 2.69697E-05-6.70805E-19-1.28020E-19
 -1       521-8.56145E-05 3.64101E-05 1.97527E-35 7.05637E-06-2.56844E-18 3.27489E-19
 -1       522-8.26358E-05 3.49540E-05-8.13954E-37 1.48815E-05 6.10471E-20 1.85653E-19
 -1       523-7.89531E-05 3.30511E-05 1.37328E-35 2.29837E-05 2.32468E-18 2.81574E-20
 -1       524-7.44499E-05 3.06051E-05 2.45870E-36 3.12965E-05-5.34038E-19 2.12148E-19
 -1       525-6.89688E-05 2.75067E-05-5.04416E-36 3.97196E-05-5.19579E-19 3.22782E-19
 -1       526-6.23270E-05 2.36266E-05 3.34487E-35 4.81272E-05-1.58739E-18-3.43769E-20
 -1       527-5.43173E-05 1.88181E-05 6.06313E-36 5.63439E-05 4.30075E-19 1.52339E-19
 -1       528-4.47126E-05 1.29215E-05 7.42546E-36 6.41259E-05 1.03386E-18-7.27712E-20
 -1       529-3.32778E-05 5.77402E-06-1.40996E-36 7.11358E-05-4.06853E-19-1.69364E-19
 -1       530-1.97938E-05-2.77117E-06-2.94560E-37 7.69105E-05 2.35252E-19-1.03250E-19
 -1       531-4.09737E-06-1.28120E-05 3.77086E-36 8.08228E-05 1.03383E-18 1.80459E-19
 -1       532 1.38529E-05-2.43449E-05-8.91388E-38 8.20377E-05-1.65355E-18 6.98641E-19
 -1       533 3.38754E-05-3.71837E-05 9.90559E-36 7.94660E-05 8.19007E-19-3.47103E-19
 -1       534 5.54123E-05-5.08379E-05 2.19087E-35 7.17190E-05 9.29678E-20-1.46529E-19
 -1       535 7.73027E-05-6.43372E-05 1.02410E-35 5.70638E-05-1.05661E-19 2.99996E-19
 -1       536 9.74831E-05-7.59985E-05 1.99042E-36 3.32167E-05-1.29287E-18-1.90611E-19
 -1       537-1.13105E-04 4.82926E-05 7.51510E-36 7.97927E-06 1.03118E-18-7.68839E-20
 -1       538-1.08695E-04 4.62478E-05 2.59739E-36 1.66600E-05 8.09076E-19 1.47013E-19
 -1       539-1.03495E-04 4.37478E-05 5.64930E-36 2.56956E-05-7.96848E-20-2.48719E-19
 -1       540-9.73798E-05 4.06872E-05-1.18690E-36 3.50284E-05-9.82692E-20-1.13085E-19
 -1       541-9.01631E-05 3.69415E-05 9.60133E-36 4.45627E-05 9.07699E-19-9.17270E-20
 -1       542-8.16199E-05 3.23567E-05 3.20770E-37 5.41723E-05 6.12615E-20-8.27444E-20
 -1       543-7.14856E-05 2.67515E-05 6.00899E-38 6.36699E-05-7.74531E-19 9.01151E-21
 -1       544-5.94600E-05 1.99216E-05 4.46222E-36 7.27819E-05-2.10745E-18-3.46331E-20
 -1       545-4.52215E-05 1.16526E-05 1.36386E-35 8.11162E-05 1.48190E-19-1.03032E-19
 -1       546-2.84561E-05 1.74267E-06 2.42407E-36 8.81231E-05 1.18359E-18-1.63337E-19
 -1       547-8.90577E-06-9.95806E-06 8.41804E-36 9.30516E-05-1.11900E-20 1.32937E-19
 -1       548 1.35582E-05-2.34898E-05 9.60127E-36 9.49003E-05 5.39762E-19 6.68387E-19
 -1       549 3.88296E-05-3.86996E-05-3.75666E-36 9.23648E-05-1.04970E-18-5.63959E-19
 -1       550 6.64152E-05-5.51195E-05 6.66020E-37 8.37764E-05 1.57004E-18-1.99740E-19
 -1       551 9.51988E-05-7.17824E-05 1.63073E-35 6.70256E-05 2.90430E-19 3.38637E-20
 -1       552 1.23107E-04-8.69576E-05 3.92556E-36 3.92736E-05-1.56236E-18-2.88873E-19
 -1       553-1.40262E-04 6.00179E-05 6.25994E-36 8.65282E-06 1.46548E-18-1.52460E-19
 -1       554-1.34606E-04 5.74692E-05 1.38993E-35 1.79351E-05-1.38697E-18 3.33264E-19
 -1       555-1.28096E-04 5.44676E-05-3.28474E-36 2.76832E-05 1.32111E-18 1.96856E-19
 -1       556-1.20586E-04 5.08902E-05 8.14133E-36 3.78588E-05-6.25673E-19 1.13756E-19
 -1       557-1.11843E-04 4.65858E-05 2.66714E-36 4.83799E-05 9.96177E-19-4.67581E-20
 -1       558-1.01580E-04 4.13612E-05 1.18542E-36 5.91239E-05 6.03306E-19-4.57822E-21
 -1       559-8.94494E-05 3.49853E-05 6.13066E-36 6.98892E-05 8.37330E-19 1.93814E-19
 -1       560-7.50570E-05 2.71979E-05 3.72670E-36 8.03611E-05-1.78971E-18 1.34699E-19
 -1       561-5.79806E-05 1.77285E-05 1.69980E-36 9.00735E-05 2.52279E-19-1.43712E-19
 -1       562-3.78114E-05 6.32943E-06 7.59934E-36 9.83670E-05 6.22368E-19-1.38752E-19
 -1       563-1.42134E-05-7.17847E-06 7.38709E-36 1.04348E-04-1.08811E-18 1.27599E-19
 -1       564 1.30015E-05-2.28473E-05 2.47405E-36 1.06850E-04 7.04389E-21 6.19628E-19
 -1       565 4.37792E-05-4.05304E-05 6.13100E-36 1.04377E-04 2.19536E-18-2.30437E-19
 -1       566 7.76950E-05-5.97803E-05 8.67954E-36 9.50365E-05 3.14720E-19-1.68364E-19
 -1       567 1.13737E-04-7.96772E-05-6.58287E-37 7.63950E-05 6.80296E-19 9.55248E-20
 -1       568 1.49948E-04-9.85389E-05 2.59402E-36 4.50496E-05-1.18930E-18-3.80075E-19
 -1       569-1.66196E-04 7.12034E-05 2.37700E-37 9.08425E-06-2.17938E-19 1.13972E-19
 -1       570-1.59620E-04 6.82901E-05 3.04376E-36 1.87477E-05-2.73209E-19-3.35982E-19
 -1       571-1.52146E-04 6.49297E-05 6.88386E-36 2.90423E-05 6.83284E-19-9.85104E-20
 -1       572-1.43583E-04 6.09658E-05 5.90823E-36 3.99590E-05-1.34374E-18-9.51352E-20
 -1       573-1.33624E-04 5.62002E-05 3.38219E-36 5.14338E-05-5.79154E-19 1.22538E-20
 -1       574-1.21884E-04 5.03780E-05 4.13097E-36 6.33418E-05-5.23668E-20-6.52614E-20
 -1       575-1.07903E-04 4.31995E-05 1.06928E-35 7.54473E-05 5.14994E-19 1.72238E-19
 -1       576-9.11691E-05 3.43393E-05 5.73374E-38 8.73613E-05 1.45634E-18-1.03953E-19
 -1       577-7.11590E-05 2.34814E-05 6.21876E-36 9.85015E-05-1.60655E-18-8.89143E-20
 -1       578-4.73987E-05 1.03667E-05 8.73244E-36 1.08060E-04 1.46489E-18-1.09249E-19
 -1       579-1.95318E-05-5.15600E-06 7.96406E-37 1.14984E-04 8.41605E-19 1.22868E-19
 -1       580 1.26186E-05-2.30849E-05 1.44691E-36 1.17960E-04 1.23266E-19 5.44536E-19
 -1       581 4.89968E-05-4.32299E-05 6.19487E-36 1.15376E-04-4.69069E-19-3.35561E-19
 -1       582 8.92471E-05-6.51629E-05 1.37798E-36 1.05217E-04 8.54550E-19-1.52291E-19
 -1       583 1.32554E-04-8.80892E-05 3.29986E-36 8.48380E-05-8.47614E-19-1.20133E-20
 -1       584 1.77289E-04-1.10554E-04 1.10579E-35 5.03086E-05-4.89633E-19 2.60463E-20
 -1       585-1.90340E-04 8.16032E-05 5.80151E-36 9.30523E-06 2.35562E-19-2.56936E-19
 -1       586-1.83316E-04 7.85186E-05-3.49177E-38 1.91921E-05-1.62996E-18 4.59304E-19
 -1       587-1.75359E-04 7.49799E-05 2.36139E-36 2.99593E-05 7.80466E-21 8.73635E-20
 -1       588-1.66188E-04 7.07700E-05 1.24056E-35 4.16353E-05-2.37532E-19-5.50820E-21
 -1       589-1.55376E-04 6.56097E-05 2.07350E-36 5.41676E-05-1.40481E-21 1.38269E-19
 -1       590-1.42389E-04 5.91513E-05 2.60020E-36 6.74029E-05 4.54165E-19-1.64705E-20
 -1       591-1.26618E-04 5.10062E-05 1.48628E-36 8.10224E-05-1.22861E-19 1.11740E-19
 -1       592-1.07422E-04 4.07896E-05 1.86343E-36 9.44960E-05-1.54236E-19-8.04708E-20
 -1       593-8.42131E-05 2.81813E-05-1.22671E-36 1.07056E-04-8.89184E-19-9.41167E-20
 -1       594-5.65352E-05 1.29892E-05 5.44196E-36 1.17698E-04 2.86930E-19-7.59004E-20
 -1       595-2.41255E-05-4.80840E-06 1.12180E-36 1.25213E-04 2.74753E-19 1.30737E-19
 -1       596 1.30712E-05-2.50612E-05 1.75806E-36 1.28210E-04-1.11582E-19 3.68147E-19
 -1       597 5.49337E-05-4.74832E-05 1.34926E-36 1.25087E-04-3.17437E-20-2.58853E-19
 -1       598 1.01196E-04-7.16872E-05 4.24923E-36 1.13874E-04 5.51301E-19-1.49313E-19
 -1       599 1.51371E-04-9.71247E-05 3.52043E-36 9.18724E-05-1.96774E-18-1.03710E-19
 -1       600 2.04449E-04-1.22822E-04 3.12037E-36 5.47094E-05-1.78196E-19-2.28329E-19
 -1       601-2.12432E-04 9.11018E-05 3.88658E-36 9.37396E-06 4.33914E-19-1.33428E-19
 -1       602-2.05598E-04 8.80951E-05 6.40420E-36 1.94234E-05 9.70873E-19-2.23680E-19
 -1       603-1.97772E-04 8.45870E-05-1.64710E-37 3.07304E-05-2.04795E-19-1.33010E-19
 -1       604-1.88515E-04 8.02514E-05 7.64523E-36 4.33602E-05 1.34494E-18-5.10698E-20
 -1       605-1.77199E-04 7.46772E-05-1.62084E-36 5.72436E-05 2.63739E-19-3.58043E-19
 -1       606-1.63079E-04 6.73841E-05 4.46723E-36 7.21343E-05 9.34279E-19-2.15412E-19
 -1       607-1.45358E-04 5.78870E-05 7.25453E-36 8.75334E-05 1.62402E-18-2.49340E-20
 -1       608-1.23306E-04 4.57838E-05 1.71728E-36 1.02659E-04 1.08910E-18-1.15195E-19
 -1       609-9.63732E-05 3.08503E-05 3.49656E-36 1.16467E-04-1.02413E-19-1.73769E-19
 -1       610-6.42866E-05 1.31016E-05 9.50377E-37 1.27733E-04-8.57270E-19-1.42266E-19
 -1       611-2.70479E-05-7.21295E-06-1.38266E-36 1.35151E-04 4.70904E-20 5.45301E-20
 -1       612 1.51551E-05-2.96985E-05 7.29881E-36 1.37401E-04 1.51445E-18 4.77945E-19
 -1       613 6.21043E-05-5.39574E-05 1.26110E-36 1.33080E-04 4.05769E-19-2.35200E-19
 -1       614 1.13694E-04-7.97176E-05 1.26318E-36 1.20461E-04-4.73290E-19-4.66188E-20
 -1       615 1.69943E-04-1.06843E-04 5.32244E-36 9.69575E-05 1.65106E-18 2.12533E-19
 -1       616 2.30767E-04-1.35128E-04-3.53998E-37 5.78780E-05-6.76271E-20 2.73472E-20
 -1       617-2.32500E-04 9.97048E-05 3.60076E-36 9.37757E-06-1.03401E-18-4.47320E-20
 -1       618-2.26692E-04 9.70879E-05-2.32497E-36 1.96707E-05 7.48156E-20 1.82399E-19
 -1       619-2.19753E-04 9.38317E-05 1.24653E-35 3.17920E-05-1.74337E-18 1.75023E-19
 -1       620-2.10964E-04 8.94224E-05 2.55868E-36 4.58216E-05-6.14559E-19 8.80035E-20
 -1       621-1.99378E-04 8.32428E-05 2.22764E-36 6.15973E-05-1.44202E-19-5.89048E-20
 -1       622-1.83959E-04 7.46439E-05 5.14284E-36 7.86460E-05 2.07030E-19 1.02823E-19
 -1       623-1.63743E-04 6.30785E-05 2.08710E-36 9.61188E-05-4.13179E-19 9.51388E-20
 -1       624-1.38036E-04 4.82507E-05 1.46571E-36 1.12827E-04-1.05730E-18-7.88656E-20
 -1       625-1.06561E-04 3.02245E-05 4.06122E-36 1.27382E-04-1.58285E-18-1.87915E-20
 -1       626-6.94790E-05 9.42827E-06 4.08198E-36 1.38391E-04 4.91390E-19-4.06038E-20
 -1       627-2.72459E-05-1.34720E-05 4.07513E-36 1.44632E-04-7.56757E-19 8.82265E-20
 -1       628 1.96413E-05-3.77997E-05-1.33802E-36 1.45086E-04 9.04692E-20 3.74679E-19
 -1       629 7.09250E-05-6.31188E-05 4.26280E-36 1.38782E-04-6.11922E-19-1.66444E-19
 -1       630 1.26804E-04-8.94226E-05 2.12017E-36 1.24407E-04-9.09833E-19-2.33955E-19
 -1       631 1.87999E-04-1.17179E-04 3.55237E-36 9.96100E-05-5.53512E-19-3.70754E-20
 -1       632 2.55630E-04-1.47215E-04 1.41715E-36 5.94963E-05-7.79088E-19-9.79466E-20
 -1       633-2.50850E-04 1.07530E-04 6.38974E-36 9.44055E-06 9.17754E-19-1.93022E-19
 -1       634-2.47166E-04 1.05688E-04 4.26857E-36 2.02683E-05 3.64751E-19-5.51479E-21
 -1       635-2.42018E-04 1.02888E-04 7.95135E-37 3.37864E-05-5.99269E-19-2.03772E-19
 -1       636-2.34194E-04 9.82982E-05 1.14926E-36 5.00154E-05 7.13238E-19-1.52662E-19
 -1       637-2.22268E-04 9.10042E-05 6.49322E-37 6.85245E-05 7.56724E-19 1.09697E-19
 -1       638-2.04872E-04 8.01923E-05 2.36178E-36 8.83587E-05-2.64869E-19-1.40515E-19
 -1       639-1.81022E-04 6.53970E-05-1.50002E-37 1.08059E-04 8.55848E-19 6.06414E-20
 -1       640-1.50385E-04 4.66972E-05 7.74241E-36 1.25878E-04-1.71585E-18-7.07537E-20
 -1       641-1.13345E-04 2.47536E-05 1.80090E-36 1.40121E-04 2.33482E-18-9.44845E-20
 -1       642-7.07931E-05 6.35261E-07 5.46372E-36 1.49461E-04-9.24740E-20-1.05874E-19
 -1       643-2.37437E-05-2.45131E-05 6.26602E-36 1.53081E-04 3.33910E-19 3.08260E-20
 -1       644 2.70768E-05-4.98383E-05 3.34344E-37 1.50565E-04-3.83372E-19 3.22564E-19
 -1       645 8.15589E-05-7.50692E-05 5.98808E-36 1.41560E-04 1.74485E-18-2.35190E-19
 -1       646 1.40410E-04-1.00677E-04-1.56392E-36 1.25239E-04 4.04119E-20-3.34849E-20
 -1       647 2.05225E-04-1.27905E-04 8.11473E-36 9.95141E-05 3.04232E-19 1.58904E-19
 -1       648 2.78504E-04-1.58784E-04 2.34272E-36 5.93782E-05 1.04425E-19-2.82425E-19
 -1       649-2.68082E-04 1.14809E-04-1.30073E-36 9.74719E-06-7.11664E-19 4.76625E-20
 -1       650-2.67989E-04 1.14211E-04 2.19113E-36 2.17274E-05 7.48518E-19 2.90565E-20
 -1       651-2.65664E-04 1.11981E-04 4.66009E-36 3.76971E-05 1.30500E-18-9.42975E-20
 -1       652-2.59058E-04 1.06773E-04-2.24935E-36 5.74141E-05 2.11752E-19-9.31943E-20
 -1       653-2.46086E-04 9.72929E-05 9.14422E-36 7.98039E-05 1.07695E-18-8.09338E-20
 -1       654-2.25174E-04 8.27070E-05 1.45517E-36 1.02988E-04-1.34876E-18-9.31907E-20
 -1       655-1.95778E-04 6.30063E-05-3.71190E-37 1.24582E-04 8.63967E-20-3.16188E-20
 -1       656-1.58547E-04 3.91261E-05 1.02946E-36 1.42269E-04 2.84554E-19-1.07373E-19
 -1       657-1.15015E-04 1.27026E-05 9.04486E-36 1.54366E-04-1.40807E-18-1.03221E-19
 -1       658-6.69808E-05-1.44398E-05 2.95489E-36 1.60098E-04-4.34274E-19-9.37221E-20
 -1       659-1.58896E-05-4.08360E-05 3.50504E-36 1.59490E-04-7.21923E-19 4.87019E-20
 -1       660 3.75975E-05-6.57710E-05 5.06587E-36 1.52972E-04 2.29594E-18 3.45220E-19
 -1       661 9.38179E-05-8.94544E-05-4.76270E-37 1.40845E-04-1.26854E-18-2.13924E-19
 -1       662 1.54190E-04-1.13047E-04-2.03940E-37 1.22689E-04-1.15125E-19-2.22000E-20
 -1       663 2.21271E-04-1.38653E-04 5.85218E-36 9.65956E-05 1.48665E-18 2.60050E-19
 -1       664 2.98976E-04-1.69534E-04-1.29092E-37 5.75105E-05-2.60188E-19 7.47979E-20
 -1       665-2.85173E-04 1.21897E-04 1.62772E-36 1.05945E-05 8.59183E-19-2.97966E-19
 -1       666-2.90670E-04 1.23099E-04 1.17970E-36 2.48904E-05-1.43316E-18 2.42004E-20
 -1       667-2.92222E-04 1.21297E-04 1.59977E-36 4.51117E-05-5.62440E-19 8.26714E-20
 -1       668-2.86417E-04 1.14356E-04 9.23802E-36 7.02438E-05 5.05332E-19-2.05806E-19
 -1       669-2.70470E-04 1.00665E-04 1.97127E-36 9.78175E-05 1.48465E-19-4.08183E-21
 -1       670-2.43228E-04 7.98676E-05 1.75843E-36 1.24377E-04 6.34079E-19-7.87195E-20
 -1       671-2.05619E-04 5.31896E-05 2.99789E-36 1.46446E-04 3.41693E-19 6.47236E-20
 -1       672-1.60154E-04 2.30960E-05 5.29283E-36 1.61572E-04-3.54268E-19-6.13644E-20
 -1       673-1.09851E-04-7.56149E-06-2.18908E-36 1.68853E-04 1.10109E-18-4.77234E-20
 -1       674-5.72056E-05-3.64395E-05 1.84238E-36 1.68765E-04-1.11440E-18-3.90543E-20
 -1       675-3.60846E-06-6.22570E-05 4.34587E-36 1.62538E-04 1.91845E-18 4.79597E-20
 -1       676 5.08182E-05-8.49355E-05 3.61599E-36 1.51459E-04-7.39895E-19 2.50123E-19
 -1       677 1.07163E-04-1.05486E-04 1.99002E-36 1.36286E-04-1.97168E-19-1.18443E-19
 -1       678 1.67664E-04-1.25866E-04 5.29842E-36 1.16771E-04-5.20007E-19-1.23262E-20
 -1       679 2.35801E-04-1.48981E-04-1.72855E-36 9.10380E-05-3.72460E-19-1.30435E-19
 -1       680 3.16785E-04-1.79201E-04 4.93137E-36 5.40482E-05-5.78062E-19-6.16082E-20
 -1       681-3.03685E-04 1.29324E-04 2.81615E-36 1.25133E-05-1.00511E-18 9.96331E-20
 -1       682-3.17529E-04 1.32907E-04 1.79329E-36 3.12620E-05 1.14754E-18 3.47260E-20
 -1       683-3.23653E-04 1.30738E-04 2.05354E-36 5.87200E-05-2.67450E-19 8.38148E-20
 -1       684-3.16627E-04 1.19623E-04-5.00055E-37 9.18823E-05 5.92367E-19 4.06593E-20
 -1       685-2.93648E-04 9.81918E-05 5.14665E-37 1.25522E-04 3.50575E-19 2.26920E-20
 -1       686-2.55753E-04 6.78360E-05 6.99393E-36 1.53973E-04 5.18417E-19 9.56233E-21
 -1       687-2.07057E-04 3.22882E-05 2.33364E-36 1.73208E-04 5.39943E-19 9.57016E-20
 -1       688-1.52639E-04-3.91136E-06 1.99367E-36 1.81931E-04-8.00622E-19 2.03881E-20
 -1       689-9.66444E-05-3.70418E-05 3.38080E-36 1.81228E-04-7.42145E-19-1.72402E-20
 -1       690-4.14315E-05-6.50812E-05 2.27111E-36 1.73413E-04 1.17176E-18-1.77518E-20
 -1       691 1.24407E-05-8.77477E-05 3.19818E-36 1.60891E-04-5.50204E-19 3.60022E-20
 -1       692 6.58564E-05-1.06095E-04 5.33554E-37 1.45444E-04-9.25904E-20 1.46123E-19
 -1       693 1.20809E-04-1.22084E-04 7.33658E-36 1.27874E-04 1.73105E-18-1.37000E-19
 -1       694 1.80294E-04-1.38373E-04-1.36750E-36 1.07797E-04 1.07716E-19-4.01305E-20
 -1       695 2.48539E-04-1.58466E-04 4.79198E-36 8.32421E-05 7.05574E-22-3.99851E-20
 -1       696 3.31829E-04-1.87597E-04-5.32654E-37 4.92727E-05 4.95451E-20-5.81519E-22
 -1       697-3.26259E-04 1.37879E-04 9.15580E-36 1.65565E-05-1.71813E-18 2.34173E-20
 -1       698-3.52177E-04 1.44209E-04 9.08677E-37 4.37357E-05-2.25232E-19 1.46331E-19
 -1       699-3.62019E-04 1.39283E-04 3.45603E-36 8.32241E-05 2.77150E-19 8.50137E-20
 -1       700-3.48261E-04 1.19051E-04 1.25329E-36 1.27253E-04-9.71701E-19 1.64060E-19
 -1       701-3.11064E-04 8.43469E-05 1.99545E-37 1.65865E-04 2.24117E-19 1.10909E-19
 -1       702-2.57309E-04 4.08487E-05-8.96351E-37 1.91611E-04-5.20002E-19 8.72695E-20
 -1       703-1.95968E-04-3.86404E-06 3.98335E-36 2.02184E-04-1.32474E-18 1.14241E-19
 -1       704-1.34073E-04-4.36499E-05 2.71210E-36 1.99706E-04-8.27425E-19-1.18673E-20
 -1       705-7.53530E-05-7.54101E-05 4.96673E-36 1.88287E-04-5.95513E-19-1.40007E-20
 -1       706-2.06914E-05-9.88550E-05 7.33171E-37 1.71946E-04-4.33113E-20-5.55047E-21
 -1       707 3.09018E-05-1.15482E-04 1.97555E-36 1.53595E-04-4.68265E-19 8.71552E-21
 -1       708 8.15038E-05-1.27653E-04 4.04919E-36 1.34816E-04 3.32850E-19 1.21361E-19
 -1       709 1.33895E-04-1.38095E-04 2.76743E-36 1.15979E-04-1.92589E-18-1.67501E-19
 -1       710 1.91596E-04-1.49870E-04 4.35493E-36 9.63263E-05-1.22181E-18-1.34428E-19
 -1       711 2.59321E-04-1.66778E-04 2.14230E-36 7.37455E-05 1.35155E-19-1.58812E-20
 -1       712 3.44157E-04-1.94630E-04 6.94947E-36 4.35331E-05-1.46285E-19-7.59353E-20
 -1       713-3.57806E-04 1.48759E-04-2.63022E-36 2.50459E-05 6.73575E-19-1.74018E-20
 -1       714-4.00204E-04 1.57123E-04 2.57776E-36 6.82612E-05-1.04387E-18-7.67233E-20
 -1       715-4.07886E-04 1.43296E-04 1.11415E-36 1.26838E-04 6.55562E-19-2.08496E-20
 -1       716-3.75220E-04 1.04727E-04 2.55479E-36 1.82567E-04-8.72290E-20-6.47259E-20
 -1       717-3.13750E-04 4.96407E-05 6.20441E-37 2.19806E-04-7.65423E-20-5.26036E-20
 -1       718-2.40777E-04-8.44069E-06 5.63571E-36 2.33428E-04 5.11784E-19-7.91563E-20
 -1       719-1.69052E-04-5.85483E-05 4.49009E-37 2.27567E-04 1.57711E-19-1.59834E-21
 -1       720-1.04369E-04-9.58121E-05 2.96214E-36 2.09770E-04 6.93153E-19-4.43137E-20
 -1       721-4.75985E-05-1.20409E-04 1.54942E-36 1.86742E-04 9.49190E-20-2.95354E-20
 -1       722 2.95506E-06-1.35051E-04-6.47873E-37 1.62882E-04 6.72803E-19-2.28286E-20
 -1       723 4.99863E-05-1.43151E-04 4.90239E-36 1.40417E-04-1.46282E-19 5.24779E-22
 -1       724 9.64905E-05-1.47974E-04 2.59619E-36 1.20013E-04-4.03309E-19 1.22913E-19
 -1       725 1.45665E-04-1.52519E-04 3.31702E-36 1.01293E-04 2.72808E-20-4.90774E-20
 -1       726 2.01225E-04-1.59837E-04-2.86171E-36 8.30636E-05 5.14088E-19-1.10783E-20
 -1       727 2.68106E-04-1.73720E-04 4.34612E-36 6.31322E-05-2.47438E-19 4.70136E-20
 -1       728 3.53935E-04-2.00303E-04 1.82907E-37 3.71882E-05 2.56969E-19 9.84648E-20
 -1       729-4.08690E-04 1.63673E-04 2.69807E-37 4.37939E-05-9.76944E-20 2.68258E-21
 -1       730-4.68968E-04 1.69441E-04 2.76630E-36 1.17739E-04-2.29493E-19 1.26077E-19
 -1       731-4.54650E-04 1.32069E-04 4.23333E-36 2.02816E-04-9.21952E-19 3.61098E-20
 -1       732-3.81805E-04 6.03941E-05-1.03985E-37 2.62299E-04-7.47925E-20 4.35713E-20
 -1       733-2.88318E-04-1.98584E-05 4.72092E-36 2.81746E-04 6.32399E-19 3.14152E-20
 -1       734-2.00151E-04-8.65987E-05 2.21430E-36 2.69580E-04 5.04973E-19 2.07215E-20
 -1       735-1.26205E-04-1.31569E-04 5.38678E-37 2.40739E-04 1.70068E-20 5.33656E-20
 -1       736-6.62376E-05-1.56783E-04 1.89653E-36 2.06853E-04 3.86481E-19-6.22153E-21
 -1       737-1.66082E-05-1.67827E-04 8.77962E-37 1.74359E-04 1.35094E-19-7.76731E-21
 -1       738 2.68520E-05-1.70258E-04 1.32809E-36 1.45904E-04-4.83912E-20-2.41877E-20
 -1       739 6.78812E-05-1.68463E-04 2.18109E-37 1.21962E-04-3.51501E-19 2.70263E-21
 -1       740 1.09744E-04-1.65715E-04 3.31252E-36 1.01934E-04 8.47216E-19 7.07845E-20
 -1       741 1.55587E-04-1.64663E-04 2.32582E-36 8.46965E-05-1.25648E-18-8.33078E-20
 -1       742 2.09015E-04-1.67982E-04 5.15381E-36 6.87458E-05-2.14026E-18-8.41449E-20
 -1       743 2.74969E-04-1.79236E-04 6.54311E-36 5.19548E-05 8.13932E-19 1.21596E-20
 -1       744 3.61415E-04-2.04692E-04 4.07556E-36 3.05638E-05 9.48172E-20-4.16044E-20
 -1       745-5.02730E-04 1.84116E-04 1.31429E-36 8.93685E-05 2.17005E-19-1.72750E-20
 -1       746-5.59593E-04 1.69096E-04 2.36159E-37 2.20065E-04-8.67930E-19 9.86864E-20
 -1       747-4.73048E-04 7.70768E-05 1.37685E-36 3.26428E-04 1.09962E-18-1.26504E-20
 -1       748-3.39691E-04-4.28904E-05 3.57768E-36 3.58239E-04 2.24449E-19-1.13477E-21
 -1       749-2.23153E-04-1.38570E-04 3.93179E-36 3.33306E-04-8.12667E-19-6.87460E-21
 -1       750-1.35730E-04-1.93601E-04 3.14895E-37 2.84429E-04-9.61476E-20-7.14773E-21
 -1       751-7.24678E-05-2.16452E-04 3.39042E-36 2.32930E-04-1.87736E-19 1.11316E-20
 -1       752-2.50468E-05-2.19511E-04 1.28950E-36 1.87680E-04-5.23409E-19-6.29200E-21
 -1       753 1.35566E-05-2.12385E-04 1.03594E-36 1.50912E-04 6.09389E-19-6.91409E-21
 -1       754 4.84148E-05-2.01200E-04 1.13854E-36 1.22026E-04 3.17634E-19-1.50317E-20
 -1       755 8.31374E-05-1.89638E-04 2.67862E-36 9.95152E-05-2.57429E-19 7.98136E-21
 -1       756 1.20559E-04-1.80023E-04 5.57289E-37 8.17320E-05 1.13042E-19 5.87537E-20
 -1       757 1.63400E-04-1.74191E-04 2.60322E-36 6.71016E-05 3.82973E-19-4.94974E-20
 -1       758 2.14964E-04-1.74232E-04 3.49939E-37 5.40479E-05-4.50683E-19-4.98833E-20
 -1       759 2.80076E-04-1.83381E-04 9.33763E-37 4.06833E-05-1.30734E-18-4.97035E-20
 -1       760 3.66892E-04-2.07929E-04 1.23225E-36 2.39277E-05 5.37947E-19 1.61943E-20
 -1       761-6.90001E-04 2.00676E-04 3.19241E-36 2.15646E-04 3.99881E-19 4.21808E-20
 -1       762-6.15464E-04 1.07268E-04 2.39666E-36 4.24312E-04 6.64942E-19 4.66678E-20
 -1       763-3.92152E-04-8.91889E-05 1.39001E-36 4.84686E-04-1.25592E-18 2.12054E-20
 -1       764-2.25462E-04-2.41425E-04 3.33396E-36 4.30821E-04-2.17218E-19 1.29084E-20
 -1       765-1.21311E-04-3.05975E-04-1.63473E-37 3.42959E-04 1.36668E-19 4.07667E-21
 -1       766-5.82369E-05-3.15902E-04 5.35460E-36 2.62743E-04-8.34322E-19 3.62130E-21
 -1       767-1.74772E-05-3.00210E-04 1.45632E-36 1.99630E-04-5.94462E-19 8.06282E-21
 -1       768 1.27349E-05-2.75352E-04 1.58939E-36 1.52671E-04-4.67218E-19-2.09199E-22
 -1       769 3.91718E-05-2.49276E-04 3.19024E-37 1.18354E-04 1.05657E-18-2.86567E-21
 -1       770 6.57325E-05-2.25535E-04 3.28611E-36 9.32705E-05-1.46214E-18-3.64581E-21
 -1       771 9.48946E-05-2.05690E-04 8.43370E-37 7.47028E-05 3.94139E-19 7.34094E-21
 -1       772 1.28634E-04-1.90584E-04 7.59409E-37 6.05895E-05 7.10456E-20 5.42897E-20
 -1       773 1.69088E-04-1.81086E-04 2.19748E-36 4.93268E-05 3.03997E-19-1.33128E-20
 -1       774 2.19202E-04-1.78684E-04 2.77214E-36 3.95248E-05 7.98690E-19-2.36737E-20
 -1       775 2.83646E-04-1.86289E-04 3.09757E-36 2.96822E-05-6.60476E-19 1.58707E-20
 -1       776 3.70675E-04-2.10172E-04 3.22803E-36 1.74818E-05-5.93519E-19-2.89393E-22
 -1       777-8.75845E-04 1.34808E-04 1.61476E-36 5.65589E-04-3.71021E-19 1.49085E-20
 -1       778-4.17090E-04-1.99624E-04 4.38238E-38 6.95245E-04 1.84555E-19 3.52963E-20
 -1       779-1.68385E-04-4.76801E-04 3.50898E-37 5.74542E-04 6.09248E-19 4.77668E-21
 -1       780-5.69648E-05-5.26860E-04 2.68091E-36 4.07734E-04 1.07192E-18 4.83202E-21
 -1       781-8.95581E-06-4.87553E-04 4.46136E-36 2.83913E-04-9.92782E-19 8.94549E-22
 -1       782 1.36844E-05-4.26828E-04-1.45493E-36 1.99746E-04-5.88076E-19 4.46771E-21
 -1       783 2.81118E-05-3.67882E-04 4.09495E-36 1.43637E-04 1.43867E-18-2.76682E-22
 -1       784 4.17439E-05-3.17153E-04-1.29828E-37 1.05902E-04 1.10983E-19-2.79173E-21
 -1       785 5.78127E-05-2.75507E-04 2.88376E-36 8.00879E-05 2.65218E-19-5.84373E-21
 -1       786 7.78611E-05-2.42235E-04 2.89077E-36 6.20500E-05-6.21231E-19-1.13581E-20
 -1       787 1.02901E-04-2.16433E-04 1.09600E-36 4.91201E-05-9.85780E-19-4.76896E-21
 -1       788 1.34017E-04-1.97527E-04 2.29030E-36 3.95261E-05-2.11574E-19 1.65623E-20
 -1       789 1.72816E-04-1.85560E-04 4.25371E-36 3.20151E-05-2.49738E-19-2.42155E-20
 -1       790 2.21940E-04-1.81543E-04 7.58861E-37 2.55812E-05 8.48763E-19-1.37999E-20
 -1       791 2.85922E-04-1.88137E-04 3.89156E-36 1.92018E-05 1.49145E-19 4.77820E-21
 -1       792 3.73062E-04-2.11587E-04 6.16917E-37 1.13573E-05-6.82193E-19-8.11313E-21
 -1       793-2.95401E-04-6.80956E-04 4.86800E-37 8.18884E-04-2.17258E-19 1.24275E-20
 -1       794 5.12214E-05-1.15410E-03 2.46415E-37 7.06569E-04-3.08608E-19 6.81006E-22
 -1       795 1.03859E-04-1.00625E-03 3.85002E-37 4.10000E-04-2.57706E-19 4.58025E-21
 -1       796 9.48703E-05-7.90253E-04 6.61107E-37 2.49340E-04-8.92349E-19-8.89023E-22
 -1       797 7.60557E-05-6.22941E-04 3.20149E-36 1.58873E-04 1.45516E-18 4.64525E-21
 -1       798 6.24851E-05-4.99935E-04 2.84943E-36 1.06188E-04-1.38885E-18-2.93912E-21
 -1       799 5.69150E-05-4.09297E-04-4.18161E-37 7.39706E-05-1.71448E-19-1.39232E-21
 -1       800 5.92135E-05-3.41558E-04 1.55940E-37 5.34424E-05-4.25413E-19-9.22483E-22
 -1       801 6.86718E-05-2.90352E-04-4.40615E-38 3.98825E-05-1.73400E-19-3.33888E-21
 -1       802 8.47622E-05-2.51487E-04 2.06338E-36 3.06320E-05-5.49028E-19 6.01896E-22
 -1       803 1.07378E-04-2.22299E-04-9.40692E-38 2.41139E-05-2.17859E-19-5.51833E-21
 -1       804 1.36989E-04-2.01278E-04 3.01135E-36 1.93407E-05 1.26134E-18 1.17005E-20
 -1       805 1.74852E-04-1.87958E-04-1.25127E-38 1.56443E-05-1.92431E-19-9.44207E-21
 -1       806 2.23422E-04-1.83067E-04 3.11796E-36 1.25089E-05 1.23968E-19-1.06655E-20
 -1       807 2.87145E-04-1.89115E-04 1.30897E-36 9.42634E-06-1.01287E-18-9.23238E-21
 -1       808 3.74326E-04-2.12333E-04-8.03338E-37 5.66120E-06-8.84231E-20 1.42399E-20
 -3
    1PSTEP                         9           2           1          
  100CL  102 1.000000000         807                     0    2           1
 -4  CONTACT     6    1
 -5  COPEN       1    4    1    1
 -5  CSLIP1      1    4    2    2
 -5  CSLIP2      1    4    3    3
 -5  CPRESS      1    4    1    2
 -5  CSHEAR1     1    4    2    3
 -5  CSHEAR2     1    4    3    1
 -1         1-1.46633E-04 0.00000E+00 0.00000E+00 1.46633E+03 0.00000E+00 0.00000E+00
 -1         2 0.00000E+00 0.00000E+00 0.00000E+00 0.00000E+00 0.00000E+00 0.00000E+00
 -1         3-1.74267E-04 0.00000E+00 0.00000E+00 1.74267E+03 0.00000E+00 0.00000E+00
 -1         4 0.00000E+00 0.00000E+00 0.00000E+00 0.00000E+00 0.00000E+00 0.00000E+00
 -1         5 0.00000E+00 0.00000E+00 0.00000E+00 0.00000E+00 0.00000E+00 0.00000E+00
 -1         6 0.00000E+00 0.00000E+00 0.00000E+00 0.00000E+00 0.00000E+00 0.00000E+00
 -1         7 0.00000E+00 0.00000E+00 0.00000E+00 0.00000E+00 0.00000E+00 0.00000E+00
 -1         8 0.00000E+00 0.00000E+00 0.00000E+00 0.00000E+00 0.00000E+00 0.00000E+00
 -1         9 0.00000E+00 0.00000E+00 0.00000E+00 0.00000E+00 0.00000E+00 0.00000E+00
 -1        10 0.00000E+00 0.00000E+00 0.00000E+00 0.00000E+00 0.00000E+00 0.00000E+00
 -1        11 0.00000E+00 0.00000E+00 0.00000E+00 0.00000E+00 0.00000E+00 0.00000E+00
 -1        12 0.00000E+00 0.00000E+00 0.00000E+00 0.00000E+00 0.00000E+00 0.00000E+00
 -1        13 0.00000E+00 0.00000E+00 0.00000E+00 0.00000E+00 0.00000E+00 0.00000E+00
 -1        14 0.00000E+00 0.00000E+00 0.00000E+00 0.00000E+00 0.00000E+00 0.00000E+00
 -1        15 0.00000E+00 0.00000E+00 0.00000E+00 0.00000E+00 0.00000E+00 0.00000E+00
 -1        16 0.00000E+00 0.00000E+00 0.00000E+00 0.00000E+00 0.00000E+00 0.00000E+00
 -1        17 0.00000E+00 0.00000E+00 0.00000E+00 0.00000E+00 0.00000E+00 0.00000E+00
 -1        18 0.00000E+00 0.00000E+00 0.00000E+00 0.00000E+00 0.00000E+00 0.00000E+00
 -1        19 0.00000E+00 0.00000E+00 0.00000E+00 0.00000E+00 0.00000E+00 0.00000E+00
 -1        20 0.00000E+00 0.00000E+00 0.00000E+00 0.00000E+00 0.00000E+00 0.00000E+00
 -1        21 0.00000E+00 0.00000E+00 0.00000E+00 0.00000E+00 0.00000E+00 0.00000E+00
 -1        22 0.00000E+00 0.00000E+00 0.00000E+00 0.00000E+00 0.00000E+00 0.00000E+00
 -1        23 0.00000E+00 0.00000E+00 0.00000E+00 0.00000E+00 0.00000E+00 0.00000E+00
 -1        24 0.00000E+00 0.00000E+00 0.00000E+00 0.00000E+00 0.00000E+00 0.00000E+00
 -1        25 0.00000E+00 0.00000E+00 0.00000E+00 0.00000E+00 0.00000E+00 0.00000E+00
 -1        26 0.00000E+00 0.00000E+00 0.00000E+00 0.00000E+00 0.00000E+00 0.00000E+00
 -1        27 0.00000E+00 0.00000E+00 0.00000E+00 0.00000E+00 0.00000E+00 0.00000E+00
 -1        28 0.00000E+00 0.00000E+00 0.00000E+00 0.00000E+00 0.00000E+00 0.00000E+00
 -1        29 0.00000E+00 0.00000E+00 0.00000E+00 0.00000E+00 0.00000E+00 0.00000E+00
 -1        30 0.00000E+00 0.00000E+00 0.00000E+00 0.00000E+00 0.00000E+00 0.00000E+00
 -1        31 0.00000E+00 0.00000E+00 0.00000E+00 0.00000E+00 0.00000E+00 0.00000E+00
 -1        32 0.00000E+00 0.00000E+00 0.00000E+00 0.00000E+00 0.00000E+00 0.00000E+00
 -1        33 0.00000E+00 0.00000E+00 0.00000E+00 0.00000E+00 0.00000E+00 0.00000E+00
 -1        34 0.00000E+00 0.00000E+00 0.00000E+00 0.00000E+00 0.00000E+00 0.00000E+00
 -1        35 0.00000E+00 0.00000E+00 0.00000E+00 0.00000E+00 0.00000E+00 0.00000E+00
 -1        36 0.00000E+00 0.00000E+00 0.00000E+00 0.00000E+00 0.00000E+00 0.00000E+00
 -1        37 0.00000E+00 0.00000E+00 0.00000E+00 0.00000E+00 0.00000E+00 0.00000E+00
 -1        38 0.00000E+00 0.00000E+00 0.00000E+00 0.00000E+00 0.00000E+00 0.00000E+00
 -1        39 0.00000E+00 0.00000E+00 0.00000E+00 0.00000E+00 0.00000E+00 0.00000E+00
 -1        40 0.00000E+00 0.00000E+00 0.00000E+00 0.00000E+00 0.00000E+00 0.00000E+00
 -1        41 0.00000E+00 0.00000E+00 0.00000E+00 0.00000E+00 0.00000E+00 0.00000E+00
 -1        42 0.00000E+00 0.00000E+00 0.00000E+00 0.00000E+00 0.00000E+00 0.00000E+00
 -1        43 0.00000E+00 0.00000E+00 0.00000E+00 0.00000E+00 0.00000E+00 0.00000E+00
 -1        44 0.00000E+00 0.00000E+00 0.00000E+00 0.00000E+00 0.00000E+00 0.00000E+00
 -1        45 0.00000E+00 0.00000E+00 0.00000E+00 0.00000E+00 0.00000E+00 0.00000E+00
 -1        46 0.00000E+00 0.00000E+00 0.00000E+00 0.00000E+00 0.00000E+00 0.00000E+00
 -1        47 0.00000E+00 0.00000E+00 0.00000E+00 0.00000E+00 0.00000E+00 0.00000E+00
 -1        48 0.00000E+00 0.00000E+00 0.00000E+00 0.00000E+00 0.00000E+00 0.00000E+00
 -1        49 0.00000E+00 0.00000E+00 0.00000E+00 0.00000E+00 0.00000E+00 0.00000E+00
 -1        50 0.00000E+00 0.00000E+00 0.00000E+00 0.00000E+00 0.00000E+00 0.00000E+00
 -1        51 0.00000E+00 0.00000E+00 0.00000E+00 0.00000E+00 0.00000E+00 0.00000E+00
 -1        52 0.00000E+00 0.00000E+00 0.00000E+00 0.00000E+00 0.00000E+00 0.00000E+00
 -1        53 0.00000E+00 0.00000E+00 0.00000E+00 0.00000E+00 0.00000E+00 0.00000E+00
 -1        54 0.00000E+00 0.00000E+00 0.00000E+00 0.00000E+00 0.00000E+00 0.00000E+00
 -1        55 0.00000E+00 0.00000E+00 0.00000E+00 0.00000E+00 0.00000E+00 0.00000E+00
 -1        56 0.00000E+00 0.00000E+00 0.00000E+00 0.00000E+00 0.00000E+00 0.00000E+00
 -1        57 0.00000E+00 0.00000E+00 0.00000E+00 0.00000E+00 0.00000E+00 0.00000E+00
 -1        58 0.00000E+00 0.00000E+00 0.00000E+00 0.00000E+00 0.00000E+00 0.00000E+00
 -1        59 0.00000E+00 0.00000E+00 0.00000E+00 0.00000E+00 0.00000E+00 0.00000E+00
 -1        60 0.00000E+00 0.00000E+00 0.00000E+00 0.00000E+00 0.00000E+00 0.00000E+00
 -1        61 0.00000E+00 0.00000E+00 0.00000E+00 0.00000E+00 0.00000E+00 0.00000E+00
 -1        62 0.00000E+00 0.00000E+00 0.00000E+00 0.00000E+00 0.00000E+00 0.00000E+00
 -1        63 0.00000E+00 0.00000E+00 0.00000E+00 0.00000E+00 0.00000E+00 0.00000E+00
 -1        64 0.00000E+00 0.00000E+00 0.00000E+00 0.00000E+00 0.00000E+00 0.00000E+00
 -1        65 0.00000E+00 0.00000E+00 0.00000E+00 0.00000E+00 0.00000E+00 0.00000E+00
 -1        66 0.00000E+00 0.00000E+00 0.00000E+00 0.00000E+00 0.00000E+00 0.00000E+00
 -1        67 0.00000E+00 0.00000E+00 0.00000E+00 0.00000E+00 0.00000E+00 0.00000E+00
 -1        68 0.00000E+00 0.00000E+00 0.00000E+00 0.00000E+00 0.00000E+00 0.00000E+00
 -1        69 0.00000E+00 0.00000E+00 0.00000E+00 0.00000E+00 0.00000E+00 0.00000E+00
 -1        70 0.00000E+00 0.00000E+00 0.00000E+00 0.00000E+00 0.00000E+00 0.00000E+00
 -1        71 0.00000E+00 0.00000E+00 0.00000E+00 0.00000E+00 0.00000E+00 0.00000E+00
 -1        72 0.00000E+00 0.00000E+00 0.00000E+00 0.00000E+00 0.00000E+00 0.00000E+00
 -1        73 0.00000E+00 0.00000E+00 0.00000E+00 0.00000E+00 0.00000E+00 0.00000E+00
 -1        74 0.00000E+00 0.00000E+00 0.00000E+00 0.00000E+00 0.00000E+00 0.00000E+00
 -1        75 0.00000E+00 0.00000E+00 0.00000E+00 0.00000E+00 0.00000E+00 0.00000E+00
 -1        76 0.00000E+00 0.00000E+00 0.00000E+00 0.00000E+00 0.00000E+00 0.00000E+00
 -1        77 0.00000E+00 0.00000E+00 0.00000E+00 0.00000E+00 0.00000E+00 0.00000E+00
 -1        78 0.00000E+00 0.00000E+00 0.00000E+00 0.00000E+00 0.00000E+00 0.00000E+00
 -1        79 0.00000E+00 0.00000E+00 0.00000E+00 0.00000E+00 0.00000E+00 0.00000E+00
 -1        80 0.00000E+00 0.00000E+00 0.00000E+00 0.00000E+00 0.00000E+00 0.00000E+00
 -1        81 0.00000E+00 0.00000E+00 0.00000E+00 0.00000E+00 0.00000E+00 0.00000E+00
 -1        82 0.00000E+00 0.00000E+00 0.00000E+00 0.00000E+00 0.00000E+00 0.00000E+00
 -1        83 0.00000E+00 0.00000E+00 0.00000E+00 0.00000E+00 0.00000E+00 0.00000E+00
 -1        84 0.00000E+00 0.00000E+00 0.00000E+00 0.00000E+00 0.00000E+00 0.00000E+00
 -1        85 0.00000E+00 0.00000E+00 0.00000E+00 0.00000E+00 0.00000E+00 0.00000E+00
 -1        86 0.00000E+00 0.00000E+00 0.00000E+00 0.00000E+00 0.00000E+00 0.00000E+00
 -1        87 0.00000E+00 0.00000E+00 0.00000E+00 0.00000E+00 0.00000E+00 0.00000E+00
 -1        88 0.00000E+00 0.00000E+00 0.00000E+00 0.00000E+00 0.00000E+00 0.00000E+00
 -1        89 0.00000E+00 0.00000E+00 0.00000E+00 0.00000E+00 0.00000E+00 0.00000E+00
 -1        90 0.00000E+00 0.00000E+00 0.00000E+00 0.00000E+00 0.00000E+00 0.00000E+00
 -1        91 0.00000E+00 0.00000E+00 0.00000E+00 0.00000E+00 0.00000E+00 0.00000E+00
 -1        92 0.00000E+00 0.00000E+00 0.00000E+00 0.00000E+00 0.00000E+00 0.00000E+00
 -1        93 0.00000E+00 0.00000E+00 0.00000E+00 0.00000E+00 0.00000E+00 0.00000E+00
 -1        94 0.00000E+00 0.00000E+00 0.00000E+00 0.00000E+00 0.00000E+00 0.00000E+00
 -1        95 0.00000E+00 0.00000E+00 0.00000E+00 0.00000E+00 0.00000E+00 0.00000E+00
 -1        96 0.00000E+00 0.00000E+00 0.00000E+00 0.00000E+00 0.00000E+00 0.00000E+00
 -1        97 0.00000E+00 0.00000E+00 0.00000E+00 0.00000E+00 0.00000E+00 0.00000E+00
 -1        98 0.00000E+00 0.00000E+00 0.00000E+00 0.00000E+00 0.00000E+00 0.00000E+00
 -1        99 0.00000E+00 0.00000E+00 0.00000E+00 0.00000E+00 0.00000E+00 0.00000E+00
 -1       100 0.00000E+00 0.00000E+00 0.00000E+00 0.00000E+00 0.00000E+00 0.00000E+00
 -1       101 0.00000E+00 0.00000E+00 0.00000E+00 0.00000E+00 0.00000E+00 0.00000E+00
 -1       102 0.00000E+00 0.00000E+00 0.00000E+00 0.00000E+00 0.00000E+00 0.00000E+00
 -1       103 0.00000E+00 0.00000E+00 0.00000E+00 0.00000E+00 0.00000E+00 0.00000E+00
 -1       104 0.00000E+00 0.00000E+00 0.00000E+00 0.00000E+00 0.00000E+00 0.00000E+00
 -1       105 0.00000E+00 0.00000E+00 0.00000E+00 0.00000E+00 0.00000E+00 0.00000E+00
 -1       106 0.00000E+00 0.00000E+00 0.00000E+00 0.00000E+00 0.00000E+00 0.00000E+00
 -1       107 0.00000E+00 0.00000E+00 0.00000E+00 0.00000E+00 0.00000E+00 0.00000E+00
 -1       108 0.00000E+00 0.00000E+00 0.00000E+00 0.00000E+00 0.00000E+00 0.00000E+00
 -1       109 0.00000E+00 0.00000E+00 0.00000E+00 0.00000E+00 0.00000E+00 0.00000E+00
 -1       110 0.00000E+00 0.00000E+00 0.00000E+00 0.00000E+00 0.00000E+00 0.00000E+00
 -1       111 0.00000E+00 0.00000E+00 0.00000E+00 0.00000E+00 0.00000E+00 0.00000E+00
 -1       112 0.00000E+00 0.00000E+00 0.00000E+00 0.00000E+00 0.00000E+00 0.00000E+00
 -1       113 0.00000E+00 0.00000E+00 0.00000E+00 0.00000E+00 0.00000E+00 0.00000E+00
 -1       114 0.00000E+00 0.00000E+00 0.00000E+00 0.00000E+00 0.00000E+00 0.00000E+00
 -1       115 0.00000E+00 0.00000E+00 0.00000E+00 0.00000E+00 0.00000E+00 0.00000E+00
 -1       116 0.00000E+00 0.00000E+00 0.00000E+00 0.00000E+00 0.00000E+00 0.00000E+00
 -1       117 0.00000E+00 0.00000E+00 0.00000E+00 0.00000E+00 0.00000E+00 0.00000E+00
 -1       118 0.00000E+00 0.00000E+00 0.00000E+00 0.00000E+00 0.00000E+00 0.00000E+00
 -1       119 0.00000E+00 0.00000E+00 0.00000E+00 0.00000E+00 0.00000E+00 0.00000E+00
 -1       120 0.00000E+00 0.00000E+00 0.00000E+00 0.00000E+00 0.00000E+00 0.00000E+00
 -1       121 0.00000E+00 0.00000E+00 0.00000E+00 0.00000E+00 0.00000E+00 0.00000E+00
 -1       122 0.00000E+00 0.00000E+00 0.00000E+00 0.00000E+00 0.00000E+00 0.00000E+00
 -1       123 0.00000E+00 0.00000E+00 0.00000E+00 0.00000E+00 0.00000E+00 0.00000E+00
 -1       124 0.00000E+00 0.00000E+00 0.00000E+00 0.00000E+00 0.00000E+00 0.00000E+00
 -1       125 0.00000E+00 0.00000E+00 0.00000E+00 0.00000E+00 0.00000E+00 0.00000E+00
 -1       126 0.00000E+00 0.00000E+00 0.00000E+00 0.00000E+00 0.00000E+00 0.00000E+00
 -1       127 0.00000E+00 0.00000E+00 0.00000E+00 0.00000E+00 0.00000E+00 0.00000E+00
 -1       128 0.00000E+00 0.00000E+00 0.00000E+00 0.00000E+00 0.00000E+00 0.00000E+00
 -1       129 0.00000E+00 0.00000E+00 0.00000E+00 0.00000E+00 0.00000E+00 0.00000E+00
 -1       130 0.00000E+00 0.00000E+00 0.00000E+00 0.00000E+00 0.00000E+00 0.00000E+00
 -1       131 0.00000E+00 0.00000E+00 0.00000E+00 0.00000E+00 0.00000E+00 0.00000E+00
 -1       132 0.00000E+00 0.00000E+00 0.00000E+00 0.00000E+00 0.00000E+00 0.00000E+00
 -1       133 0.00000E+00 0.00000E+00 0.00000E+00 0.00000E+00 0.00000E+00 0.00000E+00
 -1       134 0.00000E+00 0.00000E+00 0.00000E+00 0.00000E+00 0.00000E+00 0.00000E+00
 -1       135 0.00000E+00 0.00000E+00 0.00000E+00 0.00000E+00 0.00000E+00 0.00000E+00
 -1       136 0.00000E+00 0.00000E+00 0.00000E+00 0.00000E+00 0.00000E+00 0.00000E+00
 -1       137 0.00000E+00 0.00000E+00 0.00000E+00 0.00000E+00 0.00000E+00 0.00000E+00
 -1       138 0.00000E+00 0.00000E+00 0.00000E+00 0.00000E+00 0.00000E+00 0.00000E+00
 -1       139 0.00000E+00 0.00000E+00 0.00000E+00 0.00000E+00 0.00000E+00 0.00000E+00
 -1       140 0.00000E+00 0.00000E+00 0.00000E+00 0.00000E+00 0.00000E+00 0.00000E+00
 -1       141 0.00000E+00 0.00000E+00 0.00000E+00 0.00000E+00 0.00000E+00 0.00000E+00
 -1       142 0.00000E+00 0.00000E+00 0.00000E+00 0.00000E+00 0.00000E+00 0.00000E+00
 -1       143 0.00000E+00 0.00000E+00 0.00000E+00 0.00000E+00 0.00000E+00 0.00000E+00
 -1       144 0.00000E+00 0.00000E+00 0.00000E+00 0.00000E+00 0.00000E+00 0.00000E+00
 -1       145 0.00000E+00 0.00000E+00 0.00000E+00 0.00000E+00 0.00000E+00 0.00000E+00
 -1       146 0.00000E+00 0.00000E+00 0.00000E+00 0.00000E+00 0.00000E+00 0.00000E+00
 -1       147 0.00000E+00 0.00000E+00 0.00000E+00 0.00000E+00 0.00000E+00 0.00000E+00
 -1       148 0.00000E+00 0.00000E+00 0.00000E+00 0.00000E+00 0.00000E+00 0.00000E+00
 -1       149 0.00000E+00 0.00000E+00 0.00000E+00 0.00000E+00 0.00000E+00 0.00000E+00
 -1       150 0.00000E+00 0.00000E+00 0.00000E+00 0.00000E+00 0.00000E+00 0.00000E+00
 -1       151 0.00000E+00 0.00000E+00 0.00000E+00 0.00000E+00 0.00000E+00 0.00000E+00
 -1       152 0.00000E+00 0.00000E+00 0.00000E+00 0.00000E+00 0.00000E+00 0.00000E+00
 -1       153 0.00000E+00 0.00000E+00 0.00000E+00 0.00000E+00 0.00000E+00 0.00000E+00
 -1       154 0.00000E+00 0.00000E+00 0.00000E+00 0.00000E+00 0.00000E+00 0.00000E+00
 -1       155 0.00000E+00 0.00000E+00 0.00000E+00 0.00000E+00 0.00000E+00 0.00000E+00
 -1       156 0.00000E+00 0.00000E+00 0.00000E+00 0.00000E+00 0.00000E+00 0.00000E+00
 -1       157 0.00000E+00 0.00000E+00 0.00000E+00 0.00000E+00 0.00000E+00 0.00000E+00
 -1       158 0.00000E+00 0.00000E+00 0.00000E+00 0.00000E+00 0.00000E+00 0.00000E+00
 -1       159 0.00000E+00 0.00000E+00 0.00000E+00 0.00000E+00 0.00000E+00 0.00000E+00
 -1       160 0.00000E+00 0.00000E+00 0.00000E+00 0.00000E+00 0.00000E+00 0.00000E+00
 -1       161 0.00000E+00 0.00000E+00 0.00000E+00 0.00000E+00 0.00000E+00 0.00000E+00
 -1       162 0.00000E+00 0.00000E+00 0.00000E+00 0.00000E+00 0.00000E+00 0.00000E+00
 -1       163 0.00000E+00 0.00000E+00 0.00000E+00 0.00000E+00 0.00000E+00 0.00000E+00
 -1       164 0.00000E+00 0.00000E+00 0.00000E+00 0.00000E+00 0.00000E+00 0.00000E+00
 -1       165 0.00000E+00 0.00000E+00 0.00000E+00 0.00000E+00 0.00000E+00 0.00000E+00
 -1       166 0.00000E+00 0.00000E+00 0.00000E+00 0.00000E+00 0.00000E+00 0.00000E+00
 -1       167 0.00000E+00 0.00000E+00 0.00000E+00 0.00000E+00 0.00000E+00 0.00000E+00
 -1       168 0.00000E+00 0.00000E+00 0.00000E+00 0.00000E+00 0.00000E+00 0.00000E+00
 -1       169 0.00000E+00 0.00000E+00 0.00000E+00 0.00000E+00 0.00000E+00 0.00000E+00
 -1       170 0.00000E+00 0.00000E+00 0.00000E+00 0.00000E+00 0.00000E+00 0.00000E+00
 -1       171 0.00000E+00 0.00000E+00 0.00000E+00 0.00000E+00 0.00000E+00 0.00000E+00
 -1       172 0.00000E+00 0.00000E+00 0.00000E+00 0.00000E+00 0.00000E+00 0.00000E+00
 -1       173 0.00000E+00 0.00000E+00 0.00000E+00 0.00000E+00 0.00000E+00 0.00000E+00
 -1       174 0.00000E+00 0.00000E+00 0.00000E+00 0.00000E+00 0.00000E+00 0.00000E+00
 -1       175 0.00000E+00 0.00000E+00 0.00000E+00 0.00000E+00 0.00000E+00 0.00000E+00
 -1       176 0.00000E+00 0.00000E+00 0.00000E+00 0.00000E+00 0.00000E+00 0.00000E+00
 -1       177 0.00000E+00 0.00000E+00 0.00000E+00 0.00000E+00 0.00000E+00 0.00000E+00
 -1       178 0.00000E+00 0.00000E+00 0.00000E+00 0.00000E+00 0.00000E+00 0.00000E+00
 -1       179 0.00000E+00 0.00000E+00 0.00000E+00 0.00000E+00 0.00000E+00 0.00000E+00
 -1       180 0.00000E+00 0.00000E+00 0.00000E+00 0.00000E+00 0.00000E+00 0.00000E+00
 -1       181 0.00000E+00 0.00000E+00 0.00000E+00 0.00000E+00 0.00000E+00 0.00000E+00
 -1       182 0.00000E+00 0.00000E+00 0.00000E+00 0.00000E+00 0.00000E+00 0.00000E+00
 -1       183 0.00000E+00 0.00000E+00 0.00000E+00 0.00000E+00 0.00000E+00 0.00000E+00
 -1       184 0.00000E+00 0.00000E+00 0.00000E+00 0.00000E+00 0.00000E+00 0.00000E+00
 -1       185 0.00000E+00 0.00000E+00 0.00000E+00 0.00000E+00 0.00000E+00 0.00000E+00
 -1       186 0.00000E+00 0.00000E+00 0.00000E+00 0.00000E+00 0.00000E+00 0.00000E+00
 -1       187 0.00000E+00 0.00000E+00 0.00000E+00 0.00000E+00 0.00000E+00 0.00000E+00
 -1       188 0.00000E+00 0.00000E+00 0.00000E+00 0.00000E+00 0.00000E+00 0.00000E+00
 -1       189 0.00000E+00 0.00000E+00 0.00000E+00 0.00000E+00 0.00000E+00 0.00000E+00
 -1       190 0.00000E+00 0.00000E+00 0.00000E+00 0.00000E+00 0.00000E+00 0.00000E+00
 -1       191 0.00000E+00 0.00000E+00 0.00000E+00 0.00000E+00 0.00000E+00 0.00000E+00
 -1       192 0.00000E+00 0.00000E+00 0.00000E+00 0.00000E+00 0.00000E+00 0.00000E+00
 -1       193 0.00000E+00 0.00000E+00 0.00000E+00 0.00000E+00 0.00000E+00 0.00000E+00
 -1       194 0.00000E+00 0.00000E+00 0.00000E+00 0.00000E+00 0.00000E+00 0.00000E+00
 -1       195 0.00000E+00 0.00000E+00 0.00000E+00 0.00000E+00 0.00000E+00 0.00000E+00
 -1       196 0.00000E+00 0.00000E+00 0.00000E+00 0.00000E+00 0.00000E+00 0.00000E+00
 -1       197 0.00000E+00 0.00000E+00 0.00000E+00 0.00000E+00 0.00000E+00 0.00000E+00
 -1       198 0.00000E+00 0.00000E+00 0.00000E+00 0.00000E+00 0.00000E+00 0.00000E+00
 -1       199 0.00000E+00 0.00000E+00 0.00000E+00 0.00000E+00 0.00000E+00 0.00000E+00
 -1       200 0.00000E+00 0.00000E+00 0.00000E+00 0.00000E+00 0.00000E+00 0.00000E+00
 -1       201 0.00000E+00 0.00000E+00 0.00000E+00 0.00000E+00 0.00000E+00 0.00000E+00
 -1       202 0.00000E+00 0.00000E+00 0.00000E+00 0.00000E+00 0.00000E+00 0.00000E+00
 -1       203 0.00000E+00 0.00000E+00 0.00000E+00 0.00000E+00 0.00000E+00 0.00000E+00
 -1       204 0.00000E+00 0.00000E+00 0.00000E+00 0.00000E+00 0.00000E+00 0.00000E+00
 -1       205 0.00000E+00 0.00000E+00 0.00000E+00 0.00000E+00 0.00000E+00 0.00000E+00
 -1       206 0.00000E+00 0.00000E+00 0.00000E+00 0.00000E+00 0.00000E+00 0.00000E+00
 -1       207 0.00000E+00 0.00000E+00 0.00000E+00 0.00000E+00 0.00000E+00 0.00000E+00
 -1       208 0.00000E+00 0.00000E+00 0.00000E+00 0.00000E+00 0.00000E+00 0.00000E+00
 -1       209 0.00000E+00 0.00000E+00 0.00000E+00 0.00000E+00 0.00000E+00 0.00000E+00
 -1       210 0.00000E+00 0.00000E+00 0.00000E+00 0.00000E+00 0.00000E+00 0.00000E+00
 -1       211 0.00000E+00 0.00000E+00 0.00000E+00 0.00000E+00 0.00000E+00 0.00000E+00
 -1       212 0.00000E+00 0.00000E+00 0.00000E+00 0.00000E+00 0.00000E+00 0.00000E+00
 -1       213 0.00000E+00 0.00000E+00 0.00000E+00 0.00000E+00 0.00000E+00 0.00000E+00
 -1       214 0.00000E+00 0.00000E+00 0.00000E+00 0.00000E+00 0.00000E+00 0.00000E+00
 -1       215 0.00000E+00 0.00000E+00 0.00000E+00 0.00000E+00 0.00000E+00 0.00000E+00
 -1       216 0.00000E+00 0.00000E+00 0.00000E+00 0.00000E+00 0.00000E+00 0.00000E+00
 -1       217 0.00000E+00 0.00000E+00 0.00000E+00 0.00000E+00 0.00000E+00 0.00000E+00
 -1       218 0.00000E+00 0.00000E+00 0.00000E+00 0.00000E+00 0.00000E+00 0.00000E+00
 -1       219 0.00000E+00 0.00000E+00 0.00000E+00 0.00000E+00 0.00000E+00 0.00000E+00
 -1       220 0.00000E+00 0.00000E+00 0.00000E+00 0.00000E+00 0.00000E+00 0.00000E+00
 -1       221 0.00000E+00 0.00000E+00 0.00000E+00 0.00000E+00 0.00000E+00 0.00000E+00
 -1       222 0.00000E+00 0.00000E+00 0.00000E+00 0.00000E+00 0.00000E+00 0.00000E+00
 -1       223 0.00000E+00 0.00000E+00 0.00000E+00 0.00000E+00 0.00000E+00 0.00000E+00
 -1       224 0.00000E+00 0.00000E+00 0.00000E+00 0.00000E+00 0.00000E+00 0.00000E+00
 -1       225 0.00000E+00 0.00000E+00 0.00000E+00 0.00000E+00 0.00000E+00 0.00000E+00
 -1       226 0.00000E+00 0.00000E+00 0.00000E+00 0.00000E+00 0.00000E+00 0.00000E+00
 -1       227 0.00000E+00 0.00000E+00 0.00000E+00 0.00000E+00 0.00000E+00 0.00000E+00
 -1       228 0.00000E+00 0.00000E+00 0.00000E+00 0.00000E+00 0.00000E+00 0.00000E+00
 -1       229 0.00000E+00 0.00000E+00 0.00000E+00 0.00000E+00 0.00000E+00 0.00000E+00
 -1       230 0.00000E+00 0.00000E+00 0.00000E+00 0.00000E+00 0.00000E+00 0.00000E+00
 -1       231 0.00000E+00 0.00000E+00 0.00000E+00 0.00000E+00 0.00000E+00 0.00000E+00
 -1       232 0.00000E+00 0.00000E+00 0.00000E+00 0.00000E+00 0.00000E+00 0.00000E+00
 -1       233 0.00000E+00 0.00000E+00 0.00000E+00 0.00000E+00 0.00000E+00 0.00000E+00
 -1       234 0.00000E+00 0.00000E+00 0.00000E+00 0.00000E+00 0.00000E+00 0.00000E+00
 -1       235 0.00000E+00 0.00000E+00 0.00000E+00 0.00000E+00 0.00000E+00 0.00000E+00
 -1       236 0.00000E+00 0.00000E+00 0.00000E+00 0.00000E+00 0.00000E+00 0.00000E+00
 -1       237 0.00000E+00 0.00000E+00 0.00000E+00 0.00000E+00 0.00000E+00 0.00000E+00
 -1       238 0.00000E+00 0.00000E+00 0.00000E+00 0.00000E+00 0.00000E+00 0.00000E+00
 -1       239 0.00000E+00 0.00000E+00 0.00000E+00 0.00000E+00 0.00000E+00 0.00000E+00
 -1       240 0.00000E+00 0.00000E+00 0.00000E+00 0.00000E+00 0.00000E+00 0.00000E+00
 -1       241 0.00000E+00 0.00000E+00 0.00000E+00 0.00000E+00 0.00000E+00 0.00000E+00
 -1       242 0.00000E+00 0.00000E+00 0.00000E+00 0.00000E+00 0.00000E+00 0.00000E+00
 -1       243 0.00000E+00 0.00000E+00 0.00000E+00 0.00000E+00 0.00000E+00 0.00000E+00
 -1       244 0.00000E+00 0.00000E+00 0.00000E+00 0.00000E+00 0.00000E+00 0.00000E+00
 -1       245 0.00000E+00 0.00000E+00 0.00000E+00 0.00000E+00 0.00000E+00 0.00000E+00
 -1       246 0.00000E+00 0.00000E+00 0.00000E+00 0.00000E+00 0.00000E+00 0.00000E+00
 -1       247 0.00000E+00 0.00000E+00 0.00000E+00 0.00000E+00 0.00000E+00 0.00000E+00
 -1       248 0.00000E+00 0.00000E+00 0.00000E+00 0.00000E+00 0.00000E+00 0.00000E+00
 -1       249 0.00000E+00 0.00000E+00 0.00000E+00 0.00000E+00 0.00000E+00 0.00000E+00
 -1       250 0.00000E+00 0.00000E+00 0.00000E+00 0.00000E+00 0.00000E+00 0.00000E+00
 -1       251 0.00000E+00 0.00000E+00 0.00000E+00 0.00000E+00 0.00000E+00 0.00000E+00
 -1       252 0.00000E+00 0.00000E+00 0.00000E+00 0.00000E+00 0.00000E+00 0.00000E+00
 -1       253 0.00000E+00 0.00000E+00 0.00000E+00 0.00000E+00 0.00000E+00 0.00000E+00
 -1       254 0.00000E+00 0.00000E+00 0.00000E+00 0.00000E+00 0.00000E+00 0.00000E+00
 -1       255 0.00000E+00 0.00000E+00 0.00000E+00 0.00000E+00 0.00000E+00 0.00000E+00
 -1       256 0.00000E+00 0.00000E+00 0.00000E+00 0.00000E+00 0.00000E+00 0.00000E+00
 -1       257 0.00000E+00 0.00000E+00 0.00000E+00 0.00000E+00 0.00000E+00 0.00000E+00
 -1       258 0.00000E+00 0.00000E+00 0.00000E+00 0.00000E+00 0.00000E+00 0.00000E+00
 -1       259 0.00000E+00 0.00000E+00 0.00000E+00 0.00000E+00 0.00000E+00 0.00000E+00
 -1       260 0.00000E+00 0.00000E+00 0.00000E+00 0.00000E+00 0.00000E+00 0.00000E+00
 -1       261 0.00000E+00 0.00000E+00 0.00000E+00 0.00000E+00 0.00000E+00 0.00000E+00
 -1       262 0.00000E+00 0.00000E+00 0.00000E+00 0.00000E+00 0.00000E+00 0.00000E+00
 -1       263 0.00000E+00 0.00000E+00 0.00000E+00 0.00000E+00 0.00000E+00 0.00000E+00
 -1       264 0.00000E+00 0.00000E+00 0.00000E+00 0.00000E+00 0.00000E+00 0.00000E+00
 -1       265 0.00000E+00 0.00000E+00 0.00000E+00 0.00000E+00 0.00000E+00 0.00000E+00
 -1       266 0.00000E+00 0.00000E+00 0.00000E+00 0.00000E+00 0.00000E+00 0.00000E+00
 -1       267 0.00000E+00 0.00000E+00 0.00000E+00 0.00000E+00 0.00000E+00 0.00000E+00
 -1       268 0.00000E+00 0.00000E+00 0.00000E+00 0.00000E+00 0.00000E+00 0.00000E+00
 -1       269 0.00000E+00 0.00000E+00 0.00000E+00 0.00000E+00 0.00000E+00 0.00000E+00
 -1       270 0.00000E+00 0.00000E+00 0.00000E+00 0.00000E+00 0.00000E+00 0.00000E+00
 -1       271 0.00000E+00 0.00000E+00 0.00000E+00 0.00000E+00 0.00000E+00 0.00000E+00
 -1       272 0.00000E+00 0.00000E+00 0.00000E+00 0.00000E+00 0.00000E+00 0.00000E+00
 -1       273 0.00000E+00 0.00000E+00 0.00000E+00 0.00000E+00 0.00000E+00 0.00000E+00
 -1       274 0.00000E+00 0.00000E+00 0.00000E+00 0.00000E+00 0.00000E+00 0.00000E+00
 -1       275 0.00000E+00 0.00000E+00 0.00000E+00 0.00000E+00 0.00000E+00 0.00000E+00
 -1       276 0.00000E+00 0.00000E+00 0.00000E+00 0.00000E+00 0.00000E+00 0.00000E+00
 -1       277 0.00000E+00 0.00000E+00 0.00000E+00 0.00000E+00 0.00000E+00 0.00000E+00
 -1       278 0.00000E+00 0.00000E+00 0.00000E+00 0.00000E+00 0.00000E+00 0.00000E+00
 -1       279 0.00000E+00 0.00000E+00 0.00000E+00 0.00000E+00 0.00000E+00 0.00000E+00
 -1       280 0.00000E+00 0.00000E+00 0.00000E+00 0.00000E+00 0.00000E+00 0.00000E+00
 -1       281 0.00000E+00 0.00000E+00 0.00000E+00 0.00000E+00 0.00000E+00 0.00000E+00
 -1       282 0.00000E+00 0.00000E+00 0.00000E+00 0.00000E+00 0.00000E+00 0.00000E+00
 -1       283 0.00000E+00 0.00000E+00 0.00000E+00 0.00000E+00 0.00000E+00 0.00000E+00
 -1       284 0.00000E+00 0.00000E+00 0.00000E+00 0.00000E+00 0.00000E+00 0.00000E+00
 -1       285 0.00000E+00 0.00000E+00 0.00000E+00 0.00000E+00 0.00000E+00 0.00000E+00
 -1       286 0.00000E+00 0.00000E+00 0.00000E+00 0.00000E+00 0.00000E+00 0.00000E+00
 -1       287 0.00000E+00 0.00000E+00 0.00000E+00 0.00000E+00 0.00000E+00 0.00000E+00
 -1       288 0.00000E+00 0.00000E+00 0.00000E+00 0.00000E+00 0.00000E+00 0.00000E+00
 -1       289 0.00000E+00 0.00000E+00 0.00000E+00 0.00000E+00 0.00000E+00 0.00000E+00
 -1       290 0.00000E+00 0.00000E+00 0.00000E+00 0.00000E+00 0.00000E+00 0.00000E+00
 -1       291 0.00000E+00 0.00000E+00 0.00000E+00 0.00000E+00 0.00000E+00 0.00000E+00
 -1       292 0.00000E+00 0.00000E+00 0.00000E+00 0.00000E+00 0.00000E+00 0.00000E+00
 -1       293 0.00000E+00 0.00000E+00 0.00000E+00 0.00000E+00 0.00000E+00 0.00000E+00
 -1       294 0.00000E+00 0.00000E+00 0.00000E+00 0.00000E+00 0.00000E+00 0.00000E+00
 -1       295 0.00000E+00 0.00000E+00 0.00000E+00 0.00000E+00 0.00000E+00 0.00000E+00
 -1       296 0.00000E+00 0.00000E+00 0.00000E+00 0.00000E+00 0.00000E+00 0.00000E+00
 -1       297 0.00000E+00 0.00000E+00 0.00000E+00 0.00000E+00 0.00000E+00 0.00000E+00
 -1       298 0.00000E+00 0.00000E+00 0.00000E+00 0.00000E+00 0.00000E+00 0.00000E+00
 -1       299 0.00000E+00 0.00000E+00 0.00000E+00 0.00000E+00 0.00000E+00 0.00000E+00
 -1       300 0.00000E+00 0.00000E+00 0.00000E+00 0.00000E+00 0.00000E+00 0.00000E+00
 -1       301 0.00000E+00 0.00000E+00 0.00000E+00 0.00000E+00 0.00000E+00 0.00000E+00
 -1       302 0.00000E+00 0.00000E+00 0.00000E+00 0.00000E+00 0.00000E+00 0.00000E+00
 -1       303 0.00000E+00 0.00000E+00 0.00000E+00 0.00000E+00 0.00000E+00 0.00000E+00
 -1       304 0.00000E+00 0.00000E+00 0.00000E+00 0.00000E+00 0.00000E+00 0.00000E+00
 -1       305 0.00000E+00 0.00000E+00 0.00000E+00 0.00000E+00 0.00000E+00 0.00000E+00
 -1       306 0.00000E+00 0.00000E+00 0.00000E+00 0.00000E+00 0.00000E+00 0.00000E+00
 -1       307 0.00000E+00 0.00000E+00 0.00000E+00 0.00000E+00 0.00000E+00 0.00000E+00
 -1       308 0.00000E+00 0.00000E+00 0.00000E+00 0.00000E+00 0.00000E+00 0.00000E+00
 -1       309 0.00000E+00 0.00000E+00 0.00000E+00 0.00000E+00 0.00000E+00 0.00000E+00
 -1       310 0.00000E+00 0.00000E+00 0.00000E+00 0.00000E+00 0.00000E+00 0.00000E+00
 -1       311 0.00000E+00 0.00000E+00 0.00000E+00 0.00000E+00 0.00000E+00 0.00000E+00
 -1       312 0.00000E+00 0.00000E+00 0.00000E+00 0.00000E+00 0.00000E+00 0.00000E+00
 -1       313 0.00000E+00 0.00000E+00 0.00000E+00 0.00000E+00 0.00000E+00 0.00000E+00
 -1       314 0.00000E+00 0.00000E+00 0.00000E+00 0.00000E+00 0.00000E+00 0.00000E+00
 -1       315 0.00000E+00 0.00000E+00 0.00000E+00 0.00000E+00 0.00000E+00 0.00000E+00
 -1       316 0.00000E+00 0.00000E+00 0.00000E+00 0.00000E+00 0.00000E+00 0.00000E+00
 -1       317 0.00000E+00 0.00000E+00 0.00000E+00 0.00000E+00 0.00000E+00 0.00000E+00
 -1       318 0.00000E+00 0.00000E+00 0.00000E+00 0.00000E+00 0.00000E+00 0.00000E+00
 -1       319 0.00000E+00 0.00000E+00 0.00000E+00 0.00000E+00 0.00000E+00 0.00000E+00
 -1       320 0.00000E+00 0.00000E+00 0.00000E+00 0.00000E+00 0.00000E+00 0.00000E+00
 -1       321 0.00000E+00 0.00000E+00 0.00000E+00 0.00000E+00 0.00000E+00 0.00000E+00
 -1       322 0.00000E+00 0.00000E+00 0.00000E+00 0.00000E+00 0.00000E+00 0.00000E+00
 -1       323 0.00000E+00 0.00000E+00 0.00000E+00 0.00000E+00 0.00000E+00 0.00000E+00
 -1       324 0.00000E+00 0.00000E+00 0.00000E+00 0.00000E+00 0.00000E+00 0.00000E+00
 -1       325 0.00000E+00 0.00000E+00 0.00000E+00 0.00000E+00 0.00000E+00 0.00000E+00
 -1       326 0.00000E+00 0.00000E+00 0.00000E+00 0.00000E+00 0.00000E+00 0.00000E+00
 -1       327 0.00000E+00 0.00000E+00 0.00000E+00 0.00000E+00 0.00000E+00 0.00000E+00
 -1       328 0.00000E+00 0.00000E+00 0.00000E+00 0.00000E+00 0.00000E+00 0.00000E+00
 -1       329 0.00000E+00 0.00000E+00 0.00000E+00 0.00000E+00 0.00000E+00 0.00000E+00
 -1       330 0.00000E+00 0.00000E+00 0.00000E+00 0.00000E+00 0.00000E+00 0.00000E+00
 -1       331 0.00000E+00 0.00000E+00 0.00000E+00 0.00000E+00 0.00000E+00 0.00000E+00
 -1       332 0.00000E+00 0.00000E+00 0.00000E+00 0.00000E+00 0.00000E+00 0.00000E+00
 -1       333 0.00000E+00 0.00000E+00 0.00000E+00 0.00000E+00 0.00000E+00 0.00000E+00
 -1       334 0.00000E+00 0.00000E+00 0.00000E+00 0.00000E+00 0.00000E+00 0.00000E+00
 -1       335 0.00000E+00 0.00000E+00 0.00000E+00 0.00000E+00 0.00000E+00 0.00000E+00
 -1       336 0.00000E+00 0.00000E+00 0.00000E+00 0.00000E+00 0.00000E+00 0.00000E+00
 -1       337 0.00000E+00 0.00000E+00 0.00000E+00 0.00000E+00 0.00000E+00 0.00000E+00
 -1       338 0.00000E+00 0.00000E+00 0.00000E+00 0.00000E+00 0.00000E+00 0.00000E+00
 -1       339 0.00000E+00 0.00000E+00 0.00000E+00 0.00000E+00 0.00000E+00 0.00000E+00
 -1       340 0.00000E+00 0.00000E+00 0.00000E+00 0.00000E+00 0.00000E+00 0.00000E+00
 -1       341 0.00000E+00 0.00000E+00 0.00000E+00 0.00000E+00 0.00000E+00 0.00000E+00
 -1       342 0.00000E+00 0.00000E+00 0.00000E+00 0.00000E+00 0.00000E+00 0.00000E+00
 -1       343 0.00000E+00 0.00000E+00 0.00000E+00 0.00000E+00 0.00000E+00 0.00000E+00
 -1       344 0.00000E+00 0.00000E+00 0.00000E+00 0.00000E+00 0.00000E+00 0.00000E+00
 -1       345 0.00000E+00 0.00000E+00 0.00000E+00 0.00000E+00 0.00000E+00 0.00000E+00
 -1       346 0.00000E+00 0.00000E+00 0.00000E+00 0.00000E+00 0.00000E+00 0.00000E+00
 -1       347 0.00000E+00 0.00000E+00 0.00000E+00 0.00000E+00 0.00000E+00 0.00000E+00
 -1       348 0.00000E+00 0.00000E+00 0.00000E+00 0.00000E+00 0.00000E+00 0.00000E+00
 -1       349 0.00000E+00 0.00000E+00 0.00000E+00 0.00000E+00 0.00000E+00 0.00000E+00
 -1       350 0.00000E+00 0.00000E+00 0.00000E+00 0.00000E+00 0.00000E+00 0.00000E+00
 -1       351 0.00000E+00 0.00000E+00 0.00000E+00 0.00000E+00 0.00000E+00 0.00000E+00
 -1       352 0.00000E+00 0.00000E+00 0.00000E+00 0.00000E+00 0.00000E+00 0.00000E+00
 -1       353 0.00000E+00 0.00000E+00 0.00000E+00 0.00000E+00 0.00000E+00 0.00000E+00
 -1       354 0.00000E+00 0.00000E+00 0.00000E+00 0.00000E+00 0.00000E+00 0.00000E+00
 -1       355 0.00000E+00 0.00000E+00 0.00000E+00 0.00000E+00 0.00000E+00 0.00000E+00
 -1       356 0.00000E+00 0.00000E+00 0.00000E+00 0.00000E+00 0.00000E+00 0.00000E+00
 -1       357 0.00000E+00 0.00000E+00 0.00000E+00 0.00000E+00 0.00000E+00 0.00000E+00
 -1       358 0.00000E+00 0.00000E+00 0.00000E+00 0.00000E+00 0.00000E+00 0.00000E+00
 -1       359 0.00000E+00 0.00000E+00 0.00000E+00 0.00000E+00 0.00000E+00 0.00000E+00
 -1       360 0.00000E+00 0.00000E+00 0.00000E+00 0.00000E+00 0.00000E+00 0.00000E+00
 -1       361 0.00000E+00 0.00000E+00 0.00000E+00 0.00000E+00 0.00000E+00 0.00000E+00
 -1       362 0.00000E+00 0.00000E+00 0.00000E+00 0.00000E+00 0.00000E+00 0.00000E+00
 -1       363 0.00000E+00 0.00000E+00 0.00000E+00 0.00000E+00 0.00000E+00 0.00000E+00
 -1       364 0.00000E+00 0.00000E+00 0.00000E+00 0.00000E+00 0.00000E+00 0.00000E+00
 -1       365 0.00000E+00 0.00000E+00 0.00000E+00 0.00000E+00 0.00000E+00 0.00000E+00
 -1       366 0.00000E+00 0.00000E+00 0.00000E+00 0.00000E+00 0.00000E+00 0.00000E+00
 -1       367 0.00000E+00 0.00000E+00 0.00000E+00 0.00000E+00 0.00000E+00 0.00000E+00
 -1       368 0.00000E+00 0.00000E+00 0.00000E+00 0.00000E+00 0.00000E+00 0.00000E+00
 -1       369 0.00000E+00 0.00000E+00 0.00000E+00 0.00000E+00 0.00000E+00 0.00000E+00
 -1       370 0.00000E+00 0.00000E+00 0.00000E+00 0.00000E+00 0.00000E+00 0.00000E+00
 -1       371 0.00000E+00 0.00000E+00 0.00000E+00 0.00000E+00 0.00000E+00 0.00000E+00
 -1       372 0.00000E+00 0.00000E+00 0.00000E+00 0.00000E+00 0.00000E+00 0.00000E+00
 -1       373 0.00000E+00 0.00000E+00 0.00000E+00 0.00000E+00 0.00000E+00 0.00000E+00
 -1       374 0.00000E+00 0.00000E+00 0.00000E+00 0.00000E+00 0.00000E+00 0.00000E+00
 -1       375 0.00000E+00 0.00000E+00 0.00000E+00 0.00000E+00 0.00000E+00 0.00000E+00
 -1       376 0.00000E+00 0.00000E+00 0.00000E+00 0.00000E+00 0.00000E+00 0.00000E+00
 -1       377 0.00000E+00 0.00000E+00 0.00000E+00 0.00000E+00 0.00000E+00 0.00000E+00
 -1       378 0.00000E+00 0.00000E+00 0.00000E+00 0.00000E+00 0.00000E+00 0.00000E+00
 -1       379 0.00000E+00 0.00000E+00 0.00000E+00 0.00000E+00 0.00000E+00 0.00000E+00
 -1       381 0.00000E+00 0.00000E+00 0.00000E+00 0.00000E+00 0.00000E+00 0.00000E+00
 -1       382 0.00000E+00 0.00000E+00 0.00000E+00 0.00000E+00 0.00000E+00 0.00000E+00
 -1       383 0.00000E+00 0.00000E+00 0.00000E+00 0.00000E+00 0.00000E+00 0.00000E+00
 -1       384 0.00000E+00 0.00000E+00 0.00000E+00 0.00000E+00 0.00000E+00 0.00000E+00
 -1       385 0.00000E+00 0.00000E+00 0.00000E+00 0.00000E+00 0.00000E+00 0.00000E+00
 -1       386 0.00000E+00 0.00000E+00 0.00000E+00 0.00000E+00 0.00000E+00 0.00000E+00
 -1       387 0.00000E+00 0.00000E+00 0.00000E+00 0.00000E+00 0.00000E+00 0.00000E+00
 -1       388 0.00000E+00 0.00000E+00 0.00000E+00 0.00000E+00 0.00000E+00 0.00000E+00
 -1       389 0.00000E+00 0.00000E+00 0.00000E+00 0.00000E+00 0.00000E+00 0.00000E+00
 -1       390 0.00000E+00 0.00000E+00 0.00000E+00 0.00000E+00 0.00000E+00 0.00000E+00
 -1       391 0.00000E+00 0.00000E+00 0.00000E+00 0.00000E+00 0.00000E+00 0.00000E+00
 -1       392 0.00000E+00 0.00000E+00 0.00000E+00 0.00000E+00 0.00000E+00 0.00000E+00
 -1       393 0.00000E+00 0.00000E+00 0.00000E+00 0.00000E+00 0.00000E+00 0.00000E+00
 -1       394 0.00000E+00 0.00000E+00 0.00000E+00 0.00000E+00 0.00000E+00 0.00000E+00
 -1       395 0.00000E+00 0.00000E+00 0.00000E+00 0.00000E+00 0.00000E+00 0.00000E+00
 -1       396 0.00000E+00 0.00000E+00 0.00000E+00 0.00000E+00 0.00000E+00 0.00000E+00
 -1       397 0.00000E+00 0.00000E+00 0.00000E+00 0.00000E+00 0.00000E+00 0.00000E+00
 -1       398 0.00000E+00 0.00000E+00 0.00000E+00 0.00000E+00 0.00000E+00 0.00000E+00
 -1       399 0.00000E+00 0.00000E+00 0.00000E+00 0.00000E+00 0.00000E+00 0.00000E+00
 -1       400 0.00000E+00 0.00000E+00 0.00000E+00 0.00000E+00 0.00000E+00 0.00000E+00
 -1       401 0.00000E+00 0.00000E+00 0.00000E+00 0.00000E+00 0.00000E+00 0.00000E+00
 -1       402 0.00000E+00 0.00000E+00 0.00000E+00 0.00000E+00 0.00000E+00 0.00000E+00
 -1       403 0.00000E+00 0.00000E+00 0.00000E+00 0.00000E+00 0.00000E+00 0.00000E+00
 -1       404 0.00000E+00 0.00000E+00 0.00000E+00 0.00000E+00 0.00000E+00 0.00000E+00
 -1       405 0.00000E+00 0.00000E+00 0.00000E+00 0.00000E+00 0.00000E+00 0.00000E+00
 -1       406 0.00000E+00 0.00000E+00 0.00000E+00 0.00000E+00 0.00000E+00 0.00000E+00
 -1       407 0.00000E+00 0.00000E+00 0.00000E+00 0.00000E+00 0.00000E+00 0.00000E+00
 -1       408 0.00000E+00 0.00000E+00 0.00000E+00 0.00000E+00 0.00000E+00 0.00000E+00
 -1       409 0.00000E+00 0.00000E+00 0.00000E+00 0.00000E+00 0.00000E+00 0.00000E+00
 -1       410 0.00000E+00 0.00000E+00 0.00000E+00 0.00000E+00 0.00000E+00 0.00000E+00
 -1       411 0.00000E+00 0.00000E+00 0.00000E+00 0.00000E+00 0.00000E+00 0.00000E+00
 -1       412 0.00000E+00 0.00000E+00 0.00000E+00 0.00000E+00 0.00000E+00 0.00000E+00
 -1       413 0.00000E+00 0.00000E+00 0.00000E+00 0.00000E+00 0.00000E+00 0.00000E+00
 -1       414 0.00000E+00 0.00000E+00 0.00000E+00 0.00000E+00 0.00000E+00 0.00000E+00
 -1       415 0.00000E+00 0.00000E+00 0.00000E+00 0.00000E+00 0.00000E+00 0.00000E+00
 -1       416 0.00000E+00 0.00000E+00 0.00000E+00 0.00000E+00 0.00000E+00 0.00000E+00
 -1       417 0.00000E+00 0.00000E+00 0.00000E+00 0.00000E+00 0.00000E+00 0.00000E+00
 -1       418 0.00000E+00 0.00000E+00 0.00000E+00 0.00000E+00 0.00000E+00 0.00000E+00
 -1       419 0.00000E+00 0.00000E+00 0.00000E+00 0.00000E+00 0.00000E+00 0.00000E+00
 -1       420 0.00000E+00 0.00000E+00 0.00000E+00 0.00000E+00 0.00000E+00 0.00000E+00
 -1       421 0.00000E+00 0.00000E+00 0.00000E+00 0.00000E+00 0.00000E+00 0.00000E+00
 -1       422 0.00000E+00 0.00000E+00 0.00000E+00 0.00000E+00 0.00000E+00 0.00000E+00
 -1       423 0.00000E+00 0.00000E+00 0.00000E+00 0.00000E+00 0.00000E+00 0.00000E+00
 -1       424 0.00000E+00 0.00000E+00 0.00000E+00 0.00000E+00 0.00000E+00 0.00000E+00
 -1       425 0.00000E+00 0.00000E+00 0.00000E+00 0.00000E+00 0.00000E+00 0.00000E+00
 -1       426 0.00000E+00 0.00000E+00 0.00000E+00 0.00000E+00 0.00000E+00 0.00000E+00
 -1       427 0.00000E+00 0.00000E+00 0.00000E+00 0.00000E+00 0.00000E+00 0.00000E+00
 -1       428 0.00000E+00 0.00000E+00 0.00000E+00 0.00000E+00 0.00000E+00 0.00000E+00
 -1       429 0.00000E+00 0.00000E+00 0.00000E+00 0.00000E+00 0.00000E+00 0.00000E+00
 -1       430 0.00000E+00 0.00000E+00 0.00000E+00 0.00000E+00 0.00000E+00 0.00000E+00
 -1       431 0.00000E+00 0.00000E+00 0.00000E+00 0.00000E+00 0.00000E+00 0.00000E+00
 -1       432 0.00000E+00 0.00000E+00 0.00000E+00 0.00000E+00 0.00000E+00 0.00000E+00
 -1       433 0.00000E+00 0.00000E+00 0.00000E+00 0.00000E+00 0.00000E+00 0.00000E+00
 -1       434 0.00000E+00 0.00000E+00 0.00000E+00 0.00000E+00 0.00000E+00 0.00000E+00
 -1       435 0.00000E+00 0.00000E+00 0.00000E+00 0.00000E+00 0.00000E+00 0.00000E+00
 -1       436 0.00000E+00 0.00000E+00 0.00000E+00 0.00000E+00 0.00000E+00 0.00000E+00
 -1       437 0.00000E+00 0.00000E+00 0.00000E+00 0.00000E+00 0.00000E+00 0.00000E+00
 -1       438 0.00000E+00 0.00000E+00 0.00000E+00 0.00000E+00 0.00000E+00 0.00000E+00
 -1       439 0.00000E+00 0.00000E+00 0.00000E+00 0.00000E+00 0.00000E+00 0.00000E+00
 -1       440 0.00000E+00 0.00000E+00 0.00000E+00 0.00000E+00 0.00000E+00 0.00000E+00
 -1       441 0.00000E+00 0.00000E+00 0.00000E+00 0.00000E+00 0.00000E+00 0.00000E+00
 -1       442 0.00000E+00 0.00000E+00 0.00000E+00 0.00000E+00 0.00000E+00 0.00000E+00
 -1       443 0.00000E+00 0.00000E+00 0.00000E+00 0.00000E+00 0.00000E+00 0.00000E+00
 -1       444 0.00000E+00 0.00000E+00 0.00000E+00 0.00000E+00 0.00000E+00 0.00000E+00
 -1       445 0.00000E+00 0.00000E+00 0.00000E+00 0.00000E+00 0.00000E+00 0.00000E+00
 -1       446 0.00000E+00 0.00000E+00 0.00000E+00 0.00000E+00 0.00000E+00 0.00000E+00
 -1       447 0.00000E+00 0.00000E+00 0.00000E+00 0.00000E+00 0.00000E+00 0.00000E+00
 -1       448 0.00000E+00 0.00000E+00 0.00000E+00 0.00000E+00 0.00000E+00 0.00000E+00
 -1       449 0.00000E+00 0.00000E+00 0.00000E+00 0.00000E+00 0.00000E+00 0.00000E+00
 -1       450 0.00000E+00 0.00000E+00 0.00000E+00 0.00000E+00 0.00000E+00 0.00000E+00
 -1       451 0.00000E+00 0.00000E+00 0.00000E+00 0.00000E+00 0.00000E+00 0.00000E+00
 -1       452 0.00000E+00 0.00000E+00 0.00000E+00 0.00000E+00 0.00000E+00 0.00000E+00
 -1       453 0.00000E+00 0.00000E+00 0.00000E+00 0.00000E+00 0.00000E+00 0.00000E+00
 -1       454 0.00000E+00 0.00000E+00 0.00000E+00 0.00000E+00 0.00000E+00 0.00000E+00
 -1       455 0.00000E+00 0.00000E+00 0.00000E+00 0.00000E+00 0.00000E+00 0.00000E+00
 -1       456 0.00000E+00 0.00000E+00 0.00000E+00 0.00000E+00 0.00000E+00 0.00000E+00
 -1       457 0.00000E+00 0.00000E+00 0.00000E+00 0.00000E+00 0.00000E+00 0.00000E+00
 -1       458 0.00000E+00 0.00000E+00 0.00000E+00 0.00000E+00 0.00000E+00 0.00000E+00
 -1       459 0.00000E+00 0.00000E+00 0.00000E+00 0.00000E+00 0.00000E+00 0.00000E+00
 -1       460 0.00000E+00 0.00000E+00 0.00000E+00 0.00000E+00 0.00000E+00 0.00000E+00
 -1       461 0.00000E+00 0.00000E+00 0.00000E+00 0.00000E+00 0.00000E+00 0.00000E+00
 -1       462 0.00000E+00 0.00000E+00 0.00000E+00 0.00000E+00 0.00000E+00 0.00000E+00
 -1       463 0.00000E+00 0.00000E+00 0.00000E+00 0.00000E+00 0.00000E+00 0.00000E+00
 -1       464 0.00000E+00 0.00000E+00 0.00000E+00 0.00000E+00 0.00000E+00 0.00000E+00
 -1       465 0.00000E+00 0.00000E+00 0.00000E+00 0.00000E+00 0.00000E+00 0.00000E+00
 -1       466 0.00000E+00 0.00000E+00 0.00000E+00 0.00000E+00 0.00000E+00 0.00000E+00
 -1       467 0.00000E+00 0.00000E+00 0.00000E+00 0.00000E+00 0.00000E+00 0.00000E+00
 -1       468 0.00000E+00 0.00000E+00 0.00000E+00 0.00000E+00 0.00000E+00 0.00000E+00
 -1       469 0.00000E+00 0.00000E+00 0.00000E+00 0.00000E+00 0.00000E+00 0.00000E+00
 -1       470 0.00000E+00 0.00000E+00 0.00000E+00 0.00000E+00 0.00000E+00 0.00000E+00
 -1       471 0.00000E+00 0.00000E+00 0.00000E+00 0.00000E+00 0.00000E+00 0.00000E+00
 -1       472 0.00000E+00 0.00000E+00 0.00000E+00 0.00000E+00 0.00000E+00 0.00000E+00
 -1       473 0.00000E+00 0.00000E+00 0.00000E+00 0.00000E+00 0.00000E+00 0.00000E+00
 -1       474 0.00000E+00 0.00000E+00 0.00000E+00 0.00000E+00 0.00000E+00 0.00000E+00
 -1       475 0.00000E+00 0.00000E+00 0.00000E+00 0.00000E+00 0.00000E+00 0.00000E+00
 -1       476 0.00000E+00 0.00000E+00 0.00000E+00 0.00000E+00 0.00000E+00 0.00000E+00
 -1       477 0.00000E+00 0.00000E+00 0.00000E+00 0.00000E+00 0.00000E+00 0.00000E+00
 -1       478 0.00000E+00 0.00000E+00 0.00000E+00 0.00000E+00 0.00000E+00 0.00000E+00
 -1       479 0.00000E+00 0.00000E+00 0.00000E+00 0.00000E+00 0.00000E+00 0.00000E+00
 -1       480 0.00000E+00 0.00000E+00 0.00000E+00 0.00000E+00 0.00000E+00 0.00000E+00
 -1       481 0.00000E+00 0.00000E+00 0.00000E+00 0.00000E+00 0.00000E+00 0.00000E+00
 -1       482 0.00000E+00 0.00000E+00 0.00000E+00 0.00000E+00 0.00000E+00 0.00000E+00
 -1       483 0.00000E+00 0.00000E+00 0.00000E+00 0.00000E+00 0.00000E+00 0.00000E+00
 -1       484 0.00000E+00 0.00000E+00 0.00000E+00 0.00000E+00 0.00000E+00 0.00000E+00
 -1       485 0.00000E+00 0.00000E+00 0.00000E+00 0.00000E+00 0.00000E+00 0.00000E+00
 -1       486 0.00000E+00 0.00000E+00 0.00000E+00 0.00000E+00 0.00000E+00 0.00000E+00
 -1       487 0.00000E+00 0.00000E+00 0.00000E+00 0.00000E+00 0.00000E+00 0.00000E+00
 -1       488 0.00000E+00 0.00000E+00 0.00000E+00 0.00000E+00 0.00000E+00 0.00000E+00
 -1       489 0.00000E+00 0.00000E+00 0.00000E+00 0.00000E+00 0.00000E+00 0.00000E+00
 -1       490 0.00000E+00 0.00000E+00 0.00000E+00 0.00000E+00 0.00000E+00 0.00000E+00
 -1       491 0.00000E+00 0.00000E+00 0.00000E+00 0.00000E+00 0.00000E+00 0.00000E+00
 -1       492 0.00000E+00 0.00000E+00 0.00000E+00 0.00000E+00 0.00000E+00 0.00000E+00
 -1       493 0.00000E+00 0.00000E+00 0.00000E+00 0.00000E+00 0.00000E+00 0.00000E+00
 -1       494 0.00000E+00 0.00000E+00 0.00000E+00 0.00000E+00 0.00000E+00 0.00000E+00
 -1       495 0.00000E+00 0.00000E+00 0.00000E+00 0.00000E+00 0.00000E+00 0.00000E+00
 -1       496 0.00000E+00 0.00000E+00 0.00000E+00 0.00000E+00 0.00000E+00 0.00000E+00
 -1       497 0.00000E+00 0.00000E+00 0.00000E+00 0.00000E+00 0.00000E+00 0.00000E+00
 -1       498 0.00000E+00 0.00000E+00 0.00000E+00 0.00000E+00 0.00000E+00 0.00000E+00
 -1       499 0.00000E+00 0.00000E+00 0.00000E+00 0.00000E+00 0.00000E+00 0.00000E+00
 -1       500 0.00000E+00 0.00000E+00 0.00000E+00 0.00000E+00 0.00000E+00 0.00000E+00
 -1       501 0.00000E+00 0.00000E+00 0.00000E+00 0.00000E+00 0.00000E+00 0.00000E+00
 -1       502 0.00000E+00 0.00000E+00 0.00000E+00 0.00000E+00 0.00000E+00 0.00000E+00
 -1       503 0.00000E+00 0.00000E+00 0.00000E+00 0.00000E+00 0.00000E+00 0.00000E+00
 -1       504 0.00000E+00 0.00000E+00 0.00000E+00 0.00000E+00 0.00000E+00 0.00000E+00
 -1       505 0.00000E+00 0.00000E+00 0.00000E+00 0.00000E+00 0.00000E+00 0.00000E+00
 -1       506 0.00000E+00 0.00000E+00 0.00000E+00 0.00000E+00 0.00000E+00 0.00000E+00
 -1       507 0.00000E+00 0.00000E+00 0.00000E+00 0.00000E+00 0.00000E+00 0.00000E+00
 -1       508 0.00000E+00 0.00000E+00 0.00000E+00 0.00000E+00 0.00000E+00 0.00000E+00
 -1       509 0.00000E+00 0.00000E+00 0.00000E+00 0.00000E+00 0.00000E+00 0.00000E+00
 -1       510 0.00000E+00 0.00000E+00 0.00000E+00 0.00000E+00 0.00000E+00 0.00000E+00
 -1       511 0.00000E+00 0.00000E+00 0.00000E+00 0.00000E+00 0.00000E+00 0.00000E+00
 -1       512 0.00000E+00 0.00000E+00 0.00000E+00 0.00000E+00 0.00000E+00 0.00000E+00
 -1       513 0.00000E+00 0.00000E+00 0.00000E+00 0.00000E+00 0.00000E+00 0.00000E+00
 -1       514 0.00000E+00 0.00000E+00 0.00000E+00 0.00000E+00 0.00000E+00 0.00000E+00
 -1       515 0.00000E+00 0.00000E+00 0.00000E+00 0.00000E+00 0.00000E+00 0.00000E+00
 -1       516 0.00000E+00 0.00000E+00 0.00000E+00 0.00000E+00 0.00000E+00 0.00000E+00
 -1       517 0.00000E+00 0.00000E+00 0.00000E+00 0.00000E+00 0.00000E+00 0.00000E+00
 -1       518 0.00000E+00 0.00000E+00 0.00000E+00 0.00000E+00 0.00000E+00 0.00000E+00
 -1       519 0.00000E+00 0.00000E+00 0.00000E+00 0.00000E+00 0.00000E+00 0.00000E+00
 -1       520 0.00000E+00 0.00000E+00 0.00000E+00 0.00000E+00 0.00000E+00 0.00000E+00
 -1       521 0.00000E+00 0.00000E+00 0.00000E+00 0.00000E+00 0.00000E+00 0.00000E+00
 -1       522 0.00000E+00 0.00000E+00 0.00000E+00 0.00000E+00 0.00000E+00 0.00000E+00
 -1       523 0.00000E+00 0.00000E+00 0.00000E+00 0.00000E+00 0.00000E+00 0.00000E+00
 -1       524 0.00000E+00 0.00000E+00 0.00000E+00 0.00000E+00 0.00000E+00 0.00000E+00
 -1       525 0.00000E+00 0.00000E+00 0.00000E+00 0.00000E+00 0.00000E+00 0.00000E+00
 -1       526 0.00000E+00 0.00000E+00 0.00000E+00 0.00000E+00 0.00000E+00 0.00000E+00
 -1       527 0.00000E+00 0.00000E+00 0.00000E+00 0.00000E+00 0.00000E+00 0.00000E+00
 -1       528 0.00000E+00 0.00000E+00 0.00000E+00 0.00000E+00 0.00000E+00 0.00000E+00
 -1       529 0.00000E+00 0.00000E+00 0.00000E+00 0.00000E+00 0.00000E+00 0.00000E+00
 -1       530 0.00000E+00 0.00000E+00 0.00000E+00 0.00000E+00 0.00000E+00 0.00000E+00
 -1       531 0.00000E+00 0.00000E+00 0.00000E+00 0.00000E+00 0.00000E+00 0.00000E+00
 -1       532 0.00000E+00 0.00000E+00 0.00000E+00 0.00000E+00 0.00000E+00 0.00000E+00
 -1       533 0.00000E+00 0.00000E+00 0.00000E+00 0.00000E+00 0.00000E+00 0.00000E+00
 -1       534 0.00000E+00 0.00000E+00 0.00000E+00 0.00000E+00 0.00000E+00 0.00000E+00
 -1       535 0.00000E+00 0.00000E+00 0.00000E+00 0.00000E+00 0.00000E+00 0.00000E+00
 -1       536 0.00000E+00 0.00000E+00 0.00000E+00 0.00000E+00 0.00000E+00 0.00000E+00
 -1       537 0.00000E+00 0.00000E+00 0.00000E+00 0.00000E+00 0.00000E+00 0.00000E+00
 -1       538 0.00000E+00 0.00000E+00 0.00000E+00 0.00000E+00 0.00000E+00 0.00000E+00
 -1       539 0.00000E+00 0.00000E+00 0.00000E+00 0.00000E+00 0.00000E+00 0.00000E+00
 -1       540 0.00000E+00 0.00000E+00 0.00000E+00 0.00000E+00 0.00000E+00 0.00000E+00
 -1       541 0.00000E+00 0.00000E+00 0.00000E+00 0.00000E+00 0.00000E+00 0.00000E+00
 -1       542 0.00000E+00 0.00000E+00 0.00000E+00 0.00000E+00 0.00000E+00 0.00000E+00
 -1       543 0.00000E+00 0.00000E+00 0.00000E+00 0.00000E+00 0.00000E+00 0.00000E+00
 -1       544 0.00000E+00 0.00000E+00 0.00000E+00 0.00000E+00 0.00000E+00 0.00000E+00
 -1       545 0.00000E+00 0.00000E+00 0.00000E+00 0.00000E+00 0.00000E+00 0.00000E+00
 -1       546 0.00000E+00 0.00000E+00 0.00000E+00 0.00000E+00 0.00000E+00 0.00000E+00
 -1       547 0.00000E+00 0.00000E+00 0.00000E+00 0.00000E+00 0.00000E+00 0.00000E+00
 -1       548 0.00000E+00 0.00000E+00 0.00000E+00 0.00000E+00 0.00000E+00 0.00000E+00
 -1       549 0.00000E+00 0.00000E+00 0.00000E+00 0.00000E+00 0.00000E+00 0.00000E+00
 -1       550 0.00000E+00 0.00000E+00 0.00000E+00 0.00000E+00 0.00000E+00 0.00000E+00
 -1       551 0.00000E+00 0.00000E+00 0.00000E+00 0.00000E+00 0.00000E+00 0.00000E+00
 -1       552 0.00000E+00 0.00000E+00 0.00000E+00 0.00000E+00 0.00000E+00 0.00000E+00
 -1       553 0.00000E+00 0.00000E+00 0.00000E+00 0.00000E+00 0.00000E+00 0.00000E+00
 -1       554 0.00000E+00 0.00000E+00 0.00000E+00 0.00000E+00 0.00000E+00 0.00000E+00
 -1       555 0.00000E+00 0.00000E+00 0.00000E+00 0.00000E+00 0.00000E+00 0.00000E+00
 -1       556 0.00000E+00 0.00000E+00 0.00000E+00 0.00000E+00 0.00000E+00 0.00000E+00
 -1       557 0.00000E+00 0.00000E+00 0.00000E+00 0.00000E+00 0.00000E+00 0.00000E+00
 -1       558 0.00000E+00 0.00000E+00 0.00000E+00 0.00000E+00 0.00000E+00 0.00000E+00
 -1       559 0.00000E+00 0.00000E+00 0.00000E+00 0.00000E+00 0.00000E+00 0.00000E+00
 -1       560 0.00000E+00 0.00000E+00 0.00000E+00 0.00000E+00 0.00000E+00 0.00000E+00
 -1       561 0.00000E+00 0.00000E+00 0.00000E+00 0.00000E+00 0.00000E+00 0.00000E+00
 -1       562 0.00000E+00 0.00000E+00 0.00000E+00 0.00000E+00 0.00000E+00 0.00000E+00
 -1       563 0.00000E+00 0.00000E+00 0.00000E+00 0.00000E+00 0.00000E+00 0.00000E+00
 -1       564 0.00000E+00 0.00000E+00 0.00000E+00 0.00000E+00 0.00000E+00 0.00000E+00
 -1       565 0.00000E+00 0.00000E+00 0.00000E+00 0.00000E+00 0.00000E+00 0.00000E+00
 -1       566 0.00000E+00 0.00000E+00 0.00000E+00 0.00000E+00 0.00000E+00 0.00000E+00
 -1       567 0.00000E+00 0.00000E+00 0.00000E+00 0.00000E+00 0.00000E+00 0.00000E+00
 -1       568 0.00000E+00 0.00000E+00 0.00000E+00 0.00000E+00 0.00000E+00 0.00000E+00
 -1       569 0.00000E+00 0.00000E+00 0.00000E+00 0.00000E+00 0.00000E+00 0.00000E+00
 -1       570 0.00000E+00 0.00000E+00 0.00000E+00 0.00000E+00 0.00000E+00 0.00000E+00
 -1       571 0.00000E+00 0.00000E+00 0.00000E+00 0.00000E+00 0.00000E+00 0.00000E+00
 -1       572 0.00000E+00 0.00000E+00 0.00000E+00 0.00000E+00 0.00000E+00 0.00000E+00
 -1       573 0.00000E+00 0.00000E+00 0.00000E+00 0.00000E+00 0.00000E+00 0.00000E+00
 -1       574 0.00000E+00 0.00000E+00 0.00000E+00 0.00000E+00 0.00000E+00 0.00000E+00
 -1       575 0.00000E+00 0.00000E+00 0.00000E+00 0.00000E+00 0.00000E+00 0.00000E+00
 -1       576 0.00000E+00 0.00000E+00 0.00000E+00 0.00000E+00 0.00000E+00 0.00000E+00
 -1       577 0.00000E+00 0.00000E+00 0.00000E+00 0.00000E+00 0.00000E+00 0.00000E+00
 -1       578 0.00000E+00 0.00000E+00 0.00000E+00 0.00000E+00 0.00000E+00 0.00000E+00
 -1       579 0.00000E+00 0.00000E+00 0.00000E+00 0.00000E+00 0.00000E+00 0.00000E+00
 -1       580 0.00000E+00 0.00000E+00 0.00000E+00 0.00000E+00 0.00000E+00 0.00000E+00
 -1       581 0.00000E+00 0.00000E+00 0.00000E+00 0.00000E+00 0.00000E+00 0.00000E+00
 -1       582 0.00000E+00 0.00000E+00 0.00000E+00 0.00000E+00 0.00000E+00 0.00000E+00
 -1       583 0.00000E+00 0.00000E+00 0.00000E+00 0.00000E+00 0.00000E+00 0.00000E+00
 -1       584 0.00000E+00 0.00000E+00 0.00000E+00 0.00000E+00 0.00000E+00 0.00000E+00
 -1       585 0.00000E+00 0.00000E+00 0.00000E+00 0.00000E+00 0.00000E+00 0.00000E+00
 -1       586 0.00000E+00 0.00000E+00 0.00000E+00 0.00000E+00 0.00000E+00 0.00000E+00
 -1       587 0.00000E+00 0.00000E+00 0.00000E+00 0.00000E+00 0.00000E+00 0.00000E+00
 -1       588 0.00000E+00 0.00000E+00 0.00000E+00 0.00000E+00 0.00000E+00 0.00000E+00
 -1       589 0.00000E+00 0.00000E+00 0.00000E+00 0.00000E+00 0.00000E+00 0.00000E+00
 -1       590 0.00000E+00 0.00000E+00 0.00000E+00 0.00000E+00 0.00000E+00 0.00000E+00
 -1       591 0.00000E+00 0.00000E+00 0.00000E+00 0.00000E+00 0.00000E+00 0.00000E+00
 -1       592 0.00000E+00 0.00000E+00 0.00000E+00 0.00000E+00 0.00000E+00 0.00000E+00
 -1       593 0.00000E+00 0.00000E+00 0.00000E+00 0.00000E+00 0.00000E+00 0.00000E+00
 -1       594 0.00000E+00 0.00000E+00 0.00000E+00 0.00000E+00 0.00000E+00 0.00000E+00
 -1       595 0.00000E+00 0.00000E+00 0.00000E+00 0.00000E+00 0.00000E+00 0.00000E+00
 -1       596 0.00000E+00 0.00000E+00 0.00000E+00 0.00000E+00 0.00000E+00 0.00000E+00
 -1       597 0.00000E+00 0.00000E+00 0.00000E+00 0.00000E+00 0.00000E+00 0.00000E+00
 -1       598 0.00000E+00 0.00000E+00 0.00000E+00 0.00000E+00 0.00000E+00 0.00000E+00
 -1       599 0.00000E+00 0.00000E+00 0.00000E+00 0.00000E+00 0.00000E+00 0.00000E+00
 -1       600 0.00000E+00 0.00000E+00 0.00000E+00 0.00000E+00 0.00000E+00 0.00000E+00
 -1       601 0.00000E+00 0.00000E+00 0.00000E+00 0.00000E+00 0.00000E+00 0.00000E+00
 -1       602 0.00000E+00 0.00000E+00 0.00000E+00 0.00000E+00 0.00000E+00 0.00000E+00
 -1       603 0.00000E+00 0.00000E+00 0.00000E+00 0.00000E+00 0.00000E+00 0.00000E+00
 -1       604 0.00000E+00 0.00000E+00 0.00000E+00 0.00000E+00 0.00000E+00 0.00000E+00
 -1       605 0.00000E+00 0.00000E+00 0.00000E+00 0.00000E+00 0.00000E+00 0.00000E+00
 -1       606 0.00000E+00 0.00000E+00 0.00000E+00 0.00000E+00 0.00000E+00 0.00000E+00
 -1       607 0.00000E+00 0.00000E+00 0.00000E+00 0.00000E+00 0.00000E+00 0.00000E+00
 -1       608 0.00000E+00 0.00000E+00 0.00000E+00 0.00000E+00 0.00000E+00 0.00000E+00
 -1       609 0.00000E+00 0.00000E+00 0.00000E+00 0.00000E+00 0.00000E+00 0.00000E+00
 -1       610 0.00000E+00 0.00000E+00 0.00000E+00 0.00000E+00 0.00000E+00 0.00000E+00
 -1       611 0.00000E+00 0.00000E+00 0.00000E+00 0.00000E+00 0.00000E+00 0.00000E+00
 -1       612 0.00000E+00 0.00000E+00 0.00000E+00 0.00000E+00 0.00000E+00 0.00000E+00
 -1       613 0.00000E+00 0.00000E+00 0.00000E+00 0.00000E+00 0.00000E+00 0.00000E+00
 -1       614 0.00000E+00 0.00000E+00 0.00000E+00 0.00000E+00 0.00000E+00 0.00000E+00
 -1       615 0.00000E+00 0.00000E+00 0.00000E+00 0.00000E+00 0.00000E+00 0.00000E+00
 -1       616 0.00000E+00 0.00000E+00 0.00000E+00 0.00000E+00 0.00000E+00 0.00000E+00
 -1       617 0.00000E+00 0.00000E+00 0.00000E+00 0.00000E+00 0.00000E+00 0.00000E+00
 -1       618 0.00000E+00 0.00000E+00 0.00000E+00 0.00000E+00 0.00000E+00 0.00000E+00
 -1       619 0.00000E+00 0.00000E+00 0.00000E+00 0.00000E+00 0.00000E+00 0.00000E+00
 -1       620 0.00000E+00 0.00000E+00 0.00000E+00 0.00000E+00 0.00000E+00 0.00000E+00
 -1       621 0.00000E+00 0.00000E+00 0.00000E+00 0.00000E+00 0.00000E+00 0.00000E+00
 -1       622 0.00000E+00 0.00000E+00 0.00000E+00 0.00000E+00 0.00000E+00 0.00000E+00
 -1       623 0.00000E+00 0.00000E+00 0.00000E+00 0.00000E+00 0.00000E+00 0.00000E+00
 -1       624 0.00000E+00 0.00000E+00 0.00000E+00 0.00000E+00 0.00000E+00 0.00000E+00
 -1       625 0.00000E+00 0.00000E+00 0.00000E+00 0.00000E+00 0.00000E+00 0.00000E+00
 -1       626 0.00000E+00 0.00000E+00 0.00000E+00 0.00000E+00 0.00000E+00 0.00000E+00
 -1       627 0.00000E+00 0.00000E+00 0.00000E+00 0.00000E+00 0.00000E+00 0.00000E+00
 -1       628 0.00000E+00 0.00000E+00 0.00000E+00 0.00000E+00 0.00000E+00 0.00000E+00
 -1       629 0.00000E+00 0.00000E+00 0.00000E+00 0.00000E+00 0.00000E+00 0.00000E+00
 -1       630 0.00000E+00 0.00000E+00 0.00000E+00 0.00000E+00 0.00000E+00 0.00000E+00
 -1       631 0.00000E+00 0.00000E+00 0.00000E+00 0.00000E+00 0.00000E+00 0.00000E+00
 -1       632 0.00000E+00 0.00000E+00 0.00000E+00 0.00000E+00 0.00000E+00 0.00000E+00
 -1       633 0.00000E+00 0.00000E+00 0.00000E+00 0.00000E+00 0.00000E+00 0.00000E+00
 -1       634 0.00000E+00 0.00000E+00 0.00000E+00 0.00000E+00 0.00000E+00 0.00000E+00
 -1       635 0.00000E+00 0.00000E+00 0.00000E+00 0.00000E+00 0.00000E+00 0.00000E+00
 -1       636 0.00000E+00 0.00000E+00 0.00000E+00 0.00000E+00 0.00000E+00 0.00000E+00
 -1       637 0.00000E+00 0.00000E+00 0.00000E+00 0.00000E+00 0.00000E+00 0.00000E+00
 -1       638 0.00000E+00 0.00000E+00 0.00000E+00 0.00000E+00 0.00000E+00 0.00000E+00
 -1       639 0.00000E+00 0.00000E+00 0.00000E+00 0.00000E+00 0.00000E+00 0.00000E+00
 -1       640 0.00000E+00 0.00000E+00 0.00000E+00 0.00000E+00 0.00000E+00 0.00000E+00
 -1       641 0.00000E+00 0.00000E+00 0.00000E+00 0.00000E+00 0.00000E+00 0.00000E+00
 -1       642 0.00000E+00 0.00000E+00 0.00000E+00 0.00000E+00 0.00000E+00 0.00000E+00
 -1       643 0.00000E+00 0.00000E+00 0.00000E+00 0.00000E+00 0.00000E+00 0.00000E+00
 -1       644 0.00000E+00 0.00000E+00 0.00000E+00 0.00000E+00 0.00000E+00 0.00000E+00
 -1       645 0.00000E+00 0.00000E+00 0.00000E+00 0.00000E+00 0.00000E+00 0.00000E+00
 -1       646 0.00000E+00 0.00000E+00 0.00000E+00 0.00000E+00 0.00000E+00 0.00000E+00
 -1       647 0.00000E+00 0.00000E+00 0.00000E+00 0.00000E+00 0.00000E+00 0.00000E+00
 -1       648 0.00000E+00 0.00000E+00 0.00000E+00 0.00000E+00 0.00000E+00 0.00000E+00
 -1       649 0.00000E+00 0.00000E+00 0.00000E+00 0.00000E+00 0.00000E+00 0.00000E+00
 -1       650 0.00000E+00 0.00000E+00 0.00000E+00 0.00000E+00 0.00000E+00 0.00000E+00
 -1       651 0.00000E+00 0.00000E+00 0.00000E+00 0.00000E+00 0.00000E+00 0.00000E+00
 -1       652 0.00000E+00 0.00000E+00 0.00000E+00 0.00000E+00 0.00000E+00 0.00000E+00
 -1       653 0.00000E+00 0.00000E+00 0.00000E+00 0.00000E+00 0.00000E+00 0.00000E+00
 -1       654 0.00000E+00 0.00000E+00 0.00000E+00 0.00000E+00 0.00000E+00 0.00000E+00
 -1       655 0.00000E+00 0.00000E+00 0.00000E+00 0.00000E+00 0.00000E+00 0.00000E+00
 -1       656 0.00000E+00 0.00000E+00 0.00000E+00 0.00000E+00 0.00000E+00 0.00000E+00
 -1       657 0.00000E+00 0.00000E+00 0.00000E+00 0.00000E+00 0.00000E+00 0.00000E+00
 -1       658 0.00000E+00 0.00000E+00 0.00000E+00 0.00000E+00 0.00000E+00 0.00000E+00
 -1       659 0.00000E+00 0.00000E+00 0.00000E+00 0.00000E+00 0.00000E+00 0.00000E+00
 -1       660 0.00000E+00 0.00000E+00 0.00000E+00 0.00000E+00 0.00000E+00 0.00000E+00
 -1       661 0.00000E+00 0.00000E+00 0.00000E+00 0.00000E+00 0.00000E+00 0.00000E+00
 -1       662 0.00000E+00 0.00000E+00 0.00000E+00 0.00000E+00 0.00000E+00 0.00000E+00
 -1       663 0.00000E+00 0.00000E+00 0.00000E+00 0.00000E+00 0.00000E+00 0.00000E+00
 -1       664 0.00000E+00 0.00000E+00 0.00000E+00 0.00000E+00 0.00000E+00 0.00000E+00
 -1       665 0.00000E+00 0.00000E+00 0.00000E+00 0.00000E+00 0.00000E+00 0.00000E+00
 -1       666 0.00000E+00 0.00000E+00 0.00000E+00 0.00000E+00 0.00000E+00 0.00000E+00
 -1       667 0.00000E+00 0.00000E+00 0.00000E+00 0.00000E+00 0.00000E+00 0.00000E+00
 -1       668 0.00000E+00 0.00000E+00 0.00000E+00 0.00000E+00 0.00000E+00 0.00000E+00
 -1       669 0.00000E+00 0.00000E+00 0.00000E+00 0.00000E+00 0.00000E+00 0.00000E+00
 -1       670 0.00000E+00 0.00000E+00 0.00000E+00 0.00000E+00 0.00000E+00 0.00000E+00
 -1       671 0.00000E+00 0.00000E+00 0.00000E+00 0.00000E+00 0.00000E+00 0.00000E+00
 -1       672 0.00000E+00 0.00000E+00 0.00000E+00 0.00000E+00 0.00000E+00 0.00000E+00
 -1       673 0.00000E+00 0.00000E+00 0.00000E+00 0.00000E+00 0.00000E+00 0.00000E+00
 -1       674 0.00000E+00 0.00000E+00 0.00000E+00 0.00000E+00 0.00000E+00 0.00000E+00
 -1       675 0.00000E+00 0.00000E+00 0.00000E+00 0.00000E+00 0.00000E+00 0.00000E+00
 -1       676 0.00000E+00 0.00000E+00 0.00000E+00 0.00000E+00 0.00000E+00 0.00000E+00
 -1       677 0.00000E+00 0.00000E+00 0.00000E+00 0.00000E+00 0.00000E+00 0.00000E+00
 -1       678 0.00000E+00 0.00000E+00 0.00000E+00 0.00000E+00 0.00000E+00 0.00000E+00
 -1       679 0.00000E+00 0.00000E+00 0.00000E+00 0.00000E+00 0.00000E+00 0.00000E+00
 -1       680 0.00000E+00 0.00000E+00 0.00000E+00 0.00000E+00 0.00000E+00 0.00000E+00
 -1       681 0.00000E+00 0.00000E+00 0.00000E+00 0.00000E+00 0.00000E+00 0.00000E+00
 -1       682 0.00000E+00 0.00000E+00 0.00000E+00 0.00000E+00 0.00000E+00 0.00000E+00
 -1       683 0.00000E+00 0.00000E+00 0.00000E+00 0.00000E+00 0.00000E+00 0.00000E+00
 -1       684 0.00000E+00 0.00000E+00 0.00000E+00 0.00000E+00 0.00000E+00 0.00000E+00
 -1       685 0.00000E+00 0.00000E+00 0.00000E+00 0.00000E+00 0.00000E+00 0.00000E+00
 -1       686 0.00000E+00 0.00000E+00 0.00000E+00 0.00000E+00 0.00000E+00 0.00000E+00
 -1       687 0.00000E+00 0.00000E+00 0.00000E+00 0.00000E+00 0.00000E+00 0.00000E+00
 -1       688 0.00000E+00 0.00000E+00 0.00000E+00 0.00000E+00 0.00000E+00 0.00000E+00
 -1       689 0.00000E+00 0.00000E+00 0.00000E+00 0.00000E+00 0.00000E+00 0.00000E+00
 -1       690 0.00000E+00 0.00000E+00 0.00000E+00 0.00000E+00 0.00000E+00 0.00000E+00
 -1       691 0.00000E+00 0.00000E+00 0.00000E+00 0.00000E+00 0.00000E+00 0.00000E+00
 -1       692 0.00000E+00 0.00000E+00 0.00000E+00 0.00000E+00 0.00000E+00 0.00000E+00
 -1       693 0.00000E+00 0.00000E+00 0.00000E+00 0.00000E+00 0.00000E+00 0.00000E+00
 -1       694 0.00000E+00 0.00000E+00 0.00000E+00 0.00000E+00 0.00000E+00 0.00000E+00
 -1       695 0.00000E+00 0.00000E+00 0.00000E+00 0.00000E+00 0.00000E+00 0.00000E+00
 -1       696 0.00000E+00 0.00000E+00 0.00000E+00 0.00000E+00 0.00000E+00 0.00000E+00
 -1       697 0.00000E+00 0.00000E+00 0.00000E+00 0.00000E+00 0.00000E+00 0.00000E+00
 -1       698 0.00000E+00 0.00000E+00 0.00000E+00 0.00000E+00 0.00000E+00 0.00000E+00
 -1       699 0.00000E+00 0.00000E+00 0.00000E+00 0.00000E+00 0.00000E+00 0.00000E+00
 -1       700 0.00000E+00 0.00000E+00 0.00000E+00 0.00000E+00 0.00000E+00 0.00000E+00
 -1       701 0.00000E+00 0.00000E+00 0.00000E+00 0.00000E+00 0.00000E+00 0.00000E+00
 -1       702 0.00000E+00 0.00000E+00 0.00000E+00 0.00000E+00 0.00000E+00 0.00000E+00
 -1       703 0.00000E+00 0.00000E+00 0.00000E+00 0.00000E+00 0.00000E+00 0.00000E+00
 -1       704 0.00000E+00 0.00000E+00 0.00000E+00 0.00000E+00 0.00000E+00 0.00000E+00
 -1       705 0.00000E+00 0.00000E+00 0.00000E+00 0.00000E+00 0.00000E+00 0.00000E+00
 -1       706 0.00000E+00 0.00000E+00 0.00000E+00 0.00000E+00 0.00000E+00 0.00000E+00
 -1       707 0.00000E+00 0.00000E+00 0.00000E+00 0.00000E+00 0.00000E+00 0.00000E+00
 -1       708 0.00000E+00 0.00000E+00 0.00000E+00 0.00000E+00 0.00000E+00 0.00000E+00
 -1       709 0.00000E+00 0.00000E+00 0.00000E+00 0.00000E+00 0.00000E+00 0.00000E+00
 -1       710 0.00000E+00 0.00000E+00 0.00000E+00 0.00000E+00 0.00000E+00 0.00000E+00
 -1       711 0.00000E+00 0.00000E+00 0.00000E+00 0.00000E+00 0.00000E+00 0.00000E+00
 -1       712 0.00000E+00 0.00000E+00 0.00000E+00 0.00000E+00 0.00000E+00 0.00000E+00
 -1       713 0.00000E+00 0.00000E+00 0.00000E+00 0.00000E+00 0.00000E+00 0.00000E+00
 -1       714 0.00000E+00 0.00000E+00 0.00000E+00 0.00000E+00 0.00000E+00 0.00000E+00
 -1       715 0.00000E+00 0.00000E+00 0.00000E+00 0.00000E+00 0.00000E+00 0.00000E+00
 -1       716 0.00000E+00 0.00000E+00 0.00000E+00 0.00000E+00 0.00000E+00 0.00000E+00
 -1       717 0.00000E+00 0.00000E+00 0.00000E+00 0.00000E+00 0.00000E+00 0.00000E+00
 -1       718 0.00000E+00 0.00000E+00 0.00000E+00 0.00000E+00 0.00000E+00 0.00000E+00
 -1       719 0.00000E+00 0.00000E+00 0.00000E+00 0.00000E+00 0.00000E+00 0.00000E+00
 -1       720 0.00000E+00 0.00000E+00 0.00000E+00 0.00000E+00 0.00000E+00 0.00000E+00
 -1       721 0.00000E+00 0.00000E+00 0.00000E+00 0.00000E+00 0.00000E+00 0.00000E+00
 -1       722 0.00000E+00 0.00000E+00 0.00000E+00 0.00000E+00 0.00000E+00 0.00000E+00
 -1       723 0.00000E+00 0.00000E+00 0.00000E+00 0.00000E+00 0.00000E+00 0.00000E+00
 -1       724 0.00000E+00 0.00000E+00 0.00000E+00 0.00000E+00 0.00000E+00 0.00000E+00
 -1       725 0.00000E+00 0.00000E+00 0.00000E+00 0.00000E+00 0.00000E+00 0.00000E+00
 -1       726 0.00000E+00 0.00000E+00 0.00000E+00 0.00000E+00 0.00000E+00 0.00000E+00
 -1       727 0.00000E+00 0.00000E+00 0.00000E+00 0.00000E+00 0.00000E+00 0.00000E+00
 -1       728 0.00000E+00 0.00000E+00 0.00000E+00 0.00000E+00 0.00000E+00 0.00000E+00
 -1       729 0.00000E+00 0.00000E+00 0.00000E+00 0.00000E+00 0.00000E+00 0.00000E+00
 -1       730 0.00000E+00 0.00000E+00 0.00000E+00 0.00000E+00 0.00000E+00 0.00000E+00
 -1       731 0.00000E+00 0.00000E+00 0.00000E+00 0.00000E+00 0.00000E+00 0.00000E+00
 -1       732 0.00000E+00 0.00000E+00 0.00000E+00 0.00000E+00 0.00000E+00 0.00000E+00
 -1       733 0.00000E+00 0.00000E+00 0.00000E+00 0.00000E+00 0.00000E+00 0.00000E+00
 -1       734 0.00000E+00 0.00000E+00 0.00000E+00 0.00000E+00 0.00000E+00 0.00000E+00
 -1       735 0.00000E+00 0.00000E+00 0.00000E+00 0.00000E+00 0.00000E+00 0.00000E+00
 -1       736 0.00000E+00 0.00000E+00 0.00000E+00 0.00000E+00 0.00000E+00 0.00000E+00
 -1       737 0.00000E+00 0.00000E+00 0.00000E+00 0.00000E+00 0.00000E+00 0.00000E+00
 -1       738 0.00000E+00 0.00000E+00 0.00000E+00 0.00000E+00 0.00000E+00 0.00000E+00
 -1       739 0.00000E+00 0.00000E+00 0.00000E+00 0.00000E+00 0.00000E+00 0.00000E+00
 -1       740 0.00000E+00 0.00000E+00 0.00000E+00 0.00000E+00 0.00000E+00 0.00000E+00
 -1       741 0.00000E+00 0.00000E+00 0.00000E+00 0.00000E+00 0.00000E+00 0.00000E+00
 -1       742 0.00000E+00 0.00000E+00 0.00000E+00 0.00000E+00 0.00000E+00 0.00000E+00
 -1       743 0.00000E+00 0.00000E+00 0.00000E+00 0.00000E+00 0.00000E+00 0.00000E+00
 -1       744 0.00000E+00 0.00000E+00 0.00000E+00 0.00000E+00 0.00000E+00 0.00000E+00
 -1       745 0.00000E+00 0.00000E+00 0.00000E+00 0.00000E+00 0.00000E+00 0.00000E+00
 -1       746 0.00000E+00 0.00000E+00 0.00000E+00 0.00000E+00 0.00000E+00 0.00000E+00
 -1       747 0.00000E+00 0.00000E+00 0.00000E+00 0.00000E+00 0.00000E+00 0.00000E+00
 -1       748 0.00000E+00 0.00000E+00 0.00000E+00 0.00000E+00 0.00000E+00 0.00000E+00
 -1       749 0.00000E+00 0.00000E+00 0.00000E+00 0.00000E+00 0.00000E+00 0.00000E+00
 -1       750 0.00000E+00 0.00000E+00 0.00000E+00 0.00000E+00 0.00000E+00 0.00000E+00
 -1       751 0.00000E+00 0.00000E+00 0.00000E+00 0.00000E+00 0.00000E+00 0.00000E+00
 -1       752 0.00000E+00 0.00000E+00 0.00000E+00 0.00000E+00 0.00000E+00 0.00000E+00
 -1       753 0.00000E+00 0.00000E+00 0.00000E+00 0.00000E+00 0.00000E+00 0.00000E+00
 -1       754 0.00000E+00 0.00000E+00 0.00000E+00 0.00000E+00 0.00000E+00 0.00000E+00
 -1       755 0.00000E+00 0.00000E+00 0.00000E+00 0.00000E+00 0.00000E+00 0.00000E+00
 -1       756 0.00000E+00 0.00000E+00 0.00000E+00 0.00000E+00 0.00000E+00 0.00000E+00
 -1       757 0.00000E+00 0.00000E+00 0.00000E+00 0.00000E+00 0.00000E+00 0.00000E+00
 -1       758 0.00000E+00 0.00000E+00 0.00000E+00 0.00000E+00 0.00000E+00 0.00000E+00
 -1       759 0.00000E+00 0.00000E+00 0.00000E+00 0.00000E+00 0.00000E+00 0.00000E+00
 -1       760 0.00000E+00 0.00000E+00 0.00000E+00 0.00000E+00 0.00000E+00 0.00000E+00
 -1       761 0.00000E+00 0.00000E+00 0.00000E+00 0.00000E+00 0.00000E+00 0.00000E+00
 -1       762 0.00000E+00 0.00000E+00 0.00000E+00 0.00000E+00 0.00000E+00 0.00000E+00
 -1       763 0.00000E+00 0.00000E+00 0.00000E+00 0.00000E+00 0.00000E+00 0.00000E+00
 -1       764 0.00000E+00 0.00000E+00 0.00000E+00 0.00000E+00 0.00000E+00 0.00000E+00
 -1       765 0.00000E+00 0.00000E+00 0.00000E+00 0.00000E+00 0.00000E+00 0.00000E+00
 -1       766 0.00000E+00 0.00000E+00 0.00000E+00 0.00000E+00 0.00000E+00 0.00000E+00
 -1       767 0.00000E+00 0.00000E+00 0.00000E+00 0.00000E+00 0.00000E+00 0.00000E+00
 -1       768 0.00000E+00 0.00000E+00 0.00000E+00 0.00000E+00 0.00000E+00 0.00000E+00
 -1       769 0.00000E+00 0.00000E+00 0.00000E+00 0.00000E+00 0.00000E+00 0.00000E+00
 -1       770 0.00000E+00 0.00000E+00 0.00000E+00 0.00000E+00 0.00000E+00 0.00000E+00
 -1       771 0.00000E+00 0.00000E+00 0.00000E+00 0.00000E+00 0.00000E+00 0.00000E+00
 -1       772 0.00000E+00 0.00000E+00 0.00000E+00 0.00000E+00 0.00000E+00 0.00000E+00
 -1       773 0.00000E+00 0.00000E+00 0.00000E+00 0.00000E+00 0.00000E+00 0.00000E+00
 -1       774 0.00000E+00 0.00000E+00 0.00000E+00 0.00000E+00 0.00000E+00 0.00000E+00
 -1       775 0.00000E+00 0.00000E+00 0.00000E+00 0.00000E+00 0.00000E+00 0.00000E+00
 -1       776 0.00000E+00 0.00000E+00 0.00000E+00 0.00000E+00 0.00000E+00 0.00000E+00
 -1       777 0.00000E+00 0.00000E+00 0.00000E+00 0.00000E+00 0.00000E+00 0.00000E+00
 -1       778 0.00000E+00 0.00000E+00 0.00000E+00 0.00000E+00 0.00000E+00 0.00000E+00
 -1       779 0.00000E+00 0.00000E+00 0.00000E+00 0.00000E+00 0.00000E+00 0.00000E+00
 -1       780 0.00000E+00 0.00000E+00 0.00000E+00 0.00000E+00 0.00000E+00 0.00000E+00
 -1       781 0.00000E+00 0.00000E+00 0.00000E+00 0.00000E+00 0.00000E+00 0.00000E+00
 -1       782 0.00000E+00 0.00000E+00 0.00000E+00 0.00000E+00 0.00000E+00 0.00000E+00
 -1       783 0.00000E+00 0.00000E+00 0.00000E+00 0.00000E+00 0.00000E+00 0.00000E+00
 -1       784 0.00000E+00 0.00000E+00 0.00000E+00 0.00000E+00 0.00000E+00 0.00000E+00
 -1       785 0.00000E+00 0.00000E+00 0.00000E+00 0.00000E+00 0.00000E+00 0.00000E+00
 -1       786 0.00000E+00 0.00000E+00 0.00000E+00 0.00000E+00 0.00000E+00 0.00000E+00
 -1       787 0.00000E+00 0.00000E+00 0.00000E+00 0.00000E+00 0.00000E+00 0.00000E+00
 -1       788 0.00000E+00 0.00000E+00 0.00000E+00 0.00000E+00 0.00000E+00 0.00000E+00
 -1       789 0.00000E+00 0.00000E+00 0.00000E+00 0.00000E+00 0.00000E+00 0.00000E+00
 -1       790 0.00000E+00 0.00000E+00 0.00000E+00 0.00000E+00 0.00000E+00 0.00000E+00
 -1       791 0.00000E+00 0.00000E+00 0.00000E+00 0.00000E+00 0.00000E+00 0.00000E+00
 -1       792 0.00000E+00 0.00000E+00 0.00000E+00 0.00000E+00 0.00000E+00 0.00000E+00
 -1       793 0.00000E+00 0.00000E+00 0.00000E+00 0.00000E+00 0.00000E+00 0.00000E+00
 -1       794 0.00000E+00 0.00000E+00 0.00000E+00 0.00000E+00 0.00000E+00 0.00000E+00
 -1       795 0.00000E+00 0.00000E+00 0.00000E+00 0.00000E+00 0.00000E+00 0.00000E+00
 -1       796 0.00000E+00 0.00000E+00 0.00000E+00 0.00000E+00 0.00000E+00 0.00000E+00
 -1       797 0.00000E+00 0.00000E+00 0.00000E+00 0.00000E+00 0.00000E+00 0.00000E+00
 -1       798 0.00000E+00 0.00000E+00 0.00000E+00 0.00000E+00 0.00000E+00 0.00000E+00
 -1       799 0.00000E+00 0.00000E+00 0.00000E+00 0.00000E+00 0.00000E+00 0.00000E+00
 -1       800 0.00000E+00 0.00000E+00 0.00000E+00 0.00000E+00 0.00000E+00 0.00000E+00
 -1       801 0.00000E+00 0.00000E+00 0.00000E+00 0.00000E+00 0.00000E+00 0.00000E+00
 -1       802 0.00000E+00 0.00000E+00 0.00000E+00 0.00000E+00 0.00000E+00 0.00000E+00
 -1       803 0.00000E+00 0.00000E+00 0.00000E+00 0.00000E+00 0.00000E+00 0.00000E+00
 -1       804 0.00000E+00 0.00000E+00 0.00000E+00 0.00000E+00 0.00000E+00 0.00000E+00
 -1       805 0.00000E+00 0.00000E+00 0.00000E+00 0.00000E+00 0.00000E+00 0.00000E+00
 -1       806 0.00000E+00 0.00000E+00 0.00000E+00 0.00000E+00 0.00000E+00 0.00000E+00
 -1       807 0.00000E+00 0.00000E+00 0.00000E+00 0.00000E+00 0.00000E+00 0.00000E+00
 -1       808 0.00000E+00 0.00000E+00 0.00000E+00 0.00000E+00 0.00000E+00 0.00000E+00
 -3
    1PSTEP                        10           2           1          
  100CL  102 1.000000000         807                     0    2           1
 -4  ERROR       1    1
 -5  STR(%)      1    1    0    0
 -1         1 3.74515E+01
 -1         2 3.41387E+01
 -1         3 4.15401E+01
 -1         4 5.79805E+01
 -1         5 6.04830E+01
 -1         6 6.13518E+01
 -1         7 6.13518E+01
 -1         8 5.95831E+01
 -1         9 5.84953E+01
 -1        10 5.71489E+01
 -1        11 5.58340E+01
 -1        12 5.44296E+01
 -1        13 5.29612E+01
 -1        14 5.14159E+01
 -1        15 4.98000E+01
 -1        16 4.81207E+01
 -1        17 4.63912E+01
 -1        18 4.46296E+01
 -1        19 4.28576E+01
 -1        20 4.11242E+01
 -1        21 3.93831E+01
 -1        22 3.87031E+01
 -1        23 3.41387E+01
 -1        24 2.56390E+01
 -1        25 2.05121E+01
 -1        26 1.73903E+01
 -1        27 1.54684E+01
 -1        28 1.42324E+01
 -1        29 1.34100E+01
 -1        30 1.28419E+01
 -1        31 1.24207E+01
 -1        32 1.20595E+01
 -1        33 1.16739E+01
 -1        34 1.11697E+01
 -1        35 1.04354E+01
 -1        36 9.33809E+00
 -1        37 7.71551E+00
 -1        38 5.55396E+00
 -1        39 0.00000E+00
 -1        40 3.74515E+01
 -1        41 1.95176E+01
 -1        42 9.02608E+00
 -1        43 6.16673E+00
 -1        44 4.43641E+00
 -1        45 3.37116E+00
 -1        46 2.67479E+00
 -1        47 2.19894E+00
 -1        48 1.85605E+00
 -1        49 1.59516E+00
 -1        50 1.38387E+00
 -1        51 1.20017E+00
 -1        52 1.02753E+00
 -1        53 8.51707E-01
 -1        54 6.56741E-01
 -1        55 4.58415E-01
 -1        56 4.15401E+01
 -1        57 3.98254E+01
 -1        58 2.71696E+01
 -1        59 1.68603E+01
 -1        60 9.94529E+00
 -1        61 5.69870E+00
 -1        62 3.99738E+00
 -1        63 3.09686E+00
 -1        64 2.45507E+00
 -1        65 1.98567E+00
 -1        66 1.62972E+00
 -1        67 1.34623E+00
 -1        68 1.10565E+00
 -1        69 8.84969E-01
 -1        70 6.62649E-01
 -1        71 4.58415E-01
 -1        72 5.79805E+01
 -1        73 3.98254E+01
 -1        74 3.13656E+01
 -1        75 2.49781E+01
 -1        76 1.78435E+01
 -1        77 1.19613E+01
 -1        78 7.70416E+00
 -1        79 4.78649E+00
 -1        80 2.86621E+00
 -1        81 2.18644E+00
 -1        82 1.74708E+00
 -1        83 1.40026E+00
 -1        84 1.11503E+00
 -1        85 8.84969E-01
 -1        86 6.62649E-01
 -1        87 4.50802E-01
 -1        88 6.04830E+01
 -1        89 3.13656E+01
 -1        90 3.13656E+01
 -1        91 2.49781E+01
 -1        92 2.16833E+01
 -1        93 1.68194E+01
 -1        94 1.21705E+01
 -1        95 8.39045E+00
 -1        96 5.55246E+00
 -1        97 3.51308E+00
 -1        98 2.08754E+00
 -1        99 1.40026E+00
 -1       100 1.11503E+00
 -1       101 8.65952E-01
 -1       102 6.29722E-01
 -1       103 4.17238E-01
 -1       104 6.13518E+01
 -1       105 2.28510E+01
 -1       106 2.49599E+01
 -1       107 2.49599E+01
 -1       108 2.16833E+01
 -1       109 1.88517E+01
 -1       110 1.53827E+01
 -1       111 1.16846E+01
 -1       112 8.41235E+00
 -1       113 5.78360E+00
 -1       114 3.79116E+00
 -1       115 2.34067E+00
 -1       116 1.32214E+00
 -1       117 7.75926E-01
 -1       118 5.45142E-01
 -1       119 3.49835E-01
 -1       120 6.13518E+01
 -1       121 2.92294E+01
 -1       122 1.82744E+01
 -1       123 2.07227E+01
 -1       124 2.07227E+01
 -1       125 1.88517E+01
 -1       126 1.65916E+01
 -1       127 1.39632E+01
 -1       128 1.09357E+01
 -1       129 8.08846E+00
 -1       130 5.68491E+00
 -1       131 3.79039E+00
 -1       132 2.37038E+00
 -1       133 1.35409E+00
 -1       134 6.69709E-01
 -1       135 2.40701E-01
 -1       136 5.95831E+01
 -1       137 3.15493E+01
 -1       138 1.54860E+01
 -1       139 1.60011E+01
 -1       140 1.78107E+01
 -1       141 1.78107E+01
 -1       142 1.65916E+01
 -1       143 1.47618E+01
 -1       144 1.26489E+01
 -1       145 1.00849E+01
 -1       146 7.56801E+00
 -1       147 5.36687E+00
 -1       148 3.58291E+00
 -1       149 2.21861E+00
 -1       150 1.23210E+00
 -1       151 5.33724E-01
 -1       152 5.84953E+01
 -1       153 3.26747E+01
 -1       154 1.95831E+01
 -1       155 9.27551E+00
 -1       156 1.42981E+01
 -1       157 1.56615E+01
 -1       158 1.56615E+01
 -1       159 1.47618E+01
 -1       160 1.32181E+01
 -1       161 1.14267E+01
 -1       162 9.18194E+00
 -1       163 6.91414E+00
 -1       164 4.88187E+00
 -1       165 3.20238E+00
 -1       166 1.90038E+00
 -1       167 9.17237E-01
 -1       168 5.71489E+01
 -1       169 3.31246E+01
 -1       170 2.19552E+01
 -1       171 1.29306E+01
 -1       172 9.24740E+00
 -1       173 1.29130E+01
 -1       174 1.39585E+01
 -1       175 1.39585E+01
 -1       176 1.32181E+01
 -1       177 1.18476E+01
 -1       178 1.02560E+01
 -1       179 8.22878E+00
 -1       180 6.14343E+00
 -1       181 4.24319E+00
 -1       182 2.64988E+00
 -1       183 1.36684E+00
 -1       184 5.58340E+01
 -1       185 3.32449E+01
 -1       186 2.33381E+01
 -1       187 1.59368E+01
 -1       188 8.94448E+00
 -1       189 8.88218E+00
 -1       190 1.17102E+01
 -1       191 1.25154E+01
 -1       192 1.25154E+01
 -1       193 1.18476E+01
 -1       194 1.05620E+01
 -1       195 9.08784E+00
 -1       196 7.20223E+00
 -1       197 5.24136E+00
 -1       198 3.43132E+00
 -1       199 1.86471E+00
 -1       200 5.44296E+01
 -1       201 3.32449E+01
 -1       202 2.41385E+01
 -1       203 1.78842E+01
 -1       204 1.22309E+01
 -1       205 6.49146E+00
 -1       206 8.33991E+00
 -1       207 1.06004E+01
 -1       208 1.12108E+01
 -1       209 1.12108E+01
 -1       210 1.05620E+01
 -1       211 9.28689E+00
 -1       212 7.86805E+00
 -1       213 6.05991E+00
 -1       214 4.16493E+00
 -1       215 2.37561E+00
 -1       216 5.29612E+01
 -1       217 3.31534E+01
 -1       218 2.45671E+01
 -1       219 1.91351E+01
 -1       220 1.45099E+01
 -1       221 9.87190E+00
 -1       222 5.01607E+00
 -1       223 7.66947E+00
 -1       224 9.51477E+00
 -1       225 9.95557E+00
 -1       226 9.95557E+00
 -1       227 9.28689E+00
 -1       228 7.95292E+00
 -1       229 6.53372E+00
 -1       230 4.73803E+00
 -1       231 2.84165E+00
 -1       232 5.14159E+01
 -1       233 3.29206E+01
 -1       234 2.47444E+01
 -1       235 1.99107E+01
 -1       236 1.60605E+01
 -1       237 1.23381E+01
 -1       238 8.39924E+00
 -1       239 4.21990E+00
 -1       240 6.87420E+00
 -1       241 8.39369E+00
 -1       242 8.67540E+00
 -1       243 8.67540E+00
 -1       244 7.95292E+00
 -1       245 6.53372E+00
 -1       246 5.00931E+00
 -1       247 3.17862E+00
 -1       248 4.98000E+01
 -1       249 3.25782E+01
 -1       250 2.47444E+01
 -1       251 2.03479E+01
 -1       252 1.70772E+01
 -1       253 1.40824E+01
 -1       254 1.09636E+01
 -1       255 7.56350E+00
 -1       256 3.93479E+00
 -1       257 5.93525E+00
 -1       258 7.18080E+00
 -1       259 7.30199E+00
 -1       260 7.30199E+00
 -1       261 6.48898E+00
 -1       262 5.00931E+00
 -1       263 3.27702E+00
 -1       264 4.81207E+01
 -1       265 3.21430E+01
 -1       266 2.47386E+01
 -1       267 2.05308E+01
 -1       268 1.76913E+01
 -1       269 1.52589E+01
 -1       270 1.28238E+01
 -1       271 1.01672E+01
 -1       272 7.21765E+00
 -1       273 4.06072E+00
 -1       274 4.82268E+00
 -1       275 5.82213E+00
 -1       276 5.82213E+00
 -1       277 5.77073E+00
 -1       278 4.82299E+00
 -1       279 3.27702E+00
 -1       280 4.63912E+01
 -1       281 3.16225E+01
 -1       282 2.45887E+01
 -1       283 2.05308E+01
 -1       284 1.79876E+01
 -1       285 1.59801E+01
 -1       286 1.40892E+01
 -1       287 1.20784E+01
 -1       288 9.81306E+00
 -1       289 7.26330E+00
 -1       290 4.52700E+00
 -1       291 3.50746E+00
 -1       292 4.27568E+00
 -1       293 4.27568E+00
 -1       294 4.03455E+00
 -1       295 3.01155E+00
 -1       296 4.46296E+01
 -1       297 3.10201E+01
 -1       298 2.43157E+01
 -1       299 2.05095E+01
 -1       300 1.80179E+01
 -1       301 1.63217E+01
 -1       302 1.48462E+01
 -1       303 1.33600E+01
 -1       304 1.17071E+01
 -1       305 9.79522E+00
 -1       306 7.61306E+00
 -1       307 5.25662E+00
 -1       308 2.93855E+00
 -1       309 2.54868E+00
 -1       310 2.54868E+00
 -1       311 2.26405E+00
 -1       312 4.28576E+01
 -1       313 3.03397E+01
 -1       314 2.39275E+01
 -1       315 2.03107E+01
 -1       316 1.80179E+01
 -1       317 1.63256E+01
 -1       318 1.51497E+01
 -1       319 1.40640E+01
 -1       320 1.29136E+01
 -1       321 1.15825E+01
 -1       322 9.99740E+00
 -1       323 8.14855E+00
 -1       324 6.11456E+00
 -1       325 4.07024E+00
 -1       326 2.26522E+00
 -1       327 1.13136E+00
 -1       328 4.11242E+01
 -1       329 2.95761E+01
 -1       330 2.34311E+01
 -1       331 1.99497E+01
 -1       332 1.78083E+01
 -1       333 1.63256E+01
 -1       334 1.51497E+01
 -1       335 1.42177E+01
 -1       336 1.34449E+01
 -1       337 1.25850E+01
 -1       338 1.15404E+01
 -1       339 1.02394E+01
 -1       340 8.65443E+00
 -1       341 6.82058E+00
 -1       342 4.84265E+00
 -1       343 2.84237E+00
 -1       344 3.93831E+01
 -1       345 2.88120E+01
 -1       346 2.28362E+01
 -1       347 1.94076E+01
 -1       348 1.73445E+01
 -1       349 1.59942E+01
 -1       350 1.50195E+01
 -1       351 1.42177E+01
 -1       352 1.34449E+01
 -1       353 1.27709E+01
 -1       354 1.21413E+01
 -1       355 1.13157E+01
 -1       356 1.02036E+01
 -1       357 8.72944E+00
 -1       358 6.84093E+00
 -1       359 4.59294E+00
 -1       360 3.87031E+01
 -1       361 2.80049E+01
 -1       362 2.19987E+01
 -1       363 1.85931E+01
 -1       364 1.65809E+01
 -1       365 1.53098E+01
 -1       366 1.44541E+01
 -1       367 1.38267E+01
 -1       368 1.33003E+01
 -1       369 1.27709E+01
 -1       370 1.21413E+01
 -1       371 1.13157E+01
 -1       372 1.04354E+01
 -1       373 9.33809E+00
 -1       374 7.71551E+00
 -1       375 5.55396E+00
 -1       376 7.81060E+01
 -1       377 5.40996E+01
 -1       378 1.47358E+01
 -1       379 9.45058E-01
 -1       381 7.81060E+01
 -1       382 2.73433E+01
 -1       383 1.03253E+01
 -1       384 5.27280E+00
 -1       385 4.56079E+00
 -1       386 4.06688E+00
 -1       387 3.67413E+00
 -1       388 3.32351E+00
 -1       389 2.97695E+00
 -1       390 2.60224E+00
 -1       391 2.16519E+00
 -1       392 1.62273E+00
 -1       393 1.02978E+00
 -1       394 2.29894E+00
 -1       395 4.20535E+00
 -1       396 7.06482E+00
 -1       397 1.13611E+01
 -1       398 1.78083E+01
 -1       399 2.66350E+01
 -1       400 3.44209E+01
 -1       401 3.44209E+01
 -1       402 5.40996E+01
 -1       403 5.40996E+01
 -1       404 2.78937E+01
 -1       405 1.15665E+01
 -1       406 6.88938E+00
 -1       407 4.51990E+00
 -1       408 3.06763E+00
 -1       409 2.00319E+00
 -1       410 1.36051E+00
 -1       411 1.81856E+00
 -1       412 2.56238E+00
 -1       413 3.72867E+00
 -1       414 5.61039E+00
 -1       415 1.53400E+01
 -1       416 1.53400E+01
 -1       417 1.39157E+01
 -1       418 1.47358E+01
 -1       419 1.47358E+01
 -1       420 1.47298E+01
 -1       421 1.47196E+01
 -1       422 1.47021E+01
 -1       423 1.46740E+01
 -1       424 1.46313E+01
 -1       425 1.45684E+01
 -1       426 1.44788E+01
 -1       427 1.43548E+01
 -1       428 1.41880E+01
 -1       429 1.39706E+01
 -1       430 1.36965E+01
 -1       431 1.33633E+01
 -1       432 1.29735E+01
 -1       433 1.25328E+01
 -1       434 1.20455E+01
 -1       435 1.15031E+01
 -1       436 1.08603E+01
 -1       437 1.34171E+01
 -1       438 1.34171E+01
 -1       439 8.84615E+00
 -1       440 6.94779E+00
 -1       441 2.94382E+00
 -1       442 4.72883E+00
 -1       443 4.72883E+00
 -1       444 4.58882E+00
 -1       445 5.76303E+00
 -1       446 1.01480E+01
 -1       447 1.46822E+01
 -1       448 1.88997E+01
 -1       449 2.22653E+01
 -1       450 2.40732E+01
 -1       451 2.40732E+01
 -1       452 2.32341E+01
 -1       453 1.78226E+01
 -1       454 1.70786E+01
 -1       455 2.68762E+01
 -1       456 7.81060E+01
 -1       457 7.81060E+01
 -1       458 2.68762E+01
 -1       459 1.74930E+01
 -1       460 1.78226E+01
 -1       461 2.32341E+01
 -1       462 2.40732E+01
 -1       463 2.40732E+01
 -1       464 2.22653E+01
 -1       465 1.88997E+01
 -1       466 1.46822E+01
 -1       467 1.01480E+01
 -1       468 8.90715E+00
 -1       469 9.37021E+00
 -1       470 9.37021E+00
 -1       471 9.21481E+00
 -1       472 7.85639E+00
 -1       473 2.73433E+01
 -1       474 2.29352E+01
 -1       475 1.74930E+01
 -1       476 1.23158E+01
 -1       477 8.36748E+00
 -1       478 6.68199E+00
 -1       479 5.17493E+00
 -1       480 5.75438E+00
 -1       481 7.42753E+00
 -1       482 8.95763E+00
 -1       483 1.03354E+01
 -1       484 1.14867E+01
 -1       485 1.22264E+01
 -1       486 1.22264E+01
 -1       487 1.22153E+01
 -1       488 1.09985E+01
 -1       489 1.03253E+01
 -1       490 9.18715E+00
 -1       491 7.37750E+00
 -1       492 5.97053E+00
 -1       493 5.25777E+00
 -1       494 4.51149E+00
 -1       495 5.39613E+00
 -1       496 7.07835E+00
 -1       497 8.72520E+00
 -1       498 1.03270E+01
 -1       499 1.18555E+01
 -1       500 1.32404E+01
 -1       501 1.43399E+01
 -1       502 1.49179E+01
 -1       503 1.49179E+01
 -1       504 1.47048E+01
 -1       505 5.27280E+00
 -1       506 5.15335E+00
 -1       507 4.91620E+00
 -1       508 4.57360E+00
 -1       509 4.16720E+00
 -1       510 4.66095E+00
 -1       511 6.21243E+00
 -1       512 7.83622E+00
 -1       513 9.52644E+00
 -1       514 1.12732E+01
 -1       515 1.30526E+01
 -1       516 1.48121E+01
 -1       517 1.64503E+01
 -1       518 1.64503E+01
 -1       519 1.49179E+01
 -1       520 1.47048E+01
 -1       521 4.56079E+00
 -1       522 4.44106E+00
 -1       523 4.29572E+00
 -1       524 4.09557E+00
 -1       525 3.86286E+00
 -1       526 5.13186E+00
 -1       527 6.63965E+00
 -1       528 8.29569E+00
 -1       529 1.01029E+01
 -1       530 1.20573E+01
 -1       531 1.41419E+01
 -1       532 1.63179E+01
 -1       533 1.82828E+01
 -1       534 1.82828E+01
 -1       535 1.53498E+01
 -1       536 1.16816E+01
 -1       537 4.06688E+00
 -1       538 4.00967E+00
 -1       539 3.96235E+00
 -1       540 3.88466E+00
 -1       541 3.97810E+00
 -1       542 5.30081E+00
 -1       543 6.83541E+00
 -1       544 8.59568E+00
 -1       545 1.05860E+01
 -1       546 1.27981E+01
 -1       547 1.52093E+01
 -1       548 1.77837E+01
 -1       549 1.86658E+01
 -1       550 1.86658E+01
 -1       551 1.59422E+01
 -1       552 1.26448E+01
 -1       553 3.67686E+00
 -1       554 3.71349E+00
 -1       555 3.73872E+00
 -1       556 3.76554E+00
 -1       557 3.97920E+00
 -1       558 5.30521E+00
 -1       559 6.92046E+00
 -1       560 8.84350E+00
 -1       561 1.10687E+01
 -1       562 1.35662E+01
 -1       563 1.62915E+01
 -1       564 1.92013E+01
 -1       565 1.92013E+01
 -1       566 1.88741E+01
 -1       567 1.63217E+01
 -1       568 1.33390E+01
 -1       569 3.37394E+00
 -1       570 3.47541E+00
 -1       571 3.58306E+00
 -1       572 3.70874E+00
 -1       573 3.97920E+00
 -1       574 5.30521E+00
 -1       575 7.00550E+00
 -1       576 9.14421E+00
 -1       577 1.16353E+01
 -1       578 1.44095E+01
 -1       579 1.73883E+01
 -1       580 2.05207E+01
 -1       581 2.05207E+01
 -1       582 1.88825E+01
 -1       583 1.64955E+01
 -1       584 1.38163E+01
 -1       585 3.06235E+00
 -1       586 3.21224E+00
 -1       587 3.38549E+00
 -1       588 3.59364E+00
 -1       589 3.87441E+00
 -1       590 5.25150E+00
 -1       591 7.20234E+00
 -1       592 9.60178E+00
 -1       593 1.23568E+01
 -1       594 1.53462E+01
 -1       595 1.84592E+01
 -1       596 2.16528E+01
 -1       597 2.16528E+01
 -1       598 1.88825E+01
 -1       599 1.64955E+01
 -1       600 1.41166E+01
 -1       601 2.71246E+00
 -1       602 2.89987E+00
 -1       603 3.12994E+00
 -1       604 3.41307E+00
 -1       605 3.75327E+00
 -1       606 5.37780E+00
 -1       607 7.62704E+00
 -1       608 1.03080E+01
 -1       609 1.32724E+01
 -1       610 1.63508E+01
 -1       611 1.94231E+01
 -1       612 2.24844E+01
 -1       613 2.24844E+01
 -1       614 1.86973E+01
 -1       615 1.64830E+01
 -1       616 1.42728E+01
 -1       617 2.29505E+00
 -1       618 2.51858E+00
 -1       619 2.81010E+00
 -1       620 3.17545E+00
 -1       621 3.70324E+00
 -1       622 5.79692E+00
 -1       623 8.39192E+00
 -1       624 1.13202E+01
 -1       625 1.43662E+01
 -1       626 1.73430E+01
 -1       627 2.01640E+01
 -1       628 2.28985E+01
 -1       629 2.28985E+01
 -1       630 1.83493E+01
 -1       631 1.63172E+01
 -1       632 1.43181E+01
 -1       633 1.77681E+00
 -1       634 2.05178E+00
 -1       635 2.43101E+00
 -1       636 2.90639E+00
 -1       637 4.08387E+00
 -1       638 6.64307E+00
 -1       639 9.58100E+00
 -1       640 1.26296E+01
 -1       641 1.55463E+01
 -1       642 1.81860E+01
 -1       643 2.05447E+01
 -1       644 2.28985E+01
 -1       645 2.28985E+01
 -1       646 1.78868E+01
 -1       647 1.60414E+01
 -1       648 1.43181E+01
 -1       649 1.11729E+00
 -1       650 1.48951E+00
 -1       651 2.01606E+00
 -1       652 2.65320E+00
 -1       653 4.98257E+00
 -1       654 8.05266E+00
 -1       655 1.12051E+01
 -1       656 1.41276E+01
 -1       657 1.66371E+01
 -1       658 1.86992E+01
 -1       659 2.05447E+01
 -1       660 2.27944E+01
 -1       661 2.27944E+01
 -1       662 1.73669E+01
 -1       663 1.57023E+01
 -1       664 1.42861E+01
 -1       665 2.29894E+00
 -1       666 2.28558E+00
 -1       667 1.61947E+00
 -1       668 3.21540E+00
 -1       669 6.63200E+00
 -1       670 1.00858E+01
 -1       671 1.31430E+01
 -1       672 1.55854E+01
 -1       673 1.73933E+01
 -1       674 1.86992E+01
 -1       675 2.04283E+01
 -1       676 2.21070E+01
 -1       677 2.21070E+01
 -1       678 1.68465E+01
 -1       679 1.53440E+01
 -1       680 1.43548E+01
 -1       681 4.20535E+00
 -1       682 3.85897E+00
 -1       683 2.21140E+00
 -1       684 5.09367E+00
 -1       685 9.19784E+00
 -1       686 1.26198E+01
 -1       687 1.50929E+01
 -1       688 1.66651E+01
 -1       689 1.75416E+01
 -1       690 1.86888E+01
 -1       691 1.97085E+01
 -1       692 2.08272E+01
 -1       693 2.08272E+01
 -1       694 1.63836E+01
 -1       695 1.50013E+01
 -1       696 1.44788E+01
 -1       697 7.06482E+00
 -1       698 5.78724E+00
 -1       699 2.97203E+00
 -1       700 8.37922E+00
 -1       701 1.25826E+01
 -1       702 1.52409E+01
 -1       703 1.65715E+01
 -1       704 1.69762E+01
 -1       705 1.75416E+01
 -1       706 1.79930E+01
 -1       707 1.83436E+01
 -1       708 1.90169E+01
 -1       709 1.90169E+01
 -1       710 1.63260E+01
 -1       711 1.47112E+01
 -1       712 1.45684E+01
 -1       713 1.13611E+01
 -1       714 7.79434E+00
 -1       715 7.24428E+00
 -1       716 1.30786E+01
 -1       717 1.61827E+01
 -1       718 1.72101E+01
 -1       719 1.72101E+01
 -1       720 1.70001E+01
 -1       721 1.69762E+01
 -1       722 1.68473E+01
 -1       723 1.65365E+01
 -1       724 1.68128E+01
 -1       725 1.68128E+01
 -1       726 1.62611E+01
 -1       727 1.45091E+01
 -1       728 1.46313E+01
 -1       729 1.78083E+01
 -1       730 8.66223E+00
 -1       731 1.41734E+01
 -1       732 1.82408E+01
 -1       733 1.87478E+01
 -1       734 1.87478E+01
 -1       735 1.76191E+01
 -1       736 1.70001E+01
 -1       737 1.61817E+01
 -1       738 1.52010E+01
 -1       739 1.43788E+01
 -1       740 1.44090E+01
 -1       741 1.61067E+01
 -1       742 1.61067E+01
 -1       743 1.43506E+01
 -1       744 1.46740E+01
 -1       745 2.66350E+01
 -1       746 1.57938E+01
 -1       747 2.21190E+01
 -1       748 2.21190E+01
 -1       749 2.14268E+01
 -1       750 1.87669E+01
 -1       751 1.76191E+01
 -1       752 1.58865E+01
 -1       753 1.41421E+01
 -1       754 1.26965E+01
 -1       755 1.17309E+01
 -1       756 1.20210E+01
 -1       757 1.59140E+01
 -1       758 1.59140E+01
 -1       759 1.42157E+01
 -1       760 1.47021E+01
 -1       761 3.44209E+01
 -1       762 2.92745E+01
 -1       763 2.92745E+01
 -1       764 2.53939E+01
 -1       765 2.14268E+01
 -1       766 1.87669E+01
 -1       767 1.57407E+01
 -1       768 1.30895E+01
 -1       769 1.10458E+01
 -1       770 9.65253E+00
 -1       771 8.91631E+00
 -1       772 9.84264E+00
 -1       773 1.57221E+01
 -1       774 1.57221E+01
 -1       775 1.40999E+01
 -1       776 1.47196E+01
 -1       777 4.13309E+01
 -1       778 4.13309E+01
 -1       779 2.97399E+01
 -1       780 2.53939E+01
 -1       781 2.00446E+01
 -1       782 1.51983E+01
 -1       783 1.15591E+01
 -1       784 9.04060E+00
 -1       785 7.42796E+00
 -1       786 6.53864E+00
 -1       787 6.70407E+00
 -1       788 8.01266E+00
 -1       789 1.55558E+01
 -1       790 1.55558E+01
 -1       791 1.40106E+01
 -1       792 1.47298E+01
 -1       793 5.40996E+01
 -1       794 4.13309E+01
 -1       795 2.97399E+01
 -1       796 1.98103E+01
 -1       797 1.28706E+01
 -1       798 8.63298E+00
 -1       799 6.12591E+00
 -1       800 4.70679E+00
 -1       801 4.00185E+00
 -1       802 4.11929E+00
 -1       803 4.96127E+00
 -1       804 6.60123E+00
 -1       805 1.54278E+01
 -1       806 1.54278E+01
 -1       807 1.39497E+01
 -1       808 1.47358E+01
 -3
 9999
