"displacement:0","displacement:1","displacement:2","displacement contact active","displacement contact distance","displacement contact gap","displacement contact normalload","displacement contact slipload","displacement contact stick","displacement contact weight","stress_xx","stress_xy","stress_xz","stress_yy","stress_yz","stress_zz","vonmises","GeometryIds","vtkValidPointMask","arc_length","Points:0","Points:1","Points:2"
1.495e-13,0.010658,0,1.0735,-0.0033571,0.0033444,1465.4,834.11,-0.69262,0,-900.1,679.47,0,-1529.6,0,-736.35,1380.7,102,1,0,0,-0.1,0
-5.2262e-06,0.010701,0,1.0559,-0.0033324,0.0033201,1439.1,819.16,-0.69253,0,-892.86,674.69,0,-1512.7,0,-729,1367.8,1,1,0.005,0.005,-0.1,0
-1.0454e-05,0.010744,0,1.0384,-0.0033067,0.0032948,1413.1,804.32,-0.69244,0,-885.66,669.93,0,-1495.8,0,-721.7,1355.1,1,1,0.01,0.01,-0.1,0
-1.5683e-05,0.010787,0,1.021,-0.00328,0.0032684,1387.2,789.58,-0.69235,0,-878.5,665.18,0,-1479.1,0,-714.44,1342.3,1,1,0.015,0.015,-0.1,0
-2.0914e-05,0.01083,0,1.0037,-0.0032522,0.003241,1361.5,774.96,-0.69226,0,-871.37,660.44,0,-1462.4,0,-707.21,1329.7,1,1,0.02,0.02,-0.1,0
-2.6146e-05,0.010872,0,0.98644,-0.0032234,0.0032126,1336,760.44,-0.69217,0,-864.28,655.72,0,-1445.9,0,-700.02,1317.1,1,1,0.025,0.025,-0.1,0
-3.1379e-05,0.010915,0,0.96928,-0.0031936,0.0031832,1310.7,746.04,-0.69208,0,-857.22,651,0,-1429.4,0,-692.87,1304.6,1,1,0.03,0.03,-0.1,0
-3.6614e-05,0.010957,0,0.95221,-0.0031627,0.0031527,1285.6,731.74,-0.69199,0,-850.2,646.3,0,-1413,0,-685.76,1292.2,1,1,0.035,0.035,-0.1,0
-4.1851e-05,0.010999,0,0.93522,-0.0031308,0.0031212,1260.6,717.55,-0.6919,0,-843.22,641.61,0,-1396.7,0,-678.69,1279.8,1,1,0.04,0.04,-0.1,0
-4.7089e-05,0.011041,0,0.91831,-0.0030979,0.0030886,1235.9,703.48,-0.69181,0,-836.27,636.93,0,-1380.5,0,-671.66,1267.5,1,1,0.045,0.045,-0.1,0
-5.2328e-05,0.011083,0,0.90148,-0.003064,0.0030551,1211.4,689.51,-0.69172,0,-829.36,632.27,0,-1364.4,0,-664.67,1255.3,1,1,0.05,0.05,-0.1,0
-5.7569e-05,0.011124,0,0.88473,-0.003029,0.0030205,1187,675.65,-0.69163,0,-822.49,627.61,0,-1348.3,0,-657.71,1243.2,1,1,0.055,0.055,-0.1,0
-6.2812e-05,0.011165,0,0.86806,-0.002993,0.0029849,1162.9,661.9,-0.69154,0,-815.65,622.97,0,-1332.4,0,-650.8,1231.1,1,1,0.06,0.06,-0.1,0
-6.8056e-05,0.011207,0,0.85148,-0.002956,0.0029482,1138.9,648.25,-0.69145,0,-808.85,618.34,0,-1316.6,0,-643.92,1219.1,1,1,0.065,0.065,-0.1,0
-7.3302e-05,0.011248,0,0.83498,-0.002918,0.0029105,1115.1,634.72,-0.69136,0,-802.08,613.72,0,-1300.8,0,-637.08,1207.1,1,1,0.07,0.07,-0.1,0
-7.8549e-05,0.011289,0,0.81856,-0.0028789,0.0028718,1091.5,621.3,-0.69127,0,-795.35,609.12,0,-1285.2,0,-630.28,1195.3,1,1,0.075,0.075,-0.1,0
-8.3798e-05,0.011329,0,0.80222,-0.0028388,0.0028321,1068.1,607.98,-0.69118,0,-788.66,604.52,0,-1269.6,0,-623.52,1183.5,1,1,0.08,0.08,-0.1,0
-8.9048e-05,0.01137,0,0.78596,-0.0027977,0.0027913,1044.9,594.78,-0.69109,0,-782,599.94,0,-1254.1,0,-616.8,1171.7,1,1,0.085,0.085,-0.1,0
-9.43e-05,0.01141,0,0.76979,-0.0027555,0.0027495,1021.9,581.68,-0.691,0,-775.38,595.37,0,-1238.7,0,-610.12,1160.1,1,1,0.09,0.09,-0.1,0
-9.9553e-05,0.01145,0,0.7537,-0.0027123,0.0027067,999.12,568.69,-0.69091,0,-768.8,590.81,0,-1223.5,0,-603.47,1148.5,1,1,0.095,0.095,-0.1,0
-0.00010481,0.01149,0,0.73769,-0.0026681,0.0026628,976.49,555.82,-0.69082,0,-762.25,586.27,0,-1208.3,0,-596.87,1137,1,1,0.1,0.1,-0.1,0
-0.00011006,0.01153,0,0.72176,-0.0026229,0.0026179,954.06,543.05,-0.69073,0,-755.74,581.73,0,-1193.1,0,-590.3,1125.6,1,1,0.105,0.105,-0.1,0
-0.00011532,0.01157,0,0.70591,-0.0025767,0.002572,931.82,530.39,-0.69064,0,-749.26,577.21,0,-1178.1,0,-583.77,1114.2,1,1,0.11,0.11,-0.1,0
-0.00012058,0.011609,0,0.69015,-0.0025294,0.0025251,909.77,517.84,-0.69055,0,-742.82,572.7,0,-1163.2,0,-577.28,1102.9,1,1,0.115,0.115,-0.1,0
-0.00012584,0.011648,0,0.67447,-0.0024811,0.0024771,887.91,505.4,-0.69046,0,-736.42,568.2,0,-1148.4,0,-570.83,1091.7,1,1,0.12,0.12,-0.1,0
-0.00013111,0.011688,0,0.65886,-0.0024318,0.0024281,866.24,493.06,-0.69037,0,-730.05,563.71,0,-1133.6,0,-564.42,1080.5,1,1,0.125,0.125,-0.1,0
nan,nan,nan,nan,nan,nan,nan,nan,nan,nan,nan,nan,nan,nan,nan,nan,nan,0,0,0.13,0.13,-0.1,0
nan,nan,nan,nan,nan,nan,nan,nan,nan,nan,nan,nan,nan,nan,nan,nan,nan,0,0,0.135,0.135,-0.1,0
nan,nan,nan,nan,nan,nan,nan,nan,nan,nan,nan,nan,nan,nan,nan,nan,nan,0,0,0.14,0.14,-0.1,0
nan,nan,nan,nan,nan,nan,nan,nan,nan,nan,nan,nan,nan,nan,nan,nan,nan,0,0,0.145,0.145,-0.1,0
nan,nan,nan,nan,nan,nan,nan,nan,nan,nan,nan,nan,nan,nan,nan,nan,nan,0,0,0.15,0.15,-0.1,0
nan,nan,nan,nan,nan,nan,nan,nan,nan,nan,nan,nan,nan,nan,nan,nan,nan,0,0,0.155,0.155,-0.1,0
nan,nan,nan,nan,nan,nan,nan,nan,nan,nan,nan,nan,nan,nan,nan,nan,nan,0,0,0.16,0.16,-0.1,0
nan,nan,nan,nan,nan,nan,nan,nan,nan,nan,nan,nan,nan,nan,nan,nan,nan,0,0,0.165,0.165,-0.1,0
nan,nan,nan,nan,nan,nan,nan,nan,nan,nan,nan,nan,nan,nan,nan,nan,nan,0,0,0.17,0.17,-0.1,0
nan,nan,nan,nan,nan,nan,nan,nan,nan,nan,nan,nan,nan,nan,nan,nan,nan,0,0,0.175,0.175,-0.1,0
nan,nan,nan,nan,nan,nan,nan,nan,nan,nan,nan,nan,nan,nan,nan,nan,nan,0,0,0.18,0.18,-0.1,0
nan,nan,nan,nan,nan,nan,nan,nan,nan,nan,nan,nan,nan,nan,nan,nan,nan,0,0,0.185,0.185,-0.1,0
nan,nan,nan,nan,nan,nan,nan,nan,nan,nan,nan,nan,nan,nan,nan,nan,nan,0,0,0.19,0.19,-0.1,0
nan,nan,nan,nan,nan,nan,nan,nan,nan,nan,nan,nan,nan,nan,nan,nan,nan,0,0,0.195,0.195,-0.1,0
nan,nan,nan,nan,nan,nan,nan,nan,nan,nan,nan,nan,nan,nan,nan,nan,nan,0,0,0.2,0.2,-0.1,0
nan,nan,nan,nan,nan,nan,nan,nan,nan,nan,nan,nan,nan,nan,nan,nan,nan,0,0,0.205,0.205,-0.1,0
nan,nan,nan,nan,nan,nan,nan,nan,nan,nan,nan,nan,nan,nan,nan,nan,nan,0,0,0.21,0.21,-0.1,0
nan,nan,nan,nan,nan,nan,nan,nan,nan,nan,nan,nan,nan,nan,nan,nan,nan,0,0,0.215,0.215,-0.1,0
nan,nan,nan,nan,nan,nan,nan,nan,nan,nan,nan,nan,nan,nan,nan,nan,nan,0,0,0.22,0.22,-0.1,0
nan,nan,nan,nan,nan,nan,nan,nan,nan,nan,nan,nan,nan,nan,nan,nan,nan,0,0,0.225,0.225,-0.1,0
nan,nan,nan,nan,nan,nan,nan,nan,nan,nan,nan,nan,nan,nan,nan,nan,nan,0,0,0.23,0.23,-0.1,0
nan,nan,nan,nan,nan,nan,nan,nan,nan,nan,nan,nan,nan,nan,nan,nan,nan,0,0,0.235,0.235,-0.1,0
nan,nan,nan,nan,nan,nan,nan,nan,nan,nan,nan,nan,nan,nan,nan,nan,nan,0,0,0.24,0.24,-0.1,0
nan,nan,nan,nan,nan,nan,nan,nan,nan,nan,nan,nan,nan,nan,nan,nan,nan,0,0,0.245,0.245,-0.1,0
nan,nan,nan,nan,nan,nan,nan,nan,nan,nan,nan,nan,nan,nan,nan,nan,nan,0,0,0.25,0.25,-0.1,0
nan,nan,nan,nan,nan,nan,nan,nan,nan,nan,nan,nan,nan,nan,nan,nan,nan,0,0,0.255,0.255,-0.1,0
nan,nan,nan,nan,nan,nan,nan,nan,nan,nan,nan,nan,nan,nan,nan,nan,nan,0,0,0.26,0.26,-0.1,0
nan,nan,nan,nan,nan,nan,nan,nan,nan,nan,nan,nan,nan,nan,nan,nan,nan,0,0,0.265,0.265,-0.1,0
nan,nan,nan,nan,nan,nan,nan,nan,nan,nan,nan,nan,nan,nan,nan,nan,nan,0,0,0.27,0.27,-0.1,0
nan,nan,nan,nan,nan,nan,nan,nan,nan,nan,nan,nan,nan,nan,nan,nan,nan,0,0,0.275,0.275,-0.1,0
nan,nan,nan,nan,nan,nan,nan,nan,nan,nan,nan,nan,nan,nan,nan,nan,nan,0,0,0.28,0.28,-0.1,0
nan,nan,nan,nan,nan,nan,nan,nan,nan,nan,nan,nan,nan,nan,nan,nan,nan,0,0,0.285,0.285,-0.1,0
nan,nan,nan,nan,nan,nan,nan,nan,nan,nan,nan,nan,nan,nan,nan,nan,nan,0,0,0.29,0.29,-0.1,0
nan,nan,nan,nan,nan,nan,nan,nan,nan,nan,nan,nan,nan,nan,nan,nan,nan,0,0,0.295,0.295,-0.1,0
nan,nan,nan,nan,nan,nan,nan,nan,nan,nan,nan,nan,nan,nan,nan,nan,nan,0,0,0.3,0.3,-0.1,0
nan,nan,nan,nan,nan,nan,nan,nan,nan,nan,nan,nan,nan,nan,nan,nan,nan,0,0,0.305,0.305,-0.1,0
nan,nan,nan,nan,nan,nan,nan,nan,nan,nan,nan,nan,nan,nan,nan,nan,nan,0,0,0.31,0.31,-0.1,0
nan,nan,nan,nan,nan,nan,nan,nan,nan,nan,nan,nan,nan,nan,nan,nan,nan,0,0,0.315,0.315,-0.1,0
nan,nan,nan,nan,nan,nan,nan,nan,nan,nan,nan,nan,nan,nan,nan,nan,nan,0,0,0.32,0.32,-0.1,0
nan,nan,nan,nan,nan,nan,nan,nan,nan,nan,nan,nan,nan,nan,nan,nan,nan,0,0,0.325,0.325,-0.1,0
nan,nan,nan,nan,nan,nan,nan,nan,nan,nan,nan,nan,nan,nan,nan,nan,nan,0,0,0.33,0.33,-0.1,0
nan,nan,nan,nan,nan,nan,nan,nan,nan,nan,nan,nan,nan,nan,nan,nan,nan,0,0,0.335,0.335,-0.1,0
nan,nan,nan,nan,nan,nan,nan,nan,nan,nan,nan,nan,nan,nan,nan,nan,nan,0,0,0.34,0.34,-0.1,0
nan,nan,nan,nan,nan,nan,nan,nan,nan,nan,nan,nan,nan,nan,nan,nan,nan,0,0,0.345,0.345,-0.1,0
nan,nan,nan,nan,nan,nan,nan,nan,nan,nan,nan,nan,nan,nan,nan,nan,nan,0,0,0.35,0.35,-0.1,0
nan,nan,nan,nan,nan,nan,nan,nan,nan,nan,nan,nan,nan,nan,nan,nan,nan,0,0,0.355,0.355,-0.1,0
nan,nan,nan,nan,nan,nan,nan,nan,nan,nan,nan,nan,nan,nan,nan,nan,nan,0,0,0.36,0.36,-0.1,0
nan,nan,nan,nan,nan,nan,nan,nan,nan,nan,nan,nan,nan,nan,nan,nan,nan,0,0,0.365,0.365,-0.1,0
nan,nan,nan,nan,nan,nan,nan,nan,nan,nan,nan,nan,nan,nan,nan,nan,nan,0,0,0.37,0.37,-0.1,0
nan,nan,nan,nan,nan,nan,nan,nan,nan,nan,nan,nan,nan,nan,nan,nan,nan,0,0,0.375,0.375,-0.1,0
-0.0004018,0.013455,0,-0.028554,0.001441,-0.0014306,14.589,8.3039,-0.6858,0,-453.15,350.6,0,-502.37,0,-288.76,605.48,1,1,0.38,0.38,-0.1,0
-0.00040716,0.013486,0,-0.039915,0.0015434,-0.0015329,2.8473,1.6207,-0.68571,0,-448.66,346.73,0,-492.36,0,-284.36,598.01,1,1,0.385,0.385,-0.1,0
-0.00041252,0.013516,0,-0.051195,0.0016469,-0.0016362,-8.7039,-4.9542,-0.68562,0,-444.2,342.87,0,-482.43,0,-280,590.6,1,1,0.39,0.39,-0.1,0
-0.00041788,0.013546,0,-0.062394,0.0017515,-0.0017405,-20.065,-11.421,-0.68553,0,-439.78,339.02,0,-472.6,0,-275.67,583.27,1,1,0.395,0.395,-0.1,0
-0.00042324,0.013575,0,-0.073511,0.001857,-0.0018458,-31.236,-17.779,-0.68544,0,-435.39,335.18,0,-462.86,0,-271.39,576.01,1,1,0.4,0.4,-0.1,0
-0.0004286,0.013605,0,-0.084547,0.0019636,-0.0019522,-42.216,-24.029,-0.68535,0,-431.04,331.36,0,-453.21,0,-267.14,568.82,1,1,0.405,0.405,-0.1,0
-0.00043397,0.013634,0,-0.095502,0.0020712,-0.0020596,-53.006,-30.171,-0.68526,0,-426.73,327.55,0,-443.65,0,-262.93,561.7,1,1,0.41,0.41,-0.1,0
-0.00043933,0.013663,0,-0.10638,0.0021798,-0.002168,-63.607,-36.205,-0.68517,0,-422.45,323.75,0,-434.18,0,-258.76,554.65,1,1,0.415,0.415,-0.1,0
-0.0004447,0.013692,0,-0.11717,0.0022894,-0.0022774,-74.017,-42.13,-0.68508,0,-418.21,319.96,0,-424.8,0,-254.63,547.67,1,1,0.42,0.42,-0.1,0
-0.00045007,0.013721,0,-0.12788,0.0024,-0.0023878,-84.237,-47.947,-0.68499,0,-414,316.18,0,-415.51,0,-250.54,540.76,1,1,0.425,0.425,-0.1,0
-0.00045545,0.01375,0,-0.13851,0.0025117,-0.0024993,-94.266,-53.656,-0.6849,0,-409.83,312.42,0,-406.32,0,-246.49,533.92,1,1,0.43,0.43,-0.1,0
-0.00046082,0.013778,0,-0.14906,0.0026243,-0.0026118,-104.11,-59.257,-0.68481,0,-405.7,308.66,0,-397.21,0,-242.47,527.15,1,1,0.435,0.435,-0.1,0
-0.0004662,0.013807,0,-0.15952,0.002738,-0.0027253,-113.76,-64.75,-0.68473,0,-401.6,304.92,0,-388.19,0,-238.5,520.45,1,1,0.44,0.44,-0.1,0
-0.00047158,0.013835,0,-0.16991,0.0028527,-0.0028398,-123.22,-70.134,-0.68464,0,-397.54,301.19,0,-379.27,0,-234.56,513.83,1,1,0.445,0.445,-0.1,0
-0.00047696,0.013863,0,-0.18022,0.0029685,-0.0029553,-132.49,-75.41,-0.68455,0,-393.51,297.47,0,-370.44,0,-230.66,507.27,1,1,0.45,0.45,-0.1,0
-0.00048234,0.013891,0,-0.19044,0.0030852,-0.0030719,-141.57,-80.579,-0.68446,0,-389.52,293.76,0,-361.69,0,-226.8,500.79,1,1,0.455,0.455,-0.1,0
-0.00048773,0.013918,0,-0.20058,0.003203,-0.0031895,-150.45,-85.639,-0.68437,0,-385.57,290.07,0,-353.04,0,-222.97,494.37,1,1,0.46,0.46,-0.1,0
-0.00049312,0.013946,0,-0.21064,0.0033217,-0.0033081,-159.15,-90.591,-0.68428,0,-381.65,286.39,0,-344.48,0,-219.19,488.03,1,1,0.465,0.465,-0.1,0
-0.00049851,0.013973,0,-0.22063,0.0034415,-0.0034277,-167.66,-95.435,-0.68419,0,-377.76,282.71,0,-336,0,-215.44,481.75,1,1,0.47,0.47,-0.1,0
-0.0005039,0.014,0,-0.23053,0.0035623,-0.0035483,-175.98,-100.17,-0.6841,0,-373.92,279.06,0,-327.62,0,-211.74,475.55,1,1,0.475,0.475,-0.1,0
-0.00050929,0.014027,0,-0.24034,0.0036842,-0.00367,-184.12,-104.8,-0.68401,0,-370.11,275.41,0,-319.33,0,-208.07,469.42,1,1,0.48,0.48,-0.1,0
-0.00051469,0.014054,0,-0.25008,0.003807,-0.0037927,-192.06,-109.32,-0.68392,0,-366.33,271.77,0,-311.13,0,-204.44,463.36,1,1,0.485,0.485,-0.1,0
-0.00052009,0.014081,0,-0.25974,0.0039309,-0.0039164,-199.81,-113.73,-0.68383,0,-362.59,268.15,0,-303.02,0,-200.85,457.37,1,1,0.49,0.49,-0.1,0
-0.00052549,0.014107,0,-0.26931,0.0040558,-0.0040411,-207.37,-118.03,-0.68375,0,-358.89,264.53,0,-295,0,-197.29,451.45,1,1,0.495,0.495,-0.1,0
-0.00053089,0.014133,0,-0.27881,0.0041817,-0.0041669,-214.73,-122.23,-0.68366,0,-355.22,260.93,0,-287.08,0,-193.78,445.6,1,1,0.5,0.5,-0.1,0
-0.00053632,0.01416,0,-0.28822,0.0043091,-0.0042941,-221.89,-126.3,-0.68361,0,-351.6,257.35,0,-279.24,0,-190.3,439.83,1,1,0.505,0.505,-0.1,0
-0.00054176,0.014185,0,-0.29756,0.0044376,-0.0044224,-228.86,-130.26,-0.68357,0,-348.01,253.77,0,-271.49,0,-186.87,434.13,1,1,0.51,0.51,-0.1,0
-0.0005472,0.014211,0,-0.30681,0.0045671,-0.0045517,-235.63,-134.12,-0.68352,0,-344.46,250.21,0,-263.84,0,-183.47,428.5,1,1,0.515,0.515,-0.1,0
-0.00055264,0.014237,0,-0.31599,0.0046976,-0.0046821,-242.22,-137.87,-0.68348,0,-340.94,246.66,0,-256.27,0,-180.11,422.95,1,1,0.52,0.52,-0.1,0
-0.00055808,0.014262,0,-0.32508,0.0048291,-0.0048135,-248.62,-141.51,-0.68343,0,-337.46,243.12,0,-248.8,0,-176.79,417.46,1,1,0.525,0.525,-0.1,0
-0.00056353,0.014288,0,-0.3341,0.0049617,-0.0049459,-254.83,-145.05,-0.68338,0,-334.01,239.59,0,-241.41,0,-173.51,412.04,1,1,0.53,0.53,-0.1,0
-0.00056897,0.014313,0,-0.34303,0.0050953,-0.0050794,-260.85,-148.48,-0.68334,0,-330.6,236.07,0,-234.11,0,-170.27,406.69,1,1,0.535,0.535,-0.1,0
-0.00057442,0.014338,0,-0.35189,0.00523,-0.0052139,-266.69,-151.8,-0.68329,0,-327.23,232.57,0,-226.91,0,-167.06,401.42,1,1,0.54,0.54,-0.1,0
-0.00057988,0.014362,0,-0.36066,0.0053656,-0.0053494,-272.33,-155.01,-0.68324,0,-323.89,229.07,0,-219.8,0,-163.9,396.21,1,1,0.545,0.545,-0.1,0
-0.00058533,0.014387,0,-0.36936,0.0055023,-0.005486,-277.79,-158.12,-0.6832,0,-320.58,225.59,0,-212.77,0,-160.77,391.08,1,1,0.55,0.55,-0.1,0
-0.00059079,0.014411,0,-0.37798,0.0056401,-0.0056236,-283.05,-161.11,-0.68315,0,-317.31,222.12,0,-205.84,0,-157.68,386.01,1,1,0.555,0.555,-0.1,0
-0.00059625,0.014436,0,-0.38651,0.0057788,-0.0057622,-288.13,-164,-0.68311,0,-314.08,218.66,0,-198.99,0,-154.62,381.02,1,1,0.56,0.56,-0.1,0
-0.00060172,0.01446,0,-0.39497,0.0059186,-0.0059019,-293.02,-166.79,-0.68306,0,-310.88,215.21,0,-192.24,0,-151.61,376.09,1,1,0.565,0.565,-0.1,0
-0.00060718,0.014484,0,-0.40335,0.0060595,-0.0060426,-297.72,-169.46,-0.68301,0,-307.72,211.78,0,-185.58,0,-148.63,371.24,1,1,0.57,0.57,-0.1,0
-0.00061265,0.014507,0,-0.41164,0.0062013,-0.0061843,-302.23,-172.03,-0.68297,0,-304.6,208.35,0,-179,0,-145.7,366.45,1,1,0.575,0.575,-0.1,0
-0.00061812,0.014531,0,-0.41986,0.0063442,-0.0063271,-306.56,-174.49,-0.68292,0,-301.5,204.94,0,-172.52,0,-142.8,361.74,1,1,0.58,0.58,-0.1,0
-0.0006236,0.014554,0,-0.428,0.0064882,-0.0064709,-310.69,-176.85,-0.68287,0,-298.45,201.54,0,-166.13,0,-139.94,357.1,1,1,0.585,0.585,-0.1,0
-0.00062907,0.014578,0,-0.43606,0.0066331,-0.0066158,-314.64,-179.09,-0.68283,0,-295.43,198.15,0,-159.82,0,-137.11,352.52,1,1,0.59,0.59,-0.1,0
-0.00063455,0.014601,0,-0.44403,0.0067791,-0.0067616,-318.4,-181.23,-0.68278,0,-292.45,194.77,0,-153.61,0,-134.33,348.02,1,1,0.595,0.595,-0.1,0
-0.00064003,0.014624,0,-0.45193,0.0069261,-0.0069085,-321.96,-183.26,-0.68274,0,-289.5,191.4,0,-147.49,0,-131.58,343.59,1,1,0.6,0.6,-0.1,0
-0.00064552,0.014646,0,-0.45975,0.0070742,-0.0070565,-325.34,-185.19,-0.68269,0,-286.58,188.04,0,-141.46,0,-128.88,339.23,1,1,0.605,0.605,-0.1,0
-0.00065101,0.014669,0,-0.46749,0.0072233,-0.0072054,-328.54,-187,-0.68264,0,-283.7,184.7,0,-135.52,0,-126.21,334.93,1,1,0.61,0.61,-0.1,0
-0.0006565,0.014691,0,-0.47515,0.0073734,-0.0073554,-331.54,-188.71,-0.6826,0,-280.86,181.37,0,-129.67,0,-123.57,330.71,1,1,0.615,0.615,-0.1,0
-0.00066199,0.014713,0,-0.48273,0.0075245,-0.0075065,-334.35,-190.31,-0.68255,0,-278.06,178.04,0,-123.9,0,-120.98,326.56,1,1,0.62,0.62,-0.1,0
-0.00066748,0.014736,0,-0.49022,0.0076767,-0.0076585,-336.98,-191.81,-0.6825,0,-275.28,174.73,0,-118.23,0,-118.43,322.48,1,1,0.625,0.625,-0.1,0
-0.00067298,0.014757,0,-0.49764,0.0078299,-0.0078116,-339.42,-193.19,-0.68246,0,-272.55,171.44,0,-112.65,0,-115.91,318.47,1,1,0.63,0.63,-0.1,0
-0.00067848,0.014779,0,-0.50498,0.0079841,-0.0079658,-341.66,-194.47,-0.68241,0,-269.85,168.15,0,-107.16,0,-113.43,314.53,1,1,0.635,0.635,-0.1,0
-0.00068398,0.014801,0,-0.51224,0.0081394,-0.008121,-343.72,-195.65,-0.68237,0,-267.18,164.87,0,-101.76,0,-110.99,310.66,1,1,0.64,0.64,-0.1,0
nan,nan,nan,nan,nan,nan,nan,nan,nan,nan,nan,nan,nan,nan,nan,nan,nan,0,0,0.645,0.645,-0.1,0
nan,nan,nan,nan,nan,nan,nan,nan,nan,nan,nan,nan,nan,nan,nan,nan,nan,0,0,0.65,0.65,-0.1,0
nan,nan,nan,nan,nan,nan,nan,nan,nan,nan,nan,nan,nan,nan,nan,nan,nan,0,0,0.655,0.655,-0.1,0
nan,nan,nan,nan,nan,nan,nan,nan,nan,nan,nan,nan,nan,nan,nan,nan,nan,0,0,0.66,0.66,-0.1,0
nan,nan,nan,nan,nan,nan,nan,nan,nan,nan,nan,nan,nan,nan,nan,nan,nan,0,0,0.665,0.665,-0.1,0
nan,nan,nan,nan,nan,nan,nan,nan,nan,nan,nan,nan,nan,nan,nan,nan,nan,0,0,0.67,0.67,-0.1,0
nan,nan,nan,nan,nan,nan,nan,nan,nan,nan,nan,nan,nan,nan,nan,nan,nan,0,0,0.675,0.675,-0.1,0
nan,nan,nan,nan,nan,nan,nan,nan,nan,nan,nan,nan,nan,nan,nan,nan,nan,0,0,0.68,0.68,-0.1,0
nan,nan,nan,nan,nan,nan,nan,nan,nan,nan,nan,nan,nan,nan,nan,nan,nan,0,0,0.685,0.685,-0.1,0
nan,nan,nan,nan,nan,nan,nan,nan,nan,nan,nan,nan,nan,nan,nan,nan,nan,0,0,0.69,0.69,-0.1,0
nan,nan,nan,nan,nan,nan,nan,nan,nan,nan,nan,nan,nan,nan,nan,nan,nan,0,0,0.695,0.695,-0.1,0
nan,nan,nan,nan,nan,nan,nan,nan,nan,nan,nan,nan,nan,nan,nan,nan,nan,0,0,0.7,0.7,-0.1,0
nan,nan,nan,nan,nan,nan,nan,nan,nan,nan,nan,nan,nan,nan,nan,nan,nan,0,0,0.705,0.705,-0.1,0
nan,nan,nan,nan,nan,nan,nan,nan,nan,nan,nan,nan,nan,nan,nan,nan,nan,0,0,0.71,0.71,-0.1,0
nan,nan,nan,nan,nan,nan,nan,nan,nan,nan,nan,nan,nan,nan,nan,nan,nan,0,0,0.715,0.715,-0.1,0
nan,nan,nan,nan,nan,nan,nan,nan,nan,nan,nan,nan,nan,nan,nan,nan,nan,0,0,0.72,0.72,-0.1,0
nan,nan,nan,nan,nan,nan,nan,nan,nan,nan,nan,nan,nan,nan,nan,nan,nan,0,0,0.725,0.725,-0.1,0
nan,nan,nan,nan,nan,nan,nan,nan,nan,nan,nan,nan,nan,nan,nan,nan,nan,0,0,0.73,0.73,-0.1,0
nan,nan,nan,nan,nan,nan,nan,nan,nan,nan,nan,nan,nan,nan,nan,nan,nan,0,0,0.735,0.735,-0.1,0
nan,nan,nan,nan,nan,nan,nan,nan,nan,nan,nan,nan,nan,nan,nan,nan,nan,0,0,0.74,0.74,-0.1,0
nan,nan,nan,nan,nan,nan,nan,nan,nan,nan,nan,nan,nan,nan,nan,nan,nan,0,0,0.745,0.745,-0.1,0
nan,nan,nan,nan,nan,nan,nan,nan,nan,nan,nan,nan,nan,nan,nan,nan,nan,0,0,0.75,0.75,-0.1,0
nan,nan,nan,nan,nan,nan,nan,nan,nan,nan,nan,nan,nan,nan,nan,nan,nan,0,0,0.755,0.755,-0.1,0
nan,nan,nan,nan,nan,nan,nan,nan,nan,nan,nan,nan,nan,nan,nan,nan,nan,0,0,0.76,0.76,-0.1,0
nan,nan,nan,nan,nan,nan,nan,nan,nan,nan,nan,nan,nan,nan,nan,nan,nan,0,0,0.765,0.765,-0.1,0
nan,nan,nan,nan,nan,nan,nan,nan,nan,nan,nan,nan,nan,nan,nan,nan,nan,0,0,0.77,0.77,-0.1,0
nan,nan,nan,nan,nan,nan,nan,nan,nan,nan,nan,nan,nan,nan,nan,nan,nan,0,0,0.775,0.775,-0.1,0
nan,nan,nan,nan,nan,nan,nan,nan,nan,nan,nan,nan,nan,nan,nan,nan,nan,0,0,0.78,0.78,-0.1,0
nan,nan,nan,nan,nan,nan,nan,nan,nan,nan,nan,nan,nan,nan,nan,nan,nan,0,0,0.785,0.785,-0.1,0
nan,nan,nan,nan,nan,nan,nan,nan,nan,nan,nan,nan,nan,nan,nan,nan,nan,0,0,0.79,0.79,-0.1,0
nan,nan,nan,nan,nan,nan,nan,nan,nan,nan,nan,nan,nan,nan,nan,nan,nan,0,0,0.795,0.795,-0.1,0
nan,nan,nan,nan,nan,nan,nan,nan,nan,nan,nan,nan,nan,nan,nan,nan,nan,0,0,0.8,0.8,-0.1,0
nan,nan,nan,nan,nan,nan,nan,nan,nan,nan,nan,nan,nan,nan,nan,nan,nan,0,0,0.805,0.805,-0.1,0
nan,nan,nan,nan,nan,nan,nan,nan,nan,nan,nan,nan,nan,nan,nan,nan,nan,0,0,0.81,0.81,-0.1,0
nan,nan,nan,nan,nan,nan,nan,nan,nan,nan,nan,nan,nan,nan,nan,nan,nan,0,0,0.815,0.815,-0.1,0
nan,nan,nan,nan,nan,nan,nan,nan,nan,nan,nan,nan,nan,nan,nan,nan,nan,0,0,0.82,0.82,-0.1,0
nan,nan,nan,nan,nan,nan,nan,nan,nan,nan,nan,nan,nan,nan,nan,nan,nan,0,0,0.825,0.825,-0.1,0
nan,nan,nan,nan,nan,nan,nan,nan,nan,nan,nan,nan,nan,nan,nan,nan,nan,0,0,0.83,0.83,-0.1,0
nan,nan,nan,nan,nan,nan,nan,nan,nan,nan,nan,nan,nan,nan,nan,nan,nan,0,0,0.835,0.835,-0.1,0
nan,nan,nan,nan,nan,nan,nan,nan,nan,nan,nan,nan,nan,nan,nan,nan,nan,0,0,0.84,0.84,-0.1,0
nan,nan,nan,nan,nan,nan,nan,nan,nan,nan,nan,nan,nan,nan,nan,nan,nan,0,0,0.845,0.845,-0.1,0
nan,nan,nan,nan,nan,nan,nan,nan,nan,nan,nan,nan,nan,nan,nan,nan,nan,0,0,0.85,0.85,-0.1,0
nan,nan,nan,nan,nan,nan,nan,nan,nan,nan,nan,nan,nan,nan,nan,nan,nan,0,0,0.855,0.855,-0.1,0
nan,nan,nan,nan,nan,nan,nan,nan,nan,nan,nan,nan,nan,nan,nan,nan,nan,0,0,0.86,0.86,-0.1,0
nan,nan,nan,nan,nan,nan,nan,nan,nan,nan,nan,nan,nan,nan,nan,nan,nan,0,0,0.865,0.865,-0.1,0
nan,nan,nan,nan,nan,nan,nan,nan,nan,nan,nan,nan,nan,nan,nan,nan,nan,0,0,0.87,0.87,-0.1,0
-0.00094566,0.015624,0,-0.7636,0.016598,-0.016578,-228.09,-129.83,-0.6802,0,-181.89,23.825,0,50.437,0,-39.405,207.98,1,1,0.875,0.875,-0.1,0
-0.00095129,0.015637,0,-0.76704,0.016803,-0.016782,-221.11,-125.85,-0.68015,0,-180.93,21.098,0,51.515,0,-38.798,207.48,1,1,0.88,0.88,-0.1,0
-0.00095693,0.01565,0,-0.7704,0.017009,-0.016988,-213.94,-121.78,-0.6801,0,-180,18.383,0,52.503,0,-38.23,207.05,1,1,0.885,0.885,-0.1,0
-0.00096257,0.015664,0,-0.77368,0.017215,-0.017195,-206.59,-117.59,-0.68006,0,-179.1,15.679,0,53.4,0,-37.699,206.69,1,1,0.89,0.89,-0.1,0
-0.00096821,0.015676,0,-0.77688,0.017423,-0.017403,-199.05,-113.3,-0.68001,0,-178.24,12.986,0,54.208,0,-37.207,206.4,1,1,0.895,0.895,-0.1,0
-0.00097386,0.015689,0,-0.78,0.017632,-0.017611,-191.32,-108.9,-0.67997,0,-177.42,10.305,0,54.926,0,-36.752,206.18,1,1,0.9,0.9,-0.1,0
-0.0009795,0.015702,0,-0.78304,0.017842,-0.017821,-183.41,-104.4,-0.67992,0,-176.63,7.6352,0,55.554,0,-36.336,206.03,1,1,0.905,0.905,-0.1,0
-0.00098515,0.015714,0,-0.786,0.018052,-0.018032,-175.3,-99.783,-0.67987,0,-175.88,4.9768,0,56.092,0,-35.958,205.95,1,1,0.91,0.91,-0.1,0
-0.00099081,0.015727,0,-0.78888,0.018264,-0.018244,-167.01,-95.063,-0.67983,0,-175.16,2.3299,0,56.54,0,-35.618,205.94,1,1,0.915,0.915,-0.1,0
-0.00099646,0.015739,0,-0.79168,0.018477,-0.018457,-158.53,-90.236,-0.67978,0,-174.48,-0.30566,0,56.898,0,-35.317,206,1,1,0.92,0.92,-0.1,0
-0.0010021,0.015751,0,-0.79441,0.018691,-0.018671,-149.86,-85.303,-0.67973,0,-173.83,-2.9298,0,57.166,0,-35.053,206.13,1,1,0.925,0.925,-0.1,0
-0.0010078,0.015763,0,-0.79705,0.018906,-0.018886,-141.01,-80.262,-0.67969,0,-173.22,-5.5425,0,57.345,0,-34.828,206.33,1,1,0.93,0.93,-0.1,0
-0.0010134,0.015774,0,-0.79961,0.019122,-0.019102,-131.97,-75.115,-0.67964,0,-172.65,-8.1439,0,57.433,0,-34.64,206.6,1,1,0.935,0.935,-0.1,0
-0.0010191,0.015786,0,-0.8021,0.019339,-0.019319,-122.73,-69.86,-0.6796,0,-172.1,-10.734,0,57.431,0,-34.491,206.94,1,1,0.94,0.94,-0.1,0
-0.0010248,0.015797,0,-0.8045,0.019557,-0.019537,-113.32,-64.499,-0.67955,0,-171.6,-13.312,0,57.34,0,-34.38,207.36,1,1,0.945,0.945,-0.1,0
-0.0010305,0.015808,0,-0.80683,0.019776,-0.019756,-103.71,-59.031,-0.6795,0,-171.13,-15.88,0,57.159,0,-34.307,207.84,1,1,0.95,0.95,-0.1,0
-0.0010361,0.015819,0,-0.80907,0.019996,-0.019976,-93.914,-53.456,-0.67946,0,-170.69,-18.435,0,56.887,0,-34.272,208.39,1,1,0.955,0.955,-0.1,0
-0.0010418,0.01583,0,-0.81124,0.020217,-0.020197,-83.932,-47.774,-0.67941,0,-170.29,-20.98,0,56.526,0,-34.275,209.01,1,1,0.96,0.96,-0.1,0
-0.0010475,0.01584,0,-0.81333,0.020439,-0.020419,-73.761,-41.985,-0.67937,0,-169.93,-23.513,0,56.075,0,-34.317,209.7,1,1,0.965,0.965,-0.1,0
-0.0010532,0.015851,0,-0.81534,0.020662,-0.020643,-63.403,-36.089,-0.67932,0,-169.6,-26.034,0,55.534,0,-34.396,210.47,1,1,0.97,0.97,-0.1,0
-0.0010589,0.015861,0,-0.81726,0.020887,-0.020867,-52.857,-30.086,-0.67927,0,-169.31,-28.545,0,54.904,0,-34.514,211.3,1,1,0.975,0.975,-0.1,0
-0.0010646,0.015871,0,-0.81911,0.021112,-0.021092,-42.124,-23.977,-0.67923,0,-169.05,-31.043,0,54.183,0,-34.669,212.2,1,1,0.98,0.98,-0.1,0
-0.0010703,0.015881,0,-0.82088,0.021338,-0.021318,-31.203,-17.76,-0.67918,0,-168.83,-33.531,0,53.372,0,-34.863,213.17,1,1,0.985,0.985,-0.1,0
-0.0010759,0.015891,0,-0.82257,0.021565,-0.021546,-20.094,-11.437,-0.67914,0,-168.64,-36.007,0,52.472,0,-35.095,214.21,1,1,0.99,0.99,-0.1,0
-0.0010816,0.015901,0,-0.82418,0.021794,-0.021774,-8.7968,-5.0071,-0.67909,0,-168.49,-38.472,0,51.482,0,-35.365,215.33,1,1,0.995,0.995,-0.1,0
-0.0010868,0.015911,0,-0.8248,0.022068,-0.022047,0,0,-0.67905,0,-168.13,-40.277,0,50.79,0,-35.478,215.98,1,1,1,1,-0.1,0
-0.0010901,0.015923,0,-0.82235,0.022491,-0.022463,0,0,-0.67902,0,-166.98,-39.939,0,51.34,0,-34.964,214.93,1,1,1.005,1.005,-0.1,0
-0.0010935,0.015935,0,-0.81992,0.022915,-0.022879,0,0,-0.679,0,-165.83,-39.604,0,51.883,0,-34.455,213.89,1,1,1.01,1.01,-0.1,0
-0.0010968,0.015947,0,-0.81751,0.023341,-0.023297,0,0,-0.67897,0,-164.7,-39.27,0,52.417,0,-33.95,212.84,1,1,1.015,1.015,-0.1,0
-0.0011001,0.015959,0,-0.81512,0.023766,-0.023715,0,0,-0.67894,0,-163.57,-38.938,0,52.943,0,-33.449,211.8,1,1,1.02,1.02,-0.1,0
-0.0011034,0.015972,0,-0.81274,0.024193,-0.024135,0,0,-0.67892,0,-162.44,-38.608,0,53.461,0,-32.952,210.76,1,1,1.025,1.025,-0.1,0
-0.0011067,0.015984,0,-0.81038,0.024621,-0.024555,0,0,-0.67889,0,-161.32,-38.28,0,53.971,0,-32.459,209.73,1,1,1.03,1.03,-0.1,0
-0.0011099,0.015996,0,-0.80803,0.025049,-0.024975,0,0,-0.67887,0,-160.21,-37.954,0,54.473,0,-31.971,208.69,1,1,1.035,1.035,-0.1,0
-0.0011132,0.016008,0,-0.8057,0.025478,-0.025397,0,0,-0.67884,0,-159.1,-37.63,0,54.967,0,-31.487,207.66,1,1,1.04,1.04,-0.1,0
-0.0011164,0.01602,0,-0.80339,0.025908,-0.025819,0,0,-0.67882,0,-158,-37.307,0,55.453,0,-31.008,206.64,1,1,1.045,1.045,-0.1,0
-0.0011197,0.016031,0,-0.80109,0.026339,-0.026243,0,0,-0.67879,0,-156.9,-36.987,0,55.931,0,-30.532,205.61,1,1,1.05,1.05,-0.1,0
-0.0011229,0.016043,0,-0.79881,0.026771,-0.026667,0,0,-0.67876,0,-155.81,-36.668,0,56.4,0,-30.061,204.59,1,1,1.055,1.055,-0.1,0
-0.0011261,0.016055,0,-0.79654,0.027204,-0.027091,0,0,-0.67874,0,-154.73,-36.352,0,56.862,0,-29.594,203.57,1,1,1.06,1.06,-0.1,0
-0.0011293,0.016067,0,-0.79429,0.027637,-0.027517,0,0,-0.67871,0,-153.65,-36.037,0,57.316,0,-29.131,202.56,1,1,1.065,1.065,-0.1,0
-0.0011325,0.016079,0,-0.79206,0.028071,-0.027943,0,0,-0.67869,0,-152.58,-35.724,0,57.762,0,-28.672,201.55,1,1,1.07,1.07,-0.1,0
-0.0011357,0.016091,0,-0.78984,0.028506,-0.02837,0,0,-0.67866,0,-151.52,-35.413,0,58.199,0,-28.218,200.54,1,1,1.075,1.075,-0.1,0
-0.0011388,0.016102,0,-0.78764,0.028942,-0.028798,0,0,-0.67863,0,-150.46,-35.104,0,58.629,0,-27.768,199.53,1,1,1.08,1.08,-0.1,0
-0.001142,0.016114,0,-0.78546,0.029379,-0.029227,0,0,-0.67861,0,-149.4,-34.797,0,59.05,0,-27.322,198.53,1,1,1.085,1.085,-0.1,0
-0.0011451,0.016126,0,-0.78329,0.029816,-0.029657,0,0,-0.67858,0,-148.36,-34.492,0,59.464,0,-26.88,197.53,1,1,1.09,1.09,-0.1,0
-0.0011483,0.016137,0,-0.78113,0.030255,-0.030087,0,0,-0.67856,0,-147.31,-34.189,0,59.869,0,-26.443,196.53,1,1,1.095,1.095,-0.1,0
-0.0011514,0.016149,0,-0.779,0.030694,-0.030518,0,0,-0.67853,0,-146.28,-33.888,0,60.267,0,-26.01,195.53,1,1,1.1,1.1,-0.1,0
-0.0011545,0.01616,0,-0.77688,0.031134,-0.03095,0,0,-0.6785,0,-145.25,-33.588,0,60.656,0,-25.581,194.54,1,1,1.105,1.105,-0.1,0
-0.0011576,0.016172,0,-0.77478,0.031575,-0.031383,0,0,-0.67848,0,-144.23,-33.291,0,61.037,0,-25.156,193.55,1,1,1.11,1.11,-0.1,0
-0.0011607,0.016183,0,-0.77269,0.032017,-0.031816,0,0,-0.67845,0,-143.21,-32.995,0,61.411,0,-24.736,192.57,1,1,1.115,1.115,-0.1,0
-0.0011638,0.016195,0,-0.77062,0.032459,-0.032251,0,0,-0.67843,0,-142.2,-32.701,0,61.776,0,-24.319,191.58,1,1,1.12,1.12,-0.1,0
-0.0011668,0.016206,0,-0.76856,0.032903,-0.032686,0,0,-0.6784,0,-141.19,-32.409,0,62.133,0,-23.907,190.6,1,1,1.125,1.125,-0.1,0
-0.0011699,0.016218,0,-0.76652,0.033347,-0.033122,0,0,-0.67837,0,-140.19,-32.119,0,62.482,0,-23.5,189.63,1,1,1.13,1.13,-0.1,0
-0.0011729,0.016229,0,-0.7645,0.033792,-0.033559,0,0,-0.67835,0,-139.2,-31.831,0,62.823,0,-23.096,188.65,1,1,1.135,1.135,-0.1,0
-0.001176,0.01624,0,-0.76249,0.034238,-0.033996,0,0,-0.67832,0,-138.21,-31.545,0,63.156,0,-22.697,187.68,1,1,1.14,1.14,-0.1,0
-0.001179,0.016252,0,-0.7605,0.034685,-0.034434,0,0,-0.6783,0,-137.23,-31.261,0,63.481,0,-22.302,186.71,1,1,1.145,1.145,-0.1,0
-0.001182,0.016263,0,-0.75853,0.035132,-0.034873,0,0,-0.67827,0,-136.25,-30.979,0,63.798,0,-21.911,185.75,1,1,1.15,1.15,-0.1,0
-0.001185,0.016274,0,-0.75657,0.035581,-0.035313,0,0,-0.67825,0,-135.28,-30.698,0,64.107,0,-21.524,184.78,1,1,1.155,1.155,-0.1,0
nan,nan,nan,nan,nan,nan,nan,nan,nan,nan,nan,nan,nan,nan,nan,nan,nan,0,0,1.16,1.16,-0.1,0
nan,nan,nan,nan,nan,nan,nan,nan,nan,nan,nan,nan,nan,nan,nan,nan,nan,0,0,1.165,1.165,-0.1,0
nan,nan,nan,nan,nan,nan,nan,nan,nan,nan,nan,nan,nan,nan,nan,nan,nan,0,0,1.17,1.17,-0.1,0
nan,nan,nan,nan,nan,nan,nan,nan,nan,nan,nan,nan,nan,nan,nan,nan,nan,0,0,1.175,1.175,-0.1,0
nan,nan,nan,nan,nan,nan,nan,nan,nan,nan,nan,nan,nan,nan,nan,nan,nan,0,0,1.18,1.18,-0.1,0
nan,nan,nan,nan,nan,nan,nan,nan,nan,nan,nan,nan,nan,nan,nan,nan,nan,0,0,1.185,1.185,-0.1,0
nan,nan,nan,nan,nan,nan,nan,nan,nan,nan,nan,nan,nan,nan,nan,nan,nan,0,0,1.19,1.19,-0.1,0
nan,nan,nan,nan,nan,nan,nan,nan,nan,nan,nan,nan,nan,nan,nan,nan,nan,0,0,1.195,1.195,-0.1,0
nan,nan,nan,nan,nan,nan,nan,nan,nan,nan,nan,nan,nan,nan,nan,nan,nan,0,0,1.2,1.2,-0.1,0
nan,nan,nan,nan,nan,nan,nan,nan,nan,nan,nan,nan,nan,nan,nan,nan,nan,0,0,1.205,1.205,-0.1,0
nan,nan,nan,nan,nan,nan,nan,nan,nan,nan,nan,nan,nan,nan,nan,nan,nan,0,0,1.21,1.21,-0.1,0
nan,nan,nan,nan,nan,nan,nan,nan,nan,nan,nan,nan,nan,nan,nan,nan,nan,0,0,1.215,1.215,-0.1,0
nan,nan,nan,nan,nan,nan,nan,nan,nan,nan,nan,nan,nan,nan,nan,nan,nan,0,0,1.22,1.22,-0.1,0
nan,nan,nan,nan,nan,nan,nan,nan,nan,nan,nan,nan,nan,nan,nan,nan,nan,0,0,1.225,1.225,-0.1,0
nan,nan,nan,nan,nan,nan,nan,nan,nan,nan,nan,nan,nan,nan,nan,nan,nan,0,0,1.23,1.23,-0.1,0
nan,nan,nan,nan,nan,nan,nan,nan,nan,nan,nan,nan,nan,nan,nan,nan,nan,0,0,1.235,1.235,-0.1,0
nan,nan,nan,nan,nan,nan,nan,nan,nan,nan,nan,nan,nan,nan,nan,nan,nan,0,0,1.24,1.24,-0.1,0
nan,nan,nan,nan,nan,nan,nan,nan,nan,nan,nan,nan,nan,nan,nan,nan,nan,0,0,1.245,1.245,-0.1,0
nan,nan,nan,nan,nan,nan,nan,nan,nan,nan,nan,nan,nan,nan,nan,nan,nan,0,0,1.25,1.25,-0.1,0
nan,nan,nan,nan,nan,nan,nan,nan,nan,nan,nan,nan,nan,nan,nan,nan,nan,0,0,1.255,1.255,-0.1,0
nan,nan,nan,nan,nan,nan,nan,nan,nan,nan,nan,nan,nan,nan,nan,nan,nan,0,0,1.26,1.26,-0.1,0
nan,nan,nan,nan,nan,nan,nan,nan,nan,nan,nan,nan,nan,nan,nan,nan,nan,0,0,1.265,1.265,-0.1,0
nan,nan,nan,nan,nan,nan,nan,nan,nan,nan,nan,nan,nan,nan,nan,nan,nan,0,0,1.27,1.27,-0.1,0
nan,nan,nan,nan,nan,nan,nan,nan,nan,nan,nan,nan,nan,nan,nan,nan,nan,0,0,1.275,1.275,-0.1,0
nan,nan,nan,nan,nan,nan,nan,nan,nan,nan,nan,nan,nan,nan,nan,nan,nan,0,0,1.28,1.28,-0.1,0
nan,nan,nan,nan,nan,nan,nan,nan,nan,nan,nan,nan,nan,nan,nan,nan,nan,0,0,1.285,1.285,-0.1,0
nan,nan,nan,nan,nan,nan,nan,nan,nan,nan,nan,nan,nan,nan,nan,nan,nan,0,0,1.29,1.29,-0.1,0
nan,nan,nan,nan,nan,nan,nan,nan,nan,nan,nan,nan,nan,nan,nan,nan,nan,0,0,1.295,1.295,-0.1,0
nan,nan,nan,nan,nan,nan,nan,nan,nan,nan,nan,nan,nan,nan,nan,nan,nan,0,0,1.3,1.3,-0.1,0
nan,nan,nan,nan,nan,nan,nan,nan,nan,nan,nan,nan,nan,nan,nan,nan,nan,0,0,1.305,1.305,-0.1,0
nan,nan,nan,nan,nan,nan,nan,nan,nan,nan,nan,nan,nan,nan,nan,nan,nan,0,0,1.31,1.31,-0.1,0
nan,nan,nan,nan,nan,nan,nan,nan,nan,nan,nan,nan,nan,nan,nan,nan,nan,0,0,1.315,1.315,-0.1,0
nan,nan,nan,nan,nan,nan,nan,nan,nan,nan,nan,nan,nan,nan,nan,nan,nan,0,0,1.32,1.32,-0.1,0
nan,nan,nan,nan,nan,nan,nan,nan,nan,nan,nan,nan,nan,nan,nan,nan,nan,0,0,1.325,1.325,-0.1,0
nan,nan,nan,nan,nan,nan,nan,nan,nan,nan,nan,nan,nan,nan,nan,nan,nan,0,0,1.33,1.33,-0.1,0
nan,nan,nan,nan,nan,nan,nan,nan,nan,nan,nan,nan,nan,nan,nan,nan,nan,0,0,1.335,1.335,-0.1,0
nan,nan,nan,nan,nan,nan,nan,nan,nan,nan,nan,nan,nan,nan,nan,nan,nan,0,0,1.34,1.34,-0.1,0
nan,nan,nan,nan,nan,nan,nan,nan,nan,nan,nan,nan,nan,nan,nan,nan,nan,0,0,1.345,1.345,-0.1,0
nan,nan,nan,nan,nan,nan,nan,nan,nan,nan,nan,nan,nan,nan,nan,nan,nan,0,0,1.35,1.35,-0.1,0
nan,nan,nan,nan,nan,nan,nan,nan,nan,nan,nan,nan,nan,nan,nan,nan,nan,0,0,1.355,1.355,-0.1,0
nan,nan,nan,nan,nan,nan,nan,nan,nan,nan,nan,nan,nan,nan,nan,nan,nan,0,0,1.36,1.36,-0.1,0
nan,nan,nan,nan,nan,nan,nan,nan,nan,nan,nan,nan,nan,nan,nan,nan,nan,0,0,1.365,1.365,-0.1,0
nan,nan,nan,nan,nan,nan,nan,nan,nan,nan,nan,nan,nan,nan,nan,nan,nan,0,0,1.37,1.37,-0.1,0
nan,nan,nan,nan,nan,nan,nan,nan,nan,nan,nan,nan,nan,nan,nan,nan,nan,0,0,1.375,1.375,-0.1,0
nan,nan,nan,nan,nan,nan,nan,nan,nan,nan,nan,nan,nan,nan,nan,nan,nan,0,0,1.38,1.38,-0.1,0
-0.0013106,0.016754,0,-0.68398,0.057106,-0.056408,0,0,-0.67705,0,-97.159,-19.848,0,69.619,0,-8.3205,143.68,1,1,1.385,1.385,-0.1,0
-0.001313,0.016764,0,-0.68278,0.057593,-0.056886,0,0,-0.67703,0,-96.471,-19.657,0,69.55,0,-8.133,142.86,1,1,1.39,1.39,-0.1,0
-0.0013155,0.016773,0,-0.6816,0.058081,-0.057364,0,0,-0.677,0,-95.789,-19.467,0,69.473,0,-7.9497,142.04,1,1,1.395,1.395,-0.1,0
-0.0013179,0.016783,0,-0.68043,0.058571,-0.057842,0,0,-0.67698,0,-95.113,-19.28,0,69.388,0,-7.7707,141.22,1,1,1.4,1.4,-0.1,0
-0.0013203,0.016793,0,-0.67928,0.059061,-0.058322,0,0,-0.67695,0,-94.443,-19.094,0,69.294,0,-7.5959,140.41,1,1,1.405,1.405,-0.1,0
-0.0013228,0.016802,0,-0.67815,0.059551,-0.058802,0,0,-0.67692,0,-93.779,-18.91,0,69.193,0,-7.4253,139.59,1,1,1.41,1.41,-0.1,0
-0.0013252,0.016812,0,-0.67703,0.060043,-0.059284,0,0,-0.6769,0,-93.121,-18.728,0,69.083,0,-7.259,138.78,1,1,1.415,1.415,-0.1,0
-0.0013276,0.016821,0,-0.67593,0.060535,-0.059766,0,0,-0.67687,0,-92.469,-18.548,0,68.966,0,-7.0969,137.98,1,1,1.42,1.42,-0.1,0
-0.00133,0.01683,0,-0.67484,0.061029,-0.060249,0,0,-0.67685,0,-91.823,-18.37,0,68.84,0,-6.939,137.17,1,1,1.425,1.425,-0.1,0
-0.0013323,0.01684,0,-0.67378,0.061523,-0.060732,0,0,-0.67682,0,-91.183,-18.194,0,68.707,0,-6.7854,136.37,1,1,1.43,1.43,-0.1,0
-0.0013347,0.016849,0,-0.67272,0.062018,-0.061217,0,0,-0.6768,0,-90.548,-18.019,0,68.565,0,-6.636,135.57,1,1,1.435,1.435,-0.1,0
-0.001337,0.016859,0,-0.67169,0.062514,-0.061702,0,0,-0.67677,0,-89.92,-17.847,0,68.416,0,-6.4908,134.78,1,1,1.44,1.44,-0.1,0
-0.0013394,0.016868,0,-0.67067,0.06301,-0.062188,0,0,-0.67674,0,-89.298,-17.676,0,68.258,0,-6.3499,133.99,1,1,1.445,1.445,-0.1,0
-0.0013417,0.016877,0,-0.66966,0.063508,-0.062675,0,0,-0.67672,0,-88.682,-17.508,0,68.092,0,-6.2132,133.2,1,1,1.45,1.45,-0.1,0
-0.001344,0.016886,0,-0.66867,0.064006,-0.063162,0,0,-0.67669,0,-88.072,-17.341,0,67.919,0,-6.0808,132.41,1,1,1.455,1.455,-0.1,0
-0.0013463,0.016895,0,-0.6677,0.064505,-0.063651,0,0,-0.67667,0,-87.468,-17.176,0,67.737,0,-5.9525,131.63,1,1,1.46,1.46,-0.1,0
-0.0013486,0.016905,0,-0.66674,0.065005,-0.06414,0,0,-0.67664,0,-86.869,-17.013,0,67.547,0,-5.8286,130.85,1,1,1.465,1.465,-0.1,0
-0.0013509,0.016914,0,-0.6658,0.065506,-0.06463,0,0,-0.67661,0,-86.277,-16.852,0,67.349,0,-5.7088,130.07,1,1,1.47,1.47,-0.1,0
-0.0013532,0.016923,0,-0.66488,0.066007,-0.06512,0,0,-0.67659,0,-85.691,-16.692,0,67.143,0,-5.5933,129.3,1,1,1.475,1.475,-0.1,0
-0.0013554,0.016932,0,-0.66397,0.06651,-0.065612,0,0,-0.67656,0,-85.111,-16.535,0,66.929,0,-5.482,128.53,1,1,1.48,1.48,-0.1,0
-0.0013577,0.016941,0,-0.66308,0.067013,-0.066104,0,0,-0.67654,0,-84.537,-16.379,0,66.707,0,-5.375,127.76,1,1,1.485,1.485,-0.1,0
-0.0013599,0.01695,0,-0.66221,0.067517,-0.066597,0,0,-0.67651,0,-83.968,-16.226,0,66.477,0,-5.2721,126.99,1,1,1.49,1.49,-0.1,0
-0.0013621,0.016959,0,-0.66135,0.068022,-0.067091,0,0,-0.67648,0,-83.406,-16.074,0,66.239,0,-5.1736,126.23,1,1,1.495,1.495,-0.1,0
-0.0013644,0.016968,0,-0.6605,0.068528,-0.067586,0,0,-0.67646,0,-82.85,-15.924,0,65.993,0,-5.0792,125.47,1,1,1.5,1.5,-0.1,0
-0.0013666,0.016977,0,-0.65968,0.069034,-0.068082,0,0,-0.67643,0,-82.3,-15.776,0,65.739,0,-4.9891,124.71,1,1,1.505,1.505,-0.1,0
-0.0013688,0.016986,0,-0.65887,0.069542,-0.068578,0,0,-0.67641,0,-81.755,-15.63,0,65.477,0,-4.9033,123.96,1,1,1.51,1.51,-0.1,0
-0.0013709,0.016994,0,-0.65807,0.07005,-0.069075,0,0,-0.67638,0,-81.217,-15.486,0,65.206,0,-4.8216,123.21,1,1,1.515,1.515,-0.1,0
-0.0013731,0.017003,0,-0.65729,0.070559,-0.069573,0,0,-0.67636,0,-80.685,-15.343,0,64.928,0,-4.7442,122.46,1,1,1.52,1.52,-0.1,0
-0.0013753,0.017012,0,-0.65653,0.071069,-0.070072,0,0,-0.67633,0,-80.159,-15.203,0,64.642,0,-4.671,121.72,1,1,1.525,1.525,-0.1,0
-0.0013774,0.017021,0,-0.65578,0.07158,-0.070571,0,0,-0.6763,0,-79.638,-15.064,0,64.348,0,-4.6021,120.98,1,1,1.53,1.53,-0.1,0
-0.0013795,0.017029,0,-0.65505,0.072091,-0.071071,0,0,-0.67628,0,-79.124,-14.928,0,64.045,0,-4.5374,120.24,1,1,1.535,1.535,-0.1,0
-0.0013817,0.017038,0,-0.65434,0.072604,-0.071572,0,0,-0.67625,0,-78.616,-14.793,0,63.735,0,-4.4769,119.5,1,1,1.54,1.54,-0.1,0
-0.0013838,0.017047,0,-0.65365,0.073117,-0.072075,0,0,-0.67623,0,-78.113,-14.66,0,63.417,0,-4.4205,118.77,1,1,1.545,1.545,-0.1,0
-0.0013859,0.017055,0,-0.65297,0.073632,-0.072578,0,0,-0.67621,0,-77.616,-14.53,0,63.091,0,-4.368,118.04,1,1,1.55,1.55,-0.1,0
-0.001388,0.017064,0,-0.65232,0.074148,-0.073083,0,0,-0.6762,0,-77.125,-14.401,0,62.757,0,-4.3198,117.31,1,1,1.555,1.555,-0.1,0
-0.0013901,0.017072,0,-0.65168,0.074665,-0.073588,0,0,-0.67618,0,-76.64,-14.274,0,62.415,0,-4.2758,116.59,1,1,1.56,1.56,-0.1,0
-0.0013921,0.017081,0,-0.65106,0.075182,-0.074094,0,0,-0.67616,0,-76.161,-14.149,0,62.065,0,-4.236,115.87,1,1,1.565,1.565,-0.1,0
-0.0013942,0.017089,0,-0.65045,0.075701,-0.074601,0,0,-0.67615,0,-75.687,-14.026,0,61.707,0,-4.2005,115.15,1,1,1.57,1.57,-0.1,0
-0.0013963,0.017098,0,-0.64986,0.07622,-0.075108,0,0,-0.67613,0,-75.22,-13.905,0,61.341,0,-4.1692,114.44,1,1,1.575,1.575,-0.1,0
-0.0013983,0.017106,0,-0.64928,0.07674,-0.075617,0,0,-0.67611,0,-74.759,-13.786,0,60.967,0,-4.1422,113.72,1,1,1.58,1.58,-0.1,0
-0.0014003,0.017114,0,-0.64872,0.077261,-0.076126,0,0,-0.6761,0,-74.304,-13.669,0,60.585,0,-4.1193,113.01,1,1,1.585,1.585,-0.1,0
-0.0014023,0.017123,0,-0.64818,0.077783,-0.076636,0,0,-0.67608,0,-73.855,-13.553,0,60.195,0,-4.1008,112.31,1,1,1.59,1.59,-0.1,0
-0.0014044,0.017131,0,-0.64765,0.078305,-0.077147,0,0,-0.67606,0,-73.411,-13.439,0,59.797,0,-4.0864,111.61,1,1,1.595,1.595,-0.1,0
-0.0014063,0.017139,0,-0.64714,0.078829,-0.077658,0,0,-0.67605,0,-72.974,-13.328,0,59.391,0,-4.0763,110.91,1,1,1.6,1.6,-0.1,0
-0.0014083,0.017147,0,-0.64665,0.079353,-0.078171,0,0,-0.67603,0,-72.543,-13.218,0,58.977,0,-4.0704,110.21,1,1,1.605,1.605,-0.1,0
-0.0014103,0.017156,0,-0.64617,0.079878,-0.078684,0,0,-0.67601,0,-72.118,-13.11,0,58.554,0,-4.0688,109.51,1,1,1.61,1.61,-0.1,0
-0.0014123,0.017164,0,-0.64571,0.080404,-0.079198,0,0,-0.676,0,-71.698,-13.003,0,58.124,0,-4.0713,108.82,1,1,1.615,1.615,-0.1,0
-0.0014142,0.017172,0,-0.64526,0.080931,-0.079713,0,0,-0.67598,0,-71.285,-12.899,0,57.686,0,-4.0782,108.13,1,1,1.62,1.62,-0.1,0
-0.0014162,0.01718,0,-0.64483,0.081458,-0.080229,0,0,-0.67596,0,-70.878,-12.797,0,57.239,0,-4.0892,107.45,1,1,1.625,1.625,-0.1,0
-0.0014181,0.017188,0,-0.64442,0.081987,-0.080745,0,0,-0.67595,0,-70.476,-12.696,0,56.785,0,-4.1045,106.77,1,1,1.63,1.63,-0.1,0
-0.00142,0.017196,0,-0.64402,0.082516,-0.081262,0,0,-0.67593,0,-70.081,-12.597,0,56.322,0,-4.124,106.09,1,1,1.635,1.635,-0.1,0
-0.0014219,0.017204,0,-0.64364,0.083046,-0.081781,0,0,-0.67591,0,-69.692,-12.501,0,55.851,0,-4.1478,105.41,1,1,1.64,1.64,-0.1,0
-0.0014238,0.017212,0,-0.64327,0.083577,-0.082299,0,0,-0.6759,0,-69.308,-12.406,0,55.373,0,-4.1758,104.74,1,1,1.645,1.645,-0.1,0
-0.0014257,0.01722,0,-0.64292,0.084109,-0.082819,0,0,-0.67588,0,-68.931,-12.312,0,54.886,0,-4.208,104.07,1,1,1.65,1.65,-0.1,0
-0.0014275,0.017228,0,-0.64259,0.084642,-0.08334,0,0,-0.67586,0,-68.559,-12.221,0,54.391,0,-4.2445,103.4,1,1,1.655,1.655,-0.1,0
-0.0014294,0.017236,0,-0.64227,0.085176,-0.083861,0,0,-0.67585,0,-68.194,-12.132,0,53.889,0,-4.2852,102.73,1,1,1.66,1.66,-0.1,0
-0.0014312,0.017243,0,-0.64197,0.08571,-0.084383,0,0,-0.67583,0,-67.835,-12.044,0,53.378,0,-4.3301,102.07,1,1,1.665,1.665,-0.1,0
-0.0014331,0.017251,0,-0.64168,0.086245,-0.084906,0,0,-0.67581,0,-67.481,-11.959,0,52.859,0,-4.3793,101.41,1,1,1.67,1.67,-0.1,0
-0.0014349,0.017259,0,-0.64141,0.086781,-0.08543,0,0,-0.6758,0,-67.134,-11.875,0,52.332,0,-4.4327,100.76,1,1,1.675,1.675,-0.1,0
-0.0014367,0.017267,0,-0.64116,0.087318,-0.085954,0,0,-0.67578,0,-66.792,-11.793,0,51.797,0,-4.4903,100.1,1,1,1.68,1.68,-0.1,0
-0.0014385,0.017274,0,-0.64092,0.087856,-0.08648,0,0,-0.67576,0,-66.457,-11.713,0,51.254,0,-4.5522,99.455,1,1,1.685,1.685,-0.1,0
-0.0014403,0.017282,0,-0.6407,0.088394,-0.087006,0,0,-0.67575,0,-66.127,-11.635,0,50.703,0,-4.6183,98.807,1,1,1.69,1.69,-0.1,0
-0.0014421,0.01729,0,-0.6405,0.088934,-0.087533,0,0,-0.67573,0,-65.803,-11.559,0,50.144,0,-4.6887,98.163,1,1,1.695,1.695,-0.1,0
-0.0014439,0.017297,0,-0.64031,0.089474,-0.08806,0,0,-0.67571,0,-65.486,-11.484,0,49.577,0,-4.7632,97.522,1,1,1.7,1.7,-0.1,0
-0.0014456,0.017305,0,-0.64014,0.090015,-0.088589,0,0,-0.6757,0,-65.174,-11.412,0,49.001,0,-4.8421,96.884,1,1,1.705,1.705,-0.1,0
-0.0014474,0.017312,0,-0.63998,0.090557,-0.089118,0,0,-0.67568,0,-64.869,-11.341,0,48.418,0,-4.9251,96.248,1,1,1.71,1.71,-0.1,0
-0.0014491,0.01732,0,-0.63984,0.0911,-0.089649,0,0,-0.67566,0,-64.569,-11.272,0,47.827,0,-5.0124,95.616,1,1,1.715,1.715,-0.1,0
-0.0014508,0.017327,0,-0.63971,0.091644,-0.09018,0,0,-0.67565,0,-64.276,-11.205,0,47.227,0,-5.1039,94.987,1,1,1.72,1.72,-0.1,0
-0.0014525,0.017335,0,-0.63961,0.092188,-0.090711,0,0,-0.67563,0,-63.988,-11.14,0,46.62,0,-5.1996,94.36,1,1,1.725,1.725,-0.1,0
-0.0014542,0.017342,0,-0.63951,0.092734,-0.091244,0,0,-0.67561,0,-63.706,-11.077,0,46.005,0,-5.2996,93.737,1,1,1.73,1.73,-0.1,0
-0.0014559,0.01735,0,-0.63944,0.09328,-0.091777,0,0,-0.6756,0,-63.431,-11.016,0,45.381,0,-5.4039,93.116,1,1,1.735,1.735,-0.1,0
-0.0014576,0.017357,0,-0.63938,0.093827,-0.092312,0,0,-0.67558,0,-63.161,-10.956,0,44.75,0,-5.5123,92.498,1,1,1.74,1.74,-0.1,0
-0.0014593,0.017364,0,-0.63933,0.094375,-0.092847,0,0,-0.67556,0,-62.897,-10.899,0,44.11,0,-5.625,91.884,1,1,1.745,1.745,-0.1,0
-0.0014609,0.017371,0,-0.63931,0.094923,-0.093382,0,0,-0.67555,0,-62.639,-10.843,0,43.462,0,-5.7419,91.272,1,1,1.75,1.75,-0.1,0
-0.0014625,0.017379,0,-0.6393,0.095473,-0.093919,0,0,-0.67553,0,-62.388,-10.789,0,42.807,0,-5.8631,90.663,1,1,1.755,1.755,-0.1,0
-0.0014642,0.017386,0,-0.6393,0.096023,-0.094456,0,0,-0.67551,0,-62.142,-10.737,0,42.143,0,-5.9885,90.057,1,1,1.76,1.76,-0.1,0
-0.0014658,0.017393,0,-0.63932,0.096575,-0.094995,0,0,-0.6755,0,-61.902,-10.687,0,41.471,0,-6.1181,89.454,1,1,1.765,1.765,-0.1,0
-0.0014674,0.0174,0,-0.63936,0.097127,-0.095534,0,0,-0.67548,0,-61.668,-10.639,0,40.791,0,-6.252,88.854,1,1,1.77,1.77,-0.1,0
-0.001469,0.017407,0,-0.63941,0.09768,-0.096074,0,0,-0.67546,0,-61.441,-10.592,0,40.104,0,-6.39,88.257,1,1,1.775,1.775,-0.1,0
-0.0014706,0.017414,0,-0.63948,0.098233,-0.096614,0,0,-0.67545,0,-61.219,-10.548,0,39.408,0,-6.5324,87.663,1,1,1.78,1.78,-0.1,0
-0.0014722,0.017421,0,-0.63956,0.098788,-0.097156,0,0,-0.67543,0,-61.003,-10.505,0,38.704,0,-6.6789,87.072,1,1,1.785,1.785,-0.1,0
-0.0014737,0.017428,0,-0.63966,0.099344,-0.097698,0,0,-0.67541,0,-60.793,-10.464,0,37.992,0,-6.8297,86.484,1,1,1.79,1.79,-0.1,0
-0.0014753,0.017435,0,-0.63978,0.0999,-0.098241,0,0,-0.6754,0,-60.589,-10.425,0,37.272,0,-6.9848,85.899,1,1,1.795,1.795,-0.1,0
-0.0014768,0.017442,0,-0.63991,0.10046,-0.098785,0,0,-0.67538,0,-60.392,-10.388,0,36.543,0,-7.144,85.316,1,1,1.8,1.8,-0.1,0
-0.0014783,0.017449,0,-0.64006,0.10101,-0.09933,0,0,-0.67536,0,-60.2,-10.353,0,35.807,0,-7.3075,84.737,1,1,1.805,1.805,-0.1,0
-0.0014799,0.017456,0,-0.64023,0.10157,-0.099875,0,0,-0.67535,0,-60.014,-10.32,0,35.063,0,-7.4753,84.161,1,1,1.81,1.81,-0.1,0
-0.0014814,0.017463,0,-0.64041,0.10213,-0.10042,0,0,-0.67533,0,-59.834,-10.288,0,34.311,0,-7.6473,83.587,1,1,1.815,1.815,-0.1,0
-0.0014829,0.01747,0,-0.64061,0.10269,-0.10097,0,0,-0.67531,0,-59.66,-10.258,0,33.551,0,-7.8235,83.017,1,1,1.82,1.82,-0.1,0
-0.0014844,0.017476,0,-0.64082,0.10326,-0.10152,0,0,-0.6753,0,-59.492,-10.231,0,32.782,0,-8.0039,82.449,1,1,1.825,1.825,-0.1,0
-0.0014858,0.017483,0,-0.64105,0.10382,-0.10207,0,0,-0.67528,0,-59.33,-10.205,0,32.006,0,-8.1886,81.885,1,1,1.83,1.83,-0.1,0
-0.0014873,0.01749,0,-0.6413,0.10438,-0.10261,0,0,-0.67526,0,-59.174,-10.181,0,31.221,0,-8.3775,81.323,1,1,1.835,1.835,-0.1,0
-0.0014887,0.017496,0,-0.64156,0.10494,-0.10316,0,0,-0.67525,0,-59.024,-10.159,0,30.429,0,-8.5706,80.764,1,1,1.84,1.84,-0.1,0
-0.0014902,0.017503,0,-0.64184,0.10551,-0.10372,0,0,-0.67523,0,-58.88,-10.138,0,29.628,0,-8.768,80.209,1,1,1.845,1.845,-0.1,0
-0.0014916,0.01751,0,-0.64213,0.10607,-0.10427,0,0,-0.67521,0,-58.742,-10.12,0,28.82,0,-8.9696,79.656,1,1,1.85,1.85,-0.1,0
-0.001493,0.017516,0,-0.64244,0.10664,-0.10482,0,0,-0.6752,0,-58.61,-10.103,0,28.003,0,-9.1755,79.106,1,1,1.855,1.855,-0.1,0
-0.0014944,0.017523,0,-0.64277,0.10721,-0.10537,0,0,-0.67518,0,-58.484,-10.089,0,27.179,0,-9.3855,78.559,1,1,1.86,1.86,-0.1,0
-0.0014958,0.017529,0,-0.64311,0.10778,-0.10593,0,0,-0.67516,0,-58.364,-10.076,0,26.346,0,-9.5999,78.015,1,1,1.865,1.865,-0.1,0
-0.0014972,0.017536,0,-0.64347,0.10835,-0.10648,0,0,-0.67515,0,-58.25,-10.065,0,25.505,0,-9.8184,77.474,1,1,1.87,1.87,-0.1,0
-0.0014986,0.017542,0,-0.64384,0.10892,-0.10704,0,0,-0.67513,0,-58.142,-10.056,0,24.656,0,-10.041,76.936,1,1,1.875,1.875,-0.1,0
-0.0014999,0.017548,0,-0.64423,0.10949,-0.1076,0,0,-0.67511,0,-58.04,-10.048,0,23.8,0,-10.268,76.401,1,1,1.88,1.88,-0.1,0
-0.0015013,0.017555,0,-0.64464,0.11006,-0.10815,0,0,-0.67509,0,-57.944,-10.043,0,22.935,0,-10.499,75.869,1,1,1.885,1.885,-0.1,0
-0.0015026,0.017561,0,-0.64506,0.11063,-0.10871,0,0,-0.67508,0,-57.853,-10.039,0,22.062,0,-10.735,75.34,1,1,1.89,1.89,-0.1,0
-0.0015039,0.017567,0,-0.6455,0.1112,-0.10927,0,0,-0.67506,0,-57.769,-10.038,0,21.181,0,-10.975,74.814,1,1,1.895,1.895,-0.1,0
-0.0015052,0.017574,0,-0.64595,0.11178,-0.10983,0,0,-0.67504,0,-57.691,-10.038,0,20.292,0,-11.219,74.29,1,1,1.9,1.9,-0.1,0
-0.0015065,0.01758,0,-0.64643,0.11235,-0.11039,0,0,-0.67503,0,-57.619,-10.04,0,19.395,0,-11.467,73.77,1,1,1.905,1.905,-0.1,0
-0.0015078,0.017586,0,-0.64691,0.11293,-0.11095,0,0,-0.67501,0,-57.553,-10.044,0,18.49,0,-11.719,73.253,1,1,1.91,1.91,-0.1,0
-0.0015091,0.017592,0,-0.64742,0.1135,-0.11152,0,0,-0.67499,0,-57.493,-10.049,0,17.576,0,-11.976,72.738,1,1,1.915,1.915,-0.1,0
-0.0015104,0.017598,0,-0.64794,0.11408,-0.11208,0,0,-0.67498,0,-57.438,-10.057,0,16.655,0,-12.237,72.227,1,1,1.92,1.92,-0.1,0
-0.0015116,0.017604,0,-0.64847,0.11466,-0.11264,0,0,-0.67496,0,-57.39,-10.067,0,15.726,0,-12.502,71.718,1,1,1.925,1.925,-0.1,0
-0.0015129,0.017611,0,-0.64902,0.11524,-0.11321,0,0,-0.67494,0,-57.348,-10.078,0,14.789,0,-12.771,71.213,1,1,1.93,1.93,-0.1,0
-0.0015141,0.017617,0,-0.64959,0.11582,-0.11377,0,0,-0.67493,0,-57.312,-10.091,0,13.843,0,-13.045,70.71,1,1,1.935,1.935,-0.1,0
-0.0015153,0.017623,0,-0.65017,0.1164,-0.11434,0,0,-0.67491,0,-57.281,-10.106,0,12.89,0,-13.323,70.211,1,1,1.94,1.94,-0.1,0
-0.0015166,0.017628,0,-0.65077,0.11698,-0.11491,0,0,-0.67489,0,-57.257,-10.123,0,11.929,0,-13.605,69.714,1,1,1.945,1.945,-0.1,0
-0.0015178,0.017634,0,-0.65139,0.11756,-0.11548,0,0,-0.67488,0,-57.239,-10.142,0,10.959,0,-13.891,69.22,1,1,1.95,1.95,-0.1,0
-0.0015189,0.01764,0,-0.65202,0.11815,-0.11604,0,0,-0.67486,0,-57.226,-10.163,0,9.9816,0,-14.182,68.73,1,1,1.955,1.955,-0.1,0
-0.0015201,0.017646,0,-0.65267,0.11873,-0.11661,0,0,-0.67484,0,-57.22,-10.185,0,8.996,0,-14.476,68.242,1,1,1.96,1.96,-0.1,0
-0.0015213,0.017652,0,-0.65333,0.11932,-0.11718,0,0,-0.67483,0,-57.22,-10.209,0,8.0024,0,-14.775,67.757,1,1,1.965,1.965,-0.1,0
-0.0015224,0.017658,0,-0.65401,0.1199,-0.11776,0,0,-0.67481,0,-57.225,-10.236,0,7.0007,0,-15.079,67.275,1,1,1.97,1.97,-0.1,0
-0.0015236,0.017664,0,-0.65471,0.12049,-0.11833,0,0,-0.67479,0,-57.237,-10.264,0,5.991,0,-15.386,66.796,1,1,1.975,1.975,-0.1,0
-0.0015247,0.017669,0,-0.65542,0.12108,-0.1189,0,0,-0.67478,0,-57.255,-10.294,0,4.9733,0,-15.698,66.32,1,1,1.98,1.98,-0.1,0
-0.0015258,0.017675,0,-0.65615,0.12166,-0.11947,0,0,-0.67476,0,-57.278,-10.325,0,3.9475,0,-16.014,65.847,1,1,1.985,1.985,-0.1,0
-0.001527,0.017681,0,-0.65689,0.12225,-0.12005,0,0,-0.67474,0,-57.308,-10.359,0,2.9137,0,-16.334,65.377,1,1,1.99,1.99,-0.1,0
-0.001528,0.017686,0,-0.65765,0.12284,-0.12062,0,0,-0.67473,0,-57.343,-10.395,0,1.8718,0,-16.658,64.91,1,1,1.995,1.995,-0.1,0
-0.0015291,0.017692,0,-0.65843,0.12343,-0.1212,0,0,-0.67471,0,-57.385,-10.432,0,0.82187,0,-16.987,64.446,1,1,2,2,-0.1,0
-0.0015302,0.017697,0,-0.65922,0.12403,-0.12178,0,0,-0.67469,0,-57.432,-10.471,0,-0.23612,0,-17.32,63.984,1,1,2.005,2.005,-0.1,0
-0.0015313,0.017703,0,-0.66003,0.12462,-0.12235,0,0,-0.67468,0,-57.486,-10.512,0,-1.3021,0,-17.657,63.526,1,1,2.01,2.01,-0.1,0
-0.0015323,0.017708,0,-0.66085,0.12521,-0.12293,0,0,-0.67466,0,-57.545,-10.555,0,-2.3762,0,-17.998,63.071,1,1,2.015,2.015,-0.1,0
-0.0015334,0.017714,0,-0.6617,0.12581,-0.12351,0,0,-0.67464,0,-57.611,-10.6,0,-3.4583,0,-18.344,62.618,1,1,2.02,2.02,-0.1,0
-0.0015344,0.017719,0,-0.66255,0.1264,-0.12409,0,0,-0.67463,0,-57.682,-10.647,0,-4.5484,0,-18.694,62.169,1,1,2.025,2.025,-0.1,0
-0.0015354,0.017725,0,-0.66342,0.127,-0.12467,0,0,-0.67461,0,-57.76,-10.695,0,-5.6466,0,-19.048,61.723,1,1,2.03,2.03,-0.1,0
-0.0015364,0.01773,0,-0.66431,0.12759,-0.12526,0,0,-0.67459,0,-57.843,-10.746,0,-6.7529,0,-19.406,61.279,1,1,2.035,2.035,-0.1,0
-0.0015374,0.017735,0,-0.66522,0.12819,-0.12584,0,0,-0.67458,0,-57.933,-10.798,0,-7.8671,0,-19.768,60.839,1,1,2.04,2.04,-0.1,0
-0.0015384,0.017741,0,-0.66614,0.12879,-0.12642,0,0,-0.67456,0,-58.028,-10.852,0,-8.9895,0,-20.135,60.401,1,1,2.045,2.045,-0.1,0
-0.0015394,0.017746,0,-0.66708,0.12939,-0.12701,0,0,-0.67454,0,-58.13,-10.908,0,-10.12,0,-20.506,59.967,1,1,2.05,2.05,-0.1,0
-0.0015403,0.017751,0,-0.66803,0.12999,-0.12759,0,0,-0.67453,0,-58.237,-10.966,0,-11.258,0,-20.881,59.535,1,1,2.055,2.055,-0.1,0
-0.0015413,0.017756,0,-0.669,0.13059,-0.12818,0,0,-0.67451,0,-58.35,-11.025,0,-12.405,0,-21.261,59.106,1,1,2.06,2.06,-0.1,0
-0.0015422,0.017762,0,-0.66999,0.13119,-0.12876,0,0,-0.67449,0,-58.47,-11.087,0,-13.559,0,-21.645,58.68,1,1,2.065,2.065,-0.1,0
-0.0015432,0.017767,0,-0.67099,0.13179,-0.12935,0,0,-0.67448,0,-58.595,-11.15,0,-14.722,0,-22.032,58.258,1,1,2.07,2.07,-0.1,0
-0.0015441,0.017772,0,-0.672,0.1324,-0.12994,0,0,-0.67446,0,-58.726,-11.215,0,-15.892,0,-22.425,57.838,1,1,2.075,2.075,-0.1,0
-0.001545,0.017777,0,-0.67304,0.133,-0.13053,0,0,-0.67444,0,-58.864,-11.282,0,-17.071,0,-22.821,57.421,1,1,2.08,2.08,-0.1,0
-0.0015459,0.017782,0,-0.67409,0.13361,-0.13112,0,0,-0.67443,0,-59.007,-11.351,0,-18.258,0,-23.222,57.007,1,1,2.085,2.085,-0.1,0
-0.0015472,0.017787,0,-0.67441,0.13435,-0.13183,0,0,-0.67441,0,-59.089,-11.256,0,-18.591,0,-23.347,56.732,1,1,2.09,2.09,-0.1,0
-0.0015488,0.017793,0,-0.6744,0.13516,-0.13259,0,0,-0.6744,0,-59.142,-11.086,0,-18.528,0,-23.343,56.522,1,1,2.095,2.095,-0.1,0
-0.0015503,0.017799,0,-0.67439,0.13598,-0.13336,0,0,-0.67439,0,-59.194,-10.916,0,-18.465,0,-23.339,56.314,1,1,2.1,2.1,-0.1,0
-0.0015519,0.017805,0,-0.67437,0.13679,-0.13412,0,0,-0.67437,0,-59.247,-10.748,0,-18.401,0,-23.335,56.109,1,1,2.105,2.105,-0.1,0
-0.0015535,0.01781,0,-0.67436,0.1376,-0.13489,0,0,-0.67436,0,-59.3,-10.581,0,-18.337,0,-23.332,55.906,1,1,2.11,2.11,-0.1,0
-0.001555,0.017816,0,-0.67435,0.13842,-0.13566,0,0,-0.67435,0,-59.353,-10.415,0,-18.272,0,-23.328,55.705,1,1,2.115,2.115,-0.1,0
-0.0015566,0.017822,0,-0.67433,0.13923,-0.13642,0,0,-0.67433,0,-59.407,-10.25,0,-18.207,0,-23.324,55.506,1,1,2.12,2.12,-0.1,0
-0.0015581,0.017827,0,-0.67432,0.14005,-0.13719,0,0,-0.67432,0,-59.46,-10.086,0,-18.142,0,-23.32,55.31,1,1,2.125,2.125,-0.1,0
-0.0015597,0.017833,0,-0.6743,0.14087,-0.13796,0,0,-0.6743,0,-59.514,-9.9227,0,-18.077,0,-23.316,55.117,1,1,2.13,2.13,-0.1,0
-0.0015613,0.017839,0,-0.67429,0.14169,-0.13874,0,0,-0.67429,0,-59.567,-9.7609,0,-18.011,0,-23.311,54.925,1,1,2.135,2.135,-0.1,0
-0.0015628,0.017845,0,-0.67428,0.14251,-0.13951,0,0,-0.67428,0,-59.621,-9.6001,0,-17.944,0,-23.307,54.736,1,1,2.14,2.14,-0.1,0
-0.0015644,0.01785,0,-0.67426,0.14333,-0.14028,0,0,-0.67426,0,-59.675,-9.4404,0,-17.878,0,-23.303,54.549,1,1,2.145,2.145,-0.1,0
-0.001566,0.017856,0,-0.67425,0.14415,-0.14105,0,0,-0.67425,0,-59.73,-9.2818,0,-17.811,0,-23.299,54.365,1,1,2.15,2.15,-0.1,0
-0.0015675,0.017862,0,-0.67424,0.14497,-0.14183,0,0,-0.67424,0,-59.784,-9.1243,0,-17.743,0,-23.294,54.183,1,1,2.155,2.155,-0.1,0
-0.0015691,0.017867,0,-0.67422,0.1458,-0.1426,0,0,-0.67422,0,-59.838,-8.9678,0,-17.675,0,-23.29,54.003,1,1,2.16,2.16,-0.1,0
-0.0015706,0.017873,0,-0.67421,0.14662,-0.14338,0,0,-0.67421,0,-59.893,-8.8124,0,-17.607,0,-23.285,53.825,1,1,2.165,2.165,-0.1,0
-0.0015722,0.017878,0,-0.6742,0.14745,-0.14415,0,0,-0.6742,0,-59.948,-8.6581,0,-17.539,0,-23.281,53.65,1,1,2.17,2.17,-0.1,0
-0.0015738,0.017884,0,-0.67418,0.14827,-0.14493,0,0,-0.67418,0,-60.003,-8.5049,0,-17.47,0,-23.276,53.477,1,1,2.175,2.175,-0.1,0
-0.0015753,0.01789,0,-0.67417,0.1491,-0.14571,0,0,-0.67417,0,-60.058,-8.3527,0,-17.401,0,-23.272,53.307,1,1,2.18,2.18,-0.1,0
-0.0015769,0.017895,0,-0.67416,0.14993,-0.14649,0,0,-0.67416,0,-60.114,-8.2016,0,-17.331,0,-23.267,53.139,1,1,2.185,2.185,-0.1,0
-0.0015785,0.017901,0,-0.67414,0.15076,-0.14727,0,0,-0.67414,0,-60.169,-8.0516,0,-17.261,0,-23.262,52.973,1,1,2.19,2.19,-0.1,0
-0.00158,0.017907,0,-0.67413,0.15159,-0.14805,0,0,-0.67413,0,-60.225,-7.9026,0,-17.191,0,-23.257,52.809,1,1,2.195,2.195,-0.1,0
-0.0015816,0.017912,0,-0.67411,0.15242,-0.14883,0,0,-0.67411,0,-60.28,-7.7548,0,-17.12,0,-23.252,52.648,1,1,2.2,2.2,-0.1,0
-0.0015832,0.017918,0,-0.6741,0.15325,-0.14961,0,0,-0.6741,0,-60.336,-7.608,0,-17.049,0,-23.248,52.489,1,1,2.205,2.205,-0.1,0
-0.0015847,0.017923,0,-0.67409,0.15408,-0.15039,0,0,-0.67409,0,-60.392,-7.4623,0,-16.978,0,-23.243,52.333,1,1,2.21,2.21,-0.1,0
-0.0015863,0.017929,0,-0.67407,0.15492,-0.15118,0,0,-0.67407,0,-60.449,-7.3176,0,-16.906,0,-23.238,52.179,1,1,2.215,2.215,-0.1,0
-0.0015879,0.017934,0,-0.67406,0.15575,-0.15196,0,0,-0.67406,0,-60.505,-7.1741,0,-16.834,0,-23.232,52.027,1,1,2.22,2.22,-0.1,0
-0.0015894,0.01794,0,-0.67405,0.15659,-0.15274,0,0,-0.67405,0,-60.562,-7.0316,0,-16.762,0,-23.227,51.877,1,1,2.225,2.225,-0.1,0
-0.001591,0.017946,0,-0.67403,0.15742,-0.15353,0,0,-0.67403,0,-60.619,-6.8902,0,-16.689,0,-23.222,51.73,1,1,2.23,2.23,-0.1,0
-0.0015926,0.017951,0,-0.67402,0.15826,-0.15432,0,0,-0.67402,0,-60.675,-6.7499,0,-16.616,0,-23.217,51.585,1,1,2.235,2.235,-0.1,0
-0.0015942,0.017957,0,-0.67401,0.1591,-0.1551,0,0,-0.67401,0,-60.733,-6.6106,0,-16.542,0,-23.211,51.443,1,1,2.24,2.24,-0.1,0
-0.0015957,0.017962,0,-0.67399,0.15994,-0.15589,0,0,-0.67399,0,-60.79,-6.4724,0,-16.468,0,-23.206,51.303,1,1,2.245,2.245,-0.1,0
-0.0015973,0.017968,0,-0.67398,0.16078,-0.15668,0,0,-0.67398,0,-60.847,-6.3353,0,-16.394,0,-23.201,51.165,1,1,2.25,2.25,-0.1,0
-0.0015989,0.017973,0,-0.67397,0.16162,-0.15747,0,0,-0.67397,0,-60.905,-6.1992,0,-16.319,0,-23.195,51.029,1,1,2.255,2.255,-0.1,0
-0.0016004,0.017979,0,-0.67395,0.16246,-0.15826,0,0,-0.67395,0,-60.962,-6.0643,0,-16.244,0,-23.189,50.896,1,1,2.26,2.26,-0.1,0
-0.001602,0.017984,0,-0.67394,0.16331,-0.15905,0,0,-0.67394,0,-61.02,-5.9304,0,-16.169,0,-23.184,50.765,1,1,2.265,2.265,-0.1,0
-0.0016036,0.01799,0,-0.67393,0.16415,-0.15985,0,0,-0.67393,0,-61.078,-5.7976,0,-16.093,0,-23.178,50.637,1,1,2.27,2.27,-0.1,0
-0.0016052,0.017995,0,-0.67391,0.165,-0.16064,0,0,-0.67391,0,-61.136,-5.6659,0,-16.017,0,-23.172,50.511,1,1,2.275,2.275,-0.1,0
-0.0016067,0.018001,0,-0.6739,0.16584,-0.16143,0,0,-0.6739,0,-61.195,-5.5352,0,-15.941,0,-23.167,50.387,1,1,2.28,2.28,-0.1,0
-0.0016083,0.018006,0,-0.67388,0.16669,-0.16223,0,0,-0.67388,0,-61.253,-5.4056,0,-15.864,0,-23.161,50.265,1,1,2.285,2.285,-0.1,0
-0.0016099,0.018011,0,-0.67387,0.16754,-0.16302,0,0,-0.67387,0,-61.312,-5.2771,0,-15.787,0,-23.155,50.146,1,1,2.29,2.29,-0.1,0
-0.0016115,0.018017,0,-0.67386,0.16839,-0.16382,0,0,-0.67386,0,-61.371,-5.1497,0,-15.709,0,-23.149,50.029,1,1,2.295,2.295,-0.1,0
-0.001613,0.018022,0,-0.67384,0.16924,-0.16461,0,0,-0.67384,0,-61.43,-5.0233,0,-15.631,0,-23.143,49.914,1,1,2.3,2.3,-0.1,0
-0.0016146,0.018028,0,-0.67383,0.17009,-0.16541,0,0,-0.67383,0,-61.489,-4.898,0,-15.553,0,-23.137,49.802,1,1,2.305,2.305,-0.1,0
-0.0016162,0.018033,0,-0.67382,0.17094,-0.16621,0,0,-0.67382,0,-61.548,-4.7738,0,-15.474,0,-23.131,49.692,1,1,2.31,2.31,-0.1,0
-0.0016178,0.018039,0,-0.6738,0.17179,-0.16701,0,0,-0.6738,0,-61.607,-4.6506,0,-15.395,0,-23.124,49.585,1,1,2.315,2.315,-0.1,0
-0.0016193,0.018044,0,-0.67379,0.17265,-0.16781,0,0,-0.67379,0,-61.667,-4.5286,0,-15.316,0,-23.118,49.479,1,1,2.32,2.32,-0.1,0
-0.0016209,0.018049,0,-0.67378,0.1735,-0.16861,0,0,-0.67378,0,-61.727,-4.4076,0,-15.236,0,-23.112,49.377,1,1,2.325,2.325,-0.1,0
-0.0016225,0.018055,0,-0.67376,0.17436,-0.16941,0,0,-0.67376,0,-61.787,-4.2877,0,-15.156,0,-23.105,49.276,1,1,2.33,2.33,-0.1,0
-0.0016241,0.01806,0,-0.67375,0.17522,-0.17021,0,0,-0.67375,0,-61.847,-4.1688,0,-15.076,0,-23.099,49.178,1,1,2.335,2.335,-0.1,0
-0.0016256,0.018066,0,-0.67374,0.17607,-0.17102,0,0,-0.67374,0,-61.907,-4.0511,0,-14.995,0,-23.093,49.082,1,1,2.34,2.34,-0.1,0
-0.0016272,0.018071,0,-0.67372,0.17693,-0.17182,0,0,-0.67372,0,-61.967,-3.9344,0,-14.914,0,-23.086,48.988,1,1,2.345,2.345,-0.1,0
-0.0016288,0.018076,0,-0.67371,0.17779,-0.17263,0,0,-0.67371,0,-62.028,-3.8187,0,-14.833,0,-23.079,48.897,1,1,2.35,2.35,-0.1,0
-0.0016304,0.018082,0,-0.67369,0.17865,-0.17343,0,0,-0.67369,0,-62.089,-3.7042,0,-14.751,0,-23.073,48.808,1,1,2.355,2.355,-0.1,0
-0.001632,0.018087,0,-0.67368,0.17951,-0.17424,0,0,-0.67368,0,-62.15,-3.5907,0,-14.668,0,-23.066,48.721,1,1,2.36,2.36,-0.1,0
-0.0016335,0.018092,0,-0.67367,0.18038,-0.17504,0,0,-0.67367,0,-62.211,-3.4783,0,-14.586,0,-23.059,48.637,1,1,2.365,2.365,-0.1,0
-0.0016351,0.018098,0,-0.67365,0.18124,-0.17585,0,0,-0.67365,0,-62.272,-3.367,0,-14.503,0,-23.052,48.555,1,1,2.37,2.37,-0.1,0
-0.0016367,0.018103,0,-0.67364,0.1821,-0.17666,0,0,-0.67364,0,-62.333,-3.2568,0,-14.42,0,-23.045,48.476,1,1,2.375,2.375,-0.1,0
-0.0016383,0.018108,0,-0.67363,0.18297,-0.17747,0,0,-0.67363,0,-62.395,-3.1476,0,-14.336,0,-23.039,48.398,1,1,2.38,2.38,-0.1,0
-0.0016399,0.018114,0,-0.67361,0.18383,-0.17828,0,0,-0.67361,0,-62.456,-3.0395,0,-14.252,0,-23.032,48.323,1,1,2.385,2.385,-0.1,0
-0.0016414,0.018119,0,-0.6736,0.1847,-0.17909,0,0,-0.6736,0,-62.518,-2.9324,0,-14.168,0,-23.024,48.251,1,1,2.39,2.39,-0.1,0
-0.001643,0.018124,0,-0.67359,0.18557,-0.1799,0,0,-0.67359,0,-62.58,-2.8265,0,-14.083,0,-23.017,48.18,1,1,2.395,2.395,-0.1,0
-0.0016446,0.01813,0,-0.67357,0.18644,-0.18072,0,0,-0.67357,0,-62.642,-2.7216,0,-13.998,0,-23.01,48.112,1,1,2.4,2.4,-0.1,0
-0.0016462,0.018135,0,-0.67356,0.18731,-0.18153,0,0,-0.67356,0,-62.705,-2.6178,0,-13.912,0,-23.003,48.047,1,1,2.405,2.405,-0.1,0
-0.0016478,0.01814,0,-0.67355,0.18818,-0.18234,0,0,-0.67355,0,-62.767,-2.5151,0,-13.826,0,-22.996,47.983,1,1,2.41,2.41,-0.1,0
-0.0016494,0.018146,0,-0.67353,0.18905,-0.18316,0,0,-0.67353,0,-62.83,-2.4134,0,-13.74,0,-22.988,47.922,1,1,2.415,2.415,-0.1,0
-0.0016509,0.018151,0,-0.67352,0.18992,-0.18397,0,0,-0.67352,0,-62.893,-2.3128,0,-13.654,0,-22.981,47.864,1,1,2.42,2.42,-0.1,0
-0.0016525,0.018156,0,-0.67351,0.1908,-0.18479,0,0,-0.67351,0,-62.955,-2.2133,0,-13.567,0,-22.973,47.807,1,1,2.425,2.425,-0.1,0
-0.0016541,0.018161,0,-0.67349,0.19167,-0.18561,0,0,-0.67349,0,-63.019,-2.1149,0,-13.48,0,-22.966,47.753,1,1,2.43,2.43,-0.1,0
-0.0016557,0.018167,0,-0.67348,0.19255,-0.18643,0,0,-0.67348,0,-63.082,-2.0175,0,-13.392,0,-22.958,47.702,1,1,2.435,2.435,-0.1,0
-0.0016573,0.018172,0,-0.67346,0.19342,-0.18725,0,0,-0.67346,0,-63.145,-1.9212,0,-13.304,0,-22.951,47.652,1,1,2.44,2.44,-0.1,0
-0.0016589,0.018177,0,-0.67345,0.1943,-0.18807,0,0,-0.67345,0,-63.209,-1.826,0,-13.216,0,-22.943,47.605,1,1,2.445,2.445,-0.1,0
-0.0016604,0.018182,0,-0.67344,0.19518,-0.18889,0,0,-0.67344,0,-63.273,-1.7318,0,-13.127,0,-22.935,47.561,1,1,2.45,2.45,-0.1,0
-0.001662,0.018187,0,-0.67342,0.19606,-0.18971,0,0,-0.67342,0,-63.336,-1.6388,0,-13.038,0,-22.928,47.518,1,1,2.455,2.455,-0.1,0
-0.0016636,0.018193,0,-0.67341,0.19694,-0.19053,0,0,-0.67341,0,-63.401,-1.5468,0,-12.948,0,-22.92,47.478,1,1,2.46,2.46,-0.1,0
-0.0016652,0.018198,0,-0.6734,0.19782,-0.19135,0,0,-0.6734,0,-63.465,-1.4559,0,-12.859,0,-22.912,47.441,1,1,2.465,2.465,-0.1,0
-0.0016668,0.018203,0,-0.67338,0.1987,-0.19218,0,0,-0.67338,0,-63.529,-1.366,0,-12.768,0,-22.904,47.405,1,1,2.47,2.47,-0.1,0
-0.0016684,0.018208,0,-0.67337,0.19959,-0.193,0,0,-0.67337,0,-63.594,-1.2772,0,-12.678,0,-22.896,47.372,1,1,2.475,2.475,-0.1,0
-0.00167,0.018213,0,-0.67336,0.20047,-0.19383,0,0,-0.67336,0,-63.658,-1.1895,0,-12.587,0,-22.888,47.342,1,1,2.48,2.48,-0.1,0
-0.0016716,0.018219,0,-0.67334,0.20136,-0.19465,0,0,-0.67334,0,-63.723,-1.1029,0,-12.496,0,-22.88,47.313,1,1,2.485,2.485,-0.1,0
-0.0016732,0.018224,0,-0.67333,0.20224,-0.19548,0,0,-0.67333,0,-63.788,-1.0173,0,-12.404,0,-22.871,47.287,1,1,2.49,2.49,-0.1,0
-0.0016747,0.018229,0,-0.67332,0.20313,-0.19631,0,0,-0.67332,0,-63.853,-0.93283,0,-12.312,0,-22.863,47.264,1,1,2.495,2.495,-0.1,0
-0.0016763,0.018234,0,-0.6733,0.20402,-0.19713,0,0,-0.6733,0,-63.919,-0.84942,0,-12.22,0,-22.855,47.242,1,1,2.5,2.5,-0.1,0
-0.0016779,0.018239,0,-0.67329,0.20491,-0.19796,0,0,-0.67329,0,-63.984,-0.76707,0,-12.127,0,-22.846,47.223,1,1,2.505,2.505,-0.1,0
-0.0016795,0.018244,0,-0.67328,0.2058,-0.19879,0,0,-0.67328,0,-64.05,-0.68581,0,-12.034,0,-22.838,47.206,1,1,2.51,2.51,-0.1,0
-0.0016811,0.018249,0,-0.67326,0.20669,-0.19962,0,0,-0.67326,0,-64.116,-0.60561,0,-11.941,0,-22.83,47.192,1,1,2.515,2.515,-0.1,0
-0.0016827,0.018255,0,-0.67325,0.20758,-0.20046,0,0,-0.67325,0,-64.182,-0.52649,0,-11.847,0,-22.821,47.18,1,1,2.52,2.52,-0.1,0
-0.0016843,0.01826,0,-0.67323,0.20847,-0.20129,0,0,-0.67323,0,-64.248,-0.44844,0,-11.753,0,-22.812,47.17,1,1,2.525,2.525,-0.1,0
-0.0016859,0.018265,0,-0.67322,0.20937,-0.20212,0,0,-0.67322,0,-64.314,-0.37146,0,-11.659,0,-22.804,47.163,1,1,2.53,2.53,-0.1,0
-0.0016875,0.01827,0,-0.67321,0.21026,-0.20295,0,0,-0.67321,0,-64.381,-0.29555,0,-11.564,0,-22.795,47.158,1,1,2.535,2.535,-0.1,0
-0.0016891,0.018275,0,-0.67319,0.21116,-0.20379,0,0,-0.67319,0,-64.447,-0.22072,0,-11.469,0,-22.786,47.155,1,1,2.54,2.54,-0.1,0
-0.0016907,0.01828,0,-0.67318,0.21205,-0.20462,0,0,-0.67318,0,-64.514,-0.14696,0,-11.373,0,-22.778,47.154,1,1,2.545,2.545,-0.1,0
-0.0016923,0.018285,0,-0.67317,0.21295,-0.20546,0,0,-0.67317,0,-64.581,-0.074275,0,-11.277,0,-22.769,47.156,1,1,2.55,2.55,-0.1,0
-0.0016938,0.01829,0,-0.67315,0.21385,-0.2063,0,0,-0.67315,0,-64.648,-0.0026583,0,-11.181,0,-22.76,47.161,1,1,2.555,2.555,-0.1,0
-0.0016954,0.018295,0,-0.67314,0.21475,-0.20714,0,0,-0.67314,0,-64.715,0.067883,0,-11.084,0,-22.751,47.167,1,1,2.56,2.56,-0.1,0
-0.001697,0.0183,0,-0.67313,0.21565,-0.20797,0,0,-0.67313,0,-64.783,0.13735,0,-10.987,0,-22.742,47.176,1,1,2.565,2.565,-0.1,0
-0.0016986,0.018305,0,-0.67311,0.21655,-0.20881,0,0,-0.67311,0,-64.85,0.20575,0,-10.89,0,-22.733,47.187,1,1,2.57,2.57,-0.1,0
-0.0017002,0.01831,0,-0.6731,0.21745,-0.20965,0,0,-0.6731,0,-64.918,0.27308,0,-10.792,0,-22.723,47.201,1,1,2.575,2.575,-0.1,0
-0.0017018,0.018315,0,-0.67309,0.21835,-0.21049,0,0,-0.67309,0,-64.986,0.33933,0,-10.694,0,-22.714,47.217,1,1,2.58,2.58,-0.1,0
-0.0017034,0.01832,0,-0.67307,0.21926,-0.21134,0,0,-0.67307,0,-65.054,0.40451,0,-10.596,0,-22.705,47.235,1,1,2.585,2.585,-0.1,0
-0.001705,0.018325,0,-0.67306,0.22016,-0.21218,0,0,-0.67306,0,-65.122,0.46862,0,-10.497,0,-22.696,47.255,1,1,2.59,2.59,-0.1,0
-0.0017066,0.01833,0,-0.67304,0.22107,-0.21302,0,0,-0.67304,0,-65.191,0.53166,0,-10.398,0,-22.686,47.278,1,1,2.595,2.595,-0.1,0
-0.0017082,0.018335,0,-0.67303,0.22198,-0.21387,0,0,-0.67303,0,-65.259,0.59362,0,-10.298,0,-22.677,47.303,1,1,2.6,2.6,-0.1,0
-0.0017098,0.01834,0,-0.67302,0.22288,-0.21471,0,0,-0.67302,0,-65.328,0.65451,0,-10.199,0,-22.667,47.331,1,1,2.605,2.605,-0.1,0
-0.0017114,0.018345,0,-0.673,0.22379,-0.21556,0,0,-0.673,0,-65.397,0.71433,0,-10.098,0,-22.658,47.361,1,1,2.61,2.61,-0.1,0
-0.001713,0.01835,0,-0.67299,0.2247,-0.2164,0,0,-0.67299,0,-65.466,0.77308,0,-9.9977,0,-22.648,47.393,1,1,2.615,2.615,-0.1,0
-0.0017146,0.018355,0,-0.67298,0.22561,-0.21725,0,0,-0.67298,0,-65.535,0.83076,0,-9.8968,0,-22.639,47.428,1,1,2.62,2.62,-0.1,0
-0.0017162,0.01836,0,-0.67296,0.22652,-0.2181,0,0,-0.67296,0,-65.604,0.88736,0,-9.7955,0,-22.629,47.464,1,1,2.625,2.625,-0.1,0
-0.0017178,0.018365,0,-0.67295,0.22744,-0.21895,0,0,-0.67295,0,-65.674,0.9429,0,-9.6938,0,-22.619,47.504,1,1,2.63,2.63,-0.1,0
-0.0017194,0.01837,0,-0.67294,0.22835,-0.2198,0,0,-0.67294,0,-65.744,0.99736,0,-9.5918,0,-22.609,47.545,1,1,2.635,2.635,-0.1,0
-0.001721,0.018375,0,-0.67292,0.22927,-0.22065,0,0,-0.67292,0,-65.813,1.0507,0,-9.4894,0,-22.599,47.589,1,1,2.64,2.64,-0.1,0
-0.0017226,0.01838,0,-0.67291,0.23018,-0.2215,0,0,-0.67291,0,-65.883,1.1031,0,-9.3867,0,-22.589,47.635,1,1,2.645,2.645,-0.1,0
-0.0017242,0.018385,0,-0.6729,0.2311,-0.22235,0,0,-0.6729,0,-65.954,1.1543,0,-9.2836,0,-22.579,47.683,1,1,2.65,2.65,-0.1,0
-0.0017258,0.01839,0,-0.67288,0.23201,-0.2232,0,0,-0.67288,0,-66.024,1.2045,0,-9.1801,0,-22.569,47.734,1,1,2.655,2.655,-0.1,0
-0.0017274,0.018395,0,-0.67287,0.23293,-0.22406,0,0,-0.67287,0,-66.094,1.2536,0,-9.0763,0,-22.559,47.787,1,1,2.66,2.66,-0.1,0
-0.001729,0.0184,0,-0.67286,0.23385,-0.22491,0,0,-0.67286,0,-66.165,1.3016,0,-8.9722,0,-22.549,47.843,1,1,2.665,2.665,-0.1,0
-0.0017306,0.018405,0,-0.67284,0.23477,-0.22577,0,0,-0.67284,0,-66.236,1.3486,0,-8.8676,0,-22.539,47.901,1,1,2.67,2.67,-0.1,0
-0.0017322,0.01841,0,-0.67283,0.23569,-0.22662,0,0,-0.67283,0,-66.307,1.3945,0,-8.7628,0,-22.529,47.961,1,1,2.675,2.675,-0.1,0
-0.0017338,0.018414,0,-0.67281,0.23662,-0.22748,0,0,-0.67281,0,-66.378,1.4393,0,-8.6575,0,-22.518,48.023,1,1,2.68,2.68,-0.1,0
-0.0017354,0.018419,0,-0.6728,0.23754,-0.22834,0,0,-0.6728,0,-66.449,1.483,0,-8.5519,0,-22.508,48.088,1,1,2.685,2.685,-0.1,0
-0.001737,0.018424,0,-0.67279,0.23846,-0.22919,0,0,-0.67279,0,-66.52,1.5257,0,-8.4459,0,-22.497,48.155,1,1,2.69,2.69,-0.1,0
-0.0017386,0.018429,0,-0.67278,0.23939,-0.23005,0,0,-0.67278,0,-66.592,1.5673,0,-8.3396,0,-22.487,48.224,1,1,2.695,2.695,-0.1,0
-0.0017402,0.018434,0,-0.67277,0.24031,-0.23092,0,0,-0.67277,0,-66.664,1.6078,0,-8.2329,0,-22.476,48.296,1,1,2.7,2.7,-0.1,0
-0.0017418,0.018439,0,-0.67275,0.24124,-0.23178,0,0,-0.67275,0,-66.735,1.6473,0,-8.1259,0,-22.466,48.37,1,1,2.705,2.705,-0.1,0
-0.0017435,0.018444,0,-0.67274,0.24217,-0.23264,0,0,-0.67274,0,-66.807,1.6856,0,-8.0185,0,-22.455,48.446,1,1,2.71,2.71,-0.1,0
-0.0017451,0.018448,0,-0.67273,0.2431,-0.2335,0,0,-0.67273,0,-66.88,1.7229,0,-7.9107,0,-22.444,48.525,1,1,2.715,2.715,-0.1,0
-0.0017467,0.018453,0,-0.67272,0.24403,-0.23437,0,0,-0.67272,0,-66.952,1.7592,0,-7.8026,0,-22.433,48.606,1,1,2.72,2.72,-0.1,0
-0.0017483,0.018458,0,-0.67271,0.24496,-0.23523,0,0,-0.67271,0,-67.024,1.7943,0,-7.6941,0,-22.422,48.689,1,1,2.725,2.725,-0.1,0
-0.0017499,0.018463,0,-0.6727,0.24589,-0.2361,0,0,-0.6727,0,-67.097,1.8284,0,-7.5853,0,-22.412,48.775,1,1,2.73,2.73,-0.1,0
-0.0017515,0.018468,0,-0.67269,0.24683,-0.23696,0,0,-0.67269,0,-67.17,1.8615,0,-7.4761,0,-22.401,48.863,1,1,2.735,2.735,-0.1,0
-0.0017531,0.018472,0,-0.67268,0.24776,-0.23783,0,0,-0.67268,0,-67.243,1.8934,0,-7.3665,0,-22.39,48.953,1,1,2.74,2.74,-0.1,0
-0.0017547,0.018477,0,-0.67266,0.2487,-0.2387,0,0,-0.67266,0,-67.316,1.9243,0,-7.2566,0,-22.378,49.046,1,1,2.745,2.745,-0.1,0
-0.0017563,0.018482,0,-0.67265,0.24963,-0.23957,0,0,-0.67265,0,-67.389,1.9541,0,-7.1464,0,-22.367,49.141,1,1,2.75,2.75,-0.1,0
-0.0017579,0.018487,0,-0.67264,0.25057,-0.24043,0,0,-0.67264,0,-67.463,1.9829,0,-7.0357,0,-22.356,49.238,1,1,2.755,2.755,-0.1,0
-0.0017595,0.018492,0,-0.67263,0.25151,-0.2413,0,0,-0.67263,0,-67.536,2.0105,0,-6.9247,0,-22.345,49.338,1,1,2.76,2.76,-0.1,0
-0.0017612,0.018496,0,-0.67262,0.25245,-0.24218,0,0,-0.67262,0,-67.61,2.0371,0,-6.8134,0,-22.334,49.44,1,1,2.765,2.765,-0.1,0
-0.0017628,0.018501,0,-0.67261,0.25339,-0.24305,0,0,-0.67261,0,-67.684,2.0627,0,-6.7017,0,-22.322,49.544,1,1,2.77,2.77,-0.1,0
-0.0017644,0.018506,0,-0.6726,0.25433,-0.24392,0,0,-0.6726,0,-67.758,2.0871,0,-6.5896,0,-22.311,49.651,1,1,2.775,2.775,-0.1,0
-0.001766,0.01851,0,-0.67259,0.25527,-0.24479,0,0,-0.67259,0,-67.832,2.1105,0,-6.4772,0,-22.299,49.76,1,1,2.78,2.78,-0.1,0
-0.0017676,0.018515,0,-0.67257,0.25621,-0.24567,0,0,-0.67257,0,-67.907,2.1328,0,-6.3644,0,-22.288,49.871,1,1,2.785,2.785,-0.1,0
-0.0017692,0.01852,0,-0.67256,0.25716,-0.24654,0,0,-0.67256,0,-67.981,2.1541,0,-6.2513,0,-22.276,49.985,1,1,2.79,2.79,-0.1,0
-0.0017708,0.018525,0,-0.67255,0.2581,-0.24742,0,0,-0.67255,0,-68.056,2.1743,0,-6.1378,0,-22.265,50.101,1,1,2.795,2.795,-0.1,0
-0.0017724,0.018529,0,-0.67254,0.25905,-0.24829,0,0,-0.67254,0,-68.131,2.1934,0,-6.0239,0,-22.253,50.219,1,1,2.8,2.8,-0.1,0
-0.0017741,0.018534,0,-0.67253,0.26,-0.24917,0,0,-0.67253,0,-68.206,2.2114,0,-5.9097,0,-22.241,50.34,1,1,2.805,2.805,-0.1,0
-0.0017757,0.018539,0,-0.67252,0.26094,-0.25005,0,0,-0.67252,0,-68.281,2.2284,0,-5.7952,0,-22.229,50.463,1,1,2.81,2.81,-0.1,0
-0.0017773,0.018543,0,-0.67251,0.26189,-0.25093,0,0,-0.67251,0,-68.357,2.2443,0,-5.6802,0,-22.217,50.588,1,1,2.815,2.815,-0.1,0
-0.0017789,0.018548,0,-0.67249,0.26284,-0.25181,0,0,-0.67249,0,-68.432,2.2591,0,-5.5649,0,-22.206,50.716,1,1,2.82,2.82,-0.1,0
-0.0017805,0.018553,0,-0.67248,0.26379,-0.25269,0,0,-0.67248,0,-68.508,2.2729,0,-5.4493,0,-22.194,50.846,1,1,2.825,2.825,-0.1,0
-0.0017821,0.018557,0,-0.67247,0.26474,-0.25357,0,0,-0.67247,0,-68.584,2.2856,0,-5.3333,0,-22.182,50.978,1,1,2.83,2.83,-0.1,0
-0.0017837,0.018562,0,-0.67246,0.2657,-0.25445,0,0,-0.67246,0,-68.66,2.2972,0,-5.2169,0,-22.169,51.112,1,1,2.835,2.835,-0.1,0
-0.0017854,0.018567,0,-0.67245,0.26665,-0.25533,0,0,-0.67245,0,-68.736,2.3077,0,-5.1002,0,-22.157,51.249,1,1,2.84,2.84,-0.1,0
-0.001787,0.018571,0,-0.67244,0.2676,-0.25622,0,0,-0.67244,0,-68.813,2.3172,0,-4.9831,0,-22.145,51.389,1,1,2.845,2.845,-0.1,0
-0.0017886,0.018576,0,-0.67243,0.26856,-0.2571,0,0,-0.67243,0,-68.889,2.3256,0,-4.8657,0,-22.133,51.53,1,1,2.85,2.85,-0.1,0
-0.0017902,0.018581,0,-0.67242,0.26951,-0.25799,0,0,-0.67242,0,-68.966,2.333,0,-4.7479,0,-22.121,51.674,1,1,2.855,2.855,-0.1,0
-0.0017918,0.018585,0,-0.6724,0.27047,-0.25887,0,0,-0.6724,0,-69.043,2.3392,0,-4.6297,0,-22.108,51.82,1,1,2.86,2.86,-0.1,0
-0.0017934,0.01859,0,-0.67239,0.27143,-0.25976,0,0,-0.67239,0,-69.12,2.3444,0,-4.5112,0,-22.096,51.969,1,1,2.865,2.865,-0.1,0
-0.0017951,0.018594,0,-0.67238,0.27239,-0.26065,0,0,-0.67238,0,-69.197,2.3486,0,-4.3924,0,-22.083,52.12,1,1,2.87,2.87,-0.1,0
-0.0017967,0.018599,0,-0.67237,0.27335,-0.26154,0,0,-0.67237,0,-69.274,2.3516,0,-4.2731,0,-22.071,52.273,1,1,2.875,2.875,-0.1,0
-0.0017983,0.018604,0,-0.67236,0.27431,-0.26243,0,0,-0.67236,0,-69.352,2.3536,0,-4.1535,0,-22.058,52.429,1,1,2.88,2.88,-0.1,0
-0.0017999,0.018608,0,-0.67235,0.27527,-0.26332,0,0,-0.67235,0,-69.43,2.3545,0,-4.0336,0,-22.046,52.586,1,1,2.885,2.885,-0.1,0
-0.0018015,0.018613,0,-0.67234,0.27623,-0.26421,0,0,-0.67234,0,-69.508,2.3544,0,-3.9133,0,-22.033,52.747,1,1,2.89,2.89,-0.1,0
-0.0018032,0.018617,0,-0.67233,0.2772,-0.2651,0,0,-0.67233,0,-69.586,2.3532,0,-3.7926,0,-22.02,52.909,1,1,2.895,2.895,-0.1,0
-0.0018048,0.018622,0,-0.67231,0.27816,-0.26599,0,0,-0.67231,0,-69.664,2.3509,0,-3.6716,0,-22.007,53.074,1,1,2.9,2.9,-0.1,0
-0.0018064,0.018626,0,-0.6723,0.27913,-0.26688,0,0,-0.6723,0,-69.742,2.3475,0,-3.5502,0,-21.995,53.241,1,1,2.905,2.905,-0.1,0
-0.001808,0.018631,0,-0.67229,0.2801,-0.26778,0,0,-0.67229,0,-69.821,2.3431,0,-3.4285,0,-21.982,53.411,1,1,2.91,2.91,-0.1,0
-0.0018097,0.018636,0,-0.67228,0.28106,-0.26867,0,0,-0.67228,0,-69.899,2.3376,0,-3.3064,0,-21.969,53.583,1,1,2.915,2.915,-0.1,0
-0.0018113,0.01864,0,-0.67227,0.28203,-0.26957,0,0,-0.67227,0,-69.978,2.331,0,-3.184,0,-21.956,53.757,1,1,2.92,2.92,-0.1,0
-0.0018129,0.018645,0,-0.67226,0.283,-0.27046,0,0,-0.67226,0,-70.057,2.3234,0,-3.0612,0,-21.943,53.933,1,1,2.925,2.925,-0.1,0
-0.0018145,0.018649,0,-0.67225,0.28397,-0.27136,0,0,-0.67225,0,-70.137,2.3147,0,-2.938,0,-21.93,54.112,1,1,2.93,2.93,-0.1,0
-0.0018161,0.018654,0,-0.67224,0.28494,-0.27226,0,0,-0.67224,0,-70.216,2.3049,0,-2.8145,0,-21.916,54.293,1,1,2.935,2.935,-0.1,0
-0.0018178,0.018658,0,-0.67222,0.28592,-0.27316,0,0,-0.67222,0,-70.295,2.2941,0,-2.6906,0,-21.903,54.477,1,1,2.94,2.94,-0.1,0
-0.0018194,0.018663,0,-0.67221,0.28689,-0.27406,0,0,-0.67221,0,-70.375,2.2822,0,-2.5664,0,-21.89,54.663,1,1,2.945,2.945,-0.1,0
-0.001821,0.018667,0,-0.6722,0.28786,-0.27496,0,0,-0.6722,0,-70.455,2.2692,0,-2.4418,0,-21.877,54.851,1,1,2.95,2.95,-0.1,0
-0.0018226,0.018672,0,-0.67219,0.28884,-0.27586,0,0,-0.67219,0,-70.535,2.2552,0,-2.3168,0,-21.863,55.041,1,1,2.955,2.955,-0.1,0
-0.0018243,0.018676,0,-0.67218,0.28981,-0.27676,0,0,-0.67218,0,-70.615,2.24,0,-2.1915,0,-21.85,55.234,1,1,2.96,2.96,-0.1,0
-0.0018259,0.01868,0,-0.67217,0.29079,-0.27766,0,0,-0.67217,0,-70.696,2.2238,0,-2.0658,0,-21.836,55.429,1,1,2.965,2.965,-0.1,0
-0.0018275,0.018685,0,-0.67216,0.29177,-0.27857,0,0,-0.67216,0,-70.776,2.2066,0,-1.9398,0,-21.823,55.627,1,1,2.97,2.97,-0.1,0
-0.0018291,0.018689,0,-0.67214,0.29275,-0.27947,0,0,-0.67214,0,-70.857,2.1883,0,-1.8134,0,-21.809,55.827,1,1,2.975,2.975,-0.1,0
-0.0018308,0.018694,0,-0.67213,0.29373,-0.28038,0,0,-0.67213,0,-70.938,2.1689,0,-1.6867,0,-21.795,56.029,1,1,2.98,2.98,-0.1,0
-0.0018324,0.018698,0,-0.67212,0.29471,-0.28128,0,0,-0.67212,0,-71.019,2.1484,0,-1.5596,0,-21.782,56.233,1,1,2.985,2.985,-0.1,0
-0.001834,0.018703,0,-0.67211,0.29569,-0.28219,0,0,-0.67211,0,-71.1,2.1269,0,-1.4321,0,-21.768,56.44,1,1,2.99,2.99,-0.1,0
-0.0018357,0.018707,0,-0.6721,0.29667,-0.2831,0,0,-0.6721,0,-71.181,2.1043,0,-1.3043,0,-21.754,56.649,1,1,2.995,2.995,-0.1,0
-0.0018373,0.018711,0,-0.67209,0.29766,-0.284,0,0,-0.67209,0,-71.263,2.0806,0,-1.1762,0,-21.74,56.861,1,1,3,3,-0.1,0
-0.0018389,0.018716,0,-0.67208,0.29864,-0.28491,0,0,-0.67208,0,-71.344,2.0559,0,-1.0476,0,-21.726,57.075,1,1,3.005,3.005,-0.1,0
-0.0018405,0.01872,0,-0.67207,0.29963,-0.28582,0,0,-0.67207,0,-71.426,2.0301,0,-0.91874,0,-21.712,57.291,1,1,3.01,3.01,-0.1,0
-0.0018422,0.018725,0,-0.67205,0.30062,-0.28673,0,0,-0.67205,0,-71.508,2.0032,0,-0.78949,0,-21.698,57.509,1,1,3.015,3.015,-0.1,0
-0.0018438,0.018729,0,-0.67204,0.3016,-0.28764,0,0,-0.67204,0,-71.59,1.9752,0,-0.6599,0,-21.684,57.73,1,1,3.02,3.02,-0.1,0
-0.0018454,0.018733,0,-0.67203,0.30259,-0.28856,0,0,-0.67203,0,-71.673,1.9462,0,-0.52994,0,-21.67,57.953,1,1,3.025,3.025,-0.1,0
-0.0018471,0.018738,0,-0.67202,0.30358,-0.28947,0,0,-0.67202,0,-71.755,1.9162,0,-0.39963,0,-21.656,58.179,1,1,3.03,3.03,-0.1,0
-0.0018487,0.018742,0,-0.67201,0.30457,-0.29038,0,0,-0.67201,0,-71.838,1.885,0,-0.26895,0,-21.642,58.406,1,1,3.035,3.035,-0.1,0
-0.0018503,0.018746,0,-0.672,0.30556,-0.2913,0,0,-0.672,0,-71.921,1.8528,0,-0.13793,0,-21.627,58.636,1,1,3.04,3.04,-0.1,0
-0.001852,0.018751,0,-0.67199,0.30656,-0.29221,0,0,-0.67199,0,-72.004,1.8195,0,-0.0065365,0,-21.613,58.869,1,1,3.045,3.045,-0.1,0
-0.0018536,0.018755,0,-0.67198,0.30755,-0.29313,0,0,-0.67198,0,-72.087,1.7851,0,0.1252,0,-21.599,59.104,1,1,3.05,3.05,-0.1,0
-0.0018552,0.018759,0,-0.67196,0.30854,-0.29405,0,0,-0.67196,0,-72.17,1.7497,0,0.25731,0,-21.584,59.341,1,1,3.055,3.055,-0.1,0
-0.0018569,0.018764,0,-0.67195,0.30954,-0.29496,0,0,-0.67195,0,-72.253,1.7132,0,0.38976,0,-21.57,59.58,1,1,3.06,3.06,-0.1,0
-0.0018585,0.018768,0,-0.67194,0.31053,-0.29588,0,0,-0.67194,0,-72.337,1.6757,0,0.52258,0,-21.555,59.822,1,1,3.065,3.065,-0.1,0
-0.0018601,0.018772,0,-0.67193,0.31153,-0.2968,0,0,-0.67193,0,-72.421,1.637,0,0.65575,0,-21.54,60.066,1,1,3.07,3.07,-0.1,0
-0.0018618,0.018777,0,-0.67192,0.31253,-0.29772,0,0,-0.67192,0,-72.505,1.5973,0,0.78928,0,-21.526,60.312,1,1,3.075,3.075,-0.1,0
-0.0018634,0.018781,0,-0.67191,0.31353,-0.29864,0,0,-0.67191,0,-72.589,1.5566,0,0.92316,0,-21.511,60.561,1,1,3.08,3.08,-0.1,0
-0.001865,0.018785,0,-0.6719,0.31453,-0.29956,0,0,-0.6719,0,-72.673,1.5147,0,1.0574,0,-21.496,60.812,1,1,3.085,3.085,-0.1,0
-0.0018667,0.01879,0,-0.67189,0.31553,-0.30049,0,0,-0.67189,0,-72.758,1.4718,0,1.192,0,-21.481,61.065,1,1,3.09,3.09,-0.1,0
-0.0018683,0.018794,0,-0.67187,0.31653,-0.30141,0,0,-0.67187,0,-72.842,1.4279,0,1.327,0,-21.466,61.321,1,1,3.095,3.095,-0.1,0
-0.0018699,0.018798,0,-0.67186,0.31753,-0.30233,0,0,-0.67186,0,-72.927,1.3828,0,1.4623,0,-21.451,61.579,1,1,3.1,3.1,-0.1,0
-0.0018716,0.018802,0,-0.67185,0.31854,-0.30326,0,0,-0.67185,0,-73.012,1.3367,0,1.5979,0,-21.436,61.84,1,1,3.105,3.105,-0.1,0
-0.0018732,0.018807,0,-0.67184,0.31954,-0.30418,0,0,-0.67184,0,-73.097,1.2896,0,1.734,0,-21.421,62.102,1,1,3.11,3.11,-0.1,0
-0.0018748,0.018811,0,-0.67183,0.32055,-0.30511,0,0,-0.67183,0,-73.183,1.2413,0,1.8704,0,-21.406,62.367,1,1,3.115,3.115,-0.1,0
-0.0018765,0.018815,0,-0.67182,0.32156,-0.30604,0,0,-0.67182,0,-73.268,1.192,0,2.0071,0,-21.391,62.635,1,1,3.12,3.12,-0.1,0
-0.0018781,0.018819,0,-0.67181,0.32256,-0.30697,0,0,-0.67181,0,-73.354,1.1416,0,2.1442,0,-21.376,62.904,1,1,3.125,3.125,-0.1,0
-0.0018797,0.018824,0,-0.6718,0.32357,-0.30789,0,0,-0.6718,0,-73.44,1.0902,0,2.2817,0,-21.36,63.176,1,1,3.13,3.13,-0.1,0
-0.0018814,0.018828,0,-0.67178,0.32458,-0.30882,0,0,-0.67178,0,-73.526,1.0377,0,2.4195,0,-21.345,63.451,1,1,3.135,3.135,-0.1,0
-0.001883,0.018832,0,-0.67177,0.32559,-0.30975,0,0,-0.67177,0,-73.612,0.98408,0,2.5576,0,-21.33,63.727,1,1,3.14,3.14,-0.1,0
-0.0018847,0.018836,0,-0.67176,0.3266,-0.31068,0,0,-0.67176,0,-73.698,0.92943,0,2.6962,0,-21.314,64.006,1,1,3.145,3.145,-0.1,0
-0.0018863,0.01884,0,-0.67175,0.32762,-0.31162,0,0,-0.67175,0,-73.784,0.87372,0,2.835,0,-21.299,64.288,1,1,3.15,3.15,-0.1,0
-0.0018879,0.018844,0,-0.67174,0.32863,-0.31255,0,0,-0.67174,0,-73.871,0.81693,0,2.9743,0,-21.283,64.571,1,1,3.155,3.155,-0.1,0
-0.0018896,0.018849,0,-0.67173,0.32964,-0.31348,0,0,-0.67173,0,-73.958,0.75908,0,3.1139,0,-21.268,64.857,1,1,3.16,3.16,-0.1,0
-0.0018912,0.018853,0,-0.67172,0.33066,-0.31442,0,0,-0.67172,0,-74.045,0.70016,0,3.2538,0,-21.252,65.146,1,1,3.165,3.165,-0.1,0
-0.0018929,0.018857,0,-0.6717,0.33167,-0.31535,0,0,-0.6717,0,-74.132,0.64017,0,3.3941,0,-21.236,65.436,1,1,3.17,3.17,-0.1,0
-0.0018945,0.018861,0,-0.67169,0.33269,-0.31629,0,0,-0.67169,0,-74.219,0.57912,0,3.5348,0,-21.221,65.729,1,1,3.175,3.175,-0.1,0
-0.0018961,0.018865,0,-0.67168,0.33371,-0.31722,0,0,-0.67168,0,-74.307,0.51699,0,3.6758,0,-21.205,66.025,1,1,3.18,3.18,-0.1,0
-0.0018978,0.018869,0,-0.67167,0.33473,-0.31816,0,0,-0.67167,0,-74.394,0.4538,0,3.8172,0,-21.189,66.322,1,1,3.185,3.185,-0.1,0
-0.0018994,0.018874,0,-0.67166,0.33575,-0.3191,0,0,-0.67166,0,-74.482,0.38954,0,3.9589,0,-21.173,66.622,1,1,3.19,3.19,-0.1,0
-0.0019011,0.018878,0,-0.67165,0.33677,-0.32004,0,0,-0.67165,0,-74.57,0.32422,0,4.101,0,-21.157,66.925,1,1,3.195,3.195,-0.1,0
-0.0019027,0.018882,0,-0.67164,0.33779,-0.32098,0,0,-0.67164,0,-74.658,0.25783,0,4.2435,0,-21.141,67.229,1,1,3.2,3.2,-0.1,0
-0.0019044,0.018886,0,-0.67163,0.33881,-0.32192,0,0,-0.67163,0,-74.746,0.19037,0,4.3863,0,-21.125,67.536,1,1,3.205,3.205,-0.1,0
-0.001906,0.01889,0,-0.67161,0.33984,-0.32286,0,0,-0.67161,0,-74.835,0.12184,0,4.5294,0,-21.109,67.845,1,1,3.21,3.21,-0.1,0
-0.0019076,0.018894,0,-0.6716,0.34086,-0.3238,0,0,-0.6716,0,-74.924,0.052244,0,4.673,0,-21.092,68.157,1,1,3.215,3.215,-0.1,0
-0.0019093,0.018898,0,-0.67159,0.34189,-0.32475,0,0,-0.67159,0,-75.012,-0.01842,0,4.8168,0,-21.076,68.471,1,1,3.22,3.22,-0.1,0
-0.0019109,0.018902,0,-0.67158,0.34291,-0.32569,0,0,-0.67158,0,-75.101,-0.090148,0,4.9611,0,-21.06,68.787,1,1,3.225,3.225,-0.1,0
-0.0019126,0.018906,0,-0.67157,0.34394,-0.32664,0,0,-0.67157,0,-75.19,-0.16295,0,5.1057,0,-21.044,69.106,1,1,3.23,3.23,-0.1,0
-0.0019142,0.01891,0,-0.67156,0.34497,-0.32758,0,0,-0.67156,0,-75.28,-0.23681,0,5.2506,0,-21.027,69.427,1,1,3.235,3.235,-0.1,0
-0.0019159,0.018914,0,-0.67155,0.346,-0.32853,0,0,-0.67155,0,-75.369,-0.31174,0,5.3959,0,-21.011,69.75,1,1,3.24,3.24,-0.1,0
-0.0019175,0.018918,0,-0.67154,0.34703,-0.32947,0,0,-0.67154,0,-75.459,-0.38774,0,5.5415,0,-20.994,70.076,1,1,3.245,3.245,-0.1,0
-0.0019192,0.018922,0,-0.67152,0.34806,-0.33042,0,0,-0.67152,0,-75.549,-0.4648,0,5.6876,0,-20.978,70.403,1,1,3.25,3.25,-0.1,0
-0.0019208,0.018927,0,-0.67151,0.34909,-0.33137,0,0,-0.67151,0,-75.638,-0.54294,0,5.8339,0,-20.961,70.734,1,1,3.255,3.255,-0.1,0
-0.0019225,0.018931,0,-0.6715,0.35013,-0.33232,0,0,-0.6715,0,-75.729,-0.62214,0,5.9807,0,-20.944,71.066,1,1,3.26,3.26,-0.1,0
-0.0019241,0.018935,0,-0.67149,0.35116,-0.33327,0,0,-0.67149,0,-75.819,-0.7024,0,6.1277,0,-20.928,71.401,1,1,3.265,3.265,-0.1,0
-0.0019258,0.018939,0,-0.67148,0.3522,-0.33422,0,0,-0.67148,0,-75.909,-0.78374,0,6.2752,0,-20.911,71.738,1,1,3.27,3.27,-0.1,0
-0.0019274,0.018943,0,-0.67147,0.35323,-0.33517,0,0,-0.67147,0,-76,-0.86614,0,6.423,0,-20.894,72.078,1,1,3.275,3.275,-0.1,0
-0.0019291,0.018947,0,-0.67146,0.35427,-0.33612,0,0,-0.67146,0,-76.091,-0.9496,0,6.5711,0,-20.877,72.42,1,1,3.28,3.28,-0.1,0
-0.0019307,0.018951,0,-0.67145,0.35531,-0.33708,0,0,-0.67145,0,-76.182,-1.0341,0,6.7196,0,-20.86,72.764,1,1,3.285,3.285,-0.1,0
-0.0019324,0.018955,0,-0.67143,0.35635,-0.33803,0,0,-0.67143,0,-76.273,-1.1197,0,6.8685,0,-20.843,73.111,1,1,3.29,3.29,-0.1,0
-0.0019341,0.018959,0,-0.67142,0.35765,-0.33915,0,0,-0.67142,0,-76.227,-1.0822,0,6.812,0,-20.846,73.017,1,1,3.295,3.295,-0.1,0
-0.0019358,0.018963,0,-0.67141,0.35893,-0.34026,0,0,-0.67141,0,-76.187,-1.0506,0,6.7651,0,-20.848,72.943,1,1,3.3,3.3,-0.1,0
-0.0019374,0.018967,0,-0.6714,0.36022,-0.34138,0,0,-0.6714,0,-76.148,-1.0192,0,6.7184,0,-20.85,72.87,1,1,3.305,3.305,-0.1,0
-0.0019391,0.018971,0,-0.67139,0.36151,-0.34249,0,0,-0.67139,0,-76.108,-0.98812,0,6.6718,0,-20.852,72.796,1,1,3.31,3.31,-0.1,0
-0.0019408,0.018975,0,-0.67139,0.3628,-0.34361,0,0,-0.67139,0,-76.068,-0.95725,0,6.6254,0,-20.854,72.723,1,1,3.315,3.315,-0.1,0
-0.0019425,0.018979,0,-0.67138,0.36409,-0.34472,0,0,-0.67138,0,-76.028,-0.92663,0,6.5791,0,-20.856,72.65,1,1,3.32,3.32,-0.1,0
-0.0019442,0.018983,0,-0.67137,0.36538,-0.34584,0,0,-0.67137,0,-75.989,-0.89626,0,6.533,0,-20.858,72.577,1,1,3.325,3.325,-0.1,0
-0.0019459,0.018987,0,-0.67136,0.36668,-0.34695,0,0,-0.67136,0,-75.949,-0.86613,0,6.487,0,-20.86,72.504,1,1,3.33,3.33,-0.1,0
-0.0019476,0.018991,0,-0.67135,0.36797,-0.34807,0,0,-0.67135,0,-75.909,-0.83625,0,6.4411,0,-20.861,72.431,1,1,3.335,3.335,-0.1,0
-0.0019493,0.018995,0,-0.67134,0.36927,-0.34919,0,0,-0.67134,0,-75.869,-0.80661,0,6.3954,0,-20.863,72.359,1,1,3.34,3.34,-0.1,0
-0.001951,0.018999,0,-0.67133,0.37056,-0.35031,0,0,-0.67133,0,-75.829,-0.77721,0,6.3498,0,-20.865,72.286,1,1,3.345,3.345,-0.1,0
-0.0019527,0.019003,0,-0.67132,0.37186,-0.35143,0,0,-0.67132,0,-75.789,-0.74807,0,6.3044,0,-20.866,72.213,1,1,3.35,3.35,-0.1,0
-0.0019544,0.019007,0,-0.67131,0.37316,-0.35255,0,0,-0.67131,0,-75.749,-0.71916,0,6.2591,0,-20.868,72.141,1,1,3.355,3.355,-0.1,0
-0.0019561,0.019011,0,-0.6713,0.37446,-0.35367,0,0,-0.6713,0,-75.71,-0.6905,0,6.2139,0,-20.869,72.069,1,1,3.36,3.36,-0.1,0
-0.0019577,0.019015,0,-0.67129,0.37576,-0.35479,0,0,-0.67129,0,-75.67,-0.66209,0,6.1689,0,-20.87,71.997,1,1,3.365,3.365,-0.1,0
-0.0019594,0.019019,0,-0.67128,0.37706,-0.35591,0,0,-0.67128,0,-75.629,-0.63392,0,6.1241,0,-20.872,71.925,1,1,3.37,3.37,-0.1,0
-0.0019611,0.019023,0,-0.67127,0.37837,-0.35703,0,0,-0.67127,0,-75.589,-0.606,0,6.0794,0,-20.873,71.853,1,1,3.375,3.375,-0.1,0
-0.0019628,0.019027,0,-0.67126,0.37967,-0.35815,0,0,-0.67126,0,-75.549,-0.57832,0,6.0348,0,-20.874,71.781,1,1,3.38,3.38,-0.1,0
-0.0019645,0.019031,0,-0.67125,0.38097,-0.35928,0,0,-0.67125,0,-75.509,-0.55089,0,5.9904,0,-20.876,71.709,1,1,3.385,3.385,-0.1,0
-0.0019662,0.019035,0,-0.67124,0.38228,-0.3604,0,0,-0.67124,0,-75.469,-0.5237,0,5.9461,0,-20.877,71.637,1,1,3.39,3.39,-0.1,0
-0.0019679,0.019039,0,-0.67123,0.38359,-0.36153,0,0,-0.67123,0,-75.429,-0.49676,0,5.9019,0,-20.878,71.566,1,1,3.395,3.395,-0.1,0
-0.0019695,0.019043,0,-0.67122,0.38489,-0.36265,0,0,-0.67122,0,-75.389,-0.47006,0,5.8579,0,-20.879,71.494,1,1,3.4,3.4,-0.1,0
-0.0019712,0.019047,0,-0.67121,0.3862,-0.36378,0,0,-0.67121,0,-75.348,-0.44361,0,5.8141,0,-20.88,71.423,1,1,3.405,3.405,-0.1,0
-0.0019729,0.019051,0,-0.6712,0.38751,-0.3649,0,0,-0.6712,0,-75.308,-0.4174,0,5.7703,0,-20.881,71.352,1,1,3.41,3.41,-0.1,0
-0.0019746,0.019055,0,-0.67119,0.38882,-0.36603,0,0,-0.67119,0,-75.268,-0.39144,0,5.7268,0,-20.882,71.281,1,1,3.415,3.415,-0.1,0
-0.0019762,0.019059,0,-0.67118,0.39014,-0.36716,0,0,-0.67118,0,-75.228,-0.36572,0,5.6833,0,-20.883,71.209,1,1,3.42,3.42,-0.1,0
-0.0019779,0.019063,0,-0.67117,0.39145,-0.36829,0,0,-0.67117,0,-75.187,-0.34025,0,5.6401,0,-20.883,71.139,1,1,3.425,3.425,-0.1,0
-0.0019796,0.019067,0,-0.67116,0.39276,-0.36942,0,0,-0.67116,0,-75.147,-0.31502,0,5.5969,0,-20.884,71.068,1,1,3.43,3.43,-0.1,0
-0.0019813,0.019071,0,-0.67115,0.39408,-0.37055,0,0,-0.67115,0,-75.106,-0.29004,0,5.5539,0,-20.885,70.997,1,1,3.435,3.435,-0.1,0
-0.001983,0.019075,0,-0.67114,0.3954,-0.37168,0,0,-0.67114,0,-75.066,-0.2653,0,5.5111,0,-20.886,70.926,1,1,3.44,3.44,-0.1,0
-0.0019846,0.019079,0,-0.67113,0.39671,-0.37281,0,0,-0.67113,0,-75.026,-0.24081,0,5.4684,0,-20.886,70.856,1,1,3.445,3.445,-0.1,0
-0.0019863,0.019083,0,-0.67112,0.39803,-0.37394,0,0,-0.67112,0,-74.985,-0.21656,0,5.4258,0,-20.887,70.785,1,1,3.45,3.45,-0.1,0
-0.001988,0.019087,0,-0.67111,0.39935,-0.37507,0,0,-0.67111,0,-74.945,-0.19256,0,5.3834,0,-20.887,70.715,1,1,3.455,3.455,-0.1,0
-0.0019896,0.019091,0,-0.6711,0.40067,-0.3762,0,0,-0.6711,0,-74.904,-0.1688,0,5.3411,0,-20.888,70.645,1,1,3.46,3.46,-0.1,0
-0.0019913,0.019095,0,-0.67109,0.40199,-0.37734,0,0,-0.67109,0,-74.863,-0.14529,0,5.2989,0,-20.888,70.575,1,1,3.465,3.465,-0.1,0
-0.001993,0.019099,0,-0.67108,0.40331,-0.37847,0,0,-0.67108,0,-74.823,-0.12202,0,5.2569,0,-20.888,70.505,1,1,3.47,3.47,-0.1,0
-0.0019947,0.019103,0,-0.67107,0.40464,-0.37961,0,0,-0.67107,0,-74.782,-0.099002,0,5.2151,0,-20.889,70.435,1,1,3.475,3.475,-0.1,0
-0.0019963,0.019106,0,-0.67106,0.40596,-0.38074,0,0,-0.67106,0,-74.742,-0.076224,0,5.1734,0,-20.889,70.365,1,1,3.48,3.48,-0.1,0
-0.001998,0.01911,0,-0.67105,0.40729,-0.38188,0,0,-0.67105,0,-74.701,-0.053693,0,5.1318,0,-20.889,70.295,1,1,3.485,3.485,-0.1,0
-0.0019997,0.019114,0,-0.67104,0.40861,-0.38302,0,0,-0.67104,0,-74.66,-0.031406,0,5.0904,0,-20.889,70.226,1,1,3.49,3.49,-0.1,0
-0.0020013,0.019118,0,-0.67103,0.40994,-0.38415,0,0,-0.67103,0,-74.619,-0.0093644,0,5.0491,0,-20.889,70.156,1,1,3.495,3.495,-0.1,0
-0.002003,0.019122,0,-0.67102,0.41127,-0.38529,0,0,-0.67102,0,-74.579,0.012433,0,5.0079,0,-20.889,70.087,1,1,3.5,3.5,-0.1,0
-0.0020046,0.019126,0,-0.67101,0.4126,-0.38643,0,0,-0.67101,0,-74.538,0.033985,0,4.9669,0,-20.889,70.018,1,1,3.505,3.505,-0.1,0
-0.0020063,0.01913,0,-0.671,0.41393,-0.38757,0,0,-0.671,0,-74.497,0.055291,0,4.9261,0,-20.889,69.949,1,1,3.51,3.51,-0.1,0
-0.002008,0.019134,0,-0.67099,0.41526,-0.38871,0,0,-0.67099,0,-74.456,0.076354,0,4.8854,0,-20.889,69.88,1,1,3.515,3.515,-0.1,0
-0.0020096,0.019138,0,-0.67098,0.4166,-0.38985,0,0,-0.67098,0,-74.415,0.09717,0,4.8448,0,-20.889,69.811,1,1,3.52,3.52,-0.1,0
-0.0020113,0.019142,0,-0.67097,0.41793,-0.39099,0,0,-0.67097,0,-74.374,0.11774,0,4.8044,0,-20.889,69.742,1,1,3.525,3.525,-0.1,0
-0.002013,0.019146,0,-0.67096,0.41926,-0.39213,0,0,-0.67096,0,-74.333,0.13807,0,4.7641,0,-20.888,69.673,1,1,3.53,3.53,-0.1,0
-0.0020146,0.01915,0,-0.67095,0.4206,-0.39328,0,0,-0.67095,0,-74.292,0.15815,0,4.724,0,-20.888,69.604,1,1,3.535,3.535,-0.1,0
-0.0020163,0.019154,0,-0.67094,0.42194,-0.39442,0,0,-0.67094,0,-74.251,0.17799,0,4.684,0,-20.888,69.536,1,1,3.54,3.54,-0.1,0
-0.0020179,0.019158,0,-0.67094,0.42327,-0.39556,0,0,-0.67094,0,-74.21,0.19758,0,4.6441,0,-20.887,69.467,1,1,3.545,3.545,-0.1,0
-0.0020196,0.019162,0,-0.67093,0.42461,-0.39671,0,0,-0.67093,0,-74.169,0.21693,0,4.6044,0,-20.887,69.399,1,1,3.55,3.55,-0.1,0
-0.0020212,0.019165,0,-0.67092,0.42595,-0.39785,0,0,-0.67092,0,-74.128,0.23603,0,4.5648,0,-20.886,69.331,1,1,3.555,3.555,-0.1,0
-0.0020229,0.019169,0,-0.67091,0.42729,-0.399,0,0,-0.67091,0,-74.087,0.25489,0,4.5254,0,-20.886,69.263,1,1,3.56,3.56,-0.1,0
-0.0020246,0.019173,0,-0.6709,0.42864,-0.40015,0,0,-0.6709,0,-74.046,0.2735,0,4.4861,0,-20.885,69.195,1,1,3.565,3.565,-0.1,0
-0.0020262,0.019177,0,-0.67089,0.42998,-0.40129,0,0,-0.67089,0,-74.005,0.29186,0,4.447,0,-20.884,69.127,1,1,3.57,3.57,-0.1,0
-0.0020279,0.019181,0,-0.67088,0.43132,-0.40244,0,0,-0.67088,0,-73.963,0.30999,0,4.408,0,-20.884,69.059,1,1,3.575,3.575,-0.1,0
-0.0020295,0.019185,0,-0.67087,0.43267,-0.40359,0,0,-0.67087,0,-73.922,0.32786,0,4.3691,0,-20.883,68.991,1,1,3.58,3.58,-0.1,0
-0.0020312,0.019189,0,-0.67086,0.43402,-0.40474,0,0,-0.67086,0,-73.881,0.3455,0,4.3304,0,-20.882,68.924,1,1,3.585,3.585,-0.1,0
-0.0020328,0.019193,0,-0.67085,0.43536,-0.40589,0,0,-0.67085,0,-73.84,0.36288,0,4.2919,0,-20.881,68.856,1,1,3.59,3.59,-0.1,0
-0.0020345,0.019197,0,-0.67084,0.43671,-0.40704,0,0,-0.67084,0,-73.798,0.38003,0,4.2534,0,-20.88,68.789,1,1,3.595,3.595,-0.1,0
-0.0020361,0.019201,0,-0.67083,0.43806,-0.40819,0,0,-0.67083,0,-73.757,0.39692,0,4.2152,0,-20.879,68.721,1,1,3.6,3.6,-0.1,0
-0.0020378,0.019204,0,-0.67082,0.43941,-0.40934,0,0,-0.67082,0,-73.715,0.41358,0,4.177,0,-20.878,68.654,1,1,3.605,3.605,-0.1,0
-0.0020394,0.019208,0,-0.67081,0.44076,-0.41049,0,0,-0.67081,0,-73.674,0.42998,0,4.139,0,-20.877,68.587,1,1,3.61,3.61,-0.1,0
-0.002041,0.019212,0,-0.6708,0.44211,-0.41164,0,0,-0.6708,0,-73.633,0.44615,0,4.1012,0,-20.876,68.52,1,1,3.615,3.615,-0.1,0
-0.0020427,0.019216,0,-0.67079,0.44347,-0.4128,0,0,-0.67079,0,-73.591,0.46206,0,4.0635,0,-20.875,68.453,1,1,3.62,3.62,-0.1,0
-0.0020443,0.01922,0,-0.67078,0.44482,-0.41395,0,0,-0.67078,0,-73.55,0.47774,0,4.0259,0,-20.873,68.386,1,1,3.625,3.625,-0.1,0
-0.002046,0.019224,0,-0.67077,0.44618,-0.41511,0,0,-0.67077,0,-73.508,0.49317,0,3.9885,0,-20.872,68.32,1,1,3.63,3.63,-0.1,0
-0.0020476,0.019228,0,-0.67076,0.44753,-0.41626,0,0,-0.67076,0,-73.467,0.50835,0,3.9512,0,-20.871,68.253,1,1,3.635,3.635,-0.1,0
-0.0020493,0.019232,0,-0.67075,0.44889,-0.41742,0,0,-0.67075,0,-73.425,0.52329,0,3.9141,0,-20.869,68.187,1,1,3.64,3.64,-0.1,0
-0.0020509,0.019236,0,-0.67074,0.45025,-0.41858,0,0,-0.67074,0,-73.383,0.53798,0,3.8771,0,-20.868,68.12,1,1,3.645,3.645,-0.1,0
-0.0020525,0.019239,0,-0.67073,0.45161,-0.41973,0,0,-0.67073,0,-73.342,0.55243,0,3.8402,0,-20.866,68.054,1,1,3.65,3.65,-0.1,0
-0.0020542,0.019243,0,-0.67072,0.45297,-0.42089,0,0,-0.67072,0,-73.3,0.56663,0,3.8035,0,-20.865,67.988,1,1,3.655,3.655,-0.1,0
-0.0020558,0.019247,0,-0.67071,0.45433,-0.42205,0,0,-0.67071,0,-73.258,0.58059,0,3.7669,0,-20.863,67.922,1,1,3.66,3.66,-0.1,0
-0.0020575,0.019251,0,-0.6707,0.4557,-0.42321,0,0,-0.6707,0,-73.217,0.5943,0,3.7305,0,-20.862,67.856,1,1,3.665,3.665,-0.1,0
-0.0020591,0.019255,0,-0.67069,0.45706,-0.42437,0,0,-0.67069,0,-73.175,0.60777,0,3.6942,0,-20.86,67.79,1,1,3.67,3.67,-0.1,0
-0.0020607,0.019259,0,-0.67068,0.45842,-0.42553,0,0,-0.67068,0,-73.133,0.621,0,3.6581,0,-20.858,67.724,1,1,3.675,3.675,-0.1,0
-0.0020624,0.019263,0,-0.67067,0.45979,-0.42669,0,0,-0.67067,0,-73.091,0.63398,0,3.6221,0,-20.856,67.659,1,1,3.68,3.68,-0.1,0
-0.002064,0.019266,0,-0.67066,0.46116,-0.42785,0,0,-0.67066,0,-73.049,0.64671,0,3.5862,0,-20.854,67.593,1,1,3.685,3.685,-0.1,0
-0.0020656,0.01927,0,-0.67065,0.46252,-0.42901,0,0,-0.67065,0,-73.007,0.6592,0,3.5505,0,-20.852,67.528,1,1,3.69,3.69,-0.1,0
-0.0020673,0.019274,0,-0.67064,0.46389,-0.43018,0,0,-0.67064,0,-72.965,0.67144,0,3.515,0,-20.851,67.462,1,1,3.695,3.695,-0.1,0
-0.0020689,0.019278,0,-0.67063,0.46526,-0.43134,0,0,-0.67063,0,-72.924,0.68344,0,3.4795,0,-20.849,67.397,1,1,3.7,3.7,-0.1,0
-0.0020705,0.019282,0,-0.67062,0.46663,-0.4325,0,0,-0.67062,0,-72.882,0.6952,0,3.4443,0,-20.846,67.332,1,1,3.705,3.705,-0.1,0
-0.0020722,0.019286,0,-0.67061,0.46801,-0.43367,0,0,-0.67061,0,-72.84,0.70671,0,3.4091,0,-20.844,67.267,1,1,3.71,3.71,-0.1,0
-0.0020738,0.01929,0,-0.6706,0.46938,-0.43483,0,0,-0.6706,0,-72.798,0.71797,0,3.3741,0,-20.842,67.202,1,1,3.715,3.715,-0.1,0
-0.0020754,0.019293,0,-0.67059,0.47075,-0.436,0,0,-0.67059,0,-72.756,0.72899,0,3.3393,0,-20.84,67.137,1,1,3.72,3.72,-0.1,0
-0.0020771,0.019297,0,-0.67058,0.47213,-0.43717,0,0,-0.67058,0,-72.713,0.73977,0,3.3046,0,-20.838,67.073,1,1,3.725,3.725,-0.1,0
-0.0020787,0.019301,0,-0.67057,0.47351,-0.43834,0,0,-0.67057,0,-72.671,0.7503,0,3.27,0,-20.835,67.008,1,1,3.73,3.73,-0.1,0
-0.0020803,0.019305,0,-0.67056,0.47488,-0.4395,0,0,-0.67056,0,-72.629,0.76058,0,3.2356,0,-20.833,66.944,1,1,3.735,3.735,-0.1,0
-0.0020819,0.019309,0,-0.67055,0.47626,-0.44067,0,0,-0.67055,0,-72.587,0.77063,0,3.2013,0,-20.831,66.879,1,1,3.74,3.74,-0.1,0
-0.0020836,0.019313,0,-0.67054,0.47764,-0.44184,0,0,-0.67054,0,-72.545,0.78042,0,3.1672,0,-20.828,66.815,1,1,3.745,3.745,-0.1,0
-0.0020852,0.019316,0,-0.67053,0.47902,-0.44301,0,0,-0.67053,0,-72.503,0.78997,0,3.1332,0,-20.826,66.751,1,1,3.75,3.75,-0.1,0
-0.0020868,0.01932,0,-0.67052,0.4804,-0.44418,0,0,-0.67052,0,-72.46,0.79928,0,3.0993,0,-20.823,66.687,1,1,3.755,3.755,-0.1,0
-0.0020884,0.019324,0,-0.67051,0.48178,-0.44535,0,0,-0.67051,0,-72.418,0.80834,0,3.0656,0,-20.82,66.623,1,1,3.76,3.76,-0.1,0
-0.00209,0.019328,0,-0.6705,0.48317,-0.44653,0,0,-0.6705,0,-72.376,0.81716,0,3.0321,0,-20.818,66.559,1,1,3.765,3.765,-0.1,0
-0.0020917,0.019332,0,-0.67049,0.48455,-0.4477,0,0,-0.67049,0,-72.333,0.82573,0,2.9986,0,-20.815,66.495,1,1,3.77,3.77,-0.1,0
-0.0020933,0.019335,0,-0.67049,0.48594,-0.44887,0,0,-0.67049,0,-72.291,0.83406,0,2.9654,0,-20.812,66.431,1,1,3.775,3.775,-0.1,0
-0.0020949,0.019339,0,-0.67048,0.48732,-0.45004,0,0,-0.67048,0,-72.249,0.84214,0,2.9322,0,-20.809,66.368,1,1,3.78,3.78,-0.1,0
-0.0020965,0.019343,0,-0.67047,0.48871,-0.45122,0,0,-0.67047,0,-72.206,0.84998,0,2.8992,0,-20.806,66.304,1,1,3.785,3.785,-0.1,0
-0.0020981,0.019347,0,-0.67046,0.4901,-0.45239,0,0,-0.67046,0,-72.164,0.85757,0,2.8664,0,-20.804,66.241,1,1,3.79,3.79,-0.1,0
-0.0020998,0.019351,0,-0.67045,0.49149,-0.45357,0,0,-0.67045,0,-72.121,0.86492,0,2.8337,0,-20.801,66.178,1,1,3.795,3.795,-0.1,0
-0.0021014,0.019354,0,-0.67044,0.49288,-0.45475,0,0,-0.67044,0,-72.079,0.87202,0,2.8011,0,-20.797,66.115,1,1,3.8,3.8,-0.1,0
-0.002103,0.019358,0,-0.67043,0.49427,-0.45592,0,0,-0.67043,0,-72.036,0.87888,0,2.7687,0,-20.794,66.052,1,1,3.805,3.805,-0.1,0
-0.0021046,0.019362,0,-0.67042,0.49566,-0.4571,0,0,-0.67042,0,-71.994,0.88549,0,2.7364,0,-20.791,65.989,1,1,3.81,3.81,-0.1,0
-0.0021062,0.019366,0,-0.67041,0.49706,-0.45828,0,0,-0.67041,0,-71.951,0.89186,0,2.7043,0,-20.788,65.926,1,1,3.815,3.815,-0.1,0
-0.0021078,0.01937,0,-0.6704,0.49845,-0.45946,0,0,-0.6704,0,-71.908,0.89799,0,2.6723,0,-20.785,65.863,1,1,3.82,3.82,-0.1,0
-0.0021094,0.019373,0,-0.67039,0.49985,-0.46064,0,0,-0.67039,0,-71.866,0.90387,0,2.6404,0,-20.782,65.8,1,1,3.825,3.825,-0.1,0
-0.002111,0.019377,0,-0.67038,0.50125,-0.46182,0,0,-0.67038,0,-71.823,0.9095,0,2.6087,0,-20.778,65.738,1,1,3.83,3.83,-0.1,0
-0.0021127,0.019381,0,-0.67037,0.50264,-0.463,0,0,-0.67037,0,-71.78,0.91489,0,2.5771,0,-20.775,65.675,1,1,3.835,3.835,-0.1,0
-0.0021143,0.019385,0,-0.67036,0.50404,-0.46418,0,0,-0.67036,0,-71.738,0.92004,0,2.5457,0,-20.771,65.613,1,1,3.84,3.84,-0.1,0
-0.0021159,0.019388,0,-0.67035,0.50544,-0.46536,0,0,-0.67035,0,-71.695,0.92494,0,2.5144,0,-20.768,65.551,1,1,3.845,3.845,-0.1,0
-0.0021175,0.019392,0,-0.67034,0.50684,-0.46655,0,0,-0.67034,0,-71.652,0.92959,0,2.4833,0,-20.764,65.489,1,1,3.85,3.85,-0.1,0
-0.0021191,0.019396,0,-0.67033,0.50825,-0.46773,0,0,-0.67033,0,-71.609,0.934,0,2.4523,0,-20.761,65.427,1,1,3.855,3.855,-0.1,0
-0.0021207,0.0194,0,-0.67032,0.50965,-0.46891,0,0,-0.67032,0,-71.566,0.93817,0,2.4215,0,-20.757,65.365,1,1,3.86,3.86,-0.1,0
-0.0021223,0.019404,0,-0.67031,0.51105,-0.4701,0,0,-0.67031,0,-71.523,0.94209,0,2.3908,0,-20.753,65.303,1,1,3.865,3.865,-0.1,0
-0.0021239,0.019407,0,-0.6703,0.51246,-0.47128,0,0,-0.6703,0,-71.48,0.94577,0,2.3602,0,-20.75,65.241,1,1,3.87,3.87,-0.1,0
-0.0021255,0.019411,0,-0.67029,0.51386,-0.47247,0,0,-0.67029,0,-71.437,0.9492,0,2.3298,0,-20.746,65.18,1,1,3.875,3.875,-0.1,0
-0.0021271,0.019415,0,-0.67028,0.51527,-0.47366,0,0,-0.67028,0,-71.395,0.95239,0,2.2995,0,-20.742,65.118,1,1,3.88,3.88,-0.1,0
-0.0021287,0.019419,0,-0.67027,0.51668,-0.47484,0,0,-0.67027,0,-71.352,0.95533,0,2.2694,0,-20.738,65.057,1,1,3.885,3.885,-0.1,0
-0.0021303,0.019422,0,-0.67026,0.51809,-0.47603,0,0,-0.67026,0,-71.308,0.95803,0,2.2394,0,-20.734,64.996,1,1,3.89,3.89,-0.1,0
-0.0021319,0.019426,0,-0.67025,0.5195,-0.47722,0,0,-0.67025,0,-71.265,0.96048,0,2.2095,0,-20.73,64.935,1,1,3.895,3.895,-0.1,0
-0.0021335,0.01943,0,-0.67024,0.52091,-0.47841,0,0,-0.67024,0,-71.222,0.96269,0,2.1798,0,-20.726,64.873,1,1,3.9,3.9,-0.1,0
-0.0021351,0.019434,0,-0.67023,0.52232,-0.4796,0,0,-0.67023,0,-71.179,0.96465,0,2.1502,0,-20.722,64.813,1,1,3.905,3.905,-0.1,0
-0.0021367,0.019437,0,-0.67022,0.52374,-0.48079,0,0,-0.67022,0,-71.136,0.96637,0,2.1208,0,-20.718,64.752,1,1,3.91,3.91,-0.1,0
-0.0021383,0.019441,0,-0.67021,0.52515,-0.48198,0,0,-0.67021,0,-71.093,0.96785,0,2.0915,0,-20.714,64.691,1,1,3.915,3.915,-0.1,0
-0.0021399,0.019445,0,-0.6702,0.52657,-0.48317,0,0,-0.6702,0,-71.05,0.96908,0,2.0624,0,-20.709,64.63,1,1,3.92,3.92,-0.1,0
-0.0021415,0.019449,0,-0.67019,0.52798,-0.48436,0,0,-0.67019,0,-71.006,0.97006,0,2.0334,0,-20.705,64.57,1,1,3.925,3.925,-0.1,0
-0.0021431,0.019452,0,-0.67018,0.5294,-0.48556,0,0,-0.67018,0,-70.963,0.9708,0,2.0045,0,-20.701,64.509,1,1,3.93,3.93,-0.1,0
-0.0021447,0.019456,0,-0.67017,0.53082,-0.48675,0,0,-0.67017,0,-70.92,0.9713,0,1.9758,0,-20.696,64.449,1,1,3.935,3.935,-0.1,0
-0.0021463,0.01946,0,-0.67016,0.53224,-0.48794,0,0,-0.67016,0,-70.877,0.97155,0,1.9473,0,-20.692,64.389,1,1,3.94,3.94,-0.1,0
-0.0021479,0.019464,0,-0.67015,0.53366,-0.48914,0,0,-0.67015,0,-70.833,0.97155,0,1.9188,0,-20.687,64.329,1,1,3.945,3.945,-0.1,0
-0.0021495,0.019467,0,-0.67014,0.53508,-0.49033,0,0,-0.67014,0,-70.79,0.97131,0,1.8906,0,-20.683,64.269,1,1,3.95,3.95,-0.1,0
-0.0021511,0.019471,0,-0.67013,0.5365,-0.49153,0,0,-0.67013,0,-70.746,0.97083,0,1.8624,0,-20.678,64.209,1,1,3.955,3.955,-0.1,0
-0.0021526,0.019475,0,-0.67012,0.53793,-0.49273,0,0,-0.67012,0,-70.703,0.9701,0,1.8344,0,-20.673,64.149,1,1,3.96,3.96,-0.1,0
-0.0021542,0.019478,0,-0.67012,0.53935,-0.49393,0,0,-0.67012,0,-70.659,0.96913,0,1.8066,0,-20.669,64.089,1,1,3.965,3.965,-0.1,0
-0.0021558,0.019482,0,-0.67011,0.54078,-0.49512,0,0,-0.67011,0,-70.616,0.96791,0,1.7789,0,-20.664,64.029,1,1,3.97,3.97,-0.1,0
-0.0021574,0.019486,0,-0.6701,0.54221,-0.49632,0,0,-0.6701,0,-70.572,0.96645,0,1.7513,0,-20.659,63.97,1,1,3.975,3.975,-0.1,0
-0.002159,0.01949,0,-0.67009,0.54364,-0.49752,0,0,-0.67009,0,-70.529,0.96474,0,1.7239,0,-20.654,63.911,1,1,3.98,3.98,-0.1,0
-0.0021606,0.019493,0,-0.67008,0.54507,-0.49872,0,0,-0.67008,0,-70.485,0.96279,0,1.6966,0,-20.649,63.851,1,1,3.985,3.985,-0.1,0
-0.0021622,0.019497,0,-0.67007,0.5465,-0.49993,0,0,-0.67007,0,-70.442,0.96059,0,1.6695,0,-20.644,63.792,1,1,3.99,3.99,-0.1,0
-0.0021637,0.019501,0,-0.67006,0.54793,-0.50113,0,0,-0.67006,0,-70.398,0.95815,0,1.6425,0,-20.639,63.733,1,1,3.995,3.995,-0.1,0
-0.0021653,0.019504,0,-0.67005,0.54936,-0.50233,0,0,-0.67005,0,-70.354,0.95546,0,1.6156,0,-20.634,63.674,1,1,4,4,-0.1,0
-0.0021669,0.019508,0,-0.67004,0.55079,-0.50353,0,0,-0.67004,0,-70.311,0.95253,0,1.5889,0,-20.629,63.615,1,1,4.005,4.005,-0.1,0
-0.0021685,0.019512,0,-0.67004,0.55223,-0.50474,0,0,-0.67004,0,-70.267,0.94936,0,1.5624,0,-20.624,63.556,1,1,4.01,4.01,-0.1,0
-0.0021701,0.019515,0,-0.67003,0.55367,-0.50594,0,0,-0.67003,0,-70.223,0.94594,0,1.5359,0,-20.619,63.498,1,1,4.015,4.015,-0.1,0
-0.0021717,0.019519,0,-0.67002,0.5551,-0.50715,0,0,-0.67002,0,-70.179,0.94227,0,1.5097,0,-20.613,63.439,1,1,4.02,4.02,-0.1,0
-0.0021732,0.019523,0,-0.67001,0.55654,-0.50835,0,0,-0.67001,0,-70.136,0.93836,0,1.4835,0,-20.608,63.381,1,1,4.025,4.025,-0.1,0
-0.0021748,0.019527,0,-0.67,0.55798,-0.50956,0,0,-0.67,0,-70.092,0.93421,0,1.4575,0,-20.603,63.322,1,1,4.03,4.03,-0.1,0
-0.0021764,0.01953,0,-0.66999,0.55942,-0.51076,0,0,-0.66999,0,-70.048,0.92981,0,1.4317,0,-20.597,63.264,1,1,4.035,4.035,-0.1,0
-0.002178,0.019534,0,-0.66998,0.56086,-0.51197,0,0,-0.66998,0,-70.004,0.92517,0,1.406,0,-20.592,63.206,1,1,4.04,4.04,-0.1,0
-0.0021795,0.019538,0,-0.66997,0.5623,-0.51318,0,0,-0.66997,0,-69.96,0.92028,0,1.3804,0,-20.586,63.148,1,1,4.045,4.045,-0.1,0
-0.0021811,0.019541,0,-0.66996,0.56374,-0.51439,0,0,-0.66996,0,-69.916,0.91515,0,1.355,0,-20.581,63.09,1,1,4.05,4.05,-0.1,0
-0.0021827,0.019545,0,-0.66995,0.56519,-0.5156,0,0,-0.66995,0,-69.872,0.90977,0,1.3297,0,-20.575,63.032,1,1,4.055,4.055,-0.1,0
-0.0021843,0.019549,0,-0.66995,0.56663,-0.51681,0,0,-0.66995,0,-69.828,0.90415,0,1.3046,0,-20.569,62.974,1,1,4.06,4.06,-0.1,0
-0.0021858,0.019552,0,-0.66994,0.56808,-0.51802,0,0,-0.66994,0,-69.784,0.89828,0,1.2796,0,-20.564,62.917,1,1,4.065,4.065,-0.1,0
-0.0021874,0.019556,0,-0.66993,0.56953,-0.51923,0,0,-0.66993,0,-69.74,0.89217,0,1.2547,0,-20.558,62.859,1,1,4.07,4.07,-0.1,0
-0.002189,0.01956,0,-0.66992,0.57098,-0.52044,0,0,-0.66992,0,-69.696,0.88582,0,1.23,0,-20.552,62.802,1,1,4.075,4.075,-0.1,0
-0.0021905,0.019563,0,-0.66991,0.57242,-0.52166,0,0,-0.66991,0,-69.652,0.87922,0,1.2054,0,-20.546,62.744,1,1,4.08,4.08,-0.1,0
-0.0021921,0.019567,0,-0.6699,0.57388,-0.52287,0,0,-0.6699,0,-69.608,0.87237,0,1.181,0,-20.54,62.687,1,1,4.085,4.085,-0.1,0
-0.0021937,0.019571,0,-0.66989,0.57533,-0.52408,0,0,-0.66989,0,-69.563,0.86528,0,1.1567,0,-20.534,62.63,1,1,4.09,4.09,-0.1,0
-0.0021953,0.019574,0,-0.66988,0.57678,-0.5253,0,0,-0.66988,0,-69.519,0.85795,0,1.1326,0,-20.528,62.573,1,1,4.095,4.095,-0.1,0
-0.0021968,0.019578,0,-0.66987,0.57823,-0.52651,0,0,-0.66987,0,-69.475,0.85037,0,1.1086,0,-20.522,62.516,1,1,4.1,4.1,-0.1,0
-0.0021984,0.019582,0,-0.66986,0.57969,-0.52773,0,0,-0.66986,0,-69.431,0.84255,0,1.0847,0,-20.516,62.459,1,1,4.105,4.105,-0.1,0
-0.0022,0.019585,0,-0.66986,0.58114,-0.52895,0,0,-0.66986,0,-69.386,0.83448,0,1.061,0,-20.51,62.403,1,1,4.11,4.11,-0.1,0
-0.0022015,0.019589,0,-0.66985,0.5826,-0.53016,0,0,-0.66985,0,-69.342,0.82617,0,1.0375,0,-20.503,62.346,1,1,4.115,4.115,-0.1,0
-0.0022031,0.019592,0,-0.66984,0.58406,-0.53138,0,0,-0.66984,0,-69.298,0.81761,0,1.014,0,-20.497,62.289,1,1,4.12,4.12,-0.1,0
-0.0022046,0.019596,0,-0.66983,0.58551,-0.5326,0,0,-0.66983,0,-69.253,0.80881,0,0.99075,0,-20.491,62.233,1,1,4.125,4.125,-0.1,0
-0.0022062,0.0196,0,-0.66982,0.58697,-0.53382,0,0,-0.66982,0,-69.209,0.79977,0,0.96761,0,-20.484,62.177,1,1,4.13,4.13,-0.1,0
-0.0022078,0.019603,0,-0.66981,0.58844,-0.53504,0,0,-0.66981,0,-69.164,0.79048,0,0.94461,0,-20.478,62.121,1,1,4.135,4.135,-0.1,0
-0.0022093,0.019607,0,-0.6698,0.5899,-0.53626,0,0,-0.6698,0,-69.12,0.78094,0,0.92176,0,-20.471,62.064,1,1,4.14,4.14,-0.1,0
-0.0022109,0.019611,0,-0.66979,0.59136,-0.53748,0,0,-0.66979,0,-69.075,0.77116,0,0.89905,0,-20.465,62.009,1,1,4.145,4.145,-0.1,0
-0.0022124,0.019614,0,-0.66978,0.59282,-0.5387,0,0,-0.66978,0,-69.031,0.76114,0,0.87648,0,-20.458,61.953,1,1,4.15,4.15,-0.1,0
-0.002214,0.019618,0,-0.66978,0.59429,-0.53992,0,0,-0.66978,0,-68.986,0.75087,0,0.85405,0,-20.452,61.897,1,1,4.155,4.155,-0.1,0
-0.0022156,0.019622,0,-0.66977,0.59575,-0.54115,0,0,-0.66977,0,-68.942,0.74036,0,0.83177,0,-20.445,61.841,1,1,4.16,4.16,-0.1,0
-0.0022171,0.019625,0,-0.66976,0.59722,-0.54237,0,0,-0.66976,0,-68.897,0.7296,0,0.80963,0,-20.438,61.786,1,1,4.165,4.165,-0.1,0
-0.0022187,0.019629,0,-0.66975,0.59869,-0.54359,0,0,-0.66975,0,-68.852,0.7186,0,0.78763,0,-20.431,61.73,1,1,4.17,4.17,-0.1,0
-0.0022202,0.019632,0,-0.66974,0.60016,-0.54482,0,0,-0.66974,0,-68.808,0.70735,0,0.76577,0,-20.424,61.675,1,1,4.175,4.175,-0.1,0
-0.0022218,0.019636,0,-0.66973,0.60163,-0.54604,0,0,-0.66973,0,-68.763,0.69586,0,0.74406,0,-20.418,61.62,1,1,4.18,4.18,-0.1,0
-0.0022233,0.01964,0,-0.66972,0.6031,-0.54727,0,0,-0.66972,0,-68.718,0.68412,0,0.72249,0,-20.411,61.564,1,1,4.185,4.185,-0.1,0
-0.0022249,0.019643,0,-0.66971,0.60457,-0.5485,0,0,-0.66971,0,-68.674,0.67214,0,0.70106,0,-20.404,61.509,1,1,4.19,4.19,-0.1,0
-0.0022264,0.019647,0,-0.6697,0.60604,-0.54972,0,0,-0.6697,0,-68.629,0.65992,0,0.67977,0,-20.397,61.454,1,1,4.195,4.195,-0.1,0
-0.002228,0.01965,0,-0.66969,0.60752,-0.55095,0,0,-0.66969,0,-68.584,0.64745,0,0.65863,0,-20.389,61.4,1,1,4.2,4.2,-0.1,0
-0.0022295,0.019654,0,-0.66969,0.60899,-0.55218,0,0,-0.66969,0,-68.539,0.63474,0,0.63763,0,-20.382,61.345,1,1,4.205,4.205,-0.1,0
-0.0022311,0.019658,0,-0.66968,0.61047,-0.55341,0,0,-0.66968,0,-68.494,0.62178,0,0.61677,0,-20.375,61.29,1,1,4.21,4.21,-0.1,0
-0.0022326,0.019661,0,-0.66967,0.61195,-0.55464,0,0,-0.66967,0,-68.449,0.60857,0,0.59606,0,-20.368,61.236,1,1,4.215,4.215,-0.1,0
-0.0022342,0.019665,0,-0.66966,0.61342,-0.55587,0,0,-0.66966,0,-68.404,0.59513,0,0.57549,0,-20.36,61.181,1,1,4.22,4.22,-0.1,0
-0.0022357,0.019668,0,-0.66965,0.6149,-0.5571,0,0,-0.66965,0,-68.359,0.58144,0,0.55506,0,-20.353,61.127,1,1,4.225,4.225,-0.1,0
-0.0022373,0.019672,0,-0.66964,0.61638,-0.55833,0,0,-0.66964,0,-68.314,0.5675,0,0.53477,0,-20.346,61.073,1,1,4.23,4.23,-0.1,0
-0.0022388,0.019676,0,-0.66963,0.61787,-0.55957,0,0,-0.66963,0,-68.269,0.55332,0,0.51462,0,-20.338,61.019,1,1,4.235,4.235,-0.1,0
-0.0022404,0.019679,0,-0.66962,0.61935,-0.5608,0,0,-0.66962,0,-68.224,0.5389,0,0.49462,0,-20.331,60.965,1,1,4.24,4.24,-0.1,0
-0.0022419,0.019683,0,-0.66961,0.62083,-0.56203,0,0,-0.66961,0,-68.179,0.52423,0,0.47476,0,-20.323,60.911,1,1,4.245,4.245,-0.1,0
-0.0022434,0.019686,0,-0.6696,0.62232,-0.56327,0,0,-0.6696,0,-68.134,0.50931,0,0.45505,0,-20.315,60.857,1,1,4.25,4.25,-0.1,0
-0.002245,0.01969,0,-0.6696,0.6238,-0.5645,0,0,-0.6696,0,-68.089,0.49415,0,0.43547,0,-20.308,60.803,1,1,4.255,4.255,-0.1,0
-0.0022465,0.019694,0,-0.66959,0.62529,-0.56574,0,0,-0.66959,0,-68.044,0.47875,0,0.41604,0,-20.3,60.75,1,1,4.26,4.26,-0.1,0
-0.0022481,0.019697,0,-0.66958,0.62678,-0.56697,0,0,-0.66958,0,-67.999,0.4631,0,0.39676,0,-20.292,60.696,1,1,4.265,4.265,-0.1,0
-0.0022496,0.019701,0,-0.66957,0.62826,-0.56821,0,0,-0.66957,0,-67.953,0.44721,0,0.37761,0,-20.284,60.643,1,1,4.27,4.27,-0.1,0
-0.0022511,0.019704,0,-0.66956,0.62975,-0.56945,0,0,-0.66956,0,-67.908,0.43107,0,0.35861,0,-20.277,60.59,1,1,4.275,4.275,-0.1,0
-0.0022527,0.019708,0,-0.66955,0.63124,-0.57069,0,0,-0.66955,0,-67.863,0.41469,0,0.33974,0,-20.269,60.536,1,1,4.28,4.28,-0.1,0
-0.0022542,0.019711,0,-0.66954,0.63274,-0.57193,0,0,-0.66954,0,-67.818,0.39807,0,0.32103,0,-20.261,60.483,1,1,4.285,4.285,-0.1,0
-0.0022557,0.019715,0,-0.66953,0.63423,-0.57317,0,0,-0.66953,0,-67.772,0.3812,0,0.30245,0,-20.253,60.43,1,1,4.29,4.29,-0.1,0
-0.0022573,0.019718,0,-0.66952,0.63572,-0.57441,0,0,-0.66952,0,-67.727,0.36408,0,0.28402,0,-20.245,60.377,1,1,4.295,4.295,-0.1,0
-0.0022588,0.019722,0,-0.66951,0.63722,-0.57565,0,0,-0.66951,0,-67.682,0.34672,0,0.26573,0,-20.236,60.325,1,1,4.3,4.3,-0.1,0
-0.0022603,0.019726,0,-0.66951,0.63871,-0.57689,0,0,-0.66951,0,-67.636,0.32912,0,0.24758,0,-20.228,60.272,1,1,4.305,4.305,-0.1,0
-0.0022619,0.019729,0,-0.6695,0.64021,-0.57813,0,0,-0.6695,0,-67.591,0.31127,0,0.22958,0,-20.22,60.219,1,1,4.31,4.31,-0.1,0
-0.0022634,0.019733,0,-0.66949,0.64171,-0.57937,0,0,-0.66949,0,-67.545,0.29318,0,0.21171,0,-20.212,60.167,1,1,4.315,4.315,-0.1,0
-0.0022649,0.019736,0,-0.66948,0.64321,-0.58062,0,0,-0.66948,0,-67.5,0.27485,0,0.19399,0,-20.203,60.115,1,1,4.32,4.32,-0.1,0
-0.0022665,0.01974,0,-0.66947,0.64471,-0.58186,0,0,-0.66947,0,-67.454,0.25627,0,0.17642,0,-20.195,60.062,1,1,4.325,4.325,-0.1,0
-0.002268,0.019743,0,-0.66946,0.64621,-0.5831,0,0,-0.66946,0,-67.409,0.23744,0,0.15898,0,-20.187,60.01,1,1,4.33,4.33,-0.1,0
-0.0022695,0.019747,0,-0.66945,0.64771,-0.58435,0,0,-0.66945,0,-67.363,0.21837,0,0.14169,0,-20.178,59.958,1,1,4.335,4.335,-0.1,0
-0.0022711,0.01975,0,-0.66944,0.64921,-0.5856,0,0,-0.66944,0,-67.317,0.19906,0,0.12454,0,-20.169,59.906,1,1,4.34,4.34,-0.1,0
-0.0022726,0.019754,0,-0.66943,0.65072,-0.58684,0,0,-0.66943,0,-67.272,0.1795,0,0.10754,0,-20.161,59.855,1,1,4.345,4.345,-0.1,0
-0.0022741,0.019757,0,-0.66943,0.65222,-0.58809,0,0,-0.66943,0,-67.226,0.15969,0,0.090672,0,-20.152,59.803,1,1,4.35,4.35,-0.1,0
-0.0022756,0.019761,0,-0.66942,0.65373,-0.58934,0,0,-0.66942,0,-67.18,0.13965,0,0.07395,0,-20.144,59.751,1,1,4.355,4.355,-0.1,0
-0.0022772,0.019765,0,-0.66941,0.65524,-0.59059,0,0,-0.66941,0,-67.135,0.11936,0,0.057371,0,-20.135,59.7,1,1,4.36,4.36,-0.1,0
-0.0022787,0.019768,0,-0.6694,0.65675,-0.59184,0,0,-0.6694,0,-67.089,0.09882,0,0.040936,0,-20.126,59.648,1,1,4.365,4.365,-0.1,0
-0.0022802,0.019772,0,-0.66939,0.65825,-0.59309,0,0,-0.66939,0,-67.043,0.078039,0,0.024642,0,-20.117,59.597,1,1,4.37,4.37,-0.1,0
-0.0022817,0.019775,0,-0.66938,0.65977,-0.59434,0,0,-0.66938,0,-66.997,0.057014,0,0.0084902,0,-20.108,59.546,1,1,4.375,4.375,-0.1,0
-0.0022832,0.019779,0,-0.66937,0.66128,-0.59559,0,0,-0.66937,0,-66.951,0.035744,0,-0.0075187,0,-20.099,59.495,1,1,4.38,4.38,-0.1,0
-0.0022848,0.019782,0,-0.66936,0.66279,-0.59684,0,0,-0.66936,0,-66.905,0.01423,0,-0.023385,0,-20.09,59.444,1,1,4.385,4.385,-0.1,0
-0.0022863,0.019786,0,-0.66935,0.6643,-0.59809,0,0,-0.66935,0,-66.859,-0.0075262,0,-0.039107,0,-20.081,59.393,1,1,4.39,4.39,-0.1,0
-0.0022878,0.019789,0,-0.66934,0.66582,-0.59934,0,0,-0.66934,0,-66.814,-0.029529,0,-0.054688,0,-20.072,59.342,1,1,4.395,4.395,-0.1,0
-0.0022893,0.019793,0,-0.66934,0.66733,-0.6006,0,0,-0.66934,0,-66.768,-0.051776,0,-0.070127,0,-20.063,59.291,1,1,4.4,4.4,-0.1,0
-0.0022908,0.019796,0,-0.66933,0.66885,-0.60185,0,0,-0.66933,0,-66.722,-0.074268,0,-0.085423,0,-20.054,59.241,1,1,4.405,4.405,-0.1,0
-0.0022924,0.0198,0,-0.66932,0.67037,-0.60311,0,0,-0.66932,0,-66.676,-0.097002,0,-0.10058,0,-20.045,59.19,1,1,4.41,4.41,-0.1,0
-0.0022939,0.019803,0,-0.66931,0.67189,-0.60436,0,0,-0.66931,0,-66.629,-0.11998,0,-0.11559,0,-20.035,59.14,1,1,4.415,4.415,-0.1,0
-0.0022954,0.019807,0,-0.6693,0.67341,-0.60562,0,0,-0.6693,0,-66.583,-0.14321,0,-0.13045,0,-20.026,59.09,1,1,4.42,4.42,-0.1,0
-0.0022969,0.01981,0,-0.66929,0.67493,-0.60687,0,0,-0.66929,0,-66.537,-0.16668,0,-0.14518,0,-20.016,59.039,1,1,4.425,4.425,-0.1,0
-0.0022984,0.019814,0,-0.66928,0.67645,-0.60813,0,0,-0.66928,0,-66.491,-0.19039,0,-0.15976,0,-20.007,58.989,1,1,4.43,4.43,-0.1,0
-0.0022999,0.019817,0,-0.66927,0.67797,-0.60939,0,0,-0.66927,0,-66.445,-0.21435,0,-0.1742,0,-19.998,58.939,1,1,4.435,4.435,-0.1,0
-0.0023014,0.019821,0,-0.66926,0.67949,-0.61065,0,0,-0.66926,0,-66.399,-0.23855,0,-0.1885,0,-19.988,58.89,1,1,4.44,4.44,-0.1,0
-0.0023029,0.019824,0,-0.66925,0.68102,-0.61191,0,0,-0.66925,0,-66.353,-0.26299,0,-0.20266,0,-19.978,58.84,1,1,4.445,4.445,-0.1,0
-0.0023045,0.019828,0,-0.66925,0.68254,-0.61317,0,0,-0.66925,0,-66.306,-0.28768,0,-0.21667,0,-19.969,58.79,1,1,4.45,4.45,-0.1,0
-0.002306,0.019831,0,-0.66924,0.68407,-0.61443,0,0,-0.66924,0,-66.26,-0.31262,0,-0.23054,0,-19.959,58.741,1,1,4.455,4.455,-0.1,0
-0.0023075,0.019835,0,-0.66923,0.6856,-0.61569,0,0,-0.66923,0,-66.214,-0.3378,0,-0.24427,0,-19.949,58.691,1,1,4.46,4.46,-0.1,0
-0.002309,0.019838,0,-0.66922,0.68713,-0.61695,0,0,-0.66922,0,-66.167,-0.36322,0,-0.25785,0,-19.939,58.642,1,1,4.465,4.465,-0.1,0
-0.0023105,0.019842,0,-0.66921,0.68866,-0.61821,0,0,-0.66921,0,-66.121,-0.38889,0,-0.27129,0,-19.93,58.593,1,1,4.47,4.47,-0.1,0
-0.002312,0.019845,0,-0.6692,0.69019,-0.61948,0,0,-0.6692,0,-66.075,-0.4148,0,-0.28459,0,-19.92,58.544,1,1,4.475,4.475,-0.1,0
-0.0023135,0.019848,0,-0.66919,0.69172,-0.62074,0,0,-0.66919,0,-66.028,-0.44096,0,-0.29775,0,-19.91,58.495,1,1,4.48,4.48,-0.1,0
-0.002315,0.019852,0,-0.66918,0.69326,-0.62201,0,0,-0.66918,0,-65.982,-0.46736,0,-0.31077,0,-19.9,58.446,1,1,4.485,4.485,-0.1,0
-0.0023165,0.019855,0,-0.66917,0.69479,-0.62327,0,0,-0.66917,0,-65.935,-0.494,0,-0.32364,0,-19.89,58.397,1,1,4.49,4.49,-0.1,0
-0.002318,0.019859,0,-0.66917,0.69632,-0.62454,0,0,-0.66917,0,-65.889,-0.52089,0,-0.33637,0,-19.879,58.348,1,1,4.495,4.495,-0.1,0
-0.0023195,0.019862,0,-0.66916,0.69786,-0.6258,0,0,-0.66916,0,-65.842,-0.54802,0,-0.34895,0,-19.869,58.299,1,1,4.5,4.5,-0.1,0
-0.002321,0.019866,0,-0.66915,0.6994,-0.62707,0,0,-0.66915,0,-65.796,-0.5754,0,-0.3614,0,-19.859,58.251,1,1,4.505,4.505,-0.1,0
-0.0023225,0.019869,0,-0.66914,0.70094,-0.62834,0,0,-0.66914,0,-65.749,-0.60303,0,-0.3737,0,-19.849,58.203,1,1,4.51,4.51,-0.1,0
-0.002324,0.019873,0,-0.66913,0.70248,-0.62961,0,0,-0.66913,0,-65.702,-0.63089,0,-0.38586,0,-19.838,58.154,1,1,4.515,4.515,-0.1,0
-0.0023255,0.019876,0,-0.66912,0.70402,-0.63088,0,0,-0.66912,0,-65.656,-0.659,0,-0.39788,0,-19.828,58.106,1,1,4.52,4.52,-0.1,0
-0.002327,0.01988,0,-0.66911,0.70556,-0.63214,0,0,-0.66911,0,-65.609,-0.68736,0,-0.40975,0,-19.818,58.058,1,1,4.525,4.525,-0.1,0
-0.0023285,0.019883,0,-0.6691,0.7071,-0.63342,0,0,-0.6691,0,-65.562,-0.71596,0,-0.42149,0,-19.807,58.01,1,1,4.53,4.53,-0.1,0
-0.00233,0.019886,0,-0.66909,0.70864,-0.63469,0,0,-0.66909,0,-65.516,-0.7448,0,-0.43307,0,-19.797,57.962,1,1,4.535,4.535,-0.1,0
-0.0023315,0.01989,0,-0.66908,0.71019,-0.63596,0,0,-0.66908,0,-65.469,-0.77389,0,-0.44452,0,-19.786,57.914,1,1,4.54,4.54,-0.1,0
-0.002333,0.019893,0,-0.66908,0.71173,-0.63723,0,0,-0.66908,0,-65.422,-0.80322,0,-0.45583,0,-19.775,57.867,1,1,4.545,4.545,-0.1,0
-0.0023345,0.019897,0,-0.66907,0.71328,-0.6385,0,0,-0.66907,0,-65.375,-0.8328,0,-0.46699,0,-19.765,57.819,1,1,4.55,4.55,-0.1,0
-0.002336,0.0199,0,-0.66906,0.71483,-0.63978,0,0,-0.66906,0,-65.328,-0.86262,0,-0.47801,0,-19.754,57.772,1,1,4.555,4.555,-0.1,0
-0.0023374,0.019904,0,-0.66905,0.71638,-0.64105,0,0,-0.66905,0,-65.281,-0.89268,0,-0.48889,0,-19.743,57.724,1,1,4.56,4.56,-0.1,0
-0.0023389,0.019907,0,-0.66904,0.71793,-0.64232,0,0,-0.66904,0,-65.235,-0.92299,0,-0.49962,0,-19.732,57.677,1,1,4.565,4.565,-0.1,0
-0.0023404,0.019911,0,-0.66903,0.71948,-0.6436,0,0,-0.66903,0,-65.188,-0.95355,0,-0.51021,0,-19.722,57.63,1,1,4.57,4.57,-0.1,0
-0.0023419,0.019914,0,-0.66902,0.72103,-0.64488,0,0,-0.66902,0,-65.141,-0.98434,0,-0.52066,0,-19.711,57.583,1,1,4.575,4.575,-0.1,0
-0.0023434,0.019917,0,-0.66901,0.72258,-0.64615,0,0,-0.66901,0,-65.094,-1.0154,0,-0.53097,0,-19.7,57.536,1,1,4.58,4.58,-0.1,0
-0.0023449,0.019921,0,-0.669,0.72414,-0.64743,0,0,-0.669,0,-65.047,-1.0467,0,-0.54113,0,-19.689,57.489,1,1,4.585,4.585,-0.1,0
-0.0023464,0.019924,0,-0.66899,0.72569,-0.64871,0,0,-0.66899,0,-65,-1.0782,0,-0.55116,0,-19.678,57.442,1,1,4.59,4.59,-0.1,0
-0.0023479,0.019928,0,-0.66899,0.72725,-0.64999,0,0,-0.66899,0,-64.952,-1.11,0,-0.56103,0,-19.666,57.396,1,1,4.595,4.595,-0.1,0
-0.0023493,0.019931,0,-0.66898,0.7288,-0.65126,0,0,-0.66898,0,-64.905,-1.142,0,-0.57077,0,-19.655,57.349,1,1,4.6,4.6,-0.1,0
-0.0023508,0.019934,0,-0.66897,0.73036,-0.65254,0,0,-0.66897,0,-64.858,-1.1743,0,-0.58037,0,-19.644,57.303,1,1,4.605,4.605,-0.1,0
-0.0023523,0.019938,0,-0.66896,0.73192,-0.65383,0,0,-0.66896,0,-64.811,-1.2068,0,-0.58982,0,-19.633,57.256,1,1,4.61,4.61,-0.1,0
-0.0023538,0.019941,0,-0.66895,0.73367,-0.65517,0,0,-0.66895,0,-64.79,-1.2157,0,-0.5931,0,-19.627,57.236,1,1,4.615,4.615,-0.1,0
-0.0023553,0.019945,0,-0.66894,0.73557,-0.65656,0,0,-0.66894,0,-64.789,-1.2066,0,-0.59178,0,-19.627,57.235,1,1,4.62,4.62,-0.1,0
-0.0023568,0.019948,0,-0.66893,0.73748,-0.65796,0,0,-0.66893,0,-64.788,-1.1976,0,-0.59044,0,-19.626,57.234,1,1,4.625,4.625,-0.1,0
-0.0023583,0.019951,0,-0.66893,0.73938,-0.65935,0,0,-0.66893,0,-64.787,-1.1885,0,-0.5891,0,-19.625,57.232,1,1,4.63,4.63,-0.1,0
-0.0023598,0.019955,0,-0.66892,0.74128,-0.66075,0,0,-0.66892,0,-64.786,-1.1795,0,-0.58775,0,-19.624,57.231,1,1,4.635,4.635,-0.1,0
-0.0023613,0.019958,0,-0.66891,0.74319,-0.66214,0,0,-0.66891,0,-64.784,-1.1705,0,-0.58639,0,-19.624,57.23,1,1,4.64,4.64,-0.1,0
-0.0023628,0.019962,0,-0.6689,0.74509,-0.66354,0,0,-0.6689,0,-64.783,-1.1615,0,-0.58503,0,-19.623,57.229,1,1,4.645,4.645,-0.1,0
-0.0023643,0.019965,0,-0.66889,0.747,-0.66493,0,0,-0.66889,0,-64.782,-1.1526,0,-0.58365,0,-19.622,57.228,1,1,4.65,4.65,-0.1,0
-0.0023658,0.019969,0,-0.66888,0.74891,-0.66633,0,0,-0.66888,0,-64.781,-1.1436,0,-0.58227,0,-19.621,57.226,1,1,4.655,4.655,-0.1,0
-0.0023673,0.019972,0,-0.66887,0.75082,-0.66772,0,0,-0.66887,0,-64.779,-1.1347,0,-0.58088,0,-19.62,57.225,1,1,4.66,4.66,-0.1,0
-0.0023688,0.019975,0,-0.66887,0.75273,-0.66912,0,0,-0.66887,0,-64.778,-1.1258,0,-0.57948,0,-19.62,57.224,1,1,4.665,4.665,-0.1,0
-0.0023703,0.019979,0,-0.66886,0.75464,-0.67052,0,0,-0.66886,0,-64.777,-1.1169,0,-0.57807,0,-19.619,57.223,1,1,4.67,4.67,-0.1,0
-0.0023718,0.019982,0,-0.66885,0.75656,-0.67192,0,0,-0.66885,0,-64.775,-1.108,0,-0.57666,0,-19.618,57.221,1,1,4.675,4.675,-0.1,0
-0.0023733,0.019986,0,-0.66884,0.75847,-0.67331,0,0,-0.66884,0,-64.774,-1.0992,0,-0.57523,0,-19.617,57.22,1,1,4.68,4.68,-0.1,0
-0.0023748,0.019989,0,-0.66883,0.76039,-0.67471,0,0,-0.66883,0,-64.773,-1.0904,0,-0.5738,0,-19.616,57.219,1,1,4.685,4.685,-0.1,0
-0.0023763,0.019992,0,-0.66882,0.76231,-0.67611,0,0,-0.66882,0,-64.771,-1.0815,0,-0.57236,0,-19.615,57.218,1,1,4.69,4.69,-0.1,0
-0.0023778,0.019996,0,-0.66882,0.76423,-0.67751,0,0,-0.66882,0,-64.77,-1.0727,0,-0.57091,0,-19.614,57.216,1,1,4.695,4.695,-0.1,0
-0.0023793,0.019999,0,-0.66881,0.76615,-0.67891,0,0,-0.66881,0,-64.768,-1.064,0,-0.56945,0,-19.614,57.215,1,1,4.7,4.7,-0.1,0
-0.0023808,0.020003,0,-0.6688,0.76807,-0.68031,0,0,-0.6688,0,-64.767,-1.0552,0,-0.56799,0,-19.613,57.214,1,1,4.705,4.705,-0.1,0
-0.0023823,0.020006,0,-0.66879,0.76999,-0.68171,0,0,-0.66879,0,-64.765,-1.0465,0,-0.56651,0,-19.612,57.212,1,1,4.71,4.71,-0.1,0
-0.0023838,0.020009,0,-0.66878,0.77191,-0.68311,0,0,-0.66878,0,-64.764,-1.0377,0,-0.56503,0,-19.611,57.211,1,1,4.715,4.715,-0.1,0
-0.0023853,0.020013,0,-0.66877,0.77384,-0.68451,0,0,-0.66877,0,-64.762,-1.029,0,-0.56354,0,-19.61,57.21,1,1,4.72,4.72,-0.1,0
-0.0023868,0.020016,0,-0.66877,0.77577,-0.68592,0,0,-0.66877,0,-64.76,-1.0204,0,-0.56204,0,-19.609,57.208,1,1,4.725,4.725,-0.1,0
-0.0023883,0.020019,0,-0.66876,0.77769,-0.68732,0,0,-0.66876,0,-64.759,-1.0117,0,-0.56053,0,-19.608,57.207,1,1,4.73,4.73,-0.1,0
-0.0023898,0.020023,0,-0.66875,0.77962,-0.68872,0,0,-0.66875,0,-64.757,-1.003,0,-0.55902,0,-19.607,57.205,1,1,4.735,4.735,-0.1,0
-0.0023913,0.020026,0,-0.66874,0.78155,-0.69012,0,0,-0.66874,0,-64.755,-0.99442,0,-0.55749,0,-19.606,57.204,1,1,4.74,4.74,-0.1,0
-0.0023928,0.02003,0,-0.66873,0.78348,-0.69153,0,0,-0.66873,0,-64.753,-0.9858,0,-0.55596,0,-19.605,57.202,1,1,4.745,4.745,-0.1,0
-0.0023943,0.020033,0,-0.66872,0.78542,-0.69293,0,0,-0.66872,0,-64.752,-0.97721,0,-0.55442,0,-19.604,57.201,1,1,4.75,4.75,-0.1,0
-0.0023958,0.020036,0,-0.66872,0.78735,-0.69434,0,0,-0.66872,0,-64.75,-0.96863,0,-0.55287,0,-19.603,57.2,1,1,4.755,4.755,-0.1,0
-0.0023973,0.02004,0,-0.66871,0.78929,-0.69574,0,0,-0.66871,0,-64.748,-0.96008,0,-0.55132,0,-19.602,57.198,1,1,4.76,4.76,-0.1,0
-0.0023988,0.020043,0,-0.6687,0.79122,-0.69714,0,0,-0.6687,0,-64.746,-0.95154,0,-0.54975,0,-19.601,57.197,1,1,4.765,4.765,-0.1,0
-0.0024003,0.020047,0,-0.66869,0.79316,-0.69855,0,0,-0.66869,0,-64.744,-0.94302,0,-0.54818,0,-19.6,57.195,1,1,4.77,4.77,-0.1,0
-0.0024018,0.02005,0,-0.66868,0.7951,-0.69996,0,0,-0.66868,0,-64.742,-0.93452,0,-0.5466,0,-19.599,57.194,1,1,4.775,4.775,-0.1,0
-0.0024033,0.020053,0,-0.66867,0.79704,-0.70136,0,0,-0.66867,0,-64.74,-0.92604,0,-0.545,0,-19.598,57.192,1,1,4.78,4.78,-0.1,0
-0.0024048,0.020057,0,-0.66866,0.79898,-0.70277,0,0,-0.66866,0,-64.738,-0.91757,0,-0.54341,0,-19.597,57.191,1,1,4.785,4.785,-0.1,0
-0.0024063,0.02006,0,-0.66866,0.80093,-0.70418,0,0,-0.66866,0,-64.736,-0.90913,0,-0.5418,0,-19.596,57.189,1,1,4.79,4.79,-0.1,0
-0.0024078,0.020063,0,-0.66865,0.80287,-0.70558,0,0,-0.66865,0,-64.734,-0.9007,0,-0.54018,0,-19.594,57.187,1,1,4.795,4.795,-0.1,0
-0.0024093,0.020067,0,-0.66864,0.80481,-0.70699,0,0,-0.66864,0,-64.732,-0.89229,0,-0.53856,0,-19.593,57.186,1,1,4.8,4.8,-0.1,0
-0.0024108,0.02007,0,-0.66863,0.80676,-0.7084,0,0,-0.66863,0,-64.73,-0.8839,0,-0.53693,0,-19.592,57.184,1,1,4.805,4.805,-0.1,0
-0.0024123,0.020074,0,-0.66862,0.80871,-0.70981,0,0,-0.66862,0,-64.728,-0.87553,0,-0.53529,0,-19.591,57.183,1,1,4.81,4.81,-0.1,0
-0.0024138,0.020077,0,-0.66861,0.81066,-0.71122,0,0,-0.66861,0,-64.726,-0.86717,0,-0.53364,0,-19.59,57.181,1,1,4.815,4.815,-0.1,0
-0.0024153,0.02008,0,-0.66861,0.81261,-0.71263,0,0,-0.66861,0,-64.724,-0.85884,0,-0.53198,0,-19.589,57.179,1,1,4.82,4.82,-0.1,0
-0.0024168,0.020084,0,-0.6686,0.81456,-0.71404,0,0,-0.6686,0,-64.722,-0.85052,0,-0.53032,0,-19.588,57.178,1,1,4.825,4.825,-0.1,0
-0.0024183,0.020087,0,-0.66859,0.81651,-0.71545,0,0,-0.66859,0,-64.719,-0.84222,0,-0.52865,0,-19.586,57.176,1,1,4.83,4.83,-0.1,0
-0.0024198,0.02009,0,-0.66858,0.81847,-0.71686,0,0,-0.66858,0,-64.717,-0.83394,0,-0.52696,0,-19.585,57.175,1,1,4.835,4.835,-0.1,0
-0.0024213,0.020094,0,-0.66857,0.82042,-0.71827,0,0,-0.66857,0,-64.715,-0.82568,0,-0.52527,0,-19.584,57.173,1,1,4.84,4.84,-0.1,0
-0.0024228,0.020097,0,-0.66856,0.82238,-0.71968,0,0,-0.66856,0,-64.713,-0.81743,0,-0.52358,0,-19.583,57.171,1,1,4.845,4.845,-0.1,0
-0.0024242,0.0201,0,-0.66856,0.82434,-0.72109,0,0,-0.66856,0,-64.71,-0.80921,0,-0.52187,0,-19.582,57.169,1,1,4.85,4.85,-0.1,0
-0.0024257,0.020104,0,-0.66855,0.8263,-0.7225,0,0,-0.66855,0,-64.708,-0.801,0,-0.52015,0,-19.58,57.168,1,1,4.855,4.855,-0.1,0
-0.0024272,0.020107,0,-0.66854,0.82826,-0.72391,0,0,-0.66854,0,-64.706,-0.79281,0,-0.51843,0,-19.579,57.166,1,1,4.86,4.86,-0.1,0
-0.0024287,0.020111,0,-0.66853,0.83022,-0.72533,0,0,-0.66853,0,-64.703,-0.78464,0,-0.5167,0,-19.578,57.164,1,1,4.865,4.865,-0.1,0
-0.0024302,0.020114,0,-0.66852,0.83218,-0.72674,0,0,-0.66852,0,-64.701,-0.77649,0,-0.51496,0,-19.577,57.163,1,1,4.87,4.87,-0.1,0
-0.0024317,0.020117,0,-0.66851,0.83415,-0.72815,0,0,-0.66851,0,-64.698,-0.76836,0,-0.51321,0,-19.575,57.161,1,1,4.875,4.875,-0.1,0
-0.0024332,0.020121,0,-0.66851,0.83611,-0.72957,0,0,-0.66851,0,-64.696,-0.76024,0,-0.51146,0,-19.574,57.159,1,1,4.88,4.88,-0.1,0
-0.0024347,0.020124,0,-0.6685,0.83808,-0.73098,0,0,-0.6685,0,-64.693,-0.75215,0,-0.50969,0,-19.573,57.157,1,1,4.885,4.885,-0.1,0
-0.0024362,0.020127,0,-0.66849,0.84005,-0.7324,0,0,-0.66849,0,-64.691,-0.74407,0,-0.50792,0,-19.571,57.156,1,1,4.89,4.89,-0.1,0
-0.0024377,0.020131,0,-0.66848,0.84202,-0.73381,0,0,-0.66848,0,-64.688,-0.73601,0,-0.50614,0,-19.57,57.154,1,1,4.895,4.895,-0.1,0
-0.0024392,0.020134,0,-0.66847,0.84399,-0.73523,0,0,-0.66847,0,-64.686,-0.72797,0,-0.50435,0,-19.569,57.152,1,1,4.9,4.9,-0.1,0
-0.0024407,0.020137,0,-0.66846,0.84596,-0.73664,0,0,-0.66846,0,-64.683,-0.71994,0,-0.50255,0,-19.567,57.15,1,1,4.905,4.905,-0.1,0
-0.0024422,0.020141,0,-0.66845,0.84793,-0.73806,0,0,-0.66845,0,-64.68,-0.71194,0,-0.50074,0,-19.566,57.148,1,1,4.91,4.91,-0.1,0
-0.0024436,0.020144,0,-0.66845,0.84991,-0.73948,0,0,-0.66845,0,-64.678,-0.70395,0,-0.49893,0,-19.565,57.146,1,1,4.915,4.915,-0.1,0
-0.0024451,0.020147,0,-0.66844,0.85188,-0.7409,0,0,-0.66844,0,-64.675,-0.69599,0,-0.49711,0,-19.563,57.145,1,1,4.92,4.92,-0.1,0
-0.0024466,0.020151,0,-0.66843,0.85386,-0.74231,0,0,-0.66843,0,-64.672,-0.68804,0,-0.49528,0,-19.562,57.143,1,1,4.925,4.925,-0.1,0
-0.0024481,0.020154,0,-0.66842,0.85584,-0.74373,0,0,-0.66842,0,-64.669,-0.68011,0,-0.49344,0,-19.561,57.141,1,1,4.93,4.93,-0.1,0
-0.0024496,0.020157,0,-0.66841,0.85781,-0.74515,0,0,-0.66841,0,-64.667,-0.67219,0,-0.49159,0,-19.559,57.139,1,1,4.935,4.935,-0.1,0
-0.0024511,0.020161,0,-0.6684,0.8598,-0.74657,0,0,-0.6684,0,-64.664,-0.6643,0,-0.48973,0,-19.558,57.137,1,1,4.94,4.94,-0.1,0
-0.0024526,0.020164,0,-0.6684,0.86178,-0.74799,0,0,-0.6684,0,-64.661,-0.65642,0,-0.48787,0,-19.556,57.135,1,1,4.945,4.945,-0.1,0
-0.0024541,0.020167,0,-0.66839,0.86376,-0.74941,0,0,-0.66839,0,-64.658,-0.64857,0,-0.486,0,-19.555,57.133,1,1,4.95,4.95,-0.1,0
-0.0024556,0.020171,0,-0.66838,0.86574,-0.75083,0,0,-0.66838,0,-64.655,-0.64073,0,-0.48412,0,-19.553,57.131,1,1,4.955,4.955,-0.1,0
-0.002457,0.020174,0,-0.66837,0.86773,-0.75225,0,0,-0.66837,0,-64.652,-0.63291,0,-0.48223,0,-19.552,57.129,1,1,4.96,4.96,-0.1,0
-0.0024585,0.020177,0,-0.66836,0.86972,-0.75367,0,0,-0.66836,0,-64.649,-0.62511,0,-0.48033,0,-19.551,57.127,1,1,4.965,4.965,-0.1,0
-0.00246,0.020181,0,-0.66835,0.87171,-0.75509,0,0,-0.66835,0,-64.646,-0.61732,0,-0.47842,0,-19.549,57.125,1,1,4.97,4.97,-0.1,0
-0.0024615,0.020184,0,-0.66835,0.87369,-0.75651,0,0,-0.66835,0,-64.643,-0.60956,0,-0.47651,0,-19.548,57.123,1,1,4.975,4.975,-0.1,0
-0.002463,0.020187,0,-0.66834,0.87569,-0.75793,0,0,-0.66834,0,-64.64,-0.60181,0,-0.47459,0,-19.546,57.121,1,1,4.98,4.98,-0.1,0
-0.0024645,0.020191,0,-0.66833,0.87768,-0.75936,0,0,-0.66833,0,-64.637,-0.59408,0,-0.47266,0,-19.545,57.119,1,1,4.985,4.985,-0.1,0
-0.002466,0.020194,0,-0.66832,0.87967,-0.76078,0,0,-0.66832,0,-64.634,-0.58637,0,-0.47072,0,-19.543,57.117,1,1,4.99,4.99,-0.1,0
-0.0024675,0.020197,0,-0.66831,0.88166,-0.7622,0,0,-0.66831,0,-64.631,-0.57868,0,-0.46877,0,-19.542,57.115,1,1,4.995,4.995,-0.1,0
-0.0024689,0.020201,0,-0.6683,0.88366,-0.76363,0,0,-0.6683,0,-64.628,-0.57101,0,-0.46682,0,-19.54,57.113,1,1,5,5,-0.1,0
