"displacement:0","displacement:1","displacement:2","displacement contact active","displacement contact distance","displacement contact gap","displacement contact normalload","displacement contact slipload","displacement contact stick","displacement contact weight","stress_xx","stress_xy","stress_xz","stress_yy","stress_yz","stress_zz","vonmises","GeometryIds","vtkValidPointMask","arc_length","Points:0","Points:1","Points:2"
-6.8213e-15,0.010869,0,0.55652,-3.6944e-07,-3.5724e-11,915.6,285.95,-0.55652,0,-1064.9,376.13,0,-1749.3,0,-852.66,1111.5,1,1,0,0,-0.1,0
-7.0975e-06,0.010898,0,0.55072,8.3843e-06,-8.7397e-06,905.38,280.71,-0.55641,0,-1056.1,374.28,0,-1729,0,-843.75,1101.2,1,1,0.005,0.005,-0.1,0
-1.4191e-05,0.010926,0,0.54492,1.7135e-05,-1.7476e-05,895.16,275.47,-0.55629,0,-1047.2,372.43,0,-1708.6,0,-834.85,1090.9,1,1,0.01,0.01,-0.1,0
-2.128e-05,0.010955,0,0.53912,2.5881e-05,-2.6208e-05,884.94,270.23,-0.55618,0,-1038.4,370.59,0,-1688.2,0,-825.95,1080.6,1,1,0.015,0.015,-0.1,0
-2.8365e-05,0.010984,0,0.53332,3.4624e-05,-3.4937e-05,874.73,265,-0.55606,0,-1029.5,368.74,0,-1667.9,0,-817.05,1070.3,1,1,0.02,0.02,-0.1,0
-3.5445e-05,0.011012,0,0.52753,4.3363e-05,-4.3662e-05,864.52,259.77,-0.55595,0,-1020.6,366.9,0,-1647.5,0,-808.16,1060,1,1,0.025,0.025,-0.1,0
-4.2522e-05,0.011041,0,0.52173,5.2099e-05,-5.2384e-05,854.32,254.54,-0.55584,0,-1011.8,365.06,0,-1627.1,0,-799.26,1049.8,1,1,0.03,0.03,-0.1,0
-4.9594e-05,0.01107,0,0.51594,6.0831e-05,-6.1102e-05,844.12,249.32,-0.55572,0,-1003,363.21,0,-1606.8,0,-790.37,1039.5,1,1,0.035,0.035,-0.1,0
-5.6662e-05,0.011098,0,0.51016,6.956e-05,-6.9817e-05,833.92,244.09,-0.55561,0,-994.11,361.37,0,-1586.4,0,-781.48,1029.2,1,1,0.04,0.04,-0.1,0
-6.3726e-05,0.011127,0,0.50437,7.8284e-05,-7.8527e-05,823.73,238.87,-0.55549,0,-985.28,359.54,0,-1566.1,0,-772.59,1018.9,1,1,0.045,0.045,-0.1,0
-7.0785e-05,0.011156,0,0.49859,8.7006e-05,-8.7235e-05,813.54,233.65,-0.55538,0,-976.44,357.7,0,-1545.8,0,-763.71,1008.6,1,1,0.05,0.05,-0.1,0
-7.784e-05,0.011184,0,0.49281,9.5723e-05,-9.5938e-05,803.36,228.43,-0.55526,0,-967.62,355.86,0,-1525.4,0,-754.83,998.31,1,1,0.055,0.055,-0.1,0
-8.4892e-05,0.011213,0,0.48703,0.00010444,-0.00010464,793.18,223.21,-0.55515,0,-958.79,354.03,0,-1505.1,0,-745.95,988.02,1,1,0.06,0.06,-0.1,0
nan,nan,nan,nan,nan,nan,nan,nan,nan,nan,nan,nan,nan,nan,nan,nan,nan,0,0,0.065,0.065,-0.1,0
nan,nan,nan,nan,nan,nan,nan,nan,nan,nan,nan,nan,nan,nan,nan,nan,nan,0,0,0.07,0.07,-0.1,0
nan,nan,nan,nan,nan,nan,nan,nan,nan,nan,nan,nan,nan,nan,nan,nan,nan,0,0,0.075,0.075,-0.1,0
nan,nan,nan,nan,nan,nan,nan,nan,nan,nan,nan,nan,nan,nan,nan,nan,nan,0,0,0.08,0.08,-0.1,0
nan,nan,nan,nan,nan,nan,nan,nan,nan,nan,nan,nan,nan,nan,nan,nan,nan,0,0,0.085,0.085,-0.1,0
nan,nan,nan,nan,nan,nan,nan,nan,nan,nan,nan,nan,nan,nan,nan,nan,nan,0,0,0.09,0.09,-0.1,0
nan,nan,nan,nan,nan,nan,nan,nan,nan,nan,nan,nan,nan,nan,nan,nan,nan,0,0,0.095,0.095,-0.1,0
nan,nan,nan,nan,nan,nan,nan,nan,nan,nan,nan,nan,nan,nan,nan,nan,nan,0,0,0.1,0.1,-0.1,0
nan,nan,nan,nan,nan,nan,nan,nan,nan,nan,nan,nan,nan,nan,nan,nan,nan,0,0,0.105,0.105,-0.1,0
nan,nan,nan,nan,nan,nan,nan,nan,nan,nan,nan,nan,nan,nan,nan,nan,nan,0,0,0.11,0.11,-0.1,0
nan,nan,nan,nan,nan,nan,nan,nan,nan,nan,nan,nan,nan,nan,nan,nan,nan,0,0,0.115,0.115,-0.1,0
nan,nan,nan,nan,nan,nan,nan,nan,nan,nan,nan,nan,nan,nan,nan,nan,nan,0,0,0.12,0.12,-0.1,0
nan,nan,nan,nan,nan,nan,nan,nan,nan,nan,nan,nan,nan,nan,nan,nan,nan,0,0,0.125,0.125,-0.1,0
nan,nan,nan,nan,nan,nan,nan,nan,nan,nan,nan,nan,nan,nan,nan,nan,nan,0,0,0.13,0.13,-0.1,0
nan,nan,nan,nan,nan,nan,nan,nan,nan,nan,nan,nan,nan,nan,nan,nan,nan,0,0,0.135,0.135,-0.1,0
nan,nan,nan,nan,nan,nan,nan,nan,nan,nan,nan,nan,nan,nan,nan,nan,nan,0,0,0.14,0.14,-0.1,0
nan,nan,nan,nan,nan,nan,nan,nan,nan,nan,nan,nan,nan,nan,nan,nan,nan,0,0,0.145,0.145,-0.1,0
nan,nan,nan,nan,nan,nan,nan,nan,nan,nan,nan,nan,nan,nan,nan,nan,nan,0,0,0.15,0.15,-0.1,0
nan,nan,nan,nan,nan,nan,nan,nan,nan,nan,nan,nan,nan,nan,nan,nan,nan,0,0,0.155,0.155,-0.1,0
nan,nan,nan,nan,nan,nan,nan,nan,nan,nan,nan,nan,nan,nan,nan,nan,nan,0,0,0.16,0.16,-0.1,0
nan,nan,nan,nan,nan,nan,nan,nan,nan,nan,nan,nan,nan,nan,nan,nan,nan,0,0,0.165,0.165,-0.1,0
nan,nan,nan,nan,nan,nan,nan,nan,nan,nan,nan,nan,nan,nan,nan,nan,nan,0,0,0.17,0.17,-0.1,0
nan,nan,nan,nan,nan,nan,nan,nan,nan,nan,nan,nan,nan,nan,nan,nan,nan,0,0,0.175,0.175,-0.1,0
nan,nan,nan,nan,nan,nan,nan,nan,nan,nan,nan,nan,nan,nan,nan,nan,nan,0,0,0.18,0.18,-0.1,0
nan,nan,nan,nan,nan,nan,nan,nan,nan,nan,nan,nan,nan,nan,nan,nan,nan,0,0,0.185,0.185,-0.1,0
-0.00026675,0.011956,0,0.33763,0.00032974,-0.00032958,529.98,88.352,-0.55218,0,-730.76,306.73,0,-977.5,0,-515.86,720.88,1,1,0.19,0.19,-0.1,0
-0.00027368,0.011984,0,0.33191,0.00033836,-0.00033818,519.92,83.194,-0.55206,0,-722.05,304.93,0,-957.26,0,-507.04,710.62,1,1,0.195,0.195,-0.1,0
-0.00028062,0.012013,0,0.3262,0.00034697,-0.00034678,509.85,78.038,-0.55195,0,-713.33,303.12,0,-937.01,0,-498.22,700.36,1,1,0.2,0.2,-0.1,0
-0.00028755,0.012041,0,0.32049,0.00035558,-0.00035538,499.8,72.884,-0.55184,0,-704.63,301.32,0,-916.77,0,-489.4,690.1,1,1,0.205,0.205,-0.1,0
-0.00029447,0.01207,0,0.31479,0.00036419,-0.00036397,489.74,67.732,-0.55172,0,-695.92,299.52,0,-896.54,0,-480.59,679.84,1,1,0.21,0.21,-0.1,0
-0.00030139,0.012098,0,0.30908,0.00037279,-0.00037256,479.69,62.583,-0.55161,0,-687.22,297.72,0,-876.3,0,-471.78,669.58,1,1,0.215,0.215,-0.1,0
-0.00030831,0.012127,0,0.30338,0.00038139,-0.00038114,469.64,57.435,-0.55149,0,-678.53,295.93,0,-856.07,0,-462.97,659.32,1,1,0.22,0.22,-0.1,0
-0.00031522,0.012155,0,0.29768,0.00038998,-0.00038972,459.6,52.29,-0.55138,0,-669.83,294.13,0,-835.85,0,-454.17,649.06,1,1,0.225,0.225,-0.1,0
-0.00032213,0.012183,0,0.29198,0.00039858,-0.0003983,449.56,47.147,-0.55127,0,-661.14,292.34,0,-815.62,0,-445.36,638.81,1,1,0.23,0.23,-0.1,0
-0.00032904,0.012212,0,0.28628,0.00040716,-0.00040688,439.53,42.005,-0.55115,0,-652.46,290.54,0,-795.4,0,-436.56,628.55,1,1,0.235,0.235,-0.1,0
-0.00033594,0.01224,0,0.28059,0.00041575,-0.00041545,429.5,36.866,-0.55104,0,-643.78,288.75,0,-775.19,0,-427.76,618.29,1,1,0.24,0.24,-0.1,0
-0.00034283,0.012269,0,0.2749,0.00042433,-0.00042402,419.47,31.729,-0.55092,0,-635.1,286.96,0,-754.97,0,-418.96,608.04,1,1,0.245,0.245,-0.1,0
-0.0003497,0.012298,0,0.26864,0.00043747,-0.00043713,409.62,26.918,-0.55081,0,-626.54,285.12,0,-735.21,0,-410.34,598.19,1,1,0.25,0.25,-0.1,0
nan,nan,nan,nan,nan,nan,nan,nan,nan,nan,nan,nan,nan,nan,nan,nan,nan,0,0,0.255,0.255,-0.1,0
nan,nan,nan,nan,nan,nan,nan,nan,nan,nan,nan,nan,nan,nan,nan,nan,nan,0,0,0.26,0.26,-0.1,0
nan,nan,nan,nan,nan,nan,nan,nan,nan,nan,nan,nan,nan,nan,nan,nan,nan,0,0,0.265,0.265,-0.1,0
nan,nan,nan,nan,nan,nan,nan,nan,nan,nan,nan,nan,nan,nan,nan,nan,nan,0,0,0.27,0.27,-0.1,0
nan,nan,nan,nan,nan,nan,nan,nan,nan,nan,nan,nan,nan,nan,nan,nan,nan,0,0,0.275,0.275,-0.1,0
nan,nan,nan,nan,nan,nan,nan,nan,nan,nan,nan,nan,nan,nan,nan,nan,nan,0,0,0.28,0.28,-0.1,0
nan,nan,nan,nan,nan,nan,nan,nan,nan,nan,nan,nan,nan,nan,nan,nan,nan,0,0,0.285,0.285,-0.1,0
nan,nan,nan,nan,nan,nan,nan,nan,nan,nan,nan,nan,nan,nan,nan,nan,nan,0,0,0.29,0.29,-0.1,0
nan,nan,nan,nan,nan,nan,nan,nan,nan,nan,nan,nan,nan,nan,nan,nan,nan,0,0,0.295,0.295,-0.1,0
nan,nan,nan,nan,nan,nan,nan,nan,nan,nan,nan,nan,nan,nan,nan,nan,nan,0,0,0.3,0.3,-0.1,0
nan,nan,nan,nan,nan,nan,nan,nan,nan,nan,nan,nan,nan,nan,nan,nan,nan,0,0,0.305,0.305,-0.1,0
nan,nan,nan,nan,nan,nan,nan,nan,nan,nan,nan,nan,nan,nan,nan,nan,nan,0,0,0.31,0.31,-0.1,0
nan,nan,nan,nan,nan,nan,nan,nan,nan,nan,nan,nan,nan,nan,nan,nan,nan,0,0,0.315,0.315,-0.1,0
nan,nan,nan,nan,nan,nan,nan,nan,nan,nan,nan,nan,nan,nan,nan,nan,nan,0,0,0.32,0.32,-0.1,0
nan,nan,nan,nan,nan,nan,nan,nan,nan,nan,nan,nan,nan,nan,nan,nan,nan,0,0,0.325,0.325,-0.1,0
nan,nan,nan,nan,nan,nan,nan,nan,nan,nan,nan,nan,nan,nan,nan,nan,nan,0,0,0.33,0.33,-0.1,0
nan,nan,nan,nan,nan,nan,nan,nan,nan,nan,nan,nan,nan,nan,nan,nan,nan,0,0,0.335,0.335,-0.1,0
nan,nan,nan,nan,nan,nan,nan,nan,nan,nan,nan,nan,nan,nan,nan,nan,nan,0,0,0.34,0.34,-0.1,0
nan,nan,nan,nan,nan,nan,nan,nan,nan,nan,nan,nan,nan,nan,nan,nan,nan,0,0,0.345,0.345,-0.1,0
nan,nan,nan,nan,nan,nan,nan,nan,nan,nan,nan,nan,nan,nan,nan,nan,nan,0,0,0.35,0.35,-0.1,0
nan,nan,nan,nan,nan,nan,nan,nan,nan,nan,nan,nan,nan,nan,nan,nan,nan,0,0,0.355,0.355,-0.1,0
nan,nan,nan,nan,nan,nan,nan,nan,nan,nan,nan,nan,nan,nan,nan,nan,nan,0,0,0.36,0.36,-0.1,0
nan,nan,nan,nan,nan,nan,nan,nan,nan,nan,nan,nan,nan,nan,nan,nan,nan,0,0,0.365,0.365,-0.1,0
nan,nan,nan,nan,nan,nan,nan,nan,nan,nan,nan,nan,nan,nan,nan,nan,nan,0,0,0.37,0.37,-0.1,0
nan,nan,nan,nan,nan,nan,nan,nan,nan,nan,nan,nan,nan,nan,nan,nan,nan,0,0,0.375,0.375,-0.1,0
nan,nan,nan,nan,nan,nan,nan,nan,nan,nan,nan,nan,nan,nan,nan,nan,nan,0,0,0.38,0.38,-0.1,0
nan,nan,nan,nan,nan,nan,nan,nan,nan,nan,nan,nan,nan,nan,nan,nan,nan,0,0,0.385,0.385,-0.1,0
nan,nan,nan,nan,nan,nan,nan,nan,nan,nan,nan,nan,nan,nan,nan,nan,nan,0,0,0.39,0.39,-0.1,0
nan,nan,nan,nan,nan,nan,nan,nan,nan,nan,nan,nan,nan,nan,nan,nan,nan,0,0,0.395,0.395,-0.1,0
nan,nan,nan,nan,nan,nan,nan,nan,nan,nan,nan,nan,nan,nan,nan,nan,nan,0,0,0.4,0.4,-0.1,0
nan,nan,nan,nan,nan,nan,nan,nan,nan,nan,nan,nan,nan,nan,nan,nan,nan,0,0,0.405,0.405,-0.1,0
nan,nan,nan,nan,nan,nan,nan,nan,nan,nan,nan,nan,nan,nan,nan,nan,nan,0,0,0.41,0.41,-0.1,0
nan,nan,nan,nan,nan,nan,nan,nan,nan,nan,nan,nan,nan,nan,nan,nan,nan,0,0,0.415,0.415,-0.1,0
nan,nan,nan,nan,nan,nan,nan,nan,nan,nan,nan,nan,nan,nan,nan,nan,nan,0,0,0.42,0.42,-0.1,0
nan,nan,nan,nan,nan,nan,nan,nan,nan,nan,nan,nan,nan,nan,nan,nan,nan,0,0,0.425,0.425,-0.1,0
nan,nan,nan,nan,nan,nan,nan,nan,nan,nan,nan,nan,nan,nan,nan,nan,nan,0,0,0.43,0.43,-0.1,0
nan,nan,nan,nan,nan,nan,nan,nan,nan,nan,nan,nan,nan,nan,nan,nan,nan,0,0,0.435,0.435,-0.1,0
nan,nan,nan,nan,nan,nan,nan,nan,nan,nan,nan,nan,nan,nan,nan,nan,nan,0,0,0.44,0.44,-0.1,0
nan,nan,nan,nan,nan,nan,nan,nan,nan,nan,nan,nan,nan,nan,nan,nan,nan,0,0,0.445,0.445,-0.1,0
nan,nan,nan,nan,nan,nan,nan,nan,nan,nan,nan,nan,nan,nan,nan,nan,nan,0,0,0.45,0.45,-0.1,0
nan,nan,nan,nan,nan,nan,nan,nan,nan,nan,nan,nan,nan,nan,nan,nan,nan,0,0,0.455,0.455,-0.1,0
nan,nan,nan,nan,nan,nan,nan,nan,nan,nan,nan,nan,nan,nan,nan,nan,nan,0,0,0.46,0.46,-0.1,0
nan,nan,nan,nan,nan,nan,nan,nan,nan,nan,nan,nan,nan,nan,nan,nan,nan,0,0,0.465,0.465,-0.1,0
-0.00063962,0.013895,0,-0.331,0.003652,-0.00364,80.135,5.266,-0.54442,0,-315.37,178.49,0,-127.26,0,-133.51,404.12,1,1,0.47,0.47,-0.1,0
-0.0006462,0.013931,0,-0.34447,0.0037242,-0.0037119,72.735,4.7798,-0.54427,0,-308.39,176.08,0,-113.49,0,-127.26,399.73,1,1,0.475,0.475,-0.1,0
-0.00065278,0.013968,0,-0.35793,0.0037963,-0.0037838,65.339,4.2938,-0.54413,0,-301.41,173.68,0,-99.71,0,-121.01,395.35,1,1,0.48,0.48,-0.1,0
-0.00065936,0.014004,0,-0.37138,0.0038684,-0.0038556,57.947,3.808,-0.54398,0,-294.44,171.28,0,-85.936,0,-114.76,390.97,1,1,0.485,0.485,-0.1,0
-0.00066594,0.01404,0,-0.38482,0.0039405,-0.0039275,50.559,3.3225,-0.54384,0,-287.47,168.87,0,-72.164,0,-108.51,386.59,1,1,0.49,0.49,-0.1,0
-0.00067252,0.014076,0,-0.39826,0.0040125,-0.0039992,43.175,2.8373,-0.54369,0,-280.5,166.47,0,-58.393,0,-102.26,382.21,1,1,0.495,0.495,-0.1,0
-0.0006791,0.014112,0,-0.41169,0.0040845,-0.0040709,35.795,2.3523,-0.54355,0,-273.54,164.07,0,-44.625,0,-96.02,377.83,1,1,0.5,0.5,-0.1,0
-0.00068568,0.014149,0,-0.42511,0.0041564,-0.0041426,28.419,1.8676,-0.54341,0,-266.59,161.67,0,-30.858,0,-89.778,373.45,1,1,0.505,0.505,-0.1,0
-0.00069226,0.014185,0,-0.43853,0.0042283,-0.0042143,21.047,1.3831,-0.54326,0,-259.63,159.27,0,-17.093,0,-83.538,369.08,1,1,0.51,0.51,-0.1,0
-0.00069883,0.014221,0,-0.45194,0.0043002,-0.0042859,13.678,0.89888,-0.54312,0,-252.68,156.87,0,-3.3299,0,-77.299,364.7,1,1,0.515,0.515,-0.1,0
-0.00070541,0.014257,0,-0.46534,0.004372,-0.0043575,6.314,0.41492,-0.54297,0,-245.74,154.47,0,10.432,0,-71.062,360.33,1,1,0.52,0.52,-0.1,0
-0.00071168,0.014291,0,-0.47697,0.0044579,-0.004443,0,0,-0.54284,0,-239.58,152.06,0,22.156,0,-65.676,356.1,1,1,0.525,0.525,-0.1,0
-0.00071607,0.014309,0,-0.478,0.0046288,-0.0046127,0,0,-0.54276,0,-238.17,149.53,0,21.604,0,-65.411,352.7,1,1,0.53,0.53,-0.1,0
-0.00072047,0.014328,0,-0.47903,0.0047996,-0.0047825,0,0,-0.54269,0,-236.76,147,0,21.052,0,-65.146,349.31,1,1,0.535,0.535,-0.1,0
-0.00072486,0.014347,0,-0.48005,0.0049704,-0.0049521,0,0,-0.54261,0,-235.34,144.48,0,20.501,0,-64.881,345.92,1,1,0.54,0.54,-0.1,0
-0.00072926,0.014365,0,-0.48108,0.0051411,-0.0051218,0,0,-0.54254,0,-233.93,141.95,0,19.951,0,-64.615,342.52,1,1,0.545,0.545,-0.1,0
-0.00073366,0.014384,0,-0.4821,0.0053117,-0.0052913,0,0,-0.54247,0,-232.52,139.43,0,19.4,0,-64.35,339.13,1,1,0.55,0.55,-0.1,0
-0.00073806,0.014402,0,-0.48313,0.0054824,-0.0054609,0,0,-0.54239,0,-231.11,136.9,0,18.851,0,-64.084,335.73,1,1,0.555,0.555,-0.1,0
-0.00074246,0.014421,0,-0.48416,0.0056529,-0.0056304,0,0,-0.54232,0,-229.69,134.38,0,18.301,0,-63.818,332.34,1,1,0.56,0.56,-0.1,0
-0.00074686,0.014439,0,-0.48518,0.0058235,-0.0057998,0,0,-0.54224,0,-228.28,131.85,0,17.753,0,-63.552,328.94,1,1,0.565,0.565,-0.1,0
nan,nan,nan,nan,nan,nan,nan,nan,nan,nan,nan,nan,nan,nan,nan,nan,nan,0,0,0.57,0.57,-0.1,0
nan,nan,nan,nan,nan,nan,nan,nan,nan,nan,nan,nan,nan,nan,nan,nan,nan,0,0,0.575,0.575,-0.1,0
nan,nan,nan,nan,nan,nan,nan,nan,nan,nan,nan,nan,nan,nan,nan,nan,nan,0,0,0.58,0.58,-0.1,0
nan,nan,nan,nan,nan,nan,nan,nan,nan,nan,nan,nan,nan,nan,nan,nan,nan,0,0,0.585,0.585,-0.1,0
nan,nan,nan,nan,nan,nan,nan,nan,nan,nan,nan,nan,nan,nan,nan,nan,nan,0,0,0.59,0.59,-0.1,0
nan,nan,nan,nan,nan,nan,nan,nan,nan,nan,nan,nan,nan,nan,nan,nan,nan,0,0,0.595,0.595,-0.1,0
nan,nan,nan,nan,nan,nan,nan,nan,nan,nan,nan,nan,nan,nan,nan,nan,nan,0,0,0.6,0.6,-0.1,0
nan,nan,nan,nan,nan,nan,nan,nan,nan,nan,nan,nan,nan,nan,nan,nan,nan,0,0,0.605,0.605,-0.1,0
nan,nan,nan,nan,nan,nan,nan,nan,nan,nan,nan,nan,nan,nan,nan,nan,nan,0,0,0.61,0.61,-0.1,0
nan,nan,nan,nan,nan,nan,nan,nan,nan,nan,nan,nan,nan,nan,nan,nan,nan,0,0,0.615,0.615,-0.1,0
nan,nan,nan,nan,nan,nan,nan,nan,nan,nan,nan,nan,nan,nan,nan,nan,nan,0,0,0.62,0.62,-0.1,0
nan,nan,nan,nan,nan,nan,nan,nan,nan,nan,nan,nan,nan,nan,nan,nan,nan,0,0,0.625,0.625,-0.1,0
nan,nan,nan,nan,nan,nan,nan,nan,nan,nan,nan,nan,nan,nan,nan,nan,nan,0,0,0.63,0.63,-0.1,0
nan,nan,nan,nan,nan,nan,nan,nan,nan,nan,nan,nan,nan,nan,nan,nan,nan,0,0,0.635,0.635,-0.1,0
nan,nan,nan,nan,nan,nan,nan,nan,nan,nan,nan,nan,nan,nan,nan,nan,nan,0,0,0.64,0.64,-0.1,0
nan,nan,nan,nan,nan,nan,nan,nan,nan,nan,nan,nan,nan,nan,nan,nan,nan,0,0,0.645,0.645,-0.1,0
nan,nan,nan,nan,nan,nan,nan,nan,nan,nan,nan,nan,nan,nan,nan,nan,nan,0,0,0.65,0.65,-0.1,0
nan,nan,nan,nan,nan,nan,nan,nan,nan,nan,nan,nan,nan,nan,nan,nan,nan,0,0,0.655,0.655,-0.1,0
nan,nan,nan,nan,nan,nan,nan,nan,nan,nan,nan,nan,nan,nan,nan,nan,nan,0,0,0.66,0.66,-0.1,0
nan,nan,nan,nan,nan,nan,nan,nan,nan,nan,nan,nan,nan,nan,nan,nan,nan,0,0,0.665,0.665,-0.1,0
nan,nan,nan,nan,nan,nan,nan,nan,nan,nan,nan,nan,nan,nan,nan,nan,nan,0,0,0.67,0.67,-0.1,0
nan,nan,nan,nan,nan,nan,nan,nan,nan,nan,nan,nan,nan,nan,nan,nan,nan,0,0,0.675,0.675,-0.1,0
nan,nan,nan,nan,nan,nan,nan,nan,nan,nan,nan,nan,nan,nan,nan,nan,nan,0,0,0.68,0.68,-0.1,0
nan,nan,nan,nan,nan,nan,nan,nan,nan,nan,nan,nan,nan,nan,nan,nan,nan,0,0,0.685,0.685,-0.1,0
nan,nan,nan,nan,nan,nan,nan,nan,nan,nan,nan,nan,nan,nan,nan,nan,nan,0,0,0.69,0.69,-0.1,0
nan,nan,nan,nan,nan,nan,nan,nan,nan,nan,nan,nan,nan,nan,nan,nan,nan,0,0,0.695,0.695,-0.1,0
nan,nan,nan,nan,nan,nan,nan,nan,nan,nan,nan,nan,nan,nan,nan,nan,nan,0,0,0.7,0.7,-0.1,0
nan,nan,nan,nan,nan,nan,nan,nan,nan,nan,nan,nan,nan,nan,nan,nan,nan,0,0,0.705,0.705,-0.1,0
nan,nan,nan,nan,nan,nan,nan,nan,nan,nan,nan,nan,nan,nan,nan,nan,nan,0,0,0.71,0.71,-0.1,0
nan,nan,nan,nan,nan,nan,nan,nan,nan,nan,nan,nan,nan,nan,nan,nan,nan,0,0,0.715,0.715,-0.1,0
nan,nan,nan,nan,nan,nan,nan,nan,nan,nan,nan,nan,nan,nan,nan,nan,nan,0,0,0.72,0.72,-0.1,0
nan,nan,nan,nan,nan,nan,nan,nan,nan,nan,nan,nan,nan,nan,nan,nan,nan,0,0,0.725,0.725,-0.1,0
nan,nan,nan,nan,nan,nan,nan,nan,nan,nan,nan,nan,nan,nan,nan,nan,nan,0,0,0.73,0.73,-0.1,0
nan,nan,nan,nan,nan,nan,nan,nan,nan,nan,nan,nan,nan,nan,nan,nan,nan,0,0,0.735,0.735,-0.1,0
nan,nan,nan,nan,nan,nan,nan,nan,nan,nan,nan,nan,nan,nan,nan,nan,nan,0,0,0.74,0.74,-0.1,0
nan,nan,nan,nan,nan,nan,nan,nan,nan,nan,nan,nan,nan,nan,nan,nan,nan,0,0,0.745,0.745,-0.1,0
nan,nan,nan,nan,nan,nan,nan,nan,nan,nan,nan,nan,nan,nan,nan,nan,nan,0,0,0.75,0.75,-0.1,0
nan,nan,nan,nan,nan,nan,nan,nan,nan,nan,nan,nan,nan,nan,nan,nan,nan,0,0,0.755,0.755,-0.1,0
-0.00091903,0.015163,0,-0.52491,0.012438,-0.012372,0,0,-0.53935,0,-173.02,33.3,0,-3.2745,0,-53.012,196.48,1,1,0.76,0.76,-0.1,0
-0.00092346,0.015181,0,-0.52593,0.012606,-0.012539,0,0,-0.53928,0,-171.6,30.772,0,-3.804,0,-52.738,193.09,1,1,0.765,0.765,-0.1,0
-0.00092789,0.0152,0,-0.52694,0.012775,-0.012707,0,0,-0.5392,0,-170.18,28.244,0,-4.3331,0,-52.463,189.69,1,1,0.77,0.77,-0.1,0
-0.00093232,0.015218,0,-0.52795,0.012943,-0.012874,0,0,-0.53913,0,-168.76,25.716,0,-4.8617,0,-52.189,186.29,1,1,0.775,0.775,-0.1,0
-0.00093675,0.015237,0,-0.52896,0.013112,-0.013042,0,0,-0.53905,0,-167.34,23.188,0,-5.3898,0,-51.914,182.89,1,1,0.78,0.78,-0.1,0
-0.00094118,0.015255,0,-0.52997,0.01328,-0.013209,0,0,-0.53898,0,-165.92,20.66,0,-5.9174,0,-51.638,179.49,1,1,0.785,0.785,-0.1,0
-0.00094562,0.015274,0,-0.53098,0.013449,-0.013376,0,0,-0.5389,0,-164.49,18.132,0,-6.4446,0,-51.363,176.09,1,1,0.79,0.79,-0.1,0
-0.00095005,0.015292,0,-0.532,0.013617,-0.013544,0,0,-0.53883,0,-163.07,15.604,0,-6.9712,0,-51.088,172.69,1,1,0.795,0.795,-0.1,0
-0.00095448,0.015311,0,-0.53301,0.013785,-0.013711,0,0,-0.53876,0,-161.65,13.076,0,-7.4974,0,-50.812,169.29,1,1,0.8,0.8,-0.1,0
-0.00095892,0.01533,0,-0.53402,0.013954,-0.013878,0,0,-0.53868,0,-160.23,10.548,0,-8.0231,0,-50.536,165.9,1,1,0.805,0.805,-0.1,0
-0.00096335,0.015348,0,-0.53503,0.014122,-0.014045,0,0,-0.53861,0,-158.8,8.0194,0,-8.5484,0,-50.26,162.5,1,1,0.81,0.81,-0.1,0
-0.00096779,0.015367,0,-0.53604,0.01429,-0.014213,0,0,-0.53853,0,-157.38,5.4911,0,-9.0731,0,-49.983,159.1,1,1,0.815,0.815,-0.1,0
-0.00097223,0.015385,0,-0.53705,0.014458,-0.01438,0,0,-0.53846,0,-155.96,2.9627,0,-9.5974,0,-49.707,155.7,1,1,0.82,0.82,-0.1,0
-0.00097667,0.015404,0,-0.53806,0.014626,-0.014547,0,0,-0.53838,0,-154.53,0.43432,0,-10.121,0,-49.43,152.3,1,1,0.825,0.825,-0.1,0
-0.00097997,0.015418,0,-0.53833,0.014862,-0.014779,0,0,-0.53833,0,-153.59,-0.19309,0,-10.111,0,-49.141,150.74,1,1,0.83,0.83,-0.1,0
-0.00098278,0.01543,0,-0.53828,0.015126,-0.015041,0,0,-0.53828,0,-152.85,0.011312,0,-9.8674,0,-48.847,149.98,1,1,0.835,0.835,-0.1,0
-0.00098559,0.015443,0,-0.53823,0.015391,-0.015303,0,0,-0.53823,0,-152.11,0.2156,0,-9.6237,0,-48.553,149.22,1,1,0.84,0.84,-0.1,0
-0.00098839,0.015455,0,-0.53818,0.015656,-0.015564,0,0,-0.53818,0,-151.37,0.41979,0,-9.38,0,-48.258,148.46,1,1,0.845,0.845,-0.1,0
-0.0009912,0.015468,0,-0.53813,0.015921,-0.015826,0,0,-0.53813,0,-150.64,0.62386,0,-9.1362,0,-47.964,147.7,1,1,0.85,0.85,-0.1,0
-0.00099401,0.01548,0,-0.53808,0.016185,-0.016087,0,0,-0.53808,0,-149.9,0.82783,0,-8.8923,0,-47.669,146.94,1,1,0.855,0.855,-0.1,0
-0.00099682,0.015493,0,-0.53803,0.01645,-0.016349,0,0,-0.53803,0,-149.16,1.0317,0,-8.6484,0,-47.375,146.18,1,1,0.86,0.86,-0.1,0
-0.00099963,0.015505,0,-0.53798,0.016714,-0.01661,0,0,-0.53798,0,-148.42,1.2354,0,-8.4045,0,-47.08,145.42,1,1,0.865,0.865,-0.1,0
-0.0010024,0.015518,0,-0.53793,0.016979,-0.016872,0,0,-0.53793,0,-147.68,1.4391,0,-8.1604,0,-46.785,144.67,1,1,0.87,0.87,-0.1,0
-0.0010052,0.01553,0,-0.53788,0.017243,-0.017133,0,0,-0.53788,0,-146.94,1.6426,0,-7.9164,0,-46.491,143.91,1,1,0.875,0.875,-0.1,0
-0.0010081,0.015542,0,-0.53783,0.017507,-0.017394,0,0,-0.53783,0,-146.2,1.846,0,-7.6723,0,-46.196,143.15,1,1,0.88,0.88,-0.1,0
-0.0010109,0.015555,0,-0.53778,0.017772,-0.017655,0,0,-0.53778,0,-145.46,2.0494,0,-7.4281,0,-45.901,142.39,1,1,0.885,0.885,-0.1,0
-0.0010137,0.015567,0,-0.53773,0.018036,-0.017916,0,0,-0.53773,0,-144.72,2.2526,0,-7.1839,0,-45.606,141.63,1,1,0.89,0.89,-0.1,0
-0.0010165,0.01558,0,-0.53768,0.0183,-0.018178,0,0,-0.53768,0,-143.98,2.4557,0,-6.9396,0,-45.311,140.87,1,1,0.895,0.895,-0.1,0
-0.0010193,0.015592,0,-0.53763,0.018564,-0.018439,0,0,-0.53763,0,-143.24,2.6587,0,-6.6953,0,-45.016,140.11,1,1,0.9,0.9,-0.1,0
-0.0010221,0.015605,0,-0.53758,0.018828,-0.0187,0,0,-0.53758,0,-142.5,2.8616,0,-6.451,0,-44.72,139.35,1,1,0.905,0.905,-0.1,0
-0.0010249,0.015617,0,-0.53753,0.019092,-0.018961,0,0,-0.53753,0,-141.76,3.0643,0,-6.2065,0,-44.425,138.59,1,1,0.91,0.91,-0.1,0
-0.0010277,0.015629,0,-0.53748,0.019356,-0.019221,0,0,-0.53748,0,-141.02,3.267,0,-5.9621,0,-44.13,137.83,1,1,0.915,0.915,-0.1,0
-0.0010305,0.015642,0,-0.53743,0.01962,-0.019482,0,0,-0.53743,0,-140.28,3.4696,0,-5.7175,0,-43.834,137.07,1,1,0.92,0.92,-0.1,0
-0.0010334,0.015654,0,-0.53738,0.019884,-0.019743,0,0,-0.53738,0,-139.54,3.672,0,-5.473,0,-43.539,136.31,1,1,0.925,0.925,-0.1,0
nan,nan,nan,nan,nan,nan,nan,nan,nan,nan,nan,nan,nan,nan,nan,nan,nan,0,0,0.93,0.93,-0.1,0
nan,nan,nan,nan,nan,nan,nan,nan,nan,nan,nan,nan,nan,nan,nan,nan,nan,0,0,0.935,0.935,-0.1,0
nan,nan,nan,nan,nan,nan,nan,nan,nan,nan,nan,nan,nan,nan,nan,nan,nan,0,0,0.94,0.94,-0.1,0
nan,nan,nan,nan,nan,nan,nan,nan,nan,nan,nan,nan,nan,nan,nan,nan,nan,0,0,0.945,0.945,-0.1,0
nan,nan,nan,nan,nan,nan,nan,nan,nan,nan,nan,nan,nan,nan,nan,nan,nan,0,0,0.95,0.95,-0.1,0
nan,nan,nan,nan,nan,nan,nan,nan,nan,nan,nan,nan,nan,nan,nan,nan,nan,0,0,0.955,0.955,-0.1,0
nan,nan,nan,nan,nan,nan,nan,nan,nan,nan,nan,nan,nan,nan,nan,nan,nan,0,0,0.96,0.96,-0.1,0
nan,nan,nan,nan,nan,nan,nan,nan,nan,nan,nan,nan,nan,nan,nan,nan,nan,0,0,0.965,0.965,-0.1,0
nan,nan,nan,nan,nan,nan,nan,nan,nan,nan,nan,nan,nan,nan,nan,nan,nan,0,0,0.97,0.97,-0.1,0
nan,nan,nan,nan,nan,nan,nan,nan,nan,nan,nan,nan,nan,nan,nan,nan,nan,0,0,0.975,0.975,-0.1,0
nan,nan,nan,nan,nan,nan,nan,nan,nan,nan,nan,nan,nan,nan,nan,nan,nan,0,0,0.98,0.98,-0.1,0
nan,nan,nan,nan,nan,nan,nan,nan,nan,nan,nan,nan,nan,nan,nan,nan,nan,0,0,0.985,0.985,-0.1,0
nan,nan,nan,nan,nan,nan,nan,nan,nan,nan,nan,nan,nan,nan,nan,nan,nan,0,0,0.99,0.99,-0.1,0
nan,nan,nan,nan,nan,nan,nan,nan,nan,nan,nan,nan,nan,nan,nan,nan,nan,0,0,0.995,0.995,-0.1,0
nan,nan,nan,nan,nan,nan,nan,nan,nan,nan,nan,nan,nan,nan,nan,nan,nan,0,0,1,1,-0.1,0
nan,nan,nan,nan,nan,nan,nan,nan,nan,nan,nan,nan,nan,nan,nan,nan,nan,0,0,1.005,1.005,-0.1,0
nan,nan,nan,nan,nan,nan,nan,nan,nan,nan,nan,nan,nan,nan,nan,nan,nan,0,0,1.01,1.01,-0.1,0
nan,nan,nan,nan,nan,nan,nan,nan,nan,nan,nan,nan,nan,nan,nan,nan,nan,0,0,1.015,1.015,-0.1,0
nan,nan,nan,nan,nan,nan,nan,nan,nan,nan,nan,nan,nan,nan,nan,nan,nan,0,0,1.02,1.02,-0.1,0
nan,nan,nan,nan,nan,nan,nan,nan,nan,nan,nan,nan,nan,nan,nan,nan,nan,0,0,1.025,1.025,-0.1,0
nan,nan,nan,nan,nan,nan,nan,nan,nan,nan,nan,nan,nan,nan,nan,nan,nan,0,0,1.03,1.03,-0.1,0
nan,nan,nan,nan,nan,nan,nan,nan,nan,nan,nan,nan,nan,nan,nan,nan,nan,0,0,1.035,1.035,-0.1,0
-0.0010981,0.01594,0,-0.53624,0.02594,-0.025728,0,0,-0.53624,0,-122.44,8.2986,0,0.16653,0,-36.724,118.8,1,1,1.04,1.04,-0.1,0
-0.0011009,0.015953,0,-0.53619,0.026203,-0.025988,0,0,-0.53619,0,-121.7,8.4985,0,0.41235,0,-36.427,118.04,1,1,1.045,1.045,-0.1,0
-0.0011038,0.015965,0,-0.53614,0.026465,-0.026247,0,0,-0.53614,0,-120.95,8.6982,0,0.65821,0,-36.13,117.28,1,1,1.05,1.05,-0.1,0
-0.0011066,0.015978,0,-0.53609,0.026728,-0.026507,0,0,-0.53609,0,-120.21,8.8979,0,0.90413,0,-35.832,116.52,1,1,1.055,1.055,-0.1,0
-0.0011094,0.01599,0,-0.53604,0.026991,-0.026766,0,0,-0.53604,0,-119.46,9.0974,0,1.1501,0,-35.535,115.75,1,1,1.06,1.06,-0.1,0
-0.0011122,0.016002,0,-0.53599,0.027253,-0.027026,0,0,-0.53599,0,-118.71,9.2968,0,1.3961,0,-35.238,114.99,1,1,1.065,1.065,-0.1,0
-0.001115,0.016015,0,-0.53594,0.027516,-0.027285,0,0,-0.53594,0,-117.97,9.4961,0,1.6422,0,-34.94,114.23,1,1,1.07,1.07,-0.1,0
-0.0011179,0.016027,0,-0.53589,0.027778,-0.027545,0,0,-0.53589,0,-117.22,9.6954,0,1.8883,0,-34.643,113.46,1,1,1.075,1.075,-0.1,0
-0.0011207,0.01604,0,-0.53584,0.02804,-0.027804,0,0,-0.53584,0,-116.48,9.8945,0,2.1345,0,-34.345,112.7,1,1,1.08,1.08,-0.1,0
-0.0011235,0.016052,0,-0.53579,0.028303,-0.028063,0,0,-0.53579,0,-115.73,10.093,0,2.3807,0,-34.047,111.94,1,1,1.085,1.085,-0.1,0
-0.0011263,0.016065,0,-0.53574,0.028565,-0.028322,0,0,-0.53574,0,-114.98,10.292,0,2.627,0,-33.75,111.18,1,1,1.09,1.09,-0.1,0
-0.0011291,0.016077,0,-0.53569,0.028827,-0.028582,0,0,-0.53569,0,-114.23,10.491,0,2.8733,0,-33.452,110.41,1,1,1.095,1.095,-0.1,0
-0.001132,0.016089,0,-0.53564,0.029089,-0.028841,0,0,-0.53564,0,-113.49,10.69,0,3.1197,0,-33.154,109.65,1,1,1.1,1.1,-0.1,0
-0.0011348,0.016102,0,-0.53559,0.029351,-0.0291,0,0,-0.53559,0,-112.74,10.888,0,3.3662,0,-32.856,108.89,1,1,1.105,1.105,-0.1,0
-0.0011376,0.016114,0,-0.53554,0.029614,-0.029359,0,0,-0.53554,0,-111.99,11.087,0,3.6126,0,-32.558,108.12,1,1,1.11,1.11,-0.1,0
-0.0011404,0.016127,0,-0.53549,0.029876,-0.029618,0,0,-0.53549,0,-111.24,11.285,0,3.8592,0,-32.26,107.36,1,1,1.115,1.115,-0.1,0
-0.0011433,0.016139,0,-0.53544,0.030138,-0.029877,0,0,-0.53544,0,-110.5,11.483,0,4.1058,0,-31.962,106.6,1,1,1.12,1.12,-0.1,0
-0.0011461,0.016152,0,-0.53539,0.030399,-0.030135,0,0,-0.53539,0,-109.75,11.681,0,4.3524,0,-31.663,105.83,1,1,1.125,1.125,-0.1,0
-0.0011489,0.016164,0,-0.53534,0.030661,-0.030394,0,0,-0.53534,0,-109,11.88,0,4.5991,0,-31.365,105.07,1,1,1.13,1.13,-0.1,0
-0.0011517,0.016176,0,-0.53529,0.030923,-0.030653,0,0,-0.53529,0,-108.25,12.077,0,4.8459,0,-31.067,104.3,1,1,1.135,1.135,-0.1,0
-0.0011546,0.016189,0,-0.53524,0.031185,-0.030912,0,0,-0.53524,0,-107.5,12.275,0,5.0926,0,-30.768,103.54,1,1,1.14,1.14,-0.1,0
-0.0011574,0.016201,0,-0.53519,0.031447,-0.03117,0,0,-0.53519,0,-106.75,12.473,0,5.3395,0,-30.47,102.78,1,1,1.145,1.145,-0.1,0
-0.0011602,0.016214,0,-0.53514,0.031708,-0.031429,0,0,-0.53514,0,-106,12.671,0,5.5864,0,-30.171,102.01,1,1,1.15,1.15,-0.1,0
-0.001163,0.016226,0,-0.5351,0.03197,-0.031688,0,0,-0.5351,0,-105.25,12.868,0,5.8333,0,-29.873,101.25,1,1,1.155,1.155,-0.1,0
-0.0011658,0.016238,0,-0.53505,0.03225,-0.031964,0,0,-0.53505,0,-104.61,13.001,0,6.0246,0,-29.622,100.58,1,1,1.16,1.16,-0.1,0
-0.001168,0.016247,0,-0.53501,0.032614,-0.03232,0,0,-0.53501,0,-104.43,12.849,0,5.9671,0,-29.584,100.34,1,1,1.165,1.165,-0.1,0
-0.0011703,0.016256,0,-0.53497,0.032977,-0.032676,0,0,-0.53497,0,-104.24,12.696,0,5.9097,0,-29.546,100.1,1,1,1.17,1.17,-0.1,0
-0.0011725,0.016265,0,-0.53494,0.033341,-0.033032,0,0,-0.53494,0,-104.06,12.543,0,5.8522,0,-29.508,99.866,1,1,1.175,1.175,-0.1,0
-0.0011748,0.016275,0,-0.5349,0.033704,-0.033388,0,0,-0.5349,0,-103.88,12.39,0,5.7948,0,-29.47,99.628,1,1,1.18,1.18,-0.1,0
-0.001177,0.016284,0,-0.53487,0.034068,-0.033744,0,0,-0.53487,0,-103.69,12.238,0,5.7374,0,-29.432,99.39,1,1,1.185,1.185,-0.1,0
-0.0011793,0.016293,0,-0.53483,0.034431,-0.0341,0,0,-0.53483,0,-103.51,12.085,0,5.68,0,-29.394,99.152,1,1,1.19,1.19,-0.1,0
-0.0011815,0.016302,0,-0.53479,0.034794,-0.034456,0,0,-0.53479,0,-103.33,11.932,0,5.6226,0,-29.356,98.914,1,1,1.195,1.195,-0.1,0
-0.0011838,0.016311,0,-0.53476,0.035157,-0.034812,0,0,-0.53476,0,-103.15,11.78,0,5.5652,0,-29.318,98.676,1,1,1.2,1.2,-0.1,0
-0.0011861,0.01632,0,-0.53472,0.035521,-0.035168,0,0,-0.53472,0,-102.96,11.627,0,5.5079,0,-29.28,98.438,1,1,1.205,1.205,-0.1,0
-0.0011883,0.016329,0,-0.53468,0.035884,-0.035523,0,0,-0.53468,0,-102.78,11.474,0,5.4505,0,-29.242,98.2,1,1,1.21,1.21,-0.1,0
-0.0011906,0.016339,0,-0.53465,0.036247,-0.035879,0,0,-0.53465,0,-102.6,11.321,0,5.3932,0,-29.204,97.962,1,1,1.215,1.215,-0.1,0
-0.0011928,0.016348,0,-0.53461,0.03661,-0.036234,0,0,-0.53461,0,-102.41,11.169,0,5.3359,0,-29.166,97.723,1,1,1.22,1.22,-0.1,0
-0.0011951,0.016357,0,-0.53457,0.036973,-0.03659,0,0,-0.53457,0,-102.23,11.016,0,5.2786,0,-29.128,97.485,1,1,1.225,1.225,-0.1,0
-0.0011973,0.016366,0,-0.53454,0.037336,-0.036946,0,0,-0.53454,0,-102.05,10.863,0,5.2213,0,-29.089,97.247,1,1,1.23,1.23,-0.1,0
-0.0011996,0.016375,0,-0.5345,0.037698,-0.037301,0,0,-0.5345,0,-101.86,10.71,0,5.164,0,-29.051,97.009,1,1,1.235,1.235,-0.1,0
-0.0012018,0.016384,0,-0.53446,0.038061,-0.037656,0,0,-0.53446,0,-101.68,10.558,0,5.1068,0,-29.013,96.771,1,1,1.24,1.24,-0.1,0
-0.0012041,0.016393,0,-0.53443,0.038424,-0.038012,0,0,-0.53443,0,-101.5,10.405,0,5.0495,0,-28.975,96.532,1,1,1.245,1.245,-0.1,0
-0.0012064,0.016402,0,-0.53439,0.038787,-0.038367,0,0,-0.53439,0,-101.31,10.252,0,4.9923,0,-28.937,96.294,1,1,1.25,1.25,-0.1,0
-0.0012086,0.016412,0,-0.53435,0.039149,-0.038722,0,0,-0.53435,0,-101.13,10.1,0,4.9351,0,-28.899,96.056,1,1,1.255,1.255,-0.1,0
-0.0012109,0.016421,0,-0.53432,0.039512,-0.039078,0,0,-0.53432,0,-100.95,9.9469,0,4.8779,0,-28.86,95.817,1,1,1.26,1.26,-0.1,0
-0.0012131,0.01643,0,-0.53428,0.039875,-0.039433,0,0,-0.53428,0,-100.76,9.7942,0,4.8207,0,-28.822,95.579,1,1,1.265,1.265,-0.1,0
-0.0012154,0.016439,0,-0.53424,0.040237,-0.039788,0,0,-0.53424,0,-100.58,9.6415,0,4.7635,0,-28.784,95.341,1,1,1.27,1.27,-0.1,0
-0.0012176,0.016448,0,-0.53421,0.0406,-0.040143,0,0,-0.53421,0,-100.4,9.4887,0,4.7064,0,-28.746,95.102,1,1,1.275,1.275,-0.1,0
-0.0012199,0.016457,0,-0.53417,0.040962,-0.040498,0,0,-0.53417,0,-100.21,9.336,0,4.6492,0,-28.707,94.864,1,1,1.28,1.28,-0.1,0
-0.0012222,0.016466,0,-0.53413,0.041324,-0.040853,0,0,-0.53413,0,-100.03,9.1833,0,4.5921,0,-28.669,94.625,1,1,1.285,1.285,-0.1,0
-0.0012244,0.016475,0,-0.5341,0.041687,-0.041208,0,0,-0.5341,0,-99.846,9.0306,0,4.535,0,-28.631,94.387,1,1,1.29,1.29,-0.1,0
-0.0012267,0.016485,0,-0.53406,0.042049,-0.041563,0,0,-0.53406,0,-99.662,8.8779,0,4.4779,0,-28.593,94.149,1,1,1.295,1.295,-0.1,0
-0.0012289,0.016494,0,-0.53403,0.042411,-0.041918,0,0,-0.53403,0,-99.479,8.7252,0,4.4208,0,-28.554,93.91,1,1,1.3,1.3,-0.1,0
-0.0012312,0.016503,0,-0.53399,0.042773,-0.042272,0,0,-0.53399,0,-99.295,8.5725,0,4.3637,0,-28.516,93.671,1,1,1.305,1.305,-0.1,0
-0.0012335,0.016512,0,-0.53395,0.043135,-0.042627,0,0,-0.53395,0,-99.111,8.4198,0,4.3067,0,-28.478,93.433,1,1,1.31,1.31,-0.1,0
-0.0012357,0.016521,0,-0.53392,0.043497,-0.042982,0,0,-0.53392,0,-98.927,8.267,0,4.2496,0,-28.439,93.194,1,1,1.315,1.315,-0.1,0
-0.001238,0.01653,0,-0.53388,0.04386,-0.043336,0,0,-0.53388,0,-98.744,8.1143,0,4.1926,0,-28.401,92.956,1,1,1.32,1.32,-0.1,0
-0.0012402,0.016539,0,-0.53384,0.044221,-0.043691,0,0,-0.53384,0,-98.56,7.9616,0,4.1356,0,-28.362,92.717,1,1,1.325,1.325,-0.1,0
-0.0012425,0.016549,0,-0.53381,0.044583,-0.044045,0,0,-0.53381,0,-98.376,7.8089,0,4.0786,0,-28.324,92.478,1,1,1.33,1.33,-0.1,0
-0.0012447,0.016558,0,-0.53377,0.044945,-0.0444,0,0,-0.53377,0,-98.192,7.6562,0,4.0216,0,-28.286,92.24,1,1,1.335,1.335,-0.1,0
-0.001247,0.016567,0,-0.53373,0.045307,-0.044754,0,0,-0.53373,0,-98.008,7.5035,0,3.9646,0,-28.247,92.001,1,1,1.34,1.34,-0.1,0
-0.0012493,0.016576,0,-0.5337,0.045669,-0.045109,0,0,-0.5337,0,-97.824,7.3508,0,3.9076,0,-28.209,91.762,1,1,1.345,1.345,-0.1,0
-0.0012515,0.016585,0,-0.53366,0.046031,-0.045463,0,0,-0.53366,0,-97.64,7.1981,0,3.8507,0,-28.17,91.524,1,1,1.35,1.35,-0.1,0
-0.0012538,0.016594,0,-0.53362,0.046392,-0.045817,0,0,-0.53362,0,-97.455,7.0454,0,3.7937,0,-28.132,91.285,1,1,1.355,1.355,-0.1,0
-0.001256,0.016603,0,-0.53359,0.046754,-0.046172,0,0,-0.53359,0,-97.271,6.8927,0,3.7368,0,-28.093,91.046,1,1,1.36,1.36,-0.1,0
-0.0012583,0.016612,0,-0.53355,0.047115,-0.046526,0,0,-0.53355,0,-97.087,6.74,0,3.6799,0,-28.055,90.807,1,1,1.365,1.365,-0.1,0
-0.0012606,0.016622,0,-0.53351,0.047477,-0.04688,0,0,-0.53351,0,-96.903,6.5873,0,3.623,0,-28.016,90.568,1,1,1.37,1.37,-0.1,0
-0.0012628,0.016631,0,-0.53348,0.047838,-0.047234,0,0,-0.53348,0,-96.719,6.4345,0,3.5662,0,-27.977,90.329,1,1,1.375,1.375,-0.1,0
-0.0012651,0.01664,0,-0.53344,0.0482,-0.047588,0,0,-0.53344,0,-96.534,6.2818,0,3.5093,0,-27.939,90.091,1,1,1.38,1.38,-0.1,0
-0.0012673,0.016649,0,-0.5334,0.048561,-0.047942,0,0,-0.5334,0,-96.35,6.1291,0,3.4525,0,-27.9,89.852,1,1,1.385,1.385,-0.1,0
-0.0012696,0.016658,0,-0.53337,0.048922,-0.048296,0,0,-0.53337,0,-96.166,5.9764,0,3.3956,0,-27.862,89.613,1,1,1.39,1.39,-0.1,0
-0.0012719,0.016667,0,-0.53333,0.049284,-0.04865,0,0,-0.53333,0,-95.981,5.8237,0,3.3388,0,-27.823,89.374,1,1,1.395,1.395,-0.1,0
-0.0012741,0.016676,0,-0.53329,0.049645,-0.049004,0,0,-0.53329,0,-95.797,5.671,0,3.282,0,-27.784,89.135,1,1,1.4,1.4,-0.1,0
-0.0012764,0.016686,0,-0.53326,0.050006,-0.049358,0,0,-0.53326,0,-95.612,5.5183,0,3.2252,0,-27.746,88.896,1,1,1.405,1.405,-0.1,0
-0.0012786,0.016695,0,-0.53322,0.050367,-0.049711,0,0,-0.53322,0,-95.428,5.3656,0,3.1684,0,-27.707,88.657,1,1,1.41,1.41,-0.1,0
-0.0012809,0.016704,0,-0.53318,0.050728,-0.050065,0,0,-0.53318,0,-95.243,5.2129,0,3.1117,0,-27.668,88.418,1,1,1.415,1.415,-0.1,0
-0.0012832,0.016713,0,-0.53315,0.051089,-0.050419,0,0,-0.53315,0,-95.058,5.0602,0,3.0549,0,-27.63,88.179,1,1,1.42,1.42,-0.1,0
-0.0012854,0.016722,0,-0.53311,0.05145,-0.050772,0,0,-0.53311,0,-94.874,4.9075,0,2.9982,0,-27.591,87.939,1,1,1.425,1.425,-0.1,0
-0.0012877,0.016731,0,-0.53308,0.051811,-0.051126,0,0,-0.53308,0,-94.689,4.7548,0,2.9415,0,-27.552,87.7,1,1,1.43,1.43,-0.1,0
-0.0012899,0.01674,0,-0.53304,0.052172,-0.051479,0,0,-0.53304,0,-94.504,4.6021,0,2.8848,0,-27.514,87.461,1,1,1.435,1.435,-0.1,0
-0.0012922,0.016749,0,-0.533,0.052533,-0.051833,0,0,-0.533,0,-94.32,4.4494,0,2.8281,0,-27.475,87.222,1,1,1.44,1.44,-0.1,0
-0.0012945,0.016759,0,-0.53297,0.052894,-0.052186,0,0,-0.53297,0,-94.135,4.2967,0,2.7714,0,-27.436,86.983,1,1,1.445,1.445,-0.1,0
-0.0012967,0.016768,0,-0.53293,0.053254,-0.052539,0,0,-0.53293,0,-93.95,4.144,0,2.7147,0,-27.397,86.744,1,1,1.45,1.45,-0.1,0
-0.001299,0.016777,0,-0.53289,0.053615,-0.052893,0,0,-0.53289,0,-93.765,3.9913,0,2.6581,0,-27.358,86.504,1,1,1.455,1.455,-0.1,0
-0.0013013,0.016786,0,-0.53286,0.053976,-0.053246,0,0,-0.53286,0,-93.58,3.8386,0,2.6014,0,-27.32,86.265,1,1,1.46,1.46,-0.1,0
-0.0013035,0.016795,0,-0.53282,0.054336,-0.053599,0,0,-0.53282,0,-93.395,3.6859,0,2.5448,0,-27.281,86.026,1,1,1.465,1.465,-0.1,0
-0.0013058,0.016804,0,-0.53278,0.054697,-0.053952,0,0,-0.53278,0,-93.21,3.5332,0,2.4882,0,-27.242,85.786,1,1,1.47,1.47,-0.1,0
-0.001308,0.016813,0,-0.53275,0.055057,-0.054306,0,0,-0.53275,0,-93.025,3.3805,0,2.4316,0,-27.203,85.547,1,1,1.475,1.475,-0.1,0
-0.0013103,0.016822,0,-0.53271,0.055418,-0.054659,0,0,-0.53271,0,-92.84,3.2278,0,2.375,0,-27.164,85.308,1,1,1.48,1.48,-0.1,0
-0.0013126,0.016832,0,-0.53267,0.055778,-0.055012,0,0,-0.53267,0,-92.655,3.0751,0,2.3185,0,-27.125,85.068,1,1,1.485,1.485,-0.1,0
-0.0013148,0.016841,0,-0.53264,0.056138,-0.055365,0,0,-0.53264,0,-92.47,2.9225,0,2.2619,0,-27.086,84.829,1,1,1.49,1.49,-0.1,0
-0.0013171,0.01685,0,-0.5326,0.056499,-0.055717,0,0,-0.5326,0,-92.285,2.7698,0,2.2054,0,-27.047,84.59,1,1,1.495,1.495,-0.1,0
-0.0013194,0.016859,0,-0.53256,0.056859,-0.05607,0,0,-0.53256,0,-92.1,2.6171,0,2.1489,0,-27.009,84.35,1,1,1.5,1.5,-0.1,0
-0.0013216,0.016868,0,-0.53253,0.057219,-0.056423,0,0,-0.53253,0,-91.914,2.4644,0,2.0924,0,-26.97,84.111,1,1,1.505,1.505,-0.1,0
-0.0013239,0.016877,0,-0.53249,0.057579,-0.056776,0,0,-0.53249,0,-91.729,2.3117,0,2.0359,0,-26.931,83.871,1,1,1.51,1.51,-0.1,0
-0.0013261,0.016886,0,-0.53245,0.057939,-0.057129,0,0,-0.53245,0,-91.544,2.159,0,1.9794,0,-26.892,83.632,1,1,1.515,1.515,-0.1,0
-0.0013284,0.016896,0,-0.53242,0.058299,-0.057481,0,0,-0.53242,0,-91.359,2.0063,0,1.9229,0,-26.853,83.392,1,1,1.52,1.52,-0.1,0
-0.0013307,0.016905,0,-0.53238,0.058659,-0.057834,0,0,-0.53238,0,-91.173,1.8536,0,1.8665,0,-26.814,83.152,1,1,1.525,1.525,-0.1,0
-0.0013326,0.016912,0,-0.53235,0.059131,-0.05829,0,0,-0.53235,0,-91.05,1.8583,0,1.8668,0,-26.777,83.038,1,1,1.53,1.53,-0.1,0
-0.0013346,0.016919,0,-0.53232,0.059602,-0.058745,0,0,-0.53232,0,-90.927,1.8612,0,1.8665,0,-26.74,82.922,1,1,1.535,1.535,-0.1,0
-0.0013365,0.016926,0,-0.5323,0.060072,-0.059201,0,0,-0.5323,0,-90.804,1.8642,0,1.8662,0,-26.703,82.806,1,1,1.54,1.54,-0.1,0
-0.0013385,0.016933,0,-0.53227,0.060543,-0.059656,0,0,-0.53227,0,-90.68,1.8671,0,1.866,0,-26.666,82.69,1,1,1.545,1.545,-0.1,0
-0.0013405,0.016941,0,-0.53224,0.061013,-0.060111,0,0,-0.53224,0,-90.557,1.8701,0,1.8657,0,-26.629,82.574,1,1,1.55,1.55,-0.1,0
-0.0013424,0.016948,0,-0.53221,0.061484,-0.060565,0,0,-0.53221,0,-90.433,1.873,0,1.8654,0,-26.592,82.458,1,1,1.555,1.555,-0.1,0
-0.0013444,0.016955,0,-0.53218,0.061954,-0.06102,0,0,-0.53218,0,-90.31,1.8759,0,1.8651,0,-26.555,82.343,1,1,1.56,1.56,-0.1,0
-0.0013463,0.016962,0,-0.53215,0.062425,-0.061475,0,0,-0.53215,0,-90.186,1.8788,0,1.8649,0,-26.518,82.227,1,1,1.565,1.565,-0.1,0
-0.0013483,0.016969,0,-0.53212,0.062895,-0.06193,0,0,-0.53212,0,-90.062,1.8817,0,1.8646,0,-26.481,82.111,1,1,1.57,1.57,-0.1,0
-0.0013503,0.016977,0,-0.53209,0.063365,-0.062385,0,0,-0.53209,0,-89.939,1.8846,0,1.8644,0,-26.444,81.995,1,1,1.575,1.575,-0.1,0
-0.0013522,0.016984,0,-0.53207,0.063835,-0.062839,0,0,-0.53207,0,-89.815,1.8875,0,1.8641,0,-26.407,81.879,1,1,1.58,1.58,-0.1,0
-0.0013542,0.016991,0,-0.53204,0.064305,-0.063294,0,0,-0.53204,0,-89.692,1.8904,0,1.8639,0,-26.37,81.763,1,1,1.585,1.585,-0.1,0
-0.0013562,0.016998,0,-0.53201,0.064776,-0.063749,0,0,-0.53201,0,-89.568,1.8933,0,1.8636,0,-26.333,81.647,1,1,1.59,1.59,-0.1,0
-0.0013581,0.017005,0,-0.53198,0.065246,-0.064203,0,0,-0.53198,0,-89.445,1.8962,0,1.8634,0,-26.296,81.531,1,1,1.595,1.595,-0.1,0
-0.0013601,0.017012,0,-0.53195,0.065716,-0.064658,0,0,-0.53195,0,-89.321,1.8991,0,1.8631,0,-26.259,81.415,1,1,1.6,1.6,-0.1,0
-0.001362,0.01702,0,-0.53192,0.066186,-0.065112,0,0,-0.53192,0,-89.197,1.9019,0,1.8629,0,-26.221,81.299,1,1,1.605,1.605,-0.1,0
-0.001364,0.017027,0,-0.53189,0.066655,-0.065567,0,0,-0.53189,0,-89.074,1.9048,0,1.8627,0,-26.184,81.183,1,1,1.61,1.61,-0.1,0
-0.001366,0.017034,0,-0.53186,0.067125,-0.066021,0,0,-0.53186,0,-88.95,1.9077,0,1.8624,0,-26.147,81.067,1,1,1.615,1.615,-0.1,0
-0.0013679,0.017041,0,-0.53184,0.067595,-0.066475,0,0,-0.53184,0,-88.826,1.9105,0,1.8622,0,-26.11,80.951,1,1,1.62,1.62,-0.1,0
-0.0013699,0.017048,0,-0.53181,0.068065,-0.066929,0,0,-0.53181,0,-88.702,1.9134,0,1.862,0,-26.073,80.834,1,1,1.625,1.625,-0.1,0
-0.0013718,0.017056,0,-0.53178,0.068534,-0.067384,0,0,-0.53178,0,-88.579,1.9162,0,1.8618,0,-26.036,80.718,1,1,1.63,1.63,-0.1,0
-0.0013738,0.017063,0,-0.53175,0.069004,-0.067838,0,0,-0.53175,0,-88.455,1.9191,0,1.8616,0,-25.999,80.602,1,1,1.635,1.635,-0.1,0
-0.0013758,0.01707,0,-0.53172,0.069474,-0.068292,0,0,-0.53172,0,-88.331,1.9219,0,1.8614,0,-25.962,80.486,1,1,1.64,1.64,-0.1,0
-0.0013777,0.017077,0,-0.53169,0.069943,-0.068746,0,0,-0.53169,0,-88.207,1.9247,0,1.8612,0,-25.925,80.37,1,1,1.645,1.645,-0.1,0
-0.0013797,0.017084,0,-0.53166,0.070413,-0.0692,0,0,-0.53166,0,-88.083,1.9275,0,1.861,0,-25.888,80.254,1,1,1.65,1.65,-0.1,0
-0.0013816,0.017092,0,-0.53163,0.070882,-0.069654,0,0,-0.53163,0,-87.96,1.9303,0,1.8608,0,-25.851,80.138,1,1,1.655,1.655,-0.1,0
-0.0013836,0.017099,0,-0.53161,0.071351,-0.070108,0,0,-0.53161,0,-87.836,1.9332,0,1.8606,0,-25.813,80.022,1,1,1.66,1.66,-0.1,0
-0.0013856,0.017106,0,-0.53158,0.071821,-0.070562,0,0,-0.53158,0,-87.712,1.936,0,1.8604,0,-25.776,79.905,1,1,1.665,1.665,-0.1,0
-0.0013875,0.017113,0,-0.53155,0.07229,-0.071015,0,0,-0.53155,0,-87.588,1.9388,0,1.8602,0,-25.739,79.789,1,1,1.67,1.67,-0.1,0
-0.0013895,0.01712,0,-0.53152,0.072759,-0.071469,0,0,-0.53152,0,-87.464,1.9416,0,1.86,0,-25.702,79.673,1,1,1.675,1.675,-0.1,0
-0.0013915,0.017127,0,-0.53149,0.073228,-0.071923,0,0,-0.53149,0,-87.34,1.9443,0,1.8598,0,-25.665,79.557,1,1,1.68,1.68,-0.1,0
-0.0013934,0.017135,0,-0.53146,0.073698,-0.072377,0,0,-0.53146,0,-87.216,1.9471,0,1.8597,0,-25.628,79.441,1,1,1.685,1.685,-0.1,0
-0.0013954,0.017142,0,-0.53143,0.074167,-0.07283,0,0,-0.53143,0,-87.092,1.9499,0,1.8595,0,-25.591,79.324,1,1,1.69,1.69,-0.1,0
-0.0013973,0.017149,0,-0.5314,0.074636,-0.073284,0,0,-0.5314,0,-86.968,1.9527,0,1.8593,0,-25.553,79.208,1,1,1.695,1.695,-0.1,0
-0.0013993,0.017156,0,-0.53137,0.075105,-0.073737,0,0,-0.53137,0,-86.844,1.9554,0,1.8592,0,-25.516,79.092,1,1,1.7,1.7,-0.1,0
-0.0014013,0.017163,0,-0.53135,0.075574,-0.074191,0,0,-0.53135,0,-86.72,1.9582,0,1.859,0,-25.479,78.976,1,1,1.705,1.705,-0.1,0
-0.0014032,0.017171,0,-0.53132,0.076042,-0.074644,0,0,-0.53132,0,-86.596,1.9609,0,1.8589,0,-25.442,78.859,1,1,1.71,1.71,-0.1,0
-0.0014052,0.017178,0,-0.53129,0.076511,-0.075097,0,0,-0.53129,0,-86.472,1.9637,0,1.8587,0,-25.405,78.743,1,1,1.715,1.715,-0.1,0
-0.0014072,0.017185,0,-0.53126,0.07698,-0.075551,0,0,-0.53126,0,-86.348,1.9664,0,1.8586,0,-25.368,78.627,1,1,1.72,1.72,-0.1,0
-0.0014091,0.017192,0,-0.53123,0.077449,-0.076004,0,0,-0.53123,0,-86.224,1.9692,0,1.8584,0,-25.33,78.51,1,1,1.725,1.725,-0.1,0
-0.0014111,0.017199,0,-0.5312,0.077917,-0.076457,0,0,-0.5312,0,-86.1,1.9719,0,1.8583,0,-25.293,78.394,1,1,1.73,1.73,-0.1,0
-0.001413,0.017207,0,-0.53117,0.078386,-0.07691,0,0,-0.53117,0,-85.976,1.9746,0,1.8581,0,-25.256,78.278,1,1,1.735,1.735,-0.1,0
-0.001415,0.017214,0,-0.53114,0.078855,-0.077364,0,0,-0.53114,0,-85.852,1.9773,0,1.858,0,-25.219,78.161,1,1,1.74,1.74,-0.1,0
-0.001417,0.017221,0,-0.53112,0.079323,-0.077817,0,0,-0.53112,0,-85.728,1.9801,0,1.8579,0,-25.181,78.045,1,1,1.745,1.745,-0.1,0
-0.0014189,0.017228,0,-0.53109,0.079792,-0.07827,0,0,-0.53109,0,-85.604,1.9828,0,1.8578,0,-25.144,77.929,1,1,1.75,1.75,-0.1,0
-0.0014209,0.017235,0,-0.53106,0.08026,-0.078723,0,0,-0.53106,0,-85.48,1.9855,0,1.8576,0,-25.107,77.812,1,1,1.755,1.755,-0.1,0
-0.0014229,0.017243,0,-0.53103,0.080728,-0.079175,0,0,-0.53103,0,-85.355,1.9882,0,1.8575,0,-25.07,77.696,1,1,1.76,1.76,-0.1,0
-0.0014248,0.01725,0,-0.531,0.081197,-0.079628,0,0,-0.531,0,-85.231,1.9909,0,1.8574,0,-25.033,77.579,1,1,1.765,1.765,-0.1,0
-0.0014268,0.017257,0,-0.53097,0.081665,-0.080081,0,0,-0.53097,0,-85.107,1.9936,0,1.8573,0,-24.995,77.463,1,1,1.77,1.77,-0.1,0
-0.0014287,0.017264,0,-0.53094,0.082133,-0.080534,0,0,-0.53094,0,-84.983,1.9962,0,1.8572,0,-24.958,77.347,1,1,1.775,1.775,-0.1,0
-0.0014307,0.017271,0,-0.53091,0.082601,-0.080987,0,0,-0.53091,0,-84.859,1.9989,0,1.8571,0,-24.921,77.23,1,1,1.78,1.78,-0.1,0
-0.0014327,0.017278,0,-0.53089,0.083069,-0.081439,0,0,-0.53089,0,-84.734,2.0016,0,1.857,0,-24.883,77.114,1,1,1.785,1.785,-0.1,0
-0.0014346,0.017286,0,-0.53086,0.083537,-0.081892,0,0,-0.53086,0,-84.61,2.0042,0,1.8569,0,-24.846,76.997,1,1,1.79,1.79,-0.1,0
-0.0014366,0.017293,0,-0.53083,0.084005,-0.082344,0,0,-0.53083,0,-84.486,2.0069,0,1.8568,0,-24.809,76.881,1,1,1.795,1.795,-0.1,0
-0.0014386,0.0173,0,-0.5308,0.084473,-0.082797,0,0,-0.5308,0,-84.361,2.0096,0,1.8567,0,-24.772,76.764,1,1,1.8,1.8,-0.1,0
-0.0014405,0.017307,0,-0.53077,0.084941,-0.083249,0,0,-0.53077,0,-84.237,2.0122,0,1.8566,0,-24.734,76.648,1,1,1.805,1.805,-0.1,0
-0.0014425,0.017314,0,-0.53074,0.085409,-0.083702,0,0,-0.53074,0,-84.113,2.0148,0,1.8565,0,-24.697,76.531,1,1,1.81,1.81,-0.1,0
-0.0014445,0.017322,0,-0.53071,0.085877,-0.084154,0,0,-0.53071,0,-83.988,2.0175,0,1.8565,0,-24.66,76.415,1,1,1.815,1.815,-0.1,0
-0.0014464,0.017329,0,-0.53068,0.086345,-0.084607,0,0,-0.53068,0,-83.864,2.0201,0,1.8564,0,-24.622,76.298,1,1,1.82,1.82,-0.1,0
-0.0014484,0.017336,0,-0.53066,0.086812,-0.085059,0,0,-0.53066,0,-83.74,2.0227,0,1.8563,0,-24.585,76.182,1,1,1.825,1.825,-0.1,0
-0.0014503,0.017343,0,-0.53063,0.08728,-0.085511,0,0,-0.53063,0,-83.615,2.0254,0,1.8563,0,-24.548,76.065,1,1,1.83,1.83,-0.1,0
-0.0014523,0.01735,0,-0.5306,0.087747,-0.085963,0,0,-0.5306,0,-83.491,2.028,0,1.8562,0,-24.51,75.948,1,1,1.835,1.835,-0.1,0
-0.0014543,0.017358,0,-0.53057,0.088215,-0.086415,0,0,-0.53057,0,-83.366,2.0306,0,1.8561,0,-24.473,75.832,1,1,1.84,1.84,-0.1,0
-0.0014562,0.017365,0,-0.53054,0.088682,-0.086867,0,0,-0.53054,0,-83.242,2.0332,0,1.8561,0,-24.436,75.715,1,1,1.845,1.845,-0.1,0
-0.0014582,0.017372,0,-0.53051,0.08915,-0.087319,0,0,-0.53051,0,-83.117,2.0358,0,1.856,0,-24.398,75.599,1,1,1.85,1.85,-0.1,0
-0.0014602,0.017379,0,-0.53048,0.089617,-0.087771,0,0,-0.53048,0,-82.993,2.0384,0,1.856,0,-24.361,75.482,1,1,1.855,1.855,-0.1,0
-0.0014621,0.017386,0,-0.53045,0.090085,-0.088223,0,0,-0.53045,0,-82.868,2.0409,0,1.8559,0,-24.324,75.365,1,1,1.86,1.86,-0.1,0
-0.0014641,0.017393,0,-0.53043,0.090552,-0.088675,0,0,-0.53043,0,-82.744,2.0435,0,1.8559,0,-24.286,75.249,1,1,1.865,1.865,-0.1,0
-0.0014661,0.017401,0,-0.5304,0.091019,-0.089127,0,0,-0.5304,0,-82.619,2.0461,0,1.8559,0,-24.249,75.132,1,1,1.87,1.87,-0.1,0
-0.001468,0.017408,0,-0.53037,0.091486,-0.089579,0,0,-0.53037,0,-82.495,2.0487,0,1.8558,0,-24.212,75.015,1,1,1.875,1.875,-0.1,0
-0.00147,0.017415,0,-0.53034,0.091953,-0.09003,0,0,-0.53034,0,-82.37,2.0512,0,1.8558,0,-24.174,74.899,1,1,1.88,1.88,-0.1,0
-0.0014719,0.017422,0,-0.53031,0.09242,-0.090482,0,0,-0.53031,0,-82.246,2.0538,0,1.8558,0,-24.137,74.782,1,1,1.885,1.885,-0.1,0
-0.0014739,0.017429,0,-0.53028,0.092888,-0.090934,0,0,-0.53028,0,-82.121,2.0563,0,1.8558,0,-24.099,74.665,1,1,1.89,1.89,-0.1,0
-0.0014759,0.017437,0,-0.53025,0.093354,-0.091385,0,0,-0.53025,0,-81.996,2.0589,0,1.8557,0,-24.062,74.548,1,1,1.895,1.895,-0.1,0
-0.0014778,0.017444,0,-0.53022,0.093821,-0.091837,0,0,-0.53022,0,-81.872,2.0614,0,1.8557,0,-24.025,74.432,1,1,1.9,1.9,-0.1,0
-0.0014798,0.017451,0,-0.5302,0.094288,-0.092288,0,0,-0.5302,0,-81.747,2.064,0,1.8557,0,-23.987,74.315,1,1,1.905,1.905,-0.1,0
-0.0014818,0.017458,0,-0.53017,0.094755,-0.09274,0,0,-0.53017,0,-81.622,2.0665,0,1.8557,0,-23.95,74.198,1,1,1.91,1.91,-0.1,0
-0.0014837,0.017465,0,-0.53014,0.095222,-0.093191,0,0,-0.53014,0,-81.498,2.069,0,1.8557,0,-23.912,74.081,1,1,1.915,1.915,-0.1,0
-0.0014857,0.017473,0,-0.53011,0.095689,-0.093642,0,0,-0.53011,0,-81.373,2.0715,0,1.8557,0,-23.875,73.965,1,1,1.92,1.92,-0.1,0
-0.0014877,0.01748,0,-0.53008,0.096155,-0.094094,0,0,-0.53008,0,-81.248,2.0741,0,1.8557,0,-23.837,73.848,1,1,1.925,1.925,-0.1,0
-0.0014895,0.017486,0,-0.53005,0.096686,-0.094601,0,0,-0.53005,0,-81.159,2.0682,0,1.8513,0,-23.812,73.762,1,1,1.93,1.93,-0.1,0
-0.0014913,0.017492,0,-0.53003,0.097276,-0.095162,0,0,-0.53003,0,-81.104,2.0544,0,1.8428,0,-23.798,73.704,1,1,1.935,1.935,-0.1,0
-0.0014931,0.017498,0,-0.53001,0.097866,-0.095722,0,0,-0.53001,0,-81.048,2.0407,0,1.8342,0,-23.784,73.647,1,1,1.94,1.94,-0.1,0
-0.0014949,0.017504,0,-0.52998,0.098456,-0.096282,0,0,-0.52998,0,-80.992,2.027,0,1.8257,0,-23.769,73.59,1,1,1.945,1.945,-0.1,0
-0.0014967,0.01751,0,-0.52996,0.099046,-0.096842,0,0,-0.52996,0,-80.937,2.0133,0,1.8171,0,-23.755,73.532,1,1,1.95,1.95,-0.1,0
-0.0014985,0.017516,0,-0.52994,0.099636,-0.097402,0,0,-0.52994,0,-80.881,1.9996,0,1.8086,0,-23.741,73.475,1,1,1.955,1.955,-0.1,0
-0.0015003,0.017522,0,-0.52991,0.10023,-0.097962,0,0,-0.52991,0,-80.825,1.9858,0,1.8001,0,-23.727,73.417,1,1,1.96,1.96,-0.1,0
-0.0015021,0.017528,0,-0.52989,0.10082,-0.098522,0,0,-0.52989,0,-80.769,1.9721,0,1.7915,0,-23.713,73.36,1,1,1.965,1.965,-0.1,0
-0.0015039,0.017534,0,-0.52987,0.10141,-0.099082,0,0,-0.52987,0,-80.714,1.9584,0,1.783,0,-23.698,73.303,1,1,1.97,1.97,-0.1,0
-0.0015057,0.017539,0,-0.52984,0.102,-0.099642,0,0,-0.52984,0,-80.658,1.9447,0,1.7745,0,-23.684,73.245,1,1,1.975,1.975,-0.1,0
-0.0015075,0.017545,0,-0.52982,0.10259,-0.1002,0,0,-0.52982,0,-80.602,1.9309,0,1.7659,0,-23.67,73.188,1,1,1.98,1.98,-0.1,0
-0.0015093,0.017551,0,-0.52979,0.10317,-0.10076,0,0,-0.52979,0,-80.546,1.9172,0,1.7574,0,-23.656,73.13,1,1,1.985,1.985,-0.1,0
-0.0015111,0.017557,0,-0.52977,0.10376,-0.10132,0,0,-0.52977,0,-80.491,1.9035,0,1.7489,0,-23.642,73.073,1,1,1.99,1.99,-0.1,0
-0.0015129,0.017563,0,-0.52975,0.10435,-0.10188,0,0,-0.52975,0,-80.435,1.8897,0,1.7404,0,-23.627,73.015,1,1,1.995,1.995,-0.1,0
-0.0015147,0.017569,0,-0.52972,0.10494,-0.10244,0,0,-0.52972,0,-80.379,1.876,0,1.7318,0,-23.613,72.958,1,1,2,2,-0.1,0
-0.0015165,0.017575,0,-0.5297,0.10553,-0.103,0,0,-0.5297,0,-80.323,1.8623,0,1.7233,0,-23.599,72.901,1,1,2.005,2.005,-0.1,0
-0.0015183,0.017581,0,-0.52968,0.10612,-0.10356,0,0,-0.52968,0,-80.268,1.8486,0,1.7148,0,-23.585,72.843,1,1,2.01,2.01,-0.1,0
-0.0015201,0.017587,0,-0.52965,0.10671,-0.10412,0,0,-0.52965,0,-80.212,1.8348,0,1.7063,0,-23.571,72.786,1,1,2.015,2.015,-0.1,0
-0.0015219,0.017593,0,-0.52963,0.1073,-0.10468,0,0,-0.52963,0,-80.156,1.8211,0,1.6978,0,-23.556,72.728,1,1,2.02,2.02,-0.1,0
-0.0015237,0.017599,0,-0.52961,0.10789,-0.10524,0,0,-0.52961,0,-80.1,1.8074,0,1.6892,0,-23.542,72.671,1,1,2.025,2.025,-0.1,0
-0.0015255,0.017604,0,-0.52958,0.10848,-0.1058,0,0,-0.52958,0,-80.044,1.7936,0,1.6807,0,-23.528,72.613,1,1,2.03,2.03,-0.1,0
-0.0015273,0.01761,0,-0.52956,0.10907,-0.10636,0,0,-0.52956,0,-79.989,1.7799,0,1.6722,0,-23.514,72.556,1,1,2.035,2.035,-0.1,0
-0.0015291,0.017616,0,-0.52953,0.10966,-0.10692,0,0,-0.52953,0,-79.933,1.7662,0,1.6637,0,-23.499,72.498,1,1,2.04,2.04,-0.1,0
-0.0015309,0.017622,0,-0.52951,0.11025,-0.10748,0,0,-0.52951,0,-79.877,1.7524,0,1.6552,0,-23.485,72.441,1,1,2.045,2.045,-0.1,0
-0.0015327,0.017628,0,-0.52949,0.11084,-0.10803,0,0,-0.52949,0,-79.821,1.7387,0,1.6467,0,-23.471,72.383,1,1,2.05,2.05,-0.1,0
-0.0015345,0.017634,0,-0.52946,0.11142,-0.10859,0,0,-0.52946,0,-79.765,1.725,0,1.6382,0,-23.457,72.326,1,1,2.055,2.055,-0.1,0
-0.0015364,0.01764,0,-0.52944,0.11201,-0.10915,0,0,-0.52944,0,-79.71,1.7112,0,1.6297,0,-23.443,72.268,1,1,2.06,2.06,-0.1,0
-0.0015382,0.017646,0,-0.52942,0.1126,-0.10971,0,0,-0.52942,0,-79.654,1.6975,0,1.6212,0,-23.428,72.211,1,1,2.065,2.065,-0.1,0
-0.00154,0.017652,0,-0.52939,0.11319,-0.11027,0,0,-0.52939,0,-79.598,1.6838,0,1.6127,0,-23.414,72.153,1,1,2.07,2.07,-0.1,0
-0.0015418,0.017658,0,-0.52937,0.11378,-0.11083,0,0,-0.52937,0,-79.542,1.67,0,1.6042,0,-23.4,72.096,1,1,2.075,2.075,-0.1,0
-0.0015436,0.017664,0,-0.52935,0.11437,-0.11139,0,0,-0.52935,0,-79.486,1.6563,0,1.5957,0,-23.386,72.038,1,1,2.08,2.08,-0.1,0
-0.0015454,0.017669,0,-0.52932,0.11496,-0.11195,0,0,-0.52932,0,-79.43,1.6425,0,1.5872,0,-23.371,71.981,1,1,2.085,2.085,-0.1,0
-0.0015472,0.017675,0,-0.5293,0.11555,-0.11251,0,0,-0.5293,0,-79.374,1.6288,0,1.5787,0,-23.357,71.923,1,1,2.09,2.09,-0.1,0
-0.001549,0.017681,0,-0.52927,0.11613,-0.11306,0,0,-0.52927,0,-79.318,1.6151,0,1.5702,0,-23.343,71.866,1,1,2.095,2.095,-0.1,0
-0.0015508,0.017687,0,-0.52925,0.11672,-0.11362,0,0,-0.52925,0,-79.263,1.6013,0,1.5617,0,-23.329,71.808,1,1,2.1,2.1,-0.1,0
-0.0015526,0.017693,0,-0.52923,0.11731,-0.11418,0,0,-0.52923,0,-79.207,1.5876,0,1.5532,0,-23.314,71.751,1,1,2.105,2.105,-0.1,0
-0.0015544,0.017699,0,-0.5292,0.1179,-0.11474,0,0,-0.5292,0,-79.151,1.5738,0,1.5447,0,-23.3,71.693,1,1,2.11,2.11,-0.1,0
-0.0015562,0.017705,0,-0.52918,0.11849,-0.1153,0,0,-0.52918,0,-79.095,1.5601,0,1.5362,0,-23.286,71.635,1,1,2.115,2.115,-0.1,0
-0.001558,0.017711,0,-0.52916,0.11908,-0.11586,0,0,-0.52916,0,-79.039,1.5464,0,1.5277,0,-23.271,71.578,1,1,2.12,2.12,-0.1,0
-0.0015598,0.017717,0,-0.52913,0.11966,-0.11641,0,0,-0.52913,0,-78.983,1.5326,0,1.5192,0,-23.257,71.52,1,1,2.125,2.125,-0.1,0
-0.0015616,0.017723,0,-0.52911,0.12025,-0.11697,0,0,-0.52911,0,-78.927,1.5189,0,1.5107,0,-23.243,71.463,1,1,2.13,2.13,-0.1,0
-0.0015634,0.017729,0,-0.52909,0.12084,-0.11753,0,0,-0.52909,0,-78.871,1.5051,0,1.5022,0,-23.229,71.405,1,1,2.135,2.135,-0.1,0
-0.0015652,0.017734,0,-0.52906,0.12143,-0.11809,0,0,-0.52906,0,-78.815,1.4914,0,1.4937,0,-23.214,71.348,1,1,2.14,2.14,-0.1,0
-0.001567,0.01774,0,-0.52904,0.12202,-0.11865,0,0,-0.52904,0,-78.759,1.4776,0,1.4853,0,-23.2,71.29,1,1,2.145,2.145,-0.1,0
-0.0015688,0.017746,0,-0.52901,0.1226,-0.11921,0,0,-0.52901,0,-78.703,1.4639,0,1.4768,0,-23.186,71.232,1,1,2.15,2.15,-0.1,0
-0.0015706,0.017752,0,-0.52899,0.12319,-0.11976,0,0,-0.52899,0,-78.647,1.4501,0,1.4683,0,-23.172,71.175,1,1,2.155,2.155,-0.1,0
-0.0015724,0.017758,0,-0.52897,0.12378,-0.12032,0,0,-0.52897,0,-78.591,1.4364,0,1.4598,0,-23.157,71.117,1,1,2.16,2.16,-0.1,0
-0.0015742,0.017764,0,-0.52894,0.12437,-0.12088,0,0,-0.52894,0,-78.535,1.4227,0,1.4513,0,-23.143,71.06,1,1,2.165,2.165,-0.1,0
-0.001576,0.01777,0,-0.52892,0.12495,-0.12144,0,0,-0.52892,0,-78.479,1.4089,0,1.4429,0,-23.129,71.002,1,1,2.17,2.17,-0.1,0
-0.0015778,0.017776,0,-0.5289,0.12554,-0.122,0,0,-0.5289,0,-78.423,1.3952,0,1.4344,0,-23.114,70.944,1,1,2.175,2.175,-0.1,0
-0.0015796,0.017782,0,-0.52887,0.12613,-0.12255,0,0,-0.52887,0,-78.367,1.3814,0,1.4259,0,-23.1,70.887,1,1,2.18,2.18,-0.1,0
-0.0015814,0.017788,0,-0.52885,0.12672,-0.12311,0,0,-0.52885,0,-78.311,1.3677,0,1.4174,0,-23.086,70.829,1,1,2.185,2.185,-0.1,0
-0.0015832,0.017794,0,-0.52883,0.1273,-0.12367,0,0,-0.52883,0,-78.255,1.3539,0,1.409,0,-23.071,70.772,1,1,2.19,2.19,-0.1,0
-0.001585,0.017799,0,-0.5288,0.12789,-0.12423,0,0,-0.5288,0,-78.199,1.3402,0,1.4005,0,-23.057,70.714,1,1,2.195,2.195,-0.1,0
-0.0015868,0.017805,0,-0.52878,0.12848,-0.12478,0,0,-0.52878,0,-78.143,1.3264,0,1.392,0,-23.043,70.656,1,1,2.2,2.2,-0.1,0
-0.0015886,0.017811,0,-0.52875,0.12907,-0.12534,0,0,-0.52875,0,-78.087,1.3127,0,1.3836,0,-23.029,70.599,1,1,2.205,2.205,-0.1,0
-0.0015904,0.017817,0,-0.52873,0.12965,-0.1259,0,0,-0.52873,0,-78.031,1.2989,0,1.3751,0,-23.014,70.541,1,1,2.21,2.21,-0.1,0
-0.0015922,0.017823,0,-0.52871,0.13024,-0.12646,0,0,-0.52871,0,-77.975,1.2851,0,1.3666,0,-23,70.483,1,1,2.215,2.215,-0.1,0
-0.001594,0.017829,0,-0.52868,0.13083,-0.12701,0,0,-0.52868,0,-77.919,1.2714,0,1.3582,0,-22.986,70.426,1,1,2.22,2.22,-0.1,0
-0.0015958,0.017835,0,-0.52866,0.13142,-0.12757,0,0,-0.52866,0,-77.863,1.2576,0,1.3497,0,-22.971,70.368,1,1,2.225,2.225,-0.1,0
-0.0015976,0.017841,0,-0.52864,0.132,-0.12813,0,0,-0.52864,0,-77.807,1.2439,0,1.3413,0,-22.957,70.31,1,1,2.23,2.23,-0.1,0
-0.0015994,0.017847,0,-0.52861,0.13259,-0.12869,0,0,-0.52861,0,-77.751,1.2301,0,1.3328,0,-22.943,70.253,1,1,2.235,2.235,-0.1,0
-0.0016012,0.017853,0,-0.52859,0.13318,-0.12924,0,0,-0.52859,0,-77.695,1.2164,0,1.3244,0,-22.928,70.195,1,1,2.24,2.24,-0.1,0
-0.001603,0.017859,0,-0.52857,0.13376,-0.1298,0,0,-0.52857,0,-77.639,1.2026,0,1.3159,0,-22.914,70.137,1,1,2.245,2.245,-0.1,0
-0.0016048,0.017865,0,-0.52854,0.13435,-0.13036,0,0,-0.52854,0,-77.583,1.1889,0,1.3074,0,-22.9,70.08,1,1,2.25,2.25,-0.1,0
-0.0016066,0.01787,0,-0.52852,0.13494,-0.13091,0,0,-0.52852,0,-77.527,1.1751,0,1.299,0,-22.885,70.022,1,1,2.255,2.255,-0.1,0
-0.0016084,0.017876,0,-0.52849,0.13552,-0.13147,0,0,-0.52849,0,-77.471,1.1613,0,1.2905,0,-22.871,69.964,1,1,2.26,2.26,-0.1,0
-0.0016102,0.017882,0,-0.52847,0.13611,-0.13203,0,0,-0.52847,0,-77.415,1.1476,0,1.2821,0,-22.857,69.907,1,1,2.265,2.265,-0.1,0
-0.001612,0.017888,0,-0.52845,0.1367,-0.13259,0,0,-0.52845,0,-77.358,1.1338,0,1.2736,0,-22.842,69.849,1,1,2.27,2.27,-0.1,0
-0.0016138,0.017894,0,-0.52842,0.13728,-0.13314,0,0,-0.52842,0,-77.302,1.1201,0,1.2652,0,-22.828,69.791,1,1,2.275,2.275,-0.1,0
-0.0016156,0.0179,0,-0.5284,0.13787,-0.1337,0,0,-0.5284,0,-77.246,1.1063,0,1.2567,0,-22.814,69.734,1,1,2.28,2.28,-0.1,0
-0.0016174,0.017906,0,-0.52838,0.13846,-0.13426,0,0,-0.52838,0,-77.19,1.0925,0,1.2483,0,-22.799,69.676,1,1,2.285,2.285,-0.1,0
-0.0016192,0.017912,0,-0.52835,0.13904,-0.13481,0,0,-0.52835,0,-77.134,1.0788,0,1.2399,0,-22.785,69.618,1,1,2.29,2.29,-0.1,0
-0.001621,0.017918,0,-0.52833,0.13963,-0.13537,0,0,-0.52833,0,-77.078,1.065,0,1.2314,0,-22.771,69.56,1,1,2.295,2.295,-0.1,0
-0.0016228,0.017924,0,-0.52831,0.14022,-0.13593,0,0,-0.52831,0,-77.022,1.0513,0,1.223,0,-22.756,69.503,1,1,2.3,2.3,-0.1,0
-0.0016246,0.01793,0,-0.52828,0.1408,-0.13648,0,0,-0.52828,0,-76.965,1.0375,0,1.2145,0,-22.742,69.445,1,1,2.305,2.305,-0.1,0
-0.0016264,0.017935,0,-0.52826,0.14139,-0.13704,0,0,-0.52826,0,-76.909,1.0237,0,1.2061,0,-22.728,69.387,1,1,2.31,2.31,-0.1,0
-0.0016282,0.017941,0,-0.52823,0.14197,-0.1376,0,0,-0.52823,0,-76.853,1.01,0,1.1977,0,-22.713,69.33,1,1,2.315,2.315,-0.1,0
-0.00163,0.017947,0,-0.52821,0.14256,-0.13815,0,0,-0.52821,0,-76.797,0.99621,0,1.1892,0,-22.699,69.272,1,1,2.32,2.32,-0.1,0
-0.0016318,0.017953,0,-0.52819,0.14315,-0.13871,0,0,-0.52819,0,-76.741,0.98244,0,1.1808,0,-22.684,69.214,1,1,2.325,2.325,-0.1,0
-0.0016336,0.017959,0,-0.52816,0.14373,-0.13926,0,0,-0.52816,0,-76.685,0.96868,0,1.1724,0,-22.67,69.156,1,1,2.33,2.33,-0.1,0
-0.0016354,0.017965,0,-0.52814,0.14432,-0.13982,0,0,-0.52814,0,-76.628,0.95491,0,1.1639,0,-22.656,69.099,1,1,2.335,2.335,-0.1,0
-0.0016372,0.017971,0,-0.52812,0.1449,-0.14038,0,0,-0.52812,0,-76.572,0.94114,0,1.1555,0,-22.641,69.041,1,1,2.34,2.34,-0.1,0
-0.001639,0.017977,0,-0.52809,0.14549,-0.14093,0,0,-0.52809,0,-76.516,0.92737,0,1.1471,0,-22.627,68.983,1,1,2.345,2.345,-0.1,0
-0.0016408,0.017983,0,-0.52807,0.14608,-0.14149,0,0,-0.52807,0,-76.46,0.91361,0,1.1387,0,-22.613,68.925,1,1,2.35,2.35,-0.1,0
-0.0016426,0.017989,0,-0.52805,0.14666,-0.14205,0,0,-0.52805,0,-76.404,0.89984,0,1.1302,0,-22.598,68.867,1,1,2.355,2.355,-0.1,0
-0.0016444,0.017995,0,-0.52802,0.14725,-0.1426,0,0,-0.52802,0,-76.347,0.88607,0,1.1218,0,-22.584,68.81,1,1,2.36,2.36,-0.1,0
-0.0016462,0.018,0,-0.528,0.14783,-0.14316,0,0,-0.528,0,-76.291,0.8723,0,1.1134,0,-22.569,68.752,1,1,2.365,2.365,-0.1,0
-0.0016481,0.018006,0,-0.52797,0.14842,-0.14371,0,0,-0.52797,0,-76.235,0.85853,0,1.105,0,-22.555,68.694,1,1,2.37,2.37,-0.1,0
-0.0016498,0.018011,0,-0.52795,0.14914,-0.14438,0,0,-0.52795,0,-76.198,0.85579,0,1.1015,0,-22.545,68.659,1,1,2.375,2.375,-0.1,0
-0.0016515,0.018016,0,-0.52793,0.14986,-0.14505,0,0,-0.52793,0,-76.162,0.85338,0,1.0982,0,-22.535,68.624,1,1,2.38,2.38,-0.1,0
-0.0016532,0.018021,0,-0.52791,0.15059,-0.14572,0,0,-0.52791,0,-76.127,0.85097,0,1.0948,0,-22.526,68.589,1,1,2.385,2.385,-0.1,0
-0.0016549,0.018026,0,-0.52789,0.15131,-0.14639,0,0,-0.52789,0,-76.091,0.84856,0,1.0915,0,-22.516,68.554,1,1,2.39,2.39,-0.1,0
-0.0016566,0.018032,0,-0.52787,0.15204,-0.14706,0,0,-0.52787,0,-76.055,0.84615,0,1.0882,0,-22.506,68.519,1,1,2.395,2.395,-0.1,0
-0.0016583,0.018037,0,-0.52785,0.15276,-0.14773,0,0,-0.52785,0,-76.019,0.84374,0,1.0849,0,-22.496,68.484,1,1,2.4,2.4,-0.1,0
-0.00166,0.018042,0,-0.52783,0.15348,-0.1484,0,0,-0.52783,0,-75.983,0.84133,0,1.0815,0,-22.486,68.449,1,1,2.405,2.405,-0.1,0
-0.0016617,0.018047,0,-0.52781,0.15421,-0.14907,0,0,-0.52781,0,-75.947,0.83891,0,1.0782,0,-22.477,68.414,1,1,2.41,2.41,-0.1,0
-0.0016634,0.018052,0,-0.52779,0.15493,-0.14974,0,0,-0.52779,0,-75.911,0.8365,0,1.0749,0,-22.467,68.379,1,1,2.415,2.415,-0.1,0
-0.0016651,0.018057,0,-0.52777,0.15566,-0.15041,0,0,-0.52777,0,-75.875,0.83409,0,1.0716,0,-22.457,68.344,1,1,2.42,2.42,-0.1,0
-0.0016668,0.018062,0,-0.52775,0.15638,-0.15108,0,0,-0.52775,0,-75.839,0.83167,0,1.0682,0,-22.447,68.309,1,1,2.425,2.425,-0.1,0
-0.0016685,0.018067,0,-0.52773,0.1571,-0.15175,0,0,-0.52773,0,-75.803,0.82926,0,1.0649,0,-22.437,68.274,1,1,2.43,2.43,-0.1,0
-0.0016702,0.018072,0,-0.52771,0.15783,-0.15242,0,0,-0.52771,0,-75.767,0.82684,0,1.0616,0,-22.428,68.239,1,1,2.435,2.435,-0.1,0
-0.0016719,0.018077,0,-0.52769,0.15855,-0.15309,0,0,-0.52769,0,-75.731,0.82443,0,1.0583,0,-22.418,68.204,1,1,2.44,2.44,-0.1,0
-0.0016736,0.018082,0,-0.52767,0.15928,-0.15376,0,0,-0.52767,0,-75.695,0.82201,0,1.0549,0,-22.408,68.17,1,1,2.445,2.445,-0.1,0
-0.0016753,0.018087,0,-0.52765,0.16,-0.15443,0,0,-0.52765,0,-75.66,0.81959,0,1.0516,0,-22.398,68.135,1,1,2.45,2.45,-0.1,0
-0.001677,0.018092,0,-0.52763,0.16072,-0.1551,0,0,-0.52763,0,-75.624,0.81718,0,1.0483,0,-22.388,68.1,1,1,2.455,2.455,-0.1,0
-0.0016787,0.018097,0,-0.52761,0.16145,-0.15577,0,0,-0.52761,0,-75.588,0.81476,0,1.045,0,-22.379,68.065,1,1,2.46,2.46,-0.1,0
-0.0016804,0.018102,0,-0.52759,0.16217,-0.15644,0,0,-0.52759,0,-75.552,0.81234,0,1.0417,0,-22.369,68.03,1,1,2.465,2.465,-0.1,0
-0.0016821,0.018107,0,-0.52757,0.16289,-0.15711,0,0,-0.52757,0,-75.516,0.80992,0,1.0384,0,-22.359,67.995,1,1,2.47,2.47,-0.1,0
-0.0016838,0.018112,0,-0.52755,0.16362,-0.15777,0,0,-0.52755,0,-75.48,0.8075,0,1.035,0,-22.349,67.96,1,1,2.475,2.475,-0.1,0
-0.0016855,0.018117,0,-0.52753,0.16434,-0.15844,0,0,-0.52753,0,-75.444,0.80508,0,1.0317,0,-22.339,67.925,1,1,2.48,2.48,-0.1,0
-0.0016872,0.018122,0,-0.52751,0.16506,-0.15911,0,0,-0.52751,0,-75.408,0.80266,0,1.0284,0,-22.33,67.89,1,1,2.485,2.485,-0.1,0
-0.0016889,0.018127,0,-0.52749,0.16579,-0.15978,0,0,-0.52749,0,-75.372,0.80024,0,1.0251,0,-22.32,67.855,1,1,2.49,2.49,-0.1,0
-0.0016906,0.018132,0,-0.52747,0.16651,-0.16045,0,0,-0.52747,0,-75.336,0.79782,0,1.0218,0,-22.31,67.82,1,1,2.495,2.495,-0.1,0
-0.0016923,0.018137,0,-0.52745,0.16723,-0.16112,0,0,-0.52745,0,-75.3,0.7954,0,1.0185,0,-22.3,67.785,1,1,2.5,2.5,-0.1,0
-0.001694,0.018142,0,-0.52743,0.16796,-0.16179,0,0,-0.52743,0,-75.264,0.79298,0,1.0151,0,-22.29,67.75,1,1,2.505,2.505,-0.1,0
-0.0016957,0.018147,0,-0.52741,0.16868,-0.16246,0,0,-0.52741,0,-75.228,0.79055,0,1.0118,0,-22.281,67.715,1,1,2.51,2.51,-0.1,0
-0.0016974,0.018152,0,-0.52739,0.1694,-0.16313,0,0,-0.52739,0,-75.192,0.78813,0,1.0085,0,-22.271,67.68,1,1,2.515,2.515,-0.1,0
-0.0016991,0.018157,0,-0.52737,0.17012,-0.16379,0,0,-0.52737,0,-75.156,0.78571,0,1.0052,0,-22.261,67.645,1,1,2.52,2.52,-0.1,0
-0.0017008,0.018162,0,-0.52735,0.17085,-0.16446,0,0,-0.52735,0,-75.12,0.78328,0,1.0019,0,-22.251,67.61,1,1,2.525,2.525,-0.1,0
-0.0017025,0.018167,0,-0.52733,0.17157,-0.16513,0,0,-0.52733,0,-75.084,0.78086,0,0.99858,0,-22.241,67.575,1,1,2.53,2.53,-0.1,0
-0.0017042,0.018172,0,-0.52731,0.17229,-0.1658,0,0,-0.52731,0,-75.048,0.77843,0,0.99527,0,-22.231,67.54,1,1,2.535,2.535,-0.1,0
-0.0017059,0.018177,0,-0.52729,0.17302,-0.16647,0,0,-0.52729,0,-75.012,0.77601,0,0.99196,0,-22.222,67.505,1,1,2.54,2.54,-0.1,0
-0.0017076,0.018182,0,-0.52727,0.17374,-0.16714,0,0,-0.52727,0,-74.976,0.77358,0,0.98865,0,-22.212,67.47,1,1,2.545,2.545,-0.1,0
-0.0017093,0.018187,0,-0.52725,0.17446,-0.16781,0,0,-0.52725,0,-74.94,0.77115,0,0.98534,0,-22.202,67.435,1,1,2.55,2.55,-0.1,0
-0.001711,0.018192,0,-0.52723,0.17518,-0.16847,0,0,-0.52723,0,-74.904,0.76873,0,0.98204,0,-22.192,67.4,1,1,2.555,2.555,-0.1,0
-0.0017127,0.018197,0,-0.52721,0.17591,-0.16914,0,0,-0.52721,0,-74.868,0.7663,0,0.97873,0,-22.182,67.365,1,1,2.56,2.56,-0.1,0
-0.0017144,0.018202,0,-0.52719,0.17663,-0.16981,0,0,-0.52719,0,-74.832,0.76387,0,0.97542,0,-22.173,67.33,1,1,2.565,2.565,-0.1,0
-0.0017161,0.018207,0,-0.52717,0.17735,-0.17048,0,0,-0.52717,0,-74.796,0.76144,0,0.97212,0,-22.163,67.295,1,1,2.57,2.57,-0.1,0
-0.0017178,0.018213,0,-0.52715,0.17807,-0.17115,0,0,-0.52715,0,-74.76,0.75901,0,0.96881,0,-22.153,67.26,1,1,2.575,2.575,-0.1,0
-0.0017195,0.018218,0,-0.52713,0.17879,-0.17182,0,0,-0.52713,0,-74.724,0.75658,0,0.96551,0,-22.143,67.225,1,1,2.58,2.58,-0.1,0
-0.0017212,0.018223,0,-0.52711,0.17952,-0.17248,0,0,-0.52711,0,-74.688,0.75415,0,0.9622,0,-22.133,67.19,1,1,2.585,2.585,-0.1,0
-0.0017229,0.018228,0,-0.52709,0.18024,-0.17315,0,0,-0.52709,0,-74.652,0.75172,0,0.9589,0,-22.123,67.155,1,1,2.59,2.59,-0.1,0
-0.0017246,0.018233,0,-0.52707,0.18096,-0.17382,0,0,-0.52707,0,-74.616,0.74929,0,0.95559,0,-22.114,67.12,1,1,2.595,2.595,-0.1,0
-0.0017263,0.018238,0,-0.52705,0.18168,-0.17449,0,0,-0.52705,0,-74.58,0.74686,0,0.95229,0,-22.104,67.085,1,1,2.6,2.6,-0.1,0
-0.001728,0.018243,0,-0.52703,0.1824,-0.17516,0,0,-0.52703,0,-74.544,0.74442,0,0.94899,0,-22.094,67.05,1,1,2.605,2.605,-0.1,0
-0.0017297,0.018248,0,-0.52701,0.18313,-0.17582,0,0,-0.52701,0,-74.508,0.74199,0,0.94569,0,-22.084,67.015,1,1,2.61,2.61,-0.1,0
-0.0017314,0.018253,0,-0.52699,0.18385,-0.17649,0,0,-0.52699,0,-74.472,0.73956,0,0.94239,0,-22.074,66.98,1,1,2.615,2.615,-0.1,0
-0.0017331,0.018258,0,-0.52697,0.18457,-0.17716,0,0,-0.52697,0,-74.436,0.73712,0,0.93909,0,-22.064,66.945,1,1,2.62,2.62,-0.1,0
-0.0017348,0.018263,0,-0.52695,0.18529,-0.17783,0,0,-0.52695,0,-74.4,0.73469,0,0.93579,0,-22.055,66.91,1,1,2.625,2.625,-0.1,0
-0.0017365,0.018268,0,-0.52693,0.18601,-0.17849,0,0,-0.52693,0,-74.363,0.73225,0,0.93249,0,-22.045,66.875,1,1,2.63,2.63,-0.1,0
-0.0017382,0.018273,0,-0.52691,0.18673,-0.17916,0,0,-0.52691,0,-74.327,0.72982,0,0.92919,0,-22.035,66.84,1,1,2.635,2.635,-0.1,0
-0.0017399,0.018278,0,-0.52689,0.18746,-0.17983,0,0,-0.52689,0,-74.291,0.72738,0,0.92589,0,-22.025,66.805,1,1,2.64,2.64,-0.1,0
-0.0017416,0.018283,0,-0.52687,0.18818,-0.1805,0,0,-0.52687,0,-74.255,0.72495,0,0.9226,0,-22.015,66.77,1,1,2.645,2.645,-0.1,0
-0.0017433,0.018288,0,-0.52685,0.1889,-0.18116,0,0,-0.52685,0,-74.219,0.72251,0,0.9193,0,-22.005,66.735,1,1,2.65,2.65,-0.1,0
-0.001745,0.018293,0,-0.52683,0.18962,-0.18183,0,0,-0.52683,0,-74.183,0.72007,0,0.916,0,-21.995,66.7,1,1,2.655,2.655,-0.1,0
-0.0017467,0.018298,0,-0.52681,0.19034,-0.1825,0,0,-0.52681,0,-74.147,0.71763,0,0.91271,0,-21.986,66.665,1,1,2.66,2.66,-0.1,0
-0.0017484,0.018303,0,-0.52679,0.19106,-0.18317,0,0,-0.52679,0,-74.111,0.7152,0,0.90941,0,-21.976,66.63,1,1,2.665,2.665,-0.1,0
-0.0017501,0.018308,0,-0.52677,0.19178,-0.18383,0,0,-0.52677,0,-74.075,0.71276,0,0.90612,0,-21.966,66.595,1,1,2.67,2.67,-0.1,0
-0.0017518,0.018313,0,-0.52675,0.19251,-0.1845,0,0,-0.52675,0,-74.039,0.71032,0,0.90283,0,-21.956,66.56,1,1,2.675,2.675,-0.1,0
-0.0017535,0.018318,0,-0.52673,0.19323,-0.18517,0,0,-0.52673,0,-74.003,0.70788,0,0.89953,0,-21.946,66.525,1,1,2.68,2.68,-0.1,0
-0.0017552,0.018323,0,-0.52671,0.19395,-0.18584,0,0,-0.52671,0,-73.967,0.70544,0,0.89624,0,-21.936,66.49,1,1,2.685,2.685,-0.1,0
-0.0017569,0.018328,0,-0.52669,0.19467,-0.1865,0,0,-0.52669,0,-73.931,0.70299,0,0.89295,0,-21.926,66.455,1,1,2.69,2.69,-0.1,0
-0.0017586,0.018333,0,-0.52667,0.19539,-0.18717,0,0,-0.52667,0,-73.894,0.70055,0,0.88966,0,-21.917,66.419,1,1,2.695,2.695,-0.1,0
-0.0017603,0.018338,0,-0.52665,0.19611,-0.18784,0,0,-0.52665,0,-73.858,0.69811,0,0.88637,0,-21.907,66.384,1,1,2.7,2.7,-0.1,0
-0.001762,0.018343,0,-0.52663,0.19683,-0.1885,0,0,-0.52663,0,-73.822,0.69567,0,0.88308,0,-21.897,66.349,1,1,2.705,2.705,-0.1,0
-0.0017637,0.018348,0,-0.52661,0.19755,-0.18917,0,0,-0.52661,0,-73.786,0.69322,0,0.87979,0,-21.887,66.314,1,1,2.71,2.71,-0.1,0
-0.0017654,0.018353,0,-0.52659,0.19827,-0.18984,0,0,-0.52659,0,-73.75,0.69078,0,0.8765,0,-21.877,66.279,1,1,2.715,2.715,-0.1,0
-0.0017671,0.018358,0,-0.52657,0.19899,-0.1905,0,0,-0.52657,0,-73.714,0.68834,0,0.87321,0,-21.867,66.244,1,1,2.72,2.72,-0.1,0
-0.0017688,0.018363,0,-0.52655,0.19971,-0.19117,0,0,-0.52655,0,-73.678,0.68589,0,0.86993,0,-21.857,66.209,1,1,2.725,2.725,-0.1,0
-0.0017705,0.018368,0,-0.52653,0.20043,-0.19184,0,0,-0.52653,0,-73.642,0.68345,0,0.86664,0,-21.848,66.174,1,1,2.73,2.73,-0.1,0
-0.0017722,0.018373,0,-0.52651,0.20115,-0.1925,0,0,-0.52651,0,-73.606,0.681,0,0.86335,0,-21.838,66.139,1,1,2.735,2.735,-0.1,0
-0.0017739,0.018378,0,-0.52649,0.20187,-0.19317,0,0,-0.52649,0,-73.569,0.67856,0,0.86007,0,-21.828,66.104,1,1,2.74,2.74,-0.1,0
-0.0017756,0.018383,0,-0.52647,0.2026,-0.19384,0,0,-0.52647,0,-73.533,0.67611,0,0.85678,0,-21.818,66.069,1,1,2.745,2.745,-0.1,0
-0.0017773,0.018388,0,-0.52645,0.20332,-0.1945,0,0,-0.52645,0,-73.497,0.67366,0,0.8535,0,-21.808,66.034,1,1,2.75,2.75,-0.1,0
-0.001779,0.018393,0,-0.52643,0.20404,-0.19517,0,0,-0.52643,0,-73.461,0.67121,0,0.85021,0,-21.798,65.999,1,1,2.755,2.755,-0.1,0
-0.0017807,0.018399,0,-0.52641,0.20476,-0.19584,0,0,-0.52641,0,-73.425,0.66877,0,0.84693,0,-21.788,65.963,1,1,2.76,2.76,-0.1,0
-0.0017824,0.018404,0,-0.52639,0.20548,-0.1965,0,0,-0.52639,0,-73.389,0.66632,0,0.84365,0,-21.779,65.928,1,1,2.765,2.765,-0.1,0
-0.0017841,0.018409,0,-0.52637,0.2062,-0.19717,0,0,-0.52637,0,-73.353,0.66387,0,0.84037,0,-21.769,65.893,1,1,2.77,2.77,-0.1,0
-0.0017858,0.018414,0,-0.52635,0.20692,-0.19783,0,0,-0.52635,0,-73.316,0.66142,0,0.83709,0,-21.759,65.858,1,1,2.775,2.775,-0.1,0
-0.0017875,0.018419,0,-0.52633,0.20764,-0.1985,0,0,-0.52633,0,-73.28,0.65897,0,0.83381,0,-21.749,65.823,1,1,2.78,2.78,-0.1,0
-0.0017892,0.018424,0,-0.52631,0.20836,-0.19917,0,0,-0.52631,0,-73.244,0.65652,0,0.83053,0,-21.739,65.788,1,1,2.785,2.785,-0.1,0
-0.0017909,0.018429,0,-0.52629,0.20908,-0.19983,0,0,-0.52629,0,-73.208,0.65407,0,0.82725,0,-21.729,65.753,1,1,2.79,2.79,-0.1,0
-0.0017926,0.018434,0,-0.52627,0.2098,-0.2005,0,0,-0.52627,0,-73.172,0.65161,0,0.82397,0,-21.719,65.718,1,1,2.795,2.795,-0.1,0
-0.0017943,0.018439,0,-0.52625,0.21052,-0.20116,0,0,-0.52625,0,-73.136,0.64916,0,0.82069,0,-21.709,65.683,1,1,2.8,2.8,-0.1,0
-0.001796,0.018444,0,-0.52622,0.21123,-0.20183,0,0,-0.52622,0,-73.1,0.64671,0,0.81741,0,-21.7,65.648,1,1,2.805,2.805,-0.1,0
-0.0017977,0.018449,0,-0.5262,0.21195,-0.2025,0,0,-0.5262,0,-73.063,0.64425,0,0.81413,0,-21.69,65.612,1,1,2.81,2.81,-0.1,0
-0.0017994,0.018454,0,-0.52618,0.21267,-0.20316,0,0,-0.52618,0,-73.027,0.6418,0,0.81086,0,-21.68,65.577,1,1,2.815,2.815,-0.1,0
-0.0018011,0.018459,0,-0.52616,0.21339,-0.20383,0,0,-0.52616,0,-72.991,0.63935,0,0.80758,0,-21.67,65.542,1,1,2.82,2.82,-0.1,0
-0.0018028,0.018464,0,-0.52614,0.21411,-0.20449,0,0,-0.52614,0,-72.955,0.63689,0,0.80431,0,-21.66,65.507,1,1,2.825,2.825,-0.1,0
-0.0018045,0.018469,0,-0.52612,0.21483,-0.20516,0,0,-0.52612,0,-72.919,0.63444,0,0.80103,0,-21.65,65.472,1,1,2.83,2.83,-0.1,0
-0.0018062,0.018474,0,-0.5261,0.21555,-0.20582,0,0,-0.5261,0,-72.882,0.63198,0,0.79776,0,-21.64,65.437,1,1,2.835,2.835,-0.1,0
-0.0018079,0.018479,0,-0.52608,0.21627,-0.20649,0,0,-0.52608,0,-72.846,0.62952,0,0.79448,0,-21.63,65.402,1,1,2.84,2.84,-0.1,0
-0.0018096,0.018484,0,-0.52606,0.21699,-0.20715,0,0,-0.52606,0,-72.81,0.62707,0,0.79121,0,-21.62,65.367,1,1,2.845,2.845,-0.1,0
-0.0018113,0.018489,0,-0.52604,0.21771,-0.20782,0,0,-0.52604,0,-72.774,0.62461,0,0.78794,0,-21.611,65.332,1,1,2.85,2.85,-0.1,0
-0.001813,0.018494,0,-0.52602,0.21843,-0.20849,0,0,-0.52602,0,-72.738,0.62215,0,0.78467,0,-21.601,65.296,1,1,2.855,2.855,-0.1,0
-0.0018147,0.018499,0,-0.52601,0.21924,-0.20922,0,0,-0.52601,0,-72.709,0.61996,0,0.78184,0,-21.593,65.269,1,1,2.86,2.86,-0.1,0
-0.0018163,0.018503,0,-0.52599,0.22011,-0.21,0,0,-0.52599,0,-72.686,0.61797,0,0.77936,0,-21.587,65.246,1,1,2.865,2.865,-0.1,0
-0.0018179,0.018508,0,-0.52597,0.22099,-0.21078,0,0,-0.52597,0,-72.664,0.61598,0,0.77687,0,-21.581,65.224,1,1,2.87,2.87,-0.1,0
-0.0018196,0.018512,0,-0.52595,0.22187,-0.21157,0,0,-0.52595,0,-72.641,0.61399,0,0.77439,0,-21.575,65.202,1,1,2.875,2.875,-0.1,0
-0.0018212,0.018516,0,-0.52593,0.22274,-0.21235,0,0,-0.52593,0,-72.618,0.612,0,0.7719,0,-21.569,65.179,1,1,2.88,2.88,-0.1,0
-0.0018228,0.018521,0,-0.52592,0.22362,-0.21313,0,0,-0.52592,0,-72.595,0.61002,0,0.76942,0,-21.562,65.157,1,1,2.885,2.885,-0.1,0
-0.0018244,0.018525,0,-0.5259,0.2245,-0.21391,0,0,-0.5259,0,-72.573,0.60803,0,0.76694,0,-21.556,65.135,1,1,2.89,2.89,-0.1,0
-0.0018261,0.018529,0,-0.52588,0.22537,-0.21469,0,0,-0.52588,0,-72.55,0.60604,0,0.76445,0,-21.55,65.112,1,1,2.895,2.895,-0.1,0
-0.0018277,0.018534,0,-0.52586,0.22625,-0.21548,0,0,-0.52586,0,-72.527,0.60405,0,0.76197,0,-21.544,65.09,1,1,2.9,2.9,-0.1,0
-0.0018293,0.018538,0,-0.52585,0.22712,-0.21626,0,0,-0.52585,0,-72.504,0.60206,0,0.75949,0,-21.538,65.068,1,1,2.905,2.905,-0.1,0
-0.001831,0.018543,0,-0.52583,0.228,-0.21704,0,0,-0.52583,0,-72.482,0.60007,0,0.757,0,-21.532,65.046,1,1,2.91,2.91,-0.1,0
-0.0018326,0.018547,0,-0.52581,0.22888,-0.21782,0,0,-0.52581,0,-72.459,0.59808,0,0.75452,0,-21.526,65.023,1,1,2.915,2.915,-0.1,0
-0.0018342,0.018551,0,-0.52579,0.22975,-0.21861,0,0,-0.52579,0,-72.436,0.59609,0,0.75204,0,-21.52,65.001,1,1,2.92,2.92,-0.1,0
-0.0018359,0.018556,0,-0.52578,0.23063,-0.21939,0,0,-0.52578,0,-72.413,0.5941,0,0.74956,0,-21.514,64.979,1,1,2.925,2.925,-0.1,0
-0.0018375,0.01856,0,-0.52576,0.2315,-0.22017,0,0,-0.52576,0,-72.391,0.59211,0,0.74708,0,-21.508,64.956,1,1,2.93,2.93,-0.1,0
-0.0018391,0.018565,0,-0.52574,0.23238,-0.22095,0,0,-0.52574,0,-72.368,0.59012,0,0.7446,0,-21.502,64.934,1,1,2.935,2.935,-0.1,0
-0.0018408,0.018569,0,-0.52572,0.23325,-0.22173,0,0,-0.52572,0,-72.345,0.58812,0,0.74212,0,-21.495,64.912,1,1,2.94,2.94,-0.1,0
-0.0018424,0.018573,0,-0.52571,0.23413,-0.22252,0,0,-0.52571,0,-72.322,0.58613,0,0.73963,0,-21.489,64.889,1,1,2.945,2.945,-0.1,0
-0.001844,0.018578,0,-0.52569,0.23501,-0.2233,0,0,-0.52569,0,-72.3,0.58414,0,0.73715,0,-21.483,64.867,1,1,2.95,2.95,-0.1,0
-0.0018457,0.018582,0,-0.52567,0.23588,-0.22408,0,0,-0.52567,0,-72.277,0.58215,0,0.73467,0,-21.477,64.845,1,1,2.955,2.955,-0.1,0
-0.0018473,0.018587,0,-0.52565,0.23676,-0.22486,0,0,-0.52565,0,-72.254,0.58016,0,0.7322,0,-21.471,64.822,1,1,2.96,2.96,-0.1,0
-0.0018489,0.018591,0,-0.52564,0.23763,-0.22564,0,0,-0.52564,0,-72.231,0.57817,0,0.72972,0,-21.465,64.8,1,1,2.965,2.965,-0.1,0
-0.0018505,0.018595,0,-0.52562,0.23851,-0.22642,0,0,-0.52562,0,-72.209,0.57618,0,0.72724,0,-21.459,64.778,1,1,2.97,2.97,-0.1,0
-0.0018522,0.0186,0,-0.5256,0.23938,-0.22721,0,0,-0.5256,0,-72.186,0.57418,0,0.72476,0,-21.453,64.755,1,1,2.975,2.975,-0.1,0
-0.0018538,0.018604,0,-0.52558,0.24026,-0.22799,0,0,-0.52558,0,-72.163,0.57219,0,0.72228,0,-21.447,64.733,1,1,2.98,2.98,-0.1,0
-0.0018554,0.018609,0,-0.52557,0.24113,-0.22877,0,0,-0.52557,0,-72.14,0.5702,0,0.7198,0,-21.441,64.711,1,1,2.985,2.985,-0.1,0
-0.0018571,0.018613,0,-0.52555,0.24201,-0.22955,0,0,-0.52555,0,-72.118,0.56821,0,0.71732,0,-21.435,64.688,1,1,2.99,2.99,-0.1,0
-0.0018587,0.018617,0,-0.52553,0.24288,-0.23033,0,0,-0.52553,0,-72.095,0.56622,0,0.71485,0,-21.428,64.666,1,1,2.995,2.995,-0.1,0
-0.0018603,0.018622,0,-0.52551,0.24376,-0.23111,0,0,-0.52551,0,-72.072,0.56422,0,0.71237,0,-21.422,64.644,1,1,3,3,-0.1,0
-0.001862,0.018626,0,-0.52549,0.24463,-0.23189,0,0,-0.52549,0,-72.049,0.56223,0,0.70989,0,-21.416,64.621,1,1,3.005,3.005,-0.1,0
-0.0018636,0.018631,0,-0.52548,0.24551,-0.23267,0,0,-0.52548,0,-72.026,0.56024,0,0.70741,0,-21.41,64.599,1,1,3.01,3.01,-0.1,0
-0.0018652,0.018635,0,-0.52546,0.24638,-0.23346,0,0,-0.52546,0,-72.004,0.55824,0,0.70494,0,-21.404,64.577,1,1,3.015,3.015,-0.1,0
-0.0018669,0.018639,0,-0.52544,0.24726,-0.23424,0,0,-0.52544,0,-71.981,0.55625,0,0.70246,0,-21.398,64.554,1,1,3.02,3.02,-0.1,0
-0.0018685,0.018644,0,-0.52542,0.24813,-0.23502,0,0,-0.52542,0,-71.958,0.55426,0,0.69999,0,-21.392,64.532,1,1,3.025,3.025,-0.1,0
-0.0018701,0.018648,0,-0.52541,0.24901,-0.2358,0,0,-0.52541,0,-71.935,0.55226,0,0.69751,0,-21.386,64.51,1,1,3.03,3.03,-0.1,0
-0.0018718,0.018653,0,-0.52539,0.24988,-0.23658,0,0,-0.52539,0,-71.912,0.55027,0,0.69504,0,-21.38,64.487,1,1,3.035,3.035,-0.1,0
-0.0018734,0.018657,0,-0.52537,0.25076,-0.23736,0,0,-0.52537,0,-71.89,0.54828,0,0.69256,0,-21.373,64.465,1,1,3.04,3.04,-0.1,0
-0.001875,0.018661,0,-0.52535,0.25163,-0.23814,0,0,-0.52535,0,-71.867,0.54628,0,0.69009,0,-21.367,64.443,1,1,3.045,3.045,-0.1,0
-0.0018767,0.018666,0,-0.52534,0.2525,-0.23892,0,0,-0.52534,0,-71.844,0.54429,0,0.68761,0,-21.361,64.42,1,1,3.05,3.05,-0.1,0
-0.0018783,0.01867,0,-0.52532,0.25338,-0.2397,0,0,-0.52532,0,-71.821,0.54229,0,0.68514,0,-21.355,64.398,1,1,3.055,3.055,-0.1,0
-0.0018799,0.018675,0,-0.5253,0.25425,-0.24048,0,0,-0.5253,0,-71.799,0.5403,0,0.68266,0,-21.349,64.376,1,1,3.06,3.06,-0.1,0
-0.0018815,0.018679,0,-0.52528,0.25513,-0.24126,0,0,-0.52528,0,-71.776,0.53831,0,0.68019,0,-21.343,64.353,1,1,3.065,3.065,-0.1,0
-0.0018832,0.018683,0,-0.52527,0.256,-0.24204,0,0,-0.52527,0,-71.753,0.53631,0,0.67772,0,-21.337,64.331,1,1,3.07,3.07,-0.1,0
-0.0018848,0.018688,0,-0.52525,0.25688,-0.24282,0,0,-0.52525,0,-71.73,0.53432,0,0.67524,0,-21.331,64.309,1,1,3.075,3.075,-0.1,0
-0.0018864,0.018692,0,-0.52523,0.25775,-0.24361,0,0,-0.52523,0,-71.707,0.53232,0,0.67277,0,-21.325,64.286,1,1,3.08,3.08,-0.1,0
-0.0018881,0.018697,0,-0.52521,0.25862,-0.24439,0,0,-0.52521,0,-71.684,0.53033,0,0.6703,0,-21.319,64.264,1,1,3.085,3.085,-0.1,0
-0.0018897,0.018701,0,-0.5252,0.2595,-0.24517,0,0,-0.5252,0,-71.662,0.52833,0,0.66783,0,-21.312,64.242,1,1,3.09,3.09,-0.1,0
-0.0018913,0.018705,0,-0.52518,0.26037,-0.24595,0,0,-0.52518,0,-71.639,0.52634,0,0.66535,0,-21.306,64.219,1,1,3.095,3.095,-0.1,0
-0.001893,0.01871,0,-0.52516,0.26124,-0.24673,0,0,-0.52516,0,-71.616,0.52434,0,0.66288,0,-21.3,64.197,1,1,3.1,3.1,-0.1,0
-0.0018946,0.018714,0,-0.52514,0.26212,-0.24751,0,0,-0.52514,0,-71.593,0.52234,0,0.66041,0,-21.294,64.175,1,1,3.105,3.105,-0.1,0
-0.0018962,0.018719,0,-0.52513,0.26299,-0.24829,0,0,-0.52513,0,-71.57,0.52035,0,0.65794,0,-21.288,64.152,1,1,3.11,3.11,-0.1,0
-0.0018979,0.018723,0,-0.52511,0.26387,-0.24907,0,0,-0.52511,0,-71.548,0.51835,0,0.65547,0,-21.282,64.13,1,1,3.115,3.115,-0.1,0
-0.0018995,0.018727,0,-0.52509,0.26474,-0.24985,0,0,-0.52509,0,-71.525,0.51636,0,0.653,0,-21.276,64.108,1,1,3.12,3.12,-0.1,0
-0.0019011,0.018732,0,-0.52507,0.26561,-0.25063,0,0,-0.52507,0,-71.502,0.51436,0,0.65053,0,-21.27,64.085,1,1,3.125,3.125,-0.1,0
-0.0019028,0.018736,0,-0.52506,0.26649,-0.25141,0,0,-0.52506,0,-71.479,0.51236,0,0.64806,0,-21.264,64.063,1,1,3.13,3.13,-0.1,0
-0.0019044,0.018741,0,-0.52504,0.26736,-0.25219,0,0,-0.52504,0,-71.456,0.51037,0,0.64559,0,-21.257,64.04,1,1,3.135,3.135,-0.1,0
-0.001906,0.018745,0,-0.52502,0.26823,-0.25297,0,0,-0.52502,0,-71.434,0.50837,0,0.64312,0,-21.251,64.018,1,1,3.14,3.14,-0.1,0
-0.0019077,0.018749,0,-0.525,0.26911,-0.25375,0,0,-0.525,0,-71.411,0.50637,0,0.64065,0,-21.245,63.996,1,1,3.145,3.145,-0.1,0
-0.0019093,0.018754,0,-0.52498,0.26998,-0.25453,0,0,-0.52498,0,-71.388,0.50438,0,0.63818,0,-21.239,63.973,1,1,3.15,3.15,-0.1,0
-0.0019109,0.018758,0,-0.52497,0.27085,-0.25531,0,0,-0.52497,0,-71.365,0.50238,0,0.63572,0,-21.233,63.951,1,1,3.155,3.155,-0.1,0
-0.0019126,0.018763,0,-0.52495,0.27173,-0.25608,0,0,-0.52495,0,-71.342,0.50038,0,0.63325,0,-21.227,63.929,1,1,3.16,3.16,-0.1,0
-0.0019142,0.018767,0,-0.52493,0.2726,-0.25686,0,0,-0.52493,0,-71.319,0.49838,0,0.63078,0,-21.221,63.906,1,1,3.165,3.165,-0.1,0
-0.0019158,0.018771,0,-0.52491,0.27347,-0.25764,0,0,-0.52491,0,-71.297,0.49639,0,0.62831,0,-21.215,63.884,1,1,3.17,3.17,-0.1,0
-0.0019174,0.018776,0,-0.5249,0.27434,-0.25842,0,0,-0.5249,0,-71.274,0.49439,0,0.62585,0,-21.208,63.862,1,1,3.175,3.175,-0.1,0
-0.0019191,0.01878,0,-0.52488,0.27522,-0.2592,0,0,-0.52488,0,-71.251,0.49239,0,0.62338,0,-21.202,63.839,1,1,3.18,3.18,-0.1,0
-0.0019207,0.018785,0,-0.52486,0.27609,-0.25998,0,0,-0.52486,0,-71.228,0.49039,0,0.62091,0,-21.196,63.817,1,1,3.185,3.185,-0.1,0
-0.0019223,0.018789,0,-0.52484,0.27696,-0.26076,0,0,-0.52484,0,-71.205,0.4884,0,0.61845,0,-21.19,63.794,1,1,3.19,3.19,-0.1,0
-0.001924,0.018793,0,-0.52483,0.27783,-0.26154,0,0,-0.52483,0,-71.182,0.4864,0,0.61598,0,-21.184,63.772,1,1,3.195,3.195,-0.1,0
-0.0019256,0.018798,0,-0.52481,0.27871,-0.26232,0,0,-0.52481,0,-71.16,0.4844,0,0.61351,0,-21.178,63.75,1,1,3.2,3.2,-0.1,0
-0.0019272,0.018802,0,-0.52479,0.27958,-0.2631,0,0,-0.52479,0,-71.137,0.4824,0,0.61105,0,-21.172,63.727,1,1,3.205,3.205,-0.1,0
-0.0019289,0.018807,0,-0.52477,0.28045,-0.26388,0,0,-0.52477,0,-71.114,0.4804,0,0.60858,0,-21.166,63.705,1,1,3.21,3.21,-0.1,0
-0.0019305,0.018811,0,-0.52476,0.28132,-0.26466,0,0,-0.52476,0,-71.091,0.4784,0,0.60612,0,-21.159,63.683,1,1,3.215,3.215,-0.1,0
-0.0019321,0.018815,0,-0.52474,0.2822,-0.26544,0,0,-0.52474,0,-71.068,0.4764,0,0.60365,0,-21.153,63.66,1,1,3.22,3.22,-0.1,0
-0.0019338,0.01882,0,-0.52472,0.28307,-0.26621,0,0,-0.52472,0,-71.045,0.4744,0,0.60119,0,-21.147,63.638,1,1,3.225,3.225,-0.1,0
-0.0019354,0.018824,0,-0.5247,0.28394,-0.26699,0,0,-0.5247,0,-71.022,0.4724,0,0.59873,0,-21.141,63.615,1,1,3.23,3.23,-0.1,0
-0.001937,0.018829,0,-0.52469,0.28481,-0.26777,0,0,-0.52469,0,-71,0.47041,0,0.59626,0,-21.135,63.593,1,1,3.235,3.235,-0.1,0
-0.0019387,0.018833,0,-0.52467,0.28569,-0.26855,0,0,-0.52467,0,-70.977,0.46841,0,0.5938,0,-21.129,63.571,1,1,3.24,3.24,-0.1,0
-0.0019403,0.018837,0,-0.52465,0.28656,-0.26933,0,0,-0.52465,0,-70.954,0.46641,0,0.59134,0,-21.123,63.548,1,1,3.245,3.245,-0.1,0
-0.0019419,0.018842,0,-0.52463,0.28743,-0.27011,0,0,-0.52463,0,-70.931,0.46441,0,0.58887,0,-21.117,63.526,1,1,3.25,3.25,-0.1,0
-0.0019436,0.018846,0,-0.52462,0.2883,-0.27089,0,0,-0.52462,0,-70.908,0.46241,0,0.58641,0,-21.11,63.503,1,1,3.255,3.255,-0.1,0
-0.0019452,0.018851,0,-0.5246,0.28917,-0.27167,0,0,-0.5246,0,-70.885,0.46041,0,0.58395,0,-21.104,63.481,1,1,3.26,3.26,-0.1,0
-0.0019468,0.018855,0,-0.52458,0.29005,-0.27244,0,0,-0.52458,0,-70.862,0.4584,0,0.58149,0,-21.098,63.459,1,1,3.265,3.265,-0.1,0
-0.0019485,0.018859,0,-0.52456,0.29092,-0.27322,0,0,-0.52456,0,-70.84,0.4564,0,0.57902,0,-21.092,63.436,1,1,3.27,3.27,-0.1,0
-0.0019501,0.018864,0,-0.52455,0.29179,-0.274,0,0,-0.52455,0,-70.817,0.4544,0,0.57656,0,-21.086,63.414,1,1,3.275,3.275,-0.1,0
-0.0019517,0.018868,0,-0.52453,0.29266,-0.27478,0,0,-0.52453,0,-70.794,0.4524,0,0.5741,0,-21.08,63.391,1,1,3.28,3.28,-0.1,0
-0.0019534,0.018873,0,-0.52451,0.29353,-0.27556,0,0,-0.52451,0,-70.771,0.4504,0,0.57164,0,-21.074,63.369,1,1,3.285,3.285,-0.1,0
-0.001955,0.018877,0,-0.52449,0.2944,-0.27633,0,0,-0.52449,0,-70.748,0.4484,0,0.56918,0,-21.068,63.347,1,1,3.29,3.29,-0.1,0
-0.0019566,0.018881,0,-0.52447,0.29528,-0.27711,0,0,-0.52447,0,-70.725,0.4464,0,0.56672,0,-21.061,63.324,1,1,3.295,3.295,-0.1,0
-0.0019582,0.018886,0,-0.52446,0.29615,-0.27789,0,0,-0.52446,0,-70.702,0.4444,0,0.56426,0,-21.055,63.302,1,1,3.3,3.3,-0.1,0
-0.0019599,0.01889,0,-0.52444,0.29702,-0.27867,0,0,-0.52444,0,-70.68,0.4424,0,0.5618,0,-21.049,63.279,1,1,3.305,3.305,-0.1,0
-0.0019615,0.018895,0,-0.52442,0.29789,-0.27945,0,0,-0.52442,0,-70.657,0.44039,0,0.55934,0,-21.043,63.257,1,1,3.31,3.31,-0.1,0
-0.0019631,0.018899,0,-0.5244,0.29876,-0.28023,0,0,-0.5244,0,-70.634,0.43839,0,0.55688,0,-21.037,63.235,1,1,3.315,3.315,-0.1,0
-0.0019648,0.018903,0,-0.52439,0.29963,-0.281,0,0,-0.52439,0,-70.611,0.43639,0,0.55442,0,-21.031,63.212,1,1,3.32,3.32,-0.1,0
-0.0019664,0.018908,0,-0.52437,0.3005,-0.28178,0,0,-0.52437,0,-70.588,0.43439,0,0.55196,0,-21.025,63.19,1,1,3.325,3.325,-0.1,0
-0.001968,0.018912,0,-0.52435,0.30137,-0.28256,0,0,-0.52435,0,-70.565,0.43239,0,0.54951,0,-21.018,63.167,1,1,3.33,3.33,-0.1,0
-0.0019697,0.018917,0,-0.52433,0.30224,-0.28334,0,0,-0.52433,0,-70.542,0.43038,0,0.54705,0,-21.012,63.145,1,1,3.335,3.335,-0.1,0
-0.0019713,0.018921,0,-0.52432,0.30312,-0.28411,0,0,-0.52432,0,-70.519,0.42838,0,0.54459,0,-21.006,63.123,1,1,3.34,3.34,-0.1,0
-0.0019729,0.018925,0,-0.5243,0.30399,-0.28489,0,0,-0.5243,0,-70.496,0.42638,0,0.54213,0,-21,63.1,1,1,3.345,3.345,-0.1,0
-0.0019746,0.01893,0,-0.52428,0.30486,-0.28567,0,0,-0.52428,0,-70.474,0.42438,0,0.53968,0,-20.994,63.078,1,1,3.35,3.35,-0.1,0
-0.0019762,0.018934,0,-0.52426,0.30573,-0.28645,0,0,-0.52426,0,-70.451,0.42237,0,0.53722,0,-20.988,63.055,1,1,3.355,3.355,-0.1,0
-0.0019778,0.018938,0,-0.52425,0.3066,-0.28722,0,0,-0.52425,0,-70.428,0.42037,0,0.53476,0,-20.982,63.033,1,1,3.36,3.36,-0.1,0
-0.0019795,0.018943,0,-0.52423,0.30747,-0.288,0,0,-0.52423,0,-70.405,0.41837,0,0.53231,0,-20.975,63.011,1,1,3.365,3.365,-0.1,0
-0.0019811,0.018947,0,-0.52421,0.30834,-0.28878,0,0,-0.52421,0,-70.382,0.41636,0,0.52985,0,-20.969,62.988,1,1,3.37,3.37,-0.1,0
-0.0019827,0.018952,0,-0.52419,0.30921,-0.28956,0,0,-0.52419,0,-70.359,0.41436,0,0.5274,0,-20.963,62.966,1,1,3.375,3.375,-0.1,0
-0.0019844,0.018956,0,-0.52418,0.31008,-0.29033,0,0,-0.52418,0,-70.336,0.41235,0,0.52494,0,-20.957,62.943,1,1,3.38,3.38,-0.1,0
-0.001986,0.01896,0,-0.52416,0.31095,-0.29111,0,0,-0.52416,0,-70.313,0.41035,0,0.52248,0,-20.951,62.921,1,1,3.385,3.385,-0.1,0
-0.0019876,0.018965,0,-0.52414,0.31182,-0.29189,0,0,-0.52414,0,-70.29,0.40835,0,0.52003,0,-20.945,62.898,1,1,3.39,3.39,-0.1,0
-0.0019892,0.018969,0,-0.52412,0.31277,-0.29272,0,0,-0.52412,0,-70.27,0.40689,0,0.518,0,-20.939,62.879,1,1,3.395,3.395,-0.1,0
-0.0019908,0.018973,0,-0.52411,0.31382,-0.29361,0,0,-0.52411,0,-70.253,0.40619,0,0.51655,0,-20.935,62.863,1,1,3.4,3.4,-0.1,0
-0.0019924,0.018977,0,-0.52409,0.31488,-0.29451,0,0,-0.52409,0,-70.237,0.40549,0,0.51509,0,-20.93,62.847,1,1,3.405,3.405,-0.1,0
-0.001994,0.018981,0,-0.52408,0.31593,-0.2954,0,0,-0.52408,0,-70.22,0.40479,0,0.51364,0,-20.926,62.831,1,1,3.41,3.41,-0.1,0
-0.0019956,0.018985,0,-0.52406,0.31698,-0.2963,0,0,-0.52406,0,-70.203,0.40409,0,0.51219,0,-20.921,62.815,1,1,3.415,3.415,-0.1,0
-0.0019971,0.018989,0,-0.52404,0.31804,-0.29719,0,0,-0.52404,0,-70.187,0.40339,0,0.51074,0,-20.916,62.799,1,1,3.42,3.42,-0.1,0
-0.0019987,0.018993,0,-0.52403,0.31909,-0.29809,0,0,-0.52403,0,-70.17,0.40268,0,0.50928,0,-20.912,62.783,1,1,3.425,3.425,-0.1,0
-0.0020003,0.018997,0,-0.52401,0.32015,-0.29898,0,0,-0.52401,0,-70.153,0.40198,0,0.50783,0,-20.907,62.767,1,1,3.43,3.43,-0.1,0
-0.0020019,0.019001,0,-0.524,0.3212,-0.29988,0,0,-0.524,0,-70.137,0.40128,0,0.50638,0,-20.903,62.751,1,1,3.435,3.435,-0.1,0
-0.0020035,0.019005,0,-0.52398,0.32225,-0.30077,0,0,-0.52398,0,-70.12,0.40058,0,0.50493,0,-20.898,62.734,1,1,3.44,3.44,-0.1,0
-0.002005,0.019009,0,-0.52397,0.32331,-0.30167,0,0,-0.52397,0,-70.103,0.39988,0,0.50348,0,-20.893,62.718,1,1,3.445,3.445,-0.1,0
-0.0020066,0.019012,0,-0.52395,0.32436,-0.30256,0,0,-0.52395,0,-70.087,0.39917,0,0.50202,0,-20.889,62.702,1,1,3.45,3.45,-0.1,0
-0.0020082,0.019016,0,-0.52393,0.32541,-0.30346,0,0,-0.52393,0,-70.07,0.39847,0,0.50057,0,-20.884,62.686,1,1,3.455,3.455,-0.1,0
-0.0020098,0.01902,0,-0.52392,0.32647,-0.30435,0,0,-0.52392,0,-70.053,0.39777,0,0.49912,0,-20.88,62.67,1,1,3.46,3.46,-0.1,0
-0.0020114,0.019024,0,-0.5239,0.32752,-0.30525,0,0,-0.5239,0,-70.036,0.39707,0,0.49767,0,-20.875,62.654,1,1,3.465,3.465,-0.1,0
-0.0020129,0.019028,0,-0.52389,0.32857,-0.30614,0,0,-0.52389,0,-70.02,0.39636,0,0.49622,0,-20.871,62.638,1,1,3.47,3.47,-0.1,0
-0.0020145,0.019032,0,-0.52387,0.32962,-0.30704,0,0,-0.52387,0,-70.003,0.39566,0,0.49477,0,-20.866,62.622,1,1,3.475,3.475,-0.1,0
-0.0020161,0.019036,0,-0.52386,0.33068,-0.30793,0,0,-0.52386,0,-69.986,0.39496,0,0.49332,0,-20.861,62.606,1,1,3.48,3.48,-0.1,0
-0.0020177,0.01904,0,-0.52384,0.33173,-0.30882,0,0,-0.52384,0,-69.97,0.39425,0,0.49187,0,-20.857,62.59,1,1,3.485,3.485,-0.1,0
-0.0020193,0.019044,0,-0.52382,0.33278,-0.30972,0,0,-0.52382,0,-69.953,0.39355,0,0.49042,0,-20.852,62.574,1,1,3.49,3.49,-0.1,0
-0.0020208,0.019048,0,-0.52381,0.33384,-0.31061,0,0,-0.52381,0,-69.936,0.39285,0,0.48897,0,-20.848,62.558,1,1,3.495,3.495,-0.1,0
-0.0020224,0.019052,0,-0.52379,0.33489,-0.31151,0,0,-0.52379,0,-69.92,0.39215,0,0.48752,0,-20.843,62.542,1,1,3.5,3.5,-0.1,0
-0.002024,0.019056,0,-0.52378,0.33594,-0.3124,0,0,-0.52378,0,-69.903,0.39144,0,0.48607,0,-20.838,62.526,1,1,3.505,3.505,-0.1,0
-0.0020256,0.01906,0,-0.52376,0.33699,-0.3133,0,0,-0.52376,0,-69.886,0.39074,0,0.48462,0,-20.834,62.51,1,1,3.51,3.51,-0.1,0
-0.0020272,0.019064,0,-0.52375,0.33805,-0.31419,0,0,-0.52375,0,-69.869,0.39004,0,0.48317,0,-20.829,62.494,1,1,3.515,3.515,-0.1,0
-0.0020287,0.019068,0,-0.52373,0.3391,-0.31508,0,0,-0.52373,0,-69.853,0.38933,0,0.48172,0,-20.825,62.478,1,1,3.52,3.52,-0.1,0
-0.0020303,0.019072,0,-0.52371,0.34015,-0.31598,0,0,-0.52371,0,-69.836,0.38863,0,0.48027,0,-20.82,62.462,1,1,3.525,3.525,-0.1,0
-0.0020319,0.019076,0,-0.5237,0.3412,-0.31687,0,0,-0.5237,0,-69.819,0.38792,0,0.47882,0,-20.816,62.446,1,1,3.53,3.53,-0.1,0
-0.0020335,0.01908,0,-0.52368,0.34225,-0.31777,0,0,-0.52368,0,-69.803,0.38722,0,0.47737,0,-20.811,62.43,1,1,3.535,3.535,-0.1,0
-0.0020351,0.019083,0,-0.52367,0.34331,-0.31866,0,0,-0.52367,0,-69.786,0.38652,0,0.47592,0,-20.806,62.414,1,1,3.54,3.54,-0.1,0
-0.0020366,0.019087,0,-0.52365,0.34436,-0.31955,0,0,-0.52365,0,-69.769,0.38581,0,0.47447,0,-20.802,62.398,1,1,3.545,3.545,-0.1,0
-0.0020382,0.019091,0,-0.52363,0.34541,-0.32045,0,0,-0.52363,0,-69.752,0.38511,0,0.47302,0,-20.797,62.382,1,1,3.55,3.55,-0.1,0
-0.0020398,0.019095,0,-0.52362,0.34646,-0.32134,0,0,-0.52362,0,-69.736,0.38441,0,0.47158,0,-20.793,62.365,1,1,3.555,3.555,-0.1,0
-0.0020414,0.019099,0,-0.5236,0.34751,-0.32224,0,0,-0.5236,0,-69.719,0.3837,0,0.47013,0,-20.788,62.349,1,1,3.56,3.56,-0.1,0
-0.002043,0.019103,0,-0.52359,0.34857,-0.32313,0,0,-0.52359,0,-69.702,0.383,0,0.46868,0,-20.783,62.333,1,1,3.565,3.565,-0.1,0
-0.0020445,0.019107,0,-0.52357,0.34962,-0.32402,0,0,-0.52357,0,-69.686,0.38229,0,0.46723,0,-20.779,62.317,1,1,3.57,3.57,-0.1,0
-0.0020461,0.019111,0,-0.52356,0.35067,-0.32492,0,0,-0.52356,0,-69.669,0.38159,0,0.46578,0,-20.774,62.301,1,1,3.575,3.575,-0.1,0
-0.0020477,0.019115,0,-0.52354,0.35172,-0.32581,0,0,-0.52354,0,-69.652,0.38088,0,0.46434,0,-20.77,62.285,1,1,3.58,3.58,-0.1,0
-0.0020493,0.019119,0,-0.52352,0.35277,-0.3267,0,0,-0.52352,0,-69.635,0.38018,0,0.46289,0,-20.765,62.269,1,1,3.585,3.585,-0.1,0
-0.0020509,0.019123,0,-0.52351,0.35382,-0.3276,0,0,-0.52351,0,-69.619,0.37948,0,0.46144,0,-20.761,62.253,1,1,3.59,3.59,-0.1,0
-0.0020524,0.019127,0,-0.52349,0.35488,-0.32849,0,0,-0.52349,0,-69.602,0.37877,0,0.45999,0,-20.756,62.237,1,1,3.595,3.595,-0.1,0
-0.002054,0.019131,0,-0.52348,0.35593,-0.32938,0,0,-0.52348,0,-69.585,0.37807,0,0.45855,0,-20.751,62.221,1,1,3.6,3.6,-0.1,0
-0.0020556,0.019135,0,-0.52346,0.35698,-0.33028,0,0,-0.52346,0,-69.569,0.37736,0,0.4571,0,-20.747,62.205,1,1,3.605,3.605,-0.1,0
-0.0020572,0.019139,0,-0.52345,0.35803,-0.33117,0,0,-0.52345,0,-69.552,0.37666,0,0.45565,0,-20.742,62.189,1,1,3.61,3.61,-0.1,0
-0.0020588,0.019143,0,-0.52343,0.35908,-0.33206,0,0,-0.52343,0,-69.535,0.37595,0,0.45421,0,-20.738,62.173,1,1,3.615,3.615,-0.1,0
-0.0020603,0.019147,0,-0.52341,0.36013,-0.33296,0,0,-0.52341,0,-69.518,0.37525,0,0.45276,0,-20.733,62.157,1,1,3.62,3.62,-0.1,0
-0.0020619,0.01915,0,-0.5234,0.36118,-0.33385,0,0,-0.5234,0,-69.502,0.37454,0,0.45131,0,-20.728,62.141,1,1,3.625,3.625,-0.1,0
-0.0020635,0.019154,0,-0.52338,0.36223,-0.33474,0,0,-0.52338,0,-69.485,0.37384,0,0.44987,0,-20.724,62.125,1,1,3.63,3.63,-0.1,0
-0.0020651,0.019158,0,-0.52337,0.36328,-0.33563,0,0,-0.52337,0,-69.468,0.37313,0,0.44842,0,-20.719,62.109,1,1,3.635,3.635,-0.1,0
-0.0020667,0.019162,0,-0.52335,0.36434,-0.33653,0,0,-0.52335,0,-69.451,0.37243,0,0.44698,0,-20.715,62.092,1,1,3.64,3.64,-0.1,0
-0.0020682,0.019166,0,-0.52333,0.36539,-0.33742,0,0,-0.52333,0,-69.435,0.37172,0,0.44553,0,-20.71,62.076,1,1,3.645,3.645,-0.1,0
-0.0020698,0.01917,0,-0.52332,0.36644,-0.33831,0,0,-0.52332,0,-69.418,0.37101,0,0.44408,0,-20.705,62.06,1,1,3.65,3.65,-0.1,0
-0.0020714,0.019174,0,-0.5233,0.36749,-0.33921,0,0,-0.5233,0,-69.401,0.37031,0,0.44264,0,-20.701,62.044,1,1,3.655,3.655,-0.1,0
-0.002073,0.019178,0,-0.52329,0.36854,-0.3401,0,0,-0.52329,0,-69.384,0.3696,0,0.44119,0,-20.696,62.028,1,1,3.66,3.66,-0.1,0
-0.0020746,0.019182,0,-0.52327,0.36959,-0.34099,0,0,-0.52327,0,-69.368,0.3689,0,0.43975,0,-20.692,62.012,1,1,3.665,3.665,-0.1,0
-0.0020761,0.019186,0,-0.52326,0.37064,-0.34188,0,0,-0.52326,0,-69.351,0.36819,0,0.4383,0,-20.687,61.996,1,1,3.67,3.67,-0.1,0
-0.0020777,0.01919,0,-0.52324,0.37169,-0.34278,0,0,-0.52324,0,-69.334,0.36749,0,0.43686,0,-20.682,61.98,1,1,3.675,3.675,-0.1,0
-0.0020793,0.019194,0,-0.52322,0.37274,-0.34367,0,0,-0.52322,0,-69.318,0.36678,0,0.43541,0,-20.678,61.964,1,1,3.68,3.68,-0.1,0
-0.0020809,0.019198,0,-0.52321,0.37379,-0.34456,0,0,-0.52321,0,-69.301,0.36607,0,0.43397,0,-20.673,61.948,1,1,3.685,3.685,-0.1,0
-0.0020825,0.019202,0,-0.52319,0.37484,-0.34545,0,0,-0.52319,0,-69.284,0.36537,0,0.43252,0,-20.669,61.932,1,1,3.69,3.69,-0.1,0
-0.002084,0.019206,0,-0.52318,0.37589,-0.34634,0,0,-0.52318,0,-69.267,0.36466,0,0.43108,0,-20.664,61.916,1,1,3.695,3.695,-0.1,0
-0.0020856,0.01921,0,-0.52316,0.37694,-0.34724,0,0,-0.52316,0,-69.251,0.36395,0,0.42964,0,-20.66,61.9,1,1,3.7,3.7,-0.1,0
-0.0020872,0.019214,0,-0.52315,0.37799,-0.34813,0,0,-0.52315,0,-69.234,0.36325,0,0.42819,0,-20.655,61.884,1,1,3.705,3.705,-0.1,0
-0.0020888,0.019218,0,-0.52313,0.37904,-0.34902,0,0,-0.52313,0,-69.217,0.36254,0,0.42675,0,-20.65,61.868,1,1,3.71,3.71,-0.1,0
-0.0020904,0.019221,0,-0.52311,0.38009,-0.34991,0,0,-0.52311,0,-69.2,0.36184,0,0.42531,0,-20.646,61.851,1,1,3.715,3.715,-0.1,0
-0.0020919,0.019225,0,-0.5231,0.38114,-0.3508,0,0,-0.5231,0,-69.184,0.36113,0,0.42386,0,-20.641,61.835,1,1,3.72,3.72,-0.1,0
-0.0020935,0.019229,0,-0.52308,0.38219,-0.3517,0,0,-0.52308,0,-69.167,0.36042,0,0.42242,0,-20.637,61.819,1,1,3.725,3.725,-0.1,0
-0.0020951,0.019233,0,-0.52307,0.38324,-0.35259,0,0,-0.52307,0,-69.15,0.35972,0,0.42098,0,-20.632,61.803,1,1,3.73,3.73,-0.1,0
-0.0020967,0.019237,0,-0.52305,0.38429,-0.35348,0,0,-0.52305,0,-69.133,0.35901,0,0.41953,0,-20.627,61.787,1,1,3.735,3.735,-0.1,0
-0.0020983,0.019241,0,-0.52304,0.38534,-0.35437,0,0,-0.52304,0,-69.117,0.3583,0,0.41809,0,-20.623,61.771,1,1,3.74,3.74,-0.1,0
-0.0020998,0.019245,0,-0.52302,0.38639,-0.35526,0,0,-0.52302,0,-69.1,0.35759,0,0.41665,0,-20.618,61.755,1,1,3.745,3.745,-0.1,0
-0.0021014,0.019249,0,-0.523,0.38744,-0.35616,0,0,-0.523,0,-69.083,0.35689,0,0.4152,0,-20.614,61.739,1,1,3.75,3.75,-0.1,0
-0.002103,0.019253,0,-0.52299,0.38849,-0.35705,0,0,-0.52299,0,-69.066,0.35618,0,0.41376,0,-20.609,61.723,1,1,3.755,3.755,-0.1,0
-0.0021046,0.019257,0,-0.52297,0.38954,-0.35794,0,0,-0.52297,0,-69.05,0.35547,0,0.41232,0,-20.604,61.707,1,1,3.76,3.76,-0.1,0
-0.0021062,0.019261,0,-0.52296,0.39059,-0.35883,0,0,-0.52296,0,-69.033,0.35477,0,0.41088,0,-20.6,61.691,1,1,3.765,3.765,-0.1,0
-0.0021077,0.019265,0,-0.52294,0.39163,-0.35972,0,0,-0.52294,0,-69.016,0.35406,0,0.40944,0,-20.595,61.675,1,1,3.77,3.77,-0.1,0
-0.0021093,0.019269,0,-0.52292,0.39268,-0.36061,0,0,-0.52292,0,-68.999,0.35335,0,0.40799,0,-20.591,61.659,1,1,3.775,3.775,-0.1,0
-0.0021109,0.019273,0,-0.52291,0.39373,-0.3615,0,0,-0.52291,0,-68.983,0.35264,0,0.40655,0,-20.586,61.643,1,1,3.78,3.78,-0.1,0
-0.0021125,0.019277,0,-0.52289,0.39478,-0.3624,0,0,-0.52289,0,-68.966,0.35194,0,0.40511,0,-20.581,61.626,1,1,3.785,3.785,-0.1,0
-0.0021141,0.019281,0,-0.52288,0.39583,-0.36329,0,0,-0.52288,0,-68.949,0.35123,0,0.40367,0,-20.577,61.61,1,1,3.79,3.79,-0.1,0
-0.0021156,0.019285,0,-0.52286,0.39688,-0.36418,0,0,-0.52286,0,-68.932,0.35052,0,0.40223,0,-20.572,61.594,1,1,3.795,3.795,-0.1,0
-0.0021172,0.019288,0,-0.52285,0.39793,-0.36507,0,0,-0.52285,0,-68.916,0.34981,0,0.40079,0,-20.568,61.578,1,1,3.8,3.8,-0.1,0
-0.0021188,0.019292,0,-0.52283,0.39898,-0.36596,0,0,-0.52283,0,-68.899,0.3491,0,0.39935,0,-20.563,61.562,1,1,3.805,3.805,-0.1,0
-0.0021204,0.019296,0,-0.52281,0.40003,-0.36685,0,0,-0.52281,0,-68.882,0.3484,0,0.39791,0,-20.558,61.546,1,1,3.81,3.81,-0.1,0
-0.002122,0.0193,0,-0.5228,0.40107,-0.36774,0,0,-0.5228,0,-68.865,0.34769,0,0.39646,0,-20.554,61.53,1,1,3.815,3.815,-0.1,0
-0.0021235,0.019304,0,-0.52278,0.40212,-0.36863,0,0,-0.52278,0,-68.849,0.34698,0,0.39502,0,-20.549,61.514,1,1,3.82,3.82,-0.1,0
-0.0021251,0.019308,0,-0.52277,0.40317,-0.36952,0,0,-0.52277,0,-68.832,0.34627,0,0.39358,0,-20.545,61.498,1,1,3.825,3.825,-0.1,0
-0.0021267,0.019312,0,-0.52275,0.40422,-0.37041,0,0,-0.52275,0,-68.815,0.34556,0,0.39214,0,-20.54,61.482,1,1,3.83,3.83,-0.1,0
-0.0021283,0.019316,0,-0.52274,0.40527,-0.3713,0,0,-0.52274,0,-68.798,0.34485,0,0.3907,0,-20.535,61.466,1,1,3.835,3.835,-0.1,0
-0.0021299,0.01932,0,-0.52272,0.40632,-0.3722,0,0,-0.52272,0,-68.782,0.34415,0,0.38926,0,-20.531,61.449,1,1,3.84,3.84,-0.1,0
-0.0021314,0.019324,0,-0.5227,0.40736,-0.37309,0,0,-0.5227,0,-68.765,0.34344,0,0.38782,0,-20.526,61.433,1,1,3.845,3.845,-0.1,0
-0.002133,0.019328,0,-0.52269,0.40841,-0.37398,0,0,-0.52269,0,-68.748,0.34273,0,0.38638,0,-20.522,61.417,1,1,3.85,3.85,-0.1,0
-0.0021346,0.019332,0,-0.52267,0.40946,-0.37487,0,0,-0.52267,0,-68.731,0.34202,0,0.38495,0,-20.517,61.401,1,1,3.855,3.855,-0.1,0
-0.0021362,0.019336,0,-0.52266,0.41051,-0.37576,0,0,-0.52266,0,-68.714,0.34131,0,0.38351,0,-20.512,61.385,1,1,3.86,3.86,-0.1,0
-0.0021378,0.01934,0,-0.52264,0.41156,-0.37665,0,0,-0.52264,0,-68.698,0.3406,0,0.38207,0,-20.508,61.369,1,1,3.865,3.865,-0.1,0
-0.0021393,0.019344,0,-0.52263,0.4126,-0.37754,0,0,-0.52263,0,-68.681,0.33989,0,0.38063,0,-20.503,61.353,1,1,3.87,3.87,-0.1,0
-0.0021409,0.019348,0,-0.52261,0.41365,-0.37843,0,0,-0.52261,0,-68.664,0.33918,0,0.37919,0,-20.498,61.337,1,1,3.875,3.875,-0.1,0
-0.0021425,0.019352,0,-0.52259,0.4147,-0.37932,0,0,-0.52259,0,-68.647,0.33848,0,0.37775,0,-20.494,61.321,1,1,3.88,3.88,-0.1,0
-0.0021441,0.019356,0,-0.52258,0.41575,-0.38021,0,0,-0.52258,0,-68.631,0.33777,0,0.37631,0,-20.489,61.305,1,1,3.885,3.885,-0.1,0
-0.0021457,0.019359,0,-0.52256,0.41679,-0.3811,0,0,-0.52256,0,-68.614,0.33706,0,0.37487,0,-20.485,61.289,1,1,3.89,3.89,-0.1,0
-0.0021472,0.019363,0,-0.52255,0.41784,-0.38199,0,0,-0.52255,0,-68.597,0.33635,0,0.37344,0,-20.48,61.272,1,1,3.895,3.895,-0.1,0
-0.0021488,0.019367,0,-0.52253,0.41889,-0.38288,0,0,-0.52253,0,-68.58,0.33564,0,0.372,0,-20.475,61.256,1,1,3.9,3.9,-0.1,0
-0.0021504,0.019371,0,-0.52251,0.41994,-0.38377,0,0,-0.52251,0,-68.564,0.33493,0,0.37056,0,-20.471,61.24,1,1,3.905,3.905,-0.1,0
-0.002152,0.019375,0,-0.5225,0.42098,-0.38466,0,0,-0.5225,0,-68.547,0.33422,0,0.36912,0,-20.466,61.224,1,1,3.91,3.91,-0.1,0
-0.0021536,0.019379,0,-0.52248,0.42203,-0.38555,0,0,-0.52248,0,-68.53,0.33351,0,0.36768,0,-20.462,61.208,1,1,3.915,3.915,-0.1,0
-0.0021552,0.019383,0,-0.52247,0.42308,-0.38644,0,0,-0.52247,0,-68.513,0.3328,0,0.36625,0,-20.457,61.192,1,1,3.92,3.92,-0.1,0
-0.0021567,0.019387,0,-0.52245,0.42413,-0.38733,0,0,-0.52245,0,-68.496,0.33209,0,0.36481,0,-20.452,61.176,1,1,3.925,3.925,-0.1,0
-0.0021583,0.019391,0,-0.52244,0.42517,-0.38822,0,0,-0.52244,0,-68.48,0.33138,0,0.36337,0,-20.448,61.16,1,1,3.93,3.93,-0.1,0
-0.0021599,0.019395,0,-0.52242,0.42622,-0.38911,0,0,-0.52242,0,-68.463,0.33067,0,0.36194,0,-20.443,61.144,1,1,3.935,3.935,-0.1,0
-0.0021615,0.019399,0,-0.5224,0.42727,-0.39,0,0,-0.5224,0,-68.446,0.32996,0,0.3605,0,-20.439,61.128,1,1,3.94,3.94,-0.1,0
-0.0021631,0.019403,0,-0.52239,0.42831,-0.39089,0,0,-0.52239,0,-68.429,0.32925,0,0.35906,0,-20.434,61.112,1,1,3.945,3.945,-0.1,0
-0.0021646,0.019407,0,-0.52237,0.42936,-0.39178,0,0,-0.52237,0,-68.413,0.32854,0,0.35763,0,-20.429,61.095,1,1,3.95,3.95,-0.1,0
-0.0021662,0.019411,0,-0.52236,0.43041,-0.39266,0,0,-0.52236,0,-68.396,0.32783,0,0.35619,0,-20.425,61.079,1,1,3.955,3.955,-0.1,0
-0.0021678,0.019415,0,-0.52234,0.43145,-0.39355,0,0,-0.52234,0,-68.379,0.32712,0,0.35475,0,-20.42,61.063,1,1,3.96,3.96,-0.1,0
-0.0021694,0.019419,0,-0.52233,0.4325,-0.39444,0,0,-0.52233,0,-68.362,0.32641,0,0.35332,0,-20.416,61.047,1,1,3.965,3.965,-0.1,0
-0.002171,0.019423,0,-0.52231,0.43355,-0.39533,0,0,-0.52231,0,-68.345,0.3257,0,0.35188,0,-20.411,61.031,1,1,3.97,3.97,-0.1,0
-0.0021725,0.019427,0,-0.52229,0.43459,-0.39622,0,0,-0.52229,0,-68.329,0.32499,0,0.35045,0,-20.406,61.015,1,1,3.975,3.975,-0.1,0
-0.0021741,0.01943,0,-0.52228,0.43564,-0.39711,0,0,-0.52228,0,-68.312,0.32428,0,0.34901,0,-20.402,60.999,1,1,3.98,3.98,-0.1,0
-0.0021757,0.019434,0,-0.52226,0.43681,-0.39806,0,0,-0.52226,0,-68.297,0.32377,0,0.34785,0,-20.398,60.985,1,1,3.985,3.985,-0.1,0
-0.0021772,0.019438,0,-0.52225,0.43807,-0.39906,0,0,-0.52225,0,-68.284,0.32344,0,0.3469,0,-20.394,60.972,1,1,3.99,3.99,-0.1,0
-0.0021787,0.019441,0,-0.52223,0.43934,-0.40006,0,0,-0.52223,0,-68.27,0.3231,0,0.34595,0,-20.39,60.959,1,1,3.995,3.995,-0.1,0
-0.0021803,0.019445,0,-0.52222,0.4406,-0.40107,0,0,-0.52222,0,-68.257,0.32276,0,0.34501,0,-20.386,60.947,1,1,4,4,-0.1,0
-0.0021818,0.019449,0,-0.52221,0.44186,-0.40207,0,0,-0.52221,0,-68.244,0.32242,0,0.34406,0,-20.383,60.934,1,1,4.005,4.005,-0.1,0
-0.0021834,0.019452,0,-0.52219,0.44312,-0.40307,0,0,-0.52219,0,-68.23,0.32208,0,0.34311,0,-20.379,60.921,1,1,4.01,4.01,-0.1,0
-0.0021849,0.019456,0,-0.52218,0.44439,-0.40407,0,0,-0.52218,0,-68.217,0.32175,0,0.34217,0,-20.375,60.909,1,1,4.015,4.015,-0.1,0
-0.0021864,0.01946,0,-0.52216,0.44565,-0.40507,0,0,-0.52216,0,-68.203,0.32141,0,0.34122,0,-20.371,60.896,1,1,4.02,4.02,-0.1,0
-0.002188,0.019463,0,-0.52215,0.44691,-0.40607,0,0,-0.52215,0,-68.19,0.32107,0,0.34027,0,-20.368,60.883,1,1,4.025,4.025,-0.1,0
-0.0021895,0.019467,0,-0.52213,0.44817,-0.40707,0,0,-0.52213,0,-68.177,0.32073,0,0.33933,0,-20.364,60.871,1,1,4.03,4.03,-0.1,0
-0.002191,0.01947,0,-0.52212,0.44944,-0.40807,0,0,-0.52212,0,-68.163,0.32039,0,0.33838,0,-20.36,60.858,1,1,4.035,4.035,-0.1,0
-0.0021926,0.019474,0,-0.5221,0.4507,-0.40907,0,0,-0.5221,0,-68.15,0.32005,0,0.33743,0,-20.357,60.846,1,1,4.04,4.04,-0.1,0
-0.0021941,0.019478,0,-0.52209,0.45196,-0.41007,0,0,-0.52209,0,-68.137,0.31971,0,0.33649,0,-20.353,60.833,1,1,4.045,4.045,-0.1,0
-0.0021957,0.019481,0,-0.52208,0.45322,-0.41107,0,0,-0.52208,0,-68.123,0.31938,0,0.33554,0,-20.349,60.82,1,1,4.05,4.05,-0.1,0
-0.0021972,0.019485,0,-0.52206,0.45449,-0.41207,0,0,-0.52206,0,-68.11,0.31904,0,0.33459,0,-20.345,60.808,1,1,4.055,4.055,-0.1,0
-0.0021987,0.019488,0,-0.52205,0.45575,-0.41307,0,0,-0.52205,0,-68.097,0.3187,0,0.33365,0,-20.342,60.795,1,1,4.06,4.06,-0.1,0
-0.0022003,0.019492,0,-0.52203,0.45701,-0.41407,0,0,-0.52203,0,-68.083,0.31836,0,0.3327,0,-20.338,60.782,1,1,4.065,4.065,-0.1,0
-0.0022018,0.019496,0,-0.52202,0.45827,-0.41507,0,0,-0.52202,0,-68.07,0.31802,0,0.33175,0,-20.334,60.77,1,1,4.07,4.07,-0.1,0
-0.0022033,0.019499,0,-0.522,0.45953,-0.41607,0,0,-0.522,0,-68.057,0.31768,0,0.33081,0,-20.33,60.757,1,1,4.075,4.075,-0.1,0
-0.0022049,0.019503,0,-0.52199,0.4608,-0.41707,0,0,-0.52199,0,-68.043,0.31734,0,0.32986,0,-20.327,60.744,1,1,4.08,4.08,-0.1,0
-0.0022064,0.019507,0,-0.52197,0.46206,-0.41807,0,0,-0.52197,0,-68.03,0.31701,0,0.32892,0,-20.323,60.732,1,1,4.085,4.085,-0.1,0
-0.0022079,0.01951,0,-0.52196,0.46332,-0.41907,0,0,-0.52196,0,-68.016,0.31667,0,0.32797,0,-20.319,60.719,1,1,4.09,4.09,-0.1,0
-0.0022095,0.019514,0,-0.52194,0.46458,-0.42007,0,0,-0.52194,0,-68.003,0.31633,0,0.32702,0,-20.316,60.706,1,1,4.095,4.095,-0.1,0
-0.002211,0.019517,0,-0.52193,0.46584,-0.42107,0,0,-0.52193,0,-67.99,0.31599,0,0.32608,0,-20.312,60.694,1,1,4.1,4.1,-0.1,0
-0.0022126,0.019521,0,-0.52192,0.4671,-0.42206,0,0,-0.52192,0,-67.976,0.31565,0,0.32513,0,-20.308,60.681,1,1,4.105,4.105,-0.1,0
-0.0022141,0.019525,0,-0.5219,0.46837,-0.42306,0,0,-0.5219,0,-67.963,0.31531,0,0.32419,0,-20.304,60.668,1,1,4.11,4.11,-0.1,0
-0.0022156,0.019528,0,-0.52189,0.46963,-0.42406,0,0,-0.52189,0,-67.95,0.31497,0,0.32324,0,-20.301,60.656,1,1,4.115,4.115,-0.1,0
-0.0022172,0.019532,0,-0.52187,0.47089,-0.42506,0,0,-0.52187,0,-67.936,0.31463,0,0.3223,0,-20.297,60.643,1,1,4.12,4.12,-0.1,0
-0.0022187,0.019535,0,-0.52186,0.47215,-0.42606,0,0,-0.52186,0,-67.923,0.31429,0,0.32135,0,-20.293,60.631,1,1,4.125,4.125,-0.1,0
-0.0022202,0.019539,0,-0.52184,0.47341,-0.42706,0,0,-0.52184,0,-67.909,0.31395,0,0.32041,0,-20.289,60.618,1,1,4.13,4.13,-0.1,0
-0.0022218,0.019543,0,-0.52183,0.47467,-0.42806,0,0,-0.52183,0,-67.896,0.31362,0,0.31946,0,-20.286,60.605,1,1,4.135,4.135,-0.1,0
-0.0022233,0.019546,0,-0.52181,0.47593,-0.42906,0,0,-0.52181,0,-67.883,0.31328,0,0.31852,0,-20.282,60.593,1,1,4.14,4.14,-0.1,0
-0.0022249,0.01955,0,-0.5218,0.47719,-0.43006,0,0,-0.5218,0,-67.869,0.31294,0,0.31757,0,-20.278,60.58,1,1,4.145,4.145,-0.1,0
-0.0022264,0.019554,0,-0.52179,0.47845,-0.43106,0,0,-0.52179,0,-67.856,0.3126,0,0.31663,0,-20.274,60.567,1,1,4.15,4.15,-0.1,0
-0.0022279,0.019557,0,-0.52177,0.47971,-0.43206,0,0,-0.52177,0,-67.843,0.31226,0,0.31568,0,-20.271,60.555,1,1,4.155,4.155,-0.1,0
-0.0022295,0.019561,0,-0.52176,0.48097,-0.43305,0,0,-0.52176,0,-67.829,0.31192,0,0.31474,0,-20.267,60.542,1,1,4.16,4.16,-0.1,0
-0.002231,0.019564,0,-0.52174,0.48224,-0.43405,0,0,-0.52174,0,-67.816,0.31158,0,0.31379,0,-20.263,60.529,1,1,4.165,4.165,-0.1,0
-0.0022325,0.019568,0,-0.52173,0.4835,-0.43505,0,0,-0.52173,0,-67.802,0.31124,0,0.31285,0,-20.26,60.517,1,1,4.17,4.17,-0.1,0
-0.0022341,0.019572,0,-0.52171,0.48476,-0.43605,0,0,-0.52171,0,-67.789,0.3109,0,0.3119,0,-20.256,60.504,1,1,4.175,4.175,-0.1,0
-0.0022356,0.019575,0,-0.5217,0.48602,-0.43705,0,0,-0.5217,0,-67.776,0.31056,0,0.31096,0,-20.252,60.491,1,1,4.18,4.18,-0.1,0
-0.0022372,0.019579,0,-0.52168,0.48728,-0.43805,0,0,-0.52168,0,-67.762,0.31022,0,0.31002,0,-20.248,60.479,1,1,4.185,4.185,-0.1,0
-0.0022387,0.019582,0,-0.52167,0.48854,-0.43905,0,0,-0.52167,0,-67.749,0.30988,0,0.30907,0,-20.245,60.466,1,1,4.19,4.19,-0.1,0
-0.0022402,0.019586,0,-0.52166,0.4898,-0.44005,0,0,-0.52166,0,-67.736,0.30954,0,0.30813,0,-20.241,60.453,1,1,4.195,4.195,-0.1,0
-0.0022418,0.01959,0,-0.52164,0.49106,-0.44104,0,0,-0.52164,0,-67.722,0.3092,0,0.30718,0,-20.237,60.441,1,1,4.2,4.2,-0.1,0
-0.0022433,0.019593,0,-0.52163,0.49232,-0.44204,0,0,-0.52163,0,-67.709,0.30887,0,0.30624,0,-20.233,60.428,1,1,4.205,4.205,-0.1,0
-0.0022448,0.019597,0,-0.52161,0.49358,-0.44304,0,0,-0.52161,0,-67.695,0.30853,0,0.3053,0,-20.23,60.415,1,1,4.21,4.21,-0.1,0
-0.0022464,0.019601,0,-0.5216,0.49484,-0.44404,0,0,-0.5216,0,-67.682,0.30819,0,0.30435,0,-20.226,60.403,1,1,4.215,4.215,-0.1,0
-0.0022479,0.019604,0,-0.52158,0.4961,-0.44504,0,0,-0.52158,0,-67.669,0.30785,0,0.30341,0,-20.222,60.39,1,1,4.22,4.22,-0.1,0
-0.0022494,0.019608,0,-0.52157,0.49736,-0.44603,0,0,-0.52157,0,-67.655,0.30751,0,0.30247,0,-20.218,60.377,1,1,4.225,4.225,-0.1,0
-0.002251,0.019611,0,-0.52155,0.49862,-0.44703,0,0,-0.52155,0,-67.642,0.30717,0,0.30152,0,-20.215,60.365,1,1,4.23,4.23,-0.1,0
-0.0022525,0.019615,0,-0.52154,0.49988,-0.44803,0,0,-0.52154,0,-67.629,0.30683,0,0.30058,0,-20.211,60.352,1,1,4.235,4.235,-0.1,0
-0.0022541,0.019619,0,-0.52153,0.50114,-0.44903,0,0,-0.52153,0,-67.615,0.30649,0,0.29964,0,-20.207,60.339,1,1,4.24,4.24,-0.1,0
-0.0022556,0.019622,0,-0.52151,0.5024,-0.45003,0,0,-0.52151,0,-67.602,0.30615,0,0.29869,0,-20.203,60.327,1,1,4.245,4.245,-0.1,0
-0.0022571,0.019626,0,-0.5215,0.50365,-0.45102,0,0,-0.5215,0,-67.588,0.30581,0,0.29775,0,-20.2,60.314,1,1,4.25,4.25,-0.1,0
-0.0022587,0.019629,0,-0.52148,0.50491,-0.45202,0,0,-0.52148,0,-67.575,0.30547,0,0.29681,0,-20.196,60.301,1,1,4.255,4.255,-0.1,0
-0.0022602,0.019633,0,-0.52147,0.50617,-0.45302,0,0,-0.52147,0,-67.562,0.30513,0,0.29586,0,-20.192,60.289,1,1,4.26,4.26,-0.1,0
-0.0022617,0.019637,0,-0.52145,0.50743,-0.45402,0,0,-0.52145,0,-67.548,0.30479,0,0.29492,0,-20.189,60.276,1,1,4.265,4.265,-0.1,0
-0.0022633,0.01964,0,-0.52144,0.50869,-0.45501,0,0,-0.52144,0,-67.535,0.30445,0,0.29398,0,-20.185,60.263,1,1,4.27,4.27,-0.1,0
-0.0022648,0.019644,0,-0.52142,0.50995,-0.45601,0,0,-0.52142,0,-67.522,0.30411,0,0.29303,0,-20.181,60.251,1,1,4.275,4.275,-0.1,0
-0.0022664,0.019648,0,-0.52141,0.51121,-0.45701,0,0,-0.52141,0,-67.508,0.30377,0,0.29209,0,-20.177,60.238,1,1,4.28,4.28,-0.1,0
-0.0022679,0.019651,0,-0.5214,0.51247,-0.45801,0,0,-0.5214,0,-67.495,0.30343,0,0.29115,0,-20.174,60.226,1,1,4.285,4.285,-0.1,0
-0.0022694,0.019655,0,-0.52138,0.51373,-0.459,0,0,-0.52138,0,-67.481,0.30309,0,0.29021,0,-20.17,60.213,1,1,4.29,4.29,-0.1,0
-0.002271,0.019658,0,-0.52137,0.51499,-0.46,0,0,-0.52137,0,-67.468,0.30275,0,0.28926,0,-20.166,60.2,1,1,4.295,4.295,-0.1,0
-0.0022725,0.019662,0,-0.52135,0.51624,-0.461,0,0,-0.52135,0,-67.455,0.30241,0,0.28832,0,-20.162,60.188,1,1,4.3,4.3,-0.1,0
-0.002274,0.019666,0,-0.52134,0.5175,-0.462,0,0,-0.52134,0,-67.441,0.30207,0,0.28738,0,-20.159,60.175,1,1,4.305,4.305,-0.1,0
-0.0022756,0.019669,0,-0.52132,0.51876,-0.46299,0,0,-0.52132,0,-67.428,0.30173,0,0.28644,0,-20.155,60.162,1,1,4.31,4.31,-0.1,0
-0.0022771,0.019673,0,-0.52131,0.52002,-0.46399,0,0,-0.52131,0,-67.414,0.30139,0,0.2855,0,-20.151,60.15,1,1,4.315,4.315,-0.1,0
-0.0022787,0.019676,0,-0.52129,0.52128,-0.46499,0,0,-0.52129,0,-67.401,0.30105,0,0.28455,0,-20.147,60.137,1,1,4.32,4.32,-0.1,0
-0.0022802,0.01968,0,-0.52128,0.52254,-0.46598,0,0,-0.52128,0,-67.388,0.30071,0,0.28361,0,-20.144,60.124,1,1,4.325,4.325,-0.1,0
-0.0022817,0.019684,0,-0.52127,0.5238,-0.46698,0,0,-0.52127,0,-67.374,0.30037,0,0.28267,0,-20.14,60.112,1,1,4.33,4.33,-0.1,0
-0.0022833,0.019687,0,-0.52125,0.52505,-0.46798,0,0,-0.52125,0,-67.361,0.30003,0,0.28173,0,-20.136,60.099,1,1,4.335,4.335,-0.1,0
-0.0022848,0.019691,0,-0.52124,0.52631,-0.46897,0,0,-0.52124,0,-67.347,0.29968,0,0.28079,0,-20.132,60.086,1,1,4.34,4.34,-0.1,0
-0.0022863,0.019695,0,-0.52122,0.52757,-0.46997,0,0,-0.52122,0,-67.334,0.29934,0,0.27985,0,-20.129,60.074,1,1,4.345,4.345,-0.1,0
-0.0022879,0.019698,0,-0.52121,0.52883,-0.47097,0,0,-0.52121,0,-67.321,0.299,0,0.2789,0,-20.125,60.061,1,1,4.35,4.35,-0.1,0
-0.0022894,0.019702,0,-0.52119,0.53009,-0.47196,0,0,-0.52119,0,-67.307,0.29866,0,0.27796,0,-20.121,60.048,1,1,4.355,4.355,-0.1,0
-0.002291,0.019705,0,-0.52118,0.53134,-0.47296,0,0,-0.52118,0,-67.294,0.29832,0,0.27702,0,-20.118,60.036,1,1,4.36,4.36,-0.1,0
-0.0022925,0.019709,0,-0.52116,0.5326,-0.47396,0,0,-0.52116,0,-67.281,0.29798,0,0.27608,0,-20.114,60.023,1,1,4.365,4.365,-0.1,0
-0.002294,0.019713,0,-0.52115,0.53386,-0.47495,0,0,-0.52115,0,-67.267,0.29764,0,0.27514,0,-20.11,60.01,1,1,4.37,4.37,-0.1,0
-0.0022956,0.019716,0,-0.52114,0.53512,-0.47595,0,0,-0.52114,0,-67.254,0.2973,0,0.2742,0,-20.106,59.998,1,1,4.375,4.375,-0.1,0
-0.0022971,0.01972,0,-0.52112,0.53637,-0.47695,0,0,-0.52112,0,-67.24,0.29696,0,0.27326,0,-20.103,59.985,1,1,4.38,4.38,-0.1,0
-0.0022986,0.019723,0,-0.52111,0.53763,-0.47794,0,0,-0.52111,0,-67.227,0.29662,0,0.27232,0,-20.099,59.972,1,1,4.385,4.385,-0.1,0
-0.0023002,0.019727,0,-0.52109,0.53889,-0.47894,0,0,-0.52109,0,-67.214,0.29628,0,0.27138,0,-20.095,59.959,1,1,4.39,4.39,-0.1,0
-0.0023017,0.019731,0,-0.52108,0.54015,-0.47994,0,0,-0.52108,0,-67.2,0.29594,0,0.27043,0,-20.091,59.947,1,1,4.395,4.395,-0.1,0
-0.0023032,0.019734,0,-0.52106,0.5414,-0.48093,0,0,-0.52106,0,-67.187,0.2956,0,0.26949,0,-20.088,59.934,1,1,4.4,4.4,-0.1,0
-0.0023048,0.019738,0,-0.52105,0.54266,-0.48193,0,0,-0.52105,0,-67.173,0.29526,0,0.26855,0,-20.084,59.921,1,1,4.405,4.405,-0.1,0
-0.0023063,0.019742,0,-0.52103,0.54392,-0.48292,0,0,-0.52103,0,-67.16,0.29492,0,0.26761,0,-20.08,59.909,1,1,4.41,4.41,-0.1,0
-0.0023079,0.019745,0,-0.52102,0.54517,-0.48392,0,0,-0.52102,0,-67.147,0.29457,0,0.26667,0,-20.076,59.896,1,1,4.415,4.415,-0.1,0
-0.0023094,0.019749,0,-0.521,0.54643,-0.48492,0,0,-0.521,0,-67.133,0.29423,0,0.26573,0,-20.073,59.883,1,1,4.42,4.42,-0.1,0
-0.0023109,0.019752,0,-0.52099,0.54769,-0.48591,0,0,-0.52099,0,-67.12,0.29389,0,0.26479,0,-20.069,59.871,1,1,4.425,4.425,-0.1,0
-0.0023125,0.019756,0,-0.52098,0.54895,-0.48691,0,0,-0.52098,0,-67.106,0.29355,0,0.26385,0,-20.065,59.858,1,1,4.43,4.43,-0.1,0
-0.002314,0.01976,0,-0.52096,0.5502,-0.4879,0,0,-0.52096,0,-67.093,0.29321,0,0.26291,0,-20.061,59.845,1,1,4.435,4.435,-0.1,0
-0.0023155,0.019763,0,-0.52095,0.55146,-0.4889,0,0,-0.52095,0,-67.08,0.29287,0,0.26197,0,-20.058,59.833,1,1,4.44,4.44,-0.1,0
-0.0023171,0.019767,0,-0.52093,0.55272,-0.48989,0,0,-0.52093,0,-67.066,0.29253,0,0.26103,0,-20.054,59.82,1,1,4.445,4.445,-0.1,0
-0.0023186,0.01977,0,-0.52092,0.55397,-0.49089,0,0,-0.52092,0,-67.053,0.29219,0,0.26009,0,-20.05,59.807,1,1,4.45,4.45,-0.1,0
-0.0023202,0.019774,0,-0.5209,0.55523,-0.49189,0,0,-0.5209,0,-67.039,0.29185,0,0.25915,0,-20.046,59.795,1,1,4.455,4.455,-0.1,0
-0.0023217,0.019778,0,-0.52089,0.55649,-0.49288,0,0,-0.52089,0,-67.026,0.2915,0,0.25821,0,-20.043,59.782,1,1,4.46,4.46,-0.1,0
-0.0023232,0.019781,0,-0.52087,0.55774,-0.49388,0,0,-0.52087,0,-67.013,0.29116,0,0.25727,0,-20.039,59.769,1,1,4.465,4.465,-0.1,0
-0.0023248,0.019785,0,-0.52086,0.559,-0.49487,0,0,-0.52086,0,-66.999,0.29082,0,0.25633,0,-20.035,59.757,1,1,4.47,4.47,-0.1,0
-0.0023263,0.019789,0,-0.52085,0.56025,-0.49587,0,0,-0.52085,0,-66.986,0.29048,0,0.2554,0,-20.031,59.744,1,1,4.475,4.475,-0.1,0
-0.0023278,0.019792,0,-0.52083,0.56151,-0.49686,0,0,-0.52083,0,-66.972,0.29014,0,0.25446,0,-20.028,59.731,1,1,4.48,4.48,-0.1,0
-0.0023294,0.019796,0,-0.52082,0.56277,-0.49786,0,0,-0.52082,0,-66.959,0.2898,0,0.25352,0,-20.024,59.719,1,1,4.485,4.485,-0.1,0
-0.0023309,0.019799,0,-0.5208,0.56402,-0.49885,0,0,-0.5208,0,-66.946,0.28946,0,0.25258,0,-20.02,59.706,1,1,4.49,4.49,-0.1,0
-0.0023325,0.019803,0,-0.52079,0.56528,-0.49985,0,0,-0.52079,0,-66.932,0.28911,0,0.25164,0,-20.016,59.693,1,1,4.495,4.495,-0.1,0
-0.002334,0.019807,0,-0.52077,0.56653,-0.50084,0,0,-0.52077,0,-66.919,0.28877,0,0.2507,0,-20.013,59.681,1,1,4.5,4.5,-0.1,0
-0.0023355,0.01981,0,-0.52076,0.56779,-0.50184,0,0,-0.52076,0,-66.905,0.28843,0,0.24976,0,-20.009,59.668,1,1,4.505,4.505,-0.1,0
-0.0023371,0.019814,0,-0.52074,0.56905,-0.50283,0,0,-0.52074,0,-66.892,0.28809,0,0.24882,0,-20.005,59.655,1,1,4.51,4.51,-0.1,0
-0.0023386,0.019817,0,-0.52073,0.5703,-0.50383,0,0,-0.52073,0,-66.879,0.28775,0,0.24788,0,-20.001,59.643,1,1,4.515,4.515,-0.1,0
-0.0023401,0.019821,0,-0.52072,0.57156,-0.50482,0,0,-0.52072,0,-66.865,0.28741,0,0.24694,0,-19.998,59.63,1,1,4.52,4.52,-0.1,0
-0.0023417,0.019825,0,-0.5207,0.57281,-0.50582,0,0,-0.5207,0,-66.852,0.28707,0,0.24601,0,-19.994,59.617,1,1,4.525,4.525,-0.1,0
-0.0023432,0.019828,0,-0.52069,0.57407,-0.50681,0,0,-0.52069,0,-66.838,0.28672,0,0.24507,0,-19.99,59.605,1,1,4.53,4.53,-0.1,0
-0.0023448,0.019832,0,-0.52067,0.57532,-0.50781,0,0,-0.52067,0,-66.825,0.28638,0,0.24413,0,-19.986,59.592,1,1,4.535,4.535,-0.1,0
-0.0023463,0.019836,0,-0.52066,0.57658,-0.5088,0,0,-0.52066,0,-66.811,0.28604,0,0.24319,0,-19.983,59.579,1,1,4.54,4.54,-0.1,0
-0.0023478,0.019839,0,-0.52064,0.57783,-0.5098,0,0,-0.52064,0,-66.798,0.2857,0,0.24225,0,-19.979,59.567,1,1,4.545,4.545,-0.1,0
-0.0023494,0.019843,0,-0.52063,0.57909,-0.51079,0,0,-0.52063,0,-66.785,0.28536,0,0.24131,0,-19.975,59.554,1,1,4.55,4.55,-0.1,0
-0.0023509,0.019846,0,-0.52061,0.58034,-0.51178,0,0,-0.52061,0,-66.771,0.28501,0,0.24038,0,-19.971,59.541,1,1,4.555,4.555,-0.1,0
-0.0023524,0.01985,0,-0.5206,0.5816,-0.51278,0,0,-0.5206,0,-66.758,0.28467,0,0.23944,0,-19.968,59.528,1,1,4.56,4.56,-0.1,0
-0.002354,0.019854,0,-0.52059,0.58285,-0.51377,0,0,-0.52059,0,-66.744,0.28433,0,0.2385,0,-19.964,59.516,1,1,4.565,4.565,-0.1,0
-0.0023555,0.019857,0,-0.52057,0.58411,-0.51477,0,0,-0.52057,0,-66.731,0.28399,0,0.23756,0,-19.96,59.503,1,1,4.57,4.57,-0.1,0
-0.0023571,0.019861,0,-0.52056,0.58536,-0.51576,0,0,-0.52056,0,-66.718,0.28365,0,0.23663,0,-19.957,59.49,1,1,4.575,4.575,-0.1,0
-0.0023586,0.019864,0,-0.52054,0.58662,-0.51676,0,0,-0.52054,0,-66.704,0.28331,0,0.23569,0,-19.953,59.478,1,1,4.58,4.58,-0.1,0
-0.0023601,0.019868,0,-0.52053,0.58787,-0.51775,0,0,-0.52053,0,-66.691,0.28296,0,0.23475,0,-19.949,59.465,1,1,4.585,4.585,-0.1,0
-0.0023617,0.019872,0,-0.52051,0.58913,-0.51874,0,0,-0.52051,0,-66.677,0.28262,0,0.23381,0,-19.945,59.452,1,1,4.59,4.59,-0.1,0
-0.0023632,0.019875,0,-0.5205,0.59038,-0.51974,0,0,-0.5205,0,-66.664,0.28228,0,0.23288,0,-19.942,59.44,1,1,4.595,4.595,-0.1,0
-0.0023647,0.019879,0,-0.52048,0.59164,-0.52073,0,0,-0.52048,0,-66.651,0.28194,0,0.23194,0,-19.938,59.427,1,1,4.6,4.6,-0.1,0
-0.0023663,0.019883,0,-0.52047,0.59289,-0.52172,0,0,-0.52047,0,-66.637,0.28159,0,0.231,0,-19.934,59.414,1,1,4.605,4.605,-0.1,0
-0.0023678,0.019886,0,-0.52046,0.59415,-0.52272,0,0,-0.52046,0,-66.624,0.28125,0,0.23006,0,-19.93,59.402,1,1,4.61,4.61,-0.1,0
-0.0023693,0.01989,0,-0.52044,0.5954,-0.52371,0,0,-0.52044,0,-66.61,0.28091,0,0.22913,0,-19.927,59.389,1,1,4.615,4.615,-0.1,0
-0.0023709,0.019893,0,-0.52043,0.59665,-0.52471,0,0,-0.52043,0,-66.597,0.28057,0,0.22819,0,-19.923,59.376,1,1,4.62,4.62,-0.1,0
-0.0023724,0.019897,0,-0.52041,0.59791,-0.5257,0,0,-0.52041,0,-66.583,0.28023,0,0.22725,0,-19.919,59.364,1,1,4.625,4.625,-0.1,0
-0.002374,0.019901,0,-0.5204,0.59916,-0.52669,0,0,-0.5204,0,-66.57,0.27988,0,0.22632,0,-19.915,59.351,1,1,4.63,4.63,-0.1,0
-0.0023755,0.019904,0,-0.52038,0.60066,-0.52777,0,0,-0.52038,0,-66.558,0.27977,0,0.22568,0,-19.912,59.34,1,1,4.635,4.635,-0.1,0
-0.002377,0.019907,0,-0.52037,0.60217,-0.52886,0,0,-0.52037,0,-66.546,0.27968,0,0.22508,0,-19.909,59.329,1,1,4.64,4.64,-0.1,0
-0.0023785,0.019911,0,-0.52036,0.60369,-0.52995,0,0,-0.52036,0,-66.535,0.27958,0,0.22448,0,-19.905,59.318,1,1,4.645,4.645,-0.1,0
-0.00238,0.019914,0,-0.52034,0.60521,-0.53103,0,0,-0.52034,0,-66.523,0.27949,0,0.22387,0,-19.902,59.307,1,1,4.65,4.65,-0.1,0
-0.0023815,0.019918,0,-0.52033,0.60672,-0.53212,0,0,-0.52033,0,-66.511,0.2794,0,0.22327,0,-19.898,59.296,1,1,4.655,4.655,-0.1,0
-0.0023829,0.019921,0,-0.52032,0.60824,-0.53321,0,0,-0.52032,0,-66.499,0.27931,0,0.22267,0,-19.895,59.285,1,1,4.66,4.66,-0.1,0
-0.0023844,0.019924,0,-0.5203,0.60976,-0.53429,0,0,-0.5203,0,-66.487,0.27921,0,0.22206,0,-19.892,59.274,1,1,4.665,4.665,-0.1,0
-0.0023859,0.019928,0,-0.52029,0.61127,-0.53538,0,0,-0.52029,0,-66.476,0.27912,0,0.22146,0,-19.888,59.263,1,1,4.67,4.67,-0.1,0
-0.0023874,0.019931,0,-0.52028,0.61279,-0.53646,0,0,-0.52028,0,-66.464,0.27903,0,0.22086,0,-19.885,59.252,1,1,4.675,4.675,-0.1,0
-0.0023889,0.019935,0,-0.52026,0.6143,-0.53755,0,0,-0.52026,0,-66.452,0.27894,0,0.22025,0,-19.882,59.241,1,1,4.68,4.68,-0.1,0
-0.0023904,0.019938,0,-0.52025,0.61582,-0.53864,0,0,-0.52025,0,-66.44,0.27884,0,0.21965,0,-19.878,59.23,1,1,4.685,4.685,-0.1,0
-0.0023919,0.019941,0,-0.52023,0.61734,-0.53972,0,0,-0.52023,0,-66.428,0.27875,0,0.21905,0,-19.875,59.219,1,1,4.69,4.69,-0.1,0
-0.0023934,0.019945,0,-0.52022,0.61885,-0.54081,0,0,-0.52022,0,-66.417,0.27866,0,0.21844,0,-19.872,59.208,1,1,4.695,4.695,-0.1,0
-0.0023949,0.019948,0,-0.52021,0.62037,-0.5419,0,0,-0.52021,0,-66.405,0.27857,0,0.21784,0,-19.868,59.197,1,1,4.7,4.7,-0.1,0
-0.0023964,0.019951,0,-0.52019,0.62188,-0.54298,0,0,-0.52019,0,-66.393,0.27847,0,0.21724,0,-19.865,59.186,1,1,4.705,4.705,-0.1,0
-0.0023979,0.019955,0,-0.52018,0.6234,-0.54407,0,0,-0.52018,0,-66.381,0.27838,0,0.21663,0,-19.861,59.175,1,1,4.71,4.71,-0.1,0
-0.0023994,0.019958,0,-0.52017,0.62491,-0.54515,0,0,-0.52017,0,-66.369,0.27829,0,0.21603,0,-19.858,59.164,1,1,4.715,4.715,-0.1,0
-0.0024009,0.019962,0,-0.52015,0.62643,-0.54624,0,0,-0.52015,0,-66.358,0.27819,0,0.21543,0,-19.855,59.153,1,1,4.72,4.72,-0.1,0
-0.0024024,0.019965,0,-0.52014,0.62794,-0.54733,0,0,-0.52014,0,-66.346,0.2781,0,0.21483,0,-19.851,59.142,1,1,4.725,4.725,-0.1,0
-0.0024039,0.019968,0,-0.52013,0.62946,-0.54841,0,0,-0.52013,0,-66.334,0.27801,0,0.21422,0,-19.848,59.131,1,1,4.73,4.73,-0.1,0
-0.0024054,0.019972,0,-0.52011,0.63098,-0.5495,0,0,-0.52011,0,-66.322,0.27792,0,0.21362,0,-19.845,59.12,1,1,4.735,4.735,-0.1,0
-0.0024069,0.019975,0,-0.5201,0.63249,-0.55058,0,0,-0.5201,0,-66.311,0.27782,0,0.21302,0,-19.841,59.11,1,1,4.74,4.74,-0.1,0
-0.0024084,0.019979,0,-0.52009,0.63401,-0.55167,0,0,-0.52009,0,-66.299,0.27773,0,0.21242,0,-19.838,59.099,1,1,4.745,4.745,-0.1,0
-0.0024099,0.019982,0,-0.52007,0.63552,-0.55275,0,0,-0.52007,0,-66.287,0.27764,0,0.21181,0,-19.835,59.088,1,1,4.75,4.75,-0.1,0
-0.0024114,0.019985,0,-0.52006,0.63703,-0.55384,0,0,-0.52006,0,-66.275,0.27754,0,0.21121,0,-19.831,59.077,1,1,4.755,4.755,-0.1,0
-0.0024129,0.019989,0,-0.52005,0.63855,-0.55492,0,0,-0.52005,0,-66.263,0.27745,0,0.21061,0,-19.828,59.066,1,1,4.76,4.76,-0.1,0
-0.0024144,0.019992,0,-0.52003,0.64006,-0.55601,0,0,-0.52003,0,-66.252,0.27736,0,0.21,0,-19.825,59.055,1,1,4.765,4.765,-0.1,0
-0.0024159,0.019995,0,-0.52002,0.64158,-0.5571,0,0,-0.52002,0,-66.24,0.27727,0,0.2094,0,-19.821,59.044,1,1,4.77,4.77,-0.1,0
-0.0024174,0.019999,0,-0.52,0.64309,-0.55818,0,0,-0.52,0,-66.228,0.27717,0,0.2088,0,-19.818,59.033,1,1,4.775,4.775,-0.1,0
-0.0024189,0.020002,0,-0.51999,0.64461,-0.55927,0,0,-0.51999,0,-66.216,0.27708,0,0.2082,0,-19.814,59.022,1,1,4.78,4.78,-0.1,0
-0.0024204,0.020006,0,-0.51998,0.64612,-0.56035,0,0,-0.51998,0,-66.204,0.27699,0,0.2076,0,-19.811,59.011,1,1,4.785,4.785,-0.1,0
-0.0024219,0.020009,0,-0.51996,0.64764,-0.56144,0,0,-0.51996,0,-66.193,0.27689,0,0.20699,0,-19.808,59,1,1,4.79,4.79,-0.1,0
-0.0024234,0.020012,0,-0.51995,0.64915,-0.56252,0,0,-0.51995,0,-66.181,0.2768,0,0.20639,0,-19.804,58.989,1,1,4.795,4.795,-0.1,0
-0.0024249,0.020016,0,-0.51994,0.65066,-0.56361,0,0,-0.51994,0,-66.169,0.27671,0,0.20579,0,-19.801,58.978,1,1,4.8,4.8,-0.1,0
-0.0024264,0.020019,0,-0.51992,0.65218,-0.56469,0,0,-0.51992,0,-66.157,0.27661,0,0.20519,0,-19.798,58.967,1,1,4.805,4.805,-0.1,0
-0.0024279,0.020023,0,-0.51991,0.65369,-0.56578,0,0,-0.51991,0,-66.145,0.27652,0,0.20458,0,-19.794,58.956,1,1,4.81,4.81,-0.1,0
-0.0024294,0.020026,0,-0.5199,0.65521,-0.56686,0,0,-0.5199,0,-66.134,0.27643,0,0.20398,0,-19.791,58.945,1,1,4.815,4.815,-0.1,0
-0.0024309,0.020029,0,-0.51988,0.65672,-0.56795,0,0,-0.51988,0,-66.122,0.27633,0,0.20338,0,-19.788,58.934,1,1,4.82,4.82,-0.1,0
-0.0024324,0.020033,0,-0.51987,0.65823,-0.56903,0,0,-0.51987,0,-66.11,0.27624,0,0.20278,0,-19.784,58.923,1,1,4.825,4.825,-0.1,0
-0.0024339,0.020036,0,-0.51986,0.65975,-0.57011,0,0,-0.51986,0,-66.098,0.27615,0,0.20218,0,-19.781,58.912,1,1,4.83,4.83,-0.1,0
-0.0024354,0.020039,0,-0.51984,0.66126,-0.5712,0,0,-0.51984,0,-66.086,0.27606,0,0.20158,0,-19.777,58.901,1,1,4.835,4.835,-0.1,0
-0.0024369,0.020043,0,-0.51983,0.66278,-0.57228,0,0,-0.51983,0,-66.075,0.27596,0,0.20097,0,-19.774,58.89,1,1,4.84,4.84,-0.1,0
-0.0024384,0.020046,0,-0.51982,0.66429,-0.57337,0,0,-0.51982,0,-66.063,0.27587,0,0.20037,0,-19.771,58.879,1,1,4.845,4.845,-0.1,0
-0.0024399,0.02005,0,-0.5198,0.6658,-0.57445,0,0,-0.5198,0,-66.051,0.27578,0,0.19977,0,-19.767,58.868,1,1,4.85,4.85,-0.1,0
-0.0024414,0.020053,0,-0.51979,0.66732,-0.57554,0,0,-0.51979,0,-66.039,0.27568,0,0.19917,0,-19.764,58.857,1,1,4.855,4.855,-0.1,0
-0.0024428,0.020056,0,-0.51977,0.66883,-0.57662,0,0,-0.51977,0,-66.027,0.27559,0,0.19857,0,-19.761,58.846,1,1,4.86,4.86,-0.1,0
-0.0024443,0.02006,0,-0.51976,0.67034,-0.57771,0,0,-0.51976,0,-66.016,0.2755,0,0.19797,0,-19.757,58.835,1,1,4.865,4.865,-0.1,0
-0.0024458,0.020063,0,-0.51975,0.67185,-0.57879,0,0,-0.51975,0,-66.004,0.2754,0,0.19736,0,-19.754,58.824,1,1,4.87,4.87,-0.1,0
-0.0024473,0.020067,0,-0.51973,0.67337,-0.57987,0,0,-0.51973,0,-65.992,0.27531,0,0.19676,0,-19.751,58.813,1,1,4.875,4.875,-0.1,0
-0.0024488,0.02007,0,-0.51972,0.67488,-0.58096,0,0,-0.51972,0,-65.98,0.27522,0,0.19616,0,-19.747,58.802,1,1,4.88,4.88,-0.1,0
-0.0024503,0.020073,0,-0.51971,0.67639,-0.58204,0,0,-0.51971,0,-65.968,0.27512,0,0.19556,0,-19.744,58.791,1,1,4.885,4.885,-0.1,0
-0.0024518,0.020077,0,-0.51969,0.67791,-0.58313,0,0,-0.51969,0,-65.957,0.27503,0,0.19496,0,-19.74,58.78,1,1,4.89,4.89,-0.1,0
-0.0024533,0.02008,0,-0.51968,0.67942,-0.58421,0,0,-0.51968,0,-65.945,0.27494,0,0.19436,0,-19.737,58.769,1,1,4.895,4.895,-0.1,0
-0.0024548,0.020083,0,-0.51967,0.68093,-0.58529,0,0,-0.51967,0,-65.933,0.27484,0,0.19376,0,-19.734,58.758,1,1,4.9,4.9,-0.1,0
-0.0024563,0.020087,0,-0.51965,0.68244,-0.58638,0,0,-0.51965,0,-65.921,0.27475,0,0.19316,0,-19.73,58.747,1,1,4.905,4.905,-0.1,0
-0.0024578,0.02009,0,-0.51964,0.68396,-0.58746,0,0,-0.51964,0,-65.909,0.27466,0,0.19255,0,-19.727,58.737,1,1,4.91,4.91,-0.1,0
-0.0024593,0.020094,0,-0.51963,0.68547,-0.58854,0,0,-0.51963,0,-65.898,0.27456,0,0.19195,0,-19.724,58.726,1,1,4.915,4.915,-0.1,0
-0.0024608,0.020097,0,-0.51961,0.68698,-0.58963,0,0,-0.51961,0,-65.886,0.27447,0,0.19135,0,-19.72,58.715,1,1,4.92,4.92,-0.1,0
-0.0024623,0.0201,0,-0.5196,0.68849,-0.59071,0,0,-0.5196,0,-65.874,0.27438,0,0.19075,0,-19.717,58.704,1,1,4.925,4.925,-0.1,0
-0.0024638,0.020104,0,-0.51959,0.69,-0.59179,0,0,-0.51959,0,-65.862,0.27428,0,0.19015,0,-19.714,58.693,1,1,4.93,4.93,-0.1,0
-0.0024653,0.020107,0,-0.51957,0.69152,-0.59288,0,0,-0.51957,0,-65.85,0.27419,0,0.18955,0,-19.71,58.682,1,1,4.935,4.935,-0.1,0
-0.0024668,0.020111,0,-0.51956,0.69303,-0.59396,0,0,-0.51956,0,-65.839,0.2741,0,0.18895,0,-19.707,58.671,1,1,4.94,4.94,-0.1,0
-0.0024683,0.020114,0,-0.51954,0.69454,-0.59504,0,0,-0.51954,0,-65.827,0.274,0,0.18835,0,-19.703,58.66,1,1,4.945,4.945,-0.1,0
-0.0024698,0.020117,0,-0.51953,0.69605,-0.59613,0,0,-0.51953,0,-65.815,0.27391,0,0.18775,0,-19.7,58.649,1,1,4.95,4.95,-0.1,0
-0.0024713,0.020121,0,-0.51952,0.69756,-0.59721,0,0,-0.51952,0,-65.803,0.27382,0,0.18715,0,-19.697,58.638,1,1,4.955,4.955,-0.1,0
-0.0024728,0.020124,0,-0.5195,0.69907,-0.59829,0,0,-0.5195,0,-65.791,0.27372,0,0.18655,0,-19.693,58.627,1,1,4.96,4.96,-0.1,0
-0.0024743,0.020127,0,-0.51949,0.70059,-0.59938,0,0,-0.51949,0,-65.78,0.27363,0,0.18595,0,-19.69,58.616,1,1,4.965,4.965,-0.1,0
-0.0024758,0.020131,0,-0.51948,0.7021,-0.60046,0,0,-0.51948,0,-65.768,0.27353,0,0.18535,0,-19.687,58.605,1,1,4.97,4.97,-0.1,0
-0.0024773,0.020134,0,-0.51946,0.70361,-0.60154,0,0,-0.51946,0,-65.756,0.27344,0,0.18475,0,-19.683,58.594,1,1,4.975,4.975,-0.1,0
-0.0024788,0.020138,0,-0.51945,0.70512,-0.60263,0,0,-0.51945,0,-65.744,0.27335,0,0.18414,0,-19.68,58.583,1,1,4.98,4.98,-0.1,0
-0.0024803,0.020141,0,-0.51944,0.70663,-0.60371,0,0,-0.51944,0,-65.732,0.27325,0,0.18354,0,-19.676,58.572,1,1,4.985,4.985,-0.1,0
-0.0024818,0.020144,0,-0.51942,0.70814,-0.60479,0,0,-0.51942,0,-65.721,0.27316,0,0.18294,0,-19.673,58.561,1,1,4.99,4.99,-0.1,0
-0.0024833,0.020148,0,-0.51941,0.70965,-0.60587,0,0,-0.51941,0,-65.709,0.27307,0,0.18234,0,-19.67,58.55,1,1,4.995,4.995,-0.1,0
-0.0024848,0.020151,0,-0.5194,0.71116,-0.60696,0,0,-0.5194,0,-65.697,0.27297,0,0.18174,0,-19.666,58.539,1,1,5,5,-0.1,0
