"displacement:0","displacement:1","displacement:2","displacement contact active","displacement contact distance","displacement contact gap","displacement contact normalload","displacement contact slipload","displacement contact stick","displacement contact weight","stress_xx","stress_xy","stress_xz","stress_yy","stress_yz","stress_zz","vonmises","GeometryIds","vtkValidPointMask","arc_length","Points:0","Points:1","Points:2"
-3.9833e-16,0.010721,0,0.06363,-6.5056e-09,-2.3769e-12,109.36,48.209,-0.06363,0,-770.32,41.955,0,-1482.3,0,-680.95,786.9,1,1,0,0,-0.1,0
-3.9675e-06,0.010723,0,0.070077,5.9679e-06,-5.9659e-06,114.32,31.897,-0.063563,0,-773.2,44.747,0,-1482.8,0,-681.95,783.79,1,1,0.005,0.005,-0.1,0
-7.9456e-06,0.010727,0,0.076241,1.1683e-05,-1.1673e-05,119.04,16.215,-0.063497,0,-775.89,47.706,0,-1482.8,0,-682.74,780.78,1,1,0.01,0.01,-0.1,0
-1.1934e-05,0.010732,0,0.082122,1.7138e-05,-1.712e-05,123.5,1.1608,-0.06343,0,-778.39,50.832,0,-1482.2,0,-683.3,777.87,1,1,0.015,0.015,-0.1,0
-1.5934e-05,0.010737,0,0.08772,2.2334e-05,-2.2309e-05,127.71,-13.264,-0.063363,0,-780.7,54.126,0,-1481.1,0,-683.64,775.04,1,1,0.02,0.02,-0.1,0
-1.9944e-05,0.010744,0,0.093035,2.727e-05,-2.7238e-05,131.68,-27.061,-0.063297,0,-782.81,57.588,0,-1479.4,0,-683.76,772.32,1,1,0.025,0.025,-0.1,0
-2.3965e-05,0.010751,0,0.098067,3.1947e-05,-3.1908e-05,135.4,-40.23,-0.06323,0,-784.74,61.216,0,-1477.2,0,-683.66,769.68,1,1,0.03,0.03,-0.1,0
-2.7997e-05,0.010759,0,0.10282,3.6365e-05,-3.632e-05,138.87,-52.77,-0.063163,0,-786.48,65.012,0,-1474.5,0,-683.34,767.14,1,1,0.035,0.035,-0.1,0
-3.204e-05,0.010768,0,0.10728,4.0524e-05,-4.0473e-05,142.09,-64.683,-0.063097,0,-788.03,68.976,0,-1471.2,0,-682.8,764.7,1,1,0.04,0.04,-0.1,0
-3.6093e-05,0.010778,0,0.11147,4.4424e-05,-4.4367e-05,145.06,-75.968,-0.06303,0,-789.38,73.106,0,-1467.4,0,-682.04,762.35,1,1,0.045,0.045,-0.1,0
-4.0158e-05,0.010789,0,0.11537,4.8065e-05,-4.8002e-05,147.78,-86.625,-0.062964,0,-790.55,77.404,0,-1463,0,-681.05,760.1,1,1,0.05,0.05,-0.1,0
-4.4234e-05,0.010801,0,0.11899,5.1447e-05,-5.1379e-05,150.26,-96.655,-0.062897,0,-791.53,81.868,0,-1458.1,0,-679.84,757.93,1,1,0.055,0.055,-0.1,0
-4.832e-05,0.010813,0,0.12233,5.457e-05,-5.4497e-05,152.48,-106.06,-0.06283,0,-792.31,86.5,0,-1452.6,0,-678.42,755.87,1,1,0.06,0.06,-0.1,0
-5.2418e-05,0.010827,0,0.12539,5.7434e-05,-5.7357e-05,154.46,-114.83,-0.062764,0,-792.91,91.299,0,-1446.6,0,-676.77,753.9,1,1,0.065,0.065,-0.1,0
-5.6527e-05,0.010841,0,0.12816,6.004e-05,-5.9959e-05,156.19,-122.98,-0.062697,0,-793.31,96.265,0,-1440.1,0,-674.9,752.02,1,1,0.07,0.07,-0.1,0
-6.0647e-05,0.010857,0,0.13065,6.2387e-05,-6.2302e-05,157.68,-130.5,-0.062631,0,-793.53,101.4,0,-1433,0,-672.81,750.23,1,1,0.075,0.075,-0.1,0
-6.4778e-05,0.010873,0,0.13286,6.4476e-05,-6.4387e-05,158.91,-137.4,-0.062564,0,-793.56,106.7,0,-1425.4,0,-670.5,748.55,1,1,0.08,0.08,-0.1,0
-6.8921e-05,0.01089,0,0.13479,6.6306e-05,-6.6214e-05,159.9,-143.67,-0.062498,0,-793.4,112.16,0,-1417.2,0,-667.97,746.95,1,1,0.085,0.085,-0.1,0
-7.3075e-05,0.010908,0,0.13644,6.7878e-05,-6.7783e-05,160.64,-149.31,-0.062431,0,-793.04,117.8,0,-1408.5,0,-665.22,745.45,1,1,0.09,0.09,-0.1,0
-7.724e-05,0.010927,0,0.1378,6.9191e-05,-6.9094e-05,161.13,-154.33,-0.062365,0,-792.5,123.6,0,-1399.3,0,-662.24,744.05,1,1,0.095,0.095,-0.1,0
-8.1417e-05,0.010947,0,0.13889,7.0246e-05,-7.0148e-05,161.37,-158.72,-0.062299,0,-791.77,129.56,0,-1389.5,0,-659.05,742.74,1,1,0.1,0.1,-0.1,0
-8.5605e-05,0.010968,0,0.13969,7.1043e-05,-7.0943e-05,161.37,-162.49,-0.062232,0,-790.85,135.69,0,-1379.2,0,-655.64,741.52,1,1,0.105,0.105,-0.1,0
-8.9804e-05,0.01099,0,0.14021,7.1582e-05,-7.1481e-05,161.12,-165.63,-0.062166,0,-789.74,141.99,0,-1368.3,0,-652,740.4,1,1,0.11,0.11,-0.1,0
-9.4016e-05,0.011012,0,0.14045,7.1863e-05,-7.176e-05,160.62,-168.15,-0.062099,0,-788.44,148.46,0,-1356.9,0,-648.15,739.37,1,1,0.115,0.115,-0.1,0
-9.8238e-05,0.011036,0,0.14041,7.1887e-05,-7.1783e-05,159.87,-170.04,-0.062033,0,-786.95,155.09,0,-1344.9,0,-644.07,738.43,1,1,0.12,0.12,-0.1,0
-0.00010247,0.01106,0,0.14008,7.1652e-05,-7.1548e-05,158.87,-171.31,-0.061964,0,-785.27,161.89,0,-1332.4,0,-639.77,737.6,1,1,0.125,0.125,-0.1,0
-0.00010665,0.011086,0,0.13937,7.1163e-05,-7.1059e-05,157.48,-171.96,-0.061787,0,-783.3,168.87,0,-1319.4,0,-635.21,736.88,1,1,0.13,0.13,-0.1,0
-0.00011084,0.011112,0,0.13838,7.0418e-05,-7.0314e-05,155.84,-171.98,-0.06161,0,-781.14,176.03,0,-1305.8,0,-630.43,736.25,1,1,0.135,0.135,-0.1,0
-0.00011503,0.011139,0,0.13711,6.9417e-05,-6.9313e-05,153.96,-171.37,-0.061433,0,-778.8,183.34,0,-1291.6,0,-625.44,735.72,1,1,0.14,0.14,-0.1,0
-0.00011924,0.011167,0,0.13556,6.8159e-05,-6.8057e-05,151.83,-170.14,-0.061256,0,-776.27,190.83,0,-1276.9,0,-620.22,735.28,1,1,0.145,0.145,-0.1,0
-0.00012345,0.011196,0,0.13373,6.6646e-05,-6.6545e-05,149.46,-168.28,-0.06108,0,-773.56,198.48,0,-1261.7,0,-614.78,734.94,1,1,0.15,0.15,-0.1,0
-0.00012766,0.011226,0,0.13163,6.4878e-05,-6.4778e-05,146.85,-165.8,-0.060903,0,-770.66,206.3,0,-1245.9,0,-609.13,734.7,1,1,0.155,0.155,-0.1,0
-0.00013189,0.011257,0,0.12924,6.2854e-05,-6.2757e-05,144,-162.69,-0.060727,0,-767.59,214.28,0,-1229.6,0,-603.26,734.55,1,1,0.16,0.16,-0.1,0
-0.00013612,0.011289,0,0.12658,6.0575e-05,-6.048e-05,140.9,-158.96,-0.06055,0,-764.32,222.43,0,-1212.8,0,-597.17,734.49,1,1,0.165,0.165,-0.1,0
-0.00014036,0.011321,0,0.12364,5.8042e-05,-5.7949e-05,137.57,-154.6,-0.060374,0,-760.88,230.75,0,-1195.4,0,-590.87,734.53,1,1,0.17,0.17,-0.1,0
-0.00014461,0.011355,0,0.12043,5.5253e-05,-5.5164e-05,133.99,-149.62,-0.060198,0,-757.25,239.24,0,-1177.5,0,-584.34,734.67,1,1,0.175,0.175,-0.1,0
-0.00014887,0.011389,0,0.11693,5.221e-05,-5.2124e-05,130.17,-144.02,-0.060022,0,-753.44,247.89,0,-1159,0,-577.6,734.9,1,1,0.18,0.18,-0.1,0
-0.00015314,0.011425,0,0.11316,4.8913e-05,-4.883e-05,126.11,-137.79,-0.059846,0,-749.45,256.7,0,-1140,0,-570.64,735.23,1,1,0.185,0.185,-0.1,0
-0.00015742,0.011461,0,0.10911,4.5362e-05,-4.5283e-05,121.8,-130.94,-0.059671,0,-745.27,265.68,0,-1120.5,0,-563.47,735.65,1,1,0.19,0.19,-0.1,0
-0.0001617,0.011498,0,0.10478,4.1557e-05,-4.1482e-05,117.26,-123.47,-0.059495,0,-740.92,274.83,0,-1100.4,0,-556.07,736.16,1,1,0.195,0.195,-0.1,0
-0.00016599,0.011536,0,0.10018,3.7498e-05,-3.7428e-05,112.48,-115.38,-0.059319,0,-736.38,284.14,0,-1079.8,0,-548.46,736.78,1,1,0.2,0.2,-0.1,0
-0.00017029,0.011575,0,0.095304,3.3185e-05,-3.312e-05,107.45,-106.66,-0.059144,0,-731.66,293.62,0,-1058.7,0,-540.63,737.48,1,1,0.205,0.205,-0.1,0
-0.0001746,0.011614,0,0.09015,2.862e-05,-2.856e-05,102.19,-97.331,-0.058969,0,-726.75,303.26,0,-1037,0,-532.59,738.29,1,1,0.21,0.21,-0.1,0
-0.00017892,0.011655,0,0.08472,2.3801e-05,-2.3746e-05,96.681,-87.378,-0.058794,0,-721.67,313.07,0,-1014.7,0,-524.32,739.18,1,1,0.215,0.215,-0.1,0
-0.00018325,0.011697,0,0.079014,1.8729e-05,-1.8681e-05,90.935,-76.807,-0.058618,0,-716.4,323.04,0,-991.99,0,-515.85,740.18,1,1,0.22,0.22,-0.1,0
-0.00018759,0.011739,0,0.073033,1.3405e-05,-1.3363e-05,84.95,-65.616,-0.058443,0,-710.96,333.17,0,-968.7,0,-507.15,741.26,1,1,0.225,0.225,-0.1,0
-0.00019194,0.011782,0,0.066776,7.828e-06,-7.7922e-06,78.725,-53.807,-0.058269,0,-705.33,343.48,0,-944.87,0,-498.24,742.45,1,1,0.23,0.23,-0.1,0
-0.0001963,0.011827,0,0.060245,1.9989e-06,-1.9699e-06,72.26,-41.381,-0.058094,0,-699.52,353.94,0,-920.5,0,-489.11,743.73,1,1,0.235,0.235,-0.1,0
-0.00020067,0.011872,0,0.053438,-4.0824e-06,4.1041e-06,65.557,-28.337,-0.057919,0,-693.53,364.57,0,-895.6,0,-479.76,745.1,1,1,0.24,0.24,-0.1,0
-0.00020504,0.011918,0,0.046358,-1.0416e-05,1.043e-05,58.614,-14.677,-0.057745,0,-687.36,375.37,0,-870.16,0,-470.2,746.57,1,1,0.245,0.245,-0.1,0
-0.00020966,0.011965,0,0.037889,-1.7967e-05,1.7972e-05,50.865,-1.0738,-0.057568,0,-680.72,385.48,0,-843.8,0,-460.22,747.37,1,1,0.25,0.25,-0.1,0
-0.00021884,0.012016,0,0.0075643,-4.4364e-05,4.4337e-05,32.012,-0.67583,-0.057352,0,-668.26,378.72,0,-809.89,0,-446.21,732.96,1,1,0.255,0.255,-0.1,0
-0.00022799,0.012067,0,-0.021674,-6.9582e-05,6.9524e-05,13.837,-0.29211,-0.057135,0,-656.06,371.98,0,-776.71,0,-432.49,718.78,1,1,0.26,0.26,-0.1,0
-0.00023713,0.012118,0,-0.049828,-9.3622e-05,9.3535e-05,-3.6627,0.077324,-0.056919,0,-644.09,365.27,0,-744.27,0,-419.06,704.82,1,1,0.265,0.265,-0.1,0
-0.00024623,0.012168,0,-0.076898,-0.00011648,0.00011637,-20.486,0.4325,-0.056703,0,-632.37,358.59,0,-712.56,0,-405.93,691.09,1,1,0.27,0.27,-0.1,0
-0.00025532,0.012217,0,-0.10289,-0.00013817,0.00013803,-36.635,0.77342,-0.056487,0,-620.9,351.93,0,-681.58,0,-393.1,677.58,1,1,0.275,0.275,-0.1,0
-0.00026437,0.012266,0,-0.12779,-0.00015868,0.00015852,-52.109,1.1001,-0.056271,0,-609.67,345.29,0,-651.33,0,-380.56,664.29,1,1,0.28,0.28,-0.1,0
-0.00027341,0.012315,0,-0.15162,-0.00017802,0.00017784,-66.909,1.4125,-0.056056,0,-598.68,338.68,0,-621.81,0,-368.32,651.23,1,1,0.285,0.285,-0.1,0
-0.00028242,0.012363,0,-0.17436,-0.00019619,0.00019598,-81.036,1.7108,-0.05584,0,-587.94,332.09,0,-593.03,0,-356.37,638.39,1,1,0.29,0.29,-0.1,0
-0.00029141,0.01241,0,-0.19603,-0.00021318,0.00021296,-94.49,1.9948,-0.055625,0,-577.44,325.53,0,-564.97,0,-344.72,625.77,1,1,0.295,0.295,-0.1,0
-0.00030038,0.012457,0,-0.21662,-0.000229,0.00022876,-107.27,2.2647,-0.05541,0,-567.19,318.99,0,-537.65,0,-333.36,613.38,1,1,0.3,0.3,-0.1,0
-0.00030932,0.012503,0,-0.23613,-0.00024366,0.0002434,-119.38,2.5204,-0.055195,0,-557.18,312.48,0,-511.05,0,-322.3,601.2,1,1,0.305,0.305,-0.1,0
-0.00031824,0.012549,0,-0.25457,-0.00025714,0.00025687,-130.82,2.7619,-0.054981,0,-547.41,305.99,0,-485.19,0,-311.53,589.25,1,1,0.31,0.31,-0.1,0
-0.00032714,0.012594,0,-0.27193,-0.00026946,0.00026918,-141.6,2.9893,-0.054766,0,-537.88,299.53,0,-460.05,0,-301.05,577.53,1,1,0.315,0.315,-0.1,0
-0.00033601,0.012639,0,-0.28822,-0.00028062,0.00028033,-151.7,3.2026,-0.054552,0,-528.6,293.09,0,-435.65,0,-290.86,566.03,1,1,0.32,0.32,-0.1,0
-0.00034487,0.012683,0,-0.30344,-0.0002906,0.00029031,-161.13,3.4017,-0.054337,0,-519.55,286.67,0,-411.97,0,-280.97,554.75,1,1,0.325,0.325,-0.1,0
-0.0003537,0.012727,0,-0.31759,-0.00029943,0.00029912,-169.9,3.5868,-0.054123,0,-510.75,280.28,0,-389.02,0,-271.38,543.69,1,1,0.33,0.33,-0.1,0
-0.00036251,0.012771,0,-0.33066,-0.00030709,0.00030678,-177.99,3.7577,-0.05391,0,-502.19,273.92,0,-366.8,0,-262.07,532.85,1,1,0.335,0.335,-0.1,0
-0.00037129,0.012813,0,-0.34267,-0.00031359,0.00031328,-185.42,3.9146,-0.053696,0,-493.87,267.57,0,-345.3,0,-253.06,522.24,1,1,0.34,0.34,-0.1,0
-0.00038006,0.012856,0,-0.35361,-0.00031893,0.00031862,-192.19,4.0574,-0.053482,0,-485.79,261.25,0,-324.53,0,-244.34,511.85,1,1,0.345,0.345,-0.1,0
-0.0003888,0.012897,0,-0.36348,-0.00032311,0.0003228,-198.29,4.1862,-0.053269,0,-477.95,254.96,0,-304.49,0,-235.91,501.68,1,1,0.35,0.35,-0.1,0
-0.00039752,0.012939,0,-0.37229,-0.00032614,0.00032583,-203.72,4.3009,-0.053056,0,-470.35,248.69,0,-285.18,0,-227.78,491.74,1,1,0.355,0.355,-0.1,0
-0.00040622,0.012979,0,-0.38003,-0.000328,0.0003277,-208.49,4.4016,-0.052843,0,-462.99,242.44,0,-266.59,0,-219.93,482.01,1,1,0.36,0.36,-0.1,0
-0.0004149,0.01302,0,-0.38671,-0.00032871,0.00032841,-212.6,4.4884,-0.05263,0,-455.86,236.22,0,-248.72,0,-212.38,472.51,1,1,0.365,0.365,-0.1,0
-0.00042356,0.013059,0,-0.39232,-0.00032827,0.00032797,-216.05,4.5611,-0.052417,0,-448.98,230.02,0,-231.58,0,-205.12,463.23,1,1,0.37,0.37,-0.1,0
-0.0004322,0.013099,0,-0.39687,-0.00032667,0.00032639,-218.83,4.6198,-0.052205,0,-442.33,223.85,0,-215.17,0,-198.15,454.17,1,1,0.375,0.375,-0.1,0
-0.00044082,0.013137,0,-0.40036,-0.00032392,0.00032365,-220.95,4.6646,-0.051992,0,-435.93,217.7,0,-199.48,0,-191.47,445.34,1,1,0.38,0.38,-0.1,0
-0.00044941,0.013175,0,-0.40279,-0.00032002,0.00031976,-222.41,4.6954,-0.05178,0,-429.76,211.57,0,-184.51,0,-185.09,436.73,1,1,0.385,0.385,-0.1,0
-0.00045803,0.013213,0,-0.4042,-0.00031489,0.00031464,-223.21,4.7122,-0.051607,0,-423.82,205.46,0,-170.26,0,-178.98,428.32,1,1,0.39,0.39,-0.1,0
-0.00046665,0.01325,0,-0.40457,-0.00030855,0.00030832,-223.34,4.7152,-0.05146,0,-418.11,199.37,0,-156.72,0,-173.17,420.13,1,1,0.395,0.395,-0.1,0
-0.00047525,0.013287,0,-0.40389,-0.00030106,0.00030084,-222.83,4.7042,-0.051314,0,-412.63,193.3,0,-143.91,0,-167.64,412.16,1,1,0.4,0.4,-0.1,0
-0.00048383,0.013323,0,-0.40216,-0.0002924,0.0002922,-221.65,4.6794,-0.051167,0,-407.39,187.25,0,-131.82,0,-162.4,404.41,1,1,0.405,0.405,-0.1,0
-0.00049239,0.013359,0,-0.39937,-0.00028258,0.00028241,-219.82,4.6407,-0.051021,0,-402.39,181.23,0,-120.44,0,-157.45,396.88,1,1,0.41,0.41,-0.1,0
-0.00050093,0.013394,0,-0.39553,-0.0002716,0.00027145,-217.33,4.5882,-0.050875,0,-397.61,175.23,0,-109.79,0,-152.8,389.58,1,1,0.415,0.415,-0.1,0
-0.00050945,0.013429,0,-0.39065,-0.00025946,0.00025934,-214.19,4.5219,-0.050729,0,-393.08,169.26,0,-99.867,0,-148.42,382.5,1,1,0.42,0.42,-0.1,0
-0.00051795,0.013463,0,-0.38471,-0.00024617,0.00024607,-210.39,4.4417,-0.050582,0,-388.77,163.31,0,-90.659,0,-144.34,375.63,1,1,0.425,0.425,-0.1,0
-0.00052643,0.013497,0,-0.37773,-0.00023172,0.00023165,-205.94,4.3477,-0.050436,0,-384.7,157.38,0,-82.172,0,-140.55,368.99,1,1,0.43,0.43,-0.1,0
-0.00053489,0.01353,0,-0.3697,-0.00021611,0.00021607,-200.84,4.24,-0.05029,0,-380.87,151.47,0,-74.406,0,-137.04,362.57,1,1,0.435,0.435,-0.1,0
-0.00054333,0.013562,0,-0.36062,-0.00019935,0.00019934,-195.08,4.1184,-0.050144,0,-377.26,145.59,0,-67.359,0,-133.83,356.37,1,1,0.44,0.44,-0.1,0
-0.00055175,0.013595,0,-0.35049,-0.00018143,0.00018146,-188.67,3.983,-0.049998,0,-373.89,139.73,0,-61.033,0,-130.9,350.4,1,1,0.445,0.445,-0.1,0
-0.00056015,0.013626,0,-0.33932,-0.00016236,0.00016242,-181.6,3.8339,-0.049853,0,-370.75,133.9,0,-55.426,0,-128.26,344.64,1,1,0.45,0.45,-0.1,0
-0.00056853,0.013657,0,-0.32711,-0.00014213,0.00014224,-173.89,3.671,-0.049707,0,-367.85,128.09,0,-50.538,0,-125.9,339.1,1,1,0.455,0.455,-0.1,0
-0.00057689,0.013688,0,-0.31384,-0.00012076,0.0001209,-165.52,3.4944,-0.049561,0,-365.17,122.3,0,-46.37,0,-123.84,333.79,1,1,0.46,0.46,-0.1,0
-0.00058523,0.013718,0,-0.29954,-9.8229e-05,9.8411e-05,-156.5,3.304,-0.049415,0,-362.73,116.54,0,-42.92,0,-122.06,328.7,1,1,0.465,0.465,-0.1,0
-0.00059355,0.013748,0,-0.28419,-7.455e-05,7.4775e-05,-146.83,3.0998,-0.04927,0,-360.52,110.8,0,-40.189,0,-120.57,323.82,1,1,0.47,0.47,-0.1,0
-0.00060185,0.013777,0,-0.2678,-4.9722e-05,4.9991e-05,-136.51,2.882,-0.049124,0,-358.55,105.08,0,-38.176,0,-119.36,319.17,1,1,0.475,0.475,-0.1,0
-0.00061014,0.013806,0,-0.25037,-2.3745e-05,2.4059e-05,-125.54,2.6504,-0.048979,0,-356.8,99.384,0,-36.881,0,-118.45,314.74,1,1,0.48,0.48,-0.1,0
-0.0006184,0.013834,0,-0.2319,3.3808e-06,-3.0191e-06,-113.92,2.4051,-0.048833,0,-355.29,93.712,0,-36.303,0,-117.82,310.53,1,1,0.485,0.485,-0.1,0
-0.00062665,0.013861,0,-0.21239,3.1654e-05,-3.1243e-05,-101.65,2.1461,-0.048688,0,-354,88.064,0,-36.444,0,-117.48,306.54,1,1,0.49,0.49,-0.1,0
-0.00063488,0.013889,0,-0.19184,6.1074e-05,-6.0612e-05,-88.738,1.8734,-0.048543,0,-352.95,82.439,0,-37.301,0,-117.42,302.77,1,1,0.495,0.495,-0.1,0
-0.00064309,0.013915,0,-0.17025,9.1639e-05,-9.1125e-05,-75.173,1.587,-0.048398,0,-352.13,76.837,0,-38.876,0,-117.65,299.22,1,1,0.5,0.5,-0.1,0
-0.00065128,0.013941,0,-0.14762,0.00012335,-0.00012278,-60.961,1.287,-0.048253,0,-351.53,71.258,0,-41.167,0,-118.17,295.9,1,1,0.505,0.505,-0.1,0
-0.00065945,0.013967,0,-0.12395,0.00015621,-0.00015558,-46.102,0.97328,-0.048107,0,-351.17,65.703,0,-44.174,0,-118.97,292.79,1,1,0.51,0.51,-0.1,0
-0.00066761,0.013992,0,-0.099252,0.0001902,-0.00018952,-30.596,0.64592,-0.047962,0,-351.04,60.17,0,-47.898,0,-120.06,289.9,1,1,0.515,0.515,-0.1,0
-0.00067574,0.014017,0,-0.073514,0.00022535,-0.0002246,-14.443,0.30492,-0.047817,0,-351.13,54.66,0,-52.338,0,-121.43,287.23,1,1,0.52,0.52,-0.1,0
-0.00068357,0.014041,0,-0.050328,0.00025603,-0.00025525,0,0,-0.047679,0,-350.74,49.881,0,-56.445,0,-122.56,284.36,1,1,0.525,0.525,-0.1,0
-0.0006895,0.014065,0,-0.049139,0.00025254,-0.00025184,0,0,-0.047577,0,-345.99,49.526,0,-54.334,0,-120.49,278.93,1,1,0.53,0.53,-0.1,0
-0.0006954,0.014089,0,-0.047986,0.00024957,-0.00024896,0,0,-0.047475,0,-341.28,49.16,0,-52.265,0,-118.44,273.59,1,1,0.535,0.535,-0.1,0
-0.00070126,0.014113,0,-0.046868,0.00024713,-0.0002466,0,0,-0.047374,0,-336.62,48.783,0,-50.24,0,-116.42,268.35,1,1,0.54,0.54,-0.1,0
-0.00070708,0.014136,0,-0.045786,0.00024522,-0.00024476,0,0,-0.047272,0,-332.01,48.396,0,-48.257,0,-114.43,263.21,1,1,0.545,0.545,-0.1,0
-0.00071286,0.014159,0,-0.044739,0.00024384,-0.00024345,0,0,-0.047171,0,-327.45,47.999,0,-46.317,0,-112.47,258.17,1,1,0.55,0.55,-0.1,0
-0.00071861,0.014183,0,-0.043728,0.00024299,-0.00024267,0,0,-0.047069,0,-322.93,47.59,0,-44.42,0,-110.53,253.22,1,1,0.555,0.555,-0.1,0
-0.00072431,0.014206,0,-0.042752,0.00024267,-0.0002424,0,0,-0.046968,0,-318.46,47.171,0,-42.565,0,-108.62,248.37,1,1,0.56,0.56,-0.1,0
-0.00072998,0.014229,0,-0.041812,0.00024287,-0.00024266,0,0,-0.046866,0,-314.04,46.742,0,-40.754,0,-106.74,243.61,1,1,0.565,0.565,-0.1,0
-0.00073562,0.014251,0,-0.040907,0.00024361,-0.00024345,0,0,-0.046765,0,-309.66,46.302,0,-38.985,0,-104.89,238.95,1,1,0.57,0.57,-0.1,0
-0.00074121,0.014274,0,-0.040038,0.00024487,-0.00024475,0,0,-0.046663,0,-305.33,45.852,0,-37.26,0,-103.06,234.39,1,1,0.575,0.575,-0.1,0
-0.00074676,0.014296,0,-0.039204,0.00024666,-0.00024658,0,0,-0.046562,0,-301.05,45.391,0,-35.577,0,-101.26,229.92,1,1,0.58,0.58,-0.1,0
-0.00075228,0.014318,0,-0.038405,0.00024898,-0.00024894,0,0,-0.046461,0,-296.82,44.92,0,-33.937,0,-99.49,225.55,1,1,0.585,0.585,-0.1,0
-0.00075776,0.01434,0,-0.037641,0.00025182,-0.00025181,0,0,-0.04636,0,-292.63,44.439,0,-32.341,0,-97.745,221.28,1,1,0.59,0.59,-0.1,0
-0.0007632,0.014362,0,-0.036913,0.00025519,-0.00025521,0,0,-0.046258,0,-288.49,43.947,0,-30.787,0,-96.028,217.1,1,1,0.595,0.595,-0.1,0
-0.00076861,0.014384,0,-0.036221,0.00025909,-0.00025912,0,0,-0.046157,0,-284.4,43.445,0,-29.276,0,-94.338,213.02,1,1,0.6,0.6,-0.1,0
-0.00077397,0.014405,0,-0.035563,0.00026352,-0.00026356,0,0,-0.046056,0,-280.36,42.933,0,-27.809,0,-92.675,209.03,1,1,0.605,0.605,-0.1,0
-0.0007793,0.014427,0,-0.034941,0.00026847,-0.00026852,0,0,-0.045955,0,-276.36,42.41,0,-26.384,0,-91.04,205.14,1,1,0.61,0.61,-0.1,0
-0.00078459,0.014448,0,-0.034354,0.00027394,-0.000274,0,0,-0.045854,0,-272.41,41.878,0,-25.002,0,-89.432,201.35,1,1,0.615,0.615,-0.1,0
-0.00078984,0.014469,0,-0.033802,0.00027995,-0.00028001,0,0,-0.045752,0,-268.51,41.335,0,-23.664,0,-87.852,197.65,1,1,0.62,0.62,-0.1,0
-0.00079505,0.01449,0,-0.033286,0.00028647,-0.00028653,0,0,-0.045651,0,-264.66,40.782,0,-22.369,0,-86.299,194.05,1,1,0.625,0.625,-0.1,0
-0.00080023,0.014511,0,-0.032805,0.00029353,-0.00029357,0,0,-0.04555,0,-260.85,40.219,0,-21.117,0,-84.774,190.55,1,1,0.63,0.63,-0.1,0
-0.00080536,0.014531,0,-0.032359,0.00030111,-0.00030113,0,0,-0.045449,0,-257.09,39.645,0,-19.908,0,-83.276,187.14,1,1,0.635,0.635,-0.1,0
-0.00081046,0.014552,0,-0.031948,0.00030921,-0.00030922,0,0,-0.045348,0,-253.38,39.062,0,-18.742,0,-81.805,183.83,1,1,0.64,0.64,-0.1,0
-0.00081552,0.014572,0,-0.031573,0.00031783,-0.00031782,0,0,-0.045247,0,-249.72,38.469,0,-17.619,0,-80.363,180.62,1,1,0.645,0.645,-0.1,0
-0.00082055,0.014592,0,-0.031232,0.00032699,-0.00032694,0,0,-0.045146,0,-246.1,37.866,0,-16.539,0,-78.947,177.5,1,1,0.65,0.65,-0.1,0
-0.00082553,0.014612,0,-0.030927,0.00033666,-0.00033658,0,0,-0.045045,0,-242.53,37.253,0,-15.503,0,-77.559,174.48,1,1,0.655,0.655,-0.1,0
-0.00083048,0.014632,0,-0.030657,0.00034686,-0.00034674,0,0,-0.044945,0,-239.01,36.63,0,-14.51,0,-76.199,171.56,1,1,0.66,0.66,-0.1,0
-0.00083539,0.014652,0,-0.030422,0.00035758,-0.00035742,0,0,-0.044844,0,-235.54,35.997,0,-13.56,0,-74.866,168.73,1,1,0.665,0.665,-0.1,0
-0.00084026,0.014671,0,-0.030222,0.00036883,-0.00036861,0,0,-0.044743,0,-232.12,35.354,0,-12.654,0,-73.561,165.99,1,1,0.67,0.67,-0.1,0
-0.00084509,0.01469,0,-0.030057,0.00038059,-0.00038032,0,0,-0.044642,0,-228.74,34.701,0,-11.791,0,-72.283,163.36,1,1,0.675,0.675,-0.1,0
-0.0008499,0.014709,0,-0.029948,0.00039318,-0.00039285,0,0,-0.044562,0,-225.4,34.037,0,-10.97,0,-71.031,160.81,1,1,0.68,0.68,-0.1,0
-0.00085467,0.014728,0,-0.029876,0.00040633,-0.00040594,0,0,-0.044484,0,-222.12,33.363,0,-10.192,0,-69.807,158.37,1,1,0.685,0.685,-0.1,0
-0.0008594,0.014747,0,-0.029839,0.00042002,-0.00041955,0,0,-0.044406,0,-218.88,32.679,0,-9.4579,0,-68.61,156.02,1,1,0.69,0.69,-0.1,0
-0.00086409,0.014766,0,-0.029837,0.00043424,-0.0004337,0,0,-0.044329,0,-215.69,31.986,0,-8.7671,0,-67.442,153.76,1,1,0.695,0.695,-0.1,0
-0.00086875,0.014784,0,-0.029869,0.00044899,-0.00044837,0,0,-0.044251,0,-212.54,31.283,0,-8.1198,0,-66.3,151.6,1,1,0.7,0.7,-0.1,0
-0.00087337,0.014803,0,-0.029937,0.00046429,-0.00046358,0,0,-0.044173,0,-209.45,30.571,0,-7.5159,0,-65.187,149.54,1,1,0.705,0.705,-0.1,0
-0.00087795,0.014821,0,-0.03004,0.00048011,-0.00047931,0,0,-0.044095,0,-206.4,29.849,0,-6.9556,0,-64.101,147.58,1,1,0.71,0.71,-0.1,0
-0.00088249,0.014839,0,-0.030177,0.00049647,-0.00049558,0,0,-0.044017,0,-203.4,29.117,0,-6.4387,0,-63.043,145.71,1,1,0.715,0.715,-0.1,0
-0.00088699,0.014857,0,-0.03035,0.00051337,-0.00051237,0,0,-0.043939,0,-200.45,28.376,0,-5.9654,0,-62.012,143.94,1,1,0.72,0.72,-0.1,0
-0.00089145,0.014874,0,-0.030557,0.0005308,-0.00052969,0,0,-0.043861,0,-197.55,27.626,0,-5.5356,0,-61.01,142.26,1,1,0.725,0.725,-0.1,0
-0.00089588,0.014892,0,-0.030799,0.00054876,-0.00054755,0,0,-0.043784,0,-194.7,26.866,0,-5.1493,0,-60.035,140.68,1,1,0.73,0.73,-0.1,0
-0.00090027,0.014909,0,-0.031076,0.00056725,-0.00056593,0,0,-0.043706,0,-191.89,26.097,0,-4.8066,0,-59.088,139.2,1,1,0.735,0.735,-0.1,0
-0.00090462,0.014926,0,-0.031388,0.00058628,-0.00058484,0,0,-0.043628,0,-189.13,25.319,0,-4.5074,0,-58.168,137.81,1,1,0.74,0.74,-0.1,0
-0.00090893,0.014943,0,-0.031734,0.00060585,-0.00060428,0,0,-0.04355,0,-186.42,24.531,0,-4.2519,0,-57.277,136.52,1,1,0.745,0.745,-0.1,0
-0.0009132,0.01496,0,-0.032116,0.00062594,-0.00062424,0,0,-0.043473,0,-183.76,23.734,0,-4.0399,0,-56.413,135.33,1,1,0.75,0.75,-0.1,0
-0.00091743,0.014977,0,-0.032532,0.00064657,-0.00064474,0,0,-0.043395,0,-181.14,22.928,0,-3.8716,0,-55.577,134.23,1,1,0.755,0.755,-0.1,0
-0.00092163,0.014994,0,-0.032983,0.00066774,-0.00066576,0,0,-0.043317,0,-178.58,22.112,0,-3.7468,0,-54.769,133.23,1,1,0.76,0.76,-0.1,0
-0.00092579,0.01501,0,-0.033468,0.00068943,-0.00068731,0,0,-0.043239,0,-176.06,21.287,0,-3.6658,0,-53.988,132.32,1,1,0.765,0.765,-0.1,0
-0.0009299,0.015026,0,-0.033989,0.00071166,-0.00070939,0,0,-0.043162,0,-173.59,20.453,0,-3.6283,0,-53.235,131.51,1,1,0.77,0.77,-0.1,0
-0.00093398,0.015042,0,-0.034544,0.00073442,-0.00073199,0,0,-0.043084,0,-171.17,19.61,0,-3.6346,0,-52.511,130.8,1,1,0.775,0.775,-0.1,0
-0.00093803,0.015058,0,-0.035134,0.00075771,-0.00075512,0,0,-0.043007,0,-168.79,18.757,0,-3.6845,0,-51.814,130.19,1,1,0.78,0.78,-0.1,0
-0.00094203,0.015074,0,-0.035758,0.00078153,-0.00077878,0,0,-0.042929,0,-166.47,17.896,0,-3.7781,0,-51.144,129.67,1,1,0.785,0.785,-0.1,0
-0.00094599,0.015089,0,-0.036418,0.00080589,-0.00080297,0,0,-0.042851,0,-164.19,17.025,0,-3.9154,0,-50.503,129.24,1,1,0.79,0.79,-0.1,0
-0.00094992,0.015105,0,-0.037112,0.00083077,-0.00082768,0,0,-0.042774,0,-161.96,16.145,0,-4.0965,0,-49.89,128.92,1,1,0.795,0.795,-0.1,0
-0.00095381,0.01512,0,-0.03784,0.00085619,-0.00085291,0,0,-0.042696,0,-159.78,15.256,0,-4.3213,0,-49.304,128.69,1,1,0.8,0.8,-0.1,0
-0.00095766,0.015135,0,-0.038604,0.00088214,-0.00087868,0,0,-0.042619,0,-157.65,14.358,0,-4.5899,0,-48.746,128.55,1,1,0.805,0.805,-0.1,0
-0.00096147,0.01515,0,-0.039402,0.00090862,-0.00090497,0,0,-0.042541,0,-155.56,13.451,0,-4.9022,0,-48.216,128.52,1,1,0.81,0.81,-0.1,0
-0.00096524,0.015165,0,-0.040234,0.00093563,-0.00093178,0,0,-0.042464,0,-153.53,12.535,0,-5.2583,0,-47.714,128.57,1,1,0.815,0.815,-0.1,0
-0.00096898,0.015179,0,-0.041101,0.00096317,-0.00095912,0,0,-0.042386,0,-151.54,11.61,0,-5.6582,0,-47.24,128.73,1,1,0.82,0.82,-0.1,0
-0.00097267,0.015194,0,-0.042003,0.00099124,-0.00098699,0,0,-0.042309,0,-149.6,10.676,0,-6.1019,0,-46.794,128.98,1,1,0.825,0.825,-0.1,0
-0.00097612,0.015208,0,-0.042242,0.0010002,-0.00099606,0,0,-0.042242,0,-148.57,10.521,0,-6.2572,0,-46.53,128.51,1,1,0.83,0.83,-0.1,0
-0.00097946,0.015223,0,-0.042179,0.001001,-0.00099715,0,0,-0.042179,0,-147.92,10.703,0,-6.2706,0,-46.338,127.71,1,1,0.835,0.835,-0.1,0
-0.00098279,0.015237,0,-0.042117,0.0010024,-0.00099872,0,0,-0.042117,0,-147.27,10.876,0,-6.2806,0,-46.145,126.91,1,1,0.84,0.84,-0.1,0
-0.0009861,0.015252,0,-0.042055,0.0010042,-0.0010008,0,0,-0.042055,0,-146.63,11.039,0,-6.2874,0,-45.953,126.13,1,1,0.845,0.845,-0.1,0
-0.0009894,0.015266,0,-0.041993,0.0010065,-0.0010033,0,0,-0.041993,0,-145.99,11.192,0,-6.2909,0,-45.76,125.36,1,1,0.85,0.85,-0.1,0
-0.00099269,0.01528,0,-0.04193,0.0010093,-0.0010063,0,0,-0.04193,0,-145.35,11.337,0,-6.291,0,-45.566,124.59,1,1,0.855,0.855,-0.1,0
-0.00099597,0.015294,0,-0.041868,0.0010127,-0.0010098,0,0,-0.041868,0,-144.71,11.471,0,-6.2879,0,-45.373,123.84,1,1,0.86,0.86,-0.1,0
-0.00099923,0.015308,0,-0.041806,0.0010165,-0.0010138,0,0,-0.041806,0,-144.08,11.596,0,-6.2815,0,-45.179,123.1,1,1,0.865,0.865,-0.1,0
-0.0010025,0.015322,0,-0.041744,0.0010208,-0.0010183,0,0,-0.041744,0,-143.44,11.712,0,-6.2718,0,-44.984,122.37,1,1,0.87,0.87,-0.1,0
-0.0010057,0.015336,0,-0.041681,0.0010256,-0.0010232,0,0,-0.041681,0,-142.81,11.818,0,-6.2588,0,-44.79,121.65,1,1,0.875,0.875,-0.1,0
-0.0010089,0.01535,0,-0.041619,0.0010309,-0.0010286,0,0,-0.041619,0,-142.19,11.915,0,-6.2426,0,-44.595,120.94,1,1,0.88,0.88,-0.1,0
-0.0010121,0.015364,0,-0.041557,0.0010366,-0.0010345,0,0,-0.041557,0,-141.56,12.003,0,-6.223,0,-44.4,120.25,1,1,0.885,0.885,-0.1,0
-0.0010153,0.015378,0,-0.041495,0.0010429,-0.0010409,0,0,-0.041495,0,-140.94,12.081,0,-6.2002,0,-44.205,119.56,1,1,0.89,0.89,-0.1,0
-0.0010185,0.015391,0,-0.041433,0.0010497,-0.0010478,0,0,-0.041433,0,-140.32,12.149,0,-6.1741,0,-44.009,118.88,1,1,0.895,0.895,-0.1,0
-0.0010217,0.015405,0,-0.041371,0.001057,-0.0010551,0,0,-0.041371,0,-139.7,12.208,0,-6.1447,0,-43.813,118.22,1,1,0.9,0.9,-0.1,0
-0.0010248,0.015419,0,-0.041308,0.0010647,-0.0010629,0,0,-0.041308,0,-139.08,12.258,0,-6.1121,0,-43.617,117.56,1,1,0.905,0.905,-0.1,0
-0.001028,0.015432,0,-0.041246,0.001073,-0.0010712,0,0,-0.041246,0,-138.47,12.298,0,-6.0762,0,-43.42,116.92,1,1,0.91,0.91,-0.1,0
-0.0010311,0.015445,0,-0.041184,0.0010817,-0.00108,0,0,-0.041184,0,-137.85,12.329,0,-6.0371,0,-43.224,116.28,1,1,0.915,0.915,-0.1,0
-0.0010342,0.015459,0,-0.041122,0.0010909,-0.0010893,0,0,-0.041122,0,-137.24,12.35,0,-5.9947,0,-43.027,115.66,1,1,0.92,0.92,-0.1,0
-0.0010373,0.015472,0,-0.04106,0.0011007,-0.001099,0,0,-0.04106,0,-136.63,12.362,0,-5.949,0,-42.829,115.05,1,1,0.925,0.925,-0.1,0
-0.0010404,0.015485,0,-0.040998,0.0011109,-0.0011092,0,0,-0.040998,0,-136.03,12.365,0,-5.9001,0,-42.632,114.45,1,1,0.93,0.93,-0.1,0
-0.0010434,0.015498,0,-0.040936,0.0011216,-0.0011199,0,0,-0.040936,0,-135.43,12.358,0,-5.848,0,-42.434,113.85,1,1,0.935,0.935,-0.1,0
-0.0010465,0.015512,0,-0.040874,0.0011328,-0.0011311,0,0,-0.040874,0,-134.82,12.342,0,-5.7926,0,-42.236,113.27,1,1,0.94,0.94,-0.1,0
-0.0010495,0.015525,0,-0.040812,0.0011445,-0.0011428,0,0,-0.040812,0,-134.23,12.317,0,-5.734,0,-42.038,112.7,1,1,0.945,0.945,-0.1,0
-0.0010526,0.015538,0,-0.04075,0.0011567,-0.0011549,0,0,-0.04075,0,-133.63,12.282,0,-5.6721,0,-41.839,112.15,1,1,0.95,0.95,-0.1,0
-0.0010556,0.01555,0,-0.040688,0.0011694,-0.0011675,0,0,-0.040688,0,-133.03,12.237,0,-5.607,0,-41.64,111.6,1,1,0.955,0.955,-0.1,0
-0.0010586,0.015563,0,-0.040626,0.0011825,-0.0011806,0,0,-0.040626,0,-132.44,12.184,0,-5.5387,0,-41.441,111.06,1,1,0.96,0.96,-0.1,0
-0.0010616,0.015576,0,-0.040564,0.0011962,-0.0011942,0,0,-0.040564,0,-131.85,12.121,0,-5.4671,0,-41.242,110.53,1,1,0.965,0.965,-0.1,0
-0.0010646,0.015589,0,-0.040502,0.0012104,-0.0012082,0,0,-0.040502,0,-131.27,12.048,0,-5.3924,0,-41.042,110.02,1,1,0.97,0.97,-0.1,0
-0.0010675,0.015601,0,-0.04044,0.001225,-0.0012227,0,0,-0.04044,0,-130.68,11.967,0,-5.3144,0,-40.843,109.51,1,1,0.975,0.975,-0.1,0
-0.0010705,0.015614,0,-0.040378,0.0012401,-0.0012378,0,0,-0.040378,0,-130.1,11.875,0,-5.2332,0,-40.643,109.02,1,1,0.98,0.98,-0.1,0
-0.0010734,0.015626,0,-0.040316,0.0012558,-0.0012532,0,0,-0.040316,0,-129.52,11.775,0,-5.1488,0,-40.442,108.53,1,1,0.985,0.985,-0.1,0
-0.0010763,0.015639,0,-0.040254,0.0012719,-0.0012692,0,0,-0.040254,0,-128.94,11.665,0,-5.0612,0,-40.242,108.06,1,1,0.99,0.99,-0.1,0
-0.0010792,0.015651,0,-0.040196,0.0012887,-0.0012858,0,0,-0.040196,0,-128.36,11.546,0,-4.9704,0,-40.041,107.6,1,1,0.995,0.995,-0.1,0
-0.0010821,0.015664,0,-0.040145,0.0013062,-0.0013031,0,0,-0.040145,0,-127.79,11.417,0,-4.8763,0,-39.84,107.14,1,1,1,1,-0.1,0
-0.001085,0.015676,0,-0.040093,0.0013242,-0.0013209,0,0,-0.040093,0,-127.22,11.279,0,-4.7791,0,-39.638,106.7,1,1,1.005,1.005,-0.1,0
-0.0010879,0.015688,0,-0.040041,0.0013426,-0.0013392,0,0,-0.040041,0,-126.65,11.132,0,-4.6787,0,-39.437,106.27,1,1,1.01,1.01,-0.1,0
-0.0010908,0.0157,0,-0.039989,0.0013616,-0.001358,0,0,-0.039989,0,-126.08,10.975,0,-4.5751,0,-39.235,105.85,1,1,1.015,1.015,-0.1,0
-0.0010936,0.015712,0,-0.039937,0.0013811,-0.0013772,0,0,-0.039937,0,-125.51,10.809,0,-4.4683,0,-39.033,105.44,1,1,1.02,1.02,-0.1,0
-0.0010964,0.015724,0,-0.039885,0.0014011,-0.0013969,0,0,-0.039885,0,-124.95,10.634,0,-4.3583,0,-38.83,105.04,1,1,1.025,1.025,-0.1,0
-0.0010993,0.015736,0,-0.039833,0.0014216,-0.0014172,0,0,-0.039833,0,-124.39,10.449,0,-4.2452,0,-38.628,104.65,1,1,1.03,1.03,-0.1,0
-0.0011021,0.015748,0,-0.039782,0.0014426,-0.0014379,0,0,-0.039782,0,-123.83,10.255,0,-4.1288,0,-38.425,104.27,1,1,1.035,1.035,-0.1,0
-0.0011048,0.01576,0,-0.03973,0.0014641,-0.0014591,0,0,-0.03973,0,-123.28,10.052,0,-4.0093,0,-38.222,103.91,1,1,1.04,1.04,-0.1,0
-0.0011076,0.015771,0,-0.039678,0.0014861,-0.0014808,0,0,-0.039678,0,-122.72,9.8395,0,-3.8866,0,-38.019,103.55,1,1,1.045,1.045,-0.1,0
-0.0011104,0.015783,0,-0.039626,0.0015085,-0.0015029,0,0,-0.039626,0,-122.17,9.6177,0,-3.7608,0,-37.815,103.21,1,1,1.05,1.05,-0.1,0
-0.0011131,0.015795,0,-0.039574,0.0015315,-0.0015256,0,0,-0.039574,0,-121.62,9.3866,0,-3.6317,0,-37.612,102.87,1,1,1.055,1.055,-0.1,0
-0.0011159,0.015806,0,-0.039523,0.001555,-0.0015487,0,0,-0.039523,0,-121.08,9.1463,0,-3.4995,0,-37.408,102.55,1,1,1.06,1.06,-0.1,0
-0.0011186,0.015818,0,-0.039471,0.001579,-0.0015723,0,0,-0.039471,0,-120.53,8.8966,0,-3.3642,0,-37.204,102.23,1,1,1.065,1.065,-0.1,0
-0.0011213,0.015829,0,-0.039419,0.0016035,-0.0015964,0,0,-0.039419,0,-119.99,8.6377,0,-3.2257,0,-37,101.93,1,1,1.07,1.07,-0.1,0
-0.001124,0.01584,0,-0.039367,0.0016284,-0.001621,0,0,-0.039367,0,-119.45,8.3695,0,-3.084,0,-36.795,101.64,1,1,1.075,1.075,-0.1,0
-0.0011267,0.015851,0,-0.039315,0.0016539,-0.0016461,0,0,-0.039315,0,-118.91,8.0921,0,-2.9392,0,-36.591,101.36,1,1,1.08,1.08,-0.1,0
-0.0011293,0.015863,0,-0.039264,0.0016799,-0.0016717,0,0,-0.039264,0,-118.38,7.8054,0,-2.7912,0,-36.386,101.09,1,1,1.085,1.085,-0.1,0
-0.001132,0.015874,0,-0.039212,0.0017063,-0.0016977,0,0,-0.039212,0,-117.85,7.5094,0,-2.6401,0,-36.181,100.83,1,1,1.09,1.09,-0.1,0
-0.0011346,0.015885,0,-0.03916,0.0017333,-0.0017242,0,0,-0.03916,0,-117.32,7.2042,0,-2.4858,0,-35.976,100.58,1,1,1.095,1.095,-0.1,0
-0.0011373,0.015896,0,-0.039109,0.0017607,-0.0017512,0,0,-0.039109,0,-116.79,6.8897,0,-2.3284,0,-35.77,100.34,1,1,1.1,1.1,-0.1,0
-0.0011399,0.015907,0,-0.039057,0.0017887,-0.0017787,0,0,-0.039057,0,-116.27,6.566,0,-2.1679,0,-35.565,100.11,1,1,1.105,1.105,-0.1,0
-0.0011425,0.015918,0,-0.039005,0.0018172,-0.0018067,0,0,-0.039005,0,-115.74,6.233,0,-2.0042,0,-35.359,99.893,1,1,1.11,1.11,-0.1,0
-0.0011451,0.015928,0,-0.038953,0.0018461,-0.0018352,0,0,-0.038953,0,-115.22,5.8908,0,-1.8374,0,-35.153,99.687,1,1,1.115,1.115,-0.1,0
-0.0011476,0.015939,0,-0.038902,0.0018755,-0.0018641,0,0,-0.038902,0,-114.71,5.5393,0,-1.6674,0,-34.947,99.491,1,1,1.12,1.12,-0.1,0
-0.0011502,0.01595,0,-0.03885,0.0019055,-0.0018936,0,0,-0.03885,0,-114.19,5.1786,0,-1.4943,0,-34.741,99.307,1,1,1.125,1.125,-0.1,0
-0.0011527,0.01596,0,-0.038798,0.0019359,-0.0019235,0,0,-0.038798,0,-113.68,4.8087,0,-1.3181,0,-34.534,99.132,1,1,1.13,1.13,-0.1,0
-0.0011553,0.015971,0,-0.038747,0.0019669,-0.0019539,0,0,-0.038747,0,-113.17,4.4296,0,-1.1388,0,-34.328,98.969,1,1,1.135,1.135,-0.1,0
-0.0011578,0.015981,0,-0.038695,0.0019983,-0.0019847,0,0,-0.038695,0,-112.66,4.0412,0,-0.95638,0,-34.121,98.816,1,1,1.14,1.14,-0.1,0
-0.0011603,0.015992,0,-0.038643,0.0020302,-0.0020161,0,0,-0.038643,0,-112.15,3.6436,0,-0.77081,0,-33.914,98.674,1,1,1.145,1.145,-0.1,0
-0.0011628,0.016002,0,-0.038592,0.0020626,-0.002048,0,0,-0.038592,0,-111.65,3.2368,0,-0.58214,0,-33.706,98.543,1,1,1.15,1.15,-0.1,0
-0.0011652,0.016012,0,-0.03854,0.0020955,-0.0020803,0,0,-0.03854,0,-111.15,2.8208,0,-0.39035,0,-33.499,98.422,1,1,1.155,1.155,-0.1,0
-0.0011677,0.016023,0,-0.03849,0.0021232,-0.0021076,0,0,-0.03849,0,-110.7,2.4992,0,-0.24237,0,-33.321,98.284,1,1,1.16,1.16,-0.1,0
-0.0011702,0.016033,0,-0.038445,0.0021258,-0.0021107,0,0,-0.038445,0,-110.48,2.6323,0,-0.30086,0,-33.27,98.025,1,1,1.165,1.165,-0.1,0
-0.0011727,0.016043,0,-0.0384,0.002129,-0.0021143,0,0,-0.0384,0,-110.25,2.7611,0,-0.35776,0,-33.218,97.766,1,1,1.17,1.17,-0.1,0
-0.0011752,0.016054,0,-0.038356,0.0021326,-0.0021184,0,0,-0.038356,0,-110.02,2.8857,0,-0.41306,0,-33.166,97.508,1,1,1.175,1.175,-0.1,0
-0.0011777,0.016064,0,-0.038311,0.0021368,-0.002123,0,0,-0.038311,0,-109.79,3.0061,0,-0.46677,0,-33.113,97.251,1,1,1.18,1.18,-0.1,0
-0.0011801,0.016074,0,-0.038266,0.0021414,-0.002128,0,0,-0.038266,0,-109.56,3.1222,0,-0.51888,0,-33.059,96.993,1,1,1.185,1.185,-0.1,0
-0.0011826,0.016084,0,-0.038222,0.0021466,-0.0021336,0,0,-0.038222,0,-109.32,3.2341,0,-0.5694,0,-33.004,96.737,1,1,1.19,1.19,-0.1,0
-0.0011851,0.016095,0,-0.038177,0.0021523,-0.0021396,0,0,-0.038177,0,-109.09,3.3418,0,-0.61833,0,-32.948,96.481,1,1,1.195,1.195,-0.1,0
-0.0011875,0.016105,0,-0.038132,0.0021584,-0.0021461,0,0,-0.038132,0,-108.86,3.4452,0,-0.66566,0,-32.891,96.225,1,1,1.2,1.2,-0.1,0
-0.00119,0.016115,0,-0.038088,0.0021651,-0.0021531,0,0,-0.038088,0,-108.62,3.5445,0,-0.71139,0,-32.834,95.97,1,1,1.205,1.205,-0.1,0
-0.0011924,0.016125,0,-0.038043,0.0021723,-0.0021606,0,0,-0.038043,0,-108.38,3.6395,0,-0.75553,0,-32.776,95.715,1,1,1.21,1.21,-0.1,0
-0.0011949,0.016135,0,-0.037998,0.00218,-0.0021685,0,0,-0.037998,0,-108.14,3.7302,0,-0.79808,0,-32.717,95.461,1,1,1.215,1.215,-0.1,0
-0.0011973,0.016145,0,-0.037954,0.0021882,-0.002177,0,0,-0.037954,0,-107.9,3.8167,0,-0.83903,0,-32.657,95.207,1,1,1.22,1.22,-0.1,0
-0.0011997,0.016155,0,-0.037909,0.0021969,-0.0021859,0,0,-0.037909,0,-107.66,3.899,0,-0.87839,0,-32.596,94.954,1,1,1.225,1.225,-0.1,0
-0.0012021,0.016165,0,-0.037864,0.0022062,-0.0021953,0,0,-0.037864,0,-107.42,3.9771,0,-0.91616,0,-32.534,94.701,1,1,1.23,1.23,-0.1,0
-0.0012046,0.016175,0,-0.03782,0.0022159,-0.0022052,0,0,-0.03782,0,-107.18,4.051,0,-0.95233,0,-32.472,94.449,1,1,1.235,1.235,-0.1,0
-0.001207,0.016185,0,-0.037775,0.0022261,-0.0022155,0,0,-0.037775,0,-106.93,4.1206,0,-0.98691,0,-32.409,94.197,1,1,1.24,1.24,-0.1,0
-0.0012094,0.016194,0,-0.037731,0.0022369,-0.0022264,0,0,-0.037731,0,-106.69,4.186,0,-1.0199,0,-32.344,93.946,1,1,1.245,1.245,-0.1,0
-0.0012118,0.016204,0,-0.037686,0.0022481,-0.0022377,0,0,-0.037686,0,-106.44,4.2472,0,-1.0513,0,-32.279,93.695,1,1,1.25,1.25,-0.1,0
-0.0012142,0.016214,0,-0.037641,0.0022599,-0.0022495,0,0,-0.037641,0,-106.19,4.3041,0,-1.0811,0,-32.214,93.445,1,1,1.255,1.255,-0.1,0
-0.0012165,0.016224,0,-0.037597,0.0022721,-0.0022618,0,0,-0.037597,0,-105.94,4.3569,0,-1.1093,0,-32.147,93.195,1,1,1.26,1.26,-0.1,0
-0.0012189,0.016233,0,-0.037552,0.0022849,-0.0022746,0,0,-0.037552,0,-105.69,4.4054,0,-1.1359,0,-32.08,92.946,1,1,1.265,1.265,-0.1,0
-0.0012213,0.016243,0,-0.037508,0.0022982,-0.0022878,0,0,-0.037508,0,-105.44,4.4496,0,-1.1609,0,-32.011,92.697,1,1,1.27,1.27,-0.1,0
-0.0012237,0.016253,0,-0.037463,0.0023119,-0.0023016,0,0,-0.037463,0,-105.19,4.4897,0,-1.1844,0,-31.942,92.449,1,1,1.275,1.275,-0.1,0
-0.001226,0.016262,0,-0.037418,0.0023262,-0.0023158,0,0,-0.037418,0,-104.93,4.5255,0,-1.2062,0,-31.872,92.201,1,1,1.28,1.28,-0.1,0
-0.0012284,0.016272,0,-0.037374,0.002341,-0.0023305,0,0,-0.037374,0,-104.68,4.5571,0,-1.2265,0,-31.801,91.953,1,1,1.285,1.285,-0.1,0
-0.0012307,0.016281,0,-0.037329,0.0023563,-0.0023456,0,0,-0.037329,0,-104.42,4.5845,0,-1.2451,0,-31.73,91.707,1,1,1.29,1.29,-0.1,0
-0.0012331,0.016291,0,-0.037285,0.0023721,-0.0023613,0,0,-0.037285,0,-104.16,4.6077,0,-1.2622,0,-31.657,91.46,1,1,1.295,1.295,-0.1,0
-0.0012354,0.0163,0,-0.03724,0.0023884,-0.0023774,0,0,-0.03724,0,-103.9,4.6266,0,-1.2777,0,-31.584,91.214,1,1,1.3,1.3,-0.1,0
-0.0012377,0.01631,0,-0.037196,0.0024052,-0.002394,0,0,-0.037196,0,-103.64,4.6414,0,-1.2915,0,-31.51,90.969,1,1,1.305,1.305,-0.1,0
-0.0012401,0.016319,0,-0.037151,0.0024225,-0.0024111,0,0,-0.037151,0,-103.38,4.6519,0,-1.3038,0,-31.435,90.724,1,1,1.31,1.31,-0.1,0
-0.0012424,0.016328,0,-0.037107,0.0024404,-0.0024287,0,0,-0.037107,0,-103.12,4.6582,0,-1.3145,0,-31.359,90.48,1,1,1.315,1.315,-0.1,0
-0.0012447,0.016338,0,-0.037062,0.0024587,-0.0024468,0,0,-0.037062,0,-102.86,4.6602,0,-1.3236,0,-31.283,90.236,1,1,1.32,1.32,-0.1,0
-0.001247,0.016347,0,-0.037018,0.0024775,-0.0024653,0,0,-0.037018,0,-102.59,4.6581,0,-1.3312,0,-31.205,89.992,1,1,1.325,1.325,-0.1,0
-0.0012493,0.016356,0,-0.036973,0.0024969,-0.0024843,0,0,-0.036973,0,-102.33,4.6517,0,-1.3371,0,-31.127,89.749,1,1,1.33,1.33,-0.1,0
-0.0012516,0.016365,0,-0.036929,0.0025167,-0.0025038,0,0,-0.036929,0,-102.06,4.6412,0,-1.3414,0,-31.048,89.507,1,1,1.335,1.335,-0.1,0
-0.0012539,0.016375,0,-0.036884,0.002537,-0.0025238,0,0,-0.036884,0,-101.79,4.6264,0,-1.3442,0,-30.968,89.265,1,1,1.34,1.34,-0.1,0
-0.0012562,0.016384,0,-0.036843,0.0025581,-0.0025445,0,0,-0.036843,0,-101.52,4.6073,0,-1.3453,0,-30.887,89.023,1,1,1.345,1.345,-0.1,0
-0.0012584,0.016393,0,-0.036804,0.0025799,-0.0025659,0,0,-0.036804,0,-101.25,4.584,0,-1.3449,0,-30.805,88.782,1,1,1.35,1.35,-0.1,0
-0.0012607,0.016402,0,-0.036765,0.0026023,-0.0025877,0,0,-0.036765,0,-100.98,4.5565,0,-1.3429,0,-30.723,88.541,1,1,1.355,1.355,-0.1,0
-0.001263,0.016411,0,-0.036726,0.0026251,-0.0026101,0,0,-0.036726,0,-100.7,4.5248,0,-1.3392,0,-30.639,88.301,1,1,1.36,1.36,-0.1,0
-0.0012652,0.01642,0,-0.036687,0.0026484,-0.0026329,0,0,-0.036687,0,-100.43,4.4889,0,-1.334,0,-30.555,88.061,1,1,1.365,1.365,-0.1,0
-0.0012675,0.016429,0,-0.036648,0.0026723,-0.0026562,0,0,-0.036648,0,-100.15,4.4487,0,-1.3272,0,-30.47,87.821,1,1,1.37,1.37,-0.1,0
-0.0012697,0.016438,0,-0.03661,0.0026966,-0.00268,0,0,-0.03661,0,-99.873,4.4044,0,-1.3188,0,-30.384,87.583,1,1,1.375,1.375,-0.1,0
-0.001272,0.016447,0,-0.036571,0.0027215,-0.0027043,0,0,-0.036571,0,-99.595,4.3558,0,-1.3089,0,-30.297,87.344,1,1,1.38,1.38,-0.1,0
-0.0012742,0.016456,0,-0.036532,0.0027469,-0.0027291,0,0,-0.036532,0,-99.315,4.303,0,-1.2973,0,-30.21,87.106,1,1,1.385,1.385,-0.1,0
-0.0012764,0.016465,0,-0.036493,0.0027727,-0.0027543,0,0,-0.036493,0,-99.034,4.246,0,-1.2842,0,-30.122,86.869,1,1,1.39,1.39,-0.1,0
-0.0012787,0.016474,0,-0.036454,0.0027991,-0.0027801,0,0,-0.036454,0,-98.752,4.1848,0,-1.2694,0,-30.032,86.632,1,1,1.395,1.395,-0.1,0
-0.0012809,0.016482,0,-0.036415,0.002826,-0.0028063,0,0,-0.036415,0,-98.469,4.1194,0,-1.2531,0,-29.942,86.396,1,1,1.4,1.4,-0.1,0
-0.0012831,0.016491,0,-0.036376,0.0028535,-0.002833,0,0,-0.036376,0,-98.185,4.0498,0,-1.2352,0,-29.852,86.16,1,1,1.405,1.405,-0.1,0
-0.0012853,0.0165,0,-0.036338,0.0028814,-0.0028602,0,0,-0.036338,0,-97.899,3.976,0,-1.2157,0,-29.76,85.925,1,1,1.41,1.41,-0.1,0
-0.0012875,0.016508,0,-0.036299,0.0029098,-0.0028879,0,0,-0.036299,0,-97.612,3.898,0,-1.1947,0,-29.667,85.69,1,1,1.415,1.415,-0.1,0
-0.0012897,0.016517,0,-0.03626,0.0029388,-0.002916,0,0,-0.03626,0,-97.325,3.8157,0,-1.172,0,-29.574,85.456,1,1,1.42,1.42,-0.1,0
-0.0012919,0.016526,0,-0.036221,0.0029682,-0.0029447,0,0,-0.036221,0,-97.035,3.7293,0,-1.1477,0,-29.48,85.222,1,1,1.425,1.425,-0.1,0
-0.0012941,0.016534,0,-0.036182,0.0029982,-0.0029738,0,0,-0.036182,0,-96.745,3.6386,0,-1.1219,0,-29.385,84.988,1,1,1.43,1.43,-0.1,0
-0.0012962,0.016543,0,-0.036144,0.0030287,-0.0030035,0,0,-0.036144,0,-96.454,3.5438,0,-1.0945,0,-29.289,84.755,1,1,1.435,1.435,-0.1,0
-0.0012984,0.016551,0,-0.036105,0.0030597,-0.0030336,0,0,-0.036105,0,-96.161,3.4447,0,-1.0655,0,-29.193,84.523,1,1,1.44,1.44,-0.1,0
-0.0013006,0.01656,0,-0.036066,0.0030912,-0.0030642,0,0,-0.036066,0,-95.867,3.3414,0,-1.0349,0,-29.095,84.291,1,1,1.445,1.445,-0.1,0
-0.0013027,0.016568,0,-0.036027,0.0031232,-0.0030952,0,0,-0.036027,0,-95.572,3.2339,0,-1.0027,0,-28.997,84.06,1,1,1.45,1.45,-0.1,0
-0.0013049,0.016577,0,-0.035988,0.0031557,-0.0031268,0,0,-0.035988,0,-95.276,3.1222,0,-0.96895,0,-28.898,83.829,1,1,1.455,1.455,-0.1,0
-0.001307,0.016585,0,-0.03595,0.0031887,-0.0031588,0,0,-0.03595,0,-94.978,3.0063,0,-0.9336,0,-28.798,83.598,1,1,1.46,1.46,-0.1,0
-0.0013092,0.016594,0,-0.035911,0.0032222,-0.0031914,0,0,-0.035911,0,-94.68,2.8863,0,-0.89667,0,-28.697,83.368,1,1,1.465,1.465,-0.1,0
-0.0013113,0.016602,0,-0.035872,0.0032563,-0.0032244,0,0,-0.035872,0,-94.38,2.762,0,-0.85816,0,-28.595,83.139,1,1,1.47,1.47,-0.1,0
-0.0013134,0.01661,0,-0.035833,0.0032908,-0.0032579,0,0,-0.035833,0,-94.079,2.6335,0,-0.81806,0,-28.493,82.91,1,1,1.475,1.475,-0.1,0
-0.0013155,0.016618,0,-0.035794,0.0033259,-0.0032919,0,0,-0.035794,0,-93.777,2.5007,0,-0.77638,0,-28.39,82.682,1,1,1.48,1.48,-0.1,0
-0.0013176,0.016627,0,-0.035756,0.0033615,-0.0033263,0,0,-0.035756,0,-93.474,2.3638,0,-0.73311,0,-28.286,82.454,1,1,1.485,1.485,-0.1,0
-0.0013198,0.016635,0,-0.035717,0.0033975,-0.0033613,0,0,-0.035717,0,-93.169,2.2227,0,-0.68826,0,-28.181,82.226,1,1,1.49,1.49,-0.1,0
-0.0013219,0.016643,0,-0.035678,0.0034341,-0.0033967,0,0,-0.035678,0,-92.863,2.0774,0,-0.64182,0,-28.075,81.999,1,1,1.495,1.495,-0.1,0
-0.001324,0.016651,0,-0.035639,0.0034712,-0.0034326,0,0,-0.035639,0,-92.557,1.9279,0,-0.5938,0,-27.969,81.773,1,1,1.5,1.5,-0.1,0
-0.001326,0.016659,0,-0.035601,0.0035088,-0.003469,0,0,-0.035601,0,-92.248,1.7742,0,-0.5442,0,-27.861,81.547,1,1,1.505,1.505,-0.1,0
-0.0013281,0.016667,0,-0.035562,0.0035469,-0.0035059,0,0,-0.035562,0,-91.939,1.6163,0,-0.49301,0,-27.753,81.321,1,1,1.51,1.51,-0.1,0
-0.0013302,0.016675,0,-0.035523,0.0035856,-0.0035433,0,0,-0.035523,0,-91.629,1.4541,0,-0.44024,0,-27.644,81.097,1,1,1.515,1.515,-0.1,0
-0.0013323,0.016683,0,-0.035484,0.0036247,-0.0035811,0,0,-0.035484,0,-91.317,1.2878,0,-0.38589,0,-27.534,80.872,1,1,1.52,1.52,-0.1,0
-0.0013343,0.016691,0,-0.035446,0.0036643,-0.0036194,0,0,-0.035446,0,-91.005,1.1173,0,-0.32995,0,-27.424,80.648,1,1,1.525,1.525,-0.1,0
-0.0013364,0.016699,0,-0.035411,0.0036688,-0.0036249,0,0,-0.035411,0,-90.921,1.1871,0,-0.35013,0,-27.405,80.557,1,1,1.53,1.53,-0.1,0
-0.0013385,0.016707,0,-0.035377,0.0036743,-0.0036312,0,0,-0.035377,0,-90.835,1.2522,0,-0.3688,0,-27.384,80.465,1,1,1.535,1.535,-0.1,0
-0.0013406,0.016715,0,-0.035342,0.0036802,-0.0036379,0,0,-0.035342,0,-90.748,1.3153,0,-0.38688,0,-27.363,80.372,1,1,1.54,1.54,-0.1,0
-0.0013426,0.016723,0,-0.035308,0.0036866,-0.0036451,0,0,-0.035308,0,-90.66,1.3765,0,-0.40436,0,-27.342,80.28,1,1,1.545,1.545,-0.1,0
-0.0013447,0.016731,0,-0.035274,0.0036935,-0.0036528,0,0,-0.035274,0,-90.571,1.4358,0,-0.42125,0,-27.321,80.187,1,1,1.55,1.55,-0.1,0
-0.0013468,0.016739,0,-0.035239,0.0037009,-0.0036609,0,0,-0.035239,0,-90.482,1.4932,0,-0.43754,0,-27.299,80.094,1,1,1.555,1.555,-0.1,0
-0.0013489,0.016747,0,-0.035205,0.0037088,-0.0036694,0,0,-0.035205,0,-90.393,1.5486,0,-0.45324,0,-27.276,80.001,1,1,1.56,1.56,-0.1,0
-0.0013509,0.016754,0,-0.035171,0.0037173,-0.0036785,0,0,-0.035171,0,-90.302,1.6021,0,-0.46834,0,-27.254,79.908,1,1,1.565,1.565,-0.1,0
-0.001353,0.016762,0,-0.035136,0.0037262,-0.0036879,0,0,-0.035136,0,-90.212,1.6537,0,-0.48285,0,-27.231,79.815,1,1,1.57,1.57,-0.1,0
-0.001355,0.01677,0,-0.035102,0.0037356,-0.0036978,0,0,-0.035102,0,-90.12,1.7033,0,-0.49676,0,-27.207,79.722,1,1,1.575,1.575,-0.1,0
-0.0013571,0.016778,0,-0.035067,0.0037455,-0.0037082,0,0,-0.035067,0,-90.028,1.751,0,-0.51008,0,-27.184,79.629,1,1,1.58,1.58,-0.1,0
-0.0013591,0.016785,0,-0.035033,0.0037559,-0.0037191,0,0,-0.035033,0,-89.935,1.7968,0,-0.5228,0,-27.16,79.536,1,1,1.585,1.585,-0.1,0
-0.0013612,0.016793,0,-0.034999,0.0037667,-0.0037303,0,0,-0.034999,0,-89.842,1.8407,0,-0.53492,0,-27.135,79.443,1,1,1.59,1.59,-0.1,0
-0.0013632,0.016801,0,-0.034964,0.0037781,-0.0037421,0,0,-0.034964,0,-89.748,1.8826,0,-0.54646,0,-27.11,79.349,1,1,1.595,1.595,-0.1,0
-0.0013653,0.016809,0,-0.03493,0.00379,-0.0037543,0,0,-0.03493,0,-89.653,1.9226,0,-0.55739,0,-27.085,79.256,1,1,1.6,1.6,-0.1,0
-0.0013673,0.016816,0,-0.034896,0.0038024,-0.0037669,0,0,-0.034896,0,-89.558,1.9607,0,-0.56773,0,-27.06,79.163,1,1,1.605,1.605,-0.1,0
-0.0013693,0.016824,0,-0.034861,0.0038153,-0.00378,0,0,-0.034861,0,-89.462,1.9969,0,-0.57748,0,-27.034,79.069,1,1,1.61,1.61,-0.1,0
-0.0013714,0.016832,0,-0.034827,0.0038286,-0.0037936,0,0,-0.034827,0,-89.365,2.0311,0,-0.58663,0,-27.008,78.975,1,1,1.615,1.615,-0.1,0
-0.0013734,0.016839,0,-0.034793,0.0038425,-0.0038076,0,0,-0.034793,0,-89.268,2.0635,0,-0.59518,0,-26.981,78.882,1,1,1.62,1.62,-0.1,0
-0.0013754,0.016847,0,-0.034758,0.0038569,-0.003822,0,0,-0.034758,0,-89.17,2.0939,0,-0.60314,0,-26.954,78.788,1,1,1.625,1.625,-0.1,0
-0.0013775,0.016854,0,-0.034724,0.0038717,-0.0038369,0,0,-0.034724,0,-89.072,2.1223,0,-0.61051,0,-26.926,78.694,1,1,1.63,1.63,-0.1,0
-0.0013795,0.016862,0,-0.03469,0.0038871,-0.0038523,0,0,-0.03469,0,-88.973,2.1489,0,-0.61728,0,-26.899,78.6,1,1,1.635,1.635,-0.1,0
-0.0013815,0.01687,0,-0.034655,0.0039029,-0.0038681,0,0,-0.034655,0,-88.873,2.1735,0,-0.62345,0,-26.871,78.506,1,1,1.64,1.64,-0.1,0
-0.0013835,0.016877,0,-0.034621,0.0039193,-0.0038844,0,0,-0.034621,0,-88.773,2.1962,0,-0.62903,0,-26.842,78.412,1,1,1.645,1.645,-0.1,0
-0.0013855,0.016885,0,-0.034587,0.0039361,-0.0039011,0,0,-0.034587,0,-88.672,2.2169,0,-0.63402,0,-26.813,78.318,1,1,1.65,1.65,-0.1,0
-0.0013876,0.016892,0,-0.034552,0.0039535,-0.0039183,0,0,-0.034552,0,-88.571,2.2358,0,-0.6384,0,-26.784,78.224,1,1,1.655,1.655,-0.1,0
-0.0013896,0.0169,0,-0.034518,0.0039713,-0.0039359,0,0,-0.034518,0,-88.469,2.2527,0,-0.6422,0,-26.755,78.13,1,1,1.66,1.66,-0.1,0
-0.0013916,0.016907,0,-0.034484,0.0039896,-0.003954,0,0,-0.034484,0,-88.366,2.2677,0,-0.64539,0,-26.725,78.035,1,1,1.665,1.665,-0.1,0
-0.0013936,0.016914,0,-0.03445,0.0040084,-0.0039725,0,0,-0.03445,0,-88.262,2.2808,0,-0.648,0,-26.694,77.941,1,1,1.67,1.67,-0.1,0
-0.0013956,0.016922,0,-0.034415,0.0040277,-0.0039915,0,0,-0.034415,0,-88.158,2.2919,0,-0.65,0,-26.664,77.847,1,1,1.675,1.675,-0.1,0
-0.0013976,0.016929,0,-0.034381,0.0040476,-0.0040109,0,0,-0.034381,0,-88.054,2.3011,0,-0.65142,0,-26.633,77.752,1,1,1.68,1.68,-0.1,0
-0.0013996,0.016937,0,-0.034347,0.0040679,-0.0040308,0,0,-0.034347,0,-87.948,2.3084,0,-0.65223,0,-26.601,77.657,1,1,1.685,1.685,-0.1,0
-0.0014016,0.016944,0,-0.034312,0.0040887,-0.0040512,0,0,-0.034312,0,-87.843,2.3138,0,-0.65245,0,-26.569,77.563,1,1,1.69,1.69,-0.1,0
-0.0014036,0.016951,0,-0.034278,0.0041099,-0.0040719,0,0,-0.034278,0,-87.736,2.3172,0,-0.65208,0,-26.537,77.468,1,1,1.695,1.695,-0.1,0
-0.0014055,0.016959,0,-0.034244,0.0041317,-0.0040932,0,0,-0.034244,0,-87.629,2.3188,0,-0.65111,0,-26.505,77.373,1,1,1.7,1.7,-0.1,0
-0.0014075,0.016966,0,-0.03421,0.004154,-0.0041149,0,0,-0.03421,0,-87.521,2.3184,0,-0.64954,0,-26.472,77.278,1,1,1.705,1.705,-0.1,0
-0.0014095,0.016973,0,-0.034175,0.0041768,-0.004137,0,0,-0.034175,0,-87.413,2.316,0,-0.64738,0,-26.439,77.183,1,1,1.71,1.71,-0.1,0
-0.0014115,0.01698,0,-0.034141,0.0042001,-0.0041596,0,0,-0.034141,0,-87.304,2.3118,0,-0.64462,0,-26.405,77.088,1,1,1.715,1.715,-0.1,0
-0.0014135,0.016988,0,-0.034107,0.0042238,-0.0041827,0,0,-0.034107,0,-87.194,2.3056,0,-0.64127,0,-26.371,76.993,1,1,1.72,1.72,-0.1,0
-0.0014154,0.016995,0,-0.034072,0.0042481,-0.0042062,0,0,-0.034072,0,-87.084,2.2975,0,-0.63732,0,-26.337,76.898,1,1,1.725,1.725,-0.1,0
-0.0014174,0.017002,0,-0.034041,0.0042732,-0.0042305,0,0,-0.034041,0,-86.973,2.2875,0,-0.63278,0,-26.302,76.803,1,1,1.73,1.73,-0.1,0
-0.0014194,0.017009,0,-0.03401,0.004299,-0.0042554,0,0,-0.03401,0,-86.861,2.2755,0,-0.62764,0,-26.267,76.707,1,1,1.735,1.735,-0.1,0
-0.0014214,0.017016,0,-0.03398,0.0043252,-0.0042807,0,0,-0.03398,0,-86.749,2.2617,0,-0.6219,0,-26.232,76.612,1,1,1.74,1.74,-0.1,0
-0.0014233,0.017023,0,-0.033949,0.0043519,-0.0043065,0,0,-0.033949,0,-86.636,2.2459,0,-0.61557,0,-26.196,76.516,1,1,1.745,1.745,-0.1,0
-0.0014253,0.017031,0,-0.033918,0.0043792,-0.0043328,0,0,-0.033918,0,-86.523,2.2281,0,-0.60864,0,-26.16,76.421,1,1,1.75,1.75,-0.1,0
-0.0014272,0.017038,0,-0.033887,0.0044069,-0.0043595,0,0,-0.033887,0,-86.409,2.2085,0,-0.60112,0,-26.123,76.325,1,1,1.755,1.755,-0.1,0
-0.0014292,0.017045,0,-0.033857,0.0044352,-0.0043867,0,0,-0.033857,0,-86.294,2.1869,0,-0.593,0,-26.086,76.229,1,1,1.76,1.76,-0.1,0
-0.0014311,0.017052,0,-0.033826,0.0044639,-0.0044143,0,0,-0.033826,0,-86.179,2.1634,0,-0.58429,0,-26.049,76.133,1,1,1.765,1.765,-0.1,0
-0.0014331,0.017059,0,-0.033795,0.0044931,-0.0044424,0,0,-0.033795,0,-86.063,2.138,0,-0.57498,0,-26.011,76.038,1,1,1.77,1.77,-0.1,0
-0.001435,0.017066,0,-0.033765,0.0045229,-0.0044709,0,0,-0.033765,0,-85.946,2.1107,0,-0.56507,0,-25.973,75.942,1,1,1.775,1.775,-0.1,0
-0.001437,0.017073,0,-0.033734,0.0045531,-0.0044999,0,0,-0.033734,0,-85.829,2.0814,0,-0.55457,0,-25.935,75.846,1,1,1.78,1.78,-0.1,0
-0.0014389,0.01708,0,-0.033703,0.0045838,-0.0045294,0,0,-0.033703,0,-85.711,2.0502,0,-0.54347,0,-25.896,75.749,1,1,1.785,1.785,-0.1,0
-0.0014409,0.017087,0,-0.033673,0.0046151,-0.0045593,0,0,-0.033673,0,-85.593,2.0171,0,-0.53178,0,-25.857,75.653,1,1,1.79,1.79,-0.1,0
-0.0014428,0.017094,0,-0.033642,0.0046468,-0.0045897,0,0,-0.033642,0,-85.474,1.9821,0,-0.51949,0,-25.818,75.557,1,1,1.795,1.795,-0.1,0
-0.0014447,0.017101,0,-0.033611,0.004679,-0.0046205,0,0,-0.033611,0,-85.354,1.9451,0,-0.50661,0,-25.778,75.461,1,1,1.8,1.8,-0.1,0
-0.0014467,0.017108,0,-0.033581,0.0047118,-0.0046518,0,0,-0.033581,0,-85.234,1.9063,0,-0.49313,0,-25.738,75.364,1,1,1.805,1.805,-0.1,0
-0.0014486,0.017114,0,-0.03355,0.004745,-0.0046835,0,0,-0.03355,0,-85.113,1.8655,0,-0.47905,0,-25.697,75.268,1,1,1.81,1.81,-0.1,0
-0.0014505,0.017121,0,-0.033519,0.0047787,-0.0047157,0,0,-0.033519,0,-84.991,1.8228,0,-0.46438,0,-25.656,75.171,1,1,1.815,1.815,-0.1,0
-0.0014524,0.017128,0,-0.033489,0.0048129,-0.0047483,0,0,-0.033489,0,-84.869,1.7781,0,-0.44911,0,-25.615,75.075,1,1,1.82,1.82,-0.1,0
-0.0014544,0.017135,0,-0.033458,0.0048477,-0.0047814,0,0,-0.033458,0,-84.746,1.7316,0,-0.43325,0,-25.573,74.978,1,1,1.825,1.825,-0.1,0
-0.0014563,0.017142,0,-0.033427,0.0048829,-0.004815,0,0,-0.033427,0,-84.623,1.6831,0,-0.41679,0,-25.531,74.881,1,1,1.83,1.83,-0.1,0
-0.0014582,0.017149,0,-0.033397,0.0049186,-0.004849,0,0,-0.033397,0,-84.499,1.6327,0,-0.39974,0,-25.489,74.785,1,1,1.835,1.835,-0.1,0
-0.0014601,0.017155,0,-0.033366,0.0049548,-0.0048835,0,0,-0.033366,0,-84.374,1.5804,0,-0.38209,0,-25.446,74.688,1,1,1.84,1.84,-0.1,0
-0.001462,0.017162,0,-0.033335,0.0049915,-0.0049184,0,0,-0.033335,0,-84.249,1.5261,0,-0.36384,0,-25.403,74.591,1,1,1.845,1.845,-0.1,0
-0.0014639,0.017169,0,-0.033305,0.0050288,-0.0049538,0,0,-0.033305,0,-84.123,1.4699,0,-0.345,0,-25.36,74.494,1,1,1.85,1.85,-0.1,0
-0.0014658,0.017175,0,-0.033274,0.0050665,-0.0049896,0,0,-0.033274,0,-83.996,1.4119,0,-0.32556,0,-25.316,74.397,1,1,1.855,1.855,-0.1,0
-0.0014677,0.017182,0,-0.033243,0.0051047,-0.0050259,0,0,-0.033243,0,-83.869,1.3519,0,-0.30553,0,-25.272,74.3,1,1,1.86,1.86,-0.1,0
-0.0014696,0.017189,0,-0.033213,0.0051434,-0.0050627,0,0,-0.033213,0,-83.742,1.2899,0,-0.2849,0,-25.227,74.202,1,1,1.865,1.865,-0.1,0
-0.0014715,0.017195,0,-0.033182,0.0051826,-0.0050999,0,0,-0.033182,0,-83.613,1.2261,0,-0.26367,0,-25.182,74.105,1,1,1.87,1.87,-0.1,0
-0.0014734,0.017202,0,-0.033152,0.0052223,-0.0051375,0,0,-0.033152,0,-83.484,1.1603,0,-0.24185,0,-25.137,74.008,1,1,1.875,1.875,-0.1,0
-0.0014753,0.017209,0,-0.033121,0.0052625,-0.0051756,0,0,-0.033121,0,-83.355,1.0926,0,-0.21943,0,-25.091,73.91,1,1,1.88,1.88,-0.1,0
-0.0014772,0.017215,0,-0.03309,0.0053032,-0.0052142,0,0,-0.03309,0,-83.224,1.023,0,-0.19642,0,-25.045,73.813,1,1,1.885,1.885,-0.1,0
-0.0014791,0.017222,0,-0.03306,0.0053444,-0.0052532,0,0,-0.03306,0,-83.093,0.95148,0,-0.17281,0,-24.999,73.715,1,1,1.89,1.89,-0.1,0
-0.0014809,0.017228,0,-0.033029,0.0053861,-0.0052927,0,0,-0.033029,0,-82.962,0.87803,0,-0.1486,0,-24.952,73.618,1,1,1.895,1.895,-0.1,0
-0.0014828,0.017235,0,-0.032998,0.0054283,-0.0053326,0,0,-0.032998,0,-82.83,0.80266,0,-0.1238,0,-24.905,73.52,1,1,1.9,1.9,-0.1,0
-0.0014847,0.017241,0,-0.032968,0.005471,-0.005373,0,0,-0.032968,0,-82.697,0.72537,0,-0.098406,0,-24.857,73.422,1,1,1.905,1.905,-0.1,0
-0.0014866,0.017248,0,-0.032937,0.0055142,-0.0054139,0,0,-0.032937,0,-82.564,0.64616,0,-0.072412,0,-24.81,73.325,1,1,1.91,1.91,-0.1,0
-0.0014884,0.017254,0,-0.032907,0.0055578,-0.0054552,0,0,-0.032907,0,-82.43,0.56502,0,-0.045823,0,-24.761,73.227,1,1,1.915,1.915,-0.1,0
-0.0014903,0.017261,0,-0.032876,0.005602,-0.0054969,0,0,-0.032876,0,-82.295,0.48197,0,-0.018637,0,-24.713,73.129,1,1,1.92,1.92,-0.1,0
-0.0014922,0.017267,0,-0.032845,0.0056467,-0.0055391,0,0,-0.032845,0,-82.16,0.397,0,0.0091446,0,-24.664,73.031,1,1,1.925,1.925,-0.1,0
-0.001494,0.017274,0,-0.032816,0.0056716,-0.0055636,0,0,-0.032816,0,-82.068,0.3763,0,0.016125,0,-24.634,72.955,1,1,1.93,1.93,-0.1,0
-0.0014959,0.01728,0,-0.032788,0.0056781,-0.0055717,0,0,-0.032788,0,-82.017,0.41598,0,0.0035637,0,-24.622,72.9,1,1,1.935,1.935,-0.1,0
-0.0014978,0.017287,0,-0.032761,0.0056852,-0.0055802,0,0,-0.032761,0,-81.965,0.45469,0,-0.0087125,0,-24.61,72.844,1,1,1.94,1.94,-0.1,0
-0.0014996,0.017293,0,-0.032733,0.0056927,-0.0055891,0,0,-0.032733,0,-81.913,0.49245,0,-0.020703,0,-24.598,72.789,1,1,1.945,1.945,-0.1,0
-0.0015015,0.017299,0,-0.032705,0.0057008,-0.0055985,0,0,-0.032705,0,-81.86,0.52923,0,-0.032409,0,-24.586,72.734,1,1,1.95,1.95,-0.1,0
-0.0015034,0.017306,0,-0.032677,0.0057093,-0.0056083,0,0,-0.032677,0,-81.808,0.56506,0,-0.04383,0,-24.574,72.679,1,1,1.955,1.955,-0.1,0
-0.0015052,0.017312,0,-0.032649,0.0057184,-0.0056186,0,0,-0.032649,0,-81.755,0.59992,0,-0.054966,0,-24.561,72.623,1,1,1.96,1.96,-0.1,0
-0.0015071,0.017319,0,-0.032622,0.005728,-0.0056292,0,0,-0.032622,0,-81.702,0.63382,0,-0.065817,0,-24.549,72.568,1,1,1.965,1.965,-0.1,0
-0.0015089,0.017325,0,-0.032594,0.0057381,-0.0056404,0,0,-0.032594,0,-81.648,0.66676,0,-0.076382,0,-24.536,72.513,1,1,1.97,1.97,-0.1,0
-0.0015108,0.017331,0,-0.032566,0.0057486,-0.0056519,0,0,-0.032566,0,-81.595,0.69874,0,-0.086663,0,-24.523,72.458,1,1,1.975,1.975,-0.1,0
-0.0015127,0.017338,0,-0.032538,0.0057597,-0.0056639,0,0,-0.032538,0,-81.541,0.72975,0,-0.096658,0,-24.51,72.402,1,1,1.98,1.98,-0.1,0
-0.0015145,0.017344,0,-0.032511,0.0057713,-0.0056763,0,0,-0.032511,0,-81.487,0.7598,0,-0.10637,0,-24.496,72.347,1,1,1.985,1.985,-0.1,0
-0.0015164,0.01735,0,-0.032483,0.0057834,-0.0056892,0,0,-0.032483,0,-81.433,0.78889,0,-0.11579,0,-24.483,72.292,1,1,1.99,1.99,-0.1,0
-0.0015182,0.017357,0,-0.032455,0.005796,-0.0057025,0,0,-0.032455,0,-81.378,0.81701,0,-0.12493,0,-24.469,72.236,1,1,1.995,1.995,-0.1,0
-0.0015201,0.017363,0,-0.032427,0.0058091,-0.0057162,0,0,-0.032427,0,-81.323,0.84417,0,-0.13379,0,-24.455,72.181,1,1,2,2,-0.1,0
-0.0015219,0.017369,0,-0.032399,0.0058227,-0.0057303,0,0,-0.032399,0,-81.268,0.87037,0,-0.14236,0,-24.441,72.125,1,1,2.005,2.005,-0.1,0
-0.0015238,0.017375,0,-0.032372,0.0058368,-0.0057449,0,0,-0.032372,0,-81.212,0.89561,0,-0.15064,0,-24.427,72.07,1,1,2.01,2.01,-0.1,0
-0.0015256,0.017382,0,-0.032344,0.0058514,-0.00576,0,0,-0.032344,0,-81.157,0.91989,0,-0.15864,0,-24.413,72.015,1,1,2.015,2.015,-0.1,0
-0.0015275,0.017388,0,-0.032316,0.0058665,-0.0057754,0,0,-0.032316,0,-81.101,0.9432,0,-0.16636,0,-24.398,71.959,1,1,2.02,2.02,-0.1,0
-0.0015293,0.017394,0,-0.032288,0.0058821,-0.0057913,0,0,-0.032288,0,-81.045,0.96555,0,-0.17378,0,-24.384,71.904,1,1,2.025,2.025,-0.1,0
-0.0015311,0.0174,0,-0.032261,0.0058982,-0.0058077,0,0,-0.032261,0,-80.988,0.98694,0,-0.18093,0,-24.369,71.848,1,1,2.03,2.03,-0.1,0
-0.001533,0.017406,0,-0.032233,0.0059148,-0.0058244,0,0,-0.032233,0,-80.932,1.0074,0,-0.18779,0,-24.354,71.793,1,1,2.035,2.035,-0.1,0
-0.0015348,0.017413,0,-0.032205,0.0059319,-0.0058416,0,0,-0.032205,0,-80.875,1.0268,0,-0.19436,0,-24.339,71.737,1,1,2.04,2.04,-0.1,0
-0.0015367,0.017419,0,-0.032177,0.0059496,-0.0058593,0,0,-0.032177,0,-80.818,1.0453,0,-0.20065,0,-24.323,71.682,1,1,2.045,2.045,-0.1,0
-0.0015385,0.017425,0,-0.03215,0.0059677,-0.0058774,0,0,-0.03215,0,-80.76,1.0629,0,-0.20665,0,-24.308,71.626,1,1,2.05,2.05,-0.1,0
-0.0015403,0.017431,0,-0.032122,0.0059863,-0.0058959,0,0,-0.032122,0,-80.702,1.0794,0,-0.21237,0,-24.292,71.571,1,1,2.055,2.055,-0.1,0
-0.0015422,0.017437,0,-0.032094,0.0060055,-0.0059148,0,0,-0.032094,0,-80.645,1.095,0,-0.2178,0,-24.276,71.515,1,1,2.06,2.06,-0.1,0
-0.001544,0.017443,0,-0.032066,0.0060251,-0.0059342,0,0,-0.032066,0,-80.586,1.1097,0,-0.22294,0,-24.261,71.459,1,1,2.065,2.065,-0.1,0
-0.0015458,0.01745,0,-0.032039,0.0060452,-0.005954,0,0,-0.032039,0,-80.528,1.1234,0,-0.2278,0,-24.244,71.404,1,1,2.07,2.07,-0.1,0
-0.0015476,0.017456,0,-0.032011,0.0060659,-0.0059743,0,0,-0.032011,0,-80.469,1.1361,0,-0.23238,0,-24.228,71.348,1,1,2.075,2.075,-0.1,0
-0.0015495,0.017462,0,-0.031983,0.006087,-0.0059949,0,0,-0.031983,0,-80.41,1.1479,0,-0.23667,0,-24.212,71.293,1,1,2.08,2.08,-0.1,0
-0.0015513,0.017468,0,-0.031956,0.0061086,-0.006016,0,0,-0.031956,0,-80.351,1.1587,0,-0.24068,0,-24.195,71.237,1,1,2.085,2.085,-0.1,0
-0.0015531,0.017474,0,-0.031928,0.0061308,-0.0060376,0,0,-0.031928,0,-80.292,1.1685,0,-0.2444,0,-24.178,71.181,1,1,2.09,2.09,-0.1,0
-0.0015549,0.01748,0,-0.0319,0.0061534,-0.0060596,0,0,-0.0319,0,-80.232,1.1774,0,-0.24783,0,-24.161,71.126,1,1,2.095,2.095,-0.1,0
-0.0015568,0.017486,0,-0.031872,0.0061766,-0.006082,0,0,-0.031872,0,-80.172,1.1853,0,-0.25098,0,-24.144,71.07,1,1,2.1,2.1,-0.1,0
-0.0015586,0.017492,0,-0.031845,0.0062002,-0.0061048,0,0,-0.031845,0,-80.112,1.1923,0,-0.25384,0,-24.127,71.014,1,1,2.105,2.105,-0.1,0
-0.0015604,0.017498,0,-0.031817,0.0062244,-0.0061281,0,0,-0.031817,0,-80.051,1.1983,0,-0.25642,0,-24.11,70.959,1,1,2.11,2.11,-0.1,0
-0.0015622,0.017504,0,-0.031789,0.0062491,-0.0061518,0,0,-0.031789,0,-79.99,1.2033,0,-0.25871,0,-24.092,70.903,1,1,2.115,2.115,-0.1,0
-0.001564,0.01751,0,-0.031761,0.0062742,-0.006176,0,0,-0.031761,0,-79.929,1.2073,0,-0.26072,0,-24.074,70.847,1,1,2.12,2.12,-0.1,0
-0.0015658,0.017516,0,-0.031734,0.0062999,-0.0062006,0,0,-0.031734,0,-79.868,1.2105,0,-0.26244,0,-24.057,70.791,1,1,2.125,2.125,-0.1,0
-0.0015676,0.017522,0,-0.031706,0.006326,-0.0062256,0,0,-0.031706,0,-79.807,1.2126,0,-0.26387,0,-24.038,70.736,1,1,2.13,2.13,-0.1,0
-0.0015695,0.017528,0,-0.031678,0.0063527,-0.0062511,0,0,-0.031678,0,-79.745,1.2138,0,-0.26502,0,-24.02,70.68,1,1,2.135,2.135,-0.1,0
-0.0015713,0.017534,0,-0.031651,0.0063799,-0.0062769,0,0,-0.031651,0,-79.683,1.214,0,-0.26589,0,-24.002,70.624,1,1,2.14,2.14,-0.1,0
-0.0015731,0.01754,0,-0.031623,0.0064075,-0.0063033,0,0,-0.031623,0,-79.62,1.2132,0,-0.26647,0,-23.983,70.568,1,1,2.145,2.145,-0.1,0
-0.0015749,0.017546,0,-0.031596,0.0064358,-0.0063301,0,0,-0.031596,0,-79.558,1.2115,0,-0.26676,0,-23.965,70.512,1,1,2.15,2.15,-0.1,0
-0.0015767,0.017552,0,-0.031571,0.006465,-0.0063578,0,0,-0.031571,0,-79.495,1.2089,0,-0.26677,0,-23.946,70.457,1,1,2.155,2.155,-0.1,0
-0.0015785,0.017558,0,-0.031545,0.0064947,-0.006386,0,0,-0.031545,0,-79.432,1.2052,0,-0.26649,0,-23.927,70.401,1,1,2.16,2.16,-0.1,0
-0.0015803,0.017563,0,-0.03152,0.0065249,-0.0064145,0,0,-0.03152,0,-79.369,1.2006,0,-0.26593,0,-23.908,70.345,1,1,2.165,2.165,-0.1,0
-0.0015821,0.017569,0,-0.031495,0.0065556,-0.0064435,0,0,-0.031495,0,-79.305,1.1951,0,-0.26508,0,-23.888,70.289,1,1,2.17,2.17,-0.1,0
-0.0015839,0.017575,0,-0.031469,0.0065869,-0.006473,0,0,-0.031469,0,-79.241,1.1885,0,-0.26394,0,-23.869,70.233,1,1,2.175,2.175,-0.1,0
-0.0015857,0.017581,0,-0.031444,0.0066186,-0.0065029,0,0,-0.031444,0,-79.177,1.1811,0,-0.26252,0,-23.849,70.177,1,1,2.18,2.18,-0.1,0
-0.0015875,0.017587,0,-0.031419,0.0066508,-0.0065332,0,0,-0.031419,0,-79.113,1.1726,0,-0.26081,0,-23.829,70.121,1,1,2.185,2.185,-0.1,0
-0.0015893,0.017593,0,-0.031393,0.0066836,-0.006564,0,0,-0.031393,0,-79.048,1.1632,0,-0.25882,0,-23.809,70.065,1,1,2.19,2.19,-0.1,0
-0.0015911,0.017599,0,-0.031368,0.0067168,-0.0065952,0,0,-0.031368,0,-78.983,1.1528,0,-0.25654,0,-23.789,70.009,1,1,2.195,2.195,-0.1,0
-0.0015928,0.017604,0,-0.031343,0.0067505,-0.0066268,0,0,-0.031343,0,-78.918,1.1415,0,-0.25398,0,-23.769,69.953,1,1,2.2,2.2,-0.1,0
-0.0015946,0.01761,0,-0.031317,0.0067848,-0.0066589,0,0,-0.031317,0,-78.853,1.1292,0,-0.25113,0,-23.748,69.897,1,1,2.205,2.205,-0.1,0
-0.0015964,0.017616,0,-0.031292,0.0068196,-0.0066914,0,0,-0.031292,0,-78.787,1.1159,0,-0.248,0,-23.727,69.841,1,1,2.21,2.21,-0.1,0
-0.0015982,0.017622,0,-0.031267,0.0068548,-0.0067243,0,0,-0.031267,0,-78.721,1.1017,0,-0.24458,0,-23.707,69.785,1,1,2.215,2.215,-0.1,0
-0.0016,0.017627,0,-0.031241,0.0068906,-0.0067577,0,0,-0.031241,0,-78.655,1.0865,0,-0.24087,0,-23.686,69.729,1,1,2.22,2.22,-0.1,0
-0.0016018,0.017633,0,-0.031216,0.0069269,-0.0067916,0,0,-0.031216,0,-78.588,1.0704,0,-0.23688,0,-23.664,69.673,1,1,2.225,2.225,-0.1,0
-0.0016036,0.017639,0,-0.031191,0.0069637,-0.0068258,0,0,-0.031191,0,-78.522,1.0533,0,-0.2326,0,-23.643,69.617,1,1,2.23,2.23,-0.1,0
-0.0016053,0.017645,0,-0.031166,0.0070009,-0.0068605,0,0,-0.031166,0,-78.455,1.0352,0,-0.22804,0,-23.622,69.561,1,1,2.235,2.235,-0.1,0
-0.0016071,0.01765,0,-0.03114,0.0070387,-0.0068956,0,0,-0.03114,0,-78.388,1.0162,0,-0.22319,0,-23.6,69.504,1,1,2.24,2.24,-0.1,0
-0.0016089,0.017656,0,-0.031115,0.007077,-0.0069312,0,0,-0.031115,0,-78.32,0.99622,0,-0.21805,0,-23.578,69.448,1,1,2.245,2.245,-0.1,0
-0.0016107,0.017662,0,-0.03109,0.0071158,-0.0069672,0,0,-0.03109,0,-78.253,0.97527,0,-0.21263,0,-23.556,69.392,1,1,2.25,2.25,-0.1,0
-0.0016124,0.017667,0,-0.031064,0.0071552,-0.0070037,0,0,-0.031064,0,-78.185,0.95336,0,-0.20692,0,-23.534,69.336,1,1,2.255,2.255,-0.1,0
-0.0016142,0.017673,0,-0.031039,0.007195,-0.0070406,0,0,-0.031039,0,-78.116,0.93049,0,-0.20093,0,-23.512,69.28,1,1,2.26,2.26,-0.1,0
-0.001616,0.017679,0,-0.031014,0.0072353,-0.0070779,0,0,-0.031014,0,-78.048,0.90665,0,-0.19465,0,-23.489,69.224,1,1,2.265,2.265,-0.1,0
-0.0016177,0.017684,0,-0.030989,0.0072761,-0.0071156,0,0,-0.030989,0,-77.979,0.88186,0,-0.18809,0,-23.467,69.167,1,1,2.27,2.27,-0.1,0
-0.0016195,0.01769,0,-0.030963,0.0073174,-0.0071538,0,0,-0.030963,0,-77.91,0.8561,0,-0.18124,0,-23.444,69.111,1,1,2.275,2.275,-0.1,0
-0.0016213,0.017696,0,-0.030938,0.0073593,-0.0071925,0,0,-0.030938,0,-77.841,0.82938,0,-0.1741,0,-23.421,69.055,1,1,2.28,2.28,-0.1,0
-0.001623,0.017701,0,-0.030913,0.0074016,-0.0072315,0,0,-0.030913,0,-77.772,0.8017,0,-0.16668,0,-23.398,68.999,1,1,2.285,2.285,-0.1,0
-0.0016248,0.017707,0,-0.030887,0.0074444,-0.007271,0,0,-0.030887,0,-77.702,0.77306,0,-0.15898,0,-23.375,68.942,1,1,2.29,2.29,-0.1,0
-0.0016266,0.017712,0,-0.030862,0.0074878,-0.007311,0,0,-0.030862,0,-77.632,0.74345,0,-0.15098,0,-23.351,68.886,1,1,2.295,2.295,-0.1,0
-0.0016283,0.017718,0,-0.030837,0.0075316,-0.0073514,0,0,-0.030837,0,-77.562,0.71288,0,-0.1427,0,-23.328,68.83,1,1,2.3,2.3,-0.1,0
-0.0016301,0.017723,0,-0.030812,0.007576,-0.0073922,0,0,-0.030812,0,-77.491,0.68136,0,-0.13414,0,-23.304,68.774,1,1,2.305,2.305,-0.1,0
-0.0016318,0.017729,0,-0.030786,0.0076209,-0.0074334,0,0,-0.030786,0,-77.42,0.64887,0,-0.12529,0,-23.28,68.717,1,1,2.31,2.31,-0.1,0
-0.0016336,0.017735,0,-0.030761,0.0076662,-0.0074751,0,0,-0.030761,0,-77.349,0.61542,0,-0.11615,0,-23.256,68.661,1,1,2.315,2.315,-0.1,0
-0.0016354,0.01774,0,-0.030736,0.0077121,-0.0075172,0,0,-0.030736,0,-77.278,0.58101,0,-0.10673,0,-23.232,68.605,1,1,2.32,2.32,-0.1,0
-0.0016371,0.017746,0,-0.030711,0.0077585,-0.0075598,0,0,-0.030711,0,-77.207,0.54563,0,-0.097017,0,-23.207,68.548,1,1,2.325,2.325,-0.1,0
-0.0016389,0.017751,0,-0.030685,0.0078053,-0.0076028,0,0,-0.030685,0,-77.135,0.5093,0,-0.087022,0,-23.183,68.492,1,1,2.33,2.33,-0.1,0
-0.0016406,0.017757,0,-0.03066,0.0078527,-0.0076462,0,0,-0.03066,0,-77.063,0.472,0,-0.076741,0,-23.158,68.436,1,1,2.335,2.335,-0.1,0
-0.0016424,0.017762,0,-0.030635,0.0079006,-0.0076901,0,0,-0.030635,0,-76.991,0.43374,0,-0.066174,0,-23.133,68.379,1,1,2.34,2.34,-0.1,0
-0.0016441,0.017767,0,-0.03061,0.007949,-0.0077344,0,0,-0.03061,0,-76.918,0.39452,0,-0.055321,0,-23.108,68.323,1,1,2.345,2.345,-0.1,0
-0.0016458,0.017773,0,-0.030584,0.0079979,-0.0077791,0,0,-0.030584,0,-76.845,0.35435,0,-0.044182,0,-23.083,68.266,1,1,2.35,2.35,-0.1,0
-0.0016476,0.017778,0,-0.030559,0.0080473,-0.0078243,0,0,-0.030559,0,-76.772,0.3132,0,-0.032756,0,-23.058,68.21,1,1,2.355,2.355,-0.1,0
-0.0016493,0.017784,0,-0.030534,0.0080972,-0.0078699,0,0,-0.030534,0,-76.699,0.2711,0,-0.021045,0,-23.032,68.153,1,1,2.36,2.36,-0.1,0
-0.0016511,0.017789,0,-0.030509,0.0081476,-0.0079159,0,0,-0.030509,0,-76.625,0.22804,0,-0.0090479,0,-23.006,68.097,1,1,2.365,2.365,-0.1,0
-0.0016528,0.017795,0,-0.030483,0.0081985,-0.0079624,0,0,-0.030483,0,-76.552,0.18401,0,0.0032352,0,-22.981,68.04,1,1,2.37,2.37,-0.1,0
-0.0016546,0.0178,0,-0.03046,0.0082055,-0.0079719,0,0,-0.03046,0,-76.52,0.2058,0,-0.0020547,0,-22.973,68.008,1,1,2.375,2.375,-0.1,0
-0.0016563,0.017805,0,-0.030437,0.0082118,-0.0079807,0,0,-0.030437,0,-76.489,0.229,0,-0.0077327,0,-22.965,67.977,1,1,2.38,2.38,-0.1,0
-0.001658,0.017811,0,-0.030413,0.0082186,-0.00799,0,0,-0.030413,0,-76.458,0.25168,0,-0.013287,0,-22.957,67.945,1,1,2.385,2.385,-0.1,0
-0.0016598,0.017816,0,-0.03039,0.0082259,-0.0079996,0,0,-0.03039,0,-76.427,0.27386,0,-0.018717,0,-22.95,67.913,1,1,2.39,2.39,-0.1,0
-0.0016615,0.017822,0,-0.030367,0.0082338,-0.0080098,0,0,-0.030367,0,-76.396,0.29551,0,-0.024022,0,-22.942,67.882,1,1,2.395,2.395,-0.1,0
-0.0016633,0.017827,0,-0.030344,0.0082423,-0.0080203,0,0,-0.030344,0,-76.365,0.31665,0,-0.029205,0,-22.934,67.85,1,1,2.4,2.4,-0.1,0
-0.001665,0.017832,0,-0.03032,0.0082512,-0.0080313,0,0,-0.03032,0,-76.333,0.33728,0,-0.034263,0,-22.926,67.818,1,1,2.405,2.405,-0.1,0
-0.0016667,0.017838,0,-0.030297,0.0082607,-0.0080427,0,0,-0.030297,0,-76.302,0.3574,0,-0.039197,0,-22.918,67.787,1,1,2.41,2.41,-0.1,0
-0.0016685,0.017843,0,-0.030274,0.0082708,-0.0080546,0,0,-0.030274,0,-76.27,0.377,0,-0.044007,0,-22.91,67.755,1,1,2.415,2.415,-0.1,0
-0.0016702,0.017848,0,-0.03025,0.0082814,-0.0080669,0,0,-0.03025,0,-76.239,0.39609,0,-0.048693,0,-22.902,67.723,1,1,2.42,2.42,-0.1,0
-0.001672,0.017854,0,-0.030227,0.0082925,-0.0080796,0,0,-0.030227,0,-76.207,0.41467,0,-0.053255,0,-22.894,67.692,1,1,2.425,2.425,-0.1,0
-0.0016737,0.017859,0,-0.030204,0.0083042,-0.0080928,0,0,-0.030204,0,-76.175,0.43273,0,-0.057693,0,-22.886,67.66,1,1,2.43,2.43,-0.1,0
-0.0016754,0.017864,0,-0.030181,0.0083164,-0.0081064,0,0,-0.030181,0,-76.143,0.45028,0,-0.062007,0,-22.877,67.629,1,1,2.435,2.435,-0.1,0
-0.0016772,0.01787,0,-0.030157,0.0083291,-0.0081204,0,0,-0.030157,0,-76.111,0.46732,0,-0.066198,0,-22.869,67.597,1,1,2.44,2.44,-0.1,0
-0.0016789,0.017875,0,-0.030134,0.0083424,-0.0081349,0,0,-0.030134,0,-76.078,0.48384,0,-0.070264,0,-22.86,67.565,1,1,2.445,2.445,-0.1,0
-0.0016806,0.01788,0,-0.030111,0.0083562,-0.0081497,0,0,-0.030111,0,-76.046,0.49985,0,-0.074206,0,-22.852,67.534,1,1,2.45,2.45,-0.1,0
-0.0016824,0.017885,0,-0.030088,0.0083706,-0.0081651,0,0,-0.030088,0,-76.014,0.51534,0,-0.078024,0,-22.843,67.502,1,1,2.455,2.455,-0.1,0
-0.0016841,0.017891,0,-0.030064,0.0083855,-0.0081808,0,0,-0.030064,0,-75.981,0.53033,0,-0.081718,0,-22.835,67.47,1,1,2.46,2.46,-0.1,0
-0.0016858,0.017896,0,-0.030041,0.0084009,-0.008197,0,0,-0.030041,0,-75.948,0.5448,0,-0.085288,0,-22.826,67.439,1,1,2.465,2.465,-0.1,0
-0.0016875,0.017901,0,-0.030018,0.0084169,-0.0082137,0,0,-0.030018,0,-75.916,0.55875,0,-0.088733,0,-22.817,67.407,1,1,2.47,2.47,-0.1,0
-0.0016893,0.017906,0,-0.029994,0.0084334,-0.0082307,0,0,-0.029994,0,-75.883,0.57219,0,-0.092055,0,-22.808,67.375,1,1,2.475,2.475,-0.1,0
-0.001691,0.017912,0,-0.029971,0.0084505,-0.0082482,0,0,-0.029971,0,-75.85,0.58512,0,-0.095253,0,-22.799,67.343,1,1,2.48,2.48,-0.1,0
-0.0016927,0.017917,0,-0.029948,0.008468,-0.0082661,0,0,-0.029948,0,-75.817,0.59754,0,-0.098327,0,-22.79,67.312,1,1,2.485,2.485,-0.1,0
-0.0016944,0.017922,0,-0.029925,0.0084862,-0.0082845,0,0,-0.029925,0,-75.784,0.60944,0,-0.10128,0,-22.781,67.28,1,1,2.49,2.49,-0.1,0
-0.0016962,0.017927,0,-0.029901,0.0085048,-0.0083033,0,0,-0.029901,0,-75.75,0.62083,0,-0.1041,0,-22.772,67.248,1,1,2.495,2.495,-0.1,0
-0.0016979,0.017933,0,-0.029878,0.0085241,-0.0083225,0,0,-0.029878,0,-75.717,0.63171,0,-0.1068,0,-22.763,67.217,1,1,2.5,2.5,-0.1,0
-0.0016996,0.017938,0,-0.029855,0.0085438,-0.0083422,0,0,-0.029855,0,-75.683,0.64207,0,-0.10938,0,-22.753,67.185,1,1,2.505,2.505,-0.1,0
-0.0017013,0.017943,0,-0.029832,0.0085641,-0.0083623,0,0,-0.029832,0,-75.65,0.65192,0,-0.11183,0,-22.744,67.153,1,1,2.51,2.51,-0.1,0
-0.0017031,0.017948,0,-0.029808,0.0085849,-0.0083828,0,0,-0.029808,0,-75.616,0.66125,0,-0.11416,0,-22.735,67.121,1,1,2.515,2.515,-0.1,0
-0.0017048,0.017953,0,-0.029785,0.0086063,-0.0084037,0,0,-0.029785,0,-75.582,0.67007,0,-0.11637,0,-22.725,67.09,1,1,2.52,2.52,-0.1,0
-0.0017065,0.017959,0,-0.029762,0.0086282,-0.0084251,0,0,-0.029762,0,-75.548,0.67838,0,-0.11845,0,-22.716,67.058,1,1,2.525,2.525,-0.1,0
-0.0017082,0.017964,0,-0.029739,0.0086506,-0.008447,0,0,-0.029739,0,-75.514,0.68618,0,-0.12041,0,-22.706,67.026,1,1,2.53,2.53,-0.1,0
-0.0017099,0.017969,0,-0.029715,0.0086736,-0.0084692,0,0,-0.029715,0,-75.48,0.69346,0,-0.12224,0,-22.696,66.995,1,1,2.535,2.535,-0.1,0
-0.0017116,0.017974,0,-0.029692,0.0086971,-0.0084919,0,0,-0.029692,0,-75.446,0.70023,0,-0.12395,0,-22.686,66.963,1,1,2.54,2.54,-0.1,0
-0.0017134,0.017979,0,-0.029669,0.0087212,-0.008515,0,0,-0.029669,0,-75.411,0.70649,0,-0.12553,0,-22.677,66.931,1,1,2.545,2.545,-0.1,0
-0.0017151,0.017984,0,-0.029646,0.0087457,-0.0085386,0,0,-0.029646,0,-75.377,0.71223,0,-0.12699,0,-22.667,66.899,1,1,2.55,2.55,-0.1,0
-0.0017168,0.017989,0,-0.029622,0.0087709,-0.0085626,0,0,-0.029622,0,-75.342,0.71746,0,-0.12833,0,-22.657,66.867,1,1,2.555,2.555,-0.1,0
-0.0017185,0.017995,0,-0.029599,0.0087965,-0.008587,0,0,-0.029599,0,-75.307,0.72217,0,-0.12954,0,-22.647,66.836,1,1,2.56,2.56,-0.1,0
-0.0017202,0.018,0,-0.029576,0.0088227,-0.0086118,0,0,-0.029576,0,-75.272,0.72638,0,-0.13063,0,-22.636,66.804,1,1,2.565,2.565,-0.1,0
-0.0017219,0.018005,0,-0.029553,0.0088495,-0.0086371,0,0,-0.029553,0,-75.237,0.73006,0,-0.13159,0,-22.626,66.772,1,1,2.57,2.57,-0.1,0
-0.0017236,0.01801,0,-0.02953,0.0088768,-0.0086628,0,0,-0.02953,0,-75.202,0.73324,0,-0.13243,0,-22.616,66.74,1,1,2.575,2.575,-0.1,0
-0.0017253,0.018015,0,-0.029506,0.0089046,-0.008689,0,0,-0.029506,0,-75.167,0.7359,0,-0.13314,0,-22.606,66.709,1,1,2.58,2.58,-0.1,0
-0.001727,0.01802,0,-0.029483,0.0089329,-0.0087156,0,0,-0.029483,0,-75.132,0.73805,0,-0.13374,0,-22.595,66.677,1,1,2.585,2.585,-0.1,0
-0.0017287,0.018025,0,-0.02946,0.0089618,-0.0087426,0,0,-0.02946,0,-75.097,0.73969,0,-0.1342,0,-22.585,66.645,1,1,2.59,2.59,-0.1,0
-0.0017305,0.01803,0,-0.029437,0.0089912,-0.00877,0,0,-0.029437,0,-75.061,0.74081,0,-0.13454,0,-22.574,66.613,1,1,2.595,2.595,-0.1,0
-0.0017322,0.018035,0,-0.029413,0.0090212,-0.0087979,0,0,-0.029413,0,-75.026,0.74142,0,-0.13476,0,-22.563,66.581,1,1,2.6,2.6,-0.1,0
-0.0017339,0.01804,0,-0.02939,0.0090517,-0.0088262,0,0,-0.02939,0,-74.99,0.74152,0,-0.13486,0,-22.553,66.55,1,1,2.605,2.605,-0.1,0
-0.0017356,0.018045,0,-0.029367,0.0090827,-0.0088549,0,0,-0.029367,0,-74.954,0.7411,0,-0.13483,0,-22.542,66.518,1,1,2.61,2.61,-0.1,0
-0.0017373,0.01805,0,-0.029344,0.0091145,-0.0088842,0,0,-0.029344,0,-74.918,0.74017,0,-0.13467,0,-22.531,66.486,1,1,2.615,2.615,-0.1,0
-0.001739,0.018055,0,-0.029323,0.0091471,-0.0089144,0,0,-0.029323,0,-74.882,0.73872,0,-0.13439,0,-22.52,66.454,1,1,2.62,2.62,-0.1,0
-0.0017407,0.01806,0,-0.029301,0.0091803,-0.008945,0,0,-0.029301,0,-74.846,0.73676,0,-0.13399,0,-22.509,66.422,1,1,2.625,2.625,-0.1,0
-0.0017424,0.018066,0,-0.02928,0.0092141,-0.008976,0,0,-0.02928,0,-74.81,0.73429,0,-0.13346,0,-22.498,66.391,1,1,2.63,2.63,-0.1,0
-0.0017441,0.018071,0,-0.029258,0.0092484,-0.0090074,0,0,-0.029258,0,-74.773,0.7313,0,-0.13281,0,-22.487,66.359,1,1,2.635,2.635,-0.1,0
-0.0017458,0.018076,0,-0.029236,0.0092832,-0.0090393,0,0,-0.029236,0,-74.737,0.7278,0,-0.13204,0,-22.476,66.327,1,1,2.64,2.64,-0.1,0
-0.0017475,0.018081,0,-0.029215,0.0093186,-0.0090716,0,0,-0.029215,0,-74.7,0.72379,0,-0.13114,0,-22.465,66.295,1,1,2.645,2.645,-0.1,0
-0.0017492,0.018085,0,-0.029193,0.0093545,-0.0091044,0,0,-0.029193,0,-74.663,0.71926,0,-0.13011,0,-22.453,66.263,1,1,2.65,2.65,-0.1,0
-0.0017509,0.01809,0,-0.029172,0.009391,-0.0091375,0,0,-0.029172,0,-74.627,0.71422,0,-0.12896,0,-22.442,66.231,1,1,2.655,2.655,-0.1,0
-0.0017526,0.018095,0,-0.02915,0.009428,-0.0091712,0,0,-0.02915,0,-74.59,0.70867,0,-0.12769,0,-22.43,66.199,1,1,2.66,2.66,-0.1,0
-0.0017542,0.0181,0,-0.029129,0.0094655,-0.0092052,0,0,-0.029129,0,-74.553,0.70261,0,-0.12629,0,-22.419,66.168,1,1,2.665,2.665,-0.1,0
-0.0017559,0.018105,0,-0.029107,0.0095036,-0.0092397,0,0,-0.029107,0,-74.515,0.69603,0,-0.12477,0,-22.407,66.136,1,1,2.67,2.67,-0.1,0
-0.0017576,0.01811,0,-0.029086,0.0095422,-0.0092746,0,0,-0.029086,0,-74.478,0.68893,0,-0.12312,0,-22.396,66.104,1,1,2.675,2.675,-0.1,0
-0.0017593,0.018115,0,-0.029064,0.0095814,-0.00931,0,0,-0.029064,0,-74.441,0.68133,0,-0.12135,0,-22.384,66.072,1,1,2.68,2.68,-0.1,0
-0.001761,0.01812,0,-0.029043,0.0096211,-0.0093458,0,0,-0.029043,0,-74.403,0.67321,0,-0.11946,0,-22.372,66.04,1,1,2.685,2.685,-0.1,0
-0.0017627,0.018125,0,-0.029021,0.0096613,-0.009382,0,0,-0.029021,0,-74.366,0.66458,0,-0.11744,0,-22.36,66.008,1,1,2.69,2.69,-0.1,0
-0.0017644,0.01813,0,-0.028999,0.0097021,-0.0094187,0,0,-0.028999,0,-74.328,0.65543,0,-0.1153,0,-22.348,65.976,1,1,2.695,2.695,-0.1,0
-0.0017661,0.018135,0,-0.028978,0.0097434,-0.0094558,0,0,-0.028978,0,-74.29,0.64578,0,-0.11303,0,-22.336,65.944,1,1,2.7,2.7,-0.1,0
-0.0017678,0.01814,0,-0.028956,0.0097853,-0.0094934,0,0,-0.028956,0,-74.252,0.63561,0,-0.11064,0,-22.324,65.912,1,1,2.705,2.705,-0.1,0
-0.0017695,0.018145,0,-0.028935,0.0098277,-0.0095313,0,0,-0.028935,0,-74.214,0.62492,0,-0.10812,0,-22.312,65.881,1,1,2.71,2.71,-0.1,0
-0.0017711,0.01815,0,-0.028913,0.0098706,-0.0095697,0,0,-0.028913,0,-74.176,0.61372,0,-0.10548,0,-22.3,65.849,1,1,2.715,2.715,-0.1,0
-0.0017728,0.018154,0,-0.028892,0.0099141,-0.0096086,0,0,-0.028892,0,-74.138,0.60201,0,-0.10272,0,-22.287,65.817,1,1,2.72,2.72,-0.1,0
-0.0017745,0.018159,0,-0.02887,0.0099581,-0.0096479,0,0,-0.02887,0,-74.1,0.58979,0,-0.099828,0,-22.275,65.785,1,1,2.725,2.725,-0.1,0
-0.0017762,0.018164,0,-0.028849,0.010003,-0.0096876,0,0,-0.028849,0,-74.061,0.57705,0,-0.096814,0,-22.262,65.753,1,1,2.73,2.73,-0.1,0
-0.0017779,0.018169,0,-0.028827,0.010048,-0.0097277,0,0,-0.028827,0,-74.023,0.5638,0,-0.093676,0,-22.25,65.721,1,1,2.735,2.735,-0.1,0
-0.0017795,0.018174,0,-0.028806,0.010093,-0.0097683,0,0,-0.028806,0,-73.984,0.55004,0,-0.090414,0,-22.237,65.689,1,1,2.74,2.74,-0.1,0
-0.0017812,0.018179,0,-0.028784,0.01014,-0.0098093,0,0,-0.028784,0,-73.945,0.53576,0,-0.087027,0,-22.225,65.657,1,1,2.745,2.745,-0.1,0
-0.0017829,0.018184,0,-0.028763,0.010186,-0.0098508,0,0,-0.028763,0,-73.906,0.52097,0,-0.083516,0,-22.212,65.625,1,1,2.75,2.75,-0.1,0
-0.0017846,0.018188,0,-0.028741,0.010234,-0.0098927,0,0,-0.028741,0,-73.867,0.50567,0,-0.07988,0,-22.199,65.593,1,1,2.755,2.755,-0.1,0
-0.0017863,0.018193,0,-0.02872,0.010281,-0.009935,0,0,-0.02872,0,-73.828,0.48985,0,-0.07612,0,-22.186,65.561,1,1,2.76,2.76,-0.1,0
-0.0017879,0.018198,0,-0.028698,0.01033,-0.0099778,0,0,-0.028698,0,-73.789,0.47352,0,-0.072236,0,-22.173,65.529,1,1,2.765,2.765,-0.1,0
-0.0017896,0.018203,0,-0.028677,0.010379,-0.010021,0,0,-0.028677,0,-73.75,0.45668,0,-0.068227,0,-22.16,65.497,1,1,2.77,2.77,-0.1,0
-0.0017913,0.018208,0,-0.028655,0.010428,-0.010065,0,0,-0.028655,0,-73.71,0.43933,0,-0.064094,0,-22.147,65.465,1,1,2.775,2.775,-0.1,0
-0.001793,0.018212,0,-0.028634,0.010478,-0.010109,0,0,-0.028634,0,-73.671,0.42146,0,-0.059836,0,-22.134,65.433,1,1,2.78,2.78,-0.1,0
-0.0017946,0.018217,0,-0.028612,0.010528,-0.010153,0,0,-0.028612,0,-73.631,0.40308,0,-0.055454,0,-22.121,65.402,1,1,2.785,2.785,-0.1,0
-0.0017963,0.018222,0,-0.028591,0.010579,-0.010198,0,0,-0.028591,0,-73.592,0.38418,0,-0.050948,0,-22.108,65.37,1,1,2.79,2.79,-0.1,0
-0.001798,0.018227,0,-0.028569,0.010631,-0.010243,0,0,-0.028569,0,-73.552,0.36477,0,-0.046316,0,-22.094,65.338,1,1,2.795,2.795,-0.1,0
-0.0017996,0.018231,0,-0.028548,0.010683,-0.010289,0,0,-0.028548,0,-73.512,0.34485,0,-0.041561,0,-22.081,65.306,1,1,2.8,2.8,-0.1,0
-0.0018013,0.018236,0,-0.028526,0.010736,-0.010335,0,0,-0.028526,0,-73.472,0.32442,0,-0.036681,0,-22.067,65.274,1,1,2.805,2.805,-0.1,0
-0.001803,0.018241,0,-0.028505,0.010789,-0.010382,0,0,-0.028505,0,-73.431,0.30347,0,-0.031677,0,-22.054,65.242,1,1,2.81,2.81,-0.1,0
-0.0018046,0.018246,0,-0.028483,0.010843,-0.010429,0,0,-0.028483,0,-73.391,0.28201,0,-0.026548,0,-22.04,65.21,1,1,2.815,2.815,-0.1,0
-0.0018063,0.01825,0,-0.028462,0.010897,-0.010477,0,0,-0.028462,0,-73.351,0.26004,0,-0.021295,0,-22.026,65.178,1,1,2.82,2.82,-0.1,0
-0.001808,0.018255,0,-0.02844,0.010952,-0.010525,0,0,-0.02844,0,-73.31,0.23755,0,-0.015917,0,-22.013,65.146,1,1,2.825,2.825,-0.1,0
-0.0018096,0.01826,0,-0.028419,0.011007,-0.010573,0,0,-0.028419,0,-73.27,0.21455,0,-0.010415,0,-21.999,65.114,1,1,2.83,2.83,-0.1,0
-0.0018113,0.018265,0,-0.028397,0.011063,-0.010622,0,0,-0.028397,0,-73.229,0.19104,0,-0.0047877,0,-21.985,65.082,1,1,2.835,2.835,-0.1,0
-0.001813,0.018269,0,-0.028376,0.011119,-0.010671,0,0,-0.028376,0,-73.188,0.16701,0,0.00096345,0,-21.971,65.05,1,1,2.84,2.84,-0.1,0
-0.0018146,0.018274,0,-0.028354,0.011176,-0.010721,0,0,-0.028354,0,-73.147,0.14247,0,0.0068394,0,-21.957,65.018,1,1,2.845,2.845,-0.1,0
-0.0018163,0.018279,0,-0.028333,0.011234,-0.010771,0,0,-0.028333,0,-73.106,0.11742,0,0.01284,0,-21.943,64.986,1,1,2.85,2.85,-0.1,0
-0.001818,0.018283,0,-0.028311,0.011292,-0.010822,0,0,-0.028311,0,-73.065,0.091855,0,0.018964,0,-21.928,64.954,1,1,2.855,2.855,-0.1,0
-0.0018196,0.018288,0,-0.028291,0.011321,-0.01085,0,0,-0.028291,0,-73.035,0.089386,0,0.019773,0,-21.919,64.928,1,1,2.86,2.86,-0.1,0
-0.0018213,0.018293,0,-0.02827,0.011328,-0.010861,0,0,-0.02827,0,-73.014,0.10444,0,0.016541,0,-21.914,64.907,1,1,2.865,2.865,-0.1,0
-0.0018229,0.018297,0,-0.02825,0.011336,-0.010873,0,0,-0.02825,0,-72.993,0.1192,0,0.013369,0,-21.908,64.885,1,1,2.87,2.87,-0.1,0
-0.0018246,0.018302,0,-0.02823,0.011344,-0.010885,0,0,-0.02823,0,-72.972,0.13367,0,0.010258,0,-21.903,64.864,1,1,2.875,2.875,-0.1,0
-0.0018263,0.018307,0,-0.02821,0.011353,-0.010897,0,0,-0.02821,0,-72.95,0.14785,0,0.0072075,0,-21.897,64.843,1,1,2.88,2.88,-0.1,0
-0.0018279,0.018311,0,-0.02819,0.011362,-0.01091,0,0,-0.02819,0,-72.929,0.16174,0,0.0042181,0,-21.892,64.822,1,1,2.885,2.885,-0.1,0
-0.0018296,0.018316,0,-0.02817,0.011372,-0.010923,0,0,-0.02817,0,-72.908,0.17534,0,0.0012893,0,-21.886,64.801,1,1,2.89,2.89,-0.1,0
-0.0018312,0.01832,0,-0.02815,0.011382,-0.010937,0,0,-0.02815,0,-72.886,0.18865,0,-0.0015787,0,-21.881,64.779,1,1,2.895,2.895,-0.1,0
-0.0018329,0.018325,0,-0.02813,0.011393,-0.010951,0,0,-0.02813,0,-72.865,0.20167,0,-0.004386,0,-21.875,64.758,1,1,2.9,2.9,-0.1,0
-0.0018346,0.01833,0,-0.02811,0.011404,-0.010965,0,0,-0.02811,0,-72.843,0.2144,0,-0.0071324,0,-21.87,64.737,1,1,2.905,2.905,-0.1,0
-0.0018362,0.018334,0,-0.028089,0.011416,-0.01098,0,0,-0.028089,0,-72.822,0.22684,0,-0.0098181,0,-21.864,64.716,1,1,2.91,2.91,-0.1,0
-0.0018379,0.018339,0,-0.028069,0.011428,-0.010995,0,0,-0.028069,0,-72.8,0.23899,0,-0.012443,0,-21.858,64.695,1,1,2.915,2.915,-0.1,0
-0.0018395,0.018344,0,-0.028049,0.011441,-0.01101,0,0,-0.028049,0,-72.778,0.25085,0,-0.015007,0,-21.852,64.674,1,1,2.92,2.92,-0.1,0
-0.0018412,0.018348,0,-0.028029,0.011455,-0.011026,0,0,-0.028029,0,-72.757,0.26242,0,-0.017511,0,-21.847,64.652,1,1,2.925,2.925,-0.1,0
-0.0018429,0.018353,0,-0.028009,0.011469,-0.011042,0,0,-0.028009,0,-72.735,0.27369,0,-0.019953,0,-21.841,64.631,1,1,2.93,2.93,-0.1,0
-0.0018445,0.018357,0,-0.027989,0.011483,-0.011059,0,0,-0.027989,0,-72.713,0.28468,0,-0.022335,0,-21.835,64.61,1,1,2.935,2.935,-0.1,0
-0.0018462,0.018362,0,-0.027969,0.011498,-0.011076,0,0,-0.027969,0,-72.691,0.29538,0,-0.024656,0,-21.829,64.589,1,1,2.94,2.94,-0.1,0
-0.0018478,0.018367,0,-0.027949,0.011514,-0.011093,0,0,-0.027949,0,-72.669,0.30578,0,-0.026916,0,-21.823,64.568,1,1,2.945,2.945,-0.1,0
-0.0018495,0.018371,0,-0.027929,0.01153,-0.011111,0,0,-0.027929,0,-72.647,0.3159,0,-0.029116,0,-21.817,64.547,1,1,2.95,2.95,-0.1,0
-0.0018511,0.018376,0,-0.027909,0.011546,-0.011129,0,0,-0.027909,0,-72.625,0.32573,0,-0.031255,0,-21.811,64.525,1,1,2.955,2.955,-0.1,0
-0.0018528,0.01838,0,-0.027889,0.011563,-0.011147,0,0,-0.027889,0,-72.603,0.33526,0,-0.033332,0,-21.805,64.504,1,1,2.96,2.96,-0.1,0
-0.0018544,0.018385,0,-0.027868,0.011581,-0.011166,0,0,-0.027868,0,-72.581,0.34451,0,-0.03535,0,-21.799,64.483,1,1,2.965,2.965,-0.1,0
-0.0018561,0.018389,0,-0.027848,0.011599,-0.011185,0,0,-0.027848,0,-72.559,0.35346,0,-0.037306,0,-21.793,64.462,1,1,2.97,2.97,-0.1,0
-0.0018577,0.018394,0,-0.027828,0.011618,-0.011204,0,0,-0.027828,0,-72.537,0.36213,0,-0.039201,0,-21.787,64.441,1,1,2.975,2.975,-0.1,0
-0.0018594,0.018399,0,-0.027808,0.011637,-0.011224,0,0,-0.027808,0,-72.514,0.3705,0,-0.041036,0,-21.781,64.42,1,1,2.98,2.98,-0.1,0
-0.001861,0.018403,0,-0.027788,0.011657,-0.011245,0,0,-0.027788,0,-72.492,0.37859,0,-0.04281,0,-21.775,64.399,1,1,2.985,2.985,-0.1,0
-0.0018627,0.018408,0,-0.027768,0.011677,-0.011265,0,0,-0.027768,0,-72.47,0.38638,0,-0.044523,0,-21.769,64.377,1,1,2.99,2.99,-0.1,0
-0.0018643,0.018412,0,-0.027748,0.011698,-0.011286,0,0,-0.027748,0,-72.447,0.39389,0,-0.046175,0,-21.762,64.356,1,1,2.995,2.995,-0.1,0
-0.001866,0.018417,0,-0.027728,0.011719,-0.011308,0,0,-0.027728,0,-72.425,0.4011,0,-0.047767,0,-21.756,64.335,1,1,3,3,-0.1,0
-0.0018676,0.018421,0,-0.027708,0.011741,-0.011329,0,0,-0.027708,0,-72.402,0.40802,0,-0.049297,0,-21.75,64.314,1,1,3.005,3.005,-0.1,0
-0.0018693,0.018426,0,-0.027688,0.011764,-0.011351,0,0,-0.027688,0,-72.38,0.41466,0,-0.050767,0,-21.743,64.293,1,1,3.01,3.01,-0.1,0
-0.0018709,0.01843,0,-0.027668,0.011787,-0.011374,0,0,-0.027668,0,-72.357,0.421,0,-0.052176,0,-21.737,64.272,1,1,3.015,3.015,-0.1,0
-0.0018726,0.018435,0,-0.027648,0.01181,-0.011397,0,0,-0.027648,0,-72.335,0.42705,0,-0.053524,0,-21.731,64.251,1,1,3.02,3.02,-0.1,0
-0.0018742,0.018439,0,-0.027628,0.011834,-0.01142,0,0,-0.027628,0,-72.312,0.43281,0,-0.054812,0,-21.724,64.229,1,1,3.025,3.025,-0.1,0
-0.0018758,0.018444,0,-0.027608,0.011859,-0.011444,0,0,-0.027608,0,-72.289,0.43828,0,-0.056038,0,-21.718,64.208,1,1,3.03,3.03,-0.1,0
-0.0018775,0.018448,0,-0.027587,0.011884,-0.011468,0,0,-0.027587,0,-72.266,0.44347,0,-0.057204,0,-21.711,64.187,1,1,3.035,3.035,-0.1,0
-0.0018791,0.018453,0,-0.027567,0.011909,-0.011492,0,0,-0.027567,0,-72.243,0.44836,0,-0.058309,0,-21.705,64.166,1,1,3.04,3.04,-0.1,0
-0.0018808,0.018457,0,-0.027547,0.011935,-0.011517,0,0,-0.027547,0,-72.221,0.45296,0,-0.059353,0,-21.698,64.145,1,1,3.045,3.045,-0.1,0
-0.0018824,0.018462,0,-0.027527,0.011962,-0.011542,0,0,-0.027527,0,-72.198,0.45727,0,-0.060336,0,-21.692,64.124,1,1,3.05,3.05,-0.1,0
-0.0018841,0.018466,0,-0.027507,0.011989,-0.011567,0,0,-0.027507,0,-72.175,0.46129,0,-0.061258,0,-21.685,64.103,1,1,3.055,3.055,-0.1,0
-0.0018857,0.018471,0,-0.027487,0.012017,-0.011593,0,0,-0.027487,0,-72.152,0.46502,0,-0.062119,0,-21.678,64.082,1,1,3.06,3.06,-0.1,0
-0.0018873,0.018475,0,-0.027467,0.012045,-0.011619,0,0,-0.027467,0,-72.129,0.46846,0,-0.06292,0,-21.672,64.06,1,1,3.065,3.065,-0.1,0
-0.001889,0.01848,0,-0.027447,0.012073,-0.011646,0,0,-0.027447,0,-72.105,0.47161,0,-0.06366,0,-21.665,64.039,1,1,3.07,3.07,-0.1,0
-0.0018906,0.018484,0,-0.027427,0.012103,-0.011673,0,0,-0.027427,0,-72.082,0.47447,0,-0.064339,0,-21.658,64.018,1,1,3.075,3.075,-0.1,0
-0.0018923,0.018489,0,-0.027407,0.012132,-0.0117,0,0,-0.027407,0,-72.059,0.47704,0,-0.064957,0,-21.651,63.997,1,1,3.08,3.08,-0.1,0
-0.0018939,0.018493,0,-0.027387,0.012163,-0.011728,0,0,-0.027387,0,-72.036,0.47931,0,-0.065514,0,-21.645,63.976,1,1,3.085,3.085,-0.1,0
-0.0018955,0.018497,0,-0.027367,0.012194,-0.011756,0,0,-0.027367,0,-72.012,0.4813,0,-0.06601,0,-21.638,63.955,1,1,3.09,3.09,-0.1,0
-0.0018972,0.018502,0,-0.027347,0.012225,-0.011784,0,0,-0.027347,0,-71.989,0.483,0,-0.066445,0,-21.631,63.934,1,1,3.095,3.095,-0.1,0
-0.0018988,0.018506,0,-0.027327,0.012257,-0.011813,0,0,-0.027327,0,-71.966,0.48441,0,-0.06682,0,-21.624,63.913,1,1,3.1,3.1,-0.1,0
-0.0019004,0.018511,0,-0.027307,0.012289,-0.011842,0,0,-0.027307,0,-71.942,0.48552,0,-0.067134,0,-21.617,63.892,1,1,3.105,3.105,-0.1,0
-0.0019021,0.018515,0,-0.027287,0.012322,-0.011872,0,0,-0.027287,0,-71.919,0.48635,0,-0.067386,0,-21.61,63.87,1,1,3.11,3.11,-0.1,0
-0.0019037,0.01852,0,-0.027267,0.012356,-0.011902,0,0,-0.027267,0,-71.895,0.48689,0,-0.067578,0,-21.603,63.849,1,1,3.115,3.115,-0.1,0
-0.0019054,0.018524,0,-0.027247,0.012389,-0.011932,0,0,-0.027247,0,-71.871,0.48713,0,-0.067709,0,-21.596,63.828,1,1,3.12,3.12,-0.1,0
-0.001907,0.018528,0,-0.027226,0.012424,-0.011963,0,0,-0.027226,0,-71.848,0.48709,0,-0.067779,0,-21.589,63.807,1,1,3.125,3.125,-0.1,0
-0.0019086,0.018533,0,-0.027208,0.01246,-0.011994,0,0,-0.027208,0,-71.824,0.48676,0,-0.067789,0,-21.582,63.786,1,1,3.13,3.13,-0.1,0
-0.0019102,0.018537,0,-0.027189,0.012496,-0.012026,0,0,-0.027189,0,-71.8,0.48613,0,-0.067737,0,-21.574,63.765,1,1,3.135,3.135,-0.1,0
-0.0019119,0.018542,0,-0.02717,0.012532,-0.012058,0,0,-0.02717,0,-71.776,0.48521,0,-0.067624,0,-21.567,63.744,1,1,3.14,3.14,-0.1,0
-0.0019135,0.018546,0,-0.027151,0.01257,-0.012091,0,0,-0.027151,0,-71.752,0.48401,0,-0.067451,0,-21.56,63.723,1,1,3.145,3.145,-0.1,0
-0.0019151,0.01855,0,-0.027132,0.012607,-0.012124,0,0,-0.027132,0,-71.728,0.48251,0,-0.067216,0,-21.553,63.702,1,1,3.15,3.15,-0.1,0
-0.0019168,0.018555,0,-0.027113,0.012645,-0.012158,0,0,-0.027113,0,-71.705,0.48072,0,-0.066921,0,-21.545,63.681,1,1,3.155,3.155,-0.1,0
-0.0019184,0.018559,0,-0.027095,0.012684,-0.012192,0,0,-0.027095,0,-71.68,0.47865,0,-0.066565,0,-21.538,63.66,1,1,3.16,3.16,-0.1,0
-0.00192,0.018564,0,-0.027076,0.012724,-0.012226,0,0,-0.027076,0,-71.656,0.47628,0,-0.066148,0,-21.531,63.638,1,1,3.165,3.165,-0.1,0
-0.0019217,0.018568,0,-0.027057,0.012763,-0.01226,0,0,-0.027057,0,-71.632,0.47362,0,-0.06567,0,-21.523,63.617,1,1,3.17,3.17,-0.1,0
-0.0019233,0.018572,0,-0.027038,0.012804,-0.012295,0,0,-0.027038,0,-71.608,0.47067,0,-0.065131,0,-21.516,63.596,1,1,3.175,3.175,-0.1,0
-0.0019249,0.018577,0,-0.027019,0.012845,-0.012331,0,0,-0.027019,0,-71.584,0.46743,0,-0.064531,0,-21.509,63.575,1,1,3.18,3.18,-0.1,0
-0.0019265,0.018581,0,-0.027,0.012886,-0.012366,0,0,-0.027,0,-71.56,0.46391,0,-0.06387,0,-21.501,63.554,1,1,3.185,3.185,-0.1,0
-0.0019282,0.018585,0,-0.026981,0.012928,-0.012402,0,0,-0.026981,0,-71.535,0.46009,0,-0.063148,0,-21.494,63.533,1,1,3.19,3.19,-0.1,0
-0.0019298,0.01859,0,-0.026963,0.01297,-0.012439,0,0,-0.026963,0,-71.511,0.45598,0,-0.062366,0,-21.486,63.512,1,1,3.195,3.195,-0.1,0
-0.0019314,0.018594,0,-0.026944,0.013013,-0.012476,0,0,-0.026944,0,-71.486,0.45158,0,-0.061522,0,-21.478,63.491,1,1,3.2,3.2,-0.1,0
-0.001933,0.018598,0,-0.026925,0.013057,-0.012513,0,0,-0.026925,0,-71.462,0.44689,0,-0.060617,0,-21.471,63.47,1,1,3.205,3.205,-0.1,0
-0.0019347,0.018603,0,-0.026906,0.013101,-0.01255,0,0,-0.026906,0,-71.438,0.44191,0,-0.059652,0,-21.463,63.449,1,1,3.21,3.21,-0.1,0
-0.0019363,0.018607,0,-0.026887,0.013146,-0.012588,0,0,-0.026887,0,-71.413,0.43664,0,-0.058626,0,-21.455,63.428,1,1,3.215,3.215,-0.1,0
-0.0019379,0.018611,0,-0.026868,0.013191,-0.012627,0,0,-0.026868,0,-71.388,0.43108,0,-0.057538,0,-21.448,63.407,1,1,3.22,3.22,-0.1,0
-0.0019395,0.018616,0,-0.02685,0.013236,-0.012665,0,0,-0.02685,0,-71.364,0.42523,0,-0.05639,0,-21.44,63.385,1,1,3.225,3.225,-0.1,0
-0.0019412,0.01862,0,-0.026831,0.013282,-0.012704,0,0,-0.026831,0,-71.339,0.41909,0,-0.055181,0,-21.432,63.364,1,1,3.23,3.23,-0.1,0
-0.0019428,0.018624,0,-0.026812,0.013329,-0.012744,0,0,-0.026812,0,-71.314,0.41265,0,-0.053911,0,-21.424,63.343,1,1,3.235,3.235,-0.1,0
-0.0019444,0.018628,0,-0.026793,0.013376,-0.012784,0,0,-0.026793,0,-71.289,0.40593,0,-0.05258,0,-21.416,63.322,1,1,3.24,3.24,-0.1,0
-0.001946,0.018633,0,-0.026774,0.013424,-0.012824,0,0,-0.026774,0,-71.265,0.39892,0,-0.051188,0,-21.409,63.301,1,1,3.245,3.245,-0.1,0
-0.0019476,0.018637,0,-0.026755,0.013472,-0.012864,0,0,-0.026755,0,-71.24,0.39162,0,-0.049735,0,-21.401,63.28,1,1,3.25,3.25,-0.1,0
-0.0019493,0.018641,0,-0.026737,0.013521,-0.012905,0,0,-0.026737,0,-71.215,0.38403,0,-0.048221,0,-21.393,63.259,1,1,3.255,3.255,-0.1,0
-0.0019509,0.018646,0,-0.026718,0.013571,-0.012946,0,0,-0.026718,0,-71.19,0.37614,0,-0.046646,0,-21.385,63.238,1,1,3.26,3.26,-0.1,0
-0.0019525,0.01865,0,-0.026699,0.01362,-0.012988,0,0,-0.026699,0,-71.165,0.36797,0,-0.04501,0,-21.377,63.217,1,1,3.265,3.265,-0.1,0
-0.0019541,0.018654,0,-0.02668,0.013671,-0.01303,0,0,-0.02668,0,-71.14,0.35951,0,-0.043313,0,-21.369,63.196,1,1,3.27,3.27,-0.1,0
-0.0019557,0.018658,0,-0.026661,0.013722,-0.013073,0,0,-0.026661,0,-71.114,0.35075,0,-0.041555,0,-21.361,63.175,1,1,3.275,3.275,-0.1,0
-0.0019573,0.018663,0,-0.026643,0.013773,-0.013115,0,0,-0.026643,0,-71.089,0.34171,0,-0.039737,0,-21.352,63.154,1,1,3.28,3.28,-0.1,0
-0.001959,0.018667,0,-0.026624,0.013825,-0.013159,0,0,-0.026624,0,-71.064,0.33238,0,-0.037857,0,-21.344,63.133,1,1,3.285,3.285,-0.1,0
-0.0019606,0.018671,0,-0.026605,0.013878,-0.013202,0,0,-0.026605,0,-71.039,0.32275,0,-0.035916,0,-21.336,63.112,1,1,3.29,3.29,-0.1,0
-0.0019622,0.018675,0,-0.026586,0.013931,-0.013246,0,0,-0.026586,0,-71.013,0.31284,0,-0.033915,0,-21.328,63.091,1,1,3.295,3.295,-0.1,0
-0.0019638,0.01868,0,-0.026567,0.013984,-0.01329,0,0,-0.026567,0,-70.988,0.30263,0,-0.031852,0,-21.32,63.07,1,1,3.3,3.3,-0.1,0
-0.0019654,0.018684,0,-0.026548,0.014038,-0.013335,0,0,-0.026548,0,-70.962,0.29214,0,-0.029728,0,-21.311,63.049,1,1,3.305,3.305,-0.1,0
-0.001967,0.018688,0,-0.02653,0.014093,-0.01338,0,0,-0.02653,0,-70.937,0.28135,0,-0.027544,0,-21.303,63.028,1,1,3.31,3.31,-0.1,0
-0.0019686,0.018692,0,-0.026511,0.014148,-0.013425,0,0,-0.026511,0,-70.911,0.27028,0,-0.025298,0,-21.295,63.007,1,1,3.315,3.315,-0.1,0
-0.0019702,0.018696,0,-0.026492,0.014204,-0.013471,0,0,-0.026492,0,-70.886,0.25891,0,-0.022992,0,-21.286,62.986,1,1,3.32,3.32,-0.1,0
-0.0019719,0.018701,0,-0.026473,0.01426,-0.013517,0,0,-0.026473,0,-70.86,0.24725,0,-0.020624,0,-21.278,62.965,1,1,3.325,3.325,-0.1,0
-0.0019735,0.018705,0,-0.026454,0.014316,-0.013564,0,0,-0.026454,0,-70.835,0.23531,0,-0.018195,0,-21.27,62.944,1,1,3.33,3.33,-0.1,0
-0.0019751,0.018709,0,-0.026436,0.014374,-0.013611,0,0,-0.026436,0,-70.809,0.22307,0,-0.015706,0,-21.261,62.923,1,1,3.335,3.335,-0.1,0
-0.0019767,0.018713,0,-0.026417,0.014431,-0.013658,0,0,-0.026417,0,-70.783,0.21054,0,-0.013155,0,-21.253,62.902,1,1,3.34,3.34,-0.1,0
-0.0019783,0.018717,0,-0.026398,0.01449,-0.013706,0,0,-0.026398,0,-70.757,0.19773,0,-0.010544,0,-21.244,62.881,1,1,3.345,3.345,-0.1,0
-0.0019799,0.018722,0,-0.026379,0.014549,-0.013754,0,0,-0.026379,0,-70.731,0.18462,0,-0.007871,0,-21.235,62.86,1,1,3.35,3.35,-0.1,0
-0.0019815,0.018726,0,-0.02636,0.014608,-0.013802,0,0,-0.02636,0,-70.705,0.17122,0,-0.0051373,0,-21.227,62.838,1,1,3.355,3.355,-0.1,0
-0.0019831,0.01873,0,-0.026342,0.014668,-0.013851,0,0,-0.026342,0,-70.679,0.15753,0,-0.0023428,0,-21.218,62.817,1,1,3.36,3.36,-0.1,0
-0.0019847,0.018734,0,-0.026323,0.014728,-0.0139,0,0,-0.026323,0,-70.653,0.14355,0,0.00051295,0,-21.209,62.796,1,1,3.365,3.365,-0.1,0
-0.0019863,0.018738,0,-0.026304,0.014789,-0.013949,0,0,-0.026304,0,-70.627,0.12929,0,0.0034295,0,-21.201,62.775,1,1,3.37,3.37,-0.1,0
-0.0019879,0.018742,0,-0.026285,0.014851,-0.013999,0,0,-0.026285,0,-70.601,0.11473,0,0.0064073,0,-21.192,62.754,1,1,3.375,3.375,-0.1,0
-0.0019895,0.018747,0,-0.026266,0.014913,-0.01405,0,0,-0.026266,0,-70.575,0.099878,0,0.009446,0,-21.183,62.733,1,1,3.38,3.38,-0.1,0
-0.0019911,0.018751,0,-0.026248,0.014975,-0.0141,0,0,-0.026248,0,-70.549,0.084739,0,0.012546,0,-21.174,62.712,1,1,3.385,3.385,-0.1,0
-0.0019927,0.018755,0,-0.026229,0.015038,-0.014151,0,0,-0.026229,0,-70.522,0.069309,0,0.015707,0,-21.166,62.691,1,1,3.39,3.39,-0.1,0
-0.0019943,0.018759,0,-0.02621,0.015077,-0.014186,0,0,-0.02621,0,-70.501,0.064585,0,0.016791,0,-21.159,62.673,1,1,3.395,3.395,-0.1,0
-0.001996,0.018763,0,-0.026193,0.015082,-0.014198,0,0,-0.026193,0,-70.485,0.07454,0,0.015022,0,-21.155,62.658,1,1,3.4,3.4,-0.1,0
-0.0019976,0.018767,0,-0.026175,0.015088,-0.014211,0,0,-0.026175,0,-70.469,0.084322,0,0.013284,0,-21.15,62.642,1,1,3.405,3.405,-0.1,0
-0.0019992,0.018771,0,-0.026157,0.015094,-0.014224,0,0,-0.026157,0,-70.454,0.093934,0,0.011575,0,-21.146,62.627,1,1,3.41,3.41,-0.1,0
-0.0020008,0.018776,0,-0.026139,0.015101,-0.014237,0,0,-0.026139,0,-70.438,0.10337,0,0.0098966,0,-21.142,62.612,1,1,3.415,3.415,-0.1,0
-0.0020024,0.01878,0,-0.026121,0.015109,-0.014251,0,0,-0.026121,0,-70.422,0.11264,0,0.0082482,0,-21.138,62.597,1,1,3.42,3.42,-0.1,0
-0.002004,0.018784,0,-0.026104,0.015117,-0.014265,0,0,-0.026104,0,-70.407,0.12174,0,0.0066299,0,-21.134,62.582,1,1,3.425,3.425,-0.1,0
-0.0020056,0.018788,0,-0.026086,0.015125,-0.014279,0,0,-0.026086,0,-70.391,0.13067,0,0.0050416,0,-21.129,62.566,1,1,3.43,3.43,-0.1,0
-0.0020072,0.018792,0,-0.026068,0.015135,-0.014294,0,0,-0.026068,0,-70.375,0.13942,0,0.0034835,0,-21.125,62.551,1,1,3.435,3.435,-0.1,0
-0.0020088,0.018796,0,-0.02605,0.015144,-0.014309,0,0,-0.02605,0,-70.359,0.14801,0,0.0019554,0,-21.121,62.536,1,1,3.44,3.44,-0.1,0
-0.0020104,0.0188,0,-0.026032,0.015155,-0.014324,0,0,-0.026032,0,-70.343,0.15642,0,0.00045753,0,-21.116,62.521,1,1,3.445,3.445,-0.1,0
-0.002012,0.018804,0,-0.026015,0.015165,-0.01434,0,0,-0.026015,0,-70.327,0.16466,0,-0.0010103,0,-21.112,62.506,1,1,3.45,3.45,-0.1,0
-0.0020136,0.018809,0,-0.025997,0.015177,-0.014356,0,0,-0.025997,0,-70.312,0.17273,0,-0.002448,0,-21.108,62.491,1,1,3.455,3.455,-0.1,0
-0.0020152,0.018813,0,-0.025979,0.015189,-0.014372,0,0,-0.025979,0,-70.296,0.18063,0,-0.0038557,0,-21.103,62.475,1,1,3.46,3.46,-0.1,0
-0.0020168,0.018817,0,-0.025961,0.015201,-0.014389,0,0,-0.025961,0,-70.28,0.18836,0,-0.0052332,0,-21.099,62.46,1,1,3.465,3.465,-0.1,0
-0.0020184,0.018821,0,-0.025943,0.015214,-0.014406,0,0,-0.025943,0,-70.264,0.19592,0,-0.0065807,0,-21.095,62.445,1,1,3.47,3.47,-0.1,0
-0.00202,0.018825,0,-0.025926,0.015228,-0.014423,0,0,-0.025926,0,-70.248,0.20331,0,-0.007898,0,-21.09,62.43,1,1,3.475,3.475,-0.1,0
-0.0020216,0.018829,0,-0.025908,0.015242,-0.014441,0,0,-0.025908,0,-70.232,0.21052,0,-0.0091852,0,-21.086,62.415,1,1,3.48,3.48,-0.1,0
-0.0020232,0.018833,0,-0.02589,0.015257,-0.014459,0,0,-0.02589,0,-70.216,0.21756,0,-0.010442,0,-21.081,62.399,1,1,3.485,3.485,-0.1,0
-0.0020248,0.018837,0,-0.025872,0.015272,-0.014477,0,0,-0.025872,0,-70.2,0.22444,0,-0.011669,0,-21.077,62.384,1,1,3.49,3.49,-0.1,0
-0.0020264,0.018841,0,-0.025854,0.015288,-0.014496,0,0,-0.025854,0,-70.184,0.23114,0,-0.012866,0,-21.072,62.369,1,1,3.495,3.495,-0.1,0
-0.002028,0.018845,0,-0.025837,0.015305,-0.014515,0,0,-0.025837,0,-70.168,0.23767,0,-0.014033,0,-21.068,62.354,1,1,3.5,3.5,-0.1,0
-0.0020296,0.018849,0,-0.025819,0.015322,-0.014534,0,0,-0.025819,0,-70.151,0.24403,0,-0.01517,0,-21.063,62.339,1,1,3.505,3.505,-0.1,0
-0.0020312,0.018853,0,-0.025801,0.015339,-0.014554,0,0,-0.025801,0,-70.135,0.25021,0,-0.016276,0,-21.059,62.324,1,1,3.51,3.51,-0.1,0
-0.0020328,0.018858,0,-0.025783,0.015357,-0.014574,0,0,-0.025783,0,-70.119,0.25623,0,-0.017353,0,-21.054,62.308,1,1,3.515,3.515,-0.1,0
-0.0020344,0.018862,0,-0.025766,0.015376,-0.014594,0,0,-0.025766,0,-70.103,0.26208,0,-0.018399,0,-21.05,62.293,1,1,3.52,3.52,-0.1,0
-0.002036,0.018866,0,-0.025748,0.015395,-0.014615,0,0,-0.025748,0,-70.087,0.26775,0,-0.019415,0,-21.045,62.278,1,1,3.525,3.525,-0.1,0
-0.0020376,0.01887,0,-0.02573,0.015415,-0.014635,0,0,-0.02573,0,-70.07,0.27325,0,-0.020401,0,-21.041,62.263,1,1,3.53,3.53,-0.1,0
-0.0020391,0.018874,0,-0.025712,0.015435,-0.014657,0,0,-0.025712,0,-70.054,0.27858,0,-0.021357,0,-21.036,62.248,1,1,3.535,3.535,-0.1,0
-0.0020407,0.018878,0,-0.025694,0.015456,-0.014678,0,0,-0.025694,0,-70.038,0.28375,0,-0.022283,0,-21.031,62.233,1,1,3.54,3.54,-0.1,0
-0.0020423,0.018882,0,-0.025677,0.015477,-0.0147,0,0,-0.025677,0,-70.022,0.28873,0,-0.023178,0,-21.027,62.217,1,1,3.545,3.545,-0.1,0
-0.0020439,0.018886,0,-0.025659,0.015499,-0.014722,0,0,-0.025659,0,-70.005,0.29355,0,-0.024044,0,-21.022,62.202,1,1,3.55,3.55,-0.1,0
-0.0020455,0.01889,0,-0.025641,0.015522,-0.014745,0,0,-0.025641,0,-69.989,0.2982,0,-0.024879,0,-21.018,62.187,1,1,3.555,3.555,-0.1,0
-0.0020471,0.018894,0,-0.025623,0.015545,-0.014768,0,0,-0.025623,0,-69.973,0.30267,0,-0.025685,0,-21.013,62.172,1,1,3.56,3.56,-0.1,0
-0.0020487,0.018898,0,-0.025606,0.015569,-0.014791,0,0,-0.025606,0,-69.956,0.30698,0,-0.02646,0,-21.008,62.157,1,1,3.565,3.565,-0.1,0
-0.0020503,0.018902,0,-0.025588,0.015593,-0.014815,0,0,-0.025588,0,-69.94,0.31111,0,-0.027205,0,-21.003,62.142,1,1,3.57,3.57,-0.1,0
-0.0020519,0.018906,0,-0.02557,0.015618,-0.014839,0,0,-0.02557,0,-69.923,0.31507,0,-0.02792,0,-20.999,62.126,1,1,3.575,3.575,-0.1,0
-0.0020535,0.01891,0,-0.025552,0.015643,-0.014863,0,0,-0.025552,0,-69.907,0.31887,0,-0.028605,0,-20.994,62.111,1,1,3.58,3.58,-0.1,0
-0.0020551,0.018914,0,-0.025534,0.015669,-0.014887,0,0,-0.025534,0,-69.89,0.32249,0,-0.029259,0,-20.989,62.096,1,1,3.585,3.585,-0.1,0
-0.0020567,0.018918,0,-0.025517,0.015695,-0.014912,0,0,-0.025517,0,-69.874,0.32593,0,-0.029884,0,-20.984,62.081,1,1,3.59,3.59,-0.1,0
-0.0020582,0.018922,0,-0.025499,0.015722,-0.014937,0,0,-0.025499,0,-69.857,0.32921,0,-0.030478,0,-20.98,62.066,1,1,3.595,3.595,-0.1,0
-0.0020598,0.018926,0,-0.025481,0.01575,-0.014963,0,0,-0.025481,0,-69.841,0.33232,0,-0.031042,0,-20.975,62.051,1,1,3.6,3.6,-0.1,0
-0.0020614,0.01893,0,-0.025463,0.015778,-0.014989,0,0,-0.025463,0,-69.824,0.33525,0,-0.031576,0,-20.97,62.036,1,1,3.605,3.605,-0.1,0
-0.002063,0.018934,0,-0.025446,0.015806,-0.015015,0,0,-0.025446,0,-69.807,0.33802,0,-0.03208,0,-20.965,62.02,1,1,3.61,3.61,-0.1,0
-0.0020646,0.018938,0,-0.025428,0.015835,-0.015041,0,0,-0.025428,0,-69.791,0.34061,0,-0.032554,0,-20.96,62.005,1,1,3.615,3.615,-0.1,0
-0.0020662,0.018942,0,-0.02541,0.015865,-0.015068,0,0,-0.02541,0,-69.774,0.34303,0,-0.032998,0,-20.955,61.99,1,1,3.62,3.62,-0.1,0
-0.0020678,0.018946,0,-0.025392,0.015895,-0.015095,0,0,-0.025392,0,-69.757,0.34528,0,-0.033411,0,-20.951,61.975,1,1,3.625,3.625,-0.1,0
-0.0020694,0.01895,0,-0.025375,0.015926,-0.015123,0,0,-0.025375,0,-69.741,0.34736,0,-0.033795,0,-20.946,61.96,1,1,3.63,3.63,-0.1,0
-0.0020709,0.018954,0,-0.025357,0.015958,-0.015151,0,0,-0.025357,0,-69.724,0.34927,0,-0.034148,0,-20.941,61.945,1,1,3.635,3.635,-0.1,0
-0.0020725,0.018958,0,-0.025339,0.01599,-0.015179,0,0,-0.025339,0,-69.707,0.351,0,-0.034471,0,-20.936,61.93,1,1,3.64,3.64,-0.1,0
-0.0020741,0.018962,0,-0.025321,0.016022,-0.015207,0,0,-0.025321,0,-69.69,0.35257,0,-0.034764,0,-20.931,61.914,1,1,3.645,3.645,-0.1,0
-0.0020757,0.018966,0,-0.025304,0.016055,-0.015236,0,0,-0.025304,0,-69.674,0.35396,0,-0.035026,0,-20.926,61.899,1,1,3.65,3.65,-0.1,0
-0.0020773,0.01897,0,-0.025286,0.016089,-0.015265,0,0,-0.025286,0,-69.657,0.35518,0,-0.035259,0,-20.921,61.884,1,1,3.655,3.655,-0.1,0
-0.0020789,0.018974,0,-0.025268,0.016123,-0.015295,0,0,-0.025268,0,-69.64,0.35624,0,-0.035461,0,-20.916,61.869,1,1,3.66,3.66,-0.1,0
-0.0020805,0.018978,0,-0.02525,0.016158,-0.015325,0,0,-0.02525,0,-69.623,0.35712,0,-0.035634,0,-20.911,61.854,1,1,3.665,3.665,-0.1,0
-0.002082,0.018982,0,-0.025233,0.016193,-0.015355,0,0,-0.025233,0,-69.606,0.35783,0,-0.035776,0,-20.906,61.839,1,1,3.67,3.67,-0.1,0
-0.0020836,0.018986,0,-0.025215,0.016229,-0.015385,0,0,-0.025215,0,-69.589,0.35836,0,-0.035888,0,-20.901,61.824,1,1,3.675,3.675,-0.1,0
-0.0020852,0.01899,0,-0.025197,0.016265,-0.015416,0,0,-0.025197,0,-69.572,0.35873,0,-0.03597,0,-20.896,61.809,1,1,3.68,3.68,-0.1,0
-0.0020868,0.018994,0,-0.025179,0.016302,-0.015447,0,0,-0.025179,0,-69.555,0.35893,0,-0.036021,0,-20.891,61.793,1,1,3.685,3.685,-0.1,0
-0.0020884,0.018998,0,-0.025162,0.01634,-0.015479,0,0,-0.025162,0,-69.538,0.35895,0,-0.036043,0,-20.886,61.778,1,1,3.69,3.69,-0.1,0
-0.00209,0.019002,0,-0.025145,0.016378,-0.015511,0,0,-0.025145,0,-69.521,0.3588,0,-0.036034,0,-20.88,61.763,1,1,3.695,3.695,-0.1,0
-0.0020915,0.019006,0,-0.025128,0.016418,-0.015544,0,0,-0.025128,0,-69.504,0.35848,0,-0.035995,0,-20.875,61.748,1,1,3.7,3.7,-0.1,0
-0.0020931,0.01901,0,-0.025111,0.016457,-0.015577,0,0,-0.025111,0,-69.487,0.35799,0,-0.035926,0,-20.87,61.733,1,1,3.705,3.705,-0.1,0
-0.0020947,0.019014,0,-0.025094,0.016498,-0.01561,0,0,-0.025094,0,-69.47,0.35733,0,-0.035827,0,-20.865,61.718,1,1,3.71,3.71,-0.1,0
-0.0020963,0.019017,0,-0.025078,0.016539,-0.015644,0,0,-0.025078,0,-69.453,0.3565,0,-0.035697,0,-20.86,61.703,1,1,3.715,3.715,-0.1,0
-0.0020979,0.019021,0,-0.025061,0.01658,-0.015677,0,0,-0.025061,0,-69.436,0.3555,0,-0.035538,0,-20.855,61.688,1,1,3.72,3.72,-0.1,0
-0.0020994,0.019025,0,-0.025044,0.016622,-0.015712,0,0,-0.025044,0,-69.419,0.35432,0,-0.035348,0,-20.849,61.673,1,1,3.725,3.725,-0.1,0
-0.002101,0.019029,0,-0.025027,0.016664,-0.015746,0,0,-0.025027,0,-69.402,0.35298,0,-0.035128,0,-20.844,61.657,1,1,3.73,3.73,-0.1,0
-0.0021026,0.019033,0,-0.02501,0.016708,-0.015781,0,0,-0.02501,0,-69.384,0.35146,0,-0.034878,0,-20.839,61.642,1,1,3.735,3.735,-0.1,0
-0.0021042,0.019037,0,-0.024993,0.016751,-0.015817,0,0,-0.024993,0,-69.367,0.34977,0,-0.034598,0,-20.834,61.627,1,1,3.74,3.74,-0.1,0
-0.0021057,0.019041,0,-0.024976,0.016795,-0.015852,0,0,-0.024976,0,-69.35,0.34791,0,-0.034287,0,-20.828,61.612,1,1,3.745,3.745,-0.1,0
-0.0021073,0.019045,0,-0.024959,0.01684,-0.015888,0,0,-0.024959,0,-69.333,0.34588,0,-0.033947,0,-20.823,61.597,1,1,3.75,3.75,-0.1,0
-0.0021089,0.019049,0,-0.024942,0.016885,-0.015924,0,0,-0.024942,0,-69.315,0.34368,0,-0.033576,0,-20.818,61.582,1,1,3.755,3.755,-0.1,0
-0.0021105,0.019053,0,-0.024926,0.016931,-0.015961,0,0,-0.024926,0,-69.298,0.3413,0,-0.033175,0,-20.812,61.567,1,1,3.76,3.76,-0.1,0
-0.002112,0.019057,0,-0.024909,0.016978,-0.015998,0,0,-0.024909,0,-69.281,0.33876,0,-0.032744,0,-20.807,61.552,1,1,3.765,3.765,-0.1,0
-0.0021136,0.019061,0,-0.024892,0.017025,-0.016035,0,0,-0.024892,0,-69.263,0.33604,0,-0.032282,0,-20.802,61.537,1,1,3.77,3.77,-0.1,0
-0.0021152,0.019064,0,-0.024875,0.017072,-0.016073,0,0,-0.024875,0,-69.246,0.33316,0,-0.031791,0,-20.796,61.521,1,1,3.775,3.775,-0.1,0
-0.0021168,0.019068,0,-0.024858,0.01712,-0.016111,0,0,-0.024858,0,-69.228,0.3301,0,-0.031269,0,-20.791,61.506,1,1,3.78,3.78,-0.1,0
-0.0021183,0.019072,0,-0.024841,0.017169,-0.016149,0,0,-0.024841,0,-69.211,0.32687,0,-0.030717,0,-20.786,61.491,1,1,3.785,3.785,-0.1,0
-0.0021199,0.019076,0,-0.024824,0.017218,-0.016187,0,0,-0.024824,0,-69.194,0.32347,0,-0.030135,0,-20.78,61.476,1,1,3.79,3.79,-0.1,0
-0.0021215,0.01908,0,-0.024807,0.017268,-0.016226,0,0,-0.024807,0,-69.176,0.3199,0,-0.029523,0,-20.775,61.461,1,1,3.795,3.795,-0.1,0
-0.0021231,0.019084,0,-0.024791,0.017318,-0.016266,0,0,-0.024791,0,-69.159,0.31616,0,-0.028881,0,-20.769,61.446,1,1,3.8,3.8,-0.1,0
-0.0021246,0.019088,0,-0.024774,0.017369,-0.016305,0,0,-0.024774,0,-69.141,0.31224,0,-0.028208,0,-20.764,61.431,1,1,3.805,3.805,-0.1,0
-0.0021262,0.019092,0,-0.024757,0.017421,-0.016345,0,0,-0.024757,0,-69.123,0.30816,0,-0.027505,0,-20.758,61.416,1,1,3.81,3.81,-0.1,0
-0.0021278,0.019095,0,-0.02474,0.017472,-0.016385,0,0,-0.02474,0,-69.106,0.3039,0,-0.026772,0,-20.753,61.401,1,1,3.815,3.815,-0.1,0
-0.0021293,0.019099,0,-0.024723,0.017525,-0.016426,0,0,-0.024723,0,-69.088,0.29947,0,-0.026009,0,-20.747,61.386,1,1,3.82,3.82,-0.1,0
-0.0021309,0.019103,0,-0.024706,0.017578,-0.016467,0,0,-0.024706,0,-69.071,0.29487,0,-0.025215,0,-20.742,61.371,1,1,3.825,3.825,-0.1,0
-0.0021325,0.019107,0,-0.024689,0.017632,-0.016508,0,0,-0.024689,0,-69.053,0.2901,0,-0.024392,0,-20.736,61.356,1,1,3.83,3.83,-0.1,0
-0.0021341,0.019111,0,-0.024673,0.017686,-0.016549,0,0,-0.024673,0,-69.035,0.28516,0,-0.023538,0,-20.731,61.34,1,1,3.835,3.835,-0.1,0
-0.0021356,0.019115,0,-0.024656,0.017741,-0.016591,0,0,-0.024656,0,-69.018,0.28005,0,-0.022654,0,-20.725,61.325,1,1,3.84,3.84,-0.1,0
-0.0021372,0.019119,0,-0.024639,0.017796,-0.016634,0,0,-0.024639,0,-69,0.27477,0,-0.02174,0,-20.719,61.31,1,1,3.845,3.845,-0.1,0
-0.0021388,0.019122,0,-0.024622,0.017852,-0.016676,0,0,-0.024622,0,-68.982,0.26931,0,-0.020795,0,-20.714,61.295,1,1,3.85,3.85,-0.1,0
-0.0021403,0.019126,0,-0.024605,0.017908,-0.016719,0,0,-0.024605,0,-68.964,0.26369,0,-0.01982,0,-20.708,61.28,1,1,3.855,3.855,-0.1,0
-0.0021419,0.01913,0,-0.024588,0.017965,-0.016762,0,0,-0.024588,0,-68.947,0.25789,0,-0.018816,0,-20.703,61.265,1,1,3.86,3.86,-0.1,0
-0.0021435,0.019134,0,-0.024571,0.018023,-0.016806,0,0,-0.024571,0,-68.929,0.25192,0,-0.017781,0,-20.697,61.25,1,1,3.865,3.865,-0.1,0
-0.002145,0.019138,0,-0.024554,0.018081,-0.016849,0,0,-0.024554,0,-68.911,0.24578,0,-0.016715,0,-20.691,61.235,1,1,3.87,3.87,-0.1,0
-0.0021466,0.019142,0,-0.024538,0.01814,-0.016894,0,0,-0.024538,0,-68.893,0.23947,0,-0.01562,0,-20.686,61.22,1,1,3.875,3.875,-0.1,0
-0.0021482,0.019145,0,-0.024521,0.018199,-0.016938,0,0,-0.024521,0,-68.875,0.23299,0,-0.014494,0,-20.68,61.205,1,1,3.88,3.88,-0.1,0
-0.0021497,0.019149,0,-0.024504,0.018258,-0.016983,0,0,-0.024504,0,-68.857,0.22633,0,-0.013338,0,-20.674,61.19,1,1,3.885,3.885,-0.1,0
-0.0021513,0.019153,0,-0.024487,0.018319,-0.017028,0,0,-0.024487,0,-68.839,0.21951,0,-0.012152,0,-20.668,61.175,1,1,3.89,3.89,-0.1,0
-0.0021529,0.019157,0,-0.02447,0.01838,-0.017074,0,0,-0.02447,0,-68.821,0.21251,0,-0.010936,0,-20.663,61.16,1,1,3.895,3.895,-0.1,0
-0.0021544,0.019161,0,-0.024453,0.018441,-0.017119,0,0,-0.024453,0,-68.803,0.20535,0,-0.0096891,0,-20.657,61.145,1,1,3.9,3.9,-0.1,0
-0.002156,0.019165,0,-0.024436,0.018503,-0.017166,0,0,-0.024436,0,-68.785,0.19801,0,-0.0084124,0,-20.651,61.13,1,1,3.905,3.905,-0.1,0
-0.0021576,0.019168,0,-0.02442,0.018566,-0.017212,0,0,-0.02442,0,-68.767,0.1905,0,-0.0071054,0,-20.645,61.115,1,1,3.91,3.91,-0.1,0
-0.0021591,0.019172,0,-0.024403,0.018629,-0.017259,0,0,-0.024403,0,-68.749,0.18282,0,-0.0057682,0,-20.639,61.099,1,1,3.915,3.915,-0.1,0
-0.0021607,0.019176,0,-0.024386,0.018692,-0.017306,0,0,-0.024386,0,-68.731,0.17497,0,-0.0044008,0,-20.634,61.084,1,1,3.92,3.92,-0.1,0
-0.0021622,0.01918,0,-0.024369,0.018756,-0.017353,0,0,-0.024369,0,-68.713,0.16694,0,-0.0030031,0,-20.628,61.069,1,1,3.925,3.925,-0.1,0
-0.0021638,0.019184,0,-0.024352,0.018821,-0.017401,0,0,-0.024352,0,-68.695,0.15875,0,-0.0015752,0,-20.622,61.054,1,1,3.93,3.93,-0.1,0
-0.0021654,0.019187,0,-0.024335,0.018886,-0.017449,0,0,-0.024335,0,-68.677,0.15038,0,-0.00011718,0,-20.616,61.039,1,1,3.935,3.935,-0.1,0
-0.0021669,0.019191,0,-0.024319,0.018952,-0.017498,0,0,-0.024319,0,-68.659,0.14185,0,0.0013712,0,-20.61,61.024,1,1,3.94,3.94,-0.1,0
-0.0021685,0.019195,0,-0.024302,0.019019,-0.017547,0,0,-0.024302,0,-68.641,0.13314,0,0.0028897,0,-20.604,61.009,1,1,3.945,3.945,-0.1,0
-0.0021701,0.019199,0,-0.024285,0.019086,-0.017596,0,0,-0.024285,0,-68.622,0.12426,0,0.0044385,0,-20.598,60.994,1,1,3.95,3.95,-0.1,0
-0.0021716,0.019202,0,-0.024268,0.019153,-0.017645,0,0,-0.024268,0,-68.604,0.11521,0,0.0060175,0,-20.592,60.979,1,1,3.955,3.955,-0.1,0
-0.0021732,0.019206,0,-0.024251,0.019221,-0.017695,0,0,-0.024251,0,-68.586,0.10599,0,0.0076267,0,-20.586,60.964,1,1,3.96,3.96,-0.1,0
-0.0021747,0.01921,0,-0.024234,0.01929,-0.017745,0,0,-0.024234,0,-68.568,0.096595,0,0.0092662,0,-20.58,60.949,1,1,3.965,3.965,-0.1,0
-0.0021763,0.019214,0,-0.024217,0.019359,-0.017795,0,0,-0.024217,0,-68.549,0.087031,0,0.010936,0,-20.574,60.934,1,1,3.97,3.97,-0.1,0
-0.0021778,0.019218,0,-0.024201,0.019429,-0.017846,0,0,-0.024201,0,-68.531,0.077296,0,0.012636,0,-20.568,60.919,1,1,3.975,3.975,-0.1,0
-0.0021794,0.019221,0,-0.024184,0.019499,-0.017897,0,0,-0.024184,0,-68.513,0.067389,0,0.014366,0,-20.562,60.904,1,1,3.98,3.98,-0.1,0
-0.002181,0.019225,0,-0.024167,0.019529,-0.017926,0,0,-0.024167,0,-68.497,0.066898,0,0.01455,0,-20.558,60.891,1,1,3.985,3.985,-0.1,0
-0.0021825,0.019229,0,-0.024151,0.019528,-0.017937,0,0,-0.024151,0,-68.484,0.073675,0,0.013538,0,-20.554,60.878,1,1,3.99,3.99,-0.1,0
-0.0021841,0.019233,0,-0.024135,0.019528,-0.017949,0,0,-0.024135,0,-68.472,0.080348,0,0.012542,0,-20.551,60.866,1,1,3.995,3.995,-0.1,0
-0.0021856,0.019236,0,-0.024119,0.019528,-0.017961,0,0,-0.024119,0,-68.459,0.086917,0,0.011561,0,-20.547,60.854,1,1,4,4,-0.1,0
-0.0021872,0.01924,0,-0.024103,0.019529,-0.017973,0,0,-0.024103,0,-68.446,0.093382,0,0.010596,0,-20.543,60.842,1,1,4.005,4.005,-0.1,0
-0.0021888,0.019244,0,-0.024087,0.019531,-0.017986,0,0,-0.024087,0,-68.433,0.099743,0,0.009646,0,-20.54,60.83,1,1,4.01,4.01,-0.1,0
-0.0021903,0.019248,0,-0.024071,0.019533,-0.017999,0,0,-0.024071,0,-68.42,0.106,0,0.0087115,0,-20.536,60.818,1,1,4.015,4.015,-0.1,0
-0.0021919,0.019251,0,-0.024054,0.019536,-0.018012,0,0,-0.024054,0,-68.407,0.11215,0,0.0077925,0,-20.533,60.806,1,1,4.02,4.02,-0.1,0
-0.0021934,0.019255,0,-0.024038,0.01954,-0.018025,0,0,-0.024038,0,-68.394,0.1182,0,0.0068888,0,-20.529,60.793,1,1,4.025,4.025,-0.1,0
-0.002195,0.019259,0,-0.024022,0.019544,-0.018039,0,0,-0.024022,0,-68.381,0.12415,0,0.0060007,0,-20.525,60.781,1,1,4.03,4.03,-0.1,0
-0.0021965,0.019263,0,-0.024006,0.019549,-0.018053,0,0,-0.024006,0,-68.368,0.12999,0,0.005128,0,-20.522,60.769,1,1,4.035,4.035,-0.1,0
-0.0021981,0.019266,0,-0.02399,0.019554,-0.018067,0,0,-0.02399,0,-68.356,0.13572,0,0.0042708,0,-20.518,60.757,1,1,4.04,4.04,-0.1,0
-0.0021997,0.01927,0,-0.023974,0.01956,-0.018082,0,0,-0.023974,0,-68.343,0.14136,0,0.0034289,0,-20.515,60.745,1,1,4.045,4.045,-0.1,0
-0.0022012,0.019274,0,-0.023958,0.019567,-0.018097,0,0,-0.023958,0,-68.33,0.14689,0,0.0026026,0,-20.511,60.733,1,1,4.05,4.05,-0.1,0
-0.0022028,0.019277,0,-0.023942,0.019575,-0.018112,0,0,-0.023942,0,-68.317,0.15231,0,0.0017917,0,-20.507,60.721,1,1,4.055,4.055,-0.1,0
-0.0022043,0.019281,0,-0.023925,0.019583,-0.018128,0,0,-0.023925,0,-68.304,0.15763,0,0.00099628,0,-20.504,60.708,1,1,4.06,4.06,-0.1,0
-0.0022059,0.019285,0,-0.023909,0.019591,-0.018144,0,0,-0.023909,0,-68.291,0.16285,0,0.00021627,0,-20.5,60.696,1,1,4.065,4.065,-0.1,0
-0.0022074,0.019289,0,-0.023893,0.0196,-0.01816,0,0,-0.023893,0,-68.278,0.16796,0,-0.00054828,0,-20.496,60.684,1,1,4.07,4.07,-0.1,0
-0.002209,0.019292,0,-0.023877,0.01961,-0.018176,0,0,-0.023877,0,-68.265,0.17297,0,-0.0012973,0,-20.492,60.672,1,1,4.075,4.075,-0.1,0
-0.0022105,0.019296,0,-0.023861,0.019621,-0.018193,0,0,-0.023861,0,-68.252,0.17787,0,-0.0020309,0,-20.489,60.66,1,1,4.08,4.08,-0.1,0
-0.0022121,0.0193,0,-0.023845,0.019632,-0.01821,0,0,-0.023845,0,-68.238,0.18267,0,-0.0027491,0,-20.485,60.648,1,1,4.085,4.085,-0.1,0
-0.0022136,0.019304,0,-0.023829,0.019644,-0.018227,0,0,-0.023829,0,-68.225,0.18737,0,-0.0034519,0,-20.481,60.636,1,1,4.09,4.09,-0.1,0
-0.0022152,0.019307,0,-0.023813,0.019656,-0.018245,0,0,-0.023813,0,-68.212,0.19196,0,-0.0041391,0,-20.478,60.624,1,1,4.095,4.095,-0.1,0
-0.0022168,0.019311,0,-0.023797,0.01967,-0.018263,0,0,-0.023797,0,-68.199,0.19645,0,-0.0048109,0,-20.474,60.611,1,1,4.1,4.1,-0.1,0
-0.0022183,0.019315,0,-0.02378,0.019683,-0.018281,0,0,-0.02378,0,-68.186,0.20083,0,-0.0054672,0,-20.47,60.599,1,1,4.105,4.105,-0.1,0
-0.0022199,0.019318,0,-0.023764,0.019698,-0.0183,0,0,-0.023764,0,-68.173,0.20511,0,-0.0061081,0,-20.466,60.587,1,1,4.11,4.11,-0.1,0
-0.0022214,0.019322,0,-0.023748,0.019713,-0.018319,0,0,-0.023748,0,-68.16,0.20929,0,-0.0067335,0,-20.463,60.575,1,1,4.115,4.115,-0.1,0
-0.002223,0.019326,0,-0.023732,0.019728,-0.018338,0,0,-0.023732,0,-68.147,0.21336,0,-0.0073435,0,-20.459,60.563,1,1,4.12,4.12,-0.1,0
-0.0022245,0.019329,0,-0.023716,0.019745,-0.018357,0,0,-0.023716,0,-68.134,0.21733,0,-0.007938,0,-20.455,60.551,1,1,4.125,4.125,-0.1,0
-0.0022261,0.019333,0,-0.0237,0.019762,-0.018377,0,0,-0.0237,0,-68.12,0.22119,0,-0.008517,0,-20.451,60.539,1,1,4.13,4.13,-0.1,0
-0.0022276,0.019337,0,-0.023684,0.019779,-0.018397,0,0,-0.023684,0,-68.107,0.22495,0,-0.0090806,0,-20.448,60.527,1,1,4.135,4.135,-0.1,0
-0.0022292,0.019341,0,-0.023668,0.019797,-0.018418,0,0,-0.023668,0,-68.094,0.22861,0,-0.0096287,0,-20.444,60.514,1,1,4.14,4.14,-0.1,0
-0.0022307,0.019344,0,-0.023652,0.019816,-0.018438,0,0,-0.023652,0,-68.081,0.23216,0,-0.010161,0,-20.44,60.502,1,1,4.145,4.145,-0.1,0
-0.0022323,0.019348,0,-0.023635,0.019835,-0.018459,0,0,-0.023635,0,-68.068,0.23561,0,-0.010679,0,-20.436,60.49,1,1,4.15,4.15,-0.1,0
-0.0022338,0.019352,0,-0.023619,0.019856,-0.01848,0,0,-0.023619,0,-68.055,0.23895,0,-0.01118,0,-20.432,60.478,1,1,4.155,4.155,-0.1,0
-0.0022354,0.019355,0,-0.023603,0.019876,-0.018502,0,0,-0.023603,0,-68.041,0.24219,0,-0.011666,0,-20.429,60.466,1,1,4.16,4.16,-0.1,0
-0.0022369,0.019359,0,-0.023587,0.019898,-0.018524,0,0,-0.023587,0,-68.028,0.24533,0,-0.012137,0,-20.425,60.454,1,1,4.165,4.165,-0.1,0
-0.0022385,0.019363,0,-0.023571,0.01992,-0.018546,0,0,-0.023571,0,-68.015,0.24836,0,-0.012593,0,-20.421,60.442,1,1,4.17,4.17,-0.1,0
-0.00224,0.019366,0,-0.023555,0.019942,-0.018568,0,0,-0.023555,0,-68.002,0.25129,0,-0.013032,0,-20.417,60.43,1,1,4.175,4.175,-0.1,0
-0.0022415,0.01937,0,-0.023539,0.019966,-0.018591,0,0,-0.023539,0,-67.988,0.25411,0,-0.013457,0,-20.413,60.418,1,1,4.18,4.18,-0.1,0
-0.0022431,0.019374,0,-0.023523,0.019989,-0.018614,0,0,-0.023523,0,-67.975,0.25683,0,-0.013866,0,-20.409,60.405,1,1,4.185,4.185,-0.1,0
-0.0022446,0.019377,0,-0.023507,0.020014,-0.018638,0,0,-0.023507,0,-67.962,0.25945,0,-0.014259,0,-20.405,60.393,1,1,4.19,4.19,-0.1,0
-0.0022462,0.019381,0,-0.023491,0.020039,-0.018661,0,0,-0.023491,0,-67.948,0.26196,0,-0.014637,0,-20.402,60.381,1,1,4.195,4.195,-0.1,0
-0.0022477,0.019385,0,-0.023474,0.020065,-0.018685,0,0,-0.023474,0,-67.935,0.26436,0,-0.015,0,-20.398,60.369,1,1,4.2,4.2,-0.1,0
-0.0022493,0.019388,0,-0.023458,0.020091,-0.01871,0,0,-0.023458,0,-67.922,0.26667,0,-0.015347,0,-20.394,60.357,1,1,4.205,4.205,-0.1,0
-0.0022508,0.019392,0,-0.023442,0.020118,-0.018734,0,0,-0.023442,0,-67.908,0.26887,0,-0.015678,0,-20.39,60.345,1,1,4.21,4.21,-0.1,0
-0.0022524,0.019396,0,-0.023426,0.020146,-0.018759,0,0,-0.023426,0,-67.895,0.27096,0,-0.015994,0,-20.386,60.333,1,1,4.215,4.215,-0.1,0
-0.0022539,0.019399,0,-0.02341,0.020174,-0.018784,0,0,-0.02341,0,-67.882,0.27295,0,-0.016295,0,-20.382,60.321,1,1,4.22,4.22,-0.1,0
-0.0022555,0.019403,0,-0.023394,0.020203,-0.01881,0,0,-0.023394,0,-67.868,0.27484,0,-0.01658,0,-20.378,60.309,1,1,4.225,4.225,-0.1,0
-0.002257,0.019407,0,-0.023378,0.020233,-0.018835,0,0,-0.023378,0,-67.855,0.27662,0,-0.01685,0,-20.374,60.297,1,1,4.23,4.23,-0.1,0
-0.0022585,0.01941,0,-0.023362,0.020263,-0.018861,0,0,-0.023362,0,-67.841,0.2783,0,-0.017104,0,-20.37,60.284,1,1,4.235,4.235,-0.1,0
-0.0022601,0.019414,0,-0.023346,0.020294,-0.018888,0,0,-0.023346,0,-67.828,0.27988,0,-0.017343,0,-20.366,60.272,1,1,4.24,4.24,-0.1,0
-0.0022616,0.019418,0,-0.02333,0.020326,-0.018914,0,0,-0.02333,0,-67.815,0.28135,0,-0.017566,0,-20.362,60.26,1,1,4.245,4.245,-0.1,0
-0.0022632,0.019421,0,-0.023314,0.020358,-0.018941,0,0,-0.023314,0,-67.801,0.28271,0,-0.017774,0,-20.358,60.248,1,1,4.25,4.25,-0.1,0
-0.0022647,0.019425,0,-0.023297,0.02039,-0.018969,0,0,-0.023297,0,-67.788,0.28398,0,-0.017966,0,-20.354,60.236,1,1,4.255,4.255,-0.1,0
-0.0022663,0.019429,0,-0.023281,0.020424,-0.018996,0,0,-0.023281,0,-67.774,0.28514,0,-0.018143,0,-20.35,60.224,1,1,4.26,4.26,-0.1,0
-0.0022678,0.019432,0,-0.023265,0.020458,-0.019024,0,0,-0.023265,0,-67.761,0.28619,0,-0.018304,0,-20.346,60.212,1,1,4.265,4.265,-0.1,0
-0.0022693,0.019436,0,-0.023249,0.020493,-0.019052,0,0,-0.023249,0,-67.747,0.28714,0,-0.01845,0,-20.342,60.2,1,1,4.27,4.27,-0.1,0
-0.0022709,0.01944,0,-0.023233,0.020528,-0.019081,0,0,-0.023233,0,-67.734,0.28799,0,-0.01858,0,-20.338,60.188,1,1,4.275,4.275,-0.1,0
-0.0022724,0.019443,0,-0.023217,0.020564,-0.019109,0,0,-0.023217,0,-67.72,0.28873,0,-0.018695,0,-20.334,60.176,1,1,4.28,4.28,-0.1,0
-0.002274,0.019447,0,-0.023201,0.0206,-0.019138,0,0,-0.023201,0,-67.707,0.28937,0,-0.018795,0,-20.33,60.163,1,1,4.285,4.285,-0.1,0
-0.0022755,0.01945,0,-0.023185,0.020638,-0.019168,0,0,-0.023185,0,-67.693,0.2899,0,-0.018879,0,-20.326,60.151,1,1,4.29,4.29,-0.1,0
-0.002277,0.019454,0,-0.023169,0.020675,-0.019197,0,0,-0.023169,0,-67.68,0.29033,0,-0.018947,0,-20.322,60.139,1,1,4.295,4.295,-0.1,0
-0.0022786,0.019458,0,-0.023153,0.020714,-0.019227,0,0,-0.023153,0,-67.666,0.29066,0,-0.019,0,-20.318,60.127,1,1,4.3,4.3,-0.1,0
-0.0022801,0.019461,0,-0.023137,0.020753,-0.019258,0,0,-0.023137,0,-67.653,0.29088,0,-0.019037,0,-20.314,60.115,1,1,4.305,4.305,-0.1,0
-0.0022817,0.019465,0,-0.023121,0.020793,-0.019289,0,0,-0.023121,0,-67.639,0.291,0,-0.019059,0,-20.31,60.103,1,1,4.31,4.31,-0.1,0
-0.0022832,0.019469,0,-0.023106,0.020834,-0.01932,0,0,-0.023106,0,-67.625,0.29101,0,-0.019066,0,-20.306,60.091,1,1,4.315,4.315,-0.1,0
-0.0022847,0.019472,0,-0.02309,0.020876,-0.019352,0,0,-0.02309,0,-67.612,0.29092,0,-0.019057,0,-20.302,60.079,1,1,4.32,4.32,-0.1,0
-0.0022863,0.019476,0,-0.023075,0.020918,-0.019384,0,0,-0.023075,0,-67.598,0.29073,0,-0.019032,0,-20.298,60.067,1,1,4.325,4.325,-0.1,0
-0.0022878,0.019479,0,-0.023059,0.020961,-0.019416,0,0,-0.023059,0,-67.585,0.29043,0,-0.018992,0,-20.294,60.055,1,1,4.33,4.33,-0.1,0
-0.0022893,0.019483,0,-0.023044,0.021004,-0.019448,0,0,-0.023044,0,-67.571,0.29003,0,-0.018937,0,-20.289,60.043,1,1,4.335,4.335,-0.1,0
-0.0022909,0.019487,0,-0.023028,0.021048,-0.019481,0,0,-0.023028,0,-67.557,0.28952,0,-0.018866,0,-20.285,60.03,1,1,4.34,4.34,-0.1,0
-0.0022924,0.01949,0,-0.023013,0.021093,-0.019514,0,0,-0.023013,0,-67.544,0.28891,0,-0.01878,0,-20.281,60.018,1,1,4.345,4.345,-0.1,0
-0.002294,0.019494,0,-0.022997,0.021138,-0.019548,0,0,-0.022997,0,-67.53,0.2882,0,-0.018678,0,-20.277,60.006,1,1,4.35,4.35,-0.1,0
-0.0022955,0.019497,0,-0.022982,0.021185,-0.019582,0,0,-0.022982,0,-67.516,0.28738,0,-0.01856,0,-20.273,59.994,1,1,4.355,4.355,-0.1,0
-0.002297,0.019501,0,-0.022966,0.021231,-0.019616,0,0,-0.022966,0,-67.503,0.28646,0,-0.018427,0,-20.269,59.982,1,1,4.36,4.36,-0.1,0
-0.0022986,0.019505,0,-0.022951,0.021278,-0.01965,0,0,-0.022951,0,-67.489,0.28543,0,-0.018279,0,-20.265,59.97,1,1,4.365,4.365,-0.1,0
-0.0023001,0.019508,0,-0.022935,0.021326,-0.019685,0,0,-0.022935,0,-67.475,0.2843,0,-0.018115,0,-20.26,59.958,1,1,4.37,4.37,-0.1,0
-0.0023016,0.019512,0,-0.02292,0.021375,-0.01972,0,0,-0.02292,0,-67.461,0.28306,0,-0.017936,0,-20.256,59.946,1,1,4.375,4.375,-0.1,0
-0.0023032,0.019515,0,-0.022905,0.021424,-0.019755,0,0,-0.022905,0,-67.448,0.28172,0,-0.017741,0,-20.252,59.934,1,1,4.38,4.38,-0.1,0
-0.0023047,0.019519,0,-0.022889,0.021474,-0.019791,0,0,-0.022889,0,-67.434,0.28028,0,-0.017531,0,-20.248,59.922,1,1,4.385,4.385,-0.1,0
-0.0023062,0.019523,0,-0.022874,0.021525,-0.019827,0,0,-0.022874,0,-67.42,0.27873,0,-0.017305,0,-20.244,59.91,1,1,4.39,4.39,-0.1,0
-0.0023078,0.019526,0,-0.022858,0.021576,-0.019863,0,0,-0.022858,0,-67.406,0.27708,0,-0.017063,0,-20.239,59.898,1,1,4.395,4.395,-0.1,0
-0.0023093,0.01953,0,-0.022843,0.021627,-0.019899,0,0,-0.022843,0,-67.392,0.27533,0,-0.016807,0,-20.235,59.886,1,1,4.4,4.4,-0.1,0
-0.0023108,0.019533,0,-0.022827,0.02168,-0.019936,0,0,-0.022827,0,-67.379,0.27347,0,-0.016534,0,-20.231,59.873,1,1,4.405,4.405,-0.1,0
-0.0023124,0.019537,0,-0.022812,0.021733,-0.019973,0,0,-0.022812,0,-67.365,0.2715,0,-0.016246,0,-20.227,59.861,1,1,4.41,4.41,-0.1,0
-0.0023139,0.01954,0,-0.022796,0.021786,-0.020011,0,0,-0.022796,0,-67.351,0.26944,0,-0.015943,0,-20.222,59.849,1,1,4.415,4.415,-0.1,0
-0.0023154,0.019544,0,-0.022781,0.021841,-0.020048,0,0,-0.022781,0,-67.337,0.26727,0,-0.015624,0,-20.218,59.837,1,1,4.42,4.42,-0.1,0
-0.002317,0.019548,0,-0.022765,0.021896,-0.020086,0,0,-0.022765,0,-67.323,0.26499,0,-0.01529,0,-20.214,59.825,1,1,4.425,4.425,-0.1,0
-0.0023185,0.019551,0,-0.02275,0.021951,-0.020125,0,0,-0.02275,0,-67.309,0.26261,0,-0.01494,0,-20.21,59.813,1,1,4.43,4.43,-0.1,0
-0.00232,0.019555,0,-0.022735,0.022007,-0.020163,0,0,-0.022735,0,-67.296,0.26013,0,-0.014575,0,-20.205,59.801,1,1,4.435,4.435,-0.1,0
-0.0023216,0.019558,0,-0.022719,0.022064,-0.020202,0,0,-0.022719,0,-67.282,0.25754,0,-0.014194,0,-20.201,59.789,1,1,4.44,4.44,-0.1,0
-0.0023231,0.019562,0,-0.022704,0.022122,-0.020241,0,0,-0.022704,0,-67.268,0.25485,0,-0.013798,0,-20.197,59.777,1,1,4.445,4.445,-0.1,0
-0.0023246,0.019565,0,-0.022688,0.02218,-0.020281,0,0,-0.022688,0,-67.254,0.25205,0,-0.013386,0,-20.193,59.765,1,1,4.45,4.45,-0.1,0
-0.0023261,0.019569,0,-0.022673,0.022238,-0.020321,0,0,-0.022673,0,-67.24,0.24915,0,-0.012959,0,-20.188,59.753,1,1,4.455,4.455,-0.1,0
-0.0023277,0.019573,0,-0.022657,0.022298,-0.020361,0,0,-0.022657,0,-67.226,0.24615,0,-0.012516,0,-20.184,59.741,1,1,4.46,4.46,-0.1,0
-0.0023292,0.019576,0,-0.022642,0.022358,-0.020401,0,0,-0.022642,0,-67.212,0.24304,0,-0.012057,0,-20.18,59.729,1,1,4.465,4.465,-0.1,0
-0.0023307,0.01958,0,-0.022626,0.022418,-0.020442,0,0,-0.022626,0,-67.198,0.23983,0,-0.011584,0,-20.175,59.717,1,1,4.47,4.47,-0.1,0
-0.0023323,0.019583,0,-0.022611,0.02248,-0.020483,0,0,-0.022611,0,-67.184,0.23651,0,-0.011094,0,-20.171,59.705,1,1,4.475,4.475,-0.1,0
-0.0023338,0.019587,0,-0.022595,0.022542,-0.020524,0,0,-0.022595,0,-67.17,0.23309,0,-0.010589,0,-20.167,59.693,1,1,4.48,4.48,-0.1,0
-0.0023353,0.01959,0,-0.02258,0.022604,-0.020566,0,0,-0.02258,0,-67.156,0.22957,0,-0.010069,0,-20.162,59.68,1,1,4.485,4.485,-0.1,0
-0.0023368,0.019594,0,-0.022565,0.022667,-0.020608,0,0,-0.022565,0,-67.142,0.22594,0,-0.0095333,0,-20.158,59.668,1,1,4.49,4.49,-0.1,0
-0.0023384,0.019597,0,-0.022549,0.022731,-0.02065,0,0,-0.022549,0,-67.128,0.22221,0,-0.0089819,0,-20.153,59.656,1,1,4.495,4.495,-0.1,0
-0.0023399,0.019601,0,-0.022534,0.022796,-0.020692,0,0,-0.022534,0,-67.114,0.21837,0,-0.008415,0,-20.149,59.644,1,1,4.5,4.5,-0.1,0
-0.0023414,0.019604,0,-0.022518,0.022861,-0.020735,0,0,-0.022518,0,-67.1,0.21443,0,-0.0078326,0,-20.145,59.632,1,1,4.505,4.505,-0.1,0
-0.0023429,0.019608,0,-0.022503,0.022926,-0.020778,0,0,-0.022503,0,-67.086,0.21038,0,-0.0072348,0,-20.14,59.62,1,1,4.51,4.51,-0.1,0
-0.0023445,0.019612,0,-0.022487,0.022993,-0.020822,0,0,-0.022487,0,-67.072,0.20624,0,-0.0066214,0,-20.136,59.608,1,1,4.515,4.515,-0.1,0
-0.002346,0.019615,0,-0.022472,0.02306,-0.020865,0,0,-0.022472,0,-67.058,0.20198,0,-0.0059925,0,-20.131,59.596,1,1,4.52,4.52,-0.1,0
-0.0023475,0.019619,0,-0.022457,0.023127,-0.020909,0,0,-0.022457,0,-67.044,0.19763,0,-0.0053481,0,-20.127,59.584,1,1,4.525,4.525,-0.1,0
-0.002349,0.019622,0,-0.022441,0.023195,-0.020954,0,0,-0.022441,0,-67.03,0.19317,0,-0.0046881,0,-20.123,59.572,1,1,4.53,4.53,-0.1,0
-0.0023506,0.019626,0,-0.022426,0.023264,-0.020998,0,0,-0.022426,0,-67.016,0.1886,0,-0.0040128,0,-20.118,59.56,1,1,4.535,4.535,-0.1,0
-0.0023521,0.019629,0,-0.02241,0.023334,-0.021043,0,0,-0.02241,0,-67.001,0.18393,0,-0.0033218,0,-20.114,59.548,1,1,4.54,4.54,-0.1,0
-0.0023536,0.019633,0,-0.022395,0.023404,-0.021088,0,0,-0.022395,0,-66.987,0.17916,0,-0.0026153,0,-20.109,59.536,1,1,4.545,4.545,-0.1,0
-0.0023551,0.019636,0,-0.022379,0.023475,-0.021134,0,0,-0.022379,0,-66.973,0.17428,0,-0.0018933,0,-20.105,59.524,1,1,4.55,4.55,-0.1,0
-0.0023567,0.01964,0,-0.022364,0.023546,-0.02118,0,0,-0.022364,0,-66.959,0.1693,0,-0.0011559,0,-20.1,59.512,1,1,4.555,4.555,-0.1,0
-0.0023582,0.019643,0,-0.022349,0.023618,-0.021226,0,0,-0.022349,0,-66.945,0.16422,0,-0.0004029,0,-20.096,59.5,1,1,4.56,4.56,-0.1,0
-0.0023597,0.019647,0,-0.022333,0.023691,-0.021272,0,0,-0.022333,0,-66.931,0.15903,0,0.00036562,0,-20.091,59.488,1,1,4.565,4.565,-0.1,0
-0.0023612,0.01965,0,-0.022318,0.023764,-0.021319,0,0,-0.022318,0,-66.916,0.15373,0,0.0011497,0,-20.087,59.476,1,1,4.57,4.57,-0.1,0
-0.0023627,0.019654,0,-0.022302,0.023838,-0.021366,0,0,-0.022302,0,-66.902,0.14834,0,0.0019492,0,-20.082,59.464,1,1,4.575,4.575,-0.1,0
-0.0023643,0.019657,0,-0.022287,0.023913,-0.021413,0,0,-0.022287,0,-66.888,0.14283,0,0.0027642,0,-20.078,59.452,1,1,4.58,4.58,-0.1,0
-0.0023658,0.019661,0,-0.022271,0.023988,-0.021461,0,0,-0.022271,0,-66.874,0.13723,0,0.0035948,0,-20.073,59.44,1,1,4.585,4.585,-0.1,0
-0.0023673,0.019664,0,-0.022256,0.024064,-0.021509,0,0,-0.022256,0,-66.86,0.13152,0,0.0044409,0,-20.069,59.428,1,1,4.59,4.59,-0.1,0
-0.0023688,0.019668,0,-0.022241,0.02414,-0.021557,0,0,-0.022241,0,-66.845,0.12571,0,0.0053025,0,-20.064,59.415,1,1,4.595,4.595,-0.1,0
-0.0023704,0.019671,0,-0.022225,0.024217,-0.021605,0,0,-0.022225,0,-66.831,0.11979,0,0.0061796,0,-20.06,59.403,1,1,4.6,4.6,-0.1,0
-0.0023719,0.019675,0,-0.02221,0.024295,-0.021654,0,0,-0.02221,0,-66.817,0.11377,0,0.0070723,0,-20.055,59.391,1,1,4.605,4.605,-0.1,0
-0.0023734,0.019678,0,-0.022194,0.024373,-0.021703,0,0,-0.022194,0,-66.802,0.10764,0,0.0079805,0,-20.051,59.379,1,1,4.61,4.61,-0.1,0
-0.0023749,0.019682,0,-0.022179,0.024452,-0.021753,0,0,-0.022179,0,-66.788,0.10141,0,0.0089041,0,-20.046,59.367,1,1,4.615,4.615,-0.1,0
-0.0023764,0.019685,0,-0.022163,0.024532,-0.021802,0,0,-0.022163,0,-66.774,0.095076,0,0.0098434,0,-20.041,59.355,1,1,4.62,4.62,-0.1,0
-0.0023779,0.019689,0,-0.022148,0.024612,-0.021852,0,0,-0.022148,0,-66.76,0.088637,0,0.010798,0,-20.037,59.343,1,1,4.625,4.625,-0.1,0
-0.0023795,0.019692,0,-0.022133,0.024693,-0.021903,0,0,-0.022133,0,-66.745,0.082095,0,0.011768,0,-20.032,59.331,1,1,4.63,4.63,-0.1,0
-0.002381,0.019696,0,-0.022118,0.024692,-0.021919,0,0,-0.022118,0,-66.734,0.085911,0,0.011313,0,-20.029,59.321,1,1,4.635,4.635,-0.1,0
-0.0023825,0.019699,0,-0.022103,0.024684,-0.021932,0,0,-0.022103,0,-66.722,0.0906,0,0.010737,0,-20.026,59.31,1,1,4.64,4.64,-0.1,0
-0.002384,0.019703,0,-0.022088,0.024677,-0.021945,0,0,-0.022088,0,-66.711,0.095225,0,0.010169,0,-20.022,59.299,1,1,4.645,4.645,-0.1,0
-0.0023855,0.019706,0,-0.022073,0.024671,-0.021959,0,0,-0.022073,0,-66.699,0.099785,0,0.0096091,0,-20.019,59.289,1,1,4.65,4.65,-0.1,0
-0.0023871,0.01971,0,-0.022058,0.024665,-0.021972,0,0,-0.022058,0,-66.688,0.10428,0,0.0090569,0,-20.016,59.278,1,1,4.655,4.655,-0.1,0
-0.0023886,0.019713,0,-0.022043,0.02466,-0.021986,0,0,-0.022043,0,-66.676,0.10871,0,0.0085127,0,-20.012,59.268,1,1,4.66,4.66,-0.1,0
-0.0023901,0.019717,0,-0.022028,0.024656,-0.022,0,0,-0.022028,0,-66.665,0.11308,0,0.0079764,0,-20.009,59.257,1,1,4.665,4.665,-0.1,0
-0.0023916,0.01972,0,-0.022013,0.024652,-0.022015,0,0,-0.022013,0,-66.653,0.11738,0,0.0074481,0,-20.006,59.246,1,1,4.67,4.67,-0.1,0
-0.0023931,0.019724,0,-0.021998,0.02465,-0.022029,0,0,-0.021998,0,-66.642,0.12162,0,0.0069277,0,-20.003,59.236,1,1,4.675,4.675,-0.1,0
-0.0023946,0.019727,0,-0.021983,0.024647,-0.022044,0,0,-0.021983,0,-66.63,0.12579,0,0.0064154,0,-19.999,59.225,1,1,4.68,4.68,-0.1,0
-0.0023962,0.019731,0,-0.021968,0.024646,-0.022059,0,0,-0.021968,0,-66.619,0.1299,0,0.0059109,0,-19.996,59.215,1,1,4.685,4.685,-0.1,0
-0.0023977,0.019734,0,-0.021953,0.024645,-0.022074,0,0,-0.021953,0,-66.607,0.13394,0,0.0054144,0,-19.993,59.204,1,1,4.69,4.69,-0.1,0
-0.0023992,0.019737,0,-0.021939,0.024645,-0.022089,0,0,-0.021939,0,-66.596,0.13792,0,0.0049259,0,-19.989,59.193,1,1,4.695,4.695,-0.1,0
-0.0024007,0.019741,0,-0.021924,0.024646,-0.022105,0,0,-0.021924,0,-66.584,0.14184,0,0.0044454,0,-19.986,59.183,1,1,4.7,4.7,-0.1,0
-0.0024022,0.019744,0,-0.021909,0.024647,-0.022121,0,0,-0.021909,0,-66.573,0.14569,0,0.0039728,0,-19.983,59.172,1,1,4.705,4.705,-0.1,0
-0.0024037,0.019748,0,-0.021894,0.024649,-0.022137,0,0,-0.021894,0,-66.561,0.14947,0,0.0035081,0,-19.979,59.162,1,1,4.71,4.71,-0.1,0
-0.0024053,0.019751,0,-0.021879,0.024652,-0.022153,0,0,-0.021879,0,-66.549,0.1532,0,0.0030514,0,-19.976,59.151,1,1,4.715,4.715,-0.1,0
-0.0024068,0.019755,0,-0.021864,0.024655,-0.022169,0,0,-0.021864,0,-66.538,0.15685,0,0.0026027,0,-19.973,59.14,1,1,4.72,4.72,-0.1,0
-0.0024083,0.019758,0,-0.021849,0.024659,-0.022186,0,0,-0.021849,0,-66.526,0.16044,0,0.002162,0,-19.969,59.13,1,1,4.725,4.725,-0.1,0
-0.0024098,0.019762,0,-0.021834,0.024664,-0.022203,0,0,-0.021834,0,-66.515,0.16397,0,0.0017292,0,-19.966,59.119,1,1,4.73,4.73,-0.1,0
-0.0024113,0.019765,0,-0.021819,0.024669,-0.02222,0,0,-0.021819,0,-66.503,0.16744,0,0.0013043,0,-19.963,59.109,1,1,4.735,4.735,-0.1,0
-0.0024128,0.019769,0,-0.021804,0.024675,-0.022237,0,0,-0.021804,0,-66.492,0.17083,0,0.00088751,0,-19.959,59.098,1,1,4.74,4.74,-0.1,0
-0.0024143,0.019772,0,-0.021789,0.024682,-0.022254,0,0,-0.021789,0,-66.48,0.17417,0,0.0004786,0,-19.956,59.087,1,1,4.745,4.745,-0.1,0
-0.0024159,0.019776,0,-0.021775,0.02469,-0.022272,0,0,-0.021775,0,-66.468,0.17744,0,7.7656e-05,0,-19.953,59.077,1,1,4.75,4.75,-0.1,0
-0.0024174,0.019779,0,-0.02176,0.024698,-0.02229,0,0,-0.02176,0,-66.457,0.18064,0,-0.00031533,0,-19.949,59.066,1,1,4.755,4.755,-0.1,0
-0.0024189,0.019782,0,-0.021745,0.024707,-0.022308,0,0,-0.021745,0,-66.445,0.18378,0,-0.00070034,0,-19.946,59.056,1,1,4.76,4.76,-0.1,0
-0.0024204,0.019786,0,-0.02173,0.024717,-0.022326,0,0,-0.02173,0,-66.434,0.18686,0,-0.0010774,0,-19.942,59.045,1,1,4.765,4.765,-0.1,0
-0.0024219,0.019789,0,-0.021715,0.024727,-0.022345,0,0,-0.021715,0,-66.422,0.18987,0,-0.0014464,0,-19.939,59.035,1,1,4.77,4.77,-0.1,0
-0.0024234,0.019793,0,-0.0217,0.024738,-0.022363,0,0,-0.0217,0,-66.41,0.19282,0,-0.0018076,0,-19.936,59.024,1,1,4.775,4.775,-0.1,0
-0.0024249,0.019796,0,-0.021685,0.02475,-0.022382,0,0,-0.021685,0,-66.399,0.1957,0,-0.0021607,0,-19.932,59.013,1,1,4.78,4.78,-0.1,0
-0.0024264,0.0198,0,-0.02167,0.024762,-0.022401,0,0,-0.02167,0,-66.387,0.19852,0,-0.0025059,0,-19.929,59.003,1,1,4.785,4.785,-0.1,0
-0.0024279,0.019803,0,-0.021655,0.024775,-0.022421,0,0,-0.021655,0,-66.376,0.20127,0,-0.0028431,0,-19.926,58.992,1,1,4.79,4.79,-0.1,0
-0.0024295,0.019807,0,-0.02164,0.024789,-0.02244,0,0,-0.02164,0,-66.364,0.20396,0,-0.0031724,0,-19.922,58.982,1,1,4.795,4.795,-0.1,0
-0.002431,0.01981,0,-0.021626,0.024804,-0.02246,0,0,-0.021626,0,-66.352,0.20658,0,-0.0034936,0,-19.919,58.971,1,1,4.8,4.8,-0.1,0
-0.0024325,0.019813,0,-0.021611,0.024819,-0.02248,0,0,-0.021611,0,-66.341,0.20914,0,-0.0038069,0,-19.915,58.96,1,1,4.805,4.805,-0.1,0
-0.002434,0.019817,0,-0.021596,0.024835,-0.0225,0,0,-0.021596,0,-66.329,0.21164,0,-0.0041123,0,-19.912,58.95,1,1,4.81,4.81,-0.1,0
-0.0024355,0.01982,0,-0.021581,0.024852,-0.02252,0,0,-0.021581,0,-66.317,0.21407,0,-0.0044097,0,-19.909,58.939,1,1,4.815,4.815,-0.1,0
-0.002437,0.019824,0,-0.021566,0.024869,-0.022541,0,0,-0.021566,0,-66.306,0.21643,0,-0.0046991,0,-19.905,58.929,1,1,4.82,4.82,-0.1,0
-0.0024385,0.019827,0,-0.021551,0.024887,-0.022561,0,0,-0.021551,0,-66.294,0.21874,0,-0.0049805,0,-19.902,58.918,1,1,4.825,4.825,-0.1,0
-0.00244,0.019831,0,-0.021536,0.024906,-0.022582,0,0,-0.021536,0,-66.282,0.22097,0,-0.005254,0,-19.898,58.907,1,1,4.83,4.83,-0.1,0
-0.0024415,0.019834,0,-0.021521,0.024925,-0.022603,0,0,-0.021521,0,-66.271,0.22314,0,-0.0055195,0,-19.895,58.897,1,1,4.835,4.835,-0.1,0
-0.002443,0.019838,0,-0.021506,0.024945,-0.022625,0,0,-0.021506,0,-66.259,0.22525,0,-0.0057771,0,-19.891,58.886,1,1,4.84,4.84,-0.1,0
-0.0024446,0.019841,0,-0.021491,0.024966,-0.022646,0,0,-0.021491,0,-66.247,0.2273,0,-0.0060266,0,-19.888,58.876,1,1,4.845,4.845,-0.1,0
-0.0024461,0.019844,0,-0.021477,0.024987,-0.022668,0,0,-0.021477,0,-66.235,0.22927,0,-0.0062682,0,-19.884,58.865,1,1,4.85,4.85,-0.1,0
-0.0024476,0.019848,0,-0.021462,0.025009,-0.02269,0,0,-0.021462,0,-66.224,0.23119,0,-0.0065019,0,-19.881,58.855,1,1,4.855,4.855,-0.1,0
-0.0024491,0.019851,0,-0.021447,0.025032,-0.022712,0,0,-0.021447,0,-66.212,0.23304,0,-0.0067275,0,-19.878,58.844,1,1,4.86,4.86,-0.1,0
-0.0024506,0.019855,0,-0.021432,0.025056,-0.022735,0,0,-0.021432,0,-66.2,0.23482,0,-0.0069452,0,-19.874,58.833,1,1,4.865,4.865,-0.1,0
-0.0024521,0.019858,0,-0.021417,0.02508,-0.022757,0,0,-0.021417,0,-66.188,0.23654,0,-0.0071549,0,-19.871,58.823,1,1,4.87,4.87,-0.1,0
-0.0024536,0.019862,0,-0.021402,0.025105,-0.02278,0,0,-0.021402,0,-66.177,0.2382,0,-0.0073567,0,-19.867,58.812,1,1,4.875,4.875,-0.1,0
-0.0024551,0.019865,0,-0.021387,0.025131,-0.022803,0,0,-0.021387,0,-66.165,0.23979,0,-0.0075504,0,-19.864,58.802,1,1,4.88,4.88,-0.1,0
-0.0024566,0.019868,0,-0.021372,0.025157,-0.022826,0,0,-0.021372,0,-66.153,0.24132,0,-0.0077362,0,-19.86,58.791,1,1,4.885,4.885,-0.1,0
-0.0024581,0.019872,0,-0.021357,0.025184,-0.02285,0,0,-0.021357,0,-66.141,0.24278,0,-0.0079141,0,-19.857,58.78,1,1,4.89,4.89,-0.1,0
-0.0024596,0.019875,0,-0.021343,0.025212,-0.022873,0,0,-0.021343,0,-66.13,0.24418,0,-0.0080839,0,-19.853,58.77,1,1,4.895,4.895,-0.1,0
-0.0024611,0.019879,0,-0.021328,0.02524,-0.022897,0,0,-0.021328,0,-66.118,0.24551,0,-0.0082458,0,-19.85,58.759,1,1,4.9,4.9,-0.1,0
-0.0024626,0.019882,0,-0.021313,0.025269,-0.022921,0,0,-0.021313,0,-66.106,0.24678,0,-0.0083997,0,-19.846,58.749,1,1,4.905,4.905,-0.1,0
-0.0024641,0.019885,0,-0.021298,0.025299,-0.022945,0,0,-0.021298,0,-66.094,0.24798,0,-0.0085456,0,-19.843,58.738,1,1,4.91,4.91,-0.1,0
-0.0024656,0.019889,0,-0.021283,0.02533,-0.02297,0,0,-0.021283,0,-66.083,0.24912,0,-0.0086836,0,-19.839,58.728,1,1,4.915,4.915,-0.1,0
-0.0024671,0.019892,0,-0.021268,0.025361,-0.022994,0,0,-0.021268,0,-66.071,0.2502,0,-0.0088136,0,-19.836,58.717,1,1,4.92,4.92,-0.1,0
-0.0024686,0.019896,0,-0.021253,0.025393,-0.023019,0,0,-0.021253,0,-66.059,0.25121,0,-0.0089356,0,-19.832,58.706,1,1,4.925,4.925,-0.1,0
-0.0024701,0.019899,0,-0.021238,0.025425,-0.023044,0,0,-0.021238,0,-66.047,0.25216,0,-0.0090497,0,-19.829,58.696,1,1,4.93,4.93,-0.1,0
-0.0024716,0.019902,0,-0.021224,0.025458,-0.023069,0,0,-0.021224,0,-66.035,0.25304,0,-0.0091557,0,-19.825,58.685,1,1,4.935,4.935,-0.1,0
-0.0024731,0.019906,0,-0.021209,0.025492,-0.023095,0,0,-0.021209,0,-66.023,0.25385,0,-0.0092538,0,-19.822,58.675,1,1,4.94,4.94,-0.1,0
-0.0024746,0.019909,0,-0.021194,0.025527,-0.023121,0,0,-0.021194,0,-66.012,0.25461,0,-0.0093439,0,-19.818,58.664,1,1,4.945,4.945,-0.1,0
-0.0024761,0.019913,0,-0.021179,0.025562,-0.023146,0,0,-0.021179,0,-66,0.25529,0,-0.0094261,0,-19.815,58.654,1,1,4.95,4.95,-0.1,0
-0.0024776,0.019916,0,-0.021164,0.025598,-0.023173,0,0,-0.021164,0,-65.988,0.25592,0,-0.0095002,0,-19.811,58.643,1,1,4.955,4.955,-0.1,0
-0.0024791,0.019919,0,-0.021149,0.025635,-0.023199,0,0,-0.021149,0,-65.976,0.25648,0,-0.0095664,0,-19.808,58.632,1,1,4.96,4.96,-0.1,0
-0.0024807,0.019923,0,-0.021134,0.025673,-0.023225,0,0,-0.021134,0,-65.964,0.25697,0,-0.0096246,0,-19.804,58.622,1,1,4.965,4.965,-0.1,0
-0.0024822,0.019926,0,-0.021119,0.025711,-0.023252,0,0,-0.021119,0,-65.952,0.2574,0,-0.0096749,0,-19.801,58.611,1,1,4.97,4.97,-0.1,0
-0.0024837,0.01993,0,-0.021105,0.02575,-0.023279,0,0,-0.021105,0,-65.941,0.25776,0,-0.0097171,0,-19.797,58.601,1,1,4.975,4.975,-0.1,0
-0.0024852,0.019933,0,-0.02109,0.025789,-0.023306,0,0,-0.02109,0,-65.929,0.25806,0,-0.0097514,0,-19.793,58.59,1,1,4.98,4.98,-0.1,0
-0.0024867,0.019936,0,-0.021075,0.025829,-0.023333,0,0,-0.021075,0,-65.917,0.2583,0,-0.0097777,0,-19.79,58.579,1,1,4.985,4.985,-0.1,0
-0.0024882,0.01994,0,-0.02106,0.025871,-0.023361,0,0,-0.02106,0,-65.905,0.25847,0,-0.009796,0,-19.786,58.569,1,1,4.99,4.99,-0.1,0
-0.0024897,0.019943,0,-0.021046,0.025913,-0.023389,0,0,-0.021046,0,-65.893,0.25858,0,-0.0098064,0,-19.783,58.558,1,1,4.995,4.995,-0.1,0
-0.0024911,0.019947,0,-0.021031,0.025955,-0.023418,0,0,-0.021031,0,-65.881,0.25862,0,-0.0098087,0,-19.779,58.548,1,1,5,5,-0.1,0
