"displacement:0","displacement:1","displacement:2","displacement contact active","displacement contact distance","displacement contact gap","displacement contact normalload","displacement contact slipload","displacement contact stick","displacement contact weight","stress_xx","stress_xy","stress_xz","stress_yy","stress_yz","stress_zz","vonmises","GeometryIds","vtkValidPointMask","arc_length","Points:0","Points:1","Points:2"
3.305e-13,0.014406,0,0.77119,-4.8292e-06,1.0223e-09,1732.8,409.66,-0.77119,0,-1709.3,1224.2,0,-2945,0,-1421.2,2609.2,102,1,0,0,-0.1,0
-8.813e-06,0.014477,0,0.76701,3.4371e-05,-3.8961e-05,1715.7,405.87,-0.77105,0,-1693.2,1215.5,0,-2911.8,0,-1406.2,2590.8,1,1,0.005,0.005,-0.1,0
-1.762e-05,0.014547,0,0.76284,7.3557e-05,-7.791e-05,1698.6,402.09,-0.77091,0,-1677.1,1206.9,0,-2878.7,0,-1391.2,2572.3,1,1,0.01,0.01,-0.1,0
-2.6422e-05,0.014618,0,0.75867,0.00011273,-0.00011684,1681.5,398.3,-0.77076,0,-1661,1198.3,0,-2845.5,0,-1376.1,2553.8,1,1,0.015,0.015,-0.1,0
-3.5218e-05,0.014689,0,0.7545,0.00015189,-0.00015576,1664.4,394.52,-0.77062,0,-1644.9,1189.6,0,-2812.4,0,-1361.1,2535.4,1,1,0.02,0.02,-0.1,0
-4.4008e-05,0.01476,0,0.75033,0.00019103,-0.00019467,1647.4,390.74,-0.77048,0,-1628.8,1181,0,-2779.3,0,-1346.1,2516.9,1,1,0.025,0.025,-0.1,0
-5.2792e-05,0.01483,0,0.74616,0.00023016,-0.00023356,1630.3,386.96,-0.77034,0,-1612.7,1172.4,0,-2746.2,0,-1331.1,2498.5,1,1,0.03,0.03,-0.1,0
-6.1571e-05,0.014901,0,0.742,0.00026927,-0.00027244,1613.3,383.18,-0.7702,0,-1596.7,1163.8,0,-2713.1,0,-1316.1,2480,1,1,0.035,0.035,-0.1,0
-7.0344e-05,0.014972,0,0.73783,0.00030837,-0.0003113,1596.2,379.4,-0.77006,0,-1580.6,1155.2,0,-2680,0,-1301.1,2461.6,1,1,0.04,0.04,-0.1,0
-7.9111e-05,0.015042,0,0.73367,0.00034746,-0.00035015,1579.2,375.62,-0.76992,0,-1564.6,1146.6,0,-2646.9,0,-1286.1,2443.1,1,1,0.045,0.045,-0.1,0
-8.7873e-05,0.015113,0,0.72951,0.00038653,-0.00038898,1562.1,371.84,-0.76977,0,-1548.5,1137.9,0,-2613.8,0,-1271.1,2424.7,1,1,0.05,0.05,-0.1,0
-9.6629e-05,0.015184,0,0.72535,0.00042558,-0.0004278,1545.1,368.07,-0.76963,0,-1532.5,1129.3,0,-2580.7,0,-1256.2,2406.3,1,1,0.055,0.055,-0.1,0
-0.00010538,0.015254,0,0.72119,0.00046463,-0.0004666,1528.1,364.3,-0.76949,0,-1516.4,1120.7,0,-2547.6,0,-1241.2,2387.8,1,1,0.06,0.06,-0.1,0
-0.00011412,0.015325,0,0.71704,0.00050365,-0.00050539,1511.1,360.53,-0.76935,0,-1500.4,1112.1,0,-2514.5,0,-1226.2,2369.4,1,1,0.065,0.065,-0.1,0
-0.00012286,0.015395,0,0.71288,0.00054267,-0.00054417,1494.1,356.76,-0.76921,0,-1484.4,1103.5,0,-2481.5,0,-1211.2,2351,1,1,0.07,0.07,-0.1,0
-0.00013159,0.015466,0,0.70873,0.00058166,-0.00058293,1477.1,352.99,-0.76907,0,-1468.3,1094.9,0,-2448.4,0,-1196.3,2332.5,1,1,0.075,0.075,-0.1,0
-0.00014032,0.015537,0,0.70458,0.00062065,-0.00062168,1460.1,349.22,-0.76893,0,-1452.3,1086.3,0,-2415.4,0,-1181.3,2314.1,1,1,0.08,0.08,-0.1,0
-0.00014904,0.015607,0,0.70043,0.00065962,-0.00066041,1443.1,345.45,-0.76879,0,-1436.3,1077.8,0,-2382.3,0,-1166.3,2295.7,1,1,0.085,0.085,-0.1,0
-0.00015776,0.015678,0,0.69628,0.00069857,-0.00069913,1426.1,341.69,-0.76864,0,-1420.3,1069.2,0,-2349.3,0,-1151.4,2277.3,1,1,0.09,0.09,-0.1,0
-0.00016647,0.015748,0,0.69213,0.00073752,-0.00073784,1409.1,337.93,-0.7685,0,-1404.3,1060.6,0,-2316.2,0,-1136.4,2258.9,1,1,0.095,0.095,-0.1,0
-0.00017517,0.015819,0,0.68798,0.00077644,-0.00077653,1392.1,334.16,-0.76836,0,-1388.3,1052,0,-2283.2,0,-1121.5,2240.5,1,1,0.1,0.1,-0.1,0
-0.00018387,0.015889,0,0.68384,0.00081536,-0.0008152,1375.2,330.4,-0.76822,0,-1372.3,1043.4,0,-2250.2,0,-1106.5,2222.1,1,1,0.105,0.105,-0.1,0
-0.00019257,0.01596,0,0.6797,0.00085425,-0.00085387,1358.2,326.64,-0.76808,0,-1356.3,1034.9,0,-2217.2,0,-1091.6,2203.7,1,1,0.11,0.11,-0.1,0
-0.00020125,0.01603,0,0.67555,0.00089314,-0.00089251,1341.2,322.89,-0.76794,0,-1340.4,1026.3,0,-2184.2,0,-1076.6,2185.3,1,1,0.115,0.115,-0.1,0
-0.00020994,0.0161,0,0.67141,0.00093201,-0.00093115,1324.3,319.13,-0.7678,0,-1324.4,1017.7,0,-2151.2,0,-1061.7,2166.9,1,1,0.12,0.12,-0.1,0
-0.00021861,0.016171,0,0.66728,0.00097086,-0.00096977,1307.4,315.37,-0.76766,0,-1308.4,1009.1,0,-2118.2,0,-1046.7,2148.5,1,1,0.125,0.125,-0.1,0
nan,nan,nan,nan,nan,nan,nan,nan,nan,nan,nan,nan,nan,nan,nan,nan,nan,0,0,0.13,0.13,-0.1,0
nan,nan,nan,nan,nan,nan,nan,nan,nan,nan,nan,nan,nan,nan,nan,nan,nan,0,0,0.135,0.135,-0.1,0
nan,nan,nan,nan,nan,nan,nan,nan,nan,nan,nan,nan,nan,nan,nan,nan,nan,0,0,0.14,0.14,-0.1,0
nan,nan,nan,nan,nan,nan,nan,nan,nan,nan,nan,nan,nan,nan,nan,nan,nan,0,0,0.145,0.145,-0.1,0
nan,nan,nan,nan,nan,nan,nan,nan,nan,nan,nan,nan,nan,nan,nan,nan,nan,0,0,0.15,0.15,-0.1,0
nan,nan,nan,nan,nan,nan,nan,nan,nan,nan,nan,nan,nan,nan,nan,nan,nan,0,0,0.155,0.155,-0.1,0
nan,nan,nan,nan,nan,nan,nan,nan,nan,nan,nan,nan,nan,nan,nan,nan,nan,0,0,0.16,0.16,-0.1,0
nan,nan,nan,nan,nan,nan,nan,nan,nan,nan,nan,nan,nan,nan,nan,nan,nan,0,0,0.165,0.165,-0.1,0
nan,nan,nan,nan,nan,nan,nan,nan,nan,nan,nan,nan,nan,nan,nan,nan,nan,0,0,0.17,0.17,-0.1,0
nan,nan,nan,nan,nan,nan,nan,nan,nan,nan,nan,nan,nan,nan,nan,nan,nan,0,0,0.175,0.175,-0.1,0
nan,nan,nan,nan,nan,nan,nan,nan,nan,nan,nan,nan,nan,nan,nan,nan,nan,0,0,0.18,0.18,-0.1,0
nan,nan,nan,nan,nan,nan,nan,nan,nan,nan,nan,nan,nan,nan,nan,nan,nan,0,0,0.185,0.185,-0.1,0
nan,nan,nan,nan,nan,nan,nan,nan,nan,nan,nan,nan,nan,nan,nan,nan,nan,0,0,0.19,0.19,-0.1,0
nan,nan,nan,nan,nan,nan,nan,nan,nan,nan,nan,nan,nan,nan,nan,nan,nan,0,0,0.195,0.195,-0.1,0
nan,nan,nan,nan,nan,nan,nan,nan,nan,nan,nan,nan,nan,nan,nan,nan,nan,0,0,0.2,0.2,-0.1,0
nan,nan,nan,nan,nan,nan,nan,nan,nan,nan,nan,nan,nan,nan,nan,nan,nan,0,0,0.205,0.205,-0.1,0
nan,nan,nan,nan,nan,nan,nan,nan,nan,nan,nan,nan,nan,nan,nan,nan,nan,0,0,0.21,0.21,-0.1,0
nan,nan,nan,nan,nan,nan,nan,nan,nan,nan,nan,nan,nan,nan,nan,nan,nan,0,0,0.215,0.215,-0.1,0
nan,nan,nan,nan,nan,nan,nan,nan,nan,nan,nan,nan,nan,nan,nan,nan,nan,0,0,0.22,0.22,-0.1,0
nan,nan,nan,nan,nan,nan,nan,nan,nan,nan,nan,nan,nan,nan,nan,nan,nan,0,0,0.225,0.225,-0.1,0
nan,nan,nan,nan,nan,nan,nan,nan,nan,nan,nan,nan,nan,nan,nan,nan,nan,0,0,0.23,0.23,-0.1,0
nan,nan,nan,nan,nan,nan,nan,nan,nan,nan,nan,nan,nan,nan,nan,nan,nan,0,0,0.235,0.235,-0.1,0
nan,nan,nan,nan,nan,nan,nan,nan,nan,nan,nan,nan,nan,nan,nan,nan,nan,0,0,0.24,0.24,-0.1,0
nan,nan,nan,nan,nan,nan,nan,nan,nan,nan,nan,nan,nan,nan,nan,nan,nan,0,0,0.245,0.245,-0.1,0
nan,nan,nan,nan,nan,nan,nan,nan,nan,nan,nan,nan,nan,nan,nan,nan,nan,0,0,0.25,0.25,-0.1,0
nan,nan,nan,nan,nan,nan,nan,nan,nan,nan,nan,nan,nan,nan,nan,nan,nan,0,0,0.255,0.255,-0.1,0
nan,nan,nan,nan,nan,nan,nan,nan,nan,nan,nan,nan,nan,nan,nan,nan,nan,0,0,0.26,0.26,-0.1,0
nan,nan,nan,nan,nan,nan,nan,nan,nan,nan,nan,nan,nan,nan,nan,nan,nan,0,0,0.265,0.265,-0.1,0
nan,nan,nan,nan,nan,nan,nan,nan,nan,nan,nan,nan,nan,nan,nan,nan,nan,0,0,0.27,0.27,-0.1,0
nan,nan,nan,nan,nan,nan,nan,nan,nan,nan,nan,nan,nan,nan,nan,nan,nan,0,0,0.275,0.275,-0.1,0
nan,nan,nan,nan,nan,nan,nan,nan,nan,nan,nan,nan,nan,nan,nan,nan,nan,0,0,0.28,0.28,-0.1,0
nan,nan,nan,nan,nan,nan,nan,nan,nan,nan,nan,nan,nan,nan,nan,nan,nan,0,0,0.285,0.285,-0.1,0
nan,nan,nan,nan,nan,nan,nan,nan,nan,nan,nan,nan,nan,nan,nan,nan,nan,0,0,0.29,0.29,-0.1,0
nan,nan,nan,nan,nan,nan,nan,nan,nan,nan,nan,nan,nan,nan,nan,nan,nan,0,0,0.295,0.295,-0.1,0
nan,nan,nan,nan,nan,nan,nan,nan,nan,nan,nan,nan,nan,nan,nan,nan,nan,0,0,0.3,0.3,-0.1,0
nan,nan,nan,nan,nan,nan,nan,nan,nan,nan,nan,nan,nan,nan,nan,nan,nan,0,0,0.305,0.305,-0.1,0
nan,nan,nan,nan,nan,nan,nan,nan,nan,nan,nan,nan,nan,nan,nan,nan,nan,0,0,0.31,0.31,-0.1,0
nan,nan,nan,nan,nan,nan,nan,nan,nan,nan,nan,nan,nan,nan,nan,nan,nan,0,0,0.315,0.315,-0.1,0
nan,nan,nan,nan,nan,nan,nan,nan,nan,nan,nan,nan,nan,nan,nan,nan,nan,0,0,0.32,0.32,-0.1,0
nan,nan,nan,nan,nan,nan,nan,nan,nan,nan,nan,nan,nan,nan,nan,nan,nan,0,0,0.325,0.325,-0.1,0
nan,nan,nan,nan,nan,nan,nan,nan,nan,nan,nan,nan,nan,nan,nan,nan,nan,0,0,0.33,0.33,-0.1,0
nan,nan,nan,nan,nan,nan,nan,nan,nan,nan,nan,nan,nan,nan,nan,nan,nan,0,0,0.335,0.335,-0.1,0
nan,nan,nan,nan,nan,nan,nan,nan,nan,nan,nan,nan,nan,nan,nan,nan,nan,0,0,0.34,0.34,-0.1,0
nan,nan,nan,nan,nan,nan,nan,nan,nan,nan,nan,nan,nan,nan,nan,nan,nan,0,0,0.345,0.345,-0.1,0
nan,nan,nan,nan,nan,nan,nan,nan,nan,nan,nan,nan,nan,nan,nan,nan,nan,0,0,0.35,0.35,-0.1,0
nan,nan,nan,nan,nan,nan,nan,nan,nan,nan,nan,nan,nan,nan,nan,nan,nan,0,0,0.355,0.355,-0.1,0
nan,nan,nan,nan,nan,nan,nan,nan,nan,nan,nan,nan,nan,nan,nan,nan,nan,0,0,0.36,0.36,-0.1,0
nan,nan,nan,nan,nan,nan,nan,nan,nan,nan,nan,nan,nan,nan,nan,nan,nan,0,0,0.365,0.365,-0.1,0
nan,nan,nan,nan,nan,nan,nan,nan,nan,nan,nan,nan,nan,nan,nan,nan,nan,0,0,0.37,0.37,-0.1,0
-0.00064521,0.019671,0,0.46227,0.0028955,-0.0028827,468.12,129.37,-0.76066,0,-517.1,584.49,0,-476.06,0,-304.5,1233.2,1,1,0.375,0.375,-0.1,0
-0.0006536,0.01974,0,0.45821,0.0029336,-0.0029206,451.49,125.68,-0.76052,0,-501.41,576.07,0,-443.38,0,-289.75,1215,1,1,0.38,0.38,-0.1,0
-0.00066198,0.01981,0,0.45414,0.0029717,-0.0029585,434.87,122,-0.76038,0,-485.73,567.65,0,-410.69,0,-275,1196.7,1,1,0.385,0.385,-0.1,0
-0.00067036,0.019879,0,0.45009,0.0030098,-0.0029964,418.25,118.31,-0.76024,0,-470.06,559.23,0,-378.02,0,-260.25,1178.5,1,1,0.39,0.39,-0.1,0
-0.00067873,0.019949,0,0.44603,0.0030479,-0.0030342,401.64,114.63,-0.7601,0,-454.38,550.82,0,-345.35,0,-245.5,1160.3,1,1,0.395,0.395,-0.1,0
-0.0006871,0.020018,0,0.44197,0.003086,-0.0030721,385.04,110.95,-0.75996,0,-438.72,542.41,0,-312.69,0,-230.76,1142.1,1,1,0.4,0.4,-0.1,0
-0.00069546,0.020088,0,0.43792,0.0031241,-0.0031099,368.44,107.27,-0.75982,0,-423.06,534.01,0,-280.03,0,-216.03,1123.9,1,1,0.405,0.405,-0.1,0
-0.00070382,0.020157,0,0.43386,0.0031621,-0.0031477,351.85,103.6,-0.75969,0,-407.41,525.6,0,-247.38,0,-201.29,1105.7,1,1,0.41,0.41,-0.1,0
-0.00071217,0.020227,0,0.42981,0.0032001,-0.0031855,335.26,99.92,-0.75955,0,-391.76,517.2,0,-214.74,0,-186.56,1087.5,1,1,0.415,0.415,-0.1,0
-0.00072051,0.020296,0,0.42576,0.0032382,-0.0032233,318.68,96.246,-0.75941,0,-376.11,508.81,0,-182.1,0,-171.84,1069.3,1,1,0.42,0.42,-0.1,0
-0.00072885,0.020366,0,0.42171,0.0032762,-0.0032611,302.11,92.572,-0.75927,0,-360.47,500.41,0,-149.47,0,-157.11,1051.1,1,1,0.425,0.425,-0.1,0
-0.00073718,0.020435,0,0.41766,0.0033142,-0.0032988,285.54,88.9,-0.75913,0,-344.84,492.02,0,-116.84,0,-142.39,1032.9,1,1,0.43,0.43,-0.1,0
-0.00074551,0.020504,0,0.41362,0.0033521,-0.0033366,268.98,85.229,-0.75899,0,-329.21,483.63,0,-84.218,0,-127.68,1014.7,1,1,0.435,0.435,-0.1,0
-0.00075383,0.020574,0,0.40957,0.0033901,-0.0033743,252.42,81.56,-0.75885,0,-313.59,475.24,0,-51.604,0,-112.96,996.56,1,1,0.44,0.44,-0.1,0
-0.00076215,0.020643,0,0.40553,0.003428,-0.003412,235.88,77.892,-0.75871,0,-297.98,466.86,0,-18.996,0,-98.254,978.38,1,1,0.445,0.445,-0.1,0
-0.00077046,0.020713,0,0.40149,0.003466,-0.0034497,219.33,74.225,-0.75857,0,-282.36,458.48,0,13.607,0,-83.549,960.2,1,1,0.45,0.45,-0.1,0
-0.00077876,0.020782,0,0.39745,0.0035039,-0.0034874,202.79,70.56,-0.75844,0,-266.76,450.1,0,46.203,0,-68.846,942.03,1,1,0.455,0.455,-0.1,0
-0.00078706,0.020851,0,0.39341,0.0035418,-0.0035251,186.26,66.896,-0.7583,0,-251.16,441.73,0,78.794,0,-54.148,923.86,1,1,0.46,0.46,-0.1,0
-0.00079536,0.02092,0,0.38937,0.0035797,-0.0035628,169.74,63.233,-0.75816,0,-235.56,433.35,0,111.38,0,-39.452,905.7,1,1,0.465,0.465,-0.1,0
-0.00080365,0.02099,0,0.38534,0.0036176,-0.0036004,153.22,59.572,-0.75802,0,-219.97,424.98,0,143.96,0,-24.761,887.53,1,1,0.47,0.47,-0.1,0
-0.00081193,0.021059,0,0.3813,0.0036554,-0.003638,136.71,55.912,-0.75788,0,-204.39,416.62,0,176.53,0,-10.072,869.37,1,1,0.475,0.475,-0.1,0
-0.00082021,0.021128,0,0.37727,0.0036933,-0.0036757,120.2,52.253,-0.75774,0,-188.81,408.25,0,209.1,0,4.6124,851.22,1,1,0.48,0.48,-0.1,0
-0.00082848,0.021198,0,0.37324,0.0037311,-0.0037133,103.7,48.596,-0.7576,0,-173.24,399.89,0,241.66,0,19.294,833.07,1,1,0.485,0.485,-0.1,0
nan,nan,nan,nan,nan,nan,nan,nan,nan,nan,nan,nan,nan,nan,nan,nan,nan,0,0,0.49,0.49,-0.1,0
nan,nan,nan,nan,nan,nan,nan,nan,nan,nan,nan,nan,nan,nan,nan,nan,nan,0,0,0.495,0.495,-0.1,0
nan,nan,nan,nan,nan,nan,nan,nan,nan,nan,nan,nan,nan,nan,nan,nan,nan,0,0,0.5,0.5,-0.1,0
nan,nan,nan,nan,nan,nan,nan,nan,nan,nan,nan,nan,nan,nan,nan,nan,nan,0,0,0.505,0.505,-0.1,0
nan,nan,nan,nan,nan,nan,nan,nan,nan,nan,nan,nan,nan,nan,nan,nan,nan,0,0,0.51,0.51,-0.1,0
nan,nan,nan,nan,nan,nan,nan,nan,nan,nan,nan,nan,nan,nan,nan,nan,nan,0,0,0.515,0.515,-0.1,0
nan,nan,nan,nan,nan,nan,nan,nan,nan,nan,nan,nan,nan,nan,nan,nan,nan,0,0,0.52,0.52,-0.1,0
nan,nan,nan,nan,nan,nan,nan,nan,nan,nan,nan,nan,nan,nan,nan,nan,nan,0,0,0.525,0.525,-0.1,0
nan,nan,nan,nan,nan,nan,nan,nan,nan,nan,nan,nan,nan,nan,nan,nan,nan,0,0,0.53,0.53,-0.1,0
nan,nan,nan,nan,nan,nan,nan,nan,nan,nan,nan,nan,nan,nan,nan,nan,nan,0,0,0.535,0.535,-0.1,0
nan,nan,nan,nan,nan,nan,nan,nan,nan,nan,nan,nan,nan,nan,nan,nan,nan,0,0,0.54,0.54,-0.1,0
nan,nan,nan,nan,nan,nan,nan,nan,nan,nan,nan,nan,nan,nan,nan,nan,nan,0,0,0.545,0.545,-0.1,0
nan,nan,nan,nan,nan,nan,nan,nan,nan,nan,nan,nan,nan,nan,nan,nan,nan,0,0,0.55,0.55,-0.1,0
nan,nan,nan,nan,nan,nan,nan,nan,nan,nan,nan,nan,nan,nan,nan,nan,nan,0,0,0.555,0.555,-0.1,0
nan,nan,nan,nan,nan,nan,nan,nan,nan,nan,nan,nan,nan,nan,nan,nan,nan,0,0,0.56,0.56,-0.1,0
nan,nan,nan,nan,nan,nan,nan,nan,nan,nan,nan,nan,nan,nan,nan,nan,nan,0,0,0.565,0.565,-0.1,0
nan,nan,nan,nan,nan,nan,nan,nan,nan,nan,nan,nan,nan,nan,nan,nan,nan,0,0,0.57,0.57,-0.1,0
nan,nan,nan,nan,nan,nan,nan,nan,nan,nan,nan,nan,nan,nan,nan,nan,nan,0,0,0.575,0.575,-0.1,0
nan,nan,nan,nan,nan,nan,nan,nan,nan,nan,nan,nan,nan,nan,nan,nan,nan,0,0,0.58,0.58,-0.1,0
nan,nan,nan,nan,nan,nan,nan,nan,nan,nan,nan,nan,nan,nan,nan,nan,nan,0,0,0.585,0.585,-0.1,0
nan,nan,nan,nan,nan,nan,nan,nan,nan,nan,nan,nan,nan,nan,nan,nan,nan,0,0,0.59,0.59,-0.1,0
nan,nan,nan,nan,nan,nan,nan,nan,nan,nan,nan,nan,nan,nan,nan,nan,nan,0,0,0.595,0.595,-0.1,0
nan,nan,nan,nan,nan,nan,nan,nan,nan,nan,nan,nan,nan,nan,nan,nan,nan,0,0,0.6,0.6,-0.1,0
nan,nan,nan,nan,nan,nan,nan,nan,nan,nan,nan,nan,nan,nan,nan,nan,nan,0,0,0.605,0.605,-0.1,0
nan,nan,nan,nan,nan,nan,nan,nan,nan,nan,nan,nan,nan,nan,nan,nan,nan,0,0,0.61,0.61,-0.1,0
nan,nan,nan,nan,nan,nan,nan,nan,nan,nan,nan,nan,nan,nan,nan,nan,nan,0,0,0.615,0.615,-0.1,0
nan,nan,nan,nan,nan,nan,nan,nan,nan,nan,nan,nan,nan,nan,nan,nan,nan,0,0,0.62,0.62,-0.1,0
nan,nan,nan,nan,nan,nan,nan,nan,nan,nan,nan,nan,nan,nan,nan,nan,nan,0,0,0.625,0.625,-0.1,0
nan,nan,nan,nan,nan,nan,nan,nan,nan,nan,nan,nan,nan,nan,nan,nan,nan,0,0,0.63,0.63,-0.1,0
nan,nan,nan,nan,nan,nan,nan,nan,nan,nan,nan,nan,nan,nan,nan,nan,nan,0,0,0.635,0.635,-0.1,0
nan,nan,nan,nan,nan,nan,nan,nan,nan,nan,nan,nan,nan,nan,nan,nan,nan,0,0,0.64,0.64,-0.1,0
nan,nan,nan,nan,nan,nan,nan,nan,nan,nan,nan,nan,nan,nan,nan,nan,nan,0,0,0.645,0.645,-0.1,0
nan,nan,nan,nan,nan,nan,nan,nan,nan,nan,nan,nan,nan,nan,nan,nan,nan,0,0,0.65,0.65,-0.1,0
nan,nan,nan,nan,nan,nan,nan,nan,nan,nan,nan,nan,nan,nan,nan,nan,nan,0,0,0.655,0.655,-0.1,0
nan,nan,nan,nan,nan,nan,nan,nan,nan,nan,nan,nan,nan,nan,nan,nan,nan,0,0,0.66,0.66,-0.1,0
nan,nan,nan,nan,nan,nan,nan,nan,nan,nan,nan,nan,nan,nan,nan,nan,nan,0,0,0.665,0.665,-0.1,0
nan,nan,nan,nan,nan,nan,nan,nan,nan,nan,nan,nan,nan,nan,nan,nan,nan,0,0,0.67,0.67,-0.1,0
nan,nan,nan,nan,nan,nan,nan,nan,nan,nan,nan,nan,nan,nan,nan,nan,nan,0,0,0.675,0.675,-0.1,0
nan,nan,nan,nan,nan,nan,nan,nan,nan,nan,nan,nan,nan,nan,nan,nan,nan,0,0,0.68,0.68,-0.1,0
nan,nan,nan,nan,nan,nan,nan,nan,nan,nan,nan,nan,nan,nan,nan,nan,nan,0,0,0.685,0.685,-0.1,0
nan,nan,nan,nan,nan,nan,nan,nan,nan,nan,nan,nan,nan,nan,nan,nan,nan,0,0,0.69,0.69,-0.1,0
nan,nan,nan,nan,nan,nan,nan,nan,nan,nan,nan,nan,nan,nan,nan,nan,nan,0,0,0.695,0.695,-0.1,0
nan,nan,nan,nan,nan,nan,nan,nan,nan,nan,nan,nan,nan,nan,nan,nan,nan,0,0,0.7,0.7,-0.1,0
nan,nan,nan,nan,nan,nan,nan,nan,nan,nan,nan,nan,nan,nan,nan,nan,nan,0,0,0.705,0.705,-0.1,0
nan,nan,nan,nan,nan,nan,nan,nan,nan,nan,nan,nan,nan,nan,nan,nan,nan,0,0,0.71,0.71,-0.1,0
nan,nan,nan,nan,nan,nan,nan,nan,nan,nan,nan,nan,nan,nan,nan,nan,nan,0,0,0.715,0.715,-0.1,0
nan,nan,nan,nan,nan,nan,nan,nan,nan,nan,nan,nan,nan,nan,nan,nan,nan,0,0,0.72,0.72,-0.1,0
nan,nan,nan,nan,nan,nan,nan,nan,nan,nan,nan,nan,nan,nan,nan,nan,nan,0,0,0.725,0.725,-0.1,0
nan,nan,nan,nan,nan,nan,nan,nan,nan,nan,nan,nan,nan,nan,nan,nan,nan,0,0,0.73,0.73,-0.1,0
nan,nan,nan,nan,nan,nan,nan,nan,nan,nan,nan,nan,nan,nan,nan,nan,nan,0,0,0.735,0.735,-0.1,0
nan,nan,nan,nan,nan,nan,nan,nan,nan,nan,nan,nan,nan,nan,nan,nan,nan,0,0,0.74,0.74,-0.1,0
nan,nan,nan,nan,nan,nan,nan,nan,nan,nan,nan,nan,nan,nan,nan,nan,nan,0,0,0.745,0.745,-0.1,0
nan,nan,nan,nan,nan,nan,nan,nan,nan,nan,nan,nan,nan,nan,nan,nan,nan,0,0,0.75,0.75,-0.1,0
nan,nan,nan,nan,nan,nan,nan,nan,nan,nan,nan,nan,nan,nan,nan,nan,nan,0,0,0.755,0.755,-0.1,0
nan,nan,nan,nan,nan,nan,nan,nan,nan,nan,nan,nan,nan,nan,nan,nan,nan,0,0,0.76,0.76,-0.1,0
nan,nan,nan,nan,nan,nan,nan,nan,nan,nan,nan,nan,nan,nan,nan,nan,nan,0,0,0.765,0.765,-0.1,0
nan,nan,nan,nan,nan,nan,nan,nan,nan,nan,nan,nan,nan,nan,nan,nan,nan,0,0,0.77,0.77,-0.1,0
nan,nan,nan,nan,nan,nan,nan,nan,nan,nan,nan,nan,nan,nan,nan,nan,nan,0,0,0.775,0.775,-0.1,0
nan,nan,nan,nan,nan,nan,nan,nan,nan,nan,nan,nan,nan,nan,nan,nan,nan,0,0,0.78,0.78,-0.1,0
nan,nan,nan,nan,nan,nan,nan,nan,nan,nan,nan,nan,nan,nan,nan,nan,nan,0,0,0.785,0.785,-0.1,0
nan,nan,nan,nan,nan,nan,nan,nan,nan,nan,nan,nan,nan,nan,nan,nan,nan,0,0,0.79,0.79,-0.1,0
nan,nan,nan,nan,nan,nan,nan,nan,nan,nan,nan,nan,nan,nan,nan,nan,nan,0,0,0.795,0.795,-0.1,0
nan,nan,nan,nan,nan,nan,nan,nan,nan,nan,nan,nan,nan,nan,nan,nan,nan,0,0,0.8,0.8,-0.1,0
nan,nan,nan,nan,nan,nan,nan,nan,nan,nan,nan,nan,nan,nan,nan,nan,nan,0,0,0.805,0.805,-0.1,0
nan,nan,nan,nan,nan,nan,nan,nan,nan,nan,nan,nan,nan,nan,nan,nan,nan,0,0,0.81,0.81,-0.1,0
nan,nan,nan,nan,nan,nan,nan,nan,nan,nan,nan,nan,nan,nan,nan,nan,nan,0,0,0.815,0.815,-0.1,0
nan,nan,nan,nan,nan,nan,nan,nan,nan,nan,nan,nan,nan,nan,nan,nan,nan,0,0,0.82,0.82,-0.1,0
nan,nan,nan,nan,nan,nan,nan,nan,nan,nan,nan,nan,nan,nan,nan,nan,nan,0,0,0.825,0.825,-0.1,0
nan,nan,nan,nan,nan,nan,nan,nan,nan,nan,nan,nan,nan,nan,nan,nan,nan,0,0,0.83,0.83,-0.1,0
nan,nan,nan,nan,nan,nan,nan,nan,nan,nan,nan,nan,nan,nan,nan,nan,nan,0,0,0.835,0.835,-0.1,0
nan,nan,nan,nan,nan,nan,nan,nan,nan,nan,nan,nan,nan,nan,nan,nan,nan,0,0,0.84,0.84,-0.1,0
nan,nan,nan,nan,nan,nan,nan,nan,nan,nan,nan,nan,nan,nan,nan,nan,nan,0,0,0.845,0.845,-0.1,0
nan,nan,nan,nan,nan,nan,nan,nan,nan,nan,nan,nan,nan,nan,nan,nan,nan,0,0,0.85,0.85,-0.1,0
nan,nan,nan,nan,nan,nan,nan,nan,nan,nan,nan,nan,nan,nan,nan,nan,nan,0,0,0.855,0.855,-0.1,0
nan,nan,nan,nan,nan,nan,nan,nan,nan,nan,nan,nan,nan,nan,nan,nan,nan,0,0,0.86,0.86,-0.1,0
nan,nan,nan,nan,nan,nan,nan,nan,nan,nan,nan,nan,nan,nan,nan,nan,nan,0,0,0.865,0.865,-0.1,0
nan,nan,nan,nan,nan,nan,nan,nan,nan,nan,nan,nan,nan,nan,nan,nan,nan,0,0,0.87,0.87,-0.1,0
nan,nan,nan,nan,nan,nan,nan,nan,nan,nan,nan,nan,nan,nan,nan,nan,nan,0,0,0.875,0.875,-0.1,0
nan,nan,nan,nan,nan,nan,nan,nan,nan,nan,nan,nan,nan,nan,nan,nan,nan,0,0,0.88,0.88,-0.1,0
nan,nan,nan,nan,nan,nan,nan,nan,nan,nan,nan,nan,nan,nan,nan,nan,nan,0,0,0.885,0.885,-0.1,0
nan,nan,nan,nan,nan,nan,nan,nan,nan,nan,nan,nan,nan,nan,nan,nan,nan,0,0,0.89,0.89,-0.1,0
nan,nan,nan,nan,nan,nan,nan,nan,nan,nan,nan,nan,nan,nan,nan,nan,nan,0,0,0.895,0.895,-0.1,0
nan,nan,nan,nan,nan,nan,nan,nan,nan,nan,nan,nan,nan,nan,nan,nan,nan,0,0,0.9,0.9,-0.1,0
nan,nan,nan,nan,nan,nan,nan,nan,nan,nan,nan,nan,nan,nan,nan,nan,nan,0,0,0.905,0.905,-0.1,0
nan,nan,nan,nan,nan,nan,nan,nan,nan,nan,nan,nan,nan,nan,nan,nan,nan,0,0,0.91,0.91,-0.1,0
nan,nan,nan,nan,nan,nan,nan,nan,nan,nan,nan,nan,nan,nan,nan,nan,nan,0,0,0.915,0.915,-0.1,0
nan,nan,nan,nan,nan,nan,nan,nan,nan,nan,nan,nan,nan,nan,nan,nan,nan,0,0,0.92,0.92,-0.1,0
nan,nan,nan,nan,nan,nan,nan,nan,nan,nan,nan,nan,nan,nan,nan,nan,nan,0,0,0.925,0.925,-0.1,0
-0.0011808,0.023402,0,-0.44192,0.026918,-0.026652,12.37,8.2965,-0.7532,0,-7.8098,25.137,0,279.73,0,81.281,422.93,1,1,0.93,0.93,-0.1,0
-0.0011846,0.023425,0,-0.4512,0.027185,-0.026916,11.855,7.9507,-0.75315,0,-6.4198,21.074,0,279.11,0,81.516,418.79,1,1,0.935,0.935,-0.1,0
-0.0011885,0.023449,0,-0.46047,0.027451,-0.027179,11.339,7.6049,-0.7531,0,-5.0301,17.012,0,278.5,0,81.751,414.64,1,1,0.94,0.94,-0.1,0
-0.0011923,0.023472,0,-0.46975,0.027717,-0.027443,10.824,7.2592,-0.75306,0,-3.6409,12.949,0,277.88,0,81.986,410.5,1,1,0.945,0.945,-0.1,0
-0.0011962,0.023495,0,-0.47902,0.027984,-0.027706,10.308,6.9135,-0.75301,0,-2.2521,8.8873,0,277.27,0,82.221,406.35,1,1,0.95,0.95,-0.1,0
-0.0012,0.023519,0,-0.4883,0.02825,-0.02797,9.7929,6.5679,-0.75296,0,-0.86377,4.8255,0,276.65,0,82.456,402.21,1,1,0.955,0.955,-0.1,0
-0.0012039,0.023542,0,-0.49757,0.028516,-0.028233,9.2777,6.2223,-0.75292,0,0.52416,0.76393,0,276.04,0,82.691,398.06,1,1,0.96,0.96,-0.1,0
-0.0012077,0.023565,0,-0.50684,0.028782,-0.028496,8.7625,5.8768,-0.75287,0,1.9117,-3.2974,0,275.42,0,82.926,393.92,1,1,0.965,0.965,-0.1,0
-0.0012116,0.023589,0,-0.51611,0.029049,-0.02876,8.2473,5.5313,-0.75282,0,3.2987,-7.3584,0,274.81,0,83.16,389.77,1,1,0.97,0.97,-0.1,0
-0.0012154,0.023612,0,-0.52538,0.029315,-0.029023,7.7322,5.1858,-0.75278,0,4.6854,-11.419,0,274.19,0,83.395,385.63,1,1,0.975,0.975,-0.1,0
-0.0012193,0.023635,0,-0.53464,0.029581,-0.029286,7.2172,4.8404,-0.75273,0,6.0716,-15.48,0,273.58,0,83.63,381.49,1,1,0.98,0.98,-0.1,0
-0.0012231,0.023659,0,-0.54391,0.029847,-0.029549,6.7022,4.495,-0.75268,0,7.4574,-19.54,0,272.97,0,83.864,377.34,1,1,0.985,0.985,-0.1,0
-0.001227,0.023682,0,-0.55317,0.030113,-0.029813,6.1873,4.1497,-0.75264,0,8.8428,-23.6,0,272.35,0,84.099,373.2,1,1,0.99,0.99,-0.1,0
-0.0012308,0.023705,0,-0.56244,0.030379,-0.030076,5.6725,3.8044,-0.75259,0,10.228,-27.66,0,271.74,0,84.333,369.06,1,1,0.995,0.995,-0.1,0
-0.0012347,0.023728,0,-0.5717,0.030645,-0.030339,5.1577,3.4592,-0.75254,0,11.612,-31.719,0,271.13,0,84.567,364.92,1,1,1,1,-0.1,0
-0.0012385,0.023752,0,-0.58096,0.030911,-0.030602,4.643,3.114,-0.7525,0,12.996,-35.778,0,270.51,0,84.802,360.78,1,1,1.005,1.005,-0.1,0
-0.0012424,0.023775,0,-0.59022,0.031177,-0.030865,4.1284,2.7688,-0.75245,0,14.38,-39.837,0,269.9,0,85.036,356.64,1,1,1.01,1.01,-0.1,0
-0.0012462,0.023798,0,-0.59948,0.031443,-0.031128,3.6138,2.4237,-0.7524,0,15.763,-43.896,0,269.29,0,85.27,352.5,1,1,1.015,1.015,-0.1,0
-0.0012501,0.023822,0,-0.60874,0.031709,-0.031391,3.0993,2.0786,-0.75236,0,17.146,-47.954,0,268.68,0,85.504,348.36,1,1,1.02,1.02,-0.1,0
-0.001254,0.023845,0,-0.61799,0.031974,-0.031654,2.5849,1.7336,-0.75231,0,18.528,-52.012,0,268.06,0,85.738,344.22,1,1,1.025,1.025,-0.1,0
-0.0012578,0.023868,0,-0.62725,0.03224,-0.031917,2.0705,1.3886,-0.75226,0,19.91,-56.07,0,267.45,0,85.972,340.08,1,1,1.03,1.03,-0.1,0
-0.0012617,0.023892,0,-0.6365,0.032506,-0.03218,1.5561,1.0437,-0.75222,0,21.292,-60.127,0,266.84,0,86.206,335.94,1,1,1.035,1.035,-0.1,0
-0.0012655,0.023915,0,-0.64576,0.032772,-0.032443,1.0419,0.69877,-0.75217,0,22.673,-64.185,0,266.23,0,86.44,331.8,1,1,1.04,1.04,-0.1,0
-0.0012694,0.023938,0,-0.65501,0.033037,-0.032705,0.5277,0.35391,-0.75212,0,24.053,-68.241,0,265.62,0,86.674,327.66,1,1,1.045,1.045,-0.1,0
-0.0012732,0.023962,0,-0.66426,0.033303,-0.032968,0.013565,0.0090975,-0.75208,0,25.434,-72.298,0,265.01,0,86.908,323.52,1,1,1.05,1.05,-0.1,0
-0.0012746,0.023967,0,-0.6652,0.033827,-0.03348,0,0,-0.75207,0,24.797,-72.047,0,262.81,0,86.06,321.39,1,1,1.055,1.055,-0.1,0
-0.0012759,0.023972,0,-0.66592,0.034358,-0.033999,0,0,-0.75206,0,24.106,-71.679,0,260.57,0,85.182,319.32,1,1,1.06,1.06,-0.1,0
-0.0012772,0.023976,0,-0.66663,0.034889,-0.034518,0,0,-0.75205,0,23.415,-71.312,0,258.33,0,84.305,317.24,1,1,1.065,1.065,-0.1,0
-0.0012785,0.023981,0,-0.66734,0.03542,-0.035037,0,0,-0.75204,0,22.725,-70.944,0,256.09,0,83.427,315.17,1,1,1.07,1.07,-0.1,0
-0.0012798,0.023986,0,-0.66806,0.035951,-0.035556,0,0,-0.75203,0,22.034,-70.576,0,253.85,0,82.55,313.09,1,1,1.075,1.075,-0.1,0
-0.0012811,0.02399,0,-0.66877,0.036482,-0.036075,0,0,-0.75202,0,21.343,-70.209,0,251.61,0,81.672,311.02,1,1,1.08,1.08,-0.1,0
-0.0012824,0.023995,0,-0.66949,0.037013,-0.036594,0,0,-0.75201,0,20.653,-69.841,0,249.37,0,80.795,308.94,1,1,1.085,1.085,-0.1,0
-0.0012837,0.024,0,-0.6702,0.037544,-0.037113,0,0,-0.752,0,19.962,-69.473,0,247.13,0,79.917,306.87,1,1,1.09,1.09,-0.1,0
-0.001285,0.024004,0,-0.67092,0.038075,-0.037632,0,0,-0.75199,0,19.272,-69.106,0,244.89,0,79.04,304.79,1,1,1.095,1.095,-0.1,0
-0.0012863,0.024009,0,-0.67163,0.038606,-0.038151,0,0,-0.75198,0,18.581,-68.738,0,242.65,0,78.163,302.71,1,1,1.1,1.1,-0.1,0
-0.0012876,0.024014,0,-0.67235,0.039137,-0.03867,0,0,-0.75197,0,17.891,-68.371,0,240.41,0,77.286,300.64,1,1,1.105,1.105,-0.1,0
-0.0012889,0.024018,0,-0.67306,0.039668,-0.039189,0,0,-0.75196,0,17.201,-68.003,0,238.17,0,76.408,298.56,1,1,1.11,1.11,-0.1,0
-0.0012902,0.024023,0,-0.67378,0.040199,-0.039708,0,0,-0.75195,0,16.51,-67.636,0,235.93,0,75.531,296.49,1,1,1.115,1.115,-0.1,0
-0.0012915,0.024028,0,-0.67449,0.04073,-0.040226,0,0,-0.75194,0,15.82,-67.269,0,233.69,0,74.654,294.41,1,1,1.12,1.12,-0.1,0
-0.0012928,0.024033,0,-0.6752,0.04126,-0.040745,0,0,-0.75193,0,15.13,-66.901,0,231.45,0,73.777,292.34,1,1,1.125,1.125,-0.1,0
-0.0012941,0.024037,0,-0.67592,0.041791,-0.041264,0,0,-0.75193,0,14.44,-66.534,0,229.21,0,72.9,290.26,1,1,1.13,1.13,-0.1,0
-0.0012954,0.024042,0,-0.67663,0.042322,-0.041783,0,0,-0.75192,0,13.75,-66.167,0,226.97,0,72.023,288.18,1,1,1.135,1.135,-0.1,0
-0.0012967,0.024047,0,-0.67735,0.042853,-0.042302,0,0,-0.75191,0,13.061,-65.8,0,224.73,0,71.146,286.11,1,1,1.14,1.14,-0.1,0
-0.001298,0.024051,0,-0.67806,0.043384,-0.04282,0,0,-0.7519,0,12.371,-65.432,0,222.49,0,70.269,284.03,1,1,1.145,1.145,-0.1,0
-0.0012993,0.024056,0,-0.67878,0.043915,-0.043339,0,0,-0.75189,0,11.681,-65.065,0,220.25,0,69.392,281.96,1,1,1.15,1.15,-0.1,0
-0.0013006,0.024061,0,-0.67949,0.044445,-0.043858,0,0,-0.75188,0,10.991,-64.698,0,218.01,0,68.515,279.88,1,1,1.155,1.155,-0.1,0
-0.0013019,0.024065,0,-0.6802,0.044976,-0.044377,0,0,-0.75187,0,10.302,-64.331,0,215.77,0,67.638,277.81,1,1,1.16,1.16,-0.1,0
-0.0013032,0.02407,0,-0.68092,0.045507,-0.044895,0,0,-0.75186,0,9.6123,-63.964,0,213.53,0,66.761,275.73,1,1,1.165,1.165,-0.1,0
nan,nan,nan,nan,nan,nan,nan,nan,nan,nan,nan,nan,nan,nan,nan,nan,nan,0,0,1.17,1.17,-0.1,0
nan,nan,nan,nan,nan,nan,nan,nan,nan,nan,nan,nan,nan,nan,nan,nan,nan,0,0,1.175,1.175,-0.1,0
nan,nan,nan,nan,nan,nan,nan,nan,nan,nan,nan,nan,nan,nan,nan,nan,nan,0,0,1.18,1.18,-0.1,0
nan,nan,nan,nan,nan,nan,nan,nan,nan,nan,nan,nan,nan,nan,nan,nan,nan,0,0,1.185,1.185,-0.1,0
nan,nan,nan,nan,nan,nan,nan,nan,nan,nan,nan,nan,nan,nan,nan,nan,nan,0,0,1.19,1.19,-0.1,0
nan,nan,nan,nan,nan,nan,nan,nan,nan,nan,nan,nan,nan,nan,nan,nan,nan,0,0,1.195,1.195,-0.1,0
nan,nan,nan,nan,nan,nan,nan,nan,nan,nan,nan,nan,nan,nan,nan,nan,nan,0,0,1.2,1.2,-0.1,0
nan,nan,nan,nan,nan,nan,nan,nan,nan,nan,nan,nan,nan,nan,nan,nan,nan,0,0,1.205,1.205,-0.1,0
nan,nan,nan,nan,nan,nan,nan,nan,nan,nan,nan,nan,nan,nan,nan,nan,nan,0,0,1.21,1.21,-0.1,0
nan,nan,nan,nan,nan,nan,nan,nan,nan,nan,nan,nan,nan,nan,nan,nan,nan,0,0,1.215,1.215,-0.1,0
nan,nan,nan,nan,nan,nan,nan,nan,nan,nan,nan,nan,nan,nan,nan,nan,nan,0,0,1.22,1.22,-0.1,0
nan,nan,nan,nan,nan,nan,nan,nan,nan,nan,nan,nan,nan,nan,nan,nan,nan,0,0,1.225,1.225,-0.1,0
nan,nan,nan,nan,nan,nan,nan,nan,nan,nan,nan,nan,nan,nan,nan,nan,nan,0,0,1.23,1.23,-0.1,0
nan,nan,nan,nan,nan,nan,nan,nan,nan,nan,nan,nan,nan,nan,nan,nan,nan,0,0,1.235,1.235,-0.1,0
nan,nan,nan,nan,nan,nan,nan,nan,nan,nan,nan,nan,nan,nan,nan,nan,nan,0,0,1.24,1.24,-0.1,0
nan,nan,nan,nan,nan,nan,nan,nan,nan,nan,nan,nan,nan,nan,nan,nan,nan,0,0,1.245,1.245,-0.1,0
nan,nan,nan,nan,nan,nan,nan,nan,nan,nan,nan,nan,nan,nan,nan,nan,nan,0,0,1.25,1.25,-0.1,0
nan,nan,nan,nan,nan,nan,nan,nan,nan,nan,nan,nan,nan,nan,nan,nan,nan,0,0,1.255,1.255,-0.1,0
nan,nan,nan,nan,nan,nan,nan,nan,nan,nan,nan,nan,nan,nan,nan,nan,nan,0,0,1.26,1.26,-0.1,0
nan,nan,nan,nan,nan,nan,nan,nan,nan,nan,nan,nan,nan,nan,nan,nan,nan,0,0,1.265,1.265,-0.1,0
nan,nan,nan,nan,nan,nan,nan,nan,nan,nan,nan,nan,nan,nan,nan,nan,nan,0,0,1.27,1.27,-0.1,0
nan,nan,nan,nan,nan,nan,nan,nan,nan,nan,nan,nan,nan,nan,nan,nan,nan,0,0,1.275,1.275,-0.1,0
nan,nan,nan,nan,nan,nan,nan,nan,nan,nan,nan,nan,nan,nan,nan,nan,nan,0,0,1.28,1.28,-0.1,0
nan,nan,nan,nan,nan,nan,nan,nan,nan,nan,nan,nan,nan,nan,nan,nan,nan,0,0,1.285,1.285,-0.1,0
nan,nan,nan,nan,nan,nan,nan,nan,nan,nan,nan,nan,nan,nan,nan,nan,nan,0,0,1.29,1.29,-0.1,0
nan,nan,nan,nan,nan,nan,nan,nan,nan,nan,nan,nan,nan,nan,nan,nan,nan,0,0,1.295,1.295,-0.1,0
nan,nan,nan,nan,nan,nan,nan,nan,nan,nan,nan,nan,nan,nan,nan,nan,nan,0,0,1.3,1.3,-0.1,0
nan,nan,nan,nan,nan,nan,nan,nan,nan,nan,nan,nan,nan,nan,nan,nan,nan,0,0,1.305,1.305,-0.1,0
nan,nan,nan,nan,nan,nan,nan,nan,nan,nan,nan,nan,nan,nan,nan,nan,nan,0,0,1.31,1.31,-0.1,0
nan,nan,nan,nan,nan,nan,nan,nan,nan,nan,nan,nan,nan,nan,nan,nan,nan,0,0,1.315,1.315,-0.1,0
nan,nan,nan,nan,nan,nan,nan,nan,nan,nan,nan,nan,nan,nan,nan,nan,nan,0,0,1.32,1.32,-0.1,0
nan,nan,nan,nan,nan,nan,nan,nan,nan,nan,nan,nan,nan,nan,nan,nan,nan,0,0,1.325,1.325,-0.1,0
nan,nan,nan,nan,nan,nan,nan,nan,nan,nan,nan,nan,nan,nan,nan,nan,nan,0,0,1.33,1.33,-0.1,0
nan,nan,nan,nan,nan,nan,nan,nan,nan,nan,nan,nan,nan,nan,nan,nan,nan,0,0,1.335,1.335,-0.1,0
nan,nan,nan,nan,nan,nan,nan,nan,nan,nan,nan,nan,nan,nan,nan,nan,nan,0,0,1.34,1.34,-0.1,0
nan,nan,nan,nan,nan,nan,nan,nan,nan,nan,nan,nan,nan,nan,nan,nan,nan,0,0,1.345,1.345,-0.1,0
nan,nan,nan,nan,nan,nan,nan,nan,nan,nan,nan,nan,nan,nan,nan,nan,nan,0,0,1.35,1.35,-0.1,0
nan,nan,nan,nan,nan,nan,nan,nan,nan,nan,nan,nan,nan,nan,nan,nan,nan,0,0,1.355,1.355,-0.1,0
nan,nan,nan,nan,nan,nan,nan,nan,nan,nan,nan,nan,nan,nan,nan,nan,nan,0,0,1.36,1.36,-0.1,0
nan,nan,nan,nan,nan,nan,nan,nan,nan,nan,nan,nan,nan,nan,nan,nan,nan,0,0,1.365,1.365,-0.1,0
nan,nan,nan,nan,nan,nan,nan,nan,nan,nan,nan,nan,nan,nan,nan,nan,nan,0,0,1.37,1.37,-0.1,0
nan,nan,nan,nan,nan,nan,nan,nan,nan,nan,nan,nan,nan,nan,nan,nan,nan,0,0,1.375,1.375,-0.1,0
nan,nan,nan,nan,nan,nan,nan,nan,nan,nan,nan,nan,nan,nan,nan,nan,nan,0,0,1.38,1.38,-0.1,0
nan,nan,nan,nan,nan,nan,nan,nan,nan,nan,nan,nan,nan,nan,nan,nan,nan,0,0,1.385,1.385,-0.1,0
nan,nan,nan,nan,nan,nan,nan,nan,nan,nan,nan,nan,nan,nan,nan,nan,nan,0,0,1.39,1.39,-0.1,0
nan,nan,nan,nan,nan,nan,nan,nan,nan,nan,nan,nan,nan,nan,nan,nan,nan,0,0,1.395,1.395,-0.1,0
nan,nan,nan,nan,nan,nan,nan,nan,nan,nan,nan,nan,nan,nan,nan,nan,nan,0,0,1.4,1.4,-0.1,0
nan,nan,nan,nan,nan,nan,nan,nan,nan,nan,nan,nan,nan,nan,nan,nan,nan,0,0,1.405,1.405,-0.1,0
nan,nan,nan,nan,nan,nan,nan,nan,nan,nan,nan,nan,nan,nan,nan,nan,nan,0,0,1.41,1.41,-0.1,0
nan,nan,nan,nan,nan,nan,nan,nan,nan,nan,nan,nan,nan,nan,nan,nan,nan,0,0,1.415,1.415,-0.1,0
nan,nan,nan,nan,nan,nan,nan,nan,nan,nan,nan,nan,nan,nan,nan,nan,nan,0,0,1.42,1.42,-0.1,0
nan,nan,nan,nan,nan,nan,nan,nan,nan,nan,nan,nan,nan,nan,nan,nan,nan,0,0,1.425,1.425,-0.1,0
nan,nan,nan,nan,nan,nan,nan,nan,nan,nan,nan,nan,nan,nan,nan,nan,nan,0,0,1.43,1.43,-0.1,0
nan,nan,nan,nan,nan,nan,nan,nan,nan,nan,nan,nan,nan,nan,nan,nan,nan,0,0,1.435,1.435,-0.1,0
nan,nan,nan,nan,nan,nan,nan,nan,nan,nan,nan,nan,nan,nan,nan,nan,nan,0,0,1.44,1.44,-0.1,0
nan,nan,nan,nan,nan,nan,nan,nan,nan,nan,nan,nan,nan,nan,nan,nan,nan,0,0,1.445,1.445,-0.1,0
nan,nan,nan,nan,nan,nan,nan,nan,nan,nan,nan,nan,nan,nan,nan,nan,nan,0,0,1.45,1.45,-0.1,0
nan,nan,nan,nan,nan,nan,nan,nan,nan,nan,nan,nan,nan,nan,nan,nan,nan,0,0,1.455,1.455,-0.1,0
nan,nan,nan,nan,nan,nan,nan,nan,nan,nan,nan,nan,nan,nan,nan,nan,nan,0,0,1.46,1.46,-0.1,0
nan,nan,nan,nan,nan,nan,nan,nan,nan,nan,nan,nan,nan,nan,nan,nan,nan,0,0,1.465,1.465,-0.1,0
nan,nan,nan,nan,nan,nan,nan,nan,nan,nan,nan,nan,nan,nan,nan,nan,nan,0,0,1.47,1.47,-0.1,0
-0.0013841,0.024361,0,-0.72517,0.078389,-0.077031,0,0,-0.75128,0,-33.004,-41.278,0,74.756,0,12.457,147,1,1,1.475,1.475,-0.1,0
-0.0013854,0.024366,0,-0.72588,0.078919,-0.077549,0,0,-0.75127,0,-33.689,-40.913,0,72.519,0,11.582,144.93,1,1,1.48,1.48,-0.1,0
-0.0013867,0.024371,0,-0.7266,0.079449,-0.078067,0,0,-0.75126,0,-34.374,-40.548,0,70.282,0,10.707,142.85,1,1,1.485,1.485,-0.1,0
-0.001388,0.024376,0,-0.72731,0.079979,-0.078585,0,0,-0.75125,0,-35.059,-40.184,0,68.045,0,9.8327,140.77,1,1,1.49,1.49,-0.1,0
-0.0013893,0.02438,0,-0.72802,0.080509,-0.079103,0,0,-0.75124,0,-35.744,-39.819,0,65.808,0,8.9579,138.7,1,1,1.495,1.495,-0.1,0
-0.0013907,0.024385,0,-0.72874,0.081038,-0.079621,0,0,-0.75123,0,-36.429,-39.454,0,63.571,0,8.0832,136.62,1,1,1.5,1.5,-0.1,0
-0.001392,0.02439,0,-0.72945,0.081568,-0.080139,0,0,-0.75122,0,-37.114,-39.09,0,61.334,0,7.2085,134.54,1,1,1.505,1.505,-0.1,0
-0.0013933,0.024394,0,-0.73016,0.082098,-0.080656,0,0,-0.75121,0,-37.799,-38.725,0,59.097,0,6.3339,132.47,1,1,1.51,1.51,-0.1,0
-0.0013946,0.024399,0,-0.73088,0.082628,-0.081174,0,0,-0.7512,0,-38.483,-38.361,0,56.86,0,5.4593,130.39,1,1,1.515,1.515,-0.1,0
-0.0013959,0.024404,0,-0.73159,0.083158,-0.081692,0,0,-0.75119,0,-39.168,-37.996,0,54.623,0,4.5847,128.31,1,1,1.52,1.52,-0.1,0
-0.0013972,0.024408,0,-0.7323,0.083688,-0.08221,0,0,-0.75118,0,-39.852,-37.632,0,52.386,0,3.7101,126.24,1,1,1.525,1.525,-0.1,0
-0.0013985,0.024413,0,-0.73301,0.084218,-0.082728,0,0,-0.75117,0,-40.537,-37.267,0,50.15,0,2.8356,124.16,1,1,1.53,1.53,-0.1,0
-0.0013998,0.024418,0,-0.73373,0.084747,-0.083245,0,0,-0.75116,0,-41.221,-36.903,0,47.913,0,1.9611,122.08,1,1,1.535,1.535,-0.1,0
-0.0014011,0.024423,0,-0.73444,0.085277,-0.083763,0,0,-0.75115,0,-41.906,-36.539,0,45.676,0,1.0866,120.01,1,1,1.54,1.54,-0.1,0
-0.0014024,0.024427,0,-0.73515,0.085807,-0.084281,0,0,-0.75115,0,-42.59,-36.174,0,43.44,0,0.21221,117.93,1,1,1.545,1.545,-0.1,0
-0.0014037,0.024432,0,-0.73587,0.086337,-0.084799,0,0,-0.75114,0,-43.274,-35.81,0,41.203,0,-0.66219,115.85,1,1,1.55,1.55,-0.1,0
-0.0014051,0.024437,0,-0.73658,0.086866,-0.085316,0,0,-0.75113,0,-43.958,-35.446,0,38.967,0,-1.5366,113.78,1,1,1.555,1.555,-0.1,0
-0.0014064,0.024441,0,-0.73729,0.087396,-0.085834,0,0,-0.75112,0,-44.643,-35.082,0,36.73,0,-2.4109,111.7,1,1,1.56,1.56,-0.1,0
-0.0014077,0.024446,0,-0.738,0.087926,-0.086352,0,0,-0.75111,0,-45.327,-34.718,0,34.494,0,-3.2852,109.62,1,1,1.565,1.565,-0.1,0
-0.001409,0.024451,0,-0.73872,0.088455,-0.086869,0,0,-0.7511,0,-46.011,-34.353,0,32.257,0,-4.1595,107.55,1,1,1.57,1.57,-0.1,0
-0.0014103,0.024455,0,-0.73943,0.088985,-0.087387,0,0,-0.75109,0,-46.694,-33.989,0,30.021,0,-5.0337,105.47,1,1,1.575,1.575,-0.1,0
-0.0014116,0.02446,0,-0.74014,0.089515,-0.087905,0,0,-0.75108,0,-47.378,-33.625,0,27.784,0,-5.9079,103.39,1,1,1.58,1.58,-0.1,0
-0.0014129,0.024465,0,-0.74086,0.090044,-0.088422,0,0,-0.75107,0,-48.062,-33.261,0,25.548,0,-6.7821,101.31,1,1,1.585,1.585,-0.1,0
-0.0014142,0.02447,0,-0.74157,0.090574,-0.08894,0,0,-0.75106,0,-48.746,-32.897,0,23.312,0,-7.6562,99.238,1,1,1.59,1.59,-0.1,0
-0.0014155,0.024474,0,-0.74228,0.091104,-0.089458,0,0,-0.75105,0,-49.429,-32.533,0,21.076,0,-8.5303,97.161,1,1,1.595,1.595,-0.1,0
-0.0014168,0.024479,0,-0.74299,0.091633,-0.089975,0,0,-0.75104,0,-50.113,-32.169,0,18.84,0,-9.4044,95.084,1,1,1.6,1.6,-0.1,0
-0.0014182,0.024484,0,-0.74371,0.092163,-0.090493,0,0,-0.75103,0,-50.796,-31.806,0,16.603,0,-10.278,93.007,1,1,1.605,1.605,-0.1,0
-0.0014195,0.024488,0,-0.74442,0.092693,-0.09101,0,0,-0.75102,0,-51.48,-31.442,0,14.367,0,-11.152,90.93,1,1,1.61,1.61,-0.1,0
-0.0014208,0.024493,0,-0.74513,0.093222,-0.091528,0,0,-0.75101,0,-52.163,-31.078,0,12.131,0,-12.026,88.853,1,1,1.615,1.615,-0.1,0
-0.0014221,0.024498,0,-0.74584,0.093752,-0.092045,0,0,-0.751,0,-52.846,-30.714,0,9.8952,0,-12.9,86.776,1,1,1.62,1.62,-0.1,0
-0.0014234,0.024502,0,-0.74656,0.094281,-0.092563,0,0,-0.751,0,-53.53,-30.35,0,7.6592,0,-13.774,84.699,1,1,1.625,1.625,-0.1,0
-0.0014247,0.024507,0,-0.74727,0.094811,-0.09308,0,0,-0.75099,0,-54.213,-29.987,0,5.4232,0,-14.648,82.622,1,1,1.63,1.63,-0.1,0
-0.001426,0.024512,0,-0.74798,0.09534,-0.093598,0,0,-0.75098,0,-54.896,-29.623,0,3.1873,0,-15.522,80.544,1,1,1.635,1.635,-0.1,0
-0.0014273,0.024517,0,-0.74869,0.09587,-0.094115,0,0,-0.75097,0,-55.579,-29.259,0,0.95145,0,-16.396,78.467,1,1,1.64,1.64,-0.1,0
-0.0014286,0.024521,0,-0.74941,0.096399,-0.094633,0,0,-0.75096,0,-56.262,-28.896,0,-1.2844,0,-17.27,76.39,1,1,1.645,1.645,-0.1,0
-0.0014299,0.024526,0,-0.75012,0.096929,-0.09515,0,0,-0.75095,0,-56.945,-28.532,0,-3.5202,0,-18.143,74.313,1,1,1.65,1.65,-0.1,0
-0.0014313,0.024531,0,-0.75083,0.097458,-0.095668,0,0,-0.75094,0,-57.627,-28.169,0,-5.7559,0,-19.017,72.236,1,1,1.655,1.655,-0.1,0
-0.0014328,0.024536,0,-0.75093,0.098205,-0.096382,0,0,-0.75093,0,-57.824,-27.887,0,-6.0071,0,-19.151,71.923,1,1,1.66,1.66,-0.1,0
-0.0014344,0.024542,0,-0.75092,0.09899,-0.097131,0,0,-0.75092,0,-57.936,-27.618,0,-5.9157,0,-19.158,71.914,1,1,1.665,1.665,-0.1,0
-0.001436,0.024547,0,-0.75091,0.099774,-0.097879,0,0,-0.75091,0,-58.048,-27.35,0,-5.8244,0,-19.164,71.905,1,1,1.67,1.67,-0.1,0
-0.0014376,0.024553,0,-0.75089,0.10056,-0.098628,0,0,-0.75089,0,-58.161,-27.082,0,-5.733,0,-19.17,71.897,1,1,1.675,1.675,-0.1,0
-0.0014391,0.024558,0,-0.75088,0.10134,-0.099376,0,0,-0.75088,0,-58.273,-26.813,0,-5.6416,0,-19.177,71.888,1,1,1.68,1.68,-0.1,0
-0.0014407,0.024564,0,-0.75087,0.10213,-0.10012,0,0,-0.75087,0,-58.385,-26.545,0,-5.5503,0,-19.183,71.879,1,1,1.685,1.685,-0.1,0
-0.0014423,0.024569,0,-0.75086,0.10291,-0.10087,0,0,-0.75086,0,-58.498,-26.277,0,-5.459,0,-19.19,71.87,1,1,1.69,1.69,-0.1,0
-0.0014439,0.024575,0,-0.75085,0.1037,-0.10162,0,0,-0.75085,0,-58.61,-26.008,0,-5.3676,0,-19.196,71.862,1,1,1.695,1.695,-0.1,0
-0.0014455,0.02458,0,-0.75084,0.10448,-0.10237,0,0,-0.75084,0,-58.722,-25.74,0,-5.2763,0,-19.202,71.853,1,1,1.7,1.7,-0.1,0
-0.0014471,0.024586,0,-0.75083,0.10527,-0.10312,0,0,-0.75083,0,-58.834,-25.472,0,-5.185,0,-19.209,71.844,1,1,1.705,1.705,-0.1,0
-0.0014486,0.024591,0,-0.75082,0.10605,-0.10387,0,0,-0.75082,0,-58.946,-25.203,0,-5.0936,0,-19.215,71.835,1,1,1.71,1.71,-0.1,0
-0.0014502,0.024597,0,-0.75081,0.10683,-0.10461,0,0,-0.75081,0,-59.059,-24.935,0,-5.0023,0,-19.221,71.826,1,1,1.715,1.715,-0.1,0
-0.0014518,0.024602,0,-0.7508,0.10762,-0.10536,0,0,-0.7508,0,-59.171,-24.667,0,-4.911,0,-19.228,71.817,1,1,1.72,1.72,-0.1,0
-0.0014534,0.024608,0,-0.75078,0.1084,-0.10611,0,0,-0.75078,0,-59.283,-24.398,0,-4.8197,0,-19.234,71.809,1,1,1.725,1.725,-0.1,0
-0.001455,0.024613,0,-0.75077,0.10919,-0.10686,0,0,-0.75077,0,-59.395,-24.13,0,-4.7284,0,-19.241,71.8,1,1,1.73,1.73,-0.1,0
-0.0014566,0.024619,0,-0.75076,0.10997,-0.10761,0,0,-0.75076,0,-59.508,-23.862,0,-4.6371,0,-19.247,71.791,1,1,1.735,1.735,-0.1,0
-0.0014582,0.024624,0,-0.75075,0.11076,-0.10836,0,0,-0.75075,0,-59.62,-23.593,0,-4.5457,0,-19.253,71.782,1,1,1.74,1.74,-0.1,0
-0.0014597,0.02463,0,-0.75074,0.11154,-0.1091,0,0,-0.75074,0,-59.732,-23.325,0,-4.4544,0,-19.26,71.773,1,1,1.745,1.745,-0.1,0
-0.0014613,0.024635,0,-0.75073,0.11232,-0.10985,0,0,-0.75073,0,-59.844,-23.057,0,-4.3632,0,-19.266,71.764,1,1,1.75,1.75,-0.1,0
-0.0014629,0.024641,0,-0.75072,0.11311,-0.1106,0,0,-0.75072,0,-59.956,-22.789,0,-4.2719,0,-19.272,71.756,1,1,1.755,1.755,-0.1,0
-0.0014645,0.024646,0,-0.75071,0.11389,-0.11135,0,0,-0.75071,0,-60.068,-22.52,0,-4.1806,0,-19.279,71.747,1,1,1.76,1.76,-0.1,0
-0.0014661,0.024652,0,-0.7507,0.11468,-0.1121,0,0,-0.7507,0,-60.18,-22.252,0,-4.0893,0,-19.285,71.738,1,1,1.765,1.765,-0.1,0
-0.0014677,0.024657,0,-0.75069,0.11546,-0.11284,0,0,-0.75069,0,-60.293,-21.984,0,-3.998,0,-19.292,71.729,1,1,1.77,1.77,-0.1,0
-0.0014693,0.024663,0,-0.75067,0.11624,-0.11359,0,0,-0.75067,0,-60.405,-21.715,0,-3.9067,0,-19.298,71.72,1,1,1.775,1.775,-0.1,0
-0.0014708,0.024668,0,-0.75066,0.11703,-0.11434,0,0,-0.75066,0,-60.517,-21.447,0,-3.8155,0,-19.304,71.711,1,1,1.78,1.78,-0.1,0
-0.0014724,0.024674,0,-0.75065,0.11781,-0.11509,0,0,-0.75065,0,-60.629,-21.179,0,-3.7242,0,-19.311,71.702,1,1,1.785,1.785,-0.1,0
-0.001474,0.024679,0,-0.75064,0.1186,-0.11584,0,0,-0.75064,0,-60.741,-20.91,0,-3.6329,0,-19.317,71.693,1,1,1.79,1.79,-0.1,0
-0.0014756,0.024685,0,-0.75063,0.11938,-0.11658,0,0,-0.75063,0,-60.853,-20.642,0,-3.5417,0,-19.323,71.684,1,1,1.795,1.795,-0.1,0
-0.0014772,0.02469,0,-0.75062,0.12016,-0.11733,0,0,-0.75062,0,-60.965,-20.374,0,-3.4504,0,-19.33,71.675,1,1,1.8,1.8,-0.1,0
-0.0014788,0.024696,0,-0.75061,0.12095,-0.11808,0,0,-0.75061,0,-61.077,-20.106,0,-3.3591,0,-19.336,71.666,1,1,1.805,1.805,-0.1,0
-0.0014803,0.024702,0,-0.7506,0.12173,-0.11883,0,0,-0.7506,0,-61.189,-19.837,0,-3.2679,0,-19.342,71.657,1,1,1.81,1.81,-0.1,0
-0.0014819,0.024707,0,-0.75059,0.12252,-0.11958,0,0,-0.75059,0,-61.301,-19.569,0,-3.1767,0,-19.349,71.648,1,1,1.815,1.815,-0.1,0
-0.0014835,0.024713,0,-0.75057,0.1233,-0.12032,0,0,-0.75057,0,-61.413,-19.301,0,-3.0854,0,-19.355,71.639,1,1,1.82,1.82,-0.1,0
-0.0014851,0.024718,0,-0.75056,0.12408,-0.12107,0,0,-0.75056,0,-61.525,-19.032,0,-2.9942,0,-19.362,71.63,1,1,1.825,1.825,-0.1,0
-0.0014867,0.024724,0,-0.75055,0.12487,-0.12182,0,0,-0.75055,0,-61.637,-18.764,0,-2.9029,0,-19.368,71.621,1,1,1.83,1.83,-0.1,0
-0.0014883,0.024729,0,-0.75054,0.12565,-0.12257,0,0,-0.75054,0,-61.749,-18.496,0,-2.8117,0,-19.374,71.612,1,1,1.835,1.835,-0.1,0
-0.0014899,0.024735,0,-0.75053,0.12643,-0.12331,0,0,-0.75053,0,-61.861,-18.227,0,-2.7205,0,-19.381,71.603,1,1,1.84,1.84,-0.1,0
-0.0014914,0.02474,0,-0.75052,0.12722,-0.12406,0,0,-0.75052,0,-61.973,-17.959,0,-2.6293,0,-19.387,71.594,1,1,1.845,1.845,-0.1,0
-0.001493,0.024746,0,-0.75051,0.128,-0.12481,0,0,-0.75051,0,-62.085,-17.691,0,-2.538,0,-19.393,71.585,1,1,1.85,1.85,-0.1,0
-0.0014946,0.024751,0,-0.7505,0.12878,-0.12556,0,0,-0.7505,0,-62.197,-17.423,0,-2.4468,0,-19.4,71.576,1,1,1.855,1.855,-0.1,0
-0.0014962,0.024757,0,-0.75049,0.12957,-0.12631,0,0,-0.75049,0,-62.309,-17.154,0,-2.3556,0,-19.406,71.567,1,1,1.86,1.86,-0.1,0
-0.0014978,0.024762,0,-0.75048,0.13035,-0.12705,0,0,-0.75048,0,-62.421,-16.886,0,-2.2644,0,-19.412,71.558,1,1,1.865,1.865,-0.1,0
-0.0014994,0.024768,0,-0.75046,0.13114,-0.1278,0,0,-0.75046,0,-62.533,-16.618,0,-2.1732,0,-19.419,71.549,1,1,1.87,1.87,-0.1,0
-0.001501,0.024773,0,-0.75045,0.13192,-0.12855,0,0,-0.75045,0,-62.645,-16.349,0,-2.082,0,-19.425,71.54,1,1,1.875,1.875,-0.1,0
-0.0015025,0.024779,0,-0.75044,0.1327,-0.1293,0,0,-0.75044,0,-62.757,-16.081,0,-1.9908,0,-19.431,71.531,1,1,1.88,1.88,-0.1,0
-0.0015041,0.024784,0,-0.75043,0.13349,-0.13004,0,0,-0.75043,0,-62.869,-15.813,0,-1.8996,0,-19.438,71.522,1,1,1.885,1.885,-0.1,0
-0.0015057,0.02479,0,-0.75042,0.13427,-0.13079,0,0,-0.75042,0,-62.98,-15.545,0,-1.8084,0,-19.444,71.513,1,1,1.89,1.89,-0.1,0
-0.0015073,0.024795,0,-0.75041,0.13505,-0.13154,0,0,-0.75041,0,-63.092,-15.276,0,-1.7172,0,-19.45,71.504,1,1,1.895,1.895,-0.1,0
-0.0015089,0.024801,0,-0.7504,0.13584,-0.13229,0,0,-0.7504,0,-63.204,-15.008,0,-1.626,0,-19.457,71.494,1,1,1.9,1.9,-0.1,0
-0.0015105,0.024806,0,-0.75039,0.13662,-0.13303,0,0,-0.75039,0,-63.316,-14.74,0,-1.5349,0,-19.463,71.485,1,1,1.905,1.905,-0.1,0
-0.0015121,0.024812,0,-0.75038,0.1374,-0.13378,0,0,-0.75038,0,-63.428,-14.471,0,-1.4437,0,-19.469,71.476,1,1,1.91,1.91,-0.1,0
nan,nan,nan,nan,nan,nan,nan,nan,nan,nan,nan,nan,nan,nan,nan,nan,nan,0,0,1.915,1.915,-0.1,0
nan,nan,nan,nan,nan,nan,nan,nan,nan,nan,nan,nan,nan,nan,nan,nan,nan,0,0,1.92,1.92,-0.1,0
nan,nan,nan,nan,nan,nan,nan,nan,nan,nan,nan,nan,nan,nan,nan,nan,nan,0,0,1.925,1.925,-0.1,0
nan,nan,nan,nan,nan,nan,nan,nan,nan,nan,nan,nan,nan,nan,nan,nan,nan,0,0,1.93,1.93,-0.1,0
nan,nan,nan,nan,nan,nan,nan,nan,nan,nan,nan,nan,nan,nan,nan,nan,nan,0,0,1.935,1.935,-0.1,0
nan,nan,nan,nan,nan,nan,nan,nan,nan,nan,nan,nan,nan,nan,nan,nan,nan,0,0,1.94,1.94,-0.1,0
nan,nan,nan,nan,nan,nan,nan,nan,nan,nan,nan,nan,nan,nan,nan,nan,nan,0,0,1.945,1.945,-0.1,0
nan,nan,nan,nan,nan,nan,nan,nan,nan,nan,nan,nan,nan,nan,nan,nan,nan,0,0,1.95,1.95,-0.1,0
nan,nan,nan,nan,nan,nan,nan,nan,nan,nan,nan,nan,nan,nan,nan,nan,nan,0,0,1.955,1.955,-0.1,0
nan,nan,nan,nan,nan,nan,nan,nan,nan,nan,nan,nan,nan,nan,nan,nan,nan,0,0,1.96,1.96,-0.1,0
nan,nan,nan,nan,nan,nan,nan,nan,nan,nan,nan,nan,nan,nan,nan,nan,nan,0,0,1.965,1.965,-0.1,0
nan,nan,nan,nan,nan,nan,nan,nan,nan,nan,nan,nan,nan,nan,nan,nan,nan,0,0,1.97,1.97,-0.1,0
nan,nan,nan,nan,nan,nan,nan,nan,nan,nan,nan,nan,nan,nan,nan,nan,nan,0,0,1.975,1.975,-0.1,0
nan,nan,nan,nan,nan,nan,nan,nan,nan,nan,nan,nan,nan,nan,nan,nan,nan,0,0,1.98,1.98,-0.1,0
nan,nan,nan,nan,nan,nan,nan,nan,nan,nan,nan,nan,nan,nan,nan,nan,nan,0,0,1.985,1.985,-0.1,0
nan,nan,nan,nan,nan,nan,nan,nan,nan,nan,nan,nan,nan,nan,nan,nan,nan,0,0,1.99,1.99,-0.1,0
nan,nan,nan,nan,nan,nan,nan,nan,nan,nan,nan,nan,nan,nan,nan,nan,nan,0,0,1.995,1.995,-0.1,0
nan,nan,nan,nan,nan,nan,nan,nan,nan,nan,nan,nan,nan,nan,nan,nan,nan,0,0,2,2,-0.1,0
nan,nan,nan,nan,nan,nan,nan,nan,nan,nan,nan,nan,nan,nan,nan,nan,nan,0,0,2.005,2.005,-0.1,0
nan,nan,nan,nan,nan,nan,nan,nan,nan,nan,nan,nan,nan,nan,nan,nan,nan,0,0,2.01,2.01,-0.1,0
nan,nan,nan,nan,nan,nan,nan,nan,nan,nan,nan,nan,nan,nan,nan,nan,nan,0,0,2.015,2.015,-0.1,0
nan,nan,nan,nan,nan,nan,nan,nan,nan,nan,nan,nan,nan,nan,nan,nan,nan,0,0,2.02,2.02,-0.1,0
nan,nan,nan,nan,nan,nan,nan,nan,nan,nan,nan,nan,nan,nan,nan,nan,nan,0,0,2.025,2.025,-0.1,0
nan,nan,nan,nan,nan,nan,nan,nan,nan,nan,nan,nan,nan,nan,nan,nan,nan,0,0,2.03,2.03,-0.1,0
-0.0015517,0.02495,0,-0.7501,0.15698,-0.15246,0,0,-0.7501,0,-66.221,-7.7643,0,0.8344,0,-19.627,71.245,1,1,2.035,2.035,-0.1,0
-0.0015533,0.024955,0,-0.75009,0.15776,-0.15321,0,0,-0.75009,0,-66.332,-7.4961,0,0.92548,0,-19.633,71.236,1,1,2.04,2.04,-0.1,0
-0.0015549,0.024961,0,-0.75008,0.15855,-0.15395,0,0,-0.75008,0,-66.444,-7.2278,0,1.0165,0,-19.639,71.227,1,1,2.045,2.045,-0.1,0
-0.0015565,0.024966,0,-0.75007,0.15933,-0.1547,0,0,-0.75007,0,-66.555,-6.9595,0,1.1076,0,-19.645,71.217,1,1,2.05,2.05,-0.1,0
-0.001558,0.024972,0,-0.75006,0.16011,-0.15545,0,0,-0.75006,0,-66.667,-6.6913,0,1.1987,0,-19.652,71.208,1,1,2.055,2.055,-0.1,0
-0.0015596,0.024977,0,-0.75005,0.16089,-0.15619,0,0,-0.75005,0,-66.779,-6.423,0,1.2897,0,-19.658,71.199,1,1,2.06,2.06,-0.1,0
-0.0015612,0.024983,0,-0.75003,0.16168,-0.15694,0,0,-0.75003,0,-66.89,-6.1547,0,1.3808,0,-19.664,71.189,1,1,2.065,2.065,-0.1,0
-0.0015628,0.024988,0,-0.75002,0.16246,-0.15769,0,0,-0.75002,0,-67.002,-5.8865,0,1.4718,0,-19.67,71.18,1,1,2.07,2.07,-0.1,0
-0.0015644,0.024994,0,-0.75001,0.16324,-0.15843,0,0,-0.75001,0,-67.113,-5.6182,0,1.5629,0,-19.677,71.17,1,1,2.075,2.075,-0.1,0
-0.001566,0.024999,0,-0.75,0.16403,-0.15918,0,0,-0.75,0,-67.225,-5.3499,0,1.6539,0,-19.683,71.161,1,1,2.08,2.08,-0.1,0
-0.0015676,0.025005,0,-0.74999,0.16481,-0.15993,0,0,-0.74999,0,-67.336,-5.0817,0,1.745,0,-19.689,71.152,1,1,2.085,2.085,-0.1,0
-0.0015692,0.02501,0,-0.74998,0.16559,-0.16067,0,0,-0.74998,0,-67.448,-4.8134,0,1.836,0,-19.695,71.142,1,1,2.09,2.09,-0.1,0
-0.0015707,0.025016,0,-0.74997,0.16637,-0.16142,0,0,-0.74997,0,-67.559,-4.5451,0,1.927,0,-19.702,71.133,1,1,2.095,2.095,-0.1,0
-0.0015723,0.025021,0,-0.74996,0.16716,-0.16217,0,0,-0.74996,0,-67.671,-4.2769,0,2.0181,0,-19.708,71.123,1,1,2.1,2.1,-0.1,0
-0.0015739,0.025027,0,-0.74995,0.16794,-0.16291,0,0,-0.74995,0,-67.782,-4.0086,0,2.1091,0,-19.714,71.114,1,1,2.105,2.105,-0.1,0
-0.0015755,0.025032,0,-0.74994,0.16872,-0.16366,0,0,-0.74994,0,-67.894,-3.7403,0,2.2001,0,-19.72,71.104,1,1,2.11,2.11,-0.1,0
-0.0015771,0.025038,0,-0.74992,0.1695,-0.16441,0,0,-0.74992,0,-68.005,-3.4721,0,2.2911,0,-19.727,71.095,1,1,2.115,2.115,-0.1,0
-0.0015787,0.025043,0,-0.74991,0.17029,-0.16515,0,0,-0.74991,0,-68.116,-3.2038,0,2.3821,0,-19.733,71.085,1,1,2.12,2.12,-0.1,0
-0.0015803,0.025049,0,-0.7499,0.17107,-0.1659,0,0,-0.7499,0,-68.228,-2.9355,0,2.4732,0,-19.739,71.076,1,1,2.125,2.125,-0.1,0
-0.0015818,0.025054,0,-0.74989,0.17185,-0.16665,0,0,-0.74989,0,-68.339,-2.6673,0,2.5642,0,-19.745,71.066,1,1,2.13,2.13,-0.1,0
-0.0015834,0.02506,0,-0.74988,0.17263,-0.16739,0,0,-0.74988,0,-68.451,-2.399,0,2.6552,0,-19.752,71.057,1,1,2.135,2.135,-0.1,0
-0.001585,0.025065,0,-0.74987,0.17342,-0.16814,0,0,-0.74987,0,-68.562,-2.1308,0,2.7462,0,-19.758,71.047,1,1,2.14,2.14,-0.1,0
-0.0015866,0.025071,0,-0.74986,0.1742,-0.16888,0,0,-0.74986,0,-68.673,-1.8625,0,2.8372,0,-19.764,71.038,1,1,2.145,2.145,-0.1,0
-0.0015882,0.025076,0,-0.74985,0.17498,-0.16963,0,0,-0.74985,0,-68.785,-1.5942,0,2.9281,0,-19.77,71.028,1,1,2.15,2.15,-0.1,0
-0.0015898,0.025082,0,-0.74984,0.17576,-0.17038,0,0,-0.74984,0,-68.896,-1.326,0,3.0191,0,-19.777,71.019,1,1,2.155,2.155,-0.1,0
-0.0015914,0.025088,0,-0.74982,0.17654,-0.17112,0,0,-0.74982,0,-69.008,-1.0577,0,3.1101,0,-19.783,71.009,1,1,2.16,2.16,-0.1,0
-0.001593,0.025093,0,-0.74981,0.17733,-0.17187,0,0,-0.74981,0,-69.119,-0.78947,0,3.2011,0,-19.789,71,1,1,2.165,2.165,-0.1,0
-0.0015945,0.025099,0,-0.7498,0.17811,-0.17262,0,0,-0.7498,0,-69.23,-0.52121,0,3.2921,0,-19.795,70.99,1,1,2.17,2.17,-0.1,0
-0.0015961,0.025104,0,-0.74979,0.17889,-0.17336,0,0,-0.74979,0,-69.342,-0.25296,0,3.383,0,-19.802,70.981,1,1,2.175,2.175,-0.1,0
-0.0015977,0.02511,0,-0.74978,0.17967,-0.17411,0,0,-0.74978,0,-69.453,0.015301,0,3.474,0,-19.808,70.971,1,1,2.18,2.18,-0.1,0
-0.0015993,0.025115,0,-0.74977,0.18046,-0.17486,0,0,-0.74977,0,-69.564,0.28355,0,3.565,0,-19.814,70.961,1,1,2.185,2.185,-0.1,0
-0.0016009,0.025121,0,-0.74976,0.18124,-0.1756,0,0,-0.74976,0,-69.676,0.55181,0,3.6559,0,-19.82,70.952,1,1,2.19,2.19,-0.1,0
-0.0016025,0.025126,0,-0.74975,0.18202,-0.17635,0,0,-0.74975,0,-69.787,0.82006,0,3.7469,0,-19.826,70.942,1,1,2.195,2.195,-0.1,0
-0.0016041,0.025132,0,-0.74974,0.1828,-0.17709,0,0,-0.74974,0,-69.898,1.0883,0,3.8378,0,-19.833,70.933,1,1,2.2,2.2,-0.1,0
-0.0016056,0.025137,0,-0.74973,0.18358,-0.17784,0,0,-0.74973,0,-70.009,1.3566,0,3.9288,0,-19.839,70.923,1,1,2.205,2.205,-0.1,0
-0.0016072,0.025143,0,-0.74971,0.18437,-0.17859,0,0,-0.74971,0,-70.121,1.6248,0,4.0197,0,-19.845,70.913,1,1,2.21,2.21,-0.1,0
-0.0016088,0.025148,0,-0.7497,0.18515,-0.17933,0,0,-0.7497,0,-70.232,1.8931,0,4.1107,0,-19.851,70.904,1,1,2.215,2.215,-0.1,0
-0.0016104,0.025154,0,-0.74969,0.18593,-0.18008,0,0,-0.74969,0,-70.343,2.1613,0,4.2016,0,-19.858,70.894,1,1,2.22,2.22,-0.1,0
-0.001612,0.025159,0,-0.74968,0.18671,-0.18082,0,0,-0.74968,0,-70.454,2.4296,0,4.2925,0,-19.864,70.885,1,1,2.225,2.225,-0.1,0
-0.0016136,0.025165,0,-0.74967,0.18749,-0.18157,0,0,-0.74967,0,-70.566,2.6978,0,4.3835,0,-19.87,70.875,1,1,2.23,2.23,-0.1,0
-0.0016152,0.02517,0,-0.74966,0.18828,-0.18232,0,0,-0.74966,0,-70.677,2.9661,0,4.4744,0,-19.876,70.865,1,1,2.235,2.235,-0.1,0
-0.0016168,0.025176,0,-0.74965,0.18906,-0.18306,0,0,-0.74965,0,-70.788,3.2343,0,4.5653,0,-19.882,70.856,1,1,2.24,2.24,-0.1,0
-0.0016183,0.025181,0,-0.74964,0.18984,-0.18381,0,0,-0.74964,0,-70.899,3.5025,0,4.6562,0,-19.889,70.846,1,1,2.245,2.245,-0.1,0
-0.0016199,0.025187,0,-0.74963,0.19062,-0.18455,0,0,-0.74963,0,-71.01,3.7708,0,4.7471,0,-19.895,70.836,1,1,2.25,2.25,-0.1,0
-0.0016215,0.025192,0,-0.74962,0.1914,-0.1853,0,0,-0.74962,0,-71.122,4.0391,0,4.838,0,-19.901,70.827,1,1,2.255,2.255,-0.1,0
-0.0016231,0.025198,0,-0.7496,0.19218,-0.18605,0,0,-0.7496,0,-71.233,4.3073,0,4.929,0,-19.907,70.817,1,1,2.26,2.26,-0.1,0
-0.0016247,0.025203,0,-0.74959,0.19297,-0.18679,0,0,-0.74959,0,-71.344,4.5755,0,5.0199,0,-19.913,70.807,1,1,2.265,2.265,-0.1,0
-0.0016263,0.025209,0,-0.74958,0.19375,-0.18754,0,0,-0.74958,0,-71.455,4.8438,0,5.1108,0,-19.92,70.797,1,1,2.27,2.27,-0.1,0
-0.0016279,0.025214,0,-0.74957,0.19453,-0.18828,0,0,-0.74957,0,-71.566,5.112,0,5.2016,0,-19.926,70.788,1,1,2.275,2.275,-0.1,0
-0.0016295,0.02522,0,-0.74956,0.19531,-0.18903,0,0,-0.74956,0,-71.677,5.3803,0,5.2925,0,-19.932,70.778,1,1,2.28,2.28,-0.1,0
-0.001631,0.025225,0,-0.74955,0.19609,-0.18978,0,0,-0.74955,0,-71.788,5.6485,0,5.3834,0,-19.938,70.768,1,1,2.285,2.285,-0.1,0
-0.0016326,0.025231,0,-0.74954,0.19687,-0.19052,0,0,-0.74954,0,-71.899,5.9167,0,5.4743,0,-19.944,70.758,1,1,2.29,2.29,-0.1,0
-0.0016342,0.025236,0,-0.74953,0.19766,-0.19127,0,0,-0.74953,0,-72.011,6.185,0,5.5652,0,-19.95,70.749,1,1,2.295,2.295,-0.1,0
-0.0016358,0.025242,0,-0.74952,0.19844,-0.19201,0,0,-0.74952,0,-72.122,6.4532,0,5.6561,0,-19.957,70.739,1,1,2.3,2.3,-0.1,0
-0.0016374,0.025247,0,-0.74951,0.19922,-0.19276,0,0,-0.74951,0,-72.233,6.7215,0,5.7469,0,-19.963,70.729,1,1,2.305,2.305,-0.1,0
-0.001639,0.025253,0,-0.74949,0.2,-0.1935,0,0,-0.74949,0,-72.344,6.9897,0,5.8378,0,-19.969,70.719,1,1,2.31,2.31,-0.1,0
-0.0016406,0.025258,0,-0.74948,0.20078,-0.19425,0,0,-0.74948,0,-72.455,7.258,0,5.9287,0,-19.975,70.71,1,1,2.315,2.315,-0.1,0
-0.0016421,0.025264,0,-0.74947,0.20156,-0.19499,0,0,-0.74947,0,-72.566,7.5262,0,6.0195,0,-19.981,70.7,1,1,2.32,2.32,-0.1,0
-0.0016438,0.025269,0,-0.74946,0.20252,-0.19589,0,0,-0.74946,0,-72.6,7.5959,0,6.0352,0,-19.987,70.666,1,1,2.325,2.325,-0.1,0
-0.0016454,0.025273,0,-0.74945,0.2036,-0.19687,0,0,-0.74945,0,-72.583,7.534,0,6.001,0,-19.992,70.615,1,1,2.33,2.33,-0.1,0
-0.0016471,0.025278,0,-0.74944,0.20467,-0.19786,0,0,-0.74944,0,-72.566,7.472,0,5.9669,0,-19.997,70.565,1,1,2.335,2.335,-0.1,0
-0.0016487,0.025283,0,-0.74943,0.20575,-0.19885,0,0,-0.74943,0,-72.549,7.4101,0,5.9327,0,-20.002,70.515,1,1,2.34,2.34,-0.1,0
-0.0016504,0.025287,0,-0.74943,0.20683,-0.19983,0,0,-0.74943,0,-72.532,7.3482,0,5.8986,0,-20.008,70.465,1,1,2.345,2.345,-0.1,0
-0.001652,0.025292,0,-0.74942,0.2079,-0.20082,0,0,-0.74942,0,-72.516,7.2862,0,5.8644,0,-20.013,70.414,1,1,2.35,2.35,-0.1,0
-0.0016537,0.025296,0,-0.74941,0.20898,-0.20181,0,0,-0.74941,0,-72.499,7.2243,0,5.8303,0,-20.018,70.364,1,1,2.355,2.355,-0.1,0
-0.0016553,0.025301,0,-0.7494,0.21005,-0.20279,0,0,-0.7494,0,-72.482,7.1624,0,5.7961,0,-20.023,70.314,1,1,2.36,2.36,-0.1,0
-0.001657,0.025305,0,-0.74939,0.21113,-0.20378,0,0,-0.74939,0,-72.465,7.1005,0,5.7619,0,-20.028,70.264,1,1,2.365,2.365,-0.1,0
-0.0016586,0.02531,0,-0.74938,0.2122,-0.20477,0,0,-0.74938,0,-72.448,7.0385,0,5.7278,0,-20.033,70.213,1,1,2.37,2.37,-0.1,0
-0.0016603,0.025315,0,-0.74937,0.21328,-0.20576,0,0,-0.74937,0,-72.431,6.9766,0,5.6936,0,-20.038,70.163,1,1,2.375,2.375,-0.1,0
-0.0016619,0.025319,0,-0.74936,0.21435,-0.20674,0,0,-0.74936,0,-72.414,6.9147,0,5.6595,0,-20.044,70.113,1,1,2.38,2.38,-0.1,0
-0.0016636,0.025324,0,-0.74935,0.21543,-0.20773,0,0,-0.74935,0,-72.397,6.8528,0,5.6253,0,-20.049,70.062,1,1,2.385,2.385,-0.1,0
-0.0016652,0.025328,0,-0.74934,0.21651,-0.20872,0,0,-0.74934,0,-72.381,6.7909,0,5.5912,0,-20.054,70.012,1,1,2.39,2.39,-0.1,0
-0.0016669,0.025333,0,-0.74933,0.21758,-0.2097,0,0,-0.74933,0,-72.364,6.7289,0,5.557,0,-20.059,69.962,1,1,2.395,2.395,-0.1,0
-0.0016685,0.025337,0,-0.74933,0.21866,-0.21069,0,0,-0.74933,0,-72.347,6.667,0,5.5229,0,-20.064,69.912,1,1,2.4,2.4,-0.1,0
-0.0016702,0.025342,0,-0.74932,0.21973,-0.21168,0,0,-0.74932,0,-72.33,6.6051,0,5.4887,0,-20.069,69.861,1,1,2.405,2.405,-0.1,0
-0.0016718,0.025346,0,-0.74931,0.22081,-0.21266,0,0,-0.74931,0,-72.313,6.5432,0,5.4545,0,-20.075,69.811,1,1,2.41,2.41,-0.1,0
-0.0016735,0.025351,0,-0.7493,0.22188,-0.21365,0,0,-0.7493,0,-72.296,6.4813,0,5.4204,0,-20.08,69.761,1,1,2.415,2.415,-0.1,0
-0.0016751,0.025356,0,-0.74929,0.22296,-0.21464,0,0,-0.74929,0,-72.279,6.4193,0,5.3862,0,-20.085,69.711,1,1,2.42,2.42,-0.1,0
-0.0016768,0.02536,0,-0.74928,0.22403,-0.21562,0,0,-0.74928,0,-72.262,6.3574,0,5.3521,0,-20.09,69.66,1,1,2.425,2.425,-0.1,0
-0.0016784,0.025365,0,-0.74927,0.22511,-0.21661,0,0,-0.74927,0,-72.245,6.2955,0,5.3179,0,-20.095,69.61,1,1,2.43,2.43,-0.1,0
-0.00168,0.025369,0,-0.74926,0.22618,-0.2176,0,0,-0.74926,0,-72.229,6.2336,0,5.2838,0,-20.1,69.56,1,1,2.435,2.435,-0.1,0
-0.0016817,0.025374,0,-0.74925,0.22726,-0.21858,0,0,-0.74925,0,-72.212,6.1717,0,5.2496,0,-20.105,69.51,1,1,2.44,2.44,-0.1,0
-0.0016833,0.025378,0,-0.74924,0.22833,-0.21957,0,0,-0.74924,0,-72.195,6.1098,0,5.2155,0,-20.111,69.459,1,1,2.445,2.445,-0.1,0
-0.001685,0.025383,0,-0.74923,0.22941,-0.22056,0,0,-0.74923,0,-72.178,6.0479,0,5.1813,0,-20.116,69.409,1,1,2.45,2.45,-0.1,0
-0.0016866,0.025388,0,-0.74922,0.23048,-0.22154,0,0,-0.74922,0,-72.161,5.9859,0,5.1472,0,-20.121,69.359,1,1,2.455,2.455,-0.1,0
-0.0016883,0.025392,0,-0.74922,0.23156,-0.22253,0,0,-0.74922,0,-72.144,5.924,0,5.113,0,-20.126,69.309,1,1,2.46,2.46,-0.1,0
-0.0016899,0.025397,0,-0.74921,0.23263,-0.22351,0,0,-0.74921,0,-72.127,5.8621,0,5.0789,0,-20.131,69.258,1,1,2.465,2.465,-0.1,0
-0.0016916,0.025401,0,-0.7492,0.23371,-0.2245,0,0,-0.7492,0,-72.11,5.8002,0,5.0447,0,-20.136,69.208,1,1,2.47,2.47,-0.1,0
-0.0016932,0.025406,0,-0.74919,0.23478,-0.22549,0,0,-0.74919,0,-72.093,5.7383,0,5.0106,0,-20.141,69.158,1,1,2.475,2.475,-0.1,0
-0.0016949,0.02541,0,-0.74918,0.23586,-0.22647,0,0,-0.74918,0,-72.077,5.6764,0,4.9764,0,-20.147,69.108,1,1,2.48,2.48,-0.1,0
-0.0016965,0.025415,0,-0.74917,0.23693,-0.22746,0,0,-0.74917,0,-72.06,5.6145,0,4.9423,0,-20.152,69.057,1,1,2.485,2.485,-0.1,0
-0.0016982,0.025419,0,-0.74916,0.23801,-0.22845,0,0,-0.74916,0,-72.043,5.5526,0,4.9081,0,-20.157,69.007,1,1,2.49,2.49,-0.1,0
-0.0016998,0.025424,0,-0.74915,0.23908,-0.22943,0,0,-0.74915,0,-72.026,5.4907,0,4.874,0,-20.162,68.957,1,1,2.495,2.495,-0.1,0
-0.0017015,0.025429,0,-0.74914,0.24016,-0.23042,0,0,-0.74914,0,-72.009,5.4288,0,4.8398,0,-20.167,68.906,1,1,2.5,2.5,-0.1,0
-0.0017031,0.025433,0,-0.74913,0.24123,-0.23141,0,0,-0.74913,0,-71.992,5.3669,0,4.8057,0,-20.172,68.856,1,1,2.505,2.505,-0.1,0
-0.0017048,0.025438,0,-0.74912,0.24231,-0.23239,0,0,-0.74912,0,-71.975,5.305,0,4.7715,0,-20.178,68.806,1,1,2.51,2.51,-0.1,0
-0.0017064,0.025442,0,-0.74912,0.24338,-0.23338,0,0,-0.74912,0,-71.958,5.2431,0,4.7374,0,-20.183,68.756,1,1,2.515,2.515,-0.1,0
-0.0017081,0.025447,0,-0.74911,0.24446,-0.23436,0,0,-0.74911,0,-71.941,5.1812,0,4.7032,0,-20.188,68.705,1,1,2.52,2.52,-0.1,0
-0.0017097,0.025451,0,-0.7491,0.24553,-0.23535,0,0,-0.7491,0,-71.924,5.1193,0,4.6691,0,-20.193,68.655,1,1,2.525,2.525,-0.1,0
-0.0017114,0.025456,0,-0.74909,0.24661,-0.23634,0,0,-0.74909,0,-71.908,5.0574,0,4.6349,0,-20.198,68.605,1,1,2.53,2.53,-0.1,0
-0.001713,0.025461,0,-0.74908,0.24768,-0.23732,0,0,-0.74908,0,-71.891,4.9955,0,4.6008,0,-20.203,68.555,1,1,2.535,2.535,-0.1,0
-0.0017147,0.025465,0,-0.74907,0.24876,-0.23831,0,0,-0.74907,0,-71.874,4.9336,0,4.5666,0,-20.208,68.504,1,1,2.54,2.54,-0.1,0
-0.0017163,0.02547,0,-0.74906,0.24983,-0.23929,0,0,-0.74906,0,-71.857,4.8717,0,4.5325,0,-20.214,68.454,1,1,2.545,2.545,-0.1,0
-0.001718,0.025474,0,-0.74905,0.25091,-0.24028,0,0,-0.74905,0,-71.84,4.8098,0,4.4983,0,-20.219,68.404,1,1,2.55,2.55,-0.1,0
-0.0017196,0.025479,0,-0.74904,0.25198,-0.24127,0,0,-0.74904,0,-71.823,4.7479,0,4.4642,0,-20.224,68.354,1,1,2.555,2.555,-0.1,0
-0.0017213,0.025483,0,-0.74903,0.25305,-0.24225,0,0,-0.74903,0,-71.806,4.686,0,4.43,0,-20.229,68.303,1,1,2.56,2.56,-0.1,0
-0.0017229,0.025488,0,-0.74902,0.25413,-0.24324,0,0,-0.74902,0,-71.789,4.6241,0,4.3959,0,-20.234,68.253,1,1,2.565,2.565,-0.1,0
-0.0017246,0.025493,0,-0.74901,0.2552,-0.24422,0,0,-0.74901,0,-71.772,4.5622,0,4.3618,0,-20.239,68.203,1,1,2.57,2.57,-0.1,0
-0.0017262,0.025497,0,-0.74901,0.25628,-0.24521,0,0,-0.74901,0,-71.756,4.5003,0,4.3276,0,-20.244,68.153,1,1,2.575,2.575,-0.1,0
-0.0017279,0.025502,0,-0.749,0.25735,-0.2462,0,0,-0.749,0,-71.739,4.4384,0,4.2935,0,-20.25,68.102,1,1,2.58,2.58,-0.1,0
-0.0017295,0.025506,0,-0.74899,0.25843,-0.24718,0,0,-0.74899,0,-71.722,4.3765,0,4.2593,0,-20.255,68.052,1,1,2.585,2.585,-0.1,0
-0.0017312,0.025511,0,-0.74898,0.2595,-0.24817,0,0,-0.74898,0,-71.705,4.3146,0,4.2252,0,-20.26,68.002,1,1,2.59,2.59,-0.1,0
-0.0017328,0.025515,0,-0.74897,0.26058,-0.24915,0,0,-0.74897,0,-71.688,4.2527,0,4.191,0,-20.265,67.952,1,1,2.595,2.595,-0.1,0
-0.0017345,0.02552,0,-0.74896,0.26165,-0.25014,0,0,-0.74896,0,-71.671,4.1908,0,4.1569,0,-20.27,67.901,1,1,2.6,2.6,-0.1,0
-0.0017361,0.025524,0,-0.74895,0.26272,-0.25113,0,0,-0.74895,0,-71.654,4.1289,0,4.1227,0,-20.275,67.851,1,1,2.605,2.605,-0.1,0
-0.0017378,0.025529,0,-0.74894,0.2638,-0.25211,0,0,-0.74894,0,-71.637,4.067,0,4.0886,0,-20.28,67.801,1,1,2.61,2.61,-0.1,0
-0.0017394,0.025534,0,-0.74893,0.26487,-0.2531,0,0,-0.74893,0,-71.62,4.0051,0,4.0545,0,-20.286,67.75,1,1,2.615,2.615,-0.1,0
-0.0017411,0.025538,0,-0.74892,0.26595,-0.25408,0,0,-0.74892,0,-71.603,3.9433,0,4.0203,0,-20.291,67.7,1,1,2.62,2.62,-0.1,0
-0.0017427,0.025543,0,-0.74891,0.26702,-0.25507,0,0,-0.74891,0,-71.587,3.8814,0,3.9862,0,-20.296,67.65,1,1,2.625,2.625,-0.1,0
-0.0017444,0.025547,0,-0.74891,0.2681,-0.25605,0,0,-0.74891,0,-71.57,3.8195,0,3.952,0,-20.301,67.6,1,1,2.63,2.63,-0.1,0
-0.001746,0.025552,0,-0.7489,0.26917,-0.25704,0,0,-0.7489,0,-71.553,3.7576,0,3.9179,0,-20.306,67.549,1,1,2.635,2.635,-0.1,0
-0.0017477,0.025556,0,-0.74889,0.27024,-0.25802,0,0,-0.74889,0,-71.536,3.6957,0,3.8837,0,-20.311,67.499,1,1,2.64,2.64,-0.1,0
-0.0017493,0.025561,0,-0.74888,0.27132,-0.25901,0,0,-0.74888,0,-71.519,3.6338,0,3.8496,0,-20.316,67.449,1,1,2.645,2.645,-0.1,0
-0.001751,0.025566,0,-0.74887,0.27239,-0.26,0,0,-0.74887,0,-71.502,3.5719,0,3.8155,0,-20.322,67.399,1,1,2.65,2.65,-0.1,0
-0.0017526,0.02557,0,-0.74886,0.27347,-0.26098,0,0,-0.74886,0,-71.485,3.5101,0,3.7813,0,-20.327,67.348,1,1,2.655,2.655,-0.1,0
-0.0017543,0.025575,0,-0.74885,0.27454,-0.26197,0,0,-0.74885,0,-71.468,3.4482,0,3.7472,0,-20.332,67.298,1,1,2.66,2.66,-0.1,0
-0.0017559,0.025579,0,-0.74884,0.27561,-0.26295,0,0,-0.74884,0,-71.451,3.3863,0,3.713,0,-20.337,67.248,1,1,2.665,2.665,-0.1,0
-0.0017576,0.025584,0,-0.74883,0.27669,-0.26394,0,0,-0.74883,0,-71.434,3.3244,0,3.6789,0,-20.342,67.198,1,1,2.67,2.67,-0.1,0
-0.0017592,0.025588,0,-0.74882,0.27776,-0.26492,0,0,-0.74882,0,-71.417,3.2625,0,3.6448,0,-20.347,67.147,1,1,2.675,2.675,-0.1,0
-0.0017609,0.025593,0,-0.74881,0.27884,-0.26591,0,0,-0.74881,0,-71.401,3.2007,0,3.6106,0,-20.352,67.097,1,1,2.68,2.68,-0.1,0
-0.0017625,0.025597,0,-0.74881,0.27991,-0.26689,0,0,-0.74881,0,-71.384,3.1388,0,3.5765,0,-20.358,67.047,1,1,2.685,2.685,-0.1,0
-0.0017642,0.025602,0,-0.7488,0.28098,-0.26788,0,0,-0.7488,0,-71.367,3.0769,0,3.5423,0,-20.363,66.997,1,1,2.69,2.69,-0.1,0
-0.0017658,0.025607,0,-0.74879,0.28206,-0.26886,0,0,-0.74879,0,-71.35,3.015,0,3.5082,0,-20.368,66.946,1,1,2.695,2.695,-0.1,0
-0.0017675,0.025611,0,-0.74878,0.28313,-0.26985,0,0,-0.74878,0,-71.333,2.9531,0,3.4741,0,-20.373,66.896,1,1,2.7,2.7,-0.1,0
-0.0017691,0.025616,0,-0.74877,0.28421,-0.27084,0,0,-0.74877,0,-71.316,2.8913,0,3.4399,0,-20.378,66.846,1,1,2.705,2.705,-0.1,0
-0.0017708,0.02562,0,-0.74876,0.28528,-0.27182,0,0,-0.74876,0,-71.299,2.8294,0,3.4058,0,-20.383,66.796,1,1,2.71,2.71,-0.1,0
-0.0017724,0.025625,0,-0.74875,0.28635,-0.27281,0,0,-0.74875,0,-71.282,2.7675,0,3.3717,0,-20.388,66.745,1,1,2.715,2.715,-0.1,0
-0.0017741,0.025629,0,-0.74874,0.28743,-0.27379,0,0,-0.74874,0,-71.265,2.7056,0,3.3375,0,-20.394,66.695,1,1,2.72,2.72,-0.1,0
-0.0017757,0.025634,0,-0.74873,0.2885,-0.27478,0,0,-0.74873,0,-71.248,2.6438,0,3.3034,0,-20.399,66.645,1,1,2.725,2.725,-0.1,0
-0.0017774,0.025639,0,-0.74872,0.28957,-0.27576,0,0,-0.74872,0,-71.232,2.5819,0,3.2692,0,-20.404,66.594,1,1,2.73,2.73,-0.1,0
-0.001779,0.025643,0,-0.74871,0.29065,-0.27675,0,0,-0.74871,0,-71.215,2.52,0,3.2351,0,-20.409,66.544,1,1,2.735,2.735,-0.1,0
-0.0017807,0.025648,0,-0.7487,0.29172,-0.27773,0,0,-0.7487,0,-71.198,2.4582,0,3.201,0,-20.414,66.494,1,1,2.74,2.74,-0.1,0
-0.0017823,0.025652,0,-0.7487,0.2928,-0.27872,0,0,-0.7487,0,-71.181,2.3963,0,3.1668,0,-20.419,66.444,1,1,2.745,2.745,-0.1,0
-0.001784,0.025657,0,-0.74869,0.29387,-0.2797,0,0,-0.74869,0,-71.164,2.3344,0,3.1327,0,-20.424,66.393,1,1,2.75,2.75,-0.1,0
-0.0017856,0.025661,0,-0.74868,0.29494,-0.28069,0,0,-0.74868,0,-71.147,2.2725,0,3.0986,0,-20.43,66.343,1,1,2.755,2.755,-0.1,0
-0.0017873,0.025666,0,-0.74867,0.29602,-0.28167,0,0,-0.74867,0,-71.13,2.2107,0,3.0644,0,-20.435,66.293,1,1,2.76,2.76,-0.1,0
-0.0017889,0.02567,0,-0.74866,0.29709,-0.28266,0,0,-0.74866,0,-71.113,2.1488,0,3.0303,0,-20.44,66.243,1,1,2.765,2.765,-0.1,0
-0.0017906,0.025675,0,-0.74865,0.29816,-0.28364,0,0,-0.74865,0,-71.096,2.0869,0,2.9962,0,-20.445,66.192,1,1,2.77,2.77,-0.1,0
-0.0017922,0.02568,0,-0.74864,0.29924,-0.28463,0,0,-0.74864,0,-71.079,2.0251,0,2.962,0,-20.45,66.142,1,1,2.775,2.775,-0.1,0
-0.0017939,0.025684,0,-0.74863,0.30031,-0.28561,0,0,-0.74863,0,-71.062,1.9632,0,2.9279,0,-20.455,66.092,1,1,2.78,2.78,-0.1,0
-0.0017955,0.025689,0,-0.74862,0.30138,-0.2866,0,0,-0.74862,0,-71.045,1.9014,0,2.8938,0,-20.46,66.042,1,1,2.785,2.785,-0.1,0
-0.0017972,0.025693,0,-0.74861,0.30246,-0.28758,0,0,-0.74861,0,-71.029,1.8395,0,2.8596,0,-20.465,65.991,1,1,2.79,2.79,-0.1,0
-0.0017988,0.025698,0,-0.7486,0.30353,-0.28857,0,0,-0.7486,0,-71.012,1.7776,0,2.8255,0,-20.471,65.941,1,1,2.795,2.795,-0.1,0
-0.0018005,0.025702,0,-0.7486,0.3046,-0.28955,0,0,-0.7486,0,-70.995,1.7158,0,2.7914,0,-20.476,65.891,1,1,2.8,2.8,-0.1,0
-0.0018021,0.025707,0,-0.74859,0.30568,-0.29054,0,0,-0.74859,0,-70.978,1.6539,0,2.7572,0,-20.481,65.841,1,1,2.805,2.805,-0.1,0
-0.0018037,0.025712,0,-0.74858,0.30675,-0.29152,0,0,-0.74858,0,-70.961,1.592,0,2.7231,0,-20.486,65.79,1,1,2.81,2.81,-0.1,0
-0.0018054,0.025716,0,-0.74857,0.30782,-0.29251,0,0,-0.74857,0,-70.944,1.5302,0,2.689,0,-20.491,65.74,1,1,2.815,2.815,-0.1,0
-0.001807,0.025721,0,-0.74856,0.3089,-0.29349,0,0,-0.74856,0,-70.927,1.4683,0,2.6548,0,-20.496,65.69,1,1,2.82,2.82,-0.1,0
-0.0018087,0.025725,0,-0.74855,0.30997,-0.29447,0,0,-0.74855,0,-70.91,1.4065,0,2.6207,0,-20.501,65.64,1,1,2.825,2.825,-0.1,0
-0.0018103,0.02573,0,-0.74854,0.31104,-0.29546,0,0,-0.74854,0,-70.893,1.3446,0,2.5866,0,-20.507,65.589,1,1,2.83,2.83,-0.1,0
-0.001812,0.025734,0,-0.74853,0.31212,-0.29644,0,0,-0.74853,0,-70.876,1.2828,0,2.5524,0,-20.512,65.539,1,1,2.835,2.835,-0.1,0
-0.0018136,0.025739,0,-0.74852,0.31319,-0.29743,0,0,-0.74852,0,-70.859,1.2209,0,2.5183,0,-20.517,65.489,1,1,2.84,2.84,-0.1,0
-0.0018153,0.025744,0,-0.74851,0.31426,-0.29841,0,0,-0.74851,0,-70.843,1.159,0,2.4842,0,-20.522,65.438,1,1,2.845,2.845,-0.1,0
-0.0018169,0.025748,0,-0.7485,0.31533,-0.2994,0,0,-0.7485,0,-70.826,1.0972,0,2.45,0,-20.527,65.388,1,1,2.85,2.85,-0.1,0
-0.0018186,0.025753,0,-0.74849,0.31641,-0.30038,0,0,-0.74849,0,-70.809,1.0353,0,2.4159,0,-20.532,65.338,1,1,2.855,2.855,-0.1,0
-0.0018202,0.025757,0,-0.74849,0.31748,-0.30137,0,0,-0.74849,0,-70.792,0.97348,0,2.3818,0,-20.537,65.288,1,1,2.86,2.86,-0.1,0
-0.0018219,0.025762,0,-0.74848,0.31855,-0.30235,0,0,-0.74848,0,-70.775,0.91162,0,2.3477,0,-20.542,65.237,1,1,2.865,2.865,-0.1,0
-0.0018235,0.025766,0,-0.74847,0.31963,-0.30334,0,0,-0.74847,0,-70.758,0.84977,0,2.3135,0,-20.548,65.187,1,1,2.87,2.87,-0.1,0
-0.0018252,0.025771,0,-0.74846,0.3207,-0.30432,0,0,-0.74846,0,-70.741,0.78792,0,2.2794,0,-20.553,65.137,1,1,2.875,2.875,-0.1,0
-0.0018268,0.025775,0,-0.74845,0.32177,-0.3053,0,0,-0.74845,0,-70.724,0.72607,0,2.2453,0,-20.558,65.087,1,1,2.88,2.88,-0.1,0
-0.0018285,0.02578,0,-0.74844,0.32284,-0.30629,0,0,-0.74844,0,-70.707,0.66422,0,2.2111,0,-20.563,65.036,1,1,2.885,2.885,-0.1,0
-0.0018301,0.025785,0,-0.74843,0.32392,-0.30727,0,0,-0.74843,0,-70.69,0.60237,0,2.177,0,-20.568,64.986,1,1,2.89,2.89,-0.1,0
-0.0018318,0.025789,0,-0.74842,0.32499,-0.30826,0,0,-0.74842,0,-70.673,0.54052,0,2.1429,0,-20.573,64.936,1,1,2.895,2.895,-0.1,0
-0.0018334,0.025794,0,-0.74841,0.32606,-0.30924,0,0,-0.74841,0,-70.656,0.47867,0,2.1088,0,-20.578,64.886,1,1,2.9,2.9,-0.1,0
-0.0018351,0.025798,0,-0.7484,0.32714,-0.31023,0,0,-0.7484,0,-70.639,0.41683,0,2.0746,0,-20.584,64.835,1,1,2.905,2.905,-0.1,0
-0.0018367,0.025803,0,-0.74839,0.32821,-0.31121,0,0,-0.74839,0,-70.623,0.35498,0,2.0405,0,-20.589,64.785,1,1,2.91,2.91,-0.1,0
-0.0018384,0.025807,0,-0.74839,0.32928,-0.3122,0,0,-0.74839,0,-70.606,0.29314,0,2.0064,0,-20.594,64.735,1,1,2.915,2.915,-0.1,0
-0.00184,0.025812,0,-0.74838,0.33035,-0.31318,0,0,-0.74838,0,-70.589,0.23129,0,1.9723,0,-20.599,64.685,1,1,2.92,2.92,-0.1,0
-0.0018417,0.025817,0,-0.74837,0.33143,-0.31416,0,0,-0.74837,0,-70.572,0.16945,0,1.9381,0,-20.604,64.634,1,1,2.925,2.925,-0.1,0
-0.0018433,0.025821,0,-0.74836,0.3325,-0.31515,0,0,-0.74836,0,-70.555,0.1076,0,1.904,0,-20.609,64.584,1,1,2.93,2.93,-0.1,0
-0.001845,0.025826,0,-0.74835,0.33357,-0.31613,0,0,-0.74835,0,-70.538,0.045761,0,1.8699,0,-20.614,64.534,1,1,2.935,2.935,-0.1,0
-0.0018466,0.02583,0,-0.74834,0.33464,-0.31712,0,0,-0.74834,0,-70.521,-0.016082,0,1.8358,0,-20.619,64.483,1,1,2.94,2.94,-0.1,0
-0.0018483,0.025835,0,-0.74833,0.33572,-0.3181,0,0,-0.74833,0,-70.504,-0.077922,0,1.8016,0,-20.625,64.433,1,1,2.945,2.945,-0.1,0
-0.0018499,0.025839,0,-0.74832,0.33679,-0.31908,0,0,-0.74832,0,-70.487,-0.13976,0,1.7675,0,-20.63,64.383,1,1,2.95,2.95,-0.1,0
-0.0018516,0.025844,0,-0.74831,0.33786,-0.32007,0,0,-0.74831,0,-70.47,-0.2016,0,1.7334,0,-20.635,64.333,1,1,2.955,2.955,-0.1,0
-0.0018532,0.025848,0,-0.7483,0.33893,-0.32105,0,0,-0.7483,0,-70.453,-0.26344,0,1.6993,0,-20.64,64.282,1,1,2.96,2.96,-0.1,0
-0.0018549,0.025853,0,-0.74829,0.34001,-0.32204,0,0,-0.74829,0,-70.436,-0.32528,0,1.6651,0,-20.645,64.232,1,1,2.965,2.965,-0.1,0
-0.0018565,0.025858,0,-0.74828,0.34108,-0.32302,0,0,-0.74828,0,-70.419,-0.38712,0,1.631,0,-20.65,64.182,1,1,2.97,2.97,-0.1,0
-0.0018582,0.025862,0,-0.74828,0.34215,-0.324,0,0,-0.74828,0,-70.403,-0.44895,0,1.5969,0,-20.655,64.132,1,1,2.975,2.975,-0.1,0
-0.0018598,0.025867,0,-0.74827,0.34322,-0.32499,0,0,-0.74827,0,-70.386,-0.51079,0,1.5628,0,-20.661,64.081,1,1,2.98,2.98,-0.1,0
-0.0018615,0.025871,0,-0.74826,0.3443,-0.32597,0,0,-0.74826,0,-70.369,-0.57263,0,1.5286,0,-20.666,64.031,1,1,2.985,2.985,-0.1,0
-0.0018631,0.025876,0,-0.74825,0.34537,-0.32696,0,0,-0.74825,0,-70.352,-0.63446,0,1.4945,0,-20.671,63.981,1,1,2.99,2.99,-0.1,0
-0.0018648,0.02588,0,-0.74824,0.34644,-0.32794,0,0,-0.74824,0,-70.335,-0.69629,0,1.4604,0,-20.676,63.931,1,1,2.995,2.995,-0.1,0
-0.0018664,0.025885,0,-0.74823,0.34751,-0.32892,0,0,-0.74823,0,-70.318,-0.75813,0,1.4263,0,-20.681,63.88,1,1,3,3,-0.1,0
-0.0018681,0.02589,0,-0.74822,0.34859,-0.32991,0,0,-0.74822,0,-70.301,-0.81996,0,1.3922,0,-20.686,63.83,1,1,3.005,3.005,-0.1,0
-0.0018697,0.025894,0,-0.74821,0.34966,-0.33089,0,0,-0.74821,0,-70.284,-0.88179,0,1.358,0,-20.691,63.78,1,1,3.01,3.01,-0.1,0
-0.0018714,0.025899,0,-0.7482,0.35073,-0.33188,0,0,-0.7482,0,-70.267,-0.94363,0,1.3239,0,-20.696,63.73,1,1,3.015,3.015,-0.1,0
-0.001873,0.025903,0,-0.74819,0.3518,-0.33286,0,0,-0.74819,0,-70.25,-1.0055,0,1.2898,0,-20.702,63.679,1,1,3.02,3.02,-0.1,0
-0.0018747,0.025908,0,-0.74818,0.35287,-0.33384,0,0,-0.74818,0,-70.233,-1.0673,0,1.2557,0,-20.707,63.629,1,1,3.025,3.025,-0.1,0
-0.0018763,0.025912,0,-0.74818,0.35395,-0.33483,0,0,-0.74818,0,-70.216,-1.1291,0,1.2216,0,-20.712,63.579,1,1,3.03,3.03,-0.1,0
-0.001878,0.025917,0,-0.74817,0.35502,-0.33581,0,0,-0.74817,0,-70.199,-1.1909,0,1.1874,0,-20.717,63.528,1,1,3.035,3.035,-0.1,0
-0.0018796,0.025921,0,-0.74816,0.35609,-0.33679,0,0,-0.74816,0,-70.183,-1.2528,0,1.1533,0,-20.722,63.478,1,1,3.04,3.04,-0.1,0
-0.0018813,0.025926,0,-0.74815,0.35716,-0.33778,0,0,-0.74815,0,-70.166,-1.3146,0,1.1192,0,-20.727,63.428,1,1,3.045,3.045,-0.1,0
-0.0018829,0.025931,0,-0.74814,0.35823,-0.33876,0,0,-0.74814,0,-70.149,-1.3764,0,1.0851,0,-20.732,63.378,1,1,3.05,3.05,-0.1,0
-0.0018846,0.025935,0,-0.74813,0.3593,-0.33974,0,0,-0.74813,0,-70.132,-1.4386,0,1.0508,0,-20.737,63.327,1,1,3.055,3.055,-0.1,0
-0.0018862,0.025939,0,-0.74812,0.36072,-0.34097,0,0,-0.74812,0,-70.118,-1.4234,0,1.0517,0,-20.733,63.315,1,1,3.06,3.06,-0.1,0
-0.0018878,0.025943,0,-0.74811,0.36213,-0.34219,0,0,-0.74811,0,-70.103,-1.4081,0,1.0526,0,-20.728,63.302,1,1,3.065,3.065,-0.1,0
-0.0018893,0.025947,0,-0.74811,0.36355,-0.34341,0,0,-0.74811,0,-70.089,-1.3928,0,1.0536,0,-20.724,63.289,1,1,3.07,3.07,-0.1,0
-0.0018909,0.025951,0,-0.7481,0.36496,-0.34464,0,0,-0.7481,0,-70.075,-1.3775,0,1.0545,0,-20.719,63.277,1,1,3.075,3.075,-0.1,0
-0.0018925,0.025955,0,-0.74809,0.36638,-0.34586,0,0,-0.74809,0,-70.061,-1.3623,0,1.0555,0,-20.715,63.264,1,1,3.08,3.08,-0.1,0
-0.0018941,0.025959,0,-0.74808,0.36779,-0.34708,0,0,-0.74808,0,-70.047,-1.347,0,1.0564,0,-20.71,63.252,1,1,3.085,3.085,-0.1,0
-0.0018957,0.025963,0,-0.74807,0.36921,-0.3483,0,0,-0.74807,0,-70.033,-1.3317,0,1.0573,0,-20.706,63.239,1,1,3.09,3.09,-0.1,0
-0.0018972,0.025967,0,-0.74807,0.37062,-0.34953,0,0,-0.74807,0,-70.018,-1.3165,0,1.0583,0,-20.701,63.227,1,1,3.095,3.095,-0.1,0
-0.0018988,0.025971,0,-0.74806,0.37204,-0.35075,0,0,-0.74806,0,-70.004,-1.3012,0,1.0592,0,-20.697,63.214,1,1,3.1,3.1,-0.1,0
-0.0019004,0.025975,0,-0.74805,0.37345,-0.35197,0,0,-0.74805,0,-69.99,-1.2859,0,1.0601,0,-20.692,63.201,1,1,3.105,3.105,-0.1,0
-0.001902,0.025979,0,-0.74804,0.37487,-0.3532,0,0,-0.74804,0,-69.976,-1.2706,0,1.0611,0,-20.688,63.189,1,1,3.11,3.11,-0.1,0
-0.0019036,0.025983,0,-0.74803,0.37628,-0.35442,0,0,-0.74803,0,-69.962,-1.2554,0,1.062,0,-20.683,63.176,1,1,3.115,3.115,-0.1,0
-0.0019051,0.025987,0,-0.74803,0.3777,-0.35564,0,0,-0.74803,0,-69.948,-1.2401,0,1.0629,0,-20.679,63.164,1,1,3.12,3.12,-0.1,0
-0.0019067,0.025991,0,-0.74802,0.37911,-0.35686,0,0,-0.74802,0,-69.933,-1.2248,0,1.0639,0,-20.674,63.151,1,1,3.125,3.125,-0.1,0
-0.0019083,0.025995,0,-0.74801,0.38053,-0.35809,0,0,-0.74801,0,-69.919,-1.2096,0,1.0648,0,-20.669,63.138,1,1,3.13,3.13,-0.1,0
-0.0019099,0.025999,0,-0.748,0.38194,-0.35931,0,0,-0.748,0,-69.905,-1.1943,0,1.0658,0,-20.665,63.126,1,1,3.135,3.135,-0.1,0
-0.0019115,0.026003,0,-0.74799,0.38335,-0.36053,0,0,-0.74799,0,-69.891,-1.179,0,1.0667,0,-20.66,63.113,1,1,3.14,3.14,-0.1,0
-0.001913,0.026007,0,-0.74799,0.38477,-0.36175,0,0,-0.74799,0,-69.877,-1.1638,0,1.0676,0,-20.656,63.101,1,1,3.145,3.145,-0.1,0
-0.0019146,0.026011,0,-0.74798,0.38618,-0.36298,0,0,-0.74798,0,-69.862,-1.1485,0,1.0686,0,-20.651,63.088,1,1,3.15,3.15,-0.1,0
-0.0019162,0.026014,0,-0.74797,0.3876,-0.3642,0,0,-0.74797,0,-69.848,-1.1332,0,1.0695,0,-20.647,63.075,1,1,3.155,3.155,-0.1,0
-0.0019178,0.026018,0,-0.74796,0.38901,-0.36542,0,0,-0.74796,0,-69.834,-1.118,0,1.0704,0,-20.642,63.063,1,1,3.16,3.16,-0.1,0
-0.0019194,0.026022,0,-0.74796,0.39043,-0.36664,0,0,-0.74796,0,-69.82,-1.1027,0,1.0714,0,-20.638,63.05,1,1,3.165,3.165,-0.1,0
-0.0019209,0.026026,0,-0.74795,0.39184,-0.36787,0,0,-0.74795,0,-69.806,-1.0874,0,1.0723,0,-20.633,63.038,1,1,3.17,3.17,-0.1,0
-0.0019225,0.02603,0,-0.74794,0.39325,-0.36909,0,0,-0.74794,0,-69.792,-1.0722,0,1.0732,0,-20.629,63.025,1,1,3.175,3.175,-0.1,0
-0.0019241,0.026034,0,-0.74793,0.39467,-0.37031,0,0,-0.74793,0,-69.777,-1.0569,0,1.0742,0,-20.624,63.012,1,1,3.18,3.18,-0.1,0
-0.0019257,0.026038,0,-0.74792,0.39608,-0.37153,0,0,-0.74792,0,-69.763,-1.0416,0,1.0751,0,-20.62,63,1,1,3.185,3.185,-0.1,0
-0.0019273,0.026042,0,-0.74792,0.3975,-0.37276,0,0,-0.74792,0,-69.749,-1.0264,0,1.0761,0,-20.615,62.987,1,1,3.19,3.19,-0.1,0
-0.0019288,0.026046,0,-0.74791,0.39891,-0.37398,0,0,-0.74791,0,-69.735,-1.0111,0,1.077,0,-20.611,62.975,1,1,3.195,3.195,-0.1,0
-0.0019304,0.02605,0,-0.7479,0.40033,-0.3752,0,0,-0.7479,0,-69.721,-0.99583,0,1.0779,0,-20.606,62.962,1,1,3.2,3.2,-0.1,0
-0.001932,0.026054,0,-0.74789,0.40174,-0.37642,0,0,-0.74789,0,-69.706,-0.98057,0,1.0789,0,-20.601,62.949,1,1,3.205,3.205,-0.1,0
-0.0019336,0.026058,0,-0.74788,0.40315,-0.37764,0,0,-0.74788,0,-69.692,-0.9653,0,1.0798,0,-20.597,62.937,1,1,3.21,3.21,-0.1,0
-0.0019352,0.026062,0,-0.74788,0.40457,-0.37887,0,0,-0.74788,0,-69.678,-0.95004,0,1.0808,0,-20.592,62.924,1,1,3.215,3.215,-0.1,0
-0.0019367,0.026066,0,-0.74787,0.40598,-0.38009,0,0,-0.74787,0,-69.664,-0.93478,0,1.0817,0,-20.588,62.912,1,1,3.22,3.22,-0.1,0
-0.0019383,0.02607,0,-0.74786,0.4074,-0.38131,0,0,-0.74786,0,-69.65,-0.91951,0,1.0826,0,-20.583,62.899,1,1,3.225,3.225,-0.1,0
-0.0019399,0.026074,0,-0.74785,0.40881,-0.38253,0,0,-0.74785,0,-69.635,-0.90425,0,1.0836,0,-20.579,62.886,1,1,3.23,3.23,-0.1,0
-0.0019415,0.026078,0,-0.74784,0.41022,-0.38376,0,0,-0.74784,0,-69.621,-0.88899,0,1.0845,0,-20.574,62.874,1,1,3.235,3.235,-0.1,0
-0.0019431,0.026082,0,-0.74784,0.41164,-0.38498,0,0,-0.74784,0,-69.607,-0.87373,0,1.0854,0,-20.57,62.861,1,1,3.24,3.24,-0.1,0
-0.0019446,0.026086,0,-0.74783,0.41305,-0.3862,0,0,-0.74783,0,-69.593,-0.85846,0,1.0864,0,-20.565,62.849,1,1,3.245,3.245,-0.1,0
-0.0019462,0.02609,0,-0.74782,0.41446,-0.38742,0,0,-0.74782,0,-69.579,-0.8432,0,1.0873,0,-20.561,62.836,1,1,3.25,3.25,-0.1,0
-0.0019478,0.026094,0,-0.74781,0.41588,-0.38864,0,0,-0.74781,0,-69.564,-0.82794,0,1.0883,0,-20.556,62.823,1,1,3.255,3.255,-0.1,0
-0.0019494,0.026098,0,-0.7478,0.41729,-0.38987,0,0,-0.7478,0,-69.55,-0.81268,0,1.0892,0,-20.551,62.811,1,1,3.26,3.26,-0.1,0
-0.001951,0.026102,0,-0.7478,0.41871,-0.39109,0,0,-0.7478,0,-69.536,-0.79742,0,1.0901,0,-20.547,62.798,1,1,3.265,3.265,-0.1,0
-0.0019525,0.026106,0,-0.74779,0.42012,-0.39231,0,0,-0.74779,0,-69.522,-0.78216,0,1.0911,0,-20.542,62.785,1,1,3.27,3.27,-0.1,0
-0.0019541,0.02611,0,-0.74778,0.42153,-0.39353,0,0,-0.74778,0,-69.508,-0.7669,0,1.092,0,-20.538,62.773,1,1,3.275,3.275,-0.1,0
-0.0019557,0.026114,0,-0.74777,0.42295,-0.39475,0,0,-0.74777,0,-69.493,-0.75164,0,1.093,0,-20.533,62.76,1,1,3.28,3.28,-0.1,0
-0.0019573,0.026118,0,-0.74776,0.42436,-0.39598,0,0,-0.74776,0,-69.479,-0.73638,0,1.0939,0,-20.529,62.748,1,1,3.285,3.285,-0.1,0
-0.0019589,0.026122,0,-0.74776,0.42577,-0.3972,0,0,-0.74776,0,-69.465,-0.72112,0,1.0948,0,-20.524,62.735,1,1,3.29,3.29,-0.1,0
-0.0019604,0.026126,0,-0.74775,0.42719,-0.39842,0,0,-0.74775,0,-69.451,-0.70586,0,1.0958,0,-20.52,62.722,1,1,3.295,3.295,-0.1,0
-0.001962,0.026129,0,-0.74774,0.4286,-0.39964,0,0,-0.74774,0,-69.437,-0.6906,0,1.0967,0,-20.515,62.71,1,1,3.3,3.3,-0.1,0
-0.0019636,0.026133,0,-0.74773,0.43001,-0.40086,0,0,-0.74773,0,-69.422,-0.67535,0,1.0977,0,-20.511,62.697,1,1,3.305,3.305,-0.1,0
-0.0019652,0.026137,0,-0.74773,0.43143,-0.40208,0,0,-0.74773,0,-69.408,-0.66009,0,1.0986,0,-20.506,62.685,1,1,3.31,3.31,-0.1,0
-0.0019668,0.026141,0,-0.74772,0.43284,-0.40331,0,0,-0.74772,0,-69.394,-0.64483,0,1.0995,0,-20.501,62.672,1,1,3.315,3.315,-0.1,0
-0.0019683,0.026145,0,-0.74771,0.43425,-0.40453,0,0,-0.74771,0,-69.38,-0.62957,0,1.1005,0,-20.497,62.659,1,1,3.32,3.32,-0.1,0
-0.0019699,0.026149,0,-0.7477,0.43567,-0.40575,0,0,-0.7477,0,-69.366,-0.61432,0,1.1014,0,-20.492,62.647,1,1,3.325,3.325,-0.1,0
-0.0019715,0.026153,0,-0.74769,0.43708,-0.40697,0,0,-0.74769,0,-69.351,-0.59906,0,1.1024,0,-20.488,62.634,1,1,3.33,3.33,-0.1,0
-0.0019731,0.026157,0,-0.74769,0.43849,-0.40819,0,0,-0.74769,0,-69.337,-0.5838,0,1.1033,0,-20.483,62.621,1,1,3.335,3.335,-0.1,0
-0.0019747,0.026161,0,-0.74768,0.43991,-0.40941,0,0,-0.74768,0,-69.323,-0.56855,0,1.1043,0,-20.479,62.609,1,1,3.34,3.34,-0.1,0
-0.0019762,0.026165,0,-0.74767,0.44132,-0.41064,0,0,-0.74767,0,-69.309,-0.55329,0,1.1052,0,-20.474,62.596,1,1,3.345,3.345,-0.1,0
-0.0019778,0.026169,0,-0.74766,0.44273,-0.41186,0,0,-0.74766,0,-69.295,-0.53804,0,1.1061,0,-20.47,62.584,1,1,3.35,3.35,-0.1,0
-0.0019794,0.026173,0,-0.74765,0.44415,-0.41308,0,0,-0.74765,0,-69.28,-0.52278,0,1.1071,0,-20.465,62.571,1,1,3.355,3.355,-0.1,0
-0.001981,0.026177,0,-0.74765,0.44556,-0.4143,0,0,-0.74765,0,-69.266,-0.50753,0,1.108,0,-20.461,62.558,1,1,3.36,3.36,-0.1,0
-0.0019826,0.026181,0,-0.74764,0.44697,-0.41552,0,0,-0.74764,0,-69.252,-0.49227,0,1.109,0,-20.456,62.546,1,1,3.365,3.365,-0.1,0
-0.0019841,0.026185,0,-0.74763,0.44839,-0.41674,0,0,-0.74763,0,-69.238,-0.47702,0,1.1099,0,-20.451,62.533,1,1,3.37,3.37,-0.1,0
-0.0019857,0.026189,0,-0.74762,0.4498,-0.41796,0,0,-0.74762,0,-69.223,-0.46177,0,1.1108,0,-20.447,62.52,1,1,3.375,3.375,-0.1,0
-0.0019873,0.026193,0,-0.74761,0.45121,-0.41919,0,0,-0.74761,0,-69.209,-0.44651,0,1.1118,0,-20.442,62.508,1,1,3.38,3.38,-0.1,0
-0.0019889,0.026197,0,-0.74761,0.45263,-0.42041,0,0,-0.74761,0,-69.195,-0.43126,0,1.1127,0,-20.438,62.495,1,1,3.385,3.385,-0.1,0
-0.0019905,0.026201,0,-0.7476,0.45404,-0.42163,0,0,-0.7476,0,-69.181,-0.41601,0,1.1137,0,-20.433,62.483,1,1,3.39,3.39,-0.1,0
-0.001992,0.026205,0,-0.74759,0.45545,-0.42285,0,0,-0.74759,0,-69.167,-0.40075,0,1.1146,0,-20.429,62.47,1,1,3.395,3.395,-0.1,0
-0.0019936,0.026209,0,-0.74758,0.45686,-0.42407,0,0,-0.74758,0,-69.152,-0.3855,0,1.1156,0,-20.424,62.457,1,1,3.4,3.4,-0.1,0
-0.0019952,0.026213,0,-0.74757,0.45828,-0.42529,0,0,-0.74757,0,-69.138,-0.37025,0,1.1165,0,-20.42,62.445,1,1,3.405,3.405,-0.1,0
-0.0019968,0.026217,0,-0.74757,0.45969,-0.42651,0,0,-0.74757,0,-69.124,-0.355,0,1.1174,0,-20.415,62.432,1,1,3.41,3.41,-0.1,0
-0.0019984,0.026221,0,-0.74756,0.4611,-0.42773,0,0,-0.74756,0,-69.11,-0.33975,0,1.1184,0,-20.41,62.419,1,1,3.415,3.415,-0.1,0
-0.0019999,0.026225,0,-0.74755,0.46252,-0.42896,0,0,-0.74755,0,-69.095,-0.3245,0,1.1193,0,-20.406,62.407,1,1,3.42,3.42,-0.1,0
-0.0020015,0.026229,0,-0.74754,0.46393,-0.43018,0,0,-0.74754,0,-69.081,-0.30925,0,1.1203,0,-20.401,62.394,1,1,3.425,3.425,-0.1,0
-0.0020031,0.026233,0,-0.74753,0.46534,-0.4314,0,0,-0.74753,0,-69.067,-0.294,0,1.1212,0,-20.397,62.381,1,1,3.43,3.43,-0.1,0
-0.0020047,0.026237,0,-0.74753,0.46675,-0.43262,0,0,-0.74753,0,-69.053,-0.27875,0,1.1222,0,-20.392,62.369,1,1,3.435,3.435,-0.1,0
-0.0020063,0.026241,0,-0.74752,0.46817,-0.43384,0,0,-0.74752,0,-69.039,-0.2635,0,1.1231,0,-20.388,62.356,1,1,3.44,3.44,-0.1,0
-0.0020078,0.026244,0,-0.74751,0.46958,-0.43506,0,0,-0.74751,0,-69.024,-0.24825,0,1.1241,0,-20.383,62.344,1,1,3.445,3.445,-0.1,0
-0.0020094,0.026248,0,-0.7475,0.47099,-0.43628,0,0,-0.7475,0,-69.01,-0.233,0,1.125,0,-20.379,62.331,1,1,3.45,3.45,-0.1,0
-0.002011,0.026252,0,-0.7475,0.4724,-0.4375,0,0,-0.7475,0,-68.996,-0.21775,0,1.1259,0,-20.374,62.318,1,1,3.455,3.455,-0.1,0
-0.0020126,0.026256,0,-0.74749,0.47382,-0.43872,0,0,-0.74749,0,-68.982,-0.2025,0,1.1269,0,-20.369,62.306,1,1,3.46,3.46,-0.1,0
-0.0020142,0.02626,0,-0.74748,0.47523,-0.43994,0,0,-0.74748,0,-68.967,-0.18725,0,1.1278,0,-20.365,62.293,1,1,3.465,3.465,-0.1,0
-0.0020158,0.026264,0,-0.74747,0.47664,-0.44117,0,0,-0.74747,0,-68.953,-0.17201,0,1.1288,0,-20.36,62.28,1,1,3.47,3.47,-0.1,0
-0.0020173,0.026268,0,-0.74746,0.47805,-0.44239,0,0,-0.74746,0,-68.939,-0.15676,0,1.1297,0,-20.356,62.268,1,1,3.475,3.475,-0.1,0
-0.0020189,0.026272,0,-0.74746,0.47947,-0.44361,0,0,-0.74746,0,-68.925,-0.14151,0,1.1307,0,-20.351,62.255,1,1,3.48,3.48,-0.1,0
-0.0020205,0.026276,0,-0.74745,0.48088,-0.44483,0,0,-0.74745,0,-68.91,-0.12627,0,1.1316,0,-20.347,62.242,1,1,3.485,3.485,-0.1,0
-0.0020221,0.02628,0,-0.74744,0.48229,-0.44605,0,0,-0.74744,0,-68.896,-0.11102,0,1.1326,0,-20.342,62.23,1,1,3.49,3.49,-0.1,0
-0.0020237,0.026284,0,-0.74743,0.4837,-0.44727,0,0,-0.74743,0,-68.882,-0.095773,0,1.1335,0,-20.338,62.217,1,1,3.495,3.495,-0.1,0
-0.0020252,0.026288,0,-0.74742,0.48512,-0.44849,0,0,-0.74742,0,-68.868,-0.080527,0,1.1344,0,-20.333,62.205,1,1,3.5,3.5,-0.1,0
-0.0020268,0.026292,0,-0.74742,0.48653,-0.44971,0,0,-0.74742,0,-68.853,-0.065281,0,1.1354,0,-20.328,62.192,1,1,3.505,3.505,-0.1,0
-0.0020284,0.026296,0,-0.74741,0.48794,-0.45093,0,0,-0.74741,0,-68.839,-0.050036,0,1.1363,0,-20.324,62.179,1,1,3.51,3.51,-0.1,0
-0.00203,0.0263,0,-0.7474,0.48935,-0.45215,0,0,-0.7474,0,-68.825,-0.034791,0,1.1373,0,-20.319,62.167,1,1,3.515,3.515,-0.1,0
-0.0020316,0.026304,0,-0.74739,0.49076,-0.45337,0,0,-0.74739,0,-68.811,-0.019547,0,1.1382,0,-20.315,62.154,1,1,3.52,3.52,-0.1,0
-0.0020331,0.026308,0,-0.74738,0.49218,-0.45459,0,0,-0.74738,0,-68.796,-0.0043023,0,1.1392,0,-20.31,62.141,1,1,3.525,3.525,-0.1,0
-0.0020347,0.026312,0,-0.74738,0.49359,-0.45581,0,0,-0.74738,0,-68.782,0.010941,0,1.1401,0,-20.306,62.129,1,1,3.53,3.53,-0.1,0
-0.0020363,0.026316,0,-0.74737,0.495,-0.45703,0,0,-0.74737,0,-68.768,0.026185,0,1.1411,0,-20.301,62.116,1,1,3.535,3.535,-0.1,0
-0.0020379,0.02632,0,-0.74736,0.49641,-0.45826,0,0,-0.74736,0,-68.754,0.041428,0,1.142,0,-20.297,62.103,1,1,3.54,3.54,-0.1,0
-0.0020395,0.026324,0,-0.74735,0.49782,-0.45948,0,0,-0.74735,0,-68.739,0.056671,0,1.143,0,-20.292,62.091,1,1,3.545,3.545,-0.1,0
-0.002041,0.026328,0,-0.74734,0.49924,-0.4607,0,0,-0.74734,0,-68.725,0.071914,0,1.1439,0,-20.287,62.078,1,1,3.55,3.55,-0.1,0
-0.0020426,0.026332,0,-0.74734,0.50065,-0.46192,0,0,-0.74734,0,-68.711,0.087156,0,1.1448,0,-20.283,62.065,1,1,3.555,3.555,-0.1,0
-0.0020442,0.026336,0,-0.74733,0.50206,-0.46314,0,0,-0.74733,0,-68.697,0.1024,0,1.1458,0,-20.278,62.053,1,1,3.56,3.56,-0.1,0
-0.0020458,0.02634,0,-0.74732,0.50347,-0.46436,0,0,-0.74732,0,-68.682,0.11764,0,1.1467,0,-20.274,62.04,1,1,3.565,3.565,-0.1,0
-0.0020474,0.026344,0,-0.74731,0.50488,-0.46558,0,0,-0.74731,0,-68.668,0.13288,0,1.1477,0,-20.269,62.027,1,1,3.57,3.57,-0.1,0
-0.0020489,0.026348,0,-0.7473,0.5063,-0.4668,0,0,-0.7473,0,-68.654,0.14812,0,1.1486,0,-20.265,62.015,1,1,3.575,3.575,-0.1,0
-0.0020505,0.026352,0,-0.7473,0.50771,-0.46802,0,0,-0.7473,0,-68.64,0.16336,0,1.1496,0,-20.26,62.002,1,1,3.58,3.58,-0.1,0
-0.0020521,0.026356,0,-0.74729,0.50912,-0.46924,0,0,-0.74729,0,-68.625,0.1786,0,1.1505,0,-20.255,61.989,1,1,3.585,3.585,-0.1,0
-0.0020537,0.026359,0,-0.74728,0.51053,-0.47046,0,0,-0.74728,0,-68.611,0.19384,0,1.1515,0,-20.251,61.977,1,1,3.59,3.59,-0.1,0
-0.0020553,0.026363,0,-0.74727,0.51194,-0.47168,0,0,-0.74727,0,-68.597,0.20908,0,1.1524,0,-20.246,61.964,1,1,3.595,3.595,-0.1,0
-0.0020568,0.026367,0,-0.74727,0.51335,-0.4729,0,0,-0.74727,0,-68.583,0.22432,0,1.1534,0,-20.242,61.951,1,1,3.6,3.6,-0.1,0
-0.0020584,0.026371,0,-0.74726,0.51477,-0.47412,0,0,-0.74726,0,-68.568,0.23956,0,1.1543,0,-20.237,61.939,1,1,3.605,3.605,-0.1,0
-0.00206,0.026375,0,-0.74725,0.51618,-0.47534,0,0,-0.74725,0,-68.554,0.2548,0,1.1553,0,-20.233,61.926,1,1,3.61,3.61,-0.1,0
-0.0020616,0.026379,0,-0.74724,0.51759,-0.47656,0,0,-0.74724,0,-68.54,0.27004,0,1.1562,0,-20.228,61.913,1,1,3.615,3.615,-0.1,0
-0.0020632,0.026383,0,-0.74723,0.519,-0.47778,0,0,-0.74723,0,-68.526,0.28528,0,1.1572,0,-20.224,61.901,1,1,3.62,3.62,-0.1,0
-0.0020647,0.026387,0,-0.74723,0.52041,-0.479,0,0,-0.74723,0,-68.511,0.30051,0,1.1581,0,-20.219,61.888,1,1,3.625,3.625,-0.1,0
-0.0020663,0.026391,0,-0.74722,0.52182,-0.48022,0,0,-0.74722,0,-68.497,0.31575,0,1.1591,0,-20.214,61.875,1,1,3.63,3.63,-0.1,0
-0.0020679,0.026395,0,-0.74721,0.52324,-0.48144,0,0,-0.74721,0,-68.483,0.33099,0,1.16,0,-20.21,61.863,1,1,3.635,3.635,-0.1,0
-0.0020695,0.026399,0,-0.7472,0.52465,-0.48266,0,0,-0.7472,0,-68.468,0.34623,0,1.161,0,-20.205,61.85,1,1,3.64,3.64,-0.1,0
-0.0020711,0.026403,0,-0.74719,0.52606,-0.48388,0,0,-0.74719,0,-68.454,0.36146,0,1.1619,0,-20.201,61.837,1,1,3.645,3.645,-0.1,0
-0.0020726,0.026407,0,-0.74719,0.52747,-0.4851,0,0,-0.74719,0,-68.44,0.3767,0,1.1628,0,-20.196,61.825,1,1,3.65,3.65,-0.1,0
-0.0020742,0.026411,0,-0.74718,0.52888,-0.48632,0,0,-0.74718,0,-68.426,0.39194,0,1.1638,0,-20.192,61.812,1,1,3.655,3.655,-0.1,0
-0.0020758,0.026415,0,-0.74717,0.53029,-0.48754,0,0,-0.74717,0,-68.411,0.40717,0,1.1647,0,-20.187,61.799,1,1,3.66,3.66,-0.1,0
-0.0020774,0.026419,0,-0.74716,0.5317,-0.48876,0,0,-0.74716,0,-68.397,0.42241,0,1.1657,0,-20.182,61.787,1,1,3.665,3.665,-0.1,0
-0.002079,0.026423,0,-0.74715,0.53311,-0.48998,0,0,-0.74715,0,-68.383,0.43764,0,1.1666,0,-20.178,61.774,1,1,3.67,3.67,-0.1,0
-0.0020806,0.026427,0,-0.74715,0.53453,-0.4912,0,0,-0.74715,0,-68.369,0.45288,0,1.1676,0,-20.173,61.761,1,1,3.675,3.675,-0.1,0
-0.0020821,0.026431,0,-0.74714,0.53594,-0.49242,0,0,-0.74714,0,-68.354,0.46811,0,1.1685,0,-20.169,61.749,1,1,3.68,3.68,-0.1,0
-0.0020837,0.026435,0,-0.74713,0.53735,-0.49364,0,0,-0.74713,0,-68.34,0.48334,0,1.1695,0,-20.164,61.736,1,1,3.685,3.685,-0.1,0
-0.0020853,0.026439,0,-0.74712,0.53876,-0.49486,0,0,-0.74712,0,-68.326,0.49858,0,1.1704,0,-20.16,61.723,1,1,3.69,3.69,-0.1,0
-0.0020869,0.026443,0,-0.74711,0.54017,-0.49608,0,0,-0.74711,0,-68.311,0.51381,0,1.1714,0,-20.155,61.711,1,1,3.695,3.695,-0.1,0
-0.0020885,0.026447,0,-0.74711,0.54158,-0.4973,0,0,-0.74711,0,-68.297,0.52905,0,1.1723,0,-20.15,61.698,1,1,3.7,3.7,-0.1,0
-0.00209,0.026451,0,-0.7471,0.54299,-0.49852,0,0,-0.7471,0,-68.283,0.54428,0,1.1733,0,-20.146,61.685,1,1,3.705,3.705,-0.1,0
-0.0020916,0.026455,0,-0.74709,0.5444,-0.49974,0,0,-0.74709,0,-68.269,0.55951,0,1.1742,0,-20.141,61.673,1,1,3.71,3.71,-0.1,0
-0.0020932,0.026459,0,-0.74708,0.54581,-0.50096,0,0,-0.74708,0,-68.254,0.57474,0,1.1752,0,-20.137,61.66,1,1,3.715,3.715,-0.1,0
-0.0020948,0.026463,0,-0.74707,0.54723,-0.50218,0,0,-0.74707,0,-68.24,0.58997,0,1.1761,0,-20.132,61.647,1,1,3.72,3.72,-0.1,0
-0.0020964,0.026467,0,-0.74707,0.54864,-0.5034,0,0,-0.74707,0,-68.226,0.60521,0,1.1771,0,-20.128,61.635,1,1,3.725,3.725,-0.1,0
-0.0020979,0.026471,0,-0.74706,0.55005,-0.50462,0,0,-0.74706,0,-68.211,0.62044,0,1.178,0,-20.123,61.622,1,1,3.73,3.73,-0.1,0
-0.0020995,0.026474,0,-0.74705,0.55146,-0.50584,0,0,-0.74705,0,-68.197,0.63567,0,1.179,0,-20.118,61.609,1,1,3.735,3.735,-0.1,0
-0.0021011,0.026478,0,-0.74704,0.55287,-0.50706,0,0,-0.74704,0,-68.183,0.6509,0,1.1799,0,-20.114,61.597,1,1,3.74,3.74,-0.1,0
-0.0021027,0.026482,0,-0.74704,0.55428,-0.50827,0,0,-0.74704,0,-68.169,0.66613,0,1.1809,0,-20.109,61.584,1,1,3.745,3.745,-0.1,0
-0.0021043,0.026486,0,-0.74703,0.55569,-0.50949,0,0,-0.74703,0,-68.154,0.68136,0,1.1818,0,-20.105,61.571,1,1,3.75,3.75,-0.1,0
-0.0021058,0.02649,0,-0.74702,0.5571,-0.51071,0,0,-0.74702,0,-68.14,0.69659,0,1.1828,0,-20.1,61.559,1,1,3.755,3.755,-0.1,0
-0.0021074,0.026494,0,-0.74701,0.55851,-0.51193,0,0,-0.74701,0,-68.126,0.71182,0,1.1837,0,-20.096,61.546,1,1,3.76,3.76,-0.1,0
-0.002109,0.026498,0,-0.747,0.55992,-0.51315,0,0,-0.747,0,-68.111,0.72705,0,1.1847,0,-20.091,61.533,1,1,3.765,3.765,-0.1,0
-0.0021106,0.026502,0,-0.747,0.56133,-0.51437,0,0,-0.747,0,-68.097,0.74228,0,1.1856,0,-20.086,61.521,1,1,3.77,3.77,-0.1,0
-0.0021122,0.026506,0,-0.74699,0.56274,-0.51559,0,0,-0.74699,0,-68.083,0.7575,0,1.1866,0,-20.082,61.508,1,1,3.775,3.775,-0.1,0
-0.0021137,0.02651,0,-0.74698,0.56415,-0.51681,0,0,-0.74698,0,-68.069,0.77273,0,1.1876,0,-20.077,61.495,1,1,3.78,3.78,-0.1,0
-0.0021153,0.026514,0,-0.74697,0.56557,-0.51803,0,0,-0.74697,0,-68.054,0.78796,0,1.1885,0,-20.073,61.483,1,1,3.785,3.785,-0.1,0
-0.0021169,0.026518,0,-0.74696,0.56698,-0.51925,0,0,-0.74696,0,-68.04,0.80319,0,1.1895,0,-20.068,61.47,1,1,3.79,3.79,-0.1,0
-0.0021185,0.026522,0,-0.74696,0.56839,-0.52047,0,0,-0.74696,0,-68.026,0.81841,0,1.1904,0,-20.064,61.457,1,1,3.795,3.795,-0.1,0
-0.0021201,0.026526,0,-0.74695,0.5698,-0.52169,0,0,-0.74695,0,-68.011,0.83364,0,1.1914,0,-20.059,61.444,1,1,3.8,3.8,-0.1,0
-0.0021216,0.02653,0,-0.74694,0.57121,-0.52291,0,0,-0.74694,0,-67.997,0.84887,0,1.1923,0,-20.054,61.432,1,1,3.805,3.805,-0.1,0
-0.0021232,0.026534,0,-0.74693,0.57262,-0.52413,0,0,-0.74693,0,-67.983,0.86409,0,1.1933,0,-20.05,61.419,1,1,3.81,3.81,-0.1,0
-0.0021248,0.026538,0,-0.74692,0.57403,-0.52534,0,0,-0.74692,0,-67.968,0.87932,0,1.1942,0,-20.045,61.406,1,1,3.815,3.815,-0.1,0
-0.0021264,0.026542,0,-0.74692,0.57544,-0.52656,0,0,-0.74692,0,-67.954,0.89455,0,1.1952,0,-20.041,61.394,1,1,3.82,3.82,-0.1,0
-0.002128,0.026546,0,-0.74691,0.57685,-0.52778,0,0,-0.74691,0,-67.94,0.90977,0,1.1961,0,-20.036,61.381,1,1,3.825,3.825,-0.1,0
-0.0021296,0.02655,0,-0.7469,0.57826,-0.529,0,0,-0.7469,0,-67.926,0.925,0,1.1971,0,-20.031,61.368,1,1,3.83,3.83,-0.1,0
-0.0021311,0.026554,0,-0.74689,0.57967,-0.53022,0,0,-0.74689,0,-67.911,0.94022,0,1.198,0,-20.027,61.356,1,1,3.835,3.835,-0.1,0
-0.0021327,0.026558,0,-0.74688,0.58108,-0.53144,0,0,-0.74688,0,-67.897,0.95544,0,1.199,0,-20.022,61.343,1,1,3.84,3.84,-0.1,0
-0.0021343,0.026562,0,-0.74688,0.58249,-0.53266,0,0,-0.74688,0,-67.883,0.97067,0,1.1999,0,-20.018,61.33,1,1,3.845,3.845,-0.1,0
-0.0021359,0.026566,0,-0.74687,0.5839,-0.53388,0,0,-0.74687,0,-67.868,0.98589,0,1.2009,0,-20.013,61.318,1,1,3.85,3.85,-0.1,0
-0.0021375,0.02657,0,-0.74686,0.58531,-0.5351,0,0,-0.74686,0,-67.854,1.0011,0,1.2018,0,-20.009,61.305,1,1,3.855,3.855,-0.1,0
-0.002139,0.026574,0,-0.74685,0.58672,-0.53631,0,0,-0.74685,0,-67.84,1.0163,0,1.2028,0,-20.004,61.292,1,1,3.86,3.86,-0.1,0
-0.0021406,0.026577,0,-0.74685,0.58842,-0.53769,0,0,-0.74685,0,-67.828,1.0182,0,1.2006,0,-20.001,61.28,1,1,3.865,3.865,-0.1,0
-0.0021421,0.026581,0,-0.74684,0.59025,-0.53913,0,0,-0.74684,0,-67.817,1.0139,0,1.197,0,-19.999,61.267,1,1,3.87,3.87,-0.1,0
-0.0021436,0.026584,0,-0.74683,0.59208,-0.54057,0,0,-0.74683,0,-67.807,1.0097,0,1.1934,0,-19.997,61.255,1,1,3.875,3.875,-0.1,0
-0.0021452,0.026588,0,-0.74682,0.59391,-0.54201,0,0,-0.74682,0,-67.796,1.0054,0,1.1898,0,-19.995,61.242,1,1,3.88,3.88,-0.1,0
-0.0021467,0.026591,0,-0.74682,0.59574,-0.54345,0,0,-0.74682,0,-67.785,1.0012,0,1.1861,0,-19.993,61.23,1,1,3.885,3.885,-0.1,0
-0.0021482,0.026595,0,-0.74681,0.59756,-0.54489,0,0,-0.74681,0,-67.774,0.99693,0,1.1825,0,-19.99,61.217,1,1,3.89,3.89,-0.1,0
-0.0021498,0.026599,0,-0.7468,0.59939,-0.54633,0,0,-0.7468,0,-67.764,0.99268,0,1.1789,0,-19.988,61.204,1,1,3.895,3.895,-0.1,0
-0.0021513,0.026602,0,-0.7468,0.60122,-0.54777,0,0,-0.7468,0,-67.753,0.98843,0,1.1753,0,-19.986,61.192,1,1,3.9,3.9,-0.1,0
-0.0021528,0.026606,0,-0.74679,0.60305,-0.54921,0,0,-0.74679,0,-67.742,0.98418,0,1.1717,0,-19.984,61.179,1,1,3.905,3.905,-0.1,0
-0.0021544,0.026609,0,-0.74678,0.60488,-0.55065,0,0,-0.74678,0,-67.732,0.97993,0,1.1681,0,-19.982,61.167,1,1,3.91,3.91,-0.1,0
-0.0021559,0.026613,0,-0.74677,0.60671,-0.55209,0,0,-0.74677,0,-67.721,0.97568,0,1.1645,0,-19.98,61.154,1,1,3.915,3.915,-0.1,0
-0.0021574,0.026616,0,-0.74677,0.60854,-0.55353,0,0,-0.74677,0,-67.71,0.97143,0,1.1609,0,-19.978,61.142,1,1,3.92,3.92,-0.1,0
-0.0021589,0.02662,0,-0.74676,0.61037,-0.55497,0,0,-0.74676,0,-67.7,0.96718,0,1.1572,0,-19.976,61.129,1,1,3.925,3.925,-0.1,0
-0.0021605,0.026623,0,-0.74675,0.6122,-0.55641,0,0,-0.74675,0,-67.689,0.96293,0,1.1536,0,-19.973,61.117,1,1,3.93,3.93,-0.1,0
-0.002162,0.026627,0,-0.74675,0.61403,-0.55785,0,0,-0.74675,0,-67.678,0.95868,0,1.15,0,-19.971,61.104,1,1,3.935,3.935,-0.1,0
-0.0021635,0.02663,0,-0.74674,0.61585,-0.55929,0,0,-0.74674,0,-67.667,0.95443,0,1.1464,0,-19.969,61.092,1,1,3.94,3.94,-0.1,0
-0.0021651,0.026634,0,-0.74673,0.61768,-0.56073,0,0,-0.74673,0,-67.657,0.95018,0,1.1428,0,-19.967,61.079,1,1,3.945,3.945,-0.1,0
-0.0021666,0.026638,0,-0.74672,0.61951,-0.56217,0,0,-0.74672,0,-67.646,0.94593,0,1.1392,0,-19.965,61.067,1,1,3.95,3.95,-0.1,0
-0.0021681,0.026641,0,-0.74672,0.62134,-0.56361,0,0,-0.74672,0,-67.635,0.94168,0,1.1356,0,-19.963,61.054,1,1,3.955,3.955,-0.1,0
-0.0021697,0.026645,0,-0.74671,0.62317,-0.56505,0,0,-0.74671,0,-67.625,0.93743,0,1.1319,0,-19.961,61.042,1,1,3.96,3.96,-0.1,0
-0.0021712,0.026648,0,-0.7467,0.625,-0.56649,0,0,-0.7467,0,-67.614,0.93318,0,1.1283,0,-19.958,61.029,1,1,3.965,3.965,-0.1,0
-0.0021727,0.026652,0,-0.7467,0.62683,-0.56793,0,0,-0.7467,0,-67.603,0.92893,0,1.1247,0,-19.956,61.017,1,1,3.97,3.97,-0.1,0
-0.0021743,0.026655,0,-0.74669,0.62865,-0.56937,0,0,-0.74669,0,-67.593,0.92468,0,1.1211,0,-19.954,61.004,1,1,3.975,3.975,-0.1,0
-0.0021758,0.026659,0,-0.74668,0.63048,-0.57081,0,0,-0.74668,0,-67.582,0.92043,0,1.1175,0,-19.952,60.992,1,1,3.98,3.98,-0.1,0
-0.0021773,0.026662,0,-0.74668,0.63231,-0.57225,0,0,-0.74668,0,-67.571,0.91618,0,1.1139,0,-19.95,60.979,1,1,3.985,3.985,-0.1,0
-0.0021788,0.026666,0,-0.74667,0.63414,-0.57368,0,0,-0.74667,0,-67.56,0.91193,0,1.1103,0,-19.948,60.967,1,1,3.99,3.99,-0.1,0
-0.0021804,0.026669,0,-0.74666,0.63597,-0.57512,0,0,-0.74666,0,-67.55,0.90768,0,1.1067,0,-19.946,60.954,1,1,3.995,3.995,-0.1,0
-0.0021819,0.026673,0,-0.74665,0.6378,-0.57656,0,0,-0.74665,0,-67.539,0.90343,0,1.103,0,-19.944,60.941,1,1,4,4,-0.1,0
-0.0021834,0.026677,0,-0.74665,0.63963,-0.578,0,0,-0.74665,0,-67.528,0.89918,0,1.0994,0,-19.941,60.929,1,1,4.005,4.005,-0.1,0
-0.002185,0.02668,0,-0.74664,0.64145,-0.57944,0,0,-0.74664,0,-67.518,0.89494,0,1.0958,0,-19.939,60.916,1,1,4.01,4.01,-0.1,0
-0.0021865,0.026684,0,-0.74663,0.64328,-0.58088,0,0,-0.74663,0,-67.507,0.89069,0,1.0922,0,-19.937,60.904,1,1,4.015,4.015,-0.1,0
-0.002188,0.026687,0,-0.74663,0.64511,-0.58232,0,0,-0.74663,0,-67.496,0.88644,0,1.0886,0,-19.935,60.891,1,1,4.02,4.02,-0.1,0
-0.0021896,0.026691,0,-0.74662,0.64694,-0.58376,0,0,-0.74662,0,-67.485,0.88219,0,1.085,0,-19.933,60.879,1,1,4.025,4.025,-0.1,0
-0.0021911,0.026694,0,-0.74661,0.64877,-0.5852,0,0,-0.74661,0,-67.475,0.87794,0,1.0814,0,-19.931,60.866,1,1,4.03,4.03,-0.1,0
-0.0021926,0.026698,0,-0.7466,0.65059,-0.58664,0,0,-0.7466,0,-67.464,0.87369,0,1.0778,0,-19.929,60.854,1,1,4.035,4.035,-0.1,0
-0.0021942,0.026701,0,-0.7466,0.65242,-0.58808,0,0,-0.7466,0,-67.453,0.86944,0,1.0741,0,-19.926,60.841,1,1,4.04,4.04,-0.1,0
-0.0021957,0.026705,0,-0.74659,0.65425,-0.58952,0,0,-0.74659,0,-67.443,0.86519,0,1.0705,0,-19.924,60.829,1,1,4.045,4.045,-0.1,0
-0.0021972,0.026708,0,-0.74658,0.65608,-0.59096,0,0,-0.74658,0,-67.432,0.86094,0,1.0669,0,-19.922,60.816,1,1,4.05,4.05,-0.1,0
-0.0021987,0.026712,0,-0.74658,0.65791,-0.5924,0,0,-0.74658,0,-67.421,0.85669,0,1.0633,0,-19.92,60.804,1,1,4.055,4.055,-0.1,0
-0.0022003,0.026716,0,-0.74657,0.65973,-0.59384,0,0,-0.74657,0,-67.41,0.85244,0,1.0597,0,-19.918,60.791,1,1,4.06,4.06,-0.1,0
-0.0022018,0.026719,0,-0.74656,0.66156,-0.59528,0,0,-0.74656,0,-67.4,0.84819,0,1.0561,0,-19.916,60.779,1,1,4.065,4.065,-0.1,0
-0.0022033,0.026723,0,-0.74655,0.66339,-0.59671,0,0,-0.74655,0,-67.389,0.84394,0,1.0525,0,-19.914,60.766,1,1,4.07,4.07,-0.1,0
-0.0022049,0.026726,0,-0.74655,0.66522,-0.59815,0,0,-0.74655,0,-67.378,0.83969,0,1.0489,0,-19.912,60.754,1,1,4.075,4.075,-0.1,0
-0.0022064,0.02673,0,-0.74654,0.66705,-0.59959,0,0,-0.74654,0,-67.368,0.83544,0,1.0453,0,-19.909,60.741,1,1,4.08,4.08,-0.1,0
-0.0022079,0.026733,0,-0.74653,0.66887,-0.60103,0,0,-0.74653,0,-67.357,0.83119,0,1.0416,0,-19.907,60.729,1,1,4.085,4.085,-0.1,0
-0.0022095,0.026737,0,-0.74653,0.6707,-0.60247,0,0,-0.74653,0,-67.346,0.82694,0,1.038,0,-19.905,60.716,1,1,4.09,4.09,-0.1,0
-0.002211,0.02674,0,-0.74652,0.67253,-0.60391,0,0,-0.74652,0,-67.336,0.8227,0,1.0344,0,-19.903,60.703,1,1,4.095,4.095,-0.1,0
-0.0022125,0.026744,0,-0.74651,0.67436,-0.60535,0,0,-0.74651,0,-67.325,0.81845,0,1.0308,0,-19.901,60.691,1,1,4.1,4.1,-0.1,0
-0.0022141,0.026747,0,-0.74651,0.67618,-0.60679,0,0,-0.74651,0,-67.314,0.8142,0,1.0272,0,-19.899,60.678,1,1,4.105,4.105,-0.1,0
-0.0022156,0.026751,0,-0.7465,0.67801,-0.60823,0,0,-0.7465,0,-67.303,0.80995,0,1.0236,0,-19.897,60.666,1,1,4.11,4.11,-0.1,0
-0.0022171,0.026754,0,-0.74649,0.67984,-0.60967,0,0,-0.74649,0,-67.293,0.8057,0,1.02,0,-19.894,60.653,1,1,4.115,4.115,-0.1,0
-0.0022186,0.026758,0,-0.74648,0.68167,-0.61111,0,0,-0.74648,0,-67.282,0.80145,0,1.0164,0,-19.892,60.641,1,1,4.12,4.12,-0.1,0
-0.0022202,0.026762,0,-0.74648,0.6835,-0.61254,0,0,-0.74648,0,-67.271,0.7972,0,1.0128,0,-19.89,60.628,1,1,4.125,4.125,-0.1,0
-0.0022217,0.026765,0,-0.74647,0.68532,-0.61398,0,0,-0.74647,0,-67.261,0.79295,0,1.0092,0,-19.888,60.616,1,1,4.13,4.13,-0.1,0
-0.0022232,0.026769,0,-0.74646,0.68715,-0.61542,0,0,-0.74646,0,-67.25,0.7887,0,1.0055,0,-19.886,60.603,1,1,4.135,4.135,-0.1,0
-0.0022248,0.026772,0,-0.74646,0.68898,-0.61686,0,0,-0.74646,0,-67.239,0.78445,0,1.0019,0,-19.884,60.591,1,1,4.14,4.14,-0.1,0
-0.0022263,0.026776,0,-0.74645,0.6908,-0.6183,0,0,-0.74645,0,-67.228,0.7802,0,0.99832,0,-19.882,60.578,1,1,4.145,4.145,-0.1,0
-0.0022278,0.026779,0,-0.74644,0.69263,-0.61974,0,0,-0.74644,0,-67.218,0.77595,0,0.99471,0,-19.879,60.566,1,1,4.15,4.15,-0.1,0
-0.0022294,0.026783,0,-0.74643,0.69446,-0.62118,0,0,-0.74643,0,-67.207,0.7717,0,0.9911,0,-19.877,60.553,1,1,4.155,4.155,-0.1,0
-0.0022309,0.026786,0,-0.74643,0.69629,-0.62262,0,0,-0.74643,0,-67.196,0.76745,0,0.98749,0,-19.875,60.541,1,1,4.16,4.16,-0.1,0
-0.0022324,0.02679,0,-0.74642,0.69811,-0.62405,0,0,-0.74642,0,-67.185,0.76321,0,0.98388,0,-19.873,60.528,1,1,4.165,4.165,-0.1,0
-0.002234,0.026793,0,-0.74641,0.69994,-0.62549,0,0,-0.74641,0,-67.175,0.75896,0,0.98027,0,-19.871,60.515,1,1,4.17,4.17,-0.1,0
-0.0022355,0.026797,0,-0.74641,0.70177,-0.62693,0,0,-0.74641,0,-67.164,0.75471,0,0.97666,0,-19.869,60.503,1,1,4.175,4.175,-0.1,0
-0.002237,0.026801,0,-0.7464,0.7036,-0.62837,0,0,-0.7464,0,-67.153,0.75046,0,0.97305,0,-19.867,60.49,1,1,4.18,4.18,-0.1,0
-0.0022385,0.026804,0,-0.74639,0.70542,-0.62981,0,0,-0.74639,0,-67.143,0.74621,0,0.96945,0,-19.865,60.478,1,1,4.185,4.185,-0.1,0
-0.0022401,0.026808,0,-0.74638,0.70725,-0.63125,0,0,-0.74638,0,-67.132,0.74196,0,0.96584,0,-19.862,60.465,1,1,4.19,4.19,-0.1,0
-0.0022416,0.026811,0,-0.74638,0.70908,-0.63269,0,0,-0.74638,0,-67.121,0.73771,0,0.96223,0,-19.86,60.453,1,1,4.195,4.195,-0.1,0
-0.0022431,0.026815,0,-0.74637,0.7109,-0.63412,0,0,-0.74637,0,-67.11,0.73346,0,0.95862,0,-19.858,60.44,1,1,4.2,4.2,-0.1,0
-0.0022447,0.026818,0,-0.74636,0.71273,-0.63556,0,0,-0.74636,0,-67.1,0.72921,0,0.95501,0,-19.856,60.428,1,1,4.205,4.205,-0.1,0
-0.0022462,0.026822,0,-0.74636,0.71456,-0.637,0,0,-0.74636,0,-67.089,0.72496,0,0.9514,0,-19.854,60.415,1,1,4.21,4.21,-0.1,0
-0.0022477,0.026825,0,-0.74635,0.71638,-0.63844,0,0,-0.74635,0,-67.078,0.72071,0,0.94779,0,-19.852,60.403,1,1,4.215,4.215,-0.1,0
-0.0022493,0.026829,0,-0.74634,0.71821,-0.63988,0,0,-0.74634,0,-67.068,0.71646,0,0.94418,0,-19.85,60.39,1,1,4.22,4.22,-0.1,0
-0.0022508,0.026832,0,-0.74634,0.72004,-0.64132,0,0,-0.74634,0,-67.057,0.71222,0,0.94057,0,-19.847,60.378,1,1,4.225,4.225,-0.1,0
-0.0022523,0.026836,0,-0.74633,0.72186,-0.64275,0,0,-0.74633,0,-67.046,0.70797,0,0.93696,0,-19.845,60.365,1,1,4.23,4.23,-0.1,0
-0.0022539,0.02684,0,-0.74632,0.72369,-0.64419,0,0,-0.74632,0,-67.035,0.70372,0,0.93336,0,-19.843,60.352,1,1,4.235,4.235,-0.1,0
-0.0022554,0.026843,0,-0.74631,0.72552,-0.64563,0,0,-0.74631,0,-67.025,0.69947,0,0.92975,0,-19.841,60.34,1,1,4.24,4.24,-0.1,0
-0.0022569,0.026847,0,-0.74631,0.72734,-0.64707,0,0,-0.74631,0,-67.014,0.69522,0,0.92614,0,-19.839,60.327,1,1,4.245,4.245,-0.1,0
-0.0022584,0.02685,0,-0.7463,0.72917,-0.64851,0,0,-0.7463,0,-67.003,0.69097,0,0.92253,0,-19.837,60.315,1,1,4.25,4.25,-0.1,0
-0.00226,0.026854,0,-0.74629,0.731,-0.64995,0,0,-0.74629,0,-66.993,0.68672,0,0.91892,0,-19.835,60.302,1,1,4.255,4.255,-0.1,0
-0.0022615,0.026857,0,-0.74629,0.73282,-0.65138,0,0,-0.74629,0,-66.982,0.68247,0,0.91531,0,-19.832,60.29,1,1,4.26,4.26,-0.1,0
-0.002263,0.026861,0,-0.74628,0.73465,-0.65282,0,0,-0.74628,0,-66.971,0.67822,0,0.91171,0,-19.83,60.277,1,1,4.265,4.265,-0.1,0
-0.0022646,0.026864,0,-0.74627,0.73648,-0.65426,0,0,-0.74627,0,-66.96,0.67397,0,0.9081,0,-19.828,60.265,1,1,4.27,4.27,-0.1,0
-0.0022661,0.026868,0,-0.74626,0.7383,-0.6557,0,0,-0.74626,0,-66.95,0.66972,0,0.90449,0,-19.826,60.252,1,1,4.275,4.275,-0.1,0
-0.0022676,0.026871,0,-0.74626,0.74013,-0.65714,0,0,-0.74626,0,-66.939,0.66548,0,0.90088,0,-19.824,60.24,1,1,4.28,4.28,-0.1,0
-0.0022692,0.026875,0,-0.74625,0.74196,-0.65857,0,0,-0.74625,0,-66.928,0.66123,0,0.89727,0,-19.822,60.227,1,1,4.285,4.285,-0.1,0
-0.0022707,0.026879,0,-0.74624,0.74378,-0.66001,0,0,-0.74624,0,-66.917,0.65698,0,0.89367,0,-19.82,60.215,1,1,4.29,4.29,-0.1,0
-0.0022722,0.026882,0,-0.74624,0.74561,-0.66145,0,0,-0.74624,0,-66.907,0.65273,0,0.89006,0,-19.817,60.202,1,1,4.295,4.295,-0.1,0
-0.0022738,0.026886,0,-0.74623,0.74744,-0.66289,0,0,-0.74623,0,-66.896,0.64848,0,0.88645,0,-19.815,60.189,1,1,4.3,4.3,-0.1,0
-0.0022753,0.026889,0,-0.74622,0.74926,-0.66433,0,0,-0.74622,0,-66.885,0.64423,0,0.88284,0,-19.813,60.177,1,1,4.305,4.305,-0.1,0
-0.0022768,0.026893,0,-0.74621,0.75109,-0.66576,0,0,-0.74621,0,-66.875,0.63998,0,0.87924,0,-19.811,60.164,1,1,4.31,4.31,-0.1,0
-0.0022783,0.026896,0,-0.74621,0.75291,-0.6672,0,0,-0.74621,0,-66.864,0.63573,0,0.87563,0,-19.809,60.152,1,1,4.315,4.315,-0.1,0
-0.0022799,0.0269,0,-0.7462,0.75474,-0.66864,0,0,-0.7462,0,-66.853,0.63148,0,0.87202,0,-19.807,60.139,1,1,4.32,4.32,-0.1,0
-0.0022814,0.026903,0,-0.74619,0.75657,-0.67008,0,0,-0.74619,0,-66.842,0.62723,0,0.86841,0,-19.805,60.127,1,1,4.325,4.325,-0.1,0
-0.0022829,0.026907,0,-0.74619,0.75839,-0.67151,0,0,-0.74619,0,-66.832,0.62299,0,0.86481,0,-19.802,60.114,1,1,4.33,4.33,-0.1,0
-0.0022845,0.02691,0,-0.74618,0.76022,-0.67295,0,0,-0.74618,0,-66.821,0.61874,0,0.8612,0,-19.8,60.102,1,1,4.335,4.335,-0.1,0
-0.002286,0.026914,0,-0.74617,0.76205,-0.67439,0,0,-0.74617,0,-66.81,0.61449,0,0.85759,0,-19.798,60.089,1,1,4.34,4.34,-0.1,0
-0.0022875,0.026918,0,-0.74616,0.76387,-0.67583,0,0,-0.74616,0,-66.799,0.61024,0,0.85399,0,-19.796,60.077,1,1,4.345,4.345,-0.1,0
-0.0022891,0.026921,0,-0.74616,0.7657,-0.67727,0,0,-0.74616,0,-66.789,0.60599,0,0.85038,0,-19.794,60.064,1,1,4.35,4.35,-0.1,0
-0.0022906,0.026925,0,-0.74615,0.76752,-0.6787,0,0,-0.74615,0,-66.778,0.60174,0,0.84677,0,-19.792,60.051,1,1,4.355,4.355,-0.1,0
-0.0022921,0.026928,0,-0.74614,0.76935,-0.68014,0,0,-0.74614,0,-66.767,0.59749,0,0.84316,0,-19.79,60.039,1,1,4.36,4.36,-0.1,0
-0.0022937,0.026932,0,-0.74614,0.77117,-0.68158,0,0,-0.74614,0,-66.757,0.59324,0,0.83956,0,-19.787,60.026,1,1,4.365,4.365,-0.1,0
-0.0022952,0.026935,0,-0.74613,0.773,-0.68302,0,0,-0.74613,0,-66.746,0.58899,0,0.83595,0,-19.785,60.014,1,1,4.37,4.37,-0.1,0
-0.0022967,0.026939,0,-0.74612,0.77483,-0.68445,0,0,-0.74612,0,-66.735,0.58475,0,0.83235,0,-19.783,60.001,1,1,4.375,4.375,-0.1,0
-0.0022982,0.026942,0,-0.74612,0.77665,-0.68589,0,0,-0.74612,0,-66.724,0.5805,0,0.82874,0,-19.781,59.989,1,1,4.38,4.38,-0.1,0
-0.0022998,0.026946,0,-0.74611,0.77848,-0.68733,0,0,-0.74611,0,-66.714,0.57625,0,0.82513,0,-19.779,59.976,1,1,4.385,4.385,-0.1,0
-0.0023013,0.026949,0,-0.7461,0.7803,-0.68877,0,0,-0.7461,0,-66.703,0.572,0,0.82153,0,-19.777,59.964,1,1,4.39,4.39,-0.1,0
-0.0023028,0.026953,0,-0.74609,0.78213,-0.6902,0,0,-0.74609,0,-66.692,0.56775,0,0.81792,0,-19.775,59.951,1,1,4.395,4.395,-0.1,0
-0.0023044,0.026957,0,-0.74609,0.78395,-0.69164,0,0,-0.74609,0,-66.681,0.5635,0,0.81431,0,-19.772,59.939,1,1,4.4,4.4,-0.1,0
-0.0023059,0.02696,0,-0.74608,0.78578,-0.69308,0,0,-0.74608,0,-66.671,0.55925,0,0.81071,0,-19.77,59.926,1,1,4.405,4.405,-0.1,0
-0.0023074,0.026964,0,-0.74607,0.78761,-0.69451,0,0,-0.74607,0,-66.66,0.555,0,0.8071,0,-19.768,59.913,1,1,4.41,4.41,-0.1,0
-0.002309,0.026967,0,-0.74607,0.78943,-0.69595,0,0,-0.74607,0,-66.649,0.55076,0,0.8035,0,-19.766,59.901,1,1,4.415,4.415,-0.1,0
-0.0023105,0.026971,0,-0.74606,0.79126,-0.69739,0,0,-0.74606,0,-66.638,0.54651,0,0.79989,0,-19.764,59.888,1,1,4.42,4.42,-0.1,0
-0.002312,0.026974,0,-0.74605,0.79308,-0.69883,0,0,-0.74605,0,-66.628,0.54226,0,0.79628,0,-19.762,59.876,1,1,4.425,4.425,-0.1,0
-0.0023136,0.026978,0,-0.74604,0.79491,-0.70026,0,0,-0.74604,0,-66.617,0.53801,0,0.79268,0,-19.76,59.863,1,1,4.43,4.43,-0.1,0
-0.0023151,0.026981,0,-0.74604,0.79673,-0.7017,0,0,-0.74604,0,-66.606,0.53376,0,0.78907,0,-19.757,59.851,1,1,4.435,4.435,-0.1,0
-0.0023166,0.026985,0,-0.74603,0.79856,-0.70314,0,0,-0.74603,0,-66.595,0.52951,0,0.78547,0,-19.755,59.838,1,1,4.44,4.44,-0.1,0
-0.0023181,0.026988,0,-0.74602,0.80038,-0.70458,0,0,-0.74602,0,-66.585,0.52526,0,0.78186,0,-19.753,59.826,1,1,4.445,4.445,-0.1,0
-0.0023197,0.026992,0,-0.74602,0.80221,-0.70601,0,0,-0.74602,0,-66.574,0.52101,0,0.77826,0,-19.751,59.813,1,1,4.45,4.45,-0.1,0
-0.0023212,0.026995,0,-0.74601,0.80403,-0.70745,0,0,-0.74601,0,-66.563,0.51677,0,0.77465,0,-19.749,59.801,1,1,4.455,4.455,-0.1,0
-0.0023227,0.026999,0,-0.746,0.80586,-0.70889,0,0,-0.746,0,-66.553,0.51252,0,0.77105,0,-19.747,59.788,1,1,4.46,4.46,-0.1,0
-0.0023243,0.027003,0,-0.74599,0.80768,-0.71032,0,0,-0.74599,0,-66.542,0.50827,0,0.76744,0,-19.745,59.775,1,1,4.465,4.465,-0.1,0
-0.0023258,0.027006,0,-0.74599,0.80951,-0.71176,0,0,-0.74599,0,-66.531,0.50402,0,0.76384,0,-19.742,59.763,1,1,4.47,4.47,-0.1,0
-0.0023273,0.02701,0,-0.74598,0.81133,-0.7132,0,0,-0.74598,0,-66.52,0.49977,0,0.76023,0,-19.74,59.75,1,1,4.475,4.475,-0.1,0
-0.0023289,0.027013,0,-0.74597,0.81316,-0.71463,0,0,-0.74597,0,-66.51,0.49552,0,0.75663,0,-19.738,59.738,1,1,4.48,4.48,-0.1,0
-0.0023304,0.027017,0,-0.74597,0.81498,-0.71607,0,0,-0.74597,0,-66.499,0.49127,0,0.75302,0,-19.736,59.725,1,1,4.485,4.485,-0.1,0
-0.0023319,0.02702,0,-0.74596,0.81681,-0.71751,0,0,-0.74596,0,-66.488,0.48702,0,0.74942,0,-19.734,59.713,1,1,4.49,4.49,-0.1,0
-0.0023335,0.027024,0,-0.74595,0.81863,-0.71895,0,0,-0.74595,0,-66.477,0.48278,0,0.74581,0,-19.732,59.7,1,1,4.495,4.495,-0.1,0
-0.002335,0.027027,0,-0.74595,0.82046,-0.72038,0,0,-0.74595,0,-66.467,0.47853,0,0.74221,0,-19.73,59.688,1,1,4.5,4.5,-0.1,0
-0.0023365,0.027031,0,-0.74594,0.82228,-0.72182,0,0,-0.74594,0,-66.456,0.47428,0,0.7386,0,-19.727,59.675,1,1,4.505,4.505,-0.1,0
-0.002338,0.027034,0,-0.74593,0.82411,-0.72326,0,0,-0.74593,0,-66.445,0.47003,0,0.735,0,-19.725,59.662,1,1,4.51,4.51,-0.1,0
-0.0023396,0.027038,0,-0.74592,0.82593,-0.72469,0,0,-0.74592,0,-66.434,0.46578,0,0.7314,0,-19.723,59.65,1,1,4.515,4.515,-0.1,0
-0.0023411,0.027042,0,-0.74592,0.82776,-0.72613,0,0,-0.74592,0,-66.424,0.46153,0,0.72779,0,-19.721,59.637,1,1,4.52,4.52,-0.1,0
-0.0023426,0.027045,0,-0.74591,0.82958,-0.72757,0,0,-0.74591,0,-66.413,0.45728,0,0.72419,0,-19.719,59.625,1,1,4.525,4.525,-0.1,0
-0.0023442,0.027049,0,-0.7459,0.83141,-0.729,0,0,-0.7459,0,-66.402,0.45303,0,0.72058,0,-19.717,59.612,1,1,4.53,4.53,-0.1,0
-0.0023457,0.027052,0,-0.7459,0.83323,-0.73044,0,0,-0.7459,0,-66.391,0.44879,0,0.71698,0,-19.715,59.6,1,1,4.535,4.535,-0.1,0
-0.0023472,0.027056,0,-0.74589,0.83506,-0.73188,0,0,-0.74589,0,-66.381,0.44454,0,0.71338,0,-19.712,59.587,1,1,4.54,4.54,-0.1,0
-0.0023488,0.027059,0,-0.74588,0.83688,-0.73331,0,0,-0.74588,0,-66.37,0.44029,0,0.70977,0,-19.71,59.575,1,1,4.545,4.545,-0.1,0
-0.0023503,0.027063,0,-0.74587,0.83871,-0.73475,0,0,-0.74587,0,-66.359,0.43604,0,0.70617,0,-19.708,59.562,1,1,4.55,4.55,-0.1,0
-0.0023518,0.027066,0,-0.74587,0.84053,-0.73619,0,0,-0.74587,0,-66.348,0.43179,0,0.70256,0,-19.706,59.55,1,1,4.555,4.555,-0.1,0
-0.0023534,0.02707,0,-0.74586,0.84235,-0.73762,0,0,-0.74586,0,-66.338,0.42754,0,0.69896,0,-19.704,59.537,1,1,4.56,4.56,-0.1,0
-0.0023549,0.027073,0,-0.74585,0.84418,-0.73906,0,0,-0.74585,0,-66.327,0.42329,0,0.69536,0,-19.702,59.524,1,1,4.565,4.565,-0.1,0
-0.0023564,0.027077,0,-0.74585,0.846,-0.74049,0,0,-0.74585,0,-66.316,0.41905,0,0.69175,0,-19.699,59.512,1,1,4.57,4.57,-0.1,0
-0.002358,0.027081,0,-0.74584,0.84783,-0.74193,0,0,-0.74584,0,-66.305,0.4148,0,0.68815,0,-19.697,59.499,1,1,4.575,4.575,-0.1,0
-0.0023595,0.027084,0,-0.74583,0.84965,-0.74337,0,0,-0.74583,0,-66.295,0.41055,0,0.68455,0,-19.695,59.487,1,1,4.58,4.58,-0.1,0
-0.002361,0.027088,0,-0.74582,0.85148,-0.7448,0,0,-0.74582,0,-66.284,0.4063,0,0.68094,0,-19.693,59.474,1,1,4.585,4.585,-0.1,0
-0.0023625,0.027091,0,-0.74582,0.8533,-0.74624,0,0,-0.74582,0,-66.273,0.40205,0,0.67734,0,-19.691,59.462,1,1,4.59,4.59,-0.1,0
-0.0023641,0.027095,0,-0.74581,0.85513,-0.74768,0,0,-0.74581,0,-66.262,0.3978,0,0.67374,0,-19.689,59.449,1,1,4.595,4.595,-0.1,0
-0.0023656,0.027098,0,-0.7458,0.85695,-0.74911,0,0,-0.7458,0,-66.252,0.39356,0,0.67013,0,-19.687,59.437,1,1,4.6,4.6,-0.1,0
-0.0023671,0.027102,0,-0.7458,0.85877,-0.75055,0,0,-0.7458,0,-66.241,0.38931,0,0.66653,0,-19.684,59.424,1,1,4.605,4.605,-0.1,0
-0.0023687,0.027105,0,-0.74579,0.8606,-0.75199,0,0,-0.74579,0,-66.23,0.38506,0,0.66293,0,-19.682,59.411,1,1,4.61,4.61,-0.1,0
-0.0023702,0.027109,0,-0.74578,0.86242,-0.75342,0,0,-0.74578,0,-66.219,0.38081,0,0.65933,0,-19.68,59.399,1,1,4.615,4.615,-0.1,0
-0.0023717,0.027112,0,-0.74578,0.86425,-0.75486,0,0,-0.74578,0,-66.209,0.37656,0,0.65572,0,-19.678,59.386,1,1,4.62,4.62,-0.1,0
-0.0023733,0.027116,0,-0.74577,0.86607,-0.75629,0,0,-0.74577,0,-66.198,0.37231,0,0.65212,0,-19.676,59.374,1,1,4.625,4.625,-0.1,0
-0.0023748,0.02712,0,-0.74576,0.86789,-0.75773,0,0,-0.74576,0,-66.187,0.36806,0,0.64852,0,-19.674,59.361,1,1,4.63,4.63,-0.1,0
-0.0023763,0.027123,0,-0.74575,0.86972,-0.75917,0,0,-0.74575,0,-66.176,0.36382,0,0.64492,0,-19.672,59.349,1,1,4.635,4.635,-0.1,0
-0.0023779,0.027127,0,-0.74575,0.87154,-0.7606,0,0,-0.74575,0,-66.166,0.35957,0,0.64131,0,-19.669,59.336,1,1,4.64,4.64,-0.1,0
-0.0023794,0.02713,0,-0.74574,0.87337,-0.76204,0,0,-0.74574,0,-66.155,0.35532,0,0.63771,0,-19.667,59.323,1,1,4.645,4.645,-0.1,0
-0.0023809,0.027134,0,-0.74573,0.87519,-0.76347,0,0,-0.74573,0,-66.144,0.35107,0,0.63411,0,-19.665,59.311,1,1,4.65,4.65,-0.1,0
-0.0023824,0.027137,0,-0.74573,0.87701,-0.76491,0,0,-0.74573,0,-66.133,0.34682,0,0.63051,0,-19.663,59.298,1,1,4.655,4.655,-0.1,0
-0.002384,0.027141,0,-0.74572,0.87884,-0.76635,0,0,-0.74572,0,-66.123,0.34257,0,0.62691,0,-19.661,59.286,1,1,4.66,4.66,-0.1,0
-0.0023855,0.027144,0,-0.74571,0.88066,-0.76778,0,0,-0.74571,0,-66.112,0.33833,0,0.6233,0,-19.659,59.273,1,1,4.665,4.665,-0.1,0
-0.002387,0.027148,0,-0.7457,0.88248,-0.76922,0,0,-0.7457,0,-66.101,0.33408,0,0.6197,0,-19.656,59.261,1,1,4.67,4.67,-0.1,0
-0.0023886,0.027151,0,-0.7457,0.88431,-0.77065,0,0,-0.7457,0,-66.09,0.32983,0,0.6161,0,-19.654,59.248,1,1,4.675,4.675,-0.1,0
-0.0023901,0.027155,0,-0.74569,0.88613,-0.77209,0,0,-0.74569,0,-66.08,0.32558,0,0.6125,0,-19.652,59.236,1,1,4.68,4.68,-0.1,0
-0.0023916,0.027159,0,-0.74568,0.88796,-0.77353,0,0,-0.74568,0,-66.069,0.32133,0,0.6089,0,-19.65,59.223,1,1,4.685,4.685,-0.1,0
-0.0023932,0.027162,0,-0.74568,0.88978,-0.77496,0,0,-0.74568,0,-66.058,0.31708,0,0.60529,0,-19.648,59.21,1,1,4.69,4.69,-0.1,0
-0.0023947,0.027166,0,-0.74567,0.8916,-0.7764,0,0,-0.74567,0,-66.047,0.31284,0,0.60169,0,-19.646,59.198,1,1,4.695,4.695,-0.1,0
-0.0023962,0.027169,0,-0.74566,0.89343,-0.77783,0,0,-0.74566,0,-66.037,0.30859,0,0.59809,0,-19.644,59.185,1,1,4.7,4.7,-0.1,0
-0.0023978,0.027173,0,-0.74565,0.89525,-0.77927,0,0,-0.74565,0,-66.026,0.30434,0,0.59449,0,-19.641,59.173,1,1,4.705,4.705,-0.1,0
-0.0023993,0.027176,0,-0.74565,0.89707,-0.7807,0,0,-0.74565,0,-66.015,0.30009,0,0.59089,0,-19.639,59.16,1,1,4.71,4.71,-0.1,0
-0.0024008,0.02718,0,-0.74564,0.8989,-0.78214,0,0,-0.74564,0,-66.004,0.29584,0,0.58729,0,-19.637,59.148,1,1,4.715,4.715,-0.1,0
-0.0024023,0.027183,0,-0.74563,0.90072,-0.78357,0,0,-0.74563,0,-65.994,0.29159,0,0.58369,0,-19.635,59.135,1,1,4.72,4.72,-0.1,0
-0.0024039,0.027187,0,-0.74563,0.90254,-0.78501,0,0,-0.74563,0,-65.983,0.28735,0,0.58009,0,-19.633,59.123,1,1,4.725,4.725,-0.1,0
-0.0024054,0.02719,0,-0.74562,0.90437,-0.78645,0,0,-0.74562,0,-65.972,0.2831,0,0.57648,0,-19.631,59.11,1,1,4.73,4.73,-0.1,0
-0.0024069,0.027194,0,-0.74561,0.90619,-0.78788,0,0,-0.74561,0,-65.961,0.27885,0,0.57288,0,-19.629,59.097,1,1,4.735,4.735,-0.1,0
-0.0024085,0.027198,0,-0.7456,0.90801,-0.78932,0,0,-0.7456,0,-65.951,0.2746,0,0.56928,0,-19.626,59.085,1,1,4.74,4.74,-0.1,0
-0.00241,0.027201,0,-0.7456,0.90984,-0.79075,0,0,-0.7456,0,-65.94,0.27035,0,0.56568,0,-19.624,59.072,1,1,4.745,4.745,-0.1,0
-0.0024115,0.027205,0,-0.74559,0.91177,-0.79222,0,0,-0.74559,0,-65.929,0.26714,0,0.56255,0,-19.622,59.06,1,1,4.75,4.75,-0.1,0
-0.002413,0.027208,0,-0.74558,0.91412,-0.79382,0,0,-0.74558,0,-65.918,0.26805,0,0.5613,0,-19.619,59.05,1,1,4.755,4.755,-0.1,0
-0.0024145,0.027211,0,-0.74558,0.91647,-0.79541,0,0,-0.74558,0,-65.908,0.26896,0,0.56005,0,-19.616,59.039,1,1,4.76,4.76,-0.1,0
-0.002416,0.027214,0,-0.74557,0.91883,-0.79701,0,0,-0.74557,0,-65.897,0.26986,0,0.5588,0,-19.613,59.028,1,1,4.765,4.765,-0.1,0
-0.0024174,0.027218,0,-0.74556,0.92118,-0.79861,0,0,-0.74556,0,-65.886,0.27077,0,0.55755,0,-19.61,59.018,1,1,4.77,4.77,-0.1,0
-0.0024189,0.027221,0,-0.74556,0.92353,-0.8002,0,0,-0.74556,0,-65.875,0.27168,0,0.5563,0,-19.608,59.007,1,1,4.775,4.775,-0.1,0
-0.0024204,0.027224,0,-0.74555,0.92589,-0.8018,0,0,-0.74555,0,-65.865,0.27259,0,0.55505,0,-19.605,58.997,1,1,4.78,4.78,-0.1,0
-0.0024219,0.027228,0,-0.74554,0.92824,-0.8034,0,0,-0.74554,0,-65.854,0.27349,0,0.5538,0,-19.602,58.986,1,1,4.785,4.785,-0.1,0
-0.0024234,0.027231,0,-0.74554,0.93059,-0.80499,0,0,-0.74554,0,-65.843,0.2744,0,0.55255,0,-19.599,58.975,1,1,4.79,4.79,-0.1,0
-0.0024249,0.027234,0,-0.74553,0.93295,-0.80659,0,0,-0.74553,0,-65.832,0.27531,0,0.5513,0,-19.596,58.965,1,1,4.795,4.795,-0.1,0
-0.0024263,0.027237,0,-0.74553,0.9353,-0.80818,0,0,-0.74553,0,-65.822,0.27621,0,0.55005,0,-19.593,58.954,1,1,4.8,4.8,-0.1,0
-0.0024278,0.027241,0,-0.74552,0.93765,-0.80978,0,0,-0.74552,0,-65.811,0.27712,0,0.5488,0,-19.591,58.944,1,1,4.805,4.805,-0.1,0
-0.0024293,0.027244,0,-0.74551,0.94001,-0.81138,0,0,-0.74551,0,-65.8,0.27803,0,0.54754,0,-19.588,58.933,1,1,4.81,4.81,-0.1,0
-0.0024308,0.027247,0,-0.74551,0.94236,-0.81297,0,0,-0.74551,0,-65.789,0.27893,0,0.54629,0,-19.585,58.923,1,1,4.815,4.815,-0.1,0
-0.0024323,0.027251,0,-0.7455,0.94471,-0.81457,0,0,-0.7455,0,-65.779,0.27984,0,0.54504,0,-19.582,58.912,1,1,4.82,4.82,-0.1,0
-0.0024337,0.027254,0,-0.74549,0.94707,-0.81617,0,0,-0.74549,0,-65.768,0.28075,0,0.54379,0,-19.579,58.901,1,1,4.825,4.825,-0.1,0
-0.0024352,0.027257,0,-0.74549,0.94942,-0.81776,0,0,-0.74549,0,-65.757,0.28165,0,0.54254,0,-19.576,58.891,1,1,4.83,4.83,-0.1,0
-0.0024367,0.02726,0,-0.74548,0.95177,-0.81936,0,0,-0.74548,0,-65.746,0.28256,0,0.54129,0,-19.573,58.88,1,1,4.835,4.835,-0.1,0
-0.0024382,0.027264,0,-0.74547,0.95413,-0.82095,0,0,-0.74547,0,-65.735,0.28347,0,0.54004,0,-19.571,58.87,1,1,4.84,4.84,-0.1,0
-0.0024397,0.027267,0,-0.74547,0.95648,-0.82255,0,0,-0.74547,0,-65.725,0.28437,0,0.53879,0,-19.568,58.859,1,1,4.845,4.845,-0.1,0
-0.0024411,0.02727,0,-0.74546,0.95883,-0.82415,0,0,-0.74546,0,-65.714,0.28528,0,0.53754,0,-19.565,58.849,1,1,4.85,4.85,-0.1,0
-0.0024426,0.027274,0,-0.74545,0.96119,-0.82574,0,0,-0.74545,0,-65.703,0.28619,0,0.53629,0,-19.562,58.838,1,1,4.855,4.855,-0.1,0
-0.0024441,0.027277,0,-0.74545,0.96354,-0.82734,0,0,-0.74545,0,-65.692,0.28709,0,0.53504,0,-19.559,58.827,1,1,4.86,4.86,-0.1,0
-0.0024456,0.02728,0,-0.74544,0.96589,-0.82893,0,0,-0.74544,0,-65.682,0.288,0,0.53379,0,-19.556,58.817,1,1,4.865,4.865,-0.1,0
-0.0024471,0.027283,0,-0.74543,0.96824,-0.83053,0,0,-0.74543,0,-65.671,0.2889,0,0.53254,0,-19.553,58.806,1,1,4.87,4.87,-0.1,0
-0.0024485,0.027287,0,-0.74543,0.9706,-0.83213,0,0,-0.74543,0,-65.66,0.28981,0,0.53129,0,-19.551,58.796,1,1,4.875,4.875,-0.1,0
-0.00245,0.02729,0,-0.74542,0.97295,-0.83372,0,0,-0.74542,0,-65.649,0.29072,0,0.53004,0,-19.548,58.785,1,1,4.88,4.88,-0.1,0
-0.0024515,0.027293,0,-0.74541,0.9753,-0.83532,0,0,-0.74541,0,-65.639,0.29162,0,0.52879,0,-19.545,58.775,1,1,4.885,4.885,-0.1,0
-0.002453,0.027297,0,-0.74541,0.97765,-0.83691,0,0,-0.74541,0,-65.628,0.29253,0,0.52754,0,-19.542,58.764,1,1,4.89,4.89,-0.1,0
-0.0024545,0.0273,0,-0.7454,0.98001,-0.83851,0,0,-0.7454,0,-65.617,0.29344,0,0.52629,0,-19.539,58.753,1,1,4.895,4.895,-0.1,0
-0.002456,0.027303,0,-0.74539,0.98236,-0.8401,0,0,-0.74539,0,-65.606,0.29434,0,0.52504,0,-19.536,58.743,1,1,4.9,4.9,-0.1,0
-0.0024574,0.027306,0,-0.74539,0.98471,-0.8417,0,0,-0.74539,0,-65.596,0.29525,0,0.52379,0,-19.533,58.732,1,1,4.905,4.905,-0.1,0
-0.0024589,0.02731,0,-0.74538,0.98706,-0.8433,0,0,-0.74538,0,-65.585,0.29615,0,0.52254,0,-19.531,58.722,1,1,4.91,4.91,-0.1,0
-0.0024604,0.027313,0,-0.74537,0.98942,-0.84489,0,0,-0.74537,0,-65.574,0.29706,0,0.52129,0,-19.528,58.711,1,1,4.915,4.915,-0.1,0
-0.0024619,0.027316,0,-0.74537,0.99177,-0.84649,0,0,-0.74537,0,-65.563,0.29797,0,0.52004,0,-19.525,58.701,1,1,4.92,4.92,-0.1,0
-0.0024634,0.02732,0,-0.74536,0.99412,-0.84808,0,0,-0.74536,0,-65.553,0.29887,0,0.51879,0,-19.522,58.69,1,1,4.925,4.925,-0.1,0
-0.0024648,0.027323,0,-0.74535,0.99647,-0.84968,0,0,-0.74535,0,-65.542,0.29978,0,0.51754,0,-19.519,58.679,1,1,4.93,4.93,-0.1,0
-0.0024663,0.027326,0,-0.74535,0.99883,-0.85127,0,0,-0.74535,0,-65.531,0.30068,0,0.51629,0,-19.516,58.669,1,1,4.935,4.935,-0.1,0
-0.0024678,0.027329,0,-0.74534,1.0012,-0.85287,0,0,-0.74534,0,-65.52,0.30159,0,0.51504,0,-19.513,58.658,1,1,4.94,4.94,-0.1,0
-0.0024693,0.027333,0,-0.74533,1.0035,-0.85447,0,0,-0.74533,0,-65.51,0.3025,0,0.51379,0,-19.511,58.648,1,1,4.945,4.945,-0.1,0
-0.0024708,0.027336,0,-0.74533,1.0059,-0.85606,0,0,-0.74533,0,-65.499,0.3034,0,0.51254,0,-19.508,58.637,1,1,4.95,4.95,-0.1,0
-0.0024722,0.027339,0,-0.74532,1.0082,-0.85766,0,0,-0.74532,0,-65.488,0.30431,0,0.51129,0,-19.505,58.626,1,1,4.955,4.955,-0.1,0
-0.0024737,0.027343,0,-0.74531,1.0106,-0.85925,0,0,-0.74531,0,-65.477,0.30521,0,0.51004,0,-19.502,58.616,1,1,4.96,4.96,-0.1,0
-0.0024752,0.027346,0,-0.74531,1.0129,-0.86085,0,0,-0.74531,0,-65.466,0.30612,0,0.5088,0,-19.499,58.605,1,1,4.965,4.965,-0.1,0
-0.0024767,0.027349,0,-0.7453,1.0153,-0.86244,0,0,-0.7453,0,-65.456,0.30702,0,0.50755,0,-19.496,58.595,1,1,4.97,4.97,-0.1,0
-0.0024782,0.027352,0,-0.7453,1.0176,-0.86404,0,0,-0.7453,0,-65.445,0.30793,0,0.5063,0,-19.493,58.584,1,1,4.975,4.975,-0.1,0
-0.0024796,0.027356,0,-0.74529,1.02,-0.86563,0,0,-0.74529,0,-65.434,0.30884,0,0.50505,0,-19.491,58.574,1,1,4.98,4.98,-0.1,0
-0.0024811,0.027359,0,-0.74528,1.0223,-0.86723,0,0,-0.74528,0,-65.423,0.30974,0,0.5038,0,-19.488,58.563,1,1,4.985,4.985,-0.1,0
-0.0024826,0.027362,0,-0.74528,1.0247,-0.86882,0,0,-0.74528,0,-65.413,0.31065,0,0.50255,0,-19.485,58.552,1,1,4.99,4.99,-0.1,0
-0.0024841,0.027366,0,-0.74527,1.0271,-0.87042,0,0,-0.74527,0,-65.402,0.31155,0,0.5013,0,-19.482,58.542,1,1,4.995,4.995,-0.1,0
-0.0024856,0.027369,0,-0.74526,1.0294,-0.87201,0,0,-0.74526,0,-65.391,0.31246,0,0.50005,0,-19.479,58.531,1,1,5,5,-0.1,0
