"displacement:0","displacement:1","displacement:2","displacement contact active","displacement contact distance","displacement contact gap","displacement contact normalload","displacement contact slipload","displacement contact stick","displacement contact weight","stress_xx","stress_xy","stress_xz","stress_yy","stress_yz","stress_zz","vonmises","GeometryIds","vtkValidPointMask","arc_length","Points:0","Points:1","Points:2"
-3.4179e-15,0.01063,0,0.6235,-0.00022964,0.00022911,828.52,307.01,-0.43422,0,-916.92,181.9,0,-1496.9,0,-729.96,807.65,102,1,0,0,-0.1,0
-6.1993e-06,0.010646,0,0.61839,-0.00023582,0.00023524,815.84,293.53,-0.43413,0,-912.7,185.77,0,-1485.7,0,-725.27,804.63,1,1,0.005,0.005,-0.1,0
-1.2406e-05,0.010662,0,0.61315,-0.00024151,0.00024088,803.24,280.25,-0.43403,0,-908.45,189.55,0,-1474.5,0,-720.55,801.6,1,1,0.01,0.01,-0.1,0
-1.8619e-05,0.010678,0,0.60777,-0.00024671,0.00024603,790.74,267.19,-0.43393,0,-904.15,193.25,0,-1463.2,0,-715.79,798.54,1,1,0.015,0.015,-0.1,0
-2.4839e-05,0.010695,0,0.60226,-0.00025142,0.0002507,778.33,254.34,-0.43383,0,-899.81,196.87,0,-1451.8,0,-711,795.46,1,1,0.02,0.02,-0.1,0
-3.1066e-05,0.010712,0,0.59662,-0.00025565,0.00025489,766,241.7,-0.43373,0,-895.43,200.41,0,-1440.4,0,-706.18,792.36,1,1,0.025,0.025,-0.1,0
-3.7301e-05,0.010729,0,0.59085,-0.00025939,0.00025858,753.77,229.27,-0.43363,0,-891.01,203.87,0,-1428.9,0,-701.32,789.23,1,1,0.03,0.03,-0.1,0
-4.3542e-05,0.010746,0,0.58495,-0.00026264,0.0002618,741.62,217.06,-0.43353,0,-886.55,207.25,0,-1417.3,0,-696.43,786.09,1,1,0.035,0.035,-0.1,0
-4.9791e-05,0.010764,0,0.57891,-0.0002654,0.00026452,729.57,205.05,-0.43343,0,-882.05,210.55,0,-1405.7,0,-691.51,782.91,1,1,0.04,0.04,-0.1,0
-5.6046e-05,0.010782,0,0.57274,-0.00026768,0.00026676,717.6,193.26,-0.43334,0,-877.51,213.76,0,-1393.9,0,-686.55,779.72,1,1,0.045,0.045,-0.1,0
-6.2309e-05,0.0108,0,0.56643,-0.00026947,0.00026852,705.72,181.68,-0.43324,0,-872.92,216.9,0,-1382.1,0,-681.56,776.5,1,1,0.05,0.05,-0.1,0
-6.8579e-05,0.010819,0,0.56,-0.00027077,0.00026979,693.93,170.31,-0.43314,0,-868.3,219.96,0,-1370.3,0,-676.54,773.27,1,1,0.055,0.055,-0.1,0
-7.4856e-05,0.010838,0,0.55343,-0.00027159,0.00027057,682.23,159.15,-0.43304,0,-863.64,222.93,0,-1358.3,0,-671.48,770,1,1,0.06,0.06,-0.1,0
nan,nan,nan,nan,nan,nan,nan,nan,nan,nan,nan,nan,nan,nan,nan,nan,nan,0,0,0.065,0.065,-0.1,0
nan,nan,nan,nan,nan,nan,nan,nan,nan,nan,nan,nan,nan,nan,nan,nan,nan,0,0,0.07,0.07,-0.1,0
nan,nan,nan,nan,nan,nan,nan,nan,nan,nan,nan,nan,nan,nan,nan,nan,nan,0,0,0.075,0.075,-0.1,0
nan,nan,nan,nan,nan,nan,nan,nan,nan,nan,nan,nan,nan,nan,nan,nan,nan,0,0,0.08,0.08,-0.1,0
nan,nan,nan,nan,nan,nan,nan,nan,nan,nan,nan,nan,nan,nan,nan,nan,nan,0,0,0.085,0.085,-0.1,0
nan,nan,nan,nan,nan,nan,nan,nan,nan,nan,nan,nan,nan,nan,nan,nan,nan,0,0,0.09,0.09,-0.1,0
nan,nan,nan,nan,nan,nan,nan,nan,nan,nan,nan,nan,nan,nan,nan,nan,nan,0,0,0.095,0.095,-0.1,0
nan,nan,nan,nan,nan,nan,nan,nan,nan,nan,nan,nan,nan,nan,nan,nan,nan,0,0,0.1,0.1,-0.1,0
nan,nan,nan,nan,nan,nan,nan,nan,nan,nan,nan,nan,nan,nan,nan,nan,nan,0,0,0.105,0.105,-0.1,0
nan,nan,nan,nan,nan,nan,nan,nan,nan,nan,nan,nan,nan,nan,nan,nan,nan,0,0,0.11,0.11,-0.1,0
nan,nan,nan,nan,nan,nan,nan,nan,nan,nan,nan,nan,nan,nan,nan,nan,nan,0,0,0.115,0.115,-0.1,0
nan,nan,nan,nan,nan,nan,nan,nan,nan,nan,nan,nan,nan,nan,nan,nan,nan,0,0,0.12,0.12,-0.1,0
nan,nan,nan,nan,nan,nan,nan,nan,nan,nan,nan,nan,nan,nan,nan,nan,nan,0,0,0.125,0.125,-0.1,0
nan,nan,nan,nan,nan,nan,nan,nan,nan,nan,nan,nan,nan,nan,nan,nan,nan,0,0,0.13,0.13,-0.1,0
nan,nan,nan,nan,nan,nan,nan,nan,nan,nan,nan,nan,nan,nan,nan,nan,nan,0,0,0.135,0.135,-0.1,0
nan,nan,nan,nan,nan,nan,nan,nan,nan,nan,nan,nan,nan,nan,nan,nan,nan,0,0,0.14,0.14,-0.1,0
nan,nan,nan,nan,nan,nan,nan,nan,nan,nan,nan,nan,nan,nan,nan,nan,nan,0,0,0.145,0.145,-0.1,0
nan,nan,nan,nan,nan,nan,nan,nan,nan,nan,nan,nan,nan,nan,nan,nan,nan,0,0,0.15,0.15,-0.1,0
nan,nan,nan,nan,nan,nan,nan,nan,nan,nan,nan,nan,nan,nan,nan,nan,nan,0,0,0.155,0.155,-0.1,0
nan,nan,nan,nan,nan,nan,nan,nan,nan,nan,nan,nan,nan,nan,nan,nan,nan,0,0,0.16,0.16,-0.1,0
nan,nan,nan,nan,nan,nan,nan,nan,nan,nan,nan,nan,nan,nan,nan,nan,nan,0,0,0.165,0.165,-0.1,0
nan,nan,nan,nan,nan,nan,nan,nan,nan,nan,nan,nan,nan,nan,nan,nan,nan,0,0,0.17,0.17,-0.1,0
nan,nan,nan,nan,nan,nan,nan,nan,nan,nan,nan,nan,nan,nan,nan,nan,nan,0,0,0.175,0.175,-0.1,0
nan,nan,nan,nan,nan,nan,nan,nan,nan,nan,nan,nan,nan,nan,nan,nan,nan,0,0,0.18,0.18,-0.1,0
nan,nan,nan,nan,nan,nan,nan,nan,nan,nan,nan,nan,nan,nan,nan,nan,nan,0,0,0.185,0.185,-0.1,0
-0.00024065,0.011431,0,0.33622,-0.00012228,0.00012094,409.23,-56.831,-0.43048,0,-728.09,272.13,0,-1021.9,0,-528.18,677.29,1,1,0.19,0.19,-0.1,0
-0.00024713,0.011458,0,0.32609,-0.00010999,0.00010866,399.93,-62.292,-0.43039,0,-722.33,272.94,0,-1008,0,-522.21,673.42,1,1,0.195,0.195,-0.1,0
-0.00025362,0.011485,0,0.31582,-9.721e-05,9.5893e-05,390.71,-67.543,-0.43029,0,-716.53,273.67,0,-994.02,0,-516.22,669.53,1,1,0.2,0.2,-0.1,0
-0.00026012,0.011512,0,0.30542,-8.395e-05,8.2643e-05,381.59,-72.583,-0.43019,0,-710.68,274.32,0,-979.95,0,-510.18,665.61,1,1,0.205,0.205,-0.1,0
-0.00026662,0.011539,0,0.29489,-7.0206e-05,6.8911e-05,372.55,-77.413,-0.43009,0,-704.8,274.89,0,-965.8,0,-504.12,661.68,1,1,0.21,0.21,-0.1,0
-0.00027313,0.011567,0,0.28422,-5.5978e-05,5.4696e-05,363.6,-82.032,-0.42999,0,-698.88,275.38,0,-951.59,0,-498.02,657.72,1,1,0.215,0.215,-0.1,0
-0.00027965,0.011595,0,0.27343,-4.1266e-05,3.9999e-05,354.74,-86.442,-0.4299,0,-692.91,275.79,0,-937.29,0,-491.89,653.74,1,1,0.22,0.22,-0.1,0
-0.00028617,0.011624,0,0.2625,-2.607e-05,2.4819e-05,345.97,-90.641,-0.4298,0,-686.91,276.11,0,-922.93,0,-485.72,649.74,1,1,0.225,0.225,-0.1,0
-0.00029271,0.011653,0,0.25144,-1.039e-05,9.157e-06,337.29,-94.63,-0.4297,0,-680.86,276.36,0,-908.49,0,-479.52,645.72,1,1,0.23,0.23,-0.1,0
-0.00029925,0.011682,0,0.24025,5.7738e-06,-6.9873e-06,328.7,-98.408,-0.4296,0,-674.77,276.53,0,-893.98,0,-473.29,641.67,1,1,0.235,0.235,-0.1,0
-0.0003058,0.011711,0,0.22892,2.2421e-05,-2.3614e-05,320.19,-101.98,-0.4295,0,-668.65,276.62,0,-879.4,0,-467.02,637.6,1,1,0.24,0.24,-0.1,0
-0.00031236,0.011741,0,0.21747,3.9552e-05,-4.0722e-05,311.78,-105.34,-0.42941,0,-662.48,276.63,0,-864.74,0,-460.72,633.51,1,1,0.245,0.245,-0.1,0
-0.00031892,0.011771,0,0.20588,5.716e-05,-5.8307e-05,303.44,-108.48,-0.4293,0,-656.27,276.56,0,-850.01,0,-454.39,629.4,1,1,0.25,0.25,-0.1,0
-0.00032546,0.011801,0,0.19416,7.5184e-05,-7.6305e-05,295.15,-111.43,-0.42914,0,-649.99,276.4,0,-835.2,0,-448.01,625.27,1,1,0.255,0.255,-0.1,0
-0.000332,0.011831,0,0.1823,9.3685e-05,-9.478e-05,286.95,-114.17,-0.42899,0,-643.68,276.17,0,-820.31,0,-441.59,621.11,1,1,0.26,0.26,-0.1,0
-0.00033855,0.011862,0,0.17031,0.00011266,-0.00011373,278.83,-116.7,-0.42883,0,-637.32,275.86,0,-805.35,0,-435.15,616.93,1,1,0.265,0.265,-0.1,0
-0.0003451,0.011893,0,0.1582,0.00013212,-0.00013316,270.81,-119.02,-0.42867,0,-630.92,275.46,0,-790.32,0,-428.67,612.72,1,1,0.27,0.27,-0.1,0
-0.00035166,0.011925,0,0.14596,0.00015206,-0.00015306,262.88,-121.13,-0.42851,0,-624.49,274.99,0,-775.22,0,-422.16,608.5,1,1,0.275,0.275,-0.1,0
-0.00035823,0.011956,0,0.13359,0.00017247,-0.00017345,255.04,-123.02,-0.42835,0,-618.02,274.44,0,-760.04,0,-415.62,604.25,1,1,0.28,0.28,-0.1,0
-0.00036481,0.011988,0,0.12109,0.00019336,-0.0001943,247.29,-124.71,-0.42819,0,-611.5,273.81,0,-744.79,0,-409.04,599.99,1,1,0.285,0.285,-0.1,0
-0.00037139,0.01202,0,0.10847,0.00021473,-0.00021563,239.63,-126.18,-0.42803,0,-604.95,273.1,0,-729.47,0,-402.43,595.7,1,1,0.29,0.29,-0.1,0
-0.00037798,0.012053,0,0.095714,0.00023657,-0.00023744,232.06,-127.45,-0.42787,0,-598.36,272.31,0,-714.08,0,-395.79,591.39,1,1,0.295,0.295,-0.1,0
-0.00038457,0.012086,0,0.082833,0.00025889,-0.00025973,224.59,-128.5,-0.42771,0,-591.73,271.44,0,-698.62,0,-389.11,587.06,1,1,0.3,0.3,-0.1,0
-0.00039118,0.012119,0,0.069824,0.00028169,-0.00028249,217.2,-129.35,-0.42755,0,-585.06,270.49,0,-683.08,0,-382.41,582.7,1,1,0.305,0.305,-0.1,0
-0.00039779,0.012152,0,0.056687,0.00030497,-0.00030572,209.9,-129.98,-0.42739,0,-578.35,269.46,0,-667.48,0,-375.66,578.33,1,1,0.31,0.31,-0.1,0
-0.00040441,0.012186,0,0.043422,0.00032872,-0.00032943,202.69,-130.4,-0.42723,0,-571.61,268.35,0,-651.8,0,-368.89,573.93,1,1,0.315,0.315,-0.1,0
nan,nan,nan,nan,nan,nan,nan,nan,nan,nan,nan,nan,nan,nan,nan,nan,nan,0,0,0.32,0.32,-0.1,0
nan,nan,nan,nan,nan,nan,nan,nan,nan,nan,nan,nan,nan,nan,nan,nan,nan,0,0,0.325,0.325,-0.1,0
nan,nan,nan,nan,nan,nan,nan,nan,nan,nan,nan,nan,nan,nan,nan,nan,nan,0,0,0.33,0.33,-0.1,0
nan,nan,nan,nan,nan,nan,nan,nan,nan,nan,nan,nan,nan,nan,nan,nan,nan,0,0,0.335,0.335,-0.1,0
nan,nan,nan,nan,nan,nan,nan,nan,nan,nan,nan,nan,nan,nan,nan,nan,nan,0,0,0.34,0.34,-0.1,0
nan,nan,nan,nan,nan,nan,nan,nan,nan,nan,nan,nan,nan,nan,nan,nan,nan,0,0,0.345,0.345,-0.1,0
nan,nan,nan,nan,nan,nan,nan,nan,nan,nan,nan,nan,nan,nan,nan,nan,nan,0,0,0.35,0.35,-0.1,0
nan,nan,nan,nan,nan,nan,nan,nan,nan,nan,nan,nan,nan,nan,nan,nan,nan,0,0,0.355,0.355,-0.1,0
nan,nan,nan,nan,nan,nan,nan,nan,nan,nan,nan,nan,nan,nan,nan,nan,nan,0,0,0.36,0.36,-0.1,0
nan,nan,nan,nan,nan,nan,nan,nan,nan,nan,nan,nan,nan,nan,nan,nan,nan,0,0,0.365,0.365,-0.1,0
nan,nan,nan,nan,nan,nan,nan,nan,nan,nan,nan,nan,nan,nan,nan,nan,nan,0,0,0.37,0.37,-0.1,0
nan,nan,nan,nan,nan,nan,nan,nan,nan,nan,nan,nan,nan,nan,nan,nan,nan,0,0,0.375,0.375,-0.1,0
nan,nan,nan,nan,nan,nan,nan,nan,nan,nan,nan,nan,nan,nan,nan,nan,nan,0,0,0.38,0.38,-0.1,0
nan,nan,nan,nan,nan,nan,nan,nan,nan,nan,nan,nan,nan,nan,nan,nan,nan,0,0,0.385,0.385,-0.1,0
nan,nan,nan,nan,nan,nan,nan,nan,nan,nan,nan,nan,nan,nan,nan,nan,nan,0,0,0.39,0.39,-0.1,0
nan,nan,nan,nan,nan,nan,nan,nan,nan,nan,nan,nan,nan,nan,nan,nan,nan,0,0,0.395,0.395,-0.1,0
nan,nan,nan,nan,nan,nan,nan,nan,nan,nan,nan,nan,nan,nan,nan,nan,nan,0,0,0.4,0.4,-0.1,0
nan,nan,nan,nan,nan,nan,nan,nan,nan,nan,nan,nan,nan,nan,nan,nan,nan,0,0,0.405,0.405,-0.1,0
nan,nan,nan,nan,nan,nan,nan,nan,nan,nan,nan,nan,nan,nan,nan,nan,nan,0,0,0.41,0.41,-0.1,0
nan,nan,nan,nan,nan,nan,nan,nan,nan,nan,nan,nan,nan,nan,nan,nan,nan,0,0,0.415,0.415,-0.1,0
nan,nan,nan,nan,nan,nan,nan,nan,nan,nan,nan,nan,nan,nan,nan,nan,nan,0,0,0.42,0.42,-0.1,0
nan,nan,nan,nan,nan,nan,nan,nan,nan,nan,nan,nan,nan,nan,nan,nan,nan,0,0,0.425,0.425,-0.1,0
nan,nan,nan,nan,nan,nan,nan,nan,nan,nan,nan,nan,nan,nan,nan,nan,nan,0,0,0.43,0.43,-0.1,0
nan,nan,nan,nan,nan,nan,nan,nan,nan,nan,nan,nan,nan,nan,nan,nan,nan,0,0,0.435,0.435,-0.1,0
nan,nan,nan,nan,nan,nan,nan,nan,nan,nan,nan,nan,nan,nan,nan,nan,nan,0,0,0.44,0.44,-0.1,0
-0.00057907,0.013163,0,-0.34621,0.0011131,-0.0011122,46.997,-67.843,-0.42312,0,-382.53,211.76,0,-218.83,0,-181.31,452.15,1,1,0.445,0.445,-0.1,0
-0.0005859,0.013204,0,-0.36292,0.0011497,-0.0011487,42.223,-62.614,-0.42296,0,-374.73,208.52,0,-201.2,0,-173.65,447.18,1,1,0.45,0.45,-0.1,0
-0.00059273,0.013246,0,-0.37975,0.0011867,-0.0011857,37.539,-57.177,-0.4228,0,-366.9,205.2,0,-183.51,0,-165.96,442.19,1,1,0.455,0.455,-0.1,0
-0.00059957,0.013288,0,-0.3967,0.0012242,-0.0012231,32.945,-51.532,-0.42265,0,-359.02,201.8,0,-165.74,0,-158.24,437.19,1,1,0.46,0.46,-0.1,0
-0.00060641,0.01333,0,-0.41379,0.0012622,-0.001261,28.441,-45.679,-0.42249,0,-351.11,198.32,0,-147.9,0,-150.49,432.16,1,1,0.465,0.465,-0.1,0
-0.00061327,0.013373,0,-0.431,0.0013007,-0.0012994,24.026,-39.617,-0.42233,0,-343.16,194.76,0,-129.99,0,-142.7,427.11,1,1,0.47,0.47,-0.1,0
-0.00062013,0.013415,0,-0.44833,0.0013396,-0.0013382,19.7,-33.347,-0.42217,0,-335.17,191.12,0,-112,0,-134.88,422.03,1,1,0.475,0.475,-0.1,0
-0.000627,0.013459,0,-0.46579,0.001379,-0.0013775,15.465,-26.869,-0.42201,0,-327.14,187.41,0,-93.947,0,-127.03,416.94,1,1,0.48,0.48,-0.1,0
-0.00063388,0.013502,0,-0.48338,0.0014189,-0.0014173,11.318,-20.183,-0.42186,0,-319.07,183.62,0,-75.819,0,-119.15,411.83,1,1,0.485,0.485,-0.1,0
-0.00064077,0.013546,0,-0.5011,0.0014593,-0.0014576,7.2616,-13.288,-0.4217,0,-310.97,179.74,0,-57.619,0,-111.23,406.7,1,1,0.49,0.49,-0.1,0
-0.00064767,0.01359,0,-0.51894,0.0015001,-0.0014983,3.2944,-6.1863,-0.42154,0,-302.82,175.79,0,-39.348,0,-103.28,401.54,1,1,0.495,0.495,-0.1,0
-0.00065445,0.013631,0,-0.53343,0.0015504,-0.0015484,0,0,-0.4214,0,-295.41,171.54,0,-23.417,0,-96.254,396.85,1,1,0.5,0.5,-0.1,0
-0.00066051,0.013656,0,-0.5286,0.0016517,-0.0016492,0,0,-0.42131,0,-292.27,166.05,0,-20.948,0,-94.559,394.83,1,1,0.505,0.505,-0.1,0
-0.00066654,0.013681,0,-0.52383,0.0017538,-0.0017508,0,0,-0.42122,0,-289.16,160.63,0,-18.524,0,-92.885,392.81,1,1,0.51,0.51,-0.1,0
-0.00067254,0.013705,0,-0.51913,0.0018567,-0.0018531,0,0,-0.42113,0,-286.08,155.29,0,-16.144,0,-91.233,390.77,1,1,0.515,0.515,-0.1,0
-0.0006785,0.01373,0,-0.5145,0.0019604,-0.0019563,0,0,-0.42104,0,-283.03,150.03,0,-13.807,0,-89.603,388.73,1,1,0.52,0.52,-0.1,0
-0.00068443,0.013754,0,-0.50994,0.002065,-0.0020603,0,0,-0.42096,0,-280.01,144.84,0,-11.515,0,-87.994,386.67,1,1,0.525,0.525,-0.1,0
-0.00069032,0.013779,0,-0.50545,0.0021704,-0.0021651,0,0,-0.42087,0,-277.01,139.73,0,-9.2665,0,-86.407,384.61,1,1,0.53,0.53,-0.1,0
-0.00069618,0.013803,0,-0.50103,0.0022765,-0.0022707,0,0,-0.42078,0,-274.04,134.7,0,-7.0621,0,-84.841,382.53,1,1,0.535,0.535,-0.1,0
-0.000702,0.013827,0,-0.49668,0.0023835,-0.0023771,0,0,-0.42069,0,-271.09,129.74,0,-4.9017,0,-83.297,380.44,1,1,0.54,0.54,-0.1,0
nan,nan,nan,nan,nan,nan,nan,nan,nan,nan,nan,nan,nan,nan,nan,nan,nan,0,0,0.545,0.545,-0.1,0
nan,nan,nan,nan,nan,nan,nan,nan,nan,nan,nan,nan,nan,nan,nan,nan,nan,0,0,0.55,0.55,-0.1,0
nan,nan,nan,nan,nan,nan,nan,nan,nan,nan,nan,nan,nan,nan,nan,nan,nan,0,0,0.555,0.555,-0.1,0
nan,nan,nan,nan,nan,nan,nan,nan,nan,nan,nan,nan,nan,nan,nan,nan,nan,0,0,0.56,0.56,-0.1,0
nan,nan,nan,nan,nan,nan,nan,nan,nan,nan,nan,nan,nan,nan,nan,nan,nan,0,0,0.565,0.565,-0.1,0
nan,nan,nan,nan,nan,nan,nan,nan,nan,nan,nan,nan,nan,nan,nan,nan,nan,0,0,0.57,0.57,-0.1,0
nan,nan,nan,nan,nan,nan,nan,nan,nan,nan,nan,nan,nan,nan,nan,nan,nan,0,0,0.575,0.575,-0.1,0
nan,nan,nan,nan,nan,nan,nan,nan,nan,nan,nan,nan,nan,nan,nan,nan,nan,0,0,0.58,0.58,-0.1,0
nan,nan,nan,nan,nan,nan,nan,nan,nan,nan,nan,nan,nan,nan,nan,nan,nan,0,0,0.585,0.585,-0.1,0
nan,nan,nan,nan,nan,nan,nan,nan,nan,nan,nan,nan,nan,nan,nan,nan,nan,0,0,0.59,0.59,-0.1,0
nan,nan,nan,nan,nan,nan,nan,nan,nan,nan,nan,nan,nan,nan,nan,nan,nan,0,0,0.595,0.595,-0.1,0
nan,nan,nan,nan,nan,nan,nan,nan,nan,nan,nan,nan,nan,nan,nan,nan,nan,0,0,0.6,0.6,-0.1,0
nan,nan,nan,nan,nan,nan,nan,nan,nan,nan,nan,nan,nan,nan,nan,nan,nan,0,0,0.605,0.605,-0.1,0
nan,nan,nan,nan,nan,nan,nan,nan,nan,nan,nan,nan,nan,nan,nan,nan,nan,0,0,0.61,0.61,-0.1,0
nan,nan,nan,nan,nan,nan,nan,nan,nan,nan,nan,nan,nan,nan,nan,nan,nan,0,0,0.615,0.615,-0.1,0
nan,nan,nan,nan,nan,nan,nan,nan,nan,nan,nan,nan,nan,nan,nan,nan,nan,0,0,0.62,0.62,-0.1,0
nan,nan,nan,nan,nan,nan,nan,nan,nan,nan,nan,nan,nan,nan,nan,nan,nan,0,0,0.625,0.625,-0.1,0
nan,nan,nan,nan,nan,nan,nan,nan,nan,nan,nan,nan,nan,nan,nan,nan,nan,0,0,0.63,0.63,-0.1,0
nan,nan,nan,nan,nan,nan,nan,nan,nan,nan,nan,nan,nan,nan,nan,nan,nan,0,0,0.635,0.635,-0.1,0
nan,nan,nan,nan,nan,nan,nan,nan,nan,nan,nan,nan,nan,nan,nan,nan,nan,0,0,0.64,0.64,-0.1,0
nan,nan,nan,nan,nan,nan,nan,nan,nan,nan,nan,nan,nan,nan,nan,nan,nan,0,0,0.645,0.645,-0.1,0
nan,nan,nan,nan,nan,nan,nan,nan,nan,nan,nan,nan,nan,nan,nan,nan,nan,0,0,0.65,0.65,-0.1,0
nan,nan,nan,nan,nan,nan,nan,nan,nan,nan,nan,nan,nan,nan,nan,nan,nan,0,0,0.655,0.655,-0.1,0
nan,nan,nan,nan,nan,nan,nan,nan,nan,nan,nan,nan,nan,nan,nan,nan,nan,0,0,0.66,0.66,-0.1,0
nan,nan,nan,nan,nan,nan,nan,nan,nan,nan,nan,nan,nan,nan,nan,nan,nan,0,0,0.665,0.665,-0.1,0
nan,nan,nan,nan,nan,nan,nan,nan,nan,nan,nan,nan,nan,nan,nan,nan,nan,0,0,0.67,0.67,-0.1,0
nan,nan,nan,nan,nan,nan,nan,nan,nan,nan,nan,nan,nan,nan,nan,nan,nan,0,0,0.675,0.675,-0.1,0
nan,nan,nan,nan,nan,nan,nan,nan,nan,nan,nan,nan,nan,nan,nan,nan,nan,0,0,0.68,0.68,-0.1,0
nan,nan,nan,nan,nan,nan,nan,nan,nan,nan,nan,nan,nan,nan,nan,nan,nan,0,0,0.685,0.685,-0.1,0
nan,nan,nan,nan,nan,nan,nan,nan,nan,nan,nan,nan,nan,nan,nan,nan,nan,0,0,0.69,0.69,-0.1,0
nan,nan,nan,nan,nan,nan,nan,nan,nan,nan,nan,nan,nan,nan,nan,nan,nan,0,0,0.695,0.695,-0.1,0
nan,nan,nan,nan,nan,nan,nan,nan,nan,nan,nan,nan,nan,nan,nan,nan,nan,0,0,0.7,0.7,-0.1,0
nan,nan,nan,nan,nan,nan,nan,nan,nan,nan,nan,nan,nan,nan,nan,nan,nan,0,0,0.705,0.705,-0.1,0
-0.00087931,0.014563,0,-0.38946,0.0065058,-0.0064763,0,0,-0.41771,0,-187.33,6.5668,0,42.393,0,-43.643,303.65,1,1,0.71,0.71,-0.1,0
-0.00088392,0.014583,0,-0.38751,0.0066413,-0.0066109,0,0,-0.41762,0,-185.35,4.2768,0,43.015,0,-42.854,301.22,1,1,0.715,0.715,-0.1,0
-0.0008885,0.014602,0,-0.38562,0.0067775,-0.0067464,0,0,-0.41754,0,-183.39,2.0628,0,43.593,0,-42.086,298.78,1,1,0.72,0.72,-0.1,0
-0.00089304,0.014621,0,-0.3838,0.0069146,-0.0068827,0,0,-0.41745,0,-181.46,-0.075171,0,44.127,0,-41.34,296.33,1,1,0.725,0.725,-0.1,0
-0.00089754,0.01464,0,-0.38205,0.0070525,-0.0070198,0,0,-0.41736,0,-179.55,-2.1371,0,44.617,0,-40.616,293.87,1,1,0.73,0.73,-0.1,0
-0.00090201,0.014659,0,-0.38037,0.0071912,-0.0071577,0,0,-0.41727,0,-177.68,-4.1231,0,45.063,0,-39.913,291.4,1,1,0.735,0.735,-0.1,0
-0.00090645,0.014678,0,-0.37876,0.0073307,-0.0072964,0,0,-0.41718,0,-175.83,-6.0331,0,45.466,0,-39.232,288.92,1,1,0.74,0.74,-0.1,0
-0.00091085,0.014696,0,-0.37721,0.007471,-0.0074359,0,0,-0.4171,0,-174.01,-7.8671,0,45.824,0,-38.572,286.43,1,1,0.745,0.745,-0.1,0
-0.00091522,0.014715,0,-0.37574,0.0076122,-0.0075762,0,0,-0.41701,0,-172.21,-9.6251,0,46.139,0,-37.933,283.93,1,1,0.75,0.75,-0.1,0
-0.00091955,0.014733,0,-0.37433,0.0077541,-0.0077173,0,0,-0.41692,0,-170.44,-11.307,0,46.41,0,-37.317,281.42,1,1,0.755,0.755,-0.1,0
-0.00092385,0.014751,0,-0.37299,0.0078968,-0.0078592,0,0,-0.41683,0,-168.7,-12.913,0,46.636,0,-36.721,278.9,1,1,0.76,0.76,-0.1,0
-0.00092812,0.014769,0,-0.37171,0.0080404,-0.0080019,0,0,-0.41675,0,-166.99,-14.444,0,46.819,0,-36.147,276.38,1,1,0.765,0.765,-0.1,0
-0.00093235,0.014787,0,-0.37051,0.0081848,-0.0081454,0,0,-0.41666,0,-165.31,-15.898,0,46.958,0,-35.595,273.84,1,1,0.77,0.77,-0.1,0
-0.00093655,0.014805,0,-0.36938,0.00833,-0.0082898,0,0,-0.41657,0,-163.65,-17.276,0,47.053,0,-35.064,271.29,1,1,0.775,0.775,-0.1,0
-0.00094073,0.014823,0,-0.36834,0.0084766,-0.0084355,0,0,-0.41652,0,-162.01,-18.583,0,47.109,0,-34.552,268.73,1,1,0.78,0.78,-0.1,0
-0.00094488,0.01484,0,-0.36737,0.008624,-0.0085821,0,0,-0.41646,0,-160.4,-19.813,0,47.12,0,-34.061,266.17,1,1,0.785,0.785,-0.1,0
-0.000949,0.014857,0,-0.36648,0.0087723,-0.0087295,0,0,-0.4164,0,-158.82,-20.968,0,47.087,0,-33.592,263.59,1,1,0.79,0.79,-0.1,0
-0.00095308,0.014875,0,-0.36564,0.0089214,-0.0088777,0,0,-0.41634,0,-157.26,-22.047,0,47.011,0,-33.145,261,1,1,0.795,0.795,-0.1,0
-0.00095712,0.014892,0,-0.36488,0.0090713,-0.0090268,0,0,-0.41629,0,-155.73,-23.049,0,46.89,0,-32.719,258.4,1,1,0.8,0.8,-0.1,0
-0.00096114,0.014909,0,-0.36419,0.0092221,-0.0091766,0,0,-0.41623,0,-154.23,-23.976,0,46.725,0,-32.314,255.8,1,1,0.805,0.805,-0.1,0
-0.00096511,0.014926,0,-0.36356,0.0093737,-0.0093273,0,0,-0.41617,0,-152.76,-24.828,0,46.517,0,-31.931,253.18,1,1,0.81,0.81,-0.1,0
-0.00096905,0.014942,0,-0.363,0.0095261,-0.0094788,0,0,-0.41612,0,-151.31,-25.603,0,46.264,0,-31.569,250.55,1,1,0.815,0.815,-0.1,0
-0.00097296,0.014959,0,-0.36251,0.0096793,-0.0096312,0,0,-0.41606,0,-149.89,-26.302,0,45.968,0,-31.229,247.92,1,1,0.82,0.82,-0.1,0
-0.00097683,0.014975,0,-0.36209,0.0098334,-0.0097843,0,0,-0.416,0,-148.5,-26.926,0,45.627,0,-30.91,245.27,1,1,0.825,0.825,-0.1,0
-0.00098067,0.014992,0,-0.36173,0.0099883,-0.0099383,0,0,-0.41594,0,-147.13,-27.473,0,45.243,0,-30.613,242.62,1,1,0.83,0.83,-0.1,0
-0.00098448,0.015008,0,-0.36144,0.010144,-0.010093,0,0,-0.41589,0,-145.79,-27.945,0,44.814,0,-30.337,239.95,1,1,0.835,0.835,-0.1,0
-0.00098824,0.015024,0,-0.36122,0.010301,-0.010249,0,0,-0.41583,0,-144.48,-28.341,0,44.342,0,-30.083,237.28,1,1,0.84,0.84,-0.1,0
-0.00099198,0.01504,0,-0.36107,0.010458,-0.010405,0,0,-0.41577,0,-143.2,-28.661,0,43.825,0,-29.85,234.6,1,1,0.845,0.845,-0.1,0
-0.00099568,0.015056,0,-0.36099,0.010616,-0.010562,0,0,-0.41571,0,-141.94,-28.906,0,43.265,0,-29.639,231.9,1,1,0.85,0.85,-0.1,0
-0.00099934,0.015072,0,-0.36097,0.010775,-0.010721,0,0,-0.41566,0,-140.71,-29.074,0,42.661,0,-29.449,229.2,1,1,0.855,0.855,-0.1,0
-0.001003,0.015087,0,-0.36102,0.010935,-0.010879,0,0,-0.4156,0,-139.5,-29.167,0,42.013,0,-29.281,226.49,1,1,0.86,0.86,-0.1,0
nan,nan,nan,nan,nan,nan,nan,nan,nan,nan,nan,nan,nan,nan,nan,nan,nan,0,0,0.865,0.865,-0.1,0
nan,nan,nan,nan,nan,nan,nan,nan,nan,nan,nan,nan,nan,nan,nan,nan,nan,0,0,0.87,0.87,-0.1,0
nan,nan,nan,nan,nan,nan,nan,nan,nan,nan,nan,nan,nan,nan,nan,nan,nan,0,0,0.875,0.875,-0.1,0
nan,nan,nan,nan,nan,nan,nan,nan,nan,nan,nan,nan,nan,nan,nan,nan,nan,0,0,0.88,0.88,-0.1,0
nan,nan,nan,nan,nan,nan,nan,nan,nan,nan,nan,nan,nan,nan,nan,nan,nan,0,0,0.885,0.885,-0.1,0
nan,nan,nan,nan,nan,nan,nan,nan,nan,nan,nan,nan,nan,nan,nan,nan,nan,0,0,0.89,0.89,-0.1,0
nan,nan,nan,nan,nan,nan,nan,nan,nan,nan,nan,nan,nan,nan,nan,nan,nan,0,0,0.895,0.895,-0.1,0
nan,nan,nan,nan,nan,nan,nan,nan,nan,nan,nan,nan,nan,nan,nan,nan,nan,0,0,0.9,0.9,-0.1,0
nan,nan,nan,nan,nan,nan,nan,nan,nan,nan,nan,nan,nan,nan,nan,nan,nan,0,0,0.905,0.905,-0.1,0
nan,nan,nan,nan,nan,nan,nan,nan,nan,nan,nan,nan,nan,nan,nan,nan,nan,0,0,0.91,0.91,-0.1,0
nan,nan,nan,nan,nan,nan,nan,nan,nan,nan,nan,nan,nan,nan,nan,nan,nan,0,0,0.915,0.915,-0.1,0
nan,nan,nan,nan,nan,nan,nan,nan,nan,nan,nan,nan,nan,nan,nan,nan,nan,0,0,0.92,0.92,-0.1,0
nan,nan,nan,nan,nan,nan,nan,nan,nan,nan,nan,nan,nan,nan,nan,nan,nan,0,0,0.925,0.925,-0.1,0
nan,nan,nan,nan,nan,nan,nan,nan,nan,nan,nan,nan,nan,nan,nan,nan,nan,0,0,0.93,0.93,-0.1,0
nan,nan,nan,nan,nan,nan,nan,nan,nan,nan,nan,nan,nan,nan,nan,nan,nan,0,0,0.935,0.935,-0.1,0
-0.0010563,0.015318,0,-0.37108,0.013606,-0.013534,0,0,-0.41468,0,-123.92,-20.348,0,25.662,0,-29.508,181.79,1,1,0.94,0.94,-0.1,0
-0.0010594,0.015331,0,-0.37229,0.01378,-0.013707,0,0,-0.41463,0,-123.17,-19.153,0,24.266,0,-29.704,178.91,1,1,0.945,0.945,-0.1,0
-0.0010624,0.015344,0,-0.37356,0.013954,-0.01388,0,0,-0.41457,0,-122.46,-17.883,0,22.827,0,-29.922,176.03,1,1,0.95,0.95,-0.1,0
-0.0010654,0.015358,0,-0.3749,0.01413,-0.014055,0,0,-0.41451,0,-121.77,-16.537,0,21.343,0,-30.162,173.13,1,1,0.955,0.955,-0.1,0
-0.0010683,0.01537,0,-0.37631,0.014306,-0.01423,0,0,-0.41446,0,-121.1,-15.115,0,19.816,0,-30.423,170.23,1,1,0.96,0.96,-0.1,0
-0.0010712,0.015383,0,-0.37778,0.014484,-0.014406,0,0,-0.4144,0,-120.47,-13.617,0,18.245,0,-30.705,167.32,1,1,0.965,0.965,-0.1,0
-0.0010741,0.015396,0,-0.37933,0.014662,-0.014583,0,0,-0.41434,0,-119.86,-12.044,0,16.629,0,-31.009,164.4,1,1,0.97,0.97,-0.1,0
-0.0010769,0.015408,0,-0.38094,0.014841,-0.014761,0,0,-0.41428,0,-119.27,-10.396,0,14.97,0,-31.334,161.46,1,1,0.975,0.975,-0.1,0
-0.0010797,0.015421,0,-0.38262,0.01502,-0.01494,0,0,-0.41423,0,-118.72,-8.6712,0,13.267,0,-31.681,158.52,1,1,0.98,0.98,-0.1,0
-0.0010825,0.015433,0,-0.38436,0.015201,-0.015119,0,0,-0.41417,0,-118.19,-6.8712,0,11.52,0,-32.049,155.57,1,1,0.985,0.985,-0.1,0
-0.0010852,0.015445,0,-0.38618,0.015382,-0.0153,0,0,-0.41411,0,-117.69,-4.9956,0,9.7291,0,-32.439,152.61,1,1,0.99,0.99,-0.1,0
-0.0010879,0.015457,0,-0.38806,0.015564,-0.015481,0,0,-0.41406,0,-117.21,-3.0444,0,7.8942,0,-32.85,149.64,1,1,0.995,0.995,-0.1,0
-0.0010906,0.015469,0,-0.39001,0.015747,-0.015663,0,0,-0.414,0,-116.76,-1.0176,0,6.0153,0,-33.282,146.66,1,1,1,1,-0.1,0
-0.0010932,0.015481,0,-0.39203,0.015931,-0.015845,0,0,-0.41394,0,-116.34,1.0848,0,4.0926,0,-33.736,143.67,1,1,1.005,1.005,-0.1,0
-0.0010958,0.015492,0,-0.39411,0.016116,-0.016029,0,0,-0.41388,0,-115.95,3.2629,0,2.1258,0,-34.212,140.67,1,1,1.01,1.01,-0.1,0
-0.0010983,0.015504,0,-0.39626,0.016302,-0.016213,0,0,-0.41383,0,-115.58,5.5165,0,0.11521,0,-34.708,137.67,1,1,1.015,1.015,-0.1,0
-0.0011008,0.015515,0,-0.39849,0.016488,-0.016398,0,0,-0.41377,0,-115.24,7.8457,0,-1.9394,0,-35.227,134.65,1,1,1.02,1.02,-0.1,0
-0.0011033,0.015526,0,-0.40077,0.016675,-0.016584,0,0,-0.41371,0,-114.93,10.25,0,-4.0379,0,-35.766,131.62,1,1,1.025,1.025,-0.1,0
-0.0011058,0.015538,0,-0.40313,0.016863,-0.016771,0,0,-0.41365,0,-114.64,12.731,0,-6.1803,0,-36.327,128.59,1,1,1.03,1.03,-0.1,0
-0.0011082,0.015549,0,-0.40555,0.017052,-0.016959,0,0,-0.4136,0,-114.38,15.287,0,-8.3666,0,-36.91,125.54,1,1,1.035,1.035,-0.1,0
-0.0011106,0.015559,0,-0.40804,0.017241,-0.017147,0,0,-0.41354,0,-114.15,17.918,0,-10.597,0,-37.514,122.49,1,1,1.04,1.04,-0.1,0
-0.0011129,0.01557,0,-0.4106,0.017432,-0.017336,0,0,-0.41348,0,-113.94,20.625,0,-12.871,0,-38.139,119.42,1,1,1.045,1.045,-0.1,0
-0.0011153,0.015581,0,-0.41323,0.017623,-0.017527,0,0,-0.41343,0,-113.76,23.408,0,-15.189,0,-38.786,116.35,1,1,1.05,1.05,-0.1,0
-0.0011177,0.015591,0,-0.41334,0.017845,-0.017746,0,0,-0.41338,0,-113.59,23.104,0,-15.388,0,-38.793,115.06,1,1,1.055,1.055,-0.1,0
-0.0011201,0.015602,0,-0.4133,0.018069,-0.017967,0,0,-0.41334,0,-113.42,22.619,0,-15.454,0,-38.759,113.9,1,1,1.06,1.06,-0.1,0
-0.0011226,0.015613,0,-0.41326,0.018294,-0.018189,0,0,-0.4133,0,-113.25,22.139,0,-15.516,0,-38.724,112.75,1,1,1.065,1.065,-0.1,0
-0.001125,0.015624,0,-0.41322,0.01852,-0.018412,0,0,-0.41326,0,-113.08,21.664,0,-15.573,0,-38.688,111.61,1,1,1.07,1.07,-0.1,0
-0.0011274,0.015635,0,-0.41318,0.018746,-0.018636,0,0,-0.41322,0,-112.91,21.194,0,-15.626,0,-38.649,110.49,1,1,1.075,1.075,-0.1,0
-0.0011298,0.015646,0,-0.41314,0.018974,-0.01886,0,0,-0.41318,0,-112.73,20.73,0,-15.675,0,-38.61,109.39,1,1,1.08,1.08,-0.1,0
-0.0011323,0.015656,0,-0.4131,0.019202,-0.019085,0,0,-0.41313,0,-112.56,20.271,0,-15.719,0,-38.568,108.3,1,1,1.085,1.085,-0.1,0
-0.0011347,0.015667,0,-0.41306,0.019431,-0.019311,0,0,-0.41309,0,-112.38,19.817,0,-15.759,0,-38.526,107.23,1,1,1.09,1.09,-0.1,0
-0.0011371,0.015678,0,-0.41302,0.01966,-0.019538,0,0,-0.41305,0,-112.2,19.369,0,-15.795,0,-38.481,106.17,1,1,1.095,1.095,-0.1,0
-0.0011395,0.015688,0,-0.41298,0.019891,-0.019765,0,0,-0.41301,0,-112.03,18.926,0,-15.826,0,-38.435,105.12,1,1,1.1,1.1,-0.1,0
-0.0011419,0.015699,0,-0.41294,0.020122,-0.019993,0,0,-0.41297,0,-111.85,18.488,0,-15.853,0,-38.388,104.09,1,1,1.105,1.105,-0.1,0
-0.0011443,0.01571,0,-0.4129,0.020354,-0.020222,0,0,-0.41292,0,-111.67,18.056,0,-15.876,0,-38.339,103.08,1,1,1.11,1.11,-0.1,0
-0.0011467,0.01572,0,-0.41286,0.020586,-0.020451,0,0,-0.41288,0,-111.49,17.628,0,-15.894,0,-38.288,102.08,1,1,1.115,1.115,-0.1,0
-0.0011491,0.015731,0,-0.41282,0.02082,-0.020682,0,0,-0.41284,0,-111.31,17.206,0,-15.908,0,-38.236,101.1,1,1,1.12,1.12,-0.1,0
-0.0011515,0.015741,0,-0.41278,0.021054,-0.020912,0,0,-0.4128,0,-111.12,16.79,0,-15.917,0,-38.182,100.13,1,1,1.125,1.125,-0.1,0
-0.0011538,0.015752,0,-0.41274,0.021289,-0.021144,0,0,-0.41276,0,-110.94,16.378,0,-15.922,0,-38.127,99.177,1,1,1.13,1.13,-0.1,0
-0.0011562,0.015762,0,-0.4127,0.021525,-0.021377,0,0,-0.41272,0,-110.76,15.972,0,-15.923,0,-38.07,98.239,1,1,1.135,1.135,-0.1,0
-0.0011586,0.015772,0,-0.41266,0.021761,-0.02161,0,0,-0.41267,0,-110.57,15.571,0,-15.92,0,-38.012,97.317,1,1,1.14,1.14,-0.1,0
-0.001161,0.015783,0,-0.41262,0.021998,-0.021843,0,0,-0.41263,0,-110.38,15.176,0,-15.912,0,-37.952,96.409,1,1,1.145,1.145,-0.1,0
-0.0011633,0.015793,0,-0.41258,0.022236,-0.022078,0,0,-0.41259,0,-110.2,14.786,0,-15.9,0,-37.891,95.516,1,1,1.15,1.15,-0.1,0
-0.0011657,0.015803,0,-0.41254,0.022475,-0.022313,0,0,-0.41255,0,-110.01,14.401,0,-15.883,0,-37.828,94.638,1,1,1.155,1.155,-0.1,0
-0.0011681,0.015814,0,-0.4125,0.022715,-0.022549,0,0,-0.41251,0,-109.82,14.021,0,-15.862,0,-37.763,93.776,1,1,1.16,1.16,-0.1,0
-0.0011704,0.015824,0,-0.41246,0.022955,-0.022786,0,0,-0.41247,0,-109.63,13.647,0,-15.837,0,-37.697,92.929,1,1,1.165,1.165,-0.1,0
-0.0011728,0.015834,0,-0.41242,0.023196,-0.023024,0,0,-0.41242,0,-109.44,13.278,0,-15.807,0,-37.63,92.096,1,1,1.17,1.17,-0.1,0
-0.0011751,0.015844,0,-0.41237,0.023438,-0.023262,0,0,-0.41238,0,-109.25,12.914,0,-15.774,0,-37.561,91.279,1,1,1.175,1.175,-0.1,0
nan,nan,nan,nan,nan,nan,nan,nan,nan,nan,nan,nan,nan,nan,nan,nan,nan,0,0,1.18,1.18,-0.1,0
nan,nan,nan,nan,nan,nan,nan,nan,nan,nan,nan,nan,nan,nan,nan,nan,nan,0,0,1.185,1.185,-0.1,0
nan,nan,nan,nan,nan,nan,nan,nan,nan,nan,nan,nan,nan,nan,nan,nan,nan,0,0,1.19,1.19,-0.1,0
nan,nan,nan,nan,nan,nan,nan,nan,nan,nan,nan,nan,nan,nan,nan,nan,nan,0,0,1.195,1.195,-0.1,0
nan,nan,nan,nan,nan,nan,nan,nan,nan,nan,nan,nan,nan,nan,nan,nan,nan,0,0,1.2,1.2,-0.1,0
nan,nan,nan,nan,nan,nan,nan,nan,nan,nan,nan,nan,nan,nan,nan,nan,nan,0,0,1.205,1.205,-0.1,0
nan,nan,nan,nan,nan,nan,nan,nan,nan,nan,nan,nan,nan,nan,nan,nan,nan,0,0,1.21,1.21,-0.1,0
-0.0011938,0.015924,0,-0.41205,0.025399,-0.025194,0,0,-0.41205,0,-107.69,10.193,0,-15.346,0,-36.952,85.286,1,1,1.215,1.215,-0.1,0
-0.0011961,0.015934,0,-0.41201,0.025648,-0.025438,0,0,-0.41201,0,-107.49,9.877,0,-15.273,0,-36.869,84.605,1,1,1.22,1.22,-0.1,0
-0.0011984,0.015944,0,-0.41197,0.025897,-0.025684,0,0,-0.41197,0,-107.29,9.566,0,-15.196,0,-36.784,83.939,1,1,1.225,1.225,-0.1,0
-0.0012007,0.015954,0,-0.41193,0.026148,-0.02593,0,0,-0.41192,0,-107.08,9.2603,0,-15.114,0,-36.698,83.288,1,1,1.23,1.23,-0.1,0
-0.0012031,0.015964,0,-0.41189,0.026399,-0.026177,0,0,-0.41188,0,-106.88,8.9598,0,-15.028,0,-36.61,82.652,1,1,1.235,1.235,-0.1,0
-0.0012054,0.015973,0,-0.41185,0.02665,-0.026425,0,0,-0.41184,0,-106.68,8.6647,0,-14.938,0,-36.521,82.031,1,1,1.24,1.24,-0.1,0
-0.0012077,0.015983,0,-0.41181,0.026903,-0.026673,0,0,-0.4118,0,-106.48,8.3748,0,-14.843,0,-36.431,81.425,1,1,1.245,1.245,-0.1,0
-0.0012099,0.015993,0,-0.41177,0.027156,-0.026922,0,0,-0.41176,0,-106.27,8.0902,0,-14.744,0,-36.338,80.835,1,1,1.25,1.25,-0.1,0
-0.0012122,0.016002,0,-0.41172,0.02741,-0.027172,0,0,-0.41172,0,-106.07,7.8109,0,-14.641,0,-36.244,80.259,1,1,1.255,1.255,-0.1,0
-0.0012145,0.016012,0,-0.41168,0.027665,-0.027423,0,0,-0.41167,0,-105.86,7.5369,0,-14.534,0,-36.149,79.699,1,1,1.26,1.26,-0.1,0
-0.0012168,0.016022,0,-0.41164,0.02792,-0.027674,0,0,-0.41163,0,-105.65,7.2681,0,-14.422,0,-36.052,79.154,1,1,1.265,1.265,-0.1,0
-0.0012191,0.016031,0,-0.4116,0.028176,-0.027926,0,0,-0.41159,0,-105.44,7.0047,0,-14.305,0,-35.954,78.623,1,1,1.27,1.27,-0.1,0
-0.0012214,0.016041,0,-0.41156,0.028433,-0.028179,0,0,-0.41155,0,-105.23,6.7465,0,-14.185,0,-35.854,78.108,1,1,1.275,1.275,-0.1,0
-0.0012236,0.01605,0,-0.41152,0.028691,-0.028432,0,0,-0.41151,0,-105.02,6.4936,0,-14.06,0,-35.752,77.608,1,1,1.28,1.28,-0.1,0
-0.0012259,0.01606,0,-0.41148,0.02895,-0.028686,0,0,-0.41147,0,-104.81,6.246,0,-13.931,0,-35.649,77.123,1,1,1.285,1.285,-0.1,0
-0.0012282,0.016069,0,-0.41144,0.029209,-0.028941,0,0,-0.41143,0,-104.6,6.0036,0,-13.797,0,-35.545,76.653,1,1,1.29,1.29,-0.1,0
-0.0012304,0.016078,0,-0.4114,0.029469,-0.029197,0,0,-0.41138,0,-104.39,5.7665,0,-13.659,0,-35.439,76.199,1,1,1.295,1.295,-0.1,0
-0.0012327,0.016088,0,-0.41136,0.02973,-0.029453,0,0,-0.41134,0,-104.17,5.5348,0,-13.517,0,-35.331,75.759,1,1,1.3,1.3,-0.1,0
-0.0012349,0.016097,0,-0.41132,0.029991,-0.02971,0,0,-0.4113,0,-103.96,5.3083,0,-13.371,0,-35.222,75.334,1,1,1.305,1.305,-0.1,0
-0.0012372,0.016106,0,-0.41127,0.030254,-0.029968,0,0,-0.41126,0,-103.74,5.087,0,-13.22,0,-35.111,74.925,1,1,1.31,1.31,-0.1,0
-0.0012394,0.016116,0,-0.41123,0.030517,-0.030227,0,0,-0.41122,0,-103.53,4.8711,0,-13.065,0,-34.999,74.53,1,1,1.315,1.315,-0.1,0
-0.0012417,0.016125,0,-0.41119,0.030781,-0.030486,0,0,-0.41118,0,-103.31,4.6604,0,-12.905,0,-34.885,74.151,1,1,1.32,1.32,-0.1,0
-0.0012439,0.016134,0,-0.41115,0.031045,-0.030746,0,0,-0.41113,0,-103.09,4.455,0,-12.742,0,-34.77,73.787,1,1,1.325,1.325,-0.1,0
-0.0012461,0.016143,0,-0.41111,0.031311,-0.031007,0,0,-0.41109,0,-102.87,4.2549,0,-12.574,0,-34.653,73.437,1,1,1.33,1.33,-0.1,0
-0.0012484,0.016152,0,-0.41107,0.031577,-0.031268,0,0,-0.41105,0,-102.65,4.0601,0,-12.401,0,-34.535,73.103,1,1,1.335,1.335,-0.1,0
-0.0012506,0.016162,0,-0.41103,0.031844,-0.03153,0,0,-0.41101,0,-102.43,3.8706,0,-12.225,0,-34.415,72.784,1,1,1.34,1.34,-0.1,0
-0.0012528,0.016171,0,-0.41099,0.032111,-0.031793,0,0,-0.41097,0,-102.21,3.6863,0,-12.043,0,-34.293,72.48,1,1,1.345,1.345,-0.1,0
-0.001255,0.01618,0,-0.41094,0.03238,-0.032057,0,0,-0.41093,0,-101.99,3.5073,0,-11.858,0,-34.171,72.192,1,1,1.35,1.35,-0.1,0
-0.0012572,0.016189,0,-0.41091,0.032649,-0.032322,0,0,-0.41089,0,-101.76,3.3336,0,-11.669,0,-34.046,71.918,1,1,1.355,1.355,-0.1,0
-0.0012595,0.016198,0,-0.41087,0.03292,-0.032587,0,0,-0.41085,0,-101.54,3.165,0,-11.475,0,-33.92,71.658,1,1,1.36,1.36,-0.1,0
-0.0012617,0.016207,0,-0.41084,0.033191,-0.032854,0,0,-0.41082,0,-101.31,3.0017,0,-11.276,0,-33.792,71.414,1,1,1.365,1.365,-0.1,0
-0.0012639,0.016215,0,-0.41081,0.033463,-0.033121,0,0,-0.41079,0,-101.09,2.8438,0,-11.074,0,-33.663,71.185,1,1,1.37,1.37,-0.1,0
-0.0012661,0.016224,0,-0.41077,0.033736,-0.033389,0,0,-0.41075,0,-100.86,2.6911,0,-10.867,0,-33.532,70.971,1,1,1.375,1.375,-0.1,0
-0.0012683,0.016233,0,-0.41074,0.03401,-0.033658,0,0,-0.41072,0,-100.63,2.5436,0,-10.656,0,-33.399,70.772,1,1,1.38,1.38,-0.1,0
-0.0012705,0.016242,0,-0.41071,0.034284,-0.033927,0,0,-0.41069,0,-100.4,2.4015,0,-10.44,0,-33.266,70.588,1,1,1.385,1.385,-0.1,0
-0.0012727,0.016251,0,-0.41067,0.034559,-0.034197,0,0,-0.41065,0,-100.17,2.2646,0,-10.22,0,-33.13,70.419,1,1,1.39,1.39,-0.1,0
-0.0012749,0.01626,0,-0.41064,0.034835,-0.034468,0,0,-0.41062,0,-99.939,2.133,0,-9.9963,0,-32.993,70.265,1,1,1.395,1.395,-0.1,0
-0.001277,0.016268,0,-0.41061,0.035112,-0.03474,0,0,-0.41059,0,-99.707,2.0067,0,-9.7679,0,-32.855,70.127,1,1,1.4,1.4,-0.1,0
-0.0012792,0.016277,0,-0.41057,0.035389,-0.035012,0,0,-0.41055,0,-99.475,1.8857,0,-9.5352,0,-32.715,70.003,1,1,1.405,1.405,-0.1,0
-0.0012814,0.016286,0,-0.41054,0.035668,-0.035285,0,0,-0.41052,0,-99.241,1.7699,0,-9.2982,0,-32.574,69.895,1,1,1.41,1.41,-0.1,0
-0.0012836,0.016294,0,-0.41051,0.035947,-0.035559,0,0,-0.41048,0,-99.007,1.6595,0,-9.0569,0,-32.431,69.802,1,1,1.415,1.415,-0.1,0
-0.0012857,0.016303,0,-0.41047,0.036226,-0.035833,0,0,-0.41045,0,-98.771,1.5543,0,-8.8113,0,-32.286,69.723,1,1,1.42,1.42,-0.1,0
-0.0012879,0.016311,0,-0.41044,0.036507,-0.036109,0,0,-0.41042,0,-98.535,1.4544,0,-8.5614,0,-32.14,69.66,1,1,1.425,1.425,-0.1,0
-0.0012901,0.01632,0,-0.41041,0.036788,-0.036385,0,0,-0.41038,0,-98.298,1.3598,0,-8.3073,0,-31.993,69.612,1,1,1.43,1.43,-0.1,0
-0.0012922,0.016328,0,-0.41037,0.037071,-0.036661,0,0,-0.41035,0,-98.06,1.2704,0,-8.0488,0,-31.844,69.579,1,1,1.435,1.435,-0.1,0
-0.0012944,0.016337,0,-0.41034,0.037353,-0.036939,0,0,-0.41032,0,-97.822,1.1863,0,-7.786,0,-31.693,69.561,1,1,1.44,1.44,-0.1,0
-0.0012965,0.016345,0,-0.41031,0.037637,-0.037217,0,0,-0.41028,0,-97.582,1.1075,0,-7.5189,0,-31.541,69.559,1,1,1.445,1.445,-0.1,0
-0.0012987,0.016354,0,-0.41027,0.037921,-0.037496,0,0,-0.41025,0,-97.342,1.034,0,-7.2475,0,-31.388,69.571,1,1,1.45,1.45,-0.1,0
-0.0013008,0.016362,0,-0.41024,0.038207,-0.037776,0,0,-0.41022,0,-97.101,0.96579,0,-6.9719,0,-31.233,69.598,1,1,1.455,1.455,-0.1,0
-0.0013029,0.01637,0,-0.4102,0.038493,-0.038056,0,0,-0.41018,0,-96.859,0.90284,0,-6.6919,0,-31.076,69.641,1,1,1.46,1.46,-0.1,0
-0.0013051,0.016379,0,-0.41017,0.038779,-0.038337,0,0,-0.41015,0,-96.616,0.84516,0,-6.4077,0,-30.918,69.698,1,1,1.465,1.465,-0.1,0
-0.0013072,0.016387,0,-0.41014,0.039067,-0.038619,0,0,-0.41012,0,-96.372,0.79276,0,-6.1191,0,-30.758,69.771,1,1,1.47,1.47,-0.1,0
-0.0013093,0.016395,0,-0.4101,0.039355,-0.038902,0,0,-0.41008,0,-96.128,0.74564,0,-5.8263,0,-30.597,69.858,1,1,1.475,1.475,-0.1,0
-0.0013114,0.016403,0,-0.41007,0.039644,-0.039185,0,0,-0.41005,0,-95.883,0.7038,0,-5.5291,0,-30.435,69.961,1,1,1.48,1.48,-0.1,0
-0.0013136,0.016412,0,-0.41004,0.039934,-0.039469,0,0,-0.41001,0,-95.637,0.66724,0,-5.2277,0,-30.271,70.079,1,1,1.485,1.485,-0.1,0
-0.0013157,0.01642,0,-0.41,0.040225,-0.039754,0,0,-0.40998,0,-95.39,0.63595,0,-4.922,0,-30.105,70.212,1,1,1.49,1.49,-0.1,0
-0.0013178,0.016428,0,-0.40997,0.040516,-0.04004,0,0,-0.40995,0,-95.142,0.60995,0,-4.612,0,-29.938,70.36,1,1,1.495,1.495,-0.1,0
-0.0013199,0.016436,0,-0.40993,0.040808,-0.040326,0,0,-0.40991,0,-94.893,0.58922,0,-4.2977,0,-29.769,70.523,1,1,1.5,1.5,-0.1,0
-0.001322,0.016444,0,-0.4099,0.041101,-0.040613,0,0,-0.40988,0,-94.644,0.57377,0,-3.9792,0,-29.599,70.701,1,1,1.505,1.505,-0.1,0
-0.0013241,0.016452,0,-0.40987,0.041394,-0.040901,0,0,-0.40985,0,-94.393,0.56359,0,-3.6563,0,-29.427,70.895,1,1,1.51,1.51,-0.1,0
-0.0013262,0.01646,0,-0.40983,0.041689,-0.041189,0,0,-0.40981,0,-94.142,0.5587,0,-3.3292,0,-29.254,71.103,1,1,1.515,1.515,-0.1,0
-0.0013283,0.016468,0,-0.4098,0.041984,-0.041479,0,0,-0.40978,0,-93.89,0.55908,0,-2.9978,0,-29.08,71.326,1,1,1.52,1.52,-0.1,0
-0.0013304,0.016476,0,-0.40976,0.04228,-0.041768,0,0,-0.40975,0,-93.637,0.56474,0,-2.662,0,-28.903,71.565,1,1,1.525,1.525,-0.1,0
-0.0013325,0.016484,0,-0.40973,0.042577,-0.042059,0,0,-0.40971,0,-93.384,0.57567,0,-2.322,0,-28.726,71.818,1,1,1.53,1.53,-0.1,0
-0.0013345,0.016492,0,-0.4097,0.042874,-0.042351,0,0,-0.40968,0,-93.129,0.59189,0,-1.9778,0,-28.547,72.087,1,1,1.535,1.535,-0.1,0
-0.0013366,0.016499,0,-0.40966,0.043172,-0.042643,0,0,-0.40965,0,-92.874,0.61338,0,-1.6292,0,-28.366,72.371,1,1,1.54,1.54,-0.1,0
-0.0013387,0.016507,0,-0.40963,0.043471,-0.042936,0,0,-0.40961,0,-92.618,0.64015,0,-1.2764,0,-28.184,72.67,1,1,1.545,1.545,-0.1,0
-0.0013408,0.016515,0,-0.40959,0.043771,-0.043229,0,0,-0.40958,0,-92.361,0.67219,0,-0.91924,0,-28,72.983,1,1,1.55,1.55,-0.1,0
-0.0013428,0.016523,0,-0.40956,0.044072,-0.043524,0,0,-0.40955,0,-92.103,0.70951,0,-0.55784,0,-27.815,73.312,1,1,1.555,1.555,-0.1,0
-0.0013449,0.01653,0,-0.40953,0.044373,-0.043819,0,0,-0.40951,0,-91.845,0.75211,0,-0.19215,0,-27.628,73.656,1,1,1.56,1.56,-0.1,0
-0.0013469,0.016538,0,-0.40949,0.044675,-0.044115,0,0,-0.40948,0,-91.585,0.79999,0,0.17782,0,-27.44,74.015,1,1,1.565,1.565,-0.1,0
-0.001349,0.016546,0,-0.40946,0.044978,-0.044411,0,0,-0.40944,0,-91.325,0.85314,0,0.55206,0,-27.25,74.39,1,1,1.57,1.57,-0.1,0
-0.001351,0.016553,0,-0.40942,0.045282,-0.044709,0,0,-0.40941,0,-91.064,0.91157,0,0.93058,0,-27.059,74.779,1,1,1.575,1.575,-0.1,0
-0.0013531,0.016561,0,-0.40939,0.045586,-0.045007,0,0,-0.40938,0,-90.802,0.97528,0,1.3134,0,-26.866,75.183,1,1,1.58,1.58,-0.1,0
-0.0013551,0.016568,0,-0.40936,0.045891,-0.045305,0,0,-0.40934,0,-90.539,1.0443,0,1.7005,0,-26.672,75.602,1,1,1.585,1.585,-0.1,0
-0.0013572,0.016576,0,-0.40932,0.046197,-0.045605,0,0,-0.40931,0,-90.276,1.1185,0,2.0918,0,-26.476,76.037,1,1,1.59,1.59,-0.1,0
-0.0013592,0.016583,0,-0.40929,0.046504,-0.045905,0,0,-0.40928,0,-90.012,1.198,0,2.4874,0,-26.279,76.486,1,1,1.595,1.595,-0.1,0
-0.0013612,0.016591,0,-0.40925,0.046811,-0.046206,0,0,-0.40924,0,-89.746,1.2829,0,2.8873,0,-26.08,76.951,1,1,1.6,1.6,-0.1,0
-0.0013633,0.016598,0,-0.40922,0.04712,-0.046508,0,0,-0.40921,0,-89.48,1.3729,0,3.2915,0,-25.88,77.43,1,1,1.605,1.605,-0.1,0
-0.0013653,0.016606,0,-0.40918,0.047429,-0.04681,0,0,-0.40918,0,-89.214,1.4683,0,3.6999,0,-25.678,77.925,1,1,1.61,1.61,-0.1,0
-0.0013673,0.016613,0,-0.40915,0.047738,-0.047113,0,0,-0.40914,0,-88.946,1.5689,0,4.1127,0,-25.475,78.435,1,1,1.615,1.615,-0.1,0
-0.0013693,0.01662,0,-0.40912,0.048049,-0.047417,0,0,-0.40911,0,-88.677,1.6749,0,4.5296,0,-25.27,78.96,1,1,1.62,1.62,-0.1,0
-0.0013713,0.016627,0,-0.40908,0.04836,-0.047722,0,0,-0.40908,0,-88.408,1.786,0,4.9509,0,-25.064,79.5,1,1,1.625,1.625,-0.1,0
-0.0013733,0.016635,0,-0.40905,0.048672,-0.048027,0,0,-0.40904,0,-88.138,1.9025,0,5.3764,0,-24.856,80.054,1,1,1.63,1.63,-0.1,0
-0.0013753,0.016642,0,-0.40901,0.048985,-0.048333,0,0,-0.40901,0,-87.867,2.0242,0,5.8062,0,-24.647,80.624,1,1,1.635,1.635,-0.1,0
-0.0013773,0.016649,0,-0.40898,0.049299,-0.04864,0,0,-0.40898,0,-87.595,2.1513,0,6.2403,0,-24.436,81.209,1,1,1.64,1.64,-0.1,0
-0.0013793,0.016656,0,-0.40894,0.049613,-0.048948,0,0,-0.40894,0,-87.323,2.2836,0,6.6786,0,-24.224,81.81,1,1,1.645,1.645,-0.1,0
-0.0013813,0.016663,0,-0.40891,0.049928,-0.049256,0,0,-0.40891,0,-87.049,2.4211,0,7.1213,0,-24.01,82.425,1,1,1.65,1.65,-0.1,0
-0.0013833,0.01667,0,-0.40887,0.050244,-0.049565,0,0,-0.40887,0,-86.775,2.564,0,7.5681,0,-23.795,83.055,1,1,1.655,1.655,-0.1,0
-0.0013854,0.016678,0,-0.40885,0.050591,-0.049902,0,0,-0.40885,0,-86.703,2.5769,0,7.5294,0,-23.785,83.04,1,1,1.66,1.66,-0.1,0
-0.0013874,0.016685,0,-0.40882,0.050945,-0.050245,0,0,-0.40882,0,-86.668,2.5651,0,7.4014,0,-23.813,82.904,1,1,1.665,1.665,-0.1,0
-0.0013895,0.016692,0,-0.40879,0.051299,-0.050589,0,0,-0.40879,0,-86.632,2.5532,0,7.2745,0,-23.839,82.769,1,1,1.67,1.67,-0.1,0
-0.0013916,0.0167,0,-0.40876,0.051654,-0.050933,0,0,-0.40876,0,-86.595,2.5412,0,7.1485,0,-23.866,82.634,1,1,1.675,1.675,-0.1,0
-0.0013936,0.016707,0,-0.40873,0.052009,-0.051277,0,0,-0.40873,0,-86.558,2.5291,0,7.0235,0,-23.892,82.499,1,1,1.68,1.68,-0.1,0
-0.0013957,0.016714,0,-0.4087,0.052366,-0.051623,0,0,-0.4087,0,-86.52,2.5168,0,6.8996,0,-23.917,82.364,1,1,1.685,1.685,-0.1,0
-0.0013978,0.016721,0,-0.40868,0.052723,-0.051969,0,0,-0.40868,0,-86.482,2.5044,0,6.7766,0,-23.942,82.23,1,1,1.69,1.69,-0.1,0
-0.0013998,0.016728,0,-0.40865,0.053081,-0.052316,0,0,-0.40865,0,-86.442,2.4918,0,6.6547,0,-23.967,82.096,1,1,1.695,1.695,-0.1,0
-0.0014019,0.016736,0,-0.40862,0.053439,-0.052663,0,0,-0.40862,0,-86.402,2.4791,0,6.5337,0,-23.991,81.962,1,1,1.7,1.7,-0.1,0
-0.0014039,0.016743,0,-0.40859,0.053799,-0.053011,0,0,-0.40859,0,-86.362,2.4663,0,6.4137,0,-24.014,81.828,1,1,1.705,1.705,-0.1,0
-0.001406,0.01675,0,-0.40856,0.054159,-0.05336,0,0,-0.40856,0,-86.32,2.4534,0,6.2948,0,-24.037,81.695,1,1,1.71,1.71,-0.1,0
-0.001408,0.016757,0,-0.40853,0.05452,-0.053709,0,0,-0.40853,0,-86.278,2.4403,0,6.1768,0,-24.06,81.562,1,1,1.715,1.715,-0.1,0
-0.00141,0.016764,0,-0.40851,0.054881,-0.054059,0,0,-0.40851,0,-86.235,2.4271,0,6.0598,0,-24.082,81.429,1,1,1.72,1.72,-0.1,0
-0.0014121,0.016771,0,-0.40848,0.055244,-0.05441,0,0,-0.40848,0,-86.192,2.4138,0,5.9439,0,-24.103,81.296,1,1,1.725,1.725,-0.1,0
-0.0014141,0.016778,0,-0.40845,0.055607,-0.054761,0,0,-0.40845,0,-86.148,2.4003,0,5.8289,0,-24.124,81.164,1,1,1.73,1.73,-0.1,0
-0.0014162,0.016786,0,-0.40842,0.05597,-0.055113,0,0,-0.40842,0,-86.103,2.3867,0,5.7149,0,-24.144,81.031,1,1,1.735,1.735,-0.1,0
-0.0014182,0.016793,0,-0.40839,0.056335,-0.055466,0,0,-0.40839,0,-86.058,2.373,0,5.602,0,-24.164,80.899,1,1,1.74,1.74,-0.1,0
-0.0014202,0.0168,0,-0.40837,0.0567,-0.055819,0,0,-0.40837,0,-86.012,2.3591,0,5.49,0,-24.184,80.768,1,1,1.745,1.745,-0.1,0
-0.0014222,0.016807,0,-0.40834,0.057066,-0.056173,0,0,-0.40834,0,-85.965,2.3452,0,5.379,0,-24.203,80.636,1,1,1.75,1.75,-0.1,0
-0.0014243,0.016814,0,-0.40831,0.057433,-0.056528,0,0,-0.40831,0,-85.917,2.331,0,5.2691,0,-24.221,80.505,1,1,1.755,1.755,-0.1,0
-0.0014263,0.016821,0,-0.40828,0.0578,-0.056883,0,0,-0.40828,0,-85.869,2.3168,0,5.1601,0,-24.239,80.374,1,1,1.76,1.76,-0.1,0
-0.0014283,0.016828,0,-0.40825,0.058168,-0.057239,0,0,-0.40825,0,-85.82,2.3024,0,5.0521,0,-24.257,80.243,1,1,1.765,1.765,-0.1,0
-0.0014303,0.016835,0,-0.40822,0.058537,-0.057596,0,0,-0.40822,0,-85.771,2.2879,0,4.9451,0,-24.274,80.112,1,1,1.77,1.77,-0.1,0
-0.0014323,0.016842,0,-0.4082,0.058907,-0.057953,0,0,-0.4082,0,-85.72,2.2732,0,4.8391,0,-24.29,79.982,1,1,1.775,1.775,-0.1,0
-0.0014343,0.016849,0,-0.40817,0.059277,-0.058311,0,0,-0.40817,0,-85.669,2.2584,0,4.7342,0,-24.306,79.852,1,1,1.78,1.78,-0.1,0
-0.0014363,0.016856,0,-0.40814,0.059649,-0.05867,0,0,-0.40814,0,-85.618,2.2435,0,4.6302,0,-24.322,79.722,1,1,1.785,1.785,-0.1,0
-0.0014383,0.016863,0,-0.40811,0.06002,-0.059029,0,0,-0.40811,0,-85.566,2.2285,0,4.5272,0,-24.336,79.593,1,1,1.79,1.79,-0.1,0
-0.0014404,0.01687,0,-0.40808,0.060393,-0.059389,0,0,-0.40808,0,-85.513,2.2133,0,4.4252,0,-24.351,79.463,1,1,1.795,1.795,-0.1,0
-0.0014423,0.016877,0,-0.40805,0.060766,-0.059749,0,0,-0.40805,0,-85.459,2.198,0,4.3242,0,-24.365,79.334,1,1,1.8,1.8,-0.1,0
-0.0014443,0.016883,0,-0.40803,0.06114,-0.060111,0,0,-0.40803,0,-85.405,2.1826,0,4.2242,0,-24.378,79.205,1,1,1.805,1.805,-0.1,0
-0.0014463,0.01689,0,-0.408,0.061515,-0.060472,0,0,-0.408,0,-85.35,2.167,0,4.1252,0,-24.391,79.077,1,1,1.81,1.81,-0.1,0
-0.0014483,0.016897,0,-0.40797,0.061891,-0.060835,0,0,-0.40797,0,-85.294,2.1513,0,4.0272,0,-24.404,78.948,1,1,1.815,1.815,-0.1,0
-0.0014503,0.016904,0,-0.40794,0.062267,-0.061198,0,0,-0.40794,0,-85.238,2.1354,0,3.9302,0,-24.416,78.82,1,1,1.82,1.82,-0.1,0
-0.0014523,0.016911,0,-0.40791,0.062644,-0.061562,0,0,-0.40791,0,-85.181,2.1195,0,3.8342,0,-24.427,78.692,1,1,1.825,1.825,-0.1,0
-0.0014543,0.016918,0,-0.40789,0.063022,-0.061926,0,0,-0.40789,0,-85.123,2.1034,0,3.7392,0,-24.438,78.564,1,1,1.83,1.83,-0.1,0
-0.0014563,0.016925,0,-0.40786,0.0634,-0.062292,0,0,-0.40786,0,-85.065,2.0871,0,3.6452,0,-24.449,78.437,1,1,1.835,1.835,-0.1,0
-0.0014582,0.016931,0,-0.40783,0.063779,-0.062657,0,0,-0.40783,0,-85.005,2.0708,0,3.5522,0,-24.459,78.31,1,1,1.84,1.84,-0.1,0
-0.0014602,0.016938,0,-0.4078,0.064159,-0.063024,0,0,-0.4078,0,-84.946,2.0543,0,3.4602,0,-24.468,78.183,1,1,1.845,1.845,-0.1,0
-0.0014622,0.016945,0,-0.40777,0.06454,-0.063391,0,0,-0.40777,0,-84.885,2.0377,0,3.3692,0,-24.477,78.056,1,1,1.85,1.85,-0.1,0
-0.0014642,0.016952,0,-0.40774,0.064921,-0.063759,0,0,-0.40774,0,-84.824,2.0209,0,3.2792,0,-24.485,77.93,1,1,1.855,1.855,-0.1,0
-0.0014661,0.016958,0,-0.40772,0.065304,-0.064127,0,0,-0.40772,0,-84.762,2.004,0,3.1902,0,-24.493,77.803,1,1,1.86,1.86,-0.1,0
-0.0014681,0.016965,0,-0.40769,0.065686,-0.064496,0,0,-0.40769,0,-84.7,1.987,0,3.1021,0,-24.501,77.677,1,1,1.865,1.865,-0.1,0
-0.00147,0.016972,0,-0.40766,0.06607,-0.064866,0,0,-0.40766,0,-84.637,1.9698,0,3.0151,0,-24.508,77.552,1,1,1.87,1.87,-0.1,0
-0.001472,0.016979,0,-0.40763,0.066454,-0.065236,0,0,-0.40763,0,-84.573,1.9525,0,2.9291,0,-24.514,77.426,1,1,1.875,1.875,-0.1,0
-0.001474,0.016985,0,-0.4076,0.066839,-0.065607,0,0,-0.4076,0,-84.508,1.9351,0,2.8441,0,-24.52,77.301,1,1,1.88,1.88,-0.1,0
-0.0014759,0.016992,0,-0.40757,0.067225,-0.065979,0,0,-0.40757,0,-84.443,1.9176,0,2.76,0,-24.526,77.176,1,1,1.885,1.885,-0.1,0
-0.0014779,0.016999,0,-0.40755,0.067612,-0.066351,0,0,-0.40755,0,-84.377,1.8999,0,2.677,0,-24.531,77.051,1,1,1.89,1.89,-0.1,0
-0.0014798,0.017005,0,-0.40752,0.067999,-0.066724,0,0,-0.40752,0,-84.311,1.8821,0,2.5949,0,-24.535,76.926,1,1,1.895,1.895,-0.1,0
-0.0014817,0.017012,0,-0.40749,0.068387,-0.067098,0,0,-0.40749,0,-84.243,1.8641,0,2.5139,0,-24.539,76.802,1,1,1.9,1.9,-0.1,0
-0.0014837,0.017019,0,-0.40746,0.068776,-0.067472,0,0,-0.40746,0,-84.175,1.846,0,2.4339,0,-24.542,76.678,1,1,1.905,1.905,-0.1,0
-0.0014856,0.017025,0,-0.40743,0.069165,-0.067847,0,0,-0.40743,0,-84.107,1.8278,0,2.3548,0,-24.545,76.554,1,1,1.91,1.91,-0.1,0
-0.0014876,0.017032,0,-0.40741,0.069556,-0.068223,0,0,-0.40741,0,-84.038,1.8095,0,2.2768,0,-24.548,76.431,1,1,1.915,1.915,-0.1,0
-0.0014895,0.017038,0,-0.40738,0.069947,-0.068599,0,0,-0.40738,0,-83.968,1.791,0,2.1997,0,-24.55,76.307,1,1,1.92,1.92,-0.1,0
-0.0014914,0.017045,0,-0.40735,0.070338,-0.068976,0,0,-0.40735,0,-83.897,1.7724,0,2.1236,0,-24.551,76.184,1,1,1.925,1.925,-0.1,0
-0.0014934,0.017051,0,-0.40732,0.070731,-0.069354,0,0,-0.40732,0,-83.826,1.7537,0,2.0486,0,-24.552,76.061,1,1,1.93,1.93,-0.1,0
-0.0014953,0.017058,0,-0.40729,0.071124,-0.069732,0,0,-0.40729,0,-83.754,1.7348,0,1.9745,0,-24.553,75.938,1,1,1.935,1.935,-0.1,0
-0.0014972,0.017065,0,-0.40726,0.071518,-0.070111,0,0,-0.40726,0,-83.681,1.7158,0,1.9014,0,-24.553,75.816,1,1,1.94,1.94,-0.1,0
-0.0014991,0.017071,0,-0.40724,0.071912,-0.070491,0,0,-0.40724,0,-83.608,1.6967,0,1.8294,0,-24.552,75.694,1,1,1.945,1.945,-0.1,0
-0.001501,0.017078,0,-0.40721,0.072308,-0.070871,0,0,-0.40721,0,-83.534,1.6774,0,1.7583,0,-24.551,75.572,1,1,1.95,1.95,-0.1,0
-0.001503,0.017084,0,-0.40718,0.072704,-0.071252,0,0,-0.40718,0,-83.459,1.658,0,1.6882,0,-24.55,75.45,1,1,1.955,1.955,-0.1,0
-0.0015049,0.01709,0,-0.40715,0.073101,-0.071633,0,0,-0.40715,0,-83.384,1.6385,0,1.6191,0,-24.548,75.329,1,1,1.96,1.96,-0.1,0
-0.0015068,0.017097,0,-0.40712,0.073498,-0.072015,0,0,-0.40712,0,-83.307,1.6188,0,1.551,0,-24.545,75.208,1,1,1.965,1.965,-0.1,0
-0.0015087,0.017103,0,-0.4071,0.073896,-0.072398,0,0,-0.4071,0,-83.231,1.599,0,1.4839,0,-24.542,75.087,1,1,1.97,1.97,-0.1,0
-0.0015106,0.01711,0,-0.40707,0.074295,-0.072782,0,0,-0.40707,0,-83.153,1.5791,0,1.4178,0,-24.538,74.966,1,1,1.975,1.975,-0.1,0
-0.0015125,0.017116,0,-0.40704,0.074695,-0.073166,0,0,-0.40704,0,-83.075,1.559,0,1.3527,0,-24.534,74.845,1,1,1.98,1.98,-0.1,0
-0.0015144,0.017123,0,-0.40701,0.075096,-0.073551,0,0,-0.40701,0,-82.996,1.5388,0,1.2886,0,-24.53,74.725,1,1,1.985,1.985,-0.1,0
-0.0015163,0.017129,0,-0.40698,0.075497,-0.073936,0,0,-0.40698,0,-82.917,1.5185,0,1.2255,0,-24.525,74.605,1,1,1.99,1.99,-0.1,0
-0.0015182,0.017135,0,-0.40696,0.0759,-0.074323,0,0,-0.40696,0,-82.837,1.498,0,1.1634,0,-24.519,74.485,1,1,1.995,1.995,-0.1,0
-0.0015201,0.017142,0,-0.40693,0.076303,-0.074711,0,0,-0.40693,0,-82.756,1.4774,0,1.1023,0,-24.513,74.366,1,1,2,2,-0.1,0
-0.0015219,0.017148,0,-0.40691,0.076707,-0.075099,0,0,-0.40691,0,-82.674,1.4566,0,1.0422,0,-24.507,74.246,1,1,2.005,2.005,-0.1,0
-0.0015238,0.017154,0,-0.40689,0.077112,-0.075488,0,0,-0.40689,0,-82.592,1.4358,0,0.9831,0,-24.5,74.127,1,1,2.01,2.01,-0.1,0
-0.0015257,0.017161,0,-0.40686,0.077518,-0.075877,0,0,-0.40686,0,-82.509,1.4147,0,0.92498,0,-24.492,74.008,1,1,2.015,2.015,-0.1,0
-0.0015276,0.017167,0,-0.40684,0.077924,-0.076267,0,0,-0.40684,0,-82.425,1.3936,0,0.86786,0,-24.484,73.89,1,1,2.02,2.02,-0.1,0
-0.0015295,0.017173,0,-0.40681,0.078331,-0.076658,0,0,-0.40681,0,-82.341,1.3723,0,0.81173,0,-24.476,73.771,1,1,2.025,2.025,-0.1,0
-0.0015313,0.01718,0,-0.40679,0.078739,-0.077049,0,0,-0.40679,0,-82.256,1.3509,0,0.7566,0,-24.467,73.653,1,1,2.03,2.03,-0.1,0
-0.0015332,0.017186,0,-0.40676,0.079148,-0.077441,0,0,-0.40676,0,-82.171,1.3294,0,0.70247,0,-24.457,73.535,1,1,2.035,2.035,-0.1,0
-0.0015351,0.017192,0,-0.40674,0.079557,-0.077834,0,0,-0.40674,0,-82.084,1.3077,0,0.64933,0,-24.447,73.418,1,1,2.04,2.04,-0.1,0
-0.0015369,0.017198,0,-0.40671,0.079967,-0.078228,0,0,-0.40671,0,-81.997,1.2859,0,0.59718,0,-24.436,73.3,1,1,2.045,2.045,-0.1,0
-0.0015388,0.017205,0,-0.40669,0.080378,-0.078622,0,0,-0.40669,0,-81.91,1.264,0,0.54603,0,-24.425,73.183,1,1,2.05,2.05,-0.1,0
-0.0015407,0.017211,0,-0.40667,0.080789,-0.079016,0,0,-0.40667,0,-81.821,1.2419,0,0.49587,0,-24.414,73.066,1,1,2.055,2.055,-0.1,0
-0.0015425,0.017217,0,-0.40664,0.081202,-0.079412,0,0,-0.40664,0,-81.732,1.2197,0,0.44671,0,-24.402,72.949,1,1,2.06,2.06,-0.1,0
-0.0015444,0.017223,0,-0.40662,0.081615,-0.079808,0,0,-0.40662,0,-81.642,1.1973,0,0.39854,0,-24.389,72.833,1,1,2.065,2.065,-0.1,0
-0.0015462,0.017229,0,-0.40659,0.082028,-0.080205,0,0,-0.40659,0,-81.552,1.1749,0,0.35137,0,-24.376,72.717,1,1,2.07,2.07,-0.1,0
-0.0015481,0.017235,0,-0.40657,0.082443,-0.080602,0,0,-0.40657,0,-81.461,1.1523,0,0.30519,0,-24.363,72.601,1,1,2.075,2.075,-0.1,0
-0.0015499,0.017242,0,-0.40654,0.082858,-0.081,0,0,-0.40654,0,-81.369,1.1295,0,0.26001,0,-24.349,72.485,1,1,2.08,2.08,-0.1,0
-0.0015518,0.017248,0,-0.40652,0.083274,-0.081399,0,0,-0.40652,0,-81.277,1.1067,0,0.21582,0,-24.334,72.369,1,1,2.085,2.085,-0.1,0
-0.0015536,0.017254,0,-0.4065,0.083691,-0.081798,0,0,-0.4065,0,-81.184,1.0837,0,0.17262,0,-24.319,72.254,1,1,2.09,2.09,-0.1,0
-0.0015555,0.01726,0,-0.40647,0.084108,-0.082198,0,0,-0.40647,0,-81.09,1.0605,0,0.13042,0,-24.304,72.139,1,1,2.095,2.095,-0.1,0
-0.0015573,0.017266,0,-0.40645,0.084527,-0.082599,0,0,-0.40645,0,-80.995,1.0373,0,0.089217,0,-24.288,72.024,1,1,2.1,2.1,-0.1,0
-0.0015591,0.017272,0,-0.40642,0.084946,-0.083,0,0,-0.40642,0,-80.9,1.0139,0,0.049004,0,-24.271,71.91,1,1,2.105,2.105,-0.1,0
-0.001561,0.017278,0,-0.4064,0.085365,-0.083402,0,0,-0.4064,0,-80.804,0.99036,0,0.0097877,0,-24.254,71.795,1,1,2.11,2.11,-0.1,0
-0.0015628,0.017284,0,-0.40637,0.085786,-0.083805,0,0,-0.40637,0,-80.708,0.9667,0,-0.028437,0,-24.237,71.681,1,1,2.115,2.115,-0.1,0
-0.0015646,0.01729,0,-0.40635,0.086207,-0.084208,0,0,-0.40635,0,-80.611,0.94291,0,-0.065665,0,-24.219,71.567,1,1,2.12,2.12,-0.1,0
-0.0015664,0.017296,0,-0.40632,0.086629,-0.084612,0,0,-0.40632,0,-80.513,0.91898,0,-0.1019,0,-24.2,71.454,1,1,2.125,2.125,-0.1,0
-0.0015682,0.017302,0,-0.4063,0.087051,-0.085017,0,0,-0.4063,0,-80.414,0.89492,0,-0.13714,0,-24.181,71.34,1,1,2.13,2.13,-0.1,0
-0.0015701,0.017308,0,-0.40628,0.087475,-0.085423,0,0,-0.40628,0,-80.315,0.87073,0,-0.17139,0,-24.161,71.227,1,1,2.135,2.135,-0.1,0
-0.0015719,0.017314,0,-0.40625,0.087899,-0.085829,0,0,-0.40625,0,-80.215,0.8464,0,-0.20464,0,-24.141,71.114,1,1,2.14,2.14,-0.1,0
-0.0015737,0.01732,0,-0.40623,0.088324,-0.086235,0,0,-0.40623,0,-80.114,0.82195,0,-0.2369,0,-24.121,71.002,1,1,2.145,2.145,-0.1,0
-0.0015755,0.017326,0,-0.4062,0.088749,-0.086642,0,0,-0.4062,0,-80.013,0.79736,0,-0.26817,0,-24.1,70.889,1,1,2.15,2.15,-0.1,0
-0.0015773,0.017332,0,-0.40618,0.089176,-0.08705,0,0,-0.40618,0,-79.911,0.77263,0,-0.29844,0,-24.078,70.777,1,1,2.155,2.155,-0.1,0
-0.0015791,0.017338,0,-0.40615,0.089603,-0.087459,0,0,-0.40615,0,-79.809,0.74778,0,-0.32772,0,-24.056,70.665,1,1,2.16,2.16,-0.1,0
-0.0015809,0.017344,0,-0.40613,0.090031,-0.087868,0,0,-0.40613,0,-79.705,0.72279,0,-0.356,0,-24.034,70.553,1,1,2.165,2.165,-0.1,0
-0.0015827,0.01735,0,-0.40611,0.090459,-0.088278,0,0,-0.40611,0,-79.601,0.69767,0,-0.38329,0,-24.011,70.442,1,1,2.17,2.17,-0.1,0
-0.0015845,0.017356,0,-0.40608,0.090889,-0.088689,0,0,-0.40608,0,-79.497,0.67242,0,-0.40959,0,-23.987,70.331,1,1,2.175,2.175,-0.1,0
-0.0015863,0.017361,0,-0.40606,0.091319,-0.0891,0,0,-0.40606,0,-79.391,0.64703,0,-0.4349,0,-23.963,70.22,1,1,2.18,2.18,-0.1,0
-0.0015881,0.017367,0,-0.40603,0.091749,-0.089512,0,0,-0.40603,0,-79.285,0.62151,0,-0.4592,0,-23.939,70.109,1,1,2.185,2.185,-0.1,0
-0.0015899,0.017373,0,-0.40601,0.092181,-0.089925,0,0,-0.40601,0,-79.179,0.59586,0,-0.48252,0,-23.914,69.998,1,1,2.19,2.19,-0.1,0
-0.0015916,0.017379,0,-0.40598,0.092613,-0.090338,0,0,-0.40598,0,-79.071,0.57007,0,-0.50485,0,-23.889,69.888,1,1,2.195,2.195,-0.1,0
-0.0015934,0.017385,0,-0.40596,0.093046,-0.090752,0,0,-0.40596,0,-78.963,0.54415,0,-0.52618,0,-23.863,69.778,1,1,2.2,2.2,-0.1,0
-0.0015952,0.017391,0,-0.40593,0.09348,-0.091167,0,0,-0.40593,0,-78.854,0.5181,0,-0.54651,0,-23.836,69.668,1,1,2.205,2.205,-0.1,0
-0.001597,0.017396,0,-0.40591,0.093915,-0.091582,0,0,-0.40591,0,-78.745,0.49192,0,-0.56586,0,-23.809,69.559,1,1,2.21,2.21,-0.1,0
-0.0015987,0.017402,0,-0.40589,0.09435,-0.091998,0,0,-0.40589,0,-78.635,0.4656,0,-0.58421,0,-23.782,69.449,1,1,2.215,2.215,-0.1,0
-0.0016005,0.017408,0,-0.40586,0.094786,-0.092414,0,0,-0.40586,0,-78.524,0.43915,0,-0.60156,0,-23.754,69.34,1,1,2.22,2.22,-0.1,0
-0.0016023,0.017414,0,-0.40584,0.095222,-0.092832,0,0,-0.40584,0,-78.413,0.41257,0,-0.61793,0,-23.725,69.231,1,1,2.225,2.225,-0.1,0
-0.001604,0.017419,0,-0.40581,0.09566,-0.093249,0,0,-0.40581,0,-78.301,0.38586,0,-0.6333,0,-23.696,69.123,1,1,2.23,2.23,-0.1,0
-0.0016058,0.017425,0,-0.40579,0.096098,-0.093668,0,0,-0.40579,0,-78.188,0.35901,0,-0.64768,0,-23.667,69.014,1,1,2.235,2.235,-0.1,0
-0.0016076,0.017431,0,-0.40576,0.096537,-0.094087,0,0,-0.40576,0,-78.074,0.33203,0,-0.66106,0,-23.637,68.906,1,1,2.24,2.24,-0.1,0
-0.0016093,0.017436,0,-0.40574,0.096977,-0.094507,0,0,-0.40574,0,-77.96,0.30492,0,-0.67346,0,-23.606,68.798,1,1,2.245,2.245,-0.1,0
-0.0016111,0.017442,0,-0.40572,0.097417,-0.094928,0,0,-0.40572,0,-77.845,0.27767,0,-0.68486,0,-23.575,68.691,1,1,2.25,2.25,-0.1,0
-0.0016128,0.017448,0,-0.40569,0.097858,-0.095349,0,0,-0.40569,0,-77.73,0.25029,0,-0.69526,0,-23.544,68.583,1,1,2.255,2.255,-0.1,0
-0.0016146,0.017453,0,-0.40567,0.0983,-0.095771,0,0,-0.40567,0,-77.614,0.22278,0,-0.70468,0,-23.512,68.476,1,1,2.26,2.26,-0.1,0
-0.0016163,0.017459,0,-0.40564,0.098743,-0.096193,0,0,-0.40564,0,-77.497,0.19513,0,-0.7131,0,-23.479,68.369,1,1,2.265,2.265,-0.1,0
-0.0016181,0.017465,0,-0.40562,0.099186,-0.096616,0,0,-0.40562,0,-77.379,0.16735,0,-0.72053,0,-23.446,68.262,1,1,2.27,2.27,-0.1,0
-0.0016198,0.01747,0,-0.40559,0.09963,-0.09704,0,0,-0.40559,0,-77.261,0.13944,0,-0.72696,0,-23.413,68.156,1,1,2.275,2.275,-0.1,0
-0.0016215,0.017476,0,-0.40557,0.10007,-0.097465,0,0,-0.40557,0,-77.142,0.11139,0,-0.73241,0,-23.379,68.05,1,1,2.28,2.28,-0.1,0
-0.0016233,0.017481,0,-0.40555,0.10052,-0.09789,0,0,-0.40555,0,-77.023,0.083216,0,-0.73686,0,-23.345,67.944,1,1,2.285,2.285,-0.1,0
-0.001625,0.017487,0,-0.40552,0.10097,-0.098316,0,0,-0.40552,0,-76.902,0.054906,0,-0.74032,0,-23.31,67.838,1,1,2.29,2.29,-0.1,0
-0.0016267,0.017492,0,-0.4055,0.10141,-0.098742,0,0,-0.4055,0,-76.781,0.026461,0,-0.74278,0,-23.274,67.732,1,1,2.295,2.295,-0.1,0
-0.0016285,0.017498,0,-0.40547,0.10186,-0.099169,0,0,-0.40547,0,-76.66,-0.0021154,0,-0.74426,0,-23.238,67.627,1,1,2.3,2.3,-0.1,0
-0.0016302,0.017503,0,-0.40545,0.10231,-0.099597,0,0,-0.40545,0,-76.538,-0.030826,0,-0.74474,0,-23.202,67.522,1,1,2.305,2.305,-0.1,0
-0.0016319,0.017509,0,-0.40542,0.10276,-0.10003,0,0,-0.40542,0,-76.415,-0.059669,0,-0.74423,0,-23.165,67.417,1,1,2.31,2.31,-0.1,0
-0.0016336,0.017514,0,-0.4054,0.10321,-0.10045,0,0,-0.4054,0,-76.291,-0.088646,0,-0.74273,0,-23.128,67.313,1,1,2.315,2.315,-0.1,0
-0.0016353,0.01752,0,-0.40537,0.10366,-0.10088,0,0,-0.40537,0,-76.167,-0.11776,0,-0.74023,0,-23.09,67.208,1,1,2.32,2.32,-0.1,0
-0.0016371,0.017525,0,-0.40535,0.10414,-0.10134,0,0,-0.40535,0,-76.112,-0.11378,0,-0.74219,0,-23.074,67.159,1,1,2.325,2.325,-0.1,0
-0.0016388,0.017531,0,-0.40533,0.10463,-0.1018,0,0,-0.40533,0,-76.105,-0.088018,0,-0.74744,0,-23.073,67.145,1,1,2.33,2.33,-0.1,0
-0.0016406,0.017536,0,-0.40531,0.10513,-0.10227,0,0,-0.40531,0,-76.097,-0.06262,0,-0.75249,0,-23.072,67.132,1,1,2.335,2.335,-0.1,0
-0.0016423,0.017542,0,-0.40529,0.10562,-0.10274,0,0,-0.40529,0,-76.088,-0.037593,0,-0.75736,0,-23.071,67.118,1,1,2.34,2.34,-0.1,0
-0.001644,0.017547,0,-0.40527,0.10612,-0.1032,0,0,-0.40527,0,-76.08,-0.012933,0,-0.76204,0,-23.07,67.105,1,1,2.345,2.345,-0.1,0
-0.0016458,0.017553,0,-0.40524,0.10662,-0.10367,0,0,-0.40524,0,-76.071,0.011356,0,-0.76653,0,-23.068,67.091,1,1,2.35,2.35,-0.1,0
-0.0016475,0.017558,0,-0.40522,0.10712,-0.10414,0,0,-0.40522,0,-76.061,0.035278,0,-0.77084,0,-23.067,67.077,1,1,2.355,2.355,-0.1,0
-0.0016493,0.017563,0,-0.4052,0.10762,-0.10461,0,0,-0.4052,0,-76.052,0.058829,0,-0.77496,0,-23.065,67.063,1,1,2.36,2.36,-0.1,0
-0.001651,0.017569,0,-0.40518,0.10812,-0.10508,0,0,-0.40518,0,-76.042,0.082013,0,-0.77889,0,-23.063,67.049,1,1,2.365,2.365,-0.1,0
-0.0016527,0.017574,0,-0.40516,0.10862,-0.10555,0,0,-0.40516,0,-76.032,0.10483,0,-0.78263,0,-23.061,67.035,1,1,2.37,2.37,-0.1,0
-0.0016545,0.01758,0,-0.40514,0.10912,-0.10603,0,0,-0.40514,0,-76.021,0.12727,0,-0.78618,0,-23.059,67.021,1,1,2.375,2.375,-0.1,0
-0.0016562,0.017585,0,-0.40512,0.10963,-0.1065,0,0,-0.40512,0,-76.01,0.14935,0,-0.78955,0,-23.057,67.006,1,1,2.38,2.38,-0.1,0
-0.0016579,0.01759,0,-0.40509,0.11013,-0.10697,0,0,-0.40509,0,-75.999,0.17105,0,-0.79273,0,-23.055,66.992,1,1,2.385,2.385,-0.1,0
-0.0016597,0.017596,0,-0.40507,0.11063,-0.10745,0,0,-0.40507,0,-75.988,0.19239,0,-0.79572,0,-23.052,66.977,1,1,2.39,2.39,-0.1,0
-0.0016614,0.017601,0,-0.40505,0.11114,-0.10792,0,0,-0.40505,0,-75.976,0.21336,0,-0.79853,0,-23.049,66.962,1,1,2.395,2.395,-0.1,0
-0.0016631,0.017607,0,-0.40503,0.11165,-0.10839,0,0,-0.40503,0,-75.964,0.23396,0,-0.80115,0,-23.046,66.947,1,1,2.4,2.4,-0.1,0
-0.0016649,0.017612,0,-0.40501,0.11215,-0.10887,0,0,-0.40501,0,-75.952,0.25419,0,-0.80358,0,-23.043,66.933,1,1,2.405,2.405,-0.1,0
-0.0016666,0.017617,0,-0.40499,0.11266,-0.10935,0,0,-0.40499,0,-75.939,0.27405,0,-0.80582,0,-23.04,66.918,1,1,2.41,2.41,-0.1,0
-0.0016683,0.017623,0,-0.40497,0.11317,-0.10982,0,0,-0.40497,0,-75.926,0.29354,0,-0.80787,0,-23.037,66.902,1,1,2.415,2.415,-0.1,0
-0.0016701,0.017628,0,-0.40494,0.11368,-0.1103,0,0,-0.40494,0,-75.913,0.31267,0,-0.80974,0,-23.033,66.887,1,1,2.42,2.42,-0.1,0
-0.0016718,0.017633,0,-0.40492,0.11419,-0.11078,0,0,-0.40492,0,-75.899,0.33142,0,-0.81142,0,-23.03,66.872,1,1,2.425,2.425,-0.1,0
-0.0016735,0.017639,0,-0.4049,0.1147,-0.11126,0,0,-0.4049,0,-75.885,0.34981,0,-0.81291,0,-23.026,66.856,1,1,2.43,2.43,-0.1,0
-0.0016752,0.017644,0,-0.40488,0.11521,-0.11174,0,0,-0.40488,0,-75.871,0.36782,0,-0.81422,0,-23.022,66.841,1,1,2.435,2.435,-0.1,0
-0.001677,0.017649,0,-0.40486,0.11572,-0.11222,0,0,-0.40486,0,-75.857,0.38547,0,-0.81534,0,-23.018,66.825,1,1,2.44,2.44,-0.1,0
-0.0016787,0.017655,0,-0.40484,0.11623,-0.1127,0,0,-0.40484,0,-75.842,0.40275,0,-0.81627,0,-23.014,66.809,1,1,2.445,2.445,-0.1,0
-0.0016804,0.01766,0,-0.40481,0.11675,-0.11318,0,0,-0.40481,0,-75.827,0.41966,0,-0.81701,0,-23.01,66.794,1,1,2.45,2.45,-0.1,0
-0.0016821,0.017665,0,-0.40479,0.11726,-0.11366,0,0,-0.40479,0,-75.811,0.4362,0,-0.81756,0,-23.005,66.778,1,1,2.455,2.455,-0.1,0
-0.0016839,0.01767,0,-0.40477,0.11778,-0.11414,0,0,-0.40477,0,-75.795,0.45237,0,-0.81793,0,-23,66.762,1,1,2.46,2.46,-0.1,0
-0.0016856,0.017676,0,-0.40475,0.11829,-0.11463,0,0,-0.40475,0,-75.779,0.46817,0,-0.81811,0,-22.996,66.745,1,1,2.465,2.465,-0.1,0
-0.0016873,0.017681,0,-0.40473,0.11881,-0.11511,0,0,-0.40473,0,-75.763,0.4836,0,-0.8181,0,-22.991,66.729,1,1,2.47,2.47,-0.1,0
-0.001689,0.017686,0,-0.40471,0.11933,-0.11559,0,0,-0.40471,0,-75.746,0.49867,0,-0.81791,0,-22.986,66.713,1,1,2.475,2.475,-0.1,0
-0.0016908,0.017691,0,-0.40469,0.11985,-0.11608,0,0,-0.40469,0,-75.729,0.51336,0,-0.81753,0,-22.98,66.696,1,1,2.48,2.48,-0.1,0
-0.0016925,0.017697,0,-0.40466,0.12037,-0.11656,0,0,-0.40466,0,-75.712,0.52769,0,-0.81696,0,-22.975,66.68,1,1,2.485,2.485,-0.1,0
-0.0016942,0.017702,0,-0.40464,0.12089,-0.11705,0,0,-0.40464,0,-75.694,0.54164,0,-0.8162,0,-22.969,66.663,1,1,2.49,2.49,-0.1,0
-0.0016959,0.017707,0,-0.40462,0.12141,-0.11754,0,0,-0.40462,0,-75.677,0.55523,0,-0.81526,0,-22.964,66.646,1,1,2.495,2.495,-0.1,0
-0.0016976,0.017712,0,-0.4046,0.12193,-0.11802,0,0,-0.4046,0,-75.658,0.56845,0,-0.81412,0,-22.958,66.629,1,1,2.5,2.5,-0.1,0
-0.0016993,0.017718,0,-0.40458,0.12245,-0.11851,0,0,-0.40458,0,-75.64,0.5813,0,-0.8128,0,-22.952,66.612,1,1,2.505,2.505,-0.1,0
-0.0017011,0.017723,0,-0.40456,0.12298,-0.119,0,0,-0.40456,0,-75.621,0.59378,0,-0.8113,0,-22.946,66.595,1,1,2.51,2.51,-0.1,0
-0.0017028,0.017728,0,-0.40454,0.1235,-0.11949,0,0,-0.40454,0,-75.602,0.60589,0,-0.8096,0,-22.939,66.578,1,1,2.515,2.515,-0.1,0
-0.0017045,0.017733,0,-0.40451,0.12402,-0.11998,0,0,-0.40451,0,-75.582,0.61764,0,-0.80772,0,-22.933,66.561,1,1,2.52,2.52,-0.1,0
-0.0017062,0.017738,0,-0.40449,0.12455,-0.12047,0,0,-0.40449,0,-75.563,0.62901,0,-0.80565,0,-22.926,66.543,1,1,2.525,2.525,-0.1,0
-0.0017079,0.017744,0,-0.40447,0.12508,-0.12096,0,0,-0.40447,0,-75.543,0.64001,0,-0.80339,0,-22.92,66.526,1,1,2.53,2.53,-0.1,0
-0.0017096,0.017749,0,-0.40445,0.1256,-0.12145,0,0,-0.40445,0,-75.522,0.65065,0,-0.80095,0,-22.913,66.508,1,1,2.535,2.535,-0.1,0
-0.0017113,0.017754,0,-0.40443,0.12613,-0.12195,0,0,-0.40443,0,-75.501,0.66092,0,-0.79832,0,-22.906,66.49,1,1,2.54,2.54,-0.1,0
-0.0017131,0.017759,0,-0.40441,0.12666,-0.12244,0,0,-0.40441,0,-75.48,0.67082,0,-0.7955,0,-22.899,66.472,1,1,2.545,2.545,-0.1,0
-0.0017148,0.017764,0,-0.40439,0.12719,-0.12293,0,0,-0.40439,0,-75.459,0.68034,0,-0.79249,0,-22.891,66.455,1,1,2.55,2.55,-0.1,0
-0.0017165,0.017769,0,-0.40436,0.12772,-0.12343,0,0,-0.40436,0,-75.438,0.6895,0,-0.7893,0,-22.884,66.437,1,1,2.555,2.555,-0.1,0
-0.0017182,0.017774,0,-0.40434,0.12825,-0.12392,0,0,-0.40434,0,-75.416,0.6983,0,-0.78592,0,-22.876,66.418,1,1,2.56,2.56,-0.1,0
-0.0017199,0.01778,0,-0.40432,0.12878,-0.12442,0,0,-0.40432,0,-75.393,0.70672,0,-0.78235,0,-22.868,66.4,1,1,2.565,2.565,-0.1,0
-0.0017216,0.017785,0,-0.4043,0.12932,-0.12492,0,0,-0.4043,0,-75.371,0.71477,0,-0.77859,0,-22.86,66.382,1,1,2.57,2.57,-0.1,0
-0.0017233,0.01779,0,-0.40428,0.12985,-0.12541,0,0,-0.40428,0,-75.348,0.72245,0,-0.77465,0,-22.852,66.363,1,1,2.575,2.575,-0.1,0
-0.001725,0.017795,0,-0.40426,0.13038,-0.12591,0,0,-0.40426,0,-75.325,0.72977,0,-0.77052,0,-22.844,66.345,1,1,2.58,2.58,-0.1,0
-0.0017267,0.0178,0,-0.40424,0.13092,-0.12641,0,0,-0.40424,0,-75.301,0.73672,0,-0.7662,0,-22.836,66.326,1,1,2.585,2.585,-0.1,0
-0.0017284,0.017805,0,-0.40421,0.13145,-0.12691,0,0,-0.40421,0,-75.278,0.74329,0,-0.7617,0,-22.827,66.307,1,1,2.59,2.59,-0.1,0
-0.0017301,0.01781,0,-0.40419,0.13199,-0.12741,0,0,-0.40419,0,-75.253,0.7495,0,-0.757,0,-22.819,66.288,1,1,2.595,2.595,-0.1,0
-0.0017318,0.017815,0,-0.40417,0.13253,-0.12791,0,0,-0.40417,0,-75.229,0.75534,0,-0.75212,0,-22.81,66.269,1,1,2.6,2.6,-0.1,0
-0.0017335,0.01782,0,-0.40415,0.13307,-0.12841,0,0,-0.40415,0,-75.204,0.76081,0,-0.74706,0,-22.801,66.25,1,1,2.605,2.605,-0.1,0
-0.0017352,0.017825,0,-0.40413,0.13361,-0.12891,0,0,-0.40413,0,-75.179,0.76591,0,-0.7418,0,-22.792,66.231,1,1,2.61,2.61,-0.1,0
-0.0017369,0.01783,0,-0.40411,0.13414,-0.12941,0,0,-0.40411,0,-75.154,0.77064,0,-0.73636,0,-22.782,66.212,1,1,2.615,2.615,-0.1,0
-0.0017386,0.017835,0,-0.40409,0.13469,-0.12991,0,0,-0.40409,0,-75.128,0.77501,0,-0.73073,0,-22.773,66.192,1,1,2.62,2.62,-0.1,0
-0.0017403,0.017841,0,-0.40406,0.13523,-0.13042,0,0,-0.40406,0,-75.102,0.779,0,-0.72491,0,-22.763,66.173,1,1,2.625,2.625,-0.1,0
-0.001742,0.017846,0,-0.40404,0.13577,-0.13092,0,0,-0.40404,0,-75.076,0.78263,0,-0.71891,0,-22.754,66.153,1,1,2.63,2.63,-0.1,0
-0.0017437,0.017851,0,-0.40402,0.13631,-0.13142,0,0,-0.40402,0,-75.05,0.78588,0,-0.71272,0,-22.744,66.134,1,1,2.635,2.635,-0.1,0
-0.0017454,0.017856,0,-0.404,0.13686,-0.13193,0,0,-0.404,0,-75.023,0.78877,0,-0.70634,0,-22.734,66.114,1,1,2.64,2.64,-0.1,0
-0.0017471,0.017861,0,-0.40398,0.1374,-0.13243,0,0,-0.40398,0,-74.996,0.79129,0,-0.69977,0,-22.724,66.094,1,1,2.645,2.645,-0.1,0
-0.0017488,0.017866,0,-0.40396,0.13794,-0.13294,0,0,-0.40396,0,-74.968,0.79344,0,-0.69302,0,-22.713,66.074,1,1,2.65,2.65,-0.1,0
-0.0017505,0.017871,0,-0.40394,0.13849,-0.13345,0,0,-0.40394,0,-74.94,0.79522,0,-0.68607,0,-22.703,66.054,1,1,2.655,2.655,-0.1,0
-0.0017522,0.017876,0,-0.40391,0.13904,-0.13396,0,0,-0.40391,0,-74.912,0.79663,0,-0.67895,0,-22.692,66.034,1,1,2.66,2.66,-0.1,0
-0.0017539,0.017881,0,-0.40389,0.13958,-0.13446,0,0,-0.40389,0,-74.884,0.79767,0,-0.67163,0,-22.682,66.013,1,1,2.665,2.665,-0.1,0
-0.0017556,0.017885,0,-0.40387,0.14013,-0.13497,0,0,-0.40387,0,-74.855,0.79835,0,-0.66413,0,-22.671,65.993,1,1,2.67,2.67,-0.1,0
-0.0017573,0.01789,0,-0.40385,0.14068,-0.13548,0,0,-0.40385,0,-74.826,0.79865,0,-0.65644,0,-22.66,65.972,1,1,2.675,2.675,-0.1,0
-0.001759,0.017895,0,-0.40383,0.14123,-0.13599,0,0,-0.40383,0,-74.797,0.79859,0,-0.64856,0,-22.649,65.952,1,1,2.68,2.68,-0.1,0
-0.0017607,0.0179,0,-0.40381,0.14178,-0.1365,0,0,-0.40381,0,-74.767,0.79815,0,-0.64049,0,-22.637,65.931,1,1,2.685,2.685,-0.1,0
-0.0017624,0.017905,0,-0.40379,0.14233,-0.13701,0,0,-0.40379,0,-74.737,0.79735,0,-0.63224,0,-22.626,65.91,1,1,2.69,2.69,-0.1,0
-0.001764,0.01791,0,-0.40377,0.14289,-0.13753,0,0,-0.40377,0,-74.707,0.79617,0,-0.6238,0,-22.614,65.889,1,1,2.695,2.695,-0.1,0
-0.0017657,0.017915,0,-0.40375,0.14344,-0.13804,0,0,-0.40375,0,-74.676,0.79462,0,-0.61517,0,-22.602,65.868,1,1,2.7,2.7,-0.1,0
-0.0017674,0.01792,0,-0.40373,0.144,-0.13855,0,0,-0.40373,0,-74.645,0.79271,0,-0.60635,0,-22.59,65.847,1,1,2.705,2.705,-0.1,0
-0.0017691,0.017925,0,-0.40371,0.14455,-0.13907,0,0,-0.40371,0,-74.614,0.79042,0,-0.59734,0,-22.578,65.825,1,1,2.71,2.71,-0.1,0
-0.0017708,0.01793,0,-0.40369,0.14511,-0.13958,0,0,-0.40369,0,-74.582,0.78777,0,-0.58815,0,-22.566,65.804,1,1,2.715,2.715,-0.1,0
-0.0017725,0.017935,0,-0.40367,0.14566,-0.1401,0,0,-0.40367,0,-74.551,0.78475,0,-0.57877,0,-22.554,65.783,1,1,2.72,2.72,-0.1,0
-0.0017742,0.01794,0,-0.40365,0.14622,-0.14062,0,0,-0.40365,0,-74.519,0.78136,0,-0.56921,0,-22.541,65.761,1,1,2.725,2.725,-0.1,0
-0.0017759,0.017945,0,-0.40363,0.14678,-0.14113,0,0,-0.40363,0,-74.486,0.77759,0,-0.55945,0,-22.528,65.739,1,1,2.73,2.73,-0.1,0
-0.0017775,0.017949,0,-0.40361,0.14734,-0.14165,0,0,-0.40361,0,-74.453,0.77347,0,-0.54951,0,-22.516,65.717,1,1,2.735,2.735,-0.1,0
-0.0017792,0.017954,0,-0.40359,0.1479,-0.14217,0,0,-0.40359,0,-74.42,0.76897,0,-0.53938,0,-22.503,65.695,1,1,2.74,2.74,-0.1,0
-0.0017809,0.017959,0,-0.40357,0.14846,-0.14269,0,0,-0.40357,0,-74.387,0.7641,0,-0.52907,0,-22.49,65.673,1,1,2.745,2.745,-0.1,0
-0.0017826,0.017964,0,-0.40355,0.14902,-0.14321,0,0,-0.40355,0,-74.353,0.75887,0,-0.51856,0,-22.476,65.651,1,1,2.75,2.75,-0.1,0
-0.0017843,0.017969,0,-0.40354,0.14958,-0.14373,0,0,-0.40354,0,-74.319,0.75326,0,-0.50787,0,-22.463,65.629,1,1,2.755,2.755,-0.1,0
-0.0017859,0.017974,0,-0.40352,0.15015,-0.14425,0,0,-0.40352,0,-74.285,0.74729,0,-0.497,0,-22.449,65.607,1,1,2.76,2.76,-0.1,0
-0.0017876,0.017979,0,-0.4035,0.15071,-0.14477,0,0,-0.4035,0,-74.25,0.74095,0,-0.48593,0,-22.436,65.584,1,1,2.765,2.765,-0.1,0
-0.0017893,0.017983,0,-0.40348,0.15128,-0.14529,0,0,-0.40348,0,-74.215,0.73424,0,-0.47468,0,-22.422,65.562,1,1,2.77,2.77,-0.1,0
-0.001791,0.017988,0,-0.40346,0.15184,-0.14581,0,0,-0.40346,0,-74.18,0.72716,0,-0.46324,0,-22.408,65.539,1,1,2.775,2.775,-0.1,0
-0.0017926,0.017993,0,-0.40344,0.15241,-0.14634,0,0,-0.40344,0,-74.145,0.71971,0,-0.45162,0,-22.393,65.516,1,1,2.78,2.78,-0.1,0
-0.0017943,0.017998,0,-0.40342,0.15298,-0.14686,0,0,-0.40342,0,-74.109,0.71189,0,-0.4398,0,-22.379,65.494,1,1,2.785,2.785,-0.1,0
-0.001796,0.018003,0,-0.4034,0.15354,-0.14739,0,0,-0.4034,0,-74.073,0.70371,0,-0.42781,0,-22.365,65.471,1,1,2.79,2.79,-0.1,0
-0.0017977,0.018007,0,-0.40338,0.15411,-0.14791,0,0,-0.40338,0,-74.036,0.69515,0,-0.41562,0,-22.35,65.448,1,1,2.795,2.795,-0.1,0
-0.0017993,0.018012,0,-0.40336,0.15468,-0.14844,0,0,-0.40336,0,-73.999,0.68623,0,-0.40324,0,-22.335,65.424,1,1,2.8,2.8,-0.1,0
-0.001801,0.018017,0,-0.40334,0.15525,-0.14896,0,0,-0.40334,0,-73.962,0.67694,0,-0.39068,0,-22.32,65.401,1,1,2.805,2.805,-0.1,0
-0.0018027,0.018022,0,-0.40332,0.15582,-0.14949,0,0,-0.40332,0,-73.925,0.66728,0,-0.37793,0,-22.305,65.378,1,1,2.81,2.81,-0.1,0
-0.0018044,0.018026,0,-0.40331,0.15639,-0.15002,0,0,-0.40331,0,-73.887,0.65725,0,-0.365,0,-22.29,65.354,1,1,2.815,2.815,-0.1,0
-0.001806,0.018031,0,-0.40329,0.15697,-0.15055,0,0,-0.40329,0,-73.849,0.64685,0,-0.35187,0,-22.275,65.331,1,1,2.82,2.82,-0.1,0
-0.0018077,0.018036,0,-0.40327,0.15754,-0.15108,0,0,-0.40327,0,-73.811,0.63608,0,-0.33856,0,-22.259,65.307,1,1,2.825,2.825,-0.1,0
-0.0018094,0.018041,0,-0.40325,0.15811,-0.15161,0,0,-0.40325,0,-73.772,0.62495,0,-0.32507,0,-22.244,65.283,1,1,2.83,2.83,-0.1,0
-0.001811,0.018045,0,-0.40323,0.15869,-0.15214,0,0,-0.40323,0,-73.733,0.61344,0,-0.31138,0,-22.228,65.259,1,1,2.835,2.835,-0.1,0
-0.0018127,0.01805,0,-0.40321,0.15927,-0.15267,0,0,-0.40321,0,-73.694,0.60157,0,-0.29751,0,-22.212,65.235,1,1,2.84,2.84,-0.1,0
-0.0018144,0.018055,0,-0.40319,0.15984,-0.1532,0,0,-0.40319,0,-73.655,0.58933,0,-0.28345,0,-22.196,65.211,1,1,2.845,2.845,-0.1,0
-0.001816,0.018059,0,-0.40317,0.16042,-0.15373,0,0,-0.40317,0,-73.615,0.57672,0,-0.26921,0,-22.18,65.187,1,1,2.85,2.85,-0.1,0
-0.0018177,0.018064,0,-0.40315,0.161,-0.15426,0,0,-0.40315,0,-73.575,0.56374,0,-0.25477,0,-22.163,65.163,1,1,2.855,2.855,-0.1,0
-0.0018194,0.018069,0,-0.40313,0.16158,-0.1548,0,0,-0.40313,0,-73.534,0.55039,0,-0.24015,0,-22.147,65.138,1,1,2.86,2.86,-0.1,0
-0.001821,0.018074,0,-0.40311,0.16216,-0.15533,0,0,-0.40311,0,-73.493,0.53667,0,-0.22535,0,-22.13,65.114,1,1,2.865,2.865,-0.1,0
-0.0018227,0.018078,0,-0.40309,0.16274,-0.15587,0,0,-0.40309,0,-73.452,0.52259,0,-0.21035,0,-22.113,65.089,1,1,2.87,2.87,-0.1,0
-0.0018244,0.018083,0,-0.40307,0.16332,-0.1564,0,0,-0.40307,0,-73.411,0.50813,0,-0.19517,0,-22.096,65.065,1,1,2.875,2.875,-0.1,0
-0.001826,0.018088,0,-0.40306,0.1639,-0.15694,0,0,-0.40306,0,-73.369,0.49331,0,-0.1798,0,-22.079,65.04,1,1,2.88,2.88,-0.1,0
-0.0018277,0.018092,0,-0.40304,0.16448,-0.15747,0,0,-0.40304,0,-73.327,0.47812,0,-0.16424,0,-22.062,65.015,1,1,2.885,2.885,-0.1,0
-0.0018293,0.018097,0,-0.40302,0.16507,-0.15801,0,0,-0.40302,0,-73.285,0.46256,0,-0.1485,0,-22.044,64.99,1,1,2.89,2.89,-0.1,0
-0.001831,0.018101,0,-0.403,0.16565,-0.15855,0,0,-0.403,0,-73.242,0.44663,0,-0.13257,0,-22.027,64.965,1,1,2.895,2.895,-0.1,0
-0.0018327,0.018106,0,-0.40298,0.16624,-0.15909,0,0,-0.40298,0,-73.2,0.43033,0,-0.11645,0,-22.009,64.94,1,1,2.9,2.9,-0.1,0
-0.0018343,0.018111,0,-0.40296,0.16682,-0.15963,0,0,-0.40296,0,-73.156,0.41366,0,-0.10015,0,-21.991,64.914,1,1,2.905,2.905,-0.1,0
-0.001836,0.018115,0,-0.40294,0.16741,-0.16017,0,0,-0.40294,0,-73.113,0.39663,0,-0.083659,0,-21.973,64.889,1,1,2.91,2.91,-0.1,0
-0.0018376,0.01812,0,-0.40292,0.168,-0.16071,0,0,-0.40292,0,-73.069,0.37922,0,-0.066981,0,-21.955,64.863,1,1,2.915,2.915,-0.1,0
-0.0018393,0.018125,0,-0.4029,0.16859,-0.16125,0,0,-0.4029,0,-73.025,0.36145,0,-0.050115,0,-21.937,64.838,1,1,2.92,2.92,-0.1,0
-0.0018409,0.018129,0,-0.40288,0.16917,-0.16179,0,0,-0.40288,0,-72.98,0.34331,0,-0.033062,0,-21.918,64.812,1,1,2.925,2.925,-0.1,0
-0.0018426,0.018134,0,-0.40286,0.16976,-0.16233,0,0,-0.40286,0,-72.936,0.3248,0,-0.015822,0,-21.9,64.786,1,1,2.93,2.93,-0.1,0
-0.0018443,0.018138,0,-0.40284,0.17036,-0.16288,0,0,-0.40284,0,-72.891,0.30592,0,0.0016041,0,-21.881,64.76,1,1,2.935,2.935,-0.1,0
-0.0018459,0.018143,0,-0.40282,0.17095,-0.16342,0,0,-0.40282,0,-72.845,0.28667,0,0.019218,0,-21.862,64.734,1,1,2.94,2.94,-0.1,0
-0.0018476,0.018147,0,-0.40281,0.17154,-0.16396,0,0,-0.40281,0,-72.8,0.26706,0,0.037019,0,-21.843,64.708,1,1,2.945,2.945,-0.1,0
-0.0018492,0.018152,0,-0.40279,0.17213,-0.16451,0,0,-0.40279,0,-72.754,0.24707,0,0.055007,0,-21.824,64.682,1,1,2.95,2.95,-0.1,0
-0.0018509,0.018157,0,-0.40277,0.17273,-0.16505,0,0,-0.40277,0,-72.707,0.22672,0,0.073182,0,-21.805,64.655,1,1,2.955,2.955,-0.1,0
-0.0018525,0.018161,0,-0.40275,0.17332,-0.1656,0,0,-0.40275,0,-72.661,0.20599,0,0.091545,0,-21.785,64.629,1,1,2.96,2.96,-0.1,0
-0.0018542,0.018166,0,-0.40273,0.17392,-0.16615,0,0,-0.40273,0,-72.614,0.1849,0,0.11009,0,-21.765,64.602,1,1,2.965,2.965,-0.1,0
-0.0018558,0.01817,0,-0.40271,0.17451,-0.16669,0,0,-0.40271,0,-72.567,0.16344,0,0.12883,0,-21.746,64.576,1,1,2.97,2.97,-0.1,0
-0.0018575,0.018175,0,-0.40269,0.17511,-0.16724,0,0,-0.40269,0,-72.519,0.14161,0,0.14775,0,-21.726,64.549,1,1,2.975,2.975,-0.1,0
-0.0018591,0.018179,0,-0.40267,0.17571,-0.16779,0,0,-0.40267,0,-72.471,0.11942,0,0.16686,0,-21.706,64.522,1,1,2.98,2.98,-0.1,0
-0.0018607,0.018184,0,-0.40265,0.17631,-0.16834,0,0,-0.40265,0,-72.423,0.096851,0,0.18616,0,-21.685,64.495,1,1,2.985,2.985,-0.1,0
-0.0018624,0.018188,0,-0.40263,0.17691,-0.16889,0,0,-0.40263,0,-72.375,0.073916,0,0.20565,0,-21.665,64.468,1,1,2.99,2.99,-0.1,0
-0.001864,0.018193,0,-0.40261,0.17751,-0.16944,0,0,-0.40261,0,-72.326,0.050613,0,0.22532,0,-21.645,64.441,1,1,2.995,2.995,-0.1,0
-0.0018657,0.018197,0,-0.40259,0.17811,-0.16999,0,0,-0.40259,0,-72.277,0.02694,0,0.24518,0,-21.624,64.414,1,1,3,3,-0.1,0
-0.0018673,0.018202,0,-0.40258,0.17871,-0.17054,0,0,-0.40258,0,-72.228,0.0028985,0,0.26522,0,-21.603,64.386,1,1,3.005,3.005,-0.1,0
-0.001869,0.018206,0,-0.40256,0.17931,-0.1711,0,0,-0.40256,0,-72.178,-0.021511,0,0.28546,0,-21.582,64.359,1,1,3.01,3.01,-0.1,0
-0.0018706,0.018211,0,-0.40254,0.17991,-0.17165,0,0,-0.40254,0,-72.128,-0.046289,0,0.30588,0,-21.561,64.331,1,1,3.015,3.015,-0.1,0
-0.0018722,0.018215,0,-0.40252,0.18052,-0.1722,0,0,-0.40252,0,-72.078,-0.071436,0,0.32648,0,-21.54,64.304,1,1,3.02,3.02,-0.1,0
-0.0018739,0.018219,0,-0.4025,0.18112,-0.17276,0,0,-0.4025,0,-72.027,-0.096952,0,0.34728,0,-21.518,64.276,1,1,3.025,3.025,-0.1,0
-0.0018755,0.018224,0,-0.40248,0.18173,-0.17331,0,0,-0.40248,0,-71.976,-0.12284,0,0.36826,0,-21.497,64.248,1,1,3.03,3.03,-0.1,0
-0.0018772,0.018228,0,-0.40246,0.18234,-0.17387,0,0,-0.40246,0,-71.925,-0.14909,0,0.38943,0,-21.475,64.22,1,1,3.035,3.035,-0.1,0
-0.0018788,0.018233,0,-0.40244,0.18294,-0.17442,0,0,-0.40244,0,-71.873,-0.17571,0,0.41078,0,-21.453,64.192,1,1,3.04,3.04,-0.1,0
-0.0018804,0.018237,0,-0.40242,0.18355,-0.17498,0,0,-0.40242,0,-71.822,-0.2027,0,0.43232,0,-21.431,64.164,1,1,3.045,3.045,-0.1,0
-0.0018821,0.018242,0,-0.4024,0.18416,-0.17554,0,0,-0.4024,0,-71.77,-0.23006,0,0.45405,0,-21.409,64.135,1,1,3.05,3.05,-0.1,0
-0.0018837,0.018246,0,-0.40238,0.18477,-0.17609,0,0,-0.40238,0,-71.717,-0.25802,0,0.47612,0,-21.387,64.107,1,1,3.055,3.055,-0.1,0
-0.0018854,0.01825,0,-0.40237,0.18543,-0.17669,0,0,-0.40237,0,-71.705,-0.23959,0,0.46705,0,-21.386,64.089,1,1,3.06,3.06,-0.1,0
-0.001887,0.018255,0,-0.40235,0.18608,-0.17728,0,0,-0.40235,0,-71.693,-0.22137,0,0.45806,0,-21.385,64.072,1,1,3.065,3.065,-0.1,0
-0.0018886,0.018259,0,-0.40233,0.18674,-0.17787,0,0,-0.40233,0,-71.681,-0.20338,0,0.44914,0,-21.384,64.054,1,1,3.07,3.07,-0.1,0
-0.0018903,0.018264,0,-0.40231,0.1874,-0.17846,0,0,-0.40231,0,-71.669,-0.18561,0,0.4403,0,-21.383,64.036,1,1,3.075,3.075,-0.1,0
-0.0018919,0.018268,0,-0.4023,0.18806,-0.17905,0,0,-0.4023,0,-71.657,-0.16806,0,0.43154,0,-21.382,64.019,1,1,3.08,3.08,-0.1,0
-0.0018936,0.018273,0,-0.40228,0.18872,-0.17965,0,0,-0.40228,0,-71.645,-0.15073,0,0.42285,0,-21.381,64.001,1,1,3.085,3.085,-0.1,0
-0.0018952,0.018277,0,-0.40226,0.18939,-0.18024,0,0,-0.40226,0,-71.632,-0.13363,0,0.41424,0,-21.38,63.983,1,1,3.09,3.09,-0.1,0
-0.0018968,0.018281,0,-0.40224,0.19005,-0.18083,0,0,-0.40224,0,-71.62,-0.11674,0,0.40571,0,-21.379,63.966,1,1,3.095,3.095,-0.1,0
-0.0018985,0.018286,0,-0.40222,0.19071,-0.18143,0,0,-0.40222,0,-71.607,-0.10009,0,0.39725,0,-21.377,63.948,1,1,3.1,3.1,-0.1,0
-0.0019001,0.01829,0,-0.40221,0.19138,-0.18202,0,0,-0.40221,0,-71.595,-0.083648,0,0.38887,0,-21.376,63.93,1,1,3.105,3.105,-0.1,0
-0.0019018,0.018295,0,-0.40219,0.19204,-0.18262,0,0,-0.40219,0,-71.582,-0.067434,0,0.38057,0,-21.375,63.912,1,1,3.11,3.11,-0.1,0
-0.0019034,0.018299,0,-0.40217,0.19271,-0.18322,0,0,-0.40217,0,-71.57,-0.051442,0,0.37235,0,-21.373,63.895,1,1,3.115,3.115,-0.1,0
-0.001905,0.018303,0,-0.40215,0.19338,-0.18381,0,0,-0.40215,0,-71.557,-0.035672,0,0.3642,0,-21.372,63.877,1,1,3.12,3.12,-0.1,0
-0.0019067,0.018308,0,-0.40214,0.19404,-0.18441,0,0,-0.40214,0,-71.544,-0.020124,0,0.35613,0,-21.371,63.859,1,1,3.125,3.125,-0.1,0
-0.0019083,0.018312,0,-0.40212,0.19471,-0.18501,0,0,-0.40212,0,-71.531,-0.004799,0,0.34813,0,-21.369,63.841,1,1,3.13,3.13,-0.1,0
-0.00191,0.018317,0,-0.4021,0.19538,-0.18561,0,0,-0.4021,0,-71.518,0.010303,0,0.34022,0,-21.368,63.824,1,1,3.135,3.135,-0.1,0
-0.0019116,0.018321,0,-0.40208,0.19605,-0.18621,0,0,-0.40208,0,-71.505,0.025184,0,0.33238,0,-21.366,63.806,1,1,3.14,3.14,-0.1,0
-0.0019132,0.018325,0,-0.40207,0.19672,-0.18681,0,0,-0.40207,0,-71.492,0.039842,0,0.32461,0,-21.364,63.788,1,1,3.145,3.145,-0.1,0
-0.0019149,0.01833,0,-0.40205,0.1974,-0.18741,0,0,-0.40205,0,-71.478,0.054278,0,0.31693,0,-21.363,63.77,1,1,3.15,3.15,-0.1,0
-0.0019165,0.018334,0,-0.40203,0.19807,-0.18801,0,0,-0.40203,0,-71.465,0.068491,0,0.30932,0,-21.361,63.753,1,1,3.155,3.155,-0.1,0
-0.0019181,0.018338,0,-0.40201,0.19874,-0.18861,0,0,-0.40201,0,-71.452,0.082482,0,0.30178,0,-21.359,63.735,1,1,3.16,3.16,-0.1,0
-0.0019198,0.018343,0,-0.402,0.19942,-0.18921,0,0,-0.402,0,-71.438,0.096251,0,0.29433,0,-21.357,63.717,1,1,3.165,3.165,-0.1,0
-0.0019214,0.018347,0,-0.40198,0.20009,-0.18982,0,0,-0.40198,0,-71.425,0.1098,0,0.28695,0,-21.355,63.699,1,1,3.17,3.17,-0.1,0
-0.001923,0.018351,0,-0.40196,0.20077,-0.19042,0,0,-0.40196,0,-71.411,0.12312,0,0.27965,0,-21.353,63.681,1,1,3.175,3.175,-0.1,0
-0.0019247,0.018356,0,-0.40194,0.20145,-0.19102,0,0,-0.40194,0,-71.397,0.13622,0,0.27242,0,-21.351,63.663,1,1,3.18,3.18,-0.1,0
-0.0019263,0.01836,0,-0.40193,0.20212,-0.19163,0,0,-0.40193,0,-71.383,0.1491,0,0.26528,0,-21.349,63.646,1,1,3.185,3.185,-0.1,0
-0.0019279,0.018364,0,-0.40191,0.2028,-0.19223,0,0,-0.40191,0,-71.369,0.16176,0,0.2582,0,-21.347,63.628,1,1,3.19,3.19,-0.1,0
-0.0019296,0.018369,0,-0.40189,0.20348,-0.19284,0,0,-0.40189,0,-71.355,0.17419,0,0.25121,0,-21.345,63.61,1,1,3.195,3.195,-0.1,0
-0.0019312,0.018373,0,-0.40187,0.20416,-0.19344,0,0,-0.40187,0,-71.341,0.18641,0,0.24429,0,-21.343,63.592,1,1,3.2,3.2,-0.1,0
-0.0019328,0.018377,0,-0.40186,0.20484,-0.19405,0,0,-0.40186,0,-71.327,0.1984,0,0.23745,0,-21.341,63.574,1,1,3.205,3.205,-0.1,0
-0.0019344,0.018382,0,-0.40184,0.20553,-0.19466,0,0,-0.40184,0,-71.313,0.21016,0,0.23069,0,-21.339,63.556,1,1,3.21,3.21,-0.1,0
-0.0019361,0.018386,0,-0.40182,0.20621,-0.19527,0,0,-0.40182,0,-71.299,0.22171,0,0.224,0,-21.336,63.538,1,1,3.215,3.215,-0.1,0
-0.0019377,0.01839,0,-0.4018,0.20689,-0.19587,0,0,-0.4018,0,-71.284,0.23303,0,0.21739,0,-21.334,63.52,1,1,3.22,3.22,-0.1,0
-0.0019393,0.018395,0,-0.40179,0.20758,-0.19648,0,0,-0.40179,0,-71.27,0.24413,0,0.21086,0,-21.332,63.502,1,1,3.225,3.225,-0.1,0
-0.001941,0.018399,0,-0.40177,0.20826,-0.19709,0,0,-0.40177,0,-71.255,0.25501,0,0.20441,0,-21.329,63.484,1,1,3.23,3.23,-0.1,0
-0.0019426,0.018403,0,-0.40175,0.20895,-0.1977,0,0,-0.40175,0,-71.241,0.26567,0,0.19803,0,-21.327,63.466,1,1,3.235,3.235,-0.1,0
-0.0019442,0.018408,0,-0.40173,0.20963,-0.19831,0,0,-0.40173,0,-71.226,0.2761,0,0.19173,0,-21.324,63.448,1,1,3.24,3.24,-0.1,0
-0.0019458,0.018412,0,-0.40172,0.21032,-0.19892,0,0,-0.40172,0,-71.211,0.28631,0,0.1855,0,-21.322,63.43,1,1,3.245,3.245,-0.1,0
-0.0019475,0.018416,0,-0.4017,0.21101,-0.19953,0,0,-0.4017,0,-71.196,0.2963,0,0.17935,0,-21.319,63.412,1,1,3.25,3.25,-0.1,0
-0.0019491,0.01842,0,-0.40168,0.2117,-0.20015,0,0,-0.40168,0,-71.181,0.30607,0,0.17328,0,-21.316,63.394,1,1,3.255,3.255,-0.1,0
-0.0019507,0.018425,0,-0.40166,0.21239,-0.20076,0,0,-0.40166,0,-71.166,0.31561,0,0.16729,0,-21.314,63.376,1,1,3.26,3.26,-0.1,0
-0.0019523,0.018429,0,-0.40164,0.21308,-0.20137,0,0,-0.40164,0,-71.151,0.32493,0,0.16137,0,-21.311,63.358,1,1,3.265,3.265,-0.1,0
-0.001954,0.018433,0,-0.40163,0.21377,-0.20199,0,0,-0.40163,0,-71.136,0.33403,0,0.15553,0,-21.308,63.34,1,1,3.27,3.27,-0.1,0
-0.0019556,0.018437,0,-0.40161,0.21447,-0.2026,0,0,-0.40161,0,-71.121,0.34291,0,0.14977,0,-21.305,63.322,1,1,3.275,3.275,-0.1,0
-0.0019572,0.018442,0,-0.40159,0.21516,-0.20322,0,0,-0.40159,0,-71.105,0.35157,0,0.14408,0,-21.302,63.304,1,1,3.28,3.28,-0.1,0
-0.0019588,0.018446,0,-0.40157,0.21585,-0.20383,0,0,-0.40157,0,-71.09,0.36,0,0.13847,0,-21.299,63.286,1,1,3.285,3.285,-0.1,0
-0.0019604,0.01845,0,-0.40156,0.21655,-0.20445,0,0,-0.40156,0,-71.075,0.36821,0,0.13294,0,-21.296,63.268,1,1,3.29,3.29,-0.1,0
-0.0019621,0.018454,0,-0.40154,0.21725,-0.20506,0,0,-0.40154,0,-71.059,0.3762,0,0.12749,0,-21.293,63.25,1,1,3.295,3.295,-0.1,0
-0.0019637,0.018459,0,-0.40152,0.21794,-0.20568,0,0,-0.40152,0,-71.043,0.38396,0,0.12211,0,-21.29,63.232,1,1,3.3,3.3,-0.1,0
-0.0019653,0.018463,0,-0.4015,0.21864,-0.2063,0,0,-0.4015,0,-71.028,0.39151,0,0.11681,0,-21.287,63.214,1,1,3.305,3.305,-0.1,0
-0.0019669,0.018467,0,-0.40149,0.21934,-0.20692,0,0,-0.40149,0,-71.012,0.39883,0,0.11158,0,-21.284,63.196,1,1,3.31,3.31,-0.1,0
-0.0019685,0.018471,0,-0.40147,0.22004,-0.20754,0,0,-0.40147,0,-70.996,0.40593,0,0.10644,0,-21.281,63.178,1,1,3.315,3.315,-0.1,0
-0.0019702,0.018476,0,-0.40145,0.22074,-0.20815,0,0,-0.40145,0,-70.98,0.4128,0,0.10137,0,-21.277,63.16,1,1,3.32,3.32,-0.1,0
-0.0019718,0.01848,0,-0.40143,0.22144,-0.20877,0,0,-0.40143,0,-70.964,0.41946,0,0.096373,0,-21.274,63.142,1,1,3.325,3.325,-0.1,0
-0.0019734,0.018484,0,-0.40142,0.22214,-0.20939,0,0,-0.40142,0,-70.948,0.42589,0,0.091456,0,-21.271,63.123,1,1,3.33,3.33,-0.1,0
-0.001975,0.018488,0,-0.4014,0.22284,-0.21002,0,0,-0.4014,0,-70.932,0.4321,0,0.086617,0,-21.267,63.105,1,1,3.335,3.335,-0.1,0
-0.0019766,0.018493,0,-0.40138,0.22355,-0.21064,0,0,-0.40138,0,-70.915,0.43809,0,0.081854,0,-21.264,63.087,1,1,3.34,3.34,-0.1,0
-0.0019782,0.018497,0,-0.40136,0.22425,-0.21126,0,0,-0.40136,0,-70.899,0.44385,0,0.077169,0,-21.26,63.069,1,1,3.345,3.345,-0.1,0
-0.0019798,0.018501,0,-0.40135,0.22496,-0.21188,0,0,-0.40135,0,-70.882,0.44939,0,0.07256,0,-21.257,63.051,1,1,3.35,3.35,-0.1,0
-0.0019815,0.018505,0,-0.40133,0.22566,-0.2125,0,0,-0.40133,0,-70.866,0.45471,0,0.068028,0,-21.253,63.032,1,1,3.355,3.355,-0.1,0
-0.0019831,0.018509,0,-0.40131,0.22637,-0.21313,0,0,-0.40131,0,-70.849,0.45981,0,0.063574,0,-21.249,63.014,1,1,3.36,3.36,-0.1,0
-0.0019847,0.018514,0,-0.40129,0.22708,-0.21375,0,0,-0.40129,0,-70.833,0.46469,0,0.059196,0,-21.246,62.996,1,1,3.365,3.365,-0.1,0
-0.0019863,0.018518,0,-0.40128,0.22779,-0.21438,0,0,-0.40128,0,-70.816,0.46934,0,0.054895,0,-21.242,62.978,1,1,3.37,3.37,-0.1,0
-0.0019879,0.018522,0,-0.40126,0.2285,-0.215,0,0,-0.40126,0,-70.799,0.47377,0,0.050671,0,-21.238,62.96,1,1,3.375,3.375,-0.1,0
-0.0019895,0.018526,0,-0.40124,0.22921,-0.21563,0,0,-0.40124,0,-70.782,0.47798,0,0.046525,0,-21.234,62.941,1,1,3.38,3.38,-0.1,0
-0.0019911,0.01853,0,-0.40122,0.22992,-0.21626,0,0,-0.40122,0,-70.765,0.48197,0,0.042455,0,-21.23,62.923,1,1,3.385,3.385,-0.1,0
-0.0019927,0.018535,0,-0.40121,0.23063,-0.21688,0,0,-0.40121,0,-70.748,0.48573,0,0.038462,0,-21.227,62.905,1,1,3.39,3.39,-0.1,0
-0.0019944,0.018539,0,-0.40119,0.23134,-0.21751,0,0,-0.40119,0,-70.731,0.48928,0,0.034546,0,-21.223,62.887,1,1,3.395,3.395,-0.1,0
-0.001996,0.018543,0,-0.40117,0.23206,-0.21814,0,0,-0.40117,0,-70.714,0.4926,0,0.030707,0,-21.219,62.868,1,1,3.4,3.4,-0.1,0
-0.0019976,0.018547,0,-0.40115,0.23277,-0.21877,0,0,-0.40115,0,-70.696,0.49569,0,0.026945,0,-21.214,62.85,1,1,3.405,3.405,-0.1,0
-0.0019992,0.018551,0,-0.40114,0.23348,-0.2194,0,0,-0.40114,0,-70.679,0.49857,0,0.02326,0,-21.21,62.832,1,1,3.41,3.41,-0.1,0
-0.0020008,0.018555,0,-0.40112,0.2342,-0.22003,0,0,-0.40112,0,-70.661,0.50122,0,0.019652,0,-21.206,62.813,1,1,3.415,3.415,-0.1,0
-0.0020024,0.01856,0,-0.4011,0.23492,-0.22066,0,0,-0.4011,0,-70.644,0.50365,0,0.016121,0,-21.202,62.795,1,1,3.42,3.42,-0.1,0
-0.002004,0.018564,0,-0.40108,0.23564,-0.22129,0,0,-0.40108,0,-70.626,0.50586,0,0.012667,0,-21.198,62.777,1,1,3.425,3.425,-0.1,0
-0.0020056,0.018568,0,-0.40106,0.23635,-0.22192,0,0,-0.40106,0,-70.608,0.50785,0,0.0092896,0,-21.193,62.758,1,1,3.43,3.43,-0.1,0
-0.0020072,0.018572,0,-0.40105,0.23707,-0.22255,0,0,-0.40105,0,-70.591,0.50961,0,0.0059895,0,-21.189,62.74,1,1,3.435,3.435,-0.1,0
-0.0020088,0.018576,0,-0.40103,0.23779,-0.22318,0,0,-0.40103,0,-70.573,0.51115,0,0.0027663,0,-21.185,62.722,1,1,3.44,3.44,-0.1,0
-0.0020104,0.01858,0,-0.40101,0.23851,-0.22382,0,0,-0.40101,0,-70.555,0.51247,0,-0.00037986,0,-21.18,62.703,1,1,3.445,3.445,-0.1,0
-0.002012,0.018584,0,-0.40099,0.23924,-0.22445,0,0,-0.40099,0,-70.537,0.51357,0,-0.0034492,0,-21.176,62.685,1,1,3.45,3.45,-0.1,0
-0.0020136,0.018588,0,-0.40098,0.23996,-0.22508,0,0,-0.40098,0,-70.519,0.51444,0,-0.0064413,0,-21.171,62.667,1,1,3.455,3.455,-0.1,0
-0.0020152,0.018593,0,-0.40096,0.24068,-0.22572,0,0,-0.40096,0,-70.5,0.51509,0,-0.0093565,0,-21.166,62.648,1,1,3.46,3.46,-0.1,0
-0.0020168,0.018597,0,-0.40094,0.24141,-0.22635,0,0,-0.40094,0,-70.482,0.51552,0,-0.012194,0,-21.162,62.63,1,1,3.465,3.465,-0.1,0
-0.0020184,0.018601,0,-0.40093,0.24213,-0.22699,0,0,-0.40093,0,-70.464,0.51573,0,-0.014955,0,-21.157,62.611,1,1,3.47,3.47,-0.1,0
-0.00202,0.018605,0,-0.40091,0.24286,-0.22763,0,0,-0.40091,0,-70.445,0.51571,0,-0.017639,0,-21.152,62.593,1,1,3.475,3.475,-0.1,0
-0.0020217,0.018609,0,-0.40089,0.24359,-0.22827,0,0,-0.40089,0,-70.427,0.51547,0,-0.020245,0,-21.148,62.574,1,1,3.48,3.48,-0.1,0
-0.0020233,0.018613,0,-0.40088,0.24432,-0.2289,0,0,-0.40088,0,-70.408,0.51501,0,-0.022775,0,-21.143,62.556,1,1,3.485,3.485,-0.1,0
-0.0020249,0.018617,0,-0.40086,0.24504,-0.22954,0,0,-0.40086,0,-70.39,0.51433,0,-0.025228,0,-21.138,62.538,1,1,3.49,3.49,-0.1,0
-0.0020265,0.018621,0,-0.40085,0.24577,-0.23018,0,0,-0.40085,0,-70.371,0.51342,0,-0.027604,0,-21.133,62.519,1,1,3.495,3.495,-0.1,0
-0.0020281,0.018625,0,-0.40083,0.24651,-0.23082,0,0,-0.40083,0,-70.352,0.5123,0,-0.029903,0,-21.128,62.501,1,1,3.5,3.5,-0.1,0
-0.0020297,0.01863,0,-0.40081,0.24724,-0.23146,0,0,-0.40081,0,-70.333,0.51095,0,-0.032124,0,-21.123,62.482,1,1,3.505,3.505,-0.1,0
-0.0020312,0.018634,0,-0.4008,0.24797,-0.2321,0,0,-0.4008,0,-70.314,0.50937,0,-0.034269,0,-21.118,62.464,1,1,3.51,3.51,-0.1,0
-0.0020328,0.018638,0,-0.40078,0.2487,-0.23275,0,0,-0.40078,0,-70.295,0.50758,0,-0.036337,0,-21.113,62.445,1,1,3.515,3.515,-0.1,0
-0.0020344,0.018642,0,-0.40076,0.24944,-0.23339,0,0,-0.40076,0,-70.276,0.50556,0,-0.038328,0,-21.108,62.427,1,1,3.52,3.52,-0.1,0
-0.002036,0.018646,0,-0.40075,0.25017,-0.23403,0,0,-0.40075,0,-70.257,0.50332,0,-0.040242,0,-21.102,62.408,1,1,3.525,3.525,-0.1,0
-0.0020376,0.01865,0,-0.40073,0.25091,-0.23467,0,0,-0.40073,0,-70.237,0.50086,0,-0.042079,0,-21.097,62.39,1,1,3.53,3.53,-0.1,0
-0.0020392,0.018654,0,-0.40072,0.25164,-0.23532,0,0,-0.40072,0,-70.218,0.49818,0,-0.043839,0,-21.092,62.371,1,1,3.535,3.535,-0.1,0
-0.0020408,0.018658,0,-0.4007,0.25238,-0.23596,0,0,-0.4007,0,-70.198,0.49527,0,-0.045522,0,-21.087,62.352,1,1,3.54,3.54,-0.1,0
-0.0020424,0.018662,0,-0.40068,0.25312,-0.23661,0,0,-0.40068,0,-70.179,0.49215,0,-0.047128,0,-21.081,62.334,1,1,3.545,3.545,-0.1,0
-0.002044,0.018666,0,-0.40067,0.25386,-0.23725,0,0,-0.40067,0,-70.159,0.4888,0,-0.048657,0,-21.076,62.315,1,1,3.55,3.55,-0.1,0
-0.0020456,0.01867,0,-0.40065,0.2546,-0.2379,0,0,-0.40065,0,-70.139,0.48522,0,-0.050109,0,-21.07,62.297,1,1,3.555,3.555,-0.1,0
-0.0020472,0.018674,0,-0.40063,0.25534,-0.23854,0,0,-0.40063,0,-70.12,0.48143,0,-0.051484,0,-21.065,62.278,1,1,3.56,3.56,-0.1,0
-0.0020488,0.018678,0,-0.40062,0.25608,-0.23919,0,0,-0.40062,0,-70.1,0.47741,0,-0.052782,0,-21.059,62.259,1,1,3.565,3.565,-0.1,0
-0.0020504,0.018682,0,-0.4006,0.25682,-0.23984,0,0,-0.4006,0,-70.08,0.47317,0,-0.054003,0,-21.053,62.241,1,1,3.57,3.57,-0.1,0
-0.002052,0.018686,0,-0.40059,0.25757,-0.24049,0,0,-0.40059,0,-70.06,0.46871,0,-0.055147,0,-21.048,62.222,1,1,3.575,3.575,-0.1,0
-0.0020536,0.01869,0,-0.40057,0.25831,-0.24114,0,0,-0.40057,0,-70.04,0.46403,0,-0.056214,0,-21.042,62.204,1,1,3.58,3.58,-0.1,0
-0.0020552,0.018694,0,-0.40055,0.25906,-0.24179,0,0,-0.40055,0,-70.019,0.45912,0,-0.057204,0,-21.036,62.185,1,1,3.585,3.585,-0.1,0
-0.0020568,0.018698,0,-0.40054,0.2598,-0.24244,0,0,-0.40054,0,-69.999,0.45399,0,-0.058117,0,-21.031,62.166,1,1,3.59,3.59,-0.1,0
-0.0020583,0.018702,0,-0.40052,0.26055,-0.24309,0,0,-0.40052,0,-69.979,0.44864,0,-0.058953,0,-21.025,62.148,1,1,3.595,3.595,-0.1,0
-0.0020599,0.018706,0,-0.4005,0.2613,-0.24374,0,0,-0.4005,0,-69.958,0.44307,0,-0.059712,0,-21.019,62.129,1,1,3.6,3.6,-0.1,0
-0.0020615,0.01871,0,-0.40049,0.26204,-0.24439,0,0,-0.40049,0,-69.938,0.43728,0,-0.060394,0,-21.013,62.11,1,1,3.605,3.605,-0.1,0
-0.0020631,0.018714,0,-0.40047,0.26279,-0.24504,0,0,-0.40047,0,-69.917,0.43126,0,-0.060999,0,-21.007,62.092,1,1,3.61,3.61,-0.1,0
-0.0020647,0.018718,0,-0.40046,0.26354,-0.24569,0,0,-0.40046,0,-69.897,0.42502,0,-0.061527,0,-21.001,62.073,1,1,3.615,3.615,-0.1,0
-0.0020663,0.018722,0,-0.40044,0.26429,-0.24635,0,0,-0.40044,0,-69.876,0.41856,0,-0.061978,0,-20.995,62.054,1,1,3.62,3.62,-0.1,0
-0.0020679,0.018726,0,-0.40042,0.26505,-0.247,0,0,-0.40042,0,-69.855,0.41187,0,-0.062352,0,-20.988,62.035,1,1,3.625,3.625,-0.1,0
-0.0020695,0.01873,0,-0.40041,0.2658,-0.24766,0,0,-0.40041,0,-69.834,0.40497,0,-0.062649,0,-20.982,62.017,1,1,3.63,3.63,-0.1,0
-0.002071,0.018734,0,-0.40039,0.26655,-0.24831,0,0,-0.40039,0,-69.813,0.39784,0,-0.062869,0,-20.976,61.998,1,1,3.635,3.635,-0.1,0
-0.0020726,0.018738,0,-0.40037,0.26731,-0.24897,0,0,-0.40037,0,-69.792,0.39049,0,-0.063012,0,-20.97,61.979,1,1,3.64,3.64,-0.1,0
-0.0020742,0.018742,0,-0.40036,0.26806,-0.24962,0,0,-0.40036,0,-69.771,0.38292,0,-0.063078,0,-20.963,61.96,1,1,3.645,3.645,-0.1,0
-0.0020758,0.018746,0,-0.40034,0.26882,-0.25028,0,0,-0.40034,0,-69.75,0.37512,0,-0.063067,0,-20.957,61.942,1,1,3.65,3.65,-0.1,0
-0.0020774,0.01875,0,-0.40033,0.26957,-0.25094,0,0,-0.40033,0,-69.728,0.3671,0,-0.062979,0,-20.951,61.923,1,1,3.655,3.655,-0.1,0
-0.002079,0.018754,0,-0.40031,0.27033,-0.25159,0,0,-0.40031,0,-69.707,0.35886,0,-0.062814,0,-20.944,61.904,1,1,3.66,3.66,-0.1,0
-0.0020805,0.018758,0,-0.40029,0.27109,-0.25225,0,0,-0.40029,0,-69.686,0.3504,0,-0.062572,0,-20.938,61.885,1,1,3.665,3.665,-0.1,0
-0.0020821,0.018762,0,-0.40028,0.27185,-0.25291,0,0,-0.40028,0,-69.664,0.34172,0,-0.062254,0,-20.931,61.866,1,1,3.67,3.67,-0.1,0
-0.0020837,0.018766,0,-0.40026,0.27261,-0.25357,0,0,-0.40026,0,-69.642,0.33281,0,-0.061858,0,-20.924,61.848,1,1,3.675,3.675,-0.1,0
-0.0020853,0.01877,0,-0.40024,0.27337,-0.25423,0,0,-0.40024,0,-69.621,0.32368,0,-0.061385,0,-20.918,61.829,1,1,3.68,3.68,-0.1,0
-0.0020869,0.018774,0,-0.40023,0.27413,-0.25489,0,0,-0.40023,0,-69.599,0.31433,0,-0.060835,0,-20.911,61.81,1,1,3.685,3.685,-0.1,0
-0.0020884,0.018778,0,-0.40021,0.27489,-0.25555,0,0,-0.40021,0,-69.577,0.30476,0,-0.060208,0,-20.904,61.791,1,1,3.69,3.69,-0.1,0
-0.00209,0.018782,0,-0.4002,0.27566,-0.25621,0,0,-0.4002,0,-69.555,0.29497,0,-0.059504,0,-20.898,61.772,1,1,3.695,3.695,-0.1,0
-0.0020916,0.018786,0,-0.40018,0.27642,-0.25687,0,0,-0.40018,0,-69.533,0.28495,0,-0.058723,0,-20.891,61.753,1,1,3.7,3.7,-0.1,0
-0.0020932,0.01879,0,-0.40016,0.27719,-0.25754,0,0,-0.40016,0,-69.511,0.27471,0,-0.057865,0,-20.884,61.734,1,1,3.705,3.705,-0.1,0
-0.0020948,0.018794,0,-0.40015,0.27795,-0.2582,0,0,-0.40015,0,-69.489,0.26425,0,-0.056929,0,-20.877,61.716,1,1,3.71,3.71,-0.1,0
-0.0020963,0.018798,0,-0.40013,0.27872,-0.25886,0,0,-0.40013,0,-69.466,0.25356,0,-0.055917,0,-20.87,61.697,1,1,3.715,3.715,-0.1,0
-0.0020979,0.018802,0,-0.40011,0.27949,-0.25953,0,0,-0.40011,0,-69.444,0.24266,0,-0.054828,0,-20.863,61.678,1,1,3.72,3.72,-0.1,0
-0.0020995,0.018805,0,-0.4001,0.28025,-0.26019,0,0,-0.4001,0,-69.422,0.23153,0,-0.053662,0,-20.856,61.659,1,1,3.725,3.725,-0.1,0
-0.0021011,0.018809,0,-0.40008,0.28102,-0.26086,0,0,-0.40008,0,-69.399,0.22018,0,-0.052419,0,-20.849,61.64,1,1,3.73,3.73,-0.1,0
-0.0021026,0.018813,0,-0.40007,0.28179,-0.26153,0,0,-0.40007,0,-69.377,0.20861,0,-0.051099,0,-20.841,61.621,1,1,3.735,3.735,-0.1,0
-0.0021042,0.018817,0,-0.40005,0.28256,-0.26219,0,0,-0.40005,0,-69.354,0.19681,0,-0.049702,0,-20.834,61.602,1,1,3.74,3.74,-0.1,0
-0.0021058,0.018821,0,-0.40003,0.28333,-0.26286,0,0,-0.40003,0,-69.331,0.18479,0,-0.048228,0,-20.827,61.583,1,1,3.745,3.745,-0.1,0
-0.0021074,0.018825,0,-0.40002,0.28411,-0.26353,0,0,-0.40002,0,-69.308,0.17255,0,-0.046677,0,-20.82,61.564,1,1,3.75,3.75,-0.1,0
-0.0021089,0.018829,0,-0.4,0.28488,-0.26419,0,0,-0.4,0,-69.286,0.16009,0,-0.045048,0,-20.812,61.545,1,1,3.755,3.755,-0.1,0
-0.0021105,0.018833,0,-0.39998,0.28565,-0.26486,0,0,-0.39998,0,-69.263,0.14741,0,-0.043343,0,-20.805,61.526,1,1,3.76,3.76,-0.1,0
-0.0021121,0.018837,0,-0.39997,0.28643,-0.26553,0,0,-0.39997,0,-69.239,0.1345,0,-0.041561,0,-20.797,61.507,1,1,3.765,3.765,-0.1,0
-0.0021137,0.018841,0,-0.39995,0.2872,-0.2662,0,0,-0.39995,0,-69.216,0.12137,0,-0.039702,0,-20.79,61.488,1,1,3.77,3.77,-0.1,0
-0.0021152,0.018844,0,-0.39994,0.28798,-0.26687,0,0,-0.39994,0,-69.193,0.10802,0,-0.037766,0,-20.782,61.469,1,1,3.775,3.775,-0.1,0
-0.0021168,0.018848,0,-0.39992,0.28876,-0.26754,0,0,-0.39992,0,-69.17,0.094451,0,-0.035752,0,-20.775,61.45,1,1,3.78,3.78,-0.1,0
-0.0021184,0.018852,0,-0.3999,0.28954,-0.26822,0,0,-0.3999,0,-69.146,0.080656,0,-0.033662,0,-20.767,61.431,1,1,3.785,3.785,-0.1,0
-0.0021199,0.018856,0,-0.39989,0.29032,-0.26889,0,0,-0.39989,0,-69.123,0.066639,0,-0.031495,0,-20.759,61.412,1,1,3.79,3.79,-0.1,0
-0.0021215,0.01886,0,-0.39987,0.2911,-0.26956,0,0,-0.39987,0,-69.099,0.052399,0,-0.02925,0,-20.752,61.393,1,1,3.795,3.795,-0.1,0
-0.0021231,0.018864,0,-0.39985,0.29188,-0.27023,0,0,-0.39985,0,-69.076,0.037938,0,-0.026929,0,-20.744,61.374,1,1,3.8,3.8,-0.1,0
-0.0021246,0.018868,0,-0.39984,0.29266,-0.27091,0,0,-0.39984,0,-69.052,0.023254,0,-0.024531,0,-20.736,61.355,1,1,3.805,3.805,-0.1,0
-0.0021262,0.018871,0,-0.39982,0.29344,-0.27158,0,0,-0.39982,0,-69.028,0.0083487,0,-0.022055,0,-20.728,61.336,1,1,3.81,3.81,-0.1,0
-0.0021278,0.018875,0,-0.39981,0.29422,-0.27226,0,0,-0.39981,0,-69.005,-0.0067797,0,-0.019503,0,-20.72,61.317,1,1,3.815,3.815,-0.1,0
-0.0021293,0.018879,0,-0.39979,0.29501,-0.27293,0,0,-0.39979,0,-68.981,-0.02213,0,-0.016873,0,-20.712,61.298,1,1,3.82,3.82,-0.1,0
-0.0021309,0.018883,0,-0.39977,0.29579,-0.27361,0,0,-0.39977,0,-68.957,-0.037702,0,-0.014167,0,-20.704,61.278,1,1,3.825,3.825,-0.1,0
-0.0021325,0.018887,0,-0.39976,0.29658,-0.27429,0,0,-0.39976,0,-68.933,-0.053497,0,-0.011383,0,-20.696,61.259,1,1,3.83,3.83,-0.1,0
-0.002134,0.018891,0,-0.39974,0.29736,-0.27496,0,0,-0.39974,0,-68.908,-0.069514,0,-0.0085226,0,-20.688,61.24,1,1,3.835,3.835,-0.1,0
-0.0021356,0.018894,0,-0.39972,0.29815,-0.27564,0,0,-0.39972,0,-68.884,-0.085753,0,-0.0055851,0,-20.68,61.221,1,1,3.84,3.84,-0.1,0
-0.0021372,0.018898,0,-0.39971,0.29894,-0.27632,0,0,-0.39971,0,-68.86,-0.10221,0,-0.0025704,0,-20.672,61.202,1,1,3.845,3.845,-0.1,0
-0.0021387,0.018902,0,-0.39969,0.29973,-0.277,0,0,-0.39969,0,-68.835,-0.1189,0,0.00052114,0,-20.663,61.183,1,1,3.85,3.85,-0.1,0
-0.0021403,0.018906,0,-0.39968,0.30052,-0.27768,0,0,-0.39968,0,-68.811,-0.1358,0,0.0036899,0,-20.655,61.164,1,1,3.855,3.855,-0.1,0
-0.0021419,0.01891,0,-0.39966,0.30131,-0.27836,0,0,-0.39966,0,-68.786,-0.15293,0,0.0069355,0,-20.647,61.144,1,1,3.86,3.86,-0.1,0
-0.0021434,0.018914,0,-0.39964,0.30214,-0.27906,0,0,-0.39964,0,-68.771,-0.15082,0,0.0066038,0,-20.642,61.131,1,1,3.865,3.865,-0.1,0
-0.002145,0.018917,0,-0.39963,0.30299,-0.27977,0,0,-0.39963,0,-68.761,-0.14003,0,0.0046495,0,-20.64,61.12,1,1,3.87,3.87,-0.1,0
-0.0021466,0.018921,0,-0.39961,0.30384,-0.28048,0,0,-0.39961,0,-68.75,-0.12934,0,0.0027205,0,-20.637,61.109,1,1,3.875,3.875,-0.1,0
-0.0021481,0.018925,0,-0.3996,0.3047,-0.28119,0,0,-0.3996,0,-68.739,-0.11878,0,0.00081689,0,-20.635,61.098,1,1,3.88,3.88,-0.1,0
-0.0021497,0.018929,0,-0.39958,0.30555,-0.28191,0,0,-0.39958,0,-68.729,-0.10833,0,-0.0010613,0,-20.632,61.087,1,1,3.885,3.885,-0.1,0
-0.0021513,0.018933,0,-0.39957,0.3064,-0.28262,0,0,-0.39957,0,-68.718,-0.097998,0,-0.0029143,0,-20.629,61.075,1,1,3.89,3.89,-0.1,0
-0.0021528,0.018936,0,-0.39955,0.30726,-0.28333,0,0,-0.39955,0,-68.707,-0.08778,0,-0.0047418,0,-20.626,61.064,1,1,3.895,3.895,-0.1,0
-0.0021544,0.01894,0,-0.39954,0.30812,-0.28405,0,0,-0.39954,0,-68.696,-0.077678,0,-0.006544,0,-20.624,61.053,1,1,3.9,3.9,-0.1,0
-0.002156,0.018944,0,-0.39952,0.30897,-0.28476,0,0,-0.39952,0,-68.685,-0.067692,0,-0.0083208,0,-20.621,61.042,1,1,3.905,3.905,-0.1,0
-0.0021575,0.018948,0,-0.39951,0.30983,-0.28548,0,0,-0.39951,0,-68.674,-0.057821,0,-0.010072,0,-20.618,61.031,1,1,3.91,3.91,-0.1,0
-0.0021591,0.018952,0,-0.39949,0.31069,-0.28619,0,0,-0.39949,0,-68.664,-0.048067,0,-0.011798,0,-20.616,61.02,1,1,3.915,3.915,-0.1,0
-0.0021607,0.018955,0,-0.39948,0.31155,-0.28691,0,0,-0.39948,0,-68.653,-0.038427,0,-0.013499,0,-20.613,61.009,1,1,3.92,3.92,-0.1,0
-0.0021622,0.018959,0,-0.39946,0.31241,-0.28762,0,0,-0.39946,0,-68.642,-0.028904,0,-0.015175,0,-20.61,60.998,1,1,3.925,3.925,-0.1,0
-0.0021638,0.018963,0,-0.39945,0.31327,-0.28834,0,0,-0.39945,0,-68.631,-0.019496,0,-0.016825,0,-20.607,60.987,1,1,3.93,3.93,-0.1,0
-0.0021654,0.018967,0,-0.39943,0.31414,-0.28906,0,0,-0.39943,0,-68.62,-0.010204,0,-0.018449,0,-20.604,60.975,1,1,3.935,3.935,-0.1,0
-0.0021669,0.018971,0,-0.39942,0.315,-0.28978,0,0,-0.39942,0,-68.608,-0.0010267,0,-0.020049,0,-20.601,60.964,1,1,3.94,3.94,-0.1,0
-0.0021685,0.018974,0,-0.3994,0.31586,-0.29049,0,0,-0.3994,0,-68.597,0.0080341,0,-0.021623,0,-20.599,60.953,1,1,3.945,3.945,-0.1,0
-0.00217,0.018978,0,-0.39938,0.31673,-0.29121,0,0,-0.39938,0,-68.586,0.01698,0,-0.023171,0,-20.596,60.942,1,1,3.95,3.95,-0.1,0
-0.0021716,0.018982,0,-0.39937,0.3176,-0.29193,0,0,-0.39937,0,-68.575,0.025809,0,-0.024694,0,-20.593,60.931,1,1,3.955,3.955,-0.1,0
-0.0021732,0.018986,0,-0.39935,0.31846,-0.29265,0,0,-0.39935,0,-68.564,0.034523,0,-0.026192,0,-20.59,60.92,1,1,3.96,3.96,-0.1,0
-0.0021747,0.018989,0,-0.39934,0.31933,-0.29337,0,0,-0.39934,0,-68.553,0.043121,0,-0.027665,0,-20.587,60.908,1,1,3.965,3.965,-0.1,0
-0.0021763,0.018993,0,-0.39932,0.3202,-0.29409,0,0,-0.39932,0,-68.541,0.051604,0,-0.029112,0,-20.584,60.897,1,1,3.97,3.97,-0.1,0
-0.0021779,0.018997,0,-0.39931,0.32107,-0.29481,0,0,-0.39931,0,-68.53,0.059971,0,-0.030534,0,-20.581,60.886,1,1,3.975,3.975,-0.1,0
-0.0021794,0.019001,0,-0.39929,0.32194,-0.29553,0,0,-0.39929,0,-68.519,0.068223,0,-0.03193,0,-20.578,60.875,1,1,3.98,3.98,-0.1,0
-0.002181,0.019005,0,-0.39928,0.32281,-0.29625,0,0,-0.39928,0,-68.507,0.076358,0,-0.033301,0,-20.575,60.864,1,1,3.985,3.985,-0.1,0
-0.0021825,0.019008,0,-0.39926,0.32369,-0.29698,0,0,-0.39926,0,-68.496,0.084378,0,-0.034647,0,-20.572,60.852,1,1,3.99,3.99,-0.1,0
-0.0021841,0.019012,0,-0.39925,0.32456,-0.2977,0,0,-0.39925,0,-68.485,0.092283,0,-0.035967,0,-20.569,60.841,1,1,3.995,3.995,-0.1,0
-0.0021857,0.019016,0,-0.39923,0.32543,-0.29842,0,0,-0.39923,0,-68.473,0.10007,0,-0.037262,0,-20.566,60.83,1,1,4,4,-0.1,0
-0.0021872,0.01902,0,-0.39922,0.32631,-0.29915,0,0,-0.39922,0,-68.462,0.10774,0,-0.038532,0,-20.563,60.819,1,1,4.005,4.005,-0.1,0
-0.0021888,0.019023,0,-0.3992,0.32719,-0.29987,0,0,-0.3992,0,-68.45,0.1153,0,-0.039776,0,-20.56,60.807,1,1,4.01,4.01,-0.1,0
-0.0021903,0.019027,0,-0.39919,0.32806,-0.30059,0,0,-0.39919,0,-68.439,0.12274,0,-0.040995,0,-20.557,60.796,1,1,4.015,4.015,-0.1,0
-0.0021919,0.019031,0,-0.39917,0.32894,-0.30132,0,0,-0.39917,0,-68.427,0.13007,0,-0.042189,0,-20.554,60.785,1,1,4.02,4.02,-0.1,0
-0.0021935,0.019035,0,-0.39916,0.32982,-0.30204,0,0,-0.39916,0,-68.415,0.13728,0,-0.043357,0,-20.55,60.774,1,1,4.025,4.025,-0.1,0
-0.002195,0.019038,0,-0.39914,0.3307,-0.30277,0,0,-0.39914,0,-68.404,0.14438,0,-0.0445,0,-20.547,60.762,1,1,4.03,4.03,-0.1,0
-0.0021966,0.019042,0,-0.39913,0.33158,-0.3035,0,0,-0.39913,0,-68.392,0.15135,0,-0.045617,0,-20.544,60.751,1,1,4.035,4.035,-0.1,0
-0.0021981,0.019046,0,-0.39911,0.33247,-0.30422,0,0,-0.39911,0,-68.38,0.15822,0,-0.046709,0,-20.541,60.74,1,1,4.04,4.04,-0.1,0
-0.0021997,0.01905,0,-0.39909,0.33335,-0.30495,0,0,-0.39909,0,-68.369,0.16497,0,-0.047776,0,-20.538,60.728,1,1,4.045,4.045,-0.1,0
-0.0022012,0.019053,0,-0.39908,0.33423,-0.30568,0,0,-0.39908,0,-68.357,0.1716,0,-0.048817,0,-20.534,60.717,1,1,4.05,4.05,-0.1,0
-0.0022028,0.019057,0,-0.39906,0.33512,-0.30641,0,0,-0.39906,0,-68.345,0.17811,0,-0.049833,0,-20.531,60.706,1,1,4.055,4.055,-0.1,0
-0.0022044,0.019061,0,-0.39905,0.336,-0.30713,0,0,-0.39905,0,-68.333,0.18452,0,-0.050824,0,-20.528,60.694,1,1,4.06,4.06,-0.1,0
-0.0022059,0.019065,0,-0.39903,0.33689,-0.30786,0,0,-0.39903,0,-68.321,0.1908,0,-0.051789,0,-20.525,60.683,1,1,4.065,4.065,-0.1,0
-0.0022075,0.019068,0,-0.39902,0.33778,-0.30859,0,0,-0.39902,0,-68.31,0.19697,0,-0.052729,0,-20.521,60.672,1,1,4.07,4.07,-0.1,0
-0.002209,0.019072,0,-0.399,0.33867,-0.30932,0,0,-0.399,0,-68.298,0.20302,0,-0.053643,0,-20.518,60.66,1,1,4.075,4.075,-0.1,0
-0.0022106,0.019076,0,-0.39899,0.33956,-0.31005,0,0,-0.39899,0,-68.286,0.20896,0,-0.054532,0,-20.515,60.649,1,1,4.08,4.08,-0.1,0
-0.0022121,0.019079,0,-0.39897,0.34045,-0.31078,0,0,-0.39897,0,-68.274,0.21479,0,-0.055396,0,-20.511,60.638,1,1,4.085,4.085,-0.1,0
-0.0022137,0.019083,0,-0.39896,0.34134,-0.31151,0,0,-0.39896,0,-68.262,0.22049,0,-0.056234,0,-20.508,60.626,1,1,4.09,4.09,-0.1,0
-0.0022152,0.019087,0,-0.39894,0.34223,-0.31225,0,0,-0.39894,0,-68.25,0.22608,0,-0.057047,0,-20.505,60.615,1,1,4.095,4.095,-0.1,0
-0.0022168,0.019091,0,-0.39893,0.34312,-0.31298,0,0,-0.39893,0,-68.238,0.23156,0,-0.057835,0,-20.501,60.603,1,1,4.1,4.1,-0.1,0
-0.0022183,0.019094,0,-0.39891,0.34402,-0.31371,0,0,-0.39891,0,-68.225,0.23692,0,-0.058597,0,-20.498,60.592,1,1,4.105,4.105,-0.1,0
-0.0022199,0.019098,0,-0.3989,0.34491,-0.31444,0,0,-0.3989,0,-68.213,0.24216,0,-0.059334,0,-20.495,60.581,1,1,4.11,4.11,-0.1,0
-0.0022214,0.019102,0,-0.39888,0.34581,-0.31518,0,0,-0.39888,0,-68.201,0.24729,0,-0.060045,0,-20.491,60.569,1,1,4.115,4.115,-0.1,0
-0.002223,0.019105,0,-0.39887,0.3467,-0.31591,0,0,-0.39887,0,-68.189,0.25231,0,-0.060732,0,-20.488,60.558,1,1,4.12,4.12,-0.1,0
-0.0022245,0.019109,0,-0.39885,0.3476,-0.31665,0,0,-0.39885,0,-68.177,0.2572,0,-0.061392,0,-20.484,60.546,1,1,4.125,4.125,-0.1,0
-0.0022261,0.019113,0,-0.39884,0.3485,-0.31738,0,0,-0.39884,0,-68.164,0.26199,0,-0.062028,0,-20.481,60.535,1,1,4.13,4.13,-0.1,0
-0.0022277,0.019117,0,-0.39882,0.3494,-0.31812,0,0,-0.39882,0,-68.152,0.26665,0,-0.062638,0,-20.477,60.524,1,1,4.135,4.135,-0.1,0
-0.0022292,0.01912,0,-0.39881,0.3503,-0.31885,0,0,-0.39881,0,-68.14,0.2712,0,-0.063222,0,-20.474,60.512,1,1,4.14,4.14,-0.1,0
-0.0022308,0.019124,0,-0.39879,0.3512,-0.31959,0,0,-0.39879,0,-68.127,0.27564,0,-0.063781,0,-20.47,60.501,1,1,4.145,4.145,-0.1,0
-0.0022323,0.019128,0,-0.39877,0.3521,-0.32032,0,0,-0.39877,0,-68.115,0.27996,0,-0.064315,0,-20.466,60.489,1,1,4.15,4.15,-0.1,0
-0.0022339,0.019131,0,-0.39876,0.35301,-0.32106,0,0,-0.39876,0,-68.103,0.28416,0,-0.064824,0,-20.463,60.478,1,1,4.155,4.155,-0.1,0
-0.0022354,0.019135,0,-0.39874,0.35391,-0.3218,0,0,-0.39874,0,-68.09,0.28825,0,-0.065307,0,-20.459,60.466,1,1,4.16,4.16,-0.1,0
-0.0022369,0.019139,0,-0.39873,0.35482,-0.32254,0,0,-0.39873,0,-68.078,0.29222,0,-0.065764,0,-20.456,60.455,1,1,4.165,4.165,-0.1,0
-0.0022385,0.019142,0,-0.39871,0.35572,-0.32327,0,0,-0.39871,0,-68.065,0.29608,0,-0.066197,0,-20.452,60.443,1,1,4.17,4.17,-0.1,0
-0.00224,0.019146,0,-0.3987,0.35663,-0.32401,0,0,-0.3987,0,-68.053,0.29982,0,-0.066604,0,-20.448,60.432,1,1,4.175,4.175,-0.1,0
-0.0022416,0.01915,0,-0.39868,0.35754,-0.32475,0,0,-0.39868,0,-68.04,0.30344,0,-0.066985,0,-20.445,60.42,1,1,4.18,4.18,-0.1,0
-0.0022431,0.019153,0,-0.39867,0.35845,-0.32549,0,0,-0.39867,0,-68.027,0.30695,0,-0.067341,0,-20.441,60.409,1,1,4.185,4.185,-0.1,0
-0.0022447,0.019157,0,-0.39865,0.35936,-0.32623,0,0,-0.39865,0,-68.015,0.31035,0,-0.067672,0,-20.437,60.397,1,1,4.19,4.19,-0.1,0
-0.0022462,0.019161,0,-0.39864,0.36027,-0.32697,0,0,-0.39864,0,-68.002,0.31363,0,-0.067977,0,-20.434,60.386,1,1,4.195,4.195,-0.1,0
-0.0022478,0.019164,0,-0.39862,0.36118,-0.32771,0,0,-0.39862,0,-67.989,0.31679,0,-0.068257,0,-20.43,60.374,1,1,4.2,4.2,-0.1,0
-0.0022493,0.019168,0,-0.39861,0.36209,-0.32846,0,0,-0.39861,0,-67.977,0.31984,0,-0.068512,0,-20.426,60.363,1,1,4.205,4.205,-0.1,0
-0.0022509,0.019172,0,-0.39859,0.363,-0.3292,0,0,-0.39859,0,-67.964,0.32277,0,-0.068741,0,-20.422,60.351,1,1,4.21,4.21,-0.1,0
-0.0022524,0.019175,0,-0.39858,0.36392,-0.32994,0,0,-0.39858,0,-67.951,0.32558,0,-0.068945,0,-20.419,60.34,1,1,4.215,4.215,-0.1,0
-0.002254,0.019179,0,-0.39856,0.36483,-0.33068,0,0,-0.39856,0,-67.938,0.32828,0,-0.069124,0,-20.415,60.328,1,1,4.22,4.22,-0.1,0
-0.0022555,0.019183,0,-0.39855,0.36575,-0.33143,0,0,-0.39855,0,-67.926,0.33087,0,-0.069277,0,-20.411,60.316,1,1,4.225,4.225,-0.1,0
-0.0022571,0.019186,0,-0.39853,0.36667,-0.33217,0,0,-0.39853,0,-67.913,0.33334,0,-0.069404,0,-20.407,60.305,1,1,4.23,4.23,-0.1,0
-0.0022586,0.01919,0,-0.39852,0.36759,-0.33291,0,0,-0.39852,0,-67.9,0.33569,0,-0.069507,0,-20.403,60.293,1,1,4.235,4.235,-0.1,0
-0.0022601,0.019194,0,-0.3985,0.3685,-0.33366,0,0,-0.3985,0,-67.887,0.33793,0,-0.069584,0,-20.399,60.282,1,1,4.24,4.24,-0.1,0
-0.0022617,0.019197,0,-0.39848,0.36942,-0.3344,0,0,-0.39848,0,-67.874,0.34005,0,-0.069635,0,-20.396,60.27,1,1,4.245,4.245,-0.1,0
-0.0022632,0.019201,0,-0.39847,0.37034,-0.33515,0,0,-0.39847,0,-67.861,0.34206,0,-0.069661,0,-20.392,60.258,1,1,4.25,4.25,-0.1,0
-0.0022648,0.019205,0,-0.39845,0.37127,-0.3359,0,0,-0.39845,0,-67.848,0.34395,0,-0.069662,0,-20.388,60.247,1,1,4.255,4.255,-0.1,0
-0.0022663,0.019208,0,-0.39844,0.37219,-0.33664,0,0,-0.39844,0,-67.835,0.34572,0,-0.069637,0,-20.384,60.235,1,1,4.26,4.26,-0.1,0
-0.0022679,0.019212,0,-0.39842,0.37311,-0.33739,0,0,-0.39842,0,-67.822,0.34738,0,-0.069587,0,-20.38,60.224,1,1,4.265,4.265,-0.1,0
-0.0022694,0.019216,0,-0.39841,0.37404,-0.33814,0,0,-0.39841,0,-67.808,0.34893,0,-0.069512,0,-20.376,60.212,1,1,4.27,4.27,-0.1,0
-0.0022709,0.019219,0,-0.39839,0.37496,-0.33888,0,0,-0.39839,0,-67.795,0.35035,0,-0.069411,0,-20.372,60.2,1,1,4.275,4.275,-0.1,0
-0.0022725,0.019223,0,-0.39838,0.37589,-0.33963,0,0,-0.39838,0,-67.782,0.35167,0,-0.069285,0,-20.368,60.189,1,1,4.28,4.28,-0.1,0
-0.002274,0.019227,0,-0.39836,0.37682,-0.34038,0,0,-0.39836,0,-67.769,0.35286,0,-0.069133,0,-20.364,60.177,1,1,4.285,4.285,-0.1,0
-0.0022756,0.01923,0,-0.39835,0.37774,-0.34113,0,0,-0.39835,0,-67.756,0.35395,0,-0.068956,0,-20.36,60.165,1,1,4.29,4.29,-0.1,0
-0.0022771,0.019234,0,-0.39833,0.37867,-0.34188,0,0,-0.39833,0,-67.742,0.35491,0,-0.068754,0,-20.356,60.154,1,1,4.295,4.295,-0.1,0
-0.0022786,0.019237,0,-0.39832,0.3796,-0.34263,0,0,-0.39832,0,-67.729,0.35576,0,-0.068526,0,-20.352,60.142,1,1,4.3,4.3,-0.1,0
-0.0022802,0.019241,0,-0.3983,0.38053,-0.34338,0,0,-0.3983,0,-67.716,0.3565,0,-0.068273,0,-20.348,60.13,1,1,4.305,4.305,-0.1,0
-0.0022817,0.019245,0,-0.39829,0.38147,-0.34413,0,0,-0.39829,0,-67.702,0.35711,0,-0.067994,0,-20.344,60.119,1,1,4.31,4.31,-0.1,0
-0.0022833,0.019248,0,-0.39827,0.3824,-0.34488,0,0,-0.39827,0,-67.689,0.35762,0,-0.06769,0,-20.339,60.107,1,1,4.315,4.315,-0.1,0
-0.0022848,0.019252,0,-0.39826,0.38333,-0.34564,0,0,-0.39826,0,-67.675,0.358,0,-0.067361,0,-20.335,60.095,1,1,4.32,4.32,-0.1,0
-0.0022863,0.019256,0,-0.39824,0.38427,-0.34639,0,0,-0.39824,0,-67.662,0.35827,0,-0.067006,0,-20.331,60.083,1,1,4.325,4.325,-0.1,0
-0.0022879,0.019259,0,-0.39823,0.38521,-0.34714,0,0,-0.39823,0,-67.648,0.35843,0,-0.066625,0,-20.327,60.072,1,1,4.33,4.33,-0.1,0
-0.0022894,0.019263,0,-0.39822,0.38614,-0.3479,0,0,-0.39822,0,-67.635,0.35847,0,-0.06622,0,-20.323,60.06,1,1,4.335,4.335,-0.1,0
-0.002291,0.019266,0,-0.3982,0.38708,-0.34865,0,0,-0.3982,0,-67.621,0.35839,0,-0.065789,0,-20.319,60.048,1,1,4.34,4.34,-0.1,0
-0.0022925,0.01927,0,-0.39819,0.38802,-0.34941,0,0,-0.39819,0,-67.608,0.3582,0,-0.065332,0,-20.314,60.037,1,1,4.345,4.345,-0.1,0
-0.002294,0.019274,0,-0.39817,0.38896,-0.35016,0,0,-0.39817,0,-67.594,0.3579,0,-0.06485,0,-20.31,60.025,1,1,4.35,4.35,-0.1,0
-0.0022956,0.019277,0,-0.39816,0.3899,-0.35092,0,0,-0.39816,0,-67.58,0.35747,0,-0.064343,0,-20.306,60.013,1,1,4.355,4.355,-0.1,0
-0.0022971,0.019281,0,-0.39814,0.39084,-0.35167,0,0,-0.39814,0,-67.567,0.35693,0,-0.06381,0,-20.302,60.001,1,1,4.36,4.36,-0.1,0
-0.0022986,0.019284,0,-0.39813,0.39179,-0.35243,0,0,-0.39813,0,-67.553,0.35628,0,-0.063252,0,-20.297,59.989,1,1,4.365,4.365,-0.1,0
-0.0023002,0.019288,0,-0.39811,0.39273,-0.35319,0,0,-0.39811,0,-67.539,0.35551,0,-0.062669,0,-20.293,59.978,1,1,4.37,4.37,-0.1,0
-0.0023017,0.019292,0,-0.3981,0.39367,-0.35394,0,0,-0.3981,0,-67.525,0.35463,0,-0.06206,0,-20.289,59.966,1,1,4.375,4.375,-0.1,0
-0.0023032,0.019295,0,-0.39809,0.39462,-0.3547,0,0,-0.39809,0,-67.511,0.35363,0,-0.061425,0,-20.284,59.954,1,1,4.38,4.38,-0.1,0
-0.0023048,0.019299,0,-0.39807,0.39557,-0.35546,0,0,-0.39807,0,-67.498,0.35251,0,-0.060766,0,-20.28,59.942,1,1,4.385,4.385,-0.1,0
-0.0023063,0.019302,0,-0.39806,0.39651,-0.35622,0,0,-0.39806,0,-67.484,0.35128,0,-0.060081,0,-20.276,59.93,1,1,4.39,4.39,-0.1,0
-0.0023078,0.019306,0,-0.39804,0.39746,-0.35698,0,0,-0.39804,0,-67.47,0.34993,0,-0.05937,0,-20.271,59.919,1,1,4.395,4.395,-0.1,0
-0.0023094,0.01931,0,-0.39803,0.39841,-0.35774,0,0,-0.39803,0,-67.456,0.34847,0,-0.058634,0,-20.267,59.907,1,1,4.4,4.4,-0.1,0
-0.0023109,0.019313,0,-0.39801,0.39936,-0.3585,0,0,-0.39801,0,-67.442,0.34689,0,-0.057873,0,-20.262,59.895,1,1,4.405,4.405,-0.1,0
-0.0023124,0.019317,0,-0.398,0.40031,-0.35926,0,0,-0.398,0,-67.428,0.34519,0,-0.057086,0,-20.258,59.883,1,1,4.41,4.41,-0.1,0
-0.002314,0.01932,0,-0.39798,0.40126,-0.36002,0,0,-0.39798,0,-67.414,0.34338,0,-0.056274,0,-20.253,59.871,1,1,4.415,4.415,-0.1,0
-0.0023155,0.019324,0,-0.39797,0.40222,-0.36078,0,0,-0.39797,0,-67.4,0.34146,0,-0.055437,0,-20.249,59.859,1,1,4.42,4.42,-0.1,0
-0.002317,0.019328,0,-0.39796,0.40317,-0.36154,0,0,-0.39796,0,-67.386,0.33942,0,-0.054574,0,-20.244,59.848,1,1,4.425,4.425,-0.1,0
-0.0023186,0.019331,0,-0.39794,0.40413,-0.36231,0,0,-0.39794,0,-67.372,0.33726,0,-0.053686,0,-20.24,59.836,1,1,4.43,4.43,-0.1,0
-0.0023201,0.019335,0,-0.39793,0.40508,-0.36307,0,0,-0.39793,0,-67.357,0.33499,0,-0.052772,0,-20.235,59.824,1,1,4.435,4.435,-0.1,0
-0.0023216,0.019338,0,-0.39791,0.40604,-0.36383,0,0,-0.39791,0,-67.343,0.3326,0,-0.051833,0,-20.231,59.812,1,1,4.44,4.44,-0.1,0
-0.0023232,0.019342,0,-0.3979,0.407,-0.3646,0,0,-0.3979,0,-67.329,0.3301,0,-0.050868,0,-20.226,59.8,1,1,4.445,4.445,-0.1,0
-0.0023247,0.019345,0,-0.39788,0.40795,-0.36536,0,0,-0.39788,0,-67.315,0.32748,0,-0.049878,0,-20.222,59.788,1,1,4.45,4.45,-0.1,0
-0.0023262,0.019349,0,-0.39787,0.40891,-0.36612,0,0,-0.39787,0,-67.3,0.32474,0,-0.048863,0,-20.217,59.776,1,1,4.455,4.455,-0.1,0
-0.0023277,0.019353,0,-0.39785,0.40987,-0.36689,0,0,-0.39785,0,-67.286,0.32189,0,-0.047822,0,-20.213,59.764,1,1,4.46,4.46,-0.1,0
-0.0023293,0.019356,0,-0.39784,0.41083,-0.36766,0,0,-0.39784,0,-67.272,0.31892,0,-0.046756,0,-20.208,59.752,1,1,4.465,4.465,-0.1,0
-0.0023308,0.01936,0,-0.39783,0.4118,-0.36842,0,0,-0.39783,0,-67.257,0.31584,0,-0.045665,0,-20.203,59.74,1,1,4.47,4.47,-0.1,0
-0.0023323,0.019363,0,-0.39781,0.41276,-0.36919,0,0,-0.39781,0,-67.243,0.31265,0,-0.044548,0,-20.199,59.728,1,1,4.475,4.475,-0.1,0
-0.0023339,0.019367,0,-0.3978,0.41372,-0.36995,0,0,-0.3978,0,-67.228,0.30933,0,-0.043405,0,-20.194,59.717,1,1,4.48,4.48,-0.1,0
-0.0023354,0.01937,0,-0.39778,0.41469,-0.37072,0,0,-0.39778,0,-67.214,0.3059,0,-0.042238,0,-20.189,59.705,1,1,4.485,4.485,-0.1,0
-0.0023369,0.019374,0,-0.39777,0.41565,-0.37149,0,0,-0.39777,0,-67.199,0.30236,0,-0.041045,0,-20.184,59.693,1,1,4.49,4.49,-0.1,0
-0.0023384,0.019377,0,-0.39775,0.41662,-0.37226,0,0,-0.39775,0,-67.185,0.2987,0,-0.039826,0,-20.18,59.681,1,1,4.495,4.495,-0.1,0
-0.00234,0.019381,0,-0.39774,0.41759,-0.37303,0,0,-0.39774,0,-67.17,0.29492,0,-0.038582,0,-20.175,59.669,1,1,4.5,4.5,-0.1,0
-0.0023415,0.019384,0,-0.39772,0.41856,-0.3738,0,0,-0.39772,0,-67.156,0.29103,0,-0.037313,0,-20.17,59.657,1,1,4.505,4.505,-0.1,0
-0.002343,0.019388,0,-0.39771,0.41953,-0.37457,0,0,-0.39771,0,-67.141,0.28703,0,-0.036018,0,-20.165,59.645,1,1,4.51,4.51,-0.1,0
-0.0023445,0.019392,0,-0.3977,0.4205,-0.37534,0,0,-0.3977,0,-67.126,0.2829,0,-0.034698,0,-20.161,59.633,1,1,4.515,4.515,-0.1,0
-0.0023461,0.019395,0,-0.39768,0.42147,-0.37611,0,0,-0.39768,0,-67.112,0.27867,0,-0.033352,0,-20.156,59.621,1,1,4.52,4.52,-0.1,0
-0.0023476,0.019399,0,-0.39767,0.42244,-0.37688,0,0,-0.39767,0,-67.097,0.27431,0,-0.031981,0,-20.151,59.609,1,1,4.525,4.525,-0.1,0
-0.0023491,0.019402,0,-0.39765,0.42341,-0.37765,0,0,-0.39765,0,-67.082,0.26984,0,-0.030585,0,-20.146,59.597,1,1,4.53,4.53,-0.1,0
-0.0023506,0.019406,0,-0.39764,0.42439,-0.37842,0,0,-0.39764,0,-67.067,0.26526,0,-0.029163,0,-20.141,59.585,1,1,4.535,4.535,-0.1,0
-0.0023522,0.019409,0,-0.39762,0.42536,-0.37919,0,0,-0.39762,0,-67.053,0.26056,0,-0.027715,0,-20.136,59.573,1,1,4.54,4.54,-0.1,0
-0.0023537,0.019413,0,-0.39761,0.42634,-0.37997,0,0,-0.39761,0,-67.038,0.25574,0,-0.026243,0,-20.131,59.561,1,1,4.545,4.545,-0.1,0
-0.0023552,0.019416,0,-0.39759,0.42732,-0.38074,0,0,-0.39759,0,-67.023,0.25081,0,-0.024745,0,-20.127,59.548,1,1,4.55,4.55,-0.1,0
-0.0023567,0.01942,0,-0.39758,0.42829,-0.38151,0,0,-0.39758,0,-67.008,0.24576,0,-0.023221,0,-20.122,59.536,1,1,4.555,4.555,-0.1,0
-0.0023583,0.019423,0,-0.39757,0.42927,-0.38229,0,0,-0.39757,0,-66.993,0.2406,0,-0.021672,0,-20.117,59.524,1,1,4.56,4.56,-0.1,0
-0.0023598,0.019427,0,-0.39755,0.43025,-0.38306,0,0,-0.39755,0,-66.978,0.23532,0,-0.020098,0,-20.112,59.512,1,1,4.565,4.565,-0.1,0
-0.0023613,0.01943,0,-0.39754,0.43123,-0.38384,0,0,-0.39754,0,-66.963,0.22993,0,-0.018498,0,-20.107,59.5,1,1,4.57,4.57,-0.1,0
-0.0023628,0.019434,0,-0.39752,0.43221,-0.38461,0,0,-0.39752,0,-66.948,0.22442,0,-0.016873,0,-20.102,59.488,1,1,4.575,4.575,-0.1,0
-0.0023643,0.019437,0,-0.39751,0.4332,-0.38539,0,0,-0.39751,0,-66.933,0.2188,0,-0.015223,0,-20.097,59.476,1,1,4.58,4.58,-0.1,0
-0.0023659,0.019441,0,-0.39749,0.43418,-0.38617,0,0,-0.39749,0,-66.918,0.21305,0,-0.013547,0,-20.092,59.464,1,1,4.585,4.585,-0.1,0
-0.0023674,0.019444,0,-0.39748,0.43516,-0.38694,0,0,-0.39748,0,-66.903,0.2072,0,-0.011845,0,-20.087,59.452,1,1,4.59,4.59,-0.1,0
-0.0023689,0.019448,0,-0.39746,0.43615,-0.38772,0,0,-0.39746,0,-66.888,0.20123,0,-0.010118,0,-20.082,59.44,1,1,4.595,4.595,-0.1,0
-0.0023704,0.019451,0,-0.39745,0.43714,-0.3885,0,0,-0.39745,0,-66.872,0.19514,0,-0.0083661,0,-20.076,59.428,1,1,4.6,4.6,-0.1,0
-0.0023719,0.019455,0,-0.39744,0.43812,-0.38928,0,0,-0.39744,0,-66.857,0.18894,0,-0.0065884,0,-20.071,59.415,1,1,4.605,4.605,-0.1,0
-0.0023735,0.019458,0,-0.39742,0.43911,-0.39005,0,0,-0.39742,0,-66.842,0.18262,0,-0.0047853,0,-20.066,59.403,1,1,4.61,4.61,-0.1,0
-0.002375,0.019462,0,-0.39741,0.4401,-0.39083,0,0,-0.39741,0,-66.827,0.17618,0,-0.002957,0,-20.061,59.391,1,1,4.615,4.615,-0.1,0
-0.0023765,0.019465,0,-0.39739,0.44109,-0.39161,0,0,-0.39739,0,-66.811,0.16963,0,-0.001103,0,-20.056,59.379,1,1,4.62,4.62,-0.1,0
-0.002378,0.019469,0,-0.39738,0.44208,-0.39239,0,0,-0.39738,0,-66.796,0.16297,0,0.00077637,0,-20.051,59.367,1,1,4.625,4.625,-0.1,0
-0.0023795,0.019472,0,-0.39736,0.44307,-0.39317,0,0,-0.39736,0,-66.78,0.15618,0,0.0026812,0,-20.046,59.355,1,1,4.63,4.63,-0.1,0
-0.0023811,0.019476,0,-0.39735,0.44406,-0.39395,0,0,-0.39735,0,-66.765,0.14929,0,0.0046114,0,-20.04,59.343,1,1,4.635,4.635,-0.1,0
-0.0023826,0.019479,0,-0.39733,0.44506,-0.39474,0,0,-0.39733,0,-66.75,0.14228,0,0.0065668,0,-20.035,59.33,1,1,4.64,4.64,-0.1,0
-0.0023841,0.019483,0,-0.39732,0.44605,-0.39552,0,0,-0.39732,0,-66.734,0.13515,0,0.0085479,0,-20.03,59.318,1,1,4.645,4.645,-0.1,0
-0.0023856,0.019486,0,-0.39731,0.44705,-0.3963,0,0,-0.39731,0,-66.719,0.1279,0,0.010554,0,-20.025,59.306,1,1,4.65,4.65,-0.1,0
-0.0023871,0.01949,0,-0.39729,0.44804,-0.39708,0,0,-0.39729,0,-66.703,0.12054,0,0.012586,0,-20.019,59.294,1,1,4.655,4.655,-0.1,0
-0.0023886,0.019493,0,-0.39728,0.44904,-0.39787,0,0,-0.39728,0,-66.688,0.11307,0,0.014643,0,-20.014,59.282,1,1,4.66,4.66,-0.1,0
-0.0023902,0.019497,0,-0.39726,0.45004,-0.39865,0,0,-0.39726,0,-66.672,0.10548,0,0.016726,0,-20.009,59.269,1,1,4.665,4.665,-0.1,0
-0.0023917,0.0195,0,-0.39725,0.45104,-0.39943,0,0,-0.39725,0,-66.656,0.097774,0,0.018834,0,-20.003,59.257,1,1,4.67,4.67,-0.1,0
-0.0023932,0.019504,0,-0.39723,0.45204,-0.40022,0,0,-0.39723,0,-66.641,0.089952,0,0.020968,0,-19.998,59.245,1,1,4.675,4.675,-0.1,0
-0.0023947,0.019507,0,-0.39722,0.45304,-0.401,0,0,-0.39722,0,-66.625,0.082015,0,0.023127,0,-19.993,59.233,1,1,4.68,4.68,-0.1,0
-0.0023962,0.019511,0,-0.3972,0.45404,-0.40179,0,0,-0.3972,0,-66.609,0.073962,0,0.025311,0,-19.987,59.22,1,1,4.685,4.685,-0.1,0
-0.0023977,0.019514,0,-0.39719,0.45504,-0.40257,0,0,-0.39719,0,-66.593,0.065794,0,0.027521,0,-19.982,59.208,1,1,4.69,4.69,-0.1,0
-0.0023992,0.019517,0,-0.39718,0.45605,-0.40336,0,0,-0.39718,0,-66.578,0.05751,0,0.029756,0,-19.976,59.196,1,1,4.695,4.695,-0.1,0
-0.0024008,0.019521,0,-0.39716,0.45705,-0.40415,0,0,-0.39716,0,-66.562,0.049111,0,0.032017,0,-19.971,59.184,1,1,4.7,4.7,-0.1,0
-0.0024023,0.019524,0,-0.39715,0.45806,-0.40494,0,0,-0.39715,0,-66.546,0.040595,0,0.034303,0,-19.966,59.171,1,1,4.705,4.705,-0.1,0
-0.0024038,0.019528,0,-0.39713,0.45906,-0.40572,0,0,-0.39713,0,-66.53,0.031964,0,0.036615,0,-19.96,59.159,1,1,4.71,4.71,-0.1,0
-0.0024053,0.019531,0,-0.39712,0.46007,-0.40651,0,0,-0.39712,0,-66.514,0.023218,0,0.038952,0,-19.955,59.147,1,1,4.715,4.715,-0.1,0
-0.0024068,0.019535,0,-0.3971,0.46108,-0.4073,0,0,-0.3971,0,-66.498,0.014357,0,0.041314,0,-19.949,59.134,1,1,4.72,4.72,-0.1,0
-0.0024083,0.019538,0,-0.39709,0.46209,-0.40809,0,0,-0.39709,0,-66.482,0.0053788,0,0.043702,0,-19.944,59.122,1,1,4.725,4.725,-0.1,0
-0.0024098,0.019542,0,-0.39707,0.4631,-0.40888,0,0,-0.39707,0,-66.466,-0.0037145,0,0.046115,0,-19.938,59.11,1,1,4.73,4.73,-0.1,0
-0.0024113,0.019545,0,-0.39706,0.46411,-0.40967,0,0,-0.39706,0,-66.45,-0.012923,0,0.048554,0,-19.933,59.098,1,1,4.735,4.735,-0.1,0
-0.0024129,0.019548,0,-0.39705,0.46512,-0.41046,0,0,-0.39705,0,-66.434,-0.022247,0,0.051018,0,-19.927,59.085,1,1,4.74,4.74,-0.1,0
-0.0024144,0.019552,0,-0.39703,0.46613,-0.41125,0,0,-0.39703,0,-66.418,-0.031687,0,0.053507,0,-19.921,59.073,1,1,4.745,4.745,-0.1,0
-0.0024159,0.019555,0,-0.39702,0.46716,-0.41205,0,0,-0.39702,0,-66.403,-0.038007,0,0.055249,0,-19.916,59.061,1,1,4.75,4.75,-0.1,0
-0.0024174,0.019559,0,-0.397,0.46825,-0.41286,0,0,-0.397,0,-66.393,-0.031644,0,0.053959,0,-19.914,59.051,1,1,4.755,4.755,-0.1,0
-0.0024189,0.019562,0,-0.39699,0.46934,-0.41367,0,0,-0.39699,0,-66.383,-0.025343,0,0.05268,0,-19.911,59.041,1,1,4.76,4.76,-0.1,0
-0.0024204,0.019566,0,-0.39697,0.47042,-0.41448,0,0,-0.39697,0,-66.372,-0.019103,0,0.051413,0,-19.908,59.031,1,1,4.765,4.765,-0.1,0
-0.0024219,0.019569,0,-0.39696,0.47151,-0.41529,0,0,-0.39696,0,-66.362,-0.012924,0,0.050156,0,-19.906,59.02,1,1,4.77,4.77,-0.1,0
-0.0024234,0.019573,0,-0.39695,0.4726,-0.4161,0,0,-0.39695,0,-66.352,-0.0068063,0,0.048911,0,-19.903,59.01,1,1,4.775,4.775,-0.1,0
-0.002425,0.019576,0,-0.39693,0.47369,-0.41691,0,0,-0.39693,0,-66.341,-0.00074975,0,0.047678,0,-19.9,59,1,1,4.78,4.78,-0.1,0
-0.0024265,0.019579,0,-0.39692,0.47479,-0.41773,0,0,-0.39692,0,-66.331,0.005245,0,0.046455,0,-19.897,58.99,1,1,4.785,4.785,-0.1,0
-0.002428,0.019583,0,-0.39691,0.47588,-0.41854,0,0,-0.39691,0,-66.32,0.011179,0,0.045244,0,-19.895,58.98,1,1,4.79,4.79,-0.1,0
-0.0024295,0.019586,0,-0.39689,0.47697,-0.41935,0,0,-0.39689,0,-66.31,0.017052,0,0.044044,0,-19.892,58.97,1,1,4.795,4.795,-0.1,0
-0.002431,0.01959,0,-0.39688,0.47807,-0.42016,0,0,-0.39688,0,-66.3,0.022864,0,0.042855,0,-19.889,58.96,1,1,4.8,4.8,-0.1,0
-0.0024325,0.019593,0,-0.39686,0.47917,-0.42098,0,0,-0.39686,0,-66.289,0.028613,0,0.041678,0,-19.886,58.949,1,1,4.805,4.805,-0.1,0
-0.002434,0.019597,0,-0.39685,0.48026,-0.42179,0,0,-0.39685,0,-66.279,0.034303,0,0.040511,0,-19.883,58.939,1,1,4.81,4.81,-0.1,0
-0.0024355,0.0196,0,-0.39684,0.48136,-0.42261,0,0,-0.39684,0,-66.268,0.039931,0,0.039357,0,-19.881,58.929,1,1,4.815,4.815,-0.1,0
-0.002437,0.019603,0,-0.39682,0.48246,-0.42342,0,0,-0.39682,0,-66.258,0.045497,0,0.038213,0,-19.878,58.919,1,1,4.82,4.82,-0.1,0
-0.0024386,0.019607,0,-0.39681,0.48356,-0.42423,0,0,-0.39681,0,-66.247,0.051002,0,0.037081,0,-19.875,58.909,1,1,4.825,4.825,-0.1,0
-0.0024401,0.01961,0,-0.39679,0.48466,-0.42505,0,0,-0.39679,0,-66.237,0.056447,0,0.03596,0,-19.872,58.899,1,1,4.83,4.83,-0.1,0
-0.0024416,0.019614,0,-0.39678,0.48577,-0.42586,0,0,-0.39678,0,-66.226,0.06183,0,0.03485,0,-19.869,58.888,1,1,4.835,4.835,-0.1,0
-0.0024431,0.019617,0,-0.39677,0.48687,-0.42668,0,0,-0.39677,0,-66.216,0.067152,0,0.033751,0,-19.867,58.878,1,1,4.84,4.84,-0.1,0
-0.0024446,0.019621,0,-0.39675,0.48798,-0.4275,0,0,-0.39675,0,-66.205,0.072412,0,0.032664,0,-19.864,58.868,1,1,4.845,4.845,-0.1,0
-0.0024461,0.019624,0,-0.39674,0.48908,-0.42831,0,0,-0.39674,0,-66.195,0.077611,0,0.031588,0,-19.861,58.858,1,1,4.85,4.85,-0.1,0
-0.0024476,0.019627,0,-0.39673,0.49019,-0.42913,0,0,-0.39673,0,-66.184,0.082749,0,0.030523,0,-19.858,58.848,1,1,4.855,4.855,-0.1,0
-0.0024491,0.019631,0,-0.39671,0.4913,-0.42995,0,0,-0.39671,0,-66.174,0.087826,0,0.02947,0,-19.855,58.837,1,1,4.86,4.86,-0.1,0
-0.0024506,0.019634,0,-0.3967,0.49241,-0.43076,0,0,-0.3967,0,-66.163,0.092842,0,0.028428,0,-19.852,58.827,1,1,4.865,4.865,-0.1,0
-0.0024521,0.019638,0,-0.39668,0.49352,-0.43158,0,0,-0.39668,0,-66.153,0.097796,0,0.027397,0,-19.85,58.817,1,1,4.87,4.87,-0.1,0
-0.0024536,0.019641,0,-0.39667,0.49463,-0.4324,0,0,-0.39667,0,-66.142,0.10269,0,0.026377,0,-19.847,58.807,1,1,4.875,4.875,-0.1,0
-0.0024551,0.019645,0,-0.39666,0.49574,-0.43322,0,0,-0.39666,0,-66.131,0.10752,0,0.025369,0,-19.844,58.797,1,1,4.88,4.88,-0.1,0
-0.0024566,0.019648,0,-0.39664,0.49686,-0.43403,0,0,-0.39664,0,-66.121,0.11229,0,0.024372,0,-19.841,58.787,1,1,4.885,4.885,-0.1,0
-0.0024582,0.019651,0,-0.39663,0.49797,-0.43485,0,0,-0.39663,0,-66.11,0.117,0,0.023386,0,-19.838,58.776,1,1,4.89,4.89,-0.1,0
-0.0024597,0.019655,0,-0.39661,0.49909,-0.43567,0,0,-0.39661,0,-66.1,0.12165,0,0.022411,0,-19.835,58.766,1,1,4.895,4.895,-0.1,0
-0.0024612,0.019658,0,-0.3966,0.50021,-0.43649,0,0,-0.3966,0,-66.089,0.12624,0,0.021448,0,-19.832,58.756,1,1,4.9,4.9,-0.1,0
-0.0024627,0.019662,0,-0.39659,0.50132,-0.43731,0,0,-0.39659,0,-66.078,0.13076,0,0.020496,0,-19.829,58.746,1,1,4.905,4.905,-0.1,0
-0.0024642,0.019665,0,-0.39657,0.50244,-0.43813,0,0,-0.39657,0,-66.068,0.13523,0,0.019555,0,-19.826,58.736,1,1,4.91,4.91,-0.1,0
-0.0024657,0.019668,0,-0.39656,0.50356,-0.43895,0,0,-0.39656,0,-66.057,0.13963,0,0.018626,0,-19.823,58.725,1,1,4.915,4.915,-0.1,0
-0.0024672,0.019672,0,-0.39655,0.50469,-0.43977,0,0,-0.39655,0,-66.046,0.14397,0,0.017708,0,-19.821,58.715,1,1,4.92,4.92,-0.1,0
-0.0024687,0.019675,0,-0.39653,0.50581,-0.44059,0,0,-0.39653,0,-66.036,0.14825,0,0.016801,0,-19.818,58.705,1,1,4.925,4.925,-0.1,0
-0.0024702,0.019679,0,-0.39652,0.50693,-0.44141,0,0,-0.39652,0,-66.025,0.15247,0,0.015905,0,-19.815,58.695,1,1,4.93,4.93,-0.1,0
-0.0024717,0.019682,0,-0.3965,0.50806,-0.44223,0,0,-0.3965,0,-66.014,0.15663,0,0.015021,0,-19.812,58.685,1,1,4.935,4.935,-0.1,0
-0.0024732,0.019685,0,-0.39649,0.50918,-0.44305,0,0,-0.39649,0,-66.003,0.16073,0,0.014148,0,-19.809,58.674,1,1,4.94,4.94,-0.1,0
-0.0024747,0.019689,0,-0.39648,0.51031,-0.44387,0,0,-0.39648,0,-65.993,0.16477,0,0.013286,0,-19.806,58.664,1,1,4.945,4.945,-0.1,0
-0.0024762,0.019692,0,-0.39646,0.51144,-0.4447,0,0,-0.39646,0,-65.982,0.16874,0,0.012436,0,-19.803,58.654,1,1,4.95,4.95,-0.1,0
-0.0024777,0.019696,0,-0.39645,0.51257,-0.44552,0,0,-0.39645,0,-65.971,0.17266,0,0.011597,0,-19.8,58.644,1,1,4.955,4.955,-0.1,0
-0.0024792,0.019699,0,-0.39643,0.5137,-0.44634,0,0,-0.39643,0,-65.96,0.17651,0,0.010769,0,-19.797,58.633,1,1,4.96,4.96,-0.1,0
-0.0024807,0.019702,0,-0.39642,0.51483,-0.44716,0,0,-0.39642,0,-65.95,0.1803,0,0.0099519,0,-19.794,58.623,1,1,4.965,4.965,-0.1,0
-0.0024822,0.019706,0,-0.39641,0.51596,-0.44799,0,0,-0.39641,0,-65.939,0.18403,0,0.0091466,0,-19.791,58.613,1,1,4.97,4.97,-0.1,0
-0.0024837,0.019709,0,-0.39639,0.51709,-0.44881,0,0,-0.39639,0,-65.928,0.1877,0,0.0083525,0,-19.788,58.603,1,1,4.975,4.975,-0.1,0
-0.0024852,0.019713,0,-0.39638,0.51823,-0.44963,0,0,-0.39638,0,-65.917,0.19131,0,0.0075697,0,-19.785,58.593,1,1,4.98,4.98,-0.1,0
-0.0024867,0.019716,0,-0.39637,0.51936,-0.45046,0,0,-0.39637,0,-65.906,0.19485,0,0.0067981,0,-19.782,58.582,1,1,4.985,4.985,-0.1,0
-0.0024882,0.019719,0,-0.39635,0.5205,-0.45128,0,0,-0.39635,0,-65.895,0.19834,0,0.0060379,0,-19.779,58.572,1,1,4.99,4.99,-0.1,0
-0.0024897,0.019723,0,-0.39634,0.52164,-0.45211,0,0,-0.39634,0,-65.885,0.20176,0,0.0052889,0,-19.776,58.562,1,1,4.995,4.995,-0.1,0
-0.0024912,0.019726,0,-0.39632,0.52278,-0.45293,0,0,-0.39632,0,-65.874,0.20512,0,0.0045512,0,-19.773,58.552,1,1,5,5,-0.1,0
