"displacement:0","displacement:1","displacement:2","displacement contact active","displacement contact distance","displacement contact gap","displacement contact load:0","displacement contact load:1","displacement contact load:2","displacement contact normalload","displacement contact slipload","displacement contact stick","displacement contact weight","stress_xx","stress_xy","stress_xz","stress_yy","stress_yz","stress_zz","vonmises","GeometryIds","vtkValidPointMask","arc_length","Points:0","Points:1","Points:2"
0,0.010749,0,0,0,0,37.916,1.1277e-07,0,0,0,0,0,-840.58,3.7387,0,-1576.1,0,-730.73,797.72,102,1,0,0,-0.1,0
-3.6926e-06,0.01075,0,0,0,0,33.166,1.0836e-07,0,0,0,0,0,-841.3,11.11,0,-1576.6,0,-731.08,797.53,1,1,0.005,0.005,-0.1,0
-7.3763e-06,0.010752,0,0,0,0,28.716,1.1597e-07,0,0,0,0,0,-841.72,18.618,0,-1576.5,0,-731.18,797.39,1,1,0.01,0.01,-0.1,0
-1.1051e-05,0.010755,0,0,0,0,24.567,1.3561e-07,0,0,0,0,0,-841.86,26.261,0,-1575.9,0,-731.03,797.3,1,1,0.015,0.015,-0.1,0
-1.4717e-05,0.010758,0,0,0,0,20.719,1.6727e-07,0,0,0,0,0,-841.72,34.041,0,-1574.7,0,-730.63,797.27,1,1,0.02,0.02,-0.1,0
-1.8375e-05,0.010763,0,0,0,0,17.171,2.1095e-07,0,0,0,0,0,-841.28,41.956,0,-1573,0,-729.97,797.3,1,1,0.025,0.025,-0.1,0
-2.2023e-05,0.010769,0,0,0,0,13.924,2.6665e-07,0,0,0,0,0,-840.57,50.007,0,-1570.7,0,-729.07,797.38,1,1,0.03,0.03,-0.1,0
-2.5663e-05,0.010777,0,0,0,0,10.978,3.3436e-07,0,0,0,0,0,-839.56,58.193,0,-1567.9,0,-727.91,797.52,1,1,0.035,0.035,-0.1,0
-2.9293e-05,0.010785,0,0,0,0,8.3316,4.1408e-07,0,0,0,0,0,-838.28,66.516,0,-1564.5,0,-726.5,797.71,1,1,0.04,0.04,-0.1,0
-3.2915e-05,0.010794,0,0,0,0,5.9862,5.0581e-07,0,0,0,0,0,-836.7,74.974,0,-1560.6,0,-724.84,797.96,1,1,0.045,0.045,-0.1,0
-3.6529e-05,0.010804,0,0,0,0,3.9414,6.0954e-07,0,0,0,0,0,-834.84,83.568,0,-1556.1,0,-722.92,798.26,1,1,0.05,0.05,-0.1,0
-4.0121e-05,0.010816,0,0,0,0,2.2003,7.2507e-07,0,0,0,0,0,-832.64,92.302,0,-1551.1,0,-720.73,798.64,1,1,0.055,0.055,-0.1,0
-4.3702e-05,0.010829,0,0,0,0,0.75909,8.5251e-07,0,0,0,0,0,-830.14,101.17,0,-1545.5,0,-718.28,799.07,1,1,0.06,0.06,-0.1,0
-4.7272e-05,0.010842,0,0,0,0,-0.38234,9.9182e-07,0,0,0,0,0,-827.37,110.18,0,-1539.3,0,-715.59,799.55,1,1,0.065,0.065,-0.1,0
-5.0831e-05,0.010857,0,0,0,0,-1.224,1.143e-06,0,0,0,0,0,-824.3,119.32,0,-1532.7,0,-712.64,800.09,1,1,0.07,0.07,-0.1,0
-5.4379e-05,0.010873,0,0,0,0,-1.7661,1.3061e-06,0,0,0,0,0,-820.96,128.6,0,-1525.4,0,-709.44,800.69,1,1,0.075,0.075,-0.1,0
-5.7917e-05,0.01089,0,0,0,0,-2.0085,1.481e-06,0,0,0,0,0,-817.33,138.01,0,-1517.7,0,-705.98,801.34,1,1,0.08,0.08,-0.1,0
-6.1444e-05,0.010908,0,0,0,0,-1.9514,1.6678e-06,0,0,0,0,0,-813.41,147.57,0,-1509.3,0,-702.28,802.05,1,1,0.085,0.085,-0.1,0
-6.496e-05,0.010927,0,0,0,0,-1.5948,1.8665e-06,0,0,0,0,0,-809.21,157.25,0,-1500.5,0,-698.32,802.81,1,1,0.09,0.09,-0.1,0
-6.8465e-05,0.010948,0,0,0,0,-0.93875,2.0769e-06,0,0,0,0,0,-804.72,167.08,0,-1491,0,-694.11,803.63,1,1,0.095,0.095,-0.1,0
-7.196e-05,0.010969,0,0,0,0,7.9019e-07,2.1414e-06,0,0,0,0,0,-799.96,176.99,0,-1481,0,-689.65,804.44,1,1,0.1,0.1,-0.1,0
-7.5506e-05,0.010991,0,0,0,0,-6.2884e-06,-7.3606e-06,0,0,0,0,0,-795.84,184.3,0,-1469.3,0,-684.8,801.16,1,1,0.105,0.105,-0.1,0
-7.9101e-05,0.011015,0,0,0,0,-1.232e-05,-1.5411e-05,0,0,0,0,0,-791.51,191.86,0,-1456.8,0,-679.68,798.35,1,1,0.11,0.11,-0.1,0
-8.2747e-05,0.01104,0,0,0,0,-1.7305e-05,-2.201e-05,0,0,0,0,0,-786.97,199.67,0,-1443.6,0,-674.29,796.01,1,1,0.115,0.115,-0.1,0
-8.6442e-05,0.011065,0,0,0,0,-2.1244e-05,-2.716e-05,0,0,0,0,0,-782.2,207.74,0,-1429.7,0,-668.63,794.15,1,1,0.12,0.12,-0.1,0
-9.0188e-05,0.011091,0,0,0,0,-2.4138e-05,-3.0861e-05,0,0,0,0,0,-777.23,216.07,0,-1415.2,0,-662.7,792.75,1,1,0.125,0.125,-0.1,0
-9.3984e-05,0.011119,0,0,0,0,-2.5987e-05,-3.3114e-05,0,0,0,0,0,-772.04,224.64,0,-1399.9,0,-656.5,791.83,1,1,0.13,0.13,-0.1,0
-9.783e-05,0.011147,0,0,0,0,-2.6794e-05,-3.3921e-05,0,0,0,0,0,-766.64,233.47,0,-1384,0,-650.03,791.38,1,1,0.135,0.135,-0.1,0
-0.00010173,0.011176,0,0,0,0,-2.6557e-05,-3.3282e-05,0,0,0,0,0,-761.02,242.56,0,-1367.4,0,-643.29,791.39,1,1,0.14,0.14,-0.1,0
-0.00010567,0.011206,0,0,0,0,-2.5278e-05,-3.1199e-05,0,0,0,0,0,-755.19,251.9,0,-1350.1,0,-636.28,791.88,1,1,0.145,0.145,-0.1,0
-0.00010967,0.011237,0,0,0,0,-2.2958e-05,-2.7672e-05,0,0,0,0,0,-749.14,261.49,0,-1332.1,0,-629,792.84,1,1,0.15,0.15,-0.1,0
-0.00011371,0.011269,0,0,0,0,-1.9601e-05,-2.2708e-05,0,0,0,0,0,-742.87,271.33,0,-1313.4,0,-621.44,794.27,1,1,0.155,0.155,-0.1,0
-0.00011778,0.011302,0,0,0,0,-1.5213e-05,-1.6317e-05,0,0,0,0,0,-736.35,281.43,0,-1293.9,0,-613.6,796.17,1,1,0.16,0.16,-0.1,0
-0.0001219,0.011336,0,0,0,0,-9.789e-06,-8.4903e-06,0,0,0,0,0,-729.62,291.78,0,-1273.9,0,-605.49,798.54,1,1,0.165,0.165,-0.1,0
-0.00012607,0.011371,0,0,0,0,-3.3296e-06,7.7101e-07,0,0,0,0,0,-722.69,302.39,0,-1253.1,0,-597.11,801.37,1,1,0.17,0.17,-0.1,0
-0.00013029,0.011407,0,0,0,0,4.1641e-06,1.1465e-05,0,0,0,0,0,-715.54,313.24,0,-1231.6,0,-588.46,804.67,1,1,0.175,0.175,-0.1,0
-0.00013455,0.011444,0,0,0,0,1.2691e-05,2.3591e-05,0,0,0,0,0,-708.18,324.35,0,-1209.5,0,-579.54,808.44,1,1,0.18,0.18,-0.1,0
-0.00013887,0.011481,0,0,0,0,2.225e-05,3.7146e-05,0,0,0,0,0,-700.61,335.7,0,-1186.6,0,-570.36,812.68,1,1,0.185,0.185,-0.1,0
-0.00014324,0.01152,0,0,0,0,3.2841e-05,5.2131e-05,0,0,0,0,0,-692.82,347.31,0,-1163.1,0,-560.9,817.38,1,1,0.19,0.19,-0.1,0
-0.00014766,0.011559,0,0,0,0,4.4461e-05,6.8542e-05,0,0,0,0,0,-684.83,359.17,0,-1138.9,0,-551.18,822.55,1,1,0.195,0.195,-0.1,0
-0.00015213,0.0116,0,0,0,0,5.7111e-05,8.6379e-05,0,0,0,0,0,-676.63,371.27,0,-1114,0,-541.19,828.18,1,1,0.2,0.2,-0.1,0
-0.00015665,0.011641,0,0,0,0,7.0789e-05,0.00010564,0,0,0,0,0,-668.22,383.63,0,-1088.4,0,-530.93,834.28,1,1,0.205,0.205,-0.1,0
-0.00016084,0.011685,0,0,0,0,4.7527e-05,6.0339e-05,0,0,0,0,0,-662.28,389.28,0,-1059.9,0,-520.52,829.46,1,1,0.21,0.21,-0.1,0
-0.00016503,0.011729,0,0,0,0,4.054e-06,-1.97e-05,0,0,0,0,0,-658.1,390.51,0,-1029.9,0,-510.14,818.08,1,1,0.215,0.215,-0.1,0
-0.00016951,0.011774,0,0,0,0,-3.5327e-05,-9.2063e-05,0,0,0,0,0,-654.07,391.57,0,-999.71,0,-499.76,807.3,1,1,0.22,0.22,-0.1,0
-0.00017427,0.011818,0,0,0,0,-7.0622e-05,-0.00015676,0,0,0,0,0,-650.21,392.47,0,-969.37,0,-489.39,797.12,1,1,0.225,0.225,-0.1,0
-0.00017932,0.011863,0,0,0,0,-0.00010184,-0.0002138,0,0,0,0,0,-646.49,393.22,0,-938.87,0,-479.02,787.52,1,1,0.23,0.23,-0.1,0
-0.00018466,0.011908,0,0,0,0,-0.00012897,-0.00026319,0,0,0,0,0,-642.94,393.8,0,-908.23,0,-468.66,778.52,1,1,0.235,0.235,-0.1,0
-0.00019029,0.011953,0,0,0,0,-0.00015204,-0.00030494,0,0,0,0,0,-639.54,394.22,0,-877.44,0,-458.3,770.1,1,1,0.24,0.24,-0.1,0
-0.0001962,0.011998,0,0,0,0,-0.00017105,-0.00033906,0,0,0,0,0,-636.29,394.48,0,-846.5,0,-447.95,762.28,1,1,0.245,0.245,-0.1,0
-0.0002024,0.012044,0,0,0,0,-0.00018599,-0.00036557,0,0,0,0,0,-633.2,394.58,0,-815.42,0,-437.6,755.04,1,1,0.25,0.25,-0.1,0
-0.00020888,0.012089,0,0,0,0,-0.00019688,-0.00038446,0,0,0,0,0,-630.26,394.52,0,-784.19,0,-427.26,748.4,1,1,0.255,0.255,-0.1,0
-0.00021565,0.012135,0,0,0,0,-0.00020372,-0.00039576,0,0,0,0,0,-627.48,394.3,0,-752.81,0,-416.92,742.34,1,1,0.26,0.26,-0.1,0
-0.00022271,0.012181,0,0,0,0,-0.00020652,-0.00039946,0,0,0,0,0,-624.85,393.92,0,-721.27,0,-406.58,736.87,1,1,0.265,0.265,-0.1,0
-0.00023005,0.012227,0,0,0,0,-0.00020528,-0.00039558,0,0,0,0,0,-622.37,393.38,0,-689.58,0,-396.25,731.99,1,1,0.27,0.27,-0.1,0
-0.00023768,0.012273,0,0,0,0,-0.0002,-0.00038412,0,0,0,0,0,-620.04,392.67,0,-657.74,0,-385.92,727.7,1,1,0.275,0.275,-0.1,0
-0.00024559,0.012319,0,0,0,0,-0.00019068,-0.00036508,0,0,0,0,0,-617.87,391.81,0,-625.76,0,-375.59,723.99,1,1,0.28,0.28,-0.1,0
-0.00025379,0.012365,0,0,0,0,-0.00017735,-0.00033849,0,0,0,0,0,-615.86,390.79,0,-593.63,0,-365.27,720.87,1,1,0.285,0.285,-0.1,0
-0.00026228,0.012412,0,0,0,0,-0.00015999,-0.00030434,0,0,0,0,0,-614,389.61,0,-561.36,0,-354.96,718.34,1,1,0.29,0.29,-0.1,0
-0.00027105,0.012458,0,0,0,0,-0.00013861,-0.00026266,0,0,0,0,0,-612.29,388.26,0,-528.94,0,-344.65,716.39,1,1,0.295,0.295,-0.1,0
-0.00028011,0.012505,0,0,0,0,-0.00011323,-0.00021344,0,0,0,0,0,-610.73,386.76,0,-496.38,0,-334.35,715.04,1,1,0.3,0.3,-0.1,0
-0.00028946,0.012552,0,0,0,0,-8.3844e-05,-0.00015671,0,0,0,0,0,-609.33,385.1,0,-463.68,0,-324.06,714.26,1,1,0.305,0.305,-0.1,0
-0.00029909,0.012599,0,0,0,0,-5.0459e-05,-9.2458e-05,0,0,0,0,0,-608.08,383.27,0,-430.83,0,-313.77,714.07,1,1,0.31,0.31,-0.1,0
-0.000309,0.012647,0,0,0,0,-1.3082e-05,-2.071e-05,0,0,0,0,0,-606.99,381.29,0,-397.84,0,-303.48,714.47,1,1,0.315,0.315,-0.1,0
-0.0003192,0.012694,0,0,0,0,2.8282e-05,5.8529e-05,0,0,0,0,0,-606.05,379.15,0,-364.71,0,-293.21,715.45,1,1,0.32,0.32,-0.1,0
-0.00032969,0.01274,0,0,0,0,4.1253e-05,4.3468e-05,0,0,0,0,0,-598.38,367.74,0,-339.69,0,-283.3,701.29,1,1,0.325,0.325,-0.1,0
-0.00034013,0.012784,0,0,0,0,4.7864e-05,1.298e-05,0,0,0,0,0,-589.51,354.86,0,-316.99,0,-273.73,684.58,1,1,0.33,0.33,-0.1,0
-0.00035049,0.012828,0,0,0,0,5.3635e-05,-1.4788e-05,0,0,0,0,0,-580.66,342.18,0,-295.19,0,-264.44,668.15,1,1,0.335,0.335,-0.1,0
-0.00036077,0.012872,0,0,0,0,5.8567e-05,-3.9838e-05,0,0,0,0,0,-571.85,329.71,0,-274.29,0,-255.44,652,1,1,0.34,0.34,-0.1,0
-0.00037098,0.012915,0,0,0,0,6.2661e-05,-6.2173e-05,0,0,0,0,0,-563.07,317.45,0,-254.3,0,-246.72,636.13,1,1,0.345,0.345,-0.1,0
-0.00038111,0.012957,0,0,0,0,6.5916e-05,-8.1797e-05,0,0,0,0,0,-554.32,305.4,0,-235.2,0,-238.28,620.54,1,1,0.35,0.35,-0.1,0
-0.00039117,0.012999,0,0,0,0,6.8336e-05,-9.8712e-05,0,0,0,0,0,-545.6,293.55,0,-217.01,0,-230.13,605.23,1,1,0.355,0.355,-0.1,0
-0.00040115,0.01304,0,0,0,0,6.9919e-05,-0.00011292,0,0,0,0,0,-536.91,281.91,0,-199.72,0,-222.26,590.21,1,1,0.36,0.36,-0.1,0
-0.00041105,0.013081,0,0,0,0,7.0667e-05,-0.00012443,0,0,0,0,0,-528.26,270.48,0,-183.32,0,-214.67,575.46,1,1,0.365,0.365,-0.1,0
-0.00042088,0.01312,0,0,0,0,7.058e-05,-0.00013324,0,0,0,0,0,-519.64,259.26,0,-167.83,0,-207.37,561,1,1,0.37,0.37,-0.1,0
-0.00043064,0.01316,0,0,0,0,6.9661e-05,-0.00013935,0,0,0,0,0,-511.05,248.24,0,-153.24,0,-200.35,546.81,1,1,0.375,0.375,-0.1,0
-0.00044032,0.013199,0,0,0,0,6.7908e-05,-0.00014277,0,0,0,0,0,-502.49,237.43,0,-139.54,0,-193.61,532.91,1,1,0.38,0.38,-0.1,0
-0.00044995,0.013237,0,0,0,0,6.5326e-05,-0.00014349,0,0,0,0,0,-493.96,226.82,0,-126.74,0,-187.15,519.29,1,1,0.385,0.385,-0.1,0
-0.00045951,0.013274,0,0,0,0,6.1912e-05,-0.00014153,0,0,0,0,0,-485.46,216.41,0,-114.82,0,-180.98,505.94,1,1,0.39,0.39,-0.1,0
-0.000469,0.013311,0,0,0,0,5.7666e-05,-0.00013688,0,0,0,0,0,-477,206.21,0,-103.81,0,-175.09,492.88,1,1,0.395,0.395,-0.1,0
-0.00047842,0.013348,0,0,0,0,5.259e-05,-0.00012956,0,0,0,0,0,-468.57,196.21,0,-93.695,0,-169.48,480.1,1,1,0.4,0.4,-0.1,0
-0.00048776,0.013383,0,0,0,0,4.6684e-05,-0.00011955,0,0,0,0,0,-460.16,186.42,0,-84.476,0,-164.15,467.59,1,1,0.405,0.405,-0.1,0
-0.00049703,0.013418,0,0,0,0,3.9948e-05,-0.00010687,0,0,0,0,0,-451.79,176.83,0,-76.154,0,-159.1,455.36,1,1,0.41,0.41,-0.1,0
-0.00050623,0.013453,0,0,0,0,3.2383e-05,-9.152e-05,0,0,0,0,0,-443.45,167.44,0,-68.728,0,-154.34,443.42,1,1,0.415,0.415,-0.1,0
-0.00051535,0.013487,0,0,0,0,2.3991e-05,-7.3497e-05,0,0,0,0,0,-435.15,158.26,0,-62.199,0,-149.86,431.75,1,1,0.42,0.42,-0.1,0
-0.0005244,0.01352,0,0,0,0,1.4771e-05,-5.2805e-05,0,0,0,0,0,-426.87,149.29,0,-56.565,0,-145.66,420.36,1,1,0.425,0.425,-0.1,0
-0.00053338,0.013553,0,0,0,0,4.7236e-06,-2.9449e-05,0,0,0,0,0,-418.63,140.51,0,-51.827,0,-141.74,409.26,1,1,0.43,0.43,-0.1,0
-0.00054228,0.013586,0,0,0,0,-6.1494e-06,-3.4288e-06,0,0,0,0,0,-410.42,131.94,0,-47.985,0,-138.11,398.43,1,1,0.435,0.435,-0.1,0
-0.00055111,0.013617,0,0,0,0,-1.7848e-05,2.5251e-05,0,0,0,0,0,-402.24,123.57,0,-45.037,0,-134.75,387.88,1,1,0.44,0.44,-0.1,0
-0.00055986,0.013648,0,0,0,0,-1.8184e-05,2.9848e-05,0,0,0,0,0,-394.66,118.41,0,-42.227,0,-131.62,379.77,1,1,0.445,0.445,-0.1,0
-0.00056849,0.013679,0,0,0,0,-1.3527e-05,2.3371e-05,0,0,0,0,0,-387.49,114.66,0,-39.343,0,-128.58,372.75,1,1,0.45,0.45,-0.1,0
-0.000577,0.013709,0,0,0,0,-9.2074e-06,1.7343e-05,0,0,0,0,0,-380.49,110.98,0,-36.607,0,-125.63,365.86,1,1,0.455,0.455,-0.1,0
-0.0005854,0.013739,0,0,0,0,-5.2252e-06,1.1765e-05,0,0,0,0,0,-373.66,107.36,0,-34.018,0,-122.79,359.07,1,1,0.46,0.46,-0.1,0
-0.00059367,0.013768,0,0,0,0,-1.5801e-06,6.6348e-06,0,0,0,0,0,-367.01,103.8,0,-31.577,0,-120.04,352.41,1,1,0.465,0.465,-0.1,0
-0.00060182,0.013797,0,0,0,0,1.728e-06,1.9534e-06,0,0,0,0,0,-360.54,100.31,0,-29.284,0,-117.39,345.86,1,1,0.47,0.47,-0.1,0
-0.00060985,0.013826,0,0,0,0,4.6995e-06,-2.28e-06,0,0,0,0,0,-354.24,96.889,0,-27.139,0,-114.84,339.42,1,1,0.475,0.475,-0.1,0
-0.00061777,0.013854,0,0,0,0,7.3346e-06,-6.0657e-06,0,0,0,0,0,-348.12,93.529,0,-25.141,0,-112.38,333.1,1,1,0.48,0.48,-0.1,0
-0.00062556,0.013883,0,0,0,0,9.6335e-06,-9.404e-06,0,0,0,0,0,-342.17,90.234,0,-23.292,0,-110.03,326.89,1,1,0.485,0.485,-0.1,0
-0.00063324,0.01391,0,0,0,0,1.1597e-05,-1.2295e-05,0,0,0,0,0,-336.4,87.003,0,-21.591,0,-107.77,320.81,1,1,0.49,0.49,-0.1,0
-0.0006408,0.013938,0,0,0,0,1.3224e-05,-1.474e-05,0,0,0,0,0,-330.81,83.837,0,-20.038,0,-105.61,314.83,1,1,0.495,0.495,-0.1,0
-0.00064824,0.013965,0,0,0,0,1.4516e-05,-1.6738e-05,0,0,0,0,0,-325.39,80.736,0,-18.633,0,-103.55,308.97,1,1,0.5,0.5,-0.1,0
-0.00065555,0.013992,0,0,0,0,1.5473e-05,-1.829e-05,0,0,0,0,0,-320.14,77.7,0,-17.377,0,-101.58,303.23,1,1,0.505,0.505,-0.1,0
-0.00066277,0.014018,0,0,0,0,1.6093e-05,-1.9394e-05,0,0,0,0,0,-315.07,74.725,0,-16.266,0,-99.712,297.6,1,1,0.51,0.51,-0.1,0
-0.00066987,0.014044,0,0,0,0,1.6379e-05,-2.0054e-05,0,0,0,0,0,-310.17,71.815,0,-15.303,0,-97.94,292.08,1,1,0.515,0.515,-0.1,0
-0.00067685,0.01407,0,0,0,0,1.6331e-05,-2.0269e-05,0,0,0,0,0,-305.44,68.97,0,-14.489,0,-96.267,286.68,1,1,0.52,0.52,-0.1,0
-0.00068371,0.014096,0,0,0,0,1.595e-05,-2.0041e-05,0,0,0,0,0,-300.89,66.19,0,-13.824,0,-94.691,281.4,1,1,0.525,0.525,-0.1,0
-0.00069045,0.014121,0,0,0,0,1.5235e-05,-1.9368e-05,0,0,0,0,0,-296.52,63.476,0,-13.309,0,-93.213,276.23,1,1,0.53,0.53,-0.1,0
-0.00069707,0.014145,0,0,0,0,1.4187e-05,-1.8252e-05,0,0,0,0,0,-292.32,60.826,0,-12.943,0,-91.834,271.18,1,1,0.535,0.535,-0.1,0
-0.00070357,0.01417,0,0,0,0,1.2805e-05,-1.6693e-05,0,0,0,0,0,-288.3,58.242,0,-12.727,0,-90.552,266.24,1,1,0.54,0.54,-0.1,0
-0.00070996,0.014194,0,0,0,0,1.1091e-05,-1.4691e-05,0,0,0,0,0,-284.45,55.724,0,-12.66,0,-89.369,261.42,1,1,0.545,0.545,-0.1,0
-0.00071623,0.014218,0,0,0,0,9.0446e-06,-1.2246e-05,0,0,0,0,0,-280.77,53.27,0,-12.742,0,-88.283,256.72,1,1,0.55,0.55,-0.1,0
-0.00072237,0.014241,0,0,0,0,6.6654e-06,-9.3595e-06,0,0,0,0,0,-277.28,50.882,0,-12.975,0,-87.296,252.13,1,1,0.555,0.555,-0.1,0
-0.0007284,0.014264,0,0,0,0,3.9541e-06,-6.0306e-06,0,0,0,0,0,-273.95,48.56,0,-13.357,0,-86.407,247.65,1,1,0.56,0.56,-0.1,0
-0.00073432,0.014287,0,0,0,0,9.1079e-07,-2.2601e-06,0,0,0,0,0,-270.8,46.303,0,-13.889,0,-85.616,243.29,1,1,0.565,0.565,-0.1,0
-0.00074012,0.01431,0,0,0,0,-1.9456e-06,1.334e-06,0,0,0,0,0,-267.79,44.309,0,-14.405,0,-84.864,239.24,1,1,0.57,0.57,-0.1,0
-0.00074589,0.014332,0,0,0,0,-1.5498e-06,1.0661e-06,0,0,0,0,0,-264.65,43.639,0,-13.898,0,-83.763,236.51,1,1,0.575,0.575,-0.1,0
-0.0007516,0.014354,0,0,0,0,-1.1791e-06,8.1518e-07,0,0,0,0,0,-261.52,42.951,0,-13.394,0,-82.669,233.79,1,1,0.58,0.58,-0.1,0
-0.00075726,0.014376,0,0,0,0,-8.336e-07,5.8108e-07,0,0,0,0,0,-258.41,42.244,0,-12.895,0,-81.582,231.08,1,1,0.585,0.585,-0.1,0
-0.00076286,0.014398,0,0,0,0,-5.1321e-07,3.6383e-07,0,0,0,0,0,-255.32,41.52,0,-12.399,0,-80.502,228.39,1,1,0.59,0.59,-0.1,0
-0.0007684,0.01442,0,0,0,0,-2.1793e-07,1.6343e-07,0,0,0,0,0,-252.25,40.778,0,-11.907,0,-79.428,225.71,1,1,0.595,0.595,-0.1,0
-0.00077389,0.014441,0,0,0,0,5.225e-08,-2.0133e-08,0,0,0,0,0,-249.2,40.018,0,-11.42,0,-78.361,223.05,1,1,0.6,0.6,-0.1,0
-0.00077931,0.014462,0,0,0,0,2.9734e-07,-1.8686e-07,0,0,0,0,0,-246.17,39.24,0,-10.936,0,-77.302,220.4,1,1,0.605,0.605,-0.1,0
-0.00078469,0.014483,0,0,0,0,5.1736e-07,-3.3677e-07,0,0,0,0,0,-243.15,38.445,0,-10.456,0,-76.249,217.76,1,1,0.61,0.61,-0.1,0
-0.00079,0.014504,0,0,0,0,7.1231e-07,-4.6986e-07,0,0,0,0,0,-240.15,37.631,0,-9.981,0,-75.203,215.14,1,1,0.615,0.615,-0.1,0
-0.00079526,0.014525,0,0,0,0,8.8222e-07,-5.8613e-07,0,0,0,0,0,-237.17,36.8,0,-9.5096,0,-74.164,212.53,1,1,0.62,0.62,-0.1,0
-0.00080045,0.014546,0,0,0,0,1.0271e-06,-6.8561e-07,0,0,0,0,0,-234.22,35.952,0,-9.0425,0,-73.132,209.93,1,1,0.625,0.625,-0.1,0
-0.0008056,0.014566,0,0,0,0,1.1469e-06,-7.6829e-07,0,0,0,0,0,-231.27,35.085,0,-8.5796,0,-72.106,207.35,1,1,0.63,0.63,-0.1,0
-0.00081068,0.014586,0,0,0,0,1.2418e-06,-8.3418e-07,0,0,0,0,0,-228.35,34.201,0,-8.121,0,-71.088,204.78,1,1,0.635,0.635,-0.1,0
-0.00081571,0.014606,0,0,0,0,1.3115e-06,-8.8322e-07,0,0,0,0,0,-225.45,33.299,0,-7.6661,0,-70.077,202.23,1,1,0.64,0.64,-0.1,0
-0.00082069,0.014626,0,0,0,0,1.3563e-06,-9.1548e-07,0,0,0,0,0,-222.56,32.379,0,-7.2154,0,-69.071,199.69,1,1,0.645,0.645,-0.1,0
-0.00082561,0.014645,0,0,0,0,1.3761e-06,-9.3098e-07,0,0,0,0,0,-219.69,31.441,0,-6.7691,0,-68.074,197.16,1,1,0.65,0.65,-0.1,0
-0.00083048,0.014665,0,0,0,0,1.371e-06,-9.2975e-07,0,0,0,0,0,-216.84,30.486,0,-6.3273,0,-67.083,194.65,1,1,0.655,0.655,-0.1,0
-0.00083528,0.014684,0,0,0,0,1.3409e-06,-9.1177e-07,0,0,0,0,0,-214.01,29.513,0,-5.8899,0,-66.099,192.15,1,1,0.66,0.66,-0.1,0
-0.00084003,0.014703,0,0,0,0,1.286e-06,-8.7707e-07,0,0,0,0,0,-211.2,28.523,0,-5.457,0,-65.122,189.66,1,1,0.665,0.665,-0.1,0
-0.00084472,0.014722,0,0,0,0,1.2061e-06,-8.2565e-07,0,0,0,0,0,-208.41,27.516,0,-5.0287,0,-64.153,187.19,1,1,0.67,0.67,-0.1,0
-0.00084936,0.014741,0,0,0,0,1.1013e-06,-7.575e-07,0,0,0,0,0,-205.63,26.492,0,-4.605,0,-63.19,184.74,1,1,0.675,0.675,-0.1,0
-0.00085393,0.014759,0,0,0,0,9.7165e-07,-6.7265e-07,0,0,0,0,0,-202.88,25.45,0,-4.1858,0,-62.235,182.29,1,1,0.68,0.68,-0.1,0
-0.00085845,0.014778,0,0,0,0,8.1712e-07,-5.7109e-07,0,0,0,0,0,-200.14,24.391,0,-3.7714,0,-61.287,179.87,1,1,0.685,0.685,-0.1,0
-0.00086292,0.014796,0,0,0,0,6.3772e-07,-4.5284e-07,0,0,0,0,0,-197.43,23.315,0,-3.3616,0,-60.346,177.45,1,1,0.69,0.69,-0.1,0
-0.00086732,0.014814,0,0,0,0,4.3348e-07,-3.1789e-07,0,0,0,0,0,-194.73,22.221,0,-2.9565,0,-59.413,175.05,1,1,0.695,0.695,-0.1,0
-0.00087167,0.014832,0,0,0,0,2.0439e-07,-1.6626e-07,0,0,0,0,0,-192.05,21.111,0,-2.5562,0,-58.486,172.67,1,1,0.7,0.7,-0.1,0
-0.00087597,0.014849,0,0,0,0,-3.5176e-09,-2.806e-08,0,0,0,0,0,-189.61,20.154,0,-2.2355,0,-57.655,170.48,1,1,0.705,0.705,-0.1,0
-0.00088026,0.014867,0,0,0,0,1.2322e-08,-3.6215e-08,0,0,0,0,0,-188.29,20.053,0,-2.2945,0,-57.276,169.21,1,1,0.71,0.71,-0.1,0
-0.00088452,0.014884,0,0,0,0,2.7009e-08,-4.3711e-08,0,0,0,0,0,-186.97,19.934,0,-2.3464,0,-56.893,167.94,1,1,0.715,0.715,-0.1,0
-0.00088875,0.014902,0,0,0,0,4.0545e-08,-5.0548e-08,0,0,0,0,0,-185.64,19.798,0,-2.3911,0,-56.508,166.68,1,1,0.72,0.72,-0.1,0
-0.00089294,0.014919,0,0,0,0,5.2929e-08,-5.6725e-08,0,0,0,0,0,-184.32,19.645,0,-2.4285,0,-56.12,165.41,1,1,0.725,0.725,-0.1,0
-0.00089711,0.014936,0,0,0,0,6.4161e-08,-6.2244e-08,0,0,0,0,0,-182.99,19.474,0,-2.4588,0,-55.729,164.15,1,1,0.73,0.73,-0.1,0
-0.00090124,0.014953,0,0,0,0,7.4243e-08,-6.7103e-08,0,0,0,0,0,-181.66,19.287,0,-2.4819,0,-55.336,162.89,1,1,0.735,0.735,-0.1,0
-0.00090534,0.01497,0,0,0,0,8.3173e-08,-7.1304e-08,0,0,0,0,0,-180.33,19.082,0,-2.4979,0,-54.94,161.63,1,1,0.74,0.74,-0.1,0
-0.00090941,0.014987,0,0,0,0,9.0953e-08,-7.4845e-08,0,0,0,0,0,-178.99,18.86,0,-2.5067,0,-54.541,160.37,1,1,0.745,0.745,-0.1,0
-0.00091344,0.015003,0,0,0,0,9.7583e-08,-7.7728e-08,0,0,0,0,0,-177.66,18.621,0,-2.5083,0,-54.139,159.11,1,1,0.75,0.75,-0.1,0
-0.00091745,0.01502,0,0,0,0,1.0306e-07,-7.9951e-08,0,0,0,0,0,-176.32,18.365,0,-2.5028,0,-53.735,157.85,1,1,0.755,0.755,-0.1,0
-0.00092142,0.015036,0,0,0,0,1.0739e-07,-8.1516e-08,0,0,0,0,0,-174.98,18.092,0,-2.4902,0,-53.328,156.59,1,1,0.76,0.76,-0.1,0
-0.00092536,0.015053,0,0,0,0,1.1057e-07,-8.2422e-08,0,0,0,0,0,-173.64,17.802,0,-2.4704,0,-52.918,155.34,1,1,0.765,0.765,-0.1,0
-0.00092926,0.015069,0,0,0,0,1.126e-07,-8.2668e-08,0,0,0,0,0,-172.3,17.494,0,-2.4435,0,-52.506,154.09,1,1,0.77,0.77,-0.1,0
-0.00093314,0.015085,0,0,0,0,1.1348e-07,-8.2256e-08,0,0,0,0,0,-170.95,17.169,0,-2.4096,0,-52.091,152.83,1,1,0.775,0.775,-0.1,0
-0.00093699,0.015101,0,0,0,0,1.132e-07,-8.1181e-08,0,0,0,0,0,-169.61,16.827,0,-2.3682,0,-51.673,151.58,1,1,0.78,0.78,-0.1,0
-0.0009408,0.015117,0,0,0,0,1.1178e-07,-7.9448e-08,0,0,0,0,0,-168.26,16.468,0,-2.3197,0,-51.252,150.33,1,1,0.785,0.785,-0.1,0
-0.00094459,0.015132,0,0,0,0,1.0921e-07,-7.7057e-08,0,0,0,0,0,-166.9,16.092,0,-2.2642,0,-50.828,149.08,1,1,0.79,0.79,-0.1,0
-0.00094834,0.015148,0,0,0,0,1.0549e-07,-7.4007e-08,0,0,0,0,0,-165.55,15.698,0,-2.2016,0,-50.402,147.83,1,1,0.795,0.795,-0.1,0
-0.00095206,0.015164,0,0,0,0,1.0063e-07,-7.0299e-08,0,0,0,0,0,-164.2,15.288,0,-2.132,0,-49.973,146.59,1,1,0.8,0.8,-0.1,0
-0.00095575,0.015179,0,0,0,0,9.4613e-08,-6.5933e-08,0,0,0,0,0,-162.84,14.86,0,-2.0554,0,-49.542,145.34,1,1,0.805,0.805,-0.1,0
-0.0009594,0.015194,0,0,0,0,8.7453e-08,-6.0909e-08,0,0,0,0,0,-161.48,14.416,0,-1.9717,0,-49.108,144.1,1,1,0.81,0.81,-0.1,0
-0.00096302,0.015209,0,0,0,0,7.9145e-08,-5.5227e-08,0,0,0,0,0,-160.12,13.954,0,-1.8809,0,-48.671,142.85,1,1,0.815,0.815,-0.1,0
-0.00096661,0.015225,0,0,0,0,6.9691e-08,-4.8887e-08,0,0,0,0,0,-158.76,13.476,0,-1.7832,0,-48.232,141.61,1,1,0.82,0.82,-0.1,0
-0.00097017,0.01524,0,0,0,0,5.909e-08,-4.1889e-08,0,0,0,0,0,-157.39,12.981,0,-1.6785,0,-47.79,140.37,1,1,0.825,0.825,-0.1,0
-0.0009737,0.015254,0,0,0,0,4.7343e-08,-3.4233e-08,0,0,0,0,0,-156.03,12.468,0,-1.5667,0,-47.346,139.13,1,1,0.83,0.83,-0.1,0
-0.00097719,0.015269,0,0,0,0,3.445e-08,-2.5919e-08,0,0,0,0,0,-154.66,11.939,0,-1.448,0,-46.898,137.9,1,1,0.835,0.835,-0.1,0
-0.00098065,0.015284,0,0,0,0,2.041e-08,-1.6947e-08,0,0,0,0,0,-153.29,11.393,0,-1.3222,0,-46.449,136.66,1,1,0.84,0.84,-0.1,0
-0.00098408,0.015298,0,0,0,0,5.2247e-09,-7.3169e-09,0,0,0,0,0,-151.92,10.829,0,-1.1895,0,-45.996,135.42,1,1,0.845,0.845,-0.1,0
-0.0009875,0.015313,0,0,0,0,4.5727e-09,-5.8992e-09,0,0,0,0,0,-151.02,10.722,0,-1.203,0,-45.731,134.59,1,1,0.85,0.85,-0.1,0
-0.0009909,0.015327,0,0,0,0,7.6941e-09,-6.6726e-09,0,0,0,0,0,-150.25,10.727,0,-1.251,0,-45.513,133.86,1,1,0.855,0.855,-0.1,0
-0.00099428,0.015341,0,0,0,0,1.0583e-08,-7.3787e-09,0,0,0,0,0,-149.47,10.72,0,-1.2934,0,-45.292,133.13,1,1,0.86,0.86,-0.1,0
-0.00099764,0.015355,0,0,0,0,1.3239e-08,-8.0174e-09,0,0,0,0,0,-148.69,10.701,0,-1.3304,0,-45.068,132.4,1,1,0.865,0.865,-0.1,0
-0.001001,0.01537,0,0,0,0,1.5663e-08,-8.5887e-09,0,0,0,0,0,-147.91,10.671,0,-1.3618,0,-44.841,131.66,1,1,0.87,0.87,-0.1,0
-0.0010043,0.015384,0,0,0,0,1.7855e-08,-9.0926e-09,0,0,0,0,0,-147.12,10.63,0,-1.3877,0,-44.612,130.93,1,1,0.875,0.875,-0.1,0
-0.0010076,0.015398,0,0,0,0,1.9814e-08,-9.529e-09,0,0,0,0,0,-146.33,10.577,0,-1.408,0,-44.38,130.2,1,1,0.88,0.88,-0.1,0
-0.0010109,0.015412,0,0,0,0,2.1541e-08,-9.8979e-09,0,0,0,0,0,-145.53,10.512,0,-1.4229,0,-44.146,129.47,1,1,0.885,0.885,-0.1,0
-0.0010142,0.015425,0,0,0,0,2.3036e-08,-1.0199e-08,0,0,0,0,0,-144.74,10.436,0,-1.4322,0,-43.908,128.73,1,1,0.89,0.89,-0.1,0
-0.0010174,0.015439,0,0,0,0,2.4298e-08,-1.0433e-08,0,0,0,0,0,-143.93,10.348,0,-1.4361,0,-43.668,128,1,1,0.895,0.895,-0.1,0
-0.0010207,0.015453,0,0,0,0,2.5328e-08,-1.06e-08,0,0,0,0,0,-143.13,10.249,0,-1.4344,0,-43.426,127.27,1,1,0.9,0.9,-0.1,0
-0.0010239,0.015466,0,0,0,0,2.6126e-08,-1.0698e-08,0,0,0,0,0,-142.32,10.139,0,-1.4272,0,-43.18,126.53,1,1,0.905,0.905,-0.1,0
-0.0010271,0.01548,0,0,0,0,2.6692e-08,-1.073e-08,0,0,0,0,0,-141.51,10.017,0,-1.4145,0,-42.932,125.8,1,1,0.91,0.91,-0.1,0
-0.0010303,0.015493,0,0,0,0,2.7025e-08,-1.0693e-08,0,0,0,0,0,-140.69,9.8834,0,-1.3963,0,-42.681,125.06,1,1,0.915,0.915,-0.1,0
-0.0010334,0.015507,0,0,0,0,2.7126e-08,-1.0589e-08,0,0,0,0,0,-139.87,9.7384,0,-1.3726,0,-42.427,124.33,1,1,0.92,0.92,-0.1,0
-0.0010366,0.01552,0,0,0,0,2.6995e-08,-1.0417e-08,0,0,0,0,0,-139.05,9.5818,0,-1.3433,0,-42.171,123.59,1,1,0.925,0.925,-0.1,0
-0.0010397,0.015533,0,0,0,0,2.6632e-08,-1.0177e-08,0,0,0,0,0,-138.22,9.4137,0,-1.3085,0,-41.912,122.86,1,1,0.93,0.93,-0.1,0
-0.0010428,0.015546,0,0,0,0,2.6036e-08,-9.8696e-09,0,0,0,0,0,-137.39,9.2342,0,-1.2682,0,-41.65,122.12,1,1,0.935,0.935,-0.1,0
-0.0010459,0.015559,0,0,0,0,2.5209e-08,-9.4944e-09,0,0,0,0,0,-136.56,9.0432,0,-1.2225,0,-41.385,121.38,1,1,0.94,0.94,-0.1,0
-0.001049,0.015572,0,0,0,0,2.4149e-08,-9.0515e-09,0,0,0,0,0,-135.72,8.8407,0,-1.1712,0,-41.118,120.64,1,1,0.945,0.945,-0.1,0
-0.001052,0.015585,0,0,0,0,2.2858e-08,-8.5409e-09,0,0,0,0,0,-134.88,8.6268,0,-1.1144,0,-40.848,119.91,1,1,0.95,0.95,-0.1,0
-0.0010551,0.015598,0,0,0,0,2.1335e-08,-7.9625e-09,0,0,0,0,0,-134.03,8.4015,0,-1.0521,0,-40.575,119.17,1,1,0.955,0.955,-0.1,0
-0.0010581,0.015611,0,0,0,0,1.958e-08,-7.3163e-09,0,0,0,0,0,-133.19,8.1647,0,-0.98439,0,-40.3,118.43,1,1,0.96,0.96,-0.1,0
-0.0010611,0.015624,0,0,0,0,1.7593e-08,-6.6023e-09,0,0,0,0,0,-132.34,7.9165,0,-0.91115,0,-40.022,117.69,1,1,0.965,0.965,-0.1,0
-0.0010641,0.015636,0,0,0,0,1.5375e-08,-5.8206e-09,0,0,0,0,0,-131.48,7.6569,0,-0.83242,0,-39.741,116.95,1,1,0.97,0.97,-0.1,0
-0.001067,0.015649,0,0,0,0,1.2924e-08,-4.9709e-09,0,0,0,0,0,-130.62,7.3858,0,-0.74821,0,-39.458,116.21,1,1,0.975,0.975,-0.1,0
-0.00107,0.015661,0,0,0,0,1.0242e-08,-4.0534e-09,0,0,0,0,0,-129.76,7.1033,0,-0.65851,0,-39.172,115.47,1,1,0.98,0.98,-0.1,0
-0.0010729,0.015674,0,0,0,0,7.3281e-09,-3.0681e-09,0,0,0,0,0,-128.89,6.8094,0,-0.56333,0,-38.883,114.73,1,1,0.985,0.985,-0.1,0
-0.0010758,0.015686,0,0,0,0,4.1826e-09,-2.0148e-09,0,0,0,0,0,-128.03,6.5041,0,-0.46266,0,-38.592,113.99,1,1,0.99,0.99,-0.1,0
-0.0010787,0.015698,0,0,0,0,8.9627e-10,-9.2206e-10,0,0,0,0,0,-127.16,6.1948,0,-0.35967,0,-38.301,113.26,1,1,0.995,0.995,-0.1,0
-0.0010816,0.01571,0,0,0,0,1.806e-09,-1.1465e-09,0,0,0,0,0,-126.7,6.2314,0,-0.40305,0,-38.175,112.82,1,1,1,1,-0.1,0
-0.0010844,0.015723,0,0,0,0,2.6546e-09,-1.355e-09,0,0,0,0,0,-126.23,6.2606,0,-0.44321,0,-38.047,112.37,1,1,1.005,1.005,-0.1,0
-0.0010873,0.015735,0,0,0,0,3.4419e-09,-1.5476e-09,0,0,0,0,0,-125.77,6.2823,0,-0.48015,0,-37.917,111.93,1,1,1.01,1.01,-0.1,0
-0.0010901,0.015747,0,0,0,0,4.1681e-09,-1.7244e-09,0,0,0,0,0,-125.3,6.2966,0,-0.51387,0,-37.786,111.48,1,1,1.015,1.015,-0.1,0
-0.001093,0.015759,0,0,0,0,4.8332e-09,-1.8852e-09,0,0,0,0,0,-124.82,6.3035,0,-0.54437,0,-37.653,111.04,1,1,1.02,1.02,-0.1,0
-0.0010958,0.015771,0,0,0,0,5.437e-09,-2.0302e-09,0,0,0,0,0,-124.35,6.303,0,-0.57165,0,-37.519,110.6,1,1,1.025,1.025,-0.1,0
-0.0010986,0.015782,0,0,0,0,5.9798e-09,-2.1592e-09,0,0,0,0,0,-123.87,6.295,0,-0.59571,0,-37.383,110.15,1,1,1.03,1.03,-0.1,0
-0.0011014,0.015794,0,0,0,0,6.4613e-09,-2.2724e-09,0,0,0,0,0,-123.4,6.2796,0,-0.61655,0,-37.246,109.71,1,1,1.035,1.035,-0.1,0
-0.0011042,0.015806,0,0,0,0,6.8817e-09,-2.3696e-09,0,0,0,0,0,-122.92,6.2568,0,-0.63416,0,-37.107,109.26,1,1,1.04,1.04,-0.1,0
-0.001107,0.015818,0,0,0,0,7.241e-09,-2.4509e-09,0,0,0,0,0,-122.43,6.2265,0,-0.64856,0,-36.966,108.82,1,1,1.045,1.045,-0.1,0
-0.0011097,0.015829,0,0,0,0,7.5391e-09,-2.5163e-09,0,0,0,0,0,-121.95,6.1888,0,-0.65973,0,-36.824,108.37,1,1,1.05,1.05,-0.1,0
-0.0011125,0.015841,0,0,0,0,7.7761e-09,-2.5657e-09,0,0,0,0,0,-121.46,6.1437,0,-0.66769,0,-36.68,107.93,1,1,1.055,1.055,-0.1,0
-0.0011152,0.015852,0,0,0,0,7.952e-09,-2.5992e-09,0,0,0,0,0,-120.98,6.0912,0,-0.67242,0,-36.535,107.48,1,1,1.06,1.06,-0.1,0
-0.001118,0.015864,0,0,0,0,8.0667e-09,-2.6168e-09,0,0,0,0,0,-120.49,6.0312,0,-0.67394,0,-36.388,107.04,1,1,1.065,1.065,-0.1,0
-0.0011207,0.015875,0,0,0,0,8.1203e-09,-2.6184e-09,0,0,0,0,0,-119.99,5.9639,0,-0.67223,0,-36.239,106.59,1,1,1.07,1.07,-0.1,0
-0.0011234,0.015887,0,0,0,0,8.1127e-09,-2.6041e-09,0,0,0,0,0,-119.5,5.889,0,-0.66729,0,-36.089,106.15,1,1,1.075,1.075,-0.1,0
-0.0011261,0.015898,0,0,0,0,8.044e-09,-2.5738e-09,0,0,0,0,0,-119,5.8067,0,-0.6591,0,-35.937,105.7,1,1,1.08,1.08,-0.1,0
-0.0011288,0.015909,0,0,0,0,7.9141e-09,-2.5275e-09,0,0,0,0,0,-118.5,5.717,0,-0.64769,0,-35.784,105.26,1,1,1.085,1.085,-0.1,0
-0.0011315,0.015921,0,0,0,0,7.7231e-09,-2.4652e-09,0,0,0,0,0,-118,5.6199,0,-0.63306,0,-35.629,104.81,1,1,1.09,1.09,-0.1,0
-0.0011341,0.015932,0,0,0,0,7.4711e-09,-2.387e-09,0,0,0,0,0,-117.5,5.5153,0,-0.61522,0,-35.472,104.37,1,1,1.095,1.095,-0.1,0
-0.0011368,0.015943,0,0,0,0,7.158e-09,-2.2928e-09,0,0,0,0,0,-116.99,5.4034,0,-0.59416,0,-35.314,103.92,1,1,1.1,1.1,-0.1,0
-0.0011394,0.015954,0,0,0,0,6.7838e-09,-2.1827e-09,0,0,0,0,0,-116.49,5.284,0,-0.56987,0,-35.154,103.48,1,1,1.105,1.105,-0.1,0
-0.001142,0.015965,0,0,0,0,6.3485e-09,-2.0565e-09,0,0,0,0,0,-115.98,5.1573,0,-0.54237,0,-34.993,103.03,1,1,1.11,1.11,-0.1,0
-0.0011447,0.015976,0,0,0,0,5.8522e-09,-1.9144e-09,0,0,0,0,0,-115.47,5.0231,0,-0.51165,0,-34.83,102.58,1,1,1.115,1.115,-0.1,0
-0.0011473,0.015987,0,0,0,0,5.2947e-09,-1.7564e-09,0,0,0,0,0,-114.95,4.8815,0,-0.47771,0,-34.665,102.14,1,1,1.12,1.12,-0.1,0
-0.0011499,0.015998,0,0,0,0,4.6763e-09,-1.5823e-09,0,0,0,0,0,-114.44,4.7326,0,-0.44055,0,-34.499,101.69,1,1,1.125,1.125,-0.1,0
-0.0011524,0.016008,0,0,0,0,3.9968e-09,-1.3922e-09,0,0,0,0,0,-113.92,4.5762,0,-0.40017,0,-34.332,101.25,1,1,1.13,1.13,-0.1,0
-0.001155,0.016019,0,0,0,0,3.2562e-09,-1.1862e-09,0,0,0,0,0,-113.4,4.4124,0,-0.35657,0,-34.162,100.8,1,1,1.135,1.135,-0.1,0
-0.0011576,0.01603,0,0,0,0,2.4546e-09,-9.6411e-10,0,0,0,0,0,-112.88,4.2412,0,-0.30976,0,-33.992,100.35,1,1,1.14,1.14,-0.1,0
-0.0011601,0.01604,0,0,0,0,1.5919e-09,-7.2604e-10,0,0,0,0,0,-112.36,4.0627,0,-0.25972,0,-33.819,99.908,1,1,1.145,1.145,-0.1,0
-0.0011627,0.016051,0,0,0,0,6.6818e-10,-4.7197e-10,0,0,0,0,0,-111.83,3.8767,0,-0.20646,0,-33.645,99.462,1,1,1.15,1.15,-0.1,0
-0.0011652,0.016061,0,0,0,0,7.8604e-10,-4.6076e-10,0,0,0,0,0,-111.49,3.879,0,-0.22098,0,-33.547,99.146,1,1,1.155,1.155,-0.1,0
-0.0011677,0.016072,0,0,0,0,1.0776e-09,-4.9202e-10,0,0,0,0,0,-111.18,3.9111,0,-0.24618,0,-33.462,98.854,1,1,1.16,1.16,-0.1,0
-0.0011702,0.016082,0,0,0,0,1.3489e-09,-5.2053e-10,0,0,0,0,0,-110.87,3.9384,0,-0.26947,0,-33.375,98.561,1,1,1.165,1.165,-0.1,0
-0.0011728,0.016093,0,0,0,0,1.6002e-09,-5.4629e-10,0,0,0,0,0,-110.56,3.9607,0,-0.29085,0,-33.288,98.269,1,1,1.17,1.17,-0.1,0
-0.0011753,0.016103,0,0,0,0,1.8313e-09,-5.6929e-10,0,0,0,0,0,-110.25,3.978,0,-0.31033,0,-33.2,97.977,1,1,1.175,1.175,-0.1,0
-0.0011778,0.016114,0,0,0,0,2.0422e-09,-5.8953e-10,0,0,0,0,0,-109.93,3.9905,0,-0.3279,0,-33.111,97.685,1,1,1.18,1.18,-0.1,0
-0.0011802,0.016124,0,0,0,0,2.2331e-09,-6.0701e-10,0,0,0,0,0,-109.62,3.9981,0,-0.34356,0,-33.021,97.393,1,1,1.185,1.185,-0.1,0
-0.0011827,0.016134,0,0,0,0,2.4038e-09,-6.2173e-10,0,0,0,0,0,-109.3,4.0007,0,-0.35732,0,-32.93,97.101,1,1,1.19,1.19,-0.1,0
-0.0011852,0.016144,0,0,0,0,2.5543e-09,-6.3369e-10,0,0,0,0,0,-108.98,3.9984,0,-0.36916,0,-32.839,96.809,1,1,1.195,1.195,-0.1,0
-0.0011877,0.016154,0,0,0,0,2.6847e-09,-6.4288e-10,0,0,0,0,0,-108.67,3.9912,0,-0.37911,0,-32.746,96.518,1,1,1.2,1.2,-0.1,0
-0.0011901,0.016165,0,0,0,0,2.795e-09,-6.493e-10,0,0,0,0,0,-108.35,3.9791,0,-0.38714,0,-32.652,96.226,1,1,1.205,1.205,-0.1,0
-0.0011926,0.016175,0,0,0,0,2.8852e-09,-6.5295e-10,0,0,0,0,0,-108.03,3.962,0,-0.39327,0,-32.558,95.934,1,1,1.21,1.21,-0.1,0
-0.001195,0.016185,0,0,0,0,2.9552e-09,-6.5383e-10,0,0,0,0,0,-107.7,3.9401,0,-0.39749,0,-32.462,95.643,1,1,1.215,1.215,-0.1,0
-0.0011974,0.016195,0,0,0,0,3.005e-09,-6.5194e-10,0,0,0,0,0,-107.38,3.9132,0,-0.3998,0,-32.366,95.351,1,1,1.22,1.22,-0.1,0
-0.0011999,0.016205,0,0,0,0,3.0348e-09,-6.4727e-10,0,0,0,0,0,-107.06,3.8814,0,-0.4002,0,-32.269,95.06,1,1,1.225,1.225,-0.1,0
-0.0012023,0.016215,0,0,0,0,3.0444e-09,-6.3983e-10,0,0,0,0,0,-106.73,3.8447,0,-0.39869,0,-32.17,94.768,1,1,1.23,1.23,-0.1,0
-0.0012047,0.016225,0,0,0,0,3.0338e-09,-6.2959e-10,0,0,0,0,0,-106.41,3.8031,0,-0.39527,0,-32.071,94.477,1,1,1.235,1.235,-0.1,0
-0.0012071,0.016234,0,0,0,0,3.0032e-09,-6.1657e-10,0,0,0,0,0,-106.08,3.7565,0,-0.38993,0,-31.971,94.186,1,1,1.24,1.24,-0.1,0
-0.0012095,0.016244,0,0,0,0,2.9523e-09,-6.0077e-10,0,0,0,0,0,-105.75,3.7051,0,-0.38268,0,-31.87,93.894,1,1,1.245,1.245,-0.1,0
-0.0012119,0.016254,0,0,0,0,2.8814e-09,-5.8218e-10,0,0,0,0,0,-105.42,3.6487,0,-0.37352,0,-31.768,93.603,1,1,1.25,1.25,-0.1,0
-0.0012143,0.016264,0,0,0,0,2.7903e-09,-5.6081e-10,0,0,0,0,0,-105.09,3.5874,0,-0.36245,0,-31.665,93.312,1,1,1.255,1.255,-0.1,0
-0.0012167,0.016273,0,0,0,0,2.6791e-09,-5.3665e-10,0,0,0,0,0,-104.75,3.5212,0,-0.34948,0,-31.561,93.021,1,1,1.26,1.26,-0.1,0
-0.001219,0.016283,0,0,0,0,2.5478e-09,-5.0971e-10,0,0,0,0,0,-104.42,3.45,0,-0.33459,0,-31.456,92.73,1,1,1.265,1.265,-0.1,0
-0.0012214,0.016293,0,0,0,0,2.3963e-09,-4.7997e-10,0,0,0,0,0,-104.09,3.374,0,-0.3178,0,-31.351,92.438,1,1,1.27,1.27,-0.1,0
-0.0012238,0.016302,0,0,0,0,2.2248e-09,-4.4744e-10,0,0,0,0,0,-103.75,3.2931,0,-0.2991,0,-31.244,92.148,1,1,1.275,1.275,-0.1,0
-0.0012261,0.016312,0,0,0,0,2.0331e-09,-4.1212e-10,0,0,0,0,0,-103.41,3.2072,0,-0.27848,0,-31.136,91.857,1,1,1.28,1.28,-0.1,0
-0.0012284,0.016321,0,0,0,0,1.8213e-09,-3.7401e-10,0,0,0,0,0,-103.07,3.1165,0,-0.25596,0,-31.028,91.566,1,1,1.285,1.285,-0.1,0
-0.0012308,0.016331,0,0,0,0,1.5893e-09,-3.3309e-10,0,0,0,0,0,-102.73,3.0208,0,-0.23153,0,-30.919,91.275,1,1,1.29,1.29,-0.1,0
-0.0012331,0.01634,0,0,0,0,1.3373e-09,-2.8938e-10,0,0,0,0,0,-102.39,2.9203,0,-0.20518,0,-30.808,90.985,1,1,1.295,1.295,-0.1,0
-0.0012354,0.01635,0,0,0,0,1.0651e-09,-2.4286e-10,0,0,0,0,0,-102.05,2.8148,0,-0.17693,0,-30.697,90.694,1,1,1.3,1.3,-0.1,0
-0.0012377,0.016359,0,0,0,0,7.7279e-10,-1.9355e-10,0,0,0,0,0,-101.71,2.7045,0,-0.14676,0,-30.585,90.403,1,1,1.305,1.305,-0.1,0
-0.00124,0.016368,0,0,0,0,4.6037e-10,-1.4143e-10,0,0,0,0,0,-101.36,2.5892,0,-0.11469,0,-30.472,90.113,1,1,1.31,1.31,-0.1,0
-0.0012423,0.016377,0,0,0,0,2.5623e-10,-1.0487e-10,0,0,0,0,0,-101.06,2.5119,0,-0.095354,0,-30.373,89.848,1,1,1.315,1.315,-0.1,0
-0.0012446,0.016387,0,0,0,0,3.7482e-10,-1.1474e-10,0,0,0,0,0,-100.85,2.5424,0,-0.11281,0,-30.315,89.649,1,1,1.32,1.32,-0.1,0
-0.0012469,0.016396,0,0,0,0,4.8588e-10,-1.239e-10,0,0,0,0,0,-100.63,2.5696,0,-0.12911,0,-30.257,89.45,1,1,1.325,1.325,-0.1,0
-0.0012492,0.016405,0,0,0,0,5.8943e-10,-1.3235e-10,0,0,0,0,0,-100.42,2.5934,0,-0.14426,0,-30.198,89.252,1,1,1.33,1.33,-0.1,0
-0.0012515,0.016414,0,0,0,0,6.8545e-10,-1.4009e-10,0,0,0,0,0,-100.21,2.6138,0,-0.15826,0,-30.138,89.053,1,1,1.335,1.335,-0.1,0
-0.0012537,0.016423,0,0,0,0,7.7395e-10,-1.4712e-10,0,0,0,0,0,-99.998,2.631,0,-0.17111,0,-30.078,88.854,1,1,1.34,1.34,-0.1,0
-0.001256,0.016432,0,0,0,0,8.5492e-10,-1.5344e-10,0,0,0,0,0,-99.784,2.6447,0,-0.18281,0,-30.017,88.656,1,1,1.345,1.345,-0.1,0
-0.0012583,0.016442,0,0,0,0,9.2837e-10,-1.5905e-10,0,0,0,0,0,-99.57,2.6551,0,-0.19336,0,-29.956,88.458,1,1,1.35,1.35,-0.1,0
-0.0012605,0.016451,0,0,0,0,9.943e-10,-1.6395e-10,0,0,0,0,0,-99.355,2.6622,0,-0.20276,0,-29.894,88.26,1,1,1.355,1.355,-0.1,0
-0.0012628,0.01646,0,0,0,0,1.0527e-09,-1.6814e-10,0,0,0,0,0,-99.14,2.6659,0,-0.211,0,-29.832,88.062,1,1,1.36,1.36,-0.1,0
-0.001265,0.016468,0,0,0,0,1.1036e-09,-1.7161e-10,0,0,0,0,0,-98.923,2.6663,0,-0.21809,0,-29.769,87.864,1,1,1.365,1.365,-0.1,0
-0.0012673,0.016477,0,0,0,0,1.147e-09,-1.7437e-10,0,0,0,0,0,-98.707,2.6633,0,-0.22403,0,-29.706,87.666,1,1,1.37,1.37,-0.1,0
-0.0012695,0.016486,0,0,0,0,1.1828e-09,-1.7642e-10,0,0,0,0,0,-98.489,2.657,0,-0.22882,0,-29.642,87.468,1,1,1.375,1.375,-0.1,0
-0.0012717,0.016495,0,0,0,0,1.2111e-09,-1.7776e-10,0,0,0,0,0,-98.271,2.6473,0,-0.23245,0,-29.577,87.271,1,1,1.38,1.38,-0.1,0
-0.0012739,0.016504,0,0,0,0,1.2319e-09,-1.7838e-10,0,0,0,0,0,-98.052,2.6343,0,-0.23493,0,-29.512,87.073,1,1,1.385,1.385,-0.1,0
-0.0012762,0.016513,0,0,0,0,1.2452e-09,-1.7828e-10,0,0,0,0,0,-97.832,2.6179,0,-0.23626,0,-29.447,86.876,1,1,1.39,1.39,-0.1,0
-0.0012784,0.016522,0,0,0,0,1.2509e-09,-1.7747e-10,0,0,0,0,0,-97.612,2.5981,0,-0.23644,0,-29.381,86.679,1,1,1.395,1.395,-0.1,0
-0.0012806,0.01653,0,0,0,0,1.2491e-09,-1.7594e-10,0,0,0,0,0,-97.391,2.5751,0,-0.23546,0,-29.314,86.481,1,1,1.4,1.4,-0.1,0
-0.0012828,0.016539,0,0,0,0,1.2398e-09,-1.737e-10,0,0,0,0,0,-97.169,2.5486,0,-0.23332,0,-29.247,86.284,1,1,1.405,1.405,-0.1,0
-0.001285,0.016548,0,0,0,0,1.223e-09,-1.7073e-10,0,0,0,0,0,-96.947,2.5188,0,-0.23003,0,-29.179,86.087,1,1,1.41,1.41,-0.1,0
-0.0012872,0.016556,0,0,0,0,1.1987e-09,-1.6705e-10,0,0,0,0,0,-96.724,2.4857,0,-0.22558,0,-29.11,85.89,1,1,1.415,1.415,-0.1,0
-0.0012894,0.016565,0,0,0,0,1.1668e-09,-1.6265e-10,0,0,0,0,0,-96.5,2.4492,0,-0.21998,0,-29.041,85.693,1,1,1.42,1.42,-0.1,0
-0.0012916,0.016574,0,0,0,0,1.1274e-09,-1.5754e-10,0,0,0,0,0,-96.275,2.4093,0,-0.21323,0,-28.972,85.497,1,1,1.425,1.425,-0.1,0
-0.0012938,0.016582,0,0,0,0,1.0805e-09,-1.517e-10,0,0,0,0,0,-96.05,2.3661,0,-0.20532,0,-28.902,85.3,1,1,1.43,1.43,-0.1,0
-0.0012959,0.016591,0,0,0,0,1.0261e-09,-1.4514e-10,0,0,0,0,0,-95.825,2.3196,0,-0.19626,0,-28.831,85.104,1,1,1.435,1.435,-0.1,0
-0.0012981,0.016599,0,0,0,0,9.6413e-10,-1.3787e-10,0,0,0,0,0,-95.598,2.2697,0,-0.18605,0,-28.76,84.907,1,1,1.44,1.44,-0.1,0
-0.0013003,0.016608,0,0,0,0,8.9466e-10,-1.2987e-10,0,0,0,0,0,-95.371,2.2165,0,-0.17468,0,-28.689,84.711,1,1,1.445,1.445,-0.1,0
-0.0013024,0.016616,0,0,0,0,8.1767e-10,-1.2116e-10,0,0,0,0,0,-95.143,2.1599,0,-0.16215,0,-28.616,84.515,1,1,1.45,1.45,-0.1,0
-0.0013046,0.016625,0,0,0,0,7.3317e-10,-1.1172e-10,0,0,0,0,0,-94.915,2.1,0,-0.14848,0,-28.544,84.319,1,1,1.455,1.455,-0.1,0
-0.0013067,0.016633,0,0,0,0,6.4114e-10,-1.0156e-10,0,0,0,0,0,-94.686,2.0368,0,-0.13364,0,-28.47,84.123,1,1,1.46,1.46,-0.1,0
-0.0013089,0.016641,0,0,0,0,5.416e-10,-9.0682e-11,0,0,0,0,0,-94.456,1.9702,0,-0.11765,0,-28.397,83.927,1,1,1.465,1.465,-0.1,0
-0.001311,0.01665,0,0,0,0,4.3453e-10,-7.9079e-11,0,0,0,0,0,-94.226,1.9002,0,-0.10051,0,-28.322,83.731,1,1,1.47,1.47,-0.1,0
-0.0013132,0.016658,0,0,0,0,3.1995e-10,-6.6752e-11,0,0,0,0,0,-93.995,1.8269,0,-0.082212,0,-28.247,83.536,1,1,1.475,1.475,-0.1,0
-0.0013153,0.016666,0,0,0,0,1.9785e-10,-5.3701e-11,0,0,0,0,0,-93.763,1.7503,0,-0.062758,0,-28.172,83.34,1,1,1.48,1.48,-0.1,0
-0.0013174,0.016675,0,0,0,0,1.2484e-10,-4.4513e-11,0,0,0,0,0,-93.556,1.7034,0,-0.052274,0,-28.106,83.162,1,1,1.485,1.485,-0.1,0
-0.0013195,0.016683,0,0,0,0,1.7502e-10,-4.5353e-11,0,0,0,0,0,-93.407,1.7286,0,-0.063773,0,-28.065,83.021,1,1,1.49,1.49,-0.1,0
-0.0013217,0.016691,0,0,0,0,2.2213e-10,-4.6085e-11,0,0,0,0,0,-93.258,1.7515,0,-0.074552,0,-28.023,82.881,1,1,1.495,1.495,-0.1,0
-0.0013238,0.016699,0,0,0,0,2.6617e-10,-4.6709e-11,0,0,0,0,0,-93.108,1.7721,0,-0.08461,0,-27.981,82.741,1,1,1.5,1.5,-0.1,0
-0.0013259,0.016707,0,0,0,0,3.0716e-10,-4.7223e-11,0,0,0,0,0,-92.957,1.7902,0,-0.093947,0,-27.939,82.601,1,1,1.505,1.505,-0.1,0
-0.001328,0.016715,0,0,0,0,3.4508e-10,-4.7629e-11,0,0,0,0,0,-92.807,1.8061,0,-0.10256,0,-27.896,82.461,1,1,1.51,1.51,-0.1,0
-0.0013301,0.016724,0,0,0,0,3.7993e-10,-4.7926e-11,0,0,0,0,0,-92.656,1.8196,0,-0.11046,0,-27.853,82.321,1,1,1.515,1.515,-0.1,0
-0.0013322,0.016732,0,0,0,0,4.1173e-10,-4.8113e-11,0,0,0,0,0,-92.504,1.8307,0,-0.11763,0,-27.81,82.181,1,1,1.52,1.52,-0.1,0
-0.0013343,0.01674,0,0,0,0,4.4046e-10,-4.8191e-11,0,0,0,0,0,-92.352,1.8395,0,-0.12409,0,-27.766,82.041,1,1,1.525,1.525,-0.1,0
-0.0013364,0.016748,0,0,0,0,4.6612e-10,-4.8159e-11,0,0,0,0,0,-92.2,1.8459,0,-0.12982,0,-27.722,81.902,1,1,1.53,1.53,-0.1,0
-0.0013385,0.016756,0,0,0,0,4.8873e-10,-4.8017e-11,0,0,0,0,0,-92.047,1.85,0,-0.13483,0,-27.678,81.762,1,1,1.535,1.535,-0.1,0
-0.0013406,0.016764,0,0,0,0,5.0827e-10,-4.7765e-11,0,0,0,0,0,-91.894,1.8518,0,-0.13912,0,-27.633,81.623,1,1,1.54,1.54,-0.1,0
-0.0013427,0.016772,0,0,0,0,5.2474e-10,-4.7402e-11,0,0,0,0,0,-91.741,1.8512,0,-0.14268,0,-27.588,81.483,1,1,1.545,1.545,-0.1,0
-0.0013447,0.01678,0,0,0,0,5.3816e-10,-4.693e-11,0,0,0,0,0,-91.587,1.8482,0,-0.14553,0,-27.543,81.344,1,1,1.55,1.55,-0.1,0
-0.0013468,0.016788,0,0,0,0,5.4851e-10,-4.6346e-11,0,0,0,0,0,-91.433,1.8429,0,-0.14765,0,-27.497,81.205,1,1,1.555,1.555,-0.1,0
-0.0013489,0.016795,0,0,0,0,5.5579e-10,-4.5652e-11,0,0,0,0,0,-91.278,1.8353,0,-0.14905,0,-27.451,81.066,1,1,1.56,1.56,-0.1,0
-0.001351,0.016803,0,0,0,0,5.6002e-10,-4.4847e-11,0,0,0,0,0,-91.123,1.8253,0,-0.14973,0,-27.405,80.927,1,1,1.565,1.565,-0.1,0
-0.001353,0.016811,0,0,0,0,5.6118e-10,-4.3931e-11,0,0,0,0,0,-90.968,1.813,0,-0.14969,0,-27.358,80.789,1,1,1.57,1.57,-0.1,0
-0.0013551,0.016819,0,0,0,0,5.5927e-10,-4.2902e-11,0,0,0,0,0,-90.812,1.7983,0,-0.14892,0,-27.311,80.65,1,1,1.575,1.575,-0.1,0
-0.0013571,0.016827,0,0,0,0,5.543e-10,-4.1762e-11,0,0,0,0,0,-90.655,1.7812,0,-0.14742,0,-27.263,80.511,1,1,1.58,1.58,-0.1,0
-0.0013592,0.016835,0,0,0,0,5.4626e-10,-4.051e-11,0,0,0,0,0,-90.499,1.7619,0,-0.14521,0,-27.216,80.373,1,1,1.585,1.585,-0.1,0
-0.0013612,0.016842,0,0,0,0,5.3516e-10,-3.9146e-11,0,0,0,0,0,-90.341,1.7401,0,-0.14227,0,-27.167,80.234,1,1,1.59,1.59,-0.1,0
-0.0013633,0.01685,0,0,0,0,5.21e-10,-3.767e-11,0,0,0,0,0,-90.184,1.716,0,-0.13861,0,-27.119,80.096,1,1,1.595,1.595,-0.1,0
-0.0013653,0.016858,0,0,0,0,5.0378e-10,-3.6082e-11,0,0,0,0,0,-90.026,1.6896,0,-0.13423,0,-27.07,79.958,1,1,1.6,1.6,-0.1,0
-0.0013674,0.016865,0,0,0,0,4.8349e-10,-3.4381e-11,0,0,0,0,0,-89.868,1.6608,0,-0.12912,0,-27.021,79.82,1,1,1.605,1.605,-0.1,0
-0.0013694,0.016873,0,0,0,0,4.6014e-10,-3.2568e-11,0,0,0,0,0,-89.709,1.6297,0,-0.12329,0,-26.972,79.682,1,1,1.61,1.61,-0.1,0
-0.0013715,0.016881,0,0,0,0,4.3373e-10,-3.0642e-11,0,0,0,0,0,-89.55,1.5962,0,-0.11674,0,-26.922,79.544,1,1,1.615,1.615,-0.1,0
-0.0013735,0.016888,0,0,0,0,4.0425e-10,-2.8603e-11,0,0,0,0,0,-89.39,1.5604,0,-0.10946,0,-26.872,79.406,1,1,1.62,1.62,-0.1,0
-0.0013755,0.016896,0,0,0,0,3.7171e-10,-2.6451e-11,0,0,0,0,0,-89.23,1.5222,0,-0.10146,0,-26.821,79.269,1,1,1.625,1.625,-0.1,0
-0.0013775,0.016903,0,0,0,0,3.3611e-10,-2.4186e-11,0,0,0,0,0,-89.07,1.4817,0,-0.09274,0,-26.77,79.131,1,1,1.63,1.63,-0.1,0
-0.0013796,0.016911,0,0,0,0,2.9745e-10,-2.1807e-11,0,0,0,0,0,-88.909,1.4389,0,-0.083294,0,-26.719,78.993,1,1,1.635,1.635,-0.1,0
-0.0013816,0.016919,0,0,0,0,2.5572e-10,-1.9315e-11,0,0,0,0,0,-88.748,1.3937,0,-0.073124,0,-26.668,78.856,1,1,1.64,1.64,-0.1,0
-0.0013836,0.016926,0,0,0,0,2.1093e-10,-1.6709e-11,0,0,0,0,0,-88.587,1.3461,0,-0.06223,0,-26.616,78.719,1,1,1.645,1.645,-0.1,0
-0.0013856,0.016933,0,0,0,0,1.6307e-10,-1.3989e-11,0,0,0,0,0,-88.425,1.2963,0,-0.050612,0,-26.564,78.582,1,1,1.65,1.65,-0.1,0
-0.0013876,0.016941,0,0,0,0,1.1216e-10,-1.1155e-11,0,0,0,0,0,-88.262,1.244,0,-0.03827,0,-26.511,78.445,1,1,1.655,1.655,-0.1,0
-0.0013896,0.016948,0,0,0,0,5.8176e-11,-8.2064e-12,0,0,0,0,0,-88.1,1.1894,0,-0.025204,0,-26.459,78.308,1,1,1.66,1.66,-0.1,0
-0.0013916,0.016956,0,0,0,0,7.6588e-11,-7.8357e-12,0,0,0,0,0,-87.988,1.2059,0,-0.031884,0,-26.427,78.204,1,1,1.665,1.665,-0.1,0
-0.0013936,0.016963,0,0,0,0,9.8585e-11,-7.6404e-12,0,0,0,0,0,-87.879,1.2255,0,-0.039442,0,-26.397,78.102,1,1,1.67,1.67,-0.1,0
-0.0013956,0.016971,0,0,0,0,1.1924e-10,-7.4464e-12,0,0,0,0,0,-87.77,1.2434,0,-0.046534,0,-26.366,78,1,1,1.675,1.675,-0.1,0
-0.0013976,0.016978,0,0,0,0,1.3856e-10,-7.2538e-12,0,0,0,0,0,-87.661,1.2596,0,-0.053162,0,-26.335,77.899,1,1,1.68,1.68,-0.1,0
-0.0013996,0.016985,0,0,0,0,1.5654e-10,-7.0625e-12,0,0,0,0,0,-87.552,1.2741,0,-0.059325,0,-26.304,77.797,1,1,1.685,1.685,-0.1,0
-0.0014016,0.016993,0,0,0,0,1.7319e-10,-6.8724e-12,0,0,0,0,0,-87.442,1.2869,0,-0.065023,0,-26.273,77.696,1,1,1.69,1.69,-0.1,0
-0.0014035,0.017,0,0,0,0,1.8849e-10,-6.6834e-12,0,0,0,0,0,-87.332,1.2981,0,-0.070255,0,-26.242,77.594,1,1,1.695,1.695,-0.1,0
-0.0014055,0.017007,0,0,0,0,2.0246e-10,-6.4955e-12,0,0,0,0,0,-87.222,1.3075,0,-0.075022,0,-26.21,77.493,1,1,1.7,1.7,-0.1,0
-0.0014075,0.017014,0,0,0,0,2.1508e-10,-6.3087e-12,0,0,0,0,0,-87.112,1.3153,0,-0.079324,0,-26.178,77.392,1,1,1.705,1.705,-0.1,0
-0.0014095,0.017022,0,0,0,0,2.2637e-10,-6.1229e-12,0,0,0,0,0,-87.001,1.3214,0,-0.08316,0,-26.146,77.291,1,1,1.71,1.71,-0.1,0
-0.0014115,0.017029,0,0,0,0,2.3632e-10,-5.9381e-12,0,0,0,0,0,-86.89,1.3258,0,-0.086531,0,-26.114,77.19,1,1,1.715,1.715,-0.1,0
-0.0014134,0.017036,0,0,0,0,2.4493e-10,-5.7541e-12,0,0,0,0,0,-86.779,1.3285,0,-0.089437,0,-26.081,77.089,1,1,1.72,1.72,-0.1,0
-0.0014154,0.017043,0,0,0,0,2.5221e-10,-5.5709e-12,0,0,0,0,0,-86.668,1.3295,0,-0.091876,0,-26.049,76.988,1,1,1.725,1.725,-0.1,0
-0.0014174,0.01705,0,0,0,0,2.5814e-10,-5.3886e-12,0,0,0,0,0,-86.556,1.3288,0,-0.09385,0,-26.016,76.887,1,1,1.73,1.73,-0.1,0
-0.0014193,0.017058,0,0,0,0,2.6274e-10,-5.2069e-12,0,0,0,0,0,-86.445,1.3265,0,-0.095359,0,-25.982,76.786,1,1,1.735,1.735,-0.1,0
-0.0014213,0.017065,0,0,0,0,2.6599e-10,-5.0259e-12,0,0,0,0,0,-86.333,1.3224,0,-0.096401,0,-25.949,76.686,1,1,1.74,1.74,-0.1,0
-0.0014233,0.017072,0,0,0,0,2.6791e-10,-4.8456e-12,0,0,0,0,0,-86.22,1.3167,0,-0.096978,0,-25.915,76.585,1,1,1.745,1.745,-0.1,0
-0.0014252,0.017079,0,0,0,0,2.6849e-10,-4.6657e-12,0,0,0,0,0,-86.108,1.3093,0,-0.097088,0,-25.882,76.485,1,1,1.75,1.75,-0.1,0
-0.0014272,0.017086,0,0,0,0,2.6773e-10,-4.4863e-12,0,0,0,0,0,-85.995,1.3002,0,-0.096731,0,-25.848,76.384,1,1,1.755,1.755,-0.1,0
-0.0014291,0.017093,0,0,0,0,2.6563e-10,-4.3072e-12,0,0,0,0,0,-85.882,1.2894,0,-0.095907,0,-25.813,76.284,1,1,1.76,1.76,-0.1,0
-0.0014311,0.0171,0,0,0,0,2.6219e-10,-4.1285e-12,0,0,0,0,0,-85.768,1.2769,0,-0.094617,0,-25.779,76.184,1,1,1.765,1.765,-0.1,0
-0.001433,0.017107,0,0,0,0,2.5742e-10,-3.9501e-12,0,0,0,0,0,-85.655,1.2628,0,-0.09286,0,-25.744,76.084,1,1,1.77,1.77,-0.1,0
-0.001435,0.017114,0,0,0,0,2.513e-10,-3.772e-12,0,0,0,0,0,-85.541,1.2469,0,-0.090637,0,-25.709,75.984,1,1,1.775,1.775,-0.1,0
-0.0014369,0.017121,0,0,0,0,2.4385e-10,-3.5942e-12,0,0,0,0,0,-85.427,1.2294,0,-0.087948,0,-25.674,75.884,1,1,1.78,1.78,-0.1,0
-0.0014388,0.017128,0,0,0,0,2.3506e-10,-3.4166e-12,0,0,0,0,0,-85.312,1.2102,0,-0.084792,0,-25.639,75.784,1,1,1.785,1.785,-0.1,0
-0.0014408,0.017135,0,0,0,0,2.2492e-10,-3.2391e-12,0,0,0,0,0,-85.198,1.1893,0,-0.08117,0,-25.604,75.684,1,1,1.79,1.79,-0.1,0
-0.0014427,0.017142,0,0,0,0,2.1345e-10,-3.0618e-12,0,0,0,0,0,-85.083,1.1667,0,-0.077081,0,-25.568,75.585,1,1,1.795,1.795,-0.1,0
-0.0014446,0.017149,0,0,0,0,2.0065e-10,-2.8844e-12,0,0,0,0,0,-84.968,1.1424,0,-0.072526,0,-25.532,75.485,1,1,1.8,1.8,-0.1,0
-0.0014466,0.017156,0,0,0,0,1.865e-10,-2.707e-12,0,0,0,0,0,-84.852,1.1164,0,-0.067504,0,-25.496,75.385,1,1,1.805,1.805,-0.1,0
-0.0014485,0.017163,0,0,0,0,1.7101e-10,-2.5296e-12,0,0,0,0,0,-84.737,1.0888,0,-0.062014,0,-25.459,75.286,1,1,1.81,1.81,-0.1,0
-0.0014504,0.017169,0,0,0,0,1.5419e-10,-2.352e-12,0,0,0,0,0,-84.621,1.0595,0,-0.056058,0,-25.423,75.187,1,1,1.815,1.815,-0.1,0
-0.0014523,0.017176,0,0,0,0,1.3603e-10,-2.1743e-12,0,0,0,0,0,-84.505,1.0284,0,-0.049635,0,-25.386,75.087,1,1,1.82,1.82,-0.1,0
-0.0014543,0.017183,0,0,0,0,1.1652e-10,-1.9963e-12,0,0,0,0,0,-84.388,0.99573,0,-0.042745,0,-25.349,74.988,1,1,1.825,1.825,-0.1,0
-0.0014562,0.01719,0,0,0,0,9.5685e-11,-1.8181e-12,0,0,0,0,0,-84.272,0.96134,0,-0.035388,0,-25.312,74.889,1,1,1.83,1.83,-0.1,0
-0.0014581,0.017197,0,0,0,0,7.3506e-11,-1.6395e-12,0,0,0,0,0,-84.155,0.92527,0,-0.027564,0,-25.274,74.79,1,1,1.835,1.835,-0.1,0
-0.00146,0.017203,0,0,0,0,4.9988e-11,-1.4606e-12,0,0,0,0,0,-84.038,0.8875,0,-0.019272,0,-25.236,74.691,1,1,1.84,1.84,-0.1,0
-0.0014619,0.01721,0,0,0,0,3.1471e-11,-1.2245e-12,0,0,0,0,0,-83.927,0.85794,0,-0.013011,0,-25.201,74.596,1,1,1.845,1.845,-0.1,0
-0.0014638,0.017217,0,0,0,0,4.2832e-11,-7.3589e-13,0,0,0,0,0,-83.846,0.87494,0,-0.018514,0,-25.179,74.52,1,1,1.85,1.85,-0.1,0
-0.0014657,0.017224,0,0,0,0,5.3554e-11,-2.8629e-13,0,0,0,0,0,-83.765,0.8907,0,-0.023709,0,-25.156,74.445,1,1,1.855,1.855,-0.1,0
-0.0014676,0.01723,0,0,0,0,6.3637e-11,1.2428e-13,0,0,0,0,0,-83.684,0.90523,0,-0.028595,0,-25.133,74.369,1,1,1.86,1.86,-0.1,0
-0.0014695,0.017237,0,0,0,0,7.3082e-11,4.9583e-13,0,0,0,0,0,-83.602,0.91851,0,-0.033173,0,-25.11,74.293,1,1,1.865,1.865,-0.1,0
-0.0014714,0.017244,0,0,0,0,8.1888e-11,8.284e-13,0,0,0,0,0,-83.521,0.93056,0,-0.037443,0,-25.086,74.218,1,1,1.87,1.87,-0.1,0
-0.0014733,0.01725,0,0,0,0,9.0056e-11,1.122e-12,0,0,0,0,0,-83.439,0.94137,0,-0.041404,0,-25.063,74.142,1,1,1.875,1.875,-0.1,0
-0.0014752,0.017257,0,0,0,0,9.7585e-11,1.3767e-12,0,0,0,0,0,-83.357,0.95095,0,-0.045057,0,-25.04,74.067,1,1,1.88,1.88,-0.1,0
-0.0014771,0.017264,0,0,0,0,1.0448e-10,1.5925e-12,0,0,0,0,0,-83.275,0.95928,0,-0.048401,0,-25.016,73.992,1,1,1.885,1.885,-0.1,0
-0.001479,0.01727,0,0,0,0,1.1073e-10,1.7693e-12,0,0,0,0,0,-83.193,0.96638,0,-0.051437,0,-24.992,73.916,1,1,1.89,1.89,-0.1,0
-0.0014809,0.017277,0,0,0,0,1.1634e-10,1.9074e-12,0,0,0,0,0,-83.11,0.97223,0,-0.054164,0,-24.968,73.841,1,1,1.895,1.895,-0.1,0
-0.0014828,0.017283,0,0,0,0,1.2132e-10,2.0066e-12,0,0,0,0,0,-83.028,0.97686,0,-0.056583,0,-24.944,73.766,1,1,1.9,1.9,-0.1,0
-0.0014846,0.01729,0,0,0,0,1.2565e-10,2.067e-12,0,0,0,0,0,-82.945,0.98024,0,-0.058693,0,-24.92,73.691,1,1,1.905,1.905,-0.1,0
-0.0014865,0.017296,0,0,0,0,1.2935e-10,2.0886e-12,0,0,0,0,0,-82.862,0.98238,0,-0.060494,0,-24.896,73.616,1,1,1.91,1.91,-0.1,0
-0.0014884,0.017303,0,0,0,0,1.3241e-10,2.0714e-12,0,0,0,0,0,-82.779,0.98329,0,-0.061986,0,-24.871,73.541,1,1,1.915,1.915,-0.1,0
-0.0014903,0.017309,0,0,0,0,1.3483e-10,2.0156e-12,0,0,0,0,0,-82.696,0.98296,0,-0.063169,0,-24.846,73.466,1,1,1.92,1.92,-0.1,0
-0.0014922,0.017316,0,0,0,0,1.3661e-10,1.921e-12,0,0,0,0,0,-82.613,0.98139,0,-0.064044,0,-24.822,73.392,1,1,1.925,1.925,-0.1,0
-0.001494,0.017322,0,0,0,0,1.3776e-10,1.7877e-12,0,0,0,0,0,-82.529,0.97858,0,-0.064609,0,-24.797,73.317,1,1,1.93,1.93,-0.1,0
-0.0014959,0.017329,0,0,0,0,1.3826e-10,1.6158e-12,0,0,0,0,0,-82.445,0.97454,0,-0.064866,0,-24.772,73.242,1,1,1.935,1.935,-0.1,0
-0.0014978,0.017335,0,0,0,0,1.3813e-10,1.4053e-12,0,0,0,0,0,-82.362,0.96925,0,-0.064813,0,-24.746,73.168,1,1,1.94,1.94,-0.1,0
-0.0014997,0.017342,0,0,0,0,1.3736e-10,1.1562e-12,0,0,0,0,0,-82.278,0.96273,0,-0.064451,0,-24.721,73.093,1,1,1.945,1.945,-0.1,0
-0.0015015,0.017348,0,0,0,0,1.3595e-10,8.6852e-13,0,0,0,0,0,-82.193,0.95496,0,-0.063779,0,-24.696,73.018,1,1,1.95,1.95,-0.1,0
-0.0015034,0.017355,0,0,0,0,1.339e-10,5.4231e-13,0,0,0,0,0,-82.109,0.94596,0,-0.062797,0,-24.67,72.944,1,1,1.955,1.955,-0.1,0
-0.0015053,0.017361,0,0,0,0,1.3121e-10,1.7757e-13,0,0,0,0,0,-82.025,0.93572,0,-0.061507,0,-24.644,72.87,1,1,1.96,1.96,-0.1,0
-0.0015071,0.017368,0,0,0,0,1.2788e-10,-2.2568e-13,0,0,0,0,0,-81.94,0.92425,0,-0.059907,0,-24.618,72.795,1,1,1.965,1.965,-0.1,0
-0.001509,0.017374,0,0,0,0,1.2392e-10,-6.6741e-13,0,0,0,0,0,-81.855,0.91153,0,-0.057998,0,-24.592,72.721,1,1,1.97,1.97,-0.1,0
-0.0015108,0.01738,0,0,0,0,1.1931e-10,-1.1476e-12,0,0,0,0,0,-81.77,0.89758,0,-0.05578,0,-24.566,72.647,1,1,1.975,1.975,-0.1,0
-0.0015127,0.017387,0,0,0,0,1.1407e-10,-1.6662e-12,0,0,0,0,0,-81.685,0.88239,0,-0.053253,0,-24.54,72.573,1,1,1.98,1.98,-0.1,0
-0.0015146,0.017393,0,0,0,0,1.0819e-10,-2.2232e-12,0,0,0,0,0,-81.6,0.86596,0,-0.050415,0,-24.513,72.499,1,1,1.985,1.985,-0.1,0
-0.0015164,0.017399,0,0,0,0,1.0167e-10,-2.8187e-12,0,0,0,0,0,-81.514,0.8483,0,-0.047269,0,-24.487,72.425,1,1,1.99,1.99,-0.1,0
-0.0015183,0.017406,0,0,0,0,9.4512e-11,-3.4524e-12,0,0,0,0,0,-81.429,0.8294,0,-0.043813,0,-24.46,72.351,1,1,1.995,1.995,-0.1,0
-0.0015201,0.017412,0,0,0,0,8.6715e-11,-4.1245e-12,0,0,0,0,0,-81.343,0.80926,0,-0.040047,0,-24.433,72.277,1,1,2,2,-0.1,0
-0.001522,0.017418,0,0,0,0,7.8279e-11,-4.835e-12,0,0,0,0,0,-81.257,0.78788,0,-0.035971,0,-24.406,72.203,1,1,2.005,2.005,-0.1,0
-0.0015238,0.017424,0,0,0,0,6.9206e-11,-5.5837e-12,0,0,0,0,0,-81.171,0.76527,0,-0.031586,0,-24.379,72.13,1,1,2.01,2.01,-0.1,0
-0.0015256,0.017431,0,0,0,0,5.9493e-11,-6.3707e-12,0,0,0,0,0,-81.085,0.74141,0,-0.026892,0,-24.351,72.056,1,1,2.015,2.015,-0.1,0
-0.0015275,0.017437,0,0,0,0,4.9143e-11,-7.1958e-12,0,0,0,0,0,-80.998,0.71633,0,-0.021887,0,-24.324,71.983,1,1,2.02,2.02,-0.1,0
-0.0015293,0.017443,0,0,0,0,3.8153e-11,-8.0593e-12,0,0,0,0,0,-80.912,0.69,0,-0.016573,0,-24.296,71.909,1,1,2.025,2.025,-0.1,0
-0.0015312,0.017449,0,0,0,0,2.6525e-11,-8.9609e-12,0,0,0,0,0,-80.825,0.66244,0,-0.010948,0,-24.269,71.836,1,1,2.03,2.03,-0.1,0
-0.001533,0.017455,0,0,0,0,1.4258e-11,-9.9007e-12,0,0,0,0,0,-80.738,0.63364,0,-0.0050141,0,-24.241,71.762,1,1,2.035,2.035,-0.1,0
-0.0015348,0.017462,0,0,0,0,2.031e-11,-8.8216e-12,0,0,0,0,0,-80.677,0.64788,0,-0.0090036,0,-24.223,71.705,1,1,2.04,2.04,-0.1,0
-0.0015367,0.017468,0,0,0,0,2.5959e-11,-7.8069e-12,0,0,0,0,0,-80.615,0.661,0,-0.012737,0,-24.206,71.647,1,1,2.045,2.045,-0.1,0
-0.0015385,0.017474,0,0,0,0,3.1293e-11,-6.847e-12,0,0,0,0,0,-80.553,0.67319,0,-0.01626,0,-24.188,71.589,1,1,2.05,2.05,-0.1,0
-0.0015403,0.01748,0,0,0,0,3.6311e-11,-5.9419e-12,0,0,0,0,0,-80.491,0.68445,0,-0.019575,0,-24.171,71.532,1,1,2.055,2.055,-0.1,0
-0.0015422,0.017486,0,0,0,0,4.1014e-11,-5.0916e-12,0,0,0,0,0,-80.428,0.69479,0,-0.02268,0,-24.153,71.474,1,1,2.06,2.06,-0.1,0
-0.001544,0.017492,0,0,0,0,4.5402e-11,-4.296e-12,0,0,0,0,0,-80.366,0.70421,0,-0.025576,0,-24.135,71.417,1,1,2.065,2.065,-0.1,0
-0.0015458,0.017498,0,0,0,0,4.9474e-11,-3.5552e-12,0,0,0,0,0,-80.304,0.71269,0,-0.028263,0,-24.117,71.359,1,1,2.07,2.07,-0.1,0
-0.0015476,0.017504,0,0,0,0,5.3231e-11,-2.8691e-12,0,0,0,0,0,-80.241,0.72025,0,-0.030741,0,-24.099,71.302,1,1,2.075,2.075,-0.1,0
-0.0015495,0.017511,0,0,0,0,5.6672e-11,-2.2377e-12,0,0,0,0,0,-80.178,0.72689,0,-0.033009,0,-24.081,71.245,1,1,2.08,2.08,-0.1,0
-0.0015513,0.017517,0,0,0,0,5.9799e-11,-1.6609e-12,0,0,0,0,0,-80.116,0.7326,0,-0.035067,0,-24.063,71.187,1,1,2.085,2.085,-0.1,0
-0.0015531,0.017523,0,0,0,0,6.2609e-11,-1.1389e-12,0,0,0,0,0,-80.053,0.73738,0,-0.036917,0,-24.044,71.13,1,1,2.09,2.09,-0.1,0
-0.0015549,0.017529,0,0,0,0,6.5105e-11,-6.7142e-13,0,0,0,0,0,-79.99,0.74124,0,-0.038556,0,-24.026,71.073,1,1,2.095,2.095,-0.1,0
-0.0015567,0.017535,0,0,0,0,6.7285e-11,-2.5864e-13,0,0,0,0,0,-79.927,0.74417,0,-0.039987,0,-24.007,71.016,1,1,2.1,2.1,-0.1,0
-0.0015585,0.017541,0,0,0,0,6.9149e-11,9.954e-14,0,0,0,0,0,-79.864,0.74618,0,-0.041207,0,-23.989,70.959,1,1,2.105,2.105,-0.1,0
-0.0015604,0.017547,0,0,0,0,7.0698e-11,4.0311e-13,0,0,0,0,0,-79.8,0.74726,0,-0.042219,0,-23.97,70.902,1,1,2.11,2.11,-0.1,0
-0.0015622,0.017553,0,0,0,0,7.1932e-11,6.5211e-13,0,0,0,0,0,-79.737,0.74742,0,-0.04302,0,-23.951,70.845,1,1,2.115,2.115,-0.1,0
-0.001564,0.017559,0,0,0,0,7.2851e-11,8.4654e-13,0,0,0,0,0,-79.673,0.74664,0,-0.043612,0,-23.932,70.788,1,1,2.12,2.12,-0.1,0
-0.0015658,0.017565,0,0,0,0,7.3454e-11,9.8643e-13,0,0,0,0,0,-79.61,0.74495,0,-0.043994,0,-23.913,70.731,1,1,2.125,2.125,-0.1,0
-0.0015676,0.017571,0,0,0,0,7.3741e-11,1.0718e-12,0,0,0,0,0,-79.546,0.74233,0,-0.044167,0,-23.894,70.674,1,1,2.13,2.13,-0.1,0
-0.0015694,0.017577,0,0,0,0,7.3714e-11,1.1026e-12,0,0,0,0,0,-79.482,0.73878,0,-0.04413,0,-23.875,70.618,1,1,2.135,2.135,-0.1,0
-0.0015712,0.017582,0,0,0,0,7.337e-11,1.079e-12,0,0,0,0,0,-79.418,0.7343,0,-0.043882,0,-23.856,70.561,1,1,2.14,2.14,-0.1,0
-0.001573,0.017588,0,0,0,0,7.2711e-11,1.0009e-12,0,0,0,0,0,-79.354,0.7289,0,-0.043425,0,-23.837,70.504,1,1,2.145,2.145,-0.1,0
-0.0015748,0.017594,0,0,0,0,7.1737e-11,8.6839e-13,0,0,0,0,0,-79.29,0.72257,0,-0.042758,0,-23.817,70.448,1,1,2.15,2.15,-0.1,0
-0.0015766,0.0176,0,0,0,0,7.0447e-11,6.8139e-13,0,0,0,0,0,-79.226,0.71532,0,-0.041881,0,-23.797,70.391,1,1,2.155,2.155,-0.1,0
-0.0015784,0.017606,0,0,0,0,6.8842e-11,4.3996e-13,0,0,0,0,0,-79.162,0.70714,0,-0.040794,0,-23.778,70.334,1,1,2.16,2.16,-0.1,0
-0.0015802,0.017612,0,0,0,0,6.6921e-11,1.4413e-13,0,0,0,0,0,-79.097,0.69803,0,-0.039497,0,-23.758,70.278,1,1,2.165,2.165,-0.1,0
-0.001582,0.017618,0,0,0,0,6.4685e-11,-2.0611e-13,0,0,0,0,0,-79.032,0.688,0,-0.03799,0,-23.738,70.222,1,1,2.17,2.17,-0.1,0
-0.0015838,0.017624,0,0,0,0,6.2134e-11,-6.1072e-13,0,0,0,0,0,-78.968,0.67705,0,-0.036274,0,-23.718,70.165,1,1,2.175,2.175,-0.1,0
-0.0015856,0.017629,0,0,0,0,5.9268e-11,-1.0697e-12,0,0,0,0,0,-78.903,0.66517,0,-0.034347,0,-23.698,70.109,1,1,2.18,2.18,-0.1,0
-0.0015874,0.017635,0,0,0,0,5.6085e-11,-1.583e-12,0,0,0,0,0,-78.838,0.65236,0,-0.03221,0,-23.678,70.053,1,1,2.185,2.185,-0.1,0
-0.0015892,0.017641,0,0,0,0,5.2588e-11,-2.1507e-12,0,0,0,0,0,-78.773,0.63863,0,-0.029864,0,-23.658,69.996,1,1,2.19,2.19,-0.1,0
-0.001591,0.017647,0,0,0,0,4.8775e-11,-2.7726e-12,0,0,0,0,0,-78.708,0.62397,0,-0.027307,0,-23.638,69.94,1,1,2.195,2.195,-0.1,0
-0.0015928,0.017653,0,0,0,0,4.4647e-11,-3.4489e-12,0,0,0,0,0,-78.643,0.60839,0,-0.02454,0,-23.617,69.884,1,1,2.2,2.2,-0.1,0
-0.0015946,0.017658,0,0,0,0,4.0203e-11,-4.1794e-12,0,0,0,0,0,-78.578,0.59188,0,-0.021563,0,-23.597,69.828,1,1,2.205,2.205,-0.1,0
-0.0015963,0.017664,0,0,0,0,3.5444e-11,-4.9643e-12,0,0,0,0,0,-78.512,0.57445,0,-0.018376,0,-23.576,69.772,1,1,2.21,2.21,-0.1,0
-0.0015981,0.01767,0,0,0,0,3.0369e-11,-5.8033e-12,0,0,0,0,0,-78.447,0.55609,0,-0.014978,0,-23.555,69.716,1,1,2.215,2.215,-0.1,0
-0.0015999,0.017676,0,0,0,0,2.4979e-11,-6.6966e-12,0,0,0,0,0,-78.381,0.5368,0,-0.01137,0,-23.535,69.66,1,1,2.22,2.22,-0.1,0
-0.0016017,0.017681,0,0,0,0,1.9274e-11,-7.6441e-12,0,0,0,0,0,-78.315,0.51659,0,-0.0075525,0,-23.514,69.604,1,1,2.225,2.225,-0.1,0
-0.0016035,0.017687,0,0,0,0,1.3253e-11,-8.6458e-12,0,0,0,0,0,-78.249,0.49546,0,-0.0035241,0,-23.493,69.548,1,1,2.23,2.23,-0.1,0
-0.0016052,0.017693,0,0,0,0,1.1106e-11,-8.7523e-12,0,0,0,0,0,-78.191,0.48838,0,-0.0024474,0,-23.475,69.497,1,1,2.235,2.235,-0.1,0
-0.001607,0.017699,0,0,0,0,1.4084e-11,-7.6944e-12,0,0,0,0,0,-78.143,0.49959,0,-0.0052296,0,-23.461,69.453,1,1,2.24,2.24,-0.1,0
-0.0016088,0.017704,0,0,0,0,1.6903e-11,-6.6757e-12,0,0,0,0,0,-78.095,0.5101,0,-0.0078669,0,-23.447,69.408,1,1,2.245,2.245,-0.1,0
-0.0016106,0.01771,0,0,0,0,1.9565e-11,-5.696e-12,0,0,0,0,0,-78.046,0.5199,0,-0.010359,0,-23.434,69.363,1,1,2.25,2.25,-0.1,0
-0.0016123,0.017716,0,0,0,0,2.2068e-11,-4.7553e-12,0,0,0,0,0,-77.998,0.529,0,-0.012707,0,-23.42,69.318,1,1,2.255,2.255,-0.1,0
-0.0016141,0.017721,0,0,0,0,2.4414e-11,-3.8537e-12,0,0,0,0,0,-77.949,0.5374,0,-0.01491,0,-23.406,69.273,1,1,2.26,2.26,-0.1,0
-0.0016159,0.017727,0,0,0,0,2.6601e-11,-2.9911e-12,0,0,0,0,0,-77.901,0.5451,0,-0.016968,0,-23.392,69.229,1,1,2.265,2.265,-0.1,0
-0.0016177,0.017733,0,0,0,0,2.863e-11,-2.1675e-12,0,0,0,0,0,-77.852,0.55209,0,-0.018881,0,-23.378,69.184,1,1,2.27,2.27,-0.1,0
-0.0016194,0.017738,0,0,0,0,3.0501e-11,-1.3829e-12,0,0,0,0,0,-77.803,0.55837,0,-0.020649,0,-23.364,69.139,1,1,2.275,2.275,-0.1,0
-0.0016212,0.017744,0,0,0,0,3.2213e-11,-6.3737e-13,0,0,0,0,0,-77.754,0.56395,0,-0.022272,0,-23.349,69.095,1,1,2.28,2.28,-0.1,0
-0.001623,0.017749,0,0,0,0,3.3768e-11,6.9228e-14,0,0,0,0,0,-77.705,0.56883,0,-0.02375,0,-23.335,69.05,1,1,2.285,2.285,-0.1,0
-0.0016247,0.017755,0,0,0,0,3.5164e-11,7.368e-13,0,0,0,0,0,-77.656,0.57301,0,-0.025084,0,-23.321,69.006,1,1,2.29,2.29,-0.1,0
-0.0016265,0.017761,0,0,0,0,3.6402e-11,1.3654e-12,0,0,0,0,0,-77.607,0.57648,0,-0.026272,0,-23.306,68.961,1,1,2.295,2.295,-0.1,0
-0.0016283,0.017766,0,0,0,0,3.7482e-11,1.9551e-12,0,0,0,0,0,-77.558,0.57925,0,-0.027315,0,-23.292,68.917,1,1,2.3,2.3,-0.1,0
-0.00163,0.017772,0,0,0,0,3.8404e-11,2.5058e-12,0,0,0,0,0,-77.509,0.58131,0,-0.028213,0,-23.278,68.872,1,1,2.305,2.305,-0.1,0
-0.0016318,0.017777,0,0,0,0,3.9167e-11,3.0175e-12,0,0,0,0,0,-77.46,0.58268,0,-0.028966,0,-23.263,68.828,1,1,2.31,2.31,-0.1,0
-0.0016335,0.017783,0,0,0,0,3.9773e-11,3.4903e-12,0,0,0,0,0,-77.41,0.58333,0,-0.029574,0,-23.248,68.784,1,1,2.315,2.315,-0.1,0
-0.0016353,0.017788,0,0,0,0,4.022e-11,3.9241e-12,0,0,0,0,0,-77.361,0.58329,0,-0.030037,0,-23.234,68.739,1,1,2.32,2.32,-0.1,0
-0.0016371,0.017794,0,0,0,0,4.0509e-11,4.3191e-12,0,0,0,0,0,-77.311,0.58254,0,-0.030355,0,-23.219,68.695,1,1,2.325,2.325,-0.1,0
-0.0016388,0.017799,0,0,0,0,4.064e-11,4.6751e-12,0,0,0,0,0,-77.262,0.58109,0,-0.030527,0,-23.204,68.651,1,1,2.33,2.33,-0.1,0
-0.0016406,0.017805,0,0,0,0,4.0613e-11,4.9922e-12,0,0,0,0,0,-77.212,0.57893,0,-0.030555,0,-23.189,68.607,1,1,2.335,2.335,-0.1,0
-0.0016423,0.01781,0,0,0,0,4.0427e-11,5.2704e-12,0,0,0,0,0,-77.162,0.57607,0,-0.030437,0,-23.174,68.563,1,1,2.34,2.34,-0.1,0
-0.0016441,0.017816,0,0,0,0,4.0083e-11,5.5097e-12,0,0,0,0,0,-77.113,0.5725,0,-0.030173,0,-23.159,68.518,1,1,2.345,2.345,-0.1,0
-0.0016458,0.017821,0,0,0,0,3.9581e-11,5.7101e-12,0,0,0,0,0,-77.063,0.56823,0,-0.029764,0,-23.144,68.474,1,1,2.35,2.35,-0.1,0
-0.0016476,0.017827,0,0,0,0,3.892e-11,5.8717e-12,0,0,0,0,0,-77.013,0.56326,0,-0.02921,0,-23.129,68.43,1,1,2.355,2.355,-0.1,0
-0.0016493,0.017832,0,0,0,0,3.8102e-11,5.9944e-12,0,0,0,0,0,-76.963,0.55758,0,-0.028511,0,-23.114,68.386,1,1,2.36,2.36,-0.1,0
-0.0016511,0.017838,0,0,0,0,3.7125e-11,6.0782e-12,0,0,0,0,0,-76.913,0.5512,0,-0.027667,0,-23.098,68.342,1,1,2.365,2.365,-0.1,0
-0.0016528,0.017843,0,0,0,0,3.599e-11,6.1231e-12,0,0,0,0,0,-76.862,0.54412,0,-0.026677,0,-23.083,68.298,1,1,2.37,2.37,-0.1,0
-0.0016546,0.017849,0,0,0,0,3.4696e-11,6.1293e-12,0,0,0,0,0,-76.812,0.53633,0,-0.025542,0,-23.067,68.255,1,1,2.375,2.375,-0.1,0
-0.0016563,0.017854,0,0,0,0,3.3245e-11,6.0965e-12,0,0,0,0,0,-76.762,0.52784,0,-0.024261,0,-23.052,68.211,1,1,2.38,2.38,-0.1,0
-0.0016581,0.01786,0,0,0,0,3.1635e-11,6.025e-12,0,0,0,0,0,-76.712,0.51864,0,-0.022835,0,-23.036,68.167,1,1,2.385,2.385,-0.1,0
-0.0016598,0.017865,0,0,0,0,2.9867e-11,5.9146e-12,0,0,0,0,0,-76.661,0.50875,0,-0.021264,0,-23.021,68.123,1,1,2.39,2.39,-0.1,0
-0.0016615,0.01787,0,0,0,0,2.7941e-11,5.7655e-12,0,0,0,0,0,-76.611,0.49815,0,-0.019547,0,-23.005,68.079,1,1,2.395,2.395,-0.1,0
-0.0016633,0.017876,0,0,0,0,2.5857e-11,5.5775e-12,0,0,0,0,0,-76.56,0.48684,0,-0.017685,0,-22.989,68.036,1,1,2.4,2.4,-0.1,0
-0.001665,0.017881,0,0,0,0,2.3614e-11,5.3507e-12,0,0,0,0,0,-76.509,0.47483,0,-0.015677,0,-22.974,67.992,1,1,2.405,2.405,-0.1,0
-0.0016668,0.017886,0,0,0,0,2.1213e-11,5.0851e-12,0,0,0,0,0,-76.459,0.46212,0,-0.013524,0,-22.958,67.948,1,1,2.41,2.41,-0.1,0
-0.0016685,0.017892,0,0,0,0,1.8654e-11,4.7808e-12,0,0,0,0,0,-76.408,0.44871,0,-0.011225,0,-22.942,67.905,1,1,2.415,2.415,-0.1,0
-0.0016702,0.017897,0,0,0,0,1.5936e-11,4.4376e-12,0,0,0,0,0,-76.357,0.43459,0,-0.0087811,0,-22.926,67.861,1,1,2.42,2.42,-0.1,0
-0.001672,0.017902,0,0,0,0,1.3061e-11,4.0557e-12,0,0,0,0,0,-76.306,0.41977,0,-0.0061914,0,-22.91,67.818,1,1,2.425,2.425,-0.1,0
-0.0016737,0.017908,0,0,0,0,1.0027e-11,3.6351e-12,0,0,0,0,0,-76.255,0.40424,0,-0.003456,0,-22.893,67.774,1,1,2.43,2.43,-0.1,0
-0.0016754,0.017913,0,0,0,0,6.8348e-12,3.1757e-12,0,0,0,0,0,-76.204,0.38802,0,-0.0005752,0,-22.877,67.731,1,1,2.435,2.435,-0.1,0
-0.0016772,0.017918,0,0,0,0,5.889e-12,2.9294e-12,0,0,0,0,0,-76.159,0.38385,0,-1.8035e-05,0,-22.864,67.691,1,1,2.44,2.44,-0.1,0
-0.0016789,0.017924,0,0,0,0,7.478e-12,2.9478e-12,0,0,0,0,0,-76.12,0.3931,0,-0.002054,0,-22.853,67.655,1,1,2.445,2.445,-0.1,0
-0.0016806,0.017929,0,0,0,0,8.9865e-12,2.9642e-12,0,0,0,0,0,-76.082,0.40181,0,-0.0039881,0,-22.842,67.62,1,1,2.45,2.45,-0.1,0
-0.0016824,0.017934,0,0,0,0,1.0414e-11,2.9788e-12,0,0,0,0,0,-76.043,0.40998,0,-0.0058202,0,-22.831,67.584,1,1,2.455,2.455,-0.1,0
-0.0016841,0.01794,0,0,0,0,1.1762e-11,2.9915e-12,0,0,0,0,0,-76.005,0.4176,0,-0.0075503,0,-22.819,67.549,1,1,2.46,2.46,-0.1,0
-0.0016858,0.017945,0,0,0,0,1.3029e-11,3.0023e-12,0,0,0,0,0,-75.966,0.42468,0,-0.0091784,0,-22.808,67.513,1,1,2.465,2.465,-0.1,0
-0.0016875,0.01795,0,0,0,0,1.4215e-11,3.0113e-12,0,0,0,0,0,-75.927,0.43122,0,-0.010705,0,-22.797,67.477,1,1,2.47,2.47,-0.1,0
-0.0016893,0.017955,0,0,0,0,1.5321e-11,3.0185e-12,0,0,0,0,0,-75.888,0.43722,0,-0.012129,0,-22.786,67.442,1,1,2.475,2.475,-0.1,0
-0.001691,0.017961,0,0,0,0,1.6346e-11,3.0238e-12,0,0,0,0,0,-75.849,0.44267,0,-0.013451,0,-22.775,67.406,1,1,2.48,2.48,-0.1,0
-0.0016927,0.017966,0,0,0,0,1.729e-11,3.0272e-12,0,0,0,0,0,-75.811,0.44758,0,-0.014671,0,-22.763,67.371,1,1,2.485,2.485,-0.1,0
-0.0016944,0.017971,0,0,0,0,1.8155e-11,3.0289e-12,0,0,0,0,0,-75.772,0.45195,0,-0.015789,0,-22.752,67.336,1,1,2.49,2.49,-0.1,0
-0.0016962,0.017976,0,0,0,0,1.8938e-11,3.0287e-12,0,0,0,0,0,-75.733,0.45578,0,-0.016805,0,-22.74,67.3,1,1,2.495,2.495,-0.1,0
-0.0016979,0.017981,0,0,0,0,1.9641e-11,3.0267e-12,0,0,0,0,0,-75.694,0.45906,0,-0.017718,0,-22.729,67.265,1,1,2.5,2.5,-0.1,0
-0.0016996,0.017987,0,0,0,0,2.0263e-11,3.0229e-12,0,0,0,0,0,-75.654,0.4618,0,-0.01853,0,-22.718,67.23,1,1,2.505,2.505,-0.1,0
-0.0017013,0.017992,0,0,0,0,2.0805e-11,3.0173e-12,0,0,0,0,0,-75.615,0.464,0,-0.01924,0,-22.706,67.194,1,1,2.51,2.51,-0.1,0
-0.001703,0.017997,0,0,0,0,2.1267e-11,3.0099e-12,0,0,0,0,0,-75.576,0.46566,0,-0.019847,0,-22.694,67.159,1,1,2.515,2.515,-0.1,0
-0.0017048,0.018002,0,0,0,0,2.1647e-11,3.0008e-12,0,0,0,0,0,-75.537,0.46677,0,-0.020352,0,-22.683,67.124,1,1,2.52,2.52,-0.1,0
-0.0017065,0.018007,0,0,0,0,2.1947e-11,2.9898e-12,0,0,0,0,0,-75.498,0.46734,0,-0.020755,0,-22.671,67.088,1,1,2.525,2.525,-0.1,0
-0.0017082,0.018013,0,0,0,0,2.2167e-11,2.9771e-12,0,0,0,0,0,-75.458,0.46737,0,-0.021056,0,-22.659,67.053,1,1,2.53,2.53,-0.1,0
-0.0017099,0.018018,0,0,0,0,2.2306e-11,2.9626e-12,0,0,0,0,0,-75.419,0.46686,0,-0.021255,0,-22.648,67.018,1,1,2.535,2.535,-0.1,0
-0.0017116,0.018023,0,0,0,0,2.2364e-11,2.9463e-12,0,0,0,0,0,-75.379,0.4658,0,-0.021351,0,-22.636,66.983,1,1,2.54,2.54,-0.1,0
-0.0017133,0.018028,0,0,0,0,2.2342e-11,2.9283e-12,0,0,0,0,0,-75.34,0.4642,0,-0.021346,0,-22.624,66.948,1,1,2.545,2.545,-0.1,0
-0.0017151,0.018033,0,0,0,0,2.2239e-11,2.9086e-12,0,0,0,0,0,-75.3,0.46206,0,-0.021237,0,-22.612,66.913,1,1,2.55,2.55,-0.1,0
-0.0017168,0.018038,0,0,0,0,2.2056e-11,2.8871e-12,0,0,0,0,0,-75.261,0.45937,0,-0.021027,0,-22.6,66.878,1,1,2.555,2.555,-0.1,0
-0.0017185,0.018043,0,0,0,0,2.1792e-11,2.8639e-12,0,0,0,0,0,-75.221,0.45615,0,-0.020714,0,-22.588,66.843,1,1,2.56,2.56,-0.1,0
-0.0017202,0.018048,0,0,0,0,2.1448e-11,2.8389e-12,0,0,0,0,0,-75.181,0.45238,0,-0.020299,0,-22.576,66.808,1,1,2.565,2.565,-0.1,0
-0.0017219,0.018054,0,0,0,0,2.1022e-11,2.8123e-12,0,0,0,0,0,-75.142,0.44806,0,-0.019782,0,-22.564,66.773,1,1,2.57,2.57,-0.1,0
-0.0017236,0.018059,0,0,0,0,2.0517e-11,2.7839e-12,0,0,0,0,0,-75.102,0.44321,0,-0.019162,0,-22.552,66.738,1,1,2.575,2.575,-0.1,0
-0.0017253,0.018064,0,0,0,0,1.993e-11,2.7538e-12,0,0,0,0,0,-75.062,0.43781,0,-0.01844,0,-22.54,66.703,1,1,2.58,2.58,-0.1,0
-0.001727,0.018069,0,0,0,0,1.9264e-11,2.722e-12,0,0,0,0,0,-75.022,0.43187,0,-0.017616,0,-22.527,66.668,1,1,2.585,2.585,-0.1,0
-0.0017287,0.018074,0,0,0,0,1.8516e-11,2.6886e-12,0,0,0,0,0,-74.982,0.42539,0,-0.016689,0,-22.515,66.633,1,1,2.59,2.59,-0.1,0
-0.0017304,0.018079,0,0,0,0,1.7688e-11,2.6534e-12,0,0,0,0,0,-74.942,0.41837,0,-0.01566,0,-22.503,66.598,1,1,2.595,2.595,-0.1,0
-0.0017321,0.018084,0,0,0,0,1.6779e-11,2.6165e-12,0,0,0,0,0,-74.902,0.4108,0,-0.014529,0,-22.49,66.563,1,1,2.6,2.6,-0.1,0
-0.0017338,0.018089,0,0,0,0,1.579e-11,2.578e-12,0,0,0,0,0,-74.862,0.40269,0,-0.013295,0,-22.478,66.529,1,1,2.605,2.605,-0.1,0
-0.0017355,0.018094,0,0,0,0,1.472e-11,2.5378e-12,0,0,0,0,0,-74.822,0.39404,0,-0.011959,0,-22.465,66.494,1,1,2.61,2.61,-0.1,0
-0.0017372,0.018099,0,0,0,0,1.357e-11,2.496e-12,0,0,0,0,0,-74.782,0.38485,0,-0.01052,0,-22.453,66.459,1,1,2.615,2.615,-0.1,0
-0.0017389,0.018104,0,0,0,0,1.2339e-11,2.4524e-12,0,0,0,0,0,-74.742,0.37511,0,-0.0089795,0,-22.44,66.424,1,1,2.62,2.62,-0.1,0
-0.0017406,0.018109,0,0,0,0,1.1027e-11,2.4073e-12,0,0,0,0,0,-74.701,0.36483,0,-0.007336,0,-22.428,66.39,1,1,2.625,2.625,-0.1,0
-0.0017423,0.018114,0,0,0,0,9.6352e-12,2.3604e-12,0,0,0,0,0,-74.661,0.35401,0,-0.00559,0,-22.415,66.355,1,1,2.63,2.63,-0.1,0
-0.001744,0.018119,0,0,0,0,8.1624e-12,2.312e-12,0,0,0,0,0,-74.621,0.34265,0,-0.0037416,0,-22.403,66.321,1,1,2.635,2.635,-0.1,0
-0.0017457,0.018124,0,0,0,0,6.609e-12,2.2619e-12,0,0,0,0,0,-74.58,0.33074,0,-0.0017907,0,-22.39,66.286,1,1,2.64,2.64,-0.1,0
-0.0017474,0.018129,0,0,0,0,4.975e-12,2.2102e-12,0,0,0,0,0,-74.54,0.31829,0,0.00026271,0,-22.377,66.251,1,1,2.645,2.645,-0.1,0
-0.0017491,0.018134,0,0,0,0,3.5665e-12,2.0186e-12,0,0,0,0,0,-74.5,0.30777,0,0.0019822,0,-22.365,66.218,1,1,2.65,2.65,-0.1,0
-0.0017508,0.018139,0,0,0,0,4.443e-12,8.039e-13,0,0,0,0,0,-74.469,0.31562,0,0.00044465,0,-22.356,66.189,1,1,2.655,2.655,-0.1,0
-0.0017525,0.018144,0,0,0,0,5.2761e-12,-3.461e-13,0,0,0,0,0,-74.438,0.32304,0,-0.0010202,0,-22.347,66.16,1,1,2.66,2.66,-0.1,0
-0.0017542,0.018149,0,0,0,0,6.0656e-12,-1.4313e-12,0,0,0,0,0,-74.406,0.33005,0,-0.0024121,0,-22.338,66.131,1,1,2.665,2.665,-0.1,0
-0.0017559,0.018154,0,0,0,0,6.8117e-12,-2.4517e-12,0,0,0,0,0,-74.375,0.33663,0,-0.0037313,0,-22.329,66.102,1,1,2.67,2.67,-0.1,0
-0.0017576,0.018159,0,0,0,0,7.5143e-12,-3.4073e-12,0,0,0,0,0,-74.343,0.34279,0,-0.0049776,0,-22.32,66.073,1,1,2.675,2.675,-0.1,0
-0.0017593,0.018164,0,0,0,0,8.1735e-12,-4.2982e-12,0,0,0,0,0,-74.312,0.34852,0,-0.006151,0,-22.31,66.044,1,1,2.68,2.68,-0.1,0
-0.001761,0.018169,0,0,0,0,8.7891e-12,-5.1243e-12,0,0,0,0,0,-74.28,0.35383,0,-0.0072516,0,-22.301,66.015,1,1,2.685,2.685,-0.1,0
-0.0017626,0.018173,0,0,0,0,9.3613e-12,-5.8856e-12,0,0,0,0,0,-74.249,0.35872,0,-0.0082793,0,-22.292,65.987,1,1,2.69,2.69,-0.1,0
-0.0017643,0.018178,0,0,0,0,9.89e-12,-6.5822e-12,0,0,0,0,0,-74.217,0.36318,0,-0.0092341,0,-22.283,65.958,1,1,2.695,2.695,-0.1,0
-0.001766,0.018183,0,0,0,0,1.0375e-11,-7.214e-12,0,0,0,0,0,-74.185,0.36722,0,-0.010116,0,-22.274,65.929,1,1,2.7,2.7,-0.1,0
-0.0017677,0.018188,0,0,0,0,1.0817e-11,-7.7811e-12,0,0,0,0,0,-74.154,0.37083,0,-0.010925,0,-22.264,65.9,1,1,2.705,2.705,-0.1,0
-0.0017694,0.018193,0,0,0,0,1.1215e-11,-8.2834e-12,0,0,0,0,0,-74.122,0.37403,0,-0.011661,0,-22.255,65.872,1,1,2.71,2.71,-0.1,0
-0.0017711,0.018198,0,0,0,0,1.157e-11,-8.721e-12,0,0,0,0,0,-74.09,0.3768,0,-0.012324,0,-22.246,65.843,1,1,2.715,2.715,-0.1,0
-0.0017728,0.018203,0,0,0,0,1.1881e-11,-9.0939e-12,0,0,0,0,0,-74.058,0.37914,0,-0.012915,0,-22.236,65.814,1,1,2.72,2.72,-0.1,0
-0.0017744,0.018208,0,0,0,0,1.2149e-11,-9.402e-12,0,0,0,0,0,-74.027,0.38106,0,-0.013432,0,-22.227,65.785,1,1,2.725,2.725,-0.1,0
-0.0017761,0.018213,0,0,0,0,1.2373e-11,-9.6454e-12,0,0,0,0,0,-73.995,0.38256,0,-0.013876,0,-22.218,65.757,1,1,2.73,2.73,-0.1,0
-0.0017778,0.018217,0,0,0,0,1.2554e-11,-9.8241e-12,0,0,0,0,0,-73.963,0.38363,0,-0.014248,0,-22.208,65.728,1,1,2.735,2.735,-0.1,0
-0.0017795,0.018222,0,0,0,0,1.2691e-11,-9.938e-12,0,0,0,0,0,-73.931,0.38429,0,-0.014546,0,-22.199,65.7,1,1,2.74,2.74,-0.1,0
-0.0017812,0.018227,0,0,0,0,1.2785e-11,-9.9873e-12,0,0,0,0,0,-73.899,0.38451,0,-0.014772,0,-22.189,65.671,1,1,2.745,2.745,-0.1,0
-0.0017829,0.018232,0,0,0,0,1.2836e-11,-9.9718e-12,0,0,0,0,0,-73.867,0.38432,0,-0.014924,0,-22.18,65.643,1,1,2.75,2.75,-0.1,0
-0.0017845,0.018237,0,0,0,0,1.2842e-11,-9.8916e-12,0,0,0,0,0,-73.835,0.3837,0,-0.015003,0,-22.17,65.614,1,1,2.755,2.755,-0.1,0
-0.0017862,0.018242,0,0,0,0,1.2806e-11,-9.7467e-12,0,0,0,0,0,-73.803,0.38265,0,-0.01501,0,-22.16,65.585,1,1,2.76,2.76,-0.1,0
-0.0017879,0.018246,0,0,0,0,1.2726e-11,-9.5371e-12,0,0,0,0,0,-73.771,0.38119,0,-0.014943,0,-22.151,65.557,1,1,2.765,2.765,-0.1,0
-0.0017896,0.018251,0,0,0,0,1.2602e-11,-9.2628e-12,0,0,0,0,0,-73.739,0.37929,0,-0.014803,0,-22.141,65.529,1,1,2.77,2.77,-0.1,0
-0.0017912,0.018256,0,0,0,0,1.2435e-11,-8.9238e-12,0,0,0,0,0,-73.707,0.37698,0,-0.01459,0,-22.131,65.5,1,1,2.775,2.775,-0.1,0
-0.0017929,0.018261,0,0,0,0,1.2224e-11,-8.5201e-12,0,0,0,0,0,-73.674,0.37424,0,-0.014305,0,-22.121,65.472,1,1,2.78,2.78,-0.1,0
-0.0017946,0.018266,0,0,0,0,1.197e-11,-8.0517e-12,0,0,0,0,0,-73.642,0.37108,0,-0.013946,0,-22.112,65.443,1,1,2.785,2.785,-0.1,0
-0.0017963,0.01827,0,0,0,0,1.1672e-11,-7.5187e-12,0,0,0,0,0,-73.61,0.36749,0,-0.013514,0,-22.102,65.415,1,1,2.79,2.79,-0.1,0
-0.0017979,0.018275,0,0,0,0,1.1331e-11,-6.9209e-12,0,0,0,0,0,-73.578,0.36348,0,-0.013008,0,-22.092,65.386,1,1,2.795,2.795,-0.1,0
-0.0017996,0.01828,0,0,0,0,1.0947e-11,-6.2585e-12,0,0,0,0,0,-73.545,0.35905,0,-0.01243,0,-22.082,65.358,1,1,2.8,2.8,-0.1,0
-0.0018013,0.018285,0,0,0,0,1.0519e-11,-5.5314e-12,0,0,0,0,0,-73.513,0.35419,0,-0.011779,0,-22.072,65.33,1,1,2.805,2.805,-0.1,0
-0.001803,0.018289,0,0,0,0,1.0047e-11,-4.7397e-12,0,0,0,0,0,-73.48,0.34891,0,-0.011055,0,-22.062,65.302,1,1,2.81,2.81,-0.1,0
-0.0018046,0.018294,0,0,0,0,9.532e-12,-3.8833e-12,0,0,0,0,0,-73.448,0.34321,0,-0.010257,0,-22.052,65.273,1,1,2.815,2.815,-0.1,0
-0.0018063,0.018299,0,0,0,0,8.9735e-12,-2.9623e-12,0,0,0,0,0,-73.416,0.33708,0,-0.0093864,0,-22.042,65.245,1,1,2.82,2.82,-0.1,0
-0.001808,0.018304,0,0,0,0,8.3715e-12,-1.9766e-12,0,0,0,0,0,-73.383,0.33053,0,-0.0084426,0,-22.032,65.217,1,1,2.825,2.825,-0.1,0
-0.0018096,0.018308,0,0,0,0,7.7259e-12,-9.2625e-13,0,0,0,0,0,-73.35,0.32356,0,-0.0074257,0,-22.022,65.189,1,1,2.83,2.83,-0.1,0
-0.0018113,0.018313,0,0,0,0,7.0369e-12,1.8876e-13,0,0,0,0,0,-73.318,0.31616,0,-0.0063356,0,-22.012,65.16,1,1,2.835,2.835,-0.1,0
-0.001813,0.018318,0,0,0,0,6.3044e-12,1.3684e-12,0,0,0,0,0,-73.285,0.30834,0,-0.0051723,0,-22.002,65.132,1,1,2.84,2.84,-0.1,0
-0.0018146,0.018323,0,0,0,0,5.5283e-12,2.6126e-12,0,0,0,0,0,-73.253,0.3001,0,-0.0039358,0,-21.992,65.104,1,1,2.845,2.845,-0.1,0
-0.0018163,0.018327,0,0,0,0,4.7089e-12,3.9215e-12,0,0,0,0,0,-73.22,0.29143,0,-0.0026262,0,-21.981,65.076,1,1,2.85,2.85,-0.1,0
-0.001818,0.018332,0,0,0,0,3.8458e-12,5.295e-12,0,0,0,0,0,-73.187,0.28234,0,-0.0012433,0,-21.971,65.048,1,1,2.855,2.855,-0.1,0
-0.0018196,0.018337,0,0,0,0,2.9394e-12,6.7331e-12,0,0,0,0,0,-73.154,0.27282,0,0.00021268,0,-21.961,65.02,1,1,2.86,2.86,-0.1,0
-0.0018213,0.018341,0,0,0,0,1.9893e-12,8.2359e-12,0,0,0,0,0,-73.122,0.26289,0,0.001742,0,-21.951,64.992,1,1,2.865,2.865,-0.1,0
-0.001823,0.018346,0,0,0,0,1.5727e-12,9.0341e-12,0,0,0,0,0,-73.091,0.25864,0,0.0023494,0,-21.941,64.965,1,1,2.87,2.87,-0.1,0
-0.0018246,0.018351,0,0,0,0,2.1709e-12,8.4675e-12,0,0,0,0,0,-73.065,0.26513,0,0.0012096,0,-21.934,64.941,1,1,2.875,2.875,-0.1,0
-0.0018263,0.018355,0,0,0,0,2.7419e-12,7.9165e-12,0,0,0,0,0,-73.039,0.27128,0,0.00012253,0,-21.926,64.917,1,1,2.88,2.88,-0.1,0
-0.0018279,0.01836,0,0,0,0,3.2856e-12,7.3812e-12,0,0,0,0,0,-73.013,0.2771,0,-0.00091187,0,-21.919,64.893,1,1,2.885,2.885,-0.1,0
-0.0018296,0.018365,0,0,0,0,3.8022e-12,6.8615e-12,0,0,0,0,0,-72.987,0.28258,0,-0.0018937,0,-21.911,64.869,1,1,2.89,2.89,-0.1,0
-0.0018313,0.018369,0,0,0,0,4.2915e-12,6.3575e-12,0,0,0,0,0,-72.961,0.28773,0,-0.0028228,0,-21.904,64.845,1,1,2.895,2.895,-0.1,0
-0.0018329,0.018374,0,0,0,0,4.7536e-12,5.8691e-12,0,0,0,0,0,-72.935,0.29254,0,-0.0036993,0,-21.896,64.821,1,1,2.9,2.9,-0.1,0
-0.0018346,0.018379,0,0,0,0,5.1885e-12,5.3964e-12,0,0,0,0,0,-72.908,0.29703,0,-0.0045231,0,-21.888,64.798,1,1,2.905,2.905,-0.1,0
-0.0018362,0.018383,0,0,0,0,5.5963e-12,4.9393e-12,0,0,0,0,0,-72.882,0.30117,0,-0.0052942,0,-21.881,64.774,1,1,2.91,2.91,-0.1,0
-0.0018379,0.018388,0,0,0,0,5.9768e-12,4.4979e-12,0,0,0,0,0,-72.856,0.30498,0,-0.0060127,0,-21.873,64.75,1,1,2.915,2.915,-0.1,0
-0.0018395,0.018392,0,0,0,0,6.33e-12,4.0721e-12,0,0,0,0,0,-72.83,0.30846,0,-0.0066785,0,-21.865,64.726,1,1,2.92,2.92,-0.1,0
-0.0018412,0.018397,0,0,0,0,6.6561e-12,3.6619e-12,0,0,0,0,0,-72.803,0.3116,0,-0.0072915,0,-21.858,64.702,1,1,2.925,2.925,-0.1,0
-0.0018429,0.018402,0,0,0,0,6.955e-12,3.2673e-12,0,0,0,0,0,-72.777,0.31441,0,-0.0078519,0,-21.85,64.678,1,1,2.93,2.93,-0.1,0
-0.0018445,0.018406,0,0,0,0,7.2266e-12,2.8884e-12,0,0,0,0,0,-72.751,0.31689,0,-0.0083596,0,-21.842,64.655,1,1,2.935,2.935,-0.1,0
-0.0018462,0.018411,0,0,0,0,7.4711e-12,2.5251e-12,0,0,0,0,0,-72.724,0.31902,0,-0.0088145,0,-21.834,64.631,1,1,2.94,2.94,-0.1,0
-0.0018478,0.018415,0,0,0,0,7.6883e-12,2.1775e-12,0,0,0,0,0,-72.698,0.32083,0,-0.0092168,0,-21.827,64.607,1,1,2.945,2.945,-0.1,0
-0.0018495,0.01842,0,0,0,0,7.8783e-12,1.8454e-12,0,0,0,0,0,-72.672,0.3223,0,-0.0095663,0,-21.819,64.583,1,1,2.95,2.95,-0.1,0
-0.0018511,0.018425,0,0,0,0,8.0411e-12,1.529e-12,0,0,0,0,0,-72.645,0.32344,0,-0.009863,0,-21.811,64.56,1,1,2.955,2.955,-0.1,0
-0.0018528,0.018429,0,0,0,0,8.1766e-12,1.2281e-12,0,0,0,0,0,-72.619,0.32424,0,-0.010107,0,-21.803,64.536,1,1,2.96,2.96,-0.1,0
-0.0018544,0.018434,0,0,0,0,8.285e-12,9.4293e-13,0,0,0,0,0,-72.592,0.3247,0,-0.010298,0,-21.795,64.512,1,1,2.965,2.965,-0.1,0
-0.0018561,0.018438,0,0,0,0,8.3661e-12,6.7333e-13,0,0,0,0,0,-72.566,0.32484,0,-0.010437,0,-21.787,64.489,1,1,2.97,2.97,-0.1,0
-0.0018577,0.018443,0,0,0,0,8.42e-12,4.1934e-13,0,0,0,0,0,-72.539,0.32464,0,-0.010523,0,-21.779,64.465,1,1,2.975,2.975,-0.1,0
-0.0018594,0.018447,0,0,0,0,8.4466e-12,1.8094e-13,0,0,0,0,0,-72.513,0.3241,0,-0.010556,0,-21.771,64.441,1,1,2.98,2.98,-0.1,0
-0.001861,0.018452,0,0,0,0,8.446e-12,-4.1844e-14,0,0,0,0,0,-72.486,0.32323,0,-0.010536,0,-21.763,64.418,1,1,2.985,2.985,-0.1,0
-0.0018627,0.018456,0,0,0,0,8.4182e-12,-2.4905e-13,0,0,0,0,0,-72.459,0.32202,0,-0.010463,0,-21.755,64.394,1,1,2.99,2.99,-0.1,0
-0.0018643,0.018461,0,0,0,0,8.3632e-12,-4.4065e-13,0,0,0,0,0,-72.433,0.32048,0,-0.010337,0,-21.747,64.371,1,1,2.995,2.995,-0.1,0
-0.001866,0.018466,0,0,0,0,8.2809e-12,-6.1668e-13,0,0,0,0,0,-72.406,0.31861,0,-0.010159,0,-21.739,64.347,1,1,3,3,-0.1,0
-0.0018676,0.01847,0,0,0,0,8.1714e-12,-7.7712e-13,0,0,0,0,0,-72.379,0.3164,0,-0.0099281,0,-21.731,64.323,1,1,3.005,3.005,-0.1,0
-0.0018693,0.018475,0,0,0,0,8.0347e-12,-9.2196e-13,0,0,0,0,0,-72.353,0.31385,0,-0.0096442,0,-21.723,64.3,1,1,3.01,3.01,-0.1,0
-0.0018709,0.018479,0,0,0,0,7.8707e-12,-1.0512e-12,0,0,0,0,0,-72.326,0.31098,0,-0.0093075,0,-21.715,64.276,1,1,3.015,3.015,-0.1,0
-0.0018726,0.018484,0,0,0,0,7.6795e-12,-1.1649e-12,0,0,0,0,0,-72.299,0.30776,0,-0.008918,0,-21.707,64.253,1,1,3.02,3.02,-0.1,0
-0.0018742,0.018488,0,0,0,0,7.4611e-12,-1.263e-12,0,0,0,0,0,-72.272,0.30422,0,-0.0084756,0,-21.699,64.229,1,1,3.025,3.025,-0.1,0
-0.0018758,0.018493,0,0,0,0,7.2154e-12,-1.3456e-12,0,0,0,0,0,-72.246,0.30033,0,-0.0079804,0,-21.69,64.206,1,1,3.03,3.03,-0.1,0
-0.0018775,0.018497,0,0,0,0,6.9425e-12,-1.4126e-12,0,0,0,0,0,-72.219,0.29612,0,-0.0074323,0,-21.682,64.182,1,1,3.035,3.035,-0.1,0
-0.0018791,0.018502,0,0,0,0,6.6424e-12,-1.464e-12,0,0,0,0,0,-72.192,0.29157,0,-0.0068314,0,-21.674,64.159,1,1,3.04,3.04,-0.1,0
-0.0018808,0.018506,0,0,0,0,6.315e-12,-1.4998e-12,0,0,0,0,0,-72.165,0.28668,0,-0.0061776,0,-21.666,64.135,1,1,3.045,3.045,-0.1,0
-0.0018824,0.018511,0,0,0,0,5.9603e-12,-1.5201e-12,0,0,0,0,0,-72.138,0.28146,0,-0.005471,0,-21.657,64.112,1,1,3.05,3.05,-0.1,0
-0.001884,0.018515,0,0,0,0,5.5785e-12,-1.5248e-12,0,0,0,0,0,-72.111,0.27591,0,-0.0047114,0,-21.649,64.089,1,1,3.055,3.055,-0.1,0
-0.0018857,0.018519,0,0,0,0,5.1694e-12,-1.514e-12,0,0,0,0,0,-72.084,0.27002,0,-0.0038991,0,-21.641,64.065,1,1,3.06,3.06,-0.1,0
-0.0018873,0.018524,0,0,0,0,4.733e-12,-1.4876e-12,0,0,0,0,0,-72.057,0.2638,0,-0.0030338,0,-21.632,64.042,1,1,3.065,3.065,-0.1,0
-0.001889,0.018528,0,0,0,0,4.2694e-12,-1.4456e-12,0,0,0,0,0,-72.03,0.25724,0,-0.0021156,0,-21.624,64.019,1,1,3.07,3.07,-0.1,0
-0.0018906,0.018533,0,0,0,0,3.7785e-12,-1.3881e-12,0,0,0,0,0,-72.003,0.25035,0,-0.0011445,0,-21.615,63.995,1,1,3.075,3.075,-0.1,0
-0.0018922,0.018537,0,0,0,0,3.2605e-12,-1.3151e-12,0,0,0,0,0,-71.976,0.24313,0,-0.00012053,0,-21.607,63.972,1,1,3.08,3.08,-0.1,0
-0.0018939,0.018542,0,0,0,0,2.7151e-12,-1.2265e-12,0,0,0,0,0,-71.949,0.23556,0,0.0009564,0,-21.599,63.949,1,1,3.085,3.085,-0.1,0
-0.0018955,0.018546,0,0,0,0,2.1425e-12,-1.1223e-12,0,0,0,0,0,-71.922,0.22767,0,0.0020862,0,-21.59,63.925,1,1,3.09,3.09,-0.1,0
-0.0018972,0.018551,0,0,0,0,1.744e-12,-7.9449e-13,0,0,0,0,0,-71.896,0.2222,0,0.0028578,0,-21.582,63.903,1,1,3.095,3.095,-0.1,0
-0.0018988,0.018555,0,0,0,0,2.1477e-12,3.6491e-13,0,0,0,0,0,-71.874,0.2277,0,0.0019903,0,-21.576,63.882,1,1,3.1,3.1,-0.1,0
-0.0019004,0.018559,0,0,0,0,2.5326e-12,1.4796e-12,0,0,0,0,0,-71.852,0.23294,0,0.0011611,0,-21.569,63.862,1,1,3.105,3.105,-0.1,0
-0.0019021,0.018564,0,0,0,0,2.8988e-12,2.5495e-12,0,0,0,0,0,-71.829,0.23791,0,0.00037042,0,-21.563,63.842,1,1,3.11,3.11,-0.1,0
-0.0019037,0.018568,0,0,0,0,3.2462e-12,3.5747e-12,0,0,0,0,0,-71.807,0.24262,0,-0.0003819,0,-21.556,63.822,1,1,3.115,3.115,-0.1,0
-0.0019053,0.018573,0,0,0,0,3.5748e-12,4.5551e-12,0,0,0,0,0,-71.785,0.24706,0,-0.0010958,0,-21.55,63.801,1,1,3.12,3.12,-0.1,0
-0.001907,0.018577,0,0,0,0,3.8846e-12,5.4908e-12,0,0,0,0,0,-71.763,0.25123,0,-0.0017712,0,-21.544,63.781,1,1,3.125,3.125,-0.1,0
-0.0019086,0.018581,0,0,0,0,4.1757e-12,6.3818e-12,0,0,0,0,0,-71.741,0.25514,0,-0.0024083,0,-21.537,63.761,1,1,3.13,3.13,-0.1,0
-0.0019102,0.018586,0,0,0,0,4.448e-12,7.2279e-12,0,0,0,0,0,-71.719,0.25878,0,-0.0030068,0,-21.531,63.741,1,1,3.135,3.135,-0.1,0
-0.0019118,0.01859,0,0,0,0,4.7016e-12,8.0294e-12,0,0,0,0,0,-71.696,0.26215,0,-0.003567,0,-21.524,63.721,1,1,3.14,3.14,-0.1,0
-0.0019135,0.018595,0,0,0,0,4.9363e-12,8.7862e-12,0,0,0,0,0,-71.674,0.26526,0,-0.0040887,0,-21.517,63.701,1,1,3.145,3.145,-0.1,0
-0.0019151,0.018599,0,0,0,0,5.1523e-12,9.4983e-12,0,0,0,0,0,-71.652,0.2681,0,-0.0045719,0,-21.511,63.68,1,1,3.15,3.15,-0.1,0
-0.0019167,0.018603,0,0,0,0,5.3496e-12,1.0166e-11,0,0,0,0,0,-71.63,0.27067,0,-0.0050167,0,-21.504,63.66,1,1,3.155,3.155,-0.1,0
-0.0019184,0.018608,0,0,0,0,5.528e-12,1.0788e-11,0,0,0,0,0,-71.607,0.27297,0,-0.005423,0,-21.498,63.64,1,1,3.16,3.16,-0.1,0
-0.00192,0.018612,0,0,0,0,5.6877e-12,1.1366e-11,0,0,0,0,0,-71.585,0.27501,0,-0.0057909,0,-21.491,63.62,1,1,3.165,3.165,-0.1,0
-0.0019216,0.018616,0,0,0,0,5.8286e-12,1.1899e-11,0,0,0,0,0,-71.563,0.27678,0,-0.0061202,0,-21.485,63.6,1,1,3.17,3.17,-0.1,0
-0.0019232,0.018621,0,0,0,0,5.9508e-12,1.2388e-11,0,0,0,0,0,-71.54,0.27829,0,-0.0064111,0,-21.478,63.58,1,1,3.175,3.175,-0.1,0
-0.0019249,0.018625,0,0,0,0,6.0541e-12,1.2832e-11,0,0,0,0,0,-71.518,0.27953,0,-0.0066636,0,-21.471,63.56,1,1,3.18,3.18,-0.1,0
-0.0019265,0.018629,0,0,0,0,6.1387e-12,1.3231e-11,0,0,0,0,0,-71.495,0.2805,0,-0.0068775,0,-21.465,63.54,1,1,3.185,3.185,-0.1,0
-0.0019281,0.018634,0,0,0,0,6.2046e-12,1.3585e-11,0,0,0,0,0,-71.473,0.2812,0,-0.0070529,0,-21.458,63.52,1,1,3.19,3.19,-0.1,0
-0.0019298,0.018638,0,0,0,0,6.2516e-12,1.3895e-11,0,0,0,0,0,-71.451,0.28164,0,-0.0071899,0,-21.451,63.5,1,1,3.195,3.195,-0.1,0
-0.0019314,0.018642,0,0,0,0,6.2799e-12,1.416e-11,0,0,0,0,0,-71.428,0.28181,0,-0.0072883,0,-21.445,63.48,1,1,3.2,3.2,-0.1,0
-0.001933,0.018647,0,0,0,0,6.2894e-12,1.4381e-11,0,0,0,0,0,-71.406,0.28172,0,-0.0073482,0,-21.438,63.46,1,1,3.205,3.205,-0.1,0
-0.0019346,0.018651,0,0,0,0,6.2801e-12,1.4556e-11,0,0,0,0,0,-71.383,0.28136,0,-0.0073697,0,-21.431,63.44,1,1,3.21,3.21,-0.1,0
-0.0019362,0.018655,0,0,0,0,6.252e-12,1.4687e-11,0,0,0,0,0,-71.361,0.28073,0,-0.0073525,0,-21.424,63.42,1,1,3.215,3.215,-0.1,0
-0.0019379,0.01866,0,0,0,0,6.2051e-12,1.4774e-11,0,0,0,0,0,-71.338,0.27983,0,-0.0072968,0,-21.418,63.4,1,1,3.22,3.22,-0.1,0
-0.0019395,0.018664,0,0,0,0,6.1395e-12,1.4816e-11,0,0,0,0,0,-71.316,0.27867,0,-0.0072026,0,-21.411,63.38,1,1,3.225,3.225,-0.1,0
-0.0019411,0.018668,0,0,0,0,6.0551e-12,1.4813e-11,0,0,0,0,0,-71.293,0.27724,0,-0.0070699,0,-21.404,63.36,1,1,3.23,3.23,-0.1,0
-0.0019427,0.018673,0,0,0,0,5.9519e-12,1.4765e-11,0,0,0,0,0,-71.271,0.27554,0,-0.0068986,0,-21.397,63.34,1,1,3.235,3.235,-0.1,0
-0.0019444,0.018677,0,0,0,0,5.8299e-12,1.4673e-11,0,0,0,0,0,-71.248,0.27358,0,-0.0066888,0,-21.39,63.32,1,1,3.24,3.24,-0.1,0
-0.001946,0.018681,0,0,0,0,5.6892e-12,1.4536e-11,0,0,0,0,0,-71.225,0.27135,0,-0.0064404,0,-21.383,63.3,1,1,3.245,3.245,-0.1,0
-0.0019476,0.018685,0,0,0,0,5.5297e-12,1.4355e-11,0,0,0,0,0,-71.203,0.26885,0,-0.0061535,0,-21.377,63.28,1,1,3.25,3.25,-0.1,0
-0.0019492,0.01869,0,0,0,0,5.3514e-12,1.4129e-11,0,0,0,0,0,-71.18,0.26609,0,-0.005828,0,-21.37,63.26,1,1,3.255,3.255,-0.1,0
-0.0019508,0.018694,0,0,0,0,5.1543e-12,1.3858e-11,0,0,0,0,0,-71.157,0.26306,0,-0.005464,0,-21.363,63.24,1,1,3.26,3.26,-0.1,0
-0.0019525,0.018698,0,0,0,0,4.9384e-12,1.3543e-11,0,0,0,0,0,-71.135,0.25976,0,-0.0050614,0,-21.356,63.22,1,1,3.265,3.265,-0.1,0
-0.0019541,0.018703,0,0,0,0,4.7037e-12,1.3183e-11,0,0,0,0,0,-71.112,0.25619,0,-0.0046202,0,-21.349,63.201,1,1,3.27,3.27,-0.1,0
-0.0019557,0.018707,0,0,0,0,4.4503e-12,1.2779e-11,0,0,0,0,0,-71.089,0.25236,0,-0.0041405,0,-21.342,63.181,1,1,3.275,3.275,-0.1,0
-0.0019573,0.018711,0,0,0,0,4.1781e-12,1.233e-11,0,0,0,0,0,-71.067,0.24827,0,-0.0036222,0,-21.335,63.161,1,1,3.28,3.28,-0.1,0
-0.0019589,0.018715,0,0,0,0,3.8871e-12,1.1836e-11,0,0,0,0,0,-71.044,0.2439,0,-0.0030652,0,-21.328,63.141,1,1,3.285,3.285,-0.1,0
-0.0019605,0.01872,0,0,0,0,3.5773e-12,1.1298e-11,0,0,0,0,0,-71.021,0.23927,0,-0.0024698,0,-21.321,63.121,1,1,3.29,3.29,-0.1,0
-0.0019622,0.018724,0,0,0,0,3.2487e-12,1.0715e-11,0,0,0,0,0,-70.998,0.23437,0,-0.0018356,0,-21.314,63.101,1,1,3.295,3.295,-0.1,0
-0.0019638,0.018728,0,0,0,0,2.9014e-12,1.0087e-11,0,0,0,0,0,-70.975,0.22921,0,-0.001163,0,-21.307,63.082,1,1,3.3,3.3,-0.1,0
-0.0019654,0.018732,0,0,0,0,2.5352e-12,9.4152e-12,0,0,0,0,0,-70.953,0.22378,0,-0.00045164,0,-21.3,63.062,1,1,3.305,3.305,-0.1,0
-0.001967,0.018736,0,0,0,0,2.1503e-12,8.6986e-12,0,0,0,0,0,-70.93,0.21808,0,0.00029825,0,-21.293,63.042,1,1,3.31,3.31,-0.1,0
-0.0019686,0.018741,0,0,0,0,1.7466e-12,7.9374e-12,0,0,0,0,0,-70.907,0.21211,0,0.0010868,0,-21.286,63.022,1,1,3.315,3.315,-0.1,0
-0.0019702,0.018745,0,0,0,0,1.3241e-12,7.1316e-12,0,0,0,0,0,-70.884,0.20588,0,0.0019139,0,-21.278,63.003,1,1,3.32,3.32,-0.1,0
-0.0019718,0.018749,0,0,0,0,8.8278e-13,6.2813e-12,0,0,0,0,0,-70.861,0.19938,0,0.0027797,0,-21.271,62.983,1,1,3.325,3.325,-0.1,0
-0.0019734,0.018753,0,0,0,0,8.8709e-13,5.9323e-12,0,0,0,0,0,-70.841,0.2,0,0.002674,0,-21.265,62.965,1,1,3.33,3.33,-0.1,0
-0.0019751,0.018758,0,0,0,0,1.142e-12,5.8893e-12,0,0,0,0,0,-70.822,0.20457,0,0.0020269,0,-21.26,62.947,1,1,3.335,3.335,-0.1,0
-0.0019767,0.018762,0,0,0,0,1.3863e-12,5.8527e-12,0,0,0,0,0,-70.802,0.20892,0,0.0014081,0,-21.254,62.93,1,1,3.34,3.34,-0.1,0
-0.0019783,0.018766,0,0,0,0,1.62e-12,5.8224e-12,0,0,0,0,0,-70.783,0.21306,0,0.00081751,0,-21.248,62.912,1,1,3.345,3.345,-0.1,0
-0.0019799,0.01877,0,0,0,0,1.843e-12,5.7985e-12,0,0,0,0,0,-70.764,0.21699,0,0.00025517,0,-21.243,62.895,1,1,3.35,3.35,-0.1,0
-0.0019815,0.018774,0,0,0,0,2.0553e-12,5.7808e-12,0,0,0,0,0,-70.745,0.2207,0,-0.00027895,0,-21.237,62.877,1,1,3.355,3.355,-0.1,0
-0.0019831,0.018779,0,0,0,0,2.2571e-12,5.7696e-12,0,0,0,0,0,-70.726,0.2242,0,-0.0007848,0,-21.232,62.86,1,1,3.36,3.36,-0.1,0
-0.0019847,0.018783,0,0,0,0,2.4481e-12,5.7646e-12,0,0,0,0,0,-70.707,0.22748,0,-0.0012624,0,-21.226,62.842,1,1,3.365,3.365,-0.1,0
-0.0019863,0.018787,0,0,0,0,2.6286e-12,5.766e-12,0,0,0,0,0,-70.687,0.23054,0,-0.0017117,0,-21.22,62.825,1,1,3.37,3.37,-0.1,0
-0.0019879,0.018791,0,0,0,0,2.7984e-12,5.7738e-12,0,0,0,0,0,-70.668,0.23339,0,-0.0021328,0,-21.215,62.808,1,1,3.375,3.375,-0.1,0
-0.0019895,0.018795,0,0,0,0,2.9575e-12,5.7879e-12,0,0,0,0,0,-70.649,0.23603,0,-0.0025257,0,-21.209,62.79,1,1,3.38,3.38,-0.1,0
-0.0019911,0.018799,0,0,0,0,3.106e-12,5.8083e-12,0,0,0,0,0,-70.63,0.23845,0,-0.0028902,0,-21.203,62.773,1,1,3.385,3.385,-0.1,0
-0.0019928,0.018804,0,0,0,0,3.2439e-12,5.8351e-12,0,0,0,0,0,-70.61,0.24066,0,-0.0032265,0,-21.198,62.756,1,1,3.39,3.39,-0.1,0
-0.0019944,0.018808,0,0,0,0,3.3711e-12,5.8682e-12,0,0,0,0,0,-70.591,0.24265,0,-0.0035345,0,-21.192,62.738,1,1,3.395,3.395,-0.1,0
-0.001996,0.018812,0,0,0,0,3.4877e-12,5.9077e-12,0,0,0,0,0,-70.572,0.24443,0,-0.0038142,0,-21.186,62.721,1,1,3.4,3.4,-0.1,0
-0.0019976,0.018816,0,0,0,0,3.5937e-12,5.9536e-12,0,0,0,0,0,-70.552,0.24599,0,-0.0040656,0,-21.181,62.703,1,1,3.405,3.405,-0.1,0
-0.0019992,0.01882,0,0,0,0,3.689e-12,6.0058e-12,0,0,0,0,0,-70.533,0.24734,0,-0.0042888,0,-21.175,62.686,1,1,3.41,3.41,-0.1,0
-0.0020008,0.018824,0,0,0,0,3.7736e-12,6.0643e-12,0,0,0,0,0,-70.514,0.24848,0,-0.0044836,0,-21.169,62.669,1,1,3.415,3.415,-0.1,0
-0.0020024,0.018828,0,0,0,0,3.8477e-12,6.1292e-12,0,0,0,0,0,-70.494,0.2494,0,-0.0046502,0,-21.163,62.651,1,1,3.42,3.42,-0.1,0
-0.002004,0.018833,0,0,0,0,3.911e-12,6.2004e-12,0,0,0,0,0,-70.475,0.2501,0,-0.0047885,0,-21.158,62.634,1,1,3.425,3.425,-0.1,0
-0.0020056,0.018837,0,0,0,0,3.9638e-12,6.278e-12,0,0,0,0,0,-70.456,0.25059,0,-0.0048984,0,-21.152,62.617,1,1,3.43,3.43,-0.1,0
-0.0020072,0.018841,0,0,0,0,4.0059e-12,6.3619e-12,0,0,0,0,0,-70.436,0.25087,0,-0.0049801,0,-21.146,62.6,1,1,3.435,3.435,-0.1,0
-0.0020088,0.018845,0,0,0,0,4.0373e-12,6.4522e-12,0,0,0,0,0,-70.417,0.25093,0,-0.0050335,0,-21.14,62.582,1,1,3.44,3.44,-0.1,0
-0.0020104,0.018849,0,0,0,0,4.0582e-12,6.5489e-12,0,0,0,0,0,-70.397,0.25077,0,-0.0050585,0,-21.134,62.565,1,1,3.445,3.445,-0.1,0
-0.002012,0.018853,0,0,0,0,4.0683e-12,6.6519e-12,0,0,0,0,0,-70.378,0.2504,0,-0.0050552,0,-21.128,62.548,1,1,3.45,3.45,-0.1,0
-0.0020136,0.018857,0,0,0,0,4.0679e-12,6.7612e-12,0,0,0,0,0,-70.359,0.24982,0,-0.0050236,0,-21.123,62.531,1,1,3.455,3.455,-0.1,0
-0.0020152,0.018861,0,0,0,0,4.0568e-12,6.877e-12,0,0,0,0,0,-70.339,0.24902,0,-0.0049636,0,-21.117,62.513,1,1,3.46,3.46,-0.1,0
-0.0020168,0.018866,0,0,0,0,4.035e-12,6.999e-12,0,0,0,0,0,-70.32,0.24801,0,-0.0048753,0,-21.111,62.496,1,1,3.465,3.465,-0.1,0
-0.0020184,0.01887,0,0,0,0,4.0026e-12,7.1275e-12,0,0,0,0,0,-70.3,0.24678,0,-0.0047587,0,-21.105,62.479,1,1,3.47,3.47,-0.1,0
-0.00202,0.018874,0,0,0,0,3.9596e-12,7.2623e-12,0,0,0,0,0,-70.281,0.24533,0,-0.0046138,0,-21.099,62.462,1,1,3.475,3.475,-0.1,0
-0.0020216,0.018878,0,0,0,0,3.9059e-12,7.4034e-12,0,0,0,0,0,-70.261,0.24368,0,-0.0044405,0,-21.093,62.444,1,1,3.48,3.48,-0.1,0
-0.0020232,0.018882,0,0,0,0,3.8416e-12,7.5509e-12,0,0,0,0,0,-70.242,0.2418,0,-0.0042389,0,-21.087,62.427,1,1,3.485,3.485,-0.1,0
-0.0020248,0.018886,0,0,0,0,3.7667e-12,7.7048e-12,0,0,0,0,0,-70.222,0.23972,0,-0.0040089,0,-21.081,62.41,1,1,3.49,3.49,-0.1,0
-0.0020264,0.01889,0,0,0,0,3.6811e-12,7.8651e-12,0,0,0,0,0,-70.203,0.23741,0,-0.0037506,0,-21.075,62.393,1,1,3.495,3.495,-0.1,0
-0.002028,0.018894,0,0,0,0,3.5849e-12,8.0317e-12,0,0,0,0,0,-70.183,0.2349,0,-0.003464,0,-21.069,62.376,1,1,3.5,3.5,-0.1,0
-0.0020296,0.018898,0,0,0,0,3.478e-12,8.2047e-12,0,0,0,0,0,-70.163,0.23217,0,-0.0031489,0,-21.063,62.358,1,1,3.505,3.505,-0.1,0
-0.0020312,0.018902,0,0,0,0,3.3605e-12,8.384e-12,0,0,0,0,0,-70.144,0.22922,0,-0.0028056,0,-21.057,62.341,1,1,3.51,3.51,-0.1,0
-0.0020328,0.018906,0,0,0,0,3.2323e-12,8.5697e-12,0,0,0,0,0,-70.124,0.22606,0,-0.0024338,0,-21.051,62.324,1,1,3.515,3.515,-0.1,0
-0.0020344,0.01891,0,0,0,0,3.0936e-12,8.7618e-12,0,0,0,0,0,-70.105,0.22268,0,-0.0020337,0,-21.045,62.307,1,1,3.52,3.52,-0.1,0
-0.002036,0.018914,0,0,0,0,2.9441e-12,8.9602e-12,0,0,0,0,0,-70.085,0.21909,0,-0.0016053,0,-21.039,62.29,1,1,3.525,3.525,-0.1,0
-0.0020376,0.018919,0,0,0,0,2.7841e-12,9.165e-12,0,0,0,0,0,-70.065,0.21529,0,-0.0011484,0,-21.033,62.273,1,1,3.53,3.53,-0.1,0
-0.0020391,0.018923,0,0,0,0,2.6134e-12,9.3762e-12,0,0,0,0,0,-70.046,0.21127,0,-0.00066322,0,-21.027,62.256,1,1,3.535,3.535,-0.1,0
-0.0020407,0.018927,0,0,0,0,2.432e-12,9.5937e-12,0,0,0,0,0,-70.026,0.20704,0,-0.00014963,0,-21.021,62.238,1,1,3.54,3.54,-0.1,0
-0.0020423,0.018931,0,0,0,0,2.2401e-12,9.8177e-12,0,0,0,0,0,-70.006,0.20259,0,0.00039235,0,-21.015,62.221,1,1,3.545,3.545,-0.1,0
-0.0020439,0.018935,0,0,0,0,2.0374e-12,1.0048e-11,0,0,0,0,0,-69.987,0.19792,0,0.0009627,0,-21.009,62.204,1,1,3.55,3.55,-0.1,0
-0.0020455,0.018939,0,0,0,0,1.8242e-12,1.0285e-11,0,0,0,0,0,-69.967,0.19305,0,0.0015615,0,-21.003,62.187,1,1,3.555,3.555,-0.1,0
-0.0020471,0.018943,0,0,0,0,1.6003e-12,1.0528e-11,0,0,0,0,0,-69.947,0.18795,0,0.0021886,0,-20.997,62.17,1,1,3.56,3.56,-0.1,0
-0.0020487,0.018947,0,0,0,0,1.3658e-12,1.0777e-11,0,0,0,0,0,-69.928,0.18264,0,0.0028442,0,-20.991,62.153,1,1,3.565,3.565,-0.1,0
-0.0020503,0.018951,0,0,0,0,1.4488e-12,1.0419e-11,0,0,0,0,0,-69.91,0.18367,0,0.0027099,0,-20.985,62.137,1,1,3.57,3.57,-0.1,0
-0.0020519,0.018955,0,0,0,0,1.6741e-12,9.7916e-12,0,0,0,0,0,-69.893,0.18755,0,0.0022166,0,-20.981,62.122,1,1,3.575,3.575,-0.1,0
-0.0020535,0.018959,0,0,0,0,1.8887e-12,9.1839e-12,0,0,0,0,0,-69.876,0.19127,0,0.0017442,0,-20.976,62.106,1,1,3.58,3.58,-0.1,0
-0.0020551,0.018963,0,0,0,0,2.0926e-12,8.5954e-12,0,0,0,0,0,-69.859,0.19481,0,0.0012926,0,-20.971,62.091,1,1,3.585,3.585,-0.1,0
-0.0020566,0.018967,0,0,0,0,2.2859e-12,8.0262e-12,0,0,0,0,0,-69.842,0.19817,0,0.00086195,0,-20.966,62.076,1,1,3.59,3.59,-0.1,0
-0.0020582,0.018971,0,0,0,0,2.4684e-12,7.4764e-12,0,0,0,0,0,-69.825,0.20137,0,0.00045211,0,-20.961,62.06,1,1,3.595,3.595,-0.1,0
-0.0020598,0.018975,0,0,0,0,2.6402e-12,6.9459e-12,0,0,0,0,0,-69.808,0.20438,0,6.3166e-05,0,-20.956,62.045,1,1,3.6,3.6,-0.1,0
-0.0020614,0.018979,0,0,0,0,2.8014e-12,6.4347e-12,0,0,0,0,0,-69.791,0.20723,0,-0.00030492,0,-20.951,62.03,1,1,3.605,3.605,-0.1,0
-0.002063,0.018983,0,0,0,0,2.9518e-12,5.9428e-12,0,0,0,0,0,-69.774,0.2099,0,-0.00065212,0,-20.946,62.014,1,1,3.61,3.61,-0.1,0
-0.0020646,0.018987,0,0,0,0,3.0916e-12,5.4702e-12,0,0,0,0,0,-69.757,0.21239,0,-0.00097845,0,-20.941,61.999,1,1,3.615,3.615,-0.1,0
-0.0020662,0.018991,0,0,0,0,3.2207e-12,5.017e-12,0,0,0,0,0,-69.74,0.21471,0,-0.0012839,0,-20.936,61.984,1,1,3.62,3.62,-0.1,0
-0.0020678,0.018995,0,0,0,0,3.3391e-12,4.5831e-12,0,0,0,0,0,-69.723,0.21686,0,-0.0015684,0,-20.931,61.968,1,1,3.625,3.625,-0.1,0
-0.0020693,0.018999,0,0,0,0,3.4468e-12,4.1685e-12,0,0,0,0,0,-69.706,0.21883,0,-0.0018321,0,-20.926,61.953,1,1,3.63,3.63,-0.1,0
-0.0020709,0.019003,0,0,0,0,3.5438e-12,3.7733e-12,0,0,0,0,0,-69.689,0.22063,0,-0.0020749,0,-20.921,61.938,1,1,3.635,3.635,-0.1,0
-0.0020725,0.019007,0,0,0,0,3.6301e-12,3.3974e-12,0,0,0,0,0,-69.672,0.22225,0,-0.0022968,0,-20.916,61.922,1,1,3.64,3.64,-0.1,0
-0.0020741,0.019011,0,0,0,0,3.7057e-12,3.0408e-12,0,0,0,0,0,-69.655,0.2237,0,-0.0024977,0,-20.911,61.907,1,1,3.645,3.645,-0.1,0
-0.0020757,0.019015,0,0,0,0,3.7706e-12,2.7035e-12,0,0,0,0,0,-69.638,0.22498,0,-0.0026778,0,-20.906,61.892,1,1,3.65,3.65,-0.1,0
-0.0020773,0.019019,0,0,0,0,3.8248e-12,2.3856e-12,0,0,0,0,0,-69.621,0.22608,0,-0.002837,0,-20.9,61.877,1,1,3.655,3.655,-0.1,0
-0.0020789,0.019023,0,0,0,0,3.8684e-12,2.087e-12,0,0,0,0,0,-69.604,0.227,0,-0.0029753,0,-20.895,61.861,1,1,3.66,3.66,-0.1,0
-0.0020804,0.019027,0,0,0,0,3.9012e-12,1.8077e-12,0,0,0,0,0,-69.587,0.22776,0,-0.0030927,0,-20.89,61.846,1,1,3.665,3.665,-0.1,0
-0.002082,0.019031,0,0,0,0,3.9234e-12,1.5478e-12,0,0,0,0,0,-69.57,0.22834,0,-0.0031891,0,-20.885,61.831,1,1,3.67,3.67,-0.1,0
-0.0020836,0.019035,0,0,0,0,3.9348e-12,1.3072e-12,0,0,0,0,0,-69.553,0.22874,0,-0.0032647,0,-20.88,61.816,1,1,3.675,3.675,-0.1,0
-0.0020852,0.019038,0,0,0,0,3.9356e-12,1.0859e-12,0,0,0,0,0,-69.536,0.22897,0,-0.0033193,0,-20.875,61.8,1,1,3.68,3.68,-0.1,0
-0.0020868,0.019042,0,0,0,0,3.9257e-12,8.8392e-13,0,0,0,0,0,-69.519,0.22903,0,-0.003353,0,-20.87,61.785,1,1,3.685,3.685,-0.1,0
-0.0020883,0.019046,0,0,0,0,3.9051e-12,7.013e-13,0,0,0,0,0,-69.502,0.22891,0,-0.0033658,0,-20.865,61.77,1,1,3.69,3.69,-0.1,0
-0.0020899,0.01905,0,0,0,0,3.8738e-12,5.3802e-13,0,0,0,0,0,-69.484,0.22861,0,-0.0033577,0,-20.86,61.755,1,1,3.695,3.695,-0.1,0
-0.0020915,0.019054,0,0,0,0,3.8318e-12,3.9407e-13,0,0,0,0,0,-69.467,0.22815,0,-0.0033286,0,-20.854,61.74,1,1,3.7,3.7,-0.1,0
-0.0020931,0.019058,0,0,0,0,3.7791e-12,2.6946e-13,0,0,0,0,0,-69.45,0.22751,0,-0.0032786,0,-20.849,61.724,1,1,3.705,3.705,-0.1,0
-0.0020947,0.019062,0,0,0,0,3.7157e-12,1.6418e-13,0,0,0,0,0,-69.433,0.22669,0,-0.0032077,0,-20.844,61.709,1,1,3.71,3.71,-0.1,0
-0.0020962,0.019066,0,0,0,0,3.6416e-12,7.8238e-14,0,0,0,0,0,-69.416,0.2257,0,-0.0031158,0,-20.839,61.694,1,1,3.715,3.715,-0.1,0
-0.0020978,0.01907,0,0,0,0,3.5568e-12,1.163e-14,0,0,0,0,0,-69.399,0.22454,0,-0.003003,0,-20.834,61.679,1,1,3.72,3.72,-0.1,0
-0.0020994,0.019074,0,0,0,0,3.4614e-12,-3.5637e-14,0,0,0,0,0,-69.382,0.2232,0,-0.0028693,0,-20.828,61.664,1,1,3.725,3.725,-0.1,0
-0.002101,0.019078,0,0,0,0,3.3552e-12,-6.3568e-14,0,0,0,0,0,-69.364,0.22169,0,-0.0027146,0,-20.823,61.648,1,1,3.73,3.73,-0.1,0
-0.0021026,0.019082,0,0,0,0,3.2384e-12,-7.216e-14,0,0,0,0,0,-69.347,0.22,0,-0.002539,0,-20.818,61.633,1,1,3.735,3.735,-0.1,0
-0.0021041,0.019086,0,0,0,0,3.1108e-12,-6.1412e-14,0,0,0,0,0,-69.33,0.21814,0,-0.0023424,0,-20.813,61.618,1,1,3.74,3.74,-0.1,0
-0.0021057,0.01909,0,0,0,0,2.9726e-12,-3.1325e-14,0,0,0,0,0,-69.313,0.2161,0,-0.0021249,0,-20.808,61.603,1,1,3.745,3.745,-0.1,0
-0.0021073,0.019093,0,0,0,0,2.8236e-12,1.8105e-14,0,0,0,0,0,-69.295,0.21389,0,-0.0018865,0,-20.802,61.588,1,1,3.75,3.75,-0.1,0
-0.0021089,0.019097,0,0,0,0,2.664e-12,8.6877e-14,0,0,0,0,0,-69.278,0.21151,0,-0.001627,0,-20.797,61.573,1,1,3.755,3.755,-0.1,0
-0.0021104,0.019101,0,0,0,0,2.4937e-12,1.7499e-13,0,0,0,0,0,-69.261,0.20895,0,-0.0013467,0,-20.792,61.558,1,1,3.76,3.76,-0.1,0
-0.002112,0.019105,0,0,0,0,2.3127e-12,2.8244e-13,0,0,0,0,0,-69.244,0.20622,0,-0.0010453,0,-20.787,61.542,1,1,3.765,3.765,-0.1,0
-0.0021136,0.019109,0,0,0,0,2.121e-12,4.0924e-13,0,0,0,0,0,-69.226,0.20332,0,-0.00072306,0,-20.781,61.527,1,1,3.77,3.77,-0.1,0
-0.0021152,0.019113,0,0,0,0,1.9186e-12,5.5539e-13,0,0,0,0,0,-69.209,0.20023,0,-0.00037979,0,-20.776,61.512,1,1,3.775,3.775,-0.1,0
-0.0021167,0.019117,0,0,0,0,1.7055e-12,7.2087e-13,0,0,0,0,0,-69.192,0.19698,0,-1.558e-05,0,-20.771,61.497,1,1,3.78,3.78,-0.1,0
-0.0021183,0.019121,0,0,0,0,1.4817e-12,9.057e-13,0,0,0,0,0,-69.175,0.19355,0,0.00036962,0,-20.765,61.482,1,1,3.785,3.785,-0.1,0
-0.0021199,0.019125,0,0,0,0,1.2472e-12,1.1099e-12,0,0,0,0,0,-69.157,0.18995,0,0.00077577,0,-20.76,61.467,1,1,3.79,3.79,-0.1,0
-0.0021215,0.019128,0,0,0,0,1.002e-12,1.3334e-12,0,0,0,0,0,-69.14,0.18617,0,0.0012029,0,-20.755,61.452,1,1,3.795,3.795,-0.1,0
-0.002123,0.019132,0,0,0,0,7.4616e-13,1.5763e-12,0,0,0,0,0,-69.123,0.18222,0,0.001651,0,-20.749,61.437,1,1,3.8,3.8,-0.1,0
-0.0021246,0.019136,0,0,0,0,4.7959e-13,1.8385e-12,0,0,0,0,0,-69.105,0.17809,0,0.0021201,0,-20.744,61.422,1,1,3.805,3.805,-0.1,0
-0.0021262,0.01914,0,0,0,0,2.0234e-13,2.1201e-12,0,0,0,0,0,-69.088,0.17379,0,0.0026102,0,-20.739,61.407,1,1,3.81,3.81,-0.1,0
-0.0021277,0.019144,0,0,0,0,3.1086e-14,2.3068e-12,0,0,0,0,0,-69.071,0.17194,0,0.0028234,0,-20.734,61.392,1,1,3.815,3.815,-0.1,0
-0.0021293,0.019148,0,0,0,0,9.5378e-14,2.2693e-12,0,0,0,0,0,-69.056,0.17532,0,0.0024405,0,-20.729,61.378,1,1,3.82,3.82,-0.1,0
-0.0021309,0.019152,0,0,0,0,1.5785e-13,2.2383e-12,0,0,0,0,0,-69.041,0.17856,0,0.0020731,0,-20.725,61.364,1,1,3.825,3.825,-0.1,0
-0.0021325,0.019156,0,0,0,0,2.1849e-13,2.2139e-12,0,0,0,0,0,-69.026,0.18166,0,0.0017212,0,-20.72,61.351,1,1,3.83,3.83,-0.1,0
-0.002134,0.019159,0,0,0,0,2.7731e-13,2.1961e-12,0,0,0,0,0,-69.01,0.18462,0,0.0013847,0,-20.716,61.337,1,1,3.835,3.835,-0.1,0
-0.0021356,0.019163,0,0,0,0,3.343e-13,2.1848e-12,0,0,0,0,0,-68.995,0.18744,0,0.0010636,0,-20.711,61.323,1,1,3.84,3.84,-0.1,0
-0.0021372,0.019167,0,0,0,0,3.8946e-13,2.18e-12,0,0,0,0,0,-68.98,0.19011,0,0.00075802,0,-20.707,61.309,1,1,3.845,3.845,-0.1,0
-0.0021387,0.019171,0,0,0,0,4.4279e-13,2.1818e-12,0,0,0,0,0,-68.965,0.19264,0,0.00046791,0,-20.702,61.295,1,1,3.85,3.85,-0.1,0
-0.0021403,0.019175,0,0,0,0,4.9429e-13,2.1901e-12,0,0,0,0,0,-68.949,0.19503,0,0.00019324,0,-20.698,61.282,1,1,3.855,3.855,-0.1,0
-0.0021419,0.019179,0,0,0,0,5.4396e-13,2.205e-12,0,0,0,0,0,-68.934,0.19727,0,-6.5951e-05,0,-20.693,61.268,1,1,3.86,3.86,-0.1,0
-0.0021434,0.019182,0,0,0,0,5.9181e-13,2.2264e-12,0,0,0,0,0,-68.919,0.19937,0,-0.00030968,0,-20.689,61.254,1,1,3.865,3.865,-0.1,0
-0.002145,0.019186,0,0,0,0,6.3781e-13,2.2544e-12,0,0,0,0,0,-68.904,0.20133,0,-0.00053794,0,-20.684,61.24,1,1,3.87,3.87,-0.1,0
-0.0021466,0.01919,0,0,0,0,6.8199e-13,2.2889e-12,0,0,0,0,0,-68.888,0.20315,0,-0.00075073,0,-20.68,61.227,1,1,3.875,3.875,-0.1,0
-0.0021481,0.019194,0,0,0,0,7.2433e-13,2.33e-12,0,0,0,0,0,-68.873,0.20483,0,-0.00094805,0,-20.675,61.213,1,1,3.88,3.88,-0.1,0
-0.0021497,0.019198,0,0,0,0,7.6484e-13,2.3776e-12,0,0,0,0,0,-68.858,0.20636,0,-0.0011299,0,-20.671,61.199,1,1,3.885,3.885,-0.1,0
-0.0021513,0.019202,0,0,0,0,8.0351e-13,2.4317e-12,0,0,0,0,0,-68.842,0.20775,0,-0.0012962,0,-20.666,61.186,1,1,3.89,3.89,-0.1,0
-0.0021528,0.019205,0,0,0,0,8.4035e-13,2.4924e-12,0,0,0,0,0,-68.827,0.209,0,-0.0014471,0,-20.661,61.172,1,1,3.895,3.895,-0.1,0
-0.0021544,0.019209,0,0,0,0,8.7535e-13,2.5597e-12,0,0,0,0,0,-68.812,0.2101,0,-0.0015825,0,-20.657,61.158,1,1,3.9,3.9,-0.1,0
-0.002156,0.019213,0,0,0,0,9.0851e-13,2.6335e-12,0,0,0,0,0,-68.796,0.21107,0,-0.0017024,0,-20.652,61.144,1,1,3.905,3.905,-0.1,0
-0.0021575,0.019217,0,0,0,0,9.3983e-13,2.7138e-12,0,0,0,0,0,-68.781,0.21189,0,-0.0018069,0,-20.648,61.131,1,1,3.91,3.91,-0.1,0
-0.0021591,0.019221,0,0,0,0,9.6932e-13,2.8006e-12,0,0,0,0,0,-68.766,0.21257,0,-0.0018958,0,-20.643,61.117,1,1,3.915,3.915,-0.1,0
-0.0021607,0.019224,0,0,0,0,9.9696e-13,2.8941e-12,0,0,0,0,0,-68.75,0.2131,0,-0.0019693,0,-20.639,61.103,1,1,3.92,3.92,-0.1,0
-0.0021622,0.019228,0,0,0,0,1.0228e-12,2.994e-12,0,0,0,0,0,-68.735,0.2135,0,-0.0020273,0,-20.634,61.09,1,1,3.925,3.925,-0.1,0
-0.0021638,0.019232,0,0,0,0,1.0467e-12,3.1005e-12,0,0,0,0,0,-68.72,0.21375,0,-0.0020697,0,-20.629,61.076,1,1,3.93,3.93,-0.1,0
-0.0021654,0.019236,0,0,0,0,1.0688e-12,3.2135e-12,0,0,0,0,0,-68.704,0.21386,0,-0.0020967,0,-20.625,61.062,1,1,3.935,3.935,-0.1,0
-0.0021669,0.01924,0,0,0,0,1.0891e-12,3.3331e-12,0,0,0,0,0,-68.689,0.21383,0,-0.0021082,0,-20.62,61.049,1,1,3.94,3.94,-0.1,0
-0.0021685,0.019243,0,0,0,0,1.1075e-12,3.4592e-12,0,0,0,0,0,-68.673,0.21365,0,-0.0021042,0,-20.616,61.035,1,1,3.945,3.945,-0.1,0
-0.00217,0.019247,0,0,0,0,1.1241e-12,3.5919e-12,0,0,0,0,0,-68.658,0.21333,0,-0.0020846,0,-20.611,61.021,1,1,3.95,3.95,-0.1,0
-0.0021716,0.019251,0,0,0,0,1.1389e-12,3.731e-12,0,0,0,0,0,-68.643,0.21287,0,-0.0020496,0,-20.606,61.008,1,1,3.955,3.955,-0.1,0
-0.0021732,0.019255,0,0,0,0,1.1518e-12,3.8767e-12,0,0,0,0,0,-68.627,0.21227,0,-0.0019991,0,-20.602,60.994,1,1,3.96,3.96,-0.1,0
-0.0021747,0.019259,0,0,0,0,1.1628e-12,4.029e-12,0,0,0,0,0,-68.612,0.21152,0,-0.001933,0,-20.597,60.98,1,1,3.965,3.965,-0.1,0
-0.0021763,0.019262,0,0,0,0,1.172e-12,4.1878e-12,0,0,0,0,0,-68.596,0.21064,0,-0.0018515,0,-20.592,60.967,1,1,3.97,3.97,-0.1,0
-0.0021779,0.019266,0,0,0,0,1.1793e-12,4.3531e-12,0,0,0,0,0,-68.581,0.20961,0,-0.0017544,0,-20.588,60.953,1,1,3.975,3.975,-0.1,0
-0.0021794,0.01927,0,0,0,0,1.1848e-12,4.525e-12,0,0,0,0,0,-68.566,0.20843,0,-0.0016418,0,-20.583,60.939,1,1,3.98,3.98,-0.1,0
-0.002181,0.019274,0,0,0,0,1.1885e-12,4.7034e-12,0,0,0,0,0,-68.55,0.20712,0,-0.0015138,0,-20.578,60.926,1,1,3.985,3.985,-0.1,0
-0.0021825,0.019277,0,0,0,0,1.1903e-12,4.8883e-12,0,0,0,0,0,-68.535,0.20566,0,-0.0013702,0,-20.574,60.912,1,1,3.99,3.99,-0.1,0
-0.0021841,0.019281,0,0,0,0,1.1902e-12,5.0798e-12,0,0,0,0,0,-68.519,0.20406,0,-0.001211,0,-20.569,60.898,1,1,3.995,3.995,-0.1,0
-0.0021857,0.019285,0,0,0,0,1.1883e-12,5.2778e-12,0,0,0,0,0,-68.504,0.20232,0,-0.0010364,0,-20.564,60.885,1,1,4,4,-0.1,0
-0.0021872,0.019289,0,0,0,0,1.1846e-12,5.4823e-12,0,0,0,0,0,-68.488,0.20043,0,-0.00084624,0,-20.56,60.871,1,1,4.005,4.005,-0.1,0
-0.0021888,0.019293,0,0,0,0,1.1789e-12,5.6934e-12,0,0,0,0,0,-68.473,0.19841,0,-0.00064055,0,-20.555,60.858,1,1,4.01,4.01,-0.1,0
-0.0021903,0.019296,0,0,0,0,1.1715e-12,5.911e-12,0,0,0,0,0,-68.457,0.19624,0,-0.00041936,0,-20.55,60.844,1,1,4.015,4.015,-0.1,0
-0.0021919,0.0193,0,0,0,0,1.1621e-12,6.1352e-12,0,0,0,0,0,-68.442,0.19393,0,-0.00018262,0,-20.545,60.83,1,1,4.02,4.02,-0.1,0
-0.0021934,0.019304,0,0,0,0,1.151e-12,6.3658e-12,0,0,0,0,0,-68.426,0.19147,0,6.9644e-05,0,-20.541,60.817,1,1,4.025,4.025,-0.1,0
-0.002195,0.019308,0,0,0,0,1.1379e-12,6.603e-12,0,0,0,0,0,-68.411,0.18888,0,0.00033744,0,-20.536,60.803,1,1,4.03,4.03,-0.1,0
-0.0021966,0.019311,0,0,0,0,1.123e-12,6.8468e-12,0,0,0,0,0,-68.395,0.18614,0,0.00062075,0,-20.531,60.79,1,1,4.035,4.035,-0.1,0
-0.0021981,0.019315,0,0,0,0,1.1063e-12,7.097e-12,0,0,0,0,0,-68.38,0.18326,0,0.00091962,0,-20.526,60.776,1,1,4.04,4.04,-0.1,0
-0.0021997,0.019319,0,0,0,0,1.0876e-12,7.3538e-12,0,0,0,0,0,-68.364,0.18023,0,0.001234,0,-20.522,60.762,1,1,4.045,4.045,-0.1,0
-0.0022012,0.019322,0,0,0,0,1.0672e-12,7.6172e-12,0,0,0,0,0,-68.349,0.17707,0,0.001564,0,-20.517,60.749,1,1,4.05,4.05,-0.1,0
-0.0022028,0.019326,0,0,0,0,1.0448e-12,7.887e-12,0,0,0,0,0,-68.333,0.17376,0,0.0019094,0,-20.512,60.735,1,1,4.055,4.055,-0.1,0
-0.0022043,0.01933,0,0,0,0,1.0206e-12,8.1634e-12,0,0,0,0,0,-68.318,0.17031,0,0.0022704,0,-20.507,60.722,1,1,4.06,4.06,-0.1,0
-0.0022059,0.019334,0,0,0,0,9.9454e-13,8.4463e-12,0,0,0,0,0,-68.302,0.16671,0,0.002647,0,-20.503,60.708,1,1,4.065,4.065,-0.1,0
-0.0022074,0.019337,0,0,0,0,9.6805e-13,8.1698e-12,0,0,0,0,0,-68.287,0.16684,0,0.0026417,0,-20.498,60.695,1,1,4.07,4.07,-0.1,0
-0.002209,0.019341,0,0,0,0,9.4176e-13,7.5018e-12,0,0,0,0,0,-68.273,0.16972,0,0.0023521,0,-20.494,60.683,1,1,4.075,4.075,-0.1,0
-0.0022105,0.019345,0,0,0,0,9.1487e-13,6.8712e-12,0,0,0,0,0,-68.26,0.17249,0,0.0020739,0,-20.49,60.67,1,1,4.08,4.08,-0.1,0
-0.0022121,0.019349,0,0,0,0,8.8737e-13,6.278e-12,0,0,0,0,0,-68.246,0.17514,0,0.0018071,0,-20.486,60.657,1,1,4.085,4.085,-0.1,0
-0.0022136,0.019352,0,0,0,0,8.5928e-13,5.7221e-12,0,0,0,0,0,-68.232,0.17767,0,0.0015517,0,-20.482,60.645,1,1,4.09,4.09,-0.1,0
-0.0022152,0.019356,0,0,0,0,8.3058e-13,5.2038e-12,0,0,0,0,0,-68.218,0.18009,0,0.0013079,0,-20.478,60.632,1,1,4.095,4.095,-0.1,0
-0.0022168,0.01936,0,0,0,0,8.0127e-13,4.7228e-12,0,0,0,0,0,-68.204,0.18239,0,0.0010754,0,-20.473,60.62,1,1,4.1,4.1,-0.1,0
-0.0022183,0.019363,0,0,0,0,7.7137e-13,4.2792e-12,0,0,0,0,0,-68.19,0.18457,0,0.00085446,0,-20.469,60.607,1,1,4.105,4.105,-0.1,0
-0.0022199,0.019367,0,0,0,0,7.4085e-13,3.873e-12,0,0,0,0,0,-68.176,0.18664,0,0.00064493,0,-20.465,60.594,1,1,4.11,4.11,-0.1,0
-0.0022214,0.019371,0,0,0,0,7.0974e-13,3.5042e-12,0,0,0,0,0,-68.162,0.18858,0,0.00044687,0,-20.461,60.582,1,1,4.115,4.115,-0.1,0
-0.002223,0.019375,0,0,0,0,6.7802e-13,3.1728e-12,0,0,0,0,0,-68.148,0.19041,0,0.00026024,0,-20.457,60.569,1,1,4.12,4.12,-0.1,0
-0.0022245,0.019378,0,0,0,0,6.4569e-13,2.8787e-12,0,0,0,0,0,-68.134,0.19213,0,8.5071e-05,0,-20.453,60.557,1,1,4.125,4.125,-0.1,0
-0.0022261,0.019382,0,0,0,0,6.1276e-13,2.6221e-12,0,0,0,0,0,-68.12,0.19372,0,-7.8642e-05,0,-20.449,60.544,1,1,4.13,4.13,-0.1,0
-0.0022276,0.019386,0,0,0,0,5.7923e-13,2.4028e-12,0,0,0,0,0,-68.106,0.1952,0,-0.0002309,0,-20.444,60.532,1,1,4.135,4.135,-0.1,0
-0.0022292,0.019389,0,0,0,0,5.4509e-13,2.2209e-12,0,0,0,0,0,-68.092,0.19657,0,-0.00037168,0,-20.44,60.519,1,1,4.14,4.14,-0.1,0
-0.0022307,0.019393,0,0,0,0,5.1034e-13,2.0763e-12,0,0,0,0,0,-68.078,0.19781,0,-0.00050101,0,-20.436,60.506,1,1,4.145,4.145,-0.1,0
-0.0022323,0.019397,0,0,0,0,4.7498e-13,1.9691e-12,0,0,0,0,0,-68.064,0.19894,0,-0.00061888,0,-20.432,60.494,1,1,4.15,4.15,-0.1,0
-0.0022338,0.0194,0,0,0,0,4.3902e-13,1.8993e-12,0,0,0,0,0,-68.049,0.19995,0,-0.00072529,0,-20.428,60.481,1,1,4.155,4.155,-0.1,0
-0.0022353,0.019404,0,0,0,0,4.0245e-13,1.8669e-12,0,0,0,0,0,-68.035,0.20084,0,-0.00082022,0,-20.424,60.469,1,1,4.16,4.16,-0.1,0
-0.0022369,0.019408,0,0,0,0,3.6528e-13,1.8717e-12,0,0,0,0,0,-68.021,0.20162,0,-0.00090369,0,-20.419,60.456,1,1,4.165,4.165,-0.1,0
-0.0022384,0.019411,0,0,0,0,3.2749e-13,1.914e-12,0,0,0,0,0,-68.007,0.20228,0,-0.00097569,0,-20.415,60.444,1,1,4.17,4.17,-0.1,0
-0.00224,0.019415,0,0,0,0,2.891e-13,1.9935e-12,0,0,0,0,0,-67.993,0.20282,0,-0.0010362,0,-20.411,60.431,1,1,4.175,4.175,-0.1,0
-0.0022415,0.019419,0,0,0,0,2.501e-13,2.1104e-12,0,0,0,0,0,-67.979,0.20324,0,-0.0010853,0,-20.407,60.419,1,1,4.18,4.18,-0.1,0
-0.0022431,0.019422,0,0,0,0,2.1049e-13,2.2647e-12,0,0,0,0,0,-67.965,0.20355,0,-0.0011229,0,-20.403,60.406,1,1,4.185,4.185,-0.1,0
-0.0022446,0.019426,0,0,0,0,1.7027e-13,2.4563e-12,0,0,0,0,0,-67.951,0.20374,0,-0.001149,0,-20.398,60.394,1,1,4.19,4.19,-0.1,0
-0.0022462,0.01943,0,0,0,0,1.2944e-13,2.6852e-12,0,0,0,0,0,-67.937,0.20382,0,-0.0011636,0,-20.394,60.381,1,1,4.195,4.195,-0.1,0
-0.0022477,0.019433,0,0,0,0,8.8003e-14,2.9514e-12,0,0,0,0,0,-67.923,0.20377,0,-0.0011668,0,-20.39,60.368,1,1,4.2,4.2,-0.1,0
-0.0022493,0.019437,0,0,0,0,4.5953e-14,3.2549e-12,0,0,0,0,0,-67.909,0.20361,0,-0.0011584,0,-20.386,60.356,1,1,4.205,4.205,-0.1,0
-0.0022508,0.019441,0,0,0,0,3.2925e-15,3.5957e-12,0,0,0,0,0,-67.895,0.20333,0,-0.0011386,0,-20.381,60.343,1,1,4.21,4.21,-0.1,0
-0.0022524,0.019444,0,0,0,0,-3.9979e-14,3.9739e-12,0,0,0,0,0,-67.881,0.20294,0,-0.0011073,0,-20.377,60.331,1,1,4.215,4.215,-0.1,0
-0.0022539,0.019448,0,0,0,0,-8.3857e-14,4.3893e-12,0,0,0,0,0,-67.867,0.20242,0,-0.0010646,0,-20.373,60.318,1,1,4.22,4.22,-0.1,0
-0.0022554,0.019452,0,0,0,0,-1.2835e-13,4.8421e-12,0,0,0,0,0,-67.852,0.20179,0,-0.0010103,0,-20.369,60.306,1,1,4.225,4.225,-0.1,0
-0.002257,0.019455,0,0,0,0,-1.7346e-13,5.3321e-12,0,0,0,0,0,-67.838,0.20105,0,-0.00094457,0,-20.364,60.293,1,1,4.23,4.23,-0.1,0
-0.0022585,0.019459,0,0,0,0,-2.1918e-13,5.8595e-12,0,0,0,0,0,-67.824,0.20018,0,-0.00086734,0,-20.36,60.281,1,1,4.235,4.235,-0.1,0
-0.0022601,0.019463,0,0,0,0,-2.655e-13,6.4241e-12,0,0,0,0,0,-67.81,0.1992,0,-0.00077863,0,-20.356,60.268,1,1,4.24,4.24,-0.1,0
-0.0022616,0.019466,0,0,0,0,-3.1244e-13,7.026e-12,0,0,0,0,0,-67.796,0.1981,0,-0.00067842,0,-20.352,60.256,1,1,4.245,4.245,-0.1,0
-0.0022632,0.01947,0,0,0,0,-3.6e-13,7.6652e-12,0,0,0,0,0,-67.782,0.19689,0,-0.00056672,0,-20.347,60.244,1,1,4.25,4.25,-0.1,0
-0.0022647,0.019474,0,0,0,0,-4.0817e-13,8.3417e-12,0,0,0,0,0,-67.768,0.19556,0,-0.00044352,0,-20.343,60.231,1,1,4.255,4.255,-0.1,0
-0.0022662,0.019477,0,0,0,0,-4.5695e-13,9.0555e-12,0,0,0,0,0,-67.754,0.19411,0,-0.00030883,0,-20.339,60.219,1,1,4.26,4.26,-0.1,0
-0.0022678,0.019481,0,0,0,0,-5.0634e-13,9.8064e-12,0,0,0,0,0,-67.739,0.19254,0,-0.00016266,0,-20.334,60.206,1,1,4.265,4.265,-0.1,0
-0.0022693,0.019485,0,0,0,0,-5.5636e-13,1.0595e-11,0,0,0,0,0,-67.725,0.19086,0,-4.9766e-06,0,-20.33,60.194,1,1,4.27,4.27,-0.1,0
-0.0022709,0.019488,0,0,0,0,-6.0698e-13,1.142e-11,0,0,0,0,0,-67.711,0.18905,0,0.00016421,0,-20.326,60.181,1,1,4.275,4.275,-0.1,0
-0.0022724,0.019492,0,0,0,0,-6.5822e-13,1.2283e-11,0,0,0,0,0,-67.697,0.18714,0,0.00034489,0,-20.321,60.169,1,1,4.28,4.28,-0.1,0
-0.0022739,0.019495,0,0,0,0,-7.1007e-13,1.3183e-11,0,0,0,0,0,-67.683,0.1851,0,0.00053705,0,-20.317,60.156,1,1,4.285,4.285,-0.1,0
-0.0022755,0.019499,0,0,0,0,-7.6254e-13,1.412e-11,0,0,0,0,0,-67.669,0.18295,0,0.00074074,0,-20.313,60.144,1,1,4.29,4.29,-0.1,0
-0.002277,0.019503,0,0,0,0,-8.1563e-13,1.5095e-11,0,0,0,0,0,-67.654,0.18068,0,0.00095593,0,-20.309,60.131,1,1,4.295,4.295,-0.1,0
-0.0022786,0.019506,0,0,0,0,-8.6933e-13,1.6107e-11,0,0,0,0,0,-67.64,0.17829,0,0.0011826,0,-20.304,60.119,1,1,4.3,4.3,-0.1,0
-0.0022801,0.01951,0,0,0,0,-9.2365e-13,1.7156e-11,0,0,0,0,0,-67.626,0.17579,0,0.0014208,0,-20.3,60.106,1,1,4.305,4.305,-0.1,0
-0.0022816,0.019514,0,0,0,0,-9.7858e-13,1.8242e-11,0,0,0,0,0,-67.612,0.17317,0,0.0016705,0,-20.296,60.094,1,1,4.31,4.31,-0.1,0
-0.0022832,0.019517,0,0,0,0,-1.0341e-12,1.9365e-11,0,0,0,0,0,-67.598,0.17043,0,0.0019318,0,-20.291,60.082,1,1,4.315,4.315,-0.1,0
-0.0022847,0.019521,0,0,0,0,-1.0903e-12,2.0526e-11,0,0,0,0,0,-67.583,0.16757,0,0.0022045,0,-20.287,60.069,1,1,4.32,4.32,-0.1,0
-0.0022863,0.019524,0,0,0,0,-1.1471e-12,2.1724e-11,0,0,0,0,0,-67.569,0.1646,0,0.0024887,0,-20.282,60.057,1,1,4.325,4.325,-0.1,0
-0.0022878,0.019528,0,0,0,0,-1.087e-12,2.199e-11,0,0,0,0,0,-67.555,0.1639,0,0.0025636,0,-20.278,60.045,1,1,4.33,4.33,-0.1,0
-0.0022893,0.019532,0,0,0,0,-8.7011e-13,2.0946e-11,0,0,0,0,0,-67.542,0.16641,0,0.0023419,0,-20.275,60.033,1,1,4.335,4.335,-0.1,0
-0.0022909,0.019535,0,0,0,0,-6.6144e-13,1.9934e-11,0,0,0,0,0,-67.529,0.16883,0,0.0021286,0,-20.271,60.021,1,1,4.34,4.34,-0.1,0
-0.0022924,0.019539,0,0,0,0,-4.61e-13,1.8954e-11,0,0,0,0,0,-67.516,0.17114,0,0.0019238,0,-20.267,60.009,1,1,4.345,4.345,-0.1,0
-0.0022939,0.019542,0,0,0,0,-2.6876e-13,1.8006e-11,0,0,0,0,0,-67.503,0.17336,0,0.0017274,0,-20.263,59.998,1,1,4.35,4.35,-0.1,0
-0.0022955,0.019546,0,0,0,0,-8.4738e-14,1.7089e-11,0,0,0,0,0,-67.49,0.17549,0,0.0015395,0,-20.259,59.986,1,1,4.355,4.355,-0.1,0
-0.002297,0.01955,0,0,0,0,9.1071e-14,1.6205e-11,0,0,0,0,0,-67.477,0.17751,0,0.00136,0,-20.255,59.974,1,1,4.36,4.36,-0.1,0
-0.0022985,0.019553,0,0,0,0,2.5865e-13,1.5353e-11,0,0,0,0,0,-67.464,0.17944,0,0.001189,0,-20.251,59.963,1,1,4.365,4.365,-0.1,0
-0.0023001,0.019557,0,0,0,0,4.1803e-13,1.4533e-11,0,0,0,0,0,-67.451,0.18128,0,0.0010264,0,-20.248,59.951,1,1,4.37,4.37,-0.1,0
-0.0023016,0.01956,0,0,0,0,5.692e-13,1.3745e-11,0,0,0,0,0,-67.438,0.18301,0,0.00087221,0,-20.244,59.939,1,1,4.375,4.375,-0.1,0
-0.0023031,0.019564,0,0,0,0,7.1216e-13,1.2989e-11,0,0,0,0,0,-67.425,0.18465,0,0.00072651,0,-20.24,59.927,1,1,4.38,4.38,-0.1,0
-0.0023047,0.019568,0,0,0,0,8.469e-13,1.2264e-11,0,0,0,0,0,-67.412,0.18619,0,0.00058927,0,-20.236,59.916,1,1,4.385,4.385,-0.1,0
-0.0023062,0.019571,0,0,0,0,9.7343e-13,1.1572e-11,0,0,0,0,0,-67.399,0.18764,0,0.00046049,0,-20.232,59.904,1,1,4.39,4.39,-0.1,0
-0.0023077,0.019575,0,0,0,0,1.0917e-12,1.0912e-11,0,0,0,0,0,-67.386,0.18898,0,0.00034015,0,-20.228,59.892,1,1,4.395,4.395,-0.1,0
-0.0023093,0.019578,0,0,0,0,1.2019e-12,1.0283e-11,0,0,0,0,0,-67.373,0.19024,0,0.00022827,0,-20.224,59.881,1,1,4.4,4.4,-0.1,0
-0.0023108,0.019582,0,0,0,0,1.3038e-12,9.6866e-12,0,0,0,0,0,-67.36,0.19139,0,0.00012484,0,-20.22,59.869,1,1,4.405,4.405,-0.1,0
-0.0023123,0.019585,0,0,0,0,1.3975e-12,9.122e-12,0,0,0,0,0,-67.347,0.19245,0,2.9887e-05,0,-20.216,59.857,1,1,4.41,4.41,-0.1,0
-0.0023139,0.019589,0,0,0,0,1.4829e-12,8.5893e-12,0,0,0,0,0,-67.334,0.19341,0,-5.662e-05,0,-20.213,59.846,1,1,4.415,4.415,-0.1,0
-0.0023154,0.019593,0,0,0,0,1.5602e-12,8.0884e-12,0,0,0,0,0,-67.321,0.19427,0,-0.00013467,0,-20.209,59.834,1,1,4.42,4.42,-0.1,0
-0.0023169,0.019596,0,0,0,0,1.6293e-12,7.6194e-12,0,0,0,0,0,-67.308,0.19504,0,-0.00020425,0,-20.205,59.822,1,1,4.425,4.425,-0.1,0
-0.0023185,0.0196,0,0,0,0,1.6902e-12,7.1824e-12,0,0,0,0,0,-67.294,0.19571,0,-0.00026537,0,-20.201,59.811,1,1,4.43,4.43,-0.1,0
-0.00232,0.019603,0,0,0,0,1.7428e-12,6.7772e-12,0,0,0,0,0,-67.281,0.19628,0,-0.00031803,0,-20.197,59.799,1,1,4.435,4.435,-0.1,0
-0.0023215,0.019607,0,0,0,0,1.7873e-12,6.4038e-12,0,0,0,0,0,-67.268,0.19675,0,-0.00036223,0,-20.193,59.787,1,1,4.44,4.44,-0.1,0
-0.0023231,0.01961,0,0,0,0,1.8235e-12,6.0623e-12,0,0,0,0,0,-67.255,0.19713,0,-0.00039796,0,-20.189,59.776,1,1,4.445,4.445,-0.1,0
-0.0023246,0.019614,0,0,0,0,1.8516e-12,5.7527e-12,0,0,0,0,0,-67.242,0.19741,0,-0.00042522,0,-20.185,59.764,1,1,4.45,4.45,-0.1,0
-0.0023261,0.019618,0,0,0,0,1.8714e-12,5.475e-12,0,0,0,0,0,-67.229,0.1976,0,-0.00044401,0,-20.181,59.752,1,1,4.455,4.455,-0.1,0
-0.0023277,0.019621,0,0,0,0,1.8831e-12,5.229e-12,0,0,0,0,0,-67.216,0.19769,0,-0.00045434,0,-20.177,59.741,1,1,4.46,4.46,-0.1,0
-0.0023292,0.019625,0,0,0,0,1.8865e-12,5.0149e-12,0,0,0,0,0,-67.203,0.19768,0,-0.00045619,0,-20.173,59.729,1,1,4.465,4.465,-0.1,0
-0.0023307,0.019628,0,0,0,0,1.8818e-12,4.8326e-12,0,0,0,0,0,-67.19,0.19757,0,-0.00044957,0,-20.169,59.717,1,1,4.47,4.47,-0.1,0
-0.0023322,0.019632,0,0,0,0,1.8688e-12,4.6822e-12,0,0,0,0,0,-67.176,0.19737,0,-0.00043448,0,-20.165,59.706,1,1,4.475,4.475,-0.1,0
-0.0023338,0.019635,0,0,0,0,1.8476e-12,4.5635e-12,0,0,0,0,0,-67.163,0.19707,0,-0.00041092,0,-20.161,59.694,1,1,4.48,4.48,-0.1,0
-0.0023353,0.019639,0,0,0,0,1.8183e-12,4.4766e-12,0,0,0,0,0,-67.15,0.19667,0,-0.00037888,0,-20.158,59.682,1,1,4.485,4.485,-0.1,0
-0.0023368,0.019642,0,0,0,0,1.7807e-12,4.4216e-12,0,0,0,0,0,-67.137,0.19617,0,-0.00033837,0,-20.154,59.671,1,1,4.49,4.49,-0.1,0
-0.0023383,0.019646,0,0,0,0,1.735e-12,4.3983e-12,0,0,0,0,0,-67.124,0.19558,0,-0.00028938,0,-20.15,59.659,1,1,4.495,4.495,-0.1,0
-0.0023399,0.019649,0,0,0,0,1.681e-12,4.4068e-12,0,0,0,0,0,-67.111,0.1949,0,-0.00023191,0,-20.146,59.647,1,1,4.5,4.5,-0.1,0
-0.0023414,0.019653,0,0,0,0,1.6189e-12,4.4471e-12,0,0,0,0,0,-67.098,0.19411,0,-0.00016596,0,-20.142,59.636,1,1,4.505,4.505,-0.1,0
-0.0023429,0.019657,0,0,0,0,1.5485e-12,4.5192e-12,0,0,0,0,0,-67.085,0.19323,0,-9.1535e-05,0,-20.138,59.624,1,1,4.51,4.51,-0.1,0
-0.0023445,0.01966,0,0,0,0,1.47e-12,4.623e-12,0,0,0,0,0,-67.071,0.19225,0,-8.6362e-06,0,-20.134,59.613,1,1,4.515,4.515,-0.1,0
-0.002346,0.019664,0,0,0,0,1.3833e-12,4.7585e-12,0,0,0,0,0,-67.058,0.19117,0,8.2752e-05,0,-20.13,59.601,1,1,4.52,4.52,-0.1,0
-0.0023475,0.019667,0,0,0,0,1.2883e-12,4.9259e-12,0,0,0,0,0,-67.045,0.19,0,0.00018262,0,-20.126,59.589,1,1,4.525,4.525,-0.1,0
-0.002349,0.019671,0,0,0,0,1.1852e-12,5.1249e-12,0,0,0,0,0,-67.032,0.18873,0,0.00029098,0,-20.122,59.578,1,1,4.53,4.53,-0.1,0
-0.0023506,0.019674,0,0,0,0,1.0739e-12,5.3557e-12,0,0,0,0,0,-67.019,0.18736,0,0.00040781,0,-20.118,59.566,1,1,4.535,4.535,-0.1,0
-0.0023521,0.019678,0,0,0,0,9.544e-13,5.6182e-12,0,0,0,0,0,-67.006,0.1859,0,0.00053313,0,-20.114,59.554,1,1,4.54,4.54,-0.1,0
-0.0023536,0.019681,0,0,0,0,8.267e-13,5.9125e-12,0,0,0,0,0,-66.992,0.18434,0,0.00066695,0,-20.11,59.543,1,1,4.545,4.545,-0.1,0
-0.0023551,0.019685,0,0,0,0,6.9081e-13,6.2384e-12,0,0,0,0,0,-66.979,0.18268,0,0.00080925,0,-20.106,59.531,1,1,4.55,4.55,-0.1,0
-0.0023567,0.019688,0,0,0,0,5.4674e-13,6.5961e-12,0,0,0,0,0,-66.966,0.18093,0,0.00096003,0,-20.102,59.52,1,1,4.555,4.555,-0.1,0
-0.0023582,0.019692,0,0,0,0,3.9447e-13,6.9854e-12,0,0,0,0,0,-66.953,0.17908,0,0.0011193,0,-20.098,59.508,1,1,4.56,4.56,-0.1,0
-0.0023597,0.019695,0,0,0,0,2.3401e-13,7.4065e-12,0,0,0,0,0,-66.94,0.17713,0,0.0012871,0,-20.094,59.496,1,1,4.565,4.565,-0.1,0
-0.0023612,0.019699,0,0,0,0,6.536e-14,7.8592e-12,0,0,0,0,0,-66.926,0.17508,0,0.0014633,0,-20.09,59.485,1,1,4.57,4.57,-0.1,0
-0.0023627,0.019702,0,0,0,0,-1.1146e-13,8.3436e-12,0,0,0,0,0,-66.913,0.17294,0,0.0016481,0,-20.086,59.473,1,1,4.575,4.575,-0.1,0
-0.0023643,0.019706,0,0,0,0,-2.9649e-13,8.8597e-12,0,0,0,0,0,-66.9,0.1707,0,0.0018413,0,-20.082,59.462,1,1,4.58,4.58,-0.1,0
-0.0023658,0.019709,0,0,0,0,-4.897e-13,9.4074e-12,0,0,0,0,0,-66.887,0.16836,0,0.0020431,0,-20.078,59.45,1,1,4.585,4.585,-0.1,0
-0.0023673,0.019713,0,0,0,0,-6.911e-13,9.9868e-12,0,0,0,0,0,-66.874,0.16593,0,0.0022533,0,-20.074,59.438,1,1,4.59,4.59,-0.1,0
-0.0023688,0.019716,0,0,0,0,-9.0066e-13,1.0598e-11,0,0,0,0,0,-66.86,0.1634,0,0.0024721,0,-20.07,59.427,1,1,4.595,4.595,-0.1,0
-0.0023704,0.01972,0,0,0,0,-8.8091e-13,1.0417e-11,0,0,0,0,0,-66.848,0.16498,0,0.0023542,0,-20.066,59.416,1,1,4.6,4.6,-0.1,0
-0.0023719,0.019723,0,0,0,0,-8.2678e-13,1.0105e-11,0,0,0,0,0,-66.836,0.16713,0,0.0021897,0,-20.062,59.405,1,1,4.605,4.605,-0.1,0
-0.0023734,0.019727,0,0,0,0,-7.7438e-13,9.7865e-12,0,0,0,0,0,-66.823,0.16919,0,0.0020313,0,-20.059,59.393,1,1,4.61,4.61,-0.1,0
-0.0023749,0.01973,0,0,0,0,-7.2373e-13,9.4606e-12,0,0,0,0,0,-66.811,0.17118,0,0.0018791,0,-20.055,59.382,1,1,4.615,4.615,-0.1,0
-0.0023764,0.019734,0,0,0,0,-6.748e-13,9.1275e-12,0,0,0,0,0,-66.799,0.17308,0,0.001733,0,-20.051,59.371,1,1,4.62,4.62,-0.1,0
-0.002378,0.019737,0,0,0,0,-6.276e-13,8.7873e-12,0,0,0,0,0,-66.786,0.1749,0,0.0015932,0,-20.048,59.36,1,1,4.625,4.625,-0.1,0
-0.0023795,0.019741,0,0,0,0,-5.8214e-13,8.4399e-12,0,0,0,0,0,-66.774,0.17665,0,0.0014595,0,-20.044,59.349,1,1,4.63,4.63,-0.1,0
-0.002381,0.019744,0,0,0,0,-5.384e-13,8.0855e-12,0,0,0,0,0,-66.762,0.17831,0,0.0013321,0,-20.04,59.338,1,1,4.635,4.635,-0.1,0
-0.0023825,0.019748,0,0,0,0,-4.964e-13,7.7241e-12,0,0,0,0,0,-66.749,0.17989,0,0.0012108,0,-20.037,59.327,1,1,4.64,4.64,-0.1,0
-0.002384,0.019751,0,0,0,0,-4.5612e-13,7.3554e-12,0,0,0,0,0,-66.737,0.18139,0,0.0010957,0,-20.033,59.316,1,1,4.645,4.645,-0.1,0
-0.0023855,0.019755,0,0,0,0,-4.1757e-13,6.9797e-12,0,0,0,0,0,-66.725,0.18281,0,0.00098677,0,-20.029,59.305,1,1,4.65,4.65,-0.1,0
-0.0023871,0.019758,0,0,0,0,-3.8075e-13,6.597e-12,0,0,0,0,0,-66.712,0.18415,0,0.00088405,0,-20.026,59.294,1,1,4.655,4.655,-0.1,0
-0.0023886,0.019762,0,0,0,0,-3.4565e-13,6.2071e-12,0,0,0,0,0,-66.7,0.18541,0,0.00078752,0,-20.022,59.283,1,1,4.66,4.66,-0.1,0
-0.0023901,0.019765,0,0,0,0,-3.1228e-13,5.8101e-12,0,0,0,0,0,-66.687,0.18658,0,0.00069718,0,-20.018,59.272,1,1,4.665,4.665,-0.1,0
-0.0023916,0.019769,0,0,0,0,-2.8064e-13,5.4061e-12,0,0,0,0,0,-66.675,0.18768,0,0.00061303,0,-20.014,59.261,1,1,4.67,4.67,-0.1,0
-0.0023931,0.019772,0,0,0,0,-2.5072e-13,4.995e-12,0,0,0,0,0,-66.663,0.1887,0,0.00053506,0,-20.011,59.25,1,1,4.675,4.675,-0.1,0
-0.0023947,0.019776,0,0,0,0,-2.2253e-13,4.5768e-12,0,0,0,0,0,-66.65,0.18963,0,0.0004633,0,-20.007,59.239,1,1,4.68,4.68,-0.1,0
-0.0023962,0.019779,0,0,0,0,-1.9605e-13,4.1515e-12,0,0,0,0,0,-66.638,0.19049,0,0.00039773,0,-20.003,59.228,1,1,4.685,4.685,-0.1,0
-0.0023977,0.019783,0,0,0,0,-1.713e-13,3.7191e-12,0,0,0,0,0,-66.626,0.19126,0,0.00033835,0,-20,59.217,1,1,4.69,4.69,-0.1,0
-0.0023992,0.019786,0,0,0,0,-1.4827e-13,3.2797e-12,0,0,0,0,0,-66.613,0.19196,0,0.00028516,0,-19.996,59.206,1,1,4.695,4.695,-0.1,0
-0.0024007,0.01979,0,0,0,0,-1.2697e-13,2.8332e-12,0,0,0,0,0,-66.601,0.19257,0,0.00023818,0,-19.992,59.195,1,1,4.7,4.7,-0.1,0
-0.0024022,0.019793,0,0,0,0,-1.0738e-13,2.3796e-12,0,0,0,0,0,-66.588,0.19311,0,0.00019738,0,-19.989,59.183,1,1,4.705,4.705,-0.1,0
-0.0024037,0.019797,0,0,0,0,-8.9515e-14,1.9189e-12,0,0,0,0,0,-66.576,0.19356,0,0.00016279,0,-19.985,59.172,1,1,4.71,4.71,-0.1,0
-0.0024053,0.0198,0,0,0,0,-7.3367e-14,1.4512e-12,0,0,0,0,0,-66.564,0.19393,0,0.00013439,0,-19.981,59.161,1,1,4.715,4.715,-0.1,0
-0.0024068,0.019804,0,0,0,0,-5.8938e-14,9.7645e-13,0,0,0,0,0,-66.551,0.19422,0,0.0001122,0,-19.977,59.15,1,1,4.72,4.72,-0.1,0
-0.0024083,0.019807,0,0,0,0,-4.6226e-14,4.9458e-13,0,0,0,0,0,-66.539,0.19443,0,9.62e-05,0,-19.974,59.139,1,1,4.725,4.725,-0.1,0
-0.0024098,0.01981,0,0,0,0,-3.523e-14,5.6627e-15,0,0,0,0,0,-66.526,0.19456,0,8.6404e-05,0,-19.97,59.128,1,1,4.73,4.73,-0.1,0
-0.0024113,0.019814,0,0,0,0,-2.5951e-14,-4.9032e-13,0,0,0,0,0,-66.514,0.19461,0,8.2812e-05,0,-19.966,59.117,1,1,4.735,4.735,-0.1,0
-0.0024128,0.019817,0,0,0,0,-1.8387e-14,-9.9332e-13,0,0,0,0,0,-66.502,0.19458,0,8.5423e-05,0,-19.963,59.106,1,1,4.74,4.74,-0.1,0
-0.0024143,0.019821,0,0,0,0,-1.2537e-14,-1.5034e-12,0,0,0,0,0,-66.489,0.19446,0,9.4238e-05,0,-19.959,59.095,1,1,4.745,4.745,-0.1,0
-0.0024159,0.019824,0,0,0,0,-8.4015e-15,-2.0206e-12,0,0,0,0,0,-66.477,0.19427,0,0.00010926,0,-19.955,59.084,1,1,4.75,4.75,-0.1,0
-0.0024174,0.019828,0,0,0,0,-5.9791e-15,-2.5448e-12,0,0,0,0,0,-66.464,0.194,0,0.00013048,0,-19.951,59.073,1,1,4.755,4.755,-0.1,0
-0.0024189,0.019831,0,0,0,0,-5.2695e-15,-3.076e-12,0,0,0,0,0,-66.452,0.19364,0,0.00015791,0,-19.948,59.062,1,1,4.76,4.76,-0.1,0
-0.0024204,0.019835,0,0,0,0,-6.2716e-15,-3.6143e-12,0,0,0,0,0,-66.44,0.19321,0,0.00019155,0,-19.944,59.051,1,1,4.765,4.765,-0.1,0
-0.0024219,0.019838,0,0,0,0,-8.9851e-15,-4.1597e-12,0,0,0,0,0,-66.427,0.19269,0,0.00023139,0,-19.94,59.04,1,1,4.77,4.77,-0.1,0
-0.0024234,0.019842,0,0,0,0,-1.3409e-14,-4.7121e-12,0,0,0,0,0,-66.415,0.19209,0,0.00027744,0,-19.936,59.029,1,1,4.775,4.775,-0.1,0
-0.0024249,0.019845,0,0,0,0,-1.9543e-14,-5.2715e-12,0,0,0,0,0,-66.402,0.19142,0,0.00032971,0,-19.933,59.018,1,1,4.78,4.78,-0.1,0
-0.0024264,0.019848,0,0,0,0,-2.7385e-14,-5.8379e-12,0,0,0,0,0,-66.39,0.19066,0,0.00038817,0,-19.929,59.007,1,1,4.785,4.785,-0.1,0
-0.0024279,0.019852,0,0,0,0,-3.6937e-14,-6.4115e-12,0,0,0,0,0,-66.377,0.18982,0,0.00045286,0,-19.925,58.996,1,1,4.79,4.79,-0.1,0
-0.0024295,0.019855,0,0,0,0,-4.8196e-14,-6.992e-12,0,0,0,0,0,-66.365,0.1889,0,0.00052375,0,-19.921,58.985,1,1,4.795,4.795,-0.1,0
-0.002431,0.019859,0,0,0,0,-6.1163e-14,-7.5796e-12,0,0,0,0,0,-66.353,0.1879,0,0.00060086,0,-19.918,58.974,1,1,4.8,4.8,-0.1,0
-0.0024325,0.019862,0,0,0,0,-7.5834e-14,-8.1742e-12,0,0,0,0,0,-66.34,0.18682,0,0.00068417,0,-19.914,58.963,1,1,4.805,4.805,-0.1,0
-0.002434,0.019866,0,0,0,0,-9.2213e-14,-8.7758e-12,0,0,0,0,0,-66.328,0.18566,0,0.0007737,0,-19.91,58.952,1,1,4.81,4.81,-0.1,0
-0.0024355,0.019869,0,0,0,0,-1.103e-13,-9.3845e-12,0,0,0,0,0,-66.315,0.18442,0,0.00086945,0,-19.906,58.941,1,1,4.815,4.815,-0.1,0
-0.002437,0.019873,0,0,0,0,-1.3008e-13,-1e-11,0,0,0,0,0,-66.303,0.1831,0,0.00097142,0,-19.903,58.93,1,1,4.82,4.82,-0.1,0
-0.0024385,0.019876,0,0,0,0,-1.5157e-13,-1.0623e-11,0,0,0,0,0,-66.29,0.18169,0,0.0010796,0,-19.899,58.919,1,1,4.825,4.825,-0.1,0
-0.00244,0.019879,0,0,0,0,-1.7477e-13,-1.1253e-11,0,0,0,0,0,-66.278,0.18021,0,0.001194,0,-19.895,58.908,1,1,4.83,4.83,-0.1,0
-0.0024415,0.019883,0,0,0,0,-1.9967e-13,-1.1889e-11,0,0,0,0,0,-66.265,0.17865,0,0.0013146,0,-19.891,58.897,1,1,4.835,4.835,-0.1,0
-0.002443,0.019886,0,0,0,0,-2.2626e-13,-1.2533e-11,0,0,0,0,0,-66.253,0.177,0,0.0014414,0,-19.887,58.886,1,1,4.84,4.84,-0.1,0
-0.0024445,0.01989,0,0,0,0,-2.5456e-13,-1.3184e-11,0,0,0,0,0,-66.241,0.17528,0,0.0015745,0,-19.884,58.875,1,1,4.845,4.845,-0.1,0
-0.002446,0.019893,0,0,0,0,-2.8456e-13,-1.3842e-11,0,0,0,0,0,-66.228,0.17347,0,0.0017138,0,-19.88,58.864,1,1,4.85,4.85,-0.1,0
-0.0024476,0.019897,0,0,0,0,-3.1626e-13,-1.4507e-11,0,0,0,0,0,-66.216,0.17158,0,0.0018592,0,-19.876,58.853,1,1,4.855,4.855,-0.1,0
-0.0024491,0.0199,0,0,0,0,-3.4966e-13,-1.5179e-11,0,0,0,0,0,-66.203,0.16961,0,0.002011,0,-19.872,58.842,1,1,4.86,4.86,-0.1,0
-0.0024506,0.019903,0,0,0,0,-3.8475e-13,-1.5857e-11,0,0,0,0,0,-66.191,0.16757,0,0.0021689,0,-19.869,58.831,1,1,4.865,4.865,-0.1,0
-0.0024521,0.019907,0,0,0,0,-4.2154e-13,-1.6543e-11,0,0,0,0,0,-66.178,0.16544,0,0.0023331,0,-19.865,58.82,1,1,4.87,4.87,-0.1,0
-0.0024536,0.01991,0,0,0,0,-4.1215e-13,-1.5408e-11,0,0,0,0,0,-66.166,0.16702,0,0.0022314,0,-19.861,58.81,1,1,4.875,4.875,-0.1,0
-0.0024551,0.019914,0,0,0,0,-3.9889e-13,-1.414e-11,0,0,0,0,0,-66.154,0.16889,0,0.002109,0,-19.858,58.799,1,1,4.88,4.88,-0.1,0
-0.0024566,0.019917,0,0,0,0,-3.8615e-13,-1.2908e-11,0,0,0,0,0,-66.143,0.17069,0,0.001991,0,-19.854,58.788,1,1,4.885,4.885,-0.1,0
-0.0024581,0.01992,0,0,0,0,-3.7395e-13,-1.1714e-11,0,0,0,0,0,-66.131,0.17243,0,0.0018776,0,-19.851,58.778,1,1,4.89,4.89,-0.1,0
-0.0024596,0.019924,0,0,0,0,-3.6228e-13,-1.0558e-11,0,0,0,0,0,-66.119,0.1741,0,0.0017686,0,-19.847,58.767,1,1,4.895,4.895,-0.1,0
-0.0024611,0.019927,0,0,0,0,-3.5113e-13,-9.4381e-12,0,0,0,0,0,-66.107,0.1757,0,0.001664,0,-19.844,58.757,1,1,4.9,4.9,-0.1,0
-0.0024626,0.019931,0,0,0,0,-3.4052e-13,-8.3559e-12,0,0,0,0,0,-66.095,0.17723,0,0.001564,0,-19.84,58.746,1,1,4.905,4.905,-0.1,0
-0.0024641,0.019934,0,0,0,0,-3.3043e-13,-7.3111e-12,0,0,0,0,0,-66.083,0.17869,0,0.0014684,0,-19.836,58.735,1,1,4.91,4.91,-0.1,0
-0.0024656,0.019938,0,0,0,0,-3.2088e-13,-6.3035e-12,0,0,0,0,0,-66.071,0.18009,0,0.0013772,0,-19.833,58.725,1,1,4.915,4.915,-0.1,0
-0.0024671,0.019941,0,0,0,0,-3.1186e-13,-5.3332e-12,0,0,0,0,0,-66.06,0.18142,0,0.0012905,0,-19.829,58.714,1,1,4.92,4.92,-0.1,0
-0.0024686,0.019944,0,0,0,0,-3.0337e-13,-4.4002e-12,0,0,0,0,0,-66.048,0.18268,0,0.0012083,0,-19.826,58.704,1,1,4.925,4.925,-0.1,0
-0.0024701,0.019948,0,0,0,0,-2.954e-13,-3.5045e-12,0,0,0,0,0,-66.036,0.18388,0,0.0011306,0,-19.822,58.693,1,1,4.93,4.93,-0.1,0
-0.0024716,0.019951,0,0,0,0,-2.8797e-13,-2.646e-12,0,0,0,0,0,-66.024,0.18501,0,0.0010574,0,-19.819,58.682,1,1,4.935,4.935,-0.1,0
-0.0024731,0.019955,0,0,0,0,-2.8107e-13,-1.8248e-12,0,0,0,0,0,-66.012,0.18607,0,0.00098857,0,-19.815,58.672,1,1,4.94,4.94,-0.1,0
-0.0024746,0.019958,0,0,0,0,-2.7471e-13,-1.0408e-12,0,0,0,0,0,-66,0.18706,0,0.00092425,0,-19.812,58.661,1,1,4.945,4.945,-0.1,0
-0.0024761,0.019961,0,0,0,0,-2.6887e-13,-2.9412e-13,0,0,0,0,0,-65.988,0.18799,0,0.00086441,0,-19.808,58.651,1,1,4.95,4.95,-0.1,0
-0.0024776,0.019965,0,0,0,0,-2.6356e-13,4.1537e-13,0,0,0,0,0,-65.977,0.18885,0,0.00080904,0,-19.805,58.64,1,1,4.955,4.955,-0.1,0
-0.0024791,0.019968,0,0,0,0,-2.5879e-13,1.0876e-12,0,0,0,0,0,-65.965,0.18964,0,0.00075814,0,-19.801,58.63,1,1,4.96,4.96,-0.1,0
-0.0024806,0.019972,0,0,0,0,-2.5455e-13,1.7226e-12,0,0,0,0,0,-65.953,0.19036,0,0.00071171,0,-19.798,58.619,1,1,4.965,4.965,-0.1,0
-0.0024821,0.019975,0,0,0,0,-2.5084e-13,2.3204e-12,0,0,0,0,0,-65.941,0.19102,0,0.00066977,0,-19.794,58.608,1,1,4.97,4.97,-0.1,0
-0.0024836,0.019978,0,0,0,0,-2.4766e-13,2.8809e-12,0,0,0,0,0,-65.929,0.19161,0,0.0006323,0,-19.79,58.598,1,1,4.975,4.975,-0.1,0
-0.0024851,0.019982,0,0,0,0,-2.4501e-13,3.4043e-12,0,0,0,0,0,-65.917,0.19213,0,0.0005993,0,-19.787,58.587,1,1,4.98,4.98,-0.1,0
-0.0024866,0.019985,0,0,0,0,-2.429e-13,3.8904e-12,0,0,0,0,0,-65.905,0.19258,0,0.00057078,0,-19.783,58.577,1,1,4.985,4.985,-0.1,0
-0.0024881,0.019988,0,0,0,0,-2.4132e-13,4.3393e-12,0,0,0,0,0,-65.893,0.19297,0,0.00054674,0,-19.78,58.566,1,1,4.99,4.99,-0.1,0
-0.0024896,0.019992,0,0,0,0,-2.4027e-13,4.751e-12,0,0,0,0,0,-65.882,0.19329,0,0.00052718,0,-19.776,58.555,1,1,4.995,4.995,-0.1,0
-0.0024911,0.019995,0,0,0,0,-2.3975e-13,5.1255e-12,0,0,0,0,0,-65.87,0.19354,0,0.0005121,0,-19.773,58.545,1,1,5,5,-0.1,0
