"displacement:0","displacement:1","displacement:2","displacement contact active","displacement contact distance","displacement contact gap","displacement contact normalload","displacement contact slipload","displacement contact stick","displacement contact weight","stress_xx","stress_xy","stress_xz","stress_yy","stress_yz","stress_zz","vonmises","GeometryIds","vtkValidPointMask","arc_length","Points:0","Points:1","Points:2"
0,0.010742,0,0,0,0,0,0,0,0,-803.42,91.659,0,-1517.2,0,-701.32,788.84,102,1,0,0,-0.1,0
-3.2017e-06,0.010753,0,0,0,0,0,0,0,0,-800.22,94.089,0,-1511.9,0,-698.74,787.49,1,1,0.005,0.005,-0.1,0
-6.4019e-06,0.010764,0,0,0,0,0,0,0,0,-797.03,96.52,0,-1506.5,0,-696.16,786.15,1,1,0.01,0.01,-0.1,0
-9.6007e-06,0.010774,0,0,0,0,0,0,0,0,-793.84,98.952,0,-1501.2,0,-693.58,784.8,1,1,0.015,0.015,-0.1,0
-1.2798e-05,0.010785,0,0,0,0,0,0,0,0,-790.65,101.38,0,-1495.8,0,-691,783.45,1,1,0.02,0.02,-0.1,0
-1.5994e-05,0.010796,0,0,0,0,0,0,0,0,-787.46,103.82,0,-1490.5,0,-688.42,782.1,1,1,0.025,0.025,-0.1,0
-1.9188e-05,0.010807,0,0,0,0,0,0,0,0,-784.27,106.25,0,-1485.2,0,-685.84,780.75,1,1,0.03,0.03,-0.1,0
-2.2381e-05,0.010818,0,0,0,0,0,0,0,0,-781.08,108.69,0,-1479.8,0,-683.26,779.4,1,1,0.035,0.035,-0.1,0
-2.5573e-05,0.010829,0,0,0,0,0,0,0,0,-777.89,111.12,0,-1474.5,0,-680.69,778.05,1,1,0.04,0.04,-0.1,0
-2.8763e-05,0.01084,0,0,0,0,0,0,0,0,-774.7,113.56,0,-1469.2,0,-678.11,776.7,1,1,0.045,0.045,-0.1,0
-3.1952e-05,0.010851,0,0,0,0,0,0,0,0,-771.52,116,0,-1463.8,0,-675.53,775.35,1,1,0.05,0.05,-0.1,0
-3.5139e-05,0.010862,0,0,0,0,0,0,0,0,-768.33,118.44,0,-1458.5,0,-672.95,774,1,1,0.055,0.055,-0.1,0
-3.8325e-05,0.010873,0,0,0,0,0,0,0,0,-765.15,120.87,0,-1453.1,0,-670.38,772.65,1,1,0.06,0.06,-0.1,0
-4.1509e-05,0.010884,0,0,0,0,0,0,0,0,-761.96,123.31,0,-1447.8,0,-667.8,771.3,1,1,0.065,0.065,-0.1,0
-4.4692e-05,0.010895,0,0,0,0,0,0,0,0,-758.78,125.75,0,-1442.5,0,-665.22,769.95,1,1,0.07,0.07,-0.1,0
-4.7874e-05,0.010906,0,0,0,0,0,0,0,0,-755.6,128.2,0,-1437.1,0,-662.65,768.6,1,1,0.075,0.075,-0.1,0
-5.1054e-05,0.010917,0,0,0,0,0,0,0,0,-752.42,130.64,0,-1431.8,0,-660.07,767.25,1,1,0.08,0.08,-0.1,0
-5.4232e-05,0.010928,0,0,0,0,0,0,0,0,-749.24,133.08,0,-1426.4,0,-657.5,765.9,1,1,0.085,0.085,-0.1,0
-5.7409e-05,0.010939,0,0,0,0,0,0,0,0,-746.06,135.52,0,-1421.1,0,-654.92,764.55,1,1,0.09,0.09,-0.1,0
-6.0585e-05,0.010949,0,0,0,0,0,0,0,0,-742.88,137.97,0,-1415.8,0,-652.35,763.2,1,1,0.095,0.095,-0.1,0
-6.3765e-05,0.010961,0,0,0,0,0,0,0,0,-739.72,140.5,0,-1410.3,0,-649.74,761.86,1,1,0.1,0.1,-0.1,0
-6.7371e-05,0.010993,0,0,0,0,0,0,0,0,-737.61,149.71,0,-1394.7,0,-644.35,761.69,1,1,0.105,0.105,-0.1,0
-7.0974e-05,0.011026,0,0,0,0,0,0,0,0,-735.5,158.92,0,-1379,0,-638.97,761.53,1,1,0.11,0.11,-0.1,0
-7.4575e-05,0.011058,0,0,0,0,0,0,0,0,-733.4,168.13,0,-1363.3,0,-633.59,761.36,1,1,0.115,0.115,-0.1,0
-7.8173e-05,0.011091,0,0,0,0,0,0,0,0,-731.29,177.34,0,-1347.7,0,-628.21,761.19,1,1,0.12,0.12,-0.1,0
-8.1767e-05,0.011123,0,0,0,0,0,0,0,0,-729.19,186.55,0,-1332,0,-622.83,761.02,1,1,0.125,0.125,-0.1,0
-8.5359e-05,0.011155,0,0,0,0,0,0,0,0,-727.09,195.76,0,-1316.4,0,-617.45,760.84,1,1,0.13,0.13,-0.1,0
-8.8948e-05,0.011188,0,0,0,0,0,0,0,0,-725,204.97,0,-1300.7,0,-612.07,760.67,1,1,0.135,0.135,-0.1,0
-9.2534e-05,0.01122,0,0,0,0,0,0,0,0,-722.91,214.18,0,-1285.1,0,-606.69,760.5,1,1,0.14,0.14,-0.1,0
-9.6118e-05,0.011253,0,0,0,0,0,0,0,0,-720.81,223.39,0,-1269.4,0,-601.32,760.33,1,1,0.145,0.145,-0.1,0
-9.9698e-05,0.011285,0,0,0,0,0,0,0,0,-718.73,232.6,0,-1253.8,0,-595.94,760.15,1,1,0.15,0.15,-0.1,0
-0.00010328,0.011318,0,0,0,0,0,0,0,0,-716.64,241.81,0,-1238.1,0,-590.57,759.98,1,1,0.155,0.155,-0.1,0
-0.00010685,0.01135,0,0,0,0,0,0,0,0,-714.55,251.02,0,-1222.5,0,-585.19,759.8,1,1,0.16,0.16,-0.1,0
-0.00011042,0.011382,0,0,0,0,0,0,0,0,-712.47,260.23,0,-1206.8,0,-579.82,759.63,1,1,0.165,0.165,-0.1,0
-0.00011399,0.011415,0,0,0,0,0,0,0,0,-710.39,269.44,0,-1191.2,0,-574.45,759.45,1,1,0.17,0.17,-0.1,0
-0.00011756,0.011447,0,0,0,0,0,0,0,0,-708.31,278.65,0,-1175.5,0,-569.07,759.27,1,1,0.175,0.175,-0.1,0
-0.00012112,0.01148,0,0,0,0,0,0,0,0,-706.24,287.86,0,-1159.9,0,-563.7,759.1,1,1,0.18,0.18,-0.1,0
-0.00012468,0.011512,0,0,0,0,0,0,0,0,-704.17,297.07,0,-1144.2,0,-558.33,758.92,1,1,0.185,0.185,-0.1,0
-0.00012824,0.011545,0,0,0,0,0,0,0,0,-702.09,306.28,0,-1128.6,0,-552.96,758.74,1,1,0.19,0.19,-0.1,0
-0.00013179,0.011577,0,0,0,0,0,0,0,0,-700.03,315.48,0,-1112.9,0,-547.59,758.56,1,1,0.195,0.195,-0.1,0
-0.00013534,0.011609,0,0,0,0,0,0,0,0,-697.96,324.69,0,-1097.3,0,-542.22,758.38,1,1,0.2,0.2,-0.1,0
-0.00013889,0.011642,0,0,0,0,0,0,0,0,-695.9,333.9,0,-1081.6,0,-536.86,758.2,1,1,0.205,0.205,-0.1,0
-0.00014487,0.011682,0,0,0,0,0,0,0,0,-691.6,336.49,0,-1056,0,-527.79,753.55,1,1,0.21,0.21,-0.1,0
-0.00015241,0.011728,0,0,0,0,0,0,0,0,-685.88,334.85,0,-1023.9,0,-516.38,746.06,1,1,0.215,0.215,-0.1,0
-0.00015994,0.011773,0,0,0,0,0,0,0,0,-680.16,333.22,0,-991.93,0,-504.97,738.57,1,1,0.22,0.22,-0.1,0
-0.00016746,0.011819,0,0,0,0,0,0,0,0,-674.45,331.58,0,-959.93,0,-493.56,731.08,1,1,0.225,0.225,-0.1,0
-0.00017498,0.011865,0,0,0,0,0,0,0,0,-668.75,329.95,0,-927.95,0,-482.16,723.6,1,1,0.23,0.23,-0.1,0
-0.0001825,0.01191,0,0,0,0,0,0,0,0,-663.05,328.32,0,-895.97,0,-470.77,716.11,1,1,0.235,0.235,-0.1,0
-0.00019002,0.011956,0,0,0,0,0,0,0,0,-657.36,326.69,0,-864.01,0,-459.38,708.63,1,1,0.24,0.24,-0.1,0
-0.00019753,0.012002,0,0,0,0,0,0,0,0,-651.67,325.06,0,-832.06,0,-447.99,701.14,1,1,0.245,0.245,-0.1,0
-0.00020504,0.012047,0,0,0,0,0,0,0,0,-645.99,323.43,0,-800.12,0,-436.61,693.66,1,1,0.25,0.25,-0.1,0
-0.00021254,0.012093,0,0,0,0,0,0,0,0,-640.31,321.81,0,-768.19,0,-425.24,686.18,1,1,0.255,0.255,-0.1,0
-0.00022005,0.012138,0,0,0,0,0,0,0,0,-634.64,320.18,0,-736.26,0,-413.87,678.7,1,1,0.26,0.26,-0.1,0
-0.00022754,0.012184,0,0,0,0,0,0,0,0,-628.98,318.56,0,-704.36,0,-402.5,671.22,1,1,0.265,0.265,-0.1,0
-0.00023504,0.012229,0,0,0,0,0,0,0,0,-623.32,316.94,0,-672.46,0,-391.14,663.74,1,1,0.27,0.27,-0.1,0
-0.00024253,0.012275,0,0,0,0,0,0,0,0,-617.67,315.32,0,-640.57,0,-379.79,656.26,1,1,0.275,0.275,-0.1,0
-0.00025002,0.01232,0,0,0,0,0,0,0,0,-612.02,313.7,0,-608.69,0,-368.44,648.79,1,1,0.28,0.28,-0.1,0
-0.00025751,0.012366,0,0,0,0,0,0,0,0,-606.38,312.08,0,-576.82,0,-357.09,641.31,1,1,0.285,0.285,-0.1,0
-0.00026499,0.012411,0,0,0,0,0,0,0,0,-600.74,310.46,0,-544.97,0,-345.75,633.84,1,1,0.29,0.29,-0.1,0
-0.00027247,0.012457,0,0,0,0,0,0,0,0,-595.11,308.85,0,-513.12,0,-334.41,626.37,1,1,0.295,0.295,-0.1,0
-0.00027994,0.012502,0,0,0,0,0,0,0,0,-589.49,307.24,0,-481.29,0,-323.08,618.89,1,1,0.3,0.3,-0.1,0
-0.00028741,0.012548,0,0,0,0,0,0,0,0,-583.87,305.62,0,-449.47,0,-311.76,611.42,1,1,0.305,0.305,-0.1,0
-0.00029488,0.012593,0,0,0,0,0,0,0,0,-578.25,304.01,0,-417.65,0,-300.44,603.95,1,1,0.31,0.31,-0.1,0
-0.00030234,0.012639,0,0,0,0,0,0,0,0,-572.64,302.4,0,-385.85,0,-289.12,596.49,1,1,0.315,0.315,-0.1,0
-0.00030981,0.012684,0,0,0,0,0,0,0,0,-567.04,300.79,0,-354.06,0,-277.81,589.02,1,1,0.32,0.32,-0.1,0
-0.0003193,0.012723,0,0,0,0,0,0,0,0,-561.58,294.65,0,-340.09,0,-271.94,581.15,1,1,0.325,0.325,-0.1,0
-0.00032918,0.012761,0,0,0,0,0,0,0,0,-556.16,287.65,0,-329.45,0,-267.08,573.21,1,1,0.33,0.33,-0.1,0
-0.00033906,0.012799,0,0,0,0,0,0,0,0,-550.73,280.66,0,-318.81,0,-262.23,565.27,1,1,0.335,0.335,-0.1,0
-0.00034893,0.012837,0,0,0,0,0,0,0,0,-545.31,273.67,0,-308.17,0,-257.37,557.32,1,1,0.34,0.34,-0.1,0
-0.0003588,0.012875,0,0,0,0,0,0,0,0,-539.89,266.68,0,-297.52,0,-252.52,549.38,1,1,0.345,0.345,-0.1,0
-0.00036867,0.012912,0,0,0,0,0,0,0,0,-534.48,259.69,0,-286.88,0,-247.66,541.44,1,1,0.35,0.35,-0.1,0
-0.00037854,0.01295,0,0,0,0,0,0,0,0,-529.06,252.7,0,-276.23,0,-242.81,533.49,1,1,0.355,0.355,-0.1,0
-0.00038841,0.012988,0,0,0,0,0,0,0,0,-523.65,245.72,0,-265.58,0,-237.96,525.55,1,1,0.36,0.36,-0.1,0
-0.00039827,0.013026,0,0,0,0,0,0,0,0,-518.25,238.73,0,-254.92,0,-233.1,517.61,1,1,0.365,0.365,-0.1,0
-0.00040813,0.013064,0,0,0,0,0,0,0,0,-512.84,231.75,0,-244.27,0,-228.25,509.66,1,1,0.37,0.37,-0.1,0
-0.000418,0.013101,0,0,0,0,0,0,0,0,-507.44,224.76,0,-233.61,0,-223.4,501.72,1,1,0.375,0.375,-0.1,0
-0.00042786,0.013139,0,0,0,0,0,0,0,0,-502.04,217.78,0,-222.96,0,-218.55,493.78,1,1,0.38,0.38,-0.1,0
-0.00043771,0.013177,0,0,0,0,0,0,0,0,-496.65,210.8,0,-212.3,0,-213.7,485.83,1,1,0.385,0.385,-0.1,0
-0.00044757,0.013215,0,0,0,0,0,0,0,0,-491.26,203.82,0,-201.64,0,-208.85,477.89,1,1,0.39,0.39,-0.1,0
-0.00045742,0.013252,0,0,0,0,0,0,0,0,-485.87,196.84,0,-190.97,0,-203.99,469.95,1,1,0.395,0.395,-0.1,0
-0.00046728,0.01329,0,0,0,0,0,0,0,0,-480.48,189.86,0,-180.31,0,-199.14,462,1,1,0.4,0.4,-0.1,0
-0.00047713,0.013328,0,0,0,0,0,0,0,0,-475.1,182.88,0,-169.64,0,-194.29,454.06,1,1,0.405,0.405,-0.1,0
-0.00048698,0.013366,0,0,0,0,0,0,0,0,-469.72,175.9,0,-158.98,0,-189.44,446.12,1,1,0.41,0.41,-0.1,0
-0.00049682,0.013403,0,0,0,0,0,0,0,0,-464.34,168.92,0,-148.31,0,-184.6,438.17,1,1,0.415,0.415,-0.1,0
-0.00050667,0.013441,0,0,0,0,0,0,0,0,-458.97,161.95,0,-137.64,0,-179.75,430.23,1,1,0.42,0.42,-0.1,0
-0.00051651,0.013479,0,0,0,0,0,0,0,0,-453.59,154.97,0,-126.96,0,-174.9,422.29,1,1,0.425,0.425,-0.1,0
-0.00052636,0.013517,0,0,0,0,0,0,0,0,-448.22,148,0,-116.29,0,-170.05,414.34,1,1,0.43,0.43,-0.1,0
-0.0005362,0.013554,0,0,0,0,0,0,0,0,-442.86,141.03,0,-105.61,0,-165.2,406.4,1,1,0.435,0.435,-0.1,0
-0.00054604,0.013592,0,0,0,0,0,0,0,0,-437.5,134.06,0,-94.932,0,-160.35,398.46,1,1,0.44,0.44,-0.1,0
-0.00055415,0.013622,0,0,0,0,0,0,0,0,-431.47,129.66,0,-89.894,0,-157.01,391.81,1,1,0.445,0.445,-0.1,0
-0.00056148,0.013649,0,0,0,0,0,0,0,0,-425.14,126.41,0,-87.382,0,-154.34,385.75,1,1,0.45,0.45,-0.1,0
-0.00056882,0.013675,0,0,0,0,0,0,0,0,-418.81,123.16,0,-84.869,0,-151.67,379.69,1,1,0.455,0.455,-0.1,0
-0.00057616,0.013702,0,0,0,0,0,0,0,0,-412.49,119.91,0,-82.354,0,-149.01,373.63,1,1,0.46,0.46,-0.1,0
-0.0005835,0.013728,0,0,0,0,0,0,0,0,-406.17,116.67,0,-79.839,0,-146.34,367.57,1,1,0.465,0.465,-0.1,0
-0.00059084,0.013755,0,0,0,0,0,0,0,0,-399.85,113.42,0,-77.323,0,-143.67,361.51,1,1,0.47,0.47,-0.1,0
-0.00059818,0.013782,0,0,0,0,0,0,0,0,-393.53,110.16,0,-74.806,0,-141,355.45,1,1,0.475,0.475,-0.1,0
-0.00060552,0.013808,0,0,0,0,0,0,0,0,-387.21,106.91,0,-72.288,0,-138.34,349.39,1,1,0.48,0.48,-0.1,0
-0.00061286,0.013835,0,0,0,0,0,0,0,0,-380.9,103.66,0,-69.769,0,-135.67,343.32,1,1,0.485,0.485,-0.1,0
-0.0006202,0.013861,0,0,0,0,0,0,0,0,-374.58,100.41,0,-67.249,0,-133,337.26,1,1,0.49,0.49,-0.1,0
-0.00062754,0.013888,0,0,0,0,0,0,0,0,-368.27,97.155,0,-64.728,0,-130.34,331.2,1,1,0.495,0.495,-0.1,0
-0.00063489,0.013914,0,0,0,0,0,0,0,0,-361.96,93.9,0,-62.206,0,-127.67,325.14,1,1,0.5,0.5,-0.1,0
-0.00064223,0.013941,0,0,0,0,0,0,0,0,-355.65,90.645,0,-59.684,0,-125.01,319.08,1,1,0.505,0.505,-0.1,0
-0.00064957,0.013968,0,0,0,0,0,0,0,0,-349.34,87.389,0,-57.16,0,-122.34,313.02,1,1,0.51,0.51,-0.1,0
-0.00065692,0.013994,0,0,0,0,0,0,0,0,-343.04,84.132,0,-54.635,0,-119.67,306.96,1,1,0.515,0.515,-0.1,0
-0.00066426,0.014021,0,0,0,0,0,0,0,0,-336.73,80.874,0,-52.11,0,-117.01,300.9,1,1,0.52,0.52,-0.1,0
-0.0006716,0.014047,0,0,0,0,0,0,0,0,-330.43,77.616,0,-49.583,0,-114.34,294.83,1,1,0.525,0.525,-0.1,0
-0.00067895,0.014074,0,0,0,0,0,0,0,0,-324.13,74.357,0,-47.056,0,-111.68,288.77,1,1,0.53,0.53,-0.1,0
-0.00068629,0.0141,0,0,0,0,0,0,0,0,-317.83,71.096,0,-44.528,0,-109.01,282.71,1,1,0.535,0.535,-0.1,0
-0.00069364,0.014127,0,0,0,0,0,0,0,0,-311.53,67.836,0,-41.998,0,-106.35,276.65,1,1,0.54,0.54,-0.1,0
-0.00070098,0.014154,0,0,0,0,0,0,0,0,-305.24,64.574,0,-39.468,0,-103.69,270.59,1,1,0.545,0.545,-0.1,0
-0.00070833,0.01418,0,0,0,0,0,0,0,0,-298.94,61.312,0,-36.937,0,-101.02,264.53,1,1,0.55,0.55,-0.1,0
-0.00071568,0.014207,0,0,0,0,0,0,0,0,-292.65,58.049,0,-34.405,0,-98.357,258.46,1,1,0.555,0.555,-0.1,0
-0.00072302,0.014233,0,0,0,0,0,0,0,0,-286.36,54.785,0,-31.872,0,-95.693,252.4,1,1,0.56,0.56,-0.1,0
-0.00073037,0.01426,0,0,0,0,0,0,0,0,-280.07,51.52,0,-29.338,0,-93.03,246.34,1,1,0.565,0.565,-0.1,0
-0.00073742,0.014286,0,0,0,0,0,0,0,0,-274.22,48.563,0,-27.054,0,-90.576,240.74,1,1,0.57,0.57,-0.1,0
-0.00074249,0.014306,0,0,0,0,0,0,0,0,-271.31,47.658,0,-26.436,0,-89.513,238.2,1,1,0.575,0.575,-0.1,0
-0.00074755,0.014326,0,0,0,0,0,0,0,0,-268.39,46.752,0,-25.818,0,-88.451,235.65,1,1,0.58,0.58,-0.1,0
-0.00075262,0.014346,0,0,0,0,0,0,0,0,-265.48,45.845,0,-25.199,0,-87.387,233.11,1,1,0.585,0.585,-0.1,0
-0.00075769,0.014366,0,0,0,0,0,0,0,0,-262.56,44.938,0,-24.58,0,-86.324,230.56,1,1,0.59,0.59,-0.1,0
-0.00076276,0.014386,0,0,0,0,0,0,0,0,-259.65,44.03,0,-23.961,0,-85.261,228.02,1,1,0.595,0.595,-0.1,0
-0.00076783,0.014406,0,0,0,0,0,0,0,0,-256.74,43.121,0,-23.341,0,-84.197,225.47,1,1,0.6,0.6,-0.1,0
-0.0007729,0.014426,0,0,0,0,0,0,0,0,-253.82,42.212,0,-22.722,0,-83.134,222.92,1,1,0.605,0.605,-0.1,0
-0.00077797,0.014446,0,0,0,0,0,0,0,0,-250.91,41.303,0,-22.101,0,-82.07,220.38,1,1,0.61,0.61,-0.1,0
-0.00078304,0.014465,0,0,0,0,0,0,0,0,-247.99,40.393,0,-21.481,0,-81.006,217.83,1,1,0.615,0.615,-0.1,0
-0.00078812,0.014485,0,0,0,0,0,0,0,0,-245.07,39.482,0,-20.86,0,-79.942,215.28,1,1,0.62,0.62,-0.1,0
-0.00079319,0.014505,0,0,0,0,0,0,0,0,-242.16,38.571,0,-20.239,0,-78.878,212.73,1,1,0.625,0.625,-0.1,0
-0.00079826,0.014525,0,0,0,0,0,0,0,0,-239.24,37.659,0,-19.617,0,-77.814,210.18,1,1,0.63,0.63,-0.1,0
-0.00080334,0.014545,0,0,0,0,0,0,0,0,-236.33,36.747,0,-18.996,0,-76.749,207.63,1,1,0.635,0.635,-0.1,0
-0.00080841,0.014565,0,0,0,0,0,0,0,0,-233.41,35.834,0,-18.373,0,-75.685,205.08,1,1,0.64,0.64,-0.1,0
-0.00081349,0.014585,0,0,0,0,0,0,0,0,-230.5,34.921,0,-17.751,0,-74.62,202.53,1,1,0.645,0.645,-0.1,0
-0.00081857,0.014605,0,0,0,0,0,0,0,0,-227.58,34.007,0,-17.128,0,-73.555,199.98,1,1,0.65,0.65,-0.1,0
-0.00082364,0.014625,0,0,0,0,0,0,0,0,-224.66,33.093,0,-16.505,0,-72.49,197.43,1,1,0.655,0.655,-0.1,0
-0.00082872,0.014645,0,0,0,0,0,0,0,0,-221.75,32.178,0,-15.882,0,-71.425,194.88,1,1,0.66,0.66,-0.1,0
-0.0008338,0.014665,0,0,0,0,0,0,0,0,-218.83,31.262,0,-15.258,0,-70.359,192.33,1,1,0.665,0.665,-0.1,0
-0.00083888,0.014685,0,0,0,0,0,0,0,0,-215.91,30.346,0,-14.634,0,-69.294,189.77,1,1,0.67,0.67,-0.1,0
-0.00084396,0.014705,0,0,0,0,0,0,0,0,-213,29.429,0,-14.009,0,-68.228,187.22,1,1,0.675,0.675,-0.1,0
-0.00084904,0.014725,0,0,0,0,0,0,0,0,-210.08,28.512,0,-13.385,0,-67.163,184.67,1,1,0.68,0.68,-0.1,0
-0.00085412,0.014745,0,0,0,0,0,0,0,0,-207.16,27.594,0,-12.76,0,-66.097,182.11,1,1,0.685,0.685,-0.1,0
-0.0008592,0.014765,0,0,0,0,0,0,0,0,-204.24,26.676,0,-12.134,0,-65.031,179.56,1,1,0.69,0.69,-0.1,0
-0.00086428,0.014785,0,0,0,0,0,0,0,0,-201.33,25.757,0,-11.508,0,-63.964,177,1,1,0.695,0.695,-0.1,0
-0.00086937,0.014805,0,0,0,0,0,0,0,0,-198.41,24.838,0,-10.882,0,-62.898,174.45,1,1,0.7,0.7,-0.1,0
-0.00087425,0.014825,0,0,0,0,0,0,0,0,-195.73,24.005,0,-10.327,0,-61.924,172.1,1,1,0.705,0.705,-0.1,0
-0.0008781,0.014841,0,0,0,0,0,0,0,0,-194.25,23.618,0,-10.138,0,-61.422,170.8,1,1,0.71,0.71,-0.1,0
-0.00088195,0.014857,0,0,0,0,0,0,0,0,-192.77,23.231,0,-9.9479,0,-60.921,169.5,1,1,0.715,0.715,-0.1,0
-0.0008858,0.014873,0,0,0,0,0,0,0,0,-191.3,22.844,0,-9.7581,0,-60.419,168.2,1,1,0.72,0.72,-0.1,0
-0.00088966,0.014889,0,0,0,0,0,0,0,0,-189.82,22.456,0,-9.5681,0,-59.917,166.91,1,1,0.725,0.725,-0.1,0
-0.00089351,0.014905,0,0,0,0,0,0,0,0,-188.34,22.069,0,-9.3781,0,-59.415,165.61,1,1,0.73,0.73,-0.1,0
-0.00089736,0.014921,0,0,0,0,0,0,0,0,-186.86,21.681,0,-9.1879,0,-58.913,164.31,1,1,0.735,0.735,-0.1,0
-0.00090121,0.014937,0,0,0,0,0,0,0,0,-185.38,21.293,0,-8.9977,0,-58.411,163.01,1,1,0.74,0.74,-0.1,0
-0.00090507,0.014953,0,0,0,0,0,0,0,0,-183.91,20.905,0,-8.8073,0,-57.909,161.71,1,1,0.745,0.745,-0.1,0
-0.00090892,0.014969,0,0,0,0,0,0,0,0,-182.43,20.516,0,-8.6168,0,-57.407,160.41,1,1,0.75,0.75,-0.1,0
-0.00091278,0.014985,0,0,0,0,0,0,0,0,-180.95,20.127,0,-8.4263,0,-56.905,159.11,1,1,0.755,0.755,-0.1,0
-0.00091663,0.015001,0,0,0,0,0,0,0,0,-179.47,19.739,0,-8.2356,0,-56.402,157.81,1,1,0.76,0.76,-0.1,0
-0.00092049,0.015017,0,0,0,0,0,0,0,0,-177.99,19.349,0,-8.0448,0,-55.9,156.51,1,1,0.765,0.765,-0.1,0
-0.00092434,0.015033,0,0,0,0,0,0,0,0,-176.51,18.96,0,-7.8539,0,-55.397,155.21,1,1,0.77,0.77,-0.1,0
-0.0009282,0.015049,0,0,0,0,0,0,0,0,-175.03,18.571,0,-7.6629,0,-54.894,153.91,1,1,0.775,0.775,-0.1,0
-0.00093206,0.015065,0,0,0,0,0,0,0,0,-173.55,18.181,0,-7.4718,0,-54.391,152.61,1,1,0.78,0.78,-0.1,0
-0.00093592,0.015081,0,0,0,0,0,0,0,0,-172.07,17.791,0,-7.2806,0,-53.888,151.31,1,1,0.785,0.785,-0.1,0
-0.00093977,0.015097,0,0,0,0,0,0,0,0,-170.59,17.401,0,-7.0892,0,-53.385,150.01,1,1,0.79,0.79,-0.1,0
-0.00094363,0.015113,0,0,0,0,0,0,0,0,-169.11,17.011,0,-6.8978,0,-52.882,148.71,1,1,0.795,0.795,-0.1,0
-0.00094749,0.015129,0,0,0,0,0,0,0,0,-167.63,16.62,0,-6.7063,0,-52.379,147.41,1,1,0.8,0.8,-0.1,0
-0.00095135,0.015145,0,0,0,0,0,0,0,0,-166.15,16.229,0,-6.5146,0,-51.876,146.1,1,1,0.805,0.805,-0.1,0
-0.00095521,0.015161,0,0,0,0,0,0,0,0,-164.67,15.838,0,-6.3229,0,-51.372,144.8,1,1,0.81,0.81,-0.1,0
-0.00095907,0.015177,0,0,0,0,0,0,0,0,-163.19,15.447,0,-6.1311,0,-50.869,143.5,1,1,0.815,0.815,-0.1,0
-0.00096293,0.015193,0,0,0,0,0,0,0,0,-161.71,15.056,0,-5.9391,0,-50.365,142.2,1,1,0.82,0.82,-0.1,0
-0.00096679,0.015209,0,0,0,0,0,0,0,0,-160.22,14.664,0,-5.747,0,-49.862,140.89,1,1,0.825,0.825,-0.1,0
-0.00097066,0.015225,0,0,0,0,0,0,0,0,-158.74,14.272,0,-5.5549,0,-49.358,139.59,1,1,0.83,0.83,-0.1,0
-0.00097452,0.015241,0,0,0,0,0,0,0,0,-157.26,13.88,0,-5.3626,0,-48.854,138.29,1,1,0.835,0.835,-0.1,0
-0.00097838,0.015257,0,0,0,0,0,0,0,0,-155.78,13.488,0,-5.1702,0,-48.35,136.98,1,1,0.84,0.84,-0.1,0
-0.00098224,0.015273,0,0,0,0,0,0,0,0,-154.3,13.096,0,-4.9777,0,-47.846,135.68,1,1,0.845,0.845,-0.1,0
-0.00098554,0.015287,0,0,0,0,0,0,0,0,-153.32,12.876,0,-4.8776,0,-47.523,134.83,1,1,0.85,0.85,-0.1,0
-0.00098869,0.0153,0,0,0,0,0,0,0,0,-152.48,12.703,0,-4.8016,0,-47.247,134.09,1,1,0.855,0.855,-0.1,0
-0.00099183,0.015314,0,0,0,0,0,0,0,0,-151.64,12.529,0,-4.7256,0,-46.971,133.36,1,1,0.86,0.86,-0.1,0
-0.00099498,0.015327,0,0,0,0,0,0,0,0,-150.79,12.355,0,-4.6496,0,-46.695,132.62,1,1,0.865,0.865,-0.1,0
-0.00099813,0.01534,0,0,0,0,0,0,0,0,-149.95,12.181,0,-4.5735,0,-46.418,131.89,1,1,0.87,0.87,-0.1,0
-0.0010013,0.015354,0,0,0,0,0,0,0,0,-149.11,12.007,0,-4.4974,0,-46.142,131.16,1,1,0.875,0.875,-0.1,0
-0.0010044,0.015367,0,0,0,0,0,0,0,0,-148.27,11.832,0,-4.4212,0,-45.866,130.42,1,1,0.88,0.88,-0.1,0
-0.0010076,0.01538,0,0,0,0,0,0,0,0,-147.42,11.658,0,-4.3451,0,-45.59,129.69,1,1,0.885,0.885,-0.1,0
-0.0010107,0.015394,0,0,0,0,0,0,0,0,-146.58,11.484,0,-4.2688,0,-45.313,128.95,1,1,0.89,0.89,-0.1,0
-0.0010139,0.015407,0,0,0,0,0,0,0,0,-145.74,11.309,0,-4.1926,0,-45.037,128.22,1,1,0.895,0.895,-0.1,0
-0.001017,0.01542,0,0,0,0,0,0,0,0,-144.89,11.134,0,-4.1163,0,-44.76,127.48,1,1,0.9,0.9,-0.1,0
-0.0010202,0.015434,0,0,0,0,0,0,0,0,-144.05,10.96,0,-4.04,0,-44.484,126.75,1,1,0.905,0.905,-0.1,0
-0.0010233,0.015447,0,0,0,0,0,0,0,0,-143.21,10.785,0,-3.9637,0,-44.207,126.01,1,1,0.91,0.91,-0.1,0
-0.0010265,0.01546,0,0,0,0,0,0,0,0,-142.36,10.61,0,-3.8873,0,-43.93,125.28,1,1,0.915,0.915,-0.1,0
-0.0010296,0.015474,0,0,0,0,0,0,0,0,-141.52,10.435,0,-3.8108,0,-43.654,124.54,1,1,0.92,0.92,-0.1,0
-0.0010328,0.015487,0,0,0,0,0,0,0,0,-140.68,10.26,0,-3.7344,0,-43.377,123.8,1,1,0.925,0.925,-0.1,0
-0.0010359,0.0155,0,0,0,0,0,0,0,0,-139.83,10.085,0,-3.6579,0,-43.1,123.07,1,1,0.93,0.93,-0.1,0
-0.0010391,0.015513,0,0,0,0,0,0,0,0,-138.99,9.9096,0,-3.5814,0,-42.823,122.33,1,1,0.935,0.935,-0.1,0
-0.0010422,0.015527,0,0,0,0,0,0,0,0,-138.14,9.7343,0,-3.5048,0,-42.547,121.6,1,1,0.94,0.94,-0.1,0
-0.0010454,0.01554,0,0,0,0,0,0,0,0,-137.3,9.5588,0,-3.4282,0,-42.27,120.86,1,1,0.945,0.945,-0.1,0
-0.0010485,0.015553,0,0,0,0,0,0,0,0,-136.45,9.3833,0,-3.3516,0,-41.993,120.12,1,1,0.95,0.95,-0.1,0
-0.0010517,0.015567,0,0,0,0,0,0,0,0,-135.61,9.2077,0,-3.2749,0,-41.716,119.39,1,1,0.955,0.955,-0.1,0
-0.0010548,0.01558,0,0,0,0,0,0,0,0,-134.76,9.032,0,-3.1982,0,-41.439,118.65,1,1,0.96,0.96,-0.1,0
-0.001058,0.015593,0,0,0,0,0,0,0,0,-133.92,8.8562,0,-3.1215,0,-41.161,117.91,1,1,0.965,0.965,-0.1,0
-0.0010611,0.015607,0,0,0,0,0,0,0,0,-133.07,8.6803,0,-3.0447,0,-40.884,117.18,1,1,0.97,0.97,-0.1,0
-0.0010643,0.01562,0,0,0,0,0,0,0,0,-132.23,8.5043,0,-2.9679,0,-40.607,116.44,1,1,0.975,0.975,-0.1,0
-0.0010675,0.015633,0,0,0,0,0,0,0,0,-131.38,8.3282,0,-2.8911,0,-40.33,115.7,1,1,0.98,0.98,-0.1,0
-0.0010706,0.015647,0,0,0,0,0,0,0,0,-130.54,8.152,0,-2.8142,0,-40.052,114.96,1,1,0.985,0.985,-0.1,0
-0.0010738,0.01566,0,0,0,0,0,0,0,0,-129.69,7.9758,0,-2.7373,0,-39.775,114.23,1,1,0.99,0.99,-0.1,0
-0.0010769,0.015673,0,0,0,0,0,0,0,0,-128.85,7.7994,0,-2.6603,0,-39.498,113.49,1,1,0.995,0.995,-0.1,0
-0.0010796,0.015685,0,0,0,0,0,0,0,0,-128.34,7.7099,0,-2.6267,0,-39.334,113.05,1,1,1,1,-0.1,0
-0.0010823,0.015696,0,0,0,0,0,0,0,0,-127.82,7.6187,0,-2.5922,0,-39.169,112.6,1,1,1.005,1.005,-0.1,0
-0.001085,0.015707,0,0,0,0,0,0,0,0,-127.31,7.5274,0,-2.5577,0,-39.004,112.15,1,1,1.01,1.01,-0.1,0
-0.0010877,0.015719,0,0,0,0,0,0,0,0,-126.79,7.4361,0,-2.5232,0,-38.838,111.7,1,1,1.015,1.015,-0.1,0
-0.0010904,0.01573,0,0,0,0,0,0,0,0,-126.27,7.3447,0,-2.4887,0,-38.673,111.25,1,1,1.02,1.02,-0.1,0
-0.0010932,0.015741,0,0,0,0,0,0,0,0,-125.76,7.2533,0,-2.4542,0,-38.507,110.8,1,1,1.025,1.025,-0.1,0
-0.0010959,0.015753,0,0,0,0,0,0,0,0,-125.24,7.1618,0,-2.4196,0,-38.342,110.35,1,1,1.03,1.03,-0.1,0
-0.0010986,0.015764,0,0,0,0,0,0,0,0,-124.73,7.0703,0,-2.3851,0,-38.176,109.9,1,1,1.035,1.035,-0.1,0
-0.0011013,0.015776,0,0,0,0,0,0,0,0,-124.21,6.9788,0,-2.3505,0,-38.011,109.45,1,1,1.04,1.04,-0.1,0
-0.001104,0.015787,0,0,0,0,0,0,0,0,-123.69,6.8872,0,-2.3159,0,-37.845,109,1,1,1.045,1.045,-0.1,0
-0.0011067,0.015798,0,0,0,0,0,0,0,0,-123.18,6.7956,0,-2.2813,0,-37.68,108.55,1,1,1.05,1.05,-0.1,0
-0.0011094,0.01581,0,0,0,0,0,0,0,0,-122.66,6.7039,0,-2.2467,0,-37.514,108.1,1,1,1.055,1.055,-0.1,0
-0.0011121,0.015821,0,0,0,0,0,0,0,0,-122.15,6.6122,0,-2.2121,0,-37.348,107.65,1,1,1.06,1.06,-0.1,0
-0.0011148,0.015832,0,0,0,0,0,0,0,0,-121.63,6.5205,0,-2.1775,0,-37.183,107.2,1,1,1.065,1.065,-0.1,0
-0.0011175,0.015844,0,0,0,0,0,0,0,0,-121.11,6.4287,0,-2.1428,0,-37.017,106.75,1,1,1.07,1.07,-0.1,0
-0.0011202,0.015855,0,0,0,0,0,0,0,0,-120.6,6.3369,0,-2.1081,0,-36.851,106.3,1,1,1.075,1.075,-0.1,0
-0.0011229,0.015867,0,0,0,0,0,0,0,0,-120.08,6.245,0,-2.0735,0,-36.685,105.85,1,1,1.08,1.08,-0.1,0
-0.0011257,0.015878,0,0,0,0,0,0,0,0,-119.56,6.1531,0,-2.0388,0,-36.52,105.4,1,1,1.085,1.085,-0.1,0
-0.0011284,0.015889,0,0,0,0,0,0,0,0,-119.05,6.0611,0,-2.0041,0,-36.354,104.95,1,1,1.09,1.09,-0.1,0
-0.0011311,0.015901,0,0,0,0,0,0,0,0,-118.53,5.9691,0,-1.9694,0,-36.188,104.5,1,1,1.095,1.095,-0.1,0
-0.0011338,0.015912,0,0,0,0,0,0,0,0,-118.01,5.8771,0,-1.9347,0,-36.022,104.05,1,1,1.1,1.1,-0.1,0
-0.0011365,0.015923,0,0,0,0,0,0,0,0,-117.49,5.785,0,-1.8999,0,-35.856,103.6,1,1,1.105,1.105,-0.1,0
-0.0011392,0.015935,0,0,0,0,0,0,0,0,-116.98,5.6929,0,-1.8652,0,-35.69,103.15,1,1,1.11,1.11,-0.1,0
-0.0011419,0.015946,0,0,0,0,0,0,0,0,-116.46,5.6007,0,-1.8304,0,-35.524,102.7,1,1,1.115,1.115,-0.1,0
-0.0011446,0.015957,0,0,0,0,0,0,0,0,-115.94,5.5085,0,-1.7956,0,-35.358,102.25,1,1,1.12,1.12,-0.1,0
-0.0011473,0.015969,0,0,0,0,0,0,0,0,-115.42,5.4162,0,-1.7608,0,-35.192,101.8,1,1,1.125,1.125,-0.1,0
-0.0011501,0.01598,0,0,0,0,0,0,0,0,-114.91,5.324,0,-1.726,0,-35.026,101.35,1,1,1.13,1.13,-0.1,0
-0.0011528,0.015992,0,0,0,0,0,0,0,0,-114.39,5.2316,0,-1.6912,0,-34.86,100.9,1,1,1.135,1.135,-0.1,0
-0.0011555,0.016003,0,0,0,0,0,0,0,0,-113.87,5.1393,0,-1.6564,0,-34.694,100.45,1,1,1.14,1.14,-0.1,0
-0.0011582,0.016014,0,0,0,0,0,0,0,0,-113.35,5.0468,0,-1.6216,0,-34.528,99.995,1,1,1.145,1.145,-0.1,0
-0.0011609,0.016026,0,0,0,0,0,0,0,0,-112.84,4.9544,0,-1.5867,0,-34.362,99.543,1,1,1.15,1.15,-0.1,0
-0.0011634,0.016036,0,0,0,0,0,0,0,0,-112.47,4.8974,0,-1.5664,0,-34.247,99.228,1,1,1.155,1.155,-0.1,0
-0.0011658,0.016046,0,0,0,0,0,0,0,0,-112.14,4.8469,0,-1.5487,0,-34.141,98.937,1,1,1.16,1.16,-0.1,0
-0.0011682,0.016056,0,0,0,0,0,0,0,0,-111.8,4.7962,0,-1.531,0,-34.035,98.645,1,1,1.165,1.165,-0.1,0
-0.0011706,0.016065,0,0,0,0,0,0,0,0,-111.47,4.7456,0,-1.5133,0,-33.929,98.354,1,1,1.17,1.17,-0.1,0
-0.001173,0.016075,0,0,0,0,0,0,0,0,-111.13,4.695,0,-1.4956,0,-33.823,98.062,1,1,1.175,1.175,-0.1,0
-0.0011754,0.016085,0,0,0,0,0,0,0,0,-110.8,4.6443,0,-1.4778,0,-33.717,97.771,1,1,1.18,1.18,-0.1,0
-0.0011778,0.016095,0,0,0,0,0,0,0,0,-110.46,4.5936,0,-1.4601,0,-33.611,97.479,1,1,1.185,1.185,-0.1,0
-0.0011803,0.016105,0,0,0,0,0,0,0,0,-110.13,4.5429,0,-1.4424,0,-33.505,97.188,1,1,1.19,1.19,-0.1,0
-0.0011827,0.016115,0,0,0,0,0,0,0,0,-109.79,4.4921,0,-1.4247,0,-33.399,96.896,1,1,1.195,1.195,-0.1,0
-0.0011851,0.016125,0,0,0,0,0,0,0,0,-109.46,4.4414,0,-1.4069,0,-33.292,96.605,1,1,1.2,1.2,-0.1,0
-0.0011875,0.016135,0,0,0,0,0,0,0,0,-109.12,4.3906,0,-1.3892,0,-33.186,96.313,1,1,1.205,1.205,-0.1,0
-0.0011899,0.016145,0,0,0,0,0,0,0,0,-108.79,4.3398,0,-1.3714,0,-33.08,96.021,1,1,1.21,1.21,-0.1,0
-0.0011923,0.016155,0,0,0,0,0,0,0,0,-108.45,4.289,0,-1.3537,0,-32.974,95.729,1,1,1.215,1.215,-0.1,0
-0.0011948,0.016164,0,0,0,0,0,0,0,0,-108.12,4.2382,0,-1.3359,0,-32.868,95.438,1,1,1.22,1.22,-0.1,0
-0.0011972,0.016174,0,0,0,0,0,0,0,0,-107.78,4.1873,0,-1.3181,0,-32.762,95.146,1,1,1.225,1.225,-0.1,0
-0.0011996,0.016184,0,0,0,0,0,0,0,0,-107.45,4.1364,0,-1.3004,0,-32.656,94.854,1,1,1.23,1.23,-0.1,0
-0.001202,0.016194,0,0,0,0,0,0,0,0,-107.11,4.0855,0,-1.2826,0,-32.549,94.562,1,1,1.235,1.235,-0.1,0
-0.0012044,0.016204,0,0,0,0,0,0,0,0,-106.78,4.0346,0,-1.2648,0,-32.443,94.27,1,1,1.24,1.24,-0.1,0
-0.0012068,0.016214,0,0,0,0,0,0,0,0,-106.44,3.9837,0,-1.247,0,-32.337,93.978,1,1,1.245,1.245,-0.1,0
-0.0012093,0.016224,0,0,0,0,0,0,0,0,-106.1,3.9327,0,-1.2292,0,-32.231,93.686,1,1,1.25,1.25,-0.1,0
-0.0012117,0.016234,0,0,0,0,0,0,0,0,-105.77,3.8817,0,-1.2114,0,-32.125,93.394,1,1,1.255,1.255,-0.1,0
-0.0012141,0.016244,0,0,0,0,0,0,0,0,-105.43,3.8307,0,-1.1936,0,-32.018,93.101,1,1,1.26,1.26,-0.1,0
-0.0012165,0.016253,0,0,0,0,0,0,0,0,-105.1,3.7797,0,-1.1758,0,-31.912,92.809,1,1,1.265,1.265,-0.1,0
-0.0012189,0.016263,0,0,0,0,0,0,0,0,-104.76,3.7286,0,-1.158,0,-31.806,92.517,1,1,1.27,1.27,-0.1,0
-0.0012213,0.016273,0,0,0,0,0,0,0,0,-104.42,3.6776,0,-1.1402,0,-31.699,92.225,1,1,1.275,1.275,-0.1,0
-0.0012238,0.016283,0,0,0,0,0,0,0,0,-104.09,3.6265,0,-1.1224,0,-31.593,91.932,1,1,1.28,1.28,-0.1,0
-0.0012262,0.016293,0,0,0,0,0,0,0,0,-103.75,3.5754,0,-1.1046,0,-31.487,91.64,1,1,1.285,1.285,-0.1,0
-0.0012286,0.016303,0,0,0,0,0,0,0,0,-103.42,3.5242,0,-1.0867,0,-31.38,91.347,1,1,1.29,1.29,-0.1,0
-0.001231,0.016313,0,0,0,0,0,0,0,0,-103.08,3.4731,0,-1.0689,0,-31.274,91.055,1,1,1.295,1.295,-0.1,0
-0.0012334,0.016323,0,0,0,0,0,0,0,0,-102.74,3.4219,0,-1.051,0,-31.168,90.762,1,1,1.3,1.3,-0.1,0
-0.0012358,0.016333,0,0,0,0,0,0,0,0,-102.41,3.3707,0,-1.0332,0,-31.061,90.47,1,1,1.305,1.305,-0.1,0
-0.0012383,0.016343,0,0,0,0,0,0,0,0,-102.07,3.3195,0,-1.0154,0,-30.955,90.177,1,1,1.31,1.31,-0.1,0
-0.0012406,0.016352,0,0,0,0,0,0,0,0,-101.77,3.2742,0,-0.99975,0,-30.858,89.911,1,1,1.315,1.315,-0.1,0
-0.0012428,0.016361,0,0,0,0,0,0,0,0,-101.54,3.2443,0,-0.99002,0,-30.787,89.714,1,1,1.32,1.32,-0.1,0
-0.001245,0.01637,0,0,0,0,0,0,0,0,-101.31,3.2144,0,-0.98029,0,-30.716,89.516,1,1,1.325,1.325,-0.1,0
-0.0012473,0.016378,0,0,0,0,0,0,0,0,-101.09,3.1846,0,-0.97055,0,-30.645,89.319,1,1,1.33,1.33,-0.1,0
-0.0012495,0.016387,0,0,0,0,0,0,0,0,-100.86,3.1547,0,-0.96081,0,-30.574,89.121,1,1,1.335,1.335,-0.1,0
-0.0012517,0.016396,0,0,0,0,0,0,0,0,-100.63,3.1248,0,-0.95107,0,-30.503,88.924,1,1,1.34,1.34,-0.1,0
-0.0012539,0.016405,0,0,0,0,0,0,0,0,-100.41,3.0949,0,-0.94133,0,-30.432,88.726,1,1,1.345,1.345,-0.1,0
-0.0012561,0.016413,0,0,0,0,0,0,0,0,-100.18,3.0649,0,-0.93159,0,-30.36,88.529,1,1,1.35,1.35,-0.1,0
-0.0012583,0.016422,0,0,0,0,0,0,0,0,-99.952,3.035,0,-0.92185,0,-30.289,88.331,1,1,1.355,1.355,-0.1,0
-0.0012605,0.016431,0,0,0,0,0,0,0,0,-99.725,3.005,0,-0.9121,0,-30.218,88.134,1,1,1.36,1.36,-0.1,0
-0.0012627,0.01644,0,0,0,0,0,0,0,0,-99.498,2.9751,0,-0.90235,0,-30.147,87.936,1,1,1.365,1.365,-0.1,0
-0.0012649,0.016448,0,0,0,0,0,0,0,0,-99.271,2.9451,0,-0.8926,0,-30.076,87.739,1,1,1.37,1.37,-0.1,0
-0.0012672,0.016457,0,0,0,0,0,0,0,0,-99.043,2.9151,0,-0.88285,0,-30.005,87.541,1,1,1.375,1.375,-0.1,0
-0.0012694,0.016466,0,0,0,0,0,0,0,0,-98.816,2.8851,0,-0.87309,0,-29.934,87.343,1,1,1.38,1.38,-0.1,0
-0.0012716,0.016474,0,0,0,0,0,0,0,0,-98.589,2.8551,0,-0.86333,0,-29.862,87.146,1,1,1.385,1.385,-0.1,0
-0.0012738,0.016483,0,0,0,0,0,0,0,0,-98.362,2.8251,0,-0.85357,0,-29.791,86.948,1,1,1.39,1.39,-0.1,0
-0.001276,0.016492,0,0,0,0,0,0,0,0,-98.135,2.7951,0,-0.84381,0,-29.72,86.75,1,1,1.395,1.395,-0.1,0
-0.0012782,0.016501,0,0,0,0,0,0,0,0,-97.908,2.7651,0,-0.83405,0,-29.649,86.552,1,1,1.4,1.4,-0.1,0
-0.0012804,0.016509,0,0,0,0,0,0,0,0,-97.681,2.735,0,-0.82429,0,-29.578,86.355,1,1,1.405,1.405,-0.1,0
-0.0012826,0.016518,0,0,0,0,0,0,0,0,-97.453,2.7049,0,-0.81452,0,-29.506,86.157,1,1,1.41,1.41,-0.1,0
-0.0012848,0.016527,0,0,0,0,0,0,0,0,-97.226,2.6749,0,-0.80475,0,-29.435,85.959,1,1,1.415,1.415,-0.1,0
-0.0012871,0.016536,0,0,0,0,0,0,0,0,-96.999,2.6448,0,-0.79498,0,-29.364,85.761,1,1,1.42,1.42,-0.1,0
-0.0012893,0.016544,0,0,0,0,0,0,0,0,-96.771,2.6147,0,-0.7852,0,-29.293,85.563,1,1,1.425,1.425,-0.1,0
-0.0012915,0.016553,0,0,0,0,0,0,0,0,-96.544,2.5846,0,-0.77543,0,-29.221,85.365,1,1,1.43,1.43,-0.1,0
-0.0012937,0.016562,0,0,0,0,0,0,0,0,-96.317,2.5545,0,-0.76565,0,-29.15,85.167,1,1,1.435,1.435,-0.1,0
-0.0012959,0.016571,0,0,0,0,0,0,0,0,-96.089,2.5244,0,-0.75587,0,-29.079,84.969,1,1,1.44,1.44,-0.1,0
-0.0012981,0.016579,0,0,0,0,0,0,0,0,-95.862,2.4942,0,-0.74609,0,-29.007,84.771,1,1,1.445,1.445,-0.1,0
-0.0013003,0.016588,0,0,0,0,0,0,0,0,-95.634,2.4641,0,-0.73631,0,-28.936,84.573,1,1,1.45,1.45,-0.1,0
-0.0013025,0.016597,0,0,0,0,0,0,0,0,-95.407,2.4339,0,-0.72652,0,-28.865,84.375,1,1,1.455,1.455,-0.1,0
-0.0013048,0.016606,0,0,0,0,0,0,0,0,-95.179,2.4037,0,-0.71673,0,-28.794,84.177,1,1,1.46,1.46,-0.1,0
-0.001307,0.016614,0,0,0,0,0,0,0,0,-94.951,2.3736,0,-0.70694,0,-28.722,83.979,1,1,1.465,1.465,-0.1,0
-0.0013092,0.016623,0,0,0,0,0,0,0,0,-94.724,2.3434,0,-0.69715,0,-28.651,83.781,1,1,1.47,1.47,-0.1,0
-0.0013114,0.016632,0,0,0,0,0,0,0,0,-94.496,2.3132,0,-0.68736,0,-28.579,83.582,1,1,1.475,1.475,-0.1,0
-0.0013136,0.016641,0,0,0,0,0,0,0,0,-94.269,2.283,0,-0.67756,0,-28.508,83.384,1,1,1.48,1.48,-0.1,0
-0.0013158,0.016649,0,0,0,0,0,0,0,0,-94.062,2.2564,0,-0.66901,0,-28.443,83.204,1,1,1.485,1.485,-0.1,0
-0.0013178,0.016657,0,0,0,0,0,0,0,0,-93.903,2.238,0,-0.66329,0,-28.394,83.066,1,1,1.49,1.49,-0.1,0
-0.0013199,0.016665,0,0,0,0,0,0,0,0,-93.744,2.2197,0,-0.65756,0,-28.344,82.927,1,1,1.495,1.495,-0.1,0
-0.001322,0.016673,0,0,0,0,0,0,0,0,-93.584,2.2013,0,-0.65183,0,-28.295,82.788,1,1,1.5,1.5,-0.1,0
-0.001324,0.01668,0,0,0,0,0,0,0,0,-93.425,2.1829,0,-0.6461,0,-28.245,82.65,1,1,1.505,1.505,-0.1,0
-0.0013261,0.016688,0,0,0,0,0,0,0,0,-93.266,2.1645,0,-0.64037,0,-28.196,82.511,1,1,1.51,1.51,-0.1,0
-0.0013282,0.016696,0,0,0,0,0,0,0,0,-93.107,2.1461,0,-0.63464,0,-28.146,82.372,1,1,1.515,1.515,-0.1,0
-0.0013302,0.016704,0,0,0,0,0,0,0,0,-92.947,2.1277,0,-0.62891,0,-28.097,82.234,1,1,1.52,1.52,-0.1,0
-0.0013323,0.016712,0,0,0,0,0,0,0,0,-92.788,2.1093,0,-0.62317,0,-28.047,82.095,1,1,1.525,1.525,-0.1,0
-0.0013344,0.016719,0,0,0,0,0,0,0,0,-92.629,2.0909,0,-0.61744,0,-27.997,81.956,1,1,1.53,1.53,-0.1,0
-0.0013364,0.016727,0,0,0,0,0,0,0,0,-92.47,2.0725,0,-0.6117,0,-27.948,81.817,1,1,1.535,1.535,-0.1,0
-0.0013385,0.016735,0,0,0,0,0,0,0,0,-92.31,2.0541,0,-0.60597,0,-27.898,81.679,1,1,1.54,1.54,-0.1,0
-0.0013406,0.016743,0,0,0,0,0,0,0,0,-92.151,2.0357,0,-0.60023,0,-27.849,81.54,1,1,1.545,1.545,-0.1,0
-0.0013426,0.016751,0,0,0,0,0,0,0,0,-91.992,2.0172,0,-0.59449,0,-27.799,81.401,1,1,1.55,1.55,-0.1,0
-0.0013447,0.016759,0,0,0,0,0,0,0,0,-91.832,1.9988,0,-0.58876,0,-27.749,81.262,1,1,1.555,1.555,-0.1,0
-0.0013468,0.016766,0,0,0,0,0,0,0,0,-91.673,1.9804,0,-0.58302,0,-27.7,81.123,1,1,1.56,1.56,-0.1,0
-0.0013488,0.016774,0,0,0,0,0,0,0,0,-91.513,1.9619,0,-0.57728,0,-27.65,80.984,1,1,1.565,1.565,-0.1,0
-0.0013509,0.016782,0,0,0,0,0,0,0,0,-91.354,1.9435,0,-0.57154,0,-27.6,80.846,1,1,1.57,1.57,-0.1,0
-0.0013529,0.01679,0,0,0,0,0,0,0,0,-91.194,1.925,0,-0.56579,0,-27.551,80.707,1,1,1.575,1.575,-0.1,0
-0.001355,0.016798,0,0,0,0,0,0,0,0,-91.035,1.9065,0,-0.56005,0,-27.501,80.568,1,1,1.58,1.58,-0.1,0
-0.0013571,0.016805,0,0,0,0,0,0,0,0,-90.875,1.8881,0,-0.55431,0,-27.452,80.429,1,1,1.585,1.585,-0.1,0
-0.0013591,0.016813,0,0,0,0,0,0,0,0,-90.716,1.8696,0,-0.54856,0,-27.402,80.29,1,1,1.59,1.59,-0.1,0
-0.0013612,0.016821,0,0,0,0,0,0,0,0,-90.556,1.8511,0,-0.54282,0,-27.352,80.151,1,1,1.595,1.595,-0.1,0
-0.0013633,0.016829,0,0,0,0,0,0,0,0,-90.397,1.8326,0,-0.53707,0,-27.303,80.012,1,1,1.6,1.6,-0.1,0
-0.0013653,0.016837,0,0,0,0,0,0,0,0,-90.237,1.8141,0,-0.53133,0,-27.253,79.873,1,1,1.605,1.605,-0.1,0
-0.0013674,0.016845,0,0,0,0,0,0,0,0,-90.078,1.7956,0,-0.52558,0,-27.203,79.734,1,1,1.61,1.61,-0.1,0
-0.0013695,0.016852,0,0,0,0,0,0,0,0,-89.918,1.7771,0,-0.51983,0,-27.153,79.595,1,1,1.615,1.615,-0.1,0
-0.0013715,0.01686,0,0,0,0,0,0,0,0,-89.758,1.7586,0,-0.51408,0,-27.104,79.456,1,1,1.62,1.62,-0.1,0
-0.0013736,0.016868,0,0,0,0,0,0,0,0,-89.599,1.74,0,-0.50833,0,-27.054,79.317,1,1,1.625,1.625,-0.1,0
-0.0013757,0.016876,0,0,0,0,0,0,0,0,-89.439,1.7215,0,-0.50258,0,-27.004,79.178,1,1,1.63,1.63,-0.1,0
-0.0013777,0.016884,0,0,0,0,0,0,0,0,-89.279,1.703,0,-0.49683,0,-26.955,79.038,1,1,1.635,1.635,-0.1,0
-0.0013798,0.016892,0,0,0,0,0,0,0,0,-89.12,1.6844,0,-0.49108,0,-26.905,78.899,1,1,1.64,1.64,-0.1,0
-0.0013819,0.016899,0,0,0,0,0,0,0,0,-88.96,1.6659,0,-0.48532,0,-26.855,78.76,1,1,1.645,1.645,-0.1,0
-0.0013839,0.016907,0,0,0,0,0,0,0,0,-88.8,1.6473,0,-0.47957,0,-26.805,78.621,1,1,1.65,1.65,-0.1,0
-0.001386,0.016915,0,0,0,0,0,0,0,0,-88.64,1.6288,0,-0.47381,0,-26.756,78.482,1,1,1.655,1.655,-0.1,0
-0.0013881,0.016923,0,0,0,0,0,0,0,0,-88.481,1.6102,0,-0.46806,0,-26.706,78.343,1,1,1.66,1.66,-0.1,0
-0.00139,0.01693,0,0,0,0,0,0,0,0,-88.363,1.5981,0,-0.46438,0,-26.669,78.24,1,1,1.665,1.665,-0.1,0
-0.001392,0.016937,0,0,0,0,0,0,0,0,-88.248,1.5864,0,-0.46084,0,-26.634,78.139,1,1,1.67,1.67,-0.1,0
-0.0013939,0.016944,0,0,0,0,0,0,0,0,-88.133,1.5747,0,-0.4573,0,-26.598,78.039,1,1,1.675,1.675,-0.1,0
-0.0013959,0.016951,0,0,0,0,0,0,0,0,-88.017,1.563,0,-0.45376,0,-26.563,77.939,1,1,1.68,1.68,-0.1,0
-0.0013978,0.016958,0,0,0,0,0,0,0,0,-87.902,1.5513,0,-0.45021,0,-26.527,77.838,1,1,1.685,1.685,-0.1,0
-0.0013998,0.016965,0,0,0,0,0,0,0,0,-87.787,1.5396,0,-0.44667,0,-26.491,77.738,1,1,1.69,1.69,-0.1,0
-0.0014018,0.016972,0,0,0,0,0,0,0,0,-87.672,1.5279,0,-0.44313,0,-26.456,77.638,1,1,1.695,1.695,-0.1,0
-0.0014037,0.016979,0,0,0,0,0,0,0,0,-87.557,1.5161,0,-0.43959,0,-26.42,77.537,1,1,1.7,1.7,-0.1,0
-0.0014057,0.016987,0,0,0,0,0,0,0,0,-87.442,1.5044,0,-0.43604,0,-26.384,77.437,1,1,1.705,1.705,-0.1,0
-0.0014076,0.016994,0,0,0,0,0,0,0,0,-87.327,1.4927,0,-0.4325,0,-26.349,77.336,1,1,1.71,1.71,-0.1,0
-0.0014096,0.017001,0,0,0,0,0,0,0,0,-87.211,1.481,0,-0.42895,0,-26.313,77.236,1,1,1.715,1.715,-0.1,0
-0.0014115,0.017008,0,0,0,0,0,0,0,0,-87.096,1.4692,0,-0.42541,0,-26.277,77.136,1,1,1.72,1.72,-0.1,0
-0.0014135,0.017015,0,0,0,0,0,0,0,0,-86.981,1.4575,0,-0.42187,0,-26.242,77.035,1,1,1.725,1.725,-0.1,0
-0.0014154,0.017022,0,0,0,0,0,0,0,0,-86.866,1.4458,0,-0.41832,0,-26.206,76.935,1,1,1.73,1.73,-0.1,0
-0.0014174,0.017029,0,0,0,0,0,0,0,0,-86.75,1.434,0,-0.41477,0,-26.17,76.834,1,1,1.735,1.735,-0.1,0
-0.0014194,0.017036,0,0,0,0,0,0,0,0,-86.635,1.4223,0,-0.41123,0,-26.134,76.734,1,1,1.74,1.74,-0.1,0
-0.0014213,0.017043,0,0,0,0,0,0,0,0,-86.52,1.4105,0,-0.40768,0,-26.099,76.633,1,1,1.745,1.745,-0.1,0
-0.0014233,0.01705,0,0,0,0,0,0,0,0,-86.405,1.3988,0,-0.40414,0,-26.063,76.533,1,1,1.75,1.75,-0.1,0
-0.0014252,0.017057,0,0,0,0,0,0,0,0,-86.289,1.387,0,-0.40059,0,-26.027,76.432,1,1,1.755,1.755,-0.1,0
-0.0014272,0.017064,0,0,0,0,0,0,0,0,-86.174,1.3753,0,-0.39704,0,-25.992,76.332,1,1,1.76,1.76,-0.1,0
-0.0014291,0.017071,0,0,0,0,0,0,0,0,-86.059,1.3635,0,-0.3935,0,-25.956,76.231,1,1,1.765,1.765,-0.1,0
-0.0014311,0.017078,0,0,0,0,0,0,0,0,-85.943,1.3517,0,-0.38995,0,-25.92,76.13,1,1,1.77,1.77,-0.1,0
-0.0014331,0.017086,0,0,0,0,0,0,0,0,-85.828,1.34,0,-0.3864,0,-25.884,76.03,1,1,1.775,1.775,-0.1,0
-0.001435,0.017093,0,0,0,0,0,0,0,0,-85.713,1.3282,0,-0.38285,0,-25.849,75.929,1,1,1.78,1.78,-0.1,0
-0.001437,0.0171,0,0,0,0,0,0,0,0,-85.597,1.3164,0,-0.3793,0,-25.813,75.829,1,1,1.785,1.785,-0.1,0
-0.0014389,0.017107,0,0,0,0,0,0,0,0,-85.482,1.3046,0,-0.37575,0,-25.777,75.728,1,1,1.79,1.79,-0.1,0
-0.0014409,0.017114,0,0,0,0,0,0,0,0,-85.367,1.2929,0,-0.3722,0,-25.742,75.627,1,1,1.795,1.795,-0.1,0
-0.0014428,0.017121,0,0,0,0,0,0,0,0,-85.251,1.2811,0,-0.36865,0,-25.706,75.527,1,1,1.8,1.8,-0.1,0
-0.0014448,0.017128,0,0,0,0,0,0,0,0,-85.136,1.2693,0,-0.3651,0,-25.67,75.426,1,1,1.805,1.805,-0.1,0
-0.0014467,0.017135,0,0,0,0,0,0,0,0,-85.02,1.2575,0,-0.36155,0,-25.634,75.326,1,1,1.81,1.81,-0.1,0
-0.0014487,0.017142,0,0,0,0,0,0,0,0,-84.905,1.2457,0,-0.358,0,-25.599,75.225,1,1,1.815,1.815,-0.1,0
-0.0014507,0.017149,0,0,0,0,0,0,0,0,-84.789,1.2339,0,-0.35445,0,-25.563,75.124,1,1,1.82,1.82,-0.1,0
-0.0014526,0.017156,0,0,0,0,0,0,0,0,-84.674,1.2221,0,-0.3509,0,-25.527,75.023,1,1,1.825,1.825,-0.1,0
-0.0014546,0.017163,0,0,0,0,0,0,0,0,-84.558,1.2103,0,-0.34735,0,-25.491,74.923,1,1,1.83,1.83,-0.1,0
-0.0014565,0.01717,0,0,0,0,0,0,0,0,-84.443,1.1984,0,-0.34379,0,-25.456,74.822,1,1,1.835,1.835,-0.1,0
-0.0014585,0.017178,0,0,0,0,0,0,0,0,-84.327,1.1866,0,-0.34024,0,-25.42,74.721,1,1,1.84,1.84,-0.1,0
-0.0014604,0.017184,0,0,0,0,0,0,0,0,-84.217,1.1755,0,-0.33691,0,-25.386,74.625,1,1,1.845,1.845,-0.1,0
-0.0014623,0.017191,0,0,0,0,0,0,0,0,-84.132,1.1679,0,-0.33462,0,-25.359,74.551,1,1,1.85,1.85,-0.1,0
-0.0014642,0.017197,0,0,0,0,0,0,0,0,-84.046,1.1602,0,-0.33233,0,-25.333,74.476,1,1,1.855,1.855,-0.1,0
-0.001466,0.017204,0,0,0,0,0,0,0,0,-83.961,1.1526,0,-0.33004,0,-25.307,74.401,1,1,1.86,1.86,-0.1,0
-0.0014679,0.01721,0,0,0,0,0,0,0,0,-83.875,1.1449,0,-0.32775,0,-25.28,74.327,1,1,1.865,1.865,-0.1,0
-0.0014698,0.017217,0,0,0,0,0,0,0,0,-83.79,1.1372,0,-0.32547,0,-25.254,74.252,1,1,1.87,1.87,-0.1,0
-0.0014717,0.017223,0,0,0,0,0,0,0,0,-83.704,1.1296,0,-0.32318,0,-25.227,74.178,1,1,1.875,1.875,-0.1,0
-0.0014735,0.01723,0,0,0,0,0,0,0,0,-83.619,1.1219,0,-0.32089,0,-25.201,74.103,1,1,1.88,1.88,-0.1,0
-0.0014754,0.017236,0,0,0,0,0,0,0,0,-83.533,1.1142,0,-0.3186,0,-25.175,74.028,1,1,1.885,1.885,-0.1,0
-0.0014773,0.017243,0,0,0,0,0,0,0,0,-83.448,1.1066,0,-0.31631,0,-25.148,73.954,1,1,1.89,1.89,-0.1,0
-0.0014792,0.017249,0,0,0,0,0,0,0,0,-83.362,1.0989,0,-0.31402,0,-25.122,73.879,1,1,1.895,1.895,-0.1,0
-0.001481,0.017255,0,0,0,0,0,0,0,0,-83.277,1.0912,0,-0.31173,0,-25.096,73.804,1,1,1.9,1.9,-0.1,0
-0.0014829,0.017262,0,0,0,0,0,0,0,0,-83.191,1.0835,0,-0.30945,0,-25.069,73.73,1,1,1.905,1.905,-0.1,0
-0.0014848,0.017268,0,0,0,0,0,0,0,0,-83.106,1.0758,0,-0.30716,0,-25.043,73.655,1,1,1.91,1.91,-0.1,0
-0.0014866,0.017275,0,0,0,0,0,0,0,0,-83.02,1.0682,0,-0.30487,0,-25.016,73.581,1,1,1.915,1.915,-0.1,0
-0.0014885,0.017281,0,0,0,0,0,0,0,0,-82.935,1.0605,0,-0.30258,0,-24.99,73.506,1,1,1.92,1.92,-0.1,0
-0.0014904,0.017288,0,0,0,0,0,0,0,0,-82.849,1.0528,0,-0.30029,0,-24.964,73.431,1,1,1.925,1.925,-0.1,0
-0.0014923,0.017294,0,0,0,0,0,0,0,0,-82.764,1.0451,0,-0.298,0,-24.937,73.356,1,1,1.93,1.93,-0.1,0
-0.0014941,0.017301,0,0,0,0,0,0,0,0,-82.678,1.0374,0,-0.29571,0,-24.911,73.282,1,1,1.935,1.935,-0.1,0
-0.001496,0.017307,0,0,0,0,0,0,0,0,-82.592,1.0297,0,-0.29342,0,-24.884,73.207,1,1,1.94,1.94,-0.1,0
-0.0014979,0.017314,0,0,0,0,0,0,0,0,-82.507,1.022,0,-0.29113,0,-24.858,73.132,1,1,1.945,1.945,-0.1,0
-0.0014998,0.01732,0,0,0,0,0,0,0,0,-82.421,1.0143,0,-0.28884,0,-24.832,73.058,1,1,1.95,1.95,-0.1,0
-0.0015016,0.017326,0,0,0,0,0,0,0,0,-82.336,1.0066,0,-0.28655,0,-24.805,72.983,1,1,1.955,1.955,-0.1,0
-0.0015035,0.017333,0,0,0,0,0,0,0,0,-82.25,0.99893,0,-0.28426,0,-24.779,72.908,1,1,1.96,1.96,-0.1,0
-0.0015054,0.017339,0,0,0,0,0,0,0,0,-82.164,0.99122,0,-0.28197,0,-24.752,72.833,1,1,1.965,1.965,-0.1,0
-0.0015072,0.017346,0,0,0,0,0,0,0,0,-82.079,0.98352,0,-0.27968,0,-24.726,72.759,1,1,1.97,1.97,-0.1,0
-0.0015091,0.017352,0,0,0,0,0,0,0,0,-81.993,0.97581,0,-0.27739,0,-24.7,72.684,1,1,1.975,1.975,-0.1,0
-0.001511,0.017359,0,0,0,0,0,0,0,0,-81.908,0.9681,0,-0.2751,0,-24.673,72.609,1,1,1.98,1.98,-0.1,0
-0.0015129,0.017365,0,0,0,0,0,0,0,0,-81.822,0.96039,0,-0.2728,0,-24.647,72.534,1,1,1.985,1.985,-0.1,0
-0.0015147,0.017372,0,0,0,0,0,0,0,0,-81.736,0.95267,0,-0.27051,0,-24.62,72.46,1,1,1.99,1.99,-0.1,0
-0.0015166,0.017378,0,0,0,0,0,0,0,0,-81.651,0.94496,0,-0.26822,0,-24.594,72.385,1,1,1.995,1.995,-0.1,0
-0.0015185,0.017385,0,0,0,0,0,0,0,0,-81.565,0.93724,0,-0.26593,0,-24.567,72.31,1,1,2,2,-0.1,0
-0.0015204,0.017391,0,0,0,0,0,0,0,0,-81.479,0.92952,0,-0.26364,0,-24.541,72.235,1,1,2.005,2.005,-0.1,0
-0.0015222,0.017397,0,0,0,0,0,0,0,0,-81.393,0.92179,0,-0.26135,0,-24.515,72.16,1,1,2.01,2.01,-0.1,0
-0.0015241,0.017404,0,0,0,0,0,0,0,0,-81.308,0.91407,0,-0.25906,0,-24.488,72.086,1,1,2.015,2.015,-0.1,0
-0.001526,0.01741,0,0,0,0,0,0,0,0,-81.222,0.90634,0,-0.25676,0,-24.462,72.011,1,1,2.02,2.02,-0.1,0
-0.0015279,0.017417,0,0,0,0,0,0,0,0,-81.136,0.89861,0,-0.25447,0,-24.435,71.936,1,1,2.025,2.025,-0.1,0
-0.0015297,0.017423,0,0,0,0,0,0,0,0,-81.051,0.89088,0,-0.25218,0,-24.409,71.861,1,1,2.03,2.03,-0.1,0
-0.0015316,0.01743,0,0,0,0,0,0,0,0,-80.965,0.88314,0,-0.24989,0,-24.382,71.786,1,1,2.035,2.035,-0.1,0
-0.0015334,0.017436,0,0,0,0,0,0,0,0,-80.9,0.87803,0,-0.24836,0,-24.362,71.73,1,1,2.04,2.04,-0.1,0
-0.0015352,0.017442,0,0,0,0,0,0,0,0,-80.835,0.8729,0,-0.24683,0,-24.342,71.673,1,1,2.045,2.045,-0.1,0
-0.001537,0.017448,0,0,0,0,0,0,0,0,-80.77,0.86778,0,-0.24529,0,-24.322,71.616,1,1,2.05,2.05,-0.1,0
-0.0015388,0.017454,0,0,0,0,0,0,0,0,-80.705,0.86265,0,-0.24376,0,-24.302,71.559,1,1,2.055,2.055,-0.1,0
-0.0015406,0.017459,0,0,0,0,0,0,0,0,-80.64,0.85752,0,-0.24223,0,-24.282,71.503,1,1,2.06,2.06,-0.1,0
-0.0015424,0.017465,0,0,0,0,0,0,0,0,-80.575,0.85239,0,-0.2407,0,-24.262,71.446,1,1,2.065,2.065,-0.1,0
-0.0015443,0.017471,0,0,0,0,0,0,0,0,-80.51,0.84726,0,-0.23917,0,-24.243,71.389,1,1,2.07,2.07,-0.1,0
-0.0015461,0.017477,0,0,0,0,0,0,0,0,-80.445,0.84212,0,-0.23763,0,-24.223,71.332,1,1,2.075,2.075,-0.1,0
-0.0015479,0.017483,0,0,0,0,0,0,0,0,-80.38,0.83699,0,-0.2361,0,-24.203,71.275,1,1,2.08,2.08,-0.1,0
-0.0015497,0.017489,0,0,0,0,0,0,0,0,-80.315,0.83185,0,-0.23457,0,-24.183,71.219,1,1,2.085,2.085,-0.1,0
-0.0015515,0.017495,0,0,0,0,0,0,0,0,-80.25,0.82671,0,-0.23304,0,-24.163,71.162,1,1,2.09,2.09,-0.1,0
-0.0015533,0.017501,0,0,0,0,0,0,0,0,-80.185,0.82157,0,-0.2315,0,-24.143,71.105,1,1,2.095,2.095,-0.1,0
-0.0015551,0.017507,0,0,0,0,0,0,0,0,-80.12,0.81643,0,-0.22997,0,-24.123,71.048,1,1,2.1,2.1,-0.1,0
-0.0015569,0.017513,0,0,0,0,0,0,0,0,-80.055,0.81129,0,-0.22844,0,-24.103,70.991,1,1,2.105,2.105,-0.1,0
-0.0015587,0.017519,0,0,0,0,0,0,0,0,-79.99,0.80615,0,-0.2269,0,-24.083,70.935,1,1,2.11,2.11,-0.1,0
-0.0015605,0.017525,0,0,0,0,0,0,0,0,-79.925,0.801,0,-0.22537,0,-24.063,70.878,1,1,2.115,2.115,-0.1,0
-0.0015623,0.017531,0,0,0,0,0,0,0,0,-79.86,0.79586,0,-0.22384,0,-24.043,70.821,1,1,2.12,2.12,-0.1,0
-0.0015641,0.017537,0,0,0,0,0,0,0,0,-79.795,0.79071,0,-0.22231,0,-24.023,70.764,1,1,2.125,2.125,-0.1,0
-0.001566,0.017543,0,0,0,0,0,0,0,0,-79.73,0.78556,0,-0.22077,0,-24.003,70.707,1,1,2.13,2.13,-0.1,0
-0.0015678,0.017549,0,0,0,0,0,0,0,0,-79.665,0.78041,0,-0.21924,0,-23.983,70.65,1,1,2.135,2.135,-0.1,0
-0.0015696,0.017554,0,0,0,0,0,0,0,0,-79.6,0.77526,0,-0.21771,0,-23.963,70.593,1,1,2.14,2.14,-0.1,0
-0.0015714,0.01756,0,0,0,0,0,0,0,0,-79.535,0.77011,0,-0.21618,0,-23.943,70.537,1,1,2.145,2.145,-0.1,0
-0.0015732,0.017566,0,0,0,0,0,0,0,0,-79.47,0.76495,0,-0.21464,0,-23.923,70.48,1,1,2.15,2.15,-0.1,0
-0.001575,0.017572,0,0,0,0,0,0,0,0,-79.404,0.7598,0,-0.21311,0,-23.902,70.423,1,1,2.155,2.155,-0.1,0
-0.0015768,0.017578,0,0,0,0,0,0,0,0,-79.339,0.75464,0,-0.21158,0,-23.882,70.366,1,1,2.16,2.16,-0.1,0
-0.0015786,0.017584,0,0,0,0,0,0,0,0,-79.274,0.74948,0,-0.21004,0,-23.862,70.309,1,1,2.165,2.165,-0.1,0
-0.0015804,0.01759,0,0,0,0,0,0,0,0,-79.209,0.74432,0,-0.20851,0,-23.842,70.252,1,1,2.17,2.17,-0.1,0
-0.0015822,0.017596,0,0,0,0,0,0,0,0,-79.144,0.73916,0,-0.20698,0,-23.822,70.195,1,1,2.175,2.175,-0.1,0
-0.001584,0.017602,0,0,0,0,0,0,0,0,-79.079,0.734,0,-0.20544,0,-23.802,70.138,1,1,2.18,2.18,-0.1,0
-0.0015858,0.017608,0,0,0,0,0,0,0,0,-79.014,0.72884,0,-0.20391,0,-23.782,70.081,1,1,2.185,2.185,-0.1,0
-0.0015876,0.017614,0,0,0,0,0,0,0,0,-78.949,0.72367,0,-0.20238,0,-23.762,70.024,1,1,2.19,2.19,-0.1,0
-0.0015895,0.01762,0,0,0,0,0,0,0,0,-78.884,0.71851,0,-0.20084,0,-23.742,69.968,1,1,2.195,2.195,-0.1,0
-0.0015913,0.017626,0,0,0,0,0,0,0,0,-78.818,0.71334,0,-0.19931,0,-23.722,69.911,1,1,2.2,2.2,-0.1,0
-0.0015931,0.017632,0,0,0,0,0,0,0,0,-78.753,0.70817,0,-0.19778,0,-23.702,69.854,1,1,2.205,2.205,-0.1,0
-0.0015949,0.017638,0,0,0,0,0,0,0,0,-78.688,0.703,0,-0.19624,0,-23.682,69.797,1,1,2.21,2.21,-0.1,0
-0.0015967,0.017644,0,0,0,0,0,0,0,0,-78.623,0.69783,0,-0.19471,0,-23.662,69.74,1,1,2.215,2.215,-0.1,0
-0.0015985,0.017649,0,0,0,0,0,0,0,0,-78.558,0.69266,0,-0.19318,0,-23.642,69.683,1,1,2.22,2.22,-0.1,0
-0.0016003,0.017655,0,0,0,0,0,0,0,0,-78.493,0.68748,0,-0.19164,0,-23.622,69.626,1,1,2.225,2.225,-0.1,0
-0.0016021,0.017661,0,0,0,0,0,0,0,0,-78.427,0.68231,0,-0.19011,0,-23.602,69.569,1,1,2.23,2.23,-0.1,0
-0.0016039,0.017667,0,0,0,0,0,0,0,0,-78.369,0.67787,0,-0.18879,0,-23.584,69.518,1,1,2.235,2.235,-0.1,0
-0.0016057,0.017673,0,0,0,0,0,0,0,0,-78.318,0.67438,0,-0.18773,0,-23.569,69.473,1,1,2.24,2.24,-0.1,0
-0.0016074,0.017678,0,0,0,0,0,0,0,0,-78.268,0.67089,0,-0.18667,0,-23.553,69.429,1,1,2.245,2.245,-0.1,0
-0.0016092,0.017684,0,0,0,0,0,0,0,0,-78.217,0.66739,0,-0.18561,0,-23.538,69.385,1,1,2.25,2.25,-0.1,0
-0.0016109,0.017689,0,0,0,0,0,0,0,0,-78.167,0.6639,0,-0.18455,0,-23.522,69.341,1,1,2.255,2.255,-0.1,0
-0.0016127,0.017695,0,0,0,0,0,0,0,0,-78.116,0.6604,0,-0.18349,0,-23.507,69.297,1,1,2.26,2.26,-0.1,0
-0.0016144,0.0177,0,0,0,0,0,0,0,0,-78.066,0.6569,0,-0.18243,0,-23.491,69.252,1,1,2.265,2.265,-0.1,0
-0.0016162,0.017706,0,0,0,0,0,0,0,0,-78.015,0.65341,0,-0.18137,0,-23.476,69.208,1,1,2.27,2.27,-0.1,0
-0.0016179,0.017711,0,0,0,0,0,0,0,0,-77.965,0.64991,0,-0.18032,0,-23.46,69.164,1,1,2.275,2.275,-0.1,0
-0.0016197,0.017717,0,0,0,0,0,0,0,0,-77.914,0.64641,0,-0.17926,0,-23.445,69.12,1,1,2.28,2.28,-0.1,0
-0.0016215,0.017722,0,0,0,0,0,0,0,0,-77.863,0.64291,0,-0.1782,0,-23.429,69.076,1,1,2.285,2.285,-0.1,0
-0.0016232,0.017728,0,0,0,0,0,0,0,0,-77.813,0.63941,0,-0.17714,0,-23.414,69.031,1,1,2.29,2.29,-0.1,0
-0.001625,0.017733,0,0,0,0,0,0,0,0,-77.762,0.63591,0,-0.17608,0,-23.398,68.987,1,1,2.295,2.295,-0.1,0
-0.0016267,0.017739,0,0,0,0,0,0,0,0,-77.712,0.6324,0,-0.17502,0,-23.383,68.943,1,1,2.3,2.3,-0.1,0
-0.0016285,0.017744,0,0,0,0,0,0,0,0,-77.661,0.6289,0,-0.17396,0,-23.367,68.899,1,1,2.305,2.305,-0.1,0
-0.0016302,0.01775,0,0,0,0,0,0,0,0,-77.611,0.6254,0,-0.1729,0,-23.352,68.855,1,1,2.31,2.31,-0.1,0
-0.001632,0.017755,0,0,0,0,0,0,0,0,-77.56,0.62189,0,-0.17184,0,-23.336,68.81,1,1,2.315,2.315,-0.1,0
-0.0016338,0.017761,0,0,0,0,0,0,0,0,-77.51,0.61838,0,-0.17079,0,-23.321,68.766,1,1,2.32,2.32,-0.1,0
-0.0016355,0.017766,0,0,0,0,0,0,0,0,-77.459,0.61488,0,-0.16973,0,-23.305,68.722,1,1,2.325,2.325,-0.1,0
-0.0016373,0.017772,0,0,0,0,0,0,0,0,-77.408,0.61137,0,-0.16867,0,-23.289,68.678,1,1,2.33,2.33,-0.1,0
-0.001639,0.017777,0,0,0,0,0,0,0,0,-77.358,0.60786,0,-0.16761,0,-23.274,68.633,1,1,2.335,2.335,-0.1,0
-0.0016408,0.017783,0,0,0,0,0,0,0,0,-77.307,0.60435,0,-0.16655,0,-23.258,68.589,1,1,2.34,2.34,-0.1,0
-0.0016425,0.017788,0,0,0,0,0,0,0,0,-77.257,0.60084,0,-0.16549,0,-23.243,68.545,1,1,2.345,2.345,-0.1,0
-0.0016443,0.017794,0,0,0,0,0,0,0,0,-77.206,0.59733,0,-0.16443,0,-23.227,68.501,1,1,2.35,2.35,-0.1,0
-0.001646,0.017799,0,0,0,0,0,0,0,0,-77.155,0.59382,0,-0.16337,0,-23.212,68.456,1,1,2.355,2.355,-0.1,0
-0.0016478,0.017805,0,0,0,0,0,0,0,0,-77.105,0.5903,0,-0.16231,0,-23.196,68.412,1,1,2.36,2.36,-0.1,0
-0.0016496,0.01781,0,0,0,0,0,0,0,0,-77.054,0.58679,0,-0.16126,0,-23.181,68.368,1,1,2.365,2.365,-0.1,0
-0.0016513,0.017816,0,0,0,0,0,0,0,0,-77.004,0.58327,0,-0.1602,0,-23.165,68.323,1,1,2.37,2.37,-0.1,0
-0.0016531,0.017821,0,0,0,0,0,0,0,0,-76.953,0.57976,0,-0.15914,0,-23.15,68.279,1,1,2.375,2.375,-0.1,0
-0.0016548,0.017827,0,0,0,0,0,0,0,0,-76.902,0.57624,0,-0.15808,0,-23.134,68.235,1,1,2.38,2.38,-0.1,0
-0.0016566,0.017832,0,0,0,0,0,0,0,0,-76.852,0.57272,0,-0.15702,0,-23.119,68.191,1,1,2.385,2.385,-0.1,0
-0.0016583,0.017838,0,0,0,0,0,0,0,0,-76.801,0.56921,0,-0.15596,0,-23.103,68.146,1,1,2.39,2.39,-0.1,0
-0.0016601,0.017843,0,0,0,0,0,0,0,0,-76.75,0.56569,0,-0.1549,0,-23.088,68.102,1,1,2.395,2.395,-0.1,0
-0.0016619,0.017849,0,0,0,0,0,0,0,0,-76.7,0.56217,0,-0.15384,0,-23.072,68.058,1,1,2.4,2.4,-0.1,0
-0.0016636,0.017854,0,0,0,0,0,0,0,0,-76.649,0.55865,0,-0.15279,0,-23.057,68.013,1,1,2.405,2.405,-0.1,0
-0.0016654,0.01786,0,0,0,0,0,0,0,0,-76.599,0.55512,0,-0.15173,0,-23.041,67.969,1,1,2.41,2.41,-0.1,0
-0.0016671,0.017865,0,0,0,0,0,0,0,0,-76.548,0.5516,0,-0.15067,0,-23.026,67.925,1,1,2.415,2.415,-0.1,0
-0.0016689,0.017871,0,0,0,0,0,0,0,0,-76.497,0.54808,0,-0.14961,0,-23.01,67.88,1,1,2.42,2.42,-0.1,0
-0.0016706,0.017876,0,0,0,0,0,0,0,0,-76.447,0.54455,0,-0.14855,0,-22.995,67.836,1,1,2.425,2.425,-0.1,0
-0.0016724,0.017882,0,0,0,0,0,0,0,0,-76.396,0.54103,0,-0.14749,0,-22.979,67.792,1,1,2.43,2.43,-0.1,0
-0.0016742,0.017887,0,0,0,0,0,0,0,0,-76.345,0.5375,0,-0.14643,0,-22.963,67.747,1,1,2.435,2.435,-0.1,0
-0.0016759,0.017893,0,0,0,0,0,0,0,0,-76.3,0.53451,0,-0.14552,0,-22.949,67.707,1,1,2.44,2.44,-0.1,0
-0.0016776,0.017898,0,0,0,0,0,0,0,0,-76.26,0.53209,0,-0.14477,0,-22.937,67.672,1,1,2.445,2.445,-0.1,0
-0.0016793,0.017903,0,0,0,0,0,0,0,0,-76.219,0.52968,0,-0.14402,0,-22.925,67.637,1,1,2.45,2.45,-0.1,0
-0.001681,0.017908,0,0,0,0,0,0,0,0,-76.179,0.52727,0,-0.14327,0,-22.913,67.602,1,1,2.455,2.455,-0.1,0
-0.0016827,0.017913,0,0,0,0,0,0,0,0,-76.139,0.52485,0,-0.14251,0,-22.9,67.567,1,1,2.46,2.46,-0.1,0
-0.0016845,0.017918,0,0,0,0,0,0,0,0,-76.099,0.52244,0,-0.14176,0,-22.888,67.532,1,1,2.465,2.465,-0.1,0
-0.0016862,0.017923,0,0,0,0,0,0,0,0,-76.059,0.52002,0,-0.14101,0,-22.876,67.497,1,1,2.47,2.47,-0.1,0
-0.0016879,0.017928,0,0,0,0,0,0,0,0,-76.019,0.51761,0,-0.14026,0,-22.863,67.461,1,1,2.475,2.475,-0.1,0
-0.0016896,0.017934,0,0,0,0,0,0,0,0,-75.979,0.51519,0,-0.13951,0,-22.851,67.426,1,1,2.48,2.48,-0.1,0
-0.0016913,0.017939,0,0,0,0,0,0,0,0,-75.938,0.51278,0,-0.13876,0,-22.839,67.391,1,1,2.485,2.485,-0.1,0
-0.001693,0.017944,0,0,0,0,0,0,0,0,-75.898,0.51036,0,-0.138,0,-22.827,67.356,1,1,2.49,2.49,-0.1,0
-0.0016947,0.017949,0,0,0,0,0,0,0,0,-75.858,0.50794,0,-0.13725,0,-22.814,67.321,1,1,2.495,2.495,-0.1,0
-0.0016965,0.017954,0,0,0,0,0,0,0,0,-75.818,0.50552,0,-0.1365,0,-22.802,67.286,1,1,2.5,2.5,-0.1,0
-0.0016982,0.017959,0,0,0,0,0,0,0,0,-75.778,0.5031,0,-0.13575,0,-22.79,67.251,1,1,2.505,2.505,-0.1,0
-0.0016999,0.017964,0,0,0,0,0,0,0,0,-75.738,0.50068,0,-0.135,0,-22.777,67.215,1,1,2.51,2.51,-0.1,0
-0.0017016,0.01797,0,0,0,0,0,0,0,0,-75.698,0.49826,0,-0.13425,0,-22.765,67.18,1,1,2.515,2.515,-0.1,0
-0.0017033,0.017975,0,0,0,0,0,0,0,0,-75.657,0.49584,0,-0.1335,0,-22.753,67.145,1,1,2.52,2.52,-0.1,0
-0.001705,0.01798,0,0,0,0,0,0,0,0,-75.617,0.49342,0,-0.13274,0,-22.741,67.11,1,1,2.525,2.525,-0.1,0
-0.0017067,0.017985,0,0,0,0,0,0,0,0,-75.577,0.491,0,-0.13199,0,-22.728,67.075,1,1,2.53,2.53,-0.1,0
-0.0017085,0.01799,0,0,0,0,0,0,0,0,-75.537,0.48858,0,-0.13124,0,-22.716,67.039,1,1,2.535,2.535,-0.1,0
-0.0017102,0.017995,0,0,0,0,0,0,0,0,-75.497,0.48615,0,-0.13049,0,-22.704,67.004,1,1,2.54,2.54,-0.1,0
-0.0017119,0.018,0,0,0,0,0,0,0,0,-75.457,0.48373,0,-0.12974,0,-22.691,66.969,1,1,2.545,2.545,-0.1,0
-0.0017136,0.018005,0,0,0,0,0,0,0,0,-75.416,0.48131,0,-0.12899,0,-22.679,66.934,1,1,2.55,2.55,-0.1,0
-0.0017153,0.018011,0,0,0,0,0,0,0,0,-75.376,0.47888,0,-0.12824,0,-22.667,66.899,1,1,2.555,2.555,-0.1,0
-0.001717,0.018016,0,0,0,0,0,0,0,0,-75.336,0.47646,0,-0.12748,0,-22.655,66.863,1,1,2.56,2.56,-0.1,0
-0.0017187,0.018021,0,0,0,0,0,0,0,0,-75.296,0.47403,0,-0.12673,0,-22.642,66.828,1,1,2.565,2.565,-0.1,0
-0.0017205,0.018026,0,0,0,0,0,0,0,0,-75.256,0.4716,0,-0.12598,0,-22.63,66.793,1,1,2.57,2.57,-0.1,0
-0.0017222,0.018031,0,0,0,0,0,0,0,0,-75.215,0.46918,0,-0.12523,0,-22.618,66.758,1,1,2.575,2.575,-0.1,0
-0.0017239,0.018036,0,0,0,0,0,0,0,0,-75.175,0.46675,0,-0.12448,0,-22.605,66.723,1,1,2.58,2.58,-0.1,0
-0.0017256,0.018041,0,0,0,0,0,0,0,0,-75.135,0.46432,0,-0.12373,0,-22.593,66.687,1,1,2.585,2.585,-0.1,0
-0.0017273,0.018047,0,0,0,0,0,0,0,0,-75.095,0.46189,0,-0.12298,0,-22.581,66.652,1,1,2.59,2.59,-0.1,0
-0.001729,0.018052,0,0,0,0,0,0,0,0,-75.055,0.45946,0,-0.12223,0,-22.568,66.617,1,1,2.595,2.595,-0.1,0
-0.0017307,0.018057,0,0,0,0,0,0,0,0,-75.014,0.45703,0,-0.12148,0,-22.556,66.582,1,1,2.6,2.6,-0.1,0
-0.0017325,0.018062,0,0,0,0,0,0,0,0,-74.974,0.4546,0,-0.12072,0,-22.544,66.547,1,1,2.605,2.605,-0.1,0
-0.0017342,0.018067,0,0,0,0,0,0,0,0,-74.934,0.45217,0,-0.11997,0,-22.532,66.511,1,1,2.61,2.61,-0.1,0
-0.0017359,0.018072,0,0,0,0,0,0,0,0,-74.894,0.44974,0,-0.11922,0,-22.519,66.476,1,1,2.615,2.615,-0.1,0
-0.0017376,0.018077,0,0,0,0,0,0,0,0,-74.854,0.44731,0,-0.11847,0,-22.507,66.441,1,1,2.62,2.62,-0.1,0
-0.0017393,0.018082,0,0,0,0,0,0,0,0,-74.813,0.44487,0,-0.11772,0,-22.495,66.406,1,1,2.625,2.625,-0.1,0
-0.001741,0.018088,0,0,0,0,0,0,0,0,-74.773,0.44244,0,-0.11697,0,-22.482,66.37,1,1,2.63,2.63,-0.1,0
-0.0017427,0.018093,0,0,0,0,0,0,0,0,-74.733,0.44001,0,-0.11622,0,-22.47,66.335,1,1,2.635,2.635,-0.1,0
-0.0017445,0.018098,0,0,0,0,0,0,0,0,-74.693,0.43757,0,-0.11547,0,-22.458,66.3,1,1,2.64,2.64,-0.1,0
-0.0017462,0.018103,0,0,0,0,0,0,0,0,-74.652,0.43514,0,-0.11472,0,-22.445,66.265,1,1,2.645,2.645,-0.1,0
-0.0017479,0.018108,0,0,0,0,0,0,0,0,-74.613,0.43279,0,-0.11399,0,-22.433,66.23,1,1,2.65,2.65,-0.1,0
-0.0017496,0.018113,0,0,0,0,0,0,0,0,-74.58,0.43111,0,-0.11344,0,-22.423,66.202,1,1,2.655,2.655,-0.1,0
-0.0017512,0.018118,0,0,0,0,0,0,0,0,-74.548,0.42943,0,-0.1129,0,-22.413,66.173,1,1,2.66,2.66,-0.1,0
-0.0017529,0.018123,0,0,0,0,0,0,0,0,-74.515,0.42774,0,-0.11235,0,-22.403,66.145,1,1,2.665,2.665,-0.1,0
-0.0017546,0.018127,0,0,0,0,0,0,0,0,-74.483,0.42606,0,-0.1118,0,-22.394,66.116,1,1,2.67,2.67,-0.1,0
-0.0017563,0.018132,0,0,0,0,0,0,0,0,-74.45,0.42438,0,-0.11126,0,-22.384,66.088,1,1,2.675,2.675,-0.1,0
-0.001758,0.018137,0,0,0,0,0,0,0,0,-74.418,0.42269,0,-0.11071,0,-22.374,66.059,1,1,2.68,2.68,-0.1,0
-0.0017596,0.018142,0,0,0,0,0,0,0,0,-74.385,0.42101,0,-0.11017,0,-22.364,66.03,1,1,2.685,2.685,-0.1,0
-0.0017613,0.018147,0,0,0,0,0,0,0,0,-74.353,0.41933,0,-0.10962,0,-22.354,66.002,1,1,2.69,2.69,-0.1,0
-0.001763,0.018151,0,0,0,0,0,0,0,0,-74.32,0.41764,0,-0.10907,0,-22.344,65.973,1,1,2.695,2.695,-0.1,0
-0.0017647,0.018156,0,0,0,0,0,0,0,0,-74.287,0.41596,0,-0.10853,0,-22.334,65.945,1,1,2.7,2.7,-0.1,0
-0.0017664,0.018161,0,0,0,0,0,0,0,0,-74.255,0.41427,0,-0.10798,0,-22.324,65.916,1,1,2.705,2.705,-0.1,0
-0.001768,0.018166,0,0,0,0,0,0,0,0,-74.222,0.41258,0,-0.10744,0,-22.314,65.888,1,1,2.71,2.71,-0.1,0
-0.0017697,0.018171,0,0,0,0,0,0,0,0,-74.19,0.4109,0,-0.10689,0,-22.304,65.859,1,1,2.715,2.715,-0.1,0
-0.0017714,0.018176,0,0,0,0,0,0,0,0,-74.157,0.40921,0,-0.10634,0,-22.294,65.831,1,1,2.72,2.72,-0.1,0
-0.0017731,0.01818,0,0,0,0,0,0,0,0,-74.125,0.40752,0,-0.1058,0,-22.284,65.802,1,1,2.725,2.725,-0.1,0
-0.0017748,0.018185,0,0,0,0,0,0,0,0,-74.092,0.40584,0,-0.10525,0,-22.274,65.773,1,1,2.73,2.73,-0.1,0
-0.0017764,0.01819,0,0,0,0,0,0,0,0,-74.059,0.40415,0,-0.10471,0,-22.264,65.745,1,1,2.735,2.735,-0.1,0
-0.0017781,0.018195,0,0,0,0,0,0,0,0,-74.027,0.40246,0,-0.10416,0,-22.254,65.716,1,1,2.74,2.74,-0.1,0
-0.0017798,0.0182,0,0,0,0,0,0,0,0,-73.994,0.40077,0,-0.10361,0,-22.244,65.688,1,1,2.745,2.745,-0.1,0
-0.0017815,0.018204,0,0,0,0,0,0,0,0,-73.962,0.39908,0,-0.10307,0,-22.234,65.659,1,1,2.75,2.75,-0.1,0
-0.0017831,0.018209,0,0,0,0,0,0,0,0,-73.929,0.39739,0,-0.10252,0,-22.224,65.631,1,1,2.755,2.755,-0.1,0
-0.0017848,0.018214,0,0,0,0,0,0,0,0,-73.897,0.3957,0,-0.10198,0,-22.214,65.602,1,1,2.76,2.76,-0.1,0
-0.0017865,0.018219,0,0,0,0,0,0,0,0,-73.864,0.39401,0,-0.10143,0,-22.205,65.573,1,1,2.765,2.765,-0.1,0
-0.0017882,0.018224,0,0,0,0,0,0,0,0,-73.831,0.39232,0,-0.10088,0,-22.195,65.545,1,1,2.77,2.77,-0.1,0
-0.0017899,0.018229,0,0,0,0,0,0,0,0,-73.799,0.39063,0,-0.10034,0,-22.185,65.516,1,1,2.775,2.775,-0.1,0
-0.0017915,0.018233,0,0,0,0,0,0,0,0,-73.766,0.38894,0,-0.099793,0,-22.175,65.488,1,1,2.78,2.78,-0.1,0
-0.0017932,0.018238,0,0,0,0,0,0,0,0,-73.734,0.38725,0,-0.099248,0,-22.165,65.459,1,1,2.785,2.785,-0.1,0
-0.0017949,0.018243,0,0,0,0,0,0,0,0,-73.701,0.38556,0,-0.098702,0,-22.155,65.43,1,1,2.79,2.79,-0.1,0
-0.0017966,0.018248,0,0,0,0,0,0,0,0,-73.668,0.38387,0,-0.098157,0,-22.145,65.402,1,1,2.795,2.795,-0.1,0
-0.0017983,0.018253,0,0,0,0,0,0,0,0,-73.636,0.38217,0,-0.097611,0,-22.135,65.373,1,1,2.8,2.8,-0.1,0
-0.0017999,0.018257,0,0,0,0,0,0,0,0,-73.603,0.38048,0,-0.097066,0,-22.125,65.345,1,1,2.805,2.805,-0.1,0
-0.0018016,0.018262,0,0,0,0,0,0,0,0,-73.571,0.37879,0,-0.09652,0,-22.115,65.316,1,1,2.81,2.81,-0.1,0
-0.0018033,0.018267,0,0,0,0,0,0,0,0,-73.538,0.37709,0,-0.095975,0,-22.105,65.288,1,1,2.815,2.815,-0.1,0
-0.001805,0.018272,0,0,0,0,0,0,0,0,-73.505,0.3754,0,-0.095429,0,-22.095,65.259,1,1,2.82,2.82,-0.1,0
-0.0018067,0.018277,0,0,0,0,0,0,0,0,-73.473,0.3737,0,-0.094884,0,-22.085,65.23,1,1,2.825,2.825,-0.1,0
-0.0018083,0.018282,0,0,0,0,0,0,0,0,-73.44,0.37201,0,-0.094338,0,-22.075,65.202,1,1,2.83,2.83,-0.1,0
-0.00181,0.018286,0,0,0,0,0,0,0,0,-73.407,0.37031,0,-0.093793,0,-22.065,65.173,1,1,2.835,2.835,-0.1,0
-0.0018117,0.018291,0,0,0,0,0,0,0,0,-73.375,0.36862,0,-0.093248,0,-22.055,65.145,1,1,2.84,2.84,-0.1,0
-0.0018134,0.018296,0,0,0,0,0,0,0,0,-73.342,0.36692,0,-0.092702,0,-22.045,65.116,1,1,2.845,2.845,-0.1,0
-0.0018151,0.018301,0,0,0,0,0,0,0,0,-73.31,0.36522,0,-0.092157,0,-22.035,65.087,1,1,2.85,2.85,-0.1,0
-0.0018167,0.018306,0,0,0,0,0,0,0,0,-73.277,0.36353,0,-0.091612,0,-22.025,65.059,1,1,2.855,2.855,-0.1,0
-0.0018184,0.01831,0,0,0,0,0,0,0,0,-73.244,0.36183,0,-0.091067,0,-22.015,65.03,1,1,2.86,2.86,-0.1,0
-0.0018201,0.018315,0,0,0,0,0,0,0,0,-73.212,0.36013,0,-0.090521,0,-22.005,65.001,1,1,2.865,2.865,-0.1,0
-0.0018218,0.01832,0,0,0,0,0,0,0,0,-73.181,0.35862,0,-0.090026,0,-21.996,64.975,1,1,2.87,2.87,-0.1,0
-0.0018234,0.018325,0,0,0,0,0,0,0,0,-73.154,0.35744,0,-0.089621,0,-21.988,64.951,1,1,2.875,2.875,-0.1,0
-0.0018251,0.018329,0,0,0,0,0,0,0,0,-73.127,0.35626,0,-0.089216,0,-21.98,64.927,1,1,2.88,2.88,-0.1,0
-0.0018267,0.018334,0,0,0,0,0,0,0,0,-73.1,0.35508,0,-0.088811,0,-21.971,64.904,1,1,2.885,2.885,-0.1,0
-0.0018284,0.018338,0,0,0,0,0,0,0,0,-73.073,0.3539,0,-0.088405,0,-21.963,64.88,1,1,2.89,2.89,-0.1,0
-0.00183,0.018343,0,0,0,0,0,0,0,0,-73.046,0.35272,0,-0.088,0,-21.955,64.856,1,1,2.895,2.895,-0.1,0
-0.0018317,0.018347,0,0,0,0,0,0,0,0,-73.019,0.35154,0,-0.087595,0,-21.947,64.833,1,1,2.9,2.9,-0.1,0
-0.0018333,0.018352,0,0,0,0,0,0,0,0,-72.992,0.35036,0,-0.08719,0,-21.938,64.809,1,1,2.905,2.905,-0.1,0
-0.001835,0.018356,0,0,0,0,0,0,0,0,-72.965,0.34918,0,-0.086785,0,-21.93,64.785,1,1,2.91,2.91,-0.1,0
-0.0018366,0.018361,0,0,0,0,0,0,0,0,-72.938,0.348,0,-0.08638,0,-21.922,64.762,1,1,2.915,2.915,-0.1,0
-0.0018383,0.018365,0,0,0,0,0,0,0,0,-72.911,0.34682,0,-0.085976,0,-21.914,64.738,1,1,2.92,2.92,-0.1,0
-0.0018399,0.01837,0,0,0,0,0,0,0,0,-72.885,0.34564,0,-0.085571,0,-21.906,64.714,1,1,2.925,2.925,-0.1,0
-0.0018416,0.018375,0,0,0,0,0,0,0,0,-72.858,0.34446,0,-0.085166,0,-21.897,64.691,1,1,2.93,2.93,-0.1,0
-0.0018432,0.018379,0,0,0,0,0,0,0,0,-72.831,0.34328,0,-0.084761,0,-21.889,64.667,1,1,2.935,2.935,-0.1,0
-0.0018449,0.018384,0,0,0,0,0,0,0,0,-72.804,0.3421,0,-0.084356,0,-21.881,64.643,1,1,2.94,2.94,-0.1,0
-0.0018465,0.018388,0,0,0,0,0,0,0,0,-72.777,0.34091,0,-0.083951,0,-21.873,64.62,1,1,2.945,2.945,-0.1,0
-0.0018482,0.018393,0,0,0,0,0,0,0,0,-72.75,0.33973,0,-0.083547,0,-21.864,64.596,1,1,2.95,2.95,-0.1,0
-0.0018498,0.018397,0,0,0,0,0,0,0,0,-72.723,0.33855,0,-0.083142,0,-21.856,64.572,1,1,2.955,2.955,-0.1,0
-0.0018515,0.018402,0,0,0,0,0,0,0,0,-72.696,0.33737,0,-0.082737,0,-21.848,64.548,1,1,2.96,2.96,-0.1,0
-0.0018531,0.018406,0,0,0,0,0,0,0,0,-72.669,0.33618,0,-0.082332,0,-21.84,64.525,1,1,2.965,2.965,-0.1,0
-0.0018548,0.018411,0,0,0,0,0,0,0,0,-72.642,0.335,0,-0.081928,0,-21.832,64.501,1,1,2.97,2.97,-0.1,0
-0.0018564,0.018415,0,0,0,0,0,0,0,0,-72.615,0.33382,0,-0.081523,0,-21.823,64.477,1,1,2.975,2.975,-0.1,0
-0.0018581,0.01842,0,0,0,0,0,0,0,0,-72.588,0.33263,0,-0.081119,0,-21.815,64.454,1,1,2.98,2.98,-0.1,0
-0.0018597,0.018425,0,0,0,0,0,0,0,0,-72.561,0.33145,0,-0.080714,0,-21.807,64.43,1,1,2.985,2.985,-0.1,0
-0.0018614,0.018429,0,0,0,0,0,0,0,0,-72.534,0.33026,0,-0.080309,0,-21.799,64.406,1,1,2.99,2.99,-0.1,0
-0.001863,0.018434,0,0,0,0,0,0,0,0,-72.507,0.32908,0,-0.079905,0,-21.79,64.383,1,1,2.995,2.995,-0.1,0
-0.0018647,0.018438,0,0,0,0,0,0,0,0,-72.48,0.32789,0,-0.0795,0,-21.782,64.359,1,1,3,3,-0.1,0
-0.0018663,0.018443,0,0,0,0,0,0,0,0,-72.453,0.32671,0,-0.079096,0,-21.774,64.335,1,1,3.005,3.005,-0.1,0
-0.001868,0.018447,0,0,0,0,0,0,0,0,-72.426,0.32552,0,-0.078691,0,-21.766,64.312,1,1,3.01,3.01,-0.1,0
-0.0018696,0.018452,0,0,0,0,0,0,0,0,-72.399,0.32434,0,-0.078287,0,-21.757,64.288,1,1,3.015,3.015,-0.1,0
-0.0018713,0.018456,0,0,0,0,0,0,0,0,-72.372,0.32315,0,-0.077883,0,-21.749,64.264,1,1,3.02,3.02,-0.1,0
-0.0018729,0.018461,0,0,0,0,0,0,0,0,-72.345,0.32197,0,-0.077478,0,-21.741,64.24,1,1,3.025,3.025,-0.1,0
-0.0018746,0.018465,0,0,0,0,0,0,0,0,-72.318,0.32078,0,-0.077074,0,-21.733,64.217,1,1,3.03,3.03,-0.1,0
-0.0018762,0.01847,0,0,0,0,0,0,0,0,-72.291,0.31959,0,-0.07667,0,-21.725,64.193,1,1,3.035,3.035,-0.1,0
-0.0018779,0.018475,0,0,0,0,0,0,0,0,-72.264,0.31841,0,-0.076265,0,-21.716,64.169,1,1,3.04,3.04,-0.1,0
-0.0018795,0.018479,0,0,0,0,0,0,0,0,-72.237,0.31722,0,-0.075861,0,-21.708,64.146,1,1,3.045,3.045,-0.1,0
-0.0018812,0.018484,0,0,0,0,0,0,0,0,-72.21,0.31603,0,-0.075457,0,-21.7,64.122,1,1,3.05,3.05,-0.1,0
-0.0018828,0.018488,0,0,0,0,0,0,0,0,-72.183,0.31484,0,-0.075053,0,-21.692,64.098,1,1,3.055,3.055,-0.1,0
-0.0018845,0.018493,0,0,0,0,0,0,0,0,-72.156,0.31365,0,-0.074648,0,-21.683,64.074,1,1,3.06,3.06,-0.1,0
-0.0018861,0.018497,0,0,0,0,0,0,0,0,-72.129,0.31247,0,-0.074244,0,-21.675,64.051,1,1,3.065,3.065,-0.1,0
-0.0018878,0.018502,0,0,0,0,0,0,0,0,-72.102,0.31128,0,-0.07384,0,-21.667,64.027,1,1,3.07,3.07,-0.1,0
-0.0018894,0.018506,0,0,0,0,0,0,0,0,-72.075,0.31009,0,-0.073436,0,-21.659,64.003,1,1,3.075,3.075,-0.1,0
-0.0018911,0.018511,0,0,0,0,0,0,0,0,-72.048,0.3089,0,-0.073032,0,-21.65,63.98,1,1,3.08,3.08,-0.1,0
-0.0018927,0.018516,0,0,0,0,0,0,0,0,-72.021,0.30771,0,-0.072628,0,-21.642,63.956,1,1,3.085,3.085,-0.1,0
-0.0018944,0.01852,0,0,0,0,0,0,0,0,-71.994,0.30652,0,-0.072224,0,-21.634,63.932,1,1,3.09,3.09,-0.1,0
-0.001896,0.018525,0,0,0,0,0,0,0,0,-71.967,0.3054,0,-0.071839,0,-21.626,63.909,1,1,3.095,3.095,-0.1,0
-0.0018976,0.018529,0,0,0,0,0,0,0,0,-71.945,0.30458,0,-0.071533,0,-21.619,63.889,1,1,3.1,3.1,-0.1,0
-0.0018992,0.018533,0,0,0,0,0,0,0,0,-71.922,0.30375,0,-0.071228,0,-21.612,63.869,1,1,3.105,3.105,-0.1,0
-0.0019009,0.018538,0,0,0,0,0,0,0,0,-71.899,0.30292,0,-0.070922,0,-21.605,63.849,1,1,3.11,3.11,-0.1,0
-0.0019025,0.018542,0,0,0,0,0,0,0,0,-71.876,0.3021,0,-0.070616,0,-21.598,63.829,1,1,3.115,3.115,-0.1,0
-0.0019041,0.018546,0,0,0,0,0,0,0,0,-71.854,0.30127,0,-0.07031,0,-21.591,63.809,1,1,3.12,3.12,-0.1,0
-0.0019057,0.01855,0,0,0,0,0,0,0,0,-71.831,0.30045,0,-0.070004,0,-21.584,63.789,1,1,3.125,3.125,-0.1,0
-0.0019074,0.018555,0,0,0,0,0,0,0,0,-71.808,0.29962,0,-0.069699,0,-21.577,63.769,1,1,3.13,3.13,-0.1,0
-0.001909,0.018559,0,0,0,0,0,0,0,0,-71.785,0.29879,0,-0.069393,0,-21.57,63.749,1,1,3.135,3.135,-0.1,0
-0.0019106,0.018563,0,0,0,0,0,0,0,0,-71.762,0.29796,0,-0.069087,0,-21.564,63.729,1,1,3.14,3.14,-0.1,0
-0.0019122,0.018568,0,0,0,0,0,0,0,0,-71.74,0.29714,0,-0.068782,0,-21.557,63.709,1,1,3.145,3.145,-0.1,0
-0.0019139,0.018572,0,0,0,0,0,0,0,0,-71.717,0.29631,0,-0.068476,0,-21.55,63.689,1,1,3.15,3.15,-0.1,0
-0.0019155,0.018576,0,0,0,0,0,0,0,0,-71.694,0.29548,0,-0.068171,0,-21.543,63.669,1,1,3.155,3.155,-0.1,0
-0.0019171,0.018581,0,0,0,0,0,0,0,0,-71.671,0.29465,0,-0.067865,0,-21.536,63.649,1,1,3.16,3.16,-0.1,0
-0.0019187,0.018585,0,0,0,0,0,0,0,0,-71.648,0.29383,0,-0.06756,0,-21.529,63.629,1,1,3.165,3.165,-0.1,0
-0.0019204,0.018589,0,0,0,0,0,0,0,0,-71.626,0.293,0,-0.067254,0,-21.522,63.609,1,1,3.17,3.17,-0.1,0
-0.001922,0.018594,0,0,0,0,0,0,0,0,-71.603,0.29217,0,-0.066949,0,-21.515,63.589,1,1,3.175,3.175,-0.1,0
-0.0019236,0.018598,0,0,0,0,0,0,0,0,-71.58,0.29134,0,-0.066643,0,-21.508,63.569,1,1,3.18,3.18,-0.1,0
-0.0019252,0.018602,0,0,0,0,0,0,0,0,-71.557,0.29051,0,-0.066338,0,-21.501,63.549,1,1,3.185,3.185,-0.1,0
-0.0019269,0.018607,0,0,0,0,0,0,0,0,-71.534,0.28968,0,-0.066032,0,-21.494,63.529,1,1,3.19,3.19,-0.1,0
-0.0019285,0.018611,0,0,0,0,0,0,0,0,-71.512,0.28885,0,-0.065727,0,-21.487,63.508,1,1,3.195,3.195,-0.1,0
-0.0019301,0.018615,0,0,0,0,0,0,0,0,-71.489,0.28803,0,-0.065421,0,-21.48,63.488,1,1,3.2,3.2,-0.1,0
-0.0019317,0.01862,0,0,0,0,0,0,0,0,-71.466,0.2872,0,-0.065116,0,-21.473,63.468,1,1,3.205,3.205,-0.1,0
-0.0019334,0.018624,0,0,0,0,0,0,0,0,-71.443,0.28637,0,-0.064811,0,-21.466,63.448,1,1,3.21,3.21,-0.1,0
-0.001935,0.018628,0,0,0,0,0,0,0,0,-71.42,0.28554,0,-0.064505,0,-21.459,63.428,1,1,3.215,3.215,-0.1,0
-0.0019366,0.018632,0,0,0,0,0,0,0,0,-71.397,0.28471,0,-0.0642,0,-21.452,63.408,1,1,3.22,3.22,-0.1,0
-0.0019382,0.018637,0,0,0,0,0,0,0,0,-71.375,0.28388,0,-0.063895,0,-21.445,63.388,1,1,3.225,3.225,-0.1,0
-0.0019398,0.018641,0,0,0,0,0,0,0,0,-71.352,0.28305,0,-0.06359,0,-21.439,63.368,1,1,3.23,3.23,-0.1,0
-0.0019415,0.018645,0,0,0,0,0,0,0,0,-71.329,0.28222,0,-0.063285,0,-21.432,63.348,1,1,3.235,3.235,-0.1,0
-0.0019431,0.01865,0,0,0,0,0,0,0,0,-71.306,0.28138,0,-0.062979,0,-21.425,63.328,1,1,3.24,3.24,-0.1,0
-0.0019447,0.018654,0,0,0,0,0,0,0,0,-71.283,0.28055,0,-0.062674,0,-21.418,63.308,1,1,3.245,3.245,-0.1,0
-0.0019463,0.018658,0,0,0,0,0,0,0,0,-71.261,0.27972,0,-0.062369,0,-21.411,63.288,1,1,3.25,3.25,-0.1,0
-0.001948,0.018663,0,0,0,0,0,0,0,0,-71.238,0.27889,0,-0.062064,0,-21.404,63.268,1,1,3.255,3.255,-0.1,0
-0.0019496,0.018667,0,0,0,0,0,0,0,0,-71.215,0.27806,0,-0.061759,0,-21.397,63.248,1,1,3.26,3.26,-0.1,0
-0.0019512,0.018671,0,0,0,0,0,0,0,0,-71.192,0.27723,0,-0.061454,0,-21.39,63.228,1,1,3.265,3.265,-0.1,0
-0.0019528,0.018676,0,0,0,0,0,0,0,0,-71.169,0.2764,0,-0.061149,0,-21.383,63.208,1,1,3.27,3.27,-0.1,0
-0.0019545,0.01868,0,0,0,0,0,0,0,0,-71.146,0.27556,0,-0.060844,0,-21.376,63.188,1,1,3.275,3.275,-0.1,0
-0.0019561,0.018684,0,0,0,0,0,0,0,0,-71.124,0.27473,0,-0.060539,0,-21.369,63.168,1,1,3.28,3.28,-0.1,0
-0.0019577,0.018689,0,0,0,0,0,0,0,0,-71.101,0.2739,0,-0.060234,0,-21.362,63.147,1,1,3.285,3.285,-0.1,0
-0.0019593,0.018693,0,0,0,0,0,0,0,0,-71.078,0.27307,0,-0.059929,0,-21.355,63.127,1,1,3.29,3.29,-0.1,0
-0.001961,0.018697,0,0,0,0,0,0,0,0,-71.055,0.27224,0,-0.059624,0,-21.348,63.107,1,1,3.295,3.295,-0.1,0
-0.0019626,0.018701,0,0,0,0,0,0,0,0,-71.032,0.2714,0,-0.059319,0,-21.341,63.087,1,1,3.3,3.3,-0.1,0
-0.0019642,0.018706,0,0,0,0,0,0,0,0,-71.009,0.27057,0,-0.059014,0,-21.334,63.067,1,1,3.305,3.305,-0.1,0
-0.0019658,0.01871,0,0,0,0,0,0,0,0,-70.987,0.26974,0,-0.058709,0,-21.327,63.047,1,1,3.31,3.31,-0.1,0
-0.0019675,0.018714,0,0,0,0,0,0,0,0,-70.964,0.2689,0,-0.058405,0,-21.32,63.027,1,1,3.315,3.315,-0.1,0
-0.0019691,0.018719,0,0,0,0,0,0,0,0,-70.941,0.26807,0,-0.0581,0,-21.313,63.007,1,1,3.32,3.32,-0.1,0
-0.0019707,0.018723,0,0,0,0,0,0,0,0,-70.918,0.26724,0,-0.057795,0,-21.306,62.987,1,1,3.325,3.325,-0.1,0
-0.0019723,0.018727,0,0,0,0,0,0,0,0,-70.897,0.26657,0,-0.057535,0,-21.3,62.969,1,1,3.33,3.33,-0.1,0
-0.0019739,0.018731,0,0,0,0,0,0,0,0,-70.878,0.26599,0,-0.057301,0,-21.294,62.951,1,1,3.335,3.335,-0.1,0
-0.0019755,0.018735,0,0,0,0,0,0,0,0,-70.858,0.26542,0,-0.057066,0,-21.288,62.934,1,1,3.34,3.34,-0.1,0
-0.0019771,0.01874,0,0,0,0,0,0,0,0,-70.838,0.26484,0,-0.056832,0,-21.282,62.917,1,1,3.345,3.345,-0.1,0
-0.0019787,0.018744,0,0,0,0,0,0,0,0,-70.819,0.26427,0,-0.056597,0,-21.276,62.899,1,1,3.35,3.35,-0.1,0
-0.0019803,0.018748,0,0,0,0,0,0,0,0,-70.799,0.26369,0,-0.056363,0,-21.27,62.882,1,1,3.355,3.355,-0.1,0
-0.0019819,0.018752,0,0,0,0,0,0,0,0,-70.779,0.26312,0,-0.056129,0,-21.264,62.865,1,1,3.36,3.36,-0.1,0
-0.0019835,0.018756,0,0,0,0,0,0,0,0,-70.76,0.26254,0,-0.055894,0,-21.258,62.847,1,1,3.365,3.365,-0.1,0
-0.0019851,0.01876,0,0,0,0,0,0,0,0,-70.74,0.26196,0,-0.05566,0,-21.252,62.83,1,1,3.37,3.37,-0.1,0
-0.0019867,0.018764,0,0,0,0,0,0,0,0,-70.72,0.26139,0,-0.055426,0,-21.246,62.813,1,1,3.375,3.375,-0.1,0
-0.0019883,0.018768,0,0,0,0,0,0,0,0,-70.701,0.26081,0,-0.055191,0,-21.24,62.796,1,1,3.38,3.38,-0.1,0
-0.0019899,0.018773,0,0,0,0,0,0,0,0,-70.681,0.26024,0,-0.054957,0,-21.234,62.778,1,1,3.385,3.385,-0.1,0
-0.0019915,0.018777,0,0,0,0,0,0,0,0,-70.661,0.25966,0,-0.054723,0,-21.228,62.761,1,1,3.39,3.39,-0.1,0
-0.0019931,0.018781,0,0,0,0,0,0,0,0,-70.642,0.25908,0,-0.054489,0,-21.222,62.744,1,1,3.395,3.395,-0.1,0
-0.0019947,0.018785,0,0,0,0,0,0,0,0,-70.622,0.25851,0,-0.054254,0,-21.216,62.726,1,1,3.4,3.4,-0.1,0
-0.0019963,0.018789,0,0,0,0,0,0,0,0,-70.602,0.25793,0,-0.05402,0,-21.21,62.709,1,1,3.405,3.405,-0.1,0
-0.0019979,0.018793,0,0,0,0,0,0,0,0,-70.582,0.25735,0,-0.053786,0,-21.204,62.692,1,1,3.41,3.41,-0.1,0
-0.0019995,0.018797,0,0,0,0,0,0,0,0,-70.563,0.25678,0,-0.053552,0,-21.199,62.674,1,1,3.415,3.415,-0.1,0
-0.0020011,0.018801,0,0,0,0,0,0,0,0,-70.543,0.2562,0,-0.053318,0,-21.193,62.657,1,1,3.42,3.42,-0.1,0
-0.0020027,0.018805,0,0,0,0,0,0,0,0,-70.523,0.25562,0,-0.053084,0,-21.187,62.64,1,1,3.425,3.425,-0.1,0
-0.0020043,0.01881,0,0,0,0,0,0,0,0,-70.504,0.25504,0,-0.05285,0,-21.181,62.622,1,1,3.43,3.43,-0.1,0
-0.002006,0.018814,0,0,0,0,0,0,0,0,-70.484,0.25447,0,-0.052615,0,-21.175,62.605,1,1,3.435,3.435,-0.1,0
-0.0020076,0.018818,0,0,0,0,0,0,0,0,-70.464,0.25389,0,-0.052381,0,-21.169,62.588,1,1,3.44,3.44,-0.1,0
-0.0020092,0.018822,0,0,0,0,0,0,0,0,-70.445,0.25331,0,-0.052147,0,-21.163,62.57,1,1,3.445,3.445,-0.1,0
-0.0020108,0.018826,0,0,0,0,0,0,0,0,-70.425,0.25273,0,-0.051913,0,-21.157,62.553,1,1,3.45,3.45,-0.1,0
-0.0020124,0.01883,0,0,0,0,0,0,0,0,-70.405,0.25216,0,-0.051679,0,-21.151,62.536,1,1,3.455,3.455,-0.1,0
-0.002014,0.018834,0,0,0,0,0,0,0,0,-70.386,0.25158,0,-0.051445,0,-21.145,62.518,1,1,3.46,3.46,-0.1,0
-0.0020156,0.018838,0,0,0,0,0,0,0,0,-70.366,0.251,0,-0.051212,0,-21.139,62.501,1,1,3.465,3.465,-0.1,0
-0.0020172,0.018842,0,0,0,0,0,0,0,0,-70.346,0.25042,0,-0.050978,0,-21.133,62.484,1,1,3.47,3.47,-0.1,0
-0.0020188,0.018847,0,0,0,0,0,0,0,0,-70.327,0.24984,0,-0.050744,0,-21.127,62.467,1,1,3.475,3.475,-0.1,0
-0.0020204,0.018851,0,0,0,0,0,0,0,0,-70.307,0.24926,0,-0.05051,0,-21.121,62.449,1,1,3.48,3.48,-0.1,0
-0.002022,0.018855,0,0,0,0,0,0,0,0,-70.287,0.24869,0,-0.050276,0,-21.115,62.432,1,1,3.485,3.485,-0.1,0
-0.0020236,0.018859,0,0,0,0,0,0,0,0,-70.268,0.24811,0,-0.050042,0,-21.109,62.415,1,1,3.49,3.49,-0.1,0
-0.0020252,0.018863,0,0,0,0,0,0,0,0,-70.248,0.24753,0,-0.049808,0,-21.103,62.397,1,1,3.495,3.495,-0.1,0
-0.0020268,0.018867,0,0,0,0,0,0,0,0,-70.228,0.24695,0,-0.049575,0,-21.097,62.38,1,1,3.5,3.5,-0.1,0
-0.0020284,0.018871,0,0,0,0,0,0,0,0,-70.208,0.24637,0,-0.049341,0,-21.091,62.363,1,1,3.505,3.505,-0.1,0
-0.00203,0.018875,0,0,0,0,0,0,0,0,-70.189,0.24579,0,-0.049107,0,-21.085,62.345,1,1,3.51,3.51,-0.1,0
-0.0020316,0.01888,0,0,0,0,0,0,0,0,-70.169,0.24521,0,-0.048873,0,-21.079,62.328,1,1,3.515,3.515,-0.1,0
-0.0020332,0.018884,0,0,0,0,0,0,0,0,-70.149,0.24463,0,-0.04864,0,-21.073,62.311,1,1,3.52,3.52,-0.1,0
-0.0020348,0.018888,0,0,0,0,0,0,0,0,-70.13,0.24405,0,-0.048406,0,-21.067,62.293,1,1,3.525,3.525,-0.1,0
-0.0020364,0.018892,0,0,0,0,0,0,0,0,-70.11,0.24347,0,-0.048172,0,-21.061,62.276,1,1,3.53,3.53,-0.1,0
-0.002038,0.018896,0,0,0,0,0,0,0,0,-70.09,0.24289,0,-0.047939,0,-21.055,62.259,1,1,3.535,3.535,-0.1,0
-0.0020396,0.0189,0,0,0,0,0,0,0,0,-70.071,0.24231,0,-0.047705,0,-21.049,62.241,1,1,3.54,3.54,-0.1,0
-0.0020412,0.018904,0,0,0,0,0,0,0,0,-70.051,0.24173,0,-0.047471,0,-21.043,62.224,1,1,3.545,3.545,-0.1,0
-0.0020428,0.018908,0,0,0,0,0,0,0,0,-70.031,0.24115,0,-0.047238,0,-21.037,62.207,1,1,3.55,3.55,-0.1,0
-0.0020444,0.018912,0,0,0,0,0,0,0,0,-70.011,0.24057,0,-0.047004,0,-21.031,62.189,1,1,3.555,3.555,-0.1,0
-0.002046,0.018917,0,0,0,0,0,0,0,0,-69.992,0.23999,0,-0.046771,0,-21.025,62.172,1,1,3.56,3.56,-0.1,0
-0.0020476,0.018921,0,0,0,0,0,0,0,0,-69.972,0.23941,0,-0.046537,0,-21.019,62.155,1,1,3.565,3.565,-0.1,0
-0.0020492,0.018925,0,0,0,0,0,0,0,0,-69.954,0.23896,0,-0.046339,0,-21.013,62.139,1,1,3.57,3.57,-0.1,0
-0.0020508,0.018929,0,0,0,0,0,0,0,0,-69.937,0.23856,0,-0.046156,0,-21.008,62.123,1,1,3.575,3.575,-0.1,0
-0.0020523,0.018933,0,0,0,0,0,0,0,0,-69.919,0.23817,0,-0.045974,0,-21.003,62.108,1,1,3.58,3.58,-0.1,0
-0.0020539,0.018936,0,0,0,0,0,0,0,0,-69.902,0.23777,0,-0.045792,0,-20.998,62.093,1,1,3.585,3.585,-0.1,0
-0.0020555,0.01894,0,0,0,0,0,0,0,0,-69.885,0.23738,0,-0.04561,0,-20.992,62.078,1,1,3.59,3.59,-0.1,0
-0.0020571,0.018944,0,0,0,0,0,0,0,0,-69.867,0.23698,0,-0.045428,0,-20.987,62.062,1,1,3.595,3.595,-0.1,0
-0.0020587,0.018948,0,0,0,0,0,0,0,0,-69.85,0.23659,0,-0.045246,0,-20.982,62.047,1,1,3.6,3.6,-0.1,0
-0.0020603,0.018952,0,0,0,0,0,0,0,0,-69.833,0.23619,0,-0.045063,0,-20.977,62.032,1,1,3.605,3.605,-0.1,0
-0.0020618,0.018956,0,0,0,0,0,0,0,0,-69.815,0.2358,0,-0.044881,0,-20.971,62.017,1,1,3.61,3.61,-0.1,0
-0.0020634,0.01896,0,0,0,0,0,0,0,0,-69.798,0.2354,0,-0.044699,0,-20.966,62.001,1,1,3.615,3.615,-0.1,0
-0.002065,0.018964,0,0,0,0,0,0,0,0,-69.781,0.23501,0,-0.044517,0,-20.961,61.986,1,1,3.62,3.62,-0.1,0
-0.0020666,0.018968,0,0,0,0,0,0,0,0,-69.763,0.23461,0,-0.044335,0,-20.956,61.971,1,1,3.625,3.625,-0.1,0
-0.0020682,0.018972,0,0,0,0,0,0,0,0,-69.746,0.23422,0,-0.044153,0,-20.95,61.956,1,1,3.63,3.63,-0.1,0
-0.0020697,0.018976,0,0,0,0,0,0,0,0,-69.729,0.23382,0,-0.043971,0,-20.945,61.94,1,1,3.635,3.635,-0.1,0
-0.0020713,0.01898,0,0,0,0,0,0,0,0,-69.712,0.23343,0,-0.043789,0,-20.94,61.925,1,1,3.64,3.64,-0.1,0
-0.0020729,0.018984,0,0,0,0,0,0,0,0,-69.694,0.23303,0,-0.043607,0,-20.935,61.91,1,1,3.645,3.645,-0.1,0
-0.0020745,0.018988,0,0,0,0,0,0,0,0,-69.677,0.23264,0,-0.043425,0,-20.929,61.895,1,1,3.65,3.65,-0.1,0
-0.0020761,0.018992,0,0,0,0,0,0,0,0,-69.66,0.23224,0,-0.043243,0,-20.924,61.879,1,1,3.655,3.655,-0.1,0
-0.0020776,0.018996,0,0,0,0,0,0,0,0,-69.642,0.23184,0,-0.043061,0,-20.919,61.864,1,1,3.66,3.66,-0.1,0
-0.0020792,0.019,0,0,0,0,0,0,0,0,-69.625,0.23145,0,-0.042879,0,-20.914,61.849,1,1,3.665,3.665,-0.1,0
-0.0020808,0.019003,0,0,0,0,0,0,0,0,-69.608,0.23105,0,-0.042697,0,-20.908,61.834,1,1,3.67,3.67,-0.1,0
-0.0020824,0.019007,0,0,0,0,0,0,0,0,-69.59,0.23066,0,-0.042516,0,-20.903,61.818,1,1,3.675,3.675,-0.1,0
-0.002084,0.019011,0,0,0,0,0,0,0,0,-69.573,0.23026,0,-0.042334,0,-20.898,61.803,1,1,3.68,3.68,-0.1,0
-0.0020856,0.019015,0,0,0,0,0,0,0,0,-69.556,0.22986,0,-0.042152,0,-20.893,61.788,1,1,3.685,3.685,-0.1,0
-0.0020871,0.019019,0,0,0,0,0,0,0,0,-69.538,0.22947,0,-0.04197,0,-20.887,61.773,1,1,3.69,3.69,-0.1,0
-0.0020887,0.019023,0,0,0,0,0,0,0,0,-69.521,0.22907,0,-0.041788,0,-20.882,61.757,1,1,3.695,3.695,-0.1,0
-0.0020903,0.019027,0,0,0,0,0,0,0,0,-69.504,0.22867,0,-0.041607,0,-20.877,61.742,1,1,3.7,3.7,-0.1,0
-0.0020919,0.019031,0,0,0,0,0,0,0,0,-69.486,0.22828,0,-0.041425,0,-20.872,61.727,1,1,3.705,3.705,-0.1,0
-0.0020935,0.019035,0,0,0,0,0,0,0,0,-69.469,0.22788,0,-0.041243,0,-20.866,61.711,1,1,3.71,3.71,-0.1,0
-0.002095,0.019039,0,0,0,0,0,0,0,0,-69.452,0.22748,0,-0.041061,0,-20.861,61.696,1,1,3.715,3.715,-0.1,0
-0.0020966,0.019043,0,0,0,0,0,0,0,0,-69.434,0.22709,0,-0.04088,0,-20.856,61.681,1,1,3.72,3.72,-0.1,0
-0.0020982,0.019047,0,0,0,0,0,0,0,0,-69.417,0.22669,0,-0.040698,0,-20.85,61.666,1,1,3.725,3.725,-0.1,0
-0.0020998,0.019051,0,0,0,0,0,0,0,0,-69.4,0.22629,0,-0.040516,0,-20.845,61.65,1,1,3.73,3.73,-0.1,0
-0.0021014,0.019055,0,0,0,0,0,0,0,0,-69.382,0.2259,0,-0.040335,0,-20.84,61.635,1,1,3.735,3.735,-0.1,0
-0.0021029,0.019059,0,0,0,0,0,0,0,0,-69.365,0.2255,0,-0.040153,0,-20.835,61.62,1,1,3.74,3.74,-0.1,0
-0.0021045,0.019063,0,0,0,0,0,0,0,0,-69.348,0.2251,0,-0.039971,0,-20.829,61.605,1,1,3.745,3.745,-0.1,0
-0.0021061,0.019067,0,0,0,0,0,0,0,0,-69.33,0.2247,0,-0.03979,0,-20.824,61.589,1,1,3.75,3.75,-0.1,0
-0.0021077,0.019071,0,0,0,0,0,0,0,0,-69.313,0.22431,0,-0.039608,0,-20.819,61.574,1,1,3.755,3.755,-0.1,0
-0.0021093,0.019074,0,0,0,0,0,0,0,0,-69.296,0.22391,0,-0.039427,0,-20.814,61.559,1,1,3.76,3.76,-0.1,0
-0.0021109,0.019078,0,0,0,0,0,0,0,0,-69.278,0.22351,0,-0.039245,0,-20.808,61.543,1,1,3.765,3.765,-0.1,0
-0.0021124,0.019082,0,0,0,0,0,0,0,0,-69.261,0.22311,0,-0.039063,0,-20.803,61.528,1,1,3.77,3.77,-0.1,0
-0.002114,0.019086,0,0,0,0,0,0,0,0,-69.244,0.22272,0,-0.038882,0,-20.798,61.513,1,1,3.775,3.775,-0.1,0
-0.0021156,0.01909,0,0,0,0,0,0,0,0,-69.226,0.22232,0,-0.0387,0,-20.793,61.498,1,1,3.78,3.78,-0.1,0
-0.0021172,0.019094,0,0,0,0,0,0,0,0,-69.209,0.22192,0,-0.038519,0,-20.787,61.482,1,1,3.785,3.785,-0.1,0
-0.0021188,0.019098,0,0,0,0,0,0,0,0,-69.192,0.22152,0,-0.038337,0,-20.782,61.467,1,1,3.79,3.79,-0.1,0
-0.0021203,0.019102,0,0,0,0,0,0,0,0,-69.174,0.22112,0,-0.038156,0,-20.777,61.452,1,1,3.795,3.795,-0.1,0
-0.0021219,0.019106,0,0,0,0,0,0,0,0,-69.157,0.22073,0,-0.037975,0,-20.772,61.437,1,1,3.8,3.8,-0.1,0
-0.0021235,0.01911,0,0,0,0,0,0,0,0,-69.14,0.22033,0,-0.037793,0,-20.766,61.421,1,1,3.805,3.805,-0.1,0
-0.0021251,0.019114,0,0,0,0,0,0,0,0,-69.122,0.21993,0,-0.037612,0,-20.761,61.406,1,1,3.81,3.81,-0.1,0
-0.0021267,0.019118,0,0,0,0,0,0,0,0,-69.105,0.21957,0,-0.037443,0,-20.756,61.391,1,1,3.815,3.815,-0.1,0
-0.0021282,0.019122,0,0,0,0,0,0,0,0,-69.09,0.21931,0,-0.0373,0,-20.751,61.378,1,1,3.82,3.82,-0.1,0
-0.0021298,0.019125,0,0,0,0,0,0,0,0,-69.074,0.21905,0,-0.037156,0,-20.746,61.364,1,1,3.825,3.825,-0.1,0
-0.0021314,0.019129,0,0,0,0,0,0,0,0,-69.059,0.21879,0,-0.037013,0,-20.742,61.35,1,1,3.83,3.83,-0.1,0
-0.0021329,0.019133,0,0,0,0,0,0,0,0,-69.043,0.21852,0,-0.03687,0,-20.737,61.336,1,1,3.835,3.835,-0.1,0
-0.0021345,0.019137,0,0,0,0,0,0,0,0,-69.028,0.21826,0,-0.036726,0,-20.732,61.323,1,1,3.84,3.84,-0.1,0
-0.002136,0.019141,0,0,0,0,0,0,0,0,-69.012,0.218,0,-0.036583,0,-20.728,61.309,1,1,3.845,3.845,-0.1,0
-0.0021376,0.019144,0,0,0,0,0,0,0,0,-68.997,0.21773,0,-0.03644,0,-20.723,61.295,1,1,3.85,3.85,-0.1,0
-0.0021392,0.019148,0,0,0,0,0,0,0,0,-68.981,0.21747,0,-0.036297,0,-20.718,61.282,1,1,3.855,3.855,-0.1,0
-0.0021407,0.019152,0,0,0,0,0,0,0,0,-68.966,0.21721,0,-0.036154,0,-20.714,61.268,1,1,3.86,3.86,-0.1,0
-0.0021423,0.019156,0,0,0,0,0,0,0,0,-68.95,0.21694,0,-0.03601,0,-20.709,61.254,1,1,3.865,3.865,-0.1,0
-0.0021439,0.019159,0,0,0,0,0,0,0,0,-68.934,0.21668,0,-0.035867,0,-20.704,61.24,1,1,3.87,3.87,-0.1,0
-0.0021454,0.019163,0,0,0,0,0,0,0,0,-68.919,0.21642,0,-0.035724,0,-20.699,61.227,1,1,3.875,3.875,-0.1,0
-0.002147,0.019167,0,0,0,0,0,0,0,0,-68.903,0.21615,0,-0.035581,0,-20.695,61.213,1,1,3.88,3.88,-0.1,0
-0.0021485,0.019171,0,0,0,0,0,0,0,0,-68.888,0.21589,0,-0.035438,0,-20.69,61.199,1,1,3.885,3.885,-0.1,0
-0.0021501,0.019175,0,0,0,0,0,0,0,0,-68.872,0.21563,0,-0.035295,0,-20.685,61.186,1,1,3.89,3.89,-0.1,0
-0.0021517,0.019178,0,0,0,0,0,0,0,0,-68.857,0.21536,0,-0.035152,0,-20.681,61.172,1,1,3.895,3.895,-0.1,0
-0.0021532,0.019182,0,0,0,0,0,0,0,0,-68.841,0.2151,0,-0.035009,0,-20.676,61.158,1,1,3.9,3.9,-0.1,0
-0.0021548,0.019186,0,0,0,0,0,0,0,0,-68.826,0.21483,0,-0.034865,0,-20.671,61.145,1,1,3.905,3.905,-0.1,0
-0.0021564,0.01919,0,0,0,0,0,0,0,0,-68.81,0.21457,0,-0.034722,0,-20.666,61.131,1,1,3.91,3.91,-0.1,0
-0.0021579,0.019194,0,0,0,0,0,0,0,0,-68.794,0.21431,0,-0.034579,0,-20.662,61.117,1,1,3.915,3.915,-0.1,0
-0.0021595,0.019197,0,0,0,0,0,0,0,0,-68.779,0.21404,0,-0.034436,0,-20.657,61.103,1,1,3.92,3.92,-0.1,0
-0.002161,0.019201,0,0,0,0,0,0,0,0,-68.763,0.21378,0,-0.034293,0,-20.652,61.09,1,1,3.925,3.925,-0.1,0
-0.0021626,0.019205,0,0,0,0,0,0,0,0,-68.748,0.21351,0,-0.03415,0,-20.648,61.076,1,1,3.93,3.93,-0.1,0
-0.0021642,0.019209,0,0,0,0,0,0,0,0,-68.732,0.21325,0,-0.034007,0,-20.643,61.062,1,1,3.935,3.935,-0.1,0
-0.0021657,0.019213,0,0,0,0,0,0,0,0,-68.717,0.21299,0,-0.033864,0,-20.638,61.049,1,1,3.94,3.94,-0.1,0
-0.0021673,0.019216,0,0,0,0,0,0,0,0,-68.701,0.21272,0,-0.033722,0,-20.633,61.035,1,1,3.945,3.945,-0.1,0
-0.0021689,0.01922,0,0,0,0,0,0,0,0,-68.686,0.21246,0,-0.033579,0,-20.629,61.021,1,1,3.95,3.95,-0.1,0
-0.0021704,0.019224,0,0,0,0,0,0,0,0,-68.67,0.21219,0,-0.033436,0,-20.624,61.007,1,1,3.955,3.955,-0.1,0
-0.002172,0.019228,0,0,0,0,0,0,0,0,-68.655,0.21193,0,-0.033293,0,-20.619,60.994,1,1,3.96,3.96,-0.1,0
-0.0021736,0.019232,0,0,0,0,0,0,0,0,-68.639,0.21166,0,-0.03315,0,-20.615,60.98,1,1,3.965,3.965,-0.1,0
-0.0021751,0.019235,0,0,0,0,0,0,0,0,-68.623,0.2114,0,-0.033007,0,-20.61,60.966,1,1,3.97,3.97,-0.1,0
-0.0021767,0.019239,0,0,0,0,0,0,0,0,-68.608,0.21113,0,-0.032864,0,-20.605,60.953,1,1,3.975,3.975,-0.1,0
-0.0021782,0.019243,0,0,0,0,0,0,0,0,-68.592,0.21087,0,-0.032721,0,-20.6,60.939,1,1,3.98,3.98,-0.1,0
-0.0021798,0.019247,0,0,0,0,0,0,0,0,-68.577,0.2106,0,-0.032579,0,-20.596,60.925,1,1,3.985,3.985,-0.1,0
-0.0021814,0.019251,0,0,0,0,0,0,0,0,-68.561,0.21034,0,-0.032436,0,-20.591,60.911,1,1,3.99,3.99,-0.1,0
-0.0021829,0.019254,0,0,0,0,0,0,0,0,-68.546,0.21008,0,-0.032293,0,-20.586,60.898,1,1,3.995,3.995,-0.1,0
-0.0021845,0.019258,0,0,0,0,0,0,0,0,-68.53,0.20981,0,-0.03215,0,-20.581,60.884,1,1,4,4,-0.1,0
-0.0021861,0.019262,0,0,0,0,0,0,0,0,-68.514,0.20954,0,-0.032007,0,-20.577,60.87,1,1,4.005,4.005,-0.1,0
-0.0021876,0.019266,0,0,0,0,0,0,0,0,-68.499,0.20928,0,-0.031865,0,-20.572,60.856,1,1,4.01,4.01,-0.1,0
-0.0021892,0.019269,0,0,0,0,0,0,0,0,-68.483,0.20901,0,-0.031722,0,-20.567,60.843,1,1,4.015,4.015,-0.1,0
-0.0021907,0.019273,0,0,0,0,0,0,0,0,-68.468,0.20875,0,-0.031579,0,-20.563,60.829,1,1,4.02,4.02,-0.1,0
-0.0021923,0.019277,0,0,0,0,0,0,0,0,-68.452,0.20848,0,-0.031436,0,-20.558,60.815,1,1,4.025,4.025,-0.1,0
-0.0021939,0.019281,0,0,0,0,0,0,0,0,-68.437,0.20822,0,-0.031294,0,-20.553,60.802,1,1,4.03,4.03,-0.1,0
-0.0021954,0.019285,0,0,0,0,0,0,0,0,-68.421,0.20795,0,-0.031151,0,-20.548,60.788,1,1,4.035,4.035,-0.1,0
-0.002197,0.019288,0,0,0,0,0,0,0,0,-68.406,0.20769,0,-0.031008,0,-20.544,60.774,1,1,4.04,4.04,-0.1,0
-0.0021986,0.019292,0,0,0,0,0,0,0,0,-68.39,0.20742,0,-0.030866,0,-20.539,60.76,1,1,4.045,4.045,-0.1,0
-0.0022001,0.019296,0,0,0,0,0,0,0,0,-68.374,0.20716,0,-0.030723,0,-20.534,60.747,1,1,4.05,4.05,-0.1,0
-0.0022017,0.0193,0,0,0,0,0,0,0,0,-68.359,0.20689,0,-0.030581,0,-20.53,60.733,1,1,4.055,4.055,-0.1,0
-0.0022032,0.019304,0,0,0,0,0,0,0,0,-68.343,0.20662,0,-0.030438,0,-20.525,60.719,1,1,4.06,4.06,-0.1,0
-0.0022048,0.019307,0,0,0,0,0,0,0,0,-68.328,0.20636,0,-0.030295,0,-20.52,60.705,1,1,4.065,4.065,-0.1,0
-0.0022064,0.019311,0,0,0,0,0,0,0,0,-68.313,0.20615,0,-0.030169,0,-20.516,60.692,1,1,4.07,4.07,-0.1,0
-0.0022079,0.019315,0,0,0,0,0,0,0,0,-68.299,0.20598,0,-0.030055,0,-20.511,60.68,1,1,4.075,4.075,-0.1,0
-0.0022095,0.019318,0,0,0,0,0,0,0,0,-68.284,0.20582,0,-0.029941,0,-20.507,60.667,1,1,4.08,4.08,-0.1,0
-0.002211,0.019322,0,0,0,0,0,0,0,0,-68.27,0.20565,0,-0.029828,0,-20.503,60.655,1,1,4.085,4.085,-0.1,0
-0.0022125,0.019326,0,0,0,0,0,0,0,0,-68.256,0.20549,0,-0.029714,0,-20.498,60.642,1,1,4.09,4.09,-0.1,0
-0.0022141,0.019329,0,0,0,0,0,0,0,0,-68.242,0.20532,0,-0.0296,0,-20.494,60.63,1,1,4.095,4.095,-0.1,0
-0.0022156,0.019333,0,0,0,0,0,0,0,0,-68.228,0.20515,0,-0.029486,0,-20.49,60.617,1,1,4.1,4.1,-0.1,0
-0.0022172,0.019337,0,0,0,0,0,0,0,0,-68.213,0.20499,0,-0.029372,0,-20.486,60.605,1,1,4.105,4.105,-0.1,0
-0.0022187,0.01934,0,0,0,0,0,0,0,0,-68.199,0.20482,0,-0.029258,0,-20.481,60.592,1,1,4.11,4.11,-0.1,0
-0.0022203,0.019344,0,0,0,0,0,0,0,0,-68.185,0.20465,0,-0.029145,0,-20.477,60.58,1,1,4.115,4.115,-0.1,0
-0.0022218,0.019348,0,0,0,0,0,0,0,0,-68.171,0.20449,0,-0.029031,0,-20.473,60.567,1,1,4.12,4.12,-0.1,0
-0.0022234,0.019351,0,0,0,0,0,0,0,0,-68.157,0.20432,0,-0.028917,0,-20.468,60.554,1,1,4.125,4.125,-0.1,0
-0.0022249,0.019355,0,0,0,0,0,0,0,0,-68.142,0.20415,0,-0.028803,0,-20.464,60.542,1,1,4.13,4.13,-0.1,0
-0.0022265,0.019359,0,0,0,0,0,0,0,0,-68.128,0.20399,0,-0.02869,0,-20.46,60.529,1,1,4.135,4.135,-0.1,0
-0.002228,0.019362,0,0,0,0,0,0,0,0,-68.114,0.20382,0,-0.028576,0,-20.455,60.517,1,1,4.14,4.14,-0.1,0
-0.0022295,0.019366,0,0,0,0,0,0,0,0,-68.1,0.20365,0,-0.028462,0,-20.451,60.504,1,1,4.145,4.145,-0.1,0
-0.0022311,0.01937,0,0,0,0,0,0,0,0,-68.085,0.20349,0,-0.028349,0,-20.447,60.492,1,1,4.15,4.15,-0.1,0
-0.0022326,0.019373,0,0,0,0,0,0,0,0,-68.071,0.20332,0,-0.028235,0,-20.443,60.479,1,1,4.155,4.155,-0.1,0
-0.0022342,0.019377,0,0,0,0,0,0,0,0,-68.057,0.20315,0,-0.028121,0,-20.438,60.467,1,1,4.16,4.16,-0.1,0
-0.0022357,0.019381,0,0,0,0,0,0,0,0,-68.043,0.20299,0,-0.028008,0,-20.434,60.454,1,1,4.165,4.165,-0.1,0
-0.0022373,0.019384,0,0,0,0,0,0,0,0,-68.029,0.20282,0,-0.027894,0,-20.43,60.442,1,1,4.17,4.17,-0.1,0
-0.0022388,0.019388,0,0,0,0,0,0,0,0,-68.014,0.20265,0,-0.02778,0,-20.425,60.429,1,1,4.175,4.175,-0.1,0
-0.0022404,0.019392,0,0,0,0,0,0,0,0,-68,0.20248,0,-0.027667,0,-20.421,60.416,1,1,4.18,4.18,-0.1,0
-0.0022419,0.019395,0,0,0,0,0,0,0,0,-67.986,0.20232,0,-0.027553,0,-20.417,60.404,1,1,4.185,4.185,-0.1,0
-0.0022435,0.019399,0,0,0,0,0,0,0,0,-67.972,0.20215,0,-0.027439,0,-20.412,60.391,1,1,4.19,4.19,-0.1,0
-0.002245,0.019403,0,0,0,0,0,0,0,0,-67.957,0.20198,0,-0.027326,0,-20.408,60.379,1,1,4.195,4.195,-0.1,0
-0.0022465,0.019406,0,0,0,0,0,0,0,0,-67.943,0.20182,0,-0.027212,0,-20.404,60.366,1,1,4.2,4.2,-0.1,0
-0.0022481,0.01941,0,0,0,0,0,0,0,0,-67.929,0.20165,0,-0.027099,0,-20.399,60.354,1,1,4.205,4.205,-0.1,0
-0.0022496,0.019414,0,0,0,0,0,0,0,0,-67.915,0.20148,0,-0.026985,0,-20.395,60.341,1,1,4.21,4.21,-0.1,0
-0.0022512,0.019417,0,0,0,0,0,0,0,0,-67.901,0.20131,0,-0.026872,0,-20.391,60.329,1,1,4.215,4.215,-0.1,0
-0.0022527,0.019421,0,0,0,0,0,0,0,0,-67.886,0.20115,0,-0.026758,0,-20.387,60.316,1,1,4.22,4.22,-0.1,0
-0.0022543,0.019425,0,0,0,0,0,0,0,0,-67.872,0.20098,0,-0.026645,0,-20.382,60.303,1,1,4.225,4.225,-0.1,0
-0.0022558,0.019428,0,0,0,0,0,0,0,0,-67.858,0.20081,0,-0.026531,0,-20.378,60.291,1,1,4.23,4.23,-0.1,0
-0.0022574,0.019432,0,0,0,0,0,0,0,0,-67.844,0.20064,0,-0.026418,0,-20.374,60.278,1,1,4.235,4.235,-0.1,0
-0.0022589,0.019436,0,0,0,0,0,0,0,0,-67.829,0.20048,0,-0.026304,0,-20.369,60.266,1,1,4.24,4.24,-0.1,0
-0.0022605,0.019439,0,0,0,0,0,0,0,0,-67.815,0.20031,0,-0.026191,0,-20.365,60.253,1,1,4.245,4.245,-0.1,0
-0.002262,0.019443,0,0,0,0,0,0,0,0,-67.801,0.20014,0,-0.026077,0,-20.361,60.241,1,1,4.25,4.25,-0.1,0
-0.0022635,0.019447,0,0,0,0,0,0,0,0,-67.787,0.19997,0,-0.025964,0,-20.356,60.228,1,1,4.255,4.255,-0.1,0
-0.0022651,0.01945,0,0,0,0,0,0,0,0,-67.773,0.19981,0,-0.02585,0,-20.352,60.216,1,1,4.26,4.26,-0.1,0
-0.0022666,0.019454,0,0,0,0,0,0,0,0,-67.758,0.19964,0,-0.025737,0,-20.348,60.203,1,1,4.265,4.265,-0.1,0
-0.0022682,0.019458,0,0,0,0,0,0,0,0,-67.744,0.19947,0,-0.025624,0,-20.343,60.19,1,1,4.27,4.27,-0.1,0
-0.0022697,0.019461,0,0,0,0,0,0,0,0,-67.73,0.1993,0,-0.02551,0,-20.339,60.178,1,1,4.275,4.275,-0.1,0
-0.0022713,0.019465,0,0,0,0,0,0,0,0,-67.716,0.19913,0,-0.025397,0,-20.335,60.165,1,1,4.28,4.28,-0.1,0
-0.0022728,0.019469,0,0,0,0,0,0,0,0,-67.701,0.19897,0,-0.025284,0,-20.331,60.153,1,1,4.285,4.285,-0.1,0
-0.0022744,0.019472,0,0,0,0,0,0,0,0,-67.687,0.1988,0,-0.02517,0,-20.326,60.14,1,1,4.29,4.29,-0.1,0
-0.0022759,0.019476,0,0,0,0,0,0,0,0,-67.673,0.19863,0,-0.025057,0,-20.322,60.128,1,1,4.295,4.295,-0.1,0
-0.0022775,0.01948,0,0,0,0,0,0,0,0,-67.659,0.19846,0,-0.024944,0,-20.318,60.115,1,1,4.3,4.3,-0.1,0
-0.002279,0.019483,0,0,0,0,0,0,0,0,-67.644,0.19829,0,-0.02483,0,-20.313,60.103,1,1,4.305,4.305,-0.1,0
-0.0022806,0.019487,0,0,0,0,0,0,0,0,-67.63,0.19812,0,-0.024717,0,-20.309,60.09,1,1,4.31,4.31,-0.1,0
-0.0022821,0.019491,0,0,0,0,0,0,0,0,-67.616,0.19796,0,-0.024604,0,-20.305,60.077,1,1,4.315,4.315,-0.1,0
-0.0022836,0.019494,0,0,0,0,0,0,0,0,-67.602,0.19779,0,-0.02449,0,-20.3,60.065,1,1,4.32,4.32,-0.1,0
-0.0022852,0.019498,0,0,0,0,0,0,0,0,-67.588,0.19762,0,-0.024377,0,-20.296,60.052,1,1,4.325,4.325,-0.1,0
-0.0022867,0.019502,0,0,0,0,0,0,0,0,-67.574,0.19748,0,-0.024273,0,-20.292,60.04,1,1,4.33,4.33,-0.1,0
-0.0022883,0.019505,0,0,0,0,0,0,0,0,-67.561,0.19739,0,-0.024182,0,-20.288,60.028,1,1,4.335,4.335,-0.1,0
-0.0022898,0.019509,0,0,0,0,0,0,0,0,-67.547,0.19729,0,-0.02409,0,-20.284,60.017,1,1,4.34,4.34,-0.1,0
-0.0022913,0.019512,0,0,0,0,0,0,0,0,-67.534,0.1972,0,-0.023999,0,-20.28,60.005,1,1,4.345,4.345,-0.1,0
-0.0022928,0.019516,0,0,0,0,0,0,0,0,-67.521,0.1971,0,-0.023908,0,-20.276,59.993,1,1,4.35,4.35,-0.1,0
-0.0022944,0.019519,0,0,0,0,0,0,0,0,-67.508,0.19701,0,-0.023817,0,-20.272,59.982,1,1,4.355,4.355,-0.1,0
-0.0022959,0.019523,0,0,0,0,0,0,0,0,-67.494,0.19691,0,-0.023725,0,-20.268,59.97,1,1,4.36,4.36,-0.1,0
-0.0022974,0.019527,0,0,0,0,0,0,0,0,-67.481,0.19682,0,-0.023634,0,-20.264,59.958,1,1,4.365,4.365,-0.1,0
-0.002299,0.01953,0,0,0,0,0,0,0,0,-67.468,0.19672,0,-0.023543,0,-20.26,59.947,1,1,4.37,4.37,-0.1,0
-0.0023005,0.019534,0,0,0,0,0,0,0,0,-67.455,0.19663,0,-0.023452,0,-20.256,59.935,1,1,4.375,4.375,-0.1,0
-0.002302,0.019537,0,0,0,0,0,0,0,0,-67.442,0.19654,0,-0.02336,0,-20.252,59.923,1,1,4.38,4.38,-0.1,0
-0.0023035,0.019541,0,0,0,0,0,0,0,0,-67.428,0.19644,0,-0.023269,0,-20.248,59.912,1,1,4.385,4.385,-0.1,0
-0.0023051,0.019544,0,0,0,0,0,0,0,0,-67.415,0.19635,0,-0.023178,0,-20.244,59.9,1,1,4.39,4.39,-0.1,0
-0.0023066,0.019548,0,0,0,0,0,0,0,0,-67.402,0.19625,0,-0.023087,0,-20.24,59.888,1,1,4.395,4.395,-0.1,0
-0.0023081,0.019551,0,0,0,0,0,0,0,0,-67.389,0.19616,0,-0.022996,0,-20.236,59.877,1,1,4.4,4.4,-0.1,0
-0.0023097,0.019555,0,0,0,0,0,0,0,0,-67.375,0.19606,0,-0.022904,0,-20.232,59.865,1,1,4.405,4.405,-0.1,0
-0.0023112,0.019559,0,0,0,0,0,0,0,0,-67.362,0.19597,0,-0.022813,0,-20.228,59.853,1,1,4.41,4.41,-0.1,0
-0.0023127,0.019562,0,0,0,0,0,0,0,0,-67.349,0.19587,0,-0.022722,0,-20.224,59.842,1,1,4.415,4.415,-0.1,0
-0.0023143,0.019566,0,0,0,0,0,0,0,0,-67.336,0.19577,0,-0.022631,0,-20.22,59.83,1,1,4.42,4.42,-0.1,0
-0.0023158,0.019569,0,0,0,0,0,0,0,0,-67.323,0.19568,0,-0.02254,0,-20.216,59.818,1,1,4.425,4.425,-0.1,0
-0.0023173,0.019573,0,0,0,0,0,0,0,0,-67.309,0.19558,0,-0.022449,0,-20.212,59.806,1,1,4.43,4.43,-0.1,0
-0.0023188,0.019576,0,0,0,0,0,0,0,0,-67.296,0.19549,0,-0.022358,0,-20.208,59.795,1,1,4.435,4.435,-0.1,0
-0.0023204,0.01958,0,0,0,0,0,0,0,0,-67.283,0.19539,0,-0.022267,0,-20.204,59.783,1,1,4.44,4.44,-0.1,0
-0.0023219,0.019583,0,0,0,0,0,0,0,0,-67.27,0.1953,0,-0.022175,0,-20.2,59.771,1,1,4.445,4.445,-0.1,0
-0.0023234,0.019587,0,0,0,0,0,0,0,0,-67.256,0.1952,0,-0.022084,0,-20.196,59.76,1,1,4.45,4.45,-0.1,0
-0.002325,0.019591,0,0,0,0,0,0,0,0,-67.243,0.19511,0,-0.021993,0,-20.192,59.748,1,1,4.455,4.455,-0.1,0
-0.0023265,0.019594,0,0,0,0,0,0,0,0,-67.23,0.19501,0,-0.021902,0,-20.188,59.736,1,1,4.46,4.46,-0.1,0
-0.002328,0.019598,0,0,0,0,0,0,0,0,-67.217,0.19492,0,-0.021811,0,-20.184,59.725,1,1,4.465,4.465,-0.1,0
-0.0023295,0.019601,0,0,0,0,0,0,0,0,-67.203,0.19482,0,-0.02172,0,-20.18,59.713,1,1,4.47,4.47,-0.1,0
-0.0023311,0.019605,0,0,0,0,0,0,0,0,-67.19,0.19473,0,-0.021629,0,-20.176,59.701,1,1,4.475,4.475,-0.1,0
-0.0023326,0.019608,0,0,0,0,0,0,0,0,-67.177,0.19463,0,-0.021538,0,-20.172,59.69,1,1,4.48,4.48,-0.1,0
-0.0023341,0.019612,0,0,0,0,0,0,0,0,-67.164,0.19454,0,-0.021447,0,-20.168,59.678,1,1,4.485,4.485,-0.1,0
-0.0023357,0.019615,0,0,0,0,0,0,0,0,-67.151,0.19444,0,-0.021356,0,-20.164,59.666,1,1,4.49,4.49,-0.1,0
-0.0023372,0.019619,0,0,0,0,0,0,0,0,-67.137,0.19434,0,-0.021265,0,-20.16,59.655,1,1,4.495,4.495,-0.1,0
-0.0023387,0.019623,0,0,0,0,0,0,0,0,-67.124,0.19425,0,-0.021174,0,-20.156,59.643,1,1,4.5,4.5,-0.1,0
-0.0023403,0.019626,0,0,0,0,0,0,0,0,-67.111,0.19415,0,-0.021083,0,-20.152,59.631,1,1,4.505,4.505,-0.1,0
-0.0023418,0.01963,0,0,0,0,0,0,0,0,-67.098,0.19406,0,-0.020992,0,-20.148,59.619,1,1,4.51,4.51,-0.1,0
-0.0023433,0.019633,0,0,0,0,0,0,0,0,-67.084,0.19396,0,-0.020901,0,-20.144,59.608,1,1,4.515,4.515,-0.1,0
-0.0023448,0.019637,0,0,0,0,0,0,0,0,-67.071,0.19387,0,-0.02081,0,-20.14,59.596,1,1,4.52,4.52,-0.1,0
-0.0023464,0.01964,0,0,0,0,0,0,0,0,-67.058,0.19377,0,-0.02072,0,-20.136,59.584,1,1,4.525,4.525,-0.1,0
-0.0023479,0.019644,0,0,0,0,0,0,0,0,-67.045,0.19367,0,-0.020629,0,-20.132,59.573,1,1,4.53,4.53,-0.1,0
-0.0023494,0.019647,0,0,0,0,0,0,0,0,-67.031,0.19358,0,-0.020538,0,-20.128,59.561,1,1,4.535,4.535,-0.1,0
-0.002351,0.019651,0,0,0,0,0,0,0,0,-67.018,0.19348,0,-0.020447,0,-20.124,59.549,1,1,4.54,4.54,-0.1,0
-0.0023525,0.019655,0,0,0,0,0,0,0,0,-67.005,0.19339,0,-0.020356,0,-20.12,59.538,1,1,4.545,4.545,-0.1,0
-0.002354,0.019658,0,0,0,0,0,0,0,0,-66.992,0.19329,0,-0.020265,0,-20.116,59.526,1,1,4.55,4.55,-0.1,0
-0.0023555,0.019662,0,0,0,0,0,0,0,0,-66.978,0.19319,0,-0.020174,0,-20.112,59.514,1,1,4.555,4.555,-0.1,0
-0.0023571,0.019665,0,0,0,0,0,0,0,0,-66.965,0.1931,0,-0.020083,0,-20.108,59.503,1,1,4.56,4.56,-0.1,0
-0.0023586,0.019669,0,0,0,0,0,0,0,0,-66.952,0.193,0,-0.019993,0,-20.104,59.491,1,1,4.565,4.565,-0.1,0
-0.0023601,0.019672,0,0,0,0,0,0,0,0,-66.939,0.19291,0,-0.019902,0,-20.1,59.479,1,1,4.57,4.57,-0.1,0
-0.0023617,0.019676,0,0,0,0,0,0,0,0,-66.926,0.19281,0,-0.019811,0,-20.096,59.467,1,1,4.575,4.575,-0.1,0
-0.0023632,0.019679,0,0,0,0,0,0,0,0,-66.912,0.19271,0,-0.01972,0,-20.092,59.456,1,1,4.58,4.58,-0.1,0
-0.0023647,0.019683,0,0,0,0,0,0,0,0,-66.899,0.19262,0,-0.019629,0,-20.088,59.444,1,1,4.585,4.585,-0.1,0
-0.0023662,0.019687,0,0,0,0,0,0,0,0,-66.886,0.19252,0,-0.019539,0,-20.084,59.432,1,1,4.59,4.59,-0.1,0
-0.0023678,0.01969,0,0,0,0,0,0,0,0,-66.873,0.19243,0,-0.019448,0,-20.08,59.421,1,1,4.595,4.595,-0.1,0
-0.0023693,0.019694,0,0,0,0,0,0,0,0,-66.86,0.19238,0,-0.019372,0,-20.076,59.41,1,1,4.6,4.6,-0.1,0
-0.0023708,0.019697,0,0,0,0,0,0,0,0,-66.848,0.19234,0,-0.019298,0,-20.072,59.399,1,1,4.605,4.605,-0.1,0
-0.0023723,0.0197,0,0,0,0,0,0,0,0,-66.835,0.19229,0,-0.019224,0,-20.068,59.387,1,1,4.61,4.61,-0.1,0
-0.0023738,0.019704,0,0,0,0,0,0,0,0,-66.823,0.19225,0,-0.01915,0,-20.065,59.376,1,1,4.615,4.615,-0.1,0
-0.0023753,0.019707,0,0,0,0,0,0,0,0,-66.81,0.19221,0,-0.019077,0,-20.061,59.365,1,1,4.62,4.62,-0.1,0
-0.0023769,0.019711,0,0,0,0,0,0,0,0,-66.798,0.19217,0,-0.019003,0,-20.057,59.354,1,1,4.625,4.625,-0.1,0
-0.0023784,0.019714,0,0,0,0,0,0,0,0,-66.785,0.19213,0,-0.018929,0,-20.053,59.343,1,1,4.63,4.63,-0.1,0
-0.0023799,0.019718,0,0,0,0,0,0,0,0,-66.773,0.19209,0,-0.018855,0,-20.05,59.332,1,1,4.635,4.635,-0.1,0
-0.0023814,0.019721,0,0,0,0,0,0,0,0,-66.76,0.19205,0,-0.018782,0,-20.046,59.321,1,1,4.64,4.64,-0.1,0
-0.0023829,0.019725,0,0,0,0,0,0,0,0,-66.748,0.192,0,-0.018708,0,-20.042,59.31,1,1,4.645,4.645,-0.1,0
-0.0023844,0.019728,0,0,0,0,0,0,0,0,-66.735,0.19196,0,-0.018634,0,-20.038,59.299,1,1,4.65,4.65,-0.1,0
-0.0023859,0.019732,0,0,0,0,0,0,0,0,-66.723,0.19192,0,-0.018561,0,-20.035,59.288,1,1,4.655,4.655,-0.1,0
-0.0023875,0.019735,0,0,0,0,0,0,0,0,-66.71,0.19188,0,-0.018487,0,-20.031,59.277,1,1,4.66,4.66,-0.1,0
-0.002389,0.019739,0,0,0,0,0,0,0,0,-66.698,0.19184,0,-0.018413,0,-20.027,59.266,1,1,4.665,4.665,-0.1,0
-0.0023905,0.019742,0,0,0,0,0,0,0,0,-66.685,0.1918,0,-0.018339,0,-20.023,59.255,1,1,4.67,4.67,-0.1,0
-0.002392,0.019745,0,0,0,0,0,0,0,0,-66.673,0.19175,0,-0.018266,0,-20.019,59.244,1,1,4.675,4.675,-0.1,0
-0.0023935,0.019749,0,0,0,0,0,0,0,0,-66.66,0.19171,0,-0.018192,0,-20.016,59.233,1,1,4.68,4.68,-0.1,0
-0.002395,0.019752,0,0,0,0,0,0,0,0,-66.648,0.19167,0,-0.018119,0,-20.012,59.222,1,1,4.685,4.685,-0.1,0
-0.0023965,0.019756,0,0,0,0,0,0,0,0,-66.635,0.19163,0,-0.018045,0,-20.008,59.211,1,1,4.69,4.69,-0.1,0
-0.002398,0.019759,0,0,0,0,0,0,0,0,-66.623,0.19159,0,-0.017971,0,-20.004,59.2,1,1,4.695,4.695,-0.1,0
-0.0023996,0.019763,0,0,0,0,0,0,0,0,-66.61,0.19155,0,-0.017898,0,-20.001,59.189,1,1,4.7,4.7,-0.1,0
-0.0024011,0.019766,0,0,0,0,0,0,0,0,-66.598,0.1915,0,-0.017824,0,-19.997,59.178,1,1,4.705,4.705,-0.1,0
-0.0024026,0.01977,0,0,0,0,0,0,0,0,-66.585,0.19146,0,-0.01775,0,-19.993,59.167,1,1,4.71,4.71,-0.1,0
-0.0024041,0.019773,0,0,0,0,0,0,0,0,-66.573,0.19142,0,-0.017677,0,-19.989,59.156,1,1,4.715,4.715,-0.1,0
-0.0024056,0.019777,0,0,0,0,0,0,0,0,-66.56,0.19138,0,-0.017603,0,-19.985,59.144,1,1,4.72,4.72,-0.1,0
-0.0024071,0.01978,0,0,0,0,0,0,0,0,-66.548,0.19134,0,-0.01753,0,-19.982,59.133,1,1,4.725,4.725,-0.1,0
-0.0024086,0.019784,0,0,0,0,0,0,0,0,-66.535,0.19129,0,-0.017456,0,-19.978,59.122,1,1,4.73,4.73,-0.1,0
-0.0024102,0.019787,0,0,0,0,0,0,0,0,-66.523,0.19125,0,-0.017383,0,-19.974,59.111,1,1,4.735,4.735,-0.1,0
-0.0024117,0.01979,0,0,0,0,0,0,0,0,-66.51,0.19121,0,-0.017309,0,-19.97,59.1,1,1,4.74,4.74,-0.1,0
-0.0024132,0.019794,0,0,0,0,0,0,0,0,-66.498,0.19117,0,-0.017235,0,-19.967,59.089,1,1,4.745,4.745,-0.1,0
-0.0024147,0.019797,0,0,0,0,0,0,0,0,-66.485,0.19113,0,-0.017162,0,-19.963,59.078,1,1,4.75,4.75,-0.1,0
-0.0024162,0.019801,0,0,0,0,0,0,0,0,-66.473,0.19109,0,-0.017088,0,-19.959,59.067,1,1,4.755,4.755,-0.1,0
-0.0024177,0.019804,0,0,0,0,0,0,0,0,-66.46,0.19104,0,-0.017015,0,-19.955,59.056,1,1,4.76,4.76,-0.1,0
-0.0024192,0.019808,0,0,0,0,0,0,0,0,-66.448,0.191,0,-0.016941,0,-19.951,59.045,1,1,4.765,4.765,-0.1,0
-0.0024208,0.019811,0,0,0,0,0,0,0,0,-66.435,0.19096,0,-0.016868,0,-19.948,59.034,1,1,4.77,4.77,-0.1,0
-0.0024223,0.019815,0,0,0,0,0,0,0,0,-66.423,0.19092,0,-0.016794,0,-19.944,59.023,1,1,4.775,4.775,-0.1,0
-0.0024238,0.019818,0,0,0,0,0,0,0,0,-66.41,0.19087,0,-0.016721,0,-19.94,59.012,1,1,4.78,4.78,-0.1,0
-0.0024253,0.019822,0,0,0,0,0,0,0,0,-66.398,0.19083,0,-0.016647,0,-19.936,59.001,1,1,4.785,4.785,-0.1,0
-0.0024268,0.019825,0,0,0,0,0,0,0,0,-66.385,0.19079,0,-0.016574,0,-19.933,58.99,1,1,4.79,4.79,-0.1,0
-0.0024283,0.019829,0,0,0,0,0,0,0,0,-66.373,0.19075,0,-0.016501,0,-19.929,58.979,1,1,4.795,4.795,-0.1,0
-0.0024298,0.019832,0,0,0,0,0,0,0,0,-66.36,0.19071,0,-0.016427,0,-19.925,58.968,1,1,4.8,4.8,-0.1,0
-0.0024313,0.019835,0,0,0,0,0,0,0,0,-66.348,0.19066,0,-0.016354,0,-19.921,58.957,1,1,4.805,4.805,-0.1,0
-0.0024329,0.019839,0,0,0,0,0,0,0,0,-66.335,0.19062,0,-0.01628,0,-19.917,58.946,1,1,4.81,4.81,-0.1,0
-0.0024344,0.019842,0,0,0,0,0,0,0,0,-66.323,0.19058,0,-0.016207,0,-19.914,58.934,1,1,4.815,4.815,-0.1,0
-0.0024359,0.019846,0,0,0,0,0,0,0,0,-66.31,0.19054,0,-0.016133,0,-19.91,58.923,1,1,4.82,4.82,-0.1,0
-0.0024374,0.019849,0,0,0,0,0,0,0,0,-66.298,0.19049,0,-0.01606,0,-19.906,58.912,1,1,4.825,4.825,-0.1,0
-0.0024389,0.019853,0,0,0,0,0,0,0,0,-66.285,0.19045,0,-0.015987,0,-19.902,58.901,1,1,4.83,4.83,-0.1,0
-0.0024404,0.019856,0,0,0,0,0,0,0,0,-66.273,0.19041,0,-0.015913,0,-19.899,58.89,1,1,4.835,4.835,-0.1,0
-0.0024419,0.01986,0,0,0,0,0,0,0,0,-66.26,0.19037,0,-0.01584,0,-19.895,58.879,1,1,4.84,4.84,-0.1,0
-0.0024435,0.019863,0,0,0,0,0,0,0,0,-66.248,0.19032,0,-0.015767,0,-19.891,58.868,1,1,4.845,4.845,-0.1,0
-0.002445,0.019867,0,0,0,0,0,0,0,0,-66.235,0.19028,0,-0.015693,0,-19.887,58.857,1,1,4.85,4.85,-0.1,0
-0.0024465,0.01987,0,0,0,0,0,0,0,0,-66.223,0.19024,0,-0.01562,0,-19.883,58.846,1,1,4.855,4.855,-0.1,0
-0.002448,0.019874,0,0,0,0,0,0,0,0,-66.21,0.1902,0,-0.015546,0,-19.88,58.835,1,1,4.86,4.86,-0.1,0
-0.0024495,0.019877,0,0,0,0,0,0,0,0,-66.198,0.19015,0,-0.015473,0,-19.876,58.824,1,1,4.865,4.865,-0.1,0
-0.002451,0.01988,0,0,0,0,0,0,0,0,-66.185,0.19011,0,-0.0154,0,-19.872,58.813,1,1,4.87,4.87,-0.1,0
-0.0024525,0.019884,0,0,0,0,0,0,0,0,-66.173,0.19011,0,-0.015339,0,-19.868,58.802,1,1,4.875,4.875,-0.1,0
-0.002454,0.019887,0,0,0,0,0,0,0,0,-66.161,0.19011,0,-0.015279,0,-19.865,58.792,1,1,4.88,4.88,-0.1,0
-0.0024555,0.019891,0,0,0,0,0,0,0,0,-66.149,0.1901,0,-0.015219,0,-19.861,58.781,1,1,4.885,4.885,-0.1,0
-0.002457,0.019894,0,0,0,0,0,0,0,0,-66.137,0.1901,0,-0.015159,0,-19.858,58.77,1,1,4.89,4.89,-0.1,0
-0.0024585,0.019897,0,0,0,0,0,0,0,0,-66.125,0.1901,0,-0.015099,0,-19.854,58.76,1,1,4.895,4.895,-0.1,0
-0.00246,0.019901,0,0,0,0,0,0,0,0,-66.113,0.1901,0,-0.015039,0,-19.85,58.749,1,1,4.9,4.9,-0.1,0
-0.0024615,0.019904,0,0,0,0,0,0,0,0,-66.101,0.1901,0,-0.014979,0,-19.847,58.739,1,1,4.905,4.905,-0.1,0
-0.002463,0.019907,0,0,0,0,0,0,0,0,-66.089,0.1901,0,-0.014919,0,-19.843,58.728,1,1,4.91,4.91,-0.1,0
-0.0024645,0.019911,0,0,0,0,0,0,0,0,-66.077,0.19009,0,-0.014859,0,-19.84,58.718,1,1,4.915,4.915,-0.1,0
-0.002466,0.019914,0,0,0,0,0,0,0,0,-66.065,0.19009,0,-0.014799,0,-19.836,58.707,1,1,4.92,4.92,-0.1,0
-0.0024675,0.019918,0,0,0,0,0,0,0,0,-66.053,0.19009,0,-0.014739,0,-19.832,58.696,1,1,4.925,4.925,-0.1,0
-0.002469,0.019921,0,0,0,0,0,0,0,0,-66.041,0.19009,0,-0.014679,0,-19.829,58.686,1,1,4.93,4.93,-0.1,0
-0.0024705,0.019924,0,0,0,0,0,0,0,0,-66.029,0.19009,0,-0.014619,0,-19.825,58.675,1,1,4.935,4.935,-0.1,0
-0.002472,0.019928,0,0,0,0,0,0,0,0,-66.017,0.19009,0,-0.014559,0,-19.822,58.665,1,1,4.94,4.94,-0.1,0
-0.0024735,0.019931,0,0,0,0,0,0,0,0,-66.005,0.19008,0,-0.014499,0,-19.818,58.654,1,1,4.945,4.945,-0.1,0
-0.002475,0.019935,0,0,0,0,0,0,0,0,-65.993,0.19008,0,-0.014439,0,-19.814,58.643,1,1,4.95,4.95,-0.1,0
-0.0024765,0.019938,0,0,0,0,0,0,0,0,-65.982,0.19008,0,-0.014379,0,-19.811,58.633,1,1,4.955,4.955,-0.1,0
-0.002478,0.019941,0,0,0,0,0,0,0,0,-65.97,0.19008,0,-0.014319,0,-19.807,58.622,1,1,4.96,4.96,-0.1,0
-0.0024795,0.019945,0,0,0,0,0,0,0,0,-65.958,0.19008,0,-0.014259,0,-19.803,58.612,1,1,4.965,4.965,-0.1,0
-0.002481,0.019948,0,0,0,0,0,0,0,0,-65.946,0.19008,0,-0.0142,0,-19.8,58.601,1,1,4.97,4.97,-0.1,0
-0.0024825,0.019951,0,0,0,0,0,0,0,0,-65.934,0.19007,0,-0.01414,0,-19.796,58.59,1,1,4.975,4.975,-0.1,0
-0.002484,0.019955,0,0,0,0,0,0,0,0,-65.922,0.19007,0,-0.01408,0,-19.793,58.58,1,1,4.98,4.98,-0.1,0
-0.0024855,0.019958,0,0,0,0,0,0,0,0,-65.91,0.19007,0,-0.01402,0,-19.789,58.569,1,1,4.985,4.985,-0.1,0
-0.002487,0.019962,0,0,0,0,0,0,0,0,-65.898,0.19007,0,-0.01396,0,-19.785,58.559,1,1,4.99,4.99,-0.1,0
-0.0024885,0.019965,0,0,0,0,0,0,0,0,-65.886,0.19007,0,-0.0139,0,-19.782,58.548,1,1,4.995,4.995,-0.1,0
-0.00249,0.019968,0,0,0,0,0,0,0,0,-65.874,0.19006,0,-0.01384,0,-19.778,58.537,1,1,5,5,-0.1,0
