"displacement:0","displacement:1","displacement:2","displacement contact active","displacement contact distance","displacement contact gap","displacement contact normalload","displacement contact slipload","displacement contact stick","displacement contact weight","stress_xx","stress_xy","stress_xz","stress_yy","stress_yz","stress_zz","vonmises","GeometryIds","vtkValidPointMask","arc_length","Points:0","Points:1","Points:2"
2.0932e-13,0.010144,0,1.503,-0.0047005,0.0046828,2051.8,1167.9,-0.96979,0,-1072.5,782.64,0,-1668.5,0,-831.04,1547.4,102,1,0,0,0,0
2.0612e-13,0.01017,0,1.4801,-0.0046287,0.0046112,2020.5,1150.1,-0.95497,0,-1063.6,777.37,0,-1661.4,0,-826.15,1538.7,102,1,0.005,0,-0.005,0
2.0295e-13,0.010196,0,1.4573,-0.0045574,0.0045401,1989.4,1132.3,-0.94025,0,-1054.6,772.1,0,-1654.4,0,-821.29,1530.1,102,1,0.01,0,-0.01,0
1.9979e-13,0.010222,0,1.4346,-0.0044865,0.0044696,1958.4,1114.7,-0.92564,0,-1045.7,766.85,0,-1647.3,0,-816.43,1521.5,102,1,0.015,0,-0.015,0
1.9666e-13,0.010248,0,1.4121,-0.0044162,0.0043995,1927.7,1097.3,-0.91112,0,-1036.9,761.61,0,-1640.3,0,-811.6,1513,102,1,0.02,0,-0.02,0
1.9355e-13,0.010274,0,1.3898,-0.0043463,0.0043299,1897.2,1079.9,-0.89671,0,-1028.1,756.39,0,-1633.2,0,-806.78,1504.4,102,1,0.025,0,-0.025,0
1.9046e-13,0.0103,0,1.3676,-0.0042769,0.0042608,1866.9,1062.7,-0.8824,0,-1019.3,751.17,0,-1626.2,0,-801.97,1496,102,1,0.03,0,-0.03,0
1.8739e-13,0.010326,0,1.3456,-0.0042081,0.0041922,1836.9,1045.5,-0.86818,0,-1010.5,745.97,0,-1619.2,0,-797.18,1487.5,102,1,0.035,0,-0.035,0
1.8435e-13,0.010352,0,1.3237,-0.0041397,0.004124,1807,1028.6,-0.85407,0,-1001.8,740.78,0,-1612.2,0,-792.41,1479.1,102,1,0.04,0,-0.04,0
1.8132e-13,0.010378,0,1.302,-0.0040718,0.0040564,1777.4,1011.7,-0.84006,0,-993.13,735.6,0,-1605.3,0,-787.65,1470.7,102,1,0.045,0,-0.045,0
1.7832e-13,0.010403,0,1.2804,-0.0040043,0.0039892,1747.9,994.93,-0.82615,0,-984.49,730.44,0,-1598.3,0,-782.91,1462.4,102,1,0.05,0,-0.05,0
1.7534e-13,0.010429,0,1.259,-0.0039374,0.0039225,1718.7,978.3,-0.81235,0,-975.89,725.28,0,-1591.4,0,-778.18,1454,102,1,0.055,0,-0.055,0
1.7238e-13,0.010454,0,1.2378,-0.003871,0.0038563,1689.7,961.79,-0.79864,0,-967.32,720.14,0,-1584.5,0,-773.47,1445.8,102,1,0.06,0,-0.06,0
1.6944e-13,0.01048,0,1.2167,-0.003805,0.0037906,1660.9,945.41,-0.78503,0,-958.79,715.02,0,-1577.6,0,-768.77,1437.5,102,1,0.065,0,-0.065,0
1.6653e-13,0.010506,0,1.1958,-0.0037396,0.0037254,1632.4,929.14,-0.77153,0,-950.3,709.9,0,-1570.7,0,-764.09,1429.3,102,1,0.07,0,-0.07,0
1.6364e-13,0.010531,0,1.175,-0.0036746,0.0036607,1604,913,-0.75812,0,-941.84,704.8,0,-1563.8,0,-759.43,1421.1,102,1,0.075,0,-0.075,0
1.6077e-13,0.010556,0,1.1544,-0.0036101,0.0035965,1575.9,896.98,-0.74482,0,-933.42,699.71,0,-1556.9,0,-754.78,1413,102,1,0.08,0,-0.08,0
1.5792e-13,0.010582,0,1.1339,-0.0035461,0.0035327,1547.9,881.08,-0.73162,0,-925.03,694.63,0,-1550.1,0,-750.15,1404.8,102,1,0.085,0,-0.085,0
1.5509e-13,0.010607,0,1.1136,-0.0034826,0.0034695,1520.2,865.3,-0.71852,0,-916.68,689.56,0,-1543.2,0,-745.53,1396.8,102,1,0.09,0,-0.09,0
1.5228e-13,0.010632,0,1.0934,-0.0034196,0.0034067,1492.7,849.65,-0.70552,0,-908.37,684.51,0,-1536.4,0,-740.93,1388.7,102,1,0.095,0,-0.095,0
1.495e-13,0.010658,0,1.0735,-0.0033571,0.0033444,1465.4,834.11,-0.69262,0,-900.1,679.47,0,-1529.6,0,-736.35,1380.7,102,1,0.1,0,-0.1,0
1.4674e-13,0.010683,0,1.0536,-0.0032951,0.0032826,1438.3,818.7,-0.67982,0,-891.86,674.44,0,-1522.8,0,-731.78,1372.7,102,1,0.105,0,-0.105,0
1.4399e-13,0.010708,0,1.0339,-0.0032335,0.0032213,1411.5,803.41,-0.66712,0,-883.66,669.42,0,-1516.1,0,-727.23,1364.8,102,1,0.11,0,-0.11,0
1.4128e-13,0.010733,0,1.0144,-0.0031725,0.0031605,1384.8,788.24,-0.65453,0,-875.49,664.42,0,-1509.3,0,-722.69,1356.9,102,1,0.115,0,-0.115,0
1.3858e-13,0.010758,0,0.99505,-0.0031119,0.0031001,1358.4,773.19,-0.64203,0,-867.36,659.43,0,-1502.6,0,-718.17,1349,102,1,0.12,0,-0.12,0
1.359e-13,0.010783,0,0.97584,-0.0030518,0.0030403,1332.2,758.26,-0.62964,0,-859.27,654.45,0,-1495.9,0,-713.66,1341.2,102,1,0.125,0,-0.125,0
1.3325e-13,0.010808,0,0.95679,-0.0029922,0.0029809,1306.2,743.46,-0.61734,0,-851.21,649.48,0,-1489.1,0,-709.17,1333.3,102,1,0.13,0,-0.13,0
1.3062e-13,0.010833,0,0.93789,-0.0029331,0.0029221,1280.4,728.78,-0.60515,0,-843.19,644.52,0,-1482.4,0,-704.7,1325.6,102,1,0.135,0,-0.135,0
1.2801e-13,0.010858,0,0.91915,-0.0028745,0.0028637,1254.8,714.21,-0.59306,0,-835.21,639.58,0,-1475.8,0,-700.24,1317.8,102,1,0.14,0,-0.14,0
1.2542e-13,0.010883,0,0.90057,-0.0028164,0.0028058,1229.4,699.77,-0.58107,0,-827.26,634.65,0,-1469.1,0,-695.79,1310.1,102,1,0.145,0,-0.145,0
1.2285e-13,0.010907,0,0.88214,-0.0027588,0.0027484,1204.2,685.46,-0.56918,0,-819.35,629.73,0,-1462.5,0,-691.37,1302.4,102,1,0.15,0,-0.15,0
1.2031e-13,0.010932,0,0.86387,-0.0027016,0.0026914,1179.3,671.26,-0.55739,0,-811.48,624.83,0,-1455.8,0,-686.96,1294.8,102,1,0.155,0,-0.155,0
1.1779e-13,0.010957,0,0.84576,-0.002645,0.002635,1154.6,657.18,-0.5457,0,-803.64,619.94,0,-1449.2,0,-682.56,1287.2,102,1,0.16,0,-0.16,0
1.1529e-13,0.010981,0,0.8278,-0.0025888,0.0025791,1130.1,643.23,-0.53412,0,-795.84,615.06,0,-1442.6,0,-678.18,1279.6,102,1,0.165,0,-0.165,0
1.1281e-13,0.011006,0,0.81,-0.0025332,0.0025236,1105.8,629.4,-0.52263,0,-788.08,610.19,0,-1436,0,-673.82,1272.1,102,1,0.17,0,-0.17,0
1.1035e-13,0.01103,0,0.79235,-0.002478,0.0024686,1081.7,615.69,-0.51124,0,-780.35,605.33,0,-1429.4,0,-669.47,1264.6,102,1,0.175,0,-0.175,0
1.0791e-13,0.011055,0,0.77487,-0.0024233,0.0024141,1057.8,602.1,-0.49996,0,-772.66,600.49,0,-1422.9,0,-665.13,1257.1,102,1,0.18,0,-0.18,0
1.055e-13,0.011079,0,0.75753,-0.0023691,0.0023601,1034.1,588.63,-0.48878,0,-765,595.66,0,-1416.3,0,-660.82,1249.7,102,1,0.185,0,-0.185,0
1.0311e-13,0.011104,0,0.74036,-0.0023154,0.0023066,1010.7,575.28,-0.4777,0,-757.38,590.84,0,-1409.8,0,-656.52,1242.3,102,1,0.19,0,-0.19,0
1.0074e-13,0.011128,0,0.72334,-0.0022621,0.0022536,987.46,562.06,-0.46671,0,-749.8,586.03,0,-1403.3,0,-652.23,1234.9,102,1,0.195,0,-0.195,0
9.8389e-14,0.011152,0,0.70648,-0.0022094,0.0022011,964.44,548.96,-0.45583,0,-742.26,581.24,0,-1396.8,0,-647.96,1227.6,102,1,0.2,0,-0.2,0
9.6063e-14,0.011177,0,0.68977,-0.0021572,0.002149,941.63,535.98,-0.44506,0,-734.75,576.46,0,-1390.3,0,-643.71,1220.3,102,1,0.205,0,-0.205,0
9.3758e-14,0.011201,0,0.67322,-0.0021054,0.0020975,919.04,523.12,-0.43438,0,-727.28,571.69,0,-1383.8,0,-639.47,1213,102,1,0.21,0,-0.21,0
9.1475e-14,0.011225,0,0.65683,-0.0020541,0.0020464,896.66,510.38,-0.4238,0,-719.84,566.93,0,-1377.4,0,-635.25,1205.7,102,1,0.215,0,-0.215,0
8.9213e-14,0.011249,0,0.64059,-0.0020034,0.0019958,874.49,497.76,-0.41332,0,-712.44,562.19,0,-1371,0,-631.04,1198.5,102,1,0.22,0,-0.22,0
8.6974e-14,0.011273,0,0.62451,-0.0019531,0.0019457,852.54,485.27,-0.40295,0,-705.08,557.46,0,-1364.5,0,-626.85,1191.4,102,1,0.225,0,-0.225,0
8.4756e-14,0.011297,0,0.60859,-0.0019033,0.0018961,830.8,472.89,-0.39267,0,-697.75,552.74,0,-1358.1,0,-622.68,1184.2,102,1,0.23,0,-0.23,0
8.256e-14,0.011321,0,0.59282,-0.001854,0.001847,809.28,460.64,-0.3825,0,-690.46,548.03,0,-1351.7,0,-618.52,1177.1,102,1,0.235,0,-0.235,0
8.0386e-14,0.011345,0,0.57721,-0.0018051,0.0017983,787.97,448.51,-0.37243,0,-683.21,543.34,0,-1345.4,0,-614.37,1170.1,102,1,0.24,0,-0.24,0
7.8234e-14,0.011369,0,0.56175,-0.0017568,0.0017502,766.87,436.5,-0.36246,0,-675.99,538.65,0,-1339,0,-610.25,1163,102,1,0.245,0,-0.245,0
7.6104e-14,0.011393,0,0.54646,-0.001709,0.0017025,745.99,424.62,-0.35259,0,-668.81,533.98,0,-1332.7,0,-606.13,1156,102,1,0.25,0,-0.25,0
7.3995e-14,0.011417,0,0.53132,-0.0016616,0.0016553,725.32,412.85,-0.34282,0,-661.67,529.33,0,-1326.3,0,-602.04,1149.1,102,1,0.255,0,-0.255,0
7.1908e-14,0.01144,0,0.51633,-0.0016148,0.0016087,704.86,401.21,-0.33315,0,-654.56,524.68,0,-1320,0,-597.96,1142.1,102,1,0.26,0,-0.26,0
6.9843e-14,0.011464,0,0.5015,-0.0015684,0.0015625,684.62,389.68,-0.32358,0,-647.49,520.05,0,-1313.7,0,-593.89,1135.2,102,1,0.265,0,-0.265,0
6.78e-14,0.011488,0,0.48683,-0.0015225,0.0015167,664.59,378.28,-0.31411,0,-640.46,515.43,0,-1307.4,0,-589.84,1128.4,102,1,0.27,0,-0.27,0
6.5778e-14,0.011511,0,0.47231,-0.0014771,0.0014715,644.77,367,-0.30475,0,-633.46,510.82,0,-1301.2,0,-585.81,1121.6,102,1,0.275,0,-0.275,0
6.3778e-14,0.011535,0,0.45796,-0.0014322,0.0014268,625.17,355.85,-0.29548,0,-626.5,506.23,0,-1294.9,0,-581.79,1114.8,102,1,0.28,0,-0.28,0
6.18e-14,0.011558,0,0.44375,-0.0013878,0.0013825,605.78,344.81,-0.28632,0,-619.57,501.64,0,-1288.7,0,-577.79,1108,102,1,0.285,0,-0.285,0
5.9844e-14,0.011582,0,0.42971,-0.0013439,0.0013388,586.61,333.9,-0.27726,0,-612.68,497.07,0,-1282.4,0,-573.81,1101.3,102,1,0.29,0,-0.29,0
5.791e-14,0.011605,0,0.41582,-0.0013004,0.0012955,567.65,323.1,-0.26829,0,-605.83,492.51,0,-1276.2,0,-569.84,1094.6,102,1,0.295,0,-0.295,0
5.5997e-14,0.011629,0,0.40208,-0.0012575,0.0012527,548.9,312.43,-0.25943,0,-599.02,487.97,0,-1270,0,-565.88,1087.9,102,1,0.3,0,-0.3,0
5.4106e-14,0.011652,0,0.38851,-0.001215,0.0012104,530.37,301.88,-0.25067,0,-592.24,483.43,0,-1263.9,0,-561.94,1081.3,102,1,0.305,0,-0.305,0
5.2237e-14,0.011675,0,0.37509,-0.001173,0.0011686,512.05,291.46,-0.24201,0,-585.49,478.91,0,-1257.7,0,-558.02,1074.7,102,1,0.31,0,-0.31,0
5.039e-14,0.011699,0,0.36182,-0.0011316,0.0011273,493.94,281.15,-0.23346,0,-578.79,474.4,0,-1251.5,0,-554.11,1068.1,102,1,0.315,0,-0.315,0
4.8565e-14,0.011722,0,0.34872,-0.0010906,0.0010864,476.05,270.96,-0.225,0,-572.12,469.91,0,-1245.4,0,-550.22,1061.6,102,1,0.32,0,-0.32,0
4.6761e-14,0.011745,0,0.33577,-0.0010501,0.0010461,458.37,260.9,-0.21664,0,-565.49,465.42,0,-1239.3,0,-546.35,1055.1,102,1,0.325,0,-0.325,0
4.4979e-14,0.011768,0,0.32297,-0.00101,0.0010062,440.9,250.96,-0.20839,0,-558.89,460.95,0,-1233.2,0,-542.49,1048.6,102,1,0.33,0,-0.33,0
4.3219e-14,0.011791,0,0.31033,-0.00097053,0.00096686,423.65,241.14,-0.20023,0,-552.33,456.49,0,-1227.1,0,-538.64,1042.2,102,1,0.335,0,-0.335,0
4.1481e-14,0.011814,0,0.29785,-0.00093149,0.00092797,406.61,231.44,-0.19218,0,-545.81,452.04,0,-1221,0,-534.82,1035.8,102,1,0.34,0,-0.34,0
3.9765e-14,0.011837,0,0.28553,-0.00089295,0.00088957,389.78,221.86,-0.18423,0,-539.32,447.61,0,-1215,0,-531,1029.5,102,1,0.345,0,-0.345,0
3.807e-14,0.01186,0,0.27336,-0.00085489,0.00085166,373.17,212.41,-0.17638,0,-532.87,443.19,0,-1208.9,0,-527.21,1023.2,102,1,0.35,0,-0.35,0
3.6397e-14,0.011883,0,0.26135,-0.00081733,0.00081424,356.77,203.08,-0.16863,0,-526.46,438.78,0,-1202.9,0,-523.43,1016.9,102,1,0.355,0,-0.355,0
3.4746e-14,0.011906,0,0.24949,-0.00078025,0.0007773,340.59,193.86,-0.16098,0,-520.08,434.38,0,-1196.9,0,-519.66,1010.6,102,1,0.36,0,-0.36,0
3.3117e-14,0.011928,0,0.23779,-0.00074366,0.00074085,324.62,184.77,-0.15343,0,-513.74,429.99,0,-1190.9,0,-515.91,1004.4,102,1,0.365,0,-0.365,0
3.1509e-14,0.011951,0,0.22625,-0.00070757,0.00070489,308.86,175.8,-0.14598,0,-507.43,425.62,0,-1184.9,0,-512.18,998.2,102,1,0.37,0,-0.37,0
2.9923e-14,0.011974,0,0.21486,-0.00067196,0.00066942,293.32,166.96,-0.13863,0,-501.16,421.26,0,-1178.9,0,-508.46,992.04,102,1,0.375,0,-0.375,0
2.836e-14,0.011996,0,0.20363,-0.00063684,0.00063443,277.99,158.23,-0.13139,0,-494.93,416.91,0,-1173,0,-504.76,985.92,102,1,0.38,0,-0.38,0
2.6817e-14,0.012019,0,0.19256,-0.00060221,0.00059993,262.87,149.63,-0.12424,0,-488.74,412.58,0,-1167,0,-501.07,979.83,102,1,0.385,0,-0.385,0
2.5297e-14,0.012042,0,0.18164,-0.00056807,0.00056592,247.97,141.14,-0.1172,0,-482.58,408.25,0,-1161.1,0,-497.4,973.78,102,1,0.39,0,-0.39,0
2.3799e-14,0.012064,0,0.17088,-0.00053442,0.0005324,233.28,132.78,-0.11026,0,-476.46,403.94,0,-1155.2,0,-493.75,967.76,102,1,0.395,0,-0.395,0
2.2322e-14,0.012086,0,0.16028,-0.00050125,0.00049936,218.8,124.54,-0.10342,0,-470.37,399.64,0,-1149.3,0,-490.11,961.77,102,1,0.4,0,-0.4,0
2.0867e-14,0.012109,0,0.14983,-0.00046858,0.00046681,204.54,116.43,-0.096675,0,-464.32,395.36,0,-1143.5,0,-486.49,955.82,102,1,0.405,0,-0.405,0
1.9434e-14,0.012131,0,0.13954,-0.0004364,0.00043475,190.49,108.43,-0.090036,0,-458.31,391.08,0,-1137.6,0,-482.88,949.9,102,1,0.41,0,-0.41,0
1.8022e-14,0.012154,0,0.12941,-0.00040471,0.00040318,176.66,100.55,-0.083497,0,-452.34,386.82,0,-1131.7,0,-479.29,944.02,102,1,0.415,0,-0.415,0
1.6633e-14,0.012176,0,0.11943,-0.0003735,0.00037209,163.04,92.801,-0.077059,0,-446.4,382.57,0,-1125.9,0,-475.71,938.17,102,1,0.42,0,-0.42,0
1.5265e-14,0.012198,0,0.10961,-0.00034279,0.00034149,149.63,85.17,-0.070722,0,-440.49,378.34,0,-1120.1,0,-472.15,932.35,102,1,0.425,0,-0.425,0
1.3919e-14,0.01222,0,0.099944,-0.00031256,0.00031138,136.44,77.66,-0.064486,0,-434.63,374.11,0,-1114.3,0,-468.61,926.57,102,1,0.43,0,-0.43,0
1.2595e-14,0.012242,0,0.090435,-0.00028282,0.00028175,123.46,70.271,-0.058351,0,-428.8,369.9,0,-1108.5,0,-465.08,920.82,102,1,0.435,0,-0.435,0
1.1292e-14,0.012264,0,0.081083,-0.00025358,0.00025262,110.69,63.004,-0.052317,0,-423,365.7,0,-1102.8,0,-461.57,915.1,102,1,0.44,0,-0.44,0
1.0012e-14,0.012286,0,0.071888,-0.00022482,0.00022397,98.137,55.859,-0.046384,0,-417.25,361.51,0,-1097,0,-458.07,909.42,102,1,0.445,0,-0.445,0
8.7528e-15,0.012308,0,0.062849,-0.00019655,0.00019581,85.797,48.836,-0.040551,0,-411.53,357.34,0,-1091.3,0,-454.59,903.77,102,1,0.45,0,-0.45,0
7.5157e-15,0.01233,0,0.053966,-0.00016877,0.00016813,73.671,41.934,-0.03482,0,-405.84,353.18,0,-1085.5,0,-451.12,898.16,102,1,0.455,0,-0.455,0
6.3005e-15,0.012352,0,0.04524,-0.00014148,0.00014095,61.759,35.153,-0.02919,0,-400.19,349.03,0,-1079.8,0,-447.67,892.58,102,1,0.46,0,-0.46,0
5.107e-15,0.012374,0,0.036671,-0.00011468,0.00011425,50.06,28.494,-0.023661,0,-394.58,344.89,0,-1074.1,0,-444.24,887.03,102,1,0.465,0,-0.465,0
3.9353e-15,0.012396,0,0.028257,-8.8372e-05,8.8038e-05,38.575,21.957,-0.018232,0,-389.01,340.76,0,-1068.5,0,-440.82,881.52,102,1,0.47,0,-0.47,0
2.7855e-15,0.012418,0,0.020001,-6.255e-05,6.2314e-05,27.304,15.541,-0.012905,0,-383.47,336.65,0,-1062.8,0,-437.42,876.04,102,1,0.475,0,-0.475,0
1.6574e-15,0.012439,0,0.011901,-3.7218e-05,3.7077e-05,16.246,9.2473,-0.0076786,0,-377.97,332.55,0,-1057.1,0,-434.03,870.59,102,1,0.48,0,-0.48,0
5.5108e-16,0.012461,0,0.003957,-1.2375e-05,1.2328e-05,5.4018,3.0747,-0.0025531,0,-372.5,328.46,0,-1051.5,0,-430.66,865.18,102,1,0.485,0,-0.485,0
-5.3294e-16,0.012483,0,-0.0038267,1.1968e-05,-1.1922e-05,-5.224,-2.9735,0.0024691,0,-367.08,324.39,0,-1045.9,0,-427.31,859.81,102,1,0.49,0,-0.49,0
-1.5947e-15,0.012504,0,-0.011451,3.581e-05,-3.5675e-05,-15.632,-8.8975,0.0073882,0,-361.69,320.33,0,-1040.3,0,-423.97,854.47,102,1,0.495,0,-0.495,0
-2.6347e-15,0.012526,0,-0.018918,5.9164e-05,-5.8941e-05,-25.826,-14.7,0.012206,0,-356.34,316.28,0,-1034.7,0,-420.65,849.16,102,1,0.5,0,-0.5,0
-3.6529e-15,0.012547,0,-0.02623,8.203e-05,-8.172e-05,-35.807,-20.381,0.016924,0,-351.03,312.25,0,-1029.1,0,-417.35,843.89,102,1,0.505,0,-0.505,0
-4.6494e-15,0.012568,0,-0.033385,0.00010441,-0.00010401,-45.575,-25.941,0.021541,0,-345.75,308.22,0,-1023.6,0,-414.06,838.65,102,1,0.51,0,-0.51,0
-5.6242e-15,0.01259,0,-0.040384,0.0001263,-0.00012582,-55.13,-31.38,0.026057,0,-340.51,304.21,0,-1018.1,0,-410.78,833.45,102,1,0.515,0,-0.515,0
-6.5772e-15,0.012611,0,-0.047227,0.0001477,-0.00014714,-64.471,-36.697,0.030472,0,-335.3,300.21,0,-1012.5,0,-407.53,828.28,102,1,0.52,0,-0.52,0
-7.5084e-15,0.012632,0,-0.053914,0.00016861,-0.00016797,-73.6,-41.893,0.034786,0,-330.13,296.23,0,-1007,0,-404.28,823.14,102,1,0.525,0,-0.525,0
-8.4179e-15,0.012654,0,-0.060444,0.00018903,-0.00018832,-82.515,-46.967,0.039,0,-325,292.26,0,-1001.5,0,-401.06,818.04,102,1,0.53,0,-0.53,0
-9.3057e-15,0.012675,0,-0.066819,0.00020897,-0.00020818,-91.217,-51.921,0.043113,0,-319.91,288.3,0,-996.06,0,-397.85,812.97,102,1,0.535,0,-0.535,0
-1.0172e-14,0.012696,0,-0.073037,0.00022841,-0.00022755,-99.706,-56.752,0.047125,0,-314.85,284.35,0,-990.6,0,-394.65,807.93,102,1,0.54,0,-0.54,0
-1.1016e-14,0.012717,0,-0.079099,0.00024737,-0.00024644,-107.98,-61.463,0.051036,0,-309.82,280.41,0,-985.15,0,-391.47,802.93,102,1,0.545,0,-0.545,0
-1.1838e-14,0.012738,0,-0.085005,0.00026584,-0.00026484,-116.04,-66.052,0.054847,0,-304.84,276.49,0,-979.72,0,-388.31,797.96,102,1,0.55,0,-0.55,0
-1.2639e-14,0.012759,0,-0.090755,0.00028382,-0.00028275,-123.89,-70.519,0.058557,0,-299.89,272.58,0,-974.3,0,-385.16,793.03,102,1,0.555,0,-0.555,0
-1.3418e-14,0.01278,0,-0.096348,0.00030132,-0.00030018,-131.53,-74.866,0.062166,0,-294.98,268.68,0,-968.9,0,-382.03,788.13,102,1,0.56,0,-0.56,0
-1.4175e-14,0.012801,0,-0.10179,0.00031832,-0.00031712,-138.95,-79.091,0.065674,0,-290.1,264.79,0,-963.52,0,-378.91,783.26,102,1,0.565,0,-0.565,0
-1.4911e-14,0.012822,0,-0.10707,0.00033484,-0.00033357,-146.16,-83.194,0.069082,0,-285.26,260.92,0,-958.15,0,-375.81,778.43,102,1,0.57,0,-0.57,0
-1.5625e-14,0.012842,0,-0.11219,0.00035086,-0.00034954,-153.16,-87.176,0.072388,0,-280.45,257.05,0,-952.79,0,-372.73,773.63,102,1,0.575,0,-0.575,0
-1.6317e-14,0.012863,0,-0.11716,0.0003664,-0.00036502,-159.94,-91.037,0.075594,0,-275.69,253.2,0,-947.45,0,-369.66,768.86,102,1,0.58,0,-0.58,0
-1.6987e-14,0.012884,0,-0.12197,0.00038145,-0.00038001,-166.51,-94.777,0.078699,0,-270.95,249.37,0,-942.13,0,-366.61,764.13,102,1,0.585,0,-0.585,0
-1.7635e-14,0.012905,0,-0.12663,0.00039602,-0.00039452,-172.87,-98.395,0.081704,0,-266.26,245.54,0,-936.82,0,-363.57,759.43,102,1,0.59,0,-0.59,0
-1.8262e-14,0.012925,0,-0.13113,0.00041009,-0.00040854,-179.01,-101.89,0.084607,0,-261.6,241.73,0,-931.52,0,-360.55,754.76,102,1,0.595,0,-0.595,0
-1.8867e-14,0.012946,0,-0.13547,0.00042367,-0.00042207,-184.94,-105.27,0.08741,0,-256.98,237.93,0,-926.24,0,-357.54,750.13,102,1,0.6,0,-0.6,0
-1.945e-14,0.012966,0,-0.13966,0.00043677,-0.00043512,-190.66,-108.52,0.090112,0,-252.39,234.14,0,-920.98,0,-354.55,745.53,102,1,0.605,0,-0.605,0
-2.0012e-14,0.012987,0,-0.14369,0.00044938,-0.00044768,-196.16,-111.65,0.092714,0,-247.84,230.37,0,-915.73,0,-351.58,740.97,102,1,0.61,0,-0.61,0
-2.0551e-14,0.013007,0,-0.14757,0.0004615,-0.00045976,-201.45,-114.67,0.095214,0,-243.33,226.6,0,-910.49,0,-348.62,736.44,102,1,0.615,0,-0.615,0
-2.1069e-14,0.013028,0,-0.15129,0.00047313,-0.00047134,-206.53,-117.56,0.097614,0,-238.86,222.85,0,-905.27,0,-345.68,731.94,102,1,0.62,0,-0.62,0
-2.1566e-14,0.013048,0,-0.15485,0.00048427,-0.00048244,-211.39,-120.32,0.099913,0,-234.42,219.11,0,-900.07,0,-342.75,727.48,102,1,0.625,0,-0.625,0
-2.204e-14,0.013068,0,-0.15826,0.00049493,-0.00049306,-216.04,-122.97,0.10211,0,-230.01,215.39,0,-894.88,0,-339.84,723.05,102,1,0.63,0,-0.63,0
-2.2493e-14,0.013089,0,-0.16151,0.0005051,-0.00050319,-220.48,-125.5,0.10421,0,-225.64,211.67,0,-889.71,0,-336.94,718.66,102,1,0.635,0,-0.635,0
-2.2924e-14,0.013109,0,-0.1646,0.00051477,-0.00051283,-224.71,-127.9,0.10621,0,-221.31,207.97,0,-884.55,0,-334.06,714.3,102,1,0.64,0,-0.64,0
-2.3333e-14,0.013129,0,-0.16754,0.00052396,-0.00052198,-228.72,-130.19,0.1081,0,-217.02,204.28,0,-879.41,0,-331.2,709.97,102,1,0.645,0,-0.645,0
-2.372e-14,0.013149,0,-0.17032,0.00053266,-0.00053065,-232.51,-132.35,0.1099,0,-212.76,200.61,0,-874.28,0,-328.35,705.67,102,1,0.65,0,-0.65,0
-2.4086e-14,0.013169,0,-0.17295,0.00054088,-0.00053883,-236.1,-134.39,0.11159,0,-208.54,196.94,0,-869.16,0,-325.52,701.41,102,1,0.655,0,-0.655,0
-2.443e-14,0.013189,0,-0.17542,0.0005486,-0.00054653,-239.47,-136.31,0.11318,0,-204.36,193.29,0,-864.07,0,-322.7,697.19,102,1,0.66,0,-0.66,0
-2.4752e-14,0.013209,0,-0.17773,0.00055584,-0.00055373,-242.63,-138.1,0.11468,0,-200.21,189.65,0,-858.98,0,-319.9,692.99,102,1,0.665,0,-0.665,0
-2.5053e-14,0.013229,0,-0.17989,0.00056258,-0.00056046,-245.57,-139.78,0.11607,0,-196.1,186.02,0,-853.92,0,-317.11,688.84,102,1,0.67,0,-0.67,0
-2.5332e-14,0.013249,0,-0.18189,0.00056884,-0.00056669,-248.31,-141.34,0.11736,0,-192.02,182.41,0,-848.86,0,-314.34,684.71,102,1,0.675,0,-0.675,0
-2.5588e-14,0.013269,0,-0.18374,0.00057461,-0.00057244,-250.83,-142.77,0.11855,0,-187.98,178.81,0,-843.83,0,-311.59,680.62,102,1,0.68,0,-0.68,0
-2.5824e-14,0.013288,0,-0.18543,0.00057989,-0.0005777,-253.13,-144.08,0.11964,0,-183.98,175.22,0,-838.8,0,-308.85,676.56,102,1,0.685,0,-0.685,0
-2.6037e-14,0.013308,0,-0.18696,0.00058469,-0.00058248,-255.22,-145.27,0.12063,0,-180.01,171.64,0,-833.8,0,-306.13,672.54,102,1,0.69,0,-0.69,0
-2.6229e-14,0.013328,0,-0.18833,0.00058899,-0.00058676,-257.1,-146.34,0.12152,0,-176.08,168.07,0,-828.8,0,-303.42,668.55,102,1,0.695,0,-0.695,0
-2.6399e-14,0.013348,0,-0.18955,0.00059281,-0.00059057,-258.77,-147.29,0.1223,0,-172.19,164.52,0,-823.83,0,-300.73,664.59,102,1,0.7,0,-0.7,0
-2.6547e-14,0.013367,0,-0.19062,0.00059614,-0.00059388,-260.22,-148.12,0.12299,0,-168.33,160.98,0,-818.86,0,-298.06,660.66,102,1,0.705,0,-0.705,0
-2.6673e-14,0.013387,0,-0.19153,0.00059898,-0.00059671,-261.46,-148.82,0.12358,0,-164.51,157.45,0,-813.92,0,-295.4,656.78,102,1,0.71,0,-0.71,0
-2.6778e-14,0.013406,0,-0.19228,0.00060133,-0.00059905,-262.49,-149.41,0.12406,0,-160.73,153.94,0,-808.99,0,-292.75,652.92,102,1,0.715,0,-0.715,0
-2.6861e-14,0.013426,0,-0.19287,0.00060319,-0.00060091,-263.3,-149.87,0.12445,0,-156.98,150.43,0,-804.07,0,-290.12,649.1,102,1,0.72,0,-0.72,0
-2.6922e-14,0.013445,0,-0.19331,0.00060456,-0.00060228,-263.9,-150.21,0.12473,0,-153.27,146.94,0,-799.17,0,-287.51,645.31,102,1,0.725,0,-0.725,0
-2.6962e-14,0.013464,0,-0.1936,0.00060545,-0.00060316,-264.29,-150.43,0.12491,0,-149.59,143.46,0,-794.28,0,-284.92,641.55,102,1,0.73,0,-0.73,0
-2.6979e-14,0.013484,0,-0.19372,0.00060585,-0.00060356,-264.46,-150.53,0.125,0,-145.95,139.99,0,-789.41,0,-282.33,637.83,102,1,0.735,0,-0.735,0
-2.6975e-14,0.013503,0,-0.19369,0.00060576,-0.00060347,-264.42,-150.51,0.12498,0,-142.35,136.54,0,-784.56,0,-279.77,634.15,102,1,0.74,0,-0.74,0
-2.695e-14,0.013522,0,-0.19351,0.00060518,-0.00060289,-264.17,-150.36,0.12486,0,-138.79,133.1,0,-779.72,0,-277.22,630.49,102,1,0.745,0,-0.745,0
-2.6902e-14,0.013541,0,-0.19317,0.00060411,-0.00060182,-263.7,-150.1,0.12464,0,-135.26,129.67,0,-774.89,0,-274.69,626.87,102,1,0.75,0,-0.75,0
-2.6833e-14,0.013561,0,-0.19267,0.00060255,-0.00060027,-263.02,-149.71,0.12432,0,-131.77,126.25,0,-770.08,0,-272.17,623.29,102,1,0.755,0,-0.755,0
-2.6742e-14,0.01358,0,-0.19202,0.00060051,-0.00059824,-262.13,-149.2,0.12389,0,-128.31,122.85,0,-765.28,0,-269.67,619.73,102,1,0.76,0,-0.76,0
-2.6629e-14,0.013599,0,-0.19121,0.00059797,-0.00059571,-261.02,-148.57,0.12337,0,-124.89,119.45,0,-760.5,0,-267.18,616.22,102,1,0.765,0,-0.765,0
-2.6494e-14,0.013618,0,-0.19024,0.00059495,-0.0005927,-259.7,-147.82,0.12275,0,-121.51,116.07,0,-755.74,0,-264.71,612.73,102,1,0.77,0,-0.77,0
-2.6338e-14,0.013637,0,-0.18912,0.00059144,-0.00058921,-258.17,-146.95,0.12202,0,-118.16,112.71,0,-750.99,0,-262.25,609.28,102,1,0.775,0,-0.775,0
-2.616e-14,0.013656,0,-0.18784,0.00058744,-0.00058522,-256.43,-145.96,0.1212,0,-114.85,109.35,0,-746.25,0,-259.81,605.86,102,1,0.78,0,-0.78,0
-2.596e-14,0.013674,0,-0.1864,0.00058296,-0.00058075,-254.47,-144.84,0.12027,0,-111.57,106.01,0,-741.53,0,-257.39,602.48,102,1,0.785,0,-0.785,0
-2.5739e-14,0.013693,0,-0.18481,0.00057798,-0.0005758,-252.3,-143.61,0.11925,0,-108.34,102.68,0,-736.83,0,-254.98,599.13,102,1,0.79,0,-0.79,0
-2.5495e-14,0.013712,0,-0.18307,0.00057252,-0.00057035,-249.91,-142.25,0.11812,0,-105.13,99.359,0,-732.14,0,-252.59,595.81,102,1,0.795,0,-0.795,0
-2.523e-14,0.013731,0,-0.18116,0.00056656,-0.00056442,-247.31,-140.77,0.11689,0,-101.97,96.053,0,-727.47,0,-250.21,592.53,102,1,0.8,0,-0.8,0
-2.4943e-14,0.013749,0,-0.1791,0.00056012,-0.00055801,-244.5,-139.17,0.11556,0,-98.842,92.76,0,-722.81,0,-247.85,589.28,102,1,0.805,0,-0.805,0
-2.4635e-14,0.013768,0,-0.17689,0.00055319,-0.0005511,-241.48,-137.45,0.11413,0,-95.75,89.478,0,-718.16,0,-245.51,586.07,102,1,0.81,0,-0.81,0
-2.4304e-14,0.013787,0,-0.17452,0.00054578,-0.00054371,-238.24,-135.61,0.1126,0,-92.694,86.209,0,-713.54,0,-243.18,582.88,102,1,0.815,0,-0.815,0
-2.3952e-14,0.013805,0,-0.17199,0.00053787,-0.00053584,-234.79,-133.64,0.11097,0,-89.675,82.953,0,-708.92,0,-240.87,579.74,102,1,0.82,0,-0.82,0
-2.3578e-14,0.013824,0,-0.1693,0.00052948,-0.00052747,-231.12,-131.55,0.10924,0,-86.692,79.709,0,-704.32,0,-238.57,576.62,102,1,0.825,0,-0.825,0
-2.3183e-14,0.013842,0,-0.16646,0.00052059,-0.00051862,-227.25,-129.35,0.10741,0,-83.746,76.477,0,-699.74,0,-236.29,573.54,102,1,0.83,0,-0.83,0
-2.2766e-14,0.01386,0,-0.16347,0.00051122,-0.00050929,-223.15,-127.02,0.10547,0,-80.836,73.257,0,-695.17,0,-234.02,570.5,102,1,0.835,0,-0.835,0
-2.2327e-14,0.013879,0,-0.16031,0.00050136,-0.00049947,-218.85,-124.57,0.10344,0,-77.963,70.05,0,-690.62,0,-231.77,567.48,102,1,0.84,0,-0.84,0
-2.1866e-14,0.013897,0,-0.157,0.00049101,-0.00048916,-214.33,-122,0.1013,0,-75.126,66.855,0,-686.08,0,-229.54,564.5,102,1,0.845,0,-0.845,0
-2.1383e-14,0.013915,0,-0.15354,0.00048018,-0.00047836,-209.6,-119.31,0.099067,0,-72.325,63.673,0,-681.56,0,-227.32,561.56,102,1,0.85,0,-0.85,0
-2.0879e-14,0.013934,0,-0.14992,0.00046885,-0.00046708,-204.66,-116.49,0.096731,0,-69.561,60.503,0,-677.05,0,-225.11,558.65,102,1,0.855,0,-0.855,0
-2.0353e-14,0.013952,0,-0.14614,0.00045704,-0.00045531,-199.5,-113.56,0.094293,0,-66.833,57.345,0,-672.56,0,-222.93,555.77,102,1,0.86,0,-0.86,0
-1.9805e-14,0.01397,0,-0.14221,0.00044473,-0.00044305,-194.13,-110.5,0.091755,0,-64.142,54.2,0,-668.08,0,-220.75,552.92,102,1,0.865,0,-0.865,0
-1.9235e-14,0.013988,0,-0.13812,0.00043194,-0.00043031,-188.55,-107.32,0.089116,0,-61.487,51.067,0,-663.62,0,-218.6,550.11,102,1,0.87,0,-0.87,0
-1.8644e-14,0.014006,0,-0.13387,0.00041867,-0.00041708,-182.75,-104.02,0.086377,0,-58.869,47.946,0,-659.17,0,-216.46,547.34,102,1,0.875,0,-0.875,0
-1.8031e-14,0.014024,0,-0.12947,0.0004049,-0.00040337,-176.74,-100.6,0.083536,0,-56.287,44.838,0,-654.74,0,-214.33,544.59,102,1,0.88,0,-0.88,0
-1.7396e-14,0.014042,0,-0.12491,0.00039064,-0.00038916,-170.52,-97.06,0.080595,0,-53.741,41.742,0,-650.32,0,-212.22,541.88,102,1,0.885,0,-0.885,0
-1.6739e-14,0.01406,0,-0.1202,0.0003759,-0.00037448,-164.08,-93.396,0.077553,0,-51.232,38.658,0,-645.92,0,-210.13,539.21,102,1,0.89,0,-0.89,0
-1.6061e-14,0.014078,0,-0.11533,0.00036066,-0.0003593,-157.43,-89.612,0.07441,0,-48.759,35.587,0,-641.53,0,-208.05,536.57,102,1,0.895,0,-0.895,0
-1.5361e-14,0.014095,0,-0.1103,0.00034494,-0.00034364,-150.57,-85.706,0.071167,0,-46.323,32.528,0,-637.16,0,-205.99,533.96,102,1,0.9,0,-0.9,0
-1.4639e-14,0.014113,0,-0.10512,0.00032873,-0.00032749,-143.5,-81.678,0.067823,0,-43.923,29.482,0,-632.81,0,-203.95,531.38,102,1,0.905,0,-0.905,0
-1.3895e-14,0.014131,0,-0.099776,0.00031204,-0.00031086,-136.21,-77.529,0.064377,0,-41.56,26.448,0,-628.47,0,-201.92,528.84,102,1,0.91,0,-0.91,0
-1.313e-14,0.014149,0,-0.09428,0.00029485,-0.00029373,-128.71,-73.259,0.060832,0,-39.233,23.426,0,-624.14,0,-199.9,526.33,102,1,0.915,0,-0.915,0
-1.2343e-14,0.014166,0,-0.088628,0.00027717,-0.00027613,-120.99,-68.867,0.057185,0,-36.942,20.416,0,-619.83,0,-197.9,523.86,102,1,0.92,0,-0.92,0
-1.1534e-14,0.014184,0,-0.08282,0.00025901,-0.00025803,-113.06,-64.354,0.053438,0,-34.688,17.419,0,-615.53,0,-195.92,521.42,102,1,0.925,0,-0.925,0
-1.0704e-14,0.014201,0,-0.076856,0.00024036,-0.00023945,-104.92,-59.72,0.049589,0,-32.471,14.435,0,-611.25,0,-193.95,519.01,102,1,0.93,0,-0.93,0
-9.8512e-15,0.014219,0,-0.070736,0.00022122,-0.00022038,-96.565,-54.964,0.045641,0,-30.289,11.462,0,-606.99,0,-192,516.64,102,1,0.935,0,-0.935,0
-8.9771e-15,0.014236,0,-0.06446,0.00020159,-0.00020083,-87.996,-50.087,0.041591,0,-28.144,8.5022,0,-602.74,0,-190.06,514.3,102,1,0.94,0,-0.94,0
-8.0813e-15,0.014254,0,-0.058027,0.00018147,-0.00018079,-79.215,-45.089,0.03744,0,-26.036,5.5546,0,-598.5,0,-188.14,512,102,1,0.945,0,-0.945,0
-7.1637e-15,0.014271,0,-0.051438,0.00016087,-0.00016026,-70.22,-39.969,0.033189,0,-23.964,2.6192,0,-594.28,0,-186.24,509.73,102,1,0.95,0,-0.95,0
-6.2243e-15,0.014288,0,-0.044693,0.00013977,-0.00013924,-61.012,-34.728,0.028837,0,-21.928,-0.30371,0,-590.08,0,-184.35,507.49,102,1,0.955,0,-0.955,0
-5.2632e-15,0.014305,0,-0.037792,0.00011819,-0.00011774,-51.591,-29.366,0.024384,0,-19.929,-3.2143,0,-585.89,0,-182.48,505.29,102,1,0.96,0,-0.96,0
-4.2803e-15,0.014323,0,-0.030735,9.6119e-05,-9.5755e-05,-41.957,-23.882,0.019831,0,-17.967,-6.1126,0,-581.71,0,-180.62,503.12,102,1,0.965,0,-0.965,0
-3.2757e-15,0.01434,0,-0.023521,7.3559e-05,-7.3281e-05,-32.11,-18.277,0.015176,0,-16.04,-8.9985,0,-577.55,0,-178.78,500.98,102,1,0.97,0,-0.97,0
-2.2494e-15,0.014357,0,-0.016151,5.0511e-05,-5.032e-05,-22.049,-12.55,0.010421,0,-14.151,-11.872,0,-573.41,0,-176.96,498.88,102,1,0.975,0,-0.975,0
-1.2012e-15,0.014374,0,-0.0086254,2.6975e-05,-2.6873e-05,-11.775,-6.7023,0.0055653,0,-12.297,-14.733,0,-569.28,0,-175.15,496.81,102,1,0.98,0,-0.98,0
-1.3138e-16,0.014391,0,-0.00094333,2.9502e-06,-2.939e-06,-1.2878,-0.733,0.00060866,0,-10.48,-17.582,0,-565.16,0,-173.35,494.77,102,1,0.985,0,-0.985,0
-6.556e-24,0.014402,0,0,0,0,0,0,0,0,-9.9554,-17.931,0,-562.85,0,-172.49,493.15,102,1,0.99,0,-0.99,0
-6.5812e-24,0.014411,0,0,0,0,0,0,0,0,-9.6111,-17.935,0,-560.79,0,-171.77,491.59,102,1,0.995,0,-0.995,0
-6.6063e-24,0.014421,0,0,0,0,0,0,0,0,-9.2719,-17.937,0,-558.73,0,-171.04,490.02,102,1,1,0,-1,0
-6.6311e-24,0.014431,0,0,0,0,0,0,0,0,-8.9379,-17.939,0,-556.68,0,-170.32,488.45,102,1,1.005,0,-1.005,0
-6.6556e-24,0.014441,0,0,0,0,0,0,0,0,-8.609,-17.94,0,-554.62,0,-169.6,486.88,102,1,1.01,0,-1.01,0
-6.6799e-24,0.01445,0,0,0,0,0,0,0,0,-8.2852,-17.94,0,-552.57,0,-168.88,485.3,102,1,1.015,0,-1.015,0
-6.704e-24,0.01446,0,0,0,0,0,0,0,0,-7.9665,-17.939,0,-550.52,0,-168.17,483.73,102,1,1.02,0,-1.02,0
-6.7278e-24,0.01447,0,0,0,0,0,0,0,0,-7.6529,-17.937,0,-548.47,0,-167.45,482.15,102,1,1.025,0,-1.025,0
-6.7514e-24,0.014479,0,0,0,0,0,0,0,0,-7.3444,-17.934,0,-546.43,0,-166.74,480.57,102,1,1.03,0,-1.03,0
-6.7747e-24,0.014489,0,0,0,0,0,0,0,0,-7.041,-17.93,0,-544.38,0,-166.03,478.99,102,1,1.035,0,-1.035,0
-6.7978e-24,0.014498,0,0,0,0,0,0,0,0,-6.7428,-17.926,0,-542.34,0,-165.33,477.4,102,1,1.04,0,-1.04,0
-6.8206e-24,0.014508,0,0,0,0,0,0,0,0,-6.4497,-17.92,0,-540.3,0,-164.62,475.82,102,1,1.045,0,-1.045,0
-6.8432e-24,0.014518,0,0,0,0,0,0,0,0,-6.1616,-17.913,0,-538.27,0,-163.92,474.23,102,1,1.05,0,-1.05,0
-6.8656e-24,0.014527,0,0,0,0,0,0,0,0,-5.8787,-17.906,0,-536.23,0,-163.22,472.64,102,1,1.055,0,-1.055,0
-6.8878e-24,0.014536,0,0,0,0,0,0,0,0,-5.601,-17.897,0,-534.2,0,-162.52,471.05,102,1,1.06,0,-1.06,0
-6.9096e-24,0.014546,0,0,0,0,0,0,0,0,-5.3283,-17.888,0,-532.17,0,-161.83,469.46,102,1,1.065,0,-1.065,0
-6.9313e-24,0.014555,0,0,0,0,0,0,0,0,-5.0607,-17.877,0,-530.14,0,-161.13,467.86,102,1,1.07,0,-1.07,0
-6.9527e-24,0.014565,0,0,0,0,0,0,0,0,-4.7983,-17.866,0,-528.12,0,-160.44,466.26,102,1,1.075,0,-1.075,0
-6.9739e-24,0.014574,0,0,0,0,0,0,0,0,-4.5409,-17.854,0,-526.09,0,-159.75,464.66,102,1,1.08,0,-1.08,0
-6.9948e-24,0.014583,0,0,0,0,0,0,0,0,-4.2887,-17.841,0,-524.07,0,-159.07,463.06,102,1,1.085,0,-1.085,0
-7.0155e-24,0.014592,0,0,0,0,0,0,0,0,-4.0416,-17.826,0,-522.05,0,-158.38,461.46,102,1,1.09,0,-1.09,0
-7.0359e-24,0.014602,0,0,0,0,0,0,0,0,-3.7996,-17.811,0,-520.04,0,-157.7,459.85,102,1,1.095,0,-1.095,0
-7.0561e-24,0.014611,0,0,0,0,0,0,0,0,-3.5628,-17.795,0,-518.02,0,-157.02,458.25,102,1,1.1,0,-1.1,0
-7.0761e-24,0.01462,0,0,0,0,0,0,0,0,-3.331,-17.778,0,-516.01,0,-156.34,456.64,102,1,1.105,0,-1.105,0
-7.0958e-24,0.014629,0,0,0,0,0,0,0,0,-3.1044,-17.76,0,-514,0,-155.67,455.03,102,1,1.11,0,-1.11,0
-7.1153e-24,0.014638,0,0,0,0,0,0,0,0,-2.8828,-17.742,0,-511.99,0,-155,453.41,102,1,1.115,0,-1.115,0
-7.1345e-24,0.014647,0,0,0,0,0,0,0,0,-2.6664,-17.722,0,-509.99,0,-154.32,451.8,102,1,1.12,0,-1.12,0
-7.1535e-24,0.014657,0,0,0,0,0,0,0,0,-2.4551,-17.701,0,-507.98,0,-153.66,450.18,102,1,1.125,0,-1.125,0
-7.1723e-24,0.014666,0,0,0,0,0,0,0,0,-2.2489,-17.679,0,-505.98,0,-152.99,448.56,102,1,1.13,0,-1.13,0
-7.1908e-24,0.014675,0,0,0,0,0,0,0,0,-2.0479,-17.657,0,-503.98,0,-152.33,446.94,102,1,1.135,0,-1.135,0
-7.2091e-24,0.014684,0,0,0,0,0,0,0,0,-1.8519,-17.633,0,-501.99,0,-151.66,445.32,102,1,1.14,0,-1.14,0
-7.2271e-24,0.014693,0,0,0,0,0,0,0,0,-1.6611,-17.609,0,-499.99,0,-151,443.7,102,1,1.145,0,-1.145,0
-7.2449e-24,0.014701,0,0,0,0,0,0,0,0,-1.4753,-17.583,0,-498,0,-150.35,442.07,102,1,1.15,0,-1.15,0
-7.2625e-24,0.01471,0,0,0,0,0,0,0,0,-1.2947,-17.557,0,-496.01,0,-149.69,440.44,102,1,1.155,0,-1.155,0
-7.2798e-24,0.014719,0,0,0,0,0,0,0,0,-1.1192,-17.53,0,-494.02,0,-149.04,438.81,102,1,1.16,0,-1.16,0
-7.2968e-24,0.014728,0,0,0,0,0,0,0,0,-0.94884,-17.502,0,-492.04,0,-148.39,437.18,102,1,1.165,0,-1.165,0
-7.3137e-24,0.014737,0,0,0,0,0,0,0,0,-0.78357,-17.472,0,-490.06,0,-147.74,435.54,102,1,1.17,0,-1.17,0
-7.3303e-24,0.014746,0,0,0,0,0,0,0,0,-0.62341,-17.442,0,-488.08,0,-147.09,433.91,102,1,1.175,0,-1.175,0
-7.3466e-24,0.014754,0,0,0,0,0,0,0,0,-0.46837,-17.411,0,-486.1,0,-146.45,432.27,102,1,1.18,0,-1.18,0
-7.3627e-24,0.014763,0,0,0,0,0,0,0,0,-0.31844,-17.379,0,-484.12,0,-145.81,430.63,102,1,1.185,0,-1.185,0
-7.3786e-24,0.014772,0,0,0,0,0,0,0,0,-0.17362,-17.346,0,-482.15,0,-145.17,428.99,102,1,1.19,0,-1.19,0
-7.3942e-24,0.01478,0,0,0,0,0,0,0,0,-0.033925,-17.313,0,-480.18,0,-144.53,427.34,102,1,1.195,0,-1.195,0
-7.4096e-24,0.014789,0,0,0,0,0,0,0,0,0.10066,-17.278,0,-478.21,0,-143.89,425.7,102,1,1.2,0,-1.2,0
-7.4247e-24,0.014798,0,0,0,0,0,0,0,0,0.23013,-17.242,0,-476.24,0,-143.26,424.05,102,1,1.205,0,-1.205,0
-7.4396e-24,0.014806,0,0,0,0,0,0,0,0,0.35449,-17.205,0,-474.27,0,-142.63,422.4,102,1,1.21,0,-1.21,0
-7.4543e-24,0.014815,0,0,0,0,0,0,0,0,0.47373,-17.168,0,-472.31,0,-142,420.75,102,1,1.215,0,-1.215,0
-7.4687e-24,0.014823,0,0,0,0,0,0,0,0,0.58786,-17.129,0,-470.35,0,-141.37,419.1,102,1,1.22,0,-1.22,0
-7.4829e-24,0.014832,0,0,0,0,0,0,0,0,0.69687,-17.09,0,-468.39,0,-140.75,417.44,102,1,1.225,0,-1.225,0
-7.4968e-24,0.01484,0,0,0,0,0,0,0,0,0.80077,-17.049,0,-466.44,0,-140.13,415.78,102,1,1.23,0,-1.23,0
-7.5105e-24,0.014849,0,0,0,0,0,0,0,0,0.89955,-17.008,0,-464.48,0,-139.51,414.12,102,1,1.235,0,-1.235,0
-7.524e-24,0.014857,0,0,0,0,0,0,0,0,0.99323,-16.966,0,-462.53,0,-138.89,412.46,102,1,1.24,0,-1.24,0
-7.5372e-24,0.014865,0,0,0,0,0,0,0,0,1.0818,-16.922,0,-460.58,0,-138.28,410.8,102,1,1.245,0,-1.245,0
-7.5502e-24,0.014874,0,0,0,0,0,0,0,0,1.1652,-16.878,0,-458.63,0,-137.66,409.13,102,1,1.25,0,-1.25,0
-7.5629e-24,0.014882,0,0,0,0,0,0,0,0,1.2436,-16.833,0,-456.69,0,-137.05,407.47,102,1,1.255,0,-1.255,0
-7.5754e-24,0.01489,0,0,0,0,0,0,0,0,1.3168,-16.787,0,-454.75,0,-136.44,405.8,102,1,1.26,0,-1.26,0
-7.5876e-24,0.014899,0,0,0,0,0,0,0,0,1.3849,-16.74,0,-452.81,0,-135.84,404.13,102,1,1.265,0,-1.265,0
-7.5996e-24,0.014907,0,0,0,0,0,0,0,0,1.4478,-16.692,0,-450.87,0,-135.23,402.45,102,1,1.27,0,-1.27,0
-7.6114e-24,0.014915,0,0,0,0,0,0,0,0,1.5057,-16.643,0,-448.93,0,-134.63,400.78,102,1,1.275,0,-1.275,0
-7.6229e-24,0.014923,0,0,0,0,0,0,0,0,1.5585,-16.594,0,-447,0,-134.03,399.1,102,1,1.28,0,-1.28,0
-7.6342e-24,0.014931,0,0,0,0,0,0,0,0,1.6061,-16.543,0,-445.07,0,-133.43,397.42,102,1,1.285,0,-1.285,0
-7.6453e-24,0.014939,0,0,0,0,0,0,0,0,1.6486,-16.491,0,-443.14,0,-132.84,395.74,102,1,1.29,0,-1.29,0
-7.6561e-24,0.014947,0,0,0,0,0,0,0,0,1.6861,-16.439,0,-441.21,0,-132.25,394.06,102,1,1.295,0,-1.295,0
-7.6666e-24,0.014956,0,0,0,0,0,0,0,0,1.7184,-16.385,0,-439.29,0,-131.65,392.37,102,1,1.3,0,-1.3,0
-7.677e-24,0.014964,0,0,0,0,0,0,0,0,1.7455,-16.331,0,-437.36,0,-131.07,390.69,102,1,1.305,0,-1.305,0
-7.687e-24,0.014972,0,0,0,0,0,0,0,0,1.7676,-16.275,0,-435.44,0,-130.48,389,102,1,1.31,0,-1.31,0
-7.6969e-24,0.01498,0,0,0,0,0,0,0,0,1.7846,-16.219,0,-433.53,0,-129.9,387.31,102,1,1.315,0,-1.315,0
-7.7065e-24,0.014987,0,0,0,0,0,0,0,0,1.7964,-16.161,0,-431.61,0,-129.31,385.62,102,1,1.32,0,-1.32,0
-7.7158e-24,0.014995,0,0,0,0,0,0,0,0,1.8031,-16.103,0,-429.7,0,-128.73,383.92,102,1,1.325,0,-1.325,0
-7.725e-24,0.015003,0,0,0,0,0,0,0,0,1.8047,-16.044,0,-427.78,0,-128.16,382.23,102,1,1.33,0,-1.33,0
-7.7338e-24,0.015011,0,0,0,0,0,0,0,0,1.8012,-15.984,0,-425.88,0,-127.58,380.53,102,1,1.335,0,-1.335,0
-7.7425e-24,0.015019,0,0,0,0,0,0,0,0,1.7926,-15.923,0,-423.97,0,-127.01,378.83,102,1,1.34,0,-1.34,0
-7.7509e-24,0.015027,0,0,0,0,0,0,0,0,1.7789,-15.861,0,-422.06,0,-126.44,377.12,102,1,1.345,0,-1.345,0
-7.759e-24,0.015034,0,0,0,0,0,0,0,0,1.76,-15.798,0,-420.16,0,-125.87,375.42,102,1,1.35,0,-1.35,0
-7.7669e-24,0.015042,0,0,0,0,0,0,0,0,1.7361,-15.734,0,-418.26,0,-125.3,373.71,102,1,1.355,0,-1.355,0
-7.7746e-24,0.01505,0,0,0,0,0,0,0,0,1.707,-15.669,0,-416.36,0,-124.74,372.01,102,1,1.36,0,-1.36,0
-7.782e-24,0.015058,0,0,0,0,0,0,0,0,1.6728,-15.603,0,-414.47,0,-124.18,370.3,102,1,1.365,0,-1.365,0
-7.7892e-24,0.015065,0,0,0,0,0,0,0,0,1.6335,-15.537,0,-412.58,0,-123.62,368.58,102,1,1.37,0,-1.37,0
-7.7962e-24,0.015073,0,0,0,0,0,0,0,0,1.5891,-15.469,0,-410.68,0,-123.06,366.87,102,1,1.375,0,-1.375,0
-7.8029e-24,0.01508,0,0,0,0,0,0,0,0,1.5396,-15.401,0,-408.8,0,-122.51,365.16,102,1,1.38,0,-1.38,0
-7.8093e-24,0.015088,0,0,0,0,0,0,0,0,1.4849,-15.331,0,-406.91,0,-121.95,363.44,102,1,1.385,0,-1.385,0
-7.8156e-24,0.015095,0,0,0,0,0,0,0,0,1.4252,-15.261,0,-405.02,0,-121.4,361.72,102,1,1.39,0,-1.39,0
-7.8215e-24,0.015103,0,0,0,0,0,0,0,0,1.3603,-15.189,0,-403.14,0,-120.85,360,102,1,1.395,0,-1.395,0
-7.8273e-24,0.01511,0,0,0,0,0,0,0,0,1.2903,-15.117,0,-401.26,0,-120.31,358.27,102,1,1.4,0,-1.4,0
-7.8328e-24,0.015118,0,0,0,0,0,0,0,0,1.2152,-15.044,0,-399.38,0,-119.76,356.55,102,1,1.405,0,-1.405,0
-7.838e-24,0.015125,0,0,0,0,0,0,0,0,1.135,-14.97,0,-397.51,0,-119.22,354.82,102,1,1.41,0,-1.41,0
-7.8431e-24,0.015133,0,0,0,0,0,0,0,0,1.0497,-14.894,0,-395.64,0,-118.68,353.09,102,1,1.415,0,-1.415,0
-7.8478e-24,0.01514,0,0,0,0,0,0,0,0,0.95921,-14.818,0,-393.76,0,-118.15,351.36,102,1,1.42,0,-1.42,0
-7.8524e-24,0.015147,0,0,0,0,0,0,0,0,0.86365,-14.741,0,-391.9,0,-117.61,349.63,102,1,1.425,0,-1.425,0
-7.8567e-24,0.015155,0,0,0,0,0,0,0,0,0.76297,-14.663,0,-390.03,0,-117.08,347.89,102,1,1.43,0,-1.43,0
-7.8607e-24,0.015162,0,0,0,0,0,0,0,0,0.65718,-14.584,0,-388.17,0,-116.55,346.15,102,1,1.435,0,-1.435,0
-7.8646e-24,0.015169,0,0,0,0,0,0,0,0,0.54628,-14.505,0,-386.3,0,-116.02,344.41,102,1,1.44,0,-1.44,0
-7.8681e-24,0.015176,0,0,0,0,0,0,0,0,0.43026,-14.424,0,-384.44,0,-115.49,342.67,102,1,1.445,0,-1.445,0
-7.8715e-24,0.015183,0,0,0,0,0,0,0,0,0.30913,-14.342,0,-382.59,0,-114.97,340.93,102,1,1.45,0,-1.45,0
-7.8746e-24,0.015191,0,0,0,0,0,0,0,0,0.18288,-14.26,0,-380.73,0,-114.45,339.19,102,1,1.455,0,-1.455,0
-7.8774e-24,0.015198,0,0,0,0,0,0,0,0,0.051521,-14.176,0,-378.88,0,-113.93,337.44,102,1,1.46,0,-1.46,0
-7.88e-24,0.015205,0,0,0,0,0,0,0,0,-0.084954,-14.091,0,-377.03,0,-113.41,335.69,102,1,1.465,0,-1.465,0
-7.8824e-24,0.015212,0,0,0,0,0,0,0,0,-0.22654,-14.006,0,-375.18,0,-112.9,333.94,102,1,1.47,0,-1.47,0
-7.8845e-24,0.015219,0,0,0,0,0,0,0,0,-0.37325,-13.92,0,-373.33,0,-112.38,332.19,102,1,1.475,0,-1.475,0
-7.8864e-24,0.015226,0,0,0,0,0,0,0,0,-0.52507,-13.832,0,-371.49,0,-111.87,330.43,102,1,1.48,0,-1.48,0
-7.888e-24,0.015233,0,0,0,0,0,0,0,0,-0.682,-13.744,0,-369.65,0,-111.36,328.68,102,1,1.485,0,-1.485,0
-7.8895e-24,0.01524,0,0,0,0,0,0,0,0,-0.84404,-13.655,0,-367.81,0,-110.86,326.92,102,1,1.49,0,-1.49,0
-7.8906e-24,0.015247,0,0,0,0,0,0,0,0,-1.0112,-13.565,0,-365.97,0,-110.35,325.16,102,1,1.495,0,-1.495,0
-7.8915e-24,0.015254,0,0,0,0,0,0,0,0,-1.1835,-13.474,0,-364.13,0,-109.85,323.39,102,1,1.5,0,-1.5,0
-7.8922e-24,0.01526,0,0,0,0,0,0,0,0,-1.3609,-13.382,0,-362.3,0,-109.35,321.63,102,1,1.505,0,-1.505,0
-7.8927e-24,0.015267,0,0,0,0,0,0,0,0,-1.5434,-13.289,0,-360.47,0,-108.86,319.86,102,1,1.51,0,-1.51,0
-7.8929e-24,0.015274,0,0,0,0,0,0,0,0,-1.731,-13.195,0,-358.64,0,-108.36,318.1,102,1,1.515,0,-1.515,0
-7.8928e-24,0.015281,0,0,0,0,0,0,0,0,-1.9237,-13.1,0,-356.82,0,-107.87,316.33,102,1,1.52,0,-1.52,0
-7.8925e-24,0.015288,0,0,0,0,0,0,0,0,-2.1216,-13.004,0,-354.99,0,-107.38,314.55,102,1,1.525,0,-1.525,0
-7.892e-24,0.015294,0,0,0,0,0,0,0,0,-2.3245,-12.907,0,-353.17,0,-106.89,312.78,102,1,1.53,0,-1.53,0
-7.8913e-24,0.015301,0,0,0,0,0,0,0,0,-2.5326,-12.81,0,-351.35,0,-106.4,311,102,1,1.535,0,-1.535,0
-7.8902e-24,0.015308,0,0,0,0,0,0,0,0,-2.7457,-12.711,0,-349.53,0,-105.92,309.23,102,1,1.54,0,-1.54,0
-7.889e-24,0.015314,0,0,0,0,0,0,0,0,-2.9638,-12.612,0,-347.72,0,-105.44,307.45,102,1,1.545,0,-1.545,0
-7.8875e-24,0.015321,0,0,0,0,0,0,0,0,-3.1871,-12.511,0,-345.91,0,-104.96,305.67,102,1,1.55,0,-1.55,0
-7.8858e-24,0.015327,0,0,0,0,0,0,0,0,-3.4155,-12.41,0,-344.1,0,-104.48,303.89,102,1,1.555,0,-1.555,0
-7.8838e-24,0.015334,0,0,0,0,0,0,0,0,-3.6489,-12.308,0,-342.29,0,-104.01,302.1,102,1,1.56,0,-1.56,0
-7.8816e-24,0.01534,0,0,0,0,0,0,0,0,-3.8875,-12.205,0,-340.49,0,-103.54,300.32,102,1,1.565,0,-1.565,0
-7.8792e-24,0.015347,0,0,0,0,0,0,0,0,-4.1312,-12.1,0,-338.69,0,-103.07,298.53,102,1,1.57,0,-1.57,0
-7.8765e-24,0.015353,0,0,0,0,0,0,0,0,-4.38,-11.995,0,-336.88,0,-102.6,296.74,102,1,1.575,0,-1.575,0
-7.8736e-24,0.01536,0,0,0,0,0,0,0,0,-4.634,-11.889,0,-335.09,0,-102.13,294.94,102,1,1.58,0,-1.58,0
-7.8704e-24,0.015366,0,0,0,0,0,0,0,0,-4.893,-11.782,0,-333.29,0,-101.67,293.15,102,1,1.585,0,-1.585,0
-7.867e-24,0.015372,0,0,0,0,0,0,0,0,-5.1571,-11.674,0,-331.5,0,-101.21,291.35,102,1,1.59,0,-1.59,0
-7.8633e-24,0.015379,0,0,0,0,0,0,0,0,-5.4264,-11.566,0,-329.71,0,-100.75,289.56,102,1,1.595,0,-1.595,0
-7.8594e-24,0.015385,0,0,0,0,0,0,0,0,-5.7007,-11.456,0,-327.92,0,-100.29,287.76,102,1,1.6,0,-1.6,0
-7.8553e-24,0.015391,0,0,0,0,0,0,0,0,-5.9802,-11.345,0,-326.13,0,-99.839,285.95,102,1,1.605,0,-1.605,0
-7.8509e-24,0.015398,0,0,0,0,0,0,0,0,-6.2647,-11.234,0,-324.34,0,-99.387,284.15,102,1,1.61,0,-1.61,0
-7.8463e-24,0.015404,0,0,0,0,0,0,0,0,-6.5544,-11.121,0,-322.56,0,-98.937,282.34,102,1,1.615,0,-1.615,0
-7.8414e-24,0.01541,0,0,0,0,0,0,0,0,-6.8492,-11.007,0,-320.78,0,-98.489,280.54,102,1,1.62,0,-1.62,0
-7.8364e-24,0.015416,0,0,0,0,0,0,0,0,-7.149,-10.893,0,-319,0,-98.044,278.73,102,1,1.625,0,-1.625,0
-7.831e-24,0.015422,0,0,0,0,0,0,0,0,-7.454,-10.778,0,-317.23,0,-97.6,276.92,102,1,1.63,0,-1.63,0
-7.8254e-24,0.015428,0,0,0,0,0,0,0,0,-7.7641,-10.661,0,-315.45,0,-97.159,275.1,102,1,1.635,0,-1.635,0
-7.8196e-24,0.015434,0,0,0,0,0,0,0,0,-8.0793,-10.544,0,-313.68,0,-96.72,273.29,102,1,1.64,0,-1.64,0
-7.8136e-24,0.01544,0,0,0,0,0,0,0,0,-8.3997,-10.426,0,-311.91,0,-96.284,271.47,102,1,1.645,0,-1.645,0
-7.8073e-24,0.015447,0,0,0,0,0,0,0,0,-8.7251,-10.307,0,-310.15,0,-95.849,269.65,102,1,1.65,0,-1.65,0
-7.8007e-24,0.015452,0,0,0,0,0,0,0,0,-9.0556,-10.187,0,-308.38,0,-95.417,267.83,102,1,1.655,0,-1.655,0
-7.7939e-24,0.015458,0,0,0,0,0,0,0,0,-9.3913,-10.066,0,-306.62,0,-94.987,266,102,1,1.66,0,-1.66,0
-7.7869e-24,0.015464,0,0,0,0,0,0,0,0,-9.732,-9.9436,0,-304.86,0,-94.559,264.18,102,1,1.665,0,-1.665,0
-7.7797e-24,0.01547,0,0,0,0,0,0,0,0,-10.078,-9.8208,0,-303.1,0,-94.134,262.35,102,1,1.67,0,-1.67,0
-7.7722e-24,0.015476,0,0,0,0,0,0,0,0,-10.429,-9.6969,0,-301.35,0,-93.71,260.52,102,1,1.675,0,-1.675,0
-7.7644e-24,0.015482,0,0,0,0,0,0,0,0,-10.785,-9.5722,0,-299.59,0,-93.289,258.69,102,1,1.68,0,-1.68,0
-7.7564e-24,0.015488,0,0,0,0,0,0,0,0,-11.146,-9.4465,0,-297.84,0,-92.87,256.86,102,1,1.685,0,-1.685,0
-7.7482e-24,0.015494,0,0,0,0,0,0,0,0,-11.512,-9.3198,0,-296.09,0,-92.454,255.02,102,1,1.69,0,-1.69,0
-7.7397e-24,0.015499,0,0,0,0,0,0,0,0,-11.884,-9.1923,0,-294.35,0,-92.039,253.19,102,1,1.695,0,-1.695,0
-7.731e-24,0.015505,0,0,0,0,0,0,0,0,-12.26,-9.0638,0,-292.6,0,-91.627,251.35,102,1,1.7,0,-1.7,0
-7.7221e-24,0.015511,0,0,0,0,0,0,0,0,-12.642,-8.9343,0,-290.86,0,-91.217,249.51,102,1,1.705,0,-1.705,0
-7.7129e-24,0.015516,0,0,0,0,0,0,0,0,-13.029,-8.8039,0,-289.12,0,-90.809,247.67,102,1,1.71,0,-1.71,0
-7.7035e-24,0.015522,0,0,0,0,0,0,0,0,-13.42,-8.6726,0,-287.38,0,-90.404,245.82,102,1,1.715,0,-1.715,0
-7.6938e-24,0.015528,0,0,0,0,0,0,0,0,-13.817,-8.5404,0,-285.65,0,-90,243.97,102,1,1.72,0,-1.72,0
-7.6839e-24,0.015533,0,0,0,0,0,0,0,0,-14.219,-8.4072,0,-283.91,0,-89.599,242.13,102,1,1.725,0,-1.725,0
-7.6737e-24,0.015539,0,0,0,0,0,0,0,0,-14.627,-8.273,0,-282.18,0,-89.201,240.28,102,1,1.73,0,-1.73,0
-7.6633e-24,0.015544,0,0,0,0,0,0,0,0,-15.039,-8.138,0,-280.45,0,-88.804,238.42,102,1,1.735,0,-1.735,0
-7.6527e-24,0.01555,0,0,0,0,0,0,0,0,-15.456,-8.002,0,-278.73,0,-88.41,236.57,102,1,1.74,0,-1.74,0
-7.6418e-24,0.015555,0,0,0,0,0,0,0,0,-15.879,-7.865,0,-277,0,-88.017,234.71,102,1,1.745,0,-1.745,0
-7.6307e-24,0.015561,0,0,0,0,0,0,0,0,-16.306,-7.7271,0,-275.28,0,-87.627,232.86,102,1,1.75,0,-1.75,0
-7.6194e-24,0.015566,0,0,0,0,0,0,0,0,-16.739,-7.5883,0,-273.56,0,-87.24,230.99,102,1,1.755,0,-1.755,0
-7.6078e-24,0.015571,0,0,0,0,0,0,0,0,-17.177,-7.4486,0,-271.84,0,-86.854,229.13,102,1,1.76,0,-1.76,0
-7.5959e-24,0.015577,0,0,0,0,0,0,0,0,-17.62,-7.3079,0,-270.13,0,-86.471,227.27,102,1,1.765,0,-1.765,0
-7.5839e-24,0.015582,0,0,0,0,0,0,0,0,-18.068,-7.1663,0,-268.41,0,-86.09,225.4,102,1,1.77,0,-1.77,0
-7.5716e-24,0.015587,0,0,0,0,0,0,0,0,-18.521,-7.0237,0,-266.7,0,-85.711,223.54,102,1,1.775,0,-1.775,0
-7.559e-24,0.015593,0,0,0,0,0,0,0,0,-18.979,-6.8802,0,-264.99,0,-85.335,221.67,102,1,1.78,0,-1.78,0
-7.5462e-24,0.015598,0,0,0,0,0,0,0,0,-19.442,-6.7358,0,-263.29,0,-84.96,219.79,102,1,1.785,0,-1.785,0
-7.5332e-24,0.015603,0,0,0,0,0,0,0,0,-19.911,-6.5904,0,-261.58,0,-84.588,217.92,102,1,1.79,0,-1.79,0
-7.5199e-24,0.015608,0,0,0,0,0,0,0,0,-20.384,-6.4441,0,-259.88,0,-84.218,216.04,102,1,1.795,0,-1.795,0
-7.5064e-24,0.015613,0,0,0,0,0,0,0,0,-20.863,-6.2968,0,-258.18,0,-83.85,214.17,102,1,1.8,0,-1.8,0
-7.4926e-24,0.015618,0,0,0,0,0,0,0,0,-21.347,-6.1486,0,-256.48,0,-83.485,212.29,102,1,1.805,0,-1.805,0
-7.4786e-24,0.015623,0,0,0,0,0,0,0,0,-21.836,-5.9995,0,-254.79,0,-83.122,210.41,102,1,1.81,0,-1.81,0
-7.4644e-24,0.015628,0,0,0,0,0,0,0,0,-22.33,-5.8495,0,-253.1,0,-82.761,208.52,102,1,1.815,0,-1.815,0
-7.4499e-24,0.015633,0,0,0,0,0,0,0,0,-22.829,-5.6985,0,-251.4,0,-82.402,206.64,102,1,1.82,0,-1.82,0
-7.4351e-24,0.015638,0,0,0,0,0,0,0,0,-23.333,-5.5465,0,-249.72,0,-82.045,204.75,102,1,1.825,0,-1.825,0
-7.4202e-24,0.015643,0,0,0,0,0,0,0,0,-23.842,-5.3937,0,-248.03,0,-81.691,202.86,102,1,1.83,0,-1.83,0
-7.405e-24,0.015648,0,0,0,0,0,0,0,0,-24.357,-5.2399,0,-246.35,0,-81.339,200.97,102,1,1.835,0,-1.835,0
-7.3895e-24,0.015653,0,0,0,0,0,0,0,0,-24.876,-5.0851,0,-244.66,0,-80.989,199.08,102,1,1.84,0,-1.84,0
-7.3738e-24,0.015658,0,0,0,0,0,0,0,0,-25.401,-4.9294,0,-242.98,0,-80.642,197.18,102,1,1.845,0,-1.845,0
-7.3579e-24,0.015663,0,0,0,0,0,0,0,0,-25.93,-4.7728,0,-241.31,0,-80.296,195.29,102,1,1.85,0,-1.85,0
-7.3418e-24,0.015668,0,0,0,0,0,0,0,0,-26.465,-4.6153,0,-239.63,0,-79.953,193.39,102,1,1.855,0,-1.855,0
-7.3253e-24,0.015673,0,0,0,0,0,0,0,0,-27.005,-4.4568,0,-237.96,0,-79.612,191.49,102,1,1.86,0,-1.86,0
-7.3087e-24,0.015677,0,0,0,0,0,0,0,0,-27.55,-4.2973,0,-236.29,0,-79.273,189.58,102,1,1.865,0,-1.865,0
-7.2918e-24,0.015682,0,0,0,0,0,0,0,0,-28.101,-4.137,0,-234.62,0,-78.937,187.68,102,1,1.87,0,-1.87,0
-7.2747e-24,0.015687,0,0,0,0,0,0,0,0,-28.656,-3.9757,0,-232.95,0,-78.602,185.77,102,1,1.875,0,-1.875,0
-7.2573e-24,0.015691,0,0,0,0,0,0,0,0,-29.216,-3.8134,0,-231.29,0,-78.27,183.86,102,1,1.88,0,-1.88,0
-7.2397e-24,0.015696,0,0,0,0,0,0,0,0,-29.782,-3.6502,0,-229.63,0,-77.941,181.95,102,1,1.885,0,-1.885,0
-7.2218e-24,0.015701,0,0,0,0,0,0,0,0,-30.352,-3.4861,0,-227.97,0,-77.613,180.04,102,1,1.89,0,-1.89,0
-7.2037e-24,0.015705,0,0,0,0,0,0,0,0,-30.928,-3.3211,0,-226.31,0,-77.288,178.13,102,1,1.895,0,-1.895,0
-7.1854e-24,0.01571,0,0,0,0,0,0,0,0,-31.509,-3.1551,0,-224.66,0,-76.964,176.21,102,1,1.9,0,-1.9,0
-7.1668e-24,0.015714,0,0,0,0,0,0,0,0,-32.095,-2.9882,0,-223,0,-76.643,174.29,102,1,1.905,0,-1.905,0
-7.148e-24,0.015719,0,0,0,0,0,0,0,0,-32.686,-2.8203,0,-221.35,0,-76.325,172.37,102,1,1.91,0,-1.91,0
-7.129e-24,0.015723,0,0,0,0,0,0,0,0,-33.282,-2.6515,0,-219.7,0,-76.008,170.45,102,1,1.915,0,-1.915,0
-7.1097e-24,0.015728,0,0,0,0,0,0,0,0,-33.883,-2.4818,0,-218.06,0,-75.694,168.53,102,1,1.92,0,-1.92,0
-7.0901e-24,0.015732,0,0,0,0,0,0,0,0,-34.489,-2.3111,0,-216.41,0,-75.382,166.6,102,1,1.925,0,-1.925,0
-7.0704e-24,0.015737,0,0,0,0,0,0,0,0,-35.101,-2.1395,0,-214.77,0,-75.072,164.67,102,1,1.93,0,-1.93,0
-7.0503e-24,0.015741,0,0,0,0,0,0,0,0,-35.718,-1.9669,0,-213.13,0,-74.765,162.74,102,1,1.935,0,-1.935,0
-7.0301e-24,0.015745,0,0,0,0,0,0,0,0,-36.339,-1.7934,0,-211.5,0,-74.459,160.81,102,1,1.94,0,-1.94,0
-7.0096e-24,0.01575,0,0,0,0,0,0,0,0,-36.966,-1.619,0,-209.86,0,-74.156,158.88,102,1,1.945,0,-1.945,0
-6.9888e-24,0.015754,0,0,0,0,0,0,0,0,-37.598,-1.4437,0,-208.23,0,-73.855,156.94,102,1,1.95,0,-1.95,0
-6.9679e-24,0.015758,0,0,0,0,0,0,0,0,-38.235,-1.2674,0,-206.6,0,-73.557,155,102,1,1.955,0,-1.955,0
-6.9466e-24,0.015762,0,0,0,0,0,0,0,0,-38.877,-1.0901,0,-204.97,0,-73.26,153.06,102,1,1.96,0,-1.96,0
-6.9252e-24,0.015766,0,0,0,0,0,0,0,0,-39.524,-0.91196,0,-203.34,0,-72.966,151.12,102,1,1.965,0,-1.965,0
-6.9035e-24,0.015771,0,0,0,0,0,0,0,0,-40.177,-0.73285,0,-201.72,0,-72.674,149.18,102,1,1.97,0,-1.97,0
-6.8815e-24,0.015775,0,0,0,0,0,0,0,0,-40.834,-0.55281,0,-200.1,0,-72.384,147.23,102,1,1.975,0,-1.975,0
-6.8593e-24,0.015779,0,0,0,0,0,0,0,0,-41.497,-0.37183,0,-198.48,0,-72.097,145.29,102,1,1.98,0,-1.98,0
-6.8369e-24,0.015783,0,0,0,0,0,0,0,0,-42.164,-0.18991,0,-196.86,0,-71.811,143.34,102,1,1.985,0,-1.985,0
-6.8142e-24,0.015787,0,0,0,0,0,0,0,0,-42.837,-0.0070559,0,-195.25,0,-71.528,141.38,102,1,1.99,0,-1.99,0
-6.7913e-24,0.015791,0,0,0,0,0,0,0,0,-43.515,0.17674,0,-193.63,0,-71.247,139.43,102,1,1.995,0,-1.995,0
-6.7682e-24,0.015795,0,0,0,0,0,0,0,0,-44.198,0.36147,0,-192.02,0,-70.969,137.48,102,1,2,0,-2,0
-6.7448e-24,0.015799,0,0,0,0,0,0,0,0,-44.886,0.54714,0,-190.42,0,-70.692,135.52,102,1,2.005,0,-2.005,0
-6.7212e-24,0.015803,0,0,0,0,0,0,0,0,-45.579,0.73373,0,-188.81,0,-70.418,133.56,102,1,2.01,0,-2.01,0
-6.6973e-24,0.015807,0,0,0,0,0,0,0,0,-46.277,0.92128,0,-187.21,0,-70.146,131.6,102,1,2.015,0,-2.015,0
-6.6732e-24,0.01581,0,0,0,0,0,0,0,0,-46.981,1.1098,0,-185.61,0,-69.876,129.64,102,1,2.02,0,-2.02,0
-6.6488e-24,0.015814,0,0,0,0,0,0,0,0,-47.689,1.2992,0,-184.01,0,-69.609,127.67,102,1,2.025,0,-2.025,0
-6.6242e-24,0.015818,0,0,0,0,0,0,0,0,-48.403,1.4895,0,-182.41,0,-69.344,125.71,102,1,2.03,0,-2.03,0
-6.5994e-24,0.015822,0,0,0,0,0,0,0,0,-49.122,1.6808,0,-180.81,0,-69.08,123.74,102,1,2.035,0,-2.035,0
-6.5743e-24,0.015826,0,0,0,0,0,0,0,0,-49.845,1.873,0,-179.22,0,-68.82,121.77,102,1,2.04,0,-2.04,0
-6.549e-24,0.015829,0,0,0,0,0,0,0,0,-50.574,2.0662,0,-177.63,0,-68.561,119.79,102,1,2.045,0,-2.045,0
-6.5235e-24,0.015833,0,0,0,0,0,0,0,0,-51.308,2.2603,0,-176.04,0,-68.305,117.82,102,1,2.05,0,-2.05,0
-6.4977e-24,0.015837,0,0,0,0,0,0,0,0,-52.048,2.4553,0,-174.46,0,-68.051,115.84,102,1,2.055,0,-2.055,0
-6.4716e-24,0.01584,0,0,0,0,0,0,0,0,-52.792,2.6513,0,-172.87,0,-67.799,113.86,102,1,2.06,0,-2.06,0
-6.4454e-24,0.015844,0,0,0,0,0,0,0,0,-53.541,2.8482,0,-171.29,0,-67.549,111.88,102,1,2.065,0,-2.065,0
-6.4188e-24,0.015847,0,0,0,0,0,0,0,0,-54.296,3.0461,0,-169.71,0,-67.301,109.9,102,1,2.07,0,-2.07,0
-6.3921e-24,0.015851,0,0,0,0,0,0,0,0,-55.055,3.2449,0,-168.14,0,-67.056,107.92,102,1,2.075,0,-2.075,0
-6.3651e-24,0.015855,0,0,0,0,0,0,0,0,-55.82,3.4446,0,-166.56,0,-66.813,105.93,102,1,2.08,0,-2.08,0
-6.3469e-24,0.015858,0,0,0,0,0,0,0,0,-56.454,3.5935,0,-165.26,0,-66.613,104.29,102,1,2.085,0,-2.085,0
-6.3721e-24,0.015863,0,0,0,0,0,0,0,0,-56.431,3.4933,0,-165.27,0,-66.608,104.31,102,1,2.09,0,-2.09,0
-6.3971e-24,0.015867,0,0,0,0,0,0,0,0,-56.408,3.394,0,-165.28,0,-66.603,104.32,102,1,2.095,0,-2.095,0
-6.4219e-24,0.015872,0,0,0,0,0,0,0,0,-56.384,3.2956,0,-165.28,0,-66.597,104.34,102,1,2.1,0,-2.1,0
-6.4465e-24,0.015876,0,0,0,0,0,0,0,0,-56.36,3.1982,0,-165.29,0,-66.592,104.36,102,1,2.105,0,-2.105,0
-6.4709e-24,0.015881,0,0,0,0,0,0,0,0,-56.335,3.1017,0,-165.3,0,-66.586,104.38,102,1,2.11,0,-2.11,0
-6.4951e-24,0.015885,0,0,0,0,0,0,0,0,-56.31,3.0061,0,-165.3,0,-66.58,104.4,102,1,2.115,0,-2.115,0
-6.519e-24,0.01589,0,0,0,0,0,0,0,0,-56.283,2.9114,0,-165.31,0,-66.573,104.42,102,1,2.12,0,-2.12,0
-6.5427e-24,0.015894,0,0,0,0,0,0,0,0,-56.257,2.8176,0,-165.32,0,-66.567,104.44,102,1,2.125,0,-2.125,0
-6.5662e-24,0.015899,0,0,0,0,0,0,0,0,-56.23,2.7248,0,-165.32,0,-66.56,104.46,102,1,2.13,0,-2.13,0
-6.5895e-24,0.015903,0,0,0,0,0,0,0,0,-56.202,2.6328,0,-165.33,0,-66.553,104.48,102,1,2.135,0,-2.135,0
-6.6126e-24,0.015908,0,0,0,0,0,0,0,0,-56.173,2.5418,0,-165.33,0,-66.545,104.5,102,1,2.14,0,-2.14,0
-6.6354e-24,0.015912,0,0,0,0,0,0,0,0,-56.144,2.4517,0,-165.34,0,-66.538,104.52,102,1,2.145,0,-2.145,0
-6.6581e-24,0.015916,0,0,0,0,0,0,0,0,-56.115,2.3625,0,-165.34,0,-66.53,104.54,102,1,2.15,0,-2.15,0
-6.6805e-24,0.015921,0,0,0,0,0,0,0,0,-56.085,2.2743,0,-165.35,0,-66.522,104.56,102,1,2.155,0,-2.155,0
-6.7027e-24,0.015925,0,0,0,0,0,0,0,0,-56.054,2.1869,0,-165.35,0,-66.514,104.58,102,1,2.16,0,-2.16,0
-6.7247e-24,0.01593,0,0,0,0,0,0,0,0,-56.022,2.1005,0,-165.36,0,-66.505,104.61,102,1,2.165,0,-2.165,0
-6.7464e-24,0.015934,0,0,0,0,0,0,0,0,-55.99,2.015,0,-165.36,0,-66.496,104.63,102,1,2.17,0,-2.17,0
-6.768e-24,0.015938,0,0,0,0,0,0,0,0,-55.958,1.9304,0,-165.36,0,-66.487,104.65,102,1,2.175,0,-2.175,0
-6.7893e-24,0.015943,0,0,0,0,0,0,0,0,-55.925,1.8467,0,-165.37,0,-66.478,104.67,102,1,2.18,0,-2.18,0
-6.8104e-24,0.015947,0,0,0,0,0,0,0,0,-55.891,1.764,0,-165.37,0,-66.468,104.7,102,1,2.185,0,-2.185,0
-6.8313e-24,0.015952,0,0,0,0,0,0,0,0,-55.857,1.6822,0,-165.37,0,-66.458,104.72,102,1,2.19,0,-2.19,0
-6.852e-24,0.015956,0,0,0,0,0,0,0,0,-55.822,1.6012,0,-165.38,0,-66.448,104.74,102,1,2.195,0,-2.195,0
-6.8725e-24,0.01596,0,0,0,0,0,0,0,0,-55.786,1.5212,0,-165.38,0,-66.438,104.77,102,1,2.2,0,-2.2,0
-6.8927e-24,0.015965,0,0,0,0,0,0,0,0,-55.75,1.4422,0,-165.38,0,-66.428,104.79,102,1,2.205,0,-2.205,0
-6.9128e-24,0.015969,0,0,0,0,0,0,0,0,-55.714,1.364,0,-165.38,0,-66.417,104.82,102,1,2.21,0,-2.21,0
-6.9326e-24,0.015973,0,0,0,0,0,0,0,0,-55.676,1.2868,0,-165.39,0,-66.406,104.84,102,1,2.215,0,-2.215,0
-6.9522e-24,0.015978,0,0,0,0,0,0,0,0,-55.639,1.2104,0,-165.39,0,-66.395,104.87,102,1,2.22,0,-2.22,0
-6.9716e-24,0.015982,0,0,0,0,0,0,0,0,-55.6,1.135,0,-165.39,0,-66.383,104.89,102,1,2.225,0,-2.225,0
-6.9907e-24,0.015986,0,0,0,0,0,0,0,0,-55.561,1.0605,0,-165.39,0,-66.371,104.92,102,1,2.23,0,-2.23,0
-7.0097e-24,0.015991,0,0,0,0,0,0,0,0,-55.522,0.98697,0,-165.39,0,-66.36,104.94,102,1,2.235,0,-2.235,0
-7.0284e-24,0.015995,0,0,0,0,0,0,0,0,-55.481,0.91431,0,-165.39,0,-66.347,104.97,102,1,2.24,0,-2.24,0
-7.0469e-24,0.015999,0,0,0,0,0,0,0,0,-55.441,0.84258,0,-165.39,0,-66.335,105,102,1,2.245,0,-2.245,0
-7.0652e-24,0.016004,0,0,0,0,0,0,0,0,-55.399,0.77176,0,-165.39,0,-66.322,105.02,102,1,2.25,0,-2.25,0
-7.0833e-24,0.016008,0,0,0,0,0,0,0,0,-55.357,0.70186,0,-165.39,0,-66.309,105.05,102,1,2.255,0,-2.255,0
-7.1012e-24,0.016012,0,0,0,0,0,0,0,0,-55.315,0.63288,0,-165.39,0,-66.296,105.08,102,1,2.26,0,-2.26,0
-7.1188e-24,0.016017,0,0,0,0,0,0,0,0,-55.272,0.56482,0,-165.39,0,-66.283,105.11,102,1,2.265,0,-2.265,0
-7.1363e-24,0.016021,0,0,0,0,0,0,0,0,-55.228,0.49767,0,-165.39,0,-66.269,105.13,102,1,2.27,0,-2.27,0
-7.1535e-24,0.016025,0,0,0,0,0,0,0,0,-55.184,0.43145,0,-165.39,0,-66.255,105.16,102,1,2.275,0,-2.275,0
-7.1705e-24,0.016029,0,0,0,0,0,0,0,0,-55.139,0.36614,0,-165.39,0,-66.241,105.19,102,1,2.28,0,-2.28,0
-7.1873e-24,0.016034,0,0,0,0,0,0,0,0,-55.093,0.30175,0,-165.39,0,-66.226,105.22,102,1,2.285,0,-2.285,0
-7.2038e-24,0.016038,0,0,0,0,0,0,0,0,-55.047,0.23828,0,-165.39,0,-66.212,105.25,102,1,2.29,0,-2.29,0
-7.2202e-24,0.016042,0,0,0,0,0,0,0,0,-55.001,0.17572,0,-165.38,0,-66.197,105.28,102,1,2.295,0,-2.295,0
-7.2363e-24,0.016046,0,0,0,0,0,0,0,0,-54.953,0.11409,0,-165.38,0,-66.182,105.31,102,1,2.3,0,-2.3,0
-7.2522e-24,0.016051,0,0,0,0,0,0,0,0,-54.905,0.053368,0,-165.38,0,-66.166,105.34,102,1,2.305,0,-2.305,0
-7.2679e-24,0.016055,0,0,0,0,0,0,0,0,-54.857,-0.00643,0,-165.38,0,-66.151,105.37,102,1,2.31,0,-2.31,0
-7.2834e-24,0.016059,0,0,0,0,0,0,0,0,-54.808,-0.065313,0,-165.37,0,-66.135,105.4,102,1,2.315,0,-2.315,0
-7.2987e-24,0.016063,0,0,0,0,0,0,0,0,-54.758,-0.12327,0,-165.37,0,-66.119,105.43,102,1,2.32,0,-2.32,0
-7.3137e-24,0.016067,0,0,0,0,0,0,0,0,-54.708,-0.18032,0,-165.37,0,-66.102,105.46,102,1,2.325,0,-2.325,0
-7.3286e-24,0.016072,0,0,0,0,0,0,0,0,-54.658,-0.23645,0,-165.36,0,-66.086,105.49,102,1,2.33,0,-2.33,0
-7.3432e-24,0.016076,0,0,0,0,0,0,0,0,-54.606,-0.29166,0,-165.36,0,-66.069,105.52,102,1,2.335,0,-2.335,0
-7.3576e-24,0.01608,0,0,0,0,0,0,0,0,-54.554,-0.34595,0,-165.36,0,-66.052,105.55,102,1,2.34,0,-2.34,0
-7.3717e-24,0.016084,0,0,0,0,0,0,0,0,-54.502,-0.39932,0,-165.35,0,-66.034,105.58,102,1,2.345,0,-2.345,0
-7.3857e-24,0.016088,0,0,0,0,0,0,0,0,-54.449,-0.45177,0,-165.35,0,-66.017,105.62,102,1,2.35,0,-2.35,0
-7.3995e-24,0.016093,0,0,0,0,0,0,0,0,-54.395,-0.50331,0,-165.34,0,-65.999,105.65,102,1,2.355,0,-2.355,0
-7.413e-24,0.016097,0,0,0,0,0,0,0,0,-54.341,-0.55393,0,-165.34,0,-65.981,105.68,102,1,2.36,0,-2.36,0
-7.4263e-24,0.016101,0,0,0,0,0,0,0,0,-54.286,-0.60363,0,-165.33,0,-65.963,105.71,102,1,2.365,0,-2.365,0
-7.4394e-24,0.016105,0,0,0,0,0,0,0,0,-54.23,-0.65241,0,-165.33,0,-65.944,105.75,102,1,2.37,0,-2.37,0
-7.4523e-24,0.016109,0,0,0,0,0,0,0,0,-54.174,-0.70028,0,-165.32,0,-65.925,105.78,102,1,2.375,0,-2.375,0
-7.4649e-24,0.016113,0,0,0,0,0,0,0,0,-54.117,-0.74722,0,-165.32,0,-65.906,105.81,102,1,2.38,0,-2.38,0
-7.4774e-24,0.016117,0,0,0,0,0,0,0,0,-54.06,-0.79325,0,-165.31,0,-65.887,105.85,102,1,2.385,0,-2.385,0
-7.4896e-24,0.016122,0,0,0,0,0,0,0,0,-54.002,-0.83836,0,-165.3,0,-65.868,105.88,102,1,2.39,0,-2.39,0
-7.5016e-24,0.016126,0,0,0,0,0,0,0,0,-53.944,-0.88255,0,-165.3,0,-65.848,105.92,102,1,2.395,0,-2.395,0
-7.5134e-24,0.01613,0,0,0,0,0,0,0,0,-53.885,-0.92583,0,-165.29,0,-65.828,105.95,102,1,2.4,0,-2.4,0
-7.525e-24,0.016134,0,0,0,0,0,0,0,0,-53.825,-0.96818,0,-165.28,0,-65.807,105.99,102,1,2.405,0,-2.405,0
-7.5364e-24,0.016138,0,0,0,0,0,0,0,0,-53.765,-1.0096,0,-165.28,0,-65.787,106.02,102,1,2.41,0,-2.41,0
-7.5475e-24,0.016142,0,0,0,0,0,0,0,0,-53.704,-1.0501,0,-165.27,0,-65.766,106.06,102,1,2.415,0,-2.415,0
-7.5584e-24,0.016146,0,0,0,0,0,0,0,0,-53.643,-1.0897,0,-165.26,0,-65.745,106.1,102,1,2.42,0,-2.42,0
-7.5691e-24,0.01615,0,0,0,0,0,0,0,0,-53.581,-1.1284,0,-165.25,0,-65.724,106.13,102,1,2.425,0,-2.425,0
-7.5796e-24,0.016154,0,0,0,0,0,0,0,0,-53.519,-1.1662,0,-165.25,0,-65.703,106.17,102,1,2.43,0,-2.43,0
-7.5899e-24,0.016158,0,0,0,0,0,0,0,0,-53.456,-1.203,0,-165.24,0,-65.681,106.21,102,1,2.435,0,-2.435,0
-7.6e-24,0.016162,0,0,0,0,0,0,0,0,-53.392,-1.239,0,-165.23,0,-65.659,106.24,102,1,2.44,0,-2.44,0
-7.6098e-24,0.016166,0,0,0,0,0,0,0,0,-53.328,-1.274,0,-165.22,0,-65.637,106.28,102,1,2.445,0,-2.445,0
-7.6194e-24,0.01617,0,0,0,0,0,0,0,0,-53.263,-1.3081,0,-165.21,0,-65.614,106.32,102,1,2.45,0,-2.45,0
-7.6289e-24,0.016174,0,0,0,0,0,0,0,0,-53.197,-1.3412,0,-165.2,0,-65.592,106.36,102,1,2.455,0,-2.455,0
-7.6381e-24,0.016178,0,0,0,0,0,0,0,0,-53.131,-1.3735,0,-165.19,0,-65.569,106.39,102,1,2.46,0,-2.46,0
-7.647e-24,0.016182,0,0,0,0,0,0,0,0,-53.065,-1.4048,0,-165.18,0,-65.545,106.43,102,1,2.465,0,-2.465,0
-7.6558e-24,0.016186,0,0,0,0,0,0,0,0,-52.997,-1.4353,0,-165.17,0,-65.522,106.47,102,1,2.47,0,-2.47,0
-7.6643e-24,0.01619,0,0,0,0,0,0,0,0,-52.929,-1.4648,0,-165.16,0,-65.498,106.51,102,1,2.475,0,-2.475,0
-7.6727e-24,0.016194,0,0,0,0,0,0,0,0,-52.861,-1.4933,0,-165.15,0,-65.474,106.55,102,1,2.48,0,-2.48,0
-7.6808e-24,0.016198,0,0,0,0,0,0,0,0,-52.792,-1.521,0,-165.14,0,-65.45,106.59,102,1,2.485,0,-2.485,0
-7.6887e-24,0.016202,0,0,0,0,0,0,0,0,-52.722,-1.5478,0,-165.13,0,-65.426,106.63,102,1,2.49,0,-2.49,0
-7.6963e-24,0.016206,0,0,0,0,0,0,0,0,-52.652,-1.5736,0,-165.12,0,-65.401,106.67,102,1,2.495,0,-2.495,0
-7.7038e-24,0.01621,0,0,0,0,0,0,0,0,-52.582,-1.5985,0,-165.11,0,-65.376,106.71,102,1,2.5,0,-2.5,0
-7.711e-24,0.016214,0,0,0,0,0,0,0,0,-52.51,-1.6225,0,-165.1,0,-65.351,106.75,102,1,2.505,0,-2.505,0
-7.7181e-24,0.016218,0,0,0,0,0,0,0,0,-52.438,-1.6456,0,-165.08,0,-65.326,106.79,102,1,2.51,0,-2.51,0
-7.7249e-24,0.016222,0,0,0,0,0,0,0,0,-52.366,-1.6677,0,-165.07,0,-65.3,106.83,102,1,2.515,0,-2.515,0
-7.7315e-24,0.016226,0,0,0,0,0,0,0,0,-52.293,-1.689,0,-165.06,0,-65.274,106.88,102,1,2.52,0,-2.52,0
-7.7378e-24,0.01623,0,0,0,0,0,0,0,0,-52.219,-1.7093,0,-165.05,0,-65.248,106.92,102,1,2.525,0,-2.525,0
-7.744e-24,0.016234,0,0,0,0,0,0,0,0,-52.145,-1.7287,0,-165.03,0,-65.222,106.96,102,1,2.53,0,-2.53,0
-7.7499e-24,0.016238,0,0,0,0,0,0,0,0,-52.07,-1.7472,0,-165.02,0,-65.195,107,102,1,2.535,0,-2.535,0
-7.7557e-24,0.016242,0,0,0,0,0,0,0,0,-51.994,-1.7647,0,-165.01,0,-65.168,107.05,102,1,2.54,0,-2.54,0
-7.7612e-24,0.016246,0,0,0,0,0,0,0,0,-51.918,-1.7814,0,-164.99,0,-65.141,107.09,102,1,2.545,0,-2.545,0
-7.7665e-24,0.01625,0,0,0,0,0,0,0,0,-51.842,-1.7971,0,-164.98,0,-65.114,107.13,102,1,2.55,0,-2.55,0
-7.7715e-24,0.016254,0,0,0,0,0,0,0,0,-51.764,-1.8119,0,-164.97,0,-65.086,107.18,102,1,2.555,0,-2.555,0
-7.7764e-24,0.016257,0,0,0,0,0,0,0,0,-51.687,-1.8258,0,-164.95,0,-65.059,107.22,102,1,2.56,0,-2.56,0
-7.781e-24,0.016261,0,0,0,0,0,0,0,0,-51.608,-1.8388,0,-164.94,0,-65.031,107.26,102,1,2.565,0,-2.565,0
-7.7855e-24,0.016265,0,0,0,0,0,0,0,0,-51.529,-1.8509,0,-164.92,0,-65.002,107.31,102,1,2.57,0,-2.57,0
-7.7897e-24,0.016269,0,0,0,0,0,0,0,0,-51.45,-1.862,0,-164.91,0,-64.974,107.35,102,1,2.575,0,-2.575,0
-7.7937e-24,0.016273,0,0,0,0,0,0,0,0,-51.369,-1.8722,0,-164.89,0,-64.945,107.4,102,1,2.58,0,-2.58,0
-7.7974e-24,0.016277,0,0,0,0,0,0,0,0,-51.289,-1.8815,0,-164.88,0,-64.916,107.44,102,1,2.585,0,-2.585,0
-7.801e-24,0.016281,0,0,0,0,0,0,0,0,-51.207,-1.8899,0,-164.86,0,-64.887,107.49,102,1,2.59,0,-2.59,0
-7.8043e-24,0.016285,0,0,0,0,0,0,0,0,-51.125,-1.8974,0,-164.85,0,-64.857,107.53,102,1,2.595,0,-2.595,0
-7.8074e-24,0.016288,0,0,0,0,0,0,0,0,-51.043,-1.9039,0,-164.83,0,-64.827,107.58,102,1,2.6,0,-2.6,0
-7.8104e-24,0.016292,0,0,0,0,0,0,0,0,-50.96,-1.9096,0,-164.81,0,-64.797,107.63,102,1,2.605,0,-2.605,0
-7.813e-24,0.016296,0,0,0,0,0,0,0,0,-50.876,-1.9143,0,-164.8,0,-64.767,107.67,102,1,2.61,0,-2.61,0
-7.8155e-24,0.0163,0,0,0,0,0,0,0,0,-50.792,-1.9181,0,-164.78,0,-64.737,107.72,102,1,2.615,0,-2.615,0
-7.8178e-24,0.016304,0,0,0,0,0,0,0,0,-50.707,-1.9209,0,-164.76,0,-64.706,107.77,102,1,2.62,0,-2.62,0
-7.8198e-24,0.016307,0,0,0,0,0,0,0,0,-50.621,-1.9229,0,-164.75,0,-64.675,107.81,102,1,2.625,0,-2.625,0
-7.8216e-24,0.016311,0,0,0,0,0,0,0,0,-50.535,-1.9239,0,-164.73,0,-64.644,107.86,102,1,2.63,0,-2.63,0
-7.8232e-24,0.016315,0,0,0,0,0,0,0,0,-50.449,-1.9241,0,-164.71,0,-64.612,107.91,102,1,2.635,0,-2.635,0
-7.8246e-24,0.016319,0,0,0,0,0,0,0,0,-50.361,-1.9233,0,-164.69,0,-64.581,107.96,102,1,2.64,0,-2.64,0
-7.8258e-24,0.016323,0,0,0,0,0,0,0,0,-50.274,-1.9216,0,-164.68,0,-64.549,108.01,102,1,2.645,0,-2.645,0
-7.8268e-24,0.016326,0,0,0,0,0,0,0,0,-50.185,-1.9189,0,-164.66,0,-64.516,108.06,102,1,2.65,0,-2.65,0
-7.8275e-24,0.01633,0,0,0,0,0,0,0,0,-50.096,-1.9154,0,-164.64,0,-64.484,108.11,102,1,2.655,0,-2.655,0
-7.828e-24,0.016334,0,0,0,0,0,0,0,0,-50.007,-1.9109,0,-164.62,0,-64.451,108.15,102,1,2.66,0,-2.66,0
-7.8283e-24,0.016338,0,0,0,0,0,0,0,0,-49.917,-1.9055,0,-164.6,0,-64.418,108.2,102,1,2.665,0,-2.665,0
-7.8284e-24,0.016341,0,0,0,0,0,0,0,0,-49.826,-1.8992,0,-164.58,0,-64.385,108.25,102,1,2.67,0,-2.67,0
-7.8283e-24,0.016345,0,0,0,0,0,0,0,0,-49.734,-1.892,0,-164.56,0,-64.352,108.3,102,1,2.675,0,-2.675,0
-7.8279e-24,0.016349,0,0,0,0,0,0,0,0,-49.642,-1.8839,0,-164.54,0,-64.318,108.36,102,1,2.68,0,-2.68,0
-7.8274e-24,0.016353,0,0,0,0,0,0,0,0,-49.55,-1.8748,0,-164.52,0,-64.284,108.41,102,1,2.685,0,-2.685,0
-7.8266e-24,0.016356,0,0,0,0,0,0,0,0,-49.457,-1.8648,0,-164.5,0,-64.25,108.46,102,1,2.69,0,-2.69,0
-7.8256e-24,0.01636,0,0,0,0,0,0,0,0,-49.363,-1.8539,0,-164.48,0,-64.216,108.51,102,1,2.695,0,-2.695,0
-7.8244e-24,0.016364,0,0,0,0,0,0,0,0,-49.269,-1.8421,0,-164.46,0,-64.181,108.56,102,1,2.7,0,-2.7,0
-7.8229e-24,0.016367,0,0,0,0,0,0,0,0,-49.174,-1.8294,0,-164.44,0,-64.146,108.61,102,1,2.705,0,-2.705,0
-7.8213e-24,0.016371,0,0,0,0,0,0,0,0,-49.079,-1.8157,0,-164.42,0,-64.111,108.66,102,1,2.71,0,-2.71,0
-7.8194e-24,0.016375,0,0,0,0,0,0,0,0,-48.983,-1.8012,0,-164.4,0,-64.076,108.72,102,1,2.715,0,-2.715,0
-7.8174e-24,0.016378,0,0,0,0,0,0,0,0,-48.886,-1.7857,0,-164.38,0,-64.04,108.77,102,1,2.72,0,-2.72,0
-7.8151e-24,0.016382,0,0,0,0,0,0,0,0,-48.789,-1.7693,0,-164.35,0,-64.004,108.82,102,1,2.725,0,-2.725,0
-7.8125e-24,0.016386,0,0,0,0,0,0,0,0,-48.691,-1.752,0,-164.33,0,-63.968,108.88,102,1,2.73,0,-2.73,0
-7.8098e-24,0.016389,0,0,0,0,0,0,0,0,-48.593,-1.7337,0,-164.31,0,-63.932,108.93,102,1,2.735,0,-2.735,0
-7.8069e-24,0.016393,0,0,0,0,0,0,0,0,-48.494,-1.7146,0,-164.29,0,-63.895,108.98,102,1,2.74,0,-2.74,0
-7.8037e-24,0.016397,0,0,0,0,0,0,0,0,-48.394,-1.6945,0,-164.26,0,-63.859,109.04,102,1,2.745,0,-2.745,0
-7.8003e-24,0.0164,0,0,0,0,0,0,0,0,-48.294,-1.6735,0,-164.24,0,-63.821,109.09,102,1,2.75,0,-2.75,0
-7.7967e-24,0.016404,0,0,0,0,0,0,0,0,-48.193,-1.6516,0,-164.22,0,-63.784,109.15,102,1,2.755,0,-2.755,0
-7.7929e-24,0.016408,0,0,0,0,0,0,0,0,-48.092,-1.6288,0,-164.19,0,-63.747,109.2,102,1,2.76,0,-2.76,0
-7.7889e-24,0.016411,0,0,0,0,0,0,0,0,-47.99,-1.6051,0,-164.17,0,-63.709,109.26,102,1,2.765,0,-2.765,0
-7.7846e-24,0.016415,0,0,0,0,0,0,0,0,-47.887,-1.5804,0,-164.15,0,-63.671,109.31,102,1,2.77,0,-2.77,0
-7.7802e-24,0.016418,0,0,0,0,0,0,0,0,-47.784,-1.5548,0,-164.12,0,-63.632,109.37,102,1,2.775,0,-2.775,0
-7.7755e-24,0.016422,0,0,0,0,0,0,0,0,-47.681,-1.5283,0,-164.1,0,-63.594,109.42,102,1,2.78,0,-2.78,0
-7.7706e-24,0.016426,0,0,0,0,0,0,0,0,-47.576,-1.5009,0,-164.07,0,-63.555,109.48,102,1,2.785,0,-2.785,0
-7.7655e-24,0.016429,0,0,0,0,0,0,0,0,-47.472,-1.4726,0,-164.05,0,-63.516,109.54,102,1,2.79,0,-2.79,0
-7.7601e-24,0.016433,0,0,0,0,0,0,0,0,-47.366,-1.4433,0,-164.02,0,-63.477,109.59,102,1,2.795,0,-2.795,0
-7.7546e-24,0.016436,0,0,0,0,0,0,0,0,-47.26,-1.4132,0,-164,0,-63.437,109.65,102,1,2.8,0,-2.8,0
-7.7488e-24,0.01644,0,0,0,0,0,0,0,0,-47.153,-1.3821,0,-163.97,0,-63.398,109.71,102,1,2.805,0,-2.805,0
-7.7429e-24,0.016443,0,0,0,0,0,0,0,0,-47.046,-1.3501,0,-163.95,0,-63.358,109.77,102,1,2.81,0,-2.81,0
-7.7367e-24,0.016447,0,0,0,0,0,0,0,0,-46.938,-1.3172,0,-163.92,0,-63.317,109.82,102,1,2.815,0,-2.815,0
-7.7302e-24,0.01645,0,0,0,0,0,0,0,0,-46.83,-1.2833,0,-163.89,0,-63.277,109.88,102,1,2.82,0,-2.82,0
-7.7236e-24,0.016454,0,0,0,0,0,0,0,0,-46.721,-1.2486,0,-163.87,0,-63.236,109.94,102,1,2.825,0,-2.825,0
-7.7168e-24,0.016458,0,0,0,0,0,0,0,0,-46.612,-1.2129,0,-163.84,0,-63.195,110,102,1,2.83,0,-2.83,0
-7.7097e-24,0.016461,0,0,0,0,0,0,0,0,-46.501,-1.1763,0,-163.81,0,-63.154,110.06,102,1,2.835,0,-2.835,0
-7.7024e-24,0.016465,0,0,0,0,0,0,0,0,-46.391,-1.1388,0,-163.79,0,-63.113,110.12,102,1,2.84,0,-2.84,0
-7.6949e-24,0.016468,0,0,0,0,0,0,0,0,-46.279,-1.1004,0,-163.76,0,-63.071,110.18,102,1,2.845,0,-2.845,0
-7.6872e-24,0.016472,0,0,0,0,0,0,0,0,-46.168,-1.061,0,-163.73,0,-63.029,110.24,102,1,2.85,0,-2.85,0
-7.6793e-24,0.016475,0,0,0,0,0,0,0,0,-46.055,-1.0207,0,-163.7,0,-62.987,110.3,102,1,2.855,0,-2.855,0
-7.6711e-24,0.016479,0,0,0,0,0,0,0,0,-45.942,-0.97957,0,-163.68,0,-62.944,110.36,102,1,2.86,0,-2.86,0
-7.6628e-24,0.016482,0,0,0,0,0,0,0,0,-45.828,-0.93747,0,-163.65,0,-62.902,110.42,102,1,2.865,0,-2.865,0
-7.6542e-24,0.016486,0,0,0,0,0,0,0,0,-45.714,-0.89445,0,-163.62,0,-62.859,110.48,102,1,2.87,0,-2.87,0
-7.6454e-24,0.016489,0,0,0,0,0,0,0,0,-45.599,-0.85052,0,-163.59,0,-62.816,110.54,102,1,2.875,0,-2.875,0
-7.6364e-24,0.016492,0,0,0,0,0,0,0,0,-45.484,-0.80566,0,-163.56,0,-62.772,110.6,102,1,2.88,0,-2.88,0
-7.6271e-24,0.016496,0,0,0,0,0,0,0,0,-45.368,-0.7599,0,-163.53,0,-62.729,110.66,102,1,2.885,0,-2.885,0
-7.6177e-24,0.016499,0,0,0,0,0,0,0,0,-45.251,-0.71321,0,-163.5,0,-62.685,110.73,102,1,2.89,0,-2.89,0
-7.608e-24,0.016503,0,0,0,0,0,0,0,0,-45.134,-0.6656,0,-163.47,0,-62.641,110.79,102,1,2.895,0,-2.895,0
-7.5981e-24,0.016506,0,0,0,0,0,0,0,0,-45.016,-0.61708,0,-163.44,0,-62.596,110.85,102,1,2.9,0,-2.9,0
-7.588e-24,0.01651,0,0,0,0,0,0,0,0,-44.898,-0.56764,0,-163.41,0,-62.552,110.91,102,1,2.905,0,-2.905,0
-7.5777e-24,0.016513,0,0,0,0,0,0,0,0,-44.779,-0.51728,0,-163.38,0,-62.507,110.98,102,1,2.91,0,-2.91,0
-7.5672e-24,0.016516,0,0,0,0,0,0,0,0,-44.659,-0.466,0,-163.35,0,-62.462,111.04,102,1,2.915,0,-2.915,0
-7.5564e-24,0.01652,0,0,0,0,0,0,0,0,-44.539,-0.41381,0,-163.32,0,-62.416,111.1,102,1,2.92,0,-2.92,0
-7.5455e-24,0.016523,0,0,0,0,0,0,0,0,-44.418,-0.3607,0,-163.29,0,-62.371,111.17,102,1,2.925,0,-2.925,0
-7.5343e-24,0.016527,0,0,0,0,0,0,0,0,-44.297,-0.30667,0,-163.26,0,-62.325,111.23,102,1,2.93,0,-2.93,0
-7.5229e-24,0.01653,0,0,0,0,0,0,0,0,-44.175,-0.25172,0,-163.23,0,-62.279,111.3,102,1,2.935,0,-2.935,0
-7.5113e-24,0.016533,0,0,0,0,0,0,0,0,-44.053,-0.19585,0,-163.19,0,-62.233,111.36,102,1,2.94,0,-2.94,0
-7.4994e-24,0.016537,0,0,0,0,0,0,0,0,-43.93,-0.13907,0,-163.16,0,-62.186,111.43,102,1,2.945,0,-2.945,0
-7.4874e-24,0.01654,0,0,0,0,0,0,0,0,-43.806,-0.081369,0,-163.13,0,-62.139,111.49,102,1,2.95,0,-2.95,0
-7.4751e-24,0.016544,0,0,0,0,0,0,0,0,-43.682,-0.022751,0,-163.1,0,-62.092,111.56,102,1,2.955,0,-2.955,0
-7.4626e-24,0.016547,0,0,0,0,0,0,0,0,-43.557,0.036787,0,-163.06,0,-62.045,111.62,102,1,2.96,0,-2.96,0
-7.4499e-24,0.01655,0,0,0,0,0,0,0,0,-43.431,0.09724,0,-163.03,0,-61.997,111.69,102,1,2.965,0,-2.965,0
-7.437e-24,0.016554,0,0,0,0,0,0,0,0,-43.305,0.15861,0,-163,0,-61.95,111.76,102,1,2.97,0,-2.97,0
-7.4239e-24,0.016557,0,0,0,0,0,0,0,0,-43.179,0.2209,0,-162.96,0,-61.902,111.82,102,1,2.975,0,-2.975,0
-7.4105e-24,0.01656,0,0,0,0,0,0,0,0,-43.052,0.28411,0,-162.93,0,-61.853,111.89,102,1,2.98,0,-2.98,0
-7.397e-24,0.016564,0,0,0,0,0,0,0,0,-42.924,0.34824,0,-162.9,0,-61.805,111.96,102,1,2.985,0,-2.985,0
-7.3832e-24,0.016567,0,0,0,0,0,0,0,0,-42.796,0.41328,0,-162.86,0,-61.756,112.03,102,1,2.99,0,-2.99,0
-7.3692e-24,0.01657,0,0,0,0,0,0,0,0,-42.667,0.47924,0,-162.83,0,-61.707,112.09,102,1,2.995,0,-2.995,0
-7.355e-24,0.016573,0,0,0,0,0,0,0,0,-42.537,0.54612,0,-162.79,0,-61.658,112.16,102,1,3,0,-3,0
-7.3405e-24,0.016577,0,0,0,0,0,0,0,0,-42.407,0.61392,0,-162.76,0,-61.608,112.23,102,1,3.005,0,-3.005,0
-7.3259e-24,0.01658,0,0,0,0,0,0,0,0,-42.276,0.68263,0,-162.72,0,-61.559,112.3,102,1,3.01,0,-3.01,0
-7.311e-24,0.016583,0,0,0,0,0,0,0,0,-42.145,0.75227,0,-162.69,0,-61.509,112.37,102,1,3.015,0,-3.015,0
-7.2959e-24,0.016587,0,0,0,0,0,0,0,0,-42.013,0.82282,0,-162.65,0,-61.458,112.44,102,1,3.02,0,-3.02,0
-7.2806e-24,0.01659,0,0,0,0,0,0,0,0,-41.881,0.89429,0,-162.62,0,-61.408,112.51,102,1,3.025,0,-3.025,0
-7.2651e-24,0.016593,0,0,0,0,0,0,0,0,-41.747,0.96667,0,-162.58,0,-61.357,112.58,102,1,3.03,0,-3.03,0
-7.2494e-24,0.016596,0,0,0,0,0,0,0,0,-41.614,1.04,0,-162.54,0,-61.306,112.65,102,1,3.035,0,-3.035,0
-7.2334e-24,0.0166,0,0,0,0,0,0,0,0,-41.48,1.1142,0,-162.51,0,-61.255,112.72,102,1,3.04,0,-3.04,0
-7.2173e-24,0.016603,0,0,0,0,0,0,0,0,-41.345,1.1893,0,-162.47,0,-61.204,112.79,102,1,3.045,0,-3.045,0
-7.2009e-24,0.016606,0,0,0,0,0,0,0,0,-41.209,1.2654,0,-162.43,0,-61.152,112.86,102,1,3.05,0,-3.05,0
-7.1843e-24,0.016609,0,0,0,0,0,0,0,0,-41.073,1.3424,0,-162.4,0,-61.1,112.93,102,1,3.055,0,-3.055,0
-7.1674e-24,0.016613,0,0,0,0,0,0,0,0,-40.937,1.4203,0,-162.36,0,-61.048,113,102,1,3.06,0,-3.06,0
-7.1504e-24,0.016616,0,0,0,0,0,0,0,0,-40.8,1.4991,0,-162.32,0,-60.995,113.07,102,1,3.065,0,-3.065,0
-7.1332e-24,0.016619,0,0,0,0,0,0,0,0,-40.662,1.5788,0,-162.28,0,-60.943,113.15,102,1,3.07,0,-3.07,0
-7.1157e-24,0.016622,0,0,0,0,0,0,0,0,-40.523,1.6595,0,-162.25,0,-60.89,113.22,102,1,3.075,0,-3.075,0
-7.098e-24,0.016625,0,0,0,0,0,0,0,0,-40.384,1.741,0,-162.21,0,-60.837,113.29,102,1,3.08,0,-3.08,0
-7.0801e-24,0.016629,0,0,0,0,0,0,0,0,-40.245,1.8235,0,-162.17,0,-60.783,113.36,102,1,3.085,0,-3.085,0
-7.062e-24,0.016632,0,0,0,0,0,0,0,0,-40.105,1.9069,0,-162.13,0,-60.73,113.44,102,1,3.09,0,-3.09,0
-7.0436e-24,0.016635,0,0,0,0,0,0,0,0,-39.964,1.9912,0,-162.09,0,-60.676,113.51,102,1,3.095,0,-3.095,0
-7.0251e-24,0.016638,0,0,0,0,0,0,0,0,-39.823,2.0764,0,-162.05,0,-60.622,113.58,102,1,3.1,0,-3.1,0
-7.0063e-24,0.016641,0,0,0,0,0,0,0,0,-39.681,2.1626,0,-162.01,0,-60.567,113.66,102,1,3.105,0,-3.105,0
-6.9873e-24,0.016644,0,0,0,0,0,0,0,0,-39.538,2.2497,0,-161.97,0,-60.513,113.73,102,1,3.11,0,-3.11,0
-6.9681e-24,0.016648,0,0,0,0,0,0,0,0,-39.395,2.3377,0,-161.93,0,-60.458,113.81,102,1,3.115,0,-3.115,0
-6.9487e-24,0.016651,0,0,0,0,0,0,0,0,-39.252,2.4266,0,-161.89,0,-60.403,113.88,102,1,3.12,0,-3.12,0
-6.9291e-24,0.016654,0,0,0,0,0,0,0,0,-39.107,2.5164,0,-161.85,0,-60.348,113.96,102,1,3.125,0,-3.125,0
-6.9092e-24,0.016657,0,0,0,0,0,0,0,0,-38.963,2.6071,0,-161.81,0,-60.292,114.03,102,1,3.13,0,-3.13,0
-6.8892e-24,0.01666,0,0,0,0,0,0,0,0,-38.817,2.6988,0,-161.77,0,-60.236,114.11,102,1,3.135,0,-3.135,0
-6.8689e-24,0.016663,0,0,0,0,0,0,0,0,-38.671,2.7914,0,-161.73,0,-60.18,114.18,102,1,3.14,0,-3.14,0
-6.8484e-24,0.016666,0,0,0,0,0,0,0,0,-38.525,2.8849,0,-161.69,0,-60.124,114.26,102,1,3.145,0,-3.145,0
-6.8277e-24,0.016669,0,0,0,0,0,0,0,0,-38.377,2.9793,0,-161.65,0,-60.067,114.34,102,1,3.15,0,-3.15,0
-6.8067e-24,0.016672,0,0,0,0,0,0,0,0,-38.23,3.0746,0,-161.6,0,-60.01,114.41,102,1,3.155,0,-3.155,0
-6.7856e-24,0.016676,0,0,0,0,0,0,0,0,-38.081,3.1709,0,-161.56,0,-59.953,114.49,102,1,3.16,0,-3.16,0
-6.7642e-24,0.016679,0,0,0,0,0,0,0,0,-37.932,3.268,0,-161.52,0,-59.896,114.57,102,1,3.165,0,-3.165,0
-6.7426e-24,0.016682,0,0,0,0,0,0,0,0,-37.783,3.3661,0,-161.48,0,-59.839,114.65,102,1,3.17,0,-3.17,0
-6.7208e-24,0.016685,0,0,0,0,0,0,0,0,-37.633,3.4651,0,-161.43,0,-59.781,114.72,102,1,3.175,0,-3.175,0
-6.6988e-24,0.016688,0,0,0,0,0,0,0,0,-37.482,3.565,0,-161.39,0,-59.723,114.8,102,1,3.18,0,-3.18,0
-6.6765e-24,0.016691,0,0,0,0,0,0,0,0,-37.331,3.6659,0,-161.35,0,-59.665,114.88,102,1,3.185,0,-3.185,0
-6.6541e-24,0.016694,0,0,0,0,0,0,0,0,-37.179,3.7676,0,-161.3,0,-59.606,114.96,102,1,3.19,0,-3.19,0
-6.6314e-24,0.016697,0,0,0,0,0,0,0,0,-37.026,3.8703,0,-161.26,0,-59.547,115.04,102,1,3.195,0,-3.195,0
-6.6085e-24,0.0167,0,0,0,0,0,0,0,0,-36.873,3.9739,0,-161.22,0,-59.488,115.12,102,1,3.2,0,-3.2,0
-6.5854e-24,0.016703,0,0,0,0,0,0,0,0,-36.72,4.0784,0,-161.17,0,-59.429,115.2,102,1,3.205,0,-3.205,0
-6.5621e-24,0.016706,0,0,0,0,0,0,0,0,-36.566,4.1838,0,-161.13,0,-59.37,115.28,102,1,3.21,0,-3.21,0
-6.5386e-24,0.016709,0,0,0,0,0,0,0,0,-36.411,4.2902,0,-161.08,0,-59.31,115.36,102,1,3.215,0,-3.215,0
-6.5148e-24,0.016712,0,0,0,0,0,0,0,0,-36.255,4.3974,0,-161.04,0,-59.25,115.44,102,1,3.22,0,-3.22,0
-6.4909e-24,0.016715,0,0,0,0,0,0,0,0,-36.099,4.5056,0,-160.99,0,-59.19,115.52,102,1,3.225,0,-3.225,0
-6.4667e-24,0.016718,0,0,0,0,0,0,0,0,-35.943,4.6147,0,-160.95,0,-59.129,115.6,102,1,3.23,0,-3.23,0
-6.4423e-24,0.016721,0,0,0,0,0,0,0,0,-35.786,4.7247,0,-160.9,0,-59.069,115.68,102,1,3.235,0,-3.235,0
-6.4176e-24,0.016724,0,0,0,0,0,0,0,0,-35.628,4.8357,0,-160.86,0,-59.008,115.76,102,1,3.24,0,-3.24,0
-6.3928e-24,0.016727,0,0,0,0,0,0,0,0,-35.469,4.9475,0,-160.81,0,-58.947,115.84,102,1,3.245,0,-3.245,0
-6.3677e-24,0.01673,0,0,0,0,0,0,0,0,-35.311,5.0603,0,-160.76,0,-58.885,115.93,102,1,3.25,0,-3.25,0
-6.3425e-24,0.016733,0,0,0,0,0,0,0,0,-35.151,5.174,0,-160.72,0,-58.823,116.01,102,1,3.255,0,-3.255,0
-6.317e-24,0.016736,0,0,0,0,0,0,0,0,-34.991,5.2886,0,-160.67,0,-58.762,116.09,102,1,3.26,0,-3.26,0
-6.2913e-24,0.016739,0,0,0,0,0,0,0,0,-34.83,5.4041,0,-160.62,0,-58.699,116.17,102,1,3.265,0,-3.265,0
-6.2654e-24,0.016742,0,0,0,0,0,0,0,0,-34.669,5.5206,0,-160.58,0,-58.637,116.26,102,1,3.27,0,-3.27,0
-6.2392e-24,0.016745,0,0,0,0,0,0,0,0,-34.507,5.6379,0,-160.53,0,-58.574,116.34,102,1,3.275,0,-3.275,0
-6.2129e-24,0.016748,0,0,0,0,0,0,0,0,-34.345,5.7562,0,-160.48,0,-58.512,116.42,102,1,3.28,0,-3.28,0
-6.1863e-24,0.016751,0,0,0,0,0,0,0,0,-34.182,5.8754,0,-160.43,0,-58.448,116.51,102,1,3.285,0,-3.285,0
-6.1595e-24,0.016753,0,0,0,0,0,0,0,0,-34.018,5.9955,0,-160.39,0,-58.385,116.59,102,1,3.29,0,-3.29,0
1.6707e-19,0.016756,0,0,0,0,0,0,0,0,-33.912,6.0588,0,-160.28,0,-58.321,116.58,1,1,3.295,0,-3.295,0
1.6669e-19,0.01676,0,0,0,0,0,0,0,0,-33.912,6.0158,0,-160.06,0,-58.254,116.38,1,1,3.3,0,-3.3,0
1.4967e-19,0.016763,0,0,0,0,0,0,0,0,-33.912,5.9729,0,-159.84,0,-58.188,116.18,1,1,3.305,0,-3.305,0
1.4932e-19,0.016766,0,0,0,0,0,0,0,0,-33.911,5.9301,0,-159.62,0,-58.121,115.98,1,1,3.31,0,-3.31,0
1.3242e-19,0.016769,0,0,0,0,0,0,0,0,-33.911,5.8875,0,-159.39,0,-58.055,115.78,1,1,3.315,0,-3.315,0
1.3211e-19,0.016772,0,0,0,0,0,0,0,0,-33.91,5.8451,0,-159.17,0,-57.988,115.58,1,1,3.32,0,-3.32,0
1.3181e-19,0.016775,0,0,0,0,0,0,0,0,-33.91,5.8027,0,-158.95,0,-57.921,115.38,1,1,3.325,0,-3.325,0
1.315e-19,0.016778,0,0,0,0,0,0,0,0,-33.909,5.7605,0,-158.73,0,-57.855,115.18,1,1,3.33,0,-3.33,0
1.3119e-19,0.016781,0,0,0,0,0,0,0,0,-33.908,5.7185,0,-158.51,0,-57.788,114.98,1,1,3.335,0,-3.335,0
1.1452e-19,0.016784,0,0,0,0,0,0,0,0,-33.906,5.6766,0,-158.29,0,-57.721,114.78,1,1,3.34,0,-3.34,0
1.1426e-19,0.016787,0,0,0,0,0,0,0,0,-33.905,5.6348,0,-158.07,0,-57.654,114.59,1,1,3.345,0,-3.345,0
9.7702e-20,0.01679,0,0,0,0,0,0,0,0,-33.903,5.5931,0,-157.85,0,-57.586,114.39,1,1,3.35,0,-3.35,0
9.7473e-20,0.016793,0,0,0,0,0,0,0,0,-33.901,5.5516,0,-157.63,0,-57.519,114.19,1,1,3.355,0,-3.355,0
9.7243e-20,0.016796,0,0,0,0,0,0,0,0,-33.899,5.5103,0,-157.4,0,-57.452,113.99,1,1,3.36,0,-3.36,0
9.7014e-20,0.016799,0,0,0,0,0,0,0,0,-33.897,5.469,0,-157.18,0,-57.385,113.79,1,1,3.365,0,-3.365,0
9.6785e-20,0.016802,0,0,0,0,0,0,0,0,-33.894,5.4279,0,-156.96,0,-57.317,113.59,1,1,3.37,0,-3.37,0
9.6557e-20,0.016805,0,0,0,0,0,0,0,0,-33.891,5.387,0,-156.74,0,-57.25,113.4,1,1,3.375,0,-3.375,0
9.6328e-20,0.016808,0,0,0,0,0,0,0,0,-33.889,5.3462,0,-156.52,0,-57.182,113.2,1,1,3.38,0,-3.38,0
8.0082e-20,0.016811,0,0,0,0,0,0,0,0,-33.886,5.3055,0,-156.3,0,-57.114,113,1,1,3.385,0,-3.385,0
7.9892e-20,0.016814,0,0,0,0,0,0,0,0,-33.882,5.2649,0,-156.07,0,-57.047,112.8,1,1,3.39,0,-3.39,0
6.3761e-20,0.016817,0,0,0,0,0,0,0,0,-33.879,5.2245,0,-155.85,0,-56.979,112.6,1,1,3.395,0,-3.395,0
6.3609e-20,0.01682,0,0,0,0,0,0,0,0,-33.875,5.1843,0,-155.63,0,-56.911,112.41,1,1,3.4,0,-3.4,0
6.3458e-20,0.016823,0,0,0,0,0,0,0,0,-33.872,5.1442,0,-155.41,0,-56.843,112.21,1,1,3.405,0,-3.405,0
6.3306e-20,0.016826,0,0,0,0,0,0,0,0,-33.868,5.1042,0,-155.18,0,-56.775,112.01,1,1,3.41,0,-3.41,0
6.3155e-20,0.016829,0,0,0,0,0,0,0,0,-33.863,5.0643,0,-154.96,0,-56.706,111.82,1,1,3.415,0,-3.415,0
6.3004e-20,0.016832,0,0,0,0,0,0,0,0,-33.859,5.0246,0,-154.74,0,-56.638,111.62,1,1,3.42,0,-3.42,0
6.2853e-20,0.016835,0,0,0,0,0,0,0,0,-33.854,4.985,0,-154.52,0,-56.57,111.42,1,1,3.425,0,-3.425,0
6.2702e-20,0.016838,0,0,0,0,0,0,0,0,-33.85,4.9456,0,-154.29,0,-56.501,111.22,1,1,3.43,0,-3.43,0
4.6912e-20,0.016841,0,0,0,0,0,0,0,0,-33.845,4.9063,0,-154.07,0,-56.433,111.03,1,1,3.435,0,-3.435,0
4.6799e-20,0.016844,0,0,0,0,0,0,0,0,-33.84,4.8672,0,-153.85,0,-56.364,110.83,1,1,3.44,0,-3.44,0
4.6687e-20,0.016847,0,0,0,0,0,0,0,0,-33.834,4.8281,0,-153.63,0,-56.296,110.63,1,1,3.445,0,-3.445,0
3.1047e-20,0.01685,0,0,0,0,0,0,0,0,-33.829,4.7893,0,-153.4,0,-56.227,110.44,1,1,3.45,0,-3.45,0
3.0972e-20,0.016853,0,0,0,0,0,0,0,0,-33.823,4.7505,0,-153.18,0,-56.158,110.24,1,1,3.455,0,-3.455,0
3.0897e-20,0.016856,0,0,0,0,0,0,0,0,-33.817,4.7119,0,-152.96,0,-56.089,110.04,1,1,3.46,0,-3.46,0
3.0822e-20,0.016859,0,0,0,0,0,0,0,0,-33.811,4.6734,0,-152.73,0,-56.02,109.85,1,1,3.465,0,-3.465,0
3.0747e-20,0.016862,0,0,0,0,0,0,0,0,-33.805,4.6351,0,-152.51,0,-55.951,109.65,1,1,3.47,0,-3.47,0
3.0673e-20,0.016865,0,0,0,0,0,0,0,0,-33.798,4.5969,0,-152.29,0,-55.882,109.45,1,1,3.475,0,-3.475,0
3.0598e-20,0.016868,0,0,0,0,0,0,0,0,-33.792,4.5589,0,-152.06,0,-55.813,109.26,1,1,3.48,0,-3.48,0
3.0523e-20,0.016871,0,0,0,0,0,0,0,0,-33.785,4.5209,0,-151.84,0,-55.743,109.06,1,1,3.485,0,-3.485,0
3.0449e-20,0.016874,0,0,0,0,0,0,0,0,-33.778,4.4832,0,-151.62,0,-55.674,108.87,1,1,3.49,0,-3.49,0
3.0375e-20,0.016877,0,0,0,0,0,0,0,0,-33.771,4.4455,0,-151.39,0,-55.605,108.67,1,1,3.495,0,-3.495,0
3.03e-20,0.01688,0,0,0,0,0,0,0,0,-33.763,4.408,0,-151.17,0,-55.535,108.48,1,1,3.5,0,-3.5,0
3.0226e-20,0.016883,0,0,0,0,0,0,0,0,-33.756,4.3707,0,-150.94,0,-55.465,108.28,1,1,3.505,0,-3.505,0
1.5072e-20,0.016886,0,0,0,0,0,0,0,0,-33.748,4.3334,0,-150.72,0,-55.396,108.08,1,1,3.51,0,-3.51,0
1.5035e-20,0.016888,0,0,0,0,0,0,0,0,-33.74,4.2964,0,-150.5,0,-55.326,107.89,1,1,3.515,0,-3.515,0
1.4998e-20,0.016891,0,0,0,0,0,0,0,0,-33.732,4.2594,0,-150.27,0,-55.256,107.69,1,1,3.52,0,-3.52,0
1.4961e-20,0.016894,0,0,0,0,0,0,0,0,-33.724,4.2226,0,-150.05,0,-55.186,107.5,1,1,3.525,0,-3.525,0
1.4924e-20,0.016897,0,0,0,0,0,0,0,0,-33.715,4.1859,0,-149.82,0,-55.116,107.3,1,1,3.53,0,-3.53,0
-7.1107e-24,0.0169,0,0,0,0,0,0,0,0,-33.706,4.1494,0,-149.6,0,-55.046,107.11,1,1,3.535,0,-3.535,0
-7.126e-24,0.016903,0,0,0,0,0,0,0,0,-33.697,4.113,0,-149.37,0,-54.976,106.91,1,1,3.54,0,-3.54,0
-7.1412e-24,0.016906,0,0,0,0,0,0,0,0,-33.688,4.0767,0,-149.15,0,-54.905,106.72,1,1,3.545,0,-3.545,0
-7.1561e-24,0.016909,0,0,0,0,0,0,0,0,-33.679,4.0406,0,-148.93,0,-54.835,106.52,1,1,3.55,0,-3.55,0
-7.1708e-24,0.016912,0,0,0,0,0,0,0,0,-33.67,4.0046,0,-148.7,0,-54.765,106.33,1,1,3.555,0,-3.555,0
-7.1854e-24,0.016915,0,0,0,0,0,0,0,0,-33.66,3.9688,0,-148.48,0,-54.694,106.13,1,1,3.56,0,-3.56,0
-7.1998e-24,0.016917,0,0,0,0,0,0,0,0,-33.65,3.9331,0,-148.25,0,-54.623,105.94,1,1,3.565,0,-3.565,0
-7.2139e-24,0.01692,0,0,0,0,0,0,0,0,-33.64,3.8975,0,-148.03,0,-54.553,105.75,1,1,3.57,0,-3.57,0
-7.2279e-24,0.016923,0,0,0,0,0,0,0,0,-33.63,3.8621,0,-147.8,0,-54.482,105.55,1,1,3.575,0,-3.575,0
-7.2417e-24,0.016926,0,0,0,0,0,0,0,0,-33.619,3.8268,0,-147.58,0,-54.411,105.36,1,1,3.58,0,-3.58,0
-7.2553e-24,0.016929,0,0,0,0,0,0,0,0,-33.609,3.7916,0,-147.35,0,-54.34,105.16,1,1,3.585,0,-3.585,0
-7.2687e-24,0.016932,0,0,0,0,0,0,0,0,-33.598,3.7566,0,-147.13,0,-54.269,104.97,1,1,3.59,0,-3.59,0
-7.2819e-24,0.016935,0,0,0,0,0,0,0,0,-33.587,3.7217,0,-146.9,0,-54.198,104.77,1,1,3.595,0,-3.595,0
-7.2949e-24,0.016937,0,0,0,0,0,0,0,0,-33.576,3.687,0,-146.67,0,-54.127,104.58,1,1,3.6,0,-3.6,0
-7.3077e-24,0.01694,0,0,0,0,0,0,0,0,-33.564,3.6524,0,-146.45,0,-54.056,104.39,1,1,3.605,0,-3.605,0
-7.3204e-24,0.016943,0,0,0,0,0,0,0,0,-33.553,3.6179,0,-146.22,0,-53.984,104.19,1,1,3.61,0,-3.61,0
-7.3328e-24,0.016946,0,0,0,0,0,0,0,0,-33.541,3.5836,0,-146,0,-53.913,104,1,1,3.615,0,-3.615,0
-7.3451e-24,0.016949,0,0,0,0,0,0,0,0,-33.529,3.5494,0,-145.77,0,-53.841,103.81,1,1,3.62,0,-3.62,0
-7.3571e-24,0.016952,0,0,0,0,0,0,0,0,-33.517,3.5154,0,-145.55,0,-53.77,103.61,1,1,3.625,0,-3.625,0
-7.369e-24,0.016954,0,0,0,0,0,0,0,0,-33.505,3.4815,0,-145.32,0,-53.698,103.42,1,1,3.63,0,-3.63,0
-7.3807e-24,0.016957,0,0,0,0,0,0,0,0,-33.492,3.4477,0,-145.09,0,-53.627,103.23,1,1,3.635,0,-3.635,0
-7.3922e-24,0.01696,0,0,0,0,0,0,0,0,-33.48,3.4141,0,-144.87,0,-53.555,103.03,1,1,3.64,0,-3.64,0
-7.4035e-24,0.016963,0,0,0,0,0,0,0,0,-33.467,3.3806,0,-144.64,0,-53.483,102.84,1,1,3.645,0,-3.645,0
-7.4146e-24,0.016966,0,0,0,0,0,0,0,0,-33.454,3.3472,0,-144.42,0,-53.411,102.65,1,1,3.65,0,-3.65,0
-7.4255e-24,0.016968,0,0,0,0,0,0,0,0,-33.44,3.314,0,-144.19,0,-53.339,102.45,1,1,3.655,0,-3.655,0
-7.4362e-24,0.016971,0,0,0,0,0,0,0,0,-33.427,3.2809,0,-143.96,0,-53.267,102.26,1,1,3.66,0,-3.66,0
-7.4468e-24,0.016974,0,0,0,0,0,0,0,0,-33.413,3.248,0,-143.74,0,-53.194,102.07,1,1,3.665,0,-3.665,0
-7.4571e-24,0.016977,0,0,0,0,0,0,0,0,-33.4,3.2152,0,-143.51,0,-53.122,101.88,1,1,3.67,0,-3.67,0
-7.4673e-24,0.01698,0,0,0,0,0,0,0,0,-33.386,3.1825,0,-143.28,0,-53.05,101.68,1,1,3.675,0,-3.675,0
-7.4772e-24,0.016982,0,0,0,0,0,0,0,0,-33.371,3.15,0,-143.06,0,-52.977,101.49,1,1,3.68,0,-3.68,0
-7.487e-24,0.016985,0,0,0,0,0,0,0,0,-33.357,3.1176,0,-142.83,0,-52.905,101.3,1,1,3.685,0,-3.685,0
-7.4966e-24,0.016988,0,0,0,0,0,0,0,0,-33.342,3.0853,0,-142.6,0,-52.832,101.11,1,1,3.69,0,-3.69,0
-7.506e-24,0.016991,0,0,0,0,0,0,0,0,-33.328,3.0532,0,-142.38,0,-52.759,100.92,1,1,3.695,0,-3.695,0
-7.5152e-24,0.016993,0,0,0,0,0,0,0,0,-33.313,3.0212,0,-142.15,0,-52.687,100.72,1,1,3.7,0,-3.7,0
-7.5242e-24,0.016996,0,0,0,0,0,0,0,0,-33.297,2.9894,0,-141.92,0,-52.614,100.53,1,1,3.705,0,-3.705,0
-7.533e-24,0.016999,0,0,0,0,0,0,0,0,-33.282,2.9577,0,-141.69,0,-52.541,100.34,1,1,3.71,0,-3.71,0
-7.5416e-24,0.017002,0,0,0,0,0,0,0,0,-33.267,2.9261,0,-141.47,0,-52.468,100.15,1,1,3.715,0,-3.715,0
1.3549e-20,0.017004,0,0,0,0,0,0,0,0,-33.251,2.8947,0,-141.24,0,-52.395,99.957,1,1,3.72,0,-3.72,0
1.3513e-20,0.017007,0,0,0,0,0,0,0,0,-33.235,2.8634,0,-141.01,0,-52.322,99.765,1,1,3.725,0,-3.725,0
1.3478e-20,0.01701,0,0,0,0,0,0,0,0,-33.219,2.8323,0,-140.78,0,-52.248,99.574,1,1,3.73,0,-3.73,0
1.3442e-20,0.017013,0,0,0,0,0,0,0,0,-33.203,2.8013,0,-140.56,0,-52.175,99.383,1,1,3.735,0,-3.735,0
1.3407e-20,0.017015,0,0,0,0,0,0,0,0,-33.186,2.7704,0,-140.33,0,-52.102,99.191,1,1,3.74,0,-3.74,0
1.3372e-20,0.017018,0,0,0,0,0,0,0,0,-33.17,2.7396,0,-140.1,0,-52.028,99,1,1,3.745,0,-3.745,0
2.668e-20,0.017021,0,0,0,0,0,0,0,0,-33.153,2.7091,0,-139.87,0,-51.954,98.809,1,1,3.75,0,-3.75,0
2.661e-20,0.017024,0,0,0,0,0,0,0,0,-33.136,2.6786,0,-139.65,0,-51.881,98.618,1,1,3.755,0,-3.755,0
2.654e-20,0.017026,0,0,0,0,0,0,0,0,-33.118,2.6483,0,-139.42,0,-51.807,98.427,1,1,3.76,0,-3.76,0
2.6469e-20,0.017029,0,0,0,0,0,0,0,0,-33.101,2.6181,0,-139.19,0,-51.733,98.237,1,1,3.765,0,-3.765,0
2.6399e-20,0.017032,0,0,0,0,0,0,0,0,-33.083,2.588,0,-138.96,0,-51.659,98.046,1,1,3.77,0,-3.77,0
2.6329e-20,0.017034,0,0,0,0,0,0,0,0,-33.066,2.5581,0,-138.73,0,-51.585,97.855,1,1,3.775,0,-3.775,0
2.6259e-20,0.017037,0,0,0,0,0,0,0,0,-33.048,2.5284,0,-138.5,0,-51.511,97.665,1,1,3.78,0,-3.78,0
2.6189e-20,0.01704,0,0,0,0,0,0,0,0,-33.029,2.4987,0,-138.28,0,-51.437,97.475,1,1,3.785,0,-3.785,0
2.6119e-20,0.017043,0,0,0,0,0,0,0,0,-33.011,2.4693,0,-138.05,0,-51.363,97.284,1,1,3.79,0,-3.79,0
2.6049e-20,0.017045,0,0,0,0,0,0,0,0,-32.993,2.4399,0,-137.82,0,-51.289,97.094,1,1,3.795,0,-3.795,0
2.5979e-20,0.017048,0,0,0,0,0,0,0,0,-32.974,2.4107,0,-137.59,0,-51.214,96.904,1,1,3.8,0,-3.8,0
3.8868e-20,0.017051,0,0,0,0,0,0,0,0,-32.955,2.3816,0,-137.36,0,-51.14,96.714,1,1,3.805,0,-3.805,0
3.8764e-20,0.017053,0,0,0,0,0,0,0,0,-32.936,2.3527,0,-137.13,0,-51.065,96.524,1,1,3.81,0,-3.81,0
3.8659e-20,0.017056,0,0,0,0,0,0,0,0,-32.917,2.3239,0,-136.9,0,-50.99,96.334,1,1,3.815,0,-3.815,0
5.1409e-20,0.017059,0,0,0,0,0,0,0,0,-32.897,2.2952,0,-136.68,0,-50.916,96.144,1,1,3.82,0,-3.82,0
5.127e-20,0.017061,0,0,0,0,0,0,0,0,-32.877,2.2667,0,-136.45,0,-50.841,95.955,1,1,3.825,0,-3.825,0
5.1132e-20,0.017064,0,0,0,0,0,0,0,0,-32.857,2.2383,0,-136.22,0,-50.766,95.765,1,1,3.83,0,-3.83,0
5.0993e-20,0.017067,0,0,0,0,0,0,0,0,-32.837,2.21,0,-135.99,0,-50.691,95.576,1,1,3.835,0,-3.835,0
5.0855e-20,0.017069,0,0,0,0,0,0,0,0,-32.817,2.1819,0,-135.76,0,-50.616,95.387,1,1,3.84,0,-3.84,0
5.0717e-20,0.017072,0,0,0,0,0,0,0,0,-32.797,2.154,0,-135.53,0,-50.541,95.197,1,1,3.845,0,-3.845,0
5.0579e-20,0.017075,0,0,0,0,0,0,0,0,-32.776,2.1261,0,-135.3,0,-50.466,95.008,1,1,3.85,0,-3.85,0
5.0441e-20,0.017077,0,0,0,0,0,0,0,0,-32.755,2.0984,0,-135.07,0,-50.391,94.819,1,1,3.855,0,-3.855,0
6.2881e-20,0.01708,0,0,0,0,0,0,0,0,-32.734,2.0709,0,-134.84,0,-50.315,94.63,1,1,3.86,0,-3.86,0
6.2709e-20,0.017082,0,0,0,0,0,0,0,0,-32.713,2.0434,0,-134.61,0,-50.24,94.441,1,1,3.865,0,-3.865,0
6.2537e-20,0.017085,0,0,0,0,0,0,0,0,-32.692,2.0162,0,-134.38,0,-50.164,94.252,1,1,3.87,0,-3.87,0
7.484e-20,0.017088,0,0,0,0,0,0,0,0,-32.67,1.989,0,-134.15,0,-50.089,94.064,1,1,3.875,0,-3.875,0
7.4634e-20,0.01709,0,0,0,0,0,0,0,0,-32.648,1.962,0,-133.92,0,-50.013,93.875,1,1,3.88,0,-3.88,0
7.4429e-20,0.017093,0,0,0,0,0,0,0,0,-32.626,1.9351,0,-133.69,0,-49.937,93.687,1,1,3.885,0,-3.885,0
7.4224e-20,0.017096,0,0,0,0,0,0,0,0,-32.604,1.9084,0,-133.46,0,-49.861,93.498,1,1,3.89,0,-3.89,0
7.4019e-20,0.017098,0,0,0,0,0,0,0,0,-32.582,1.8818,0,-133.23,0,-49.785,93.31,1,1,3.895,0,-3.895,0
7.3814e-20,0.017101,0,0,0,0,0,0,0,0,-32.559,1.8554,0,-133,0,-49.709,93.122,1,1,3.9,0,-3.9,0
8.5879e-20,0.017103,0,0,0,0,0,0,0,0,-32.537,1.8291,0,-132.77,0,-49.633,92.933,1,1,3.905,0,-3.905,0
8.564e-20,0.017106,0,0,0,0,0,0,0,0,-32.514,1.8029,0,-132.54,0,-49.557,92.745,1,1,3.91,0,-3.91,0
9.7604e-20,0.017109,0,0,0,0,0,0,0,0,-32.491,1.7768,0,-132.31,0,-49.481,92.557,1,1,3.915,0,-3.915,0
9.7332e-20,0.017111,0,0,0,0,0,0,0,0,-32.468,1.7509,0,-132.08,0,-49.405,92.37,1,1,3.92,0,-3.92,0
9.706e-20,0.017114,0,0,0,0,0,0,0,0,-32.444,1.7252,0,-131.85,0,-49.328,92.182,1,1,3.925,0,-3.925,0
9.6789e-20,0.017116,0,0,0,0,0,0,0,0,-32.42,1.6996,0,-131.62,0,-49.252,91.994,1,1,3.93,0,-3.93,0
9.6518e-20,0.017119,0,0,0,0,0,0,0,0,-32.397,1.6741,0,-131.39,0,-49.175,91.806,1,1,3.935,0,-3.935,0
9.6247e-20,0.017121,0,0,0,0,0,0,0,0,-32.373,1.6487,0,-131.15,0,-49.098,91.619,1,1,3.94,0,-3.94,0
1.0798e-19,0.017124,0,0,0,0,0,0,0,0,-32.348,1.6235,0,-130.92,0,-49.022,91.432,1,1,3.945,0,-3.945,0
1.0767e-19,0.017127,0,0,0,0,0,0,0,0,-32.324,1.5984,0,-130.69,0,-48.945,91.244,1,1,3.95,0,-3.95,0
1.193e-19,0.017129,0,0,0,0,0,0,0,0,-32.299,1.5735,0,-130.46,0,-48.868,91.057,1,1,3.955,0,-3.955,0
2.3786e-20,0.017132,0,0,0,0,0,0,0,0,-32.275,1.5487,0,-130.23,0,-48.791,90.87,1,1,3.96,0,-3.96,0
2.3719e-20,0.017134,0,0,0,0,0,0,0,0,-32.25,1.524,0,-130,0,-48.714,90.683,1,1,3.965,0,-3.965,0
2.3652e-20,0.017137,0,0,0,0,0,0,0,0,-32.224,1.4995,0,-129.77,0,-48.637,90.496,1,1,3.97,0,-3.97,0
2.3585e-20,0.017139,0,0,0,0,0,0,0,0,-32.199,1.4751,0,-129.54,0,-48.56,90.309,1,1,3.975,0,-3.975,0
2.3518e-20,0.017142,0,0,0,0,0,0,0,0,-32.174,1.4509,0,-129.3,0,-48.482,90.123,1,1,3.98,0,-3.98,0
2.3451e-20,0.017144,0,0,0,0,0,0,0,0,-32.148,1.4268,0,-129.07,0,-48.405,89.936,1,1,3.985,0,-3.985,0
2.3384e-20,0.017147,0,0,0,0,0,0,0,0,-32.122,1.4028,0,-128.84,0,-48.327,89.749,1,1,3.99,0,-3.99,0
2.3317e-20,0.01715,0,0,0,0,0,0,0,0,-32.096,1.379,0,-128.61,0,-48.25,89.563,1,1,3.995,0,-3.995,0
2.325e-20,0.017152,0,0,0,0,0,0,0,0,-32.07,1.3553,0,-128.38,0,-48.172,89.377,1,1,4,0,-4,0
2.3183e-20,0.017155,0,0,0,0,0,0,0,0,-32.043,1.3318,0,-128.15,0,-48.095,89.19,1,1,4.005,0,-4.005,0
2.3117e-20,0.017157,0,0,0,0,0,0,0,0,-32.016,1.3084,0,-127.91,0,-48.017,89.004,1,1,4.01,0,-4.01,0
2.305e-20,0.01716,0,0,0,0,0,0,0,0,-31.99,1.2851,0,-127.68,0,-47.939,88.818,1,1,4.015,0,-4.015,0
2.2984e-20,0.017162,0,0,0,0,0,0,0,0,-31.963,1.2619,0,-127.45,0,-47.861,88.632,1,1,4.02,0,-4.02,0
2.2918e-20,0.017165,0,0,0,0,0,0,0,0,-31.935,1.2389,0,-127.22,0,-47.783,88.446,1,1,4.025,0,-4.025,0
1.1422e-20,0.017167,0,0,0,0,0,0,0,0,-31.908,1.2161,0,-126.98,0,-47.705,88.26,1,1,4.03,0,-4.03,0
1.1389e-20,0.01717,0,0,0,0,0,0,0,0,-31.88,1.1934,0,-126.75,0,-47.627,88.075,1,1,4.035,0,-4.035,0
1.1356e-20,0.017172,0,0,0,0,0,0,0,0,-31.852,1.1708,0,-126.52,0,-47.549,87.889,1,1,4.04,0,-4.04,0
1.1323e-20,0.017175,0,0,0,0,0,0,0,0,-31.824,1.1483,0,-126.29,0,-47.47,87.704,1,1,4.045,0,-4.045,0
1.129e-20,0.017177,0,0,0,0,0,0,0,0,-31.796,1.126,0,-126.05,0,-47.392,87.518,1,1,4.05,0,-4.05,0
1.1257e-20,0.01718,0,0,0,0,0,0,0,0,-31.768,1.1039,0,-125.82,0,-47.313,87.333,1,1,4.055,0,-4.055,0
1.1224e-20,0.017182,0,0,0,0,0,0,0,0,-31.739,1.0818,0,-125.59,0,-47.235,87.148,1,1,4.06,0,-4.06,0
1.1191e-20,0.017184,0,0,0,0,0,0,0,0,-31.711,1.0599,0,-125.36,0,-47.156,86.963,1,1,4.065,0,-4.065,0
1.1158e-20,0.017187,0,0,0,0,0,0,0,0,-31.682,1.0382,0,-125.12,0,-47.077,86.778,1,1,4.07,0,-4.07,0
1.1125e-20,0.017189,0,0,0,0,0,0,0,0,-31.653,1.0165,0,-124.89,0,-46.999,86.593,1,1,4.075,0,-4.075,0
1.1092e-20,0.017192,0,0,0,0,0,0,0,0,-31.623,0.99507,0,-124.66,0,-46.92,86.408,1,1,4.08,0,-4.08,0
1.106e-20,0.017194,0,0,0,0,0,0,0,0,-31.594,0.97372,0,-124.42,0,-46.841,86.223,1,1,4.085,0,-4.085,0
-7.6432e-24,0.017197,0,0,0,0,0,0,0,0,-31.564,0.95252,0,-124.19,0,-46.762,86.038,1,1,4.09,0,-4.09,0
-7.6373e-24,0.017199,0,0,0,0,0,0,0,0,-31.534,0.93146,0,-123.96,0,-46.682,85.854,1,1,4.095,0,-4.095,0
-7.6312e-24,0.017202,0,0,0,0,0,0,0,0,-31.504,0.91053,0,-123.72,0,-46.603,85.669,1,1,4.1,0,-4.1,0
-7.6249e-24,0.017204,0,0,0,0,0,0,0,0,-31.474,0.88974,0,-123.49,0,-46.524,85.485,1,1,4.105,0,-4.105,0
-7.6184e-24,0.017207,0,0,0,0,0,0,0,0,-31.443,0.86908,0,-123.25,0,-46.444,85.301,1,1,4.11,0,-4.11,0
-7.6117e-24,0.017209,0,0,0,0,0,0,0,0,-31.413,0.84857,0,-123.02,0,-46.365,85.116,1,1,4.115,0,-4.115,0
-7.6049e-24,0.017211,0,0,0,0,0,0,0,0,-31.382,0.82819,0,-122.79,0,-46.285,84.932,1,1,4.12,0,-4.12,0
-7.5978e-24,0.017214,0,0,0,0,0,0,0,0,-31.351,0.80796,0,-122.55,0,-46.206,84.748,1,1,4.125,0,-4.125,0
-7.5906e-24,0.017216,0,0,0,0,0,0,0,0,-31.32,0.78786,0,-122.32,0,-46.126,84.564,1,1,4.13,0,-4.13,0
-7.5831e-24,0.017219,0,0,0,0,0,0,0,0,-31.288,0.76789,0,-122.09,0,-46.046,84.38,1,1,4.135,0,-4.135,0
-7.5755e-24,0.017221,0,0,0,0,0,0,0,0,-31.257,0.74807,0,-121.85,0,-45.966,84.197,1,1,4.14,0,-4.14,0
-7.5677e-24,0.017223,0,0,0,0,0,0,0,0,-31.225,0.72839,0,-121.62,0,-45.887,84.013,1,1,4.145,0,-4.145,0
-7.5596e-24,0.017226,0,0,0,0,0,0,0,0,-31.193,0.70884,0,-121.38,0,-45.807,83.83,1,1,4.15,0,-4.15,0
-7.5514e-24,0.017228,0,0,0,0,0,0,0,0,-31.161,0.68943,0,-121.15,0,-45.726,83.646,1,1,4.155,0,-4.155,0
-7.543e-24,0.017231,0,0,0,0,0,0,0,0,-31.128,0.67016,0,-120.91,0,-45.646,83.463,1,1,4.16,0,-4.16,0
-7.5345e-24,0.017233,0,0,0,0,0,0,0,0,-31.096,0.65102,0,-120.68,0,-45.566,83.279,1,1,4.165,0,-4.165,0
-7.5257e-24,0.017235,0,0,0,0,0,0,0,0,-31.063,0.63203,0,-120.44,0,-45.486,83.096,1,1,4.17,0,-4.17,0
-7.5167e-24,0.017238,0,0,0,0,0,0,0,0,-31.03,0.61317,0,-120.21,0,-45.405,82.913,1,1,4.175,0,-4.175,0
-7.5075e-24,0.01724,0,0,0,0,0,0,0,0,-30.997,0.59445,0,-119.97,0,-45.325,82.73,1,1,4.18,0,-4.18,0
-7.4982e-24,0.017243,0,0,0,0,0,0,0,0,-30.964,0.57587,0,-119.74,0,-45.244,82.547,1,1,4.185,0,-4.185,0
-7.4886e-24,0.017245,0,0,0,0,0,0,0,0,-30.93,0.55743,0,-119.5,0,-45.163,82.365,1,1,4.19,0,-4.19,0
-7.4789e-24,0.017247,0,0,0,0,0,0,0,0,-30.897,0.53912,0,-119.27,0,-45.083,82.182,1,1,4.195,0,-4.195,0
-7.469e-24,0.01725,0,0,0,0,0,0,0,0,-30.863,0.52096,0,-119.03,0,-45.002,81.999,1,1,4.2,0,-4.2,0
-7.4589e-24,0.017252,0,0,0,0,0,0,0,0,-30.829,0.50293,0,-118.8,0,-44.921,81.817,1,1,4.205,0,-4.205,0
-7.4486e-24,0.017254,0,0,0,0,0,0,0,0,-30.795,0.48504,0,-118.56,0,-44.84,81.634,1,1,4.21,0,-4.21,0
-7.4381e-24,0.017257,0,0,0,0,0,0,0,0,-30.76,0.46728,0,-118.33,0,-44.759,81.452,1,1,4.215,0,-4.215,0
-7.4274e-24,0.017259,0,0,0,0,0,0,0,0,-30.726,0.44967,0,-118.09,0,-44.678,81.27,1,1,4.22,0,-4.22,0
-7.4165e-24,0.017261,0,0,0,0,0,0,0,0,-30.691,0.43219,0,-117.86,0,-44.596,81.088,1,1,4.225,0,-4.225,0
-7.4054e-24,0.017264,0,0,0,0,0,0,0,0,-30.656,0.41485,0,-117.62,0,-44.515,80.906,1,1,4.23,0,-4.23,0
-7.3941e-24,0.017266,0,0,0,0,0,0,0,0,-30.621,0.39765,0,-117.39,0,-44.434,80.724,1,1,4.235,0,-4.235,0
-7.3827e-24,0.017268,0,0,0,0,0,0,0,0,-30.585,0.38059,0,-117.15,0,-44.352,80.542,1,1,4.24,0,-4.24,0
-7.371e-24,0.017271,0,0,0,0,0,0,0,0,-30.55,0.36367,0,-116.91,0,-44.271,80.36,1,1,4.245,0,-4.245,0
-7.3592e-24,0.017273,0,0,0,0,0,0,0,0,-30.514,0.34688,0,-116.68,0,-44.189,80.178,1,1,4.25,0,-4.25,0
-7.3472e-24,0.017275,0,0,0,0,0,0,0,0,-30.478,0.33023,0,-116.44,0,-44.107,79.997,1,1,4.255,0,-4.255,0
-7.3349e-24,0.017278,0,0,0,0,0,0,0,0,-30.442,0.31372,0,-116.21,0,-44.025,79.815,1,1,4.26,0,-4.26,0
-7.3225e-24,0.01728,0,0,0,0,0,0,0,0,-30.406,0.29735,0,-115.97,0,-43.944,79.634,1,1,4.265,0,-4.265,0
-7.3099e-24,0.017282,0,0,0,0,0,0,0,0,-30.369,0.28112,0,-115.73,0,-43.862,79.452,1,1,4.27,0,-4.27,0
-7.2971e-24,0.017285,0,0,0,0,0,0,0,0,-30.333,0.26502,0,-115.5,0,-43.78,79.271,1,1,4.275,0,-4.275,0
-7.2841e-24,0.017287,0,0,0,0,0,0,0,0,-30.296,0.24906,0,-115.26,0,-43.697,79.09,1,1,4.28,0,-4.28,0
-7.271e-24,0.017289,0,0,0,0,0,0,0,0,-30.259,0.23324,0,-115.02,0,-43.615,78.909,1,1,4.285,0,-4.285,0
-7.2576e-24,0.017291,0,0,0,0,0,0,0,0,-30.221,0.21756,0,-114.79,0,-43.533,78.728,1,1,4.29,0,-4.29,0
-7.244e-24,0.017294,0,0,0,0,0,0,0,0,-30.184,0.20202,0,-114.55,0,-43.451,78.547,1,1,4.295,0,-4.295,0
-7.2303e-24,0.017296,0,0,0,0,0,0,0,0,-30.146,0.18661,0,-114.31,0,-43.368,78.367,1,1,4.3,0,-4.3,0
-7.2163e-24,0.017298,0,0,0,0,0,0,0,0,-30.108,0.17134,0,-114.08,0,-43.286,78.186,1,1,4.305,0,-4.305,0
-7.2022e-24,0.017301,0,0,0,0,0,0,0,0,-30.07,0.15621,0,-113.84,0,-43.203,78.005,1,1,4.31,0,-4.31,0
-7.1879e-24,0.017303,0,0,0,0,0,0,0,0,-30.032,0.14122,0,-113.6,0,-43.12,77.825,1,1,4.315,0,-4.315,0
-7.1734e-24,0.017305,0,0,0,0,0,0,0,0,-29.994,0.12637,0,-113.37,0,-43.037,77.645,1,1,4.32,0,-4.32,0
-7.1587e-24,0.017307,0,0,0,0,0,0,0,0,-29.955,0.11165,0,-113.13,0,-42.955,77.464,1,1,4.325,0,-4.325,0
-7.1438e-24,0.01731,0,0,0,0,0,0,0,0,-29.917,0.097076,0,-112.89,0,-42.872,77.284,1,1,4.33,0,-4.33,0
-7.1287e-24,0.017312,0,0,0,0,0,0,0,0,-29.878,0.082637,0,-112.66,0,-42.789,77.104,1,1,4.335,0,-4.335,0
-7.1134e-24,0.017314,0,0,0,0,0,0,0,0,-29.838,0.068335,0,-112.42,0,-42.706,76.924,1,1,4.34,0,-4.34,0
-7.0979e-24,0.017316,0,0,0,0,0,0,0,0,-29.799,0.054173,0,-112.18,0,-42.622,76.744,1,1,4.345,0,-4.345,0
-7.0823e-24,0.017319,0,0,0,0,0,0,0,0,-29.76,0.040148,0,-111.94,0,-42.539,76.564,1,1,4.35,0,-4.35,0
-7.0664e-24,0.017321,0,0,0,0,0,0,0,0,-29.72,0.02626,0,-111.7,0,-42.456,76.385,1,1,4.355,0,-4.355,0
-7.0504e-24,0.017323,0,0,0,0,0,0,0,0,-29.68,0.012511,0,-111.47,0,-42.372,76.205,1,1,4.36,0,-4.36,0
-7.0341e-24,0.017325,0,0,0,0,0,0,0,0,-29.64,-0.0010987,0,-111.23,0,-42.289,76.025,1,1,4.365,0,-4.365,0
-7.0177e-24,0.017328,0,0,0,0,0,0,0,0,-29.6,-0.014572,0,-110.99,0,-42.205,75.846,1,1,4.37,0,-4.37,0
-7.0011e-24,0.01733,0,0,0,0,0,0,0,0,-29.559,-0.027907,0,-110.75,0,-42.122,75.667,1,1,4.375,0,-4.375,0
-6.9843e-24,0.017332,0,0,0,0,0,0,0,0,-29.519,-0.041104,0,-110.52,0,-42.038,75.487,1,1,4.38,0,-4.38,0
-6.9673e-24,0.017334,0,0,0,0,0,0,0,0,-29.478,-0.054163,0,-110.28,0,-41.954,75.308,1,1,4.385,0,-4.385,0
-6.9501e-24,0.017336,0,0,0,0,0,0,0,0,-29.437,-0.067083,0,-110.04,0,-41.87,75.129,1,1,4.39,0,-4.39,0
-6.9327e-24,0.017339,0,0,0,0,0,0,0,0,-29.395,-0.079865,0,-109.8,0,-41.786,74.95,1,1,4.395,0,-4.395,0
-6.9151e-24,0.017341,0,0,0,0,0,0,0,0,-29.354,-0.09251,0,-109.56,0,-41.702,74.771,1,1,4.4,0,-4.4,0
-6.8973e-24,0.017343,0,0,0,0,0,0,0,0,-29.312,-0.10502,0,-109.32,0,-41.618,74.592,1,1,4.405,0,-4.405,0
-6.8794e-24,0.017345,0,0,0,0,0,0,0,0,-29.271,-0.11738,0,-109.09,0,-41.534,74.414,1,1,4.41,0,-4.41,0
-6.8612e-24,0.017347,0,0,0,0,0,0,0,0,-29.229,-0.12961,0,-108.85,0,-41.449,74.235,1,1,4.415,0,-4.415,0
-6.8429e-24,0.01735,0,0,0,0,0,0,0,0,-29.187,-0.14171,0,-108.61,0,-41.365,74.057,1,1,4.42,0,-4.42,0
-6.8244e-24,0.017352,0,0,0,0,0,0,0,0,-29.144,-0.15366,0,-108.37,0,-41.281,73.878,1,1,4.425,0,-4.425,0
-6.8056e-24,0.017354,0,0,0,0,0,0,0,0,-29.102,-0.16548,0,-108.13,0,-41.196,73.7,1,1,4.43,0,-4.43,0
-6.7867e-24,0.017356,0,0,0,0,0,0,0,0,-29.059,-0.17716,0,-107.89,0,-41.111,73.522,1,1,4.435,0,-4.435,0
-6.7676e-24,0.017358,0,0,0,0,0,0,0,0,-29.016,-0.1887,0,-107.65,0,-41.027,73.344,1,1,4.44,0,-4.44,0
-6.7483e-24,0.01736,0,0,0,0,0,0,0,0,-28.973,-0.2001,0,-107.41,0,-40.942,73.166,1,1,4.445,0,-4.445,0
-6.7288e-24,0.017363,0,0,0,0,0,0,0,0,-28.93,-0.21136,0,-107.17,0,-40.857,72.988,1,1,4.45,0,-4.45,0
-6.7092e-24,0.017365,0,0,0,0,0,0,0,0,-28.886,-0.22249,0,-106.93,0,-40.772,72.81,1,1,4.455,0,-4.455,0
-6.6893e-24,0.017367,0,0,0,0,0,0,0,0,-28.842,-0.23347,0,-106.7,0,-40.687,72.632,1,1,4.46,0,-4.46,0
-6.6692e-24,0.017369,0,0,0,0,0,0,0,0,-28.799,-0.24432,0,-106.46,0,-40.602,72.454,1,1,4.465,0,-4.465,0
-6.649e-24,0.017371,0,0,0,0,0,0,0,0,-28.755,-0.25504,0,-106.22,0,-40.517,72.277,1,1,4.47,0,-4.47,0
-6.6285e-24,0.017373,0,0,0,0,0,0,0,0,-28.71,-0.26561,0,-105.98,0,-40.431,72.099,1,1,4.475,0,-4.475,0
-6.6079e-24,0.017376,0,0,0,0,0,0,0,0,-28.666,-0.27604,0,-105.74,0,-40.346,71.922,1,1,4.48,0,-4.48,0
-6.5871e-24,0.017378,0,0,0,0,0,0,0,0,-28.621,-0.28634,0,-105.5,0,-40.261,71.745,1,1,4.485,0,-4.485,0
-6.566e-24,0.01738,0,0,0,0,0,0,0,0,-28.576,-0.2965,0,-105.26,0,-40.175,71.567,1,1,4.49,0,-4.49,0
8.5056e-21,0.017382,0,0,0,0,0,0,0,0,-28.531,-0.30652,0,-105.02,0,-40.09,71.39,1,1,4.495,0,-4.495,0
8.476e-21,0.017384,0,0,0,0,0,0,0,0,-28.486,-0.31641,0,-104.78,0,-40.004,71.213,1,1,4.5,0,-4.5,0
8.4465e-21,0.017386,0,0,0,0,0,0,0,0,-28.441,-0.32615,0,-104.54,0,-39.918,71.036,1,1,4.505,0,-4.505,0
8.417e-21,0.017388,0,0,0,0,0,0,0,0,-28.395,-0.33576,0,-104.3,0,-39.832,70.86,1,1,4.51,0,-4.51,0
8.3875e-21,0.01739,0,0,0,0,0,0,0,0,-28.35,-0.34523,0,-104.06,0,-39.746,70.683,1,1,4.515,0,-4.515,0
8.3581e-21,0.017392,0,0,0,0,0,0,0,0,-28.304,-0.35456,0,-103.82,0,-39.66,70.506,1,1,4.52,0,-4.52,0
8.3287e-21,0.017395,0,0,0,0,0,0,0,0,-28.257,-0.36375,0,-103.58,0,-39.574,70.33,1,1,4.525,0,-4.525,0
8.2994e-21,0.017397,0,0,0,0,0,0,0,0,-28.211,-0.37281,0,-103.34,0,-39.488,70.153,1,1,4.53,0,-4.53,0
8.2701e-21,0.017399,0,0,0,0,0,0,0,0,-28.165,-0.38172,0,-103.1,0,-39.402,69.977,1,1,4.535,0,-4.535,0
8.2408e-21,0.017401,0,0,0,0,0,0,0,0,-28.118,-0.3905,0,-102.85,0,-39.316,69.801,1,1,4.54,0,-4.54,0
8.2116e-21,0.017403,0,0,0,0,0,0,0,0,-28.071,-0.39914,0,-102.61,0,-39.229,69.624,1,1,4.545,0,-4.545,0
8.1824e-21,0.017405,0,0,0,0,0,0,0,0,-28.024,-0.40765,0,-102.37,0,-39.143,69.448,1,1,4.55,0,-4.55,0
1.6313e-20,0.017407,0,0,0,0,0,0,0,0,-27.977,-0.41601,0,-102.13,0,-39.056,69.272,1,1,4.555,0,-4.555,0
1.6254e-20,0.017409,0,0,0,0,0,0,0,0,-27.929,-0.42424,0,-101.89,0,-38.97,69.096,1,1,4.56,0,-4.56,0
1.6196e-20,0.017411,0,0,0,0,0,0,0,0,-27.882,-0.43232,0,-101.65,0,-38.883,68.921,1,1,4.565,0,-4.565,0
1.6138e-20,0.017413,0,0,0,0,0,0,0,0,-27.834,-0.44028,0,-101.41,0,-38.796,68.745,1,1,4.57,0,-4.57,0
1.608e-20,0.017415,0,0,0,0,0,0,0,0,-27.786,-0.44809,0,-101.17,0,-38.709,68.569,1,1,4.575,0,-4.575,0
1.6022e-20,0.017417,0,0,0,0,0,0,0,0,-27.738,-0.45576,0,-100.93,0,-38.622,68.394,1,1,4.58,0,-4.58,0
1.5964e-20,0.017419,0,0,0,0,0,0,0,0,-27.689,-0.4633,0,-100.68,0,-38.535,68.218,1,1,4.585,0,-4.585,0
1.5907e-20,0.017422,0,0,0,0,0,0,0,0,-27.641,-0.4707,0,-100.44,0,-38.448,68.043,1,1,4.59,0,-4.59,0
1.5849e-20,0.017424,0,0,0,0,0,0,0,0,-27.592,-0.47796,0,-100.2,0,-38.361,67.868,1,1,4.595,0,-4.595,0
1.5791e-20,0.017426,0,0,0,0,0,0,0,0,-27.543,-0.48508,0,-99.96,0,-38.273,67.693,1,1,4.6,0,-4.6,0
1.5734e-20,0.017428,0,0,0,0,0,0,0,0,-27.494,-0.49206,0,-99.719,0,-38.186,67.518,1,1,4.605,0,-4.605,0
1.5676e-20,0.01743,0,0,0,0,0,0,0,0,-27.444,-0.49891,0,-99.477,0,-38.099,67.343,1,1,4.61,0,-4.61,0
1.5619e-20,0.017432,0,0,0,0,0,0,0,0,-27.395,-0.50562,0,-99.235,0,-38.011,67.168,1,1,4.615,0,-4.615,0
1.5561e-20,0.017434,0,0,0,0,0,0,0,0,-27.345,-0.51219,0,-98.993,0,-37.923,66.993,1,1,4.62,0,-4.62,0
-5.9406e-24,0.017436,0,0,0,0,0,0,0,0,-27.304,-0.51731,0,-98.803,0,-37.854,66.857,1,1,4.625,0,-4.625,0
-5.964e-24,0.017438,0,0,0,0,0,0,0,0,-27.286,-0.51914,0,-98.743,0,-37.831,66.818,1,1,4.63,0,-4.63,0
-5.9873e-24,0.01744,0,0,0,0,0,0,0,0,-27.267,-0.52092,0,-98.683,0,-37.807,66.779,1,1,4.635,0,-4.635,0
-6.0103e-24,0.017442,0,0,0,0,0,0,0,0,-27.248,-0.52266,0,-98.623,0,-37.783,66.74,1,1,4.64,0,-4.64,0
-6.0333e-24,0.017444,0,0,0,0,0,0,0,0,-27.229,-0.52436,0,-98.563,0,-37.76,66.7,1,1,4.645,0,-4.645,0
-6.056e-24,0.017446,0,0,0,0,0,0,0,0,-27.211,-0.52603,0,-98.503,0,-37.736,66.661,1,1,4.65,0,-4.65,0
-6.0786e-24,0.017448,0,0,0,0,0,0,0,0,-27.191,-0.52766,0,-98.443,0,-37.712,66.622,1,1,4.655,0,-4.655,0
-6.101e-24,0.01745,0,0,0,0,0,0,0,0,-27.172,-0.52925,0,-98.382,0,-37.688,66.583,1,1,4.66,0,-4.66,0
-6.1233e-24,0.017452,0,0,0,0,0,0,0,0,-27.153,-0.5308,0,-98.322,0,-37.664,66.544,1,1,4.665,0,-4.665,0
-6.1454e-24,0.017454,0,0,0,0,0,0,0,0,-27.134,-0.53231,0,-98.261,0,-37.64,66.504,1,1,4.67,0,-4.67,0
-6.1673e-24,0.017456,0,0,0,0,0,0,0,0,-27.114,-0.53378,0,-98.2,0,-37.616,66.465,1,1,4.675,0,-4.675,0
-6.1891e-24,0.017459,0,0,0,0,0,0,0,0,-27.095,-0.53522,0,-98.139,0,-37.592,66.426,1,1,4.68,0,-4.68,0
-6.2107e-24,0.017461,0,0,0,0,0,0,0,0,-27.075,-0.53662,0,-98.079,0,-37.568,66.387,1,1,4.685,0,-4.685,0
-6.2321e-24,0.017463,0,0,0,0,0,0,0,0,-27.055,-0.53797,0,-98.018,0,-37.543,66.347,1,1,4.69,0,-4.69,0
-6.2534e-24,0.017465,0,0,0,0,0,0,0,0,-27.035,-0.53929,0,-97.957,0,-37.519,66.308,1,1,4.695,0,-4.695,0
-6.2745e-24,0.017467,0,0,0,0,0,0,0,0,-27.016,-0.54057,0,-97.895,0,-37.495,66.269,1,1,4.7,0,-4.7,0
-6.2954e-24,0.017469,0,0,0,0,0,0,0,0,-26.995,-0.54182,0,-97.834,0,-37.47,66.23,1,1,4.705,0,-4.705,0
-6.3162e-24,0.017471,0,0,0,0,0,0,0,0,-26.975,-0.54302,0,-97.773,0,-37.446,66.19,1,1,4.71,0,-4.71,0
-6.3368e-24,0.017473,0,0,0,0,0,0,0,0,-26.955,-0.54419,0,-97.711,0,-37.421,66.151,1,1,4.715,0,-4.715,0
-6.3572e-24,0.017475,0,0,0,0,0,0,0,0,-26.935,-0.54531,0,-97.65,0,-37.397,66.112,1,1,4.72,0,-4.72,0
-6.3775e-24,0.017477,0,0,0,0,0,0,0,0,-26.914,-0.5464,0,-97.588,0,-37.372,66.073,1,1,4.725,0,-4.725,0
-6.3976e-24,0.017479,0,0,0,0,0,0,0,0,-26.894,-0.54745,0,-97.527,0,-37.347,66.033,1,1,4.73,0,-4.73,0
-6.4175e-24,0.017481,0,0,0,0,0,0,0,0,-26.873,-0.54846,0,-97.465,0,-37.323,65.994,1,1,4.735,0,-4.735,0
-6.4373e-24,0.017483,0,0,0,0,0,0,0,0,-26.852,-0.54944,0,-97.403,0,-37.298,65.955,1,1,4.74,0,-4.74,0
-6.4569e-24,0.017485,0,0,0,0,0,0,0,0,-26.831,-0.55037,0,-97.341,0,-37.273,65.916,1,1,4.745,0,-4.745,0
-6.4763e-24,0.017487,0,0,0,0,0,0,0,0,-26.81,-0.55127,0,-97.279,0,-37.248,65.876,1,1,4.75,0,-4.75,0
-6.4956e-24,0.017489,0,0,0,0,0,0,0,0,-26.789,-0.55212,0,-97.217,0,-37.223,65.837,1,1,4.755,0,-4.755,0
-6.5147e-24,0.017491,0,0,0,0,0,0,0,0,-26.768,-0.55294,0,-97.155,0,-37.198,65.798,1,1,4.76,0,-4.76,0
-6.5336e-24,0.017493,0,0,0,0,0,0,0,0,-26.747,-0.55372,0,-97.093,0,-37.173,65.759,1,1,4.765,0,-4.765,0
-6.5524e-24,0.017495,0,0,0,0,0,0,0,0,-26.725,-0.55447,0,-97.03,0,-37.148,65.719,1,1,4.77,0,-4.77,0
-6.571e-24,0.017497,0,0,0,0,0,0,0,0,-26.704,-0.55517,0,-96.968,0,-37.123,65.68,1,1,4.775,0,-4.775,0
-6.5895e-24,0.017499,0,0,0,0,0,0,0,0,-26.682,-0.55584,0,-96.905,0,-37.097,65.641,1,1,4.78,0,-4.78,0
-6.6077e-24,0.017502,0,0,0,0,0,0,0,0,-26.661,-0.55646,0,-96.842,0,-37.072,65.601,1,1,4.785,0,-4.785,0
-6.6258e-24,0.017504,0,0,0,0,0,0,0,0,-26.639,-0.55705,0,-96.78,0,-37.047,65.562,1,1,4.79,0,-4.79,0
-6.6438e-24,0.017506,0,0,0,0,0,0,0,0,-26.617,-0.5576,0,-96.717,0,-37.021,65.523,1,1,4.795,0,-4.795,0
-6.6616e-24,0.017508,0,0,0,0,0,0,0,0,-26.595,-0.55811,0,-96.654,0,-36.996,65.484,1,1,4.8,0,-4.8,0
-6.6792e-24,0.01751,0,0,0,0,0,0,0,0,-26.573,-0.55858,0,-96.591,0,-36.97,65.444,1,1,4.805,0,-4.805,0
-6.6966e-24,0.017512,0,0,0,0,0,0,0,0,-26.55,-0.55902,0,-96.528,0,-36.944,65.405,1,1,4.81,0,-4.81,0
-6.7139e-24,0.017514,0,0,0,0,0,0,0,0,-26.528,-0.55941,0,-96.465,0,-36.919,65.366,1,1,4.815,0,-4.815,0
-6.731e-24,0.017516,0,0,0,0,0,0,0,0,-26.506,-0.55977,0,-96.401,0,-36.893,65.327,1,1,4.82,0,-4.82,0
-6.748e-24,0.017518,0,0,0,0,0,0,0,0,-26.483,-0.56009,0,-96.338,0,-36.867,65.287,1,1,4.825,0,-4.825,0
-6.7648e-24,0.01752,0,0,0,0,0,0,0,0,-26.461,-0.56037,0,-96.275,0,-36.841,65.248,1,1,4.83,0,-4.83,0
-6.7814e-24,0.017522,0,0,0,0,0,0,0,0,-26.438,-0.56061,0,-96.211,0,-36.815,65.209,1,1,4.835,0,-4.835,0
-6.7978e-24,0.017524,0,0,0,0,0,0,0,0,-26.415,-0.56081,0,-96.147,0,-36.789,65.169,1,1,4.84,0,-4.84,0
-6.8141e-24,0.017526,0,0,0,0,0,0,0,0,-26.392,-0.56098,0,-96.084,0,-36.763,65.13,1,1,4.845,0,-4.845,0
-6.8302e-24,0.017528,0,0,0,0,0,0,0,0,-26.369,-0.5611,0,-96.02,0,-36.737,65.091,1,1,4.85,0,-4.85,0
-6.8462e-24,0.01753,0,0,0,0,0,0,0,0,-26.346,-0.56119,0,-95.956,0,-36.711,65.051,1,1,4.855,0,-4.855,0
-6.862e-24,0.017532,0,0,0,0,0,0,0,0,-26.323,-0.56124,0,-95.892,0,-36.685,65.012,1,1,4.86,0,-4.86,0
-6.8776e-24,0.017534,0,0,0,0,0,0,0,0,-26.299,-0.56125,0,-95.828,0,-36.659,64.973,1,1,4.865,0,-4.865,0
-6.8931e-24,0.017536,0,0,0,0,0,0,0,0,-26.276,-0.56122,0,-95.764,0,-36.632,64.934,1,1,4.87,0,-4.87,0
-6.9084e-24,0.017538,0,0,0,0,0,0,0,0,-26.252,-0.56116,0,-95.699,0,-36.606,64.894,1,1,4.875,0,-4.875,0
-6.9235e-24,0.01754,0,0,0,0,0,0,0,0,-26.229,-0.56105,0,-95.635,0,-36.58,64.855,1,1,4.88,0,-4.88,0
-6.9384e-24,0.017542,0,0,0,0,0,0,0,0,-26.205,-0.56091,0,-95.571,0,-36.553,64.816,1,1,4.885,0,-4.885,0
-6.9532e-24,0.017544,0,0,0,0,0,0,0,0,-26.181,-0.56073,0,-95.506,0,-36.527,64.776,1,1,4.89,0,-4.89,0
-6.9679e-24,0.017546,0,0,0,0,0,0,0,0,-26.157,-0.5605,0,-95.442,0,-36.5,64.737,1,1,4.895,0,-4.895,0
-6.9823e-24,0.017548,0,0,0,0,0,0,0,0,-26.133,-0.56025,0,-95.377,0,-36.473,64.698,1,1,4.9,0,-4.9,0
-6.9966e-24,0.01755,0,0,0,0,0,0,0,0,-26.109,-0.55995,0,-95.312,0,-36.447,64.658,1,1,4.905,0,-4.905,0
-7.0107e-24,0.017552,0,0,0,0,0,0,0,0,-26.085,-0.55961,0,-95.247,0,-36.42,64.619,1,1,4.91,0,-4.91,0
-7.0247e-24,0.017554,0,0,0,0,0,0,0,0,-26.06,-0.55924,0,-95.182,0,-36.393,64.58,1,1,4.915,0,-4.915,0
-7.0385e-24,0.017556,0,0,0,0,0,0,0,0,-26.036,-0.55882,0,-95.117,0,-36.366,64.54,1,1,4.92,0,-4.92,0
-7.0521e-24,0.017558,0,0,0,0,0,0,0,0,-26.011,-0.55837,0,-95.052,0,-36.339,64.501,1,1,4.925,0,-4.925,0
-7.0656e-24,0.01756,0,0,0,0,0,0,0,0,-25.987,-0.55788,0,-94.987,0,-36.312,64.462,1,1,4.93,0,-4.93,0
-7.0789e-24,0.017562,0,0,0,0,0,0,0,0,-25.962,-0.55735,0,-94.922,0,-36.285,64.422,1,1,4.935,0,-4.935,0
-7.092e-24,0.017563,0,0,0,0,0,0,0,0,-25.937,-0.55679,0,-94.856,0,-36.258,64.383,1,1,4.94,0,-4.94,0
-7.105e-24,0.017565,0,0,0,0,0,0,0,0,-25.912,-0.55618,0,-94.791,0,-36.231,64.344,1,1,4.945,0,-4.945,0
-7.1178e-24,0.017567,0,0,0,0,0,0,0,0,-25.887,-0.55554,0,-94.725,0,-36.204,64.304,1,1,4.95,0,-4.95,0
-7.1305e-24,0.017569,0,0,0,0,0,0,0,0,-25.862,-0.55486,0,-94.659,0,-36.176,64.265,1,1,4.955,0,-4.955,0
-7.1429e-24,0.017571,0,0,0,0,0,0,0,0,-25.837,-0.55413,0,-94.594,0,-36.149,64.226,1,1,4.96,0,-4.96,0
-7.1552e-24,0.017573,0,0,0,0,0,0,0,0,-25.811,-0.55337,0,-94.528,0,-36.122,64.186,1,1,4.965,0,-4.965,0
-7.1674e-24,0.017575,0,0,0,0,0,0,0,0,-25.786,-0.55258,0,-94.462,0,-36.094,64.147,1,1,4.97,0,-4.97,0
-7.1793e-24,0.017577,0,0,0,0,0,0,0,0,-25.76,-0.55174,0,-94.396,0,-36.067,64.108,1,1,4.975,0,-4.975,0
-7.1912e-24,0.017579,0,0,0,0,0,0,0,0,-25.734,-0.55086,0,-94.33,0,-36.039,64.068,1,1,4.98,0,-4.98,0
-7.2028e-24,0.017581,0,0,0,0,0,0,0,0,-25.709,-0.54995,0,-94.264,0,-36.012,64.029,1,1,4.985,0,-4.985,0
-7.2143e-24,0.017583,0,0,0,0,0,0,0,0,-25.683,-0.549,0,-94.197,0,-35.984,63.99,1,1,4.99,0,-4.99,0
-7.2256e-24,0.017585,0,0,0,0,0,0,0,0,-25.657,-0.54801,0,-94.131,0,-35.956,63.95,1,1,4.995,0,-4.995,0
-7.2367e-24,0.017587,0,0,0,0,0,0,0,0,-25.631,-0.54698,0,-94.064,0,-35.928,63.911,1,1,5,0,-5,0
