"CONTACT:0","CONTACT:1","CONTACT:2","CONTACT:3","CONTACT:4","CONTACT:5","E:0","E:1","E:2","E:3","E:4","E:5","ERROR","E_Mises","E_Principal:0","E_Principal:1","E_Principal:2","S:0","S:1","S:2","S:3","S:4","S:5","S_Mises","S_Principal:0","S_Principal:1","S_Principal:2","U:0","U:1","U:2","vtkValidPointMask","arc_length","Points:0","Points:1","Points:2"
0,0,0,0,0,0,-0.0029785,-0.0054861,-3.211e-37,0.0031911,-3.5635e-20,2.2065e-21,39.246,0.0072923,-0.0076609,-0.00080365,2.1605e-37,-1439.2,-1810.3,-984.59,482.7,-5.3271e-15,2.5673e-16,1101,-2141.9,-1107.6,-984.59,0,0.01016,0,1,0,0,0,0
0,0,0,0,0,0,-0.0029083,-0.0054735,-3.218e-37,0.0031592,-3.0045e-20,2.2575e-21,39.246,0.0072633,-0.0076136,-0.00078757,1.9286e-05,-1418.8,-1798.9,-974.94,477.94,-4.4738e-15,2.655e-16,1096.7,-2125.2,-1095.5,-971.97,0,0.010188,0,1,0.005,0,-0.005,0
0,0,0,0,0,0,-0.0028382,-0.005461,-3.225e-37,0.0031273,-2.4455e-20,2.3084e-21,39.246,0.0072342,-0.0075663,-0.0007715,3.8573e-05,-1398.5,-1787.5,-965.28,473.18,-3.6206e-15,2.7428e-16,1092.5,-2108.5,-1083.4,-959.36,0,0.010215,0,1,0.01,0,-0.01,0
0,0,0,0,0,0,-0.0027681,-0.0054485,-3.232e-37,0.0030954,-1.8865e-20,2.3594e-21,39.246,0.0072052,-0.007519,-0.00075543,5.7859e-05,-1378.1,-1776.1,-955.63,468.41,-2.7673e-15,2.8305e-16,1088.2,-2091.8,-1071.3,-946.75,0,0.010243,0,1,0.015,0,-0.015,0
0,0,0,0,0,0,-0.002698,-0.005436,-3.239e-37,0.0030634,-1.3276e-20,2.4103e-21,39.246,0.0071761,-0.0074718,-0.00073935,7.7146e-05,-1357.8,-1764.7,-945.98,463.65,-1.914e-15,2.9183e-16,1084,-2075.1,-1059.2,-934.13,0,0.01027,0,1,0.02,0,-0.02,0
0,0,0,0,0,0,-0.0026279,-0.0054235,-3.246e-37,0.0030315,-7.6859e-21,2.4612e-21,39.246,0.007147,-0.0074245,-0.00072328,9.6432e-05,-1337.4,-1753.3,-936.32,458.89,-1.0607e-15,3.006e-16,1079.7,-2058.4,-1047,-921.52,0,0.010298,0,1,0.025,0,-0.025,0
0,0,0,0,0,0,-0.0025577,-0.005411,-3.2531e-37,0.0029996,-2.0962e-21,2.5122e-21,39.246,0.007118,-0.0073772,-0.00070721,0.00011572,-1317,-1741.9,-926.67,454.12,-2.0747e-16,3.0938e-16,1075.5,-2041.7,-1034.9,-908.9,0,0.010325,0,1,0.03,0,-0.03,0
0,0,0,0,0,0,-0.0024876,-0.0053985,-3.2601e-37,0.0029677,3.4936e-21,2.5631e-21,39.246,0.0070889,-0.0073299,-0.00069114,0.000135,-1296.7,-1730.4,-917.02,449.36,6.458e-16,3.1815e-16,1071.2,-2025,-1022.8,-896.29,0,0.010353,0,1,0.035,0,-0.035,0
0,0,0,0,0,0,-0.0024175,-0.0053859,-3.2671e-37,0.0029358,9.0833e-21,2.614e-21,39.246,0.0070599,-0.0072827,-0.00067506,0.00015429,-1276.3,-1719,-907.36,444.6,1.4991e-15,3.2693e-16,1067,-2008.3,-1010.7,-883.68,0,0.01038,0,1,0.04,0,-0.04,0
0,0,0,0,0,0,-0.0023474,-0.0053734,-3.2741e-37,0.0029038,1.4673e-20,2.665e-21,39.246,0.0070308,-0.0072354,-0.00065899,0.00017358,-1256,-1707.6,-897.71,439.84,2.3523e-15,3.357e-16,1062.7,-1991.6,-998.59,-871.06,0,0.010408,0,1,0.045,0,-0.045,0
0,0,0,0,0,0,-0.0022773,-0.0053609,-3.2811e-37,0.0028719,2.0263e-20,2.7159e-21,39.246,0.0070017,-0.0071881,-0.00064292,0.00019286,-1235.6,-1696.2,-888.06,435.07,3.2056e-15,3.4448e-16,1058.5,-1975,-986.48,-858.45,0,0.010435,0,1,0.05,0,-0.05,0
0,0,0,0,0,0,-0.0022071,-0.0053484,-3.2881e-37,0.00284,2.5853e-20,2.7668e-21,39.246,0.0069727,-0.0071408,-0.00062684,0.00021215,-1215.3,-1684.8,-878.4,430.31,4.0589e-15,3.5325e-16,1054.2,-1958.3,-974.36,-845.83,0,0.010463,0,1,0.055,0,-0.055,0
0,0,0,0,0,0,-0.002137,-0.0053359,-3.2952e-37,0.0028081,3.1442e-20,2.8178e-21,39.246,0.0069436,-0.0070936,-0.00061077,0.00023144,-1194.9,-1673.4,-868.75,425.55,4.9122e-15,3.6203e-16,1050,-1941.6,-962.25,-833.22,0,0.01049,0,1,0.06,0,-0.06,0
0,0,0,0,0,0,-0.0020669,-0.0053234,-3.3022e-37,0.0027761,3.7032e-20,2.8687e-21,39.246,0.0069145,-0.0070463,-0.0005947,0.00025072,-1174.6,-1662,-859.1,420.78,5.7654e-15,3.708e-16,1045.7,-1924.9,-950.13,-820.61,0,0.010518,0,1,0.065,0,-0.065,0
0,0,0,0,0,0,-0.0019968,-0.0053109,-3.3092e-37,0.0027442,4.2622e-20,2.9197e-21,39.246,0.0068855,-0.006999,-0.00057863,0.00027001,-1154.2,-1650.5,-849.44,416.02,6.6187e-15,3.7958e-16,1041.5,-1908.2,-938.02,-807.99,0,0.010545,0,1,0.07,0,-0.07,0
0,0,0,0,0,0,-0.0019267,-0.0052983,-3.3162e-37,0.0027123,4.8212e-20,2.9706e-21,39.246,0.0068564,-0.0069517,-0.00056255,0.0002893,-1133.8,-1639.1,-839.79,411.26,7.472e-15,3.8835e-16,1037.2,-1891.5,-925.91,-795.38,0,0.010573,0,1,0.075,0,-0.075,0
0,0,0,0,0,0,-0.0018565,-0.0052858,-3.3232e-37,0.0026804,5.3801e-20,3.0215e-21,39.246,0.0068274,-0.0069045,-0.00054648,0.00030858,-1113.5,-1627.7,-830.14,406.5,8.3253e-15,3.9713e-16,1033,-1874.8,-913.79,-782.76,0,0.0106,0,1,0.08,0,-0.08,0
0,0,0,0,0,0,-0.0017864,-0.0052733,-3.3302e-37,0.0026485,5.9391e-20,3.0725e-21,39.246,0.0067983,-0.0068572,-0.00053041,0.00032787,-1093.1,-1616.3,-820.48,401.73,9.1785e-15,4.059e-16,1028.7,-1858.1,-901.68,-770.15,0,0.010628,0,1,0.085,0,-0.085,0
0,0,0,0,0,0,-0.0017163,-0.0052608,-3.3373e-37,0.0026165,6.4981e-20,3.1234e-21,39.246,0.0067692,-0.0068099,-0.00051433,0.00034716,-1072.8,-1604.9,-810.83,396.97,1.0032e-14,4.1468e-16,1024.5,-1841.4,-889.57,-757.54,0,0.010655,0,1,0.09,0,-0.09,0
0,0,0,0,0,0,-0.0016462,-0.0052483,-3.3443e-37,0.0025846,7.0571e-20,3.1743e-21,39.246,0.0067402,-0.0067626,-0.00049826,0.00036644,-1052.4,-1593.5,-801.18,392.21,1.0885e-14,4.2345e-16,1020.2,-1824.7,-877.45,-744.92,0,0.010683,0,1,0.095,0,-0.095,0
0,0,0,0,0,0,-0.0015761,-0.0052358,-3.3513e-37,0.0025527,7.616e-20,3.2253e-21,39.246,0.0067111,-0.0067154,-0.00048219,0.00038573,-1032.1,-1582.1,-791.52,387.44,1.1738e-14,4.3223e-16,1016,-1808,-865.34,-732.31,0,0.01071,0,1,0.1,0,-0.1,0
0,0,0,0,0,0,-0.0015059,-0.0052233,-3.3583e-37,0.0025208,8.175e-20,3.2762e-21,39.246,0.0066821,-0.0066681,-0.00046612,0.00040501,-1011.7,-1570.6,-781.87,382.68,1.2592e-14,4.41e-16,1011.7,-1791.3,-853.22,-719.69,0,0.010738,0,1,0.105,0,-0.105,0
0,0,0,0,0,0,-0.0014358,-0.0052107,-3.3653e-37,0.0024888,8.734e-20,3.3272e-21,39.246,0.006653,-0.0066208,-0.00045004,0.0004243,-991.36,-1559.2,-772.22,377.92,1.3445e-14,4.4978e-16,1007.5,-1774.6,-841.11,-707.08,0,0.010765,0,1,0.11,0,-0.11,0
0,0,0,0,0,0,-0.0013657,-0.0051982,-3.3723e-37,0.0024569,9.293e-20,3.3781e-21,39.246,0.0066239,-0.0065735,-0.00043397,0.00044359,-971,-1547.8,-762.56,373.16,1.4298e-14,4.5855e-16,1003.3,-1757.9,-829,-694.46,0,0.010793,0,1,0.115,0,-0.115,0
0,0,0,0,0,0,-0.0012956,-0.0051857,-3.3793e-37,0.002425,9.8519e-20,3.429e-21,39.246,0.0065949,-0.0065263,-0.0004179,0.00046287,-950.65,-1536.4,-752.91,368.39,1.5151e-14,4.6733e-16,999,-1741.2,-816.88,-681.85,0,0.01082,0,1,0.12,0,-0.12,0
0,0,0,0,0,0,-0.0012255,-0.0051732,-3.3864e-37,0.0023931,1.0411e-19,3.48e-21,39.246,0.0065658,-0.006479,-0.00040182,0.00048216,-930.29,-1525,-743.26,363.63,1.6005e-14,4.761e-16,994.76,-1724.5,-804.77,-669.24,0,0.010848,0,1,0.125,0,-0.125,0
0,0,0,0,0,0,-0.0011553,-0.0051607,-3.3934e-37,0.0023611,1.097e-19,3.5309e-21,39.246,0.0065368,-0.0064317,-0.00038575,0.00050145,-909.94,-1513.6,-733.6,358.87,1.6858e-14,4.8488e-16,990.51,-1707.8,-792.66,-656.62,0,0.010875,0,1,0.13,0,-0.13,0
0,0,0,0,0,0,-0.0010852,-0.0051482,-3.4004e-37,0.0023292,1.1529e-19,3.5818e-21,39.246,0.0065077,-0.0063844,-0.00036968,0.00052073,-889.58,-1502.2,-723.95,354.1,1.7711e-14,4.9365e-16,986.26,-1691.1,-780.54,-644.01,0,0.010903,0,1,0.135,0,-0.135,0
0,0,0,0,0,0,-0.0010151,-0.0051357,-3.4074e-37,0.0022973,1.2088e-19,3.6328e-21,39.246,0.0064786,-0.0063372,-0.0003536,0.00054002,-869.23,-1490.7,-714.3,349.34,1.8565e-14,5.0243e-16,982.01,-1674.4,-768.43,-631.39,0,0.01093,0,1,0.14,0,-0.14,0
0,0,0,0,0,0,-0.00094497,-0.0051231,-3.4144e-37,0.0022654,1.2647e-19,3.6837e-21,39.246,0.0064496,-0.0062899,-0.00033753,0.00055931,-848.87,-1479.3,-704.64,344.58,1.9418e-14,5.112e-16,977.76,-1657.7,-756.31,-618.78,0,0.010958,0,1,0.145,0,-0.145,0
0,0,0,0,0,0,-0.00087485,-0.0051106,-3.4214e-37,0.0022335,1.3206e-19,3.7347e-21,39.246,0.0064205,-0.0062426,-0.00032146,0.00057859,-828.52,-1467.9,-694.99,339.82,2.0271e-14,5.1998e-16,973.51,-1641,-744.2,-606.17,0,0.010985,0,1,0.15,0,-0.15,0
0,0,0,0,0,0,-0.00080473,-0.0050981,-3.4285e-37,0.0022015,1.3765e-19,3.7856e-21,39.246,0.0063915,-0.0061953,-0.00030539,0.00059788,-808.16,-1456.5,-685.34,335.05,2.1124e-14,5.2875e-16,969.26,-1624.4,-732.09,-593.55,0,0.011013,0,1,0.155,0,-0.155,0
0,0,0,0,0,0,-0.00073461,-0.0050856,-3.4355e-37,0.0021696,1.4324e-19,3.8365e-21,39.246,0.0063624,-0.0061481,-0.00028931,0.00061716,-787.81,-1445.1,-675.68,330.29,2.1978e-14,5.3753e-16,965.01,-1607.7,-719.97,-580.94,0,0.01104,0,1,0.16,0,-0.16,0
0,0,0,0,0,0,-0.00066449,-0.0050731,-3.4425e-37,0.0021377,1.4883e-19,3.8875e-21,39.246,0.0063333,-0.0061008,-0.00027324,0.00063645,-767.45,-1433.7,-666.03,325.53,2.2831e-14,5.463e-16,960.77,-1591,-707.86,-568.32,0,0.011068,0,1,0.165,0,-0.165,0
0,0,0,0,0,0,-0.00059437,-0.0050606,-3.4495e-37,0.0021058,1.5442e-19,3.9384e-21,39.246,0.0063043,-0.0060535,-0.00025717,0.00065574,-747.1,-1422.3,-656.38,320.76,2.3684e-14,5.5508e-16,956.52,-1574.3,-695.74,-555.71,0,0.011095,0,1,0.17,0,-0.17,0
0,0,0,0,0,0,-0.00052425,-0.0050481,-3.4565e-37,0.0020738,1.6001e-19,3.9893e-21,39.246,0.0062752,-0.0060062,-0.00024109,0.00067502,-726.74,-1410.8,-646.72,316,2.4537e-14,5.6385e-16,952.27,-1557.6,-683.63,-543.1,0,0.011123,0,1,0.175,0,-0.175,0
0,0,0,0,0,0,-0.00045413,-0.0050355,-3.4635e-37,0.0020419,1.656e-19,4.0403e-21,39.246,0.0062462,-0.005959,-0.00022502,0.00069431,-706.38,-1399.4,-637.07,311.24,2.5391e-14,5.7263e-16,948.02,-1540.9,-671.52,-530.48,0,0.01115,0,1,0.18,0,-0.18,0
0,0,0,0,0,0,-0.00038401,-0.005023,-3.4706e-37,0.00201,1.7119e-19,4.0912e-21,39.246,0.0062171,-0.0059117,-0.00020895,0.0007136,-686.03,-1388,-627.42,306.48,2.6244e-14,5.814e-16,943.77,-1524.2,-659.4,-517.87,0,0.011178,0,1,0.185,0,-0.185,0
0,0,0,0,0,0,-0.00031389,-0.0050105,-3.4776e-37,0.0019781,1.7678e-19,4.1421e-21,39.246,0.006188,-0.0058644,-0.00019288,0.00073288,-665.67,-1376.6,-617.76,301.71,2.7097e-14,5.9018e-16,939.52,-1507.5,-647.29,-505.25,0,0.011205,0,1,0.19,0,-0.19,0
0,0,0,0,0,0,-0.00024377,-0.004998,-3.4846e-37,0.0019462,1.8237e-19,4.1931e-21,39.246,0.006159,-0.0058171,-0.0001768,0.00075217,-645.32,-1365.2,-608.11,296.95,2.7951e-14,5.9895e-16,935.27,-1490.8,-635.18,-492.64,0,0.011233,0,1,0.195,0,-0.195,0
0,0,0,0,0,0,-0.00017365,-0.0049855,-3.4916e-37,0.0019142,1.8796e-19,4.244e-21,39.246,0.0061299,-0.0057699,-0.00016073,0.00077146,-624.96,-1353.8,-598.46,292.19,2.8804e-14,6.0773e-16,931.03,-1474.1,-623.06,-480.02,0,0.01126,0,1,0.2,0,-0.2,0
0,0,0,0,0,0,-0.00010353,-0.004973,-3.4986e-37,0.0018823,1.9355e-19,4.295e-21,39.246,0.0061009,-0.0057226,-0.00014466,0.00079074,-604.61,-1342.3,-588.8,287.42,2.9657e-14,6.1651e-16,926.78,-1457.4,-610.95,-467.41,0,0.011288,0,1,0.205,0,-0.205,0
0,0,0,0,0,0,-3.3409e-05,-0.0049605,-3.5056e-37,0.0018504,1.9913e-19,4.3459e-21,39.246,0.0060718,-0.0056753,-0.00012858,0.00081003,-584.25,-1330.9,-579.15,282.66,3.051e-14,6.2528e-16,922.53,-1440.7,-598.83,-454.8,0,0.011315,0,1,0.21,0,-0.21,0
0,0,0,0,0,0,3.6711e-05,-0.0049479,-3.5127e-37,0.0018185,2.0472e-19,4.3968e-21,39.246,0.0060427,-0.005628,-0.00011251,0.00082932,-563.9,-1319.5,-569.5,277.9,3.1364e-14,6.3406e-16,918.28,-1424,-586.72,-442.18,0,0.011343,0,1,0.215,0,-0.215,0
0,0,0,0,0,0,0.00010683,-0.0049354,-3.5197e-37,0.0017865,2.1031e-19,4.4478e-21,39.246,0.0060137,-0.0055808,-9.6438e-05,0.0008486,-543.54,-1308.1,-559.84,273.14,3.2217e-14,6.4283e-16,914.03,-1407.3,-574.61,-429.57,0,0.01137,0,1,0.22,0,-0.22,0
0,0,0,0,0,0,0.00017695,-0.0049229,-3.5267e-37,0.0017546,2.159e-19,4.4987e-21,39.246,0.0059846,-0.0055335,-8.0365e-05,0.00086789,-523.19,-1296.7,-550.19,268.37,3.307e-14,6.5161e-16,909.78,-1390.6,-562.49,-416.95,0,0.011398,0,1,0.225,0,-0.225,0
0,0,0,0,0,0,0.00024707,-0.0049104,-3.5337e-37,0.0017227,2.2149e-19,4.5496e-21,39.246,0.0059555,-0.0054862,-6.4292e-05,0.00088717,-502.83,-1285.3,-540.54,263.61,3.3923e-14,6.6038e-16,905.53,-1373.9,-550.38,-404.34,0,0.011425,0,1,0.23,0,-0.23,0
0,0,0,0,0,0,0.00031719,-0.0048979,-3.5407e-37,0.0016908,2.2708e-19,4.6006e-21,39.246,0.0059265,-0.0054389,-4.8219e-05,0.00090646,-482.47,-1273.9,-530.88,258.85,3.4777e-14,6.6916e-16,901.28,-1357.2,-538.27,-391.73,0,0.011453,0,1,0.235,0,-0.235,0
0,0,0,0,0,0,0.00038731,-0.0048854,-3.5477e-37,0.0016588,2.3267e-19,4.6515e-21,39.246,0.0058974,-0.0053917,-3.2146e-05,0.00092575,-462.12,-1262.4,-521.23,254.08,3.563e-14,6.7793e-16,897.04,-1340.5,-526.15,-379.11,0,0.01148,0,1,0.24,0,-0.24,0
0,0,0,0,0,0,0.00045743,-0.0048729,-3.5548e-37,0.0016269,2.3826e-19,4.7025e-21,39.246,0.0058684,-0.0053444,-1.6073e-05,0.00094503,-441.76,-1251,-511.58,249.32,3.6483e-14,6.8671e-16,892.79,-1323.8,-514.04,-366.5,0,0.011508,0,1,0.245,0,-0.245,0
0,0,0,0,0,0,0.00052755,-0.0048604,-3.5618e-37,0.001595,2.4385e-19,4.7534e-21,39.246,0.0058393,-0.0052971,5.0398e-36,0.00096432,-421.41,-1239.6,-501.92,244.56,3.7337e-14,6.9548e-16,888.54,-1307.1,-501.92,-353.88,0,0.011535,0,1,0.25,0,-0.25,0
0,0,0,0,0,0,0.0005313,-0.0048365,-3.3802e-37,0.0015793,2.3598e-19,4.6031e-21,38.907,0.0058089,-0.0052676,5.1079e-36,0.00096234,-417.62,-1232.9,-498.73,242.16,3.6131e-14,6.7303e-16,883.95,-1299.5,-498.73,-350.98,0,0.011556,0,1,0.255,0,-0.255,0
0,0,0,0,0,0,0.00053504,-0.0048127,-3.1986e-37,0.0015636,2.281e-19,4.4527e-21,38.569,0.0057785,-0.0052381,5.176e-36,0.00096036,-413.84,-1226.1,-495.53,239.75,3.4926e-14,6.5057e-16,879.36,-1291.8,-495.53,-348.08,0,0.011578,0,1,0.26,0,-0.26,0
0,0,0,0,0,0,0.00053879,-0.0047889,-3.017e-37,0.001548,2.2023e-19,4.3024e-21,38.23,0.0057481,-0.0052085,5.2441e-36,0.00095839,-410.05,-1219.3,-492.33,237.35,3.372e-14,6.2812e-16,874.77,-1284.2,-492.33,-345.18,0,0.011599,0,1,0.265,0,-0.265,0
0,0,0,0,0,0,0.00054253,-0.0047651,-2.8354e-37,0.0015323,2.1235e-19,4.1521e-21,37.891,0.0057177,-0.005179,5.3123e-36,0.00095641,-406.26,-1212.5,-489.13,234.95,3.2515e-14,6.0566e-16,870.19,-1276.5,-489.13,-342.28,0,0.01162,0,1,0.27,0,-0.27,0
0,0,0,0,0,0,0.00054628,-0.0047413,-2.6538e-37,0.0015166,2.0448e-19,4.0018e-21,37.552,0.0056873,-0.0051495,5.3804e-36,0.00095443,-402.48,-1205.8,-485.93,232.55,3.1309e-14,5.8321e-16,865.6,-1268.9,-485.93,-339.38,0,0.011641,0,1,0.275,0,-0.275,0
0,0,0,0,0,0,0.00055002,-0.0047175,-2.4722e-37,0.0015009,1.966e-19,3.8514e-21,37.213,0.0056569,-0.0051199,5.4485e-36,0.00095245,-398.69,-1199,-482.74,230.14,3.0104e-14,5.6075e-16,861.01,-1261.2,-482.74,-336.48,0,0.011663,0,1,0.28,0,-0.28,0
0,0,0,0,0,0,0.00055377,-0.0046937,-2.2906e-37,0.0014853,1.8873e-19,3.7011e-21,36.874,0.0056265,-0.0050904,5.5166e-36,0.00095047,-394.91,-1192.2,-479.54,227.74,2.8898e-14,5.383e-16,856.42,-1253.6,-479.54,-333.58,0,0.011684,0,1,0.285,0,-0.285,0
0,0,0,0,0,0,0.00055751,-0.0046699,-2.109e-37,0.0014696,1.8085e-19,3.5508e-21,36.536,0.0055961,-0.0050609,5.5847e-36,0.0009485,-391.12,-1185.5,-476.34,225.34,2.7693e-14,5.1585e-16,851.83,-1245.9,-476.34,-330.68,0,0.011705,0,1,0.29,0,-0.29,0
0,0,0,0,0,0,0.00056126,-0.0046461,-1.9275e-37,0.0014539,1.7298e-19,3.4005e-21,36.197,0.0055657,-0.0050313,5.6529e-36,0.00094652,-387.33,-1178.7,-473.14,222.94,2.6487e-14,4.9339e-16,847.25,-1238.2,-473.14,-327.78,0,0.011726,0,1,0.295,0,-0.295,0
0,0,0,0,0,0,0.000565,-0.0046223,-1.7459e-37,0.0014382,1.651e-19,3.2501e-21,35.858,0.0055353,-0.0050018,5.721e-36,0.00094454,-383.55,-1171.9,-469.94,220.53,2.5282e-14,4.7094e-16,842.66,-1230.6,-469.94,-324.88,0,0.011747,0,1,0.3,0,-0.3,0
0,0,0,0,0,0,0.00056875,-0.0045985,-1.5643e-37,0.0014225,1.5723e-19,3.0998e-21,35.519,0.0055049,-0.0049723,5.7891e-36,0.00094256,-379.76,-1165.2,-466.75,218.13,2.4076e-14,4.4848e-16,838.07,-1222.9,-466.75,-321.98,0,0.011769,0,1,0.305,0,-0.305,0
0,0,0,0,0,0,0.00057249,-0.0045747,-1.3827e-37,0.0014069,1.4935e-19,2.9495e-21,35.18,0.0054745,-0.0049428,5.8572e-36,0.00094058,-375.98,-1158.4,-463.55,215.73,2.2871e-14,4.2603e-16,833.48,-1215.3,-463.55,-319.08,0,0.01179,0,1,0.31,0,-0.31,0
0,0,0,0,0,0,0.00057624,-0.0045509,-1.2011e-37,0.0013912,1.4148e-19,2.7991e-21,34.842,0.0054441,-0.0049132,5.9254e-36,0.0009386,-372.19,-1151.6,-460.35,213.33,2.1666e-14,4.0357e-16,828.9,-1207.6,-460.35,-316.18,0,0.011811,0,1,0.315,0,-0.315,0
0,0,0,0,0,0,0.00057998,-0.004527,-1.0195e-37,0.0013755,1.336e-19,2.6488e-21,34.503,0.0054137,-0.0048837,5.9935e-36,0.00093663,-368.41,-1144.8,-457.15,210.92,2.046e-14,3.8112e-16,824.31,-1200,-457.15,-313.28,0,0.011832,0,1,0.32,0,-0.32,0
0,0,0,0,0,0,0.00058373,-0.0045032,-8.3792e-38,0.0013598,1.2573e-19,2.4985e-21,34.164,0.0053833,-0.0048542,6.0616e-36,0.00093465,-364.62,-1138.1,-453.95,208.52,1.9255e-14,3.5867e-16,819.72,-1192.3,-453.95,-310.38,0,0.011853,0,1,0.325,0,-0.325,0
0,0,0,0,0,0,0.00058747,-0.0044794,-6.5633e-38,0.0013442,1.1785e-19,2.3482e-21,33.825,0.0053528,-0.0048246,6.1297e-36,0.00093267,-360.83,-1131.3,-450.76,206.12,1.8049e-14,3.3621e-16,815.13,-1184.7,-450.76,-307.48,0,0.011875,0,1,0.33,0,-0.33,0
0,0,0,0,0,0,0.00059122,-0.0044556,-4.7474e-38,0.0013285,1.0998e-19,2.1978e-21,33.486,0.0053224,-0.0047951,6.1978e-36,0.00093069,-357.05,-1124.5,-447.56,203.72,1.6844e-14,3.1376e-16,810.54,-1177,-447.56,-304.58,0,0.011896,0,1,0.335,0,-0.335,0
0,0,0,0,0,0,0.00059496,-0.0044318,-2.9315e-38,0.0013128,1.0211e-19,2.0475e-21,33.147,0.005292,-0.0047656,6.266e-36,0.00092871,-353.26,-1117.8,-444.36,201.31,1.5638e-14,2.913e-16,805.96,-1169.3,-444.36,-301.68,0,0.011917,0,1,0.34,0,-0.34,0
0,0,0,0,0,0,0.0005987,-0.004408,-1.1156e-38,0.0012971,9.423e-20,1.8972e-21,32.809,0.0052616,-0.004736,6.3341e-36,0.00092674,-349.48,-1111,-441.16,198.91,1.4433e-14,2.6885e-16,801.37,-1161.7,-441.16,-298.78,0,0.011938,0,1,0.345,0,-0.345,0
0,0,0,0,0,0,0.00060245,-0.0043842,7.0033e-39,0.0012814,8.6355e-20,1.7469e-21,32.47,0.0052312,-0.0047065,6.4022e-36,0.00092476,-345.69,-1104.2,-437.96,196.51,1.3227e-14,2.4639e-16,796.78,-1154,-437.96,-295.88,0,0.01196,0,1,0.35,0,-0.35,0
0,0,0,0,0,0,0.00060619,-0.0043604,2.5162e-38,0.0012658,7.848e-20,1.5965e-21,32.131,0.0052008,-0.004677,6.4703e-36,0.00092278,-341.9,-1097.5,-434.77,194.11,1.2022e-14,2.2394e-16,792.19,-1146.4,-434.77,-292.98,0,0.011981,0,1,0.355,0,-0.355,0
0,0,0,0,0,0,0.00060994,-0.0043366,4.3321e-38,0.0012501,7.0605e-20,1.4462e-21,31.792,0.0051704,-0.0046474,6.5385e-36,0.0009208,-338.12,-1090.7,-431.57,191.7,1.0816e-14,2.0148e-16,787.6,-1138.7,-431.57,-290.08,0,0.012002,0,1,0.36,0,-0.36,0
0,0,0,0,0,0,0.00061368,-0.0043128,6.148e-38,0.0012344,6.2731e-20,1.2959e-21,31.453,0.00514,-0.0046179,6.6066e-36,0.00091882,-334.33,-1083.9,-428.37,189.3,9.611e-15,1.7903e-16,783.02,-1131.1,-428.37,-287.18,0,0.012023,0,1,0.365,0,-0.365,0
0,0,0,0,0,0,0.00061743,-0.004289,7.9639e-38,0.0012187,5.4856e-20,1.1456e-21,31.115,0.0051096,-0.0045884,6.6747e-36,0.00091685,-330.55,-1077.2,-425.17,186.9,8.4056e-15,1.5658e-16,778.43,-1123.4,-425.17,-284.28,0,0.012044,0,1,0.37,0,-0.37,0
0,0,0,0,0,0,0.00062117,-0.0042652,9.7798e-38,0.001203,4.6981e-20,9.9523e-22,30.776,0.0050792,-0.0045589,6.7428e-36,0.00091487,-326.76,-1070.4,-421.97,184.5,7.2001e-15,1.3412e-16,773.84,-1115.8,-421.97,-281.38,0,0.012066,0,1,0.375,0,-0.375,0
0,0,0,0,0,0,0.00062492,-0.0042414,1.1596e-37,0.0011874,3.9106e-20,8.4491e-22,30.437,0.0050488,-0.0045293,6.8109e-36,0.00091289,-322.97,-1063.6,-418.78,182.09,5.9947e-15,1.1167e-16,769.25,-1108.1,-418.78,-278.48,0,0.012087,0,1,0.38,0,-0.38,0
0,0,0,0,0,0,0.00062866,-0.0042175,1.3412e-37,0.0011717,3.1231e-20,6.9458e-22,30.098,0.0050184,-0.0044998,6.8791e-36,0.00091091,-319.19,-1056.8,-415.58,179.69,4.7892e-15,8.9213e-17,764.66,-1100.5,-415.58,-275.58,0,0.012108,0,1,0.385,0,-0.385,0
0,0,0,0,0,0,0.00063241,-0.0041937,1.5228e-37,0.001156,2.3356e-20,5.4426e-22,29.759,0.004988,-0.0044703,6.9472e-36,0.00090893,-315.4,-1050.1,-412.38,177.29,3.5838e-15,6.6759e-17,760.08,-1092.8,-412.38,-272.68,0,0.012129,0,1,0.39,0,-0.39,0
0,0,0,0,0,0,0.00063615,-0.0041699,1.7043e-37,0.0011403,1.5481e-20,3.9393e-22,29.42,0.0049576,-0.0044407,7.0153e-36,0.00090696,-311.62,-1043.3,-409.18,174.89,2.3783e-15,4.4304e-17,755.49,-1085.1,-409.18,-269.78,0,0.012151,0,1,0.395,0,-0.395,0
0,0,0,0,0,0,0.0006399,-0.0041461,1.8859e-37,0.0011247,7.6064e-21,2.436e-22,29.082,0.0049272,-0.0044112,7.0834e-36,0.00090498,-307.83,-1036.5,-405.98,172.48,1.1729e-15,2.185e-17,750.9,-1077.5,-405.98,-266.88,0,0.012172,0,1,0.4,0,-0.4,0
0,0,0,0,0,0,0.00064364,-0.0041223,2.0675e-37,0.001109,-2.6849e-22,9.3276e-23,28.743,0.0048968,-0.0043817,7.1516e-36,0.000903,-304.04,-1029.8,-402.79,170.08,-3.2597e-17,-6.042e-19,746.31,-1069.8,-402.79,-263.98,0,0.012193,0,1,0.405,0,-0.405,0
0,0,0,0,0,0,0.00064739,-0.0040985,2.2491e-37,0.0010933,-8.1434e-21,-5.705e-23,28.404,0.0048664,-0.0043521,7.2197e-36,0.00090102,-300.26,-1023,-399.59,167.68,-1.2381e-15,-2.3059e-17,741.72,-1062.2,-399.59,-261.08,0,0.012214,0,1,0.41,0,-0.41,0
0,0,0,0,0,0,0.00065113,-0.0040747,2.4307e-37,0.0010776,-1.6018e-20,-2.0738e-22,28.065,0.004836,-0.0043226,7.2878e-36,0.00089904,-296.47,-1016.2,-396.39,165.28,-2.4435e-15,-4.5513e-17,737.14,-1054.5,-396.39,-258.18,0,0.012235,0,1,0.415,0,-0.415,0
0,0,0,0,0,0,0.00065488,-0.0040509,2.6123e-37,0.0010619,-2.3893e-20,-3.577e-22,27.726,0.0048056,-0.0042931,7.3559e-36,0.00089706,-292.69,-1009.5,-393.19,162.87,-3.649e-15,-6.7967e-17,732.55,-1046.9,-393.19,-255.28,0,0.012257,0,1,0.42,0,-0.42,0
0,0,0,0,0,0,0.00065862,-0.0040271,2.7939e-37,0.0010463,-3.1768e-20,-5.0803e-22,27.388,0.0047752,-0.0042636,7.424e-36,0.00089509,-288.9,-1002.7,-390,160.47,-4.8544e-15,-9.0422e-17,727.96,-1039.2,-390,-252.38,0,0.012278,0,1,0.425,0,-0.425,0
0,0,0,0,0,0,0.00066237,-0.0040033,2.9755e-37,0.0010306,-3.9643e-20,-6.5836e-22,27.049,0.0047448,-0.004234,7.4922e-36,0.00089311,-285.11,-995.92,-386.8,158.07,-6.0599e-15,-1.1288e-16,723.37,-1031.6,-386.8,-249.48,0,0.012299,0,1,0.43,0,-0.43,0
0,0,0,0,0,0,0.00066611,-0.0039795,3.1571e-37,0.0010149,-4.7518e-20,-8.0868e-22,26.71,0.0047144,-0.0042045,7.5603e-36,0.00089113,-281.33,-989.15,-383.6,155.67,-7.2653e-15,-1.3533e-16,718.79,-1023.9,-383.6,-246.58,0,0.01232,0,1,0.435,0,-0.435,0
0,0,0,0,0,0,0.00066986,-0.0039557,3.3387e-37,0.00099923,-5.5393e-20,-9.5901e-22,26.371,0.004684,-0.004175,7.6284e-36,0.00088915,-277.54,-982.38,-380.4,153.26,-8.4708e-15,-1.5778e-16,714.2,-1016.2,-380.4,-243.68,0,0.012342,0,1,0.44,0,-0.44,0
0,0,0,0,0,0,0.0006736,-0.0039319,3.5202e-37,0.00098355,-6.3268e-20,-1.1093e-21,26.032,0.0046536,-0.0041454,7.6965e-36,0.00088717,-273.76,-975.61,-377.2,150.86,-9.6762e-15,-1.8024e-16,709.61,-1008.6,-377.2,-240.78,0,0.012363,0,1,0.445,0,-0.445,0
0,0,0,0,0,0,0.00067735,-0.003908,3.7018e-37,0.00096788,-7.1142e-20,-1.2597e-21,25.694,0.0046232,-0.0041159,7.7647e-36,0.0008852,-269.97,-968.84,-374.01,148.46,-1.0882e-14,-2.0269e-16,705.02,-1000.9,-374.01,-237.88,0,0.012384,0,1,0.45,0,-0.45,0
0,0,0,0,0,0,0.00068109,-0.0038842,3.8834e-37,0.0009522,-7.9017e-20,-1.41e-21,25.355,0.0045928,-0.0040864,7.8328e-36,0.00088322,-266.19,-962.07,-370.81,146.06,-1.2087e-14,-2.2515e-16,700.43,-993.28,-370.81,-234.98,0,0.012405,0,1,0.455,0,-0.455,0
0,0,0,0,0,0,0.00068484,-0.0038604,4.065e-37,0.00093652,-8.6892e-20,-1.5603e-21,25.016,0.0045624,-0.0040568,7.9009e-36,0.00088124,-262.4,-955.3,-367.61,143.65,-1.3293e-14,-2.476e-16,695.85,-985.62,-367.61,-232.08,0,0.012426,0,1,0.46,0,-0.46,0
0,0,0,0,0,0,0.00068858,-0.0038366,4.2466e-37,0.00092084,-9.4767e-20,-1.7106e-21,24.677,0.004532,-0.0040273,7.969e-36,0.00087926,-258.61,-948.53,-364.41,141.25,-1.4498e-14,-2.7006e-16,691.26,-977.97,-364.41,-229.18,0,0.012448,0,1,0.465,0,-0.465,0
0,0,0,0,0,0,0.00069233,-0.0038128,4.4282e-37,0.00090516,-1.0264e-19,-1.861e-21,24.338,0.0045015,-0.0039978,8.0371e-36,0.00087728,-254.83,-941.76,-361.21,138.85,-1.5704e-14,-2.9251e-16,686.67,-970.31,-361.21,-226.28,0,0.012469,0,1,0.47,0,-0.47,0
0,0,0,0,0,0,0.00069607,-0.003789,4.6098e-37,0.00088949,-1.1052e-19,-2.0113e-21,23.999,0.0044711,-0.0039682,8.1053e-36,0.00087531,-251.04,-934.99,-358.02,136.45,-1.6909e-14,-3.1497e-16,682.08,-962.66,-358.02,-223.38,0,0.01249,0,1,0.475,0,-0.475,0
0,0,0,0,0,0,0.00069982,-0.0037652,4.7914e-37,0.00087381,-1.1839e-19,-2.1616e-21,23.661,0.0044407,-0.0039387,8.1734e-36,0.00087333,-247.26,-928.22,-354.82,134.04,-1.8114e-14,-3.3742e-16,677.49,-955,-354.82,-220.48,0,0.012511,0,1,0.48,0,-0.48,0
0,0,0,0,0,0,0.00070356,-0.0037414,4.973e-37,0.00085813,-1.2627e-19,-2.3119e-21,23.322,0.0044103,-0.0039092,8.2415e-36,0.00087135,-243.47,-921.45,-351.62,131.64,-1.932e-14,-3.5987e-16,672.91,-947.35,-351.62,-217.58,0,0.012532,0,1,0.485,0,-0.485,0
0,0,0,0,0,0,0.0007073,-0.0037176,5.1546e-37,0.00084245,-1.3414e-19,-2.4623e-21,22.983,0.0043799,-0.0038797,8.3096e-36,0.00086937,-239.68,-914.68,-348.42,129.24,-2.0525e-14,-3.8233e-16,668.32,-939.69,-348.42,-214.67,0,0.012554,0,1,0.49,0,-0.49,0
0,0,0,0,0,0,0.00071105,-0.0036938,5.3361e-37,0.00082677,-1.4202e-19,-2.6126e-21,22.644,0.0043495,-0.0038501,8.3778e-36,0.00086739,-235.9,-907.91,-345.22,126.84,-2.1731e-14,-4.0478e-16,663.73,-932.04,-345.22,-211.77,0,0.012575,0,1,0.495,0,-0.495,0
0,0,0,0,0,0,0.00071479,-0.00367,5.5177e-37,0.0008111,-1.4989e-19,-2.7629e-21,22.305,0.0043191,-0.0038206,8.4459e-36,0.00086542,-232.11,-901.14,-342.03,124.43,-2.2936e-14,-4.2724e-16,659.14,-924.38,-342.03,-208.87,0,0.012596,0,1,0.5,0,-0.5,0
0,0,0,0,0,0,0.00071854,-0.0036462,5.6993e-37,0.00079542,-1.5777e-19,-2.9132e-21,21.967,0.0042887,-0.0037911,8.514e-36,0.00086344,-228.33,-894.37,-338.83,122.03,-2.4142e-14,-4.4969e-16,654.55,-916.73,-338.83,-205.97,0,0.012617,0,1,0.505,0,-0.505,0
0,0,0,0,0,0,0.00072228,-0.0036224,5.8809e-37,0.00077974,-1.6564e-19,-3.0636e-21,21.628,0.0042583,-0.0037615,8.5821e-36,0.00086146,-224.54,-887.6,-335.63,119.63,-2.5347e-14,-4.7215e-16,649.97,-909.07,-335.63,-203.07,0,0.012639,0,1,0.51,0,-0.51,0
0,0,0,0,0,0,0.00072603,-0.0035986,6.0625e-37,0.00076406,-1.7352e-19,-3.2139e-21,21.289,0.0042279,-0.003732,8.6502e-36,0.00085948,-220.75,-880.83,-332.43,117.23,-2.6553e-14,-4.946e-16,645.38,-901.42,-332.43,-200.17,0,0.01266,0,1,0.515,0,-0.515,0
0,0,0,0,0,0,0.00072977,-0.0035747,6.2441e-37,0.00074838,-1.8139e-19,-3.3642e-21,20.95,0.0041975,-0.0037025,8.7184e-36,0.0008575,-216.97,-874.07,-329.23,114.82,-2.7758e-14,-5.1705e-16,640.79,-893.76,-329.23,-197.27,0,0.012681,0,1,0.52,0,-0.52,0
0,0,0,0,0,0,0.00073352,-0.0035509,6.4257e-37,0.00073271,-1.8927e-19,-3.5146e-21,20.611,0.0041671,-0.0036729,8.7865e-36,0.00085552,-213.18,-867.3,-326.04,112.42,-2.8964e-14,-5.3951e-16,636.2,-886.1,-326.04,-194.37,0,0.012702,0,1,0.525,0,-0.525,0
0,0,0,0,0,0,0.00073221,-0.0035321,6.2416e-37,0.00072556,-1.8224e-19,-3.4839e-21,20.408,0.0041447,-0.0036523,9.429e-36,0.00085236,-211.35,-862.42,-324.01,111.33,-2.7888e-14,-5.3466e-16,632.81,-880.94,-324.01,-192.83,0,0.012718,0,1,0.53,0,-0.53,0
0,0,0,0,0,0,0.00073007,-0.0035141,5.9976e-37,0.00071981,-1.7278e-19,-3.4237e-21,20.228,0.0041236,-0.003633,1.0165e-35,0.00084899,-209.84,-857.86,-322.17,110.45,-2.6438e-14,-5.2534e-16,629.61,-876.19,-322.17,-191.51,0,0.012732,0,1,0.535,0,-0.535,0
0,0,0,0,0,0,0.00072793,-0.0034961,5.7536e-37,0.00071406,-1.6332e-19,-3.3635e-21,20.047,0.0041025,-0.0036138,1.0902e-35,0.00084563,-208.33,-853.29,-320.33,109.56,-2.4989e-14,-5.1602e-16,626.41,-871.44,-320.33,-190.19,0,0.012746,0,1,0.54,0,-0.54,0
0,0,0,0,0,0,0.00072579,-0.0034781,5.5096e-37,0.00070831,-1.5386e-19,-3.3033e-21,19.866,0.0040815,-0.0035946,1.1638e-35,0.00084227,-206.82,-848.73,-318.49,108.68,-2.354e-14,-5.0671e-16,623.2,-866.68,-318.49,-188.86,0,0.01276,0,1,0.545,0,-0.545,0
0,0,0,0,0,0,0.00072366,-0.0034601,5.2657e-37,0.00070256,-1.444e-19,-3.2431e-21,19.686,0.0040604,-0.0035754,1.2375e-35,0.00083891,-205.31,-844.16,-316.65,107.8,-2.2091e-14,-4.9739e-16,620,-861.93,-316.65,-187.54,0,0.012775,0,1,0.55,0,-0.55,0
0,0,0,0,0,0,0.00072152,-0.0034421,5.0217e-37,0.00069681,-1.3494e-19,-3.1829e-21,19.505,0.0040393,-0.0035561,1.3111e-35,0.00083554,-203.8,-839.6,-314.81,106.92,-2.0641e-14,-4.8807e-16,616.8,-857.17,-314.81,-186.22,0,0.012789,0,1,0.555,0,-0.555,0
0,0,0,0,0,0,0.00071938,-0.0034241,4.7777e-37,0.00069107,-1.2548e-19,-3.1226e-21,19.324,0.0040182,-0.0035369,1.3848e-35,0.00083218,-202.29,-835.03,-312.97,106.04,-1.9192e-14,-4.7876e-16,613.6,-852.42,-312.97,-184.9,0,0.012803,0,1,0.56,0,-0.56,0
0,0,0,0,0,0,0.00071724,-0.0034061,4.5338e-37,0.00068532,-1.1602e-19,-3.0624e-21,19.144,0.0039971,-0.0035177,1.4584e-35,0.00082882,-200.78,-830.47,-311.13,105.16,-1.7743e-14,-4.6944e-16,610.4,-847.67,-311.13,-183.58,0,0.012818,0,1,0.565,0,-0.565,0
0,0,0,0,0,0,0.00071511,-0.0033881,4.2898e-37,0.00067957,-1.0656e-19,-3.0022e-21,18.963,0.003976,-0.0034984,1.5321e-35,0.00082546,-199.27,-825.9,-309.29,104.28,-1.6294e-14,-4.6012e-16,607.2,-842.91,-309.29,-182.25,0,0.012832,0,1,0.57,0,-0.57,0
0,0,0,0,0,0,0.00071297,-0.0033701,4.0458e-37,0.00067382,-9.7104e-20,-2.942e-21,18.782,0.0039549,-0.0034792,1.6057e-35,0.00082209,-197.75,-821.34,-307.45,103.4,-1.4844e-14,-4.508e-16,604,-838.16,-307.45,-180.93,0,0.012846,0,1,0.575,0,-0.575,0
0,0,0,0,0,0,0.00071083,-0.0033521,3.8018e-37,0.00066807,-8.7644e-20,-2.8818e-21,18.601,0.0039339,-0.00346,1.6794e-35,0.00081873,-196.24,-816.77,-305.61,102.52,-1.3395e-14,-4.4149e-16,600.8,-833.41,-305.61,-179.61,0,0.012861,0,1,0.58,0,-0.58,0
0,0,0,0,0,0,0.00070869,-0.0033341,3.5579e-37,0.00066232,-7.8184e-20,-2.8216e-21,18.421,0.0039128,-0.0034408,1.753e-35,0.00081537,-194.73,-812.21,-303.77,101.63,-1.1946e-14,-4.3217e-16,597.6,-828.65,-303.77,-178.29,0,0.012875,0,1,0.585,0,-0.585,0
0,0,0,0,0,0,0.00070656,-0.0033161,3.3139e-37,0.00065657,-6.8724e-20,-2.7613e-21,18.24,0.0038917,-0.0034215,1.8267e-35,0.00081201,-193.22,-807.64,-301.93,100.75,-1.0497e-14,-4.2285e-16,594.4,-823.9,-301.93,-176.97,0,0.012889,0,1,0.59,0,-0.59,0
0,0,0,0,0,0,0.00070442,-0.0032981,3.0699e-37,0.00065082,-5.9264e-20,-2.7011e-21,18.059,0.0038706,-0.0034023,1.9003e-35,0.00080864,-191.71,-803.08,-300.09,99.872,-9.0474e-15,-4.1354e-16,591.2,-819.15,-300.09,-175.64,0,0.012904,0,1,0.595,0,-0.595,0
0,0,0,0,0,0,0.00070228,-0.0032801,2.826e-37,0.00064507,-4.9804e-20,-2.6409e-21,17.879,0.0038495,-0.0033831,1.974e-35,0.00080528,-190.2,-798.52,-298.25,98.991,-7.5982e-15,-4.0422e-16,588,-814.39,-298.25,-174.32,0,0.012918,0,1,0.6,0,-0.6,0
0,0,0,0,0,0,0.00070014,-0.0032621,2.582e-37,0.00063932,-4.0344e-20,-2.5807e-21,17.698,0.0038284,-0.0033639,2.0476e-35,0.00080192,-188.69,-793.95,-296.41,98.11,-6.1489e-15,-3.949e-16,584.8,-809.64,-296.41,-173,0,0.012932,0,1,0.605,0,-0.605,0
0,0,0,0,0,0,0.000698,-0.0032441,2.338e-37,0.00063357,-3.0884e-20,-2.5205e-21,17.517,0.0038073,-0.0033446,2.1213e-35,0.00079855,-187.18,-789.39,-294.58,97.229,-4.6997e-15,-3.8558e-16,581.59,-804.89,-294.58,-171.68,0,0.012947,0,1,0.61,0,-0.61,0
0,0,0,0,0,0,0.00069587,-0.0032261,2.094e-37,0.00062782,-2.1424e-20,-2.4603e-21,17.337,0.0037863,-0.0033254,2.1949e-35,0.00079519,-185.67,-784.82,-292.74,96.347,-3.2505e-15,-3.7627e-16,578.39,-800.13,-292.74,-170.36,0,0.012961,0,1,0.615,0,-0.615,0
0,0,0,0,0,0,0.00069373,-0.0032081,1.8501e-37,0.00062208,-1.1964e-20,-2.4e-21,17.156,0.0037652,-0.0033062,2.2686e-35,0.00079183,-184.16,-780.26,-290.9,95.466,-1.8012e-15,-3.6695e-16,575.19,-795.38,-290.9,-169.04,0,0.012975,0,1,0.62,0,-0.62,0
0,0,0,0,0,0,0.00069159,-0.0031901,1.6061e-37,0.00061633,-2.504e-21,-2.3398e-21,16.975,0.0037441,-0.0032869,2.3422e-35,0.00078847,-182.65,-775.69,-289.06,94.585,-3.5198e-16,-3.5763e-16,571.99,-790.62,-289.06,-167.71,0,0.01299,0,1,0.625,0,-0.625,0
0,0,0,0,0,0,0.00068945,-0.0031721,1.3621e-37,0.00061058,6.9559e-21,-2.2796e-21,16.795,0.003723,-0.0032677,2.4159e-35,0.0007851,-181.14,-771.13,-287.22,93.704,1.0973e-15,-3.4832e-16,568.79,-785.87,-287.22,-166.39,0,0.013004,0,1,0.63,0,-0.63,0
0,0,0,0,0,0,0.00068732,-0.0031541,1.1182e-37,0.00060483,1.6416e-20,-2.2194e-21,16.614,0.0037019,-0.0032485,2.4895e-35,0.00078174,-179.62,-766.56,-285.38,92.823,2.5465e-15,-3.39e-16,565.59,-781.12,-285.38,-165.07,0,0.013018,0,1,0.635,0,-0.635,0
0,0,0,0,0,0,0.00068518,-0.0031361,8.7419e-38,0.00059908,2.5876e-20,-2.1592e-21,16.433,0.0036808,-0.0032293,2.5632e-35,0.00077838,-178.11,-762,-283.54,91.942,3.9957e-15,-3.2968e-16,562.39,-776.36,-283.54,-163.75,0,0.013033,0,1,0.64,0,-0.64,0
0,0,0,0,0,0,0.00068304,-0.0031181,6.3022e-38,0.00059333,3.5336e-20,-2.099e-21,16.253,0.0036597,-0.00321,2.6368e-35,0.00077502,-176.6,-757.43,-281.7,91.061,5.445e-15,-3.2036e-16,559.19,-771.61,-281.7,-162.43,0,0.013047,0,1,0.645,0,-0.645,0
0,0,0,0,0,0,0.0006809,-0.0031001,3.8625e-38,0.00058758,4.4796e-20,-2.0388e-21,16.072,0.0036387,-0.0031908,2.7105e-35,0.00077165,-175.09,-752.87,-279.86,90.179,6.8942e-15,-3.1105e-16,555.99,-766.86,-279.86,-161.1,0,0.013061,0,1,0.65,0,-0.65,0
0,0,0,0,0,0,0.00067877,-0.0030821,1.4228e-38,0.00058183,5.4256e-20,-1.9785e-21,15.891,0.0036176,-0.0031716,2.7841e-35,0.00076829,-173.58,-748.3,-278.02,89.298,8.3434e-15,-3.0173e-16,552.79,-762.1,-278.02,-159.78,0,0.013076,0,1,0.655,0,-0.655,0
0,0,0,0,0,0,0.00067663,-0.0030641,-1.017e-38,0.00057608,6.3716e-20,-1.9183e-21,15.711,0.0035965,-0.0031524,2.8578e-35,0.00076493,-172.07,-743.74,-276.18,88.417,9.7927e-15,-2.9241e-16,549.59,-757.35,-276.18,-158.46,0,0.01309,0,1,0.66,0,-0.66,0
0,0,0,0,0,0,0.00067449,-0.0030461,-3.4567e-38,0.00057033,7.3176e-20,-1.8581e-21,15.53,0.0035754,-0.0031331,2.9314e-35,0.00076157,-170.56,-739.17,-274.34,87.536,1.1242e-14,-2.831e-16,546.39,-752.6,-274.34,-157.14,0,0.013104,0,1,0.665,0,-0.665,0
0,0,0,0,0,0,0.00067235,-0.0030281,-5.8964e-38,0.00056458,8.2636e-20,-1.7979e-21,15.349,0.0035543,-0.0031139,3.0051e-35,0.0007582,-169.05,-734.61,-272.5,86.655,1.2691e-14,-2.7378e-16,543.19,-747.84,-272.5,-155.82,0,0.013119,0,1,0.67,0,-0.67,0
0,0,0,0,0,0,0.00067021,-0.00301,-8.3361e-38,0.00055883,9.2096e-20,-1.7377e-21,15.168,0.0035332,-0.0030947,3.0787e-35,0.00075484,-167.54,-730.04,-270.66,85.774,1.414e-14,-2.6446e-16,539.98,-743.09,-270.66,-154.49,0,0.013133,0,1,0.675,0,-0.675,0
0,0,0,0,0,0,0.00066808,-0.002992,-1.0776e-37,0.00055309,1.0156e-19,-1.6775e-21,14.988,0.0035121,-0.0030754,3.1523e-35,0.00075148,-166.03,-725.48,-268.82,84.893,1.559e-14,-2.5514e-16,536.78,-738.34,-268.82,-153.17,0,0.013147,0,1,0.68,0,-0.68,0
0,0,0,0,0,0,0.00066594,-0.002974,-1.3216e-37,0.00054734,1.1102e-19,-1.6172e-21,14.807,0.0034911,-0.0030562,3.226e-35,0.00074812,-164.52,-720.92,-266.99,84.011,1.7039e-14,-2.4583e-16,533.58,-733.58,-266.99,-151.85,0,0.013162,0,1,0.685,0,-0.685,0
0,0,0,0,0,0,0.0006638,-0.002956,-1.5655e-37,0.00054159,1.2048e-19,-1.557e-21,14.626,0.00347,-0.003037,3.2996e-35,0.00074475,-163.01,-716.35,-265.15,83.13,1.8488e-14,-2.3651e-16,530.38,-728.83,-265.15,-150.53,0,0.013176,0,1,0.69,0,-0.69,0
0,0,0,0,0,0,0.00066166,-0.002938,-1.8095e-37,0.00053584,1.2994e-19,-1.4968e-21,14.446,0.0034489,-0.0030178,3.3733e-35,0.00074139,-161.49,-711.79,-263.31,82.249,1.9937e-14,-2.2719e-16,527.18,-724.07,-263.31,-149.21,0,0.01319,0,1,0.695,0,-0.695,0
0,0,0,0,0,0,0.00065953,-0.00292,-2.0535e-37,0.00053009,1.394e-19,-1.4366e-21,14.265,0.0034278,-0.0029985,3.4469e-35,0.00073803,-159.98,-707.22,-261.47,81.368,2.1387e-14,-2.1788e-16,523.98,-719.32,-261.47,-147.88,0,0.013204,0,1,0.7,0,-0.7,0
0,0,0,0,0,0,0.00065739,-0.002902,-2.2974e-37,0.00052434,1.4886e-19,-1.3764e-21,14.084,0.0034067,-0.0029793,3.5206e-35,0.00073466,-158.47,-702.66,-259.63,80.487,2.2836e-14,-2.0856e-16,520.78,-714.57,-259.63,-146.56,0,0.013219,0,1,0.705,0,-0.705,0
0,0,0,0,0,0,0.00065525,-0.002884,-2.5414e-37,0.00051859,1.5832e-19,-1.3162e-21,13.904,0.0033856,-0.0029601,3.5942e-35,0.0007313,-156.96,-698.09,-257.79,79.606,2.4285e-14,-1.9924e-16,517.58,-709.81,-257.79,-145.24,0,0.013233,0,1,0.71,0,-0.71,0
0,0,0,0,0,0,0.00065311,-0.002866,-2.7854e-37,0.00051284,1.6778e-19,-1.2559e-21,13.723,0.0033645,-0.0029409,3.6679e-35,0.00072794,-155.45,-693.53,-255.95,78.725,2.5734e-14,-1.8992e-16,514.38,-705.06,-255.95,-143.92,0,0.013247,0,1,0.715,0,-0.715,0
0,0,0,0,0,0,0.00065098,-0.002848,-3.0293e-37,0.00050709,1.7724e-19,-1.1957e-21,13.542,0.0033435,-0.0029216,3.7415e-35,0.00072458,-153.94,-688.96,-254.11,77.843,2.7184e-14,-1.8061e-16,511.18,-700.31,-254.11,-142.6,0,0.013262,0,1,0.72,0,-0.72,0
0,0,0,0,0,0,0.00064884,-0.00283,-3.2733e-37,0.00050134,1.867e-19,-1.1355e-21,13.362,0.0033224,-0.0029024,3.8152e-35,0.00072121,-152.43,-684.4,-252.27,76.962,2.8633e-14,-1.7129e-16,507.98,-695.55,-252.27,-141.28,0,0.013276,0,1,0.725,0,-0.725,0
0,0,0,0,0,0,0.0006467,-0.002812,-3.5173e-37,0.00049559,1.9616e-19,-1.0753e-21,13.181,0.0033013,-0.0028832,3.8888e-35,0.00071785,-150.92,-679.83,-250.43,76.081,3.0082e-14,-1.6197e-16,504.78,-690.8,-250.43,-139.95,0,0.01329,0,1,0.73,0,-0.73,0
0,0,0,0,0,0,0.00064456,-0.002794,-3.7613e-37,0.00048984,2.0561e-19,-1.0151e-21,13,0.0032802,-0.0028639,3.9625e-35,0.00071449,-149.41,-675.27,-248.59,75.2,3.1531e-14,-1.5266e-16,501.58,-686.05,-248.59,-138.63,0,0.013305,0,1,0.735,0,-0.735,0
0,0,0,0,0,0,0.00064242,-0.002776,-4.0052e-37,0.0004841,2.1507e-19,-9.5486e-22,12.82,0.0032591,-0.0028447,4.0361e-35,0.00071113,-147.9,-670.7,-246.75,74.319,3.2981e-14,-1.4334e-16,498.38,-681.29,-246.75,-137.31,0,0.013319,0,1,0.74,0,-0.74,0
0,0,0,0,0,0,0.00064029,-0.002758,-4.2492e-37,0.00047835,2.2453e-19,-8.9464e-22,12.639,0.003238,-0.0028255,4.1098e-35,0.00070776,-146.39,-666.14,-244.91,73.438,3.443e-14,-1.3402e-16,495.17,-676.54,-244.91,-135.99,0,0.013333,0,1,0.745,0,-0.745,0
0,0,0,0,0,0,0.00063815,-0.00274,-4.4932e-37,0.0004726,2.3399e-19,-8.3443e-22,12.458,0.003217,-0.0028063,4.1834e-35,0.0007044,-144.88,-661.57,-243.07,72.557,3.5879e-14,-1.247e-16,491.97,-671.78,-243.07,-134.67,0,0.013348,0,1,0.75,0,-0.75,0
0,0,0,0,0,0,0.00063601,-0.002722,-4.7371e-37,0.00046685,2.4345e-19,-7.7421e-22,12.277,0.0031959,-0.002787,4.2571e-35,0.00070104,-143.37,-657.01,-241.23,71.676,3.7328e-14,-1.1539e-16,488.77,-667.03,-241.23,-133.34,0,0.013362,0,1,0.755,0,-0.755,0
0,0,0,0,0,0,0.00063387,-0.002704,-4.9811e-37,0.0004611,2.5291e-19,-7.1399e-22,12.097,0.0031748,-0.0027678,4.3307e-35,0.00069768,-141.85,-652.45,-239.4,70.794,3.8777e-14,-1.0607e-16,485.57,-662.28,-239.4,-132.02,0,0.013376,0,1,0.76,0,-0.76,0
0,0,0,0,0,0,0.00063174,-0.002686,-5.2251e-37,0.00045535,2.6237e-19,-6.5378e-22,11.916,0.0031537,-0.0027486,4.4044e-35,0.00069431,-140.34,-647.88,-237.56,69.913,4.0227e-14,-9.6753e-17,482.37,-657.52,-237.56,-130.7,0,0.013391,0,1,0.765,0,-0.765,0
0,0,0,0,0,0,0.0006296,-0.002668,-5.4691e-37,0.0004496,2.7183e-19,-5.9356e-22,11.735,0.0031326,-0.0027294,4.478e-35,0.00069095,-138.83,-643.32,-235.72,69.032,4.1676e-14,-8.7436e-17,479.17,-652.77,-235.72,-129.38,0,0.013405,0,1,0.77,0,-0.77,0
0,0,0,0,0,0,0.00062746,-0.00265,-5.713e-37,0.00044385,2.8129e-19,-5.3334e-22,11.555,0.0031115,-0.0027101,4.5517e-35,0.00068759,-137.32,-638.75,-233.88,68.151,4.3125e-14,-7.8118e-17,475.97,-648.02,-233.88,-128.06,0,0.013419,0,1,0.775,0,-0.775,0
0,0,0,0,0,0,0.00062532,-0.002632,-5.957e-37,0.0004381,2.9075e-19,-4.7313e-22,11.374,0.0030904,-0.0026909,4.6253e-35,0.00068423,-135.81,-634.19,-232.04,67.27,4.4574e-14,-6.8801e-17,472.77,-643.26,-232.04,-126.73,0,0.013434,0,1,0.78,0,-0.78,0
0,0,0,0,0,0,0.00062318,-0.002614,-6.201e-37,0.00043235,3.0021e-19,-4.1291e-22,11.193,0.0030694,-0.0026717,4.699e-35,0.00068086,-134.3,-629.62,-230.2,66.389,4.6024e-14,-5.9484e-17,469.57,-638.51,-230.2,-125.41,0,0.013448,0,1,0.785,0,-0.785,0
0,0,0,0,0,0,0.00062105,-0.002596,-6.4449e-37,0.0004266,3.0967e-19,-3.5269e-22,11.013,0.0030483,-0.0026524,4.7726e-35,0.0006775,-132.79,-625.06,-228.36,65.508,4.7473e-14,-5.0167e-17,466.37,-633.76,-228.36,-124.09,0,0.013462,0,1,0.79,0,-0.79,0
0,0,0,0,0,0,0.00061891,-0.002578,-6.6889e-37,0.00042085,3.1913e-19,-2.9248e-22,10.832,0.0030272,-0.0026332,4.8463e-35,0.00067414,-131.28,-620.49,-226.52,64.626,4.8922e-14,-4.085e-17,463.17,-629,-226.52,-122.77,0,0.013477,0,1,0.795,0,-0.795,0
0,0,0,0,0,0,0.00061677,-0.00256,-6.9329e-37,0.00041511,3.2859e-19,-2.3226e-22,10.651,0.0030061,-0.002614,4.9199e-35,0.00067077,-129.77,-615.93,-224.68,63.745,5.0371e-14,-3.1533e-17,459.97,-624.25,-224.68,-121.45,0,0.013491,0,1,0.8,0,-0.8,0
0,0,0,0,0,0,0.00061463,-0.002542,-7.1769e-37,0.00040936,3.3805e-19,-1.7205e-22,10.471,0.002985,-0.0025948,4.9936e-35,0.00066741,-128.26,-611.36,-222.84,62.864,5.1821e-14,-2.2215e-17,456.77,-619.5,-222.84,-120.12,0,0.013505,0,1,0.805,0,-0.805,0
0,0,0,0,0,0,0.0006125,-0.002524,-7.4208e-37,0.00040361,3.4751e-19,-1.1183e-22,10.29,0.0029639,-0.0025755,5.0672e-35,0.00066405,-126.75,-606.8,-221,61.983,5.327e-14,-1.2898e-17,453.56,-614.74,-221,-118.8,0,0.01352,0,1,0.81,0,-0.81,0
0,0,0,0,0,0,0.00061036,-0.002506,-7.6648e-37,0.00039786,3.5697e-19,-5.1614e-23,10.109,0.0029428,-0.0025563,5.1409e-35,0.00066069,-125.24,-602.23,-219.16,61.102,5.4719e-14,-3.5812e-18,450.36,-609.99,-219.16,-117.48,0,0.013534,0,1,0.815,0,-0.815,0
0,0,0,0,0,0,0.00060822,-0.002488,-7.9088e-37,0.00039211,3.6643e-19,8.6025e-24,9.9286,0.0029218,-0.0025371,5.2145e-35,0.00065732,-123.72,-597.67,-217.32,60.221,5.6168e-14,5.736e-18,447.16,-605.23,-217.32,-116.16,0,0.013548,0,1,0.82,0,-0.82,0
0,0,0,0,0,0,0.00060608,-0.00247,-8.1527e-37,0.00038636,3.7589e-19,6.8819e-23,9.7479,0.0029007,-0.0025179,5.2881e-35,0.00065396,-122.21,-593.1,-215.48,59.34,5.7618e-14,1.5053e-17,443.96,-600.48,-215.48,-114.84,0,0.013563,0,1,0.825,0,-0.825,0
0,0,0,0,0,0,0.00060391,-0.0024543,-8.1209e-37,0.00038155,3.8747e-19,1.1181e-22,9.6052,0.0028822,-0.0025012,5.8287e-35,0.0006508,-120.98,-589.16,-213.92,58.602,5.9392e-14,2.1698e-17,441.16,-596.38,-213.92,-113.76,0,0.013576,0,1,0.83,0,-0.83,0
0,0,0,0,0,0,0.00060164,-0.0024444,-7.3907e-37,0.00037911,4.0438e-19,1.1122e-22,9.5587,0.0028704,-0.0024909,7.5509e-35,0.00064814,-120.45,-586.77,-213.03,58.228,6.1989e-14,2.158e-17,439.35,-593.94,-213.03,-113.28,0,0.013586,0,1,0.835,0,-0.835,0
0,0,0,0,0,0,0.00059937,-0.0024345,-6.6606e-37,0.00037667,4.213e-19,1.1062e-22,9.5121,0.0028586,-0.0024806,9.2732e-35,0.00064548,-119.92,-584.39,-212.15,57.853,6.4586e-14,2.1461e-17,437.55,-591.49,-212.15,-112.81,0,0.013596,0,1,0.84,0,-0.84,0
0,0,0,0,0,0,0.00059709,-0.0024246,-5.9305e-37,0.00037423,4.3822e-19,1.1002e-22,9.4656,0.0028467,-0.0024704,1.0995e-34,0.00064283,-119.39,-582,-211.27,57.479,6.7183e-14,2.1343e-17,435.75,-589.05,-211.27,-112.34,0,0.013607,0,1,0.845,0,-0.845,0
0,0,0,0,0,0,0.00059482,-0.0024147,-5.2003e-37,0.00037179,4.5514e-19,1.0943e-22,9.419,0.0028349,-0.0024601,1.2718e-34,0.00064017,-118.85,-579.62,-210.39,57.104,6.978e-14,2.1224e-17,433.95,-586.61,-210.39,-111.87,0,0.013617,0,1,0.85,0,-0.85,0
0,0,0,0,0,0,0.00059255,-0.0024049,-4.4702e-37,0.00036935,4.7206e-19,1.0883e-22,9.3725,0.0028231,-0.0024498,1.444e-34,0.00063751,-118.32,-577.23,-209.51,56.73,7.2377e-14,2.1106e-17,432.14,-584.16,-209.51,-111.4,0,0.013627,0,1,0.855,0,-0.855,0
0,0,0,0,0,0,0.00059028,-0.002395,-3.7401e-37,0.00036691,4.8898e-19,1.0824e-22,9.326,0.0028113,-0.0024396,1.6162e-34,0.00063485,-117.79,-574.85,-208.63,56.356,7.4974e-14,2.0988e-17,430.34,-581.72,-208.63,-110.92,0,0.013637,0,1,0.86,0,-0.86,0
0,0,0,0,0,0,0.00058801,-0.0023851,-3.01e-37,0.00036447,5.059e-19,1.0764e-22,9.2794,0.0027994,-0.0024293,1.7885e-34,0.00063219,-117.26,-572.47,-207.75,55.981,7.7572e-14,2.0869e-17,428.54,-579.27,-207.75,-110.45,0,0.013648,0,1,0.865,0,-0.865,0
0,0,0,0,0,0,0.00058574,-0.0023752,-2.2798e-37,0.00036204,5.2281e-19,1.0704e-22,9.2329,0.0027876,-0.002419,1.9607e-34,0.00062954,-116.73,-570.08,-206.87,55.607,8.0169e-14,2.0751e-17,426.74,-576.83,-206.87,-109.98,0,0.013658,0,1,0.87,0,-0.87,0
0,0,0,0,0,0,0.00058347,-0.0023653,-1.5497e-37,0.0003596,5.3973e-19,1.0645e-22,9.1864,0.0027758,-0.0024088,2.1329e-34,0.00062688,-116.2,-567.7,-205.99,55.233,8.2766e-14,2.0632e-17,424.93,-574.39,-205.99,-109.51,0,0.013668,0,1,0.875,0,-0.875,0
0,0,0,0,0,0,0.0005812,-0.0023555,-8.1958e-38,0.00035716,5.5665e-19,1.0585e-22,9.1398,0.002764,-0.0023985,2.3051e-34,0.00062422,-115.67,-565.31,-205.11,54.858,8.5363e-14,2.0514e-17,423.13,-571.94,-205.11,-109.04,0,0.013679,0,1,0.88,0,-0.88,0
0,0,0,0,0,0,0.00057893,-0.0023456,-8.9456e-39,0.00035472,5.7357e-19,1.0525e-22,9.0933,0.0027522,-0.0023882,2.4774e-34,0.00062156,-115.13,-562.93,-204.22,54.484,8.796e-14,2.0395e-17,421.33,-569.5,-204.22,-108.57,0,0.013689,0,1,0.885,0,-0.885,0
0,0,0,0,0,0,0.00057666,-0.0023357,6.4067e-38,0.00035228,5.9049e-19,1.0466e-22,9.0467,0.0027403,-0.002378,2.6496e-34,0.00061891,-114.6,-560.54,-203.34,54.11,9.0557e-14,2.0277e-17,419.52,-567.05,-203.34,-108.09,0,0.013699,0,1,0.89,0,-0.89,0
0,0,0,0,0,0,0.00057438,-0.0023258,1.3708e-37,0.00034984,6.0741e-19,1.0406e-22,9.0002,0.0027285,-0.0023677,2.8218e-34,0.00061625,-114.07,-558.16,-202.46,53.735,9.3154e-14,2.0159e-17,417.72,-564.61,-202.46,-107.62,0,0.013709,0,1,0.895,0,-0.895,0
0,0,0,0,0,0,0.00057211,-0.0023159,2.1009e-37,0.0003474,6.2433e-19,1.0347e-22,8.9537,0.0027167,-0.0023574,2.994e-34,0.00061359,-113.54,-555.78,-201.58,53.361,9.5751e-14,2.004e-17,415.92,-562.17,-201.58,-107.15,0,0.01372,0,1,0.9,0,-0.9,0
0,0,0,0,0,0,0.00056984,-0.0023061,2.831e-37,0.00034496,6.4124e-19,1.0287e-22,8.9071,0.0027049,-0.0023472,3.1663e-34,0.00061093,-113.01,-553.39,-200.7,52.986,9.8348e-14,1.9922e-17,414.12,-559.72,-200.7,-106.68,0,0.01373,0,1,0.905,0,-0.905,0
0,0,0,0,0,0,0.00056757,-0.0022962,3.5612e-37,0.00034252,6.5816e-19,1.0227e-22,8.8606,0.002693,-0.0023369,3.3385e-34,0.00060828,-112.48,-551.01,-199.82,52.612,1.0095e-13,1.9803e-17,412.31,-557.28,-199.82,-106.21,0,0.01374,0,1,0.91,0,-0.91,0
0,0,0,0,0,0,0.0005653,-0.0022863,4.2913e-37,0.00034008,6.7508e-19,1.0168e-22,8.814,0.0026812,-0.0023266,3.5107e-34,0.00060562,-111.95,-548.62,-198.94,52.238,1.0354e-13,1.9685e-17,410.51,-554.83,-198.94,-105.73,0,0.01375,0,1,0.915,0,-0.915,0
0,0,0,0,0,0,0.00056303,-0.0022764,5.0214e-37,0.00033765,6.92e-19,1.0108e-22,8.7675,0.0026694,-0.0023164,3.6829e-34,0.00060296,-111.41,-546.24,-198.06,51.863,1.0614e-13,1.9566e-17,408.71,-552.39,-198.06,-105.26,0,0.013761,0,1,0.92,0,-0.92,0
0,0,0,0,0,0,0.00056076,-0.0022665,5.7516e-37,0.00033521,7.0892e-19,1.0049e-22,8.721,0.0026576,-0.0023061,3.8552e-34,0.0006003,-110.88,-543.85,-197.18,51.489,1.0874e-13,1.9448e-17,406.91,-549.95,-197.18,-104.79,0,0.013771,0,1,0.925,0,-0.925,0
0,0,0,0,0,0,0.00055849,-0.0022567,6.4817e-37,0.00033277,7.2584e-19,9.9889e-23,8.6744,0.0026458,-0.0022958,4.0274e-34,0.00059764,-110.35,-541.47,-196.3,51.115,1.1133e-13,1.933e-17,405.1,-547.5,-196.3,-104.32,0,0.013781,0,1,0.93,0,-0.93,0
0,0,0,0,0,0,0.00055622,-0.0022468,7.2118e-37,0.00033033,7.4276e-19,9.9293e-23,8.6279,0.0026339,-0.0022855,4.1996e-34,0.00059499,-109.82,-539.08,-195.41,50.74,1.1393e-13,1.9211e-17,403.3,-545.06,-195.41,-103.85,0,0.013792,0,1,0.935,0,-0.935,0
0,0,0,0,0,0,0.00055394,-0.0022369,7.9419e-37,0.00032789,7.5967e-19,9.8697e-23,8.5814,0.0026221,-0.0022753,4.3719e-34,0.00059233,-109.29,-536.7,-194.53,50.366,1.1653e-13,1.9093e-17,401.5,-542.61,-194.53,-103.38,0,0.013802,0,1,0.94,0,-0.94,0
0,0,0,0,0,0,0.00055167,-0.002227,8.6721e-37,0.00032545,7.7659e-19,9.81e-23,8.5348,0.0026103,-0.002265,4.5441e-34,0.00058967,-108.76,-534.32,-193.65,49.991,1.1912e-13,1.8974e-17,399.69,-540.17,-193.65,-102.9,0,0.013812,0,1,0.945,0,-0.945,0
0,0,0,0,0,0,0.0005494,-0.0022171,9.4022e-37,0.00032301,7.9351e-19,9.7504e-23,8.4883,0.0025985,-0.0022547,4.7163e-34,0.00058701,-108.23,-531.93,-192.77,49.617,1.2172e-13,1.8856e-17,397.89,-537.73,-192.77,-102.43,0,0.013822,0,1,0.95,0,-0.95,0
0,0,0,0,0,0,0.00054713,-0.0022073,1.0132e-36,0.00032057,8.1043e-19,9.6908e-23,8.4417,0.0025866,-0.0022445,4.8885e-34,0.00058436,-107.7,-529.55,-191.89,49.243,1.2432e-13,1.8737e-17,396.09,-535.28,-191.89,-101.96,0,0.013833,0,1,0.955,0,-0.955,0
0,0,0,0,0,0,0.00054486,-0.0021974,1.0862e-36,0.00031813,8.2735e-19,9.6312e-23,8.3952,0.0025748,-0.0022342,5.0608e-34,0.0005817,-107.16,-527.16,-191.01,48.868,1.2692e-13,1.8619e-17,394.29,-532.84,-191.01,-101.49,0,0.013843,0,1,0.96,0,-0.96,0
0,0,0,0,0,0,0.00054259,-0.0021875,1.1593e-36,0.00031569,8.4427e-19,9.5716e-23,8.3487,0.002563,-0.0022239,5.233e-34,0.00057904,-106.63,-524.78,-190.13,48.494,1.2951e-13,1.8501e-17,392.48,-530.39,-190.13,-101.02,0,0.013853,0,1,0.965,0,-0.965,0
0,0,0,0,0,0,0.00054032,-0.0021776,1.2323e-36,0.00031325,8.6119e-19,9.5119e-23,8.3021,0.0025512,-0.0022137,5.4052e-34,0.00057638,-106.1,-522.39,-189.25,48.12,1.3211e-13,1.8382e-17,390.68,-527.95,-189.25,-100.54,0,0.013864,0,1,0.97,0,-0.97,0
0,0,0,0,0,0,0.00053805,-0.0021677,1.3053e-36,0.00031082,8.781e-19,9.4523e-23,8.2556,0.0025394,-0.0022034,5.5774e-34,0.00057373,-105.57,-520.01,-188.37,47.745,1.3471e-13,1.8264e-17,388.88,-525.51,-188.37,-100.07,0,0.013874,0,1,0.975,0,-0.975,0
0,0,0,0,0,0,0.00053578,-0.0021579,1.3783e-36,0.00030838,8.9502e-19,9.3927e-23,8.2091,0.0025275,-0.0021931,5.7497e-34,0.00057107,-105.04,-517.62,-187.49,47.371,1.373e-13,1.8145e-17,387.07,-523.06,-187.49,-99.601,0,0.013884,0,1,0.98,0,-0.98,0
0,0,0,0,0,0,0.0005335,-0.002148,1.4513e-36,0.00030594,9.1194e-19,9.3331e-23,8.1625,0.0025157,-0.0021829,5.9219e-34,0.00056841,-104.51,-515.24,-186.61,46.997,1.399e-13,1.8027e-17,385.27,-520.62,-186.61,-99.129,0,0.013894,0,1,0.985,0,-0.985,0
0,0,0,0,0,0,0.00053123,-0.0021381,1.5243e-36,0.0003035,9.2886e-19,9.2734e-23,8.116,0.0025039,-0.0021726,6.0941e-34,0.00056575,-103.98,-512.86,-185.72,46.622,1.425e-13,1.7908e-17,383.47,-518.17,-185.72,-98.657,0,0.013905,0,1,0.99,0,-0.99,0
0,0,0,0,0,0,0.00052896,-0.0021282,1.5973e-36,0.00030106,9.4578e-19,9.2138e-23,8.0694,0.0024921,-0.0021623,6.2663e-34,0.00056309,-103.44,-510.47,-184.84,46.248,1.451e-13,1.779e-17,381.67,-515.73,-184.84,-98.185,0,0.013915,0,1,0.995,0,-0.995,0
0,0,0,0,0,0,0.00052669,-0.0021183,1.6703e-36,0.00029862,9.627e-19,9.1542e-23,8.0229,0.0024802,-0.0021521,6.4386e-34,0.00056044,-102.91,-508.09,-183.96,45.873,1.4769e-13,1.7672e-17,379.86,-513.29,-183.96,-97.714,0,0.013925,0,1,1,0,-1,0
0,0,0,0,0,0,0.00052442,-0.0021084,1.7434e-36,0.00029618,9.7962e-19,9.0946e-23,7.9764,0.0024684,-0.0021418,6.6108e-34,0.00055778,-102.38,-505.7,-183.08,45.499,1.5029e-13,1.7553e-17,378.06,-510.84,-183.08,-97.242,0,0.013935,0,1,1.005,0,-1.005,0
0,0,0,0,0,0,0.00052215,-0.0020986,1.8164e-36,0.00029374,9.9653e-19,9.035e-23,7.9298,0.0024566,-0.0021315,6.783e-34,0.00055512,-101.85,-503.32,-182.2,45.125,1.5289e-13,1.7435e-17,376.26,-508.4,-182.2,-96.77,0,0.013946,0,1,1.01,0,-1.01,0
0,0,0,0,0,0,0.00051988,-0.0020887,1.8894e-36,0.0002913,1.0135e-18,8.9753e-23,7.8833,0.0024448,-0.0021213,6.9553e-34,0.00055246,-101.32,-500.93,-181.32,44.75,1.5548e-13,1.7316e-17,374.46,-505.95,-181.32,-96.298,0,0.013956,0,1,1.015,0,-1.015,0
0,0,0,0,0,0,0.00051761,-0.0020788,1.9624e-36,0.00028886,1.0304e-18,8.9157e-23,7.8367,0.002433,-0.002111,7.1275e-34,0.00054981,-100.79,-498.55,-180.44,44.376,1.5808e-13,1.7198e-17,372.65,-503.51,-180.44,-95.826,0,0.013966,0,1,1.02,0,-1.02,0
0,0,0,0,0,0,0.00051534,-0.0020689,2.0354e-36,0.00028643,1.0473e-18,8.8561e-23,7.7902,0.0024211,-0.0021007,7.2997e-34,0.00054715,-100.26,-496.16,-179.56,44.002,1.6068e-13,1.7079e-17,370.85,-501.07,-179.56,-95.354,0,0.013977,0,1,1.025,0,-1.025,0
0,0,0,0,0,0,0.00051307,-0.002059,2.1084e-36,0.00028399,1.0642e-18,8.7965e-23,7.7437,0.0024093,-0.0020905,7.4719e-34,0.00054449,-99.724,-493.78,-178.68,43.627,1.6328e-13,1.6961e-17,369.05,-498.62,-178.68,-94.883,0,0.013987,0,1,1.03,0,-1.03,0
0,0,0,0,0,0,0.00051079,-0.0020492,2.1814e-36,0.00028155,1.0811e-18,8.7369e-23,7.6971,0.0023975,-0.0020802,7.6442e-34,0.00054183,-99.192,-491.4,-177.8,43.253,1.6587e-13,1.6842e-17,367.24,-496.18,-177.8,-94.411,0,0.013997,0,1,1.035,0,-1.035,0
0,0,0,0,0,0,0.00050852,-0.0020393,2.2544e-36,0.00027911,1.098e-18,8.6772e-23,7.6506,0.0023857,-0.0020699,7.8164e-34,0.00053918,-98.661,-489.01,-176.91,42.878,1.6847e-13,1.6724e-17,365.44,-493.73,-176.91,-93.939,0,0.014007,0,1,1.04,0,-1.04,0
0,0,0,0,0,0,0.00050625,-0.0020294,2.3275e-36,0.00027667,1.115e-18,8.6176e-23,7.6041,0.0023738,-0.0020597,7.9886e-34,0.00053652,-98.13,-486.63,-176.03,42.504,1.7107e-13,1.6606e-17,363.64,-491.29,-176.03,-93.467,0,0.014018,0,1,1.045,0,-1.045,0
0,0,0,0,0,0,0.00050398,-0.0020195,2.4005e-36,0.00027423,1.1319e-18,8.558e-23,7.5575,0.002362,-0.0020494,8.1608e-34,0.00053386,-97.598,-484.24,-175.15,42.13,1.7366e-13,1.6487e-17,361.84,-488.85,-175.15,-92.995,0,0.014028,0,1,1.05,0,-1.05,0
0,0,0,0,0,0,0.00050171,-0.0020096,2.4735e-36,0.00027179,1.1488e-18,8.4984e-23,7.511,0.0023502,-0.0020391,8.3331e-34,0.0005312,-97.067,-481.86,-174.27,41.755,1.7626e-13,1.6369e-17,360.03,-486.4,-174.27,-92.523,0,0.014038,0,1,1.055,0,-1.055,0
0,0,0,0,0,0,0.00049944,-0.0019998,2.5465e-36,0.00026935,1.1657e-18,8.4388e-23,7.4644,0.0023384,-0.0020289,8.5053e-34,0.00052854,-96.535,-479.47,-173.39,41.381,1.7886e-13,1.625e-17,358.23,-483.96,-173.39,-92.052,0,0.014049,0,1,1.06,0,-1.06,0
0,0,0,0,0,0,0.00049717,-0.0019899,2.6195e-36,0.00026691,1.1826e-18,8.3791e-23,7.4179,0.0023266,-0.0020186,8.6775e-34,0.00052589,-96.004,-477.09,-172.51,41.007,1.8146e-13,1.6132e-17,356.43,-481.51,-172.51,-91.58,0,0.014059,0,1,1.065,0,-1.065,0
0,0,0,0,0,0,0.0004949,-0.00198,2.6925e-36,0.00026447,1.1996e-18,8.3195e-23,7.3714,0.0023147,-0.0020083,8.8497e-34,0.00052323,-95.472,-474.71,-171.63,40.632,1.8405e-13,1.6013e-17,354.63,-479.07,-171.63,-91.108,0,0.014069,0,1,1.07,0,-1.07,0
0,0,0,0,0,0,0.00049263,-0.0019701,2.7655e-36,0.00026203,1.2165e-18,8.2599e-23,7.3248,0.0023029,-0.0019981,9.022e-34,0.00052057,-94.941,-472.32,-170.75,40.258,1.8665e-13,1.5895e-17,352.82,-476.63,-170.75,-90.636,0,0.014079,0,1,1.075,0,-1.075,0
0,0,0,0,0,0,0.00049035,-0.0019602,2.8386e-36,0.0002596,1.2334e-18,8.2003e-23,7.2783,0.0022911,-0.0019878,9.1942e-34,0.00051791,-94.41,-469.94,-169.87,39.883,1.8925e-13,1.5777e-17,351.02,-474.18,-169.87,-90.164,0,0.01409,0,1,1.08,0,-1.08,0
0,0,0,0,0,0,0.00048808,-0.0019504,2.9116e-36,0.00025716,1.2503e-18,8.1406e-23,7.2317,0.0022793,-0.0019775,9.3664e-34,0.00051526,-93.878,-467.55,-168.99,39.509,1.9184e-13,1.5658e-17,349.22,-471.74,-168.99,-89.693,0,0.0141,0,1,1.085,0,-1.085,0
0,0,0,0,0,0,0.00048581,-0.0019405,2.9846e-36,0.00025472,1.2672e-18,8.081e-23,7.1852,0.0022674,-0.0019673,9.5387e-34,0.0005126,-93.347,-465.17,-168.1,39.135,1.9444e-13,1.554e-17,347.41,-469.29,-168.1,-89.221,0,0.01411,0,1,1.09,0,-1.09,0
0,0,0,0,0,0,0.00048354,-0.0019306,3.0576e-36,0.00025228,1.2842e-18,8.0214e-23,7.1387,0.0022556,-0.001957,9.7109e-34,0.00050994,-92.815,-462.78,-167.22,38.76,1.9704e-13,1.5421e-17,345.61,-466.85,-167.22,-88.749,0,0.014121,0,1,1.095,0,-1.095,0
0,0,0,0,0,0,0.00048127,-0.0019207,3.1306e-36,0.00024984,1.3011e-18,7.9618e-23,7.0921,0.0022438,-0.0019467,9.8831e-34,0.00050728,-92.284,-460.4,-166.34,38.386,1.9963e-13,1.5303e-17,343.81,-464.41,-166.34,-88.277,0,0.014131,0,1,1.1,0,-1.1,0
0,0,0,0,0,0,0.000479,-0.0019108,3.2036e-36,0.0002474,1.318e-18,7.9022e-23,7.0456,0.002232,-0.0019365,1.0055e-33,0.00050463,-91.753,-458.01,-165.46,38.012,2.0223e-13,1.5184e-17,342.01,-461.96,-165.46,-87.805,0,0.014141,0,1,1.105,0,-1.105,0
0,0,0,0,0,0,0.00047673,-0.001901,3.2766e-36,0.00024496,1.3349e-18,7.8425e-23,6.9991,0.0022202,-0.0019262,1.0228e-33,0.00050197,-91.221,-455.63,-164.58,37.637,2.0483e-13,1.5066e-17,340.2,-459.52,-164.58,-87.333,0,0.014151,0,1,1.11,0,-1.11,0
0,0,0,0,0,0,0.00047446,-0.0018911,3.3496e-36,0.00024252,1.3518e-18,7.7829e-23,6.9525,0.0022083,-0.0019159,1.04e-33,0.00049931,-90.69,-453.25,-163.7,37.263,2.0743e-13,1.4948e-17,338.4,-457.07,-163.7,-86.862,0,0.014162,0,1,1.115,0,-1.115,0
0,0,0,0,0,0,0.00047219,-0.0018812,3.4227e-36,0.00024008,1.3687e-18,7.7233e-23,6.906,0.0021965,-0.0019057,1.0572e-33,0.00049665,-90.158,-450.86,-162.82,36.889,2.1002e-13,1.4829e-17,336.6,-454.63,-162.82,-86.39,0,0.014172,0,1,1.12,0,-1.12,0
0,0,0,0,0,0,0.00046992,-0.0018713,3.4957e-36,0.00023764,1.3857e-18,7.6637e-23,6.8594,0.0021847,-0.0018954,1.0744e-33,0.00049399,-89.627,-448.48,-161.94,36.514,2.1262e-13,1.4711e-17,334.79,-452.19,-161.94,-85.918,0,0.014182,0,1,1.125,0,-1.125,0
0,0,0,0,0,0,0.00046764,-0.0018614,3.5687e-36,0.00023521,1.4026e-18,7.6041e-23,6.8129,0.0021729,-0.0018851,1.0916e-33,0.00049134,-89.095,-446.09,-161.06,36.14,2.1522e-13,1.4592e-17,332.99,-449.74,-161.06,-85.446,0,0.014192,0,1,1.13,0,-1.13,0
0,0,0,0,0,0,0.00046537,-0.0018516,3.6417e-36,0.00023277,1.4195e-18,7.5444e-23,6.7664,0.002161,-0.0018749,1.1089e-33,0.00048868,-88.564,-443.71,-160.18,35.765,2.1781e-13,1.4474e-17,331.19,-447.3,-160.18,-84.974,0,0.014203,0,1,1.135,0,-1.135,0
0,0,0,0,0,0,0.0004631,-0.0018417,3.7147e-36,0.00023033,1.4364e-18,7.4848e-23,6.7198,0.0021492,-0.0018646,1.1261e-33,0.00048602,-88.033,-441.32,-159.29,35.391,2.2041e-13,1.4355e-17,329.39,-444.85,-159.29,-84.502,0,0.014213,0,1,1.14,0,-1.14,0
0,0,0,0,0,0,0.00046083,-0.0018318,3.7877e-36,0.00022789,1.4533e-18,7.4252e-23,6.6733,0.0021374,-0.0018543,1.1433e-33,0.00048336,-87.501,-438.94,-158.41,35.017,2.2301e-13,1.4237e-17,327.58,-442.41,-158.41,-84.031,0,0.014223,0,1,1.145,0,-1.145,0
0,0,0,0,0,0,0.00045856,-0.0018219,3.8607e-36,0.00022545,1.4703e-18,7.3656e-23,6.6267,0.0021256,-0.0018441,1.1605e-33,0.00048071,-86.97,-436.55,-157.53,34.642,2.2561e-13,1.4119e-17,325.78,-439.97,-157.53,-83.559,0,0.014234,0,1,1.15,0,-1.15,0
0,0,0,0,0,0,0.00045629,-0.001812,3.9337e-36,0.00022301,1.4872e-18,7.306e-23,6.5802,0.0021138,-0.0018338,1.1778e-33,0.00047805,-86.438,-434.17,-156.65,34.268,2.282e-13,1.4e-17,323.98,-437.52,-156.65,-83.087,0,0.014244,0,1,1.155,0,-1.155,0
0,0,0,0,0,0,0.00045402,-0.0018021,4.0068e-36,0.00022057,1.5041e-18,7.2463e-23,6.5337,0.0021019,-0.0018235,1.195e-33,0.00047539,-85.907,-431.79,-155.77,33.894,2.308e-13,1.3882e-17,322.18,-435.08,-155.77,-82.615,0,0.014254,0,1,1.16,0,-1.16,0
0,0,0,0,0,0,0.00045215,-0.0017949,3.9992e-36,0.00021896,1.4976e-18,7.0211e-23,6.5009,0.0020932,-0.001816,1.1908e-33,0.0004733,-85.566,-430.05,-155.14,33.646,2.298e-13,1.3505e-17,320.84,-433.3,-155.14,-82.31,0,0.014263,0,1,1.165,0,-1.165,0
0,0,0,0,0,0,0.00045052,-0.001789,3.9454e-36,0.00021782,1.4776e-18,6.7012e-23,6.476,0.0020862,-0.00181,1.1745e-33,0.00047152,-85.334,-428.68,-154.66,33.471,2.2674e-13,1.2982e-17,319.77,-431.91,-154.66,-82.099,0,0.014271,0,1,1.17,0,-1.17,0
0,0,0,0,0,0,0.00044889,-0.0017832,3.8917e-36,0.00021668,1.4577e-18,6.3812e-23,6.4511,0.0020792,-0.0018041,1.1581e-33,0.00046975,-85.102,-427.31,-154.18,33.297,2.2367e-13,1.2458e-17,318.7,-430.52,-154.18,-81.889,0,0.014278,0,1,1.175,0,-1.175,0
0,0,0,0,0,0,0.00044726,-0.0017774,3.8379e-36,0.00021555,1.4377e-18,6.0612e-23,6.4262,0.0020721,-0.0017981,1.1418e-33,0.00046797,-84.87,-425.94,-153.69,33.122,2.2061e-13,1.1934e-17,317.62,-429.13,-153.69,-81.679,0,0.014286,0,1,1.18,0,-1.18,0
0,0,0,0,0,0,0.00044563,-0.0017716,3.7842e-36,0.00021441,1.4178e-18,5.7413e-23,6.4012,0.0020651,-0.0017922,1.1254e-33,0.0004662,-84.637,-424.57,-153.21,32.947,2.1755e-13,1.141e-17,316.55,-427.74,-153.21,-81.469,0,0.014294,0,1,1.185,0,-1.185,0
0,0,0,0,0,0,0.00044399,-0.0017658,3.7305e-36,0.00021327,1.3978e-18,5.4213e-23,6.3763,0.0020581,-0.0017862,1.109e-33,0.00046443,-84.405,-423.2,-152.73,32.772,2.1449e-13,1.0886e-17,315.48,-426.34,-152.73,-81.259,0,0.014301,0,1,1.19,0,-1.19,0
0,0,0,0,0,0,0.00044236,-0.00176,3.6767e-36,0.00021213,1.3779e-18,5.1013e-23,6.3514,0.0020511,-0.0017803,1.0927e-33,0.00046265,-84.173,-421.83,-152.24,32.597,2.1143e-13,1.0362e-17,314.41,-424.95,-152.24,-81.048,0,0.014309,0,1,1.195,0,-1.195,0
0,0,0,0,0,0,0.00044073,-0.0017542,3.623e-36,0.00021099,1.3579e-18,4.7814e-23,6.3265,0.0020441,-0.0017743,1.0763e-33,0.00046088,-83.941,-420.46,-151.76,32.423,2.0837e-13,9.8385e-18,313.34,-423.56,-151.76,-80.838,0,0.014317,0,1,1.2,0,-1.2,0
0,0,0,0,0,0,0.0004391,-0.0017484,3.5692e-36,0.00020986,1.3379e-18,4.4614e-23,6.3016,0.0020371,-0.0017684,1.06e-33,0.0004591,-83.709,-419.09,-151.28,32.248,2.053e-13,9.3147e-18,312.27,-422.17,-151.28,-80.628,0,0.014325,0,1,1.205,0,-1.205,0
0,0,0,0,0,0,0.00043747,-0.0017426,3.5155e-36,0.00020872,1.318e-18,4.1414e-23,6.2767,0.0020301,-0.0017624,1.0436e-33,0.00045733,-83.477,-417.72,-150.79,32.073,2.0224e-13,8.7908e-18,311.2,-420.78,-150.79,-80.418,0,0.014332,0,1,1.21,0,-1.21,0
0,0,0,0,0,0,0.00043583,-0.0017368,3.4618e-36,0.00020758,1.298e-18,3.8215e-23,6.2518,0.0020231,-0.0017565,1.0273e-33,0.00045556,-83.245,-416.35,-150.31,31.898,1.9918e-13,8.267e-18,310.13,-419.38,-150.31,-80.208,0,0.01434,0,1,1.215,0,-1.215,0
0,0,0,0,0,0,0.0004342,-0.0017309,3.408e-36,0.00020644,1.2781e-18,3.5015e-23,6.2269,0.0020161,-0.0017505,1.0109e-33,0.00045378,-83.013,-414.98,-149.83,31.724,1.9612e-13,7.7431e-18,309.06,-417.99,-149.83,-79.997,0,0.014348,0,1,1.22,0,-1.22,0
0,0,0,0,0,0,0.00043257,-0.0017251,3.3543e-36,0.0002053,1.2581e-18,3.1815e-23,6.202,0.0020091,-0.0017446,9.9453e-34,0.00045201,-82.781,-413.61,-149.34,31.549,1.9306e-13,7.2193e-18,307.98,-416.6,-149.34,-79.787,0,0.014356,0,1,1.225,0,-1.225,0
0,0,0,0,0,0,0.00043094,-0.0017193,3.3006e-36,0.00020417,1.2382e-18,2.8616e-23,6.177,0.0020021,-0.0017386,9.7817e-34,0.00045023,-82.549,-412.24,-148.86,31.374,1.9e-13,6.6954e-18,306.91,-415.21,-148.86,-79.577,0,0.014363,0,1,1.23,0,-1.23,0
0,0,0,0,0,0,0.00042931,-0.0017135,3.2468e-36,0.00020303,1.2182e-18,2.5416e-23,6.1521,0.0019951,-0.0017327,9.6181e-34,0.00044846,-82.316,-410.87,-148.38,31.199,1.8693e-13,6.1716e-18,305.84,-413.82,-148.38,-79.367,0,0.014371,0,1,1.235,0,-1.235,0
0,0,0,0,0,0,0.00042768,-0.0017077,3.1931e-36,0.00020189,1.1983e-18,2.2216e-23,6.1272,0.0019881,-0.0017267,9.4545e-34,0.00044669,-82.084,-409.5,-147.89,31.024,1.8387e-13,5.6477e-18,304.77,-412.43,-147.89,-79.157,0,0.014379,0,1,1.24,0,-1.24,0
0,0,0,0,0,0,0.00042604,-0.0017019,3.1393e-36,0.00020075,1.1783e-18,1.9017e-23,6.1023,0.0019811,-0.0017208,9.2909e-34,0.00044491,-81.852,-408.13,-147.41,30.85,1.8081e-13,5.1239e-18,303.7,-411.03,-147.41,-78.946,0,0.014386,0,1,1.245,0,-1.245,0
0,0,0,0,0,0,0.00042441,-0.0016961,3.0856e-36,0.00019961,1.1584e-18,1.5817e-23,6.0774,0.0019741,-0.0017148,9.1273e-34,0.00044314,-81.62,-406.76,-146.93,30.675,1.7775e-13,4.6e-18,302.63,-409.64,-146.93,-78.736,0,0.014394,0,1,1.25,0,-1.25,0
0,0,0,0,0,0,0.00042278,-0.0016903,3.0319e-36,0.00019848,1.1384e-18,1.2617e-23,6.0525,0.0019671,-0.0017089,8.9637e-34,0.00044136,-81.388,-405.39,-146.44,30.5,1.7469e-13,4.0762e-18,301.56,-408.25,-146.44,-78.526,0,0.014402,0,1,1.255,0,-1.255,0
0,0,0,0,0,0,0.00042115,-0.0016845,2.9781e-36,0.00019734,1.1185e-18,9.4175e-24,6.0276,0.00196,-0.0017029,8.8001e-34,0.00043959,-81.156,-404.02,-145.96,30.325,1.7163e-13,3.5523e-18,300.49,-406.86,-145.96,-78.316,0,0.01441,0,1,1.26,0,-1.26,0
0,0,0,0,0,0,0.00041952,-0.0016787,2.9244e-36,0.0001962,1.0985e-18,6.2179e-24,6.0027,0.001953,-0.001697,8.6365e-34,0.00043782,-80.924,-402.65,-145.48,30.15,1.6856e-13,3.0285e-18,299.42,-405.47,-145.48,-78.106,0,0.014417,0,1,1.265,0,-1.265,0
0,0,0,0,0,0,0.00041788,-0.0016729,2.8707e-36,0.00019506,1.0786e-18,3.0182e-24,5.9778,0.001946,-0.001691,8.4729e-34,0.00043604,-80.692,-401.28,-144.99,29.976,1.655e-13,2.5047e-18,298.34,-404.07,-144.99,-77.895,0,0.014425,0,1,1.27,0,-1.27,0
0,0,0,0,0,0,0.00041625,-0.001667,2.8169e-36,0.00019393,1.0586e-18,-1.8148e-25,5.9528,0.001939,-0.0016851,8.3093e-34,0.00043427,-80.46,-399.91,-144.51,29.801,1.6244e-13,1.9808e-18,297.27,-402.68,-144.51,-77.685,0,0.014433,0,1,1.275,0,-1.275,0
0,0,0,0,0,0,0.00041462,-0.0016612,2.7632e-36,0.00019279,1.0387e-18,-3.3812e-24,5.9279,0.001932,-0.0016791,8.1457e-34,0.00043249,-80.228,-398.54,-144.03,29.626,1.5938e-13,1.457e-18,296.2,-401.29,-144.03,-77.475,0,0.01444,0,1,1.28,0,-1.28,0
0,0,0,0,0,0,0.00041299,-0.0016554,2.7094e-36,0.00019165,1.0187e-18,-6.5808e-24,5.903,0.001925,-0.0016732,7.9822e-34,0.00043072,-79.995,-397.17,-143.54,29.451,1.5632e-13,9.3311e-19,295.13,-399.9,-143.54,-77.265,0,0.014448,0,1,1.285,0,-1.285,0
0,0,0,0,0,0,0.00041136,-0.0016496,2.6557e-36,0.00019051,9.9878e-19,-9.7805e-24,5.8781,0.001918,-0.0016672,7.8186e-34,0.00042895,-79.763,-395.8,-143.06,29.277,1.5326e-13,4.0927e-19,294.06,-398.51,-143.06,-77.055,0,0.014456,0,1,1.29,0,-1.29,0
0,0,0,0,0,0,0.00040973,-0.0016438,2.602e-36,0.00018937,9.7882e-19,-1.298e-23,5.8532,0.001911,-0.0016613,7.655e-34,0.00042717,-79.531,-394.43,-142.58,29.102,1.5019e-13,-1.1458e-19,292.99,-397.11,-142.58,-76.844,0,0.014464,0,1,1.295,0,-1.295,0
0,0,0,0,0,0,0.00040809,-0.001638,2.5482e-36,0.00018824,9.5887e-19,-1.618e-23,5.8283,0.001904,-0.0016553,7.4914e-34,0.0004254,-79.299,-393.06,-142.09,28.927,1.4713e-13,-6.3842e-19,291.92,-395.72,-142.09,-76.634,0,0.014471,0,1,1.3,0,-1.3,0
0,0,0,0,0,0,0.00040646,-0.0016322,2.4945e-36,0.0001871,9.3892e-19,-1.938e-23,5.8034,0.001897,-0.0016493,7.3278e-34,0.00042362,-79.067,-391.69,-141.61,28.752,1.4407e-13,-1.1623e-18,290.85,-394.33,-141.61,-76.424,0,0.014479,0,1,1.305,0,-1.305,0
0,0,0,0,0,0,0.00040483,-0.0016264,2.4408e-36,0.00018596,9.1897e-19,-2.2579e-23,5.7785,0.00189,-0.0016434,7.1642e-34,0.00042185,-78.835,-390.32,-141.13,28.577,1.4101e-13,-1.6861e-18,289.78,-392.94,-141.13,-76.214,0,0.014487,0,1,1.31,0,-1.31,0
0,0,0,0,0,0,0.0004032,-0.0016206,2.387e-36,0.00018482,8.9902e-19,-2.5779e-23,5.7536,0.001883,-0.0016374,7.0006e-34,0.00042008,-78.603,-388.95,-140.64,28.403,1.3795e-13,-2.21e-18,288.7,-391.55,-140.64,-76.003,0,0.014495,0,1,1.315,0,-1.315,0
0,0,0,0,0,0,0.00040157,-0.0016148,2.3333e-36,0.00018368,8.7907e-19,-2.8979e-23,5.7286,0.001876,-0.0016315,6.837e-34,0.0004183,-78.371,-387.58,-140.16,28.228,1.3489e-13,-2.7338e-18,287.63,-390.16,-140.16,-75.793,0,0.014502,0,1,1.32,0,-1.32,0
0,0,0,0,0,0,0.00039993,-0.0016089,2.2795e-36,0.00018255,8.5912e-19,-3.2178e-23,5.7037,0.001869,-0.0016255,6.6734e-34,0.00041653,-78.139,-386.21,-139.68,28.053,1.3182e-13,-3.2577e-18,286.56,-388.76,-139.68,-75.583,0,0.01451,0,1,1.325,0,-1.325,0
0,0,0,0,0,0,0.0003983,-0.0016031,2.2258e-36,0.00018141,8.3916e-19,-3.5378e-23,5.6788,0.001862,-0.0016196,6.5098e-34,0.00041475,-77.907,-384.84,-139.19,27.878,1.2876e-13,-3.7815e-18,285.49,-387.37,-139.19,-75.373,0,0.014518,0,1,1.33,0,-1.33,0
0,0,0,0,0,0,0.00039667,-0.0015973,2.1721e-36,0.00018027,8.1921e-19,-3.8578e-23,5.6539,0.0018549,-0.0016136,6.3462e-34,0.00041298,-77.674,-383.47,-138.71,27.703,1.257e-13,-4.3054e-18,284.42,-385.98,-138.71,-75.163,0,0.014525,0,1,1.335,0,-1.335,0
0,0,0,0,0,0,0.00039504,-0.0015915,2.1183e-36,0.00017913,7.9926e-19,-4.1777e-23,5.629,0.0018479,-0.0016077,6.1826e-34,0.00041121,-77.442,-382.1,-138.23,27.529,1.2264e-13,-4.8292e-18,283.35,-384.59,-138.23,-74.952,0,0.014533,0,1,1.34,0,-1.34,0
0,0,0,0,0,0,0.00039341,-0.0015857,2.0646e-36,0.00017799,7.7931e-19,-4.4977e-23,5.6041,0.0018409,-0.0016017,6.019e-34,0.00040943,-77.21,-380.73,-137.75,27.354,1.1958e-13,-5.3531e-18,282.28,-383.2,-137.75,-74.742,0,0.014541,0,1,1.345,0,-1.345,0
0,0,0,0,0,0,0.00039178,-0.0015799,2.0108e-36,0.00017686,7.5936e-19,-4.8177e-23,5.5792,0.0018339,-0.0015958,5.8554e-34,0.00040766,-76.978,-379.36,-137.26,27.179,1.1652e-13,-5.8769e-18,281.21,-381.8,-137.26,-74.532,0,0.014549,0,1,1.35,0,-1.35,0
0,0,0,0,0,0,0.00039014,-0.0015741,1.9571e-36,0.00017572,7.3941e-19,-5.1376e-23,5.5543,0.0018269,-0.0015898,5.6918e-34,0.00040588,-76.746,-377.99,-136.78,27.004,1.1345e-13,-6.4007e-18,280.14,-380.41,-136.78,-74.322,0,0.014556,0,1,1.355,0,-1.355,0
0,0,0,0,0,0,0.00038851,-0.0015683,1.9034e-36,0.00017458,7.1946e-19,-5.4576e-23,5.5294,0.0018199,-0.0015839,5.5282e-34,0.00040411,-76.514,-376.62,-136.3,26.83,1.1039e-13,-6.9246e-18,279.06,-379.02,-136.3,-74.112,0,0.014564,0,1,1.36,0,-1.36,0
0,0,0,0,0,0,0.00038688,-0.0015625,1.8496e-36,0.00017344,6.995e-19,-5.7776e-23,5.5044,0.0018129,-0.0015779,5.3646e-34,0.00040234,-76.282,-375.25,-135.81,26.655,1.0733e-13,-7.4484e-18,277.99,-377.63,-135.81,-73.901,0,0.014572,0,1,1.365,0,-1.365,0
0,0,0,0,0,0,0.00038525,-0.0015567,1.7959e-36,0.0001723,6.7955e-19,-6.0975e-23,5.4795,0.0018059,-0.001572,5.201e-34,0.00040056,-76.05,-373.88,-135.33,26.48,1.0427e-13,-7.9723e-18,276.92,-376.24,-135.33,-73.691,0,0.01458,0,1,1.37,0,-1.37,0
0,0,0,0,0,0,0.00038362,-0.0015508,1.7422e-36,0.00017117,6.596e-19,-6.4175e-23,5.4546,0.0017989,-0.001566,5.0374e-34,0.00039879,-75.818,-372.51,-134.85,26.305,1.0121e-13,-8.4961e-18,275.85,-374.84,-134.85,-73.481,0,0.014587,0,1,1.375,0,-1.375,0
0,0,0,0,0,0,0.00038198,-0.001545,1.6884e-36,0.00017003,6.3965e-19,-6.7375e-23,5.4297,0.0017919,-0.0015601,4.8738e-34,0.00039702,-75.586,-371.14,-134.36,26.13,9.8146e-14,-9.02e-18,274.78,-373.45,-134.36,-73.271,0,0.014595,0,1,1.38,0,-1.38,0
0,0,0,0,0,0,0.00038035,-0.0015392,1.6347e-36,0.00016889,6.197e-19,-7.0574e-23,5.4048,0.0017849,-0.0015541,4.7102e-34,0.00039524,-75.353,-369.77,-133.88,25.956,9.5084e-14,-9.5438e-18,273.71,-372.06,-133.88,-73.061,0,0.014603,0,1,1.385,0,-1.385,0
0,0,0,0,0,0,0.00037872,-0.0015334,1.5809e-36,0.00016775,5.9975e-19,-7.3774e-23,5.3799,0.0017779,-0.0015482,4.5466e-34,0.00039347,-75.121,-368.4,-133.4,25.781,9.2023e-14,-1.0068e-17,272.64,-370.67,-133.4,-72.85,0,0.01461,0,1,1.39,0,-1.39,0
0,0,0,0,0,0,0.00037709,-0.0015276,1.5272e-36,0.00016662,5.798e-19,-7.6974e-23,5.355,0.0017709,-0.0015422,4.383e-34,0.00039169,-74.889,-367.03,-132.91,25.606,8.8961e-14,-1.0592e-17,271.57,-369.28,-132.91,-72.64,0,0.014618,0,1,1.395,0,-1.395,0
0,0,0,0,0,0,0.00037546,-0.0015218,1.4735e-36,0.00016548,5.5984e-19,-8.0173e-23,5.3301,0.0017639,-0.0015363,4.2194e-34,0.00038992,-74.657,-365.66,-132.43,25.431,8.5899e-14,-1.1115e-17,270.5,-367.89,-132.43,-72.43,0,0.014626,0,1,1.4,0,-1.4,0
0,0,0,0,0,0,0.00037383,-0.001516,1.4197e-36,0.00016434,5.3989e-19,-8.3373e-23,5.3052,0.0017569,-0.0015303,4.0558e-34,0.00038815,-74.425,-364.29,-131.95,25.256,8.2838e-14,-1.1639e-17,269.42,-366.49,-131.95,-72.22,0,0.014634,0,1,1.405,0,-1.405,0
0,0,0,0,0,0,0.00037219,-0.0015102,1.366e-36,0.0001632,5.1994e-19,-8.6573e-23,5.2802,0.0017498,-0.0015244,3.8922e-34,0.00038637,-74.193,-362.92,-131.46,25.082,7.9776e-14,-1.2163e-17,268.35,-365.1,-131.46,-72.01,0,0.014641,0,1,1.41,0,-1.41,0
0,0,0,0,0,0,0.00037056,-0.0015044,1.3123e-36,0.00016206,4.9999e-19,-8.9772e-23,5.2553,0.0017428,-0.0015184,3.7286e-34,0.0003846,-73.961,-361.55,-130.98,24.907,7.6714e-14,-1.2687e-17,267.28,-363.71,-130.98,-71.799,0,0.014649,0,1,1.415,0,-1.415,0
0,0,0,0,0,0,0.00036893,-0.0014986,1.2585e-36,0.00016093,4.8004e-19,-9.2972e-23,5.2304,0.0017358,-0.0015125,3.565e-34,0.00038282,-73.729,-360.18,-130.5,24.732,7.3653e-14,-1.3211e-17,266.21,-362.32,-130.5,-71.589,0,0.014657,0,1,1.42,0,-1.42,0
0,0,0,0,0,0,0.0003673,-0.0014928,1.2048e-36,0.00015979,4.6009e-19,-9.6172e-23,5.2055,0.0017288,-0.0015065,3.4014e-34,0.00038105,-73.497,-358.81,-130.01,24.557,7.0591e-14,-1.3735e-17,265.14,-360.93,-130.01,-71.379,0,0.014664,0,1,1.425,0,-1.425,0
0,0,0,0,0,0,0.00036567,-0.0014869,1.151e-36,0.00015865,4.4014e-19,-9.9371e-23,5.1806,0.0017218,-0.0015006,3.2379e-34,0.00037928,-73.264,-357.44,-129.53,24.383,6.7529e-14,-1.4258e-17,264.07,-359.53,-129.53,-71.169,0,0.014672,0,1,1.43,0,-1.43,0
0,0,0,0,0,0,0.00036403,-0.0014811,1.0973e-36,0.00015751,4.2018e-19,-1.0257e-22,5.1557,0.0017148,-0.0014946,3.0743e-34,0.0003775,-73.032,-356.07,-129.05,24.208,6.4468e-14,-1.4782e-17,263,-358.14,-129.05,-70.959,0,0.01468,0,1,1.435,0,-1.435,0
0,0,0,0,0,0,0.0003624,-0.0014753,1.0436e-36,0.00015637,4.0023e-19,-1.0577e-22,5.1308,0.0017078,-0.0014886,2.9107e-34,0.00037573,-72.8,-354.7,-128.56,24.033,6.1406e-14,-1.5306e-17,261.93,-356.75,-128.56,-70.748,0,0.014688,0,1,1.44,0,-1.44,0
0,0,0,0,0,0,0.00036077,-0.0014695,9.8982e-37,0.00015524,3.8028e-19,-1.0897e-22,5.1059,0.0017008,-0.0014827,2.7471e-34,0.00037395,-72.568,-353.33,-128.08,23.858,5.8344e-14,-1.583e-17,260.86,-355.36,-128.08,-70.538,0,0.014695,0,1,1.445,0,-1.445,0
0,0,0,0,0,0,0.00035914,-0.0014637,9.3608e-37,0.0001541,3.6033e-19,-1.1217e-22,5.081,0.0016938,-0.0014767,2.5835e-34,0.00037218,-72.336,-351.96,-127.6,23.683,5.5283e-14,-1.6354e-17,259.78,-353.97,-127.6,-70.328,0,0.014703,0,1,1.45,0,-1.45,0
0,0,0,0,0,0,0.00035751,-0.0014579,8.8235e-37,0.00015296,3.4038e-19,-1.1537e-22,5.056,0.0016868,-0.0014708,2.4199e-34,0.00037041,-72.104,-350.59,-127.11,23.509,5.2221e-14,-1.6878e-17,258.71,-352.58,-127.11,-70.118,0,0.014711,0,1,1.455,0,-1.455,0
0,0,0,0,0,0,0.00035587,-0.0014521,8.2861e-37,0.00015182,3.2043e-19,-1.1857e-22,5.0311,0.0016798,-0.0014648,2.2563e-34,0.00036863,-71.872,-349.22,-126.63,23.334,4.9159e-14,-1.7402e-17,257.64,-351.18,-126.63,-69.907,0,0.014719,0,1,1.46,0,-1.46,0
0,0,0,0,0,0,0.00035424,-0.0014463,7.7487e-37,0.00015068,3.0048e-19,-1.2177e-22,5.0062,0.0016728,-0.0014589,2.0927e-34,0.00036686,-71.64,-347.85,-126.15,23.159,4.6097e-14,-1.7925e-17,256.57,-349.79,-126.15,-69.697,0,0.014726,0,1,1.465,0,-1.465,0
0,0,0,0,0,0,0.00035261,-0.0014405,7.2113e-37,0.00014955,2.8052e-19,-1.2497e-22,4.9813,0.0016658,-0.0014529,1.9291e-34,0.00036508,-71.408,-346.48,-125.66,22.984,4.3036e-14,-1.8449e-17,255.5,-348.4,-125.66,-69.487,0,0.014734,0,1,1.47,0,-1.47,0
0,0,0,0,0,0,0.00035098,-0.0014347,6.6739e-37,0.00014841,2.6057e-19,-1.2817e-22,4.9564,0.0016588,-0.001447,1.7655e-34,0.00036331,-71.176,-345.11,-125.18,22.809,3.9974e-14,-1.8973e-17,254.43,-347.01,-125.18,-69.277,0,0.014742,0,1,1.475,0,-1.475,0
0,0,0,0,0,0,0.00034935,-0.0014288,6.1366e-37,0.00014727,2.4062e-19,-1.3137e-22,4.9315,0.0016518,-0.001441,1.6019e-34,0.00036154,-70.943,-343.74,-124.7,22.635,3.6912e-14,-1.9497e-17,253.36,-345.62,-124.7,-69.067,0,0.014749,0,1,1.48,0,-1.48,0
0,0,0,0,0,0,0.00034772,-0.001423,5.5992e-37,0.00014613,2.2067e-19,-1.3457e-22,4.9066,0.0016447,-0.0014351,1.4383e-34,0.00035976,-70.711,-342.37,-124.21,22.46,3.3851e-14,-2.0021e-17,252.29,-344.22,-124.21,-68.856,0,0.014757,0,1,1.485,0,-1.485,0
0,0,0,0,0,0,0.00034608,-0.0014172,5.0618e-37,0.00014499,2.0072e-19,-1.3777e-22,4.8817,0.0016377,-0.0014291,1.2747e-34,0.00035799,-70.479,-341,-123.73,22.285,3.0789e-14,-2.0545e-17,251.22,-342.83,-123.73,-68.646,0,0.014765,0,1,1.49,0,-1.49,0
0,0,0,0,0,0,0.00034445,-0.0014114,4.5244e-37,0.00014386,1.8077e-19,-1.4097e-22,4.8568,0.0016307,-0.0014232,1.1111e-34,0.00035621,-70.247,-339.63,-123.25,22.11,2.7727e-14,-2.1068e-17,250.14,-341.44,-123.25,-68.436,0,0.014773,0,1,1.495,0,-1.495,0
0,0,0,0,0,0,0.00034282,-0.0014056,3.987e-37,0.00014272,1.6082e-19,-1.4417e-22,4.8318,0.0016237,-0.0014172,9.475e-35,0.00035444,-70.015,-338.26,-122.76,21.936,2.4666e-14,-2.1592e-17,249.07,-340.05,-122.76,-68.226,0,0.01478,0,1,1.5,0,-1.5,0
0,0,0,0,0,0,0.00034119,-0.0013998,3.4497e-37,0.00014158,1.4086e-19,-1.4737e-22,4.8069,0.0016167,-0.0014113,7.839e-35,0.00035267,-69.783,-336.89,-122.28,21.761,2.1604e-14,-2.2116e-17,248,-338.66,-122.28,-68.016,0,0.014788,0,1,1.505,0,-1.505,0
0,0,0,0,0,0,0.00033956,-0.001394,2.9123e-37,0.00014044,1.2091e-19,-1.5057e-22,4.782,0.0016097,-0.0014053,6.203e-35,0.00035089,-69.551,-335.52,-121.8,21.586,1.8542e-14,-2.264e-17,246.93,-337.26,-121.8,-67.805,0,0.014796,0,1,1.51,0,-1.51,0
0,0,0,0,0,0,0.00033792,-0.0013882,2.3749e-37,0.00013931,1.0096e-19,-1.5377e-22,4.7571,0.0016027,-0.0013994,4.5671e-35,0.00034912,-69.319,-334.15,-121.31,21.411,1.5481e-14,-2.3164e-17,245.86,-335.87,-121.31,-67.595,0,0.014804,0,1,1.515,0,-1.515,0
0,0,0,0,0,0,0.00033629,-0.0013824,1.8375e-37,0.00013817,8.101e-20,-1.5697e-22,4.7322,0.0015957,-0.0013934,2.9311e-35,0.00034734,-69.087,-332.78,-120.83,21.236,1.2419e-14,-2.3688e-17,244.79,-334.48,-120.83,-67.385,0,0.014811,0,1,1.52,0,-1.52,0
0,0,0,0,0,0,0.00033466,-0.0013766,1.3001e-37,0.00013703,6.1058e-20,-1.6017e-22,4.7073,0.0015887,-0.0013875,1.2951e-35,0.00034557,-68.855,-331.41,-120.35,21.062,9.3575e-15,-2.4212e-17,243.72,-333.09,-120.35,-67.175,0,0.014819,0,1,1.525,0,-1.525,0
0,0,0,0,0,0,0.0003332,-0.0013714,9.2912e-38,0.00013606,4.6617e-20,-1.6914e-22,4.6856,0.0015825,-0.0013822,1.7131e-36,0.00034399,-68.656,-330.2,-119.92,20.913,7.1414e-15,-2.5616e-17,242.77,-331.86,-119.92,-66.995,0,0.014826,0,1,1.53,0,-1.53,0
0,0,0,0,0,0,0.0003321,-0.0013678,9.2842e-38,0.00013548,4.4443e-20,-1.9098e-22,4.6711,0.0015781,-0.0013785,1.8742e-36,0.00034283,-68.534,-329.36,-119.63,20.824,6.8075e-15,-2.8983e-17,242.1,-331.01,-119.63,-66.881,0,0.014832,0,1,1.535,0,-1.535,0
0,0,0,0,0,0,0.000331,-0.0013642,9.2772e-38,0.0001349,4.2268e-20,-2.1282e-22,4.6566,0.0015738,-0.0013749,2.0353e-36,0.00034168,-68.411,-328.51,-119.34,20.735,6.4737e-15,-3.2349e-17,241.44,-330.16,-119.34,-66.768,0,0.014838,0,1,1.54,0,-1.54,0
0,0,0,0,0,0,0.00032991,-0.0013606,9.2702e-38,0.00013432,4.0094e-20,-2.3467e-22,4.6421,0.0015694,-0.0013712,2.1964e-36,0.00034052,-68.289,-327.67,-119.05,20.646,6.1398e-15,-3.5715e-17,240.77,-329.3,-119.05,-66.655,0,0.014844,0,1,1.545,0,-1.545,0
0,0,0,0,0,0,0.00032881,-0.001357,9.2632e-38,0.00013374,3.7919e-20,-2.5651e-22,4.6275,0.0015651,-0.0013675,2.3575e-36,0.00033936,-68.166,-326.83,-118.76,20.557,5.8059e-15,-3.9081e-17,240.1,-328.45,-118.76,-66.541,0,0.01485,0,1,1.55,0,-1.55,0
0,0,0,0,0,0,0.00032771,-0.0013534,9.2562e-38,0.00013316,3.5745e-20,-2.7835e-22,4.613,0.0015607,-0.0013638,2.5186e-36,0.00033821,-68.044,-325.98,-118.47,20.468,5.472e-15,-4.2447e-17,239.43,-327.6,-118.47,-66.428,0,0.014856,0,1,1.555,0,-1.555,0
0,0,0,0,0,0,0.00032662,-0.0013497,9.2491e-38,0.00013258,3.357e-20,-3.0019e-22,4.5985,0.0015563,-0.0013602,2.6796e-36,0.00033705,-67.922,-325.14,-118.18,20.379,5.1382e-15,-4.5813e-17,238.76,-326.75,-118.18,-66.315,0,0.014862,0,1,1.56,0,-1.56,0
0,0,0,0,0,0,0.00032552,-0.0013461,9.2421e-38,0.000132,3.1395e-20,-3.2203e-22,4.584,0.001552,-0.0013565,2.8407e-36,0.0003359,-67.799,-324.29,-117.89,20.289,4.8043e-15,-4.918e-17,238.09,-325.89,-117.89,-66.201,0,0.014868,0,1,1.565,0,-1.565,0
0,0,0,0,0,0,0.00032442,-0.0013425,9.2351e-38,0.00013142,2.9221e-20,-3.4387e-22,4.5695,0.0015476,-0.0013528,3.0018e-36,0.00033474,-67.677,-323.45,-117.59,20.2,4.4704e-15,-5.2546e-17,237.43,-325.04,-117.59,-66.088,0,0.014874,0,1,1.57,0,-1.57,0
0,0,0,0,0,0,0.00032333,-0.0013389,9.2281e-38,0.00013084,2.7046e-20,-3.6571e-22,4.555,0.0015432,-0.0013491,3.1629e-36,0.00033359,-67.554,-322.61,-117.3,20.111,4.1365e-15,-5.5912e-17,236.76,-324.19,-117.3,-65.975,0,0.01488,0,1,1.575,0,-1.575,0
0,0,0,0,0,0,0.00032223,-0.0013353,9.2211e-38,0.00013026,2.4872e-20,-3.8755e-22,4.5405,0.0015389,-0.0013455,3.324e-36,0.00033243,-67.432,-321.76,-117.01,20.022,3.8027e-15,-5.9278e-17,236.09,-323.33,-117.01,-65.862,0,0.014886,0,1,1.58,0,-1.58,0
0,0,0,0,0,0,0.00032114,-0.0013317,9.2141e-38,0.00012968,2.2697e-20,-4.0939e-22,4.5259,0.0015345,-0.0013418,3.4851e-36,0.00033127,-67.309,-320.92,-116.72,19.933,3.4688e-15,-6.2644e-17,235.42,-322.48,-116.72,-65.748,0,0.014892,0,1,1.585,0,-1.585,0
0,0,0,0,0,0,0.00032004,-0.001328,9.2071e-38,0.0001291,2.0523e-20,-4.3123e-22,4.5114,0.0015301,-0.0013381,3.6462e-36,0.00033012,-67.187,-320.07,-116.43,19.844,3.1349e-15,-6.601e-17,234.75,-321.63,-116.43,-65.635,0,0.014898,0,1,1.59,0,-1.59,0
0,0,0,0,0,0,0.00031894,-0.0013244,9.2e-38,0.00012852,1.8348e-20,-4.5307e-22,4.4969,0.0015258,-0.0013345,3.8073e-36,0.00032896,-67.064,-319.23,-116.14,19.754,2.801e-15,-6.9376e-17,234.09,-320.77,-116.14,-65.522,0,0.014904,0,1,1.595,0,-1.595,0
0,0,0,0,0,0,0.00031785,-0.0013208,9.193e-38,0.00012794,1.6174e-20,-4.7491e-22,4.4824,0.0015214,-0.0013308,3.9683e-36,0.00032781,-66.942,-318.39,-115.85,19.665,2.4672e-15,-7.2743e-17,233.42,-319.92,-115.85,-65.408,0,0.01491,0,1,1.6,0,-1.6,0
0,0,0,0,0,0,0.00031675,-0.0013172,9.186e-38,0.00012736,1.3999e-20,-4.9675e-22,4.4679,0.001517,-0.0013271,4.1294e-36,0.00032665,-66.819,-317.54,-115.56,19.576,2.1333e-15,-7.6109e-17,232.75,-319.07,-115.56,-65.295,0,0.014916,0,1,1.605,0,-1.605,0
0,0,0,0,0,0,0.00031565,-0.0013136,9.179e-38,0.00012678,1.1824e-20,-5.1859e-22,4.4534,0.0015127,-0.0013234,4.2905e-36,0.00032549,-66.697,-316.7,-115.26,19.487,1.7994e-15,-7.9475e-17,232.08,-318.21,-115.26,-65.182,0,0.014922,0,1,1.61,0,-1.61,0
0,0,0,0,0,0,0.00031456,-0.00131,9.172e-38,0.0001262,9.6499e-21,-5.4044e-22,4.4389,0.0015083,-0.0013198,4.4516e-36,0.00032434,-66.574,-315.85,-114.97,19.398,1.4655e-15,-8.2841e-17,231.41,-317.36,-114.97,-65.068,0,0.014928,0,1,1.615,0,-1.615,0
0,0,0,0,0,0,0.00031346,-0.0013064,9.165e-38,0.00012562,7.4753e-21,-5.6228e-22,4.4244,0.001504,-0.0013161,4.6127e-36,0.00032318,-66.452,-315.01,-114.68,19.309,1.1317e-15,-8.6207e-17,230.75,-316.51,-114.68,-64.955,0,0.014934,0,1,1.62,0,-1.62,0
0,0,0,0,0,0,0.00031237,-0.0013027,9.158e-38,0.00012504,5.3007e-21,-5.8412e-22,4.4098,0.0014996,-0.0013124,4.7738e-36,0.00032203,-66.329,-314.17,-114.39,19.22,7.9778e-16,-8.9573e-17,230.08,-315.65,-114.39,-64.842,0,0.01494,0,1,1.625,0,-1.625,0
0,0,0,0,0,0,0.00031127,-0.0012991,9.1509e-38,0.00012446,3.1262e-21,-6.0596e-22,4.3953,0.0014952,-0.0013087,4.9349e-36,0.00032087,-66.207,-313.32,-114.1,19.13,4.6391e-16,-9.294e-17,229.41,-314.8,-114.1,-64.728,0,0.014946,0,1,1.63,0,-1.63,0
0,0,0,0,0,0,0.00031017,-0.0012955,9.1439e-38,0.00012388,9.5163e-22,-6.278e-22,4.3808,0.0014909,-0.0013051,5.0959e-36,0.00031971,-66.084,-312.48,-113.81,19.041,1.3003e-16,-9.6306e-17,228.74,-313.95,-113.81,-64.615,0,0.014952,0,1,1.635,0,-1.635,0
0,0,0,0,0,0,0.00030908,-0.0012919,9.1369e-38,0.0001233,-1.2229e-21,-6.4964e-22,4.3663,0.0014865,-0.0013014,5.257e-36,0.00031856,-65.962,-311.63,-113.52,18.952,-2.0384e-16,-9.9672e-17,228.07,-313.09,-113.52,-64.502,0,0.014958,0,1,1.64,0,-1.64,0
0,0,0,0,0,0,0.00030798,-0.0012883,9.1299e-38,0.00012272,-3.3975e-21,-6.7148e-22,4.3518,0.0014821,-0.0012977,5.4181e-36,0.0003174,-65.839,-310.79,-113.23,18.863,-5.3772e-16,-1.0304e-16,227.4,-312.24,-113.23,-64.388,0,0.014964,0,1,1.645,0,-1.645,0
0,0,0,0,0,0,0.00030688,-0.0012847,9.1229e-38,0.00012214,-5.572e-21,-6.9332e-22,4.3373,0.0014778,-0.001294,5.5792e-36,0.00031625,-65.717,-309.95,-112.93,18.774,-8.7159e-16,-1.064e-16,226.74,-311.39,-112.93,-64.275,0,0.01497,0,1,1.65,0,-1.65,0
0,0,0,0,0,0,0.00030579,-0.0012811,9.1159e-38,0.00012156,-7.7466e-21,-7.1516e-22,4.3228,0.0014734,-0.0012904,5.7403e-36,0.00031509,-65.594,-309.1,-112.64,18.685,-1.2055e-15,-1.0977e-16,226.07,-310.53,-112.64,-64.162,0,0.014976,0,1,1.655,0,-1.655,0
0,0,0,0,0,0,0.00030469,-0.0012774,9.1089e-38,0.00012098,-9.9212e-21,-7.37e-22,4.3082,0.001469,-0.0012867,5.9014e-36,0.00031394,-65.472,-308.26,-112.35,18.596,-1.5393e-15,-1.1314e-16,225.4,-309.68,-112.35,-64.049,0,0.014982,0,1,1.66,0,-1.66,0
0,0,0,0,0,0,0.00030359,-0.0012738,9.1018e-38,0.0001204,-1.2096e-20,-7.5884e-22,4.2937,0.0014647,-0.001283,6.0625e-36,0.00031278,-65.349,-307.41,-112.06,18.506,-1.8732e-15,-1.165e-16,224.73,-308.83,-112.06,-63.935,0,0.014988,0,1,1.665,0,-1.665,0
0,0,0,0,0,0,0.0003025,-0.0012702,9.0948e-38,0.00011982,-1.427e-20,-7.8068e-22,4.2792,0.0014603,-0.0012793,6.2235e-36,0.00031162,-65.227,-306.57,-111.77,18.417,-2.2071e-15,-1.1987e-16,224.06,-307.97,-111.77,-63.822,0,0.014994,0,1,1.67,0,-1.67,0
0,0,0,0,0,0,0.0003014,-0.0012666,9.0878e-38,0.00011924,-1.6445e-20,-8.0252e-22,4.2647,0.001456,-0.0012757,6.3846e-36,0.00031047,-65.104,-305.73,-111.48,18.328,-2.541e-15,-1.2323e-16,223.4,-307.12,-111.48,-63.709,0,0.015,0,1,1.675,0,-1.675,0
0,0,0,0,0,0,0.00030031,-0.001263,9.0808e-38,0.00011866,-1.8619e-20,-8.2436e-22,4.2502,0.0014516,-0.001272,6.5457e-36,0.00030931,-64.982,-304.88,-111.19,18.239,-2.8748e-15,-1.266e-16,222.73,-306.27,-111.19,-63.595,0,0.015007,0,1,1.68,0,-1.68,0
0,0,0,0,0,0,0.00029921,-0.0012594,9.0738e-38,0.00011808,-2.0794e-20,-8.462e-22,4.2357,0.0014472,-0.0012683,6.7068e-36,0.00030816,-64.859,-304.04,-110.9,18.15,-3.2087e-15,-1.2997e-16,222.06,-305.42,-110.9,-63.482,0,0.015013,0,1,1.685,0,-1.685,0
0,0,0,0,0,0,0.00029811,-0.0012557,9.0668e-38,0.0001175,-2.2969e-20,-8.6805e-22,4.2212,0.0014429,-0.0012646,6.8679e-36,0.000307,-64.737,-303.19,-110.61,18.061,-3.5426e-15,-1.3333e-16,221.39,-304.56,-110.61,-63.369,0,0.015019,0,1,1.69,0,-1.69,0
0,0,0,0,0,0,0.00029702,-0.0012521,9.0598e-38,0.00011692,-2.5143e-20,-8.8989e-22,4.2066,0.0014385,-0.001261,7.029e-36,0.00030584,-64.614,-302.35,-110.31,17.972,-3.8765e-15,-1.367e-16,220.72,-303.71,-110.31,-63.255,0,0.015025,0,1,1.695,0,-1.695,0
0,0,0,0,0,0,0.00029592,-0.0012485,9.0527e-38,0.00011634,-2.7318e-20,-9.1173e-22,4.1921,0.0014341,-0.0012573,7.1901e-36,0.00030469,-64.492,-301.51,-110.02,17.882,-4.2103e-15,-1.4007e-16,220.05,-302.86,-110.02,-63.142,0,0.015031,0,1,1.7,0,-1.7,0
0,0,0,0,0,0,0.00029482,-0.0012449,9.0457e-38,0.00011576,-2.9492e-20,-9.3357e-22,4.1776,0.0014298,-0.0012536,7.3512e-36,0.00030353,-64.369,-300.66,-109.73,17.793,-4.5442e-15,-1.4343e-16,219.39,-302,-109.73,-63.029,0,0.015037,0,1,1.705,0,-1.705,0
0,0,0,0,0,0,0.00029373,-0.0012413,9.0387e-38,0.00011518,-3.1667e-20,-9.5541e-22,4.1631,0.0014254,-0.0012499,7.5122e-36,0.00030238,-64.247,-299.82,-109.44,17.704,-4.8781e-15,-1.468e-16,218.72,-301.15,-109.44,-62.915,0,0.015043,0,1,1.71,0,-1.71,0
0,0,0,0,0,0,0.00029263,-0.0012377,9.0317e-38,0.0001146,-3.3841e-20,-9.7725e-22,4.1486,0.001421,-0.0012463,7.6733e-36,0.00030122,-64.124,-298.97,-109.15,17.615,-5.212e-15,-1.5016e-16,218.05,-300.3,-109.15,-62.802,0,0.015049,0,1,1.715,0,-1.715,0
0,0,0,0,0,0,0.00029154,-0.0012341,9.0247e-38,0.00011402,-3.6016e-20,-9.9909e-22,4.1341,0.0014167,-0.0012426,7.8344e-36,0.00030007,-64.002,-298.13,-108.86,17.526,-5.5458e-15,-1.5353e-16,217.38,-299.44,-108.86,-62.689,0,0.015055,0,1,1.72,0,-1.72,0
0,0,0,0,0,0,0.00029044,-0.0012304,9.0177e-38,0.00011344,-3.819e-20,-1.0209e-21,4.1196,0.0014123,-0.0012389,7.9955e-36,0.00029891,-63.88,-297.29,-108.57,17.437,-5.8797e-15,-1.569e-16,216.71,-298.59,-108.57,-62.576,0,0.015061,0,1,1.725,0,-1.725,0
0,0,0,0,0,0,0.00028934,-0.0012268,9.0107e-38,0.00011286,-4.0365e-20,-1.0428e-21,4.1051,0.001408,-0.0012352,8.1566e-36,0.00029775,-63.757,-296.44,-108.28,17.348,-6.2136e-15,-1.6026e-16,216.05,-297.74,-108.28,-62.462,0,0.015067,0,1,1.73,0,-1.73,0
0,0,0,0,0,0,0.00028825,-0.0012232,9.0036e-38,0.00011228,-4.254e-20,-1.0646e-21,4.0905,0.0014036,-0.0012316,8.3177e-36,0.0002966,-63.635,-295.6,-107.98,17.258,-6.5475e-15,-1.6363e-16,215.38,-296.88,-107.98,-62.349,0,0.015073,0,1,1.735,0,-1.735,0
0,0,0,0,0,0,0.00028715,-0.0012196,8.9966e-38,0.0001117,-4.4714e-20,-1.0865e-21,4.076,0.0013992,-0.0012279,8.4788e-36,0.00029544,-63.512,-294.75,-107.69,17.169,-6.8813e-15,-1.6699e-16,214.71,-296.03,-107.69,-62.236,0,0.015079,0,1,1.74,0,-1.74,0
0,0,0,0,0,0,0.00028605,-0.001216,8.9896e-38,0.00011112,-4.6889e-20,-1.1083e-21,4.0615,0.0013949,-0.0012242,8.6398e-36,0.00029429,-63.39,-293.91,-107.4,17.08,-7.2152e-15,-1.7036e-16,214.04,-295.18,-107.4,-62.122,0,0.015085,0,1,1.745,0,-1.745,0
0,0,0,0,0,0,0.00028496,-0.0012124,8.9826e-38,0.00011054,-4.9063e-20,-1.1301e-21,4.047,0.0013905,-0.0012205,8.8009e-36,0.00029313,-63.267,-293.07,-107.11,16.991,-7.5491e-15,-1.7373e-16,213.37,-294.32,-107.11,-62.009,0,0.015091,0,1,1.75,0,-1.75,0
0,0,0,0,0,0,0.00028386,-0.0012087,8.9756e-38,0.00010996,-5.1238e-20,-1.152e-21,4.0325,0.0013861,-0.0012169,8.962e-36,0.00029197,-63.145,-292.22,-106.82,16.902,-7.883e-15,-1.7709e-16,212.71,-293.47,-106.82,-61.896,0,0.015097,0,1,1.755,0,-1.755,0
0,0,0,0,0,0,0.00028277,-0.0012051,8.9686e-38,0.00010938,-5.3412e-20,-1.1738e-21,4.018,0.0013818,-0.0012132,9.1231e-36,0.00029082,-63.022,-291.38,-106.53,16.813,-8.2168e-15,-1.8046e-16,212.04,-292.62,-106.53,-61.782,0,0.015103,0,1,1.76,0,-1.76,0
0,0,0,0,0,0,0.00028167,-0.0012015,8.9616e-38,0.0001088,-5.5587e-20,-1.1957e-21,4.0035,0.0013774,-0.0012095,9.2842e-36,0.00028966,-62.9,-290.53,-106.24,16.724,-8.5507e-15,-1.8383e-16,211.37,-291.76,-106.24,-61.669,0,0.015109,0,1,1.765,0,-1.765,0
0,0,0,0,0,0,0.00028057,-0.0011979,8.9545e-38,0.00010822,-5.7761e-20,-1.2175e-21,3.9889,0.001373,-0.0012058,9.4453e-36,0.00028851,-62.777,-289.69,-105.95,16.634,-8.8846e-15,-1.8719e-16,210.7,-290.91,-105.95,-61.556,0,0.015115,0,1,1.77,0,-1.77,0
0,0,0,0,0,0,0.00027948,-0.0011943,8.9475e-38,0.00010764,-5.9936e-20,-1.2393e-21,3.9744,0.0013687,-0.0012022,9.6064e-36,0.00028735,-62.655,-288.85,-105.65,16.545,-9.2185e-15,-1.9056e-16,210.03,-290.06,-105.65,-61.442,0,0.015121,0,1,1.775,0,-1.775,0
0,0,0,0,0,0,0.00027838,-0.0011907,8.9405e-38,0.00010706,-6.2111e-20,-1.2612e-21,3.9599,0.0013643,-0.0011985,9.7674e-36,0.00028619,-62.532,-288,-105.36,16.456,-9.5523e-15,-1.9392e-16,209.36,-289.2,-105.36,-61.329,0,0.015127,0,1,1.78,0,-1.78,0
0,0,0,0,0,0,0.00027728,-0.0011871,8.9335e-38,0.00010648,-6.4285e-20,-1.283e-21,3.9454,0.0013599,-0.0011948,9.9285e-36,0.00028504,-62.41,-287.16,-105.07,16.367,-9.8862e-15,-1.9729e-16,208.7,-288.35,-105.07,-61.216,0,0.015133,0,1,1.785,0,-1.785,0
0,0,0,0,0,0,0.00027619,-0.0011834,8.9265e-38,0.0001059,-6.646e-20,-1.3049e-21,3.9309,0.0013556,-0.0011911,1.009e-35,0.00028388,-62.287,-286.31,-104.78,16.278,-1.022e-14,-2.0066e-16,208.03,-287.5,-104.78,-61.102,0,0.015139,0,1,1.79,0,-1.79,0
0,0,0,0,0,0,0.00027509,-0.0011798,8.9195e-38,0.00010532,-6.8634e-20,-1.3267e-21,3.9164,0.0013512,-0.0011875,1.0251e-35,0.00028273,-62.165,-285.47,-104.49,16.189,-1.0554e-14,-2.0402e-16,207.36,-286.65,-104.49,-60.989,0,0.015145,0,1,1.795,0,-1.795,0
0,0,0,0,0,0,0.00027399,-0.0011762,8.9125e-38,0.00010474,-7.0809e-20,-1.3485e-21,3.9019,0.0013469,-0.0011838,1.0412e-35,0.00028157,-62.042,-284.63,-104.2,16.1,-1.0888e-14,-2.0739e-16,206.69,-285.79,-104.2,-60.876,0,0.015151,0,1,1.8,0,-1.8,0
0,0,0,0,0,0,0.0002729,-0.0011726,8.9054e-38,0.00010416,-7.2983e-20,-1.3704e-21,3.8873,0.0013425,-0.0011801,1.0573e-35,0.00028042,-61.92,-283.78,-103.91,16.01,-1.1222e-14,-2.1075e-16,206.02,-284.94,-103.91,-60.763,0,0.015157,0,1,1.805,0,-1.805,0
0,0,0,0,0,0,0.0002718,-0.001169,8.8984e-38,0.00010358,-7.5158e-20,-1.3922e-21,3.8728,0.0013381,-0.0011764,1.0734e-35,0.00027926,-61.797,-282.94,-103.62,15.921,-1.1556e-14,-2.1412e-16,205.36,-284.09,-103.62,-60.649,0,0.015163,0,1,1.81,0,-1.81,0
0,0,0,0,0,0,0.00027071,-0.0011654,8.8914e-38,0.000103,-7.7333e-20,-1.4141e-21,3.8583,0.0013338,-0.0011728,1.0895e-35,0.0002781,-61.675,-282.09,-103.33,15.832,-1.1889e-14,-2.1749e-16,204.69,-283.23,-103.33,-60.536,0,0.015169,0,1,1.815,0,-1.815,0
0,0,0,0,0,0,0.00026961,-0.0011618,8.8844e-38,0.00010242,-7.9507e-20,-1.4359e-21,3.8438,0.0013294,-0.0011691,1.1056e-35,0.00027695,-61.552,-281.25,-103.03,15.743,-1.2223e-14,-2.2085e-16,204.02,-282.38,-103.03,-60.423,0,0.015175,0,1,1.82,0,-1.82,0
0,0,0,0,0,0,0.00026851,-0.0011581,8.8774e-38,0.00010184,-8.1682e-20,-1.4577e-21,3.8293,0.001325,-0.0011654,1.1217e-35,0.00027579,-61.43,-280.41,-102.74,15.654,-1.2557e-14,-2.2422e-16,203.35,-281.53,-102.74,-60.309,0,0.015181,0,1,1.825,0,-1.825,0
0,0,0,0,0,0,0.00026742,-0.0011545,8.8704e-38,0.00010126,-8.3856e-20,-1.4796e-21,3.8148,0.0013207,-0.0011617,1.1378e-35,0.00027464,-61.307,-279.56,-102.45,15.565,-1.2891e-14,-2.2759e-16,202.68,-280.67,-102.45,-60.196,0,0.015187,0,1,1.83,0,-1.83,0
0,0,0,0,0,0,0.00026632,-0.0011509,8.8634e-38,0.00010068,-8.6031e-20,-1.5014e-21,3.8003,0.0013163,-0.0011581,1.1539e-35,0.00027348,-61.185,-278.72,-102.16,15.476,-1.3225e-14,-2.3095e-16,202.02,-279.82,-102.16,-60.083,0,0.015193,0,1,1.835,0,-1.835,0
0,0,0,0,0,0,0.00026522,-0.0011473,8.8563e-38,0.0001001,-8.8205e-20,-1.5233e-21,3.7857,0.0013119,-0.0011544,1.17e-35,0.00027232,-61.062,-277.87,-101.87,15.386,-1.3559e-14,-2.3432e-16,201.35,-278.97,-101.87,-59.969,0,0.015199,0,1,1.84,0,-1.84,0
0,0,0,0,0,0,0.00026413,-0.0011437,8.8493e-38,9.9515e-05,-9.038e-20,-1.5451e-21,3.7712,0.0013076,-0.0011507,1.1862e-35,0.00027117,-60.94,-277.03,-101.58,15.297,-1.3893e-14,-2.3768e-16,200.68,-278.11,-101.58,-59.856,0,0.015205,0,1,1.845,0,-1.845,0
0,0,0,0,0,0,0.00026303,-0.0011401,8.8423e-38,9.8935e-05,-9.2554e-20,-1.5669e-21,3.7567,0.0013032,-0.001147,1.2023e-35,0.00027001,-60.817,-276.19,-101.29,15.208,-1.4227e-14,-2.4105e-16,200.01,-277.26,-101.29,-59.743,0,0.015211,0,1,1.85,0,-1.85,0
0,0,0,0,0,0,0.00026194,-0.0011364,8.8353e-38,9.8355e-05,-9.4729e-20,-1.5888e-21,3.7422,0.0012989,-0.0011434,1.2184e-35,0.00026886,-60.695,-275.34,-101,15.119,-1.456e-14,-2.4442e-16,199.34,-276.41,-101,-59.629,0,0.015217,0,1,1.855,0,-1.855,0
0,0,0,0,0,0,0.00026084,-0.0011328,8.8283e-38,9.7775e-05,-9.6904e-20,-1.6106e-21,3.7277,0.0012945,-0.0011397,1.2345e-35,0.0002677,-60.572,-274.5,-100.7,15.03,-1.4894e-14,-2.4778e-16,198.67,-275.55,-100.7,-59.516,0,0.015223,0,1,1.86,0,-1.86,0
0,0,0,0,0,0,0.00025974,-0.0011292,8.8213e-38,9.7195e-05,-9.9078e-20,-1.6325e-21,3.7132,0.0012901,-0.001136,1.2506e-35,0.00026654,-60.45,-273.65,-100.41,14.941,-1.5228e-14,-2.5115e-16,198.01,-274.7,-100.41,-59.403,0,0.015229,0,1,1.865,0,-1.865,0
0,0,0,0,0,0,0.00025865,-0.0011256,8.8143e-38,9.6615e-05,-1.0125e-19,-1.6543e-21,3.6987,0.0012858,-0.0011323,1.2667e-35,0.00026539,-60.327,-272.81,-100.12,14.852,-1.5562e-14,-2.5451e-16,197.34,-273.85,-100.12,-59.29,0,0.015235,0,1,1.87,0,-1.87,0
0,0,0,0,0,0,0.00025755,-0.001122,8.8072e-38,9.6035e-05,-1.0343e-19,-1.6762e-21,3.6842,0.0012814,-0.0011287,1.2828e-35,0.00026423,-60.205,-271.97,-99.831,14.762,-1.5896e-14,-2.5788e-16,196.67,-272.99,-99.831,-59.176,0,0.015241,0,1,1.875,0,-1.875,0
0,0,0,0,0,0,0.00025645,-0.0011184,8.8002e-38,9.5454e-05,-1.056e-19,-1.698e-21,3.6696,0.001277,-0.001125,1.2989e-35,0.00026308,-60.082,-271.12,-99.54,14.673,-1.623e-14,-2.6125e-16,196,-272.14,-99.54,-59.063,0,0.015247,0,1,1.88,0,-1.88,0
0,0,0,0,0,0,0.00025536,-0.0011148,8.7932e-38,9.4874e-05,-1.0778e-19,-1.7198e-21,3.6551,0.0012727,-0.0011213,1.315e-35,0.00026192,-59.96,-270.28,-99.248,14.584,-1.6564e-14,-2.6461e-16,195.33,-271.29,-99.248,-58.95,0,0.015253,0,1,1.885,0,-1.885,0
0,0,0,0,0,0,0.00025426,-0.0011111,8.7862e-38,9.4294e-05,-1.0995e-19,-1.7417e-21,3.6406,0.0012683,-0.0011176,1.3311e-35,0.00026077,-59.837,-269.43,-98.957,14.495,-1.6898e-14,-2.6798e-16,194.67,-270.43,-98.957,-58.836,0,0.015259,0,1,1.89,0,-1.89,0
0,0,0,0,0,0,0.00025316,-0.0011075,8.7792e-38,9.3714e-05,-1.1213e-19,-1.7635e-21,3.6261,0.0012639,-0.001114,1.3472e-35,0.00025961,-59.715,-268.59,-98.666,14.406,-1.7231e-14,-2.7135e-16,194,-269.58,-98.666,-58.723,0,0.015265,0,1,1.895,0,-1.895,0
0,0,0,0,0,0,0.00025207,-0.0011039,8.7722e-38,9.3134e-05,-1.143e-19,-1.7854e-21,3.6116,0.0012596,-0.0011103,1.3634e-35,0.00025845,-59.593,-267.75,-98.375,14.317,-1.7565e-14,-2.7471e-16,193.33,-268.73,-98.375,-58.61,0,0.015271,0,1,1.9,0,-1.9,0
0,0,0,0,0,0,0.00025097,-0.0011003,8.7652e-38,9.2554e-05,-1.1647e-19,-1.8072e-21,3.5971,0.0012552,-0.0011066,1.3795e-35,0.0002573,-59.47,-266.9,-98.084,14.228,-1.7899e-14,-2.7808e-16,192.66,-267.88,-98.084,-58.496,0,0.015277,0,1,1.905,0,-1.905,0
0,0,0,0,0,0,0.00024988,-0.0010967,8.7581e-38,9.1974e-05,-1.1865e-19,-1.829e-21,3.5826,0.0012508,-0.0011029,1.3956e-35,0.00025614,-59.348,-266.06,-97.792,14.138,-1.8233e-14,-2.8144e-16,191.99,-267.02,-97.792,-58.383,0,0.015283,0,1,1.91,0,-1.91,0
0,0,0,0,0,0,0.00024878,-0.0010931,8.7511e-38,9.1393e-05,-1.2082e-19,-1.8509e-21,3.568,0.0012465,-0.0010993,1.4117e-35,0.00025499,-59.225,-265.21,-97.501,14.049,-1.8567e-14,-2.8481e-16,191.32,-266.17,-97.501,-58.27,0,0.015289,0,1,1.915,0,-1.915,0
0,0,0,0,0,0,0.00024768,-0.0010894,8.7441e-38,9.0813e-05,-1.23e-19,-1.8727e-21,3.5535,0.0012421,-0.0010956,1.4278e-35,0.00025383,-59.103,-264.37,-97.21,13.96,-1.8901e-14,-2.8818e-16,190.66,-265.32,-97.21,-58.156,0,0.015295,0,1,1.92,0,-1.92,0
0,0,0,0,0,0,0.00024659,-0.0010858,8.7371e-38,9.0233e-05,-1.2517e-19,-1.8946e-21,3.539,0.0012378,-0.0010919,1.4439e-35,0.00025267,-58.98,-263.53,-96.919,13.871,-1.9235e-14,-2.9154e-16,189.99,-264.46,-96.919,-58.043,0,0.015301,0,1,1.925,0,-1.925,0
0,0,0,0,0,0,0.00024549,-0.0010822,8.7301e-38,8.9653e-05,-1.2735e-19,-1.9164e-21,3.5245,0.0012334,-0.0010882,1.46e-35,0.00025152,-58.858,-262.68,-96.628,13.782,-1.9569e-14,-2.9491e-16,189.32,-263.61,-96.628,-57.93,0,0.015307,0,1,1.93,0,-1.93,0
0,0,0,0,0,0,0.00024463,-0.0010794,9.1637e-38,8.924e-05,-1.2781e-19,-1.9169e-21,3.5134,0.00123,-0.0010854,1.461e-35,0.00025062,-58.763,-262.02,-96.401,13.718,-1.9639e-14,-2.9498e-16,188.8,-262.94,-96.401,-57.841,0,0.015312,0,1,1.935,0,-1.935,0
0,0,0,0,0,0,0.00024391,-0.001077,9.8562e-38,8.8924e-05,-1.2726e-19,-1.9049e-21,3.5043,0.0012272,-0.001083,1.4532e-35,0.00024987,-58.684,-261.47,-96.211,13.67,-1.9555e-14,-2.9312e-16,188.37,-262.39,-96.211,-57.766,0,0.015317,0,1,1.94,0,-1.94,0
0,0,0,0,0,0,0.00024319,-0.0010747,1.0549e-37,8.8608e-05,-1.2671e-19,-1.8928e-21,3.4952,0.0012243,-0.0010806,1.4454e-35,0.00024913,-58.605,-260.92,-96.022,13.621,-1.947e-14,-2.9126e-16,187.93,-261.83,-96.022,-57.692,0,0.015322,0,1,1.945,0,-1.945,0
0,0,0,0,0,0,0.00024247,-0.0010723,1.1241e-37,8.8293e-05,-1.2616e-19,-1.8808e-21,3.4861,0.0012215,-0.0010782,1.4375e-35,0.00024838,-58.527,-260.37,-95.832,13.573,-1.9386e-14,-2.894e-16,187.5,-261.28,-95.832,-57.618,0,0.015327,0,1,1.95,0,-1.95,0
0,0,0,0,0,0,0.00024175,-0.00107,1.1934e-37,8.7977e-05,-1.2561e-19,-1.8688e-21,3.477,0.0012187,-0.0010758,1.4297e-35,0.00024763,-58.448,-259.82,-95.643,13.524,-1.9302e-14,-2.8754e-16,187.07,-260.72,-95.643,-57.543,0,0.015332,0,1,1.955,0,-1.955,0
0,0,0,0,0,0,0.00024103,-0.0010676,1.2626e-37,8.7661e-05,-1.2506e-19,-1.8567e-21,3.4679,0.0012158,-0.0010735,1.4218e-35,0.00024688,-58.369,-259.27,-95.453,13.476,-1.9217e-14,-2.8568e-16,186.63,-260.17,-95.453,-57.469,0,0.015336,0,1,1.96,0,-1.96,0
0,0,0,0,0,0,0.00024031,-0.0010652,1.3319e-37,8.7346e-05,-1.2451e-19,-1.8447e-21,3.4588,0.001213,-0.0010711,1.414e-35,0.00024614,-58.291,-258.72,-95.264,13.427,-1.9133e-14,-2.8382e-16,186.2,-259.61,-95.264,-57.394,0,0.015341,0,1,1.965,0,-1.965,0
0,0,0,0,0,0,0.00023959,-0.0010629,1.4011e-37,8.703e-05,-1.2396e-19,-1.8327e-21,3.4496,0.0012102,-0.0010687,1.4062e-35,0.00024539,-58.212,-258.17,-95.074,13.379,-1.9049e-14,-2.8196e-16,185.76,-259.06,-95.074,-57.32,0,0.015346,0,1,1.97,0,-1.97,0
0,0,0,0,0,0,0.00023887,-0.0010605,1.4703e-37,8.6714e-05,-1.2341e-19,-1.8206e-21,3.4405,0.0012074,-0.0010663,1.3983e-35,0.00024464,-58.133,-257.62,-94.885,13.33,-1.8964e-14,-2.801e-16,185.33,-258.51,-94.885,-57.245,0,0.015351,0,1,1.975,0,-1.975,0
0,0,0,0,0,0,0.00023815,-0.0010582,1.5396e-37,8.6399e-05,-1.2286e-19,-1.8086e-21,3.4314,0.0012045,-0.0010639,1.3905e-35,0.0002439,-58.054,-257.07,-94.696,13.282,-1.888e-14,-2.7824e-16,184.9,-257.95,-94.696,-57.171,0,0.015356,0,1,1.98,0,-1.98,0
0,0,0,0,0,0,0.00023743,-0.0010558,1.6088e-37,8.6083e-05,-1.2231e-19,-1.7966e-21,3.4223,0.0012017,-0.0010615,1.3827e-35,0.00024315,-57.976,-256.52,-94.506,13.233,-1.8796e-14,-2.7638e-16,184.46,-257.4,-94.506,-57.096,0,0.01536,0,1,1.985,0,-1.985,0
0,0,0,0,0,0,0.00023671,-0.0010534,1.6781e-37,8.5767e-05,-1.2176e-19,-1.7845e-21,3.4132,0.0011989,-0.0010591,1.3748e-35,0.0002424,-57.897,-255.97,-94.317,13.185,-1.8712e-14,-2.7452e-16,184.03,-256.84,-94.317,-57.022,0,0.015365,0,1,1.99,0,-1.99,0
0,0,0,0,0,0,0.000236,-0.0010511,1.7473e-37,8.5452e-05,-1.2121e-19,-1.7725e-21,3.4041,0.001196,-0.0010567,1.367e-35,0.00024165,-57.818,-255.41,-94.127,13.136,-1.8627e-14,-2.7266e-16,183.6,-256.29,-94.127,-56.947,0,0.01537,0,1,1.995,0,-1.995,0
0,0,0,0,0,0,0.00023528,-0.0010487,1.8166e-37,8.5136e-05,-1.2066e-19,-1.7605e-21,3.395,0.0011932,-0.0010544,1.3592e-35,0.00024091,-57.74,-254.86,-93.938,13.088,-1.8543e-14,-2.708e-16,183.16,-255.73,-93.938,-56.873,0,0.015375,0,1,2,0,-2,0
0,0,0,0,0,0,0.00023456,-0.0010464,1.8858e-37,8.4821e-05,-1.2011e-19,-1.7484e-21,3.3859,0.0011904,-0.001052,1.3513e-35,0.00024016,-57.661,-254.31,-93.748,13.039,-1.8459e-14,-2.6894e-16,182.73,-255.18,-93.748,-56.798,0,0.01538,0,1,2.005,0,-2.005,0
0,0,0,0,0,0,0.00023384,-0.001044,1.9551e-37,8.4505e-05,-1.1956e-19,-1.7364e-21,3.3768,0.0011875,-0.0010496,1.3435e-35,0.00023941,-57.582,-253.76,-93.559,12.991,-1.8374e-14,-2.6708e-16,182.3,-254.62,-93.559,-56.724,0,0.015384,0,1,2.01,0,-2.01,0
0,0,0,0,0,0,0.00023312,-0.0010417,2.0243e-37,8.4189e-05,-1.1901e-19,-1.7244e-21,3.3677,0.0011847,-0.0010472,1.3357e-35,0.00023867,-57.504,-253.21,-93.37,12.942,-1.829e-14,-2.6522e-16,181.86,-254.07,-93.37,-56.649,0,0.015389,0,1,2.015,0,-2.015,0
0,0,0,0,0,0,0.0002324,-0.0010393,2.0936e-37,8.3874e-05,-1.1846e-19,-1.7123e-21,3.3586,0.0011819,-0.0010448,1.3278e-35,0.00023792,-57.425,-252.66,-93.18,12.894,-1.8206e-14,-2.6336e-16,181.43,-253.51,-93.18,-56.575,0,0.015394,0,1,2.02,0,-2.02,0
0,0,0,0,0,0,0.00023168,-0.0010369,2.1628e-37,8.3558e-05,-1.1791e-19,-1.7003e-21,3.3495,0.0011791,-0.0010424,1.32e-35,0.00023717,-57.346,-252.11,-92.991,12.845,-1.8121e-14,-2.615e-16,180.99,-252.96,-92.991,-56.5,0,0.015399,0,1,2.025,0,-2.025,0
0,0,0,0,0,0,0.00023096,-0.0010346,2.232e-37,8.3242e-05,-1.1736e-19,-1.6883e-21,3.3404,0.0011762,-0.00104,1.3122e-35,0.00023642,-57.268,-251.56,-92.801,12.797,-1.8037e-14,-2.5964e-16,180.56,-252.4,-92.801,-56.426,0,0.015404,0,1,2.03,0,-2.03,0
0,0,0,0,0,0,0.00023024,-0.0010322,2.3013e-37,8.2927e-05,-1.1681e-19,-1.6762e-21,3.3313,0.0011734,-0.0010377,1.3043e-35,0.00023568,-57.189,-251.01,-92.612,12.748,-1.7953e-14,-2.5778e-16,180.13,-251.85,-92.612,-56.352,0,0.015408,0,1,2.035,0,-2.035,0
0,0,0,0,0,0,0.00022952,-0.0010299,2.3705e-37,8.2611e-05,-1.1626e-19,-1.6642e-21,3.3222,0.0011706,-0.0010353,1.2965e-35,0.00023493,-57.11,-250.46,-92.422,12.7,-1.7868e-14,-2.5592e-16,179.69,-251.29,-92.422,-56.277,0,0.015413,0,1,2.04,0,-2.04,0
0,0,0,0,0,0,0.0002288,-0.0010275,2.4398e-37,8.2295e-05,-1.1571e-19,-1.6522e-21,3.313,0.0011677,-0.0010329,1.2886e-35,0.00023418,-57.031,-249.91,-92.233,12.651,-1.7784e-14,-2.5406e-16,179.26,-250.74,-92.233,-56.203,0,0.015418,0,1,2.045,0,-2.045,0
0,0,0,0,0,0,0.00022808,-0.0010251,2.509e-37,8.198e-05,-1.1516e-19,-1.6401e-21,3.3039,0.0011649,-0.0010305,1.2808e-35,0.00023344,-56.953,-249.36,-92.043,12.603,-1.77e-14,-2.522e-16,178.83,-250.18,-92.043,-56.128,0,0.015423,0,1,2.05,0,-2.05,0
0,0,0,0,0,0,0.00022736,-0.0010228,2.5783e-37,8.1664e-05,-1.1461e-19,-1.6281e-21,3.2948,0.0011621,-0.0010281,1.273e-35,0.00023269,-56.874,-248.81,-91.854,12.554,-1.7615e-14,-2.5034e-16,178.39,-249.63,-91.854,-56.054,0,0.015428,0,1,2.055,0,-2.055,0
0,0,0,0,0,0,0.00022664,-0.0010204,2.6475e-37,8.1348e-05,-1.1406e-19,-1.6161e-21,3.2857,0.0011592,-0.0010257,1.2651e-35,0.00023194,-56.795,-248.26,-91.665,12.506,-1.7531e-14,-2.4848e-16,177.96,-249.07,-91.665,-55.979,0,0.015432,0,1,2.06,0,-2.06,0
0,0,0,0,0,0,0.00022592,-0.0010181,2.7168e-37,8.1033e-05,-1.1351e-19,-1.604e-21,3.2766,0.0011564,-0.0010233,1.2573e-35,0.00023119,-56.717,-247.71,-91.475,12.457,-1.7447e-14,-2.4662e-16,177.52,-248.52,-91.475,-55.905,0,0.015437,0,1,2.065,0,-2.065,0
0,0,0,0,0,0,0.0002252,-0.0010157,2.786e-37,8.0717e-05,-1.1296e-19,-1.592e-21,3.2675,0.0011536,-0.001021,1.2495e-35,0.00023045,-56.638,-247.16,-91.286,12.409,-1.7362e-14,-2.4476e-16,177.09,-247.96,-91.286,-55.83,0,0.015442,0,1,2.07,0,-2.07,0
0,0,0,0,0,0,0.00022448,-0.0010133,2.8553e-37,8.0402e-05,-1.1241e-19,-1.58e-21,3.2584,0.0011508,-0.0010186,1.2416e-35,0.0002297,-56.559,-246.61,-91.096,12.36,-1.7278e-14,-2.429e-16,176.66,-247.41,-91.096,-55.756,0,0.015447,0,1,2.075,0,-2.075,0
0,0,0,0,0,0,0.00022376,-0.001011,2.9245e-37,8.0086e-05,-1.1186e-19,-1.5679e-21,3.2493,0.0011479,-0.0010162,1.2338e-35,0.00022895,-56.481,-246.05,-90.907,12.311,-1.7194e-14,-2.4104e-16,176.22,-246.85,-90.907,-55.681,0,0.015452,0,1,2.08,0,-2.08,0
0,0,0,0,0,0,0.00022304,-0.0010086,2.9938e-37,7.977e-05,-1.1132e-19,-1.5559e-21,3.2402,0.0011451,-0.0010138,1.226e-35,0.00022821,-56.402,-245.5,-90.717,12.263,-1.711e-14,-2.3917e-16,175.79,-246.3,-90.717,-55.607,0,0.015456,0,1,2.085,0,-2.085,0
0,0,0,0,0,0,0.00022232,-0.0010063,3.063e-37,7.9455e-05,-1.1077e-19,-1.5439e-21,3.2311,0.0011423,-0.0010114,1.2181e-35,0.00022746,-56.323,-244.95,-90.528,12.214,-1.7025e-14,-2.3731e-16,175.36,-245.74,-90.528,-55.532,0,0.015461,0,1,2.09,0,-2.09,0
0,0,0,0,0,0,0.0002216,-0.0010039,3.1322e-37,7.9139e-05,-1.1022e-19,-1.5318e-21,3.222,0.0011394,-0.001009,1.2103e-35,0.00022671,-56.245,-244.4,-90.339,12.166,-1.6941e-14,-2.3545e-16,174.92,-245.19,-90.339,-55.458,0,0.015466,0,1,2.095,0,-2.095,0
0,0,0,0,0,0,0.00022088,-0.0010015,3.2015e-37,7.8823e-05,-1.0967e-19,-1.5198e-21,3.2129,0.0011366,-0.0010066,1.2025e-35,0.00022596,-56.166,-243.85,-90.149,12.117,-1.6857e-14,-2.3359e-16,174.49,-244.63,-90.149,-55.383,0,0.015471,0,1,2.1,0,-2.1,0
0,0,0,0,0,0,0.00022016,-0.00099919,3.2707e-37,7.8508e-05,-1.0912e-19,-1.5078e-21,3.2038,0.0011338,-0.0010042,1.1946e-35,0.00022522,-56.087,-243.3,-89.96,12.069,-1.6772e-14,-2.3173e-16,174.06,-244.08,-89.96,-55.309,0,0.015476,0,1,2.105,0,-2.105,0
0,0,0,0,0,0,0.00021944,-0.00099683,3.34e-37,7.8192e-05,-1.0857e-19,-1.4957e-21,3.1947,0.001131,-0.0010019,1.1868e-35,0.00022447,-56.009,-242.75,-89.77,12.02,-1.6688e-14,-2.2987e-16,173.62,-243.53,-89.77,-55.234,0,0.01548,0,1,2.11,0,-2.11,0
0,0,0,0,0,0,0.00021872,-0.00099447,3.4092e-37,7.7876e-05,-1.0802e-19,-1.4837e-21,3.1856,0.0011281,-0.00099947,1.1789e-35,0.00022372,-55.93,-242.2,-89.581,11.972,-1.6604e-14,-2.2801e-16,173.19,-242.97,-89.581,-55.16,0,0.015485,0,1,2.115,0,-2.115,0
0,0,0,0,0,0,0.000218,-0.00099211,3.4785e-37,7.7561e-05,-1.0747e-19,-1.4717e-21,3.1764,0.0011253,-0.00099709,1.1711e-35,0.00022298,-55.851,-241.65,-89.391,11.923,-1.6519e-14,-2.2615e-16,172.75,-242.42,-89.391,-55.086,0,0.01549,0,1,2.12,0,-2.12,0
0,0,0,0,0,0,0.00021728,-0.00098975,3.5477e-37,7.7245e-05,-1.0692e-19,-1.4596e-21,3.1673,0.0011225,-0.0009947,1.1633e-35,0.00022223,-55.772,-241.1,-89.202,11.875,-1.6435e-14,-2.2429e-16,172.32,-241.86,-89.202,-55.011,0,0.015495,0,1,2.125,0,-2.125,0
0,0,0,0,0,0,0.00021656,-0.0009874,3.617e-37,7.6929e-05,-1.0637e-19,-1.4476e-21,3.1582,0.0011196,-0.00099231,1.1554e-35,0.00022148,-55.694,-240.55,-89.012,11.826,-1.6351e-14,-2.2243e-16,171.89,-241.31,-89.012,-54.937,0,0.0155,0,1,2.13,0,-2.13,0
0,0,0,0,0,0,0.00021584,-0.00098504,3.6862e-37,7.6614e-05,-1.0582e-19,-1.4356e-21,3.1491,0.0011168,-0.00098993,1.1476e-35,0.00022073,-55.615,-240,-88.823,11.778,-1.6266e-14,-2.2057e-16,171.45,-240.75,-88.823,-54.862,0,0.015504,0,1,2.135,0,-2.135,0
0,0,0,0,0,0,0.00021512,-0.00098268,3.7555e-37,7.6298e-05,-1.0527e-19,-1.4235e-21,3.14,0.001114,-0.00098754,1.1398e-35,0.00021999,-55.536,-239.45,-88.634,11.729,-1.6182e-14,-2.1871e-16,171.02,-240.2,-88.634,-54.788,0,0.015509,0,1,2.14,0,-2.14,0
0,0,0,0,0,0,0.0002144,-0.00098032,3.8247e-37,7.5983e-05,-1.0472e-19,-1.4115e-21,3.1309,0.0011111,-0.00098516,1.1319e-35,0.00021924,-55.458,-238.9,-88.444,11.681,-1.6098e-14,-2.1685e-16,170.59,-239.64,-88.444,-54.713,0,0.015514,0,1,2.145,0,-2.145,0
0,0,0,0,0,0,0.00021368,-0.00097796,3.894e-37,7.5667e-05,-1.0417e-19,-1.3995e-21,3.1218,0.0011083,-0.00098277,1.1241e-35,0.00021849,-55.379,-238.35,-88.255,11.632,-1.6013e-14,-2.1499e-16,170.15,-239.09,-88.255,-54.639,0,0.015519,0,1,2.15,0,-2.15,0
0,0,0,0,0,0,0.00021296,-0.0009756,3.9632e-37,7.5351e-05,-1.0362e-19,-1.3874e-21,3.1127,0.0011055,-0.00098038,1.1163e-35,0.00021775,-55.3,-237.8,-88.065,11.584,-1.5929e-14,-2.1313e-16,169.72,-238.53,-88.065,-54.564,0,0.015524,0,1,2.155,0,-2.155,0
0,0,0,0,0,0,0.00021224,-0.00097324,4.0324e-37,7.5036e-05,-1.0307e-19,-1.3754e-21,3.1036,0.0011027,-0.000978,1.1084e-35,0.000217,-55.222,-237.24,-87.876,11.535,-1.5845e-14,-2.1127e-16,169.29,-237.98,-87.876,-54.49,0,0.015528,0,1,2.16,0,-2.16,0
0,0,0,0,0,0,0.00021153,-0.00097088,4.1017e-37,7.472e-05,-1.0252e-19,-1.3634e-21,3.0945,0.0010998,-0.00097561,1.1006e-35,0.00021625,-55.143,-236.69,-87.686,11.487,-1.576e-14,-2.0941e-16,168.85,-237.42,-87.686,-54.415,0,0.015533,0,1,2.165,0,-2.165,0
0,0,0,0,0,0,0.00021081,-0.00096852,4.1709e-37,7.4404e-05,-1.0197e-19,-1.3513e-21,3.0854,0.001097,-0.00097322,1.0928e-35,0.00021551,-55.064,-236.14,-87.497,11.438,-1.5676e-14,-2.0755e-16,168.42,-236.87,-87.497,-54.341,0,0.015538,0,1,2.17,0,-2.17,0
0,0,0,0,0,0,0.00021009,-0.00096616,4.2402e-37,7.4089e-05,-1.0142e-19,-1.3393e-21,3.0763,0.0010942,-0.00097084,1.0849e-35,0.00021476,-54.986,-235.59,-87.308,11.39,-1.5592e-14,-2.0569e-16,167.98,-236.31,-87.308,-54.266,0,0.015543,0,1,2.175,0,-2.175,0
0,0,0,0,0,0,0.00020937,-0.00096381,4.3094e-37,7.3773e-05,-1.0087e-19,-1.3273e-21,3.0672,0.0010913,-0.00096845,1.0771e-35,0.00021401,-54.907,-235.04,-87.118,11.341,-1.5508e-14,-2.0383e-16,167.55,-235.76,-87.118,-54.192,0,0.015548,0,1,2.18,0,-2.18,0
0,0,0,0,0,0,0.00020865,-0.00096145,4.3787e-37,7.3457e-05,-1.0032e-19,-1.3152e-21,3.0581,0.0010885,-0.00096606,1.0692e-35,0.00021326,-54.828,-234.49,-86.929,11.293,-1.5423e-14,-2.0197e-16,167.12,-235.2,-86.929,-54.117,0,0.015552,0,1,2.185,0,-2.185,0
0,0,0,0,0,0,0.00020793,-0.00095909,4.4479e-37,7.3142e-05,-9.9772e-20,-1.3032e-21,3.049,0.0010857,-0.00096368,1.0614e-35,0.00021252,-54.749,-233.94,-86.739,11.244,-1.5339e-14,-2.0011e-16,166.68,-234.65,-86.739,-54.043,0,0.015557,0,1,2.19,0,-2.19,0
0,0,0,0,0,0,0.00020721,-0.00095673,4.5172e-37,7.2826e-05,-9.9222e-20,-1.2912e-21,3.0398,0.0010828,-0.00096129,1.0536e-35,0.00021177,-54.671,-233.39,-86.55,11.196,-1.5255e-14,-1.9825e-16,166.25,-234.09,-86.55,-53.968,0,0.015562,0,1,2.195,0,-2.195,0
0,0,0,0,0,0,0.00020649,-0.00095437,4.5864e-37,7.251e-05,-9.8672e-20,-1.2791e-21,3.0307,0.00108,-0.00095891,1.0457e-35,0.00021102,-54.592,-232.84,-86.36,11.147,-1.517e-14,-1.9639e-16,165.82,-233.54,-86.36,-53.894,0,0.015567,0,1,2.2,0,-2.2,0
0,0,0,0,0,0,0.00020577,-0.00095201,4.6557e-37,7.2195e-05,-9.8123e-20,-1.2671e-21,3.0216,0.0010772,-0.00095652,1.0379e-35,0.00021028,-54.513,-232.29,-86.171,11.099,-1.5086e-14,-1.9453e-16,165.38,-232.98,-86.171,-53.82,0,0.015572,0,1,2.205,0,-2.205,0
0,0,0,0,0,0,0.00020505,-0.00094965,4.7249e-37,7.1879e-05,-9.7573e-20,-1.2551e-21,3.0125,0.0010744,-0.00095413,1.0301e-35,0.00020953,-54.435,-231.74,-85.981,11.05,-1.5002e-14,-1.9267e-16,164.95,-232.43,-85.981,-53.745,0,0.015577,0,1,2.21,0,-2.21,0
0,0,0,0,0,0,0.00020433,-0.00094729,4.7941e-37,7.1563e-05,-9.7023e-20,-1.243e-21,3.0034,0.0010715,-0.00095175,1.0222e-35,0.00020878,-54.356,-231.19,-85.792,11.002,-1.4917e-14,-1.9081e-16,164.52,-231.87,-85.792,-53.671,0,0.015581,0,1,2.215,0,-2.215,0
0,0,0,0,0,0,0.00020361,-0.00094493,4.8634e-37,7.1248e-05,-9.6474e-20,-1.231e-21,2.9943,0.0010687,-0.00094936,1.0144e-35,0.00020803,-54.277,-230.64,-85.603,10.953,-1.4833e-14,-1.8895e-16,164.08,-231.32,-85.603,-53.596,0,0.015586,0,1,2.22,0,-2.22,0
0,0,0,0,0,0,0.00020289,-0.00094258,4.9326e-37,7.0932e-05,-9.5924e-20,-1.219e-21,2.9852,0.0010659,-0.00094697,1.0066e-35,0.00020729,-54.199,-230.09,-85.413,10.905,-1.4749e-14,-1.8709e-16,163.65,-230.76,-85.413,-53.522,0,0.015591,0,1,2.225,0,-2.225,0
0,0,0,0,0,0,0.00020217,-0.00094022,5.0019e-37,7.0617e-05,-9.5374e-20,-1.2069e-21,2.9761,0.001063,-0.00094459,9.9873e-36,0.00020654,-54.12,-229.54,-85.224,10.856,-1.4664e-14,-1.8523e-16,163.21,-230.21,-85.224,-53.447,0,0.015596,0,1,2.23,0,-2.23,0
0,0,0,0,0,0,0.00020145,-0.00093786,5.0711e-37,7.0301e-05,-9.4825e-20,-1.1949e-21,2.967,0.0010602,-0.0009422,9.9089e-36,0.00020579,-54.041,-228.99,-85.034,10.808,-1.458e-14,-1.8337e-16,162.78,-229.65,-85.034,-53.373,0,0.015601,0,1,2.235,0,-2.235,0
0,0,0,0,0,0,0.00020073,-0.0009355,5.1404e-37,6.9985e-05,-9.4275e-20,-1.1829e-21,2.9579,0.0010574,-0.00093981,9.8305e-36,0.00020505,-53.963,-228.44,-84.845,10.759,-1.4496e-14,-1.8151e-16,162.35,-229.1,-84.845,-53.298,0,0.015605,0,1,2.24,0,-2.24,0
0,0,0,0,0,0,0.00020001,-0.00093314,5.2096e-37,6.967e-05,-9.3725e-20,-1.1708e-21,2.9488,0.0010545,-0.00093743,9.7522e-36,0.0002043,-53.884,-227.88,-84.655,10.711,-1.4411e-14,-1.7965e-16,161.91,-228.54,-84.655,-53.224,0,0.01561,0,1,2.245,0,-2.245,0
0,0,0,0,0,0,0.00019929,-0.00093078,5.2789e-37,6.9354e-05,-9.3175e-20,-1.1588e-21,2.9397,0.0010517,-0.00093504,9.6738e-36,0.00020355,-53.805,-227.33,-84.466,10.662,-1.4327e-14,-1.7779e-16,161.48,-227.99,-84.466,-53.149,0,0.015615,0,1,2.25,0,-2.25,0
0,0,0,0,0,0,0.00019857,-0.00092842,5.3481e-37,6.9038e-05,-9.2626e-20,-1.1468e-21,2.9306,0.0010489,-0.00093266,9.5955e-36,0.0002028,-53.726,-226.78,-84.277,10.614,-1.4243e-14,-1.7593e-16,161.05,-227.44,-84.277,-53.075,0,0.01562,0,1,2.255,0,-2.255,0
0,0,0,0,0,0,0.00019785,-0.00092606,5.4174e-37,6.8723e-05,-9.2076e-20,-1.1347e-21,2.9215,0.0010461,-0.00093027,9.5171e-36,0.00020206,-53.648,-226.23,-84.087,10.565,-1.4158e-14,-1.7407e-16,160.61,-226.88,-84.087,-53,0,0.015625,0,1,2.26,0,-2.26,0
0,0,0,0,0,0,0.00019713,-0.0009237,5.4866e-37,6.8407e-05,-9.1526e-20,-1.1227e-21,2.9124,0.0010432,-0.00092788,9.4388e-36,0.00020131,-53.569,-225.68,-83.898,10.517,-1.4074e-14,-1.7221e-16,160.18,-226.33,-83.898,-52.926,0,0.015629,0,1,2.265,0,-2.265,0
0,0,0,0,0,0,0.00019641,-0.00092134,5.5559e-37,6.8091e-05,-9.0977e-20,-1.1107e-21,2.9032,0.0010404,-0.0009255,9.3604e-36,0.00020056,-53.49,-225.13,-83.708,10.468,-1.399e-14,-1.7035e-16,159.74,-225.77,-83.708,-52.851,0,0.015634,0,1,2.27,0,-2.27,0
0,0,0,0,0,0,0.00019569,-0.00091899,5.6251e-37,6.7776e-05,-9.0427e-20,-1.0986e-21,2.8941,0.0010376,-0.00092311,9.2821e-36,0.00019982,-53.412,-224.58,-83.519,10.42,-1.3906e-14,-1.6849e-16,159.31,-225.22,-83.519,-52.777,0,0.015639,0,1,2.275,0,-2.275,0
0,0,0,0,0,0,0.00019497,-0.00091663,5.6943e-37,6.746e-05,-8.9877e-20,-1.0866e-21,2.885,0.0010347,-0.00092072,9.2037e-36,0.00019907,-53.333,-224.03,-83.329,10.371,-1.3821e-14,-1.6663e-16,158.88,-224.66,-83.329,-52.703,0,0.015644,0,1,2.28,0,-2.28,0
0,0,0,0,0,0,0.00019425,-0.00091427,5.7636e-37,6.7144e-05,-8.9328e-20,-1.0746e-21,2.8759,0.0010319,-0.00091834,9.1253e-36,0.00019832,-53.254,-223.48,-83.14,10.323,-1.3737e-14,-1.6477e-16,158.44,-224.11,-83.14,-52.628,0,0.015649,0,1,2.285,0,-2.285,0
0,0,0,0,0,0,0.00019353,-0.00091191,5.8328e-37,6.6829e-05,-8.8778e-20,-1.0625e-21,2.8668,0.0010291,-0.00091595,9.047e-36,0.00019757,-53.176,-222.93,-82.95,10.274,-1.3653e-14,-1.6291e-16,158.01,-223.55,-82.95,-52.554,0,0.015653,0,1,2.29,0,-2.29,0
0,0,0,0,0,0,0.00019281,-0.00090955,5.9021e-37,6.6513e-05,-8.8228e-20,-1.0505e-21,2.8577,0.0010262,-0.00091356,8.9686e-36,0.00019683,-53.097,-222.38,-82.761,10.225,-1.3568e-14,-1.6105e-16,157.58,-223,-82.761,-52.479,0,0.015658,0,1,2.295,0,-2.295,0
0,0,0,0,0,0,0.00019209,-0.00090719,5.9713e-37,6.6198e-05,-8.7679e-20,-1.0385e-21,2.8486,0.0010234,-0.00091118,8.8903e-36,0.00019608,-53.018,-221.83,-82.572,10.177,-1.3484e-14,-1.5918e-16,157.14,-222.44,-82.572,-52.405,0,0.015663,0,1,2.3,0,-2.3,0
0,0,0,0,0,0,0.00019137,-0.00090483,6.0406e-37,6.5882e-05,-8.7129e-20,-1.0264e-21,2.8395,0.0010206,-0.00090879,8.8119e-36,0.00019533,-52.94,-221.28,-82.382,10.128,-1.34e-14,-1.5732e-16,156.71,-221.89,-82.382,-52.33,0,0.015668,0,1,2.305,0,-2.305,0
0,0,0,0,0,0,0.00019065,-0.00090247,6.1098e-37,6.5566e-05,-8.6579e-20,-1.0144e-21,2.8304,0.0010178,-0.00090641,8.7336e-36,0.00019459,-52.861,-220.73,-82.193,10.08,-1.3315e-14,-1.5546e-16,156.28,-221.33,-82.193,-52.256,0,0.015673,0,1,2.31,0,-2.31,0
0,0,0,0,0,0,0.00018993,-0.00090011,6.1791e-37,6.5251e-05,-8.603e-20,-1.0024e-21,2.8213,0.0010149,-0.00090402,8.6552e-36,0.00019384,-52.782,-220.18,-82.003,10.031,-1.3231e-14,-1.536e-16,155.84,-220.78,-82.003,-52.181,0,0.015677,0,1,2.315,0,-2.315,0
0,0,0,0,0,0,0.00018921,-0.00089776,6.2483e-37,6.4935e-05,-8.548e-20,-9.9032e-22,2.8122,0.0010121,-0.00090163,8.5769e-36,0.00019309,-52.703,-219.63,-81.814,9.9829,-1.3147e-14,-1.5174e-16,155.41,-220.22,-81.814,-52.107,0,0.015682,0,1,2.32,0,-2.32,0
0,0,0,0,0,0,0.00018849,-0.0008954,6.3176e-37,6.4619e-05,-8.493e-20,-9.7829e-22,2.8031,0.0010093,-0.00089925,8.4985e-36,0.00019234,-52.625,-219.08,-81.624,9.9344,-1.3062e-14,-1.4988e-16,154.97,-219.67,-81.624,-52.032,0,0.015687,0,1,2.325,0,-2.325,0
0,0,0,0,0,0,0.00018778,-0.00089304,6.3868e-37,6.4304e-05,-8.4381e-20,-9.6625e-22,2.794,0.0010064,-0.00089686,8.4201e-36,0.0001916,-52.546,-218.52,-81.435,9.8859,-1.2978e-14,-1.4802e-16,154.54,-219.11,-81.435,-51.958,0,0.015692,0,1,2.33,0,-2.33,0
0,0,0,0,0,0,0.00018706,-0.00089068,6.456e-37,6.3988e-05,-8.3831e-20,-9.5422e-22,2.7849,0.0010036,-0.00089447,8.3418e-36,0.00019085,-52.467,-217.97,-81.246,9.8374,-1.2894e-14,-1.4616e-16,154.11,-218.56,-81.246,-51.883,0,0.015697,0,1,2.335,0,-2.335,0
0,0,0,0,0,0,0.00018634,-0.00088832,6.5253e-37,6.3672e-05,-8.3281e-20,-9.4219e-22,2.7758,0.0010008,-0.00089209,8.2634e-36,0.0001901,-52.389,-217.42,-81.056,9.7889,-1.2809e-14,-1.443e-16,153.67,-218,-81.056,-51.809,0,0.015701,0,1,2.34,0,-2.34,0
0,0,0,0,0,0,0.00018562,-0.00088596,6.5945e-37,6.3357e-05,-8.2731e-20,-9.3015e-22,2.7666,0.00099795,-0.0008897,8.1851e-36,0.00018936,-52.31,-216.87,-80.867,9.7404,-1.2725e-14,-1.4244e-16,153.24,-217.45,-80.867,-51.734,0,0.015706,0,1,2.345,0,-2.345,0
0,0,0,0,0,0,0.0001849,-0.0008836,6.6638e-37,6.3041e-05,-8.2182e-20,-9.1812e-22,2.7575,0.00099512,-0.00088731,8.1067e-36,0.00018861,-52.231,-216.32,-80.677,9.6919,-1.2641e-14,-1.4058e-16,152.81,-216.89,-80.677,-51.66,0,0.015711,0,1,2.35,0,-2.35,0
0,0,0,0,0,0,0.00018418,-0.00088124,6.733e-37,6.2725e-05,-8.1632e-20,-9.0609e-22,2.7484,0.00099229,-0.00088493,8.0284e-36,0.00018786,-52.153,-215.77,-80.488,9.6433,-1.2556e-14,-1.3872e-16,152.37,-216.34,-80.488,-51.585,0,0.015716,0,1,2.355,0,-2.355,0
0,0,0,0,0,0,0.00018346,-0.00087888,6.8023e-37,6.241e-05,-8.1082e-20,-8.9405e-22,2.7393,0.00098946,-0.00088254,7.95e-36,0.00018711,-52.074,-215.22,-80.298,9.5948,-1.2472e-14,-1.3686e-16,151.94,-215.78,-80.298,-51.511,0,0.015721,0,1,2.36,0,-2.36,0
0,0,0,0,0,0,0.00018274,-0.00087653,6.8715e-37,6.2094e-05,-8.0533e-20,-8.8202e-22,2.7302,0.00098663,-0.00088016,7.8716e-36,0.00018637,-51.995,-214.67,-80.109,9.5463,-1.2388e-14,-1.35e-16,151.51,-215.23,-80.109,-51.437,0,0.015725,0,1,2.365,0,-2.365,0
0,0,0,0,0,0,0.00018202,-0.00087417,6.9408e-37,6.1779e-05,-7.9983e-20,-8.6999e-22,2.7211,0.0009838,-0.00087777,7.7933e-36,0.00018562,-51.917,-214.12,-79.919,9.4978,-1.2304e-14,-1.3314e-16,151.07,-214.67,-79.919,-51.362,0,0.01573,0,1,2.37,0,-2.37,0
0,0,0,0,0,0,0.0001813,-0.00087181,7.01e-37,6.1463e-05,-7.9433e-20,-8.5795e-22,2.712,0.00098097,-0.00087538,7.7149e-36,0.00018487,-51.838,-213.57,-79.73,9.4493,-1.2219e-14,-1.3128e-16,150.64,-214.12,-79.73,-51.288,0,0.015735,0,1,2.375,0,-2.375,0
0,0,0,0,0,0,0.0001808,-0.00087011,6.9301e-37,6.1263e-05,-7.9568e-20,-8.4524e-22,2.7055,0.00097895,-0.00087366,7.7627e-36,0.00018436,-51.776,-213.17,-79.591,9.4186,-1.224e-14,-1.2933e-16,150.33,-213.72,-79.591,-51.228,0,0.015739,0,1,2.38,0,-2.38,0
0,0,0,0,0,0,0.00018033,-0.00086851,6.8259e-37,6.1082e-05,-7.9815e-20,-8.3241e-22,2.6994,0.00097706,-0.00087206,7.8311e-36,0.00018388,-51.717,-212.79,-79.461,9.3908,-1.2278e-14,-1.2737e-16,150.04,-213.34,-79.461,-51.171,0,0.015743,0,1,2.385,0,-2.385,0
0,0,0,0,0,0,0.00017987,-0.00086692,6.7217e-37,6.0901e-05,-8.0061e-20,-8.1959e-22,2.6933,0.00097517,-0.00087045,7.8994e-36,0.0001834,-51.658,-212.42,-79.33,9.363,-1.2316e-14,-1.254e-16,149.75,-212.96,-79.33,-51.114,0,0.015747,0,1,2.39,0,-2.39,0
0,0,0,0,0,0,0.0001794,-0.00086532,6.6175e-37,6.072e-05,-8.0308e-20,-8.0677e-22,2.6873,0.00097328,-0.00086884,7.9677e-36,0.00018292,-51.599,-212.04,-79.199,9.3352,-1.2353e-14,-1.2344e-16,149.46,-212.59,-79.199,-51.057,0,0.015751,0,1,2.395,0,-2.395,0
0,0,0,0,0,0,0.00017894,-0.00086373,6.5133e-37,6.054e-05,-8.0554e-20,-7.9394e-22,2.6812,0.00097139,-0.00086723,8.0361e-36,0.00018244,-51.539,-211.67,-79.069,9.3074,-1.2391e-14,-1.2147e-16,149.17,-212.21,-79.069,-51,0,0.015755,0,1,2.4,0,-2.4,0
0,0,0,0,0,0,0.00017848,-0.00086213,6.4091e-37,6.0359e-05,-8.0801e-20,-7.8112e-22,2.6751,0.0009695,-0.00086562,8.1044e-36,0.00018197,-51.48,-211.29,-78.938,9.2796,-1.2429e-14,-1.1951e-16,148.88,-211.83,-78.938,-50.943,0,0.015759,0,1,2.405,0,-2.405,0
0,0,0,0,0,0,0.00017801,-0.00086054,6.3049e-37,6.0178e-05,-8.1047e-20,-7.6829e-22,2.669,0.00096761,-0.00086401,8.1727e-36,0.00018149,-51.421,-210.92,-78.807,9.2518,-1.2467e-14,-1.1754e-16,148.59,-211.45,-78.807,-50.886,0,0.015763,0,1,2.41,0,-2.41,0
0,0,0,0,0,0,0.00017755,-0.00085894,6.2007e-37,5.9997e-05,-8.1294e-20,-7.5547e-22,2.6629,0.00096572,-0.0008624,8.241e-36,0.00018101,-51.362,-210.54,-78.677,9.2239,-1.2505e-14,-1.1557e-16,148.3,-211.08,-78.677,-50.829,0,0.015766,0,1,2.415,0,-2.415,0
0,0,0,0,0,0,0.00017708,-0.00085735,6.0965e-37,5.9816e-05,-8.154e-20,-7.4264e-22,2.6569,0.00096383,-0.0008608,8.3094e-36,0.00018053,-51.303,-210.17,-78.546,9.1961,-1.2542e-14,-1.1361e-16,148.01,-210.7,-78.546,-50.772,0,0.01577,0,1,2.42,0,-2.42,0
0,0,0,0,0,0,0.00017662,-0.00085575,5.9923e-37,5.9635e-05,-8.1787e-20,-7.2982e-22,2.6508,0.00096194,-0.00085919,8.3777e-36,0.00018005,-51.244,-209.79,-78.416,9.1683,-1.258e-14,-1.1164e-16,147.72,-210.32,-78.416,-50.715,0,0.015774,0,1,2.425,0,-2.425,0
0,0,0,0,0,0,0.00017615,-0.00085416,5.8881e-37,5.9454e-05,-8.2033e-20,-7.17e-22,2.6447,0.00096005,-0.00085758,8.446e-36,0.00017958,-51.184,-209.42,-78.285,9.1405,-1.2618e-14,-1.0968e-16,147.43,-209.95,-78.285,-50.658,0,0.015778,0,1,2.43,0,-2.43,0
0,0,0,0,0,0,0.00017569,-0.00085256,5.784e-37,5.9273e-05,-8.2279e-20,-7.0417e-22,2.6386,0.00095816,-0.00085597,8.5144e-36,0.0001791,-51.125,-209.04,-78.154,9.1127,-1.2656e-14,-1.0771e-16,147.14,-209.57,-78.154,-50.601,0,0.015782,0,1,2.435,0,-2.435,0
0,0,0,0,0,0,0.00017522,-0.00085097,5.6798e-37,5.9092e-05,-8.2526e-20,-6.9135e-22,2.6325,0.00095627,-0.00085436,8.5827e-36,0.00017862,-51.066,-208.67,-78.024,9.0849,-1.2694e-14,-1.0575e-16,146.85,-209.19,-78.024,-50.543,0,0.015786,0,1,2.44,0,-2.44,0
0,0,0,0,0,0,0.00017476,-0.00084937,5.5756e-37,5.8911e-05,-8.2772e-20,-6.7852e-22,2.6265,0.00095438,-0.00085275,8.651e-36,0.00017814,-51.007,-208.29,-77.893,9.0571,-1.2731e-14,-1.0378e-16,146.56,-208.81,-77.893,-50.486,0,0.01579,0,1,2.445,0,-2.445,0
0,0,0,0,0,0,0.00017429,-0.00084778,5.4714e-37,5.8731e-05,-8.3019e-20,-6.657e-22,2.6204,0.00095249,-0.00085114,8.7194e-36,0.00017766,-50.948,-207.92,-77.763,9.0293,-1.2769e-14,-1.0182e-16,146.27,-208.44,-77.763,-50.429,0,0.015794,0,1,2.45,0,-2.45,0
0,0,0,0,0,0,0.00017383,-0.00084618,5.3672e-37,5.855e-05,-8.3265e-20,-6.5287e-22,2.6143,0.0009506,-0.00084954,8.7877e-36,0.00017719,-50.889,-207.54,-77.632,9.0015,-1.2807e-14,-9.9853e-17,145.98,-208.06,-77.632,-50.372,0,0.015798,0,1,2.455,0,-2.455,0
0,0,0,0,0,0,0.00017337,-0.00084459,5.263e-37,5.8369e-05,-8.3512e-20,-6.4005e-22,2.6082,0.00094871,-0.00084793,8.856e-36,0.00017671,-50.83,-207.17,-77.501,8.9737,-1.2845e-14,-9.7888e-17,145.69,-207.68,-77.501,-50.315,0,0.015802,0,1,2.46,0,-2.46,0
0,0,0,0,0,0,0.0001729,-0.00084299,5.1588e-37,5.8188e-05,-8.3758e-20,-6.2723e-22,2.6021,0.00094683,-0.00084632,8.9244e-36,0.00017623,-50.77,-206.79,-77.371,8.9459,-1.2883e-14,-9.5923e-17,145.4,-207.31,-77.371,-50.258,0,0.015806,0,1,2.465,0,-2.465,0
0,0,0,0,0,0,0.00017244,-0.0008414,5.0546e-37,5.8007e-05,-8.4005e-20,-6.144e-22,2.5961,0.00094494,-0.00084471,8.9927e-36,0.00017575,-50.711,-206.42,-77.24,8.9181,-1.292e-14,-9.3958e-17,145.11,-206.93,-77.24,-50.201,0,0.01581,0,1,2.47,0,-2.47,0
0,0,0,0,0,0,0.00017197,-0.0008398,4.9504e-37,5.7826e-05,-8.4251e-20,-6.0158e-22,2.59,0.00094305,-0.0008431,9.061e-36,0.00017527,-50.652,-206.04,-77.11,8.8903,-1.2958e-14,-9.1993e-17,144.82,-206.55,-77.11,-50.144,0,0.015813,0,1,2.475,0,-2.475,0
0,0,0,0,0,0,0.00017151,-0.00083821,4.8462e-37,5.7645e-05,-8.4498e-20,-5.8875e-22,2.5839,0.00094116,-0.00084149,9.1294e-36,0.0001748,-50.593,-205.67,-76.979,8.8625,-1.2996e-14,-9.0028e-17,144.53,-206.17,-76.979,-50.087,0,0.015817,0,1,2.48,0,-2.48,0
0,0,0,0,0,0,0.00017104,-0.00083661,4.742e-37,5.7464e-05,-8.4744e-20,-5.7593e-22,2.5778,0.00093927,-0.00083988,9.1977e-36,0.00017432,-50.534,-205.29,-76.848,8.8347,-1.3034e-14,-8.8062e-17,144.24,-205.8,-76.848,-50.03,0,0.015821,0,1,2.485,0,-2.485,0
0,0,0,0,0,0,0.00017058,-0.00083502,4.6378e-37,5.7283e-05,-8.4991e-20,-5.631e-22,2.5717,0.00093738,-0.00083828,9.266e-36,0.00017384,-50.475,-204.92,-76.718,8.8069,-1.3072e-14,-8.6097e-17,143.95,-205.42,-76.718,-49.973,0,0.015825,0,1,2.49,0,-2.49,0
0,0,0,0,0,0,0.00017011,-0.00083342,4.5336e-37,5.7102e-05,-8.5237e-20,-5.5028e-22,2.5657,0.00093549,-0.00083667,9.3343e-36,0.00017336,-50.416,-204.54,-76.587,8.7791,-1.311e-14,-8.4132e-17,143.66,-205.04,-76.587,-49.916,0,0.015829,0,1,2.495,0,-2.495,0
0,0,0,0,0,0,0.00016965,-0.00083183,4.4294e-37,5.6922e-05,-8.5483e-20,-5.3746e-22,2.5596,0.0009336,-0.00083506,9.4027e-36,0.00017288,-50.356,-204.17,-76.456,8.7513,-1.3147e-14,-8.2167e-17,143.37,-204.67,-76.456,-49.859,0,0.015833,0,1,2.5,0,-2.5,0
0,0,0,0,0,0,0.00016919,-0.00083023,4.3252e-37,5.6741e-05,-8.573e-20,-5.2463e-22,2.5535,0.00093171,-0.00083345,9.471e-36,0.0001724,-50.297,-203.79,-76.326,8.7234,-1.3185e-14,-8.0202e-17,143.08,-204.29,-76.326,-49.802,0,0.015837,0,1,2.505,0,-2.505,0
0,0,0,0,0,0,0.00016872,-0.00082864,4.221e-37,5.656e-05,-8.5976e-20,-5.1181e-22,2.5474,0.00092982,-0.00083184,9.5393e-36,0.00017193,-50.238,-203.42,-76.195,8.6956,-1.3223e-14,-7.8237e-17,142.79,-203.91,-76.195,-49.745,0,0.015841,0,1,2.51,0,-2.51,0
0,0,0,0,0,0,0.00016826,-0.00082704,4.1168e-37,5.6379e-05,-8.6223e-20,-4.9898e-22,2.5413,0.00092793,-0.00083023,9.6077e-36,0.00017145,-50.179,-203.04,-76.065,8.6678,-1.3261e-14,-7.6271e-17,142.5,-203.53,-76.065,-49.688,0,0.015845,0,1,2.515,0,-2.515,0
0,0,0,0,0,0,0.00016779,-0.00082545,4.0126e-37,5.6198e-05,-8.6469e-20,-4.8616e-22,2.5353,0.00092604,-0.00082862,9.676e-36,0.00017097,-50.12,-202.67,-75.934,8.64,-1.3299e-14,-7.4306e-17,142.21,-203.16,-75.934,-49.631,0,0.015849,0,1,2.52,0,-2.52,0
0,0,0,0,0,0,0.00016733,-0.00082385,3.9084e-37,5.6017e-05,-8.6716e-20,-4.7334e-22,2.5292,0.00092415,-0.00082701,9.7443e-36,0.00017049,-50.061,-202.29,-75.803,8.6122,-1.3336e-14,-7.2341e-17,141.92,-202.78,-75.803,-49.574,0,0.015853,0,1,2.525,0,-2.525,0
0,0,0,0,0,0,0.00016686,-0.00082226,3.8042e-37,5.5836e-05,-8.6962e-20,-4.6051e-22,2.5231,0.00092226,-0.00082541,9.8127e-36,0.00017001,-50.002,-201.92,-75.673,8.5844,-1.3374e-14,-7.0376e-17,141.63,-202.4,-75.673,-49.517,0,0.015857,0,1,2.53,0,-2.53,0
0,0,0,0,0,0,0.0001664,-0.00082066,3.7e-37,5.5655e-05,-8.7209e-20,-4.4769e-22,2.517,0.00092037,-0.0008238,9.881e-36,0.00016954,-49.942,-201.54,-75.542,8.5566,-1.3412e-14,-6.8411e-17,141.34,-202.03,-75.542,-49.46,0,0.01586,0,1,2.535,0,-2.535,0
0,0,0,0,0,0,0.00016593,-0.00081907,3.5958e-37,5.5474e-05,-8.7455e-20,-4.3486e-22,2.5109,0.00091848,-0.00082219,9.9493e-36,0.00016906,-49.883,-201.17,-75.412,8.5288,-1.345e-14,-6.6446e-17,141.05,-201.65,-75.412,-49.403,0,0.015864,0,1,2.54,0,-2.54,0
0,0,0,0,0,0,0.00016547,-0.00081747,3.4917e-37,5.5293e-05,-8.7702e-20,-4.2204e-22,2.5049,0.00091659,-0.00082058,1.0018e-35,0.00016858,-49.824,-200.79,-75.281,8.501,-1.3488e-14,-6.448e-17,140.76,-201.27,-75.281,-49.345,0,0.015868,0,1,2.545,0,-2.545,0
0,0,0,0,0,0,0.000165,-0.00081588,3.3875e-37,5.5113e-05,-8.7948e-20,-4.0921e-22,2.4988,0.0009147,-0.00081897,1.0086e-35,0.0001681,-49.765,-200.42,-75.15,8.4732,-1.3525e-14,-6.2515e-17,140.47,-200.89,-75.15,-49.288,0,0.015872,0,1,2.55,0,-2.55,0
0,0,0,0,0,0,0.00016454,-0.00081428,3.2833e-37,5.4932e-05,-8.8195e-20,-3.9639e-22,2.4927,0.00091281,-0.00081736,1.0154e-35,0.00016762,-49.706,-200.04,-75.02,8.4454,-1.3563e-14,-6.055e-17,140.18,-200.52,-75.02,-49.231,0,0.015876,0,1,2.555,0,-2.555,0
0,0,0,0,0,0,0.00016408,-0.00081269,3.1791e-37,5.4751e-05,-8.8441e-20,-3.8357e-22,2.4866,0.00091092,-0.00081575,1.0223e-35,0.00016715,-49.647,-199.67,-74.889,8.4176,-1.3601e-14,-5.8585e-17,139.89,-200.14,-74.889,-49.174,0,0.01588,0,1,2.56,0,-2.56,0
0,0,0,0,0,0,0.00016361,-0.00081109,3.0749e-37,5.457e-05,-8.8688e-20,-3.7074e-22,2.4805,0.00090903,-0.00081415,1.0291e-35,0.00016667,-49.588,-199.29,-74.759,8.3898,-1.3639e-14,-5.662e-17,139.6,-199.76,-74.759,-49.117,0,0.015884,0,1,2.565,0,-2.565,0
0,0,0,0,0,0,0.00016315,-0.0008095,2.9707e-37,5.4389e-05,-8.8934e-20,-3.5792e-22,2.4745,0.00090714,-0.00081254,1.0359e-35,0.00016619,-49.528,-198.92,-74.628,8.362,-1.3677e-14,-5.4655e-17,139.32,-199.39,-74.628,-49.06,0,0.015888,0,1,2.57,0,-2.57,0
0,0,0,0,0,0,0.00016268,-0.0008079,2.8665e-37,5.4208e-05,-8.918e-20,-3.4509e-22,2.4684,0.00090525,-0.00081093,1.0428e-35,0.00016571,-49.469,-198.54,-74.497,8.3342,-1.3714e-14,-5.2689e-17,139.03,-199.01,-74.497,-49.003,0,0.015892,0,1,2.575,0,-2.575,0
0,0,0,0,0,0,0.00016222,-0.0008063,2.7623e-37,5.4027e-05,-8.9427e-20,-3.3227e-22,2.4623,0.00090336,-0.00080932,1.0496e-35,0.00016523,-49.41,-198.17,-74.367,8.3064,-1.3752e-14,-5.0724e-17,138.74,-198.63,-74.367,-48.946,0,0.015896,0,1,2.58,0,-2.58,0
0,0,0,0,0,0,0.00016175,-0.00080471,2.6581e-37,5.3846e-05,-8.9673e-20,-3.1944e-22,2.4562,0.00090147,-0.00080771,1.0564e-35,0.00016475,-49.351,-197.79,-74.236,8.2786,-1.379e-14,-4.8759e-17,138.45,-198.25,-74.236,-48.889,0,0.0159,0,1,2.585,0,-2.585,0
0,0,0,0,0,0,0.00016129,-0.00080311,2.5539e-37,5.3665e-05,-8.992e-20,-3.0662e-22,2.4501,0.00089958,-0.0008061,1.0633e-35,0.00016428,-49.292,-197.42,-74.105,8.2508,-1.3828e-14,-4.6794e-17,138.16,-197.88,-74.105,-48.832,0,0.015904,0,1,2.59,0,-2.59,0
0,0,0,0,0,0,0.00016082,-0.00080152,2.4497e-37,5.3485e-05,-9.0166e-20,-2.938e-22,2.4441,0.00089769,-0.00080449,1.0701e-35,0.0001638,-49.233,-197.04,-73.975,8.223,-1.3866e-14,-4.4829e-17,137.87,-197.5,-73.975,-48.775,0,0.015907,0,1,2.595,0,-2.595,0
0,0,0,0,0,0,0.00016036,-0.00079992,2.3455e-37,5.3304e-05,-9.0413e-20,-2.8097e-22,2.438,0.0008958,-0.00080289,1.0769e-35,0.00016332,-49.174,-196.67,-73.844,8.1951,-1.3904e-14,-4.2864e-17,137.58,-197.12,-73.844,-48.718,0,0.015911,0,1,2.6,0,-2.6,0
0,0,0,0,0,0,0.0001599,-0.00079833,2.2413e-37,5.3123e-05,-9.0659e-20,-2.6815e-22,2.4319,0.00089391,-0.00080128,1.0838e-35,0.00016284,-49.114,-196.29,-73.714,8.1673,-1.3941e-14,-4.0898e-17,137.29,-196.75,-73.714,-48.661,0,0.015915,0,1,2.605,0,-2.605,0
0,0,0,0,0,0,0.00015943,-0.00079673,2.1371e-37,5.2942e-05,-9.0906e-20,-2.5532e-22,2.4258,0.00089202,-0.00079967,1.0906e-35,0.00016236,-49.055,-195.92,-73.583,8.1395,-1.3979e-14,-3.8933e-17,137,-196.37,-73.583,-48.604,0,0.015919,0,1,2.61,0,-2.61,0
0,0,0,0,0,0,0.00015897,-0.00079514,2.0329e-37,5.2761e-05,-9.1152e-20,-2.425e-22,2.4197,0.00089013,-0.00079806,1.0974e-35,0.00016189,-48.996,-195.54,-73.452,8.1117,-1.4017e-14,-3.6968e-17,136.71,-195.99,-73.452,-48.547,0,0.015923,0,1,2.615,0,-2.615,0
0,0,0,0,0,0,0.0001585,-0.00079354,1.9287e-37,5.258e-05,-9.1399e-20,-2.2968e-22,2.4137,0.00088824,-0.00079645,1.1043e-35,0.00016141,-48.937,-195.17,-73.322,8.0839,-1.4055e-14,-3.5003e-17,136.42,-195.61,-73.322,-48.49,0,0.015927,0,1,2.62,0,-2.62,0
0,0,0,0,0,0,0.00015804,-0.00079195,1.8245e-37,5.2399e-05,-9.1645e-20,-2.1685e-22,2.4076,0.00088635,-0.00079484,1.1111e-35,0.00016093,-48.878,-194.79,-73.191,8.0561,-1.4093e-14,-3.3038e-17,136.13,-195.24,-73.191,-48.433,0,0.015931,0,1,2.625,0,-2.625,0
0,0,0,0,0,0,0.00015757,-0.00079035,1.7203e-37,5.2218e-05,-9.1892e-20,-2.0403e-22,2.4015,0.00088446,-0.00079323,1.1179e-35,0.00016045,-48.819,-194.42,-73.061,8.0283,-1.413e-14,-3.1072e-17,135.84,-194.86,-73.061,-48.376,0,0.015935,0,1,2.63,0,-2.63,0
0,0,0,0,0,0,0.00015711,-0.00078876,1.6161e-37,5.2037e-05,-9.2138e-20,-1.912e-22,2.3954,0.00088257,-0.00079163,1.1248e-35,0.00015997,-48.76,-194.04,-72.93,8.0005,-1.4168e-14,-2.9107e-17,135.55,-194.48,-72.93,-48.319,0,0.015939,0,1,2.635,0,-2.635,0
0,0,0,0,0,0,0.00015664,-0.00078716,1.5119e-37,5.1856e-05,-9.2384e-20,-1.7838e-22,2.3893,0.00088068,-0.00079002,1.1316e-35,0.0001595,-48.7,-193.67,-72.799,7.9727,-1.4206e-14,-2.7142e-17,135.26,-194.11,-72.799,-48.262,0,0.015943,0,1,2.64,0,-2.64,0
0,0,0,0,0,0,0.00015618,-0.00078557,1.4077e-37,5.1676e-05,-9.2631e-20,-1.6555e-22,2.3833,0.00087879,-0.00078841,1.1384e-35,0.00015902,-48.641,-193.29,-72.669,7.9449,-1.4244e-14,-2.5177e-17,134.97,-193.73,-72.669,-48.204,0,0.015947,0,1,2.645,0,-2.645,0
0,0,0,0,0,0,0.00015571,-0.00078397,1.3035e-37,5.1495e-05,-9.2877e-20,-1.5273e-22,2.3772,0.0008769,-0.0007868,1.1453e-35,0.00015854,-48.582,-192.92,-72.538,7.9171,-1.4282e-14,-2.3212e-17,134.68,-193.35,-72.538,-48.147,0,0.015951,0,1,2.65,0,-2.65,0
0,0,0,0,0,0,0.00015525,-0.00078238,1.1994e-37,5.1314e-05,-9.3124e-20,-1.3991e-22,2.3711,0.00087501,-0.00078519,1.1521e-35,0.00015806,-48.523,-192.54,-72.407,7.8893,-1.4319e-14,-2.1247e-17,134.39,-192.97,-72.407,-48.09,0,0.015954,0,1,2.655,0,-2.655,0
0,0,0,0,0,0,0.00015479,-0.00078078,1.0952e-37,5.1133e-05,-9.337e-20,-1.2708e-22,2.365,0.00087312,-0.00078358,1.1589e-35,0.00015758,-48.464,-192.17,-72.277,7.8615,-1.4357e-14,-1.9281e-17,134.1,-192.6,-72.277,-48.033,0,0.015958,0,1,2.66,0,-2.66,0
0,0,0,0,0,0,0.00015432,-0.00077919,9.9096e-38,5.0952e-05,-9.3617e-20,-1.1426e-22,2.3589,0.00087123,-0.00078197,1.1658e-35,0.00015711,-48.405,-191.79,-72.146,7.8337,-1.4395e-14,-1.7316e-17,133.81,-192.22,-72.146,-47.976,0,0.015962,0,1,2.665,0,-2.665,0
0,0,0,0,0,0,0.00015386,-0.00077759,8.8677e-38,5.0771e-05,-9.3863e-20,-1.0143e-22,2.3528,0.00086934,-0.00078037,1.1726e-35,0.00015663,-48.346,-191.42,-72.016,7.8059,-1.4433e-14,-1.5351e-17,133.52,-191.84,-72.016,-47.919,0,0.015966,0,1,2.67,0,-2.67,0
0,0,0,0,0,0,0.00015339,-0.000776,7.8257e-38,5.059e-05,-9.411e-20,-8.8608e-23,2.3468,0.00086745,-0.00077876,1.1794e-35,0.00015615,-48.286,-191.04,-71.885,7.7781,-1.4471e-14,-1.3386e-17,133.23,-191.47,-71.885,-47.862,0,0.01597,0,1,2.675,0,-2.675,0
0,0,0,0,0,0,0.00015293,-0.0007744,6.7838e-38,5.0409e-05,-9.4356e-20,-7.5784e-23,2.3407,0.00086557,-0.00077715,1.1863e-35,0.00015567,-48.227,-190.67,-71.754,7.7503,-1.4508e-14,-1.1421e-17,132.94,-191.09,-71.754,-47.805,0,0.015974,0,1,2.68,0,-2.68,0
0,0,0,0,0,0,0.00015246,-0.00077281,5.7418e-38,5.0228e-05,-9.4603e-20,-6.296e-23,2.3346,0.00086368,-0.00077554,1.1931e-35,0.00015519,-48.168,-190.29,-71.624,7.7225,-1.4546e-14,-9.4557e-18,132.65,-190.71,-71.624,-47.748,0,0.015978,0,1,2.685,0,-2.685,0
0,0,0,0,0,0,0.000152,-0.00077121,4.6999e-38,5.0047e-05,-9.4849e-20,-5.0135e-23,2.3285,0.00086179,-0.00077393,1.1999e-35,0.00015471,-48.109,-189.92,-71.493,7.6946,-1.4584e-14,-7.4905e-18,132.36,-190.33,-71.493,-47.691,0,0.015982,0,1,2.69,0,-2.69,0
0,0,0,0,0,0,0.00015153,-0.00076962,3.6579e-38,4.9867e-05,-9.5096e-20,-3.7311e-23,2.3224,0.0008599,-0.00077232,1.2068e-35,0.00015424,-48.05,-189.54,-71.363,7.6668,-1.4622e-14,-5.5254e-18,132.07,-189.96,-71.363,-47.634,0,0.015986,0,1,2.695,0,-2.695,0
0,0,0,0,0,0,0.00015107,-0.00076802,2.6159e-38,4.9686e-05,-9.5342e-20,-2.4487e-23,2.3164,0.00085801,-0.00077071,1.2136e-35,0.00015376,-47.991,-189.17,-71.232,7.639,-1.466e-14,-3.5601e-18,131.78,-189.58,-71.232,-47.577,0,0.01599,0,1,2.7,0,-2.7,0
0,0,0,0,0,0,0.00015061,-0.00076643,1.574e-38,4.9505e-05,-9.5589e-20,-1.1663e-23,2.3103,0.00085612,-0.0007691,1.2204e-35,0.00015328,-47.932,-188.79,-71.101,7.6112,-1.4698e-14,-1.595e-18,131.49,-189.2,-71.101,-47.52,0,0.015994,0,1,2.705,0,-2.705,0
0,0,0,0,0,0,0.00015014,-0.00076483,5.3204e-39,4.9324e-05,-9.5835e-20,1.1616e-24,2.3042,0.00085423,-0.0007675,1.2273e-35,0.0001528,-47.872,-188.42,-70.971,7.5834,-1.4735e-14,3.702e-19,131.2,-188.83,-70.971,-47.463,0,0.015998,0,1,2.71,0,-2.71,0
0,0,0,0,0,0,0.00014968,-0.00076324,-5.0989e-39,4.9143e-05,-9.6081e-20,1.3985e-23,2.2981,0.00085234,-0.00076589,1.2341e-35,0.00015232,-47.813,-188.04,-70.84,7.5556,-1.4773e-14,2.3353e-18,130.91,-188.45,-70.84,-47.406,0,0.016001,0,1,2.715,0,-2.715,0
0,0,0,0,0,0,0.00014921,-0.00076164,-1.5519e-38,4.8962e-05,-9.6328e-20,2.681e-23,2.292,0.00085045,-0.00076428,1.2409e-35,0.00015185,-47.754,-187.67,-70.71,7.5278,-1.4811e-14,4.3005e-18,130.62,-188.07,-70.71,-47.349,0,0.016005,0,1,2.72,0,-2.72,0
0,0,0,0,0,0,0.00014875,-0.00076005,-2.5938e-38,4.8781e-05,-9.6574e-20,3.9634e-23,2.286,0.00084856,-0.00076267,1.2478e-35,0.00015137,-47.695,-187.29,-70.579,7.5,-1.4849e-14,6.2656e-18,130.33,-187.69,-70.579,-47.292,0,0.016009,0,1,2.725,0,-2.725,0
0,0,0,0,0,0,0.00014828,-0.00075845,-3.6358e-38,4.86e-05,-9.6821e-20,5.2458e-23,2.2799,0.00084667,-0.00076106,1.2546e-35,0.00015089,-47.636,-186.92,-70.448,7.4722,-1.4887e-14,8.2309e-18,130.04,-187.32,-70.448,-47.235,0,0.016013,0,1,2.73,0,-2.73,0
0,0,0,0,0,0,0.00014782,-0.00075686,-4.6777e-38,4.8419e-05,-9.7067e-20,6.5282e-23,2.2738,0.00084478,-0.00075945,1.2614e-35,0.00015041,-47.577,-186.54,-70.318,7.4444,-1.4924e-14,1.0196e-17,129.75,-186.94,-70.318,-47.178,0,0.016017,0,1,2.735,0,-2.735,0
0,0,0,0,0,0,0.00014735,-0.00075526,-5.7197e-38,4.8238e-05,-9.7314e-20,7.8107e-23,2.2677,0.00084289,-0.00075784,1.2683e-35,0.00014993,-47.518,-186.17,-70.187,7.4166,-1.4962e-14,1.2161e-17,129.46,-186.56,-70.187,-47.121,0,0.016021,0,1,2.74,0,-2.74,0
0,0,0,0,0,0,0.00014689,-0.00075367,-6.7616e-38,4.8058e-05,-9.756e-20,9.0931e-23,2.2616,0.000841,-0.00075624,1.2751e-35,0.00014946,-47.458,-185.79,-70.056,7.3888,-1.5e-14,1.4126e-17,129.17,-186.19,-70.056,-47.063,0,0.016025,0,1,2.745,0,-2.745,0
0,0,0,0,0,0,0.00014642,-0.00075207,-7.8036e-38,4.7877e-05,-9.7807e-20,1.0376e-22,2.2556,0.00083911,-0.00075463,1.2819e-35,0.00014898,-47.399,-185.42,-69.926,7.361,-1.5038e-14,1.6092e-17,128.88,-185.81,-69.926,-47.006,0,0.016029,0,1,2.75,0,-2.75,0
0,0,0,0,0,0,0.00014596,-0.00075048,-8.8456e-38,4.7696e-05,-9.8053e-20,1.1658e-22,2.2495,0.00083722,-0.00075302,1.2888e-35,0.0001485,-47.34,-185.04,-69.795,7.3332,-1.5076e-14,1.8057e-17,128.59,-185.43,-69.795,-46.949,0,0.016033,0,1,2.755,0,-2.755,0
0,0,0,0,0,0,0.0001455,-0.00074888,-9.8875e-38,4.7515e-05,-9.83e-20,1.294e-22,2.2434,0.00083533,-0.00075141,1.2956e-35,0.00014802,-47.281,-184.67,-69.665,7.3054,-1.5113e-14,2.0022e-17,128.3,-185.05,-69.665,-46.892,0,0.016037,0,1,2.76,0,-2.76,0
0,0,0,0,0,0,0.00014503,-0.00074729,-1.0929e-37,4.7334e-05,-9.8546e-20,1.4223e-22,2.2373,0.00083344,-0.0007498,1.3024e-35,0.00014754,-47.222,-184.29,-69.534,7.2776,-1.5151e-14,2.1987e-17,128.01,-184.68,-69.534,-46.835,0,0.016041,0,1,2.765,0,-2.765,0
0,0,0,0,0,0,0.00014457,-0.00074569,-1.1971e-37,4.7153e-05,-9.8793e-20,1.5505e-22,2.2312,0.00083155,-0.00074819,1.3093e-35,0.00014706,-47.163,-183.92,-69.403,7.2498,-1.5189e-14,2.3952e-17,127.72,-184.3,-69.403,-46.778,0,0.016045,0,1,2.77,0,-2.77,0
0,0,0,0,0,0,0.0001441,-0.0007441,-1.3013e-37,4.6972e-05,-9.9039e-20,1.6788e-22,2.2252,0.00082966,-0.00074658,1.3161e-35,0.00014659,-47.104,-183.54,-69.273,7.222,-1.5227e-14,2.5917e-17,127.43,-183.92,-69.273,-46.721,0,0.016048,0,1,2.775,0,-2.775,0
0,0,0,0,0,0,0.00014364,-0.0007425,-1.4055e-37,4.6791e-05,-9.9285e-20,1.807e-22,2.2191,0.00082777,-0.00074498,1.3229e-35,0.00014611,-47.044,-183.16,-69.142,7.1941,-1.5265e-14,2.7883e-17,127.14,-183.55,-69.142,-46.664,0,0.016052,0,1,2.78,0,-2.78,0
0,0,0,0,0,0,0.00014317,-0.00074091,-1.5097e-37,4.661e-05,-9.9532e-20,1.9353e-22,2.213,0.00082588,-0.00074337,1.3298e-35,0.00014563,-46.985,-182.79,-69.012,7.1663,-1.5303e-14,2.9848e-17,126.85,-183.17,-69.012,-46.607,0,0.016056,0,1,2.785,0,-2.785,0
0,0,0,0,0,0,0.00014271,-0.00073931,-1.6139e-37,4.6429e-05,-9.9778e-20,2.0635e-22,2.2069,0.00082399,-0.00074176,1.3366e-35,0.00014515,-46.926,-182.41,-68.881,7.1385,-1.534e-14,3.1813e-17,126.56,-182.79,-68.881,-46.55,0,0.01606,0,1,2.79,0,-2.79,0
0,0,0,0,0,0,0.00014224,-0.00073772,-1.7181e-37,4.6249e-05,-1.0002e-19,2.1917e-22,2.2008,0.0008221,-0.00074015,1.3434e-35,0.00014467,-46.867,-182.04,-68.75,7.1107,-1.5378e-14,3.3778e-17,126.27,-182.41,-68.75,-46.493,0,0.016064,0,1,2.795,0,-2.795,0
0,0,0,0,0,0,0.00014178,-0.00073612,-1.8223e-37,4.6068e-05,-1.0027e-19,2.32e-22,2.1948,0.00082021,-0.00073854,1.3503e-35,0.0001442,-46.808,-181.66,-68.62,7.0829,-1.5416e-14,3.5743e-17,125.98,-182.04,-68.62,-46.436,0,0.016068,0,1,2.8,0,-2.8,0
0,0,0,0,0,0,0.00014132,-0.00073453,-1.9265e-37,4.5887e-05,-1.0052e-19,2.4482e-22,2.1887,0.00081832,-0.00073693,1.3571e-35,0.00014372,-46.749,-181.29,-68.489,7.0551,-1.5454e-14,3.7708e-17,125.69,-181.66,-68.489,-46.379,0,0.016072,0,1,2.805,0,-2.805,0
0,0,0,0,0,0,0.00014085,-0.00073293,-2.0307e-37,4.5706e-05,-1.0076e-19,2.5765e-22,2.1826,0.00081643,-0.00073532,1.3639e-35,0.00014324,-46.69,-180.91,-68.359,7.0273,-1.5492e-14,3.9674e-17,125.4,-181.28,-68.359,-46.322,0,0.016076,0,1,2.81,0,-2.81,0
0,0,0,0,0,0,0.00014039,-0.00073134,-2.1349e-37,4.5525e-05,-1.0101e-19,2.7047e-22,2.1765,0.00081454,-0.00073372,1.3708e-35,0.00014276,-46.63,-180.54,-68.228,6.9995,-1.5529e-14,4.1639e-17,125.11,-180.91,-68.228,-46.265,0,0.01608,0,1,2.815,0,-2.815,0
0,0,0,0,0,0,0.00013992,-0.00072974,-2.2391e-37,4.5344e-05,-1.0126e-19,2.8329e-22,2.1704,0.00081265,-0.00073211,1.3776e-35,0.00014228,-46.571,-180.16,-68.097,6.9717,-1.5567e-14,4.3604e-17,124.82,-180.53,-68.097,-46.208,0,0.016084,0,1,2.82,0,-2.82,0
0,0,0,0,0,0,0.00013946,-0.00072815,-2.3433e-37,4.5163e-05,-1.015e-19,2.9612e-22,2.1644,0.00081076,-0.0007305,1.3844e-35,0.00014181,-46.512,-179.79,-67.967,6.9439,-1.5605e-14,4.5569e-17,124.53,-180.15,-67.967,-46.151,0,0.016088,0,1,2.825,0,-2.825,0
0,0,0,0,0,0,0.00013899,-0.00072655,-2.4475e-37,4.4982e-05,-1.0175e-19,3.0894e-22,2.1583,0.00080887,-0.00072889,1.3913e-35,0.00014133,-46.453,-179.41,-67.836,6.9161,-1.5643e-14,4.7534e-17,124.24,-179.77,-67.836,-46.094,0,0.016092,0,1,2.83,0,-2.83,0
0,0,0,0,0,0,0.00013853,-0.00072496,-2.5517e-37,4.4801e-05,-1.02e-19,3.2177e-22,2.1522,0.00080698,-0.00072728,1.3981e-35,0.00014085,-46.394,-179.04,-67.705,6.8883,-1.5681e-14,4.9499e-17,123.95,-179.4,-67.705,-46.037,0,0.016095,0,1,2.835,0,-2.835,0
0,0,0,0,0,0,0.00013806,-0.00072336,-2.6559e-37,4.4621e-05,-1.0224e-19,3.3459e-22,2.1461,0.00080509,-0.00072567,1.4049e-35,0.00014037,-46.335,-178.66,-67.575,6.8605,-1.5718e-14,5.1465e-17,123.67,-179.02,-67.575,-45.98,0,0.016099,0,1,2.84,0,-2.84,0
0,0,0,0,0,0,0.0001376,-0.00072177,-2.7601e-37,4.444e-05,-1.0249e-19,3.4742e-22,2.14,0.0008032,-0.00072406,1.4118e-35,0.00013989,-46.275,-178.29,-67.444,6.8327,-1.5756e-14,5.343e-17,123.38,-178.64,-67.444,-45.923,0,0.016103,0,1,2.845,0,-2.845,0
0,0,0,0,0,0,0.00013714,-0.00072017,-2.8643e-37,4.4259e-05,-1.0274e-19,3.6024e-22,2.134,0.00080131,-0.00072245,1.4186e-35,0.00013942,-46.216,-177.91,-67.314,6.8049,-1.5794e-14,5.5395e-17,123.09,-178.27,-67.314,-45.865,0,0.016107,0,1,2.85,0,-2.85,0
0,0,0,0,0,0,0.00013667,-0.00071858,-2.9685e-37,4.4078e-05,-1.0298e-19,3.7306e-22,2.1279,0.00079942,-0.00072085,1.4254e-35,0.00013894,-46.157,-177.54,-67.183,6.7771,-1.5832e-14,5.736e-17,122.8,-177.89,-67.183,-45.808,0,0.016111,0,1,2.855,0,-2.855,0
0,0,0,0,0,0,0.00013621,-0.00071698,-3.0727e-37,4.3897e-05,-1.0323e-19,3.8589e-22,2.1218,0.00079753,-0.00071924,1.4323e-35,0.00013846,-46.098,-177.16,-67.052,6.7493,-1.587e-14,5.9325e-17,122.51,-177.51,-67.052,-45.751,0,0.016115,0,1,2.86,0,-2.86,0
0,0,0,0,0,0,0.00013577,-0.00071548,-3.1181e-37,4.3729e-05,-9.8789e-20,3.9586e-22,2.116,0.00079575,-0.00071772,3.3548e-35,0.00013801,-46.041,-176.81,-66.928,6.7235,-1.5187e-14,6.0855e-17,122.23,-177.15,-66.928,-45.696,0,0.016119,0,1,2.865,0,-2.865,0
0,0,0,0,0,0,0.00013548,-0.00071437,-2.9033e-37,4.3621e-05,-7.3568e-20,3.9321e-22,2.1117,0.00079447,-0.0007166,1.3772e-34,0.00013772,-45.991,-176.55,-66.834,6.7069,-1.131e-14,6.0457e-17,122.04,-176.89,-66.834,-45.647,0,0.016122,0,1,2.87,0,-2.87,0
0,0,0,0,0,0,0.00013519,-0.00071326,-2.6885e-37,4.3513e-05,-4.8347e-20,3.9056e-22,2.1073,0.00079318,-0.00071549,2.419e-34,0.00013742,-45.942,-176.28,-66.74,6.6903,-7.4331e-15,6.0059e-17,121.84,-176.62,-66.74,-45.599,0,0.016125,0,1,2.875,0,-2.875,0
0,0,0,0,0,0,0.0001349,-0.00071215,-2.4736e-37,4.3405e-05,-2.3125e-20,3.879e-22,2.1029,0.00079189,-0.00071437,3.4608e-34,0.00013712,-45.892,-176.02,-66.645,6.6737,-3.556e-15,5.966e-17,121.64,-176.36,-66.645,-45.551,0,0.016129,0,1,2.88,0,-2.88,0
0,0,0,0,0,0,0.00013461,-0.00071105,-2.2588e-37,4.3298e-05,2.0959e-21,3.8525e-22,2.0986,0.0007906,-0.00071326,4.5025e-34,0.00013682,-45.842,-175.75,-66.551,6.6571,3.2094e-16,5.9262e-17,121.44,-176.09,-66.551,-45.502,0,0.016132,0,1,2.885,0,-2.885,0
0,0,0,0,0,0,0.00013432,-0.00070994,-2.044e-37,4.319e-05,2.7318e-20,3.8259e-22,2.0942,0.00078931,-0.00071214,5.5443e-34,0.00013652,-45.793,-175.49,-66.457,6.6405,4.198e-15,5.8863e-17,121.24,-175.83,-66.457,-45.454,0,0.016135,0,1,2.89,0,-2.89,0
0,0,0,0,0,0,0.00013403,-0.00070883,-1.8291e-37,4.3082e-05,5.2538e-20,3.7994e-22,2.0898,0.00078802,-0.00071103,6.586e-34,0.00013622,-45.743,-175.22,-66.362,6.6239,8.075e-15,5.8465e-17,121.05,-175.56,-66.362,-45.405,0,0.016138,0,1,2.895,0,-2.895,0
0,0,0,0,0,0,0.00013373,-0.00070772,-1.6143e-37,4.2974e-05,7.776e-20,3.7728e-22,2.0855,0.00078673,-0.00070991,7.6278e-34,0.00013592,-45.694,-174.96,-66.268,6.6073,1.1952e-14,5.8066e-17,120.85,-175.3,-66.268,-45.357,0,0.016142,0,1,2.9,0,-2.9,0
0,0,0,0,0,0,0.00013344,-0.00070661,-1.3995e-37,4.2866e-05,1.0298e-19,3.7463e-22,2.0811,0.00078544,-0.0007088,8.6695e-34,0.00013563,-45.644,-174.69,-66.173,6.5907,1.5829e-14,5.7668e-17,120.65,-175.03,-66.173,-45.308,0,0.016145,0,1,2.905,0,-2.905,0
0,0,0,0,0,0,0.00013315,-0.0007055,-1.1846e-37,4.2758e-05,1.282e-19,3.7198e-22,2.0767,0.00078415,-0.00070768,9.7113e-34,0.00013533,-45.595,-174.43,-66.079,6.5741,1.9706e-14,5.7269e-17,120.45,-174.77,-66.079,-45.26,0,0.016148,0,1,2.91,0,-2.91,0
0,0,0,0,0,0,0.00013286,-0.0007044,-9.6979e-38,4.265e-05,1.5342e-19,3.6932e-22,2.0724,0.00078287,-0.00070656,1.0753e-33,0.00013503,-45.545,-174.17,-65.985,6.5575,2.3583e-14,5.6871e-17,120.26,-174.5,-65.985,-45.211,0,0.016151,0,1,2.915,0,-2.915,0
0,0,0,0,0,0,0.00013257,-0.00070329,-7.5495e-38,4.2542e-05,1.7865e-19,3.6667e-22,2.068,0.00078158,-0.00070545,1.1795e-33,0.00013473,-45.496,-173.9,-65.89,6.5409,2.746e-14,5.6472e-17,120.06,-174.23,-65.89,-45.163,0,0.016154,0,1,2.92,0,-2.92,0
0,0,0,0,0,0,0.00013228,-0.00070218,-5.4012e-38,4.2434e-05,2.0387e-19,3.6401e-22,2.0636,0.00078029,-0.00070433,1.2837e-33,0.00013443,-45.446,-173.64,-65.796,6.5243,3.1337e-14,5.6074e-17,119.86,-173.97,-65.796,-45.114,0,0.016158,0,1,2.925,0,-2.925,0
0,0,0,0,0,0,0.00013199,-0.00070107,-3.2528e-38,4.2326e-05,2.2909e-19,3.6136e-22,2.0593,0.000779,-0.00070322,1.3878e-33,0.00013413,-45.396,-173.37,-65.702,6.5077,3.5214e-14,5.5675e-17,119.66,-173.7,-65.702,-45.066,0,0.016161,0,1,2.93,0,-2.93,0
0,0,0,0,0,0,0.0001317,-0.00069996,-1.1045e-38,4.2218e-05,2.5431e-19,3.587e-22,2.0549,0.00077771,-0.0007021,1.492e-33,0.00013384,-45.347,-173.11,-65.607,6.4911,3.9091e-14,5.5277e-17,119.46,-173.44,-65.607,-45.018,0,0.016164,0,1,2.935,0,-2.935,0
0,0,0,0,0,0,0.0001314,-0.00069885,1.0439e-38,4.211e-05,2.7953e-19,3.5605e-22,2.0505,0.00077642,-0.00070099,1.5962e-33,0.00013354,-45.297,-172.84,-65.513,6.4745,4.2968e-14,5.4878e-17,119.27,-173.17,-65.513,-44.969,0,0.016167,0,1,2.94,0,-2.94,0
0,0,0,0,0,0,0.00013111,-0.00069775,3.1922e-38,4.2002e-05,3.0475e-19,3.5339e-22,2.0462,0.00077513,-0.00069987,1.7004e-33,0.00013324,-45.248,-172.58,-65.418,6.4579,4.6845e-14,5.448e-17,119.07,-172.91,-65.418,-44.921,0,0.016171,0,1,2.945,0,-2.945,0
0,0,0,0,0,0,0.00013082,-0.00069664,5.3406e-38,4.1894e-05,3.2997e-19,3.5074e-22,2.0418,0.00077384,-0.00069876,1.8045e-33,0.00013294,-45.198,-172.32,-65.324,6.4413,5.0722e-14,5.4082e-17,118.87,-172.64,-65.324,-44.872,0,0.016174,0,1,2.95,0,-2.95,0
0,0,0,0,0,0,0.00013053,-0.00069553,7.4889e-38,4.1786e-05,3.5519e-19,3.4809e-22,2.0374,0.00077255,-0.00069764,1.9087e-33,0.00013264,-45.149,-172.05,-65.23,6.4247,5.4599e-14,5.3683e-17,118.67,-172.38,-65.23,-44.824,0,0.016177,0,1,2.955,0,-2.955,0
0,0,0,0,0,0,0.00013024,-0.00069442,9.6373e-38,4.1678e-05,3.8042e-19,3.4543e-22,2.0331,0.00077127,-0.00069653,2.0129e-33,0.00013234,-45.099,-171.79,-65.135,6.4081,5.8476e-14,5.3285e-17,118.48,-172.11,-65.135,-44.775,0,0.01618,0,1,2.96,0,-2.96,0
0,0,0,0,0,0,0.00012995,-0.00069331,1.1786e-37,4.157e-05,4.0564e-19,3.4278e-22,2.0287,0.00076998,-0.00069541,2.1171e-33,0.00013204,-45.05,-171.52,-65.041,6.3915,6.2353e-14,5.2886e-17,118.28,-171.85,-65.041,-44.727,0,0.016184,0,1,2.965,0,-2.965,0
0,0,0,0,0,0,0.00012966,-0.0006922,1.3934e-37,4.1462e-05,4.3086e-19,3.4012e-22,2.0243,0.00076869,-0.00069429,2.2212e-33,0.00013175,-45,-171.26,-64.947,6.3749,6.623e-14,5.2488e-17,118.08,-171.58,-64.947,-44.678,0,0.016187,0,1,2.97,0,-2.97,0
0,0,0,0,0,0,0.00012936,-0.0006911,1.6082e-37,4.1354e-05,4.5608e-19,3.3747e-22,2.02,0.0007674,-0.00069318,2.3254e-33,0.00013145,-44.95,-170.99,-64.852,6.3583,7.0107e-14,5.2089e-17,117.88,-171.31,-64.852,-44.63,0,0.01619,0,1,2.975,0,-2.975,0
0,0,0,0,0,0,0.00012907,-0.00068999,1.8231e-37,4.1246e-05,4.813e-19,3.3481e-22,2.0156,0.00076611,-0.00069206,2.4296e-33,0.00013115,-44.901,-170.73,-64.758,6.3418,7.3984e-14,5.1691e-17,117.68,-171.05,-64.758,-44.581,0,0.016193,0,1,2.98,0,-2.98,0
0,0,0,0,0,0,0.00012878,-0.00068888,2.0379e-37,4.1138e-05,5.0652e-19,3.3216e-22,2.0112,0.00076482,-0.00069095,2.5338e-33,0.00013085,-44.851,-170.47,-64.663,6.3252,7.7861e-14,5.1292e-17,117.49,-170.78,-64.663,-44.533,0,0.016197,0,1,2.985,0,-2.985,0
0,0,0,0,0,0,0.00012849,-0.00068777,2.2527e-37,4.103e-05,5.3174e-19,3.2951e-22,2.0069,0.00076353,-0.00068983,2.6379e-33,0.00013055,-44.802,-170.2,-64.569,6.3086,8.1738e-14,5.0894e-17,117.29,-170.52,-64.569,-44.485,0,0.0162,0,1,2.99,0,-2.99,0
0,0,0,0,0,0,0.0001282,-0.00068666,2.4676e-37,4.0922e-05,5.5696e-19,3.2685e-22,2.0025,0.00076224,-0.00068872,2.7421e-33,0.00013025,-44.752,-169.94,-64.475,6.292,8.5615e-14,5.0495e-17,117.09,-170.25,-64.475,-44.436,0,0.016203,0,1,2.995,0,-2.995,0
0,0,0,0,0,0,0.00012791,-0.00068555,2.6824e-37,4.0814e-05,5.8218e-19,3.242e-22,1.9981,0.00076096,-0.0006876,2.8463e-33,0.00012996,-44.703,-169.67,-64.38,6.2754,8.9492e-14,5.0097e-17,116.89,-169.99,-64.38,-44.388,0,0.016206,0,1,3,0,-3,0
0,0,0,0,0,0,0.00012762,-0.00068445,2.8973e-37,4.0706e-05,6.0741e-19,3.2154e-22,1.9938,0.00075967,-0.00068649,2.9505e-33,0.00012966,-44.653,-169.41,-64.286,6.2588,9.3369e-14,4.9698e-17,116.7,-169.72,-64.286,-44.339,0,0.01621,0,1,3.005,0,-3.005,0
0,0,0,0,0,0,0.00012733,-0.00068334,3.1121e-37,4.0598e-05,6.3263e-19,3.1889e-22,1.9894,0.00075838,-0.00068537,3.0546e-33,0.00012936,-44.603,-169.14,-64.192,6.2422,9.7246e-14,4.93e-17,116.5,-169.46,-64.192,-44.291,0,0.016213,0,1,3.01,0,-3.01,0
0,0,0,0,0,0,0.00012703,-0.00068223,3.3269e-37,4.049e-05,6.5785e-19,3.1623e-22,1.985,0.00075709,-0.00068425,3.1588e-33,0.00012906,-44.554,-168.88,-64.097,6.2256,1.0112e-13,4.8901e-17,116.3,-169.19,-64.097,-44.242,0,0.016216,0,1,3.015,0,-3.015,0
0,0,0,0,0,0,0.00012674,-0.00068112,3.5418e-37,4.0382e-05,6.8307e-19,3.1358e-22,1.9807,0.0007558,-0.00068314,3.263e-33,0.00012876,-44.504,-168.61,-64.003,6.209,1.05e-13,4.8503e-17,116.1,-168.93,-64.003,-44.194,0,0.016219,0,1,3.02,0,-3.02,0
0,0,0,0,0,0,0.00012645,-0.00068001,3.7566e-37,4.0274e-05,7.0829e-19,3.1092e-22,1.9763,0.00075451,-0.00068202,3.3672e-33,0.00012846,-44.455,-168.35,-63.908,6.1924,1.0888e-13,4.8104e-17,115.91,-168.66,-63.908,-44.145,0,0.016223,0,1,3.025,0,-3.025,0
0,0,0,0,0,0,0.00012616,-0.0006789,3.9714e-37,4.0166e-05,7.3351e-19,3.0827e-22,1.9719,0.00075322,-0.00068091,3.4713e-33,0.00012816,-44.405,-168.09,-63.814,6.1758,1.1275e-13,4.7706e-17,115.71,-168.39,-63.814,-44.097,0,0.016226,0,1,3.03,0,-3.03,0
0,0,0,0,0,0,0.00012587,-0.0006778,4.1863e-37,4.0058e-05,7.5873e-19,3.0562e-22,1.9676,0.00075193,-0.00067979,3.5755e-33,0.00012787,-44.356,-167.82,-63.72,6.1592,1.1663e-13,4.7308e-17,115.51,-168.13,-63.72,-44.048,0,0.016229,0,1,3.035,0,-3.035,0
0,0,0,0,0,0,0.00012558,-0.00067669,4.4011e-37,3.995e-05,7.8395e-19,3.0296e-22,1.9632,0.00075064,-0.00067868,3.6797e-33,0.00012757,-44.306,-167.56,-63.625,6.1426,1.2051e-13,4.6909e-17,115.31,-167.86,-63.625,-44,0,0.016232,0,1,3.04,0,-3.04,0
0,0,0,0,0,0,0.00012529,-0.00067558,4.6159e-37,3.9842e-05,8.0918e-19,3.0031e-22,1.9588,0.00074936,-0.00067756,3.7839e-33,0.00012727,-44.257,-167.29,-63.531,6.126,1.2439e-13,4.6511e-17,115.11,-167.6,-63.531,-43.952,0,0.016236,0,1,3.045,0,-3.045,0
0,0,0,0,0,0,0.000125,-0.00067447,4.8308e-37,3.9734e-05,8.344e-19,2.9765e-22,1.9545,0.00074807,-0.00067645,3.888e-33,0.00012697,-44.207,-167.03,-63.437,6.1094,1.2826e-13,4.6112e-17,114.92,-167.33,-63.437,-43.903,0,0.016239,0,1,3.05,0,-3.05,0
0,0,0,0,0,0,0.0001247,-0.00067336,5.0456e-37,3.9626e-05,8.5962e-19,2.95e-22,1.9501,0.00074678,-0.00067533,3.9922e-33,0.00012667,-44.157,-166.76,-63.342,6.0928,1.3214e-13,4.5714e-17,114.72,-167.07,-63.342,-43.855,0,0.016242,0,1,3.055,0,-3.055,0
0,0,0,0,0,0,0.00012441,-0.00067225,5.2604e-37,3.9518e-05,8.8484e-19,2.9234e-22,1.9457,0.00074549,-0.00067422,4.0964e-33,0.00012637,-44.108,-166.5,-63.248,6.0762,1.3602e-13,4.5315e-17,114.52,-166.8,-63.248,-43.806,0,0.016245,0,1,3.06,0,-3.06,0
0,0,0,0,0,0,0.00012412,-0.00067115,5.4753e-37,3.941e-05,9.1006e-19,2.8969e-22,1.9414,0.0007442,-0.0006731,4.2006e-33,0.00012608,-44.058,-166.24,-63.153,6.0596,1.3989e-13,4.4917e-17,114.32,-166.54,-63.153,-43.758,0,0.016249,0,1,3.065,0,-3.065,0
0,0,0,0,0,0,0.00012383,-0.00067004,5.6901e-37,3.9302e-05,9.3528e-19,2.8704e-22,1.937,0.00074291,-0.00067198,4.3047e-33,0.00012578,-44.009,-165.97,-63.059,6.043,1.4377e-13,4.4518e-17,114.13,-166.27,-63.059,-43.709,0,0.016252,0,1,3.07,0,-3.07,0
0,0,0,0,0,0,0.00012354,-0.00066893,5.905e-37,3.9194e-05,9.605e-19,2.8438e-22,1.9326,0.00074162,-0.00067087,4.4089e-33,0.00012548,-43.959,-165.71,-62.965,6.0264,1.4765e-13,4.412e-17,113.93,-166.01,-62.965,-43.661,0,0.016255,0,1,3.075,0,-3.075,0
0,0,0,0,0,0,0.00012325,-0.00066782,6.1198e-37,3.9086e-05,9.8572e-19,2.8173e-22,1.9283,0.00074033,-0.00066975,4.5131e-33,0.00012518,-43.91,-165.44,-62.87,6.0098,1.5152e-13,4.3721e-17,113.73,-165.74,-62.87,-43.612,0,0.016258,0,1,3.08,0,-3.08,0
0,0,0,0,0,0,0.00012296,-0.00066671,6.3346e-37,3.8978e-05,1.0109e-18,2.7907e-22,1.9239,0.00073904,-0.00066864,4.6173e-33,0.00012488,-43.86,-165.18,-62.776,5.9932,1.554e-13,4.3323e-17,113.53,-165.47,-62.776,-43.564,0,0.016262,0,1,3.085,0,-3.085,0
0,0,0,0,0,0,0.00012267,-0.00066561,6.5495e-37,3.887e-05,1.0362e-18,2.7642e-22,1.9195,0.00073776,-0.00066752,4.7214e-33,0.00012458,-43.811,-164.91,-62.682,5.9766,1.5928e-13,4.2924e-17,113.33,-165.21,-62.682,-43.515,0,0.016265,0,1,3.09,0,-3.09,0
0,0,0,0,0,0,0.00012237,-0.0006645,6.7643e-37,3.8762e-05,1.0614e-18,2.7376e-22,1.9152,0.00073647,-0.00066641,4.8256e-33,0.00012428,-43.761,-164.65,-62.587,5.96,1.6316e-13,4.2526e-17,113.14,-164.94,-62.587,-43.467,0,0.016268,0,1,3.095,0,-3.095,0
0,0,0,0,0,0,0.00012208,-0.00066339,6.9791e-37,3.8654e-05,1.0866e-18,2.7111e-22,1.9108,0.00073518,-0.00066529,4.9298e-33,0.00012399,-43.711,-164.39,-62.493,5.9434,1.6703e-13,4.2127e-17,112.94,-164.68,-62.493,-43.419,0,0.016271,0,1,3.1,0,-3.1,0
0,0,0,0,0,0,0.00012179,-0.00066228,7.194e-37,3.8547e-05,1.1118e-18,2.6846e-22,1.9064,0.00073389,-0.00066418,5.034e-33,0.00012369,-43.662,-164.12,-62.398,5.9268,1.7091e-13,4.1729e-17,112.74,-164.41,-62.398,-43.37,0,0.016274,0,1,3.105,0,-3.105,0
0,0,0,0,0,0,0.0001215,-0.00066117,7.4088e-37,3.8439e-05,1.1371e-18,2.658e-22,1.9021,0.0007326,-0.00066306,5.1382e-33,0.00012339,-43.612,-163.86,-62.304,5.9102,1.7479e-13,4.1331e-17,112.54,-164.15,-62.304,-43.322,0,0.016278,0,1,3.11,0,-3.11,0
0,0,0,0,0,0,0.00012121,-0.00066006,7.6236e-37,3.8331e-05,1.1623e-18,2.6315e-22,1.8977,0.00073131,-0.00066195,5.2423e-33,0.00012309,-43.563,-163.59,-62.21,5.8936,1.7866e-13,4.0932e-17,112.35,-163.88,-62.21,-43.273,0,0.016281,0,1,3.115,0,-3.115,0
0,0,0,0,0,0,0.00012092,-0.00065896,7.8385e-37,3.8223e-05,1.1875e-18,2.6049e-22,1.8933,0.00073002,-0.00066083,5.3465e-33,0.00012279,-43.513,-163.33,-62.115,5.877,1.8254e-13,4.0534e-17,112.15,-163.62,-62.115,-43.225,0,0.016284,0,1,3.12,0,-3.12,0
0,0,0,0,0,0,0.00012063,-0.00065785,8.0533e-37,3.8115e-05,1.2127e-18,2.5784e-22,1.889,0.00072873,-0.00065971,5.4507e-33,0.00012249,-43.464,-163.06,-62.021,5.8604,1.8642e-13,4.0135e-17,111.95,-163.35,-62.021,-43.176,0,0.016287,0,1,3.125,0,-3.125,0
0,0,0,0,0,0,0.00012033,-0.00065674,8.2681e-37,3.8007e-05,1.2379e-18,2.5518e-22,1.8846,0.00072745,-0.0006586,5.5549e-33,0.0001222,-43.414,-162.8,-61.927,5.8438,1.9029e-13,3.9737e-17,111.75,-163.09,-61.927,-43.128,0,0.016291,0,1,3.13,0,-3.13,0
0,0,0,0,0,0,0.00012004,-0.00065563,8.483e-37,3.7899e-05,1.2632e-18,2.5253e-22,1.8802,0.00072616,-0.00065748,5.659e-33,0.0001219,-43.364,-162.54,-61.832,5.8272,1.9417e-13,3.9338e-17,111.55,-162.82,-61.832,-43.079,0,0.016294,0,1,3.135,0,-3.135,0
0,0,0,0,0,0,0.00011975,-0.00065452,8.6978e-37,3.7791e-05,1.2884e-18,2.4987e-22,1.8759,0.00072487,-0.00065637,5.7632e-33,0.0001216,-43.315,-162.27,-61.738,5.8106,1.9805e-13,3.894e-17,111.36,-162.55,-61.738,-43.031,0,0.016297,0,1,3.14,0,-3.14,0
0,0,0,0,0,0,0.00011946,-0.00065341,8.9126e-37,3.7683e-05,1.3136e-18,2.4722e-22,1.8715,0.00072358,-0.00065525,5.8674e-33,0.0001213,-43.265,-162.01,-61.643,5.794,2.0193e-13,3.8541e-17,111.16,-162.29,-61.643,-42.982,0,0.0163,0,1,3.145,0,-3.145,0
0,0,0,0,0,0,0.00011917,-0.00065231,9.1275e-37,3.7575e-05,1.3388e-18,2.4457e-22,1.8671,0.00072229,-0.00065414,5.9716e-33,0.000121,-43.216,-161.74,-61.549,5.7774,2.058e-13,3.8143e-17,110.96,-162.02,-61.549,-42.934,0,0.016304,0,1,3.15,0,-3.15,0
0,0,0,0,0,0,0.00011888,-0.0006512,9.3423e-37,3.7467e-05,1.364e-18,2.4191e-22,1.8628,0.000721,-0.00065302,6.0757e-33,0.0001207,-43.166,-161.48,-61.455,5.7608,2.0968e-13,3.7744e-17,110.76,-161.76,-61.455,-42.886,0,0.016307,0,1,3.155,0,-3.155,0
0,0,0,0,0,0,0.00011859,-0.00065009,9.5572e-37,3.7359e-05,1.3893e-18,2.3926e-22,1.8584,0.00071971,-0.00065191,6.1799e-33,0.0001204,-43.117,-161.21,-61.36,5.7442,2.1356e-13,3.7346e-17,110.57,-161.49,-61.36,-42.837,0,0.01631,0,1,3.16,0,-3.16,0
0,0,0,0,0,0,0.0001183,-0.00064898,9.772e-37,3.7251e-05,1.4145e-18,2.366e-22,1.854,0.00071842,-0.00065079,6.2841e-33,0.00012011,-43.067,-160.95,-61.266,5.7276,2.1743e-13,3.6947e-17,110.37,-161.23,-61.266,-42.789,0,0.016313,0,1,3.165,0,-3.165,0
0,0,0,0,0,0,0.000118,-0.00064787,9.9868e-37,3.7143e-05,1.4397e-18,2.3395e-22,1.8497,0.00071713,-0.00064967,6.3883e-33,0.00011981,-43.018,-160.68,-61.172,5.711,2.2131e-13,3.6549e-17,110.17,-160.96,-61.172,-42.74,0,0.016317,0,1,3.17,0,-3.17,0
0,0,0,0,0,0,0.00011771,-0.00064676,1.0202e-36,3.7035e-05,1.4649e-18,2.3129e-22,1.8453,0.00071585,-0.00064856,6.4924e-33,0.00011951,-42.968,-160.42,-61.077,5.6944,2.2519e-13,3.615e-17,109.97,-160.7,-61.077,-42.692,0,0.01632,0,1,3.175,0,-3.175,0
0,0,0,0,0,0,0.00011742,-0.00064566,1.0417e-36,3.6927e-05,1.4902e-18,2.2864e-22,1.8409,0.00071456,-0.00064744,6.5966e-33,0.00011921,-42.918,-160.16,-60.983,5.6778,2.2906e-13,3.5752e-17,109.77,-160.43,-60.983,-42.643,0,0.016323,0,1,3.18,0,-3.18,0
0,0,0,0,0,0,0.00011713,-0.00064455,1.0631e-36,3.6819e-05,1.5154e-18,2.2599e-22,1.8366,0.00071327,-0.00064633,6.7008e-33,0.00011891,-42.869,-159.89,-60.888,5.6612,2.3294e-13,3.5353e-17,109.58,-160.17,-60.888,-42.595,0,0.016326,0,1,3.185,0,-3.185,0
0,0,0,0,0,0,0.00011684,-0.00064344,1.0846e-36,3.6711e-05,1.5406e-18,2.2333e-22,1.8322,0.00071198,-0.00064521,6.805e-33,0.00011861,-42.819,-159.63,-60.794,5.6446,2.3682e-13,3.4955e-17,109.38,-159.9,-60.794,-42.546,0,0.01633,0,1,3.19,0,-3.19,0
0,0,0,0,0,0,0.00011655,-0.00064233,1.1061e-36,3.6603e-05,1.5658e-18,2.2068e-22,1.8278,0.00071069,-0.0006441,6.9091e-33,0.00011832,-42.77,-159.36,-60.7,5.628,2.407e-13,3.4557e-17,109.18,-159.63,-60.7,-42.498,0,0.016333,0,1,3.195,0,-3.195,0
0,0,0,0,0,0,0.00011626,-0.00064122,1.1276e-36,3.6495e-05,1.591e-18,2.1802e-22,1.8235,0.0007094,-0.00064298,7.0133e-33,0.00011802,-42.72,-159.1,-60.605,5.6114,2.4457e-13,3.4158e-17,108.98,-159.37,-60.605,-42.449,0,0.016336,0,1,3.2,0,-3.2,0
0,0,0,0,0,0,0.00011597,-0.00064011,1.1491e-36,3.6387e-05,1.6163e-18,2.1537e-22,1.8191,0.00070811,-0.00064187,7.1175e-33,0.00011772,-42.671,-158.83,-60.511,5.5948,2.4845e-13,3.376e-17,108.79,-159.1,-60.511,-42.401,0,0.016339,0,1,3.205,0,-3.205,0
0,0,0,0,0,0,0.00011567,-0.00063901,1.1706e-36,3.6279e-05,1.6415e-18,2.1271e-22,1.8147,0.00070682,-0.00064075,7.2217e-33,0.00011742,-42.621,-158.57,-60.417,5.5782,2.5233e-13,3.3361e-17,108.59,-158.84,-60.417,-42.353,0,0.016343,0,1,3.21,0,-3.21,0
0,0,0,0,0,0,0.00011538,-0.0006379,1.192e-36,3.6171e-05,1.6667e-18,2.1006e-22,1.8104,0.00070553,-0.00063964,7.3258e-33,0.00011712,-42.572,-158.31,-60.322,5.5616,2.562e-13,3.2963e-17,108.39,-158.57,-60.322,-42.304,0,0.016346,0,1,3.215,0,-3.215,0
0,0,0,0,0,0,0.00011509,-0.00063679,1.2135e-36,3.6063e-05,1.6919e-18,2.074e-22,1.806,0.00070425,-0.00063852,7.43e-33,0.00011682,-42.522,-158.04,-60.228,5.545,2.6008e-13,3.2564e-17,108.19,-158.31,-60.228,-42.256,0,0.016349,0,1,3.22,0,-3.22,0
0,0,0,0,0,0,0.0001148,-0.00063568,1.235e-36,3.5955e-05,1.7171e-18,2.0475e-22,1.8016,0.00070296,-0.0006374,7.5342e-33,0.00011652,-42.472,-157.78,-60.133,5.5284,2.6396e-13,3.2166e-17,108,-158.04,-60.133,-42.207,0,0.016352,0,1,3.225,0,-3.225,0
0,0,0,0,0,0,0.00011451,-0.00063457,1.2565e-36,3.5847e-05,1.7424e-18,2.021e-22,1.7973,0.00070167,-0.00063629,7.6384e-33,0.00011623,-42.423,-157.51,-60.039,5.5118,2.6783e-13,3.1767e-17,107.8,-157.78,-60.039,-42.159,0,0.016356,0,1,3.23,0,-3.23,0
0,0,0,0,0,0,0.00011422,-0.00063346,1.278e-36,3.5739e-05,1.7676e-18,1.9944e-22,1.7929,0.00070038,-0.00063517,7.7425e-33,0.00011593,-42.373,-157.25,-59.945,5.4952,2.7171e-13,3.1369e-17,107.6,-157.51,-59.945,-42.11,0,0.016359,0,1,3.235,0,-3.235,0
0,0,0,0,0,0,0.00011393,-0.00063236,1.2995e-36,3.5631e-05,1.7928e-18,1.9679e-22,1.7885,0.00069909,-0.00063406,7.8467e-33,0.00011563,-42.324,-156.98,-59.85,5.4786,2.7559e-13,3.097e-17,107.4,-157.25,-59.85,-42.062,0,0.016362,0,1,3.24,0,-3.24,0
0,0,0,0,0,0,0.00011364,-0.00063125,1.3209e-36,3.5523e-05,1.818e-18,1.9413e-22,1.7841,0.0006978,-0.00063294,7.9509e-33,0.00011533,-42.274,-156.72,-59.756,5.462,2.7947e-13,3.0572e-17,107.2,-156.98,-59.756,-42.013,0,0.016365,0,1,3.245,0,-3.245,0
0,0,0,0,0,0,0.00011334,-0.00063014,1.3424e-36,3.5415e-05,1.8432e-18,1.9148e-22,1.7798,0.00069651,-0.00063183,8.0551e-33,0.00011503,-42.225,-156.46,-59.662,5.4454,2.8334e-13,3.0173e-17,107.01,-156.72,-59.662,-41.965,0,0.016369,0,1,3.25,0,-3.25,0
0,0,0,0,0,0,0.00011305,-0.00062903,1.3639e-36,3.5307e-05,1.8685e-18,1.8882e-22,1.7754,0.00069522,-0.00063071,8.1592e-33,0.00011473,-42.175,-156.19,-59.567,5.4288,2.8722e-13,2.9775e-17,106.81,-156.45,-59.567,-41.916,0,0.016372,0,1,3.255,0,-3.255,0
0,0,0,0,0,0,0.00011276,-0.00062792,1.3854e-36,3.5199e-05,1.8937e-18,1.8617e-22,1.771,0.00069394,-0.0006296,8.2634e-33,0.00011443,-42.126,-155.93,-59.473,5.4122,2.911e-13,2.9376e-17,106.61,-156.18,-59.473,-41.868,0,0.016375,0,1,3.26,0,-3.26,0
0,0,0,0,0,0,0.00011247,-0.00062681,1.4069e-36,3.5091e-05,1.9189e-18,1.8352e-22,1.7667,0.00069265,-0.00062848,8.3676e-33,0.00011414,-42.076,-155.66,-59.378,5.3956,2.9497e-13,2.8978e-17,106.41,-155.92,-59.378,-41.82,0,0.016378,0,1,3.265,0,-3.265,0
0,0,0,0,0,0,0.00011218,-0.00062571,1.4284e-36,3.4983e-05,1.9441e-18,1.8086e-22,1.7623,0.00069136,-0.00062737,8.4718e-33,0.00011384,-42.026,-155.4,-59.284,5.379,2.9885e-13,2.858e-17,106.22,-155.65,-59.284,-41.771,0,0.016382,0,1,3.27,0,-3.27,0
0,0,0,0,0,0,0.00011189,-0.0006246,1.4498e-36,3.4875e-05,1.9694e-18,1.7821e-22,1.7579,0.00069007,-0.00062625,8.576e-33,0.00011354,-41.977,-155.13,-59.19,5.3624,3.0273e-13,2.8181e-17,106.02,-155.39,-59.19,-41.723,0,0.016385,0,1,3.275,0,-3.275,0
0,0,0,0,0,0,0.0001116,-0.00062349,1.4713e-36,3.4767e-05,1.9946e-18,1.7555e-22,1.7536,0.00068878,-0.00062513,8.6801e-33,0.00011324,-41.927,-154.87,-59.095,5.3458,3.066e-13,2.7783e-17,105.82,-155.12,-59.095,-41.674,0,0.016388,0,1,3.28,0,-3.28,0
0,0,0,0,0,0,0.0001113,-0.00062238,1.4928e-36,3.4659e-05,2.0198e-18,1.729e-22,1.7492,0.00068749,-0.00062402,8.7843e-33,0.00011294,-41.878,-154.6,-59.001,5.3292,3.1048e-13,2.7384e-17,105.62,-154.86,-59.001,-41.626,0,0.016391,0,1,3.285,0,-3.285,0
0,0,0,0,0,0,0.00011101,-0.00062127,1.5143e-36,3.4551e-05,2.045e-18,1.7024e-22,1.7448,0.0006862,-0.0006229,8.8885e-33,0.00011264,-41.828,-154.34,-58.907,5.3126,3.1436e-13,2.6986e-17,105.42,-154.59,-58.907,-41.577,0,0.016394,0,1,3.29,0,-3.29,0
0,0,0,0,0,0,0.00011072,-0.00062016,1.5358e-36,3.4443e-05,2.0702e-18,1.6759e-22,1.7405,0.00068491,-0.00062179,8.9927e-33,0.00011235,-41.779,-154.08,-58.812,5.296,3.1824e-13,2.6587e-17,105.23,-154.33,-58.812,-41.529,0,0.016398,0,1,3.295,0,-3.295,0
0,0,0,0,0,0,0.00011043,-0.00061906,1.5573e-36,3.4335e-05,2.0955e-18,1.6494e-22,1.7361,0.00068362,-0.00062067,9.0968e-33,0.00011205,-41.729,-153.81,-58.718,5.2794,3.2211e-13,2.6189e-17,105.03,-154.06,-58.718,-41.48,0,0.016401,0,1,3.3,0,-3.3,0
0,0,0,0,0,0,0.00011014,-0.00061795,1.5787e-36,3.4227e-05,2.1207e-18,1.6228e-22,1.7317,0.00068234,-0.00061956,9.201e-33,0.00011175,-41.679,-153.55,-58.623,5.2628,3.2599e-13,2.579e-17,104.83,-153.8,-58.623,-41.432,0,0.016404,0,1,3.305,0,-3.305,0
0,0,0,0,0,0,0.00010985,-0.00061684,1.6002e-36,3.4119e-05,2.1459e-18,1.5963e-22,1.7274,0.00068105,-0.00061844,9.3052e-33,0.00011145,-41.63,-153.28,-58.529,5.2462,3.2987e-13,2.5392e-17,104.63,-153.53,-58.529,-41.383,0,0.016407,0,1,3.31,0,-3.31,0
0,0,0,0,0,0,0.00010956,-0.00061573,1.6217e-36,3.4011e-05,2.1711e-18,1.5697e-22,1.723,0.00067976,-0.00061733,9.4094e-33,0.00011115,-41.58,-153.02,-58.435,5.2297,3.3374e-13,2.4993e-17,104.44,-153.26,-58.435,-41.335,0,0.016411,0,1,3.315,0,-3.315,0
0,0,0,0,0,0,0.00010927,-0.00061462,1.6432e-36,3.3903e-05,2.1963e-18,1.5432e-22,1.7186,0.00067847,-0.00061621,9.5135e-33,0.00011085,-41.531,-152.75,-58.34,5.2131,3.3762e-13,2.4595e-17,104.24,-153,-58.34,-41.287,0,0.016414,0,1,3.32,0,-3.32,0
0,0,0,0,0,0,0.00010897,-0.00061351,1.6647e-36,3.3795e-05,2.2216e-18,1.5166e-22,1.7143,0.00067718,-0.00061509,9.6177e-33,0.00011055,-41.481,-152.49,-58.246,5.1965,3.415e-13,2.4196e-17,104.04,-152.73,-58.246,-41.238,0,0.016417,0,1,3.325,0,-3.325,0
0,0,0,0,0,0,0.00010868,-0.00061241,1.6862e-36,3.3688e-05,2.2468e-18,1.4901e-22,1.7099,0.00067589,-0.00061398,9.7219e-33,0.00011026,-41.432,-152.23,-58.152,5.1799,3.4537e-13,2.3798e-17,103.84,-152.47,-58.152,-41.19,0,0.01642,0,1,3.33,0,-3.33,0
0,0,0,0,0,0,0.00010839,-0.0006113,1.7076e-36,3.358e-05,2.272e-18,1.4635e-22,1.7055,0.0006746,-0.00061286,9.8261e-33,0.00010996,-41.382,-151.96,-58.057,5.1633,3.4925e-13,2.3399e-17,103.64,-152.2,-58.057,-41.141,0,0.016424,0,1,3.335,0,-3.335,0
0,0,0,0,0,0,0.0001081,-0.00061019,1.7291e-36,3.3472e-05,2.2972e-18,1.437e-22,1.7012,0.00067331,-0.00061175,9.9302e-33,0.00010966,-41.333,-151.7,-57.963,5.1467,3.5313e-13,2.3001e-17,103.45,-151.94,-57.963,-41.093,0,0.016427,0,1,3.34,0,-3.34,0
0,0,0,0,0,0,0.00010781,-0.00060908,1.7506e-36,3.3364e-05,2.3225e-18,1.4105e-22,1.6968,0.00067202,-0.00061063,1.0034e-32,0.00010936,-41.283,-151.43,-57.868,5.1301,3.5701e-13,2.2602e-17,103.25,-151.67,-57.868,-41.044,0,0.01643,0,1,3.345,0,-3.345,0
0,0,0,0,0,0,0.00010752,-0.00060797,1.7721e-36,3.3256e-05,2.3477e-18,1.3839e-22,1.6924,0.00067074,-0.00060952,1.0139e-32,0.00010906,-41.233,-151.17,-57.774,5.1135,3.6088e-13,2.2204e-17,103.05,-151.41,-57.774,-40.996,0,0.016433,0,1,3.35,0,-3.35,0
0,0,0,0,0,0,0.00010723,-0.00060686,1.7936e-36,3.3148e-05,2.3729e-18,1.3574e-22,1.6881,0.00066945,-0.0006084,1.0243e-32,0.00010876,-41.184,-150.9,-57.68,5.0969,3.6476e-13,2.1806e-17,102.85,-151.14,-57.68,-40.947,0,0.016437,0,1,3.355,0,-3.355,0
0,0,0,0,0,0,0.00010694,-0.00060576,1.8151e-36,3.304e-05,2.3981e-18,1.3308e-22,1.6837,0.00066816,-0.00060729,1.0347e-32,0.00010847,-41.134,-150.64,-57.585,5.0803,3.6864e-13,2.1407e-17,102.66,-150.88,-57.585,-40.899,0,0.01644,0,1,3.36,0,-3.36,0
0,0,0,0,0,0,0.00010664,-0.00060465,1.8365e-36,3.2932e-05,2.4233e-18,1.3043e-22,1.6793,0.00066687,-0.00060617,1.0451e-32,0.00010817,-41.085,-150.38,-57.491,5.0637,3.7251e-13,2.1009e-17,102.46,-150.61,-57.491,-40.85,0,0.016443,0,1,3.365,0,-3.365,0
0,0,0,0,0,0,0.00010635,-0.00060354,1.858e-36,3.2824e-05,2.4486e-18,1.2777e-22,1.675,0.00066558,-0.00060506,1.0555e-32,0.00010787,-41.035,-150.11,-57.397,5.0471,3.7639e-13,2.061e-17,102.26,-150.34,-57.397,-40.802,0,0.016446,0,1,3.37,0,-3.37,0
0,0,0,0,0,0,0.00010606,-0.00060243,1.8795e-36,3.2716e-05,2.4738e-18,1.2512e-22,1.6706,0.00066429,-0.00060394,1.0659e-32,0.00010757,-40.986,-149.85,-57.302,5.0305,3.8027e-13,2.0212e-17,102.06,-150.08,-57.302,-40.754,0,0.01645,0,1,3.375,0,-3.375,0
0,0,0,0,0,0,0.00010577,-0.00060132,1.901e-36,3.2608e-05,2.499e-18,1.2247e-22,1.6662,0.000663,-0.00060282,1.0764e-32,0.00010727,-40.936,-149.58,-57.208,5.0139,3.8415e-13,1.9813e-17,101.86,-149.81,-57.208,-40.705,0,0.016453,0,1,3.38,0,-3.38,0
0,0,0,0,0,0,0.00010548,-0.00060021,1.9225e-36,3.25e-05,2.5242e-18,1.1981e-22,1.6619,0.00066171,-0.00060171,1.0868e-32,0.00010697,-40.887,-149.32,-57.113,4.9973,3.8802e-13,1.9415e-17,101.67,-149.55,-57.113,-40.657,0,0.016456,0,1,3.385,0,-3.385,0
0,0,0,0,0,0,0.00010519,-0.00059911,1.944e-36,3.2392e-05,2.5494e-18,1.1716e-22,1.6575,0.00066043,-0.00060059,1.0972e-32,0.00010667,-40.837,-149.05,-57.019,4.9807,3.919e-13,1.9016e-17,101.47,-149.28,-57.019,-40.608,0,0.016459,0,1,3.39,0,-3.39,0
0,0,0,0,0,0,0.0001049,-0.000598,1.9654e-36,3.2284e-05,2.5747e-18,1.145e-22,1.6531,0.00065914,-0.00059948,1.1076e-32,0.00010638,-40.787,-148.79,-56.925,4.9641,3.9578e-13,1.8618e-17,101.27,-149.02,-56.925,-40.56,0,0.016463,0,1,3.395,0,-3.395,0
0,0,0,0,0,0,0.00010461,-0.00059689,1.9869e-36,3.2176e-05,2.5999e-18,1.1185e-22,1.6488,0.00065785,-0.00059836,1.118e-32,0.00010608,-40.738,-148.53,-56.83,4.9475,3.9965e-13,1.8219e-17,101.07,-148.75,-56.83,-40.511,0,0.016466,0,1,3.4,0,-3.4,0
0,0,0,0,0,0,0.0001044,-0.00059601,2.0674e-36,3.2097e-05,2.5691e-18,1.0659e-22,1.6451,0.00065684,-0.00059748,1.131e-32,0.00010587,-40.692,-148.31,-56.753,4.9354,3.9492e-13,1.7402e-17,100.92,-148.54,-56.753,-40.466,0,0.016469,0,1,3.405,0,-3.405,0
0,0,0,0,0,0,0.00010423,-0.00059522,2.1723e-36,3.2031e-05,2.5151e-18,1.0026e-22,1.6417,0.00065595,-0.00059669,1.1451e-32,0.00010569,-40.648,-148.12,-56.682,4.9251,3.8663e-13,1.6413e-17,100.78,-148.35,-56.682,-40.422,0,0.016471,0,1,3.41,0,-3.41,0
0,0,0,0,0,0,0.00010405,-0.00059444,2.2772e-36,3.1964e-05,2.4612e-18,9.3934e-23,1.6384,0.00065506,-0.0005959,1.1592e-32,0.00010551,-40.603,-147.93,-56.611,4.9149,3.7834e-13,1.5424e-17,100.65,-148.15,-56.611,-40.379,0,0.016474,0,1,3.415,0,-3.415,0
0,0,0,0,0,0,0.00010388,-0.00059365,2.382e-36,3.1897e-05,2.4073e-18,8.7604e-23,1.635,0.00065417,-0.00059511,1.1732e-32,0.00010534,-40.559,-147.74,-56.54,4.9047,3.7005e-13,1.4434e-17,100.51,-147.96,-56.54,-40.335,0,0.016477,0,1,3.42,0,-3.42,0
0,0,0,0,0,0,0.00010371,-0.00059286,2.4869e-36,3.1831e-05,2.3534e-18,8.1275e-23,1.6316,0.00065328,-0.00059432,1.1873e-32,0.00010516,-40.514,-147.55,-56.469,4.8944,3.6176e-13,1.3445e-17,100.37,-147.77,-56.469,-40.291,0,0.01648,0,1,3.425,0,-3.425,0
0,0,0,0,0,0,0.00010354,-0.00059208,2.5918e-36,3.1764e-05,2.2995e-18,7.4946e-23,1.6282,0.00065238,-0.00059353,1.2014e-32,0.00010498,-40.47,-147.35,-56.398,4.8842,3.5347e-13,1.2455e-17,100.24,-147.58,-56.398,-40.247,0,0.016482,0,1,3.43,0,-3.43,0
0,0,0,0,0,0,0.00010336,-0.00059129,2.6966e-36,3.1698e-05,2.2455e-18,6.8617e-23,1.6248,0.00065149,-0.00059274,1.2154e-32,0.00010481,-40.426,-147.16,-56.327,4.874,3.4518e-13,1.1466e-17,100.1,-147.39,-56.327,-40.204,0,0.016485,0,1,3.435,0,-3.435,0
0,0,0,0,0,0,0.00010319,-0.00059051,2.8015e-36,3.1631e-05,2.1916e-18,6.2288e-23,1.6215,0.0006506,-0.00059195,1.2295e-32,0.00010463,-40.381,-146.97,-56.256,4.8637,3.3689e-13,1.0477e-17,99.962,-147.19,-56.256,-40.16,0,0.016488,0,1,3.44,0,-3.44,0
0,0,0,0,0,0,0.00010302,-0.00058972,2.9063e-36,3.1564e-05,2.1377e-18,5.5959e-23,1.6181,0.00064971,-0.00059115,1.2436e-32,0.00010445,-40.337,-146.78,-56.185,4.8535,3.286e-13,9.4872e-18,99.825,-147,-56.185,-40.116,0,0.016491,0,1,3.445,0,-3.445,0
0,0,0,0,0,0,0.00010285,-0.00058893,3.0112e-36,3.1498e-05,2.0838e-18,4.963e-23,1.6147,0.00064882,-0.00059036,1.2577e-32,0.00010428,-40.293,-146.59,-56.115,4.8432,3.2031e-13,8.4978e-18,99.688,-146.81,-56.115,-40.072,0,0.016493,0,1,3.45,0,-3.45,0
0,0,0,0,0,0,0.00010267,-0.00058815,3.1161e-36,3.1431e-05,2.0298e-18,4.3301e-23,1.6113,0.00064793,-0.00058957,1.2717e-32,0.0001041,-40.248,-146.4,-56.044,4.833,3.1202e-13,7.5084e-18,99.552,-146.62,-56.044,-40.028,0,0.016496,0,1,3.455,0,-3.455,0
0,0,0,0,0,0,0.0001025,-0.00058736,3.2209e-36,3.1365e-05,1.9759e-18,3.6971e-23,1.608,0.00064704,-0.00058878,1.2858e-32,0.00010393,-40.204,-146.21,-55.973,4.8228,3.0373e-13,6.519e-18,99.415,-146.42,-55.973,-39.985,0,0.016499,0,1,3.46,0,-3.46,0
0,0,0,0,0,0,0.00010233,-0.00058657,3.3258e-36,3.1298e-05,1.922e-18,3.0642e-23,1.6046,0.00064615,-0.00058799,1.2999e-32,0.00010375,-40.159,-146.01,-55.902,4.8125,2.9544e-13,5.5296e-18,99.278,-146.23,-55.902,-39.941,0,0.016501,0,1,3.465,0,-3.465,0
0,0,0,0,0,0,0.00010216,-0.00058579,3.4306e-36,3.1231e-05,1.8681e-18,2.4313e-23,1.6012,0.00064526,-0.0005872,1.3139e-32,0.00010357,-40.115,-145.82,-55.831,4.8023,2.8715e-13,4.5401e-18,99.141,-146.04,-55.831,-39.897,0,0.016504,0,1,3.47,0,-3.47,0
0,0,0,0,0,0,0.00010198,-0.000585,3.5355e-36,3.1165e-05,1.8142e-18,1.7984e-23,1.5978,0.00064436,-0.00058641,1.328e-32,0.0001034,-40.071,-145.63,-55.76,4.7921,2.7886e-13,3.5508e-18,99.005,-145.85,-55.76,-39.853,0,0.016507,0,1,3.475,0,-3.475,0
0,0,0,0,0,0,0.00010181,-0.00058421,3.6404e-36,3.1098e-05,1.7602e-18,1.1655e-23,1.5944,0.00064347,-0.00058562,1.3421e-32,0.00010322,-40.026,-145.44,-55.689,4.7818,2.7057e-13,2.5613e-18,98.868,-145.66,-55.689,-39.81,0,0.01651,0,1,3.48,0,-3.48,0
0,0,0,0,0,0,0.00010164,-0.00058343,3.7452e-36,3.1032e-05,1.7063e-18,5.3258e-24,1.5911,0.00064258,-0.00058483,1.3561e-32,0.00010304,-39.982,-145.25,-55.618,4.7716,2.6228e-13,1.5719e-18,98.731,-145.46,-55.618,-39.766,0,0.016512,0,1,3.485,0,-3.485,0
0,0,0,0,0,0,0.00010147,-0.00058264,3.8501e-36,3.0965e-05,1.6524e-18,-1.0035e-24,1.5877,0.00064169,-0.00058404,1.3702e-32,0.00010287,-39.938,-145.06,-55.547,4.7613,2.5399e-13,5.8251e-19,98.594,-145.27,-55.547,-39.722,0,0.016515,0,1,3.49,0,-3.49,0
0,0,0,0,0,0,0.00010129,-0.00058186,3.955e-36,3.0898e-05,1.5985e-18,-7.3325e-24,1.5843,0.0006408,-0.00058325,1.3843e-32,0.00010269,-39.893,-144.86,-55.476,4.7511,2.4571e-13,-4.0688e-19,98.458,-145.08,-55.476,-39.678,0,0.016518,0,1,3.495,0,-3.495,0
0,0,0,0,0,0,0.00010112,-0.00058107,4.0598e-36,3.0832e-05,1.5445e-18,-1.3662e-23,1.5809,0.00063991,-0.00058246,1.3983e-32,0.00010251,-39.849,-144.67,-55.406,4.7409,2.3742e-13,-1.3963e-18,98.321,-144.89,-55.406,-39.635,0,0.01652,0,1,3.5,0,-3.5,0
0,0,0,0,0,0,0.00010095,-0.00058028,4.1647e-36,3.0765e-05,1.4906e-18,-1.9991e-23,1.5776,0.00063902,-0.00058167,1.4124e-32,0.00010234,-39.804,-144.48,-55.335,4.7306,2.2913e-13,-2.3857e-18,98.184,-144.7,-55.335,-39.591,0,0.016523,0,1,3.505,0,-3.505,0
0,0,0,0,0,0,0.00010078,-0.0005795,4.2695e-36,3.0699e-05,1.4367e-18,-2.632e-23,1.5742,0.00063813,-0.00058088,1.4265e-32,0.00010216,-39.76,-144.29,-55.264,4.7204,2.2084e-13,-3.3751e-18,98.047,-144.5,-55.264,-39.547,0,0.016526,0,1,3.51,0,-3.51,0
0,0,0,0,0,0,0.0001006,-0.00057871,4.3744e-36,3.0632e-05,1.3828e-18,-3.2649e-23,1.5708,0.00063724,-0.00058009,1.4405e-32,0.00010199,-39.716,-144.1,-55.193,4.7101,2.1255e-13,-4.3646e-18,97.91,-144.31,-55.193,-39.503,0,0.016529,0,1,3.515,0,-3.515,0
0,0,0,0,0,0,0.00010043,-0.00057792,4.4793e-36,3.0565e-05,1.3288e-18,-3.8978e-23,1.5674,0.00063634,-0.0005793,1.4546e-32,0.00010181,-39.671,-143.91,-55.122,4.6999,2.0426e-13,-5.3539e-18,97.774,-144.12,-55.122,-39.46,0,0.016531,0,1,3.52,0,-3.52,0
0,0,0,0,0,0,0.00010026,-0.00057714,4.5841e-36,3.0499e-05,1.2749e-18,-4.5308e-23,1.5641,0.00063545,-0.00057851,1.4687e-32,0.00010163,-39.627,-143.72,-55.051,4.6897,1.9597e-13,-6.3434e-18,97.637,-143.93,-55.051,-39.416,0,0.016534,0,1,3.525,0,-3.525,0
0,0,0,0,0,0,0.00010009,-0.00057635,4.689e-36,3.0432e-05,1.221e-18,-5.1637e-23,1.5607,0.00063456,-0.00057772,1.4827e-32,0.00010146,-39.583,-143.52,-54.98,4.6794,1.8768e-13,-7.3328e-18,97.5,-143.73,-54.98,-39.372,0,0.016537,0,1,3.53,0,-3.53,0
0,0,0,0,0,0,9.9915e-05,-0.00057557,4.7939e-36,3.0366e-05,1.1671e-18,-5.7966e-23,1.5573,0.00063367,-0.00057693,1.4968e-32,0.00010128,-39.538,-143.33,-54.909,4.6692,1.7939e-13,-8.3222e-18,97.363,-143.54,-54.909,-39.328,0,0.01654,0,1,3.535,0,-3.535,0
0,0,0,0,0,0,9.9743e-05,-0.00057478,4.8987e-36,3.0299e-05,1.1132e-18,-6.4295e-23,1.5539,0.00063278,-0.00057614,1.5109e-32,0.0001011,-39.494,-143.14,-54.838,4.659,1.711e-13,-9.3116e-18,97.227,-143.35,-54.838,-39.284,0,0.016542,0,1,3.54,0,-3.54,0
0,0,0,0,0,0,9.957e-05,-0.00057399,5.0036e-36,3.0232e-05,1.0592e-18,-7.0624e-23,1.5505,0.00063189,-0.00057535,1.525e-32,0.00010093,-39.449,-142.95,-54.767,4.6487,1.6281e-13,-1.0301e-17,97.09,-143.16,-54.767,-39.241,0,0.016545,0,1,3.545,0,-3.545,0
0,0,0,0,0,0,9.9398e-05,-0.00057321,5.1084e-36,3.0166e-05,1.0053e-18,-7.6953e-23,1.5472,0.000631,-0.00057456,1.539e-32,0.00010075,-39.405,-142.76,-54.697,4.6385,1.5452e-13,-1.129e-17,96.953,-142.97,-54.697,-39.197,0,0.016548,0,1,3.55,0,-3.55,0
0,0,0,0,0,0,9.9226e-05,-0.00057242,5.2133e-36,3.0099e-05,9.5138e-19,-8.3282e-23,1.5438,0.00063011,-0.00057377,1.5531e-32,0.00010057,-39.361,-142.57,-54.626,4.6282,1.4623e-13,-1.228e-17,96.816,-142.77,-54.626,-39.153,0,0.01655,0,1,3.555,0,-3.555,0
0,0,0,0,0,0,9.9053e-05,-0.00057163,5.3182e-36,3.0033e-05,8.9746e-19,-8.9611e-23,1.5404,0.00062922,-0.00057298,1.5672e-32,0.0001004,-39.316,-142.37,-54.555,4.618,1.3794e-13,-1.3269e-17,96.679,-142.58,-54.555,-39.109,0,0.016553,0,1,3.56,0,-3.56,0
0,0,0,0,0,0,9.8881e-05,-0.00057085,5.423e-36,2.9966e-05,8.4353e-19,-9.5941e-23,1.537,0.00062832,-0.00057219,1.5812e-32,0.00010022,-39.272,-142.18,-54.484,4.6078,1.2965e-13,-1.4259e-17,96.543,-142.39,-54.484,-39.066,0,0.016556,0,1,3.565,0,-3.565,0
0,0,0,0,0,0,9.8708e-05,-0.00057006,5.5279e-36,2.9899e-05,7.8961e-19,-1.0227e-22,1.5337,0.00062743,-0.0005714,1.5953e-32,0.00010005,-39.228,-141.99,-54.413,4.5975,1.2136e-13,-1.5248e-17,96.406,-142.2,-54.413,-39.022,0,0.016559,0,1,3.57,0,-3.57,0
0,0,0,0,0,0,9.8536e-05,-0.00056927,5.6327e-36,2.9833e-05,7.3569e-19,-1.086e-22,1.5303,0.00062654,-0.00057061,1.6094e-32,9.9869e-05,-39.183,-141.8,-54.342,4.5873,1.1307e-13,-1.6237e-17,96.269,-142,-54.342,-38.978,0,0.016561,0,1,3.575,0,-3.575,0
0,0,0,0,0,0,9.8364e-05,-0.00056849,5.7376e-36,2.9766e-05,6.8177e-19,-1.1493e-22,1.5269,0.00062565,-0.00056982,1.6234e-32,9.9692e-05,-39.139,-141.61,-54.271,4.5771,1.0478e-13,-1.7227e-17,96.132,-141.81,-54.271,-38.934,0,0.016564,0,1,3.58,0,-3.58,0
0,0,0,0,0,0,9.8191e-05,-0.0005677,5.8425e-36,2.97e-05,6.2784e-19,-1.2126e-22,1.5235,0.00062476,-0.00056903,1.6375e-32,9.9516e-05,-39.094,-141.42,-54.2,4.5668,9.6495e-14,-1.8216e-17,95.996,-141.62,-54.2,-38.891,0,0.016567,0,1,3.585,0,-3.585,0
0,0,0,0,0,0,9.8019e-05,-0.00056692,5.9473e-36,2.9633e-05,5.7392e-19,-1.2759e-22,1.5201,0.00062387,-0.00056824,1.6516e-32,9.934e-05,-39.05,-141.23,-54.129,4.5566,8.8206e-14,-1.9206e-17,95.859,-141.43,-54.129,-38.847,0,0.016569,0,1,3.59,0,-3.59,0
0,0,0,0,0,0,9.7846e-05,-0.00056613,6.0522e-36,2.9566e-05,5.2e-19,-1.3392e-22,1.5168,0.00062298,-0.00056745,1.6656e-32,9.9163e-05,-39.006,-141.03,-54.058,4.5463,7.9916e-14,-2.0195e-17,95.722,-141.24,-54.058,-38.803,0,0.016572,0,1,3.595,0,-3.595,0
0,0,0,0,0,0,9.7674e-05,-0.00056534,6.1571e-36,2.95e-05,4.6608e-19,-1.4024e-22,1.5134,0.00062209,-0.00056666,1.6797e-32,9.8987e-05,-38.961,-140.84,-53.988,4.5361,7.1627e-14,-2.1184e-17,95.585,-141.04,-53.988,-38.759,0,0.016575,0,1,3.6,0,-3.6,0
0,0,0,0,0,0,9.7502e-05,-0.00056456,6.2619e-36,2.9433e-05,4.1215e-19,-1.4657e-22,1.51,0.0006212,-0.00056587,1.6938e-32,9.881e-05,-38.917,-140.65,-53.917,4.5259,6.3337e-14,-2.2174e-17,95.449,-140.85,-53.917,-38.716,0,0.016578,0,1,3.605,0,-3.605,0
0,0,0,0,0,0,9.7329e-05,-0.00056377,6.3668e-36,2.9367e-05,3.5823e-19,-1.529e-22,1.5066,0.0006203,-0.00056508,1.7078e-32,9.8634e-05,-38.873,-140.46,-53.846,4.5156,5.5048e-14,-2.3163e-17,95.312,-140.66,-53.846,-38.672,0,0.01658,0,1,3.61,0,-3.61,0
0,0,0,0,0,0,9.7157e-05,-0.00056298,6.4716e-36,2.93e-05,3.043e-19,-1.5923e-22,1.5033,0.00061941,-0.00056429,1.7219e-32,9.8458e-05,-38.828,-140.27,-53.775,4.5054,4.6758e-14,-2.4153e-17,95.175,-140.47,-53.775,-38.628,0,0.016583,0,1,3.615,0,-3.615,0
0,0,0,0,0,0,9.6984e-05,-0.0005622,6.5765e-36,2.9234e-05,2.5038e-19,-1.6556e-22,1.4999,0.00061852,-0.0005635,1.736e-32,9.8281e-05,-38.784,-140.08,-53.704,4.4952,3.8469e-14,-2.5142e-17,95.038,-140.28,-53.704,-38.584,0,0.016586,0,1,3.62,0,-3.62,0
0,0,0,0,0,0,9.6812e-05,-0.00056141,6.6814e-36,2.9167e-05,1.9646e-19,-1.7189e-22,1.4965,0.00061763,-0.0005627,1.75e-32,9.8105e-05,-38.739,-139.88,-53.633,4.4849,3.0179e-14,-2.6132e-17,94.901,-140.08,-53.633,-38.541,0,0.016589,0,1,3.625,0,-3.625,0
0,0,0,0,0,0,9.664e-05,-0.00056063,6.7862e-36,2.91e-05,1.4253e-19,-1.7822e-22,1.4931,0.00061674,-0.00056191,1.7641e-32,9.7928e-05,-38.695,-139.69,-53.562,4.4747,2.1889e-14,-2.7121e-17,94.765,-139.89,-53.562,-38.497,0,0.016591,0,1,3.63,0,-3.63,0
0,0,0,0,0,0,9.6467e-05,-0.00055984,6.8911e-36,2.9034e-05,8.8613e-20,-1.8455e-22,1.4897,0.00061585,-0.00056112,1.7782e-32,9.7752e-05,-38.651,-139.5,-53.491,4.4644,1.36e-14,-2.811e-17,94.628,-139.7,-53.491,-38.453,0,0.016594,0,1,3.635,0,-3.635,0
0,0,0,0,0,0,9.6295e-05,-0.00055905,6.996e-36,2.8967e-05,3.4689e-20,-1.9088e-22,1.4864,0.00061496,-0.00056033,1.7923e-32,9.7576e-05,-38.606,-139.31,-53.42,4.4542,5.3105e-15,-2.91e-17,94.491,-139.51,-53.42,-38.409,0,0.016597,0,1,3.64,0,-3.64,0
0,0,0,0,0,0,9.6122e-05,-0.00055827,7.1008e-36,2.8901e-05,-1.9233e-20,-1.9721e-22,1.483,0.00061407,-0.00055954,1.8063e-32,9.7399e-05,-38.562,-139.12,-53.349,4.444,-2.9788e-15,-3.0089e-17,94.354,-139.31,-53.349,-38.365,0,0.016599,0,1,3.645,0,-3.645,0
0,0,0,0,0,0,9.595e-05,-0.00055748,7.2057e-36,2.8834e-05,-7.3157e-20,-2.0354e-22,1.4796,0.00061318,-0.00055875,1.8204e-32,9.7223e-05,-38.518,-138.93,-53.279,4.4337,-1.1268e-14,-3.1079e-17,94.218,-139.12,-53.279,-38.322,0,0.016602,0,1,3.65,0,-3.65,0
0,0,0,0,0,0,9.5777e-05,-0.00055669,7.3105e-36,2.8767e-05,-1.2708e-19,-2.0987e-22,1.4762,0.00061228,-0.00055796,1.8345e-32,9.7047e-05,-38.473,-138.74,-53.208,4.4235,-1.9558e-14,-3.2068e-17,94.081,-138.93,-53.208,-38.278,0,0.016605,0,1,3.655,0,-3.655,0
0,0,0,0,0,0,9.5605e-05,-0.00055591,7.4154e-36,2.8701e-05,-1.81e-19,-2.1619e-22,1.4729,0.00061139,-0.00055717,1.8485e-32,9.687e-05,-38.429,-138.54,-53.137,4.4133,-2.7847e-14,-3.3057e-17,93.944,-138.74,-53.137,-38.234,0,0.016608,0,1,3.66,0,-3.66,0
0,0,0,0,0,0,9.5433e-05,-0.00055512,7.5203e-36,2.8634e-05,-2.3492e-19,-2.2252e-22,1.4695,0.0006105,-0.00055638,1.8626e-32,9.6694e-05,-38.384,-138.35,-53.066,4.403,-3.6137e-14,-3.4047e-17,93.807,-138.55,-53.066,-38.19,0,0.01661,0,1,3.665,0,-3.665,0
0,0,0,0,0,0,9.526e-05,-0.00055434,7.6251e-36,2.8568e-05,-2.8885e-19,-2.2885e-22,1.4661,0.00060961,-0.00055559,1.8767e-32,9.6517e-05,-38.34,-138.16,-52.995,4.3928,-4.4426e-14,-3.5036e-17,93.671,-138.35,-52.995,-38.147,0,0.016613,0,1,3.67,0,-3.67,0
0,0,0,0,0,0,9.5088e-05,-0.00055355,7.73e-36,2.8501e-05,-3.4277e-19,-2.3518e-22,1.4627,0.00060872,-0.0005548,1.8907e-32,9.6341e-05,-38.296,-137.97,-52.924,4.3825,-5.2716e-14,-3.6026e-17,93.534,-138.16,-52.924,-38.103,0,0.016616,0,1,3.675,0,-3.675,0
0,0,0,0,0,0,9.4915e-05,-0.00055276,7.8349e-36,2.8434e-05,-3.9669e-19,-2.4151e-22,1.4594,0.00060783,-0.00055401,1.9048e-32,9.6165e-05,-38.251,-137.78,-52.853,4.3723,-6.1005e-14,-3.7015e-17,93.397,-137.97,-52.853,-38.059,0,0.016619,0,1,3.68,0,-3.68,0
0,0,0,0,0,0,9.4743e-05,-0.00055198,7.9397e-36,2.8368e-05,-4.5062e-19,-2.4784e-22,1.456,0.00060694,-0.00055322,1.9189e-32,9.5988e-05,-38.207,-137.59,-52.782,4.3621,-6.9295e-14,-3.8004e-17,93.26,-137.78,-52.782,-38.015,0,0.016621,0,1,3.685,0,-3.685,0
0,0,0,0,0,0,9.4571e-05,-0.00055119,8.0446e-36,2.8301e-05,-5.0454e-19,-2.5417e-22,1.4526,0.00060605,-0.00055243,1.9329e-32,9.5812e-05,-38.163,-137.39,-52.711,4.3518,-7.7584e-14,-3.8994e-17,93.123,-137.59,-52.711,-37.972,0,0.016624,0,1,3.69,0,-3.69,0
0,0,0,0,0,0,9.4398e-05,-0.0005504,8.1494e-36,2.8235e-05,-5.5846e-19,-2.605e-22,1.4492,0.00060516,-0.00055164,1.947e-32,9.5635e-05,-38.118,-137.2,-52.64,4.3416,-8.5873e-14,-3.9983e-17,92.987,-137.39,-52.64,-37.928,0,0.016627,0,1,3.695,0,-3.695,0
0,0,0,0,0,0,9.4226e-05,-0.00054962,8.2543e-36,2.8168e-05,-6.1239e-19,-2.6683e-22,1.4458,0.00060426,-0.00055085,1.9611e-32,9.5459e-05,-38.074,-137.01,-52.57,4.3313,-9.4163e-14,-4.0973e-17,92.85,-137.2,-52.57,-37.884,0,0.016629,0,1,3.7,0,-3.7,0
0,0,0,0,0,0,9.4053e-05,-0.00054883,8.3592e-36,2.8101e-05,-6.6631e-19,-2.7316e-22,1.4425,0.00060337,-0.00055006,1.9751e-32,9.5283e-05,-38.029,-136.82,-52.499,4.3211,-1.0245e-13,-4.1962e-17,92.713,-137.01,-52.499,-37.84,0,0.016632,0,1,3.705,0,-3.705,0
0,0,0,0,0,0,9.3881e-05,-0.00054804,8.464e-36,2.8035e-05,-7.2023e-19,-2.7949e-22,1.4391,0.00060248,-0.00054927,1.9892e-32,9.5106e-05,-37.985,-136.63,-52.428,4.3109,-1.1074e-13,-4.2952e-17,92.576,-136.82,-52.428,-37.797,0,0.016635,0,1,3.71,0,-3.71,0
0,0,0,0,0,0,9.3709e-05,-0.00054726,8.5689e-36,2.7968e-05,-7.7415e-19,-2.8581e-22,1.4357,0.00060159,-0.00054848,2.0033e-32,9.493e-05,-37.941,-136.44,-52.357,4.3006,-1.1903e-13,-4.3941e-17,92.44,-136.62,-52.357,-37.753,0,0.016638,0,1,3.715,0,-3.715,0
0,0,0,0,0,0,9.3536e-05,-0.00054647,8.6737e-36,2.7902e-05,-8.2808e-19,-2.9214e-22,1.4323,0.0006007,-0.00054769,2.0173e-32,9.4754e-05,-37.896,-136.25,-52.286,4.2904,-1.2732e-13,-4.493e-17,92.303,-136.43,-52.286,-37.709,0,0.01664,0,1,3.72,0,-3.72,0
0,0,0,0,0,0,9.3364e-05,-0.00054569,8.7786e-36,2.7835e-05,-8.82e-19,-2.9847e-22,1.429,0.00059981,-0.0005469,2.0314e-32,9.4577e-05,-37.852,-136.05,-52.215,4.2802,-1.3561e-13,-4.592e-17,92.166,-136.24,-52.215,-37.665,0,0.016643,0,1,3.725,0,-3.725,0
0,0,0,0,0,0,9.3191e-05,-0.0005449,8.8835e-36,2.7768e-05,-9.3592e-19,-3.048e-22,1.4256,0.00059892,-0.00054611,2.0455e-32,9.4401e-05,-37.808,-135.86,-52.144,4.2699,-1.439e-13,-4.6909e-17,92.029,-136.05,-52.144,-37.621,0,0.016646,0,1,3.73,0,-3.73,0
0,0,0,0,0,0,9.3019e-05,-0.00054411,8.9883e-36,2.7702e-05,-9.8985e-19,-3.1113e-22,1.4222,0.00059803,-0.00054532,2.0596e-32,9.4224e-05,-37.763,-135.67,-52.073,4.2597,-1.5219e-13,-4.7899e-17,91.893,-135.86,-52.073,-37.578,0,0.016648,0,1,3.735,0,-3.735,0
0,0,0,0,0,0,9.2847e-05,-0.00054333,9.0932e-36,2.7635e-05,-1.0438e-18,-3.1746e-22,1.4188,0.00059714,-0.00054453,2.0736e-32,9.4048e-05,-37.719,-135.48,-52.002,4.2494,-1.6048e-13,-4.8888e-17,91.756,-135.66,-52.002,-37.534,0,0.016651,0,1,3.74,0,-3.74,0
0,0,0,0,0,0,9.2674e-05,-0.00054254,9.1981e-36,2.7569e-05,-1.0977e-18,-3.2379e-22,1.4154,0.00059624,-0.00054374,2.0877e-32,9.3872e-05,-37.674,-135.29,-51.931,4.2392,-1.6877e-13,-4.9877e-17,91.619,-135.47,-51.931,-37.49,0,0.016654,0,1,3.745,0,-3.745,0
0,0,0,0,0,0,9.2502e-05,-0.00054175,9.3029e-36,2.7502e-05,-1.1516e-18,-3.3012e-22,1.4121,0.00059535,-0.00054295,2.1018e-32,9.3695e-05,-37.63,-135.1,-51.861,4.229,-1.7706e-13,-5.0867e-17,91.482,-135.28,-51.861,-37.446,0,0.016657,0,1,3.75,0,-3.75,0
0,0,0,0,0,0,9.2329e-05,-0.00054097,9.4078e-36,2.7435e-05,-1.2055e-18,-3.3645e-22,1.4087,0.00059446,-0.00054216,2.1158e-32,9.3519e-05,-37.586,-134.9,-51.79,4.2187,-1.8535e-13,-5.1856e-17,91.345,-135.09,-51.79,-37.403,0,0.016659,0,1,3.755,0,-3.755,0
0,0,0,0,0,0,9.2157e-05,-0.00054018,9.5126e-36,2.7369e-05,-1.2595e-18,-3.4278e-22,1.4053,0.00059357,-0.00054137,2.1299e-32,9.3342e-05,-37.541,-134.71,-51.719,4.2085,-1.9364e-13,-5.2846e-17,91.209,-134.9,-51.719,-37.359,0,0.016662,0,1,3.76,0,-3.76,0
0,0,0,0,0,0,9.1984e-05,-0.0005394,9.6175e-36,2.7302e-05,-1.3134e-18,-3.4911e-22,1.4019,0.00059268,-0.00054058,2.144e-32,9.3166e-05,-37.497,-134.52,-51.648,4.1983,-2.0193e-13,-5.3835e-17,91.072,-134.7,-51.648,-37.315,0,0.016665,0,1,3.765,0,-3.765,0
0,0,0,0,0,0,9.1812e-05,-0.00053861,9.7224e-36,2.7236e-05,-1.3673e-18,-3.5544e-22,1.3986,0.00059179,-0.00053979,2.158e-32,9.299e-05,-37.453,-134.33,-51.577,4.188,-2.1022e-13,-5.4824e-17,90.935,-134.51,-51.577,-37.271,0,0.016668,0,1,3.77,0,-3.77,0
0,0,0,0,0,0,9.164e-05,-0.00053782,9.8272e-36,2.7169e-05,-1.4212e-18,-3.6176e-22,1.3952,0.0005909,-0.000539,2.1721e-32,9.2813e-05,-37.408,-134.14,-51.506,4.1778,-2.1851e-13,-5.5814e-17,90.798,-134.32,-51.506,-37.228,0,0.01667,0,1,3.775,0,-3.775,0
0,0,0,0,0,0,9.1467e-05,-0.00053704,9.9321e-36,2.7102e-05,-1.4752e-18,-3.6809e-22,1.3918,0.00059001,-0.00053821,2.1862e-32,9.2637e-05,-37.364,-133.95,-51.435,4.1675,-2.2679e-13,-5.6803e-17,90.662,-134.13,-51.435,-37.184,0,0.016673,0,1,3.78,0,-3.78,0
0,0,0,0,0,0,9.1295e-05,-0.00053625,1.0037e-35,2.7036e-05,-1.5291e-18,-3.7442e-22,1.3884,0.00058912,-0.00053742,2.2002e-32,9.2461e-05,-37.319,-133.76,-51.364,4.1573,-2.3508e-13,-5.7793e-17,90.525,-133.93,-51.364,-37.14,0,0.016676,0,1,3.785,0,-3.785,0
0,0,0,0,0,0,9.1122e-05,-0.00053546,1.0142e-35,2.6969e-05,-1.583e-18,-3.8075e-22,1.3851,0.00058822,-0.00053663,2.2143e-32,9.2284e-05,-37.275,-133.56,-51.293,4.1471,-2.4337e-13,-5.8782e-17,90.388,-133.74,-51.293,-37.096,0,0.016678,0,1,3.79,0,-3.79,0
0,0,0,0,0,0,9.095e-05,-0.00053468,1.0247e-35,2.6903e-05,-1.6369e-18,-3.8708e-22,1.3817,0.00058733,-0.00053584,2.2284e-32,9.2108e-05,-37.231,-133.37,-51.222,4.1368,-2.5166e-13,-5.9772e-17,90.251,-133.55,-51.222,-37.053,0,0.016681,0,1,3.795,0,-3.795,0
0,0,0,0,0,0,9.0778e-05,-0.00053389,1.0352e-35,2.6836e-05,-1.6908e-18,-3.9341e-22,1.3783,0.00058644,-0.00053505,2.2424e-32,9.1931e-05,-37.186,-133.18,-51.152,4.1266,-2.5995e-13,-6.0761e-17,90.114,-133.36,-51.152,-37.009,0,0.016684,0,1,3.8,0,-3.8,0
0,0,0,0,0,0,9.0605e-05,-0.0005331,1.0456e-35,2.6769e-05,-1.7448e-18,-3.9974e-22,1.3749,0.00058555,-0.00053425,2.2565e-32,9.1755e-05,-37.142,-132.99,-51.081,4.1164,-2.6824e-13,-6.175e-17,89.978,-133.17,-51.081,-36.965,0,0.016687,0,1,3.805,0,-3.805,0
0,0,0,0,0,0,9.0433e-05,-0.00053232,1.0561e-35,2.6703e-05,-1.7987e-18,-4.0607e-22,1.3715,0.00058466,-0.00053346,2.2706e-32,9.1579e-05,-37.098,-132.8,-51.01,4.1061,-2.7653e-13,-6.274e-17,89.841,-132.97,-51.01,-36.921,0,0.016689,0,1,3.81,0,-3.81,0
0,0,0,0,0,0,9.026e-05,-0.00053153,1.0666e-35,2.6636e-05,-1.8526e-18,-4.124e-22,1.3682,0.00058377,-0.00053267,2.2846e-32,9.1402e-05,-37.053,-132.61,-50.939,4.0959,-2.8482e-13,-6.3729e-17,89.704,-132.78,-50.939,-36.878,0,0.016692,0,1,3.815,0,-3.815,0
0,0,0,0,0,0,9.0088e-05,-0.00053075,1.0771e-35,2.657e-05,-1.9065e-18,-4.1873e-22,1.3648,0.00058288,-0.00053188,2.2987e-32,9.1226e-05,-37.009,-132.41,-50.868,4.0856,-2.9311e-13,-6.4719e-17,89.567,-132.59,-50.868,-36.834,0,0.016695,0,1,3.82,0,-3.82,0
0,0,0,0,0,0,8.9916e-05,-0.00052996,1.0876e-35,2.6503e-05,-1.9605e-18,-4.2506e-22,1.3614,0.00058199,-0.00053109,2.3128e-32,9.1049e-05,-36.964,-132.22,-50.797,4.0754,-3.014e-13,-6.5708e-17,89.431,-132.4,-50.797,-36.79,0,0.016698,0,1,3.825,0,-3.825,0
0,0,0,0,0,0,8.9743e-05,-0.00052917,1.0981e-35,2.6436e-05,-2.0144e-18,-4.3138e-22,1.358,0.0005811,-0.0005303,2.3269e-32,9.0873e-05,-36.92,-132.03,-50.726,4.0652,-3.0969e-13,-6.6697e-17,89.294,-132.21,-50.726,-36.746,0,0.0167,0,1,3.83,0,-3.83,0
0,0,0,0,0,0,8.9571e-05,-0.00052839,1.1086e-35,2.637e-05,-2.0683e-18,-4.3771e-22,1.3547,0.0005802,-0.00052951,2.3409e-32,9.0697e-05,-36.876,-131.84,-50.655,4.0549,-3.1798e-13,-6.7687e-17,89.157,-132.01,-50.655,-36.702,0,0.016703,0,1,3.835,0,-3.835,0
0,0,0,0,0,0,8.9398e-05,-0.0005276,1.119e-35,2.6303e-05,-2.1222e-18,-4.4404e-22,1.3513,0.00057931,-0.00052872,2.355e-32,9.052e-05,-36.831,-131.65,-50.584,4.0447,-3.2627e-13,-6.8676e-17,89.02,-131.82,-50.584,-36.659,0,0.016706,0,1,3.84,0,-3.84,0
0,0,0,0,0,0,8.9226e-05,-0.00052681,1.1295e-35,2.6237e-05,-2.1762e-18,-4.5037e-22,1.3479,0.00057842,-0.00052793,2.3691e-32,9.0344e-05,-36.787,-131.46,-50.513,4.0345,-3.3456e-13,-6.9666e-17,88.884,-131.63,-50.513,-36.615,0,0.016708,0,1,3.845,0,-3.845,0
0,0,0,0,0,0,8.9054e-05,-0.00052603,1.14e-35,2.617e-05,-2.2301e-18,-4.567e-22,1.3445,0.00057753,-0.00052714,2.3831e-32,9.0168e-05,-36.743,-131.27,-50.443,4.0242,-3.4285e-13,-7.0655e-17,88.747,-131.44,-50.443,-36.571,0,0.016711,0,1,3.85,0,-3.85,0
0,0,0,0,0,0,8.8881e-05,-0.00052524,1.1505e-35,2.6103e-05,-2.284e-18,-4.6303e-22,1.3411,0.00057664,-0.00052635,2.3972e-32,8.9991e-05,-36.698,-131.07,-50.372,4.014,-3.5114e-13,-7.1644e-17,88.61,-131.24,-50.372,-36.527,0,0.016714,0,1,3.855,0,-3.855,0
0,0,0,0,0,0,8.8709e-05,-0.00052446,1.161e-35,2.6037e-05,-2.3379e-18,-4.6936e-22,1.3378,0.00057575,-0.00052556,2.4113e-32,8.9815e-05,-36.654,-130.88,-50.301,4.0037,-3.5943e-13,-7.2634e-17,88.473,-131.05,-50.301,-36.484,0,0.016717,0,1,3.86,0,-3.86,0
0,0,0,0,0,0,8.8536e-05,-0.00052367,1.1715e-35,2.597e-05,-2.3918e-18,-4.7569e-22,1.3344,0.00057486,-0.00052477,2.4253e-32,8.9638e-05,-36.609,-130.69,-50.23,3.9935,-3.6772e-13,-7.3623e-17,88.336,-130.86,-50.23,-36.44,0,0.016719,0,1,3.865,0,-3.865,0
0,0,0,0,0,0,8.8364e-05,-0.00052288,1.182e-35,2.5904e-05,-2.4458e-18,-4.8202e-22,1.331,0.00057397,-0.00052398,2.4394e-32,8.9462e-05,-36.565,-130.5,-50.159,3.9833,-3.76e-13,-7.4613e-17,88.2,-130.67,-50.159,-36.396,0,0.016722,0,1,3.87,0,-3.87,0
0,0,0,0,0,0,8.8192e-05,-0.0005221,1.1924e-35,2.5837e-05,-2.4997e-18,-4.8835e-22,1.3276,0.00057308,-0.00052319,2.4535e-32,8.9286e-05,-36.521,-130.31,-50.088,3.973,-3.8429e-13,-7.5602e-17,88.063,-130.48,-50.088,-36.352,0,0.016725,0,1,3.875,0,-3.875,0
0,0,0,0,0,0,8.8019e-05,-0.00052131,1.2029e-35,2.577e-05,-2.5536e-18,-4.9468e-22,1.3243,0.00057218,-0.0005224,2.4675e-32,8.9109e-05,-36.476,-130.12,-50.017,3.9628,-3.9258e-13,-7.6592e-17,87.926,-130.28,-50.017,-36.309,0,0.016727,0,1,3.88,0,-3.88,0
0,0,0,0,0,0,8.7847e-05,-0.00052052,1.2134e-35,2.5704e-05,-2.6075e-18,-5.0101e-22,1.3209,0.00057129,-0.00052161,2.4816e-32,8.8933e-05,-36.432,-129.92,-49.946,3.9525,-4.0087e-13,-7.7581e-17,87.789,-130.09,-49.946,-36.265,0,0.01673,0,1,3.885,0,-3.885,0
0,0,0,0,0,0,8.7674e-05,-0.00051974,1.2239e-35,2.5637e-05,-2.6615e-18,-5.0733e-22,1.3175,0.0005704,-0.00052082,2.4957e-32,8.8756e-05,-36.388,-129.73,-49.875,3.9423,-4.0916e-13,-7.857e-17,87.653,-129.9,-49.875,-36.221,0,0.016733,0,1,3.89,0,-3.89,0
0,0,0,0,0,0,8.7502e-05,-0.00051895,1.2344e-35,2.5571e-05,-2.7154e-18,-5.1366e-22,1.3141,0.00056951,-0.00052003,2.5097e-32,8.858e-05,-36.343,-129.54,-49.804,3.9321,-4.1745e-13,-7.956e-17,87.516,-129.71,-49.804,-36.177,0,0.016736,0,1,3.895,0,-3.895,0
0,0,0,0,0,0,8.7329e-05,-0.00051817,1.2449e-35,2.5504e-05,-2.7693e-18,-5.1999e-22,1.3107,0.00056862,-0.00051924,2.5238e-32,8.8404e-05,-36.299,-129.35,-49.734,3.9218,-4.2574e-13,-8.0549e-17,87.379,-129.51,-49.734,-36.134,0,0.016738,0,1,3.9,0,-3.9,0
0,0,0,0,0,0,8.7157e-05,-0.00051738,1.2554e-35,2.5438e-05,-2.8232e-18,-5.2632e-22,1.3074,0.00056773,-0.00051845,2.5379e-32,8.8227e-05,-36.254,-129.16,-49.663,3.9116,-4.3403e-13,-8.1539e-17,87.242,-129.32,-49.663,-36.09,0,0.016741,0,1,3.905,0,-3.905,0
0,0,0,0,0,0,8.6985e-05,-0.00051659,1.2658e-35,2.5371e-05,-2.8772e-18,-5.3265e-22,1.304,0.00056684,-0.00051766,2.552e-32,8.8051e-05,-36.21,-128.97,-49.592,3.9014,-4.4232e-13,-8.2528e-17,87.106,-129.13,-49.592,-36.046,0,0.016744,0,1,3.91,0,-3.91,0
0,0,0,0,0,0,8.6812e-05,-0.00051581,1.2763e-35,2.5304e-05,-2.9311e-18,-5.3898e-22,1.3006,0.00056595,-0.00051687,2.566e-32,8.7875e-05,-36.166,-128.78,-49.521,3.8911,-4.5061e-13,-8.3517e-17,86.969,-128.94,-49.521,-36.002,0,0.016747,0,1,3.915,0,-3.915,0
0,0,0,0,0,0,8.664e-05,-0.00051502,1.2868e-35,2.5238e-05,-2.985e-18,-5.4531e-22,1.2972,0.00056506,-0.00051608,2.5801e-32,8.7698e-05,-36.121,-128.58,-49.45,3.8809,-4.589e-13,-8.4507e-17,86.832,-128.75,-49.45,-35.958,0,0.016749,0,1,3.92,0,-3.92,0
0,0,0,0,0,0,8.6467e-05,-0.00051423,1.2973e-35,2.5171e-05,-3.0389e-18,-5.5164e-22,1.2939,0.00056416,-0.00051529,2.5942e-32,8.7522e-05,-36.077,-128.39,-49.379,3.8706,-4.6719e-13,-8.5496e-17,86.695,-128.55,-49.379,-35.915,0,0.016752,0,1,3.925,0,-3.925,0
0,0,0,0,0,0,8.6295e-05,-0.00051345,1.3078e-35,2.5105e-05,-3.0928e-18,-5.5797e-22,1.2905,0.00056327,-0.0005145,2.6082e-32,8.7345e-05,-36.033,-128.2,-49.308,3.8604,-4.7548e-13,-8.6486e-17,86.558,-128.36,-49.308,-35.871,0,0.016755,0,1,3.93,0,-3.93,0
0,0,0,0,0,0,8.6123e-05,-0.00051266,1.3183e-35,2.5038e-05,-3.1468e-18,-5.643e-22,1.2871,0.00056238,-0.00051371,2.6223e-32,8.7169e-05,-35.988,-128.01,-49.237,3.8502,-4.8377e-13,-8.7475e-17,86.422,-128.17,-49.237,-35.827,0,0.016757,0,1,3.935,0,-3.935,0
0,0,0,0,0,0,8.595e-05,-0.00051187,1.3288e-35,2.4971e-05,-3.2007e-18,-5.7063e-22,1.2837,0.00056149,-0.00051292,2.6364e-32,8.6993e-05,-35.944,-127.82,-49.166,3.8399,-4.9206e-13,-8.8464e-17,86.285,-127.98,-49.166,-35.783,0,0.01676,0,1,3.94,0,-3.94,0
0,0,0,0,0,0,8.5778e-05,-0.00051109,1.3393e-35,2.4905e-05,-3.2546e-18,-5.7696e-22,1.2804,0.0005606,-0.00051213,2.6504e-32,8.6816e-05,-35.899,-127.63,-49.095,3.8297,-5.0035e-13,-8.9454e-17,86.148,-127.79,-49.095,-35.74,0,0.016763,0,1,3.945,0,-3.945,0
0,0,0,0,0,0,8.5605e-05,-0.0005103,1.3497e-35,2.4838e-05,-3.3085e-18,-5.8328e-22,1.277,0.00055971,-0.00051134,2.6645e-32,8.664e-05,-35.855,-127.43,-49.025,3.8195,-5.0864e-13,-9.0443e-17,86.011,-127.59,-49.025,-35.696,0,0.016766,0,1,3.95,0,-3.95,0
0,0,0,0,0,0,8.5433e-05,-0.00050952,1.3602e-35,2.4772e-05,-3.3625e-18,-5.8961e-22,1.2736,0.00055882,-0.00051055,2.6786e-32,8.6463e-05,-35.811,-127.24,-48.954,3.8092,-5.1693e-13,-9.1433e-17,85.875,-127.4,-48.954,-35.652,0,0.016768,0,1,3.955,0,-3.955,0
0,0,0,0,0,0,8.5261e-05,-0.00050873,1.3707e-35,2.4705e-05,-3.4164e-18,-5.9594e-22,1.2702,0.00055793,-0.00050976,2.6926e-32,8.6287e-05,-35.766,-127.05,-48.883,3.799,-5.2522e-13,-9.2422e-17,85.738,-127.21,-48.883,-35.608,0,0.016771,0,1,3.96,0,-3.96,0
0,0,0,0,0,0,8.5088e-05,-0.00050794,1.3812e-35,2.4638e-05,-3.4703e-18,-6.0227e-22,1.2668,0.00055704,-0.00050897,2.7067e-32,8.6111e-05,-35.722,-126.86,-48.812,3.7887,-5.335e-13,-9.3411e-17,85.601,-127.02,-48.812,-35.565,0,0.016774,0,1,3.965,0,-3.965,0
0,0,0,0,0,0,8.4916e-05,-0.00050716,1.3917e-35,2.4572e-05,-3.5242e-18,-6.086e-22,1.2635,0.00055614,-0.00050818,2.7208e-32,8.5934e-05,-35.678,-126.67,-48.741,3.7785,-5.4179e-13,-9.4401e-17,85.464,-126.82,-48.741,-35.521,0,0.016776,0,1,3.97,0,-3.97,0
0,0,0,0,0,0,8.4743e-05,-0.00050637,1.4022e-35,2.4505e-05,-3.5782e-18,-6.1493e-22,1.2601,0.00055525,-0.00050739,2.7348e-32,8.5758e-05,-35.633,-126.48,-48.67,3.7683,-5.5008e-13,-9.539e-17,85.328,-126.63,-48.67,-35.477,0,0.016779,0,1,3.975,0,-3.975,0
0,0,0,0,0,0,8.4571e-05,-0.00050558,1.4127e-35,2.4439e-05,-3.6321e-18,-6.2126e-22,1.2567,0.00055436,-0.00050659,2.7489e-32,8.5582e-05,-35.589,-126.28,-48.599,3.758,-5.5837e-13,-9.638e-17,85.191,-126.44,-48.599,-35.433,0,0.016782,0,1,3.98,0,-3.98,0
0,0,0,0,0,0,8.4399e-05,-0.0005048,1.4231e-35,2.4372e-05,-3.686e-18,-6.2759e-22,1.2533,0.00055347,-0.0005058,2.763e-32,8.5405e-05,-35.544,-126.09,-48.528,3.7478,-5.6666e-13,-9.7369e-17,85.054,-126.25,-48.528,-35.39,0,0.016785,0,1,3.985,0,-3.985,0
0,0,0,0,0,0,8.4226e-05,-0.00050401,1.4336e-35,2.4305e-05,-3.7399e-18,-6.3392e-22,1.25,0.00055258,-0.00050501,2.777e-32,8.5229e-05,-35.5,-125.9,-48.457,3.7376,-5.7495e-13,-9.8359e-17,84.917,-126.06,-48.457,-35.346,0,0.016787,0,1,3.99,0,-3.99,0
0,0,0,0,0,0,8.409e-05,-0.00050332,1.435e-35,2.425e-05,-3.755e-18,-6.3571e-22,1.2468,0.00055181,-0.00050432,2.7758e-32,8.509e-05,-35.457,-125.73,-48.393,3.729,-5.7728e-13,-9.864e-17,84.799,-125.89,-48.393,-35.303,0,0.01679,0,1,3.995,0,-3.995,0
0,0,0,0,0,0,8.4001e-05,-0.00050276,1.4248e-35,2.4207e-05,-3.7211e-18,-6.3178e-22,1.244,0.00055119,-0.00050375,2.7551e-32,8.4998e-05,-35.416,-125.59,-48.338,3.7225,-5.7206e-13,-9.8028e-17,84.704,-125.74,-48.338,-35.262,0,0.016792,0,1,4,0,-4,0
0,0,0,0,0,0,8.3911e-05,-0.00050219,1.4146e-35,2.4165e-05,-3.6872e-18,-6.2785e-22,1.2412,0.00055057,-0.00050318,2.7344e-32,8.4906e-05,-35.374,-125.45,-48.283,3.716,-5.6685e-13,-9.7415e-17,84.608,-125.6,-48.283,-35.221,0,0.016795,0,1,4.005,0,-4.005,0
0,0,0,0,0,0,8.3821e-05,-0.00050162,1.4044e-35,2.4123e-05,-3.6534e-18,-6.2392e-22,1.2384,0.00054995,-0.00050261,2.7137e-32,8.4814e-05,-35.333,-125.31,-48.228,3.7095,-5.6164e-13,-9.6803e-17,84.513,-125.46,-48.228,-35.18,0,0.016797,0,1,4.01,0,-4.01,0
0,0,0,0,0,0,8.3732e-05,-0.00050106,1.3943e-35,2.4081e-05,-3.6195e-18,-6.1999e-22,1.2356,0.00054933,-0.00050205,2.6931e-32,8.4722e-05,-35.292,-125.16,-48.173,3.703,-5.5643e-13,-9.6191e-17,84.418,-125.32,-48.173,-35.14,0,0.016799,0,1,4.015,0,-4.015,0
0,0,0,0,0,0,8.3642e-05,-0.00050049,1.3841e-35,2.4039e-05,-3.5856e-18,-6.1606e-22,1.2327,0.00054871,-0.00050148,2.6724e-32,8.463e-05,-35.251,-125.02,-48.118,3.6966,-5.5122e-13,-9.5578e-17,84.323,-125.17,-48.118,-35.099,0,0.016801,0,1,4.02,0,-4.02,0
0,0,0,0,0,0,8.3552e-05,-0.00049992,1.3739e-35,2.3996e-05,-3.5517e-18,-6.1213e-22,1.2299,0.00054809,-0.00050091,2.6517e-32,8.4538e-05,-35.209,-124.88,-48.063,3.6901,-5.4601e-13,-9.4966e-17,84.228,-125.03,-48.063,-35.058,0,0.016804,0,1,4.025,0,-4.025,0
0,0,0,0,0,0,8.3463e-05,-0.00049936,1.3637e-35,2.3954e-05,-3.5178e-18,-6.082e-22,1.2271,0.00054747,-0.00050034,2.631e-32,8.4446e-05,-35.168,-124.74,-48.008,3.6836,-5.408e-13,-9.4354e-17,84.132,-124.89,-48.008,-35.017,0,0.016806,0,1,4.03,0,-4.03,0
0,0,0,0,0,0,8.3373e-05,-0.00049879,1.3535e-35,2.3912e-05,-3.4839e-18,-6.0427e-22,1.2243,0.00054685,-0.00049977,2.6104e-32,8.4354e-05,-35.127,-124.6,-47.953,3.6771,-5.3559e-13,-9.3742e-17,84.037,-124.75,-47.953,-34.976,0,0.016808,0,1,4.035,0,-4.035,0
0,0,0,0,0,0,8.3283e-05,-0.00049822,1.3434e-35,2.387e-05,-3.45e-18,-6.0034e-22,1.2215,0.00054623,-0.0004992,2.5897e-32,8.4262e-05,-35.085,-124.45,-47.898,3.6706,-5.3038e-13,-9.3129e-17,83.942,-124.6,-47.898,-34.935,0,0.016811,0,1,4.04,0,-4.04,0
0,0,0,0,0,0,8.3194e-05,-0.00049765,1.3332e-35,2.3828e-05,-3.4161e-18,-5.9641e-22,1.2186,0.00054561,-0.00049863,2.569e-32,8.417e-05,-35.044,-124.31,-47.843,3.6641,-5.2517e-13,-9.2517e-17,83.847,-124.46,-47.843,-34.894,0,0.016813,0,1,4.045,0,-4.045,0
0,0,0,0,0,0,8.3104e-05,-0.00049709,1.323e-35,2.3786e-05,-3.3822e-18,-5.9248e-22,1.2158,0.00054499,-0.00049806,2.5484e-32,8.4078e-05,-35.003,-124.17,-47.787,3.6576,-5.1996e-13,-9.1905e-17,83.751,-124.32,-47.787,-34.853,0,0.016815,0,1,4.05,0,-4.05,0
0,0,0,0,0,0,8.3014e-05,-0.00049652,1.3128e-35,2.3743e-05,-3.3483e-18,-5.8856e-22,1.213,0.00054437,-0.00049749,2.5277e-32,8.3986e-05,-34.961,-124.03,-47.732,3.6512,-5.1475e-13,-9.1292e-17,83.656,-124.18,-47.732,-34.812,0,0.016818,0,1,4.055,0,-4.055,0
0,0,0,0,0,0,8.2924e-05,-0.00049595,1.3026e-35,2.3701e-05,-3.3144e-18,-5.8463e-22,1.2102,0.00054375,-0.00049692,2.507e-32,8.3894e-05,-34.92,-123.89,-47.677,3.6447,-5.0954e-13,-9.068e-17,83.561,-124.03,-47.677,-34.771,0,0.01682,0,1,4.06,0,-4.06,0
0,0,0,0,0,0,8.2835e-05,-0.00049539,1.2925e-35,2.3659e-05,-3.2806e-18,-5.807e-22,1.2074,0.00054313,-0.00049636,2.4863e-32,8.3802e-05,-34.879,-123.74,-47.622,3.6382,-5.0433e-13,-9.0068e-17,83.466,-123.89,-47.622,-34.73,0,0.016822,0,1,4.065,0,-4.065,0
0,0,0,0,0,0,8.2745e-05,-0.00049482,1.2823e-35,2.3617e-05,-3.2467e-18,-5.7677e-22,1.2046,0.00054251,-0.00049579,2.4657e-32,8.371e-05,-34.838,-123.6,-47.567,3.6317,-4.9912e-13,-8.9456e-17,83.371,-123.75,-47.567,-34.689,0,0.016825,0,1,4.07,0,-4.07,0
0,0,0,0,0,0,8.2655e-05,-0.00049425,1.2721e-35,2.3575e-05,-3.2128e-18,-5.7284e-22,1.2017,0.00054189,-0.00049522,2.445e-32,8.3618e-05,-34.796,-123.46,-47.512,3.6252,-4.9391e-13,-8.8843e-17,83.275,-123.61,-47.512,-34.648,0,0.016827,0,1,4.075,0,-4.075,0
0,0,0,0,0,0,8.2566e-05,-0.00049369,1.2619e-35,2.3533e-05,-3.1789e-18,-5.6891e-22,1.1989,0.00054127,-0.00049465,2.4243e-32,8.3526e-05,-34.755,-123.32,-47.457,3.6187,-4.887e-13,-8.8231e-17,83.18,-123.46,-47.457,-34.607,0,0.016829,0,1,4.08,0,-4.08,0
0,0,0,0,0,0,8.2476e-05,-0.00049312,1.2517e-35,2.349e-05,-3.145e-18,-5.6498e-22,1.1961,0.00054065,-0.00049408,2.4037e-32,8.3434e-05,-34.714,-123.17,-47.402,3.6123,-4.8349e-13,-8.7619e-17,83.085,-123.32,-47.402,-34.566,0,0.016832,0,1,4.085,0,-4.085,0
0,0,0,0,0,0,8.2386e-05,-0.00049255,1.2416e-35,2.3448e-05,-3.1111e-18,-5.6105e-22,1.1933,0.00054003,-0.00049351,2.383e-32,8.3342e-05,-34.672,-123.03,-47.347,3.6058,-4.7828e-13,-8.7006e-17,82.99,-123.18,-47.347,-34.525,0,0.016834,0,1,4.09,0,-4.09,0
0,0,0,0,0,0,8.2297e-05,-0.00049199,1.2314e-35,2.3406e-05,-3.0772e-18,-5.5712e-22,1.1905,0.00053941,-0.00049294,2.3623e-32,8.325e-05,-34.631,-122.89,-47.292,3.5993,-4.7307e-13,-8.6394e-17,82.895,-123.04,-47.292,-34.484,0,0.016836,0,1,4.095,0,-4.095,0
0,0,0,0,0,0,8.2207e-05,-0.00049142,1.2212e-35,2.3364e-05,-3.0433e-18,-5.5319e-22,1.1876,0.00053879,-0.00049237,2.3416e-32,8.3158e-05,-34.59,-122.75,-47.237,3.5928,-4.6786e-13,-8.5782e-17,82.799,-122.89,-47.237,-34.443,0,0.016839,0,1,4.1,0,-4.1,0
0,0,0,0,0,0,8.2117e-05,-0.00049085,1.211e-35,2.3322e-05,-3.0094e-18,-5.4926e-22,1.1848,0.00053817,-0.0004918,2.321e-32,8.3066e-05,-34.549,-122.61,-47.181,3.5863,-4.6265e-13,-8.5169e-17,82.704,-122.75,-47.181,-34.403,0,0.016841,0,1,4.105,0,-4.105,0
0,0,0,0,0,0,8.2028e-05,-0.00049029,1.2008e-35,2.3279e-05,-2.9755e-18,-5.4533e-22,1.182,0.00053755,-0.00049123,2.3003e-32,8.2974e-05,-34.507,-122.46,-47.126,3.5798,-4.5744e-13,-8.4557e-17,82.609,-122.61,-47.126,-34.362,0,0.016843,0,1,4.11,0,-4.11,0
0,0,0,0,0,0,8.1938e-05,-0.00048972,1.1906e-35,2.3237e-05,-2.9416e-18,-5.414e-22,1.1792,0.00053693,-0.00049066,2.2796e-32,8.2882e-05,-34.466,-122.32,-47.071,3.5734,-4.5223e-13,-8.3945e-17,82.514,-122.47,-47.071,-34.321,0,0.016845,0,1,4.115,0,-4.115,0
0,0,0,0,0,0,8.1848e-05,-0.00048915,1.1805e-35,2.3195e-05,-2.9078e-18,-5.3747e-22,1.1764,0.00053631,-0.0004901,2.2589e-32,8.279e-05,-34.425,-122.18,-47.016,3.5669,-4.4702e-13,-8.3333e-17,82.419,-122.33,-47.016,-34.28,0,0.016848,0,1,4.12,0,-4.12,0
0,0,0,0,0,0,8.1759e-05,-0.00048859,1.1703e-35,2.3153e-05,-2.8739e-18,-5.3354e-22,1.1736,0.00053568,-0.00048953,2.2383e-32,8.2698e-05,-34.383,-122.04,-46.961,3.5604,-4.4181e-13,-8.272e-17,82.323,-122.18,-46.961,-34.239,0,0.01685,0,1,4.125,0,-4.125,0
0,0,0,0,0,0,8.1669e-05,-0.00048802,1.1601e-35,2.3111e-05,-2.84e-18,-5.2961e-22,1.1707,0.00053506,-0.00048896,2.2176e-32,8.2606e-05,-34.342,-121.9,-46.906,3.5539,-4.366e-13,-8.2108e-17,82.228,-122.04,-46.906,-34.198,0,0.016852,0,1,4.13,0,-4.13,0
0,0,0,0,0,0,8.1579e-05,-0.00048745,1.1499e-35,2.3069e-05,-2.8061e-18,-5.2568e-22,1.1679,0.00053444,-0.00048839,2.1969e-32,8.2514e-05,-34.301,-121.75,-46.851,3.5474,-4.3139e-13,-8.1496e-17,82.133,-121.9,-46.851,-34.157,0,0.016855,0,1,4.135,0,-4.135,0
0,0,0,0,0,0,8.149e-05,-0.00048689,1.1397e-35,2.3026e-05,-2.7722e-18,-5.2175e-22,1.1651,0.00053382,-0.00048782,2.1763e-32,8.2422e-05,-34.259,-121.61,-46.796,3.5409,-4.2618e-13,-8.0883e-17,82.038,-121.76,-46.796,-34.116,0,0.016857,0,1,4.14,0,-4.14,0
0,0,0,0,0,0,8.14e-05,-0.00048632,1.1296e-35,2.2984e-05,-2.7383e-18,-5.1782e-22,1.1623,0.0005332,-0.00048725,2.1556e-32,8.233e-05,-34.218,-121.47,-46.741,3.5344,-4.2097e-13,-8.0271e-17,81.942,-121.61,-46.741,-34.075,0,0.016859,0,1,4.145,0,-4.145,0
0,0,0,0,0,0,8.131e-05,-0.00048575,1.1194e-35,2.2942e-05,-2.7044e-18,-5.1389e-22,1.1595,0.00053258,-0.00048668,2.1349e-32,8.2238e-05,-34.177,-121.33,-46.686,3.528,-4.1576e-13,-7.9659e-17,81.847,-121.47,-46.686,-34.034,0,0.016862,0,1,4.15,0,-4.15,0
0,0,0,0,0,0,8.1221e-05,-0.00048519,1.1092e-35,2.29e-05,-2.6705e-18,-5.0996e-22,1.1567,0.00053196,-0.00048611,2.1142e-32,8.2146e-05,-34.136,-121.19,-46.631,3.5215,-4.1055e-13,-7.9047e-17,81.752,-121.33,-46.631,-33.993,0,0.016864,0,1,4.155,0,-4.155,0
0,0,0,0,0,0,8.1131e-05,-0.00048462,1.099e-35,2.2858e-05,-2.6366e-18,-5.0603e-22,1.1538,0.00053134,-0.00048554,2.0936e-32,8.2055e-05,-34.094,-121.04,-46.575,3.515,-4.0534e-13,-7.8434e-17,81.657,-121.19,-46.575,-33.952,0,0.016866,0,1,4.16,0,-4.16,0
0,0,0,0,0,0,8.1041e-05,-0.00048405,1.0888e-35,2.2816e-05,-2.6027e-18,-5.021e-22,1.151,0.00053072,-0.00048497,2.0729e-32,8.1963e-05,-34.053,-120.9,-46.52,3.5085,-4.0013e-13,-7.7822e-17,81.562,-121.04,-46.52,-33.911,0,0.016869,0,1,4.165,0,-4.165,0
0,0,0,0,0,0,8.0952e-05,-0.00048349,1.0787e-35,2.2773e-05,-2.5688e-18,-4.9817e-22,1.1482,0.0005301,-0.00048441,2.0522e-32,8.1871e-05,-34.012,-120.76,-46.465,3.502,-3.9492e-13,-7.721e-17,81.466,-120.9,-46.465,-33.87,0,0.016871,0,1,4.17,0,-4.17,0
0,0,0,0,0,0,8.0862e-05,-0.00048292,1.0685e-35,2.2731e-05,-2.535e-18,-4.9424e-22,1.1454,0.00052948,-0.00048384,2.0315e-32,8.1779e-05,-33.97,-120.62,-46.41,3.4955,-3.8971e-13,-7.6597e-17,81.371,-120.76,-46.41,-33.829,0,0.016873,0,1,4.175,0,-4.175,0
0,0,0,0,0,0,8.0772e-05,-0.00048235,1.0583e-35,2.2689e-05,-2.5011e-18,-4.9031e-22,1.1426,0.00052886,-0.00048327,2.0109e-32,8.1687e-05,-33.929,-120.48,-46.355,3.4891,-3.845e-13,-7.5985e-17,81.276,-120.62,-46.355,-33.788,0,0.016876,0,1,4.18,0,-4.18,0
0,0,0,0,0,0,8.0683e-05,-0.00048179,1.0481e-35,2.2647e-05,-2.4672e-18,-4.8638e-22,1.1397,0.00052824,-0.0004827,1.9902e-32,8.1595e-05,-33.888,-120.33,-46.3,3.4826,-3.7929e-13,-7.5373e-17,81.181,-120.47,-46.3,-33.747,0,0.016878,0,1,4.185,0,-4.185,0
0,0,0,0,0,0,8.0593e-05,-0.00048122,1.0379e-35,2.2605e-05,-2.4333e-18,-4.8245e-22,1.1369,0.00052762,-0.00048213,1.9695e-32,8.1503e-05,-33.846,-120.19,-46.245,3.4761,-3.7408e-13,-7.476e-17,81.086,-120.33,-46.245,-33.707,0,0.01688,0,1,4.19,0,-4.19,0
0,0,0,0,0,0,8.0503e-05,-0.00048065,1.0278e-35,2.2562e-05,-2.3994e-18,-4.7852e-22,1.1341,0.000527,-0.00048156,1.9489e-32,8.1411e-05,-33.805,-120.05,-46.19,3.4696,-3.6887e-13,-7.4148e-17,80.99,-120.19,-46.19,-33.666,0,0.016882,0,1,4.195,0,-4.195,0
0,0,0,0,0,0,8.0414e-05,-0.00048009,1.0176e-35,2.252e-05,-2.3655e-18,-4.7459e-22,1.1313,0.00052638,-0.00048099,1.9282e-32,8.1319e-05,-33.764,-119.91,-46.135,3.4631,-3.6366e-13,-7.3536e-17,80.895,-120.05,-46.135,-33.625,0,0.016885,0,1,4.2,0,-4.2,0
0,0,0,0,0,0,8.0324e-05,-0.00047952,1.0074e-35,2.2478e-05,-2.3316e-18,-4.7066e-22,1.1285,0.00052576,-0.00048042,1.9075e-32,8.1227e-05,-33.723,-119.76,-46.08,3.4566,-3.5845e-13,-7.2924e-17,80.8,-119.9,-46.08,-33.584,0,0.016887,0,1,4.205,0,-4.205,0
0,0,0,0,0,0,8.0234e-05,-0.00047895,9.9722e-36,2.2436e-05,-2.2977e-18,-4.6673e-22,1.1257,0.00052514,-0.00047985,1.8868e-32,8.1135e-05,-33.681,-119.62,-46.025,3.4502,-3.5324e-13,-7.2311e-17,80.705,-119.76,-46.025,-33.543,0,0.016889,0,1,4.21,0,-4.21,0
0,0,0,0,0,0,8.0145e-05,-0.00047839,9.8704e-36,2.2394e-05,-2.2638e-18,-4.628e-22,1.1228,0.00052452,-0.00047928,1.8662e-32,8.1043e-05,-33.64,-119.48,-45.969,3.4437,-3.4803e-13,-7.1699e-17,80.61,-119.62,-45.969,-33.502,0,0.016892,0,1,4.215,0,-4.215,0
0,0,0,0,0,0,8.0055e-05,-0.00047782,9.7686e-36,2.2352e-05,-2.2299e-18,-4.5887e-22,1.12,0.0005239,-0.00047871,1.8455e-32,8.0951e-05,-33.599,-119.34,-45.914,3.4372,-3.4282e-13,-7.1087e-17,80.514,-119.48,-45.914,-33.461,0,0.016894,0,1,4.22,0,-4.22,0
0,0,0,0,0,0,7.9965e-05,-0.00047725,9.6668e-36,2.2309e-05,-2.196e-18,-4.5494e-22,1.1172,0.00052328,-0.00047815,1.8248e-32,8.0859e-05,-33.557,-119.2,-45.859,3.4307,-3.3761e-13,-7.0474e-17,80.419,-119.33,-45.859,-33.42,0,0.016896,0,1,4.225,0,-4.225,0
0,0,0,0,0,0,7.9876e-05,-0.00047669,9.565e-36,2.2267e-05,-2.1622e-18,-4.5101e-22,1.1144,0.00052266,-0.00047758,1.8042e-32,8.0767e-05,-33.516,-119.05,-45.804,3.4242,-3.324e-13,-6.9862e-17,80.324,-119.19,-45.804,-33.379,0,0.016899,0,1,4.23,0,-4.23,0
0,0,0,0,0,0,7.9786e-05,-0.00047612,9.4632e-36,2.2225e-05,-2.1283e-18,-4.4708e-22,1.1116,0.00052204,-0.00047701,1.7835e-32,8.0675e-05,-33.475,-118.91,-45.749,3.4177,-3.2719e-13,-6.925e-17,80.229,-119.05,-45.749,-33.338,0,0.016901,0,1,4.235,0,-4.235,0
0,0,0,0,0,0,7.9696e-05,-0.00047555,9.3614e-36,2.2183e-05,-2.0944e-18,-4.4316e-22,1.1087,0.00052142,-0.00047644,1.7628e-32,8.0583e-05,-33.434,-118.77,-45.694,3.4112,-3.2198e-13,-6.8638e-17,80.133,-118.91,-45.694,-33.297,0,0.016903,0,1,4.24,0,-4.24,0
0,0,0,0,0,0,7.9607e-05,-0.00047498,9.2596e-36,2.2141e-05,-2.0605e-18,-4.3923e-22,1.1059,0.0005208,-0.00047587,1.7421e-32,8.0491e-05,-33.392,-118.63,-45.639,3.4048,-3.1676e-13,-6.8025e-17,80.038,-118.76,-45.639,-33.256,0,0.016906,0,1,4.245,0,-4.245,0
0,0,0,0,0,0,7.9517e-05,-0.00047442,9.1577e-36,2.2099e-05,-2.0266e-18,-4.353e-22,1.1031,0.00052018,-0.0004753,1.7215e-32,8.0399e-05,-33.351,-118.49,-45.584,3.3983,-3.1155e-13,-6.7413e-17,79.943,-118.62,-45.584,-33.215,0,0.016908,0,1,4.25,0,-4.25,0
0,0,0,0,0,0,7.9427e-05,-0.00047385,9.0559e-36,2.2056e-05,-1.9927e-18,-4.3137e-22,1.1003,0.00051956,-0.00047473,1.7008e-32,8.0307e-05,-33.31,-118.34,-45.529,3.3918,-3.0634e-13,-6.6801e-17,79.848,-118.48,-45.529,-33.174,0,0.01691,0,1,4.255,0,-4.255,0
0,0,0,0,0,0,7.9338e-05,-0.00047328,8.9541e-36,2.2014e-05,-1.9588e-18,-4.2744e-22,1.0975,0.00051894,-0.00047416,1.6801e-32,8.0215e-05,-33.268,-118.2,-45.474,3.3853,-3.0113e-13,-6.6188e-17,79.753,-118.34,-45.474,-33.133,0,0.016913,0,1,4.26,0,-4.26,0
0,0,0,0,0,0,7.9248e-05,-0.00047272,8.8523e-36,2.1972e-05,-1.9249e-18,-4.2351e-22,1.0947,0.00051832,-0.00047359,1.6594e-32,8.0123e-05,-33.227,-118.06,-45.419,3.3788,-2.9592e-13,-6.5576e-17,79.657,-118.19,-45.419,-33.092,0,0.016915,0,1,4.265,0,-4.265,0
0,0,0,0,0,0,7.9158e-05,-0.00047215,8.7505e-36,2.193e-05,-1.891e-18,-4.1958e-22,1.0918,0.0005177,-0.00047302,1.6388e-32,8.0031e-05,-33.186,-117.92,-45.363,3.3723,-2.9071e-13,-6.4964e-17,79.562,-118.05,-45.363,-33.051,0,0.016917,0,1,4.27,0,-4.27,0
0,0,0,0,0,0,7.9068e-05,-0.00047158,8.6487e-36,2.1888e-05,-1.8571e-18,-4.1565e-22,1.089,0.00051708,-0.00047246,1.6181e-32,7.9939e-05,-33.144,-117.78,-45.308,3.3659,-2.855e-13,-6.4351e-17,79.467,-117.91,-45.308,-33.01,0,0.016919,0,1,4.275,0,-4.275,0
0,0,0,0,0,0,7.8979e-05,-0.00047102,8.5469e-36,2.1845e-05,-1.8232e-18,-4.1172e-22,1.0862,0.00051646,-0.00047189,1.5974e-32,7.9847e-05,-33.103,-117.63,-45.253,3.3594,-2.8029e-13,-6.3739e-17,79.372,-117.77,-45.253,-32.97,0,0.016922,0,1,4.28,0,-4.28,0
0,0,0,0,0,0,7.8889e-05,-0.00047045,8.4451e-36,2.1803e-05,-1.7894e-18,-4.0779e-22,1.0834,0.00051584,-0.00047132,1.5768e-32,7.9755e-05,-33.062,-117.49,-45.198,3.3529,-2.7508e-13,-6.3127e-17,79.277,-117.62,-45.198,-32.929,0,0.016924,0,1,4.285,0,-4.285,0
0,0,0,0,0,0,7.8799e-05,-0.00046988,8.3433e-36,2.1761e-05,-1.7555e-18,-4.0386e-22,1.0806,0.00051522,-0.00047075,1.5561e-32,7.9663e-05,-33.021,-117.35,-45.143,3.3464,-2.6987e-13,-6.2515e-17,79.181,-117.48,-45.143,-32.888,0,0.016926,0,1,4.29,0,-4.29,0
0,0,0,0,0,0,7.871e-05,-0.00046932,8.2415e-36,2.1719e-05,-1.7216e-18,-3.9993e-22,1.0777,0.0005146,-0.00047018,1.5354e-32,7.9571e-05,-32.979,-117.21,-45.088,3.3399,-2.6466e-13,-6.1902e-17,79.086,-117.34,-45.088,-32.847,0,0.016929,0,1,4.295,0,-4.295,0
0,0,0,0,0,0,7.862e-05,-0.00046875,8.1397e-36,2.1677e-05,-1.6877e-18,-3.96e-22,1.0749,0.00051398,-0.00046961,1.5147e-32,7.9479e-05,-32.938,-117.07,-45.033,3.3334,-2.5945e-13,-6.129e-17,78.991,-117.2,-45.033,-32.806,0,0.016931,0,1,4.3,0,-4.3,0
0,0,0,0,0,0,7.853e-05,-0.00046818,8.0379e-36,2.1635e-05,-1.6538e-18,-3.9207e-22,1.0721,0.00051336,-0.00046904,1.4941e-32,7.9387e-05,-32.897,-116.92,-44.978,3.327,-2.5424e-13,-6.0678e-17,78.896,-117.05,-44.978,-32.765,0,0.016933,0,1,4.305,0,-4.305,0
0,0,0,0,0,0,7.8441e-05,-0.00046762,7.9361e-36,2.1592e-05,-1.6199e-18,-3.8814e-22,1.0693,0.00051274,-0.00046847,1.4734e-32,7.9295e-05,-32.855,-116.78,-44.923,3.3205,-2.4903e-13,-6.0065e-17,78.801,-116.91,-44.923,-32.724,0,0.016936,0,1,4.31,0,-4.31,0
0,0,0,0,0,0,7.8351e-05,-0.00046705,7.8343e-36,2.155e-05,-1.586e-18,-3.8421e-22,1.0665,0.00051212,-0.0004679,1.4527e-32,7.9203e-05,-32.814,-116.64,-44.868,3.314,-2.4382e-13,-5.9453e-17,78.705,-116.77,-44.868,-32.683,0,0.016938,0,1,4.315,0,-4.315,0
0,0,0,0,0,0,7.8261e-05,-0.00046648,7.7325e-36,2.1508e-05,-1.5521e-18,-3.8028e-22,1.0637,0.0005115,-0.00046733,1.432e-32,7.9111e-05,-32.773,-116.5,-44.813,3.3075,-2.3861e-13,-5.8841e-17,78.61,-116.63,-44.813,-32.642,0,0.01694,0,1,4.32,0,-4.32,0
0,0,0,0,0,0,7.8172e-05,-0.00046592,7.6307e-36,2.1466e-05,-1.5182e-18,-3.7635e-22,1.0608,0.00051088,-0.00046676,1.4114e-32,7.9019e-05,-32.731,-116.35,-44.757,3.301,-2.334e-13,-5.8229e-17,78.515,-116.49,-44.757,-32.601,0,0.016943,0,1,4.325,0,-4.325,0
0,0,0,0,0,0,7.8082e-05,-0.00046535,7.5289e-36,2.1424e-05,-1.4843e-18,-3.7242e-22,1.058,0.00051026,-0.0004662,1.3907e-32,7.8927e-05,-32.69,-116.21,-44.702,3.2945,-2.2819e-13,-5.7616e-17,78.42,-116.34,-44.702,-32.56,0,0.016945,0,1,4.33,0,-4.33,0
0,0,0,0,0,0,7.7992e-05,-0.00046478,7.4271e-36,2.1382e-05,-1.4504e-18,-3.6849e-22,1.0552,0.00050964,-0.00046563,1.37e-32,7.8835e-05,-32.649,-116.07,-44.647,3.288,-2.2298e-13,-5.7004e-17,78.324,-116.2,-44.647,-32.519,0,0.016947,0,1,4.335,0,-4.335,0
0,0,0,0,0,0,7.7903e-05,-0.00046422,7.3253e-36,2.1339e-05,-1.4166e-18,-3.6456e-22,1.0524,0.00050902,-0.00046506,1.3494e-32,7.8743e-05,-32.608,-115.93,-44.592,3.2816,-2.1777e-13,-5.6392e-17,78.229,-116.06,-44.592,-32.478,0,0.01695,0,1,4.34,0,-4.34,0
0,0,0,0,0,0,7.7813e-05,-0.00046365,7.2235e-36,2.1297e-05,-1.3827e-18,-3.6063e-22,1.0496,0.0005084,-0.00046449,1.3287e-32,7.8651e-05,-32.566,-115.79,-44.537,3.2751,-2.1256e-13,-5.5779e-17,78.134,-115.92,-44.537,-32.437,0,0.016952,0,1,4.345,0,-4.345,0
0,0,0,0,0,0,7.7723e-05,-0.00046308,7.1216e-36,2.1255e-05,-1.3488e-18,-3.567e-22,1.0468,0.00050778,-0.00046392,1.308e-32,7.856e-05,-32.525,-115.64,-44.482,3.2686,-2.0735e-13,-5.5167e-17,78.039,-115.77,-44.482,-32.396,0,0.016954,0,1,4.35,0,-4.35,0
0,0,0,0,0,0,7.7634e-05,-0.00046252,7.0198e-36,2.1213e-05,-1.3149e-18,-3.5277e-22,1.0439,0.00050716,-0.00046335,1.2873e-32,7.8468e-05,-32.484,-115.5,-44.427,3.2621,-2.0214e-13,-5.4555e-17,77.944,-115.63,-44.427,-32.355,0,0.016957,0,1,4.355,0,-4.355,0
0,0,0,0,0,0,7.7544e-05,-0.00046195,6.918e-36,2.1171e-05,-1.281e-18,-3.4884e-22,1.0411,0.00050654,-0.00046278,1.2667e-32,7.8376e-05,-32.442,-115.36,-44.372,3.2556,-1.9693e-13,-5.3942e-17,77.848,-115.49,-44.372,-32.314,0,0.016959,0,1,4.36,0,-4.36,0
0,0,0,0,0,0,7.7454e-05,-0.00046138,6.8162e-36,2.1128e-05,-1.2471e-18,-3.4491e-22,1.0383,0.00050592,-0.00046221,1.246e-32,7.8284e-05,-32.401,-115.22,-44.317,3.2491,-1.9172e-13,-5.333e-17,77.753,-115.35,-44.317,-32.274,0,0.016961,0,1,4.365,0,-4.365,0
0,0,0,0,0,0,7.7365e-05,-0.00046082,6.7144e-36,2.1086e-05,-1.2132e-18,-3.4098e-22,1.0355,0.0005053,-0.00046164,1.2253e-32,7.8192e-05,-32.36,-115.08,-44.262,3.2427,-1.8651e-13,-5.2718e-17,77.658,-115.2,-44.262,-32.233,0,0.016963,0,1,4.37,0,-4.37,0
0,0,0,0,0,0,7.7275e-05,-0.00046025,6.6126e-36,2.1044e-05,-1.1793e-18,-3.3705e-22,1.0327,0.00050468,-0.00046107,1.2047e-32,7.81e-05,-32.319,-114.93,-44.207,3.2362,-1.813e-13,-5.2106e-17,77.563,-115.06,-44.207,-32.192,0,0.016966,0,1,4.375,0,-4.375,0
0,0,0,0,0,0,7.7185e-05,-0.00045968,6.5108e-36,2.1002e-05,-1.1454e-18,-3.3312e-22,1.0298,0.00050406,-0.00046051,1.184e-32,7.8008e-05,-32.277,-114.79,-44.151,3.2297,-1.7609e-13,-5.1493e-17,77.468,-114.92,-44.151,-32.151,0,0.016968,0,1,4.38,0,-4.38,0
0,0,0,0,0,0,7.7096e-05,-0.00045912,6.409e-36,2.096e-05,-1.1115e-18,-3.2919e-22,1.027,0.00050344,-0.00045994,1.1633e-32,7.7916e-05,-32.236,-114.65,-44.096,3.2232,-1.7088e-13,-5.0881e-17,77.372,-114.78,-44.096,-32.11,0,0.01697,0,1,4.385,0,-4.385,0
0,0,0,0,0,0,7.7006e-05,-0.00045855,6.3072e-36,2.0918e-05,-1.0776e-18,-3.2526e-22,1.0242,0.00050282,-0.00045937,1.1426e-32,7.7824e-05,-32.195,-114.51,-44.041,3.2167,-1.6567e-13,-5.0269e-17,77.277,-114.63,-44.041,-32.069,0,0.016973,0,1,4.39,0,-4.39,0
0,0,0,0,0,0,7.6916e-05,-0.00045798,6.2054e-36,2.0875e-05,-1.0438e-18,-3.2133e-22,1.0214,0.0005022,-0.0004588,1.122e-32,7.7732e-05,-32.153,-114.37,-43.986,3.2102,-1.6046e-13,-4.9656e-17,77.182,-114.49,-43.986,-32.028,0,0.016975,0,1,4.395,0,-4.395,0
0,0,0,0,0,0,7.6827e-05,-0.00045742,6.1036e-36,2.0833e-05,-1.0099e-18,-3.174e-22,1.0186,0.00050158,-0.00045823,1.1013e-32,7.764e-05,-32.112,-114.22,-43.931,3.2038,-1.5525e-13,-4.9044e-17,77.087,-114.35,-43.931,-31.987,0,0.016977,0,1,4.4,0,-4.4,0
0,0,0,0,0,0,7.6737e-05,-0.00045685,6.0018e-36,2.0791e-05,-9.7597e-19,-3.1347e-22,1.0158,0.00050096,-0.00045766,1.0806e-32,7.7548e-05,-32.071,-114.08,-43.876,3.1973,-1.5004e-13,-4.8432e-17,76.992,-114.21,-43.876,-31.946,0,0.01698,0,1,4.405,0,-4.405,0
0,0,0,0,0,0,7.6647e-05,-0.00045628,5.9e-36,2.0749e-05,-9.4208e-19,-3.0954e-22,1.0129,0.00050034,-0.00045709,1.0599e-32,7.7456e-05,-32.029,-113.94,-43.821,3.1908,-1.4483e-13,-4.782e-17,76.896,-114.06,-43.821,-31.905,0,0.016982,0,1,4.41,0,-4.41,0
0,0,0,0,0,0,7.6558e-05,-0.00045572,5.7982e-36,2.0707e-05,-9.0819e-19,-3.0561e-22,1.0101,0.00049972,-0.00045652,1.0393e-32,7.7364e-05,-31.988,-113.8,-43.766,3.1843,-1.3962e-13,-4.7207e-17,76.801,-113.92,-43.766,-31.864,0,0.016984,0,1,4.415,0,-4.415,0
0,0,0,0,0,0,7.6468e-05,-0.00045515,5.6964e-36,2.0665e-05,-8.743e-19,-3.0168e-22,1.0073,0.0004991,-0.00045595,1.0186e-32,7.7272e-05,-31.947,-113.66,-43.711,3.1778,-1.3441e-13,-4.6595e-17,76.706,-113.78,-43.711,-31.823,0,0.016987,0,1,4.42,0,-4.42,0
0,0,0,0,0,0,7.6378e-05,-0.00045458,5.5946e-36,2.0622e-05,-8.404e-19,-2.9775e-22,1.0045,0.00049848,-0.00045538,9.9792e-33,7.718e-05,-31.906,-113.51,-43.656,3.1713,-1.292e-13,-4.5983e-17,76.611,-113.64,-43.656,-31.782,0,0.016989,0,1,4.425,0,-4.425,0
0,0,0,0,0,0,7.6289e-05,-0.00045402,5.4928e-36,2.058e-05,-8.0652e-19,-2.9382e-22,1.0017,0.00049786,-0.00045481,9.7725e-33,7.7088e-05,-31.864,-113.37,-43.601,3.1648,-1.2399e-13,-4.537e-17,76.515,-113.49,-43.601,-31.741,0,0.016991,0,1,4.43,0,-4.43,0
0,0,0,0,0,0,7.6199e-05,-0.00045345,5.391e-36,2.0538e-05,-7.7262e-19,-2.899e-22,0.99885,0.00049723,-0.00045425,9.5658e-33,7.6996e-05,-31.823,-113.23,-43.545,3.1584,-1.1878e-13,-4.4758e-17,76.42,-113.35,-43.545,-31.7,0,0.016994,0,1,4.435,0,-4.435,0
0,0,0,0,0,0,7.6109e-05,-0.00045288,5.2892e-36,2.0496e-05,-7.3873e-19,-2.8597e-22,0.99603,0.00049661,-0.00045368,9.3591e-33,7.6904e-05,-31.782,-113.09,-43.49,3.1519,-1.1357e-13,-4.4146e-17,76.325,-113.21,-43.49,-31.659,0,0.016996,0,1,4.44,0,-4.44,0
0,0,0,0,0,0,7.602e-05,-0.00045231,5.1873e-36,2.0454e-05,-7.0484e-19,-2.8204e-22,0.99321,0.00049599,-0.00045311,9.1524e-33,7.6812e-05,-31.74,-112.94,-43.435,3.1454,-1.0836e-13,-4.3533e-17,76.23,-113.07,-43.435,-31.618,0,0.016998,0,1,4.445,0,-4.445,0
0,0,0,0,0,0,7.593e-05,-0.00045175,5.0855e-36,2.0411e-05,-6.7095e-19,-2.7811e-22,0.99039,0.00049537,-0.00045254,8.9456e-33,7.672e-05,-31.699,-112.8,-43.38,3.1389,-1.0315e-13,-4.2921e-17,76.135,-112.92,-43.38,-31.577,0,0.017,0,1,4.45,0,-4.45,0
0,0,0,0,0,0,7.584e-05,-0.00045118,4.9837e-36,2.0369e-05,-6.3706e-19,-2.7418e-22,0.98757,0.00049475,-0.00045197,8.7389e-33,7.6628e-05,-31.658,-112.66,-43.325,3.1324,-9.7936e-14,-4.2309e-17,76.039,-112.78,-43.325,-31.537,0,0.017003,0,1,4.455,0,-4.455,0
0,0,0,0,0,0,7.5751e-05,-0.00045061,4.8819e-36,2.0327e-05,-6.0317e-19,-2.7025e-22,0.98476,0.00049413,-0.0004514,8.5322e-33,7.6536e-05,-31.616,-112.52,-43.27,3.1259,-9.2726e-14,-4.1697e-17,75.944,-112.64,-43.27,-31.496,0,0.017005,0,1,4.46,0,-4.46,0
0,0,0,0,0,0,7.5661e-05,-0.00045005,4.7801e-36,2.0285e-05,-5.6928e-19,-2.6632e-22,0.98194,0.00049351,-0.00045083,8.3255e-33,7.6444e-05,-31.575,-112.38,-43.215,3.1195,-8.7516e-14,-4.1084e-17,75.849,-112.5,-43.215,-31.455,0,0.017007,0,1,4.465,0,-4.465,0
0,0,0,0,0,0,7.5571e-05,-0.00044948,4.6783e-36,2.0243e-05,-5.3539e-19,-2.6239e-22,0.97912,0.00049289,-0.00045026,8.1187e-33,7.6352e-05,-31.534,-112.23,-43.16,3.113,-8.2306e-14,-4.0472e-17,75.754,-112.35,-43.16,-31.414,0,0.01701,0,1,4.47,0,-4.47,0
0,0,0,0,0,0,7.5482e-05,-0.00044891,4.5765e-36,2.0201e-05,-5.015e-19,-2.5846e-22,0.9763,0.00049227,-0.00044969,7.912e-33,7.626e-05,-31.493,-112.09,-43.105,3.1065,-7.7095e-14,-3.986e-17,75.659,-112.21,-43.105,-31.373,0,0.017012,0,1,4.475,0,-4.475,0
0,0,0,0,0,0,7.5392e-05,-0.00044835,4.4747e-36,2.0158e-05,-4.676e-19,-2.5453e-22,0.97348,0.00049165,-0.00044912,7.7053e-33,7.6168e-05,-31.451,-111.95,-43.05,3.1,-7.1885e-14,-3.9247e-17,75.563,-112.07,-43.05,-31.332,0,0.017014,0,1,4.48,0,-4.48,0
0,0,0,0,0,0,7.5302e-05,-0.00044778,4.3729e-36,2.0116e-05,-4.3371e-19,-2.506e-22,0.97067,0.00049103,-0.00044855,7.4986e-33,7.6076e-05,-31.41,-111.81,-42.995,3.0935,-6.6675e-14,-3.8635e-17,75.468,-111.93,-42.995,-31.291,0,0.017017,0,1,4.485,0,-4.485,0
0,0,0,0,0,0,7.5213e-05,-0.00044721,4.2711e-36,2.0074e-05,-3.9982e-19,-2.4667e-22,0.96785,0.00049041,-0.00044799,7.2918e-33,7.5984e-05,-31.369,-111.67,-42.939,3.087,-6.1465e-14,-3.8023e-17,75.373,-111.78,-42.939,-31.25,0,0.017019,0,1,4.49,0,-4.49,0
0,0,0,0,0,0,7.5123e-05,-0.00044665,4.1693e-36,2.0032e-05,-3.6593e-19,-2.4274e-22,0.96503,0.00048979,-0.00044742,7.0851e-33,7.5892e-05,-31.327,-111.52,-42.884,3.0806,-5.6255e-14,-3.7411e-17,75.278,-111.64,-42.884,-31.209,0,0.017021,0,1,4.495,0,-4.495,0
0,0,0,0,0,0,7.5033e-05,-0.00044608,4.0675e-36,1.999e-05,-3.3204e-19,-2.3881e-22,0.96221,0.00048917,-0.00044685,6.8784e-33,7.58e-05,-31.286,-111.38,-42.829,3.0741,-5.1044e-14,-3.6798e-17,75.183,-111.5,-42.829,-31.168,0,0.017024,0,1,4.5,0,-4.5,0
0,0,0,0,0,0,7.4943e-05,-0.00044551,3.9657e-36,1.9948e-05,-2.9815e-19,-2.3488e-22,0.95939,0.00048855,-0.00044628,6.6717e-33,7.5708e-05,-31.245,-111.24,-42.774,3.0676,-4.5834e-14,-3.6186e-17,75.087,-111.36,-42.774,-31.127,0,0.017026,0,1,4.505,0,-4.505,0
0,0,0,0,0,0,7.4854e-05,-0.00044495,3.8639e-36,1.9905e-05,-2.6426e-19,-2.3095e-22,0.95658,0.00048793,-0.00044571,6.4649e-33,7.5616e-05,-31.204,-111.1,-42.719,3.0611,-4.0624e-14,-3.5574e-17,74.992,-111.21,-42.719,-31.086,0,0.017028,0,1,4.51,0,-4.51,0
0,0,0,0,0,0,7.4764e-05,-0.00044438,3.7621e-36,1.9863e-05,-2.3037e-19,-2.2702e-22,0.95376,0.00048731,-0.00044514,6.2582e-33,7.5524e-05,-31.162,-110.96,-42.664,3.0546,-3.5414e-14,-3.4961e-17,74.897,-111.07,-42.664,-31.045,0,0.017031,0,1,4.515,0,-4.515,0
0,0,0,0,0,0,7.4674e-05,-0.00044381,3.6603e-36,1.9821e-05,-1.9648e-19,-2.2309e-22,0.95094,0.00048669,-0.00044457,6.0515e-33,7.5432e-05,-31.121,-110.81,-42.609,3.0481,-3.0203e-14,-3.4349e-17,74.802,-110.93,-42.609,-31.004,0,0.017033,0,1,4.52,0,-4.52,0
0,0,0,0,0,0,7.4585e-05,-0.00044325,3.5585e-36,1.9779e-05,-1.6259e-19,-2.1916e-22,0.94812,0.00048607,-0.000444,5.8448e-33,7.534e-05,-31.08,-110.67,-42.554,3.0416,-2.4993e-14,-3.3737e-17,74.706,-110.79,-42.554,-30.963,0,0.017035,0,1,4.525,0,-4.525,0
0,0,0,0,0,0,7.4495e-05,-0.00044268,3.4567e-36,1.9737e-05,-1.2869e-19,-2.1523e-22,0.9453,0.00048545,-0.00044343,5.638e-33,7.5248e-05,-31.038,-110.53,-42.499,3.0352,-1.9783e-14,-3.3124e-17,74.611,-110.65,-42.499,-30.922,0,0.017037,0,1,4.53,0,-4.53,0
0,0,0,0,0,0,7.4405e-05,-0.00044211,3.3549e-36,1.9694e-05,-9.4805e-20,-2.113e-22,0.94249,0.00048483,-0.00044286,5.4313e-33,7.5156e-05,-30.997,-110.39,-42.444,3.0287,-1.4573e-14,-3.2512e-17,74.516,-110.5,-42.444,-30.881,0,0.01704,0,1,4.535,0,-4.535,0
0,0,0,0,0,0,7.4316e-05,-0.00044155,3.2531e-36,1.9652e-05,-6.0914e-20,-2.0737e-22,0.93967,0.00048421,-0.0004423,5.2246e-33,7.5065e-05,-30.956,-110.25,-42.389,3.0222,-9.3627e-15,-3.19e-17,74.421,-110.36,-42.389,-30.841,0,0.017042,0,1,4.54,0,-4.54,0
0,0,0,0,0,0,7.4226e-05,-0.00044098,3.1512e-36,1.961e-05,-2.7022e-20,-2.0344e-22,0.93685,0.00048359,-0.00044173,5.0179e-33,7.4973e-05,-30.914,-110.1,-42.333,3.0157,-4.1523e-15,-3.1288e-17,74.326,-110.22,-42.333,-30.8,0,0.017044,0,1,4.545,0,-4.545,0
0,0,0,0,0,0,7.4136e-05,-0.00044041,3.0494e-36,1.9568e-05,6.87e-21,-1.9951e-22,0.93403,0.00048297,-0.00044116,4.8111e-33,7.4881e-05,-30.873,-109.96,-42.278,3.0092,1.058e-15,-3.0675e-17,74.23,-110.08,-42.278,-30.759,0,0.017047,0,1,4.55,0,-4.55,0
0,0,0,0,0,0,7.4047e-05,-0.00043985,2.9476e-36,1.9526e-05,4.0759e-20,-1.9558e-22,0.93121,0.00048235,-0.00044059,4.6044e-33,7.4789e-05,-30.832,-109.82,-42.223,3.0027,6.2678e-15,-3.0063e-17,74.135,-109.93,-42.223,-30.718,0,0.017049,0,1,4.555,0,-4.555,0
0,0,0,0,0,0,7.3957e-05,-0.00043928,2.8458e-36,1.9484e-05,7.465e-20,-1.9165e-22,0.9284,0.00048173,-0.00044002,4.3977e-33,7.4697e-05,-30.791,-109.68,-42.168,2.9963,1.1478e-14,-2.9451e-17,74.04,-109.79,-42.168,-30.677,0,0.017051,0,1,4.56,0,-4.56,0
0,0,0,0,0,0,7.3867e-05,-0.00043871,2.744e-36,1.9441e-05,1.0854e-19,-1.8772e-22,0.92558,0.00048111,-0.00043945,4.191e-33,7.4605e-05,-30.749,-109.53,-42.113,2.9898,1.6688e-14,-2.8838e-17,73.945,-109.65,-42.113,-30.636,0,0.017054,0,1,4.565,0,-4.565,0
0,0,0,0,0,0,7.3778e-05,-0.00043815,2.6422e-36,1.9399e-05,1.4243e-19,-1.8379e-22,0.92276,0.00048049,-0.00043888,3.9842e-33,7.4513e-05,-30.708,-109.39,-42.058,2.9833,2.1899e-14,-2.8226e-17,73.85,-109.51,-42.058,-30.595,0,0.017056,0,1,4.57,0,-4.57,0
0,0,0,0,0,0,7.3688e-05,-0.00043758,2.5404e-36,1.9357e-05,1.7632e-19,-1.7986e-22,0.91994,0.00047987,-0.00043831,3.7775e-33,7.4421e-05,-30.667,-109.25,-42.003,2.9768,2.7109e-14,-2.7614e-17,73.754,-109.36,-42.003,-30.554,0,0.017058,0,1,4.575,0,-4.575,0
0,0,0,0,0,0,7.3598e-05,-0.00043701,2.4386e-36,1.9315e-05,2.1021e-19,-1.7593e-22,0.91712,0.00047925,-0.00043774,3.5708e-33,7.4329e-05,-30.625,-109.11,-41.948,2.9703,3.2319e-14,-2.7002e-17,73.659,-109.22,-41.948,-30.513,0,0.017061,0,1,4.58,0,-4.58,0
0,0,0,0,0,0,7.3509e-05,-0.00043645,2.3368e-36,1.9273e-05,2.4411e-19,-1.72e-22,0.91431,0.00047863,-0.00043717,3.3641e-33,7.4237e-05,-30.584,-108.97,-41.893,2.9638,3.7529e-14,-2.6389e-17,73.564,-109.08,-41.893,-30.472,0,0.017063,0,1,4.585,0,-4.585,0
0,0,0,0,0,0,7.3419e-05,-0.00043588,2.235e-36,1.923e-05,2.78e-19,-1.6807e-22,0.91149,0.00047801,-0.0004366,3.1573e-33,7.4145e-05,-30.543,-108.82,-41.838,2.9574,4.274e-14,-2.5777e-17,73.469,-108.94,-41.838,-30.431,0,0.017065,0,1,4.59,0,-4.59,0
0,0,0,0,0,0,7.3329e-05,-0.00043531,2.1332e-36,1.9188e-05,3.1189e-19,-1.6414e-22,0.90867,0.00047739,-0.00043604,2.9506e-33,7.4053e-05,-30.501,-108.68,-41.783,2.9509,4.7949e-14,-2.5165e-17,73.374,-108.79,-41.783,-30.39,0,0.017068,0,1,4.595,0,-4.595,0
0,0,0,0,0,0,7.324e-05,-0.00043475,2.0314e-36,1.9146e-05,3.4578e-19,-1.6021e-22,0.90585,0.00047677,-0.00043547,2.7439e-33,7.3961e-05,-30.46,-108.54,-41.727,2.9444,5.316e-14,-2.4552e-17,73.278,-108.65,-41.727,-30.349,0,0.01707,0,1,4.6,0,-4.6,0
0,0,0,0,0,0,7.315e-05,-0.00043418,1.9296e-36,1.9104e-05,3.7967e-19,-1.5628e-22,0.90304,0.00047615,-0.0004349,2.5372e-33,7.3869e-05,-30.419,-108.4,-41.672,2.9379,5.837e-14,-2.394e-17,73.183,-108.51,-41.672,-30.308,0,0.017072,0,1,4.605,0,-4.605,0
0,0,0,0,0,0,7.306e-05,-0.00043361,1.8278e-36,1.9062e-05,4.1356e-19,-1.5235e-22,0.90022,0.00047553,-0.00043433,2.3304e-33,7.3777e-05,-30.378,-108.26,-41.617,2.9314,6.358e-14,-2.3328e-17,73.088,-108.37,-41.617,-30.267,0,0.017074,0,1,4.61,0,-4.61,0
0,0,0,0,0,0,7.2971e-05,-0.00043305,1.726e-36,1.902e-05,4.4745e-19,-1.4842e-22,0.8974,0.00047491,-0.00043376,2.1237e-33,7.3685e-05,-30.336,-108.11,-41.562,2.9249,6.879e-14,-2.2715e-17,72.993,-108.22,-41.562,-30.226,0,0.017077,0,1,4.615,0,-4.615,0
0,0,0,0,0,0,7.2881e-05,-0.00043248,1.6242e-36,1.8977e-05,4.8134e-19,-1.4449e-22,0.89458,0.00047429,-0.00043319,1.917e-33,7.3593e-05,-30.295,-107.97,-41.507,2.9184,7.4001e-14,-2.2103e-17,72.897,-108.08,-41.507,-30.185,0,0.017079,0,1,4.62,0,-4.62,0
0,0,0,0,0,0,7.2791e-05,-0.00043191,1.5224e-36,1.8935e-05,5.1523e-19,-1.4056e-22,0.89176,0.00047367,-0.00043262,1.7103e-33,7.3501e-05,-30.254,-107.83,-41.452,2.912,7.9211e-14,-2.1491e-17,72.802,-107.94,-41.452,-30.145,0,0.017081,0,1,4.625,0,-4.625,0
0,0,0,0,0,0,7.2702e-05,-0.00043135,1.4206e-36,1.8893e-05,5.4913e-19,-1.3664e-22,0.88895,0.00047305,-0.00043205,1.5035e-33,7.3409e-05,-30.212,-107.69,-41.397,2.9055,8.4421e-14,-2.0879e-17,72.707,-107.8,-41.397,-30.104,0,0.017084,0,1,4.63,0,-4.63,0
0,0,0,0,0,0,7.2612e-05,-0.00043078,1.3188e-36,1.8851e-05,5.8302e-19,-1.3271e-22,0.88613,0.00047243,-0.00043148,1.2968e-33,7.3317e-05,-30.171,-107.55,-41.342,2.899,8.9632e-14,-2.0266e-17,72.612,-107.65,-41.342,-30.063,0,0.017086,0,1,4.635,0,-4.635,0
0,0,0,0,0,0,7.2522e-05,-0.00043021,1.217e-36,1.8809e-05,6.1691e-19,-1.2878e-22,0.88331,0.00047181,-0.00043091,1.0901e-33,7.3225e-05,-30.13,-107.4,-41.287,2.8925,9.4841e-14,-1.9654e-17,72.517,-107.51,-41.287,-30.022,0,0.017088,0,1,4.64,0,-4.64,0
0,0,0,0,0,0,7.245e-05,-0.00042969,1.1524e-36,1.8771e-05,6.3737e-19,-1.2564e-22,0.88058,0.00047124,-0.00043039,9.4812e-34,7.3151e-05,-30.089,-107.27,-41.235,2.8867,9.7987e-14,-1.9167e-17,72.43,-107.38,-41.235,-29.981,0,0.017091,0,1,4.645,0,-4.645,0
0,0,0,0,0,0,7.2419e-05,-0.00042928,1.1748e-36,1.8744e-05,6.265e-19,-1.2438e-22,0.87804,0.00047081,-0.00042998,9.572e-34,7.3118e-05,-30.05,-107.16,-41.191,2.8825,9.6316e-14,-1.8973e-17,72.364,-107.27,-41.191,-29.942,0,0.017093,0,1,4.65,0,-4.65,0
0,0,0,0,0,0,7.2388e-05,-0.00042886,1.1972e-36,1.8716e-05,6.1564e-19,-1.2311e-22,0.87551,0.00047038,-0.00042956,9.6629e-34,7.3086e-05,-30.01,-107.06,-41.147,2.8783,9.4646e-14,-1.8779e-17,72.298,-107.16,-41.147,-29.903,0,0.017095,0,1,4.655,0,-4.655,0
0,0,0,0,0,0,7.2356e-05,-0.00042845,1.2196e-36,1.8689e-05,6.0477e-19,-1.2184e-22,0.87298,0.00046995,-0.00042915,9.7538e-34,7.3053e-05,-29.971,-106.95,-41.103,2.8741,9.2975e-14,-1.8585e-17,72.232,-107.06,-41.103,-29.864,0,0.017097,0,1,4.66,0,-4.66,0
0,0,0,0,0,0,7.2325e-05,-0.00042804,1.2419e-36,1.8662e-05,5.939e-19,-1.2058e-22,0.87044,0.00046952,-0.00042873,9.8446e-34,7.302e-05,-29.932,-106.84,-41.059,2.8699,9.1304e-14,-1.8391e-17,72.166,-106.95,-41.059,-29.825,0,0.017099,0,1,4.665,0,-4.665,0
0,0,0,0,0,0,7.2294e-05,-0.00042762,1.2643e-36,1.8635e-05,5.8304e-19,-1.1931e-22,0.86791,0.00046909,-0.00042832,9.9355e-34,7.2988e-05,-29.893,-106.73,-41.014,2.8657,8.9633e-14,-1.8196e-17,72.099,-106.84,-41.014,-29.786,0,0.017101,0,1,4.67,0,-4.67,0
0,0,0,0,0,0,7.2263e-05,-0.00042721,1.2867e-36,1.8607e-05,5.7217e-19,-1.1804e-22,0.86538,0.00046866,-0.0004279,1.0026e-33,7.2955e-05,-29.853,-106.63,-40.97,2.8615,8.7962e-14,-1.8002e-17,72.033,-106.73,-40.97,-29.747,0,0.017103,0,1,4.675,0,-4.675,0
0,0,0,0,0,0,7.2231e-05,-0.0004268,1.3091e-36,1.858e-05,5.613e-19,-1.1677e-22,0.86285,0.00046823,-0.00042749,1.0117e-33,7.2922e-05,-29.814,-106.52,-40.926,2.8573,8.6292e-14,-1.7808e-17,71.967,-106.63,-40.926,-29.708,0,0.017104,0,1,4.68,0,-4.68,0
0,0,0,0,0,0,7.22e-05,-0.00042638,1.3315e-36,1.8553e-05,5.5044e-19,-1.1551e-22,0.86031,0.0004678,-0.00042707,1.0208e-33,7.289e-05,-29.775,-106.41,-40.882,2.8531,8.4621e-14,-1.7614e-17,71.901,-106.52,-40.882,-29.669,0,0.017106,0,1,4.685,0,-4.685,0
0,0,0,0,0,0,7.2169e-05,-0.00042597,1.3539e-36,1.8525e-05,5.3957e-19,-1.1424e-22,0.85778,0.00046737,-0.00042666,1.0299e-33,7.2857e-05,-29.735,-106.3,-40.838,2.8489,8.295e-14,-1.742e-17,71.835,-106.41,-40.838,-29.629,0,0.017108,0,1,4.69,0,-4.69,0
0,0,0,0,0,0,7.2138e-05,-0.00042556,1.3763e-36,1.8498e-05,5.2871e-19,-1.1297e-22,0.85525,0.00046694,-0.00042624,1.039e-33,7.2825e-05,-29.696,-106.2,-40.794,2.8447,8.1279e-14,-1.7226e-17,71.769,-106.3,-40.794,-29.59,0,0.01711,0,1,4.695,0,-4.695,0
0,0,0,0,0,0,7.2106e-05,-0.00042514,1.3986e-36,1.8471e-05,5.1784e-19,-1.1171e-22,0.85271,0.00046651,-0.00042583,1.0481e-33,7.2792e-05,-29.657,-106.09,-40.75,2.8405,7.9608e-14,-1.7032e-17,71.703,-106.19,-40.75,-29.551,0,0.017112,0,1,4.7,0,-4.7,0
0,0,0,0,0,0,7.2075e-05,-0.00042473,1.421e-36,1.8443e-05,5.0697e-19,-1.1044e-22,0.85018,0.00046608,-0.00042542,1.0571e-33,7.2759e-05,-29.617,-105.98,-40.706,2.8364,7.7938e-14,-1.6837e-17,71.636,-106.09,-40.706,-29.512,0,0.017114,0,1,4.705,0,-4.705,0
0,0,0,0,0,0,7.2044e-05,-0.00042432,1.4434e-36,1.8416e-05,4.9611e-19,-1.0917e-22,0.84765,0.00046565,-0.000425,1.0662e-33,7.2727e-05,-29.578,-105.87,-40.661,2.8322,7.6267e-14,-1.6643e-17,71.57,-105.98,-40.661,-29.473,0,0.017116,0,1,4.71,0,-4.71,0
0,0,0,0,0,0,7.2013e-05,-0.0004239,1.4658e-36,1.8389e-05,4.8524e-19,-1.079e-22,0.84511,0.00046521,-0.00042459,1.0753e-33,7.2694e-05,-29.539,-105.77,-40.617,2.828,7.4596e-14,-1.6449e-17,71.504,-105.87,-40.617,-29.434,0,0.017118,0,1,4.715,0,-4.715,0
0,0,0,0,0,0,7.1981e-05,-0.00042349,1.4882e-36,1.8362e-05,4.7437e-19,-1.0664e-22,0.84258,0.00046478,-0.00042417,1.0844e-33,7.2661e-05,-29.499,-105.66,-40.573,2.8238,7.2925e-14,-1.6255e-17,71.438,-105.76,-40.573,-29.395,0,0.01712,0,1,4.72,0,-4.72,0
0,0,0,0,0,0,7.195e-05,-0.00042308,1.5106e-36,1.8334e-05,4.6351e-19,-1.0537e-22,0.84005,0.00046435,-0.00042376,1.0935e-33,7.2629e-05,-29.46,-105.55,-40.529,2.8196,7.1254e-14,-1.6061e-17,71.372,-105.65,-40.529,-29.356,0,0.017122,0,1,4.725,0,-4.725,0
0,0,0,0,0,0,7.1919e-05,-0.00042266,1.5329e-36,1.8307e-05,4.5264e-19,-1.041e-22,0.83751,0.00046392,-0.00042334,1.1026e-33,7.2596e-05,-29.421,-105.44,-40.485,2.8154,6.9583e-14,-1.5867e-17,71.306,-105.55,-40.485,-29.317,0,0.017124,0,1,4.73,0,-4.73,0
0,0,0,0,0,0,7.1888e-05,-0.00042225,1.5553e-36,1.828e-05,4.4177e-19,-1.0283e-22,0.83498,0.00046349,-0.00042293,1.1117e-33,7.2564e-05,-29.382,-105.34,-40.441,2.8112,6.7913e-14,-1.5672e-17,71.24,-105.44,-40.441,-29.278,0,0.017126,0,1,4.735,0,-4.735,0
0,0,0,0,0,0,7.1856e-05,-0.00042184,1.5777e-36,1.8252e-05,4.3091e-19,-1.0157e-22,0.83245,0.00046306,-0.00042251,1.1207e-33,7.2531e-05,-29.342,-105.23,-40.397,2.807,6.6242e-14,-1.5478e-17,71.173,-105.33,-40.397,-29.238,0,0.017128,0,1,4.74,0,-4.74,0
0,0,0,0,0,0,7.1825e-05,-0.00042142,1.6001e-36,1.8225e-05,4.2004e-19,-1.003e-22,0.82992,0.00046263,-0.0004221,1.1298e-33,7.2498e-05,-29.303,-105.12,-40.353,2.8028,6.4571e-14,-1.5284e-17,71.107,-105.22,-40.353,-29.199,0,0.01713,0,1,4.745,0,-4.745,0
0,0,0,0,0,0,7.1794e-05,-0.00042101,1.6225e-36,1.8198e-05,4.0918e-19,-9.9032e-23,0.82738,0.0004622,-0.00042168,1.1389e-33,7.2466e-05,-29.264,-105.01,-40.309,2.7986,6.29e-14,-1.509e-17,71.041,-105.12,-40.309,-29.16,0,0.017132,0,1,4.75,0,-4.75,0
0,0,0,0,0,0,7.1763e-05,-0.0004206,1.6449e-36,1.817e-05,3.9831e-19,-9.7765e-23,0.82485,0.00046177,-0.00042127,1.148e-33,7.2433e-05,-29.224,-104.91,-40.264,2.7944,6.1229e-14,-1.4896e-17,70.975,-105.01,-40.264,-29.121,0,0.017134,0,1,4.755,0,-4.755,0
0,0,0,0,0,0,7.1731e-05,-0.00042018,1.6672e-36,1.8143e-05,3.8744e-19,-9.6498e-23,0.82232,0.00046134,-0.00042085,1.1571e-33,7.24e-05,-29.185,-104.8,-40.22,2.7902,5.9558e-14,-1.4702e-17,70.909,-104.9,-40.22,-29.082,0,0.017136,0,1,4.76,0,-4.76,0
0,0,0,0,0,0,7.17e-05,-0.00041977,1.6896e-36,1.8116e-05,3.7658e-19,-9.5231e-23,0.81978,0.00046091,-0.00042044,1.1662e-33,7.2368e-05,-29.146,-104.69,-40.176,2.786,5.7888e-14,-1.4508e-17,70.843,-104.79,-40.176,-29.043,0,0.017138,0,1,4.765,0,-4.765,0
0,0,0,0,0,0,7.1669e-05,-0.00041936,1.712e-36,1.8089e-05,3.6571e-19,-9.3963e-23,0.81725,0.00046048,-0.00042002,1.1753e-33,7.2335e-05,-29.106,-104.58,-40.132,2.7818,5.6217e-14,-1.4313e-17,70.777,-104.68,-40.132,-29.004,0,0.01714,0,1,4.77,0,-4.77,0
0,0,0,0,0,0,7.1638e-05,-0.00041894,1.7344e-36,1.8061e-05,3.5484e-19,-9.2696e-23,0.81472,0.00046005,-0.00041961,1.1843e-33,7.2303e-05,-29.067,-104.47,-40.088,2.7776,5.4546e-14,-1.4119e-17,70.71,-104.58,-40.088,-28.965,0,0.017142,0,1,4.775,0,-4.775,0
0,0,0,0,0,0,7.1606e-05,-0.00041853,1.7568e-36,1.8034e-05,3.4398e-19,-9.1429e-23,0.81218,0.00045961,-0.00041919,1.1934e-33,7.227e-05,-29.028,-104.37,-40.044,2.7734,5.2875e-14,-1.3925e-17,70.644,-104.47,-40.044,-28.926,0,0.017144,0,1,4.78,0,-4.78,0
0,0,0,0,0,0,7.1575e-05,-0.00041812,1.7792e-36,1.8007e-05,3.3311e-19,-9.0162e-23,0.80965,0.00045918,-0.00041878,1.2025e-33,7.2237e-05,-28.988,-104.26,-40,2.7692,5.1205e-14,-1.3731e-17,70.578,-104.36,-40,-28.887,0,0.017146,0,1,4.785,0,-4.785,0
0,0,0,0,0,0,7.1544e-05,-0.0004177,1.8016e-36,1.7979e-05,3.2225e-19,-8.8894e-23,0.80712,0.00045875,-0.00041837,1.2116e-33,7.2205e-05,-28.949,-104.15,-39.956,2.765,4.9534e-14,-1.3537e-17,70.512,-104.25,-39.956,-28.848,0,0.017148,0,1,4.79,0,-4.79,0
0,0,0,0,0,0,7.1513e-05,-0.00041729,1.8239e-36,1.7952e-05,3.1138e-19,-8.7627e-23,0.80458,0.00045832,-0.00041795,1.2207e-33,7.2172e-05,-28.91,-104.04,-39.912,2.7608,4.7863e-14,-1.3343e-17,70.446,-104.15,-39.912,-28.808,0,0.01715,0,1,4.795,0,-4.795,0
0,0,0,0,0,0,7.1481e-05,-0.00041688,1.8463e-36,1.7925e-05,3.0051e-19,-8.636e-23,0.80205,0.00045789,-0.00041754,1.2298e-33,7.2139e-05,-28.871,-103.94,-39.867,2.7566,4.6192e-14,-1.3149e-17,70.38,-104.04,-39.867,-28.769,0,0.017152,0,1,4.8,0,-4.8,0
0,0,0,0,0,0,7.145e-05,-0.00041646,1.8687e-36,1.7898e-05,2.8965e-19,-8.5093e-23,0.79952,0.00045746,-0.00041712,1.2389e-33,7.2107e-05,-28.831,-103.83,-39.823,2.7524,4.4521e-14,-1.2954e-17,70.314,-103.93,-39.823,-28.73,0,0.017154,0,1,4.805,0,-4.805,0
0,0,0,0,0,0,7.1419e-05,-0.00041605,1.8911e-36,1.787e-05,2.7878e-19,-8.3825e-23,0.79699,0.00045703,-0.00041671,1.2479e-33,7.2074e-05,-28.792,-103.72,-39.779,2.7482,4.285e-14,-1.276e-17,70.247,-103.82,-39.779,-28.691,0,0.017156,0,1,4.81,0,-4.81,0
0,0,0,0,0,0,7.1388e-05,-0.00041564,1.9135e-36,1.7843e-05,2.6791e-19,-8.2558e-23,0.79445,0.0004566,-0.00041629,1.257e-33,7.2042e-05,-28.753,-103.61,-39.735,2.744,4.118e-14,-1.2566e-17,70.181,-103.71,-39.735,-28.652,0,0.017158,0,1,4.815,0,-4.815,0
0,0,0,0,0,0,7.1356e-05,-0.00041522,1.9359e-36,1.7816e-05,2.5705e-19,-8.1291e-23,0.79192,0.00045617,-0.00041588,1.2661e-33,7.2009e-05,-28.713,-103.51,-39.691,2.7398,3.9509e-14,-1.2372e-17,70.115,-103.61,-39.691,-28.613,0,0.01716,0,1,4.82,0,-4.82,0
0,0,0,0,0,0,7.1325e-05,-0.00041481,1.9582e-36,1.7788e-05,2.4618e-19,-8.0024e-23,0.78939,0.00045574,-0.00041546,1.2752e-33,7.1976e-05,-28.674,-103.4,-39.647,2.7356,3.7838e-14,-1.2178e-17,70.049,-103.5,-39.647,-28.574,0,0.017162,0,1,4.825,0,-4.825,0
0,0,0,0,0,0,7.1294e-05,-0.0004144,1.9806e-36,1.7761e-05,2.3531e-19,-7.8756e-23,0.78685,0.00045531,-0.00041505,1.2843e-33,7.1944e-05,-28.635,-103.29,-39.603,2.7314,3.6167e-14,-1.1984e-17,69.983,-103.39,-39.603,-28.535,0,0.017164,0,1,4.83,0,-4.83,0
0,0,0,0,0,0,7.1263e-05,-0.00041398,2.003e-36,1.7734e-05,2.2445e-19,-7.7489e-23,0.78432,0.00045488,-0.00041463,1.2934e-33,7.1911e-05,-28.595,-103.18,-39.559,2.7272,3.4496e-14,-1.179e-17,69.917,-103.28,-39.559,-28.496,0,0.017166,0,1,4.835,0,-4.835,0
0,0,0,0,0,0,7.1231e-05,-0.00041357,2.0254e-36,1.7706e-05,2.1358e-19,-7.6222e-23,0.78179,0.00045445,-0.00041422,1.3025e-33,7.1878e-05,-28.556,-103.08,-39.515,2.723,3.2826e-14,-1.1595e-17,69.851,-103.18,-39.515,-28.457,0,0.017168,0,1,4.84,0,-4.84,0
0,0,0,0,0,0,7.12e-05,-0.00041316,2.0478e-36,1.7679e-05,2.0272e-19,-7.4955e-23,0.77925,0.00045402,-0.0004138,1.3115e-33,7.1846e-05,-28.517,-102.97,-39.47,2.7188,3.1155e-14,-1.1401e-17,69.785,-103.07,-39.47,-28.417,0,0.01717,0,1,4.845,0,-4.845,0
0,0,0,0,0,0,7.1169e-05,-0.00041274,2.0702e-36,1.7652e-05,1.9185e-19,-7.3687e-23,0.77672,0.00045358,-0.00041339,1.3206e-33,7.1813e-05,-28.477,-102.86,-39.426,2.7146,2.9484e-14,-1.1207e-17,69.718,-102.96,-39.426,-28.378,0,0.017172,0,1,4.85,0,-4.85,0
0,0,0,0,0,0,7.1138e-05,-0.00041233,2.0926e-36,1.7625e-05,1.8098e-19,-7.242e-23,0.77419,0.00045315,-0.00041297,1.3297e-33,7.1781e-05,-28.438,-102.75,-39.382,2.7104,2.7813e-14,-1.1013e-17,69.652,-102.85,-39.382,-28.339,0,0.017174,0,1,4.855,0,-4.855,0
0,0,0,0,0,0,7.1106e-05,-0.00041192,2.1149e-36,1.7597e-05,1.7012e-19,-7.1153e-23,0.77165,0.00045272,-0.00041256,1.3388e-33,7.1748e-05,-28.399,-102.65,-39.338,2.7063,2.6142e-14,-1.0819e-17,69.586,-102.74,-39.338,-28.3,0,0.017176,0,1,4.86,0,-4.86,0
0,0,0,0,0,0,7.1075e-05,-0.00041151,2.1373e-36,1.757e-05,1.5925e-19,-6.9886e-23,0.76912,0.00045229,-0.00041215,1.3479e-33,7.1715e-05,-28.36,-102.54,-39.294,2.7021,2.4472e-14,-1.0625e-17,69.52,-102.64,-39.294,-28.261,0,0.017178,0,1,4.865,0,-4.865,0
0,0,0,0,0,0,7.1044e-05,-0.00041109,2.1597e-36,1.7543e-05,1.4838e-19,-6.8618e-23,0.76659,0.00045186,-0.00041173,1.357e-33,7.1683e-05,-28.32,-102.43,-39.25,2.6979,2.2801e-14,-1.0431e-17,69.454,-102.53,-39.25,-28.222,0,0.01718,0,1,4.87,0,-4.87,0
0,0,0,0,0,0,7.1013e-05,-0.00041068,2.1821e-36,1.7515e-05,1.3752e-19,-6.7351e-23,0.76406,0.00045143,-0.00041132,1.3661e-33,7.165e-05,-28.281,-102.32,-39.206,2.6937,2.113e-14,-1.0236e-17,69.388,-102.42,-39.206,-28.183,0,0.017182,0,1,4.875,0,-4.875,0
0,0,0,0,0,0,7.0981e-05,-0.00041027,2.2045e-36,1.7488e-05,1.2665e-19,-6.6084e-23,0.76152,0.000451,-0.0004109,1.3751e-33,7.1617e-05,-28.242,-102.22,-39.162,2.6895,1.9459e-14,-1.0042e-17,69.322,-102.31,-39.162,-28.144,0,0.017184,0,1,4.88,0,-4.88,0
0,0,0,0,0,0,7.095e-05,-0.00040985,2.2269e-36,1.7461e-05,1.1578e-19,-6.4817e-23,0.75899,0.00045057,-0.00041049,1.3842e-33,7.1585e-05,-28.202,-102.11,-39.117,2.6853,1.7788e-14,-9.848e-18,69.255,-102.21,-39.117,-28.105,0,0.017186,0,1,4.885,0,-4.885,0
0,0,0,0,0,0,7.0919e-05,-0.00040944,2.2492e-36,1.7433e-05,1.0492e-19,-6.3549e-23,0.75646,0.00045014,-0.00041007,1.3933e-33,7.1552e-05,-28.163,-102,-39.073,2.6811,1.6118e-14,-9.6539e-18,69.189,-102.1,-39.073,-28.066,0,0.017188,0,1,4.89,0,-4.89,0
0,0,0,0,0,0,7.0888e-05,-0.00040903,2.2716e-36,1.7406e-05,9.4052e-20,-6.2282e-23,0.75392,0.00044971,-0.00040966,1.4024e-33,7.1519e-05,-28.124,-101.89,-39.029,2.6769,1.4447e-14,-9.4598e-18,69.123,-101.99,-39.029,-28.026,0,0.01719,0,1,4.895,0,-4.895,0
0,0,0,0,0,0,7.0856e-05,-0.00040861,2.294e-36,1.7379e-05,8.3185e-20,-6.1015e-23,0.75139,0.00044928,-0.00040924,1.4115e-33,7.1487e-05,-28.084,-101.79,-38.985,2.6727,1.2776e-14,-9.2656e-18,69.057,-101.88,-38.985,-27.987,0,0.017192,0,1,4.9,0,-4.9,0
0,0,0,0,0,0,7.0825e-05,-0.0004082,2.3164e-36,1.7352e-05,7.2319e-20,-5.9748e-23,0.74886,0.00044885,-0.00040883,1.4206e-33,7.1454e-05,-28.045,-101.68,-38.941,2.6685,1.1105e-14,-9.0715e-18,68.991,-101.77,-38.941,-27.948,0,0.017194,0,1,4.905,0,-4.905,0
0,0,0,0,0,0,7.0794e-05,-0.00040779,2.3388e-36,1.7324e-05,6.1453e-20,-5.848e-23,0.74632,0.00044842,-0.00040841,1.4297e-33,7.1422e-05,-28.006,-101.57,-38.897,2.6643,9.4343e-15,-8.8773e-18,68.925,-101.67,-38.897,-27.909,0,0.017196,0,1,4.91,0,-4.91,0
0,0,0,0,0,0,7.0763e-05,-0.00040737,2.3612e-36,1.7297e-05,5.0587e-20,-5.7213e-23,0.74379,0.00044798,-0.000408,1.4387e-33,7.1389e-05,-27.966,-101.46,-38.853,2.6601,7.7635e-15,-8.6832e-18,68.859,-101.56,-38.853,-27.87,0,0.017198,0,1,4.915,0,-4.915,0
0,0,0,0,0,0,7.0732e-05,-0.00040696,2.3836e-36,1.727e-05,3.972e-20,-5.5946e-23,0.74126,0.00044755,-0.00040758,1.4478e-33,7.1356e-05,-27.927,-101.36,-38.809,2.6559,6.0926e-15,-8.489e-18,68.792,-101.45,-38.809,-27.831,0,0.0172,0,1,4.92,0,-4.92,0
0,0,0,0,0,0,7.07e-05,-0.00040655,2.4059e-36,1.7242e-05,2.8853e-20,-5.4679e-23,0.73872,0.00044712,-0.00040717,1.4569e-33,7.1324e-05,-27.888,-101.25,-38.765,2.6517,4.4218e-15,-8.2949e-18,68.726,-101.34,-38.765,-27.792,0,0.017202,0,1,4.925,0,-4.925,0
0,0,0,0,0,0,7.0669e-05,-0.00040613,2.4283e-36,1.7215e-05,1.7988e-20,-5.3411e-23,0.73619,0.00044669,-0.00040675,1.466e-33,7.1291e-05,-27.849,-101.14,-38.72,2.6475,2.7511e-15,-8.1007e-18,68.66,-101.24,-38.72,-27.753,0,0.017204,0,1,4.93,0,-4.93,0
0,0,0,0,0,0,7.0638e-05,-0.00040572,2.4507e-36,1.7188e-05,7.1213e-21,-5.2144e-23,0.73366,0.00044626,-0.00040634,1.4751e-33,7.1258e-05,-27.809,-101.03,-38.676,2.6433,1.0802e-15,-7.9066e-18,68.594,-101.13,-38.676,-27.714,0,0.017206,0,1,4.935,0,-4.935,0
0,0,0,0,0,0,7.0607e-05,-0.00040531,2.4731e-36,1.716e-05,-3.7452e-21,-5.0877e-23,0.73113,0.00044583,-0.00040592,1.4842e-33,7.1226e-05,-27.77,-100.92,-38.632,2.6391,-5.9063e-16,-7.7124e-18,68.528,-101.02,-38.632,-27.675,0,0.017208,0,1,4.94,0,-4.94,0
0,0,0,0,0,0,7.0575e-05,-0.00040489,2.4955e-36,1.7133e-05,-1.4612e-20,-4.961e-23,0.72859,0.0004454,-0.00040551,1.4933e-33,7.1193e-05,-27.731,-100.82,-38.588,2.6349,-2.2615e-15,-7.5183e-18,68.462,-100.91,-38.588,-27.636,0,0.01721,0,1,4.945,0,-4.945,0
0,0,0,0,0,0,7.0544e-05,-0.00040448,2.5179e-36,1.7106e-05,-2.5477e-20,-4.8342e-23,0.72606,0.00044497,-0.0004051,1.5023e-33,7.1161e-05,-27.691,-100.71,-38.544,2.6307,-3.9322e-15,-7.3241e-18,68.396,-100.8,-38.544,-27.596,0,0.017212,0,1,4.95,0,-4.95,0
0,0,0,0,0,0,7.0513e-05,-0.00040407,2.5402e-36,1.7079e-05,-3.6344e-20,-4.7075e-23,0.72353,0.00044454,-0.00040468,1.5114e-33,7.1128e-05,-27.652,-100.6,-38.5,2.6265,-5.603e-15,-7.13e-18,68.329,-100.7,-38.5,-27.557,0,0.017214,0,1,4.955,0,-4.955,0
0,0,0,0,0,0,7.0482e-05,-0.00040365,2.5626e-36,1.7051e-05,-4.7211e-20,-4.5808e-23,0.72099,0.00044411,-0.00040427,1.5205e-33,7.1095e-05,-27.613,-100.49,-38.456,2.6223,-7.2739e-15,-6.9358e-18,68.263,-100.59,-38.456,-27.518,0,0.017216,0,1,4.96,0,-4.96,0
0,0,0,0,0,0,7.045e-05,-0.00040324,2.585e-36,1.7024e-05,-5.8077e-20,-4.4541e-23,0.71846,0.00044368,-0.00040385,1.5296e-33,7.1063e-05,-27.573,-100.39,-38.412,2.6181,-8.9447e-15,-6.7417e-18,68.197,-100.48,-38.412,-27.479,0,0.017218,0,1,4.965,0,-4.965,0
0,0,0,0,0,0,7.0419e-05,-0.00040283,2.6074e-36,1.6997e-05,-6.8943e-20,-4.3273e-23,0.71593,0.00044325,-0.00040344,1.5387e-33,7.103e-05,-27.534,-100.28,-38.368,2.6139,-1.0615e-14,-6.5476e-18,68.131,-100.37,-38.368,-27.44,0,0.01722,0,1,4.97,0,-4.97,0
0,0,0,0,0,0,7.0388e-05,-0.00040241,2.6298e-36,1.6969e-05,-7.9809e-20,-4.2006e-23,0.71339,0.00044282,-0.00040302,1.5478e-33,7.0997e-05,-27.495,-100.17,-38.323,2.6097,-1.2286e-14,-6.3534e-18,68.065,-100.27,-38.323,-27.401,0,0.017222,0,1,4.975,0,-4.975,0
0,0,0,0,0,0,7.0357e-05,-0.000402,2.6522e-36,1.6942e-05,-9.0676e-20,-4.0739e-23,0.71086,0.00044239,-0.00040261,1.5569e-33,7.0965e-05,-27.455,-100.06,-38.279,2.6055,-1.3957e-14,-6.1592e-18,67.999,-100.16,-38.279,-27.362,0,0.017224,0,1,4.98,0,-4.98,0
0,0,0,0,0,0,7.0325e-05,-0.00040159,2.6746e-36,1.6915e-05,-1.0154e-19,-3.9472e-23,0.70833,0.00044195,-0.00040219,1.5659e-33,7.0932e-05,-27.416,-99.957,-38.235,2.6013,-1.5628e-14,-5.9651e-18,67.933,-100.05,-38.235,-27.323,0,0.017226,0,1,4.985,0,-4.985,0
0,0,0,0,0,0,7.0294e-05,-0.00040117,2.6969e-36,1.6888e-05,-1.1241e-19,-3.8204e-23,0.70579,0.00044152,-0.00040178,1.575e-33,7.09e-05,-27.377,-99.849,-38.191,2.5971,-1.7299e-14,-5.771e-18,67.866,-99.942,-38.191,-27.284,0,0.017228,0,1,4.99,0,-4.99,0
0,0,0,0,0,0,7.0263e-05,-0.00040076,2.7193e-36,1.686e-05,-1.2327e-19,-3.6937e-23,0.70326,0.00044109,-0.00040136,1.5841e-33,7.0867e-05,-27.338,-99.742,-38.147,2.5929,-1.8969e-14,-5.5768e-18,67.8,-99.835,-38.147,-27.245,0,0.01723,0,1,4.995,0,-4.995,0
0,0,0,0,0,0,7.0232e-05,-0.00040035,2.7417e-36,1.6833e-05,-1.3414e-19,-3.567e-23,0.70073,0.00044066,-0.00040095,1.5932e-33,7.0834e-05,-27.298,-99.634,-38.103,2.5887,-2.064e-14,-5.3827e-18,67.734,-99.727,-38.103,-27.205,0,0.017232,0,1,5,0,-5,0
