"displacement:0","displacement:1","displacement:2","displacement contact active","displacement contact distance","displacement contact gap","displacement contact normalload","displacement contact slipload","displacement contact stick","displacement contact weight","stress_xx","stress_xy","stress_xz","stress_yy","stress_yz","stress_zz","vonmises","GeometryIds","vtkValidPointMask","arc_length","Points:0","Points:1","Points:2"
-5.5293e-15,0.010216,0,0.88073,-9.0046e-08,-3.29e-11,1513.7,667.28,-0.88073,0,-1743.9,60.215,0,-1766.9,0,-1062.6,739.94,1,1,0,0,0,0
-5.1756e-15,0.010241,0,0.82452,-8.4299e-08,-3.08e-11,1417.1,624.69,-0.82452,0,-1681.3,59.037,0,-1749,0,-1038.1,741.6,1,1,0.005,0,-0.005,0
-4.8325e-15,0.010265,0,0.76993,-7.8718e-08,-2.8761e-11,1323.3,583.33,-0.76993,0,-1620.2,57.887,0,-1731.4,0,-1014.2,743.33,1,1,0.01,0,-0.01,0
-4.4993e-15,0.01029,0,0.71695,-7.3301e-08,-2.6782e-11,1232.3,543.19,-0.71695,0,-1560.5,56.765,0,-1714.2,0,-990.92,745.13,1,1,0.015,0,-0.015,0
-4.1764e-15,0.010314,0,0.66559,-6.805e-08,-2.4863e-11,1144,504.28,-0.66559,0,-1502.3,55.671,0,-1697.4,0,-968.17,747.01,1,1,0.02,0,-0.02,0
-3.8638e-15,0.010339,0,0.61585,-6.2964e-08,-2.3005e-11,1058.5,466.59,-0.61585,0,-1445.6,54.604,0,-1681,0,-945.98,748.95,1,1,0.025,0,-0.025,0
-3.5614e-15,0.010364,0,0.56772,-5.8044e-08,-2.1207e-11,975.76,430.13,-0.56772,0,-1390.3,53.566,0,-1665,0,-924.36,750.98,1,1,0.03,0,-0.03,0
-3.2692e-15,0.010389,0,0.52121,-5.3288e-08,-1.947e-11,895.82,394.89,-0.52121,0,-1336.5,52.555,0,-1649.4,0,-903.3,753.07,1,1,0.035,0,-0.035,0
-2.9871e-15,0.010414,0,0.47631,-4.8698e-08,-1.7793e-11,818.66,360.87,-0.47631,0,-1284.2,51.573,0,-1634.2,0,-882.8,755.23,1,1,0.04,0,-0.04,0
-2.7154e-15,0.010439,0,0.43303,-4.4273e-08,-1.6176e-11,744.27,328.08,-0.43303,0,-1233.3,50.618,0,-1619.4,0,-862.87,757.47,1,1,0.045,0,-0.045,0
-2.6182e-15,0.010465,0,0.39137,-4.0014e-08,-1.462e-11,672.66,296.52,-0.39137,0,-1183.9,49.691,0,-1605,0,-843.51,759.79,1,1,0.05,0,-0.05,0
-2.5346e-15,0.01049,0,0.35132,-3.5919e-08,-1.3124e-11,603.83,266.18,-0.35132,0,-1135.9,48.792,0,-1590.9,0,-824.71,762.17,1,1,0.055,0,-0.055,0
-1.9612e-15,0.010515,0,0.31289,-3.199e-08,-1.1688e-11,537.78,237.06,-0.31289,0,-1089.5,47.921,0,-1577.3,0,-806.47,764.63,1,1,0.06,0,-0.06,0
-1.7302e-15,0.010541,0,0.27608,-2.8226e-08,-1.0313e-11,474.51,209.17,-0.27608,0,-1044.4,47.077,0,-1564,0,-788.81,767.16,1,1,0.065,0,-0.065,0
-1.5094e-15,0.010566,0,0.24088,-2.4628e-08,-8.9981e-12,414.01,182.5,-0.24088,0,-1000.9,46.262,0,-1551.2,0,-771.7,769.76,1,1,0.07,0,-0.07,0
-1.2987e-15,0.010592,0,0.2073,-2.1194e-08,-7.7436e-12,356.29,157.06,-0.2073,0,-958.8,45.474,0,-1538.7,0,-755.16,772.43,1,1,0.075,0,-0.075,0
-1.0983e-15,0.010617,0,0.17533,-1.7926e-08,-6.5495e-12,301.35,132.84,-0.17533,0,-918.17,44.715,0,-1526.6,0,-739.19,775.18,1,1,0.08,0,-0.08,0
-9.0804e-16,0.010643,0,0.14498,-1.4823e-08,-5.4158e-12,249.19,109.84,-0.14498,0,-879.01,43.983,0,-1515,0,-723.78,778,1,1,0.085,0,-0.085,0
-7.2797e-16,0.010669,0,0.11625,-1.1885e-08,-4.3425e-12,199.8,88.075,-0.11625,0,-841.32,43.279,0,-1503.7,0,-708.94,780.89,1,1,0.09,0,-0.09,0
-5.5806e-16,0.010695,0,0.089131,-9.1128e-09,-3.3295e-12,153.19,67.53,-0.089131,0,-805.08,42.603,0,-1492.8,0,-694.66,783.86,1,1,0.095,0,-0.095,0
-3.9833e-16,0.010721,0,0.06363,-6.5056e-09,-2.3769e-12,109.36,48.209,-0.06363,0,-770.32,41.955,0,-1482.3,0,-680.95,786.9,1,1,0.1,0,-0.1,0
-2.4875e-16,0.010747,0,0.039745,-4.0636e-09,-1.4847e-12,68.312,30.113,-0.039745,0,-737.02,41.335,0,-1472.2,0,-667.8,790.01,1,1,0.105,0,-0.105,0
-1.0937e-16,0.010773,0,0.017477,-1.7869e-09,-6.5286e-13,30.038,13.241,-0.017477,0,-705.18,40.743,0,-1462.5,0,-655.21,793.19,1,1,0.11,0,-0.11,0
1.9856e-17,0.010799,0,-0.0031765,3.2476e-10,1.1866e-13,-5.4595,-2.4066,0.0031765,0,-674.8,40.178,0,-1453.1,0,-643.19,796.45,1,1,0.115,0,-0.115,0
1.389e-16,0.010825,0,-0.022219,2.2717e-09,8.3001e-13,-38.189,-16.834,0.022219,0,-645.88,39.642,0,-1444.2,0,-631.74,799.78,1,1,0.12,0,-0.12,0
2.4782e-16,0.010852,0,-0.039645,4.0533e-09,1.4809e-12,-68.139,-30.037,0.039645,0,-618.43,39.133,0,-1435.7,0,-620.85,803.18,1,1,0.125,0,-0.125,0
3.4664e-16,0.010878,0,-0.055453,5.6695e-09,2.0714e-12,-95.309,-42.013,0.055453,0,-592.44,38.652,0,-1427.5,0,-610.52,806.66,1,1,0.13,0,-0.13,0
4.3535e-16,0.010905,0,-0.069643,7.1204e-09,2.6015e-12,-119.7,-52.765,0.069643,0,-567.92,38.199,0,-1419.8,0,-600.76,810.2,1,1,0.135,0,-0.135,0
5.1394e-16,0.010931,0,-0.082216,8.4058e-09,3.0712e-12,-141.31,-62.291,0.082216,0,-544.86,37.774,0,-1412.4,0,-591.56,813.82,1,1,0.14,0,-0.14,0
5.8243e-16,0.010958,0,-0.093172,9.5259e-09,3.4805e-12,-160.14,-70.591,0.093172,0,-523.27,37.377,0,-1405.5,0,-582.93,817.52,1,1,0.145,0,-0.145,0
6.408e-16,0.010985,0,-0.10251,1.0481e-08,3.8293e-12,-176.19,-77.666,0.10251,0,-503.14,37.007,0,-1398.9,0,-574.87,821.28,1,1,0.15,0,-0.15,0
6.8907e-16,0.011011,0,-0.11023,1.127e-08,4.1177e-12,-189.46,-83.516,0.11023,0,-484.48,36.666,0,-1392.7,0,-567.37,825.12,1,1,0.155,0,-0.155,0
9.7682e-16,0.011038,0,-0.11633,1.1894e-08,4.3452e-12,-199.95,-88.14,0.11633,0,-467.29,36.353,0,-1387,0,-560.44,829.04,1,1,0.16,0,-0.16,0
8.9673e-16,0.011065,0,-0.12082,1.2353e-08,4.513e-12,-207.66,-91.539,0.12082,0,-451.56,36.067,0,-1381.6,0,-554.07,833.02,1,1,0.165,0,-0.165,0
8.2385e-16,0.011092,0,-0.12369,1.2646e-08,4.6204e-12,-212.59,-93.712,0.12369,0,-437.29,35.809,0,-1376.6,0,-548.27,837.08,1,1,0.17,0,-0.17,0
7.8363e-16,0.011119,0,-0.12494,1.2774e-08,4.6672e-12,-214.74,-94.66,0.12494,0,-424.49,35.58,0,-1372,0,-543.03,841.21,1,1,0.175,0,-0.175,0
7.9895e-16,0.011147,0,-0.12457,1.2736e-08,4.6534e-12,-214.11,-94.382,0.12457,0,-413.16,35.378,0,-1367.8,0,-538.36,845.41,1,1,0.18,0,-0.18,0
8.9019e-16,0.011174,0,-0.12259,1.2534e-08,4.5793e-12,-210.7,-92.879,0.12259,0,-403.29,35.204,0,-1364,0,-534.25,849.68,1,1,0.185,0,-0.185,0
1.0751e-15,0.011201,0,-0.11899,1.2165e-08,4.4446e-12,-204.51,-90.151,0.11899,0,-394.89,35.058,0,-1360.5,0,-530.71,854.03,1,1,0.19,0,-0.19,0
1.369e-15,0.011229,0,-0.11377,1.1632e-08,4.2495e-12,-195.54,-86.197,0.11377,0,-387.95,34.94,0,-1357.5,0,-527.74,858.45,1,1,0.195,0,-0.195,0
6.6845e-16,0.011256,0,-0.10693,1.0933e-08,3.9945e-12,-183.79,-81.017,0.10693,0,-382.48,34.85,0,-1354.9,0,-525.33,862.95,1,1,0.2,0,-0.2,0
6.1561e-16,0.011284,0,-0.098479,1.0069e-08,3.6787e-12,-169.26,-74.612,0.098479,0,-378.48,34.788,0,-1352.6,0,-523.48,867.51,1,1,0.205,0,-0.205,0
5.5265e-16,0.011311,0,-0.088408,9.0389e-09,3.3025e-12,-151.95,-66.982,0.088408,0,-375.94,34.753,0,-1350.8,0,-522.21,872.15,1,1,0.21,0,-0.21,0
4.7958e-16,0.011339,0,-0.07672,7.8439e-09,2.8659e-12,-131.86,-58.126,0.07672,0,-374.86,34.747,0,-1349.3,0,-521.49,876.86,1,1,0.215,0,-0.215,0
3.9641e-16,0.011367,0,-0.063414,6.4835e-09,2.3688e-12,-108.99,-48.045,0.063414,0,-375.26,34.768,0,-1348.3,0,-521.35,881.65,1,1,0.22,0,-0.22,0
3.0312e-16,0.011395,0,-0.04849,4.9577e-09,1.8114e-12,-83.343,-36.739,0.04849,0,-377.11,34.818,0,-1347.6,0,-521.76,886.5,1,1,0.225,0,-0.225,0
1.9972e-16,0.011423,0,-0.03195,3.2665e-09,1.1935e-12,-54.913,-24.206,0.03195,0,-380.44,34.895,0,-1347.3,0,-522.75,891.43,1,1,0.23,0,-0.23,0
8.6212e-17,0.011451,0,-0.013791,1.41e-09,5.1518e-13,-23.704,-10.449,0.013791,0,-385.22,35,0,-1347.5,0,-524.3,896.44,1,1,0.235,0,-0.235,0
-7.345e-27,0.011478,0,0,0,0,0,0,0,0,-386.26,34.714,0,-1343.1,0,-523.34,898.29,1,1,0.24,0,-0.24,0
-7.483e-27,0.011505,0,0,0,0,0,0,0,0,-375.41,33.452,0,-1327.5,0,-515.3,892.49,1,1,0.245,0,-0.245,0
-7.6161e-27,0.011532,0,0,0,0,0,0,0,0,-364.78,32.222,0,-1312.1,0,-507.39,886.73,1,1,0.25,0,-0.25,0
-7.7443e-27,0.011558,0,0,0,0,0,0,0,0,-354.36,31.024,0,-1296.9,0,-499.62,881.03,1,1,0.255,0,-0.255,0
-7.8674e-27,0.011584,0,0,0,0,0,0,0,0,-344.14,29.856,0,-1282,0,-491.99,875.37,1,1,0.26,0,-0.26,0
-7.9856e-27,0.01161,0,0,0,0,0,0,0,0,-334.14,28.721,0,-1267.2,0,-484.48,869.77,1,1,0.265,0,-0.265,0
1.4685e-16,0.011636,0,0,0,0,0,0,0,0,-324.35,27.616,0,-1252.8,0,-477.11,864.21,1,1,0.27,0,-0.27,0
1.1072e-16,0.011661,0,0,0,0,0,0,0,0,-314.77,26.543,0,-1238.5,0,-469.88,858.71,1,1,0.275,0,-0.275,0
7.9448e-17,0.011687,0,0,0,0,0,0,0,0,-305.4,25.502,0,-1224.5,0,-462.78,853.26,1,1,0.28,0,-0.28,0
5.3145e-17,0.011712,0,0,0,0,0,0,0,0,-296.23,24.492,0,-1210.7,0,-455.81,847.86,1,1,0.285,0,-0.285,0
3.2038e-17,0.011737,0,0,0,0,0,0,0,0,-287.28,23.514,0,-1197.1,0,-448.98,842.51,1,1,0.29,0,-0.29,0
1.6139e-17,0.011762,0,0,0,0,0,0,0,0,-278.54,22.566,0,-1183.8,0,-442.28,837.21,1,1,0.295,0,-0.295,0
5.5847e-18,0.011786,0,0,0,0,0,0,0,0,-270.01,21.651,0,-1170.7,0,-435.71,831.96,1,1,0.3,0,-0.3,0
5.0344e-19,0.011811,0,0,0,0,0,0,0,0,-261.69,20.767,0,-1157.8,0,-429.28,826.77,1,1,0.305,0,-0.305,0
9.3879e-19,0.011835,0,0,0,0,0,0,0,0,-253.58,19.914,0,-1145.2,0,-422.99,821.62,1,1,0.31,0,-0.31,0
6.9585e-18,0.011859,0,0,0,0,0,0,0,0,-245.68,19.093,0,-1132.8,0,-416.83,816.52,1,1,0.315,0,-0.315,0
1.8618e-17,0.011883,0,0,0,0,0,0,0,0,-237.99,18.303,0,-1120.6,0,-410.8,811.48,1,1,0.32,0,-0.32,0
3.5962e-17,0.011907,0,0,0,0,0,0,0,0,-230.51,17.545,0,-1108.7,0,-404.91,806.48,1,1,0.325,0,-0.325,0
5.9022e-17,0.011931,0,0,0,0,0,0,0,0,-223.25,16.818,0,-1097,0,-399.15,801.54,1,1,0.33,0,-0.33,0
8.7819e-17,0.011954,0,0,0,0,0,0,0,0,-216.19,16.123,0,-1085.5,0,-393.52,796.65,1,1,0.335,0,-0.335,0
1.2236e-16,0.011978,0,0,0,0,0,0,0,0,-209.34,15.459,0,-1074.3,0,-388.03,791.81,1,1,0.34,0,-0.34,0
-9.2007e-27,0.012001,0,0,0,0,0,0,0,0,-202.7,14.827,0,-1063.3,0,-382.68,787.02,1,1,0.345,0,-0.345,0
-9.2344e-27,0.012024,0,0,0,0,0,0,0,0,-196.27,14.226,0,-1052.5,0,-377.45,782.28,1,1,0.35,0,-0.35,0
-9.2631e-27,0.012046,0,0,0,0,0,0,0,0,-190.06,13.656,0,-1042,0,-372.36,777.59,1,1,0.355,0,-0.355,0
-9.2869e-27,0.012069,0,0,0,0,0,0,0,0,-184.05,13.118,0,-1031.6,0,-367.41,772.95,1,1,0.36,0,-0.36,0
-9.3057e-27,0.012091,0,0,0,0,0,0,0,0,-178.25,12.612,0,-1021.6,0,-362.59,768.36,1,1,0.365,0,-0.365,0
-9.3195e-27,0.012113,0,0,0,0,0,0,0,0,-172.67,12.137,0,-1011.7,0,-357.91,763.82,1,1,0.37,0,-0.37,0
-9.3283e-27,0.012135,0,0,0,0,0,0,0,0,-167.29,11.693,0,-1002.1,0,-353.35,759.34,1,1,0.375,0,-0.375,0
1.635e-17,0.012157,0,0,0,0,0,0,0,0,-162.13,11.281,0,-992.7,0,-348.94,754.9,1,1,0.38,0,-0.38,0
1.3903e-17,0.012179,0,0,0,0,0,0,0,0,-157.18,10.901,0,-983.55,0,-344.66,750.52,1,1,0.385,0,-0.385,0
1.1604e-17,0.0122,0,0,0,0,0,0,0,0,-152.44,10.552,0,-974.63,0,-340.52,746.19,1,1,0.39,0,-0.39,0
9.5662e-18,0.012222,0,0,0,0,0,0,0,0,-147.91,10.234,0,-965.95,0,-336.5,741.91,1,1,0.395,0,-0.395,0
7.716e-18,0.012243,0,0,0,0,0,0,0,0,-143.59,9.9482,0,-957.49,0,-332.63,737.69,1,1,0.4,0,-0.4,0
6.0544e-18,0.012264,0,0,0,0,0,0,0,0,-139.48,9.6935,0,-949.27,0,-328.88,733.51,1,1,0.405,0,-0.405,0
4.5818e-18,0.012285,0,0,0,0,0,0,0,0,-135.58,9.4701,0,-941.28,0,-325.27,729.38,1,1,0.41,0,-0.41,0
3.3343e-18,0.012305,0,0,0,0,0,0,0,0,-131.88,9.2781,0,-933.52,0,-321.8,725.3,1,1,0.415,0,-0.415,0
2.3109e-18,0.012326,0,0,0,0,0,0,0,0,-128.4,9.1176,0,-925.99,0,-318.46,721.28,1,1,0.42,0,-0.42,0
1.4384e-18,0.012346,0,0,0,0,0,0,0,0,-125.13,8.9884,0,-918.69,0,-315.25,717.3,1,1,0.425,0,-0.425,0
7.876e-19,0.012366,0,0,0,0,0,0,0,0,-122.07,8.8907,0,-911.62,0,-312.18,713.38,1,1,0.43,0,-0.43,0
3.5627e-19,0.012386,0,0,0,0,0,0,0,0,-119.22,8.8243,0,-904.78,0,-309.24,709.51,1,1,0.435,0,-0.435,0
7.0883e-20,0.012405,0,0,0,0,0,0,0,0,-116.58,8.7894,0,-898.18,0,-306.43,705.68,1,1,0.44,0,-0.44,0
-8.9311e-27,0.012425,0,0,0,0,0,0,0,0,-114.14,8.7858,0,-891.8,0,-303.76,701.91,1,1,0.445,0,-0.445,0
1.4013e-19,0.012444,0,0,0,0,0,0,0,0,-111.92,8.8136,0,-885.66,0,-301.22,698.19,1,1,0.45,0,-0.45,0
4.1769e-19,0.012463,0,0,0,0,0,0,0,0,-109.91,8.8729,0,-879.75,0,-298.81,694.52,1,1,0.455,0,-0.455,0
8.9884e-19,0.012482,0,0,0,0,0,0,0,0,-108.11,8.9635,0,-874.07,0,-296.54,690.9,1,1,0.46,0,-0.46,0
1.5788e-18,0.012501,0,0,0,0,0,0,0,0,-106.52,9.0856,0,-868.62,0,-294.41,687.33,1,1,0.465,0,-0.465,0
2.3841e-18,0.01252,0,0,0,0,0,0,0,0,-105.13,9.239,0,-863.4,0,-292.41,683.81,1,1,0.47,0,-0.47,0
3.3783e-18,0.012538,0,0,0,0,0,0,0,0,-103.96,9.4239,0,-858.42,0,-290.54,680.34,1,1,0.475,0,-0.475,0
4.5553e-18,0.012557,0,0,0,0,0,0,0,0,-103,9.6401,0,-853.66,0,-288.8,676.93,1,1,0.48,0,-0.48,0
5.8753e-18,0.012575,0,0,0,0,0,0,0,0,-102.25,9.8878,0,-849.14,0,-287.2,673.56,1,1,0.485,0,-0.485,0
7.3323e-18,0.012593,0,0,0,0,0,0,0,0,-101.7,10.167,0,-844.84,0,-285.74,670.24,1,1,0.49,0,-0.49,0
8.9197e-18,0.01261,0,0,0,0,0,0,0,0,-101.37,10.477,0,-840.78,0,-284.4,666.98,1,1,0.495,0,-0.495,0
1.0695e-17,0.012628,0,0,0,0,0,0,0,0,-101.25,10.819,0,-836.95,0,-283.2,663.76,1,1,0.5,0,-0.5,0
1.2554e-17,0.012645,0,0,0,0,0,0,0,0,-101.33,11.192,0,-833.35,0,-282.14,660.6,1,1,0.505,0,-0.505,0
1.4552e-17,0.012663,0,0,0,0,0,0,0,0,-101.63,11.597,0,-829.98,0,-281.21,657.49,1,1,0.51,0,-0.51,0
2.5851e-17,0.01268,0,0,0,0,0,0,0,0,-101.55,11.635,0,-825.93,0,-279.95,654.01,1,1,0.515,0,-0.515,0
2.2358e-17,0.012698,0,0,0,0,0,0,0,0,-100.63,11.081,0,-820.55,0,-278.04,649.94,1,1,0.52,0,-0.52,0
1.914e-17,0.012715,0,0,0,0,0,0,0,0,-99.719,10.543,0,-815.2,0,-276.14,645.89,1,1,0.525,0,-0.525,0
1.6162e-17,0.012733,0,0,0,0,0,0,0,0,-98.824,10.021,0,-809.89,0,-274.26,641.86,1,1,0.53,0,-0.53,0
1.3454e-17,0.012751,0,0,0,0,0,0,0,0,-97.942,9.5139,0,-804.62,0,-272.39,637.86,1,1,0.535,0,-0.535,0
1.1012e-17,0.012768,0,0,0,0,0,0,0,0,-97.073,9.0226,0,-799.37,0,-270.53,633.87,1,1,0.54,0,-0.54,0
8.8331e-18,0.012785,0,0,0,0,0,0,0,0,-96.217,8.5468,0,-794.17,0,-268.69,629.91,1,1,0.545,0,-0.545,0
6.8847e-18,0.012803,0,0,0,0,0,0,0,0,-95.373,8.0866,0,-789,0,-266.87,625.96,1,1,0.55,0,-0.55,0
5.1941e-18,0.01282,0,0,0,0,0,0,0,0,-94.542,7.6421,0,-783.86,0,-265.06,622.04,1,1,0.555,0,-0.555,0
3.7283e-18,0.012837,0,0,0,0,0,0,0,0,-93.724,7.2131,0,-778.76,0,-263.26,618.14,1,1,0.56,0,-0.56,0
2.5145e-18,0.012854,0,0,0,0,0,0,0,0,-92.918,6.7997,0,-773.69,0,-261.48,614.27,1,1,0.565,0,-0.565,0
1.5497e-18,0.012871,0,0,0,0,0,0,0,0,-92.125,6.4019,0,-768.66,0,-259.71,610.41,1,1,0.57,0,-0.57,0
8.3071e-19,0.012887,0,0,0,0,0,0,0,0,-91.344,6.0196,0,-763.67,0,-257.96,606.57,1,1,0.575,0,-0.575,0
3.2487e-19,0.012904,0,0,0,0,0,0,0,0,-90.577,5.653,0,-758.7,0,-256.22,602.76,1,1,0.58,0,-0.58,0
5.8797e-20,0.012921,0,0,0,0,0,0,0,0,-89.822,5.3019,0,-753.78,0,-254.5,598.97,1,1,0.585,0,-0.585,0
-9.4694e-27,0.012937,0,0,0,0,0,0,0,0,-89.079,4.9665,0,-748.89,0,-252.79,595.2,1,1,0.59,0,-0.59,0
1.7475e-19,0.012953,0,0,0,0,0,0,0,0,-88.35,4.6466,0,-744.03,0,-251.09,591.45,1,1,0.595,0,-0.595,0
5.7975e-19,0.01297,0,0,0,0,0,0,0,0,-87.633,4.3423,0,-739.21,0,-249.41,587.72,1,1,0.6,0,-0.6,0
1.2117e-18,0.012986,0,0,0,0,0,0,0,0,-86.929,4.0536,0,-734.42,0,-247.75,584.01,1,1,0.605,0,-0.605,0
2.0384e-18,0.013002,0,0,0,0,0,0,0,0,-86.237,3.7805,0,-729.66,0,-246.09,580.33,1,1,0.61,0,-0.61,0
3.0855e-18,0.013018,0,0,0,0,0,0,0,0,-85.558,3.5229,0,-724.95,0,-244.46,576.67,1,1,0.615,0,-0.615,0
4.3212e-18,0.013034,0,0,0,0,0,0,0,0,-84.892,3.281,0,-720.26,0,-242.84,573.02,1,1,0.62,0,-0.62,0
5.7706e-18,0.013049,0,0,0,0,0,0,0,0,-84.238,3.0546,0,-715.62,0,-241.23,569.4,1,1,0.625,0,-0.625,0
7.4303e-18,0.013065,0,0,0,0,0,0,0,0,-83.597,2.8439,0,-711,0,-239.64,565.8,1,1,0.63,0,-0.63,0
9.2966e-18,0.013081,0,0,0,0,0,0,0,0,-82.969,2.6487,0,-706.42,0,-238.06,562.23,1,1,0.635,0,-0.635,0
1.131e-17,0.013096,0,0,0,0,0,0,0,0,-82.353,2.4691,0,-701.88,0,-236.49,558.67,1,1,0.64,0,-0.64,0
1.3552e-17,0.013111,0,0,0,0,0,0,0,0,-81.751,2.3051,0,-697.37,0,-234.94,555.14,1,1,0.645,0,-0.645,0
1.5989e-17,0.013127,0,0,0,0,0,0,0,0,-81.16,2.1566,0,-692.9,0,-233.41,551.62,1,1,0.65,0,-0.65,0
1.8591e-17,0.013142,0,0,0,0,0,0,0,0,-80.583,2.0238,0,-688.46,0,-231.89,548.13,1,1,0.655,0,-0.655,0
2.1383e-17,0.013157,0,0,0,0,0,0,0,0,-80.018,1.9065,0,-684.05,0,-230.38,544.66,1,1,0.66,0,-0.66,0
1.3183e-17,0.013172,0,0,0,0,0,0,0,0,-79.466,1.8049,0,-679.69,0,-228.89,541.21,1,1,0.665,0,-0.665,0
1.1384e-17,0.013187,0,0,0,0,0,0,0,0,-78.927,1.7189,0,-675.35,0,-227.42,537.79,1,1,0.67,0,-0.67,0
9.7653e-18,0.013201,0,0,0,0,0,0,0,0,-78.4,1.6484,0,-671.06,0,-225.95,534.39,1,1,0.675,0,-0.675,0
8.27e-18,0.013216,0,0,0,0,0,0,0,0,-77.887,1.5935,0,-666.79,0,-224.51,531,1,1,0.68,0,-0.68,0
6.8969e-18,0.013231,0,0,0,0,0,0,0,0,-77.386,1.5542,0,-662.57,0,-223.07,527.64,1,1,0.685,0,-0.685,0
5.6442e-18,0.013245,0,0,0,0,0,0,0,0,-76.897,1.5304,0,-658.37,0,-221.66,524.3,1,1,0.69,0,-0.69,0
4.5364e-18,0.013259,0,0,0,0,0,0,0,0,-76.421,1.5222,0,-654.22,0,-220.25,520.99,1,1,0.695,0,-0.695,0
3.5453e-18,0.013274,0,0,0,0,0,0,0,0,-75.958,1.5296,0,-650.09,0,-218.86,517.69,1,1,0.7,0,-0.7,0
2.6951e-18,0.013288,0,0,0,0,0,0,0,0,-75.508,1.5525,0,-646,0,-217.49,514.41,1,1,0.705,0,-0.705,0
1.9577e-18,0.013302,0,0,0,0,0,0,0,0,-75.07,1.591,0,-641.95,0,-216.13,511.16,1,1,0.71,0,-0.71,0
1.3314e-18,0.013316,0,0,0,0,0,0,0,0,-74.645,1.6451,0,-637.93,0,-214.78,507.93,1,1,0.715,0,-0.715,0
8.3976e-19,0.01333,0,0,0,0,0,0,0,0,-74.232,1.7148,0,-633.95,0,-213.45,504.72,1,1,0.72,0,-0.72,0
4.5522e-19,0.013343,0,0,0,0,0,0,0,0,-73.832,1.8,0,-630,0,-212.14,501.53,1,1,0.725,0,-0.725,0
2.0105e-19,0.013357,0,0,0,0,0,0,0,0,-73.445,1.9007,0,-626.08,0,-210.83,498.36,1,1,0.73,0,-0.73,0
4.9946e-20,0.013371,0,0,0,0,0,0,0,0,-73.071,2.0171,0,-622.21,0,-209.55,495.22,1,1,0.735,0,-0.735,0
-9.4071e-27,0.013384,0,0,0,0,0,0,0,0,-72.709,2.149,0,-618.36,0,-208.27,492.09,1,1,0.74,0,-0.74,0
4.9305e-20,0.013397,0,0,0,0,0,0,0,0,-72.36,2.2965,0,-614.55,0,-207.02,488.99,1,1,0.745,0,-0.745,0
2.4491e-19,0.013411,0,0,0,0,0,0,0,0,-72.023,2.4596,0,-610.78,0,-205.77,485.91,1,1,0.75,0,-0.75,0
5.1091e-19,0.013424,0,0,0,0,0,0,0,0,-71.699,2.6382,0,-607.04,0,-204.54,482.85,1,1,0.755,0,-0.755,0
8.9416e-19,0.013437,0,0,0,0,0,0,0,0,-71.388,2.8324,0,-603.33,0,-203.33,479.81,1,1,0.76,0,-0.76,0
1.3682e-18,0.01345,0,0,0,0,0,0,0,0,-71.09,3.0421,0,-599.66,0,-202.13,476.79,1,1,0.765,0,-0.765,0
1.9547e-18,0.013463,0,0,0,0,0,0,0,0,-70.804,3.2674,0,-596.02,0,-200.94,473.79,1,1,0.77,0,-0.77,0
2.604e-18,0.013475,0,0,0,0,0,0,0,0,-70.531,3.5083,0,-592.42,0,-199.77,470.82,1,1,0.775,0,-0.775,0
3.385e-18,0.013488,0,0,0,0,0,0,0,0,-70.27,3.7648,0,-588.86,0,-198.61,467.87,1,1,0.78,0,-0.78,0
4.2246e-18,0.013501,0,0,0,0,0,0,0,0,-70.022,4.0368,0,-585.32,0,-197.47,464.94,1,1,0.785,0,-0.785,0
5.1675e-18,0.013513,0,0,0,0,0,0,0,0,-69.787,4.3244,0,-581.83,0,-196.34,462.03,1,1,0.79,0,-0.79,0
6.2112e-18,0.013525,0,0,0,0,0,0,0,0,-69.565,4.6276,0,-578.37,0,-195.23,459.14,1,1,0.795,0,-0.795,0
7.3072e-18,0.013538,0,0,0,0,0,0,0,0,-69.355,4.9463,0,-574.94,0,-194.13,456.27,1,1,0.8,0,-0.8,0
8.5221e-18,0.01355,0,0,0,0,0,0,0,0,-69.158,5.2806,0,-571.55,0,-193.05,453.42,1,1,0.805,0,-0.805,0
9.7851e-18,0.013562,0,0,0,0,0,0,0,0,-68.973,5.6305,0,-568.19,0,-191.98,450.6,1,1,0.81,0,-0.81,0
8.8844e-18,0.013574,0,0,0,0,0,0,0,0,-68.801,5.9971,0,-564.87,0,-190.92,447.8,1,1,0.815,0,-0.815,0
7.8169e-18,0.013586,0,0,0,0,0,0,0,0,-68.785,5.7749,0,-562.6,0,-190.23,445.79,1,1,0.82,0,-0.82,0
6.8043e-18,0.013599,0,0,0,0,0,0,0,0,-68.764,5.5576,0,-560.33,0,-189.54,443.8,1,1,0.825,0,-0.825,0
5.8899e-18,0.013611,0,0,0,0,0,0,0,0,-68.738,5.3451,0,-558.07,0,-188.84,441.8,1,1,0.83,0,-0.83,0
5.0284e-18,0.013623,0,0,0,0,0,0,0,0,-68.707,5.1373,0,-555.8,0,-188.15,439.82,1,1,0.835,0,-0.835,0
4.2409e-18,0.013635,0,0,0,0,0,0,0,0,-68.672,4.9344,0,-553.54,0,-187.45,437.83,1,1,0.84,0,-0.84,0
3.5264e-18,0.013647,0,0,0,0,0,0,0,0,-68.631,4.7362,0,-551.28,0,-186.75,435.85,1,1,0.845,0,-0.845,0
2.8837e-18,0.013659,0,0,0,0,0,0,0,0,-68.586,4.5429,0,-549.01,0,-186.05,433.88,1,1,0.85,0,-0.85,0
2.3119e-18,0.013671,0,0,0,0,0,0,0,0,-68.535,4.3544,0,-546.75,0,-185.35,431.91,1,1,0.855,0,-0.855,0
1.7887e-18,0.013683,0,0,0,0,0,0,0,0,-68.48,4.1707,0,-544.49,0,-184.65,429.94,1,1,0.86,0,-0.86,0
1.3556e-18,0.013695,0,0,0,0,0,0,0,0,-68.42,3.9917,0,-542.23,0,-183.95,427.98,1,1,0.865,0,-0.865,0
9.6914e-19,0.013707,0,0,0,0,0,0,0,0,-68.354,3.8176,0,-539.97,0,-183.24,426.03,1,1,0.87,0,-0.87,0
6.4964e-19,0.013719,0,0,0,0,0,0,0,0,-68.284,3.6483,0,-537.71,0,-182.54,424.08,1,1,0.875,0,-0.875,0
3.9604e-19,0.01373,0,0,0,0,0,0,0,0,-68.209,3.4838,0,-535.45,0,-181.83,422.13,1,1,0.88,0,-0.88,0
2.0732e-19,0.013742,0,0,0,0,0,0,0,0,-68.129,3.3241,0,-533.2,0,-181.12,420.19,1,1,0.885,0,-0.885,0
8.2483e-20,0.013754,0,0,0,0,0,0,0,0,-68.045,3.1692,0,-530.94,0,-180.41,418.25,1,1,0.89,0,-0.89,0
-9.5898e-27,0.013765,0,0,0,0,0,0,0,0,-67.955,3.0191,0,-528.68,0,-179.7,416.31,1,1,0.895,0,-0.895,0
-9.6716e-27,0.013777,0,0,0,0,0,0,0,0,-67.86,2.8738,0,-526.43,0,-178.99,414.39,1,1,0.9,0,-0.9,0
4.0577e-20,0.013788,0,0,0,0,0,0,0,0,-67.761,2.7333,0,-524.18,0,-178.28,412.46,1,1,0.905,0,-0.905,0
1.6143e-19,0.0138,0,0,0,0,0,0,0,0,-67.656,2.5976,0,-521.92,0,-177.56,410.54,1,1,0.91,0,-0.91,0
3.2109e-19,0.013811,0,0,0,0,0,0,0,0,-67.547,2.4668,0,-519.67,0,-176.85,408.63,1,1,0.915,0,-0.915,0
5.5884e-19,0.013822,0,0,0,0,0,0,0,0,-67.432,2.3407,0,-517.42,0,-176.13,406.72,1,1,0.92,0,-0.92,0
8.3367e-19,0.013833,0,0,0,0,0,0,0,0,-67.313,2.2194,0,-515.17,0,-175.41,404.81,1,1,0.925,0,-0.925,0
1.1449e-18,0.013845,0,0,0,0,0,0,0,0,-67.189,2.1029,0,-512.91,0,-174.7,402.91,1,1,0.93,0,-0.93,0
1.5312e-18,0.013856,0,0,0,0,0,0,0,0,-67.06,1.9913,0,-510.66,0,-173.98,401.01,1,1,0.935,0,-0.935,0
1.9718e-18,0.013867,0,0,0,0,0,0,0,0,-66.926,1.8844,0,-508.42,0,-173.25,399.12,1,1,0.94,0,-0.94,0
2.4462e-18,0.013878,0,0,0,0,0,0,0,0,-66.787,1.7824,0,-506.17,0,-172.53,397.23,1,1,0.945,0,-0.945,0
2.9925e-18,0.013889,0,0,0,0,0,0,0,0,-66.643,1.6851,0,-503.92,0,-171.81,395.35,1,1,0.95,0,-0.95,0
3.571e-18,0.0139,0,0,0,0,0,0,0,0,-66.494,1.5927,0,-501.67,0,-171.08,393.47,1,1,0.955,0,-0.955,0
4.2193e-18,0.01391,0,0,0,0,0,0,0,0,-66.34,1.505,0,-499.43,0,-170.36,391.59,1,1,0.96,0,-0.96,0
4.8981e-18,0.013921,0,0,0,0,0,0,0,0,-66.181,1.4222,0,-497.18,0,-169.63,389.72,1,1,0.965,0,-0.965,0
5.6257e-18,0.013932,0,0,0,0,0,0,0,0,-66.018,1.3441,0,-494.94,0,-168.9,387.86,1,1,0.97,0,-0.97,0
6.4011e-18,0.013943,0,0,0,0,0,0,0,0,-65.849,1.2709,0,-492.69,0,-168.17,386,1,1,0.975,0,-0.975,0
7.2049e-18,0.013953,0,0,0,0,0,0,0,0,-65.676,1.2025,0,-490.45,0,-167.44,384.14,1,1,0.98,0,-0.98,0
2.2643e-18,0.013964,0,0,0,0,0,0,0,0,-65.498,1.1388,0,-488.21,0,-166.71,382.29,1,1,0.985,0,-0.985,0
1.9746e-18,0.013975,0,0,0,0,0,0,0,0,-65.315,1.08,0,-485.97,0,-165.98,380.45,1,1,0.99,0,-0.99,0
1.7064e-18,0.013985,0,0,0,0,0,0,0,0,-65.127,1.026,0,-483.73,0,-165.24,378.6,1,1,0.995,0,-0.995,0
1.4595e-18,0.013995,0,0,0,0,0,0,0,0,-64.934,0.97684,0,-481.49,0,-164.51,376.77,1,1,1,0,-1,0
1.2335e-18,0.014006,0,0,0,0,0,0,0,0,-64.736,0.93243,0,-479.25,0,-163.77,374.94,1,1,1.005,0,-1.005,0
1.028e-18,0.014016,0,0,0,0,0,0,0,0,-64.533,0.89283,0,-477.01,0,-163.03,373.11,1,1,1.01,0,-1.01,0
8.4275e-19,0.014026,0,0,0,0,0,0,0,0,-64.325,0.85803,0,-474.77,0,-162.29,371.28,1,1,1.015,0,-1.015,0
6.7743e-19,0.014037,0,0,0,0,0,0,0,0,-64.112,0.82802,0,-472.54,0,-161.55,369.47,1,1,1.02,0,-1.02,0
5.3171e-19,0.014047,0,0,0,0,0,0,0,0,-63.895,0.80282,0,-470.3,0,-160.81,367.65,1,1,1.025,0,-1.025,0
4.0527e-19,0.014057,0,0,0,0,0,0,0,0,-63.672,0.78242,0,-468.07,0,-160.07,365.84,1,1,1.03,0,-1.03,0
2.8028e-19,0.014067,0,0,0,0,0,0,0,0,-63.445,0.76682,0,-465.83,0,-159.32,364.04,1,1,1.035,0,-1.035,0
2.0898e-19,0.014077,0,0,0,0,0,0,0,0,-63.213,0.75602,0,-463.6,0,-158.58,362.24,1,1,1.04,0,-1.04,0
1.385e-19,0.014087,0,0,0,0,0,0,0,0,-62.975,0.75001,0,-461.36,0,-157.83,360.44,1,1,1.045,0,-1.045,0
6.8842e-20,0.014097,0,0,0,0,0,0,0,0,-62.733,0.74881,0,-459.13,0,-157.08,358.65,1,1,1.05,0,-1.05,0
3.4218e-20,0.014107,0,0,0,0,0,0,0,0,-62.486,0.75241,0,-456.9,0,-156.33,356.86,1,1,1.055,0,-1.055,0
-9.4702e-27,0.014116,0,0,0,0,0,0,0,0,-62.234,0.76081,0,-454.67,0,-155.58,355.08,1,1,1.06,0,-1.06,0
-9.3758e-27,0.014126,0,0,0,0,0,0,0,0,-61.977,0.77402,0,-452.44,0,-154.83,353.3,1,1,1.065,0,-1.065,0
-9.276e-27,0.014136,0,0,0,0,0,0,0,0,-61.715,0.79202,0,-450.21,0,-154.08,351.53,1,1,1.07,0,-1.07,0
3.341e-20,0.014145,0,0,0,0,0,0,0,0,-61.449,0.81482,0,-447.98,0,-153.33,349.76,1,1,1.075,0,-1.075,0
6.6418e-20,0.014155,0,0,0,0,0,0,0,0,-61.177,0.84242,0,-445.76,0,-152.57,348,1,1,1.08,0,-1.08,0
1.3204e-19,0.014164,0,0,0,0,0,0,0,0,-60.9,0.87482,0,-443.53,0,-151.82,346.24,1,1,1.085,0,-1.085,0
1.9686e-19,0.014174,0,0,0,0,0,0,0,0,-60.619,0.91202,0,-441.3,0,-151.06,344.48,1,1,1.09,0,-1.09,0
2.935e-19,0.014183,0,0,0,0,0,0,0,0,-60.333,0.95403,0,-439.08,0,-150.3,342.73,1,1,1.095,0,-1.095,0
3.8895e-19,0.014193,0,0,0,0,0,0,0,0,-60.041,1.0008,0,-436.85,0,-149.54,340.98,1,1,1.1,0,-1.1,0
5.1544e-19,0.014202,0,0,0,0,0,0,0,0,-59.745,1.0524,0,-434.63,0,-148.78,339.24,1,1,1.105,0,-1.105,0
6.4036e-19,0.014211,0,0,0,0,0,0,0,0,-59.444,1.1088,0,-432.4,0,-148.02,337.51,1,1,1.11,0,-1.11,0
7.9554e-19,0.01422,0,0,0,0,0,0,0,0,-59.138,1.17,0,-430.18,0,-147.25,335.77,1,1,1.115,0,-1.115,0
9.4878e-19,0.01423,0,0,0,0,0,0,0,0,-58.827,1.236,0,-427.96,0,-146.49,334.05,1,1,1.12,0,-1.12,0
1.1158e-18,0.014239,0,0,0,0,0,0,0,0,-58.511,1.3069,0,-425.74,0,-145.72,332.32,1,1,1.125,0,-1.125,0
1.2963e-18,0.014248,0,0,0,0,0,0,0,0,-58.19,1.3825,0,-423.52,0,-144.96,330.6,1,1,1.13,0,-1.13,0
1.49e-18,0.014257,0,0,0,0,0,0,0,0,-57.864,1.4629,0,-421.3,0,-144.19,328.89,1,1,1.135,0,-1.135,0
1.6967e-18,0.014266,0,0,0,0,0,0,0,0,-57.534,1.5481,0,-419.08,0,-143.42,327.18,1,1,1.14,0,-1.14,0
1.9313e-18,0.014275,0,0,0,0,0,0,0,0,-57.198,1.6381,0,-416.86,0,-142.65,325.48,1,1,1.145,0,-1.145,0
1.2499e-18,0.014283,0,0,0,0,0,0,0,0,-57.073,1.6523,0,-415.14,0,-142.09,324.05,1,1,1.15,0,-1.15,0
1.0923e-18,0.014292,0,0,0,0,0,0,0,0,-57.165,1.5858,0,-413.93,0,-141.75,322.91,1,1,1.155,0,-1.155,0
9.6635e-19,0.014301,0,0,0,0,0,0,0,0,-57.253,1.5208,0,-412.72,0,-141.41,321.77,1,1,1.16,0,-1.16,0
8.4154e-19,0.01431,0,0,0,0,0,0,0,0,-57.337,1.4574,0,-411.51,0,-141.07,320.62,1,1,1.165,0,-1.165,0
7.3285e-19,0.014319,0,0,0,0,0,0,0,0,-57.417,1.3955,0,-410.29,0,-140.73,319.49,1,1,1.17,0,-1.17,0
6.2517e-19,0.014328,0,0,0,0,0,0,0,0,-57.494,1.3351,0,-409.07,0,-140.38,318.35,1,1,1.175,0,-1.175,0
5.3331e-19,0.014337,0,0,0,0,0,0,0,0,-57.567,1.2763,0,-407.85,0,-140.04,317.21,1,1,1.18,0,-1.18,0
4.4231e-19,0.014346,0,0,0,0,0,0,0,0,-57.636,1.219,0,-406.63,0,-139.69,316.07,1,1,1.185,0,-1.185,0
3.6683e-19,0.014354,0,0,0,0,0,0,0,0,-57.701,1.1633,0,-405.41,0,-139.34,314.94,1,1,1.19,0,-1.19,0
2.9207e-19,0.014363,0,0,0,0,0,0,0,0,-57.762,1.109,0,-404.18,0,-138.98,313.8,1,1,1.195,0,-1.195,0
2.3254e-19,0.014372,0,0,0,0,0,0,0,0,-57.819,1.0564,0,-402.95,0,-138.63,312.67,1,1,1.2,0,-1.2,0
1.7357e-19,0.014381,0,0,0,0,0,0,0,0,-57.873,1.0052,0,-401.72,0,-138.27,311.54,1,1,1.205,0,-1.205,0
1.1516e-19,0.014389,0,0,0,0,0,0,0,0,-57.923,0.95565,0,-400.49,0,-137.92,310.41,1,1,1.21,0,-1.21,0
8.5954e-20,0.014398,0,0,0,0,0,0,0,0,-57.969,0.9076,0,-399.26,0,-137.56,309.28,1,1,1.215,0,-1.215,0
5.7028e-20,0.014406,0,0,0,0,0,0,0,0,-58.011,0.86108,0,-398.02,0,-137.2,308.15,1,1,1.22,0,-1.22,0
2.8377e-20,0.014415,0,0,0,0,0,0,0,0,-58.049,0.8161,0,-396.78,0,-136.83,307.03,1,1,1.225,0,-1.225,0
1.412e-20,0.014423,0,0,0,0,0,0,0,0,-58.083,0.77266,0,-395.54,0,-136.47,305.9,1,1,1.23,0,-1.23,0
-9.1279e-27,0.014432,0,0,0,0,0,0,0,0,-58.114,0.73076,0,-394.3,0,-136.1,304.77,1,1,1.235,0,-1.235,0
-9.207e-27,0.01444,0,0,0,0,0,0,0,0,-58.141,0.6904,0,-393.05,0,-135.74,303.65,1,1,1.24,0,-1.24,0
-9.2818e-27,0.014449,0,0,0,0,0,0,0,0,-58.164,0.65158,0,-391.8,0,-135.37,302.53,1,1,1.245,0,-1.245,0
1.385e-20,0.014457,0,0,0,0,0,0,0,0,-58.183,0.61429,0,-390.56,0,-134.99,301.41,1,1,1.25,0,-1.25,0
2.7566e-20,0.014466,0,0,0,0,0,0,0,0,-58.198,0.57855,0,-389.3,0,-134.62,300.29,1,1,1.255,0,-1.255,0
5.4866e-20,0.014474,0,0,0,0,0,0,0,0,-58.209,0.54434,0,-388.05,0,-134.25,299.17,1,1,1.26,0,-1.26,0
9.5551e-20,0.014482,0,0,0,0,0,0,0,0,-58.217,0.51167,0,-386.8,0,-133.87,298.05,1,1,1.265,0,-1.265,0
1.3584e-19,0.014491,0,0,0,0,0,0,0,0,-58.221,0.48054,0,-385.54,0,-133.49,296.93,1,1,1.27,0,-1.27,0
1.8926e-19,0.014499,0,0,0,0,0,0,0,0,-58.22,0.45095,0,-384.28,0,-133.11,295.82,1,1,1.275,0,-1.275,0
2.4215e-19,0.014507,0,0,0,0,0,0,0,0,-58.216,0.4229,0,-383.02,0,-132.73,294.7,1,1,1.28,0,-1.28,0
2.9452e-19,0.014515,0,0,0,0,0,0,0,0,-58.209,0.39638,0,-381.75,0,-132.34,293.59,1,1,1.285,0,-1.285,0
3.4638e-19,0.014523,0,0,0,0,0,0,0,0,-58.197,0.37141,0,-380.49,0,-131.96,292.48,1,1,1.29,0,-1.29,0
4.2424e-19,0.014531,0,0,0,0,0,0,0,0,-58.182,0.34797,0,-379.22,0,-131.57,291.36,1,1,1.295,0,-1.295,0
5.0133e-19,0.01454,0,0,0,0,0,0,0,0,-58.162,0.32607,0,-377.95,0,-131.18,290.25,1,1,1.3,0,-1.3,0
5.9079e-19,0.014548,0,0,0,0,0,0,0,0,-58.139,0.30571,0,-376.68,0,-130.79,289.14,1,1,1.305,0,-1.305,0
6.7936e-19,0.014556,0,0,0,0,0,0,0,0,-58.112,0.28689,0,-375.41,0,-130.4,288.04,1,1,1.31,0,-1.31,0
7.8006e-19,0.014564,0,0,0,0,0,0,0,0,-58.081,0.26961,0,-374.13,0,-130,286.93,1,1,1.315,0,-1.315,0
8.7975e-19,0.014572,0,0,0,0,0,0,0,0,-58.047,0.25386,0,-372.85,0,-129.61,285.82,1,1,1.32,0,-1.32,0
9.7844e-19,0.01458,0,0,0,0,0,0,0,0,-58.008,0.23966,0,-371.57,0,-129.21,284.72,1,1,1.325,0,-1.325,0
1.089e-18,0.014587,0,0,0,0,0,0,0,0,-57.966,0.22699,0,-370.29,0,-128.81,283.62,1,1,1.33,0,-1.33,0
3.3146e-19,0.014595,0,0,0,0,0,0,0,0,-57.92,0.21586,0,-369,0,-128.41,282.51,1,1,1.335,0,-1.335,0
2.9178e-19,0.014603,0,0,0,0,0,0,0,0,-57.87,0.20627,0,-367.72,0,-128.01,281.41,1,1,1.34,0,-1.34,0
2.5248e-19,0.014611,0,0,0,0,0,0,0,0,-57.816,0.19822,0,-366.43,0,-127.6,280.31,1,1,1.345,0,-1.345,0
2.2612e-19,0.014619,0,0,0,0,0,0,0,0,-57.758,0.19171,0,-365.14,0,-127.19,279.21,1,1,1.35,0,-1.35,0
2.0001e-19,0.014627,0,0,0,0,0,0,0,0,-57.697,0.18674,0,-363.85,0,-126.79,278.12,1,1,1.355,0,-1.355,0
1.7415e-19,0.014634,0,0,0,0,0,0,0,0,-57.632,0.1833,0,-362.55,0,-126.38,277.02,1,1,1.36,0,-1.36,0
1.3616e-19,0.014642,0,0,0,0,0,0,0,0,-57.562,0.1814,0,-361.26,0,-125.96,275.93,1,1,1.365,0,-1.365,0
1.2317e-19,0.01465,0,0,0,0,0,0,0,0,-57.49,0.18104,0,-359.96,0,-125.55,274.83,1,1,1.37,0,-1.37,0
9.8053e-20,0.014657,0,0,0,0,0,0,0,0,-57.413,0.18222,0,-358.66,0,-125.13,273.74,1,1,1.375,0,-1.375,0
7.3178e-20,0.014665,0,0,0,0,0,0,0,0,-57.332,0.18493,0,-357.35,0,-124.72,272.65,1,1,1.38,0,-1.38,0
4.8545e-20,0.014673,0,0,0,0,0,0,0,0,-57.248,0.18919,0,-356.05,0,-124.3,271.56,1,1,1.385,0,-1.385,0
4.8306e-20,0.01468,0,0,0,0,0,0,0,0,-57.159,0.19498,0,-354.74,0,-123.88,270.47,1,1,1.39,0,-1.39,0
2.4034e-20,0.014688,0,0,0,0,0,0,0,0,-57.067,0.20231,0,-353.43,0,-123.45,269.38,1,1,1.395,0,-1.395,0
2.3915e-20,0.014695,0,0,0,0,0,0,0,0,-56.971,0.21117,0,-352.12,0,-123.03,268.29,1,1,1.4,0,-1.4,0
1.1899e-20,0.014703,0,0,0,0,0,0,0,0,-56.871,0.22158,0,-350.81,0,-122.6,267.2,1,1,1.405,0,-1.405,0
-9.3284e-27,0.01471,0,0,0,0,0,0,0,0,-56.768,0.23352,0,-349.49,0,-122.18,266.12,1,1,1.41,0,-1.41,0
-9.2564e-27,0.014717,0,0,0,0,0,0,0,0,-56.66,0.247,0,-348.18,0,-121.75,265.03,1,1,1.415,0,-1.415,0
-9.1801e-27,0.014725,0,0,0,0,0,0,0,0,-56.549,0.26202,0,-346.86,0,-121.31,263.95,1,1,1.42,0,-1.42,0
-9.0995e-27,0.014732,0,0,0,0,0,0,0,0,-56.434,0.27857,0,-345.54,0,-120.88,262.87,1,1,1.425,0,-1.425,0
-9.0146e-27,0.014739,0,0,0,0,0,0,0,0,-56.315,0.29667,0,-344.21,0,-120.45,261.79,1,1,1.43,0,-1.43,0
-8.9254e-27,0.014747,0,0,0,0,0,0,0,0,-56.192,0.3163,0,-342.89,0,-120.01,260.71,1,1,1.435,0,-1.435,0
1.1493e-20,0.014754,0,0,0,0,0,0,0,0,-56.065,0.33747,0,-341.56,0,-119.57,259.63,1,1,1.44,0,-1.44,0
2.2872e-20,0.014761,0,0,0,0,0,0,0,0,-55.935,0.36018,0,-340.23,0,-119.13,258.55,1,1,1.445,0,-1.445,0
2.2759e-20,0.014768,0,0,0,0,0,0,0,0,-55.801,0.38443,0,-338.9,0,-118.69,257.48,1,1,1.45,0,-1.45,0
4.5293e-20,0.014775,0,0,0,0,0,0,0,0,-55.662,0.41021,0,-337.56,0,-118.25,256.4,1,1,1.455,0,-1.455,0
5.6336e-20,0.014783,0,0,0,0,0,0,0,0,-55.52,0.43753,0,-336.23,0,-117.8,255.33,1,1,1.46,0,-1.46,0
6.7268e-20,0.01479,0,0,0,0,0,0,0,0,-55.375,0.46639,0,-334.89,0,-117.35,254.26,1,1,1.465,0,-1.465,0
8.9246e-20,0.014797,0,0,0,0,0,0,0,0,-55.225,0.49679,0,-333.55,0,-116.9,253.18,1,1,1.47,0,-1.47,0
1.11e-19,0.014804,0,0,0,0,0,0,0,0,-55.071,0.52872,0,-332.21,0,-116.45,252.11,1,1,1.475,0,-1.475,0
1.3254e-19,0.014811,0,0,0,0,0,0,0,0,-54.914,0.5622,0,-330.86,0,-116,251.04,1,1,1.48,0,-1.48,0
1.5387e-19,0.014818,0,0,0,0,0,0,0,0,-54.753,0.59721,0,-329.52,0,-115.55,249.98,1,1,1.485,0,-1.485,0
1.7498e-19,0.014825,0,0,0,0,0,0,0,0,-54.588,0.63376,0,-328.17,0,-115.09,248.91,1,1,1.49,0,-1.49,0
1.9587e-19,0.014832,0,0,0,0,0,0,0,0,-54.419,0.67184,0,-326.82,0,-114.63,247.84,1,1,1.495,0,-1.495,0
2.2738e-19,0.014838,0,0,0,0,0,0,0,0,-54.246,0.71147,0,-325.47,0,-114.17,246.78,1,1,1.5,0,-1.5,0
2.5858e-19,0.014845,0,0,0,0,0,0,0,0,-54.07,0.75263,0,-324.11,0,-113.71,245.71,1,1,1.505,0,-1.505,0
2.7873e-19,0.014852,0,0,0,0,0,0,0,0,-53.89,0.79533,0,-322.75,0,-113.25,244.65,1,1,1.51,0,-1.51,0
2.1339e-19,0.014859,0,0,0,0,0,0,0,0,-53.769,0.81907,0,-321.57,0,-112.85,243.69,1,1,1.515,0,-1.515,0
1.9124e-19,0.014866,0,0,0,0,0,0,0,0,-53.81,0.79111,0,-320.81,0,-112.64,242.99,1,1,1.52,0,-1.52,0
1.6928e-19,0.014873,0,0,0,0,0,0,0,0,-53.849,0.7637,0,-320.06,0,-112.42,242.3,1,1,1.525,0,-1.525,0
1.4749e-19,0.014879,0,0,0,0,0,0,0,0,-53.886,0.73685,0,-319.31,0,-112.21,241.6,1,1,1.53,0,-1.53,0
1.2589e-19,0.014886,0,0,0,0,0,0,0,0,-53.921,0.71055,0,-318.55,0,-111.99,240.91,1,1,1.535,0,-1.535,0
1.1491e-19,0.014893,0,0,0,0,0,0,0,0,-53.953,0.6848,0,-317.79,0,-111.77,240.21,1,1,1.54,0,-1.54,0
1.0402e-19,0.0149,0,0,0,0,0,0,0,0,-53.983,0.65961,0,-317.03,0,-111.55,239.52,1,1,1.545,0,-1.545,0
8.2868e-20,0.014906,0,0,0,0,0,0,0,0,-54.011,0.63496,0,-316.27,0,-111.33,238.82,1,1,1.55,0,-1.55,0
7.2203e-20,0.014913,0,0,0,0,0,0,0,0,-54.037,0.61087,0,-315.51,0,-111.11,238.13,1,1,1.555,0,-1.555,0
6.1626e-20,0.01492,0,0,0,0,0,0,0,0,-54.061,0.58734,0,-314.75,0,-110.88,237.44,1,1,1.56,0,-1.56,0
5.1138e-20,0.014926,0,0,0,0,0,0,0,0,-54.083,0.56435,0,-313.99,0,-110.66,236.75,1,1,1.565,0,-1.565,0
4.0737e-20,0.014933,0,0,0,0,0,0,0,0,-54.102,0.54192,0,-313.22,0,-110.44,236.05,1,1,1.57,0,-1.57,0
3.0424e-20,0.01494,0,0,0,0,0,0,0,0,-54.119,0.52005,0,-312.46,0,-110.21,235.36,1,1,1.575,0,-1.575,0
2.0197e-20,0.014946,0,0,0,0,0,0,0,0,-54.135,0.49872,0,-311.69,0,-109.98,234.67,1,1,1.58,0,-1.58,0
2.0111e-20,0.014953,0,0,0,0,0,0,0,0,-54.148,0.47795,0,-310.92,0,-109.75,233.98,1,1,1.585,0,-1.585,0
1.0013e-20,0.01496,0,0,0,0,0,0,0,0,-54.158,0.45773,0,-310.15,0,-109.53,233.29,1,1,1.59,0,-1.59,0
-8.0418e-27,0.014966,0,0,0,0,0,0,0,0,-54.167,0.43807,0,-309.38,0,-109.3,232.6,1,1,1.595,0,-1.595,0
-8.0885e-27,0.014973,0,0,0,0,0,0,0,0,-54.174,0.41896,0,-308.61,0,-109.06,231.91,1,1,1.6,0,-1.6,0
-8.1328e-27,0.014979,0,0,0,0,0,0,0,0,-54.178,0.4004,0,-307.83,0,-108.83,231.23,1,1,1.605,0,-1.605,0
-8.1748e-27,0.014986,0,0,0,0,0,0,0,0,-54.18,0.38239,0,-307.06,0,-108.6,230.54,1,1,1.61,0,-1.61,0
-8.2145e-27,0.014992,0,0,0,0,0,0,0,0,-54.18,0.36494,0,-306.28,0,-108.37,229.85,1,1,1.615,0,-1.615,0
-8.2518e-27,0.014999,0,0,0,0,0,0,0,0,-54.178,0.34804,0,-305.5,0,-108.13,229.17,1,1,1.62,0,-1.62,0
-8.2868e-27,0.015005,0,0,0,0,0,0,0,0,-54.174,0.33169,0,-304.72,0,-107.89,228.48,1,1,1.625,0,-1.625,0
-8.3195e-27,0.015012,0,0,0,0,0,0,0,0,-54.168,0.3159,0,-303.94,0,-107.66,227.79,1,1,1.63,0,-1.63,0
9.6369e-21,0.015018,0,0,0,0,0,0,0,0,-54.159,0.30066,0,-303.16,0,-107.42,227.11,1,1,1.635,0,-1.635,0
1.9192e-20,0.015024,0,0,0,0,0,0,0,0,-54.149,0.28597,0,-302.38,0,-107.18,226.43,1,1,1.64,0,-1.64,0
1.911e-20,0.015031,0,0,0,0,0,0,0,0,-54.136,0.27183,0,-301.6,0,-106.94,225.74,1,1,1.645,0,-1.645,0
1.9029e-20,0.015037,0,0,0,0,0,0,0,0,-54.121,0.25825,0,-300.81,0,-106.7,225.06,1,1,1.65,0,-1.65,0
3.7897e-20,0.015043,0,0,0,0,0,0,0,0,-54.104,0.24522,0,-300.02,0,-106.46,224.38,1,1,1.655,0,-1.655,0
3.7736e-20,0.01505,0,0,0,0,0,0,0,0,-54.084,0.23275,0,-299.24,0,-106.21,223.69,1,1,1.66,0,-1.66,0
4.6969e-20,0.015056,0,0,0,0,0,0,0,0,-54.063,0.22082,0,-298.45,0,-105.97,223.01,1,1,1.665,0,-1.665,0
5.6123e-20,0.015062,0,0,0,0,0,0,0,0,-54.039,0.20945,0,-297.66,0,-105.72,222.33,1,1,1.67,0,-1.67,0
7.4513e-20,0.015069,0,0,0,0,0,0,0,0,-54.014,0.19864,0,-296.87,0,-105.48,221.65,1,1,1.675,0,-1.675,0
7.4196e-20,0.015075,0,0,0,0,0,0,0,0,-53.986,0.18837,0,-296.07,0,-105.23,220.97,1,1,1.68,0,-1.68,0
9.235e-20,0.015081,0,0,0,0,0,0,0,0,-53.956,0.17866,0,-295.28,0,-104.98,220.29,1,1,1.685,0,-1.685,0
1.1035e-19,0.015087,0,0,0,0,0,0,0,0,-53.923,0.1695,0,-294.48,0,-104.73,219.61,1,1,1.69,0,-1.69,0
1.1904e-19,0.015094,0,0,0,0,0,0,0,0,-53.889,0.1609,0,-293.69,0,-104.48,218.93,1,1,1.695,0,-1.695,0
1.2765e-19,0.0151,0,0,0,0,0,0,0,0,-53.852,0.15285,0,-292.89,0,-104.23,218.25,1,1,1.7,0,-1.7,0
1.4526e-19,0.015106,0,0,0,0,0,0,0,0,-53.814,0.14535,0,-292.09,0,-103.98,217.58,1,1,1.705,0,-1.705,0
1.6273e-19,0.015112,0,0,0,0,0,0,0,0,-53.773,0.1384,0,-291.29,0,-103.72,216.9,1,1,1.71,0,-1.71,0
1.8004e-19,0.015118,0,0,0,0,0,0,0,0,-53.73,0.13201,0,-290.49,0,-103.47,216.22,1,1,1.715,0,-1.715,0
5.3782e-20,0.015124,0,0,0,0,0,0,0,0,-53.685,0.12617,0,-289.69,0,-103.21,215.55,1,1,1.72,0,-1.72,0
5.3553e-20,0.01513,0,0,0,0,0,0,0,0,-53.638,0.12089,0,-288.88,0,-102.96,214.87,1,1,1.725,0,-1.725,0
4.4438e-20,0.015136,0,0,0,0,0,0,0,0,-53.588,0.11615,0,-288.08,0,-102.7,214.2,1,1,1.73,0,-1.73,0
3.54e-20,0.015142,0,0,0,0,0,0,0,0,-53.537,0.11197,0,-287.27,0,-102.44,213.52,1,1,1.735,0,-1.735,0
3.5249e-20,0.015148,0,0,0,0,0,0,0,0,-53.483,0.10834,0,-286.46,0,-102.18,212.85,1,1,1.74,0,-1.74,0
3.51e-20,0.015154,0,0,0,0,0,0,0,0,-53.427,0.10527,0,-285.65,0,-101.92,212.18,1,1,1.745,0,-1.745,0
2.6213e-20,0.01516,0,0,0,0,0,0,0,0,-53.369,0.10275,0,-284.84,0,-101.66,211.5,1,1,1.75,0,-1.75,0
1.7401e-20,0.015166,0,0,0,0,0,0,0,0,-53.309,0.10078,0,-284.03,0,-101.4,210.83,1,1,1.755,0,-1.755,0
1.7327e-20,0.015172,0,0,0,0,0,0,0,0,-53.246,0.099363,0,-283.22,0,-101.13,210.16,1,1,1.76,0,-1.76,0
1.7254e-20,0.015178,0,0,0,0,0,0,0,0,-53.182,0.0985,0,-282.41,0,-100.87,209.49,1,1,1.765,0,-1.765,0
1.7181e-20,0.015184,0,0,0,0,0,0,0,0,-53.115,0.098189,0,-281.59,0,-100.6,208.82,1,1,1.77,0,-1.77,0
8.5538e-21,0.01519,0,0,0,0,0,0,0,0,-53.046,0.098432,0,-280.77,0,-100.33,208.15,1,1,1.775,0,-1.775,0
8.5176e-21,0.015196,0,0,0,0,0,0,0,0,-52.975,0.099227,0,-279.96,0,-100.07,207.48,1,1,1.78,0,-1.78,0
-8.1802e-27,0.015202,0,0,0,0,0,0,0,0,-52.902,0.10057,0,-279.14,0,-99.798,206.81,1,1,1.785,0,-1.785,0
-8.1385e-27,0.015208,0,0,0,0,0,0,0,0,-52.827,0.10248,0,-278.32,0,-99.528,206.14,1,1,1.79,0,-1.79,0
-8.0945e-27,0.015213,0,0,0,0,0,0,0,0,-52.75,0.10493,0,-277.49,0,-99.258,205.47,1,1,1.795,0,-1.795,0
-8.0481e-27,0.015219,0,0,0,0,0,0,0,0,-52.67,0.10794,0,-276.67,0,-98.986,204.81,1,1,1.8,0,-1.8,0
-7.9995e-27,0.015225,0,0,0,0,0,0,0,0,-52.588,0.1115,0,-275.85,0,-98.713,204.14,1,1,1.805,0,-1.805,0
-7.9485e-27,0.015231,0,0,0,0,0,0,0,0,-52.504,0.11561,0,-275.02,0,-98.439,203.47,1,1,1.81,0,-1.81,0
-7.8952e-27,0.015237,0,0,0,0,0,0,0,0,-52.418,0.12027,0,-274.19,0,-98.164,202.81,1,1,1.815,0,-1.815,0
-7.8396e-27,0.015242,0,0,0,0,0,0,0,0,-52.33,0.12549,0,-273.37,0,-97.888,202.14,1,1,1.82,0,-1.82,0
-7.7816e-27,0.015248,0,0,0,0,0,0,0,0,-52.24,0.13126,0,-272.54,0,-97.611,201.48,1,1,1.825,0,-1.825,0
-7.7214e-27,0.015254,0,0,0,0,0,0,0,0,-52.147,0.13759,0,-271.71,0,-97.333,200.81,1,1,1.83,0,-1.83,0
-7.6588e-27,0.015259,0,0,0,0,0,0,0,0,-52.053,0.14446,0,-270.88,0,-97.054,200.15,1,1,1.835,0,-1.835,0
-7.5938e-27,0.015265,0,0,0,0,0,0,0,0,-51.956,0.15189,0,-270.04,0,-96.774,199.49,1,1,1.84,0,-1.84,0
-7.5266e-27,0.015271,0,0,0,0,0,0,0,0,-51.857,0.15987,0,-269.21,0,-96.493,198.83,1,1,1.845,0,-1.845,0
8.0275e-21,0.015276,0,0,0,0,0,0,0,0,-51.756,0.16841,0,-268.37,0,-96.211,198.16,1,1,1.85,0,-1.85,0
7.9938e-21,0.015282,0,0,0,0,0,0,0,0,-51.652,0.1775,0,-267.54,0,-95.927,197.5,1,1,1.855,0,-1.855,0
1.592e-20,0.015287,0,0,0,0,0,0,0,0,-51.547,0.18714,0,-266.7,0,-95.643,196.84,1,1,1.86,0,-1.86,0
1.5854e-20,0.015293,0,0,0,0,0,0,0,0,-51.439,0.19733,0,-265.86,0,-95.358,196.18,1,1,1.865,0,-1.865,0
1.5787e-20,0.015299,0,0,0,0,0,0,0,0,-51.33,0.20808,0,-265.02,0,-95.072,195.52,1,1,1.87,0,-1.87,0
1.5721e-20,0.015304,0,0,0,0,0,0,0,0,-51.218,0.21938,0,-264.18,0,-94.785,194.86,1,1,1.875,0,-1.875,0
2.3483e-20,0.01531,0,0,0,0,0,0,0,0,-51.104,0.23123,0,-263.33,0,-94.496,194.2,1,1,1.88,0,-1.88,0
3.1179e-20,0.015315,0,0,0,0,0,0,0,0,-50.988,0.24363,0,-262.49,0,-94.207,193.54,1,1,1.885,0,-1.885,0
3.1049e-20,0.01532,0,0,0,0,0,0,0,0,-50.869,0.25659,0,-261.64,0,-93.917,192.89,1,1,1.89,0,-1.89,0
3.0919e-20,0.015326,0,0,0,0,0,0,0,0,-50.749,0.2701,0,-260.8,0,-93.625,192.23,1,1,1.895,0,-1.895,0
3.8488e-20,0.015331,0,0,0,0,0,0,0,0,-50.626,0.28417,0,-259.95,0,-93.333,191.57,1,1,1.9,0,-1.9,0
4.5993e-20,0.015337,0,0,0,0,0,0,0,0,-50.501,0.29878,0,-259.1,0,-93.04,190.92,1,1,1.905,0,-1.905,0
4.5801e-20,0.015342,0,0,0,0,0,0,0,0,-50.374,0.31395,0,-258.25,0,-92.745,190.26,1,1,1.91,0,-1.91,0
5.3213e-20,0.015348,0,0,0,0,0,0,0,0,-50.245,0.32967,0,-257.39,0,-92.45,189.6,1,1,1.915,0,-1.915,0
3.0291e-20,0.015353,0,0,0,0,0,0,0,0,-50.215,0.32641,0,-256.79,0,-92.258,189.09,1,1,1.92,0,-1.92,0
3.0179e-20,0.015358,0,0,0,0,0,0,0,0,-50.227,0.31503,0,-256.29,0,-92.111,188.64,1,1,1.925,0,-1.925,0
3.0067e-20,0.015364,0,0,0,0,0,0,0,0,-50.238,0.30388,0,-255.79,0,-91.963,188.19,1,1,1.93,0,-1.93,0
2.9955e-20,0.015369,0,0,0,0,0,0,0,0,-50.247,0.29295,0,-255.28,0,-91.815,187.74,1,1,1.935,0,-1.935,0
2.2383e-20,0.015374,0,0,0,0,0,0,0,0,-50.256,0.28224,0,-254.78,0,-91.666,187.29,1,1,1.94,0,-1.94,0
2.2301e-20,0.01538,0,0,0,0,0,0,0,0,-50.263,0.27175,0,-254.28,0,-91.516,186.84,1,1,1.945,0,-1.945,0
1.4812e-20,0.015385,0,0,0,0,0,0,0,0,-50.269,0.26149,0,-253.77,0,-91.366,186.39,1,1,1.95,0,-1.95,0
1.4757e-20,0.01539,0,0,0,0,0,0,0,0,-50.273,0.25144,0,-253.27,0,-91.215,185.94,1,1,1.955,0,-1.955,0
1.4702e-20,0.015396,0,0,0,0,0,0,0,0,-50.277,0.24162,0,-252.76,0,-91.064,185.49,1,1,1.96,0,-1.96,0
1.4648e-20,0.015401,0,0,0,0,0,0,0,0,-50.279,0.23203,0,-252.26,0,-90.912,185.04,1,1,1.965,0,-1.965,0
1.4594e-20,0.015406,0,0,0,0,0,0,0,0,-50.281,0.22265,0,-251.75,0,-90.76,184.59,1,1,1.97,0,-1.97,0
7.2698e-21,0.015411,0,0,0,0,0,0,0,0,-50.281,0.2135,0,-251.24,0,-90.607,184.14,1,1,1.975,0,-1.975,0
7.2429e-21,0.015417,0,0,0,0,0,0,0,0,-50.279,0.20457,0,-250.74,0,-90.454,183.7,1,1,1.98,0,-1.98,0
-7.1949e-27,0.015422,0,0,0,0,0,0,0,0,-50.277,0.19587,0,-250.23,0,-90.3,183.25,1,1,1.985,0,-1.985,0
-7.2484e-27,0.015427,0,0,0,0,0,0,0,0,-50.273,0.18738,0,-249.72,0,-90.145,182.8,1,1,1.99,0,-1.99,0
-7.3003e-27,0.015432,0,0,0,0,0,0,0,0,-50.269,0.17912,0,-249.21,0,-89.99,182.35,1,1,1.995,0,-1.995,0
-7.3507e-27,0.015438,0,0,0,0,0,0,0,0,-50.263,0.17108,0,-248.7,0,-89.834,181.91,1,1,2,0,-2,0
-7.3997e-27,0.015443,0,0,0,0,0,0,0,0,-50.256,0.16327,0,-248.18,0,-89.678,181.46,1,1,2.005,0,-2.005,0
-7.4471e-27,0.015448,0,0,0,0,0,0,0,0,-50.247,0.15567,0,-247.67,0,-89.521,181.01,1,1,2.01,0,-2.01,0
-7.493e-27,0.015453,0,0,0,0,0,0,0,0,-50.238,0.1483,0,-247.16,0,-89.364,180.57,1,1,2.015,0,-2.015,0
-7.5374e-27,0.015458,0,0,0,0,0,0,0,0,-50.227,0.14115,0,-246.65,0,-89.206,180.12,1,1,2.02,0,-2.02,0
-7.5803e-27,0.015463,0,0,0,0,0,0,0,0,-50.215,0.13423,0,-246.13,0,-89.048,179.68,1,1,2.025,0,-2.025,0
-7.6217e-27,0.015468,0,0,0,0,0,0,0,0,-50.202,0.12752,0,-245.62,0,-88.889,179.23,1,1,2.03,0,-2.03,0
-7.6615e-27,0.015474,0,0,0,0,0,0,0,0,-50.188,0.12104,0,-245.1,0,-88.729,178.79,1,1,2.035,0,-2.035,0
-7.6999e-27,0.015479,0,0,0,0,0,0,0,0,-50.172,0.11479,0,-244.58,0,-88.569,178.34,1,1,2.04,0,-2.04,0
-7.7368e-27,0.015484,0,0,0,0,0,0,0,0,-50.156,0.10875,0,-244.07,0,-88.408,177.9,1,1,2.045,0,-2.045,0
-7.7721e-27,0.015489,0,0,0,0,0,0,0,0,-50.138,0.10294,0,-243.55,0,-88.247,177.46,1,1,2.05,0,-2.05,0
-7.8059e-27,0.015494,0,0,0,0,0,0,0,0,-50.119,0.097347,0,-243.03,0,-88.085,177.01,1,1,2.055,0,-2.055,0
-7.8383e-27,0.015499,0,0,0,0,0,0,0,0,-50.099,0.09198,0,-242.51,0,-87.923,176.57,1,1,2.06,0,-2.06,0
-7.8691e-27,0.015504,0,0,0,0,0,0,0,0,-50.077,0.086835,0,-241.99,0,-87.76,176.13,1,1,2.065,0,-2.065,0
-7.8984e-27,0.015509,0,0,0,0,0,0,0,0,-50.055,0.081913,0,-241.47,0,-87.597,175.68,1,1,2.07,0,-2.07,0
6.7504e-21,0.015514,0,0,0,0,0,0,0,0,-50.031,0.077213,0,-240.95,0,-87.433,175.24,1,1,2.075,0,-2.075,0
6.7255e-21,0.015519,0,0,0,0,0,0,0,0,-50.006,0.072735,0,-240.43,0,-87.268,174.8,1,1,2.08,0,-2.08,0
1.3401e-20,0.015524,0,0,0,0,0,0,0,0,-49.98,0.068481,0,-239.91,0,-87.103,174.36,1,1,2.085,0,-2.085,0
1.3352e-20,0.015529,0,0,0,0,0,0,0,0,-49.952,0.064449,0,-239.39,0,-86.937,173.92,1,1,2.09,0,-2.09,0
1.3303e-20,0.015534,0,0,0,0,0,0,0,0,-49.924,0.060639,0,-238.86,0,-86.771,173.48,1,1,2.095,0,-2.095,0
1.3254e-20,0.015539,0,0,0,0,0,0,0,0,-49.894,0.057052,0,-238.34,0,-86.604,173.03,1,1,2.1,0,-2.1,0
1.3205e-20,0.015544,0,0,0,0,0,0,0,0,-49.863,0.053688,0,-237.81,0,-86.437,172.59,1,1,2.105,0,-2.105,0
1.9734e-20,0.015549,0,0,0,0,0,0,0,0,-49.831,0.050546,0,-237.29,0,-86.269,172.15,1,1,2.11,0,-2.11,0
1.9662e-20,0.015554,0,0,0,0,0,0,0,0,-49.798,0.047627,0,-236.76,0,-86.1,171.71,1,1,2.115,0,-2.115,0
2.6119e-20,0.015559,0,0,0,0,0,0,0,0,-49.763,0.044931,0,-236.23,0,-85.931,171.28,1,1,2.12,0,-2.12,0
2.6023e-20,0.015564,0,0,0,0,0,0,0,0,-49.728,0.042457,0,-235.71,0,-85.762,170.84,1,1,2.125,0,-2.125,0
2.5927e-20,0.015569,0,0,0,0,0,0,0,0,-49.691,0.040205,0,-235.18,0,-85.591,170.4,1,1,2.13,0,-2.13,0
2.5832e-20,0.015573,0,0,0,0,0,0,0,0,-49.653,0.038177,0,-234.65,0,-85.421,169.96,1,1,2.135,0,-2.135,0
1.2869e-20,0.015578,0,0,0,0,0,0,0,0,-49.614,0.036371,0,-234.12,0,-85.249,169.52,1,1,2.14,0,-2.14,0
1.2821e-20,0.015583,0,0,0,0,0,0,0,0,-49.573,0.034787,0,-233.59,0,-85.078,169.08,1,1,2.145,0,-2.145,0
1.2774e-20,0.015588,0,0,0,0,0,0,0,0,-49.531,0.033426,0,-233.06,0,-84.905,168.65,1,1,2.15,0,-2.15,0
1.2728e-20,0.015593,0,0,0,0,0,0,0,0,-49.489,0.032288,0,-232.53,0,-84.732,168.21,1,1,2.155,0,-2.155,0
6.3405e-21,0.015598,0,0,0,0,0,0,0,0,-49.445,0.031372,0,-231.99,0,-84.559,167.77,1,1,2.16,0,-2.16,0
6.3173e-21,0.015602,0,0,0,0,0,0,0,0,-49.399,0.030679,0,-231.46,0,-84.385,167.33,1,1,2.165,0,-2.165,0
6.2942e-21,0.015607,0,0,0,0,0,0,0,0,-49.353,0.030208,0,-230.93,0,-84.21,166.9,1,1,2.17,0,-2.17,0
6.2712e-21,0.015612,0,0,0,0,0,0,0,0,-49.306,0.02996,0,-230.39,0,-84.035,166.46,1,1,2.175,0,-2.175,0
-8.1614e-27,0.015617,0,0,0,0,0,0,0,0,-49.257,0.029934,0,-229.86,0,-83.859,166.03,1,1,2.18,0,-2.18,0
-8.156e-27,0.015621,0,0,0,0,0,0,0,0,-49.207,0.030131,0,-229.32,0,-83.683,165.59,1,1,2.185,0,-2.185,0
-8.149e-27,0.015626,0,0,0,0,0,0,0,0,-49.156,0.030551,0,-228.79,0,-83.506,165.16,1,1,2.19,0,-2.19,0
-8.1406e-27,0.015631,0,0,0,0,0,0,0,0,-49.103,0.031193,0,-228.25,0,-83.329,164.72,1,1,2.195,0,-2.195,0
-8.1307e-27,0.015636,0,0,0,0,0,0,0,0,-49.05,0.032057,0,-227.71,0,-83.151,164.29,1,1,2.2,0,-2.2,0
-8.1193e-27,0.01564,0,0,0,0,0,0,0,0,-48.995,0.033144,0,-227.17,0,-82.972,163.85,1,1,2.205,0,-2.205,0
-8.1063e-27,0.015645,0,0,0,0,0,0,0,0,-48.939,0.034454,0,-226.63,0,-82.793,163.42,1,1,2.21,0,-2.21,0
-8.0919e-27,0.01565,0,0,0,0,0,0,0,0,-48.882,0.035986,0,-226.09,0,-82.614,162.98,1,1,2.215,0,-2.215,0
-8.0759e-27,0.015654,0,0,0,0,0,0,0,0,-48.824,0.037741,0,-225.55,0,-82.434,162.55,1,1,2.22,0,-2.22,0
-8.0584e-27,0.015659,0,0,0,0,0,0,0,0,-48.765,0.039718,0,-225.01,0,-82.253,162.12,1,1,2.225,0,-2.225,0
-8.0395e-27,0.015664,0,0,0,0,0,0,0,0,-48.704,0.041918,0,-224.47,0,-82.071,161.69,1,1,2.23,0,-2.23,0
-8.019e-27,0.015668,0,0,0,0,0,0,0,0,-48.642,0.04434,0,-223.93,0,-81.89,161.25,1,1,2.235,0,-2.235,0
-7.997e-27,0.015673,0,0,0,0,0,0,0,0,-48.579,0.046985,0,-223.39,0,-81.707,160.82,1,1,2.24,0,-2.24,0
-7.9735e-27,0.015678,0,0,0,0,0,0,0,0,-48.515,0.049852,0,-222.84,0,-81.524,160.39,1,1,2.245,0,-2.245,0
-7.9484e-27,0.015682,0,0,0,0,0,0,0,0,-48.449,0.052942,0,-222.3,0,-81.341,159.96,1,1,2.25,0,-2.25,0
-7.9219e-27,0.015687,0,0,0,0,0,0,0,0,-48.383,0.056255,0,-221.75,0,-81.157,159.53,1,1,2.255,0,-2.255,0
-7.8939e-27,0.015691,0,0,0,0,0,0,0,0,-48.315,0.05979,0,-221.21,0,-80.972,159.1,1,1,2.26,0,-2.26,0
-7.8644e-27,0.015696,0,0,0,0,0,0,0,0,-48.246,0.063548,0,-220.66,0,-80.787,158.67,1,1,2.265,0,-2.265,0
-7.8333e-27,0.0157,0,0,0,0,0,0,0,0,-48.176,0.067528,0,-220.11,0,-80.601,158.24,1,1,2.27,0,-2.27,0
-7.8007e-27,0.015705,0,0,0,0,0,0,0,0,-48.105,0.07173,0,-219.57,0,-80.415,157.81,1,1,2.275,0,-2.275,0
-7.7667e-27,0.01571,0,0,0,0,0,0,0,0,-48.032,0.076155,0,-219.02,0,-80.228,157.38,1,1,2.28,0,-2.28,0
-7.7311e-27,0.015714,0,0,0,0,0,0,0,0,-47.958,0.080803,0,-218.47,0,-80.041,156.95,1,1,2.285,0,-2.285,0
-7.694e-27,0.015719,0,0,0,0,0,0,0,0,-47.883,0.085674,0,-217.92,0,-79.853,156.52,1,1,2.29,0,-2.29,0
-7.6554e-27,0.015723,0,0,0,0,0,0,0,0,-47.807,0.090766,0,-217.37,0,-79.664,156.09,1,1,2.295,0,-2.295,0
-7.6153e-27,0.015727,0,0,0,0,0,0,0,0,-47.73,0.096082,0,-216.82,0,-79.475,155.66,1,1,2.3,0,-2.3,0
-7.5737e-27,0.015732,0,0,0,0,0,0,0,0,-47.652,0.10162,0,-216.27,0,-79.285,155.23,1,1,2.305,0,-2.305,0
-7.5306e-27,0.015736,0,0,0,0,0,0,0,0,-47.572,0.10738,0,-215.71,0,-79.095,154.8,1,1,2.31,0,-2.31,0
-7.486e-27,0.015741,0,0,0,0,0,0,0,0,-47.491,0.11336,0,-215.16,0,-78.904,154.38,1,1,2.315,0,-2.315,0
5.6477e-21,0.015745,0,0,0,0,0,0,0,0,-47.409,0.11957,0,-214.61,0,-78.713,153.95,1,1,2.32,0,-2.32,0
5.6277e-21,0.01575,0,0,0,0,0,0,0,0,-47.326,0.126,0,-214.05,0,-78.521,153.52,1,1,2.325,0,-2.325,0
5.6078e-21,0.015754,0,0,0,0,0,0,0,0,-47.241,0.13265,0,-213.5,0,-78.329,153.1,1,1,2.33,0,-2.33,0
5.588e-21,0.015758,0,0,0,0,0,0,0,0,-47.156,0.13952,0,-212.94,0,-78.136,152.67,1,1,2.335,0,-2.335,0
5.5683e-21,0.015763,0,0,0,0,0,0,0,0,-47.069,0.14662,0,-212.38,0,-77.942,152.24,1,1,2.34,0,-2.34,0
1.1098e-20,0.015767,0,0,0,0,0,0,0,0,-46.981,0.15393,0,-211.83,0,-77.748,151.82,1,1,2.345,0,-2.345,0
1.1059e-20,0.015772,0,0,0,0,0,0,0,0,-46.892,0.16148,0,-211.27,0,-77.553,151.39,1,1,2.35,0,-2.35,0
1.102e-20,0.015776,0,0,0,0,0,0,0,0,-46.801,0.16924,0,-210.71,0,-77.358,150.97,1,1,2.355,0,-2.355,0
1.0981e-20,0.01578,0,0,0,0,0,0,0,0,-46.711,0.17701,0,-210.16,0,-77.164,150.55,1,1,2.36,0,-2.36,0
5.4729e-21,0.015785,0,0,0,0,0,0,0,0,-46.704,0.17136,0,-209.81,0,-77.057,150.25,1,1,2.365,0,-2.365,0
5.4553e-21,0.015789,0,0,0,0,0,0,0,0,-46.696,0.1658,0,-209.46,0,-76.951,149.95,1,1,2.37,0,-2.37,0
5.4378e-21,0.015793,0,0,0,0,0,0,0,0,-46.688,0.16035,0,-209.11,0,-76.843,149.65,1,1,2.375,0,-2.375,0
5.4203e-21,0.015798,0,0,0,0,0,0,0,0,-46.679,0.15499,0,-208.77,0,-76.736,149.35,1,1,2.38,0,-2.38,0
5.4028e-21,0.015802,0,0,0,0,0,0,0,0,-46.669,0.14974,0,-208.42,0,-76.628,149.05,1,1,2.385,0,-2.385,0
5.3855e-21,0.015806,0,0,0,0,0,0,0,0,-46.659,0.14458,0,-208.07,0,-76.52,148.75,1,1,2.39,0,-2.39,0
-7.582e-27,0.01581,0,0,0,0,0,0,0,0,-46.647,0.13952,0,-207.72,0,-76.412,148.45,1,1,2.395,0,-2.395,0
-7.6551e-27,0.015815,0,0,0,0,0,0,0,0,-46.636,0.13456,0,-207.37,0,-76.303,148.15,1,1,2.4,0,-2.4,0
-7.7263e-27,0.015819,0,0,0,0,0,0,0,0,-46.623,0.1297,0,-207.02,0,-76.194,147.85,1,1,2.405,0,-2.405,0
-7.7956e-27,0.015823,0,0,0,0,0,0,0,0,-46.61,0.12494,0,-206.67,0,-76.085,147.55,1,1,2.41,0,-2.41,0
-7.8631e-27,0.015828,0,0,0,0,0,0,0,0,-46.596,0.12027,0,-206.32,0,-75.975,147.25,1,1,2.415,0,-2.415,0
-7.9287e-27,0.015832,0,0,0,0,0,0,0,0,-46.582,0.11571,0,-205.97,0,-75.866,146.95,1,1,2.42,0,-2.42,0
-7.9924e-27,0.015836,0,0,0,0,0,0,0,0,-46.566,0.11125,0,-205.62,0,-75.755,146.66,1,1,2.425,0,-2.425,0
-8.0543e-27,0.01584,0,0,0,0,0,0,0,0,-46.551,0.10688,0,-205.27,0,-75.645,146.36,1,1,2.43,0,-2.43,0
-8.1144e-27,0.015845,0,0,0,0,0,0,0,0,-46.534,0.10261,0,-204.92,0,-75.534,146.06,1,1,2.435,0,-2.435,0
-8.1726e-27,0.015849,0,0,0,0,0,0,0,0,-46.517,0.098447,0,-204.57,0,-75.423,145.76,1,1,2.44,0,-2.44,0
-8.2289e-27,0.015853,0,0,0,0,0,0,0,0,-46.499,0.094378,0,-204.21,0,-75.311,145.46,1,1,2.445,0,-2.445,0
-8.2833e-27,0.015857,0,0,0,0,0,0,0,0,-46.48,0.090409,0,-203.86,0,-75.2,145.17,1,1,2.45,0,-2.45,0
-8.336e-27,0.015861,0,0,0,0,0,0,0,0,-46.461,0.086538,0,-203.51,0,-75.088,144.87,1,1,2.455,0,-2.455,0
-8.3867e-27,0.015866,0,0,0,0,0,0,0,0,-46.441,0.082767,0,-203.15,0,-74.975,144.57,1,1,2.46,0,-2.46,0
-8.4356e-27,0.01587,0,0,0,0,0,0,0,0,-46.421,0.079094,0,-202.8,0,-74.862,144.28,1,1,2.465,0,-2.465,0
-8.4826e-27,0.015874,0,0,0,0,0,0,0,0,-46.399,0.075521,0,-202.45,0,-74.749,143.98,1,1,2.47,0,-2.47,0
-8.5278e-27,0.015878,0,0,0,0,0,0,0,0,-46.377,0.072046,0,-202.09,0,-74.636,143.68,1,1,2.475,0,-2.475,0
-8.5711e-27,0.015882,0,0,0,0,0,0,0,0,-46.355,0.068671,0,-201.74,0,-74.523,143.39,1,1,2.48,0,-2.48,0
-8.6126e-27,0.015886,0,0,0,0,0,0,0,0,-46.331,0.065395,0,-201.38,0,-74.409,143.09,1,1,2.485,0,-2.485,0
-8.6522e-27,0.015891,0,0,0,0,0,0,0,0,-46.307,0.062217,0,-201.02,0,-74.294,142.8,1,1,2.49,0,-2.49,0
-8.6899e-27,0.015895,0,0,0,0,0,0,0,0,-46.283,0.059139,0,-200.67,0,-74.18,142.5,1,1,2.495,0,-2.495,0
-8.7258e-27,0.015899,0,0,0,0,0,0,0,0,-46.258,0.05616,0,-200.31,0,-74.065,142.21,1,1,2.5,0,-2.5,0
-8.7599e-27,0.015903,0,0,0,0,0,0,0,0,-46.232,0.053279,0,-199.96,0,-73.95,141.91,1,1,2.505,0,-2.505,0
-8.792e-27,0.015907,0,0,0,0,0,0,0,0,-46.205,0.050498,0,-199.6,0,-73.834,141.62,1,1,2.51,0,-2.51,0
-8.8223e-27,0.015911,0,0,0,0,0,0,0,0,-46.177,0.047816,0,-199.24,0,-73.718,141.32,1,1,2.515,0,-2.515,0
-8.8508e-27,0.015915,0,0,0,0,0,0,0,0,-46.149,0.045232,0,-198.88,0,-73.602,141.03,1,1,2.52,0,-2.52,0
-8.8774e-27,0.015919,0,0,0,0,0,0,0,0,-46.121,0.042748,0,-198.52,0,-73.486,140.73,1,1,2.525,0,-2.525,0
-8.9021e-27,0.015923,0,0,0,0,0,0,0,0,-46.091,0.040363,0,-198.17,0,-73.369,140.44,1,1,2.53,0,-2.53,0
-8.925e-27,0.015927,0,0,0,0,0,0,0,0,-46.061,0.038077,0,-197.81,0,-73.252,140.14,1,1,2.535,0,-2.535,0
-8.9461e-27,0.015932,0,0,0,0,0,0,0,0,-46.031,0.035889,0,-197.45,0,-73.135,139.85,1,1,2.54,0,-2.54,0
-8.9652e-27,0.015936,0,0,0,0,0,0,0,0,-45.999,0.033801,0,-197.09,0,-73.017,139.56,1,1,2.545,0,-2.545,0
-8.9825e-27,0.01594,0,0,0,0,0,0,0,0,-45.967,0.031812,0,-196.73,0,-72.899,139.26,1,1,2.55,0,-2.55,0
-8.998e-27,0.015944,0,0,0,0,0,0,0,0,-45.934,0.029922,0,-196.37,0,-72.781,138.97,1,1,2.555,0,-2.555,0
-9.0116e-27,0.015948,0,0,0,0,0,0,0,0,-45.901,0.028131,0,-196.01,0,-72.662,138.68,1,1,2.56,0,-2.56,0
-9.0233e-27,0.015952,0,0,0,0,0,0,0,0,-45.867,0.026439,0,-195.65,0,-72.543,138.38,1,1,2.565,0,-2.565,0
-9.0332e-27,0.015956,0,0,0,0,0,0,0,0,-45.832,0.024845,0,-195.28,0,-72.424,138.09,1,1,2.57,0,-2.57,0
4.7853e-21,0.01596,0,0,0,0,0,0,0,0,-45.797,0.023351,0,-194.92,0,-72.305,137.8,1,1,2.575,0,-2.575,0
4.7702e-21,0.015964,0,0,0,0,0,0,0,0,-45.761,0.021956,0,-194.56,0,-72.185,137.51,1,1,2.58,0,-2.58,0
4.7552e-21,0.015968,0,0,0,0,0,0,0,0,-45.724,0.02066,0,-194.2,0,-72.065,137.21,1,1,2.585,0,-2.585,0
4.7403e-21,0.015972,0,0,0,0,0,0,0,0,-45.686,0.019463,0,-193.84,0,-71.944,136.92,1,1,2.59,0,-2.59,0
4.7254e-21,0.015976,0,0,0,0,0,0,0,0,-45.648,0.018365,0,-193.47,0,-71.824,136.63,1,1,2.595,0,-2.595,0
4.7105e-21,0.01598,0,0,0,0,0,0,0,0,-45.609,0.017366,0,-193.11,0,-71.702,136.34,1,1,2.6,0,-2.6,0
-9.0503e-27,0.015984,0,0,0,0,0,0,0,0,-45.57,0.016466,0,-192.74,0,-71.581,136.05,1,1,2.605,0,-2.605,0
-9.0453e-27,0.015987,0,0,0,0,0,0,0,0,-45.53,0.015665,0,-192.38,0,-71.459,135.76,1,1,2.61,0,-2.61,0
-9.0385e-27,0.015991,0,0,0,0,0,0,0,0,-45.489,0.014963,0,-192.02,0,-71.337,135.46,1,1,2.615,0,-2.615,0
-9.0298e-27,0.015995,0,0,0,0,0,0,0,0,-45.447,0.01436,0,-191.65,0,-71.215,135.17,1,1,2.62,0,-2.62,0
-9.0192e-27,0.015999,0,0,0,0,0,0,0,0,-45.405,0.013857,0,-191.29,0,-71.092,134.88,1,1,2.625,0,-2.625,0
-9.0068e-27,0.016003,0,0,0,0,0,0,0,0,-45.362,0.013452,0,-190.92,0,-70.97,134.59,1,1,2.63,0,-2.63,0
-8.9925e-27,0.016007,0,0,0,0,0,0,0,0,-45.319,0.013146,0,-190.55,0,-70.846,134.3,1,1,2.635,0,-2.635,0
-8.9764e-27,0.016011,0,0,0,0,0,0,0,0,-45.274,0.012939,0,-190.19,0,-70.723,134.01,1,1,2.64,0,-2.64,0
-8.9584e-27,0.016015,0,0,0,0,0,0,0,0,-45.229,0.012831,0,-189.82,0,-70.599,133.72,1,1,2.645,0,-2.645,0
-8.9386e-27,0.016019,0,0,0,0,0,0,0,0,-45.184,0.012822,0,-189.45,0,-70.475,133.43,1,1,2.65,0,-2.65,0
-8.9169e-27,0.016023,0,0,0,0,0,0,0,0,-45.138,0.012912,0,-189.09,0,-70.35,133.14,1,1,2.655,0,-2.655,0
-8.8933e-27,0.016026,0,0,0,0,0,0,0,0,-45.091,0.013101,0,-188.72,0,-70.226,132.85,1,1,2.66,0,-2.66,0
-8.8679e-27,0.01603,0,0,0,0,0,0,0,0,-45.043,0.013389,0,-188.35,0,-70.1,132.56,1,1,2.665,0,-2.665,0
-8.8406e-27,0.016034,0,0,0,0,0,0,0,0,-44.995,0.013776,0,-187.98,0,-69.975,132.28,1,1,2.67,0,-2.67,0
-8.8115e-27,0.016038,0,0,0,0,0,0,0,0,-44.946,0.014262,0,-187.61,0,-69.849,131.99,1,1,2.675,0,-2.675,0
-8.7805e-27,0.016042,0,0,0,0,0,0,0,0,-44.896,0.014848,0,-187.24,0,-69.723,131.7,1,1,2.68,0,-2.68,0
-8.7476e-27,0.016046,0,0,0,0,0,0,0,0,-44.846,0.015532,0,-186.87,0,-69.597,131.41,1,1,2.685,0,-2.685,0
-8.7129e-27,0.01605,0,0,0,0,0,0,0,0,-44.795,0.016315,0,-186.5,0,-69.47,131.12,1,1,2.69,0,-2.69,0
-8.6764e-27,0.016053,0,0,0,0,0,0,0,0,-44.743,0.017197,0,-186.13,0,-69.343,130.83,1,1,2.695,0,-2.695,0
-8.6379e-27,0.016057,0,0,0,0,0,0,0,0,-44.691,0.018178,0,-185.76,0,-69.216,130.55,1,1,2.7,0,-2.7,0
-8.5977e-27,0.016061,0,0,0,0,0,0,0,0,-44.638,0.019258,0,-185.39,0,-69.088,130.26,1,1,2.705,0,-2.705,0
-8.5555e-27,0.016065,0,0,0,0,0,0,0,0,-44.584,0.020437,0,-185.02,0,-68.961,129.97,1,1,2.71,0,-2.71,0
-8.5115e-27,0.016068,0,0,0,0,0,0,0,0,-44.53,0.021715,0,-184.65,0,-68.832,129.68,1,1,2.715,0,-2.715,0
-8.4657e-27,0.016072,0,0,0,0,0,0,0,0,-44.475,0.023092,0,-184.27,0,-68.704,129.4,1,1,2.72,0,-2.72,0
-8.418e-27,0.016076,0,0,0,0,0,0,0,0,-44.419,0.024568,0,-183.9,0,-68.575,129.11,1,1,2.725,0,-2.725,0
-8.3684e-27,0.01608,0,0,0,0,0,0,0,0,-44.363,0.026144,0,-183.53,0,-68.446,128.82,1,1,2.73,0,-2.73,0
-8.317e-27,0.016083,0,0,0,0,0,0,0,0,-44.306,0.027818,0,-183.16,0,-68.317,128.54,1,1,2.735,0,-2.735,0
-8.2637e-27,0.016087,0,0,0,0,0,0,0,0,-44.248,0.029591,0,-182.78,0,-68.187,128.25,1,1,2.74,0,-2.74,0
-8.2086e-27,0.016091,0,0,0,0,0,0,0,0,-44.19,0.031463,0,-182.41,0,-68.057,127.96,1,1,2.745,0,-2.745,0
-8.1516e-27,0.016095,0,0,0,0,0,0,0,0,-44.13,0.033434,0,-182.03,0,-67.926,127.68,1,1,2.75,0,-2.75,0
-8.0927e-27,0.016098,0,0,0,0,0,0,0,0,-44.071,0.035504,0,-181.66,0,-67.796,127.39,1,1,2.755,0,-2.755,0
-8.032e-27,0.016102,0,0,0,0,0,0,0,0,-44.01,0.037673,0,-181.28,0,-67.665,127.11,1,1,2.76,0,-2.76,0
-7.9694e-27,0.016106,0,0,0,0,0,0,0,0,-43.949,0.039942,0,-180.91,0,-67.533,126.82,1,1,2.765,0,-2.765,0
-7.905e-27,0.016109,0,0,0,0,0,0,0,0,-43.887,0.042309,0,-180.53,0,-67.402,126.54,1,1,2.77,0,-2.77,0
-7.8387e-27,0.016113,0,0,0,0,0,0,0,0,-43.825,0.044775,0,-180.16,0,-67.27,126.25,1,1,2.775,0,-2.775,0
-7.7706e-27,0.016117,0,0,0,0,0,0,0,0,-43.762,0.04734,0,-179.78,0,-67.138,125.97,1,1,2.78,0,-2.78,0
-7.7006e-27,0.01612,0,0,0,0,0,0,0,0,-43.698,0.050004,0,-179.4,0,-67.005,125.68,1,1,2.785,0,-2.785,0
-7.6287e-27,0.016124,0,0,0,0,0,0,0,0,-43.633,0.052767,0,-179.03,0,-66.872,125.4,1,1,2.79,0,-2.79,0
-7.555e-27,0.016128,0,0,0,0,0,0,0,0,-43.568,0.055629,0,-178.65,0,-66.739,125.11,1,1,2.795,0,-2.795,0
-7.4794e-27,0.016131,0,0,0,0,0,0,0,0,-43.502,0.05859,0,-178.27,0,-66.606,124.83,1,1,2.8,0,-2.8,0
-7.402e-27,0.016135,0,0,0,0,0,0,0,0,-43.436,0.061651,0,-177.89,0,-66.472,124.54,1,1,2.805,0,-2.805,0
-7.3227e-27,0.016139,0,0,0,0,0,0,0,0,-43.369,0.06481,0,-177.51,0,-66.338,124.26,1,1,2.81,0,-2.81,0
-7.2415e-27,0.016142,0,0,0,0,0,0,0,0,-43.301,0.068068,0,-177.13,0,-66.203,123.98,1,1,2.815,0,-2.815,0
-7.1585e-27,0.016146,0,0,0,0,0,0,0,0,-43.232,0.071425,0,-176.75,0,-66.069,123.69,1,1,2.82,0,-2.82,0
-7.0737e-27,0.016149,0,0,0,0,0,0,0,0,-43.163,0.074881,0,-176.37,0,-65.934,123.41,1,1,2.825,0,-2.825,0
-6.987e-27,0.016153,0,0,0,0,0,0,0,0,-43.093,0.078436,0,-175.99,0,-65.798,123.13,1,1,2.83,0,-2.83,0
-6.8984e-27,0.016157,0,0,0,0,0,0,0,0,-43.023,0.08209,0,-175.61,0,-65.663,122.85,1,1,2.835,0,-2.835,0
-6.8079e-27,0.01616,0,0,0,0,0,0,0,0,-42.951,0.085843,0,-175.23,0,-65.527,122.56,1,1,2.84,0,-2.84,0
-6.7156e-27,0.016164,0,0,0,0,0,0,0,0,-42.88,0.089696,0,-174.85,0,-65.39,122.28,1,1,2.845,0,-2.845,0
-6.6888e-27,0.016167,0,0,0,0,0,0,0,0,-42.83,0.090774,0,-174.53,0,-65.278,122.03,1,1,2.85,0,-2.85,0
-6.7545e-27,0.016171,0,0,0,0,0,0,0,0,-42.812,0.087907,0,-174.28,0,-65.198,121.83,1,1,2.855,0,-2.855,0
-6.8188e-27,0.016174,0,0,0,0,0,0,0,0,-42.793,0.085087,0,-174.03,0,-65.117,121.62,1,1,2.86,0,-2.86,0
-6.8818e-27,0.016178,0,0,0,0,0,0,0,0,-42.774,0.082315,0,-173.78,0,-65.037,121.42,1,1,2.865,0,-2.865,0
-6.9436e-27,0.016182,0,0,0,0,0,0,0,0,-42.755,0.079591,0,-173.53,0,-64.957,121.21,1,1,2.87,0,-2.87,0
-7.004e-27,0.016185,0,0,0,0,0,0,0,0,-42.735,0.076913,0,-173.29,0,-64.876,121.01,1,1,2.875,0,-2.875,0
-7.0632e-27,0.016189,0,0,0,0,0,0,0,0,-42.715,0.074284,0,-173.04,0,-64.795,120.81,1,1,2.88,0,-2.88,0
-7.121e-27,0.016192,0,0,0,0,0,0,0,0,-42.694,0.071702,0,-172.79,0,-64.714,120.6,1,1,2.885,0,-2.885,0
-7.1776e-27,0.016196,0,0,0,0,0,0,0,0,-42.673,0.069167,0,-172.54,0,-64.633,120.4,1,1,2.89,0,-2.89,0
-7.2328e-27,0.016199,0,0,0,0,0,0,0,0,-42.652,0.06668,0,-172.29,0,-64.552,120.19,1,1,2.895,0,-2.895,0
-7.2867e-27,0.016203,0,0,0,0,0,0,0,0,-42.63,0.06424,0,-172.04,0,-64.47,119.99,1,1,2.9,0,-2.9,0
-7.3394e-27,0.016206,0,0,0,0,0,0,0,0,-42.608,0.061848,0,-171.79,0,-64.388,119.79,1,1,2.905,0,-2.905,0
-7.3907e-27,0.01621,0,0,0,0,0,0,0,0,-42.585,0.059503,0,-171.54,0,-64.306,119.58,1,1,2.91,0,-2.91,0
-7.4407e-27,0.016213,0,0,0,0,0,0,0,0,-42.562,0.057206,0,-171.29,0,-64.224,119.38,1,1,2.915,0,-2.915,0
-7.4895e-27,0.016217,0,0,0,0,0,0,0,0,-42.539,0.054956,0,-171.04,0,-64.142,119.18,1,1,2.92,0,-2.92,0
-7.5369e-27,0.01622,0,0,0,0,0,0,0,0,-42.515,0.052754,0,-170.79,0,-64.059,118.98,1,1,2.925,0,-2.925,0
-7.5831e-27,0.016224,0,0,0,0,0,0,0,0,-42.491,0.0506,0,-170.54,0,-63.977,118.77,1,1,2.93,0,-2.93,0
-7.6279e-27,0.016227,0,0,0,0,0,0,0,0,-42.466,0.048493,0,-170.29,0,-63.894,118.57,1,1,2.935,0,-2.935,0
-7.6714e-27,0.016231,0,0,0,0,0,0,0,0,-42.441,0.046433,0,-170.04,0,-63.811,118.37,1,1,2.94,0,-2.94,0
-7.7136e-27,0.016234,0,0,0,0,0,0,0,0,-42.416,0.044421,0,-169.79,0,-63.728,118.17,1,1,2.945,0,-2.945,0
-7.7546e-27,0.016238,0,0,0,0,0,0,0,0,-42.39,0.042456,0,-169.54,0,-63.644,117.96,1,1,2.95,0,-2.95,0
-7.7942e-27,0.016241,0,0,0,0,0,0,0,0,-42.364,0.040539,0,-169.28,0,-63.561,117.76,1,1,2.955,0,-2.955,0
-7.8325e-27,0.016244,0,0,0,0,0,0,0,0,-42.338,0.038669,0,-169.03,0,-63.477,117.56,1,1,2.96,0,-2.96,0
-7.8696e-27,0.016248,0,0,0,0,0,0,0,0,-42.311,0.036847,0,-168.78,0,-63.393,117.36,1,1,2.965,0,-2.965,0
-7.9053e-27,0.016251,0,0,0,0,0,0,0,0,-42.283,0.035073,0,-168.53,0,-63.309,117.16,1,1,2.97,0,-2.97,0
-7.9397e-27,0.016255,0,0,0,0,0,0,0,0,-42.256,0.033346,0,-168.28,0,-63.225,116.95,1,1,2.975,0,-2.975,0
-7.9729e-27,0.016258,0,0,0,0,0,0,0,0,-42.227,0.031666,0,-168.02,0,-63.14,116.75,1,1,2.98,0,-2.98,0
-8.0047e-27,0.016262,0,0,0,0,0,0,0,0,-42.199,0.030034,0,-167.77,0,-63.056,116.55,1,1,2.985,0,-2.985,0
-8.0352e-27,0.016265,0,0,0,0,0,0,0,0,-42.17,0.028449,0,-167.52,0,-62.971,116.35,1,1,2.99,0,-2.99,0
-8.0644e-27,0.016268,0,0,0,0,0,0,0,0,-42.141,0.026912,0,-167.26,0,-62.886,116.15,1,1,2.995,0,-2.995,0
-8.0923e-27,0.016272,0,0,0,0,0,0,0,0,-42.111,0.025423,0,-167.01,0,-62.801,115.95,1,1,3,0,-3,0
-8.119e-27,0.016275,0,0,0,0,0,0,0,0,-42.081,0.02398,0,-166.76,0,-62.716,115.75,1,1,3.005,0,-3.005,0
-8.1443e-27,0.016279,0,0,0,0,0,0,0,0,-42.05,0.022586,0,-166.5,0,-62.63,115.55,1,1,3.01,0,-3.01,0
-8.1683e-27,0.016282,0,0,0,0,0,0,0,0,-42.019,0.021239,0,-166.25,0,-62.544,115.34,1,1,3.015,0,-3.015,0
-8.191e-27,0.016285,0,0,0,0,0,0,0,0,-41.988,0.019939,0,-165.99,0,-62.458,115.14,1,1,3.02,0,-3.02,0
-8.2125e-27,0.016289,0,0,0,0,0,0,0,0,-41.956,0.018687,0,-165.74,0,-62.372,114.94,1,1,3.025,0,-3.025,0
-8.2326e-27,0.016292,0,0,0,0,0,0,0,0,-41.924,0.017483,0,-165.48,0,-62.286,114.74,1,1,3.03,0,-3.03,0
-8.2514e-27,0.016295,0,0,0,0,0,0,0,0,-41.892,0.016325,0,-165.23,0,-62.2,114.54,1,1,3.035,0,-3.035,0
-8.2689e-27,0.016299,0,0,0,0,0,0,0,0,-41.859,0.015216,0,-164.97,0,-62.113,114.34,1,1,3.04,0,-3.04,0
-8.2851e-27,0.016302,0,0,0,0,0,0,0,0,-41.826,0.014154,0,-164.72,0,-62.026,114.14,1,1,3.045,0,-3.045,0
-8.3e-27,0.016306,0,0,0,0,0,0,0,0,-41.792,0.013139,0,-164.46,0,-61.939,113.94,1,1,3.05,0,-3.05,0
-8.3137e-27,0.016309,0,0,0,0,0,0,0,0,-41.758,0.012172,0,-164.21,0,-61.852,113.74,1,1,3.055,0,-3.055,0
-8.326e-27,0.016312,0,0,0,0,0,0,0,0,-41.723,0.011253,0,-163.95,0,-61.765,113.54,1,1,3.06,0,-3.06,0
-8.337e-27,0.016316,0,0,0,0,0,0,0,0,-41.689,0.010381,0,-163.7,0,-61.678,113.34,1,1,3.065,0,-3.065,0
-8.3467e-27,0.016319,0,0,0,0,0,0,0,0,-41.653,0.009556,0,-163.44,0,-61.59,113.14,1,1,3.07,0,-3.07,0
-8.3551e-27,0.016322,0,0,0,0,0,0,0,0,-41.618,0.0087789,0,-163.18,0,-61.502,112.94,1,1,3.075,0,-3.075,0
-8.3622e-27,0.016325,0,0,0,0,0,0,0,0,-41.581,0.0080494,0,-162.93,0,-61.414,112.75,1,1,3.08,0,-3.08,0
-8.368e-27,0.016329,0,0,0,0,0,0,0,0,-41.545,0.0073673,0,-162.67,0,-61.326,112.55,1,1,3.085,0,-3.085,0
-8.3725e-27,0.016332,0,0,0,0,0,0,0,0,-41.508,0.0067327,0,-162.41,0,-61.237,112.35,1,1,3.09,0,-3.09,0
-8.3758e-27,0.016335,0,0,0,0,0,0,0,0,-41.471,0.0061457,0,-162.16,0,-61.149,112.15,1,1,3.095,0,-3.095,0
-8.3777e-27,0.016339,0,0,0,0,0,0,0,0,-41.433,0.0056062,0,-161.9,0,-61.06,111.95,1,1,3.1,0,-3.1,0
-8.3783e-27,0.016342,0,0,0,0,0,0,0,0,-41.395,0.0051141,0,-161.64,0,-60.971,111.75,1,1,3.105,0,-3.105,0
-8.3776e-27,0.016345,0,0,0,0,0,0,0,0,-41.357,0.0046696,0,-161.38,0,-60.882,111.55,1,1,3.11,0,-3.11,0
-8.3756e-27,0.016348,0,0,0,0,0,0,0,0,-41.318,0.0042725,0,-161.12,0,-60.793,111.35,1,1,3.115,0,-3.115,0
-8.3723e-27,0.016352,0,0,0,0,0,0,0,0,-41.279,0.003923,0,-160.87,0,-60.703,111.16,1,1,3.12,0,-3.12,0
-8.3677e-27,0.016355,0,0,0,0,0,0,0,0,-41.239,0.003621,0,-160.61,0,-60.614,110.96,1,1,3.125,0,-3.125,0
-8.3618e-27,0.016358,0,0,0,0,0,0,0,0,-41.199,0.0033665,0,-160.35,0,-60.524,110.76,1,1,3.13,0,-3.13,0
-8.3546e-27,0.016362,0,0,0,0,0,0,0,0,-41.159,0.0031594,0,-160.09,0,-60.434,110.56,1,1,3.135,0,-3.135,0
-8.3461e-27,0.016365,0,0,0,0,0,0,0,0,-41.118,0.0029999,0,-159.83,0,-60.344,110.36,1,1,3.14,0,-3.14,0
-8.3363e-27,0.016368,0,0,0,0,0,0,0,0,-41.076,0.0028879,0,-159.57,0,-60.253,110.17,1,1,3.145,0,-3.145,0
-8.3252e-27,0.016371,0,0,0,0,0,0,0,0,-41.035,0.0028234,0,-159.31,0,-60.163,109.97,1,1,3.15,0,-3.15,0
-8.3128e-27,0.016374,0,0,0,0,0,0,0,0,-40.993,0.0028063,0,-159.05,0,-60.072,109.77,1,1,3.155,0,-3.155,0
-8.2991e-27,0.016378,0,0,0,0,0,0,0,0,-40.95,0.0028368,0,-158.79,0,-59.981,109.57,1,1,3.16,0,-3.16,0
-8.2841e-27,0.016381,0,0,0,0,0,0,0,0,-40.908,0.0029147,0,-158.53,0,-59.89,109.38,1,1,3.165,0,-3.165,0
-8.2678e-27,0.016384,0,0,0,0,0,0,0,0,-40.864,0.0030402,0,-158.27,0,-59.799,109.18,1,1,3.17,0,-3.17,0
-8.2502e-27,0.016387,0,0,0,0,0,0,0,0,-40.821,0.0032131,0,-158.01,0,-59.707,108.98,1,1,3.175,0,-3.175,0
-8.2313e-27,0.016391,0,0,0,0,0,0,0,0,-40.777,0.0034336,0,-157.75,0,-59.616,108.78,1,1,3.18,0,-3.18,0
-8.2111e-27,0.016394,0,0,0,0,0,0,0,0,-40.732,0.0037015,0,-157.49,0,-59.524,108.59,1,1,3.185,0,-3.185,0
-8.1896e-27,0.016397,0,0,0,0,0,0,0,0,-40.688,0.004017,0,-157.23,0,-59.432,108.39,1,1,3.19,0,-3.19,0
-8.1668e-27,0.0164,0,0,0,0,0,0,0,0,-40.642,0.0043799,0,-156.97,0,-59.34,108.19,1,1,3.195,0,-3.195,0
-8.1427e-27,0.016403,0,0,0,0,0,0,0,0,-40.597,0.0047904,0,-156.71,0,-59.248,108,1,1,3.2,0,-3.2,0
-8.1173e-27,0.016406,0,0,0,0,0,0,0,0,-40.551,0.0052483,0,-156.44,0,-59.155,107.8,1,1,3.205,0,-3.205,0
-8.0906e-27,0.01641,0,0,0,0,0,0,0,0,-40.504,0.0057537,0,-156.18,0,-59.062,107.61,1,1,3.21,0,-3.21,0
-8.0626e-27,0.016413,0,0,0,0,0,0,0,0,-40.458,0.0063067,0,-155.92,0,-58.969,107.41,1,1,3.215,0,-3.215,0
-8.0333e-27,0.016416,0,0,0,0,0,0,0,0,-40.41,0.0069071,0,-155.66,0,-58.876,107.21,1,1,3.22,0,-3.22,0
-8.0027e-27,0.016419,0,0,0,0,0,0,0,0,-40.363,0.007555,0,-155.39,0,-58.783,107.02,1,1,3.225,0,-3.225,0
-7.9708e-27,0.016422,0,0,0,0,0,0,0,0,-40.315,0.0082504,0,-155.13,0,-58.69,106.82,1,1,3.23,0,-3.23,0
-7.9376e-27,0.016425,0,0,0,0,0,0,0,0,-40.266,0.0089933,0,-154.87,0,-58.596,106.63,1,1,3.235,0,-3.235,0
-7.903e-27,0.016428,0,0,0,0,0,0,0,0,-40.218,0.0097838,0,-154.61,0,-58.502,106.43,1,1,3.24,0,-3.24,0
-7.8672e-27,0.016432,0,0,0,0,0,0,0,0,-40.169,0.010622,0,-154.34,0,-58.408,106.23,1,1,3.245,0,-3.245,0
-7.8301e-27,0.016435,0,0,0,0,0,0,0,0,-40.119,0.011507,0,-154.08,0,-58.314,106.04,1,1,3.25,0,-3.25,0
-7.7917e-27,0.016438,0,0,0,0,0,0,0,0,-40.069,0.01244,0,-153.82,0,-58.22,105.84,1,1,3.255,0,-3.255,0
-7.752e-27,0.016441,0,0,0,0,0,0,0,0,-40.019,0.01342,0,-153.55,0,-58.126,105.65,1,1,3.26,0,-3.26,0
-7.711e-27,0.016444,0,0,0,0,0,0,0,0,-39.968,0.014448,0,-153.29,0,-58.031,105.45,1,1,3.265,0,-3.265,0
-7.6687e-27,0.016447,0,0,0,0,0,0,0,0,-39.917,0.015524,0,-153.02,0,-57.936,105.26,1,1,3.27,0,-3.27,0
-7.6251e-27,0.01645,0,0,0,0,0,0,0,0,-39.865,0.016647,0,-152.76,0,-57.841,105.06,1,1,3.275,0,-3.275,0
-7.5801e-27,0.016453,0,0,0,0,0,0,0,0,-39.813,0.017817,0,-152.49,0,-57.746,104.87,1,1,3.28,0,-3.28,0
-7.5339e-27,0.016456,0,0,0,0,0,0,0,0,-39.761,0.019035,0,-152.23,0,-57.65,104.68,1,1,3.285,0,-3.285,0
-7.4864e-27,0.016459,0,0,0,0,0,0,0,0,-39.708,0.0203,0,-151.96,0,-57.555,104.48,1,1,3.29,0,-3.29,0
-7.4376e-27,0.016463,0,0,0,0,0,0,0,0,-39.655,0.021613,0,-151.7,0,-57.459,104.29,1,1,3.295,0,-3.295,0
-7.3875e-27,0.016466,0,0,0,0,0,0,0,0,-39.601,0.022974,0,-151.43,0,-57.363,104.09,1,1,3.3,0,-3.3,0
-7.3361e-27,0.016469,0,0,0,0,0,0,0,0,-39.548,0.024381,0,-151.17,0,-57.267,103.9,1,1,3.305,0,-3.305,0
-7.2834e-27,0.016472,0,0,0,0,0,0,0,0,-39.493,0.025837,0,-150.9,0,-57.171,103.7,1,1,3.31,0,-3.31,0
-7.2293e-27,0.016475,0,0,0,0,0,0,0,0,-39.439,0.02734,0,-150.63,0,-57.074,103.51,1,1,3.315,0,-3.315,0
-7.174e-27,0.016478,0,0,0,0,0,0,0,0,-39.383,0.02889,0,-150.37,0,-56.978,103.32,1,1,3.32,0,-3.32,0
-7.1174e-27,0.016481,0,0,0,0,0,0,0,0,-39.328,0.030488,0,-150.1,0,-56.881,103.12,1,1,3.325,0,-3.325,0
-7.0595e-27,0.016484,0,0,0,0,0,0,0,0,-39.272,0.032133,0,-149.83,0,-56.784,102.93,1,1,3.33,0,-3.33,0
-7.0003e-27,0.016487,0,0,0,0,0,0,0,0,-39.216,0.033826,0,-149.57,0,-56.687,102.74,1,1,3.335,0,-3.335,0
-6.9397e-27,0.01649,0,0,0,0,0,0,0,0,-39.159,0.035566,0,-149.3,0,-56.589,102.54,1,1,3.34,0,-3.34,0
-6.8779e-27,0.016493,0,0,0,0,0,0,0,0,-39.102,0.037354,0,-149.03,0,-56.492,102.35,1,1,3.345,0,-3.345,0
-6.8148e-27,0.016496,0,0,0,0,0,0,0,0,-39.044,0.03919,0,-148.77,0,-56.394,102.16,1,1,3.35,0,-3.35,0
-6.7504e-27,0.016499,0,0,0,0,0,0,0,0,-38.986,0.041072,0,-148.5,0,-56.296,101.96,1,1,3.355,0,-3.355,0
-6.6846e-27,0.016502,0,0,0,0,0,0,0,0,-38.928,0.043003,0,-148.23,0,-56.198,101.77,1,1,3.36,0,-3.36,0
-6.6176e-27,0.016505,0,0,0,0,0,0,0,0,-38.869,0.044981,0,-147.96,0,-56.1,101.58,1,1,3.365,0,-3.365,0
-6.5493e-27,0.016508,0,0,0,0,0,0,0,0,-38.81,0.047006,0,-147.69,0,-56.001,101.39,1,1,3.37,0,-3.37,0
-6.4797e-27,0.016511,0,0,0,0,0,0,0,0,-38.751,0.049079,0,-147.42,0,-55.903,101.19,1,1,3.375,0,-3.375,0
-6.4087e-27,0.016514,0,0,0,0,0,0,0,0,-38.691,0.051199,0,-147.16,0,-55.804,101,1,1,3.38,0,-3.38,0
-6.3382e-27,0.016517,0,0,0,0,0,0,0,0,-38.631,0.053325,0,-146.89,0,-55.705,100.81,1,1,3.385,0,-3.385,0
-6.4191e-27,0.01652,0,0,0,0,0,0,0,0,-38.606,0.051726,0,-146.71,0,-55.644,100.67,1,1,3.39,0,-3.39,0
-6.4985e-27,0.016523,0,0,0,0,0,0,0,0,-38.582,0.050151,0,-146.53,0,-55.582,100.53,1,1,3.395,0,-3.395,0
-6.5763e-27,0.016526,0,0,0,0,0,0,0,0,-38.557,0.0486,0,-146.34,0,-55.52,100.39,1,1,3.4,0,-3.4,0
-6.6527e-27,0.016529,0,0,0,0,0,0,0,0,-38.531,0.047073,0,-146.16,0,-55.457,100.25,1,1,3.405,0,-3.405,0
-6.7276e-27,0.016532,0,0,0,0,0,0,0,0,-38.506,0.045571,0,-145.98,0,-55.395,100.1,1,1,3.41,0,-3.41,0
-6.801e-27,0.016535,0,0,0,0,0,0,0,0,-38.48,0.044093,0,-145.8,0,-55.333,99.964,1,1,3.415,0,-3.415,0
-6.873e-27,0.016538,0,0,0,0,0,0,0,0,-38.454,0.042639,0,-145.62,0,-55.27,99.823,1,1,3.42,0,-3.42,0
-6.9434e-27,0.016541,0,0,0,0,0,0,0,0,-38.428,0.041209,0,-145.44,0,-55.208,99.683,1,1,3.425,0,-3.425,0
-7.0123e-27,0.016543,0,0,0,0,0,0,0,0,-38.401,0.039803,0,-145.25,0,-55.145,99.542,1,1,3.43,0,-3.43,0
-7.0798e-27,0.016546,0,0,0,0,0,0,0,0,-38.374,0.038422,0,-145.07,0,-55.082,99.402,1,1,3.435,0,-3.435,0
-7.1457e-27,0.016549,0,0,0,0,0,0,0,0,-38.347,0.037064,0,-144.89,0,-55.019,99.261,1,1,3.44,0,-3.44,0
-7.2102e-27,0.016552,0,0,0,0,0,0,0,0,-38.32,0.035731,0,-144.71,0,-54.956,99.121,1,1,3.445,0,-3.445,0
-7.2731e-27,0.016555,0,0,0,0,0,0,0,0,-38.293,0.034423,0,-144.52,0,-54.893,98.981,1,1,3.45,0,-3.45,0
-7.3346e-27,0.016558,0,0,0,0,0,0,0,0,-38.265,0.033138,0,-144.34,0,-54.83,98.841,1,1,3.455,0,-3.455,0
-7.3946e-27,0.016561,0,0,0,0,0,0,0,0,-38.237,0.031877,0,-144.16,0,-54.767,98.701,1,1,3.46,0,-3.46,0
-7.4531e-27,0.016564,0,0,0,0,0,0,0,0,-38.209,0.030641,0,-143.98,0,-54.703,98.56,1,1,3.465,0,-3.465,0
-7.5101e-27,0.016567,0,0,0,0,0,0,0,0,-38.181,0.029429,0,-143.79,0,-54.64,98.421,1,1,3.47,0,-3.47,0
-7.5656e-27,0.01657,0,0,0,0,0,0,0,0,-38.152,0.028241,0,-143.61,0,-54.576,98.281,1,1,3.475,0,-3.475,0
-7.6197e-27,0.016573,0,0,0,0,0,0,0,0,-38.123,0.027077,0,-143.43,0,-54.512,98.141,1,1,3.48,0,-3.48,0
-7.6722e-27,0.016576,0,0,0,0,0,0,0,0,-38.094,0.025938,0,-143.24,0,-54.448,98.001,1,1,3.485,0,-3.485,0
-7.7232e-27,0.016578,0,0,0,0,0,0,0,0,-38.064,0.024823,0,-143.06,0,-54.384,97.861,1,1,3.49,0,-3.49,0
-7.7728e-27,0.016581,0,0,0,0,0,0,0,0,-38.035,0.023732,0,-142.88,0,-54.32,97.722,1,1,3.495,0,-3.495,0
-7.8209e-27,0.016584,0,0,0,0,0,0,0,0,-38.005,0.022665,0,-142.69,0,-54.256,97.582,1,1,3.5,0,-3.5,0
-7.8674e-27,0.016587,0,0,0,0,0,0,0,0,-37.975,0.021622,0,-142.51,0,-54.192,97.443,1,1,3.505,0,-3.505,0
-7.9125e-27,0.01659,0,0,0,0,0,0,0,0,-37.944,0.020603,0,-142.32,0,-54.127,97.303,1,1,3.51,0,-3.51,0
-7.9561e-27,0.016593,0,0,0,0,0,0,0,0,-37.914,0.019609,0,-142.14,0,-54.063,97.164,1,1,3.515,0,-3.515,0
-7.9982e-27,0.016596,0,0,0,0,0,0,0,0,-37.883,0.018639,0,-141.96,0,-53.998,97.025,1,1,3.52,0,-3.52,0
-8.0388e-27,0.016599,0,0,0,0,0,0,0,0,-37.852,0.017693,0,-141.77,0,-53.933,96.886,1,1,3.525,0,-3.525,0
-8.0779e-27,0.016601,0,0,0,0,0,0,0,0,-37.821,0.016771,0,-141.59,0,-53.869,96.747,1,1,3.53,0,-3.53,0
-8.1156e-27,0.016604,0,0,0,0,0,0,0,0,-37.789,0.015874,0,-141.4,0,-53.804,96.608,1,1,3.535,0,-3.535,0
-8.1517e-27,0.016607,0,0,0,0,0,0,0,0,-37.757,0.015,0,-141.22,0,-53.739,96.469,1,1,3.54,0,-3.54,0
-8.1863e-27,0.01661,0,0,0,0,0,0,0,0,-37.725,0.014151,0,-141.03,0,-53.673,96.33,1,1,3.545,0,-3.545,0
-8.2195e-27,0.016613,0,0,0,0,0,0,0,0,-37.693,0.013326,0,-140.85,0,-53.608,96.191,1,1,3.55,0,-3.55,0
-8.2512e-27,0.016616,0,0,0,0,0,0,0,0,-37.66,0.012526,0,-140.66,0,-53.543,96.052,1,1,3.555,0,-3.555,0
-8.2813e-27,0.016619,0,0,0,0,0,0,0,0,-37.628,0.011749,0,-140.48,0,-53.477,95.913,1,1,3.56,0,-3.56,0
-8.31e-27,0.016621,0,0,0,0,0,0,0,0,-37.595,0.010997,0,-140.29,0,-53.412,95.775,1,1,3.565,0,-3.565,0
-8.3372e-27,0.016624,0,0,0,0,0,0,0,0,-37.562,0.010269,0,-140.11,0,-53.346,95.636,1,1,3.57,0,-3.57,0
-8.3629e-27,0.016627,0,0,0,0,0,0,0,0,-37.528,0.0095645,0,-139.92,0,-53.28,95.498,1,1,3.575,0,-3.575,0
-8.3871e-27,0.01663,0,0,0,0,0,0,0,0,-37.494,0.0088848,0,-139.74,0,-53.214,95.36,1,1,3.58,0,-3.58,0
-8.4098e-27,0.016633,0,0,0,0,0,0,0,0,-37.46,0.0082292,0,-139.55,0,-53.148,95.221,1,1,3.585,0,-3.585,0
-8.4311e-27,0.016635,0,0,0,0,0,0,0,0,-37.426,0.0075978,0,-139.37,0,-53.082,95.083,1,1,3.59,0,-3.59,0
-8.4508e-27,0.016638,0,0,0,0,0,0,0,0,-37.392,0.0069906,0,-139.18,0,-53.016,94.945,1,1,3.595,0,-3.595,0
-8.469e-27,0.016641,0,0,0,0,0,0,0,0,-37.357,0.0064077,0,-138.99,0,-52.95,94.807,1,1,3.6,0,-3.6,0
-8.4858e-27,0.016644,0,0,0,0,0,0,0,0,-37.322,0.0058489,0,-138.81,0,-52.883,94.669,1,1,3.605,0,-3.605,0
-8.5011e-27,0.016647,0,0,0,0,0,0,0,0,-37.287,0.0053143,0,-138.62,0,-52.817,94.531,1,1,3.61,0,-3.61,0
-8.5148e-27,0.016649,0,0,0,0,0,0,0,0,-37.252,0.0048039,0,-138.43,0,-52.75,94.393,1,1,3.615,0,-3.615,0
-8.5271e-27,0.016652,0,0,0,0,0,0,0,0,-37.216,0.0043177,0,-138.25,0,-52.683,94.255,1,1,3.62,0,-3.62,0
-8.5379e-27,0.016655,0,0,0,0,0,0,0,0,-37.18,0.0038557,0,-138.06,0,-52.616,94.117,1,1,3.625,0,-3.625,0
-8.5472e-27,0.016658,0,0,0,0,0,0,0,0,-37.144,0.0034179,0,-137.87,0,-52.549,93.98,1,1,3.63,0,-3.63,0
-8.555e-27,0.016661,0,0,0,0,0,0,0,0,-37.108,0.0030043,0,-137.69,0,-52.482,93.842,1,1,3.635,0,-3.635,0
-8.5613e-27,0.016663,0,0,0,0,0,0,0,0,-37.071,0.0026148,0,-137.5,0,-52.415,93.705,1,1,3.64,0,-3.64,0
-8.5662e-27,0.016666,0,0,0,0,0,0,0,0,-37.034,0.0022496,0,-137.31,0,-52.348,93.567,1,1,3.645,0,-3.645,0
-8.5695e-27,0.016669,0,0,0,0,0,0,0,0,-36.997,0.0019086,0,-137.13,0,-52.28,93.43,1,1,3.65,0,-3.65,0
-8.5713e-27,0.016672,0,0,0,0,0,0,0,0,-36.96,0.0015918,0,-136.94,0,-52.213,93.292,1,1,3.655,0,-3.655,0
-8.5717e-27,0.016674,0,0,0,0,0,0,0,0,-36.922,0.0012992,0,-136.75,0,-52.145,93.155,1,1,3.66,0,-3.66,0
-8.5706e-27,0.016677,0,0,0,0,0,0,0,0,-36.884,0.0010307,0,-136.56,0,-52.077,93.018,1,1,3.665,0,-3.665,0
-8.5679e-27,0.01668,0,0,0,0,0,0,0,0,-36.846,0.00078649,0,-136.38,0,-52.009,92.881,1,1,3.67,0,-3.67,0
-8.5638e-27,0.016683,0,0,0,0,0,0,0,0,-36.808,0.00056645,0,-136.19,0,-51.941,92.744,1,1,3.675,0,-3.675,0
-8.5582e-27,0.016685,0,0,0,0,0,0,0,0,-36.769,0.0003706,0,-136,0,-51.873,92.607,1,1,3.68,0,-3.68,0
-8.5511e-27,0.016688,0,0,0,0,0,0,0,0,-36.731,0.00019897,0,-135.81,0,-51.805,92.47,1,1,3.685,0,-3.685,0
-8.5425e-27,0.016691,0,0,0,0,0,0,0,0,-36.692,5.1518e-05,0,-135.62,0,-51.737,92.333,1,1,3.69,0,-3.69,0
-8.5324e-27,0.016694,0,0,0,0,0,0,0,0,-36.652,-7.1732e-05,0,-135.44,0,-51.669,92.197,1,1,3.695,0,-3.695,0
-8.5209e-27,0.016696,0,0,0,0,0,0,0,0,-36.613,-0.00017079,0,-135.25,0,-51.6,92.06,1,1,3.7,0,-3.7,0
-8.5078e-27,0.016699,0,0,0,0,0,0,0,0,-36.573,-0.00024566,0,-135.06,0,-51.532,91.923,1,1,3.705,0,-3.705,0
-8.4932e-27,0.016702,0,0,0,0,0,0,0,0,-36.533,-0.00029633,0,-134.87,0,-51.463,91.787,1,1,3.71,0,-3.71,0
-8.4772e-27,0.016704,0,0,0,0,0,0,0,0,-36.493,-0.0003228,0,-134.68,0,-51.394,91.65,1,1,3.715,0,-3.715,0
-8.4597e-27,0.016707,0,0,0,0,0,0,0,0,-36.453,-0.00032509,0,-134.49,0,-51.325,91.514,1,1,3.72,0,-3.72,0
-8.4406e-27,0.01671,0,0,0,0,0,0,0,0,-36.412,-0.00030318,0,-134.3,0,-51.256,91.378,1,1,3.725,0,-3.725,0
-8.4201e-27,0.016713,0,0,0,0,0,0,0,0,-36.371,-0.00025707,0,-134.11,0,-51.187,91.242,1,1,3.73,0,-3.73,0
-8.3981e-27,0.016715,0,0,0,0,0,0,0,0,-36.33,-0.00018677,0,-133.92,0,-51.118,91.105,1,1,3.735,0,-3.735,0
-8.3746e-27,0.016718,0,0,0,0,0,0,0,0,-36.288,-9.2278e-05,0,-133.74,0,-51.048,90.969,1,1,3.74,0,-3.74,0
-8.3496e-27,0.016721,0,0,0,0,0,0,0,0,-36.247,2.6406e-05,0,-133.55,0,-50.979,90.833,1,1,3.745,0,-3.745,0
-8.3232e-27,0.016723,0,0,0,0,0,0,0,0,-36.205,0.00016929,0,-133.36,0,-50.909,90.697,1,1,3.75,0,-3.75,0
-8.2952e-27,0.016726,0,0,0,0,0,0,0,0,-36.163,0.00033637,0,-133.17,0,-50.84,90.562,1,1,3.755,0,-3.755,0
-8.2657e-27,0.016729,0,0,0,0,0,0,0,0,-36.12,0.00052763,0,-132.98,0,-50.77,90.426,1,1,3.76,0,-3.76,0
-8.2348e-27,0.016731,0,0,0,0,0,0,0,0,-36.078,0.0007431,0,-132.79,0,-50.7,90.29,1,1,3.765,0,-3.765,0
-8.2023e-27,0.016734,0,0,0,0,0,0,0,0,-36.035,0.00098275,0,-132.6,0,-50.63,90.154,1,1,3.77,0,-3.77,0
-8.1684e-27,0.016737,0,0,0,0,0,0,0,0,-35.992,0.0012466,0,-132.41,0,-50.56,90.019,1,1,3.775,0,-3.775,0
-8.133e-27,0.016739,0,0,0,0,0,0,0,0,-35.949,0.0015346,0,-132.22,0,-50.49,89.883,1,1,3.78,0,-3.78,0
-8.0961e-27,0.016742,0,0,0,0,0,0,0,0,-35.905,0.0018469,0,-132.03,0,-50.419,89.748,1,1,3.785,0,-3.785,0
-8.0577e-27,0.016745,0,0,0,0,0,0,0,0,-35.861,0.0021833,0,-131.84,0,-50.349,89.613,1,1,3.79,0,-3.79,0
-8.0178e-27,0.016747,0,0,0,0,0,0,0,0,-35.817,0.002544,0,-131.64,0,-50.278,89.477,1,1,3.795,0,-3.795,0
-7.9764e-27,0.01675,0,0,0,0,0,0,0,0,-35.773,0.0029288,0,-131.45,0,-50.208,89.342,1,1,3.8,0,-3.8,0
-7.9335e-27,0.016753,0,0,0,0,0,0,0,0,-35.728,0.0033378,0,-131.26,0,-50.137,89.207,1,1,3.805,0,-3.805,0
-7.8891e-27,0.016755,0,0,0,0,0,0,0,0,-35.683,0.003771,0,-131.07,0,-50.066,89.072,1,1,3.81,0,-3.81,0
-7.8433e-27,0.016758,0,0,0,0,0,0,0,0,-35.638,0.0042284,0,-130.88,0,-49.995,88.937,1,1,3.815,0,-3.815,0
-7.7959e-27,0.016761,0,0,0,0,0,0,0,0,-35.593,0.00471,0,-130.69,0,-49.924,88.802,1,1,3.82,0,-3.82,0
-7.7471e-27,0.016763,0,0,0,0,0,0,0,0,-35.548,0.0052158,0,-130.5,0,-49.853,88.667,1,1,3.825,0,-3.825,0
-7.6968e-27,0.016766,0,0,0,0,0,0,0,0,-35.502,0.0057458,0,-130.31,0,-49.782,88.532,1,1,3.83,0,-3.83,0
-7.6449e-27,0.016768,0,0,0,0,0,0,0,0,-35.456,0.0062999,0,-130.11,0,-49.71,88.398,1,1,3.835,0,-3.835,0
-7.5916e-27,0.016771,0,0,0,0,0,0,0,0,-35.41,0.0068783,0,-129.92,0,-49.639,88.263,1,1,3.84,0,-3.84,0
-7.5368e-27,0.016774,0,0,0,0,0,0,0,0,-35.363,0.0074809,0,-129.73,0,-49.567,88.129,1,1,3.845,0,-3.845,0
-7.4805e-27,0.016776,0,0,0,0,0,0,0,0,-35.317,0.0081076,0,-129.54,0,-49.495,87.994,1,1,3.85,0,-3.85,0
-7.4227e-27,0.016779,0,0,0,0,0,0,0,0,-35.27,0.0087586,0,-129.35,0,-49.424,87.86,1,1,3.855,0,-3.855,0
-7.3635e-27,0.016781,0,0,0,0,0,0,0,0,-35.222,0.0094337,0,-129.15,0,-49.352,87.725,1,1,3.86,0,-3.86,0
-7.3027e-27,0.016784,0,0,0,0,0,0,0,0,-35.175,0.010133,0,-128.96,0,-49.28,87.591,1,1,3.865,0,-3.865,0
-7.2404e-27,0.016787,0,0,0,0,0,0,0,0,-35.127,0.010857,0,-128.77,0,-49.207,87.457,1,1,3.87,0,-3.87,0
-7.1767e-27,0.016789,0,0,0,0,0,0,0,0,-35.08,0.011604,0,-128.58,0,-49.135,87.323,1,1,3.875,0,-3.875,0
-7.1115e-27,0.016792,0,0,0,0,0,0,0,0,-35.031,0.012376,0,-128.38,0,-49.063,87.189,1,1,3.88,0,-3.88,0
-7.0447e-27,0.016794,0,0,0,0,0,0,0,0,-34.983,0.013172,0,-128.19,0,-48.99,87.055,1,1,3.885,0,-3.885,0
-6.9765e-27,0.016797,0,0,0,0,0,0,0,0,-34.934,0.013993,0,-128,0,-48.918,86.921,1,1,3.89,0,-3.89,0
-6.9068e-27,0.0168,0,0,0,0,0,0,0,0,-34.885,0.014837,0,-127.81,0,-48.845,86.787,1,1,3.895,0,-3.895,0
-6.8356e-27,0.016802,0,0,0,0,0,0,0,0,-34.836,0.015706,0,-127.61,0,-48.772,86.653,1,1,3.9,0,-3.9,0
-6.7629e-27,0.016805,0,0,0,0,0,0,0,0,-34.787,0.016599,0,-127.42,0,-48.699,86.519,1,1,3.905,0,-3.905,0
-6.6887e-27,0.016807,0,0,0,0,0,0,0,0,-34.737,0.017516,0,-127.23,0,-48.626,86.386,1,1,3.91,0,-3.91,0
-6.613e-27,0.01681,0,0,0,0,0,0,0,0,-34.688,0.018457,0,-127.03,0,-48.553,86.252,1,1,3.915,0,-3.915,0
-6.5359e-27,0.016812,0,0,0,0,0,0,0,0,-34.638,0.019423,0,-126.84,0,-48.48,86.119,1,1,3.92,0,-3.92,0
-6.4572e-27,0.016815,0,0,0,0,0,0,0,0,-34.587,0.020412,0,-126.65,0,-48.407,85.985,1,1,3.925,0,-3.925,0
-6.3771e-27,0.016817,0,0,0,0,0,0,0,0,-34.537,0.021426,0,-126.45,0,-48.333,85.852,1,1,3.93,0,-3.93,0
-6.2954e-27,0.01682,0,0,0,0,0,0,0,0,-34.486,0.022464,0,-126.26,0,-48.26,85.719,1,1,3.935,0,-3.935,0
-6.2123e-27,0.016823,0,0,0,0,0,0,0,0,-34.435,0.023527,0,-126.06,0,-48.186,85.586,1,1,3.94,0,-3.94,0
-6.1277e-27,0.016825,0,0,0,0,0,0,0,0,-34.384,0.024613,0,-125.87,0,-48.112,85.452,1,1,3.945,0,-3.945,0
-6.0416e-27,0.016828,0,0,0,0,0,0,0,0,-34.332,0.025724,0,-125.67,0,-48.038,85.319,1,1,3.95,0,-3.95,0
-5.954e-27,0.01683,0,0,0,0,0,0,0,0,-34.28,0.026858,0,-125.48,0,-47.964,85.186,1,1,3.955,0,-3.955,0
-5.8649e-27,0.016833,0,0,0,0,0,0,0,0,-34.228,0.028017,0,-125.29,0,-47.89,85.054,1,1,3.96,0,-3.96,0
-5.7743e-27,0.016835,0,0,0,0,0,0,0,0,-34.176,0.029201,0,-125.09,0,-47.816,84.921,1,1,3.965,0,-3.965,0
-5.6823e-27,0.016838,0,0,0,0,0,0,0,0,-34.124,0.030408,0,-124.9,0,-47.742,84.788,1,1,3.97,0,-3.97,0
-5.5887e-27,0.01684,0,0,0,0,0,0,0,0,-34.071,0.03164,0,-124.7,0,-47.667,84.655,1,1,3.975,0,-3.975,0
-5.6237e-27,0.016843,0,0,0,0,0,0,0,0,-34.038,0.031127,0,-124.55,0,-47.614,84.551,1,1,3.98,0,-3.98,0
-5.6881e-27,0.016845,0,0,0,0,0,0,0,0,-34.009,0.030214,0,-124.42,0,-47.564,84.452,1,1,3.985,0,-3.985,0
-5.7514e-27,0.016848,0,0,0,0,0,0,0,0,-33.981,0.029314,0,-124.28,0,-47.515,84.354,1,1,3.99,0,-3.99,0
-5.8136e-27,0.01685,0,0,0,0,0,0,0,0,-33.952,0.028428,0,-124.15,0,-47.466,84.256,1,1,3.995,0,-3.995,0
-5.8748e-27,0.016853,0,0,0,0,0,0,0,0,-33.923,0.027554,0,-124.01,0,-47.416,84.159,1,1,4,0,-4,0
-5.9349e-27,0.016855,0,0,0,0,0,0,0,0,-33.894,0.026693,0,-123.88,0,-47.367,84.061,1,1,4.005,0,-4.005,0
-5.9939e-27,0.016858,0,0,0,0,0,0,0,0,-33.865,0.025845,0,-123.74,0,-47.317,83.963,1,1,4.01,0,-4.01,0
-6.0518e-27,0.01686,0,0,0,0,0,0,0,0,-33.835,0.025009,0,-123.61,0,-47.267,83.865,1,1,4.015,0,-4.015,0
-6.1087e-27,0.016863,0,0,0,0,0,0,0,0,-33.806,0.024187,0,-123.47,0,-47.218,83.767,1,1,4.02,0,-4.02,0
-6.1645e-27,0.016865,0,0,0,0,0,0,0,0,-33.776,0.023378,0,-123.33,0,-47.168,83.669,1,1,4.025,0,-4.025,0
-6.2193e-27,0.016868,0,0,0,0,0,0,0,0,-33.746,0.022581,0,-123.2,0,-47.118,83.572,1,1,4.03,0,-4.03,0
-6.273e-27,0.01687,0,0,0,0,0,0,0,0,-33.716,0.021797,0,-123.06,0,-47.068,83.474,1,1,4.035,0,-4.035,0
-6.3256e-27,0.016873,0,0,0,0,0,0,0,0,-33.686,0.021027,0,-122.93,0,-47.018,83.377,1,1,4.04,0,-4.04,0
-6.3771e-27,0.016875,0,0,0,0,0,0,0,0,-33.656,0.020269,0,-122.79,0,-46.968,83.279,1,1,4.045,0,-4.045,0
-6.4276e-27,0.016878,0,0,0,0,0,0,0,0,-33.625,0.019524,0,-122.65,0,-46.918,83.182,1,1,4.05,0,-4.05,0
-6.477e-27,0.01688,0,0,0,0,0,0,0,0,-33.594,0.018792,0,-122.52,0,-46.868,83.084,1,1,4.055,0,-4.055,0
-6.5254e-27,0.016882,0,0,0,0,0,0,0,0,-33.564,0.018073,0,-122.38,0,-46.817,82.987,1,1,4.06,0,-4.06,0
-6.5727e-27,0.016885,0,0,0,0,0,0,0,0,-33.533,0.017367,0,-122.24,0,-46.767,82.889,1,1,4.065,0,-4.065,0
-6.6189e-27,0.016887,0,0,0,0,0,0,0,0,-33.502,0.016673,0,-122.11,0,-46.717,82.792,1,1,4.07,0,-4.07,0
-6.664e-27,0.01689,0,0,0,0,0,0,0,0,-33.471,0.015993,0,-121.97,0,-46.666,82.695,1,1,4.075,0,-4.075,0
-6.7081e-27,0.016892,0,0,0,0,0,0,0,0,-33.439,0.015325,0,-121.83,0,-46.616,82.598,1,1,4.08,0,-4.08,0
-6.7511e-27,0.016895,0,0,0,0,0,0,0,0,-33.408,0.01467,0,-121.7,0,-46.565,82.5,1,1,4.085,0,-4.085,0
-6.793e-27,0.016897,0,0,0,0,0,0,0,0,-33.376,0.014029,0,-121.56,0,-46.515,82.403,1,1,4.09,0,-4.09,0
-6.8339e-27,0.0169,0,0,0,0,0,0,0,0,-33.344,0.0134,0,-121.42,0,-46.464,82.306,1,1,4.095,0,-4.095,0
-6.8737e-27,0.016902,0,0,0,0,0,0,0,0,-33.312,0.012784,0,-121.29,0,-46.413,82.209,1,1,4.1,0,-4.1,0
-6.9124e-27,0.016904,0,0,0,0,0,0,0,0,-33.28,0.012181,0,-121.15,0,-46.362,82.112,1,1,4.105,0,-4.105,0
-6.9501e-27,0.016907,0,0,0,0,0,0,0,0,-33.248,0.011591,0,-121.01,0,-46.311,82.015,1,1,4.11,0,-4.11,0
-6.9867e-27,0.016909,0,0,0,0,0,0,0,0,-33.215,0.011013,0,-120.87,0,-46.26,81.918,1,1,4.115,0,-4.115,0
-7.0222e-27,0.016912,0,0,0,0,0,0,0,0,-33.183,0.010449,0,-120.74,0,-46.209,81.822,1,1,4.12,0,-4.12,0
-7.0567e-27,0.016914,0,0,0,0,0,0,0,0,-33.15,0.0098975,0,-120.6,0,-46.158,81.725,1,1,4.125,0,-4.125,0
-7.0901e-27,0.016917,0,0,0,0,0,0,0,0,-33.117,0.0093589,0,-120.46,0,-46.107,81.628,1,1,4.13,0,-4.13,0
-7.1224e-27,0.016919,0,0,0,0,0,0,0,0,-33.084,0.0088332,0,-120.32,0,-46.056,81.531,1,1,4.135,0,-4.135,0
-7.1537e-27,0.016921,0,0,0,0,0,0,0,0,-33.051,0.0083204,0,-120.19,0,-46.004,81.435,1,1,4.14,0,-4.14,0
-7.1839e-27,0.016924,0,0,0,0,0,0,0,0,-33.018,0.0078205,0,-120.05,0,-45.953,81.338,1,1,4.145,0,-4.145,0
-7.213e-27,0.016926,0,0,0,0,0,0,0,0,-32.984,0.0073335,0,-119.91,0,-45.902,81.242,1,1,4.15,0,-4.15,0
-7.241e-27,0.016929,0,0,0,0,0,0,0,0,-32.951,0.0068594,0,-119.77,0,-45.85,81.145,1,1,4.155,0,-4.155,0
-7.268e-27,0.016931,0,0,0,0,0,0,0,0,-32.917,0.0063982,0,-119.63,0,-45.798,81.049,1,1,4.16,0,-4.16,0
-7.294e-27,0.016934,0,0,0,0,0,0,0,0,-32.883,0.0059499,0,-119.5,0,-45.747,80.952,1,1,4.165,0,-4.165,0
-7.3188e-27,0.016936,0,0,0,0,0,0,0,0,-32.849,0.0055145,0,-119.36,0,-45.695,80.856,1,1,4.17,0,-4.17,0
-7.3426e-27,0.016938,0,0,0,0,0,0,0,0,-32.815,0.0050919,0,-119.22,0,-45.643,80.759,1,1,4.175,0,-4.175,0
-7.3653e-27,0.016941,0,0,0,0,0,0,0,0,-32.781,0.0046823,0,-119.08,0,-45.591,80.663,1,1,4.18,0,-4.18,0
-7.387e-27,0.016943,0,0,0,0,0,0,0,0,-32.746,0.0042856,0,-118.94,0,-45.54,80.567,1,1,4.185,0,-4.185,0
-7.4075e-27,0.016945,0,0,0,0,0,0,0,0,-32.711,0.0039018,0,-118.81,0,-45.488,80.471,1,1,4.19,0,-4.19,0
-7.4271e-27,0.016948,0,0,0,0,0,0,0,0,-32.677,0.0035308,0,-118.67,0,-45.436,80.374,1,1,4.195,0,-4.195,0
-7.4455e-27,0.01695,0,0,0,0,0,0,0,0,-32.642,0.0031728,0,-118.53,0,-45.383,80.278,1,1,4.2,0,-4.2,0
-7.4629e-27,0.016953,0,0,0,0,0,0,0,0,-32.607,0.0028277,0,-118.39,0,-45.331,80.182,1,1,4.205,0,-4.205,0
-7.4792e-27,0.016955,0,0,0,0,0,0,0,0,-32.571,0.0024954,0,-118.25,0,-45.279,80.086,1,1,4.21,0,-4.21,0
-7.4944e-27,0.016957,0,0,0,0,0,0,0,0,-32.536,0.0021761,0,-118.11,0,-45.227,79.99,1,1,4.215,0,-4.215,0
-7.5086e-27,0.01696,0,0,0,0,0,0,0,0,-32.5,0.0018697,0,-117.97,0,-45.174,79.894,1,1,4.22,0,-4.22,0
-7.5217e-27,0.016962,0,0,0,0,0,0,0,0,-32.465,0.0015761,0,-117.84,0,-45.122,79.799,1,1,4.225,0,-4.225,0
-7.5338e-27,0.016965,0,0,0,0,0,0,0,0,-32.429,0.0012955,0,-117.7,0,-45.069,79.703,1,1,4.23,0,-4.23,0
-7.5447e-27,0.016967,0,0,0,0,0,0,0,0,-32.393,0.0010277,0,-117.56,0,-45.017,79.607,1,1,4.235,0,-4.235,0
-7.5546e-27,0.016969,0,0,0,0,0,0,0,0,-32.357,0.00077285,0,-117.42,0,-44.964,79.511,1,1,4.24,0,-4.24,0
-7.5635e-27,0.016972,0,0,0,0,0,0,0,0,-32.32,0.00053088,0,-117.28,0,-44.912,79.415,1,1,4.245,0,-4.245,0
-7.5713e-27,0.016974,0,0,0,0,0,0,0,0,-32.284,0.00030181,0,-117.14,0,-44.859,79.32,1,1,4.25,0,-4.25,0
-7.578e-27,0.016976,0,0,0,0,0,0,0,0,-32.247,8.5639e-05,0,-117,0,-44.806,79.224,1,1,4.255,0,-4.255,0
-7.5836e-27,0.016979,0,0,0,0,0,0,0,0,-32.211,-0.00011764,0,-116.86,0,-44.753,79.129,1,1,4.26,0,-4.26,0
-7.5882e-27,0.016981,0,0,0,0,0,0,0,0,-32.174,-0.000308,0,-116.72,0,-44.7,79.033,1,1,4.265,0,-4.265,0
-7.5917e-27,0.016983,0,0,0,0,0,0,0,0,-32.137,-0.00048548,0,-116.58,0,-44.647,78.938,1,1,4.27,0,-4.27,0
-7.5941e-27,0.016986,0,0,0,0,0,0,0,0,-32.1,-0.00065006,0,-116.44,0,-44.594,78.842,1,1,4.275,0,-4.275,0
-7.5955e-27,0.016988,0,0,0,0,0,0,0,0,-32.062,-0.00080175,0,-116.3,0,-44.541,78.747,1,1,4.28,0,-4.28,0
-7.5957e-27,0.01699,0,0,0,0,0,0,0,0,-32.025,-0.00094052,0,-116.16,0,-44.487,78.652,1,1,4.285,0,-4.285,0
-7.595e-27,0.016993,0,0,0,0,0,0,0,0,-31.987,-0.0010664,0,-116.02,0,-44.434,78.556,1,1,4.29,0,-4.29,0
-7.5931e-27,0.016995,0,0,0,0,0,0,0,0,-31.949,-0.0011794,0,-115.88,0,-44.381,78.461,1,1,4.295,0,-4.295,0
-7.5902e-27,0.016997,0,0,0,0,0,0,0,0,-31.911,-0.0012795,0,-115.74,0,-44.327,78.366,1,1,4.3,0,-4.3,0
-7.5863e-27,0.017,0,0,0,0,0,0,0,0,-31.873,-0.0013667,0,-115.6,0,-44.274,78.271,1,1,4.305,0,-4.305,0
-7.5812e-27,0.017002,0,0,0,0,0,0,0,0,-31.835,-0.001441,0,-115.46,0,-44.22,78.176,1,1,4.31,0,-4.31,0
-7.5751e-27,0.017004,0,0,0,0,0,0,0,0,-31.797,-0.0015024,0,-115.32,0,-44.167,78.081,1,1,4.315,0,-4.315,0
-7.5679e-27,0.017007,0,0,0,0,0,0,0,0,-31.758,-0.0015509,0,-115.18,0,-44.113,77.986,1,1,4.32,0,-4.32,0
-7.5597e-27,0.017009,0,0,0,0,0,0,0,0,-31.72,-0.0015865,0,-115.04,0,-44.059,77.891,1,1,4.325,0,-4.325,0
-7.5504e-27,0.017011,0,0,0,0,0,0,0,0,-31.681,-0.0016092,0,-114.9,0,-44.005,77.796,1,1,4.33,0,-4.33,0
-7.54e-27,0.017014,0,0,0,0,0,0,0,0,-31.642,-0.0016191,0,-114.76,0,-43.952,77.701,1,1,4.335,0,-4.335,0
-7.5285e-27,0.017016,0,0,0,0,0,0,0,0,-31.603,-0.001616,0,-114.62,0,-43.898,77.606,1,1,4.34,0,-4.34,0
-7.516e-27,0.017018,0,0,0,0,0,0,0,0,-31.563,-0.0016,0,-114.48,0,-43.844,77.511,1,1,4.345,0,-4.345,0
-7.5024e-27,0.01702,0,0,0,0,0,0,0,0,-31.524,-0.0015712,0,-114.34,0,-43.789,77.416,1,1,4.35,0,-4.35,0
-7.4878e-27,0.017023,0,0,0,0,0,0,0,0,-31.484,-0.0015294,0,-114.2,0,-43.735,77.322,1,1,4.355,0,-4.355,0
-7.4721e-27,0.017025,0,0,0,0,0,0,0,0,-31.445,-0.0014747,0,-114.06,0,-43.681,77.227,1,1,4.36,0,-4.36,0
-7.4553e-27,0.017027,0,0,0,0,0,0,0,0,-31.405,-0.0014072,0,-113.92,0,-43.627,77.133,1,1,4.365,0,-4.365,0
-7.4374e-27,0.01703,0,0,0,0,0,0,0,0,-31.365,-0.0013267,0,-113.78,0,-43.572,77.038,1,1,4.37,0,-4.37,0
-7.4185e-27,0.017032,0,0,0,0,0,0,0,0,-31.325,-0.0012334,0,-113.64,0,-43.518,76.943,1,1,4.375,0,-4.375,0
-7.3985e-27,0.017034,0,0,0,0,0,0,0,0,-31.284,-0.0011271,0,-113.5,0,-43.464,76.849,1,1,4.38,0,-4.38,0
-7.3774e-27,0.017036,0,0,0,0,0,0,0,0,-31.244,-0.001008,0,-113.35,0,-43.409,76.755,1,1,4.385,0,-4.385,0
-7.3553e-27,0.017039,0,0,0,0,0,0,0,0,-31.203,-0.00087596,0,-113.21,0,-43.354,76.66,1,1,4.39,0,-4.39,0
-7.3321e-27,0.017041,0,0,0,0,0,0,0,0,-31.162,-0.00073103,0,-113.07,0,-43.3,76.566,1,1,4.395,0,-4.395,0
-7.3079e-27,0.017043,0,0,0,0,0,0,0,0,-31.121,-0.0005732,0,-112.93,0,-43.245,76.472,1,1,4.4,0,-4.4,0
-7.2825e-27,0.017046,0,0,0,0,0,0,0,0,-31.08,-0.00040247,0,-112.79,0,-43.19,76.377,1,1,4.405,0,-4.405,0
-7.2561e-27,0.017048,0,0,0,0,0,0,0,0,-31.039,-0.00021887,0,-112.65,0,-43.135,76.283,1,1,4.41,0,-4.41,0
-7.2287e-27,0.01705,0,0,0,0,0,0,0,0,-30.998,-2.2352e-05,0,-112.51,0,-43.08,76.189,1,1,4.415,0,-4.415,0
-7.2001e-27,0.017052,0,0,0,0,0,0,0,0,-30.956,0.00018706,0,-112.36,0,-43.025,76.095,1,1,4.42,0,-4.42,0
-7.1705e-27,0.017055,0,0,0,0,0,0,0,0,-30.915,0.00040937,0,-112.22,0,-42.97,76.001,1,1,4.425,0,-4.425,0
-7.1399e-27,0.017057,0,0,0,0,0,0,0,0,-30.873,0.00064456,0,-112.08,0,-42.915,75.907,1,1,4.43,0,-4.43,0
-7.1081e-27,0.017059,0,0,0,0,0,0,0,0,-30.831,0.00089266,0,-111.94,0,-42.86,75.813,1,1,4.435,0,-4.435,0
-7.0753e-27,0.017061,0,0,0,0,0,0,0,0,-30.789,0.0011537,0,-111.8,0,-42.804,75.719,1,1,4.44,0,-4.44,0
-7.0415e-27,0.017064,0,0,0,0,0,0,0,0,-30.746,0.0014276,0,-111.66,0,-42.749,75.625,1,1,4.445,0,-4.445,0
-7.0065e-27,0.017066,0,0,0,0,0,0,0,0,-30.704,0.0017143,0,-111.51,0,-42.694,75.531,1,1,4.45,0,-4.45,0
-6.9705e-27,0.017068,0,0,0,0,0,0,0,0,-30.661,0.002014,0,-111.37,0,-42.638,75.438,1,1,4.455,0,-4.455,0
-6.9334e-27,0.01707,0,0,0,0,0,0,0,0,-30.619,0.0023266,0,-111.23,0,-42.583,75.344,1,1,4.46,0,-4.46,0
-6.8953e-27,0.017073,0,0,0,0,0,0,0,0,-30.576,0.0026521,0,-111.09,0,-42.527,75.25,1,1,4.465,0,-4.465,0
-6.8561e-27,0.017075,0,0,0,0,0,0,0,0,-30.533,0.0029904,0,-110.94,0,-42.471,75.157,1,1,4.47,0,-4.47,0
-6.8158e-27,0.017077,0,0,0,0,0,0,0,0,-30.49,0.0033417,0,-110.8,0,-42.416,75.063,1,1,4.475,0,-4.475,0
-6.7745e-27,0.017079,0,0,0,0,0,0,0,0,-30.446,0.0037059,0,-110.66,0,-42.36,74.97,1,1,4.48,0,-4.48,0
-6.7321e-27,0.017081,0,0,0,0,0,0,0,0,-30.403,0.0040829,0,-110.52,0,-42.304,74.876,1,1,4.485,0,-4.485,0
-6.6886e-27,0.017084,0,0,0,0,0,0,0,0,-30.359,0.0044728,0,-110.37,0,-42.248,74.783,1,1,4.49,0,-4.49,0
-6.644e-27,0.017086,0,0,0,0,0,0,0,0,-30.316,0.0048757,0,-110.23,0,-42.192,74.689,1,1,4.495,0,-4.495,0
-6.5984e-27,0.017088,0,0,0,0,0,0,0,0,-30.272,0.0052915,0,-110.09,0,-42.136,74.596,1,1,4.5,0,-4.5,0
-6.5517e-27,0.01709,0,0,0,0,0,0,0,0,-30.228,0.0057201,0,-109.95,0,-42.08,74.503,1,1,4.505,0,-4.505,0
-6.504e-27,0.017092,0,0,0,0,0,0,0,0,-30.183,0.0061617,0,-109.8,0,-42.024,74.409,1,1,4.51,0,-4.51,0
-6.4552e-27,0.017095,0,0,0,0,0,0,0,0,-30.139,0.0066161,0,-109.66,0,-41.967,74.316,1,1,4.515,0,-4.515,0
-6.4053e-27,0.017097,0,0,0,0,0,0,0,0,-30.094,0.0070834,0,-109.52,0,-41.911,74.223,1,1,4.52,0,-4.52,0
-6.3543e-27,0.017099,0,0,0,0,0,0,0,0,-30.05,0.0075636,0,-109.37,0,-41.855,74.13,1,1,4.525,0,-4.525,0
-6.3023e-27,0.017101,0,0,0,0,0,0,0,0,-30.005,0.0080568,0,-109.23,0,-41.798,74.037,1,1,4.53,0,-4.53,0
-6.2492e-27,0.017103,0,0,0,0,0,0,0,0,-29.96,0.0085627,0,-109.09,0,-41.741,73.944,1,1,4.535,0,-4.535,0
-6.1951e-27,0.017106,0,0,0,0,0,0,0,0,-29.915,0.0090817,0,-108.94,0,-41.685,73.851,1,1,4.54,0,-4.54,0
-6.1398e-27,0.017108,0,0,0,0,0,0,0,0,-29.87,0.0096135,0,-108.8,0,-41.628,73.758,1,1,4.545,0,-4.545,0
-6.0836e-27,0.01711,0,0,0,0,0,0,0,0,-29.824,0.010158,0,-108.66,0,-41.571,73.665,1,1,4.55,0,-4.55,0
-6.0262e-27,0.017112,0,0,0,0,0,0,0,0,-29.779,0.010716,0,-108.51,0,-41.515,73.572,1,1,4.555,0,-4.555,0
-5.9678e-27,0.017114,0,0,0,0,0,0,0,0,-29.733,0.011286,0,-108.37,0,-41.458,73.479,1,1,4.56,0,-4.56,0
-5.9083e-27,0.017117,0,0,0,0,0,0,0,0,-29.687,0.01187,0,-108.23,0,-41.401,73.386,1,1,4.565,0,-4.565,0
-5.8477e-27,0.017119,0,0,0,0,0,0,0,0,-29.641,0.012466,0,-108.08,0,-41.344,73.294,1,1,4.57,0,-4.57,0
-5.7861e-27,0.017121,0,0,0,0,0,0,0,0,-29.595,0.013075,0,-107.94,0,-41.287,73.201,1,1,4.575,0,-4.575,0
-5.7234e-27,0.017123,0,0,0,0,0,0,0,0,-29.549,0.013697,0,-107.79,0,-41.23,73.108,1,1,4.58,0,-4.58,0
-5.6596e-27,0.017125,0,0,0,0,0,0,0,0,-29.502,0.014332,0,-107.65,0,-41.172,73.016,1,1,4.585,0,-4.585,0
-5.5948e-27,0.017127,0,0,0,0,0,0,0,0,-29.456,0.01498,0,-107.51,0,-41.115,72.923,1,1,4.59,0,-4.59,0
-5.5289e-27,0.01713,0,0,0,0,0,0,0,0,-29.409,0.015641,0,-107.36,0,-41.058,72.831,1,1,4.595,0,-4.595,0
-5.4619e-27,0.017132,0,0,0,0,0,0,0,0,-29.362,0.016314,0,-107.22,0,-41,72.738,1,1,4.6,0,-4.6,0
-5.3939e-27,0.017134,0,0,0,0,0,0,0,0,-29.315,0.017001,0,-107.07,0,-40.943,72.646,1,1,4.605,0,-4.605,0
-5.3248e-27,0.017136,0,0,0,0,0,0,0,0,-29.268,0.017701,0,-106.93,0,-40.885,72.554,1,1,4.61,0,-4.61,0
-5.2546e-27,0.017138,0,0,0,0,0,0,0,0,-29.22,0.018413,0,-106.78,0,-40.828,72.461,1,1,4.615,0,-4.615,0
-5.1834e-27,0.01714,0,0,0,0,0,0,0,0,-29.173,0.019138,0,-106.64,0,-40.77,72.369,1,1,4.62,0,-4.62,0
-5.1111e-27,0.017142,0,0,0,0,0,0,0,0,-29.125,0.019876,0,-106.5,0,-40.712,72.277,1,1,4.625,0,-4.625,0
-5.1317e-27,0.017145,0,0,0,0,0,0,0,0,-29.09,0.019672,0,-106.38,0,-40.667,72.202,1,1,4.63,0,-4.63,0
-5.1864e-27,0.017147,0,0,0,0,0,0,0,0,-29.059,0.019121,0,-106.28,0,-40.627,72.134,1,1,4.635,0,-4.635,0
-5.2403e-27,0.017149,0,0,0,0,0,0,0,0,-29.029,0.018578,0,-106.18,0,-40.587,72.066,1,1,4.64,0,-4.64,0
-5.2934e-27,0.017151,0,0,0,0,0,0,0,0,-28.998,0.018042,0,-106.07,0,-40.547,71.998,1,1,4.645,0,-4.645,0
-5.3457e-27,0.017153,0,0,0,0,0,0,0,0,-28.967,0.017513,0,-105.97,0,-40.506,71.93,1,1,4.65,0,-4.65,0
-5.3971e-27,0.017155,0,0,0,0,0,0,0,0,-28.935,0.016991,0,-105.87,0,-40.466,71.862,1,1,4.655,0,-4.655,0
-5.4478e-27,0.017157,0,0,0,0,0,0,0,0,-28.904,0.016476,0,-105.76,0,-40.426,71.794,1,1,4.66,0,-4.66,0
-5.4976e-27,0.01716,0,0,0,0,0,0,0,0,-28.873,0.015968,0,-105.66,0,-40.385,71.726,1,1,4.665,0,-4.665,0
-5.5466e-27,0.017162,0,0,0,0,0,0,0,0,-28.842,0.015468,0,-105.56,0,-40.345,71.658,1,1,4.67,0,-4.67,0
-5.5948e-27,0.017164,0,0,0,0,0,0,0,0,-28.81,0.014974,0,-105.45,0,-40.304,71.59,1,1,4.675,0,-4.675,0
-5.6422e-27,0.017166,0,0,0,0,0,0,0,0,-28.778,0.014488,0,-105.35,0,-40.263,71.522,1,1,4.68,0,-4.68,0
-5.6888e-27,0.017168,0,0,0,0,0,0,0,0,-28.747,0.014009,0,-105.24,0,-40.223,71.454,1,1,4.685,0,-4.685,0
-5.7346e-27,0.01717,0,0,0,0,0,0,0,0,-28.715,0.013537,0,-105.14,0,-40.182,71.386,1,1,4.69,0,-4.69,0
-5.7795e-27,0.017172,0,0,0,0,0,0,0,0,-28.683,0.013072,0,-105.04,0,-40.141,71.319,1,1,4.695,0,-4.695,0
-5.8237e-27,0.017174,0,0,0,0,0,0,0,0,-28.651,0.012614,0,-104.93,0,-40.101,71.251,1,1,4.7,0,-4.7,0
-5.867e-27,0.017176,0,0,0,0,0,0,0,0,-28.619,0.012163,0,-104.83,0,-40.06,71.183,1,1,4.705,0,-4.705,0
-5.9095e-27,0.017179,0,0,0,0,0,0,0,0,-28.587,0.01172,0,-104.73,0,-40.019,71.115,1,1,4.71,0,-4.71,0
-5.9513e-27,0.017181,0,0,0,0,0,0,0,0,-28.555,0.011283,0,-104.62,0,-39.978,71.048,1,1,4.715,0,-4.715,0
-5.9922e-27,0.017183,0,0,0,0,0,0,0,0,-28.522,0.010854,0,-104.52,0,-39.937,70.98,1,1,4.72,0,-4.72,0
-6.0323e-27,0.017185,0,0,0,0,0,0,0,0,-28.49,0.010432,0,-104.41,0,-39.896,70.912,1,1,4.725,0,-4.725,0
-6.0715e-27,0.017187,0,0,0,0,0,0,0,0,-28.457,0.010017,0,-104.31,0,-39.855,70.845,1,1,4.73,0,-4.73,0
-6.11e-27,0.017189,0,0,0,0,0,0,0,0,-28.425,0.0096089,0,-104.21,0,-39.814,70.777,1,1,4.735,0,-4.735,0
-6.1477e-27,0.017191,0,0,0,0,0,0,0,0,-28.392,0.0092081,0,-104.1,0,-39.773,70.71,1,1,4.74,0,-4.74,0
-6.1845e-27,0.017193,0,0,0,0,0,0,0,0,-28.359,0.0088145,0,-104,0,-39.732,70.642,1,1,4.745,0,-4.745,0
-6.2205e-27,0.017195,0,0,0,0,0,0,0,0,-28.326,0.0084279,0,-103.89,0,-39.691,70.575,1,1,4.75,0,-4.75,0
-6.2558e-27,0.017197,0,0,0,0,0,0,0,0,-28.293,0.0080485,0,-103.79,0,-39.65,70.507,1,1,4.755,0,-4.755,0
-6.2902e-27,0.0172,0,0,0,0,0,0,0,0,-28.26,0.0076763,0,-103.69,0,-39.608,70.44,1,1,4.76,0,-4.76,0
-6.3238e-27,0.017202,0,0,0,0,0,0,0,0,-28.227,0.0073112,0,-103.58,0,-39.567,70.373,1,1,4.765,0,-4.765,0
-6.3566e-27,0.017204,0,0,0,0,0,0,0,0,-28.194,0.0069532,0,-103.48,0,-39.526,70.305,1,1,4.77,0,-4.77,0
-6.3885e-27,0.017206,0,0,0,0,0,0,0,0,-28.16,0.0066023,0,-103.37,0,-39.484,70.238,1,1,4.775,0,-4.775,0
-6.4197e-27,0.017208,0,0,0,0,0,0,0,0,-28.127,0.0062585,0,-103.27,0,-39.443,70.171,1,1,4.78,0,-4.78,0
-6.45e-27,0.01721,0,0,0,0,0,0,0,0,-28.093,0.0059219,0,-103.16,0,-39.401,70.103,1,1,4.785,0,-4.785,0
-6.4796e-27,0.017212,0,0,0,0,0,0,0,0,-28.059,0.0055924,0,-103.06,0,-39.36,70.036,1,1,4.79,0,-4.79,0
-6.5083e-27,0.017214,0,0,0,0,0,0,0,0,-28.026,0.0052701,0,-102.95,0,-39.318,69.969,1,1,4.795,0,-4.795,0
-6.5362e-27,0.017216,0,0,0,0,0,0,0,0,-27.992,0.0049548,0,-102.85,0,-39.277,69.902,1,1,4.8,0,-4.8,0
-6.5633e-27,0.017218,0,0,0,0,0,0,0,0,-27.958,0.0046468,0,-102.75,0,-39.235,69.835,1,1,4.805,0,-4.805,0
-6.5896e-27,0.01722,0,0,0,0,0,0,0,0,-27.924,0.0043458,0,-102.64,0,-39.193,69.768,1,1,4.81,0,-4.81,0
-6.6151e-27,0.017222,0,0,0,0,0,0,0,0,-27.89,0.0040519,0,-102.54,0,-39.152,69.701,1,1,4.815,0,-4.815,0
-6.6398e-27,0.017224,0,0,0,0,0,0,0,0,-27.855,0.0037652,0,-102.43,0,-39.11,69.634,1,1,4.82,0,-4.82,0
-6.6637e-27,0.017227,0,0,0,0,0,0,0,0,-27.821,0.0034857,0,-102.33,0,-39.068,69.567,1,1,4.825,0,-4.825,0
-6.6867e-27,0.017229,0,0,0,0,0,0,0,0,-27.787,0.0032132,0,-102.22,0,-39.026,69.5,1,1,4.83,0,-4.83,0
-6.7089e-27,0.017231,0,0,0,0,0,0,0,0,-27.752,0.0029479,0,-102.12,0,-38.984,69.433,1,1,4.835,0,-4.835,0
-6.7304e-27,0.017233,0,0,0,0,0,0,0,0,-27.717,0.0026897,0,-102.01,0,-38.943,69.366,1,1,4.84,0,-4.84,0
-6.751e-27,0.017235,0,0,0,0,0,0,0,0,-27.683,0.0024386,0,-101.91,0,-38.901,69.299,1,1,4.845,0,-4.845,0
-6.7708e-27,0.017237,0,0,0,0,0,0,0,0,-27.648,0.0021947,0,-101.8,0,-38.859,69.232,1,1,4.85,0,-4.85,0
-6.7898e-27,0.017239,0,0,0,0,0,0,0,0,-27.613,0.0019578,0,-101.7,0,-38.817,69.165,1,1,4.855,0,-4.855,0
-6.808e-27,0.017241,0,0,0,0,0,0,0,0,-27.578,0.0017282,0,-101.59,0,-38.774,69.098,1,1,4.86,0,-4.86,0
-6.8253e-27,0.017243,0,0,0,0,0,0,0,0,-27.543,0.0015056,0,-101.49,0,-38.732,69.032,1,1,4.865,0,-4.865,0
-6.8419e-27,0.017245,0,0,0,0,0,0,0,0,-27.508,0.0012902,0,-101.38,0,-38.69,68.965,1,1,4.87,0,-4.87,0
-6.8576e-27,0.017247,0,0,0,0,0,0,0,0,-27.472,0.0010819,0,-101.28,0,-38.648,68.898,1,1,4.875,0,-4.875,0
-6.8726e-27,0.017249,0,0,0,0,0,0,0,0,-27.437,0.00088071,0,-101.17,0,-38.606,68.832,1,1,4.88,0,-4.88,0
-6.8867e-27,0.017251,0,0,0,0,0,0,0,0,-27.401,0.00068667,0,-101.06,0,-38.563,68.765,1,1,4.885,0,-4.885,0
-6.9e-27,0.017253,0,0,0,0,0,0,0,0,-27.366,0.00049977,0,-100.96,0,-38.521,68.698,1,1,4.89,0,-4.89,0
-6.9125e-27,0.017255,0,0,0,0,0,0,0,0,-27.33,0.00031998,0,-100.85,0,-38.479,68.632,1,1,4.895,0,-4.895,0
-6.9242e-27,0.017257,0,0,0,0,0,0,0,0,-27.294,0.00014733,0,-100.75,0,-38.436,68.565,1,1,4.9,0,-4.9,0
-6.9351e-27,0.017259,0,0,0,0,0,0,0,0,-27.259,-1.8199e-05,0,-100.64,0,-38.394,68.499,1,1,4.905,0,-4.905,0
-6.9451e-27,0.017261,0,0,0,0,0,0,0,0,-27.223,-0.00017658,0,-100.54,0,-38.351,68.432,1,1,4.91,0,-4.91,0
-6.9544e-27,0.017263,0,0,0,0,0,0,0,0,-27.187,-0.00032785,0,-100.43,0,-38.309,68.366,1,1,4.915,0,-4.915,0
-6.9628e-27,0.017265,0,0,0,0,0,0,0,0,-27.15,-0.00047199,0,-100.33,0,-38.266,68.299,1,1,4.92,0,-4.92,0
-6.9705e-27,0.017267,0,0,0,0,0,0,0,0,-27.114,-0.000609,0,-100.22,0,-38.223,68.233,1,1,4.925,0,-4.925,0
-6.9773e-27,0.017269,0,0,0,0,0,0,0,0,-27.078,-0.00073887,0,-100.11,0,-38.181,68.167,1,1,4.93,0,-4.93,0
-6.9833e-27,0.017271,0,0,0,0,0,0,0,0,-27.041,-0.00086163,0,-100.01,0,-38.138,68.1,1,1,4.935,0,-4.935,0
-6.9885e-27,0.017273,0,0,0,0,0,0,0,0,-27.005,-0.00097725,0,-99.903,0,-38.095,68.034,1,1,4.94,0,-4.94,0
-6.9929e-27,0.017275,0,0,0,0,0,0,0,0,-26.968,-0.0010857,0,-99.797,0,-38.052,67.968,1,1,4.945,0,-4.945,0
-6.9964e-27,0.017277,0,0,0,0,0,0,0,0,-26.932,-0.0011871,0,-99.691,0,-38.01,67.901,1,1,4.95,0,-4.95,0
-6.9992e-27,0.017279,0,0,0,0,0,0,0,0,-26.895,-0.0012813,0,-99.585,0,-37.967,67.835,1,1,4.955,0,-4.955,0
-7.0011e-27,0.017281,0,0,0,0,0,0,0,0,-26.858,-0.0013684,0,-99.479,0,-37.924,67.769,1,1,4.96,0,-4.96,0
-7.0023e-27,0.017283,0,0,0,0,0,0,0,0,-26.821,-0.0014484,0,-99.373,0,-37.881,67.703,1,1,4.965,0,-4.965,0
-7.0026e-27,0.017285,0,0,0,0,0,0,0,0,-26.784,-0.0015213,0,-99.267,0,-37.838,67.637,1,1,4.97,0,-4.97,0
-7.0021e-27,0.017287,0,0,0,0,0,0,0,0,-26.747,-0.001587,0,-99.16,0,-37.795,67.571,1,1,4.975,0,-4.975,0
-7.0008e-27,0.017289,0,0,0,0,0,0,0,0,-26.709,-0.0016456,0,-99.054,0,-37.752,67.505,1,1,4.98,0,-4.98,0
-6.9987e-27,0.017291,0,0,0,0,0,0,0,0,-26.672,-0.001697,0,-98.948,0,-37.708,67.439,1,1,4.985,0,-4.985,0
-6.9958e-27,0.017293,0,0,0,0,0,0,0,0,-26.634,-0.0017414,0,-98.842,0,-37.665,67.373,1,1,4.99,0,-4.99,0
-6.9921e-27,0.017295,0,0,0,0,0,0,0,0,-26.597,-0.0017786,0,-98.735,0,-37.622,67.307,1,1,4.995,0,-4.995,0
-6.9875e-27,0.017297,0,0,0,0,0,0,0,0,-26.559,-0.0018087,0,-98.629,0,-37.579,67.241,1,1,5,0,-5,0
