"displacement:0","displacement:1","displacement:2","displacement contact active","displacement contact distance","displacement contact gap","displacement contact normalload","displacement contact slipload","displacement contact stick","displacement contact weight","stress_xx","stress_xy","stress_xz","stress_yy","stress_yz","stress_zz","vonmises","GeometryIds","vtkValidPointMask","arc_length","Points:0","Points:1","Points:2"
-7.4004e-15,0.010108,0,1.35,-0.00049723,0.00049607,1793.9,664.75,-0.94019,0,-1401.3,263.52,0,-1751.1,0,-953.7,838.97,102,1,0,0,0,0
-7.1711e-15,0.010134,0,1.3082,-0.00048182,0.0004807,1738.3,644.15,-0.91106,0,-1374.5,258.97,0,-1737.5,0,-941.44,837.37,102,1,0.005,0,-0.005,0
-6.9449e-15,0.010161,0,1.2669,-0.00046663,0.00046554,1683.5,623.84,-0.88232,0,-1347.9,254.46,0,-1724,0,-929.3,835.77,102,1,0.01,0,-0.01,0
-6.722e-15,0.010188,0,1.2262,-0.00045164,0.00045059,1629.5,603.81,-0.85399,0,-1321.6,250.01,0,-1710.6,0,-917.26,834.18,102,1,0.015,0,-0.015,0
-6.5022e-15,0.010214,0,1.1861,-0.00043688,0.00043585,1576.2,584.06,-0.82607,0,-1295.5,245.6,0,-1697.2,0,-905.34,832.59,102,1,0.02,0,-0.02,0
-6.2855e-15,0.010241,0,1.1466,-0.00042232,0.00042133,1523.7,564.6,-0.79855,0,-1269.8,241.25,0,-1684,0,-893.54,831,102,1,0.025,0,-0.025,0
-6.0721e-15,0.010267,0,1.1077,-0.00040798,0.00040703,1471.9,545.43,-0.77143,0,-1244.3,236.94,0,-1670.9,0,-881.84,829.42,102,1,0.03,0,-0.03,0
-5.8618e-15,0.010294,0,1.0693,-0.00039385,0.00039293,1421,526.55,-0.74472,0,-1219.1,232.69,0,-1657.9,0,-870.26,827.84,102,1,0.035,0,-0.035,0
-5.6548e-15,0.01032,0,1.0316,-0.00037994,0.00037905,1370.8,507.94,-0.71841,0,-1194.2,228.48,0,-1644.9,0,-858.79,826.27,102,1,0.04,0,-0.04,0
-5.4509e-15,0.010346,0,0.99436,-0.00036624,0.00036538,1321.3,489.63,-0.69251,0,-1169.6,224.32,0,-1632.1,0,-847.44,824.7,102,1,0.045,0,-0.045,0
-5.2501e-15,0.010373,0,0.95775,-0.00035275,0.00035193,1272.7,471.6,-0.66701,0,-1145.2,220.22,0,-1619.3,0,-836.19,823.13,102,1,0.05,0,-0.05,0
-5.0526e-15,0.010399,0,0.92171,-0.00033948,0.00033869,1224.8,453.85,-0.64191,0,-1121.1,216.16,0,-1606.6,0,-825.06,821.56,102,1,0.055,0,-0.055,0
-4.8582e-15,0.010425,0,0.88626,-0.00032642,0.00032566,1177.7,436.4,-0.61722,0,-1097.3,212.16,0,-1594.1,0,-814.04,820,102,1,0.06,0,-0.06,0
-4.6671e-15,0.010451,0,0.85138,-0.00031358,0.00031284,1131.3,419.22,-0.59293,0,-1073.8,208.2,0,-1581.6,0,-803.14,818.44,102,1,0.065,0,-0.065,0
-4.4791e-15,0.010477,0,0.81709,-0.00030095,0.00030024,1085.8,402.34,-0.56904,0,-1050.5,204.29,0,-1569.2,0,-792.35,816.89,102,1,0.07,0,-0.07,0
-4.2942e-15,0.010502,0,0.78337,-0.00028853,0.00028785,1041,385.74,-0.54556,0,-1027.6,200.44,0,-1556.9,0,-781.67,815.34,102,1,0.075,0,-0.075,0
-4.1126e-15,0.010528,0,0.75024,-0.00027632,0.00027568,996.93,369.42,-0.52249,0,-1004.9,196.63,0,-1544.7,0,-771.1,813.79,102,1,0.08,0,-0.08,0
-3.9342e-15,0.010554,0,0.71768,-0.00026433,0.00026372,953.67,353.39,-0.49982,0,-982.47,192.87,0,-1532.6,0,-760.64,812.25,102,1,0.085,0,-0.085,0
-3.7589e-15,0.010579,0,0.68571,-0.00025256,0.00025197,911.18,337.64,-0.47755,0,-960.34,189.17,0,-1520.6,0,-750.3,810.71,102,1,0.09,0,-0.09,0
-3.5868e-15,0.010605,0,0.65431,-0.00024099,0.00024043,869.46,322.19,-0.45568,0,-938.49,185.51,0,-1508.7,0,-740.07,809.18,102,1,0.095,0,-0.095,0
-3.4179e-15,0.01063,0,0.6235,-0.00022964,0.00022911,828.52,307.01,-0.43422,0,-916.92,181.9,0,-1496.9,0,-729.96,807.65,102,1,0.1,0,-0.1,0
-3.2521e-15,0.010656,0,0.59326,-0.00021851,0.000218,788.34,292.13,-0.41317,0,-895.62,178.35,0,-1485.1,0,-719.95,806.12,102,1,0.105,0,-0.105,0
-3.0896e-15,0.010681,0,0.56361,-0.00020759,0.0002071,748.94,277.52,-0.39252,0,-874.61,174.84,0,-1473.5,0,-710.06,804.59,102,1,0.11,0,-0.11,0
-2.9302e-15,0.010706,0,0.53454,-0.00019688,0.00019642,710.3,263.21,-0.37227,0,-853.87,171.38,0,-1461.9,0,-700.28,803.07,102,1,0.115,0,-0.115,0
-2.774e-15,0.010731,0,0.50604,-0.00018638,0.00018595,672.44,249.18,-0.35242,0,-833.41,167.98,0,-1450.5,0,-690.62,801.55,102,1,0.12,0,-0.12,0
-2.621e-15,0.010756,0,0.47813,-0.0001761,0.00017569,635.35,235.43,-0.33298,0,-813.23,164.62,0,-1439.1,0,-681.07,800.04,102,1,0.125,0,-0.125,0
-2.4712e-15,0.010781,0,0.4508,-0.00016604,0.00016565,599.03,221.97,-0.31395,0,-793.33,161.31,0,-1427.9,0,-671.63,798.53,102,1,0.13,0,-0.13,0
-2.3245e-15,0.010806,0,0.42404,-0.00015618,0.00015582,563.48,208.8,-0.29532,0,-773.71,158.05,0,-1416.7,0,-662.3,797.02,102,1,0.135,0,-0.135,0
-2.181e-15,0.010831,0,0.39787,-0.00014654,0.0001462,528.7,195.91,-0.27709,0,-754.37,154.84,0,-1405.6,0,-653.08,795.52,102,1,0.14,0,-0.14,0
-2.0407e-15,0.010856,0,0.37228,-0.00013712,0.0001368,494.69,183.31,-0.25927,0,-735.3,151.69,0,-1394.6,0,-643.98,794.02,102,1,0.145,0,-0.145,0
-1.9036e-15,0.010881,0,0.34727,-0.0001279,0.0001276,461.45,170.99,-0.24185,0,-716.51,148.58,0,-1383.7,0,-634.99,792.52,102,1,0.15,0,-0.15,0
-1.7697e-15,0.010905,0,0.32283,-0.0001189,0.00011863,428.99,158.96,-0.22483,0,-698.01,145.52,0,-1372.9,0,-626.12,791.03,102,1,0.155,0,-0.155,0
-1.6389e-15,0.01093,0,0.29898,-0.00011012,0.00010986,397.29,147.22,-0.20822,0,-679.78,142.51,0,-1362.2,0,-617.35,789.54,102,1,0.16,0,-0.16,0
-1.5114e-15,0.010955,0,0.27571,-0.00010155,0.00010131,366.37,135.76,-0.19201,0,-661.83,139.55,0,-1351.6,0,-608.7,788.06,102,1,0.165,0,-0.165,0
-1.387e-15,0.010979,0,0.25302,-9.319e-05,9.2972e-05,336.21,124.59,-0.17621,0,-644.16,136.64,0,-1341.1,0,-600.16,786.58,102,1,0.17,0,-0.17,0
-1.2658e-15,0.011003,0,0.2309,-8.5046e-05,8.4847e-05,306.83,113.7,-0.16081,0,-626.76,133.78,0,-1330.6,0,-591.74,785.1,102,1,0.175,0,-0.175,0
-1.1477e-15,0.011028,0,0.20937,-7.7116e-05,7.6935e-05,278.22,103.1,-0.14581,0,-609.65,130.98,0,-1320.3,0,-583.42,783.62,102,1,0.18,0,-0.18,0
-1.0329e-15,0.011052,0,0.18842,-6.9399e-05,6.9237e-05,250.38,92.78,-0.13122,0,-592.81,128.22,0,-1310,0,-575.22,782.15,102,1,0.185,0,-0.185,0
-9.2121e-16,0.011076,0,0.16805,-6.1896e-05,6.1751e-05,223.31,82.749,-0.11704,0,-576.26,125.51,0,-1299.9,0,-567.14,780.69,102,1,0.19,0,-0.19,0
-8.1272e-16,0.0111,0,0.14826,-5.4606e-05,5.4479e-05,197.01,73.004,-0.10325,0,-559.98,122.85,0,-1289.8,0,-559.16,779.22,102,1,0.195,0,-0.195,0
-7.0741e-16,0.011124,0,0.12905,-4.7531e-05,4.742e-05,171.48,63.544,-0.089873,0,-543.98,120.24,0,-1279.9,0,-551.3,777.76,102,1,0.2,0,-0.2,0
-6.0528e-16,0.011148,0,0.11042,-4.0669e-05,4.0574e-05,146.73,54.37,-0.076898,0,-528.26,117.68,0,-1270,0,-543.55,776.31,102,1,0.205,0,-0.205,0
-5.0633e-16,0.011172,0,0.092367,-3.402e-05,3.3941e-05,122.74,45.482,-0.064327,0,-512.82,115.17,0,-1260.2,0,-535.91,774.85,102,1,0.21,0,-0.21,0
-4.1056e-16,0.011196,0,0.074897,-2.7586e-05,2.7521e-05,99.524,36.879,-0.05216,0,-497.66,112.71,0,-1250.5,0,-528.39,773.41,102,1,0.215,0,-0.215,0
-3.1798e-16,0.011219,0,0.058006,-2.1365e-05,2.1315e-05,77.08,28.563,-0.040397,0,-482.77,110.3,0,-1240.9,0,-520.98,771.96,102,1,0.22,0,-0.22,0
-2.2857e-16,0.011243,0,0.041696,-1.5357e-05,1.5321e-05,55.407,20.531,-0.029039,0,-468.17,107.94,0,-1231.4,0,-513.68,770.52,102,1,0.225,0,-0.225,0
-1.4234e-16,0.011267,0,0.025966,-9.5637e-06,9.5414e-06,34.504,12.786,-0.018084,0,-453.84,105.63,0,-1222,0,-506.49,769.08,102,1,0.23,0,-0.23,0
-5.9292e-17,0.01129,0,0.010816,-3.9838e-06,3.9745e-06,14.373,5.326,-0.0075328,0,-439.79,103.37,0,-1212.7,0,-499.42,767.65,102,1,0.235,0,-0.235,0
2.056e-17,0.011313,0,-0.0037507,1.3814e-06,-1.3782e-06,-4.984,-1.8469,0.0026121,0,-426.02,101.16,0,-1203.5,0,-492.46,766.21,102,1,0.24,0,-0.24,0
9.7194e-17,0.011337,0,-0.017731,6.5304e-06,-6.5152e-06,-23.561,-8.7306,0.012348,0,-412.54,99,0,-1194.4,0,-485.62,764.79,102,1,0.245,0,-0.245,0
1.7065e-16,0.01136,0,-0.031131,1.1466e-05,-1.1439e-05,-41.367,-15.329,0.021681,0,-399.34,96.891,0,-1185.3,0,-478.89,763.37,102,1,0.25,0,-0.25,0
2.4093e-16,0.011383,0,-0.043952,1.6188e-05,-1.615e-05,-58.404,-21.642,0.03061,0,-386.42,94.832,0,-1176.4,0,-472.27,761.95,102,1,0.255,0,-0.255,0
3.0804e-16,0.011406,0,-0.056194,2.0697e-05,-2.0649e-05,-74.671,-27.67,0.039135,0,-373.77,92.822,0,-1167.6,0,-465.77,760.53,102,1,0.26,0,-0.26,0
3.7197e-16,0.011429,0,-0.067856,2.4993e-05,-2.4934e-05,-90.169,-33.413,0.047257,0,-361.4,90.862,0,-1158.8,0,-459.37,759.12,102,1,0.265,0,-0.265,0
4.3273e-16,0.011452,0,-0.078939,2.9075e-05,-2.9007e-05,-104.9,-38.87,0.054976,0,-349.31,88.952,0,-1150.1,0,-453.09,757.71,102,1,0.27,0,-0.27,0
4.9031e-16,0.011475,0,-0.089443,3.2943e-05,-3.2866e-05,-118.85,-44.042,0.062291,0,-337.5,87.092,0,-1141.6,0,-446.93,756.31,102,1,0.275,0,-0.275,0
5.4471e-16,0.011498,0,-0.099368,3.6599e-05,-3.6513e-05,-132.04,-48.929,0.069203,0,-325.97,85.282,0,-1133.1,0,-440.87,754.9,102,1,0.28,0,-0.28,0
5.9594e-16,0.011521,0,-0.10871,4.0041e-05,-3.9947e-05,-144.46,-53.531,0.075711,0,-314.71,83.521,0,-1124.7,0,-434.93,753.51,102,1,0.285,0,-0.285,0
6.4399e-16,0.011543,0,-0.11748,4.3269e-05,-4.3168e-05,-156.11,-57.847,0.081816,0,-303.74,81.81,0,-1116.4,0,-429.1,752.11,102,1,0.29,0,-0.29,0
6.8887e-16,0.011566,0,-0.12567,4.6285e-05,-4.6176e-05,-166.99,-61.878,0.087517,0,-293.04,80.149,0,-1108.3,0,-423.38,750.72,102,1,0.295,0,-0.295,0
7.3057e-16,0.011589,0,-0.13327,4.9086e-05,-4.8972e-05,-177.09,-65.624,0.092815,0,-282.62,78.538,0,-1100.1,0,-417.78,749.34,102,1,0.3,0,-0.3,0
7.6909e-16,0.011611,0,-0.1403,5.1675e-05,-5.1554e-05,-186.43,-69.084,0.09771,0,-272.48,76.977,0,-1092.1,0,-412.28,747.95,102,1,0.305,0,-0.305,0
8.0444e-16,0.011634,0,-0.14675,5.405e-05,-5.3924e-05,-195,-72.26,0.1022,0,-262.61,75.465,0,-1084.2,0,-406.91,746.57,102,1,0.31,0,-0.31,0
8.3661e-16,0.011656,0,-0.15262,5.6212e-05,-5.608e-05,-202.8,-75.15,0.10629,0,-253.03,74.003,0,-1076.4,0,-401.64,745.2,102,1,0.315,0,-0.315,0
8.6561e-16,0.011678,0,-0.15791,5.816e-05,-5.8024e-05,-209.83,-77.754,0.10997,0,-243.72,72.591,0,-1068.7,0,-396.48,743.82,102,1,0.32,0,-0.32,0
8.9143e-16,0.0117,0,-0.16262,5.9895e-05,-5.9755e-05,-216.09,-80.074,0.11325,0,-234.69,71.229,0,-1061,0,-391.44,742.46,102,1,0.325,0,-0.325,0
9.1408e-16,0.011722,0,-0.16675,6.1417e-05,-6.1273e-05,-221.58,-82.108,0.11613,0,-225.94,69.917,0,-1053.5,0,-386.51,741.09,102,1,0.33,0,-0.33,0
9.3355e-16,0.011744,0,-0.1703,6.2725e-05,-6.2578e-05,-226.3,-83.857,0.1186,0,-217.47,68.654,0,-1046,0,-381.69,739.73,102,1,0.335,0,-0.335,0
9.4985e-16,0.011766,0,-0.17327,6.382e-05,-6.367e-05,-230.25,-85.321,0.12067,0,-209.28,67.442,0,-1038.7,0,-376.99,738.37,102,1,0.34,0,-0.34,0
9.6296e-16,0.011788,0,-0.17567,6.4701e-05,-6.455e-05,-233.43,-86.499,0.12234,0,-201.36,66.279,0,-1031.4,0,-372.4,737.02,102,1,0.345,0,-0.345,0
9.7291e-16,0.01181,0,-0.17748,6.5369e-05,-6.5216e-05,-235.84,-87.392,0.1236,0,-193.73,65.166,0,-1024.2,0,-367.92,735.67,102,1,0.35,0,-0.35,0
9.7968e-16,0.011832,0,-0.17872,6.5824e-05,-6.567e-05,-237.48,-88,0.12446,0,-186.37,64.102,0,-1017.2,0,-363.55,734.32,102,1,0.355,0,-0.355,0
9.8327e-16,0.011853,0,-0.17937,6.6065e-05,-6.5911e-05,-238.35,-88.323,0.12492,0,-179.29,63.089,0,-1010.2,0,-359.3,732.97,102,1,0.36,0,-0.36,0
9.8368e-16,0.011875,0,-0.17945,6.6093e-05,-6.5939e-05,-238.45,-88.36,0.12497,0,-172.49,62.125,0,-1003.3,0,-355.16,731.63,102,1,0.365,0,-0.365,0
9.8092e-16,0.011897,0,-0.17894,6.5908e-05,-6.5754e-05,-237.78,-88.113,0.12462,0,-165.96,61.211,0,-996.49,0,-351.13,730.3,102,1,0.37,0,-0.37,0
9.7499e-16,0.011918,0,-0.17786,6.5509e-05,-6.5356e-05,-236.34,-87.579,0.12387,0,-159.72,60.347,0,-989.78,0,-347.21,728.97,102,1,0.375,0,-0.375,0
9.6588e-16,0.011939,0,-0.1762,6.4897e-05,-6.4745e-05,-234.14,-86.761,0.12271,0,-153.75,59.533,0,-983.17,0,-343.41,727.64,102,1,0.38,0,-0.38,0
9.5359e-16,0.011961,0,-0.17396,6.4071e-05,-6.3922e-05,-231.16,-85.657,0.12115,0,-148.06,58.769,0,-976.64,0,-339.72,726.31,102,1,0.385,0,-0.385,0
9.3813e-16,0.011982,0,-0.17114,6.3032e-05,-6.2885e-05,-227.41,-84.268,0.11918,0,-142.65,58.054,0,-970.22,0,-336.14,724.99,102,1,0.39,0,-0.39,0
9.1949e-16,0.012003,0,-0.16774,6.178e-05,-6.1636e-05,-222.89,-82.594,0.11682,0,-137.52,57.389,0,-963.88,0,-332.67,723.67,102,1,0.395,0,-0.395,0
8.9768e-16,0.012024,0,-0.16376,6.0314e-05,-6.0173e-05,-217.6,-80.635,0.11405,0,-132.67,56.774,0,-957.64,0,-329.32,722.36,102,1,0.4,0,-0.4,0
8.7269e-16,0.012045,0,-0.1592,5.8635e-05,-5.8498e-05,-211.55,-78.39,0.11087,0,-128.09,56.209,0,-951.49,0,-326.08,721.04,102,1,0.405,0,-0.405,0
8.4452e-16,0.012066,0,-0.15406,5.6743e-05,-5.661e-05,-204.72,-75.86,0.10729,0,-123.79,55.693,0,-945.43,0,-322.95,719.74,102,1,0.41,0,-0.41,0
8.1318e-16,0.012087,0,-0.14834,5.4637e-05,-5.4509e-05,-197.12,-73.045,0.10331,0,-119.77,55.228,0,-939.46,0,-319.93,718.43,102,1,0.415,0,-0.415,0
7.7866e-16,0.012108,0,-0.14205,5.2318e-05,-5.2196e-05,-188.75,-69.944,0.098926,0,-116.03,54.812,0,-933.59,0,-317.03,717.13,102,1,0.42,0,-0.42,0
7.4097e-16,0.012129,0,-0.13517,4.9786e-05,-4.9669e-05,-179.62,-66.558,0.094137,0,-112.57,54.446,0,-927.81,0,-314.24,715.84,102,1,0.425,0,-0.425,0
7.001e-16,0.012149,0,-0.12772,4.704e-05,-4.693e-05,-169.71,-62.887,0.088945,0,-109.39,54.13,0,-922.13,0,-311.56,714.54,102,1,0.43,0,-0.43,0
6.5606e-16,0.01217,0,-0.11968,4.408e-05,-4.3977e-05,-159.03,-58.931,0.083349,0,-106.48,53.863,0,-916.53,0,-308.99,713.25,102,1,0.435,0,-0.435,0
6.0884e-16,0.01219,0,-0.11107,4.0908e-05,-4.0812e-05,-147.59,-54.69,0.07735,0,-103.85,53.647,0,-911.03,0,-306.54,711.97,102,1,0.44,0,-0.44,0
5.5844e-16,0.012211,0,-0.10187,3.7522e-05,-3.7434e-05,-135.37,-50.163,0.070948,0,-101.51,53.48,0,-905.62,0,-304.2,710.68,102,1,0.445,0,-0.445,0
5.0487e-16,0.012231,0,-0.092101,3.3922e-05,-3.3843e-05,-122.38,-45.351,0.064142,0,-99.435,53.363,0,-900.31,0,-301.97,709.41,102,1,0.45,0,-0.45,0
4.4813e-16,0.012251,0,-0.081749,3.0109e-05,-3.0039e-05,-108.63,-40.253,0.056932,0,-97.642,53.296,0,-895.09,0,-299.85,708.13,102,1,0.455,0,-0.455,0
3.882e-16,0.012272,0,-0.070817,2.6083e-05,-2.6022e-05,-94.103,-34.871,0.049319,0,-96.128,53.278,0,-889.96,0,-297.85,706.86,102,1,0.46,0,-0.46,0
3.251e-16,0.012292,0,-0.059307,2.1844e-05,-2.1793e-05,-78.808,-29.203,0.041303,0,-94.893,53.311,0,-884.92,0,-295.96,705.59,102,1,0.465,0,-0.465,0
2.5883e-16,0.012312,0,-0.047217,1.7391e-05,-1.735e-05,-62.743,-23.25,0.032883,0,-93.935,53.393,0,-879.98,0,-294.18,704.33,102,1,0.47,0,-0.47,0
1.8938e-16,0.012332,0,-0.034548,1.2724e-05,-1.2695e-05,-45.907,-17.011,0.02406,0,-93.256,53.525,0,-875.13,0,-292.52,703.07,102,1,0.475,0,-0.475,0
1.1676e-16,0.012352,0,-0.021299,7.8447e-06,-7.8264e-06,-28.302,-10.488,0.014833,0,-92.855,53.707,0,-870.37,0,-290.96,701.81,102,1,0.48,0,-0.48,0
4.0954e-17,0.012372,0,-0.0074709,2.7517e-06,-2.7452e-06,-9.9275,-3.6787,0.005203,0,-92.733,53.938,0,-865.71,0,-289.52,700.55,102,1,0.485,0,-0.485,0
-4.3461e-25,0.012391,0,0,0,0,0,0,0,0,-91.796,53.645,0,-860.58,0,-287.69,698.19,102,1,0.49,0,-0.49,0
-4.3793e-25,0.012409,0,0,0,0,0,0,0,0,-89.758,52.74,0,-854.89,0,-285.35,694.59,102,1,0.495,0,-0.495,0
-4.4118e-25,0.012427,0,0,0,0,0,0,0,0,-87.756,51.843,0,-849.24,0,-283.03,691,102,1,0.5,0,-0.5,0
-4.4436e-25,0.012446,0,0,0,0,0,0,0,0,-85.788,50.953,0,-843.62,0,-280.73,687.41,102,1,0.505,0,-0.505,0
-4.4749e-25,0.012464,0,0,0,0,0,0,0,0,-83.856,50.072,0,-838.03,0,-278.45,683.83,102,1,0.51,0,-0.51,0
-4.5054e-25,0.012482,0,0,0,0,0,0,0,0,-81.959,49.199,0,-832.47,0,-276.19,680.25,102,1,0.515,0,-0.515,0
-4.5354e-25,0.012499,0,0,0,0,0,0,0,0,-80.097,48.334,0,-826.95,0,-273.95,676.67,102,1,0.52,0,-0.52,0
-4.5647e-25,0.012517,0,0,0,0,0,0,0,0,-78.27,47.477,0,-821.46,0,-271.73,673.09,102,1,0.525,0,-0.525,0
-4.5933e-25,0.012535,0,0,0,0,0,0,0,0,-76.479,46.628,0,-816.01,0,-269.54,669.52,102,1,0.53,0,-0.53,0
-4.6213e-25,0.012553,0,0,0,0,0,0,0,0,-74.723,45.787,0,-810.58,0,-267.36,665.95,102,1,0.535,0,-0.535,0
-4.6487e-25,0.01257,0,0,0,0,0,0,0,0,-73.002,44.954,0,-805.19,0,-265.2,662.39,102,1,0.54,0,-0.54,0
-4.6754e-25,0.012587,0,0,0,0,0,0,0,0,-71.316,44.129,0,-799.84,0,-263.07,658.83,102,1,0.545,0,-0.545,0
-4.7015e-25,0.012605,0,0,0,0,0,0,0,0,-69.665,43.312,0,-794.51,0,-260.95,655.27,102,1,0.55,0,-0.55,0
-4.7269e-25,0.012622,0,0,0,0,0,0,0,0,-68.05,42.503,0,-789.22,0,-258.86,651.72,102,1,0.555,0,-0.555,0
-4.7517e-25,0.012639,0,0,0,0,0,0,0,0,-66.469,41.703,0,-783.96,0,-256.79,648.17,102,1,0.56,0,-0.56,0
-4.7759e-25,0.012656,0,0,0,0,0,0,0,0,-64.924,40.91,0,-778.74,0,-254.73,644.62,102,1,0.565,0,-0.565,0
-4.7994e-25,0.012673,0,0,0,0,0,0,0,0,-63.414,40.125,0,-773.54,0,-252.7,641.08,102,1,0.57,0,-0.57,0
-4.8222e-25,0.01269,0,0,0,0,0,0,0,0,-61.94,39.349,0,-768.38,0,-250.69,637.54,102,1,0.575,0,-0.575,0
-4.8445e-25,0.012707,0,0,0,0,0,0,0,0,-60.5,38.58,0,-763.26,0,-248.7,634,102,1,0.58,0,-0.58,0
-4.866e-25,0.012724,0,0,0,0,0,0,0,0,-59.096,37.82,0,-758.16,0,-246.73,630.47,102,1,0.585,0,-0.585,0
-4.887e-25,0.01274,0,0,0,0,0,0,0,0,-57.727,37.067,0,-753.1,0,-244.78,626.94,102,1,0.59,0,-0.59,0
-4.9073e-25,0.012757,0,0,0,0,0,0,0,0,-56.393,36.323,0,-748.08,0,-242.85,623.41,102,1,0.595,0,-0.595,0
-4.9269e-25,0.012773,0,0,0,0,0,0,0,0,-55.095,35.587,0,-743.08,0,-240.94,619.89,102,1,0.6,0,-0.6,0
-4.9459e-25,0.012789,0,0,0,0,0,0,0,0,-53.831,34.859,0,-738.12,0,-239.06,616.37,102,1,0.605,0,-0.605,0
-4.9643e-25,0.012806,0,0,0,0,0,0,0,0,-52.603,34.138,0,-733.19,0,-237.19,612.85,102,1,0.61,0,-0.61,0
-4.982e-25,0.012822,0,0,0,0,0,0,0,0,-51.41,33.426,0,-728.3,0,-235.34,609.34,102,1,0.615,0,-0.615,0
-4.999e-25,0.012838,0,0,0,0,0,0,0,0,-50.252,32.722,0,-723.44,0,-233.52,605.83,102,1,0.62,0,-0.62,0
-5.0155e-25,0.012854,0,0,0,0,0,0,0,0,-49.13,32.026,0,-718.61,0,-231.71,602.32,102,1,0.625,0,-0.625,0
-5.0313e-25,0.01287,0,0,0,0,0,0,0,0,-48.042,31.338,0,-713.81,0,-229.93,598.82,102,1,0.63,0,-0.63,0
-5.0464e-25,0.012886,0,0,0,0,0,0,0,0,-46.99,30.658,0,-709.05,0,-228.17,595.32,102,1,0.635,0,-0.635,0
-5.0609e-25,0.012901,0,0,0,0,0,0,0,0,-45.973,29.986,0,-704.32,0,-226.42,591.82,102,1,0.64,0,-0.64,0
-5.0748e-25,0.012917,0,0,0,0,0,0,0,0,-44.991,29.322,0,-699.62,0,-224.7,588.33,102,1,0.645,0,-0.645,0
-5.088e-25,0.012932,0,0,0,0,0,0,0,0,-44.045,28.667,0,-694.95,0,-223,584.84,102,1,0.65,0,-0.65,0
-5.1006e-25,0.012948,0,0,0,0,0,0,0,0,-43.133,28.019,0,-690.32,0,-221.32,581.36,102,1,0.655,0,-0.655,0
-5.1125e-25,0.012963,0,0,0,0,0,0,0,0,-42.257,27.379,0,-685.72,0,-219.66,577.87,102,1,0.66,0,-0.66,0
-5.1238e-25,0.012979,0,0,0,0,0,0,0,0,-41.416,26.748,0,-681.16,0,-218.02,574.39,102,1,0.665,0,-0.665,0
-5.1344e-25,0.012994,0,0,0,0,0,0,0,0,-40.61,26.124,0,-676.63,0,-216.4,570.92,102,1,0.67,0,-0.67,0
-5.1444e-25,0.013009,0,0,0,0,0,0,0,0,-39.84,25.509,0,-672.13,0,-214.8,567.45,102,1,0.675,0,-0.675,0
-5.1538e-25,0.013024,0,0,0,0,0,0,0,0,-39.104,24.901,0,-667.66,0,-213.22,563.98,102,1,0.68,0,-0.68,0
-5.1625e-25,0.013039,0,0,0,0,0,0,0,0,-38.404,24.302,0,-663.23,0,-211.67,560.51,102,1,0.685,0,-0.685,0
-5.1705e-25,0.013053,0,0,0,0,0,0,0,0,-37.739,23.71,0,-658.83,0,-210.13,557.05,102,1,0.69,0,-0.69,0
-5.178e-25,0.013068,0,0,0,0,0,0,0,0,-37.109,23.127,0,-654.46,0,-208.62,553.59,102,1,0.695,0,-0.695,0
-5.1847e-25,0.013083,0,0,0,0,0,0,0,0,-36.515,22.552,0,-650.13,0,-207.12,550.14,102,1,0.7,0,-0.7,0
-5.1909e-25,0.013097,0,0,0,0,0,0,0,0,-35.955,21.985,0,-645.83,0,-205.65,546.68,102,1,0.705,0,-0.705,0
-5.1964e-25,0.013112,0,0,0,0,0,0,0,0,-35.431,21.426,0,-641.56,0,-204.19,543.24,102,1,0.71,0,-0.71,0
-5.2012e-25,0.013126,0,0,0,0,0,0,0,0,-34.942,20.874,0,-637.32,0,-202.76,539.79,102,1,0.715,0,-0.715,0
-5.2054e-25,0.01314,0,0,0,0,0,0,0,0,-34.488,20.331,0,-633.12,0,-201.35,536.35,102,1,0.72,0,-0.72,0
-5.209e-25,0.013155,0,0,0,0,0,0,0,0,-34.07,19.796,0,-628.95,0,-199.96,532.91,102,1,0.725,0,-0.725,0
-5.2119e-25,0.013169,0,0,0,0,0,0,0,0,-33.686,19.269,0,-624.81,0,-198.59,529.48,102,1,0.73,0,-0.73,0
-5.2142e-25,0.013183,0,0,0,0,0,0,0,0,-33.338,18.751,0,-620.71,0,-197.23,526.05,102,1,0.735,0,-0.735,0
-5.2159e-25,0.013197,0,0,0,0,0,0,0,0,-33.025,18.24,0,-616.64,0,-195.91,522.62,102,1,0.74,0,-0.74,0
-5.2168e-25,0.01321,0,0,0,0,0,0,0,0,-32.747,17.737,0,-612.6,0,-194.6,519.19,102,1,0.745,0,-0.745,0
-5.2172e-25,0.013224,0,0,0,0,0,0,0,0,-32.505,17.242,0,-608.6,0,-193.31,515.77,102,1,0.75,0,-0.75,0
-5.2169e-25,0.013238,0,0,0,0,0,0,0,0,-32.298,16.756,0,-604.63,0,-192.04,512.35,102,1,0.755,0,-0.755,0
-5.216e-25,0.013251,0,0,0,0,0,0,0,0,-32.125,16.277,0,-600.69,0,-190.79,508.94,102,1,0.76,0,-0.76,0
-5.2144e-25,0.013265,0,0,0,0,0,0,0,0,-31.989,15.807,0,-596.79,0,-189.57,505.53,102,1,0.765,0,-0.765,0
-5.2122e-25,0.013278,0,0,0,0,0,0,0,0,-31.887,15.345,0,-592.92,0,-188.36,502.13,102,1,0.77,0,-0.77,0
-5.2093e-25,0.013292,0,0,0,0,0,0,0,0,-31.82,14.891,0,-589.09,0,-187.18,498.73,102,1,0.775,0,-0.775,0
-5.2058e-25,0.013305,0,0,0,0,0,0,0,0,-31.789,14.445,0,-585.28,0,-186.02,495.33,102,1,0.78,0,-0.78,0
-5.2017e-25,0.013318,0,0,0,0,0,0,0,0,-31.793,14.007,0,-581.51,0,-184.87,491.94,102,1,0.785,0,-0.785,0
-5.1969e-25,0.013331,0,0,0,0,0,0,0,0,-31.831,13.577,0,-577.78,0,-183.75,488.55,102,1,0.79,0,-0.79,0
-5.1914e-25,0.013344,0,0,0,0,0,0,0,0,-31.905,13.155,0,-574.07,0,-182.65,485.16,102,1,0.795,0,-0.795,0
-5.1854e-25,0.013357,0,0,0,0,0,0,0,0,-32.014,12.741,0,-570.4,0,-181.57,481.78,102,1,0.8,0,-0.8,0
-5.1787e-25,0.013369,0,0,0,0,0,0,0,0,-32.159,12.335,0,-566.76,0,-180.51,478.4,102,1,0.805,0,-0.805,0
-5.1713e-25,0.013382,0,0,0,0,0,0,0,0,-32.338,11.938,0,-563.16,0,-179.47,475.02,102,1,0.81,0,-0.81,0
-5.1633e-25,0.013394,0,0,0,0,0,0,0,0,-32.552,11.548,0,-559.59,0,-178.45,471.65,102,1,0.815,0,-0.815,0
-5.1547e-25,0.013407,0,0,0,0,0,0,0,0,-32.802,11.166,0,-556.05,0,-177.45,468.28,102,1,0.82,0,-0.82,0
-5.1454e-25,0.013419,0,0,0,0,0,0,0,0,-33.087,10.792,0,-552.54,0,-176.47,464.91,102,1,0.825,0,-0.825,0
-5.1355e-25,0.013432,0,0,0,0,0,0,0,0,-33.407,10.427,0,-549.07,0,-175.52,461.55,102,1,0.83,0,-0.83,0
-5.1249e-25,0.013444,0,0,0,0,0,0,0,0,-33.762,10.069,0,-545.63,0,-174.58,458.19,102,1,0.835,0,-0.835,0
-5.1137e-25,0.013456,0,0,0,0,0,0,0,0,-34.152,9.7195,0,-542.22,0,-173.66,454.83,102,1,0.84,0,-0.84,0
-5.1018e-25,0.013468,0,0,0,0,0,0,0,0,-34.577,9.378,0,-538.85,0,-172.77,451.48,102,1,0.845,0,-0.845,0
-5.0894e-25,0.01348,0,0,0,0,0,0,0,0,-35.038,9.0445,0,-535.51,0,-171.89,448.13,102,1,0.85,0,-0.85,0
-5.0762e-25,0.013492,0,0,0,0,0,0,0,0,-35.533,8.719,0,-532.2,0,-171.04,444.78,102,1,0.855,0,-0.855,0
-5.0624e-25,0.013503,0,0,0,0,0,0,0,0,-36.064,8.4016,0,-528.92,0,-170.2,441.44,102,1,0.86,0,-0.86,0
-5.048e-25,0.013515,0,0,0,0,0,0,0,0,-36.63,8.0922,0,-525.68,0,-169.39,438.1,102,1,0.865,0,-0.865,0
-5.033e-25,0.013527,0,0,0,0,0,0,0,0,-37.231,7.7909,0,-522.47,0,-168.6,434.76,102,1,0.87,0,-0.87,0
-5.0173e-25,0.013538,0,0,0,0,0,0,0,0,-37.867,7.4976,0,-519.29,0,-167.83,431.43,102,1,0.875,0,-0.875,0
-5.0009e-25,0.01355,0,0,0,0,0,0,0,0,-38.538,7.2123,0,-516.15,0,-167.08,428.1,102,1,0.88,0,-0.88,0
-4.9839e-25,0.013561,0,0,0,0,0,0,0,0,-39.244,6.9351,0,-513.04,0,-166.35,424.77,102,1,0.885,0,-0.885,0
-4.9663e-25,0.013572,0,0,0,0,0,0,0,0,-39.986,6.6658,0,-509.96,0,-165.64,421.45,102,1,0.89,0,-0.89,0
-4.948e-25,0.013583,0,0,0,0,0,0,0,0,-40.763,6.4047,0,-506.91,0,-164.95,418.13,102,1,0.895,0,-0.895,0
-4.9291e-25,0.013594,0,0,0,0,0,0,0,0,-41.574,6.1516,0,-503.9,0,-164.28,414.82,102,1,0.9,0,-0.9,0
-4.9096e-25,0.013605,0,0,0,0,0,0,0,0,-42.421,5.9065,0,-500.92,0,-163.63,411.5,102,1,0.905,0,-0.905,0
-4.8894e-25,0.013616,0,0,0,0,0,0,0,0,-43.303,5.6694,0,-497.98,0,-163,408.2,102,1,0.91,0,-0.91,0
-4.8686e-25,0.013627,0,0,0,0,0,0,0,0,-44.22,5.4404,0,-495.06,0,-162.4,404.89,102,1,0.915,0,-0.915,0
-4.8471e-25,0.013637,0,0,0,0,0,0,0,0,-45.173,5.2194,0,-492.18,0,-161.81,401.59,102,1,0.92,0,-0.92,0
-4.825e-25,0.013648,0,0,0,0,0,0,0,0,-46.16,5.0064,0,-489.34,0,-161.24,398.29,102,1,0.925,0,-0.925,0
-4.8022e-25,0.013659,0,0,0,0,0,0,0,0,-47.183,4.8015,0,-486.52,0,-160.7,394.99,102,1,0.93,0,-0.93,0
-4.7788e-25,0.013669,0,0,0,0,0,0,0,0,-48.24,4.6047,0,-483.74,0,-160.17,391.7,102,1,0.935,0,-0.935,0
-4.7547e-25,0.013679,0,0,0,0,0,0,0,0,-49.333,4.4158,0,-480.99,0,-159.67,388.41,102,1,0.94,0,-0.94,0
-4.7301e-25,0.01369,0,0,0,0,0,0,0,0,-50.461,4.235,0,-478.28,0,-159.19,385.13,102,1,0.945,0,-0.945,0
-4.7047e-25,0.0137,0,0,0,0,0,0,0,0,-51.624,4.0623,0,-475.59,0,-158.72,381.85,102,1,0.95,0,-0.95,0
-4.6788e-25,0.01371,0,0,0,0,0,0,0,0,-52.823,3.8975,0,-472.94,0,-158.28,378.57,102,1,0.955,0,-0.955,0
-4.6521e-25,0.01372,0,0,0,0,0,0,0,0,-54.056,3.7408,0,-470.33,0,-157.86,375.29,102,1,0.96,0,-0.96,0
-4.6249e-25,0.01373,0,0,0,0,0,0,0,0,-55.324,3.5922,0,-467.74,0,-157.46,372.02,102,1,0.965,0,-0.965,0
-4.597e-25,0.013739,0,0,0,0,0,0,0,0,-56.628,3.4516,0,-465.19,0,-157.08,368.75,102,1,0.97,0,-0.97,0
-4.5684e-25,0.013749,0,0,0,0,0,0,0,0,-57.967,3.319,0,-462.67,0,-156.72,365.49,102,1,0.975,0,-0.975,0
-4.5393e-25,0.013759,0,0,0,0,0,0,0,0,-59.341,3.1944,0,-460.19,0,-156.38,362.23,102,1,0.98,0,-0.98,0
-4.5094e-25,0.013768,0,0,0,0,0,0,0,0,-60.75,3.0779,0,-457.74,0,-156.06,358.97,102,1,0.985,0,-0.985,0
-4.479e-25,0.013778,0,0,0,0,0,0,0,0,-62.194,2.9694,0,-455.32,0,-155.77,355.72,102,1,0.99,0,-0.99,0
-4.4479e-25,0.013787,0,0,0,0,0,0,0,0,-63.673,2.869,0,-452.93,0,-155.49,352.46,102,1,0.995,0,-0.995,0
-4.4161e-25,0.013796,0,0,0,0,0,0,0,0,-65.188,2.7766,0,-450.58,0,-155.23,349.22,102,1,1,0,-1,0
-4.3837e-25,0.013805,0,0,0,0,0,0,0,0,-66.737,2.6922,0,-448.26,0,-155,345.97,102,1,1.005,0,-1.005,0
-4.3507e-25,0.013814,0,0,0,0,0,0,0,0,-68.322,2.6159,0,-445.97,0,-154.78,342.73,102,1,1.01,0,-1.01,0
-4.317e-25,0.013823,0,0,0,0,0,0,0,0,-69.942,2.5476,0,-443.72,0,-154.59,339.49,102,1,1.015,0,-1.015,0
-4.2827e-25,0.013832,0,0,0,0,0,0,0,0,-71.597,2.4874,0,-441.49,0,-154.41,336.26,102,1,1.02,0,-1.02,0
-4.2477e-25,0.013841,0,0,0,0,0,0,0,0,-73.287,2.4352,0,-439.31,0,-154.26,333.03,102,1,1.025,0,-1.025,0
-4.2121e-25,0.01385,0,0,0,0,0,0,0,0,-75.012,2.391,0,-437.15,0,-154.13,329.8,102,1,1.03,0,-1.03,0
-4.2424e-25,0.013859,0,0,0,0,0,0,0,0,-74.934,2.1586,0,-435.85,0,-153.71,328.71,102,1,1.035,0,-1.035,0
-4.2751e-25,0.013869,0,0,0,0,0,0,0,0,-74.773,1.9222,0,-434.58,0,-153.28,327.71,102,1,1.04,0,-1.04,0
-4.3073e-25,0.013878,0,0,0,0,0,0,0,0,-74.609,1.6907,0,-433.32,0,-152.85,326.72,102,1,1.045,0,-1.045,0
-4.3388e-25,0.013888,0,0,0,0,0,0,0,0,-74.445,1.464,0,-432.06,0,-152.42,325.72,102,1,1.05,0,-1.05,0
-4.3698e-25,0.013897,0,0,0,0,0,0,0,0,-74.279,1.2421,0,-430.8,0,-151.98,324.73,102,1,1.055,0,-1.055,0
-4.4002e-25,0.013906,0,0,0,0,0,0,0,0,-74.111,1.0251,0,-429.54,0,-151.55,323.75,102,1,1.06,0,-1.06,0
-4.43e-25,0.013916,0,0,0,0,0,0,0,0,-73.942,0.81283,0,-428.29,0,-151.12,322.77,102,1,1.065,0,-1.065,0
-4.4592e-25,0.013925,0,0,0,0,0,0,0,0,-73.771,0.60545,0,-427.03,0,-150.69,321.79,102,1,1.07,0,-1.07,0
-4.4879e-25,0.013934,0,0,0,0,0,0,0,0,-73.599,0.4029,0,-425.78,0,-150.26,320.81,102,1,1.075,0,-1.075,0
-4.516e-25,0.013944,0,0,0,0,0,0,0,0,-73.425,0.20518,0,-424.53,0,-149.83,319.83,102,1,1.08,0,-1.08,0
-4.5435e-25,0.013953,0,0,0,0,0,0,0,0,-73.249,0.012282,0,-423.28,0,-149.4,318.86,102,1,1.085,0,-1.085,0
-4.5704e-25,0.013962,0,0,0,0,0,0,0,0,-73.073,-0.17578,0,-422.03,0,-148.97,317.89,102,1,1.09,0,-1.09,0
-4.5967e-25,0.013971,0,0,0,0,0,0,0,0,-72.894,-0.35902,0,-420.79,0,-148.54,316.92,102,1,1.095,0,-1.095,0
-4.6225e-25,0.01398,0,0,0,0,0,0,0,0,-72.714,-0.53742,0,-419.55,0,-148.11,315.96,102,1,1.1,0,-1.1,0
-4.6477e-25,0.01399,0,0,0,0,0,0,0,0,-72.533,-0.711,0,-418.3,0,-147.68,315,102,1,1.105,0,-1.105,0
-4.6723e-25,0.013999,0,0,0,0,0,0,0,0,-72.35,-0.87974,0,-417.06,0,-147.25,314.04,102,1,1.11,0,-1.11,0
-4.6964e-25,0.014008,0,0,0,0,0,0,0,0,-72.165,-1.0437,0,-415.83,0,-146.82,313.09,102,1,1.115,0,-1.115,0
-4.7198e-25,0.014017,0,0,0,0,0,0,0,0,-71.979,-1.2027,0,-414.59,0,-146.39,312.13,102,1,1.12,0,-1.12,0
-4.7427e-25,0.014026,0,0,0,0,0,0,0,0,-71.791,-1.357,0,-413.35,0,-145.96,311.18,102,1,1.125,0,-1.125,0
-4.765e-25,0.014035,0,0,0,0,0,0,0,0,-71.602,-1.5064,0,-412.12,0,-145.53,310.24,102,1,1.13,0,-1.13,0
-4.7868e-25,0.014044,0,0,0,0,0,0,0,0,-71.411,-1.651,0,-410.89,0,-145.1,309.29,102,1,1.135,0,-1.135,0
-4.8079e-25,0.014053,0,0,0,0,0,0,0,0,-71.219,-1.7908,0,-409.66,0,-144.67,308.35,102,1,1.14,0,-1.14,0
-4.8285e-25,0.014062,0,0,0,0,0,0,0,0,-71.025,-1.9257,0,-408.43,0,-144.24,307.41,102,1,1.145,0,-1.145,0
-4.8485e-25,0.01407,0,0,0,0,0,0,0,0,-70.83,-2.0558,0,-407.21,0,-143.81,306.48,102,1,1.15,0,-1.15,0
-4.8679e-25,0.014079,0,0,0,0,0,0,0,0,-70.633,-2.1811,0,-405.98,0,-143.38,305.54,102,1,1.155,0,-1.155,0
-4.8867e-25,0.014088,0,0,0,0,0,0,0,0,-70.434,-2.3016,0,-404.76,0,-142.95,304.61,102,1,1.16,0,-1.16,0
-4.905e-25,0.014097,0,0,0,0,0,0,0,0,-70.235,-2.4172,0,-403.54,0,-142.53,303.68,102,1,1.165,0,-1.165,0
-4.9227e-25,0.014106,0,0,0,0,0,0,0,0,-70.033,-2.528,0,-402.32,0,-142.1,302.76,102,1,1.17,0,-1.17,0
-4.9398e-25,0.014114,0,0,0,0,0,0,0,0,-69.83,-2.6339,0,-401.1,0,-141.67,301.84,102,1,1.175,0,-1.175,0
-4.9563e-25,0.014123,0,0,0,0,0,0,0,0,-69.625,-2.7351,0,-399.88,0,-141.24,300.92,102,1,1.18,0,-1.18,0
-4.9723e-25,0.014132,0,0,0,0,0,0,0,0,-69.419,-2.8314,0,-398.67,0,-140.81,300,102,1,1.185,0,-1.185,0
-4.9877e-25,0.01414,0,0,0,0,0,0,0,0,-69.212,-2.9229,0,-397.46,0,-140.38,299.09,102,1,1.19,0,-1.19,0
-5.0025e-25,0.014149,0,0,0,0,0,0,0,0,-69.003,-3.0095,0,-396.25,0,-139.95,298.18,102,1,1.195,0,-1.195,0
-5.0167e-25,0.014157,0,0,0,0,0,0,0,0,-68.792,-3.0913,0,-395.04,0,-139.52,297.27,102,1,1.2,0,-1.2,0
-5.0303e-25,0.014166,0,0,0,0,0,0,0,0,-68.58,-3.1683,0,-393.83,0,-139.1,296.36,102,1,1.205,0,-1.205,0
-5.0434e-25,0.014175,0,0,0,0,0,0,0,0,-68.366,-3.2405,0,-392.63,0,-138.67,295.46,102,1,1.21,0,-1.21,0
-5.0559e-25,0.014183,0,0,0,0,0,0,0,0,-68.151,-3.3078,0,-391.42,0,-138.24,294.56,102,1,1.215,0,-1.215,0
-5.0678e-25,0.014191,0,0,0,0,0,0,0,0,-67.934,-3.3703,0,-390.22,0,-137.81,293.66,102,1,1.22,0,-1.22,0
-5.0791e-25,0.0142,0,0,0,0,0,0,0,0,-67.715,-3.4279,0,-389.02,0,-137.38,292.77,102,1,1.225,0,-1.225,0
-5.0899e-25,0.014208,0,0,0,0,0,0,0,0,-67.495,-3.4808,0,-387.82,0,-136.95,291.88,102,1,1.23,0,-1.23,0
-5.1001e-25,0.014217,0,0,0,0,0,0,0,0,-67.274,-3.5288,0,-386.62,0,-136.53,290.99,102,1,1.235,0,-1.235,0
-5.1097e-25,0.014225,0,0,0,0,0,0,0,0,-67.051,-3.572,0,-385.43,0,-136.1,290.1,102,1,1.24,0,-1.24,0
-5.1187e-25,0.014233,0,0,0,0,0,0,0,0,-66.826,-3.6103,0,-384.23,0,-135.67,289.22,102,1,1.245,0,-1.245,0
-5.1272e-25,0.014242,0,0,0,0,0,0,0,0,-66.6,-3.6438,0,-383.04,0,-135.24,288.34,102,1,1.25,0,-1.25,0
-5.135e-25,0.01425,0,0,0,0,0,0,0,0,-66.373,-3.6725,0,-381.85,0,-134.81,287.46,102,1,1.255,0,-1.255,0
-5.1423e-25,0.014258,0,0,0,0,0,0,0,0,-66.144,-3.6964,0,-380.66,0,-134.39,286.59,102,1,1.26,0,-1.26,0
-5.149e-25,0.014266,0,0,0,0,0,0,0,0,-65.913,-3.7154,0,-379.48,0,-133.96,285.72,102,1,1.265,0,-1.265,0
-5.1552e-25,0.014274,0,0,0,0,0,0,0,0,-65.681,-3.7296,0,-378.29,0,-133.53,284.85,102,1,1.27,0,-1.27,0
-5.1607e-25,0.014283,0,0,0,0,0,0,0,0,-65.447,-3.739,0,-377.11,0,-133.1,283.98,102,1,1.275,0,-1.275,0
-5.1657e-25,0.014291,0,0,0,0,0,0,0,0,-65.212,-3.7435,0,-375.93,0,-132.68,283.12,102,1,1.28,0,-1.28,0
-5.1701e-25,0.014299,0,0,0,0,0,0,0,0,-64.975,-3.7432,0,-374.75,0,-132.25,282.26,102,1,1.285,0,-1.285,0
-5.1739e-25,0.014307,0,0,0,0,0,0,0,0,-64.736,-3.7381,0,-373.57,0,-131.82,281.4,102,1,1.29,0,-1.29,0
-5.1772e-25,0.014315,0,0,0,0,0,0,0,0,-64.497,-3.7282,0,-372.39,0,-131.4,280.54,102,1,1.295,0,-1.295,0
-5.1799e-25,0.014323,0,0,0,0,0,0,0,0,-64.255,-3.7134,0,-371.22,0,-130.97,279.69,102,1,1.3,0,-1.3,0
-5.182e-25,0.014331,0,0,0,0,0,0,0,0,-64.012,-3.6938,0,-370.05,0,-130.54,278.84,102,1,1.305,0,-1.305,0
-5.1835e-25,0.014339,0,0,0,0,0,0,0,0,-63.768,-3.6693,0,-368.88,0,-130.11,277.99,102,1,1.31,0,-1.31,0
-5.1844e-25,0.014347,0,0,0,0,0,0,0,0,-63.522,-3.6401,0,-367.71,0,-129.69,277.15,102,1,1.315,0,-1.315,0
-5.1848e-25,0.014355,0,0,0,0,0,0,0,0,-63.274,-3.606,0,-366.54,0,-129.26,276.31,102,1,1.32,0,-1.32,0
-5.1846e-25,0.014362,0,0,0,0,0,0,0,0,-63.025,-3.5671,0,-365.37,0,-128.83,275.47,102,1,1.325,0,-1.325,0
-5.1838e-25,0.01437,0,0,0,0,0,0,0,0,-62.774,-3.5233,0,-364.21,0,-128.41,274.63,102,1,1.33,0,-1.33,0
-5.1824e-25,0.014378,0,0,0,0,0,0,0,0,-62.522,-3.4747,0,-363.05,0,-127.98,273.8,102,1,1.335,0,-1.335,0
-5.1805e-25,0.014386,0,0,0,0,0,0,0,0,-62.268,-3.4213,0,-361.89,0,-127.55,272.97,102,1,1.34,0,-1.34,0
-5.1779e-25,0.014393,0,0,0,0,0,0,0,0,-62.013,-3.3631,0,-360.73,0,-127.13,272.14,102,1,1.345,0,-1.345,0
-5.1748e-25,0.014401,0,0,0,0,0,0,0,0,-61.757,-3.3001,0,-359.57,0,-126.7,271.32,102,1,1.35,0,-1.35,0
-5.1711e-25,0.014409,0,0,0,0,0,0,0,0,-61.498,-3.2322,0,-358.41,0,-126.28,270.5,102,1,1.355,0,-1.355,0
-5.1669e-25,0.014416,0,0,0,0,0,0,0,0,-61.239,-3.1595,0,-357.26,0,-125.85,269.68,102,1,1.36,0,-1.36,0
-5.1621e-25,0.014424,0,0,0,0,0,0,0,0,-60.977,-3.082,0,-356.11,0,-125.42,268.86,102,1,1.365,0,-1.365,0
-5.1567e-25,0.014432,0,0,0,0,0,0,0,0,-60.714,-2.9996,0,-354.96,0,-125,268.05,102,1,1.37,0,-1.37,0
-5.1507e-25,0.014439,0,0,0,0,0,0,0,0,-60.45,-2.9125,0,-353.81,0,-124.57,267.24,102,1,1.375,0,-1.375,0
-5.1441e-25,0.014447,0,0,0,0,0,0,0,0,-60.184,-2.8205,0,-352.66,0,-124.15,266.43,102,1,1.38,0,-1.38,0
-5.137e-25,0.014454,0,0,0,0,0,0,0,0,-59.917,-2.7236,0,-351.52,0,-123.72,265.62,102,1,1.385,0,-1.385,0
-5.1292e-25,0.014462,0,0,0,0,0,0,0,0,-59.648,-2.622,0,-350.38,0,-123.3,264.82,102,1,1.39,0,-1.39,0
-5.1209e-25,0.014469,0,0,0,0,0,0,0,0,-59.377,-2.5155,0,-349.23,0,-122.87,264.02,102,1,1.395,0,-1.395,0
-5.1121e-25,0.014477,0,0,0,0,0,0,0,0,-59.105,-2.4042,0,-348.09,0,-122.45,263.22,102,1,1.4,0,-1.4,0
-5.1026e-25,0.014484,0,0,0,0,0,0,0,0,-58.832,-2.2881,0,-346.96,0,-122.02,262.43,102,1,1.405,0,-1.405,0
-5.0926e-25,0.014491,0,0,0,0,0,0,0,0,-58.556,-2.1671,0,-345.82,0,-121.6,261.64,102,1,1.41,0,-1.41,0
-5.082e-25,0.014499,0,0,0,0,0,0,0,0,-58.28,-2.0413,0,-344.69,0,-121.17,260.85,102,1,1.415,0,-1.415,0
-5.0708e-25,0.014506,0,0,0,0,0,0,0,0,-58.002,-1.9107,0,-343.55,0,-120.75,260.07,102,1,1.42,0,-1.42,0
-5.0591e-25,0.014513,0,0,0,0,0,0,0,0,-57.722,-1.7753,0,-342.42,0,-120.32,259.28,102,1,1.425,0,-1.425,0
-5.0467e-25,0.01452,0,0,0,0,0,0,0,0,-57.441,-1.635,0,-341.29,0,-119.9,258.5,102,1,1.43,0,-1.43,0
-5.0338e-25,0.014528,0,0,0,0,0,0,0,0,-57.158,-1.4899,0,-340.17,0,-119.47,257.73,102,1,1.435,0,-1.435,0
-5.0203e-25,0.014535,0,0,0,0,0,0,0,0,-56.873,-1.34,0,-339.04,0,-119.05,256.95,102,1,1.44,0,-1.44,0
-5.0062e-25,0.014542,0,0,0,0,0,0,0,0,-56.588,-1.1852,0,-337.91,0,-118.62,256.18,102,1,1.445,0,-1.445,0
-4.9916e-25,0.014549,0,0,0,0,0,0,0,0,-56.3,-1.0257,0,-336.79,0,-118.2,255.41,102,1,1.45,0,-1.45,0
-4.9764e-25,0.014556,0,0,0,0,0,0,0,0,-56.011,-0.86129,0,-335.67,0,-117.77,254.64,102,1,1.455,0,-1.455,0
-4.9606e-25,0.014563,0,0,0,0,0,0,0,0,-55.721,-0.69207,0,-334.55,0,-117.35,253.88,102,1,1.46,0,-1.46,0
-4.9442e-25,0.01457,0,0,0,0,0,0,0,0,-55.429,-0.51802,0,-333.44,0,-116.92,253.12,102,1,1.465,0,-1.465,0
-4.9273e-25,0.014577,0,0,0,0,0,0,0,0,-55.135,-0.33915,0,-332.32,0,-116.5,252.36,102,1,1.47,0,-1.47,0
-4.9097e-25,0.014584,0,0,0,0,0,0,0,0,-54.84,-0.15545,0,-331.21,0,-116.08,251.61,102,1,1.475,0,-1.475,0
-4.8916e-25,0.014591,0,0,0,0,0,0,0,0,-54.544,0.033079,0,-330.09,0,-115.65,250.85,102,1,1.48,0,-1.48,0
-4.8729e-25,0.014598,0,0,0,0,0,0,0,0,-54.245,0.22643,0,-328.98,0,-115.23,250.11,102,1,1.485,0,-1.485,0
-4.8537e-25,0.014605,0,0,0,0,0,0,0,0,-53.946,0.42461,0,-327.87,0,-114.8,249.36,102,1,1.49,0,-1.49,0
-4.8338e-25,0.014612,0,0,0,0,0,0,0,0,-53.644,0.62761,0,-326.77,0,-114.38,248.61,102,1,1.495,0,-1.495,0
-4.8134e-25,0.014619,0,0,0,0,0,0,0,0,-53.342,0.83544,0,-325.66,0,-113.96,247.87,102,1,1.5,0,-1.5,0
-4.7924e-25,0.014625,0,0,0,0,0,0,0,0,-53.037,1.0481,0,-324.56,0,-113.53,247.14,102,1,1.505,0,-1.505,0
-4.7709e-25,0.014632,0,0,0,0,0,0,0,0,-52.732,1.2656,0,-323.46,0,-113.11,246.4,102,1,1.51,0,-1.51,0
-4.7487e-25,0.014639,0,0,0,0,0,0,0,0,-52.424,1.4879,0,-322.36,0,-112.68,245.67,102,1,1.515,0,-1.515,0
-4.726e-25,0.014646,0,0,0,0,0,0,0,0,-52.115,1.715,0,-321.26,0,-112.26,244.94,102,1,1.52,0,-1.52,0
-4.7027e-25,0.014652,0,0,0,0,0,0,0,0,-51.805,1.947,0,-320.16,0,-111.84,244.21,102,1,1.525,0,-1.525,0
-4.6788e-25,0.014659,0,0,0,0,0,0,0,0,-51.493,2.1838,0,-319.07,0,-111.41,243.48,102,1,1.53,0,-1.53,0
-4.6544e-25,0.014666,0,0,0,0,0,0,0,0,-51.179,2.4254,0,-317.97,0,-110.99,242.76,102,1,1.535,0,-1.535,0
-4.6293e-25,0.014672,0,0,0,0,0,0,0,0,-50.864,2.6718,0,-316.88,0,-110.57,242.04,102,1,1.54,0,-1.54,0
-4.6037e-25,0.014679,0,0,0,0,0,0,0,0,-50.548,2.9231,0,-315.79,0,-110.14,241.33,102,1,1.545,0,-1.545,0
-4.5775e-25,0.014685,0,0,0,0,0,0,0,0,-50.23,3.1792,0,-314.7,0,-109.72,240.61,102,1,1.55,0,-1.55,0
-4.5508e-25,0.014692,0,0,0,0,0,0,0,0,-49.91,3.4401,0,-313.62,0,-109.3,239.9,102,1,1.555,0,-1.555,0
-4.5234e-25,0.014698,0,0,0,0,0,0,0,0,-49.589,3.7058,0,-312.53,0,-108.88,239.2,102,1,1.56,0,-1.56,0
-4.4955e-25,0.014705,0,0,0,0,0,0,0,0,-49.266,3.9764,0,-311.45,0,-108.45,238.49,102,1,1.565,0,-1.565,0
-4.467e-25,0.014711,0,0,0,0,0,0,0,0,-48.942,4.2518,0,-310.37,0,-108.03,237.79,102,1,1.57,0,-1.57,0
-4.438e-25,0.014717,0,0,0,0,0,0,0,0,-48.616,4.532,0,-309.29,0,-107.61,237.09,102,1,1.575,0,-1.575,0
-4.4083e-25,0.014724,0,0,0,0,0,0,0,0,-48.289,4.8171,0,-308.21,0,-107.19,236.39,102,1,1.58,0,-1.58,0
-4.3781e-25,0.01473,0,0,0,0,0,0,0,0,-47.96,5.107,0,-307.14,0,-106.76,235.7,102,1,1.585,0,-1.585,0
-4.3473e-25,0.014736,0,0,0,0,0,0,0,0,-47.63,5.4017,0,-306.06,0,-106.34,235.01,102,1,1.59,0,-1.59,0
-4.3159e-25,0.014743,0,0,0,0,0,0,0,0,-47.298,5.7012,0,-304.99,0,-105.92,234.32,102,1,1.595,0,-1.595,0
-4.2839e-25,0.014749,0,0,0,0,0,0,0,0,-46.964,6.0055,0,-303.92,0,-105.5,233.63,102,1,1.6,0,-1.6,0
-4.2514e-25,0.014755,0,0,0,0,0,0,0,0,-46.629,6.3147,0,-302.85,0,-105.07,232.95,102,1,1.605,0,-1.605,0
-4.2183e-25,0.014761,0,0,0,0,0,0,0,0,-46.293,6.6287,0,-301.78,0,-104.65,232.27,102,1,1.61,0,-1.61,0
-4.1846e-25,0.014768,0,0,0,0,0,0,0,0,-45.955,6.9476,0,-300.72,0,-104.23,231.59,102,1,1.615,0,-1.615,0
-4.1503e-25,0.014774,0,0,0,0,0,0,0,0,-45.615,7.2712,0,-299.65,0,-103.81,230.92,102,1,1.62,0,-1.62,0
-4.1155e-25,0.01478,0,0,0,0,0,0,0,0,-45.274,7.5997,0,-298.59,0,-103.39,230.25,102,1,1.625,0,-1.625,0
-4.0801e-25,0.014786,0,0,0,0,0,0,0,0,-44.931,7.933,0,-297.53,0,-102.96,229.58,102,1,1.63,0,-1.63,0
-4.098e-25,0.014792,0,0,0,0,0,0,0,0,-44.931,7.9056,0,-296.82,0,-102.75,228.95,102,1,1.635,0,-1.635,0
-4.1298e-25,0.014799,0,0,0,0,0,0,0,0,-45.022,7.7812,0,-296.21,0,-102.59,228.32,102,1,1.64,0,-1.64,0
-4.1611e-25,0.014805,0,0,0,0,0,0,0,0,-45.111,7.6578,0,-295.59,0,-102.43,227.7,102,1,1.645,0,-1.645,0
-4.192e-25,0.014811,0,0,0,0,0,0,0,0,-45.2,7.5355,0,-294.98,0,-102.27,227.08,102,1,1.65,0,-1.65,0
-4.2223e-25,0.014818,0,0,0,0,0,0,0,0,-45.286,7.4142,0,-294.36,0,-102.11,226.46,102,1,1.655,0,-1.655,0
-4.2521e-25,0.014824,0,0,0,0,0,0,0,0,-45.372,7.2938,0,-293.74,0,-101.95,225.84,102,1,1.66,0,-1.66,0
-4.2814e-25,0.01483,0,0,0,0,0,0,0,0,-45.456,7.1745,0,-293.13,0,-101.79,225.23,102,1,1.665,0,-1.665,0
-4.3103e-25,0.014837,0,0,0,0,0,0,0,0,-45.538,7.0562,0,-292.51,0,-101.63,224.61,102,1,1.67,0,-1.67,0
-4.3386e-25,0.014843,0,0,0,0,0,0,0,0,-45.62,6.9389,0,-291.89,0,-101.47,223.99,102,1,1.675,0,-1.675,0
-4.3663e-25,0.014849,0,0,0,0,0,0,0,0,-45.699,6.8226,0,-291.28,0,-101.31,223.38,102,1,1.68,0,-1.68,0
-4.3936e-25,0.014856,0,0,0,0,0,0,0,0,-45.778,6.7073,0,-290.66,0,-101.15,222.76,102,1,1.685,0,-1.685,0
-4.4204e-25,0.014862,0,0,0,0,0,0,0,0,-45.855,6.593,0,-290.04,0,-100.98,222.15,102,1,1.69,0,-1.69,0
-4.4467e-25,0.014868,0,0,0,0,0,0,0,0,-45.931,6.4797,0,-289.42,0,-100.82,221.53,102,1,1.695,0,-1.695,0
-4.4724e-25,0.014874,0,0,0,0,0,0,0,0,-46.005,6.3675,0,-288.8,0,-100.65,220.92,102,1,1.7,0,-1.7,0
-4.4977e-25,0.014881,0,0,0,0,0,0,0,0,-46.078,6.2562,0,-288.18,0,-100.49,220.31,102,1,1.705,0,-1.705,0
-4.5224e-25,0.014887,0,0,0,0,0,0,0,0,-46.149,6.146,0,-287.56,0,-100.32,219.7,102,1,1.71,0,-1.71,0
-4.5467e-25,0.014893,0,0,0,0,0,0,0,0,-46.219,6.0367,0,-286.94,0,-100.16,219.09,102,1,1.715,0,-1.715,0
-4.5704e-25,0.014899,0,0,0,0,0,0,0,0,-46.288,5.9285,0,-286.32,0,-99.99,218.48,102,1,1.72,0,-1.72,0
-4.5936e-25,0.014905,0,0,0,0,0,0,0,0,-46.355,5.8213,0,-285.7,0,-99.822,217.87,102,1,1.725,0,-1.725,0
-4.6163e-25,0.014911,0,0,0,0,0,0,0,0,-46.421,5.715,0,-285.08,0,-99.655,217.26,102,1,1.73,0,-1.73,0
-4.6385e-25,0.014917,0,0,0,0,0,0,0,0,-46.486,5.6098,0,-284.46,0,-99.486,216.66,102,1,1.735,0,-1.735,0
-4.6602e-25,0.014923,0,0,0,0,0,0,0,0,-46.549,5.5056,0,-283.83,0,-99.318,216.05,102,1,1.74,0,-1.74,0
-4.6814e-25,0.01493,0,0,0,0,0,0,0,0,-46.611,5.4024,0,-283.21,0,-99.148,215.45,102,1,1.745,0,-1.745,0
-4.7021e-25,0.014936,0,0,0,0,0,0,0,0,-46.671,5.3002,0,-282.59,0,-98.978,214.84,102,1,1.75,0,-1.75,0
-4.7223e-25,0.014942,0,0,0,0,0,0,0,0,-46.73,5.1991,0,-281.96,0,-98.808,214.24,102,1,1.755,0,-1.755,0
-4.7419e-25,0.014948,0,0,0,0,0,0,0,0,-46.788,5.0989,0,-281.34,0,-98.637,213.64,102,1,1.76,0,-1.76,0
-4.7611e-25,0.014954,0,0,0,0,0,0,0,0,-46.844,4.9997,0,-280.72,0,-98.466,213.04,102,1,1.765,0,-1.765,0
-4.7797e-25,0.01496,0,0,0,0,0,0,0,0,-46.899,4.9016,0,-280.09,0,-98.294,212.43,102,1,1.77,0,-1.77,0
-4.7979e-25,0.014966,0,0,0,0,0,0,0,0,-46.952,4.8044,0,-279.47,0,-98.121,211.83,102,1,1.775,0,-1.775,0
-4.8155e-25,0.014972,0,0,0,0,0,0,0,0,-47.004,4.7083,0,-278.84,0,-97.948,211.23,102,1,1.78,0,-1.78,0
-4.8326e-25,0.014978,0,0,0,0,0,0,0,0,-47.055,4.6131,0,-278.22,0,-97.775,210.64,102,1,1.785,0,-1.785,0
-4.8493e-25,0.014984,0,0,0,0,0,0,0,0,-47.104,4.519,0,-277.59,0,-97.601,210.04,102,1,1.79,0,-1.79,0
-4.8654e-25,0.014989,0,0,0,0,0,0,0,0,-47.152,4.4259,0,-276.96,0,-97.426,209.44,102,1,1.795,0,-1.795,0
-4.881e-25,0.014995,0,0,0,0,0,0,0,0,-47.199,4.3338,0,-276.34,0,-97.251,208.85,102,1,1.8,0,-1.8,0
-4.8961e-25,0.015001,0,0,0,0,0,0,0,0,-47.244,4.2427,0,-275.71,0,-97.075,208.25,102,1,1.805,0,-1.805,0
-4.9107e-25,0.015007,0,0,0,0,0,0,0,0,-47.288,4.1526,0,-275.08,0,-96.899,207.66,102,1,1.81,0,-1.81,0
-4.9247e-25,0.015013,0,0,0,0,0,0,0,0,-47.33,4.0635,0,-274.45,0,-96.722,207.06,102,1,1.815,0,-1.815,0
-4.9383e-25,0.015019,0,0,0,0,0,0,0,0,-47.371,3.9754,0,-273.83,0,-96.545,206.47,102,1,1.82,0,-1.82,0
-4.9514e-25,0.015025,0,0,0,0,0,0,0,0,-47.41,3.8883,0,-273.2,0,-96.367,205.88,102,1,1.825,0,-1.825,0
-4.9639e-25,0.01503,0,0,0,0,0,0,0,0,-47.448,3.8023,0,-272.57,0,-96.189,205.29,102,1,1.83,0,-1.83,0
-4.976e-25,0.015036,0,0,0,0,0,0,0,0,-47.485,3.7172,0,-271.94,0,-96.01,204.7,102,1,1.835,0,-1.835,0
-4.9875e-25,0.015042,0,0,0,0,0,0,0,0,-47.521,3.6331,0,-271.31,0,-95.831,204.11,102,1,1.84,0,-1.84,0
-4.9986e-25,0.015048,0,0,0,0,0,0,0,0,-47.555,3.5501,0,-270.68,0,-95.651,203.52,102,1,1.845,0,-1.845,0
-5.0091e-25,0.015054,0,0,0,0,0,0,0,0,-47.587,3.4681,0,-270.05,0,-95.47,202.93,102,1,1.85,0,-1.85,0
-5.0191e-25,0.015059,0,0,0,0,0,0,0,0,-47.618,3.387,0,-269.42,0,-95.29,202.34,102,1,1.855,0,-1.855,0
-5.0286e-25,0.015065,0,0,0,0,0,0,0,0,-47.648,3.307,0,-268.78,0,-95.108,201.75,102,1,1.86,0,-1.86,0
-5.0376e-25,0.015071,0,0,0,0,0,0,0,0,-47.677,3.228,0,-268.15,0,-94.926,201.17,102,1,1.865,0,-1.865,0
-5.0461e-25,0.015076,0,0,0,0,0,0,0,0,-47.704,3.15,0,-267.52,0,-94.743,200.58,102,1,1.87,0,-1.87,0
-5.0541e-25,0.015082,0,0,0,0,0,0,0,0,-47.729,3.073,0,-266.89,0,-94.56,200,102,1,1.875,0,-1.875,0
-5.0616e-25,0.015088,0,0,0,0,0,0,0,0,-47.754,2.997,0,-266.25,0,-94.377,199.42,102,1,1.88,0,-1.88,0
-5.0686e-25,0.015093,0,0,0,0,0,0,0,0,-47.776,2.922,0,-265.62,0,-94.193,198.83,102,1,1.885,0,-1.885,0
-5.075e-25,0.015099,0,0,0,0,0,0,0,0,-47.798,2.8481,0,-264.99,0,-94.008,198.25,102,1,1.89,0,-1.89,0
-5.081e-25,0.015105,0,0,0,0,0,0,0,0,-47.818,2.7751,0,-264.35,0,-93.823,197.67,102,1,1.895,0,-1.895,0
-5.0865e-25,0.01511,0,0,0,0,0,0,0,0,-47.837,2.7032,0,-263.72,0,-93.637,197.09,102,1,1.9,0,-1.9,0
-5.0914e-25,0.015116,0,0,0,0,0,0,0,0,-47.854,2.6322,0,-263.08,0,-93.451,196.51,102,1,1.905,0,-1.905,0
-5.0958e-25,0.015121,0,0,0,0,0,0,0,0,-47.87,2.5623,0,-262.45,0,-93.264,195.94,102,1,1.91,0,-1.91,0
-5.0998e-25,0.015127,0,0,0,0,0,0,0,0,-47.885,2.4933,0,-261.81,0,-93.077,195.36,102,1,1.915,0,-1.915,0
-5.1032e-25,0.015132,0,0,0,0,0,0,0,0,-47.898,2.4254,0,-261.18,0,-92.889,194.78,102,1,1.92,0,-1.92,0
-5.1061e-25,0.015138,0,0,0,0,0,0,0,0,-47.909,2.3585,0,-260.54,0,-92.701,194.21,102,1,1.925,0,-1.925,0
-5.1085e-25,0.015143,0,0,0,0,0,0,0,0,-47.92,2.2926,0,-259.9,0,-92.512,193.63,102,1,1.93,0,-1.93,0
-5.1104e-25,0.015149,0,0,0,0,0,0,0,0,-47.929,2.2277,0,-259.27,0,-92.322,193.06,102,1,1.935,0,-1.935,0
-5.1118e-25,0.015154,0,0,0,0,0,0,0,0,-47.936,2.1638,0,-258.63,0,-92.132,192.48,102,1,1.94,0,-1.94,0
-5.1127e-25,0.01516,0,0,0,0,0,0,0,0,-47.943,2.1009,0,-257.99,0,-91.942,191.91,102,1,1.945,0,-1.945,0
-5.113e-25,0.015165,0,0,0,0,0,0,0,0,-47.947,2.039,0,-257.35,0,-91.751,191.34,102,1,1.95,0,-1.95,0
-5.1129e-25,0.015171,0,0,0,0,0,0,0,0,-47.951,1.9781,0,-256.71,0,-91.559,190.77,102,1,1.955,0,-1.955,0
-5.1123e-25,0.015176,0,0,0,0,0,0,0,0,-47.953,1.9183,0,-256.07,0,-91.367,190.2,102,1,1.96,0,-1.96,0
-5.1111e-25,0.015181,0,0,0,0,0,0,0,0,-47.954,1.8594,0,-255.43,0,-91.175,189.63,102,1,1.965,0,-1.965,0
-5.1094e-25,0.015187,0,0,0,0,0,0,0,0,-47.953,1.8016,0,-254.79,0,-90.982,189.06,102,1,1.97,0,-1.97,0
-5.1073e-25,0.015192,0,0,0,0,0,0,0,0,-47.951,1.7448,0,-254.15,0,-90.788,188.49,102,1,1.975,0,-1.975,0
-5.1046e-25,0.015197,0,0,0,0,0,0,0,0,-47.947,1.6889,0,-253.51,0,-90.594,187.92,102,1,1.98,0,-1.98,0
-5.1014e-25,0.015203,0,0,0,0,0,0,0,0,-47.942,1.6341,0,-252.87,0,-90.399,187.36,102,1,1.985,0,-1.985,0
-5.0977e-25,0.015208,0,0,0,0,0,0,0,0,-47.936,1.5803,0,-252.23,0,-90.204,186.79,102,1,1.99,0,-1.99,0
-5.0935e-25,0.015213,0,0,0,0,0,0,0,0,-47.928,1.5275,0,-251.59,0,-90.008,186.23,102,1,1.995,0,-1.995,0
-5.0888e-25,0.015219,0,0,0,0,0,0,0,0,-47.919,1.4757,0,-250.95,0,-89.812,185.67,102,1,2,0,-2,0
-5.0836e-25,0.015224,0,0,0,0,0,0,0,0,-47.909,1.4249,0,-250.3,0,-89.615,185.1,102,1,2.005,0,-2.005,0
-5.0779e-25,0.015229,0,0,0,0,0,0,0,0,-47.897,1.3752,0,-249.66,0,-89.418,184.54,102,1,2.01,0,-2.01,0
-5.0717e-25,0.015234,0,0,0,0,0,0,0,0,-47.884,1.3264,0,-249.02,0,-89.22,183.98,102,1,2.015,0,-2.015,0
-5.065e-25,0.015239,0,0,0,0,0,0,0,0,-47.869,1.2786,0,-248.37,0,-89.022,183.42,102,1,2.02,0,-2.02,0
-5.0577e-25,0.015245,0,0,0,0,0,0,0,0,-47.853,1.2319,0,-247.73,0,-88.823,182.86,102,1,2.025,0,-2.025,0
-5.05e-25,0.01525,0,0,0,0,0,0,0,0,-47.835,1.1861,0,-247.09,0,-88.623,182.3,102,1,2.03,0,-2.03,0
-5.0417e-25,0.015255,0,0,0,0,0,0,0,0,-47.817,1.1414,0,-246.44,0,-88.423,181.74,102,1,2.035,0,-2.035,0
-5.033e-25,0.01526,0,0,0,0,0,0,0,0,-47.797,1.0977,0,-245.8,0,-88.223,181.19,102,1,2.04,0,-2.04,0
-5.0237e-25,0.015265,0,0,0,0,0,0,0,0,-47.775,1.0549,0,-245.15,0,-88.022,180.63,102,1,2.045,0,-2.045,0
-5.0139e-25,0.01527,0,0,0,0,0,0,0,0,-47.752,1.0132,0,-244.5,0,-87.82,180.07,102,1,2.05,0,-2.05,0
-5.0036e-25,0.015275,0,0,0,0,0,0,0,0,-47.728,0.97249,0,-243.86,0,-87.618,179.52,102,1,2.055,0,-2.055,0
-4.9928e-25,0.015281,0,0,0,0,0,0,0,0,-47.702,0.93279,0,-243.21,0,-87.416,178.96,102,1,2.06,0,-2.06,0
-4.9815e-25,0.015286,0,0,0,0,0,0,0,0,-47.675,0.89409,0,-242.56,0,-87.213,178.41,102,1,2.065,0,-2.065,0
-4.9697e-25,0.015291,0,0,0,0,0,0,0,0,-47.646,0.8564,0,-241.92,0,-87.009,177.86,102,1,2.07,0,-2.07,0
-4.9574e-25,0.015296,0,0,0,0,0,0,0,0,-47.616,0.81972,0,-241.27,0,-86.805,177.31,102,1,2.075,0,-2.075,0
-4.9446e-25,0.015301,0,0,0,0,0,0,0,0,-47.585,0.78405,0,-240.62,0,-86.6,176.76,102,1,2.08,0,-2.08,0
-4.9313e-25,0.015306,0,0,0,0,0,0,0,0,-47.552,0.74938,0,-239.97,0,-86.395,176.21,102,1,2.085,0,-2.085,0
-4.9174e-25,0.015311,0,0,0,0,0,0,0,0,-47.518,0.71572,0,-239.32,0,-86.189,175.66,102,1,2.09,0,-2.09,0
-4.9031e-25,0.015316,0,0,0,0,0,0,0,0,-47.483,0.68306,0,-238.67,0,-85.983,175.11,102,1,2.095,0,-2.095,0
-4.8882e-25,0.015321,0,0,0,0,0,0,0,0,-47.446,0.65142,0,-238.02,0,-85.776,174.56,102,1,2.1,0,-2.1,0
-4.8729e-25,0.015326,0,0,0,0,0,0,0,0,-47.408,0.62078,0,-237.37,0,-85.568,174.02,102,1,2.105,0,-2.105,0
-4.857e-25,0.01533,0,0,0,0,0,0,0,0,-47.368,0.59115,0,-236.72,0,-85.361,173.47,102,1,2.11,0,-2.11,0
-4.8406e-25,0.015335,0,0,0,0,0,0,0,0,-47.327,0.56252,0,-236.07,0,-85.152,172.93,102,1,2.115,0,-2.115,0
-4.8237e-25,0.01534,0,0,0,0,0,0,0,0,-47.285,0.53491,0,-235.42,0,-84.943,172.38,102,1,2.12,0,-2.12,0
-4.8064e-25,0.015345,0,0,0,0,0,0,0,0,-47.241,0.5083,0,-234.77,0,-84.734,171.84,102,1,2.125,0,-2.125,0
-4.7885e-25,0.01535,0,0,0,0,0,0,0,0,-47.196,0.4827,0,-234.12,0,-84.524,171.3,102,1,2.13,0,-2.13,0
-4.77e-25,0.015355,0,0,0,0,0,0,0,0,-47.149,0.4581,0,-233.46,0,-84.313,170.75,102,1,2.135,0,-2.135,0
-4.7511e-25,0.01536,0,0,0,0,0,0,0,0,-47.101,0.43451,0,-232.81,0,-84.102,170.21,102,1,2.14,0,-2.14,0
-4.7317e-25,0.015365,0,0,0,0,0,0,0,0,-47.052,0.41194,0,-232.16,0,-83.89,169.67,102,1,2.145,0,-2.145,0
-4.7118e-25,0.015369,0,0,0,0,0,0,0,0,-47.001,0.39036,0,-231.5,0,-83.678,169.13,102,1,2.15,0,-2.15,0
-4.6914e-25,0.015374,0,0,0,0,0,0,0,0,-46.949,0.3698,0,-230.85,0,-83.466,168.59,102,1,2.155,0,-2.155,0
-4.6704e-25,0.015379,0,0,0,0,0,0,0,0,-46.895,0.35024,0,-230.19,0,-83.253,168.06,102,1,2.16,0,-2.16,0
-4.649e-25,0.015384,0,0,0,0,0,0,0,0,-46.841,0.33169,0,-229.54,0,-83.039,167.52,102,1,2.165,0,-2.165,0
-4.627e-25,0.015388,0,0,0,0,0,0,0,0,-46.784,0.31415,0,-228.88,0,-82.825,166.98,102,1,2.17,0,-2.17,0
-4.6045e-25,0.015393,0,0,0,0,0,0,0,0,-46.727,0.29761,0,-228.23,0,-82.61,166.45,102,1,2.175,0,-2.175,0
-4.5816e-25,0.015398,0,0,0,0,0,0,0,0,-46.667,0.28208,0,-227.57,0,-82.395,165.91,102,1,2.18,0,-2.18,0
-4.5581e-25,0.015402,0,0,0,0,0,0,0,0,-46.607,0.26756,0,-226.92,0,-82.179,165.38,102,1,2.185,0,-2.185,0
-4.5341e-25,0.015407,0,0,0,0,0,0,0,0,-46.545,0.25405,0,-226.26,0,-81.962,164.85,102,1,2.19,0,-2.19,0
-4.5096e-25,0.015412,0,0,0,0,0,0,0,0,-46.482,0.24154,0,-225.6,0,-81.745,164.32,102,1,2.195,0,-2.195,0
-4.4846e-25,0.015416,0,0,0,0,0,0,0,0,-46.417,0.23004,0,-224.94,0,-81.528,163.78,102,1,2.2,0,-2.2,0
-4.4591e-25,0.015421,0,0,0,0,0,0,0,0,-46.351,0.21955,0,-224.29,0,-81.31,163.25,102,1,2.205,0,-2.205,0
-4.4331e-25,0.015426,0,0,0,0,0,0,0,0,-46.284,0.21006,0,-223.63,0,-81.092,162.72,102,1,2.21,0,-2.21,0
-4.4065e-25,0.01543,0,0,0,0,0,0,0,0,-46.215,0.20159,0,-222.97,0,-80.873,162.2,102,1,2.215,0,-2.215,0
-4.3795e-25,0.015435,0,0,0,0,0,0,0,0,-46.145,0.19412,0,-222.31,0,-80.653,161.67,102,1,2.22,0,-2.22,0
-4.352e-25,0.015439,0,0,0,0,0,0,0,0,-46.073,0.18766,0,-221.65,0,-80.433,161.14,102,1,2.225,0,-2.225,0
-4.3239e-25,0.015444,0,0,0,0,0,0,0,0,-46,0.1822,0,-220.99,0,-80.212,160.61,102,1,2.23,0,-2.23,0
-4.2954e-25,0.015448,0,0,0,0,0,0,0,0,-45.926,0.17775,0,-220.33,0,-79.991,160.09,102,1,2.235,0,-2.235,0
-4.2663e-25,0.015453,0,0,0,0,0,0,0,0,-45.85,0.17431,0,-219.67,0,-79.77,159.56,102,1,2.24,0,-2.24,0
-4.2367e-25,0.015457,0,0,0,0,0,0,0,0,-45.773,0.17188,0,-219.01,0,-79.548,159.04,102,1,2.245,0,-2.245,0
-4.2067e-25,0.015462,0,0,0,0,0,0,0,0,-45.695,0.17045,0,-218.35,0,-79.325,158.52,102,1,2.25,0,-2.25,0
-4.1761e-25,0.015466,0,0,0,0,0,0,0,0,-45.615,0.17003,0,-217.69,0,-79.102,157.99,102,1,2.255,0,-2.255,0
-4.145e-25,0.015471,0,0,0,0,0,0,0,0,-45.533,0.17062,0,-217.02,0,-78.878,157.47,102,1,2.26,0,-2.26,0
-4.1134e-25,0.015475,0,0,0,0,0,0,0,0,-45.451,0.17222,0,-216.36,0,-78.654,156.95,102,1,2.265,0,-2.265,0
-4.0813e-25,0.01548,0,0,0,0,0,0,0,0,-45.367,0.17482,0,-215.7,0,-78.429,156.43,102,1,2.27,0,-2.27,0
-4.0487e-25,0.015484,0,0,0,0,0,0,0,0,-45.281,0.17843,0,-215.04,0,-78.203,155.91,102,1,2.275,0,-2.275,0
-4.0155e-25,0.015488,0,0,0,0,0,0,0,0,-45.194,0.18305,0,-214.37,0,-77.977,155.39,102,1,2.28,0,-2.28,0
-3.9819e-25,0.015493,0,0,0,0,0,0,0,0,-45.106,0.18868,0,-213.71,0,-77.751,154.88,102,1,2.285,0,-2.285,0
-3.9478e-25,0.015497,0,0,0,0,0,0,0,0,-45.017,0.19531,0,-213.04,0,-77.524,154.36,102,1,2.29,0,-2.29,0
-3.9557e-25,0.015502,0,0,0,0,0,0,0,0,-44.996,0.18774,0,-212.61,0,-77.389,154,102,1,2.295,0,-2.295,0
-3.9863e-25,0.015506,0,0,0,0,0,0,0,0,-45.014,0.17232,0,-212.31,0,-77.303,153.72,102,1,2.3,0,-2.3,0
-4.0164e-25,0.01551,0,0,0,0,0,0,0,0,-45.03,0.15717,0,-212.01,0,-77.216,153.44,102,1,2.305,0,-2.305,0
-4.0461e-25,0.015515,0,0,0,0,0,0,0,0,-45.046,0.14229,0,-211.7,0,-77.13,153.16,102,1,2.31,0,-2.31,0
-4.0754e-25,0.015519,0,0,0,0,0,0,0,0,-45.062,0.12768,0,-211.4,0,-77.043,152.88,102,1,2.315,0,-2.315,0
-4.1042e-25,0.015524,0,0,0,0,0,0,0,0,-45.076,0.11334,0,-211.09,0,-76.955,152.6,102,1,2.32,0,-2.32,0
-4.1325e-25,0.015528,0,0,0,0,0,0,0,0,-45.09,0.09927,0,-210.79,0,-76.867,152.32,102,1,2.325,0,-2.325,0
-4.1604e-25,0.015533,0,0,0,0,0,0,0,0,-45.103,0.085467,0,-210.48,0,-76.779,152.04,102,1,2.33,0,-2.33,0
-4.1879e-25,0.015537,0,0,0,0,0,0,0,0,-45.115,0.071931,0,-210.18,0,-76.691,151.76,102,1,2.335,0,-2.335,0
-4.2149e-25,0.015541,0,0,0,0,0,0,0,0,-45.127,0.058665,0,-209.87,0,-76.602,151.48,102,1,2.34,0,-2.34,0
-4.2415e-25,0.015546,0,0,0,0,0,0,0,0,-45.137,0.045667,0,-209.56,0,-76.512,151.2,102,1,2.345,0,-2.345,0
-4.2677e-25,0.01555,0,0,0,0,0,0,0,0,-45.148,0.032938,0,-209.25,0,-76.422,150.92,102,1,2.35,0,-2.35,0
-4.2934e-25,0.015554,0,0,0,0,0,0,0,0,-45.157,0.020478,0,-208.94,0,-76.332,150.64,102,1,2.355,0,-2.355,0
-4.3187e-25,0.015559,0,0,0,0,0,0,0,0,-45.165,0.0082863,0,-208.63,0,-76.242,150.36,102,1,2.36,0,-2.36,0
-4.3435e-25,0.015563,0,0,0,0,0,0,0,0,-45.173,-0.0036371,0,-208.32,0,-76.151,150.08,102,1,2.365,0,-2.365,0
-4.3679e-25,0.015568,0,0,0,0,0,0,0,0,-45.18,-0.015291,0,-208.01,0,-76.059,149.8,102,1,2.37,0,-2.37,0
-4.3918e-25,0.015572,0,0,0,0,0,0,0,0,-45.187,-0.026677,0,-207.7,0,-75.968,149.52,102,1,2.375,0,-2.375,0
-4.4153e-25,0.015576,0,0,0,0,0,0,0,0,-45.193,-0.037794,0,-207.39,0,-75.876,149.24,102,1,2.38,0,-2.38,0
-4.4384e-25,0.015581,0,0,0,0,0,0,0,0,-45.198,-0.048642,0,-207.08,0,-75.783,148.97,102,1,2.385,0,-2.385,0
-4.461e-25,0.015585,0,0,0,0,0,0,0,0,-45.202,-0.059222,0,-206.77,0,-75.69,148.69,102,1,2.39,0,-2.39,0
-4.4832e-25,0.015589,0,0,0,0,0,0,0,0,-45.205,-0.069533,0,-206.45,0,-75.597,148.41,102,1,2.395,0,-2.395,0
-4.5049e-25,0.015593,0,0,0,0,0,0,0,0,-45.208,-0.079576,0,-206.14,0,-75.504,148.13,102,1,2.4,0,-2.4,0
-4.5262e-25,0.015598,0,0,0,0,0,0,0,0,-45.21,-0.089349,0,-205.83,0,-75.41,147.85,102,1,2.405,0,-2.405,0
-4.547e-25,0.015602,0,0,0,0,0,0,0,0,-45.211,-0.098854,0,-205.51,0,-75.315,147.57,102,1,2.41,0,-2.41,0
-4.5674e-25,0.015606,0,0,0,0,0,0,0,0,-45.212,-0.10809,0,-205.2,0,-75.221,147.29,102,1,2.415,0,-2.415,0
-4.5874e-25,0.015611,0,0,0,0,0,0,0,0,-45.212,-0.11706,0,-204.88,0,-75.125,147.01,102,1,2.42,0,-2.42,0
-4.6069e-25,0.015615,0,0,0,0,0,0,0,0,-45.211,-0.12576,0,-204.56,0,-75.03,146.74,102,1,2.425,0,-2.425,0
-4.626e-25,0.015619,0,0,0,0,0,0,0,0,-45.209,-0.13419,0,-204.25,0,-74.934,146.46,102,1,2.43,0,-2.43,0
-4.6446e-25,0.015623,0,0,0,0,0,0,0,0,-45.207,-0.14235,0,-203.93,0,-74.838,146.18,102,1,2.435,0,-2.435,0
-4.6628e-25,0.015627,0,0,0,0,0,0,0,0,-45.204,-0.15024,0,-203.61,0,-74.741,145.9,102,1,2.44,0,-2.44,0
-4.6806e-25,0.015632,0,0,0,0,0,0,0,0,-45.2,-0.15787,0,-203.29,0,-74.644,145.62,102,1,2.445,0,-2.445,0
-4.6979e-25,0.015636,0,0,0,0,0,0,0,0,-45.195,-0.16522,0,-202.97,0,-74.547,145.35,102,1,2.45,0,-2.45,0
-4.7148e-25,0.01564,0,0,0,0,0,0,0,0,-45.19,-0.17231,0,-202.65,0,-74.449,145.07,102,1,2.455,0,-2.455,0
-4.7312e-25,0.015644,0,0,0,0,0,0,0,0,-45.184,-0.17913,0,-202.33,0,-74.351,144.79,102,1,2.46,0,-2.46,0
-4.7472e-25,0.015649,0,0,0,0,0,0,0,0,-45.177,-0.18568,0,-202.01,0,-74.252,144.51,102,1,2.465,0,-2.465,0
-4.7627e-25,0.015653,0,0,0,0,0,0,0,0,-45.17,-0.19196,0,-201.69,0,-74.153,144.23,102,1,2.47,0,-2.47,0
-4.7778e-25,0.015657,0,0,0,0,0,0,0,0,-45.161,-0.19797,0,-201.37,0,-74.054,143.96,102,1,2.475,0,-2.475,0
-4.7925e-25,0.015661,0,0,0,0,0,0,0,0,-45.153,-0.20371,0,-201.05,0,-73.954,143.68,102,1,2.48,0,-2.48,0
-4.8067e-25,0.015665,0,0,0,0,0,0,0,0,-45.143,-0.20919,0,-200.72,0,-73.854,143.4,102,1,2.485,0,-2.485,0
-4.8205e-25,0.015669,0,0,0,0,0,0,0,0,-45.132,-0.21439,0,-200.4,0,-73.753,143.12,102,1,2.49,0,-2.49,0
-4.8338e-25,0.015673,0,0,0,0,0,0,0,0,-45.121,-0.21933,0,-200.08,0,-73.653,142.85,102,1,2.495,0,-2.495,0
-4.8467e-25,0.015678,0,0,0,0,0,0,0,0,-45.109,-0.224,0,-199.75,0,-73.551,142.57,102,1,2.5,0,-2.5,0
-4.8592e-25,0.015682,0,0,0,0,0,0,0,0,-45.097,-0.2284,0,-199.43,0,-73.45,142.29,102,1,2.505,0,-2.505,0
-4.8712e-25,0.015686,0,0,0,0,0,0,0,0,-45.083,-0.23253,0,-199.1,0,-73.348,142.01,102,1,2.51,0,-2.51,0
-4.8827e-25,0.01569,0,0,0,0,0,0,0,0,-45.069,-0.23639,0,-198.77,0,-73.245,141.74,102,1,2.515,0,-2.515,0
-4.8939e-25,0.015694,0,0,0,0,0,0,0,0,-45.055,-0.23999,0,-198.45,0,-73.142,141.46,102,1,2.52,0,-2.52,0
-4.9045e-25,0.015698,0,0,0,0,0,0,0,0,-45.039,-0.24331,0,-198.12,0,-73.039,141.18,102,1,2.525,0,-2.525,0
-4.9148e-25,0.015702,0,0,0,0,0,0,0,0,-45.023,-0.24637,0,-197.79,0,-72.936,140.91,102,1,2.53,0,-2.53,0
-4.9246e-25,0.015706,0,0,0,0,0,0,0,0,-45.006,-0.24916,0,-197.46,0,-72.832,140.63,102,1,2.535,0,-2.535,0
-4.9339e-25,0.01571,0,0,0,0,0,0,0,0,-44.988,-0.25167,0,-197.14,0,-72.727,140.35,102,1,2.54,0,-2.54,0
-4.9429e-25,0.015714,0,0,0,0,0,0,0,0,-44.969,-0.25393,0,-196.81,0,-72.623,140.07,102,1,2.545,0,-2.545,0
-4.9513e-25,0.015719,0,0,0,0,0,0,0,0,-44.95,-0.25591,0,-196.48,0,-72.518,139.8,102,1,2.55,0,-2.55,0
-4.9594e-25,0.015723,0,0,0,0,0,0,0,0,-44.93,-0.25762,0,-196.15,0,-72.412,139.52,102,1,2.555,0,-2.555,0
-4.967e-25,0.015727,0,0,0,0,0,0,0,0,-44.91,-0.25906,0,-195.81,0,-72.306,139.24,102,1,2.56,0,-2.56,0
-4.9741e-25,0.015731,0,0,0,0,0,0,0,0,-44.888,-0.26024,0,-195.48,0,-72.2,138.97,102,1,2.565,0,-2.565,0
-4.9808e-25,0.015735,0,0,0,0,0,0,0,0,-44.866,-0.26115,0,-195.15,0,-72.093,138.69,102,1,2.57,0,-2.57,0
-4.9871e-25,0.015739,0,0,0,0,0,0,0,0,-44.843,-0.26179,0,-194.82,0,-71.986,138.41,102,1,2.575,0,-2.575,0
-4.9929e-25,0.015743,0,0,0,0,0,0,0,0,-44.82,-0.26216,0,-194.48,0,-71.879,138.14,102,1,2.58,0,-2.58,0
-4.9983e-25,0.015747,0,0,0,0,0,0,0,0,-44.795,-0.26226,0,-194.15,0,-71.771,137.86,102,1,2.585,0,-2.585,0
-5.0032e-25,0.015751,0,0,0,0,0,0,0,0,-44.77,-0.26209,0,-193.82,0,-71.663,137.59,102,1,2.59,0,-2.59,0
-5.0077e-25,0.015755,0,0,0,0,0,0,0,0,-44.745,-0.26165,0,-193.48,0,-71.555,137.31,102,1,2.595,0,-2.595,0
-5.0118e-25,0.015759,0,0,0,0,0,0,0,0,-44.718,-0.26095,0,-193.15,0,-71.446,137.03,102,1,2.6,0,-2.6,0
-5.0154e-25,0.015763,0,0,0,0,0,0,0,0,-44.691,-0.25997,0,-192.81,0,-71.336,136.76,102,1,2.605,0,-2.605,0
-5.0185e-25,0.015767,0,0,0,0,0,0,0,0,-44.663,-0.25873,0,-192.47,0,-71.227,136.48,102,1,2.61,0,-2.61,0
-5.0213e-25,0.015771,0,0,0,0,0,0,0,0,-44.634,-0.25722,0,-192.14,0,-71.117,136.21,102,1,2.615,0,-2.615,0
-5.0236e-25,0.015774,0,0,0,0,0,0,0,0,-44.605,-0.25544,0,-191.8,0,-71.006,135.93,102,1,2.62,0,-2.62,0
-5.0254e-25,0.015778,0,0,0,0,0,0,0,0,-44.574,-0.25339,0,-191.46,0,-70.895,135.65,102,1,2.625,0,-2.625,0
-5.0268e-25,0.015782,0,0,0,0,0,0,0,0,-44.543,-0.25108,0,-191.12,0,-70.784,135.38,102,1,2.63,0,-2.63,0
-5.0278e-25,0.015786,0,0,0,0,0,0,0,0,-44.512,-0.24849,0,-190.78,0,-70.673,135.1,102,1,2.635,0,-2.635,0
-5.0283e-25,0.01579,0,0,0,0,0,0,0,0,-44.479,-0.24564,0,-190.44,0,-70.561,134.83,102,1,2.64,0,-2.64,0
-5.0284e-25,0.015794,0,0,0,0,0,0,0,0,-44.446,-0.24251,0,-190.1,0,-70.448,134.55,102,1,2.645,0,-2.645,0
-5.028e-25,0.015798,0,0,0,0,0,0,0,0,-44.413,-0.23912,0,-189.76,0,-70.336,134.28,102,1,2.65,0,-2.65,0
-5.0272e-25,0.015802,0,0,0,0,0,0,0,0,-44.378,-0.23546,0,-189.42,0,-70.222,134,102,1,2.655,0,-2.655,0
-5.0259e-25,0.015806,0,0,0,0,0,0,0,0,-44.343,-0.23153,0,-189.08,0,-70.109,133.73,102,1,2.66,0,-2.66,0
-5.0243e-25,0.01581,0,0,0,0,0,0,0,0,-44.307,-0.22733,0,-188.73,0,-69.995,133.45,102,1,2.665,0,-2.665,0
-5.0221e-25,0.015813,0,0,0,0,0,0,0,0,-44.27,-0.22287,0,-188.39,0,-69.881,133.18,102,1,2.67,0,-2.67,0
-5.0195e-25,0.015817,0,0,0,0,0,0,0,0,-44.232,-0.21813,0,-188.05,0,-69.766,132.9,102,1,2.675,0,-2.675,0
-5.0165e-25,0.015821,0,0,0,0,0,0,0,0,-44.194,-0.21313,0,-187.7,0,-69.651,132.63,102,1,2.68,0,-2.68,0
-5.0131e-25,0.015825,0,0,0,0,0,0,0,0,-44.155,-0.20786,0,-187.36,0,-69.536,132.35,102,1,2.685,0,-2.685,0
-5.0092e-25,0.015829,0,0,0,0,0,0,0,0,-44.115,-0.20232,0,-187.01,0,-69.42,132.08,102,1,2.69,0,-2.69,0
-5.0048e-25,0.015833,0,0,0,0,0,0,0,0,-44.075,-0.19651,0,-186.67,0,-69.304,131.8,102,1,2.695,0,-2.695,0
-5e-25,0.015836,0,0,0,0,0,0,0,0,-44.034,-0.19043,0,-186.32,0,-69.187,131.53,102,1,2.7,0,-2.7,0
-4.9948e-25,0.01584,0,0,0,0,0,0,0,0,-43.992,-0.18409,0,-185.97,0,-69.07,131.25,102,1,2.705,0,-2.705,0
-4.9892e-25,0.015844,0,0,0,0,0,0,0,0,-43.949,-0.17747,0,-185.63,0,-68.953,130.98,102,1,2.71,0,-2.71,0
-4.983e-25,0.015848,0,0,0,0,0,0,0,0,-43.906,-0.17059,0,-185.28,0,-68.835,130.7,102,1,2.715,0,-2.715,0
-4.9765e-25,0.015852,0,0,0,0,0,0,0,0,-43.862,-0.16344,0,-184.93,0,-68.717,130.43,102,1,2.72,0,-2.72,0
-4.9695e-25,0.015855,0,0,0,0,0,0,0,0,-43.817,-0.15601,0,-184.58,0,-68.599,130.15,102,1,2.725,0,-2.725,0
-4.9621e-25,0.015859,0,0,0,0,0,0,0,0,-43.772,-0.14833,0,-184.23,0,-68.48,129.88,102,1,2.73,0,-2.73,0
-4.9542e-25,0.015863,0,0,0,0,0,0,0,0,-43.725,-0.14037,0,-183.88,0,-68.36,129.61,102,1,2.735,0,-2.735,0
-4.9459e-25,0.015867,0,0,0,0,0,0,0,0,-43.678,-0.13214,0,-183.53,0,-68.241,129.33,102,1,2.74,0,-2.74,0
-4.9371e-25,0.01587,0,0,0,0,0,0,0,0,-43.631,-0.12365,0,-183.18,0,-68.121,129.06,102,1,2.745,0,-2.745,0
-4.9279e-25,0.015874,0,0,0,0,0,0,0,0,-43.582,-0.11488,0,-182.83,0,-68,128.78,102,1,2.75,0,-2.75,0
-4.9183e-25,0.015878,0,0,0,0,0,0,0,0,-43.533,-0.10585,0,-182.47,0,-67.88,128.51,102,1,2.755,0,-2.755,0
-4.9082e-25,0.015882,0,0,0,0,0,0,0,0,-43.483,-0.096548,0,-182.12,0,-67.759,128.24,102,1,2.76,0,-2.76,0
-4.8977e-25,0.015885,0,0,0,0,0,0,0,0,-43.432,-0.086978,0,-181.77,0,-67.637,127.96,102,1,2.765,0,-2.765,0
-4.8867e-25,0.015889,0,0,0,0,0,0,0,0,-43.381,-0.07714,0,-181.41,0,-67.515,127.69,102,1,2.77,0,-2.77,0
-4.8753e-25,0.015893,0,0,0,0,0,0,0,0,-43.329,-0.067033,0,-181.06,0,-67.393,127.41,102,1,2.775,0,-2.775,0
-4.8634e-25,0.015896,0,0,0,0,0,0,0,0,-43.276,-0.056658,0,-180.7,0,-67.27,127.14,102,1,2.78,0,-2.78,0
-4.8511e-25,0.0159,0,0,0,0,0,0,0,0,-43.222,-0.046013,0,-180.35,0,-67.147,126.87,102,1,2.785,0,-2.785,0
-4.8384e-25,0.015904,0,0,0,0,0,0,0,0,-43.168,-0.035101,0,-179.99,0,-67.024,126.59,102,1,2.79,0,-2.79,0
-4.8252e-25,0.015907,0,0,0,0,0,0,0,0,-43.113,-0.023919,0,-179.64,0,-66.9,126.32,102,1,2.795,0,-2.795,0
-4.8116e-25,0.015911,0,0,0,0,0,0,0,0,-43.057,-0.012469,0,-179.28,0,-66.775,126.05,102,1,2.8,0,-2.8,0
-4.7975e-25,0.015915,0,0,0,0,0,0,0,0,-43.001,-0.00075036,0,-178.92,0,-66.651,125.77,102,1,2.805,0,-2.805,0
-4.783e-25,0.015918,0,0,0,0,0,0,0,0,-42.943,0.011237,0,-178.56,0,-66.526,125.5,102,1,2.81,0,-2.81,0
-4.7681e-25,0.015922,0,0,0,0,0,0,0,0,-42.885,0.023493,0,-178.2,0,-66.401,125.23,102,1,2.815,0,-2.815,0
-4.7527e-25,0.015926,0,0,0,0,0,0,0,0,-42.827,0.036017,0,-177.84,0,-66.275,124.95,102,1,2.82,0,-2.82,0
-4.7369e-25,0.015929,0,0,0,0,0,0,0,0,-42.767,0.04881,0,-177.48,0,-66.149,124.68,102,1,2.825,0,-2.825,0
-4.7206e-25,0.015933,0,0,0,0,0,0,0,0,-42.707,0.061872,0,-177.12,0,-66.022,124.41,102,1,2.83,0,-2.83,0
-4.7039e-25,0.015937,0,0,0,0,0,0,0,0,-42.646,0.075202,0,-176.76,0,-65.895,124.14,102,1,2.835,0,-2.835,0
-4.6867e-25,0.01594,0,0,0,0,0,0,0,0,-42.584,0.088801,0,-176.4,0,-65.768,123.86,102,1,2.84,0,-2.84,0
-4.6691e-25,0.015944,0,0,0,0,0,0,0,0,-42.522,0.10267,0,-176.04,0,-65.64,123.59,102,1,2.845,0,-2.845,0
-4.6511e-25,0.015947,0,0,0,0,0,0,0,0,-42.459,0.1168,0,-175.68,0,-65.512,123.32,102,1,2.85,0,-2.85,0
-4.6326e-25,0.015951,0,0,0,0,0,0,0,0,-42.395,0.13121,0,-175.31,0,-65.384,123.04,102,1,2.855,0,-2.855,0
-4.6137e-25,0.015954,0,0,0,0,0,0,0,0,-42.33,0.14588,0,-174.95,0,-65.255,122.77,102,1,2.86,0,-2.86,0
-4.5943e-25,0.015958,0,0,0,0,0,0,0,0,-42.265,0.16083,0,-174.58,0,-65.126,122.5,102,1,2.865,0,-2.865,0
-4.5745e-25,0.015961,0,0,0,0,0,0,0,0,-42.199,0.17604,0,-174.22,0,-64.996,122.23,102,1,2.87,0,-2.87,0
-4.5543e-25,0.015965,0,0,0,0,0,0,0,0,-42.132,0.19152,0,-173.85,0,-64.866,121.96,102,1,2.875,0,-2.875,0
-4.5336e-25,0.015969,0,0,0,0,0,0,0,0,-42.065,0.20726,0,-173.49,0,-64.736,121.68,102,1,2.88,0,-2.88,0
-4.5125e-25,0.015972,0,0,0,0,0,0,0,0,-41.997,0.22328,0,-173.12,0,-64.605,121.41,102,1,2.885,0,-2.885,0
-4.4909e-25,0.015976,0,0,0,0,0,0,0,0,-41.928,0.23957,0,-172.75,0,-64.474,121.14,102,1,2.89,0,-2.89,0
-4.4689e-25,0.015979,0,0,0,0,0,0,0,0,-41.858,0.25612,0,-172.39,0,-64.343,120.87,102,1,2.895,0,-2.895,0
-4.4464e-25,0.015983,0,0,0,0,0,0,0,0,-41.788,0.27294,0,-172.02,0,-64.211,120.59,102,1,2.9,0,-2.9,0
-4.4235e-25,0.015986,0,0,0,0,0,0,0,0,-41.716,0.29003,0,-171.65,0,-64.078,120.32,102,1,2.905,0,-2.905,0
-4.4002e-25,0.01599,0,0,0,0,0,0,0,0,-41.644,0.30739,0,-171.28,0,-63.946,120.05,102,1,2.91,0,-2.91,0
-4.3764e-25,0.015993,0,0,0,0,0,0,0,0,-41.572,0.32502,0,-170.91,0,-63.813,119.78,102,1,2.915,0,-2.915,0
-4.3522e-25,0.015996,0,0,0,0,0,0,0,0,-41.499,0.34292,0,-170.54,0,-63.679,119.51,102,1,2.92,0,-2.92,0
-4.3275e-25,0.016,0,0,0,0,0,0,0,0,-41.424,0.36108,0,-170.17,0,-63.546,119.24,102,1,2.925,0,-2.925,0
-4.3024e-25,0.016003,0,0,0,0,0,0,0,0,-41.35,0.37952,0,-169.8,0,-63.411,118.96,102,1,2.93,0,-2.93,0
-4.2769e-25,0.016007,0,0,0,0,0,0,0,0,-41.274,0.39822,0,-169.43,0,-63.277,118.69,102,1,2.935,0,-2.935,0
-4.2509e-25,0.01601,0,0,0,0,0,0,0,0,-41.198,0.41719,0,-169.05,0,-63.142,118.42,102,1,2.94,0,-2.94,0
-4.2244e-25,0.016014,0,0,0,0,0,0,0,0,-41.121,0.43643,0,-168.68,0,-63.007,118.15,102,1,2.945,0,-2.945,0
-4.1976e-25,0.016017,0,0,0,0,0,0,0,0,-41.043,0.45594,0,-168.31,0,-62.871,117.88,102,1,2.95,0,-2.95,0
-4.1703e-25,0.016021,0,0,0,0,0,0,0,0,-40.965,0.47572,0,-167.93,0,-62.735,117.61,102,1,2.955,0,-2.955,0
-4.1425e-25,0.016024,0,0,0,0,0,0,0,0,-40.885,0.49576,0,-167.56,0,-62.598,117.34,102,1,2.96,0,-2.96,0
-4.1143e-25,0.016027,0,0,0,0,0,0,0,0,-40.805,0.51608,0,-167.18,0,-62.461,117.06,102,1,2.965,0,-2.965,0
-4.0857e-25,0.016031,0,0,0,0,0,0,0,0,-40.725,0.53666,0,-166.81,0,-62.324,116.79,102,1,2.97,0,-2.97,0
-4.0566e-25,0.016034,0,0,0,0,0,0,0,0,-40.643,0.55751,0,-166.43,0,-62.187,116.52,102,1,2.975,0,-2.975,0
-4.0271e-25,0.016037,0,0,0,0,0,0,0,0,-40.561,0.57863,0,-166.05,0,-62.049,116.25,102,1,2.98,0,-2.98,0
-3.9971e-25,0.016041,0,0,0,0,0,0,0,0,-40.478,0.60002,0,-165.68,0,-61.91,115.98,102,1,2.985,0,-2.985,0
-3.9667e-25,0.016044,0,0,0,0,0,0,0,0,-40.395,0.62168,0,-165.3,0,-61.771,115.71,102,1,2.99,0,-2.99,0
-3.9358e-25,0.016048,0,0,0,0,0,0,0,0,-40.31,0.6436,0,-164.92,0,-61.632,115.44,102,1,2.995,0,-2.995,0
-3.9045e-25,0.016051,0,0,0,0,0,0,0,0,-40.225,0.6658,0,-164.54,0,-61.493,115.17,102,1,3,0,-3,0
-3.8728e-25,0.016054,0,0,0,0,0,0,0,0,-40.14,0.68826,0,-164.16,0,-61.353,114.9,102,1,3.005,0,-3.005,0
-3.8406e-25,0.016058,0,0,0,0,0,0,0,0,-40.053,0.711,0,-163.78,0,-61.213,114.63,102,1,3.01,0,-3.01,0
-3.808e-25,0.016061,0,0,0,0,0,0,0,0,-39.966,0.734,0,-163.4,0,-61.072,114.36,102,1,3.015,0,-3.015,0
-3.7991e-25,0.016064,0,0,0,0,0,0,0,0,-39.909,0.74412,0,-163.09,0,-60.962,114.13,102,1,3.02,0,-3.02,0
-3.8282e-25,0.016067,0,0,0,0,0,0,0,0,-39.901,0.7334,0,-162.89,0,-60.9,113.96,102,1,3.025,0,-3.025,0
-3.857e-25,0.016071,0,0,0,0,0,0,0,0,-39.893,0.72277,0,-162.7,0,-60.839,113.79,102,1,3.03,0,-3.03,0
-3.8854e-25,0.016074,0,0,0,0,0,0,0,0,-39.884,0.71222,0,-162.5,0,-60.777,113.63,102,1,3.035,0,-3.035,0
-3.9134e-25,0.016078,0,0,0,0,0,0,0,0,-39.875,0.70176,0,-162.3,0,-60.715,113.46,102,1,3.04,0,-3.04,0
-3.941e-25,0.016081,0,0,0,0,0,0,0,0,-39.866,0.69139,0,-162.11,0,-60.653,113.29,102,1,3.045,0,-3.045,0
-3.9683e-25,0.016084,0,0,0,0,0,0,0,0,-39.856,0.6811,0,-161.91,0,-60.591,113.13,102,1,3.05,0,-3.05,0
-3.9952e-25,0.016087,0,0,0,0,0,0,0,0,-39.846,0.6709,0,-161.71,0,-60.528,112.96,102,1,3.055,0,-3.055,0
-4.0217e-25,0.016091,0,0,0,0,0,0,0,0,-39.836,0.66078,0,-161.51,0,-60.466,112.79,102,1,3.06,0,-3.06,0
-4.0478e-25,0.016094,0,0,0,0,0,0,0,0,-39.826,0.65075,0,-161.31,0,-60.403,112.63,102,1,3.065,0,-3.065,0
-4.0735e-25,0.016097,0,0,0,0,0,0,0,0,-39.815,0.64081,0,-161.12,0,-60.34,112.46,102,1,3.07,0,-3.07,0
-4.0989e-25,0.016101,0,0,0,0,0,0,0,0,-39.804,0.63095,0,-160.92,0,-60.277,112.29,102,1,3.075,0,-3.075,0
-4.1238e-25,0.016104,0,0,0,0,0,0,0,0,-39.792,0.62117,0,-160.72,0,-60.214,112.13,102,1,3.08,0,-3.08,0
-4.1484e-25,0.016107,0,0,0,0,0,0,0,0,-39.78,0.61149,0,-160.52,0,-60.151,111.96,102,1,3.085,0,-3.085,0
-4.1726e-25,0.016111,0,0,0,0,0,0,0,0,-39.768,0.60189,0,-160.32,0,-60.087,111.79,102,1,3.09,0,-3.09,0
-4.1965e-25,0.016114,0,0,0,0,0,0,0,0,-39.755,0.59237,0,-160.12,0,-60.023,111.63,102,1,3.095,0,-3.095,0
-4.2199e-25,0.016117,0,0,0,0,0,0,0,0,-39.743,0.58294,0,-159.92,0,-59.96,111.46,102,1,3.1,0,-3.1,0
-4.243e-25,0.01612,0,0,0,0,0,0,0,0,-39.729,0.5736,0,-159.72,0,-59.895,111.3,102,1,3.105,0,-3.105,0
-4.2657e-25,0.016124,0,0,0,0,0,0,0,0,-39.716,0.56434,0,-159.52,0,-59.831,111.13,102,1,3.11,0,-3.11,0
-4.288e-25,0.016127,0,0,0,0,0,0,0,0,-39.702,0.55517,0,-159.32,0,-59.767,110.96,102,1,3.115,0,-3.115,0
-4.3099e-25,0.01613,0,0,0,0,0,0,0,0,-39.688,0.54608,0,-159.12,0,-59.702,110.8,102,1,3.12,0,-3.12,0
-4.3315e-25,0.016133,0,0,0,0,0,0,0,0,-39.673,0.53708,0,-158.92,0,-59.638,110.63,102,1,3.125,0,-3.125,0
-4.3527e-25,0.016137,0,0,0,0,0,0,0,0,-39.659,0.52817,0,-158.72,0,-59.573,110.47,102,1,3.13,0,-3.13,0
-4.3735e-25,0.01614,0,0,0,0,0,0,0,0,-39.643,0.51934,0,-158.52,0,-59.508,110.3,102,1,3.135,0,-3.135,0
-4.3939e-25,0.016143,0,0,0,0,0,0,0,0,-39.628,0.5106,0,-158.32,0,-59.443,110.14,102,1,3.14,0,-3.14,0
-4.4139e-25,0.016146,0,0,0,0,0,0,0,0,-39.612,0.50194,0,-158.12,0,-59.378,109.97,102,1,3.145,0,-3.145,0
-4.4336e-25,0.01615,0,0,0,0,0,0,0,0,-39.596,0.49337,0,-157.92,0,-59.312,109.8,102,1,3.15,0,-3.15,0
-4.4529e-25,0.016153,0,0,0,0,0,0,0,0,-39.579,0.48489,0,-157.72,0,-59.246,109.64,102,1,3.155,0,-3.155,0
-4.4717e-25,0.016156,0,0,0,0,0,0,0,0,-39.563,0.47649,0,-157.51,0,-59.181,109.47,102,1,3.16,0,-3.16,0
-4.4903e-25,0.016159,0,0,0,0,0,0,0,0,-39.546,0.46818,0,-157.31,0,-59.115,109.31,102,1,3.165,0,-3.165,0
-4.5084e-25,0.016163,0,0,0,0,0,0,0,0,-39.528,0.45995,0,-157.11,0,-59.049,109.14,102,1,3.17,0,-3.17,0
-4.5262e-25,0.016166,0,0,0,0,0,0,0,0,-39.51,0.45181,0,-156.91,0,-58.982,108.98,102,1,3.175,0,-3.175,0
-4.5435e-25,0.016169,0,0,0,0,0,0,0,0,-39.492,0.44376,0,-156.7,0,-58.916,108.81,102,1,3.18,0,-3.18,0
-4.5605e-25,0.016172,0,0,0,0,0,0,0,0,-39.474,0.43579,0,-156.5,0,-58.849,108.65,102,1,3.185,0,-3.185,0
-4.5771e-25,0.016175,0,0,0,0,0,0,0,0,-39.455,0.42791,0,-156.3,0,-58.783,108.48,102,1,3.19,0,-3.19,0
-4.5934e-25,0.016179,0,0,0,0,0,0,0,0,-39.436,0.42011,0,-156.09,0,-58.716,108.32,102,1,3.195,0,-3.195,0
-4.6092e-25,0.016182,0,0,0,0,0,0,0,0,-39.416,0.4124,0,-155.89,0,-58.648,108.15,102,1,3.2,0,-3.2,0
-4.6247e-25,0.016185,0,0,0,0,0,0,0,0,-39.397,0.40477,0,-155.69,0,-58.581,107.99,102,1,3.205,0,-3.205,0
-4.6398e-25,0.016188,0,0,0,0,0,0,0,0,-39.377,0.39723,0,-155.48,0,-58.514,107.82,102,1,3.21,0,-3.21,0
-4.6545e-25,0.016191,0,0,0,0,0,0,0,0,-39.356,0.38978,0,-155.28,0,-58.446,107.66,102,1,3.215,0,-3.215,0
-4.6689e-25,0.016194,0,0,0,0,0,0,0,0,-39.335,0.38241,0,-155.07,0,-58.378,107.49,102,1,3.22,0,-3.22,0
-4.6828e-25,0.016198,0,0,0,0,0,0,0,0,-39.314,0.37513,0,-154.87,0,-58.311,107.33,102,1,3.225,0,-3.225,0
-4.6964e-25,0.016201,0,0,0,0,0,0,0,0,-39.293,0.36794,0,-154.66,0,-58.243,107.16,102,1,3.23,0,-3.23,0
-4.7096e-25,0.016204,0,0,0,0,0,0,0,0,-39.271,0.36083,0,-154.46,0,-58.174,107,102,1,3.235,0,-3.235,0
-4.7224e-25,0.016207,0,0,0,0,0,0,0,0,-39.249,0.35381,0,-154.25,0,-58.106,106.83,102,1,3.24,0,-3.24,0
-4.7348e-25,0.01621,0,0,0,0,0,0,0,0,-39.227,0.34687,0,-154.05,0,-58.037,106.67,102,1,3.245,0,-3.245,0
-4.7469e-25,0.016213,0,0,0,0,0,0,0,0,-39.204,0.34002,0,-153.84,0,-57.969,106.51,102,1,3.25,0,-3.25,0
-4.7586e-25,0.016216,0,0,0,0,0,0,0,0,-39.181,0.33325,0,-153.63,0,-57.9,106.34,102,1,3.255,0,-3.255,0
-4.7699e-25,0.01622,0,0,0,0,0,0,0,0,-39.158,0.32657,0,-153.43,0,-57.831,106.18,102,1,3.26,0,-3.26,0
-4.7808e-25,0.016223,0,0,0,0,0,0,0,0,-39.134,0.31998,0,-153.22,0,-57.761,106.01,102,1,3.265,0,-3.265,0
-4.7913e-25,0.016226,0,0,0,0,0,0,0,0,-39.11,0.31347,0,-153.02,0,-57.692,105.85,102,1,3.27,0,-3.27,0
-4.8015e-25,0.016229,0,0,0,0,0,0,0,0,-39.086,0.30705,0,-152.81,0,-57.623,105.68,102,1,3.275,0,-3.275,0
-4.8113e-25,0.016232,0,0,0,0,0,0,0,0,-39.061,0.30071,0,-152.6,0,-57.553,105.52,102,1,3.28,0,-3.28,0
-4.8207e-25,0.016235,0,0,0,0,0,0,0,0,-39.036,0.29446,0,-152.39,0,-57.483,105.36,102,1,3.285,0,-3.285,0
-4.8297e-25,0.016238,0,0,0,0,0,0,0,0,-39.011,0.2883,0,-152.19,0,-57.413,105.19,102,1,3.29,0,-3.29,0
-4.8383e-25,0.016241,0,0,0,0,0,0,0,0,-38.985,0.28222,0,-151.98,0,-57.343,105.03,102,1,3.295,0,-3.295,0
-4.8466e-25,0.016244,0,0,0,0,0,0,0,0,-38.959,0.27623,0,-151.77,0,-57.273,104.86,102,1,3.3,0,-3.3,0
-4.8544e-25,0.016247,0,0,0,0,0,0,0,0,-38.933,0.27032,0,-151.56,0,-57.202,104.7,102,1,3.305,0,-3.305,0
-4.8619e-25,0.016251,0,0,0,0,0,0,0,0,-38.906,0.2645,0,-151.35,0,-57.131,104.54,102,1,3.31,0,-3.31,0
-4.8691e-25,0.016254,0,0,0,0,0,0,0,0,-38.879,0.25877,0,-151.15,0,-57.061,104.37,102,1,3.315,0,-3.315,0
-4.8758e-25,0.016257,0,0,0,0,0,0,0,0,-38.852,0.25312,0,-150.94,0,-56.99,104.21,102,1,3.32,0,-3.32,0
-4.8822e-25,0.01626,0,0,0,0,0,0,0,0,-38.824,0.24755,0,-150.73,0,-56.918,104.05,102,1,3.325,0,-3.325,0
-4.8881e-25,0.016263,0,0,0,0,0,0,0,0,-38.796,0.24208,0,-150.52,0,-56.847,103.88,102,1,3.33,0,-3.33,0
-4.8937e-25,0.016266,0,0,0,0,0,0,0,0,-38.768,0.23669,0,-150.31,0,-56.776,103.72,102,1,3.335,0,-3.335,0
-4.8989e-25,0.016269,0,0,0,0,0,0,0,0,-38.739,0.23138,0,-150.1,0,-56.704,103.56,102,1,3.34,0,-3.34,0
-4.9038e-25,0.016272,0,0,0,0,0,0,0,0,-38.71,0.22616,0,-149.89,0,-56.632,103.39,102,1,3.345,0,-3.345,0
-4.9082e-25,0.016275,0,0,0,0,0,0,0,0,-38.681,0.22103,0,-149.68,0,-56.56,103.23,102,1,3.35,0,-3.35,0
-4.9123e-25,0.016278,0,0,0,0,0,0,0,0,-38.651,0.21598,0,-149.47,0,-56.488,103.07,102,1,3.355,0,-3.355,0
-4.916e-25,0.016281,0,0,0,0,0,0,0,0,-38.621,0.21102,0,-149.26,0,-56.416,102.9,102,1,3.36,0,-3.36,0
-4.9193e-25,0.016284,0,0,0,0,0,0,0,0,-38.591,0.20615,0,-149.05,0,-56.343,102.74,102,1,3.365,0,-3.365,0
-4.9223e-25,0.016287,0,0,0,0,0,0,0,0,-38.56,0.20136,0,-148.84,0,-56.271,102.58,102,1,3.37,0,-3.37,0
-4.9248e-25,0.01629,0,0,0,0,0,0,0,0,-38.53,0.19665,0,-148.63,0,-56.198,102.41,102,1,3.375,0,-3.375,0
-4.927e-25,0.016293,0,0,0,0,0,0,0,0,-38.498,0.19204,0,-148.41,0,-56.125,102.25,102,1,3.38,0,-3.38,0
-4.9288e-25,0.016296,0,0,0,0,0,0,0,0,-38.467,0.1875,0,-148.2,0,-56.052,102.09,102,1,3.385,0,-3.385,0
-4.9302e-25,0.016299,0,0,0,0,0,0,0,0,-38.435,0.18306,0,-147.99,0,-55.979,101.92,102,1,3.39,0,-3.39,0
-4.9313e-25,0.016302,0,0,0,0,0,0,0,0,-38.403,0.1787,0,-147.78,0,-55.905,101.76,102,1,3.395,0,-3.395,0
-4.9319e-25,0.016305,0,0,0,0,0,0,0,0,-38.37,0.17442,0,-147.57,0,-55.832,101.6,102,1,3.4,0,-3.4,0
-4.9322e-25,0.016308,0,0,0,0,0,0,0,0,-38.337,0.17024,0,-147.35,0,-55.758,101.44,102,1,3.405,0,-3.405,0
-4.9321e-25,0.016311,0,0,0,0,0,0,0,0,-38.304,0.16613,0,-147.14,0,-55.684,101.27,102,1,3.41,0,-3.41,0
-4.9316e-25,0.016314,0,0,0,0,0,0,0,0,-38.27,0.16212,0,-146.93,0,-55.61,101.11,102,1,3.415,0,-3.415,0
-4.9308e-25,0.016317,0,0,0,0,0,0,0,0,-38.236,0.15819,0,-146.72,0,-55.536,100.95,102,1,3.42,0,-3.42,0
-4.9295e-25,0.01632,0,0,0,0,0,0,0,0,-38.202,0.15434,0,-146.5,0,-55.461,100.79,102,1,3.425,0,-3.425,0
-4.9279e-25,0.016323,0,0,0,0,0,0,0,0,-38.168,0.15059,0,-146.29,0,-55.387,100.62,102,1,3.43,0,-3.43,0
-4.9259e-25,0.016326,0,0,0,0,0,0,0,0,-38.133,0.14691,0,-146.08,0,-55.312,100.46,102,1,3.435,0,-3.435,0
-4.9235e-25,0.016329,0,0,0,0,0,0,0,0,-38.098,0.14333,0,-145.86,0,-55.237,100.3,102,1,3.44,0,-3.44,0
-4.9208e-25,0.016332,0,0,0,0,0,0,0,0,-38.062,0.13983,0,-145.65,0,-55.162,100.14,102,1,3.445,0,-3.445,0
-4.9176e-25,0.016335,0,0,0,0,0,0,0,0,-38.026,0.13641,0,-145.43,0,-55.087,99.974,102,1,3.45,0,-3.45,0
-4.9141e-25,0.016338,0,0,0,0,0,0,0,0,-37.99,0.13309,0,-145.22,0,-55.011,99.812,102,1,3.455,0,-3.455,0
-4.9102e-25,0.016341,0,0,0,0,0,0,0,0,-37.954,0.12984,0,-145,0,-54.936,99.65,102,1,3.46,0,-3.46,0
-4.9059e-25,0.016344,0,0,0,0,0,0,0,0,-37.917,0.12669,0,-144.79,0,-54.86,99.488,102,1,3.465,0,-3.465,0
-4.9013e-25,0.016347,0,0,0,0,0,0,0,0,-37.879,0.12362,0,-144.57,0,-54.784,99.326,102,1,3.47,0,-3.47,0
-4.8962e-25,0.016349,0,0,0,0,0,0,0,0,-37.842,0.12063,0,-144.36,0,-54.708,99.164,102,1,3.475,0,-3.475,0
-4.8908e-25,0.016352,0,0,0,0,0,0,0,0,-37.804,0.11773,0,-144.14,0,-54.632,99.002,102,1,3.48,0,-3.48,0
-4.885e-25,0.016355,0,0,0,0,0,0,0,0,-37.766,0.11492,0,-143.93,0,-54.556,98.84,102,1,3.485,0,-3.485,0
-4.8788e-25,0.016358,0,0,0,0,0,0,0,0,-37.728,0.11219,0,-143.71,0,-54.479,98.679,102,1,3.49,0,-3.49,0
-4.8723e-25,0.016361,0,0,0,0,0,0,0,0,-37.689,0.10955,0,-143.49,0,-54.403,98.517,102,1,3.495,0,-3.495,0
-4.8653e-25,0.016364,0,0,0,0,0,0,0,0,-37.65,0.107,0,-143.28,0,-54.326,98.355,102,1,3.5,0,-3.5,0
-4.858e-25,0.016367,0,0,0,0,0,0,0,0,-37.61,0.10453,0,-143.06,0,-54.249,98.194,102,1,3.505,0,-3.505,0
-4.8503e-25,0.01637,0,0,0,0,0,0,0,0,-37.57,0.10214,0,-142.84,0,-54.172,98.032,102,1,3.51,0,-3.51,0
-4.8422e-25,0.016373,0,0,0,0,0,0,0,0,-37.53,0.099845,0,-142.63,0,-54.094,97.871,102,1,3.515,0,-3.515,0
-4.8338e-25,0.016376,0,0,0,0,0,0,0,0,-37.49,0.097634,0,-142.41,0,-54.017,97.709,102,1,3.52,0,-3.52,0
-4.8249e-25,0.016378,0,0,0,0,0,0,0,0,-37.449,0.095508,0,-142.19,0,-53.939,97.548,102,1,3.525,0,-3.525,0
-4.8157e-25,0.016381,0,0,0,0,0,0,0,0,-37.408,0.093468,0,-141.97,0,-53.861,97.387,102,1,3.53,0,-3.53,0
-4.8061e-25,0.016384,0,0,0,0,0,0,0,0,-37.366,0.091514,0,-141.76,0,-53.783,97.225,102,1,3.535,0,-3.535,0
-4.7961e-25,0.016387,0,0,0,0,0,0,0,0,-37.325,0.089646,0,-141.54,0,-53.705,97.064,102,1,3.54,0,-3.54,0
-4.7858e-25,0.01639,0,0,0,0,0,0,0,0,-37.283,0.087864,0,-141.32,0,-53.627,96.903,102,1,3.545,0,-3.545,0
-4.775e-25,0.016393,0,0,0,0,0,0,0,0,-37.24,0.086168,0,-141.1,0,-53.548,96.742,102,1,3.55,0,-3.55,0
-4.7639e-25,0.016396,0,0,0,0,0,0,0,0,-37.197,0.084558,0,-140.88,0,-53.47,96.581,102,1,3.555,0,-3.555,0
-4.7524e-25,0.016398,0,0,0,0,0,0,0,0,-37.154,0.083034,0,-140.66,0,-53.391,96.42,102,1,3.56,0,-3.56,0
-4.7405e-25,0.016401,0,0,0,0,0,0,0,0,-37.111,0.081595,0,-140.44,0,-53.312,96.259,102,1,3.565,0,-3.565,0
-4.7283e-25,0.016404,0,0,0,0,0,0,0,0,-37.067,0.080243,0,-140.22,0,-53.233,96.098,102,1,3.57,0,-3.57,0
-4.7156e-25,0.016407,0,0,0,0,0,0,0,0,-37.023,0.078976,0,-140.01,0,-53.154,95.938,102,1,3.575,0,-3.575,0
-4.7026e-25,0.01641,0,0,0,0,0,0,0,0,-36.979,0.077796,0,-139.79,0,-53.074,95.777,102,1,3.58,0,-3.58,0
-4.6892e-25,0.016413,0,0,0,0,0,0,0,0,-36.934,0.076701,0,-139.57,0,-52.995,95.616,102,1,3.585,0,-3.585,0
-4.6755e-25,0.016415,0,0,0,0,0,0,0,0,-36.889,0.075692,0,-139.34,0,-52.915,95.456,102,1,3.59,0,-3.59,0
-4.6613e-25,0.016418,0,0,0,0,0,0,0,0,-36.843,0.074769,0,-139.12,0,-52.835,95.295,102,1,3.595,0,-3.595,0
-4.6468e-25,0.016421,0,0,0,0,0,0,0,0,-36.798,0.073932,0,-138.9,0,-52.755,95.135,102,1,3.6,0,-3.6,0
-4.6318e-25,0.016424,0,0,0,0,0,0,0,0,-36.752,0.073181,0,-138.68,0,-52.675,94.974,102,1,3.605,0,-3.605,0
-4.6165e-25,0.016427,0,0,0,0,0,0,0,0,-36.705,0.072516,0,-138.46,0,-52.594,94.814,102,1,3.61,0,-3.61,0
-4.6009e-25,0.016429,0,0,0,0,0,0,0,0,-36.659,0.071937,0,-138.24,0,-52.514,94.653,102,1,3.615,0,-3.615,0
-4.5848e-25,0.016432,0,0,0,0,0,0,0,0,-36.612,0.071443,0,-138.02,0,-52.433,94.493,102,1,3.62,0,-3.62,0
-4.5684e-25,0.016435,0,0,0,0,0,0,0,0,-36.564,0.071036,0,-137.8,0,-52.352,94.333,102,1,3.625,0,-3.625,0
-4.5516e-25,0.016438,0,0,0,0,0,0,0,0,-36.517,0.070714,0,-137.57,0,-52.271,94.173,102,1,3.63,0,-3.63,0
-4.5344e-25,0.01644,0,0,0,0,0,0,0,0,-36.469,0.070479,0,-137.35,0,-52.19,94.013,102,1,3.635,0,-3.635,0
-4.5168e-25,0.016443,0,0,0,0,0,0,0,0,-36.42,0.070329,0,-137.13,0,-52.108,93.852,102,1,3.64,0,-3.64,0
-4.4988e-25,0.016446,0,0,0,0,0,0,0,0,-36.372,0.070265,0,-136.91,0,-52.027,93.692,102,1,3.645,0,-3.645,0
-4.4805e-25,0.016449,0,0,0,0,0,0,0,0,-36.323,0.070287,0,-136.68,0,-51.945,93.532,102,1,3.65,0,-3.65,0
-4.4618e-25,0.016451,0,0,0,0,0,0,0,0,-36.273,0.070395,0,-136.46,0,-51.863,93.373,102,1,3.655,0,-3.655,0
-4.4427e-25,0.016454,0,0,0,0,0,0,0,0,-36.224,0.070589,0,-136.24,0,-51.781,93.213,102,1,3.66,0,-3.66,0
-4.4232e-25,0.016457,0,0,0,0,0,0,0,0,-36.174,0.070869,0,-136.01,0,-51.699,93.053,102,1,3.665,0,-3.665,0
-4.4034e-25,0.01646,0,0,0,0,0,0,0,0,-36.123,0.071235,0,-135.79,0,-51.617,92.893,102,1,3.67,0,-3.67,0
-4.3831e-25,0.016462,0,0,0,0,0,0,0,0,-36.073,0.071687,0,-135.57,0,-51.534,92.734,102,1,3.675,0,-3.675,0
-4.3625e-25,0.016465,0,0,0,0,0,0,0,0,-36.022,0.072224,0,-135.34,0,-51.452,92.574,102,1,3.68,0,-3.68,0
-4.3415e-25,0.016468,0,0,0,0,0,0,0,0,-35.97,0.072848,0,-135.12,0,-51.369,92.414,102,1,3.685,0,-3.685,0
-4.3201e-25,0.016471,0,0,0,0,0,0,0,0,-35.919,0.073557,0,-134.89,0,-51.286,92.255,102,1,3.69,0,-3.69,0
-4.2984e-25,0.016473,0,0,0,0,0,0,0,0,-35.867,0.074352,0,-134.67,0,-51.203,92.095,102,1,3.695,0,-3.695,0
-4.2763e-25,0.016476,0,0,0,0,0,0,0,0,-35.815,0.075234,0,-134.44,0,-51.119,91.936,102,1,3.7,0,-3.7,0
-4.2537e-25,0.016479,0,0,0,0,0,0,0,0,-35.762,0.076201,0,-134.22,0,-51.036,91.777,102,1,3.705,0,-3.705,0
-4.2308e-25,0.016481,0,0,0,0,0,0,0,0,-35.709,0.077254,0,-133.99,0,-50.952,91.617,102,1,3.71,0,-3.71,0
-4.2076e-25,0.016484,0,0,0,0,0,0,0,0,-35.656,0.078393,0,-133.77,0,-50.868,91.458,102,1,3.715,0,-3.715,0
-4.1839e-25,0.016487,0,0,0,0,0,0,0,0,-35.602,0.079618,0,-133.54,0,-50.784,91.299,102,1,3.72,0,-3.72,0
-4.1599e-25,0.016489,0,0,0,0,0,0,0,0,-35.548,0.080929,0,-133.32,0,-50.7,91.14,102,1,3.725,0,-3.725,0
-4.1355e-25,0.016492,0,0,0,0,0,0,0,0,-35.494,0.082325,0,-133.09,0,-50.616,90.981,102,1,3.73,0,-3.73,0
-4.1107e-25,0.016495,0,0,0,0,0,0,0,0,-35.439,0.083808,0,-132.86,0,-50.531,90.822,102,1,3.735,0,-3.735,0
-4.0855e-25,0.016497,0,0,0,0,0,0,0,0,-35.384,0.085376,0,-132.64,0,-50.447,90.663,102,1,3.74,0,-3.74,0
-4.06e-25,0.0165,0,0,0,0,0,0,0,0,-35.329,0.087031,0,-132.41,0,-50.362,90.504,102,1,3.745,0,-3.745,0
-4.034e-25,0.016503,0,0,0,0,0,0,0,0,-35.274,0.088771,0,-132.18,0,-50.277,90.345,102,1,3.75,0,-3.75,0
-4.0077e-25,0.016505,0,0,0,0,0,0,0,0,-35.218,0.090598,0,-131.95,0,-50.192,90.186,102,1,3.755,0,-3.755,0
-3.981e-25,0.016508,0,0,0,0,0,0,0,0,-35.162,0.09251,0,-131.73,0,-50.107,90.028,102,1,3.76,0,-3.76,0
-3.9539e-25,0.016511,0,0,0,0,0,0,0,0,-35.105,0.094508,0,-131.5,0,-50.021,89.869,102,1,3.765,0,-3.765,0
-3.9265e-25,0.016513,0,0,0,0,0,0,0,0,-35.048,0.096592,0,-131.27,0,-49.936,89.71,102,1,3.77,0,-3.77,0
-3.8987e-25,0.016516,0,0,0,0,0,0,0,0,-34.991,0.098762,0,-131.04,0,-49.85,89.552,102,1,3.775,0,-3.775,0
-3.8704e-25,0.016519,0,0,0,0,0,0,0,0,-34.933,0.10102,0,-130.81,0,-49.764,89.393,102,1,3.78,0,-3.78,0
-3.8418e-25,0.016521,0,0,0,0,0,0,0,0,-34.875,0.10336,0,-130.59,0,-49.678,89.235,102,1,3.785,0,-3.785,0
-3.8129e-25,0.016524,0,0,0,0,0,0,0,0,-34.817,0.10579,0,-130.36,0,-49.591,89.077,102,1,3.79,0,-3.79,0
-3.7835e-25,0.016526,0,0,0,0,0,0,0,0,-34.759,0.1083,0,-130.13,0,-49.505,88.918,102,1,3.795,0,-3.795,0
-3.7538e-25,0.016529,0,0,0,0,0,0,0,0,-34.7,0.1109,0,-129.9,0,-49.418,88.76,102,1,3.8,0,-3.8,0
-3.7237e-25,0.016532,0,0,0,0,0,0,0,0,-34.641,0.11359,0,-129.67,0,-49.332,88.602,102,1,3.805,0,-3.805,0
-3.6932e-25,0.016534,0,0,0,0,0,0,0,0,-34.581,0.11636,0,-129.44,0,-49.245,88.444,102,1,3.81,0,-3.81,0
-3.6623e-25,0.016537,0,0,0,0,0,0,0,0,-34.521,0.11921,0,-129.21,0,-49.158,88.285,102,1,3.815,0,-3.815,0
-3.6737e-25,0.01654,0,0,0,0,0,0,0,0,-34.489,0.118,0,-129.05,0,-49.1,88.169,102,1,3.82,0,-3.82,0
-3.7007e-25,0.016542,0,0,0,0,0,0,0,0,-34.467,0.11526,0,-128.92,0,-49.054,88.069,102,1,3.825,0,-3.825,0
-3.7273e-25,0.016545,0,0,0,0,0,0,0,0,-34.445,0.11256,0,-128.79,0,-49.007,87.969,102,1,3.83,0,-3.83,0
-3.7537e-25,0.016547,0,0,0,0,0,0,0,0,-34.423,0.10989,0,-128.65,0,-48.961,87.868,102,1,3.835,0,-3.835,0
-3.7797e-25,0.01655,0,0,0,0,0,0,0,0,-34.4,0.10725,0,-128.52,0,-48.914,87.768,102,1,3.84,0,-3.84,0
-3.8054e-25,0.016553,0,0,0,0,0,0,0,0,-34.377,0.10464,0,-128.39,0,-48.867,87.668,102,1,3.845,0,-3.845,0
-3.8308e-25,0.016555,0,0,0,0,0,0,0,0,-34.355,0.10206,0,-128.25,0,-48.82,87.567,102,1,3.85,0,-3.85,0
-3.8559e-25,0.016558,0,0,0,0,0,0,0,0,-34.332,0.099514,0,-128.12,0,-48.773,87.467,102,1,3.855,0,-3.855,0
-3.8806e-25,0.01656,0,0,0,0,0,0,0,0,-34.308,0.096998,0,-127.99,0,-48.726,87.367,102,1,3.86,0,-3.86,0
-3.905e-25,0.016563,0,0,0,0,0,0,0,0,-34.285,0.094513,0,-127.85,0,-48.679,87.267,102,1,3.865,0,-3.865,0
-3.9291e-25,0.016566,0,0,0,0,0,0,0,0,-34.262,0.092059,0,-127.72,0,-48.632,87.167,102,1,3.87,0,-3.87,0
-3.9529e-25,0.016568,0,0,0,0,0,0,0,0,-34.238,0.089636,0,-127.59,0,-48.585,87.067,102,1,3.875,0,-3.875,0
-3.9763e-25,0.016571,0,0,0,0,0,0,0,0,-34.214,0.087244,0,-127.45,0,-48.537,86.967,102,1,3.88,0,-3.88,0
-3.9995e-25,0.016573,0,0,0,0,0,0,0,0,-34.19,0.084884,0,-127.32,0,-48.49,86.867,102,1,3.885,0,-3.885,0
-4.0223e-25,0.016576,0,0,0,0,0,0,0,0,-34.166,0.082555,0,-127.19,0,-48.442,86.767,102,1,3.89,0,-3.89,0
-4.0448e-25,0.016578,0,0,0,0,0,0,0,0,-34.142,0.080257,0,-127.05,0,-48.395,86.667,102,1,3.895,0,-3.895,0
-4.0669e-25,0.016581,0,0,0,0,0,0,0,0,-34.117,0.077989,0,-126.92,0,-48.347,86.567,102,1,3.9,0,-3.9,0
-4.0888e-25,0.016584,0,0,0,0,0,0,0,0,-34.093,0.075754,0,-126.78,0,-48.299,86.467,102,1,3.905,0,-3.905,0
-4.1103e-25,0.016586,0,0,0,0,0,0,0,0,-34.068,0.073549,0,-126.65,0,-48.252,86.367,102,1,3.91,0,-3.91,0
-4.1315e-25,0.016589,0,0,0,0,0,0,0,0,-34.043,0.071375,0,-126.51,0,-48.204,86.267,102,1,3.915,0,-3.915,0
-4.1524e-25,0.016591,0,0,0,0,0,0,0,0,-34.018,0.069233,0,-126.38,0,-48.156,86.167,102,1,3.92,0,-3.92,0
-4.173e-25,0.016594,0,0,0,0,0,0,0,0,-33.992,0.067121,0,-126.24,0,-48.108,86.068,102,1,3.925,0,-3.925,0
-4.1932e-25,0.016596,0,0,0,0,0,0,0,0,-33.967,0.065041,0,-126.11,0,-48.06,85.968,102,1,3.93,0,-3.93,0
-4.2131e-25,0.016599,0,0,0,0,0,0,0,0,-33.941,0.062992,0,-125.98,0,-48.011,85.868,102,1,3.935,0,-3.935,0
-4.2327e-25,0.016601,0,0,0,0,0,0,0,0,-33.915,0.060974,0,-125.84,0,-47.963,85.768,102,1,3.94,0,-3.94,0
-4.252e-25,0.016604,0,0,0,0,0,0,0,0,-33.889,0.058988,0,-125.71,0,-47.915,85.669,102,1,3.945,0,-3.945,0
-4.271e-25,0.016606,0,0,0,0,0,0,0,0,-33.863,0.057032,0,-125.57,0,-47.866,85.569,102,1,3.95,0,-3.95,0
-4.2896e-25,0.016609,0,0,0,0,0,0,0,0,-33.837,0.055107,0,-125.43,0,-47.818,85.47,102,1,3.955,0,-3.955,0
-4.3079e-25,0.016612,0,0,0,0,0,0,0,0,-33.811,0.053214,0,-125.3,0,-47.769,85.37,102,1,3.96,0,-3.96,0
-4.3259e-25,0.016614,0,0,0,0,0,0,0,0,-33.784,0.051352,0,-125.16,0,-47.72,85.27,102,1,3.965,0,-3.965,0
-4.3436e-25,0.016617,0,0,0,0,0,0,0,0,-33.757,0.049521,0,-125.03,0,-47.671,85.171,102,1,3.97,0,-3.97,0
-4.3609e-25,0.016619,0,0,0,0,0,0,0,0,-33.73,0.047721,0,-124.89,0,-47.623,85.072,102,1,3.975,0,-3.975,0
-4.3779e-25,0.016622,0,0,0,0,0,0,0,0,-33.703,0.045952,0,-124.76,0,-47.574,84.972,102,1,3.98,0,-3.98,0
-4.3946e-25,0.016624,0,0,0,0,0,0,0,0,-33.676,0.044214,0,-124.62,0,-47.525,84.873,102,1,3.985,0,-3.985,0
-4.411e-25,0.016627,0,0,0,0,0,0,0,0,-33.648,0.042508,0,-124.48,0,-47.476,84.773,102,1,3.99,0,-3.99,0
-4.4271e-25,0.016629,0,0,0,0,0,0,0,0,-33.621,0.040833,0,-124.35,0,-47.426,84.674,102,1,3.995,0,-3.995,0
-4.4428e-25,0.016632,0,0,0,0,0,0,0,0,-33.593,0.039188,0,-124.21,0,-47.377,84.575,102,1,4,0,-4,0
-4.4582e-25,0.016634,0,0,0,0,0,0,0,0,-33.565,0.037575,0,-124.08,0,-47.328,84.475,102,1,4.005,0,-4.005,0
-4.4733e-25,0.016637,0,0,0,0,0,0,0,0,-33.537,0.035993,0,-123.94,0,-47.278,84.376,102,1,4.01,0,-4.01,0
-4.4881e-25,0.016639,0,0,0,0,0,0,0,0,-33.508,0.034443,0,-123.8,0,-47.229,84.277,102,1,4.015,0,-4.015,0
-4.5026e-25,0.016642,0,0,0,0,0,0,0,0,-33.48,0.032923,0,-123.67,0,-47.179,84.178,102,1,4.02,0,-4.02,0
-4.5167e-25,0.016644,0,0,0,0,0,0,0,0,-33.451,0.031434,0,-123.53,0,-47.129,84.079,102,1,4.025,0,-4.025,0
-4.5305e-25,0.016647,0,0,0,0,0,0,0,0,-33.423,0.029977,0,-123.39,0,-47.08,83.979,102,1,4.03,0,-4.03,0
-4.544e-25,0.016649,0,0,0,0,0,0,0,0,-33.394,0.028551,0,-123.26,0,-47.03,83.88,102,1,4.035,0,-4.035,0
-4.5572e-25,0.016652,0,0,0,0,0,0,0,0,-33.365,0.027156,0,-123.12,0,-46.98,83.781,102,1,4.04,0,-4.04,0
-4.57e-25,0.016654,0,0,0,0,0,0,0,0,-33.335,0.025792,0,-122.98,0,-46.93,83.682,102,1,4.045,0,-4.045,0
-4.5825e-25,0.016657,0,0,0,0,0,0,0,0,-33.306,0.024459,0,-122.85,0,-46.88,83.583,102,1,4.05,0,-4.05,0
-4.5947e-25,0.016659,0,0,0,0,0,0,0,0,-33.276,0.023157,0,-122.71,0,-46.83,83.484,102,1,4.055,0,-4.055,0
-4.6066e-25,0.016662,0,0,0,0,0,0,0,0,-33.246,0.021887,0,-122.57,0,-46.78,83.385,102,1,4.06,0,-4.06,0
-4.6182e-25,0.016664,0,0,0,0,0,0,0,0,-33.216,0.020647,0,-122.43,0,-46.729,83.287,102,1,4.065,0,-4.065,0
-4.6294e-25,0.016667,0,0,0,0,0,0,0,0,-33.186,0.019439,0,-122.3,0,-46.679,83.188,102,1,4.07,0,-4.07,0
-4.6403e-25,0.016669,0,0,0,0,0,0,0,0,-33.156,0.018262,0,-122.16,0,-46.628,83.089,102,1,4.075,0,-4.075,0
-4.6509e-25,0.016671,0,0,0,0,0,0,0,0,-33.126,0.017116,0,-122.02,0,-46.578,82.99,102,1,4.08,0,-4.08,0
-4.6612e-25,0.016674,0,0,0,0,0,0,0,0,-33.095,0.016001,0,-121.88,0,-46.527,82.891,102,1,4.085,0,-4.085,0
-4.6712e-25,0.016676,0,0,0,0,0,0,0,0,-33.064,0.014918,0,-121.74,0,-46.476,82.792,102,1,4.09,0,-4.09,0
-4.6808e-25,0.016679,0,0,0,0,0,0,0,0,-33.033,0.013865,0,-121.61,0,-46.426,82.694,102,1,4.095,0,-4.095,0
-4.6901e-25,0.016681,0,0,0,0,0,0,0,0,-33.002,0.012844,0,-121.47,0,-46.375,82.595,102,1,4.1,0,-4.1,0
-4.6991e-25,0.016684,0,0,0,0,0,0,0,0,-32.971,0.011853,0,-121.33,0,-46.324,82.496,102,1,4.105,0,-4.105,0
-4.7078e-25,0.016686,0,0,0,0,0,0,0,0,-32.939,0.010894,0,-121.19,0,-46.273,82.398,102,1,4.11,0,-4.11,0
-4.7161e-25,0.016689,0,0,0,0,0,0,0,0,-32.908,0.0099665,0,-121.05,0,-46.222,82.299,102,1,4.115,0,-4.115,0
-4.7241e-25,0.016691,0,0,0,0,0,0,0,0,-32.876,0.0090696,0,-120.91,0,-46.17,82.201,102,1,4.12,0,-4.12,0
-4.7319e-25,0.016693,0,0,0,0,0,0,0,0,-32.844,0.0082039,0,-120.77,0,-46.119,82.102,102,1,4.125,0,-4.125,0
-4.7392e-25,0.016696,0,0,0,0,0,0,0,0,-32.812,0.0073693,0,-120.64,0,-46.068,82.004,102,1,4.13,0,-4.13,0
-4.7463e-25,0.016698,0,0,0,0,0,0,0,0,-32.78,0.0065659,0,-120.5,0,-46.016,81.905,102,1,4.135,0,-4.135,0
-4.753e-25,0.016701,0,0,0,0,0,0,0,0,-32.747,0.0057937,0,-120.36,0,-45.965,81.807,102,1,4.14,0,-4.14,0
-4.7595e-25,0.016703,0,0,0,0,0,0,0,0,-32.715,0.0050526,0,-120.22,0,-45.913,81.708,102,1,4.145,0,-4.145,0
-4.7656e-25,0.016706,0,0,0,0,0,0,0,0,-32.682,0.0043426,0,-120.08,0,-45.862,81.61,102,1,4.15,0,-4.15,0
-4.7713e-25,0.016708,0,0,0,0,0,0,0,0,-32.649,0.0036637,0,-119.94,0,-45.81,81.512,102,1,4.155,0,-4.155,0
-4.7768e-25,0.01671,0,0,0,0,0,0,0,0,-32.616,0.0030161,0,-119.8,0,-45.758,81.413,102,1,4.16,0,-4.16,0
-4.7819e-25,0.016713,0,0,0,0,0,0,0,0,-32.583,0.0023995,0,-119.66,0,-45.706,81.315,102,1,4.165,0,-4.165,0
-4.7867e-25,0.016715,0,0,0,0,0,0,0,0,-32.549,0.0018141,0,-119.52,0,-45.654,81.217,102,1,4.17,0,-4.17,0
-4.7912e-25,0.016718,0,0,0,0,0,0,0,0,-32.516,0.0012598,0,-119.38,0,-45.602,81.119,102,1,4.175,0,-4.175,0
-4.7954e-25,0.01672,0,0,0,0,0,0,0,0,-32.482,0.00073671,0,-119.24,0,-45.55,81.02,102,1,4.18,0,-4.18,0
-4.7992e-25,0.016722,0,0,0,0,0,0,0,0,-32.448,0.00024471,0,-119.1,0,-45.498,80.922,102,1,4.185,0,-4.185,0
-4.8028e-25,0.016725,0,0,0,0,0,0,0,0,-32.414,-0.00021615,0,-118.96,0,-45.445,80.824,102,1,4.19,0,-4.19,0
-4.806e-25,0.016727,0,0,0,0,0,0,0,0,-32.38,-0.00064587,0,-118.82,0,-45.393,80.726,102,1,4.195,0,-4.195,0
-4.8088e-25,0.01673,0,0,0,0,0,0,0,0,-32.345,-0.0010444,0,-118.68,0,-45.34,80.628,102,1,4.2,0,-4.2,0
-4.8114e-25,0.016732,0,0,0,0,0,0,0,0,-32.311,-0.0014118,0,-118.54,0,-45.288,80.53,102,1,4.205,0,-4.205,0
-4.8136e-25,0.016734,0,0,0,0,0,0,0,0,-32.276,-0.0017481,0,-118.4,0,-45.235,80.432,102,1,4.21,0,-4.21,0
-4.8156e-25,0.016737,0,0,0,0,0,0,0,0,-32.241,-0.0020533,0,-118.26,0,-45.182,80.334,102,1,4.215,0,-4.215,0
-4.8172e-25,0.016739,0,0,0,0,0,0,0,0,-32.206,-0.0023273,0,-118.12,0,-45.13,80.236,102,1,4.22,0,-4.22,0
-4.8184e-25,0.016742,0,0,0,0,0,0,0,0,-32.171,-0.0025701,0,-117.98,0,-45.077,80.138,102,1,4.225,0,-4.225,0
-4.8194e-25,0.016744,0,0,0,0,0,0,0,0,-32.135,-0.0027819,0,-117.84,0,-45.024,80.04,102,1,4.23,0,-4.23,0
-4.82e-25,0.016746,0,0,0,0,0,0,0,0,-32.1,-0.0029624,0,-117.7,0,-44.971,79.942,102,1,4.235,0,-4.235,0
-4.8203e-25,0.016749,0,0,0,0,0,0,0,0,-32.064,-0.0031119,0,-117.56,0,-44.918,79.845,102,1,4.24,0,-4.24,0
-4.8203e-25,0.016751,0,0,0,0,0,0,0,0,-32.028,-0.0032302,0,-117.41,0,-44.864,79.747,102,1,4.245,0,-4.245,0
-4.82e-25,0.016753,0,0,0,0,0,0,0,0,-31.992,-0.0033173,0,-117.27,0,-44.811,79.649,102,1,4.25,0,-4.25,0
-4.8193e-25,0.016756,0,0,0,0,0,0,0,0,-31.956,-0.0033733,0,-117.13,0,-44.758,79.551,102,1,4.255,0,-4.255,0
-4.8184e-25,0.016758,0,0,0,0,0,0,0,0,-31.919,-0.0033982,0,-116.99,0,-44.704,79.454,102,1,4.26,0,-4.26,0
-4.8171e-25,0.01676,0,0,0,0,0,0,0,0,-31.883,-0.003392,0,-116.85,0,-44.651,79.356,102,1,4.265,0,-4.265,0
-4.8154e-25,0.016763,0,0,0,0,0,0,0,0,-31.846,-0.0033546,0,-116.71,0,-44.597,79.258,102,1,4.27,0,-4.27,0
-4.8135e-25,0.016765,0,0,0,0,0,0,0,0,-31.809,-0.003286,0,-116.57,0,-44.543,79.161,102,1,4.275,0,-4.275,0
-4.8112e-25,0.016767,0,0,0,0,0,0,0,0,-31.772,-0.0031863,0,-116.42,0,-44.49,79.063,102,1,4.28,0,-4.28,0
-4.8087e-25,0.01677,0,0,0,0,0,0,0,0,-31.735,-0.0030555,0,-116.28,0,-44.436,78.966,102,1,4.285,0,-4.285,0
-4.8058e-25,0.016772,0,0,0,0,0,0,0,0,-31.697,-0.0028936,0,-116.14,0,-44.382,78.868,102,1,4.29,0,-4.29,0
-4.8025e-25,0.016774,0,0,0,0,0,0,0,0,-31.66,-0.0027005,0,-116,0,-44.328,78.771,102,1,4.295,0,-4.295,0
-4.799e-25,0.016777,0,0,0,0,0,0,0,0,-31.622,-0.0024762,0,-115.85,0,-44.274,78.673,102,1,4.3,0,-4.3,0
-4.7951e-25,0.016779,0,0,0,0,0,0,0,0,-31.584,-0.0022209,0,-115.71,0,-44.22,78.576,102,1,4.305,0,-4.305,0
-4.7909e-25,0.016781,0,0,0,0,0,0,0,0,-31.546,-0.0019344,0,-115.57,0,-44.165,78.479,102,1,4.31,0,-4.31,0
-4.7864e-25,0.016784,0,0,0,0,0,0,0,0,-31.508,-0.0016167,0,-115.43,0,-44.111,78.381,102,1,4.315,0,-4.315,0
-4.7816e-25,0.016786,0,0,0,0,0,0,0,0,-31.47,-0.0012679,0,-115.28,0,-44.057,78.284,102,1,4.32,0,-4.32,0
-4.7764e-25,0.016788,0,0,0,0,0,0,0,0,-31.431,-0.00088803,0,-115.14,0,-44.002,78.187,102,1,4.325,0,-4.325,0
-4.771e-25,0.016791,0,0,0,0,0,0,0,0,-31.392,-0.00047696,0,-115,0,-43.948,78.089,102,1,4.33,0,-4.33,0
-4.7652e-25,0.016793,0,0,0,0,0,0,0,0,-31.353,-3.4754e-05,0,-114.86,0,-43.893,77.992,102,1,4.335,0,-4.335,0
-4.759e-25,0.016795,0,0,0,0,0,0,0,0,-31.314,0.00043859,0,-114.71,0,-43.838,77.895,102,1,4.34,0,-4.34,0
-4.7526e-25,0.016798,0,0,0,0,0,0,0,0,-31.275,0.00094303,0,-114.57,0,-43.783,77.798,102,1,4.345,0,-4.345,0
-4.7458e-25,0.0168,0,0,0,0,0,0,0,0,-31.236,0.0014786,0,-114.43,0,-43.729,77.701,102,1,4.35,0,-4.35,0
-4.7388e-25,0.016802,0,0,0,0,0,0,0,0,-31.196,0.0020454,0,-114.28,0,-43.674,77.604,102,1,4.355,0,-4.355,0
-4.7314e-25,0.016805,0,0,0,0,0,0,0,0,-31.156,0.0026433,0,-114.14,0,-43.619,77.507,102,1,4.36,0,-4.36,0
-4.7236e-25,0.016807,0,0,0,0,0,0,0,0,-31.117,0.0032723,0,-114,0,-43.563,77.41,102,1,4.365,0,-4.365,0
-4.7156e-25,0.016809,0,0,0,0,0,0,0,0,-31.077,0.0039325,0,-113.85,0,-43.508,77.313,102,1,4.37,0,-4.37,0
-4.7072e-25,0.016811,0,0,0,0,0,0,0,0,-31.036,0.0046238,0,-113.71,0,-43.453,77.216,102,1,4.375,0,-4.375,0
-4.6985e-25,0.016814,0,0,0,0,0,0,0,0,-30.996,0.0053462,0,-113.56,0,-43.398,77.119,102,1,4.38,0,-4.38,0
-4.6895e-25,0.016816,0,0,0,0,0,0,0,0,-30.955,0.0060998,0,-113.42,0,-43.342,77.022,102,1,4.385,0,-4.385,0
-4.6802e-25,0.016818,0,0,0,0,0,0,0,0,-30.915,0.0068845,0,-113.28,0,-43.287,76.925,102,1,4.39,0,-4.39,0
-4.6705e-25,0.016821,0,0,0,0,0,0,0,0,-30.874,0.0077004,0,-113.13,0,-43.231,76.828,102,1,4.395,0,-4.395,0
-4.6606e-25,0.016823,0,0,0,0,0,0,0,0,-30.833,0.0085474,0,-112.99,0,-43.175,76.731,102,1,4.4,0,-4.4,0
-4.6503e-25,0.016825,0,0,0,0,0,0,0,0,-30.792,0.0094255,0,-112.84,0,-43.12,76.634,102,1,4.405,0,-4.405,0
-4.6397e-25,0.016827,0,0,0,0,0,0,0,0,-30.75,0.010335,0,-112.7,0,-43.064,76.538,102,1,4.41,0,-4.41,0
-4.6287e-25,0.01683,0,0,0,0,0,0,0,0,-30.709,0.011275,0,-112.55,0,-43.008,76.441,102,1,4.415,0,-4.415,0
-4.6175e-25,0.016832,0,0,0,0,0,0,0,0,-30.667,0.012247,0,-112.41,0,-42.952,76.344,102,1,4.42,0,-4.42,0
-4.6059e-25,0.016834,0,0,0,0,0,0,0,0,-30.625,0.013249,0,-112.26,0,-42.896,76.248,102,1,4.425,0,-4.425,0
-4.594e-25,0.016836,0,0,0,0,0,0,0,0,-30.583,0.014283,0,-112.12,0,-42.839,76.151,102,1,4.43,0,-4.43,0
-4.5817e-25,0.016839,0,0,0,0,0,0,0,0,-30.541,0.015348,0,-111.97,0,-42.783,76.054,102,1,4.435,0,-4.435,0
-4.5692e-25,0.016841,0,0,0,0,0,0,0,0,-30.498,0.016444,0,-111.83,0,-42.727,75.958,102,1,4.44,0,-4.44,0
-4.5563e-25,0.016843,0,0,0,0,0,0,0,0,-30.456,0.017571,0,-111.68,0,-42.67,75.861,102,1,4.445,0,-4.445,0
-4.5431e-25,0.016845,0,0,0,0,0,0,0,0,-30.413,0.01873,0,-111.54,0,-42.614,75.765,102,1,4.45,0,-4.45,0
-4.5296e-25,0.016848,0,0,0,0,0,0,0,0,-30.37,0.019919,0,-111.39,0,-42.557,75.668,102,1,4.455,0,-4.455,0
-4.5158e-25,0.01685,0,0,0,0,0,0,0,0,-30.327,0.02114,0,-111.25,0,-42.501,75.572,102,1,4.46,0,-4.46,0
-4.5017e-25,0.016852,0,0,0,0,0,0,0,0,-30.284,0.022392,0,-111.1,0,-42.444,75.476,102,1,4.465,0,-4.465,0
-4.4872e-25,0.016854,0,0,0,0,0,0,0,0,-30.241,0.023675,0,-110.96,0,-42.387,75.379,102,1,4.47,0,-4.47,0
-4.4724e-25,0.016857,0,0,0,0,0,0,0,0,-30.197,0.024989,0,-110.81,0,-42.33,75.283,102,1,4.475,0,-4.475,0
-4.4573e-25,0.016859,0,0,0,0,0,0,0,0,-30.154,0.026334,0,-110.66,0,-42.273,75.187,102,1,4.48,0,-4.48,0
-4.4418e-25,0.016861,0,0,0,0,0,0,0,0,-30.11,0.02771,0,-110.52,0,-42.216,75.09,102,1,4.485,0,-4.485,0
-4.4261e-25,0.016863,0,0,0,0,0,0,0,0,-30.066,0.029118,0,-110.37,0,-42.159,74.994,102,1,4.49,0,-4.49,0
-4.41e-25,0.016865,0,0,0,0,0,0,0,0,-30.022,0.030556,0,-110.23,0,-42.102,74.898,102,1,4.495,0,-4.495,0
-4.3936e-25,0.016868,0,0,0,0,0,0,0,0,-29.977,0.032026,0,-110.08,0,-42.045,74.802,102,1,4.5,0,-4.5,0
-4.3769e-25,0.01687,0,0,0,0,0,0,0,0,-29.933,0.033527,0,-109.93,0,-41.987,74.705,102,1,4.505,0,-4.505,0
-4.3598e-25,0.016872,0,0,0,0,0,0,0,0,-29.888,0.035059,0,-109.79,0,-41.93,74.609,102,1,4.51,0,-4.51,0
-4.3425e-25,0.016874,0,0,0,0,0,0,0,0,-29.843,0.036622,0,-109.64,0,-41.872,74.513,102,1,4.515,0,-4.515,0
-4.3248e-25,0.016876,0,0,0,0,0,0,0,0,-29.798,0.038216,0,-109.49,0,-41.815,74.417,102,1,4.52,0,-4.52,0
-4.3068e-25,0.016879,0,0,0,0,0,0,0,0,-29.753,0.039842,0,-109.35,0,-41.757,74.321,102,1,4.525,0,-4.525,0
-4.2884e-25,0.016881,0,0,0,0,0,0,0,0,-29.708,0.041499,0,-109.2,0,-41.699,74.225,102,1,4.53,0,-4.53,0
-4.2698e-25,0.016883,0,0,0,0,0,0,0,0,-29.662,0.043186,0,-109.05,0,-41.641,74.129,102,1,4.535,0,-4.535,0
-4.2508e-25,0.016885,0,0,0,0,0,0,0,0,-29.616,0.044905,0,-108.9,0,-41.583,74.033,102,1,4.54,0,-4.54,0
-4.2315e-25,0.016887,0,0,0,0,0,0,0,0,-29.571,0.046655,0,-108.76,0,-41.525,73.937,102,1,4.545,0,-4.545,0
-4.2119e-25,0.01689,0,0,0,0,0,0,0,0,-29.525,0.048436,0,-108.61,0,-41.467,73.841,102,1,4.55,0,-4.55,0
-4.1919e-25,0.016892,0,0,0,0,0,0,0,0,-29.478,0.050248,0,-108.46,0,-41.409,73.746,102,1,4.555,0,-4.555,0
-4.1717e-25,0.016894,0,0,0,0,0,0,0,0,-29.432,0.052092,0,-108.31,0,-41.351,73.65,102,1,4.56,0,-4.56,0
-4.1511e-25,0.016896,0,0,0,0,0,0,0,0,-29.385,0.053966,0,-108.17,0,-41.292,73.554,102,1,4.565,0,-4.565,0
-4.1302e-25,0.016898,0,0,0,0,0,0,0,0,-29.339,0.055872,0,-108.02,0,-41.234,73.458,102,1,4.57,0,-4.57,0
-4.109e-25,0.0169,0,0,0,0,0,0,0,0,-29.292,0.057809,0,-107.87,0,-41.176,73.363,102,1,4.575,0,-4.575,0
-4.0874e-25,0.016903,0,0,0,0,0,0,0,0,-29.245,0.059777,0,-107.72,0,-41.117,73.267,102,1,4.58,0,-4.58,0
-4.0656e-25,0.016905,0,0,0,0,0,0,0,0,-29.198,0.061776,0,-107.57,0,-41.058,73.171,102,1,4.585,0,-4.585,0
-4.0434e-25,0.016907,0,0,0,0,0,0,0,0,-29.15,0.063806,0,-107.43,0,-41,73.076,102,1,4.59,0,-4.59,0
-4.0209e-25,0.016909,0,0,0,0,0,0,0,0,-29.103,0.065867,0,-107.28,0,-40.941,72.98,102,1,4.595,0,-4.595,0
-3.998e-25,0.016911,0,0,0,0,0,0,0,0,-29.055,0.06796,0,-107.13,0,-40.882,72.884,102,1,4.6,0,-4.6,0
-3.9749e-25,0.016913,0,0,0,0,0,0,0,0,-29.007,0.070084,0,-106.98,0,-40.823,72.789,102,1,4.605,0,-4.605,0
-3.9514e-25,0.016916,0,0,0,0,0,0,0,0,-28.959,0.072239,0,-106.83,0,-40.764,72.693,102,1,4.61,0,-4.61,0
-3.9276e-25,0.016918,0,0,0,0,0,0,0,0,-28.911,0.074424,0,-106.68,0,-40.705,72.598,102,1,4.615,0,-4.615,0
-3.9035e-25,0.01692,0,0,0,0,0,0,0,0,-28.863,0.076641,0,-106.53,0,-40.645,72.502,102,1,4.62,0,-4.62,0
-3.8791e-25,0.016922,0,0,0,0,0,0,0,0,-28.815,0.07889,0,-106.39,0,-40.586,72.407,102,1,4.625,0,-4.625,0
-3.8543e-25,0.016924,0,0,0,0,0,0,0,0,-28.766,0.081169,0,-106.24,0,-40.527,72.312,102,1,4.63,0,-4.63,0
-3.8292e-25,0.016926,0,0,0,0,0,0,0,0,-28.717,0.08348,0,-106.09,0,-40.467,72.216,102,1,4.635,0,-4.635,0
-3.8038e-25,0.016928,0,0,0,0,0,0,0,0,-28.668,0.085821,0,-105.94,0,-40.408,72.121,102,1,4.64,0,-4.64,0
-3.7781e-25,0.01693,0,0,0,0,0,0,0,0,-28.619,0.088194,0,-105.79,0,-40.348,72.026,102,1,4.645,0,-4.645,0
-3.7521e-25,0.016933,0,0,0,0,0,0,0,0,-28.57,0.090598,0,-105.64,0,-40.288,71.93,102,1,4.65,0,-4.65,0
-3.7257e-25,0.016935,0,0,0,0,0,0,0,0,-28.52,0.093033,0,-105.49,0,-40.229,71.835,102,1,4.655,0,-4.655,0
-3.699e-25,0.016937,0,0,0,0,0,0,0,0,-28.47,0.095499,0,-105.34,0,-40.169,71.74,102,1,4.66,0,-4.66,0
-3.672e-25,0.016939,0,0,0,0,0,0,0,0,-28.421,0.097996,0,-105.19,0,-40.109,71.645,102,1,4.665,0,-4.665,0
-3.6447e-25,0.016941,0,0,0,0,0,0,0,0,-28.371,0.10052,0,-105.04,0,-40.049,71.55,102,1,4.67,0,-4.67,0
-3.617e-25,0.016943,0,0,0,0,0,0,0,0,-28.32,0.10308,0,-104.89,0,-39.989,71.455,102,1,4.675,0,-4.675,0
-3.589e-25,0.016945,0,0,0,0,0,0,0,0,-28.27,0.10567,0,-104.74,0,-39.929,71.36,102,1,4.68,0,-4.68,0
-3.5607e-25,0.016947,0,0,0,0,0,0,0,0,-28.22,0.1083,0,-104.59,0,-39.868,71.265,102,1,4.685,0,-4.685,0
-3.5321e-25,0.016949,0,0,0,0,0,0,0,0,-28.169,0.11095,0,-104.44,0,-39.808,71.17,102,1,4.69,0,-4.69,0
-3.5183e-25,0.016952,0,0,0,0,0,0,0,0,-28.125,0.11242,0,-104.31,0,-39.754,71.084,102,1,4.695,0,-4.695,0
-3.5435e-25,0.016954,0,0,0,0,0,0,0,0,-28.097,0.11076,0,-104.21,0,-39.718,71.022,102,1,4.7,0,-4.7,0
-3.5685e-25,0.016956,0,0,0,0,0,0,0,0,-28.069,0.10912,0,-104.12,0,-39.681,70.96,102,1,4.705,0,-4.705,0
-3.5932e-25,0.016958,0,0,0,0,0,0,0,0,-28.041,0.10749,0,-104.02,0,-39.645,70.898,102,1,4.71,0,-4.71,0
-3.6176e-25,0.01696,0,0,0,0,0,0,0,0,-28.013,0.10587,0,-103.93,0,-39.608,70.836,102,1,4.715,0,-4.715,0
-3.6418e-25,0.016962,0,0,0,0,0,0,0,0,-27.985,0.10426,0,-103.84,0,-39.571,70.774,102,1,4.72,0,-4.72,0
-3.6656e-25,0.016964,0,0,0,0,0,0,0,0,-27.956,0.10267,0,-103.74,0,-39.535,70.712,102,1,4.725,0,-4.725,0
-3.6892e-25,0.016966,0,0,0,0,0,0,0,0,-27.928,0.10109,0,-103.65,0,-39.498,70.65,102,1,4.73,0,-4.73,0
-3.7126e-25,0.016968,0,0,0,0,0,0,0,0,-27.9,0.099529,0,-103.55,0,-39.461,70.588,102,1,4.735,0,-4.735,0
-3.7356e-25,0.01697,0,0,0,0,0,0,0,0,-27.871,0.097978,0,-103.46,0,-39.424,70.526,102,1,4.74,0,-4.74,0
-3.7584e-25,0.016973,0,0,0,0,0,0,0,0,-27.843,0.096441,0,-103.37,0,-39.387,70.465,102,1,4.745,0,-4.745,0
-3.7809e-25,0.016975,0,0,0,0,0,0,0,0,-27.814,0.094918,0,-103.27,0,-39.35,70.403,102,1,4.75,0,-4.75,0
-3.8032e-25,0.016977,0,0,0,0,0,0,0,0,-27.785,0.093409,0,-103.18,0,-39.313,70.341,102,1,4.755,0,-4.755,0
-3.8252e-25,0.016979,0,0,0,0,0,0,0,0,-27.756,0.091913,0,-103.08,0,-39.277,70.279,102,1,4.76,0,-4.76,0
-3.8469e-25,0.016981,0,0,0,0,0,0,0,0,-27.727,0.090431,0,-102.99,0,-39.239,70.217,102,1,4.765,0,-4.765,0
-3.8683e-25,0.016983,0,0,0,0,0,0,0,0,-27.698,0.088962,0,-102.9,0,-39.202,70.156,102,1,4.77,0,-4.77,0
-3.8895e-25,0.016985,0,0,0,0,0,0,0,0,-27.669,0.087507,0,-102.8,0,-39.165,70.094,102,1,4.775,0,-4.775,0
-3.9104e-25,0.016987,0,0,0,0,0,0,0,0,-27.64,0.086066,0,-102.71,0,-39.128,70.032,102,1,4.78,0,-4.78,0
-3.931e-25,0.016989,0,0,0,0,0,0,0,0,-27.611,0.084638,0,-102.61,0,-39.091,69.971,102,1,4.785,0,-4.785,0
-3.9513e-25,0.016991,0,0,0,0,0,0,0,0,-27.581,0.083224,0,-102.52,0,-39.054,69.909,102,1,4.79,0,-4.79,0
-3.9714e-25,0.016993,0,0,0,0,0,0,0,0,-27.552,0.081824,0,-102.42,0,-39.016,69.848,102,1,4.795,0,-4.795,0
-3.9912e-25,0.016995,0,0,0,0,0,0,0,0,-27.522,0.080437,0,-102.33,0,-38.979,69.786,102,1,4.8,0,-4.8,0
-4.0107e-25,0.016997,0,0,0,0,0,0,0,0,-27.492,0.079064,0,-102.23,0,-38.942,69.724,102,1,4.805,0,-4.805,0
-4.03e-25,0.017,0,0,0,0,0,0,0,0,-27.463,0.077705,0,-102.14,0,-38.904,69.663,102,1,4.81,0,-4.81,0
-4.049e-25,0.017002,0,0,0,0,0,0,0,0,-27.433,0.076359,0,-102.04,0,-38.867,69.601,102,1,4.815,0,-4.815,0
-4.0677e-25,0.017004,0,0,0,0,0,0,0,0,-27.403,0.075027,0,-101.95,0,-38.829,69.54,102,1,4.82,0,-4.82,0
-4.0862e-25,0.017006,0,0,0,0,0,0,0,0,-27.373,0.073708,0,-101.85,0,-38.792,69.478,102,1,4.825,0,-4.825,0
-4.1043e-25,0.017008,0,0,0,0,0,0,0,0,-27.343,0.072403,0,-101.76,0,-38.754,69.417,102,1,4.83,0,-4.83,0
-4.1222e-25,0.01701,0,0,0,0,0,0,0,0,-27.313,0.071112,0,-101.66,0,-38.717,69.356,102,1,4.835,0,-4.835,0
-4.1399e-25,0.017012,0,0,0,0,0,0,0,0,-27.282,0.069834,0,-101.57,0,-38.679,69.294,102,1,4.84,0,-4.84,0
-4.1572e-25,0.017014,0,0,0,0,0,0,0,0,-27.252,0.06857,0,-101.47,0,-38.641,69.233,102,1,4.845,0,-4.845,0
-4.1743e-25,0.017016,0,0,0,0,0,0,0,0,-27.222,0.06732,0,-101.38,0,-38.604,69.171,102,1,4.85,0,-4.85,0
-4.1911e-25,0.017018,0,0,0,0,0,0,0,0,-27.191,0.066083,0,-101.28,0,-38.566,69.11,102,1,4.855,0,-4.855,0
-4.2077e-25,0.01702,0,0,0,0,0,0,0,0,-27.16,0.06486,0,-101.19,0,-38.528,69.049,102,1,4.86,0,-4.86,0
-4.224e-25,0.017022,0,0,0,0,0,0,0,0,-27.13,0.063651,0,-101.09,0,-38.49,68.988,102,1,4.865,0,-4.865,0
-4.24e-25,0.017024,0,0,0,0,0,0,0,0,-27.099,0.062455,0,-101,0,-38.452,68.926,102,1,4.87,0,-4.87,0
-4.2557e-25,0.017026,0,0,0,0,0,0,0,0,-27.068,0.061273,0,-100.9,0,-38.414,68.865,102,1,4.875,0,-4.875,0
-4.2712e-25,0.017028,0,0,0,0,0,0,0,0,-27.037,0.060104,0,-100.81,0,-38.376,68.804,102,1,4.88,0,-4.88,0
-4.2864e-25,0.01703,0,0,0,0,0,0,0,0,-27.006,0.058949,0,-100.71,0,-38.338,68.743,102,1,4.885,0,-4.885,0
-4.3013e-25,0.017032,0,0,0,0,0,0,0,0,-26.975,0.057808,0,-100.62,0,-38.3,68.681,102,1,4.89,0,-4.89,0
-4.3159e-25,0.017034,0,0,0,0,0,0,0,0,-26.943,0.056681,0,-100.52,0,-38.262,68.62,102,1,4.895,0,-4.895,0
-4.3303e-25,0.017036,0,0,0,0,0,0,0,0,-26.912,0.055567,0,-100.42,0,-38.224,68.559,102,1,4.9,0,-4.9,0
-4.3444e-25,0.017038,0,0,0,0,0,0,0,0,-26.881,0.054466,0,-100.33,0,-38.186,68.498,102,1,4.905,0,-4.905,0
-4.3582e-25,0.01704,0,0,0,0,0,0,0,0,-26.849,0.05338,0,-100.23,0,-38.148,68.437,102,1,4.91,0,-4.91,0
-4.3718e-25,0.017042,0,0,0,0,0,0,0,0,-26.818,0.052307,0,-100.14,0,-38.109,68.376,102,1,4.915,0,-4.915,0
-4.3851e-25,0.017044,0,0,0,0,0,0,0,0,-26.786,0.051247,0,-100.04,0,-38.071,68.315,102,1,4.92,0,-4.92,0
-4.3981e-25,0.017046,0,0,0,0,0,0,0,0,-26.754,0.050201,0,-99.945,0,-38.033,68.254,102,1,4.925,0,-4.925,0
-4.4109e-25,0.017048,0,0,0,0,0,0,0,0,-26.722,0.049169,0,-99.849,0,-37.994,68.193,102,1,4.93,0,-4.93,0
-4.4233e-25,0.01705,0,0,0,0,0,0,0,0,-26.69,0.048151,0,-99.753,0,-37.956,68.132,102,1,4.935,0,-4.935,0
-4.4355e-25,0.017053,0,0,0,0,0,0,0,0,-26.658,0.047146,0,-99.657,0,-37.917,68.071,102,1,4.94,0,-4.94,0
-4.4475e-25,0.017055,0,0,0,0,0,0,0,0,-26.626,0.046155,0,-99.561,0,-37.879,68.01,102,1,4.945,0,-4.945,0
-4.4591e-25,0.017057,0,0,0,0,0,0,0,0,-26.594,0.045177,0,-99.465,0,-37.84,67.949,102,1,4.95,0,-4.95,0
-4.4705e-25,0.017059,0,0,0,0,0,0,0,0,-26.561,0.044213,0,-99.369,0,-37.802,67.888,102,1,4.955,0,-4.955,0
-4.4816e-25,0.017061,0,0,0,0,0,0,0,0,-26.529,0.043263,0,-99.272,0,-37.763,67.827,102,1,4.96,0,-4.96,0
-4.4925e-25,0.017063,0,0,0,0,0,0,0,0,-26.497,0.042326,0,-99.176,0,-37.724,67.766,102,1,4.965,0,-4.965,0
-4.5031e-25,0.017065,0,0,0,0,0,0,0,0,-26.464,0.041403,0,-99.08,0,-37.686,67.705,102,1,4.97,0,-4.97,0
-4.5134e-25,0.017067,0,0,0,0,0,0,0,0,-26.431,0.040494,0,-98.983,0,-37.647,67.645,102,1,4.975,0,-4.975,0
-4.5234e-25,0.017069,0,0,0,0,0,0,0,0,-26.399,0.039598,0,-98.887,0,-37.608,67.584,102,1,4.98,0,-4.98,0
-4.5332e-25,0.017071,0,0,0,0,0,0,0,0,-26.366,0.038716,0,-98.79,0,-37.569,67.523,102,1,4.985,0,-4.985,0
-4.5426e-25,0.017073,0,0,0,0,0,0,0,0,-26.333,0.037848,0,-98.694,0,-37.53,67.462,102,1,4.99,0,-4.99,0
-4.5519e-25,0.017075,0,0,0,0,0,0,0,0,-26.3,0.036993,0,-98.597,0,-37.491,67.402,102,1,4.995,0,-4.995,0
-4.5608e-25,0.017077,0,0,0,0,0,0,0,0,-26.267,0.036152,0,-98.501,0,-37.453,67.341,102,1,5,0,-5,0
