"displacement:0","displacement:1","displacement:2","displacement contact active","displacement contact distance","displacement contact gap","displacement contact normalload","displacement contact slipload","displacement contact stick","displacement contact weight","stress_xx","stress_xy","stress_xz","stress_yy","stress_yz","stress_zz","vonmises","GeometryIds","vtkValidPointMask","arc_length","Points:0","Points:1","Points:2"
4.1707e-13,0.0134,0,0.9732,-6.0942e-06,1.2901e-09,2186.7,516.97,-0.9732,0,-2097.2,1445.4,0,-3274.3,0,-1641.3,2906.7,102,1,0,0,0,0
4.1274e-13,0.013451,0,0.9631,-6.0309e-06,1.2767e-09,2164,511.61,-0.9631,0,-2077.8,1434.3,0,-3257.8,0,-1630.3,2891.8,102,1,0.005,0,-0.005,0
4.0842e-13,0.013501,0,0.953,-5.9677e-06,1.2633e-09,2141.3,506.24,-0.953,0,-2058.4,1423.3,0,-3241.4,0,-1619.3,2876.9,102,1,0.01,0,-0.01,0
4.0409e-13,0.013551,0,0.9429,-5.9044e-06,1.2499e-09,2118.6,500.88,-0.9429,0,-2039,1412.2,0,-3224.9,0,-1608.3,2862.1,102,1,0.015,0,-0.015,0
3.9976e-13,0.013601,0,0.9328,-5.8412e-06,1.2365e-09,2095.9,495.51,-0.9328,0,-2019.6,1401.2,0,-3208.4,0,-1597.3,2847.2,102,1,0.02,0,-0.02,0
3.9543e-13,0.013652,0,0.9227,-5.7779e-06,1.2231e-09,2073.2,490.15,-0.9227,0,-2000.2,1390.1,0,-3192,0,-1586.3,2832.3,102,1,0.025,0,-0.025,0
3.911e-13,0.013702,0,0.9126,-5.7147e-06,1.2098e-09,2050.5,484.78,-0.9126,0,-1980.8,1379,0,-3175.5,0,-1575.3,2817.5,102,1,0.03,0,-0.03,0
3.8677e-13,0.013752,0,0.9025,-5.6514e-06,1.1964e-09,2027.8,479.41,-0.9025,0,-1961.4,1368,0,-3159,0,-1564.3,2802.6,102,1,0.035,0,-0.035,0
3.8244e-13,0.013803,0,0.89239,-5.5882e-06,1.183e-09,2005.1,474.05,-0.89239,0,-1942,1356.9,0,-3142.6,0,-1553.3,2787.7,102,1,0.04,0,-0.04,0
3.7811e-13,0.013853,0,0.88229,-5.5249e-06,1.1696e-09,1982.4,468.68,-0.88229,0,-1922.6,1345.8,0,-3126.1,0,-1542.3,2772.8,102,1,0.045,0,-0.045,0
3.7379e-13,0.013903,0,0.87219,-5.4617e-06,1.1562e-09,1959.7,463.32,-0.87219,0,-1903.2,1334.8,0,-3109.6,0,-1531.2,2758,102,1,0.05,0,-0.05,0
3.6946e-13,0.013953,0,0.86209,-5.3984e-06,1.1428e-09,1937,457.95,-0.86209,0,-1883.8,1323.7,0,-3093.2,0,-1520.2,2743.1,102,1,0.055,0,-0.055,0
3.6513e-13,0.014004,0,0.85199,-5.3352e-06,1.1294e-09,1914.3,452.59,-0.85199,0,-1864.4,1312.7,0,-3076.7,0,-1509.2,2728.2,102,1,0.06,0,-0.06,0
3.608e-13,0.014054,0,0.84189,-5.2719e-06,1.116e-09,1891.6,447.22,-0.84189,0,-1845,1301.6,0,-3060.2,0,-1498.2,2713.4,102,1,0.065,0,-0.065,0
3.5647e-13,0.014104,0,0.83179,-5.2087e-06,1.1026e-09,1868.9,441.86,-0.83179,0,-1825.6,1290.5,0,-3043.8,0,-1487.2,2698.5,102,1,0.07,0,-0.07,0
3.5214e-13,0.014154,0,0.82169,-5.1454e-06,1.0893e-09,1846.2,436.49,-0.82169,0,-1806.2,1279.5,0,-3027.3,0,-1476.2,2683.6,102,1,0.075,0,-0.075,0
3.4781e-13,0.014205,0,0.81159,-5.0822e-06,1.0759e-09,1823.6,431.12,-0.81159,0,-1786.8,1268.4,0,-3010.8,0,-1465.2,2668.7,102,1,0.08,0,-0.08,0
3.4349e-13,0.014255,0,0.80149,-5.0189e-06,1.0625e-09,1800.9,425.76,-0.80149,0,-1767.4,1257.4,0,-2994.4,0,-1454.2,2653.9,102,1,0.085,0,-0.085,0
3.3916e-13,0.014305,0,0.79139,-4.9557e-06,1.0491e-09,1778.2,420.39,-0.79139,0,-1748,1246.3,0,-2977.9,0,-1443.2,2639,102,1,0.09,0,-0.09,0
3.3483e-13,0.014355,0,0.78129,-4.8925e-06,1.0357e-09,1755.5,415.03,-0.78129,0,-1728.7,1235.2,0,-2961.4,0,-1432.2,2624.1,102,1,0.095,0,-0.095,0
3.305e-13,0.014406,0,0.77119,-4.8292e-06,1.0223e-09,1732.8,409.66,-0.77119,0,-1709.3,1224.2,0,-2945,0,-1421.2,2609.2,102,1,0.1,0,-0.1,0
3.2617e-13,0.014456,0,0.76109,-4.766e-06,1.0089e-09,1710.1,404.3,-0.76109,0,-1689.9,1213.1,0,-2928.5,0,-1410.2,2594.4,102,1,0.105,0,-0.105,0
3.2184e-13,0.014506,0,0.75099,-4.7027e-06,9.9553e-10,1687.4,398.93,-0.75099,0,-1670.5,1202.1,0,-2912,0,-1399.2,2579.5,102,1,0.11,0,-0.11,0
3.1751e-13,0.014557,0,0.74089,-4.6395e-06,9.8214e-10,1664.7,393.57,-0.74089,0,-1651.1,1191,0,-2895.5,0,-1388.2,2564.6,102,1,0.115,0,-0.115,0
3.1318e-13,0.014607,0,0.73079,-4.5762e-06,9.6875e-10,1642,388.2,-0.73079,0,-1631.7,1179.9,0,-2879.1,0,-1377.2,2549.8,102,1,0.12,0,-0.12,0
3.0886e-13,0.014657,0,0.72069,-4.513e-06,9.5536e-10,1619.3,382.84,-0.72069,0,-1612.3,1168.9,0,-2862.6,0,-1366.2,2534.9,102,1,0.125,0,-0.125,0
3.0453e-13,0.014707,0,0.71059,-4.4497e-06,9.4197e-10,1596.6,377.47,-0.71059,0,-1592.9,1157.8,0,-2846.1,0,-1355.2,2520,102,1,0.13,0,-0.13,0
3.002e-13,0.014758,0,0.70048,-4.3865e-06,9.2858e-10,1573.9,372.1,-0.70048,0,-1573.5,1146.7,0,-2829.7,0,-1344.2,2505.1,102,1,0.135,0,-0.135,0
2.9587e-13,0.014808,0,0.69038,-4.3232e-06,9.1519e-10,1551.2,366.74,-0.69038,0,-1554.1,1135.7,0,-2813.2,0,-1333.2,2490.3,102,1,0.14,0,-0.14,0
2.9154e-13,0.014858,0,0.68028,-4.26e-06,9.018e-10,1528.5,361.37,-0.68028,0,-1534.7,1124.6,0,-2796.7,0,-1322.2,2475.4,102,1,0.145,0,-0.145,0
2.8721e-13,0.014908,0,0.67018,-4.1967e-06,8.8841e-10,1505.8,356.01,-0.67018,0,-1515.3,1113.6,0,-2780.3,0,-1311.2,2460.5,102,1,0.15,0,-0.15,0
2.8288e-13,0.014959,0,0.66008,-4.1335e-06,8.7502e-10,1483.1,350.64,-0.66008,0,-1495.9,1102.5,0,-2763.8,0,-1300.2,2445.7,102,1,0.155,0,-0.155,0
2.7856e-13,0.015009,0,0.64998,-4.0702e-06,8.6163e-10,1460.4,345.28,-0.64998,0,-1476.5,1091.4,0,-2747.3,0,-1289.1,2430.8,102,1,0.16,0,-0.16,0
2.7423e-13,0.015059,0,0.63988,-4.007e-06,8.4824e-10,1437.7,339.91,-0.63988,0,-1457.1,1080.4,0,-2730.9,0,-1278.1,2415.9,102,1,0.165,0,-0.165,0
2.699e-13,0.015109,0,0.62978,-3.9437e-06,8.3485e-10,1415,334.55,-0.62978,0,-1437.7,1069.3,0,-2714.4,0,-1267.1,2401,102,1,0.17,0,-0.17,0
2.6557e-13,0.01516,0,0.61968,-3.8805e-06,8.2146e-10,1392.4,329.18,-0.61968,0,-1418.3,1058.3,0,-2697.9,0,-1256.1,2386.2,102,1,0.175,0,-0.175,0
2.6124e-13,0.01521,0,0.60958,-3.8172e-06,8.0807e-10,1369.7,323.81,-0.60958,0,-1398.9,1047.2,0,-2681.5,0,-1245.1,2371.3,102,1,0.18,0,-0.18,0
2.5691e-13,0.01526,0,0.59948,-3.754e-06,7.9468e-10,1347,318.45,-0.59948,0,-1379.5,1036.1,0,-2665,0,-1234.1,2356.4,102,1,0.185,0,-0.185,0
2.5258e-13,0.015311,0,0.58938,-3.6907e-06,7.813e-10,1324.3,313.08,-0.58938,0,-1360.1,1025.1,0,-2648.5,0,-1223.1,2341.6,102,1,0.19,0,-0.19,0
2.4825e-13,0.015361,0,0.57928,-3.6275e-06,7.6791e-10,1301.6,307.72,-0.57928,0,-1340.7,1014,0,-2632.1,0,-1212.1,2326.7,102,1,0.195,0,-0.195,0
2.4393e-13,0.015411,0,0.56918,-3.5642e-06,7.5452e-10,1278.9,302.35,-0.56918,0,-1321.3,1002.9,0,-2615.6,0,-1201.1,2311.8,102,1,0.2,0,-0.2,0
2.396e-13,0.015461,0,0.55908,-3.501e-06,7.4113e-10,1256.2,296.99,-0.55908,0,-1301.9,991.89,0,-2599.1,0,-1190.1,2296.9,102,1,0.205,0,-0.205,0
2.3527e-13,0.015512,0,0.54898,-3.4377e-06,7.2774e-10,1233.5,291.62,-0.54898,0,-1282.5,980.83,0,-2582.7,0,-1179.1,2282.1,102,1,0.21,0,-0.21,0
2.3094e-13,0.015562,0,0.53888,-3.3745e-06,7.1435e-10,1210.8,286.26,-0.53888,0,-1263.1,969.76,0,-2566.2,0,-1168.1,2267.2,102,1,0.215,0,-0.215,0
2.2661e-13,0.015612,0,0.52878,-3.3112e-06,7.0096e-10,1188.1,280.89,-0.52878,0,-1243.7,958.7,0,-2549.7,0,-1157.1,2252.3,102,1,0.22,0,-0.22,0
2.2228e-13,0.015662,0,0.51868,-3.248e-06,6.8757e-10,1165.4,275.53,-0.51868,0,-1224.3,947.64,0,-2533.3,0,-1146.1,2237.5,102,1,0.225,0,-0.225,0
2.1795e-13,0.015713,0,0.50857,-3.1847e-06,6.7418e-10,1142.7,270.16,-0.50857,0,-1204.9,936.58,0,-2516.8,0,-1135.1,2222.6,102,1,0.23,0,-0.23,0
2.1363e-13,0.015763,0,0.49847,-3.1215e-06,6.6079e-10,1120,264.79,-0.49847,0,-1185.5,925.52,0,-2500.3,0,-1124.1,2207.7,102,1,0.235,0,-0.235,0
2.093e-13,0.015813,0,0.48837,-3.0582e-06,6.474e-10,1097.3,259.43,-0.48837,0,-1166.1,914.46,0,-2483.9,0,-1113.1,2192.8,102,1,0.24,0,-0.24,0
2.0497e-13,0.015863,0,0.47827,-2.995e-06,6.3401e-10,1074.6,254.06,-0.47827,0,-1146.7,903.4,0,-2467.4,0,-1102.1,2178,102,1,0.245,0,-0.245,0
2.0064e-13,0.015914,0,0.46817,-2.9317e-06,6.2062e-10,1051.9,248.7,-0.46817,0,-1127.3,892.34,0,-2450.9,0,-1091.1,2163.1,102,1,0.25,0,-0.25,0
1.9631e-13,0.015964,0,0.45807,-2.8685e-06,6.0723e-10,1029.2,243.33,-0.45807,0,-1107.9,881.27,0,-2434.5,0,-1080.1,2148.2,102,1,0.255,0,-0.255,0
1.9198e-13,0.016014,0,0.44797,-2.8052e-06,5.9384e-10,1006.5,237.97,-0.44797,0,-1088.5,870.21,0,-2418,0,-1069.1,2133.4,102,1,0.26,0,-0.26,0
1.8765e-13,0.016065,0,0.43787,-2.742e-06,5.8045e-10,983.85,232.6,-0.43787,0,-1069.1,859.15,0,-2401.5,0,-1058.1,2118.5,102,1,0.265,0,-0.265,0
1.8332e-13,0.016115,0,0.42777,-2.6787e-06,5.6706e-10,961.15,227.24,-0.42777,0,-1049.7,848.09,0,-2385.1,0,-1047,2103.6,102,1,0.27,0,-0.27,0
1.79e-13,0.016165,0,0.41767,-2.6155e-06,5.5367e-10,938.46,221.87,-0.41767,0,-1030.3,837.03,0,-2368.6,0,-1036,2088.7,102,1,0.275,0,-0.275,0
1.7467e-13,0.016215,0,0.40757,-2.5522e-06,5.4028e-10,915.76,216.5,-0.40757,0,-1010.9,825.97,0,-2352.1,0,-1025,2073.9,102,1,0.28,0,-0.28,0
1.7034e-13,0.016266,0,0.39747,-2.489e-06,5.2689e-10,893.07,211.14,-0.39747,0,-991.51,814.91,0,-2335.7,0,-1014,2059,102,1,0.285,0,-0.285,0
1.6601e-13,0.016316,0,0.38737,-2.4257e-06,5.135e-10,870.37,205.77,-0.38737,0,-972.11,803.85,0,-2319.2,0,-1003,2044.1,102,1,0.29,0,-0.29,0
1.6168e-13,0.016366,0,0.37727,-2.3625e-06,5.0012e-10,847.68,200.41,-0.37727,0,-952.71,792.78,0,-2302.7,0,-992.03,2029.3,102,1,0.295,0,-0.295,0
1.5735e-13,0.016416,0,0.36717,-2.2992e-06,4.8673e-10,824.98,195.04,-0.36717,0,-933.31,781.72,0,-2286.3,0,-981.02,2014.4,102,1,0.3,0,-0.3,0
1.5302e-13,0.016467,0,0.35707,-2.236e-06,4.7334e-10,802.29,189.68,-0.35707,0,-913.91,770.66,0,-2269.8,0,-970.02,1999.5,102,1,0.305,0,-0.305,0
1.487e-13,0.016517,0,0.34697,-2.1727e-06,4.5995e-10,779.59,184.31,-0.34697,0,-894.51,759.6,0,-2253.3,0,-959.01,1984.6,102,1,0.31,0,-0.31,0
1.4437e-13,0.016567,0,0.33687,-2.1095e-06,4.4656e-10,756.9,178.95,-0.33687,0,-875.12,748.54,0,-2236.9,0,-948.01,1969.8,102,1,0.315,0,-0.315,0
1.4004e-13,0.016617,0,0.32677,-2.0462e-06,4.3317e-10,734.2,173.58,-0.32677,0,-855.72,737.48,0,-2220.4,0,-937,1954.9,102,1,0.32,0,-0.32,0
1.3571e-13,0.016668,0,0.31666,-1.983e-06,4.1978e-10,711.51,168.22,-0.31666,0,-836.32,726.42,0,-2203.9,0,-926,1940,102,1,0.325,0,-0.325,0
1.3138e-13,0.016718,0,0.30656,-1.9197e-06,4.0639e-10,688.81,162.85,-0.30656,0,-816.92,715.36,0,-2187.5,0,-914.99,1925.1,102,1,0.33,0,-0.33,0
1.2705e-13,0.016768,0,0.29646,-1.8565e-06,3.93e-10,666.12,157.48,-0.29646,0,-797.52,704.29,0,-2171,0,-903.99,1910.3,102,1,0.335,0,-0.335,0
1.2272e-13,0.016819,0,0.28636,-1.7932e-06,3.7961e-10,643.43,152.12,-0.28636,0,-778.12,693.23,0,-2154.5,0,-892.98,1895.4,102,1,0.34,0,-0.34,0
1.1839e-13,0.016869,0,0.27626,-1.73e-06,3.6622e-10,620.73,146.75,-0.27626,0,-758.72,682.17,0,-2138,0,-881.98,1880.5,102,1,0.345,0,-0.345,0
1.1407e-13,0.016919,0,0.26616,-1.6667e-06,3.5283e-10,598.04,141.39,-0.26616,0,-739.33,671.11,0,-2121.6,0,-870.98,1865.7,102,1,0.35,0,-0.35,0
1.0974e-13,0.016969,0,0.25606,-1.6035e-06,3.3944e-10,575.34,136.02,-0.25606,0,-719.93,660.05,0,-2105.1,0,-859.97,1850.8,102,1,0.355,0,-0.355,0
1.0541e-13,0.01702,0,0.24596,-1.5402e-06,3.2605e-10,552.65,130.66,-0.24596,0,-700.53,648.99,0,-2088.6,0,-848.97,1835.9,102,1,0.36,0,-0.36,0
1.0108e-13,0.01707,0,0.23586,-1.477e-06,3.1266e-10,529.95,125.29,-0.23586,0,-681.13,637.93,0,-2072.2,0,-837.96,1821,102,1,0.365,0,-0.365,0
9.6751e-14,0.01712,0,0.22576,-1.4137e-06,2.9927e-10,507.26,119.93,-0.22576,0,-661.73,626.87,0,-2055.7,0,-826.96,1806.2,102,1,0.37,0,-0.37,0
9.2423e-14,0.01717,0,0.21566,-1.3505e-06,2.8588e-10,484.56,114.56,-0.21566,0,-642.33,615.8,0,-2039.2,0,-815.95,1791.3,102,1,0.375,0,-0.375,0
8.8094e-14,0.017221,0,0.20556,-1.2872e-06,2.7249e-10,461.87,109.19,-0.20556,0,-622.93,604.74,0,-2022.8,0,-804.95,1776.4,102,1,0.38,0,-0.38,0
8.3765e-14,0.017271,0,0.19546,-1.224e-06,2.591e-10,439.17,103.83,-0.19546,0,-603.54,593.68,0,-2006.3,0,-793.94,1761.6,102,1,0.385,0,-0.385,0
7.9437e-14,0.017321,0,0.18536,-1.1607e-06,2.4571e-10,416.48,98.464,-0.18536,0,-584.14,582.62,0,-1989.8,0,-782.94,1746.7,102,1,0.39,0,-0.39,0
7.5108e-14,0.017371,0,0.17526,-1.0975e-06,2.3232e-10,393.78,93.098,-0.17526,0,-564.74,571.56,0,-1973.4,0,-771.93,1731.8,102,1,0.395,0,-0.395,0
7.0779e-14,0.017422,0,0.16516,-1.0342e-06,2.1894e-10,371.09,87.733,-0.16516,0,-545.34,560.5,0,-1956.9,0,-760.93,1716.9,102,1,0.4,0,-0.4,0
6.6451e-14,0.017472,0,0.15506,-9.7096e-07,2.0555e-10,348.39,82.367,-0.15506,0,-525.94,549.44,0,-1940.4,0,-749.93,1702.1,102,1,0.405,0,-0.405,0
6.2122e-14,0.017522,0,0.14496,-9.0771e-07,1.9216e-10,325.7,77.002,-0.14496,0,-506.54,538.38,0,-1924,0,-738.92,1687.2,102,1,0.41,0,-0.41,0
5.7793e-14,0.017573,0,0.13485,-8.4446e-07,1.7877e-10,303,71.636,-0.13485,0,-487.14,527.31,0,-1907.5,0,-727.92,1672.3,102,1,0.415,0,-0.415,0
5.3465e-14,0.017623,0,0.12475,-7.8121e-07,1.6538e-10,280.31,66.271,-0.12475,0,-467.75,516.25,0,-1891,0,-716.91,1657.5,102,1,0.42,0,-0.42,0
4.9136e-14,0.017673,0,0.11465,-7.1796e-07,1.5199e-10,257.61,60.905,-0.11465,0,-448.35,505.19,0,-1874.6,0,-705.91,1642.6,102,1,0.425,0,-0.425,0
4.4807e-14,0.017723,0,0.10455,-6.5471e-07,1.386e-10,234.92,55.54,-0.10455,0,-428.95,494.13,0,-1858.1,0,-694.9,1627.7,102,1,0.43,0,-0.43,0
4.0479e-14,0.017774,0,0.094453,-5.9147e-07,1.2521e-10,212.22,50.174,-0.094453,0,-409.55,483.07,0,-1841.6,0,-683.9,1612.8,102,1,0.435,0,-0.435,0
3.615e-14,0.017824,0,0.084352,-5.2822e-07,1.1182e-10,189.53,44.809,-0.084352,0,-390.15,472.01,0,-1825.2,0,-672.89,1598,102,1,0.44,0,-0.44,0
3.1821e-14,0.017874,0,0.074252,-4.6497e-07,9.843e-11,166.84,39.443,-0.074252,0,-370.75,460.95,0,-1808.7,0,-661.89,1583.1,102,1,0.445,0,-0.445,0
2.7493e-14,0.017924,0,0.064151,-4.0172e-07,8.504e-11,144.14,34.078,-0.064151,0,-351.36,449.89,0,-1792.2,0,-650.89,1568.2,102,1,0.45,0,-0.45,0
2.3164e-14,0.017975,0,0.054051,-3.3847e-07,7.1651e-11,121.45,28.712,-0.054051,0,-331.96,438.82,0,-1775.8,0,-639.88,1553.4,102,1,0.455,0,-0.455,0
1.8835e-14,0.018025,0,0.04395,-2.7522e-07,5.8261e-11,98.751,23.347,-0.04395,0,-312.56,427.76,0,-1759.3,0,-628.88,1538.5,102,1,0.46,0,-0.46,0
1.4506e-14,0.018075,0,0.03385,-2.1197e-07,4.4872e-11,76.056,17.981,-0.03385,0,-293.16,416.7,0,-1742.8,0,-617.87,1523.6,102,1,0.465,0,-0.465,0
1.0178e-14,0.018126,0,0.023749,-1.4872e-07,3.1482e-11,53.361,12.616,-0.023749,0,-273.76,405.64,0,-1726.4,0,-606.87,1508.7,102,1,0.47,0,-0.47,0
5.8491e-15,0.018176,0,0.013648,-8.5467e-08,1.8093e-11,30.667,7.2502,-0.013648,0,-254.36,394.58,0,-1709.9,0,-595.86,1493.9,102,1,0.475,0,-0.475,0
1.5205e-15,0.018226,0,0.0035479,-2.2217e-08,4.7032e-12,7.9718,1.8847,-0.0035479,0,-234.96,383.52,0,-1693.4,0,-584.86,1479,102,1,0.48,0,-0.48,0
-2.6565e-20,0.018259,0,0,0,0,0,0,0,0,-227.09,377.86,0,-1681.4,0,-578.77,1468.2,102,1,0.485,0,-0.485,0
-2.6558e-20,0.018282,0,0,0,0,0,0,0,0,-225.46,375.13,0,-1671.7,0,-575.33,1459.7,102,1,0.49,0,-0.49,0
-2.6551e-20,0.018305,0,0,0,0,0,0,0,0,-223.83,372.4,0,-1662.1,0,-571.9,1451.2,102,1,0.495,0,-0.495,0
-2.6544e-20,0.018329,0,0,0,0,0,0,0,0,-222.2,369.67,0,-1652.4,0,-568.47,1442.6,102,1,0.5,0,-0.5,0
-2.6536e-20,0.018352,0,0,0,0,0,0,0,0,-220.57,366.94,0,-1642.8,0,-565.03,1434.1,102,1,0.505,0,-0.505,0
-2.6529e-20,0.018375,0,0,0,0,0,0,0,0,-218.93,364.21,0,-1633.1,0,-561.6,1425.6,102,1,0.51,0,-0.51,0
-2.6522e-20,0.018398,0,0,0,0,0,0,0,0,-217.3,361.48,0,-1623.5,0,-558.17,1417,102,1,0.515,0,-0.515,0
-2.6514e-20,0.018422,0,0,0,0,0,0,0,0,-215.67,358.75,0,-1613.8,0,-554.73,1408.5,102,1,0.52,0,-0.52,0
-2.6507e-20,0.018445,0,0,0,0,0,0,0,0,-214.04,356.02,0,-1604.2,0,-551.3,1400,102,1,0.525,0,-0.525,0
-2.65e-20,0.018468,0,0,0,0,0,0,0,0,-212.41,353.29,0,-1594.5,0,-547.87,1391.5,102,1,0.53,0,-0.53,0
-2.6492e-20,0.018491,0,0,0,0,0,0,0,0,-210.78,350.55,0,-1584.9,0,-544.43,1382.9,102,1,0.535,0,-0.535,0
-2.6485e-20,0.018515,0,0,0,0,0,0,0,0,-209.15,347.82,0,-1575.2,0,-541,1374.4,102,1,0.54,0,-0.54,0
-2.6478e-20,0.018538,0,0,0,0,0,0,0,0,-207.51,345.09,0,-1565.6,0,-537.57,1365.9,102,1,0.545,0,-0.545,0
-2.647e-20,0.018561,0,0,0,0,0,0,0,0,-205.88,342.36,0,-1555.9,0,-534.13,1357.3,102,1,0.55,0,-0.55,0
-2.6463e-20,0.018584,0,0,0,0,0,0,0,0,-204.25,339.63,0,-1546.3,0,-530.7,1348.8,102,1,0.555,0,-0.555,0
-2.6456e-20,0.018608,0,0,0,0,0,0,0,0,-202.62,336.9,0,-1536.6,0,-527.27,1340.3,102,1,0.56,0,-0.56,0
-2.6448e-20,0.018631,0,0,0,0,0,0,0,0,-200.99,334.17,0,-1527,0,-523.83,1331.7,102,1,0.565,0,-0.565,0
-2.6441e-20,0.018654,0,0,0,0,0,0,0,0,-199.36,331.44,0,-1517.3,0,-520.4,1323.2,102,1,0.57,0,-0.57,0
-2.6434e-20,0.018677,0,0,0,0,0,0,0,0,-197.72,328.71,0,-1507.7,0,-516.97,1314.7,102,1,0.575,0,-0.575,0
-2.6426e-20,0.018701,0,0,0,0,0,0,0,0,-196.09,325.98,0,-1498,0,-513.53,1306.1,102,1,0.58,0,-0.58,0
-2.6419e-20,0.018724,0,0,0,0,0,0,0,0,-194.46,323.25,0,-1488.4,0,-510.1,1297.6,102,1,0.585,0,-0.585,0
-2.6412e-20,0.018747,0,0,0,0,0,0,0,0,-192.83,320.52,0,-1478.8,0,-506.67,1289.1,102,1,0.59,0,-0.59,0
-2.6404e-20,0.01877,0,0,0,0,0,0,0,0,-191.2,317.79,0,-1469.1,0,-503.23,1280.5,102,1,0.595,0,-0.595,0
-2.6397e-20,0.018794,0,0,0,0,0,0,0,0,-189.57,315.06,0,-1459.5,0,-499.8,1272,102,1,0.6,0,-0.6,0
-2.639e-20,0.018817,0,0,0,0,0,0,0,0,-187.94,312.33,0,-1449.8,0,-496.37,1263.5,102,1,0.605,0,-0.605,0
-2.6383e-20,0.01884,0,0,0,0,0,0,0,0,-186.3,309.6,0,-1440.2,0,-492.93,1254.9,102,1,0.61,0,-0.61,0
-2.6375e-20,0.018863,0,0,0,0,0,0,0,0,-184.67,306.87,0,-1430.5,0,-489.5,1246.4,102,1,0.615,0,-0.615,0
-2.6368e-20,0.018887,0,0,0,0,0,0,0,0,-183.04,304.13,0,-1420.9,0,-486.07,1237.9,102,1,0.62,0,-0.62,0
-2.6361e-20,0.01891,0,0,0,0,0,0,0,0,-181.41,301.4,0,-1411.2,0,-482.63,1229.3,102,1,0.625,0,-0.625,0
-2.6353e-20,0.018933,0,0,0,0,0,0,0,0,-179.78,298.67,0,-1401.6,0,-479.2,1220.8,102,1,0.63,0,-0.63,0
-2.6346e-20,0.018956,0,0,0,0,0,0,0,0,-178.15,295.94,0,-1391.9,0,-475.77,1212.3,102,1,0.635,0,-0.635,0
-2.6339e-20,0.01898,0,0,0,0,0,0,0,0,-176.52,293.21,0,-1382.3,0,-472.33,1203.8,102,1,0.64,0,-0.64,0
-2.6331e-20,0.019003,0,0,0,0,0,0,0,0,-174.88,290.48,0,-1372.6,0,-468.9,1195.2,102,1,0.645,0,-0.645,0
-2.6324e-20,0.019026,0,0,0,0,0,0,0,0,-173.25,287.75,0,-1363,0,-465.47,1186.7,102,1,0.65,0,-0.65,0
-2.6317e-20,0.019049,0,0,0,0,0,0,0,0,-171.62,285.02,0,-1353.3,0,-462.03,1178.2,102,1,0.655,0,-0.655,0
-2.6309e-20,0.019073,0,0,0,0,0,0,0,0,-169.99,282.29,0,-1343.7,0,-458.6,1169.6,102,1,0.66,0,-0.66,0
-2.6302e-20,0.019096,0,0,0,0,0,0,0,0,-168.36,279.56,0,-1334,0,-455.17,1161.1,102,1,0.665,0,-0.665,0
-2.6295e-20,0.019119,0,0,0,0,0,0,0,0,-166.73,276.83,0,-1324.4,0,-451.73,1152.6,102,1,0.67,0,-0.67,0
-2.6287e-20,0.019142,0,0,0,0,0,0,0,0,-165.09,274.1,0,-1314.7,0,-448.3,1144,102,1,0.675,0,-0.675,0
-2.628e-20,0.019166,0,0,0,0,0,0,0,0,-163.46,271.37,0,-1305.1,0,-444.87,1135.5,102,1,0.68,0,-0.68,0
-2.6273e-20,0.019189,0,0,0,0,0,0,0,0,-161.83,268.64,0,-1295.4,0,-441.43,1127,102,1,0.685,0,-0.685,0
-2.6265e-20,0.019212,0,0,0,0,0,0,0,0,-160.2,265.91,0,-1285.8,0,-438,1118.4,102,1,0.69,0,-0.69,0
-2.6258e-20,0.019235,0,0,0,0,0,0,0,0,-158.57,263.18,0,-1276.1,0,-434.57,1109.9,102,1,0.695,0,-0.695,0
-2.6251e-20,0.019259,0,0,0,0,0,0,0,0,-156.94,260.44,0,-1266.5,0,-431.13,1101.4,102,1,0.7,0,-0.7,0
-2.6243e-20,0.019282,0,0,0,0,0,0,0,0,-155.31,257.71,0,-1256.8,0,-427.7,1092.8,102,1,0.705,0,-0.705,0
-2.6236e-20,0.019305,0,0,0,0,0,0,0,0,-153.67,254.98,0,-1247.2,0,-424.27,1084.3,102,1,0.71,0,-0.71,0
-2.6229e-20,0.019328,0,0,0,0,0,0,0,0,-152.04,252.25,0,-1237.5,0,-420.83,1075.8,102,1,0.715,0,-0.715,0
-2.6222e-20,0.019352,0,0,0,0,0,0,0,0,-150.41,249.52,0,-1227.9,0,-417.4,1067.2,102,1,0.72,0,-0.72,0
-2.6214e-20,0.019375,0,0,0,0,0,0,0,0,-148.78,246.79,0,-1218.2,0,-413.97,1058.7,102,1,0.725,0,-0.725,0
-2.6207e-20,0.019398,0,0,0,0,0,0,0,0,-147.15,244.06,0,-1208.6,0,-410.53,1050.2,102,1,0.73,0,-0.73,0
-2.62e-20,0.019421,0,0,0,0,0,0,0,0,-145.52,241.33,0,-1198.9,0,-407.1,1041.6,102,1,0.735,0,-0.735,0
-2.6192e-20,0.019445,0,0,0,0,0,0,0,0,-143.89,238.6,0,-1189.3,0,-403.67,1033.1,102,1,0.74,0,-0.74,0
-2.6185e-20,0.019468,0,0,0,0,0,0,0,0,-142.25,235.87,0,-1179.6,0,-400.23,1024.6,102,1,0.745,0,-0.745,0
-2.6178e-20,0.019491,0,0,0,0,0,0,0,0,-140.62,233.14,0,-1170,0,-396.8,1016.1,102,1,0.75,0,-0.75,0
-2.617e-20,0.019514,0,0,0,0,0,0,0,0,-138.99,230.41,0,-1160.3,0,-393.37,1007.5,102,1,0.755,0,-0.755,0
-2.6163e-20,0.019538,0,0,0,0,0,0,0,0,-137.36,227.68,0,-1150.7,0,-389.93,998.99,102,1,0.76,0,-0.76,0
-2.6156e-20,0.019561,0,0,0,0,0,0,0,0,-135.73,224.95,0,-1141,0,-386.5,990.45,102,1,0.765,0,-0.765,0
-2.6148e-20,0.019584,0,0,0,0,0,0,0,0,-134.1,222.22,0,-1131.4,0,-383.07,981.92,102,1,0.77,0,-0.77,0
-2.6141e-20,0.019607,0,0,0,0,0,0,0,0,-132.47,219.49,0,-1121.7,0,-379.63,973.39,102,1,0.775,0,-0.775,0
-2.6134e-20,0.019631,0,0,0,0,0,0,0,0,-130.83,216.76,0,-1112.1,0,-376.2,964.86,102,1,0.78,0,-0.78,0
-2.6126e-20,0.019654,0,0,0,0,0,0,0,0,-129.2,214.02,0,-1102.4,0,-372.77,956.33,102,1,0.785,0,-0.785,0
-2.6119e-20,0.019677,0,0,0,0,0,0,0,0,-127.57,211.29,0,-1092.8,0,-369.33,947.8,102,1,0.79,0,-0.79,0
-2.6112e-20,0.0197,0,0,0,0,0,0,0,0,-125.94,208.56,0,-1083.1,0,-365.9,939.26,102,1,0.795,0,-0.795,0
-2.6104e-20,0.019724,0,0,0,0,0,0,0,0,-124.31,205.83,0,-1073.5,0,-362.47,930.73,102,1,0.8,0,-0.8,0
-2.6097e-20,0.019747,0,0,0,0,0,0,0,0,-122.68,203.1,0,-1063.8,0,-359.03,922.2,102,1,0.805,0,-0.805,0
-2.609e-20,0.01977,0,0,0,0,0,0,0,0,-121.04,200.37,0,-1054.2,0,-355.6,913.67,102,1,0.81,0,-0.81,0
-2.6082e-20,0.019793,0,0,0,0,0,0,0,0,-119.41,197.64,0,-1044.5,0,-352.17,905.14,102,1,0.815,0,-0.815,0
-2.6075e-20,0.019817,0,0,0,0,0,0,0,0,-117.78,194.91,0,-1034.9,0,-348.73,896.6,102,1,0.82,0,-0.82,0
-2.6068e-20,0.01984,0,0,0,0,0,0,0,0,-116.15,192.18,0,-1025.2,0,-345.3,888.07,102,1,0.825,0,-0.825,0
-2.6061e-20,0.019863,0,0,0,0,0,0,0,0,-114.52,189.45,0,-1015.6,0,-341.87,879.54,102,1,0.83,0,-0.83,0
-2.6053e-20,0.019886,0,0,0,0,0,0,0,0,-112.89,186.72,0,-1005.9,0,-338.43,871.01,102,1,0.835,0,-0.835,0
-2.6046e-20,0.01991,0,0,0,0,0,0,0,0,-111.26,183.99,0,-996.29,0,-335,862.48,102,1,0.84,0,-0.84,0
-2.6039e-20,0.019933,0,0,0,0,0,0,0,0,-109.62,181.26,0,-986.64,0,-331.57,853.94,102,1,0.845,0,-0.845,0
-2.6031e-20,0.019956,0,0,0,0,0,0,0,0,-107.99,178.53,0,-976.99,0,-328.13,845.41,102,1,0.85,0,-0.85,0
-2.6024e-20,0.019979,0,0,0,0,0,0,0,0,-106.36,175.8,0,-967.34,0,-324.7,836.88,102,1,0.855,0,-0.855,0
-2.6017e-20,0.020003,0,0,0,0,0,0,0,0,-104.73,173.07,0,-957.69,0,-321.27,828.35,102,1,0.86,0,-0.86,0
-2.6009e-20,0.020026,0,0,0,0,0,0,0,0,-103.1,170.33,0,-948.04,0,-317.83,819.82,102,1,0.865,0,-0.865,0
-2.6002e-20,0.020049,0,0,0,0,0,0,0,0,-101.47,167.6,0,-938.39,0,-314.4,811.29,102,1,0.87,0,-0.87,0
-2.5995e-20,0.020072,0,0,0,0,0,0,0,0,-99.835,164.87,0,-928.74,0,-310.97,802.75,102,1,0.875,0,-0.875,0
-2.5987e-20,0.020096,0,0,0,0,0,0,0,0,-98.204,162.14,0,-919.1,0,-307.53,794.22,102,1,0.88,0,-0.88,0
-2.598e-20,0.020119,0,0,0,0,0,0,0,0,-96.572,159.41,0,-909.45,0,-304.1,785.69,102,1,0.885,0,-0.885,0
-2.5973e-20,0.020142,0,0,0,0,0,0,0,0,-94.941,156.68,0,-899.8,0,-300.67,777.16,102,1,0.89,0,-0.89,0
-2.5965e-20,0.020165,0,0,0,0,0,0,0,0,-93.309,153.95,0,-890.15,0,-297.23,768.63,102,1,0.895,0,-0.895,0
-2.5958e-20,0.020189,0,0,0,0,0,0,0,0,-91.678,151.22,0,-880.5,0,-293.8,760.09,102,1,0.9,0,-0.9,0
-2.5951e-20,0.020212,0,0,0,0,0,0,0,0,-90.046,148.49,0,-870.85,0,-290.37,751.56,102,1,0.905,0,-0.905,0
-2.5943e-20,0.020235,0,0,0,0,0,0,0,0,-88.415,145.76,0,-861.2,0,-286.93,743.03,102,1,0.91,0,-0.91,0
-2.5936e-20,0.020258,0,0,0,0,0,0,0,0,-86.783,143.03,0,-851.55,0,-283.5,734.5,102,1,0.915,0,-0.915,0
-2.5929e-20,0.020282,0,0,0,0,0,0,0,0,-85.152,140.3,0,-841.9,0,-280.07,725.97,102,1,0.92,0,-0.92,0
-2.5921e-20,0.020305,0,0,0,0,0,0,0,0,-83.52,137.57,0,-832.25,0,-276.63,717.43,102,1,0.925,0,-0.925,0
-2.5914e-20,0.020328,0,0,0,0,0,0,0,0,-81.889,134.84,0,-822.6,0,-273.2,708.9,102,1,0.93,0,-0.93,0
-2.5907e-20,0.020351,0,0,0,0,0,0,0,0,-80.257,132.11,0,-812.95,0,-269.77,700.37,102,1,0.935,0,-0.935,0
-2.59e-20,0.020375,0,0,0,0,0,0,0,0,-78.626,129.38,0,-803.3,0,-266.33,691.84,102,1,0.94,0,-0.94,0
-2.5892e-20,0.020398,0,0,0,0,0,0,0,0,-76.994,126.65,0,-793.66,0,-262.9,683.31,102,1,0.945,0,-0.945,0
-2.5885e-20,0.020421,0,0,0,0,0,0,0,0,-75.363,123.91,0,-784.01,0,-259.47,674.78,102,1,0.95,0,-0.95,0
-2.5878e-20,0.020444,0,0,0,0,0,0,0,0,-73.731,121.18,0,-774.36,0,-256.03,666.24,102,1,0.955,0,-0.955,0
-2.587e-20,0.020468,0,0,0,0,0,0,0,0,-72.1,118.45,0,-764.71,0,-252.6,657.71,102,1,0.96,0,-0.96,0
-2.5863e-20,0.020491,0,0,0,0,0,0,0,0,-70.469,115.72,0,-755.06,0,-249.17,649.18,102,1,0.965,0,-0.965,0
-2.5856e-20,0.020514,0,0,0,0,0,0,0,0,-68.837,112.99,0,-745.41,0,-245.73,640.65,102,1,0.97,0,-0.97,0
-2.5848e-20,0.020537,0,0,0,0,0,0,0,0,-67.206,110.26,0,-735.76,0,-242.3,632.12,102,1,0.975,0,-0.975,0
-2.5841e-20,0.020561,0,0,0,0,0,0,0,0,-65.574,107.53,0,-726.11,0,-238.87,623.58,102,1,0.98,0,-0.98,0
-2.5834e-20,0.020584,0,0,0,0,0,0,0,0,-63.943,104.8,0,-716.46,0,-235.43,615.05,102,1,0.985,0,-0.985,0
-2.5826e-20,0.020607,0,0,0,0,0,0,0,0,-62.311,102.07,0,-706.81,0,-232,606.52,102,1,0.99,0,-0.99,0
-2.5819e-20,0.02063,0,0,0,0,0,0,0,0,-60.68,99.339,0,-697.16,0,-228.57,597.99,102,1,0.995,0,-0.995,0
-2.5812e-20,0.020654,0,0,0,0,0,0,0,0,-59.048,96.608,0,-687.51,0,-225.13,589.46,102,1,1,0,-1,0
-2.5804e-20,0.020677,0,0,0,0,0,0,0,0,-57.417,93.878,0,-677.86,0,-221.7,580.92,102,1,1.005,0,-1.005,0
-2.5797e-20,0.0207,0,0,0,0,0,0,0,0,-55.785,91.147,0,-668.21,0,-218.27,572.39,102,1,1.01,0,-1.01,0
-2.579e-20,0.020723,0,0,0,0,0,0,0,0,-54.154,88.417,0,-658.57,0,-214.83,563.86,102,1,1.015,0,-1.015,0
-2.5782e-20,0.020747,0,0,0,0,0,0,0,0,-52.522,85.686,0,-648.92,0,-211.4,555.33,102,1,1.02,0,-1.02,0
-2.5775e-20,0.020766,0,0,0,0,0,0,0,0,-51.411,83.73,0,-641.78,0,-208.89,549,102,1,1.025,0,-1.025,0
-2.5768e-20,0.020776,0,0,0,0,0,0,0,0,-51.311,83.282,0,-639.53,0,-208.18,546.95,102,1,1.03,0,-1.03,0
-2.5761e-20,0.020787,0,0,0,0,0,0,0,0,-51.212,82.833,0,-637.27,0,-207.47,544.91,102,1,1.035,0,-1.035,0
-2.5755e-20,0.020798,0,0,0,0,0,0,0,0,-51.112,82.385,0,-635.02,0,-206.76,542.86,102,1,1.04,0,-1.04,0
-2.5748e-20,0.020809,0,0,0,0,0,0,0,0,-51.013,81.936,0,-632.77,0,-206.05,540.81,102,1,1.045,0,-1.045,0
-2.5741e-20,0.02082,0,0,0,0,0,0,0,0,-50.914,81.488,0,-630.52,0,-205.34,538.77,102,1,1.05,0,-1.05,0
-2.5734e-20,0.020831,0,0,0,0,0,0,0,0,-50.814,81.04,0,-628.27,0,-204.63,536.72,102,1,1.055,0,-1.055,0
-2.5727e-20,0.020842,0,0,0,0,0,0,0,0,-50.715,80.591,0,-626.01,0,-203.92,534.67,102,1,1.06,0,-1.06,0
-2.572e-20,0.020852,0,0,0,0,0,0,0,0,-50.615,80.143,0,-623.76,0,-203.21,532.63,102,1,1.065,0,-1.065,0
-2.5713e-20,0.020863,0,0,0,0,0,0,0,0,-50.516,79.695,0,-621.51,0,-202.5,530.58,102,1,1.07,0,-1.07,0
-2.5706e-20,0.020874,0,0,0,0,0,0,0,0,-50.417,79.246,0,-619.26,0,-201.79,528.54,102,1,1.075,0,-1.075,0
-2.57e-20,0.020885,0,0,0,0,0,0,0,0,-50.317,78.798,0,-617.01,0,-201.08,526.49,102,1,1.08,0,-1.08,0
-2.5693e-20,0.020896,0,0,0,0,0,0,0,0,-50.218,78.35,0,-614.76,0,-200.37,524.44,102,1,1.085,0,-1.085,0
-2.5686e-20,0.020907,0,0,0,0,0,0,0,0,-50.118,77.901,0,-612.5,0,-199.66,522.4,102,1,1.09,0,-1.09,0
-2.5679e-20,0.020918,0,0,0,0,0,0,0,0,-50.019,77.453,0,-610.25,0,-198.95,520.35,102,1,1.095,0,-1.095,0
-2.5672e-20,0.020928,0,0,0,0,0,0,0,0,-49.92,77.004,0,-608,0,-198.24,518.31,102,1,1.1,0,-1.1,0
-2.5665e-20,0.020939,0,0,0,0,0,0,0,0,-49.82,76.556,0,-605.75,0,-197.53,516.26,102,1,1.105,0,-1.105,0
-2.5658e-20,0.02095,0,0,0,0,0,0,0,0,-49.721,76.108,0,-603.5,0,-196.82,514.21,102,1,1.11,0,-1.11,0
-2.5651e-20,0.020961,0,0,0,0,0,0,0,0,-49.622,75.659,0,-601.24,0,-196.11,512.17,102,1,1.115,0,-1.115,0
-2.5644e-20,0.020972,0,0,0,0,0,0,0,0,-49.522,75.211,0,-598.99,0,-195.4,510.12,102,1,1.12,0,-1.12,0
-2.5638e-20,0.020983,0,0,0,0,0,0,0,0,-49.423,74.763,0,-596.74,0,-194.69,508.08,102,1,1.125,0,-1.125,0
-2.5631e-20,0.020994,0,0,0,0,0,0,0,0,-49.323,74.314,0,-594.49,0,-193.98,506.03,102,1,1.13,0,-1.13,0
-2.5624e-20,0.021004,0,0,0,0,0,0,0,0,-49.224,73.866,0,-592.24,0,-193.27,503.98,102,1,1.135,0,-1.135,0
-2.5617e-20,0.021015,0,0,0,0,0,0,0,0,-49.125,73.418,0,-589.99,0,-192.56,501.94,102,1,1.14,0,-1.14,0
-2.561e-20,0.021026,0,0,0,0,0,0,0,0,-49.025,72.969,0,-587.73,0,-191.84,499.89,102,1,1.145,0,-1.145,0
-2.5603e-20,0.021037,0,0,0,0,0,0,0,0,-48.926,72.521,0,-585.48,0,-191.13,497.84,102,1,1.15,0,-1.15,0
-2.5596e-20,0.021048,0,0,0,0,0,0,0,0,-48.826,72.073,0,-583.23,0,-190.42,495.8,102,1,1.155,0,-1.155,0
-2.5589e-20,0.021059,0,0,0,0,0,0,0,0,-48.727,71.624,0,-580.98,0,-189.71,493.75,102,1,1.16,0,-1.16,0
-2.5582e-20,0.021069,0,0,0,0,0,0,0,0,-48.628,71.176,0,-578.73,0,-189,491.71,102,1,1.165,0,-1.165,0
-2.5576e-20,0.02108,0,0,0,0,0,0,0,0,-48.528,70.727,0,-576.47,0,-188.29,489.66,102,1,1.17,0,-1.17,0
-2.5569e-20,0.021091,0,0,0,0,0,0,0,0,-48.429,70.279,0,-574.22,0,-187.58,487.61,102,1,1.175,0,-1.175,0
-2.5562e-20,0.021102,0,0,0,0,0,0,0,0,-48.329,69.831,0,-571.97,0,-186.87,485.57,102,1,1.18,0,-1.18,0
-2.5555e-20,0.021113,0,0,0,0,0,0,0,0,-48.23,69.382,0,-569.72,0,-186.16,483.52,102,1,1.185,0,-1.185,0
-2.5548e-20,0.021124,0,0,0,0,0,0,0,0,-48.131,68.934,0,-567.47,0,-185.45,481.48,102,1,1.19,0,-1.19,0
-2.5541e-20,0.021135,0,0,0,0,0,0,0,0,-48.031,68.486,0,-565.22,0,-184.74,479.43,102,1,1.195,0,-1.195,0
-2.5534e-20,0.021145,0,0,0,0,0,0,0,0,-47.932,68.037,0,-562.96,0,-184.03,477.38,102,1,1.2,0,-1.2,0
-2.5527e-20,0.021156,0,0,0,0,0,0,0,0,-47.832,67.589,0,-560.71,0,-183.32,475.34,102,1,1.205,0,-1.205,0
-2.552e-20,0.021167,0,0,0,0,0,0,0,0,-47.733,67.141,0,-558.46,0,-182.61,473.29,102,1,1.21,0,-1.21,0
-2.5514e-20,0.021178,0,0,0,0,0,0,0,0,-47.634,66.692,0,-556.21,0,-181.9,471.25,102,1,1.215,0,-1.215,0
-2.5507e-20,0.021189,0,0,0,0,0,0,0,0,-47.534,66.244,0,-553.96,0,-181.19,469.2,102,1,1.22,0,-1.22,0
-2.55e-20,0.0212,0,0,0,0,0,0,0,0,-47.435,65.796,0,-551.7,0,-180.48,467.15,102,1,1.225,0,-1.225,0
-2.5493e-20,0.021211,0,0,0,0,0,0,0,0,-47.336,65.347,0,-549.45,0,-179.77,465.11,102,1,1.23,0,-1.23,0
-2.5486e-20,0.021221,0,0,0,0,0,0,0,0,-47.236,64.899,0,-547.2,0,-179.06,463.06,102,1,1.235,0,-1.235,0
-2.5479e-20,0.021232,0,0,0,0,0,0,0,0,-47.137,64.45,0,-544.95,0,-178.35,461.01,102,1,1.24,0,-1.24,0
-2.5472e-20,0.021243,0,0,0,0,0,0,0,0,-47.037,64.002,0,-542.7,0,-177.64,458.97,102,1,1.245,0,-1.245,0
-2.5465e-20,0.021254,0,0,0,0,0,0,0,0,-46.938,63.554,0,-540.45,0,-176.93,456.92,102,1,1.25,0,-1.25,0
-2.5459e-20,0.021265,0,0,0,0,0,0,0,0,-46.839,63.105,0,-538.19,0,-176.22,454.88,102,1,1.255,0,-1.255,0
-2.5452e-20,0.021276,0,0,0,0,0,0,0,0,-46.739,62.657,0,-535.94,0,-175.51,452.83,102,1,1.26,0,-1.26,0
-2.5445e-20,0.021287,0,0,0,0,0,0,0,0,-46.64,62.209,0,-533.69,0,-174.8,450.78,102,1,1.265,0,-1.265,0
-2.5438e-20,0.021297,0,0,0,0,0,0,0,0,-46.54,61.76,0,-531.44,0,-174.09,448.74,102,1,1.27,0,-1.27,0
-2.5431e-20,0.021308,0,0,0,0,0,0,0,0,-46.441,61.312,0,-529.19,0,-173.38,446.69,102,1,1.275,0,-1.275,0
-2.5424e-20,0.021319,0,0,0,0,0,0,0,0,-46.342,60.864,0,-526.93,0,-172.67,444.65,102,1,1.28,0,-1.28,0
-2.5417e-20,0.02133,0,0,0,0,0,0,0,0,-46.242,60.415,0,-524.68,0,-171.96,442.6,102,1,1.285,0,-1.285,0
-2.541e-20,0.021341,0,0,0,0,0,0,0,0,-46.143,59.967,0,-522.43,0,-171.25,440.55,102,1,1.29,0,-1.29,0
-2.5403e-20,0.021352,0,0,0,0,0,0,0,0,-46.043,59.519,0,-520.18,0,-170.54,438.51,102,1,1.295,0,-1.295,0
-2.5397e-20,0.021363,0,0,0,0,0,0,0,0,-45.944,59.07,0,-517.93,0,-169.83,436.46,102,1,1.3,0,-1.3,0
-2.539e-20,0.021373,0,0,0,0,0,0,0,0,-45.845,58.622,0,-515.68,0,-169.12,434.42,102,1,1.305,0,-1.305,0
-2.5383e-20,0.021384,0,0,0,0,0,0,0,0,-45.745,58.173,0,-513.42,0,-168.41,432.37,102,1,1.31,0,-1.31,0
-2.5376e-20,0.021395,0,0,0,0,0,0,0,0,-45.646,57.725,0,-511.17,0,-167.7,430.32,102,1,1.315,0,-1.315,0
-2.5369e-20,0.021406,0,0,0,0,0,0,0,0,-45.547,57.277,0,-508.92,0,-166.99,428.28,102,1,1.32,0,-1.32,0
-2.5362e-20,0.021417,0,0,0,0,0,0,0,0,-45.447,56.828,0,-506.67,0,-166.28,426.23,102,1,1.325,0,-1.325,0
-2.5355e-20,0.021428,0,0,0,0,0,0,0,0,-45.348,56.38,0,-504.42,0,-165.57,424.18,102,1,1.33,0,-1.33,0
-2.5348e-20,0.021438,0,0,0,0,0,0,0,0,-45.248,55.932,0,-502.16,0,-164.86,422.14,102,1,1.335,0,-1.335,0
-2.5341e-20,0.021449,0,0,0,0,0,0,0,0,-45.149,55.483,0,-499.91,0,-164.15,420.09,102,1,1.34,0,-1.34,0
-2.5335e-20,0.02146,0,0,0,0,0,0,0,0,-45.05,55.035,0,-497.66,0,-163.43,418.05,102,1,1.345,0,-1.345,0
-2.5328e-20,0.021471,0,0,0,0,0,0,0,0,-44.95,54.587,0,-495.41,0,-162.72,416,102,1,1.35,0,-1.35,0
-2.5321e-20,0.021482,0,0,0,0,0,0,0,0,-44.851,54.138,0,-493.16,0,-162.01,413.95,102,1,1.355,0,-1.355,0
-2.5314e-20,0.021493,0,0,0,0,0,0,0,0,-44.751,53.69,0,-490.91,0,-161.3,411.91,102,1,1.36,0,-1.36,0
-2.5307e-20,0.021504,0,0,0,0,0,0,0,0,-44.652,53.241,0,-488.65,0,-160.59,409.86,102,1,1.365,0,-1.365,0
-2.53e-20,0.021514,0,0,0,0,0,0,0,0,-44.553,52.793,0,-486.4,0,-159.88,407.82,102,1,1.37,0,-1.37,0
-2.5293e-20,0.021525,0,0,0,0,0,0,0,0,-44.453,52.345,0,-484.15,0,-159.17,405.77,102,1,1.375,0,-1.375,0
-2.5286e-20,0.021536,0,0,0,0,0,0,0,0,-44.354,51.896,0,-481.9,0,-158.46,403.72,102,1,1.38,0,-1.38,0
-2.5279e-20,0.021547,0,0,0,0,0,0,0,0,-44.254,51.448,0,-479.65,0,-157.75,401.68,102,1,1.385,0,-1.385,0
-2.5273e-20,0.021558,0,0,0,0,0,0,0,0,-44.155,51,0,-477.39,0,-157.04,399.63,102,1,1.39,0,-1.39,0
-2.5266e-20,0.021569,0,0,0,0,0,0,0,0,-44.056,50.551,0,-475.14,0,-156.33,397.59,102,1,1.395,0,-1.395,0
-2.5259e-20,0.02158,0,0,0,0,0,0,0,0,-43.956,50.103,0,-472.89,0,-155.62,395.54,102,1,1.4,0,-1.4,0
-2.5252e-20,0.02159,0,0,0,0,0,0,0,0,-43.857,49.655,0,-470.64,0,-154.91,393.49,102,1,1.405,0,-1.405,0
-2.5245e-20,0.021601,0,0,0,0,0,0,0,0,-43.758,49.206,0,-468.39,0,-154.2,391.45,102,1,1.41,0,-1.41,0
-2.5238e-20,0.021612,0,0,0,0,0,0,0,0,-43.658,48.758,0,-466.14,0,-153.49,389.4,102,1,1.415,0,-1.415,0
-2.5231e-20,0.021623,0,0,0,0,0,0,0,0,-43.559,48.31,0,-463.88,0,-152.78,387.35,102,1,1.42,0,-1.42,0
-2.5224e-20,0.021634,0,0,0,0,0,0,0,0,-43.459,47.861,0,-461.63,0,-152.07,385.31,102,1,1.425,0,-1.425,0
-2.5218e-20,0.021645,0,0,0,0,0,0,0,0,-43.36,47.413,0,-459.38,0,-151.36,383.26,102,1,1.43,0,-1.43,0
-2.5211e-20,0.021656,0,0,0,0,0,0,0,0,-43.261,46.964,0,-457.13,0,-150.65,381.22,102,1,1.435,0,-1.435,0
-2.5204e-20,0.021666,0,0,0,0,0,0,0,0,-43.161,46.516,0,-454.88,0,-149.94,379.17,102,1,1.44,0,-1.44,0
-2.5197e-20,0.021677,0,0,0,0,0,0,0,0,-43.062,46.068,0,-452.62,0,-149.23,377.12,102,1,1.445,0,-1.445,0
-2.519e-20,0.021688,0,0,0,0,0,0,0,0,-42.962,45.619,0,-450.37,0,-148.52,375.08,102,1,1.45,0,-1.45,0
-2.5183e-20,0.021699,0,0,0,0,0,0,0,0,-42.863,45.171,0,-448.12,0,-147.81,373.03,102,1,1.455,0,-1.455,0
-2.5176e-20,0.02171,0,0,0,0,0,0,0,0,-42.764,44.723,0,-445.87,0,-147.1,370.99,102,1,1.46,0,-1.46,0
-2.5169e-20,0.021721,0,0,0,0,0,0,0,0,-42.664,44.274,0,-443.62,0,-146.39,368.94,102,1,1.465,0,-1.465,0
-2.5162e-20,0.021732,0,0,0,0,0,0,0,0,-42.565,43.826,0,-441.37,0,-145.68,366.89,102,1,1.47,0,-1.47,0
-2.5156e-20,0.021742,0,0,0,0,0,0,0,0,-42.465,43.378,0,-439.11,0,-144.97,364.85,102,1,1.475,0,-1.475,0
-2.5149e-20,0.021753,0,0,0,0,0,0,0,0,-42.366,42.929,0,-436.86,0,-144.26,362.8,102,1,1.48,0,-1.48,0
-2.5142e-20,0.021764,0,0,0,0,0,0,0,0,-42.267,42.481,0,-434.61,0,-143.55,360.76,102,1,1.485,0,-1.485,0
-2.5135e-20,0.021775,0,0,0,0,0,0,0,0,-42.167,42.033,0,-432.36,0,-142.84,358.71,102,1,1.49,0,-1.49,0
-2.5128e-20,0.021786,0,0,0,0,0,0,0,0,-42.068,41.584,0,-430.11,0,-142.13,356.66,102,1,1.495,0,-1.495,0
-2.5121e-20,0.021797,0,0,0,0,0,0,0,0,-41.969,41.136,0,-427.86,0,-141.42,354.62,102,1,1.5,0,-1.5,0
-2.5114e-20,0.021807,0,0,0,0,0,0,0,0,-41.869,40.687,0,-425.6,0,-140.71,352.57,102,1,1.505,0,-1.505,0
-2.5107e-20,0.021818,0,0,0,0,0,0,0,0,-41.77,40.239,0,-423.35,0,-140,350.53,102,1,1.51,0,-1.51,0
-2.51e-20,0.021829,0,0,0,0,0,0,0,0,-41.67,39.791,0,-421.1,0,-139.29,348.48,102,1,1.515,0,-1.515,0
-2.5094e-20,0.02184,0,0,0,0,0,0,0,0,-41.571,39.342,0,-418.85,0,-138.58,346.43,102,1,1.52,0,-1.52,0
-2.5087e-20,0.021851,0,0,0,0,0,0,0,0,-41.472,38.894,0,-416.6,0,-137.87,344.39,102,1,1.525,0,-1.525,0
-2.508e-20,0.021862,0,0,0,0,0,0,0,0,-41.372,38.446,0,-414.34,0,-137.16,342.34,102,1,1.53,0,-1.53,0
-2.5073e-20,0.021873,0,0,0,0,0,0,0,0,-41.273,37.997,0,-412.09,0,-136.45,340.29,102,1,1.535,0,-1.535,0
-2.5066e-20,0.021883,0,0,0,0,0,0,0,0,-41.173,37.549,0,-409.84,0,-135.74,338.25,102,1,1.54,0,-1.54,0
-2.5059e-20,0.021894,0,0,0,0,0,0,0,0,-41.074,37.101,0,-407.59,0,-135.02,336.2,102,1,1.545,0,-1.545,0
-2.5052e-20,0.021905,0,0,0,0,0,0,0,0,-40.975,36.652,0,-405.34,0,-134.31,334.16,102,1,1.55,0,-1.55,0
-2.5045e-20,0.021916,0,0,0,0,0,0,0,0,-40.875,36.204,0,-403.09,0,-133.6,332.11,102,1,1.555,0,-1.555,0
-2.5038e-20,0.021927,0,0,0,0,0,0,0,0,-40.776,35.755,0,-400.83,0,-132.89,330.06,102,1,1.56,0,-1.56,0
-2.5032e-20,0.021938,0,0,0,0,0,0,0,0,-40.676,35.307,0,-398.58,0,-132.18,328.02,102,1,1.565,0,-1.565,0
-2.5025e-20,0.021949,0,0,0,0,0,0,0,0,-40.577,34.859,0,-396.33,0,-131.47,325.97,102,1,1.57,0,-1.57,0
-2.5018e-20,0.021959,0,0,0,0,0,0,0,0,-40.478,34.41,0,-394.08,0,-130.76,323.93,102,1,1.575,0,-1.575,0
-2.5011e-20,0.02197,0,0,0,0,0,0,0,0,-40.378,33.962,0,-391.83,0,-130.05,321.88,102,1,1.58,0,-1.58,0
-2.5004e-20,0.021981,0,0,0,0,0,0,0,0,-40.279,33.514,0,-389.57,0,-129.34,319.83,102,1,1.585,0,-1.585,0
-2.4997e-20,0.021992,0,0,0,0,0,0,0,0,-40.179,33.065,0,-387.32,0,-128.63,317.79,102,1,1.59,0,-1.59,0
-2.499e-20,0.022003,0,0,0,0,0,0,0,0,-40.08,32.617,0,-385.07,0,-127.92,315.74,102,1,1.595,0,-1.595,0
-2.4983e-20,0.022014,0,0,0,0,0,0,0,0,-39.981,32.169,0,-382.82,0,-127.21,313.7,102,1,1.6,0,-1.6,0
-2.4977e-20,0.022025,0,0,0,0,0,0,0,0,-39.881,31.72,0,-380.57,0,-126.5,311.65,102,1,1.605,0,-1.605,0
-2.497e-20,0.022035,0,0,0,0,0,0,0,0,-39.782,31.272,0,-378.32,0,-125.79,309.6,102,1,1.61,0,-1.61,0
-2.4963e-20,0.022046,0,0,0,0,0,0,0,0,-39.683,30.824,0,-376.06,0,-125.08,307.56,102,1,1.615,0,-1.615,0
-2.4956e-20,0.022057,0,0,0,0,0,0,0,0,-39.583,30.375,0,-373.81,0,-124.37,305.51,102,1,1.62,0,-1.62,0
-2.4949e-20,0.022067,0,0,0,0,0,0,0,0,-39.508,30.006,0,-371.87,0,-123.76,303.75,102,1,1.625,0,-1.625,0
-2.4943e-20,0.022073,0,0,0,0,0,0,0,0,-39.507,29.883,0,-370.92,0,-123.47,302.88,102,1,1.63,0,-1.63,0
-2.4937e-20,0.02208,0,0,0,0,0,0,0,0,-39.506,29.76,0,-369.96,0,-123.18,302.01,102,1,1.635,0,-1.635,0
-2.493e-20,0.022086,0,0,0,0,0,0,0,0,-39.505,29.637,0,-369,0,-122.9,301.14,102,1,1.64,0,-1.64,0
-2.4924e-20,0.022093,0,0,0,0,0,0,0,0,-39.504,29.514,0,-368.04,0,-122.61,300.27,102,1,1.645,0,-1.645,0
-2.4918e-20,0.022099,0,0,0,0,0,0,0,0,-39.503,29.391,0,-367.08,0,-122.32,299.39,102,1,1.65,0,-1.65,0
-2.4911e-20,0.022106,0,0,0,0,0,0,0,0,-39.502,29.268,0,-366.12,0,-122.03,298.52,102,1,1.655,0,-1.655,0
-2.4905e-20,0.022113,0,0,0,0,0,0,0,0,-39.502,29.145,0,-365.17,0,-121.74,297.65,102,1,1.66,0,-1.66,0
-2.4899e-20,0.022119,0,0,0,0,0,0,0,0,-39.501,29.023,0,-364.21,0,-121.45,296.78,102,1,1.665,0,-1.665,0
-2.4892e-20,0.022126,0,0,0,0,0,0,0,0,-39.5,28.9,0,-363.25,0,-121.16,295.91,102,1,1.67,0,-1.67,0
-2.4886e-20,0.022132,0,0,0,0,0,0,0,0,-39.499,28.777,0,-362.29,0,-120.87,295.04,102,1,1.675,0,-1.675,0
-2.488e-20,0.022139,0,0,0,0,0,0,0,0,-39.498,28.654,0,-361.33,0,-120.58,294.17,102,1,1.68,0,-1.68,0
-2.4874e-20,0.022145,0,0,0,0,0,0,0,0,-39.497,28.531,0,-360.37,0,-120.29,293.29,102,1,1.685,0,-1.685,0
-2.4867e-20,0.022152,0,0,0,0,0,0,0,0,-39.496,28.408,0,-359.42,0,-120,292.42,102,1,1.69,0,-1.69,0
-2.4861e-20,0.022158,0,0,0,0,0,0,0,0,-39.495,28.285,0,-358.46,0,-119.71,291.55,102,1,1.695,0,-1.695,0
-2.4855e-20,0.022165,0,0,0,0,0,0,0,0,-39.495,28.162,0,-357.5,0,-119.42,290.68,102,1,1.7,0,-1.7,0
-2.4848e-20,0.022171,0,0,0,0,0,0,0,0,-39.494,28.039,0,-356.54,0,-119.13,289.81,102,1,1.705,0,-1.705,0
-2.4842e-20,0.022178,0,0,0,0,0,0,0,0,-39.493,27.916,0,-355.58,0,-118.84,288.94,102,1,1.71,0,-1.71,0
-2.4836e-20,0.022184,0,0,0,0,0,0,0,0,-39.492,27.793,0,-354.62,0,-118.55,288.07,102,1,1.715,0,-1.715,0
-2.483e-20,0.022191,0,0,0,0,0,0,0,0,-39.491,27.67,0,-353.67,0,-118.27,287.19,102,1,1.72,0,-1.72,0
-2.4823e-20,0.022197,0,0,0,0,0,0,0,0,-39.49,27.547,0,-352.71,0,-117.98,286.32,102,1,1.725,0,-1.725,0
-2.4817e-20,0.022204,0,0,0,0,0,0,0,0,-39.489,27.424,0,-351.75,0,-117.69,285.45,102,1,1.73,0,-1.73,0
-2.4811e-20,0.02221,0,0,0,0,0,0,0,0,-39.488,27.301,0,-350.79,0,-117.4,284.58,102,1,1.735,0,-1.735,0
-2.4804e-20,0.022217,0,0,0,0,0,0,0,0,-39.487,27.178,0,-349.83,0,-117.11,283.71,102,1,1.74,0,-1.74,0
-2.4798e-20,0.022223,0,0,0,0,0,0,0,0,-39.487,27.055,0,-348.87,0,-116.82,282.84,102,1,1.745,0,-1.745,0
-2.4792e-20,0.02223,0,0,0,0,0,0,0,0,-39.486,26.932,0,-347.92,0,-116.53,281.97,102,1,1.75,0,-1.75,0
-2.4785e-20,0.022236,0,0,0,0,0,0,0,0,-39.485,26.809,0,-346.96,0,-116.24,281.09,102,1,1.755,0,-1.755,0
-2.4779e-20,0.022243,0,0,0,0,0,0,0,0,-39.484,26.686,0,-346,0,-115.95,280.22,102,1,1.76,0,-1.76,0
-2.4773e-20,0.022249,0,0,0,0,0,0,0,0,-39.483,26.564,0,-345.04,0,-115.66,279.35,102,1,1.765,0,-1.765,0
-2.4767e-20,0.022256,0,0,0,0,0,0,0,0,-39.482,26.441,0,-344.08,0,-115.37,278.48,102,1,1.77,0,-1.77,0
-2.476e-20,0.022262,0,0,0,0,0,0,0,0,-39.481,26.318,0,-343.12,0,-115.08,277.61,102,1,1.775,0,-1.775,0
-2.4754e-20,0.022269,0,0,0,0,0,0,0,0,-39.48,26.195,0,-342.17,0,-114.79,276.74,102,1,1.78,0,-1.78,0
-2.4748e-20,0.022275,0,0,0,0,0,0,0,0,-39.479,26.072,0,-341.21,0,-114.5,275.87,102,1,1.785,0,-1.785,0
-2.4741e-20,0.022282,0,0,0,0,0,0,0,0,-39.479,25.949,0,-340.25,0,-114.21,274.99,102,1,1.79,0,-1.79,0
-2.4735e-20,0.022288,0,0,0,0,0,0,0,0,-39.478,25.826,0,-339.29,0,-113.92,274.12,102,1,1.795,0,-1.795,0
-2.4729e-20,0.022295,0,0,0,0,0,0,0,0,-39.477,25.703,0,-338.33,0,-113.64,273.25,102,1,1.8,0,-1.8,0
-2.4723e-20,0.022301,0,0,0,0,0,0,0,0,-39.476,25.58,0,-337.37,0,-113.35,272.38,102,1,1.805,0,-1.805,0
-2.4716e-20,0.022308,0,0,0,0,0,0,0,0,-39.475,25.457,0,-336.41,0,-113.06,271.51,102,1,1.81,0,-1.81,0
-2.471e-20,0.022315,0,0,0,0,0,0,0,0,-39.474,25.334,0,-335.46,0,-112.77,270.64,102,1,1.815,0,-1.815,0
-2.4704e-20,0.022321,0,0,0,0,0,0,0,0,-39.473,25.211,0,-334.5,0,-112.48,269.77,102,1,1.82,0,-1.82,0
-2.4697e-20,0.022328,0,0,0,0,0,0,0,0,-39.472,25.088,0,-333.54,0,-112.19,268.89,102,1,1.825,0,-1.825,0
-2.4691e-20,0.022334,0,0,0,0,0,0,0,0,-39.472,24.965,0,-332.58,0,-111.9,268.02,102,1,1.83,0,-1.83,0
-2.4685e-20,0.022341,0,0,0,0,0,0,0,0,-39.471,24.842,0,-331.62,0,-111.61,267.15,102,1,1.835,0,-1.835,0
-2.4678e-20,0.022347,0,0,0,0,0,0,0,0,-39.47,24.719,0,-330.66,0,-111.32,266.28,102,1,1.84,0,-1.84,0
-2.4672e-20,0.022354,0,0,0,0,0,0,0,0,-39.469,24.596,0,-329.71,0,-111.03,265.41,102,1,1.845,0,-1.845,0
-2.4666e-20,0.02236,0,0,0,0,0,0,0,0,-39.468,24.473,0,-328.75,0,-110.74,264.54,102,1,1.85,0,-1.85,0
-2.466e-20,0.022367,0,0,0,0,0,0,0,0,-39.467,24.35,0,-327.79,0,-110.45,263.67,102,1,1.855,0,-1.855,0
-2.4653e-20,0.022373,0,0,0,0,0,0,0,0,-39.466,24.227,0,-326.83,0,-110.16,262.79,102,1,1.86,0,-1.86,0
-2.4647e-20,0.02238,0,0,0,0,0,0,0,0,-39.465,24.105,0,-325.87,0,-109.87,261.92,102,1,1.865,0,-1.865,0
-2.4641e-20,0.022386,0,0,0,0,0,0,0,0,-39.464,23.982,0,-324.91,0,-109.58,261.05,102,1,1.87,0,-1.87,0
-2.4634e-20,0.022393,0,0,0,0,0,0,0,0,-39.464,23.859,0,-323.96,0,-109.29,260.18,102,1,1.875,0,-1.875,0
-2.4628e-20,0.022399,0,0,0,0,0,0,0,0,-39.463,23.736,0,-323,0,-109.01,259.31,102,1,1.88,0,-1.88,0
-2.4622e-20,0.022406,0,0,0,0,0,0,0,0,-39.462,23.613,0,-322.04,0,-108.72,258.44,102,1,1.885,0,-1.885,0
-2.4615e-20,0.022412,0,0,0,0,0,0,0,0,-39.461,23.49,0,-321.08,0,-108.43,257.57,102,1,1.89,0,-1.89,0
-2.4609e-20,0.022419,0,0,0,0,0,0,0,0,-39.46,23.367,0,-320.12,0,-108.14,256.69,102,1,1.895,0,-1.895,0
-2.4603e-20,0.022425,0,0,0,0,0,0,0,0,-39.459,23.244,0,-319.16,0,-107.85,255.82,102,1,1.9,0,-1.9,0
-2.4597e-20,0.022432,0,0,0,0,0,0,0,0,-39.458,23.121,0,-318.21,0,-107.56,254.95,102,1,1.905,0,-1.905,0
-2.459e-20,0.022438,0,0,0,0,0,0,0,0,-39.457,22.998,0,-317.25,0,-107.27,254.08,102,1,1.91,0,-1.91,0
-2.4584e-20,0.022445,0,0,0,0,0,0,0,0,-39.457,22.875,0,-316.29,0,-106.98,253.21,102,1,1.915,0,-1.915,0
-2.4578e-20,0.022451,0,0,0,0,0,0,0,0,-39.456,22.752,0,-315.33,0,-106.69,252.34,102,1,1.92,0,-1.92,0
-2.4571e-20,0.022458,0,0,0,0,0,0,0,0,-39.455,22.629,0,-314.37,0,-106.4,251.47,102,1,1.925,0,-1.925,0
-2.4565e-20,0.022464,0,0,0,0,0,0,0,0,-39.454,22.506,0,-313.41,0,-106.11,250.59,102,1,1.93,0,-1.93,0
-2.4559e-20,0.022471,0,0,0,0,0,0,0,0,-39.453,22.383,0,-312.46,0,-105.82,249.72,102,1,1.935,0,-1.935,0
-2.4553e-20,0.022477,0,0,0,0,0,0,0,0,-39.452,22.26,0,-311.5,0,-105.53,248.85,102,1,1.94,0,-1.94,0
-2.4546e-20,0.022484,0,0,0,0,0,0,0,0,-39.451,22.137,0,-310.54,0,-105.24,247.98,102,1,1.945,0,-1.945,0
-2.454e-20,0.02249,0,0,0,0,0,0,0,0,-39.45,22.014,0,-309.58,0,-104.95,247.11,102,1,1.95,0,-1.95,0
-2.4534e-20,0.022497,0,0,0,0,0,0,0,0,-39.449,21.891,0,-308.62,0,-104.66,246.24,102,1,1.955,0,-1.955,0
-2.4527e-20,0.022503,0,0,0,0,0,0,0,0,-39.449,21.768,0,-307.66,0,-104.37,245.37,102,1,1.96,0,-1.96,0
-2.4521e-20,0.02251,0,0,0,0,0,0,0,0,-39.448,21.646,0,-306.7,0,-104.09,244.5,102,1,1.965,0,-1.965,0
-2.4515e-20,0.022517,0,0,0,0,0,0,0,0,-39.447,21.523,0,-305.75,0,-103.8,243.62,102,1,1.97,0,-1.97,0
-2.4508e-20,0.022523,0,0,0,0,0,0,0,0,-39.446,21.4,0,-304.79,0,-103.51,242.75,102,1,1.975,0,-1.975,0
-2.4502e-20,0.02253,0,0,0,0,0,0,0,0,-39.445,21.277,0,-303.83,0,-103.22,241.88,102,1,1.98,0,-1.98,0
-2.4496e-20,0.022536,0,0,0,0,0,0,0,0,-39.444,21.154,0,-302.87,0,-102.93,241.01,102,1,1.985,0,-1.985,0
-2.449e-20,0.022543,0,0,0,0,0,0,0,0,-39.443,21.031,0,-301.91,0,-102.64,240.14,102,1,1.99,0,-1.99,0
-2.4483e-20,0.022549,0,0,0,0,0,0,0,0,-39.442,20.908,0,-300.95,0,-102.35,239.27,102,1,1.995,0,-1.995,0
-2.4477e-20,0.022556,0,0,0,0,0,0,0,0,-39.441,20.785,0,-300,0,-102.06,238.4,102,1,2,0,-2,0
-2.4471e-20,0.022562,0,0,0,0,0,0,0,0,-39.441,20.662,0,-299.04,0,-101.77,237.52,102,1,2.005,0,-2.005,0
-2.4464e-20,0.022569,0,0,0,0,0,0,0,0,-39.44,20.539,0,-298.08,0,-101.48,236.65,102,1,2.01,0,-2.01,0
-2.4458e-20,0.022575,0,0,0,0,0,0,0,0,-39.439,20.416,0,-297.12,0,-101.19,235.78,102,1,2.015,0,-2.015,0
-2.4452e-20,0.022582,0,0,0,0,0,0,0,0,-39.438,20.293,0,-296.16,0,-100.9,234.91,102,1,2.02,0,-2.02,0
-2.4446e-20,0.022588,0,0,0,0,0,0,0,0,-39.437,20.17,0,-295.2,0,-100.61,234.04,102,1,2.025,0,-2.025,0
-2.4439e-20,0.022595,0,0,0,0,0,0,0,0,-39.436,20.047,0,-294.25,0,-100.32,233.17,102,1,2.03,0,-2.03,0
-2.4433e-20,0.022601,0,0,0,0,0,0,0,0,-39.435,19.924,0,-293.29,0,-100.03,232.3,102,1,2.035,0,-2.035,0
-2.4427e-20,0.022608,0,0,0,0,0,0,0,0,-39.434,19.801,0,-292.33,0,-99.745,231.42,102,1,2.04,0,-2.04,0
-2.442e-20,0.022614,0,0,0,0,0,0,0,0,-39.434,19.678,0,-291.37,0,-99.455,230.55,102,1,2.045,0,-2.045,0
-2.4414e-20,0.022621,0,0,0,0,0,0,0,0,-39.433,19.555,0,-290.41,0,-99.166,229.68,102,1,2.05,0,-2.05,0
-2.4408e-20,0.022627,0,0,0,0,0,0,0,0,-39.432,19.432,0,-289.45,0,-98.877,228.81,102,1,2.055,0,-2.055,0
-2.4401e-20,0.022634,0,0,0,0,0,0,0,0,-39.431,19.309,0,-288.5,0,-98.587,227.94,102,1,2.06,0,-2.06,0
-2.4395e-20,0.02264,0,0,0,0,0,0,0,0,-39.43,19.187,0,-287.54,0,-98.298,227.07,102,1,2.065,0,-2.065,0
-2.4389e-20,0.022647,0,0,0,0,0,0,0,0,-39.429,19.064,0,-286.58,0,-98.009,226.2,102,1,2.07,0,-2.07,0
-2.4383e-20,0.022653,0,0,0,0,0,0,0,0,-39.428,18.941,0,-285.62,0,-97.719,225.32,102,1,2.075,0,-2.075,0
-2.4376e-20,0.02266,0,0,0,0,0,0,0,0,-39.427,18.818,0,-284.66,0,-97.43,224.45,102,1,2.08,0,-2.08,0
-2.437e-20,0.022666,0,0,0,0,0,0,0,0,-39.426,18.695,0,-283.7,0,-97.14,223.58,102,1,2.085,0,-2.085,0
-2.4364e-20,0.022673,0,0,0,0,0,0,0,0,-39.426,18.572,0,-282.75,0,-96.851,222.71,102,1,2.09,0,-2.09,0
-2.4357e-20,0.022679,0,0,0,0,0,0,0,0,-39.425,18.449,0,-281.79,0,-96.562,221.84,102,1,2.095,0,-2.095,0
-2.4351e-20,0.022686,0,0,0,0,0,0,0,0,-39.424,18.326,0,-280.83,0,-96.272,220.97,102,1,2.1,0,-2.1,0
-2.4345e-20,0.022692,0,0,0,0,0,0,0,0,-39.423,18.203,0,-279.87,0,-95.983,220.1,102,1,2.105,0,-2.105,0
-2.4339e-20,0.022699,0,0,0,0,0,0,0,0,-39.422,18.08,0,-278.91,0,-95.693,219.22,102,1,2.11,0,-2.11,0
-2.4332e-20,0.022705,0,0,0,0,0,0,0,0,-39.421,17.957,0,-277.95,0,-95.404,218.35,102,1,2.115,0,-2.115,0
-2.4326e-20,0.022712,0,0,0,0,0,0,0,0,-39.42,17.834,0,-277,0,-95.115,217.48,102,1,2.12,0,-2.12,0
-2.432e-20,0.022719,0,0,0,0,0,0,0,0,-39.419,17.711,0,-276.04,0,-94.825,216.61,102,1,2.125,0,-2.125,0
-2.4313e-20,0.022725,0,0,0,0,0,0,0,0,-39.418,17.588,0,-275.08,0,-94.536,215.74,102,1,2.13,0,-2.13,0
-2.4307e-20,0.022732,0,0,0,0,0,0,0,0,-39.418,17.465,0,-274.12,0,-94.247,214.87,102,1,2.135,0,-2.135,0
-2.4301e-20,0.022738,0,0,0,0,0,0,0,0,-39.417,17.342,0,-273.16,0,-93.957,214,102,1,2.14,0,-2.14,0
-2.4294e-20,0.022745,0,0,0,0,0,0,0,0,-39.416,17.219,0,-272.2,0,-93.668,213.12,102,1,2.145,0,-2.145,0
-2.4288e-20,0.022751,0,0,0,0,0,0,0,0,-39.415,17.096,0,-271.24,0,-93.378,212.25,102,1,2.15,0,-2.15,0
-2.4282e-20,0.022758,0,0,0,0,0,0,0,0,-39.414,16.973,0,-270.29,0,-93.089,211.38,102,1,2.155,0,-2.155,0
-2.4276e-20,0.022764,0,0,0,0,0,0,0,0,-39.413,16.85,0,-269.33,0,-92.8,210.51,102,1,2.16,0,-2.16,0
-2.4269e-20,0.022771,0,0,0,0,0,0,0,0,-39.412,16.728,0,-268.37,0,-92.51,209.64,102,1,2.165,0,-2.165,0
-2.4263e-20,0.022777,0,0,0,0,0,0,0,0,-39.411,16.605,0,-267.41,0,-92.221,208.77,102,1,2.17,0,-2.17,0
-2.4257e-20,0.022784,0,0,0,0,0,0,0,0,-39.411,16.482,0,-266.45,0,-91.932,207.9,102,1,2.175,0,-2.175,0
-2.425e-20,0.02279,0,0,0,0,0,0,0,0,-39.41,16.359,0,-265.49,0,-91.642,207.02,102,1,2.18,0,-2.18,0
-2.4244e-20,0.022797,0,0,0,0,0,0,0,0,-39.409,16.236,0,-264.54,0,-91.353,206.15,102,1,2.185,0,-2.185,0
-2.4238e-20,0.022803,0,0,0,0,0,0,0,0,-39.408,16.113,0,-263.58,0,-91.063,205.28,102,1,2.19,0,-2.19,0
-2.4232e-20,0.02281,0,0,0,0,0,0,0,0,-39.407,15.99,0,-262.62,0,-90.774,204.41,102,1,2.195,0,-2.195,0
-2.4225e-20,0.022816,0,0,0,0,0,0,0,0,-39.406,15.867,0,-261.66,0,-90.485,203.54,102,1,2.2,0,-2.2,0
-2.4219e-20,0.022823,0,0,0,0,0,0,0,0,-39.405,15.744,0,-260.7,0,-90.195,202.67,102,1,2.205,0,-2.205,0
-2.4213e-20,0.022829,0,0,0,0,0,0,0,0,-39.404,15.621,0,-259.74,0,-89.906,201.8,102,1,2.21,0,-2.21,0
-2.4206e-20,0.022836,0,0,0,0,0,0,0,0,-39.403,15.498,0,-258.79,0,-89.616,200.92,102,1,2.215,0,-2.215,0
-2.42e-20,0.022842,0,0,0,0,0,0,0,0,-39.403,15.375,0,-257.83,0,-89.327,200.05,102,1,2.22,0,-2.22,0
-2.4194e-20,0.022849,0,0,0,0,0,0,0,0,-39.402,15.252,0,-256.87,0,-89.038,199.18,102,1,2.225,0,-2.225,0
-2.4187e-20,0.022855,0,0,0,0,0,0,0,0,-39.401,15.129,0,-255.91,0,-88.748,198.31,102,1,2.23,0,-2.23,0
-2.4181e-20,0.022862,0,0,0,0,0,0,0,0,-39.4,15.006,0,-254.95,0,-88.459,197.44,102,1,2.235,0,-2.235,0
-2.4175e-20,0.022868,0,0,0,0,0,0,0,0,-39.399,14.883,0,-253.99,0,-88.17,196.57,102,1,2.24,0,-2.24,0
-2.4169e-20,0.022875,0,0,0,0,0,0,0,0,-39.398,14.76,0,-253.04,0,-87.88,195.7,102,1,2.245,0,-2.245,0
-2.4162e-20,0.022881,0,0,0,0,0,0,0,0,-39.397,14.637,0,-252.08,0,-87.591,194.82,102,1,2.25,0,-2.25,0
-2.4156e-20,0.022888,0,0,0,0,0,0,0,0,-39.396,14.514,0,-251.12,0,-87.301,193.95,102,1,2.255,0,-2.255,0
-2.415e-20,0.022894,0,0,0,0,0,0,0,0,-39.396,14.392,0,-250.16,0,-87.012,193.08,102,1,2.26,0,-2.26,0
-2.4143e-20,0.022901,0,0,0,0,0,0,0,0,-39.395,14.269,0,-249.2,0,-86.723,192.21,102,1,2.265,0,-2.265,0
-2.4137e-20,0.022908,0,0,0,0,0,0,0,0,-39.394,14.146,0,-248.24,0,-86.433,191.34,102,1,2.27,0,-2.27,0
-2.4131e-20,0.022914,0,0,0,0,0,0,0,0,-39.393,14.023,0,-247.29,0,-86.144,190.47,102,1,2.275,0,-2.275,0
-2.4125e-20,0.022921,0,0,0,0,0,0,0,0,-39.392,13.9,0,-246.33,0,-85.855,189.6,102,1,2.28,0,-2.28,0
-2.4118e-20,0.022927,0,0,0,0,0,0,0,0,-39.389,13.788,0,-245.44,0,-85.585,188.79,102,1,2.285,0,-2.285,0
-2.4112e-20,0.022931,0,0,0,0,0,0,0,0,-39.375,13.746,0,-244.98,0,-85.443,188.39,102,1,2.29,0,-2.29,0
-2.4107e-20,0.022936,0,0,0,0,0,0,0,0,-39.36,13.705,0,-244.52,0,-85.301,187.99,102,1,2.295,0,-2.295,0
-2.4101e-20,0.02294,0,0,0,0,0,0,0,0,-39.345,13.664,0,-244.07,0,-85.159,187.59,102,1,2.3,0,-2.3,0
-2.4095e-20,0.022944,0,0,0,0,0,0,0,0,-39.331,13.622,0,-243.61,0,-85.017,187.19,102,1,2.305,0,-2.305,0
-2.4089e-20,0.022949,0,0,0,0,0,0,0,0,-39.316,13.581,0,-243.15,0,-84.876,186.8,102,1,2.31,0,-2.31,0
-2.4083e-20,0.022953,0,0,0,0,0,0,0,0,-39.301,13.54,0,-242.69,0,-84.734,186.4,102,1,2.315,0,-2.315,0
-2.4077e-20,0.022958,0,0,0,0,0,0,0,0,-39.286,13.498,0,-242.24,0,-84.592,186,102,1,2.32,0,-2.32,0
-2.4071e-20,0.022962,0,0,0,0,0,0,0,0,-39.272,13.457,0,-241.78,0,-84.45,185.6,102,1,2.325,0,-2.325,0
-2.4066e-20,0.022967,0,0,0,0,0,0,0,0,-39.257,13.416,0,-241.32,0,-84.308,185.2,102,1,2.33,0,-2.33,0
-2.406e-20,0.022971,0,0,0,0,0,0,0,0,-39.242,13.374,0,-240.87,0,-84.166,184.8,102,1,2.335,0,-2.335,0
-2.4054e-20,0.022975,0,0,0,0,0,0,0,0,-39.228,13.333,0,-240.41,0,-84.024,184.4,102,1,2.34,0,-2.34,0
-2.4048e-20,0.02298,0,0,0,0,0,0,0,0,-39.213,13.292,0,-239.95,0,-83.882,184.01,102,1,2.345,0,-2.345,0
-2.4042e-20,0.022984,0,0,0,0,0,0,0,0,-39.198,13.25,0,-239.5,0,-83.741,183.61,102,1,2.35,0,-2.35,0
-2.4036e-20,0.022989,0,0,0,0,0,0,0,0,-39.184,13.209,0,-239.04,0,-83.599,183.21,102,1,2.355,0,-2.355,0
-2.403e-20,0.022993,0,0,0,0,0,0,0,0,-39.169,13.168,0,-238.58,0,-83.457,182.81,102,1,2.36,0,-2.36,0
-2.4025e-20,0.022997,0,0,0,0,0,0,0,0,-39.154,13.126,0,-238.13,0,-83.315,182.41,102,1,2.365,0,-2.365,0
-2.4019e-20,0.023002,0,0,0,0,0,0,0,0,-39.14,13.085,0,-237.67,0,-83.173,182.01,102,1,2.37,0,-2.37,0
-2.4013e-20,0.023006,0,0,0,0,0,0,0,0,-39.125,13.044,0,-237.21,0,-83.031,181.61,102,1,2.375,0,-2.375,0
-2.4007e-20,0.023011,0,0,0,0,0,0,0,0,-39.11,13.002,0,-236.76,0,-82.889,181.22,102,1,2.38,0,-2.38,0
-2.4001e-20,0.023015,0,0,0,0,0,0,0,0,-39.096,12.961,0,-236.3,0,-82.748,180.82,102,1,2.385,0,-2.385,0
-2.3995e-20,0.023019,0,0,0,0,0,0,0,0,-39.081,12.92,0,-235.84,0,-82.606,180.42,102,1,2.39,0,-2.39,0
-2.3989e-20,0.023024,0,0,0,0,0,0,0,0,-39.066,12.878,0,-235.39,0,-82.464,180.02,102,1,2.395,0,-2.395,0
-2.3984e-20,0.023028,0,0,0,0,0,0,0,0,-39.052,12.837,0,-234.93,0,-82.322,179.62,102,1,2.4,0,-2.4,0
-2.3978e-20,0.023033,0,0,0,0,0,0,0,0,-39.037,12.796,0,-234.47,0,-82.18,179.22,102,1,2.405,0,-2.405,0
-2.3972e-20,0.023037,0,0,0,0,0,0,0,0,-39.022,12.754,0,-234.02,0,-82.038,178.82,102,1,2.41,0,-2.41,0
-2.3966e-20,0.023042,0,0,0,0,0,0,0,0,-39.008,12.713,0,-233.56,0,-81.896,178.43,102,1,2.415,0,-2.415,0
-2.396e-20,0.023046,0,0,0,0,0,0,0,0,-38.993,12.672,0,-233.1,0,-81.754,178.03,102,1,2.42,0,-2.42,0
-2.3954e-20,0.02305,0,0,0,0,0,0,0,0,-38.978,12.63,0,-232.65,0,-81.613,177.63,102,1,2.425,0,-2.425,0
-2.3948e-20,0.023055,0,0,0,0,0,0,0,0,-38.964,12.589,0,-232.19,0,-81.471,177.23,102,1,2.43,0,-2.43,0
-2.3943e-20,0.023059,0,0,0,0,0,0,0,0,-38.949,12.548,0,-231.73,0,-81.329,176.83,102,1,2.435,0,-2.435,0
-2.3937e-20,0.023064,0,0,0,0,0,0,0,0,-38.934,12.506,0,-231.27,0,-81.187,176.43,102,1,2.44,0,-2.44,0
-2.3931e-20,0.023068,0,0,0,0,0,0,0,0,-38.919,12.465,0,-230.82,0,-81.045,176.03,102,1,2.445,0,-2.445,0
-2.3925e-20,0.023072,0,0,0,0,0,0,0,0,-38.905,12.424,0,-230.36,0,-80.903,175.64,102,1,2.45,0,-2.45,0
-2.3919e-20,0.023077,0,0,0,0,0,0,0,0,-38.89,12.382,0,-229.9,0,-80.761,175.24,102,1,2.455,0,-2.455,0
-2.3913e-20,0.023081,0,0,0,0,0,0,0,0,-38.875,12.341,0,-229.45,0,-80.619,174.84,102,1,2.46,0,-2.46,0
-2.3908e-20,0.023086,0,0,0,0,0,0,0,0,-38.861,12.3,0,-228.99,0,-80.478,174.44,102,1,2.465,0,-2.465,0
-2.3902e-20,0.02309,0,0,0,0,0,0,0,0,-38.846,12.258,0,-228.53,0,-80.336,174.04,102,1,2.47,0,-2.47,0
-2.3896e-20,0.023095,0,0,0,0,0,0,0,0,-38.831,12.217,0,-228.08,0,-80.194,173.64,102,1,2.475,0,-2.475,0
-2.389e-20,0.023099,0,0,0,0,0,0,0,0,-38.817,12.176,0,-227.62,0,-80.052,173.24,102,1,2.48,0,-2.48,0
-2.3884e-20,0.023103,0,0,0,0,0,0,0,0,-38.802,12.134,0,-227.16,0,-79.91,172.85,102,1,2.485,0,-2.485,0
-2.3878e-20,0.023108,0,0,0,0,0,0,0,0,-38.787,12.093,0,-226.71,0,-79.768,172.45,102,1,2.49,0,-2.49,0
-2.3872e-20,0.023112,0,0,0,0,0,0,0,0,-38.773,12.052,0,-226.25,0,-79.626,172.05,102,1,2.495,0,-2.495,0
-2.3867e-20,0.023117,0,0,0,0,0,0,0,0,-38.758,12.01,0,-225.79,0,-79.485,171.65,102,1,2.5,0,-2.5,0
-2.3861e-20,0.023121,0,0,0,0,0,0,0,0,-38.743,11.969,0,-225.34,0,-79.343,171.25,102,1,2.505,0,-2.505,0
-2.3855e-20,0.023125,0,0,0,0,0,0,0,0,-38.729,11.928,0,-224.88,0,-79.201,170.85,102,1,2.51,0,-2.51,0
-2.3849e-20,0.02313,0,0,0,0,0,0,0,0,-38.714,11.886,0,-224.42,0,-79.059,170.45,102,1,2.515,0,-2.515,0
-2.3843e-20,0.023134,0,0,0,0,0,0,0,0,-38.699,11.845,0,-223.97,0,-78.917,170.06,102,1,2.52,0,-2.52,0
-2.3837e-20,0.023139,0,0,0,0,0,0,0,0,-38.685,11.804,0,-223.51,0,-78.775,169.66,102,1,2.525,0,-2.525,0
-2.3831e-20,0.023143,0,0,0,0,0,0,0,0,-38.67,11.762,0,-223.05,0,-78.633,169.26,102,1,2.53,0,-2.53,0
-2.3826e-20,0.023148,0,0,0,0,0,0,0,0,-38.655,11.721,0,-222.6,0,-78.491,168.86,102,1,2.535,0,-2.535,0
-2.382e-20,0.023152,0,0,0,0,0,0,0,0,-38.641,11.68,0,-222.14,0,-78.35,168.46,102,1,2.54,0,-2.54,0
-2.3814e-20,0.023156,0,0,0,0,0,0,0,0,-38.626,11.638,0,-221.68,0,-78.208,168.06,102,1,2.545,0,-2.545,0
-2.3808e-20,0.023161,0,0,0,0,0,0,0,0,-38.611,11.597,0,-221.23,0,-78.066,167.66,102,1,2.55,0,-2.55,0
-2.3802e-20,0.023165,0,0,0,0,0,0,0,0,-38.597,11.556,0,-220.77,0,-77.924,167.27,102,1,2.555,0,-2.555,0
-2.3796e-20,0.02317,0,0,0,0,0,0,0,0,-38.582,11.514,0,-220.31,0,-77.782,166.87,102,1,2.56,0,-2.56,0
-2.379e-20,0.023174,0,0,0,0,0,0,0,0,-38.567,11.473,0,-219.85,0,-77.64,166.47,102,1,2.565,0,-2.565,0
-2.3785e-20,0.023178,0,0,0,0,0,0,0,0,-38.552,11.432,0,-219.4,0,-77.498,166.07,102,1,2.57,0,-2.57,0
-2.3779e-20,0.023183,0,0,0,0,0,0,0,0,-38.538,11.39,0,-218.94,0,-77.356,165.67,102,1,2.575,0,-2.575,0
-2.3773e-20,0.023187,0,0,0,0,0,0,0,0,-38.523,11.349,0,-218.48,0,-77.215,165.27,102,1,2.58,0,-2.58,0
-2.3767e-20,0.023192,0,0,0,0,0,0,0,0,-38.508,11.308,0,-218.03,0,-77.073,164.87,102,1,2.585,0,-2.585,0
-2.3761e-20,0.023196,0,0,0,0,0,0,0,0,-38.494,11.266,0,-217.57,0,-76.931,164.48,102,1,2.59,0,-2.59,0
-2.3755e-20,0.023201,0,0,0,0,0,0,0,0,-38.479,11.225,0,-217.11,0,-76.789,164.08,102,1,2.595,0,-2.595,0
-2.3749e-20,0.023205,0,0,0,0,0,0,0,0,-38.464,11.184,0,-216.66,0,-76.647,163.68,102,1,2.6,0,-2.6,0
-2.3744e-20,0.023209,0,0,0,0,0,0,0,0,-38.45,11.142,0,-216.2,0,-76.505,163.28,102,1,2.605,0,-2.605,0
-2.3738e-20,0.023214,0,0,0,0,0,0,0,0,-38.435,11.101,0,-215.74,0,-76.363,162.88,102,1,2.61,0,-2.61,0
-2.3732e-20,0.023218,0,0,0,0,0,0,0,0,-38.42,11.06,0,-215.29,0,-76.222,162.48,102,1,2.615,0,-2.615,0
-2.3726e-20,0.023223,0,0,0,0,0,0,0,0,-38.406,11.018,0,-214.83,0,-76.08,162.08,102,1,2.62,0,-2.62,0
-2.372e-20,0.023227,0,0,0,0,0,0,0,0,-38.391,10.977,0,-214.37,0,-75.938,161.69,102,1,2.625,0,-2.625,0
-2.3714e-20,0.023231,0,0,0,0,0,0,0,0,-38.376,10.936,0,-213.92,0,-75.796,161.29,102,1,2.63,0,-2.63,0
-2.3708e-20,0.023236,0,0,0,0,0,0,0,0,-38.362,10.894,0,-213.46,0,-75.654,160.89,102,1,2.635,0,-2.635,0
-2.3703e-20,0.02324,0,0,0,0,0,0,0,0,-38.347,10.853,0,-213,0,-75.512,160.49,102,1,2.64,0,-2.64,0
-2.3697e-20,0.023245,0,0,0,0,0,0,0,0,-38.332,10.812,0,-212.55,0,-75.37,160.09,102,1,2.645,0,-2.645,0
-2.3691e-20,0.023249,0,0,0,0,0,0,0,0,-38.318,10.77,0,-212.09,0,-75.228,159.69,102,1,2.65,0,-2.65,0
-2.3685e-20,0.023254,0,0,0,0,0,0,0,0,-38.303,10.729,0,-211.63,0,-75.087,159.29,102,1,2.655,0,-2.655,0
-2.3679e-20,0.023258,0,0,0,0,0,0,0,0,-38.288,10.688,0,-211.18,0,-74.945,158.9,102,1,2.66,0,-2.66,0
-2.3673e-20,0.023262,0,0,0,0,0,0,0,0,-38.274,10.646,0,-210.72,0,-74.803,158.5,102,1,2.665,0,-2.665,0
-2.3667e-20,0.023267,0,0,0,0,0,0,0,0,-38.259,10.605,0,-210.26,0,-74.661,158.1,102,1,2.67,0,-2.67,0
-2.3662e-20,0.023271,0,0,0,0,0,0,0,0,-38.244,10.564,0,-209.81,0,-74.519,157.7,102,1,2.675,0,-2.675,0
-2.3656e-20,0.023276,0,0,0,0,0,0,0,0,-38.23,10.522,0,-209.35,0,-74.377,157.3,102,1,2.68,0,-2.68,0
-2.365e-20,0.02328,0,0,0,0,0,0,0,0,-38.215,10.481,0,-208.89,0,-74.235,156.9,102,1,2.685,0,-2.685,0
-2.3644e-20,0.023284,0,0,0,0,0,0,0,0,-38.2,10.44,0,-208.43,0,-74.093,156.5,102,1,2.69,0,-2.69,0
-2.3638e-20,0.023289,0,0,0,0,0,0,0,0,-38.185,10.398,0,-207.98,0,-73.952,156.11,102,1,2.695,0,-2.695,0
-2.3632e-20,0.023293,0,0,0,0,0,0,0,0,-38.171,10.357,0,-207.52,0,-73.81,155.71,102,1,2.7,0,-2.7,0
-2.3626e-20,0.023298,0,0,0,0,0,0,0,0,-38.156,10.316,0,-207.06,0,-73.668,155.31,102,1,2.705,0,-2.705,0
-2.3621e-20,0.023302,0,0,0,0,0,0,0,0,-38.141,10.274,0,-206.61,0,-73.526,154.91,102,1,2.71,0,-2.71,0
-2.3615e-20,0.023307,0,0,0,0,0,0,0,0,-38.127,10.233,0,-206.15,0,-73.384,154.51,102,1,2.715,0,-2.715,0
-2.3609e-20,0.023311,0,0,0,0,0,0,0,0,-38.112,10.192,0,-205.69,0,-73.242,154.11,102,1,2.72,0,-2.72,0
-2.3603e-20,0.023315,0,0,0,0,0,0,0,0,-38.097,10.15,0,-205.24,0,-73.1,153.71,102,1,2.725,0,-2.725,0
-2.3597e-20,0.02332,0,0,0,0,0,0,0,0,-38.083,10.109,0,-204.78,0,-72.959,153.32,102,1,2.73,0,-2.73,0
-2.3591e-20,0.023324,0,0,0,0,0,0,0,0,-38.068,10.068,0,-204.32,0,-72.817,152.92,102,1,2.735,0,-2.735,0
-2.3585e-20,0.023329,0,0,0,0,0,0,0,0,-38.053,10.026,0,-203.87,0,-72.675,152.52,102,1,2.74,0,-2.74,0
-2.358e-20,0.023333,0,0,0,0,0,0,0,0,-38.039,9.9851,0,-203.41,0,-72.533,152.12,102,1,2.745,0,-2.745,0
-2.3574e-20,0.023337,0,0,0,0,0,0,0,0,-38.024,9.9437,0,-202.95,0,-72.391,151.72,102,1,2.75,0,-2.75,0
-2.3568e-20,0.023342,0,0,0,0,0,0,0,0,-38.009,9.9024,0,-202.5,0,-72.249,151.32,102,1,2.755,0,-2.755,0
-2.3562e-20,0.023346,0,0,0,0,0,0,0,0,-37.995,9.8611,0,-202.04,0,-72.107,150.92,102,1,2.76,0,-2.76,0
-2.3556e-20,0.023351,0,0,0,0,0,0,0,0,-37.98,9.8197,0,-201.58,0,-71.965,150.53,102,1,2.765,0,-2.765,0
-2.355e-20,0.023355,0,0,0,0,0,0,0,0,-37.965,9.7784,0,-201.13,0,-71.824,150.13,102,1,2.77,0,-2.77,0
-2.3545e-20,0.023359,0,0,0,0,0,0,0,0,-37.951,9.7371,0,-200.67,0,-71.682,149.73,102,1,2.775,0,-2.775,0
-2.3539e-20,0.023364,0,0,0,0,0,0,0,0,-37.936,9.6957,0,-200.21,0,-71.54,149.33,102,1,2.78,0,-2.78,0
-2.3533e-20,0.023368,0,0,0,0,0,0,0,0,-37.921,9.6544,0,-199.76,0,-71.398,148.93,102,1,2.785,0,-2.785,0
-2.3527e-20,0.023373,0,0,0,0,0,0,0,0,-37.907,9.6131,0,-199.3,0,-71.256,148.53,102,1,2.79,0,-2.79,0
-2.3521e-20,0.023377,0,0,0,0,0,0,0,0,-37.892,9.5717,0,-198.84,0,-71.114,148.13,102,1,2.795,0,-2.795,0
-2.3515e-20,0.023382,0,0,0,0,0,0,0,0,-37.877,9.5304,0,-198.39,0,-70.972,147.74,102,1,2.8,0,-2.8,0
-2.3509e-20,0.023386,0,0,0,0,0,0,0,0,-37.863,9.4891,0,-197.93,0,-70.83,147.34,102,1,2.805,0,-2.805,0
-2.3504e-20,0.02339,0,0,0,0,0,0,0,0,-37.848,9.4477,0,-197.47,0,-70.689,146.94,102,1,2.81,0,-2.81,0
-2.3498e-20,0.023395,0,0,0,0,0,0,0,0,-37.833,9.4064,0,-197.01,0,-70.547,146.54,102,1,2.815,0,-2.815,0
-2.3492e-20,0.023399,0,0,0,0,0,0,0,0,-37.818,9.3651,0,-196.56,0,-70.405,146.14,102,1,2.82,0,-2.82,0
-2.3486e-20,0.023404,0,0,0,0,0,0,0,0,-37.804,9.3238,0,-196.1,0,-70.263,145.74,102,1,2.825,0,-2.825,0
-2.348e-20,0.023408,0,0,0,0,0,0,0,0,-37.789,9.2824,0,-195.64,0,-70.121,145.34,102,1,2.83,0,-2.83,0
-2.3474e-20,0.023412,0,0,0,0,0,0,0,0,-37.774,9.2411,0,-195.19,0,-69.979,144.95,102,1,2.835,0,-2.835,0
-2.3468e-20,0.023417,0,0,0,0,0,0,0,0,-37.76,9.1998,0,-194.73,0,-69.837,144.55,102,1,2.84,0,-2.84,0
-2.3463e-20,0.023421,0,0,0,0,0,0,0,0,-37.745,9.1584,0,-194.27,0,-69.696,144.15,102,1,2.845,0,-2.845,0
-2.3457e-20,0.023426,0,0,0,0,0,0,0,0,-37.73,9.1171,0,-193.82,0,-69.554,143.75,102,1,2.85,0,-2.85,0
-2.3451e-20,0.02343,0,0,0,0,0,0,0,0,-37.716,9.0758,0,-193.36,0,-69.412,143.35,102,1,2.855,0,-2.855,0
-2.3445e-20,0.023435,0,0,0,0,0,0,0,0,-37.701,9.0344,0,-192.9,0,-69.27,142.95,102,1,2.86,0,-2.86,0
-2.3439e-20,0.023439,0,0,0,0,0,0,0,0,-37.686,8.9931,0,-192.45,0,-69.128,142.55,102,1,2.865,0,-2.865,0
-2.3433e-20,0.023443,0,0,0,0,0,0,0,0,-37.672,8.9518,0,-191.99,0,-68.986,142.16,102,1,2.87,0,-2.87,0
-2.3427e-20,0.023448,0,0,0,0,0,0,0,0,-37.657,8.9104,0,-191.53,0,-68.844,141.76,102,1,2.875,0,-2.875,0
-2.3422e-20,0.023452,0,0,0,0,0,0,0,0,-37.642,8.8691,0,-191.08,0,-68.702,141.36,102,1,2.88,0,-2.88,0
-2.3416e-20,0.023457,0,0,0,0,0,0,0,0,-37.628,8.8278,0,-190.62,0,-68.561,140.96,102,1,2.885,0,-2.885,0
-2.341e-20,0.023461,0,0,0,0,0,0,0,0,-37.613,8.7864,0,-190.16,0,-68.419,140.56,102,1,2.89,0,-2.89,0
-2.3404e-20,0.023465,0,0,0,0,0,0,0,0,-37.598,8.7451,0,-189.71,0,-68.277,140.16,102,1,2.895,0,-2.895,0
-2.3398e-20,0.02347,0,0,0,0,0,0,0,0,-37.584,8.7038,0,-189.25,0,-68.135,139.76,102,1,2.9,0,-2.9,0
-2.3392e-20,0.023474,0,0,0,0,0,0,0,0,-37.569,8.6624,0,-188.79,0,-67.993,139.37,102,1,2.905,0,-2.905,0
-2.3386e-20,0.023479,0,0,0,0,0,0,0,0,-37.554,8.6211,0,-188.34,0,-67.851,138.97,102,1,2.91,0,-2.91,0
-2.3381e-20,0.023483,0,0,0,0,0,0,0,0,-37.54,8.5798,0,-187.88,0,-67.709,138.57,102,1,2.915,0,-2.915,0
-2.3375e-20,0.023488,0,0,0,0,0,0,0,0,-37.525,8.5384,0,-187.42,0,-67.567,138.17,102,1,2.92,0,-2.92,0
-2.3369e-20,0.023492,0,0,0,0,0,0,0,0,-37.51,8.4971,0,-186.96,0,-67.426,137.77,102,1,2.925,0,-2.925,0
-2.3363e-20,0.023496,0,0,0,0,0,0,0,0,-37.496,8.4558,0,-186.51,0,-67.284,137.37,102,1,2.93,0,-2.93,0
-2.3357e-20,0.023501,0,0,0,0,0,0,0,0,-37.481,8.4144,0,-186.05,0,-67.142,136.97,102,1,2.935,0,-2.935,0
-2.3351e-20,0.023505,0,0,0,0,0,0,0,0,-37.466,8.3731,0,-185.59,0,-67,136.58,102,1,2.94,0,-2.94,0
-2.3345e-20,0.02351,0,0,0,0,0,0,0,0,-37.451,8.3318,0,-185.14,0,-66.858,136.18,102,1,2.945,0,-2.945,0
-2.334e-20,0.023514,0,0,0,0,0,0,0,0,-37.437,8.2904,0,-184.68,0,-66.716,135.78,102,1,2.95,0,-2.95,0
-2.3334e-20,0.023518,0,0,0,0,0,0,0,0,-37.422,8.2491,0,-184.22,0,-66.574,135.38,102,1,2.955,0,-2.955,0
-2.3328e-20,0.023523,0,0,0,0,0,0,0,0,-37.407,8.2078,0,-183.77,0,-66.433,134.98,102,1,2.96,0,-2.96,0
-2.3322e-20,0.023527,0,0,0,0,0,0,0,0,-37.393,8.1664,0,-183.31,0,-66.291,134.58,102,1,2.965,0,-2.965,0
-2.3316e-20,0.023532,0,0,0,0,0,0,0,0,-37.378,8.1251,0,-182.85,0,-66.149,134.18,102,1,2.97,0,-2.97,0
-2.331e-20,0.023536,0,0,0,0,0,0,0,0,-37.363,8.0838,0,-182.4,0,-66.007,133.79,102,1,2.975,0,-2.975,0
-2.3304e-20,0.023541,0,0,0,0,0,0,0,0,-37.349,8.0424,0,-181.94,0,-65.865,133.39,102,1,2.98,0,-2.98,0
-2.3299e-20,0.023545,0,0,0,0,0,0,0,0,-37.334,8.0011,0,-181.48,0,-65.723,132.99,102,1,2.985,0,-2.985,0
-2.3293e-20,0.023549,0,0,0,0,0,0,0,0,-37.319,7.9598,0,-181.03,0,-65.581,132.59,102,1,2.99,0,-2.99,0
-2.3287e-20,0.023554,0,0,0,0,0,0,0,0,-37.305,7.9184,0,-180.57,0,-65.439,132.19,102,1,2.995,0,-2.995,0
-2.3281e-20,0.023558,0,0,0,0,0,0,0,0,-37.29,7.8771,0,-180.11,0,-65.298,131.79,102,1,3,0,-3,0
-2.3275e-20,0.023563,0,0,0,0,0,0,0,0,-37.275,7.8358,0,-179.66,0,-65.156,131.39,102,1,3.005,0,-3.005,0
-2.3269e-20,0.023567,0,0,0,0,0,0,0,0,-37.261,7.7944,0,-179.2,0,-65.014,131,102,1,3.01,0,-3.01,0
-2.3264e-20,0.02357,0,0,0,0,0,0,0,0,-37.235,7.7735,0,-178.92,0,-64.921,130.76,102,1,3.015,0,-3.015,0
-2.3259e-20,0.023574,0,0,0,0,0,0,0,0,-37.208,7.7552,0,-178.65,0,-64.834,130.55,102,1,3.02,0,-3.02,0
-2.3253e-20,0.023577,0,0,0,0,0,0,0,0,-37.181,7.7369,0,-178.39,0,-64.748,130.34,102,1,3.025,0,-3.025,0
-2.3248e-20,0.02358,0,0,0,0,0,0,0,0,-37.154,7.7186,0,-178.13,0,-64.661,130.13,102,1,3.03,0,-3.03,0
-2.3242e-20,0.023583,0,0,0,0,0,0,0,0,-37.127,7.7003,0,-177.87,0,-64.574,129.91,102,1,3.035,0,-3.035,0
-2.3237e-20,0.023587,0,0,0,0,0,0,0,0,-37.099,7.682,0,-177.61,0,-64.488,129.7,102,1,3.04,0,-3.04,0
-2.3232e-20,0.02359,0,0,0,0,0,0,0,0,-37.072,7.6637,0,-177.35,0,-64.401,129.49,102,1,3.045,0,-3.045,0
-2.3226e-20,0.023593,0,0,0,0,0,0,0,0,-37.045,7.6454,0,-177.09,0,-64.314,129.28,102,1,3.05,0,-3.05,0
-2.3221e-20,0.023596,0,0,0,0,0,0,0,0,-37.018,7.6271,0,-176.83,0,-64.228,129.07,102,1,3.055,0,-3.055,0
-2.3215e-20,0.0236,0,0,0,0,0,0,0,0,-36.991,7.6088,0,-176.57,0,-64.141,128.85,102,1,3.06,0,-3.06,0
-2.321e-20,0.023603,0,0,0,0,0,0,0,0,-36.964,7.5905,0,-176.31,0,-64.054,128.64,102,1,3.065,0,-3.065,0
-2.3205e-20,0.023606,0,0,0,0,0,0,0,0,-36.937,7.5722,0,-176.04,0,-63.968,128.43,102,1,3.07,0,-3.07,0
-2.3199e-20,0.023609,0,0,0,0,0,0,0,0,-36.91,7.5539,0,-175.78,0,-63.881,128.22,102,1,3.075,0,-3.075,0
-2.3194e-20,0.023612,0,0,0,0,0,0,0,0,-36.883,7.5356,0,-175.52,0,-63.794,128,102,1,3.08,0,-3.08,0
-2.3189e-20,0.023616,0,0,0,0,0,0,0,0,-36.855,7.5173,0,-175.26,0,-63.708,127.79,102,1,3.085,0,-3.085,0
-2.3183e-20,0.023619,0,0,0,0,0,0,0,0,-36.828,7.499,0,-175,0,-63.621,127.58,102,1,3.09,0,-3.09,0
-2.3178e-20,0.023622,0,0,0,0,0,0,0,0,-36.801,7.4807,0,-174.74,0,-63.534,127.37,102,1,3.095,0,-3.095,0
-2.3172e-20,0.023625,0,0,0,0,0,0,0,0,-36.774,7.4624,0,-174.48,0,-63.448,127.16,102,1,3.1,0,-3.1,0
-2.3167e-20,0.023629,0,0,0,0,0,0,0,0,-36.747,7.4441,0,-174.22,0,-63.361,126.94,102,1,3.105,0,-3.105,0
-2.3162e-20,0.023632,0,0,0,0,0,0,0,0,-36.72,7.4258,0,-173.96,0,-63.275,126.73,102,1,3.11,0,-3.11,0
-2.3156e-20,0.023635,0,0,0,0,0,0,0,0,-36.693,7.4075,0,-173.69,0,-63.188,126.52,102,1,3.115,0,-3.115,0
-2.3151e-20,0.023638,0,0,0,0,0,0,0,0,-36.666,7.3892,0,-173.43,0,-63.101,126.31,102,1,3.12,0,-3.12,0
-2.3146e-20,0.023642,0,0,0,0,0,0,0,0,-36.639,7.3709,0,-173.17,0,-63.015,126.1,102,1,3.125,0,-3.125,0
-2.314e-20,0.023645,0,0,0,0,0,0,0,0,-36.611,7.3526,0,-172.91,0,-62.928,125.88,102,1,3.13,0,-3.13,0
-2.3135e-20,0.023648,0,0,0,0,0,0,0,0,-36.584,7.3343,0,-172.65,0,-62.841,125.67,102,1,3.135,0,-3.135,0
-2.3129e-20,0.023651,0,0,0,0,0,0,0,0,-36.557,7.316,0,-172.39,0,-62.755,125.46,102,1,3.14,0,-3.14,0
-2.3124e-20,0.023655,0,0,0,0,0,0,0,0,-36.53,7.2977,0,-172.13,0,-62.668,125.25,102,1,3.145,0,-3.145,0
-2.3119e-20,0.023658,0,0,0,0,0,0,0,0,-36.503,7.2794,0,-171.87,0,-62.581,125.04,102,1,3.15,0,-3.15,0
-2.3113e-20,0.023661,0,0,0,0,0,0,0,0,-36.476,7.2611,0,-171.61,0,-62.495,124.82,102,1,3.155,0,-3.155,0
-2.3108e-20,0.023664,0,0,0,0,0,0,0,0,-36.449,7.2428,0,-171.35,0,-62.408,124.61,102,1,3.16,0,-3.16,0
-2.3102e-20,0.023668,0,0,0,0,0,0,0,0,-36.422,7.2245,0,-171.08,0,-62.321,124.4,102,1,3.165,0,-3.165,0
-2.3097e-20,0.023671,0,0,0,0,0,0,0,0,-36.395,7.2062,0,-170.82,0,-62.235,124.19,102,1,3.17,0,-3.17,0
-2.3092e-20,0.023674,0,0,0,0,0,0,0,0,-36.367,7.1879,0,-170.56,0,-62.148,123.97,102,1,3.175,0,-3.175,0
-2.3086e-20,0.023677,0,0,0,0,0,0,0,0,-36.34,7.1696,0,-170.3,0,-62.061,123.76,102,1,3.18,0,-3.18,0
-2.3081e-20,0.023681,0,0,0,0,0,0,0,0,-36.313,7.1514,0,-170.04,0,-61.975,123.55,102,1,3.185,0,-3.185,0
-2.3076e-20,0.023684,0,0,0,0,0,0,0,0,-36.286,7.1331,0,-169.78,0,-61.888,123.34,102,1,3.19,0,-3.19,0
-2.307e-20,0.023687,0,0,0,0,0,0,0,0,-36.259,7.1148,0,-169.52,0,-61.801,123.13,102,1,3.195,0,-3.195,0
-2.3065e-20,0.02369,0,0,0,0,0,0,0,0,-36.232,7.0965,0,-169.26,0,-61.715,122.91,102,1,3.2,0,-3.2,0
-2.3059e-20,0.023693,0,0,0,0,0,0,0,0,-36.205,7.0782,0,-169,0,-61.628,122.7,102,1,3.205,0,-3.205,0
-2.3054e-20,0.023697,0,0,0,0,0,0,0,0,-36.178,7.0599,0,-168.74,0,-61.542,122.49,102,1,3.21,0,-3.21,0
-2.3049e-20,0.0237,0,0,0,0,0,0,0,0,-36.151,7.0416,0,-168.47,0,-61.455,122.28,102,1,3.215,0,-3.215,0
-2.3043e-20,0.023703,0,0,0,0,0,0,0,0,-36.123,7.0233,0,-168.21,0,-61.368,122.07,102,1,3.22,0,-3.22,0
-2.3038e-20,0.023706,0,0,0,0,0,0,0,0,-36.096,7.005,0,-167.95,0,-61.282,121.85,102,1,3.225,0,-3.225,0
-2.3033e-20,0.02371,0,0,0,0,0,0,0,0,-36.069,6.9867,0,-167.69,0,-61.195,121.64,102,1,3.23,0,-3.23,0
-2.3027e-20,0.023713,0,0,0,0,0,0,0,0,-36.042,6.9684,0,-167.43,0,-61.108,121.43,102,1,3.235,0,-3.235,0
-2.3022e-20,0.023716,0,0,0,0,0,0,0,0,-36.015,6.9501,0,-167.17,0,-61.022,121.22,102,1,3.24,0,-3.24,0
-2.3016e-20,0.023719,0,0,0,0,0,0,0,0,-35.988,6.9318,0,-166.91,0,-60.935,121.01,102,1,3.245,0,-3.245,0
-2.3011e-20,0.023723,0,0,0,0,0,0,0,0,-35.961,6.9135,0,-166.65,0,-60.848,120.79,102,1,3.25,0,-3.25,0
-2.3006e-20,0.023726,0,0,0,0,0,0,0,0,-35.934,6.8952,0,-166.39,0,-60.762,120.58,102,1,3.255,0,-3.255,0
-2.3e-20,0.023729,0,0,0,0,0,0,0,0,-35.907,6.8769,0,-166.12,0,-60.675,120.37,102,1,3.26,0,-3.26,0
-2.2995e-20,0.023732,0,0,0,0,0,0,0,0,-35.88,6.8586,0,-165.86,0,-60.588,120.16,102,1,3.265,0,-3.265,0
-2.2989e-20,0.023736,0,0,0,0,0,0,0,0,-35.852,6.8403,0,-165.6,0,-60.502,119.95,102,1,3.27,0,-3.27,0
-2.2984e-20,0.023739,0,0,0,0,0,0,0,0,-35.825,6.822,0,-165.34,0,-60.415,119.73,102,1,3.275,0,-3.275,0
-2.2979e-20,0.023742,0,0,0,0,0,0,0,0,-35.798,6.8037,0,-165.08,0,-60.328,119.52,102,1,3.28,0,-3.28,0
-2.2973e-20,0.023745,0,0,0,0,0,0,0,0,-35.771,6.7854,0,-164.82,0,-60.242,119.31,102,1,3.285,0,-3.285,0
-2.2968e-20,0.023749,0,0,0,0,0,0,0,0,-35.744,6.7671,0,-164.56,0,-60.155,119.1,102,1,3.29,0,-3.29,0
-2.2963e-20,0.023752,0,0,0,0,0,0,0,0,-35.717,6.7488,0,-164.3,0,-60.068,118.88,102,1,3.295,0,-3.295,0
-2.2957e-20,0.023755,0,0,0,0,0,0,0,0,-35.69,6.7305,0,-164.04,0,-59.982,118.67,102,1,3.3,0,-3.3,0
-2.2952e-20,0.023758,0,0,0,0,0,0,0,0,-35.663,6.7122,0,-163.78,0,-59.895,118.46,102,1,3.305,0,-3.305,0
-2.2946e-20,0.023761,0,0,0,0,0,0,0,0,-35.636,6.6939,0,-163.51,0,-59.808,118.25,102,1,3.31,0,-3.31,0
-2.2941e-20,0.023765,0,0,0,0,0,0,0,0,-35.608,6.6756,0,-163.25,0,-59.722,118.04,102,1,3.315,0,-3.315,0
-2.2936e-20,0.023768,0,0,0,0,0,0,0,0,-35.581,6.6573,0,-162.99,0,-59.635,117.82,102,1,3.32,0,-3.32,0
-2.293e-20,0.023771,0,0,0,0,0,0,0,0,-35.554,6.639,0,-162.73,0,-59.549,117.61,102,1,3.325,0,-3.325,0
-2.2925e-20,0.023774,0,0,0,0,0,0,0,0,-35.527,6.6207,0,-162.47,0,-59.462,117.4,102,1,3.33,0,-3.33,0
-2.292e-20,0.023778,0,0,0,0,0,0,0,0,-35.5,6.6024,0,-162.21,0,-59.375,117.19,102,1,3.335,0,-3.335,0
-2.2914e-20,0.023781,0,0,0,0,0,0,0,0,-35.473,6.5841,0,-161.95,0,-59.289,116.98,102,1,3.34,0,-3.34,0
-2.2909e-20,0.023784,0,0,0,0,0,0,0,0,-35.446,6.5658,0,-161.69,0,-59.202,116.76,102,1,3.345,0,-3.345,0
-2.2903e-20,0.023787,0,0,0,0,0,0,0,0,-35.419,6.5475,0,-161.43,0,-59.115,116.55,102,1,3.35,0,-3.35,0
-2.2898e-20,0.023791,0,0,0,0,0,0,0,0,-35.392,6.5292,0,-161.16,0,-59.029,116.34,102,1,3.355,0,-3.355,0
-2.2893e-20,0.023794,0,0,0,0,0,0,0,0,-35.364,6.5109,0,-160.9,0,-58.942,116.13,102,1,3.36,0,-3.36,0
-2.2887e-20,0.023797,0,0,0,0,0,0,0,0,-35.337,6.4926,0,-160.64,0,-58.855,115.92,102,1,3.365,0,-3.365,0
-2.2882e-20,0.0238,0,0,0,0,0,0,0,0,-35.31,6.4743,0,-160.38,0,-58.769,115.7,102,1,3.37,0,-3.37,0
-2.2876e-20,0.023804,0,0,0,0,0,0,0,0,-35.283,6.456,0,-160.12,0,-58.682,115.49,102,1,3.375,0,-3.375,0
-2.2871e-20,0.023807,0,0,0,0,0,0,0,0,-35.256,6.4377,0,-159.86,0,-58.595,115.28,102,1,3.38,0,-3.38,0
-2.2866e-20,0.02381,0,0,0,0,0,0,0,0,-35.229,6.4194,0,-159.6,0,-58.509,115.07,102,1,3.385,0,-3.385,0
-2.286e-20,0.023813,0,0,0,0,0,0,0,0,-35.202,6.4011,0,-159.34,0,-58.422,114.85,102,1,3.39,0,-3.39,0
-2.2855e-20,0.023817,0,0,0,0,0,0,0,0,-35.175,6.3828,0,-159.08,0,-58.335,114.64,102,1,3.395,0,-3.395,0
-2.285e-20,0.02382,0,0,0,0,0,0,0,0,-35.148,6.3645,0,-158.82,0,-58.249,114.43,102,1,3.4,0,-3.4,0
-2.2844e-20,0.023823,0,0,0,0,0,0,0,0,-35.12,6.3462,0,-158.55,0,-58.162,114.22,102,1,3.405,0,-3.405,0
-2.2839e-20,0.023826,0,0,0,0,0,0,0,0,-35.093,6.3279,0,-158.29,0,-58.075,114.01,102,1,3.41,0,-3.41,0
-2.2833e-20,0.023829,0,0,0,0,0,0,0,0,-35.066,6.3096,0,-158.03,0,-57.989,113.79,102,1,3.415,0,-3.415,0
-2.2828e-20,0.023833,0,0,0,0,0,0,0,0,-35.039,6.2913,0,-157.77,0,-57.902,113.58,102,1,3.42,0,-3.42,0
-2.2823e-20,0.023836,0,0,0,0,0,0,0,0,-35.012,6.273,0,-157.51,0,-57.816,113.37,102,1,3.425,0,-3.425,0
-2.2817e-20,0.023839,0,0,0,0,0,0,0,0,-34.985,6.2547,0,-157.25,0,-57.729,113.16,102,1,3.43,0,-3.43,0
-2.2812e-20,0.023842,0,0,0,0,0,0,0,0,-34.958,6.2364,0,-156.99,0,-57.642,112.95,102,1,3.435,0,-3.435,0
-2.2807e-20,0.023846,0,0,0,0,0,0,0,0,-34.931,6.2181,0,-156.73,0,-57.556,112.73,102,1,3.44,0,-3.44,0
-2.2801e-20,0.023849,0,0,0,0,0,0,0,0,-34.904,6.1998,0,-156.47,0,-57.469,112.52,102,1,3.445,0,-3.445,0
-2.2796e-20,0.023852,0,0,0,0,0,0,0,0,-34.876,6.1815,0,-156.2,0,-57.382,112.31,102,1,3.45,0,-3.45,0
-2.279e-20,0.023855,0,0,0,0,0,0,0,0,-34.849,6.1632,0,-155.94,0,-57.296,112.1,102,1,3.455,0,-3.455,0
-2.2785e-20,0.023859,0,0,0,0,0,0,0,0,-34.822,6.1449,0,-155.68,0,-57.209,111.89,102,1,3.46,0,-3.46,0
-2.278e-20,0.023862,0,0,0,0,0,0,0,0,-34.795,6.1266,0,-155.42,0,-57.122,111.67,102,1,3.465,0,-3.465,0
-2.2774e-20,0.023865,0,0,0,0,0,0,0,0,-34.768,6.1083,0,-155.16,0,-57.036,111.46,102,1,3.47,0,-3.47,0
-2.2769e-20,0.023868,0,0,0,0,0,0,0,0,-34.741,6.09,0,-154.9,0,-56.949,111.25,102,1,3.475,0,-3.475,0
-2.2763e-20,0.023872,0,0,0,0,0,0,0,0,-34.714,6.0717,0,-154.64,0,-56.862,111.04,102,1,3.48,0,-3.48,0
-2.2758e-20,0.023875,0,0,0,0,0,0,0,0,-34.687,6.0534,0,-154.38,0,-56.776,110.82,102,1,3.485,0,-3.485,0
-2.2753e-20,0.023878,0,0,0,0,0,0,0,0,-34.66,6.0351,0,-154.12,0,-56.689,110.61,102,1,3.49,0,-3.49,0
-2.2747e-20,0.023881,0,0,0,0,0,0,0,0,-34.633,6.0168,0,-153.86,0,-56.602,110.4,102,1,3.495,0,-3.495,0
-2.2742e-20,0.023885,0,0,0,0,0,0,0,0,-34.605,5.9985,0,-153.59,0,-56.516,110.19,102,1,3.5,0,-3.5,0
-2.2737e-20,0.023888,0,0,0,0,0,0,0,0,-34.578,5.9802,0,-153.33,0,-56.429,109.98,102,1,3.505,0,-3.505,0
-2.2731e-20,0.023891,0,0,0,0,0,0,0,0,-34.551,5.9619,0,-153.07,0,-56.342,109.76,102,1,3.51,0,-3.51,0
-2.2726e-20,0.023894,0,0,0,0,0,0,0,0,-34.524,5.9436,0,-152.81,0,-56.256,109.55,102,1,3.515,0,-3.515,0
-2.272e-20,0.023898,0,0,0,0,0,0,0,0,-34.497,5.9253,0,-152.55,0,-56.169,109.34,102,1,3.52,0,-3.52,0
-2.2715e-20,0.023901,0,0,0,0,0,0,0,0,-34.47,5.907,0,-152.29,0,-56.082,109.13,102,1,3.525,0,-3.525,0
-2.271e-20,0.023904,0,0,0,0,0,0,0,0,-34.443,5.8887,0,-152.03,0,-55.996,108.92,102,1,3.53,0,-3.53,0
-2.2704e-20,0.023907,0,0,0,0,0,0,0,0,-34.416,5.8704,0,-151.77,0,-55.909,108.7,102,1,3.535,0,-3.535,0
-2.2699e-20,0.02391,0,0,0,0,0,0,0,0,-34.389,5.8521,0,-151.51,0,-55.823,108.49,102,1,3.54,0,-3.54,0
-2.2694e-20,0.023914,0,0,0,0,0,0,0,0,-34.361,5.8338,0,-151.24,0,-55.736,108.28,102,1,3.545,0,-3.545,0
-2.2688e-20,0.023917,0,0,0,0,0,0,0,0,-34.334,5.8155,0,-150.98,0,-55.649,108.07,102,1,3.55,0,-3.55,0
-2.2683e-20,0.02392,0,0,0,0,0,0,0,0,-34.307,5.7972,0,-150.72,0,-55.563,107.86,102,1,3.555,0,-3.555,0
-2.2677e-20,0.023923,0,0,0,0,0,0,0,0,-34.28,5.7789,0,-150.46,0,-55.476,107.64,102,1,3.56,0,-3.56,0
-2.2672e-20,0.023927,0,0,0,0,0,0,0,0,-34.253,5.7606,0,-150.2,0,-55.389,107.43,102,1,3.565,0,-3.565,0
-2.2667e-20,0.02393,0,0,0,0,0,0,0,0,-34.226,5.7423,0,-149.94,0,-55.303,107.22,102,1,3.57,0,-3.57,0
-2.2661e-20,0.023933,0,0,0,0,0,0,0,0,-34.199,5.724,0,-149.68,0,-55.216,107.01,102,1,3.575,0,-3.575,0
-2.2656e-20,0.023936,0,0,0,0,0,0,0,0,-34.172,5.7058,0,-149.42,0,-55.129,106.79,102,1,3.58,0,-3.58,0
-2.265e-20,0.02394,0,0,0,0,0,0,0,0,-34.145,5.6875,0,-149.16,0,-55.043,106.58,102,1,3.585,0,-3.585,0
-2.2645e-20,0.023943,0,0,0,0,0,0,0,0,-34.117,5.6692,0,-148.9,0,-54.956,106.37,102,1,3.59,0,-3.59,0
-2.264e-20,0.023946,0,0,0,0,0,0,0,0,-34.09,5.6509,0,-148.63,0,-54.869,106.16,102,1,3.595,0,-3.595,0
-2.2634e-20,0.023949,0,0,0,0,0,0,0,0,-34.063,5.6326,0,-148.37,0,-54.783,105.95,102,1,3.6,0,-3.6,0
-2.2629e-20,0.023953,0,0,0,0,0,0,0,0,-34.036,5.6143,0,-148.11,0,-54.696,105.73,102,1,3.605,0,-3.605,0
-2.2624e-20,0.023956,0,0,0,0,0,0,0,0,-34.009,5.596,0,-147.85,0,-54.609,105.52,102,1,3.61,0,-3.61,0
-2.2618e-20,0.023959,0,0,0,0,0,0,0,0,-33.982,5.5777,0,-147.59,0,-54.523,105.31,102,1,3.615,0,-3.615,0
-2.2613e-20,0.023962,0,0,0,0,0,0,0,0,-33.955,5.5594,0,-147.33,0,-54.436,105.1,102,1,3.62,0,-3.62,0
-2.2607e-20,0.023966,0,0,0,0,0,0,0,0,-33.928,5.5411,0,-147.07,0,-54.349,104.89,102,1,3.625,0,-3.625,0
-2.2602e-20,0.023969,0,0,0,0,0,0,0,0,-33.901,5.5228,0,-146.81,0,-54.263,104.67,102,1,3.63,0,-3.63,0
-2.2597e-20,0.023972,0,0,0,0,0,0,0,0,-33.873,5.5045,0,-146.55,0,-54.176,104.46,102,1,3.635,0,-3.635,0
-2.2591e-20,0.023975,0,0,0,0,0,0,0,0,-33.846,5.4862,0,-146.28,0,-54.089,104.25,102,1,3.64,0,-3.64,0
-2.2586e-20,0.023978,0,0,0,0,0,0,0,0,-33.819,5.4679,0,-146.02,0,-54.003,104.04,102,1,3.645,0,-3.645,0
-2.2581e-20,0.023982,0,0,0,0,0,0,0,0,-33.792,5.4496,0,-145.76,0,-53.916,103.83,102,1,3.65,0,-3.65,0
-2.2575e-20,0.023985,0,0,0,0,0,0,0,0,-33.765,5.4313,0,-145.5,0,-53.83,103.61,102,1,3.655,0,-3.655,0
-2.257e-20,0.023988,0,0,0,0,0,0,0,0,-33.738,5.413,0,-145.24,0,-53.743,103.4,102,1,3.66,0,-3.66,0
-2.2564e-20,0.023991,0,0,0,0,0,0,0,0,-33.711,5.3947,0,-144.98,0,-53.656,103.19,102,1,3.665,0,-3.665,0
-2.2559e-20,0.023995,0,0,0,0,0,0,0,0,-33.684,5.3764,0,-144.72,0,-53.57,102.98,102,1,3.67,0,-3.67,0
-2.2554e-20,0.023998,0,0,0,0,0,0,0,0,-33.657,5.3581,0,-144.46,0,-53.483,102.76,102,1,3.675,0,-3.675,0
-2.2548e-20,0.024001,0,0,0,0,0,0,0,0,-33.629,5.3398,0,-144.2,0,-53.396,102.55,102,1,3.68,0,-3.68,0
-2.2543e-20,0.024004,0,0,0,0,0,0,0,0,-33.602,5.3215,0,-143.94,0,-53.31,102.34,102,1,3.685,0,-3.685,0
-2.2537e-20,0.024008,0,0,0,0,0,0,0,0,-33.575,5.3032,0,-143.67,0,-53.223,102.13,102,1,3.69,0,-3.69,0
-2.2532e-20,0.024011,0,0,0,0,0,0,0,0,-33.548,5.2849,0,-143.41,0,-53.136,101.92,102,1,3.695,0,-3.695,0
-2.2527e-20,0.024014,0,0,0,0,0,0,0,0,-33.521,5.2666,0,-143.15,0,-53.05,101.7,102,1,3.7,0,-3.7,0
-2.2521e-20,0.024017,0,0,0,0,0,0,0,0,-33.494,5.2483,0,-142.89,0,-52.963,101.49,102,1,3.705,0,-3.705,0
-2.2516e-20,0.024021,0,0,0,0,0,0,0,0,-33.467,5.23,0,-142.63,0,-52.876,101.28,102,1,3.71,0,-3.71,0
-2.2511e-20,0.024024,0,0,0,0,0,0,0,0,-33.44,5.2117,0,-142.37,0,-52.79,101.07,102,1,3.715,0,-3.715,0
-2.2505e-20,0.024027,0,0,0,0,0,0,0,0,-33.413,5.1934,0,-142.11,0,-52.703,100.86,102,1,3.72,0,-3.72,0
-2.25e-20,0.02403,0,0,0,0,0,0,0,0,-33.385,5.1751,0,-141.85,0,-52.616,100.64,102,1,3.725,0,-3.725,0
-2.2494e-20,0.024034,0,0,0,0,0,0,0,0,-33.358,5.1568,0,-141.59,0,-52.53,100.43,102,1,3.73,0,-3.73,0
-2.2489e-20,0.024037,0,0,0,0,0,0,0,0,-33.331,5.1385,0,-141.33,0,-52.443,100.22,102,1,3.735,0,-3.735,0
-2.2484e-20,0.02404,0,0,0,0,0,0,0,0,-33.304,5.1202,0,-141.06,0,-52.356,100.01,102,1,3.74,0,-3.74,0
-2.2478e-20,0.024043,0,0,0,0,0,0,0,0,-33.277,5.1019,0,-140.8,0,-52.27,99.795,102,1,3.745,0,-3.745,0
-2.2473e-20,0.024046,0,0,0,0,0,0,0,0,-33.25,5.0836,0,-140.54,0,-52.183,99.583,102,1,3.75,0,-3.75,0
-2.2468e-20,0.02405,0,0,0,0,0,0,0,0,-33.223,5.0653,0,-140.28,0,-52.097,99.371,102,1,3.755,0,-3.755,0
-2.2462e-20,0.024053,0,0,0,0,0,0,0,0,-33.196,5.047,0,-140.02,0,-52.01,99.159,102,1,3.76,0,-3.76,0
-2.2457e-20,0.024056,0,0,0,0,0,0,0,0,-33.169,5.0287,0,-139.76,0,-51.923,98.947,102,1,3.765,0,-3.765,0
-2.2451e-20,0.024059,0,0,0,0,0,0,0,0,-33.142,5.0104,0,-139.5,0,-51.837,98.735,102,1,3.77,0,-3.77,0
-2.2446e-20,0.024063,0,0,0,0,0,0,0,0,-33.114,4.9921,0,-139.24,0,-51.75,98.523,102,1,3.775,0,-3.775,0
-2.2441e-20,0.024066,0,0,0,0,0,0,0,0,-33.087,4.9738,0,-138.98,0,-51.663,98.311,102,1,3.78,0,-3.78,0
-2.2435e-20,0.024069,0,0,0,0,0,0,0,0,-33.06,4.9555,0,-138.71,0,-51.577,98.098,102,1,3.785,0,-3.785,0
-2.243e-20,0.024072,0,0,0,0,0,0,0,0,-33.033,4.9372,0,-138.45,0,-51.49,97.886,102,1,3.79,0,-3.79,0
-2.2424e-20,0.024076,0,0,0,0,0,0,0,0,-33.006,4.9189,0,-138.19,0,-51.403,97.674,102,1,3.795,0,-3.795,0
-2.2419e-20,0.024079,0,0,0,0,0,0,0,0,-32.979,4.9006,0,-137.93,0,-51.317,97.462,102,1,3.8,0,-3.8,0
-2.2414e-20,0.024082,0,0,0,0,0,0,0,0,-32.952,4.8823,0,-137.67,0,-51.23,97.25,102,1,3.805,0,-3.805,0
-2.2408e-20,0.024085,0,0,0,0,0,0,0,0,-32.923,4.8662,0,-137.43,0,-51.15,97.06,102,1,3.81,0,-3.81,0
-2.2404e-20,0.024088,0,0,0,0,0,0,0,0,-32.891,4.8574,0,-137.27,0,-51.092,96.94,102,1,3.815,0,-3.815,0
-2.2399e-20,0.02409,0,0,0,0,0,0,0,0,-32.859,4.8485,0,-137.11,0,-51.033,96.82,102,1,3.82,0,-3.82,0
-2.2394e-20,0.024093,0,0,0,0,0,0,0,0,-32.827,4.8397,0,-136.95,0,-50.975,96.7,102,1,3.825,0,-3.825,0
-2.2389e-20,0.024095,0,0,0,0,0,0,0,0,-32.794,4.8308,0,-136.78,0,-50.916,96.58,102,1,3.83,0,-3.83,0
-2.2384e-20,0.024098,0,0,0,0,0,0,0,0,-32.762,4.822,0,-136.62,0,-50.858,96.46,102,1,3.835,0,-3.835,0
-2.2379e-20,0.0241,0,0,0,0,0,0,0,0,-32.73,4.8131,0,-136.46,0,-50.799,96.34,102,1,3.84,0,-3.84,0
-2.2374e-20,0.024103,0,0,0,0,0,0,0,0,-32.698,4.8043,0,-136.3,0,-50.741,96.22,102,1,3.845,0,-3.845,0
-2.2369e-20,0.024105,0,0,0,0,0,0,0,0,-32.665,4.7954,0,-136.13,0,-50.682,96.101,102,1,3.85,0,-3.85,0
-2.2364e-20,0.024108,0,0,0,0,0,0,0,0,-32.633,4.7865,0,-135.97,0,-50.624,95.981,102,1,3.855,0,-3.855,0
-2.236e-20,0.02411,0,0,0,0,0,0,0,0,-32.601,4.7777,0,-135.81,0,-50.565,95.861,102,1,3.86,0,-3.86,0
-2.2355e-20,0.024113,0,0,0,0,0,0,0,0,-32.568,4.7688,0,-135.65,0,-50.507,95.741,102,1,3.865,0,-3.865,0
-2.235e-20,0.024115,0,0,0,0,0,0,0,0,-32.536,4.76,0,-135.49,0,-50.448,95.621,102,1,3.87,0,-3.87,0
-2.2345e-20,0.024118,0,0,0,0,0,0,0,0,-32.504,4.7511,0,-135.32,0,-50.39,95.501,102,1,3.875,0,-3.875,0
-2.234e-20,0.02412,0,0,0,0,0,0,0,0,-32.472,4.7423,0,-135.16,0,-50.332,95.381,102,1,3.88,0,-3.88,0
-2.2335e-20,0.024123,0,0,0,0,0,0,0,0,-32.439,4.7334,0,-135,0,-50.273,95.261,102,1,3.885,0,-3.885,0
-2.233e-20,0.024125,0,0,0,0,0,0,0,0,-32.407,4.7246,0,-134.84,0,-50.215,95.141,102,1,3.89,0,-3.89,0
-2.2325e-20,0.024128,0,0,0,0,0,0,0,0,-32.375,4.7157,0,-134.67,0,-50.156,95.021,102,1,3.895,0,-3.895,0
-2.232e-20,0.02413,0,0,0,0,0,0,0,0,-32.342,4.7068,0,-134.51,0,-50.098,94.901,102,1,3.9,0,-3.9,0
-2.2315e-20,0.024133,0,0,0,0,0,0,0,0,-32.31,4.698,0,-134.35,0,-50.039,94.782,102,1,3.905,0,-3.905,0
-2.2311e-20,0.024135,0,0,0,0,0,0,0,0,-32.278,4.6891,0,-134.19,0,-49.981,94.662,102,1,3.91,0,-3.91,0
-2.2306e-20,0.024138,0,0,0,0,0,0,0,0,-32.246,4.6803,0,-134.02,0,-49.922,94.542,102,1,3.915,0,-3.915,0
-2.2301e-20,0.02414,0,0,0,0,0,0,0,0,-32.213,4.6714,0,-133.86,0,-49.864,94.422,102,1,3.92,0,-3.92,0
-2.2296e-20,0.024143,0,0,0,0,0,0,0,0,-32.181,4.6626,0,-133.7,0,-49.805,94.302,102,1,3.925,0,-3.925,0
-2.2291e-20,0.024145,0,0,0,0,0,0,0,0,-32.149,4.6537,0,-133.54,0,-49.747,94.182,102,1,3.93,0,-3.93,0
-2.2286e-20,0.024148,0,0,0,0,0,0,0,0,-32.117,4.6448,0,-133.38,0,-49.688,94.062,102,1,3.935,0,-3.935,0
-2.2281e-20,0.02415,0,0,0,0,0,0,0,0,-32.084,4.636,0,-133.21,0,-49.63,93.942,102,1,3.94,0,-3.94,0
-2.2276e-20,0.024153,0,0,0,0,0,0,0,0,-32.052,4.6271,0,-133.05,0,-49.572,93.822,102,1,3.945,0,-3.945,0
-2.2271e-20,0.024155,0,0,0,0,0,0,0,0,-32.02,4.6183,0,-132.89,0,-49.513,93.702,102,1,3.95,0,-3.95,0
-2.2266e-20,0.024158,0,0,0,0,0,0,0,0,-31.987,4.6094,0,-132.73,0,-49.455,93.583,102,1,3.955,0,-3.955,0
-2.2262e-20,0.02416,0,0,0,0,0,0,0,0,-31.955,4.6006,0,-132.56,0,-49.396,93.463,102,1,3.96,0,-3.96,0
-2.2257e-20,0.024163,0,0,0,0,0,0,0,0,-31.923,4.5917,0,-132.4,0,-49.338,93.343,102,1,3.965,0,-3.965,0
-2.2252e-20,0.024165,0,0,0,0,0,0,0,0,-31.891,4.5829,0,-132.24,0,-49.279,93.223,102,1,3.97,0,-3.97,0
-2.2247e-20,0.024168,0,0,0,0,0,0,0,0,-31.858,4.574,0,-132.08,0,-49.221,93.103,102,1,3.975,0,-3.975,0
-2.2242e-20,0.02417,0,0,0,0,0,0,0,0,-31.826,4.5651,0,-131.91,0,-49.162,92.983,102,1,3.98,0,-3.98,0
-2.2237e-20,0.024173,0,0,0,0,0,0,0,0,-31.794,4.5563,0,-131.75,0,-49.104,92.863,102,1,3.985,0,-3.985,0
-2.2232e-20,0.024175,0,0,0,0,0,0,0,0,-31.762,4.5474,0,-131.59,0,-49.045,92.743,102,1,3.99,0,-3.99,0
-2.2227e-20,0.024178,0,0,0,0,0,0,0,0,-31.729,4.5386,0,-131.43,0,-48.987,92.623,102,1,3.995,0,-3.995,0
-2.2222e-20,0.02418,0,0,0,0,0,0,0,0,-31.697,4.5297,0,-131.27,0,-48.929,92.503,102,1,4,0,-4,0
-2.2218e-20,0.024183,0,0,0,0,0,0,0,0,-31.665,4.5209,0,-131.1,0,-48.87,92.383,102,1,4.005,0,-4.005,0
-2.2213e-20,0.024185,0,0,0,0,0,0,0,0,-31.632,4.512,0,-130.94,0,-48.812,92.264,102,1,4.01,0,-4.01,0
-2.2208e-20,0.024188,0,0,0,0,0,0,0,0,-31.6,4.5032,0,-130.78,0,-48.753,92.144,102,1,4.015,0,-4.015,0
-2.2203e-20,0.02419,0,0,0,0,0,0,0,0,-31.568,4.4943,0,-130.62,0,-48.695,92.024,102,1,4.02,0,-4.02,0
-2.2198e-20,0.024193,0,0,0,0,0,0,0,0,-31.536,4.4854,0,-130.45,0,-48.636,91.904,102,1,4.025,0,-4.025,0
-2.2193e-20,0.024195,0,0,0,0,0,0,0,0,-31.503,4.4766,0,-130.29,0,-48.578,91.784,102,1,4.03,0,-4.03,0
-2.2188e-20,0.024198,0,0,0,0,0,0,0,0,-31.471,4.4677,0,-130.13,0,-48.519,91.664,102,1,4.035,0,-4.035,0
-2.2183e-20,0.0242,0,0,0,0,0,0,0,0,-31.439,4.4589,0,-129.97,0,-48.461,91.544,102,1,4.04,0,-4.04,0
-2.2178e-20,0.024203,0,0,0,0,0,0,0,0,-31.407,4.45,0,-129.8,0,-48.402,91.424,102,1,4.045,0,-4.045,0
-2.2173e-20,0.024205,0,0,0,0,0,0,0,0,-31.374,4.4412,0,-129.64,0,-48.344,91.304,102,1,4.05,0,-4.05,0
-2.2169e-20,0.024208,0,0,0,0,0,0,0,0,-31.342,4.4323,0,-129.48,0,-48.285,91.184,102,1,4.055,0,-4.055,0
-2.2164e-20,0.02421,0,0,0,0,0,0,0,0,-31.31,4.4235,0,-129.32,0,-48.227,91.065,102,1,4.06,0,-4.06,0
-2.2159e-20,0.024213,0,0,0,0,0,0,0,0,-31.277,4.4146,0,-129.16,0,-48.169,90.945,102,1,4.065,0,-4.065,0
-2.2154e-20,0.024215,0,0,0,0,0,0,0,0,-31.245,4.4057,0,-128.99,0,-48.11,90.825,102,1,4.07,0,-4.07,0
-2.2149e-20,0.024218,0,0,0,0,0,0,0,0,-31.213,4.3969,0,-128.83,0,-48.052,90.705,102,1,4.075,0,-4.075,0
-2.2144e-20,0.02422,0,0,0,0,0,0,0,0,-31.181,4.388,0,-128.67,0,-47.993,90.585,102,1,4.08,0,-4.08,0
-2.2139e-20,0.024223,0,0,0,0,0,0,0,0,-31.148,4.3792,0,-128.51,0,-47.935,90.465,102,1,4.085,0,-4.085,0
-2.2134e-20,0.024225,0,0,0,0,0,0,0,0,-31.116,4.3703,0,-128.34,0,-47.876,90.345,102,1,4.09,0,-4.09,0
-2.2129e-20,0.024228,0,0,0,0,0,0,0,0,-31.084,4.3615,0,-128.18,0,-47.818,90.225,102,1,4.095,0,-4.095,0
-2.2125e-20,0.02423,0,0,0,0,0,0,0,0,-31.052,4.3526,0,-128.02,0,-47.759,90.105,102,1,4.1,0,-4.1,0
-2.212e-20,0.024233,0,0,0,0,0,0,0,0,-31.019,4.3438,0,-127.86,0,-47.701,89.985,102,1,4.105,0,-4.105,0
-2.2115e-20,0.024235,0,0,0,0,0,0,0,0,-30.987,4.3349,0,-127.69,0,-47.642,89.866,102,1,4.11,0,-4.11,0
-2.211e-20,0.024238,0,0,0,0,0,0,0,0,-30.955,4.326,0,-127.53,0,-47.584,89.746,102,1,4.115,0,-4.115,0
-2.2105e-20,0.02424,0,0,0,0,0,0,0,0,-30.922,4.3172,0,-127.37,0,-47.525,89.626,102,1,4.12,0,-4.12,0
-2.21e-20,0.024243,0,0,0,0,0,0,0,0,-30.89,4.3083,0,-127.21,0,-47.467,89.506,102,1,4.125,0,-4.125,0
-2.2095e-20,0.024245,0,0,0,0,0,0,0,0,-30.858,4.2995,0,-127.05,0,-47.409,89.386,102,1,4.13,0,-4.13,0
-2.209e-20,0.024248,0,0,0,0,0,0,0,0,-30.826,4.2906,0,-126.88,0,-47.35,89.266,102,1,4.135,0,-4.135,0
-2.2085e-20,0.02425,0,0,0,0,0,0,0,0,-30.793,4.2818,0,-126.72,0,-47.292,89.146,102,1,4.14,0,-4.14,0
-2.208e-20,0.024253,0,0,0,0,0,0,0,0,-30.761,4.2729,0,-126.56,0,-47.233,89.026,102,1,4.145,0,-4.145,0
-2.2076e-20,0.024255,0,0,0,0,0,0,0,0,-30.729,4.264,0,-126.4,0,-47.175,88.906,102,1,4.15,0,-4.15,0
-2.2071e-20,0.024258,0,0,0,0,0,0,0,0,-30.697,4.2552,0,-126.23,0,-47.116,88.786,102,1,4.155,0,-4.155,0
-2.2066e-20,0.02426,0,0,0,0,0,0,0,0,-30.664,4.2463,0,-126.07,0,-47.058,88.666,102,1,4.16,0,-4.16,0
-2.2061e-20,0.024263,0,0,0,0,0,0,0,0,-30.632,4.2375,0,-125.91,0,-46.999,88.547,102,1,4.165,0,-4.165,0
-2.2056e-20,0.024265,0,0,0,0,0,0,0,0,-30.6,4.2286,0,-125.75,0,-46.941,88.427,102,1,4.17,0,-4.17,0
-2.2051e-20,0.024268,0,0,0,0,0,0,0,0,-30.567,4.2198,0,-125.59,0,-46.882,88.307,102,1,4.175,0,-4.175,0
-2.2046e-20,0.02427,0,0,0,0,0,0,0,0,-30.535,4.2109,0,-125.42,0,-46.824,88.187,102,1,4.18,0,-4.18,0
-2.2041e-20,0.024273,0,0,0,0,0,0,0,0,-30.503,4.2021,0,-125.26,0,-46.765,88.067,102,1,4.185,0,-4.185,0
-2.2036e-20,0.024275,0,0,0,0,0,0,0,0,-30.471,4.1932,0,-125.1,0,-46.707,87.947,102,1,4.19,0,-4.19,0
-2.2032e-20,0.024278,0,0,0,0,0,0,0,0,-30.438,4.1843,0,-124.94,0,-46.649,87.827,102,1,4.195,0,-4.195,0
-2.2027e-20,0.02428,0,0,0,0,0,0,0,0,-30.406,4.1755,0,-124.77,0,-46.59,87.707,102,1,4.2,0,-4.2,0
-2.2022e-20,0.024283,0,0,0,0,0,0,0,0,-30.374,4.1666,0,-124.61,0,-46.532,87.587,102,1,4.205,0,-4.205,0
-2.2017e-20,0.024285,0,0,0,0,0,0,0,0,-30.342,4.1578,0,-124.45,0,-46.473,87.467,102,1,4.21,0,-4.21,0
-2.2012e-20,0.024288,0,0,0,0,0,0,0,0,-30.309,4.1489,0,-124.29,0,-46.415,87.348,102,1,4.215,0,-4.215,0
-2.2007e-20,0.02429,0,0,0,0,0,0,0,0,-30.277,4.1401,0,-124.12,0,-46.356,87.228,102,1,4.22,0,-4.22,0
-2.2002e-20,0.024293,0,0,0,0,0,0,0,0,-30.245,4.1312,0,-123.96,0,-46.298,87.108,102,1,4.225,0,-4.225,0
-2.1997e-20,0.024295,0,0,0,0,0,0,0,0,-30.212,4.1224,0,-123.8,0,-46.239,86.988,102,1,4.23,0,-4.23,0
-2.1992e-20,0.024298,0,0,0,0,0,0,0,0,-30.18,4.1135,0,-123.64,0,-46.181,86.868,102,1,4.235,0,-4.235,0
-2.1987e-20,0.0243,0,0,0,0,0,0,0,0,-30.148,4.1046,0,-123.48,0,-46.122,86.748,102,1,4.24,0,-4.24,0
-2.1983e-20,0.024303,0,0,0,0,0,0,0,0,-30.116,4.0958,0,-123.31,0,-46.064,86.628,102,1,4.245,0,-4.245,0
-2.1978e-20,0.024305,0,0,0,0,0,0,0,0,-30.083,4.0869,0,-123.15,0,-46.005,86.508,102,1,4.25,0,-4.25,0
-2.1973e-20,0.024308,0,0,0,0,0,0,0,0,-30.051,4.0781,0,-122.99,0,-45.947,86.388,102,1,4.255,0,-4.255,0
-2.1968e-20,0.02431,0,0,0,0,0,0,0,0,-30.019,4.0692,0,-122.83,0,-45.889,86.268,102,1,4.26,0,-4.26,0
-2.1963e-20,0.024313,0,0,0,0,0,0,0,0,-29.987,4.0604,0,-122.66,0,-45.83,86.148,102,1,4.265,0,-4.265,0
-2.1958e-20,0.024315,0,0,0,0,0,0,0,0,-29.954,4.0515,0,-122.5,0,-45.772,86.029,102,1,4.27,0,-4.27,0
-2.1953e-20,0.024318,0,0,0,0,0,0,0,0,-29.922,4.0427,0,-122.34,0,-45.713,85.909,102,1,4.275,0,-4.275,0
-2.1948e-20,0.02432,0,0,0,0,0,0,0,0,-29.89,4.0338,0,-122.18,0,-45.655,85.789,102,1,4.28,0,-4.28,0
-2.1943e-20,0.024323,0,0,0,0,0,0,0,0,-29.857,4.0249,0,-122.01,0,-45.596,85.669,102,1,4.285,0,-4.285,0
-2.1939e-20,0.024325,0,0,0,0,0,0,0,0,-29.825,4.0161,0,-121.85,0,-45.538,85.549,102,1,4.29,0,-4.29,0
-2.1934e-20,0.024328,0,0,0,0,0,0,0,0,-29.793,4.0072,0,-121.69,0,-45.479,85.429,102,1,4.295,0,-4.295,0
-2.1929e-20,0.02433,0,0,0,0,0,0,0,0,-29.761,3.9984,0,-121.53,0,-45.421,85.309,102,1,4.3,0,-4.3,0
-2.1924e-20,0.024333,0,0,0,0,0,0,0,0,-29.728,3.9895,0,-121.37,0,-45.362,85.189,102,1,4.305,0,-4.305,0
-2.1919e-20,0.024335,0,0,0,0,0,0,0,0,-29.696,3.9807,0,-121.2,0,-45.304,85.069,102,1,4.31,0,-4.31,0
-2.1914e-20,0.024338,0,0,0,0,0,0,0,0,-29.664,3.9718,0,-121.04,0,-45.245,84.949,102,1,4.315,0,-4.315,0
-2.1909e-20,0.02434,0,0,0,0,0,0,0,0,-29.631,3.9629,0,-120.88,0,-45.187,84.83,102,1,4.32,0,-4.32,0
-2.1904e-20,0.024343,0,0,0,0,0,0,0,0,-29.599,3.9541,0,-120.72,0,-45.129,84.71,102,1,4.325,0,-4.325,0
-2.1899e-20,0.024345,0,0,0,0,0,0,0,0,-29.567,3.9452,0,-120.55,0,-45.07,84.59,102,1,4.33,0,-4.33,0
-2.1894e-20,0.024348,0,0,0,0,0,0,0,0,-29.535,3.9364,0,-120.39,0,-45.012,84.47,102,1,4.335,0,-4.335,0
-2.189e-20,0.02435,0,0,0,0,0,0,0,0,-29.502,3.9275,0,-120.23,0,-44.953,84.35,102,1,4.34,0,-4.34,0
-2.1885e-20,0.024353,0,0,0,0,0,0,0,0,-29.47,3.9187,0,-120.07,0,-44.895,84.23,102,1,4.345,0,-4.345,0
-2.188e-20,0.024355,0,0,0,0,0,0,0,0,-29.438,3.9098,0,-119.9,0,-44.836,84.11,102,1,4.35,0,-4.35,0
-2.1875e-20,0.024358,0,0,0,0,0,0,0,0,-29.406,3.901,0,-119.74,0,-44.778,83.99,102,1,4.355,0,-4.355,0
-2.187e-20,0.02436,0,0,0,0,0,0,0,0,-29.373,3.8921,0,-119.58,0,-44.719,83.87,102,1,4.36,0,-4.36,0
-2.1865e-20,0.024363,0,0,0,0,0,0,0,0,-29.341,3.8832,0,-119.42,0,-44.661,83.75,102,1,4.365,0,-4.365,0
-2.186e-20,0.024365,0,0,0,0,0,0,0,0,-29.309,3.8744,0,-119.26,0,-44.602,83.63,102,1,4.37,0,-4.37,0
-2.1855e-20,0.024368,0,0,0,0,0,0,0,0,-29.276,3.8655,0,-119.09,0,-44.544,83.511,102,1,4.375,0,-4.375,0
-2.185e-20,0.02437,0,0,0,0,0,0,0,0,-29.244,3.8567,0,-118.93,0,-44.485,83.391,102,1,4.38,0,-4.38,0
-2.1845e-20,0.024373,0,0,0,0,0,0,0,0,-29.212,3.8478,0,-118.77,0,-44.427,83.271,102,1,4.385,0,-4.385,0
-2.1841e-20,0.024375,0,0,0,0,0,0,0,0,-29.18,3.839,0,-118.61,0,-44.369,83.151,102,1,4.39,0,-4.39,0
-2.1836e-20,0.024378,0,0,0,0,0,0,0,0,-29.147,3.8301,0,-118.44,0,-44.31,83.031,102,1,4.395,0,-4.395,0
-2.1831e-20,0.02438,0,0,0,0,0,0,0,0,-29.115,3.8213,0,-118.28,0,-44.252,82.911,102,1,4.4,0,-4.4,0
-2.1826e-20,0.024383,0,0,0,0,0,0,0,0,-29.083,3.8124,0,-118.12,0,-44.193,82.791,102,1,4.405,0,-4.405,0
-2.1821e-20,0.024385,0,0,0,0,0,0,0,0,-29.051,3.8035,0,-117.96,0,-44.135,82.671,102,1,4.41,0,-4.41,0
-2.1816e-20,0.024388,0,0,0,0,0,0,0,0,-29.018,3.7947,0,-117.79,0,-44.076,82.551,102,1,4.415,0,-4.415,0
-2.1811e-20,0.02439,0,0,0,0,0,0,0,0,-28.986,3.7858,0,-117.63,0,-44.018,82.431,102,1,4.42,0,-4.42,0
-2.1806e-20,0.024393,0,0,0,0,0,0,0,0,-28.954,3.777,0,-117.47,0,-43.959,82.312,102,1,4.425,0,-4.425,0
-2.1801e-20,0.024395,0,0,0,0,0,0,0,0,-28.921,3.7681,0,-117.31,0,-43.901,82.192,102,1,4.43,0,-4.43,0
-2.1797e-20,0.024398,0,0,0,0,0,0,0,0,-28.889,3.7593,0,-117.15,0,-43.842,82.072,102,1,4.435,0,-4.435,0
-2.1792e-20,0.0244,0,0,0,0,0,0,0,0,-28.857,3.7504,0,-116.98,0,-43.784,81.952,102,1,4.44,0,-4.44,0
-2.1787e-20,0.024403,0,0,0,0,0,0,0,0,-28.825,3.7416,0,-116.82,0,-43.725,81.832,102,1,4.445,0,-4.445,0
-2.1782e-20,0.024405,0,0,0,0,0,0,0,0,-28.792,3.7327,0,-116.66,0,-43.667,81.712,102,1,4.45,0,-4.45,0
-2.1777e-20,0.024408,0,0,0,0,0,0,0,0,-28.76,3.7238,0,-116.5,0,-43.609,81.592,102,1,4.455,0,-4.455,0
-2.1772e-20,0.02441,0,0,0,0,0,0,0,0,-28.728,3.715,0,-116.33,0,-43.55,81.472,102,1,4.46,0,-4.46,0
-2.1767e-20,0.024413,0,0,0,0,0,0,0,0,-28.696,3.7061,0,-116.17,0,-43.492,81.352,102,1,4.465,0,-4.465,0
-2.1762e-20,0.024415,0,0,0,0,0,0,0,0,-28.663,3.6973,0,-116.01,0,-43.433,81.232,102,1,4.47,0,-4.47,0
-2.1757e-20,0.024418,0,0,0,0,0,0,0,0,-28.631,3.6884,0,-115.85,0,-43.375,81.113,102,1,4.475,0,-4.475,0
-2.1752e-20,0.02442,0,0,0,0,0,0,0,0,-28.599,3.6796,0,-115.69,0,-43.316,80.993,102,1,4.48,0,-4.48,0
-2.1748e-20,0.024423,0,0,0,0,0,0,0,0,-28.566,3.6707,0,-115.52,0,-43.258,80.873,102,1,4.485,0,-4.485,0
-2.1743e-20,0.024425,0,0,0,0,0,0,0,0,-28.534,3.6619,0,-115.36,0,-43.199,80.753,102,1,4.49,0,-4.49,0
-2.1738e-20,0.024428,0,0,0,0,0,0,0,0,-28.502,3.653,0,-115.2,0,-43.141,80.633,102,1,4.495,0,-4.495,0
-2.1733e-20,0.02443,0,0,0,0,0,0,0,0,-28.47,3.6441,0,-115.04,0,-43.082,80.513,102,1,4.5,0,-4.5,0
-2.1728e-20,0.024433,0,0,0,0,0,0,0,0,-28.437,3.6353,0,-114.87,0,-43.024,80.393,102,1,4.505,0,-4.505,0
-2.1723e-20,0.024435,0,0,0,0,0,0,0,0,-28.405,3.6264,0,-114.71,0,-42.965,80.273,102,1,4.51,0,-4.51,0
-2.1718e-20,0.024438,0,0,0,0,0,0,0,0,-28.373,3.6176,0,-114.55,0,-42.907,80.153,102,1,4.515,0,-4.515,0
-2.1713e-20,0.02444,0,0,0,0,0,0,0,0,-28.341,3.6087,0,-114.39,0,-42.849,80.033,102,1,4.52,0,-4.52,0
-2.1708e-20,0.024443,0,0,0,0,0,0,0,0,-28.308,3.5999,0,-114.22,0,-42.79,79.913,102,1,4.525,0,-4.525,0
-2.1704e-20,0.024445,0,0,0,0,0,0,0,0,-28.276,3.591,0,-114.06,0,-42.732,79.794,102,1,4.53,0,-4.53,0
-2.1699e-20,0.024448,0,0,0,0,0,0,0,0,-28.244,3.5821,0,-113.9,0,-42.673,79.674,102,1,4.535,0,-4.535,0
-2.1694e-20,0.02445,0,0,0,0,0,0,0,0,-28.211,3.5733,0,-113.74,0,-42.615,79.554,102,1,4.54,0,-4.54,0
-2.1689e-20,0.024453,0,0,0,0,0,0,0,0,-28.179,3.5644,0,-113.58,0,-42.556,79.434,102,1,4.545,0,-4.545,0
-2.1684e-20,0.024455,0,0,0,0,0,0,0,0,-28.147,3.5556,0,-113.41,0,-42.498,79.314,102,1,4.55,0,-4.55,0
-2.1679e-20,0.024458,0,0,0,0,0,0,0,0,-28.115,3.5467,0,-113.25,0,-42.439,79.194,102,1,4.555,0,-4.555,0
-2.1674e-20,0.02446,0,0,0,0,0,0,0,0,-28.082,3.5379,0,-113.09,0,-42.381,79.074,102,1,4.56,0,-4.56,0
-2.1669e-20,0.024463,0,0,0,0,0,0,0,0,-28.05,3.529,0,-112.93,0,-42.322,78.954,102,1,4.565,0,-4.565,0
-2.1664e-20,0.024465,0,0,0,0,0,0,0,0,-28.018,3.5202,0,-112.76,0,-42.264,78.834,102,1,4.57,0,-4.57,0
-2.1659e-20,0.024468,0,0,0,0,0,0,0,0,-27.986,3.5113,0,-112.6,0,-42.205,78.714,102,1,4.575,0,-4.575,0
-2.1655e-20,0.02447,0,0,0,0,0,0,0,0,-27.953,3.5024,0,-112.44,0,-42.147,78.595,102,1,4.58,0,-4.58,0
-2.165e-20,0.024473,0,0,0,0,0,0,0,0,-27.921,3.4936,0,-112.28,0,-42.089,78.475,102,1,4.585,0,-4.585,0
-2.1645e-20,0.024475,0,0,0,0,0,0,0,0,-27.889,3.4847,0,-112.11,0,-42.03,78.355,102,1,4.59,0,-4.59,0
-2.164e-20,0.024478,0,0,0,0,0,0,0,0,-27.856,3.4759,0,-111.95,0,-41.972,78.235,102,1,4.595,0,-4.595,0
-2.1635e-20,0.02448,0,0,0,0,0,0,0,0,-27.824,3.467,0,-111.79,0,-41.913,78.115,102,1,4.6,0,-4.6,0
-2.163e-20,0.024483,0,0,0,0,0,0,0,0,-27.792,3.4582,0,-111.63,0,-41.855,77.995,102,1,4.605,0,-4.605,0
-2.1625e-20,0.024485,0,0,0,0,0,0,0,0,-27.76,3.4493,0,-111.47,0,-41.796,77.875,102,1,4.61,0,-4.61,0
-2.162e-20,0.024488,0,0,0,0,0,0,0,0,-27.727,3.4405,0,-111.3,0,-41.738,77.755,102,1,4.615,0,-4.615,0
-2.1615e-20,0.02449,0,0,0,0,0,0,0,0,-27.695,3.4316,0,-111.14,0,-41.679,77.635,102,1,4.62,0,-4.62,0
-2.1611e-20,0.024493,0,0,0,0,0,0,0,0,-27.663,3.4227,0,-110.98,0,-41.621,77.515,102,1,4.625,0,-4.625,0
-2.1606e-20,0.024495,0,0,0,0,0,0,0,0,-27.631,3.4139,0,-110.82,0,-41.562,77.395,102,1,4.63,0,-4.63,0
-2.1601e-20,0.024498,0,0,0,0,0,0,0,0,-27.598,3.405,0,-110.65,0,-41.504,77.276,102,1,4.635,0,-4.635,0
-2.1596e-20,0.0245,0,0,0,0,0,0,0,0,-27.566,3.3962,0,-110.49,0,-41.445,77.156,102,1,4.64,0,-4.64,0
-2.1591e-20,0.024503,0,0,0,0,0,0,0,0,-27.534,3.3873,0,-110.33,0,-41.387,77.036,102,1,4.645,0,-4.645,0
-2.1586e-20,0.024505,0,0,0,0,0,0,0,0,-27.501,3.3785,0,-110.17,0,-41.329,76.916,102,1,4.65,0,-4.65,0
-2.1581e-20,0.024508,0,0,0,0,0,0,0,0,-27.469,3.3696,0,-110,0,-41.27,76.796,102,1,4.655,0,-4.655,0
-2.1576e-20,0.02451,0,0,0,0,0,0,0,0,-27.437,3.3608,0,-109.84,0,-41.212,76.676,102,1,4.66,0,-4.66,0
-2.1571e-20,0.024513,0,0,0,0,0,0,0,0,-27.405,3.3519,0,-109.68,0,-41.153,76.556,102,1,4.665,0,-4.665,0
-2.1566e-20,0.024515,0,0,0,0,0,0,0,0,-27.372,3.343,0,-109.52,0,-41.095,76.436,102,1,4.67,0,-4.67,0
-2.1562e-20,0.024518,0,0,0,0,0,0,0,0,-27.34,3.3342,0,-109.36,0,-41.036,76.316,102,1,4.675,0,-4.675,0
-2.1557e-20,0.02452,0,0,0,0,0,0,0,0,-27.308,3.3253,0,-109.19,0,-40.978,76.196,102,1,4.68,0,-4.68,0
-2.1552e-20,0.024523,0,0,0,0,0,0,0,0,-27.276,3.3165,0,-109.03,0,-40.919,76.077,102,1,4.685,0,-4.685,0
-2.1547e-20,0.024525,0,0,0,0,0,0,0,0,-27.242,3.3109,0,-108.91,0,-40.873,75.996,102,1,4.69,0,-4.69,0
-2.1543e-20,0.024527,0,0,0,0,0,0,0,0,-27.207,3.3061,0,-108.8,0,-40.83,75.925,102,1,4.695,0,-4.695,0
-2.1538e-20,0.024529,0,0,0,0,0,0,0,0,-27.173,3.3014,0,-108.69,0,-40.787,75.855,102,1,4.7,0,-4.7,0
-2.1534e-20,0.024531,0,0,0,0,0,0,0,0,-27.139,3.2967,0,-108.59,0,-40.745,75.784,102,1,4.705,0,-4.705,0
-2.153e-20,0.024533,0,0,0,0,0,0,0,0,-27.104,3.2919,0,-108.48,0,-40.702,75.714,102,1,4.71,0,-4.71,0
-2.1525e-20,0.024535,0,0,0,0,0,0,0,0,-27.07,3.2872,0,-108.37,0,-40.659,75.643,102,1,4.715,0,-4.715,0
-2.1521e-20,0.024537,0,0,0,0,0,0,0,0,-27.036,3.2825,0,-108.26,0,-40.616,75.573,102,1,4.72,0,-4.72,0
-2.1516e-20,0.024539,0,0,0,0,0,0,0,0,-27.001,3.2777,0,-108.15,0,-40.573,75.502,102,1,4.725,0,-4.725,0
-2.1512e-20,0.024541,0,0,0,0,0,0,0,0,-26.967,3.273,0,-108.04,0,-40.53,75.432,102,1,4.73,0,-4.73,0
-2.1508e-20,0.024543,0,0,0,0,0,0,0,0,-26.933,3.2683,0,-107.94,0,-40.487,75.361,102,1,4.735,0,-4.735,0
-2.1503e-20,0.024545,0,0,0,0,0,0,0,0,-26.898,3.2635,0,-107.83,0,-40.445,75.291,102,1,4.74,0,-4.74,0
-2.1499e-20,0.024547,0,0,0,0,0,0,0,0,-26.864,3.2588,0,-107.72,0,-40.402,75.22,102,1,4.745,0,-4.745,0
-2.1494e-20,0.024549,0,0,0,0,0,0,0,0,-26.83,3.2541,0,-107.61,0,-40.359,75.15,102,1,4.75,0,-4.75,0
-2.149e-20,0.024551,0,0,0,0,0,0,0,0,-26.796,3.2493,0,-107.5,0,-40.316,75.079,102,1,4.755,0,-4.755,0
-2.1485e-20,0.024553,0,0,0,0,0,0,0,0,-26.761,3.2446,0,-107.39,0,-40.273,75.009,102,1,4.76,0,-4.76,0
-2.1481e-20,0.024555,0,0,0,0,0,0,0,0,-26.727,3.2399,0,-107.29,0,-40.23,74.938,102,1,4.765,0,-4.765,0
-2.1477e-20,0.024557,0,0,0,0,0,0,0,0,-26.693,3.2351,0,-107.18,0,-40.187,74.868,102,1,4.77,0,-4.77,0
-2.1472e-20,0.024559,0,0,0,0,0,0,0,0,-26.658,3.2304,0,-107.07,0,-40.144,74.797,102,1,4.775,0,-4.775,0
-2.1468e-20,0.024561,0,0,0,0,0,0,0,0,-26.624,3.2257,0,-106.96,0,-40.102,74.727,102,1,4.78,0,-4.78,0
-2.1463e-20,0.024563,0,0,0,0,0,0,0,0,-26.59,3.2209,0,-106.85,0,-40.059,74.656,102,1,4.785,0,-4.785,0
-2.1459e-20,0.024565,0,0,0,0,0,0,0,0,-26.555,3.2162,0,-106.74,0,-40.016,74.586,102,1,4.79,0,-4.79,0
-2.1454e-20,0.024567,0,0,0,0,0,0,0,0,-26.521,3.2114,0,-106.63,0,-39.973,74.515,102,1,4.795,0,-4.795,0
-2.145e-20,0.024569,0,0,0,0,0,0,0,0,-26.487,3.2067,0,-106.53,0,-39.93,74.444,102,1,4.8,0,-4.8,0
-2.1446e-20,0.024571,0,0,0,0,0,0,0,0,-26.452,3.202,0,-106.42,0,-39.887,74.374,102,1,4.805,0,-4.805,0
-2.1441e-20,0.024573,0,0,0,0,0,0,0,0,-26.418,3.1972,0,-106.31,0,-39.844,74.303,102,1,4.81,0,-4.81,0
-2.1437e-20,0.024575,0,0,0,0,0,0,0,0,-26.384,3.1925,0,-106.2,0,-39.802,74.233,102,1,4.815,0,-4.815,0
-2.1432e-20,0.024577,0,0,0,0,0,0,0,0,-26.349,3.1878,0,-106.09,0,-39.759,74.162,102,1,4.82,0,-4.82,0
-2.1428e-20,0.024579,0,0,0,0,0,0,0,0,-26.315,3.183,0,-105.98,0,-39.716,74.092,102,1,4.825,0,-4.825,0
-2.1424e-20,0.024581,0,0,0,0,0,0,0,0,-26.281,3.1783,0,-105.88,0,-39.673,74.021,102,1,4.83,0,-4.83,0
-2.1419e-20,0.024583,0,0,0,0,0,0,0,0,-26.247,3.1736,0,-105.77,0,-39.63,73.951,102,1,4.835,0,-4.835,0
-2.1415e-20,0.024585,0,0,0,0,0,0,0,0,-26.212,3.1688,0,-105.66,0,-39.587,73.88,102,1,4.84,0,-4.84,0
-2.141e-20,0.024587,0,0,0,0,0,0,0,0,-26.178,3.1641,0,-105.55,0,-39.544,73.81,102,1,4.845,0,-4.845,0
-2.1406e-20,0.024589,0,0,0,0,0,0,0,0,-26.144,3.1594,0,-105.44,0,-39.501,73.739,102,1,4.85,0,-4.85,0
-2.1401e-20,0.024591,0,0,0,0,0,0,0,0,-26.109,3.1546,0,-105.33,0,-39.459,73.669,102,1,4.855,0,-4.855,0
-2.1397e-20,0.024593,0,0,0,0,0,0,0,0,-26.075,3.1499,0,-105.23,0,-39.416,73.598,102,1,4.86,0,-4.86,0
-2.1393e-20,0.024595,0,0,0,0,0,0,0,0,-26.041,3.1452,0,-105.12,0,-39.373,73.528,102,1,4.865,0,-4.865,0
-2.1388e-20,0.024597,0,0,0,0,0,0,0,0,-26.006,3.1404,0,-105.01,0,-39.33,73.457,102,1,4.87,0,-4.87,0
-2.1384e-20,0.024599,0,0,0,0,0,0,0,0,-25.972,3.1357,0,-104.9,0,-39.287,73.387,102,1,4.875,0,-4.875,0
-2.1379e-20,0.024601,0,0,0,0,0,0,0,0,-25.938,3.131,0,-104.79,0,-39.244,73.316,102,1,4.88,0,-4.88,0
-2.1375e-20,0.024603,0,0,0,0,0,0,0,0,-25.903,3.1262,0,-104.68,0,-39.201,73.246,102,1,4.885,0,-4.885,0
-2.1371e-20,0.024605,0,0,0,0,0,0,0,0,-25.869,3.1215,0,-104.57,0,-39.159,73.175,102,1,4.89,0,-4.89,0
-2.1366e-20,0.024607,0,0,0,0,0,0,0,0,-25.835,3.1168,0,-104.47,0,-39.116,73.105,102,1,4.895,0,-4.895,0
-2.1362e-20,0.024609,0,0,0,0,0,0,0,0,-25.8,3.112,0,-104.36,0,-39.073,73.034,102,1,4.9,0,-4.9,0
-2.1357e-20,0.024611,0,0,0,0,0,0,0,0,-25.766,3.1073,0,-104.25,0,-39.03,72.964,102,1,4.905,0,-4.905,0
-2.1353e-20,0.024613,0,0,0,0,0,0,0,0,-25.732,3.1025,0,-104.14,0,-38.987,72.893,102,1,4.91,0,-4.91,0
-2.1348e-20,0.024615,0,0,0,0,0,0,0,0,-25.697,3.0978,0,-104.03,0,-38.944,72.823,102,1,4.915,0,-4.915,0
-2.1344e-20,0.024617,0,0,0,0,0,0,0,0,-25.663,3.0931,0,-103.92,0,-38.901,72.752,102,1,4.92,0,-4.92,0
-2.134e-20,0.024619,0,0,0,0,0,0,0,0,-25.629,3.0883,0,-103.82,0,-38.858,72.682,102,1,4.925,0,-4.925,0
-2.1335e-20,0.024621,0,0,0,0,0,0,0,0,-25.595,3.0836,0,-103.71,0,-38.816,72.611,102,1,4.93,0,-4.93,0
-2.1331e-20,0.024623,0,0,0,0,0,0,0,0,-25.56,3.0789,0,-103.6,0,-38.773,72.541,102,1,4.935,0,-4.935,0
-2.1326e-20,0.024625,0,0,0,0,0,0,0,0,-25.526,3.0741,0,-103.49,0,-38.73,72.47,102,1,4.94,0,-4.94,0
-2.1322e-20,0.024627,0,0,0,0,0,0,0,0,-25.492,3.0694,0,-103.38,0,-38.687,72.4,102,1,4.945,0,-4.945,0
-2.1318e-20,0.024629,0,0,0,0,0,0,0,0,-25.457,3.0647,0,-103.27,0,-38.644,72.329,102,1,4.95,0,-4.95,0
-2.1313e-20,0.024631,0,0,0,0,0,0,0,0,-25.423,3.0599,0,-103.17,0,-38.601,72.259,102,1,4.955,0,-4.955,0
-2.1309e-20,0.024633,0,0,0,0,0,0,0,0,-25.389,3.0552,0,-103.06,0,-38.558,72.188,102,1,4.96,0,-4.96,0
-2.1304e-20,0.024635,0,0,0,0,0,0,0,0,-25.354,3.0505,0,-102.95,0,-38.516,72.118,102,1,4.965,0,-4.965,0
-2.13e-20,0.024637,0,0,0,0,0,0,0,0,-25.32,3.0457,0,-102.84,0,-38.473,72.047,102,1,4.97,0,-4.97,0
-2.1295e-20,0.024639,0,0,0,0,0,0,0,0,-25.286,3.041,0,-102.73,0,-38.43,71.977,102,1,4.975,0,-4.975,0
-2.1291e-20,0.024641,0,0,0,0,0,0,0,0,-25.251,3.0363,0,-102.62,0,-38.387,71.906,102,1,4.98,0,-4.98,0
-2.1287e-20,0.024643,0,0,0,0,0,0,0,0,-25.217,3.0315,0,-102.51,0,-38.344,71.836,102,1,4.985,0,-4.985,0
-2.1282e-20,0.024645,0,0,0,0,0,0,0,0,-25.183,3.0268,0,-102.41,0,-38.301,71.765,102,1,4.99,0,-4.99,0
-2.1278e-20,0.024647,0,0,0,0,0,0,0,0,-25.148,3.0221,0,-102.3,0,-38.258,71.695,102,1,4.995,0,-4.995,0
-2.1273e-20,0.024649,0,0,0,0,0,0,0,0,-25.114,3.0173,0,-102.19,0,-38.215,71.624,102,1,5,0,-5,0
