"CONTACT:0","CONTACT:1","CONTACT:2","CONTACT:3","CONTACT:4","CONTACT:5","E:0","E:1","E:2","E:3","E:4","E:5","ERROR","E_Mises","E_Principal:0","E_Principal:1","E_Principal:2","S:0","S:1","S:2","S:3","S:4","S:5","S_Mises","S_Principal:0","S_Principal:1","S_Principal:2","U:0","U:1","U:2","vtkValidPointMask","arc_length","Points:0","Points:1","Points:2"
-0.00014663,0,0,1466.3,0,0,-0.0025186,-0.0055073,3.4708e-37,-0.0029949,5.3868e-19,6.408e-21,37.452,0.0070507,-0.00736,-0.00066588,-2.3849e-31,-1318.1,-1762.9,-933.18,-453.7,8.2121e-14,9.8755e-16,1065.2,-2045.8,-1035.2,-933.18,-4.077e-30,0.010057,0,1,0,0,0,0
0,0,0,0,0,0,-0.0017508,-0.0043656,-1.1892e-36,0.0032362,-2.0597e-19,-4.9955e-21,54.1,0.0067819,-0.006553,-3.0463e-35,0.00043651,-977.62,-1368.5,-709.69,492.29,-3.1563e-14,-7.3185e-16,1028.8,-1703.4,-709.69,-642.71,0,0.010225,0,1,0.005,0,-0.005,0
0,0,0,0,0,0,-0.0017296,-0.0043564,-1.1668e-36,0.0032153,-2.0282e-19,-4.9153e-21,54.1,0.0067555,-0.006525,-3.0133e-35,0.00043893,-970.84,-1363.6,-706.15,489.13,-3.1082e-14,-7.1994e-16,1024.9,-1695.6,-706.15,-638.8,0,0.010247,0,1,0.01,0,-0.01,0
0,0,0,0,0,0,-0.0017085,-0.0043472,-1.1444e-36,0.0031944,-1.9968e-19,-4.8351e-21,54.1,0.006729,-0.006497,-2.9802e-35,0.00044134,-964.07,-1358.7,-702.61,485.96,-3.06e-14,-7.0802e-16,1020.9,-1687.9,-702.61,-634.89,0,0.010269,0,1,0.015,0,-0.015,0
0,0,0,0,0,0,-0.0016873,-0.004338,-1.122e-36,0.0031735,-1.9654e-19,-4.7548e-21,54.1,0.0067026,-0.0064691,-2.9472e-35,0.00044375,-957.29,-1353.9,-699.08,482.8,-3.0119e-14,-6.9611e-16,1016.9,-1680.2,-699.08,-630.99,0,0.010291,0,1,0.02,0,-0.02,0
0,0,0,0,0,0,-0.0016661,-0.0043288,-1.0996e-36,0.0031526,-1.934e-19,-4.6746e-21,54.1,0.0066761,-0.0064411,-2.9142e-35,0.00044616,-950.52,-1349,-695.54,479.64,-2.9638e-14,-6.8419e-16,1013,-1672.4,-695.54,-627.08,0,0.010313,0,1,0.025,0,-0.025,0
0,0,0,0,0,0,-0.0016449,-0.0043196,-1.0772e-36,0.0031317,-1.9026e-19,-4.5944e-21,54.1,0.0066496,-0.0064131,-2.8812e-35,0.00044857,-943.74,-1344.1,-692.01,476.47,-2.9156e-14,-6.7228e-16,1009,-1664.7,-692.01,-623.17,0,0.010335,0,1,0.03,0,-0.03,0
0,0,0,0,0,0,-0.0016238,-0.0043104,-1.0548e-36,0.0031108,-1.8711e-19,-4.5142e-21,54.1,0.0066232,-0.0063851,-2.8482e-35,0.00045098,-936.96,-1339.2,-688.47,473.31,-2.8675e-14,-6.6036e-16,1005,-1656.9,-688.47,-619.26,0,0.010357,0,1,0.035,0,-0.035,0
0,0,0,0,0,0,-0.0016026,-0.0043012,-1.0324e-36,0.0030899,-1.8397e-19,-4.434e-21,54.1,0.0065967,-0.0063572,-2.8152e-35,0.00045339,-930.19,-1334.4,-684.94,470.15,-2.8193e-14,-6.4845e-16,1001.1,-1649.2,-684.94,-615.35,0,0.010379,0,1,0.04,0,-0.04,0
0,0,0,0,0,0,-0.0015814,-0.004292,-1.01e-36,0.003069,-1.8083e-19,-4.3538e-21,54.1,0.0065703,-0.0063292,-2.7821e-35,0.0004558,-923.41,-1329.5,-681.4,466.99,-2.7712e-14,-6.3654e-16,997.08,-1641.5,-681.4,-611.45,0,0.0104,0,1,0.045,0,-0.045,0
0,0,0,0,0,0,-0.0015602,-0.0042828,-9.8766e-37,0.0030481,-1.7769e-19,-4.2736e-21,54.1,0.0065438,-0.0063012,-2.7491e-35,0.00045821,-916.63,-1324.6,-677.86,463.82,-2.7231e-14,-6.2462e-16,993.11,-1633.7,-677.86,-607.54,0,0.010422,0,1,0.05,0,-0.05,0
0,0,0,0,0,0,-0.0015391,-0.0042736,-9.6527e-37,0.0030272,-1.7455e-19,-4.1934e-21,54.1,0.0065173,-0.0062732,-2.7161e-35,0.00046062,-909.86,-1319.8,-674.33,460.66,-2.6749e-14,-6.1271e-16,989.15,-1626,-674.33,-603.63,0,0.010444,0,1,0.055,0,-0.055,0
0,0,0,0,0,0,-0.0015179,-0.0042644,-9.4289e-37,0.0030063,-1.7141e-19,-4.1132e-21,54.1,0.0064909,-0.0062453,-2.6831e-35,0.00046304,-903.08,-1314.9,-670.79,457.5,-2.6268e-14,-6.0079e-16,985.18,-1618.2,-670.79,-599.72,0,0.010466,0,1,0.06,0,-0.06,0
0,0,0,0,0,0,-0.0014967,-0.0042551,-9.205e-37,0.0029854,-1.6826e-19,-4.033e-21,54.1,0.0064644,-0.0062173,-2.6501e-35,0.00046545,-896.3,-1310,-667.26,454.33,-2.5786e-14,-5.8888e-16,981.21,-1610.5,-667.26,-595.81,0,0.010488,0,1,0.065,0,-0.065,0
0,0,0,0,0,0,-0.0014755,-0.0042459,-8.9811e-37,0.0029645,-1.6512e-19,-3.9528e-21,54.1,0.006438,-0.0061893,-2.617e-35,0.00046786,-889.53,-1305.1,-663.72,451.17,-2.5305e-14,-5.7696e-16,977.24,-1602.8,-663.72,-591.91,0,0.01051,0,1,0.07,0,-0.07,0
0,0,0,0,0,0,-0.0014544,-0.0042367,-8.7572e-37,0.0029436,-1.6198e-19,-3.8726e-21,54.1,0.0064115,-0.0061614,-2.584e-35,0.00047027,-882.75,-1300.3,-660.19,448.01,-2.4824e-14,-5.6505e-16,973.27,-1595,-660.19,-588,0,0.010532,0,1,0.075,0,-0.075,0
0,0,0,0,0,0,-0.0014332,-0.0042275,-8.5334e-37,0.0029227,-1.5884e-19,-3.7923e-21,54.1,0.0063851,-0.0061334,-2.551e-35,0.00047268,-875.97,-1295.4,-656.65,444.85,-2.4342e-14,-5.5313e-16,969.3,-1587.3,-656.65,-584.09,0,0.010554,0,1,0.08,0,-0.08,0
0,0,0,0,0,0,-0.001412,-0.0042183,-8.3095e-37,0.0029018,-1.557e-19,-3.7121e-21,54.1,0.0063586,-0.0061054,-2.518e-35,0.00047509,-869.2,-1290.5,-653.12,441.68,-2.3861e-14,-5.4122e-16,965.33,-1579.6,-653.12,-580.18,0,0.010576,0,1,0.085,0,-0.085,0
0,0,0,0,0,0,-0.0013908,-0.0042091,-8.0856e-37,0.0028809,-1.5256e-19,-3.6319e-21,54.1,0.0063321,-0.0060774,-2.485e-35,0.0004775,-862.42,-1285.7,-649.58,438.52,-2.3379e-14,-5.293e-16,961.36,-1571.8,-649.58,-576.27,0,0.010598,0,1,0.09,0,-0.09,0
0,0,0,0,0,0,-0.0013697,-0.0041999,-7.8617e-37,0.00286,-1.4941e-19,-3.5517e-21,54.1,0.0063057,-0.0060495,-2.4519e-35,0.00047991,-855.64,-1280.8,-646.04,435.36,-2.2898e-14,-5.1739e-16,957.39,-1564.1,-646.04,-572.37,0,0.01062,0,1,0.095,0,-0.095,0
0,0,0,0,0,0,-0.0013485,-0.0041907,-7.6378e-37,0.002839,-1.4627e-19,-3.4715e-21,54.1,0.0062792,-0.0060215,-2.4189e-35,0.00048232,-848.87,-1275.9,-642.51,432.19,-2.2417e-14,-5.0547e-16,953.42,-1556.3,-642.51,-568.46,0,0.010641,0,1,0.1,0,-0.1,0
0,0,0,0,0,0,-0.0013273,-0.0041815,-7.414e-37,0.0028181,-1.4313e-19,-3.3913e-21,54.1,0.0062528,-0.0059935,-2.3859e-35,0.00048473,-842.09,-1271.1,-638.97,429.03,-2.1935e-14,-4.9356e-16,949.45,-1548.6,-638.97,-564.55,0,0.010663,0,1,0.105,0,-0.105,0
0,0,0,0,0,0,-0.0013061,-0.0041723,-7.1901e-37,0.0027972,-1.3999e-19,-3.3111e-21,54.1,0.0062263,-0.0059656,-2.3529e-35,0.00048715,-835.31,-1266.2,-635.44,425.87,-2.1454e-14,-4.8164e-16,945.48,-1540.9,-635.44,-560.64,0,0.010685,0,1,0.11,0,-0.11,0
0,0,0,0,0,0,-0.001285,-0.0041631,-6.9662e-37,0.0027763,-1.3685e-19,-3.2309e-21,54.1,0.0061998,-0.0059376,-2.3199e-35,0.00048956,-828.54,-1261.3,-631.9,422.71,-2.0972e-14,-4.6973e-16,941.51,-1533.1,-631.9,-556.74,0,0.010707,0,1,0.115,0,-0.115,0
0,0,0,0,0,0,-0.0012638,-0.0041539,-6.7423e-37,0.0027554,-1.3371e-19,-3.1507e-21,54.1,0.0061734,-0.0059096,-2.2868e-35,0.00049197,-821.76,-1256.4,-628.37,419.54,-2.0491e-14,-4.5781e-16,937.54,-1525.4,-628.37,-552.83,0,0.010729,0,1,0.12,0,-0.12,0
0,0,0,0,0,0,-0.0012426,-0.0041447,-6.5184e-37,0.0027345,-1.3056e-19,-3.0705e-21,54.1,0.0061469,-0.0058816,-2.2538e-35,0.00049438,-814.98,-1251.6,-624.83,416.38,-2.001e-14,-4.459e-16,933.57,-1517.6,-624.83,-548.92,0,0.010751,0,1,0.125,0,-0.125,0
0,0,0,0,0,0,-0.0012214,-0.0041354,-6.2946e-37,0.0027136,-1.2742e-19,-2.9903e-21,54.1,0.0061205,-0.0058537,-2.2208e-35,0.00049679,-808.21,-1246.7,-621.3,413.22,-1.9528e-14,-4.3398e-16,929.6,-1509.9,-621.3,-545.01,0,0.010773,0,1,0.13,0,-0.13,0
0,0,0,0,0,0,-0.0012002,-0.0041262,-6.0707e-37,0.0026927,-1.2428e-19,-2.91e-21,54.1,0.006094,-0.0058257,-2.1878e-35,0.0004992,-801.43,-1241.8,-617.76,410.05,-1.9047e-14,-4.2207e-16,925.63,-1502.2,-617.76,-541.1,0,0.010795,0,1,0.135,0,-0.135,0
0,0,0,0,0,0,-0.0011791,-0.004117,-5.8468e-37,0.0026718,-1.2114e-19,-2.8298e-21,54.1,0.0060676,-0.0057977,-2.1548e-35,0.00050161,-794.65,-1237,-614.22,406.89,-1.8565e-14,-4.1015e-16,921.66,-1494.4,-614.22,-537.2,0,0.010817,0,1,0.14,0,-0.14,0
0,0,0,0,0,0,-0.0011579,-0.0041078,-5.6229e-37,0.0026509,-1.18e-19,-2.7496e-21,54.1,0.0060411,-0.0057697,-2.1217e-35,0.00050402,-787.88,-1232.1,-610.69,403.73,-1.8084e-14,-3.9824e-16,917.69,-1486.7,-610.69,-533.29,0,0.010839,0,1,0.145,0,-0.145,0
0,0,0,0,0,0,-0.0011367,-0.0040986,-5.3991e-37,0.00263,-1.1486e-19,-2.6694e-21,54.1,0.0060146,-0.0057418,-2.0887e-35,0.00050643,-781.1,-1227.2,-607.15,400.57,-1.7603e-14,-3.8633e-16,913.72,-1478.9,-607.15,-529.38,0,0.010861,0,1,0.15,0,-0.15,0
0,0,0,0,0,0,-0.0011155,-0.0040894,-5.1752e-37,0.0026091,-1.1171e-19,-2.5892e-21,54.1,0.0059882,-0.0057138,-2.0557e-35,0.00050884,-774.32,-1222.3,-603.62,397.4,-1.7121e-14,-3.7441e-16,909.75,-1471.2,-603.62,-525.47,0,0.010883,0,1,0.155,0,-0.155,0
0,0,0,0,0,0,-0.0010944,-0.0040802,-4.9513e-37,0.0025882,-1.0857e-19,-2.509e-21,54.1,0.0059617,-0.0056858,-2.0227e-35,0.00051126,-767.55,-1217.5,-600.08,394.24,-1.664e-14,-3.625e-16,905.78,-1463.5,-600.08,-521.56,0,0.010904,0,1,0.16,0,-0.16,0
0,0,0,0,0,0,-0.0010732,-0.004071,-4.7274e-37,0.0025673,-1.0543e-19,-2.4288e-21,54.1,0.0059353,-0.0056579,-1.9897e-35,0.00051367,-760.77,-1212.6,-596.55,391.08,-1.6158e-14,-3.5058e-16,901.81,-1455.7,-596.55,-517.66,0,0.010926,0,1,0.165,0,-0.165,0
0,0,0,0,0,0,-0.001052,-0.0040618,-4.5035e-37,0.0025464,-1.0229e-19,-2.3486e-21,54.1,0.0059088,-0.0056299,-1.9567e-35,0.00051608,-753.99,-1207.7,-593.01,387.91,-1.5677e-14,-3.3867e-16,897.84,-1448,-593.01,-513.75,0,0.010948,0,1,0.17,0,-0.17,0
0,0,0,0,0,0,-0.0010308,-0.0040526,-4.2797e-37,0.0025255,-9.9146e-20,-2.2684e-21,54.1,0.0058824,-0.0056019,-1.9236e-35,0.00051849,-747.22,-1202.9,-589.48,384.75,-1.5196e-14,-3.2675e-16,893.87,-1440.2,-589.48,-509.84,0,0.01097,0,1,0.175,0,-0.175,0
0,0,0,0,0,0,-0.0010097,-0.0040434,-4.0558e-37,0.0025046,-9.6005e-20,-2.1882e-21,54.1,0.0058559,-0.0055739,-1.8906e-35,0.0005209,-740.44,-1198,-585.94,381.59,-1.4714e-14,-3.1484e-16,889.9,-1432.5,-585.94,-505.93,0,0.010992,0,1,0.18,0,-0.18,0
0,0,0,0,0,0,-0.00098849,-0.0040342,-3.8319e-37,0.0024837,-9.2863e-20,-2.108e-21,54.1,0.0058294,-0.005546,-1.8576e-35,0.00052331,-733.67,-1193.1,-582.4,378.43,-1.4233e-14,-3.0292e-16,885.93,-1424.8,-582.4,-502.02,0,0.011014,0,1,0.185,0,-0.185,0
0,0,0,0,0,0,-0.00096731,-0.004025,-3.608e-37,0.0024628,-8.9721e-20,-2.0278e-21,54.1,0.005803,-0.005518,-1.8246e-35,0.00052572,-726.89,-1188.3,-578.87,375.26,-1.3751e-14,-2.9101e-16,881.96,-1417,-578.87,-498.12,0,0.011036,0,1,0.19,0,-0.19,0
0,0,0,0,0,0,-0.00094614,-0.0040158,-3.3842e-37,0.0024419,-8.658e-20,-1.9475e-21,54.1,0.0057765,-0.00549,-1.7916e-35,0.00052813,-720.11,-1183.4,-575.33,372.1,-1.327e-14,-2.7909e-16,877.99,-1409.3,-575.33,-494.21,0,0.011058,0,1,0.195,0,-0.195,0
0,0,0,0,0,0,-0.00092496,-0.0040065,-3.1603e-37,0.0024209,-8.3438e-20,-1.8673e-21,54.1,0.0057501,-0.005462,-1.7585e-35,0.00053054,-713.34,-1178.5,-571.8,368.94,-1.2789e-14,-2.6718e-16,874.02,-1401.5,-571.8,-490.3,0,0.01108,0,1,0.2,0,-0.2,0
0,0,0,0,0,0,-0.00090379,-0.0039973,-2.9364e-37,0.0024,-8.0296e-20,-1.7871e-21,54.1,0.0057236,-0.0054341,-1.7255e-35,0.00053295,-706.56,-1173.6,-568.26,365.77,-1.2307e-14,-2.5526e-16,870.05,-1393.8,-568.26,-486.39,0,0.011102,0,1,0.205,0,-0.205,0
0,0,0,0,0,0,-0.00088261,-0.0039881,-2.7125e-37,0.0023791,-7.7154e-20,-1.7069e-21,54.1,0.0056971,-0.0054061,-1.6925e-35,0.00053537,-699.78,-1168.8,-564.73,362.61,-1.1826e-14,-2.4335e-16,866.08,-1386.1,-564.73,-482.48,0,0.011124,0,1,0.21,0,-0.21,0
0,0,0,0,0,0,-0.00086143,-0.0039789,-2.4886e-37,0.0023582,-7.4013e-20,-1.6267e-21,54.1,0.0056707,-0.0053781,-1.6595e-35,0.00053778,-693.01,-1163.9,-561.19,359.45,-1.1344e-14,-2.3143e-16,862.11,-1378.3,-561.19,-478.58,0,0.011145,0,1,0.215,0,-0.215,0
0,0,0,0,0,0,-0.00084026,-0.0039697,-2.2648e-37,0.0023373,-7.0871e-20,-1.5465e-21,54.1,0.0056442,-0.0053502,-1.6265e-35,0.00054019,-686.23,-1159,-557.65,356.29,-1.0863e-14,-2.1952e-16,858.14,-1370.6,-557.65,-474.67,0,0.011167,0,1,0.22,0,-0.22,0
0,0,0,0,0,0,-0.00081908,-0.0039605,-2.0409e-37,0.0023164,-6.7729e-20,-1.4663e-21,54.1,0.0056178,-0.0053222,-1.5934e-35,0.0005426,-679.45,-1154.2,-554.12,353.12,-1.0382e-14,-2.076e-16,854.17,-1362.8,-554.12,-470.76,0,0.011189,0,1,0.225,0,-0.225,0
0,0,0,0,0,0,-0.00079791,-0.0039513,-1.817e-37,0.0022955,-6.4587e-20,-1.3861e-21,54.1,0.0055913,-0.0052942,-1.5604e-35,0.00054501,-672.68,-1149.3,-550.58,349.96,-9.9003e-15,-1.9569e-16,850.2,-1355.1,-550.58,-466.85,0,0.011211,0,1,0.23,0,-0.23,0
0,0,0,0,0,0,-0.00077673,-0.0039421,-1.5931e-37,0.0022746,-6.1446e-20,-1.3059e-21,54.1,0.0055649,-0.0052662,-1.5274e-35,0.00054742,-665.9,-1144.4,-547.05,346.8,-9.4189e-15,-1.8377e-16,846.23,-1347.4,-547.05,-462.95,0,0.011233,0,1,0.235,0,-0.235,0
0,0,0,0,0,0,-0.00075555,-0.0039329,-1.3693e-37,0.0022537,-5.8304e-20,-1.2257e-21,54.1,0.0055384,-0.0052383,-1.4944e-35,0.00054983,-659.12,-1139.5,-543.51,343.63,-8.9375e-15,-1.7186e-16,842.26,-1339.6,-543.51,-459.04,0,0.011255,0,1,0.24,0,-0.24,0
0,0,0,0,0,0,-0.00073438,-0.0039237,-1.1454e-37,0.0022328,-5.5162e-20,-1.1455e-21,54.1,0.0055119,-0.0052103,-1.4614e-35,0.00055224,-652.35,-1134.7,-539.98,340.47,-8.4561e-15,-1.5994e-16,838.29,-1331.9,-539.98,-455.13,0,0.011277,0,1,0.245,0,-0.245,0
0,0,0,0,0,0,-0.0007132,-0.0039145,-9.215e-38,0.0022119,-5.2021e-20,-1.0653e-21,54.1,0.0054855,-0.0051823,-1.4283e-35,0.00055465,-645.57,-1129.8,-536.44,337.31,-7.9747e-15,-1.4803e-16,834.32,-1324.2,-536.44,-451.22,0,0.011299,0,1,0.25,0,-0.25,0
0,0,0,0,0,0,-0.00069203,-0.0039053,-6.9762e-38,0.002191,-4.8879e-20,-9.8504e-22,54.1,0.005459,-0.0051544,-1.3953e-35,0.00055706,-638.79,-1124.9,-532.91,334.15,-7.4933e-15,-1.3612e-16,830.35,-1316.4,-532.91,-447.31,0,0.011321,0,1,0.255,0,-0.255,0
0,0,0,0,0,0,-0.00067085,-0.0038961,-4.7374e-38,0.0021701,-4.5737e-20,-9.0483e-22,54.1,0.0054326,-0.0051264,-1.3623e-35,0.00055948,-632.02,-1120.1,-529.37,330.98,-7.0119e-15,-1.242e-16,826.38,-1308.7,-529.37,-443.41,0,0.011343,0,1,0.26,0,-0.26,0
0,0,0,0,0,0,-0.00064967,-0.0038868,-2.4987e-38,0.0021492,-4.2595e-20,-8.2462e-22,54.1,0.0054061,-0.0050984,-1.3293e-35,0.00056189,-625.24,-1115.2,-525.83,327.82,-6.5305e-15,-1.1229e-16,822.41,-1300.9,-525.83,-439.5,0,0.011365,0,1,0.265,0,-0.265,0
0,0,0,0,0,0,-0.0006285,-0.0038776,-2.5988e-39,0.0021283,-3.9454e-20,-7.4442e-22,54.1,0.0053797,-0.0050704,-1.2963e-35,0.0005643,-618.46,-1110.3,-522.3,324.66,-6.0491e-15,-1.0037e-16,818.44,-1293.2,-522.3,-435.59,0,0.011387,0,1,0.27,0,-0.27,0
0,0,0,0,0,0,-0.00060732,-0.0038684,1.9789e-38,0.0021074,-3.6312e-20,-6.6421e-22,54.1,0.0053532,-0.0050425,-1.2632e-35,0.00056671,-611.69,-1105.4,-518.76,321.49,-5.5677e-15,-8.8456e-17,814.47,-1285.5,-518.76,-431.68,0,0.011408,0,1,0.275,0,-0.275,0
0,0,0,0,0,0,-0.00058615,-0.0038592,4.2177e-38,0.0020865,-3.317e-20,-5.84e-22,54.1,0.0053267,-0.0050145,-1.2302e-35,0.00056912,-604.91,-1100.6,-515.23,318.33,-5.0863e-15,-7.6541e-17,810.5,-1277.7,-515.23,-427.77,0,0.01143,0,1,0.28,0,-0.28,0
0,0,0,0,0,0,-0.00056497,-0.00385,6.4565e-38,0.0020656,-3.0028e-20,-5.0379e-22,54.1,0.0053003,-0.0049865,-1.1972e-35,0.00057153,-598.13,-1095.7,-511.69,315.17,-4.6049e-15,-6.4627e-17,806.53,-1270,-511.69,-423.87,0,0.011452,0,1,0.285,0,-0.285,0
0,0,0,0,0,0,-0.00054379,-0.0038408,8.6952e-38,0.0020447,-2.6887e-20,-4.2358e-22,54.1,0.0052738,-0.0049585,-1.1642e-35,0.00057394,-591.36,-1090.8,-508.16,312.01,-4.1235e-15,-5.2712e-17,802.56,-1262.2,-508.16,-419.96,0,0.011474,0,1,0.29,0,-0.29,0
0,0,0,0,0,0,-0.00052262,-0.0038316,1.0934e-37,0.0020237,-2.3745e-20,-3.4337e-22,54.1,0.0052474,-0.0049306,-1.1312e-35,0.00057635,-584.58,-1086,-504.62,308.84,-3.6421e-15,-4.0797e-17,798.59,-1254.5,-504.62,-416.05,0,0.011496,0,1,0.295,0,-0.295,0
0,0,0,0,0,0,-0.00050144,-0.0038224,1.3173e-37,0.0020028,-2.0603e-20,-2.6316e-22,54.1,0.0052209,-0.0049026,-1.0982e-35,0.00057876,-577.8,-1081.1,-501.08,305.68,-3.1607e-15,-2.8882e-17,794.62,-1246.8,-501.08,-412.14,0,0.011518,0,1,0.3,0,-0.3,0
0,0,0,0,0,0,-0.00048027,-0.0038132,1.5412e-37,0.0019819,-1.7461e-20,-1.8296e-22,54.1,0.0051944,-0.0048746,-1.0651e-35,0.00058117,-571.03,-1076.2,-497.55,302.52,-2.6793e-15,-1.6968e-17,790.65,-1239,-497.55,-408.23,0,0.01154,0,1,0.305,0,-0.305,0
0,0,0,0,0,0,-0.00045909,-0.003804,1.765e-37,0.001961,-1.432e-20,-1.0275e-22,54.1,0.005168,-0.0048467,-1.0321e-35,0.00058359,-564.25,-1071.4,-494.01,299.35,-2.1979e-15,-5.0529e-18,786.68,-1231.3,-494.01,-404.33,0,0.011562,0,1,0.31,0,-0.31,0
0,0,0,0,0,0,-0.00043791,-0.0037948,1.9889e-37,0.0019401,-1.1178e-20,-2.2538e-23,54.1,0.0051415,-0.0048187,-9.9909e-36,0.000586,-557.47,-1066.5,-490.48,296.19,-1.7165e-15,6.8619e-18,782.71,-1223.5,-490.48,-400.42,0,0.011584,0,1,0.315,0,-0.315,0
0,0,0,0,0,0,-0.00041674,-0.0037856,2.2128e-37,0.0019192,-8.0363e-21,5.767e-23,54.1,0.0051151,-0.0047907,-9.6607e-36,0.00058841,-550.7,-1061.6,-486.94,293.03,-1.2351e-15,1.8777e-17,778.74,-1215.8,-486.94,-396.51,0,0.011606,0,1,0.32,0,-0.32,0
0,0,0,0,0,0,-0.00039556,-0.0037764,2.4367e-37,0.0018983,-4.8946e-21,1.3788e-22,54.1,0.0050886,-0.0047627,-9.3305e-36,0.00059082,-543.92,-1056.7,-483.41,289.87,-7.5373e-16,3.0691e-17,774.77,-1208.1,-483.41,-392.6,0,0.011628,0,1,0.325,0,-0.325,0
0,0,0,0,0,0,-0.00037439,-0.0037672,2.6605e-37,0.0018774,-1.7528e-21,2.1809e-22,54.1,0.0050622,-0.0047348,-9.0004e-36,0.00059323,-537.15,-1051.9,-479.87,286.7,-2.7233e-16,4.2606e-17,770.8,-1200.3,-479.87,-388.69,0,0.011649,0,1,0.33,0,-0.33,0
0,0,0,0,0,0,-0.00035321,-0.0037579,2.8844e-37,0.0018565,1.3889e-21,2.983e-22,54.1,0.0050357,-0.0047068,-8.6702e-36,0.00059564,-530.37,-1047,-476.34,283.54,2.0907e-16,5.4521e-17,766.83,-1192.6,-476.34,-384.79,0,0.011671,0,1,0.335,0,-0.335,0
0,0,0,0,0,0,-0.00033203,-0.0037487,3.1083e-37,0.0018356,4.5306e-21,3.785e-22,54.1,0.0050092,-0.0046788,-8.34e-36,0.00059805,-523.59,-1042.1,-472.8,280.38,6.9046e-16,6.6436e-17,762.86,-1184.8,-472.8,-380.88,0,0.011693,0,1,0.34,0,-0.34,0
0,0,0,0,0,0,-0.00031086,-0.0037395,3.3322e-37,0.0018147,7.6724e-21,4.5871e-22,54.1,0.0049828,-0.0046509,-8.0098e-36,0.00060046,-516.82,-1037.3,-469.26,277.21,1.1719e-15,7.835e-17,758.89,-1177.1,-469.26,-376.97,0,0.011715,0,1,0.345,0,-0.345,0
0,0,0,0,0,0,-0.00028968,-0.0037303,3.5561e-37,0.0017938,1.0814e-20,5.3892e-22,54.1,0.0049563,-0.0046229,-7.6796e-36,0.00060287,-510.04,-1032.4,-465.73,274.05,1.6533e-15,9.0265e-17,754.92,-1169.4,-465.73,-373.06,0,0.011737,0,1,0.35,0,-0.35,0
0,0,0,0,0,0,-0.00026851,-0.0037211,3.7799e-37,0.0017729,1.3956e-20,6.1913e-22,54.1,0.0049299,-0.0045949,-7.3494e-36,0.00060529,-503.26,-1027.5,-462.19,270.89,2.1347e-15,1.0218e-16,750.96,-1161.6,-462.19,-369.15,0,0.011759,0,1,0.355,0,-0.355,0
0,0,0,0,0,0,-0.00024733,-0.0037119,4.0038e-37,0.001752,1.7098e-20,6.9934e-22,54.1,0.0049034,-0.0045669,-7.0192e-36,0.0006077,-496.49,-1022.6,-458.66,267.73,2.6161e-15,1.1409e-16,746.99,-1153.9,-458.66,-365.25,0,0.011781,0,1,0.36,0,-0.36,0
0,0,0,0,0,0,-0.00022615,-0.0037027,4.2277e-37,0.0017311,2.0239e-20,7.7955e-22,54.1,0.004877,-0.004539,-6.689e-36,0.00061011,-489.71,-1017.8,-455.12,264.56,3.0975e-15,1.2601e-16,743.02,-1146.1,-455.12,-361.34,0,0.011803,0,1,0.365,0,-0.365,0
0,0,0,0,0,0,-0.00020498,-0.0036935,4.4516e-37,0.0017102,2.3381e-20,8.5976e-22,54.1,0.0048505,-0.004511,-6.3588e-36,0.00061252,-482.93,-1012.9,-451.59,261.4,3.5789e-15,1.3792e-16,739.05,-1138.4,-451.59,-357.43,0,0.011825,0,1,0.37,0,-0.37,0
0,0,0,0,0,0,-0.0001838,-0.0036843,4.6754e-37,0.0016893,2.6523e-20,9.3997e-22,54.1,0.004824,-0.004483,-6.0286e-36,0.00061493,-476.16,-1008,-448.05,258.24,4.0602e-15,1.4984e-16,735.08,-1130.7,-448.05,-353.52,0,0.011847,0,1,0.375,0,-0.375,0
0,0,0,0,0,0,-0.00016263,-0.0036751,4.8993e-37,0.0016684,2.9664e-20,1.0202e-21,54.1,0.0047976,-0.004455,-5.6984e-36,0.00061734,-469.38,-1003.2,-444.52,255.07,4.5416e-15,1.6175e-16,731.11,-1122.9,-444.52,-349.62,0,0.011869,0,1,0.38,0,-0.38,0
0,0,0,0,0,0,-0.00014145,-0.0036659,5.1232e-37,0.0016475,3.2806e-20,1.1004e-21,54.1,0.0047711,-0.0044271,-5.3682e-36,0.00061975,-462.6,-998.29,-440.98,251.91,5.023e-15,1.7367e-16,727.14,-1115.2,-440.98,-345.71,0,0.011891,0,1,0.385,0,-0.385,0
0,0,0,0,0,0,-0.00012027,-0.0036567,5.3471e-37,0.0016266,3.5948e-20,1.1806e-21,54.1,0.0047447,-0.0043991,-5.038e-36,0.00062216,-455.83,-993.42,-437.44,248.75,5.5044e-15,1.8558e-16,723.17,-1107.4,-437.44,-341.8,0,0.011912,0,1,0.39,0,-0.39,0
0,0,0,0,0,0,-9.9098e-05,-0.0036475,5.571e-37,0.0016056,3.909e-20,1.2608e-21,54.1,0.0047182,-0.0043711,-4.7079e-36,0.00062457,-449.05,-988.55,-433.91,245.59,5.9858e-15,1.975e-16,719.2,-1099.7,-433.91,-337.89,0,0.011934,0,1,0.395,0,-0.395,0
0,0,0,0,0,0,-7.7922e-05,-0.0036382,5.7948e-37,0.0015847,4.2231e-20,1.341e-21,54.1,0.0046917,-0.0043432,-4.3777e-36,0.00062698,-442.27,-983.68,-430.37,242.42,6.4672e-15,2.0941e-16,715.23,-1092,-430.37,-333.98,0,0.011956,0,1,0.4,0,-0.4,0
0,0,0,0,0,0,-5.6746e-05,-0.003629,6.0187e-37,0.0015638,4.5373e-20,1.4212e-21,54.1,0.0046653,-0.0043152,-4.0475e-36,0.0006294,-435.5,-978.81,-426.84,239.26,6.9486e-15,2.2133e-16,711.26,-1084.2,-426.84,-330.08,0,0.011978,0,1,0.405,0,-0.405,0
0,0,0,0,0,0,-3.557e-05,-0.0036198,6.2426e-37,0.0015429,4.8515e-20,1.5014e-21,54.1,0.0046388,-0.0042872,-3.7173e-36,0.00063181,-428.72,-973.94,-423.3,236.1,7.43e-15,2.3324e-16,707.29,-1076.5,-423.3,-326.17,0,0.012,0,1,0.41,0,-0.41,0
0,0,0,0,0,0,-1.4395e-05,-0.0036106,6.4665e-37,0.001522,5.1657e-20,1.5816e-21,54.1,0.0046124,-0.0042592,-3.3871e-36,0.00063422,-421.94,-969.07,-419.77,232.93,7.9114e-15,2.4516e-16,703.32,-1068.8,-419.77,-322.26,0,0.012022,0,1,0.415,0,-0.415,0
0,0,0,0,0,0,6.7814e-06,-0.0036014,6.6904e-37,0.0015011,5.4798e-20,1.6618e-21,54.1,0.0045859,-0.0042313,-3.0569e-36,0.00063663,-415.17,-964.2,-416.23,229.77,8.3928e-15,2.5707e-16,699.35,-1061,-416.23,-318.35,0,0.012044,0,1,0.42,0,-0.42,0
0,0,0,0,0,0,2.7958e-05,-0.0035922,6.9142e-37,0.0014802,5.794e-20,1.7421e-21,54.1,0.0045595,-0.0042033,-2.7267e-36,0.00063904,-408.39,-959.33,-412.69,226.61,8.8742e-15,2.6899e-16,695.38,-1053.3,-412.69,-314.44,0,0.012066,0,1,0.425,0,-0.425,0
0,0,0,0,0,0,4.9133e-05,-0.003583,7.1381e-37,0.0014593,6.1082e-20,1.8223e-21,54.1,0.004533,-0.0041753,-2.3965e-36,0.00064145,-401.61,-954.46,-409.16,223.45,9.3556e-15,2.809e-16,691.41,-1045.5,-409.16,-310.54,0,0.012088,0,1,0.43,0,-0.43,0
0,0,0,0,0,0,7.0309e-05,-0.0035738,7.362e-37,0.0014384,6.4224e-20,1.9025e-21,54.1,0.0045065,-0.0041473,-2.0663e-36,0.00064386,-394.84,-949.58,-405.62,220.28,9.837e-15,2.9282e-16,687.44,-1037.8,-405.62,-306.63,0,0.01211,0,1,0.435,0,-0.435,0
0,0,0,0,0,0,9.1485e-05,-0.0035646,7.5859e-37,0.0014175,6.7365e-20,1.9827e-21,54.1,0.0044801,-0.0041194,-1.7361e-36,0.00064627,-388.06,-944.71,-402.09,217.12,1.0318e-14,3.0473e-16,683.47,-1030.1,-402.09,-302.72,0,0.012132,0,1,0.44,0,-0.44,0
0,0,0,0,0,0,0.00011266,-0.0035554,7.8097e-37,0.0013966,7.0507e-20,2.0629e-21,54.1,0.0044536,-0.0040914,-1.4059e-36,0.00064868,-381.28,-939.84,-398.55,213.96,1.08e-14,3.1665e-16,679.5,-1022.3,-398.55,-298.81,0,0.012153,0,1,0.445,0,-0.445,0
0,0,0,0,0,0,0.00013384,-0.0035462,8.0336e-37,0.0013757,7.3649e-20,2.1431e-21,54.1,0.0044272,-0.0040634,-1.0757e-36,0.00065109,-374.51,-934.97,-395.02,210.79,1.1281e-14,3.2856e-16,675.53,-1014.6,-395.02,-294.9,0,0.012175,0,1,0.45,0,-0.45,0
0,0,0,0,0,0,0.00015501,-0.003537,8.2575e-37,0.0013548,7.679e-20,2.2233e-21,54.1,0.0044007,-0.0040355,-7.4555e-37,0.00065351,-367.73,-930.1,-391.48,207.63,1.1763e-14,3.4048e-16,671.56,-1006.8,-391.48,-291,0,0.012197,0,1,0.455,0,-0.455,0
0,0,0,0,0,0,0.00017619,-0.0035278,8.4814e-37,0.0013339,7.9932e-20,2.3035e-21,54.1,0.0043742,-0.0040075,-4.1535e-37,0.00065592,-360.95,-925.23,-387.95,204.47,1.2244e-14,3.5239e-16,667.59,-999.1,-387.95,-287.09,0,0.012219,0,1,0.46,0,-0.46,0
0,0,0,0,0,0,0.00019737,-0.0035186,8.7053e-37,0.001313,8.3074e-20,2.3837e-21,54.1,0.0043478,-0.0039795,-8.5162e-38,0.00065833,-354.18,-920.36,-384.41,201.31,1.2725e-14,3.643e-16,663.62,-991.36,-384.41,-283.18,0,0.012241,0,1,0.465,0,-0.465,0
0,0,0,0,0,0,0.00021854,-0.0035093,8.9291e-37,0.0012921,8.6216e-20,2.4639e-21,54.1,0.0043213,-0.0039515,2.4503e-37,0.00066074,-347.4,-915.49,-380.87,198.14,1.3207e-14,3.7622e-16,659.65,-983.62,-380.87,-279.27,0,0.012263,0,1,0.47,0,-0.47,0
0,0,0,0,0,0,0.00023972,-0.0035001,9.153e-37,0.0012712,8.9357e-20,2.5441e-21,54.1,0.0042949,-0.0039236,5.7522e-37,0.00066315,-340.62,-910.62,-377.34,194.98,1.3688e-14,3.8813e-16,655.68,-975.88,-377.34,-275.36,0,0.012285,0,1,0.475,0,-0.475,0
0,0,0,0,0,0,0.00026089,-0.0034909,9.3769e-37,0.0012503,9.2499e-20,2.6243e-21,54.1,0.0042684,-0.0038956,9.0541e-37,0.00066556,-333.85,-905.75,-373.8,191.82,1.417e-14,4.0005e-16,651.71,-968.14,-373.8,-271.46,0,0.012307,0,1,0.48,0,-0.48,0
0,0,0,0,0,0,0.00028207,-0.0034817,9.6008e-37,0.0012294,9.5641e-20,2.7046e-21,54.1,0.004242,-0.0038676,1.2356e-36,0.00066797,-327.07,-900.88,-370.27,188.65,1.4651e-14,4.1196e-16,647.74,-960.4,-370.27,-267.55,0,0.012329,0,1,0.485,0,-0.485,0
0,0,0,0,0,0,0.00030325,-0.0034725,9.8246e-37,0.0012085,9.8783e-20,2.7848e-21,54.1,0.0042155,-0.0038397,1.5658e-36,0.00067038,-320.3,-896.01,-366.73,185.49,1.5132e-14,4.2388e-16,643.77,-952.66,-366.73,-263.64,0,0.012351,0,1,0.49,0,-0.49,0
0,0,0,0,0,0,0.00032442,-0.0034633,1.0049e-36,0.0011875,1.0192e-19,2.865e-21,54.1,0.004189,-0.0038117,1.896e-36,0.00067279,-313.52,-891.14,-363.2,182.33,1.5614e-14,4.3579e-16,639.8,-944.92,-363.2,-259.73,0,0.012373,0,1,0.495,0,-0.495,0
0,0,0,0,0,0,0.0003456,-0.0034541,1.0272e-36,0.0011666,1.0507e-19,2.9452e-21,54.1,0.0041626,-0.0037837,2.2262e-36,0.0006752,-306.74,-886.26,-359.66,179.16,1.6095e-14,4.4771e-16,635.83,-937.18,-359.66,-255.83,0,0.012394,0,1,0.5,0,-0.5,0
0,0,0,0,0,0,0.00034532,-0.0034409,1.0363e-36,0.0011599,1.1261e-19,2.9547e-21,53.859,0.0041456,-0.0037682,5.2094e-36,0.00067261,-305.28,-882.76,-358.16,178.13,1.7253e-14,4.4924e-16,633.24,-933.32,-358.16,-254.72,0,0.012407,0,1,0.505,0,-0.505,0
0,0,0,0,0,0,0.00034504,-0.0034276,1.0454e-36,0.0011532,1.2016e-19,2.9643e-21,53.618,0.0041286,-0.0037526,8.1926e-36,0.00067002,-303.82,-879.25,-356.66,177.09,1.8411e-14,4.5078e-16,630.66,-929.45,-356.66,-253.62,0,0.01242,0,1,0.51,0,-0.51,0
0,0,0,0,0,0,0.00034476,-0.0034144,1.0545e-36,0.0011464,1.277e-19,2.9738e-21,53.377,0.0041116,-0.0037371,1.1176e-35,0.00066743,-302.36,-875.74,-355.16,176.06,1.9568e-14,4.5231e-16,628.07,-925.58,-355.16,-252.52,0,0.012433,0,1,0.515,0,-0.515,0
0,0,0,0,0,0,0.00034449,-0.0034011,1.0635e-36,0.0011397,1.3525e-19,2.9833e-21,53.136,0.0040946,-0.0037215,1.4159e-35,0.00066484,-300.9,-872.23,-353.66,175.02,2.0726e-14,4.5384e-16,625.48,-921.72,-353.66,-251.41,0,0.012445,0,1,0.52,0,-0.52,0
0,0,0,0,0,0,0.00034421,-0.0033879,1.0726e-36,0.0011329,1.428e-19,2.9929e-21,52.895,0.0040776,-0.003706,1.7142e-35,0.00066225,-299.44,-868.72,-352.15,173.99,2.1884e-14,4.5538e-16,622.89,-917.85,-352.15,-250.31,0,0.012458,0,1,0.525,0,-0.525,0
0,0,0,0,0,0,0.00034393,-0.0033747,1.0817e-36,0.0011262,1.5034e-19,3.0024e-21,52.655,0.0040606,-0.0036904,2.0125e-35,0.00065966,-297.98,-865.21,-350.65,172.95,2.3041e-14,4.5691e-16,620.31,-913.98,-350.65,-249.21,0,0.012471,0,1,0.53,0,-0.53,0
0,0,0,0,0,0,0.00034365,-0.0033614,1.0907e-36,0.0011195,1.5789e-19,3.012e-21,52.414,0.0040436,-0.0036749,2.3109e-35,0.00065707,-296.52,-861.7,-349.15,171.92,2.4199e-14,4.5844e-16,617.72,-910.12,-349.15,-248.1,0,0.012483,0,1,0.535,0,-0.535,0
0,0,0,0,0,0,0.00034337,-0.0033482,1.0998e-36,0.0011127,1.6543e-19,3.0215e-21,52.173,0.0040266,-0.0036593,2.6092e-35,0.00065448,-295.06,-858.19,-347.65,170.88,2.5357e-14,4.5998e-16,615.13,-906.25,-347.65,-247,0,0.012496,0,1,0.54,0,-0.54,0
0,0,0,0,0,0,0.0003431,-0.003335,1.1089e-36,0.001106,1.7298e-19,3.0311e-21,51.932,0.0040097,-0.0036438,2.9075e-35,0.00065189,-293.6,-854.69,-346.15,169.85,2.6515e-14,4.6151e-16,612.55,-902.38,-346.15,-245.9,0,0.012509,0,1,0.545,0,-0.545,0
0,0,0,0,0,0,0.00034282,-0.0033217,1.118e-36,0.0010993,1.8052e-19,3.0406e-21,51.691,0.0039927,-0.0036282,3.2058e-35,0.0006493,-292.14,-851.18,-344.65,168.81,2.7672e-14,4.6305e-16,609.96,-898.52,-344.65,-244.79,0,0.012521,0,1,0.55,0,-0.55,0
0,0,0,0,0,0,0.00034254,-0.0033085,1.127e-36,0.0010925,1.8807e-19,3.0501e-21,51.45,0.0039757,-0.0036127,3.5042e-35,0.00064671,-290.67,-847.67,-343.15,167.78,2.883e-14,4.6458e-16,607.37,-894.65,-343.15,-243.69,0,0.012534,0,1,0.555,0,-0.555,0
0,0,0,0,0,0,0.00034226,-0.0032952,1.1361e-36,0.0010858,1.9562e-19,3.0597e-21,51.21,0.0039587,-0.0035971,3.8025e-35,0.00064412,-289.21,-844.16,-341.65,166.74,2.9988e-14,4.6611e-16,604.78,-890.79,-341.65,-242.59,0,0.012547,0,1,0.56,0,-0.56,0
0,0,0,0,0,0,0.00034198,-0.003282,1.1452e-36,0.001079,2.0316e-19,3.0692e-21,50.969,0.0039417,-0.0035816,4.1008e-35,0.00064153,-287.75,-840.65,-340.14,165.71,3.1145e-14,4.6765e-16,602.2,-886.92,-340.14,-241.48,0,0.012559,0,1,0.565,0,-0.565,0
0,0,0,0,0,0,0.00034171,-0.0032688,1.1542e-36,0.0010723,2.1071e-19,3.0788e-21,50.728,0.0039247,-0.003566,4.3991e-35,0.00063894,-286.29,-837.14,-338.64,164.67,3.2303e-14,4.6918e-16,599.61,-883.05,-338.64,-240.38,0,0.012572,0,1,0.57,0,-0.57,0
0,0,0,0,0,0,0.00034143,-0.0032555,1.1633e-36,0.0010656,2.1825e-19,3.0883e-21,50.487,0.0039077,-0.0035505,4.6974e-35,0.00063635,-284.83,-833.63,-337.14,163.64,3.3461e-14,4.7072e-16,597.02,-879.19,-337.14,-239.28,0,0.012585,0,1,0.575,0,-0.575,0
0,0,0,0,0,0,0.00034115,-0.0032423,1.1724e-36,0.0010588,2.258e-19,3.0979e-21,50.246,0.0038907,-0.0035349,4.9958e-35,0.00063376,-283.37,-830.12,-335.64,162.6,3.4619e-14,4.7225e-16,594.44,-875.32,-335.64,-238.17,0,0.012597,0,1,0.58,0,-0.58,0
0,0,0,0,0,0,0.00034087,-0.0032291,1.1815e-36,0.0010521,2.3335e-19,3.1074e-21,50.005,0.0038737,-0.0035194,5.2941e-35,0.00063117,-281.91,-826.61,-334.14,161.57,3.5776e-14,4.7378e-16,591.85,-871.45,-334.14,-237.07,0,0.01261,0,1,0.585,0,-0.585,0
0,0,0,0,0,0,0.00034059,-0.0032158,1.1905e-36,0.0010453,2.4089e-19,3.1169e-21,49.765,0.0038567,-0.0035038,5.5924e-35,0.00062858,-280.45,-823.11,-332.64,160.53,3.6934e-14,4.7532e-16,589.26,-867.59,-332.64,-235.97,0,0.012623,0,1,0.59,0,-0.59,0
0,0,0,0,0,0,0.00034032,-0.0032026,1.1996e-36,0.0010386,2.4844e-19,3.1265e-21,49.524,0.0038397,-0.0034883,5.8907e-35,0.00062599,-278.99,-819.6,-331.14,159.5,3.8092e-14,4.7685e-16,586.67,-863.72,-331.14,-234.87,0,0.012635,0,1,0.595,0,-0.595,0
0,0,0,0,0,0,0.00034004,-0.0031893,1.2087e-36,0.0010319,2.5598e-19,3.136e-21,49.283,0.0038227,-0.0034727,6.1891e-35,0.0006234,-277.53,-816.09,-329.64,158.46,3.9249e-14,4.7838e-16,584.09,-859.85,-329.64,-233.76,0,0.012648,0,1,0.6,0,-0.6,0
0,0,0,0,0,0,0.00033976,-0.0031761,1.2177e-36,0.0010251,2.6353e-19,3.1456e-21,49.042,0.0038057,-0.0034572,6.4874e-35,0.00062081,-276.07,-812.58,-328.13,157.43,4.0407e-14,4.7992e-16,581.5,-855.99,-328.13,-232.66,0,0.012661,0,1,0.605,0,-0.605,0
0,0,0,0,0,0,0.00033948,-0.0031629,1.2268e-36,0.0010184,2.7108e-19,3.1551e-21,48.801,0.0037888,-0.0034416,6.7857e-35,0.00061822,-274.61,-809.07,-326.63,156.39,4.1565e-14,4.8145e-16,578.91,-852.12,-326.63,-231.56,0,0.012674,0,1,0.61,0,-0.61,0
0,0,0,0,0,0,0.0003392,-0.0031496,1.2359e-36,0.0010116,2.7862e-19,3.1647e-21,48.56,0.0037718,-0.0034261,7.084e-35,0.00061563,-273.15,-805.56,-325.13,155.36,4.2722e-14,4.8299e-16,576.33,-848.25,-325.13,-230.45,0,0.012686,0,1,0.615,0,-0.615,0
0,0,0,0,0,0,0.00033893,-0.0031364,1.245e-36,0.0010049,2.8617e-19,3.1742e-21,48.32,0.0037548,-0.0034105,7.3823e-35,0.00061304,-271.69,-802.05,-323.63,154.32,4.388e-14,4.8452e-16,573.74,-844.39,-323.63,-229.35,0,0.012699,0,1,0.62,0,-0.62,0
0,0,0,0,0,0,0.00033865,-0.0031232,1.254e-36,0.00099817,2.9371e-19,3.1837e-21,48.079,0.0037378,-0.003395,7.6807e-35,0.00061045,-270.22,-798.54,-322.13,153.29,4.5038e-14,4.8605e-16,571.15,-840.52,-322.13,-228.25,0,0.012712,0,1,0.625,0,-0.625,0
0,0,0,0,0,0,0.00033837,-0.0031099,1.2631e-36,0.00099143,3.0126e-19,3.1933e-21,47.838,0.0037208,-0.0033794,7.979e-35,0.00060786,-268.76,-795.04,-320.63,152.25,4.6196e-14,4.8759e-16,568.57,-836.66,-320.63,-227.14,0,0.012724,0,1,0.63,0,-0.63,0
0,0,0,0,0,0,0.00033809,-0.0030967,1.2722e-36,0.00098469,3.088e-19,3.2028e-21,47.597,0.0037038,-0.0033639,8.2773e-35,0.00060527,-267.3,-791.53,-319.13,151.22,4.7353e-14,4.8912e-16,565.98,-832.79,-319.13,-226.04,0,0.012737,0,1,0.635,0,-0.635,0
0,0,0,0,0,0,0.00033781,-0.0030834,1.2812e-36,0.00097796,3.1635e-19,3.2124e-21,47.356,0.0036868,-0.0033483,8.5756e-35,0.00060269,-265.84,-788.02,-317.63,150.18,4.8511e-14,4.9066e-16,563.39,-828.92,-317.63,-224.94,0,0.01275,0,1,0.64,0,-0.64,0
0,0,0,0,0,0,0.00033754,-0.0030702,1.2903e-36,0.00097122,3.239e-19,3.2219e-21,47.115,0.0036698,-0.0033328,8.8739e-35,0.0006001,-264.38,-784.51,-316.12,149.15,4.9669e-14,4.9219e-16,560.8,-825.06,-316.12,-223.83,0,0.012762,0,1,0.645,0,-0.645,0
0,0,0,0,0,0,0.00033726,-0.003057,1.2994e-36,0.00096448,3.3144e-19,3.2314e-21,46.875,0.0036528,-0.0033172,9.1723e-35,0.00059751,-262.92,-781,-314.62,148.11,5.0826e-14,4.9372e-16,558.22,-821.19,-314.62,-222.73,0,0.012775,0,1,0.65,0,-0.65,0
0,0,0,0,0,0,0.00033698,-0.0030437,1.3085e-36,0.00095774,3.3899e-19,3.241e-21,46.634,0.0036358,-0.0033017,9.4706e-35,0.00059492,-261.46,-777.49,-313.12,147.08,5.1984e-14,4.9526e-16,555.63,-817.32,-313.12,-221.63,0,0.012788,0,1,0.655,0,-0.655,0
0,0,0,0,0,0,0.0003367,-0.0030305,1.3175e-36,0.000951,3.4653e-19,3.2505e-21,46.393,0.0036188,-0.0032861,9.7689e-35,0.00059233,-260,-773.98,-311.62,146.04,5.3142e-14,4.9679e-16,553.04,-813.46,-311.62,-220.52,0,0.0128,0,1,0.66,0,-0.66,0
0,0,0,0,0,0,0.00033642,-0.0030173,1.3266e-36,0.00094426,3.5408e-19,3.2601e-21,46.152,0.0036018,-0.0032706,1.0067e-34,0.00058974,-258.54,-770.47,-310.12,145.01,5.43e-14,4.9832e-16,550.46,-809.59,-310.12,-219.42,0,0.012813,0,1,0.665,0,-0.665,0
0,0,0,0,0,0,0.00033615,-0.003004,1.3357e-36,0.00093752,3.6163e-19,3.2696e-21,45.911,0.0035848,-0.003255,1.0366e-34,0.00058715,-257.08,-766.96,-308.62,143.97,5.5457e-14,4.9986e-16,547.87,-805.72,-308.62,-218.32,0,0.012826,0,1,0.67,0,-0.67,0
0,0,0,0,0,0,0.00033587,-0.0029908,1.3447e-36,0.00093078,3.6917e-19,3.2792e-21,45.67,0.0035679,-0.0032395,1.0664e-34,0.00058456,-255.62,-763.46,-307.12,142.94,5.6615e-14,5.0139e-16,545.28,-801.86,-307.12,-217.22,0,0.012838,0,1,0.675,0,-0.675,0
0,0,0,0,0,0,0.00033559,-0.0029775,1.3538e-36,0.00092405,3.7672e-19,3.2887e-21,45.43,0.0035509,-0.0032239,1.0962e-34,0.00058197,-254.16,-759.95,-305.62,141.9,5.7773e-14,5.0293e-16,542.69,-797.99,-305.62,-216.11,0,0.012851,0,1,0.68,0,-0.68,0
0,0,0,0,0,0,0.00033531,-0.0029643,1.3629e-36,0.00091731,3.8426e-19,3.2982e-21,45.189,0.0035339,-0.0032084,1.1261e-34,0.00057938,-252.7,-756.44,-304.11,140.87,5.893e-14,5.0446e-16,540.11,-794.13,-304.11,-215.01,0,0.012864,0,1,0.685,0,-0.685,0
0,0,0,0,0,0,0.00033504,-0.0029511,1.372e-36,0.00091057,3.9181e-19,3.3078e-21,44.948,0.0035169,-0.0031928,1.1559e-34,0.00057679,-251.24,-752.93,-302.61,139.83,6.0088e-14,5.0599e-16,537.52,-790.26,-302.61,-213.91,0,0.012876,0,1,0.69,0,-0.69,0
0,0,0,0,0,0,0.00033476,-0.0029378,1.381e-36,0.00090383,3.9936e-19,3.3173e-21,44.707,0.0034999,-0.0031773,1.1857e-34,0.0005742,-249.77,-749.42,-301.11,138.8,6.1246e-14,5.0753e-16,534.93,-786.39,-301.11,-212.8,0,0.012889,0,1,0.695,0,-0.695,0
0,0,0,0,0,0,0.00033448,-0.0029246,1.3901e-36,0.00089709,4.069e-19,3.3269e-21,44.466,0.0034829,-0.0031617,1.2155e-34,0.00057161,-248.31,-745.91,-299.61,137.76,6.2404e-14,5.0906e-16,532.35,-782.53,-299.61,-211.7,0,0.012902,0,1,0.7,0,-0.7,0
0,0,0,0,0,0,0.0003342,-0.0029113,1.3992e-36,0.00089035,4.1445e-19,3.3364e-21,44.225,0.0034659,-0.0031462,1.2454e-34,0.00056902,-246.85,-742.4,-298.11,136.73,6.3561e-14,5.1059e-16,529.76,-778.66,-298.11,-210.6,0,0.012915,0,1,0.705,0,-0.705,0
0,0,0,0,0,0,0.00033392,-0.0028981,1.4082e-36,0.00088361,4.2199e-19,3.346e-21,43.985,0.0034489,-0.0031306,1.2752e-34,0.00056643,-245.39,-738.89,-296.61,135.69,6.4719e-14,5.1213e-16,527.17,-774.79,-296.61,-209.49,0,0.012927,0,1,0.71,0,-0.71,0
0,0,0,0,0,0,0.00033365,-0.0028849,1.4173e-36,0.00087687,4.2954e-19,3.3555e-21,43.744,0.0034319,-0.0031151,1.305e-34,0.00056384,-243.93,-735.38,-295.11,134.66,6.5877e-14,5.1366e-16,524.58,-770.93,-295.11,-208.39,0,0.01294,0,1,0.715,0,-0.715,0
0,0,0,0,0,0,0.00033337,-0.0028716,1.4264e-36,0.00087014,4.3709e-19,3.365e-21,43.503,0.0034149,-0.0030995,1.3349e-34,0.00056125,-242.47,-731.88,-293.61,133.62,6.7034e-14,5.152e-16,522,-767.06,-293.61,-207.29,0,0.012953,0,1,0.72,0,-0.72,0
0,0,0,0,0,0,0.00033309,-0.0028584,1.4355e-36,0.0008634,4.4463e-19,3.3746e-21,43.262,0.0033979,-0.003084,1.3647e-34,0.00055866,-241.01,-728.37,-292.1,132.59,6.8192e-14,5.1673e-16,519.41,-763.19,-292.1,-206.18,0,0.012965,0,1,0.725,0,-0.725,0
0,0,0,0,0,0,0.00033281,-0.0028452,1.4445e-36,0.00085666,4.5218e-19,3.3841e-21,43.021,0.0033809,-0.0030684,1.3945e-34,0.00055607,-239.55,-724.86,-290.6,131.55,6.935e-14,5.1826e-16,516.82,-759.33,-290.6,-205.08,0,0.012978,0,1,0.73,0,-0.73,0
0,0,0,0,0,0,0.00033253,-0.0028319,1.4536e-36,0.00084992,4.5972e-19,3.3937e-21,42.78,0.0033639,-0.0030529,1.4244e-34,0.00055348,-238.09,-721.35,-289.1,130.52,7.0507e-14,5.198e-16,514.24,-755.46,-289.1,-203.98,0,0.012991,0,1,0.735,0,-0.735,0
0,0,0,0,0,0,0.00033226,-0.0028187,1.4627e-36,0.00084318,4.6727e-19,3.4032e-21,42.54,0.003347,-0.0030373,1.4542e-34,0.00055089,-236.63,-717.84,-287.6,129.48,7.1665e-14,5.2133e-16,511.65,-751.59,-287.6,-202.87,0,0.013003,0,1,0.74,0,-0.74,0
0,0,0,0,0,0,0.00033198,-0.0028054,1.4717e-36,0.00083644,4.7481e-19,3.4128e-21,42.299,0.00333,-0.0030218,1.484e-34,0.0005483,-235.17,-714.33,-286.1,128.45,7.2823e-14,5.2287e-16,509.06,-747.73,-286.1,-201.77,0,0.013016,0,1,0.745,0,-0.745,0
0,0,0,0,0,0,0.0003317,-0.0027922,1.4808e-36,0.0008297,4.8236e-19,3.4223e-21,42.058,0.003313,-0.0030062,1.5139e-34,0.00054571,-233.71,-710.82,-284.6,127.41,7.3981e-14,5.244e-16,506.47,-743.86,-284.6,-200.67,0,0.013029,0,1,0.75,0,-0.75,0
0,0,0,0,0,0,0.00033142,-0.002779,1.4899e-36,0.00082296,4.8991e-19,3.4318e-21,41.817,0.003296,-0.0029907,1.5437e-34,0.00054312,-232.25,-707.31,-283.1,126.38,7.5138e-14,5.2593e-16,503.89,-740,-283.1,-199.56,0,0.013041,0,1,0.755,0,-0.755,0
0,0,0,0,0,0,0.00033114,-0.0027657,1.499e-36,0.00081623,4.9745e-19,3.4414e-21,41.576,0.003279,-0.0029751,1.5735e-34,0.00054053,-230.79,-703.81,-281.6,125.34,7.6296e-14,5.2747e-16,501.3,-736.13,-281.6,-198.46,0,0.013054,0,1,0.76,0,-0.76,0
0,0,0,0,0,0,0.00033087,-0.0027525,1.508e-36,0.00080949,5.05e-19,3.4509e-21,41.336,0.003262,-0.0029596,1.6034e-34,0.00053794,-229.33,-700.3,-280.09,124.31,7.7454e-14,5.29e-16,498.71,-732.26,-280.09,-197.36,0,0.013067,0,1,0.765,0,-0.765,0
0,0,0,0,0,0,0.00033059,-0.0027393,1.5171e-36,0.00080275,5.1254e-19,3.4605e-21,41.095,0.003245,-0.002944,1.6332e-34,0.00053535,-227.86,-696.79,-278.59,123.27,7.8611e-14,5.3053e-16,496.13,-728.4,-278.59,-196.26,0,0.013079,0,1,0.77,0,-0.77,0
0,0,0,0,0,0,0.00033031,-0.002726,1.5262e-36,0.00079601,5.2009e-19,3.47e-21,40.854,0.003228,-0.0029285,1.663e-34,0.00053276,-226.4,-693.28,-277.09,122.24,7.9769e-14,5.3207e-16,493.54,-724.53,-277.09,-195.15,0,0.013092,0,1,0.775,0,-0.775,0
0,0,0,0,0,0,0.00033003,-0.0027128,1.5353e-36,0.00078927,5.2764e-19,3.4795e-21,40.613,0.003211,-0.0029129,1.6929e-34,0.00053017,-224.94,-689.77,-275.59,121.2,8.0927e-14,5.336e-16,490.95,-720.66,-275.59,-194.05,0,0.013105,0,1,0.78,0,-0.78,0
0,0,0,0,0,0,0.00032975,-0.0026995,1.5443e-36,0.00078253,5.3518e-19,3.4891e-21,40.372,0.003194,-0.0028974,1.7227e-34,0.00052758,-223.48,-686.26,-274.09,120.17,8.2085e-14,5.3514e-16,488.36,-716.8,-274.09,-192.95,0,0.013117,0,1,0.785,0,-0.785,0
0,0,0,0,0,0,0.00032948,-0.0026863,1.5534e-36,0.00077579,5.4273e-19,3.4986e-21,40.131,0.003177,-0.0028818,1.7525e-34,0.00052499,-222.02,-682.75,-272.59,119.13,8.3242e-14,5.3667e-16,485.78,-712.93,-272.59,-191.84,0,0.01313,0,1,0.79,0,-0.79,0
0,0,0,0,0,0,0.0003292,-0.0026731,1.5625e-36,0.00076905,5.5027e-19,3.5082e-21,39.891,0.00316,-0.0028663,1.7824e-34,0.0005224,-220.56,-679.24,-271.09,118.1,8.44e-14,5.382e-16,483.19,-709.06,-271.09,-190.74,0,0.013143,0,1,0.795,0,-0.795,0
0,0,0,0,0,0,0.00032892,-0.0026598,1.5715e-36,0.00076232,5.5782e-19,3.5177e-21,39.65,0.003143,-0.0028507,1.8122e-34,0.00051981,-219.1,-675.73,-269.59,117.06,8.5558e-14,5.3974e-16,480.6,-705.2,-269.59,-189.64,0,0.013155,0,1,0.8,0,-0.8,0
0,0,0,0,0,0,0.00032864,-0.0026466,1.5806e-36,0.00075558,5.6537e-19,3.5273e-21,39.409,0.003126,-0.0028352,1.842e-34,0.00051722,-217.64,-672.23,-268.08,116.03,8.6715e-14,5.4127e-16,478.02,-701.33,-268.08,-188.53,0,0.013168,0,1,0.805,0,-0.805,0
0,0,0,0,0,0,0.00032836,-0.0026334,1.5897e-36,0.00074884,5.7291e-19,3.5368e-21,39.168,0.0031091,-0.0028196,1.8719e-34,0.00051463,-216.18,-668.72,-266.58,114.99,8.7873e-14,5.4281e-16,475.43,-697.47,-266.58,-187.43,0,0.013181,0,1,0.81,0,-0.81,0
0,0,0,0,0,0,0.00032809,-0.0026201,1.5988e-36,0.0007421,5.8046e-19,3.5463e-21,38.927,0.0030921,-0.0028041,1.9017e-34,0.00051204,-214.72,-665.21,-265.08,113.96,8.9031e-14,5.4434e-16,472.84,-693.6,-265.08,-186.33,0,0.013194,0,1,0.815,0,-0.815,0
0,0,0,0,0,0,0.00032781,-0.0026069,1.6078e-36,0.00073536,5.88e-19,3.5559e-21,38.686,0.0030751,-0.0027885,1.9315e-34,0.00050945,-213.26,-661.7,-263.58,112.92,9.0188e-14,5.4587e-16,470.25,-689.73,-263.58,-185.22,0,0.013206,0,1,0.82,0,-0.82,0
0,0,0,0,0,0,0.00032753,-0.0025936,1.6169e-36,0.00072862,5.9555e-19,3.5654e-21,38.446,0.0030581,-0.002773,1.9614e-34,0.00050686,-211.8,-658.19,-262.08,111.89,9.1346e-14,5.4741e-16,467.67,-685.87,-262.08,-184.12,0,0.013219,0,1,0.825,0,-0.825,0
0,0,0,0,0,0,0.00032725,-0.0025804,1.626e-36,0.00072188,6.0309e-19,3.575e-21,38.205,0.0030411,-0.0027574,1.9912e-34,0.00050427,-210.34,-654.68,-260.58,110.85,9.2504e-14,5.4894e-16,465.08,-682,-260.58,-183.02,0,0.013232,0,1,0.83,0,-0.83,0
0,0,0,0,0,0,0.00032697,-0.0025672,1.635e-36,0.00071514,6.1064e-19,3.5845e-21,37.964,0.0030241,-0.0027419,2.021e-34,0.00050168,-208.88,-651.17,-259.08,109.82,9.3662e-14,5.5047e-16,462.49,-678.13,-259.08,-181.91,0,0.013244,0,1,0.835,0,-0.835,0
0,0,0,0,0,0,0.0003267,-0.0025539,1.6441e-36,0.00070841,6.1819e-19,3.5941e-21,37.723,0.0030071,-0.0027263,2.0508e-34,0.00049909,-207.41,-647.66,-257.58,108.78,9.4819e-14,5.5201e-16,459.91,-674.27,-257.58,-180.81,0,0.013257,0,1,0.84,0,-0.84,0
0,0,0,0,0,0,0.00032642,-0.0025407,1.6532e-36,0.00070167,6.2573e-19,3.6036e-21,37.482,0.0029901,-0.0027108,2.0807e-34,0.0004965,-205.95,-644.15,-256.07,107.75,9.5977e-14,5.5354e-16,457.32,-670.4,-256.07,-179.71,0,0.01327,0,1,0.845,0,-0.845,0
0,0,0,0,0,0,0.00032614,-0.0025275,1.6623e-36,0.00069493,6.3328e-19,3.6131e-21,37.241,0.0029731,-0.0026952,2.1105e-34,0.00049391,-204.49,-640.65,-254.57,106.71,9.7135e-14,5.5508e-16,454.73,-666.53,-254.57,-178.61,0,0.013282,0,1,0.85,0,-0.85,0
0,0,0,0,0,0,0.00032586,-0.0025142,1.6713e-36,0.00068819,6.4082e-19,3.6227e-21,37.001,0.0029561,-0.0026797,2.1403e-34,0.00049132,-203.03,-637.14,-253.07,105.68,9.8292e-14,5.5661e-16,452.14,-662.67,-253.07,-177.5,0,0.013295,0,1,0.855,0,-0.855,0
0,0,0,0,0,0,0.00032559,-0.002501,1.6804e-36,0.00068145,6.4837e-19,3.6322e-21,36.76,0.0029391,-0.0026641,2.1702e-34,0.00048873,-201.57,-633.63,-251.57,104.64,9.945e-14,5.5814e-16,449.56,-658.8,-251.57,-176.4,0,0.013308,0,1,0.86,0,-0.86,0
0,0,0,0,0,0,0.00032531,-0.0024877,1.6895e-36,0.00067471,6.5592e-19,3.6418e-21,36.519,0.0029221,-0.0026486,2.2e-34,0.00048614,-200.11,-630.12,-250.07,103.61,1.0061e-13,5.5968e-16,446.97,-654.94,-250.07,-175.3,0,0.01332,0,1,0.865,0,-0.865,0
0,0,0,0,0,0,0.00032503,-0.0024745,1.6985e-36,0.00066797,6.6346e-19,3.6513e-21,36.278,0.0029051,-0.002633,2.2298e-34,0.00048355,-198.65,-626.61,-248.57,102.57,1.0177e-13,5.6121e-16,444.38,-651.07,-248.57,-174.19,0,0.013333,0,1,0.87,0,-0.87,0
0,0,0,0,0,0,0.00032475,-0.0024613,1.7076e-36,0.00066123,6.7101e-19,3.6608e-21,36.037,0.0028882,-0.0026175,2.2597e-34,0.00048096,-197.19,-623.1,-247.07,101.54,1.0292e-13,5.6275e-16,441.8,-647.2,-247.07,-173.09,0,0.013346,0,1,0.875,0,-0.875,0
0,0,0,0,0,0,0.00032447,-0.002448,1.7167e-36,0.0006545,6.7855e-19,3.6704e-21,35.796,0.0028712,-0.0026019,2.2895e-34,0.00047837,-195.73,-619.59,-245.57,100.5,1.0408e-13,5.6428e-16,439.21,-643.34,-245.57,-171.99,0,0.013358,0,1,0.88,0,-0.88,0
0,0,0,0,0,0,0.0003242,-0.0024348,1.7258e-36,0.00064776,6.861e-19,3.6799e-21,35.556,0.0028542,-0.0025864,2.3193e-34,0.00047578,-194.27,-616.08,-244.06,99.469,1.0524e-13,5.6581e-16,436.62,-639.47,-244.06,-170.88,0,0.013371,0,1,0.885,0,-0.885,0
0,0,0,0,0,0,0.00032392,-0.0024216,1.7348e-36,0.00064102,6.9365e-19,3.6895e-21,35.315,0.0028372,-0.0025708,2.3492e-34,0.00047319,-192.81,-612.58,-242.56,98.434,1.064e-13,5.6735e-16,434.04,-635.6,-242.56,-169.78,0,0.013384,0,1,0.89,0,-0.89,0
0,0,0,0,0,0,0.00032364,-0.0024083,1.7439e-36,0.00063428,7.0119e-19,3.699e-21,35.074,0.0028202,-0.0025553,2.379e-34,0.0004706,-191.35,-609.07,-241.06,97.399,1.0755e-13,5.6888e-16,431.45,-631.74,-241.06,-168.68,0,0.013396,0,1,0.895,0,-0.895,0
0,0,0,0,0,0,0.00032336,-0.0023951,1.753e-36,0.00062754,7.0874e-19,3.7086e-21,34.833,0.0028032,-0.0025397,2.4088e-34,0.00046801,-189.89,-605.56,-239.56,96.364,1.0871e-13,5.7041e-16,428.86,-627.87,-239.56,-167.57,0,0.013409,0,1,0.9,0,-0.9,0
0,0,0,0,0,0,0.00032308,-0.0023818,1.762e-36,0.0006208,7.1628e-19,3.7181e-21,34.592,0.0027862,-0.0025242,2.4387e-34,0.00046542,-188.43,-602.05,-238.06,95.329,1.0987e-13,5.7195e-16,426.27,-624,-238.06,-166.47,0,0.013422,0,1,0.905,0,-0.905,0
0,0,0,0,0,0,0.00032281,-0.0023686,1.7711e-36,0.00061406,7.2383e-19,3.7276e-21,34.351,0.0027692,-0.0025086,2.4685e-34,0.00046283,-186.97,-598.54,-236.56,94.294,1.1103e-13,5.7348e-16,423.69,-620.14,-236.56,-165.37,0,0.013435,0,1,0.91,0,-0.91,0
0,0,0,0,0,0,0.00032253,-0.0023554,1.7802e-36,0.00060732,7.3137e-19,3.7372e-21,34.111,0.0027522,-0.0024931,2.4983e-34,0.00046024,-185.5,-595.03,-235.06,93.259,1.1218e-13,5.7502e-16,421.1,-616.27,-235.06,-164.26,0,0.013447,0,1,0.915,0,-0.915,0
0,0,0,0,0,0,0.00032225,-0.0023421,1.7893e-36,0.00060059,7.3892e-19,3.7467e-21,33.87,0.0027352,-0.0024775,2.5282e-34,0.00045765,-184.04,-591.52,-233.56,92.224,1.1334e-13,5.7655e-16,418.51,-612.4,-233.56,-163.16,0,0.01346,0,1,0.92,0,-0.92,0
0,0,0,0,0,0,0.00032197,-0.0023289,1.7983e-36,0.00059385,7.4647e-19,3.7563e-21,33.629,0.0027182,-0.002462,2.558e-34,0.00045506,-182.58,-588.01,-232.05,91.189,1.145e-13,5.7808e-16,415.93,-608.54,-232.05,-162.06,0,0.013473,0,1,0.925,0,-0.925,0
0,0,0,0,0,0,0.00032169,-0.0023156,1.8074e-36,0.00058711,7.5401e-19,3.7658e-21,33.388,0.0027012,-0.0024464,2.5878e-34,0.00045247,-181.12,-584.5,-230.55,90.154,1.1566e-13,5.7962e-16,413.34,-604.67,-230.55,-160.96,0,0.013485,0,1,0.93,0,-0.93,0
0,0,0,0,0,0,0.00032142,-0.0023024,1.8165e-36,0.00058037,7.6156e-19,3.7754e-21,33.147,0.0026842,-0.0024309,2.6177e-34,0.00044988,-179.66,-581,-229.05,89.119,1.1682e-13,5.8115e-16,410.75,-600.81,-229.05,-159.85,0,0.013498,0,1,0.935,0,-0.935,0
0,0,0,0,0,0,0.00032114,-0.0022892,1.8255e-36,0.00057363,7.691e-19,3.7849e-21,32.906,0.0026673,-0.0024153,2.6475e-34,0.00044729,-178.2,-577.49,-227.55,88.084,1.1797e-13,5.8268e-16,408.16,-596.94,-227.55,-158.75,0,0.013511,0,1,0.94,0,-0.94,0
0,0,0,0,0,0,0.00032086,-0.0022759,1.8346e-36,0.00056689,7.7665e-19,3.7944e-21,32.666,0.0026503,-0.0023998,2.6773e-34,0.0004447,-176.74,-573.98,-226.05,87.049,1.1913e-13,5.8422e-16,405.58,-593.07,-226.05,-157.65,0,0.013523,0,1,0.945,0,-0.945,0
0,0,0,0,0,0,0.00032058,-0.0022627,1.8437e-36,0.00056015,7.842e-19,3.804e-21,32.425,0.0026333,-0.0023842,2.7072e-34,0.00044211,-175.28,-570.47,-224.55,86.014,1.2029e-13,5.8575e-16,402.99,-589.21,-224.55,-156.54,0,0.013536,0,1,0.95,0,-0.95,0
0,0,0,0,0,0,0.0003203,-0.0022495,1.8528e-36,0.00055341,7.9174e-19,3.8135e-21,32.184,0.0026163,-0.0023687,2.737e-34,0.00043952,-173.82,-566.96,-223.05,84.978,1.2145e-13,5.8729e-16,400.4,-585.34,-223.05,-155.44,0,0.013549,0,1,0.955,0,-0.955,0
0,0,0,0,0,0,0.00032003,-0.0022362,1.8618e-36,0.00054668,7.9929e-19,3.8231e-21,31.943,0.0025993,-0.0023531,2.7668e-34,0.00043693,-172.36,-563.45,-221.55,83.943,1.226e-13,5.8882e-16,397.82,-581.47,-221.55,-154.34,0,0.013561,0,1,0.96,0,-0.96,0
0,0,0,0,0,0,0.00031975,-0.002223,1.8709e-36,0.00053994,8.0683e-19,3.8326e-21,31.702,0.0025823,-0.0023376,2.7967e-34,0.00043434,-170.9,-559.94,-220.04,82.908,1.2376e-13,5.9035e-16,395.23,-577.61,-220.04,-153.23,0,0.013574,0,1,0.965,0,-0.965,0
0,0,0,0,0,0,0.00031947,-0.0022097,1.88e-36,0.0005332,8.1438e-19,3.8422e-21,31.461,0.0025653,-0.002322,2.8265e-34,0.00043175,-169.44,-556.43,-218.54,81.873,1.2492e-13,5.9189e-16,392.64,-573.74,-218.54,-152.13,0,0.013587,0,1,0.97,0,-0.97,0
0,0,0,0,0,0,0.00031919,-0.0021965,1.889e-36,0.00052646,8.2193e-19,3.8517e-21,31.221,0.0025483,-0.0023065,2.8563e-34,0.00042916,-167.98,-552.93,-217.04,80.838,1.2608e-13,5.9342e-16,390.05,-569.87,-217.04,-151.03,0,0.013599,0,1,0.975,0,-0.975,0
0,0,0,0,0,0,0.00031891,-0.0021833,1.8981e-36,0.00051972,8.2947e-19,3.8612e-21,30.98,0.0025313,-0.0022909,2.8862e-34,0.00042657,-166.52,-549.42,-215.54,79.803,1.2724e-13,5.9496e-16,387.47,-566.01,-215.54,-149.92,0,0.013612,0,1,0.98,0,-0.98,0
0,0,0,0,0,0,0.00031864,-0.00217,1.9072e-36,0.00051298,8.3702e-19,3.8708e-21,30.739,0.0025143,-0.0022754,2.916e-34,0.00042398,-165.05,-545.91,-214.04,78.768,1.2839e-13,5.9649e-16,384.88,-562.14,-214.04,-148.82,0,0.013625,0,1,0.985,0,-0.985,0
0,0,0,0,0,0,0.00031836,-0.0021568,1.9163e-36,0.00050624,8.4456e-19,3.8803e-21,30.498,0.0024973,-0.0022598,2.9458e-34,0.00042139,-163.59,-542.4,-212.54,77.733,1.2955e-13,5.9802e-16,382.29,-558.28,-212.54,-147.72,0,0.013637,0,1,0.99,0,-0.99,0
0,0,0,0,0,0,0.00031808,-0.0021436,1.9253e-36,0.0004995,8.5211e-19,3.8899e-21,30.257,0.0024803,-0.0022443,2.9756e-34,0.0004188,-162.13,-538.89,-211.04,76.698,1.3071e-13,5.9956e-16,379.71,-554.41,-211.04,-146.61,0,0.01365,0,1,0.995,0,-0.995,0
0,0,0,0,0,0,0.0003178,-0.0021303,1.9344e-36,0.00049277,8.5965e-19,3.8994e-21,30.016,0.0024633,-0.0022287,3.0055e-34,0.00041621,-160.67,-535.38,-209.54,75.663,1.3187e-13,6.0109e-16,377.12,-550.54,-209.54,-145.51,0,0.013663,0,1,1,0,-1,0
0,0,0,0,0,0,0.00031752,-0.0021171,1.9435e-36,0.00048603,8.672e-19,3.9089e-21,29.776,0.0024464,-0.0022132,3.0353e-34,0.00041362,-159.21,-531.87,-208.03,74.628,1.3302e-13,6.0262e-16,374.53,-546.68,-208.03,-144.41,0,0.013675,0,1,1.005,0,-1.005,0
0,0,0,0,0,0,0.00031725,-0.0021038,1.9525e-36,0.00047929,8.7475e-19,3.9185e-21,29.535,0.0024294,-0.0021976,3.0651e-34,0.00041103,-157.75,-528.36,-206.53,73.593,1.3418e-13,6.0416e-16,371.94,-542.81,-206.53,-143.3,0,0.013688,0,1,1.01,0,-1.01,0
0,0,0,0,0,0,0.00031697,-0.0020906,1.9616e-36,0.00047255,8.8229e-19,3.928e-21,29.294,0.0024124,-0.0021821,3.095e-34,0.00040844,-156.29,-524.85,-205.03,72.558,1.3534e-13,6.0569e-16,369.36,-538.94,-205.03,-142.2,0,0.013701,0,1,1.015,0,-1.015,0
0,0,0,0,0,0,0.00031669,-0.0020774,1.9707e-36,0.00046581,8.8984e-19,3.9376e-21,29.053,0.0023954,-0.0021665,3.1248e-34,0.00040585,-154.83,-521.35,-203.53,71.523,1.365e-13,6.0723e-16,366.77,-535.08,-203.53,-141.1,0,0.013714,0,1,1.02,0,-1.02,0
0,0,0,0,0,0,0.00031641,-0.0020641,1.9798e-36,0.00045907,8.9738e-19,3.9471e-21,28.812,0.0023784,-0.002151,3.1546e-34,0.00040326,-153.37,-517.84,-202.03,70.488,1.3765e-13,6.0876e-16,364.18,-531.21,-202.03,-140,0,0.013726,0,1,1.025,0,-1.025,0
0,0,0,0,0,0,0.00031614,-0.0020509,1.9888e-36,0.00045233,9.0493e-19,3.9567e-21,28.571,0.0023614,-0.0021354,3.1845e-34,0.00040067,-151.91,-514.33,-200.53,69.453,1.3881e-13,6.1029e-16,361.6,-527.34,-200.53,-138.89,0,0.013739,0,1,1.03,0,-1.03,0
0,0,0,0,0,0,0.00031586,-0.0020377,1.9979e-36,0.00044559,9.1248e-19,3.9662e-21,28.331,0.0023444,-0.0021199,3.2143e-34,0.00039808,-150.45,-510.82,-199.03,68.418,1.3997e-13,6.1183e-16,359.01,-523.48,-199.03,-137.79,0,0.013752,0,1,1.035,0,-1.035,0
0,0,0,0,0,0,0.00031558,-0.0020244,2.007e-36,0.00043886,9.2002e-19,3.9757e-21,28.09,0.0023274,-0.0021043,3.2441e-34,0.00039549,-148.99,-507.31,-197.53,67.383,1.4113e-13,6.1336e-16,356.42,-519.61,-197.53,-136.69,0,0.013764,0,1,1.04,0,-1.04,0
0,0,0,0,0,0,0.00031522,-0.0020125,2.0127e-36,0.00043303,9.2631e-19,3.9738e-21,27.868,0.0023122,-0.0020904,3.2745e-34,0.00039317,-147.7,-504.16,-196.18,66.488,1.4209e-13,6.1312e-16,354.11,-516.16,-196.18,-135.7,0,0.013776,0,1,1.045,0,-1.045,0
0,0,0,0,0,0,0.00031451,-0.0020062,2.004e-36,0.00043119,9.2709e-19,3.9217e-21,27.733,0.0023049,-0.0020838,3.3071e-34,0.00039206,-147.17,-502.56,-195.54,66.206,1.4221e-13,6.051e-16,353,-514.5,-195.54,-135.23,0,0.013783,0,1,1.05,0,-1.05,0
0,0,0,0,0,0,0.00031379,-0.002,1.9953e-36,0.00042935,9.2788e-19,3.8696e-21,27.597,0.0022977,-0.0020771,3.3396e-34,0.00039094,-146.63,-500.96,-194.9,65.925,1.4234e-13,5.9709e-16,351.88,-512.84,-194.9,-134.76,0,0.013791,0,1,1.055,0,-1.055,0
0,0,0,0,0,0,0.00031308,-0.0019937,1.9866e-36,0.00042752,9.2866e-19,3.8174e-21,27.461,0.0022904,-0.0020704,3.3722e-34,0.00038983,-146.1,-499.37,-194.26,65.643,1.4246e-13,5.8907e-16,350.77,-511.18,-194.26,-134.29,0,0.013798,0,1,1.06,0,-1.06,0
0,0,0,0,0,0,0.00031237,-0.0019874,1.9779e-36,0.00042568,9.2944e-19,3.7653e-21,27.326,0.0022831,-0.0020638,3.4048e-34,0.00038871,-145.57,-497.77,-193.62,65.361,1.4258e-13,5.8106e-16,349.66,-509.52,-193.62,-133.82,0,0.013806,0,1,1.065,0,-1.065,0
0,0,0,0,0,0,0.00031166,-0.0019812,1.9691e-36,0.00042384,9.3023e-19,3.7132e-21,27.19,0.0022758,-0.0020571,3.4374e-34,0.0003876,-145.04,-496.17,-192.97,65.079,1.427e-13,5.7304e-16,348.55,-507.86,-192.97,-133.35,0,0.013813,0,1,1.07,0,-1.07,0
0,0,0,0,0,0,0.00031094,-0.0019749,1.9604e-36,0.000422,9.3101e-19,3.661e-21,27.055,0.0022685,-0.0020505,3.4699e-34,0.00038648,-144.51,-494.58,-192.33,64.797,1.4282e-13,5.6503e-16,347.44,-506.2,-192.33,-132.88,0,0.013821,0,1,1.075,0,-1.075,0
0,0,0,0,0,0,0.00031023,-0.0019687,1.9517e-36,0.00042017,9.318e-19,3.6089e-21,26.919,0.0022612,-0.0020438,3.5025e-34,0.00038537,-143.97,-492.98,-191.69,64.515,1.4295e-13,5.5701e-16,346.32,-504.55,-191.69,-132.41,0,0.013828,0,1,1.08,0,-1.08,0
0,0,0,0,0,0,0.00030952,-0.0019624,1.943e-36,0.00041833,9.3258e-19,3.5568e-21,26.783,0.002254,-0.0020371,3.5351e-34,0.00038425,-143.44,-491.38,-191.05,64.233,1.4307e-13,5.49e-16,345.21,-502.89,-191.05,-131.94,0,0.013836,0,1,1.085,0,-1.085,0
0,0,0,0,0,0,0.00030881,-0.0019561,1.9343e-36,0.00041649,9.3336e-19,3.5047e-21,26.648,0.0022467,-0.0020305,3.5677e-34,0.00038314,-142.91,-489.79,-190.41,63.951,1.4319e-13,5.4098e-16,344.1,-501.23,-190.41,-131.47,0,0.013843,0,1,1.09,0,-1.09,0
0,0,0,0,0,0,0.00030809,-0.0019499,1.9256e-36,0.00041466,9.3415e-19,3.4525e-21,26.512,0.0022394,-0.0020238,3.6003e-34,0.00038202,-142.38,-488.19,-189.76,63.67,1.4331e-13,5.3297e-16,342.99,-499.57,-189.76,-131,0,0.013851,0,1,1.095,0,-1.095,0
0,0,0,0,0,0,0.00030738,-0.0019436,1.9168e-36,0.00041282,9.3493e-19,3.4004e-21,26.376,0.0022321,-0.0020171,3.6328e-34,0.00038091,-141.84,-486.59,-189.12,63.388,1.4343e-13,5.2495e-16,341.88,-497.91,-189.12,-130.53,0,0.013858,0,1,1.1,0,-1.1,0
0,0,0,0,0,0,0.00030667,-0.0019374,1.9081e-36,0.00041098,9.3571e-19,3.3483e-21,26.241,0.0022248,-0.0020105,3.6654e-34,0.00037979,-141.31,-485,-188.48,63.106,1.4356e-13,5.1694e-16,340.76,-496.25,-188.48,-130.06,0,0.013866,0,1,1.105,0,-1.105,0
0,0,0,0,0,0,0.00030595,-0.0019311,1.8994e-36,0.00040914,9.365e-19,3.2961e-21,26.105,0.0022175,-0.0020038,3.698e-34,0.00037868,-140.78,-483.4,-187.84,62.824,1.4368e-13,5.0892e-16,339.65,-494.6,-187.84,-129.58,0,0.013873,0,1,1.11,0,-1.11,0
0,0,0,0,0,0,0.00030524,-0.0019248,1.8907e-36,0.00040731,9.3728e-19,3.244e-21,25.969,0.0022103,-0.0019972,3.7306e-34,0.00037757,-140.25,-481.8,-187.2,62.542,1.438e-13,5.0091e-16,338.54,-492.94,-187.2,-129.11,0,0.013881,0,1,1.115,0,-1.115,0
0,0,0,0,0,0,0.00030453,-0.0019186,1.882e-36,0.00040547,9.3806e-19,3.1919e-21,25.834,0.002203,-0.0019905,3.7632e-34,0.00037645,-139.71,-480.21,-186.56,62.26,1.4392e-13,4.9289e-16,337.43,-491.28,-186.56,-128.64,0,0.013888,0,1,1.12,0,-1.12,0
0,0,0,0,0,0,0.00030382,-0.0019123,1.8732e-36,0.00040363,9.3885e-19,3.1397e-21,25.698,0.0021957,-0.0019838,3.7957e-34,0.00037534,-139.18,-478.61,-185.91,61.978,1.4404e-13,4.8488e-16,336.32,-489.62,-185.91,-128.17,0,0.013896,0,1,1.125,0,-1.125,0
0,0,0,0,0,0,0.0003031,-0.0019061,1.8645e-36,0.00040179,9.3963e-19,3.0876e-21,25.562,0.0021884,-0.0019772,3.8283e-34,0.00037422,-138.65,-477.02,-185.27,61.696,1.4417e-13,4.7686e-16,335.2,-487.96,-185.27,-127.7,0,0.013903,0,1,1.13,0,-1.13,0
0,0,0,0,0,0,0.00030239,-0.0018998,1.8558e-36,0.00039996,9.4042e-19,3.0355e-21,25.427,0.0021811,-0.0019705,3.8609e-34,0.00037311,-138.12,-475.42,-184.63,61.414,1.4429e-13,4.6885e-16,334.09,-486.3,-184.63,-127.23,0,0.013911,0,1,1.135,0,-1.135,0
0,0,0,0,0,0,0.00030168,-0.0018935,1.8471e-36,0.00039812,9.412e-19,2.9834e-21,25.291,0.0021739,-0.0019638,3.8935e-34,0.00037199,-137.59,-473.82,-183.99,61.133,1.4441e-13,4.6083e-16,332.98,-484.64,-183.99,-126.76,0,0.013918,0,1,1.14,0,-1.14,0
0,0,0,0,0,0,0.00030097,-0.0018873,1.8384e-36,0.00039628,9.4198e-19,2.9312e-21,25.155,0.0021666,-0.0019572,3.926e-34,0.00037088,-137.05,-472.23,-183.35,60.851,1.4453e-13,4.5282e-16,331.87,-482.99,-183.35,-126.29,0,0.013925,0,1,1.145,0,-1.145,0
0,0,0,0,0,0,0.00030025,-0.001881,1.8296e-36,0.00039445,9.4277e-19,2.8791e-21,25.02,0.0021593,-0.0019505,3.9586e-34,0.00036976,-136.52,-470.63,-182.7,60.569,1.4465e-13,4.448e-16,330.76,-481.33,-182.7,-125.82,0,0.013933,0,1,1.15,0,-1.15,0
0,0,0,0,0,0,0.00029954,-0.0018748,1.8209e-36,0.00039261,9.4355e-19,2.827e-21,24.884,0.002152,-0.0019439,3.9912e-34,0.00036865,-135.99,-469.03,-182.06,60.287,1.4478e-13,4.3679e-16,329.64,-479.67,-182.06,-125.35,0,0.01394,0,1,1.155,0,-1.155,0
0,0,0,0,0,0,0.00029883,-0.0018685,1.8122e-36,0.00039077,9.4433e-19,2.7748e-21,24.748,0.0021447,-0.0019372,4.0238e-34,0.00036753,-135.46,-467.44,-181.42,60.005,1.449e-13,4.2877e-16,328.53,-478.01,-181.42,-124.88,0,0.013948,0,1,1.16,0,-1.16,0
0,0,0,0,0,0,0.00029811,-0.0018622,1.8035e-36,0.00038893,9.4512e-19,2.7227e-21,24.613,0.0021374,-0.0019305,4.0564e-34,0.00036642,-134.92,-465.84,-180.78,59.723,1.4502e-13,4.2076e-16,327.42,-476.35,-180.78,-124.41,0,0.013955,0,1,1.165,0,-1.165,0
0,0,0,0,0,0,0.0002974,-0.001856,1.7948e-36,0.0003871,9.459e-19,2.6706e-21,24.477,0.0021302,-0.0019239,4.0889e-34,0.0003653,-134.39,-464.24,-180.14,59.441,1.4514e-13,4.1274e-16,326.31,-474.69,-180.14,-123.94,0,0.013963,0,1,1.17,0,-1.17,0
0,0,0,0,0,0,0.00029669,-0.0018497,1.7861e-36,0.00038526,9.4668e-19,2.6185e-21,24.341,0.0021229,-0.0019172,4.1215e-34,0.00036419,-133.86,-462.65,-179.49,59.159,1.4526e-13,4.0473e-16,325.2,-473.04,-179.49,-123.47,0,0.01397,0,1,1.175,0,-1.175,0
0,0,0,0,0,0,0.00029598,-0.0018435,1.7773e-36,0.00038342,9.4747e-19,2.5663e-21,24.206,0.0021156,-0.0019106,4.1541e-34,0.00036307,-133.33,-461.05,-178.85,58.878,1.4539e-13,3.9671e-16,324.08,-471.38,-178.85,-123,0,0.013978,0,1,1.18,0,-1.18,0
0,0,0,0,0,0,0.00029526,-0.0018372,1.7686e-36,0.00038158,9.4825e-19,2.5142e-21,24.07,0.0021083,-0.0019039,4.1867e-34,0.00036196,-132.79,-459.45,-178.21,58.596,1.4551e-13,3.887e-16,322.97,-469.72,-178.21,-122.53,0,0.013985,0,1,1.185,0,-1.185,0
0,0,0,0,0,0,0.00029455,-0.0018309,1.7599e-36,0.00037975,9.4904e-19,2.4621e-21,23.934,0.002101,-0.0018972,4.2192e-34,0.00036084,-132.26,-457.86,-177.57,58.314,1.4563e-13,3.8068e-16,321.86,-468.06,-177.57,-122.06,0,0.013993,0,1,1.19,0,-1.19,0
0,0,0,0,0,0,0.00029384,-0.0018247,1.7512e-36,0.00037791,9.4982e-19,2.4099e-21,23.799,0.0020937,-0.0018906,4.2518e-34,0.00035973,-131.73,-456.26,-176.93,58.032,1.4575e-13,3.7267e-16,320.75,-466.4,-176.93,-121.59,0,0.014,0,1,1.195,0,-1.195,0
0,0,0,0,0,0,0.00029313,-0.0018184,1.7425e-36,0.00037607,9.506e-19,2.3578e-21,23.663,0.0020865,-0.0018839,4.2844e-34,0.00035862,-131.2,-454.66,-176.28,57.75,1.4587e-13,3.6465e-16,319.63,-464.74,-176.28,-121.12,0,0.014008,0,1,1.2,0,-1.2,0
0,0,0,0,0,0,0.00029241,-0.0018122,1.7337e-36,0.00037424,9.5139e-19,2.3057e-21,23.527,0.0020792,-0.0018772,4.317e-34,0.0003575,-130.67,-453.07,-175.64,57.468,1.46e-13,3.5664e-16,318.52,-463.08,-175.64,-120.65,0,0.014015,0,1,1.205,0,-1.205,0
0,0,0,0,0,0,0.0002917,-0.0018059,1.725e-36,0.0003724,9.5217e-19,2.2535e-21,23.392,0.0020719,-0.0018706,4.3496e-34,0.00035639,-130.13,-451.47,-175,57.186,1.4612e-13,3.4862e-16,317.41,-461.43,-175,-120.18,0,0.014023,0,1,1.21,0,-1.21,0
0,0,0,0,0,0,0.00029099,-0.0017996,1.7163e-36,0.00037056,9.5295e-19,2.2014e-21,23.256,0.0020646,-0.0018639,4.3821e-34,0.00035527,-129.6,-449.87,-174.36,56.904,1.4624e-13,3.4061e-16,316.3,-459.77,-174.36,-119.71,0,0.01403,0,1,1.215,0,-1.215,0
0,0,0,0,0,0,0.00029027,-0.0017934,1.7076e-36,0.00036872,9.5374e-19,2.1493e-21,23.12,0.0020573,-0.0018573,4.4147e-34,0.00035416,-129.07,-448.28,-173.72,56.623,1.4636e-13,3.3259e-16,315.19,-458.11,-173.72,-119.24,0,0.014038,0,1,1.22,0,-1.22,0
0,0,0,0,0,0,0.00028956,-0.0017871,1.6989e-36,0.00036689,9.5452e-19,2.0972e-21,22.985,0.0020501,-0.0018506,4.4473e-34,0.00035304,-128.54,-446.68,-173.08,56.341,1.4648e-13,3.2458e-16,314.07,-456.45,-173.08,-118.76,0,0.014045,0,1,1.225,0,-1.225,0
0,0,0,0,0,0,0.00028885,-0.0017809,1.6901e-36,0.00036505,9.553e-19,2.045e-21,22.849,0.0020428,-0.0018439,4.4799e-34,0.00035193,-128,-445.08,-172.43,56.059,1.4661e-13,3.1656e-16,312.96,-454.79,-172.43,-118.29,0,0.014053,0,1,1.23,0,-1.23,0
0,0,0,0,0,0,0.00028814,-0.0017746,1.6814e-36,0.00036321,9.5609e-19,1.9929e-21,22.713,0.0020355,-0.0018373,4.5124e-34,0.00035081,-127.47,-443.49,-171.79,55.777,1.4673e-13,3.0854e-16,311.85,-453.13,-171.79,-117.82,0,0.01406,0,1,1.235,0,-1.235,0
0,0,0,0,0,0,0.00028742,-0.0017683,1.6727e-36,0.00036137,9.5687e-19,1.9408e-21,22.578,0.0020282,-0.0018306,4.545e-34,0.0003497,-126.94,-441.89,-171.15,55.495,1.4685e-13,3.0053e-16,310.74,-451.48,-171.15,-117.35,0,0.014068,0,1,1.24,0,-1.24,0
0,0,0,0,0,0,0.00028671,-0.0017621,1.664e-36,0.00035954,9.5766e-19,1.8886e-21,22.442,0.0020209,-0.0018239,4.5776e-34,0.00034858,-126.41,-440.29,-170.51,55.213,1.4697e-13,2.9251e-16,309.63,-449.82,-170.51,-116.88,0,0.014075,0,1,1.245,0,-1.245,0
0,0,0,0,0,0,0.000286,-0.0017558,1.6553e-36,0.0003577,9.5844e-19,1.8365e-21,22.307,0.0020136,-0.0018173,4.6102e-34,0.00034747,-125.87,-438.7,-169.87,54.931,1.4709e-13,2.845e-16,308.51,-448.16,-169.87,-116.41,0,0.014082,0,1,1.25,0,-1.25,0
0,0,0,0,0,0,0.00028528,-0.0017496,1.6466e-36,0.00035586,9.5922e-19,1.7844e-21,22.171,0.0020064,-0.0018106,4.6428e-34,0.00034635,-125.34,-437.1,-169.22,54.649,1.4722e-13,2.7648e-16,307.4,-446.5,-169.22,-115.94,0,0.01409,0,1,1.255,0,-1.255,0
0,0,0,0,0,0,0.00028457,-0.0017433,1.6378e-36,0.00035403,9.6001e-19,1.7323e-21,22.035,0.0019991,-0.001804,4.6753e-34,0.00034524,-124.81,-435.5,-168.58,54.368,1.4734e-13,2.6847e-16,306.29,-444.84,-168.58,-115.47,0,0.014097,0,1,1.26,0,-1.26,0
0,0,0,0,0,0,0.00028386,-0.001737,1.6291e-36,0.00035219,9.6079e-19,1.6801e-21,21.9,0.0019918,-0.0017973,4.7079e-34,0.00034412,-124.28,-433.91,-167.94,54.086,1.4746e-13,2.6045e-16,305.18,-443.18,-167.94,-115,0,0.014105,0,1,1.265,0,-1.265,0
0,0,0,0,0,0,0.00028315,-0.0017308,1.6204e-36,0.00035035,9.6157e-19,1.628e-21,21.764,0.0019845,-0.0017906,4.7405e-34,0.00034301,-123.75,-432.31,-167.3,53.804,1.4758e-13,2.5244e-16,304.07,-441.52,-167.3,-114.53,0,0.014112,0,1,1.27,0,-1.27,0
0,0,0,0,0,0,0.00028243,-0.0017245,1.6117e-36,0.00034851,9.6236e-19,1.5759e-21,21.628,0.0019772,-0.001784,4.7731e-34,0.00034189,-123.21,-430.71,-166.66,53.522,1.477e-13,2.4442e-16,302.95,-439.87,-166.66,-114.06,0,0.01412,0,1,1.275,0,-1.275,0
0,0,0,0,0,0,0.00028172,-0.0017183,1.603e-36,0.00034668,9.6314e-19,1.5237e-21,21.493,0.0019699,-0.0017773,4.8056e-34,0.00034078,-122.68,-429.12,-166.01,53.24,1.4783e-13,2.3641e-16,301.84,-438.21,-166.01,-113.59,0,0.014127,0,1,1.28,0,-1.28,0
0,0,0,0,0,0,0.00028101,-0.001712,1.5942e-36,0.00034484,9.6392e-19,1.4716e-21,21.357,0.0019627,-0.0017706,4.8382e-34,0.00033967,-122.15,-427.52,-165.37,52.958,1.4795e-13,2.2839e-16,300.73,-436.55,-165.37,-113.12,0,0.014135,0,1,1.285,0,-1.285,0
0,0,0,0,0,0,0.0002803,-0.0017057,1.5855e-36,0.000343,9.6471e-19,1.4195e-21,21.221,0.0019554,-0.001764,4.8708e-34,0.00033855,-121.62,-425.92,-164.73,52.676,1.4807e-13,2.2038e-16,299.62,-434.89,-164.73,-112.65,0,0.014142,0,1,1.29,0,-1.29,0
0,0,0,0,0,0,0.00027958,-0.0016995,1.5768e-36,0.00034116,9.6549e-19,1.3674e-21,21.086,0.0019481,-0.0017573,4.9034e-34,0.00033744,-121.08,-424.33,-164.09,52.394,1.4819e-13,2.1236e-16,298.51,-433.23,-164.09,-112.18,0,0.01415,0,1,1.295,0,-1.295,0
0,0,0,0,0,0,0.00027887,-0.0016932,1.5681e-36,0.00033933,9.6628e-19,1.3152e-21,20.95,0.0019408,-0.0017507,4.936e-34,0.00033632,-120.55,-422.73,-163.45,52.113,1.4831e-13,2.0435e-16,297.39,-431.57,-163.45,-111.71,0,0.014157,0,1,1.3,0,-1.3,0
0,0,0,0,0,0,0.00027816,-0.001687,1.5594e-36,0.00033749,9.6706e-19,1.2631e-21,20.814,0.0019335,-0.001744,4.9685e-34,0.00033521,-120.02,-421.13,-162.81,51.831,1.4844e-13,1.9633e-16,296.28,-429.92,-162.81,-111.24,0,0.014165,0,1,1.305,0,-1.305,0
0,0,0,0,0,0,0.00027744,-0.0016807,1.5507e-36,0.00033565,9.6784e-19,1.211e-21,20.679,0.0019263,-0.0017373,5.0011e-34,0.00033409,-119.49,-419.54,-162.16,51.549,1.4856e-13,1.8832e-16,295.17,-428.26,-162.16,-110.77,0,0.014172,0,1,1.31,0,-1.31,0
0,0,0,0,0,0,0.00027673,-0.0016744,1.5419e-36,0.00033381,9.6863e-19,1.1588e-21,20.543,0.001919,-0.0017307,5.0337e-34,0.00033298,-118.95,-417.94,-161.52,51.267,1.4868e-13,1.803e-16,294.06,-426.6,-161.52,-110.3,0,0.01418,0,1,1.315,0,-1.315,0
0,0,0,0,0,0,0.00027602,-0.0016682,1.5332e-36,0.00033198,9.6941e-19,1.1067e-21,20.407,0.0019117,-0.001724,5.0663e-34,0.00033186,-118.42,-416.34,-160.88,50.985,1.488e-13,1.7229e-16,292.95,-424.94,-160.88,-109.83,0,0.014187,0,1,1.32,0,-1.32,0
0,0,0,0,0,0,0.00027531,-0.0016619,1.5245e-36,0.00033014,9.7019e-19,1.0546e-21,20.272,0.0019044,-0.0017174,5.0989e-34,0.00033075,-117.89,-414.75,-160.24,50.703,1.4892e-13,1.6427e-16,291.83,-423.28,-160.24,-109.36,0,0.014195,0,1,1.325,0,-1.325,0
0,0,0,0,0,0,0.00027459,-0.0016557,1.5158e-36,0.0003283,9.7098e-19,1.0024e-21,20.136,0.0018971,-0.0017107,5.1314e-34,0.00032963,-117.36,-413.15,-159.6,50.421,1.4905e-13,1.5626e-16,290.72,-421.62,-159.6,-108.89,0,0.014202,0,1,1.33,0,-1.33,0
0,0,0,0,0,0,0.00027388,-0.0016494,1.5071e-36,0.00032647,9.7176e-19,9.5032e-22,20,0.0018898,-0.001704,5.164e-34,0.00032852,-116.83,-411.55,-158.95,50.139,1.4917e-13,1.4824e-16,289.61,-419.96,-158.95,-108.42,0,0.01421,0,1,1.335,0,-1.335,0
0,0,0,0,0,0,0.00027317,-0.0016431,1.4983e-36,0.00032463,9.7254e-19,8.9819e-22,19.865,0.0018826,-0.0016974,5.1966e-34,0.0003274,-116.29,-409.96,-158.31,49.858,1.4929e-13,1.4023e-16,288.5,-418.31,-158.31,-107.94,0,0.014217,0,1,1.34,0,-1.34,0
0,0,0,0,0,0,0.00027246,-0.0016369,1.4896e-36,0.00032279,9.7333e-19,8.4606e-22,19.729,0.0018753,-0.0016907,5.2292e-34,0.00032629,-115.76,-408.36,-157.67,49.576,1.4941e-13,1.3221e-16,287.38,-416.65,-157.67,-107.47,0,0.014225,0,1,1.345,0,-1.345,0
0,0,0,0,0,0,0.00027174,-0.0016306,1.4809e-36,0.00032095,9.7411e-19,7.9393e-22,19.593,0.001868,-0.001684,5.2617e-34,0.00032517,-115.23,-406.77,-157.03,49.294,1.4953e-13,1.242e-16,286.27,-414.99,-157.03,-107,0,0.014232,0,1,1.35,0,-1.35,0
0,0,0,0,0,0,0.00027103,-0.0016243,1.4722e-36,0.00031912,9.749e-19,7.418e-22,19.458,0.0018607,-0.0016774,5.2943e-34,0.00032406,-114.7,-405.17,-156.39,49.012,1.4966e-13,1.1618e-16,285.16,-413.33,-156.39,-106.53,0,0.014239,0,1,1.355,0,-1.355,0
0,0,0,0,0,0,0.00027032,-0.0016181,1.4635e-36,0.00031728,9.7568e-19,6.8967e-22,19.322,0.0018534,-0.0016707,5.3269e-34,0.00032294,-114.16,-403.57,-155.74,48.73,1.4978e-13,1.0817e-16,284.05,-411.67,-155.74,-106.06,0,0.014247,0,1,1.36,0,-1.36,0
0,0,0,0,0,0,0.0002696,-0.0016118,1.4547e-36,0.00031544,9.7646e-19,6.3754e-22,19.186,0.0018461,-0.0016641,5.3595e-34,0.00032183,-113.63,-401.98,-155.1,48.448,1.499e-13,1.0015e-16,282.94,-410.01,-155.1,-105.59,0,0.014254,0,1,1.365,0,-1.365,0
0,0,0,0,0,0,0.00026889,-0.0016056,1.446e-36,0.0003136,9.7725e-19,5.8541e-22,19.051,0.0018389,-0.0016574,5.3921e-34,0.00032072,-113.1,-400.38,-154.46,48.166,1.5002e-13,9.2137e-17,281.82,-408.36,-154.46,-105.12,0,0.014262,0,1,1.37,0,-1.37,0
0,0,0,0,0,0,0.00026818,-0.0015993,1.4373e-36,0.00031177,9.7803e-19,5.3328e-22,18.915,0.0018316,-0.0016507,5.4246e-34,0.0003196,-112.57,-398.78,-153.82,47.884,1.5014e-13,8.4122e-17,280.71,-406.7,-153.82,-104.65,0,0.014269,0,1,1.375,0,-1.375,0
0,0,0,0,0,0,0.00026747,-0.001593,1.4286e-36,0.00030993,9.7881e-19,4.8115e-22,18.779,0.0018243,-0.0016441,5.4572e-34,0.00031849,-112.03,-397.19,-153.18,47.603,1.5027e-13,7.6107e-17,279.6,-405.04,-153.18,-104.18,0,0.014277,0,1,1.38,0,-1.38,0
0,0,0,0,0,0,0.00026675,-0.0015868,1.4199e-36,0.00030809,9.796e-19,4.2902e-22,18.644,0.001817,-0.0016374,5.4898e-34,0.00031737,-111.5,-395.59,-152.53,47.321,1.5039e-13,6.8091e-17,278.49,-403.38,-152.53,-103.71,0,0.014284,0,1,1.385,0,-1.385,0
0,0,0,0,0,0,0.00026604,-0.0015805,1.4112e-36,0.00030626,9.8038e-19,3.7689e-22,18.508,0.0018097,-0.0016307,5.5224e-34,0.00031626,-110.97,-393.99,-151.89,47.039,1.5051e-13,6.0076e-17,277.38,-401.72,-151.89,-103.24,0,0.014292,0,1,1.39,0,-1.39,0
0,0,0,0,0,0,0.00026533,-0.0015743,1.4024e-36,0.00030442,9.8116e-19,3.2477e-22,18.372,0.0018025,-0.0016241,5.5549e-34,0.00031514,-110.44,-392.4,-151.25,46.757,1.5063e-13,5.2061e-17,276.26,-400.06,-151.25,-102.77,0,0.014299,0,1,1.395,0,-1.395,0
0,0,0,0,0,0,0.00026462,-0.001568,1.3937e-36,0.00030258,9.8195e-19,2.7264e-22,18.237,0.0017952,-0.0016174,5.5875e-34,0.00031403,-109.9,-390.8,-150.61,46.475,1.5075e-13,4.4046e-17,275.15,-398.4,-150.61,-102.3,0,0.014307,0,1,1.4,0,-1.4,0
0,0,0,0,0,0,0.0002639,-0.0015617,1.385e-36,0.00030074,9.8273e-19,2.2051e-22,18.101,0.0017879,-0.0016108,5.6201e-34,0.00031291,-109.37,-389.2,-149.97,46.193,1.5088e-13,3.6031e-17,274.04,-396.75,-149.97,-101.83,0,0.014314,0,1,1.405,0,-1.405,0
0,0,0,0,0,0,0.00026319,-0.0015555,1.3763e-36,0.00029891,9.8352e-19,1.6838e-22,17.965,0.0017806,-0.0016041,5.6527e-34,0.0003118,-108.84,-387.61,-149.33,45.911,1.51e-13,2.8016e-17,272.93,-395.09,-149.33,-101.36,0,0.014322,0,1,1.41,0,-1.41,0
0,0,0,0,0,0,0.00026248,-0.0015492,1.3676e-36,0.00029707,9.843e-19,1.1625e-22,17.83,0.0017733,-0.0015974,5.6853e-34,0.00031068,-108.31,-386.01,-148.68,45.629,1.5112e-13,2.0001e-17,271.82,-393.43,-148.68,-100.89,0,0.014329,0,1,1.415,0,-1.415,0
0,0,0,0,0,0,0.00026176,-0.001543,1.3588e-36,0.00029523,9.8508e-19,6.4119e-23,17.694,0.001766,-0.0015908,5.7178e-34,0.00030957,-107.78,-384.41,-148.04,45.348,1.5124e-13,1.1986e-17,270.7,-391.77,-148.04,-100.42,0,0.014337,0,1,1.42,0,-1.42,0
0,0,0,0,0,0,0.00026105,-0.0015367,1.3501e-36,0.00029339,9.8587e-19,1.199e-23,17.558,0.0017588,-0.0015841,5.7504e-34,0.00030845,-107.24,-382.82,-147.4,45.066,1.5136e-13,3.9706e-18,269.59,-390.11,-147.4,-99.947,0,0.014344,0,1,1.425,0,-1.425,0
0,0,0,0,0,0,0.00026034,-0.0015304,1.3414e-36,0.00029156,9.8665e-19,-4.0139e-23,17.423,0.0017515,-0.0015774,5.783e-34,0.00030734,-106.71,-381.22,-146.76,44.784,1.5149e-13,-4.0445e-18,268.48,-388.45,-146.76,-99.477,0,0.014352,0,1,1.43,0,-1.43,0
0,0,0,0,0,0,0.00025963,-0.0015242,1.3327e-36,0.00028972,9.8743e-19,-9.2269e-23,17.287,0.0017442,-0.0015708,5.8156e-34,0.00030622,-106.18,-379.62,-146.12,44.502,1.5161e-13,-1.206e-17,267.37,-386.8,-146.12,-99.007,0,0.014359,0,1,1.435,0,-1.435,0
0,0,0,0,0,0,0.00025891,-0.0015179,1.324e-36,0.00028788,9.8822e-19,-1.444e-22,17.152,0.0017369,-0.0015641,5.8481e-34,0.00030511,-105.65,-378.03,-145.47,44.22,1.5173e-13,-2.0075e-17,266.26,-385.14,-145.47,-98.536,0,0.014367,0,1,1.44,0,-1.44,0
0,0,0,0,0,0,0.0002582,-0.0015117,1.3152e-36,0.00028605,9.89e-19,-1.9653e-22,17.016,0.0017296,-0.0015575,5.8807e-34,0.00030399,-105.11,-376.43,-144.83,43.938,1.5185e-13,-2.809e-17,265.14,-383.48,-144.83,-98.066,0,0.014374,0,1,1.445,0,-1.445,0
0,0,0,0,0,0,0.00025749,-0.0015054,1.3065e-36,0.00028421,9.8978e-19,-2.4866e-22,16.88,0.0017223,-0.0015508,5.9133e-34,0.00030288,-104.58,-374.83,-144.19,43.656,1.5197e-13,-3.6105e-17,264.03,-381.82,-144.19,-97.595,0,0.014381,0,1,1.45,0,-1.45,0
0,0,0,0,0,0,0.00025677,-0.0014991,1.2978e-36,0.00028237,9.9057e-19,-3.0079e-22,16.745,0.0017151,-0.0015441,5.9459e-34,0.00030176,-104.05,-373.24,-143.55,43.374,1.521e-13,-4.412e-17,262.92,-380.16,-143.55,-97.125,0,0.014389,0,1,1.455,0,-1.455,0
0,0,0,0,0,0,0.00025606,-0.0014929,1.2891e-36,0.00028053,9.9135e-19,-3.5292e-22,16.609,0.0017078,-0.0015375,5.9785e-34,0.00030065,-103.52,-371.64,-142.91,43.093,1.5222e-13,-5.2135e-17,261.81,-378.5,-142.91,-96.654,0,0.014396,0,1,1.46,0,-1.46,0
0,0,0,0,0,0,0.00025535,-0.0014866,1.2804e-36,0.0002787,9.9214e-19,-4.0505e-22,16.473,0.0017005,-0.0015308,6.011e-34,0.00029954,-102.98,-370.04,-142.26,42.811,1.5234e-13,-6.015e-17,260.7,-376.84,-142.26,-96.184,0,0.014404,0,1,1.465,0,-1.465,0
0,0,0,0,0,0,0.00025464,-0.0014804,1.2717e-36,0.00027686,9.9292e-19,-4.5717e-22,16.338,0.0016932,-0.0015242,6.0436e-34,0.00029842,-102.45,-368.45,-141.62,42.529,1.5246e-13,-6.8166e-17,259.58,-375.19,-141.62,-95.714,0,0.014411,0,1,1.47,0,-1.47,0
0,0,0,0,0,0,0.00025392,-0.0014741,1.2629e-36,0.00027502,9.937e-19,-5.093e-22,16.202,0.0016859,-0.0015175,6.0762e-34,0.00029731,-101.92,-366.85,-140.98,42.247,1.5258e-13,-7.6181e-17,258.47,-373.53,-140.98,-95.243,0,0.014419,0,1,1.475,0,-1.475,0
0,0,0,0,0,0,0.00025321,-0.0014678,1.2542e-36,0.00027318,9.9449e-19,-5.6143e-22,16.066,0.0016787,-0.0015108,6.1088e-34,0.00029619,-101.39,-365.25,-140.34,41.965,1.5271e-13,-8.4196e-17,257.36,-371.87,-140.34,-94.773,0,0.014426,0,1,1.48,0,-1.48,0
0,0,0,0,0,0,0.0002525,-0.0014616,1.2455e-36,0.00027135,9.9527e-19,-6.1356e-22,15.931,0.0016714,-0.0015042,6.1413e-34,0.00029508,-100.86,-363.66,-139.7,41.683,1.5283e-13,-9.2211e-17,256.25,-370.21,-139.7,-94.302,0,0.014434,0,1,1.485,0,-1.485,0
0,0,0,0,0,0,0.00025179,-0.0014553,1.2368e-36,0.00026951,9.9605e-19,-6.6569e-22,15.795,0.0016641,-0.0014975,6.1739e-34,0.00029396,-100.32,-362.06,-139.05,41.401,1.5295e-13,-1.0023e-16,255.14,-368.55,-139.05,-93.832,0,0.014441,0,1,1.49,0,-1.49,0
0,0,0,0,0,0,0.00025107,-0.0014491,1.2281e-36,0.00026767,9.9684e-19,-7.1782e-22,15.659,0.0016568,-0.0014908,6.2065e-34,0.00029285,-99.791,-360.46,-138.41,41.119,1.5307e-13,-1.0824e-16,254.02,-366.89,-138.41,-93.361,0,0.014449,0,1,1.495,0,-1.495,0
0,0,0,0,0,0,0.00025036,-0.0014428,1.2193e-36,0.00026584,9.9762e-19,-7.6995e-22,15.524,0.0016495,-0.0014842,6.2391e-34,0.00029173,-99.259,-358.87,-137.77,40.838,1.5319e-13,-1.1626e-16,252.91,-365.24,-137.77,-92.891,0,0.014456,0,1,1.5,0,-1.5,0
0,0,0,0,0,0,0.00024965,-0.0014365,1.2106e-36,0.000264,9.984e-19,-8.2208e-22,15.388,0.0016422,-0.0014775,6.2717e-34,0.00029062,-98.726,-357.27,-137.13,40.556,1.5332e-13,-1.2427e-16,251.8,-363.58,-137.13,-92.42,0,0.014464,0,1,1.505,0,-1.505,0
0,0,0,0,0,0,0.00024893,-0.0014303,1.2019e-36,0.00026216,9.9919e-19,-8.7421e-22,15.252,0.001635,-0.0014709,6.3042e-34,0.0002895,-98.194,-355.67,-136.49,40.274,1.5344e-13,-1.3229e-16,250.69,-361.92,-136.49,-91.95,0,0.014471,0,1,1.51,0,-1.51,0
0,0,0,0,0,0,0.00024822,-0.001424,1.1932e-36,0.00026032,9.9997e-19,-9.2634e-22,15.117,0.0016277,-0.0014642,6.3368e-34,0.00028839,-97.662,-354.08,-135.85,39.992,1.5356e-13,-1.403e-16,249.57,-360.26,-135.85,-91.48,0,0.014479,0,1,1.515,0,-1.515,0
0,0,0,0,0,0,0.00024751,-0.0014178,1.1845e-36,0.00025849,1.0008e-18,-9.7847e-22,14.981,0.0016204,-0.0014575,6.3694e-34,0.00028727,-97.13,-352.48,-135.2,39.71,1.5368e-13,-1.4832e-16,248.46,-358.6,-135.2,-91.009,0,0.014486,0,1,1.52,0,-1.52,0
0,0,0,0,0,0,0.0002468,-0.0014115,1.1758e-36,0.00025665,1.0015e-18,-1.0306e-21,14.845,0.0016131,-0.0014509,6.402e-34,0.00028616,-96.597,-350.88,-134.56,39.428,1.538e-13,-1.5633e-16,247.35,-356.94,-134.56,-90.539,0,0.014494,0,1,1.525,0,-1.525,0
0,0,0,0,0,0,0.00024608,-0.0014052,1.167e-36,0.00025481,1.0023e-18,-1.0827e-21,14.71,0.0016058,-0.0014442,6.4346e-34,0.00028504,-96.065,-349.29,-133.92,39.146,1.5393e-13,-1.6435e-16,246.24,-355.28,-133.92,-90.068,0,0.014501,0,1,1.53,0,-1.53,0
0,0,0,0,0,0,0.00024537,-0.001399,1.1583e-36,0.00025297,1.0031e-18,-1.1349e-21,14.574,0.0015985,-0.0014375,6.4671e-34,0.00028393,-95.533,-347.69,-133.28,38.864,1.5405e-13,-1.7236e-16,245.13,-353.63,-133.28,-89.598,0,0.014509,0,1,1.535,0,-1.535,0
0,0,0,0,0,0,0.00024466,-0.0013927,1.1496e-36,0.00025114,1.0039e-18,-1.187e-21,14.438,0.0015913,-0.0014309,6.4997e-34,0.00028281,-95,-346.09,-132.64,38.583,1.5417e-13,-1.8038e-16,244.01,-351.97,-132.64,-89.127,0,0.014516,0,1,1.54,0,-1.54,0
0,0,0,0,0,0,0.00024395,-0.0013865,1.1409e-36,0.0002493,1.0047e-18,-1.2391e-21,14.303,0.001584,-0.0014242,6.5323e-34,0.0002817,-94.468,-344.5,-131.99,38.301,1.5429e-13,-1.8839e-16,242.9,-350.31,-131.99,-88.657,0,0.014524,0,1,1.545,0,-1.545,0
0,0,0,0,0,0,0.00024323,-0.0013802,1.1322e-36,0.00024746,1.0055e-18,-1.2912e-21,14.167,0.0015767,-0.0014176,6.5649e-34,0.00028059,-93.936,-342.9,-131.35,38.019,1.5441e-13,-1.9641e-16,241.79,-348.65,-131.35,-88.187,0,0.014531,0,1,1.55,0,-1.55,0
0,0,0,0,0,0,0.00024252,-0.0013739,1.1234e-36,0.00024563,1.0062e-18,-1.3434e-21,14.031,0.0015694,-0.0014109,6.5974e-34,0.00027947,-93.403,-341.31,-130.71,37.737,1.5454e-13,-2.0442e-16,240.68,-346.99,-130.71,-87.716,0,0.014538,0,1,1.555,0,-1.555,0
0,0,0,0,0,0,0.00024181,-0.0013677,1.1147e-36,0.00024379,1.007e-18,-1.3955e-21,13.896,0.0015621,-0.0014042,6.63e-34,0.00027836,-92.871,-339.71,-130.07,37.455,1.5466e-13,-2.1244e-16,239.57,-345.33,-130.07,-87.246,0,0.014546,0,1,1.56,0,-1.56,0
0,0,0,0,0,0,0.00024109,-0.0013614,1.106e-36,0.00024195,1.0078e-18,-1.4476e-21,13.76,0.0015549,-0.0013976,6.6626e-34,0.00027724,-92.339,-338.11,-129.43,37.173,1.5478e-13,-2.2045e-16,238.45,-343.68,-129.43,-86.775,0,0.014553,0,1,1.565,0,-1.565,0
0,0,0,0,0,0,0.00024038,-0.0013552,1.0973e-36,0.00024011,1.0086e-18,-1.4998e-21,13.624,0.0015476,-0.0013909,6.6952e-34,0.00027613,-91.806,-336.52,-128.78,36.891,1.549e-13,-2.2847e-16,237.34,-342.02,-128.78,-86.305,0,0.014561,0,1,1.57,0,-1.57,0
0,0,0,0,0,0,0.00023967,-0.0013489,1.0886e-36,0.00023828,1.0094e-18,-1.5519e-21,13.489,0.0015403,-0.0013842,6.7278e-34,0.00027501,-91.274,-334.92,-128.14,36.609,1.5502e-13,-2.3648e-16,236.23,-340.36,-128.14,-85.834,0,0.014568,0,1,1.575,0,-1.575,0
0,0,0,0,0,0,0.00023896,-0.0013426,1.0798e-36,0.00023644,1.0102e-18,-1.604e-21,13.353,0.001533,-0.0013776,6.7603e-34,0.0002739,-90.742,-333.32,-127.5,36.328,1.5515e-13,-2.445e-16,235.12,-338.7,-127.5,-85.364,0,0.014576,0,1,1.58,0,-1.58,0
0,0,0,0,0,0,0.00023824,-0.0013364,1.0711e-36,0.0002346,1.0109e-18,-1.6561e-21,13.217,0.0015257,-0.0013709,6.7929e-34,0.00027278,-90.21,-331.73,-126.86,36.046,1.5527e-13,-2.5251e-16,234.01,-337.04,-126.86,-84.894,0,0.014583,0,1,1.585,0,-1.585,0
0,0,0,0,0,0,0.00023753,-0.0013301,1.0624e-36,0.00023276,1.0117e-18,-1.7083e-21,13.082,0.0015184,-0.0013643,6.8255e-34,0.00027167,-89.677,-330.13,-126.22,35.764,1.5539e-13,-2.6053e-16,232.89,-335.38,-126.22,-84.423,0,0.014591,0,1,1.59,0,-1.59,0
0,0,0,0,0,0,0.00023682,-0.0013239,1.0537e-36,0.00023093,1.0125e-18,-1.7604e-21,12.946,0.0015112,-0.0013576,6.8581e-34,0.00027055,-89.145,-328.53,-125.58,35.482,1.5551e-13,-2.6854e-16,231.78,-333.72,-125.58,-83.953,0,0.014598,0,1,1.595,0,-1.595,0
0,0,0,0,0,0,0.0002361,-0.0013176,1.045e-36,0.00022909,1.0133e-18,-1.8125e-21,12.81,0.0015039,-0.0013509,6.8906e-34,0.00026944,-88.613,-326.94,-124.93,35.2,1.5563e-13,-2.7656e-16,230.67,-332.07,-124.93,-83.482,0,0.014606,0,1,1.6,0,-1.6,0
0,0,0,0,0,0,0.00023539,-0.0013113,1.0363e-36,0.00022725,1.0141e-18,-1.8647e-21,12.675,0.0014966,-0.0013443,6.9232e-34,0.00026832,-88.08,-325.34,-124.29,34.918,1.5576e-13,-2.8457e-16,229.56,-330.41,-124.29,-83.012,0,0.014613,0,1,1.605,0,-1.605,0
0,0,0,0,0,0,0.00023468,-0.0013051,1.0275e-36,0.00022542,1.0149e-18,-1.9168e-21,12.539,0.0014893,-0.0013376,6.9558e-34,0.00026721,-87.548,-323.74,-123.65,34.636,1.5588e-13,-2.9259e-16,228.45,-328.75,-123.65,-82.541,0,0.014621,0,1,1.61,0,-1.61,0
0,0,0,0,0,0,0.00023397,-0.0012988,1.0188e-36,0.00022358,1.0156e-18,-1.9689e-21,12.404,0.001482,-0.001331,6.9884e-34,0.00026609,-87.016,-322.15,-123.01,34.354,1.56e-13,-3.006e-16,227.33,-327.09,-123.01,-82.071,0,0.014628,0,1,1.615,0,-1.615,0
0,0,0,0,0,0,0.00023325,-0.0012926,1.0101e-36,0.00022174,1.0164e-18,-2.0211e-21,12.268,0.0014747,-0.0013243,7.021e-34,0.00026498,-86.483,-320.55,-122.37,34.072,1.5612e-13,-3.0862e-16,226.22,-325.43,-122.37,-81.6,0,0.014636,0,1,1.62,0,-1.62,0
0,0,0,0,0,0,0.00023254,-0.0012863,1.0014e-36,0.0002199,1.0172e-18,-2.0732e-21,12.132,0.0014675,-0.0013176,7.0535e-34,0.00026386,-85.951,-318.95,-121.72,33.791,1.5624e-13,-3.1663e-16,225.11,-323.77,-121.72,-81.13,0,0.014643,0,1,1.625,0,-1.625,0
0,0,0,0,0,0,0.00023183,-0.00128,9.9266e-37,0.00021807,1.018e-18,-2.1253e-21,11.997,0.0014602,-0.001311,7.0861e-34,0.00026275,-85.419,-317.36,-121.08,33.509,1.5637e-13,-3.2465e-16,224,-322.12,-121.08,-80.66,0,0.014651,0,1,1.63,0,-1.63,0
0,0,0,0,0,0,0.00023112,-0.0012738,9.8394e-37,0.00021623,1.0188e-18,-2.1774e-21,11.861,0.0014529,-0.0013043,7.1187e-34,0.00026164,-84.886,-315.76,-120.44,33.227,1.5649e-13,-3.3266e-16,222.89,-320.46,-120.44,-80.189,0,0.014658,0,1,1.635,0,-1.635,0
0,0,0,0,0,0,0.0002304,-0.0012675,9.7522e-37,0.00021439,1.0196e-18,-2.2296e-21,11.725,0.0014456,-0.0012976,7.1513e-34,0.00026052,-84.354,-314.16,-119.8,32.945,1.5661e-13,-3.4068e-16,221.77,-318.8,-119.8,-79.719,0,0.014666,0,1,1.64,0,-1.64,0
0,0,0,0,0,0,0.00022969,-0.0012613,9.665e-37,0.00021255,1.0203e-18,-2.2817e-21,11.59,0.0014383,-0.001291,7.1838e-34,0.00025941,-83.822,-312.57,-119.16,32.663,1.5673e-13,-3.4869e-16,220.66,-317.14,-119.16,-79.248,0,0.014673,0,1,1.645,0,-1.645,0
0,0,0,0,0,0,0.0002291,-0.0012579,9.559e-37,0.00021166,1.0134e-18,-2.2634e-21,11.537,0.0014344,-0.0012874,7.145e-34,0.00025865,-83.59,-311.73,-118.83,32.526,1.5566e-13,-3.4589e-16,220.05,-316.27,-118.83,-79.042,0,0.014679,0,1,1.65,0,-1.65,0
0,0,0,0,0,0,0.00022854,-0.0012551,9.4492e-37,0.00021096,1.0048e-18,-2.2306e-21,11.502,0.001431,-0.0012845,7.0916e-34,0.00025796,-83.419,-311.04,-118.58,32.419,1.5435e-13,-3.4088e-16,219.55,-315.57,-118.58,-78.891,0,0.014684,0,1,1.655,0,-1.655,0
0,0,0,0,0,0,0.00022797,-0.0012523,9.3393e-37,0.00021026,9.9628e-19,-2.1979e-21,11.466,0.0014277,-0.0012816,7.0382e-34,0.00025727,-83.249,-310.36,-118.32,32.311,1.5303e-13,-3.3586e-16,219.04,-314.87,-118.32,-78.739,0,0.014689,0,1,1.66,0,-1.66,0
0,0,0,0,0,0,0.00022741,-0.0012495,9.2295e-37,0.00020956,9.8773e-19,-2.1651e-21,11.431,0.0014244,-0.0012787,6.9848e-34,0.00025659,-83.079,-309.67,-118.06,32.204,1.5172e-13,-3.3085e-16,218.53,-314.17,-118.06,-78.587,0,0.014694,0,1,1.665,0,-1.665,0
0,0,0,0,0,0,0.00022684,-0.0012467,9.1196e-37,0.00020887,9.7918e-19,-2.1323e-21,11.396,0.0014211,-0.0012758,6.9314e-34,0.0002559,-82.908,-308.99,-117.8,32.097,1.5041e-13,-3.2583e-16,218.03,-313.46,-117.8,-78.436,0,0.014699,0,1,1.67,0,-1.67,0
0,0,0,0,0,0,0.00022628,-0.0012439,9.0098e-37,0.00020817,9.7063e-19,-2.0996e-21,11.36,0.0014178,-0.0012729,6.878e-34,0.00025521,-82.738,-308.31,-117.55,31.989,1.4909e-13,-3.2081e-16,217.52,-312.76,-117.55,-78.284,0,0.014704,0,1,1.675,0,-1.675,0
0,0,0,0,0,0,0.00022571,-0.0012411,8.8999e-37,0.00020747,9.6207e-19,-2.0668e-21,11.325,0.0014145,-0.00127,6.8245e-34,0.00025453,-82.567,-307.62,-117.29,31.882,1.4778e-13,-3.158e-16,217.01,-312.06,-117.29,-78.132,0,0.014709,0,1,1.68,0,-1.68,0
0,0,0,0,0,0,0.00022515,-0.0012384,8.7901e-37,0.00020677,9.5352e-19,-2.0341e-21,11.29,0.0014112,-0.001267,6.7711e-34,0.00025384,-82.397,-306.94,-117.03,31.774,1.4647e-13,-3.1078e-16,216.51,-311.35,-117.03,-77.981,0,0.014715,0,1,1.685,0,-1.685,0
0,0,0,0,0,0,0.00022458,-0.0012356,8.6802e-37,0.00020607,9.4497e-19,-2.0013e-21,11.254,0.0014079,-0.0012641,6.7177e-34,0.00025316,-82.226,-306.25,-116.77,31.667,1.4515e-13,-3.0577e-16,216,-310.65,-116.77,-77.829,0,0.01472,0,1,1.69,0,-1.69,0
0,0,0,0,0,0,0.00022402,-0.0012328,8.5704e-37,0.00020537,9.3642e-19,-1.9686e-21,11.219,0.0014046,-0.0012612,6.6643e-34,0.00025247,-82.056,-305.57,-116.52,31.56,1.4384e-13,-3.0075e-16,215.49,-309.95,-116.52,-77.677,0,0.014725,0,1,1.695,0,-1.695,0
0,0,0,0,0,0,0.00022345,-0.00123,8.4605e-37,0.00020467,9.2787e-19,-1.9358e-21,11.184,0.0014013,-0.0012583,6.6109e-34,0.00025178,-81.885,-304.89,-116.26,31.452,1.4253e-13,-2.9573e-16,214.99,-309.25,-116.26,-77.525,0,0.01473,0,1,1.7,0,-1.7,0
0,0,0,0,0,0,0.00022289,-0.0012272,8.3507e-37,0.00020397,9.1932e-19,-1.9031e-21,11.148,0.001398,-0.0012554,6.5574e-34,0.0002511,-81.715,-304.2,-116,31.345,1.4121e-13,-2.9072e-16,214.48,-308.54,-116,-77.374,0,0.014735,0,1,1.705,0,-1.705,0
0,0,0,0,0,0,0.00022232,-0.0012244,8.2408e-37,0.00020327,9.1077e-19,-1.8703e-21,11.113,0.0013947,-0.0012525,6.504e-34,0.00025041,-81.545,-303.52,-115.75,31.237,1.399e-13,-2.857e-16,213.97,-307.84,-115.75,-77.222,0,0.01474,0,1,1.71,0,-1.71,0
0,0,0,0,0,0,0.00022176,-0.0012216,8.131e-37,0.00020257,9.0222e-19,-1.8375e-21,11.078,0.0013913,-0.0012496,6.4506e-34,0.00024972,-81.374,-302.83,-115.49,31.13,1.3859e-13,-2.8069e-16,213.47,-307.14,-115.49,-77.07,0,0.014745,0,1,1.715,0,-1.715,0
0,0,0,0,0,0,0.0002212,-0.0012188,8.0211e-37,0.00020187,8.9366e-19,-1.8048e-21,11.042,0.001388,-0.0012467,6.3972e-34,0.00024904,-81.204,-302.15,-115.23,31.023,1.3727e-13,-2.7567e-16,212.96,-306.43,-115.23,-76.919,0,0.01475,0,1,1.72,0,-1.72,0
0,0,0,0,0,0,0.00022063,-0.001216,7.9113e-37,0.00020118,8.8511e-19,-1.772e-21,11.007,0.0013847,-0.0012437,6.3438e-34,0.00024835,-81.033,-301.46,-114.97,30.915,1.3596e-13,-2.7065e-16,212.45,-305.73,-114.97,-76.767,0,0.014756,0,1,1.725,0,-1.725,0
0,0,0,0,0,0,0.00022007,-0.0012132,7.8014e-37,0.00020048,8.7656e-19,-1.7393e-21,10.971,0.0013814,-0.0012408,6.2903e-34,0.00024766,-80.863,-300.78,-114.72,30.808,1.3465e-13,-2.6564e-16,211.95,-305.03,-114.72,-76.615,0,0.014761,0,1,1.73,0,-1.73,0
0,0,0,0,0,0,0.0002195,-0.0012104,7.6916e-37,0.00019978,8.6801e-19,-1.7065e-21,10.936,0.0013781,-0.0012379,6.2369e-34,0.00024698,-80.692,-300.1,-114.46,30.701,1.3333e-13,-2.6062e-16,211.44,-304.32,-114.46,-76.464,0,0.014766,0,1,1.735,0,-1.735,0
0,0,0,0,0,0,0.00021894,-0.0012077,7.5817e-37,0.00019908,8.5946e-19,-1.6738e-21,10.901,0.0013748,-0.001235,6.1835e-34,0.00024629,-80.522,-299.41,-114.2,30.593,1.3202e-13,-2.5561e-16,210.93,-303.62,-114.2,-76.312,0,0.014771,0,1,1.74,0,-1.74,0
0,0,0,0,0,0,0.00021837,-0.0012049,7.4719e-37,0.00019838,8.5091e-19,-1.641e-21,10.865,0.0013715,-0.0012321,6.1301e-34,0.0002456,-80.351,-298.73,-113.94,30.486,1.3071e-13,-2.5059e-16,210.43,-302.92,-113.94,-76.16,0,0.014776,0,1,1.745,0,-1.745,0
0,0,0,0,0,0,0.00021781,-0.0012021,7.362e-37,0.00019768,8.4236e-19,-1.6083e-21,10.83,0.0013682,-0.0012292,6.0767e-34,0.00024492,-80.181,-298.04,-113.69,30.378,1.2939e-13,-2.4557e-16,209.92,-302.22,-113.69,-76.009,0,0.014781,0,1,1.75,0,-1.75,0
0,0,0,0,0,0,0.00021724,-0.0011993,7.2522e-37,0.00019698,8.3381e-19,-1.5755e-21,10.795,0.0013649,-0.0012263,6.0232e-34,0.00024423,-80.011,-297.36,-113.43,30.271,1.2808e-13,-2.4056e-16,209.41,-301.51,-113.43,-75.857,0,0.014786,0,1,1.755,0,-1.755,0
0,0,0,0,0,0,0.00021668,-0.0011965,7.1424e-37,0.00019628,8.2525e-19,-1.5427e-21,10.759,0.0013616,-0.0012234,5.9698e-34,0.00024354,-79.84,-296.67,-113.17,30.164,1.2677e-13,-2.3554e-16,208.91,-300.81,-113.17,-75.705,0,0.014792,0,1,1.76,0,-1.76,0
0,0,0,0,0,0,0.00021611,-0.0011937,7.0325e-37,0.00019558,8.167e-19,-1.51e-21,10.724,0.0013583,-0.0012204,5.9164e-34,0.00024286,-79.67,-295.99,-112.92,30.056,1.2545e-13,-2.3053e-16,208.4,-300.11,-112.92,-75.553,0,0.014797,0,1,1.765,0,-1.765,0
0,0,0,0,0,0,0.00021555,-0.0011909,6.9227e-37,0.00019488,8.0815e-19,-1.4772e-21,10.689,0.001355,-0.0012175,5.863e-34,0.00024217,-79.499,-295.31,-112.66,29.949,1.2414e-13,-2.2551e-16,207.89,-299.4,-112.66,-75.402,0,0.014802,0,1,1.77,0,-1.77,0
0,0,0,0,0,0,0.00021498,-0.0011881,6.8128e-37,0.00019418,7.996e-19,-1.4445e-21,10.653,0.0013517,-0.0012146,5.8096e-34,0.00024149,-79.329,-294.62,-112.4,29.841,1.2282e-13,-2.2049e-16,207.39,-298.7,-112.4,-75.25,0,0.014807,0,1,1.775,0,-1.775,0
0,0,0,0,0,0,0.00021442,-0.0011853,6.703e-37,0.00019349,7.9105e-19,-1.4117e-21,10.618,0.0013483,-0.0012117,5.7561e-34,0.0002408,-79.158,-293.94,-112.14,29.734,1.2151e-13,-2.1548e-16,206.88,-298,-112.14,-75.098,0,0.014812,0,1,1.78,0,-1.78,0
0,0,0,0,0,0,0.00021385,-0.0011825,6.5931e-37,0.00019279,7.825e-19,-1.379e-21,10.583,0.001345,-0.0012088,5.7027e-34,0.00024011,-78.988,-293.25,-111.89,29.627,1.202e-13,-2.1046e-16,206.37,-297.3,-111.89,-74.947,0,0.014817,0,1,1.785,0,-1.785,0
0,0,0,0,0,0,0.00021329,-0.0011798,6.4833e-37,0.00019209,7.7395e-19,-1.3462e-21,10.547,0.0013417,-0.0012059,5.6493e-34,0.00023943,-78.818,-292.57,-111.63,29.519,1.1888e-13,-2.0544e-16,205.87,-296.59,-111.63,-74.795,0,0.014822,0,1,1.79,0,-1.79,0
0,0,0,0,0,0,0.00021273,-0.001177,6.3734e-37,0.00019139,7.654e-19,-1.3135e-21,10.512,0.0013384,-0.001203,5.5959e-34,0.00023874,-78.647,-291.89,-111.37,29.412,1.1757e-13,-2.0043e-16,205.36,-295.89,-111.37,-74.643,0,0.014827,0,1,1.795,0,-1.795,0
0,0,0,0,0,0,0.00021216,-0.0011742,6.2636e-37,0.00019069,7.5684e-19,-1.2807e-21,10.476,0.0013351,-0.0012001,5.5425e-34,0.00023805,-78.477,-291.2,-111.11,29.304,1.1626e-13,-1.9541e-16,204.86,-295.19,-111.11,-74.492,0,0.014833,0,1,1.8,0,-1.8,0
0,0,0,0,0,0,0.0002116,-0.0011714,6.1537e-37,0.00018999,7.4829e-19,-1.2479e-21,10.441,0.0013318,-0.0011972,5.4891e-34,0.00023737,-78.306,-290.52,-110.86,29.197,1.1494e-13,-1.904e-16,204.35,-294.48,-110.86,-74.34,0,0.014838,0,1,1.805,0,-1.805,0
0,0,0,0,0,0,0.00021103,-0.0011686,6.0439e-37,0.00018929,7.3974e-19,-1.2152e-21,10.406,0.0013285,-0.0011942,5.4356e-34,0.00023668,-78.136,-289.83,-110.6,29.09,1.1363e-13,-1.8538e-16,203.84,-293.78,-110.6,-74.188,0,0.014843,0,1,1.81,0,-1.81,0
0,0,0,0,0,0,0.00021047,-0.0011658,5.934e-37,0.00018859,7.3119e-19,-1.1824e-21,10.37,0.0013252,-0.0011913,5.3822e-34,0.00023599,-77.965,-289.15,-110.34,28.982,1.1232e-13,-1.8036e-16,203.34,-293.08,-110.34,-74.037,0,0.014848,0,1,1.815,0,-1.815,0
0,0,0,0,0,0,0.0002099,-0.001163,5.8242e-37,0.00018789,7.2264e-19,-1.1497e-21,10.335,0.0013219,-0.0011884,5.3288e-34,0.00023531,-77.795,-288.46,-110.09,28.875,1.11e-13,-1.7535e-16,202.83,-292.37,-110.09,-73.885,0,0.014853,0,1,1.82,0,-1.82,0
0,0,0,0,0,0,0.00020934,-0.0011602,5.7143e-37,0.00018719,7.1409e-19,-1.1169e-21,10.3,0.0013186,-0.0011855,5.2754e-34,0.00023462,-77.624,-287.78,-109.83,28.768,1.0969e-13,-1.7033e-16,202.32,-291.67,-109.83,-73.733,0,0.014858,0,1,1.825,0,-1.825,0
0,0,0,0,0,0,0.00020877,-0.0011574,5.6045e-37,0.00018649,7.0554e-19,-1.0842e-21,10.264,0.0013153,-0.0011826,5.222e-34,0.00023393,-77.454,-287.1,-109.57,28.66,1.0838e-13,-1.6532e-16,201.82,-290.97,-109.57,-73.581,0,0.014863,0,1,1.83,0,-1.83,0
0,0,0,0,0,0,0.00020821,-0.0011546,5.4946e-37,0.0001858,6.9699e-19,-1.0514e-21,10.229,0.001312,-0.0011797,5.1685e-34,0.00023325,-77.284,-286.41,-109.31,28.553,1.0706e-13,-1.603e-16,201.31,-290.27,-109.31,-73.43,0,0.014869,0,1,1.835,0,-1.835,0
0,0,0,0,0,0,0.00020764,-0.0011518,5.3848e-37,0.0001851,6.8843e-19,-1.0187e-21,10.194,0.0013086,-0.0011768,5.1151e-34,0.00023256,-77.113,-285.73,-109.06,28.445,1.0575e-13,-1.5528e-16,200.8,-289.56,-109.06,-73.278,0,0.014874,0,1,1.84,0,-1.84,0
0,0,0,0,0,0,0.00020708,-0.0011491,5.2749e-37,0.0001844,6.7988e-19,-9.859e-22,10.158,0.0013053,-0.0011739,5.0617e-34,0.00023188,-76.943,-285.04,-108.8,28.338,1.0444e-13,-1.5027e-16,200.3,-288.86,-108.8,-73.126,0,0.014879,0,1,1.845,0,-1.845,0
0,0,0,0,0,0,0.00020651,-0.0011463,5.1651e-37,0.0001837,6.7133e-19,-9.5314e-22,10.123,0.001302,-0.0011709,5.0083e-34,0.00023119,-76.772,-284.36,-108.54,28.231,1.0312e-13,-1.4525e-16,199.79,-288.16,-108.54,-72.975,0,0.014884,0,1,1.85,0,-1.85,0
0,0,0,0,0,0,0.00020595,-0.0011435,5.0552e-37,0.000183,6.6278e-19,-9.2039e-22,10.088,0.0012987,-0.001168,4.9549e-34,0.0002305,-76.602,-283.68,-108.28,28.123,1.0181e-13,-1.4024e-16,199.28,-287.45,-108.28,-72.823,0,0.014889,0,1,1.855,0,-1.855,0
0,0,0,0,0,0,0.00020538,-0.0011407,4.9454e-37,0.0001823,6.5423e-19,-8.8763e-22,10.052,0.0012954,-0.0011651,4.9014e-34,0.00022982,-76.431,-282.99,-108.03,28.016,1.005e-13,-1.3522e-16,198.78,-286.75,-108.03,-72.671,0,0.014894,0,1,1.86,0,-1.86,0
0,0,0,0,0,0,0.00020482,-0.0011379,4.8355e-37,0.0001816,6.4568e-19,-8.5487e-22,10.017,0.0012921,-0.0011622,4.848e-34,0.00022913,-76.261,-282.31,-107.77,27.908,9.9182e-14,-1.302e-16,198.27,-286.05,-107.77,-72.52,0,0.014899,0,1,1.865,0,-1.865,0
0,0,0,0,0,0,0.00020426,-0.0011351,4.7257e-37,0.0001809,6.3713e-19,-8.2212e-22,9.9814,0.0012888,-0.0011593,4.7946e-34,0.00022844,-76.091,-281.62,-107.51,27.801,9.7869e-14,-1.2519e-16,197.76,-285.35,-107.51,-72.368,0,0.014905,0,1,1.87,0,-1.87,0
0,0,0,0,0,0,0.00020369,-0.0011323,4.6158e-37,0.0001802,6.2858e-19,-7.8936e-22,9.9461,0.0012855,-0.0011564,4.7412e-34,0.00022776,-75.92,-280.94,-107.25,27.694,9.6555e-14,-1.2017e-16,197.26,-284.64,-107.25,-72.216,0,0.01491,0,1,1.875,0,-1.875,0
0,0,0,0,0,0,0.00020313,-0.0011295,4.506e-37,0.0001795,6.2002e-19,-7.5661e-22,9.9107,0.0012822,-0.0011535,4.6878e-34,0.00022707,-75.75,-280.25,-107,27.586,9.5242e-14,-1.1516e-16,196.75,-283.94,-107,-72.065,0,0.014915,0,1,1.88,0,-1.88,0
0,0,0,0,0,0,0.00020256,-0.0011267,4.3961e-37,0.0001788,6.1147e-19,-7.2385e-22,9.8754,0.0012789,-0.0011506,4.6343e-34,0.00022638,-75.579,-279.57,-106.74,27.479,9.3928e-14,-1.1014e-16,196.24,-283.24,-106.74,-71.913,0,0.01492,0,1,1.885,0,-1.885,0
0,0,0,0,0,0,0.000202,-0.0011239,4.2863e-37,0.00017811,6.0292e-19,-6.911e-22,9.84,0.0012756,-0.0011476,4.5809e-34,0.0002257,-75.409,-278.89,-106.48,27.372,9.2615e-14,-1.0512e-16,195.74,-282.53,-106.48,-71.761,0,0.014925,0,1,1.89,0,-1.89,0
0,0,0,0,0,0,0.00020143,-0.0011212,4.1764e-37,0.00017741,5.9437e-19,-6.5834e-22,9.8047,0.0012723,-0.0011447,4.5275e-34,0.00022501,-75.238,-278.2,-106.23,27.264,9.1301e-14,-1.0011e-16,195.23,-281.83,-106.23,-71.609,0,0.01493,0,1,1.895,0,-1.895,0
0,0,0,0,0,0,0.00020087,-0.0011184,4.0666e-37,0.00017671,5.8582e-19,-6.2558e-22,9.7693,0.001269,-0.0011418,4.4741e-34,0.00022432,-75.068,-277.52,-105.97,27.157,8.9988e-14,-9.5092e-17,194.72,-281.13,-105.97,-71.458,0,0.014935,0,1,1.9,0,-1.9,0
0,0,0,0,0,0,0.0002003,-0.0011156,3.9567e-37,0.00017601,5.7727e-19,-5.9283e-22,9.7339,0.0012656,-0.0011389,4.4207e-34,0.00022364,-74.897,-276.83,-105.71,27.049,8.8674e-14,-9.0076e-17,194.22,-280.42,-105.71,-71.306,0,0.01494,0,1,1.905,0,-1.905,0
0,0,0,0,0,0,0.00019974,-0.0011128,3.8469e-37,0.00017531,5.6872e-19,-5.6007e-22,9.6986,0.0012623,-0.001136,4.3673e-34,0.00022295,-74.727,-276.15,-105.45,26.942,8.7361e-14,-8.506e-17,193.71,-279.72,-105.45,-71.154,0,0.014946,0,1,1.91,0,-1.91,0
0,0,0,0,0,0,0.00019917,-0.00111,3.737e-37,0.00017461,5.6017e-19,-5.2732e-22,9.6632,0.001259,-0.0011331,4.3138e-34,0.00022227,-74.557,-275.47,-105.2,26.835,8.6047e-14,-8.0044e-17,193.2,-279.02,-105.2,-71.003,0,0.014951,0,1,1.915,0,-1.915,0
0,0,0,0,0,0,0.00019861,-0.0011072,3.6272e-37,0.00017391,5.5161e-19,-4.9456e-22,9.6279,0.0012557,-0.0011302,4.2604e-34,0.00022158,-74.386,-274.78,-104.94,26.727,8.4734e-14,-7.5028e-17,192.7,-278.32,-104.94,-70.851,0,0.014956,0,1,1.92,0,-1.92,0
0,0,0,0,0,0,0.00019804,-0.0011044,3.5173e-37,0.00017321,5.4306e-19,-4.6181e-22,9.5925,0.0012524,-0.0011273,4.207e-34,0.00022089,-74.216,-274.1,-104.68,26.62,8.342e-14,-7.0012e-17,192.19,-277.61,-104.68,-70.699,0,0.014961,0,1,1.925,0,-1.925,0
0,0,0,0,0,0,0.00019748,-0.0011016,3.4075e-37,0.00017251,5.3451e-19,-4.2905e-22,9.5572,0.0012491,-0.0011243,4.1536e-34,0.00022021,-74.045,-273.41,-104.42,26.512,8.2107e-14,-6.4996e-17,191.69,-276.91,-104.42,-70.548,0,0.014966,0,1,1.93,0,-1.93,0
0,0,0,0,0,0,0.00019691,-0.0010988,3.2976e-37,0.00017181,5.2596e-19,-3.9629e-22,9.5218,0.0012458,-0.0011214,4.1002e-34,0.00021952,-73.875,-272.73,-104.17,26.405,8.0793e-14,-5.998e-17,191.18,-276.21,-104.17,-70.396,0,0.014971,0,1,1.935,0,-1.935,0
0,0,0,0,0,0,0.00019635,-0.001096,3.1878e-37,0.00017111,5.1741e-19,-3.6354e-22,9.4864,0.0012425,-0.0011185,4.0467e-34,0.00021883,-73.704,-272.04,-103.91,26.298,7.948e-14,-5.4964e-17,190.67,-275.5,-103.91,-70.244,0,0.014976,0,1,1.94,0,-1.94,0
0,0,0,0,0,0,0.00019579,-0.0010932,3.0779e-37,0.00017041,5.0886e-19,-3.3078e-22,9.4511,0.0012392,-0.0011156,3.9933e-34,0.00021815,-73.534,-271.36,-103.65,26.19,7.8166e-14,-4.9948e-17,190.17,-274.8,-103.65,-70.092,0,0.014982,0,1,1.945,0,-1.945,0
0,0,0,0,0,0,0.00019522,-0.0010905,2.9681e-37,0.00016972,5.0031e-19,-2.9803e-22,9.4157,0.0012359,-0.0011127,3.9399e-34,0.00021746,-73.363,-270.68,-103.4,26.083,7.6853e-14,-4.4932e-17,189.66,-274.1,-103.4,-69.941,0,0.014987,0,1,1.95,0,-1.95,0
0,0,0,0,0,0,0.00019466,-0.0010877,2.8582e-37,0.00016902,4.9176e-19,-2.6527e-22,9.3804,0.0012326,-0.0011098,3.8865e-34,0.00021677,-73.193,-269.99,-103.14,25.976,7.5539e-14,-3.9916e-17,189.15,-273.4,-103.14,-69.789,0,0.014992,0,1,1.955,0,-1.955,0
0,0,0,0,0,0,0.00019409,-0.0010849,2.7484e-37,0.00016832,4.832e-19,-2.3251e-22,9.345,0.0012293,-0.0011069,3.8331e-34,0.00021609,-73.023,-269.31,-102.88,25.868,7.4226e-14,-3.49e-17,188.65,-272.69,-102.88,-69.637,0,0.014997,0,1,1.96,0,-1.96,0
0,0,0,0,0,0,0.00019353,-0.0010821,2.6385e-37,0.00016762,4.7465e-19,-1.9976e-22,9.3097,0.001226,-0.001104,3.7796e-34,0.0002154,-72.852,-268.62,-102.62,25.761,7.2913e-14,-2.9884e-17,188.14,-271.99,-102.62,-69.486,0,0.015002,0,1,1.965,0,-1.965,0
0,0,0,0,0,0,0.00019296,-0.0010793,2.5287e-37,0.00016692,4.661e-19,-1.67e-22,9.2743,0.0012226,-0.001101,3.7262e-34,0.00021471,-72.682,-267.94,-102.37,25.653,7.1599e-14,-2.4868e-17,187.63,-271.29,-102.37,-69.334,0,0.015007,0,1,1.97,0,-1.97,0
0,0,0,0,0,0,0.0001924,-0.0010765,2.4188e-37,0.00016622,4.5755e-19,-1.3425e-22,9.2389,0.0012193,-0.0010981,3.6728e-34,0.00021403,-72.511,-267.25,-102.11,25.546,7.0286e-14,-1.9852e-17,187.13,-270.58,-102.11,-69.182,0,0.015012,0,1,1.975,0,-1.975,0
0,0,0,0,0,0,0.00019183,-0.0010737,2.309e-37,0.00016552,4.49e-19,-1.0149e-22,9.2036,0.001216,-0.0010952,3.6194e-34,0.00021334,-72.341,-266.57,-101.85,25.439,6.8972e-14,-1.4836e-17,186.62,-269.88,-101.85,-69.031,0,0.015017,0,1,1.98,0,-1.98,0
0,0,0,0,0,0,0.00019127,-0.0010709,2.1991e-37,0.00016482,4.4045e-19,-6.8735e-23,9.1682,0.0012127,-0.0010923,3.566e-34,0.00021265,-72.17,-265.89,-101.59,25.331,6.7659e-14,-9.8199e-18,186.11,-269.18,-101.59,-68.879,0,0.015023,0,1,1.985,0,-1.985,0
0,0,0,0,0,0,0.0001907,-0.0010681,2.0893e-37,0.00016412,4.319e-19,-3.598e-23,9.1329,0.0012094,-0.0010894,3.5125e-34,0.00021197,-72,-265.2,-101.34,25.224,6.6345e-14,-4.8039e-18,185.61,-268.47,-101.34,-68.727,0,0.015028,0,1,1.99,0,-1.99,0
0,0,0,0,0,0,0.00019014,-0.0010653,1.9794e-37,0.00016342,4.2335e-19,-3.2238e-24,9.0975,0.0012061,-0.0010865,3.4591e-34,0.00021128,-71.83,-264.52,-101.08,25.116,6.5032e-14,2.1213e-19,185.1,-267.77,-101.08,-68.576,0,0.015033,0,1,1.995,0,-1.995,0
0,0,0,0,0,0,0.00018957,-0.0010626,1.8696e-37,0.00016272,4.1479e-19,2.9532e-23,9.0622,0.0012028,-0.0010836,3.4057e-34,0.0002106,-71.659,-263.83,-100.82,25.009,6.3718e-14,5.2282e-18,184.59,-267.07,-100.82,-68.424,0,0.015038,0,1,2,0,-2,0
0,0,0,0,0,0,0.00018901,-0.0010598,1.7597e-37,0.00016203,4.0624e-19,6.2288e-23,9.0268,0.0011995,-0.0010807,3.3523e-34,0.00020991,-71.489,-263.15,-100.56,24.902,6.2405e-14,1.0244e-17,184.09,-266.37,-100.56,-68.272,0,0.015043,0,1,2.005,0,-2.005,0
0,0,0,0,0,0,0.00018844,-0.001057,1.6499e-37,0.00016133,3.9769e-19,9.5043e-23,8.9914,0.0011962,-0.0010777,3.2989e-34,0.00020922,-71.318,-262.47,-100.31,24.794,6.1091e-14,1.526e-17,183.58,-265.66,-100.31,-68.12,0,0.015048,0,1,2.01,0,-2.01,0
0,0,0,0,0,0,0.00018788,-0.0010542,1.54e-37,0.00016063,3.8914e-19,1.278e-22,8.9561,0.0011929,-0.0010748,3.2455e-34,0.00020854,-71.148,-261.78,-100.05,24.687,5.9778e-14,2.0276e-17,183.07,-264.96,-100.05,-67.969,0,0.015053,0,1,2.015,0,-2.015,0
0,0,0,0,0,0,0.00018732,-0.0010514,1.4302e-37,0.00015993,3.8059e-19,1.6055e-22,8.9207,0.0011896,-0.0010719,3.192e-34,0.00020785,-70.977,-261.1,-99.793,24.58,5.8464e-14,2.5292e-17,182.57,-264.26,-99.793,-67.817,0,0.015059,0,1,2.02,0,-2.02,0
0,0,0,0,0,0,0.00018675,-0.0010486,1.3203e-37,0.00015923,3.7204e-19,1.9331e-22,8.8854,0.0011863,-0.001069,3.1386e-34,0.00020716,-70.807,-260.41,-99.536,24.472,5.7151e-14,3.0308e-17,182.06,-263.55,-99.536,-67.665,0,0.015064,0,1,2.025,0,-2.025,0
0,0,0,0,0,0,0.00018619,-0.0010458,1.2105e-37,0.00015853,3.6349e-19,2.2607e-22,8.85,0.0011829,-0.0010661,3.0852e-34,0.00020648,-70.636,-259.73,-99.278,24.365,5.5837e-14,3.5324e-17,181.55,-262.85,-99.278,-67.514,0,0.015069,0,1,2.03,0,-2.03,0
0,0,0,0,0,0,0.00018562,-0.001043,1.1006e-37,0.00015783,3.5494e-19,2.5882e-22,8.8146,0.0011796,-0.0010632,3.0318e-34,0.00020579,-70.466,-259.04,-99.021,24.257,5.4524e-14,4.034e-17,181.05,-262.15,-99.021,-67.362,0,0.015074,0,1,2.035,0,-2.035,0
0,0,0,0,0,0,0.00018506,-0.0010402,9.9079e-38,0.00015713,3.4638e-19,2.9158e-22,8.7793,0.0011763,-0.0010603,2.9784e-34,0.0002051,-70.296,-258.36,-98.764,24.15,5.321e-14,4.5356e-17,180.54,-261.45,-98.764,-67.21,0,0.015079,0,1,2.04,0,-2.04,0
0,0,0,0,0,0,0.00018449,-0.0010374,8.8094e-38,0.00015643,3.3783e-19,3.2433e-22,8.7439,0.001173,-0.0010574,2.9249e-34,0.00020442,-70.125,-257.68,-98.506,24.043,5.1897e-14,5.0372e-17,180.03,-260.74,-98.506,-67.059,0,0.015084,0,1,2.045,0,-2.045,0
0,0,0,0,0,0,0.00018393,-0.0010346,7.711e-38,0.00015573,3.2928e-19,3.5709e-22,8.7086,0.0011697,-0.0010545,2.8715e-34,0.00020373,-69.955,-256.99,-98.249,23.935,5.0583e-14,5.5388e-17,179.53,-260.04,-98.249,-66.907,0,0.015089,0,1,2.05,0,-2.05,0
0,0,0,0,0,0,0.00018336,-0.0010319,6.6124e-38,0.00015503,3.2073e-19,3.8985e-22,8.6732,0.0011664,-0.0010515,2.8181e-34,0.00020304,-69.784,-256.31,-97.992,23.828,4.927e-14,6.0405e-17,179.02,-259.34,-97.992,-66.755,0,0.015095,0,1,2.055,0,-2.055,0
0,0,0,0,0,0,0.0001828,-0.0010291,5.514e-38,0.00015434,3.1218e-19,4.226e-22,8.6379,0.0011631,-0.0010486,2.7647e-34,0.00020236,-69.614,-255.62,-97.735,23.72,4.7956e-14,6.542e-17,178.51,-258.63,-97.735,-66.604,0,0.0151,0,1,2.06,0,-2.06,0
0,0,0,0,0,0,0.00018223,-0.0010263,4.4155e-38,0.00015364,3.0363e-19,4.5536e-22,8.6025,0.0011598,-0.0010457,2.7113e-34,0.00020167,-69.443,-254.94,-97.477,23.613,4.6643e-14,7.0437e-17,178.01,-257.93,-97.477,-66.452,0,0.015105,0,1,2.065,0,-2.065,0
0,0,0,0,0,0,0.00018167,-0.0010235,3.317e-38,0.00015294,2.9508e-19,4.8811e-22,8.5671,0.0011565,-0.0010428,2.6578e-34,0.00020099,-69.273,-254.26,-97.22,23.506,4.5329e-14,7.5452e-17,177.5,-257.23,-97.22,-66.3,0,0.01511,0,1,2.07,0,-2.07,0
0,0,0,0,0,0,0.0001811,-0.0010207,2.2185e-38,0.00015224,2.8653e-19,5.2087e-22,8.5318,0.0011532,-0.0010399,2.6044e-34,0.0002003,-69.103,-253.57,-96.963,23.398,4.4016e-14,8.0469e-17,177,-256.53,-96.963,-66.148,0,0.015115,0,1,2.075,0,-2.075,0
0,0,0,0,0,0,0.00018054,-0.0010179,1.12e-38,0.00015154,2.7797e-19,5.5362e-22,8.4964,0.0011499,-0.001037,2.551e-34,0.00019961,-68.932,-252.89,-96.705,23.291,4.2703e-14,8.5484e-17,176.49,-255.82,-96.705,-65.997,0,0.01512,0,1,2.08,0,-2.08,0
0,0,0,0,0,0,0.00017997,-0.0010151,2.1486e-40,0.00015084,2.6942e-19,5.8638e-22,8.4611,0.0011466,-0.0010341,2.4976e-34,0.00019893,-68.762,-252.2,-96.448,23.184,4.1389e-14,9.0501e-17,175.98,-255.12,-96.448,-65.845,0,0.015125,0,1,2.085,0,-2.085,0
0,0,0,0,0,0,0.00017941,-0.0010123,-1.077e-38,0.00015014,2.6087e-19,6.1914e-22,8.4257,0.0011433,-0.0010312,2.4442e-34,0.00019824,-68.591,-251.52,-96.191,23.076,4.0076e-14,9.5517e-17,175.48,-254.42,-96.191,-65.693,0,0.01513,0,1,2.09,0,-2.09,0
0,0,0,0,0,0,0.00017885,-0.0010095,-2.1755e-38,0.00014944,2.5232e-19,6.5189e-22,8.3904,0.0011399,-0.0010282,2.3907e-34,0.00019755,-68.421,-250.83,-95.933,22.969,3.8762e-14,1.0053e-16,174.97,-253.71,-95.933,-65.542,0,0.015136,0,1,2.095,0,-2.095,0
0,0,0,0,0,0,0.00017828,-0.0010067,-3.274e-38,0.00014874,2.4377e-19,6.8465e-22,8.355,0.0011366,-0.0010253,2.3373e-34,0.00019687,-68.25,-250.15,-95.676,22.861,3.7449e-14,1.0555e-16,174.46,-253.01,-95.676,-65.39,0,0.015141,0,1,2.1,0,-2.1,0
0,0,0,0,0,0,0.00017772,-0.001004,-4.3725e-38,0.00014804,2.3522e-19,7.174e-22,8.3196,0.0011333,-0.0010224,2.2839e-34,0.00019618,-68.08,-249.47,-95.419,22.754,3.6135e-14,1.1056e-16,173.96,-252.31,-95.419,-65.238,0,0.015146,0,1,2.105,0,-2.105,0
0,0,0,0,0,0,0.00017715,-0.0010012,-5.4709e-38,0.00014734,2.2667e-19,7.5016e-22,8.2843,0.00113,-0.0010195,2.2305e-34,0.00019549,-67.909,-248.78,-95.161,22.647,3.4822e-14,1.1558e-16,173.45,-251.6,-95.161,-65.087,0,0.015151,0,1,2.11,0,-2.11,0
0,0,0,0,0,0,0.00017659,-0.00099837,-6.5695e-38,0.00014665,2.1812e-19,7.8291e-22,8.2489,0.0011267,-0.0010166,2.1771e-34,0.00019481,-67.739,-248.1,-94.904,22.539,3.3508e-14,1.206e-16,172.94,-250.9,-94.904,-64.935,0,0.015156,0,1,2.115,0,-2.115,0
0,0,0,0,0,0,0.00017602,-0.00099558,-7.6679e-38,0.00014595,2.0956e-19,8.1567e-22,8.2136,0.0011234,-0.0010137,2.1237e-34,0.00019412,-67.569,-247.41,-94.647,22.432,3.2195e-14,1.2561e-16,172.44,-250.2,-94.647,-64.783,0,0.015161,0,1,2.12,0,-2.12,0
0,0,0,0,0,0,0.00017546,-0.00099279,-8.7664e-38,0.00014525,2.0101e-19,8.4843e-22,8.1782,0.0011201,-0.0010108,2.0702e-34,0.00019343,-67.398,-246.73,-94.39,22.324,3.0881e-14,1.3063e-16,171.93,-249.5,-94.39,-64.632,0,0.015166,0,1,2.125,0,-2.125,0
0,0,0,0,0,0,0.00017489,-0.00099,-9.865e-38,0.00014455,1.9246e-19,8.8118e-22,8.1429,0.0011168,-0.0010079,2.0168e-34,0.00019275,-67.228,-246.04,-94.132,22.217,2.9568e-14,1.3564e-16,171.42,-248.79,-94.132,-64.48,0,0.015172,0,1,2.13,0,-2.13,0
0,0,0,0,0,0,0.00017433,-0.00098721,-1.0963e-37,0.00014385,1.8391e-19,9.1394e-22,8.1075,0.0011135,-0.0010049,1.9634e-34,0.00019206,-67.057,-245.36,-93.875,22.11,2.8254e-14,1.4066e-16,170.92,-248.09,-93.875,-64.328,0,0.015177,0,1,2.135,0,-2.135,0
0,0,0,0,0,0,0.00017376,-0.00098442,-1.2062e-37,0.00014315,1.7536e-19,9.4669e-22,8.0721,0.0011102,-0.001002,1.91e-34,0.00019138,-66.887,-244.68,-93.618,22.002,2.6941e-14,1.4568e-16,170.41,-247.39,-93.618,-64.176,0,0.015182,0,1,2.14,0,-2.14,0
0,0,0,0,0,0,0.0001732,-0.00098163,-1.316e-37,0.00014245,1.6681e-19,9.7945e-22,8.0368,0.0011069,-0.00099912,1.8566e-34,0.00019069,-66.716,-243.99,-93.36,21.895,2.5627e-14,1.5069e-16,169.9,-246.68,-93.36,-64.025,0,0.015187,0,1,2.145,0,-2.145,0
0,0,0,0,0,0,0.00017263,-0.00097884,-1.4259e-37,0.00014175,1.5826e-19,1.0122e-21,8.0014,0.0011036,-0.00099621,1.8031e-34,0.00019,-66.546,-243.31,-93.103,21.787,2.4314e-14,1.5571e-16,169.4,-245.98,-93.103,-63.873,0,0.015192,0,1,2.15,0,-2.15,0
0,0,0,0,0,0,0.00017207,-0.00097605,-1.5357e-37,0.00014105,1.4971e-19,1.045e-21,7.9661,0.0011002,-0.00099329,1.7497e-34,0.00018932,-66.376,-242.62,-92.846,21.68,2.3e-14,1.6072e-16,168.89,-245.28,-92.846,-63.721,0,0.015197,0,1,2.155,0,-2.155,0
0,0,0,0,0,0,0.0001715,-0.00097326,-1.6456e-37,0.00014035,1.4115e-19,1.0777e-21,7.9307,0.0010969,-0.00099038,1.6963e-34,0.00018863,-66.205,-241.94,-92.588,21.573,2.1687e-14,1.6574e-16,168.38,-244.58,-92.588,-63.57,0,0.015202,0,1,2.16,0,-2.16,0
0,0,0,0,0,0,0.00017094,-0.00097047,-1.7554e-37,0.00013965,1.326e-19,1.1105e-21,7.8954,0.0010936,-0.00098747,1.6429e-34,0.00018794,-66.035,-241.26,-92.331,21.465,2.0373e-14,1.7076e-16,167.88,-243.87,-92.331,-63.418,0,0.015207,0,1,2.165,0,-2.165,0
0,0,0,0,0,0,0.00017038,-0.00096767,-1.8653e-37,0.00013896,1.2405e-19,1.1432e-21,7.86,0.0010903,-0.00098456,1.5895e-34,0.00018726,-65.864,-240.57,-92.074,21.358,1.906e-14,1.7577e-16,167.37,-243.17,-92.074,-63.266,0,0.015213,0,1,2.17,0,-2.17,0
0,0,0,0,0,0,0.00016981,-0.00096488,-1.9751e-37,0.00013826,1.155e-19,1.176e-21,7.8246,0.001087,-0.00098164,1.536e-34,0.00018657,-65.694,-239.89,-91.817,21.251,1.7746e-14,1.8079e-16,166.86,-242.47,-91.817,-63.115,0,0.015218,0,1,2.175,0,-2.175,0
0,0,0,0,0,0,0.00016925,-0.00096209,-2.085e-37,0.00013756,1.0695e-19,1.2087e-21,7.7893,0.0010837,-0.00097873,1.4826e-34,0.00018588,-65.523,-239.2,-91.559,21.143,1.6433e-14,1.8581e-16,166.36,-241.76,-91.559,-62.963,0,0.015223,0,1,2.18,0,-2.18,0
0,0,0,0,0,0,0.00016868,-0.0009593,-2.1948e-37,0.00013686,9.8398e-20,1.2415e-21,7.7539,0.0010804,-0.00097582,1.4292e-34,0.0001852,-65.353,-238.52,-91.302,21.036,1.5119e-14,1.9082e-16,165.85,-241.06,-91.302,-62.811,0,0.015228,0,1,2.185,0,-2.185,0
0,0,0,0,0,0,0.00016812,-0.00095651,-2.3047e-37,0.00013616,8.9847e-20,1.2743e-21,7.7186,0.0010771,-0.00097291,1.3758e-34,0.00018451,-65.182,-237.83,-91.045,20.928,1.3806e-14,1.9584e-16,165.34,-240.36,-91.045,-62.66,0,0.015233,0,1,2.19,0,-2.19,0
0,0,0,0,0,0,0.00016755,-0.00095372,-2.4145e-37,0.00013546,8.1296e-20,1.307e-21,7.6832,0.0010738,-0.00097,1.3224e-34,0.00018382,-65.012,-237.15,-90.787,20.821,1.2492e-14,2.0085e-16,164.84,-239.65,-90.787,-62.508,0,0.015238,0,1,2.195,0,-2.195,0
0,0,0,0,0,0,0.00016699,-0.00095093,-2.5244e-37,0.00013476,7.2744e-20,1.3398e-21,7.6479,0.0010705,-0.00096708,1.2689e-34,0.00018314,-64.842,-236.47,-90.53,20.714,1.1179e-14,2.0587e-16,164.33,-238.95,-90.53,-62.356,0,0.015243,0,1,2.2,0,-2.2,0
0,0,0,0,0,0,0.00016642,-0.00094814,-2.6342e-37,0.00013406,6.4193e-20,1.3725e-21,7.6125,0.0010672,-0.00096417,1.2155e-34,0.00018245,-64.671,-235.78,-90.273,20.606,9.8655e-15,2.1089e-16,163.83,-238.25,-90.273,-62.204,0,0.015249,0,1,2.205,0,-2.205,0
0,0,0,0,0,0,0.00016586,-0.00094535,-2.7441e-37,0.00013336,5.5642e-20,1.4053e-21,7.5771,0.0010639,-0.00096126,1.1621e-34,0.00018176,-64.501,-235.1,-90.015,20.499,8.552e-15,2.159e-16,163.32,-237.55,-90.015,-62.053,0,0.015254,0,1,2.21,0,-2.21,0
0,0,0,0,0,0,0.00016529,-0.00094256,-2.8539e-37,0.00013266,4.7091e-20,1.438e-21,7.5418,0.0010606,-0.00095835,1.1087e-34,0.00018108,-64.33,-234.41,-89.758,20.391,7.2386e-15,2.2092e-16,162.81,-236.84,-89.758,-61.901,0,0.015259,0,1,2.215,0,-2.215,0
0,0,0,0,0,0,0.00016473,-0.00093977,-2.9638e-37,0.00013196,3.8539e-20,1.4708e-21,7.5064,0.0010572,-0.00095543,1.0553e-34,0.00018039,-64.16,-233.73,-89.501,20.284,5.9251e-15,2.2593e-16,162.31,-236.14,-89.501,-61.749,0,0.015264,0,1,2.22,0,-2.22,0
0,0,0,0,0,0,0.00016416,-0.00093698,-3.0736e-37,0.00013127,2.9988e-20,1.5035e-21,7.4711,0.0010539,-0.00095252,1.0019e-34,0.00017971,-63.989,-233.05,-89.243,20.177,4.6116e-15,2.3095e-16,161.8,-235.44,-89.243,-61.598,0,0.015269,0,1,2.225,0,-2.225,0
0,0,0,0,0,0,0.0001636,-0.00093419,-3.1835e-37,0.00013057,2.1437e-20,1.5363e-21,7.4357,0.0010506,-0.00094961,9.4843e-35,0.00017902,-63.819,-232.36,-88.986,20.069,3.2981e-15,2.3597e-16,161.29,-234.73,-88.986,-61.446,0,0.015274,0,1,2.23,0,-2.23,0
0,0,0,0,0,0,0.00016303,-0.0009314,-3.2933e-37,0.00012987,1.2886e-20,1.5691e-21,7.4004,0.0010473,-0.0009467,8.9501e-35,0.00017833,-63.648,-231.68,-88.729,19.962,1.9847e-15,2.4098e-16,160.79,-234.03,-88.729,-61.294,0,0.015279,0,1,2.235,0,-2.235,0
0,0,0,0,0,0,0.00016247,-0.00092861,-3.4032e-37,0.00012917,4.3345e-21,1.6018e-21,7.365,0.001044,-0.00094378,8.4159e-35,0.00017765,-63.478,-230.99,-88.472,19.855,6.7114e-16,2.46e-16,160.28,-233.33,-88.472,-61.143,0,0.015285,0,1,2.24,0,-2.24,0
0,0,0,0,0,0,0.00016191,-0.00092582,-3.513e-37,0.00012847,-4.2165e-21,1.6346e-21,7.3296,0.0010407,-0.00094087,7.8818e-35,0.00017696,-63.308,-230.31,-88.214,19.747,-6.4231e-16,2.5101e-16,159.77,-232.63,-88.214,-60.991,0,0.01529,0,1,2.245,0,-2.245,0
0,0,0,0,0,0,0.00016134,-0.00092303,-3.6229e-37,0.00012777,-1.2768e-20,1.6673e-21,7.2943,0.0010374,-0.00093796,7.3476e-35,0.00017627,-63.137,-229.62,-87.957,19.64,-1.9558e-15,2.5603e-16,159.27,-231.92,-87.957,-60.839,0,0.015295,0,1,2.25,0,-2.25,0
0,0,0,0,0,0,0.00016078,-0.00092024,-3.7327e-37,0.00012707,-2.1319e-20,1.7001e-21,7.2589,0.0010341,-0.00093505,6.8134e-35,0.00017559,-62.967,-228.94,-87.7,19.532,-3.2693e-15,2.6105e-16,158.76,-231.22,-87.7,-60.687,0,0.0153,0,1,2.255,0,-2.255,0
0,0,0,0,0,0,0.00016021,-0.00091745,-3.8426e-37,0.00012637,-2.987e-20,1.7328e-21,7.2236,0.0010308,-0.00093214,6.2792e-35,0.0001749,-62.796,-228.26,-87.442,19.425,-4.5828e-15,2.6606e-16,158.25,-230.52,-87.442,-60.536,0,0.015305,0,1,2.26,0,-2.26,0
0,0,0,0,0,0,0.00015965,-0.00091466,-3.9524e-37,0.00012567,-3.8422e-20,1.7656e-21,7.1882,0.0010275,-0.00092922,5.745e-35,0.00017421,-62.626,-227.57,-87.185,19.318,-5.8963e-15,2.7108e-16,157.75,-229.81,-87.185,-60.384,0,0.01531,0,1,2.265,0,-2.265,0
0,0,0,0,0,0,0.00015908,-0.00091187,-4.0623e-37,0.00012497,-4.6973e-20,1.7983e-21,7.1529,0.0010242,-0.00092631,5.2108e-35,0.00017353,-62.455,-226.89,-86.928,19.21,-7.2097e-15,2.7609e-16,157.24,-229.11,-86.928,-60.232,0,0.015315,0,1,2.27,0,-2.27,0
0,0,0,0,0,0,0.00015852,-0.00090908,-4.1721e-37,0.00012427,-5.5524e-20,1.8311e-21,7.1175,0.0010209,-0.0009234,4.6766e-35,0.00017284,-62.285,-226.2,-86.67,19.103,-8.5232e-15,2.8111e-16,156.73,-228.41,-86.67,-60.081,0,0.01532,0,1,2.275,0,-2.275,0
0,0,0,0,0,0,0.00015795,-0.00090628,-4.282e-37,0.00012358,-6.4075e-20,1.8639e-21,7.0821,0.0010175,-0.00092049,4.1424e-35,0.00017215,-62.115,-225.52,-86.413,18.995,-9.8367e-15,2.8613e-16,156.23,-227.7,-86.413,-59.929,0,0.015326,0,1,2.28,0,-2.28,0
0,0,0,0,0,0,0.00015739,-0.00090349,-4.3918e-37,0.00012288,-7.2627e-20,1.8966e-21,7.0468,0.0010142,-0.00091757,3.6082e-35,0.00017147,-61.944,-224.84,-86.156,18.888,-1.115e-14,2.9114e-16,155.72,-227,-86.156,-59.777,0,0.015331,0,1,2.285,0,-2.285,0
0,0,0,0,0,0,0.00015682,-0.0009007,-4.5017e-37,0.00012218,-8.1178e-20,1.9294e-21,7.0114,0.0010109,-0.00091466,3.074e-35,0.00017078,-61.774,-224.15,-85.899,18.781,-1.2464e-14,2.9616e-16,155.21,-226.3,-85.899,-59.626,0,0.015336,0,1,2.29,0,-2.29,0
0,0,0,0,0,0,0.00015626,-0.00089791,-4.6115e-37,0.00012148,-8.9729e-20,1.9621e-21,6.9761,0.0010076,-0.00091175,2.5398e-35,0.0001701,-61.603,-223.47,-85.641,18.673,-1.3777e-14,3.0117e-16,154.71,-225.6,-85.641,-59.474,0,0.015341,0,1,2.295,0,-2.295,0
0,0,0,0,0,0,0.00015569,-0.00089512,-4.7214e-37,0.00012078,-9.828e-20,1.9949e-21,6.9407,0.0010043,-0.00090884,2.0057e-35,0.00016941,-61.433,-222.78,-85.384,18.566,-1.5091e-14,3.0619e-16,154.2,-224.89,-85.384,-59.322,0,0.015346,0,1,2.3,0,-2.3,0
0,0,0,0,0,0,0.00015513,-0.00089233,-4.8312e-37,0.00012008,-1.0683e-19,2.0276e-21,6.9054,0.001001,-0.00090593,1.4715e-35,0.00016872,-61.262,-222.1,-85.127,18.459,-1.6404e-14,3.1121e-16,153.69,-224.19,-85.127,-59.171,0,0.015351,0,1,2.305,0,-2.305,0
0,0,0,0,0,0,0.00015469,-0.00089023,-4.8992e-37,0.0001196,-1.1302e-19,2.0303e-21,6.8804,0.00099854,-0.00090375,1.5012e-35,0.00016821,-61.137,-221.59,-84.935,18.384,-1.7356e-14,3.116e-16,153.32,-223.66,-84.935,-59.058,0,0.015356,0,1,2.31,0,-2.31,0
0,0,0,0,0,0,0.00015436,-0.00088871,-4.9327e-37,0.00011929,-1.1727e-19,2.0081e-21,6.8641,0.00099675,-0.00090218,1.996e-35,0.00016783,-61.05,-221.21,-84.796,18.337,-1.8008e-14,3.0818e-16,153.04,-223.29,-84.796,-58.977,0,0.015359,0,1,2.315,0,-2.315,0
0,0,0,0,0,0,0.00015404,-0.00088718,-4.9661e-37,0.00011898,-1.2152e-19,1.9859e-21,6.8479,0.00099497,-0.00090061,2.4909e-35,0.00016746,-60.962,-220.84,-84.658,18.289,-1.8661e-14,3.0476e-16,152.77,-222.91,-84.658,-58.896,0,0.015363,0,1,2.32,0,-2.32,0
0,0,0,0,0,0,0.00015371,-0.00088566,-4.9996e-37,0.00011867,-1.2576e-19,1.9637e-21,6.8316,0.00099318,-0.00089904,2.9857e-35,0.00016709,-60.874,-220.47,-84.52,18.242,-1.9314e-14,3.0134e-16,152.49,-222.53,-84.52,-58.815,0,0.015367,0,1,2.325,0,-2.325,0
0,0,0,0,0,0,0.00015338,-0.00088413,-5.033e-37,0.00011836,-1.3001e-19,1.9414e-21,6.8153,0.0009914,-0.00089747,3.4805e-35,0.00016672,-60.787,-220.1,-84.381,18.194,-1.9967e-14,2.9793e-16,152.22,-222.15,-84.381,-58.734,0,0.015371,0,1,2.33,0,-2.33,0
0,0,0,0,0,0,0.00015305,-0.0008826,-5.0665e-37,0.00011805,-1.3425e-19,1.9192e-21,6.799,0.00098961,-0.0008959,3.9754e-35,0.00016634,-60.699,-219.72,-84.243,18.147,-2.0619e-14,2.9451e-16,151.95,-221.77,-84.243,-58.653,0,0.015375,0,1,2.335,0,-2.335,0
0,0,0,0,0,0,0.00015272,-0.00088108,-5.0999e-37,0.00011774,-1.385e-19,1.897e-21,6.7827,0.00098783,-0.00089433,4.4702e-35,0.00016597,-60.611,-219.35,-84.105,18.1,-2.1272e-14,2.9109e-16,151.67,-221.39,-84.105,-58.572,0,0.015378,0,1,2.34,0,-2.34,0
0,0,0,0,0,0,0.00015239,-0.00087955,-5.1334e-37,0.00011744,-1.4275e-19,1.8748e-21,6.7664,0.00098605,-0.00089276,4.9651e-35,0.0001656,-60.523,-218.98,-83.966,18.052,-2.1925e-14,2.8767e-16,151.4,-221.01,-83.966,-58.491,0,0.015382,0,1,2.345,0,-2.345,0
0,0,0,0,0,0,0.00015206,-0.00087803,-5.1668e-37,0.00011713,-1.4699e-19,1.8526e-21,6.7501,0.00098426,-0.00089119,5.4599e-35,0.00016522,-60.436,-218.61,-83.828,18.005,-2.2578e-14,2.8425e-16,151.13,-220.63,-83.828,-58.41,0,0.015386,0,1,2.35,0,-2.35,0
0,0,0,0,0,0,0.00015173,-0.0008765,-5.2003e-37,0.00011682,-1.5124e-19,1.8304e-21,6.7338,0.00098248,-0.00088962,5.9548e-35,0.00016485,-60.348,-218.24,-83.69,17.958,-2.323e-14,2.8083e-16,150.85,-220.25,-83.69,-58.329,0,0.01539,0,1,2.355,0,-2.355,0
0,0,0,0,0,0,0.0001514,-0.00087497,-5.2337e-37,0.00011651,-1.5548e-19,1.8082e-21,6.7175,0.00098069,-0.00088805,6.4496e-35,0.00016448,-60.26,-217.86,-83.551,17.91,-2.3883e-14,2.7742e-16,150.58,-219.88,-83.551,-58.248,0,0.015393,0,1,2.36,0,-2.36,0
0,0,0,0,0,0,0.00015107,-0.00087345,-5.2672e-37,0.0001162,-1.5973e-19,1.786e-21,6.7012,0.00097891,-0.00088648,6.9445e-35,0.00016411,-60.173,-217.49,-83.413,17.863,-2.4536e-14,2.74e-16,150.31,-219.5,-83.413,-58.167,0,0.015397,0,1,2.365,0,-2.365,0
0,0,0,0,0,0,0.00015074,-0.00087192,-5.3006e-37,0.00011589,-1.6398e-19,1.7638e-21,6.6849,0.00097712,-0.00088491,7.4393e-35,0.00016373,-60.085,-217.12,-83.275,17.815,-2.5189e-14,2.7058e-16,150.03,-219.12,-83.275,-58.086,0,0.015401,0,1,2.37,0,-2.37,0
0,0,0,0,0,0,0.00015042,-0.0008704,-5.3341e-37,0.00011559,-1.6822e-19,1.7416e-21,6.6686,0.00097534,-0.00088334,7.9341e-35,0.00016336,-59.997,-216.75,-83.137,17.768,-2.5842e-14,2.6716e-16,149.76,-218.74,-83.137,-58.005,0,0.015405,0,1,2.375,0,-2.375,0
0,0,0,0,0,0,0.00015009,-0.00086887,-5.3675e-37,0.00011528,-1.7247e-19,1.7194e-21,6.6523,0.00097356,-0.00088177,8.429e-35,0.00016299,-59.91,-216.37,-82.998,17.721,-2.6494e-14,2.6374e-16,149.49,-218.36,-82.998,-57.924,0,0.015409,0,1,2.38,0,-2.38,0
0,0,0,0,0,0,0.00014976,-0.00086734,-5.401e-37,0.00011497,-1.7672e-19,1.6972e-21,6.636,0.00097177,-0.0008802,8.9238e-35,0.00016261,-59.822,-216,-82.86,17.673,-2.7147e-14,2.6032e-16,149.21,-217.98,-82.86,-57.843,0,0.015412,0,1,2.385,0,-2.385,0
0,0,0,0,0,0,0.00014943,-0.00086582,-5.4344e-37,0.00011466,-1.8096e-19,1.675e-21,6.6197,0.00096999,-0.00087863,9.4187e-35,0.00016224,-59.734,-215.63,-82.722,17.626,-2.78e-14,2.5691e-16,148.94,-217.6,-82.722,-57.763,0,0.015416,0,1,2.39,0,-2.39,0
0,0,0,0,0,0,0.0001491,-0.00086429,-5.4679e-37,0.00011435,-1.8521e-19,1.6528e-21,6.6034,0.0009682,-0.00087706,9.9135e-35,0.00016187,-59.647,-215.26,-82.583,17.578,-2.8453e-14,2.5349e-16,148.66,-217.22,-82.583,-57.682,0,0.01542,0,1,2.395,0,-2.395,0
0,0,0,0,0,0,0.00014877,-0.00086276,-5.5013e-37,0.00011404,-1.8945e-19,1.6306e-21,6.5871,0.00096642,-0.00087549,1.0408e-34,0.0001615,-59.559,-214.89,-82.445,17.531,-2.9105e-14,2.5007e-16,148.39,-216.84,-82.445,-57.601,0,0.015424,0,1,2.4,0,-2.4,0
0,0,0,0,0,0,0.00014844,-0.00086124,-5.5348e-37,0.00011374,-1.937e-19,1.6084e-21,6.5708,0.00096463,-0.00087392,1.0903e-34,0.00016112,-59.471,-214.51,-82.307,17.484,-2.9758e-14,2.4665e-16,148.12,-216.47,-82.307,-57.52,0,0.015427,0,1,2.405,0,-2.405,0
0,0,0,0,0,0,0.00014811,-0.00085971,-5.5682e-37,0.00011343,-1.9795e-19,1.5862e-21,6.5545,0.00096285,-0.00087235,1.1398e-34,0.00016075,-59.384,-214.14,-82.168,17.436,-3.0411e-14,2.4323e-16,147.84,-216.09,-82.168,-57.439,0,0.015431,0,1,2.41,0,-2.41,0
0,0,0,0,0,0,0.00014778,-0.00085819,-5.6017e-37,0.00011312,-2.0219e-19,1.5639e-21,6.5382,0.00096107,-0.00087078,1.1893e-34,0.00016038,-59.296,-213.77,-82.03,17.389,-3.1064e-14,2.3981e-16,147.57,-215.71,-82.03,-57.358,0,0.015435,0,1,2.415,0,-2.415,0
0,0,0,0,0,0,0.00014745,-0.00085666,-5.6351e-37,0.00011281,-2.0644e-19,1.5417e-21,6.5219,0.00095928,-0.00086921,1.2388e-34,0.00016,-59.208,-213.4,-81.892,17.342,-3.1716e-14,2.364e-16,147.3,-215.33,-81.892,-57.277,0,0.015439,0,1,2.42,0,-2.42,0
0,0,0,0,0,0,0.00014713,-0.00085513,-5.6686e-37,0.0001125,-2.1068e-19,1.5195e-21,6.5056,0.0009575,-0.00086764,1.2883e-34,0.00015963,-59.12,-213.03,-81.753,17.294,-3.2369e-14,2.3298e-16,147.02,-214.95,-81.753,-57.196,0,0.015443,0,1,2.425,0,-2.425,0
0,0,0,0,0,0,0.0001468,-0.00085361,-5.7021e-37,0.00011219,-2.1493e-19,1.4973e-21,6.4893,0.00095571,-0.00086607,1.3377e-34,0.00015926,-59.033,-212.65,-81.615,17.247,-3.3022e-14,2.2956e-16,146.75,-214.57,-81.615,-57.115,0,0.015446,0,1,2.43,0,-2.43,0
0,0,0,0,0,0,0.00014647,-0.00085208,-5.7355e-37,0.00011189,-2.1918e-19,1.4751e-21,6.473,0.00095393,-0.0008645,1.3872e-34,0.00015889,-58.945,-212.28,-81.477,17.199,-3.3675e-14,2.2614e-16,146.48,-214.19,-81.477,-57.034,0,0.01545,0,1,2.435,0,-2.435,0
0,0,0,0,0,0,0.00014614,-0.00085056,-5.769e-37,0.00011158,-2.2342e-19,1.4529e-21,6.4567,0.00095214,-0.00086293,1.4367e-34,0.00015851,-58.857,-211.91,-81.338,17.152,-3.4328e-14,2.2272e-16,146.2,-213.81,-81.338,-56.953,0,0.015454,0,1,2.44,0,-2.44,0
0,0,0,0,0,0,0.00014581,-0.00084903,-5.8024e-37,0.00011127,-2.2767e-19,1.4307e-21,6.4404,0.00095036,-0.00086136,1.4862e-34,0.00015814,-58.77,-211.54,-81.2,17.105,-3.498e-14,2.193e-16,145.93,-213.43,-81.2,-56.872,0,0.015458,0,1,2.445,0,-2.445,0
0,0,0,0,0,0,0.00014548,-0.0008475,-5.8359e-37,0.00011096,-2.3192e-19,1.4085e-21,6.4241,0.00094858,-0.00085979,1.5357e-34,0.00015777,-58.682,-211.16,-81.062,17.057,-3.5633e-14,2.1589e-16,145.65,-213.06,-81.062,-56.791,0,0.015462,0,1,2.45,0,-2.45,0
0,0,0,0,0,0,0.00014515,-0.00084598,-5.8693e-37,0.00011065,-2.3616e-19,1.3863e-21,6.4078,0.00094679,-0.00085822,1.5852e-34,0.00015739,-58.594,-210.79,-80.924,17.01,-3.6286e-14,2.1247e-16,145.38,-212.68,-80.924,-56.71,0,0.015465,0,1,2.455,0,-2.455,0
0,0,0,0,0,0,0.00014482,-0.00084445,-5.9028e-37,0.00011034,-2.4041e-19,1.3641e-21,6.3915,0.00094501,-0.00085665,1.6346e-34,0.00015702,-58.507,-210.42,-80.785,16.962,-3.6939e-14,2.0905e-16,145.11,-212.3,-80.785,-56.629,0,0.015469,0,1,2.46,0,-2.46,0
0,0,0,0,0,0,0.00014449,-0.00084293,-5.9362e-37,0.00011004,-2.4465e-19,1.3419e-21,6.3752,0.00094322,-0.00085508,1.6841e-34,0.00015665,-58.419,-210.05,-80.647,16.915,-3.7591e-14,2.0563e-16,144.83,-211.92,-80.647,-56.548,0,0.015473,0,1,2.465,0,-2.465,0
0,0,0,0,0,0,0.00014416,-0.0008414,-5.9697e-37,0.00010973,-2.489e-19,1.3197e-21,6.3589,0.00094144,-0.00085351,1.7336e-34,0.00015628,-58.331,-209.68,-80.509,16.868,-3.8244e-14,2.0221e-16,144.56,-211.54,-80.509,-56.467,0,0.015477,0,1,2.47,0,-2.47,0
0,0,0,0,0,0,0.00014383,-0.00083987,-6.0031e-37,0.00010942,-2.5315e-19,1.2975e-21,6.3426,0.00093965,-0.00085194,1.7831e-34,0.0001559,-58.244,-209.3,-80.37,16.82,-3.8897e-14,1.9879e-16,144.29,-211.16,-80.37,-56.387,0,0.01548,0,1,2.475,0,-2.475,0
0,0,0,0,0,0,0.00014351,-0.00083835,-6.0366e-37,0.00010911,-2.5739e-19,1.2753e-21,6.3263,0.00093787,-0.00085037,1.8326e-34,0.00015553,-58.156,-208.93,-80.232,16.773,-3.955e-14,1.9538e-16,144.01,-210.78,-80.232,-56.306,0,0.015484,0,1,2.48,0,-2.48,0
0,0,0,0,0,0,0.00014318,-0.00083682,-6.07e-37,0.0001088,-2.6164e-19,1.2531e-21,6.31,0.00093608,-0.0008488,1.8821e-34,0.00015516,-58.068,-208.56,-80.094,16.725,-4.0202e-14,1.9196e-16,143.74,-210.4,-80.094,-56.225,0,0.015488,0,1,2.485,0,-2.485,0
0,0,0,0,0,0,0.00014285,-0.00083529,-6.1035e-37,0.00010849,-2.6588e-19,1.2309e-21,6.2937,0.0009343,-0.00084723,1.9316e-34,0.00015478,-57.981,-208.19,-79.955,16.678,-4.0855e-14,1.8854e-16,143.47,-210.02,-79.955,-56.144,0,0.015492,0,1,2.49,0,-2.49,0
0,0,0,0,0,0,0.00014252,-0.00083377,-6.1369e-37,0.00010819,-2.7013e-19,1.2087e-21,6.2774,0.00093252,-0.00084566,1.981e-34,0.00015441,-57.893,-207.82,-79.817,16.631,-4.1508e-14,1.8512e-16,143.19,-209.65,-79.817,-56.063,0,0.015496,0,1,2.495,0,-2.495,0
0,0,0,0,0,0,0.00014219,-0.00083224,-6.1704e-37,0.00010788,-2.7438e-19,1.1864e-21,6.2611,0.00093073,-0.00084409,2.0305e-34,0.00015404,-57.805,-207.44,-79.679,16.583,-4.2161e-14,1.817e-16,142.92,-209.27,-79.679,-55.982,0,0.015499,0,1,2.5,0,-2.5,0
0,0,0,0,0,0,0.00014186,-0.00083072,-6.2038e-37,0.00010757,-2.7862e-19,1.1642e-21,6.2448,0.00092895,-0.00084252,2.08e-34,0.00015367,-57.717,-207.07,-79.54,16.536,-4.2814e-14,1.7828e-16,142.65,-208.89,-79.54,-55.901,0,0.015503,0,1,2.505,0,-2.505,0
0,0,0,0,0,0,0.00014153,-0.00082919,-6.2373e-37,0.00010726,-2.8287e-19,1.142e-21,6.2285,0.00092716,-0.00084095,2.1295e-34,0.00015329,-57.63,-206.7,-79.402,16.489,-4.3466e-14,1.7487e-16,142.37,-208.51,-79.402,-55.82,0,0.015507,0,1,2.51,0,-2.51,0
0,0,0,0,0,0,0.0001412,-0.00082766,-6.2707e-37,0.00010695,-2.8711e-19,1.1198e-21,6.2122,0.00092538,-0.00083938,2.179e-34,0.00015292,-57.542,-206.33,-79.264,16.441,-4.4119e-14,1.7145e-16,142.1,-208.13,-79.264,-55.739,0,0.015511,0,1,2.515,0,-2.515,0
0,0,0,0,0,0,0.00014087,-0.00082614,-6.3042e-37,0.00010664,-2.9136e-19,1.0976e-21,6.1959,0.00092359,-0.00083781,2.2285e-34,0.00015255,-57.454,-205.95,-79.126,16.394,-4.4772e-14,1.6803e-16,141.82,-207.75,-79.126,-55.658,0,0.015514,0,1,2.52,0,-2.52,0
0,0,0,0,0,0,0.00014054,-0.00082461,-6.3376e-37,0.00010634,-2.9561e-19,1.0754e-21,6.1796,0.00092181,-0.00083624,2.2779e-34,0.00015217,-57.367,-205.58,-78.987,16.346,-4.5425e-14,1.6461e-16,141.55,-207.37,-78.987,-55.577,0,0.015518,0,1,2.525,0,-2.525,0
0,0,0,0,0,0,0.00014021,-0.00082309,-6.3711e-37,0.00010603,-2.9985e-19,1.0532e-21,6.1633,0.00092003,-0.00083467,2.3274e-34,0.0001518,-57.279,-205.21,-78.849,16.299,-4.6077e-14,1.6119e-16,141.28,-206.99,-78.849,-55.496,0,0.015522,0,1,2.53,0,-2.53,0
0,0,0,0,0,0,0.00013989,-0.00082156,-6.4045e-37,0.00010572,-3.041e-19,1.031e-21,6.147,0.00091824,-0.0008331,2.3769e-34,0.00015143,-57.191,-204.84,-78.711,16.252,-4.673e-14,1.5777e-16,141,-206.61,-78.711,-55.415,0,0.015526,0,1,2.535,0,-2.535,0
0,0,0,0,0,0,0.00013956,-0.00082003,-6.438e-37,0.00010541,-3.0835e-19,1.0088e-21,6.1307,0.00091646,-0.00083153,2.4264e-34,0.00015106,-57.104,-204.47,-78.572,16.204,-4.7383e-14,1.5436e-16,140.73,-206.24,-78.572,-55.334,0,0.01553,0,1,2.54,0,-2.54,0
0,0,0,0,0,0,0.00013923,-0.00081851,-6.4715e-37,0.0001051,-3.1259e-19,9.866e-22,6.1144,0.00091467,-0.00082996,2.4759e-34,0.00015068,-57.016,-204.09,-78.434,16.157,-4.8036e-14,1.5094e-16,140.46,-205.86,-78.434,-55.253,0,0.015533,0,1,2.545,0,-2.545,0
0,0,0,0,0,0,0.0001389,-0.00081698,-6.5049e-37,0.00010479,-3.1684e-19,9.6439e-22,6.0981,0.00091289,-0.00082839,2.5254e-34,0.00015031,-56.928,-203.72,-78.296,16.109,-4.8688e-14,1.4752e-16,140.18,-205.48,-78.296,-55.172,0,0.015537,0,1,2.55,0,-2.55,0
0,0,0,0,0,0,0.00013857,-0.00081545,-6.5384e-37,0.00010449,-3.2108e-19,9.4218e-22,6.0818,0.0009111,-0.00082682,2.5749e-34,0.00014994,-56.841,-203.35,-78.157,16.062,-4.9341e-14,1.441e-16,139.91,-205.1,-78.157,-55.091,0,0.015541,0,1,2.555,0,-2.555,0
0,0,0,0,0,0,0.00013824,-0.00081393,-6.5718e-37,0.00010418,-3.2533e-19,9.1998e-22,6.0655,0.00090932,-0.00082525,2.6243e-34,0.00014956,-56.753,-202.98,-78.019,16.015,-4.9994e-14,1.4068e-16,139.64,-204.72,-78.019,-55.011,0,0.015545,0,1,2.56,0,-2.56,0
0,0,0,0,0,0,0.00013791,-0.0008124,-6.6053e-37,0.00010387,-3.2958e-19,8.9777e-22,6.0492,0.00090754,-0.00082368,2.6738e-34,0.00014919,-56.665,-202.6,-77.881,15.967,-5.0647e-14,1.3726e-16,139.36,-204.34,-77.881,-54.93,0,0.015548,0,1,2.565,0,-2.565,0
0,0,0,0,0,0,0.00013758,-0.00081088,-6.6387e-37,0.00010356,-3.3382e-19,8.7557e-22,6.0329,0.00090575,-0.00082211,2.7233e-34,0.00014882,-56.578,-202.23,-77.742,15.92,-5.13e-14,1.3384e-16,139.09,-203.96,-77.742,-54.849,0,0.015552,0,1,2.57,0,-2.57,0
0,0,0,0,0,0,0.00013725,-0.00080935,-6.6722e-37,0.00010325,-3.3807e-19,8.5336e-22,6.0166,0.00090397,-0.00082054,2.7728e-34,0.00014844,-56.49,-201.86,-77.604,15.873,-5.1952e-14,1.3043e-16,138.82,-203.58,-77.604,-54.768,0,0.015556,0,1,2.575,0,-2.575,0
0,0,0,0,0,0,0.00013692,-0.00080782,-6.7056e-37,0.00010294,-3.4231e-19,8.3116e-22,6.0003,0.00090218,-0.00081897,2.8223e-34,0.00014807,-56.402,-201.49,-77.466,15.825,-5.2605e-14,1.2701e-16,138.54,-203.2,-77.466,-54.687,0,0.01556,0,1,2.58,0,-2.58,0
0,0,0,0,0,0,0.0001366,-0.0008063,-6.7391e-37,0.00010264,-3.4656e-19,8.0895e-22,5.984,0.0009004,-0.0008174,2.8718e-34,0.0001477,-56.314,-201.12,-77.328,15.778,-5.3258e-14,1.2359e-16,138.27,-202.83,-77.328,-54.606,0,0.015564,0,1,2.585,0,-2.585,0
0,0,0,0,0,0,0.00013627,-0.00080477,-6.7725e-37,0.00010233,-3.5081e-19,7.8674e-22,5.9677,0.00089861,-0.00081583,2.9212e-34,0.00014733,-56.227,-200.74,-77.189,15.73,-5.3911e-14,1.2017e-16,137.99,-202.45,-77.189,-54.525,0,0.015567,0,1,2.59,0,-2.59,0
0,0,0,0,0,0,0.00013594,-0.00080325,-6.806e-37,0.00010202,-3.5505e-19,7.6454e-22,5.9514,0.00089683,-0.00081426,2.9707e-34,0.00014695,-56.139,-200.37,-77.051,15.683,-5.4563e-14,1.1675e-16,137.72,-202.07,-77.051,-54.444,0,0.015571,0,1,2.595,0,-2.595,0
0,0,0,0,0,0,0.00013561,-0.00080172,-6.8394e-37,0.00010171,-3.593e-19,7.4233e-22,5.9351,0.00089505,-0.00081269,3.0202e-34,0.00014658,-56.051,-200,-76.913,15.636,-5.5216e-14,1.1333e-16,137.45,-201.69,-76.913,-54.363,0,0.015575,0,1,2.6,0,-2.6,0
0,0,0,0,0,0,0.00013528,-0.00080019,-6.8729e-37,0.0001014,-3.6354e-19,7.2013e-22,5.9188,0.00089326,-0.00081112,3.0697e-34,0.00014621,-55.964,-199.63,-76.774,15.588,-5.5869e-14,1.0992e-16,137.17,-201.31,-76.774,-54.282,0,0.015579,0,1,2.605,0,-2.605,0
0,0,0,0,0,0,0.00013495,-0.00079867,-6.9063e-37,0.00010109,-3.6779e-19,6.9792e-22,5.9025,0.00089148,-0.00080955,3.1192e-34,0.00014583,-55.876,-199.26,-76.636,15.541,-5.6522e-14,1.065e-16,136.9,-200.93,-76.636,-54.201,0,0.015582,0,1,2.61,0,-2.61,0
0,0,0,0,0,0,0.00013462,-0.00079714,-6.9398e-37,0.00010078,-3.7204e-19,6.7571e-22,5.8862,0.00088969,-0.00080798,3.1687e-34,0.00014546,-55.788,-198.88,-76.498,15.493,-5.7175e-14,1.0308e-16,136.63,-200.55,-76.498,-54.12,0,0.015586,0,1,2.615,0,-2.615,0
0,0,0,0,0,0,0.00013429,-0.00079562,-6.9732e-37,0.00010048,-3.7628e-19,6.5351e-22,5.8699,0.00088791,-0.00080641,3.2181e-34,0.00014509,-55.701,-198.51,-76.359,15.446,-5.7827e-14,9.9661e-17,136.35,-200.17,-76.359,-54.039,0,0.01559,0,1,2.62,0,-2.62,0
0,0,0,0,0,0,0.00013396,-0.00079409,-7.0067e-37,0.00010017,-3.8053e-19,6.313e-22,5.8536,0.00088612,-0.00080484,3.2676e-34,0.00014472,-55.613,-198.14,-76.221,15.399,-5.848e-14,9.6243e-17,136.08,-199.79,-76.221,-53.958,0,0.015594,0,1,2.625,0,-2.625,0
0,0,0,0,0,0,0.00013363,-0.00079256,-7.0401e-37,9.986e-05,-3.8478e-19,6.091e-22,5.8373,0.00088434,-0.00080327,3.3171e-34,0.00014434,-55.525,-197.77,-76.083,15.351,-5.9133e-14,9.2824e-17,135.81,-199.41,-76.083,-53.877,0,0.015598,0,1,2.63,0,-2.63,0
0,0,0,0,0,0,0.0001333,-0.00079104,-7.0736e-37,9.9551e-05,-3.8902e-19,5.8689e-22,5.821,0.00088256,-0.0008017,3.3666e-34,0.00014397,-55.438,-197.39,-75.944,15.304,-5.9786e-14,8.9406e-17,135.53,-199.04,-75.944,-53.796,0,0.015601,0,1,2.635,0,-2.635,0
0,0,0,0,0,0,0.00013298,-0.00078951,-7.107e-37,9.9243e-05,-3.9327e-19,5.6468e-22,5.8047,0.00088077,-0.00080013,3.4161e-34,0.0001436,-55.35,-197.02,-75.806,15.257,-6.0438e-14,8.5988e-17,135.26,-198.66,-75.806,-53.715,0,0.015605,0,1,2.64,0,-2.64,0
0,0,0,0,0,0,0.00013265,-0.00078798,-7.1405e-37,9.8935e-05,-3.9751e-19,5.4248e-22,5.7884,0.00087899,-0.00079856,3.4656e-34,0.00014322,-55.262,-196.65,-75.668,15.209,-6.1091e-14,8.2569e-17,134.99,-198.28,-75.668,-53.634,0,0.015609,0,1,2.645,0,-2.645,0
0,0,0,0,0,0,0.00013232,-0.00078646,-7.1739e-37,9.8626e-05,-4.0176e-19,5.2027e-22,5.7721,0.0008772,-0.00079699,3.5151e-34,0.00014285,-55.175,-196.28,-75.53,15.162,-6.1744e-14,7.9151e-17,134.71,-197.9,-75.53,-53.554,0,0.015613,0,1,2.65,0,-2.65,0
0,0,0,0,0,0,0.00013199,-0.00078493,-7.2074e-37,9.8318e-05,-4.0601e-19,4.9807e-22,5.7558,0.00087542,-0.00079542,3.5645e-34,0.00014248,-55.087,-195.91,-75.391,15.114,-6.2397e-14,7.5733e-17,134.44,-197.52,-75.391,-53.473,0,0.015616,0,1,2.655,0,-2.655,0
0,0,0,0,0,0,0.00013166,-0.00078341,-7.2409e-37,9.801e-05,-4.1025e-19,4.7586e-22,5.7395,0.00087363,-0.00079385,3.614e-34,0.00014211,-54.999,-195.53,-75.253,15.067,-6.3049e-14,7.2314e-17,134.16,-197.14,-75.253,-53.392,0,0.01562,0,1,2.66,0,-2.66,0
0,0,0,0,0,0,0.00013133,-0.00078188,-7.2743e-37,9.7701e-05,-4.145e-19,4.5366e-22,5.7232,0.00087185,-0.00079228,3.6635e-34,0.00014173,-54.912,-195.16,-75.115,15.02,-6.3702e-14,6.8896e-17,133.89,-196.76,-75.115,-53.311,0,0.015624,0,1,2.665,0,-2.665,0
0,0,0,0,0,0,0.000131,-0.00078035,-7.3078e-37,9.7393e-05,-4.1874e-19,4.3145e-22,5.7069,0.00087007,-0.00079071,3.713e-34,0.00014136,-54.824,-194.79,-74.976,14.972,-6.4355e-14,6.5478e-17,133.62,-196.38,-74.976,-53.23,0,0.015628,0,1,2.67,0,-2.67,0
0,0,0,0,0,0,0.00013067,-0.00077883,-7.3412e-37,9.7084e-05,-4.2299e-19,4.0924e-22,5.6906,0.00086828,-0.00078914,3.7625e-34,0.00014099,-54.736,-194.42,-74.838,14.925,-6.5008e-14,6.2059e-17,133.34,-196,-74.838,-53.149,0,0.015632,0,1,2.675,0,-2.675,0
0,0,0,0,0,0,0.00013034,-0.0007773,-7.3747e-37,9.6776e-05,-4.2724e-19,3.8704e-22,5.6743,0.0008665,-0.00078757,3.812e-34,0.00014061,-54.648,-194.05,-74.7,14.877,-6.5661e-14,5.8641e-17,133.07,-195.63,-74.7,-53.068,0,0.015635,0,1,2.68,0,-2.68,0
0,0,0,0,0,0,0.00013001,-0.00077578,-7.4081e-37,9.6468e-05,-4.3148e-19,3.6483e-22,5.658,0.00086471,-0.000786,3.8614e-34,0.00014024,-54.561,-193.67,-74.561,14.83,-6.6313e-14,5.5223e-17,132.8,-195.25,-74.561,-52.987,0,0.015639,0,1,2.685,0,-2.685,0
0,0,0,0,0,0,0.00012968,-0.00077425,-7.4416e-37,9.6159e-05,-4.3573e-19,3.4263e-22,5.6417,0.00086293,-0.00078443,3.9109e-34,0.00013987,-54.473,-193.3,-74.423,14.783,-6.6966e-14,5.1804e-17,132.52,-194.87,-74.423,-52.906,0,0.015643,0,1,2.69,0,-2.69,0
0,0,0,0,0,0,0.00012936,-0.00077272,-7.475e-37,9.5851e-05,-4.3998e-19,3.2042e-22,5.6254,0.00086114,-0.00078286,3.9604e-34,0.0001395,-54.385,-192.93,-74.285,14.735,-6.7619e-14,4.8386e-17,132.25,-194.49,-74.285,-52.825,0,0.015647,0,1,2.695,0,-2.695,0
0,0,0,0,0,0,0.00012903,-0.0007712,-7.5085e-37,9.5543e-05,-4.4422e-19,2.9821e-22,5.6091,0.00085936,-0.00078129,4.0099e-34,0.00013912,-54.298,-192.56,-74.146,14.688,-6.8272e-14,4.4967e-17,131.98,-194.11,-74.146,-52.744,0,0.01565,0,1,2.7,0,-2.7,0
0,0,0,0,0,0,0.0001287,-0.00076967,-7.5419e-37,9.5234e-05,-4.4847e-19,2.7601e-22,5.5928,0.00085758,-0.00077972,4.0594e-34,0.00013875,-54.21,-192.18,-74.008,14.64,-6.8924e-14,4.1549e-17,131.7,-193.73,-74.008,-52.663,0,0.015654,0,1,2.705,0,-2.705,0
0,0,0,0,0,0,0.00012837,-0.00076815,-7.5754e-37,9.4926e-05,-4.5271e-19,2.538e-22,5.5765,0.00085579,-0.00077815,4.1089e-34,0.00013838,-54.122,-191.81,-73.87,14.593,-6.9577e-14,3.8131e-17,131.43,-193.35,-73.87,-52.582,0,0.015658,0,1,2.71,0,-2.71,0
0,0,0,0,0,0,0.00012804,-0.00076662,-7.6088e-37,9.4618e-05,-4.5696e-19,2.316e-22,5.5602,0.00085401,-0.00077658,4.1584e-34,0.000138,-54.035,-191.44,-73.732,14.546,-7.023e-14,3.4712e-17,131.15,-192.97,-73.732,-52.501,0,0.015662,0,1,2.715,0,-2.715,0
0,0,0,0,0,0,0.00012771,-0.00076509,-7.6423e-37,9.4309e-05,-4.6121e-19,2.0939e-22,5.5439,0.00085222,-0.00077501,4.2078e-34,0.00013763,-53.947,-191.07,-73.593,14.498,-7.0883e-14,3.1294e-17,130.88,-192.59,-73.593,-52.42,0,0.015666,0,1,2.72,0,-2.72,0
0,0,0,0,0,0,0.00012738,-0.00076357,-7.6757e-37,9.4001e-05,-4.6545e-19,1.8719e-22,5.5276,0.00085044,-0.00077344,4.2573e-34,0.00013726,-53.859,-190.7,-73.455,14.451,-7.1535e-14,2.7876e-17,130.61,-192.22,-73.455,-52.339,0,0.015669,0,1,2.725,0,-2.725,0
0,0,0,0,0,0,0.00012705,-0.00076204,-7.7092e-37,9.3692e-05,-4.697e-19,1.6498e-22,5.5113,0.00084865,-0.00077187,4.3068e-34,0.00013689,-53.772,-190.32,-73.317,14.404,-7.2188e-14,2.4457e-17,130.33,-191.84,-73.317,-52.258,0,0.015673,0,1,2.73,0,-2.73,0
0,0,0,0,0,0,0.00012672,-0.00076051,-7.7426e-37,9.3384e-05,-4.7394e-19,1.4277e-22,5.495,0.00084687,-0.0007703,4.3563e-34,0.00013651,-53.684,-189.95,-73.178,14.356,-7.2841e-14,2.1039e-17,130.06,-191.46,-73.178,-52.178,0,0.015677,0,1,2.735,0,-2.735,0
0,0,0,0,0,0,0.00012639,-0.00075899,-7.7761e-37,9.3076e-05,-4.7819e-19,1.2057e-22,5.4787,0.00084509,-0.00076873,4.4058e-34,0.00013614,-53.596,-189.58,-73.04,14.309,-7.3494e-14,1.7621e-17,129.79,-191.08,-73.04,-52.097,0,0.015681,0,1,2.74,0,-2.74,0
0,0,0,0,0,0,0.00012607,-0.00075746,-7.8095e-37,9.2767e-05,-4.8244e-19,9.8362e-23,5.4624,0.0008433,-0.00076716,4.4553e-34,0.00013577,-53.509,-189.21,-72.902,14.261,-7.4147e-14,1.4202e-17,129.51,-190.7,-72.902,-52.016,0,0.015685,0,1,2.745,0,-2.745,0
0,0,0,0,0,0,0.00012574,-0.00075594,-7.843e-37,9.2459e-05,-4.8668e-19,7.6155e-23,5.4461,0.00084152,-0.00076559,4.5047e-34,0.00013539,-53.421,-188.84,-72.763,14.214,-7.4799e-14,1.0784e-17,129.24,-190.32,-72.763,-51.935,0,0.015688,0,1,2.75,0,-2.75,0
0,0,0,0,0,0,0.00012541,-0.00075441,-7.8764e-37,9.2151e-05,-4.9093e-19,5.3949e-23,5.4298,0.00083973,-0.00076402,4.5542e-34,0.00013502,-53.333,-188.46,-72.625,14.167,-7.5452e-14,7.3654e-18,128.97,-189.94,-72.625,-51.854,0,0.015692,0,1,2.755,0,-2.755,0
0,0,0,0,0,0,0.00012508,-0.00075288,-7.9099e-37,9.1842e-05,-4.9517e-19,3.1744e-23,5.4135,0.00083795,-0.00076245,4.6037e-34,0.00013465,-53.245,-188.09,-72.487,14.119,-7.6105e-14,3.9471e-18,128.69,-189.56,-72.487,-51.773,0,0.015696,0,1,2.76,0,-2.76,0
0,0,0,0,0,0,0.00012475,-0.00075136,-7.9433e-37,9.1534e-05,-4.9942e-19,9.5373e-24,5.3972,0.00083616,-0.00076088,4.6532e-34,0.00013428,-53.158,-187.72,-72.348,14.072,-7.6758e-14,5.2865e-19,128.42,-189.18,-72.348,-51.692,0,0.0157,0,1,2.765,0,-2.765,0
0,0,0,0,0,0,0.00012442,-0.00074983,-7.9768e-37,9.1226e-05,-5.0367e-19,-1.2668e-23,5.3809,0.00083438,-0.00075931,4.7027e-34,0.0001339,-53.07,-187.35,-72.21,14.024,-7.741e-14,-2.8896e-18,128.15,-188.81,-72.21,-51.611,0,0.015703,0,1,2.77,0,-2.77,0
0,0,0,0,0,0,0.00012409,-0.00074831,-8.0103e-37,9.0917e-05,-5.0791e-19,-3.4874e-23,5.3646,0.00083259,-0.00075774,4.7522e-34,0.00013353,-52.982,-186.97,-72.072,13.977,-7.8063e-14,-6.3081e-18,127.87,-188.43,-72.072,-51.53,0,0.015707,0,1,2.775,0,-2.775,0
0,0,0,0,0,0,0.00012376,-0.00074678,-8.0437e-37,9.0609e-05,-5.1216e-19,-5.708e-23,5.3483,0.00083081,-0.00075617,4.8016e-34,0.00013316,-52.895,-186.6,-71.934,13.93,-7.8716e-14,-9.7263e-18,127.6,-188.05,-71.934,-51.449,0,0.015711,0,1,2.78,0,-2.78,0
0,0,0,0,0,0,0.00012343,-0.00074525,-8.0772e-37,9.03e-05,-5.1641e-19,-7.9286e-23,5.332,0.00082903,-0.0007546,4.8511e-34,0.00013278,-52.807,-186.23,-71.795,13.882,-7.9369e-14,-1.3145e-17,127.32,-187.67,-71.795,-51.368,0,0.015715,0,1,2.785,0,-2.785,0
0,0,0,0,0,0,0.0001231,-0.00074373,-8.1106e-37,8.9992e-05,-5.2065e-19,-1.0149e-22,5.3157,0.00082724,-0.00075303,4.9006e-34,0.00013241,-52.719,-185.86,-71.657,13.835,-8.0021e-14,-1.6563e-17,127.05,-187.29,-71.657,-51.287,0,0.015719,0,1,2.79,0,-2.79,0
0,0,0,0,0,0,0.00012277,-0.0007422,-8.1441e-37,8.9684e-05,-5.249e-19,-1.237e-22,5.2994,0.00082546,-0.00075146,4.9501e-34,0.00013204,-52.632,-185.49,-71.519,13.788,-8.0674e-14,-1.9982e-17,126.78,-186.91,-71.519,-51.206,0,0.015722,0,1,2.795,0,-2.795,0
0,0,0,0,0,0,0.00012245,-0.00074068,-8.1775e-37,8.9375e-05,-5.2914e-19,-1.459e-22,5.2831,0.00082367,-0.00074989,4.9996e-34,0.00013167,-52.544,-185.11,-71.38,13.74,-8.1327e-14,-2.34e-17,126.5,-186.53,-71.38,-51.125,0,0.015726,0,1,2.8,0,-2.8,0
0,0,0,0,0,0,0.00012212,-0.00073915,-8.211e-37,8.9067e-05,-5.3339e-19,-1.6811e-22,5.2668,0.00082189,-0.00074832,5.0491e-34,0.00013129,-52.456,-184.74,-71.242,13.693,-8.198e-14,-2.6818e-17,126.23,-186.15,-71.242,-51.044,0,0.01573,0,1,2.805,0,-2.805,0
0,0,0,0,0,0,0.00012179,-0.00073762,-8.2444e-37,8.8759e-05,-5.3764e-19,-1.9031e-22,5.2506,0.0008201,-0.00074675,5.0986e-34,0.00013092,-52.369,-184.37,-71.104,13.645,-8.2633e-14,-3.0237e-17,125.96,-185.77,-71.104,-50.963,0,0.015734,0,1,2.81,0,-2.81,0
0,0,0,0,0,0,0.00012146,-0.0007361,-8.2779e-37,8.845e-05,-5.4188e-19,-2.1252e-22,5.2343,0.00081832,-0.00074519,5.148e-34,0.00013055,-52.281,-184,-70.965,13.598,-8.3285e-14,-3.3655e-17,125.68,-185.4,-70.965,-50.882,0,0.015737,0,1,2.815,0,-2.815,0
0,0,0,0,0,0,0.00012113,-0.00073457,-8.3113e-37,8.8142e-05,-5.4613e-19,-2.3473e-22,5.218,0.00081654,-0.00074362,5.1975e-34,0.00013017,-52.193,-183.62,-70.827,13.551,-8.3938e-14,-3.7073e-17,125.41,-185.02,-70.827,-50.802,0,0.015741,0,1,2.82,0,-2.82,0
0,0,0,0,0,0,0.0001208,-0.00073304,-8.3448e-37,8.7834e-05,-5.5037e-19,-2.5693e-22,5.2017,0.00081475,-0.00074205,5.247e-34,0.0001298,-52.106,-183.25,-70.689,13.503,-8.4591e-14,-4.0492e-17,125.14,-184.64,-70.689,-50.721,0,0.015745,0,1,2.825,0,-2.825,0
0,0,0,0,0,0,0.00012047,-0.00073152,-8.3782e-37,8.7525e-05,-5.5462e-19,-2.7914e-22,5.1854,0.00081297,-0.00074048,5.2965e-34,0.00012943,-52.018,-182.88,-70.55,13.456,-8.5244e-14,-4.391e-17,124.86,-184.26,-70.55,-50.64,0,0.015749,0,1,2.83,0,-2.83,0
0,0,0,0,0,0,0.00012014,-0.00072999,-8.4117e-37,8.7217e-05,-5.5887e-19,-3.0134e-22,5.1691,0.00081118,-0.00073891,5.346e-34,0.00012905,-51.93,-182.51,-70.412,13.408,-8.5896e-14,-4.7328e-17,124.59,-183.88,-70.412,-50.559,0,0.015753,0,1,2.835,0,-2.835,0
0,0,0,0,0,0,0.00011981,-0.00072847,-8.4451e-37,8.6908e-05,-5.6311e-19,-3.2355e-22,5.1528,0.0008094,-0.00073734,5.3955e-34,0.00012868,-51.842,-182.14,-70.274,13.361,-8.6549e-14,-5.0747e-17,124.32,-183.5,-70.274,-50.478,0,0.015756,0,1,2.84,0,-2.84,0
0,0,0,0,0,0,0.00011948,-0.00072694,-8.4786e-37,8.66e-05,-5.6736e-19,-3.4576e-22,5.1365,0.00080761,-0.00073577,5.4449e-34,0.00012831,-51.755,-181.76,-70.136,13.314,-8.7202e-14,-5.4165e-17,124.04,-183.12,-70.136,-50.397,0,0.01576,0,1,2.845,0,-2.845,0
0,0,0,0,0,0,0.00011915,-0.00072541,-8.512e-37,8.6292e-05,-5.716e-19,-3.6796e-22,5.1202,0.00080583,-0.0007342,5.4944e-34,0.00012794,-51.667,-181.39,-69.997,13.266,-8.7855e-14,-5.7583e-17,123.77,-182.74,-69.997,-50.316,0,0.015764,0,1,2.85,0,-2.85,0
0,0,0,0,0,0,0.00011883,-0.00072389,-8.5455e-37,8.5983e-05,-5.7585e-19,-3.9017e-22,5.1039,0.00080405,-0.00073263,5.5439e-34,0.00012756,-51.579,-181.02,-69.859,13.219,-8.8508e-14,-6.1002e-17,123.49,-182.36,-69.859,-50.235,0,0.015768,0,1,2.855,0,-2.855,0
0,0,0,0,0,0,0.0001185,-0.00072236,-8.5789e-37,8.5675e-05,-5.801e-19,-4.1237e-22,5.0876,0.00080226,-0.00073106,5.5934e-34,0.00012719,-51.492,-180.65,-69.721,13.171,-8.916e-14,-6.442e-17,123.22,-181.99,-69.721,-50.154,0,0.015771,0,1,2.86,0,-2.86,0
0,0,0,0,0,0,0.00011817,-0.00072084,-8.6124e-37,8.5367e-05,-5.8434e-19,-4.3458e-22,5.0713,0.00080048,-0.00072949,5.6429e-34,0.00012682,-51.404,-180.28,-69.582,13.124,-8.9813e-14,-6.7839e-17,122.95,-181.61,-69.582,-50.073,0,0.015775,0,1,2.865,0,-2.865,0
0,0,0,0,0,0,0.00011784,-0.00071931,-8.6458e-37,8.5058e-05,-5.8859e-19,-4.5678e-22,5.055,0.00079869,-0.00072792,5.6924e-34,0.00012644,-51.316,-179.9,-69.444,13.077,-9.0466e-14,-7.1257e-17,122.67,-181.23,-69.444,-49.992,0,0.015779,0,1,2.87,0,-2.87,0
0,0,0,0,0,0,0.00011751,-0.00071778,-8.6793e-37,8.475e-05,-5.9284e-19,-4.7899e-22,5.0387,0.00079691,-0.00072635,5.7419e-34,0.00012607,-51.229,-179.53,-69.306,13.029,-9.1119e-14,-7.4675e-17,122.4,-180.85,-69.306,-49.911,0,0.015783,0,1,2.875,0,-2.875,0
0,0,0,0,0,0,0.00011718,-0.00071626,-8.7127e-37,8.4442e-05,-5.9708e-19,-5.012e-22,5.0224,0.00079512,-0.00072478,5.7913e-34,0.0001257,-51.141,-179.16,-69.167,12.982,-9.1771e-14,-7.8094e-17,122.13,-180.47,-69.167,-49.83,0,0.015787,0,1,2.88,0,-2.88,0
0,0,0,0,0,0,0.00011685,-0.00071473,-8.7462e-37,8.4133e-05,-6.0133e-19,-5.234e-22,5.0061,0.00079334,-0.00072321,5.8408e-34,0.00012533,-51.053,-178.79,-69.029,12.935,-9.2424e-14,-8.1512e-17,121.85,-180.09,-69.029,-49.749,0,0.01579,0,1,2.885,0,-2.885,0
0,0,0,0,0,0,0.00011652,-0.0007132,-8.7797e-37,8.3825e-05,-6.0557e-19,-5.4561e-22,4.9898,0.00079156,-0.00072164,5.8903e-34,0.00012495,-50.966,-178.41,-68.891,12.887,-9.3077e-14,-8.493e-17,121.58,-179.71,-68.891,-49.668,0,0.015794,0,1,2.89,0,-2.89,0
0,0,0,0,0,0,0.00011619,-0.00071168,-8.8131e-37,8.3516e-05,-6.0982e-19,-5.6781e-22,4.9735,0.00078977,-0.00072007,5.9398e-34,0.00012458,-50.878,-178.04,-68.752,12.84,-9.373e-14,-8.8349e-17,121.31,-179.33,-68.752,-49.587,0,0.015798,0,1,2.895,0,-2.895,0
0,0,0,0,0,0,0.00011586,-0.00071015,-8.8466e-37,8.3208e-05,-6.1407e-19,-5.9002e-22,4.9572,0.00078799,-0.0007185,5.9893e-34,0.00012421,-50.79,-177.67,-68.614,12.792,-9.4382e-14,-9.1767e-17,121.03,-178.95,-68.614,-49.506,0,0.015802,0,1,2.9,0,-2.9,0
0,0,0,0,0,0,0.00011554,-0.00070863,-8.88e-37,8.29e-05,-6.1831e-19,-6.1223e-22,4.9409,0.0007862,-0.00071693,6.0388e-34,0.00012383,-50.703,-177.3,-68.476,12.745,-9.5035e-14,-9.5185e-17,120.76,-178.58,-68.476,-49.425,0,0.015805,0,1,2.905,0,-2.905,0
0,0,0,0,0,0,0.00011521,-0.0007071,-8.9135e-37,8.2591e-05,-6.2256e-19,-6.3443e-22,4.9246,0.00078442,-0.00071536,6.0882e-34,0.00012346,-50.615,-176.93,-68.338,12.698,-9.5688e-14,-9.8604e-17,120.48,-178.2,-68.338,-49.345,0,0.015809,0,1,2.91,0,-2.91,0
0,0,0,0,0,0,0.00011488,-0.00070557,-8.9469e-37,8.2283e-05,-6.268e-19,-6.5664e-22,4.9083,0.00078263,-0.00071379,6.1377e-34,0.00012309,-50.527,-176.55,-68.199,12.65,-9.6341e-14,-1.0202e-16,120.21,-177.82,-68.199,-49.264,0,0.015813,0,1,2.915,0,-2.915,0
0,0,0,0,0,0,0.00011455,-0.00070405,-8.9804e-37,8.1975e-05,-6.3105e-19,-6.7884e-22,4.892,0.00078085,-0.00071222,6.1872e-34,0.00012272,-50.44,-176.18,-68.061,12.603,-9.6994e-14,-1.0544e-16,119.94,-177.44,-68.061,-49.183,0,0.015817,0,1,2.92,0,-2.92,0
0,0,0,0,0,0,0.00011422,-0.00070252,-9.0138e-37,8.1666e-05,-6.353e-19,-7.0105e-22,4.8757,0.00077907,-0.00071065,6.2367e-34,0.00012234,-50.352,-175.81,-67.923,12.555,-9.7646e-14,-1.0886e-16,119.66,-177.06,-67.923,-49.102,0,0.015821,0,1,2.925,0,-2.925,0
0,0,0,0,0,0,0.00011389,-0.000701,-9.0473e-37,8.1358e-05,-6.3954e-19,-7.2326e-22,4.8594,0.00077728,-0.00070908,6.2862e-34,0.00012197,-50.264,-175.44,-67.784,12.508,-9.8299e-14,-1.1228e-16,119.39,-176.68,-67.784,-49.021,0,0.015824,0,1,2.93,0,-2.93,0
0,0,0,0,0,0,0.00011356,-0.00069947,-9.0807e-37,8.105e-05,-6.4379e-19,-7.4546e-22,4.8431,0.0007755,-0.00070751,6.3357e-34,0.0001216,-50.176,-175.07,-67.646,12.461,-9.8952e-14,-1.157e-16,119.12,-176.3,-67.646,-48.94,0,0.015828,0,1,2.935,0,-2.935,0
0,0,0,0,0,0,0.00011323,-0.00069794,-9.1142e-37,8.0741e-05,-6.4804e-19,-7.6767e-22,4.8268,0.00077371,-0.00070594,6.3851e-34,0.00012122,-50.089,-174.69,-67.508,12.413,-9.9605e-14,-1.1911e-16,118.84,-175.92,-67.508,-48.859,0,0.015832,0,1,2.94,0,-2.94,0
0,0,0,0,0,0,0.0001129,-0.00069642,-9.1476e-37,8.0433e-05,-6.5228e-19,-7.8987e-22,4.8105,0.00077193,-0.00070437,6.4346e-34,0.00012085,-50.001,-174.32,-67.369,12.366,-1.0026e-13,-1.2253e-16,118.57,-175.54,-67.369,-48.778,0,0.015836,0,1,2.945,0,-2.945,0
0,0,0,0,0,0,0.00011257,-0.00069489,-9.1811e-37,8.0124e-05,-6.5653e-19,-8.1208e-22,4.7942,0.00077014,-0.0007028,6.4841e-34,0.00012048,-49.913,-173.95,-67.231,12.319,-1.0091e-13,-1.2595e-16,118.3,-175.17,-67.231,-48.697,0,0.015839,0,1,2.95,0,-2.95,0
0,0,0,0,0,0,0.00011224,-0.00069337,-9.2145e-37,7.9816e-05,-6.6077e-19,-8.3428e-22,4.7779,0.00076836,-0.00070123,6.5336e-34,0.00012011,-49.826,-173.58,-67.093,12.271,-1.0156e-13,-1.2937e-16,118.02,-174.79,-67.093,-48.616,0,0.015843,0,1,2.955,0,-2.955,0
0,0,0,0,0,0,0.00011192,-0.00069184,-9.248e-37,7.9508e-05,-6.6502e-19,-8.5649e-22,4.7616,0.00076658,-0.00069966,6.5831e-34,0.00011973,-49.738,-173.2,-66.954,12.224,-1.0222e-13,-1.3279e-16,117.75,-174.41,-66.954,-48.535,0,0.015847,0,1,2.96,0,-2.96,0
0,0,0,0,0,0,0.00011159,-0.00069031,-9.2814e-37,7.9199e-05,-6.6927e-19,-8.787e-22,4.7453,0.00076479,-0.00069809,6.6326e-34,0.00011936,-49.65,-172.83,-66.816,12.176,-1.0287e-13,-1.3621e-16,117.48,-174.03,-66.816,-48.454,0,0.015851,0,1,2.965,0,-2.965,0
0,0,0,0,0,0,0.00011126,-0.00068879,-9.3149e-37,7.8891e-05,-6.7351e-19,-9.009e-22,4.729,0.00076301,-0.00069652,6.6821e-34,0.00011899,-49.563,-172.46,-66.678,12.129,-1.0352e-13,-1.3962e-16,117.2,-173.65,-66.678,-48.373,0,0.015855,0,1,2.97,0,-2.97,0
0,0,0,0,0,0,0.00011093,-0.00068726,-9.3483e-37,7.8583e-05,-6.7776e-19,-9.2311e-22,4.7127,0.00076122,-0.00069495,6.7315e-34,0.00011861,-49.475,-172.09,-66.54,12.082,-1.0417e-13,-1.4304e-16,116.93,-173.27,-66.54,-48.292,0,0.015858,0,1,2.975,0,-2.975,0
0,0,0,0,0,0,0.0001106,-0.00068573,-9.3818e-37,7.8274e-05,-6.82e-19,-9.4531e-22,4.6964,0.00075944,-0.00069338,6.781e-34,0.00011824,-49.387,-171.72,-66.401,12.034,-1.0483e-13,-1.4646e-16,116.65,-172.89,-66.401,-48.211,0,0.015862,0,1,2.98,0,-2.98,0
0,0,0,0,0,0,0.00011027,-0.00068421,-9.4152e-37,7.7966e-05,-6.8625e-19,-9.6752e-22,4.6801,0.00075765,-0.00069181,6.8305e-34,0.00011787,-49.3,-171.34,-66.263,11.987,-1.0548e-13,-1.4988e-16,116.38,-172.51,-66.263,-48.13,0,0.015866,0,1,2.985,0,-2.985,0
0,0,0,0,0,0,0.00010994,-0.00068268,-9.4487e-37,7.7658e-05,-6.905e-19,-9.8973e-22,4.6638,0.00075587,-0.00069024,6.88e-34,0.0001175,-49.212,-170.97,-66.125,11.939,-1.0613e-13,-1.533e-16,116.11,-172.13,-66.125,-48.049,0,0.01587,0,1,2.99,0,-2.99,0
0,0,0,0,0,0,0.00010961,-0.00068116,-9.4821e-37,7.7349e-05,-6.9474e-19,-1.0119e-21,4.6475,0.00075409,-0.00068867,6.9295e-34,0.00011712,-49.124,-170.6,-65.986,11.892,-1.0679e-13,-1.5672e-16,115.83,-171.75,-65.986,-47.969,0,0.015874,0,1,2.995,0,-2.995,0
0,0,0,0,0,0,0.00010928,-0.00067963,-9.5156e-37,7.7041e-05,-6.9899e-19,-1.0341e-21,4.6312,0.0007523,-0.0006871,6.979e-34,0.00011675,-49.037,-170.23,-65.848,11.845,-1.0744e-13,-1.6013e-16,115.56,-171.38,-65.848,-47.888,0,0.015877,0,1,3,0,-3,0
0,0,0,0,0,0,0.00010895,-0.0006781,-9.5491e-37,7.6732e-05,-7.0323e-19,-1.0563e-21,4.6149,0.00075052,-0.00068553,7.0284e-34,0.00011638,-48.949,-169.85,-65.71,11.797,-1.0809e-13,-1.6355e-16,115.29,-171,-65.71,-47.807,0,0.015881,0,1,3.005,0,-3.005,0
0,0,0,0,0,0,0.00010862,-0.00067658,-9.5825e-37,7.6424e-05,-7.0748e-19,-1.0785e-21,4.5986,0.00074873,-0.00068396,7.0779e-34,0.000116,-48.861,-169.48,-65.571,11.75,-1.0874e-13,-1.6697e-16,115.01,-170.62,-65.571,-47.726,0,0.015885,0,1,3.01,0,-3.01,0
0,0,0,0,0,0,0.0001083,-0.00067505,-9.616e-37,7.6116e-05,-7.1173e-19,-1.1008e-21,4.5823,0.00074695,-0.00068239,7.1274e-34,0.00011563,-48.773,-169.11,-65.433,11.702,-1.094e-13,-1.7039e-16,114.74,-170.24,-65.433,-47.645,0,0.015889,0,1,3.015,0,-3.015,0
0,0,0,0,0,0,0.00010797,-0.00067353,-9.6494e-37,7.5807e-05,-7.1597e-19,-1.123e-21,4.566,0.00074516,-0.00068082,7.1769e-34,0.00011526,-48.686,-168.74,-65.295,11.655,-1.1005e-13,-1.7381e-16,114.47,-169.86,-65.295,-47.564,0,0.015892,0,1,3.02,0,-3.02,0
0,0,0,0,0,0,0.00010764,-0.000672,-9.6829e-37,7.5499e-05,-7.2022e-19,-1.1452e-21,4.5497,0.00074338,-0.00067925,7.2264e-34,0.00011489,-48.598,-168.37,-65.156,11.608,-1.107e-13,-1.7723e-16,114.19,-169.48,-65.156,-47.483,0,0.015896,0,1,3.025,0,-3.025,0
0,0,0,0,0,0,0.00010731,-0.00067047,-9.7163e-37,7.5191e-05,-7.2447e-19,-1.1674e-21,4.5334,0.0007416,-0.00067768,7.2759e-34,0.00011451,-48.51,-167.99,-65.018,11.56,-1.1135e-13,-1.8064e-16,113.92,-169.1,-65.018,-47.402,0,0.0159,0,1,3.03,0,-3.03,0
0,0,0,0,0,0,0.00010701,-0.00066905,-9.7267e-37,7.4909e-05,-7.2709e-19,-1.1842e-21,4.5183,0.00073994,-0.00067622,7.3091e-34,0.00011417,-48.428,-167.65,-64.889,11.517,-1.1176e-13,-1.8324e-16,113.66,-168.75,-64.889,-47.325,0,0.015904,0,1,3.035,0,-3.035,0
0,0,0,0,0,0,0.00010683,-0.00066814,-9.6264e-37,7.4755e-05,-7.2194e-19,-1.1754e-21,4.5092,0.0007389,-0.00067529,7.2644e-34,0.00011398,-48.369,-167.42,-64.804,11.493,-1.1097e-13,-1.8186e-16,113.51,-168.52,-64.804,-47.27,0,0.015907,0,1,3.04,0,-3.04,0
0,0,0,0,0,0,0.00010666,-0.00066723,-9.526e-37,7.4601e-05,-7.1678e-19,-1.1665e-21,4.5002,0.00073786,-0.00067436,7.2197e-34,0.00011379,-48.311,-167.2,-64.718,11.47,-1.1017e-13,-1.8049e-16,113.35,-168.29,-64.718,-47.214,0,0.015909,0,1,3.045,0,-3.045,0
0,0,0,0,0,0,0.00010649,-0.00066632,-9.4256e-37,7.4447e-05,-7.1162e-19,-1.1576e-21,4.4911,0.00073682,-0.00067343,7.175e-34,0.00011359,-48.252,-166.97,-64.633,11.446,-1.0938e-13,-1.7911e-16,113.19,-168.07,-64.633,-47.158,0,0.015912,0,1,3.05,0,-3.05,0
0,0,0,0,0,0,0.00010631,-0.00066541,-9.3252e-37,7.4292e-05,-7.0646e-19,-1.1487e-21,4.482,0.00073578,-0.0006725,7.1302e-34,0.0001134,-48.194,-166.75,-64.548,11.422,-1.0859e-13,-1.7774e-16,113.03,-167.84,-64.548,-47.103,0,0.015915,0,1,3.055,0,-3.055,0
0,0,0,0,0,0,0.00010614,-0.0006645,-9.2248e-37,7.4138e-05,-7.013e-19,-1.1398e-21,4.4729,0.00073474,-0.00067157,7.0855e-34,0.00011321,-48.135,-166.52,-64.463,11.399,-1.0779e-13,-1.7636e-16,112.87,-167.61,-64.463,-47.047,0,0.015918,0,1,3.06,0,-3.06,0
0,0,0,0,0,0,0.00010597,-0.00066359,-9.1244e-37,7.3984e-05,-6.9614e-19,-1.131e-21,4.4638,0.0007337,-0.00067064,7.0408e-34,0.00011302,-48.077,-166.3,-64.378,11.375,-1.07e-13,-1.7499e-16,112.71,-167.38,-64.378,-46.991,0,0.015921,0,1,3.065,0,-3.065,0
0,0,0,0,0,0,0.00010579,-0.00066267,-9.024e-37,7.383e-05,-6.9098e-19,-1.1221e-21,4.4547,0.00073266,-0.00066971,6.9961e-34,0.00011282,-48.018,-166.07,-64.292,11.351,-1.0621e-13,-1.7361e-16,112.55,-167.15,-64.292,-46.936,0,0.015924,0,1,3.07,0,-3.07,0
0,0,0,0,0,0,0.00010562,-0.00066176,-8.9236e-37,7.3676e-05,-6.8583e-19,-1.1132e-21,4.4456,0.00073163,-0.00066878,6.9514e-34,0.00011263,-47.959,-165.85,-64.207,11.328,-1.0541e-13,-1.7223e-16,112.39,-166.93,-64.207,-46.88,0,0.015927,0,1,3.075,0,-3.075,0
0,0,0,0,0,0,0.00010544,-0.00066085,-8.8232e-37,7.3522e-05,-6.8067e-19,-1.1043e-21,4.4365,0.00073059,-0.00066785,6.9066e-34,0.00011244,-47.901,-165.62,-64.122,11.304,-1.0462e-13,-1.7086e-16,112.23,-166.7,-64.122,-46.825,0,0.01593,0,1,3.08,0,-3.08,0
0,0,0,0,0,0,0.00010527,-0.00065994,-8.7228e-37,7.3368e-05,-6.7551e-19,-1.0955e-21,4.4274,0.00072955,-0.00066692,6.8619e-34,0.00011225,-47.842,-165.4,-64.037,11.28,-1.0383e-13,-1.6948e-16,112.07,-166.47,-64.037,-46.769,0,0.015933,0,1,3.085,0,-3.085,0
0,0,0,0,0,0,0.0001051,-0.00065903,-8.6224e-37,7.3214e-05,-6.7035e-19,-1.0866e-21,4.4183,0.00072851,-0.00066599,6.8172e-34,0.00011206,-47.784,-165.17,-63.952,11.256,-1.0304e-13,-1.6811e-16,111.91,-166.24,-63.952,-46.713,0,0.015936,0,1,3.09,0,-3.09,0
0,0,0,0,0,0,0.00010492,-0.00065812,-8.522e-37,7.306e-05,-6.6519e-19,-1.0777e-21,4.4092,0.00072747,-0.00066506,6.7725e-34,0.00011186,-47.725,-164.95,-63.866,11.233,-1.0224e-13,-1.6673e-16,111.75,-166.02,-63.866,-46.658,0,0.015939,0,1,3.095,0,-3.095,0
0,0,0,0,0,0,0.00010475,-0.00065721,-8.4216e-37,7.2906e-05,-6.6003e-19,-1.0688e-21,4.4002,0.00072643,-0.00066413,6.7277e-34,0.00011167,-47.667,-164.72,-63.781,11.209,-1.0145e-13,-1.6536e-16,111.59,-165.79,-63.781,-46.602,0,0.015941,0,1,3.1,0,-3.1,0
0,0,0,0,0,0,0.00010458,-0.00065629,-8.3212e-37,7.2751e-05,-6.5488e-19,-1.06e-21,4.3911,0.00072539,-0.0006632,6.683e-34,0.00011148,-47.608,-164.5,-63.696,11.185,-1.0066e-13,-1.6398e-16,111.43,-165.56,-63.696,-46.546,0,0.015944,0,1,3.105,0,-3.105,0
0,0,0,0,0,0,0.0001044,-0.00065538,-8.2208e-37,7.2597e-05,-6.4972e-19,-1.0511e-21,4.382,0.00072435,-0.00066227,6.6383e-34,0.00011129,-47.55,-164.27,-63.611,11.162,-9.9864e-14,-1.6261e-16,111.27,-165.33,-63.611,-46.491,0,0.015947,0,1,3.11,0,-3.11,0
0,0,0,0,0,0,0.00010423,-0.00065447,-8.1204e-37,7.2443e-05,-6.4456e-19,-1.0422e-21,4.3729,0.00072331,-0.00066134,6.5936e-34,0.00011109,-47.491,-164.05,-63.525,11.138,-9.9071e-14,-1.6123e-16,111.11,-165.1,-63.525,-46.435,0,0.01595,0,1,3.115,0,-3.115,0
0,0,0,0,0,0,0.00010406,-0.00065356,-8.02e-37,7.2289e-05,-6.394e-19,-1.0333e-21,4.3638,0.00072227,-0.00066041,6.5488e-34,0.0001109,-47.433,-163.82,-63.44,11.114,-9.8278e-14,-1.5985e-16,110.95,-164.88,-63.44,-46.379,0,0.015953,0,1,3.12,0,-3.12,0
0,0,0,0,0,0,0.00010388,-0.00065265,-7.9196e-37,7.2135e-05,-6.3424e-19,-1.0245e-21,4.3547,0.00072123,-0.00065948,6.5041e-34,0.00011071,-47.374,-163.6,-63.355,11.091,-9.7485e-14,-1.5848e-16,110.79,-164.65,-63.355,-46.324,0,0.015956,0,1,3.125,0,-3.125,0
0,0,0,0,0,0,0.00010371,-0.00065174,-7.8192e-37,7.1981e-05,-6.2908e-19,-1.0156e-21,4.3456,0.00072019,-0.00065855,6.4594e-34,0.00011052,-47.316,-163.37,-63.27,11.067,-9.6692e-14,-1.571e-16,110.64,-164.42,-63.27,-46.268,0,0.015959,0,1,3.13,0,-3.13,0
0,0,0,0,0,0,0.00010354,-0.00065083,-7.7189e-37,7.1827e-05,-6.2392e-19,-1.0067e-21,4.3365,0.00071916,-0.00065762,6.4147e-34,0.00011033,-47.257,-163.15,-63.185,11.043,-9.5899e-14,-1.5573e-16,110.48,-164.19,-63.185,-46.212,0,0.015962,0,1,3.135,0,-3.135,0
0,0,0,0,0,0,0.00010336,-0.00064992,-7.6185e-37,7.1673e-05,-6.1877e-19,-9.9782e-22,4.3274,0.00071812,-0.00065669,6.3699e-34,0.00011013,-47.199,-162.92,-63.099,11.02,-9.5106e-14,-1.5435e-16,110.32,-163.96,-63.099,-46.157,0,0.015965,0,1,3.14,0,-3.14,0
0,0,0,0,0,0,0.00010319,-0.000649,-7.5181e-37,7.1519e-05,-6.1361e-19,-9.8894e-22,4.3183,0.00071708,-0.00065576,6.3252e-34,0.00010994,-47.14,-162.7,-63.014,10.996,-9.4313e-14,-1.5298e-16,110.16,-163.74,-63.014,-46.101,0,0.015968,0,1,3.145,0,-3.145,0
0,0,0,0,0,0,0.00010302,-0.00064809,-7.4177e-37,7.1365e-05,-6.0845e-19,-9.8007e-22,4.3092,0.00071604,-0.00065483,6.2805e-34,0.00010975,-47.081,-162.47,-62.929,10.972,-9.3521e-14,-1.516e-16,110,-163.51,-62.929,-46.045,0,0.015971,0,1,3.15,0,-3.15,0
0,0,0,0,0,0,0.00010284,-0.00064718,-7.3173e-37,7.121e-05,-6.0329e-19,-9.7119e-22,4.3002,0.000715,-0.0006539,6.2358e-34,0.00010956,-47.023,-162.25,-62.844,10.949,-9.2728e-14,-1.5023e-16,109.84,-163.28,-62.844,-45.99,0,0.015974,0,1,3.155,0,-3.155,0
0,0,0,0,0,0,0.00010267,-0.00064627,-7.2169e-37,7.1056e-05,-5.9813e-19,-9.6231e-22,4.2911,0.00071396,-0.00065297,6.191e-34,0.00010936,-46.964,-162.02,-62.758,10.925,-9.1935e-14,-1.4885e-16,109.68,-163.05,-62.758,-45.934,0,0.015976,0,1,3.16,0,-3.16,0
0,0,0,0,0,0,0.0001025,-0.00064536,-7.1165e-37,7.0902e-05,-5.9297e-19,-9.5344e-22,4.282,0.00071292,-0.00065204,6.1463e-34,0.00010917,-46.906,-161.8,-62.673,10.901,-9.1142e-14,-1.4748e-16,109.52,-162.82,-62.673,-45.879,0,0.015979,0,1,3.165,0,-3.165,0
0,0,0,0,0,0,0.00010232,-0.00064445,-7.0161e-37,7.0748e-05,-5.8782e-19,-9.4456e-22,4.2729,0.00071188,-0.00065111,6.1016e-34,0.00010898,-46.847,-161.57,-62.588,10.878,-9.0349e-14,-1.461e-16,109.36,-162.6,-62.588,-45.823,0,0.015982,0,1,3.17,0,-3.17,0
0,0,0,0,0,0,0.00010215,-0.00064354,-6.9157e-37,7.0594e-05,-5.8266e-19,-9.3568e-22,4.2638,0.00071084,-0.00065018,6.0569e-34,0.00010879,-46.789,-161.35,-62.503,10.854,-8.9556e-14,-1.4472e-16,109.2,-162.37,-62.503,-45.767,0,0.015985,0,1,3.175,0,-3.175,0
0,0,0,0,0,0,0.00010197,-0.00064262,-6.8153e-37,7.044e-05,-5.775e-19,-9.2681e-22,4.2547,0.0007098,-0.00064925,6.0121e-34,0.00010859,-46.73,-161.12,-62.418,10.83,-8.8763e-14,-1.4335e-16,109.04,-162.14,-62.418,-45.712,0,0.015988,0,1,3.18,0,-3.18,0
0,0,0,0,0,0,0.0001018,-0.00064171,-6.7149e-37,7.0286e-05,-5.7234e-19,-9.1793e-22,4.2456,0.00070876,-0.00064832,5.9674e-34,0.0001084,-46.672,-160.9,-62.332,10.806,-8.797e-14,-1.4197e-16,108.88,-161.91,-62.332,-45.656,0,0.015991,0,1,3.185,0,-3.185,0
0,0,0,0,0,0,0.00010163,-0.0006408,-6.6145e-37,7.0132e-05,-5.6718e-19,-9.0905e-22,4.2365,0.00070773,-0.00064739,5.9227e-34,0.00010821,-46.613,-160.67,-62.247,10.783,-8.7177e-14,-1.406e-16,108.72,-161.69,-62.247,-45.6,0,0.015994,0,1,3.19,0,-3.19,0
0,0,0,0,0,0,0.00010145,-0.00063989,-6.5141e-37,6.9978e-05,-5.6202e-19,-9.0018e-22,4.2274,0.00070669,-0.00064645,5.878e-34,0.00010802,-46.555,-160.45,-62.162,10.759,-8.6384e-14,-1.3922e-16,108.56,-161.46,-62.162,-45.545,0,0.015997,0,1,3.195,0,-3.195,0
0,0,0,0,0,0,0.00010128,-0.00063898,-6.4137e-37,6.9824e-05,-5.5687e-19,-8.913e-22,4.2183,0.00070565,-0.00064552,5.8332e-34,0.00010783,-46.496,-160.22,-62.077,10.735,-8.5591e-14,-1.3785e-16,108.4,-161.23,-62.077,-45.489,0,0.016,0,1,3.2,0,-3.2,0
0,0,0,0,0,0,0.00010111,-0.00063807,-6.3133e-37,6.9669e-05,-5.5171e-19,-8.8242e-22,4.2093,0.00070461,-0.00064459,5.7885e-34,0.00010763,-46.438,-160,-61.991,10.712,-8.4798e-14,-1.3647e-16,108.24,-161,-61.991,-45.433,0,0.016003,0,1,3.205,0,-3.205,0
0,0,0,0,0,0,0.00010093,-0.00063716,-6.2129e-37,6.9515e-05,-5.4655e-19,-8.7355e-22,4.2002,0.00070357,-0.00064366,5.7438e-34,0.00010744,-46.379,-159.77,-61.906,10.688,-8.4005e-14,-1.351e-16,108.08,-160.77,-61.906,-45.378,0,0.016006,0,1,3.21,0,-3.21,0
0,0,0,0,0,0,0.00010076,-0.00063625,-6.1125e-37,6.9361e-05,-5.4139e-19,-8.6467e-22,4.1911,0.00070253,-0.00064273,5.6991e-34,0.00010725,-46.321,-159.55,-61.821,10.664,-8.3212e-14,-1.3372e-16,107.92,-160.55,-61.821,-45.322,0,0.016009,0,1,3.215,0,-3.215,0
0,0,0,0,0,0,0.00010059,-0.00063533,-6.0121e-37,6.9207e-05,-5.3623e-19,-8.5579e-22,4.182,0.00070149,-0.0006418,5.6543e-34,0.00010706,-46.262,-159.32,-61.736,10.641,-8.2419e-14,-1.3234e-16,107.77,-160.32,-61.736,-45.266,0,0.016011,0,1,3.22,0,-3.22,0
0,0,0,0,0,0,0.00010041,-0.00063442,-5.9118e-37,6.9053e-05,-5.3107e-19,-8.4692e-22,4.1729,0.00070045,-0.00064087,5.6096e-34,0.00010686,-46.204,-159.1,-61.651,10.617,-8.1626e-14,-1.3097e-16,107.61,-160.09,-61.651,-45.211,0,0.016014,0,1,3.225,0,-3.225,0
0,0,0,0,0,0,0.00010024,-0.00063351,-5.8114e-37,6.8899e-05,-5.2591e-19,-8.3804e-22,4.1638,0.00069941,-0.00063994,5.5649e-34,0.00010667,-46.145,-158.87,-61.565,10.593,-8.0833e-14,-1.2959e-16,107.45,-159.86,-61.565,-45.155,0,0.016017,0,1,3.23,0,-3.23,0
0,0,0,0,0,0,0.00010007,-0.0006326,-5.711e-37,6.8745e-05,-5.2076e-19,-8.2916e-22,4.1547,0.00069837,-0.00063901,5.5202e-34,0.00010648,-46.086,-158.65,-61.48,10.57,-8.004e-14,-1.2822e-16,107.29,-159.63,-61.48,-45.1,0,0.01602,0,1,3.235,0,-3.235,0
0,0,0,0,0,0,9.9892e-05,-0.00063169,-5.6106e-37,6.8591e-05,-5.156e-19,-8.2028e-22,4.1456,0.00069733,-0.00063808,5.4754e-34,0.00010629,-46.028,-158.42,-61.395,10.546,-7.9247e-14,-1.2684e-16,107.13,-159.41,-61.395,-45.044,0,0.016023,0,1,3.24,0,-3.24,0
0,0,0,0,0,0,9.9719e-05,-0.00063078,-5.5102e-37,6.8437e-05,-5.1044e-19,-8.1141e-22,4.1365,0.00069629,-0.00063715,5.4307e-34,0.0001061,-45.969,-158.2,-61.31,10.522,-7.8454e-14,-1.2547e-16,106.97,-159.18,-61.31,-44.988,0,0.016026,0,1,3.245,0,-3.245,0
0,0,0,0,0,0,9.9545e-05,-0.00062987,-5.4098e-37,6.8283e-05,-5.0528e-19,-8.0253e-22,4.1274,0.00069526,-0.00063622,5.386e-34,0.0001059,-45.911,-157.97,-61.224,10.499,-7.7661e-14,-1.2409e-16,106.81,-158.95,-61.224,-44.933,0,0.016029,0,1,3.25,0,-3.25,0
0,0,0,0,0,0,9.9372e-05,-0.00062895,-5.3094e-37,6.8128e-05,-5.0012e-19,-7.9365e-22,4.1183,0.00069422,-0.00063529,5.3413e-34,0.00010571,-45.852,-157.75,-61.139,10.475,-7.6868e-14,-1.2272e-16,106.65,-158.72,-61.139,-44.877,0,0.016032,0,1,3.255,0,-3.255,0
0,0,0,0,0,0,9.9198e-05,-0.00062804,-5.209e-37,6.7974e-05,-4.9496e-19,-7.8478e-22,4.1093,0.00069318,-0.00063436,5.2965e-34,0.00010552,-45.794,-157.52,-61.054,10.451,-7.6075e-14,-1.2134e-16,106.49,-158.49,-61.054,-44.821,0,0.016035,0,1,3.26,0,-3.26,0
0,0,0,0,0,0,9.9025e-05,-0.00062713,-5.1086e-37,6.782e-05,-4.8981e-19,-7.759e-22,4.1002,0.00069214,-0.00063343,5.2518e-34,0.00010533,-45.735,-157.3,-60.969,10.427,-7.5282e-14,-1.1997e-16,106.33,-158.27,-60.969,-44.766,0,0.016038,0,1,3.265,0,-3.265,0
0,0,0,0,0,0,9.8851e-05,-0.00062622,-5.0082e-37,6.7666e-05,-4.8465e-19,-7.6702e-22,4.0911,0.0006911,-0.0006325,5.2071e-34,0.00010513,-45.677,-157.07,-60.884,10.404,-7.4489e-14,-1.1859e-16,106.17,-158.04,-60.884,-44.71,0,0.016041,0,1,3.27,0,-3.27,0
0,0,0,0,0,0,9.8678e-05,-0.00062531,-4.9078e-37,6.7512e-05,-4.7949e-19,-7.5815e-22,4.082,0.00069006,-0.00063157,5.1624e-34,0.00010494,-45.618,-156.85,-60.798,10.38,-7.3696e-14,-1.1721e-16,106.01,-157.81,-60.798,-44.654,0,0.016043,0,1,3.275,0,-3.275,0
0,0,0,0,0,0,9.8504e-05,-0.0006244,-4.8074e-37,6.7358e-05,-4.7433e-19,-7.4927e-22,4.0729,0.00068902,-0.00063064,5.1176e-34,0.00010475,-45.56,-156.62,-60.713,10.356,-7.2904e-14,-1.1584e-16,105.85,-157.58,-60.713,-44.599,0,0.016046,0,1,3.28,0,-3.28,0
0,0,0,0,0,0,9.8331e-05,-0.00062349,-4.707e-37,6.7204e-05,-4.6917e-19,-7.4039e-22,4.0638,0.00068798,-0.00062971,5.0729e-34,0.00010456,-45.501,-156.4,-60.628,10.333,-7.2111e-14,-1.1446e-16,105.69,-157.36,-60.628,-44.543,0,0.016049,0,1,3.285,0,-3.285,0
0,0,0,0,0,0,9.8157e-05,-0.00062258,-4.6066e-37,6.705e-05,-4.6401e-19,-7.3152e-22,4.0547,0.00068694,-0.00062878,5.0282e-34,0.00010437,-45.443,-156.17,-60.543,10.309,-7.1318e-14,-1.1309e-16,105.53,-157.13,-60.543,-44.487,0,0.016052,0,1,3.29,0,-3.29,0
0,0,0,0,0,0,9.7984e-05,-0.00062166,-4.5062e-37,6.6896e-05,-4.5885e-19,-7.2264e-22,4.0456,0.0006859,-0.00062785,4.9835e-34,0.00010417,-45.384,-155.95,-60.457,10.285,-7.0525e-14,-1.1171e-16,105.37,-156.9,-60.457,-44.432,0,0.016055,0,1,3.295,0,-3.295,0
0,0,0,0,0,0,9.781e-05,-0.00062075,-4.4058e-37,6.6742e-05,-4.537e-19,-7.1376e-22,4.0365,0.00068486,-0.00062692,4.9387e-34,0.00010398,-45.326,-155.72,-60.372,10.262,-6.9732e-14,-1.1034e-16,105.21,-156.67,-60.372,-44.376,0,0.016058,0,1,3.3,0,-3.3,0
0,0,0,0,0,0,9.7637e-05,-0.00061984,-4.3054e-37,6.6587e-05,-4.4854e-19,-7.0489e-22,4.0274,0.00068382,-0.00062599,4.894e-34,0.00010379,-45.267,-155.5,-60.287,10.238,-6.8939e-14,-1.0896e-16,105.05,-156.44,-60.287,-44.321,0,0.016061,0,1,3.305,0,-3.305,0
0,0,0,0,0,0,9.7463e-05,-0.00061893,-4.205e-37,6.6433e-05,-4.4338e-19,-6.9601e-22,4.0183,0.00068279,-0.00062506,4.8493e-34,0.0001036,-45.208,-155.27,-60.202,10.214,-6.8146e-14,-1.0759e-16,104.9,-156.22,-60.202,-44.265,0,0.016064,0,1,3.31,0,-3.31,0
0,0,0,0,0,0,9.729e-05,-0.00061802,-4.1046e-37,6.6279e-05,-4.3822e-19,-6.8713e-22,4.0093,0.00068175,-0.00062413,4.8046e-34,0.0001034,-45.15,-155.05,-60.117,10.191,-6.7353e-14,-1.0621e-16,104.74,-155.99,-60.117,-44.209,0,0.016067,0,1,3.315,0,-3.315,0
0,0,0,0,0,0,9.7116e-05,-0.00061711,-4.0043e-37,6.6125e-05,-4.3306e-19,-6.7826e-22,4.0002,0.00068071,-0.0006232,4.7598e-34,0.00010321,-45.091,-154.82,-60.031,10.167,-6.656e-14,-1.0483e-16,104.58,-155.76,-60.031,-44.154,0,0.01607,0,1,3.32,0,-3.32,0
0,0,0,0,0,0,9.6943e-05,-0.0006162,-3.9039e-37,6.5971e-05,-4.279e-19,-6.6938e-22,3.9911,0.00067967,-0.00062227,4.7151e-34,0.00010302,-45.033,-154.6,-59.946,10.143,-6.5767e-14,-1.0346e-16,104.42,-155.53,-59.946,-44.098,0,0.016073,0,1,3.325,0,-3.325,0
0,0,0,0,0,0,9.6769e-05,-0.00061529,-3.8035e-37,6.5817e-05,-4.2275e-19,-6.605e-22,3.982,0.00067863,-0.00062134,4.6704e-34,0.00010283,-44.974,-154.37,-59.861,10.12,-6.4974e-14,-1.0208e-16,104.26,-155.3,-59.861,-44.042,0,0.016076,0,1,3.33,0,-3.33,0
0,0,0,0,0,0,9.6596e-05,-0.00061437,-3.7031e-37,6.5663e-05,-4.1759e-19,-6.5163e-22,3.9729,0.00067759,-0.00062041,4.6257e-34,0.00010263,-44.916,-154.15,-59.776,10.096,-6.4181e-14,-1.0071e-16,104.1,-155.08,-59.776,-43.987,0,0.016078,0,1,3.335,0,-3.335,0
0,0,0,0,0,0,9.6422e-05,-0.00061346,-3.6027e-37,6.5509e-05,-4.1243e-19,-6.4275e-22,3.9638,0.00067655,-0.00061948,4.5809e-34,0.00010244,-44.857,-153.92,-59.69,10.072,-6.3388e-14,-9.9332e-17,103.94,-154.85,-59.69,-43.931,0,0.016081,0,1,3.34,0,-3.34,0
0,0,0,0,0,0,9.6249e-05,-0.00061255,-3.5023e-37,6.5355e-05,-4.0727e-19,-6.3387e-22,3.9547,0.00067551,-0.00061855,4.5362e-34,0.00010225,-44.799,-153.7,-59.605,10.048,-6.2595e-14,-9.7957e-17,103.78,-154.62,-59.605,-43.875,0,0.016084,0,1,3.345,0,-3.345,0
0,0,0,0,0,0,9.6075e-05,-0.00061164,-3.4019e-37,6.5201e-05,-4.0211e-19,-6.25e-22,3.9456,0.00067447,-0.00061762,4.4915e-34,0.00010206,-44.74,-153.47,-59.52,10.025,-6.1802e-14,-9.6581e-17,103.62,-154.39,-59.52,-43.82,0,0.016087,0,1,3.35,0,-3.35,0
0,0,0,0,0,0,9.5902e-05,-0.00061073,-3.3015e-37,6.5047e-05,-3.9695e-19,-6.1612e-22,3.9365,0.00067343,-0.00061669,4.4468e-34,0.00010187,-44.682,-153.25,-59.435,10.001,-6.1009e-14,-9.5206e-17,103.46,-154.17,-59.435,-43.764,0,0.01609,0,1,3.355,0,-3.355,0
0,0,0,0,0,0,9.5728e-05,-0.00060982,-3.2011e-37,6.4892e-05,-3.9179e-19,-6.0724e-22,3.9274,0.00067239,-0.00061576,4.402e-34,0.00010167,-44.623,-153.02,-59.35,9.9774,-6.0216e-14,-9.383e-17,103.3,-153.94,-59.35,-43.708,0,0.016093,0,1,3.36,0,-3.36,0
0,0,0,0,0,0,9.5555e-05,-0.00060891,-3.1007e-37,6.4738e-05,-3.8664e-19,-5.9837e-22,3.9183,0.00067135,-0.00061483,4.3573e-34,0.00010148,-44.565,-152.8,-59.264,9.9538,-5.9423e-14,-9.2455e-17,103.14,-153.71,-59.264,-43.653,0,0.016096,0,1,3.365,0,-3.365,0
0,0,0,0,0,0,9.5381e-05,-0.00060799,-3.0003e-37,6.4584e-05,-3.8148e-19,-5.8949e-22,3.9093,0.00067032,-0.0006139,4.3126e-34,0.00010129,-44.506,-152.57,-59.179,9.9301,-5.863e-14,-9.1079e-17,102.98,-153.48,-59.179,-43.597,0,0.016099,0,1,3.37,0,-3.37,0
0,0,0,0,0,0,9.5208e-05,-0.00060708,-2.8999e-37,6.443e-05,-3.7632e-19,-5.8061e-22,3.9002,0.00066928,-0.00061297,4.2679e-34,0.0001011,-44.448,-152.35,-59.094,9.9064,-5.7837e-14,-8.9704e-17,102.82,-153.25,-59.094,-43.541,0,0.016102,0,1,3.375,0,-3.375,0
0,0,0,0,0,0,9.5034e-05,-0.00060617,-2.7995e-37,6.4276e-05,-3.7116e-19,-5.7173e-22,3.8911,0.00066824,-0.00061204,4.2231e-34,0.0001009,-44.389,-152.12,-59.009,9.8827,-5.7044e-14,-8.8328e-17,102.66,-153.03,-59.009,-43.486,0,0.016105,0,1,3.38,0,-3.38,0
0,0,0,0,0,0,9.4861e-05,-0.00060526,-2.6991e-37,6.4122e-05,-3.66e-19,-5.6286e-22,3.882,0.0006672,-0.00061111,4.1784e-34,0.00010071,-44.33,-151.9,-58.923,9.859,-5.6251e-14,-8.6953e-17,102.5,-152.8,-58.923,-43.43,0,0.016108,0,1,3.385,0,-3.385,0
0,0,0,0,0,0,9.4687e-05,-0.00060435,-2.5987e-37,6.3968e-05,-3.6084e-19,-5.5398e-22,3.8729,0.00066616,-0.00061018,4.1337e-34,0.00010052,-44.272,-151.67,-58.838,9.8353,-5.5458e-14,-8.5577e-17,102.34,-152.57,-58.838,-43.375,0,0.016111,0,1,3.39,0,-3.39,0
0,0,0,0,0,0,9.4514e-05,-0.00060344,-2.4983e-37,6.3814e-05,-3.5569e-19,-5.451e-22,3.8638,0.00066512,-0.00060925,4.089e-34,0.00010033,-44.213,-151.45,-58.753,9.8116,-5.4665e-14,-8.4202e-17,102.18,-152.34,-58.753,-43.319,0,0.016113,0,1,3.395,0,-3.395,0
0,0,0,0,0,0,9.434e-05,-0.00060253,-2.3979e-37,6.366e-05,-3.5053e-19,-5.3623e-22,3.8547,0.00066408,-0.00060832,4.0442e-34,0.00010014,-44.155,-151.22,-58.668,9.788,-5.3872e-14,-8.2826e-17,102.03,-152.11,-58.668,-43.263,0,0.016116,0,1,3.4,0,-3.4,0
0,0,0,0,0,0,9.4167e-05,-0.00060162,-2.2975e-37,6.3506e-05,-3.4537e-19,-5.2735e-22,3.8456,0.00066304,-0.00060739,3.9995e-34,9.9943e-05,-44.096,-151,-58.583,9.7643,-5.308e-14,-8.1451e-17,101.87,-151.89,-58.583,-43.208,0,0.016119,0,1,3.405,0,-3.405,0
0,0,0,0,0,0,9.3993e-05,-0.0006007,-2.1972e-37,6.3351e-05,-3.4021e-19,-5.1847e-22,3.8365,0.000662,-0.00060646,3.9548e-34,9.9751e-05,-44.038,-150.77,-58.497,9.7406,-5.2287e-14,-8.0075e-17,101.71,-151.66,-58.497,-43.152,0,0.016122,0,1,3.41,0,-3.41,0
0,0,0,0,0,0,9.382e-05,-0.00059979,-2.0968e-37,6.3197e-05,-3.3505e-19,-5.096e-22,3.8274,0.00066096,-0.00060553,3.9101e-34,9.9558e-05,-43.979,-150.55,-58.412,9.7169,-5.1494e-14,-7.87e-17,101.55,-151.43,-58.412,-43.096,0,0.016125,0,1,3.415,0,-3.415,0
0,0,0,0,0,0,9.3646e-05,-0.00059888,-1.9964e-37,6.3043e-05,-3.2989e-19,-5.0072e-22,3.8183,0.00065992,-0.0006046,3.8653e-34,9.9366e-05,-43.921,-150.32,-58.327,9.6932,-5.0701e-14,-7.7324e-17,101.39,-151.2,-58.327,-43.041,0,0.016128,0,1,3.42,0,-3.42,0
0,0,0,0,0,0,9.3473e-05,-0.00059797,-1.896e-37,6.2889e-05,-3.2473e-19,-4.9184e-22,3.8093,0.00065888,-0.00060367,3.8206e-34,9.9174e-05,-43.862,-150.1,-58.242,9.6695,-4.9908e-14,-7.5949e-17,101.23,-150.97,-58.242,-42.985,0,0.016131,0,1,3.425,0,-3.425,0
0,0,0,0,0,0,9.3299e-05,-0.00059706,-1.7956e-37,6.2735e-05,-3.1958e-19,-4.8297e-22,3.8002,0.00065785,-0.00060274,3.7759e-34,9.8982e-05,-43.804,-149.87,-58.156,9.6458,-4.9115e-14,-7.4573e-17,101.07,-150.75,-58.156,-42.929,0,0.016134,0,1,3.43,0,-3.43,0
0,0,0,0,0,0,9.3126e-05,-0.00059615,-1.6952e-37,6.2581e-05,-3.1442e-19,-4.7409e-22,3.7911,0.00065681,-0.00060181,3.7312e-34,9.8789e-05,-43.745,-149.65,-58.071,9.6221,-4.8322e-14,-7.3198e-17,100.91,-150.52,-58.071,-42.874,0,0.016137,0,1,3.435,0,-3.435,0
0,0,0,0,0,0,9.2952e-05,-0.00059524,-1.5948e-37,6.2427e-05,-3.0926e-19,-4.6521e-22,3.782,0.00065577,-0.00060088,3.6864e-34,9.8597e-05,-43.687,-149.42,-57.986,9.5985,-4.7529e-14,-7.1822e-17,100.75,-150.29,-57.986,-42.818,0,0.01614,0,1,3.44,0,-3.44,0
0,0,0,0,0,0,9.2779e-05,-0.00059432,-1.4944e-37,6.2273e-05,-3.041e-19,-4.5634e-22,3.7729,0.00065473,-0.00059995,3.6417e-34,9.8405e-05,-43.628,-149.2,-57.901,9.5748,-4.6736e-14,-7.0447e-17,100.59,-150.06,-57.901,-42.762,0,0.016143,0,1,3.445,0,-3.445,0
0,0,0,0,0,0,9.2605e-05,-0.00059341,-1.394e-37,6.2119e-05,-2.9894e-19,-4.4746e-22,3.7638,0.00065369,-0.00059902,3.597e-34,9.8212e-05,-43.57,-148.97,-57.816,9.5511,-4.5943e-14,-6.9071e-17,100.43,-149.84,-57.816,-42.707,0,0.016146,0,1,3.45,0,-3.45,0
0,0,0,0,0,0,9.2432e-05,-0.0005925,-1.2936e-37,6.1965e-05,-2.9378e-19,-4.3858e-22,3.7547,0.00065265,-0.00059809,3.5523e-34,9.802e-05,-43.511,-148.75,-57.73,9.5274,-4.515e-14,-6.7696e-17,100.27,-149.61,-57.73,-42.651,0,0.016148,0,1,3.455,0,-3.455,0
0,0,0,0,0,0,9.2258e-05,-0.00059159,-1.1932e-37,6.181e-05,-2.8863e-19,-4.2971e-22,3.7456,0.00065161,-0.00059716,3.5076e-34,9.7828e-05,-43.453,-148.52,-57.645,9.5037,-4.4357e-14,-6.632e-17,100.11,-149.38,-57.645,-42.596,0,0.016151,0,1,3.46,0,-3.46,0
0,0,0,0,0,0,9.2085e-05,-0.00059068,-1.0928e-37,6.1656e-05,-2.8347e-19,-4.2083e-22,3.7365,0.00065057,-0.00059623,3.4628e-34,9.7636e-05,-43.394,-148.3,-57.56,9.48,-4.3564e-14,-6.4945e-17,99.952,-149.15,-57.56,-42.54,0,0.016154,0,1,3.465,0,-3.465,0
0,0,0,0,0,0,9.1911e-05,-0.00058977,-9.9242e-38,6.1502e-05,-2.7831e-19,-4.1195e-22,3.7274,0.00064953,-0.0005953,3.4181e-34,9.7443e-05,-43.335,-148.07,-57.475,9.4563,-4.2771e-14,-6.3569e-17,99.793,-148.92,-57.475,-42.484,0,0.016157,0,1,3.47,0,-3.47,0
0,0,0,0,0,0,9.1738e-05,-0.00058886,-8.9203e-38,6.1348e-05,-2.7315e-19,-4.0308e-22,3.7183,0.00064849,-0.00059437,3.3734e-34,9.7251e-05,-43.277,-147.85,-57.389,9.4327,-4.1978e-14,-6.2194e-17,99.634,-148.7,-57.389,-42.429,0,0.01616,0,1,3.475,0,-3.475,0
0,0,0,0,0,0,9.1564e-05,-0.00058795,-7.9163e-38,6.1194e-05,-2.6799e-19,-3.942e-22,3.7093,0.00064745,-0.00059344,3.3287e-34,9.7059e-05,-43.218,-147.62,-57.304,9.409,-4.1185e-14,-6.0818e-17,99.474,-148.47,-57.304,-42.373,0,0.016163,0,1,3.48,0,-3.48,0
0,0,0,0,0,0,9.1391e-05,-0.00058703,-6.9124e-38,6.104e-05,-2.6283e-19,-3.8532e-22,3.7002,0.00064641,-0.00059251,3.2839e-34,9.6867e-05,-43.16,-147.4,-57.219,9.3853,-4.0392e-14,-5.9443e-17,99.315,-148.24,-57.219,-42.317,0,0.016166,0,1,3.485,0,-3.485,0
0,0,0,0,0,0,9.1217e-05,-0.00058612,-5.9084e-38,6.0886e-05,-2.5768e-19,-3.7645e-22,3.6911,0.00064538,-0.00059158,3.2392e-34,9.6674e-05,-43.101,-147.17,-57.134,9.3616,-3.9599e-14,-5.8067e-17,99.155,-148.01,-57.134,-42.262,0,0.016169,0,1,3.49,0,-3.49,0
0,0,0,0,0,0,9.1044e-05,-0.00058521,-4.9045e-38,6.0732e-05,-2.5252e-19,-3.6757e-22,3.682,0.00064434,-0.00059065,3.1945e-34,9.6482e-05,-43.043,-146.95,-57.049,9.3379,-3.8806e-14,-5.6692e-17,98.996,-147.78,-57.049,-42.206,0,0.016172,0,1,3.495,0,-3.495,0
0,0,0,0,0,0,9.087e-05,-0.0005843,-3.9005e-38,6.0578e-05,-2.4736e-19,-3.5869e-22,3.6729,0.0006433,-0.00058972,3.1498e-34,9.629e-05,-42.984,-146.72,-56.963,9.3142,-3.8013e-14,-5.5316e-17,98.836,-147.56,-56.963,-42.15,0,0.016175,0,1,3.5,0,-3.5,0
0,0,0,0,0,0,9.0697e-05,-0.00058339,-2.8965e-38,6.0424e-05,-2.422e-19,-3.4981e-22,3.6638,0.00064226,-0.00058879,3.105e-34,9.6098e-05,-42.926,-146.5,-56.878,9.2905,-3.722e-14,-5.3941e-17,98.677,-147.33,-56.878,-42.095,0,0.016178,0,1,3.505,0,-3.505,0
0,0,0,0,0,0,9.0523e-05,-0.00058248,-1.8926e-38,6.0269e-05,-2.3704e-19,-3.4094e-22,3.6547,0.00064122,-0.00058786,3.0603e-34,9.5905e-05,-42.867,-146.27,-56.793,9.2669,-3.6427e-14,-5.2565e-17,98.517,-147.1,-56.793,-42.039,0,0.01618,0,1,3.51,0,-3.51,0
0,0,0,0,0,0,9.035e-05,-0.00058157,-8.8865e-39,6.0115e-05,-2.3188e-19,-3.3206e-22,3.6456,0.00064018,-0.00058693,3.0156e-34,9.5713e-05,-42.809,-146.05,-56.708,9.2432,-3.5634e-14,-5.119e-17,98.358,-146.87,-56.708,-41.983,0,0.016183,0,1,3.515,0,-3.515,0
0,0,0,0,0,0,9.0176e-05,-0.00058065,1.1527e-39,5.9961e-05,-2.2672e-19,-3.2318e-22,3.6365,0.00063914,-0.000586,2.9709e-34,9.5521e-05,-42.75,-145.82,-56.622,9.2195,-3.4841e-14,-4.9814e-17,98.198,-146.64,-56.622,-41.928,0,0.016186,0,1,3.52,0,-3.52,0
0,0,0,0,0,0,9.0003e-05,-0.00057974,1.1192e-38,5.9807e-05,-2.2157e-19,-3.1431e-22,3.6274,0.0006381,-0.00058507,2.9261e-34,9.5328e-05,-42.692,-145.6,-56.537,9.1958,-3.4048e-14,-4.8439e-17,98.039,-146.42,-56.537,-41.872,0,0.016189,0,1,3.525,0,-3.525,0
0,0,0,0,0,0,8.9829e-05,-0.00057883,2.1232e-38,5.9653e-05,-2.1641e-19,-3.0543e-22,3.6183,0.00063706,-0.00058414,2.8814e-34,9.5136e-05,-42.633,-145.37,-56.452,9.1721,-3.3255e-14,-4.7063e-17,97.88,-146.19,-56.452,-41.816,0,0.016192,0,1,3.53,0,-3.53,0
0,0,0,0,0,0,8.9656e-05,-0.00057792,3.1271e-38,5.9499e-05,-2.1125e-19,-2.9655e-22,3.6093,0.00063602,-0.00058321,2.8367e-34,9.4944e-05,-42.575,-145.15,-56.367,9.1484,-3.2463e-14,-4.5688e-17,97.72,-145.96,-56.367,-41.761,0,0.016195,0,1,3.535,0,-3.535,0
0,0,0,0,0,0,8.9482e-05,-0.00057701,4.1311e-38,5.9345e-05,-2.0609e-19,-2.8768e-22,3.6002,0.00063498,-0.00058228,2.792e-34,9.4752e-05,-42.516,-144.92,-56.282,9.1247,-3.167e-14,-4.4312e-17,97.561,-145.73,-56.282,-41.705,0,0.016198,0,1,3.54,0,-3.54,0
0,0,0,0,0,0,8.9309e-05,-0.0005761,5.135e-38,5.9191e-05,-2.0093e-19,-2.788e-22,3.5911,0.00063394,-0.00058135,2.7472e-34,9.4559e-05,-42.457,-144.7,-56.196,9.1011,-3.0877e-14,-4.2937e-17,97.401,-145.51,-56.196,-41.65,0,0.016201,0,1,3.545,0,-3.545,0
0,0,0,0,0,0,8.9135e-05,-0.00057519,6.1389e-38,5.9037e-05,-1.9577e-19,-2.6992e-22,3.582,0.00063291,-0.00058042,2.7025e-34,9.4367e-05,-42.399,-144.47,-56.111,9.0774,-3.0084e-14,-4.1561e-17,97.242,-145.28,-56.111,-41.594,0,0.016204,0,1,3.55,0,-3.55,0
0,0,0,0,0,0,8.8962e-05,-0.00057428,7.1429e-38,5.8883e-05,-1.9062e-19,-2.6105e-22,3.5729,0.00063187,-0.00057949,2.6578e-34,9.4175e-05,-42.34,-144.25,-56.026,9.0537,-2.9291e-14,-4.0186e-17,97.082,-145.05,-56.026,-41.538,0,0.016207,0,1,3.555,0,-3.555,0
0,0,0,0,0,0,8.8788e-05,-0.00057336,8.1468e-38,5.8728e-05,-1.8546e-19,-2.5217e-22,3.5638,0.00063083,-0.00057856,2.6131e-34,9.3983e-05,-42.282,-144.02,-55.941,9.03,-2.8498e-14,-3.881e-17,96.923,-144.82,-55.941,-41.483,0,0.01621,0,1,3.56,0,-3.56,0
0,0,0,0,0,0,8.8615e-05,-0.00057245,9.1508e-38,5.8574e-05,-1.803e-19,-2.4329e-22,3.5547,0.00062979,-0.00057763,2.5683e-34,9.379e-05,-42.223,-143.8,-55.855,9.0063,-2.7705e-14,-3.7435e-17,96.763,-144.59,-55.855,-41.427,0,0.016213,0,1,3.565,0,-3.565,0
0,0,0,0,0,0,8.8441e-05,-0.00057154,1.0155e-37,5.842e-05,-1.7514e-19,-2.3442e-22,3.5456,0.00062875,-0.0005767,2.5236e-34,9.3598e-05,-42.165,-143.57,-55.77,8.9826,-2.6912e-14,-3.6059e-17,96.604,-144.37,-55.77,-41.371,0,0.016215,0,1,3.57,0,-3.57,0
0,0,0,0,0,0,8.8268e-05,-0.00057063,1.1159e-37,5.8266e-05,-1.6998e-19,-2.2554e-22,3.5365,0.00062771,-0.00057577,2.4789e-34,9.3406e-05,-42.106,-143.35,-55.685,8.9589,-2.6119e-14,-3.4684e-17,96.445,-144.14,-55.685,-41.316,0,0.016218,0,1,3.575,0,-3.575,0
0,0,0,0,0,0,8.8094e-05,-0.00056972,1.2163e-37,5.8112e-05,-1.6482e-19,-2.1666e-22,3.5274,0.00062667,-0.00057484,2.4342e-34,9.3214e-05,-42.048,-143.12,-55.6,8.9353,-2.5326e-14,-3.3308e-17,96.285,-143.91,-55.6,-41.26,0,0.016221,0,1,3.58,0,-3.58,0
0,0,0,0,0,0,8.7921e-05,-0.00056881,1.3167e-37,5.7958e-05,-1.5966e-19,-2.0779e-22,3.5184,0.00062563,-0.00057391,2.3894e-34,9.3021e-05,-41.989,-142.9,-55.515,8.9116,-2.4533e-14,-3.1933e-17,96.126,-143.68,-55.515,-41.204,0,0.016224,0,1,3.585,0,-3.585,0
0,0,0,0,0,0,8.7747e-05,-0.0005679,1.417e-37,5.7804e-05,-1.5451e-19,-1.9891e-22,3.5093,0.00062459,-0.00057298,2.3447e-34,9.2829e-05,-41.931,-142.67,-55.429,8.8879,-2.374e-14,-3.0557e-17,95.966,-143.45,-55.429,-41.149,0,0.016227,0,1,3.59,0,-3.59,0
0,0,0,0,0,0,8.7574e-05,-0.00056698,1.5174e-37,5.765e-05,-1.4935e-19,-1.9003e-22,3.5002,0.00062355,-0.00057205,2.3e-34,9.2637e-05,-41.872,-142.45,-55.344,8.8642,-2.2947e-14,-2.9181e-17,95.807,-143.23,-55.344,-41.093,0,0.01623,0,1,3.595,0,-3.595,0
0,0,0,0,0,0,8.74e-05,-0.00056607,1.6178e-37,5.7496e-05,-1.4419e-19,-1.8116e-22,3.4911,0.00062251,-0.00057112,2.2553e-34,9.2444e-05,-41.814,-142.22,-55.259,8.8405,-2.2154e-14,-2.7806e-17,95.647,-143,-55.259,-41.037,0,0.016233,0,1,3.6,0,-3.6,0
0,0,0,0,0,0,8.7227e-05,-0.00056516,1.7182e-37,5.7342e-05,-1.3903e-19,-1.7228e-22,3.482,0.00062147,-0.00057019,2.2105e-34,9.2252e-05,-41.755,-142,-55.174,8.8168,-2.1361e-14,-2.643e-17,95.488,-142.77,-55.174,-40.982,0,0.016236,0,1,3.605,0,-3.605,0
0,0,0,0,0,0,8.7053e-05,-0.00056425,1.8186e-37,5.7188e-05,-1.3387e-19,-1.634e-22,3.4729,0.00062044,-0.00056926,2.1658e-34,9.206e-05,-41.697,-141.77,-55.088,8.7931,-2.0568e-14,-2.5055e-17,95.328,-142.54,-55.088,-40.926,0,0.016239,0,1,3.61,0,-3.61,0
0,0,0,0,0,0,8.688e-05,-0.00056334,1.919e-37,5.7033e-05,-1.2871e-19,-1.5453e-22,3.4638,0.0006194,-0.00056833,2.1211e-34,9.1868e-05,-41.638,-141.55,-55.003,8.7695,-1.9775e-14,-2.3679e-17,95.169,-142.31,-55.003,-40.871,0,0.016242,0,1,3.615,0,-3.615,0
0,0,0,0,0,0,8.6706e-05,-0.00056243,2.0194e-37,5.6879e-05,-1.2356e-19,-1.4565e-22,3.4547,0.00061836,-0.0005674,2.0764e-34,9.1675e-05,-41.579,-141.32,-54.918,8.7458,-1.8982e-14,-2.2304e-17,95.01,-142.09,-54.918,-40.815,0,0.016245,0,1,3.62,0,-3.62,0
0,0,0,0,0,0,8.6533e-05,-0.00056152,2.1198e-37,5.6725e-05,-1.184e-19,-1.3677e-22,3.4456,0.00061732,-0.00056647,2.0316e-34,9.1483e-05,-41.521,-141.1,-54.833,8.7221,-1.8189e-14,-2.0928e-17,94.85,-141.86,-54.833,-40.759,0,0.016248,0,1,3.625,0,-3.625,0
0,0,0,0,0,0,8.6359e-05,-0.00056061,2.2202e-37,5.6571e-05,-1.1324e-19,-1.279e-22,3.4365,0.00061628,-0.00056554,1.9869e-34,9.1291e-05,-41.462,-140.87,-54.748,8.6984,-1.7396e-14,-1.9553e-17,94.691,-141.63,-54.748,-40.704,0,0.01625,0,1,3.63,0,-3.63,0
0,0,0,0,0,0,8.6186e-05,-0.00055969,2.3206e-37,5.6417e-05,-1.0808e-19,-1.1902e-22,3.4274,0.00061524,-0.00056461,1.9422e-34,9.1099e-05,-41.404,-140.65,-54.662,8.6747,-1.6603e-14,-1.8177e-17,94.531,-141.4,-54.662,-40.648,0,0.016253,0,1,3.635,0,-3.635,0
0,0,0,0,0,0,8.6012e-05,-0.00055878,2.421e-37,5.6263e-05,-1.0292e-19,-1.1014e-22,3.4184,0.0006142,-0.00056368,1.8975e-34,9.0906e-05,-41.345,-140.42,-54.577,8.651,-1.581e-14,-1.6802e-17,94.372,-141.18,-54.577,-40.592,0,0.016256,0,1,3.64,0,-3.64,0
0,0,0,0,0,0,8.5839e-05,-0.00055787,2.5214e-37,5.6109e-05,-9.7763e-20,-1.0126e-22,3.4093,0.00061316,-0.00056275,1.8527e-34,9.0714e-05,-41.287,-140.2,-54.492,8.6273,-1.5017e-14,-1.5426e-17,94.212,-140.95,-54.492,-40.537,0,0.016259,0,1,3.645,0,-3.645,0
0,0,0,0,0,0,8.5665e-05,-0.00055696,2.6218e-37,5.5955e-05,-9.2605e-20,-9.2388e-23,3.4002,0.00061212,-0.00056182,1.808e-34,9.0522e-05,-41.228,-139.97,-54.407,8.6037,-1.4224e-14,-1.4051e-17,94.053,-140.72,-54.407,-40.481,0,0.016262,0,1,3.65,0,-3.65,0
0,0,0,0,0,0,8.5492e-05,-0.00055605,2.7222e-37,5.5801e-05,-8.7446e-20,-8.3511e-23,3.3911,0.00061108,-0.00056089,1.7633e-34,9.033e-05,-41.17,-139.75,-54.321,8.58,-1.3431e-14,-1.2675e-17,93.893,-140.49,-54.321,-40.425,0,0.016265,0,1,3.655,0,-3.655,0
0,0,0,0,0,0,8.5318e-05,-0.00055514,2.8226e-37,5.5647e-05,-8.2288e-20,-7.4634e-23,3.382,0.00061004,-0.00055996,1.7186e-34,9.0137e-05,-41.111,-139.52,-54.236,8.5563,-1.2638e-14,-1.13e-17,93.734,-140.26,-54.236,-40.37,0,0.016268,0,1,3.66,0,-3.66,0
0,0,0,0,0,0,8.5145e-05,-0.00055423,2.923e-37,5.5492e-05,-7.7129e-20,-6.5758e-23,3.3729,0.000609,-0.00055903,1.6738e-34,8.9945e-05,-41.053,-139.3,-54.151,8.5326,-1.1846e-14,-9.9244e-18,93.575,-140.04,-54.151,-40.314,0,0.016271,0,1,3.665,0,-3.665,0
0,0,0,0,0,0,8.4971e-05,-0.00055331,3.0234e-37,5.5338e-05,-7.1971e-20,-5.6881e-23,3.3638,0.00060797,-0.0005581,1.6291e-34,8.9753e-05,-40.994,-139.07,-54.066,8.5089,-1.1053e-14,-8.5489e-18,93.415,-139.81,-54.066,-40.258,0,0.016274,0,1,3.67,0,-3.67,0
0,0,0,0,0,0,8.4798e-05,-0.0005524,3.1238e-37,5.5184e-05,-6.6813e-20,-4.8004e-23,3.3547,0.00060693,-0.00055717,1.5844e-34,8.956e-05,-40.936,-138.85,-53.981,8.4852,-1.026e-14,-7.1734e-18,93.256,-139.58,-53.981,-40.203,0,0.016277,0,1,3.675,0,-3.675,0
0,0,0,0,0,0,8.4624e-05,-0.00055149,3.2242e-37,5.503e-05,-6.1654e-20,-3.9127e-23,3.3456,0.00060589,-0.00055624,1.5397e-34,8.9368e-05,-40.877,-138.62,-53.895,8.4615,-9.4666e-15,-5.7978e-18,93.096,-139.35,-53.895,-40.147,0,0.01628,0,1,3.68,0,-3.68,0
0,0,0,0,0,0,8.4451e-05,-0.00055058,3.3245e-37,5.4876e-05,-5.6496e-20,-3.0251e-23,3.3365,0.00060485,-0.00055531,1.4949e-34,8.9176e-05,-40.819,-138.4,-53.81,8.4379,-8.6737e-15,-4.4224e-18,92.937,-139.12,-53.81,-40.092,0,0.016282,0,1,3.685,0,-3.685,0
0,0,0,0,0,0,8.4277e-05,-0.00054967,3.4249e-37,5.4722e-05,-5.1337e-20,-2.1374e-23,3.3274,0.00060381,-0.00055438,1.4502e-34,8.8984e-05,-40.76,-138.17,-53.725,8.4142,-7.8807e-15,-3.0468e-18,92.777,-138.9,-53.725,-40.036,0,0.016285,0,1,3.69,0,-3.69,0
0,0,0,0,0,0,8.4104e-05,-0.00054876,3.5253e-37,5.4568e-05,-4.6179e-20,-1.2497e-23,3.3184,0.00060277,-0.00055345,1.4055e-34,8.8791e-05,-40.702,-137.95,-53.64,8.3905,-7.0878e-15,-1.6714e-18,92.618,-138.67,-53.64,-39.98,0,0.016288,0,1,3.695,0,-3.695,0
0,0,0,0,0,0,8.393e-05,-0.00054785,3.6257e-37,5.4414e-05,-4.102e-20,-3.6201e-24,3.3093,0.00060173,-0.00055252,1.3608e-34,8.8599e-05,-40.643,-137.72,-53.554,8.3668,-6.2948e-15,-2.9581e-19,92.458,-138.44,-53.554,-39.925,0,0.016291,0,1,3.7,0,-3.7,0
0,0,0,0,0,0,8.3757e-05,-0.00054694,3.7261e-37,5.426e-05,-3.5862e-20,5.2565e-24,3.3002,0.00060069,-0.00055159,1.316e-34,8.8407e-05,-40.584,-137.5,-53.469,8.3431,-5.5019e-15,1.0797e-18,92.299,-138.21,-53.469,-39.869,0,0.016294,0,1,3.705,0,-3.705,0
0,0,0,0,0,0,8.3583e-05,-0.00054602,3.8265e-37,5.4106e-05,-3.0703e-20,1.4133e-23,3.2911,0.00059965,-0.00055066,1.2713e-34,8.8215e-05,-40.526,-137.27,-53.384,8.3194,-4.7089e-15,2.4552e-18,92.139,-137.99,-53.384,-39.813,0,0.016297,0,1,3.71,0,-3.71,0
0,0,0,0,0,0,8.341e-05,-0.00054511,3.9269e-37,5.3951e-05,-2.5545e-20,2.301e-23,3.282,0.00059861,-0.00054973,1.2266e-34,8.8022e-05,-40.467,-137.05,-53.299,8.2957,-3.9159e-15,3.8307e-18,91.98,-137.76,-53.299,-39.758,0,0.0163,0,1,3.715,0,-3.715,0
0,0,0,0,0,0,8.3236e-05,-0.0005442,4.0273e-37,5.3797e-05,-2.0386e-20,3.1887e-23,3.2729,0.00059757,-0.0005488,1.1819e-34,8.783e-05,-40.409,-136.82,-53.214,8.272,-3.123e-15,5.2062e-18,91.821,-137.53,-53.214,-39.702,0,0.016303,0,1,3.72,0,-3.72,0
0,0,0,0,0,0,8.3063e-05,-0.00054329,4.1277e-37,5.3643e-05,-1.5228e-20,4.0764e-23,3.2638,0.00059653,-0.00054787,1.1371e-34,8.7638e-05,-40.35,-136.6,-53.128,8.2484,-2.33e-15,6.5817e-18,91.661,-137.3,-53.128,-39.646,0,0.016306,0,1,3.725,0,-3.725,0
0,0,0,0,0,0,8.2889e-05,-0.00054238,4.2281e-37,5.3489e-05,-1.0069e-20,4.9641e-23,3.2547,0.0005955,-0.00054694,1.0924e-34,8.7446e-05,-40.292,-136.37,-53.043,8.2247,-1.537e-15,7.9572e-18,91.502,-137.07,-53.043,-39.591,0,0.016309,0,1,3.73,0,-3.73,0
0,0,0,0,0,0,8.2716e-05,-0.00054147,4.3285e-37,5.3335e-05,-4.9112e-21,5.8517e-23,3.2456,0.00059446,-0.00054601,1.0477e-34,8.7253e-05,-40.233,-136.15,-52.958,8.201,-7.441e-16,9.3327e-18,91.342,-136.85,-52.958,-39.535,0,0.016312,0,1,3.735,0,-3.735,0
0,0,0,0,0,0,8.2542e-05,-0.00054056,4.4289e-37,5.3181e-05,2.4739e-22,6.7394e-23,3.2365,0.00059342,-0.00054508,1.003e-34,8.7061e-05,-40.175,-135.92,-52.873,8.1773,4.8878e-17,1.0708e-17,91.183,-136.62,-52.873,-39.479,0,0.016315,0,1,3.74,0,-3.74,0
0,0,0,0,0,0,8.2369e-05,-0.00053965,4.5293e-37,5.3027e-05,5.4057e-21,7.6271e-23,3.2274,0.00059238,-0.00054415,9.5825e-35,8.6869e-05,-40.116,-135.7,-52.787,8.1536,8.4182e-16,1.2084e-17,91.023,-136.39,-52.787,-39.424,0,0.016317,0,1,3.745,0,-3.745,0
0,0,0,0,0,0,8.2195e-05,-0.00053873,4.6297e-37,5.2873e-05,1.0564e-20,8.5148e-23,3.2184,0.00059134,-0.00054322,9.1352e-35,8.6676e-05,-40.058,-135.47,-52.702,8.1299,1.6348e-15,1.3459e-17,90.864,-136.16,-52.702,-39.368,0,0.01632,0,1,3.75,0,-3.75,0
0,0,0,0,0,0,8.2021e-05,-0.00053782,4.7301e-37,5.2719e-05,1.5723e-20,9.4025e-23,3.2093,0.0005903,-0.00054229,8.688e-35,8.6484e-05,-39.999,-135.25,-52.617,8.1062,2.4278e-15,1.4835e-17,90.704,-135.93,-52.617,-39.312,0,0.016323,0,1,3.755,0,-3.755,0
0,0,0,0,0,0,8.1848e-05,-0.00053691,4.8305e-37,5.2565e-05,2.0881e-20,1.029e-22,3.2002,0.00058926,-0.00054136,8.2407e-35,8.6292e-05,-39.941,-135.02,-52.532,8.0826,3.2207e-15,1.621e-17,90.545,-135.71,-52.532,-39.257,0,0.016326,0,1,3.76,0,-3.76,0
0,0,0,0,0,0,8.1674e-05,-0.000536,4.9309e-37,5.241e-05,2.604e-20,1.1178e-22,3.1911,0.00058822,-0.00054042,7.7935e-35,8.61e-05,-39.882,-134.8,-52.447,8.0589,4.0137e-15,1.7586e-17,90.386,-135.48,-52.447,-39.201,0,0.016329,0,1,3.765,0,-3.765,0
0,0,0,0,0,0,8.1501e-05,-0.00053509,5.0313e-37,5.2256e-05,3.1198e-20,1.2065e-22,3.182,0.00058718,-0.00053949,7.3462e-35,8.5907e-05,-39.824,-134.57,-52.361,8.0352,4.8066e-15,1.8961e-17,90.226,-135.25,-52.361,-39.146,0,0.016332,0,1,3.77,0,-3.77,0
0,0,0,0,0,0,8.1327e-05,-0.00053418,5.1317e-37,5.2102e-05,3.6357e-20,1.2953e-22,3.1729,0.00058614,-0.00053856,6.899e-35,8.5715e-05,-39.765,-134.35,-52.276,8.0115,5.5996e-15,2.0337e-17,90.067,-135.02,-52.276,-39.09,0,0.016335,0,1,3.775,0,-3.775,0
0,0,0,0,0,0,8.1154e-05,-0.00053327,5.232e-37,5.1948e-05,4.1515e-20,1.3841e-22,3.1638,0.0005851,-0.00053763,6.4517e-35,8.5523e-05,-39.706,-134.12,-52.191,7.9878,6.3926e-15,2.1712e-17,89.907,-134.79,-52.191,-39.034,0,0.016338,0,1,3.78,0,-3.78,0
0,0,0,0,0,0,8.098e-05,-0.00053235,5.3324e-37,5.1794e-05,4.6674e-20,1.4729e-22,3.1547,0.00058406,-0.0005367,6.0045e-35,8.5331e-05,-39.648,-133.9,-52.106,7.9641,7.1855e-15,2.3088e-17,89.748,-134.57,-52.106,-38.979,0,0.016341,0,1,3.785,0,-3.785,0
0,0,0,0,0,0,8.0807e-05,-0.00053144,5.4328e-37,5.164e-05,5.1832e-20,1.5616e-22,3.1456,0.00058303,-0.00053577,5.5572e-35,8.5138e-05,-39.589,-133.67,-52.021,7.9404,7.9785e-15,2.4463e-17,89.588,-134.34,-52.021,-38.923,0,0.016344,0,1,3.79,0,-3.79,0
0,0,0,0,0,0,8.0633e-05,-0.00053053,5.5332e-37,5.1486e-05,5.699e-20,1.6504e-22,3.1365,0.00058199,-0.00053484,5.11e-35,8.4946e-05,-39.531,-133.45,-51.935,7.9168,8.7715e-15,2.5839e-17,89.429,-134.11,-51.935,-38.867,0,0.016347,0,1,3.795,0,-3.795,0
0,0,0,0,0,0,8.046e-05,-0.00052962,5.6336e-37,5.1332e-05,6.2149e-20,1.7392e-22,3.1274,0.00058095,-0.00053391,4.6627e-35,8.4754e-05,-39.472,-133.22,-51.85,7.8931,9.5644e-15,2.7214e-17,89.269,-133.88,-51.85,-38.812,0,0.01635,0,1,3.8,0,-3.8,0
0,0,0,0,0,0,8.0286e-05,-0.00052871,5.734e-37,5.1178e-05,6.7307e-20,1.8279e-22,3.1184,0.00057991,-0.00053298,4.2155e-35,8.4562e-05,-39.414,-133,-51.765,7.8694,1.0357e-14,2.859e-17,89.11,-133.66,-51.765,-38.756,0,0.016352,0,1,3.805,0,-3.805,0
0,0,0,0,0,0,8.0113e-05,-0.0005278,5.8344e-37,5.1024e-05,7.2466e-20,1.9167e-22,3.1093,0.00057887,-0.00053205,3.7683e-35,8.4369e-05,-39.355,-132.77,-51.68,7.8457,1.115e-14,2.9965e-17,88.951,-133.43,-51.68,-38.7,0,0.016355,0,1,3.81,0,-3.81,0
0,0,0,0,0,0,7.9939e-05,-0.00052689,5.9348e-37,5.0869e-05,7.7624e-20,2.0055e-22,3.1002,0.00057783,-0.00053112,3.321e-35,8.4177e-05,-39.297,-132.55,-51.594,7.822,1.1943e-14,3.1341e-17,88.791,-133.2,-51.594,-38.645,0,0.016358,0,1,3.815,0,-3.815,0
0,0,0,0,0,0,7.9766e-05,-0.00052598,6.0352e-37,5.0715e-05,8.2782e-20,2.0942e-22,3.0911,0.00057679,-0.00053019,2.8738e-35,8.3985e-05,-39.238,-132.32,-51.509,7.7983,1.2736e-14,3.2716e-17,88.632,-132.97,-51.509,-38.589,0,0.016361,0,1,3.82,0,-3.82,0
0,0,0,0,0,0,7.9592e-05,-0.00052506,6.1356e-37,5.0561e-05,8.7941e-20,2.183e-22,3.082,0.00057575,-0.00052926,2.4265e-35,8.3792e-05,-39.18,-132.1,-51.424,7.7746,1.3529e-14,3.4092e-17,88.472,-132.74,-51.424,-38.533,0,0.016364,0,1,3.825,0,-3.825,0
0,0,0,0,0,0,7.9419e-05,-0.00052415,6.236e-37,5.0407e-05,9.3099e-20,2.2718e-22,3.0729,0.00057471,-0.00052833,1.9793e-35,8.36e-05,-39.121,-131.87,-51.339,7.751,1.4322e-14,3.5467e-17,88.313,-132.52,-51.339,-38.478,0,0.016367,0,1,3.83,0,-3.83,0
0,0,0,0,0,0,7.9288e-05,-0.00052338,6.3034e-37,5.0283e-05,9.8706e-20,2.3092e-22,3.0651,0.00057384,-0.00052755,2.4821e-35,8.3454e-05,-39.067,-131.68,-51.265,7.7319,1.5184e-14,3.6048e-17,88.18,-132.32,-51.265,-38.426,0,0.01637,0,1,3.835,0,-3.835,0
0,0,0,0,0,0,7.9215e-05,-0.0005228,6.3251e-37,5.02e-05,1.0493e-19,2.2757e-22,3.059,0.00057321,-0.00052696,4.2969e-35,8.3372e-05,-39.02,-131.53,-51.207,7.7192,1.6141e-14,3.5532e-17,88.083,-132.17,-51.207,-38.381,0,0.016372,0,1,3.84,0,-3.84,0
0,0,0,0,0,0,7.9142e-05,-0.00052223,6.3469e-37,5.0118e-05,1.1116e-19,2.2423e-22,3.053,0.00057258,-0.00052638,6.1117e-35,8.3291e-05,-38.973,-131.39,-51.148,7.7065,1.7098e-14,3.5016e-17,87.986,-132.02,-51.148,-38.335,0,0.016374,0,1,3.845,0,-3.845,0
0,0,0,0,0,0,7.9069e-05,-0.00052165,6.3687e-37,5.0035e-05,1.1738e-19,2.2088e-22,3.0469,0.00057195,-0.00052579,7.9265e-35,8.3209e-05,-38.926,-131.24,-51.09,7.6937,1.8055e-14,3.45e-17,87.889,-131.88,-51.09,-38.289,0,0.016377,0,1,3.85,0,-3.85,0
0,0,0,0,0,0,7.8996e-05,-0.00052107,6.3905e-37,4.9952e-05,1.2361e-19,2.1754e-22,3.0408,0.00057132,-0.0005252,9.7414e-35,8.3127e-05,-38.879,-131.09,-51.032,7.681,1.9013e-14,3.3984e-17,87.792,-131.73,-51.032,-38.244,0,0.016379,0,1,3.855,0,-3.855,0
0,0,0,0,0,0,7.8923e-05,-0.00052049,6.4123e-37,4.987e-05,1.2983e-19,2.1419e-22,3.0348,0.00057069,-0.00052462,1.1556e-34,8.3045e-05,-38.832,-130.95,-50.974,7.6683,1.997e-14,3.3468e-17,87.695,-131.58,-50.974,-38.198,0,0.016381,0,1,3.86,0,-3.86,0
0,0,0,0,0,0,7.885e-05,-0.00051992,6.4341e-37,4.9787e-05,1.3606e-19,2.1085e-22,3.0287,0.00057006,-0.00052403,1.3371e-34,8.2963e-05,-38.785,-130.8,-50.915,7.6556,2.0927e-14,3.2952e-17,87.598,-131.43,-50.915,-38.152,0,0.016384,0,1,3.865,0,-3.865,0
0,0,0,0,0,0,7.8777e-05,-0.00051934,6.4558e-37,4.9704e-05,1.4228e-19,2.075e-22,3.0226,0.00056943,-0.00052344,1.5186e-34,8.2882e-05,-38.738,-130.65,-50.857,7.6429,2.1884e-14,3.2436e-17,87.501,-131.28,-50.857,-38.107,0,0.016386,0,1,3.87,0,-3.87,0
0,0,0,0,0,0,7.8704e-05,-0.00051876,6.4776e-37,4.9621e-05,1.4851e-19,2.0416e-22,3.0166,0.0005688,-0.00052286,1.7001e-34,8.28e-05,-38.691,-130.51,-50.799,7.6302,2.2841e-14,3.192e-17,87.404,-131.14,-50.799,-38.061,0,0.016388,0,1,3.875,0,-3.875,0
0,0,0,0,0,0,7.8631e-05,-0.00051818,6.4994e-37,4.9539e-05,1.5473e-19,2.0081e-22,3.0105,0.00056816,-0.00052227,1.8816e-34,8.2718e-05,-38.644,-130.36,-50.741,7.6175,2.3798e-14,3.1404e-17,87.308,-130.99,-50.741,-38.015,0,0.016391,0,1,3.88,0,-3.88,0
0,0,0,0,0,0,7.8558e-05,-0.00051761,6.5212e-37,4.9456e-05,1.6096e-19,1.9747e-22,3.0044,0.00056753,-0.00052169,2.063e-34,8.2636e-05,-38.597,-130.21,-50.682,7.6047,2.4755e-14,3.0888e-17,87.211,-130.84,-50.682,-37.97,0,0.016393,0,1,3.885,0,-3.885,0
0,0,0,0,0,0,7.8486e-05,-0.00051703,6.543e-37,4.9373e-05,1.6718e-19,1.9412e-22,2.9984,0.0005669,-0.0005211,2.2445e-34,8.2554e-05,-38.55,-130.06,-50.624,7.592,2.5712e-14,3.0372e-17,87.114,-130.69,-50.624,-37.924,0,0.016395,0,1,3.89,0,-3.89,0
0,0,0,0,0,0,7.8413e-05,-0.00051645,6.5647e-37,4.9291e-05,1.7341e-19,1.9078e-22,2.9923,0.00056627,-0.00052051,2.426e-34,8.2472e-05,-38.503,-129.92,-50.566,7.5793,2.6669e-14,2.9856e-17,87.017,-130.54,-50.566,-37.878,0,0.016398,0,1,3.895,0,-3.895,0
0,0,0,0,0,0,7.834e-05,-0.00051588,6.5865e-37,4.9208e-05,1.7963e-19,1.8743e-22,2.9862,0.00056564,-0.00051993,2.6075e-34,8.2391e-05,-38.456,-129.77,-50.508,7.5666,2.7626e-14,2.9339e-17,86.92,-130.39,-50.508,-37.833,0,0.0164,0,1,3.9,0,-3.9,0
0,0,0,0,0,0,7.8267e-05,-0.0005153,6.6083e-37,4.9125e-05,1.8586e-19,1.8409e-22,2.9802,0.00056501,-0.00051934,2.789e-34,8.2309e-05,-38.409,-129.62,-50.449,7.5539,2.8584e-14,2.8823e-17,86.823,-130.25,-50.449,-37.787,0,0.016402,0,1,3.905,0,-3.905,0
0,0,0,0,0,0,7.8194e-05,-0.00051472,6.6301e-37,4.9042e-05,1.9208e-19,1.8074e-22,2.9741,0.00056438,-0.00051875,2.9704e-34,8.2227e-05,-38.362,-129.48,-50.391,7.5412,2.9541e-14,2.8307e-17,86.726,-130.1,-50.391,-37.741,0,0.016405,0,1,3.91,0,-3.91,0
0,0,0,0,0,0,7.8121e-05,-0.00051414,6.6519e-37,4.896e-05,1.9831e-19,1.774e-22,2.9681,0.00056375,-0.00051817,3.1519e-34,8.2145e-05,-38.315,-129.33,-50.333,7.5285,3.0498e-14,2.7791e-17,86.629,-129.95,-50.333,-37.696,0,0.016407,0,1,3.915,0,-3.915,0
0,0,0,0,0,0,7.8048e-05,-0.00051357,6.6736e-37,4.8877e-05,2.0453e-19,1.7405e-22,2.962,0.00056312,-0.00051758,3.3334e-34,8.2063e-05,-38.268,-129.18,-50.274,7.5157,3.1455e-14,2.7275e-17,86.533,-129.8,-50.274,-37.65,0,0.016409,0,1,3.92,0,-3.92,0
0,0,0,0,0,0,7.7975e-05,-0.00051299,6.6954e-37,4.8794e-05,2.1076e-19,1.707e-22,2.9559,0.00056248,-0.00051699,3.5149e-34,8.1982e-05,-38.221,-129.04,-50.216,7.503,3.2412e-14,2.6759e-17,86.436,-129.65,-50.216,-37.604,0,0.016411,0,1,3.925,0,-3.925,0
0,0,0,0,0,0,7.7902e-05,-0.00051241,6.7172e-37,4.8712e-05,2.1698e-19,1.6736e-22,2.9499,0.00056185,-0.00051641,3.6964e-34,8.19e-05,-38.174,-128.89,-50.158,7.4903,3.3369e-14,2.6243e-17,86.339,-129.5,-50.158,-37.559,0,0.016414,0,1,3.93,0,-3.93,0
0,0,0,0,0,0,7.7829e-05,-0.00051183,6.739e-37,4.8629e-05,2.2321e-19,1.6401e-22,2.9438,0.00056122,-0.00051582,3.8779e-34,8.1818e-05,-38.127,-128.74,-50.1,7.4776,3.4326e-14,2.5727e-17,86.242,-129.36,-50.1,-37.513,0,0.016416,0,1,3.935,0,-3.935,0
0,0,0,0,0,0,7.7756e-05,-0.00051126,6.7608e-37,4.8546e-05,2.2943e-19,1.6067e-22,2.9377,0.00056059,-0.00051524,4.0593e-34,8.1736e-05,-38.08,-128.6,-50.041,7.4649,3.5283e-14,2.5211e-17,86.145,-129.21,-50.041,-37.467,0,0.016418,0,1,3.94,0,-3.94,0
0,0,0,0,0,0,7.7683e-05,-0.00051068,6.7826e-37,4.8464e-05,2.3566e-19,1.5732e-22,2.9317,0.00055996,-0.00051465,4.2408e-34,8.1654e-05,-38.033,-128.45,-49.983,7.4522,3.624e-14,2.4695e-17,86.048,-129.06,-49.983,-37.422,0,0.016421,0,1,3.945,0,-3.945,0
0,0,0,0,0,0,7.7611e-05,-0.0005101,6.8043e-37,4.8381e-05,2.4189e-19,1.5398e-22,2.9256,0.00055933,-0.00051406,4.4223e-34,8.1572e-05,-37.986,-128.3,-49.925,7.4395,3.7198e-14,2.4179e-17,85.951,-128.91,-49.925,-37.376,0,0.016423,0,1,3.95,0,-3.95,0
0,0,0,0,0,0,7.7538e-05,-0.00050952,6.8261e-37,4.8298e-05,2.4811e-19,1.5063e-22,2.9195,0.0005587,-0.00051348,4.6038e-34,8.1491e-05,-37.939,-128.16,-49.867,7.4267,3.8155e-14,2.3663e-17,85.854,-128.76,-49.867,-37.33,0,0.016425,0,1,3.955,0,-3.955,0
0,0,0,0,0,0,7.7465e-05,-0.00050895,6.8479e-37,4.8215e-05,2.5434e-19,1.4729e-22,2.9135,0.00055807,-0.00051289,4.7853e-34,8.1409e-05,-37.891,-128.01,-49.808,7.414,3.9112e-14,2.3147e-17,85.757,-128.62,-49.808,-37.285,0,0.016428,0,1,3.96,0,-3.96,0
0,0,0,0,0,0,7.7392e-05,-0.00050837,6.8697e-37,4.8133e-05,2.6056e-19,1.4394e-22,2.9074,0.00055744,-0.0005123,4.9668e-34,8.1327e-05,-37.844,-127.86,-49.75,7.4013,4.0069e-14,2.263e-17,85.661,-128.47,-49.75,-37.239,0,0.01643,0,1,3.965,0,-3.965,0
0,0,0,0,0,0,7.7319e-05,-0.00050779,6.8915e-37,4.805e-05,2.6679e-19,1.406e-22,2.9014,0.0005568,-0.00051172,5.1482e-34,8.1245e-05,-37.797,-127.71,-49.692,7.3886,4.1026e-14,2.2114e-17,85.564,-128.32,-49.692,-37.193,0,0.016432,0,1,3.97,0,-3.97,0
0,0,0,0,0,0,7.7246e-05,-0.00050721,6.9132e-37,4.7967e-05,2.7301e-19,1.3725e-22,2.8953,0.00055617,-0.00051113,5.3297e-34,8.1163e-05,-37.75,-127.57,-49.634,7.3759,4.1983e-14,2.1598e-17,85.467,-128.17,-49.634,-37.148,0,0.016435,0,1,3.975,0,-3.975,0
0,0,0,0,0,0,7.7173e-05,-0.00050664,6.935e-37,4.7885e-05,2.7924e-19,1.3391e-22,2.8892,0.00055554,-0.00051055,5.5112e-34,8.1082e-05,-37.703,-127.42,-49.575,7.3632,4.294e-14,2.1082e-17,85.37,-128.02,-49.575,-37.102,0,0.016437,0,1,3.98,0,-3.98,0
0,0,0,0,0,0,7.71e-05,-0.00050606,6.9568e-37,4.7802e-05,2.8546e-19,1.3056e-22,2.8832,0.00055491,-0.00050996,5.6927e-34,8.1e-05,-37.656,-127.27,-49.517,7.3505,4.3897e-14,2.0566e-17,85.273,-127.87,-49.517,-37.056,0,0.016439,0,1,3.985,0,-3.985,0
0,0,0,0,0,0,7.7027e-05,-0.00050548,6.9786e-37,4.7719e-05,2.9169e-19,1.2722e-22,2.8771,0.00055428,-0.00050937,5.8742e-34,8.0918e-05,-37.609,-127.13,-49.459,7.3377,4.4854e-14,2.005e-17,85.176,-127.73,-49.459,-37.011,0,0.016442,0,1,3.99,0,-3.99,0
0,0,0,0,0,0,7.6954e-05,-0.00050491,7.0004e-37,4.7636e-05,2.9791e-19,1.2387e-22,2.871,0.00055365,-0.00050879,6.0556e-34,8.0836e-05,-37.562,-126.98,-49.401,7.325,4.5811e-14,1.9534e-17,85.079,-127.58,-49.401,-36.965,0,0.016444,0,1,3.995,0,-3.995,0
0,0,0,0,0,0,7.6881e-05,-0.00050433,7.0221e-37,4.7554e-05,3.0414e-19,1.2053e-22,2.865,0.00055302,-0.0005082,6.2371e-34,8.0754e-05,-37.515,-126.83,-49.342,7.3123,4.6769e-14,1.9018e-17,84.982,-127.43,-49.342,-36.919,0,0.016446,0,1,4,0,-4,0
0,0,0,0,0,0,7.6808e-05,-0.00050375,7.0439e-37,4.7471e-05,3.1036e-19,1.1718e-22,2.8589,0.00055239,-0.00050761,6.4186e-34,8.0672e-05,-37.468,-126.69,-49.284,7.2996,4.7726e-14,1.8502e-17,84.886,-127.28,-49.284,-36.874,0,0.016449,0,1,4.005,0,-4.005,0
0,0,0,0,0,0,7.6735e-05,-0.00050317,7.0657e-37,4.7388e-05,3.1659e-19,1.1383e-22,2.8528,0.00055176,-0.00050703,6.6001e-34,8.0591e-05,-37.421,-126.54,-49.226,7.2869,4.8683e-14,1.7986e-17,84.789,-127.13,-49.226,-36.828,0,0.016451,0,1,4.01,0,-4.01,0
0,0,0,0,0,0,7.6663e-05,-0.0005026,7.0875e-37,4.7306e-05,3.2281e-19,1.1049e-22,2.8468,0.00055112,-0.00050644,6.7816e-34,8.0509e-05,-37.374,-126.39,-49.168,7.2742,4.964e-14,1.747e-17,84.692,-126.98,-49.168,-36.782,0,0.016453,0,1,4.015,0,-4.015,0
0,0,0,0,0,0,7.659e-05,-0.00050202,7.1093e-37,4.7223e-05,3.2904e-19,1.0714e-22,2.8407,0.00055049,-0.00050586,6.9631e-34,8.0427e-05,-37.327,-126.25,-49.109,7.2615,5.0597e-14,1.6954e-17,84.595,-126.84,-49.109,-36.737,0,0.016456,0,1,4.02,0,-4.02,0
0,0,0,0,0,0,7.6517e-05,-0.00050144,7.1311e-37,4.714e-05,3.3526e-19,1.038e-22,2.8346,0.00054986,-0.00050527,7.1445e-34,8.0345e-05,-37.28,-126.1,-49.051,7.2487,5.1554e-14,1.6438e-17,84.498,-126.69,-49.051,-36.691,0,0.016458,0,1,4.025,0,-4.025,0
0,0,0,0,0,0,7.6444e-05,-0.00050086,7.1528e-37,4.7058e-05,3.4149e-19,1.0045e-22,2.8286,0.00054923,-0.00050468,7.326e-34,8.0263e-05,-37.233,-125.95,-48.993,7.236,5.2511e-14,1.5921e-17,84.401,-126.54,-48.993,-36.645,0,0.01646,0,1,4.03,0,-4.03,0
0,0,0,0,0,0,7.6371e-05,-0.00050029,7.1746e-37,4.6975e-05,3.4771e-19,9.7108e-23,2.8225,0.0005486,-0.0005041,7.5075e-34,8.0182e-05,-37.186,-125.81,-48.935,7.2233,5.3468e-14,1.5405e-17,84.304,-126.39,-48.935,-36.6,0,0.016463,0,1,4.035,0,-4.035,0
0,0,0,0,0,0,7.6298e-05,-0.00049971,7.1964e-37,4.6892e-05,3.5394e-19,9.3763e-23,2.8165,0.00054797,-0.00050351,7.689e-34,8.01e-05,-37.139,-125.66,-48.876,7.2106,5.4425e-14,1.4889e-17,84.207,-126.24,-48.876,-36.554,0,0.016465,0,1,4.04,0,-4.04,0
0,0,0,0,0,0,7.6225e-05,-0.00049913,7.2182e-37,4.6809e-05,3.6016e-19,9.0417e-23,2.8104,0.00054734,-0.00050292,7.8705e-34,8.0018e-05,-37.092,-125.51,-48.818,7.1979,5.5383e-14,1.4373e-17,84.11,-126.1,-48.818,-36.508,0,0.016467,0,1,4.045,0,-4.045,0
0,0,0,0,0,0,7.6152e-05,-0.00049855,7.24e-37,4.6727e-05,3.6639e-19,8.7072e-23,2.8043,0.00054671,-0.00050234,8.052e-34,7.9936e-05,-37.045,-125.36,-48.76,7.1852,5.634e-14,1.3857e-17,84.014,-125.95,-48.76,-36.463,0,0.01647,0,1,4.05,0,-4.05,0
0,0,0,0,0,0,7.6079e-05,-0.00049798,7.2617e-37,4.6644e-05,3.7261e-19,8.3727e-23,2.7983,0.00054608,-0.00050175,8.2334e-34,7.9854e-05,-36.998,-125.22,-48.702,7.1725,5.7297e-14,1.3341e-17,83.917,-125.8,-48.702,-36.417,0,0.016472,0,1,4.055,0,-4.055,0
0,0,0,0,0,0,7.6006e-05,-0.0004974,7.2835e-37,4.6561e-05,3.7884e-19,8.0382e-23,2.7922,0.00054544,-0.00050117,8.4149e-34,7.9772e-05,-36.951,-125.07,-48.643,7.1598,5.8254e-14,1.2825e-17,83.82,-125.65,-48.643,-36.371,0,0.016474,0,1,4.06,0,-4.06,0
0,0,0,0,0,0,7.5933e-05,-0.00049682,7.3053e-37,4.6479e-05,3.8506e-19,7.7036e-23,2.7861,0.00054481,-0.00050058,8.5964e-34,7.9691e-05,-36.904,-124.92,-48.585,7.147,5.9211e-14,1.2309e-17,83.723,-125.5,-48.585,-36.326,0,0.016477,0,1,4.065,0,-4.065,0
0,0,0,0,0,0,7.586e-05,-0.00049624,7.3271e-37,4.6396e-05,3.9129e-19,7.3691e-23,2.7801,0.00054418,-0.00049999,8.7779e-34,7.9609e-05,-36.857,-124.78,-48.527,7.1343,6.0168e-14,1.1793e-17,83.626,-125.35,-48.527,-36.28,0,0.016479,0,1,4.07,0,-4.07,0
0,0,0,0,0,0,7.5788e-05,-0.00049567,7.3489e-37,4.6313e-05,3.9751e-19,7.0346e-23,2.774,0.00054355,-0.00049941,8.9594e-34,7.9527e-05,-36.81,-124.63,-48.469,7.1216,6.1125e-14,1.1277e-17,83.529,-125.21,-48.469,-36.234,0,0.016481,0,1,4.075,0,-4.075,0
0,0,0,0,0,0,7.5715e-05,-0.00049509,7.3706e-37,4.623e-05,4.0374e-19,6.7e-23,2.7679,0.00054292,-0.00049882,9.1409e-34,7.9445e-05,-36.763,-124.48,-48.41,7.1089,6.2082e-14,1.0761e-17,83.432,-125.06,-48.41,-36.189,0,0.016484,0,1,4.08,0,-4.08,0
0,0,0,0,0,0,7.5642e-05,-0.00049451,7.3924e-37,4.6148e-05,4.0997e-19,6.3655e-23,2.7619,0.00054229,-0.00049823,9.3223e-34,7.9363e-05,-36.716,-124.34,-48.352,7.0962,6.3039e-14,1.0245e-17,83.335,-124.91,-48.352,-36.143,0,0.016486,0,1,4.085,0,-4.085,0
0,0,0,0,0,0,7.5569e-05,-0.00049393,7.4142e-37,4.6065e-05,4.1619e-19,6.031e-23,2.7558,0.00054166,-0.00049765,9.5038e-34,7.9282e-05,-36.668,-124.19,-48.294,7.0835,6.3997e-14,9.7285e-18,83.238,-124.76,-48.294,-36.097,0,0.016488,0,1,4.09,0,-4.09,0
0,0,0,0,0,0,7.5496e-05,-0.00049336,7.436e-37,4.5982e-05,4.2242e-19,5.6965e-23,2.7498,0.00054103,-0.00049706,9.6853e-34,7.92e-05,-36.621,-124.04,-48.236,7.0708,6.4954e-14,9.2125e-18,83.142,-124.61,-48.236,-36.052,0,0.01649,0,1,4.095,0,-4.095,0
0,0,0,0,0,0,7.5423e-05,-0.00049278,7.4578e-37,4.59e-05,4.2864e-19,5.3619e-23,2.7437,0.0005404,-0.00049647,9.8668e-34,7.9118e-05,-36.574,-123.9,-48.177,7.058,6.5911e-14,8.6964e-18,83.045,-124.46,-48.177,-36.006,0,0.016493,0,1,4.1,0,-4.1,0
0,0,0,0,0,0,7.535e-05,-0.0004922,7.4795e-37,4.5817e-05,4.3487e-19,5.0274e-23,2.7376,0.00053976,-0.00049589,1.0048e-33,7.9036e-05,-36.527,-123.75,-48.119,7.0453,6.6868e-14,8.1803e-18,82.948,-124.32,-48.119,-35.96,0,0.016495,0,1,4.105,0,-4.105,0
0,0,0,0,0,0,7.5277e-05,-0.00049163,7.5013e-37,4.5734e-05,4.4109e-19,4.6928e-23,2.7316,0.00053913,-0.0004953,1.023e-33,7.8954e-05,-36.48,-123.6,-48.061,7.0326,6.7825e-14,7.6642e-18,82.851,-124.17,-48.061,-35.915,0,0.016497,0,1,4.11,0,-4.11,0
0,0,0,0,0,0,7.5204e-05,-0.00049105,7.5231e-37,4.5652e-05,4.4732e-19,4.3583e-23,2.7255,0.0005385,-0.00049472,1.0411e-33,7.8872e-05,-36.433,-123.46,-48.002,7.0199,6.8782e-14,7.1482e-18,82.754,-124.02,-48.002,-35.869,0,0.0165,0,1,4.115,0,-4.115,0
0,0,0,0,0,0,7.5131e-05,-0.00049047,7.5449e-37,4.5569e-05,4.5354e-19,4.0238e-23,2.7194,0.00053787,-0.00049413,1.0593e-33,7.8791e-05,-36.386,-123.31,-47.944,7.0072,6.9739e-14,6.6321e-18,82.657,-123.87,-47.944,-35.823,0,0.016502,0,1,4.12,0,-4.12,0
0,0,0,0,0,0,7.5058e-05,-0.00048989,7.5667e-37,4.5486e-05,4.5977e-19,3.6893e-23,2.7134,0.00053724,-0.00049354,1.0774e-33,7.8709e-05,-36.339,-123.16,-47.886,6.9945,7.0696e-14,6.116e-18,82.56,-123.72,-47.886,-35.778,0,0.016504,0,1,4.125,0,-4.125,0
0,0,0,0,0,0,7.4985e-05,-0.00048932,7.5885e-37,4.5403e-05,4.6599e-19,3.3547e-23,2.7073,0.00053661,-0.00049296,1.0956e-33,7.8627e-05,-36.292,-123.01,-47.828,6.9818,7.1653e-14,5.5999e-18,82.463,-123.58,-47.828,-35.732,0,0.016507,0,1,4.13,0,-4.13,0
0,0,0,0,0,0,7.4913e-05,-0.00048874,7.6102e-37,4.5321e-05,4.7222e-19,3.0202e-23,2.7012,0.00053598,-0.00049237,1.1137e-33,7.8545e-05,-36.245,-122.87,-47.769,6.969,7.2611e-14,5.0838e-18,82.367,-123.43,-47.769,-35.686,0,0.016509,0,1,4.135,0,-4.135,0
0,0,0,0,0,0,7.484e-05,-0.00048816,7.632e-37,4.5238e-05,4.7844e-19,2.6857e-23,2.6952,0.00053535,-0.00049178,1.1319e-33,7.8463e-05,-36.198,-122.72,-47.711,6.9563,7.3568e-14,4.5678e-18,82.27,-123.28,-47.711,-35.641,0,0.016511,0,1,4.14,0,-4.14,0
0,0,0,0,0,0,7.4767e-05,-0.00048758,7.6538e-37,4.5155e-05,4.8467e-19,2.3511e-23,2.6891,0.00053472,-0.0004912,1.15e-33,7.8382e-05,-36.151,-122.57,-47.653,6.9436,7.4525e-14,4.0517e-18,82.173,-123.13,-47.653,-35.595,0,0.016514,0,1,4.145,0,-4.145,0
0,0,0,0,0,0,7.4694e-05,-0.00048701,7.6756e-37,4.5073e-05,4.9089e-19,2.0166e-23,2.683,0.00053408,-0.00049061,1.1682e-33,7.83e-05,-36.104,-122.43,-47.595,6.9309,7.5482e-14,3.5356e-18,82.076,-122.98,-47.595,-35.549,0,0.016516,0,1,4.15,0,-4.15,0
0,0,0,0,0,0,7.4621e-05,-0.00048643,7.6974e-37,4.499e-05,4.9712e-19,1.6821e-23,2.677,0.00053345,-0.00049003,1.1863e-33,7.8218e-05,-36.057,-122.28,-47.536,6.9182,7.6439e-14,3.0195e-18,81.979,-122.83,-47.536,-35.504,0,0.016518,0,1,4.155,0,-4.155,0
0,0,0,0,0,0,7.4548e-05,-0.00048585,7.7191e-37,4.4907e-05,5.0334e-19,1.3476e-23,2.6709,0.00053282,-0.00048944,1.2045e-33,7.8136e-05,-36.01,-122.13,-47.478,6.9055,7.7396e-14,2.5035e-18,81.882,-122.69,-47.478,-35.458,0,0.016521,0,1,4.16,0,-4.16,0
0,0,0,0,0,0,7.4475e-05,-0.00048527,7.7409e-37,4.4824e-05,5.0957e-19,1.013e-23,2.6649,0.00053219,-0.00048885,1.2226e-33,7.8054e-05,-35.963,-121.99,-47.42,6.8928,7.8353e-14,1.9874e-18,81.785,-122.54,-47.42,-35.412,0,0.016523,0,1,4.165,0,-4.165,0
0,0,0,0,0,0,7.4402e-05,-0.0004847,7.7627e-37,4.4742e-05,5.1579e-19,6.7849e-24,2.6588,0.00053156,-0.00048827,1.2408e-33,7.7972e-05,-35.916,-121.84,-47.362,6.88,7.931e-14,1.4713e-18,81.688,-122.39,-47.362,-35.367,0,0.016525,0,1,4.17,0,-4.17,0
0,0,0,0,0,0,7.4329e-05,-0.00048412,7.7845e-37,4.4659e-05,5.2202e-19,3.4395e-24,2.6527,0.00053093,-0.00048768,1.2589e-33,7.7891e-05,-35.869,-121.69,-47.303,6.8673,8.0267e-14,9.552e-19,81.591,-122.24,-47.303,-35.321,0,0.016528,0,1,4.175,0,-4.175,0
0,0,0,0,0,0,7.4256e-05,-0.00048354,7.8063e-37,4.4576e-05,5.2824e-19,9.4446e-26,2.6467,0.0005303,-0.00048709,1.2771e-33,7.7809e-05,-35.822,-121.55,-47.245,6.8546,8.1224e-14,4.3916e-19,81.495,-122.09,-47.245,-35.275,0,0.01653,0,1,4.18,0,-4.18,0
0,0,0,0,0,0,7.4183e-05,-0.00048296,7.828e-37,4.4494e-05,5.3447e-19,-3.2509e-24,2.6406,0.00052967,-0.00048651,1.2952e-33,7.7727e-05,-35.775,-121.4,-47.187,6.8419,8.2182e-14,-7.6929e-20,81.398,-121.94,-47.187,-35.23,0,0.016532,0,1,4.185,0,-4.185,0
0,0,0,0,0,0,7.411e-05,-0.00048239,7.8498e-37,4.4411e-05,5.4069e-19,-6.5963e-24,2.6345,0.00052904,-0.00048592,1.3133e-33,7.7645e-05,-35.728,-121.25,-47.129,6.8292,8.3139e-14,-5.9302e-19,81.301,-121.8,-47.129,-35.184,0,0.016535,0,1,4.19,0,-4.19,0
0,0,0,0,0,0,7.4037e-05,-0.00048181,7.8716e-37,4.4328e-05,5.4692e-19,-9.9417e-24,2.6285,0.0005284,-0.00048534,1.3315e-33,7.7563e-05,-35.681,-121.11,-47.07,6.8165,8.4096e-14,-1.1091e-18,81.204,-121.65,-47.07,-35.138,0,0.016537,0,1,4.195,0,-4.195,0
0,0,0,0,0,0,7.3965e-05,-0.00048123,7.8934e-37,4.4246e-05,5.5314e-19,-1.3287e-23,2.6224,0.00052777,-0.00048475,1.3496e-33,7.7482e-05,-35.634,-120.96,-47.012,6.8038,8.5053e-14,-1.6251e-18,81.107,-121.5,-47.012,-35.092,0,0.016539,0,1,4.2,0,-4.2,0
0,0,0,0,0,0,7.3892e-05,-0.00048065,7.9152e-37,4.4163e-05,5.5937e-19,-1.6632e-23,2.6163,0.00052714,-0.00048416,1.3678e-33,7.74e-05,-35.587,-120.81,-46.954,6.791,8.601e-14,-2.1412e-18,81.01,-121.35,-46.954,-35.047,0,0.016542,0,1,4.205,0,-4.205,0
0,0,0,0,0,0,7.3819e-05,-0.00048008,7.937e-37,4.408e-05,5.6559e-19,-1.9977e-23,2.6103,0.00052651,-0.00048358,1.3859e-33,7.7318e-05,-35.54,-120.66,-46.896,6.7783,8.6967e-14,-2.6573e-18,80.913,-121.2,-46.896,-35.001,0,0.016544,0,1,4.21,0,-4.21,0
0,0,0,0,0,0,7.3746e-05,-0.0004795,7.9587e-37,4.3997e-05,5.7182e-19,-2.3323e-23,2.6042,0.00052588,-0.00048299,1.4041e-33,7.7236e-05,-35.492,-120.52,-46.837,6.7656,8.7924e-14,-3.1734e-18,80.816,-121.05,-46.837,-34.955,0,0.016546,0,1,4.215,0,-4.215,0
0,0,0,0,0,0,7.3673e-05,-0.00047892,7.9805e-37,4.3915e-05,5.7804e-19,-2.6668e-23,2.5981,0.00052525,-0.0004824,1.4222e-33,7.7154e-05,-35.445,-120.37,-46.779,6.7529,8.8881e-14,-3.6895e-18,80.72,-120.91,-46.779,-34.91,0,0.016549,0,1,4.22,0,-4.22,0
0,0,0,0,0,0,7.36e-05,-0.00047835,8.0023e-37,4.3832e-05,5.8427e-19,-3.0013e-23,2.5921,0.00052462,-0.00048182,1.4404e-33,7.7072e-05,-35.398,-120.22,-46.721,6.7402,8.9838e-14,-4.2055e-18,80.623,-120.76,-46.721,-34.864,0,0.016551,0,1,4.225,0,-4.225,0
0,0,0,0,0,0,7.3527e-05,-0.00047777,8.0241e-37,4.3749e-05,5.905e-19,-3.3359e-23,2.586,0.00052399,-0.00048123,1.4585e-33,7.6991e-05,-35.351,-120.08,-46.663,6.7275,9.0796e-14,-4.7216e-18,80.526,-120.61,-46.663,-34.818,0,0.016553,0,1,4.23,0,-4.23,0
0,0,0,0,0,0,7.3454e-05,-0.00047719,8.0459e-37,4.3667e-05,5.9672e-19,-3.6704e-23,2.58,0.00052336,-0.00048065,1.4767e-33,7.6909e-05,-35.304,-119.93,-46.604,6.7148,9.1753e-14,-5.2377e-18,80.429,-120.46,-46.604,-34.773,0,0.016556,0,1,4.235,0,-4.235,0
0,0,0,0,0,0,7.3381e-05,-0.00047661,8.0676e-37,4.3584e-05,6.0295e-19,-4.0049e-23,2.5739,0.00052272,-0.00048006,1.4948e-33,7.6827e-05,-35.257,-119.78,-46.546,6.702,9.271e-14,-5.7538e-18,80.332,-120.31,-46.546,-34.727,0,0.016558,0,1,4.24,0,-4.24,0
0,0,0,0,0,0,7.3308e-05,-0.00047604,8.0894e-37,4.3501e-05,6.0917e-19,-4.3394e-23,2.5678,0.00052209,-0.00047947,1.513e-33,7.6745e-05,-35.21,-119.64,-46.488,6.6893,9.3667e-14,-6.2698e-18,80.235,-120.17,-46.488,-34.681,0,0.01656,0,1,4.245,0,-4.245,0
0,0,0,0,0,0,7.3235e-05,-0.00047546,8.1112e-37,4.3418e-05,6.154e-19,-4.674e-23,2.5618,0.00052146,-0.00047889,1.5311e-33,7.6663e-05,-35.163,-119.49,-46.43,6.6766,9.4624e-14,-6.7859e-18,80.138,-120.02,-46.43,-34.636,0,0.016563,0,1,4.25,0,-4.25,0
0,0,0,0,0,0,7.3162e-05,-0.00047488,8.133e-37,4.3336e-05,6.2162e-19,-5.0085e-23,2.5557,0.00052083,-0.0004783,1.5493e-33,7.6581e-05,-35.116,-119.34,-46.371,6.6639,9.5581e-14,-7.302e-18,80.041,-119.87,-46.371,-34.59,0,0.016565,0,1,4.255,0,-4.255,0
0,0,0,0,0,0,7.309e-05,-0.0004743,8.1548e-37,4.3253e-05,6.2785e-19,-5.3431e-23,2.5496,0.0005202,-0.00047771,1.5674e-33,7.65e-05,-35.069,-119.2,-46.313,6.6512,9.6538e-14,-7.8181e-18,79.944,-119.72,-46.313,-34.544,0,0.016567,0,1,4.26,0,-4.26,0
0,0,0,0,0,0,7.3017e-05,-0.00047373,8.1765e-37,4.317e-05,6.3407e-19,-5.6776e-23,2.5436,0.00051957,-0.00047713,1.5856e-33,7.6418e-05,-35.022,-119.05,-46.255,6.6385,9.7495e-14,-8.3342e-18,79.848,-119.57,-46.255,-34.499,0,0.016569,0,1,4.265,0,-4.265,0
0,0,0,0,0,0,7.2944e-05,-0.00047315,8.1983e-37,4.3088e-05,6.403e-19,-6.0121e-23,2.5375,0.00051894,-0.00047654,1.6037e-33,7.6336e-05,-34.975,-118.9,-46.197,6.6258,9.8452e-14,-8.8502e-18,79.751,-119.42,-46.197,-34.453,0,0.016572,0,1,4.27,0,-4.27,0
0,0,0,0,0,0,7.2871e-05,-0.00047257,8.2201e-37,4.3005e-05,6.4652e-19,-6.3466e-23,2.5314,0.00051831,-0.00047595,1.6219e-33,7.6254e-05,-34.928,-118.76,-46.138,6.613,9.941e-14,-9.3663e-18,79.654,-119.28,-46.138,-34.407,0,0.016574,0,1,4.275,0,-4.275,0
0,0,0,0,0,0,7.2798e-05,-0.00047199,8.2419e-37,4.2922e-05,6.5275e-19,-6.6812e-23,2.5254,0.00051768,-0.00047537,1.64e-33,7.6172e-05,-34.881,-118.61,-46.08,6.6003,1.0037e-13,-9.8824e-18,79.557,-119.13,-46.08,-34.362,0,0.016576,0,1,4.28,0,-4.28,0
0,0,0,0,0,0,7.2725e-05,-0.00047142,8.2637e-37,4.284e-05,6.5897e-19,-7.0157e-23,2.5193,0.00051704,-0.00047478,1.6582e-33,7.6091e-05,-34.834,-118.46,-46.022,6.5876,1.0132e-13,-1.0398e-17,79.46,-118.98,-46.022,-34.316,0,0.016579,0,1,4.285,0,-4.285,0
0,0,0,0,0,0,7.2652e-05,-0.00047084,8.2854e-37,4.2757e-05,6.652e-19,-7.3502e-23,2.5133,0.00051641,-0.0004742,1.6763e-33,7.6009e-05,-34.787,-118.31,-45.964,6.5749,1.0228e-13,-1.0915e-17,79.363,-118.83,-45.964,-34.27,0,0.016581,0,1,4.29,0,-4.29,0
0,0,0,0,0,0,7.2579e-05,-0.00047026,8.3072e-37,4.2674e-05,6.7142e-19,-7.6848e-23,2.5072,0.00051578,-0.00047361,1.6945e-33,7.5927e-05,-34.74,-118.17,-45.905,6.5622,1.0324e-13,-1.1431e-17,79.266,-118.68,-45.905,-34.225,0,0.016583,0,1,4.295,0,-4.295,0
0,0,0,0,0,0,7.2506e-05,-0.00046968,8.329e-37,4.2591e-05,6.7765e-19,-8.0193e-23,2.5011,0.00051515,-0.00047302,1.7126e-33,7.5845e-05,-34.693,-118.02,-45.847,6.5495,1.042e-13,-1.1947e-17,79.169,-118.53,-45.847,-34.179,0,0.016586,0,1,4.3,0,-4.3,0
0,0,0,0,0,0,7.2433e-05,-0.00046911,8.3508e-37,4.2509e-05,6.8387e-19,-8.3538e-23,2.4951,0.00051452,-0.00047244,1.7308e-33,7.5763e-05,-34.646,-117.87,-45.789,6.5368,1.0515e-13,-1.2463e-17,79.072,-118.39,-45.789,-34.133,0,0.016588,0,1,4.305,0,-4.305,0
0,0,0,0,0,0,7.236e-05,-0.00046853,8.3726e-37,4.2426e-05,6.901e-19,-8.6883e-23,2.489,0.00051389,-0.00047185,1.7489e-33,7.5681e-05,-34.599,-117.73,-45.731,6.5241,1.0611e-13,-1.2979e-17,78.976,-118.24,-45.731,-34.088,0,0.01659,0,1,4.31,0,-4.31,0
0,0,0,0,0,0,7.2287e-05,-0.00046795,8.3944e-37,4.2343e-05,6.9632e-19,-9.0229e-23,2.4829,0.00051326,-0.00047126,1.7671e-33,7.56e-05,-34.552,-117.58,-45.672,6.5113,1.0707e-13,-1.3495e-17,78.879,-118.09,-45.672,-34.042,0,0.016593,0,1,4.315,0,-4.315,0
0,0,0,0,0,0,7.2214e-05,-0.00046737,8.4161e-37,4.2261e-05,7.0255e-19,-9.3574e-23,2.4769,0.00051263,-0.00047068,1.7852e-33,7.5518e-05,-34.505,-117.43,-45.614,6.4986,1.0802e-13,-1.4011e-17,78.782,-117.94,-45.614,-33.996,0,0.016595,0,1,4.32,0,-4.32,0
0,0,0,0,0,0,7.2142e-05,-0.0004668,8.4379e-37,4.2178e-05,7.0877e-19,-9.6919e-23,2.4708,0.000512,-0.00047009,1.8033e-33,7.5436e-05,-34.458,-117.29,-45.556,6.4859,1.0898e-13,-1.4527e-17,78.685,-117.79,-45.556,-33.951,0,0.016597,0,1,4.325,0,-4.325,0
0,0,0,0,0,0,7.2069e-05,-0.00046622,8.4597e-37,4.2095e-05,7.15e-19,-1.0026e-22,2.4647,0.00051136,-0.00046951,1.8215e-33,7.5354e-05,-34.411,-117.14,-45.497,6.4732,1.0994e-13,-1.5043e-17,78.588,-117.65,-45.497,-33.905,0,0.0166,0,1,4.33,0,-4.33,0
0,0,0,0,0,0,7.1996e-05,-0.00046564,8.4815e-37,4.2012e-05,7.2122e-19,-1.0361e-22,2.4587,0.00051073,-0.00046892,1.8396e-33,7.5272e-05,-34.364,-116.99,-45.439,6.4605,1.1089e-13,-1.5559e-17,78.491,-117.5,-45.439,-33.859,0,0.016602,0,1,4.335,0,-4.335,0
0,0,0,0,0,0,7.1923e-05,-0.00046507,8.5033e-37,4.193e-05,7.2745e-19,-1.0696e-22,2.4526,0.0005101,-0.00046833,1.8578e-33,7.5191e-05,-34.317,-116.85,-45.381,6.4478,1.1185e-13,-1.6075e-17,78.394,-117.35,-45.381,-33.814,0,0.016604,0,1,4.34,0,-4.34,0
0,0,0,0,0,0,7.185e-05,-0.00046449,8.525e-37,4.1847e-05,7.3367e-19,-1.103e-22,2.4465,0.00050947,-0.00046775,1.8759e-33,7.5109e-05,-34.269,-116.7,-45.323,6.4351,1.1281e-13,-1.6591e-17,78.297,-117.2,-45.323,-33.768,0,0.016607,0,1,4.345,0,-4.345,0
0,0,0,0,0,0,7.1777e-05,-0.00046391,8.5468e-37,4.1764e-05,7.399e-19,-1.1365e-22,2.4405,0.00050884,-0.00046716,1.8941e-33,7.5027e-05,-34.222,-116.55,-45.264,6.4223,1.1377e-13,-1.7107e-17,78.201,-117.05,-45.264,-33.722,0,0.016609,0,1,4.35,0,-4.35,0
0,0,0,0,0,0,7.1704e-05,-0.00046333,8.5686e-37,4.1682e-05,7.4612e-19,-1.1699e-22,2.4344,0.00050821,-0.00046657,1.9122e-33,7.4945e-05,-34.175,-116.41,-45.206,6.4096,1.1472e-13,-1.7624e-17,78.104,-116.9,-45.206,-33.677,0,0.016611,0,1,4.355,0,-4.355,0
0,0,0,0,0,0,7.1631e-05,-0.00046276,8.5904e-37,4.1599e-05,7.5235e-19,-1.2034e-22,2.4284,0.00050758,-0.00046599,1.9304e-33,7.4863e-05,-34.128,-116.26,-45.148,6.3969,1.1568e-13,-1.814e-17,78.007,-116.76,-45.148,-33.631,0,0.016614,0,1,4.36,0,-4.36,0
0,0,0,0,0,0,7.1558e-05,-0.00046218,8.6122e-37,4.1516e-05,7.5858e-19,-1.2368e-22,2.4223,0.00050695,-0.0004654,1.9485e-33,7.4781e-05,-34.081,-116.11,-45.09,6.3842,1.1664e-13,-1.8656e-17,77.91,-116.61,-45.09,-33.585,0,0.016616,0,1,4.365,0,-4.365,0
0,0,0,0,0,0,7.1485e-05,-0.0004616,8.6339e-37,4.1434e-05,7.648e-19,-1.2703e-22,2.4162,0.00050632,-0.00046482,1.9667e-33,7.47e-05,-34.034,-115.96,-45.031,6.3715,1.1759e-13,-1.9172e-17,77.813,-116.46,-45.031,-33.54,0,0.016618,0,1,4.37,0,-4.37,0
0,0,0,0,0,0,7.1412e-05,-0.00046102,8.6557e-37,4.1351e-05,7.7103e-19,-1.3037e-22,2.4102,0.00050568,-0.00046423,1.9848e-33,7.4618e-05,-33.987,-115.82,-44.973,6.3588,1.1855e-13,-1.9688e-17,77.716,-116.31,-44.973,-33.494,0,0.016621,0,1,4.375,0,-4.375,0
0,0,0,0,0,0,7.1339e-05,-0.00046045,8.6775e-37,4.1268e-05,7.7725e-19,-1.3372e-22,2.4041,0.00050505,-0.00046364,2.003e-33,7.4536e-05,-33.94,-115.67,-44.915,6.3461,1.1951e-13,-2.0204e-17,77.619,-116.16,-44.915,-33.448,0,0.016623,0,1,4.38,0,-4.38,0
0,0,0,0,0,0,7.1267e-05,-0.00045987,8.6993e-37,4.1185e-05,7.8348e-19,-1.3706e-22,2.398,0.00050442,-0.00046306,2.0211e-33,7.4454e-05,-33.893,-115.52,-44.857,6.3333,1.2047e-13,-2.072e-17,77.522,-116.01,-44.857,-33.403,0,0.016625,0,1,4.385,0,-4.385,0
0,0,0,0,0,0,7.1194e-05,-0.00045929,8.7211e-37,4.1103e-05,7.897e-19,-1.4041e-22,2.392,0.00050379,-0.00046247,2.0393e-33,7.4372e-05,-33.846,-115.38,-44.798,6.3206,1.2142e-13,-2.1236e-17,77.425,-115.87,-44.798,-33.357,0,0.016628,0,1,4.39,0,-4.39,0
0,0,0,0,0,0,7.1121e-05,-0.00045871,8.7429e-37,4.102e-05,7.9593e-19,-1.4375e-22,2.3859,0.00050316,-0.00046188,2.0574e-33,7.4291e-05,-33.799,-115.23,-44.74,6.3079,1.2238e-13,-2.1752e-17,77.329,-115.72,-44.74,-33.311,0,0.01663,0,1,4.395,0,-4.395,0
0,0,0,0,0,0,7.1048e-05,-0.00045814,8.7646e-37,4.0937e-05,8.0215e-19,-1.471e-22,2.3798,0.00050253,-0.0004613,2.0756e-33,7.4209e-05,-33.752,-115.08,-44.682,6.2952,1.2334e-13,-2.2268e-17,77.232,-115.57,-44.682,-33.266,0,0.016632,0,1,4.4,0,-4.4,0
0,0,0,0,0,0,7.0975e-05,-0.00045756,8.7864e-37,4.0855e-05,8.0838e-19,-1.5044e-22,2.3738,0.0005019,-0.00046071,2.0937e-33,7.4127e-05,-33.705,-114.94,-44.624,6.2825,1.2429e-13,-2.2784e-17,77.135,-115.42,-44.624,-33.22,0,0.016635,0,1,4.405,0,-4.405,0
0,0,0,0,0,0,7.0902e-05,-0.00045698,8.8082e-37,4.0772e-05,8.146e-19,-1.5379e-22,2.3677,0.00050127,-0.00046013,2.1119e-33,7.4045e-05,-33.658,-114.79,-44.565,6.2698,1.2525e-13,-2.33e-17,77.038,-115.27,-44.565,-33.174,0,0.016637,0,1,4.41,0,-4.41,0
0,0,0,0,0,0,7.0829e-05,-0.0004564,8.83e-37,4.0689e-05,8.2083e-19,-1.5713e-22,2.3616,0.00050064,-0.00045954,2.13e-33,7.3963e-05,-33.611,-114.64,-44.507,6.2571,1.2621e-13,-2.3816e-17,76.941,-115.13,-44.507,-33.129,0,0.016639,0,1,4.415,0,-4.415,0
0,0,0,0,0,0,7.0756e-05,-0.00045583,8.8518e-37,4.0606e-05,8.2705e-19,-1.6048e-22,2.3556,0.0005,-0.00045895,2.1482e-33,7.3881e-05,-33.564,-114.5,-44.449,6.2443,1.2717e-13,-2.4333e-17,76.844,-114.98,-44.449,-33.083,0,0.016641,0,1,4.42,0,-4.42,0
0,0,0,0,0,0,7.0683e-05,-0.00045525,8.8735e-37,4.0524e-05,8.3328e-19,-1.6383e-22,2.3495,0.00049937,-0.00045837,2.1663e-33,7.38e-05,-33.517,-114.35,-44.391,6.2316,1.2812e-13,-2.4849e-17,76.747,-114.83,-44.391,-33.037,0,0.016644,0,1,4.425,0,-4.425,0
0,0,0,0,0,0,7.061e-05,-0.00045467,8.8953e-37,4.0441e-05,8.395e-19,-1.6717e-22,2.3435,0.00049874,-0.00045778,2.1845e-33,7.3718e-05,-33.47,-114.2,-44.332,6.2189,1.2908e-13,-2.5365e-17,76.65,-114.68,-44.332,-32.992,0,0.016646,0,1,4.43,0,-4.43,0
0,0,0,0,0,0,7.0537e-05,-0.00045409,8.9171e-37,4.0358e-05,8.4573e-19,-1.7052e-22,2.3374,0.00049811,-0.00045719,2.2026e-33,7.3636e-05,-33.423,-114.06,-44.274,6.2062,1.3004e-13,-2.5881e-17,76.553,-114.53,-44.274,-32.946,0,0.016648,0,1,4.435,0,-4.435,0
0,0,0,0,0,0,7.0464e-05,-0.00045352,8.9389e-37,4.0276e-05,8.5195e-19,-1.7386e-22,2.3313,0.00049748,-0.00045661,2.2208e-33,7.3554e-05,-33.376,-113.91,-44.216,6.1935,1.3099e-13,-2.6397e-17,76.457,-114.38,-44.216,-32.9,0,0.016651,0,1,4.44,0,-4.44,0
0,0,0,0,0,0,7.0391e-05,-0.00045294,8.9607e-37,4.0193e-05,8.5818e-19,-1.7721e-22,2.3253,0.00049685,-0.00045602,2.2389e-33,7.3472e-05,-33.329,-113.76,-44.158,6.1808,1.3195e-13,-2.6913e-17,76.36,-114.24,-44.158,-32.855,0,0.016653,0,1,4.445,0,-4.445,0
0,0,0,0,0,0,7.0319e-05,-0.00045236,8.9824e-37,4.011e-05,8.644e-19,-1.8055e-22,2.3192,0.00049622,-0.00045543,2.2571e-33,7.3391e-05,-33.282,-113.61,-44.099,6.1681,1.3291e-13,-2.7429e-17,76.263,-114.09,-44.099,-32.809,0,0.016655,0,1,4.45,0,-4.45,0
0,0,0,0,0,0,7.0246e-05,-0.00045179,9.0042e-37,4.0028e-05,8.7063e-19,-1.839e-22,2.3131,0.00049559,-0.00045485,2.2752e-33,7.3309e-05,-33.235,-113.47,-44.041,6.1553,1.3387e-13,-2.7945e-17,76.166,-113.94,-44.041,-32.763,0,0.016658,0,1,4.455,0,-4.455,0
0,0,0,0,0,0,7.0173e-05,-0.00045121,9.026e-37,3.9945e-05,8.7685e-19,-1.8724e-22,2.3071,0.00049496,-0.00045426,2.2934e-33,7.3227e-05,-33.188,-113.32,-43.983,6.1426,1.3482e-13,-2.8461e-17,76.069,-113.79,-43.983,-32.718,0,0.01666,0,1,4.46,0,-4.46,0
0,0,0,0,0,0,7.01e-05,-0.00045063,9.0478e-37,3.9862e-05,8.8308e-19,-1.9059e-22,2.301,0.00049432,-0.00045368,2.3115e-33,7.3145e-05,-33.141,-113.17,-43.925,6.1299,1.3578e-13,-2.8977e-17,75.972,-113.64,-43.925,-32.672,0,0.016662,0,1,4.465,0,-4.465,0
0,0,0,0,0,0,7.0027e-05,-0.00045005,9.0696e-37,3.9779e-05,8.893e-19,-1.9393e-22,2.2949,0.00049369,-0.00045309,2.3296e-33,7.3063e-05,-33.094,-113.03,-43.866,6.1172,1.3674e-13,-2.9493e-17,75.875,-113.49,-43.866,-32.626,0,0.016665,0,1,4.47,0,-4.47,0
0,0,0,0,0,0,6.9954e-05,-0.00044948,9.0913e-37,3.9697e-05,8.9553e-19,-1.9728e-22,2.2889,0.00049306,-0.0004525,2.3478e-33,7.2981e-05,-33.046,-112.88,-43.808,6.1045,1.3769e-13,-3.0009e-17,75.778,-113.35,-43.808,-32.581,0,0.016667,0,1,4.475,0,-4.475,0
0,0,0,0,0,0,6.9881e-05,-0.0004489,9.1131e-37,3.9614e-05,9.0175e-19,-2.0062e-22,2.2828,0.00049243,-0.00045192,2.3659e-33,7.29e-05,-32.999,-112.73,-43.75,6.0918,1.3865e-13,-3.0525e-17,75.682,-113.2,-43.75,-32.535,0,0.016669,0,1,4.48,0,-4.48,0
0,0,0,0,0,0,6.9808e-05,-0.00044832,9.1349e-37,3.9531e-05,9.0798e-19,-2.0397e-22,2.2768,0.0004918,-0.00045133,2.3841e-33,7.2818e-05,-32.952,-112.59,-43.692,6.0791,1.3961e-13,-3.1042e-17,75.585,-113.05,-43.692,-32.489,0,0.016672,0,1,4.485,0,-4.485,0
0,0,0,0,0,0,6.9735e-05,-0.00044774,9.1567e-37,3.9449e-05,9.142e-19,-2.0731e-22,2.2707,0.00049117,-0.00045074,2.4022e-33,7.2736e-05,-32.905,-112.44,-43.633,6.0663,1.4057e-13,-3.1558e-17,75.488,-112.9,-43.633,-32.444,0,0.016674,0,1,4.49,0,-4.49,0
0,0,0,0,0,0,6.9662e-05,-0.00044717,9.1785e-37,3.9366e-05,9.2043e-19,-2.1066e-22,2.2646,0.00049054,-0.00045016,2.4204e-33,7.2654e-05,-32.858,-112.29,-43.575,6.0536,1.4152e-13,-3.2074e-17,75.391,-112.75,-43.575,-32.398,0,0.016676,0,1,4.495,0,-4.495,0
0,0,0,0,0,0,6.9589e-05,-0.00044659,9.2003e-37,3.9283e-05,9.2666e-19,-2.14e-22,2.2586,0.00048991,-0.00044957,2.4385e-33,7.2572e-05,-32.811,-112.15,-43.517,6.0409,1.4248e-13,-3.259e-17,75.294,-112.61,-43.517,-32.352,0,0.016679,0,1,4.5,0,-4.5,0
0,0,0,0,0,0,6.9516e-05,-0.00044601,9.222e-37,3.92e-05,9.3288e-19,-2.1735e-22,2.2525,0.00048928,-0.00044899,2.4567e-33,7.2491e-05,-32.764,-112,-43.459,6.0282,1.4344e-13,-3.3106e-17,75.197,-112.46,-43.459,-32.307,0,0.016681,0,1,4.505,0,-4.505,0
0,0,0,0,0,0,6.9444e-05,-0.00044543,9.2438e-37,3.9118e-05,9.3911e-19,-2.207e-22,2.2464,0.00048864,-0.0004484,2.4748e-33,7.2409e-05,-32.717,-111.85,-43.4,6.0155,1.4439e-13,-3.3622e-17,75.1,-112.31,-43.4,-32.261,0,0.016683,0,1,4.51,0,-4.51,0
0,0,0,0,0,0,6.9371e-05,-0.00044486,9.2656e-37,3.9035e-05,9.4533e-19,-2.2404e-22,2.2404,0.00048801,-0.00044781,2.493e-33,7.2327e-05,-32.67,-111.71,-43.342,6.0028,1.4535e-13,-3.4138e-17,75.003,-112.16,-43.342,-32.215,0,0.016686,0,1,4.515,0,-4.515,0
0,0,0,0,0,0,6.9298e-05,-0.00044428,9.2874e-37,3.8952e-05,9.5156e-19,-2.2739e-22,2.2343,0.00048738,-0.00044723,2.5111e-33,7.2245e-05,-32.623,-111.56,-43.284,5.9901,1.4631e-13,-3.4654e-17,74.906,-112.01,-43.284,-32.17,0,0.016688,0,1,4.52,0,-4.52,0
0,0,0,0,0,0,6.9225e-05,-0.0004437,9.3092e-37,3.887e-05,9.5778e-19,-2.3073e-22,2.2282,0.00048675,-0.00044664,2.5293e-33,7.2163e-05,-32.576,-111.41,-43.225,5.9774,1.4726e-13,-3.517e-17,74.81,-111.86,-43.225,-32.124,0,0.01669,0,1,4.525,0,-4.525,0
0,0,0,0,0,0,6.9152e-05,-0.00044312,9.3309e-37,3.8787e-05,9.6401e-19,-2.3408e-22,2.2222,0.00048612,-0.00044605,2.5474e-33,7.2081e-05,-32.529,-111.26,-43.167,5.9646,1.4822e-13,-3.5686e-17,74.713,-111.72,-43.167,-32.078,0,0.016693,0,1,4.53,0,-4.53,0
0,0,0,0,0,0,6.9079e-05,-0.00044255,9.3527e-37,3.8704e-05,9.7023e-19,-2.3742e-22,2.2161,0.00048549,-0.00044547,2.5656e-33,7.2e-05,-32.482,-111.12,-43.109,5.9519,1.4918e-13,-3.6202e-17,74.616,-111.57,-43.109,-32.033,0,0.016695,0,1,4.535,0,-4.535,0
0,0,0,0,0,0,6.9006e-05,-0.00044197,9.3745e-37,3.8622e-05,9.7646e-19,-2.4077e-22,2.21,0.00048486,-0.00044488,2.5837e-33,7.1918e-05,-32.435,-110.97,-43.051,5.9392,1.5014e-13,-3.6718e-17,74.519,-111.42,-43.051,-31.987,0,0.016697,0,1,4.54,0,-4.54,0
0,0,0,0,0,0,6.8933e-05,-0.00044139,9.3963e-37,3.8539e-05,9.8268e-19,-2.4411e-22,2.204,0.00048423,-0.0004443,2.6019e-33,7.1836e-05,-32.388,-110.82,-42.992,5.9265,1.5109e-13,-3.7234e-17,74.422,-111.27,-42.992,-31.941,0,0.0167,0,1,4.545,0,-4.545,0
0,0,0,0,0,0,6.886e-05,-0.00044082,9.4181e-37,3.8456e-05,9.8891e-19,-2.4746e-22,2.1979,0.0004836,-0.00044371,2.62e-33,7.1754e-05,-32.341,-110.68,-42.934,5.9138,1.5205e-13,-3.7751e-17,74.325,-111.12,-42.934,-31.896,0,0.016702,0,1,4.55,0,-4.55,0
0,0,0,0,0,0,6.8787e-05,-0.00044024,9.4398e-37,3.8373e-05,9.9513e-19,-2.508e-22,2.1919,0.00048296,-0.00044312,2.6382e-33,7.1672e-05,-32.294,-110.53,-42.876,5.9011,1.5301e-13,-3.8267e-17,74.228,-110.97,-42.876,-31.85,0,0.016704,0,1,4.555,0,-4.555,0
0,0,0,0,0,0,6.8714e-05,-0.00043966,9.4616e-37,3.8291e-05,1.0014e-18,-2.5415e-22,2.1858,0.00048233,-0.00044254,2.6563e-33,7.1591e-05,-32.247,-110.38,-42.818,5.8884,1.5396e-13,-3.8783e-17,74.131,-110.83,-42.818,-31.804,0,0.016707,0,1,4.56,0,-4.56,0
0,0,0,0,0,0,6.8641e-05,-0.00043908,9.4834e-37,3.8208e-05,1.0076e-18,-2.5749e-22,2.1797,0.0004817,-0.00044195,2.6745e-33,7.1509e-05,-32.2,-110.24,-42.759,5.8756,1.5492e-13,-3.9299e-17,74.035,-110.68,-42.759,-31.759,0,0.016709,0,1,4.565,0,-4.565,0
0,0,0,0,0,0,6.8569e-05,-0.00043851,9.5052e-37,3.8125e-05,1.0138e-18,-2.6084e-22,2.1737,0.00048107,-0.00044136,2.6926e-33,7.1427e-05,-32.153,-110.09,-42.701,5.8629,1.5588e-13,-3.9815e-17,73.938,-110.53,-42.701,-31.713,0,0.016711,0,1,4.57,0,-4.57,0
0,0,0,0,0,0,6.8496e-05,-0.00043793,9.527e-37,3.8043e-05,1.02e-18,-2.6418e-22,2.1676,0.00048044,-0.00044078,2.7108e-33,7.1345e-05,-32.106,-109.94,-42.643,5.8502,1.5684e-13,-4.0331e-17,73.841,-110.38,-42.643,-31.667,0,0.016714,0,1,4.575,0,-4.575,0
0,0,0,0,0,0,6.8423e-05,-0.00043735,9.5488e-37,3.796e-05,1.0263e-18,-2.6753e-22,2.1615,0.00047981,-0.00044019,2.7289e-33,7.1263e-05,-32.059,-109.8,-42.585,5.8375,1.5779e-13,-4.0847e-17,73.744,-110.23,-42.585,-31.622,0,0.016716,0,1,4.58,0,-4.58,0
0,0,0,0,0,0,6.835e-05,-0.00043677,9.5705e-37,3.7877e-05,1.0325e-18,-2.7087e-22,2.1555,0.00047918,-0.00043961,2.7471e-33,7.1181e-05,-32.012,-109.65,-42.526,5.8248,1.5875e-13,-4.1363e-17,73.647,-110.08,-42.526,-31.576,0,0.016718,0,1,4.585,0,-4.585,0
0,0,0,0,0,0,6.8277e-05,-0.0004362,9.5923e-37,3.7794e-05,1.0387e-18,-2.7422e-22,2.1494,0.00047855,-0.00043902,2.7652e-33,7.11e-05,-31.965,-109.5,-42.468,5.8121,1.5971e-13,-4.1879e-17,73.55,-109.94,-42.468,-31.53,0,0.01672,0,1,4.59,0,-4.59,0
0,0,0,0,0,0,6.8204e-05,-0.00043562,9.6141e-37,3.7712e-05,1.0449e-18,-2.7757e-22,2.1433,0.00047792,-0.00043843,2.7834e-33,7.1018e-05,-31.918,-109.36,-42.41,5.7994,1.6066e-13,-4.2395e-17,73.453,-109.79,-42.41,-31.485,0,0.016723,0,1,4.595,0,-4.595,0
0,0,0,0,0,0,6.8131e-05,-0.00043504,9.6359e-37,3.7629e-05,1.0512e-18,-2.8091e-22,2.1373,0.00047728,-0.00043785,2.8015e-33,7.0936e-05,-31.871,-109.21,-42.352,5.7866,1.6162e-13,-4.2911e-17,73.356,-109.64,-42.352,-31.439,0,0.016725,0,1,4.6,0,-4.6,0
0,0,0,0,0,0,6.8058e-05,-0.00043446,9.6577e-37,3.7546e-05,1.0574e-18,-2.8426e-22,2.1312,0.00047665,-0.00043726,2.8197e-33,7.0854e-05,-31.823,-109.06,-42.293,5.7739,1.6258e-13,-4.3427e-17,73.259,-109.49,-42.293,-31.393,0,0.016727,0,1,4.605,0,-4.605,0
0,0,0,0,0,0,6.7985e-05,-0.00043389,9.6794e-37,3.7464e-05,1.0636e-18,-2.876e-22,2.1252,0.00047602,-0.00043667,2.8378e-33,7.0772e-05,-31.776,-108.91,-42.235,5.7612,1.6354e-13,-4.3943e-17,73.163,-109.34,-42.235,-31.348,0,0.01673,0,1,4.61,0,-4.61,0
0,0,0,0,0,0,6.7912e-05,-0.00043331,9.7012e-37,3.7381e-05,1.0698e-18,-2.9095e-22,2.1191,0.00047539,-0.00043609,2.8559e-33,7.0691e-05,-31.729,-108.77,-42.177,5.7485,1.6449e-13,-4.446e-17,73.066,-109.2,-42.177,-31.302,0,0.016732,0,1,4.615,0,-4.615,0
0,0,0,0,0,0,6.7839e-05,-0.00043273,9.723e-37,3.7298e-05,1.0761e-18,-2.9429e-22,2.113,0.00047476,-0.0004355,2.8741e-33,7.0609e-05,-31.682,-108.62,-42.119,5.7358,1.6545e-13,-4.4976e-17,72.969,-109.05,-42.119,-31.256,0,0.016734,0,1,4.62,0,-4.62,0
0,0,0,0,0,0,6.7766e-05,-0.00043215,9.7448e-37,3.7216e-05,1.0823e-18,-2.9764e-22,2.107,0.00047413,-0.00043491,2.8922e-33,7.0527e-05,-31.635,-108.47,-42.06,5.7231,1.6641e-13,-4.5492e-17,72.872,-108.9,-42.06,-31.211,0,0.016737,0,1,4.625,0,-4.625,0
0,0,0,0,0,0,6.7693e-05,-0.00043158,9.7666e-37,3.7133e-05,1.0885e-18,-3.0098e-22,2.1009,0.0004735,-0.00043433,2.9104e-33,7.0445e-05,-31.588,-108.33,-42.002,5.7104,1.6736e-13,-4.6008e-17,72.775,-108.75,-42.002,-31.165,0,0.016739,0,1,4.63,0,-4.63,0
0,0,0,0,0,0,6.7621e-05,-0.000431,9.7883e-37,3.705e-05,1.0947e-18,-3.0433e-22,2.0948,0.00047287,-0.00043374,2.9285e-33,7.0363e-05,-31.541,-108.18,-41.944,5.6976,1.6832e-13,-4.6524e-17,72.678,-108.6,-41.944,-31.119,0,0.016741,0,1,4.635,0,-4.635,0
0,0,0,0,0,0,6.7548e-05,-0.00043042,9.8101e-37,3.6967e-05,1.101e-18,-3.0767e-22,2.0888,0.00047224,-0.00043316,2.9467e-33,7.0281e-05,-31.494,-108.03,-41.886,5.6849,1.6928e-13,-4.704e-17,72.581,-108.45,-41.886,-31.074,0,0.016744,0,1,4.64,0,-4.64,0
0,0,0,0,0,0,6.7475e-05,-0.00042984,9.8319e-37,3.6885e-05,1.1072e-18,-3.1102e-22,2.0827,0.0004716,-0.00043257,2.9648e-33,7.02e-05,-31.447,-107.89,-41.827,5.6722,1.7024e-13,-4.7556e-17,72.484,-108.31,-41.827,-31.028,0,0.016746,0,1,4.645,0,-4.645,0
0,0,0,0,0,0,6.7402e-05,-0.00042927,9.8537e-37,3.6802e-05,1.1134e-18,-3.1436e-22,2.0766,0.00047097,-0.00043198,2.983e-33,7.0118e-05,-31.4,-107.74,-41.769,5.6595,1.7119e-13,-4.8072e-17,72.387,-108.16,-41.769,-30.982,0,0.016748,0,1,4.65,0,-4.65,0
0,0,0,0,0,0,6.7329e-05,-0.00042869,9.8755e-37,3.6719e-05,1.1196e-18,-3.1771e-22,2.0706,0.00047034,-0.0004314,3.0011e-33,7.0036e-05,-31.353,-107.59,-41.711,5.6468,1.7215e-13,-4.8588e-17,72.291,-108.01,-41.711,-30.937,0,0.016751,0,1,4.655,0,-4.655,0
0,0,0,0,0,0,6.7256e-05,-0.00042811,9.8972e-37,3.6637e-05,1.1259e-18,-3.2105e-22,2.0645,0.00046971,-0.00043081,3.0193e-33,6.9954e-05,-31.306,-107.45,-41.653,5.6341,1.7311e-13,-4.9104e-17,72.194,-107.86,-41.653,-30.891,0,0.016753,0,1,4.66,0,-4.66,0
0,0,0,0,0,0,6.7183e-05,-0.00042754,9.919e-37,3.6554e-05,1.1321e-18,-3.244e-22,2.0584,0.00046908,-0.00043022,3.0374e-33,6.9872e-05,-31.259,-107.3,-41.594,5.6214,1.7406e-13,-4.962e-17,72.097,-107.71,-41.594,-30.845,0,0.016755,0,1,4.665,0,-4.665,0
0,0,0,0,0,0,6.711e-05,-0.00042696,9.9408e-37,3.6471e-05,1.1383e-18,-3.2775e-22,2.0524,0.00046845,-0.00042964,3.0556e-33,6.979e-05,-31.212,-107.15,-41.536,5.6086,1.7502e-13,-5.0136e-17,72,-107.56,-41.536,-30.8,0,0.016758,0,1,4.67,0,-4.67,0
0,0,0,0,0,0,6.7037e-05,-0.00042638,9.9626e-37,3.6388e-05,1.1445e-18,-3.3109e-22,2.0463,0.00046782,-0.00042905,3.0737e-33,6.9709e-05,-31.165,-107.01,-41.478,5.5959,1.7598e-13,-5.0652e-17,71.903,-107.42,-41.478,-30.754,0,0.01676,0,1,4.675,0,-4.675,0
0,0,0,0,0,0,6.6964e-05,-0.0004258,9.9844e-37,3.6306e-05,1.1508e-18,-3.3444e-22,2.0403,0.00046719,-0.00042847,3.0919e-33,6.9627e-05,-31.118,-106.86,-41.42,5.5832,1.7694e-13,-5.1169e-17,71.806,-107.27,-41.42,-30.708,0,0.016762,0,1,4.68,0,-4.68,0
0,0,0,0,0,0,6.6891e-05,-0.00042523,1.0006e-36,3.6223e-05,1.157e-18,-3.3778e-22,2.0342,0.00046656,-0.00042788,3.11e-33,6.9545e-05,-31.071,-106.71,-41.361,5.5705,1.7789e-13,-5.1685e-17,71.709,-107.12,-41.361,-30.663,0,0.016765,0,1,4.685,0,-4.685,0
0,0,0,0,0,0,6.6818e-05,-0.00042465,1.0028e-36,3.614e-05,1.1632e-18,-3.4113e-22,2.0281,0.00046592,-0.00042729,3.1282e-33,6.9463e-05,-31.024,-106.56,-41.303,5.5578,1.7885e-13,-5.2201e-17,71.612,-106.97,-41.303,-30.617,0,0.016767,0,1,4.69,0,-4.69,0
0,0,0,0,0,0,6.6746e-05,-0.00042407,1.005e-36,3.6058e-05,1.1694e-18,-3.4447e-22,2.0221,0.00046529,-0.00042671,3.1463e-33,6.9381e-05,-30.977,-106.42,-41.245,5.5451,1.7981e-13,-5.2717e-17,71.516,-106.82,-41.245,-30.571,0,0.016769,0,1,4.695,0,-4.695,0
0,0,0,0,0,0,6.6673e-05,-0.00042349,1.0071e-36,3.5975e-05,1.1757e-18,-3.4782e-22,2.016,0.00046466,-0.00042612,3.1645e-33,6.93e-05,-30.93,-106.27,-41.187,5.5324,1.8076e-13,-5.3233e-17,71.419,-106.68,-41.187,-30.526,0,0.016772,0,1,4.7,0,-4.7,0
0,0,0,0,0,0,6.66e-05,-0.00042292,1.0093e-36,3.5892e-05,1.1819e-18,-3.5116e-22,2.0099,0.00046403,-0.00042553,3.1826e-33,6.9218e-05,-30.883,-106.12,-41.128,5.5196,1.8172e-13,-5.3749e-17,71.322,-106.53,-41.128,-30.48,0,0.016774,0,1,4.705,0,-4.705,0
0,0,0,0,0,0,6.652e-05,-0.00042232,1.0106e-36,3.5806e-05,1.1895e-18,-3.5585e-22,2.0036,0.00046337,-0.00042493,3.2047e-33,6.9128e-05,-30.835,-105.97,-41.068,5.5063,1.8289e-13,-5.4472e-17,71.221,-106.37,-41.068,-30.434,0,0.016776,0,1,4.71,0,-4.71,0
0,0,0,0,0,0,6.6511e-05,-0.00042194,1.0207e-36,3.5759e-05,1.1834e-18,-3.472e-22,2.0002,0.00046298,-0.00042454,3.1881e-33,6.9115e-05,-30.793,-105.87,-41.025,5.4991,1.8196e-13,-5.3143e-17,71.161,-106.27,-41.025,-30.393,0,0.016778,0,1,4.715,0,-4.715,0
0,0,0,0,0,0,6.6503e-05,-0.00042156,1.0307e-36,3.5712e-05,1.1774e-18,-3.3855e-22,1.9969,0.0004626,-0.00042416,3.1715e-33,6.9102e-05,-30.752,-105.77,-40.983,5.4919,1.8103e-13,-5.1814e-17,71.101,-106.17,-40.983,-30.352,0,0.01678,0,1,4.72,0,-4.72,0
0,0,0,0,0,0,6.6494e-05,-0.00042118,1.0408e-36,3.5664e-05,1.1713e-18,-3.299e-22,1.9936,0.00046221,-0.00042377,3.1549e-33,6.9089e-05,-30.71,-105.67,-40.94,5.4846,1.801e-13,-5.0485e-17,71.042,-106.07,-40.94,-30.311,0,0.016782,0,1,4.725,0,-4.725,0
0,0,0,0,0,0,6.6486e-05,-0.0004208,1.0508e-36,3.5617e-05,1.1653e-18,-3.2125e-22,1.9902,0.00046182,-0.00042339,3.1383e-33,6.9076e-05,-30.669,-105.57,-40.897,5.4774,1.7917e-13,-4.9157e-17,70.982,-105.97,-40.897,-30.27,0,0.016784,0,1,4.73,0,-4.73,0
0,0,0,0,0,0,6.6478e-05,-0.00042042,1.0609e-36,3.557e-05,1.1592e-18,-3.1259e-22,1.9869,0.00046143,-0.000423,3.1217e-33,6.9063e-05,-30.627,-105.47,-40.854,5.4702,1.7824e-13,-4.7828e-17,70.922,-105.86,-40.854,-30.229,0,0.016786,0,1,4.735,0,-4.735,0
0,0,0,0,0,0,6.6469e-05,-0.00042004,1.0709e-36,3.5523e-05,1.1532e-18,-3.0394e-22,1.9836,0.00046104,-0.00042262,3.1051e-33,6.905e-05,-30.586,-105.37,-40.811,5.4629,1.7731e-13,-4.6499e-17,70.863,-105.76,-40.811,-30.188,0,0.016788,0,1,4.74,0,-4.74,0
0,0,0,0,0,0,6.6461e-05,-0.00041966,1.081e-36,3.5476e-05,1.1471e-18,-2.9529e-22,1.9802,0.00046065,-0.00042224,3.0886e-33,6.9037e-05,-30.544,-105.26,-40.768,5.4557,1.7638e-13,-4.517e-17,70.803,-105.66,-40.768,-30.148,0,0.01679,0,1,4.745,0,-4.745,0
0,0,0,0,0,0,6.6453e-05,-0.00041928,1.0911e-36,3.5429e-05,1.1411e-18,-2.8664e-22,1.9769,0.00046026,-0.00042185,3.072e-33,6.9024e-05,-30.502,-105.16,-40.725,5.4485,1.7545e-13,-4.3841e-17,70.743,-105.56,-40.725,-30.107,0,0.016791,0,1,4.75,0,-4.75,0
0,0,0,0,0,0,6.6444e-05,-0.0004189,1.1011e-36,3.5382e-05,1.135e-18,-2.7799e-22,1.9736,0.00045988,-0.00042147,3.0554e-33,6.9011e-05,-30.461,-105.06,-40.682,5.4413,1.7452e-13,-4.2513e-17,70.684,-105.46,-40.682,-30.066,0,0.016793,0,1,4.755,0,-4.755,0
0,0,0,0,0,0,6.6436e-05,-0.00041852,1.1112e-36,3.5335e-05,1.129e-18,-2.6934e-22,1.9702,0.00045949,-0.00042108,3.0388e-33,6.8998e-05,-30.419,-104.96,-40.64,5.434,1.7359e-13,-4.1184e-17,70.624,-105.35,-40.64,-30.025,0,0.016795,0,1,4.76,0,-4.76,0
0,0,0,0,0,0,6.6427e-05,-0.00041814,1.1212e-36,3.5288e-05,1.123e-18,-2.6069e-22,1.9669,0.0004591,-0.0004207,3.0222e-33,6.8985e-05,-30.378,-104.86,-40.597,5.4268,1.7266e-13,-3.9855e-17,70.564,-105.25,-40.597,-29.984,0,0.016797,0,1,4.765,0,-4.765,0
0,0,0,0,0,0,6.6419e-05,-0.00041776,1.1313e-36,3.5241e-05,1.1169e-18,-2.5204e-22,1.9636,0.00045871,-0.00042031,3.0056e-33,6.8972e-05,-30.336,-104.76,-40.554,5.4196,1.7173e-13,-3.8526e-17,70.505,-105.15,-40.554,-29.943,0,0.016799,0,1,4.77,0,-4.77,0
0,0,0,0,0,0,6.6411e-05,-0.00041738,1.1413e-36,3.5194e-05,1.1109e-18,-2.4339e-22,1.9602,0.00045832,-0.00041993,2.989e-33,6.896e-05,-30.294,-104.66,-40.511,5.4123,1.708e-13,-3.7198e-17,70.445,-105.05,-40.511,-29.902,0,0.016801,0,1,4.775,0,-4.775,0
0,0,0,0,0,0,6.6402e-05,-0.000417,1.1514e-36,3.5147e-05,1.1048e-18,-2.3474e-22,1.9569,0.00045793,-0.00041955,2.9725e-33,6.8947e-05,-30.253,-104.56,-40.468,5.4051,1.6987e-13,-3.5869e-17,70.385,-104.95,-40.468,-29.861,0,0.016803,0,1,4.78,0,-4.78,0
0,0,0,0,0,0,6.6394e-05,-0.00041662,1.1614e-36,3.51e-05,1.0988e-18,-2.2608e-22,1.9536,0.00045754,-0.00041916,2.9559e-33,6.8934e-05,-30.211,-104.45,-40.425,5.3979,1.6894e-13,-3.454e-17,70.326,-104.85,-40.425,-29.821,0,0.016805,0,1,4.785,0,-4.785,0
0,0,0,0,0,0,6.6386e-05,-0.00041624,1.1715e-36,3.5053e-05,1.0927e-18,-2.1743e-22,1.9502,0.00045716,-0.00041878,2.9393e-33,6.8921e-05,-30.17,-104.35,-40.382,5.3906,1.6801e-13,-3.3211e-17,70.266,-104.74,-40.382,-29.78,0,0.016807,0,1,4.79,0,-4.79,0
0,0,0,0,0,0,6.6377e-05,-0.00041586,1.1815e-36,3.5006e-05,1.0867e-18,-2.0878e-22,1.9469,0.00045677,-0.00041839,2.9227e-33,6.8908e-05,-30.128,-104.25,-40.339,5.3834,1.6708e-13,-3.1883e-17,70.206,-104.64,-40.339,-29.739,0,0.016809,0,1,4.795,0,-4.795,0
0,0,0,0,0,0,6.6369e-05,-0.00041548,1.1916e-36,3.4959e-05,1.0806e-18,-2.0013e-22,1.9436,0.00045638,-0.00041801,2.9061e-33,6.8895e-05,-30.086,-104.15,-40.297,5.3762,1.6615e-13,-3.0554e-17,70.147,-104.54,-40.297,-29.698,0,0.01681,0,1,4.8,0,-4.8,0
0,0,0,0,0,0,6.6361e-05,-0.0004151,1.2017e-36,3.4912e-05,1.0746e-18,-1.9148e-22,1.9402,0.00045599,-0.00041762,2.8895e-33,6.8882e-05,-30.045,-104.05,-40.254,5.369,1.6522e-13,-2.9225e-17,70.087,-104.44,-40.254,-29.657,0,0.016812,0,1,4.805,0,-4.805,0
0,0,0,0,0,0,6.6352e-05,-0.00041472,1.2117e-36,3.4865e-05,1.0685e-18,-1.8283e-22,1.9369,0.0004556,-0.00041724,2.8729e-33,6.8869e-05,-30.003,-103.95,-40.211,5.3617,1.6429e-13,-2.7896e-17,70.027,-104.34,-40.211,-29.616,0,0.016814,0,1,4.81,0,-4.81,0
0,0,0,0,0,0,6.6344e-05,-0.00041434,1.2218e-36,3.4818e-05,1.0625e-18,-1.7418e-22,1.9336,0.00045521,-0.00041685,2.8564e-33,6.8856e-05,-29.962,-103.85,-40.168,5.3545,1.6336e-13,-2.6567e-17,69.968,-104.23,-40.168,-29.575,0,0.016816,0,1,4.815,0,-4.815,0
0,0,0,0,0,0,6.6335e-05,-0.00041396,1.2318e-36,3.4771e-05,1.0564e-18,-1.6553e-22,1.9302,0.00045482,-0.00041647,2.8398e-33,6.8843e-05,-29.92,-103.75,-40.125,5.3473,1.6243e-13,-2.5239e-17,69.908,-104.13,-40.125,-29.534,0,0.016818,0,1,4.82,0,-4.82,0
0,0,0,0,0,0,6.6327e-05,-0.00041358,1.2419e-36,3.4724e-05,1.0504e-18,-1.5688e-22,1.9269,0.00045444,-0.00041609,2.8232e-33,6.883e-05,-29.879,-103.65,-40.082,5.34,1.615e-13,-2.391e-17,69.848,-104.03,-40.082,-29.493,0,0.01682,0,1,4.825,0,-4.825,0
0,0,0,0,0,0,6.6319e-05,-0.0004132,1.2519e-36,3.4677e-05,1.0443e-18,-1.4822e-22,1.9236,0.00045405,-0.0004157,2.8066e-33,6.8817e-05,-29.837,-103.54,-40.039,5.3328,1.6057e-13,-2.2581e-17,69.789,-103.93,-40.039,-29.453,0,0.016822,0,1,4.83,0,-4.83,0
0,0,0,0,0,0,6.631e-05,-0.00041282,1.262e-36,3.463e-05,1.0383e-18,-1.3957e-22,1.9202,0.00045366,-0.00041532,2.79e-33,6.8804e-05,-29.795,-103.44,-39.996,5.3256,1.5964e-13,-2.1252e-17,69.729,-103.83,-39.996,-29.412,0,0.016824,0,1,4.835,0,-4.835,0
0,0,0,0,0,0,6.6302e-05,-0.00041244,1.272e-36,3.4583e-05,1.0322e-18,-1.3092e-22,1.9169,0.00045327,-0.00041493,2.7734e-33,6.8791e-05,-29.754,-103.34,-39.954,5.3184,1.5871e-13,-1.9924e-17,69.669,-103.72,-39.954,-29.371,0,0.016826,0,1,4.84,0,-4.84,0
0,0,0,0,0,0,6.6294e-05,-0.00041206,1.2821e-36,3.4536e-05,1.0262e-18,-1.2227e-22,1.9136,0.00045288,-0.00041455,2.7568e-33,6.8778e-05,-29.712,-103.24,-39.911,5.3111,1.5778e-13,-1.8595e-17,69.61,-103.62,-39.911,-29.33,0,0.016828,0,1,4.845,0,-4.845,0
0,0,0,0,0,0,6.6285e-05,-0.00041169,1.2921e-36,3.4489e-05,1.0201e-18,-1.1362e-22,1.9103,0.00045249,-0.00041416,2.7403e-33,6.8765e-05,-29.671,-103.14,-39.868,5.3039,1.5685e-13,-1.7266e-17,69.55,-103.52,-39.868,-29.289,0,0.016829,0,1,4.85,0,-4.85,0
0,0,0,0,0,0,6.6277e-05,-0.00041131,1.3022e-36,3.4442e-05,1.0141e-18,-1.0497e-22,1.9069,0.0004521,-0.00041378,2.7237e-33,6.8752e-05,-29.629,-103.04,-39.825,5.2967,1.5592e-13,-1.5937e-17,69.49,-103.42,-39.825,-29.248,0,0.016831,0,1,4.855,0,-4.855,0
0,0,0,0,0,0,6.6269e-05,-0.00041093,1.3123e-36,3.4395e-05,1.008e-18,-9.6318e-23,1.9036,0.00045172,-0.0004134,2.7071e-33,6.8739e-05,-29.587,-102.94,-39.782,5.2894,1.5499e-13,-1.4609e-17,69.431,-103.32,-39.782,-29.207,0,0.016833,0,1,4.86,0,-4.86,0
0,0,0,0,0,0,6.626e-05,-0.00041055,1.3223e-36,3.4348e-05,1.002e-18,-8.7667e-23,1.9003,0.00045133,-0.00041301,2.6905e-33,6.8726e-05,-29.546,-102.84,-39.739,5.2822,1.5406e-13,-1.328e-17,69.371,-103.22,-39.739,-29.166,0,0.016835,0,1,4.865,0,-4.865,0
0,0,0,0,0,0,6.6252e-05,-0.00041017,1.3324e-36,3.4301e-05,9.9593e-19,-7.9016e-23,1.8969,0.00045094,-0.00041263,2.6739e-33,6.8713e-05,-29.504,-102.73,-39.696,5.275,1.5313e-13,-1.1951e-17,69.311,-103.11,-39.696,-29.126,0,0.016837,0,1,4.87,0,-4.87,0
0,0,0,0,0,0,6.6243e-05,-0.00040979,1.3424e-36,3.4254e-05,9.8988e-19,-7.0365e-23,1.8936,0.00045055,-0.00041224,2.6573e-33,6.87e-05,-29.463,-102.63,-39.654,5.2677,1.522e-13,-1.0622e-17,69.252,-103.01,-39.654,-29.085,0,0.016839,0,1,4.875,0,-4.875,0
0,0,0,0,0,0,6.6235e-05,-0.00040941,1.3525e-36,3.4207e-05,9.8383e-19,-6.1714e-23,1.8903,0.00045016,-0.00041186,2.6407e-33,6.8687e-05,-29.421,-102.53,-39.611,5.2605,1.5127e-13,-9.2935e-18,69.192,-102.91,-39.611,-29.044,0,0.016841,0,1,4.88,0,-4.88,0
0,0,0,0,0,0,6.6227e-05,-0.00040903,1.3625e-36,3.416e-05,9.7778e-19,-5.3062e-23,1.8869,0.00044977,-0.00041147,2.6242e-33,6.8674e-05,-29.379,-102.43,-39.568,5.2533,1.5034e-13,-7.9647e-18,69.132,-102.81,-39.568,-29.003,0,0.016843,0,1,4.885,0,-4.885,0
0,0,0,0,0,0,6.6218e-05,-0.00040865,1.3726e-36,3.4113e-05,9.7173e-19,-4.4412e-23,1.8836,0.00044938,-0.00041109,2.6076e-33,6.8661e-05,-29.338,-102.33,-39.525,5.2461,1.4941e-13,-6.636e-18,69.073,-102.71,-39.525,-28.962,0,0.016845,0,1,4.89,0,-4.89,0
0,0,0,0,0,0,6.621e-05,-0.00040827,1.3826e-36,3.4066e-05,9.6568e-19,-3.5761e-23,1.8803,0.000449,-0.00041071,2.591e-33,6.8648e-05,-29.296,-102.23,-39.482,5.2388,1.4848e-13,-5.3072e-18,69.013,-102.6,-39.482,-28.921,0,0.016847,0,1,4.895,0,-4.895,0
0,0,0,0,0,0,6.6202e-05,-0.00040789,1.3927e-36,3.4019e-05,9.5963e-19,-2.7109e-23,1.8769,0.00044861,-0.00041032,2.5744e-33,6.8635e-05,-29.255,-102.13,-39.439,5.2316,1.4755e-13,-3.9784e-18,68.953,-102.5,-39.439,-28.88,0,0.016849,0,1,4.9,0,-4.9,0
0,0,0,0,0,0,6.6193e-05,-0.00040751,1.4027e-36,3.3972e-05,9.5358e-19,-1.8458e-23,1.8736,0.00044822,-0.00040994,2.5578e-33,6.8622e-05,-29.213,-102.03,-39.396,5.2244,1.4662e-13,-2.6496e-18,68.894,-102.4,-39.396,-28.839,0,0.01685,0,1,4.905,0,-4.905,0
0,0,0,0,0,0,6.6185e-05,-0.00040713,1.4128e-36,3.3925e-05,9.4754e-19,-9.8075e-24,1.8703,0.00044783,-0.00040955,2.5412e-33,6.8609e-05,-29.172,-101.93,-39.353,5.2171,1.4569e-13,-1.3209e-18,68.834,-102.3,-39.353,-28.799,0,0.016852,0,1,4.91,0,-4.91,0
0,0,0,0,0,0,6.6176e-05,-0.00040675,1.4229e-36,3.3878e-05,9.4149e-19,-1.1562e-24,1.8669,0.00044744,-0.00040917,2.5246e-33,6.8596e-05,-29.13,-101.82,-39.311,5.2099,1.4476e-13,7.869e-21,68.774,-102.2,-39.311,-28.758,0,0.016854,0,1,4.915,0,-4.915,0
0,0,0,0,0,0,6.6168e-05,-0.00040637,1.4329e-36,3.383e-05,9.3544e-19,7.4951e-24,1.8636,0.00044705,-0.00040878,2.5081e-33,6.8583e-05,-29.088,-101.72,-39.268,5.2027,1.4383e-13,1.3367e-18,68.715,-102.09,-39.268,-28.717,0,0.016856,0,1,4.92,0,-4.92,0
0,0,0,0,0,0,6.616e-05,-0.00040599,1.443e-36,3.3783e-05,9.2939e-19,1.6146e-23,1.8603,0.00044666,-0.0004084,2.4915e-33,6.857e-05,-29.047,-101.62,-39.225,5.1955,1.429e-13,2.6655e-18,68.655,-101.99,-39.225,-28.676,0,0.016858,0,1,4.925,0,-4.925,0
0,0,0,0,0,0,6.6151e-05,-0.00040561,1.453e-36,3.3736e-05,9.2334e-19,2.4797e-23,1.8569,0.00044628,-0.00040802,2.4749e-33,6.8557e-05,-29.005,-101.52,-39.182,5.1882,1.4197e-13,3.9941e-18,68.595,-101.89,-39.182,-28.635,0,0.01686,0,1,4.93,0,-4.93,0
0,0,0,0,0,0,6.6143e-05,-0.00040523,1.4631e-36,3.3689e-05,9.1729e-19,3.3448e-23,1.8536,0.00044589,-0.00040763,2.4583e-33,6.8544e-05,-28.964,-101.42,-39.139,5.181,1.4104e-13,5.3229e-18,68.536,-101.79,-39.139,-28.594,0,0.016862,0,1,4.935,0,-4.935,0
0,0,0,0,0,0,6.6135e-05,-0.00040485,1.4731e-36,3.3642e-05,9.1124e-19,4.2099e-23,1.8503,0.0004455,-0.00040725,2.4417e-33,6.8531e-05,-28.922,-101.32,-39.096,5.1738,1.4011e-13,6.6517e-18,68.476,-101.69,-39.096,-28.553,0,0.016864,0,1,4.94,0,-4.94,0
0,0,0,0,0,0,6.6126e-05,-0.00040447,1.4832e-36,3.3595e-05,9.0519e-19,5.0751e-23,1.8469,0.00044511,-0.00040686,2.4251e-33,6.8518e-05,-28.88,-101.22,-39.053,5.1665,1.3918e-13,7.9805e-18,68.416,-101.59,-39.053,-28.512,0,0.016866,0,1,4.945,0,-4.945,0
0,0,0,0,0,0,6.6118e-05,-0.00040409,1.4932e-36,3.3548e-05,8.9915e-19,5.9401e-23,1.8436,0.00044472,-0.00040648,2.4085e-33,6.8505e-05,-28.839,-101.12,-39.01,5.1593,1.3825e-13,9.3092e-18,68.357,-101.48,-39.01,-28.472,0,0.016868,0,1,4.95,0,-4.95,0
0,0,0,0,0,0,6.611e-05,-0.00040371,1.5033e-36,3.3501e-05,8.931e-19,6.8052e-23,1.8403,0.00044433,-0.00040609,2.392e-33,6.8492e-05,-28.797,-101.01,-38.968,5.1521,1.3732e-13,1.0638e-17,68.297,-101.38,-38.968,-28.431,0,0.016869,0,1,4.955,0,-4.955,0
0,0,0,0,0,0,6.6101e-05,-0.00040333,1.5133e-36,3.3454e-05,8.8705e-19,7.6704e-23,1.8369,0.00044394,-0.00040571,2.3754e-33,6.8479e-05,-28.756,-100.91,-38.925,5.1448,1.3639e-13,1.1967e-17,68.237,-101.28,-38.925,-28.39,0,0.016871,0,1,4.96,0,-4.96,0
0,0,0,0,0,0,6.6093e-05,-0.00040295,1.5234e-36,3.3407e-05,8.81e-19,8.5355e-23,1.8336,0.00044356,-0.00040533,2.3588e-33,6.8466e-05,-28.714,-100.81,-38.882,5.1376,1.3546e-13,1.3296e-17,68.178,-101.18,-38.882,-28.349,0,0.016873,0,1,4.965,0,-4.965,0
0,0,0,0,0,0,6.6084e-05,-0.00040257,1.5334e-36,3.336e-05,8.7495e-19,9.4005e-23,1.8303,0.00044317,-0.00040494,2.3422e-33,6.8453e-05,-28.672,-100.71,-38.839,5.1304,1.3453e-13,1.4624e-17,68.118,-101.08,-38.839,-28.308,0,0.016875,0,1,4.97,0,-4.97,0
0,0,0,0,0,0,6.6076e-05,-0.00040219,1.5435e-36,3.3313e-05,8.689e-19,1.0266e-22,1.8269,0.00044278,-0.00040456,2.3256e-33,6.844e-05,-28.631,-100.61,-38.796,5.1232,1.336e-13,1.5953e-17,68.058,-100.97,-38.796,-28.267,0,0.016877,0,1,4.975,0,-4.975,0
0,0,0,0,0,0,6.6068e-05,-0.00040181,1.5536e-36,3.3266e-05,8.6285e-19,1.1131e-22,1.8236,0.00044239,-0.00040417,2.309e-33,6.8427e-05,-28.589,-100.51,-38.753,5.1159,1.3267e-13,1.7282e-17,67.999,-100.87,-38.753,-28.226,0,0.016879,0,1,4.98,0,-4.98,0
0,0,0,0,0,0,6.6059e-05,-0.00040143,1.5636e-36,3.3219e-05,8.568e-19,1.1996e-22,1.8203,0.000442,-0.00040379,2.2924e-33,6.8414e-05,-28.548,-100.41,-38.71,5.1087,1.3174e-13,1.8611e-17,67.939,-100.77,-38.71,-28.185,0,0.016881,0,1,4.985,0,-4.985,0
0,0,0,0,0,0,6.6051e-05,-0.00040105,1.5737e-36,3.3172e-05,8.5076e-19,1.2861e-22,1.8169,0.00044161,-0.0004034,2.2759e-33,6.8401e-05,-28.506,-100.31,-38.667,5.1015,1.3081e-13,1.9939e-17,67.879,-100.67,-38.667,-28.144,0,0.016883,0,1,4.99,0,-4.99,0
0,0,0,0,0,0,6.6043e-05,-0.00040067,1.5837e-36,3.3125e-05,8.4471e-19,1.3726e-22,1.8136,0.00044122,-0.00040302,2.2593e-33,6.8388e-05,-28.465,-100.21,-38.625,5.0942,1.2988e-13,2.1268e-17,67.82,-100.57,-38.625,-28.104,0,0.016885,0,1,4.995,0,-4.995,0
0,0,0,0,0,0,6.6034e-05,-0.00040029,1.5938e-36,3.3078e-05,8.3866e-19,1.4591e-22,1.8103,0.00044084,-0.00040264,2.2427e-33,6.8376e-05,-28.423,-100.1,-38.582,5.087,1.2895e-13,2.2597e-17,67.76,-100.46,-38.582,-28.063,0,0.016887,0,1,5,0,-5,0
