"displacement:0","displacement:1","displacement:2","displacement contact active","displacement contact distance","displacement contact gap","displacement contact normalload","displacement contact slipload","displacement contact stick","displacement contact weight","stress_xx","stress_xy","stress_xz","stress_yy","stress_yz","stress_zz","vonmises","GeometryIds","vtkValidPointMask","arc_length","Points:0","Points:1","Points:2"
-2.3762e-23,0.010231,0,0.89769,4.7966e-09,2.489e-09,1487.6,1339.3,-0.89769,0.044884,-1660.9,112.79,0,-1781.8,0,-1042.1,736.9,102,1,0,0,0,0
-2.2431e-23,0.010257,0,0.84743,4.5281e-09,2.3497e-09,1404.4,1264.4,-0.84743,0.042372,-1615.2,111.69,0,-1767.9,0,-1024,739.13,102,1,0.005,0,-0.005,0
-2.1101e-23,0.010282,0,0.79718,4.2596e-09,2.2103e-09,1321.1,1189.4,-0.79718,0.039859,-1569.5,110.59,0,-1753.9,0,-1005.9,741.36,102,1,0.01,0,-0.01,0
-1.9771e-23,0.010307,0,0.74693,3.9911e-09,2.071e-09,1237.8,1114.4,-0.74693,0.037346,-1523.7,109.5,0,-1740,0,-987.74,743.59,102,1,0.015,0,-0.015,0
-1.8441e-23,0.010332,0,0.69668,3.7226e-09,1.9317e-09,1154.5,1039.4,-0.69668,0.034834,-1478,108.4,0,-1726.1,0,-969.62,745.82,102,1,0.02,0,-0.02,0
-1.7111e-23,0.010357,0,0.64643,3.454e-09,1.7923e-09,1071.3,964.46,-0.64643,0.032321,-1432.3,107.3,0,-1712.2,0,-951.5,748.05,102,1,0.025,0,-0.025,0
-1.5781e-23,0.010383,0,0.59617,3.1855e-09,1.653e-09,987.98,889.49,-0.59617,0.029809,-1386.6,106.2,0,-1698.3,0,-933.38,750.28,102,1,0.03,0,-0.03,0
-1.445e-23,0.010408,0,0.54592,2.917e-09,1.5137e-09,904.7,814.51,-0.54592,0.027296,-1340.9,105.1,0,-1684.4,0,-915.27,752.51,102,1,0.035,0,-0.035,0
-1.312e-23,0.010433,0,0.49567,2.6485e-09,1.3743e-09,821.42,739.53,-0.49567,0.024783,-1295.1,104,0,-1670.5,0,-897.15,754.74,102,1,0.04,0,-0.04,0
-1.179e-23,0.010458,0,0.44542,2.38e-09,1.235e-09,738.15,664.56,-0.44542,0.022271,-1249.4,102.91,0,-1656.5,0,-879.03,756.97,102,1,0.045,0,-0.045,0
-1.046e-23,0.010484,0,0.39516,2.1115e-09,1.0957e-09,654.87,589.58,-0.39516,0.019758,-1203.7,101.81,0,-1642.6,0,-860.91,759.2,102,1,0.05,0,-0.05,0
-9.1298e-24,0.010509,0,0.34491,1.843e-09,9.5633e-10,571.59,514.61,-0.34491,0.017246,-1158,100.71,0,-1628.7,0,-842.79,761.43,102,1,0.055,0,-0.055,0
-7.7996e-24,0.010534,0,0.29466,1.5745e-09,8.17e-10,488.31,439.63,-0.29466,0.014733,-1112.2,99.61,0,-1614.8,0,-824.67,763.65,102,1,0.06,0,-0.06,0
-6.4694e-24,0.010559,0,0.24441,1.3059e-09,6.7767e-10,405.03,364.66,-0.24441,0.01222,-1066.5,98.511,0,-1600.9,0,-806.55,765.88,102,1,0.065,0,-0.065,0
-5.1393e-24,0.010584,0,0.19416,1.0374e-09,5.3833e-10,321.76,289.68,-0.19416,0.0097078,-1020.8,97.413,0,-1587,0,-788.43,768.11,102,1,0.07,0,-0.07,0
-3.8091e-24,0.01061,0,0.1439,7.6892e-10,3.99e-10,238.48,214.7,-0.1439,0.0071952,-975.07,96.314,0,-1573.1,0,-770.31,770.34,102,1,0.075,0,-0.075,0
-2.4789e-24,0.010635,0,0.093652,5.0041e-10,2.5967e-10,155.2,139.73,-0.093652,0.0046826,-929.34,95.216,0,-1559.1,0,-752.19,772.57,102,1,0.08,0,-0.08,0
-1.1488e-24,0.01066,0,0.0434,2.319e-10,1.2033e-10,71.922,64.752,-0.0434,0.00217,-883.62,94.118,0,-1545.2,0,-734.07,774.8,102,1,0.085,0,-0.085,0
0,0.010686,0,0,0,0,0,0,0,0,-841.53,93.072,0,-1532.2,0,-717.33,777.5,102,1,0.09,0,-0.09,0
0,0.010714,0,0,0,0,0,0,0,0,-822.47,92.366,0,-1524.7,0,-709.33,783.17,102,1,0.095,0,-0.095,0
0,0.010742,0,0,0,0,0,0,0,0,-803.42,91.659,0,-1517.2,0,-701.32,788.84,102,1,0.1,0,-0.1,0
0,0.01077,0,0,0,0,0,0,0,0,-784.36,90.952,0,-1509.7,0,-693.31,794.52,102,1,0.105,0,-0.105,0
0,0.010798,0,0,0,0,0,0,0,0,-765.3,90.245,0,-1502.2,0,-685.3,800.19,102,1,0.11,0,-0.11,0
0,0.010826,0,0,0,0,0,0,0,0,-746.25,89.539,0,-1494.7,0,-677.3,805.86,102,1,0.115,0,-0.115,0
0,0.010854,0,0,0,0,0,0,0,0,-727.19,88.832,0,-1487.2,0,-669.29,811.53,102,1,0.12,0,-0.12,0
0,0.010882,0,0,0,0,0,0,0,0,-708.14,88.125,0,-1479.7,0,-661.28,817.21,102,1,0.125,0,-0.125,0
0,0.01091,0,0,0,0,0,0,0,0,-689.08,87.418,0,-1472.2,0,-653.28,822.88,102,1,0.13,0,-0.13,0
0,0.010938,0,0,0,0,0,0,0,0,-670.02,86.712,0,-1464.7,0,-645.27,828.55,102,1,0.135,0,-0.135,0
0,0.010966,0,0,0,0,0,0,0,0,-650.97,86.005,0,-1457.2,0,-637.26,834.22,102,1,0.14,0,-0.14,0
0,0.010994,0,0,0,0,0,0,0,0,-631.91,85.298,0,-1449.7,0,-629.26,839.89,102,1,0.145,0,-0.145,0
0,0.011022,0,0,0,0,0,0,0,0,-612.85,84.592,0,-1442.3,0,-621.25,845.57,102,1,0.15,0,-0.15,0
0,0.01105,0,0,0,0,0,0,0,0,-593.8,83.885,0,-1434.8,0,-613.24,851.24,102,1,0.155,0,-0.155,0
0,0.011078,0,0,0,0,0,0,0,0,-574.74,83.178,0,-1427.3,0,-605.24,856.91,102,1,0.16,0,-0.16,0
0,0.011106,0,0,0,0,0,0,0,0,-555.68,82.471,0,-1419.8,0,-597.23,862.58,102,1,0.165,0,-0.165,0
0,0.011134,0,0,0,0,0,0,0,0,-536.63,81.765,0,-1412.3,0,-589.22,868.26,102,1,0.17,0,-0.17,0
0,0.011162,0,0,0,0,0,0,0,0,-517.57,81.058,0,-1404.8,0,-581.21,873.93,102,1,0.175,0,-0.175,0
0,0.01119,0,0,0,0,0,0,0,0,-498.51,80.351,0,-1397.3,0,-573.21,879.6,102,1,0.18,0,-0.18,0
0,0.011218,0,0,0,0,0,0,0,0,-479.46,79.644,0,-1389.8,0,-565.2,885.27,102,1,0.185,0,-0.185,0
0,0.011246,0,0,0,0,0,0,0,0,-460.4,78.938,0,-1382.3,0,-557.19,890.95,102,1,0.19,0,-0.19,0
0,0.011274,0,0,0,0,0,0,0,0,-441.34,78.231,0,-1374.8,0,-549.19,896.62,102,1,0.195,0,-0.195,0
0,0.011302,0,0,0,0,0,0,0,0,-422.29,77.524,0,-1367.3,0,-541.18,902.29,102,1,0.2,0,-0.2,0
0,0.011329,0,0,0,0,0,0,0,0,-408.02,76.712,0,-1358.6,0,-534.26,904.07,102,1,0.205,0,-0.205,0
0,0.011354,0,0,0,0,0,0,0,0,-400.51,75.754,0,-1348.3,0,-528.85,900.37,102,1,0.21,0,-0.21,0
0,0.011379,0,0,0,0,0,0,0,0,-392.99,74.795,0,-1338,0,-523.45,896.66,102,1,0.215,0,-0.215,0
0,0.011405,0,0,0,0,0,0,0,0,-385.47,73.836,0,-1327.7,0,-518.05,892.96,102,1,0.22,0,-0.22,0
0,0.01143,0,0,0,0,0,0,0,0,-377.96,72.877,0,-1317.4,0,-512.65,889.26,102,1,0.225,0,-0.225,0
0,0.011456,0,0,0,0,0,0,0,0,-370.44,71.918,0,-1307.1,0,-507.24,885.56,102,1,0.23,0,-0.23,0
0,0.011481,0,0,0,0,0,0,0,0,-362.92,70.959,0,-1296.8,0,-501.84,881.86,102,1,0.235,0,-0.235,0
0,0.011507,0,0,0,0,0,0,0,0,-355.41,70,0,-1286.5,0,-496.44,878.16,102,1,0.24,0,-0.24,0
0,0.011532,0,0,0,0,0,0,0,0,-347.89,69.041,0,-1276.2,0,-491.04,874.46,102,1,0.245,0,-0.245,0
0,0.011557,0,0,0,0,0,0,0,0,-340.37,68.082,0,-1265.9,0,-485.64,870.75,102,1,0.25,0,-0.25,0
0,0.011583,0,0,0,0,0,0,0,0,-332.86,67.123,0,-1255.6,0,-480.23,867.05,102,1,0.255,0,-0.255,0
0,0.011608,0,0,0,0,0,0,0,0,-325.34,66.164,0,-1245.3,0,-474.83,863.35,102,1,0.26,0,-0.26,0
0,0.011634,0,0,0,0,0,0,0,0,-317.82,65.205,0,-1235,0,-469.43,859.65,102,1,0.265,0,-0.265,0
0,0.011659,0,0,0,0,0,0,0,0,-310.3,64.246,0,-1224.6,0,-464.03,855.95,102,1,0.27,0,-0.27,0
0,0.011684,0,0,0,0,0,0,0,0,-302.79,63.287,0,-1214.3,0,-458.62,852.25,102,1,0.275,0,-0.275,0
0,0.01171,0,0,0,0,0,0,0,0,-295.27,62.328,0,-1204,0,-453.22,848.55,102,1,0.28,0,-0.28,0
0,0.011735,0,0,0,0,0,0,0,0,-287.75,61.369,0,-1193.7,0,-447.82,844.84,102,1,0.285,0,-0.285,0
0,0.011761,0,0,0,0,0,0,0,0,-280.24,60.411,0,-1183.4,0,-442.42,841.14,102,1,0.29,0,-0.29,0
0,0.011786,0,0,0,0,0,0,0,0,-272.72,59.452,0,-1173.1,0,-437.02,837.44,102,1,0.295,0,-0.295,0
0,0.011811,0,0,0,0,0,0,0,0,-265.2,58.493,0,-1162.8,0,-431.61,833.74,102,1,0.3,0,-0.3,0
0,0.011837,0,0,0,0,0,0,0,0,-257.69,57.534,0,-1152.5,0,-426.21,830.04,102,1,0.305,0,-0.305,0
0,0.011862,0,0,0,0,0,0,0,0,-250.17,56.575,0,-1142.2,0,-420.81,826.34,102,1,0.31,0,-0.31,0
0,0.011888,0,0,0,0,0,0,0,0,-242.65,55.616,0,-1131.9,0,-415.41,822.64,102,1,0.315,0,-0.315,0
0,0.011913,0,0,0,0,0,0,0,0,-235.14,54.657,0,-1121.6,0,-410,818.93,102,1,0.32,0,-0.32,0
0,0.011939,0,0,0,0,0,0,0,0,-227.62,53.698,0,-1111.3,0,-404.6,815.23,102,1,0.325,0,-0.325,0
0,0.011964,0,0,0,0,0,0,0,0,-220.1,52.739,0,-1101,0,-399.2,811.53,102,1,0.33,0,-0.33,0
0,0.011986,0,0,0,0,0,0,0,0,-216.71,52.061,0,-1092.9,0,-395.74,806.92,102,1,0.335,0,-0.335,0
0,0.012007,0,0,0,0,0,0,0,0,-213.84,51.418,0,-1085.2,0,-392.53,802.2,102,1,0.34,0,-0.34,0
0,0.012028,0,0,0,0,0,0,0,0,-210.98,50.776,0,-1077.5,0,-389.33,797.47,102,1,0.345,0,-0.345,0
0,0.012049,0,0,0,0,0,0,0,0,-208.11,50.133,0,-1069.8,0,-386.12,792.75,102,1,0.35,0,-0.35,0
0,0.01207,0,0,0,0,0,0,0,0,-205.25,49.491,0,-1062.1,0,-382.91,788.03,102,1,0.355,0,-0.355,0
0,0.012091,0,0,0,0,0,0,0,0,-202.38,48.849,0,-1054.4,0,-379.71,783.3,102,1,0.36,0,-0.36,0
0,0.012112,0,0,0,0,0,0,0,0,-199.52,48.206,0,-1046.7,0,-376.5,778.58,102,1,0.365,0,-0.365,0
0,0.012133,0,0,0,0,0,0,0,0,-196.65,47.564,0,-1039,0,-373.29,773.85,102,1,0.37,0,-0.37,0
0,0.012154,0,0,0,0,0,0,0,0,-193.79,46.922,0,-1031.3,0,-370.09,769.13,102,1,0.375,0,-0.375,0
0,0.012175,0,0,0,0,0,0,0,0,-190.93,46.279,0,-1023.6,0,-366.88,764.4,102,1,0.38,0,-0.38,0
0,0.012196,0,0,0,0,0,0,0,0,-188.06,45.637,0,-1015.9,0,-363.67,759.68,102,1,0.385,0,-0.385,0
0,0.012217,0,0,0,0,0,0,0,0,-185.2,44.994,0,-1008.1,0,-360.47,754.96,102,1,0.39,0,-0.39,0
0,0.012238,0,0,0,0,0,0,0,0,-182.33,44.352,0,-1000.4,0,-357.26,750.23,102,1,0.395,0,-0.395,0
0,0.012259,0,0,0,0,0,0,0,0,-179.47,43.71,0,-992.72,0,-354.05,745.51,102,1,0.4,0,-0.4,0
0,0.01228,0,0,0,0,0,0,0,0,-176.6,43.067,0,-985.01,0,-350.85,740.78,102,1,0.405,0,-0.405,0
0,0.012301,0,0,0,0,0,0,0,0,-173.74,42.425,0,-977.3,0,-347.64,736.06,102,1,0.41,0,-0.41,0
0,0.012322,0,0,0,0,0,0,0,0,-170.88,41.783,0,-969.59,0,-344.43,731.33,102,1,0.415,0,-0.415,0
0,0.012343,0,0,0,0,0,0,0,0,-168.01,41.14,0,-961.88,0,-341.23,726.61,102,1,0.42,0,-0.42,0
0,0.012364,0,0,0,0,0,0,0,0,-165.15,40.498,0,-954.17,0,-338.02,721.89,102,1,0.425,0,-0.425,0
0,0.012385,0,0,0,0,0,0,0,0,-162.28,39.856,0,-946.46,0,-334.81,717.16,102,1,0.43,0,-0.43,0
0,0.012406,0,0,0,0,0,0,0,0,-159.42,39.213,0,-938.75,0,-331.61,712.44,102,1,0.435,0,-0.435,0
0,0.012427,0,0,0,0,0,0,0,0,-156.55,38.571,0,-931.04,0,-328.4,707.71,102,1,0.44,0,-0.44,0
0,0.012449,0,0,0,0,0,0,0,0,-153.69,37.928,0,-923.34,0,-325.19,702.99,102,1,0.445,0,-0.445,0
0,0.01247,0,0,0,0,0,0,0,0,-150.83,37.286,0,-915.63,0,-321.99,698.26,102,1,0.45,0,-0.45,0
0,0.012491,0,0,0,0,0,0,0,0,-147.96,36.644,0,-907.92,0,-318.78,693.54,102,1,0.455,0,-0.455,0
0,0.012512,0,0,0,0,0,0,0,0,-145.1,36.001,0,-900.21,0,-315.57,688.82,102,1,0.46,0,-0.46,0
0,0.012533,0,0,0,0,0,0,0,0,-142.23,35.359,0,-892.5,0,-312.37,684.09,102,1,0.465,0,-0.465,0
0,0.012554,0,0,0,0,0,0,0,0,-139.37,34.717,0,-884.79,0,-309.16,679.37,102,1,0.47,0,-0.47,0
0,0.012573,0,0,0,0,0,0,0,0,-137.36,34.214,0,-878.25,0,-306.57,675.05,102,1,0.475,0,-0.475,0
0,0.01259,0,0,0,0,0,0,0,0,-136.15,33.839,0,-872.79,0,-304.55,671.11,102,1,0.48,0,-0.48,0
0,0.012607,0,0,0,0,0,0,0,0,-134.94,33.465,0,-867.33,0,-302.52,667.17,102,1,0.485,0,-0.485,0
0,0.012624,0,0,0,0,0,0,0,0,-133.73,33.091,0,-861.87,0,-300.5,663.22,102,1,0.49,0,-0.49,0
0,0.012641,0,0,0,0,0,0,0,0,-132.52,32.716,0,-856.41,0,-298.48,659.28,102,1,0.495,0,-0.495,0
0,0.012658,0,0,0,0,0,0,0,0,-131.31,32.342,0,-850.96,0,-296.46,655.34,102,1,0.5,0,-0.5,0
0,0.012675,0,0,0,0,0,0,0,0,-130.1,31.968,0,-845.5,0,-294.44,651.4,102,1,0.505,0,-0.505,0
0,0.012692,0,0,0,0,0,0,0,0,-128.89,31.593,0,-840.04,0,-292.42,647.46,102,1,0.51,0,-0.51,0
0,0.012709,0,0,0,0,0,0,0,0,-127.68,31.219,0,-834.58,0,-290.4,643.51,102,1,0.515,0,-0.515,0
0,0.012726,0,0,0,0,0,0,0,0,-126.47,30.845,0,-829.12,0,-288.38,639.57,102,1,0.52,0,-0.52,0
0,0.012743,0,0,0,0,0,0,0,0,-125.26,30.47,0,-823.66,0,-286.35,635.63,102,1,0.525,0,-0.525,0
0,0.012761,0,0,0,0,0,0,0,0,-124.05,30.096,0,-818.21,0,-284.33,631.69,102,1,0.53,0,-0.53,0
0,0.012778,0,0,0,0,0,0,0,0,-122.84,29.722,0,-812.75,0,-282.31,627.75,102,1,0.535,0,-0.535,0
0,0.012795,0,0,0,0,0,0,0,0,-121.63,29.347,0,-807.29,0,-280.29,623.8,102,1,0.54,0,-0.54,0
0,0.012812,0,0,0,0,0,0,0,0,-120.42,28.973,0,-801.83,0,-278.27,619.86,102,1,0.545,0,-0.545,0
0,0.012829,0,0,0,0,0,0,0,0,-119.21,28.599,0,-796.37,0,-276.25,615.92,102,1,0.55,0,-0.55,0
0,0.012846,0,0,0,0,0,0,0,0,-118,28.225,0,-790.92,0,-274.23,611.98,102,1,0.555,0,-0.555,0
0,0.012863,0,0,0,0,0,0,0,0,-116.79,27.85,0,-785.46,0,-272.2,608.04,102,1,0.56,0,-0.56,0
0,0.01288,0,0,0,0,0,0,0,0,-115.58,27.476,0,-780,0,-270.18,604.09,102,1,0.565,0,-0.565,0
0,0.012897,0,0,0,0,0,0,0,0,-114.37,27.102,0,-774.54,0,-268.16,600.15,102,1,0.57,0,-0.57,0
0,0.012914,0,0,0,0,0,0,0,0,-113.16,26.727,0,-769.08,0,-266.14,596.21,102,1,0.575,0,-0.575,0
0,0.012931,0,0,0,0,0,0,0,0,-111.95,26.353,0,-763.62,0,-264.12,592.27,102,1,0.58,0,-0.58,0
0,0.012948,0,0,0,0,0,0,0,0,-110.74,25.979,0,-758.17,0,-262.1,588.33,102,1,0.585,0,-0.585,0
0,0.012965,0,0,0,0,0,0,0,0,-109.53,25.604,0,-752.71,0,-260.08,584.38,102,1,0.59,0,-0.59,0
0,0.012982,0,0,0,0,0,0,0,0,-108.32,25.23,0,-747.25,0,-258.05,580.44,102,1,0.595,0,-0.595,0
0,0.013,0,0,0,0,0,0,0,0,-107.11,24.856,0,-741.79,0,-256.03,576.5,102,1,0.6,0,-0.6,0
0,0.013017,0,0,0,0,0,0,0,0,-105.9,24.481,0,-736.33,0,-254.01,572.56,102,1,0.605,0,-0.605,0
0,0.013034,0,0,0,0,0,0,0,0,-104.69,24.107,0,-730.87,0,-251.99,568.62,102,1,0.61,0,-0.61,0
0,0.013051,0,0,0,0,0,0,0,0,-103.48,23.733,0,-725.42,0,-249.97,564.67,102,1,0.615,0,-0.615,0
0,0.013068,0,0,0,0,0,0,0,0,-102.27,23.359,0,-719.96,0,-247.95,560.73,102,1,0.62,0,-0.62,0
0,0.013085,0,0,0,0,0,0,0,0,-101.06,22.984,0,-714.5,0,-245.93,556.79,102,1,0.625,0,-0.625,0
0,0.013101,0,0,0,0,0,0,0,0,-100.06,22.66,0,-709.57,0,-244.13,553.17,102,1,0.63,0,-0.63,0
0,0.013115,0,0,0,0,0,0,0,0,-99.507,22.446,0,-705.81,0,-242.82,550.24,102,1,0.635,0,-0.635,0
0,0.013129,0,0,0,0,0,0,0,0,-98.957,22.232,0,-702.05,0,-241.52,547.32,102,1,0.64,0,-0.64,0
0,0.013143,0,0,0,0,0,0,0,0,-98.406,22.017,0,-698.29,0,-240.21,544.39,102,1,0.645,0,-0.645,0
0,0.013157,0,0,0,0,0,0,0,0,-97.855,21.803,0,-694.53,0,-238.91,541.47,102,1,0.65,0,-0.65,0
0,0.013171,0,0,0,0,0,0,0,0,-97.305,21.589,0,-690.77,0,-237.6,538.54,102,1,0.655,0,-0.655,0
0,0.013184,0,0,0,0,0,0,0,0,-96.754,21.375,0,-687.01,0,-236.3,535.62,102,1,0.66,0,-0.66,0
0,0.013198,0,0,0,0,0,0,0,0,-96.203,21.16,0,-683.25,0,-234.99,532.69,102,1,0.665,0,-0.665,0
0,0.013212,0,0,0,0,0,0,0,0,-95.653,20.946,0,-679.49,0,-233.69,529.76,102,1,0.67,0,-0.67,0
0,0.013226,0,0,0,0,0,0,0,0,-95.102,20.732,0,-675.73,0,-232.38,526.84,102,1,0.675,0,-0.675,0
0,0.01324,0,0,0,0,0,0,0,0,-94.551,20.518,0,-671.97,0,-231.07,523.91,102,1,0.68,0,-0.68,0
0,0.013254,0,0,0,0,0,0,0,0,-94.001,20.304,0,-668.2,0,-229.77,520.99,102,1,0.685,0,-0.685,0
0,0.013268,0,0,0,0,0,0,0,0,-93.45,20.089,0,-664.44,0,-228.46,518.06,102,1,0.69,0,-0.69,0
0,0.013282,0,0,0,0,0,0,0,0,-92.899,19.875,0,-660.68,0,-227.16,515.14,102,1,0.695,0,-0.695,0
0,0.013296,0,0,0,0,0,0,0,0,-92.349,19.661,0,-656.92,0,-225.85,512.21,102,1,0.7,0,-0.7,0
0,0.01331,0,0,0,0,0,0,0,0,-91.798,19.447,0,-653.16,0,-224.55,509.29,102,1,0.705,0,-0.705,0
0,0.013323,0,0,0,0,0,0,0,0,-91.248,19.232,0,-649.4,0,-223.24,506.36,102,1,0.71,0,-0.71,0
0,0.013337,0,0,0,0,0,0,0,0,-90.697,19.018,0,-645.64,0,-221.94,503.44,102,1,0.715,0,-0.715,0
0,0.013351,0,0,0,0,0,0,0,0,-90.146,18.804,0,-641.88,0,-220.63,500.51,102,1,0.72,0,-0.72,0
0,0.013365,0,0,0,0,0,0,0,0,-89.596,18.59,0,-638.12,0,-219.33,497.59,102,1,0.725,0,-0.725,0
0,0.013379,0,0,0,0,0,0,0,0,-89.045,18.375,0,-634.36,0,-218.02,494.66,102,1,0.73,0,-0.73,0
0,0.013393,0,0,0,0,0,0,0,0,-88.494,18.161,0,-630.6,0,-216.72,491.74,102,1,0.735,0,-0.735,0
0,0.013407,0,0,0,0,0,0,0,0,-87.944,17.947,0,-626.83,0,-215.41,488.81,102,1,0.74,0,-0.74,0
0,0.013421,0,0,0,0,0,0,0,0,-87.393,17.733,0,-623.07,0,-214.1,485.89,102,1,0.745,0,-0.745,0
0,0.013435,0,0,0,0,0,0,0,0,-86.842,17.518,0,-619.31,0,-212.8,482.96,102,1,0.75,0,-0.75,0
0,0.013449,0,0,0,0,0,0,0,0,-86.292,17.304,0,-615.55,0,-211.49,480.03,102,1,0.755,0,-0.755,0
0,0.013462,0,0,0,0,0,0,0,0,-85.741,17.09,0,-611.79,0,-210.19,477.11,102,1,0.76,0,-0.76,0
0,0.013476,0,0,0,0,0,0,0,0,-85.19,16.876,0,-608.03,0,-208.88,474.18,102,1,0.765,0,-0.765,0
0,0.01349,0,0,0,0,0,0,0,0,-84.64,16.661,0,-604.27,0,-207.58,471.26,102,1,0.77,0,-0.77,0
0,0.013504,0,0,0,0,0,0,0,0,-84.089,16.447,0,-600.51,0,-206.27,468.33,102,1,0.775,0,-0.775,0
0,0.013518,0,0,0,0,0,0,0,0,-83.538,16.233,0,-596.75,0,-204.97,465.41,102,1,0.78,0,-0.78,0
0,0.013532,0,0,0,0,0,0,0,0,-82.988,16.019,0,-592.99,0,-203.66,462.48,102,1,0.785,0,-0.785,0
0,0.013546,0,0,0,0,0,0,0,0,-82.437,15.804,0,-589.23,0,-202.36,459.56,102,1,0.79,0,-0.79,0
0,0.01356,0,0,0,0,0,0,0,0,-81.886,15.59,0,-585.46,0,-201.05,456.63,102,1,0.795,0,-0.795,0
0,0.013573,0,0,0,0,0,0,0,0,-81.408,15.4,0,-582.01,0,-199.86,453.92,102,1,0.8,0,-0.8,0
0,0.013584,0,0,0,0,0,0,0,0,-81.125,15.274,0,-579.37,0,-198.98,451.79,102,1,0.805,0,-0.805,0
0,0.013596,0,0,0,0,0,0,0,0,-80.842,15.149,0,-576.73,0,-198.09,449.67,102,1,0.81,0,-0.81,0
0,0.013607,0,0,0,0,0,0,0,0,-80.56,15.024,0,-574.09,0,-197.21,447.54,102,1,0.815,0,-0.815,0
0,0.013619,0,0,0,0,0,0,0,0,-80.277,14.898,0,-571.46,0,-196.33,445.41,102,1,0.82,0,-0.82,0
0,0.01363,0,0,0,0,0,0,0,0,-79.994,14.773,0,-568.82,0,-195.44,443.28,102,1,0.825,0,-0.825,0
0,0.013642,0,0,0,0,0,0,0,0,-79.712,14.647,0,-566.18,0,-194.56,441.15,102,1,0.83,0,-0.83,0
0,0.013653,0,0,0,0,0,0,0,0,-79.429,14.522,0,-563.54,0,-193.68,439.03,102,1,0.835,0,-0.835,0
0,0.013665,0,0,0,0,0,0,0,0,-79.146,14.396,0,-560.9,0,-192.79,436.9,102,1,0.84,0,-0.84,0
0,0.013676,0,0,0,0,0,0,0,0,-78.864,14.271,0,-558.27,0,-191.91,434.77,102,1,0.845,0,-0.845,0
0,0.013688,0,0,0,0,0,0,0,0,-78.581,14.146,0,-555.63,0,-191.03,432.64,102,1,0.85,0,-0.85,0
0,0.013699,0,0,0,0,0,0,0,0,-78.298,14.02,0,-552.99,0,-190.14,430.52,102,1,0.855,0,-0.855,0
0,0.01371,0,0,0,0,0,0,0,0,-78.015,13.895,0,-550.35,0,-189.26,428.39,102,1,0.86,0,-0.86,0
0,0.013722,0,0,0,0,0,0,0,0,-77.733,13.769,0,-547.72,0,-188.38,426.26,102,1,0.865,0,-0.865,0
0,0.013733,0,0,0,0,0,0,0,0,-77.45,13.644,0,-545.08,0,-187.49,424.13,102,1,0.87,0,-0.87,0
0,0.013745,0,0,0,0,0,0,0,0,-77.167,13.518,0,-542.44,0,-186.61,422,102,1,0.875,0,-0.875,0
0,0.013756,0,0,0,0,0,0,0,0,-76.885,13.393,0,-539.8,0,-185.73,419.88,102,1,0.88,0,-0.88,0
0,0.013768,0,0,0,0,0,0,0,0,-76.602,13.267,0,-537.16,0,-184.85,417.75,102,1,0.885,0,-0.885,0
0,0.013779,0,0,0,0,0,0,0,0,-76.319,13.142,0,-534.53,0,-183.96,415.62,102,1,0.89,0,-0.89,0
0,0.013791,0,0,0,0,0,0,0,0,-76.036,13.017,0,-531.89,0,-183.08,413.49,102,1,0.895,0,-0.895,0
0,0.013802,0,0,0,0,0,0,0,0,-75.754,12.891,0,-529.25,0,-182.2,411.37,102,1,0.9,0,-0.9,0
0,0.013814,0,0,0,0,0,0,0,0,-75.471,12.766,0,-526.61,0,-181.31,409.24,102,1,0.905,0,-0.905,0
0,0.013825,0,0,0,0,0,0,0,0,-75.188,12.64,0,-523.98,0,-180.43,407.11,102,1,0.91,0,-0.91,0
0,0.013836,0,0,0,0,0,0,0,0,-74.906,12.515,0,-521.34,0,-179.55,404.98,102,1,0.915,0,-0.915,0
0,0.013848,0,0,0,0,0,0,0,0,-74.623,12.389,0,-518.7,0,-178.66,402.85,102,1,0.92,0,-0.92,0
0,0.013859,0,0,0,0,0,0,0,0,-74.34,12.264,0,-516.06,0,-177.78,400.73,102,1,0.925,0,-0.925,0
0,0.013871,0,0,0,0,0,0,0,0,-74.057,12.138,0,-513.42,0,-176.9,398.6,102,1,0.93,0,-0.93,0
0,0.013882,0,0,0,0,0,0,0,0,-73.775,12.013,0,-510.79,0,-176.01,396.47,102,1,0.935,0,-0.935,0
0,0.013894,0,0,0,0,0,0,0,0,-73.492,11.888,0,-508.15,0,-175.13,394.34,102,1,0.94,0,-0.94,0
0,0.013905,0,0,0,0,0,0,0,0,-73.209,11.762,0,-505.51,0,-174.25,392.21,102,1,0.945,0,-0.945,0
0,0.013917,0,0,0,0,0,0,0,0,-72.927,11.637,0,-502.87,0,-173.36,390.09,102,1,0.95,0,-0.95,0
0,0.013928,0,0,0,0,0,0,0,0,-72.644,11.511,0,-500.24,0,-172.48,387.96,102,1,0.955,0,-0.955,0
0,0.013939,0,0,0,0,0,0,0,0,-72.361,11.386,0,-497.6,0,-171.6,385.83,102,1,0.96,0,-0.96,0
0,0.013951,0,0,0,0,0,0,0,0,-72.078,11.26,0,-494.96,0,-170.71,383.7,102,1,0.965,0,-0.965,0
0,0.013962,0,0,0,0,0,0,0,0,-71.796,11.135,0,-492.32,0,-169.83,381.58,102,1,0.97,0,-0.97,0
0,0.013974,0,0,0,0,0,0,0,0,-71.513,11.01,0,-489.68,0,-168.95,379.45,102,1,0.975,0,-0.975,0
0,0.013985,0,0,0,0,0,0,0,0,-71.23,10.884,0,-487.05,0,-168.06,377.32,102,1,0.98,0,-0.98,0
0,0.013996,0,0,0,0,0,0,0,0,-70.994,10.778,0,-484.7,0,-167.28,375.42,102,1,0.985,0,-0.985,0
0,0.014006,0,0,0,0,0,0,0,0,-70.831,10.702,0,-482.81,0,-166.66,373.86,102,1,0.99,0,-0.99,0
0,0.014015,0,0,0,0,0,0,0,0,-70.668,10.626,0,-480.92,0,-166.05,372.31,102,1,0.995,0,-0.995,0
0,0.014025,0,0,0,0,0,0,0,0,-70.505,10.55,0,-479.04,0,-165.43,370.76,102,1,1,0,-1,0
0,0.014034,0,0,0,0,0,0,0,0,-70.342,10.474,0,-477.15,0,-164.81,369.21,102,1,1.005,0,-1.005,0
0,0.014044,0,0,0,0,0,0,0,0,-70.179,10.398,0,-475.26,0,-164.19,367.66,102,1,1.01,0,-1.01,0
0,0.014053,0,0,0,0,0,0,0,0,-70.016,10.322,0,-473.37,0,-163.57,366.11,102,1,1.015,0,-1.015,0
0,0.014063,0,0,0,0,0,0,0,0,-69.853,10.246,0,-471.49,0,-162.95,364.56,102,1,1.02,0,-1.02,0
0,0.014072,0,0,0,0,0,0,0,0,-69.69,10.17,0,-469.6,0,-162.33,363.01,102,1,1.025,0,-1.025,0
0,0.014082,0,0,0,0,0,0,0,0,-69.527,10.094,0,-467.71,0,-161.71,361.45,102,1,1.03,0,-1.03,0
0,0.014092,0,0,0,0,0,0,0,0,-69.364,10.018,0,-465.82,0,-161.09,359.9,102,1,1.035,0,-1.035,0
0,0.014101,0,0,0,0,0,0,0,0,-69.201,9.9422,0,-463.93,0,-160.47,358.35,102,1,1.04,0,-1.04,0
0,0.014111,0,0,0,0,0,0,0,0,-69.038,9.8663,0,-462.05,0,-159.85,356.8,102,1,1.045,0,-1.045,0
0,0.01412,0,0,0,0,0,0,0,0,-68.875,9.7903,0,-460.16,0,-159.23,355.25,102,1,1.05,0,-1.05,0
0,0.01413,0,0,0,0,0,0,0,0,-68.713,9.7144,0,-458.27,0,-158.61,353.7,102,1,1.055,0,-1.055,0
0,0.014139,0,0,0,0,0,0,0,0,-68.55,9.6384,0,-456.38,0,-157.99,352.15,102,1,1.06,0,-1.06,0
0,0.014149,0,0,0,0,0,0,0,0,-68.387,9.5624,0,-454.5,0,-157.37,350.6,102,1,1.065,0,-1.065,0
0,0.014159,0,0,0,0,0,0,0,0,-68.224,9.4865,0,-452.61,0,-156.75,349.04,102,1,1.07,0,-1.07,0
0,0.014168,0,0,0,0,0,0,0,0,-68.061,9.4105,0,-450.72,0,-156.13,347.49,102,1,1.075,0,-1.075,0
0,0.014178,0,0,0,0,0,0,0,0,-67.898,9.3345,0,-448.83,0,-155.52,345.94,102,1,1.08,0,-1.08,0
0,0.014187,0,0,0,0,0,0,0,0,-67.735,9.2586,0,-446.95,0,-154.9,344.39,102,1,1.085,0,-1.085,0
0,0.014197,0,0,0,0,0,0,0,0,-67.572,9.1826,0,-445.06,0,-154.28,342.84,102,1,1.09,0,-1.09,0
0,0.014206,0,0,0,0,0,0,0,0,-67.409,9.1067,0,-443.17,0,-153.66,341.29,102,1,1.095,0,-1.095,0
0,0.014216,0,0,0,0,0,0,0,0,-67.246,9.0307,0,-441.28,0,-153.04,339.74,102,1,1.1,0,-1.1,0
0,0.014225,0,0,0,0,0,0,0,0,-67.083,8.9547,0,-439.39,0,-152.42,338.19,102,1,1.105,0,-1.105,0
0,0.014235,0,0,0,0,0,0,0,0,-66.92,8.8788,0,-437.51,0,-151.8,336.64,102,1,1.11,0,-1.11,0
0,0.014245,0,0,0,0,0,0,0,0,-66.757,8.8028,0,-435.62,0,-151.18,335.08,102,1,1.115,0,-1.115,0
0,0.014254,0,0,0,0,0,0,0,0,-66.594,8.7268,0,-433.73,0,-150.56,333.53,102,1,1.12,0,-1.12,0
0,0.014264,0,0,0,0,0,0,0,0,-66.431,8.6509,0,-431.84,0,-149.94,331.98,102,1,1.125,0,-1.125,0
0,0.014273,0,0,0,0,0,0,0,0,-66.268,8.5749,0,-429.96,0,-149.32,330.43,102,1,1.13,0,-1.13,0
0,0.014283,0,0,0,0,0,0,0,0,-66.105,8.499,0,-428.07,0,-148.7,328.88,102,1,1.135,0,-1.135,0
0,0.014292,0,0,0,0,0,0,0,0,-65.942,8.423,0,-426.18,0,-148.08,327.33,102,1,1.14,0,-1.14,0
0,0.014302,0,0,0,0,0,0,0,0,-65.779,8.347,0,-424.29,0,-147.46,325.78,102,1,1.145,0,-1.145,0
0,0.014311,0,0,0,0,0,0,0,0,-65.616,8.2711,0,-422.41,0,-146.84,324.23,102,1,1.15,0,-1.15,0
0,0.014321,0,0,0,0,0,0,0,0,-65.453,8.1951,0,-420.52,0,-146.22,322.67,102,1,1.155,0,-1.155,0
0,0.014331,0,0,0,0,0,0,0,0,-65.29,8.1191,0,-418.63,0,-145.6,321.12,102,1,1.16,0,-1.16,0
0,0.01434,0,0,0,0,0,0,0,0,-65.127,8.0432,0,-416.74,0,-144.99,319.57,102,1,1.165,0,-1.165,0
0,0.01435,0,0,0,0,0,0,0,0,-64.964,7.9672,0,-414.85,0,-144.37,318.02,102,1,1.17,0,-1.17,0
0,0.014359,0,0,0,0,0,0,0,0,-64.801,7.8912,0,-412.97,0,-143.75,316.47,102,1,1.175,0,-1.175,0
0,0.014369,0,0,0,0,0,0,0,0,-64.638,7.8153,0,-411.08,0,-143.13,314.92,102,1,1.18,0,-1.18,0
0,0.014377,0,0,0,0,0,0,0,0,-64.513,7.7583,0,-409.53,0,-142.62,313.64,102,1,1.185,0,-1.185,0
0,0.014385,0,0,0,0,0,0,0,0,-64.406,7.7107,0,-408.15,0,-142.17,312.49,102,1,1.19,0,-1.19,0
0,0.014394,0,0,0,0,0,0,0,0,-64.3,7.6631,0,-406.76,0,-141.72,311.35,102,1,1.195,0,-1.195,0
0,0.014402,0,0,0,0,0,0,0,0,-64.193,7.6155,0,-405.38,0,-141.27,310.2,102,1,1.2,0,-1.2,0
0,0.01441,0,0,0,0,0,0,0,0,-64.087,7.5679,0,-404,0,-140.82,309.06,102,1,1.205,0,-1.205,0
0,0.014418,0,0,0,0,0,0,0,0,-63.98,7.5203,0,-402.62,0,-140.37,307.91,102,1,1.21,0,-1.21,0
0,0.014426,0,0,0,0,0,0,0,0,-63.873,7.4727,0,-401.23,0,-139.92,306.77,102,1,1.215,0,-1.215,0
0,0.014434,0,0,0,0,0,0,0,0,-63.767,7.425,0,-399.85,0,-139.48,305.63,102,1,1.22,0,-1.22,0
0,0.014442,0,0,0,0,0,0,0,0,-63.66,7.3774,0,-398.47,0,-139.03,304.48,102,1,1.225,0,-1.225,0
0,0.01445,0,0,0,0,0,0,0,0,-63.554,7.3298,0,-397.09,0,-138.58,303.34,102,1,1.23,0,-1.23,0
0,0.014458,0,0,0,0,0,0,0,0,-63.447,7.2822,0,-395.7,0,-138.13,302.19,102,1,1.235,0,-1.235,0
0,0.014466,0,0,0,0,0,0,0,0,-63.34,7.2346,0,-394.32,0,-137.68,301.05,102,1,1.24,0,-1.24,0
0,0.014474,0,0,0,0,0,0,0,0,-63.234,7.187,0,-392.94,0,-137.23,299.9,102,1,1.245,0,-1.245,0
0,0.014482,0,0,0,0,0,0,0,0,-63.127,7.1394,0,-391.56,0,-136.78,298.76,102,1,1.25,0,-1.25,0
0,0.014491,0,0,0,0,0,0,0,0,-63.021,7.0917,0,-390.17,0,-136.33,297.61,102,1,1.255,0,-1.255,0
0,0.014499,0,0,0,0,0,0,0,0,-62.914,7.0441,0,-388.79,0,-135.88,296.47,102,1,1.26,0,-1.26,0
0,0.014507,0,0,0,0,0,0,0,0,-62.807,6.9965,0,-387.41,0,-135.43,295.32,102,1,1.265,0,-1.265,0
0,0.014515,0,0,0,0,0,0,0,0,-62.701,6.9489,0,-386.02,0,-134.98,294.18,102,1,1.27,0,-1.27,0
0,0.014523,0,0,0,0,0,0,0,0,-62.594,6.9013,0,-384.64,0,-134.53,293.03,102,1,1.275,0,-1.275,0
0,0.014531,0,0,0,0,0,0,0,0,-62.488,6.8537,0,-383.26,0,-134.08,291.89,102,1,1.28,0,-1.28,0
0,0.014539,0,0,0,0,0,0,0,0,-62.381,6.8061,0,-381.88,0,-133.63,290.74,102,1,1.285,0,-1.285,0
0,0.014547,0,0,0,0,0,0,0,0,-62.274,6.7585,0,-380.49,0,-133.18,289.6,102,1,1.29,0,-1.29,0
0,0.014555,0,0,0,0,0,0,0,0,-62.168,6.7108,0,-379.11,0,-132.73,288.45,102,1,1.295,0,-1.295,0
0,0.014563,0,0,0,0,0,0,0,0,-62.061,6.6632,0,-377.73,0,-132.29,287.31,102,1,1.3,0,-1.3,0
0,0.014571,0,0,0,0,0,0,0,0,-61.955,6.6156,0,-376.35,0,-131.84,286.16,102,1,1.305,0,-1.305,0
0,0.014579,0,0,0,0,0,0,0,0,-61.848,6.568,0,-374.96,0,-131.39,285.02,102,1,1.31,0,-1.31,0
0,0.014588,0,0,0,0,0,0,0,0,-61.741,6.5204,0,-373.58,0,-130.94,283.87,102,1,1.315,0,-1.315,0
0,0.014596,0,0,0,0,0,0,0,0,-61.635,6.4728,0,-372.2,0,-130.49,282.73,102,1,1.32,0,-1.32,0
0,0.014604,0,0,0,0,0,0,0,0,-61.528,6.4252,0,-370.82,0,-130.04,281.58,102,1,1.325,0,-1.325,0
0,0.014612,0,0,0,0,0,0,0,0,-61.422,6.3776,0,-369.43,0,-129.59,280.44,102,1,1.33,0,-1.33,0
0,0.01462,0,0,0,0,0,0,0,0,-61.315,6.3299,0,-368.05,0,-129.14,279.29,102,1,1.335,0,-1.335,0
0,0.014628,0,0,0,0,0,0,0,0,-61.208,6.2823,0,-366.67,0,-128.69,278.15,102,1,1.34,0,-1.34,0
0,0.014636,0,0,0,0,0,0,0,0,-61.102,6.2347,0,-365.28,0,-128.24,277,102,1,1.345,0,-1.345,0
0,0.014644,0,0,0,0,0,0,0,0,-60.995,6.1871,0,-363.9,0,-127.79,275.86,102,1,1.35,0,-1.35,0
0,0.014652,0,0,0,0,0,0,0,0,-60.889,6.1395,0,-362.52,0,-127.34,274.71,102,1,1.355,0,-1.355,0
0,0.01466,0,0,0,0,0,0,0,0,-60.782,6.0919,0,-361.14,0,-126.89,273.57,102,1,1.36,0,-1.36,0
0,0.014668,0,0,0,0,0,0,0,0,-60.675,6.0443,0,-359.75,0,-126.44,272.42,102,1,1.365,0,-1.365,0
0,0.014676,0,0,0,0,0,0,0,0,-60.569,5.9967,0,-358.37,0,-125.99,271.28,102,1,1.37,0,-1.37,0
0,0.014685,0,0,0,0,0,0,0,0,-60.462,5.949,0,-356.99,0,-125.54,270.13,102,1,1.375,0,-1.375,0
0,0.014693,0,0,0,0,0,0,0,0,-60.356,5.9014,0,-355.61,0,-125.09,268.99,102,1,1.38,0,-1.38,0
0,0.014701,0,0,0,0,0,0,0,0,-60.249,5.8538,0,-354.22,0,-124.65,267.84,102,1,1.385,0,-1.385,0
0,0.014709,0,0,0,0,0,0,0,0,-60.142,5.8062,0,-352.84,0,-124.2,266.7,102,1,1.39,0,-1.39,0
0,0.014717,0,0,0,0,0,0,0,0,-60.039,5.7606,0,-351.5,0,-123.76,265.59,102,1,1.395,0,-1.395,0
0,0.014724,0,0,0,0,0,0,0,0,-59.961,5.7297,0,-350.46,0,-123.42,264.73,102,1,1.4,0,-1.4,0
0,0.014731,0,0,0,0,0,0,0,0,-59.883,5.6989,0,-349.43,0,-123.09,263.87,102,1,1.405,0,-1.405,0
0,0.014737,0,0,0,0,0,0,0,0,-59.805,5.6681,0,-348.39,0,-122.75,263.02,102,1,1.41,0,-1.41,0
0,0.014744,0,0,0,0,0,0,0,0,-59.727,5.6373,0,-347.36,0,-122.42,262.16,102,1,1.415,0,-1.415,0
0,0.014751,0,0,0,0,0,0,0,0,-59.648,5.6065,0,-346.33,0,-122.08,261.3,102,1,1.42,0,-1.42,0
0,0.014758,0,0,0,0,0,0,0,0,-59.57,5.5756,0,-345.29,0,-121.75,260.44,102,1,1.425,0,-1.425,0
0,0.014765,0,0,0,0,0,0,0,0,-59.492,5.5448,0,-344.26,0,-121.41,259.59,102,1,1.43,0,-1.43,0
0,0.014772,0,0,0,0,0,0,0,0,-59.414,5.514,0,-343.22,0,-121.08,258.73,102,1,1.435,0,-1.435,0
0,0.014779,0,0,0,0,0,0,0,0,-59.336,5.4832,0,-342.19,0,-120.74,257.87,102,1,1.44,0,-1.44,0
0,0.014786,0,0,0,0,0,0,0,0,-59.258,5.4524,0,-341.15,0,-120.4,257.01,102,1,1.445,0,-1.445,0
0,0.014793,0,0,0,0,0,0,0,0,-59.179,5.4215,0,-340.12,0,-120.07,256.16,102,1,1.45,0,-1.45,0
0,0.0148,0,0,0,0,0,0,0,0,-59.101,5.3907,0,-339.08,0,-119.73,255.3,102,1,1.455,0,-1.455,0
0,0.014807,0,0,0,0,0,0,0,0,-59.023,5.3599,0,-338.05,0,-119.4,254.44,102,1,1.46,0,-1.46,0
0,0.014813,0,0,0,0,0,0,0,0,-58.945,5.3291,0,-337.01,0,-119.06,253.59,102,1,1.465,0,-1.465,0
0,0.01482,0,0,0,0,0,0,0,0,-58.867,5.2983,0,-335.98,0,-118.73,252.73,102,1,1.47,0,-1.47,0
0,0.014827,0,0,0,0,0,0,0,0,-58.789,5.2674,0,-334.94,0,-118.39,251.87,102,1,1.475,0,-1.475,0
0,0.014834,0,0,0,0,0,0,0,0,-58.71,5.2366,0,-333.91,0,-118.06,251.01,102,1,1.48,0,-1.48,0
0,0.014841,0,0,0,0,0,0,0,0,-58.632,5.2058,0,-332.87,0,-117.72,250.16,102,1,1.485,0,-1.485,0
0,0.014848,0,0,0,0,0,0,0,0,-58.554,5.175,0,-331.84,0,-117.38,249.3,102,1,1.49,0,-1.49,0
0,0.014855,0,0,0,0,0,0,0,0,-58.476,5.1442,0,-330.8,0,-117.05,248.44,102,1,1.495,0,-1.495,0
0,0.014862,0,0,0,0,0,0,0,0,-58.398,5.1133,0,-329.77,0,-116.71,247.59,102,1,1.5,0,-1.5,0
0,0.014869,0,0,0,0,0,0,0,0,-58.32,5.0825,0,-328.74,0,-116.38,246.73,102,1,1.505,0,-1.505,0
0,0.014876,0,0,0,0,0,0,0,0,-58.241,5.0517,0,-327.7,0,-116.04,245.87,102,1,1.51,0,-1.51,0
0,0.014883,0,0,0,0,0,0,0,0,-58.163,5.0209,0,-326.67,0,-115.71,245.01,102,1,1.515,0,-1.515,0
0,0.01489,0,0,0,0,0,0,0,0,-58.085,4.9901,0,-325.63,0,-115.37,244.16,102,1,1.52,0,-1.52,0
0,0.014896,0,0,0,0,0,0,0,0,-58.007,4.9592,0,-324.6,0,-115.04,243.3,102,1,1.525,0,-1.525,0
0,0.014903,0,0,0,0,0,0,0,0,-57.929,4.9284,0,-323.56,0,-114.7,242.44,102,1,1.53,0,-1.53,0
0,0.01491,0,0,0,0,0,0,0,0,-57.851,4.8976,0,-322.53,0,-114.36,241.58,102,1,1.535,0,-1.535,0
0,0.014917,0,0,0,0,0,0,0,0,-57.773,4.8668,0,-321.49,0,-114.03,240.73,102,1,1.54,0,-1.54,0
0,0.014924,0,0,0,0,0,0,0,0,-57.694,4.836,0,-320.46,0,-113.69,239.87,102,1,1.545,0,-1.545,0
0,0.014931,0,0,0,0,0,0,0,0,-57.616,4.8051,0,-319.42,0,-113.36,239.01,102,1,1.55,0,-1.55,0
0,0.014938,0,0,0,0,0,0,0,0,-57.538,4.7743,0,-318.39,0,-113.02,238.16,102,1,1.555,0,-1.555,0
0,0.014945,0,0,0,0,0,0,0,0,-57.46,4.7435,0,-317.35,0,-112.69,237.3,102,1,1.56,0,-1.56,0
0,0.014952,0,0,0,0,0,0,0,0,-57.382,4.7127,0,-316.32,0,-112.35,236.44,102,1,1.565,0,-1.565,0
0,0.014959,0,0,0,0,0,0,0,0,-57.304,4.6818,0,-315.28,0,-112.02,235.58,102,1,1.57,0,-1.57,0
0,0.014966,0,0,0,0,0,0,0,0,-57.225,4.651,0,-314.25,0,-111.68,234.73,102,1,1.575,0,-1.575,0
0,0.014972,0,0,0,0,0,0,0,0,-57.147,4.6202,0,-313.22,0,-111.34,233.87,102,1,1.58,0,-1.58,0
0,0.014979,0,0,0,0,0,0,0,0,-57.069,4.5894,0,-312.18,0,-111.01,233.01,102,1,1.585,0,-1.585,0
0,0.014986,0,0,0,0,0,0,0,0,-56.991,4.5586,0,-311.15,0,-110.67,232.15,102,1,1.59,0,-1.59,0
0,0.014993,0,0,0,0,0,0,0,0,-56.913,4.5277,0,-310.11,0,-110.34,231.3,102,1,1.595,0,-1.595,0
0,0.015,0,0,0,0,0,0,0,0,-56.835,4.4969,0,-309.08,0,-110,230.44,102,1,1.6,0,-1.6,0
0,0.015007,0,0,0,0,0,0,0,0,-56.756,4.4661,0,-308.04,0,-109.67,229.58,102,1,1.605,0,-1.605,0
0,0.015014,0,0,0,0,0,0,0,0,-56.678,4.4353,0,-307.01,0,-109.33,228.73,102,1,1.61,0,-1.61,0
0,0.015021,0,0,0,0,0,0,0,0,-56.6,4.4045,0,-305.97,0,-109,227.87,102,1,1.615,0,-1.615,0
0,0.015028,0,0,0,0,0,0,0,0,-56.522,4.3736,0,-304.94,0,-108.66,227.01,102,1,1.62,0,-1.62,0
0,0.015034,0,0,0,0,0,0,0,0,-56.455,4.3503,0,-304.08,0,-108.38,226.3,102,1,1.625,0,-1.625,0
0,0.01504,0,0,0,0,0,0,0,0,-56.392,4.3298,0,-303.29,0,-108.13,225.65,102,1,1.63,0,-1.63,0
0,0.015046,0,0,0,0,0,0,0,0,-56.329,4.3093,0,-302.5,0,-107.87,225,102,1,1.635,0,-1.635,0
0,0.015052,0,0,0,0,0,0,0,0,-56.266,4.2887,0,-301.71,0,-107.61,224.35,102,1,1.64,0,-1.64,0
0,0.015058,0,0,0,0,0,0,0,0,-56.203,4.2682,0,-300.92,0,-107.35,223.7,102,1,1.645,0,-1.645,0
0,0.015064,0,0,0,0,0,0,0,0,-56.14,4.2476,0,-300.13,0,-107.1,223.05,102,1,1.65,0,-1.65,0
0,0.01507,0,0,0,0,0,0,0,0,-56.077,4.2271,0,-299.34,0,-106.84,222.4,102,1,1.655,0,-1.655,0
0,0.015076,0,0,0,0,0,0,0,0,-56.014,4.2066,0,-298.55,0,-106.58,221.75,102,1,1.66,0,-1.66,0
0,0.015082,0,0,0,0,0,0,0,0,-55.951,4.186,0,-297.76,0,-106.33,221.1,102,1,1.665,0,-1.665,0
0,0.015088,0,0,0,0,0,0,0,0,-55.888,4.1655,0,-296.97,0,-106.07,220.44,102,1,1.67,0,-1.67,0
0,0.015094,0,0,0,0,0,0,0,0,-55.825,4.1449,0,-296.18,0,-105.81,219.79,102,1,1.675,0,-1.675,0
0,0.0151,0,0,0,0,0,0,0,0,-55.762,4.1244,0,-295.4,0,-105.56,219.14,102,1,1.68,0,-1.68,0
0,0.015106,0,0,0,0,0,0,0,0,-55.699,4.1039,0,-294.61,0,-105.3,218.49,102,1,1.685,0,-1.685,0
0,0.015112,0,0,0,0,0,0,0,0,-55.636,4.0833,0,-293.82,0,-105.04,217.84,102,1,1.69,0,-1.69,0
0,0.015118,0,0,0,0,0,0,0,0,-55.573,4.0628,0,-293.03,0,-104.79,217.19,102,1,1.695,0,-1.695,0
0,0.015124,0,0,0,0,0,0,0,0,-55.51,4.0422,0,-292.24,0,-104.53,216.54,102,1,1.7,0,-1.7,0
0,0.01513,0,0,0,0,0,0,0,0,-55.447,4.0217,0,-291.45,0,-104.27,215.89,102,1,1.705,0,-1.705,0
0,0.015136,0,0,0,0,0,0,0,0,-55.384,4.0012,0,-290.66,0,-104.01,215.23,102,1,1.71,0,-1.71,0
0,0.015141,0,0,0,0,0,0,0,0,-55.321,3.9806,0,-289.87,0,-103.76,214.58,102,1,1.715,0,-1.715,0
0,0.015147,0,0,0,0,0,0,0,0,-55.258,3.9601,0,-289.08,0,-103.5,213.93,102,1,1.72,0,-1.72,0
0,0.015153,0,0,0,0,0,0,0,0,-55.195,3.9395,0,-288.29,0,-103.24,213.28,102,1,1.725,0,-1.725,0
0,0.015159,0,0,0,0,0,0,0,0,-55.132,3.919,0,-287.5,0,-102.99,212.63,102,1,1.73,0,-1.73,0
0,0.015165,0,0,0,0,0,0,0,0,-55.069,3.8985,0,-286.71,0,-102.73,211.98,102,1,1.735,0,-1.735,0
0,0.015171,0,0,0,0,0,0,0,0,-55.006,3.8779,0,-285.92,0,-102.47,211.33,102,1,1.74,0,-1.74,0
0,0.015177,0,0,0,0,0,0,0,0,-54.943,3.8574,0,-285.13,0,-102.22,210.68,102,1,1.745,0,-1.745,0
0,0.015183,0,0,0,0,0,0,0,0,-54.88,3.8368,0,-284.34,0,-101.96,210.02,102,1,1.75,0,-1.75,0
0,0.015189,0,0,0,0,0,0,0,0,-54.817,3.8163,0,-283.55,0,-101.7,209.37,102,1,1.755,0,-1.755,0
0,0.015195,0,0,0,0,0,0,0,0,-54.754,3.7958,0,-282.76,0,-101.45,208.72,102,1,1.76,0,-1.76,0
0,0.015201,0,0,0,0,0,0,0,0,-54.691,3.7752,0,-281.97,0,-101.19,208.07,102,1,1.765,0,-1.765,0
0,0.015207,0,0,0,0,0,0,0,0,-54.628,3.7547,0,-281.18,0,-100.93,207.42,102,1,1.77,0,-1.77,0
0,0.015213,0,0,0,0,0,0,0,0,-54.565,3.7341,0,-280.39,0,-100.67,206.77,102,1,1.775,0,-1.775,0
0,0.015219,0,0,0,0,0,0,0,0,-54.502,3.7136,0,-279.6,0,-100.42,206.12,102,1,1.78,0,-1.78,0
0,0.015225,0,0,0,0,0,0,0,0,-54.439,3.6931,0,-278.81,0,-100.16,205.47,102,1,1.785,0,-1.785,0
0,0.015231,0,0,0,0,0,0,0,0,-54.376,3.6725,0,-278.02,0,-99.904,204.82,102,1,1.79,0,-1.79,0
0,0.015237,0,0,0,0,0,0,0,0,-54.313,3.652,0,-277.23,0,-99.647,204.16,102,1,1.795,0,-1.795,0
0,0.015243,0,0,0,0,0,0,0,0,-54.25,3.6314,0,-276.44,0,-99.39,203.51,102,1,1.8,0,-1.8,0
0,0.015249,0,0,0,0,0,0,0,0,-54.187,3.6109,0,-275.65,0,-99.133,202.86,102,1,1.805,0,-1.805,0
0,0.015255,0,0,0,0,0,0,0,0,-54.124,3.5904,0,-274.86,0,-98.876,202.21,102,1,1.81,0,-1.81,0
0,0.015261,0,0,0,0,0,0,0,0,-54.061,3.5698,0,-274.07,0,-98.619,201.56,102,1,1.815,0,-1.815,0
0,0.015267,0,0,0,0,0,0,0,0,-53.998,3.5493,0,-273.28,0,-98.362,200.91,102,1,1.82,0,-1.82,0
0,0.015273,0,0,0,0,0,0,0,0,-53.935,3.5287,0,-272.49,0,-98.105,200.26,102,1,1.825,0,-1.825,0
0,0.015279,0,0,0,0,0,0,0,0,-53.872,3.5082,0,-271.7,0,-97.849,199.61,102,1,1.83,0,-1.83,0
0,0.015285,0,0,0,0,0,0,0,0,-53.809,3.4877,0,-270.91,0,-97.592,198.95,102,1,1.835,0,-1.835,0
0,0.015291,0,0,0,0,0,0,0,0,-53.746,3.4671,0,-270.12,0,-97.335,198.3,102,1,1.84,0,-1.84,0
0,0.015297,0,0,0,0,0,0,0,0,-53.683,3.4466,0,-269.33,0,-97.078,197.65,102,1,1.845,0,-1.845,0
0,0.015303,0,0,0,0,0,0,0,0,-53.62,3.426,0,-268.54,0,-96.821,197,102,1,1.85,0,-1.85,0
0,0.015309,0,0,0,0,0,0,0,0,-53.557,3.4055,0,-267.75,0,-96.564,196.35,102,1,1.855,0,-1.855,0
0,0.015315,0,0,0,0,0,0,0,0,-53.494,3.385,0,-266.96,0,-96.307,195.7,102,1,1.86,0,-1.86,0
0,0.01532,0,0,0,0,0,0,0,0,-53.436,3.3677,0,-266.27,0,-96.079,195.12,102,1,1.865,0,-1.865,0
0,0.015325,0,0,0,0,0,0,0,0,-53.381,3.3537,0,-265.65,0,-95.877,194.62,102,1,1.87,0,-1.87,0
0,0.015331,0,0,0,0,0,0,0,0,-53.327,3.3396,0,-265.04,0,-95.676,194.12,102,1,1.875,0,-1.875,0
0,0.015336,0,0,0,0,0,0,0,0,-53.272,3.3256,0,-264.42,0,-95.475,193.62,102,1,1.88,0,-1.88,0
0,0.015341,0,0,0,0,0,0,0,0,-53.218,3.3115,0,-263.81,0,-95.274,193.12,102,1,1.885,0,-1.885,0
0,0.015346,0,0,0,0,0,0,0,0,-53.163,3.2975,0,-263.2,0,-95.073,192.62,102,1,1.89,0,-1.89,0
0,0.015352,0,0,0,0,0,0,0,0,-53.109,3.2834,0,-262.58,0,-94.872,192.12,102,1,1.895,0,-1.895,0
0,0.015357,0,0,0,0,0,0,0,0,-53.055,3.2694,0,-261.97,0,-94.671,191.61,102,1,1.9,0,-1.9,0
0,0.015362,0,0,0,0,0,0,0,0,-53,3.2553,0,-261.36,0,-94.469,191.11,102,1,1.905,0,-1.905,0
0,0.015367,0,0,0,0,0,0,0,0,-52.946,3.2413,0,-260.74,0,-94.268,190.61,102,1,1.91,0,-1.91,0
0,0.015372,0,0,0,0,0,0,0,0,-52.891,3.2272,0,-260.13,0,-94.067,190.11,102,1,1.915,0,-1.915,0
0,0.015378,0,0,0,0,0,0,0,0,-52.837,3.2132,0,-259.52,0,-93.866,189.61,102,1,1.92,0,-1.92,0
0,0.015383,0,0,0,0,0,0,0,0,-52.782,3.1991,0,-258.9,0,-93.665,189.11,102,1,1.925,0,-1.925,0
0,0.015388,0,0,0,0,0,0,0,0,-52.728,3.1851,0,-258.29,0,-93.464,188.61,102,1,1.93,0,-1.93,0
0,0.015393,0,0,0,0,0,0,0,0,-52.674,3.1711,0,-257.68,0,-93.263,188.1,102,1,1.935,0,-1.935,0
0,0.015398,0,0,0,0,0,0,0,0,-52.619,3.157,0,-257.06,0,-93.061,187.6,102,1,1.94,0,-1.94,0
0,0.015404,0,0,0,0,0,0,0,0,-52.565,3.143,0,-256.45,0,-92.86,187.1,102,1,1.945,0,-1.945,0
0,0.015409,0,0,0,0,0,0,0,0,-52.51,3.1289,0,-255.83,0,-92.659,186.6,102,1,1.95,0,-1.95,0
0,0.015414,0,0,0,0,0,0,0,0,-52.456,3.1149,0,-255.22,0,-92.458,186.1,102,1,1.955,0,-1.955,0
0,0.015419,0,0,0,0,0,0,0,0,-52.401,3.1008,0,-254.61,0,-92.257,185.6,102,1,1.96,0,-1.96,0
0,0.015424,0,0,0,0,0,0,0,0,-52.347,3.0868,0,-253.99,0,-92.056,185.1,102,1,1.965,0,-1.965,0
0,0.01543,0,0,0,0,0,0,0,0,-52.293,3.0727,0,-253.38,0,-91.855,184.59,102,1,1.97,0,-1.97,0
0,0.015435,0,0,0,0,0,0,0,0,-52.238,3.0587,0,-252.77,0,-91.653,184.09,102,1,1.975,0,-1.975,0
0,0.01544,0,0,0,0,0,0,0,0,-52.184,3.0446,0,-252.15,0,-91.452,183.59,102,1,1.98,0,-1.98,0
0,0.015445,0,0,0,0,0,0,0,0,-52.129,3.0306,0,-251.54,0,-91.251,183.09,102,1,1.985,0,-1.985,0
0,0.015451,0,0,0,0,0,0,0,0,-52.075,3.0165,0,-250.93,0,-91.05,182.59,102,1,1.99,0,-1.99,0
0,0.015456,0,0,0,0,0,0,0,0,-52.02,3.0025,0,-250.31,0,-90.849,182.09,102,1,1.995,0,-1.995,0
0,0.015461,0,0,0,0,0,0,0,0,-51.966,2.9884,0,-249.7,0,-90.648,181.59,102,1,2,0,-2,0
0,0.015466,0,0,0,0,0,0,0,0,-51.912,2.9744,0,-249.09,0,-90.447,181.09,102,1,2.005,0,-2.005,0
0,0.015471,0,0,0,0,0,0,0,0,-51.857,2.9603,0,-248.47,0,-90.245,180.58,102,1,2.01,0,-2.01,0
0,0.015477,0,0,0,0,0,0,0,0,-51.803,2.9463,0,-247.86,0,-90.044,180.08,102,1,2.015,0,-2.015,0
0,0.015482,0,0,0,0,0,0,0,0,-51.748,2.9322,0,-247.25,0,-89.843,179.58,102,1,2.02,0,-2.02,0
0,0.015487,0,0,0,0,0,0,0,0,-51.694,2.9182,0,-246.63,0,-89.642,179.08,102,1,2.025,0,-2.025,0
0,0.015492,0,0,0,0,0,0,0,0,-51.64,2.9041,0,-246.02,0,-89.441,178.58,102,1,2.03,0,-2.03,0
0,0.015497,0,0,0,0,0,0,0,0,-51.585,2.8901,0,-245.4,0,-89.24,178.08,102,1,2.035,0,-2.035,0
0,0.015503,0,0,0,0,0,0,0,0,-51.531,2.876,0,-244.79,0,-89.039,177.58,102,1,2.04,0,-2.04,0
0,0.015508,0,0,0,0,0,0,0,0,-51.476,2.862,0,-244.18,0,-88.837,177.07,102,1,2.045,0,-2.045,0
0,0.015513,0,0,0,0,0,0,0,0,-51.422,2.8479,0,-243.56,0,-88.636,176.57,102,1,2.05,0,-2.05,0
0,0.015518,0,0,0,0,0,0,0,0,-51.367,2.8339,0,-242.95,0,-88.435,176.07,102,1,2.055,0,-2.055,0
0,0.015523,0,0,0,0,0,0,0,0,-51.313,2.8198,0,-242.34,0,-88.234,175.57,102,1,2.06,0,-2.06,0
0,0.015529,0,0,0,0,0,0,0,0,-51.259,2.8058,0,-241.72,0,-88.033,175.07,102,1,2.065,0,-2.065,0
0,0.015534,0,0,0,0,0,0,0,0,-51.204,2.7917,0,-241.11,0,-87.832,174.57,102,1,2.07,0,-2.07,0
0,0.015539,0,0,0,0,0,0,0,0,-51.15,2.7777,0,-240.5,0,-87.631,174.07,102,1,2.075,0,-2.075,0
0,0.015544,0,0,0,0,0,0,0,0,-51.095,2.7636,0,-239.88,0,-87.43,173.57,102,1,2.08,0,-2.08,0
0,0.015549,0,0,0,0,0,0,0,0,-51.041,2.7496,0,-239.27,0,-87.228,173.06,102,1,2.085,0,-2.085,0
0,0.015555,0,0,0,0,0,0,0,0,-50.986,2.7355,0,-238.66,0,-87.027,172.56,102,1,2.09,0,-2.09,0
0,0.01556,0,0,0,0,0,0,0,0,-50.932,2.7215,0,-238.04,0,-86.826,172.06,102,1,2.095,0,-2.095,0
0,0.015565,0,0,0,0,0,0,0,0,-50.878,2.7074,0,-237.43,0,-86.625,171.56,102,1,2.1,0,-2.1,0
0,0.01557,0,0,0,0,0,0,0,0,-50.823,2.6934,0,-236.82,0,-86.424,171.06,102,1,2.105,0,-2.105,0
0,0.015576,0,0,0,0,0,0,0,0,-50.769,2.6793,0,-236.2,0,-86.223,170.56,102,1,2.11,0,-2.11,0
0,0.015581,0,0,0,0,0,0,0,0,-50.714,2.6653,0,-235.59,0,-86.022,170.06,102,1,2.115,0,-2.115,0
0,0.015586,0,0,0,0,0,0,0,0,-50.662,2.6532,0,-235.03,0,-85.839,169.6,102,1,2.12,0,-2.12,0
0,0.01559,0,0,0,0,0,0,0,0,-50.613,2.6433,0,-234.55,0,-85.678,169.21,102,1,2.125,0,-2.125,0
0,0.015595,0,0,0,0,0,0,0,0,-50.564,2.6335,0,-234.06,0,-85.518,168.82,102,1,2.13,0,-2.13,0
0,0.015599,0,0,0,0,0,0,0,0,-50.514,2.6237,0,-233.58,0,-85.357,168.43,102,1,2.135,0,-2.135,0
0,0.015604,0,0,0,0,0,0,0,0,-50.465,2.6138,0,-233.1,0,-85.196,168.04,102,1,2.14,0,-2.14,0
0,0.015609,0,0,0,0,0,0,0,0,-50.416,2.604,0,-232.61,0,-85.036,167.65,102,1,2.145,0,-2.145,0
0,0.015613,0,0,0,0,0,0,0,0,-50.366,2.5942,0,-232.13,0,-84.875,167.26,102,1,2.15,0,-2.15,0
0,0.015618,0,0,0,0,0,0,0,0,-50.317,2.5843,0,-231.64,0,-84.715,166.87,102,1,2.155,0,-2.155,0
0,0.015622,0,0,0,0,0,0,0,0,-50.268,2.5745,0,-231.16,0,-84.554,166.48,102,1,2.16,0,-2.16,0
0,0.015627,0,0,0,0,0,0,0,0,-50.218,2.5647,0,-230.67,0,-84.393,166.09,102,1,2.165,0,-2.165,0
0,0.015631,0,0,0,0,0,0,0,0,-50.169,2.5548,0,-230.19,0,-84.233,165.7,102,1,2.17,0,-2.17,0
0,0.015636,0,0,0,0,0,0,0,0,-50.12,2.545,0,-229.71,0,-84.072,165.31,102,1,2.175,0,-2.175,0
0,0.015641,0,0,0,0,0,0,0,0,-50.071,2.5352,0,-229.22,0,-83.912,164.92,102,1,2.18,0,-2.18,0
0,0.015645,0,0,0,0,0,0,0,0,-50.021,2.5253,0,-228.74,0,-83.751,164.53,102,1,2.185,0,-2.185,0
0,0.01565,0,0,0,0,0,0,0,0,-49.972,2.5155,0,-228.25,0,-83.59,164.13,102,1,2.19,0,-2.19,0
0,0.015654,0,0,0,0,0,0,0,0,-49.923,2.5057,0,-227.77,0,-83.43,163.74,102,1,2.195,0,-2.195,0
0,0.015659,0,0,0,0,0,0,0,0,-49.873,2.4958,0,-227.28,0,-83.269,163.35,102,1,2.2,0,-2.2,0
0,0.015664,0,0,0,0,0,0,0,0,-49.824,2.486,0,-226.8,0,-83.109,162.96,102,1,2.205,0,-2.205,0
0,0.015668,0,0,0,0,0,0,0,0,-49.775,2.4761,0,-226.32,0,-82.948,162.57,102,1,2.21,0,-2.21,0
0,0.015673,0,0,0,0,0,0,0,0,-49.726,2.4663,0,-225.83,0,-82.787,162.18,102,1,2.215,0,-2.215,0
0,0.015677,0,0,0,0,0,0,0,0,-49.676,2.4565,0,-225.35,0,-82.627,161.79,102,1,2.22,0,-2.22,0
0,0.015682,0,0,0,0,0,0,0,0,-49.627,2.4466,0,-224.86,0,-82.466,161.4,102,1,2.225,0,-2.225,0
0,0.015686,0,0,0,0,0,0,0,0,-49.578,2.4368,0,-224.38,0,-82.306,161.01,102,1,2.23,0,-2.23,0
0,0.015691,0,0,0,0,0,0,0,0,-49.528,2.427,0,-223.89,0,-82.145,160.62,102,1,2.235,0,-2.235,0
0,0.015696,0,0,0,0,0,0,0,0,-49.479,2.4171,0,-223.41,0,-81.984,160.23,102,1,2.24,0,-2.24,0
0,0.0157,0,0,0,0,0,0,0,0,-49.43,2.4073,0,-222.93,0,-81.824,159.84,102,1,2.245,0,-2.245,0
0,0.015705,0,0,0,0,0,0,0,0,-49.38,2.3975,0,-222.44,0,-81.663,159.45,102,1,2.25,0,-2.25,0
0,0.015709,0,0,0,0,0,0,0,0,-49.331,2.3876,0,-221.96,0,-81.503,159.06,102,1,2.255,0,-2.255,0
0,0.015714,0,0,0,0,0,0,0,0,-49.282,2.3778,0,-221.47,0,-81.342,158.67,102,1,2.26,0,-2.26,0
0,0.015718,0,0,0,0,0,0,0,0,-49.233,2.368,0,-220.99,0,-81.181,158.27,102,1,2.265,0,-2.265,0
0,0.015723,0,0,0,0,0,0,0,0,-49.183,2.3581,0,-220.5,0,-81.021,157.88,102,1,2.27,0,-2.27,0
0,0.015728,0,0,0,0,0,0,0,0,-49.134,2.3483,0,-220.02,0,-80.86,157.49,102,1,2.275,0,-2.275,0
0,0.015732,0,0,0,0,0,0,0,0,-49.085,2.3385,0,-219.54,0,-80.7,157.1,102,1,2.28,0,-2.28,0
0,0.015737,0,0,0,0,0,0,0,0,-49.035,2.3286,0,-219.05,0,-80.539,156.71,102,1,2.285,0,-2.285,0
0,0.015741,0,0,0,0,0,0,0,0,-48.986,2.3188,0,-218.57,0,-80.378,156.32,102,1,2.29,0,-2.29,0
0,0.015746,0,0,0,0,0,0,0,0,-48.937,2.309,0,-218.08,0,-80.218,155.93,102,1,2.295,0,-2.295,0
0,0.015751,0,0,0,0,0,0,0,0,-48.887,2.2991,0,-217.6,0,-80.057,155.54,102,1,2.3,0,-2.3,0
0,0.015755,0,0,0,0,0,0,0,0,-48.838,2.2893,0,-217.11,0,-79.896,155.15,102,1,2.305,0,-2.305,0
0,0.01576,0,0,0,0,0,0,0,0,-48.789,2.2795,0,-216.63,0,-79.736,154.76,102,1,2.31,0,-2.31,0
0,0.015764,0,0,0,0,0,0,0,0,-48.74,2.2696,0,-216.15,0,-79.575,154.37,102,1,2.315,0,-2.315,0
0,0.015769,0,0,0,0,0,0,0,0,-48.69,2.2598,0,-215.66,0,-79.415,153.98,102,1,2.32,0,-2.32,0
0,0.015773,0,0,0,0,0,0,0,0,-48.641,2.25,0,-215.18,0,-79.254,153.59,102,1,2.325,0,-2.325,0
0,0.015778,0,0,0,0,0,0,0,0,-48.592,2.2401,0,-214.69,0,-79.093,153.2,102,1,2.33,0,-2.33,0
0,0.015783,0,0,0,0,0,0,0,0,-48.542,2.2303,0,-214.21,0,-78.933,152.8,102,1,2.335,0,-2.335,0
0,0.015787,0,0,0,0,0,0,0,0,-48.493,2.2205,0,-213.72,0,-78.772,152.41,102,1,2.34,0,-2.34,0
0,0.015792,0,0,0,0,0,0,0,0,-48.444,2.2106,0,-213.24,0,-78.612,152.02,102,1,2.345,0,-2.345,0
0,0.015796,0,0,0,0,0,0,0,0,-48.394,2.2008,0,-212.75,0,-78.451,151.63,102,1,2.35,0,-2.35,0
0,0.015801,0,0,0,0,0,0,0,0,-48.345,2.191,0,-212.27,0,-78.29,151.24,102,1,2.355,0,-2.355,0
0,0.015806,0,0,0,0,0,0,0,0,-48.296,2.1811,0,-211.79,0,-78.13,150.85,102,1,2.36,0,-2.36,0
0,0.01581,0,0,0,0,0,0,0,0,-48.247,2.1713,0,-211.3,0,-77.969,150.46,102,1,2.365,0,-2.365,0
0,0.015815,0,0,0,0,0,0,0,0,-48.197,2.1615,0,-210.82,0,-77.809,150.07,102,1,2.37,0,-2.37,0
0,0.015819,0,0,0,0,0,0,0,0,-48.148,2.1516,0,-210.33,0,-77.648,149.68,102,1,2.375,0,-2.375,0
0,0.015824,0,0,0,0,0,0,0,0,-48.099,2.1418,0,-209.85,0,-77.487,149.29,102,1,2.38,0,-2.38,0
0,0.015828,0,0,0,0,0,0,0,0,-48.049,2.132,0,-209.36,0,-77.327,148.9,102,1,2.385,0,-2.385,0
0,0.015833,0,0,0,0,0,0,0,0,-48.002,2.1237,0,-208.94,0,-77.183,148.55,102,1,2.39,0,-2.39,0
0,0.015837,0,0,0,0,0,0,0,0,-47.956,2.1167,0,-208.55,0,-77.053,148.25,102,1,2.395,0,-2.395,0
0,0.015841,0,0,0,0,0,0,0,0,-47.91,2.1097,0,-208.16,0,-76.922,147.94,102,1,2.4,0,-2.4,0
0,0.015845,0,0,0,0,0,0,0,0,-47.864,2.1026,0,-207.77,0,-76.792,147.63,102,1,2.405,0,-2.405,0
0,0.015849,0,0,0,0,0,0,0,0,-47.818,2.0956,0,-207.38,0,-76.661,147.32,102,1,2.41,0,-2.41,0
0,0.015853,0,0,0,0,0,0,0,0,-47.772,2.0886,0,-207,0,-76.531,147.02,102,1,2.415,0,-2.415,0
0,0.015857,0,0,0,0,0,0,0,0,-47.726,2.0816,0,-206.61,0,-76.4,146.71,102,1,2.42,0,-2.42,0
0,0.015861,0,0,0,0,0,0,0,0,-47.68,2.0745,0,-206.22,0,-76.27,146.4,102,1,2.425,0,-2.425,0
0,0.015865,0,0,0,0,0,0,0,0,-47.633,2.0675,0,-205.83,0,-76.139,146.09,102,1,2.43,0,-2.43,0
0,0.015869,0,0,0,0,0,0,0,0,-47.587,2.0605,0,-205.44,0,-76.009,145.78,102,1,2.435,0,-2.435,0
0,0.015873,0,0,0,0,0,0,0,0,-47.541,2.0535,0,-205.06,0,-75.878,145.48,102,1,2.44,0,-2.44,0
0,0.015877,0,0,0,0,0,0,0,0,-47.495,2.0464,0,-204.67,0,-75.747,145.17,102,1,2.445,0,-2.445,0
0,0.015881,0,0,0,0,0,0,0,0,-47.449,2.0394,0,-204.28,0,-75.617,144.86,102,1,2.45,0,-2.45,0
0,0.015885,0,0,0,0,0,0,0,0,-47.403,2.0324,0,-203.89,0,-75.486,144.55,102,1,2.455,0,-2.455,0
0,0.015889,0,0,0,0,0,0,0,0,-47.357,2.0253,0,-203.51,0,-75.356,144.25,102,1,2.46,0,-2.46,0
0,0.015894,0,0,0,0,0,0,0,0,-47.311,2.0183,0,-203.12,0,-75.225,143.94,102,1,2.465,0,-2.465,0
0,0.015898,0,0,0,0,0,0,0,0,-47.265,2.0113,0,-202.73,0,-75.095,143.63,102,1,2.47,0,-2.47,0
0,0.015902,0,0,0,0,0,0,0,0,-47.219,2.0043,0,-202.34,0,-74.964,143.32,102,1,2.475,0,-2.475,0
0,0.015906,0,0,0,0,0,0,0,0,-47.173,1.9972,0,-201.95,0,-74.834,143.02,102,1,2.48,0,-2.48,0
0,0.01591,0,0,0,0,0,0,0,0,-47.127,1.9902,0,-201.57,0,-74.703,142.71,102,1,2.485,0,-2.485,0
0,0.015914,0,0,0,0,0,0,0,0,-47.081,1.9832,0,-201.18,0,-74.573,142.4,102,1,2.49,0,-2.49,0
0,0.015918,0,0,0,0,0,0,0,0,-47.035,1.9762,0,-200.79,0,-74.442,142.09,102,1,2.495,0,-2.495,0
0,0.015922,0,0,0,0,0,0,0,0,-46.989,1.9691,0,-200.4,0,-74.312,141.78,102,1,2.5,0,-2.5,0
0,0.015926,0,0,0,0,0,0,0,0,-46.943,1.9621,0,-200.02,0,-74.181,141.48,102,1,2.505,0,-2.505,0
0,0.01593,0,0,0,0,0,0,0,0,-46.897,1.9551,0,-199.63,0,-74.05,141.17,102,1,2.51,0,-2.51,0
0,0.015934,0,0,0,0,0,0,0,0,-46.851,1.948,0,-199.24,0,-73.92,140.86,102,1,2.515,0,-2.515,0
0,0.015938,0,0,0,0,0,0,0,0,-46.805,1.941,0,-198.85,0,-73.789,140.55,102,1,2.52,0,-2.52,0
0,0.015942,0,0,0,0,0,0,0,0,-46.759,1.934,0,-198.46,0,-73.659,140.25,102,1,2.525,0,-2.525,0
0,0.015946,0,0,0,0,0,0,0,0,-46.713,1.927,0,-198.08,0,-73.528,139.94,102,1,2.53,0,-2.53,0
0,0.01595,0,0,0,0,0,0,0,0,-46.667,1.9199,0,-197.69,0,-73.398,139.63,102,1,2.535,0,-2.535,0
0,0.015954,0,0,0,0,0,0,0,0,-46.62,1.9129,0,-197.3,0,-73.267,139.32,102,1,2.54,0,-2.54,0
0,0.015958,0,0,0,0,0,0,0,0,-46.574,1.9059,0,-196.91,0,-73.137,139.01,102,1,2.545,0,-2.545,0
0,0.015963,0,0,0,0,0,0,0,0,-46.528,1.8989,0,-196.52,0,-73.006,138.71,102,1,2.55,0,-2.55,0
0,0.015967,0,0,0,0,0,0,0,0,-46.482,1.8918,0,-196.14,0,-72.876,138.4,102,1,2.555,0,-2.555,0
0,0.015971,0,0,0,0,0,0,0,0,-46.436,1.8848,0,-195.75,0,-72.745,138.09,102,1,2.56,0,-2.56,0
0,0.015975,0,0,0,0,0,0,0,0,-46.39,1.8778,0,-195.36,0,-72.615,137.78,102,1,2.565,0,-2.565,0
0,0.015979,0,0,0,0,0,0,0,0,-46.344,1.8707,0,-194.97,0,-72.484,137.48,102,1,2.57,0,-2.57,0
0,0.015983,0,0,0,0,0,0,0,0,-46.298,1.8637,0,-194.59,0,-72.354,137.17,102,1,2.575,0,-2.575,0
0,0.015987,0,0,0,0,0,0,0,0,-46.252,1.8567,0,-194.2,0,-72.223,136.86,102,1,2.58,0,-2.58,0
0,0.015991,0,0,0,0,0,0,0,0,-46.206,1.8497,0,-193.81,0,-72.092,136.55,102,1,2.585,0,-2.585,0
0,0.015995,0,0,0,0,0,0,0,0,-46.16,1.8426,0,-193.42,0,-71.962,136.24,102,1,2.59,0,-2.59,0
0,0.015999,0,0,0,0,0,0,0,0,-46.114,1.8356,0,-193.03,0,-71.831,135.94,102,1,2.595,0,-2.595,0
0,0.016003,0,0,0,0,0,0,0,0,-46.068,1.8286,0,-192.65,0,-71.701,135.63,102,1,2.6,0,-2.6,0
0,0.016007,0,0,0,0,0,0,0,0,-46.022,1.8216,0,-192.26,0,-71.57,135.32,102,1,2.605,0,-2.605,0
0,0.016011,0,0,0,0,0,0,0,0,-45.976,1.8145,0,-191.87,0,-71.44,135.01,102,1,2.61,0,-2.61,0
0,0.016015,0,0,0,0,0,0,0,0,-45.93,1.8075,0,-191.48,0,-71.309,134.71,102,1,2.615,0,-2.615,0
0,0.016019,0,0,0,0,0,0,0,0,-45.884,1.8005,0,-191.09,0,-71.179,134.4,102,1,2.62,0,-2.62,0
0,0.016023,0,0,0,0,0,0,0,0,-45.838,1.7934,0,-190.71,0,-71.048,134.09,102,1,2.625,0,-2.625,0
0,0.016027,0,0,0,0,0,0,0,0,-45.792,1.7864,0,-190.32,0,-70.918,133.78,102,1,2.63,0,-2.63,0
0,0.016032,0,0,0,0,0,0,0,0,-45.746,1.7794,0,-189.93,0,-70.787,133.48,102,1,2.635,0,-2.635,0
0,0.016036,0,0,0,0,0,0,0,0,-45.7,1.7724,0,-189.54,0,-70.657,133.17,102,1,2.64,0,-2.64,0
0,0.01604,0,0,0,0,0,0,0,0,-45.653,1.7653,0,-189.16,0,-70.526,132.86,102,1,2.645,0,-2.645,0
0,0.016044,0,0,0,0,0,0,0,0,-45.607,1.7583,0,-188.77,0,-70.396,132.55,102,1,2.65,0,-2.65,0
0,0.016048,0,0,0,0,0,0,0,0,-45.561,1.7513,0,-188.38,0,-70.265,132.24,102,1,2.655,0,-2.655,0
0,0.016052,0,0,0,0,0,0,0,0,-45.515,1.7443,0,-187.99,0,-70.134,131.94,102,1,2.66,0,-2.66,0
0,0.016056,0,0,0,0,0,0,0,0,-45.469,1.7372,0,-187.6,0,-70.004,131.63,102,1,2.665,0,-2.665,0
0,0.01606,0,0,0,0,0,0,0,0,-45.423,1.7302,0,-187.22,0,-69.873,131.32,102,1,2.67,0,-2.67,0
0,0.016064,0,0,0,0,0,0,0,0,-45.379,1.7248,0,-186.89,0,-69.762,131.07,102,1,2.675,0,-2.675,0
0,0.016067,0,0,0,0,0,0,0,0,-45.335,1.7197,0,-186.58,0,-69.654,130.82,102,1,2.68,0,-2.68,0
0,0.016071,0,0,0,0,0,0,0,0,-45.291,1.7146,0,-186.26,0,-69.547,130.58,102,1,2.685,0,-2.685,0
0,0.016074,0,0,0,0,0,0,0,0,-45.247,1.7095,0,-185.95,0,-69.439,130.33,102,1,2.69,0,-2.69,0
0,0.016078,0,0,0,0,0,0,0,0,-45.204,1.7043,0,-185.63,0,-69.331,130.09,102,1,2.695,0,-2.695,0
0,0.016082,0,0,0,0,0,0,0,0,-45.16,1.6992,0,-185.32,0,-69.223,129.84,102,1,2.7,0,-2.7,0
0,0.016085,0,0,0,0,0,0,0,0,-45.116,1.6941,0,-185,0,-69.115,129.6,102,1,2.705,0,-2.705,0
0,0.016089,0,0,0,0,0,0,0,0,-45.072,1.689,0,-184.69,0,-69.007,129.35,102,1,2.71,0,-2.71,0
0,0.016093,0,0,0,0,0,0,0,0,-45.028,1.6839,0,-184.37,0,-68.9,129.11,102,1,2.715,0,-2.715,0
0,0.016096,0,0,0,0,0,0,0,0,-44.984,1.6788,0,-184.06,0,-68.792,128.86,102,1,2.72,0,-2.72,0
0,0.0161,0,0,0,0,0,0,0,0,-44.94,1.6737,0,-183.74,0,-68.684,128.62,102,1,2.725,0,-2.725,0
0,0.016103,0,0,0,0,0,0,0,0,-44.897,1.6685,0,-183.43,0,-68.576,128.38,102,1,2.73,0,-2.73,0
0,0.016107,0,0,0,0,0,0,0,0,-44.853,1.6634,0,-183.12,0,-68.468,128.13,102,1,2.735,0,-2.735,0
0,0.016111,0,0,0,0,0,0,0,0,-44.809,1.6583,0,-182.8,0,-68.361,127.89,102,1,2.74,0,-2.74,0
0,0.016114,0,0,0,0,0,0,0,0,-44.765,1.6532,0,-182.49,0,-68.253,127.64,102,1,2.745,0,-2.745,0
0,0.016118,0,0,0,0,0,0,0,0,-44.721,1.6481,0,-182.17,0,-68.145,127.4,102,1,2.75,0,-2.75,0
0,0.016121,0,0,0,0,0,0,0,0,-44.677,1.643,0,-181.86,0,-68.037,127.15,102,1,2.755,0,-2.755,0
0,0.016125,0,0,0,0,0,0,0,0,-44.633,1.6379,0,-181.54,0,-67.929,126.91,102,1,2.76,0,-2.76,0
0,0.016129,0,0,0,0,0,0,0,0,-44.59,1.6327,0,-181.23,0,-67.822,126.66,102,1,2.765,0,-2.765,0
0,0.016132,0,0,0,0,0,0,0,0,-44.546,1.6276,0,-180.91,0,-67.714,126.42,102,1,2.77,0,-2.77,0
0,0.016136,0,0,0,0,0,0,0,0,-44.502,1.6225,0,-180.6,0,-67.606,126.17,102,1,2.775,0,-2.775,0
0,0.01614,0,0,0,0,0,0,0,0,-44.458,1.6174,0,-180.28,0,-67.498,125.93,102,1,2.78,0,-2.78,0
0,0.016143,0,0,0,0,0,0,0,0,-44.414,1.6123,0,-179.97,0,-67.39,125.68,102,1,2.785,0,-2.785,0
0,0.016147,0,0,0,0,0,0,0,0,-44.37,1.6072,0,-179.65,0,-67.282,125.44,102,1,2.79,0,-2.79,0
0,0.01615,0,0,0,0,0,0,0,0,-44.326,1.6021,0,-179.34,0,-67.175,125.19,102,1,2.795,0,-2.795,0
0,0.016154,0,0,0,0,0,0,0,0,-44.283,1.5969,0,-179.02,0,-67.067,124.95,102,1,2.8,0,-2.8,0
0,0.016158,0,0,0,0,0,0,0,0,-44.239,1.5918,0,-178.71,0,-66.959,124.71,102,1,2.805,0,-2.805,0
0,0.016161,0,0,0,0,0,0,0,0,-44.195,1.5867,0,-178.4,0,-66.851,124.46,102,1,2.81,0,-2.81,0
0,0.016165,0,0,0,0,0,0,0,0,-44.151,1.5816,0,-178.08,0,-66.743,124.22,102,1,2.815,0,-2.815,0
0,0.016169,0,0,0,0,0,0,0,0,-44.107,1.5765,0,-177.77,0,-66.636,123.97,102,1,2.82,0,-2.82,0
0,0.016172,0,0,0,0,0,0,0,0,-44.063,1.5714,0,-177.45,0,-66.528,123.73,102,1,2.825,0,-2.825,0
0,0.016176,0,0,0,0,0,0,0,0,-44.019,1.5662,0,-177.14,0,-66.42,123.48,102,1,2.83,0,-2.83,0
0,0.016179,0,0,0,0,0,0,0,0,-43.976,1.5611,0,-176.82,0,-66.312,123.24,102,1,2.835,0,-2.835,0
0,0.016183,0,0,0,0,0,0,0,0,-43.932,1.556,0,-176.51,0,-66.204,122.99,102,1,2.84,0,-2.84,0
0,0.016187,0,0,0,0,0,0,0,0,-43.888,1.5509,0,-176.19,0,-66.097,122.75,102,1,2.845,0,-2.845,0
0,0.01619,0,0,0,0,0,0,0,0,-43.844,1.5458,0,-175.88,0,-65.989,122.5,102,1,2.85,0,-2.85,0
0,0.016194,0,0,0,0,0,0,0,0,-43.8,1.5407,0,-175.56,0,-65.881,122.26,102,1,2.855,0,-2.855,0
0,0.016197,0,0,0,0,0,0,0,0,-43.756,1.5356,0,-175.25,0,-65.773,122.01,102,1,2.86,0,-2.86,0
0,0.016201,0,0,0,0,0,0,0,0,-43.712,1.5304,0,-174.93,0,-65.665,121.77,102,1,2.865,0,-2.865,0
0,0.016205,0,0,0,0,0,0,0,0,-43.669,1.5253,0,-174.62,0,-65.557,121.52,102,1,2.87,0,-2.87,0
0,0.016208,0,0,0,0,0,0,0,0,-43.625,1.5202,0,-174.31,0,-65.45,121.28,102,1,2.875,0,-2.875,0
0,0.016212,0,0,0,0,0,0,0,0,-43.581,1.5151,0,-173.99,0,-65.342,121.04,102,1,2.88,0,-2.88,0
0,0.016216,0,0,0,0,0,0,0,0,-43.537,1.51,0,-173.68,0,-65.234,120.79,102,1,2.885,0,-2.885,0
0,0.016219,0,0,0,0,0,0,0,0,-43.493,1.5049,0,-173.36,0,-65.126,120.55,102,1,2.89,0,-2.89,0
0,0.016223,0,0,0,0,0,0,0,0,-43.449,1.4998,0,-173.05,0,-65.018,120.3,102,1,2.895,0,-2.895,0
0,0.016226,0,0,0,0,0,0,0,0,-43.405,1.4946,0,-172.73,0,-64.911,120.06,102,1,2.9,0,-2.9,0
0,0.01623,0,0,0,0,0,0,0,0,-43.362,1.4895,0,-172.42,0,-64.803,119.81,102,1,2.905,0,-2.905,0
0,0.016234,0,0,0,0,0,0,0,0,-43.318,1.4844,0,-172.1,0,-64.695,119.57,102,1,2.91,0,-2.91,0
0,0.016237,0,0,0,0,0,0,0,0,-43.274,1.4793,0,-171.79,0,-64.587,119.32,102,1,2.915,0,-2.915,0
0,0.016241,0,0,0,0,0,0,0,0,-43.23,1.4742,0,-171.47,0,-64.479,119.08,102,1,2.92,0,-2.92,0
0,0.016245,0,0,0,0,0,0,0,0,-43.186,1.4691,0,-171.16,0,-64.372,118.83,102,1,2.925,0,-2.925,0
0,0.016248,0,0,0,0,0,0,0,0,-43.142,1.464,0,-170.84,0,-64.264,118.59,102,1,2.93,0,-2.93,0
0,0.016252,0,0,0,0,0,0,0,0,-43.098,1.4588,0,-170.53,0,-64.156,118.34,102,1,2.935,0,-2.935,0
0,0.016255,0,0,0,0,0,0,0,0,-43.055,1.4537,0,-170.22,0,-64.048,118.1,102,1,2.94,0,-2.94,0
0,0.016259,0,0,0,0,0,0,0,0,-43.011,1.4486,0,-169.9,0,-63.94,117.85,102,1,2.945,0,-2.945,0
0,0.016263,0,0,0,0,0,0,0,0,-42.967,1.4435,0,-169.59,0,-63.832,117.61,102,1,2.95,0,-2.95,0
0,0.016266,0,0,0,0,0,0,0,0,-42.923,1.4384,0,-169.27,0,-63.725,117.37,102,1,2.955,0,-2.955,0
0,0.01627,0,0,0,0,0,0,0,0,-42.879,1.4333,0,-168.96,0,-63.617,117.12,102,1,2.96,0,-2.96,0
0,0.016273,0,0,0,0,0,0,0,0,-42.835,1.4282,0,-168.64,0,-63.509,116.88,102,1,2.965,0,-2.965,0
0,0.016277,0,0,0,0,0,0,0,0,-42.792,1.4234,0,-168.34,0,-63.406,116.65,102,1,2.97,0,-2.97,0
0,0.01628,0,0,0,0,0,0,0,0,-42.75,1.4196,0,-168.09,0,-63.316,116.45,102,1,2.975,0,-2.975,0
0,0.016283,0,0,0,0,0,0,0,0,-42.707,1.4159,0,-167.83,0,-63.226,116.25,102,1,2.98,0,-2.98,0
0,0.016287,0,0,0,0,0,0,0,0,-42.665,1.4121,0,-167.57,0,-63.135,116.06,102,1,2.985,0,-2.985,0
0,0.01629,0,0,0,0,0,0,0,0,-42.623,1.4083,0,-167.31,0,-63.045,115.86,102,1,2.99,0,-2.99,0
0,0.016293,0,0,0,0,0,0,0,0,-42.58,1.4045,0,-167.05,0,-62.955,115.66,102,1,2.995,0,-2.995,0
0,0.016296,0,0,0,0,0,0,0,0,-42.538,1.4007,0,-166.79,0,-62.864,115.47,102,1,3,0,-3,0
0,0.0163,0,0,0,0,0,0,0,0,-42.496,1.3969,0,-166.54,0,-62.774,115.27,102,1,3.005,0,-3.005,0
0,0.016303,0,0,0,0,0,0,0,0,-42.454,1.3932,0,-166.28,0,-62.683,115.08,102,1,3.01,0,-3.01,0
0,0.016306,0,0,0,0,0,0,0,0,-42.411,1.3894,0,-166.02,0,-62.593,114.88,102,1,3.015,0,-3.015,0
0,0.016309,0,0,0,0,0,0,0,0,-42.369,1.3856,0,-165.76,0,-62.503,114.68,102,1,3.02,0,-3.02,0
0,0.016313,0,0,0,0,0,0,0,0,-42.327,1.3818,0,-165.5,0,-62.412,114.49,102,1,3.025,0,-3.025,0
0,0.016316,0,0,0,0,0,0,0,0,-42.284,1.378,0,-165.24,0,-62.322,114.29,102,1,3.03,0,-3.03,0
0,0.016319,0,0,0,0,0,0,0,0,-42.242,1.3742,0,-164.99,0,-62.232,114.1,102,1,3.035,0,-3.035,0
0,0.016322,0,0,0,0,0,0,0,0,-42.2,1.3704,0,-164.73,0,-62.141,113.9,102,1,3.04,0,-3.04,0
0,0.016326,0,0,0,0,0,0,0,0,-42.158,1.3667,0,-164.47,0,-62.051,113.7,102,1,3.045,0,-3.045,0
0,0.016329,0,0,0,0,0,0,0,0,-42.115,1.3629,0,-164.21,0,-61.961,113.51,102,1,3.05,0,-3.05,0
0,0.016332,0,0,0,0,0,0,0,0,-42.073,1.3591,0,-163.95,0,-61.87,113.31,102,1,3.055,0,-3.055,0
0,0.016335,0,0,0,0,0,0,0,0,-42.031,1.3553,0,-163.7,0,-61.78,113.12,102,1,3.06,0,-3.06,0
0,0.016339,0,0,0,0,0,0,0,0,-41.988,1.3515,0,-163.44,0,-61.689,112.92,102,1,3.065,0,-3.065,0
0,0.016342,0,0,0,0,0,0,0,0,-41.946,1.3477,0,-163.18,0,-61.599,112.72,102,1,3.07,0,-3.07,0
0,0.016345,0,0,0,0,0,0,0,0,-41.904,1.344,0,-162.92,0,-61.509,112.53,102,1,3.075,0,-3.075,0
0,0.016348,0,0,0,0,0,0,0,0,-41.862,1.3402,0,-162.66,0,-61.418,112.33,102,1,3.08,0,-3.08,0
0,0.016352,0,0,0,0,0,0,0,0,-41.819,1.3364,0,-162.4,0,-61.328,112.13,102,1,3.085,0,-3.085,0
0,0.016355,0,0,0,0,0,0,0,0,-41.777,1.3326,0,-162.15,0,-61.238,111.94,102,1,3.09,0,-3.09,0
0,0.016358,0,0,0,0,0,0,0,0,-41.735,1.3288,0,-161.89,0,-61.147,111.74,102,1,3.095,0,-3.095,0
0,0.016361,0,0,0,0,0,0,0,0,-41.692,1.325,0,-161.63,0,-61.057,111.55,102,1,3.1,0,-3.1,0
0,0.016365,0,0,0,0,0,0,0,0,-41.65,1.3212,0,-161.37,0,-60.966,111.35,102,1,3.105,0,-3.105,0
0,0.016368,0,0,0,0,0,0,0,0,-41.608,1.3175,0,-161.11,0,-60.876,111.15,102,1,3.11,0,-3.11,0
0,0.016371,0,0,0,0,0,0,0,0,-41.565,1.3137,0,-160.85,0,-60.786,110.96,102,1,3.115,0,-3.115,0
0,0.016374,0,0,0,0,0,0,0,0,-41.523,1.3099,0,-160.6,0,-60.695,110.76,102,1,3.12,0,-3.12,0
0,0.016378,0,0,0,0,0,0,0,0,-41.481,1.3061,0,-160.34,0,-60.605,110.57,102,1,3.125,0,-3.125,0
0,0.016381,0,0,0,0,0,0,0,0,-41.439,1.3023,0,-160.08,0,-60.515,110.37,102,1,3.13,0,-3.13,0
0,0.016384,0,0,0,0,0,0,0,0,-41.396,1.2985,0,-159.82,0,-60.424,110.17,102,1,3.135,0,-3.135,0
0,0.016387,0,0,0,0,0,0,0,0,-41.354,1.2948,0,-159.56,0,-60.334,109.98,102,1,3.14,0,-3.14,0
0,0.016391,0,0,0,0,0,0,0,0,-41.312,1.291,0,-159.3,0,-60.244,109.78,102,1,3.145,0,-3.145,0
0,0.016394,0,0,0,0,0,0,0,0,-41.269,1.2872,0,-159.05,0,-60.153,109.59,102,1,3.15,0,-3.15,0
0,0.016397,0,0,0,0,0,0,0,0,-41.227,1.2834,0,-158.79,0,-60.063,109.39,102,1,3.155,0,-3.155,0
0,0.0164,0,0,0,0,0,0,0,0,-41.185,1.2796,0,-158.53,0,-59.972,109.19,102,1,3.16,0,-3.16,0
0,0.016404,0,0,0,0,0,0,0,0,-41.143,1.2758,0,-158.27,0,-59.882,109,102,1,3.165,0,-3.165,0
0,0.016407,0,0,0,0,0,0,0,0,-41.1,1.272,0,-158.01,0,-59.792,108.8,102,1,3.17,0,-3.17,0
0,0.01641,0,0,0,0,0,0,0,0,-41.058,1.2683,0,-157.75,0,-59.701,108.6,102,1,3.175,0,-3.175,0
0,0.016413,0,0,0,0,0,0,0,0,-41.016,1.2645,0,-157.5,0,-59.611,108.41,102,1,3.18,0,-3.18,0
0,0.016417,0,0,0,0,0,0,0,0,-40.973,1.2607,0,-157.24,0,-59.521,108.21,102,1,3.185,0,-3.185,0
0,0.01642,0,0,0,0,0,0,0,0,-40.931,1.2569,0,-156.98,0,-59.43,108.02,102,1,3.19,0,-3.19,0
0,0.016423,0,0,0,0,0,0,0,0,-40.889,1.2531,0,-156.72,0,-59.34,107.82,102,1,3.195,0,-3.195,0
0,0.016426,0,0,0,0,0,0,0,0,-40.847,1.2493,0,-156.46,0,-59.25,107.62,102,1,3.2,0,-3.2,0
0,0.01643,0,0,0,0,0,0,0,0,-40.804,1.2456,0,-156.2,0,-59.159,107.43,102,1,3.205,0,-3.205,0
0,0.016433,0,0,0,0,0,0,0,0,-40.762,1.2418,0,-155.95,0,-59.069,107.23,102,1,3.21,0,-3.21,0
0,0.016436,0,0,0,0,0,0,0,0,-40.72,1.238,0,-155.69,0,-58.978,107.04,102,1,3.215,0,-3.215,0
0,0.016439,0,0,0,0,0,0,0,0,-40.677,1.2342,0,-155.43,0,-58.888,106.84,102,1,3.22,0,-3.22,0
0,0.016443,0,0,0,0,0,0,0,0,-40.635,1.2304,0,-155.17,0,-58.798,106.64,102,1,3.225,0,-3.225,0
0,0.016446,0,0,0,0,0,0,0,0,-40.593,1.2266,0,-154.91,0,-58.707,106.45,102,1,3.23,0,-3.23,0
0,0.016449,0,0,0,0,0,0,0,0,-40.55,1.2228,0,-154.66,0,-58.617,106.25,102,1,3.235,0,-3.235,0
0,0.016452,0,0,0,0,0,0,0,0,-40.508,1.2191,0,-154.4,0,-58.527,106.06,102,1,3.24,0,-3.24,0
0,0.016456,0,0,0,0,0,0,0,0,-40.466,1.2153,0,-154.14,0,-58.436,105.86,102,1,3.245,0,-3.245,0
0,0.016459,0,0,0,0,0,0,0,0,-40.424,1.2115,0,-153.88,0,-58.346,105.66,102,1,3.25,0,-3.25,0
0,0.016462,0,0,0,0,0,0,0,0,-40.381,1.2077,0,-153.62,0,-58.256,105.47,102,1,3.255,0,-3.255,0
0,0.016465,0,0,0,0,0,0,0,0,-40.339,1.2039,0,-153.36,0,-58.165,105.27,102,1,3.26,0,-3.26,0
0,0.016469,0,0,0,0,0,0,0,0,-40.297,1.2001,0,-153.11,0,-58.075,105.07,102,1,3.265,0,-3.265,0
0,0.016472,0,0,0,0,0,0,0,0,-40.254,1.1964,0,-152.85,0,-57.984,104.88,102,1,3.27,0,-3.27,0
0,0.016475,0,0,0,0,0,0,0,0,-40.212,1.1926,0,-152.59,0,-57.894,104.68,102,1,3.275,0,-3.275,0
0,0.016478,0,0,0,0,0,0,0,0,-40.17,1.1888,0,-152.33,0,-57.804,104.49,102,1,3.28,0,-3.28,0
0,0.016481,0,0,0,0,0,0,0,0,-40.129,1.1859,0,-152.11,0,-57.726,104.32,102,1,3.285,0,-3.285,0
0,0.016484,0,0,0,0,0,0,0,0,-40.088,1.183,0,-151.9,0,-57.649,104.17,102,1,3.29,0,-3.29,0
0,0.016487,0,0,0,0,0,0,0,0,-40.046,1.1802,0,-151.68,0,-57.572,104.01,102,1,3.295,0,-3.295,0
0,0.01649,0,0,0,0,0,0,0,0,-40.005,1.1773,0,-151.47,0,-57.495,103.85,102,1,3.3,0,-3.3,0
0,0.016493,0,0,0,0,0,0,0,0,-39.964,1.1745,0,-151.26,0,-57.419,103.69,102,1,3.305,0,-3.305,0
0,0.016496,0,0,0,0,0,0,0,0,-39.923,1.1716,0,-151.04,0,-57.342,103.53,102,1,3.31,0,-3.31,0
0,0.016499,0,0,0,0,0,0,0,0,-39.882,1.1688,0,-150.83,0,-57.265,103.38,102,1,3.315,0,-3.315,0
0,0.016502,0,0,0,0,0,0,0,0,-39.841,1.166,0,-150.61,0,-57.188,103.22,102,1,3.32,0,-3.32,0
0,0.016505,0,0,0,0,0,0,0,0,-39.8,1.1631,0,-150.4,0,-57.111,103.06,102,1,3.325,0,-3.325,0
0,0.016508,0,0,0,0,0,0,0,0,-39.759,1.1603,0,-150.18,0,-57.035,102.9,102,1,3.33,0,-3.33,0
0,0.016511,0,0,0,0,0,0,0,0,-39.718,1.1574,0,-149.97,0,-56.958,102.74,102,1,3.335,0,-3.335,0
0,0.016513,0,0,0,0,0,0,0,0,-39.676,1.1546,0,-149.75,0,-56.881,102.58,102,1,3.34,0,-3.34,0
0,0.016516,0,0,0,0,0,0,0,0,-39.635,1.1518,0,-149.54,0,-56.804,102.43,102,1,3.345,0,-3.345,0
0,0.016519,0,0,0,0,0,0,0,0,-39.594,1.1489,0,-149.33,0,-56.728,102.27,102,1,3.35,0,-3.35,0
0,0.016522,0,0,0,0,0,0,0,0,-39.553,1.1461,0,-149.11,0,-56.651,102.11,102,1,3.355,0,-3.355,0
0,0.016525,0,0,0,0,0,0,0,0,-39.512,1.1432,0,-148.9,0,-56.574,101.95,102,1,3.36,0,-3.36,0
0,0.016528,0,0,0,0,0,0,0,0,-39.471,1.1404,0,-148.68,0,-56.497,101.79,102,1,3.365,0,-3.365,0
0,0.016531,0,0,0,0,0,0,0,0,-39.43,1.1375,0,-148.47,0,-56.421,101.63,102,1,3.37,0,-3.37,0
0,0.016534,0,0,0,0,0,0,0,0,-39.389,1.1347,0,-148.25,0,-56.344,101.48,102,1,3.375,0,-3.375,0
0,0.016537,0,0,0,0,0,0,0,0,-39.348,1.1319,0,-148.04,0,-56.267,101.32,102,1,3.38,0,-3.38,0
0,0.01654,0,0,0,0,0,0,0,0,-39.307,1.129,0,-147.83,0,-56.19,101.16,102,1,3.385,0,-3.385,0
0,0.016543,0,0,0,0,0,0,0,0,-39.265,1.1262,0,-147.61,0,-56.113,101,102,1,3.39,0,-3.39,0
0,0.016546,0,0,0,0,0,0,0,0,-39.224,1.1233,0,-147.4,0,-56.037,100.84,102,1,3.395,0,-3.395,0
0,0.016549,0,0,0,0,0,0,0,0,-39.183,1.1205,0,-147.18,0,-55.96,100.68,102,1,3.4,0,-3.4,0
0,0.016552,0,0,0,0,0,0,0,0,-39.142,1.1176,0,-146.97,0,-55.883,100.53,102,1,3.405,0,-3.405,0
0,0.016554,0,0,0,0,0,0,0,0,-39.101,1.1148,0,-146.75,0,-55.806,100.37,102,1,3.41,0,-3.41,0
0,0.016557,0,0,0,0,0,0,0,0,-39.06,1.112,0,-146.54,0,-55.73,100.21,102,1,3.415,0,-3.415,0
0,0.01656,0,0,0,0,0,0,0,0,-39.019,1.1091,0,-146.33,0,-55.653,100.05,102,1,3.42,0,-3.42,0
0,0.016563,0,0,0,0,0,0,0,0,-38.978,1.1063,0,-146.11,0,-55.576,99.893,102,1,3.425,0,-3.425,0
0,0.016566,0,0,0,0,0,0,0,0,-38.937,1.1034,0,-145.9,0,-55.499,99.735,102,1,3.43,0,-3.43,0
0,0.016569,0,0,0,0,0,0,0,0,-38.895,1.1006,0,-145.68,0,-55.422,99.577,102,1,3.435,0,-3.435,0
0,0.016572,0,0,0,0,0,0,0,0,-38.854,1.0977,0,-145.47,0,-55.346,99.418,102,1,3.44,0,-3.44,0
0,0.016575,0,0,0,0,0,0,0,0,-38.813,1.0949,0,-145.25,0,-55.269,99.26,102,1,3.445,0,-3.445,0
0,0.016578,0,0,0,0,0,0,0,0,-38.772,1.0921,0,-145.04,0,-55.192,99.102,102,1,3.45,0,-3.45,0
0,0.016581,0,0,0,0,0,0,0,0,-38.731,1.0892,0,-144.83,0,-55.115,98.944,102,1,3.455,0,-3.455,0
0,0.016584,0,0,0,0,0,0,0,0,-38.69,1.0864,0,-144.61,0,-55.039,98.785,102,1,3.46,0,-3.46,0
0,0.016587,0,0,0,0,0,0,0,0,-38.649,1.0835,0,-144.4,0,-54.962,98.627,102,1,3.465,0,-3.465,0
0,0.01659,0,0,0,0,0,0,0,0,-38.608,1.0807,0,-144.18,0,-54.885,98.469,102,1,3.47,0,-3.47,0
0,0.016593,0,0,0,0,0,0,0,0,-38.567,1.0778,0,-143.97,0,-54.808,98.31,102,1,3.475,0,-3.475,0
0,0.016596,0,0,0,0,0,0,0,0,-38.525,1.075,0,-143.75,0,-54.731,98.152,102,1,3.48,0,-3.48,0
0,0.016598,0,0,0,0,0,0,0,0,-38.484,1.0722,0,-143.54,0,-54.655,97.994,102,1,3.485,0,-3.485,0
0,0.016601,0,0,0,0,0,0,0,0,-38.443,1.0693,0,-143.33,0,-54.578,97.836,102,1,3.49,0,-3.49,0
0,0.016604,0,0,0,0,0,0,0,0,-38.402,1.0665,0,-143.11,0,-54.501,97.677,102,1,3.495,0,-3.495,0
0,0.016607,0,0,0,0,0,0,0,0,-38.361,1.0636,0,-142.9,0,-54.424,97.519,102,1,3.5,0,-3.5,0
0,0.01661,0,0,0,0,0,0,0,0,-38.32,1.0608,0,-142.68,0,-54.348,97.361,102,1,3.505,0,-3.505,0
0,0.016613,0,0,0,0,0,0,0,0,-38.279,1.058,0,-142.47,0,-54.271,97.203,102,1,3.51,0,-3.51,0
0,0.016616,0,0,0,0,0,0,0,0,-38.238,1.0551,0,-142.25,0,-54.194,97.044,102,1,3.515,0,-3.515,0
0,0.016619,0,0,0,0,0,0,0,0,-38.197,1.0523,0,-142.04,0,-54.117,96.886,102,1,3.52,0,-3.52,0
0,0.016622,0,0,0,0,0,0,0,0,-38.155,1.0494,0,-141.82,0,-54.04,96.728,102,1,3.525,0,-3.525,0
0,0.016625,0,0,0,0,0,0,0,0,-38.114,1.0466,0,-141.61,0,-53.964,96.569,102,1,3.53,0,-3.53,0
0,0.016628,0,0,0,0,0,0,0,0,-38.073,1.0437,0,-141.4,0,-53.887,96.411,102,1,3.535,0,-3.535,0
0,0.016631,0,0,0,0,0,0,0,0,-38.032,1.0409,0,-141.18,0,-53.81,96.253,102,1,3.54,0,-3.54,0
0,0.016634,0,0,0,0,0,0,0,0,-37.991,1.0381,0,-140.97,0,-53.733,96.095,102,1,3.545,0,-3.545,0
0,0.016637,0,0,0,0,0,0,0,0,-37.95,1.0352,0,-140.75,0,-53.657,95.936,102,1,3.55,0,-3.55,0
0,0.016639,0,0,0,0,0,0,0,0,-37.909,1.0324,0,-140.54,0,-53.58,95.778,102,1,3.555,0,-3.555,0
0,0.016642,0,0,0,0,0,0,0,0,-37.868,1.0295,0,-140.32,0,-53.503,95.62,102,1,3.56,0,-3.56,0
0,0.016645,0,0,0,0,0,0,0,0,-37.827,1.0267,0,-140.11,0,-53.426,95.462,102,1,3.565,0,-3.565,0
0,0.016648,0,0,0,0,0,0,0,0,-37.786,1.0238,0,-139.9,0,-53.35,95.303,102,1,3.57,0,-3.57,0
0,0.016651,0,0,0,0,0,0,0,0,-37.744,1.021,0,-139.68,0,-53.273,95.145,102,1,3.575,0,-3.575,0
0,0.016654,0,0,0,0,0,0,0,0,-37.703,1.0182,0,-139.47,0,-53.196,94.987,102,1,3.58,0,-3.58,0
0,0.016657,0,0,0,0,0,0,0,0,-37.662,1.0153,0,-139.25,0,-53.119,94.828,102,1,3.585,0,-3.585,0
0,0.01666,0,0,0,0,0,0,0,0,-37.621,1.0125,0,-139.04,0,-53.042,94.67,102,1,3.59,0,-3.59,0
0,0.016663,0,0,0,0,0,0,0,0,-37.58,1.0096,0,-138.82,0,-52.966,94.512,102,1,3.595,0,-3.595,0
0,0.016666,0,0,0,0,0,0,0,0,-37.539,1.0068,0,-138.61,0,-52.889,94.354,102,1,3.6,0,-3.6,0
0,0.016669,0,0,0,0,0,0,0,0,-37.498,1.0039,0,-138.4,0,-52.812,94.195,102,1,3.605,0,-3.605,0
0,0.016671,0,0,0,0,0,0,0,0,-37.457,1.0016,0,-138.21,0,-52.743,94.058,102,1,3.61,0,-3.61,0
0,0.016674,0,0,0,0,0,0,0,0,-37.417,0.99941,0,-138.03,0,-52.677,93.929,102,1,3.615,0,-3.615,0
0,0.016677,0,0,0,0,0,0,0,0,-37.377,0.99725,0,-137.85,0,-52.611,93.801,102,1,3.62,0,-3.62,0
0,0.016679,0,0,0,0,0,0,0,0,-37.337,0.99508,0,-137.67,0,-52.545,93.672,102,1,3.625,0,-3.625,0
0,0.016682,0,0,0,0,0,0,0,0,-37.297,0.99292,0,-137.49,0,-52.479,93.544,102,1,3.63,0,-3.63,0
0,0.016685,0,0,0,0,0,0,0,0,-37.256,0.99076,0,-137.31,0,-52.412,93.415,102,1,3.635,0,-3.635,0
0,0.016687,0,0,0,0,0,0,0,0,-37.216,0.98859,0,-137.13,0,-52.346,93.287,102,1,3.64,0,-3.64,0
0,0.01669,0,0,0,0,0,0,0,0,-37.176,0.98643,0,-136.95,0,-52.28,93.159,102,1,3.645,0,-3.645,0
0,0.016693,0,0,0,0,0,0,0,0,-37.136,0.98427,0,-136.77,0,-52.214,93.03,102,1,3.65,0,-3.65,0
0,0.016695,0,0,0,0,0,0,0,0,-37.096,0.9821,0,-136.59,0,-52.148,92.902,102,1,3.655,0,-3.655,0
0,0.016698,0,0,0,0,0,0,0,0,-37.056,0.97994,0,-136.41,0,-52.082,92.773,102,1,3.66,0,-3.66,0
0,0.016701,0,0,0,0,0,0,0,0,-37.015,0.97777,0,-136.23,0,-52.016,92.645,102,1,3.665,0,-3.665,0
0,0.016703,0,0,0,0,0,0,0,0,-36.975,0.97561,0,-136.05,0,-51.95,92.516,102,1,3.67,0,-3.67,0
0,0.016706,0,0,0,0,0,0,0,0,-36.935,0.97345,0,-135.87,0,-51.884,92.388,102,1,3.675,0,-3.675,0
0,0.016709,0,0,0,0,0,0,0,0,-36.895,0.97128,0,-135.69,0,-51.818,92.259,102,1,3.68,0,-3.68,0
0,0.016711,0,0,0,0,0,0,0,0,-36.855,0.96912,0,-135.51,0,-51.752,92.131,102,1,3.685,0,-3.685,0
0,0.016714,0,0,0,0,0,0,0,0,-36.815,0.96696,0,-135.33,0,-51.686,92.002,102,1,3.69,0,-3.69,0
0,0.016717,0,0,0,0,0,0,0,0,-36.774,0.96479,0,-135.15,0,-51.62,91.874,102,1,3.695,0,-3.695,0
0,0.016719,0,0,0,0,0,0,0,0,-36.734,0.96263,0,-134.97,0,-51.554,91.746,102,1,3.7,0,-3.7,0
0,0.016722,0,0,0,0,0,0,0,0,-36.694,0.96047,0,-134.79,0,-51.488,91.617,102,1,3.705,0,-3.705,0
0,0.016725,0,0,0,0,0,0,0,0,-36.654,0.9583,0,-134.61,0,-51.422,91.489,102,1,3.71,0,-3.71,0
0,0.016727,0,0,0,0,0,0,0,0,-36.614,0.95614,0,-134.43,0,-51.356,91.36,102,1,3.715,0,-3.715,0
0,0.01673,0,0,0,0,0,0,0,0,-36.574,0.95397,0,-134.25,0,-51.29,91.232,102,1,3.72,0,-3.72,0
0,0.016733,0,0,0,0,0,0,0,0,-36.533,0.95181,0,-134.07,0,-51.224,91.103,102,1,3.725,0,-3.725,0
0,0.016735,0,0,0,0,0,0,0,0,-36.493,0.94965,0,-133.89,0,-51.158,90.975,102,1,3.73,0,-3.73,0
0,0.016738,0,0,0,0,0,0,0,0,-36.453,0.94748,0,-133.71,0,-51.091,90.846,102,1,3.735,0,-3.735,0
0,0.016741,0,0,0,0,0,0,0,0,-36.413,0.94532,0,-133.53,0,-51.025,90.718,102,1,3.74,0,-3.74,0
0,0.016743,0,0,0,0,0,0,0,0,-36.373,0.94316,0,-133.36,0,-50.959,90.589,102,1,3.745,0,-3.745,0
0,0.016746,0,0,0,0,0,0,0,0,-36.333,0.94099,0,-133.18,0,-50.893,90.461,102,1,3.75,0,-3.75,0
0,0.016749,0,0,0,0,0,0,0,0,-36.292,0.93883,0,-133,0,-50.827,90.332,102,1,3.755,0,-3.755,0
0,0.016751,0,0,0,0,0,0,0,0,-36.252,0.93667,0,-132.82,0,-50.761,90.204,102,1,3.76,0,-3.76,0
0,0.016754,0,0,0,0,0,0,0,0,-36.212,0.9345,0,-132.64,0,-50.695,90.076,102,1,3.765,0,-3.765,0
0,0.016757,0,0,0,0,0,0,0,0,-36.172,0.93234,0,-132.46,0,-50.629,89.947,102,1,3.77,0,-3.77,0
0,0.016759,0,0,0,0,0,0,0,0,-36.132,0.93018,0,-132.28,0,-50.563,89.819,102,1,3.775,0,-3.775,0
0,0.016762,0,0,0,0,0,0,0,0,-36.092,0.92801,0,-132.1,0,-50.497,89.69,102,1,3.78,0,-3.78,0
0,0.016765,0,0,0,0,0,0,0,0,-36.051,0.92585,0,-131.92,0,-50.431,89.562,102,1,3.785,0,-3.785,0
0,0.016767,0,0,0,0,0,0,0,0,-36.011,0.92368,0,-131.74,0,-50.365,89.433,102,1,3.79,0,-3.79,0
0,0.01677,0,0,0,0,0,0,0,0,-35.971,0.92152,0,-131.56,0,-50.299,89.305,102,1,3.795,0,-3.795,0
0,0.016772,0,0,0,0,0,0,0,0,-35.931,0.91936,0,-131.38,0,-50.233,89.176,102,1,3.8,0,-3.8,0
0,0.016775,0,0,0,0,0,0,0,0,-35.891,0.91719,0,-131.2,0,-50.167,89.048,102,1,3.805,0,-3.805,0
0,0.016778,0,0,0,0,0,0,0,0,-35.851,0.91503,0,-131.02,0,-50.101,88.919,102,1,3.81,0,-3.81,0
0,0.01678,0,0,0,0,0,0,0,0,-35.81,0.91287,0,-130.84,0,-50.035,88.791,102,1,3.815,0,-3.815,0
0,0.016783,0,0,0,0,0,0,0,0,-35.77,0.9107,0,-130.66,0,-49.969,88.663,102,1,3.82,0,-3.82,0
0,0.016786,0,0,0,0,0,0,0,0,-35.73,0.90854,0,-130.48,0,-49.903,88.534,102,1,3.825,0,-3.825,0
0,0.016788,0,0,0,0,0,0,0,0,-35.69,0.90638,0,-130.3,0,-49.836,88.406,102,1,3.83,0,-3.83,0
0,0.016791,0,0,0,0,0,0,0,0,-35.65,0.90421,0,-130.12,0,-49.77,88.277,102,1,3.835,0,-3.835,0
0,0.016794,0,0,0,0,0,0,0,0,-35.61,0.90205,0,-129.94,0,-49.704,88.149,102,1,3.84,0,-3.84,0
0,0.016796,0,0,0,0,0,0,0,0,-35.569,0.89988,0,-129.76,0,-49.638,88.02,102,1,3.845,0,-3.845,0
0,0.016799,0,0,0,0,0,0,0,0,-35.529,0.89772,0,-129.58,0,-49.572,87.892,102,1,3.85,0,-3.85,0
0,0.016802,0,0,0,0,0,0,0,0,-35.489,0.89556,0,-129.4,0,-49.506,87.763,102,1,3.855,0,-3.855,0
0,0.016804,0,0,0,0,0,0,0,0,-35.449,0.89339,0,-129.22,0,-49.44,87.635,102,1,3.86,0,-3.86,0
0,0.016807,0,0,0,0,0,0,0,0,-35.409,0.89123,0,-129.04,0,-49.374,87.506,102,1,3.865,0,-3.865,0
0,0.01681,0,0,0,0,0,0,0,0,-35.369,0.88907,0,-128.86,0,-49.308,87.378,102,1,3.87,0,-3.87,0
0,0.016812,0,0,0,0,0,0,0,0,-35.328,0.8869,0,-128.68,0,-49.242,87.25,102,1,3.875,0,-3.875,0
0,0.016815,0,0,0,0,0,0,0,0,-35.288,0.88474,0,-128.51,0,-49.176,87.121,102,1,3.88,0,-3.88,0
0,0.016818,0,0,0,0,0,0,0,0,-35.248,0.88258,0,-128.33,0,-49.11,86.993,102,1,3.885,0,-3.885,0
0,0.01682,0,0,0,0,0,0,0,0,-35.208,0.88041,0,-128.15,0,-49.044,86.864,102,1,3.89,0,-3.89,0
0,0.016823,0,0,0,0,0,0,0,0,-35.168,0.87825,0,-127.97,0,-48.978,86.736,102,1,3.895,0,-3.895,0
0,0.016826,0,0,0,0,0,0,0,0,-35.127,0.87608,0,-127.79,0,-48.912,86.607,102,1,3.9,0,-3.9,0
0,0.016828,0,0,0,0,0,0,0,0,-35.087,0.87392,0,-127.61,0,-48.846,86.479,102,1,3.905,0,-3.905,0
0,0.016831,0,0,0,0,0,0,0,0,-35.047,0.87176,0,-127.43,0,-48.78,86.35,102,1,3.91,0,-3.91,0
0,0.016834,0,0,0,0,0,0,0,0,-35.007,0.86959,0,-127.25,0,-48.714,86.222,102,1,3.915,0,-3.915,0
0,0.016836,0,0,0,0,0,0,0,0,-34.967,0.86743,0,-127.07,0,-48.648,86.093,102,1,3.92,0,-3.92,0
0,0.016839,0,0,0,0,0,0,0,0,-34.927,0.86527,0,-126.89,0,-48.582,85.965,102,1,3.925,0,-3.925,0
0,0.016842,0,0,0,0,0,0,0,0,-34.886,0.8631,0,-126.71,0,-48.515,85.836,102,1,3.93,0,-3.93,0
0,0.016844,0,0,0,0,0,0,0,0,-34.846,0.86094,0,-126.53,0,-48.449,85.708,102,1,3.935,0,-3.935,0
0,0.016847,0,0,0,0,0,0,0,0,-34.806,0.85878,0,-126.35,0,-48.383,85.58,102,1,3.94,0,-3.94,0
0,0.01685,0,0,0,0,0,0,0,0,-34.766,0.85661,0,-126.17,0,-48.317,85.451,102,1,3.945,0,-3.945,0
0,0.016852,0,0,0,0,0,0,0,0,-34.726,0.85477,0,-126.01,0,-48.257,85.338,102,1,3.95,0,-3.95,0
0,0.016855,0,0,0,0,0,0,0,0,-34.687,0.8531,0,-125.86,0,-48.199,85.233,102,1,3.955,0,-3.955,0
0,0.016857,0,0,0,0,0,0,0,0,-34.647,0.85143,0,-125.7,0,-48.142,85.128,102,1,3.96,0,-3.96,0
0,0.016859,0,0,0,0,0,0,0,0,-34.608,0.84977,0,-125.55,0,-48.084,85.024,102,1,3.965,0,-3.965,0
0,0.016862,0,0,0,0,0,0,0,0,-34.569,0.8481,0,-125.4,0,-48.027,84.919,102,1,3.97,0,-3.97,0
0,0.016864,0,0,0,0,0,0,0,0,-34.529,0.84643,0,-125.25,0,-47.969,84.814,102,1,3.975,0,-3.975,0
0,0.016867,0,0,0,0,0,0,0,0,-34.49,0.84476,0,-125.1,0,-47.912,84.71,102,1,3.98,0,-3.98,0
0,0.016869,0,0,0,0,0,0,0,0,-34.451,0.8431,0,-124.94,0,-47.854,84.605,102,1,3.985,0,-3.985,0
0,0.016871,0,0,0,0,0,0,0,0,-34.411,0.84143,0,-124.79,0,-47.797,84.5,102,1,3.99,0,-3.99,0
0,0.016874,0,0,0,0,0,0,0,0,-34.372,0.83976,0,-124.64,0,-47.739,84.395,102,1,3.995,0,-3.995,0
0,0.016876,0,0,0,0,0,0,0,0,-34.332,0.8381,0,-124.49,0,-47.682,84.291,102,1,4,0,-4,0
0,0.016879,0,0,0,0,0,0,0,0,-34.293,0.83643,0,-124.34,0,-47.624,84.186,102,1,4.005,0,-4.005,0
0,0.016881,0,0,0,0,0,0,0,0,-34.254,0.83476,0,-124.18,0,-47.567,84.081,102,1,4.01,0,-4.01,0
0,0.016884,0,0,0,0,0,0,0,0,-34.214,0.8331,0,-124.03,0,-47.509,83.977,102,1,4.015,0,-4.015,0
0,0.016886,0,0,0,0,0,0,0,0,-34.175,0.83143,0,-123.88,0,-47.452,83.872,102,1,4.02,0,-4.02,0
0,0.016888,0,0,0,0,0,0,0,0,-34.135,0.82976,0,-123.73,0,-47.394,83.767,102,1,4.025,0,-4.025,0
0,0.016891,0,0,0,0,0,0,0,0,-34.096,0.82809,0,-123.58,0,-47.337,83.662,102,1,4.03,0,-4.03,0
0,0.016893,0,0,0,0,0,0,0,0,-34.057,0.82643,0,-123.42,0,-47.279,83.558,102,1,4.035,0,-4.035,0
0,0.016896,0,0,0,0,0,0,0,0,-34.017,0.82476,0,-123.27,0,-47.222,83.453,102,1,4.04,0,-4.04,0
0,0.016898,0,0,0,0,0,0,0,0,-33.978,0.82309,0,-123.12,0,-47.164,83.348,102,1,4.045,0,-4.045,0
0,0.016901,0,0,0,0,0,0,0,0,-33.938,0.82143,0,-122.97,0,-47.107,83.244,102,1,4.05,0,-4.05,0
0,0.016903,0,0,0,0,0,0,0,0,-33.899,0.81976,0,-122.82,0,-47.049,83.139,102,1,4.055,0,-4.055,0
0,0.016905,0,0,0,0,0,0,0,0,-33.86,0.81809,0,-122.67,0,-46.992,83.034,102,1,4.06,0,-4.06,0
0,0.016908,0,0,0,0,0,0,0,0,-33.82,0.81642,0,-122.51,0,-46.934,82.929,102,1,4.065,0,-4.065,0
0,0.01691,0,0,0,0,0,0,0,0,-33.781,0.81476,0,-122.36,0,-46.877,82.825,102,1,4.07,0,-4.07,0
0,0.016913,0,0,0,0,0,0,0,0,-33.741,0.81309,0,-122.21,0,-46.819,82.72,102,1,4.075,0,-4.075,0
0,0.016915,0,0,0,0,0,0,0,0,-33.702,0.81142,0,-122.06,0,-46.762,82.615,102,1,4.08,0,-4.08,0
0,0.016917,0,0,0,0,0,0,0,0,-33.663,0.80976,0,-121.91,0,-46.705,82.511,102,1,4.085,0,-4.085,0
0,0.01692,0,0,0,0,0,0,0,0,-33.623,0.80809,0,-121.75,0,-46.647,82.406,102,1,4.09,0,-4.09,0
0,0.016922,0,0,0,0,0,0,0,0,-33.584,0.80642,0,-121.6,0,-46.59,82.301,102,1,4.095,0,-4.095,0
0,0.016925,0,0,0,0,0,0,0,0,-33.544,0.80475,0,-121.45,0,-46.532,82.196,102,1,4.1,0,-4.1,0
0,0.016927,0,0,0,0,0,0,0,0,-33.505,0.80309,0,-121.3,0,-46.475,82.092,102,1,4.105,0,-4.105,0
0,0.01693,0,0,0,0,0,0,0,0,-33.466,0.80142,0,-121.15,0,-46.417,81.987,102,1,4.11,0,-4.11,0
0,0.016932,0,0,0,0,0,0,0,0,-33.426,0.79975,0,-120.99,0,-46.36,81.882,102,1,4.115,0,-4.115,0
0,0.016934,0,0,0,0,0,0,0,0,-33.387,0.79809,0,-120.84,0,-46.302,81.777,102,1,4.12,0,-4.12,0
0,0.016937,0,0,0,0,0,0,0,0,-33.347,0.79642,0,-120.69,0,-46.245,81.673,102,1,4.125,0,-4.125,0
0,0.016939,0,0,0,0,0,0,0,0,-33.308,0.79475,0,-120.54,0,-46.187,81.568,102,1,4.13,0,-4.13,0
0,0.016942,0,0,0,0,0,0,0,0,-33.269,0.79308,0,-120.39,0,-46.13,81.463,102,1,4.135,0,-4.135,0
0,0.016944,0,0,0,0,0,0,0,0,-33.229,0.79142,0,-120.23,0,-46.072,81.359,102,1,4.14,0,-4.14,0
0,0.016947,0,0,0,0,0,0,0,0,-33.19,0.78975,0,-120.08,0,-46.015,81.254,102,1,4.145,0,-4.145,0
0,0.016949,0,0,0,0,0,0,0,0,-33.15,0.78808,0,-119.93,0,-45.957,81.149,102,1,4.15,0,-4.15,0
0,0.016951,0,0,0,0,0,0,0,0,-33.111,0.78642,0,-119.78,0,-45.9,81.044,102,1,4.155,0,-4.155,0
0,0.016954,0,0,0,0,0,0,0,0,-33.072,0.78475,0,-119.63,0,-45.842,80.94,102,1,4.16,0,-4.16,0
0,0.016956,0,0,0,0,0,0,0,0,-33.032,0.78308,0,-119.47,0,-45.785,80.835,102,1,4.165,0,-4.165,0
0,0.016959,0,0,0,0,0,0,0,0,-32.993,0.78142,0,-119.32,0,-45.727,80.73,102,1,4.17,0,-4.17,0
0,0.016961,0,0,0,0,0,0,0,0,-32.953,0.77975,0,-119.17,0,-45.67,80.626,102,1,4.175,0,-4.175,0
0,0.016964,0,0,0,0,0,0,0,0,-32.914,0.77808,0,-119.02,0,-45.612,80.521,102,1,4.18,0,-4.18,0
0,0.016966,0,0,0,0,0,0,0,0,-32.875,0.77641,0,-118.87,0,-45.555,80.416,102,1,4.185,0,-4.185,0
0,0.016968,0,0,0,0,0,0,0,0,-32.835,0.77475,0,-118.71,0,-45.497,80.311,102,1,4.19,0,-4.19,0
0,0.016971,0,0,0,0,0,0,0,0,-32.796,0.77308,0,-118.56,0,-45.44,80.207,102,1,4.195,0,-4.195,0
0,0.016973,0,0,0,0,0,0,0,0,-32.756,0.77141,0,-118.41,0,-45.382,80.102,102,1,4.2,0,-4.2,0
0,0.016976,0,0,0,0,0,0,0,0,-32.717,0.76975,0,-118.26,0,-45.325,79.997,102,1,4.205,0,-4.205,0
0,0.016978,0,0,0,0,0,0,0,0,-32.678,0.76808,0,-118.11,0,-45.267,79.893,102,1,4.21,0,-4.21,0
0,0.01698,0,0,0,0,0,0,0,0,-32.638,0.76641,0,-117.95,0,-45.21,79.788,102,1,4.215,0,-4.215,0
0,0.016983,0,0,0,0,0,0,0,0,-32.599,0.76474,0,-117.8,0,-45.152,79.683,102,1,4.22,0,-4.22,0
0,0.016985,0,0,0,0,0,0,0,0,-32.559,0.76308,0,-117.65,0,-45.095,79.578,102,1,4.225,0,-4.225,0
0,0.016988,0,0,0,0,0,0,0,0,-32.52,0.76141,0,-117.5,0,-45.037,79.474,102,1,4.23,0,-4.23,0
0,0.01699,0,0,0,0,0,0,0,0,-32.481,0.75974,0,-117.35,0,-44.98,79.369,102,1,4.235,0,-4.235,0
0,0.016993,0,0,0,0,0,0,0,0,-32.441,0.75808,0,-117.19,0,-44.922,79.264,102,1,4.24,0,-4.24,0
0,0.016995,0,0,0,0,0,0,0,0,-32.402,0.75641,0,-117.04,0,-44.865,79.16,102,1,4.245,0,-4.245,0
0,0.016997,0,0,0,0,0,0,0,0,-32.362,0.75474,0,-116.89,0,-44.807,79.055,102,1,4.25,0,-4.25,0
0,0.017,0,0,0,0,0,0,0,0,-32.323,0.75307,0,-116.74,0,-44.75,78.95,102,1,4.255,0,-4.255,0
0,0.017002,0,0,0,0,0,0,0,0,-32.284,0.75141,0,-116.59,0,-44.692,78.845,102,1,4.26,0,-4.26,0
0,0.017005,0,0,0,0,0,0,0,0,-32.244,0.74974,0,-116.43,0,-44.635,78.741,102,1,4.265,0,-4.265,0
0,0.017007,0,0,0,0,0,0,0,0,-32.205,0.74807,0,-116.28,0,-44.577,78.636,102,1,4.27,0,-4.27,0
0,0.01701,0,0,0,0,0,0,0,0,-32.166,0.74641,0,-116.13,0,-44.52,78.531,102,1,4.275,0,-4.275,0
0,0.017012,0,0,0,0,0,0,0,0,-32.126,0.74474,0,-115.98,0,-44.462,78.427,102,1,4.28,0,-4.28,0
0,0.017014,0,0,0,0,0,0,0,0,-32.087,0.74307,0,-115.83,0,-44.405,78.322,102,1,4.285,0,-4.285,0
0,0.017017,0,0,0,0,0,0,0,0,-32.047,0.7414,0,-115.68,0,-44.347,78.217,102,1,4.29,0,-4.29,0
0,0.017019,0,0,0,0,0,0,0,0,-32.008,0.73974,0,-115.52,0,-44.29,78.112,102,1,4.295,0,-4.295,0
0,0.017022,0,0,0,0,0,0,0,0,-31.969,0.73807,0,-115.37,0,-44.232,78.008,102,1,4.3,0,-4.3,0
0,0.017024,0,0,0,0,0,0,0,0,-31.93,0.73668,0,-115.24,0,-44.18,77.917,102,1,4.305,0,-4.305,0
0,0.017026,0,0,0,0,0,0,0,0,-31.891,0.73538,0,-115.11,0,-44.13,77.832,102,1,4.31,0,-4.31,0
0,0.017028,0,0,0,0,0,0,0,0,-31.852,0.73408,0,-114.98,0,-44.079,77.746,102,1,4.315,0,-4.315,0
0,0.017031,0,0,0,0,0,0,0,0,-31.813,0.73279,0,-114.85,0,-44.028,77.661,102,1,4.32,0,-4.32,0
0,0.017033,0,0,0,0,0,0,0,0,-31.775,0.73149,0,-114.72,0,-43.978,77.575,102,1,4.325,0,-4.325,0
0,0.017035,0,0,0,0,0,0,0,0,-31.736,0.73019,0,-114.59,0,-43.927,77.489,102,1,4.33,0,-4.33,0
0,0.017037,0,0,0,0,0,0,0,0,-31.697,0.72889,0,-114.46,0,-43.877,77.404,102,1,4.335,0,-4.335,0
0,0.017039,0,0,0,0,0,0,0,0,-31.658,0.72759,0,-114.33,0,-43.826,77.318,102,1,4.34,0,-4.34,0
0,0.017042,0,0,0,0,0,0,0,0,-31.62,0.72629,0,-114.2,0,-43.775,77.232,102,1,4.345,0,-4.345,0
0,0.017044,0,0,0,0,0,0,0,0,-31.581,0.72499,0,-114.07,0,-43.725,77.147,102,1,4.35,0,-4.35,0
0,0.017046,0,0,0,0,0,0,0,0,-31.542,0.72369,0,-113.94,0,-43.674,77.061,102,1,4.355,0,-4.355,0
0,0.017048,0,0,0,0,0,0,0,0,-31.503,0.7224,0,-113.81,0,-43.624,76.976,102,1,4.36,0,-4.36,0
0,0.017051,0,0,0,0,0,0,0,0,-31.465,0.7211,0,-113.68,0,-43.573,76.89,102,1,4.365,0,-4.365,0
0,0.017053,0,0,0,0,0,0,0,0,-31.426,0.7198,0,-113.55,0,-43.523,76.804,102,1,4.37,0,-4.37,0
0,0.017055,0,0,0,0,0,0,0,0,-31.387,0.7185,0,-113.42,0,-43.472,76.719,102,1,4.375,0,-4.375,0
0,0.017057,0,0,0,0,0,0,0,0,-31.348,0.7172,0,-113.29,0,-43.421,76.633,102,1,4.38,0,-4.38,0
0,0.017059,0,0,0,0,0,0,0,0,-31.31,0.7159,0,-113.16,0,-43.371,76.547,102,1,4.385,0,-4.385,0
0,0.017062,0,0,0,0,0,0,0,0,-31.271,0.7146,0,-113.03,0,-43.32,76.462,102,1,4.39,0,-4.39,0
0,0.017064,0,0,0,0,0,0,0,0,-31.232,0.7133,0,-112.9,0,-43.27,76.376,102,1,4.395,0,-4.395,0
0,0.017066,0,0,0,0,0,0,0,0,-31.194,0.712,0,-112.77,0,-43.219,76.291,102,1,4.4,0,-4.4,0
0,0.017068,0,0,0,0,0,0,0,0,-31.155,0.71071,0,-112.64,0,-43.168,76.205,102,1,4.405,0,-4.405,0
0,0.017071,0,0,0,0,0,0,0,0,-31.116,0.70941,0,-112.51,0,-43.118,76.119,102,1,4.41,0,-4.41,0
0,0.017073,0,0,0,0,0,0,0,0,-31.077,0.70811,0,-112.38,0,-43.067,76.034,102,1,4.415,0,-4.415,0
0,0.017075,0,0,0,0,0,0,0,0,-31.039,0.70681,0,-112.25,0,-43.017,75.948,102,1,4.42,0,-4.42,0
0,0.017077,0,0,0,0,0,0,0,0,-31,0.70551,0,-112.12,0,-42.966,75.862,102,1,4.425,0,-4.425,0
0,0.017079,0,0,0,0,0,0,0,0,-30.961,0.70421,0,-111.99,0,-42.916,75.777,102,1,4.43,0,-4.43,0
0,0.017082,0,0,0,0,0,0,0,0,-30.922,0.70291,0,-111.86,0,-42.865,75.691,102,1,4.435,0,-4.435,0
0,0.017084,0,0,0,0,0,0,0,0,-30.884,0.70161,0,-111.74,0,-42.814,75.606,102,1,4.44,0,-4.44,0
0,0.017086,0,0,0,0,0,0,0,0,-30.845,0.70032,0,-111.61,0,-42.764,75.52,102,1,4.445,0,-4.445,0
0,0.017088,0,0,0,0,0,0,0,0,-30.806,0.69902,0,-111.48,0,-42.713,75.434,102,1,4.45,0,-4.45,0
0,0.017091,0,0,0,0,0,0,0,0,-30.767,0.69772,0,-111.35,0,-42.663,75.349,102,1,4.455,0,-4.455,0
0,0.017093,0,0,0,0,0,0,0,0,-30.729,0.69642,0,-111.22,0,-42.612,75.263,102,1,4.46,0,-4.46,0
0,0.017095,0,0,0,0,0,0,0,0,-30.69,0.69512,0,-111.09,0,-42.561,75.177,102,1,4.465,0,-4.465,0
0,0.017097,0,0,0,0,0,0,0,0,-30.651,0.69382,0,-110.96,0,-42.511,75.092,102,1,4.47,0,-4.47,0
0,0.017099,0,0,0,0,0,0,0,0,-30.612,0.69252,0,-110.83,0,-42.46,75.006,102,1,4.475,0,-4.475,0
0,0.017102,0,0,0,0,0,0,0,0,-30.574,0.69122,0,-110.7,0,-42.41,74.921,102,1,4.48,0,-4.48,0
0,0.017104,0,0,0,0,0,0,0,0,-30.535,0.68993,0,-110.57,0,-42.359,74.835,102,1,4.485,0,-4.485,0
0,0.017106,0,0,0,0,0,0,0,0,-30.496,0.68863,0,-110.44,0,-42.308,74.749,102,1,4.49,0,-4.49,0
0,0.017108,0,0,0,0,0,0,0,0,-30.457,0.68733,0,-110.31,0,-42.258,74.664,102,1,4.495,0,-4.495,0
0,0.01711,0,0,0,0,0,0,0,0,-30.419,0.68603,0,-110.18,0,-42.207,74.578,102,1,4.5,0,-4.5,0
0,0.017113,0,0,0,0,0,0,0,0,-30.38,0.68473,0,-110.05,0,-42.157,74.492,102,1,4.505,0,-4.505,0
0,0.017115,0,0,0,0,0,0,0,0,-30.341,0.68343,0,-109.92,0,-42.106,74.407,102,1,4.51,0,-4.51,0
0,0.017117,0,0,0,0,0,0,0,0,-30.302,0.68213,0,-109.79,0,-42.056,74.321,102,1,4.515,0,-4.515,0
0,0.017119,0,0,0,0,0,0,0,0,-30.264,0.68083,0,-109.66,0,-42.005,74.236,102,1,4.52,0,-4.52,0
0,0.017122,0,0,0,0,0,0,0,0,-30.225,0.67953,0,-109.53,0,-41.954,74.15,102,1,4.525,0,-4.525,0
0,0.017124,0,0,0,0,0,0,0,0,-30.186,0.67824,0,-109.4,0,-41.904,74.064,102,1,4.53,0,-4.53,0
0,0.017126,0,0,0,0,0,0,0,0,-30.147,0.67694,0,-109.27,0,-41.853,73.979,102,1,4.535,0,-4.535,0
0,0.017128,0,0,0,0,0,0,0,0,-30.109,0.67564,0,-109.14,0,-41.803,73.893,102,1,4.54,0,-4.54,0
0,0.01713,0,0,0,0,0,0,0,0,-30.07,0.67434,0,-109.01,0,-41.752,73.807,102,1,4.545,0,-4.545,0
0,0.017133,0,0,0,0,0,0,0,0,-30.031,0.67304,0,-108.88,0,-41.701,73.722,102,1,4.55,0,-4.55,0
0,0.017135,0,0,0,0,0,0,0,0,-29.992,0.67174,0,-108.75,0,-41.651,73.636,102,1,4.555,0,-4.555,0
0,0.017137,0,0,0,0,0,0,0,0,-29.954,0.67044,0,-108.62,0,-41.6,73.551,102,1,4.56,0,-4.56,0
0,0.017139,0,0,0,0,0,0,0,0,-29.915,0.66914,0,-108.49,0,-41.55,73.465,102,1,4.565,0,-4.565,0
0,0.017142,0,0,0,0,0,0,0,0,-29.876,0.66785,0,-108.36,0,-41.499,73.379,102,1,4.57,0,-4.57,0
0,0.017144,0,0,0,0,0,0,0,0,-29.838,0.66655,0,-108.23,0,-41.449,73.294,102,1,4.575,0,-4.575,0
0,0.017146,0,0,0,0,0,0,0,0,-29.799,0.66525,0,-108.1,0,-41.398,73.208,102,1,4.58,0,-4.58,0
0,0.017148,0,0,0,0,0,0,0,0,-29.76,0.66395,0,-107.98,0,-41.347,73.122,102,1,4.585,0,-4.585,0
0,0.01715,0,0,0,0,0,0,0,0,-29.721,0.66265,0,-107.85,0,-41.297,73.037,102,1,4.59,0,-4.59,0
0,0.017153,0,0,0,0,0,0,0,0,-29.683,0.66135,0,-107.72,0,-41.246,72.951,102,1,4.595,0,-4.595,0
0,0.017155,0,0,0,0,0,0,0,0,-29.644,0.66005,0,-107.59,0,-41.196,72.866,102,1,4.6,0,-4.6,0
0,0.017157,0,0,0,0,0,0,0,0,-29.605,0.65875,0,-107.46,0,-41.145,72.78,102,1,4.605,0,-4.605,0
0,0.017159,0,0,0,0,0,0,0,0,-29.566,0.65745,0,-107.33,0,-41.094,72.694,102,1,4.61,0,-4.61,0
0,0.017162,0,0,0,0,0,0,0,0,-29.528,0.65616,0,-107.2,0,-41.044,72.609,102,1,4.615,0,-4.615,0
0,0.017164,0,0,0,0,0,0,0,0,-29.489,0.65486,0,-107.07,0,-40.993,72.523,102,1,4.62,0,-4.62,0
0,0.017166,0,0,0,0,0,0,0,0,-29.45,0.65356,0,-106.94,0,-40.943,72.437,102,1,4.625,0,-4.625,0
0,0.017168,0,0,0,0,0,0,0,0,-29.411,0.65226,0,-106.81,0,-40.892,72.352,102,1,4.63,0,-4.63,0
0,0.01717,0,0,0,0,0,0,0,0,-29.373,0.65096,0,-106.68,0,-40.841,72.266,102,1,4.635,0,-4.635,0
0,0.017173,0,0,0,0,0,0,0,0,-29.334,0.64966,0,-106.55,0,-40.791,72.181,102,1,4.64,0,-4.64,0
0,0.017175,0,0,0,0,0,0,0,0,-29.295,0.64836,0,-106.42,0,-40.74,72.095,102,1,4.645,0,-4.645,0
0,0.017177,0,0,0,0,0,0,0,0,-29.256,0.64706,0,-106.29,0,-40.69,72.009,102,1,4.65,0,-4.65,0
0,0.017179,0,0,0,0,0,0,0,0,-29.218,0.64577,0,-106.16,0,-40.639,71.924,102,1,4.655,0,-4.655,0
0,0.017181,0,0,0,0,0,0,0,0,-29.179,0.64447,0,-106.03,0,-40.589,71.838,102,1,4.66,0,-4.66,0
0,0.017184,0,0,0,0,0,0,0,0,-29.14,0.64317,0,-105.9,0,-40.538,71.752,102,1,4.665,0,-4.665,0
0,0.017186,0,0,0,0,0,0,0,0,-29.101,0.64188,0,-105.77,0,-40.488,71.667,102,1,4.67,0,-4.67,0
0,0.017188,0,0,0,0,0,0,0,0,-29.063,0.64086,0,-105.66,0,-40.443,71.597,102,1,4.675,0,-4.675,0
0,0.01719,0,0,0,0,0,0,0,0,-29.025,0.63984,0,-105.55,0,-40.398,71.527,102,1,4.68,0,-4.68,0
0,0.017192,0,0,0,0,0,0,0,0,-28.987,0.63881,0,-105.44,0,-40.353,71.457,102,1,4.685,0,-4.685,0
0,0.017194,0,0,0,0,0,0,0,0,-28.949,0.63779,0,-105.33,0,-40.308,71.387,102,1,4.69,0,-4.69,0
0,0.017196,0,0,0,0,0,0,0,0,-28.911,0.63677,0,-105.21,0,-40.263,71.317,102,1,4.695,0,-4.695,0
0,0.017198,0,0,0,0,0,0,0,0,-28.872,0.63575,0,-105.1,0,-40.218,71.247,102,1,4.7,0,-4.7,0
0,0.0172,0,0,0,0,0,0,0,0,-28.834,0.63472,0,-104.99,0,-40.173,71.177,102,1,4.705,0,-4.705,0
0,0.017202,0,0,0,0,0,0,0,0,-28.796,0.6337,0,-104.88,0,-40.128,71.107,102,1,4.71,0,-4.71,0
0,0.017204,0,0,0,0,0,0,0,0,-28.758,0.63268,0,-104.77,0,-40.083,71.036,102,1,4.715,0,-4.715,0
0,0.017206,0,0,0,0,0,0,0,0,-28.72,0.63166,0,-104.66,0,-40.038,70.966,102,1,4.72,0,-4.72,0
0,0.017208,0,0,0,0,0,0,0,0,-28.681,0.63064,0,-104.54,0,-39.993,70.896,102,1,4.725,0,-4.725,0
0,0.01721,0,0,0,0,0,0,0,0,-28.643,0.62961,0,-104.43,0,-39.948,70.826,102,1,4.73,0,-4.73,0
0,0.017212,0,0,0,0,0,0,0,0,-28.605,0.62859,0,-104.32,0,-39.903,70.756,102,1,4.735,0,-4.735,0
0,0.017214,0,0,0,0,0,0,0,0,-28.567,0.62757,0,-104.21,0,-39.858,70.686,102,1,4.74,0,-4.74,0
0,0.017217,0,0,0,0,0,0,0,0,-28.529,0.62655,0,-104.1,0,-39.813,70.616,102,1,4.745,0,-4.745,0
0,0.017219,0,0,0,0,0,0,0,0,-28.491,0.62553,0,-103.99,0,-39.768,70.546,102,1,4.75,0,-4.75,0
0,0.017221,0,0,0,0,0,0,0,0,-28.452,0.6245,0,-103.88,0,-39.723,70.476,102,1,4.755,0,-4.755,0
0,0.017223,0,0,0,0,0,0,0,0,-28.414,0.62348,0,-103.76,0,-39.678,70.405,102,1,4.76,0,-4.76,0
0,0.017225,0,0,0,0,0,0,0,0,-28.376,0.62246,0,-103.65,0,-39.633,70.335,102,1,4.765,0,-4.765,0
0,0.017227,0,0,0,0,0,0,0,0,-28.338,0.62144,0,-103.54,0,-39.588,70.265,102,1,4.77,0,-4.77,0
0,0.017229,0,0,0,0,0,0,0,0,-28.3,0.62041,0,-103.43,0,-39.543,70.195,102,1,4.775,0,-4.775,0
0,0.017231,0,0,0,0,0,0,0,0,-28.261,0.61939,0,-103.32,0,-39.498,70.125,102,1,4.78,0,-4.78,0
0,0.017233,0,0,0,0,0,0,0,0,-28.223,0.61837,0,-103.21,0,-39.453,70.055,102,1,4.785,0,-4.785,0
0,0.017235,0,0,0,0,0,0,0,0,-28.185,0.61735,0,-103.09,0,-39.408,69.985,102,1,4.79,0,-4.79,0
0,0.017237,0,0,0,0,0,0,0,0,-28.147,0.61633,0,-102.98,0,-39.363,69.915,102,1,4.795,0,-4.795,0
0,0.017239,0,0,0,0,0,0,0,0,-28.109,0.6153,0,-102.87,0,-39.318,69.845,102,1,4.8,0,-4.8,0
0,0.017241,0,0,0,0,0,0,0,0,-28.071,0.61428,0,-102.76,0,-39.274,69.774,102,1,4.805,0,-4.805,0
0,0.017243,0,0,0,0,0,0,0,0,-28.032,0.61326,0,-102.65,0,-39.229,69.704,102,1,4.81,0,-4.81,0
0,0.017245,0,0,0,0,0,0,0,0,-27.994,0.61224,0,-102.54,0,-39.184,69.634,102,1,4.815,0,-4.815,0
0,0.017247,0,0,0,0,0,0,0,0,-27.956,0.61122,0,-102.43,0,-39.139,69.564,102,1,4.82,0,-4.82,0
0,0.017249,0,0,0,0,0,0,0,0,-27.918,0.61019,0,-102.31,0,-39.094,69.494,102,1,4.825,0,-4.825,0
0,0.017251,0,0,0,0,0,0,0,0,-27.88,0.60917,0,-102.2,0,-39.049,69.424,102,1,4.83,0,-4.83,0
0,0.017253,0,0,0,0,0,0,0,0,-27.841,0.60815,0,-102.09,0,-39.004,69.354,102,1,4.835,0,-4.835,0
0,0.017255,0,0,0,0,0,0,0,0,-27.803,0.60713,0,-101.98,0,-38.959,69.284,102,1,4.84,0,-4.84,0
0,0.017257,0,0,0,0,0,0,0,0,-27.765,0.6061,0,-101.87,0,-38.914,69.214,102,1,4.845,0,-4.845,0
0,0.017259,0,0,0,0,0,0,0,0,-27.727,0.60508,0,-101.76,0,-38.869,69.143,102,1,4.85,0,-4.85,0
0,0.017261,0,0,0,0,0,0,0,0,-27.689,0.60406,0,-101.64,0,-38.824,69.073,102,1,4.855,0,-4.855,0
0,0.017263,0,0,0,0,0,0,0,0,-27.651,0.60304,0,-101.53,0,-38.779,69.003,102,1,4.86,0,-4.86,0
0,0.017266,0,0,0,0,0,0,0,0,-27.612,0.60202,0,-101.42,0,-38.734,68.933,102,1,4.865,0,-4.865,0
0,0.017268,0,0,0,0,0,0,0,0,-27.574,0.60099,0,-101.31,0,-38.689,68.863,102,1,4.87,0,-4.87,0
0,0.01727,0,0,0,0,0,0,0,0,-27.536,0.59997,0,-101.2,0,-38.644,68.793,102,1,4.875,0,-4.875,0
0,0.017272,0,0,0,0,0,0,0,0,-27.498,0.59895,0,-101.09,0,-38.599,68.723,102,1,4.88,0,-4.88,0
0,0.017274,0,0,0,0,0,0,0,0,-27.46,0.59793,0,-100.98,0,-38.554,68.653,102,1,4.885,0,-4.885,0
0,0.017276,0,0,0,0,0,0,0,0,-27.421,0.59691,0,-100.86,0,-38.509,68.582,102,1,4.89,0,-4.89,0
0,0.017278,0,0,0,0,0,0,0,0,-27.383,0.59588,0,-100.75,0,-38.464,68.512,102,1,4.895,0,-4.895,0
0,0.01728,0,0,0,0,0,0,0,0,-27.345,0.59486,0,-100.64,0,-38.419,68.442,102,1,4.9,0,-4.9,0
0,0.017282,0,0,0,0,0,0,0,0,-27.307,0.59384,0,-100.53,0,-38.374,68.372,102,1,4.905,0,-4.905,0
0,0.017284,0,0,0,0,0,0,0,0,-27.269,0.59282,0,-100.42,0,-38.329,68.302,102,1,4.91,0,-4.91,0
0,0.017286,0,0,0,0,0,0,0,0,-27.231,0.59179,0,-100.31,0,-38.284,68.232,102,1,4.915,0,-4.915,0
0,0.017288,0,0,0,0,0,0,0,0,-27.192,0.59077,0,-100.19,0,-38.239,68.162,102,1,4.92,0,-4.92,0
0,0.01729,0,0,0,0,0,0,0,0,-27.154,0.58975,0,-100.08,0,-38.194,68.092,102,1,4.925,0,-4.925,0
0,0.017292,0,0,0,0,0,0,0,0,-27.116,0.58873,0,-99.972,0,-38.149,68.022,102,1,4.93,0,-4.93,0
0,0.017294,0,0,0,0,0,0,0,0,-27.078,0.58771,0,-99.86,0,-38.104,67.951,102,1,4.935,0,-4.935,0
0,0.017296,0,0,0,0,0,0,0,0,-27.04,0.58668,0,-99.749,0,-38.059,67.881,102,1,4.94,0,-4.94,0
0,0.017298,0,0,0,0,0,0,0,0,-27.001,0.58566,0,-99.637,0,-38.014,67.811,102,1,4.945,0,-4.945,0
0,0.0173,0,0,0,0,0,0,0,0,-26.963,0.58464,0,-99.526,0,-37.97,67.741,102,1,4.95,0,-4.95,0
0,0.017302,0,0,0,0,0,0,0,0,-26.925,0.58362,0,-99.414,0,-37.925,67.671,102,1,4.955,0,-4.955,0
0,0.017304,0,0,0,0,0,0,0,0,-26.887,0.5826,0,-99.303,0,-37.88,67.601,102,1,4.96,0,-4.96,0
0,0.017306,0,0,0,0,0,0,0,0,-26.849,0.58157,0,-99.191,0,-37.835,67.531,102,1,4.965,0,-4.965,0
0,0.017308,0,0,0,0,0,0,0,0,-26.811,0.58055,0,-99.08,0,-37.79,67.461,102,1,4.97,0,-4.97,0
0,0.01731,0,0,0,0,0,0,0,0,-26.772,0.57953,0,-98.968,0,-37.745,67.391,102,1,4.975,0,-4.975,0
0,0.017312,0,0,0,0,0,0,0,0,-26.734,0.57851,0,-98.857,0,-37.7,67.32,102,1,4.98,0,-4.98,0
0,0.017314,0,0,0,0,0,0,0,0,-26.696,0.57748,0,-98.745,0,-37.655,67.25,102,1,4.985,0,-4.985,0
0,0.017317,0,0,0,0,0,0,0,0,-26.658,0.57646,0,-98.634,0,-37.61,67.18,102,1,4.99,0,-4.99,0
0,0.017319,0,0,0,0,0,0,0,0,-26.62,0.57544,0,-98.522,0,-37.565,67.11,102,1,4.995,0,-4.995,0
0,0.017321,0,0,0,0,0,0,0,0,-26.581,0.57442,0,-98.41,0,-37.52,67.04,102,1,5,0,-5,0
