"CONTACT:0","CONTACT:1","CONTACT:2","CONTACT:3","CONTACT:4","CONTACT:5","E:0","E:1","E:2","E:3","E:4","E:5","ERROR","E_Mises","E_Principal:0","E_Principal:1","E_Principal:2","S:0","S:1","S:2","S:3","S:4","S:5","S_Mises","S_Principal:0","S_Principal:1","S_Principal:2","U:0","U:1","U:2","vtkValidPointMask","arc_length","Points:0","Points:1","Points:2"
-0.00016398,0,0,1639.8,0,0,-0.004137,-0.0043822,8.3911e-36,1.4786e-06,4.6338e-19,9.5749e-21,0.18532,0.0042649,-0.0043822,-0.004137,5.7412e-35,-1619.9,-1656.7,-991.42,0.22396,7.0647e-14,1.3442e-15,647.67,-1656.7,-1619.9,-991.42,-3.8309e-27,0.010159,0,1,0,0,0,0
0,0,0,0,0,0,-0.0044713,-0.0043363,1.1419e-35,1.1756e-07,5.4409e-20,-1.0621e-20,0.6812,0.004436,-0.0047178,-0.0040898,2.1667e-34,-1704,-1683.6,-1025.3,0.0099879,8.3258e-15,-1.7508e-15,673.28,-1741.2,-1646.5,-1025.3,0,0.010344,0,1,0.005,0,-0.005,0
0,0,0,0,0,0,-0.0042317,-0.0044012,1.3037e-35,-1.3511e-07,-4.2422e-19,-8.3578e-21,0.71239,0.0043721,-0.0047225,-0.0039104,3.2971e-34,-1647.4,-1672.9,-1004.8,-0.028402,-6.4673e-14,-1.3423e-15,663.61,-1721.4,-1599,-1004.8,0,0.010366,0,1,0.01,0,-0.01,0
0,0,0,0,0,0,-0.0039986,-0.0044659,1.4414e-35,-3.3138e-07,-8.4046e-19,-6.1974e-21,0.74359,0.0043191,-0.0047314,-0.0037331,4.3175e-34,-1592.6,-1663,-985.02,-0.058186,-1.2816e-13,-9.5694e-16,655.59,-1703,-1552.5,-985.02,0,0.010389,0,1,0.015,0,-0.015,0
0,0,0,0,0,0,-0.003772,-0.0045304,1.5552e-35,-4.7126e-07,-1.1943e-18,-4.1394e-21,0.77478,0.0042771,-0.0047446,-0.0035578,5.2276e-34,-1539.4,-1653.7,-966,-0.079365,-1.8212e-13,-5.9462e-16,649.23,-1686,-1507.1,-966,0,0.010411,0,1,0.02,0,-0.02,0
0,0,0,0,0,0,-0.0035518,-0.0045947,1.6449e-35,-5.5475e-07,-1.4858e-18,-2.1838e-21,0.80598,0.0042461,-0.004762,-0.0033845,6.0276e-34,-1487.9,-1645.1,-947.72,-0.091937,-2.2658e-13,-2.5535e-16,644.52,-1670.4,-1462.7,-947.72,0,0.010434,0,1,0.025,0,-0.025,0
0,0,0,0,0,0,-0.0033382,-0.0046587,1.7107e-35,-5.8185e-07,-1.7149e-18,-3.3066e-22,0.83718,0.004226,-0.0047836,-0.0032132,6.7175e-34,-1438.1,-1637.3,-930.17,-0.095903,-2.6152e-13,6.0866e-17,641.47,-1656.1,-1419.3,-930.17,0,0.010457,0,1,0.03,0,-0.03,0
0,0,0,0,0,0,-0.003131,-0.0047225,1.7525e-35,-5.5256e-07,-1.8816e-18,1.42e-21,0.86837,0.0042169,-0.0048095,-0.003044,7.2972e-34,-1390,-1630.1,-913.36,-0.091263,-2.8694e-13,3.5402e-16,640.07,-1643.2,-1376.9,-913.36,0,0.010481,0,1,0.035,0,-0.035,0
0,0,0,0,0,0,-0.0029303,-0.0047861,1.7702e-35,-4.6687e-07,-1.9859e-18,3.0683e-21,0.89957,0.0042188,-0.0048396,-0.0028767,7.7667e-34,-1343.6,-1623.6,-897.29,-0.078017,-3.0284e-13,6.2412e-16,640.32,-1631.7,-1335.5,-897.29,0,0.010504,0,1,0.04,0,-0.04,0
0,0,0,0,0,0,-0.002736,-0.0048495,1.764e-35,-3.248e-07,-2.0278e-18,4.6141e-21,0.93076,0.0042316,-0.004874,-0.0027115,8.1261e-34,-1298.9,-1617.9,-881.95,-0.056165,-3.0924e-13,8.7117e-16,642.22,-1621.6,-1295.2,-881.95,0,0.010529,0,1,0.045,0,-0.045,0
0,0,0,0,0,0,-0.0025483,-0.0049126,1.7338e-35,-1.2633e-07,-2.0073e-18,6.0575e-21,0.96196,0.0042554,-0.0049126,-0.0025483,8.3754e-34,-1255.9,-1612.8,-867.35,-0.025707,-3.0611e-13,1.0952e-15,645.78,-1612.8,-1255.9,-867.35,0,0.010553,0,1,0.05,0,-0.05,0
0,0,0,0,0,0,-0.002367,-0.0049756,1.6796e-35,1.2853e-07,-1.9244e-18,7.3985e-21,0.99315,0.0042902,-0.0049555,-0.0023871,8.5144e-34,-1214.6,-1608.4,-853.48,0.013357,-2.9347e-13,1.2961e-15,650.99,-1605.4,-1217.6,-853.48,0,0.010578,0,1,0.055,0,-0.055,0
0,0,0,0,0,0,-0.0021923,-0.0050383,1.6014e-35,4.3978e-07,-1.7792e-18,8.637e-21,1.0244,0.004336,-0.0050026,-0.002228,8.5434e-34,-1175,-1604.8,-840.36,0.061027,-2.7132e-13,1.474e-15,657.86,-1599.4,-1180.4,-840.36,0,0.010603,0,1,0.06,0,-0.06,0
0,0,0,0,0,0,-0.002024,-0.0051008,1.4991e-35,8.0742e-07,-1.5716e-18,9.7731e-21,1.0555,0.0043927,-0.0050539,-0.0020708,8.4621e-34,-1137,-1601.8,-827.97,0.1173,-2.3965e-13,1.6288e-15,666.38,-1594.7,-1144.1,-827.97,0,0.010628,0,1,0.065,0,-0.065,0
0,0,0,0,0,0,-0.0018621,-0.005163,1.3729e-35,1.2315e-06,-1.3015e-18,1.0807e-20,1.0867,0.0044603,-0.0051095,-0.0019157,8.2708e-34,-1100.8,-1599.6,-816.31,0.18218,-1.9847e-13,1.7606e-15,676.55,-1591.5,-1108.9,-816.31,0,0.010654,0,1,0.07,0,-0.07,0
0,0,0,0,0,0,-0.0017068,-0.0052251,1.2227e-35,1.7119e-06,-9.6912e-19,1.1738e-20,1.1179,0.004539,-0.0051693,-0.0017626,7.9692e-34,-1066.3,-1598,-805.4,0.25567,-1.4777e-13,1.8693e-15,688.38,-1589.6,-1074.7,-805.4,0,0.01068,0,1,0.075,0,-0.075,0
0,0,0,0,0,0,-0.001558,-0.0052869,1.0486e-35,2.2487e-06,-5.7432e-19,1.2567e-20,1.1491,0.0046286,-0.0052334,-0.0016115,7.5575e-34,-1033.4,-1597.1,-795.22,0.33777,-8.755e-14,1.9549e-15,701.86,-1589,-1041.5,-795.22,0,0.010707,0,1,0.08,0,-0.08,0
0,0,0,0,0,0,-0.0014156,-0.0053485,8.5037e-36,2.8419e-06,-1.1713e-19,1.3293e-20,1.1803,0.0047291,-0.0053017,-0.0014624,7.0357e-34,-1002.3,-1597,-785.78,0.42847,-1.782e-14,2.0175e-15,716.99,-1589.9,-1009.4,-785.78,0,0.010733,0,1,0.085,0,-0.085,0
0,0,0,0,0,0,-0.0012797,-0.0054099,6.2819e-36,3.4915e-06,4.0245e-19,1.3917e-20,1.2115,0.0048407,-0.0053742,-0.0013154,6.4037e-34,-972.85,-1597.5,-777.07,0.52777,6.1426e-14,2.0571e-15,733.77,-1592.1,-978.24,-777.07,0,0.01076,0,1,0.09,0,-0.09,0
0,0,0,0,0,0,-0.0011503,-0.0054711,3.8201e-36,4.1975e-06,9.8441e-19,1.4438e-20,1.2427,0.0049632,-0.005451,-0.0011704,5.6615e-34,-945.1,-1598.7,-769.1,0.63568,1.5019e-13,2.0736e-15,752.21,-1595.7,-948.13,-769.1,0,0.010788,0,1,0.095,0,-0.095,0
0,0,0,0,0,0,-0.0010274,-0.0055321,1.1184e-36,4.9599e-06,1.6288e-18,1.4857e-20,1.2739,0.0050966,-0.0055321,-0.0010274,4.8092e-34,-919.04,-1600.7,-761.87,0.7522,2.4846e-13,2.067e-15,772.31,-1600.7,-919.04,-761.87,0,0.010815,0,1,0.1,0,-0.1,0
0,0,0,0,0,0,-0.00091323,-0.0055281,6.808e-36,6.4147e-06,8.3278e-19,1.3226e-20,1.2884,0.0051385,-0.0055281,-0.0008964,-1.6826e-05,-887.8,-1586.3,-748.07,0.9748,1.2704e-13,1.8473e-15,778.74,-1586.3,-885.2,-750.66,0,0.010843,0,1,0.105,0,-0.105,0
0,0,0,0,0,0,-0.00080256,-0.005524,1.2076e-35,7.7818e-06,1.062e-19,1.167e-20,1.3029,0.0051793,-0.005524,-0.00077331,-2.9229e-05,-857.47,-1572.4,-734.66,1.184,1.6195e-14,1.6379e-15,785.04,-1572.4,-852.97,-739.16,0,0.010871,0,1,0.11,0,-0.11,0
0,0,0,0,0,0,-0.00069533,-0.0055198,1.6923e-35,9.0614e-06,-5.5098e-19,1.019e-20,1.3174,0.0052192,-0.0055199,-0.0006581,-3.7209e-05,-828.06,-1558.8,-721.65,1.3799,-8.4059e-14,1.4386e-15,791.18,-1558.8,-822.33,-727.38,0,0.010898,0,1,0.115,0,-0.115,0
0,0,0,0,0,0,-0.00059154,-0.0055156,2.1348e-35,1.0253e-05,-1.1388e-18,8.7866e-21,1.3319,0.0052582,-0.0055156,-0.00055075,-4.0765e-05,-799.57,-1545.6,-709.03,1.5624,-1.7373e-13,1.2495e-15,797.18,-1545.6,-793.29,-715.31,0,0.010926,0,1,0.12,0,-0.12,0
0,0,0,0,0,0,-0.00049121,-0.0055112,2.5352e-35,1.1358e-05,-1.6572e-18,7.459e-21,1.3463,0.0052962,-0.0055113,-0.00045128,-3.9898e-05,-771.99,-1532.7,-696.8,1.7316,-2.5281e-13,1.0706e-15,803.04,-1532.7,-765.84,-702.95,0,0.010953,0,1,0.125,0,-0.125,0
0,0,0,0,0,0,-0.00039433,-0.0055068,2.8935e-35,1.2374e-05,-2.1062e-18,6.2075e-21,1.3608,0.0053332,-0.0055068,-0.00035968,-3.4607e-05,-745.34,-1520.3,-684.97,1.8874,-3.213e-13,9.0194e-16,808.75,-1520.3,-740,-690.31,0,0.010981,0,1,0.13,0,-0.13,0
0,0,0,0,0,0,-0.00030089,-0.0055023,3.2096e-35,1.3303e-05,-2.4858e-18,5.032e-21,1.3753,0.0053692,-0.0055023,-0.00027596,-2.4894e-05,-719.6,-1508.2,-673.53,2.0298,-3.7921e-13,7.4342e-16,814.32,-1508.2,-715.75,-677.38,0,0.011008,0,1,0.135,0,-0.135,0
0,0,0,0,0,0,-0.0002109,-0.0054977,3.4836e-35,1.4145e-05,-2.796e-18,3.9326e-21,1.3898,0.0054043,-0.0054977,-0.0002001,-1.0756e-05,-694.78,-1496.5,-662.49,2.1589,-4.2653e-13,5.9509e-16,819.74,-1496.5,-693.1,-664.16,0,0.011036,0,1,0.14,0,-0.14,0
0,0,0,0,0,0,-0.00012436,-0.005493,3.7154e-35,1.4899e-05,-3.0368e-18,2.9093e-21,1.4043,0.0054385,-0.005493,-0.00013212,7.804e-06,-670.87,-1485.2,-651.84,2.2746,-4.6327e-13,4.5695e-16,825.01,-1485.2,-672.05,-650.65,0,0.011064,0,1,0.145,0,-0.145,0
0,0,0,0,0,0,-4.1269e-05,-0.0054882,3.9051e-35,1.5565e-05,-3.2082e-18,1.9619e-21,1.4188,0.0054716,-0.0054882,-7.2011e-05,3.0788e-05,-647.89,-1474.3,-641.58,2.377,-4.8941e-13,3.2899e-16,830.15,-1474.3,-652.59,-636.86,0,0.011091,0,1,0.15,0,-0.15,0
0,0,0,0,0,0,3.8375e-05,-0.0054833,4.0527e-35,1.6143e-05,-3.3102e-18,1.0907e-21,1.4333,0.0055038,-0.0054834,-1.9773e-05,5.8195e-05,-625.82,-1463.7,-631.71,2.466,-5.0497e-13,2.1123e-16,835.13,-1463.7,-634.74,-622.79,0,0.011119,0,1,0.155,0,-0.155,0
0,0,0,0,0,0,0.00011457,-0.0054784,4.1581e-35,1.6634e-05,-3.3428e-18,2.9545e-22,1.4477,0.0055351,-0.0054784,2.4594e-05,9.0025e-05,-604.67,-1453.5,-622.24,2.5416,-5.0995e-13,1.0365e-16,839.97,-1453.5,-618.48,-608.42,0,0.011146,0,1,0.16,0,-0.16,0
0,0,0,0,0,0,0.00018732,-0.0054733,4.2214e-35,1.7038e-05,-3.3061e-18,-4.2372e-22,1.4622,0.0055654,-0.0054734,6.1088e-05,0.00012628,-584.43,-1443.7,-613.17,2.6039,-5.0434e-13,6.2574e-18,844.67,-1443.7,-603.82,-593.77,0,0.011173,0,1,0.165,0,-0.165,0
0,0,0,0,0,0,0.00025662,-0.0054682,4.2425e-35,1.7353e-05,-3.1999e-18,-1.0668e-21,1.4767,0.0055947,-0.0054682,8.9711e-05,0.00016696,-565.11,-1434.3,-604.48,2.6528,-4.8814e-13,-8.0945e-17,849.22,-1434.3,-590.76,-578.83,0,0.011201,0,1,0.17,0,-0.17,0
0,0,0,0,0,0,0.00032247,-0.0054629,4.2215e-35,1.7581e-05,-3.0243e-18,-1.6339e-21,1.4912,0.005623,-0.005463,0.00011046,0.00021206,-546.72,-1425.2,-596.19,2.6883,-4.6135e-13,-1.5796e-16,853.62,-1425.3,-579.29,-563.61,0,0.011228,0,1,0.175,0,-0.175,0
0,0,0,0,0,0,0.00038487,-0.0054576,4.1584e-35,1.7722e-05,-2.7794e-18,-2.1249e-21,1.5057,0.0056504,-0.0054577,0.00012334,0.00026158,-529.23,-1416.6,-588.29,2.7105,-4.2398e-13,-2.2479e-16,857.88,-1416.6,-569.43,-548.09,0,0.011256,0,1,0.18,0,-0.18,0
0,0,0,0,0,0,0.00044382,-0.0054522,4.0531e-35,1.7775e-05,-2.465e-18,-2.5399e-21,1.5202,0.0056768,-0.0054522,0.00012835,0.00031553,-512.67,-1408.3,-580.79,2.7193,-3.7602e-13,-2.8143e-16,862,-1408.3,-561.16,-532.3,0,0.011283,0,1,0.185,0,-0.185,0
0,0,0,0,0,0,0.00049933,-0.0054467,3.9057e-35,1.774e-05,-2.0813e-18,-2.8788e-21,1.5347,0.0057023,-0.0054467,0.00012548,0.0003739,-497.02,-1400.4,-573.68,2.7148,-3.1747e-13,-3.2788e-16,865.96,-1400.4,-554.48,-516.21,0,0.011311,0,1,0.19,0,-0.19,0
0,0,0,0,0,0,0.00055139,-0.0054411,3.7161e-35,1.7618e-05,-1.6281e-18,-3.1417e-21,1.5491,0.0057268,-0.0054411,0.00011474,0.00043669,-482.29,-1392.9,-566.97,2.6969,-2.4834e-13,-3.6414e-16,869.79,-1392.9,-549.41,-499.84,0,0.011338,0,1,0.195,0,-0.195,0
0,0,0,0,0,0,0.0006,-0.0054354,3.4844e-35,1.7407e-05,-1.1056e-18,-3.3285e-21,1.5636,0.0057503,-0.0054355,9.6134e-05,0.00050391,-468.48,-1385.7,-560.64,2.6656,-1.6862e-13,-3.9021e-16,873.47,-1385.7,-545.94,-483.18,0,0.011365,0,1,0.2,0,-0.2,0
0,0,0,0,0,0,0.00064516,-0.0054296,3.2106e-35,1.711e-05,-5.1364e-19,-3.4392e-21,1.5781,0.0057729,-0.0054297,6.9653e-05,0.00057555,-455.59,-1378.9,-554.71,2.621,-7.8316e-14,-4.061e-16,877,-1378.9,-544.06,-466.24,0,0.011393,0,1,0.205,0,-0.205,0
0,0,0,0,0,0,0.00068687,-0.0054238,2.8946e-35,1.6725e-05,1.4769e-19,-3.4739e-21,1.5926,0.0057945,-0.0054238,3.53e-05,0.00065161,-443.61,-1372.5,-549.18,2.563,2.2577e-14,-4.118e-16,880.39,-1372.5,-543.78,-449,0,0.01142,0,1,0.21,0,-0.21,0
0,0,0,0,0,0,0.00072455,-0.0054137,2.5527e-35,1.6171e-05,7.7484e-19,-3.3401e-21,1.6051,0.0058101,-0.0054138,1.3448e-34,0.00072459,-432.23,-1365.5,-543.63,2.4792,1.1826e-13,-3.9634e-16,882.87,-1365.5,-543.63,-432.23,0,0.011447,0,1,0.215,0,-0.215,0
0,0,0,0,0,0,0.00075679,-0.0053809,2.2923e-35,1.5174e-05,8.4746e-19,-2.6812e-21,1.6065,0.005797,-0.0053809,1.4161e-34,0.00075683,-419.68,-1353,-536.04,2.3269,1.2937e-13,-3.1794e-16,881.02,-1353,-536.04,-419.68,0,0.011474,0,1,0.22,0,-0.22,0
0,0,0,0,0,0,0.00078784,-0.0053481,2.0468e-35,1.4253e-05,9.0962e-19,-2.0623e-21,1.6079,0.0057834,-0.0053482,1.4804e-34,0.00078787,-407.47,-1340.7,-528.62,2.186,1.3888e-13,-2.4408e-16,879.08,-1340.7,-528.62,-407.47,0,0.011501,0,1,0.225,0,-0.225,0
0,0,0,0,0,0,0.00081768,-0.0053155,1.8161e-35,1.3406e-05,9.613e-19,-1.4834e-21,1.6093,0.0057692,-0.0053156,1.5376e-34,0.00081771,-395.61,-1328.6,-521.35,2.0566,1.4679e-13,-1.7477e-16,877.05,-1328.6,-521.35,-395.6,0,0.011528,0,1,0.23,0,-0.23,0
0,0,0,0,0,0,0.00084631,-0.0052831,1.6003e-35,1.2635e-05,1.0025e-18,-9.4447e-22,1.6107,0.0057545,-0.0052831,1.5877e-34,0.00084634,-384.08,-1316.6,-514.24,1.9387,1.531e-13,-1.1e-16,874.93,-1316.6,-514.24,-384.08,0,0.011554,0,1,0.235,0,-0.235,0
0,0,0,0,0,0,0.00087375,-0.0052508,1.3994e-35,1.1939e-05,1.0333e-18,-4.4554e-22,1.6121,0.0057392,-0.0052509,1.6308e-34,0.00087377,-372.9,-1304.8,-507.29,1.8324,1.578e-13,-4.9783e-17,872.73,-1304.8,-507.29,-372.9,0,0.01158,0,1,0.24,0,-0.24,0
0,0,0,0,0,0,0.00089998,-0.0052187,1.2133e-35,1.1318e-05,1.0535e-18,1.34e-23,1.6135,0.0057233,-0.0052187,1.6669e-34,0.0009,-362.07,-1293.2,-500.49,1.7375,1.6091e-13,5.8916e-18,870.44,-1293.2,-500.49,-362.06,0,0.011607,0,1,0.245,0,-0.245,0
0,0,0,0,0,0,0.000925,-0.0051867,1.0422e-35,1.0771e-05,1.0633e-18,4.3234e-22,1.6149,0.005707,-0.0051867,1.6958e-34,0.00092502,-351.57,-1281.8,-493.86,1.6541,1.6242e-13,5.7021e-17,868.07,-1281.8,-493.86,-351.57,0,0.011633,0,1,0.25,0,-0.25,0
0,0,0,0,0,0,0.00094882,-0.0051549,8.8588e-36,1.03e-05,1.0626e-18,8.1129e-22,1.6163,0.00569,-0.0051549,1.7178e-34,0.00094884,-341.42,-1270.6,-487.38,1.5822,1.6232e-13,1.036e-16,865.61,-1270.6,-487.38,-341.42,0,0.011658,0,1,0.255,0,-0.255,0
0,0,0,0,0,0,0.00097144,-0.0051232,7.4446e-36,9.9046e-06,1.0515e-18,1.1502e-21,1.6177,0.0056726,-0.0051232,1.7326e-34,0.00097146,-331.62,-1259.5,-481.06,1.5218,1.6063e-13,1.4564e-16,863.06,-1259.5,-481.06,-331.61,0,0.011684,0,1,0.26,0,-0.26,0
0,0,0,0,0,0,0.00099285,-0.0050917,6.1791e-36,9.5838e-06,1.0299e-18,1.4492e-21,1.6191,0.0056545,-0.0050917,1.7404e-34,0.00099287,-322.15,-1248.6,-474.9,1.4729,1.5733e-13,1.8314e-16,860.43,-1248.6,-474.9,-322.15,0,0.01171,0,1,0.265,0,-0.265,0
0,0,0,0,0,0,0.0010131,-0.0050603,5.0624e-36,9.3382e-06,9.9776e-19,1.7082e-21,1.6205,0.005636,-0.0050603,1.7412e-34,0.0010131,-313.03,-1237.9,-468.89,1.4355,1.5243e-13,2.1608e-16,857.71,-1237.9,-468.89,-313.03,0,0.011735,0,1,0.27,0,-0.27,0
0,0,0,0,0,0,0.0010321,-0.005029,4.0944e-36,9.1676e-06,9.552e-19,1.9272e-21,1.6219,0.0056168,-0.0050291,1.7349e-34,0.0010321,-304.25,-1227.4,-463.05,1.4096,1.4594e-13,2.4449e-16,854.9,-1227.4,-463.05,-304.25,0,0.01176,0,1,0.275,0,-0.275,0
0,0,0,0,0,0,0.0010499,-0.0049979,3.2751e-36,9.0722e-06,9.0215e-19,2.1061e-21,1.6233,0.0055972,-0.004998,1.7216e-34,0.0010499,-295.82,-1217,-457.36,1.3952,1.3784e-13,2.6834e-16,852.01,-1217,-457.36,-295.82,0,0.011786,0,1,0.28,0,-0.28,0
0,0,0,0,0,0,0.0010665,-0.004967,2.6046e-36,9.0518e-06,8.3864e-19,2.2451e-21,1.6247,0.005577,-0.004967,1.7012e-34,0.0010665,-287.73,-1206.9,-451.83,1.3923,1.2814e-13,2.8766e-16,849.03,-1206.9,-451.83,-287.73,0,0.011811,0,1,0.285,0,-0.285,0
0,0,0,0,0,0,0.0010819,-0.0049362,2.0828e-36,9.1066e-06,7.6465e-19,2.3441e-21,1.6261,0.0055562,-0.0049362,1.6737e-34,0.0010819,-279.98,-1196.9,-446.46,1.4009,1.1684e-13,3.0242e-16,845.97,-1196.9,-446.46,-279.98,0,0.011835,0,1,0.29,0,-0.29,0
0,0,0,0,0,0,0.0010961,-0.0049056,1.7098e-36,9.2364e-06,6.802e-19,2.4031e-21,1.6276,0.0055349,-0.0049056,1.6392e-34,0.0010961,-272.57,-1187.1,-441.24,1.421,1.0394e-13,3.1264e-16,842.82,-1187.1,-441.24,-272.57,0,0.01186,0,1,0.295,0,-0.295,0
0,0,0,0,0,0,0.001109,-0.0048751,1.4855e-36,9.4414e-06,5.8526e-19,2.4221e-21,1.629,0.005513,-0.0048751,1.5976e-34,0.0011091,-265.51,-1177.5,-436.19,1.4525,8.9438e-14,3.1832e-16,839.58,-1177.5,-436.19,-265.51,0,0.011885,0,1,0.3,0,-0.3,0
0,0,0,0,0,0,0.0011208,-0.0048447,1.4099e-36,9.7214e-06,4.7986e-19,2.4011e-21,1.6304,0.0054906,-0.0048447,1.549e-34,0.0011208,-258.79,-1168,-431.29,1.4956,7.3335e-14,3.1945e-16,836.26,-1168,-431.29,-258.79,0,0.011909,0,1,0.305,0,-0.305,0
0,0,0,0,0,0,0.0011314,-0.0048145,1.4831e-36,1.0077e-05,3.6398e-19,2.3401e-21,1.6318,0.0054677,-0.0048146,1.4933e-34,0.0011314,-252.42,-1158.7,-426.55,1.5502,5.5632e-14,3.1604e-16,832.85,-1158.7,-426.55,-252.41,0,0.011933,0,1,0.31,0,-0.31,0
0,0,0,0,0,0,0.0011408,-0.0047845,1.705e-36,1.0507e-05,2.3763e-19,2.2392e-21,1.6332,0.0054442,-0.0047845,1.4306e-34,0.0011408,-246.38,-1149.6,-421.97,1.6163,3.6329e-14,3.0807e-16,829.36,-1149.6,-421.97,-246.38,0,0.011957,0,1,0.315,0,-0.315,0
0,0,0,0,0,0,0.001149,-0.0047546,2.0756e-36,1.1012e-05,1.0081e-19,2.0982e-21,1.6346,0.0054201,-0.0047546,1.3608e-34,0.001149,-240.69,-1140.7,-417.54,1.6939,1.5424e-14,2.9557e-16,825.77,-1140.7,-417.54,-240.69,0,0.011981,0,1,0.32,0,-0.32,0
0,0,0,0,0,0,0.0011559,-0.0047248,2.595e-36,1.1593e-05,-4.648e-20,1.9172e-21,1.636,0.0053955,-0.0047249,1.284e-34,0.001156,-235.35,-1132,-413.27,1.7829,-7.0811e-15,2.7852e-16,822.11,-1132,-413.27,-235.34,0,0.012005,0,1,0.325,0,-0.325,0
0,0,0,0,0,0,0.0011617,-0.0046952,3.2631e-36,1.2248e-05,-2.0425e-19,1.6963e-21,1.6374,0.0053704,-0.0046953,1.2001e-34,0.0011617,-230.34,-1123.4,-409.17,1.8835,-3.1187e-14,2.5692e-16,818.35,-1123.4,-409.17,-230.34,0,0.012029,0,1,0.33,0,-0.33,0
0,0,0,0,0,0,0.0011663,-0.0046658,4.08e-36,1.2979e-05,-3.7249e-19,1.4353e-21,1.6388,0.0053447,-0.0046658,1.1091e-34,0.0011663,-225.68,-1115.1,-405.21,1.9956,-5.6894e-14,2.3078e-16,814.51,-1115.1,-405.21,-225.68,0,0.012052,0,1,0.335,0,-0.335,0
0,0,0,0,0,0,0.0011696,-0.0046365,5.0456e-36,1.3785e-05,-5.512e-19,1.1344e-21,1.6402,0.0053185,-0.0046365,1.0111e-34,0.0011696,-221.37,-1106.9,-401.42,2.1191,-8.4202e-14,2.0009e-16,810.58,-1106.9,-401.42,-221.36,0,0.012076,0,1,0.34,0,-0.34,0
0,0,0,0,0,0,0.0011723,-0.0046065,6.6505e-36,1.3394e-05,-5.1552e-19,9.3537e-22,1.6409,0.005291,-0.0046065,1.2428e-34,0.0011723,-217.15,-1098.6,-397.63,2.0591,-7.8729e-14,1.7669e-16,806.47,-1098.6,-397.63,-217.15,0,0.012099,0,1,0.345,0,-0.345,0
0,0,0,0,0,0,0.001175,-0.0045758,8.728e-36,1.1795e-05,-2.638e-19,8.7777e-22,1.6409,0.0052627,-0.0045758,1.7879e-34,0.0011751,-212.84,-1090,-393.74,1.8136,-4.0226e-14,1.652e-16,802.22,-1090.1,-393.74,-212.84,0,0.012122,0,1,0.35,0,-0.35,0
0,0,0,0,0,0,0.0011774,-0.0045451,1.071e-35,1.0308e-05,-2.9653e-20,8.2723e-22,1.6409,0.0052342,-0.0045451,2.2901e-34,0.0011775,-208.62,-1081.6,-389.89,1.5854,-4.4114e-15,1.5489e-16,797.95,-1081.6,-389.89,-208.62,0,0.012145,0,1,0.355,0,-0.355,0
0,0,0,0,0,0,0.0011795,-0.0045145,1.2598e-35,8.9328e-06,1.8692e-19,7.8375e-22,1.6409,0.0052056,-0.0045145,2.7495e-34,0.0011796,-204.5,-1073.2,-386.09,1.3743,2.8715e-14,1.4576e-16,793.65,-1073.2,-386.09,-204.49,0,0.012167,0,1,0.36,0,-0.36,0
0,0,0,0,0,0,0.0011813,-0.0044839,1.439e-35,7.6694e-06,3.8593e-19,7.4733e-22,1.6409,0.0051768,-0.0044839,3.1661e-34,0.0011813,-200.46,-1064.8,-382.34,1.1803,5.9152e-14,1.378e-16,789.33,-1064.8,-382.34,-200.46,0,0.01219,0,1,0.365,0,-0.365,0
0,0,0,0,0,0,0.0011828,-0.0044534,1.6087e-35,6.5179e-06,5.6736e-19,7.1797e-22,1.6409,0.0051479,-0.0044534,3.5399e-34,0.0011828,-196.52,-1056.5,-378.62,1.0036,8.6901e-14,1.3103e-16,784.99,-1056.5,-378.62,-196.51,0,0.012212,0,1,0.37,0,-0.37,0
0,0,0,0,0,0,0.001184,-0.004423,1.7689e-35,5.4782e-06,7.3122e-19,6.9567e-22,1.6409,0.0051189,-0.004423,3.8708e-34,0.001184,-192.66,-1048.3,-374.95,0.84397,1.1196e-13,1.2543e-16,780.62,-1048.3,-374.95,-192.66,0,0.012234,0,1,0.375,0,-0.375,0
0,0,0,0,0,0,0.0011848,-0.0043926,1.9196e-35,4.5503e-06,8.7751e-19,6.8043e-22,1.6409,0.0050897,-0.0043926,4.1589e-34,0.0011849,-188.9,-1040.1,-371.33,0.70154,1.3433e-13,1.2101e-16,776.24,-1040.1,-371.33,-188.9,0,0.012256,0,1,0.38,0,-0.38,0
0,0,0,0,0,0,0.0011854,-0.0043623,2.0607e-35,3.7343e-06,1.0062e-18,6.7224e-22,1.6409,0.0050604,-0.0043623,4.4042e-34,0.0011854,-185.23,-1031.9,-367.74,0.57628,1.5402e-13,1.1776e-16,771.83,-1031.9,-367.74,-185.23,0,0.012278,0,1,0.385,0,-0.385,0
0,0,0,0,0,0,0.0011857,-0.0043321,2.1924e-35,3.0301e-06,1.1174e-18,6.7112e-22,1.6409,0.0050309,-0.0043321,4.6066e-34,0.0011857,-181.65,-1023.8,-364.21,0.46819,1.7101e-13,1.157e-16,767.4,-1023.8,-364.21,-181.65,0,0.0123,0,1,0.39,0,-0.39,0
0,0,0,0,0,0,0.0011856,-0.0043019,2.3145e-35,2.4378e-06,1.211e-18,6.7706e-22,1.6409,0.0050014,-0.0043019,4.7662e-34,0.0011856,-178.16,-1015.8,-360.71,0.37726,1.8532e-13,1.1481e-16,762.95,-1015.8,-360.71,-178.16,0,0.012322,0,1,0.395,0,-0.395,0
0,0,0,0,0,0,0.0011852,-0.0042718,2.4272e-35,1.9573e-06,1.287e-18,6.9005e-22,1.6409,0.0049716,-0.0042718,4.883e-34,0.0011852,-174.76,-1007.8,-357.26,0.30351,1.9693e-13,1.151e-16,758.47,-1007.8,-357.26,-174.76,0,0.012343,0,1,0.4,0,-0.4,0
0,0,0,0,0,0,0.0011845,-0.0042418,2.5303e-35,1.5886e-06,1.3454e-18,7.101e-22,1.6409,0.0049418,-0.0042418,4.957e-34,0.0011845,-171.46,-999.89,-353.85,0.24692,2.0586e-13,1.1656e-16,753.97,-999.89,-353.85,-171.46,0,0.012365,0,1,0.405,0,-0.405,0
0,0,0,0,0,0,0.0011836,-0.0042118,2.6239e-35,1.3318e-06,1.3863e-18,7.3721e-22,1.6409,0.0049118,-0.0042118,4.9881e-34,0.0011836,-168.24,-992.01,-350.48,0.2075,2.121e-13,1.1921e-16,749.45,-992.01,-350.48,-168.24,0,0.012386,0,1,0.41,0,-0.41,0
0,0,0,0,0,0,0.0011823,-0.0041819,2.708e-35,1.1869e-06,1.4095e-18,7.7139e-22,1.6409,0.0048816,-0.0041819,4.9764e-34,0.0011823,-165.12,-984.18,-347.16,0.18525,2.1565e-13,1.2303e-16,744.91,-984.18,-347.16,-165.12,0,0.012407,0,1,0.415,0,-0.415,0
0,0,0,0,0,0,0.0011807,-0.0041521,2.7826e-35,1.1538e-06,1.4153e-18,8.1262e-22,1.6409,0.0048514,-0.0041521,4.9218e-34,0.0011807,-162.08,-976.4,-343.88,0.18017,2.1652e-13,1.2803e-16,740.35,-976.4,-343.88,-162.08,0,0.012428,0,1,0.42,0,-0.42,0
0,0,0,0,0,0,0.0011787,-0.0041223,2.8477e-35,1.2325e-06,1.4034e-18,8.6091e-22,1.6409,0.0048209,-0.0041223,4.8244e-34,0.0011787,-159.14,-968.68,-340.65,0.19225,2.1469e-13,1.3421e-16,735.76,-968.68,-340.65,-159.14,0,0.012448,0,1,0.425,0,-0.425,0
0,0,0,0,0,0,0.0011765,-0.0040926,2.9033e-35,1.4231e-06,1.374e-18,9.1625e-22,1.6409,0.0047904,-0.0040926,4.6842e-34,0.0011765,-156.29,-961.01,-337.46,0.22151,2.1018e-13,1.4157e-16,731.15,-961.01,-337.46,-156.29,0,0.012469,0,1,0.43,0,-0.43,0
0,0,0,0,0,0,0.001174,-0.004063,2.9494e-35,1.7255e-06,1.327e-18,9.7866e-22,1.6409,0.0047597,-0.004063,4.5012e-34,0.001174,-153.53,-953.39,-334.31,0.26793,2.0297e-13,1.501e-16,726.52,-953.39,-334.31,-153.53,0,0.012489,0,1,0.435,0,-0.435,0
0,0,0,0,0,0,0.0011711,-0.0040334,2.9859e-35,2.1397e-06,1.2624e-18,1.0481e-21,1.6409,0.0047289,-0.0040334,4.2753e-34,0.0011711,-150.87,-945.82,-331.21,0.33152,1.9308e-13,1.5981e-16,721.87,-945.82,-331.21,-150.87,0,0.01251,0,1,0.44,0,-0.44,0
0,0,0,0,0,0,0.001168,-0.0040038,3.013e-35,2.6658e-06,1.1803e-18,1.1247e-21,1.6409,0.0046979,-0.0040039,4.0067e-34,0.001168,-148.29,-938.31,-328.15,0.41228,1.805e-13,1.707e-16,717.19,-938.31,-328.15,-148.29,0,0.01253,0,1,0.445,0,-0.445,0
0,0,0,0,0,0,0.0011645,-0.0039744,3.0305e-35,3.3038e-06,1.0806e-18,1.2082e-21,1.6409,0.0046668,-0.0039744,3.6951e-34,0.0011645,-145.8,-930.85,-325.13,0.51021,1.6523e-13,1.8277e-16,712.5,-930.85,-325.13,-145.8,0,0.01255,0,1,0.45,0,-0.45,0
0,0,0,0,0,0,0.0011608,-0.003945,3.0385e-35,4.0536e-06,9.6331e-19,1.2989e-21,1.6409,0.0046356,-0.003945,3.3408e-34,0.0011608,-143.41,-923.44,-322.16,0.6253,1.4728e-13,1.9601e-16,707.78,-923.44,-322.16,-143.41,0,0.01257,0,1,0.455,0,-0.455,0
0,0,0,0,0,0,0.0011567,-0.0039157,3.037e-35,4.9152e-06,8.2846e-19,1.3966e-21,1.6409,0.0046042,-0.0039157,2.9436e-34,0.0011567,-141.11,-916.08,-319.23,0.75757,1.2663e-13,2.1044e-16,703.03,-916.08,-319.23,-141.11,0,0.012589,0,1,0.46,0,-0.46,0
0,0,0,0,0,0,0.0011523,-0.0038864,3.026e-35,5.8887e-06,6.7604e-19,1.5013e-21,1.6409,0.0045727,-0.0038864,2.5036e-34,0.0011523,-138.9,-908.78,-316.34,0.907,1.033e-13,2.2604e-16,698.27,-908.78,-316.34,-138.89,0,0.012609,0,1,0.465,0,-0.465,0
0,0,0,0,0,0,0.0011476,-0.0038572,3.0055e-35,6.974e-06,5.0605e-19,1.6132e-21,1.6409,0.0045411,-0.0038572,2.0207e-34,0.0011476,-136.77,-901.53,-313.5,1.0736,7.7275e-14,2.4281e-16,693.48,-901.53,-313.5,-136.77,0,0.012628,0,1,0.47,0,-0.47,0
0,0,0,0,0,0,0.0011426,-0.0038281,2.9755e-35,8.1712e-06,3.1848e-19,1.732e-21,1.6409,0.0045093,-0.0038281,1.4951e-34,0.0011426,-134.75,-894.33,-310.7,1.2574,4.8564e-14,2.6077e-16,688.67,-894.33,-310.7,-134.74,0,0.012647,0,1,0.475,0,-0.475,0
0,0,0,0,0,0,0.0011373,-0.003799,2.936e-35,9.4802e-06,1.1335e-19,1.858e-21,1.6409,0.0044773,-0.003799,9.2656e-35,0.0011373,-132.81,-887.19,-307.94,1.4583,1.7164e-14,2.799e-16,683.84,-887.19,-307.94,-132.8,0,0.012666,0,1,0.48,0,-0.48,0
0,0,0,0,0,0,0.0011317,-0.0037701,2.8916e-35,1.0882e-05,-1.0925e-19,1.9863e-21,1.6409,0.0044453,-0.0037701,3.3002e-35,0.0011317,-130.96,-880.1,-305.24,1.6736,-1.6907e-14,2.995e-16,678.99,-880.11,-305.24,-130.96,0,0.012685,0,1,0.485,0,-0.485,0
0,0,0,0,0,0,0.0011271,-0.0037474,3.4943e-35,9.661e-06,-3.1892e-19,1.4437e-21,1.6383,0.0044202,-0.0037475,1.8332e-34,0.0011271,-129.58,-874.59,-303.14,1.4859,-4.9004e-14,2.168e-16,675.18,-874.59,-303.14,-129.57,0,0.012704,0,1,0.49,0,-0.49,0
0,0,0,0,0,0,0.0011225,-0.0037248,4.0544e-35,8.5113e-06,-5.179e-19,9.2355e-22,1.6357,0.004395,-0.0037248,3.2544e-34,0.0011225,-128.2,-869.09,-301.06,1.3092,-7.9463e-14,1.3752e-16,671.36,-869.09,-301.06,-128.2,0,0.012723,0,1,0.495,0,-0.495,0
0,0,0,0,0,0,0.0011178,-0.0037022,4.572e-35,7.4333e-06,-7.0619e-19,4.26e-22,1.6331,0.0043697,-0.0037022,4.5937e-34,0.0011178,-126.84,-863.58,-298.97,1.1436,-1.0829e-13,6.1645e-17,667.54,-863.59,-298.97,-126.84,0,0.012742,0,1,0.5,0,-0.5,0
0,0,0,0,0,0,0.0011131,-0.0036796,5.047e-35,6.4271e-06,-8.8378e-19,-4.9015e-23,1.6305,0.0043445,-0.0036796,5.8511e-34,0.0011131,-125.49,-858.09,-296.9,0.98901,-1.3547e-13,-1.0818e-17,663.71,-858.09,-296.9,-125.49,0,0.01276,0,1,0.505,0,-0.505,0
0,0,0,0,0,0,0.0011083,-0.003657,5.4795e-35,5.4926e-06,-1.0507e-18,-5.0148e-22,1.6279,0.0043192,-0.003657,7.0266e-34,0.0011083,-124.15,-852.6,-294.83,0.84543,-1.6102e-13,-7.9871e-17,659.88,-852.6,-294.83,-124.15,0,0.012779,0,1,0.51,0,-0.51,0
0,0,0,0,0,0,0.0011035,-0.0036344,5.8694e-35,4.6299e-06,-1.2069e-18,-9.3141e-22,1.6253,0.0042938,-0.0036344,8.1202e-34,0.0011035,-122.83,-847.12,-292.76,0.71287,-1.8493e-13,-1.4551e-16,656.04,-847.12,-292.76,-122.83,0,0.012797,0,1,0.515,0,-0.515,0
0,0,0,0,0,0,0.0010987,-0.0036117,6.2168e-35,3.8389e-06,-1.3524e-18,-1.3388e-21,1.6227,0.0042685,-0.0036118,9.1318e-34,0.0010987,-121.52,-841.64,-290.71,0.59133,-2.0721e-13,-2.0775e-16,652.2,-841.64,-290.71,-121.52,0,0.012815,0,1,0.52,0,-0.52,0
0,0,0,0,0,0,0.0010937,-0.0035891,6.5216e-35,3.1196e-06,-1.4872e-18,-1.7236e-21,1.6201,0.0042431,-0.0035891,1.0062e-33,0.0010938,-120.23,-836.17,-288.65,0.48082,-2.2785e-13,-2.6657e-16,648.35,-836.17,-288.65,-120.22,0,0.012833,0,1,0.525,0,-0.525,0
0,0,0,0,0,0,0.0010888,-0.0035665,6.7839e-35,2.4721e-06,-1.6114e-18,-2.0859e-21,1.6175,0.0042177,-0.0035665,1.0909e-33,0.0010888,-118.94,-830.7,-286.61,0.38132,-2.4685e-13,-3.2198e-16,644.5,-830.7,-286.61,-118.94,0,0.012851,0,1,0.53,0,-0.53,0
0,0,0,0,0,0,0.0010838,-0.0035439,7.0036e-35,1.8964e-06,-1.7248e-18,-2.4257e-21,1.6149,0.0041922,-0.0035439,1.1675e-33,0.0010838,-117.67,-825.24,-284.57,0.29285,-2.6422e-13,-3.7398e-16,640.64,-825.24,-284.57,-117.67,0,0.012869,0,1,0.535,0,-0.535,0
0,0,0,0,0,0,0.0010787,-0.0035213,7.1808e-35,1.3924e-06,-1.8276e-18,-2.7429e-21,1.6123,0.0041668,-0.0035213,1.2359e-33,0.0010787,-116.42,-819.79,-282.53,0.2154,-2.7994e-13,-4.2257e-16,636.78,-819.79,-282.53,-116.41,0,0.012887,0,1,0.54,0,-0.54,0
0,0,0,0,0,0,0.0010736,-0.0034987,7.3154e-35,9.6009e-07,-1.9196e-18,-3.0375e-21,1.6097,0.0041413,-0.0034987,1.2961e-33,0.0010736,-115.17,-814.34,-280.5,0.14897,-2.9404e-13,-4.6775e-16,632.91,-814.34,-280.5,-115.17,0,0.012904,0,1,0.545,0,-0.545,0
0,0,0,0,0,0,0.0010685,-0.0034761,7.4074e-35,5.9957e-07,-2.001e-18,-3.3097e-21,1.6071,0.0041157,-0.0034761,1.3481e-33,0.0010685,-113.94,-808.89,-278.48,0.09357,-3.0649e-13,-5.0952e-16,629.04,-808.89,-278.48,-113.94,0,0.012922,0,1,0.55,0,-0.55,0
0,0,0,0,0,0,0.0010633,-0.0034535,7.4569e-35,3.1079e-07,-2.0717e-18,-3.5592e-21,1.6045,0.0040902,-0.0034535,1.392e-33,0.0010633,-112.72,-803.46,-276.46,0.049187,-3.1731e-13,-5.4788e-16,625.16,-803.46,-276.46,-112.72,0,0.012939,0,1,0.555,0,-0.555,0
0,0,0,0,0,0,0.001058,-0.0034309,7.4639e-35,9.3759e-08,-2.1317e-18,-3.7863e-21,1.602,0.0040646,-0.0034309,1.4276e-33,0.001058,-111.52,-798.02,-274.45,0.015826,-3.2649e-13,-5.8283e-16,621.28,-798.02,-274.45,-111.52,0,0.012956,0,1,0.56,0,-0.56,0
0,0,0,0,0,0,0.0010527,-0.0034083,7.4283e-35,-5.1528e-08,-2.181e-18,-3.9907e-21,1.5994,0.0040389,-0.0034083,1.455e-33,0.0010527,-110.33,-792.6,-272.44,-0.0065124,-3.3403e-13,-6.1437e-16,617.39,-792.6,-272.44,-110.33,0,0.012973,0,1,0.565,0,-0.565,0
0,0,0,0,0,0,0.0010474,-0.0033857,7.3502e-35,-1.2507e-07,-2.2196e-18,-4.1727e-21,1.5968,0.0040133,-0.0033857,1.4743e-33,0.0010474,-109.15,-787.18,-270.44,-0.017829,-3.3994e-13,-6.4249e-16,613.49,-787.18,-270.44,-109.15,0,0.01299,0,1,0.57,0,-0.57,0
0,0,0,0,0,0,0.001042,-0.0033631,7.2294e-35,-1.2687e-07,-2.2475e-18,-4.3321e-21,1.5942,0.0039876,-0.0033631,1.4853e-33,0.001042,-107.98,-781.76,-268.44,-0.018123,-3.4421e-13,-6.6721e-16,609.6,-781.76,-268.44,-107.98,0,0.013007,0,1,0.575,0,-0.575,0
0,0,0,0,0,0,0.0010366,-0.0033405,7.0662e-35,-5.6917e-08,-2.2647e-18,-4.469e-21,1.5916,0.0039619,-0.0033405,1.4882e-33,0.0010366,-106.83,-776.35,-266.46,-0.0073942,-3.4685e-13,-6.8852e-16,605.69,-776.35,-266.46,-106.83,0,0.013024,0,1,0.58,0,-0.58,0
0,0,0,0,0,0,0.0010311,-0.0033179,6.8604e-35,8.478e-08,-2.2712e-18,-4.5833e-21,1.589,0.0039361,-0.0033179,1.4829e-33,0.0010311,-105.69,-770.95,-264.47,0.014357,-3.4785e-13,-7.0642e-16,601.78,-770.95,-264.47,-105.69,0,0.013041,0,1,0.585,0,-0.585,0
0,0,0,0,0,0,0.0010256,-0.0032953,6.612e-35,2.9822e-07,-2.267e-18,-4.675e-21,1.5864,0.0039103,-0.0032953,1.4694e-33,0.0010256,-104.57,-765.55,-262.49,0.04713,-3.4721e-13,-7.209e-16,597.87,-765.55,-262.49,-104.57,0,0.013057,0,1,0.59,0,-0.59,0
0,0,0,0,0,0,0.00102,-0.0032728,6.3211e-35,5.8342e-07,-2.2522e-18,-4.7443e-21,1.5838,0.0038845,-0.0032728,1.4476e-33,0.00102,-103.46,-760.16,-260.52,0.090927,-3.4493e-13,-7.3198e-16,593.95,-760.16,-260.52,-103.46,0,0.013074,0,1,0.595,0,-0.595,0
0,0,0,0,0,0,0.0010144,-0.0032502,5.9876e-35,9.4036e-07,-2.2266e-18,-4.7909e-21,1.5812,0.0038587,-0.0032502,1.4177e-33,0.0010144,-102.36,-754.77,-258.56,0.14574,-3.4102e-13,-7.3964e-16,590.03,-754.77,-258.56,-102.36,0,0.01309,0,1,0.6,0,-0.6,0
0,0,0,0,0,0,0.0010087,-0.0032276,5.6116e-35,1.369e-06,-2.1904e-18,-4.8151e-21,1.5786,0.0038328,-0.0032276,1.3796e-33,0.0010087,-101.27,-749.39,-256.6,0.21159,-3.3547e-13,-7.439e-16,586.1,-749.39,-256.6,-101.27,0,0.013106,0,1,0.605,0,-0.605,0
0,0,0,0,0,0,0.001003,-0.003205,5.193e-35,1.8695e-06,-2.1434e-18,-4.8167e-21,1.576,0.0038069,-0.003205,1.3334e-33,0.001003,-100.2,-744.01,-254.64,0.28845,-3.2828e-13,-7.4474e-16,582.16,-744.01,-254.64,-100.2,0,0.013122,0,1,0.61,0,-0.61,0
0,0,0,0,0,0,0.00099721,-0.0031824,4.7319e-35,2.4416e-06,-2.0858e-18,-4.7957e-21,1.5734,0.003781,-0.0031824,1.2789e-33,0.00099722,-99.137,-738.64,-252.69,0.37634,-3.1946e-13,-7.4218e-16,578.23,-738.64,-252.69,-99.137,0,0.013138,0,1,0.615,0,-0.615,0
0,0,0,0,0,0,0.0009914,-0.0031598,4.2282e-35,3.0856e-06,-2.0175e-18,-4.7522e-21,1.5708,0.003755,-0.0031598,1.2162e-33,0.0009914,-98.091,-733.28,-250.75,0.47524,-3.0899e-13,-7.362e-16,574.28,-733.28,-250.75,-98.09,0,0.013154,0,1,0.62,0,-0.62,0
0,0,0,0,0,0,0.00098553,-0.0031373,3.6819e-35,3.8012e-06,-1.9385e-18,-4.6862e-21,1.5682,0.003729,-0.0031373,1.1453e-33,0.00098554,-97.057,-727.92,-248.81,0.58517,-2.969e-13,-7.2681e-16,570.33,-727.92,-248.81,-97.056,0,0.01317,0,1,0.625,0,-0.625,0
0,0,0,0,0,0,0.00097962,-0.0031147,3.0931e-35,4.5887e-06,-1.8488e-18,-4.5976e-21,1.5656,0.003703,-0.0031147,1.0663e-33,0.00097963,-96.036,-722.57,-246.88,0.70613,-2.8316e-13,-7.1401e-16,566.38,-722.57,-246.88,-96.035,0,0.013185,0,1,0.63,0,-0.63,0
0,0,0,0,0,0,0.00097366,-0.0030921,2.4618e-35,5.4478e-06,-1.7484e-18,-4.4865e-21,1.563,0.003677,-0.0030921,9.7904e-34,0.00097367,-95.029,-717.22,-244.96,0.8381,-2.6779e-13,-6.978e-16,562.42,-717.22,-244.96,-95.027,0,0.013201,0,1,0.635,0,-0.635,0
0,0,0,0,0,0,0.00096766,-0.0030695,1.7879e-35,6.3787e-06,-1.6373e-18,-4.3528e-21,1.5604,0.0036509,-0.0030696,8.8361e-34,0.00096767,-94.035,-711.88,-243.04,0.9811,-2.5078e-13,-6.7819e-16,558.46,-711.88,-243.04,-94.033,0,0.013216,0,1,0.64,0,-0.64,0
0,0,0,0,0,0,0.00096212,-0.0030515,1.4441e-35,6.1658e-06,-1.3721e-18,-3.7279e-21,1.5572,0.0036295,-0.0030515,8.2986e-34,0.00096213,-93.436,-707.69,-241.59,0.94834,-2.1016e-13,-5.8092e-16,555.2,-707.69,-241.59,-93.435,0,0.013232,0,1,0.645,0,-0.645,0
0,0,0,0,0,0,0.00095681,-0.0030354,1.2668e-35,5.4624e-06,-1.0589e-18,-2.9323e-21,1.5536,0.0036102,-0.0030354,7.9863e-34,0.00095682,-93.005,-704,-240.34,0.84024,-1.6216e-13,-4.5653e-16,552.27,-704,-240.34,-93.004,0,0.013247,0,1,0.65,0,-0.65,0
0,0,0,0,0,0,0.00095152,-0.0030193,1.1002e-35,4.7982e-06,-7.6526e-19,-2.1822e-21,1.5501,0.0035909,-0.0030193,7.6959e-34,0.00095153,-92.569,-700.3,-239.09,0.73815,-1.1717e-13,-3.3929e-16,549.33,-700.3,-239.09,-92.568,0,0.013262,0,1,0.655,0,-0.655,0
0,0,0,0,0,0,0.00094624,-0.0030032,9.4443e-36,4.1731e-06,-4.9128e-19,-1.4777e-21,1.5465,0.0035716,-0.0030032,7.4271e-34,0.00094624,-92.129,-696.61,-237.83,0.64207,-7.5196e-14,-2.2918e-16,546.4,-696.61,-237.83,-92.128,0,0.013277,0,1,0.66,0,-0.66,0
0,0,0,0,0,0,0.00094097,-0.0029871,7.9938e-36,3.5871e-06,-2.3694e-19,-8.1883e-22,1.543,0.0035523,-0.0029871,7.1801e-34,0.00094098,-91.685,-692.91,-236.57,0.55201,-3.6226e-14,-1.2621e-16,543.46,-692.91,-236.57,-91.684,0,0.013292,0,1,0.665,0,-0.665,0
0,0,0,0,0,0,0.00093571,-0.002971,6.6508e-36,3.0403e-06,-2.2249e-21,-2.0556e-22,1.5394,0.003533,-0.002971,6.9549e-34,0.00093572,-91.236,-689.2,-235.32,0.46796,-2.6376e-16,-3.0371e-17,540.53,-689.2,-235.32,-91.235,0,0.013307,0,1,0.67,0,-0.67,0
0,0,0,0,0,0,0.00093047,-0.0029548,5.4153e-36,2.5326e-06,2.1286e-19,3.6212e-22,1.5358,0.0035137,-0.0029548,6.7514e-34,0.00093048,-90.783,-685.49,-234.06,0.38992,3.269e-14,5.8326e-17,537.59,-685.5,-234.06,-90.782,0,0.013322,0,1,0.675,0,-0.675,0
0,0,0,0,0,0,0.00092525,-0.0029387,4.2873e-36,2.064e-06,4.0832e-19,8.842e-22,1.5323,0.0034944,-0.0029387,6.5697e-34,0.00092525,-90.325,-681.78,-232.79,0.31789,6.2636e-14,1.3989e-16,534.66,-681.78,-232.79,-90.324,0,0.013337,0,1,0.68,0,-0.68,0
0,0,0,0,0,0,0.00092003,-0.0029226,3.2669e-36,1.6345e-06,5.8414e-19,1.3607e-21,1.5287,0.0034752,-0.0029226,6.4097e-34,0.00092004,-89.863,-678.07,-231.53,0.25188,8.9573e-14,2.1431e-16,531.72,-678.07,-231.53,-89.863,0,0.013352,0,1,0.685,0,-0.685,0
0,0,0,0,0,0,0.00091483,-0.0029064,2.354e-36,1.2441e-06,7.4034e-19,1.7916e-21,1.5252,0.0034559,-0.0029064,6.2715e-34,0.00091483,-89.397,-674.35,-230.26,0.19188,1.135e-13,2.816e-16,528.79,-674.35,-230.26,-89.397,0,0.013366,0,1,0.69,0,-0.69,0
0,0,0,0,0,0,0.00090964,-0.0028903,1.5486e-36,8.9293e-07,8.7691e-19,2.1768e-21,1.5216,0.0034366,-0.0028903,6.155e-34,0.00090965,-88.926,-670.63,-228.99,0.1379,1.3442e-13,3.4175e-16,525.86,-670.63,-228.99,-88.926,0,0.013381,0,1,0.695,0,-0.695,0
0,0,0,0,0,0,0.00090447,-0.0028741,8.5077e-37,5.8083e-07,9.9385e-19,2.5165e-21,1.5181,0.0034173,-0.0028741,6.0603e-34,0.00090447,-88.451,-666.91,-227.72,0.089921,1.5234e-13,3.9476e-16,522.92,-666.91,-227.72,-88.451,0,0.013395,0,1,0.7,0,-0.7,0
0,0,0,0,0,0,0.00089931,-0.0028579,2.6044e-37,3.0785e-07,1.0912e-18,2.8106e-21,1.5145,0.0033981,-0.0028579,5.9873e-34,0.00089931,-87.972,-663.18,-226.44,0.04796,1.6724e-13,4.4063e-16,519.99,-663.18,-226.44,-87.972,0,0.013409,0,1,0.705,0,-0.705,0
0,0,0,0,0,0,0.00089416,-0.0028418,-2.2238e-37,7.4005e-08,1.1688e-18,3.0591e-21,1.5109,0.0033788,-0.0028418,5.9361e-34,0.00089416,-87.489,-659.45,-225.16,0.012011,1.7914e-13,4.7937e-16,517.06,-659.45,-225.16,-87.488,0,0.013424,0,1,0.71,0,-0.71,0
0,0,0,0,0,0,0.00088903,-0.0028256,-5.9767e-37,-1.2072e-07,1.2269e-18,3.262e-21,1.5074,0.0033595,-0.0028256,5.9066e-34,0.00088903,-87.001,-655.71,-223.89,-0.017925,1.8803e-13,5.1097e-16,514.12,-655.71,-223.89,-87,0,0.013438,0,1,0.715,0,-0.715,0
0,0,0,0,0,0,0.00088391,-0.0028094,-8.6543e-37,-2.7632e-07,1.2653e-18,3.4192e-21,1.5038,0.0033403,-0.0028094,5.8989e-34,0.00088391,-86.508,-651.98,-222.6,-0.041848,1.9391e-13,5.3544e-16,511.19,-651.98,-222.6,-86.508,0,0.013452,0,1,0.72,0,-0.72,0
0,0,0,0,0,0,0.0008788,-0.0027932,-1.0257e-36,-3.9279e-07,1.2841e-18,3.5309e-21,1.5003,0.003321,-0.0027932,5.9129e-34,0.0008788,-86.011,-648.23,-221.32,-0.059758,1.9678e-13,5.5276e-16,508.26,-648.23,-221.32,-86.011,0,0.013466,0,1,0.725,0,-0.725,0
0,0,0,0,0,0,0.00087371,-0.002777,-1.0784e-36,-4.7014e-07,1.2833e-18,3.597e-21,1.4967,0.0033018,-0.002777,5.9487e-34,0.00087371,-85.51,-644.49,-220.03,-0.071655,1.9664e-13,5.6295e-16,505.33,-644.49,-220.03,-85.51,0,0.01348,0,1,0.73,0,-0.73,0
0,0,0,0,0,0,0.00086863,-0.0027608,-1.0236e-36,-5.0837e-07,1.2628e-18,3.6175e-21,1.4932,0.0032825,-0.0027608,6.0062e-34,0.00086863,-85.005,-640.74,-218.75,-0.07754,1.935e-13,5.6601e-16,502.4,-640.74,-218.75,-85.005,0,0.013494,0,1,0.735,0,-0.735,0
0,0,0,0,0,0,0.00086356,-0.0027446,-8.6126e-37,-5.0747e-07,1.2227e-18,3.5924e-21,1.4896,0.0032633,-0.0027446,6.0855e-34,0.00086356,-84.495,-636.99,-217.46,-0.077412,1.8734e-13,5.6192e-16,499.47,-636.99,-217.46,-84.495,0,0.013508,0,1,0.74,0,-0.74,0
0,0,0,0,0,0,0.00085851,-0.0027284,-5.9142e-37,-4.6745e-07,1.163e-18,3.5217e-21,1.486,0.003244,-0.0027284,6.1865e-34,0.00085851,-83.981,-633.23,-216.16,-0.071271,1.7818e-13,5.507e-16,496.54,-633.23,-216.16,-83.981,0,0.013521,0,1,0.745,0,-0.745,0
0,0,0,0,0,0,0.00085347,-0.0027122,-2.1405e-37,-3.883e-07,1.0836e-18,3.4054e-21,1.4825,0.0032248,-0.0027122,6.3093e-34,0.00085347,-83.463,-629.47,-214.87,-0.059117,1.6601e-13,5.3234e-16,493.61,-629.47,-214.87,-83.463,0,0.013535,0,1,0.75,0,-0.75,0
0,0,0,0,0,0,0.00084844,-0.002696,2.7084e-37,-2.7003e-07,9.8465e-19,3.2434e-21,1.4789,0.0032055,-0.002696,6.4538e-34,0.00084844,-82.94,-625.71,-213.57,-0.040951,1.5084e-13,5.0685e-16,490.68,-625.71,-213.57,-82.94,0,0.013548,0,1,0.755,0,-0.755,0
0,0,0,0,0,0,0.00084343,-0.0026797,8.6325e-37,-1.1264e-07,8.6604e-19,3.0359e-21,1.4754,0.0031863,-0.0026797,6.62e-34,0.00084343,-82.413,-621.95,-212.27,-0.016772,1.3265e-13,4.7422e-16,487.75,-621.95,-212.27,-82.413,0,0.013562,0,1,0.76,0,-0.76,0
0,0,0,0,0,0,0.00083843,-0.0026635,1.5632e-36,8.3879e-08,7.278e-19,2.7828e-21,1.4718,0.0031671,-0.0026635,6.8081e-34,0.00083843,-81.881,-618.18,-210.97,0.013419,1.1146e-13,4.3445e-16,484.82,-618.18,-210.97,-81.881,0,0.013575,0,1,0.765,0,-0.765,0
0,0,0,0,0,0,0.00083344,-0.0026472,2.3706e-36,3.1952e-07,5.6993e-19,2.4841e-21,1.4683,0.0031478,-0.0026472,7.0178e-34,0.00083344,-81.345,-614.41,-209.67,0.049623,8.7258e-14,3.8754e-16,481.89,-614.41,-209.67,-81.345,0,0.013589,0,1,0.77,0,-0.77,0
0,0,0,0,0,0,0.00082847,-0.002631,3.2856e-36,5.9429e-07,3.9243e-19,2.1398e-21,1.4647,0.0031286,-0.002631,7.2494e-34,0.00082847,-80.805,-610.63,-208.36,0.09184,6.0049e-14,3.335e-16,478.96,-610.63,-208.36,-80.805,0,0.013602,0,1,0.775,0,-0.775,0
0,0,0,0,0,0,0.00082351,-0.0026147,4.3081e-36,9.0817e-07,1.9531e-19,1.7499e-21,1.4612,0.0031094,-0.0026147,7.5026e-34,0.00082351,-80.261,-606.85,-207.05,0.14007,2.9831e-14,2.7232e-16,476.03,-606.85,-207.05,-80.26,0,0.013615,0,1,0.78,0,-0.78,0
0,0,0,0,0,0,0.00081856,-0.0025985,5.4381e-36,1.2612e-06,-2.1451e-20,1.3144e-21,1.4576,0.0030901,-0.0025985,7.7777e-34,0.00081857,-79.712,-603.07,-205.74,0.19431,-3.3952e-15,2.04e-16,473.1,-603.07,-205.74,-79.711,0,0.013628,0,1,0.785,0,-0.785,0
0,0,0,0,0,0,0.00081363,-0.0025822,6.6757e-36,1.6533e-06,-2.5783e-19,8.3332e-22,1.454,0.0030709,-0.0025822,8.0744e-34,0.00081363,-79.158,-599.28,-204.43,0.25457,-3.9629e-14,1.2855e-16,470.18,-599.28,-204.43,-79.158,0,0.013641,0,1,0.79,0,-0.79,0
0,0,0,0,0,0,0.00080871,-0.0025659,8.0207e-36,2.0846e-06,-5.1385e-19,3.0662e-22,1.4505,0.0030517,-0.0025659,8.393e-34,0.00080871,-78.601,-595.49,-203.11,0.32084,-7.8871e-14,4.5961e-17,467.25,-595.49,-203.11,-78.6,0,0.013654,0,1,0.795,0,-0.795,0
0,0,0,0,0,0,0.00080381,-0.0025496,9.4733e-36,2.555e-06,-7.8949e-19,-2.6567e-22,1.4469,0.0030325,-0.0025496,8.7332e-34,0.00080381,-78.039,-591.7,-201.79,0.39312,-1.2112e-13,-4.3766e-17,464.32,-591.7,-201.79,-78.038,0,0.013667,0,1,0.8,0,-0.8,0
0,0,0,0,0,0,0.00079891,-0.0025333,1.1033e-35,3.0645e-06,-1.0848e-18,-8.8357e-22,1.4434,0.0030133,-0.0025333,9.0953e-34,0.00079892,-77.472,-587.9,-200.47,0.47141,-1.6638e-13,-1.4063e-16,461.39,-587.9,-200.47,-77.472,0,0.013679,0,1,0.805,0,-0.805,0
0,0,0,0,0,0,0.00079403,-0.002517,1.2701e-35,3.6131e-06,-1.3997e-18,-1.5471e-21,1.4398,0.0029941,-0.002517,9.479e-34,0.00079404,-76.902,-584.1,-199.15,0.55571,-2.1465e-13,-2.4463e-16,458.47,-584.1,-199.15,-76.901,0,0.013692,0,1,0.81,0,-0.81,0
0,0,0,0,0,0,0.00078939,-0.0025034,1.562e-35,3.6389e-06,-1.4852e-18,-1.9333e-21,1.4364,0.0029776,-0.0025034,9.0553e-34,0.0007894,-76.578,-580.99,-198.11,0.55966,-2.2776e-13,-3.0518e-16,455.96,-580.99,-198.11,-76.577,0,0.013704,0,1,0.815,0,-0.815,0
0,0,0,0,0,0,0.00078496,-0.0024919,1.9365e-35,3.2397e-06,-1.3813e-18,-2.0629e-21,1.4331,0.0029634,-0.0024919,8.0335e-34,0.00078496,-76.448,-578.43,-197.3,0.4983,-2.1182e-13,-3.2552e-16,453.8,-578.44,-197.3,-76.448,0,0.013717,0,1,0.82,0,-0.82,0
0,0,0,0,0,0,0.00078054,-0.0024805,2.2965e-35,2.861e-06,-1.2842e-18,-2.1818e-21,1.4298,0.0029493,-0.0024805,7.0891e-34,0.00078054,-76.313,-575.87,-196.48,0.44009,-1.9694e-13,-3.4417e-16,451.63,-575.88,-196.48,-76.312,0,0.013729,0,1,0.825,0,-0.825,0
0,0,0,0,0,0,0.00077614,-0.002469,2.6418e-35,2.5027e-06,-1.1939e-18,-2.2898e-21,1.4265,0.0029351,-0.002469,6.2221e-34,0.00077615,-76.17,-573.31,-195.66,0.38501,-1.831e-13,-3.6113e-16,449.47,-573.31,-195.66,-76.17,0,0.013742,0,1,0.83,0,-0.83,0
0,0,0,0,0,0,0.00077177,-0.0024575,2.9726e-35,2.1648e-06,-1.1105e-18,-2.3871e-21,1.4232,0.0029209,-0.0024575,5.4326e-34,0.00077177,-76.022,-570.74,-194.84,0.33307,-1.703e-13,-3.7639e-16,447.31,-570.74,-194.84,-76.021,0,0.013754,0,1,0.835,0,-0.835,0
0,0,0,0,0,0,0.00076742,-0.002446,3.2888e-35,1.8474e-06,-1.0338e-18,-2.4735e-21,1.4199,0.0029067,-0.002446,4.7206e-34,0.00076742,-75.866,-568.17,-194.01,0.28428,-1.5856e-13,-3.8996e-16,445.15,-568.17,-194.01,-75.866,0,0.013766,0,1,0.84,0,-0.84,0
0,0,0,0,0,0,0.00076309,-0.0024345,3.5904e-35,1.5504e-06,-9.6403e-19,-2.5492e-21,1.4167,0.0028926,-0.0024345,4.0861e-34,0.00076309,-75.705,-565.59,-193.19,0.23862,-1.4786e-13,-4.0183e-16,442.99,-565.59,-193.19,-75.704,0,0.013779,0,1,0.845,0,-0.845,0
0,0,0,0,0,0,0.00075878,-0.0024231,3.8774e-35,1.2738e-06,-9.0106e-19,-2.6141e-21,1.4134,0.0028785,-0.0024231,3.529e-34,0.00075878,-75.536,-563.01,-192.35,0.19611,-1.3821e-13,-4.1201e-16,440.83,-563.01,-192.35,-75.536,0,0.013791,0,1,0.85,0,-0.85,0
0,0,0,0,0,0,0.0007545,-0.0024116,4.1498e-35,1.0177e-06,-8.4491e-19,-2.6681e-21,1.4101,0.0028643,-0.0024116,3.0494e-34,0.0007545,-75.362,-560.43,-191.52,0.15673,-1.296e-13,-4.2049e-16,438.68,-560.43,-191.52,-75.361,0,0.013803,0,1,0.855,0,-0.855,0
0,0,0,0,0,0,0.00075023,-0.0024001,4.4077e-35,7.8199e-07,-7.9559e-19,-2.7114e-21,1.4068,0.0028502,-0.0024001,2.6473e-34,0.00075024,-75.18,-557.84,-190.68,0.1205,-1.2204e-13,-4.2728e-16,436.53,-557.84,-190.68,-75.18,0,0.013815,0,1,0.86,0,-0.86,0
0,0,0,0,0,0,0.00074599,-0.0023885,4.651e-35,5.6671e-07,-7.531e-19,-2.7438e-21,1.4035,0.0028361,-0.0023885,2.3226e-34,0.00074599,-74.992,-555.25,-189.84,0.087404,-1.1553e-13,-4.3237e-16,434.37,-555.25,-189.84,-74.992,0,0.013827,0,1,0.865,0,-0.865,0
0,0,0,0,0,0,0.00074177,-0.002377,4.8797e-35,3.7187e-07,-7.1744e-19,-2.7655e-21,1.4002,0.002822,-0.002377,2.0754e-34,0.00074177,-74.798,-552.65,-188.99,0.05745,-1.1006e-13,-4.3577e-16,432.22,-552.65,-188.99,-74.798,0,0.013839,0,1,0.87,0,-0.87,0
0,0,0,0,0,0,0.00073758,-0.0023655,5.0938e-35,1.9745e-07,-6.886e-19,-2.7764e-21,1.3969,0.0028079,-0.0023655,1.9056e-34,0.00073758,-74.597,-550.05,-188.15,0.030636,-1.0564e-13,-4.3748e-16,430.07,-550.05,-188.15,-74.597,0,0.013851,0,1,0.875,0,-0.875,0
0,0,0,0,0,0,0.0007334,-0.002354,5.2933e-35,4.3464e-08,-6.6658e-19,-2.7764e-21,1.3936,0.0027938,-0.002354,1.8133e-34,0.0007334,-74.39,-547.45,-187.3,0.006963,-1.0227e-13,-4.3749e-16,427.93,-547.45,-187.3,-74.39,0,0.013863,0,1,0.88,0,-0.88,0
0,0,0,0,0,0,0.00072925,-0.0023425,5.4783e-35,-9.0091e-08,-6.5139e-19,-2.7657e-21,1.3903,0.0027798,-0.0023425,1.7985e-34,0.00072925,-74.176,-544.84,-186.44,-0.01357,-9.9944e-14,-4.358e-16,425.78,-544.84,-186.44,-74.176,0,0.013874,0,1,0.885,0,-0.885,0
0,0,0,0,0,0,0.00072511,-0.0023309,5.6487e-35,-2.0322e-07,-6.4303e-19,-2.7441e-21,1.387,0.0027657,-0.0023309,1.8612e-34,0.00072511,-73.956,-542.23,-185.59,-0.030962,-9.8665e-14,-4.3242e-16,423.64,-542.23,-185.59,-73.956,0,0.013886,0,1,0.89,0,-0.89,0
0,0,0,0,0,0,0.000721,-0.0023194,5.8045e-35,-2.9591e-07,-6.415e-19,-2.7118e-21,1.3837,0.0027517,-0.0023194,2.0013e-34,0.000721,-73.729,-539.61,-184.73,-0.045214,-9.8433e-14,-4.2735e-16,421.49,-539.61,-184.73,-73.729,0,0.013898,0,1,0.895,0,-0.895,0
0,0,0,0,0,0,0.00071692,-0.0023078,5.9457e-35,-3.6817e-07,-6.4679e-19,-2.6686e-21,1.3804,0.0027376,-0.0023078,2.2189e-34,0.00071692,-73.496,-536.99,-183.86,-0.056326,-9.9247e-14,-4.2058e-16,419.35,-536.99,-183.86,-73.496,0,0.013909,0,1,0.9,0,-0.9,0
0,0,0,0,0,0,0.00071285,-0.0022963,6.0723e-35,-4.2001e-07,-6.589e-19,-2.6147e-21,1.3772,0.0027236,-0.0022963,2.5139e-34,0.00071285,-73.256,-534.37,-183,-0.064297,-1.0111e-13,-4.1211e-16,417.21,-534.37,-183,-73.256,0,0.013921,0,1,0.905,0,-0.905,0
0,0,0,0,0,0,0.00070881,-0.0022847,6.1844e-35,-4.5141e-07,-6.7785e-19,-2.55e-21,1.3739,0.0027096,-0.0022847,2.8864e-34,0.00070881,-73.01,-531.74,-182.13,-0.069129,-1.0402e-13,-4.0195e-16,415.07,-531.74,-182.13,-73.01,0,0.013932,0,1,0.91,0,-0.91,0
0,0,0,0,0,0,0.00070478,-0.0022732,6.2818e-35,-4.6238e-07,-7.0362e-19,-2.4744e-21,1.3706,0.0026956,-0.0022732,3.3364e-34,0.00070478,-72.757,-529.11,-181.25,-0.070819,-1.0797e-13,-3.901e-16,412.94,-529.11,-181.25,-72.757,0,0.013944,0,1,0.915,0,-0.915,0
0,0,0,0,0,0,0.00070078,-0.0022616,6.3647e-35,-4.5292e-07,-7.3621e-19,-2.3881e-21,1.3673,0.0026816,-0.0022616,3.8639e-34,0.00070078,-72.498,-526.47,-180.38,-0.06937,-1.1297e-13,-3.7655e-16,410.8,-526.47,-180.38,-72.498,0,0.013955,0,1,0.92,0,-0.92,0
0,0,0,0,0,0,0.00069681,-0.00225,6.433e-35,-4.2303e-07,-7.7564e-19,-2.2909e-21,1.364,0.0026676,-0.00225,4.4688e-34,0.00069681,-72.232,-523.83,-179.5,-0.06478,-1.1902e-13,-3.6131e-16,408.67,-523.83,-179.5,-72.232,0,0.013966,0,1,0.925,0,-0.925,0
0,0,0,0,0,0,0.00069285,-0.0022385,6.4868e-35,-3.7271e-07,-8.2188e-19,-2.183e-21,1.3607,0.0026536,-0.0022385,5.1512e-34,0.00069285,-71.96,-521.19,-178.62,-0.057049,-1.2611e-13,-3.4437e-16,406.53,-521.19,-178.62,-71.96,0,0.013978,0,1,0.93,0,-0.93,0
0,0,0,0,0,0,0.00068892,-0.0022269,6.5259e-35,-3.0195e-07,-8.7496e-19,-2.0642e-21,1.3574,0.0026397,-0.0022269,5.911e-34,0.00068892,-71.681,-518.54,-177.73,-0.046179,-1.3426e-13,-3.2573e-16,404.4,-518.54,-177.73,-71.681,0,0.013989,0,1,0.935,0,-0.935,0
0,0,0,0,0,0,0.000685,-0.0022153,6.5505e-35,-2.1077e-07,-9.3486e-19,-1.9347e-21,1.3541,0.0026257,-0.0022153,6.7483e-34,0.000685,-71.396,-515.89,-176.85,-0.032168,-1.4344e-13,-3.0541e-16,402.27,-515.89,-176.85,-71.396,0,0.014,0,1,0.94,0,-0.94,0
0,0,0,0,0,0,0.00068111,-0.0022037,6.5605e-35,-9.9159e-08,-1.0016e-18,-1.7944e-21,1.3508,0.0026118,-0.0022037,7.6631e-34,0.00068111,-71.104,-513.23,-175.95,-0.015016,-1.5368e-13,-2.8338e-16,400.14,-513.23,-175.95,-71.104,0,0.014011,0,1,0.945,0,-0.945,0
0,0,0,0,0,0,0.00067725,-0.0021921,6.5559e-35,3.2884e-08,-1.0751e-18,-1.6432e-21,1.3475,0.0025978,-0.0021921,8.6553e-34,0.00067725,-70.806,-510.57,-175.06,0.0052756,-1.6496e-13,-2.5967e-16,398.02,-510.57,-175.06,-70.806,0,0.014022,0,1,0.95,0,-0.95,0
0,0,0,0,0,0,0.0006734,-0.0021805,6.5367e-35,1.8536e-07,-1.1555e-18,-1.4813e-21,1.3442,0.0025839,-0.0021805,9.725e-34,0.0006734,-70.501,-507.91,-174.16,0.028708,-1.7729e-13,-2.3425e-16,395.89,-507.91,-174.16,-70.501,0,0.014033,0,1,0.955,0,-0.955,0
0,0,0,0,0,0,0.00066957,-0.0021689,6.503e-35,3.5826e-07,-1.2427e-18,-1.3085e-21,1.3409,0.00257,-0.0021689,1.0872e-33,0.00066957,-70.19,-505.24,-173.26,0.05528,-1.9066e-13,-2.0715e-16,393.77,-505.24,-173.26,-70.19,0,0.014044,0,1,0.96,0,-0.96,0
0,0,0,0,0,0,0.00066577,-0.0021573,6.4547e-35,5.516e-07,-1.3368e-18,-1.125e-21,1.3377,0.0025561,-0.0021573,1.2097e-33,0.00066577,-69.872,-502.57,-172.36,0.084993,-2.0509e-13,-1.7835e-16,391.65,-502.57,-172.36,-69.872,0,0.014055,0,1,0.965,0,-0.965,0
0,0,0,0,0,0,0.00066199,-0.0021457,6.3917e-35,7.6537e-07,-1.4376e-18,-9.3065e-22,1.3344,0.0025422,-0.0021457,1.3399e-33,0.00066199,-69.548,-499.9,-171.45,0.11785,-2.2055e-13,-1.4785e-16,389.53,-499.9,-171.45,-69.547,0,0.014065,0,1,0.97,0,-0.97,0
0,0,0,0,0,0,0.00065823,-0.0021341,6.3143e-35,9.9957e-07,-1.5453e-18,-7.2551e-22,1.3311,0.0025283,-0.0021341,1.4779e-33,0.00065823,-69.217,-497.22,-170.54,0.15384,-2.3707e-13,-1.1566e-16,387.41,-497.22,-170.54,-69.217,0,0.014076,0,1,0.975,0,-0.975,0
0,0,0,0,0,0,0.0006545,-0.0021225,6.2222e-35,1.2542e-06,-1.6598e-18,-5.0957e-22,1.3278,0.0025144,-0.0021225,1.6236e-33,0.0006545,-68.879,-494.53,-169.63,0.19297,-2.5463e-13,-8.1772e-17,385.29,-494.53,-169.63,-68.879,0,0.014087,0,1,0.98,0,-0.98,0
0,0,0,0,0,0,0.00065078,-0.0021108,6.1155e-35,1.5293e-06,-1.7811e-18,-2.8282e-22,1.3245,0.0025006,-0.0021108,1.777e-33,0.00065078,-68.536,-491.85,-168.71,0.23525,-2.7324e-13,-4.6191e-17,383.17,-491.85,-168.71,-68.535,0,0.014097,0,1,0.985,0,-0.985,0
0,0,0,0,0,0,0.00064709,-0.0020992,5.9943e-35,1.8247e-06,-1.9093e-18,-4.5282e-23,1.3212,0.0024867,-0.0020992,1.9382e-33,0.00064709,-68.185,-489.15,-167.79,0.28066,-2.929e-13,-8.9161e-18,381.06,-489.15,-167.79,-68.185,0,0.014108,0,1,0.99,0,-0.99,0
0,0,0,0,0,0,0.00064342,-0.0020875,5.8585e-35,2.1407e-06,-2.0443e-18,2.0306e-22,1.3179,0.0024729,-0.0020876,2.1071e-33,0.00064342,-67.829,-486.46,-166.87,0.32922,-3.136e-13,3.0054e-17,378.94,-486.46,-166.87,-67.828,0,0.014118,0,1,0.995,0,-0.995,0
0,0,0,0,0,0,0.00063989,-0.0020779,5.5257e-35,2.1373e-06,-1.959e-18,2.7371e-22,1.3149,0.002461,-0.0020779,2.0661e-33,0.00063989,-67.662,-484.28,-166.16,0.3287,-3.0051e-13,4.1651e-17,377.14,-484.28,-166.16,-67.661,0,0.014129,0,1,1,0,-1,0
0,0,0,0,0,0,0.00063647,-0.0020696,5.0805e-35,1.9103e-06,-1.7265e-18,2.1573e-22,1.3122,0.0024506,-0.0020696,1.8822e-33,0.00063647,-67.626,-482.45,-165.6,0.2938,-2.6484e-13,3.3381e-17,375.55,-482.45,-165.6,-67.626,0,0.014139,0,1,1.005,0,-1.005,0
0,0,0,0,0,0,0.00063307,-0.0020613,4.6571e-35,1.6942e-06,-1.5057e-18,1.5818e-22,1.3094,0.0024402,-0.0020613,1.7074e-33,0.00063307,-67.585,-480.62,-165.03,0.26058,-2.3097e-13,2.5135e-17,373.96,-480.62,-165.03,-67.584,0,0.014149,0,1,1.01,0,-1.01,0
0,0,0,0,0,0,0.00062968,-0.002053,4.2557e-35,1.4889e-06,-1.2967e-18,1.0107e-22,1.3066,0.0024299,-0.002053,1.5417e-33,0.00062968,-67.538,-478.79,-164.47,0.22902,-1.989e-13,1.6914e-17,372.38,-478.79,-164.47,-67.538,0,0.01416,0,1,1.015,0,-1.015,0
0,0,0,0,0,0,0.00062632,-0.0020447,3.8761e-35,1.2945e-06,-1.0995e-18,4.4405e-23,1.3038,0.0024195,-0.0020447,1.3849e-33,0.00062632,-67.486,-476.96,-163.9,0.19913,-1.6865e-13,8.7156e-18,370.79,-476.96,-163.9,-67.486,0,0.01417,0,1,1.02,0,-1.02,0
0,0,0,0,0,0,0.00062297,-0.0020364,3.5184e-35,1.1109e-06,-9.1403e-19,-1.1824e-23,1.3011,0.0024091,-0.0020364,1.2372e-33,0.00062297,-67.429,-475.12,-163.32,0.17091,-1.402e-13,5.4152e-19,369.21,-475.12,-163.32,-67.429,0,0.01418,0,1,1.025,0,-1.025,0
0,0,0,0,0,0,0.00061964,-0.0020281,3.1827e-35,9.382e-07,-7.4036e-19,-6.7614e-23,1.2983,0.0023988,-0.0020281,1.0985e-33,0.00061964,-67.366,-473.28,-162.75,0.14436,-1.1356e-13,-7.6086e-18,367.62,-473.28,-162.75,-67.366,0,0.01419,0,1,1.03,0,-1.03,0
0,0,0,0,0,0,0.00061633,-0.0020198,2.8688e-35,7.7634e-07,-5.7848e-19,-1.2297e-22,1.2955,0.0023884,-0.0020198,9.6891e-34,0.00061633,-67.299,-471.44,-162.17,0.11948,-8.8724e-14,-1.5735e-17,366.04,-471.44,-162.17,-67.298,0,0.014201,0,1,1.035,0,-1.035,0
0,0,0,0,0,0,0.00061304,-0.0020115,2.5768e-35,6.2532e-07,-4.2837e-19,-1.7788e-22,1.2928,0.0023781,-0.0020115,8.4831e-34,0.00061304,-67.225,-469.59,-161.59,0.096261,-6.5697e-14,-2.3837e-17,364.47,-469.59,-161.59,-67.225,0,0.014211,0,1,1.04,0,-1.04,0
0,0,0,0,0,0,0.00060977,-0.0020032,2.3067e-35,4.8516e-07,-2.9005e-19,-2.3235e-22,1.29,0.0023677,-0.0020032,7.3674e-34,0.00060977,-67.147,-467.74,-161.01,0.074714,-4.4477e-14,-3.1915e-17,362.89,-467.74,-161.01,-67.147,0,0.014221,0,1,1.045,0,-1.045,0
0,0,0,0,0,0,0.00060651,-0.0019949,2.0585e-35,3.5586e-07,-1.635e-19,-2.8639e-22,1.2872,0.0023574,-0.0019949,6.3421e-34,0.00060652,-67.063,-465.89,-160.42,0.054835,-2.5065e-14,-3.997e-17,361.31,-465.89,-160.42,-67.063,0,0.014231,0,1,1.05,0,-1.05,0
0,0,0,0,0,0,0.00060328,-0.0019866,1.8322e-35,2.374e-07,-4.8731e-20,-3.3998e-22,1.2845,0.0023471,-0.0019866,5.4072e-34,0.00060328,-66.973,-464.03,-159.83,0.036624,-7.4599e-15,-4.8e-17,359.74,-464.03,-159.83,-66.973,0,0.014241,0,1,1.055,0,-1.055,0
0,0,0,0,0,0,0.00060006,-0.0019783,1.6278e-35,1.298e-07,5.4257e-20,-3.9314e-22,1.2817,0.0023368,-0.0019783,4.5625e-34,0.00060006,-66.879,-462.18,-159.24,0.020082,8.3379e-15,-5.6007e-17,358.16,-462.18,-159.24,-66.879,0,0.014251,0,1,1.06,0,-1.06,0
0,0,0,0,0,0,0.00059686,-0.0019699,1.4453e-35,3.3049e-08,1.4547e-19,-4.4586e-22,1.2789,0.0023265,-0.0019699,3.8082e-34,0.00059686,-66.779,-460.32,-158.65,0.0052077,2.2329e-14,-6.3989e-17,356.59,-460.32,-158.65,-66.778,0,0.01426,0,1,1.065,0,-1.065,0
0,0,0,0,0,0,0.00059368,-0.0019616,1.2847e-35,-5.2846e-08,2.249e-19,-4.9814e-22,1.2762,0.0023162,-0.0019616,3.1443e-34,0.00059368,-66.673,-458.45,-158.06,-0.0079979,3.4512e-14,-7.1948e-17,355.02,-458.45,-158.06,-66.673,0,0.01427,0,1,1.07,0,-1.07,0
0,0,0,0,0,0,0.00059052,-0.0019533,1.146e-35,-1.2789e-07,2.9255e-19,-5.4997e-22,1.2734,0.002306,-0.0019533,2.5707e-34,0.00059052,-66.562,-456.58,-157.46,-0.019535,4.4888e-14,-7.9883e-17,353.45,-456.58,-157.46,-66.562,0,0.01428,0,1,1.075,0,-1.075,0
0,0,0,0,0,0,0.00058738,-0.001945,1.0292e-35,-1.9208e-07,3.4842e-19,-6.0138e-22,1.2706,0.0022957,-0.001945,2.0875e-34,0.00058738,-66.446,-454.71,-156.86,-0.029404,5.3457e-14,-8.7794e-17,351.88,-454.71,-156.86,-66.446,0,0.01429,0,1,1.08,0,-1.08,0
0,0,0,0,0,0,0.00058425,-0.0019366,9.3431e-36,-2.4541e-07,3.9251e-19,-6.5234e-22,1.2679,0.0022855,-0.0019366,1.6946e-34,0.00058426,-66.325,-452.84,-156.25,-0.037605,6.0219e-14,-9.5681e-17,350.32,-452.84,-156.25,-66.325,0,0.0143,0,1,1.085,0,-1.085,0
0,0,0,0,0,0,0.00058115,-0.0019283,8.613e-36,-2.879e-07,4.2482e-19,-7.0286e-22,1.2651,0.0022752,-0.0019283,1.3921e-34,0.00058115,-66.198,-450.96,-155.65,-0.044137,6.5173e-14,-1.0354e-16,348.75,-450.96,-155.65,-66.198,0,0.014309,0,1,1.09,0,-1.09,0
0,0,0,0,0,0,0.00057806,-0.0019199,8.1018e-36,-3.1953e-07,4.4536e-19,-7.5294e-22,1.2623,0.002265,-0.0019199,1.1799e-34,0.00057806,-66.066,-449.09,-155.04,-0.049001,6.832e-14,-1.1138e-16,347.19,-449.09,-155.04,-66.066,0,0.014319,0,1,1.095,0,-1.095,0
0,0,0,0,0,0,0.00057499,-0.0019116,7.8096e-36,-3.403e-07,4.5411e-19,-8.0259e-22,1.2596,0.0022548,-0.0019116,1.0581e-34,0.00057499,-65.928,-447.2,-154.43,-0.052197,6.966e-14,-1.192e-16,345.63,-447.2,-154.43,-65.928,0,0.014328,0,1,1.1,0,-1.1,0
0,0,0,0,0,0,0.00057194,-0.0019033,7.7364e-36,-3.5023e-07,4.5109e-19,-8.518e-22,1.2568,0.0022446,-0.0019033,1.0266e-34,0.00057194,-65.785,-445.32,-153.82,-0.053724,6.9192e-14,-1.2699e-16,344.07,-445.32,-153.82,-65.785,0,0.014338,0,1,1.105,0,-1.105,0
0,0,0,0,0,0,0.00056891,-0.0018949,7.8822e-36,-3.493e-07,4.3628e-19,-9.0057e-22,1.254,0.0022344,-0.0018949,1.0855e-34,0.00056891,-65.637,-443.43,-153.2,-0.053582,6.6917e-14,-1.3476e-16,342.51,-443.43,-153.2,-65.637,0,0.014347,0,1,1.11,0,-1.11,0
0,0,0,0,0,0,0.0005659,-0.0018866,8.247e-36,-3.3751e-07,4.0969e-19,-9.489e-22,1.2513,0.0022242,-0.0018866,1.2347e-34,0.0005659,-65.484,-441.54,-152.59,-0.051773,6.2834e-14,-1.425e-16,340.95,-441.54,-152.59,-65.484,0,0.014357,0,1,1.115,0,-1.115,0
0,0,0,0,0,0,0.0005629,-0.0018782,8.8307e-36,-3.1487e-07,3.7132e-19,-9.9679e-22,1.2485,0.002214,-0.0018782,1.4743e-34,0.0005629,-65.325,-439.64,-151.97,-0.048294,5.6944e-14,-1.5022e-16,339.4,-439.64,-151.97,-65.325,0,0.014366,0,1,1.12,0,-1.12,0
0,0,0,0,0,0,0.00055993,-0.0018698,9.6335e-36,-2.8137e-07,3.2117e-19,-1.0442e-21,1.2457,0.0022038,-0.0018698,1.8043e-34,0.00055993,-65.16,-437.75,-151.34,-0.043147,4.9246e-14,-1.5792e-16,337.84,-437.75,-151.34,-65.16,0,0.014376,0,1,1.125,0,-1.125,0
0,0,0,0,0,0,0.00055697,-0.0018615,1.0655e-35,-2.3702e-07,2.5924e-19,-1.0913e-21,1.243,0.0021937,-0.0018615,2.2246e-34,0.00055697,-64.991,-435.85,-150.72,-0.036331,3.9741e-14,-1.6559e-16,336.29,-435.85,-150.72,-64.991,0,0.014385,0,1,1.13,0,-1.13,0
0,0,0,0,0,0,0.00055403,-0.0018531,1.1896e-35,-1.8182e-07,1.8552e-19,-1.1378e-21,1.2402,0.0021835,-0.0018531,2.7353e-34,0.00055403,-64.816,-433.94,-150.09,-0.027847,2.8428e-14,-1.7324e-16,334.74,-433.94,-150.09,-64.816,0,0.014394,0,1,1.135,0,-1.135,0
0,0,0,0,0,0,0.00055111,-0.0018448,1.3356e-35,-1.1576e-07,1.0003e-19,-1.184e-21,1.2374,0.0021734,-0.0018448,3.3363e-34,0.00055111,-64.635,-432.04,-149.46,-0.017694,1.5307e-14,-1.8086e-16,333.19,-432.04,-149.46,-64.635,0,0.014404,0,1,1.14,0,-1.14,0
0,0,0,0,0,0,0.00054821,-0.0018364,1.5035e-35,-3.8845e-08,2.7535e-21,-1.2297e-21,1.2347,0.0021632,-0.0018364,4.0277e-34,0.00054821,-64.449,-430.13,-148.83,-0.0058727,3.7939e-16,-1.8846e-16,331.64,-430.13,-148.83,-64.449,0,0.014413,0,1,1.145,0,-1.145,0
0,0,0,0,0,0,0.00054533,-0.001828,1.6932e-35,4.8924e-08,-1.063e-19,-1.2749e-21,1.2319,0.0021531,-0.001828,4.8095e-34,0.00054533,-64.258,-428.22,-148.19,0.0076174,-1.6356e-14,-1.9604e-16,330.09,-428.22,-148.19,-64.258,0,0.014422,0,1,1.15,0,-1.15,0
0,0,0,0,0,0,0.00054246,-0.0018196,1.9049e-35,1.4755e-07,-2.2714e-19,-1.3197e-21,1.2291,0.002143,-0.0018196,5.6816e-34,0.00054246,-64.062,-426.3,-147.55,0.022776,-3.4899e-14,-2.0359e-16,328.55,-426.3,-147.55,-64.062,0,0.014431,0,1,1.155,0,-1.155,0
0,0,0,0,0,0,0.00053961,-0.0018113,2.1385e-35,2.5703e-07,-3.5976e-19,-1.3641e-21,1.2264,0.0021329,-0.0018113,6.6441e-34,0.00053962,-63.86,-424.38,-146.91,0.039603,-5.525e-14,-2.1112e-16,327,-424.38,-146.91,-63.86,0,0.01444,0,1,1.16,0,-1.16,0
0,0,0,0,0,0,0.00053679,-0.0018029,2.394e-35,3.7736e-07,-5.0416e-19,-1.4081e-21,1.2236,0.0021228,-0.0018029,7.697e-34,0.00053679,-63.653,-422.46,-146.27,0.058099,-7.7408e-14,-2.1862e-16,325.46,-422.46,-146.27,-63.653,0,0.014449,0,1,1.165,0,-1.165,0
0,0,0,0,0,0,0.00053398,-0.0017945,2.6714e-35,5.0855e-07,-6.6034e-19,-1.4516e-21,1.2208,0.0021127,-0.0017945,8.8402e-34,0.00053398,-63.44,-420.54,-145.63,0.078263,-1.0137e-13,-2.261e-16,323.92,-420.54,-145.63,-63.44,0,0.014458,0,1,1.17,0,-1.17,0
0,0,0,0,0,0,0.00053119,-0.0017861,2.9706e-35,6.5059e-07,-8.283e-19,-1.4946e-21,1.2181,0.0021026,-0.0017861,1.0074e-33,0.00053119,-63.223,-418.61,-144.98,0.1001,-1.2715e-13,-2.3356e-16,322.38,-418.61,-144.98,-63.223,0,0.014467,0,1,1.175,0,-1.175,0
0,0,0,0,0,0,0.00052842,-0.0017777,3.2918e-35,8.0349e-07,-1.008e-18,-1.5373e-21,1.2153,0.0020926,-0.0017777,1.1398e-33,0.00052842,-62.999,-416.68,-144.33,0.1236,-1.5473e-13,-2.4099e-16,320.84,-416.68,-144.33,-62.999,0,0.014476,0,1,1.18,0,-1.18,0
0,0,0,0,0,0,0.00052566,-0.0017693,3.6349e-35,9.6724e-07,-1.1996e-18,-1.5794e-21,1.2125,0.0020825,-0.0017693,1.2812e-33,0.00052566,-62.771,-414.75,-143.68,0.14877,-1.8412e-13,-2.484e-16,319.3,-414.75,-143.68,-62.771,0,0.014485,0,1,1.185,0,-1.185,0
0,0,0,0,0,0,0.00052293,-0.0017609,3.9999e-35,1.1419e-06,-1.4029e-18,-1.6212e-21,1.2098,0.0020725,-0.0017609,1.4317e-33,0.00052293,-62.537,-412.81,-143.02,0.17561,-2.1531e-13,-2.5579e-16,317.77,-412.81,-143.02,-62.537,0,0.014494,0,1,1.19,0,-1.19,0
0,0,0,0,0,0,0.00052021,-0.0017525,4.3868e-35,1.3273e-06,-1.618e-18,-1.6625e-21,1.207,0.0020624,-0.0017525,1.5912e-33,0.00052021,-62.298,-410.87,-142.36,0.20411,-2.4832e-13,-2.6315e-16,316.23,-410.87,-142.36,-62.297,0,0.014503,0,1,1.195,0,-1.195,0
0,0,0,0,0,0,0.0005176,-0.0017459,4.3157e-35,1.2581e-06,-1.5237e-18,-1.4617e-21,1.2046,0.0020543,-0.0017459,1.4846e-33,0.0005176,-62.242,-409.41,-141.91,0.19347,-2.3385e-13,-2.3156e-16,314.99,-409.41,-141.91,-62.242,0,0.014511,0,1,1.2,0,-1.2,0
0,0,0,0,0,0,0.00051503,-0.0017399,4.1276e-35,1.1272e-06,-1.3564e-18,-1.2084e-21,1.2024,0.0020466,-0.0017399,1.3172e-33,0.00051503,-62.23,-408.07,-141.5,0.17336,-2.0815e-13,-1.915e-16,313.81,-408.07,-141.5,-62.23,0,0.01452,0,1,1.205,0,-1.205,0
0,0,0,0,0,0,0.00051247,-0.0017338,3.9436e-35,1.0023e-06,-1.1979e-18,-9.6583e-22,1.2001,0.0020389,-0.0017338,1.1597e-33,0.00051247,-62.215,-406.73,-141.09,0.15415,-1.8382e-13,-1.5314e-16,312.63,-406.73,-141.09,-62.214,0,0.014529,0,1,1.21,0,-1.21,0
0,0,0,0,0,0,0.00050993,-0.0017277,3.7637e-35,8.8336e-07,-1.0482e-18,-7.3388e-22,1.1979,0.0020312,-0.0017277,1.0121e-33,0.00050993,-62.195,-405.39,-140.68,0.13586,-1.6084e-13,-1.1646e-16,311.46,-405.39,-140.68,-62.195,0,0.014537,0,1,1.215,0,-1.215,0
0,0,0,0,0,0,0.0005074,-0.0017216,3.5878e-35,7.7031e-07,-9.0738e-19,-5.1259e-22,1.1956,0.0020235,-0.0017216,8.7432e-34,0.0005074,-62.172,-404.05,-140.27,0.11848,-1.3923e-13,-8.1474e-17,310.29,-404.05,-140.27,-62.172,0,0.014546,0,1,1.22,0,-1.22,0
0,0,0,0,0,0,0.00050488,-0.0017155,3.4161e-35,6.6319e-07,-7.7541e-19,-3.0194e-22,1.1934,0.0020159,-0.0017155,7.464e-34,0.00050488,-62.145,-402.7,-139.85,0.10202,-1.1897e-13,-4.8178e-17,309.12,-402.7,-139.85,-62.144,0,0.014555,0,1,1.225,0,-1.225,0
0,0,0,0,0,0,0.00050238,-0.0017093,3.2484e-35,5.62e-07,-6.5229e-19,-1.0195e-22,1.1911,0.0020082,-0.0017093,6.2834e-34,0.00050238,-62.113,-401.35,-139.43,0.086459,-1.0007e-13,-1.6571e-17,307.95,-401.35,-139.43,-62.113,0,0.014563,0,1,1.23,0,-1.23,0
0,0,0,0,0,0,0.00049989,-0.0017032,3.0848e-35,4.6673e-07,-5.3802e-19,8.739e-23,1.1889,0.0020006,-0.0017032,5.2014e-34,0.00049989,-62.078,-400,-139.02,0.071814,-8.253e-14,1.3346e-17,306.78,-400,-139.02,-62.078,0,0.014572,0,1,1.235,0,-1.235,0
0,0,0,0,0,0,0.00049742,-0.0016971,2.9253e-35,3.774e-07,-4.326e-19,2.6608e-22,1.1866,0.001993,-0.0016971,4.2179e-34,0.00049742,-62.039,-398.65,-138.6,0.05808,-6.6348e-14,4.1573e-17,305.61,-398.65,-138.6,-62.039,0,0.01458,0,1,1.24,0,-1.24,0
0,0,0,0,0,0,0.00049495,-0.001691,2.7699e-35,2.94e-07,-3.3603e-19,4.3412e-22,1.1844,0.0019853,-0.001691,3.333e-34,0.00049496,-61.996,-397.3,-138.17,0.045259,-5.1525e-14,6.8111e-17,304.44,-397.3,-138.17,-61.996,0,0.014589,0,1,1.245,0,-1.245,0
0,0,0,0,0,0,0.00049251,-0.0016849,2.6186e-35,2.1653e-07,-2.4831e-19,5.9151e-22,1.1821,0.0019777,-0.0016849,2.5466e-34,0.00049251,-61.95,-395.94,-137.75,0.033348,-3.806e-14,9.2958e-17,303.28,-395.94,-137.75,-61.95,0,0.014597,0,1,1.25,0,-1.25,0
0,0,0,0,0,0,0.00049007,-0.0016788,2.4713e-35,1.4499e-07,-1.6944e-19,7.3825e-22,1.1799,0.0019701,-0.0016788,1.8589e-34,0.00049007,-61.899,-394.58,-137.32,0.02235,-2.5954e-14,1.1612e-16,302.11,-394.58,-137.32,-61.899,0,0.014606,0,1,1.255,0,-1.255,0
0,0,0,0,0,0,0.00048765,-0.0016727,2.3282e-35,7.938e-08,-9.9423e-20,8.7434e-22,1.1776,0.0019625,-0.0016727,1.2697e-34,0.00048765,-61.844,-393.22,-136.9,0.012263,-1.5208e-14,1.3759e-16,300.95,-393.22,-136.9,-61.844,0,0.014614,0,1,1.26,0,-1.26,0
0,0,0,0,0,0,0.00048525,-0.0016666,2.1891e-35,1.9699e-08,-3.8252e-20,9.9977e-22,1.1754,0.0019549,-0.0016666,7.7906e-35,0.00048525,-61.786,-391.86,-136.47,0.0030877,-5.8193e-15,1.5736e-16,299.79,-391.86,-136.47,-61.786,0,0.014622,0,1,1.265,0,-1.265,0
0,0,0,0,0,0,0.00048285,-0.0016604,2.0541e-35,-3.4051e-08,1.407e-20,1.1146e-21,1.1731,0.0019473,-0.0016604,3.87e-35,0.00048285,-61.723,-390.49,-136.04,-0.005176,2.2102e-15,1.7545e-16,298.63,-390.49,-136.04,-61.723,0,0.014631,0,1,1.27,0,-1.27,0
0,0,0,0,0,0,0.00048048,-0.0016543,1.9232e-35,-8.1872e-08,5.7542e-20,1.2187e-21,1.1709,0.0019397,-0.0016543,9.3519e-36,0.00048048,-61.657,-389.12,-135.6,-0.012528,8.881e-15,1.9185e-16,297.47,-389.12,-135.6,-61.657,0,0.014639,0,1,1.275,0,-1.275,0
0,0,0,0,0,0,0.00047811,-0.0016482,1.7964e-35,-1.2376e-07,9.2165e-20,1.3122e-21,1.1686,0.0019321,-0.0016482,-1.0139e-35,0.00047811,-61.587,-387.76,-135.17,-0.018969,1.4193e-14,2.0656e-16,296.31,-387.76,-135.17,-61.587,0,0.014647,0,1,1.28,0,-1.28,0
0,0,0,0,0,0,0.00047576,-0.0016421,1.6736e-35,-1.5972e-07,1.1794e-19,1.395e-21,1.1664,0.0019246,-0.0016421,-1.9774e-35,0.00047576,-61.513,-386.38,-134.73,-0.024497,1.8146e-14,2.1958e-16,295.15,-386.38,-134.73,-61.513,0,0.014656,0,1,1.285,0,-1.285,0
0,0,0,0,0,0,0.00047342,-0.001636,1.555e-35,-1.8975e-07,1.3486e-19,1.4672e-21,1.1641,0.001917,-0.001636,-1.9551e-35,0.00047342,-61.435,-385.01,-134.3,-0.029115,2.0741e-14,2.3091e-16,294,-385.01,-134.3,-61.435,0,0.014664,0,1,1.29,0,-1.29,0
0,0,0,0,0,0,0.0004711,-0.0016298,1.4404e-35,-2.1385e-07,1.4294e-19,1.5287e-21,1.1619,0.0019095,-0.0016298,-9.4715e-36,0.0004711,-61.353,-383.64,-133.86,-0.03282,2.1977e-14,2.4055e-16,292.84,-383.64,-133.86,-61.353,0,0.014672,0,1,1.295,0,-1.295,0
0,0,0,0,0,0,0.00046879,-0.0016237,1.33e-35,-2.3203e-07,1.4216e-19,1.5796e-21,1.1596,0.0019019,-0.0016237,1.0465e-35,0.00046879,-61.267,-382.26,-133.41,-0.035614,2.1854e-14,2.485e-16,291.69,-382.26,-133.41,-61.267,0,0.01468,0,1,1.3,0,-1.3,0
0,0,0,0,0,0,0.00046649,-0.0016176,1.2236e-35,-2.4427e-07,1.3254e-19,1.6198e-21,1.1574,0.0018944,-0.0016176,4.0257e-35,0.00046649,-61.177,-380.88,-132.97,-0.037497,2.0373e-14,2.5477e-16,290.54,-380.88,-132.97,-61.177,0,0.014688,0,1,1.305,0,-1.305,0
0,0,0,0,0,0,0.00046421,-0.0016114,1.1213e-35,-2.5058e-07,1.1407e-19,1.6494e-21,1.1551,0.0018869,-0.0016114,7.9904e-35,0.00046421,-61.083,-379.5,-132.53,-0.038468,1.7533e-14,2.5934e-16,289.39,-379.5,-132.53,-61.083,0,0.014696,0,1,1.31,0,-1.31,0
0,0,0,0,0,0,0.00046194,-0.0016053,1.0231e-35,-2.5096e-07,8.6745e-20,1.6683e-21,1.1529,0.0018793,-0.0016053,1.2941e-34,0.00046194,-60.986,-378.11,-132.08,-0.038527,1.3334e-14,2.6222e-16,288.23,-378.11,-132.08,-60.986,0,0.014704,0,1,1.315,0,-1.315,0
0,0,0,0,0,0,0.00045969,-0.0015992,9.2895e-36,-2.4541e-07,5.0577e-20,1.6766e-21,1.1506,0.0018718,-0.0015992,1.8876e-34,0.00045969,-60.884,-376.73,-131.63,-0.037675,7.7775e-15,2.6341e-16,287.09,-376.73,-131.63,-60.884,0,0.014712,0,1,1.32,0,-1.32,0
0,0,0,0,0,0,0.00045744,-0.001593,8.3892e-36,-2.3393e-07,5.5618e-21,1.6742e-21,1.1484,0.0018643,-0.001593,2.5797e-34,0.00045744,-60.779,-375.34,-131.18,-0.035912,8.6213e-16,2.6292e-16,285.94,-375.34,-131.18,-60.779,0,0.01472,0,1,1.325,0,-1.325,0
0,0,0,0,0,0,0.00045522,-0.0015869,7.5296e-36,-2.1653e-07,-4.8301e-20,1.6612e-21,1.1461,0.0018568,-0.0015869,3.3704e-34,0.00045522,-60.669,-373.95,-130.73,-0.033237,-7.4117e-15,2.6073e-16,284.79,-373.95,-130.73,-60.669,0,0.014728,0,1,1.33,0,-1.33,0
0,0,0,0,0,0,0.000453,-0.0015808,6.7109e-36,-1.932e-07,-1.1101e-19,1.6376e-21,1.1439,0.0018493,-0.0015808,4.2596e-34,0.000453,-60.556,-372.56,-130.27,-0.02965,-1.7044e-14,2.5685e-16,283.65,-372.56,-130.27,-60.556,0,0.014736,0,1,1.335,0,-1.335,0
0,0,0,0,0,0,0.0004508,-0.0015746,5.9331e-36,-1.6393e-07,-1.8257e-19,1.6032e-21,1.1416,0.0018419,-0.0015746,5.2474e-34,0.0004508,-60.439,-371.17,-129.82,-0.025152,-2.8035e-14,2.5129e-16,282.5,-371.17,-129.82,-60.439,0,0.014744,0,1,1.34,0,-1.34,0
0,0,0,0,0,0,0.00044862,-0.0015685,5.1961e-36,-1.2874e-07,-2.6298e-19,1.5583e-21,1.1394,0.0018344,-0.0015685,6.3337e-34,0.00044862,-60.318,-369.77,-129.36,-0.019743,-4.0384e-14,2.4403e-16,281.36,-369.77,-129.36,-60.318,0,0.014752,0,1,1.345,0,-1.345,0
0,0,0,0,0,0,0.00044644,-0.0015623,4.5e-36,-8.762e-08,-3.5223e-19,1.5027e-21,1.1371,0.0018269,-0.0015623,7.5186e-34,0.00044645,-60.193,-368.37,-128.9,-0.013423,-5.4092e-14,2.3509e-16,280.22,-368.37,-128.9,-60.193,0,0.01476,0,1,1.35,0,-1.35,0
0,0,0,0,0,0,0.00044429,-0.0015562,3.8447e-36,-4.057e-08,-4.5034e-19,1.4364e-21,1.1349,0.0018195,-0.0015562,8.802e-34,0.00044429,-60.064,-366.97,-128.44,-0.0061905,-6.9158e-14,2.2446e-16,279.08,-366.97,-128.44,-60.064,0,0.014768,0,1,1.355,0,-1.355,0
0,0,0,0,0,0,0.00044214,-0.00155,3.2303e-36,1.2408e-08,-5.5729e-19,1.3595e-21,1.1326,0.001812,-0.00155,1.0184e-33,0.00044214,-59.931,-365.57,-127.98,0.0019531,-8.5582e-14,2.1214e-16,277.94,-365.57,-127.98,-59.931,0,0.014775,0,1,1.36,0,-1.36,0
0,0,0,0,0,0,0.00044001,-0.0015439,2.6567e-36,7.1316e-08,-6.7308e-19,1.2719e-21,1.1304,0.0018046,-0.0015439,1.1665e-33,0.00044001,-59.795,-364.17,-127.51,0.011008,-1.0337e-13,1.9812e-16,276.8,-364.17,-127.51,-59.795,0,0.014783,0,1,1.365,0,-1.365,0
0,0,0,0,0,0,0.00043789,-0.0015377,2.1239e-36,1.3615e-07,-7.9773e-19,1.1737e-21,1.1281,0.0017971,-0.0015377,1.3244e-33,0.00043789,-59.654,-362.76,-127.04,0.020974,-1.2251e-13,1.8242e-16,275.66,-362.76,-127.04,-59.654,0,0.014791,0,1,1.37,0,-1.37,0
0,0,0,0,0,0,0.00043579,-0.0015316,1.632e-36,2.0692e-07,-9.3122e-19,1.0649e-21,1.1259,0.0017897,-0.0015316,1.4921e-33,0.00043579,-59.509,-361.35,-126.58,0.031852,-1.4301e-13,1.6503e-16,274.52,-361.35,-126.58,-59.509,0,0.014798,0,1,1.375,0,-1.375,0
0,0,0,0,0,0,0.0004337,-0.0015254,1.181e-36,2.8361e-07,-1.0736e-18,9.4534e-22,1.1236,0.0017823,-0.0015254,1.6697e-33,0.0004337,-59.361,-359.94,-126.11,0.043642,-1.6487e-13,1.4595e-16,273.39,-359.94,-126.11,-59.361,0,0.014806,0,1,1.38,0,-1.38,0
0,0,0,0,0,0,0.00043162,-0.0015193,7.7081e-37,3.6623e-07,-1.2248e-18,8.1519e-22,1.1214,0.0017749,-0.0015193,1.8572e-33,0.00043162,-59.209,-358.53,-125.63,0.056342,-1.8808e-13,1.2518e-16,272.25,-358.53,-125.63,-59.209,0,0.014814,0,1,1.385,0,-1.385,0
0,0,0,0,0,0,0.00042956,-0.0015131,4.0147e-37,4.5479e-07,-1.3848e-18,6.7438e-22,1.1191,0.0017675,-0.0015131,2.0545e-33,0.00042956,-59.052,-357.11,-125.16,0.069954,-2.1266e-13,1.0273e-16,271.12,-357.11,-125.16,-59.052,0,0.014821,0,1,1.39,0,-1.39,0
0,0,0,0,0,0,0.00042751,-0.0015069,7.2978e-38,5.4927e-07,-1.5537e-18,5.2293e-22,1.1169,0.0017601,-0.0015069,2.2617e-33,0.00042751,-58.892,-355.7,-124.68,0.084478,-2.3859e-13,7.8577e-17,269.99,-355.7,-124.68,-58.892,0,0.014829,0,1,1.395,0,-1.395,0
0,0,0,0,0,0,0.00042548,-0.0015008,-2.1466e-37,6.4968e-07,-1.7314e-18,3.6082e-22,1.1146,0.0017527,-0.0015008,2.4788e-33,0.00042548,-58.728,-354.28,-124.21,0.099913,-2.6588e-13,5.274e-17,268.86,-354.28,-124.21,-58.728,0,0.014836,0,1,1.4,0,-1.4,0
0,0,0,0,0,0,0.00042346,-0.0014946,-4.6146e-37,7.5602e-07,-1.918e-18,1.8807e-22,1.1124,0.0017453,-0.0014946,2.7057e-33,0.00042346,-58.56,-352.86,-123.73,0.11626,-2.9453e-13,2.5213e-17,267.73,-352.86,-123.73,-58.56,0,0.014844,0,1,1.405,0,-1.405,0
0,0,0,0,0,0,0.00042146,-0.0014887,-2.7507e-37,8.3393e-07,-2.0517e-18,3.1302e-23,1.1102,0.0017382,-0.0014887,2.8501e-33,0.00042146,-58.418,-351.51,-123.28,0.12824,-3.1506e-13,3.6437e-19,266.64,-351.51,-123.28,-58.418,0,0.014851,0,1,1.41,0,-1.41,0
0,0,0,0,0,0,0.00041953,-0.0014842,1.7141e-36,7.5321e-07,-1.9003e-18,-2.4534e-24,1.1084,0.0017325,-0.0014842,2.5689e-33,0.00041953,-58.411,-350.51,-122.97,0.11583,-2.9181e-13,-4.3111e-18,265.76,-350.51,-122.97,-58.411,0,0.014859,0,1,1.415,0,-1.415,0
0,0,0,0,0,0,0.00041761,-0.0014796,3.5729e-36,6.7584e-07,-1.7562e-18,-3.4527e-23,1.1065,0.0017267,-0.0014796,2.3028e-33,0.00041761,-58.402,-349.5,-122.67,0.10393,-2.6968e-13,-8.7464e-18,264.88,-349.5,-122.67,-58.402,0,0.014866,0,1,1.42,0,-1.42,0
0,0,0,0,0,0,0.00041569,-0.001475,5.3014e-36,6.0182e-07,-1.6195e-18,-6.4919e-23,1.1047,0.001721,-0.001475,2.0515e-33,0.00041569,-58.389,-348.5,-122.36,0.092552,-2.4868e-13,-1.2941e-17,264,-348.5,-122.36,-58.389,0,0.014873,0,1,1.425,0,-1.425,0
0,0,0,0,0,0,0.00041379,-0.0014705,6.8994e-36,5.3116e-07,-1.4901e-18,-9.363e-23,1.1029,0.0017152,-0.0014705,1.8152e-33,0.00041379,-58.374,-347.49,-122.05,0.08169,-2.2882e-13,-1.6896e-17,263.12,-347.49,-122.05,-58.374,0,0.014881,0,1,1.43,0,-1.43,0
0,0,0,0,0,0,0.00041189,-0.0014659,8.367e-36,4.6386e-07,-1.3681e-18,-1.2066e-22,1.1011,0.0017095,-0.0014659,1.5939e-33,0.00041189,-58.357,-346.49,-121.74,0.071343,-2.1008e-13,-2.0611e-17,262.25,-346.49,-121.74,-58.357,0,0.014888,0,1,1.435,0,-1.435,0
0,0,0,0,0,0,0.00041001,-0.0014613,9.7043e-36,3.9991e-07,-1.2534e-18,-1.4601e-22,1.0993,0.0017037,-0.0014613,1.3875e-33,0.00041001,-58.336,-345.48,-121.43,0.061512,-1.9247e-13,-2.4086e-17,261.37,-345.48,-121.43,-58.336,0,0.014895,0,1,1.44,0,-1.44,0
0,0,0,0,0,0,0.00040814,-0.0014568,1.0911e-35,3.3933e-07,-1.1461e-18,-1.6967e-22,1.0975,0.001698,-0.0014568,1.1961e-33,0.00040814,-58.313,-344.47,-121.12,0.052197,-1.7599e-13,-2.732e-17,260.49,-344.47,-121.12,-58.313,0,0.014903,0,1,1.445,0,-1.445,0
0,0,0,0,0,0,0.00040627,-0.0014522,1.1988e-35,2.8209e-07,-1.0462e-18,-1.9165e-22,1.0956,0.0016923,-0.0014522,1.0196e-33,0.00040627,-58.287,-343.46,-120.81,0.043398,-1.6065e-13,-3.0315e-17,259.62,-343.46,-120.81,-58.287,0,0.01491,0,1,1.45,0,-1.45,0
0,0,0,0,0,0,0.00040442,-0.0014476,1.2934e-35,2.2822e-07,-9.5361e-19,-2.1195e-22,1.0938,0.0016866,-0.0014476,8.5802e-34,0.00040442,-58.258,-342.44,-120.49,0.035115,-1.4643e-13,-3.3069e-17,258.74,-342.44,-120.49,-58.258,0,0.014917,0,1,1.455,0,-1.455,0
0,0,0,0,0,0,0.00040257,-0.001443,1.3749e-35,1.777e-07,-8.6838e-19,-2.3057e-22,1.092,0.0016809,-0.001443,7.1143e-34,0.00040257,-58.226,-341.43,-120.18,0.027348,-1.3334e-13,-3.5583e-17,257.87,-341.43,-120.18,-58.226,0,0.014925,0,1,1.46,0,-1.46,0
0,0,0,0,0,0,0.00040074,-0.0014385,1.4435e-35,1.3053e-07,-7.905e-19,-2.4751e-22,1.0902,0.0016752,-0.0014385,5.7978e-34,0.00040074,-58.192,-340.41,-119.86,0.020097,-1.2138e-13,-3.7856e-17,257,-340.41,-119.86,-58.192,0,0.014932,0,1,1.465,0,-1.465,0
0,0,0,0,0,0,0.00039891,-0.0014339,1.499e-35,8.6723e-08,-7.1998e-19,-2.6276e-22,1.0884,0.0016695,-0.0014339,4.6308e-34,0.00039891,-58.155,-339.39,-119.54,0.013362,-1.1055e-13,-3.989e-17,256.12,-339.39,-119.54,-58.155,0,0.014939,0,1,1.47,0,-1.47,0
0,0,0,0,0,0,0.0003971,-0.0014293,1.5414e-35,4.6272e-08,-6.5681e-19,-2.7634e-22,1.0865,0.0016638,-0.0014293,3.6134e-34,0.0003971,-58.115,-338.38,-119.22,0.0071427,-1.0085e-13,-4.1683e-17,255.25,-338.38,-119.22,-58.115,0,0.014946,0,1,1.475,0,-1.475,0
0,0,0,0,0,0,0.00039529,-0.0014247,1.5708e-35,9.1767e-09,-6.01e-19,-2.8823e-22,1.0847,0.0016581,-0.0014247,2.7454e-34,0.00039529,-58.073,-337.36,-118.9,0.0014397,-9.2276e-14,-4.3237e-17,254.38,-337.36,-118.9,-58.073,0,0.014953,0,1,1.48,0,-1.48,0
0,0,0,0,0,0,0.0003935,-0.0014202,1.5872e-35,-2.4562e-08,-5.5254e-19,-2.9844e-22,1.0829,0.0016524,-0.0014202,2.0268e-34,0.0003935,-58.027,-336.33,-118.58,-0.0037475,-8.4834e-14,-4.455e-17,253.51,-336.33,-118.58,-58.027,0,0.01496,0,1,1.485,0,-1.485,0
0,0,0,0,0,0,0.00039171,-0.0014156,1.5906e-35,-5.4945e-08,-5.1144e-19,-3.0697e-22,1.0811,0.0016467,-0.0014156,1.4578e-34,0.00039171,-57.979,-335.31,-118.26,-0.0084186,-7.8522e-14,-4.5623e-17,252.64,-335.31,-118.26,-57.979,0,0.014967,0,1,1.49,0,-1.49,0
0,0,0,0,0,0,0.00038994,-0.001411,1.5809e-35,-8.1971e-08,-4.7769e-19,-3.1381e-22,1.0793,0.0016411,-0.001411,1.0383e-34,0.00038994,-57.928,-334.29,-117.93,-0.012574,-7.334e-14,-4.6455e-17,251.78,-334.29,-117.93,-57.928,0,0.014975,0,1,1.495,0,-1.495,0
0,0,0,0,0,0,0.00038817,-0.0014064,1.5581e-35,-1.0564e-07,-4.5129e-19,-3.1898e-22,1.0774,0.0016354,-0.0014064,7.6822e-35,0.00038817,-57.875,-333.26,-117.61,-0.016213,-6.9287e-14,-4.7048e-17,250.91,-333.26,-117.61,-57.875,0,0.014982,0,1,1.5,0,-1.5,0
0,0,0,0,0,0,0.00038641,-0.0014018,1.5223e-35,-1.2596e-07,-4.3226e-19,-3.2246e-22,1.0756,0.0016298,-0.0014018,6.4765e-35,0.00038641,-57.818,-332.23,-117.28,-0.019336,-6.6364e-14,-4.74e-17,250.04,-332.23,-117.28,-57.818,0,0.014989,0,1,1.505,0,-1.505,0
0,0,0,0,0,0,0.00038467,-0.0013972,1.4735e-35,-1.4291e-07,-4.2057e-19,-3.2426e-22,1.0738,0.0016241,-0.0013972,6.7657e-35,0.00038467,-57.759,-331.2,-116.95,-0.021943,-6.457e-14,-4.7513e-17,249.18,-331.2,-116.95,-57.759,0,0.014996,0,1,1.51,0,-1.51,0
0,0,0,0,0,0,0.00038293,-0.0013927,1.4117e-35,-1.5651e-07,-4.1624e-19,-3.2438e-22,1.072,0.0016185,-0.0013927,8.5497e-35,0.00038293,-57.697,-330.17,-116.62,-0.024035,-6.3906e-14,-4.7385e-17,248.31,-330.17,-116.62,-57.697,0,0.015003,0,1,1.515,0,-1.515,0
0,0,0,0,0,0,0.0003812,-0.0013881,1.3368e-35,-1.6676e-07,-4.1927e-19,-3.2281e-22,1.0702,0.0016128,-0.0013881,1.1829e-34,0.0003812,-57.632,-329.14,-116.29,-0.02561,-6.4372e-14,-4.7017e-17,247.45,-329.14,-116.29,-57.632,0,0.01501,0,1,1.52,0,-1.52,0
0,0,0,0,0,0,0.00037949,-0.0013835,1.2488e-35,-1.7365e-07,-4.2965e-19,-3.1957e-22,1.0684,0.0016072,-0.0013835,1.6602e-34,0.00037949,-57.565,-328.11,-115.96,-0.026669,-6.5967e-14,-4.6408e-17,246.59,-328.11,-115.96,-57.565,0,0.015017,0,1,1.525,0,-1.525,0
0,0,0,0,0,0,0.00037778,-0.0013789,1.1479e-35,-1.7718e-07,-4.4739e-19,-3.1464e-22,1.0665,0.0016016,-0.0013789,2.2871e-34,0.00037778,-57.495,-327.08,-115.63,-0.027213,-6.8691e-14,-4.556e-17,245.73,-327.08,-115.63,-57.495,0,0.015023,0,1,1.53,0,-1.53,0
0,0,0,0,0,0,0.00037608,-0.0013743,1.0338e-35,-1.7736e-07,-4.7248e-19,-3.0803e-22,1.0647,0.0015959,-0.0013743,3.0635e-34,0.00037608,-57.422,-326.04,-115.3,-0.02724,-7.2546e-14,-4.4471e-17,244.87,-326.04,-115.3,-57.422,0,0.01503,0,1,1.535,0,-1.535,0
0,0,0,0,0,0,0.00037439,-0.0013697,9.0679e-36,-1.7418e-07,-5.0492e-19,-2.9974e-22,1.0629,0.0015903,-0.0013697,3.9893e-34,0.00037439,-57.346,-325,-114.96,-0.026751,-7.753e-14,-4.3143e-17,244.01,-325,-114.96,-57.346,0,0.015037,0,1,1.54,0,-1.54,0
0,0,0,0,0,0,0.00037272,-0.0013651,7.667e-36,-1.6764e-07,-5.4472e-19,-2.8977e-22,1.0611,0.0015847,-0.0013651,5.0646e-34,0.00037272,-57.268,-323.96,-114.62,-0.025747,-8.3643e-14,-4.1574e-17,243.15,-323.96,-114.62,-57.268,0,0.015044,0,1,1.545,0,-1.545,0
0,0,0,0,0,0,0.00037105,-0.0013605,6.1357e-36,-1.5775e-07,-5.9188e-19,-2.7812e-22,1.0593,0.0015791,-0.0013605,6.2894e-34,0.00037105,-57.186,-322.92,-114.28,-0.024226,-9.0886e-14,-3.9765e-17,242.29,-322.92,-114.28,-57.186,0,0.015051,0,1,1.55,0,-1.55,0
0,0,0,0,0,0,0.00036939,-0.0013559,4.474e-36,-1.445e-07,-6.4639e-19,-2.6478e-22,1.0574,0.0015735,-0.0013559,7.6637e-34,0.00036939,-57.102,-321.88,-113.95,-0.02219,-9.9259e-14,-3.7715e-17,241.43,-321.88,-113.95,-57.102,0,0.015058,0,1,1.555,0,-1.555,0
0,0,0,0,0,0,0.00036774,-0.0013514,2.682e-36,-1.2789e-07,-7.0826e-19,-2.4976e-22,1.0556,0.0015679,-0.0013514,9.1875e-34,0.00036774,-57.015,-320.84,-113.6,-0.019637,-1.0876e-13,-3.5426e-17,240.57,-320.84,-113.6,-57.015,0,0.015064,0,1,1.56,0,-1.56,0
0,0,0,0,0,0,0.0003661,-0.0013468,7.5948e-37,-1.0793e-07,-7.7748e-19,-2.3306e-22,1.0538,0.0015623,-0.0013468,1.0861e-33,0.0003661,-56.926,-319.8,-113.26,-0.016569,-1.1939e-13,-3.2896e-17,239.72,-319.8,-113.26,-56.926,0,0.015071,0,1,1.565,0,-1.565,0
0,0,0,0,0,0,0.00036447,-0.0013422,-1.2934e-36,-8.4612e-08,-8.5405e-19,-2.1468e-22,1.052,0.0015567,-0.0013422,1.2684e-33,0.00036447,-56.834,-318.75,-112.92,-0.012984,-1.3115e-13,-3.0127e-17,238.86,-318.75,-112.92,-56.834,0,0.015078,0,1,1.57,0,-1.57,0
0,0,0,0,0,0,0.00036286,-0.0013376,-3.4766e-36,-5.7937e-08,-9.3799e-19,-1.9461e-22,1.0502,0.0015512,-0.0013376,1.4656e-33,0.00036286,-56.739,-317.7,-112.58,-0.0088839,-1.4405e-13,-2.7117e-17,238.01,-317.7,-112.58,-56.739,0,0.015085,0,1,1.575,0,-1.575,0
0,0,0,0,0,0,0.00036125,-0.001333,-5.7902e-36,-2.7907e-08,-1.0293e-18,-1.7287e-22,1.0483,0.0015456,-0.001333,1.6778e-33,0.00036125,-56.641,-316.65,-112.23,-0.0042675,-1.5807e-13,-2.3866e-17,237.16,-316.65,-112.23,-56.641,0,0.015091,0,1,1.58,0,-1.58,0
0,0,0,0,0,0,0.00035965,-0.0013284,-8.2342e-36,5.4802e-09,-1.1279e-18,-1.4944e-22,1.0465,0.00154,-0.0013284,1.9049e-33,0.00035965,-56.54,-315.6,-111.88,0.00086492,-1.7322e-13,-2.0376e-17,236.3,-315.6,-111.88,-56.54,0,0.015098,0,1,1.585,0,-1.585,0
0,0,0,0,0,0,0.00035806,-0.0013238,-1.0809e-35,4.2223e-08,-1.2339e-18,-1.2433e-22,1.0447,0.0015345,-0.0013238,2.147e-33,0.00035806,-56.437,-314.55,-111.54,0.0065133,-1.895e-13,-1.6646e-17,235.45,-314.55,-111.54,-56.437,0,0.015105,0,1,1.59,0,-1.59,0
0,0,0,0,0,0,0.00035648,-0.0013192,-1.3513e-35,8.2323e-08,-1.3473e-18,-9.7539e-23,1.0429,0.0015289,-0.0013192,2.404e-33,0.00035648,-56.331,-313.5,-111.19,0.012678,-2.069e-13,-1.2675e-17,234.6,-313.5,-111.19,-56.331,0,0.015111,0,1,1.595,0,-1.595,0
0,0,0,0,0,0,0.00035491,-0.0013146,-1.6349e-35,1.2578e-07,-1.468e-18,-6.9066e-23,1.0411,0.0015233,-0.0013146,2.6759e-33,0.00035491,-56.222,-312.45,-110.84,0.019358,-2.2544e-13,-8.4643e-18,233.75,-312.45,-110.84,-56.222,0,0.015118,0,1,1.6,0,-1.6,0
0,0,0,0,0,0,0.00035335,-0.00131,-1.9314e-35,1.7259e-07,-1.596e-18,-3.8911e-23,1.0393,0.0015178,-0.00131,2.9629e-33,0.00035335,-56.11,-311.39,-110.48,0.026554,-2.4511e-13,-4.0134e-18,232.9,-311.39,-110.48,-56.11,0,0.015124,0,1,1.605,0,-1.605,0
0,0,0,0,0,0,0.0003518,-0.0013054,-2.241e-35,2.2276e-07,-1.7314e-18,-7.0739e-24,1.0374,0.0015123,-0.0013054,3.2647e-33,0.0003518,-55.996,-310.33,-110.13,0.034266,-2.6591e-13,6.7777e-19,232.06,-310.33,-110.13,-55.996,0,0.015131,0,1,1.61,0,-1.61,0
0,0,0,0,0,0,0.00035026,-0.0013008,-2.5636e-35,2.7628e-07,-1.8742e-18,2.6445e-23,1.0356,0.0015067,-0.0013008,3.5815e-33,0.00035026,-55.879,-309.28,-109.78,0.042495,-2.8784e-13,5.6091e-18,231.21,-309.28,-109.78,-55.878,0,0.015137,0,1,1.615,0,-1.615,0
0,0,0,0,0,0,0.00034873,-0.0012961,-2.8993e-35,3.3316e-07,-2.0243e-18,6.1646e-23,1.0338,0.0015012,-0.0012961,3.9133e-33,0.00034873,-55.759,-308.22,-109.42,0.051239,-3.1089e-13,1.0781e-17,230.36,-308.22,-109.42,-55.759,0,0.015144,0,1,1.62,0,-1.62,0
0,0,0,0,0,0,0.00034721,-0.0012915,-3.248e-35,3.934e-07,-2.1818e-18,9.8528e-23,1.032,0.0014957,-0.0012915,4.26e-33,0.00034721,-55.636,-307.15,-109.06,0.060499,-3.3508e-13,1.6192e-17,229.52,-307.15,-109.06,-55.636,0,0.01515,0,1,1.625,0,-1.625,0
0,0,0,0,0,0,0.0003457,-0.0012869,-3.6098e-35,4.57e-07,-2.3466e-18,1.3709e-22,1.0302,0.0014902,-0.0012869,4.6217e-33,0.0003457,-55.51,-306.09,-108.71,0.070275,-3.604e-13,2.1844e-17,228.67,-306.09,-108.71,-55.51,0,0.015157,0,1,1.63,0,-1.63,0
0,0,0,0,0,0,0.00034419,-0.0012823,-3.9846e-35,5.2395e-07,-2.5188e-18,1.7734e-22,1.0283,0.0014847,-0.0012823,4.9983e-33,0.00034419,-55.382,-305.03,-108.35,0.080567,-3.8684e-13,2.7736e-17,227.83,-305.03,-108.35,-55.382,0,0.015163,0,1,1.635,0,-1.635,0
0,0,0,0,0,0,0.00034273,-0.0012785,-3.5677e-35,5.0618e-07,-2.1965e-18,9.4688e-23,1.0268,0.00148,-0.0012785,5.8144e-33,0.00034273,-55.339,-304.18,-108.08,0.077836,-3.3733e-13,1.4893e-17,227.11,-304.18,-108.08,-55.339,0,0.01517,0,1,1.64,0,-1.64,0
0,0,0,0,0,0,0.00034128,-0.0012751,-2.8695e-35,4.5733e-07,-1.7022e-18,-2.8713e-23,1.0253,0.0014756,-0.0012751,6.7534e-33,0.00034128,-55.328,-303.41,-107.84,0.070326,-2.6142e-13,-4.1449e-18,226.44,-303.41,-107.84,-55.328,0,0.015176,0,1,1.645,0,-1.645,0
0,0,0,0,0,0,0.00033984,-0.0012716,-2.195e-35,4.1045e-07,-1.2272e-18,-1.4512e-22,1.0238,0.0014712,-0.0012716,7.6468e-33,0.00033984,-55.314,-302.65,-107.61,0.063118,-1.8846e-13,-2.2102e-17,225.77,-302.65,-107.61,-55.314,0,0.015182,0,1,1.65,0,-1.65,0
0,0,0,0,0,0,0.00033841,-0.0012681,-1.5441e-35,3.6553e-07,-7.7126e-19,-2.5453e-22,1.0224,0.0014669,-0.0012681,8.4947e-33,0.00033841,-55.298,-301.88,-107.37,0.056212,-1.1843e-13,-3.8979e-17,225.11,-301.88,-107.37,-55.298,0,0.015189,0,1,1.655,0,-1.655,0
0,0,0,0,0,0,0.00033698,-0.0012646,-9.1696e-36,3.2258e-07,-3.3453e-19,-3.5695e-22,1.0209,0.0014625,-0.0012646,9.2971e-33,0.00033698,-55.281,-301.11,-107.13,0.049609,-5.1356e-14,-5.4775e-17,224.44,-301.11,-107.13,-55.281,0,0.015195,0,1,1.66,0,-1.66,0
0,0,0,0,0,0,0.00033556,-0.0012611,-3.135e-36,2.8159e-07,8.3039e-20,-4.5237e-22,1.0194,0.0014582,-0.0012611,1.0054e-32,0.00033556,-55.261,-300.34,-106.9,0.043307,1.2778e-14,-6.9491e-17,223.77,-300.34,-106.9,-55.261,0,0.015201,0,1,1.665,0,-1.665,0
0,0,0,0,0,0,0.00033415,-0.0012577,2.6625e-36,2.4256e-07,4.8144e-19,-5.408e-22,1.0179,0.0014538,-0.0012577,1.0765e-32,0.00033415,-55.24,-299.57,-106.66,0.037307,7.3968e-14,-8.3126e-17,223.11,-299.57,-106.66,-55.24,0,0.015208,0,1,1.67,0,-1.67,0
0,0,0,0,0,0,0.00033274,-0.0012542,8.223e-36,2.0551e-07,8.6067e-19,-6.2224e-22,1.0165,0.0014495,-0.0012542,1.1431e-32,0.00033274,-55.216,-298.79,-106.42,0.03161,1.3221e-13,-9.568e-17,222.44,-298.79,-106.42,-55.216,0,0.015214,0,1,1.675,0,-1.675,0
0,0,0,0,0,0,0.00033134,-0.0012507,1.3547e-35,1.7041e-07,1.2207e-18,-6.9668e-22,1.015,0.0014451,-0.0012507,1.2051e-32,0.00033134,-55.191,-298.02,-106.18,0.026214,1.8752e-13,-1.0715e-16,221.78,-298.02,-106.18,-55.191,0,0.01522,0,1,1.68,0,-1.68,0
0,0,0,0,0,0,0.00032995,-0.0012472,1.8633e-35,1.3728e-07,1.5616e-18,-7.6412e-22,1.0135,0.0014408,-0.0012472,1.2625e-32,0.00032995,-55.164,-297.25,-105.94,0.02112,2.3988e-13,-1.1755e-16,221.11,-297.25,-105.94,-55.164,0,0.015227,0,1,1.685,0,-1.685,0
0,0,0,0,0,0,0.00032856,-0.0012437,2.3483e-35,1.0611e-07,1.8834e-18,-8.2457e-22,1.012,0.0014365,-0.0012437,1.3154e-32,0.00032856,-55.135,-296.47,-105.69,0.016329,2.8929e-13,-1.2686e-16,220.45,-296.47,-105.69,-55.135,0,0.015233,0,1,1.69,0,-1.69,0
0,0,0,0,0,0,0.00032718,-0.0012402,2.8095e-35,7.6911e-08,2.1859e-18,-8.7803e-22,1.0106,0.0014322,-0.0012402,1.3638e-32,0.00032718,-55.104,-295.7,-105.45,0.011839,3.3576e-13,-1.3509e-16,219.79,-295.7,-105.45,-55.104,0,0.015239,0,1,1.695,0,-1.695,0
0,0,0,0,0,0,0.00032581,-0.0012368,3.2471e-35,4.9674e-08,2.4693e-18,-9.2449e-22,1.0091,0.0014278,-0.0012368,1.4076e-32,0.00032581,-55.07,-294.92,-105.21,0.0076516,3.7929e-13,-1.4224e-16,219.13,-294.92,-105.21,-55.07,0,0.015245,0,1,1.7,0,-1.7,0
0,0,0,0,0,0,0.00032445,-0.0012333,3.661e-35,2.4402e-08,2.7336e-18,-9.6396e-22,1.0076,0.0014235,-0.0012333,1.4468e-32,0.00032445,-55.035,-294.14,-104.96,0.0037662,4.1987e-13,-1.4831e-16,218.46,-294.14,-104.96,-55.035,0,0.015251,0,1,1.705,0,-1.705,0
0,0,0,0,0,0,0.00032309,-0.0012298,4.0511e-35,1.0942e-09,2.9786e-18,-9.9644e-22,1.0061,0.0014192,-0.0012298,1.4815e-32,0.00032309,-54.998,-293.36,-104.71,0.00018275,4.5751e-13,-1.533e-16,217.8,-293.36,-104.71,-54.998,0,0.015258,0,1,1.71,0,-1.71,0
0,0,0,0,0,0,0.00032174,-0.0012263,4.4176e-35,-2.0249e-08,3.2045e-18,-1.0219e-21,1.0047,0.0014149,-0.0012263,1.5116e-32,0.00032174,-54.96,-292.58,-104.47,-0.0030986,4.9221e-13,-1.5721e-16,217.14,-292.58,-104.47,-54.96,0,0.015264,0,1,1.715,0,-1.715,0
0,0,0,0,0,0,0.0003204,-0.0012228,4.7604e-35,-3.9627e-08,3.4113e-18,-1.0404e-21,1.0032,0.0014106,-0.0012228,1.5372e-32,0.0003204,-54.919,-291.8,-104.22,-0.006078,5.2396e-13,-1.6004e-16,216.48,-291.8,-104.22,-54.919,0,0.01527,0,1,1.72,0,-1.72,0
0,0,0,0,0,0,0.00031906,-0.0012193,5.0794e-35,-5.7041e-08,3.5988e-18,-1.0519e-21,1.0017,0.0014063,-0.0012193,1.5582e-32,0.00031906,-54.876,-291.02,-103.97,-0.0087553,5.5277e-13,-1.6179e-16,215.82,-291.02,-103.97,-54.876,0,0.015276,0,1,1.725,0,-1.725,0
0,0,0,0,0,0,0.00031773,-0.0012158,5.3748e-35,-7.249e-08,3.7672e-18,-1.0564e-21,1.0003,0.001402,-0.0012158,1.5747e-32,0.00031773,-54.831,-290.23,-103.72,-0.011131,5.7863e-13,-1.6246e-16,215.17,-290.23,-103.72,-54.831,0,0.015282,0,1,1.73,0,-1.73,0
0,0,0,0,0,0,0.00031641,-0.0012124,5.6465e-35,-8.5975e-08,3.9165e-18,-1.0539e-21,0.99878,0.0013977,-0.0012124,1.5866e-32,0.00031641,-54.784,-289.45,-103.47,-0.013204,6.0155e-13,-1.6204e-16,214.51,-289.45,-103.47,-54.784,0,0.015288,0,1,1.735,0,-1.735,0
0,0,0,0,0,0,0.00031509,-0.0012089,5.8945e-35,-9.7495e-08,4.0465e-18,-1.0444e-21,0.99731,0.0013934,-0.0012089,1.5939e-32,0.00031509,-54.736,-288.67,-103.22,-0.014975,6.2153e-13,-1.6055e-16,213.85,-288.67,-103.22,-54.736,0,0.015294,0,1,1.74,0,-1.74,0
0,0,0,0,0,0,0.00031378,-0.0012054,6.1187e-35,-1.0705e-07,4.1574e-18,-1.0279e-21,0.99584,0.0013891,-0.0012054,1.5967e-32,0.00031378,-54.685,-287.88,-102.97,-0.016444,6.3856e-13,-1.5797e-16,213.19,-287.88,-102.97,-54.685,0,0.0153,0,1,1.745,0,-1.745,0
0,0,0,0,0,0,0.00031248,-0.0012019,6.3193e-35,-1.1464e-07,4.2491e-18,-1.0044e-21,0.99437,0.0013848,-0.0012019,1.5949e-32,0.00031248,-54.633,-287.09,-102.72,-0.017611,6.5265e-13,-1.5432e-16,212.54,-287.09,-102.72,-54.633,0,0.015306,0,1,1.75,0,-1.75,0
0,0,0,0,0,0,0.00031118,-0.0011984,6.4962e-35,-1.2027e-07,4.3217e-18,-9.7396e-22,0.99289,0.0013805,-0.0011984,1.5886e-32,0.00031118,-54.578,-286.31,-102.46,-0.018476,6.6379e-13,-1.4958e-16,211.88,-286.31,-102.46,-54.578,0,0.015312,0,1,1.755,0,-1.755,0
0,0,0,0,0,0,0.0003099,-0.0011949,6.6494e-35,-1.2393e-07,4.3751e-18,-9.3649e-22,0.99142,0.0013763,-0.0011949,1.5777e-32,0.0003099,-54.522,-285.52,-102.21,-0.01904,6.72e-13,-1.4377e-16,211.23,-285.52,-102.21,-54.522,0,0.015318,0,1,1.76,0,-1.76,0
0,0,0,0,0,0,0.00030861,-0.0011914,6.7789e-35,-1.2563e-07,4.4093e-18,-8.9203e-22,0.98995,0.001372,-0.0011914,1.5623e-32,0.00030861,-54.463,-284.73,-101.95,-0.019301,6.7725e-13,-1.3687e-16,210.57,-284.73,-101.95,-54.463,0,0.015324,0,1,1.765,0,-1.765,0
0,0,0,0,0,0,0.00030734,-0.0011879,6.8846e-35,-1.2536e-07,4.4244e-18,-8.4057e-22,0.98847,0.0013677,-0.0011879,1.5423e-32,0.00030734,-54.403,-283.94,-101.69,-0.01926,6.7957e-13,-1.2889e-16,209.92,-283.94,-101.69,-54.403,0,0.01533,0,1,1.77,0,-1.77,0
0,0,0,0,0,0,0.00030607,-0.0011844,6.9667e-35,-1.2313e-07,4.4203e-18,-7.8212e-22,0.987,0.0013635,-0.0011844,1.5177e-32,0.00030607,-54.341,-283.14,-101.44,-0.018917,6.7894e-13,-1.1983e-16,209.27,-283.14,-101.44,-54.341,0,0.015336,0,1,1.775,0,-1.775,0
0,0,0,0,0,0,0.00030481,-0.0011809,7.0251e-35,-1.1893e-07,4.397e-18,-7.1667e-22,0.98553,0.0013592,-0.0011809,1.4886e-32,0.00030481,-54.277,-282.35,-101.18,-0.018271,6.7536e-13,-1.097e-16,208.62,-282.35,-101.18,-54.277,0,0.015342,0,1,1.78,0,-1.78,0
0,0,0,0,0,0,0.00030356,-0.0011774,7.0598e-35,-1.1277e-07,4.3546e-18,-6.4423e-22,0.98406,0.001355,-0.0011774,1.455e-32,0.00030356,-54.211,-281.56,-100.92,-0.017324,6.6884e-13,-9.8476e-17,207.96,-281.56,-100.92,-54.211,0,0.015348,0,1,1.785,0,-1.785,0
0,0,0,0,0,0,0.00030231,-0.0011739,7.0708e-35,-1.0464e-07,4.293e-18,-5.6479e-22,0.98258,0.0013507,-0.0011739,1.4168e-32,0.00030231,-54.143,-280.76,-100.66,-0.016075,6.5938e-13,-8.6176e-17,207.31,-280.76,-100.66,-54.143,0,0.015354,0,1,1.79,0,-1.79,0
0,0,0,0,0,0,0.00030107,-0.0011704,7.0581e-35,-9.4553e-08,4.2122e-18,-4.7836e-22,0.98111,0.0013465,-0.0011704,1.374e-32,0.00030107,-54.073,-279.97,-100.4,-0.014524,6.4697e-13,-7.2795e-17,206.66,-279.97,-100.4,-54.073,0,0.01536,0,1,1.795,0,-1.795,0
0,0,0,0,0,0,0.00029984,-0.0011669,7.0217e-35,-8.2498e-08,4.1122e-18,-3.8494e-22,0.97964,0.0013422,-0.0011669,1.3267e-32,0.00029984,-54.001,-279.17,-100.14,-0.012671,6.3162e-13,-5.8333e-17,206.01,-279.17,-100.14,-54.001,0,0.015365,0,1,1.8,0,-1.8,0
0,0,0,0,0,0,0.00029862,-0.0011635,6.9616e-35,-6.8478e-08,3.9931e-18,-2.8452e-22,0.97816,0.001338,-0.0011635,1.2748e-32,0.00029862,-53.927,-278.37,-99.875,-0.010516,6.1333e-13,-4.2791e-17,205.36,-278.37,-99.875,-53.927,0,0.015371,0,1,1.805,0,-1.805,0
0,0,0,0,0,0,0.0002974,-0.00116,6.8778e-35,-5.2494e-08,3.8548e-18,-1.7711e-22,0.97669,0.0013338,-0.00116,1.2184e-32,0.0002974,-53.851,-277.58,-99.612,-0.0080584,5.9209e-13,-2.6168e-17,204.72,-277.58,-99.612,-53.851,0,0.015377,0,1,1.81,0,-1.81,0
0,0,0,0,0,0,0.00029619,-0.0011565,6.7702e-35,-3.4544e-08,3.6974e-18,-6.27e-23,0.97522,0.0013295,-0.0011565,1.1574e-32,0.00029619,-53.773,-276.78,-99.348,-0.005299,5.6791e-13,-8.4646e-18,204.07,-276.78,-99.348,-53.773,0,0.015383,0,1,1.815,0,-1.815,0
0,0,0,0,0,0,0.00029498,-0.001153,6.639e-35,-1.4631e-08,3.5208e-18,5.8702e-23,0.97375,0.0013253,-0.001153,1.0918e-32,0.00029498,-53.693,-275.98,-99.082,-0.0022376,5.4079e-13,1.0319e-17,203.42,-275.98,-99.082,-53.693,0,0.015389,0,1,1.82,0,-1.82,0
0,0,0,0,0,0,0.00029378,-0.0011495,6.4841e-35,7.2471e-09,3.325e-18,1.871e-22,0.97227,0.0013211,-0.0011495,1.0217e-32,0.00029378,-53.612,-275.17,-98.816,0.0011257,5.1072e-13,3.0184e-17,202.77,-275.17,-98.816,-53.612,0,0.015394,0,1,1.825,0,-1.825,0
0,0,0,0,0,0,0.00029259,-0.001146,6.3055e-35,3.109e-08,3.1101e-18,3.2249e-22,0.9708,0.0013169,-0.001146,9.4708e-33,0.00029259,-53.528,-274.37,-98.55,0.0047912,4.777e-13,5.1129e-17,202.13,-274.37,-98.55,-53.528,0,0.0154,0,1,1.83,0,-1.83,0
0,0,0,0,0,0,0.00029141,-0.0011425,6.1032e-35,5.6897e-08,2.876e-18,4.6487e-22,0.96933,0.0013126,-0.0011425,8.6787e-33,0.00029141,-53.443,-273.57,-98.282,0.0087586,4.4175e-13,7.3155e-17,201.48,-273.57,-98.282,-53.443,0,0.015406,0,1,1.835,0,-1.835,0
0,0,0,0,0,0,0.00029023,-0.001139,5.8772e-35,8.4669e-08,2.6227e-18,6.1425e-22,0.96785,0.0013084,-0.001139,7.841e-33,0.00029023,-53.355,-272.76,-98.013,0.013028,4.0285e-13,9.6262e-17,200.84,-272.76,-98.013,-53.355,0,0.015412,0,1,1.84,0,-1.84,0
0,0,0,0,0,0,0.00028906,-0.0011355,5.6276e-35,1.1441e-07,2.3502e-18,7.7062e-22,0.96638,0.0013042,-0.0011355,6.9578e-33,0.00028906,-53.266,-271.96,-97.744,0.0176,3.61e-13,1.2045e-16,200.19,-271.96,-97.744,-53.266,0,0.015417,0,1,1.845,0,-1.845,0
0,0,0,0,0,0,0.0002879,-0.001132,5.3542e-35,1.4611e-07,2.0586e-18,9.3399e-22,0.96491,0.0013,-0.001132,6.029e-33,0.0002879,-53.174,-271.15,-97.473,0.022473,3.1621e-13,1.4572e-16,199.55,-271.15,-97.473,-53.174,0,0.015423,0,1,1.85,0,-1.85,0
0,0,0,0,0,0,0.00028674,-0.0011285,5.0571e-35,1.7977e-07,1.7478e-18,1.1044e-21,0.96344,0.0012958,-0.0011285,5.0546e-33,0.00028674,-53.081,-270.34,-97.202,0.027649,2.6848e-13,1.7207e-16,198.91,-270.34,-97.202,-53.081,0,0.015429,0,1,1.855,0,-1.855,0
0,0,0,0,0,0,0.00028559,-0.0011249,4.7363e-35,2.154e-07,1.4179e-18,1.2817e-21,0.96196,0.0012916,-0.0011249,4.0347e-33,0.00028559,-52.986,-269.54,-96.93,0.033126,2.178e-13,1.9949e-16,198.27,-269.54,-96.93,-52.986,0,0.015434,0,1,1.86,0,-1.86,0
0,0,0,0,0,0,0.00028445,-0.0011214,4.3918e-35,2.53e-07,1.0688e-18,1.4661e-21,0.96049,0.0012875,-0.0011214,2.9693e-33,0.00028445,-52.888,-268.73,-96.657,0.038906,1.6418e-13,2.28e-16,197.62,-268.73,-96.657,-52.888,0,0.01544,0,1,1.865,0,-1.865,0
0,0,0,0,0,0,0.00028332,-0.0011179,4.0236e-35,2.9256e-07,7.0049e-19,1.6574e-21,0.95902,0.0012833,-0.0011179,1.8582e-33,0.00028332,-52.789,-267.92,-96.383,0.044988,1.0762e-13,2.5759e-16,196.98,-267.92,-96.383,-52.789,0,0.015445,0,1,1.87,0,-1.87,0
0,0,0,0,0,0,0.00028219,-0.0011144,3.6317e-35,3.3408e-07,3.1304e-19,1.8557e-21,0.95754,0.0012791,-0.0011144,7.0168e-34,0.00028219,-52.688,-267.11,-96.108,0.051371,4.8112e-14,2.8827e-16,196.34,-267.11,-96.108,-52.688,0,0.015451,0,1,1.875,0,-1.875,0
0,0,0,0,0,0,0.00028108,-0.0011113,3.5575e-35,3.435e-07,-1.2275e-20,1.8269e-21,0.95619,0.0012753,-0.0011113,2.402e-34,0.00028108,-52.625,-266.39,-95.874,0.05282,-1.8578e-15,2.8379e-16,195.76,-266.39,-95.874,-52.625,0,0.015457,0,1,1.88,0,-1.88,0
0,0,0,0,0,0,0.00027998,-0.0011086,3.8898e-35,3.1201e-07,-2.3464e-19,1.5175e-21,0.95499,0.0012719,-0.0011086,6.7446e-34,0.00027998,-52.608,-265.79,-95.689,0.047978,-3.602e-14,2.3589e-16,195.24,-265.79,-95.689,-52.608,0,0.015462,0,1,1.885,0,-1.885,0
0,0,0,0,0,0,0.00027889,-0.0011059,4.2068e-35,2.817e-07,-4.4692e-19,1.2193e-21,0.95379,0.0012686,-0.0011059,1.0926e-33,0.00027889,-52.591,-265.2,-95.504,0.043318,-6.8633e-14,1.8974e-16,194.73,-265.2,-95.504,-52.591,0,0.015468,0,1,1.89,0,-1.89,0
0,0,0,0,0,0,0.00027781,-0.0011032,4.5085e-35,2.5258e-07,-6.4913e-19,9.3247e-22,0.95259,0.0012652,-0.0011032,1.4948e-33,0.00027781,-52.572,-264.6,-95.318,0.038842,-9.9698e-14,1.4535e-16,194.21,-264.6,-95.318,-52.572,0,0.015473,0,1,1.895,0,-1.895,0
0,0,0,0,0,0,0.00027673,-0.0011005,4.795e-35,2.2466e-07,-8.4126e-19,6.5696e-22,0.95139,0.0012619,-0.0011005,1.8808e-33,0.00027673,-52.552,-264,-95.132,0.034548,-1.2921e-13,1.0271e-16,193.7,-264,-95.132,-52.552,0,0.015479,0,1,1.9,0,-1.9,0
0,0,0,0,0,0,0.00027566,-0.0010978,5.0662e-35,1.9791e-07,-1.0233e-18,3.9277e-22,0.95019,0.0012585,-0.0010978,2.2508e-33,0.00027566,-52.53,-263.4,-94.945,0.030436,-1.5718e-13,6.1816e-17,193.19,-263.4,-94.945,-52.53,0,0.015484,0,1,1.905,0,-1.905,0
0,0,0,0,0,0,0.00027459,-0.0010951,5.3221e-35,1.7236e-07,-1.1953e-18,1.399e-22,0.94899,0.0012552,-0.0010951,2.6047e-33,0.00027459,-52.507,-262.8,-94.757,0.026508,-1.836e-13,2.2679e-17,192.68,-262.8,-94.757,-52.507,0,0.01549,0,1,1.91,0,-1.91,0
0,0,0,0,0,0,0.00027352,-0.0010924,5.5628e-35,1.48e-07,-1.3572e-18,-1.0164e-22,0.94779,0.0012518,-0.0010924,2.9425e-33,0.00027352,-52.483,-262.2,-94.569,0.022762,-2.0847e-13,-1.4706e-17,192.16,-262.2,-94.569,-52.483,0,0.015495,0,1,1.915,0,-1.915,0
0,0,0,0,0,0,0.00027246,-0.0010898,5.7882e-35,1.2482e-07,-1.509e-18,-3.3186e-22,0.94659,0.0012485,-0.0010898,3.2642e-33,0.00027246,-52.457,-261.6,-94.38,0.019198,-2.318e-13,-5.0339e-17,191.65,-261.6,-94.38,-52.457,0,0.015501,0,1,1.92,0,-1.92,0
0,0,0,0,0,0,0.00027141,-0.0010871,5.9984e-35,1.0283e-07,-1.6507e-18,-5.5076e-22,0.94539,0.0012452,-0.0010871,3.5699e-33,0.00027141,-52.43,-261,-94.19,0.015817,-2.5357e-13,-8.4219e-17,191.14,-261,-94.19,-52.43,0,0.015506,0,1,1.925,0,-1.925,0
0,0,0,0,0,0,0.00027036,-0.0010844,6.1932e-35,8.2028e-08,-1.7824e-18,-7.5833e-22,0.94419,0.0012418,-0.0010844,3.8595e-33,0.00027036,-52.401,-260.4,-94,0.012619,-2.738e-13,-1.1635e-16,190.63,-260.4,-94,-52.401,0,0.015511,0,1,1.93,0,-1.93,0
0,0,0,0,0,0,0.00026931,-0.0010817,6.3729e-35,6.2415e-08,-1.9039e-18,-9.5459e-22,0.94299,0.0012385,-0.0010817,4.1331e-33,0.00026931,-52.371,-259.79,-93.81,0.0096038,-2.9248e-13,-1.4672e-16,190.12,-259.79,-93.81,-52.371,0,0.015517,0,1,1.935,0,-1.935,0
0,0,0,0,0,0,0.00026827,-0.001079,6.5372e-35,4.3989e-08,-2.0154e-18,-1.1395e-21,0.94179,0.0012352,-0.001079,4.3906e-33,0.00026827,-52.34,-259.19,-93.618,0.0067709,-3.0961e-13,-1.7534e-16,189.61,-259.19,-93.618,-52.34,0,0.015522,0,1,1.94,0,-1.94,0
0,0,0,0,0,0,0.00026724,-0.0010763,6.6863e-35,2.6752e-08,-2.1169e-18,-1.3131e-21,0.94059,0.0012318,-0.0010763,4.632e-33,0.00026724,-52.307,-258.58,-93.426,0.0041207,-3.2519e-13,-2.0221e-16,189.1,-258.58,-93.426,-52.307,0,0.015528,0,1,1.945,0,-1.945,0
0,0,0,0,0,0,0.00026621,-0.0010736,6.8201e-35,1.0703e-08,-2.2082e-18,-1.4754e-21,0.93939,0.0012285,-0.0010736,4.8573e-33,0.00026621,-52.273,-257.98,-93.234,0.0016532,-3.3922e-13,-2.2733e-16,188.59,-257.98,-93.234,-52.273,0,0.015533,0,1,1.95,0,-1.95,0
0,0,0,0,0,0,0.00026518,-0.0010709,6.9387e-35,-4.1582e-09,-2.2895e-18,-1.6264e-21,0.93819,0.0012252,-0.0010709,5.0665e-33,0.00026518,-52.238,-257.37,-93.041,-0.00063168,-3.517e-13,-2.507e-16,188.08,-257.37,-93.041,-52.238,0,0.015538,0,1,1.955,0,-1.955,0
0,0,0,0,0,0,0.00026417,-0.0010682,7.0419e-35,-1.7831e-08,-2.3606e-18,-1.766e-21,0.93699,0.0012219,-0.0010682,5.2597e-33,0.00026417,-52.201,-256.77,-92.847,-0.0027339,-3.6264e-13,-2.7231e-16,187.58,-256.77,-92.847,-52.201,0,0.015544,0,1,1.96,0,-1.96,0
0,0,0,0,0,0,0.00026315,-0.0010655,7.13e-35,-3.0317e-08,-2.4217e-18,-1.8943e-21,0.93579,0.0012186,-0.0010655,5.4368e-33,0.00026315,-52.163,-256.16,-92.652,-0.0046535,-3.7203e-13,-2.9217e-16,187.07,-256.16,-92.652,-52.163,0,0.015549,0,1,1.965,0,-1.965,0
0,0,0,0,0,0,0.00026214,-0.0010628,7.2027e-35,-4.1614e-08,-2.4728e-18,-2.0113e-21,0.93459,0.0012153,-0.0010628,5.5979e-33,0.00026214,-52.123,-255.55,-92.457,-0.0063904,-3.7987e-13,-3.1027e-16,186.56,-255.55,-92.457,-52.123,0,0.015554,0,1,1.97,0,-1.97,0
0,0,0,0,0,0,0.00026114,-0.0010601,7.2602e-35,-5.1723e-08,-2.5137e-18,-2.117e-21,0.93339,0.001212,-0.0010601,5.7428e-33,0.00026114,-52.082,-254.94,-92.262,-0.0079447,-3.8616e-13,-3.2663e-16,186.05,-254.94,-92.262,-52.082,0,0.01556,0,1,1.975,0,-1.975,0
0,0,0,0,0,0,0.00026014,-0.0010574,7.3024e-35,-6.0644e-08,-2.5446e-18,-2.2113e-21,0.93219,0.0012087,-0.0010574,5.8717e-33,0.00026014,-52.04,-254.33,-92.066,-0.0093163,-3.909e-13,-3.4123e-16,185.55,-254.33,-92.066,-52.04,0,0.015565,0,1,1.98,0,-1.98,0
0,0,0,0,0,0,0.00025914,-0.0010547,7.3294e-35,-6.8377e-08,-2.5654e-18,-2.2943e-21,0.93099,0.0012054,-0.0010547,5.9845e-33,0.00025914,-51.996,-253.72,-91.869,-0.010505,-3.9409e-13,-3.5408e-16,185.04,-253.72,-91.869,-51.996,0,0.01557,0,1,1.985,0,-1.985,0
0,0,0,0,0,0,0.00025815,-0.001052,7.3411e-35,-7.4922e-08,-2.5761e-18,-2.366e-21,0.92979,0.0012021,-0.001052,6.0813e-33,0.00025815,-51.951,-253.11,-91.671,-0.011512,-3.9574e-13,-3.6518e-16,184.54,-253.11,-91.671,-51.951,0,0.015576,0,1,1.99,0,-1.99,0
0,0,0,0,0,0,0.00025716,-0.0010493,7.3375e-35,-8.0279e-08,-2.5767e-18,-2.4264e-21,0.92859,0.0011988,-0.0010493,6.162e-33,0.00025716,-51.905,-252.5,-91.473,-0.012335,-3.9584e-13,-3.7452e-16,184.03,-252.5,-91.473,-51.905,0,0.015581,0,1,1.995,0,-1.995,0
0,0,0,0,0,0,0.00025618,-0.0010466,7.3187e-35,-8.4449e-08,-2.5672e-18,-2.4755e-21,0.92739,0.0011955,-0.0010466,6.2266e-33,0.00025618,-51.857,-251.89,-91.275,-0.012976,-3.9439e-13,-3.8211e-16,183.53,-251.89,-91.275,-51.857,0,0.015586,0,1,2,0,-2,0
0,0,0,0,0,0,0.00025521,-0.0010439,7.2846e-35,-8.743e-08,-2.5477e-18,-2.5132e-21,0.92619,0.0011922,-0.0010439,6.2751e-33,0.00025521,-51.808,-251.28,-91.075,-0.013435,-3.9139e-13,-3.8795e-16,183.02,-251.28,-91.075,-51.808,0,0.015591,0,1,2.005,0,-2.005,0
0,0,0,0,0,0,0.00025424,-0.0010412,7.2352e-35,-8.9223e-08,-2.5181e-18,-2.5396e-21,0.92499,0.0011889,-0.0010412,6.3076e-33,0.00025424,-51.757,-250.66,-90.875,-0.01371,-3.8684e-13,-3.9204e-16,182.52,-250.66,-90.875,-51.757,0,0.015597,0,1,2.01,0,-2.01,0
0,0,0,0,0,0,0.00025327,-0.0010385,7.1706e-35,-8.9828e-08,-2.4784e-18,-2.5547e-21,0.92379,0.0011856,-0.0010385,6.324e-33,0.00025327,-51.705,-250.05,-90.675,-0.013804,-3.8074e-13,-3.9437e-16,182.02,-250.05,-90.675,-51.705,0,0.015602,0,1,2.015,0,-2.015,0
0,0,0,0,0,0,0.00025231,-0.0010358,7.0907e-35,-8.9245e-08,-2.4287e-18,-2.5584e-21,0.92259,0.0011823,-0.0010358,6.3243e-33,0.00025231,-51.652,-249.44,-90.474,-0.013714,-3.731e-13,-3.9495e-16,181.51,-249.44,-90.474,-51.652,0,0.015607,0,1,2.02,0,-2.02,0
0,0,0,0,0,0,0.00025136,-0.0010331,6.9956e-35,-8.7475e-08,-2.3688e-18,-2.5509e-21,0.92139,0.0011791,-0.0010331,6.3086e-33,0.00025136,-51.597,-248.82,-90.272,-0.013442,-3.6391e-13,-3.9378e-16,181.01,-248.82,-90.272,-51.597,0,0.015612,0,1,2.025,0,-2.025,0
0,0,0,0,0,0,0.00025041,-0.0010304,6.8851e-35,-8.4517e-08,-2.2989e-18,-2.532e-21,0.92019,0.0011758,-0.0010304,6.2768e-33,0.00025041,-51.541,-248.2,-90.07,-0.012987,-3.5317e-13,-3.9086e-16,180.51,-248.2,-90.07,-51.541,0,0.015617,0,1,2.03,0,-2.03,0
0,0,0,0,0,0,0.00024946,-0.0010277,6.7595e-35,-8.037e-08,-2.2189e-18,-2.5018e-21,0.91899,0.0011725,-0.0010277,6.2289e-33,0.00024946,-51.484,-247.59,-89.867,-0.01235,-3.4088e-13,-3.8618e-16,180.01,-247.59,-89.867,-51.484,0,0.015622,0,1,2.035,0,-2.035,0
0,0,0,0,0,0,0.00024852,-0.001025,6.6185e-35,-7.5037e-08,-2.1289e-18,-2.4603e-21,0.91779,0.0011692,-0.001025,6.1649e-33,0.00024852,-51.425,-246.97,-89.663,-0.01153,-3.2704e-13,-3.7975e-16,179.51,-246.97,-89.663,-51.425,0,0.015628,0,1,2.04,0,-2.04,0
0,0,0,0,0,0,0.00024759,-0.0010223,6.4623e-35,-6.8515e-08,-2.0287e-18,-2.4074e-21,0.91659,0.001166,-0.0010223,6.0849e-33,0.00024759,-51.365,-246.35,-89.459,-0.010527,-3.1166e-13,-3.7157e-16,179.01,-246.35,-89.459,-51.365,0,0.015633,0,1,2.045,0,-2.045,0
0,0,0,0,0,0,0.00024665,-0.0010196,6.2909e-35,-6.0805e-08,-1.9185e-18,-2.3432e-21,0.91539,0.0011627,-0.0010196,5.9888e-33,0.00024665,-51.303,-245.73,-89.254,-0.0093419,-2.9473e-13,-3.6164e-16,178.51,-245.73,-89.254,-51.303,0,0.015638,0,1,2.05,0,-2.05,0
0,0,0,0,0,0,0.00024573,-0.0010169,6.1041e-35,-5.1908e-08,-1.7982e-18,-2.2678e-21,0.91419,0.0011594,-0.0010169,5.8766e-33,0.00024573,-51.24,-245.11,-89.049,-0.007974,-2.7624e-13,-3.4996e-16,178.01,-245.11,-89.049,-51.24,0,0.015643,0,1,2.055,0,-2.055,0
0,0,0,0,0,0,0.00024481,-0.0010142,5.9021e-35,-4.1823e-08,-1.6678e-18,-2.181e-21,0.91299,0.0011562,-0.0010142,5.7484e-33,0.00024481,-51.176,-244.49,-88.843,-0.0064235,-2.5622e-13,-3.3652e-16,177.51,-244.49,-88.843,-51.176,0,0.015648,0,1,2.06,0,-2.06,0
0,0,0,0,0,0,0.00024389,-0.0010115,5.6849e-35,-3.0549e-08,-1.5273e-18,-2.0828e-21,0.91179,0.0011529,-0.0010115,5.6041e-33,0.00024389,-51.11,-243.87,-88.636,-0.0046904,-2.3464e-13,-3.2133e-16,177.01,-243.87,-88.636,-51.11,0,0.015653,0,1,2.065,0,-2.065,0
0,0,0,0,0,0,0.00024298,-0.0010088,5.4524e-35,-1.8089e-08,-1.3768e-18,-1.9734e-21,0.91059,0.0011497,-0.0010088,5.4438e-33,0.00024298,-51.043,-243.25,-88.429,-0.0027747,-2.1151e-13,-3.0439e-16,176.51,-243.25,-88.429,-51.043,0,0.015658,0,1,2.07,0,-2.07,0
0,0,0,0,0,0,0.00024208,-0.0010061,5.2046e-35,-4.4398e-09,-1.2162e-18,-1.8526e-21,0.90939,0.0011464,-0.0010061,5.2673e-33,0.00024208,-50.975,-242.63,-88.221,-0.00067631,-1.8684e-13,-2.857e-16,176.01,-242.63,-88.221,-50.975,0,0.015663,0,1,2.075,0,-2.075,0
0,0,0,0,0,0,0.00024117,-0.0010034,4.9416e-35,1.0396e-08,-1.0455e-18,-1.7205e-21,0.90819,0.0011432,-0.0010034,5.0748e-33,0.00024117,-50.905,-242.01,-88.012,0.0016046,-1.6062e-13,-2.6525e-16,175.52,-242.01,-88.012,-50.905,0,0.015668,0,1,2.08,0,-2.08,0
0,0,0,0,0,0,0.00024028,-0.0010007,4.6632e-35,2.6421e-08,-8.6475e-19,-1.5771e-21,0.90699,0.00114,-0.0010007,4.8662e-33,0.00024028,-50.834,-241.38,-87.803,0.0040682,-1.3285e-13,-2.4305e-16,175.02,-241.38,-87.803,-50.834,0,0.015673,0,1,2.085,0,-2.085,0
0,0,0,0,0,0,0.00023939,-0.00099795,4.3697e-35,4.3633e-08,-6.7391e-19,-1.4223e-21,0.90579,0.0011367,-0.00099795,4.6416e-33,0.00023939,-50.761,-240.76,-87.593,0.0067144,-1.0353e-13,-2.191e-16,174.52,-240.76,-87.593,-50.761,0,0.015678,0,1,2.09,0,-2.09,0
0,0,0,0,0,0,0.0002385,-0.00099525,4.0608e-35,6.2033e-08,-4.7299e-19,-1.2563e-21,0.90458,0.0011335,-0.00099525,4.4009e-33,0.0002385,-50.687,-240.13,-87.383,0.0095433,-7.2664e-14,-1.934e-16,174.03,-240.13,-87.383,-50.687,0,0.015683,0,1,2.095,0,-2.095,0
0,0,0,0,0,0,0.00023762,-0.00099254,3.7368e-35,8.1621e-08,-2.62e-19,-1.0789e-21,0.90338,0.0011302,-0.00099254,4.1441e-33,0.00023762,-50.612,-239.51,-87.172,0.012555,-4.025e-14,-1.6594e-16,173.53,-239.51,-87.172,-50.612,0,0.015688,0,1,2.1,0,-2.1,0
0,0,0,0,0,0,0.00023674,-0.00098983,3.3974e-35,1.024e-07,-4.0918e-20,-8.902e-22,0.90218,0.001127,-0.00098983,3.8712e-33,0.00023674,-50.535,-238.88,-86.961,0.015749,-6.2871e-15,-1.3674e-16,173.04,-238.88,-86.961,-50.535,0,0.015693,0,1,2.105,0,-2.105,0
0,0,0,0,0,0,0.00023587,-0.00098713,3.0428e-35,1.2436e-07,1.9023e-19,-6.9018e-22,0.90098,0.0011238,-0.00098713,3.5823e-33,0.00023587,-50.457,-238.26,-86.748,0.019125,2.9223e-14,-1.0578e-16,172.54,-238.26,-86.748,-50.457,0,0.015698,0,1,2.11,0,-2.11,0
0,0,0,0,0,0,0.00023501,-0.00098442,2.6729e-35,1.4751e-07,4.3146e-19,-4.7883e-22,0.89978,0.0011206,-0.00098442,3.2773e-33,0.00023501,-50.377,-237.63,-86.536,0.022685,6.6282e-14,-7.3064e-17,172.05,-237.63,-86.536,-50.377,0,0.015703,0,1,2.115,0,-2.115,0
0,0,0,0,0,0,0.00023414,-0.00098171,2.2877e-35,1.7185e-07,6.8276e-19,-2.5617e-22,0.89858,0.0011173,-0.00098171,2.9563e-33,0.00023414,-50.297,-237,-86.322,0.026427,1.0489e-13,-3.8601e-17,171.55,-237,-86.322,-50.297,0,0.015708,0,1,2.12,0,-2.12,0
0,0,0,0,0,0,0.00023329,-0.000979,1.8873e-35,1.9738e-07,9.4415e-19,-2.2182e-23,0.89738,0.0011141,-0.000979,2.6191e-33,0.00023329,-50.214,-236.37,-86.108,0.030351,1.4504e-13,-2.3834e-18,171.06,-236.37,-86.108,-50.214,0,0.015713,0,1,2.125,0,-2.125,0
0,0,0,0,0,0,0.00023244,-0.00097629,1.4717e-35,2.2409e-07,1.2156e-18,2.2313e-22,0.89618,0.0011109,-0.00097629,2.2659e-33,0.00023244,-50.131,-235.74,-85.893,0.034459,1.8675e-13,3.5586e-17,170.57,-235.74,-85.893,-50.131,0,0.015718,0,1,2.13,0,-2.13,0
0,0,0,0,0,0,0.00023159,-0.00097379,1.7265e-35,2.3517e-07,1.5105e-18,3.7821e-22,0.89506,0.0011079,-0.00097379,2.7807e-33,0.00023159,-50.068,-235.17,-85.701,0.036161,2.3205e-13,5.9602e-17,170.1,-235.17,-85.701,-50.068,0,0.015723,0,1,2.135,0,-2.135,0
0,0,0,0,0,0,0.00023077,-0.00097167,3.2642e-35,2.1447e-07,1.8256e-18,3.4083e-22,0.89407,0.0011053,-0.00097167,4.9496e-33,0.00023077,-50.047,-234.7,-85.553,0.032979,2.8047e-13,5.3855e-17,169.7,-234.7,-85.553,-50.047,0,0.015727,0,1,2.14,0,-2.14,0
0,0,0,0,0,0,0.00022994,-0.00096956,4.737e-35,1.9451e-07,2.1274e-18,3.0487e-22,0.89309,0.0011027,-0.00096956,7.0341e-33,0.00022994,-50.026,-234.22,-85.404,0.02991,3.2685e-13,4.8324e-17,169.3,-234.22,-85.404,-50.026,0,0.015732,0,1,2.145,0,-2.145,0
0,0,0,0,0,0,0.00022912,-0.00096745,6.145e-35,1.7529e-07,2.416e-18,2.7031e-22,0.8921,0.0011001,-0.00096745,9.0342e-33,0.00022912,-50.003,-233.75,-85.255,0.026955,3.7119e-13,4.3008e-17,168.9,-233.75,-85.255,-50.003,0,0.015737,0,1,2.15,0,-2.15,0
0,0,0,0,0,0,0.0002283,-0.00096534,7.4882e-35,1.5681e-07,2.6914e-18,2.3717e-22,0.89112,0.0010974,-0.00096534,1.095e-32,0.0002283,-49.98,-233.28,-85.106,0.024114,4.135e-13,3.7908e-17,168.5,-233.28,-85.106,-49.98,0,0.015742,0,1,2.155,0,-2.155,0
0,0,0,0,0,0,0.00022749,-0.00096323,8.7667e-35,1.3907e-07,2.9535e-18,2.0543e-22,0.89013,0.0010948,-0.00096323,1.2781e-32,0.00022749,-49.955,-232.8,-84.956,0.021387,4.5377e-13,3.3024e-17,168.1,-232.8,-84.956,-49.955,0,0.015747,0,1,2.16,0,-2.16,0
0,0,0,0,0,0,0.00022667,-0.00096111,9.9803e-35,1.2207e-07,3.2023e-18,1.7511e-22,0.88915,0.0010922,-0.00096111,1.4528e-32,0.00022667,-49.93,-232.33,-84.806,0.018773,4.92e-13,2.8355e-17,167.71,-232.33,-84.806,-49.93,0,0.015752,0,1,2.165,0,-2.165,0
0,0,0,0,0,0,0.00022587,-0.000959,1.1129e-34,1.0581e-07,3.4378e-18,1.4619e-22,0.88816,0.0010896,-0.000959,1.619e-32,0.00022587,-49.903,-231.86,-84.655,0.016273,5.282e-13,2.3902e-17,167.31,-231.86,-84.655,-49.903,0,0.015756,0,1,2.17,0,-2.17,0
0,0,0,0,0,0,0.00022506,-0.00095689,1.2213e-34,9.0291e-08,3.6602e-18,1.1869e-22,0.88718,0.001087,-0.00095689,1.7768e-32,0.00022506,-49.875,-231.38,-84.503,0.013886,5.6236e-13,1.9665e-17,166.91,-231.38,-84.503,-49.875,0,0.015761,0,1,2.175,0,-2.175,0
0,0,0,0,0,0,0.00022426,-0.00095478,1.3232e-34,7.5508e-08,3.8692e-18,9.2591e-23,0.8862,0.0010844,-0.00095478,1.9261e-32,0.00022426,-49.847,-230.91,-84.352,0.011614,5.9448e-13,1.5643e-17,166.51,-230.91,-84.352,-49.847,0,0.015766,0,1,2.18,0,-2.18,0
0,0,0,0,0,0,0.00022347,-0.00095266,1.4187e-34,6.1466e-08,4.065e-18,6.7906e-23,0.88521,0.0010818,-0.00095266,2.067e-32,0.00022347,-49.817,-230.43,-84.2,0.0094545,6.2457e-13,1.1836e-17,166.11,-230.43,-84.2,-49.817,0,0.015771,0,1,2.185,0,-2.185,0
0,0,0,0,0,0,0.00022267,-0.00095055,1.5076e-34,4.8163e-08,4.2475e-18,4.463e-23,0.88423,0.0010793,-0.00095055,2.1995e-32,0.00022267,-49.787,-229.95,-84.047,0.0074092,6.5261e-13,8.2458e-18,165.71,-229.95,-84.047,-49.787,0,0.015775,0,1,2.19,0,-2.19,0
0,0,0,0,0,0,0.00022188,-0.00094843,1.5901e-34,3.5599e-08,4.4168e-18,2.2766e-23,0.88324,0.0010767,-0.00094843,2.3235e-32,0.00022188,-49.756,-229.48,-83.894,0.0054776,6.7863e-13,4.871e-18,165.32,-229.48,-83.894,-49.756,0,0.01578,0,1,2.195,0,-2.195,0
0,0,0,0,0,0,0.0002211,-0.00094632,1.6661e-34,2.3775e-08,4.5728e-18,2.3098e-24,0.88226,0.0010741,-0.00094632,2.4391e-32,0.0002211,-49.723,-229,-83.741,0.0036596,7.026e-13,1.7117e-18,164.92,-229,-83.741,-49.723,0,0.015785,0,1,2.2,0,-2.2,0
0,0,0,0,0,0,0.00022031,-0.00094421,1.7356e-34,1.2691e-08,4.7156e-18,-1.6735e-23,0.88127,0.0010715,-0.00094421,2.5462e-32,0.00022031,-49.69,-228.52,-83.587,0.0019554,7.2454e-13,-1.2319e-18,164.52,-228.52,-83.587,-49.69,0,0.01579,0,1,2.205,0,-2.205,0
0,0,0,0,0,0,0.00021953,-0.00094209,1.7987e-34,2.3457e-09,4.8451e-18,-3.4371e-23,0.88029,0.0010689,-0.00094209,2.6449e-32,0.00021953,-49.655,-228.04,-83.432,0.00036478,7.4444e-13,-3.9599e-18,164.13,-228.04,-83.432,-49.655,0,0.015794,0,1,2.21,0,-2.21,0
0,0,0,0,0,0,0.00021876,-0.00093998,1.8552e-34,-7.2595e-09,4.9614e-18,-5.0596e-23,0.8793,0.0010663,-0.00093998,2.7352e-32,0.00021876,-49.62,-227.57,-83.278,-0.001112,7.623e-13,-6.4722e-18,163.73,-227.57,-83.278,-49.62,0,0.015799,0,1,2.215,0,-2.215,0
0,0,0,0,0,0,0.00021799,-0.00093786,1.9053e-34,-1.6126e-08,5.0644e-18,-6.5412e-23,0.87832,0.0010637,-0.00093786,2.817e-32,0.00021799,-49.583,-227.09,-83.122,-0.0024752,7.7813e-13,-8.7689e-18,163.34,-227.09,-83.122,-49.583,0,0.015804,0,1,2.22,0,-2.22,0
0,0,0,0,0,0,0.00021722,-0.00093574,1.9489e-34,-2.4252e-08,5.1541e-18,-7.8817e-23,0.87733,0.0010612,-0.00093574,2.8903e-32,0.00021722,-49.546,-226.61,-82.967,-0.0037246,7.9191e-13,-1.085e-17,162.94,-226.61,-82.967,-49.546,0,0.015809,0,1,2.225,0,-2.225,0
0,0,0,0,0,0,0.00021645,-0.00093363,1.986e-34,-3.1639e-08,5.2306e-18,-9.0813e-23,0.87635,0.0010586,-0.00093363,2.9552e-32,0.00021645,-49.508,-226.13,-82.811,-0.0048604,8.0367e-13,-1.2715e-17,162.55,-226.13,-82.811,-49.508,0,0.015813,0,1,2.23,0,-2.23,0
0,0,0,0,0,0,0.00021569,-0.00093151,2.0166e-34,-3.8286e-08,5.2938e-18,-1.014e-22,0.87536,0.001056,-0.00093151,3.0117e-32,0.00021569,-49.468,-225.65,-82.654,-0.0058824,8.1338e-13,-1.4365e-17,162.15,-225.65,-82.654,-49.468,0,0.015818,0,1,2.235,0,-2.235,0
0,0,0,0,0,0,0.00021493,-0.0009294,2.0408e-34,-4.4194e-08,5.3438e-18,-1.1057e-22,0.87438,0.0010534,-0.0009294,3.0597e-32,0.00021493,-49.428,-225.16,-82.497,-0.0067908,8.2106e-13,-1.5799e-17,161.76,-225.16,-82.497,-49.428,0,0.015823,0,1,2.24,0,-2.24,0
0,0,0,0,0,0,0.00021418,-0.00092728,2.0585e-34,-4.9362e-08,5.3805e-18,-1.1834e-22,0.8734,0.0010509,-0.00092728,3.0993e-32,0.00021418,-49.387,-224.68,-82.34,-0.0075854,8.267e-13,-1.7018e-17,161.36,-224.68,-82.34,-49.387,0,0.015827,0,1,2.245,0,-2.245,0
0,0,0,0,0,0,0.00021343,-0.00092516,2.0697e-34,-5.3791e-08,5.4039e-18,-1.247e-22,0.87241,0.0010483,-0.00092516,3.1305e-32,0.00021343,-49.344,-224.2,-82.182,-0.0082664,8.303e-13,-1.802e-17,160.97,-224.2,-82.182,-49.344,0,0.015832,0,1,2.25,0,-2.25,0
0,0,0,0,0,0,0.00021268,-0.00092305,2.0744e-34,-5.7481e-08,5.4141e-18,-1.2964e-22,0.87143,0.0010457,-0.00092305,3.1532e-32,0.00021268,-49.301,-223.72,-82.024,-0.0088337,8.3187e-13,-1.8808e-17,160.58,-223.72,-82.024,-49.301,0,0.015836,0,1,2.255,0,-2.255,0
0,0,0,0,0,0,0.00021194,-0.00092093,2.0726e-34,-6.0431e-08,5.411e-18,-1.3318e-22,0.87044,0.0010432,-0.00092093,3.1674e-32,0.00021194,-49.257,-223.24,-81.865,-0.0092872,8.314e-13,-1.9379e-17,160.18,-223.24,-81.865,-49.257,0,0.015841,0,1,2.26,0,-2.26,0
0,0,0,0,0,0,0.0002112,-0.00091881,2.0644e-34,-6.2641e-08,5.3947e-18,-1.353e-22,0.86946,0.0010406,-0.00091881,3.1733e-32,0.0002112,-49.212,-222.75,-81.706,-0.0096271,8.2889e-13,-1.9735e-17,159.79,-222.75,-81.706,-49.212,0,0.015846,0,1,2.265,0,-2.265,0
0,0,0,0,0,0,0.00021046,-0.0009167,2.0496e-34,-6.4112e-08,5.3651e-18,-1.3602e-22,0.86847,0.0010381,-0.0009167,3.1706e-32,0.00021046,-49.165,-222.27,-81.546,-0.0098532,8.2435e-13,-1.9875e-17,159.4,-222.27,-81.546,-49.165,0,0.01585,0,1,2.27,0,-2.27,0
0,0,0,0,0,0,0.00020973,-0.00091458,2.0284e-34,-6.4843e-08,5.3223e-18,-1.3532e-22,0.86749,0.0010355,-0.00091458,3.1596e-32,0.00020973,-49.118,-221.78,-81.386,-0.0099657,8.1777e-13,-1.98e-17,159.01,-221.78,-81.386,-49.118,0,0.015855,0,1,2.275,0,-2.275,0
0,0,0,0,0,0,0.000209,-0.00091246,2.0007e-34,-6.4835e-08,5.2662e-18,-1.3322e-22,0.8665,0.0010329,-0.00091246,3.14e-32,0.000209,-49.07,-221.3,-81.226,-0.0099644,8.0915e-13,-1.9509e-17,158.61,-221.3,-81.226,-49.07,0,0.015859,0,1,2.28,0,-2.28,0
0,0,0,0,0,0,0.00020827,-0.00091034,1.9666e-34,-6.4087e-08,5.1968e-18,-1.2971e-22,0.86552,0.0010304,-0.00091034,3.1121e-32,0.00020827,-49.021,-220.81,-81.065,-0.0098495,7.9849e-13,-1.9002e-17,158.22,-220.81,-81.065,-49.021,0,0.015864,0,1,2.285,0,-2.285,0
0,0,0,0,0,0,0.00020755,-0.00090822,1.9259e-34,-6.26e-08,5.1142e-18,-1.2478e-22,0.86453,0.0010278,-0.00090822,3.0757e-32,0.00020755,-48.971,-220.33,-80.904,-0.0096208,7.858e-13,-1.828e-17,157.83,-220.33,-80.904,-48.971,0,0.015868,0,1,2.29,0,-2.29,0
0,0,0,0,0,0,0.00020683,-0.0009061,1.8788e-34,-6.0373e-08,5.0183e-18,-1.1845e-22,0.86355,0.0010253,-0.0009061,3.0308e-32,0.00020683,-48.919,-219.84,-80.742,-0.0092785,7.7107e-13,-1.7342e-17,157.44,-219.84,-80.742,-48.919,0,0.015873,0,1,2.295,0,-2.295,0
0,0,0,0,0,0,0.00020612,-0.00090398,1.8252e-34,-5.7407e-08,4.9092e-18,-1.107e-22,0.86257,0.0010227,-0.00090398,2.9776e-32,0.00020612,-48.867,-219.35,-80.58,-0.0088225,7.543e-13,-1.6188e-17,157.05,-219.35,-80.58,-48.867,0,0.015878,0,1,2.3,0,-2.3,0
0,0,0,0,0,0,0.00020541,-0.00090187,1.7651e-34,-5.3701e-08,4.7868e-18,-1.0155e-22,0.86158,0.0010202,-0.00090187,2.9158e-32,0.00020541,-48.814,-218.87,-80.417,-0.0082527,7.355e-13,-1.4819e-17,156.66,-218.87,-80.417,-48.814,0,0.015882,0,1,2.305,0,-2.305,0
0,0,0,0,0,0,0.0002047,-0.00089975,1.6985e-34,-4.9255e-08,4.6512e-18,-9.0987e-23,0.8606,0.0010177,-0.00089975,2.8457e-32,0.0002047,-48.76,-218.38,-80.254,-0.0075693,7.1466e-13,-1.3234e-17,156.27,-218.38,-80.254,-48.76,0,0.015887,0,1,2.31,0,-2.31,0
0,0,0,0,0,0,0.00020399,-0.00089763,1.6255e-34,-4.407e-08,4.5023e-18,-7.9013e-23,0.85961,0.0010151,-0.00089763,2.767e-32,0.00020399,-48.705,-217.89,-80.09,-0.0067721,6.9178e-13,-1.1433e-17,155.88,-217.89,-80.09,-48.705,0,0.015891,0,1,2.315,0,-2.315,0
0,0,0,0,0,0,0.00020329,-0.00089551,1.5459e-34,-3.8146e-08,4.3401e-18,-6.5629e-23,0.85863,0.0010126,-0.00089551,2.68e-32,0.00020329,-48.649,-217.4,-79.926,-0.0058613,6.6686e-13,-9.4169e-18,155.49,-217.4,-79.926,-48.649,0,0.015896,0,1,2.32,0,-2.32,0
0,0,0,0,0,0,0.00020259,-0.00089339,1.4599e-34,-3.1482e-08,4.1647e-18,-5.0835e-23,0.85764,0.00101,-0.00089339,2.5845e-32,0.00020259,-48.592,-216.91,-79.762,-0.0048367,6.3991e-13,-7.185e-18,155.1,-216.91,-79.762,-48.592,0,0.0159,0,1,2.325,0,-2.325,0
0,0,0,0,0,0,0.0002019,-0.00089127,1.3674e-34,-2.4079e-08,3.976e-18,-3.4632e-23,0.85666,0.0010075,-0.00089127,2.4805e-32,0.0002019,-48.534,-216.42,-79.597,-0.0036985,6.1092e-13,-4.7376e-18,154.71,-216.42,-79.597,-48.534,0,0.015904,0,1,2.33,0,-2.33,0
0,0,0,0,0,0,0.00020121,-0.00088915,1.2685e-34,-1.5936e-08,3.7741e-18,-1.7017e-23,0.85567,0.001005,-0.00088915,2.3681e-32,0.00020121,-48.474,-215.93,-79.432,-0.0024466,5.799e-13,-2.0743e-18,154.33,-215.93,-79.432,-48.474,0,0.015909,0,1,2.335,0,-2.335,0
0,0,0,0,0,0,0.00020052,-0.00088702,1.163e-34,-7.0536e-09,3.5589e-18,2.0057e-24,0.85469,0.0010024,-0.00088702,2.2473e-32,0.00020052,-48.414,-215.44,-79.266,-0.001081,5.4683e-13,8.0441e-19,153.94,-215.44,-79.266,-48.414,0,0.015913,0,1,2.34,0,-2.34,0
0,0,0,0,0,0,0.00019984,-0.0008849,1.0511e-34,2.5686e-09,3.3304e-18,2.244e-23,0.8537,0.00099991,-0.0008849,2.118e-32,0.00019984,-48.353,-214.95,-79.1,0.00039841,5.1173e-13,3.8989e-18,153.55,-214.95,-79.1,-48.353,0,0.015918,0,1,2.345,0,-2.345,0
0,0,0,0,0,0,0.00019916,-0.00088278,9.3265e-35,1.293e-08,3.0887e-18,4.4283e-23,0.85272,0.00099739,-0.00088278,1.9803e-32,0.00019916,-48.291,-214.46,-78.933,0.0019914,4.746e-13,7.209e-18,153.16,-214.46,-78.933,-48.291,0,0.015922,0,1,2.35,0,-2.35,0
0,0,0,0,0,0,0.00019849,-0.00088066,8.0775e-35,2.4031e-08,2.8338e-18,6.7537e-23,0.85173,0.00099486,-0.00088066,1.8342e-32,0.00019849,-48.228,-213.97,-78.766,0.0036982,4.3542e-13,1.0735e-17,152.78,-213.97,-78.766,-48.228,0,0.015927,0,1,2.355,0,-2.355,0
0,0,0,0,0,0,0.00019781,-0.00087854,6.7638e-35,3.5871e-08,2.5656e-18,9.22e-23,0.85075,0.00099234,-0.00087854,1.6796e-32,0.00019781,-48.164,-213.47,-78.599,0.0055186,3.9421e-13,1.4476e-17,152.39,-213.47,-78.599,-48.164,0,0.015931,0,1,2.36,0,-2.36,0
0,0,0,0,0,0,0.00019714,-0.00087642,5.3852e-35,4.8451e-08,2.2841e-18,1.1827e-22,0.84977,0.00098982,-0.00087642,1.5165e-32,0.00019714,-48.099,-212.98,-78.431,0.0074527,3.5096e-13,1.8433e-17,152,-212.98,-78.431,-48.099,0,0.015935,0,1,2.365,0,-2.365,0
0,0,0,0,0,0,0.00019648,-0.00087429,3.9419e-35,6.1771e-08,1.9893e-18,1.4576e-22,0.84878,0.00098731,-0.00087429,1.345e-32,0.00019648,-48.033,-212.49,-78.263,0.0095005,3.0568e-13,2.2606e-17,151.62,-212.49,-78.263,-48.033,0,0.01594,0,1,2.37,0,-2.37,0
0,0,0,0,0,0,0.00019582,-0.00087217,2.4337e-35,7.583e-08,1.6813e-18,1.7465e-22,0.8478,0.00098479,-0.00087217,1.1651e-32,0.00019582,-47.967,-211.99,-78.094,0.011662,2.5835e-13,2.6994e-17,151.23,-211.99,-78.094,-47.967,0,0.015944,0,1,2.375,0,-2.375,0
0,0,0,0,0,0,0.00019516,-0.00087005,8.6064e-36,9.0629e-08,1.3601e-18,2.0495e-22,0.84681,0.00098228,-0.00087005,9.7671e-33,0.00019516,-47.899,-211.5,-77.925,0.013937,2.0899e-13,3.1598e-17,150.85,-211.5,-77.925,-47.899,0,0.015949,0,1,2.38,0,-2.38,0
0,0,0,0,0,0,0.0001945,-0.00086793,-7.7712e-36,1.0617e-07,1.0256e-18,2.3667e-22,0.84583,0.00097977,-0.00086793,7.799e-33,0.0001945,-47.83,-211,-77.755,0.016326,1.576e-13,3.6418e-17,150.46,-211,-77.755,-47.83,0,0.015953,0,1,2.385,0,-2.385,0
0,0,0,0,0,0,0.00019385,-0.0008658,-2.4798e-35,1.2244e-07,6.7781e-19,2.6979e-22,0.84484,0.00097726,-0.0008658,5.7463e-33,0.00019385,-47.76,-210.51,-77.585,0.018829,1.0416e-13,4.1453e-17,150.08,-210.51,-77.585,-47.76,0,0.015957,0,1,2.39,0,-2.39,0
0,0,0,0,0,0,0.00019321,-0.00086368,-4.2471e-35,1.3946e-07,3.1679e-19,3.0432e-22,0.84386,0.00097475,-0.00086368,3.6093e-33,0.00019321,-47.689,-210.01,-77.414,0.021445,4.8692e-14,4.6704e-17,149.69,-210.01,-77.414,-47.689,0,0.015962,0,1,2.395,0,-2.395,0
0,0,0,0,0,0,0.00019256,-0.00086155,-6.0794e-35,1.5722e-07,-5.7499e-20,3.4027e-22,0.84287,0.00097224,-0.00086155,1.3878e-33,0.00019256,-47.617,-209.52,-77.243,0.024175,-8.8169e-15,5.2171e-17,149.31,-209.52,-77.243,-47.617,0,0.015966,0,1,2.4,0,-2.4,0
0,0,0,0,0,0,0.00019192,-0.00085961,-6.2848e-35,1.6242e-07,-3.9855e-19,3.6211e-22,0.84196,0.00096992,-0.00085961,7.1394e-34,0.00019192,-47.564,-209.07,-77.092,0.024975,-6.1223e-14,5.5496e-17,148.95,-209.07,-77.092,-47.564,0,0.01597,0,1,2.405,0,-2.405,0
0,0,0,0,0,0,0.0001913,-0.00085793,-4.0678e-35,1.4857e-07,-6.6854e-19,3.6116e-22,0.84115,0.00096787,-0.00085793,2.3811e-33,0.0001913,-47.54,-208.69,-76.971,0.022845,-1.0271e-13,5.5355e-17,148.64,-208.69,-76.971,-47.54,0,0.015974,0,1,2.41,0,-2.41,0
0,0,0,0,0,0,0.00019067,-0.00085626,-1.9278e-35,1.3519e-07,-9.2931e-19,3.5973e-22,0.84033,0.00096581,-0.00085626,3.9887e-33,0.00019067,-47.515,-208.31,-76.85,0.020788,-1.4279e-13,5.514e-17,148.32,-208.31,-76.85,-47.515,0,0.015979,0,1,2.415,0,-2.415,0
0,0,0,0,0,0,0.00019005,-0.00085458,1.3537e-36,1.2228e-07,-1.1809e-18,3.5782e-22,0.83952,0.00096376,-0.00085458,5.5371e-33,0.00019005,-47.489,-207.93,-76.728,0.018803,-1.8145e-13,5.4851e-17,148.01,-207.93,-76.728,-47.489,0,0.015983,0,1,2.42,0,-2.42,0
0,0,0,0,0,0,0.00018942,-0.0008529,2.1216e-35,1.0984e-07,-1.4233e-18,3.5543e-22,0.83871,0.00096171,-0.0008529,7.0261e-33,0.00018942,-47.462,-207.55,-76.606,0.016891,-2.187e-13,5.4488e-17,147.69,-207.55,-76.606,-47.462,0,0.015987,0,1,2.425,0,-2.425,0
0,0,0,0,0,0,0.00018881,-0.00085122,4.0311e-35,9.7881e-08,-1.6564e-18,3.5256e-22,0.83789,0.00095966,-0.00085122,8.4557e-33,0.00018881,-47.435,-207.17,-76.483,0.015052,-2.5453e-13,5.405e-17,147.38,-207.17,-76.483,-47.435,0,0.015992,0,1,2.43,0,-2.43,0
0,0,0,0,0,0,0.00018819,-0.00084954,5.8636e-35,8.6391e-08,-1.8804e-18,3.4921e-22,0.83708,0.00095761,-0.00084954,9.8259e-33,0.00018819,-47.407,-206.79,-76.361,0.013285,-2.8895e-13,5.3539e-17,147.06,-206.79,-76.361,-47.407,0,0.015996,0,1,2.435,0,-2.435,0
0,0,0,0,0,0,0.00018758,-0.00084787,7.6193e-35,7.5374e-08,-2.0951e-18,3.4538e-22,0.83627,0.00095556,-0.00084787,1.1137e-32,0.00018758,-47.378,-206.41,-76.237,0.011591,-3.2195e-13,5.2953e-17,146.75,-206.41,-76.237,-47.378,0,0.016,0,1,2.44,0,-2.44,0
0,0,0,0,0,0,0.00018697,-0.00084619,9.2981e-35,6.483e-08,-2.3007e-18,3.4107e-22,0.83546,0.00095352,-0.00084619,1.2388e-32,0.00018697,-47.349,-206.03,-76.114,0.0099701,-3.5354e-13,5.2293e-17,146.44,-206.03,-76.114,-47.349,0,0.016004,0,1,2.445,0,-2.445,0
0,0,0,0,0,0,0.00018636,-0.00084451,1.09e-34,5.4758e-08,-2.4971e-18,3.3629e-22,0.83464,0.00095148,-0.00084451,1.358e-32,0.00018636,-47.319,-205.65,-75.99,0.0084215,-3.8372e-13,5.1558e-17,146.12,-205.65,-75.99,-47.319,0,0.016009,0,1,2.45,0,-2.45,0
0,0,0,0,0,0,0.00018575,-0.00084283,1.2425e-34,4.5159e-08,-2.6842e-18,3.3102e-22,0.83383,0.00094943,-0.00084283,1.4713e-32,0.00018575,-47.288,-205.27,-75.866,0.0069457,-4.1248e-13,5.075e-17,145.81,-205.27,-75.866,-47.288,0,0.016013,0,1,2.455,0,-2.455,0
0,0,0,0,0,0,0.00018515,-0.00084115,1.3873e-34,3.6033e-08,-2.8621e-18,3.2527e-22,0.83302,0.00094739,-0.00084115,1.5787e-32,0.00018515,-47.256,-204.89,-75.742,0.0055425,-4.3982e-13,4.9867e-17,145.5,-204.89,-75.742,-47.256,0,0.016017,0,1,2.46,0,-2.46,0
0,0,0,0,0,0,0.00018455,-0.00083947,1.5245e-34,2.738e-08,-3.0309e-18,3.1904e-22,0.8322,0.00094536,-0.00083947,1.6801e-32,0.00018455,-47.224,-204.51,-75.617,0.004212,-4.6575e-13,4.891e-17,145.18,-204.51,-75.617,-47.224,0,0.016021,0,1,2.465,0,-2.465,0
0,0,0,0,0,0,0.00018395,-0.00083779,1.6539e-34,1.9199e-08,-3.1904e-18,3.1233e-22,0.83139,0.00094332,-0.00083779,1.7755e-32,0.00018395,-47.191,-204.13,-75.492,0.0029542,-4.9027e-13,4.7879e-17,144.87,-204.13,-75.492,-47.191,0,0.016025,0,1,2.47,0,-2.47,0
0,0,0,0,0,0,0.00018336,-0.00083611,1.7757e-34,1.1492e-08,-3.3407e-18,3.0514e-22,0.83058,0.00094128,-0.00083611,1.8651e-32,0.00018336,-47.157,-203.74,-75.367,0.0017692,-5.1337e-13,4.6774e-17,144.56,-203.74,-75.367,-47.157,0,0.01603,0,1,2.475,0,-2.475,0
0,0,0,0,0,0,0.00018276,-0.00083443,1.8897e-34,4.2563e-09,-3.4819e-18,2.9747e-22,0.82977,0.00093925,-0.00083443,1.9487e-32,0.00018276,-47.123,-203.36,-75.241,0.00065671,-5.3506e-13,4.5594e-17,144.25,-203.36,-75.241,-47.123,0,0.016034,0,1,2.48,0,-2.48,0
0,0,0,0,0,0,0.00018217,-0.00083275,1.9961e-34,-2.5057e-09,-3.6138e-18,2.8933e-22,0.82895,0.00093721,-0.00083275,2.0263e-32,0.00018217,-47.088,-202.98,-75.116,-0.00038298,-5.5534e-13,4.434e-17,143.94,-202.98,-75.116,-47.088,0,0.016038,0,1,2.485,0,-2.485,0
0,0,0,0,0,0,0.00018159,-0.00083107,2.0948e-34,-8.7953e-09,-3.7365e-18,2.807e-22,0.82814,0.00093518,-0.00083107,2.098e-32,0.00018159,-47.052,-202.59,-74.989,-0.00135,-5.742e-13,4.3012e-17,143.62,-202.59,-74.989,-47.052,0,0.016042,0,1,2.49,0,-2.49,0
0,0,0,0,0,0,0.000181,-0.00082939,2.1858e-34,-1.4612e-08,-3.85e-18,2.7159e-22,0.82733,0.00093315,-0.00082939,2.1638e-32,0.000181,-47.015,-202.21,-74.863,-0.0022444,-5.9164e-13,4.161e-17,143.31,-202.21,-74.863,-47.015,0,0.016046,0,1,2.495,0,-2.495,0
0,0,0,0,0,0,0.00018042,-0.00082771,2.2692e-34,-1.9956e-08,-3.9543e-18,2.62e-22,0.82651,0.00093113,-0.00082771,2.2237e-32,0.00018042,-46.978,-201.82,-74.736,-0.003066,-6.0767e-13,4.0134e-17,143,-201.82,-74.736,-46.978,0,0.01605,0,1,2.5,0,-2.5,0
0,0,0,0,0,0,0.00017984,-0.00082603,2.3448e-34,-2.4827e-08,-4.0494e-18,2.5194e-22,0.8257,0.0009291,-0.00082603,2.2776e-32,0.00017984,-46.94,-201.44,-74.609,-0.003815,-6.2229e-13,3.8583e-17,142.69,-201.44,-74.609,-46.94,0,0.016054,0,1,2.505,0,-2.505,0
0,0,0,0,0,0,0.00017926,-0.00082435,2.4127e-34,-2.9225e-08,-4.1353e-18,2.4139e-22,0.82489,0.00092707,-0.00082435,2.3255e-32,0.00017926,-46.901,-201.05,-74.481,-0.0044913,-6.3549e-13,3.6958e-17,142.38,-201.05,-74.481,-46.901,0,0.016059,0,1,2.51,0,-2.51,0
0,0,0,0,0,0,0.00017869,-0.00082267,2.473e-34,-3.3151e-08,-4.212e-18,2.3036e-22,0.82408,0.00092505,-0.00082267,2.3676e-32,0.00017869,-46.862,-200.67,-74.353,-0.0050949,-6.4728e-13,3.5259e-17,142.07,-200.67,-74.353,-46.862,0,0.016063,0,1,2.515,0,-2.515,0
0,0,0,0,0,0,0.00017812,-0.00082099,2.5256e-34,-3.6604e-08,-4.2795e-18,2.1886e-22,0.82326,0.00092303,-0.00082099,2.4037e-32,0.00017812,-46.822,-200.28,-74.225,-0.0056257,-6.5765e-13,3.3486e-17,141.76,-200.28,-74.225,-46.822,0,0.016067,0,1,2.52,0,-2.52,0
0,0,0,0,0,0,0.00017755,-0.00081931,2.5705e-34,-3.9584e-08,-4.3378e-18,2.0687e-22,0.82245,0.00092101,-0.00081931,2.4338e-32,0.00017755,-46.781,-199.9,-74.097,-0.006084,-6.6661e-13,3.1638e-17,141.45,-199.9,-74.097,-46.781,0,0.016071,0,1,2.525,0,-2.525,0
0,0,0,0,0,0,0.00017698,-0.00081763,2.6077e-34,-4.2091e-08,-4.3869e-18,1.944e-22,0.82164,0.00091899,-0.00081763,2.4581e-32,0.00017698,-46.739,-199.51,-73.968,-0.0064695,-6.7415e-13,2.9717e-17,141.14,-199.51,-73.968,-46.739,0,0.016075,0,1,2.53,0,-2.53,0
0,0,0,0,0,0,0.00017642,-0.00081594,2.6372e-34,-4.4126e-08,-4.4268e-18,1.8146e-22,0.82082,0.00091697,-0.00081594,2.4763e-32,0.00017642,-46.697,-199.12,-73.839,-0.0067823,-6.8028e-13,2.7721e-17,140.83,-199.12,-73.839,-46.697,0,0.016079,0,1,2.535,0,-2.535,0
0,0,0,0,0,0,0.00017585,-0.00081426,2.659e-34,-4.5687e-08,-4.4575e-18,1.6803e-22,0.82001,0.00091495,-0.00081426,2.4887e-32,0.00017585,-46.654,-198.74,-73.709,-0.0070224,-6.8499e-13,2.5651e-17,140.52,-198.74,-73.709,-46.654,0,0.016083,0,1,2.54,0,-2.54,0
0,0,0,0,0,0,0.0001753,-0.00081258,2.6732e-34,-4.6776e-08,-4.4789e-18,1.5412e-22,0.8192,0.00091294,-0.00081258,2.4951e-32,0.0001753,-46.61,-198.35,-73.58,-0.0071899,-6.883e-13,2.3506e-17,140.21,-198.35,-73.58,-46.61,0,0.016087,0,1,2.545,0,-2.545,0
0,0,0,0,0,0,0.00017474,-0.0008109,2.6796e-34,-4.7393e-08,-4.4912e-18,1.3974e-22,0.81839,0.00091093,-0.0008109,2.4956e-32,0.00017474,-46.566,-197.96,-73.45,-0.0072846,-6.9018e-13,2.1288e-17,139.9,-197.96,-73.45,-46.566,0,0.016091,0,1,2.55,0,-2.55,0
0,0,0,0,0,0,0.00017419,-0.00080922,2.6784e-34,-4.7536e-08,-4.4943e-18,1.2487e-22,0.81757,0.00090891,-0.00080922,2.4901e-32,0.00017419,-46.521,-197.57,-73.319,-0.0073067,-6.9065e-13,1.8995e-17,139.6,-197.57,-73.319,-46.521,0,0.016095,0,1,2.555,0,-2.555,0
0,0,0,0,0,0,0.00017363,-0.00080753,2.6695e-34,-4.7207e-08,-4.4881e-18,1.0953e-22,0.81676,0.0009069,-0.00080753,2.4787e-32,0.00017363,-46.475,-197.18,-73.189,-0.007256,-6.8971e-13,1.6628e-17,139.29,-197.18,-73.189,-46.475,0,0.016099,0,1,2.56,0,-2.56,0
0,0,0,0,0,0,0.00017309,-0.00080585,2.6528e-34,-4.6404e-08,-4.4728e-18,9.3698e-23,0.81595,0.00090489,-0.00080585,2.4614e-32,0.00017309,-46.428,-196.8,-73.058,-0.0071327,-6.8735e-13,1.4186e-17,138.98,-196.8,-73.058,-46.428,0,0.016103,0,1,2.565,0,-2.565,0
0,0,0,0,0,0,0.00017254,-0.00080417,2.6285e-34,-4.5129e-08,-4.4482e-18,7.7392e-23,0.81513,0.00090289,-0.00080417,2.4381e-32,0.00017254,-46.381,-196.41,-72.926,-0.0069366,-6.8358e-13,1.1671e-17,138.67,-196.41,-72.926,-46.381,0,0.016107,0,1,2.57,0,-2.57,0
0,0,0,0,0,0,0.000172,-0.00080249,2.5966e-34,-4.3381e-08,-4.4145e-18,6.0606e-23,0.81432,0.00090088,-0.00080249,2.4089e-32,0.000172,-46.333,-196.02,-72.795,-0.0066679,-6.7839e-13,9.0811e-18,138.36,-196.02,-72.795,-46.333,0,0.016112,0,1,2.575,0,-2.575,0
0,0,0,0,0,0,0.00017146,-0.0008008,2.5569e-34,-4.1161e-08,-4.3715e-18,4.334e-23,0.81351,0.00089888,-0.0008008,2.3738e-32,0.00017146,-46.284,-195.63,-72.663,-0.0063265,-6.7179e-13,6.4171e-18,138.06,-195.63,-72.663,-46.284,0,0.016116,0,1,2.58,0,-2.58,0
0,0,0,0,0,0,0.00017092,-0.00079912,2.5095e-34,-3.8467e-08,-4.3194e-18,2.5593e-23,0.8127,0.00089687,-0.00079912,2.3327e-32,0.00017092,-46.235,-195.24,-72.53,-0.0059123,-6.6377e-13,3.6789e-18,137.75,-195.24,-72.53,-46.235,0,0.01612,0,1,2.585,0,-2.585,0
0,0,0,0,0,0,0.00017038,-0.00079744,2.4545e-34,-3.5301e-08,-4.258e-18,7.3678e-24,0.81188,0.00089487,-0.00079744,2.2856e-32,0.00017038,-46.185,-194.85,-72.398,-0.0054255,-6.5434e-13,8.6648e-19,137.44,-194.85,-72.398,-46.185,0,0.016124,0,1,2.59,0,-2.59,0
0,0,0,0,0,0,0.00016985,-0.00079575,2.3917e-34,-3.1661e-08,-4.1874e-18,-1.1339e-23,0.81107,0.00089287,-0.00079575,2.2327e-32,0.00016985,-46.134,-194.46,-72.265,-0.0048659,-6.435e-13,-2.0202e-18,137.14,-194.46,-72.265,-46.134,0,0.016127,0,1,2.595,0,-2.595,0
0,0,0,0,0,0,0.00016932,-0.00079407,2.3213e-34,-2.7549e-08,-4.1076e-18,-3.0524e-23,0.81026,0.00089088,-0.00079407,2.1738e-32,0.00016932,-46.082,-194.06,-72.132,-0.0042337,-6.3124e-13,-4.9811e-18,136.83,-194.06,-72.132,-46.082,0,0.016131,0,1,2.6,0,-2.6,0
0,0,0,0,0,0,0.00016879,-0.00079238,2.2432e-34,-2.2964e-08,-4.0186e-18,-5.019e-23,0.80944,0.00088888,-0.00079238,2.1089e-32,0.00016879,-46.03,-193.67,-71.998,-0.0035287,-6.1756e-13,-8.0162e-18,136.52,-193.67,-71.998,-46.03,0,0.016135,0,1,2.605,0,-2.605,0
0,0,0,0,0,0,0.00016826,-0.0007907,2.1574e-34,-1.7906e-08,-3.9204e-18,-7.0335e-23,0.80863,0.00088688,-0.0007907,2.0382e-32,0.00016826,-45.977,-193.28,-71.864,-0.0027511,-6.0247e-13,-1.1125e-17,136.22,-193.28,-71.864,-45.977,0,0.016139,0,1,2.61,0,-2.61,0
0,0,0,0,0,0,0.00016774,-0.00078902,2.0639e-34,-1.2376e-08,-3.813e-18,-9.0961e-23,0.80782,0.00088489,-0.00078902,1.9615e-32,0.00016774,-45.923,-192.89,-71.73,-0.0019007,-5.8597e-13,-1.4309e-17,135.91,-192.89,-71.73,-45.923,0,0.016143,0,1,2.615,0,-2.615,0
0,0,0,0,0,0,0.00016722,-0.00078733,1.9627e-34,-6.3723e-09,-3.6964e-18,-1.1207e-22,0.80701,0.0008829,-0.00078733,1.8788e-32,0.00016722,-45.869,-192.5,-71.596,-0.00097771,-5.6805e-13,-1.7567e-17,135.61,-192.5,-71.596,-45.869,0,0.016147,0,1,2.62,0,-2.62,0
0,0,0,0,0,0,0.0001667,-0.00078565,1.8538e-34,1.0412e-10,-3.5706e-18,-1.3365e-22,0.80619,0.00088091,-0.00078565,1.7902e-32,0.0001667,-45.814,-192.1,-71.461,1.8054e-05,-5.4872e-13,-2.0899e-17,135.3,-192.1,-71.461,-45.814,0,0.016151,0,1,2.625,0,-2.625,0
0,0,0,0,0,0,0.00016619,-0.00078396,1.7373e-34,7.0534e-09,-3.4356e-18,-1.5572e-22,0.80538,0.00087892,-0.00078396,1.6957e-32,0.00016619,-45.758,-191.71,-71.326,0.0010865,-5.2797e-13,-2.4305e-17,135,-191.71,-71.326,-45.758,0,0.016155,0,1,2.63,0,-2.63,0
0,0,0,0,0,0,0.00016568,-0.00078228,1.613e-34,1.4475e-08,-3.2914e-18,-1.7826e-22,0.80457,0.00087693,-0.00078228,1.5952e-32,0.00016568,-45.701,-191.32,-71.19,0.0022276,-5.0581e-13,-2.7785e-17,134.69,-191.32,-71.19,-45.701,0,0.016159,0,1,2.635,0,-2.635,0
0,0,0,0,0,0,0.00016517,-0.00078059,1.4811e-34,2.237e-08,-3.138e-18,-2.0129e-22,0.80375,0.00087494,-0.00078059,1.4888e-32,0.00016517,-45.644,-190.92,-71.054,0.0034415,-4.8223e-13,-3.134e-17,134.39,-190.92,-71.054,-45.644,0,0.016163,0,1,2.64,0,-2.64,0
0,0,0,0,0,0,0.00016466,-0.00077891,1.3415e-34,3.0738e-08,-2.9753e-18,-2.2479e-22,0.80294,0.00087296,-0.00077891,1.3765e-32,0.00016466,-45.586,-190.53,-70.918,0.004728,-4.5724e-13,-3.4969e-17,134.08,-190.53,-70.918,-45.586,0,0.016167,0,1,2.645,0,-2.645,0
0,0,0,0,0,0,0.00016415,-0.00077722,1.1942e-34,3.9578e-08,-2.8035e-18,-2.4878e-22,0.80213,0.00087098,-0.00077722,1.2582e-32,0.00016415,-45.527,-190.13,-70.782,0.0060873,-4.3083e-13,-3.8672e-17,133.78,-190.13,-70.782,-45.527,0,0.016171,0,1,2.65,0,-2.65,0
0,0,0,0,0,0,0.00016365,-0.00077554,1.0392e-34,4.8891e-08,-2.6225e-18,-2.7324e-22,0.80132,0.000869,-0.00077554,1.134e-32,0.00016365,-45.468,-189.74,-70.645,0.0075192,-4.0301e-13,-4.2449e-17,133.47,-189.74,-70.645,-45.468,0,0.016175,0,1,2.655,0,-2.655,0
0,0,0,0,0,0,0.00016315,-0.00077385,8.7648e-35,5.8678e-08,-2.4322e-18,-2.9819e-22,0.8005,0.00086702,-0.00077385,1.0038e-32,0.00016315,-45.407,-189.34,-70.508,0.0090239,-3.7377e-13,-4.6301e-17,133.17,-189.34,-70.508,-45.407,0,0.016178,0,1,2.66,0,-2.66,0
0,0,0,0,0,0,0.00016265,-0.00077216,7.0611e-35,6.8937e-08,-2.2328e-18,-3.2361e-22,0.79969,0.00086504,-0.00077216,8.6776e-33,0.00016265,-45.347,-188.95,-70.371,0.010601,-3.4312e-13,-5.0227e-17,132.87,-188.95,-70.371,-45.347,0,0.016182,0,1,2.665,0,-2.665,0
0,0,0,0,0,0,0.00016216,-0.00077048,5.2804e-35,7.9669e-08,-2.0241e-18,-3.4952e-22,0.79888,0.00086306,-0.00077048,7.2573e-33,0.00016216,-45.285,-188.55,-70.233,0.012251,-3.1106e-13,-5.4227e-17,132.56,-188.55,-70.233,-45.285,0,0.016186,0,1,2.67,0,-2.67,0
0,0,0,0,0,0,0.00016167,-0.00076879,3.4229e-35,9.0873e-08,-1.8062e-18,-3.759e-22,0.79806,0.00086108,-0.00076879,5.7777e-33,0.00016167,-45.223,-188.15,-70.095,0.013974,-2.7758e-13,-5.8301e-17,132.26,-188.15,-70.095,-45.223,0,0.01619,0,1,2.675,0,-2.675,0
0,0,0,0,0,0,0.00016118,-0.00076711,1.4885e-35,1.0255e-07,-1.5792e-18,-4.0276e-22,0.79725,0.00085911,-0.00076711,4.2386e-33,0.00016118,-45.16,-187.76,-69.957,0.015769,-2.4268e-13,-6.2449e-17,131.96,-187.76,-69.957,-45.16,0,0.016194,0,1,2.68,0,-2.68,0
0,0,0,0,0,0,0.00016069,-0.00076542,-5.2271e-36,1.147e-07,-1.3429e-18,-4.3011e-22,0.79644,0.00085714,-0.00076542,2.6403e-33,0.00016069,-45.096,-187.36,-69.818,0.017638,-2.0638e-13,-6.6672e-17,131.65,-187.36,-69.818,-45.096,0,0.016198,0,1,2.685,0,-2.685,0
0,0,0,0,0,0,0.00016021,-0.00076395,-1.258e-35,1.1304e-07,-1.3034e-18,-4.2782e-22,0.79571,0.00085538,-0.00076395,2.2998e-33,0.00016021,-45.055,-187.02,-69.704,0.017382,-2.003e-13,-6.635e-17,131.38,-187.02,-69.704,-45.055,0,0.016202,0,1,2.69,0,-2.69,0
0,0,0,0,0,0,0.00015974,-0.0007626,-1.2389e-35,1.0361e-07,-1.377e-18,-4.0879e-22,0.79504,0.00085375,-0.0007626,2.6857e-33,0.00015974,-45.028,-186.71,-69.603,0.015932,-2.1162e-13,-6.3461e-17,131.13,-186.71,-69.603,-45.028,0,0.016205,0,1,2.695,0,-2.695,0
0,0,0,0,0,0,0.00015926,-0.00076125,-1.219e-35,9.4491e-08,-1.4483e-18,-3.9009e-22,0.79436,0.00085212,-0.00076125,3.0589e-33,0.00015926,-45,-186.4,-69.502,0.01453,-2.2257e-13,-6.0621e-17,130.88,-186.4,-69.502,-45,0,0.016209,0,1,2.7,0,-2.7,0
0,0,0,0,0,0,0.00015879,-0.0007599,-1.1983e-35,8.5682e-08,-1.5171e-18,-3.717e-22,0.79369,0.00085049,-0.0007599,3.4194e-33,0.00015879,-44.972,-186.1,-69.401,0.013176,-2.3315e-13,-5.7829e-17,130.63,-186.1,-69.401,-44.972,0,0.016213,0,1,2.705,0,-2.705,0
0,0,0,0,0,0,0.00015832,-0.00075856,-1.1767e-35,7.7182e-08,-1.5835e-18,-3.5365e-22,0.79302,0.00084886,-0.00075856,3.7672e-33,0.00015832,-44.943,-185.79,-69.3,0.011869,-2.4336e-13,-5.5086e-17,130.38,-185.79,-69.3,-44.943,0,0.016217,0,1,2.71,0,-2.71,0
0,0,0,0,0,0,0.00015785,-0.00075721,-1.1543e-35,6.8992e-08,-1.6475e-18,-3.3591e-22,0.79234,0.00084723,-0.00075721,4.1024e-33,0.00015785,-44.913,-185.48,-69.198,0.010609,-2.532e-13,-5.2391e-17,130.13,-185.48,-69.198,-44.913,0,0.016221,0,1,2.715,0,-2.715,0
0,0,0,0,0,0,0.00015738,-0.00075586,-1.1311e-35,6.1112e-08,-1.7091e-18,-3.185e-22,0.79167,0.00084561,-0.00075586,4.4249e-33,0.00015738,-44.883,-185.17,-69.096,0.0093978,-2.6266e-13,-4.9744e-17,129.89,-185.17,-69.096,-44.883,0,0.016224,0,1,2.72,0,-2.72,0
0,0,0,0,0,0,0.00015692,-0.00075451,-1.1071e-35,5.3541e-08,-1.7683e-18,-3.0141e-22,0.79099,0.00084398,-0.00075451,4.7347e-33,0.00015692,-44.852,-184.86,-68.994,0.0082337,-2.7176e-13,-4.7147e-17,129.64,-184.86,-68.994,-44.852,0,0.016228,0,1,2.725,0,-2.725,0
0,0,0,0,0,0,0.00015646,-0.00075316,-1.0823e-35,4.628e-08,-1.8251e-18,-2.8464e-22,0.79032,0.00084236,-0.00075316,5.0318e-33,0.00015646,-44.821,-184.55,-68.892,0.0071172,-2.8048e-13,-4.4597e-17,129.39,-184.55,-68.892,-44.821,0,0.016232,0,1,2.73,0,-2.73,0
0,0,0,0,0,0,0.00015599,-0.00075181,-1.0566e-35,3.9328e-08,-1.8794e-18,-2.6819e-22,0.78964,0.00084074,-0.00075181,5.3163e-33,0.00015599,-44.79,-184.24,-68.789,0.0060484,-2.8883e-13,-4.2097e-17,129.14,-184.24,-68.789,-44.79,0,0.016236,0,1,2.735,0,-2.735,0
0,0,0,0,0,0,0.00015554,-0.00075046,-1.0301e-35,3.2686e-08,-1.9313e-18,-2.5207e-22,0.78897,0.00083911,-0.00075046,5.588e-33,0.00015554,-44.758,-183.93,-68.686,0.0050271,-2.9682e-13,-3.9644e-17,128.89,-183.93,-68.686,-44.758,0,0.016239,0,1,2.74,0,-2.74,0
0,0,0,0,0,0,0.00015508,-0.00074912,-1.0027e-35,2.6354e-08,-1.9808e-18,-2.3627e-22,0.78829,0.00083749,-0.00074912,5.8471e-33,0.00015508,-44.725,-183.62,-68.583,0.0040535,-3.0443e-13,-3.7241e-17,128.64,-183.62,-68.583,-44.725,0,0.016243,0,1,2.745,0,-2.745,0
0,0,0,0,0,0,0.00015462,-0.00074777,-9.7459e-36,2.0332e-08,-2.0279e-18,-2.208e-22,0.78762,0.00083587,-0.00074777,6.0935e-33,0.00015462,-44.692,-183.31,-68.48,0.0031275,-3.1166e-13,-3.4886e-17,128.39,-183.31,-68.48,-44.692,0,0.016247,0,1,2.75,0,-2.75,0
0,0,0,0,0,0,0.00015417,-0.00074642,-9.4562e-36,1.4619e-08,-2.0726e-18,-2.0564e-22,0.78695,0.00083426,-0.00074642,6.3273e-33,0.00015417,-44.658,-183,-68.377,0.0022491,-3.1853e-13,-3.2579e-17,128.14,-183,-68.377,-44.658,0,0.016251,0,1,2.755,0,-2.755,0
0,0,0,0,0,0,0.00015372,-0.00074507,-9.1582e-36,9.2156e-09,-2.1149e-18,-1.9081e-22,0.78627,0.00083264,-0.00074507,6.5483e-33,0.00015372,-44.624,-182.69,-68.273,0.0014183,-3.2503e-13,-3.0321e-17,127.9,-182.69,-68.273,-44.624,0,0.016254,0,1,2.76,0,-2.76,0
0,0,0,0,0,0,0.00015327,-0.00074372,-8.852e-36,4.1218e-09,-2.1547e-18,-1.763e-22,0.7856,0.00083102,-0.00074372,6.7567e-33,0.00015327,-44.589,-182.38,-68.169,0.00063507,-3.3115e-13,-2.8111e-17,127.65,-182.38,-68.169,-44.589,0,0.016258,0,1,2.765,0,-2.765,0
0,0,0,0,0,0,0.00015282,-0.00074237,-8.5376e-36,-6.6204e-10,-2.1922e-18,-1.6212e-22,0.78492,0.00082941,-0.00074237,6.9524e-33,0.00015282,-44.554,-182.07,-68.065,-0.00010049,-3.3691e-13,-2.595e-17,127.4,-182.07,-68.065,-44.554,0,0.016262,0,1,2.77,0,-2.77,0
0,0,0,0,0,0,0.00015237,-0.00074102,-8.2149e-36,-5.1365e-09,-2.2272e-18,-1.4826e-22,0.78425,0.00082779,-0.00074102,7.1354e-33,0.00015237,-44.518,-181.76,-67.96,-0.00078847,-3.4229e-13,-2.3838e-17,127.15,-181.76,-67.96,-44.518,0,0.016266,0,1,2.775,0,-2.775,0
0,0,0,0,0,0,0.00015193,-0.00073967,-7.8839e-36,-9.3011e-09,-2.2598e-18,-1.3472e-22,0.78357,0.00082618,-0.00073967,7.3058e-33,0.00015193,-44.481,-181.45,-67.856,-0.0014288,-3.473e-13,-2.1774e-17,126.9,-181.45,-67.856,-44.481,0,0.016269,0,1,2.78,0,-2.78,0
0,0,0,0,0,0,0.00015149,-0.00073832,-7.5448e-36,-1.3156e-08,-2.29e-18,-1.215e-22,0.7829,0.00082457,-0.00073832,7.4634e-33,0.00015149,-44.445,-181.14,-67.751,-0.0020216,-3.5194e-13,-1.9758e-17,126.66,-181.14,-67.751,-44.445,0,0.016273,0,1,2.785,0,-2.785,0
0,0,0,0,0,0,0.00015105,-0.00073697,-7.1974e-36,-1.6702e-08,-2.3177e-18,-1.086e-22,0.78222,0.00082296,-0.00073697,7.6084e-33,0.00015105,-44.407,-180.82,-67.646,-0.0025667,-3.5621e-13,-1.7791e-17,126.41,-180.82,-67.646,-44.407,0,0.016277,0,1,2.79,0,-2.79,0
0,0,0,0,0,0,0.00015061,-0.00073562,-6.8417e-36,-1.9937e-08,-2.3431e-18,-9.6033e-23,0.78155,0.00082135,-0.00073562,7.7407e-33,0.00015061,-44.369,-180.51,-67.54,-0.0030642,-3.6011e-13,-1.5873e-17,126.16,-180.51,-67.54,-44.369,0,0.01628,0,1,2.795,0,-2.795,0
0,0,0,0,0,0,0.00015017,-0.00073427,-6.4778e-36,-2.2863e-08,-2.3661e-18,-8.3785e-23,0.78088,0.00081974,-0.00073427,7.8603e-33,0.00015017,-44.331,-180.2,-67.435,-0.0035142,-3.6364e-13,-1.4003e-17,125.92,-180.2,-67.435,-44.331,0,0.016284,0,1,2.8,0,-2.8,0
0,0,0,0,0,0,0.00014974,-0.00073292,-6.1057e-36,-2.548e-08,-2.3866e-18,-7.1859e-23,0.7802,0.00081813,-0.00073292,7.9673e-33,0.00014974,-44.292,-179.89,-67.329,-0.0039165,-3.6679e-13,-1.2182e-17,125.67,-179.89,-67.329,-44.292,0,0.016288,0,1,2.805,0,-2.805,0
0,0,0,0,0,0,0.00014931,-0.00073157,-5.7254e-36,-2.7787e-08,-2.4047e-18,-6.0256e-23,0.77953,0.00081652,-0.00073157,8.0616e-33,0.00014931,-44.252,-179.57,-67.223,-0.0042712,-3.6958e-13,-1.0409e-17,125.42,-179.57,-67.223,-44.252,0,0.016291,0,1,2.81,0,-2.81,0
0,0,0,0,0,0,0.00014888,-0.00073022,-5.3368e-36,-2.9784e-08,-2.4204e-18,-4.8975e-23,0.77885,0.00081492,-0.00073022,8.1432e-33,0.00014888,-44.212,-179.26,-67.117,-0.0045783,-3.7199e-13,-8.6844e-18,125.18,-179.26,-67.117,-44.212,0,0.016295,0,1,2.815,0,-2.815,0
0,0,0,0,0,0,0.00014845,-0.00072887,-4.9399e-36,-3.1472e-08,-2.4337e-18,-3.8018e-23,0.77818,0.00081331,-0.00072887,8.2121e-33,0.00014845,-44.172,-178.95,-67.01,-0.0048377,-3.7403e-13,-7.0086e-18,124.93,-178.95,-67.01,-44.172,0,0.016299,0,1,2.82,0,-2.82,0
0,0,0,0,0,0,0.00014802,-0.00072751,-4.5349e-36,-3.285e-08,-2.4445e-18,-2.7383e-23,0.7775,0.00081171,-0.00072751,8.2683e-33,0.00014802,-44.131,-178.63,-66.903,-0.0050496,-3.757e-13,-5.3813e-18,124.69,-178.63,-66.903,-44.131,0,0.016302,0,1,2.825,0,-2.825,0
0,0,0,0,0,0,0.0001476,-0.00072616,-4.1216e-36,-3.3918e-08,-2.453e-18,-1.7071e-23,0.77683,0.00081011,-0.00072616,8.3119e-33,0.0001476,-44.089,-178.32,-66.796,-0.0052139,-3.77e-13,-3.8026e-18,124.44,-178.32,-66.796,-44.089,0,0.016306,0,1,2.83,0,-2.83,0
0,0,0,0,0,0,0.00014717,-0.00072481,-3.7e-36,-3.4676e-08,-2.459e-18,-7.0818e-24,0.77615,0.00080851,-0.00072481,8.3427e-33,0.00014717,-44.047,-178,-66.689,-0.0053305,-3.7793e-13,-2.2724e-18,124.19,-178,-66.689,-44.047,0,0.01631,0,1,2.835,0,-2.835,0
0,0,0,0,0,0,0.00014675,-0.00072346,-3.2702e-36,-3.5125e-08,-2.4626e-18,2.5844e-24,0.77548,0.00080691,-0.00072346,8.3609e-33,0.00014675,-44.004,-177.69,-66.582,-0.0053996,-3.7848e-13,-7.9077e-19,123.95,-177.69,-66.582,-44.004,0,0.016313,0,1,2.84,0,-2.84,0
0,0,0,0,0,0,0.00014633,-0.00072211,-2.8322e-36,-3.5265e-08,-2.4639e-18,1.1928e-23,0.7748,0.00080531,-0.00072211,8.3664e-33,0.00014633,-43.961,-177.37,-66.474,-0.005421,-3.7867e-13,6.4242e-19,123.7,-177.37,-66.474,-43.961,0,0.016317,0,1,2.845,0,-2.845,0
0,0,0,0,0,0,0.00014592,-0.00072076,-2.3859e-36,-3.5095e-08,-2.4626e-18,2.0949e-23,0.77413,0.00080371,-0.00072076,8.3593e-33,0.00014592,-43.917,-177.06,-66.366,-0.0053948,-3.7849e-13,2.027e-18,123.46,-177.06,-66.366,-43.917,0,0.01632,0,1,2.85,0,-2.85,0
0,0,0,0,0,0,0.0001455,-0.00071941,-1.9314e-36,-3.4615e-08,-2.459e-18,2.9647e-23,0.77346,0.00080212,-0.00071941,8.3395e-33,0.0001455,-43.873,-176.74,-66.258,-0.005321,-3.7793e-13,3.3631e-18,123.21,-176.74,-66.258,-43.873,0,0.016324,0,1,2.855,0,-2.855,0
0,0,0,0,0,0,0.00014509,-0.00071805,-1.4687e-36,-3.3825e-08,-2.453e-18,3.8022e-23,0.77278,0.00080052,-0.00071805,8.3069e-33,0.00014509,-43.828,-176.43,-66.15,-0.0051996,-3.77e-13,4.6507e-18,122.97,-176.43,-66.15,-43.828,0,0.016328,0,1,2.86,0,-2.86,0
0,0,0,0,0,0,0.00014468,-0.0007167,-9.9771e-37,-3.2726e-08,-2.4445e-18,4.6075e-23,0.77211,0.00079893,-0.0007167,8.2617e-33,0.00014468,-43.783,-176.11,-66.041,-0.0050306,-3.757e-13,5.8897e-18,122.72,-176.11,-66.041,-43.783,0,0.016331,0,1,2.865,0,-2.865,0
0,0,0,0,0,0,0.00014427,-0.00071535,-5.1851e-37,-3.1317e-08,-2.4337e-18,5.3804e-23,0.77143,0.00079733,-0.00071535,8.2039e-33,0.00014427,-43.737,-175.8,-65.932,-0.004814,-3.7403e-13,7.0802e-18,122.48,-175.8,-65.932,-43.737,0,0.016335,0,1,2.87,0,-2.87,0
0,0,0,0,0,0,0.00014386,-0.000714,-3.1045e-38,-2.9598e-08,-2.4204e-18,6.1212e-23,0.77076,0.00079574,-0.000714,8.1333e-33,0.00014386,-43.691,-175.48,-65.823,-0.0045498,-3.7199e-13,8.2222e-18,122.24,-175.48,-65.823,-43.691,0,0.016338,0,1,2.875,0,-2.875,0
0,0,0,0,0,0,0.00014345,-0.00071265,4.6466e-37,-2.757e-08,-2.4047e-18,6.8296e-23,0.77008,0.00079415,-0.00071265,8.0501e-33,0.00014345,-43.644,-175.16,-65.714,-0.0042379,-3.6958e-13,9.3157e-18,121.99,-175.16,-65.714,-43.644,0,0.016342,0,1,2.88,0,-2.88,0
0,0,0,0,0,0,0.00014305,-0.00071129,9.6857e-37,-2.5233e-08,-2.3866e-18,7.5057e-23,0.76941,0.00079256,-0.00071129,7.9542e-33,0.00014305,-43.597,-174.85,-65.604,-0.0038785,-3.6679e-13,1.0361e-17,121.75,-174.85,-65.604,-43.597,0,0.016345,0,1,2.885,0,-2.885,0
0,0,0,0,0,0,0.00014265,-0.00070994,1.4808e-36,-2.2585e-08,-2.366e-18,8.1496e-23,0.76873,0.00079097,-0.00070994,7.8456e-33,0.00014265,-43.549,-174.53,-65.494,-0.0034714,-3.6364e-13,1.1357e-17,121.5,-174.53,-65.494,-43.549,0,0.016349,0,1,2.89,0,-2.89,0
0,0,0,0,0,0,0.00014225,-0.00070859,2.0011e-36,-1.9628e-08,-2.3431e-18,8.7612e-23,0.76806,0.00078938,-0.00070859,7.7243e-33,0.00014225,-43.5,-174.21,-65.384,-0.0030167,-3.6011e-13,1.2305e-17,121.26,-174.21,-65.384,-43.5,0,0.016353,0,1,2.895,0,-2.895,0
0,0,0,0,0,0,0.00014185,-0.00070724,2.5298e-36,-1.6361e-08,-2.3177e-18,9.3405e-23,0.76739,0.0007878,-0.00070724,7.5904e-33,0.00014185,-43.451,-173.89,-65.274,-0.0025144,-3.5621e-13,1.3204e-17,121.02,-173.89,-65.274,-43.451,0,0.016356,0,1,2.9,0,-2.9,0
0,0,0,0,0,0,0.00014145,-0.00070588,3.0667e-36,-1.2785e-08,-2.2899e-18,9.8875e-23,0.76671,0.00078621,-0.00070588,7.4438e-33,0.00014145,-43.402,-173.58,-65.164,-0.0019646,-3.5195e-13,1.4055e-17,120.77,-173.58,-65.164,-43.402,0,0.01636,0,1,2.905,0,-2.905,0
0,0,0,0,0,0,0.00014106,-0.00070453,3.6118e-36,-8.899e-09,-2.2597e-18,1.0402e-22,0.76604,0.00078463,-0.00070453,7.2845e-33,0.00014106,-43.352,-173.26,-65.053,-0.0013671,-3.4731e-13,1.4857e-17,120.53,-173.26,-65.053,-43.352,0,0.016363,0,1,2.91,0,-2.91,0
0,0,0,0,0,0,0.00014066,-0.00070318,4.1651e-36,-4.7035e-09,-2.2271e-18,1.0885e-22,0.76536,0.00078304,-0.00070318,7.1125e-33,0.00014066,-43.301,-172.94,-64.942,-0.00072196,-3.4229e-13,1.5611e-17,120.29,-172.94,-64.942,-43.301,0,0.016367,0,1,2.915,0,-2.915,0
0,0,0,0,0,0,0.00014027,-0.00070183,4.7267e-36,-1.9817e-10,-2.1921e-18,1.1335e-22,0.76469,0.00078146,-0.00070183,6.9278e-33,0.00014027,-43.25,-172.62,-64.831,-2.9221e-05,-3.3691e-13,1.6316e-17,120.05,-172.62,-64.831,-43.25,0,0.01637,0,1,2.92,0,-2.92,0
0,0,0,0,0,0,0.00013989,-0.00070047,5.2966e-36,4.6166e-09,-2.1547e-18,1.1753e-22,0.76401,0.00077988,-0.00070047,6.7305e-33,0.00013989,-43.199,-172.3,-64.72,0.00071109,-3.3116e-13,1.6973e-17,119.8,-172.3,-64.72,-43.199,0,0.016374,0,1,2.925,0,-2.925,0
0,0,0,0,0,0,0.0001395,-0.00069912,5.8747e-36,9.7413e-09,-2.1148e-18,1.2138e-22,0.76334,0.0007783,-0.00069912,6.5205e-33,0.0001395,-43.147,-171.98,-64.608,0.001499,-3.2503e-13,1.7581e-17,119.56,-171.98,-64.608,-43.147,0,0.016377,0,1,2.93,0,-2.93,0
0,0,0,0,0,0,0.00013911,-0.00069777,6.4609e-36,1.5175e-08,-2.0725e-18,1.2492e-22,0.76266,0.00077672,-0.00069777,6.2978e-33,0.00013911,-43.094,-171.66,-64.496,0.0023346,-3.1854e-13,1.8141e-17,119.32,-171.66,-64.496,-43.094,0,0.016381,0,1,2.935,0,-2.935,0
0,0,0,0,0,0,0.00013873,-0.00069641,7.0555e-36,2.0919e-08,-2.0279e-18,1.2813e-22,0.76199,0.00077515,-0.00069641,6.0624e-33,0.00013873,-43.041,-171.35,-64.384,0.0032178,-3.1167e-13,1.8652e-17,119.08,-171.35,-64.384,-43.041,0,0.016384,0,1,2.94,0,-2.94,0
0,0,0,0,0,0,0.00013835,-0.00069506,7.6583e-36,2.6973e-08,-1.9808e-18,1.3102e-22,0.76132,0.00077357,-0.00069506,5.8144e-33,0.00013835,-42.987,-171.03,-64.272,0.0041485,-3.0443e-13,1.9115e-17,118.83,-171.03,-64.272,-42.987,0,0.016388,0,1,2.945,0,-2.945,0
0,0,0,0,0,0,0.00013797,-0.00069371,8.2693e-36,3.3336e-08,-1.9312e-18,1.3358e-22,0.76064,0.00077199,-0.00069371,5.5536e-33,0.00013797,-42.933,-170.71,-64.159,0.0051269,-2.9682e-13,1.9529e-17,118.59,-170.71,-64.159,-42.933,0,0.016391,0,1,2.95,0,-2.95,0
0,0,0,0,0,0,0.00013759,-0.00069235,8.8886e-36,4.0008e-08,-1.8793e-18,1.3582e-22,0.75997,0.00077042,-0.00069235,5.2802e-33,0.00013759,-42.878,-170.38,-64.046,0.0061529,-2.8884e-13,1.9894e-17,118.35,-170.38,-64.046,-42.878,0,0.016395,0,1,2.955,0,-2.955,0
0,0,0,0,0,0,0.00013722,-0.000691,9.5161e-36,4.6991e-08,-1.825e-18,1.3774e-22,0.75929,0.00076885,-0.000691,4.9941e-33,0.00013722,-42.823,-170.06,-63.933,0.0072265,-2.8049e-13,2.0211e-17,118.11,-170.06,-63.933,-42.823,0,0.016398,0,1,2.96,0,-2.96,0
0,0,0,0,0,0,0.00013684,-0.00068964,1.0152e-35,5.4283e-08,-1.7682e-18,1.3934e-22,0.75862,0.00076727,-0.00068964,4.6954e-33,0.00013684,-42.767,-169.74,-63.82,0.0083477,-2.7177e-13,2.048e-17,117.87,-169.74,-63.82,-42.767,0,0.016401,0,1,2.965,0,-2.965,0
0,0,0,0,0,0,0.00013647,-0.00068829,1.0796e-35,6.1885e-08,-1.709e-18,1.4062e-22,0.75794,0.0007657,-0.00068829,4.3839e-33,0.00013647,-42.711,-169.42,-63.706,0.0095165,-2.6267e-13,2.07e-17,117.63,-169.42,-63.706,-42.711,0,0.016405,0,1,2.97,0,-2.97,0
0,0,0,0,0,0,0.0001361,-0.00068694,1.1448e-35,6.9796e-08,-1.6474e-18,1.4157e-22,0.75727,0.00076413,-0.00068694,4.0598e-33,0.0001361,-42.654,-169.1,-63.593,0.010733,-2.5321e-13,2.0871e-17,117.39,-169.1,-63.593,-42.654,0,0.016408,0,1,2.975,0,-2.975,0
0,0,0,0,0,0,0.00013573,-0.00068558,1.2108e-35,7.8017e-08,-1.5834e-18,1.422e-22,0.75659,0.00076256,-0.00068558,3.723e-33,0.00013573,-42.597,-168.78,-63.479,0.011997,-2.4337e-13,2.0994e-17,117.15,-168.78,-63.479,-42.597,0,0.016412,0,1,2.98,0,-2.98,0
0,0,0,0,0,0,0.00013537,-0.00068424,1.2829e-35,8.5897e-08,-1.5208e-18,1.4197e-22,0.75592,0.00076101,-0.00068424,3.3663e-33,0.00013537,-42.54,-168.46,-63.366,0.013209,-2.3375e-13,2.0987e-17,116.91,-168.46,-63.366,-42.54,0,0.016415,0,1,2.985,0,-2.985,0
0,0,0,0,0,0,0.00013501,-0.00068314,1.4692e-35,7.9175e-08,-1.5427e-18,1.2985e-22,0.75536,0.0007597,-0.00068314,2.8533e-33,0.00013501,-42.511,-168.21,-63.281,0.012175,-2.3711e-13,1.9147e-17,116.71,-168.21,-63.281,-42.511,0,0.016419,0,1,2.99,0,-2.99,0
0,0,0,0,0,0,0.00013465,-0.00068205,1.6484e-35,7.2661e-08,-1.561e-18,1.1829e-22,0.7548,0.00075839,-0.00068205,2.3681e-33,0.00013465,-42.481,-167.96,-63.196,0.011173,-2.3992e-13,1.7394e-17,116.51,-167.96,-63.196,-42.481,0,0.016422,0,1,2.995,0,-2.995,0
0,0,0,0,0,0,0.00013429,-0.00068096,1.8204e-35,6.6355e-08,-1.5757e-18,1.0731e-22,0.75424,0.00075709,-0.00068096,1.9108e-33,0.00013429,-42.451,-167.7,-63.111,0.010204,-2.4218e-13,1.573e-17,116.31,-167.7,-63.111,-42.451,0,0.016425,0,1,3,0,-3,0
0,0,0,0,0,0,0.00013394,-0.00067986,1.9852e-35,6.0255e-08,-1.5869e-18,9.6899e-23,0.75368,0.00075578,-0.00067986,1.4814e-33,0.00013394,-42.42,-167.45,-63.026,0.0092658,-2.4391e-13,1.4153e-17,116.11,-167.45,-63.026,-42.42,0,0.016429,0,1,3.005,0,-3.005,0
0,0,0,0,0,0,0.00013358,-0.00067877,2.1429e-35,5.4363e-08,-1.5946e-18,8.706e-23,0.75312,0.00075448,-0.00067877,1.0798e-33,0.00013358,-42.389,-167.2,-62.94,0.0083598,-2.4508e-13,1.2665e-17,115.91,-167.2,-62.94,-42.389,0,0.016432,0,1,3.01,0,-3.01,0
0,0,0,0,0,0,0.00013323,-0.00067767,2.2934e-35,4.8678e-08,-1.5987e-18,7.7792e-23,0.75255,0.00075318,-0.00067767,7.0614e-34,0.00013323,-42.358,-166.94,-62.855,0.0074856,-2.4572e-13,1.1264e-17,115.71,-166.94,-62.855,-42.358,0,0.016436,0,1,3.015,0,-3.015,0
0,0,0,0,0,0,0.00013288,-0.00067658,2.4366e-35,4.32e-08,-1.5992e-18,6.9096e-23,0.75199,0.00075188,-0.00067658,3.6031e-34,0.00013288,-42.326,-166.69,-62.769,0.0066434,-2.458e-13,9.9521e-18,115.51,-166.69,-62.769,-42.326,0,0.016439,0,1,3.02,0,-3.02,0
0,0,0,0,0,0,0.00013253,-0.00067548,2.5728e-35,3.7929e-08,-1.5963e-18,6.0972e-23,0.75143,0.00075058,-0.00067548,4.2326e-35,0.00013253,-42.294,-166.44,-62.683,0.0058329,-2.4535e-13,8.7277e-18,115.31,-166.44,-62.683,-42.294,0,0.016442,0,1,3.025,0,-3.025,0
0,0,0,0,0,0,0.00013218,-0.00067439,2.7017e-35,3.2866e-08,-1.5898e-18,5.342e-23,0.75087,0.00074928,-0.00067439,-2.4778e-34,0.00013218,-42.262,-166.18,-62.597,0.0050544,-2.4435e-13,7.5914e-18,115.11,-166.18,-62.597,-42.262,0,0.016446,0,1,3.03,0,-3.03,0
0,0,0,0,0,0,0.00013183,-0.0006733,2.8234e-35,2.801e-08,-1.5797e-18,4.6439e-23,0.75031,0.00074798,-0.0006733,-5.1003e-34,0.00013183,-42.229,-165.93,-62.51,0.0043077,-2.428e-13,6.5431e-18,114.91,-165.93,-62.51,-42.229,0,0.016449,0,1,3.035,0,-3.035,0
0,0,0,0,0,0,0.00013148,-0.0006722,2.938e-35,2.3361e-08,-1.5661e-18,4.003e-23,0.74975,0.00074668,-0.0006722,-7.4441e-34,0.00013148,-42.196,-165.67,-62.424,0.0035929,-2.4071e-13,5.5829e-18,114.71,-165.67,-62.424,-42.196,0,0.016453,0,1,3.04,0,-3.04,0
0,0,0,0,0,0,0.00013114,-0.00067111,3.0454e-35,1.8919e-08,-1.549e-18,3.4192e-23,0.74918,0.00074538,-0.00067111,-9.5094e-34,0.00013114,-42.162,-165.42,-62.337,0.0029099,-2.3807e-13,4.7106e-18,114.51,-165.42,-62.337,-42.162,0,0.016456,0,1,3.045,0,-3.045,0
0,0,0,0,0,0,0.0001308,-0.00067001,3.1456e-35,1.4685e-08,-1.5283e-18,2.8927e-23,0.74862,0.00074408,-0.00067001,-1.1296e-33,0.0001308,-42.128,-165.16,-62.25,0.0022588,-2.3489e-13,3.9265e-18,114.31,-165.16,-62.25,-42.128,0,0.016459,0,1,3.05,0,-3.05,0
0,0,0,0,0,0,0.00013046,-0.00066892,3.2387e-35,1.0658e-08,-1.504e-18,2.4233e-23,0.74806,0.00074279,-0.00066892,-1.2804e-33,0.00013046,-42.094,-164.91,-62.163,0.0016396,-2.3117e-13,3.2303e-18,114.11,-164.91,-62.163,-42.094,0,0.016463,0,1,3.055,0,-3.055,0
0,0,0,0,0,0,0.00013011,-0.00066782,3.3245e-35,6.8381e-09,-1.4763e-18,2.0111e-23,0.7475,0.00074149,-0.00066782,-1.4033e-33,0.00013011,-42.059,-164.65,-62.076,0.0010522,-2.269e-13,2.6222e-18,113.91,-164.65,-62.076,-42.059,0,0.016466,0,1,3.06,0,-3.06,0
0,0,0,0,0,0,0.00012978,-0.00066673,3.4032e-35,3.2253e-09,-1.4449e-18,1.656e-23,0.74694,0.0007402,-0.00066673,-1.4984e-33,0.00012978,-42.024,-164.4,-61.989,0.00049671,-2.2209e-13,2.1021e-18,113.71,-164.4,-61.989,-42.024,0,0.016469,0,1,3.065,0,-3.065,0
0,0,0,0,0,0,0.00012944,-0.00066563,3.4747e-35,-1.8003e-10,-1.4101e-18,1.3581e-23,0.74638,0.0007389,-0.00066563,-1.5656e-33,0.00012944,-41.988,-164.14,-61.901,-2.6911e-05,-2.1673e-13,1.6701e-18,113.52,-164.14,-61.901,-41.988,0,0.016473,0,1,3.07,0,-3.07,0
0,0,0,0,0,0,0.0001291,-0.00066453,3.539e-35,-3.3783e-09,-1.3717e-18,1.1174e-23,0.74581,0.00073761,-0.00066453,-1.6049e-33,0.0001291,-41.952,-163.89,-61.814,-0.00051869,-2.1083e-13,1.3261e-18,113.32,-163.89,-61.814,-41.952,0,0.016476,0,1,3.075,0,-3.075,0
0,0,0,0,0,0,0.00012877,-0.00066344,3.5962e-35,-6.3692e-09,-1.3297e-18,9.3387e-24,0.74525,0.00073632,-0.00066344,-1.6164e-33,0.00012877,-41.916,-163.63,-61.726,-0.00097858,-2.0438e-13,1.0701e-18,113.12,-163.63,-61.726,-41.916,0,0.016479,0,1,3.08,0,-3.08,0
0,0,0,0,0,0,0.00012843,-0.00066234,3.6461e-35,-9.153e-09,-1.2842e-18,8.0749e-24,0.74469,0.00073503,-0.00066234,-1.6e-33,0.00012843,-41.879,-163.38,-61.638,-0.0014066,-1.9739e-13,9.0214e-19,112.92,-163.38,-61.638,-41.879,0,0.016483,0,1,3.085,0,-3.085,0
0,0,0,0,0,0,0.0001281,-0.00066125,3.6889e-35,-1.1729e-08,-1.2352e-18,7.3829e-24,0.74413,0.00073374,-0.00066125,-1.5558e-33,0.0001281,-41.842,-163.12,-61.55,-0.0018028,-1.8985e-13,8.2223e-19,112.72,-163.12,-61.55,-41.842,0,0.016486,0,1,3.09,0,-3.09,0
0,0,0,0,0,0,0.00012777,-0.00066015,3.7245e-35,-1.4099e-08,-1.1826e-18,7.2626e-24,0.74357,0.00073245,-0.00066015,-1.4837e-33,0.00012777,-41.804,-162.86,-61.461,-0.0021671,-1.8177e-13,8.3035e-19,112.53,-162.86,-61.461,-41.804,0,0.016489,0,1,3.095,0,-3.095,0
0,0,0,0,0,0,0.00012744,-0.00065906,3.753e-35,-1.6261e-08,-1.1265e-18,7.714e-24,0.74301,0.00073116,-0.00065906,-1.3837e-33,0.00012744,-41.766,-162.61,-61.373,-0.0024996,-1.7314e-13,9.265e-19,112.33,-162.61,-61.373,-41.766,0,0.016493,0,1,3.1,0,-3.1,0
0,0,0,0,0,0,0.00012712,-0.00065796,3.7742e-35,-1.8216e-08,-1.0668e-18,8.7371e-24,0.74244,0.00072987,-0.00065796,-1.2558e-33,0.00012712,-41.728,-162.35,-61.284,-0.0028001,-1.6397e-13,1.1107e-18,112.13,-162.35,-61.284,-41.728,0,0.016496,0,1,3.105,0,-3.105,0
0,0,0,0,0,0,0.00012679,-0.00065687,3.7883e-35,-1.9963e-08,-1.0036e-18,1.0332e-23,0.74188,0.00072858,-0.00065687,-1.1001e-33,0.00012679,-41.689,-162.09,-61.195,-0.0030688,-1.5425e-13,1.3829e-18,111.93,-162.09,-61.195,-41.689,0,0.016499,0,1,3.11,0,-3.11,0
0,0,0,0,0,0,0.00012646,-0.00065577,3.7952e-35,-2.1504e-08,-9.3687e-19,1.2498e-23,0.74132,0.0007273,-0.00065577,-9.1657e-34,0.00012646,-41.65,-161.84,-61.106,-0.0033057,-1.4399e-13,1.7432e-18,111.73,-161.84,-61.106,-41.65,0,0.016502,0,1,3.115,0,-3.115,0
0,0,0,0,0,0,0.00012614,-0.00065467,3.7949e-35,-2.2837e-08,-8.6658e-19,1.5237e-23,0.74076,0.00072601,-0.00065467,-7.0515e-34,0.00012614,-41.611,-161.58,-61.017,-0.0035107,-1.3319e-13,2.1914e-18,111.54,-161.58,-61.017,-41.611,0,0.016506,0,1,3.12,0,-3.12,0
0,0,0,0,0,0,0.00012582,-0.00065358,3.7875e-35,-2.3963e-08,-7.9274e-19,1.8547e-23,0.7402,0.00072473,-0.00065358,-4.6585e-34,0.00012582,-41.571,-161.32,-60.927,-0.0036838,-1.2184e-13,2.7278e-18,111.34,-161.32,-60.927,-41.571,0,0.016509,0,1,3.125,0,-3.125,0
0,0,0,0,0,0,0.0001255,-0.00065248,3.7728e-35,-2.4881e-08,-7.1535e-19,2.2428e-23,0.73964,0.00072344,-0.00065248,-1.9868e-34,0.0001255,-41.531,-161.06,-60.838,-0.0038251,-1.0995e-13,3.3521e-18,111.14,-161.06,-60.838,-41.531,0,0.016512,0,1,3.13,0,-3.13,0
0,0,0,0,0,0,0.00012518,-0.00065138,3.751e-35,-2.5593e-08,-6.3443e-19,2.6881e-23,0.73908,0.00072216,-0.00065138,9.6331e-35,0.00012518,-41.49,-160.8,-60.748,-0.0039344,-9.7508e-14,4.0645e-18,110.95,-160.8,-60.748,-41.49,0,0.016515,0,1,3.135,0,-3.135,0
0,0,0,0,0,0,0.00012486,-0.00065029,3.722e-35,-2.6097e-08,-5.4996e-19,3.1907e-23,0.73851,0.00072088,-0.00065029,4.1922e-34,0.00012486,-41.449,-160.55,-60.658,-0.004012,-8.4524e-14,4.8649e-18,110.75,-160.55,-60.658,-41.449,0,0.016519,0,1,3.14,0,-3.14,0
0,0,0,0,0,0,0.00012455,-0.00064919,3.6858e-35,-2.6394e-08,-4.6195e-19,3.7504e-23,0.73795,0.00071959,-0.00064919,7.6998e-34,0.00012455,-41.407,-160.29,-60.568,-0.0040576,-7.0996e-14,5.7534e-18,110.55,-160.29,-60.568,-41.407,0,0.016522,0,1,3.145,0,-3.145,0
0,0,0,0,0,0,0.00012423,-0.0006481,3.6425e-35,-2.6483e-08,-3.7039e-19,4.3673e-23,0.73739,0.00071831,-0.0006481,1.1486e-33,0.00012423,-41.366,-160.03,-60.478,-0.0040714,-5.6922e-14,6.73e-18,110.36,-160.03,-60.478,-41.366,0,0.016525,0,1,3.15,0,-3.15,0
0,0,0,0,0,0,0.00012392,-0.000647,3.5919e-35,-2.6366e-08,-2.7528e-19,5.0413e-23,0.73683,0.00071703,-0.000647,1.5551e-33,0.00012392,-41.323,-159.77,-60.387,-0.0040533,-4.2304e-14,7.7945e-18,110.16,-159.77,-60.387,-41.323,0,0.016528,0,1,3.155,0,-3.155,0
0,0,0,0,0,0,0.0001236,-0.0006459,3.5342e-35,-2.6041e-08,-1.7663e-19,5.7726e-23,0.73627,0.00071575,-0.0006459,1.9895e-33,0.0001236,-41.281,-159.51,-60.296,-0.0040034,-2.7141e-14,8.9472e-18,109.96,-159.51,-60.296,-41.281,0,0.016532,0,1,3.16,0,-3.16,0
0,0,0,0,0,0,0.00012329,-0.00064481,3.4693e-35,-2.5509e-08,-7.4444e-20,6.561e-23,0.73571,0.00071448,-0.00064481,2.4517e-33,0.00012329,-41.238,-159.25,-60.206,-0.0039216,-1.1434e-14,1.0188e-17,109.77,-159.25,-60.206,-41.238,0,0.016535,0,1,3.165,0,-3.165,0
0,0,0,0,0,0,0.00012298,-0.00064371,3.3972e-35,-2.477e-08,3.1294e-20,7.4066e-23,0.73514,0.0007132,-0.00064371,2.9419e-33,0.00012298,-41.194,-158.99,-60.115,-0.0038079,4.8188e-15,1.1517e-17,109.57,-158.99,-60.115,-41.194,0,0.016538,0,1,3.17,0,-3.17,0
0,0,0,0,0,0,0.00012268,-0.00064261,3.318e-35,-2.3823e-08,1.4057e-19,8.3093e-23,0.73458,0.00071192,-0.00064261,3.4598e-33,0.00012268,-41.15,-158.73,-60.024,-0.0036623,2.1615e-14,1.2933e-17,109.38,-158.73,-60.024,-41.15,0,0.016541,0,1,3.175,0,-3.175,0
0,0,0,0,0,0,0.00012237,-0.00064151,3.2315e-35,-2.2669e-08,2.534e-19,9.2693e-23,0.73402,0.00071065,-0.00064151,4.0057e-33,0.00012237,-41.106,-158.47,-59.932,-0.0034849,3.8957e-14,1.4438e-17,109.18,-158.47,-59.932,-41.106,0,0.016545,0,1,3.18,0,-3.18,0
0,0,0,0,0,0,0.00012207,-0.00064042,3.1379e-35,-2.1308e-08,3.6976e-19,1.0286e-22,0.73346,0.00070937,-0.00064042,4.5794e-33,0.00012207,-41.062,-158.22,-59.841,-0.0032756,5.6843e-14,1.6031e-17,108.98,-158.22,-59.841,-41.062,0,0.016548,0,1,3.185,0,-3.185,0
0,0,0,0,0,0,0.00012176,-0.00063932,3.0371e-35,-1.974e-08,4.8967e-19,1.1361e-22,0.7329,0.0007081,-0.00063932,5.1809e-33,0.00012176,-41.017,-157.96,-59.749,-0.0030345,7.5275e-14,1.7712e-17,108.79,-157.96,-59.749,-41.017,0,0.016551,0,1,3.19,0,-3.19,0
0,0,0,0,0,0,0.00012146,-0.00063822,2.9291e-35,-1.7964e-08,6.1312e-19,1.2492e-22,0.73234,0.00070682,-0.00063822,5.8104e-33,0.00012146,-40.971,-157.69,-59.657,-0.0027614,9.425e-14,1.9481e-17,108.59,-157.69,-59.657,-40.971,0,0.016554,0,1,3.195,0,-3.195,0
0,0,0,0,0,0,0.00012116,-0.00063713,2.814e-35,-1.5981e-08,7.4012e-19,1.3681e-22,0.73177,0.00070555,-0.00063713,6.4677e-33,0.00012116,-40.926,-157.43,-59.565,-0.0024565,1.1377e-13,2.1338e-17,108.4,-157.43,-59.565,-40.926,0,0.016557,0,1,3.2,0,-3.2,0
0,0,0,0,0,0,0.00012086,-0.00063603,2.6917e-35,-1.3791e-08,8.7066e-19,1.4927e-22,0.73121,0.00070428,-0.00063603,7.1529e-33,0.00012086,-40.879,-157.17,-59.473,-0.0021198,1.3384e-13,2.3283e-17,108.2,-157.17,-59.473,-40.879,0,0.016561,0,1,3.205,0,-3.205,0
0,0,0,0,0,0,0.00012056,-0.00063493,2.5621e-35,-1.1393e-08,1.0047e-18,1.623e-22,0.73065,0.00070301,-0.00063493,7.8659e-33,0.00012056,-40.833,-156.91,-59.381,-0.0017511,1.5445e-13,2.5316e-17,108.01,-156.91,-59.381,-40.833,0,0.016564,0,1,3.21,0,-3.21,0
0,0,0,0,0,0,0.00012027,-0.00063383,2.4254e-35,-8.7887e-09,1.1424e-18,1.759e-22,0.73009,0.00070174,-0.00063383,8.6068e-33,0.00012027,-40.786,-156.65,-59.288,-0.0013506,1.756e-13,2.7437e-17,107.81,-156.65,-59.288,-40.786,0,0.016567,0,1,3.215,0,-3.215,0
0,0,0,0,0,0,0.00011997,-0.00063273,2.2816e-35,-5.9767e-09,1.2836e-18,1.9007e-22,0.72953,0.00070047,-0.00063273,9.3756e-33,0.00011997,-40.739,-156.39,-59.195,-0.00091824,1.973e-13,2.9646e-17,107.62,-156.39,-59.195,-40.739,0,0.01657,0,1,3.22,0,-3.22,0
0,0,0,0,0,0,0.00011968,-0.00063164,2.1305e-35,-2.9575e-09,1.4283e-18,2.0482e-22,0.72897,0.0006992,-0.00063164,1.0172e-32,0.00011968,-40.691,-156.13,-59.103,-0.000454,2.1954e-13,3.1944e-17,107.42,-156.13,-59.103,-40.691,0,0.016573,0,1,3.225,0,-3.225,0
0,0,0,0,0,0,0.00011938,-0.00063054,1.9723e-35,2.6904e-10,1.5765e-18,2.2014e-22,0.7284,0.00069793,-0.00063054,1.0997e-32,0.00011938,-40.643,-155.87,-59.009,4.2125e-05,2.4233e-13,3.4329e-17,107.23,-155.87,-59.009,-40.643,0,0.016576,0,1,3.23,0,-3.23,0
0,0,0,0,0,0,0.00011909,-0.00062944,1.8069e-35,3.7027e-09,1.7283e-18,2.3603e-22,0.72784,0.00069666,-0.00062944,1.1849e-32,0.00011909,-40.594,-155.61,-58.916,0.0005701,2.6567e-13,3.6802e-17,107.03,-155.61,-58.916,-40.594,0,0.01658,0,1,3.235,0,-3.235,0
0,0,0,0,0,0,0.0001188,-0.00062834,1.6343e-35,7.3438e-09,1.8837e-18,2.5249e-22,0.72728,0.0006954,-0.00062834,1.2729e-32,0.0001188,-40.546,-155.35,-58.823,0.00113,2.8954e-13,3.9364e-17,106.84,-155.35,-58.823,-40.546,0,0.016583,0,1,3.24,0,-3.24,0
0,0,0,0,0,0,0.00011852,-0.00062724,1.4545e-35,1.1192e-08,2.0426e-18,2.6952e-22,0.72672,0.00069413,-0.00062724,1.3637e-32,0.00011852,-40.496,-155.08,-58.729,0.0017217,3.1397e-13,4.2013e-17,106.65,-155.08,-58.729,-40.496,0,0.016586,0,1,3.245,0,-3.245,0
0,0,0,0,0,0,0.00011823,-0.00062615,1.2676e-35,1.5248e-08,2.205e-18,2.8712e-22,0.72616,0.00069287,-0.00062615,1.4573e-32,0.00011823,-40.447,-154.82,-58.636,0.0023453,3.3894e-13,4.475e-17,106.45,-154.82,-58.636,-40.447,0,0.016589,0,1,3.25,0,-3.25,0
0,0,0,0,0,0,0.00011794,-0.00062505,1.0734e-35,1.951e-08,2.371e-18,3.053e-22,0.7256,0.0006916,-0.00062505,1.5537e-32,0.00011794,-40.397,-154.56,-58.542,0.0030008,3.6445e-13,4.7576e-17,106.26,-154.56,-58.542,-40.397,0,0.016592,0,1,3.255,0,-3.255,0
0,0,0,0,0,0,0.00011766,-0.00062395,8.7212e-36,2.398e-08,2.5405e-18,3.2405e-22,0.72503,0.00069034,-0.00062395,1.6529e-32,0.00011766,-40.346,-154.3,-58.448,0.0036881,3.905e-13,5.0489e-17,106.06,-154.3,-58.448,-40.346,0,0.016595,0,1,3.26,0,-3.26,0
0,0,0,0,0,0,0.00011738,-0.00062285,6.6363e-36,2.8658e-08,2.7136e-18,3.4337e-22,0.72447,0.00068908,-0.00062285,1.7549e-32,0.00011738,-40.295,-154.03,-58.353,0.0044073,4.1711e-13,5.3491e-17,105.87,-154.03,-58.353,-40.295,0,0.016598,0,1,3.265,0,-3.265,0
0,0,0,0,0,0,0.0001171,-0.00062175,4.4797e-36,3.3542e-08,2.8902e-18,3.6326e-22,0.72391,0.00068782,-0.00062175,1.8596e-32,0.0001171,-40.244,-153.77,-58.259,0.0051583,4.4425e-13,5.6581e-17,105.68,-153.77,-58.259,-40.244,0,0.016601,0,1,3.27,0,-3.27,0
0,0,0,0,0,0,0.00011682,-0.00062065,2.2511e-36,3.8634e-08,3.0703e-18,3.8372e-22,0.72335,0.00068656,-0.00062065,1.9671e-32,0.00011682,-40.193,-153.51,-58.164,0.0059413,4.7194e-13,5.9758e-17,105.48,-153.51,-58.164,-40.193,0,0.016605,0,1,3.275,0,-3.275,0
0,0,0,0,0,0,0.00011654,-0.00061956,-4.9092e-38,4.3933e-08,3.254e-18,4.0476e-22,0.72279,0.0006853,-0.00061956,2.0775e-32,0.00011654,-40.141,-153.24,-58.07,0.0067561,5.0018e-13,6.3024e-17,105.29,-153.24,-58.07,-40.141,0,0.016608,0,1,3.28,0,-3.28,0
0,0,0,0,0,0,0.00011626,-0.00061846,-2.4212e-36,4.944e-08,3.4413e-18,4.2636e-22,0.72223,0.00068404,-0.00061846,2.1906e-32,0.00011626,-40.088,-152.98,-57.975,0.0076028,5.2896e-13,6.6378e-17,105.1,-152.98,-57.975,-40.088,0,0.016611,0,1,3.285,0,-3.285,0
0,0,0,0,0,0,0.00011599,-0.00061736,-4.865e-36,5.5153e-08,3.6321e-18,4.4854e-22,0.72166,0.00068278,-0.00061736,2.3064e-32,0.00011599,-40.035,-152.72,-57.879,0.0084813,5.5828e-13,6.9819e-17,104.9,-152.72,-57.879,-40.035,0,0.016614,0,1,3.29,0,-3.29,0
0,0,0,0,0,0,0.00011571,-0.00061626,-7.3808e-36,6.1074e-08,3.8264e-18,4.7129e-22,0.7211,0.00068152,-0.00061626,2.4251e-32,0.00011571,-39.982,-152.45,-57.784,0.0093917,5.8816e-13,7.3349e-17,104.71,-152.45,-57.784,-39.982,0,0.016617,0,1,3.295,0,-3.295,0
0,0,0,0,0,0,0.00011544,-0.00061529,-8.2819e-36,6.0435e-08,3.8136e-18,4.5032e-22,0.7206,0.00068039,-0.00061529,2.3986e-32,0.00011544,-39.943,-152.22,-57.703,0.0092934,5.8619e-13,7.0116e-17,104.54,-152.22,-57.703,-39.943,0,0.01662,0,1,3.3,0,-3.3,0
0,0,0,0,0,0,0.00011517,-0.00061439,-8.1291e-36,5.5731e-08,3.6717e-18,4.0308e-22,0.72013,0.00067934,-0.00061439,2.2825e-32,0.00011517,-39.912,-152.01,-57.63,0.0085702,5.6439e-13,6.282e-17,104.38,-152.01,-57.63,-39.912,0,0.016623,0,1,3.305,0,-3.305,0
0,0,0,0,0,0,0.00011491,-0.00061349,-7.9555e-36,5.1169e-08,3.5318e-18,3.574e-22,0.71966,0.00067829,-0.00061349,2.1692e-32,0.00011491,-39.88,-151.8,-57.558,0.0078687,5.4287e-13,5.5764e-17,104.21,-151.8,-57.558,-39.88,0,0.016626,0,1,3.31,0,-3.31,0
0,0,0,0,0,0,0.00011464,-0.0006126,-7.7613e-36,4.6749e-08,3.3937e-18,3.1326e-22,0.71919,0.00067723,-0.0006126,2.0584e-32,0.00011464,-39.848,-151.59,-57.485,0.0071889,5.2165e-13,4.8947e-17,104.05,-151.59,-57.485,-39.848,0,0.016629,0,1,3.315,0,-3.315,0
0,0,0,0,0,0,0.00011438,-0.0006117,-7.5465e-36,4.247e-08,3.2575e-18,2.7068e-22,0.71873,0.00067618,-0.0006117,1.9504e-32,0.00011438,-39.816,-151.38,-57.412,0.0065309,5.0071e-13,4.2368e-17,103.89,-151.38,-57.412,-39.816,0,0.016632,0,1,3.32,0,-3.32,0
0,0,0,0,0,0,0.00011411,-0.00061081,-7.311e-36,3.8332e-08,3.1232e-18,2.2965e-22,0.71826,0.00067513,-0.00061081,1.845e-32,0.00011411,-39.784,-151.17,-57.339,0.0058947,4.8007e-13,3.6029e-17,103.73,-151.17,-57.339,-39.784,0,0.016635,0,1,3.325,0,-3.325,0
0,0,0,0,0,0,0.00011385,-0.00060991,-7.0549e-36,3.4336e-08,2.9908e-18,1.9016e-22,0.71779,0.00067408,-0.00060991,1.7423e-32,0.00011385,-39.751,-150.96,-57.266,0.0052802,4.5972e-13,2.9928e-17,103.57,-150.96,-57.266,-39.751,0,0.016638,0,1,3.33,0,-3.33,0
0,0,0,0,0,0,0.00011359,-0.00060901,-6.7781e-36,3.0481e-08,2.8603e-18,1.5223e-22,0.71732,0.00067303,-0.00060901,1.6422e-32,0.00011359,-39.718,-150.75,-57.193,0.0046874,4.3966e-13,2.4066e-17,103.41,-150.75,-57.193,-39.718,0,0.016641,0,1,3.335,0,-3.335,0
0,0,0,0,0,0,0.00011333,-0.00060812,-6.4807e-36,2.6768e-08,2.7317e-18,1.1584e-22,0.71685,0.00067198,-0.00060812,1.5448e-32,0.00011333,-39.685,-150.54,-57.12,0.0041165,4.1989e-13,1.8444e-17,103.25,-150.54,-57.12,-39.685,0,0.016644,0,1,3.34,0,-3.34,0
0,0,0,0,0,0,0.00011307,-0.00060722,-6.1626e-36,2.3196e-08,2.605e-18,8.1004e-23,0.71638,0.00067094,-0.00060722,1.4501e-32,0.00011307,-39.652,-150.33,-57.046,0.0035672,4.0041e-13,1.306e-17,103.09,-150.33,-57.046,-39.652,0,0.016648,0,1,3.345,0,-3.345,0
0,0,0,0,0,0,0.00011281,-0.00060632,-5.8238e-36,1.9765e-08,2.4801e-18,4.7719e-23,0.71591,0.00066989,-0.00060632,1.3581e-32,0.00011281,-39.618,-150.12,-56.972,0.0030398,3.8123e-13,7.9149e-18,102.93,-150.12,-56.972,-39.618,0,0.016651,0,1,3.35,0,-3.35,0
0,0,0,0,0,0,0.00011255,-0.00060543,-5.4644e-36,1.6477e-08,2.3572e-18,1.5982e-23,0.71545,0.00066884,-0.00060543,1.2687e-32,0.00011255,-39.584,-149.91,-56.899,0.002534,3.6233e-13,3.0088e-18,102.76,-149.91,-56.899,-39.584,0,0.016654,0,1,3.355,0,-3.355,0
0,0,0,0,0,0,0.00011229,-0.00060453,-5.0844e-36,1.3329e-08,2.2362e-18,-1.4205e-23,0.71498,0.0006678,-0.00060453,1.182e-32,0.00011229,-39.549,-149.69,-56.825,0.0020501,3.4372e-13,-1.6583e-18,102.6,-149.69,-56.825,-39.549,0,0.016657,0,1,3.36,0,-3.36,0
0,0,0,0,0,0,0.00011204,-0.00060363,-4.6837e-36,1.0323e-08,2.117e-18,-4.2842e-23,0.71451,0.00066675,-0.00060363,1.098e-32,0.00011204,-39.515,-149.48,-56.751,0.0015878,3.2541e-13,-6.0866e-18,102.44,-149.48,-56.751,-39.515,0,0.01666,0,1,3.365,0,-3.365,0
0,0,0,0,0,0,0.00011178,-0.00060274,-4.2624e-36,7.4589e-09,1.9998e-18,-6.9929e-23,0.71404,0.0006657,-0.00060274,1.0166e-32,0.00011178,-39.48,-149.27,-56.677,0.0011474,3.0739e-13,-1.0276e-17,102.28,-149.27,-56.677,-39.48,0,0.016663,0,1,3.37,0,-3.37,0
0,0,0,0,0,0,0.00011153,-0.00060184,-3.8204e-36,4.7359e-09,1.8844e-18,-9.5467e-23,0.71357,0.00066466,-0.00060184,9.3794e-33,0.00011153,-39.445,-149.06,-56.602,0.00072868,2.8966e-13,-1.4226e-17,102.12,-149.06,-56.602,-39.445,0,0.016666,0,1,3.375,0,-3.375,0
0,0,0,0,0,0,0.00011128,-0.00060094,-3.3577e-36,2.1543e-09,1.7709e-18,-1.1946e-22,0.7131,0.00066362,-0.00060094,8.6192e-33,0.00011128,-39.409,-148.85,-56.528,0.00033172,2.7222e-13,-1.7938e-17,101.96,-148.85,-56.528,-39.409,0,0.016669,0,1,3.38,0,-3.38,0
0,0,0,0,0,0,0.00011102,-0.00060005,-2.8744e-36,-2.856e-10,1.6594e-18,-1.4189e-22,0.71264,0.00066257,-0.00060005,7.8857e-33,0.00011102,-39.373,-148.64,-56.453,-4.3463e-05,2.5507e-13,-2.141e-17,101.8,-148.64,-56.453,-39.373,0,0.016672,0,1,3.385,0,-3.385,0
0,0,0,0,0,0,0.00011077,-0.00059915,-2.3704e-36,-2.5842e-09,1.5497e-18,-1.6278e-22,0.71217,0.00066153,-0.00059915,7.1789e-33,0.00011077,-39.337,-148.42,-56.379,-0.00039691,2.3821e-13,-2.4644e-17,101.64,-148.42,-56.379,-39.337,0,0.016675,0,1,3.39,0,-3.39,0
0,0,0,0,0,0,0.00011052,-0.00059825,-1.8459e-36,-4.7412e-09,1.4419e-18,-1.8212e-22,0.7117,0.00066049,-0.00059825,6.4988e-33,0.00011052,-39.301,-148.21,-56.304,-0.00072859,2.2164e-13,-2.7639e-17,101.48,-148.21,-56.304,-39.301,0,0.016678,0,1,3.395,0,-3.395,0
0,0,0,0,0,0,0.00011028,-0.00059736,-1.3006e-36,-6.7568e-09,1.336e-18,-1.9991e-22,0.71123,0.00065945,-0.00059736,5.8454e-33,0.00011028,-39.264,-148,-56.229,-0.0010385,2.0537e-13,-3.0395e-17,101.32,-148,-56.229,-39.264,0,0.016681,0,1,3.4,0,-3.4,0
0,0,0,0,0,0,0.00011003,-0.00059646,-7.347e-37,-8.6309e-09,1.232e-18,-2.1615e-22,0.71076,0.00065841,-0.00059646,5.2188e-33,0.00011003,-39.227,-147.79,-56.154,-0.0013267,1.8938e-13,-3.2912e-17,101.16,-147.79,-56.154,-39.227,0,0.016684,0,1,3.405,0,-3.405,0
0,0,0,0,0,0,0.00010978,-0.00059556,-1.4813e-37,-1.0364e-08,1.1299e-18,-2.3084e-22,0.71029,0.00065736,-0.00059556,4.6188e-33,0.00010978,-39.189,-147.57,-56.079,-0.0015931,1.7369e-13,-3.519e-17,101,-147.57,-56.079,-39.189,0,0.016687,0,1,3.41,0,-3.41,0
0,0,0,0,0,0,0.00010954,-0.00059466,4.5906e-37,-1.1955e-08,1.0297e-18,-2.4398e-22,0.70983,0.00065633,-0.00059466,4.0455e-33,0.00010954,-39.152,-147.36,-56.003,-0.0018378,1.5828e-13,-3.7229e-17,100.84,-147.36,-56.003,-39.152,0,0.01669,0,1,3.415,0,-3.415,0
0,0,0,0,0,0,0.00010929,-0.00059377,1.0869e-36,-1.3404e-08,9.3142e-19,-2.5557e-22,0.70936,0.00065529,-0.00059377,3.4989e-33,0.00010929,-39.114,-147.15,-55.928,-0.0020607,1.4317e-13,-3.9029e-17,100.68,-147.15,-55.928,-39.114,0,0.016693,0,1,3.42,0,-3.42,0
0,0,0,0,0,0,0.00010905,-0.00059287,1.7354e-36,-1.4713e-08,8.3501e-19,-2.6561e-22,0.70889,0.00065425,-0.00059287,2.979e-33,0.00010905,-39.076,-146.93,-55.852,-0.0022619,1.2835e-13,-4.059e-17,100.52,-146.93,-55.852,-39.076,0,0.016696,0,1,3.425,0,-3.425,0
0,0,0,0,0,0,0.00010881,-0.00059197,2.4046e-36,-1.5879e-08,7.4048e-19,-2.741e-22,0.70842,0.00065321,-0.00059197,2.4858e-33,0.00010881,-39.037,-146.72,-55.777,-0.0024413,1.1382e-13,-4.1913e-17,100.37,-146.72,-55.777,-39.037,0,0.016698,0,1,3.43,0,-3.43,0
0,0,0,0,0,0,0.00010857,-0.00059107,3.0944e-36,-1.6904e-08,6.4785e-19,-2.8105e-22,0.70795,0.00065217,-0.00059107,2.0193e-33,0.00010857,-38.998,-146.51,-55.701,-0.0025989,9.9585e-14,-4.2996e-17,100.21,-146.51,-55.701,-38.998,0,0.016701,0,1,3.435,0,-3.435,0
0,0,0,0,0,0,0.00010833,-0.00059018,3.8049e-36,-1.7788e-08,5.5712e-19,-2.8644e-22,0.70748,0.00065114,-0.00059018,1.5795e-33,0.00010833,-38.959,-146.29,-55.625,-0.0027348,8.5638e-14,-4.3841e-17,100.05,-146.29,-55.625,-38.959,0,0.016704,0,1,3.44,0,-3.44,0
0,0,0,0,0,0,0.00010809,-0.00058928,4.536e-36,-1.8531e-08,4.6828e-19,-2.9028e-22,0.70702,0.0006501,-0.00058928,1.1665e-33,0.00010809,-38.92,-146.08,-55.549,-0.002849,7.1982e-14,-4.4446e-17,99.888,-146.08,-55.549,-38.92,0,0.016707,0,1,3.445,0,-3.445,0
0,0,0,0,0,0,0.00010785,-0.00058838,5.2878e-36,-1.9131e-08,3.8133e-19,-2.9257e-22,0.70655,0.00064906,-0.00058838,7.8007e-34,0.00010785,-38.88,-145.86,-55.472,-0.0029413,5.8616e-14,-4.4813e-17,99.729,-145.86,-55.472,-38.88,0,0.01671,0,1,3.45,0,-3.45,0
0,0,0,0,0,0,0.00010762,-0.00058748,6.0602e-36,-1.9591e-08,2.9627e-19,-2.9331e-22,0.70608,0.00064803,-0.00058748,4.204e-34,0.00010762,-38.84,-145.65,-55.396,-0.003012,4.5543e-14,-4.4941e-17,99.57,-145.65,-55.396,-38.84,0,0.016713,0,1,3.455,0,-3.455,0
0,0,0,0,0,0,0.00010738,-0.00058659,6.8532e-36,-1.9909e-08,2.1311e-19,-2.9251e-22,0.70561,0.00064699,-0.00058659,8.7399e-35,0.00010738,-38.8,-145.44,-55.32,-0.0030609,3.276e-14,-4.483e-17,99.412,-145.44,-55.32,-38.8,0,0.016716,0,1,3.46,0,-3.46,0
0,0,0,0,0,0,0.00010715,-0.00058569,7.6669e-36,-2.0085e-08,1.3185e-19,-2.9015e-22,0.70514,0.00064596,-0.00058569,-2.1888e-34,0.00010715,-38.76,-145.22,-55.243,-0.003088,2.0268e-14,-4.448e-17,99.253,-145.22,-55.243,-38.76,0,0.016719,0,1,3.465,0,-3.465,0
0,0,0,0,0,0,0.00010691,-0.00058479,8.5013e-36,-2.012e-08,5.2474e-20,-2.8625e-22,0.70467,0.00064493,-0.00058479,-4.9848e-34,0.00010691,-38.719,-145.01,-55.166,-0.0030934,8.0671e-15,-4.3891e-17,99.094,-145.01,-55.166,-38.719,0,0.016722,0,1,3.47,0,-3.47,0
0,0,0,0,0,0,0.00010668,-0.00058389,9.3563e-36,-2.0013e-08,-2.5003e-20,-2.8079e-22,0.70421,0.0006439,-0.00058389,-7.5136e-34,0.00010668,-38.678,-144.79,-55.089,-0.003077,-3.8422e-15,-4.3063e-17,98.936,-144.79,-55.089,-38.678,0,0.016725,0,1,3.475,0,-3.475,0
0,0,0,0,0,0,0.00010645,-0.000583,1.0232e-35,-1.9765e-08,-1.0059e-19,-2.7378e-22,0.70374,0.00064286,-0.000583,-9.7755e-34,0.00010645,-38.636,-144.58,-55.012,-0.0030388,-1.5461e-14,-4.1996e-17,98.777,-144.58,-55.012,-38.636,0,0.016728,0,1,3.48,0,-3.48,0
0,0,0,0,0,0,0.00010622,-0.0005821,1.1128e-35,-1.9376e-08,-1.7428e-19,-2.6523e-22,0.70327,0.00064183,-0.0005821,-1.177e-33,0.00010622,-38.594,-144.36,-54.935,-0.0029789,-2.6788e-14,-4.0691e-17,98.619,-144.36,-54.935,-38.594,0,0.016731,0,1,3.485,0,-3.485,0
0,0,0,0,0,0,0.00010599,-0.0005812,1.2045e-35,-1.8845e-08,-2.4608e-19,-2.5512e-22,0.7028,0.0006408,-0.0005812,-1.3498e-33,0.00010599,-38.552,-144.15,-54.858,-0.0028973,-3.7825e-14,-3.9146e-17,98.461,-144.15,-54.858,-38.552,0,0.016734,0,1,3.49,0,-3.49,0
0,0,0,0,0,0,0.00010576,-0.0005803,1.2983e-35,-1.8173e-08,-3.1598e-19,-2.4347e-22,0.70233,0.00063977,-0.0005803,-1.4959e-33,0.00010576,-38.51,-143.93,-54.781,-0.0027939,-4.857e-14,-3.7362e-17,98.303,-143.93,-54.781,-38.51,0,0.016737,0,1,3.495,0,-3.495,0
0,0,0,0,0,0,0.00010553,-0.0005794,1.3941e-35,-1.7359e-08,-3.8399e-19,-2.3026e-22,0.70186,0.00063874,-0.0005794,-1.6153e-33,0.00010553,-38.467,-143.72,-54.703,-0.0026687,-5.9024e-14,-3.534e-17,98.145,-143.72,-54.703,-38.467,0,0.016739,0,1,3.5,0,-3.5,0
0,0,0,0,0,0,0.00010531,-0.0005785,1.492e-35,-1.6403e-08,-4.501e-19,-2.1551e-22,0.7014,0.00063771,-0.0005785,-1.708e-33,0.00010531,-38.425,-143.5,-54.625,-0.0025218,-6.9187e-14,-3.3079e-17,97.987,-143.5,-54.625,-38.425,0,0.016742,0,1,3.505,0,-3.505,0
0,0,0,0,0,0,0.00010508,-0.00057761,1.592e-35,-1.5306e-08,-5.1432e-19,-1.9921e-22,0.70093,0.00063668,-0.00057761,-1.774e-33,0.00010508,-38.381,-143.29,-54.548,-0.0023532,-7.9059e-14,-3.0579e-17,97.829,-143.29,-54.548,-38.381,0,0.016745,0,1,3.51,0,-3.51,0
0,0,0,0,0,0,0.00010486,-0.00057671,1.694e-35,-1.4068e-08,-5.7665e-19,-1.8135e-22,0.70046,0.00063566,-0.00057671,-1.8133e-33,0.00010486,-38.338,-143.07,-54.47,-0.0021627,-8.864e-14,-2.7839e-17,97.671,-143.07,-54.47,-38.338,0,0.016748,0,1,3.515,0,-3.515,0
0,0,0,0,0,0,0.00010464,-0.00057581,1.7981e-35,-1.2688e-08,-6.3708e-19,-1.6195e-22,0.69999,0.00063463,-0.00057581,-1.8259e-33,0.00010464,-38.294,-142.85,-54.392,-0.0019506,-9.793e-14,-2.4861e-17,97.514,-142.85,-54.392,-38.294,0,0.016751,0,1,3.52,0,-3.52,0
0,0,0,0,0,0,0.00010442,-0.00057491,1.9042e-35,-1.1167e-08,-6.9562e-19,-1.41e-22,0.69952,0.0006336,-0.00057491,-1.8118e-33,0.00010442,-38.25,-142.64,-54.313,-0.0017166,-1.0693e-13,-2.1644e-17,97.356,-142.64,-54.313,-38.25,0,0.016754,0,1,3.525,0,-3.525,0
0,0,0,0,0,0,0.00010419,-0.00057401,2.0125e-35,-9.5041e-09,-7.5227e-19,-1.185e-22,0.69905,0.00063258,-0.00057401,-1.771e-33,0.00010419,-38.206,-142.42,-54.235,-0.001461,-1.1564e-13,-1.8189e-17,97.199,-142.42,-54.235,-38.206,0,0.016757,0,1,3.53,0,-3.53,0
0,0,0,0,0,0,0.00010398,-0.00057311,2.1227e-35,-7.6999e-09,-8.0702e-19,-9.4444e-23,0.69859,0.00063155,-0.00057311,-1.7034e-33,0.00010398,-38.161,-142.21,-54.157,-0.0011835,-1.2405e-13,-1.4494e-17,97.041,-142.21,-54.157,-38.161,0,0.01676,0,1,3.535,0,-3.535,0
0,0,0,0,0,0,0.00010376,-0.00057221,2.2351e-35,-5.7542e-09,-8.5988e-19,-6.8843e-23,0.69812,0.00063053,-0.00057221,-1.6092e-33,0.00010376,-38.116,-141.99,-54.078,-0.00088433,-1.3218e-13,-1.056e-17,96.884,-141.99,-54.078,-38.116,0,0.016763,0,1,3.54,0,-3.54,0
0,0,0,0,0,0,0.00010354,-0.00057132,2.3495e-35,-3.667e-09,-9.1084e-19,-4.1691e-23,0.69765,0.0006295,-0.00057132,-1.4883e-33,0.00010354,-38.071,-141.77,-53.999,-0.00056338,-1.4001e-13,-6.3874e-18,96.727,-141.77,-53.999,-38.071,0,0.016765,0,1,3.545,0,-3.545,0
0,0,0,0,0,0,0.00010332,-0.00057042,2.466e-35,-1.4384e-09,-9.5991e-19,-1.299e-23,0.69718,0.00062848,-0.00057042,-1.3407e-33,0.00010332,-38.025,-141.56,-53.921,-0.00022069,-1.4756e-13,-1.976e-18,96.57,-141.56,-53.921,-38.025,0,0.016768,0,1,3.55,0,-3.55,0
0,0,0,0,0,0,0.00010311,-0.00056952,2.5845e-35,9.3184e-10,-1.0071e-18,1.7261e-23,0.69671,0.00062746,-0.00056952,-1.1664e-33,0.00010311,-37.979,-141.34,-53.842,0.00014377,-1.5481e-13,2.6745e-18,96.413,-141.34,-53.842,-37.979,0,0.016771,0,1,3.555,0,-3.555,0
0,0,0,0,0,0,0.00010289,-0.00056862,2.7051e-35,3.4434e-09,-1.0524e-18,4.9061e-23,0.69624,0.00062644,-0.00056862,-9.654e-34,0.00010289,-37.933,-141.12,-53.763,0.00052997,-1.6177e-13,7.5637e-18,96.256,-141.12,-53.763,-37.933,0,0.016774,0,1,3.56,0,-3.56,0
0,0,0,0,0,0,0.00010268,-0.00056772,2.8278e-35,6.0965e-09,-1.0958e-18,8.2411e-23,0.69577,0.00062541,-0.00056772,-7.3769e-34,0.00010268,-37.887,-140.91,-53.683,0.00093794,-1.6844e-13,1.2692e-17,96.099,-140.91,-53.683,-37.887,0,0.016777,0,1,3.565,0,-3.565,0
0,0,0,0,0,0,0.00010247,-0.00056682,2.9525e-35,8.891e-09,-1.1373e-18,1.1731e-22,0.69531,0.00062439,-0.00056682,-4.8329e-34,0.00010247,-37.84,-140.69,-53.604,0.0013676,-1.7482e-13,1.8059e-17,95.942,-140.69,-53.604,-37.84,0,0.01678,0,1,3.57,0,-3.57,0
0,0,0,0,0,0,0.00010226,-0.00056592,3.0794e-35,1.1827e-08,-1.1769e-18,1.5376e-22,0.69484,0.00062337,-0.00056592,-2.0217e-34,0.00010226,-37.793,-140.47,-53.525,0.0018191,-1.8091e-13,2.3665e-17,95.786,-140.47,-53.525,-37.793,0,0.016782,0,1,3.575,0,-3.575,0
0,0,0,0,0,0,0.00010205,-0.00056502,3.2082e-35,1.4905e-08,-1.2146e-18,1.9176e-22,0.69437,0.00062235,-0.00056502,1.0563e-34,0.00010205,-37.746,-140.25,-53.445,0.0022923,-1.867e-13,2.951e-17,95.629,-140.25,-53.445,-37.746,0,0.016785,0,1,3.58,0,-3.58,0
0,0,0,0,0,0,0.00010184,-0.00056412,3.3392e-35,1.8124e-08,-1.2504e-18,2.3131e-22,0.6939,0.00062133,-0.00056412,4.4014e-34,0.00010184,-37.698,-140.04,-53.365,0.0027873,-1.9221e-13,3.5594e-17,95.473,-140.04,-53.365,-37.698,0,0.016788,0,1,3.585,0,-3.585,0
0,0,0,0,0,0,0.00010163,-0.00056322,3.4722e-35,2.1484e-08,-1.2843e-18,2.7241e-22,0.69343,0.00062031,-0.00056322,8.0134e-34,0.00010163,-37.65,-139.82,-53.285,0.0033041,-1.9742e-13,4.1917e-17,95.316,-139.82,-53.285,-37.65,0,0.016791,0,1,3.59,0,-3.59,0
0,0,0,0,0,0,0.00010142,-0.00056232,3.6072e-35,2.4986e-08,-1.3163e-18,3.1505e-22,0.69296,0.0006193,-0.00056232,1.1893e-33,0.00010142,-37.602,-139.6,-53.205,0.0038426,-2.0235e-13,4.8479e-17,95.16,-139.6,-53.205,-37.602,0,0.016794,0,1,3.595,0,-3.595,0
0,0,0,0,0,0,0.00010122,-0.00056143,3.7443e-35,2.8629e-08,-1.3464e-18,3.5925e-22,0.6925,0.00061828,-0.00056143,1.6039e-33,0.00010122,-37.554,-139.38,-53.125,0.0044028,-2.0698e-13,5.5279e-17,95.004,-139.38,-53.125,-37.554,0,0.016797,0,1,3.6,0,-3.6,0
0,0,0,0,0,0,0.00010101,-0.00056053,3.8835e-35,3.2414e-08,-1.3747e-18,4.05e-22,0.69203,0.00061726,-0.00056053,2.0452e-33,0.00010101,-37.505,-139.16,-53.045,0.0049848,-2.1132e-13,6.2319e-17,94.848,-139.16,-53.045,-37.505,0,0.016799,0,1,3.605,0,-3.605,0
0,0,0,0,0,0,0.00010081,-0.00055963,4.0248e-35,3.6341e-08,-1.401e-18,4.523e-22,0.69156,0.00061625,-0.00055963,2.5132e-33,0.00010081,-37.456,-138.94,-52.965,0.0055885,-2.1537e-13,6.9597e-17,94.692,-138.94,-52.965,-37.456,0,0.016802,0,1,3.61,0,-3.61,0
0,0,0,0,0,0,0.00010061,-0.00055873,4.1681e-35,4.0408e-08,-1.4255e-18,5.0114e-22,0.69109,0.00061523,-0.00055873,3.0079e-33,0.00010061,-37.406,-138.73,-52.884,0.006214,-2.1913e-13,7.7115e-17,94.536,-138.73,-52.884,-37.406,0,0.016805,0,1,3.615,0,-3.615,0
0,0,0,0,0,0,0.00010041,-0.00055783,4.3135e-35,4.4618e-08,-1.448e-18,5.5154e-22,0.69062,0.00061422,-0.00055783,3.5293e-33,0.00010041,-37.357,-138.51,-52.803,0.0068613,-2.226e-13,8.4871e-17,94.38,-138.51,-52.803,-37.357,0,0.016808,0,1,3.62,0,-3.62,0
0,0,0,0,0,0,0.00010021,-0.00055698,4.4021e-35,4.6127e-08,-1.471e-18,5.7654e-22,0.69018,0.00061326,-0.00055698,3.7058e-33,0.00010021,-37.313,-138.3,-52.729,0.0070933,-2.2612e-13,8.8719e-17,94.233,-138.3,-52.729,-37.313,0,0.016811,0,1,3.625,0,-3.625,0
0,0,0,0,0,0,0.00010001,-0.00055625,4.387e-35,4.2696e-08,-1.4985e-18,5.5425e-22,0.68979,0.00061241,-0.00055625,3.2707e-33,0.00010001,-37.281,-138.13,-52.667,0.0065658,-2.3036e-13,8.529e-17,94.102,-138.13,-52.667,-37.281,0,0.016813,0,1,3.63,0,-3.63,0
0,0,0,0,0,0,9.9813e-05,-0.00055551,4.3724e-35,3.9363e-08,-1.5279e-18,5.3214e-22,0.6894,0.00061155,-0.00055551,2.8947e-33,9.9813e-05,-37.248,-137.95,-52.604,0.0060533,-2.3488e-13,8.1886e-17,93.971,-137.95,-52.604,-37.248,0,0.016816,0,1,3.635,0,-3.635,0
0,0,0,0,0,0,9.9617e-05,-0.00055477,4.3585e-35,3.6129e-08,-1.5591e-18,5.1019e-22,0.68901,0.0006107,-0.00055477,2.5779e-33,9.9617e-05,-37.216,-137.78,-52.541,0.005556,-2.3967e-13,7.8508e-17,93.84,-137.78,-52.541,-37.216,0,0.016819,0,1,3.64,0,-3.64,0
0,0,0,0,0,0,9.9422e-05,-0.00055403,4.3451e-35,3.2993e-08,-1.5921e-18,4.8842e-22,0.68862,0.00060985,-0.00055403,2.3202e-33,9.9422e-05,-37.183,-137.6,-52.478,0.0050738,-2.4474e-13,7.5157e-17,93.709,-137.6,-52.478,-37.183,0,0.016822,0,1,3.645,0,-3.645,0
0,0,0,0,0,0,9.9228e-05,-0.00055329,4.3323e-35,2.9956e-08,-1.6268e-18,4.6682e-22,0.68823,0.00060899,-0.00055329,2.1217e-33,9.9228e-05,-37.15,-137.42,-52.415,0.0046067,-2.5008e-13,7.1831e-17,93.578,-137.42,-52.415,-37.15,0,0.016824,0,1,3.65,0,-3.65,0
0,0,0,0,0,0,9.9035e-05,-0.00055255,4.3201e-35,2.7017e-08,-1.6634e-18,4.4539e-22,0.68784,0.00060814,-0.00055255,1.9824e-33,9.9035e-05,-37.116,-137.25,-52.352,0.0041547,-2.557e-13,6.8531e-17,93.448,-137.25,-52.352,-37.116,0,0.016827,0,1,3.655,0,-3.655,0
0,0,0,0,0,0,9.8842e-05,-0.00055181,4.3085e-35,2.4176e-08,-1.7017e-18,4.2412e-22,0.68745,0.00060729,-0.00055181,1.9022e-33,9.8842e-05,-37.083,-137.07,-52.289,0.0037178,-2.616e-13,6.5256e-17,93.317,-137.07,-52.289,-37.083,0,0.01683,0,1,3.66,0,-3.66,0
0,0,0,0,0,0,9.865e-05,-0.00055107,4.2974e-35,2.1433e-08,-1.7419e-18,4.0303e-22,0.68706,0.00060644,-0.00055107,1.8811e-33,9.865e-05,-37.049,-136.89,-52.226,0.0032961,-2.6777e-13,6.2008e-17,93.186,-136.89,-52.226,-37.049,0,0.016833,0,1,3.665,0,-3.665,0
0,0,0,0,0,0,9.8459e-05,-0.00055033,4.2869e-35,1.8789e-08,-1.7838e-18,3.8211e-22,0.68667,0.00060559,-0.00055033,1.9193e-33,9.8459e-05,-37.015,-136.72,-52.162,0.0028895,-2.7422e-13,5.8785e-17,93.056,-136.72,-52.162,-37.015,0,0.016835,0,1,3.67,0,-3.67,0
0,0,0,0,0,0,9.8269e-05,-0.00054959,4.277e-35,1.6243e-08,-1.8275e-18,3.6136e-22,0.68628,0.00060474,-0.00054959,2.0165e-33,9.8269e-05,-36.981,-136.54,-52.099,0.002498,-2.8094e-13,5.5589e-17,92.925,-136.54,-52.099,-36.981,0,0.016838,0,1,3.675,0,-3.675,0
0,0,0,0,0,0,9.808e-05,-0.00054885,4.2677e-35,1.3795e-08,-1.873e-18,3.4078e-22,0.68589,0.00060389,-0.00054885,2.173e-33,9.808e-05,-36.946,-136.36,-52.035,0.0021216,-2.8794e-13,5.2418e-17,92.795,-136.36,-52.035,-36.946,0,0.016841,0,1,3.68,0,-3.68,0
0,0,0,0,0,0,9.7892e-05,-0.00054811,4.2589e-35,1.1446e-08,-1.9204e-18,3.2038e-22,0.6855,0.00060304,-0.00054811,2.3886e-33,9.7892e-05,-36.911,-136.18,-51.971,0.0017603,-2.9521e-13,4.9273e-17,92.665,-136.18,-51.971,-36.911,0,0.016844,0,1,3.685,0,-3.685,0
0,0,0,0,0,0,9.7704e-05,-0.00054737,4.2507e-35,9.1948e-09,-1.9695e-18,3.0014e-22,0.68511,0.00060219,-0.00054737,2.6634e-33,9.7704e-05,-36.877,-136.01,-51.907,0.0014142,-3.0276e-13,4.6154e-17,92.534,-136.01,-51.907,-36.877,0,0.016846,0,1,3.69,0,-3.69,0
0,0,0,0,0,0,9.7517e-05,-0.00054663,4.2431e-35,7.0421e-09,-2.0204e-18,2.8007e-22,0.68472,0.00060135,-0.00054663,2.9973e-33,9.7517e-05,-36.841,-135.83,-51.844,0.0010832,-3.1059e-13,4.3061e-17,92.404,-135.83,-51.844,-36.841,0,0.016849,0,1,3.695,0,-3.695,0
0,0,0,0,0,0,9.7331e-05,-0.00054589,4.2361e-35,4.9877e-09,-2.0731e-18,2.6018e-22,0.68433,0.0006005,-0.00054589,3.3903e-33,9.7331e-05,-36.806,-135.65,-51.78,0.00076725,-3.1869e-13,3.9993e-17,92.274,-135.65,-51.78,-36.806,0,0.016852,0,1,3.7,0,-3.7,0
0,0,0,0,0,0,9.7146e-05,-0.00054515,4.2296e-35,3.0316e-09,-2.1276e-18,2.4045e-22,0.68394,0.00059965,-0.00054515,3.8426e-33,9.7146e-05,-36.77,-135.47,-51.715,0.00046646,-3.2707e-13,3.6952e-17,92.144,-135.47,-51.715,-36.77,0,0.016855,0,1,3.705,0,-3.705,0
0,0,0,0,0,0,9.6961e-05,-0.00054441,4.2238e-35,1.1738e-09,-2.1839e-18,2.209e-22,0.68355,0.0005988,-0.00054441,4.354e-33,9.6961e-05,-36.735,-135.3,-51.651,0.00018078,-3.3572e-13,3.3936e-17,92.014,-135.3,-51.651,-36.735,0,0.016857,0,1,3.71,0,-3.71,0
0,0,0,0,0,0,9.6778e-05,-0.00054367,4.2185e-35,-5.8557e-10,-2.242e-18,2.0152e-22,0.68316,0.00059796,-0.00054367,4.9245e-33,9.6778e-05,-36.699,-135.12,-51.587,-8.9771e-05,-3.4465e-13,3.0947e-17,91.884,-135.12,-51.587,-36.699,0,0.01686,0,1,3.715,0,-3.715,0
0,0,0,0,0,0,9.6595e-05,-0.00054293,4.2137e-35,-2.2468e-09,-2.3018e-18,1.823e-22,0.68277,0.00059711,-0.00054293,5.5542e-33,9.6595e-05,-36.662,-134.94,-51.523,-0.00034522,-3.5386e-13,2.7983e-17,91.754,-134.94,-51.523,-36.662,0,0.016863,0,1,3.72,0,-3.72,0
0,0,0,0,0,0,9.6413e-05,-0.00054218,4.2096e-35,-3.8095e-09,-2.3635e-18,1.6326e-22,0.68238,0.00059627,-0.00054218,6.2431e-33,9.6413e-05,-36.626,-134.76,-51.458,-0.00058553,-3.6334e-13,2.5045e-17,91.625,-134.76,-51.458,-36.626,0,0.016866,0,1,3.725,0,-3.725,0
0,0,0,0,0,0,9.6232e-05,-0.00054144,4.206e-35,-5.2741e-09,-2.427e-18,1.4439e-22,0.68199,0.00059542,-0.00054144,6.9911e-33,9.6232e-05,-36.589,-134.58,-51.394,-0.00081074,-3.731e-13,2.2132e-17,91.495,-134.58,-51.394,-36.589,0,0.016868,0,1,3.73,0,-3.73,0
0,0,0,0,0,0,9.6052e-05,-0.0005407,4.203e-35,-6.6402e-09,-2.4923e-18,1.2569e-22,0.6816,0.00059458,-0.0005407,7.7983e-33,9.6052e-05,-36.552,-134.41,-51.329,-0.0010208,-3.8313e-13,1.9246e-17,91.365,-134.41,-51.329,-36.552,0,0.016871,0,1,3.735,0,-3.735,0
0,0,0,0,0,0,9.5872e-05,-0.00053996,4.2006e-35,-7.9082e-09,-2.5593e-18,1.0716e-22,0.68121,0.00059373,-0.00053996,8.6647e-33,9.5872e-05,-36.515,-134.23,-51.264,-0.0012158,-3.9344e-13,1.6386e-17,91.236,-134.23,-51.264,-36.515,0,0.016874,0,1,3.74,0,-3.74,0
0,0,0,0,0,0,9.5693e-05,-0.00053922,4.1988e-35,-9.0777e-09,-2.6282e-18,8.8803e-23,0.68082,0.00059289,-0.00053922,9.5902e-33,9.5693e-05,-36.478,-134.05,-51.199,-0.0013956,-4.0403e-13,1.3551e-17,91.106,-134.05,-51.199,-36.478,0,0.016876,0,1,3.745,0,-3.745,0
0,0,0,0,0,0,9.5515e-05,-0.00053848,4.1975e-35,-1.0149e-08,-2.6988e-18,7.0614e-23,0.68043,0.00059205,-0.00053848,1.0575e-32,9.5515e-05,-36.44,-133.87,-51.134,-0.0015604,-4.1489e-13,1.0743e-17,90.977,-133.87,-51.134,-36.44,0,0.016879,0,1,3.75,0,-3.75,0
0,0,0,0,0,0,9.5338e-05,-0.00053774,4.1968e-35,-1.1122e-08,-2.7713e-18,5.2597e-23,0.68003,0.0005912,-0.00053774,1.1619e-32,9.5338e-05,-36.402,-133.69,-51.069,-0.00171,-4.2602e-13,7.9597e-18,90.848,-133.69,-51.069,-36.402,0,0.016882,0,1,3.755,0,-3.755,0
0,0,0,0,0,0,9.5162e-05,-0.000537,4.1967e-35,-1.1997e-08,-2.8455e-18,3.4751e-23,0.67964,0.00059036,-0.000537,1.2722e-32,9.5162e-05,-36.364,-133.51,-51.004,-0.0018445,-4.3744e-13,5.2028e-18,90.718,-133.51,-51.004,-36.364,0,0.016884,0,1,3.76,0,-3.76,0
0,0,0,0,0,0,9.4986e-05,-0.00053626,4.1972e-35,-1.2773e-08,-2.9215e-18,1.7075e-23,0.67925,0.00058952,-0.00053626,1.3884e-32,9.4986e-05,-36.326,-133.33,-50.939,-0.0019638,-4.4913e-13,2.4716e-18,90.589,-133.33,-50.939,-36.326,0,0.016887,0,1,3.765,0,-3.765,0
0,0,0,0,0,0,9.4812e-05,-0.00053552,4.1982e-35,-1.3451e-08,-2.9993e-18,-4.2879e-25,0.67886,0.00058868,-0.00053552,1.5105e-32,9.4812e-05,-36.287,-133.15,-50.873,-0.0020681,-4.6109e-13,-2.3354e-19,90.46,-133.15,-50.873,-36.287,0,0.01689,0,1,3.77,0,-3.77,0
0,0,0,0,0,0,9.4638e-05,-0.00053478,4.1999e-35,-1.4031e-08,-3.079e-18,-1.7763e-23,0.67847,0.00058784,-0.00053478,1.6386e-32,9.4638e-05,-36.249,-132.97,-50.808,-0.0021572,-4.7333e-13,-2.913e-18,90.331,-132.97,-50.808,-36.249,0,0.016892,0,1,3.775,0,-3.775,0
0,0,0,0,0,0,9.4465e-05,-0.00053404,4.2021e-35,-1.4512e-08,-3.1604e-18,-3.4926e-23,0.67808,0.000587,-0.00053404,1.7725e-32,9.4465e-05,-36.21,-132.8,-50.742,-0.0022313,-4.8585e-13,-5.5664e-18,90.202,-132.8,-50.742,-36.21,0,0.016895,0,1,3.78,0,-3.78,0
0,0,0,0,0,0,9.4292e-05,-0.0005333,4.2048e-35,-1.4895e-08,-3.2436e-18,-5.1918e-23,0.67769,0.00058616,-0.0005333,1.9124e-32,9.4292e-05,-36.17,-132.62,-50.677,-0.0022902,-4.9864e-13,-8.1941e-18,90.073,-132.62,-50.677,-36.17,0,0.016898,0,1,3.785,0,-3.785,0
0,0,0,0,0,0,9.4121e-05,-0.00053255,4.2082e-35,-1.518e-08,-3.3286e-18,-6.874e-23,0.6773,0.00058532,-0.00053255,2.0582e-32,9.4121e-05,-36.131,-132.44,-50.611,-0.0023339,-5.1171e-13,-1.0796e-17,89.944,-132.44,-50.611,-36.131,0,0.0169,0,1,3.79,0,-3.79,0
0,0,0,0,0,0,9.395e-05,-0.00053181,4.2121e-35,-1.5366e-08,-3.4154e-18,-8.5391e-23,0.67691,0.00058448,-0.00053181,2.2099e-32,9.395e-05,-36.091,-132.26,-50.545,-0.0023626,-5.2505e-13,-1.3372e-17,89.816,-132.26,-50.545,-36.091,0,0.016903,0,1,3.795,0,-3.795,0
0,0,0,0,0,0,9.3781e-05,-0.00053107,4.2166e-35,-1.5454e-08,-3.504e-18,-1.0187e-22,0.67652,0.00058364,-0.00053107,2.3675e-32,9.3781e-05,-36.052,-132.08,-50.479,-0.0023762,-5.3867e-13,-1.5922e-17,89.687,-132.08,-50.479,-36.052,0,0.016906,0,1,3.8,0,-3.8,0
0,0,0,0,0,0,9.3612e-05,-0.00053033,4.2217e-35,-1.5444e-08,-3.5943e-18,-1.1818e-22,0.67613,0.0005828,-0.00053033,2.5311e-32,9.3612e-05,-36.012,-131.9,-50.413,-0.0023746,-5.5256e-13,-1.8446e-17,89.558,-131.9,-50.413,-36.012,0,0.016908,0,1,3.805,0,-3.805,0
0,0,0,0,0,0,9.3443e-05,-0.00052959,4.2274e-35,-1.5335e-08,-3.6865e-18,-1.3432e-22,0.67574,0.00058197,-0.00052959,2.7005e-32,9.3443e-05,-35.971,-131.72,-50.347,-0.0023579,-5.6674e-13,-2.0944e-17,89.43,-131.72,-50.347,-35.971,0,0.016911,0,1,3.81,0,-3.81,0
0,0,0,0,0,0,9.3276e-05,-0.00052885,4.2336e-35,-1.5129e-08,-3.7805e-18,-1.5029e-22,0.67535,0.00058113,-0.00052885,2.8759e-32,9.3276e-05,-35.931,-131.54,-50.28,-0.0023261,-5.8118e-13,-2.3417e-17,89.301,-131.54,-50.28,-35.931,0,0.016914,0,1,3.815,0,-3.815,0
0,0,0,0,0,0,9.3109e-05,-0.00052811,4.2404e-35,-1.4823e-08,-3.8763e-18,-1.6608e-22,0.67496,0.00058029,-0.00052811,3.0572e-32,9.3109e-05,-35.89,-131.36,-50.214,-0.0022792,-5.9591e-13,-2.5863e-17,89.173,-131.36,-50.214,-35.89,0,0.016916,0,1,3.82,0,-3.82,0
0,0,0,0,0,0,9.2944e-05,-0.00052737,4.2478e-35,-1.442e-08,-3.9738e-18,-1.8171e-22,0.67457,0.00057946,-0.00052737,3.2444e-32,9.2944e-05,-35.849,-131.18,-50.148,-0.0022171,-6.1091e-13,-2.8284e-17,89.044,-131.18,-50.148,-35.849,0,0.016919,0,1,3.825,0,-3.825,0
0,0,0,0,0,0,9.2779e-05,-0.00052663,4.2558e-35,-1.3918e-08,-4.0732e-18,-1.9716e-22,0.67418,0.00057862,-0.00052663,3.4375e-32,9.2779e-05,-35.808,-131,-50.081,-0.00214,-6.2618e-13,-3.0679e-17,88.916,-131,-50.081,-35.808,0,0.016922,0,1,3.83,0,-3.83,0
0,0,0,0,0,0,9.2614e-05,-0.00052588,4.2643e-35,-1.3318e-08,-4.1743e-18,-2.1245e-22,0.67379,0.00057778,-0.00052588,3.6365e-32,9.2614e-05,-35.766,-130.82,-50.014,-0.0020477,-6.4173e-13,-3.3048e-17,88.788,-130.82,-50.014,-35.766,0,0.016924,0,1,3.835,0,-3.835,0
0,0,0,0,0,0,9.2451e-05,-0.00052514,4.2734e-35,-1.262e-08,-4.2773e-18,-2.2756e-22,0.6734,0.00057695,-0.00052514,3.8415e-32,9.2451e-05,-35.725,-130.64,-49.948,-0.0019403,-6.5756e-13,-3.5391e-17,88.66,-130.64,-49.948,-35.725,0,0.016927,0,1,3.84,0,-3.84,0
0,0,0,0,0,0,9.2289e-05,-0.0005244,4.2831e-35,-1.1823e-08,-4.382e-18,-2.4251e-22,0.67301,0.00057612,-0.0005244,4.0524e-32,9.2289e-05,-35.683,-130.46,-49.881,-0.0018178,-6.7366e-13,-3.7708e-17,88.532,-130.46,-49.881,-35.683,0,0.01693,0,1,3.845,0,-3.845,0
0,0,0,0,0,0,9.2127e-05,-0.00052366,4.2934e-35,-1.0928e-08,-4.4885e-18,-2.5728e-22,0.67262,0.00057528,-0.00052366,4.2691e-32,9.2127e-05,-35.641,-130.27,-49.814,-0.0016801,-6.9004e-13,-4e-17,88.404,-130.27,-49.814,-35.641,0,0.016932,0,1,3.85,0,-3.85,0
0,0,0,0,0,0,9.1966e-05,-0.00052292,4.3043e-35,-9.9346e-09,-4.5969e-18,-2.7188e-22,0.67223,0.00057445,-0.00052292,4.4918e-32,9.1966e-05,-35.599,-130.09,-49.747,-0.0015274,-7.0669e-13,-4.2265e-17,88.276,-130.09,-49.747,-35.599,0,0.016935,0,1,3.855,0,-3.855,0
0,0,0,0,0,0,9.1806e-05,-0.00052218,4.3157e-35,-8.8429e-09,-4.707e-18,-2.8631e-22,0.67184,0.00057362,-0.00052218,4.7205e-32,9.1806e-05,-35.556,-129.91,-49.68,-0.0013595,-7.2362e-13,-4.4505e-17,88.148,-129.91,-49.68,-35.556,0,0.016937,0,1,3.86,0,-3.86,0
0,0,0,0,0,0,9.1646e-05,-0.00052143,4.3277e-35,-7.6529e-09,-4.8189e-18,-3.0057e-22,0.67145,0.00057278,-0.00052143,4.955e-32,9.1646e-05,-35.513,-129.73,-49.612,-0.0011765,-7.4083e-13,-4.6719e-17,88.02,-129.73,-49.612,-35.513,0,0.01694,0,1,3.865,0,-3.865,0
0,0,0,0,0,0,9.1488e-05,-0.00052069,4.3403e-35,-6.3646e-09,-4.9326e-18,-3.1466e-22,0.67106,0.00057195,-0.00052069,5.1954e-32,9.1488e-05,-35.47,-129.55,-49.545,-0.0009784,-7.5831e-13,-4.8907e-17,87.892,-129.55,-49.545,-35.47,0,0.016943,0,1,3.87,0,-3.87,0
0,0,0,0,0,0,9.133e-05,-0.00051995,4.3534e-35,-4.978e-09,-5.0481e-18,-3.2858e-22,0.67067,0.00057112,-0.00051995,5.4418e-32,9.133e-05,-35.427,-129.37,-49.477,-0.00076517,-7.7607e-13,-5.1069e-17,87.765,-129.37,-49.477,-35.427,0,0.016945,0,1,3.875,0,-3.875,0
0,0,0,0,0,0,9.1173e-05,-0.00051921,4.3672e-35,-3.493e-09,-5.1654e-18,-3.4232e-22,0.67028,0.00057029,-0.00051921,5.6941e-32,9.1173e-05,-35.384,-129.19,-49.41,-0.00053682,-7.941e-13,-5.3205e-17,87.637,-129.19,-49.41,-35.384,0,0.016948,0,1,3.88,0,-3.88,0
0,0,0,0,0,0,9.1017e-05,-0.00051847,4.3815e-35,-1.9098e-09,-5.2845e-18,-3.559e-22,0.66989,0.00056946,-0.00051847,5.9523e-32,9.1017e-05,-35.34,-129.01,-49.342,-0.00029336,-8.1241e-13,-5.5315e-17,87.51,-129.01,-49.342,-35.34,0,0.01695,0,1,3.885,0,-3.885,0
0,0,0,0,0,0,9.0862e-05,-0.00051773,4.3964e-35,-2.2821e-10,-5.4054e-18,-3.6931e-22,0.6695,0.00056863,-0.00051773,6.2164e-32,9.0862e-05,-35.296,-128.82,-49.274,-3.4771e-05,-8.31e-13,-5.74e-17,87.382,-128.82,-49.274,-35.296,0,0.016953,0,1,3.89,0,-3.89,0
0,0,0,0,0,0,9.0708e-05,-0.00051698,4.4118e-35,1.5516e-09,-5.5281e-18,-3.8254e-22,0.66911,0.0005678,-0.00051698,6.4864e-32,9.0708e-05,-35.252,-128.64,-49.207,0.00023892,-8.4986e-13,-5.9459e-17,87.255,-128.64,-49.207,-35.252,0,0.016956,0,1,3.895,0,-3.895,0
0,0,0,0,0,0,9.0554e-05,-0.00051624,4.4279e-35,3.4299e-09,-5.6526e-18,-3.9561e-22,0.66872,0.00056697,-0.00051624,6.7624e-32,9.0554e-05,-35.208,-128.46,-49.139,0.00052775,-8.6899e-13,-6.1491e-17,87.127,-128.46,-49.139,-35.208,0,0.016958,0,1,3.9,0,-3.9,0
0,0,0,0,0,0,9.0401e-05,-0.0005155,4.4445e-35,5.4063e-09,-5.7788e-18,-4.085e-22,0.66833,0.00056614,-0.0005155,7.0442e-32,9.0401e-05,-35.163,-128.28,-49.071,0.00083168,-8.8841e-13,-6.3498e-17,87,-128.28,-49.071,-35.163,0,0.016961,0,1,3.905,0,-3.905,0
0,0,0,0,0,0,9.0249e-05,-0.00051476,4.4617e-35,7.4812e-09,-5.9069e-18,-4.2122e-22,0.66794,0.00056531,-0.00051476,7.332e-32,9.0249e-05,-35.118,-128.1,-49.002,0.0011507,-9.081e-13,-6.5479e-17,86.873,-128.1,-49.002,-35.118,0,0.016963,0,1,3.91,0,-3.91,0
0,0,0,0,0,0,9.0098e-05,-0.00051401,4.4794e-35,9.6543e-09,-6.0368e-18,-4.3378e-22,0.66755,0.00056448,-0.00051401,7.6257e-32,9.0098e-05,-35.073,-127.92,-48.934,0.0014849,-9.2806e-13,-6.7434e-17,86.746,-127.92,-48.934,-35.073,0,0.016966,0,1,3.915,0,-3.915,0
0,0,0,0,0,0,8.9948e-05,-0.00051327,4.4978e-35,1.1926e-08,-6.1684e-18,-4.4616e-22,0.66716,0.00056365,-0.00051327,7.9253e-32,8.9948e-05,-35.028,-127.73,-48.866,0.0018342,-9.483e-13,-6.9364e-17,86.619,-127.73,-48.866,-35.028,0,0.016968,0,1,3.92,0,-3.92,0
0,0,0,0,0,0,8.9798e-05,-0.00051253,4.5167e-35,1.4295e-08,-6.3019e-18,-4.5837e-22,0.66677,0.00056283,-0.00051253,8.2308e-32,8.9798e-05,-34.983,-127.55,-48.797,0.0021986,-9.6882e-13,-7.1267e-17,86.492,-127.55,-48.797,-34.983,0,0.016971,0,1,3.925,0,-3.925,0
0,0,0,0,0,0,8.9649e-05,-0.00051179,4.5362e-35,1.6764e-08,-6.4371e-18,-4.7041e-22,0.66637,0.000562,-0.00051179,8.5423e-32,8.9649e-05,-34.937,-127.37,-48.729,0.0025781,-9.8961e-13,-7.3145e-17,86.365,-127.37,-48.729,-34.937,0,0.016974,0,1,3.93,0,-3.93,0
0,0,0,0,0,0,8.9501e-05,-0.00051105,4.5563e-35,1.933e-08,-6.5741e-18,-4.8228e-22,0.66598,0.00056118,-0.00051105,8.8596e-32,8.9501e-05,-34.891,-127.19,-48.66,0.0029728,-1.0107e-12,-7.4996e-17,86.238,-127.19,-48.66,-34.891,0,0.016976,0,1,3.935,0,-3.935,0
0,0,0,0,0,0,8.9354e-05,-0.0005103,4.5769e-35,2.1995e-08,-6.713e-18,-4.9397e-22,0.66559,0.00056035,-0.0005103,9.1829e-32,8.9354e-05,-34.845,-127,-48.592,0.0033825,-1.032e-12,-7.6822e-17,86.112,-127,-48.592,-34.845,0,0.016979,0,1,3.94,0,-3.94,0
0,0,0,0,0,0,8.9208e-05,-0.00050956,4.5982e-35,2.4758e-08,-6.8536e-18,-5.055e-22,0.6652,0.00055952,-0.00050956,9.5121e-32,8.9208e-05,-34.799,-126.82,-48.523,0.0038074,-1.0536e-12,-7.8622e-17,85.985,-126.82,-48.523,-34.799,0,0.016981,0,1,3.945,0,-3.945,0
0,0,0,0,0,0,8.9062e-05,-0.00050882,4.62e-35,2.7619e-08,-6.996e-18,-5.1686e-22,0.66481,0.0005587,-0.00050882,9.8472e-32,8.9062e-05,-34.752,-126.64,-48.454,0.0042474,-1.0755e-12,-8.0396e-17,85.858,-126.64,-48.454,-34.752,0,0.016984,0,1,3.95,0,-3.95,0
0,0,0,0,0,0,8.8918e-05,-0.00050808,4.6424e-35,3.0579e-08,-7.1402e-18,-5.2804e-22,0.66442,0.00055788,-0.00050808,1.0188e-31,8.8918e-05,-34.706,-126.45,-48.385,0.0047025,-1.0977e-12,-8.2145e-17,85.732,-126.45,-48.385,-34.706,0,0.016986,0,1,3.955,0,-3.955,0
0,0,0,0,0,0,8.8774e-05,-0.00050733,4.6653e-35,3.3637e-08,-7.2862e-18,-5.3906e-22,0.66403,0.00055705,-0.00050733,1.0535e-31,8.8774e-05,-34.659,-126.27,-48.316,0.0051728,-1.1202e-12,-8.3867e-17,85.605,-126.27,-48.316,-34.659,0,0.016989,0,1,3.96,0,-3.96,0
0,0,0,0,0,0,8.8631e-05,-0.00050663,4.6226e-35,3.5226e-08,-7.3223e-18,-5.3258e-22,0.66366,0.00055626,-0.00050663,1.0662e-31,8.8631e-05,-34.615,-126.1,-48.25,0.0054171,-1.1257e-12,-8.2878e-17,85.484,-126.1,-48.25,-34.615,0,0.016991,0,1,3.965,0,-3.965,0
0,0,0,0,0,0,8.849e-05,-0.00050601,4.4061e-35,3.2699e-08,-7.0622e-18,-4.8061e-22,0.66334,0.00055557,-0.00050601,1.0192e-31,8.849e-05,-34.582,-125.95,-48.196,0.0050286,-1.0857e-12,-7.4836e-17,85.377,-125.95,-48.196,-34.582,0,0.016994,0,1,3.97,0,-3.97,0
0,0,0,0,0,0,8.835e-05,-0.0005054,4.1951e-35,3.0242e-08,-6.8055e-18,-4.3012e-22,0.66301,0.00055487,-0.0005054,9.7323e-32,8.835e-05,-34.549,-125.8,-48.141,0.0046508,-1.0463e-12,-6.7022e-17,85.271,-125.8,-48.141,-34.549,0,0.016996,0,1,3.975,0,-3.975,0
0,0,0,0,0,0,8.821e-05,-0.00050478,3.9896e-35,2.7854e-08,-6.5523e-18,-3.8109e-22,0.66269,0.00055418,-0.00050478,9.2822e-32,8.821e-05,-34.516,-125.65,-48.086,0.0042836,-1.0073e-12,-5.9435e-17,85.164,-125.65,-48.086,-34.516,0,0.016999,0,1,3.98,0,-3.98,0
0,0,0,0,0,0,8.8071e-05,-0.00050417,3.7895e-35,2.5536e-08,-6.3024e-18,-3.3353e-22,0.66236,0.00055348,-0.00050417,8.8418e-32,8.8071e-05,-34.482,-125.5,-48.031,0.0039271,-9.689e-13,-5.2074e-17,85.057,-125.5,-48.031,-34.482,0,0.017001,0,1,3.985,0,-3.985,0
0,0,0,0,0,0,8.7933e-05,-0.00050355,3.5948e-35,2.3288e-08,-6.056e-18,-2.8745e-22,0.66204,0.00055279,-0.00050355,8.4112e-32,8.7933e-05,-34.448,-125.35,-47.976,0.0035813,-9.3102e-13,-4.4941e-17,84.951,-125.35,-47.976,-34.448,0,0.017004,0,1,3.99,0,-3.99,0
0,0,0,0,0,0,8.7795e-05,-0.00050294,3.4056e-35,2.1109e-08,-5.8129e-18,-2.4283e-22,0.66172,0.00055209,-0.00050294,7.9903e-32,8.7795e-05,-34.414,-125.2,-47.921,0.0032462,-8.9366e-13,-3.8035e-17,84.844,-125.2,-47.921,-34.414,0,0.017007,0,1,3.995,0,-3.995,0
0,0,0,0,0,0,8.7658e-05,-0.00050232,3.2219e-35,1.8999e-08,-5.5733e-18,-1.9969e-22,0.66139,0.0005514,-0.00050232,7.5792e-32,8.7658e-05,-34.38,-125.05,-47.866,0.0029218,-8.5682e-13,-3.1355e-17,84.738,-125.05,-47.866,-34.38,0,0.017009,0,1,4,0,-4,0
0,0,0,0,0,0,8.7521e-05,-0.00050171,3.0436e-35,1.6958e-08,-5.3371e-18,-1.5801e-22,0.66107,0.00055071,-0.00050171,7.1779e-32,8.7521e-05,-34.346,-124.9,-47.81,0.002608,-8.2051e-13,-2.4903e-17,84.631,-124.9,-47.81,-34.346,0,0.017012,0,1,4.005,0,-4.005,0
0,0,0,0,0,0,8.7385e-05,-0.00050109,2.8708e-35,1.4987e-08,-5.1044e-18,-1.178e-22,0.66074,0.00055001,-0.00050109,6.7864e-32,8.7385e-05,-34.311,-124.75,-47.755,0.0023049,-7.8472e-13,-1.8678e-17,84.525,-124.75,-47.755,-34.311,0,0.017014,0,1,4.01,0,-4.01,0
0,0,0,0,0,0,8.725e-05,-0.00050048,2.7035e-35,1.3086e-08,-4.875e-18,-7.9074e-23,0.66042,0.00054932,-0.00050048,6.4046e-32,8.725e-05,-34.277,-124.6,-47.7,0.0020125,-7.4947e-13,-1.268e-17,84.418,-124.6,-47.7,-34.277,0,0.017017,0,1,4.015,0,-4.015,0
0,0,0,0,0,0,8.7115e-05,-0.00049986,2.5416e-35,1.1254e-08,-4.6491e-18,-4.1809e-23,0.6601,0.00054863,-0.00049986,6.0326e-32,8.7115e-05,-34.242,-124.45,-47.644,0.0017308,-7.1473e-13,-6.9086e-18,84.312,-124.45,-47.644,-34.242,0,0.017019,0,1,4.02,0,-4.02,0
0,0,0,0,0,0,8.6981e-05,-0.00049924,2.3851e-35,9.4915e-09,-4.4266e-18,-6.0159e-24,0.65977,0.00054794,-0.00049924,5.6704e-32,8.6981e-05,-34.207,-124.3,-47.588,0.0014598,-6.8052e-13,-1.3644e-18,84.206,-124.3,-47.588,-34.207,0,0.017022,0,1,4.025,0,-4.025,0
0,0,0,0,0,0,8.6848e-05,-0.00049863,2.2342e-35,7.7984e-09,-4.2075e-18,2.8307e-23,0.65945,0.00054725,-0.00049863,5.3179e-32,8.6848e-05,-34.172,-124.15,-47.533,0.0011994,-6.4684e-13,3.9528e-18,84.1,-124.15,-47.533,-34.172,0,0.017024,0,1,4.03,0,-4.03,0
0,0,0,0,0,0,8.6715e-05,-0.00049801,2.0886e-35,6.1748e-09,-3.9918e-18,6.1157e-23,0.65912,0.00054656,-0.00049801,4.9752e-32,8.6715e-05,-34.137,-124,-47.477,0.00094973,-6.1368e-13,9.0424e-18,83.994,-124,-47.477,-34.137,0,0.017027,0,1,4.035,0,-4.035,0
0,0,0,0,0,0,8.6583e-05,-0.0004974,1.9486e-35,4.6206e-09,-3.7795e-18,9.2539e-23,0.6588,0.00054586,-0.0004974,4.6423e-32,8.6583e-05,-34.101,-123.85,-47.421,0.00071072,-5.8105e-13,1.3906e-17,83.888,-123.85,-47.421,-34.101,0,0.017029,0,1,4.04,0,-4.04,0
0,0,0,0,0,0,8.6451e-05,-0.00049678,1.814e-35,3.1358e-09,-3.5707e-18,1.2245e-22,0.65848,0.00054517,-0.00049678,4.3191e-32,8.6451e-05,-34.066,-123.7,-47.365,0.00048239,-5.4894e-13,1.8542e-17,83.782,-123.7,-47.365,-34.066,0,0.017032,0,1,4.045,0,-4.045,0
0,0,0,0,0,0,8.632e-05,-0.00049617,1.6848e-35,1.7205e-09,-3.3653e-18,1.5089e-22,0.65815,0.00054448,-0.00049617,4.0058e-32,8.632e-05,-34.03,-123.55,-47.309,0.00026474,-5.1736e-13,2.2951e-17,83.676,-123.55,-47.309,-34.03,0,0.017034,0,1,4.05,0,-4.05,0
0,0,0,0,0,0,8.619e-05,-0.00049555,1.5611e-35,3.747e-10,-3.1633e-18,1.7786e-22,0.65783,0.00054379,-0.00049555,3.7022e-32,8.619e-05,-33.994,-123.4,-47.253,5.7791e-05,-4.863e-13,2.7132e-17,83.57,-123.4,-47.253,-33.994,0,0.017036,0,1,4.055,0,-4.055,0
0,0,0,0,0,0,8.606e-05,-0.00049494,1.4429e-35,-9.0175e-10,-2.9647e-18,2.0336e-22,0.6575,0.00054311,-0.00049494,3.4083e-32,8.606e-05,-33.958,-123.25,-47.197,-0.0001385,-4.5577e-13,3.1087e-17,83.464,-123.25,-47.197,-33.958,0,0.017039,0,1,4.06,0,-4.06,0
0,0,0,0,0,0,8.5931e-05,-0.00049432,1.3301e-35,-2.1087e-09,-2.7695e-18,2.2739e-22,0.65718,0.00054242,-0.00049432,3.1242e-32,8.5931e-05,-33.921,-123.1,-47.141,-0.00032411,-4.2576e-13,3.4815e-17,83.358,-123.1,-47.141,-33.921,0,0.017041,0,1,4.065,0,-4.065,0
0,0,0,0,0,0,8.5803e-05,-0.00049371,1.2227e-35,-3.2463e-09,-2.5777e-18,2.4995e-22,0.65686,0.00054173,-0.00049371,2.8499e-32,8.5803e-05,-33.885,-122.95,-47.085,-0.00049904,-3.9628e-13,3.8316e-17,83.252,-122.95,-47.085,-33.885,0,0.017044,0,1,4.07,0,-4.07,0
0,0,0,0,0,0,8.5675e-05,-0.00049309,1.1209e-35,-4.3143e-09,-2.3894e-18,2.7103e-22,0.65653,0.00054104,-0.00049309,2.5854e-32,8.5675e-05,-33.848,-122.8,-47.029,-0.00066328,-3.6733e-13,4.159e-17,83.147,-122.8,-47.029,-33.848,0,0.017046,0,1,4.075,0,-4.075,0
0,0,0,0,0,0,8.5548e-05,-0.00049247,1.0245e-35,-5.313e-09,-2.2045e-18,2.9065e-22,0.65621,0.00054035,-0.00049247,2.3306e-32,8.5548e-05,-33.811,-122.65,-46.972,-0.00081685,-3.389e-13,4.4636e-17,83.041,-122.65,-46.972,-33.811,0,0.017049,0,1,4.08,0,-4.08,0
0,0,0,0,0,0,8.5421e-05,-0.00049186,9.335e-36,-6.2422e-09,-2.0229e-18,3.088e-22,0.65588,0.00053966,-0.00049186,2.0856e-32,8.5421e-05,-33.774,-122.5,-46.916,-0.00095974,-3.1099e-13,4.7456e-17,82.935,-122.5,-46.916,-33.774,0,0.017051,0,1,4.085,0,-4.085,0
0,0,0,0,0,0,8.5295e-05,-0.00049124,8.4799e-36,-7.1019e-09,-1.8448e-18,3.2548e-22,0.65556,0.00053898,-0.00049124,1.8504e-32,8.5295e-05,-33.737,-122.34,-46.859,-0.001092,-2.8362e-13,5.0049e-17,82.83,-122.34,-46.859,-33.737,0,0.017054,0,1,4.09,0,-4.09,0
0,0,0,0,0,0,8.517e-05,-0.00049063,7.6796e-36,-7.8922e-09,-1.6702e-18,3.4068e-22,0.65523,0.00053829,-0.00049063,1.625e-32,8.517e-05,-33.7,-122.19,-46.802,-0.0012135,-2.5676e-13,5.2414e-17,82.724,-122.19,-46.802,-33.7,0,0.017056,0,1,4.095,0,-4.095,0
0,0,0,0,0,0,8.5045e-05,-0.00049001,6.9337e-36,-8.613e-09,-1.4989e-18,3.5442e-22,0.65491,0.0005376,-0.00049001,1.4093e-32,8.5045e-05,-33.662,-122.04,-46.746,-0.0013243,-2.3043e-13,5.4553e-17,82.619,-122.04,-46.746,-33.662,0,0.017059,0,1,4.1,0,-4.1,0
0,0,0,0,0,0,8.4921e-05,-0.00048939,6.2424e-36,-9.2645e-09,-1.3311e-18,3.6668e-22,0.65459,0.00053692,-0.00048939,1.2034e-32,8.4921e-05,-33.625,-121.89,-46.689,-0.0014245,-2.0463e-13,5.6465e-17,82.514,-121.89,-46.689,-33.625,0,0.017061,0,1,4.105,0,-4.105,0
0,0,0,0,0,0,8.4798e-05,-0.00048878,5.6056e-36,-9.8464e-09,-1.1667e-18,3.7748e-22,0.65426,0.00053623,-0.00048878,1.0072e-32,8.4798e-05,-33.587,-121.74,-46.632,-0.001514,-1.7935e-13,5.8149e-17,82.408,-121.74,-46.632,-33.587,0,0.017064,0,1,4.11,0,-4.11,0
0,0,0,0,0,0,8.4675e-05,-0.00048816,5.0235e-36,-1.0359e-08,-1.0057e-18,3.868e-22,0.65394,0.00053554,-0.00048816,8.2085e-33,8.4675e-05,-33.549,-121.59,-46.575,-0.0015928,-1.546e-13,5.9606e-17,82.303,-121.59,-46.575,-33.549,0,0.017066,0,1,4.115,0,-4.115,0
0,0,0,0,0,0,8.4553e-05,-0.00048755,4.4959e-36,-1.0802e-08,-8.4808e-19,3.9466e-22,0.65361,0.00053486,-0.00048755,6.4424e-33,8.4553e-05,-33.51,-121.44,-46.518,-0.0016609,-1.3037e-13,6.0837e-17,82.198,-121.44,-46.518,-33.51,0,0.017068,0,1,4.12,0,-4.12,0
0,0,0,0,0,0,8.4431e-05,-0.00048693,4.0228e-36,-1.1176e-08,-6.9391e-19,4.0104e-22,0.65329,0.00053417,-0.00048693,4.7741e-33,8.4431e-05,-33.472,-121.28,-46.461,-0.0017184,-1.0667e-13,6.184e-17,82.093,-121.28,-46.461,-33.472,0,0.017071,0,1,4.125,0,-4.125,0
0,0,0,0,0,0,8.431e-05,-0.00048632,3.6044e-36,-1.148e-08,-5.4315e-19,4.0595e-22,0.65297,0.00053349,-0.00048632,3.2034e-33,8.431e-05,-33.433,-121.13,-46.404,-0.0017652,-8.3496e-14,6.2617e-17,81.988,-121.13,-46.404,-33.433,0,0.017073,0,1,4.13,0,-4.13,0
0,0,0,0,0,0,8.419e-05,-0.0004857,3.2405e-36,-1.1715e-08,-3.9582e-19,4.094e-22,0.65264,0.00053281,-0.0004857,1.7304e-33,8.419e-05,-33.395,-120.98,-46.347,-0.0018013,-6.0845e-14,6.3166e-17,81.883,-120.98,-46.347,-33.395,0,0.017076,0,1,4.135,0,-4.135,0
0,0,0,0,0,0,8.407e-05,-0.00048508,2.9312e-36,-1.188e-08,-2.5191e-19,4.1137e-22,0.65232,0.00053212,-0.00048508,3.552e-34,8.407e-05,-33.356,-120.83,-46.289,-0.0018267,-3.8721e-14,6.3488e-17,81.778,-120.83,-46.289,-33.356,0,0.017078,0,1,4.14,0,-4.14,0
0,0,0,0,0,0,8.3951e-05,-0.00048447,2.6764e-36,-1.1976e-08,-1.1141e-19,4.1187e-22,0.65199,0.00053144,-0.00048447,-9.224e-34,8.3951e-05,-33.317,-120.68,-46.232,-0.0018414,-1.712e-14,6.3584e-17,81.673,-120.68,-46.232,-33.317,0,0.017081,0,1,4.145,0,-4.145,0
0,0,0,0,0,0,8.3833e-05,-0.00048385,2.4762e-36,-1.2002e-08,2.5675e-20,4.109e-22,0.65167,0.00053076,-0.00048385,-2.1023e-33,8.3833e-05,-33.278,-120.53,-46.174,-0.0018455,3.9549e-15,6.3452e-17,81.568,-120.53,-46.174,-33.278,0,0.017083,0,1,4.15,0,-4.15,0
0,0,0,0,0,0,8.3715e-05,-0.00048323,2.3306e-36,-1.1959e-08,1.5934e-19,4.0846e-22,0.65135,0.00053007,-0.00048323,-3.1845e-33,8.3715e-05,-33.238,-120.37,-46.117,-0.0018388,2.4505e-14,6.3093e-17,81.463,-120.37,-46.117,-33.238,0,0.017085,0,1,4.155,0,-4.155,0
0,0,0,0,0,0,8.3597e-05,-0.00048262,2.2395e-36,-1.1846e-08,2.8958e-19,4.0455e-22,0.65102,0.00052939,-0.00048262,-4.1689e-33,8.3597e-05,-33.198,-120.22,-46.059,-0.0018215,4.4527e-14,6.2507e-17,81.358,-120.22,-46.059,-33.198,0,0.017088,0,1,4.16,0,-4.16,0
0,0,0,0,0,0,8.3481e-05,-0.000482,2.2031e-36,-1.1664e-08,4.1641e-19,3.9917e-22,0.6507,0.00052871,-0.000482,-5.0557e-33,8.3481e-05,-33.159,-120.07,-46.002,-0.0017936,6.4026e-14,6.1695e-17,81.254,-120.07,-46.002,-33.159,0,0.01709,0,1,4.165,0,-4.165,0
0,0,0,0,0,0,8.3365e-05,-0.00048139,2.2212e-36,-1.1413e-08,5.3983e-19,3.9232e-22,0.65037,0.00052803,-0.00048139,-5.8448e-33,8.3365e-05,-33.119,-119.92,-45.944,-0.0017549,8.3e-14,6.0655e-17,81.149,-119.92,-45.944,-33.119,0,0.017093,0,1,4.17,0,-4.17,0
0,0,0,0,0,0,8.325e-05,-0.00048077,2.2938e-36,-1.1092e-08,6.5982e-19,3.84e-22,0.65005,0.00052735,-0.00048077,-6.5362e-33,8.325e-05,-33.079,-119.76,-45.886,-0.0017056,1.0145e-13,5.9388e-17,81.044,-119.76,-45.886,-33.079,0,0.017095,0,1,4.175,0,-4.175,0
0,0,0,0,0,0,8.3135e-05,-0.00048015,2.421e-36,-1.0702e-08,7.7639e-19,3.7421e-22,0.64973,0.00052666,-0.00048015,-7.1298e-33,8.3135e-05,-33.038,-119.61,-45.828,-0.0016455,1.1937e-13,5.7894e-17,80.94,-119.61,-45.828,-33.038,0,0.017097,0,1,4.18,0,-4.18,0
0,0,0,0,0,0,8.3021e-05,-0.00047954,2.6028e-36,-1.0242e-08,8.8955e-19,3.6295e-22,0.6494,0.00052598,-0.00047954,-7.6258e-33,8.3021e-05,-32.998,-119.46,-45.77,-0.0015748,1.3677e-13,5.6173e-17,80.835,-119.46,-45.77,-32.998,0,0.0171,0,1,4.185,0,-4.185,0
0,0,0,0,0,0,8.2907e-05,-0.00047892,2.8392e-36,-9.713e-09,9.993e-19,3.5021e-22,0.64908,0.0005253,-0.00047892,-8.0241e-33,8.2907e-05,-32.957,-119.31,-45.712,-0.0014935,1.5364e-13,5.4225e-17,80.731,-119.31,-45.712,-32.957,0,0.017102,0,1,4.19,0,-4.19,0
0,0,0,0,0,0,8.2794e-05,-0.0004783,3.1301e-36,-9.1144e-09,1.1056e-18,3.3601e-22,0.64875,0.00052462,-0.0004783,-8.3247e-33,8.2794e-05,-32.917,-119.15,-45.654,-0.0014014,1.6999e-13,5.205e-17,80.626,-119.15,-45.654,-32.917,0,0.017105,0,1,4.195,0,-4.195,0
0,0,0,0,0,0,8.2682e-05,-0.00047769,3.4756e-36,-8.4464e-09,1.2085e-18,3.2034e-22,0.64843,0.00052394,-0.00047769,-8.5276e-33,8.2682e-05,-32.876,-119,-45.595,-0.0012987,1.8581e-13,4.9648e-17,80.522,-119,-45.595,-32.876,0,0.017107,0,1,4.2,0,-4.2,0
0,0,0,0,0,0,8.257e-05,-0.00047707,3.8757e-36,-7.7088e-09,1.308e-18,3.0319e-22,0.6481,0.00052326,-0.00047707,-8.6328e-33,8.257e-05,-32.834,-118.85,-45.537,-0.0011853,2.011e-13,4.7019e-17,80.418,-118.85,-45.537,-32.834,0,0.017109,0,1,4.205,0,-4.205,0
0,0,0,0,0,0,8.2459e-05,-0.00047645,4.3304e-36,-6.9018e-09,1.4041e-18,2.8458e-22,0.64778,0.00052259,-0.00047645,-8.6403e-33,8.2459e-05,-32.793,-118.69,-45.479,-0.0010612,2.1587e-13,4.4162e-17,80.314,-118.69,-45.479,-32.793,0,0.017112,0,1,4.21,0,-4.21,0
0,0,0,0,0,0,8.2349e-05,-0.00047584,4.8396e-36,-6.0254e-09,1.4968e-18,2.6449e-22,0.64746,0.00052191,-0.00047584,-8.5501e-33,8.2349e-05,-32.752,-118.54,-45.42,-0.00092637,2.3012e-13,4.1079e-17,80.209,-118.54,-45.42,-32.752,0,0.017114,0,1,4.215,0,-4.215,0
0,0,0,0,0,0,8.2239e-05,-0.00047522,5.4033e-36,-5.0796e-09,1.586e-18,2.4294e-22,0.64713,0.00052123,-0.00047522,-8.3622e-33,8.2239e-05,-32.71,-118.39,-45.362,-0.00078093,2.4384e-13,3.7769e-17,80.105,-118.39,-45.362,-32.71,0,0.017117,0,1,4.22,0,-4.22,0
0,0,0,0,0,0,8.213e-05,-0.0004746,6.0217e-36,-4.0643e-09,1.6718e-18,2.1991e-22,0.64681,0.00052055,-0.0004746,-8.0766e-33,8.213e-05,-32.668,-118.24,-45.303,-0.00062479,2.5703e-13,3.4232e-17,80.001,-118.24,-45.303,-32.668,0,0.017119,0,1,4.225,0,-4.225,0
0,0,0,0,0,0,8.2022e-05,-0.00047399,6.6946e-36,-2.9795e-09,1.7542e-18,1.9541e-22,0.64648,0.00051987,-0.00047399,-7.6933e-33,8.2022e-05,-32.626,-118.08,-45.244,-0.00045797,2.697e-13,3.0467e-17,79.897,-118.08,-45.244,-32.626,0,0.017121,0,1,4.23,0,-4.23,0
0,0,0,0,0,0,8.1914e-05,-0.00047337,7.4221e-36,-1.8253e-09,1.8332e-18,1.6945e-22,0.64616,0.0005192,-0.00047337,-7.2123e-33,8.1914e-05,-32.584,-117.93,-45.186,-0.00028048,2.8184e-13,2.6476e-17,79.793,-117.93,-45.186,-32.584,0,0.017124,0,1,4.235,0,-4.235,0
0,0,0,0,0,0,8.1806e-05,-0.00047275,8.2041e-36,-6.0171e-10,1.9088e-18,1.4201e-22,0.64584,0.00051852,-0.00047275,-6.6336e-33,8.1806e-05,-32.542,-117.77,-45.127,-9.2319e-05,2.9346e-13,2.2258e-17,79.689,-117.77,-45.127,-32.542,0,0.017126,0,1,4.24,0,-4.24,0
0,0,0,0,0,0,8.17e-05,-0.00047214,9.0407e-36,6.9141e-10,1.9809e-18,1.131e-22,0.64551,0.00051784,-0.00047214,-5.9572e-33,8.17e-05,-32.499,-117.62,-45.068,0.00010654,3.0455e-13,1.7812e-17,79.585,-117.62,-45.068,-32.499,0,0.017128,0,1,4.245,0,-4.245,0
0,0,0,0,0,0,8.1594e-05,-0.00047152,9.932e-36,2.054e-09,2.0496e-18,8.2723e-23,0.64519,0.00051717,-0.00047152,-5.1831e-33,8.1594e-05,-32.456,-117.47,-45.009,0.00031607,3.1512e-13,1.314e-17,79.482,-117.47,-45.009,-32.456,0,0.017131,0,1,4.25,0,-4.25,0
0,0,0,0,0,0,8.1488e-05,-0.0004709,1.0878e-35,3.486e-09,2.115e-18,5.0874e-23,0.64486,0.00051649,-0.0004709,-4.3113e-33,8.1488e-05,-32.414,-117.31,-44.95,0.00053629,3.2516e-13,8.2402e-18,79.378,-117.31,-44.95,-32.414,0,0.017133,0,1,4.255,0,-4.255,0
0,0,0,0,0,0,8.1384e-05,-0.00047029,1.1878e-35,4.9875e-09,2.1769e-18,1.7554e-23,0.64454,0.00051581,-0.00047029,-3.3418e-33,8.1384e-05,-32.371,-117.16,-44.891,0.00076719,3.3468e-13,3.1135e-18,79.274,-117.16,-44.891,-32.371,0,0.017135,0,1,4.26,0,-4.26,0
0,0,0,0,0,0,8.1279e-05,-0.00046967,1.2933e-35,6.5582e-09,2.2353e-18,-1.7234e-23,0.64422,0.00051514,-0.00046967,-2.2747e-33,8.1279e-05,-32.327,-117.01,-44.832,0.0010087,3.4367e-13,-2.2396e-18,79.171,-117.01,-44.832,-32.327,0,0.017138,0,1,4.265,0,-4.265,0
0,0,0,0,0,0,8.1176e-05,-0.00046905,1.4042e-35,8.1986e-09,2.2904e-18,-5.3495e-23,0.64389,0.00051446,-0.00046905,-1.1098e-33,8.1176e-05,-32.284,-116.85,-44.772,0.001261,3.5214e-13,-7.8203e-18,79.067,-116.85,-44.772,-32.284,0,0.01714,0,1,4.27,0,-4.27,0
0,0,0,0,0,0,8.1073e-05,-0.00046843,1.5206e-35,9.9084e-09,2.3421e-18,-9.1226e-23,0.64357,0.00051379,-0.00046843,1.5283e-34,8.1073e-05,-32.24,-116.7,-44.713,0.0015239,3.6008e-13,-1.3628e-17,78.963,-116.7,-44.713,-32.24,0,0.017143,0,1,4.275,0,-4.275,0
0,0,0,0,0,0,8.0971e-05,-0.00046782,1.6425e-35,1.1688e-08,2.3903e-18,-1.3043e-22,0.64324,0.00051312,-0.00046782,1.5131e-33,8.0971e-05,-32.197,-116.54,-44.653,0.0017975,3.6749e-13,-1.9663e-17,78.86,-116.54,-44.653,-32.197,0,0.017145,0,1,4.28,0,-4.28,0
0,0,0,0,0,0,8.0869e-05,-0.0004672,1.7698e-35,1.3536e-08,2.4351e-18,-1.711e-22,0.64292,0.00051244,-0.0004672,2.971e-33,8.0869e-05,-32.153,-116.39,-44.594,0.0020818,3.7438e-13,-2.5924e-17,78.757,-116.39,-44.594,-32.153,0,0.017147,0,1,4.285,0,-4.285,0
0,0,0,0,0,0,8.0768e-05,-0.00046658,1.9026e-35,1.5454e-08,2.4765e-18,-2.1324e-22,0.6426,0.00051177,-0.00046658,4.5267e-33,8.0768e-05,-32.109,-116.24,-44.534,0.0023768,3.8075e-13,-3.2413e-17,78.653,-116.24,-44.534,-32.109,0,0.01715,0,1,4.29,0,-4.29,0
0,0,0,0,0,0,8.0668e-05,-0.00046597,2.0408e-35,1.7442e-08,2.5145e-18,-2.5685e-22,0.64227,0.0005111,-0.00046597,6.1801e-33,8.0668e-05,-32.065,-116.08,-44.475,0.0026824,3.8659e-13,-3.9129e-17,78.55,-116.08,-44.475,-32.065,0,0.017152,0,1,4.295,0,-4.295,0
0,0,0,0,0,0,8.0568e-05,-0.00046535,2.1845e-35,1.9499e-08,2.549e-18,-3.0194e-22,0.64195,0.00051042,-0.00046535,7.9312e-33,8.0568e-05,-32.02,-115.93,-44.415,0.0029988,3.919e-13,-4.6072e-17,78.447,-115.93,-44.415,-32.02,0,0.017154,0,1,4.3,0,-4.3,0
0,0,0,0,0,0,8.0469e-05,-0.00046473,2.3337e-35,2.1625e-08,2.5802e-18,-3.4849e-22,0.64162,0.00050975,-0.00046473,9.7799e-33,8.0469e-05,-31.976,-115.77,-44.355,0.0033257,3.9669e-13,-5.3241e-17,78.343,-115.77,-44.355,-31.976,0,0.017157,0,1,4.305,0,-4.305,0
0,0,0,0,0,0,8.037e-05,-0.00046411,2.4883e-35,2.3821e-08,2.6079e-18,-3.9651e-22,0.6413,0.00050908,-0.00046411,1.1726e-32,8.037e-05,-31.931,-115.62,-44.295,0.0036634,4.0095e-13,-6.0638e-17,78.24,-115.62,-44.295,-31.931,0,0.017159,0,1,4.31,0,-4.31,0
0,0,0,0,0,0,8.0272e-05,-0.0004635,2.6483e-35,2.6087e-08,2.6322e-18,-4.4601e-22,0.64098,0.00050841,-0.0004635,1.3771e-32,8.0272e-05,-31.886,-115.46,-44.235,0.0040118,4.0469e-13,-6.8262e-17,78.137,-115.46,-44.235,-31.886,0,0.017161,0,1,4.315,0,-4.315,0
0,0,0,0,0,0,8.0175e-05,-0.00046291,2.7323e-35,2.6919e-08,2.5315e-18,-4.7116e-22,0.64067,0.00050777,-0.00046291,1.4857e-32,8.0175e-05,-31.845,-115.32,-44.179,0.0041398,3.8921e-13,-7.215e-17,78.04,-115.32,-44.179,-31.845,0,0.017164,0,1,4.32,0,-4.32,0
0,0,0,0,0,0,8.008e-05,-0.0004624,2.669e-35,2.5042e-08,2.2128e-18,-4.4949e-22,0.6404,0.0005072,-0.0004624,1.4063e-32,8.008e-05,-31.811,-115.19,-44.131,0.0038512,3.4021e-13,-6.8849e-17,77.952,-115.19,-44.131,-31.811,0,0.017166,0,1,4.325,0,-4.325,0
0,0,0,0,0,0,7.9984e-05,-0.00046189,2.6071e-35,2.3215e-08,1.9041e-18,-4.2813e-22,0.64014,0.00050664,-0.00046189,1.3315e-32,7.9984e-05,-31.777,-115.06,-44.082,0.0035701,2.9274e-13,-6.5594e-17,77.865,-115.06,-44.082,-31.777,0,0.017168,0,1,4.33,0,-4.33,0
0,0,0,0,0,0,7.989e-05,-0.00046137,2.5465e-35,2.1437e-08,1.6053e-18,-4.0708e-22,0.63987,0.00050607,-0.00046137,1.2612e-32,7.989e-05,-31.743,-114.93,-44.034,0.0032968,2.4681e-13,-6.2387e-17,77.778,-114.93,-44.034,-31.743,0,0.01717,0,1,4.335,0,-4.335,0
0,0,0,0,0,0,7.9795e-05,-0.00046086,2.4874e-35,1.9709e-08,1.3166e-18,-3.8635e-22,0.6396,0.0005055,-0.00046086,1.1955e-32,7.9795e-05,-31.709,-114.81,-43.985,0.003031,2.0242e-13,-5.9226e-17,77.691,-114.81,-43.985,-31.709,0,0.017173,0,1,4.34,0,-4.34,0
0,0,0,0,0,0,7.9702e-05,-0.00046034,2.4296e-35,1.8031e-08,1.0379e-18,-3.6592e-22,0.63933,0.00050493,-0.00046034,1.1343e-32,7.9702e-05,-31.675,-114.68,-43.937,0.002773,1.5958e-13,-5.6113e-17,77.604,-114.68,-43.937,-31.675,0,0.017175,0,1,4.345,0,-4.345,0
0,0,0,0,0,0,7.9609e-05,-0.00045983,2.3732e-35,1.6403e-08,7.6925e-19,-3.4581e-22,0.63907,0.00050437,-0.00045983,1.0777e-32,7.9609e-05,-31.641,-114.55,-43.888,0.0025226,1.1826e-13,-5.3047e-17,77.517,-114.55,-43.888,-31.641,0,0.017177,0,1,4.35,0,-4.35,0
0,0,0,0,0,0,7.9516e-05,-0.00045931,2.3182e-35,1.4825e-08,5.1057e-19,-3.2601e-22,0.6388,0.0005038,-0.00045931,1.0256e-32,7.9516e-05,-31.606,-114.42,-43.839,0.0022799,7.8494e-14,-5.0028e-17,77.429,-114.42,-43.839,-31.606,0,0.01718,0,1,4.355,0,-4.355,0
0,0,0,0,0,0,7.9423e-05,-0.0004588,2.2646e-35,1.3296e-08,2.6191e-19,-3.0652e-22,0.63853,0.00050323,-0.0004588,9.7814e-33,7.9423e-05,-31.572,-114.3,-43.791,0.0020448,4.0263e-14,-4.7057e-17,77.342,-114.3,-43.791,-31.572,0,0.017182,0,1,4.36,0,-4.36,0
0,0,0,0,0,0,7.9332e-05,-0.00045828,2.2124e-35,1.1817e-08,2.3286e-20,-2.8735e-22,0.63827,0.00050267,-0.00045828,9.3518e-33,7.9332e-05,-31.537,-114.17,-43.742,0.0018174,3.575e-15,-4.4132e-17,77.256,-114.17,-43.742,-31.537,0,0.017184,0,1,4.365,0,-4.365,0
0,0,0,0,0,0,7.924e-05,-0.00045777,2.1615e-35,1.0388e-08,-2.0535e-19,-2.6849e-22,0.638,0.0005021,-0.00045777,8.9678e-33,7.924e-05,-31.502,-114.04,-43.693,0.0015976,-3.1577e-14,-4.1255e-17,77.169,-114.04,-43.693,-31.502,0,0.017187,0,1,4.37,0,-4.37,0
0,0,0,0,0,0,7.915e-05,-0.00045725,2.1121e-35,9.009e-09,-4.2396e-19,-2.4994e-22,0.63773,0.00050153,-0.00045725,8.6293e-33,7.915e-05,-31.467,-113.91,-43.644,0.0013855,-6.5189e-14,-3.8425e-17,77.082,-113.91,-43.644,-31.467,0,0.017189,0,1,4.375,0,-4.375,0
0,0,0,0,0,0,7.9059e-05,-0.00045674,2.064e-35,7.6796e-09,-6.3257e-19,-2.317e-22,0.63746,0.00050097,-0.00045674,8.3363e-33,7.9059e-05,-31.432,-113.78,-43.595,0.0011811,-9.7261e-14,-3.5641e-17,76.995,-113.78,-43.595,-31.432,0,0.017191,0,1,4.38,0,-4.38,0
0,0,0,0,0,0,7.8969e-05,-0.00045622,2.0173e-35,6.3999e-09,-8.3116e-19,-2.1377e-22,0.6372,0.0005004,-0.00045622,8.0889e-33,7.8969e-05,-31.397,-113.66,-43.546,0.00098431,-1.2779e-13,-3.2905e-17,76.908,-113.66,-43.546,-31.397,0,0.017193,0,1,4.385,0,-4.385,0
0,0,0,0,0,0,7.888e-05,-0.00045571,1.972e-35,5.1702e-09,-1.0197e-18,-1.9616e-22,0.63693,0.00049984,-0.00045571,7.887e-33,7.888e-05,-31.361,-113.53,-43.497,0.0007952,-1.5678e-13,-3.0217e-17,76.821,-113.53,-43.497,-31.361,0,0.017196,0,1,4.39,0,-4.39,0
0,0,0,0,0,0,7.8791e-05,-0.00045519,1.9281e-35,3.9902e-09,-1.1983e-18,-1.7886e-22,0.63666,0.00049927,-0.00045519,7.7306e-33,7.8791e-05,-31.326,-113.4,-43.447,0.00061373,-1.8424e-13,-2.7575e-17,76.735,-113.4,-43.447,-31.326,0,0.017198,0,1,4.395,0,-4.395,0
0,0,0,0,0,0,7.8703e-05,-0.00045468,1.8856e-35,2.8599e-09,-1.3668e-18,-1.6187e-22,0.6364,0.00049871,-0.00045468,7.6198e-33,7.8703e-05,-31.29,-113.27,-43.398,0.00043991,-2.1015e-13,-2.4981e-17,76.648,-113.27,-43.398,-31.29,0,0.0172,0,1,4.4,0,-4.4,0
0,0,0,0,0,0,7.8615e-05,-0.00045416,1.8444e-35,1.7795e-09,-1.5254e-18,-1.4519e-22,0.63613,0.00049814,-0.00045416,7.5545e-33,7.8615e-05,-31.255,-113.14,-43.349,0.00027376,-2.3453e-13,-2.2433e-17,76.561,-113.14,-43.349,-31.255,0,0.017202,0,1,4.405,0,-4.405,0
0,0,0,0,0,0,7.8527e-05,-0.00045365,1.8047e-35,7.4896e-10,-1.6739e-18,-1.2882e-22,0.63586,0.00049758,-0.00045365,7.5348e-33,7.8527e-05,-31.219,-113.01,-43.299,0.00011528,-2.5736e-13,-1.9933e-17,76.475,-113.01,-43.299,-31.219,0,0.017205,0,1,4.41,0,-4.41,0
0,0,0,0,0,0,7.844e-05,-0.00045313,1.7663e-35,-2.3188e-10,-1.8124e-18,-1.1277e-22,0.63559,0.00049702,-0.00045313,7.5605e-33,7.844e-05,-31.183,-112.89,-43.25,-3.5557e-05,-2.7865e-13,-1.748e-17,76.388,-112.89,-43.25,-31.183,0,0.017207,0,1,4.415,0,-4.415,0
0,0,0,0,0,0,7.8354e-05,-0.00045262,1.7293e-35,-1.1629e-09,-1.9408e-18,-9.703e-23,0.63533,0.00049645,-0.00045262,7.6319e-33,7.8354e-05,-31.146,-112.76,-43.2,-0.00017874,-2.9841e-13,-1.5074e-17,76.302,-112.76,-43.2,-31.146,0,0.017209,0,1,4.42,0,-4.42,0
0,0,0,0,0,0,7.8268e-05,-0.0004521,1.6937e-35,-2.0442e-09,-2.0593e-18,-8.1601e-23,0.63506,0.00049589,-0.0004521,7.7487e-33,7.8268e-05,-31.11,-112.63,-43.151,-0.00031426,-3.1662e-13,-1.2716e-17,76.215,-112.63,-43.151,-31.11,0,0.017212,0,1,4.425,0,-4.425,0
0,0,0,0,0,0,7.8182e-05,-0.00045159,1.6595e-35,-2.8755e-09,-2.1678e-18,-6.6487e-23,0.63479,0.00049533,-0.00045159,7.9111e-33,7.8182e-05,-31.074,-112.5,-43.101,-0.00044211,-3.333e-13,-1.0404e-17,76.129,-112.5,-43.101,-31.074,0,0.017214,0,1,4.43,0,-4.43,0
0,0,0,0,0,0,7.8097e-05,-0.00045107,1.6267e-35,-3.6572e-09,-2.2662e-18,-5.1682e-23,0.63452,0.00049476,-0.00045107,8.119e-33,7.8097e-05,-31.037,-112.37,-43.052,-0.00056231,-3.4843e-13,-8.1397e-18,76.042,-112.37,-43.052,-31.037,0,0.017216,0,1,4.435,0,-4.435,0
0,0,0,0,0,0,7.8013e-05,-0.00045056,1.5952e-35,-4.389e-09,-2.3547e-18,-3.719e-23,0.63426,0.0004942,-0.00045056,8.3725e-33,7.8013e-05,-31,-112.24,-43.002,-0.00067486,-3.6203e-13,-5.9224e-18,75.956,-112.24,-43.002,-31,0,0.017218,0,1,4.44,0,-4.44,0
0,0,0,0,0,0,7.7929e-05,-0.00045004,1.5652e-35,-5.0711e-09,-2.4331e-18,-2.3011e-23,0.63399,0.00049364,-0.00045004,8.6715e-33,7.7929e-05,-30.963,-112.11,-42.952,-0.00077974,-3.7408e-13,-3.7523e-18,75.87,-112.11,-42.952,-30.963,0,0.017221,0,1,4.445,0,-4.445,0
0,0,0,0,0,0,7.7845e-05,-0.00044953,1.5365e-35,-5.7033e-09,-2.5015e-18,-9.1445e-24,0.63372,0.00049308,-0.00044953,9.016e-33,7.7845e-05,-30.926,-111.98,-42.902,-0.00087696,-3.846e-13,-1.6295e-18,75.784,-111.98,-42.902,-30.926,0,0.017223,0,1,4.45,0,-4.45,0
0,0,0,0,0,0,7.7762e-05,-0.00044901,1.5092e-35,-6.2857e-09,-2.5599e-18,4.4107e-24,0.63346,0.00049252,-0.00044901,9.4061e-33,7.7762e-05,-30.889,-111.86,-42.852,-0.00096653,-3.9358e-13,4.4634e-19,75.697,-111.86,-42.852,-30.889,0,0.017225,0,1,4.455,0,-4.455,0
0,0,0,0,0,0,7.7679e-05,-0.0004485,1.4833e-35,-6.8184e-09,-2.6082e-18,1.7654e-23,0.63319,0.00049196,-0.0004485,9.8417e-33,7.7679e-05,-30.852,-111.73,-42.802,-0.0010484,-4.0101e-13,2.475e-18,75.611,-111.73,-42.802,-30.852,0,0.017227,0,1,4.46,0,-4.46,0
0,0,0,0,0,0,7.7597e-05,-0.00044798,1.4588e-35,-7.3012e-09,-2.6466e-18,3.0584e-23,0.63292,0.0004914,-0.00044798,1.0323e-32,7.7597e-05,-30.815,-111.6,-42.752,-0.0011227,-4.0691e-13,4.4565e-18,75.525,-111.6,-42.752,-30.815,0,0.01723,0,1,4.465,0,-4.465,0
0,0,0,0,0,0,7.7516e-05,-0.00044746,1.4357e-35,-7.7342e-09,-2.6749e-18,4.3202e-23,0.63265,0.00049083,-0.00044746,1.0849e-32,7.7516e-05,-30.777,-111.47,-42.702,-0.0011893,-4.1127e-13,6.3907e-18,75.439,-111.47,-42.702,-30.777,0,0.017232,0,1,4.47,0,-4.47,0
0,0,0,0,0,0,7.7434e-05,-0.00044695,1.4139e-35,-8.1175e-09,-2.6933e-18,5.5508e-23,0.63239,0.00049027,-0.00044695,1.1422e-32,7.7434e-05,-30.739,-111.34,-42.652,-0.0012482,-4.1409e-13,8.2779e-18,75.353,-111.34,-42.652,-30.739,0,0.017234,0,1,4.475,0,-4.475,0
0,0,0,0,0,0,7.7354e-05,-0.00044643,1.3936e-35,-8.4509e-09,-2.7016e-18,6.7502e-23,0.63212,0.00048971,-0.00044643,1.2039e-32,7.7354e-05,-30.702,-111.21,-42.602,-0.0012995,-4.1537e-13,1.0118e-17,75.267,-111.21,-42.602,-30.702,0,0.017236,0,1,4.48,0,-4.48,0
0,0,0,0,0,0,7.7274e-05,-0.00044592,1.3746e-35,-8.7346e-09,-2.6999e-18,7.9184e-23,0.63185,0.00048915,-0.00044592,1.2703e-32,7.7274e-05,-30.664,-111.08,-42.552,-0.0013431,-4.1511e-13,1.1911e-17,75.181,-111.08,-42.552,-30.664,0,0.017238,0,1,4.485,0,-4.485,0
0,0,0,0,0,0,7.7194e-05,-0.0004454,1.357e-35,-8.9684e-09,-2.6882e-18,9.0552e-23,0.63158,0.00048859,-0.0004454,1.3411e-32,7.7194e-05,-30.626,-110.95,-42.501,-0.0013791,-4.133e-13,1.3656e-17,75.095,-110.95,-42.501,-30.626,0,0.017241,0,1,4.49,0,-4.49,0
0,0,0,0,0,0,7.7115e-05,-0.00044489,1.3408e-35,-9.1525e-09,-2.6665e-18,1.0161e-22,0.63132,0.00048804,-0.00044489,1.4166e-32,7.7115e-05,-30.587,-110.82,-42.451,-0.0014074,-4.0996e-13,1.5355e-17,75.009,-110.82,-42.451,-30.587,0,0.017243,0,1,4.495,0,-4.495,0
0,0,0,0,0,0,7.7036e-05,-0.00044437,1.326e-35,-9.2867e-09,-2.6347e-18,1.1235e-22,0.63105,0.00048748,-0.00044437,1.4966e-32,7.7036e-05,-30.549,-110.69,-42.4,-0.001428,-4.0508e-13,1.7007e-17,74.923,-110.69,-42.4,-30.549,0,0.017245,0,1,4.5,0,-4.5,0
0,0,0,0,0,0,7.6958e-05,-0.00044386,1.3126e-35,-9.3712e-09,-2.593e-18,1.2279e-22,0.63078,0.00048692,-0.00044386,1.5811e-32,7.6958e-05,-30.511,-110.56,-42.35,-0.001441,-3.9866e-13,1.8611e-17,74.837,-110.56,-42.35,-30.511,0,0.017247,0,1,4.505,0,-4.505,0
0,0,0,0,0,0,7.688e-05,-0.00044334,1.3005e-35,-9.4058e-09,-2.5412e-18,1.3291e-22,0.63052,0.00048636,-0.00044334,1.6702e-32,7.688e-05,-30.472,-110.43,-42.299,-0.0014464,-3.9071e-13,2.0168e-17,74.752,-110.43,-42.299,-30.472,0,0.01725,0,1,4.51,0,-4.51,0
0,0,0,0,0,0,7.6803e-05,-0.00044282,1.2899e-35,-9.3907e-09,-2.4794e-18,1.4271e-22,0.63025,0.0004858,-0.00044282,1.7638e-32,7.6803e-05,-30.433,-110.3,-42.249,-0.001444,-3.8121e-13,2.1678e-17,74.666,-110.3,-42.249,-30.433,0,0.017252,0,1,4.515,0,-4.515,0
0,0,0,0,0,0,7.6726e-05,-0.00044231,1.2806e-35,-9.3258e-09,-2.4077e-18,1.5221e-22,0.62998,0.00048524,-0.00044231,1.862e-32,7.6726e-05,-30.394,-110.17,-42.198,-0.001434,-3.7017e-13,2.314e-17,74.58,-110.17,-42.198,-30.394,0,0.017254,0,1,4.52,0,-4.52,0
0,0,0,0,0,0,7.6649e-05,-0.00044179,1.2727e-35,-9.2111e-09,-2.3258e-18,1.6139e-22,0.62971,0.00048468,-0.00044179,1.9648e-32,7.6649e-05,-30.355,-110.04,-42.147,-0.0014164,-3.5759e-13,2.4556e-17,74.495,-110.04,-42.147,-30.355,0,0.017256,0,1,4.525,0,-4.525,0
0,0,0,0,0,0,7.6574e-05,-0.00044128,1.2663e-35,-9.0465e-09,-2.234e-18,1.7026e-22,0.62945,0.00048413,-0.00044128,2.0721e-32,7.6574e-05,-30.316,-109.91,-42.097,-0.0013911,-3.4347e-13,2.5924e-17,74.409,-109.91,-42.097,-30.316,0,0.017258,0,1,4.53,0,-4.53,0
0,0,0,0,0,0,7.6498e-05,-0.00044076,1.2611e-35,-8.8322e-09,-2.1322e-18,1.7882e-22,0.62918,0.00048357,-0.00044076,2.1839e-32,7.6498e-05,-30.277,-109.78,-42.046,-0.0013581,-3.2782e-13,2.7246e-17,74.324,-109.78,-42.046,-30.277,0,0.017261,0,1,4.535,0,-4.535,0
0,0,0,0,0,0,7.6423e-05,-0.00044025,1.2574e-35,-8.5681e-09,-2.0204e-18,1.8707e-22,0.62891,0.00048301,-0.00044025,2.3004e-32,7.6423e-05,-30.238,-109.65,-41.995,-0.0013175,-3.1062e-13,2.852e-17,74.238,-109.65,-41.995,-30.238,0,0.017263,0,1,4.54,0,-4.54,0
0,0,0,0,0,0,7.6349e-05,-0.00043973,1.2551e-35,-8.2542e-09,-1.8985e-18,1.95e-22,0.62865,0.00048246,-0.00043973,2.4213e-32,7.6349e-05,-30.198,-109.52,-41.944,-0.0012692,-2.9189e-13,2.9747e-17,74.153,-109.52,-41.944,-30.198,0,0.017265,0,1,4.545,0,-4.545,0
0,0,0,0,0,0,7.6275e-05,-0.00043921,1.2541e-35,-7.8906e-09,-1.7666e-18,2.0263e-22,0.62838,0.0004819,-0.00043921,2.5468e-32,7.6275e-05,-30.158,-109.39,-41.893,-0.0012133,-2.7161e-13,3.0927e-17,74.067,-109.39,-41.893,-30.158,0,0.017267,0,1,4.55,0,-4.55,0
0,0,0,0,0,0,7.6202e-05,-0.0004387,1.2546e-35,-7.4771e-09,-1.6248e-18,2.0994e-22,0.62811,0.00048134,-0.0004387,2.6769e-32,7.6202e-05,-30.119,-109.26,-41.842,-0.0011497,-2.498e-13,3.2059e-17,73.982,-109.26,-41.842,-30.119,0,0.017269,0,1,4.555,0,-4.555,0
0,0,0,0,0,0,7.6129e-05,-0.00043818,1.2564e-35,-7.0138e-09,-1.4729e-18,2.1693e-22,0.62784,0.00048079,-0.00043818,2.8115e-32,7.6129e-05,-30.079,-109.13,-41.791,-0.0010785,-2.2645e-13,3.3145e-17,73.896,-109.13,-41.791,-30.079,0,0.017272,0,1,4.56,0,-4.56,0
0,0,0,0,0,0,7.6056e-05,-0.00043767,1.2596e-35,-6.5008e-09,-1.311e-18,2.2362e-22,0.62758,0.00048023,-0.00043767,2.9507e-32,7.6056e-05,-30.039,-109,-41.739,-0.00099958,-2.0155e-13,3.4183e-17,73.811,-109,-41.739,-30.039,0,0.017274,0,1,4.565,0,-4.565,0
0,0,0,0,0,0,7.5984e-05,-0.00043715,1.2642e-35,-5.9379e-09,-1.139e-18,2.2999e-22,0.62731,0.00047968,-0.00043715,3.0944e-32,7.5984e-05,-29.998,-108.87,-41.688,-0.00091302,-1.7512e-13,3.5174e-17,73.726,-108.87,-41.688,-29.998,0,0.017276,0,1,4.57,0,-4.57,0
0,0,0,0,0,0,7.5913e-05,-0.00043663,1.2702e-35,-5.3253e-09,-9.5713e-19,2.3605e-22,0.62704,0.00047912,-0.00043663,3.2427e-32,7.5913e-05,-29.958,-108.74,-41.637,-0.00081881,-1.4715e-13,3.6118e-17,73.641,-108.74,-41.637,-29.958,0,0.017278,0,1,4.575,0,-4.575,0
0,0,0,0,0,0,7.5842e-05,-0.00043612,1.2775e-35,-4.6628e-09,-7.6518e-19,2.418e-22,0.62677,0.00047857,-0.00043612,3.3955e-32,7.5842e-05,-29.918,-108.61,-41.585,-0.00071693,-1.1764e-13,3.7015e-17,73.556,-108.61,-41.585,-29.918,0,0.01728,0,1,4.58,0,-4.58,0
0,0,0,0,0,0,7.5771e-05,-0.0004356,1.2863e-35,-3.9506e-09,-5.6322e-19,2.4724e-22,0.62651,0.00047801,-0.0004356,3.5529e-32,7.5771e-05,-29.877,-108.48,-41.534,-0.0006074,-8.6583e-14,3.7865e-17,73.47,-108.48,-41.534,-29.877,0,0.017283,0,1,4.585,0,-4.585,0
0,0,0,0,0,0,7.5701e-05,-0.00043509,1.2964e-35,-3.1885e-09,-3.5124e-19,2.5237e-22,0.62624,0.00047746,-0.00043509,3.7149e-32,7.5701e-05,-29.836,-108.35,-41.482,-0.00049021,-5.3992e-14,3.8668e-17,73.385,-108.35,-41.482,-29.836,0,0.017285,0,1,4.59,0,-4.59,0
0,0,0,0,0,0,7.5632e-05,-0.00043457,1.3079e-35,-2.3768e-09,-1.2928e-19,2.5718e-22,0.62597,0.00047691,-0.00043457,3.8813e-32,7.5632e-05,-29.796,-108.22,-41.431,-0.00036537,-1.9864e-14,3.9423e-17,73.3,-108.22,-41.431,-29.796,0,0.017287,0,1,4.595,0,-4.595,0
0,0,0,0,0,0,7.5563e-05,-0.00043405,1.3208e-35,-1.5151e-09,1.0273e-19,2.6168e-22,0.62571,0.00047635,-0.00043405,4.0524e-32,7.5563e-05,-29.755,-108.09,-41.379,-0.00023286,1.5806e-14,4.0132e-17,73.215,-108.09,-41.379,-29.755,0,0.017289,0,1,4.6,0,-4.6,0
0,0,0,0,0,0,7.5494e-05,-0.00043354,1.3351e-35,-6.0371e-10,3.4474e-19,2.6587e-22,0.62544,0.0004758,-0.00043354,4.228e-32,7.5494e-05,-29.713,-107.96,-41.328,-9.2697e-05,5.3016e-14,4.0793e-17,73.13,-107.96,-41.328,-29.713,0,0.017291,0,1,4.605,0,-4.605,0
0,0,0,0,0,0,7.5426e-05,-0.00043302,1.3508e-35,3.5751e-10,5.9677e-19,2.6974e-22,0.62517,0.00047525,-0.00043302,4.4082e-32,7.5426e-05,-29.672,-107.82,-41.276,5.5125e-05,9.1766e-14,4.1407e-17,73.045,-107.82,-41.276,-29.672,0,0.017293,0,1,4.61,0,-4.61,0
0,0,0,0,0,0,7.5358e-05,-0.00043251,1.3679e-35,1.3684e-09,8.5878e-19,2.7331e-22,0.6249,0.00047469,-0.00043251,4.5928e-32,7.5358e-05,-29.631,-107.69,-41.224,0.00021059,1.3205e-13,4.1974e-17,72.96,-107.69,-41.224,-29.631,0,0.017296,0,1,4.615,0,-4.615,0
0,0,0,0,0,0,7.5291e-05,-0.00043199,1.3863e-35,2.4292e-09,1.1308e-18,2.7656e-22,0.62464,0.00047414,-0.00043199,4.7821e-32,7.5291e-05,-29.589,-107.56,-41.172,0.00037373,1.7388e-13,4.2494e-17,72.876,-107.56,-41.172,-29.589,0,0.017298,0,1,4.62,0,-4.62,0
0,0,0,0,0,0,7.5224e-05,-0.00043147,1.4062e-35,3.5398e-09,1.4129e-18,2.795e-22,0.62437,0.00047359,-0.00043147,4.9759e-32,7.5224e-05,-29.548,-107.43,-41.12,0.00054452,2.1725e-13,4.2966e-17,72.791,-107.43,-41.12,-29.548,0,0.0173,0,1,4.625,0,-4.625,0
0,0,0,0,0,0,7.5158e-05,-0.00043096,1.4274e-35,4.7002e-09,1.705e-18,2.8212e-22,0.6241,0.00047304,-0.00043096,5.1743e-32,7.5158e-05,-29.506,-107.3,-41.068,0.00072297,2.6216e-13,4.3392e-17,72.706,-107.3,-41.068,-29.506,0,0.017302,0,1,4.63,0,-4.63,0
0,0,0,0,0,0,7.5092e-05,-0.00043044,1.45e-35,5.9104e-09,2.0071e-18,2.8444e-22,0.62384,0.00047248,-0.00043044,5.3772e-32,7.5092e-05,-29.464,-107.17,-41.016,0.00090908,3.086e-13,4.377e-17,72.621,-107.17,-41.016,-29.464,0,0.017304,0,1,4.635,0,-4.635,0
0,0,0,0,0,0,7.5027e-05,-0.00042992,1.474e-35,7.1703e-09,2.3192e-18,2.8644e-22,0.62357,0.00047193,-0.00042992,5.5847e-32,7.5027e-05,-29.422,-107.04,-40.964,0.0011028,3.5659e-13,4.4101e-17,72.537,-107.04,-40.964,-29.422,0,0.017306,0,1,4.64,0,-4.64,0
0,0,0,0,0,0,7.4963e-05,-0.00042941,1.4994e-35,8.4801e-09,2.6413e-18,2.8813e-22,0.6233,0.00047138,-0.00042941,5.7967e-32,7.4963e-05,-29.38,-106.91,-40.912,0.0013043,4.0611e-13,4.4385e-17,72.452,-106.91,-40.912,-29.38,0,0.017309,0,1,4.645,0,-4.645,0
0,0,0,0,0,0,7.4898e-05,-0.00042889,1.5261e-35,9.8396e-09,2.9734e-18,2.8951e-22,0.62303,0.00047083,-0.00042889,6.0133e-32,7.4898e-05,-29.337,-106.77,-40.86,0.0015133,4.5718e-13,4.4622e-17,72.367,-106.77,-40.86,-29.337,0,0.017311,0,1,4.65,0,-4.65,0
0,0,0,0,0,0,7.4835e-05,-0.00042837,1.5543e-35,1.1249e-08,3.3156e-18,2.9058e-22,0.62277,0.00047028,-0.00042837,6.2344e-32,7.4835e-05,-29.295,-106.64,-40.808,0.0017301,5.0978e-13,4.4812e-17,72.283,-106.64,-40.808,-29.295,0,0.017313,0,1,4.655,0,-4.655,0
0,0,0,0,0,0,7.4771e-05,-0.00042786,1.5838e-35,1.2708e-08,3.6677e-18,2.9133e-22,0.6225,0.00046973,-0.00042786,6.4601e-32,7.4771e-05,-29.252,-106.51,-40.755,0.0019545,5.6392e-13,4.4954e-17,72.198,-106.51,-40.755,-29.252,0,0.017315,0,1,4.66,0,-4.66,0
0,0,0,0,0,0,7.4708e-05,-0.00042734,1.6147e-35,1.4217e-08,4.0299e-18,2.9177e-22,0.62223,0.00046918,-0.00042734,6.6903e-32,7.4708e-05,-29.209,-106.38,-40.703,0.0021865,6.1961e-13,4.505e-17,72.114,-106.38,-40.703,-29.209,0,0.017317,0,1,4.665,0,-4.665,0
0,0,0,0,0,0,7.4646e-05,-0.00042683,1.647e-35,1.5776e-08,4.402e-18,2.919e-22,0.62196,0.00046863,-0.00042683,6.9251e-32,7.4646e-05,-29.167,-106.25,-40.65,0.0024262,6.7683e-13,4.5098e-17,72.029,-106.25,-40.65,-29.167,0,0.017319,0,1,4.67,0,-4.67,0
0,0,0,0,0,0,7.4584e-05,-0.00042631,1.6807e-35,1.7384e-08,4.7842e-18,2.9172e-22,0.6217,0.00046808,-0.00042631,7.1644e-32,7.4584e-05,-29.124,-106.12,-40.598,0.0026736,7.356e-13,4.5099e-17,71.945,-106.12,-40.598,-29.124,0,0.017321,0,1,4.675,0,-4.675,0
0,0,0,0,0,0,7.4523e-05,-0.00042579,1.7158e-35,1.9042e-08,5.1764e-18,2.9122e-22,0.62143,0.00046753,-0.00042579,7.4083e-32,7.4523e-05,-29.081,-105.98,-40.545,0.0029286,7.9589e-13,4.5053e-17,71.861,-105.98,-40.545,-29.081,0,0.017324,0,1,4.68,0,-4.68,0
0,0,0,0,0,0,7.4462e-05,-0.00042528,1.7523e-35,2.0751e-08,5.5786e-18,2.9042e-22,0.62116,0.00046698,-0.00042528,7.6568e-32,7.4462e-05,-29.037,-105.85,-40.493,0.0031913,8.5773e-13,4.496e-17,71.776,-105.85,-40.493,-29.037,0,0.017326,0,1,4.685,0,-4.685,0
0,0,0,0,0,0,7.4402e-05,-0.00042481,1.7981e-35,2.058e-08,5.741e-18,2.8171e-22,0.62093,0.00046648,-0.00042481,7.7479e-32,7.4402e-05,-29,-105.73,-40.446,0.0031651,8.827e-13,4.363e-17,71.7,-105.73,-40.446,-29,0,0.017328,0,1,4.69,0,-4.69,0
0,0,0,0,0,0,7.4343e-05,-0.00042438,1.8479e-35,1.9174e-08,5.7394e-18,2.6812e-22,0.62071,0.00046602,-0.00042438,7.7317e-32,7.4343e-05,-28.965,-105.62,-40.403,0.0029488,8.8245e-13,4.1532e-17,71.628,-105.62,-40.403,-28.965,0,0.01733,0,1,4.695,0,-4.695,0
0,0,0,0,0,0,7.4284e-05,-0.00042394,1.8958e-35,1.7804e-08,5.7367e-18,2.5475e-22,0.62049,0.00046555,-0.00042394,7.7137e-32,7.4284e-05,-28.931,-105.51,-40.359,0.0027382,8.8203e-13,3.9469e-17,71.557,-105.51,-40.359,-28.931,0,0.017332,0,1,4.7,0,-4.7,0
0,0,0,0,0,0,7.4226e-05,-0.00042351,1.942e-35,1.6471e-08,5.7329e-18,2.4161e-22,0.62027,0.00046509,-0.00042351,7.694e-32,7.4226e-05,-28.897,-105.4,-40.316,0.0025331,8.8145e-13,3.744e-17,71.486,-105.4,-40.316,-28.897,0,0.017334,0,1,4.705,0,-4.705,0
0,0,0,0,0,0,7.4168e-05,-0.00042308,1.9862e-35,1.5173e-08,5.728e-18,2.287e-22,0.62005,0.00046462,-0.00042308,7.6726e-32,7.4168e-05,-28.863,-105.3,-40.273,0.0023335,8.8069e-13,3.5447e-17,71.414,-105.3,-40.273,-28.863,0,0.017336,0,1,4.71,0,-4.71,0
0,0,0,0,0,0,7.411e-05,-0.00042264,2.0286e-35,1.3912e-08,5.722e-18,2.1601e-22,0.61984,0.00046416,-0.00042264,7.6494e-32,7.411e-05,-28.828,-105.19,-40.229,0.0021396,8.7977e-13,3.3489e-17,71.343,-105.19,-40.229,-28.828,0,0.017338,0,1,4.715,0,-4.715,0
0,0,0,0,0,0,7.4053e-05,-0.00042221,2.0692e-35,1.2687e-08,5.7149e-18,2.0355e-22,0.61962,0.00046369,-0.00042221,7.6246e-32,7.4053e-05,-28.793,-105.08,-40.186,0.0019512,8.7869e-13,3.1565e-17,71.272,-105.08,-40.186,-28.793,0,0.01734,0,1,4.72,0,-4.72,0
0,0,0,0,0,0,7.3996e-05,-0.00042178,2.1078e-35,1.1498e-08,5.7067e-18,1.9131e-22,0.6194,0.00046323,-0.00042178,7.598e-32,7.3996e-05,-28.759,-104.97,-40.143,0.0017683,8.7743e-13,2.9677e-17,71.2,-104.97,-40.143,-28.759,0,0.017343,0,1,4.725,0,-4.725,0
0,0,0,0,0,0,7.394e-05,-0.00042134,2.1447e-35,1.0345e-08,5.6975e-18,1.793e-22,0.61918,0.00046277,-0.00042134,7.5697e-32,7.394e-05,-28.724,-104.86,-40.099,0.001591,8.7601e-13,2.7823e-17,71.129,-104.86,-40.099,-28.724,0,0.017345,0,1,4.73,0,-4.73,0
0,0,0,0,0,0,7.3884e-05,-0.00042091,2.1796e-35,9.2287e-09,5.6872e-18,1.6752e-22,0.61897,0.0004623,-0.00042091,7.5397e-32,7.3884e-05,-28.689,-104.75,-40.055,0.0014193,8.7442e-13,2.6005e-17,71.058,-104.75,-40.055,-28.689,0,0.017347,0,1,4.735,0,-4.735,0
0,0,0,0,0,0,7.3828e-05,-0.00042048,2.2128e-35,8.1485e-09,5.6757e-18,1.5596e-22,0.61875,0.00046184,-0.00042048,7.508e-32,7.3828e-05,-28.654,-104.64,-40.012,0.0012532,8.7267e-13,2.4221e-17,70.987,-104.64,-40.012,-28.654,0,0.017349,0,1,4.74,0,-4.74,0
0,0,0,0,0,0,7.3773e-05,-0.00042004,2.244e-35,7.1043e-09,5.6632e-18,1.4463e-22,0.61853,0.00046138,-0.00042004,7.4746e-32,7.3773e-05,-28.619,-104.52,-39.968,0.0010926,8.7075e-13,2.2472e-17,70.916,-104.52,-39.968,-28.619,0,0.017351,0,1,4.745,0,-4.745,0
0,0,0,0,0,0,7.3718e-05,-0.00041961,2.2734e-35,6.0964e-09,5.6497e-18,1.3353e-22,0.61831,0.00046091,-0.00041961,7.4395e-32,7.3718e-05,-28.584,-104.41,-39.925,0.00093762,8.6866e-13,2.0758e-17,70.845,-104.41,-39.925,-28.584,0,0.017353,0,1,4.75,0,-4.75,0
0,0,0,0,0,0,7.3663e-05,-0.00041918,2.301e-35,5.1246e-09,5.635e-18,1.2265e-22,0.61809,0.00046045,-0.00041918,7.4026e-32,7.3663e-05,-28.548,-104.3,-39.881,0.00078817,8.664e-13,1.908e-17,70.774,-104.3,-39.881,-28.548,0,0.017355,0,1,4.755,0,-4.755,0
0,0,0,0,0,0,7.3609e-05,-0.00041874,2.3267e-35,4.1891e-09,5.6192e-18,1.12e-22,0.61788,0.00045999,-0.00041874,7.364e-32,7.3609e-05,-28.513,-104.19,-39.837,0.00064429,8.6398e-13,1.7435e-17,70.703,-104.19,-39.837,-28.513,0,0.017357,0,1,4.76,0,-4.76,0
0,0,0,0,0,0,7.3555e-05,-0.00041831,2.3505e-35,3.2898e-09,5.6024e-18,1.0157e-22,0.61766,0.00045952,-0.00041831,7.3237e-32,7.3555e-05,-28.477,-104.08,-39.793,0.00050599,8.6139e-13,1.5827e-17,70.632,-104.08,-39.793,-28.477,0,0.017359,0,1,4.765,0,-4.765,0
0,0,0,0,0,0,7.3502e-05,-0.00041788,2.3725e-35,2.4266e-09,5.5844e-18,9.1372e-23,0.61744,0.00045906,-0.00041788,7.2817e-32,7.3502e-05,-28.442,-103.97,-39.749,0.00037325,8.5863e-13,1.4252e-17,70.561,-103.97,-39.749,-28.442,0,0.017361,0,1,4.77,0,-4.77,0
0,0,0,0,0,0,7.3448e-05,-0.00041744,2.3926e-35,1.5997e-09,5.5654e-18,8.1399e-23,0.61722,0.0004586,-0.00041744,7.238e-32,7.3448e-05,-28.406,-103.86,-39.705,0.00024607,8.5571e-13,1.2713e-17,70.49,-103.86,-39.705,-28.406,0,0.017364,0,1,4.775,0,-4.775,0
0,0,0,0,0,0,7.3396e-05,-0.00041701,2.4109e-35,8.089e-10,5.5453e-18,7.1653e-23,0.61701,0.00045814,-0.00041701,7.1926e-32,7.3396e-05,-28.37,-103.75,-39.661,0.00012445,8.5262e-13,1.1209e-17,70.419,-103.75,-39.661,-28.37,0,0.017366,0,1,4.78,0,-4.78,0
0,0,0,0,0,0,7.3343e-05,-0.00041658,2.4273e-35,5.4384e-11,5.5241e-18,6.2133e-23,0.61679,0.00045768,-0.00041658,7.1454e-32,7.3343e-05,-28.334,-103.64,-39.617,8.4193e-06,8.4936e-13,9.7397e-18,70.348,-103.64,-39.617,-28.334,0,0.017368,0,1,4.785,0,-4.785,0
0,0,0,0,0,0,7.3291e-05,-0.00041614,2.4418e-35,-6.6401e-10,5.5019e-18,5.284e-23,0.61657,0.00045722,-0.00041614,7.0966e-32,7.3291e-05,-28.298,-103.53,-39.573,-0.00010206,8.4594e-13,8.3053e-18,70.277,-103.53,-39.573,-28.298,0,0.01737,0,1,4.79,0,-4.79,0
0,0,0,0,0,0,7.324e-05,-0.00041571,2.4545e-35,-1.3462e-09,5.4785e-18,4.3772e-23,0.61635,0.00045675,-0.00041571,7.046e-32,7.324e-05,-28.262,-103.42,-39.529,-0.00020698,8.4235e-13,6.9058e-18,70.206,-103.42,-39.529,-28.262,0,0.017372,0,1,4.795,0,-4.795,0
0,0,0,0,0,0,7.3189e-05,-0.00041528,2.4654e-35,-1.9922e-09,5.4541e-18,3.4931e-23,0.61613,0.00045629,-0.00041528,6.9937e-32,7.3189e-05,-28.226,-103.31,-39.485,-0.00030632,8.3859e-13,5.5413e-18,70.136,-103.31,-39.485,-28.226,0,0.017374,0,1,4.8,0,-4.8,0
0,0,0,0,0,0,7.3138e-05,-0.00041484,2.4743e-35,-2.6019e-09,5.4285e-18,2.6317e-23,0.61592,0.00045583,-0.00041484,6.9397e-32,7.3138e-05,-28.189,-103.2,-39.441,-0.00040009,8.3466e-13,4.2118e-18,70.065,-103.2,-39.441,-28.189,0,0.017376,0,1,4.805,0,-4.805,0
0,0,0,0,0,0,7.3087e-05,-0.00041441,2.4815e-35,-3.1756e-09,5.4019e-18,1.7928e-23,0.6157,0.00045537,-0.00041441,6.8839e-32,7.3087e-05,-28.153,-103.09,-39.397,-0.00048831,8.3057e-13,2.9171e-18,69.994,-103.09,-39.397,-28.153,0,0.017378,0,1,4.81,0,-4.81,0
0,0,0,0,0,0,7.3037e-05,-0.00041398,2.4867e-35,-3.713e-09,5.3742e-18,9.7657e-24,0.61548,0.00045491,-0.00041398,6.8265e-32,7.3037e-05,-28.116,-102.98,-39.352,-0.00057096,8.2631e-13,1.6573e-18,69.923,-102.98,-39.352,-28.116,0,0.01738,0,1,4.815,0,-4.815,0
0,0,0,0,0,0,7.2988e-05,-0.00041354,2.4901e-35,-4.2142e-09,5.3454e-18,1.8297e-24,0.61526,0.00045445,-0.00041354,6.7673e-32,7.2988e-05,-28.079,-102.87,-39.308,-0.00064804,8.2188e-13,4.3252e-19,69.853,-102.87,-39.308,-28.079,0,0.017382,0,1,4.82,0,-4.82,0
0,0,0,0,0,0,7.2938e-05,-0.00041311,2.4917e-35,-4.6792e-09,5.3155e-18,-5.8791e-24,0.61505,0.00045399,-0.00041311,6.7064e-32,7.2938e-05,-28.043,-102.76,-39.264,-0.00071955,8.1729e-13,-7.5727e-19,69.782,-102.76,-39.264,-28.043,0,0.017384,0,1,4.825,0,-4.825,0
0,0,0,0,0,0,7.289e-05,-0.00041267,2.4914e-35,-5.108e-09,5.2846e-18,-1.3362e-23,0.61483,0.00045353,-0.00041267,6.6439e-32,7.289e-05,-28.006,-102.64,-39.219,-0.0007855,8.1253e-13,-1.9122e-18,69.712,-102.64,-39.219,-28.006,0,0.017386,0,1,4.83,0,-4.83,0
0,0,0,0,0,0,7.2841e-05,-0.00041224,2.4893e-35,-5.5007e-09,5.2525e-18,-2.0619e-23,0.61461,0.00045307,-0.00041224,6.5795e-32,7.2841e-05,-27.969,-102.53,-39.175,-0.00084588,8.076e-13,-3.0323e-18,69.641,-102.53,-39.175,-27.969,0,0.017388,0,1,4.835,0,-4.835,0
0,0,0,0,0,0,7.2793e-05,-0.00041181,2.4852e-35,-5.8571e-09,5.2194e-18,-2.765e-23,0.61439,0.00045261,-0.00041181,6.5135e-32,7.2793e-05,-27.932,-102.42,-39.13,-0.0009007,8.0251e-13,-4.1174e-18,69.571,-102.42,-39.13,-27.932,0,0.017391,0,1,4.84,0,-4.84,0
0,0,0,0,0,0,7.2745e-05,-0.00041137,2.4794e-35,-6.1773e-09,5.1852e-18,-3.4454e-23,0.61417,0.00045216,-0.00041137,6.4458e-32,7.2745e-05,-27.894,-102.31,-39.086,-0.00094994,7.9725e-13,-5.1674e-18,69.5,-102.31,-39.086,-27.894,0,0.017393,0,1,4.845,0,-4.845,0
0,0,0,0,0,0,7.2698e-05,-0.00041094,2.4717e-35,-6.4614e-09,5.1498e-18,-4.1032e-23,0.61396,0.0004517,-0.00041094,6.3763e-32,7.2698e-05,-27.857,-102.2,-39.041,-0.00099363,7.9182e-13,-6.1827e-18,69.43,-102.2,-39.041,-27.857,0,0.017395,0,1,4.85,0,-4.85,0
0,0,0,0,0,0,7.2651e-05,-0.0004105,2.4621e-35,-6.7092e-09,5.1135e-18,-4.7383e-23,0.61374,0.00045124,-0.0004105,6.3052e-32,7.2651e-05,-27.82,-102.09,-38.996,-0.0010317,7.8622e-13,-7.163e-18,69.359,-102.09,-38.996,-27.82,0,0.017397,0,1,4.855,0,-4.855,0
0,0,0,0,0,0,7.2604e-05,-0.00041007,2.4506e-35,-6.9209e-09,5.076e-18,-5.3509e-23,0.61352,0.00045078,-0.00041007,6.2323e-32,7.2604e-05,-27.782,-101.98,-38.952,-0.0010643,7.8046e-13,-8.1083e-18,69.289,-101.98,-38.952,-27.782,0,0.017399,0,1,4.86,0,-4.86,0
0,0,0,0,0,0,7.2558e-05,-0.00040964,2.4373e-35,-7.0963e-09,5.0374e-18,-5.9407e-23,0.6133,0.00045032,-0.00040964,6.1577e-32,7.2558e-05,-27.744,-101.87,-38.907,-0.0010913,7.7453e-13,-9.0187e-18,69.219,-101.87,-38.907,-27.744,0,0.017401,0,1,4.865,0,-4.865,0
0,0,0,0,0,0,7.2512e-05,-0.0004092,2.4222e-35,-7.2356e-09,4.9978e-18,-6.508e-23,0.61309,0.00044986,-0.0004092,6.0813e-32,7.2512e-05,-27.707,-101.75,-38.862,-0.0011127,7.6844e-13,-9.8942e-18,69.148,-101.75,-38.862,-27.707,0,0.017403,0,1,4.87,0,-4.87,0
0,0,0,0,0,0,7.2466e-05,-0.00040877,2.4052e-35,-7.3387e-09,4.957e-18,-7.0526e-23,0.61287,0.00044941,-0.00040877,6.0033e-32,7.2466e-05,-27.669,-101.64,-38.817,-0.0011285,7.6217e-13,-1.0735e-17,69.078,-101.64,-38.817,-27.669,0,0.017405,0,1,4.875,0,-4.875,0
0,0,0,0,0,0,7.2421e-05,-0.00040834,2.3863e-35,-7.4056e-09,4.9152e-18,-7.5746e-23,0.61265,0.00044895,-0.00040834,5.9236e-32,7.2421e-05,-27.631,-101.53,-38.772,-0.0011388,7.5574e-13,-1.154e-17,69.008,-101.53,-38.772,-27.631,0,0.017407,0,1,4.88,0,-4.88,0
0,0,0,0,0,0,7.2376e-05,-0.0004079,2.3656e-35,-7.4363e-09,4.8723e-18,-8.074e-23,0.61243,0.00044849,-0.0004079,5.8421e-32,7.2376e-05,-27.593,-101.42,-38.727,-0.0011436,7.4915e-13,-1.2311e-17,68.937,-101.42,-38.727,-27.593,0,0.017409,0,1,4.885,0,-4.885,0
0,0,0,0,0,0,7.2332e-05,-0.00040747,2.343e-35,-7.4308e-09,4.8283e-18,-8.5507e-23,0.61221,0.00044803,-0.00040747,5.7589e-32,7.2332e-05,-27.555,-101.31,-38.682,-0.0011427,7.4238e-13,-1.3047e-17,68.867,-101.31,-38.682,-27.555,0,0.017411,0,1,4.89,0,-4.89,0
0,0,0,0,0,0,7.2288e-05,-0.00040703,2.3186e-35,-7.3891e-09,4.7832e-18,-9.0049e-23,0.612,0.00044758,-0.00040703,5.674e-32,7.2288e-05,-27.516,-101.2,-38.637,-0.0011363,7.3545e-13,-1.3748e-17,68.797,-101.2,-38.637,-27.516,0,0.017413,0,1,4.895,0,-4.895,0
0,0,0,0,0,0,7.2244e-05,-0.0004066,2.2923e-35,-7.3112e-09,4.737e-18,-9.4363e-23,0.61178,0.00044712,-0.0004066,5.5874e-32,7.2244e-05,-27.478,-101.08,-38.592,-0.0011243,7.2835e-13,-1.4414e-17,68.727,-101.08,-38.592,-27.478,0,0.017415,0,1,4.9,0,-4.9,0
0,0,0,0,0,0,7.2201e-05,-0.00040617,2.2642e-35,-7.1971e-09,4.6898e-18,-9.8452e-23,0.61156,0.00044666,-0.00040617,5.4991e-32,7.2201e-05,-27.44,-100.97,-38.547,-0.0011068,7.2109e-13,-1.5045e-17,68.657,-100.97,-38.547,-27.44,0,0.017417,0,1,4.905,0,-4.905,0
0,0,0,0,0,0,7.2158e-05,-0.00040573,2.2342e-35,-7.0468e-09,4.6414e-18,-1.0231e-22,0.61134,0.00044621,-0.00040573,5.409e-32,7.2158e-05,-27.401,-100.86,-38.502,-0.0010836,7.1365e-13,-1.5641e-17,68.587,-100.86,-38.502,-27.401,0,0.017419,0,1,4.91,0,-4.91,0
0,0,0,0,0,0,7.2116e-05,-0.0004053,2.2023e-35,-6.8603e-09,4.592e-18,-1.0595e-22,0.61112,0.00044575,-0.0004053,5.3172e-32,7.2116e-05,-27.362,-100.75,-38.457,-0.001055,7.0605e-13,-1.6202e-17,68.517,-100.75,-38.457,-27.362,0,0.017421,0,1,4.915,0,-4.915,0
0,0,0,0,0,0,7.2074e-05,-0.00040486,2.1686e-35,-6.6376e-09,4.5415e-18,-1.0936e-22,0.61091,0.0004453,-0.00040486,5.2238e-32,7.2074e-05,-27.324,-100.64,-38.412,-0.0010207,6.9829e-13,-1.6728e-17,68.447,-100.64,-38.412,-27.324,0,0.017423,0,1,4.92,0,-4.92,0
0,0,0,0,0,0,7.2032e-05,-0.00040443,2.133e-35,-6.3787e-09,4.4899e-18,-1.1254e-22,0.61069,0.00044484,-0.00040443,5.1286e-32,7.2032e-05,-27.285,-100.53,-38.366,-0.0009809,6.9035e-13,-1.7219e-17,68.377,-100.53,-38.366,-27.285,0,0.017425,0,1,4.925,0,-4.925,0
0,0,0,0,0,0,7.1991e-05,-0.00040399,2.0956e-35,-6.0836e-09,4.4372e-18,-1.155e-22,0.61047,0.00044439,-0.00040399,5.0317e-32,7.1991e-05,-27.246,-100.41,-38.321,-0.00093552,6.8225e-13,-1.7676e-17,68.307,-100.41,-38.321,-27.246,0,0.017427,0,1,4.93,0,-4.93,0
0,0,0,0,0,0,7.195e-05,-0.00040356,2.0563e-35,-5.7524e-09,4.3834e-18,-1.1823e-22,0.61025,0.00044393,-0.00040356,4.933e-32,7.195e-05,-27.207,-100.3,-38.275,-0.00088457,6.7399e-13,-1.8097e-17,68.237,-100.3,-38.275,-27.207,0,0.017429,0,1,4.935,0,-4.935,0
0,0,0,0,0,0,7.1909e-05,-0.00040313,2.0152e-35,-5.3849e-09,4.3286e-18,-1.2073e-22,0.61004,0.00044347,-0.00040313,4.8327e-32,7.1909e-05,-27.167,-100.19,-38.23,-0.00082805,6.6555e-13,-1.8484e-17,68.167,-100.19,-38.23,-27.167,0,0.017431,0,1,4.94,0,-4.94,0
0,0,0,0,0,0,7.1869e-05,-0.00040269,1.9722e-35,-4.9812e-09,4.2726e-18,-1.2301e-22,0.60982,0.00044302,-0.00040269,4.7306e-32,7.1869e-05,-27.128,-100.08,-38.185,-0.00076597,6.5695e-13,-1.8835e-17,68.097,-100.08,-38.185,-27.128,0,0.017433,0,1,4.945,0,-4.945,0
0,0,0,0,0,0,7.1829e-05,-0.00040226,1.9273e-35,-4.5413e-09,4.2156e-18,-1.2506e-22,0.6096,0.00044257,-0.00040226,4.6269e-32,7.1829e-05,-27.089,-99.965,-38.139,-0.00069832,6.4818e-13,-1.9152e-17,68.028,-99.965,-38.139,-27.089,0,0.017435,0,1,4.95,0,-4.95,0
0,0,0,0,0,0,7.1789e-05,-0.00040182,1.8806e-35,-4.0653e-09,4.1575e-18,-1.2689e-22,0.60938,0.00044211,-0.00040182,4.5214e-32,7.1789e-05,-27.049,-99.852,-38.093,-0.0006251,6.3925e-13,-1.9433e-17,67.958,-99.852,-38.093,-27.049,0,0.017437,0,1,4.955,0,-4.955,0
0,0,0,0,0,0,7.175e-05,-0.00040139,1.832e-35,-3.553e-09,4.0983e-18,-1.2849e-22,0.60916,0.00044166,-0.00040139,4.4142e-32,7.175e-05,-27.009,-99.74,-38.048,-0.00054632,6.3014e-13,-1.968e-17,67.888,-99.74,-38.048,-27.009,0,0.017439,0,1,4.96,0,-4.96,0
0,0,0,0,0,0,7.1712e-05,-0.00040095,1.7816e-35,-3.0045e-09,4.038e-18,-1.2986e-22,0.60895,0.0004412,-0.00040095,4.3052e-32,7.1712e-05,-26.97,-99.628,-38.002,-0.00046196,6.2087e-13,-1.9892e-17,67.818,-99.628,-38.002,-26.97,0,0.017441,0,1,4.965,0,-4.965,0
0,0,0,0,0,0,7.1673e-05,-0.00040052,1.7293e-35,-2.4199e-09,3.9766e-18,-1.31e-22,0.60873,0.00044075,-0.00040052,4.1946e-32,7.1673e-05,-26.93,-99.515,-37.956,-0.00037205,6.1144e-13,-2.0069e-17,67.749,-99.515,-37.956,-26.93,0,0.017443,0,1,4.97,0,-4.97,0
0,0,0,0,0,0,7.1635e-05,-0.00040009,1.6752e-35,-1.799e-09,3.9142e-18,-1.3192e-22,0.60851,0.0004403,-0.00040009,4.0822e-32,7.1635e-05,-26.89,-99.403,-37.911,-0.00027657,6.0183e-13,-2.0211e-17,67.679,-99.403,-37.911,-26.89,0,0.017445,0,1,4.975,0,-4.975,0
0,0,0,0,0,0,7.1598e-05,-0.00039965,1.6192e-35,-1.1419e-09,3.8506e-18,-1.3262e-22,0.60829,0.00043984,-0.00039965,3.9682e-32,7.1598e-05,-26.85,-99.29,-37.865,-0.00017551,5.9206e-13,-2.0318e-17,67.609,-99.29,-37.865,-26.85,0,0.017447,0,1,4.98,0,-4.98,0
0,0,0,0,0,0,7.1561e-05,-0.00039922,1.5613e-35,-4.4865e-10,3.786e-18,-1.3308e-22,0.60808,0.00043939,-0.00039922,3.8524e-32,7.1561e-05,-26.81,-99.178,-37.819,-6.8895e-05,5.8213e-13,-2.039e-17,67.54,-99.178,-37.819,-26.81,0,0.017449,0,1,4.985,0,-4.985,0
0,0,0,0,0,0,7.1524e-05,-0.00039878,1.5016e-35,2.8075e-10,3.7203e-18,-1.3332e-22,0.60786,0.00043894,-0.00039878,3.7349e-32,7.1524e-05,-26.77,-99.065,-37.773,4.3282e-05,5.7202e-13,-2.0427e-17,67.47,-99.065,-37.773,-26.77,0,0.017451,0,1,4.99,0,-4.99,0
0,0,0,0,0,0,7.1487e-05,-0.00039835,1.4401e-35,1.0464e-09,3.6534e-18,-1.3334e-22,0.60764,0.00043848,-0.00039835,3.6157e-32,7.1487e-05,-26.729,-98.952,-37.727,0.00016104,5.6175e-13,-2.0429e-17,67.401,-98.952,-37.727,-26.729,0,0.017453,0,1,4.995,0,-4.995,0
0,0,0,0,0,0,7.1451e-05,-0.00039791,1.3766e-35,1.8483e-09,3.5856e-18,-1.3313e-22,0.60742,0.00043803,-0.00039791,3.4947e-32,7.1451e-05,-26.689,-98.84,-37.681,0.00028436,5.5131e-13,-2.0396e-17,67.331,-98.84,-37.681,-26.689,0,0.017455,0,1,5,0,-5,0
