"CONTACT:0","CONTACT:1","CONTACT:2","CONTACT:3","CONTACT:4","CONTACT:5","E:0","E:1","E:2","E:3","E:4","E:5","ERROR","E_Mises","E_Principal:0","E_Principal:1","E_Principal:2","S:0","S:1","S:2","S:3","S:4","S:5","S_Mises","S_Principal:0","S_Principal:1","S_Principal:2","U:0","U:1","U:2","vtkValidPointMask","arc_length","Points:0","Points:1","Points:2"
-0.00014975,0,0,1497.5,0,0,-0.0040916,-0.004573,1.5449e-36,-0.00034224,-1.3836e-18,-2.1077e-21,9.1649,0.0043925,-0.0047507,-0.0039139,4.2268e-34,-1630.3,-1702.3,-1008.4,-51.45,-2.1097e-13,-4.2583e-16,666.85,-1729.1,-1603.5,-1008.4,2.0691e-32,0.01015,0,1,0,0,0,0
0,0,0,0,0,0,-0.0042158,-0.0049339,1.6895e-36,0.0012102,-9.128e-19,-1.0401e-20,13.917,0.0051353,-0.0058795,-0.0032702,1.9867e-34,-1706.3,-1812.4,-1065.3,182.08,-1.391e-13,-1.5989e-15,777.7,-1955.4,-1563.2,-1065.3,0,0.010323,0,1,0.005,0,-0.005,0
0,0,0,0,0,0,-0.0040371,-0.0049484,1.6048e-36,0.0012041,-8.5519e-19,-9.5205e-21,13.917,0.0051391,-0.0058578,-0.0031277,1.8873e-34,-1659.9,-1795.4,-1046.1,181.27,-1.3032e-13,-1.4632e-15,778.32,-1933,-1522.4,-1046.1,0,0.010348,0,1,0.01,0,-0.01,0
0,0,0,0,0,0,-0.0038584,-0.0049629,1.5201e-36,0.001198,-7.9758e-19,-8.6403e-21,13.917,0.005143,-0.005836,-0.0029852,1.7879e-34,-1613.6,-1778.4,-1026.8,180.45,-1.2154e-13,-1.3275e-15,778.94,-1910.6,-1481.5,-1026.8,0,0.010373,0,1,0.015,0,-0.015,0
0,0,0,0,0,0,-0.0036797,-0.0049773,1.4354e-36,0.0011919,-7.3996e-19,-7.7601e-21,13.917,0.0051468,-0.0058143,-0.0028427,1.6885e-34,-1567.3,-1761.4,-1007.6,179.64,-1.1276e-13,-1.1918e-15,779.56,-1888.1,-1440.6,-1007.6,0,0.010397,0,1,0.02,0,-0.02,0
0,0,0,0,0,0,-0.003501,-0.0049918,1.3507e-36,0.0011858,-6.8235e-19,-6.8798e-21,13.917,0.0051506,-0.0057926,-0.0027002,1.5891e-34,-1521,-1744.5,-988.35,178.83,-1.0398e-13,-1.0561e-15,780.17,-1865.7,-1399.7,-988.35,0,0.010422,0,1,0.025,0,-0.025,0
0,0,0,0,0,0,-0.0033223,-0.0050063,1.266e-36,0.0011797,-6.2473e-19,-5.9996e-21,13.917,0.0051544,-0.0057708,-0.0025578,1.4897e-34,-1474.7,-1727.5,-969.12,178.01,-9.5198e-14,-9.2047e-16,780.79,-1843.2,-1358.9,-969.12,0,0.010447,0,1,0.03,0,-0.03,0
0,0,0,0,0,0,-0.0031436,-0.0050207,1.1814e-36,0.0011736,-5.6712e-19,-5.1194e-21,13.917,0.0051583,-0.0057491,-0.0024153,1.3903e-34,-1428.3,-1710.5,-949.88,177.2,-8.6418e-14,-7.8478e-16,781.41,-1820.8,-1318,-949.88,0,0.010471,0,1,0.035,0,-0.035,0
0,0,0,0,0,0,-0.002965,-0.0050352,1.0967e-36,0.0011675,-5.095e-19,-4.2391e-21,13.917,0.0051621,-0.0057274,-0.0022728,1.2908e-34,-1382,-1693.5,-930.64,176.39,-7.7639e-14,-6.491e-16,782.03,-1798.4,-1277.1,-930.64,0,0.010496,0,1,0.04,0,-0.04,0
0,0,0,0,0,0,-0.0027863,-0.0050497,1.012e-36,0.0011614,-4.5189e-19,-3.3589e-21,13.917,0.0051659,-0.0057056,-0.0021303,1.1914e-34,-1335.7,-1676.5,-911.4,175.57,-6.8859e-14,-5.1342e-16,782.65,-1775.9,-1236.2,-911.4,0,0.010521,0,1,0.045,0,-0.045,0
0,0,0,0,0,0,-0.0026076,-0.0050641,9.273e-37,0.0011553,-3.9428e-19,-2.4786e-21,13.917,0.0051698,-0.0056839,-0.0019878,1.092e-34,-1289.4,-1659.5,-892.17,174.76,-6.008e-14,-3.7774e-16,783.26,-1753.5,-1195.4,-892.17,0,0.010545,0,1,0.05,0,-0.05,0
0,0,0,0,0,0,-0.0024289,-0.0050786,8.4261e-37,0.0011492,-3.3666e-19,-1.5984e-21,13.917,0.0051736,-0.0056622,-0.0018453,9.926e-35,-1243,-1642.5,-872.93,173.94,-5.13e-14,-2.4206e-16,783.88,-1731,-1154.5,-872.93,0,0.01057,0,1,0.055,0,-0.055,0
0,0,0,0,0,0,-0.0022502,-0.0050931,7.5793e-37,0.0011432,-2.7905e-19,-7.1817e-22,13.917,0.0051774,-0.0056405,-0.0017028,8.9319e-35,-1196.7,-1625.5,-853.69,173.13,-4.2521e-14,-1.0637e-16,784.5,-1708.6,-1113.6,-853.69,0,0.010595,0,1,0.06,0,-0.06,0
0,0,0,0,0,0,-0.0020715,-0.0051075,6.7324e-37,0.0011371,-2.2143e-19,1.6206e-22,13.917,0.0051812,-0.0056187,-0.0015603,7.9377e-35,-1150.4,-1608.5,-834.46,172.32,-3.3741e-14,2.9309e-17,785.12,-1686.2,-1072.8,-834.46,0,0.010619,0,1,0.065,0,-0.065,0
0,0,0,0,0,0,-0.0018928,-0.005122,5.8856e-37,0.001131,-1.6382e-19,1.0423e-21,13.917,0.0051851,-0.005597,-0.0014178,6.9436e-35,-1104.1,-1591.5,-815.22,171.5,-2.4962e-14,1.6499e-16,785.73,-1663.7,-1031.9,-815.22,0,0.010644,0,1,0.07,0,-0.07,0
0,0,0,0,0,0,-0.0017141,-0.0051365,5.0387e-37,0.0011249,-1.062e-19,1.9225e-21,13.917,0.0051889,-0.0055753,-0.0012753,5.9495e-35,-1057.7,-1574.5,-795.98,170.69,-1.6182e-14,3.0067e-16,786.35,-1641.3,-991.01,-795.98,0,0.010669,0,1,0.075,0,-0.075,0
0,0,0,0,0,0,-0.0015354,-0.0051509,4.1919e-37,0.0011188,-4.8591e-20,2.8028e-21,13.917,0.0051927,-0.0055535,-0.0011328,4.9553e-35,-1011.4,-1557.5,-776.74,169.88,-7.4025e-15,4.3636e-16,786.97,-1618.8,-950.13,-776.74,0,0.010693,0,1,0.08,0,-0.08,0
0,0,0,0,0,0,-0.0013567,-0.0051654,3.345e-37,0.0011127,9.0234e-21,3.683e-21,13.917,0.0051966,-0.0055318,-0.00099033,3.9612e-35,-965.1,-1540.5,-757.51,169.06,1.377e-15,5.7204e-16,787.59,-1596.4,-909.26,-757.51,0,0.010718,0,1,0.085,0,-0.085,0
0,0,0,0,0,0,-0.001178,-0.0051799,2.4982e-37,0.0011066,6.6638e-20,4.5632e-21,13.917,0.0052004,-0.0055101,-0.00084784,2.9671e-35,-918.78,-1523.6,-738.27,168.25,1.0157e-14,7.0772e-16,788.2,-1573.9,-868.38,-738.27,0,0.010743,0,1,0.09,0,-0.09,0
0,0,0,0,0,0,-0.00099935,-0.0051943,1.6513e-37,0.0011005,1.2425e-19,5.4435e-21,13.917,0.0052042,-0.0054883,-0.00070535,1.9729e-35,-872.45,-1506.6,-719.03,167.43,1.8936e-14,8.434e-16,788.82,-1551.5,-827.51,-719.03,0,0.010767,0,1,0.095,0,-0.095,0
0,0,0,0,0,0,-0.00082066,-0.0052088,8.0449e-38,0.0010944,1.8187e-19,6.3237e-21,13.917,0.005208,-0.0054666,-0.00056285,9.788e-36,-826.13,-1489.6,-699.79,166.62,2.7716e-14,9.7909e-16,789.44,-1529.1,-786.64,-699.79,0,0.010792,0,1,0.1,0,-0.1,0
0,0,0,0,0,0,-0.00075455,-0.0052107,6.7557e-38,0.0010841,1.574e-19,5.9657e-21,13.7,0.0052349,-0.0054625,-0.00053822,3.5502e-05,-808.48,-1482.4,-692.31,165.07,2.3982e-14,9.2299e-16,793.61,-1521,-775.35,-686.85,0,0.010819,0,1,0.105,0,-0.105,0
0,0,0,0,0,0,-0.00068844,-0.0052125,5.4665e-38,0.0010737,1.3293e-19,5.6076e-21,13.484,0.0052617,-0.0054584,-0.00051358,7.1003e-05,-790.83,-1475.2,-684.82,163.52,2.0248e-14,8.669e-16,797.78,-1512.9,-764.06,-673.91,0,0.010847,0,1,0.11,0,-0.11,0
0,0,0,0,0,0,-0.00062233,-0.0052144,4.1773e-38,0.0010633,1.0846e-19,5.2496e-21,13.267,0.0052885,-0.0054543,-0.00048895,0.00010651,-773.17,-1468.1,-677.34,161.98,1.6514e-14,8.108e-16,801.95,-1504.8,-752.77,-660.97,0,0.010875,0,1,0.115,0,-0.115,0
0,0,0,0,0,0,-0.00055622,-0.0052163,2.8881e-38,0.001053,8.3985e-20,4.8915e-21,13.051,0.0053153,-0.0054502,-0.00046431,0.00014201,-755.52,-1460.9,-669.85,160.43,1.2781e-14,7.5471e-16,806.12,-1496.8,-741.49,-648.03,0,0.010902,0,1,0.12,0,-0.12,0
0,0,0,0,0,0,-0.0004901,-0.0052181,1.5988e-38,0.0010426,5.9514e-20,4.5335e-21,12.834,0.0053422,-0.0054461,-0.00043968,0.00017751,-737.87,-1453.7,-662.36,158.88,9.0467e-15,6.9862e-16,810.29,-1488.7,-730.2,-635.09,0,0.01093,0,1,0.125,0,-0.125,0
0,0,0,0,0,0,-0.00042399,-0.00522,3.0962e-39,0.0010322,3.5044e-20,4.1754e-21,12.617,0.005369,-0.005442,-0.00041505,0.00021301,-720.22,-1446.6,-654.88,157.33,5.313e-15,6.4252e-16,814.46,-1480.6,-718.91,-622.15,0,0.010957,0,1,0.13,0,-0.13,0
0,0,0,0,0,0,-0.00035788,-0.0052219,-9.796e-39,0.0010218,1.0574e-20,3.8174e-21,12.401,0.0053958,-0.0054379,-0.00039041,0.00024851,-702.56,-1439.4,-647.39,155.78,1.5792e-15,5.8643e-16,818.63,-1472.5,-707.62,-609.21,0,0.010985,0,1,0.135,0,-0.135,0
0,0,0,0,0,0,-0.00029177,-0.0052237,-2.2688e-38,0.0010115,-1.3897e-20,3.4593e-21,12.184,0.0054226,-0.0054337,-0.00036578,0.00028401,-684.91,-1432.2,-639.9,154.23,-2.1546e-15,5.3034e-16,822.79,-1464.5,-696.34,-596.27,0,0.011012,0,1,0.14,0,-0.14,0
0,0,0,0,0,0,-0.00022566,-0.0052256,-3.558e-38,0.0010011,-3.8367e-20,3.1013e-21,11.968,0.0054494,-0.0054296,-0.00034114,0.00031952,-667.26,-1425.1,-632.42,152.68,-5.8884e-15,4.7424e-16,826.96,-1456.4,-685.05,-583.33,0,0.01104,0,1,0.145,0,-0.145,0
0,0,0,0,0,0,-0.00015955,-0.0052275,-4.8472e-38,0.00099075,-6.2837e-20,2.7432e-21,11.751,0.0054763,-0.0054255,-0.00031651,0.00035502,-649.61,-1417.9,-624.93,151.13,-9.6222e-15,4.1815e-16,831.13,-1448.3,-673.76,-570.39,0,0.011067,0,1,0.15,0,-0.15,0
0,0,0,0,0,0,-9.3438e-05,-0.0052293,-6.1365e-38,0.00098038,-8.7308e-20,2.3852e-21,11.534,0.0055031,-0.0054214,-0.00029187,0.00039052,-631.95,-1410.7,-617.44,149.59,-1.3356e-14,3.6205e-16,835.3,-1440.2,-662.48,-557.45,0,0.011095,0,1,0.155,0,-0.155,0
0,0,0,0,0,0,-2.7327e-05,-0.0052312,-7.4257e-38,0.00097001,-1.1178e-19,2.0271e-21,11.318,0.0055299,-0.0054173,-0.00026724,0.00042602,-614.3,-1403.6,-609.96,148.04,-1.709e-14,3.0596e-16,839.47,-1432.1,-651.19,-544.5,0,0.011123,0,1,0.16,0,-0.16,0
0,0,0,0,0,0,3.8784e-05,-0.0052331,-8.7149e-38,0.00095964,-1.3625e-19,1.6691e-21,11.101,0.0055567,-0.0054132,-0.0002426,0.00046152,-596.65,-1396.4,-602.47,146.49,-2.0823e-14,2.4987e-16,843.64,-1424.1,-639.9,-531.56,0,0.01115,0,1,0.165,0,-0.165,0
0,0,0,0,0,0,0.0001049,-0.0052349,-1.0004e-37,0.00094928,-1.6072e-19,1.311e-21,10.885,0.0055836,-0.0054091,-0.00021797,0.00049702,-579,-1389.2,-594.98,144.94,-2.4557e-14,1.9377e-16,847.81,-1416,-628.61,-518.62,0,0.011178,0,1,0.17,0,-0.17,0
0,0,0,0,0,0,0.00017101,-0.0052368,-1.1293e-37,0.00093891,-1.8519e-19,9.5298e-22,10.668,0.0056104,-0.005405,-0.00019333,0.00053253,-561.34,-1382.1,-587.5,143.39,-2.8291e-14,1.3768e-16,851.98,-1407.9,-617.33,-505.68,0,0.011205,0,1,0.175,0,-0.175,0
0,0,0,0,0,0,0.00023712,-0.0052387,-1.2583e-37,0.00092854,-2.0966e-19,5.9493e-22,10.451,0.0056372,-0.0054009,-0.0001687,0.00056803,-543.69,-1374.9,-580.01,141.84,-3.2025e-14,8.1586e-17,856.15,-1399.8,-606.04,-492.74,0,0.011233,0,1,0.18,0,-0.18,0
0,0,0,0,0,0,0.00030323,-0.0052405,-1.3872e-37,0.00091817,-2.3413e-19,2.3689e-22,10.235,0.005664,-0.0053968,-0.00014406,0.00060353,-526.04,-1367.7,-572.52,140.29,-3.5759e-14,2.5492e-17,860.32,-1391.8,-594.75,-479.8,0,0.01126,0,1,0.185,0,-0.185,0
0,0,0,0,0,0,0.00036934,-0.0052424,-1.5161e-37,0.00090781,-2.586e-19,-1.2116e-22,10.018,0.0056908,-0.0053927,-0.00011943,0.00063903,-508.39,-1360.6,-565.04,138.75,-3.9492e-14,-3.0602e-17,864.49,-1383.7,-583.46,-466.86,0,0.011288,0,1,0.19,0,-0.19,0
0,0,0,0,0,0,0.00043545,-0.0052443,-1.645e-37,0.00089744,-2.8307e-19,-4.7921e-22,9.8016,0.0057177,-0.0053886,-9.4794e-05,0.00067453,-490.73,-1353.4,-557.55,137.2,-4.3226e-14,-8.6695e-17,868.66,-1375.6,-572.18,-453.92,0,0.011316,0,1,0.195,0,-0.195,0
0,0,0,0,0,0,0.00050156,-0.0052462,-1.7739e-37,0.00088707,-3.0754e-19,-8.3726e-22,9.585,0.0057445,-0.0053845,-7.016e-05,0.00071004,-473.08,-1346.2,-550.07,135.65,-4.696e-14,-1.4279e-16,872.83,-1367.5,-560.89,-440.98,0,0.011343,0,1,0.2,0,-0.2,0
0,0,0,0,0,0,0.00056767,-0.005248,-1.9029e-37,0.0008767,-3.3201e-19,-1.1953e-21,9.3684,0.0057713,-0.0053804,-4.5525e-05,0.00074554,-455.43,-1339.1,-542.58,134.1,-5.0694e-14,-1.9888e-16,877,-1359.5,-549.6,-428.04,0,0.011371,0,1,0.205,0,-0.205,0
0,0,0,0,0,0,0.00063378,-0.0052499,-2.0318e-37,0.00086634,-3.5648e-19,-1.5534e-21,9.1518,0.0057981,-0.0053763,-2.089e-05,0.00078104,-437.78,-1331.9,-535.09,132.55,-5.4427e-14,-2.5498e-16,881.17,-1351.4,-538.32,-415.1,0,0.011398,0,1,0.21,0,-0.21,0
0,0,0,0,0,0,0.00069206,-0.0052475,-2.1517e-37,0.00085593,-3.7829e-19,-1.8605e-21,8.9497,0.0058178,-0.0053684,2.2271e-35,0.000813,-421.75,-1324.5,-528.03,130.99,-5.7756e-14,-3.0294e-16,884.24,-1343.2,-528.03,-403.12,0,0.011426,0,1,0.215,0,-0.215,0
0,0,0,0,0,0,0.00070662,-0.0052215,-2.2213e-37,0.00084534,-3.8528e-19,-1.8838e-21,8.8287,0.0057973,-0.00534,2.3845e-35,0.00082517,-414.77,-1315.9,-523.3,129.38,-5.8827e-14,-3.0557e-16,881.21,-1334.2,-523.3,-396.51,0,0.011451,0,1,0.22,0,-0.22,0
0,0,0,0,0,0,0.00072118,-0.0051954,-2.2908e-37,0.00083474,-3.9226e-19,-1.907e-21,8.7077,0.0057768,-0.0053116,2.5419e-35,0.00083735,-407.8,-1307.3,-518.58,127.76,-5.9898e-14,-3.0819e-16,878.17,-1325.2,-518.58,-389.91,0,0.011476,0,1,0.225,0,-0.225,0
0,0,0,0,0,0,0.00073575,-0.0051694,-2.3604e-37,0.00082414,-3.9925e-19,-1.9303e-21,8.5867,0.0057563,-0.0052831,2.6992e-35,0.00084953,-400.83,-1298.7,-513.86,126.15,-6.0968e-14,-3.1082e-16,875.14,-1316.2,-513.86,-383.3,0,0.011501,0,1,0.23,0,-0.23,0
0,0,0,0,0,0,0.00075031,-0.0051433,-2.43e-37,0.00081354,-4.0623e-19,-1.9535e-21,8.4657,0.0057358,-0.0052547,2.8566e-35,0.0008617,-393.86,-1290,-509.13,124.54,-6.2039e-14,-3.1344e-16,872.11,-1307.2,-509.13,-376.69,0,0.011526,0,1,0.235,0,-0.235,0
0,0,0,0,0,0,0.00076487,-0.0051173,-2.4995e-37,0.00080294,-4.1322e-19,-1.9768e-21,8.3447,0.0057153,-0.0052263,3.014e-35,0.00087388,-386.88,-1281.4,-504.41,122.92,-6.311e-14,-3.1607e-16,869.07,-1298.2,-504.41,-370.09,0,0.011551,0,1,0.24,0,-0.24,0
0,0,0,0,0,0,0.00077943,-0.0050912,-2.5691e-37,0.00079235,-4.202e-19,-2e-21,8.2237,0.0056948,-0.0051978,3.1714e-35,0.00088606,-379.91,-1272.8,-499.69,121.31,-6.418e-14,-3.1869e-16,866.04,-1289.2,-499.69,-363.48,0,0.011576,0,1,0.245,0,-0.245,0
0,0,0,0,0,0,0.000794,-0.0050652,-2.6387e-37,0.00078175,-4.2719e-19,-2.0233e-21,8.1027,0.0056743,-0.0051694,3.3288e-35,0.00089823,-372.94,-1264.2,-494.97,119.69,-6.5251e-14,-3.2132e-16,863.01,-1280.3,-494.97,-356.87,0,0.011601,0,1,0.25,0,-0.25,0
0,0,0,0,0,0,0.00080856,-0.0050391,-2.7083e-37,0.00077115,-4.3417e-19,-2.0465e-21,7.9817,0.0056538,-0.005141,3.4862e-35,0.00091041,-365.96,-1255.6,-490.24,118.08,-6.6321e-14,-3.2394e-16,859.97,-1271.3,-490.24,-350.27,0,0.011626,0,1,0.255,0,-0.255,0
0,0,0,0,0,0,0.00082312,-0.0050131,-2.7778e-37,0.00076055,-4.4116e-19,-2.0698e-21,7.8608,0.0056333,-0.0051125,3.6436e-35,0.00092259,-358.99,-1246.9,-485.52,116.46,-6.7392e-14,-3.2657e-16,856.94,-1262.3,-485.52,-343.66,0,0.011651,0,1,0.26,0,-0.26,0
0,0,0,0,0,0,0.00083768,-0.004987,-2.8474e-37,0.00074995,-4.4814e-19,-2.093e-21,7.7398,0.0056129,-0.0050841,3.801e-35,0.00093477,-352.02,-1238.3,-480.8,114.85,-6.8463e-14,-3.2919e-16,853.91,-1253.3,-480.8,-337.06,0,0.011676,0,1,0.265,0,-0.265,0
0,0,0,0,0,0,0.00085225,-0.0049609,-2.917e-37,0.00073936,-4.5513e-19,-2.1163e-21,7.6188,0.0055924,-0.0050556,3.9584e-35,0.00094694,-345.04,-1229.7,-476.07,113.23,-6.9533e-14,-3.3182e-16,850.87,-1244.3,-476.07,-330.45,0,0.011701,0,1,0.27,0,-0.27,0
0,0,0,0,0,0,0.00086681,-0.0049349,-2.9865e-37,0.00072876,-4.6211e-19,-2.1395e-21,7.4978,0.0055719,-0.0050272,4.1158e-35,0.00095912,-338.07,-1221.1,-471.35,111.62,-7.0604e-14,-3.3444e-16,847.84,-1235.3,-471.35,-323.84,0,0.011727,0,1,0.275,0,-0.275,0
0,0,0,0,0,0,0.00088137,-0.0049088,-3.0561e-37,0.00071816,-4.6909e-19,-2.1628e-21,7.3768,0.0055514,-0.0049988,4.2732e-35,0.0009713,-331.1,-1212.5,-466.63,110.01,-7.1674e-14,-3.3707e-16,844.8,-1226.3,-466.63,-317.24,0,0.011752,0,1,0.28,0,-0.28,0
0,0,0,0,0,0,0.00089593,-0.0048828,-3.1257e-37,0.00070756,-4.7608e-19,-2.186e-21,7.2558,0.0055309,-0.0049703,4.4306e-35,0.00098347,-324.12,-1203.8,-461.9,108.39,-7.2745e-14,-3.3969e-16,841.77,-1217.3,-461.9,-310.63,0,0.011777,0,1,0.285,0,-0.285,0
0,0,0,0,0,0,0.00091049,-0.0048567,-3.1952e-37,0.00069696,-4.8306e-19,-2.2093e-21,7.1348,0.0055104,-0.0049419,4.588e-35,0.00099565,-317.15,-1195.2,-457.18,106.78,-7.3816e-14,-3.4232e-16,838.74,-1208.4,-457.18,-304.02,0,0.011802,0,1,0.29,0,-0.29,0
0,0,0,0,0,0,0.00092506,-0.0048307,-3.2648e-37,0.00068637,-4.9005e-19,-2.2325e-21,7.0138,0.0054899,-0.0049135,4.7453e-35,0.0010078,-310.18,-1186.6,-452.46,105.16,-7.4886e-14,-3.4494e-16,835.7,-1199.4,-452.46,-297.42,0,0.011827,0,1,0.295,0,-0.295,0
0,0,0,0,0,0,0.00093962,-0.0048046,-3.3344e-37,0.00067577,-4.9703e-19,-2.2558e-21,6.8928,0.0054694,-0.004885,4.9027e-35,0.00102,-303.2,-1178,-447.74,103.55,-7.5957e-14,-3.4757e-16,832.67,-1190.4,-447.74,-290.81,0,0.011852,0,1,0.3,0,-0.3,0
0,0,0,0,0,0,0.00095418,-0.0047786,-3.404e-37,0.00066517,-5.0402e-19,-2.279e-21,6.7718,0.0054489,-0.0048566,5.0601e-35,0.0010322,-296.23,-1169.4,-443.01,101.93,-7.7028e-14,-3.5019e-16,829.64,-1181.4,-443.01,-284.21,0,0.011877,0,1,0.305,0,-0.305,0
0,0,0,0,0,0,0.00096874,-0.0047525,-3.4735e-37,0.00065457,-5.11e-19,-2.3023e-21,6.6508,0.0054284,-0.0048282,5.2175e-35,0.0010444,-289.26,-1160.7,-438.29,100.32,-7.8098e-14,-3.5282e-16,826.6,-1172.4,-438.29,-277.6,0,0.011902,0,1,0.31,0,-0.31,0
0,0,0,0,0,0,0.00098331,-0.0047265,-3.5431e-37,0.00064397,-5.1799e-19,-2.3255e-21,6.5298,0.0054079,-0.0047997,5.3749e-35,0.0010565,-282.29,-1152.1,-433.57,98.705,-7.9169e-14,-3.5544e-16,823.57,-1163.4,-433.57,-270.99,0,0.011927,0,1,0.315,0,-0.315,0
0,0,0,0,0,0,0.00099787,-0.0047004,-3.6127e-37,0.00063338,-5.2497e-19,-2.3488e-21,6.4088,0.0053875,-0.0047713,5.5323e-35,0.0010687,-275.31,-1143.5,-428.84,97.091,-8.0239e-14,-3.5807e-16,820.54,-1154.4,-428.84,-264.39,0,0.011952,0,1,0.32,0,-0.32,0
0,0,0,0,0,0,0.0010124,-0.0046744,-3.6822e-37,0.00062278,-5.3196e-19,-2.372e-21,6.2879,0.005367,-0.0047428,5.6897e-35,0.0010809,-268.34,-1134.9,-424.12,95.476,-8.131e-14,-3.6069e-16,817.5,-1145.4,-424.12,-257.78,0,0.011977,0,1,0.325,0,-0.325,0
0,0,0,0,0,0,0.001027,-0.0046483,-3.7518e-37,0.00061218,-5.3894e-19,-2.3953e-21,6.1669,0.0053465,-0.0047144,5.8471e-35,0.0010931,-261.37,-1126.3,-419.4,93.862,-8.2381e-14,-3.6332e-16,814.47,-1136.5,-419.4,-251.17,0,0.012002,0,1,0.33,0,-0.33,0
0,0,0,0,0,0,0.0010416,-0.0046223,-3.8214e-37,0.00060158,-5.4593e-19,-2.4185e-21,6.0459,0.005326,-0.004686,6.0045e-35,0.0011052,-254.39,-1117.6,-414.67,92.247,-8.3451e-14,-3.6594e-16,811.44,-1127.5,-414.67,-244.57,0,0.012028,0,1,0.335,0,-0.335,0
0,0,0,0,0,0,0.0010561,-0.0045962,-3.891e-37,0.00059098,-5.5291e-19,-2.4418e-21,5.9249,0.0053055,-0.0046575,6.1619e-35,0.0011174,-247.42,-1109,-409.95,90.633,-8.4522e-14,-3.6857e-16,808.4,-1118.5,-409.95,-237.96,0,0.012053,0,1,0.34,0,-0.34,0
0,0,0,0,0,0,0.0010631,-0.004569,-3.343e-37,0.00058218,-5.5999e-19,-2.4777e-21,5.8195,0.0052802,-0.0046286,6.3936e-35,0.0011227,-242.38,-1101,-405.98,89.289,-8.5608e-14,-3.7377e-16,804.63,-1110.2,-405.98,-233.18,0,0.012076,0,1,0.345,0,-0.345,0
0,0,0,0,0,0,0.0010622,-0.0045406,-2.1586e-37,0.00057521,-5.6717e-19,-2.5268e-21,5.7302,0.0052501,-0.0045992,6.7018e-35,0.0011207,-239.32,-1093.5,-402.79,88.223,-8.6709e-14,-3.8162e-16,800.08,-1102.5,-402.79,-230.28,0,0.012097,0,1,0.35,0,-0.35,0
0,0,0,0,0,0,0.0010612,-0.0045122,-9.7414e-38,0.00056825,-5.7436e-19,-2.5758e-21,5.6408,0.00522,-0.0045697,7.01e-35,0.0011188,-236.26,-1086,-399.59,87.157,-8.781e-14,-3.8948e-16,795.54,-1094.9,-399.59,-227.39,0,0.012117,0,1,0.355,0,-0.355,0
0,0,0,0,0,0,0.0010603,-0.0044838,2.1032e-38,0.00056129,-5.8154e-19,-2.6248e-21,5.5515,0.0051898,-0.0045403,7.3183e-35,0.0011169,-233.21,-1078.6,-396.4,86.092,-8.8911e-14,-3.9733e-16,790.99,-1087.3,-396.4,-224.49,0,0.012138,0,1,0.36,0,-0.36,0
0,0,0,0,0,0,0.0010594,-0.0044554,1.3948e-37,0.00055433,-5.8872e-19,-2.6739e-21,5.4622,0.0051597,-0.0045109,7.6265e-35,0.0011149,-230.15,-1071.1,-393.21,85.026,-9.0012e-14,-4.0519e-16,786.45,-1079.6,-393.21,-221.59,0,0.012159,0,1,0.365,0,-0.365,0
0,0,0,0,0,0,0.0010585,-0.004427,2.5792e-37,0.00054736,-5.959e-19,-2.7229e-21,5.3729,0.0051295,-0.0044814,7.9348e-35,0.001113,-227.1,-1063.6,-390.01,83.96,-9.1114e-14,-4.1304e-16,781.91,-1072,-390.01,-218.69,0,0.01218,0,1,0.37,0,-0.37,0
0,0,0,0,0,0,0.0010576,-0.0043985,3.7637e-37,0.0005404,-6.0308e-19,-2.7719e-21,5.2835,0.0050994,-0.004452,8.243e-35,0.0011111,-224.04,-1056.1,-386.82,82.895,-9.2215e-14,-4.209e-16,777.36,-1064.4,-386.82,-215.79,0,0.012201,0,1,0.375,0,-0.375,0
0,0,0,0,0,0,0.0010567,-0.0043701,4.9481e-37,0.00053344,-6.1026e-19,-2.821e-21,5.1942,0.0050693,-0.0044226,8.5513e-35,0.0011091,-220.98,-1048.7,-383.63,81.829,-9.3316e-14,-4.2875e-16,772.82,-1056.8,-383.63,-212.89,0,0.012222,0,1,0.38,0,-0.38,0
0,0,0,0,0,0,0.0010558,-0.0043417,6.1326e-37,0.00052647,-6.1745e-19,-2.87e-21,5.1049,0.0050391,-0.0043931,8.8595e-35,0.0011072,-217.93,-1041.2,-380.43,80.763,-9.4417e-14,-4.3661e-16,768.28,-1049.1,-380.43,-210,0,0.012242,0,1,0.385,0,-0.385,0
0,0,0,0,0,0,0.0010549,-0.0043133,7.317e-37,0.00051951,-6.2463e-19,-2.919e-21,5.0156,0.005009,-0.0043637,9.1678e-35,0.0011053,-214.87,-1033.7,-377.24,79.697,-9.5518e-14,-4.4446e-16,763.73,-1041.5,-377.24,-207.1,0,0.012263,0,1,0.39,0,-0.39,0
0,0,0,0,0,0,0.001054,-0.0042849,8.5015e-37,0.00051255,-6.3181e-19,-2.9681e-21,4.9262,0.0049788,-0.0043343,9.476e-35,0.0011033,-211.82,-1026.3,-374.05,78.632,-9.662e-14,-4.5232e-16,759.19,-1033.9,-374.05,-204.2,0,0.012284,0,1,0.395,0,-0.395,0
0,0,0,0,0,0,0.0010531,-0.0042565,9.6859e-37,0.00050559,-6.3899e-19,-3.0171e-21,4.8369,0.0049487,-0.0043048,9.7843e-35,0.0011014,-208.76,-1018.8,-370.85,77.566,-9.7721e-14,-4.6017e-16,754.65,-1026.2,-370.85,-201.3,0,0.012305,0,1,0.4,0,-0.4,0
0,0,0,0,0,0,0.0010522,-0.0042281,1.087e-36,0.00049862,-6.4617e-19,-3.0662e-21,4.7476,0.0049186,-0.0042754,1.0093e-34,0.0010995,-205.7,-1011.3,-367.66,76.5,-9.8822e-14,-4.6803e-16,750.1,-1018.6,-367.66,-198.4,0,0.012326,0,1,0.405,0,-0.405,0
0,0,0,0,0,0,0.0010513,-0.0041997,1.2055e-36,0.00049166,-6.5335e-19,-3.1152e-21,4.6583,0.0048884,-0.004246,1.0401e-34,0.0010976,-202.65,-1003.8,-364.46,75.435,-9.9923e-14,-4.7588e-16,745.56,-1011,-364.46,-195.5,0,0.012347,0,1,0.41,0,-0.41,0
0,0,0,0,0,0,0.0010503,-0.0041712,1.3239e-36,0.0004847,-6.6054e-19,-3.1642e-21,4.5689,0.0048583,-0.0042165,1.0709e-34,0.0010956,-199.59,-996.37,-361.27,74.369,-1.0102e-13,-4.8374e-16,741.01,-1003.4,-361.27,-192.61,0,0.012368,0,1,0.415,0,-0.415,0
0,0,0,0,0,0,0.0010494,-0.0041428,1.4424e-36,0.00047774,-6.6772e-19,-3.2133e-21,4.4796,0.0048282,-0.0041871,1.1017e-34,0.0010937,-196.54,-988.9,-358.08,73.303,-1.0213e-13,-4.9159e-16,736.47,-995.73,-358.08,-189.71,0,0.012388,0,1,0.42,0,-0.42,0
0,0,0,0,0,0,0.0010485,-0.0041144,1.5608e-36,0.00047077,-6.749e-19,-3.2623e-21,4.3903,0.004798,-0.0041577,1.1326e-34,0.0010918,-193.48,-981.43,-354.88,72.237,-1.0323e-13,-4.9945e-16,731.93,-988.1,-354.88,-186.81,0,0.012409,0,1,0.425,0,-0.425,0
0,0,0,0,0,0,0.0010476,-0.004086,1.6793e-36,0.00046381,-6.8208e-19,-3.3113e-21,4.301,0.0047679,-0.0041282,1.1634e-34,0.0010898,-190.42,-973.95,-351.69,71.172,-1.0433e-13,-5.073e-16,727.38,-980.47,-351.69,-183.91,0,0.01243,0,1,0.43,0,-0.43,0
0,0,0,0,0,0,0.0010467,-0.0040576,1.7977e-36,0.00045685,-6.8926e-19,-3.3604e-21,4.2116,0.0047377,-0.0040988,1.1942e-34,0.0010879,-187.37,-966.48,-348.5,70.106,-1.0543e-13,-5.1515e-16,722.84,-972.84,-348.5,-181.01,0,0.012451,0,1,0.435,0,-0.435,0
0,0,0,0,0,0,0.0010458,-0.0040292,1.9162e-36,0.00044988,-6.9644e-19,-3.4094e-21,4.1223,0.0047076,-0.0040694,1.225e-34,0.001086,-184.31,-959.01,-345.3,69.04,-1.0653e-13,-5.2301e-16,718.3,-965.21,-345.3,-178.12,0,0.012472,0,1,0.44,0,-0.44,0
0,0,0,0,0,0,0.0010449,-0.0040008,2.0346e-36,0.00044292,-7.0363e-19,-3.4584e-21,4.033,0.0046775,-0.0040399,1.2559e-34,0.001084,-181.26,-951.54,-342.11,67.975,-1.0763e-13,-5.3086e-16,713.75,-957.58,-342.11,-175.22,0,0.012493,0,1,0.445,0,-0.445,0
0,0,0,0,0,0,0.001044,-0.0039724,2.153e-36,0.00043596,-7.1081e-19,-3.5075e-21,3.9437,0.0046473,-0.0040105,1.2867e-34,0.0010821,-178.2,-944.07,-338.92,66.909,-1.0873e-13,-5.3872e-16,709.21,-949.95,-338.92,-172.32,0,0.012514,0,1,0.45,0,-0.45,0
0,0,0,0,0,0,0.0010431,-0.003944,2.2715e-36,0.000429,-7.1799e-19,-3.5565e-21,3.8543,0.0046172,-0.003981,1.3175e-34,0.0010802,-175.14,-936.6,-335.72,65.843,-1.0983e-13,-5.4657e-16,704.67,-942.32,-335.72,-169.42,0,0.012534,0,1,0.455,0,-0.455,0
0,0,0,0,0,0,0.0010422,-0.0039155,2.3899e-36,0.00042203,-7.2517e-19,-3.6055e-21,3.765,0.004587,-0.0039516,1.3483e-34,0.0010783,-172.09,-929.13,-332.53,64.778,-1.1094e-13,-5.5443e-16,700.12,-934.69,-332.53,-166.52,0,0.012555,0,1,0.46,0,-0.46,0
0,0,0,0,0,0,0.0010413,-0.0038871,2.5084e-36,0.00041507,-7.3235e-19,-3.6546e-21,3.6757,0.0045569,-0.0039222,1.3792e-34,0.0010763,-169.03,-921.65,-329.33,63.712,-1.1204e-13,-5.6228e-16,695.58,-927.06,-329.33,-163.62,0,0.012576,0,1,0.465,0,-0.465,0
0,0,0,0,0,0,0.0010404,-0.0038587,2.6268e-36,0.00040811,-7.3953e-19,-3.7036e-21,3.5864,0.0045268,-0.0038927,1.41e-34,0.0010744,-165.98,-914.18,-326.14,62.646,-1.1314e-13,-5.7014e-16,691.03,-919.43,-326.14,-160.73,0,0.012597,0,1,0.47,0,-0.47,0
0,0,0,0,0,0,0.0010395,-0.0038303,2.7453e-36,0.00040115,-7.4672e-19,-3.7526e-21,3.497,0.0044966,-0.0038633,1.4408e-34,0.0010725,-162.92,-906.71,-322.95,61.58,-1.1424e-13,-5.7799e-16,686.49,-911.8,-322.95,-157.83,0,0.012618,0,1,0.475,0,-0.475,0
0,0,0,0,0,0,0.0010385,-0.0038019,2.8637e-36,0.00039418,-7.539e-19,-3.8017e-21,3.4077,0.0044665,-0.0038339,1.4716e-34,0.0010705,-159.87,-899.24,-319.75,60.515,-1.1534e-13,-5.8585e-16,681.95,-904.17,-319.75,-154.93,0,0.012639,0,1,0.48,0,-0.48,0
0,0,0,0,0,0,0.0010376,-0.0037735,2.9806e-36,0.00038724,-7.6101e-19,-3.8496e-21,3.3189,0.0044364,-0.0038045,1.5022e-34,0.0010686,-156.82,-891.78,-316.57,59.452,-1.1643e-13,-5.9354e-16,677.41,-896.56,-316.57,-152.04,0,0.01266,0,1,0.485,0,-0.485,0
0,0,0,0,0,0,0.0010332,-0.0037512,2.8716e-36,0.00038313,-7.5821e-19,-3.7403e-21,3.3088,0.0044108,-0.0037817,1.5e-34,0.0010637,-155.42,-886.33,-314.49,58.822,-1.1601e-13,-5.7681e-16,673.54,-891.04,-314.49,-150.72,0,0.012676,0,1,0.49,0,-0.49,0
0,0,0,0,0,0,0.0010288,-0.0037289,2.7625e-36,0.00037902,-7.554e-19,-3.6311e-21,3.2987,0.0043853,-0.0037589,1.4979e-34,0.0010588,-154.03,-880.88,-312.41,58.191,-1.1558e-13,-5.6009e-16,669.67,-885.51,-312.41,-149.39,0,0.012693,0,1,0.495,0,-0.495,0
0,0,0,0,0,0,0.0010244,-0.0037066,2.6534e-36,0.00037491,-7.5259e-19,-3.5218e-21,3.2886,0.0043598,-0.0037362,1.4957e-34,0.001054,-152.63,-875.42,-310.34,57.561,-1.1515e-13,-5.4337e-16,665.8,-879.99,-310.34,-148.06,0,0.01271,0,1,0.5,0,-0.5,0
0,0,0,0,0,0,0.00102,-0.0036842,2.5444e-36,0.0003708,-7.4978e-19,-3.4125e-21,3.2785,0.0043343,-0.0037134,1.4935e-34,0.0010491,-151.23,-869.97,-308.26,56.93,-1.1473e-13,-5.2665e-16,661.93,-874.47,-308.26,-146.73,0,0.012727,0,1,0.505,0,-0.505,0
0,0,0,0,0,0,0.0010155,-0.0036619,2.4353e-36,0.00036669,-7.4698e-19,-3.3032e-21,3.2684,0.0043087,-0.0036906,1.4913e-34,0.0010442,-149.83,-864.52,-306.18,56.3,-1.143e-13,-5.0992e-16,658.05,-868.95,-306.18,-145.41,0,0.012744,0,1,0.51,0,-0.51,0
0,0,0,0,0,0,0.0010111,-0.0036396,2.3263e-36,0.00036258,-7.4417e-19,-3.194e-21,3.2583,0.0042832,-0.0036678,1.4892e-34,0.0010394,-148.44,-859.07,-304.11,55.67,-1.1388e-13,-4.932e-16,654.18,-863.42,-304.11,-144.08,0,0.012761,0,1,0.515,0,-0.515,0
0,0,0,0,0,0,0.0010067,-0.0036173,2.2172e-36,0.00035846,-7.4136e-19,-3.0847e-21,3.2482,0.0042577,-0.0036451,1.487e-34,0.0010345,-147.04,-853.61,-302.03,55.039,-1.1345e-13,-4.7648e-16,650.31,-857.9,-302.03,-142.75,0,0.012778,0,1,0.52,0,-0.52,0
0,0,0,0,0,0,0.0010023,-0.003595,2.1082e-36,0.00035435,-7.3856e-19,-2.9754e-21,3.2381,0.0042322,-0.0036223,1.4848e-34,0.0010296,-145.64,-848.16,-299.95,54.409,-1.1303e-13,-4.5976e-16,646.44,-852.38,-299.95,-141.42,0,0.012795,0,1,0.525,0,-0.525,0
0,0,0,0,0,0,0.0009979,-0.0035726,1.9991e-36,0.00035024,-7.3575e-19,-2.8661e-21,3.228,0.0042066,-0.0035995,1.4826e-34,0.0010248,-144.24,-842.71,-297.88,53.778,-1.126e-13,-4.4303e-16,642.57,-846.86,-297.88,-140.1,0,0.012812,0,1,0.53,0,-0.53,0
0,0,0,0,0,0,0.00099349,-0.0035503,1.89e-36,0.00034613,-7.3294e-19,-2.7569e-21,3.2179,0.0041811,-0.0035767,1.4804e-34,0.0010199,-142.85,-837.26,-295.8,53.148,-1.1217e-13,-4.2631e-16,638.7,-841.33,-295.8,-138.77,0,0.012829,0,1,0.535,0,-0.535,0
0,0,0,0,0,0,0.00098908,-0.003528,1.781e-36,0.00034202,-7.3014e-19,-2.6476e-21,3.2078,0.0041556,-0.003554,1.4783e-34,0.001015,-141.45,-831.8,-293.72,52.518,-1.1175e-13,-4.0959e-16,634.83,-835.81,-293.72,-137.44,0,0.012846,0,1,0.54,0,-0.54,0
0,0,0,0,0,0,0.00098466,-0.0035057,1.6719e-36,0.00033791,-7.2733e-19,-2.5383e-21,3.1977,0.00413,-0.0035312,1.4761e-34,0.0010102,-140.05,-826.35,-291.65,51.887,-1.1132e-13,-3.9287e-16,630.96,-830.29,-291.65,-136.11,0,0.012863,0,1,0.545,0,-0.545,0
0,0,0,0,0,0,0.00098025,-0.0034833,1.5629e-36,0.0003338,-7.2452e-19,-2.429e-21,3.1876,0.0041045,-0.0035084,1.4739e-34,0.0010053,-138.65,-820.9,-289.57,51.257,-1.109e-13,-3.7615e-16,627.09,-824.77,-289.57,-134.79,0,0.01288,0,1,0.55,0,-0.55,0
0,0,0,0,0,0,0.00097584,-0.003461,1.4538e-36,0.00032969,-7.2172e-19,-2.3198e-21,3.1775,0.004079,-0.0034856,1.4717e-34,0.0010004,-137.26,-815.45,-287.49,50.626,-1.1047e-13,-3.5942e-16,623.22,-819.24,-287.49,-133.46,0,0.012897,0,1,0.555,0,-0.555,0
0,0,0,0,0,0,0.00097143,-0.0034387,1.3448e-36,0.00032558,-7.1891e-19,-2.2105e-21,3.1674,0.0040535,-0.0034629,1.4696e-34,0.00099558,-135.86,-809.99,-285.42,49.996,-1.1005e-13,-3.427e-16,619.35,-813.72,-285.42,-132.13,0,0.012914,0,1,0.56,0,-0.56,0
0,0,0,0,0,0,0.00096701,-0.0034164,1.2357e-36,0.00032147,-7.161e-19,-2.1012e-21,3.1573,0.0040279,-0.0034401,1.4674e-34,0.00099072,-134.46,-804.54,-283.34,49.366,-1.0962e-13,-3.2598e-16,615.48,-808.2,-283.34,-130.8,0,0.012931,0,1,0.565,0,-0.565,0
0,0,0,0,0,0,0.0009626,-0.0033941,1.1266e-36,0.00031736,-7.133e-19,-1.9919e-21,3.1472,0.0040024,-0.0034173,1.4652e-34,0.00098585,-133.06,-799.09,-281.26,48.735,-1.092e-13,-3.0926e-16,611.61,-802.68,-281.26,-129.48,0,0.012948,0,1,0.57,0,-0.57,0
0,0,0,0,0,0,0.00095819,-0.0033717,1.0176e-36,0.00031325,-7.1049e-19,-1.8826e-21,3.1371,0.0039769,-0.0033945,1.463e-34,0.00098098,-131.67,-793.64,-279.19,48.105,-1.0877e-13,-2.9253e-16,607.73,-797.15,-279.19,-128.15,0,0.012965,0,1,0.575,0,-0.575,0
0,0,0,0,0,0,0.00095378,-0.0033494,9.0852e-37,0.00030914,-7.0768e-19,-1.7734e-21,3.127,0.0039514,-0.0033718,1.4608e-34,0.00097612,-130.27,-788.18,-277.11,47.474,-1.0834e-13,-2.7581e-16,603.86,-791.63,-277.11,-126.82,0,0.012982,0,1,0.58,0,-0.58,0
0,0,0,0,0,0,0.00094937,-0.0033271,7.9947e-37,0.00030503,-7.0488e-19,-1.6641e-21,3.1169,0.0039258,-0.003349,1.4587e-34,0.00097125,-128.87,-782.73,-275.03,46.844,-1.0792e-13,-2.5909e-16,599.99,-786.11,-275.03,-125.5,0,0.012999,0,1,0.585,0,-0.585,0
0,0,0,0,0,0,0.00094495,-0.0033048,6.9041e-37,0.00030092,-7.0207e-19,-1.5548e-21,3.1068,0.0039003,-0.0033262,1.4565e-34,0.00096638,-127.47,-777.28,-272.96,46.213,-1.0749e-13,-2.4237e-16,596.12,-780.59,-272.96,-124.17,0,0.013016,0,1,0.59,0,-0.59,0
0,0,0,0,0,0,0.00094054,-0.0032825,5.8135e-37,0.0002968,-6.9926e-19,-1.4455e-21,3.0967,0.0038748,-0.0033034,1.4543e-34,0.00096152,-126.08,-771.83,-270.88,45.583,-1.0707e-13,-2.2565e-16,592.25,-775.06,-270.88,-122.84,0,0.013033,0,1,0.595,0,-0.595,0
0,0,0,0,0,0,0.00093613,-0.0032601,4.7229e-37,0.00029269,-6.9646e-19,-1.3363e-21,3.0866,0.0038492,-0.0032807,1.4521e-34,0.00095665,-124.68,-766.37,-268.8,44.953,-1.0664e-13,-2.0892e-16,588.38,-769.54,-268.8,-121.51,0,0.01305,0,1,0.6,0,-0.6,0
0,0,0,0,0,0,0.00093172,-0.0032378,3.6324e-37,0.00028858,-6.9365e-19,-1.227e-21,3.0765,0.0038237,-0.0032579,1.45e-34,0.00095179,-123.28,-760.92,-266.72,44.322,-1.0622e-13,-1.922e-16,584.51,-764.02,-266.72,-120.19,0,0.013067,0,1,0.605,0,-0.605,0
0,0,0,0,0,0,0.0009273,-0.0032155,2.5418e-37,0.00028447,-6.9084e-19,-1.1177e-21,3.0664,0.0037982,-0.0032351,1.4478e-34,0.00094692,-121.88,-755.47,-264.65,43.692,-1.0579e-13,-1.7548e-16,580.64,-758.5,-264.65,-118.86,0,0.013083,0,1,0.61,0,-0.61,0
0,0,0,0,0,0,0.00092289,-0.0031932,1.4512e-37,0.00028036,-6.8804e-19,-1.0084e-21,3.0563,0.0037727,-0.0032123,1.4456e-34,0.00094205,-120.49,-750.02,-262.57,43.061,-1.0536e-13,-1.5876e-16,576.77,-752.97,-262.57,-117.53,0,0.0131,0,1,0.615,0,-0.615,0
0,0,0,0,0,0,0.00091848,-0.0031709,3.6063e-38,0.00027625,-6.8523e-19,-8.9916e-22,3.0462,0.0037471,-0.0031896,1.4434e-34,0.00093719,-119.09,-744.56,-260.49,42.431,-1.0494e-13,-1.4203e-16,572.9,-747.45,-260.49,-116.2,0,0.013117,0,1,0.62,0,-0.62,0
0,0,0,0,0,0,0.00091407,-0.0031485,-7.2995e-38,0.00027214,-6.8242e-19,-7.8989e-22,3.0361,0.0037216,-0.0031668,1.4412e-34,0.00093232,-117.69,-739.11,-258.42,41.801,-1.0451e-13,-1.2531e-16,569.03,-741.93,-258.42,-114.88,0,0.013134,0,1,0.625,0,-0.625,0
0,0,0,0,0,0,0.00090966,-0.0031262,-1.8205e-37,0.00026803,-6.7961e-19,-6.8061e-22,3.026,0.0036961,-0.003144,1.4391e-34,0.00092745,-116.29,-733.66,-256.34,41.17,-1.0409e-13,-1.0859e-16,565.16,-736.41,-256.34,-113.55,0,0.013151,0,1,0.63,0,-0.63,0
0,0,0,0,0,0,0.00090524,-0.0031039,-2.9111e-37,0.00026392,-6.7681e-19,-5.7134e-22,3.0159,0.0036706,-0.0031212,1.4369e-34,0.00092259,-114.9,-728.21,-254.26,40.54,-1.0366e-13,-9.1867e-17,561.29,-730.88,-254.26,-112.22,0,0.013168,0,1,0.635,0,-0.635,0
0,0,0,0,0,0,0.00090083,-0.0030816,-4.0017e-37,0.00025981,-6.74e-19,-4.6206e-22,3.0058,0.003645,-0.0030985,1.4347e-34,0.00091772,-113.5,-722.76,-252.19,39.909,-1.0324e-13,-7.5145e-17,557.42,-725.36,-252.19,-110.89,0,0.013185,0,1,0.64,0,-0.64,0
0,0,0,0,0,0,0.00089641,-0.0030635,-3.7908e-37,0.00025689,-6.3866e-19,-3.9608e-22,2.9961,0.0036239,-0.0030801,1.4881e-34,0.00091301,-112.6,-718.44,-250.61,39.462,-9.7822e-14,-6.4853e-17,554.21,-721,-250.61,-110.04,0,0.0132,0,1,0.645,0,-0.645,0
0,0,0,0,0,0,0.00089197,-0.0030473,-3.0077e-37,0.0002545,-5.8902e-19,-3.4914e-22,2.9866,0.0036048,-0.0030637,1.5659e-34,0.00090837,-111.92,-714.61,-249.24,39.095,-9.0214e-14,-5.7387e-17,551.29,-717.14,-249.24,-109.39,0,0.013214,0,1,0.65,0,-0.65,0
0,0,0,0,0,0,0.00088754,-0.0030311,-2.2247e-37,0.00025211,-5.3938e-19,-3.022e-22,2.9771,0.0035856,-0.0030473,1.6438e-34,0.00090372,-111.24,-710.79,-247.88,38.728,-8.2606e-14,-4.9922e-17,548.38,-713.29,-247.88,-108.74,0,0.013228,0,1,0.655,0,-0.655,0
0,0,0,0,0,0,0.00088311,-0.0030149,-1.4416e-37,0.00024972,-4.8974e-19,-2.5526e-22,2.9676,0.0035664,-0.0030309,1.7216e-34,0.00089908,-110.56,-706.97,-246.52,38.361,-7.4997e-14,-4.2457e-17,545.46,-709.43,-246.52,-108.09,0,0.013242,0,1,0.66,0,-0.66,0
0,0,0,0,0,0,0.00087868,-0.0029987,-6.5852e-38,0.00024733,-4.401e-19,-2.0832e-22,2.9581,0.0035473,-0.0030145,1.7994e-34,0.00089444,-109.88,-703.15,-245.15,37.994,-6.739e-14,-3.4992e-17,542.55,-705.58,-245.15,-107.45,0,0.013255,0,1,0.665,0,-0.665,0
0,0,0,0,0,0,0.00087425,-0.0029825,1.2455e-38,0.00024494,-3.9046e-19,-1.6138e-22,2.9486,0.0035281,-0.002998,1.8773e-34,0.0008898,-109.2,-699.32,-243.79,37.627,-5.9782e-14,-2.7527e-17,539.63,-701.72,-243.79,-106.8,0,0.013269,0,1,0.67,0,-0.67,0
0,0,0,0,0,0,0.00086982,-0.0029663,9.0762e-38,0.00024255,-3.4082e-19,-1.1444e-22,2.9391,0.003509,-0.0029816,1.9551e-34,0.00088516,-108.51,-695.5,-242.42,37.26,-5.2174e-14,-2.0061e-17,536.72,-697.87,-242.42,-106.15,0,0.013283,0,1,0.675,0,-0.675,0
0,0,0,0,0,0,0.00086539,-0.0029501,1.6907e-37,0.00024016,-2.9117e-19,-6.7501e-23,2.9296,0.0034898,-0.0029652,2.0329e-34,0.00088051,-107.83,-691.68,-241.06,36.893,-4.4566e-14,-1.2596e-17,533.8,-694.01,-241.06,-105.5,0,0.013297,0,1,0.68,0,-0.68,0
0,0,0,0,0,0,0.00086095,-0.0029339,2.4738e-37,0.00023777,-2.4153e-19,-2.0561e-23,2.9201,0.0034707,-0.0029488,2.1107e-34,0.00087587,-107.15,-687.86,-239.7,36.526,-3.6958e-14,-5.1311e-18,530.89,-690.16,-239.7,-104.85,0,0.013311,0,1,0.685,0,-0.685,0
0,0,0,0,0,0,0.00085652,-0.0029177,3.2568e-37,0.00023538,-1.9189e-19,2.6379e-23,2.9106,0.0034515,-0.0029324,2.1886e-34,0.00087123,-106.47,-684.04,-238.33,36.16,-2.935e-14,2.3341e-18,527.97,-686.3,-238.33,-104.2,0,0.013325,0,1,0.69,0,-0.69,0
0,0,0,0,0,0,0.00085209,-0.0029015,4.0399e-37,0.00023299,-1.4225e-19,7.3319e-23,2.9011,0.0034323,-0.002916,2.2664e-34,0.00086659,-105.79,-680.21,-236.97,35.793,-2.1742e-14,9.7992e-18,525.06,-682.45,-236.97,-103.55,0,0.013338,0,1,0.695,0,-0.695,0
0,0,0,0,0,0,0.00084766,-0.0028853,4.823e-37,0.0002306,-9.2609e-20,1.2026e-22,2.8916,0.0034132,-0.0028996,2.3442e-34,0.00086194,-105.11,-676.39,-235.61,35.426,-1.4134e-14,1.7264e-17,522.14,-678.59,-235.61,-102.91,0,0.013352,0,1,0.7,0,-0.7,0
0,0,0,0,0,0,0.00084323,-0.0028691,5.6061e-37,0.00022821,-4.2968e-20,1.672e-22,2.8821,0.003394,-0.0028832,2.4221e-34,0.0008573,-104.43,-672.57,-234.24,35.059,-6.5257e-15,2.473e-17,519.23,-674.74,-234.24,-102.26,0,0.013366,0,1,0.705,0,-0.705,0
0,0,0,0,0,0,0.0008388,-0.0028529,6.3891e-37,0.00022582,6.6734e-21,2.1414e-22,2.8726,0.0033749,-0.0028668,2.4999e-34,0.00085266,-103.75,-668.75,-232.88,34.692,1.0823e-15,3.2195e-17,516.31,-670.89,-232.88,-101.61,0,0.01338,0,1,0.71,0,-0.71,0
0,0,0,0,0,0,0.00083437,-0.0028367,7.1722e-37,0.00022343,5.6315e-20,2.6108e-22,2.8631,0.0033557,-0.0028503,2.5777e-34,0.00084802,-103.07,-664.93,-231.52,34.325,8.6903e-15,3.966e-17,513.4,-667.03,-231.52,-100.96,0,0.013394,0,1,0.715,0,-0.715,0
0,0,0,0,0,0,0.00082993,-0.0028205,7.9553e-37,0.00022104,1.0596e-19,3.0802e-22,2.8536,0.0033365,-0.0028339,2.6556e-34,0.00084337,-102.39,-661.1,-230.15,33.958,1.6298e-14,4.7125e-17,510.48,-663.18,-230.15,-100.31,0,0.013408,0,1,0.72,0,-0.72,0
0,0,0,0,0,0,0.0008255,-0.0028043,8.7384e-37,0.00021865,1.556e-19,3.5496e-22,2.8442,0.0033174,-0.0028175,2.7334e-34,0.00083873,-101.7,-657.28,-228.79,33.591,2.3906e-14,5.459e-17,507.57,-659.32,-228.79,-99.664,0,0.013421,0,1,0.725,0,-0.725,0
0,0,0,0,0,0,0.00082107,-0.0027881,9.5214e-37,0.00021626,2.0524e-19,4.019e-22,2.8347,0.0032982,-0.0028011,2.8112e-34,0.00083409,-101.02,-653.46,-227.43,33.224,3.1514e-14,6.2056e-17,504.65,-655.47,-227.43,-99.016,0,0.013435,0,1,0.73,0,-0.73,0
0,0,0,0,0,0,0.00081664,-0.0027719,1.0305e-36,0.00021387,2.5488e-19,4.4884e-22,2.8252,0.0032791,-0.0027847,2.889e-34,0.00082945,-100.34,-649.64,-226.06,32.857,3.9122e-14,6.9521e-17,501.74,-651.61,-226.06,-98.367,0,0.013449,0,1,0.735,0,-0.735,0
0,0,0,0,0,0,0.00081221,-0.0027557,1.1088e-36,0.00021148,3.0452e-19,4.9578e-22,2.8157,0.0032599,-0.0027683,2.9669e-34,0.0008248,-99.661,-645.82,-224.7,32.49,4.673e-14,7.6986e-17,498.82,-647.76,-224.7,-97.719,0,0.013463,0,1,0.74,0,-0.74,0
0,0,0,0,0,0,0.00080778,-0.0027395,1.1871e-36,0.00020909,3.5416e-19,5.4272e-22,2.8062,0.0032407,-0.0027519,3.0447e-34,0.00082016,-98.98,-641.99,-223.33,32.123,5.4338e-14,8.4451e-17,495.91,-643.9,-223.33,-97.071,0,0.013477,0,1,0.745,0,-0.745,0
0,0,0,0,0,0,0.00080335,-0.0027233,1.2654e-36,0.0002067,4.038e-19,5.8966e-22,2.7967,0.0032216,-0.0027355,3.1225e-34,0.00081552,-98.299,-638.17,-221.97,31.756,6.1946e-14,9.1916e-17,492.99,-640.05,-221.97,-96.422,0,0.013491,0,1,0.75,0,-0.75,0
0,0,0,0,0,0,0.00079891,-0.0027071,1.3437e-36,0.00020431,4.5345e-19,6.366e-22,2.7872,0.0032024,-0.002719,3.2004e-34,0.00081088,-97.618,-634.35,-220.61,31.389,6.9554e-14,9.9381e-17,490.08,-636.19,-220.61,-95.774,0,0.013504,0,1,0.755,0,-0.755,0
0,0,0,0,0,0,0.00079448,-0.0026909,1.422e-36,0.00020191,5.0309e-19,6.8354e-22,2.7777,0.0031833,-0.0027026,3.2782e-34,0.00080623,-96.937,-630.53,-219.24,31.022,7.7162e-14,1.0685e-16,487.16,-632.34,-219.24,-95.125,0,0.013518,0,1,0.76,0,-0.76,0
0,0,0,0,0,0,0.00079005,-0.0026747,1.5003e-36,0.00019952,5.5273e-19,7.3048e-22,2.7682,0.0031641,-0.0026862,3.356e-34,0.00080159,-96.256,-626.7,-217.88,30.655,8.477e-14,1.1431e-16,484.25,-628.48,-217.88,-94.477,0,0.013532,0,1,0.765,0,-0.765,0
0,0,0,0,0,0,0.00078562,-0.0026585,1.5786e-36,0.00019713,6.0237e-19,7.7742e-22,2.7587,0.003145,-0.0026698,3.4338e-34,0.00079695,-95.575,-622.88,-216.52,30.288,9.2378e-14,1.2178e-16,481.33,-624.63,-216.52,-93.828,0,0.013546,0,1,0.77,0,-0.77,0
0,0,0,0,0,0,0.00078119,-0.0026423,1.6569e-36,0.00019474,6.5201e-19,8.2436e-22,2.7492,0.0031258,-0.0026534,3.5117e-34,0.00079231,-94.894,-619.06,-215.15,29.922,9.9986e-14,1.2924e-16,478.42,-620.77,-215.15,-93.18,0,0.01356,0,1,0.775,0,-0.775,0
0,0,0,0,0,0,0.00077676,-0.0026261,1.7352e-36,0.00019235,7.0165e-19,8.713e-22,2.7397,0.0031066,-0.002637,3.5895e-34,0.00078766,-94.213,-615.24,-213.79,29.555,1.0759e-13,1.3671e-16,475.5,-616.92,-213.79,-92.532,0,0.013574,0,1,0.78,0,-0.78,0
0,0,0,0,0,0,0.00077233,-0.0026099,1.8135e-36,0.00018996,7.5129e-19,9.1824e-22,2.7302,0.0030875,-0.0026206,3.6673e-34,0.00078302,-93.532,-611.42,-212.43,29.188,1.152e-13,1.4417e-16,472.59,-613.07,-212.43,-91.883,0,0.013587,0,1,0.785,0,-0.785,0
0,0,0,0,0,0,0.00076789,-0.0025937,1.8918e-36,0.00018757,8.0093e-19,9.6518e-22,2.7207,0.0030683,-0.0026042,3.7452e-34,0.00077838,-92.851,-607.59,-211.06,28.821,1.2281e-13,1.5164e-16,469.67,-609.21,-211.06,-91.235,0,0.013601,0,1,0.79,0,-0.79,0
0,0,0,0,0,0,0.00076346,-0.0025775,1.9701e-36,0.00018518,8.5058e-19,1.0121e-21,2.7112,0.0030492,-0.0025877,3.823e-34,0.00077374,-92.17,-603.77,-209.7,28.454,1.3042e-13,1.591e-16,466.75,-605.36,-209.7,-90.586,0,0.013615,0,1,0.795,0,-0.795,0
0,0,0,0,0,0,0.00075903,-0.0025613,2.0484e-36,0.00018279,9.0022e-19,1.0591e-21,2.7017,0.00303,-0.0025713,3.9008e-34,0.00076909,-91.489,-599.95,-208.34,28.087,1.3803e-13,1.6657e-16,463.84,-601.5,-208.34,-89.938,0,0.013629,0,1,0.8,0,-0.8,0
0,0,0,0,0,0,0.0007546,-0.0025451,2.1268e-36,0.0001804,9.4986e-19,1.106e-21,2.6922,0.0030108,-0.0025549,3.9787e-34,0.00076445,-90.808,-596.13,-206.97,27.72,1.4563e-13,1.7403e-16,460.92,-597.65,-206.97,-89.289,0,0.013643,0,1,0.805,0,-0.805,0
0,0,0,0,0,0,0.00075017,-0.0025289,2.2051e-36,0.00017801,9.995e-19,1.1529e-21,2.6827,0.0029917,-0.0025385,4.0565e-34,0.00075981,-90.127,-592.31,-205.61,27.353,1.5324e-13,1.815e-16,458.01,-593.79,-205.61,-88.641,0,0.013657,0,1,0.81,0,-0.81,0
0,0,0,0,0,0,0.00074617,-0.0025152,2.2024e-36,0.00017616,1.0115e-18,1.1151e-21,2.6733,0.0029754,-0.0025247,4.0384e-34,0.00075566,-89.625,-589.11,-204.49,27.069,1.5508e-13,1.7574e-16,455.53,-590.58,-204.49,-88.162,0,0.013669,0,1,0.815,0,-0.815,0
0,0,0,0,0,0,0.00074252,-0.0025036,2.1351e-36,0.00017474,9.9345e-19,1.0094e-21,2.6641,0.0029614,-0.002513,3.9437e-34,0.00075191,-89.266,-586.43,-203.57,26.851,1.5231e-13,1.5941e-16,453.4,-587.87,-203.57,-87.819,0,0.013681,0,1,0.82,0,-0.82,0
0,0,0,0,0,0,0.00073887,-0.002492,2.0677e-36,0.00017333,9.7537e-19,9.0364e-22,2.6548,0.0029475,-0.0025013,3.849e-34,0.00074816,-88.907,-583.74,-202.65,26.634,1.4954e-13,1.4308e-16,451.27,-585.17,-202.65,-87.475,0,0.013692,0,1,0.825,0,-0.825,0
0,0,0,0,0,0,0.00073522,-0.0024804,2.0004e-36,0.00017191,9.573e-19,7.9793e-22,2.6456,0.0029335,-0.0024896,3.7542e-34,0.0007444,-88.547,-581.05,-201.73,26.416,1.4677e-13,1.2675e-16,449.14,-582.47,-201.73,-87.132,0,0.013703,0,1,0.83,0,-0.83,0
0,0,0,0,0,0,0.00073157,-0.0024688,1.933e-36,0.00017049,9.3923e-19,6.9222e-22,2.6363,0.0029195,-0.0024779,3.6595e-34,0.00074065,-88.188,-578.36,-200.8,26.198,1.44e-13,1.1041e-16,447.01,-579.76,-200.8,-86.789,0,0.013715,0,1,0.835,0,-0.835,0
0,0,0,0,0,0,0.00072792,-0.0024572,1.8657e-36,0.00016908,9.2115e-19,5.8651e-22,2.6271,0.0029056,-0.0024662,3.5648e-34,0.0007369,-87.829,-575.68,-199.88,25.981,1.4123e-13,9.4082e-17,444.88,-577.06,-199.88,-86.445,0,0.013726,0,1,0.84,0,-0.84,0
0,0,0,0,0,0,0.00072428,-0.0024456,1.7983e-36,0.00016766,9.0308e-19,4.808e-22,2.6178,0.0028916,-0.0024544,3.47e-34,0.00073314,-87.469,-572.99,-198.96,25.763,1.3846e-13,7.7749e-17,442.75,-574.36,-198.96,-86.102,0,0.013738,0,1,0.845,0,-0.845,0
0,0,0,0,0,0,0.00072063,-0.002434,1.7309e-36,0.00016624,8.8501e-19,3.7509e-22,2.6086,0.0028776,-0.0024427,3.3753e-34,0.00072939,-87.11,-570.3,-198.04,25.545,1.3569e-13,6.1417e-17,440.62,-571.65,-198.04,-85.759,0,0.013749,0,1,0.85,0,-0.85,0
0,0,0,0,0,0,0.00071698,-0.0024224,1.6636e-36,0.00016482,8.6693e-19,2.6938e-22,2.5993,0.0028636,-0.002431,3.2806e-34,0.00072564,-86.751,-567.61,-197.12,25.328,1.3292e-13,4.5085e-17,438.49,-568.95,-197.12,-85.415,0,0.01376,0,1,0.855,0,-0.855,0
0,0,0,0,0,0,0.00071333,-0.0024107,1.5962e-36,0.00016341,8.4886e-19,1.6367e-22,2.59,0.0028497,-0.0024193,3.1858e-34,0.00072189,-86.391,-564.93,-196.2,25.11,1.3015e-13,2.8753e-17,436.36,-566.25,-196.2,-85.072,0,0.013772,0,1,0.86,0,-0.86,0
0,0,0,0,0,0,0.00070968,-0.0023991,1.5289e-36,0.00016199,8.3079e-19,5.7955e-23,2.5808,0.0028357,-0.0024076,3.0911e-34,0.00071813,-86.032,-562.24,-195.28,24.892,1.2738e-13,1.2421e-17,434.23,-563.54,-195.28,-84.728,0,0.013783,0,1,0.865,0,-0.865,0
0,0,0,0,0,0,0.00070603,-0.0023875,1.4615e-36,0.00016057,8.1271e-19,-4.7756e-23,2.5715,0.0028217,-0.0023959,2.9964e-34,0.00071438,-85.673,-559.55,-194.35,24.675,1.2461e-13,-3.9108e-18,432.1,-560.84,-194.35,-84.385,0,0.013795,0,1,0.87,0,-0.87,0
0,0,0,0,0,0,0.00070238,-0.0023759,1.3942e-36,0.00015916,7.9464e-19,-1.5347e-22,2.5623,0.0028078,-0.0023842,2.9016e-34,0.00071063,-85.313,-556.86,-193.43,24.457,1.2184e-13,-2.0243e-17,429.97,-558.14,-193.43,-84.042,0,0.013806,0,1,0.875,0,-0.875,0
0,0,0,0,0,0,0.00069873,-0.0023643,1.3268e-36,0.00015774,7.7657e-19,-2.5918e-22,2.553,0.0027938,-0.0023725,2.8069e-34,0.00070688,-84.954,-554.18,-192.51,24.24,1.1907e-13,-3.6575e-17,427.84,-555.43,-192.51,-83.698,0,0.013818,0,1,0.88,0,-0.88,0
0,0,0,0,0,0,0.00069508,-0.0023527,1.2595e-36,0.00015632,7.5849e-19,-3.6489e-22,2.5438,0.0027798,-0.0023607,2.7122e-34,0.00070312,-84.595,-551.49,-191.59,24.022,1.1629e-13,-5.2907e-17,425.7,-552.73,-191.59,-83.355,0,0.013829,0,1,0.885,0,-0.885,0
0,0,0,0,0,0,0.00069143,-0.0023411,1.1921e-36,0.00015491,7.4042e-19,-4.706e-22,2.5345,0.0027659,-0.002349,2.6174e-34,0.00069937,-84.235,-548.8,-190.67,23.804,1.1352e-13,-6.9239e-17,423.57,-550.03,-190.67,-83.012,0,0.01384,0,1,0.89,0,-0.89,0
0,0,0,0,0,0,0.00068778,-0.0023295,1.1247e-36,0.00015349,7.2235e-19,-5.7631e-22,2.5253,0.0027519,-0.0023373,2.5227e-34,0.00069562,-83.876,-546.11,-189.75,23.587,1.1075e-13,-8.5571e-17,421.44,-547.32,-189.75,-82.668,0,0.013852,0,1,0.895,0,-0.895,0
0,0,0,0,0,0,0.00068413,-0.0023179,1.0574e-36,0.00015207,7.0427e-19,-6.8202e-22,2.516,0.0027379,-0.0023256,2.428e-34,0.00069186,-83.517,-543.43,-188.83,23.369,1.0798e-13,-1.019e-16,419.31,-544.62,-188.83,-82.325,0,0.013863,0,1,0.9,0,-0.9,0
0,0,0,0,0,0,0.00068048,-0.0023063,9.9003e-37,0.00015065,6.862e-19,-7.8773e-22,2.5068,0.0027239,-0.0023139,2.3332e-34,0.00068811,-83.157,-540.74,-187.9,23.151,1.0521e-13,-1.1824e-16,417.18,-541.92,-187.9,-81.982,0,0.013875,0,1,0.905,0,-0.905,0
0,0,0,0,0,0,0.00067683,-0.0022947,9.2267e-37,0.00014924,6.6813e-19,-8.9345e-22,2.4975,0.00271,-0.0023022,2.2385e-34,0.00068436,-82.798,-538.05,-186.98,22.934,1.0244e-13,-1.3457e-16,415.05,-539.21,-186.98,-81.638,0,0.013886,0,1,0.91,0,-0.91,0
0,0,0,0,0,0,0.00067319,-0.0022831,8.5532e-37,0.00014782,6.5005e-19,-9.9916e-22,2.4883,0.002696,-0.0022905,2.1438e-34,0.00068061,-82.439,-535.37,-186.06,22.716,9.9671e-14,-1.509e-16,412.92,-536.51,-186.06,-81.295,0,0.013897,0,1,0.915,0,-0.915,0
0,0,0,0,0,0,0.00066954,-0.0022714,7.8796e-37,0.0001464,6.3198e-19,-1.1049e-21,2.479,0.002682,-0.0022788,2.049e-34,0.00067685,-82.079,-532.68,-185.14,22.498,9.69e-14,-1.6723e-16,410.79,-533.81,-185.14,-80.951,0,0.013909,0,1,0.92,0,-0.92,0
0,0,0,0,0,0,0.00066589,-0.0022598,7.206e-37,0.00014499,6.1391e-19,-1.2106e-21,2.4697,0.0026681,-0.0022671,1.9543e-34,0.0006731,-81.72,-529.99,-184.22,22.281,9.4129e-14,-1.8356e-16,408.66,-531.1,-184.22,-80.608,0,0.01392,0,1,0.925,0,-0.925,0
0,0,0,0,0,0,0.00066224,-0.0022482,6.5325e-37,0.00014357,5.9583e-19,-1.3163e-21,2.4605,0.0026541,-0.0022553,1.8596e-34,0.00066935,-81.361,-527.3,-183.3,22.063,9.1359e-14,-1.999e-16,406.53,-528.4,-183.3,-80.265,0,0.013932,0,1,0.93,0,-0.93,0
0,0,0,0,0,0,0.00065859,-0.0022366,5.8589e-37,0.00014215,5.7776e-19,-1.422e-21,2.4512,0.0026401,-0.0022436,1.7648e-34,0.00066559,-81.001,-524.62,-182.38,21.845,8.8588e-14,-2.1623e-16,404.4,-525.7,-182.38,-79.921,0,0.013943,0,1,0.935,0,-0.935,0
0,0,0,0,0,0,0.00065494,-0.002225,5.1854e-37,0.00014073,5.5969e-19,-1.5277e-21,2.442,0.0026262,-0.0022319,1.6701e-34,0.00066184,-80.642,-521.93,-181.45,21.628,8.5818e-14,-2.3256e-16,402.27,-522.99,-181.45,-79.578,0,0.013954,0,1,0.94,0,-0.94,0
0,0,0,0,0,0,0.00065129,-0.0022134,4.5118e-37,0.00013932,5.4161e-19,-1.6334e-21,2.4327,0.0026122,-0.0022202,1.5754e-34,0.00065809,-80.283,-519.24,-180.53,21.41,8.3047e-14,-2.4889e-16,400.14,-520.29,-180.53,-79.235,0,0.013966,0,1,0.945,0,-0.945,0
0,0,0,0,0,0,0.00064764,-0.0022018,3.8382e-37,0.0001379,5.2354e-19,-1.7391e-21,2.4235,0.0025982,-0.0022085,1.4806e-34,0.00065434,-79.923,-516.55,-179.61,21.192,8.0276e-14,-2.6522e-16,398.01,-517.58,-179.61,-78.891,0,0.013977,0,1,0.95,0,-0.95,0
0,0,0,0,0,0,0.00064399,-0.0021902,3.1647e-37,0.00013648,5.0547e-19,-1.8448e-21,2.4142,0.0025842,-0.0021968,1.3859e-34,0.00065058,-79.564,-513.87,-178.69,20.975,7.7506e-14,-2.8156e-16,395.88,-514.88,-178.69,-78.548,0,0.013989,0,1,0.955,0,-0.955,0
0,0,0,0,0,0,0.00064034,-0.0021786,2.4911e-37,0.00013507,4.8739e-19,-1.9506e-21,2.405,0.0025703,-0.0021851,1.2912e-34,0.00064683,-79.205,-511.18,-177.77,20.757,7.4735e-14,-2.9789e-16,393.75,-512.18,-177.77,-78.205,0,0.014,0,1,0.96,0,-0.96,0
0,0,0,0,0,0,0.00063669,-0.002167,1.8175e-37,0.00013365,4.6932e-19,-2.0563e-21,2.3957,0.0025563,-0.0021734,1.1964e-34,0.00064308,-78.845,-508.49,-176.85,20.539,7.1964e-14,-3.1422e-16,391.62,-509.47,-176.85,-77.861,0,0.014012,0,1,0.965,0,-0.965,0
0,0,0,0,0,0,0.00063304,-0.0021554,1.144e-37,0.00013223,4.5125e-19,-2.162e-21,2.3865,0.0025423,-0.0021616,1.1017e-34,0.00063933,-78.486,-505.8,-175.93,20.322,6.9194e-14,-3.3055e-16,389.49,-506.77,-175.93,-77.518,0,0.014023,0,1,0.97,0,-0.97,0
0,0,0,0,0,0,0.00062939,-0.0021438,4.7042e-38,0.00013081,4.3317e-19,-2.2677e-21,2.3772,0.0025284,-0.0021499,1.007e-34,0.00063557,-78.127,-503.12,-175,20.104,6.6423e-14,-3.4688e-16,387.36,-504.07,-175,-77.174,0,0.014034,0,1,0.975,0,-0.975,0
0,0,0,0,0,0,0.00062574,-0.0021321,-2.0314e-38,0.0001294,4.151e-19,-2.3734e-21,2.3679,0.0025144,-0.0021382,9.1223e-35,0.00063182,-77.767,-500.43,-174.08,19.886,6.3652e-14,-3.6322e-16,385.23,-501.36,-174.08,-76.831,0,0.014046,0,1,0.98,0,-0.98,0
0,0,0,0,0,0,0.0006221,-0.0021205,-8.767e-38,0.00012798,3.9703e-19,-2.4791e-21,2.3587,0.0025004,-0.0021265,8.1749e-35,0.00062807,-77.408,-497.74,-173.16,19.669,6.0882e-14,-3.7955e-16,383.1,-498.66,-173.16,-76.488,0,0.014057,0,1,0.985,0,-0.985,0
0,0,0,0,0,0,0.00061845,-0.0021089,-1.5503e-37,0.00012656,3.7895e-19,-2.5848e-21,2.3494,0.0024865,-0.0021148,7.2276e-35,0.00062431,-77.049,-495.05,-172.24,19.451,5.8111e-14,-3.9588e-16,380.97,-495.96,-172.24,-76.144,0,0.014069,0,1,0.99,0,-0.99,0
0,0,0,0,0,0,0.0006148,-0.0020973,-2.2238e-37,0.00012515,3.6088e-19,-2.6905e-21,2.3402,0.0024725,-0.0021031,6.2803e-35,0.00062056,-76.689,-492.37,-171.32,19.234,5.534e-14,-4.1221e-16,378.84,-493.25,-171.32,-75.801,0,0.01408,0,1,0.995,0,-0.995,0
0,0,0,0,0,0,0.00061163,-0.0020876,-2.319e-37,0.00012405,3.6236e-19,-2.6979e-21,2.3319,0.0024607,-0.0020933,6.5653e-35,0.00061732,-76.419,-490.13,-170.56,19.066,5.5569e-14,-4.1341e-16,377.04,-491.01,-170.56,-75.542,0,0.01409,0,1,1,0,-1,0
0,0,0,0,0,0,0.0006088,-0.0020792,-2.0116e-37,0.00012319,3.7745e-19,-2.6369e-21,2.3243,0.0024505,-0.0020849,7.7082e-35,0.00061444,-76.211,-488.21,-169.92,18.933,5.7886e-14,-4.0406e-16,375.49,-489.07,-169.92,-75.342,0,0.0141,0,1,1.005,0,-1.005,0
0,0,0,0,0,0,0.00060597,-0.0020708,-1.7042e-37,0.00012232,3.9253e-19,-2.5759e-21,2.3166,0.0024403,-0.0020764,8.8512e-35,0.00061155,-76.003,-486.28,-169.27,18.8,6.0203e-14,-3.9472e-16,373.93,-487.14,-169.27,-75.143,0,0.014109,0,1,1.01,0,-1.01,0
0,0,0,0,0,0,0.00060314,-0.0020624,-1.3968e-37,0.00012146,4.0762e-19,-2.5149e-21,2.309,0.0024302,-0.002068,9.9941e-35,0.00060867,-75.795,-484.36,-168.63,18.667,6.252e-14,-3.8538e-16,372.37,-485.21,-168.63,-74.943,0,0.014119,0,1,1.015,0,-1.015,0
0,0,0,0,0,0,0.00060031,-0.002054,-1.0893e-37,0.00012059,4.2271e-19,-2.4539e-21,2.3014,0.00242,-0.0020595,1.1137e-34,0.00060579,-75.587,-482.44,-167.99,18.534,6.4837e-14,-3.7603e-16,370.81,-483.28,-167.99,-74.743,0,0.014128,0,1,1.02,0,-1.02,0
0,0,0,0,0,0,0.00059748,-0.0020456,-7.8193e-38,0.00011973,4.378e-19,-2.3929e-21,2.2937,0.0024098,-0.0020511,1.228e-34,0.0006029,-75.379,-480.51,-167.34,18.401,6.7154e-14,-3.6669e-16,369.26,-481.35,-167.34,-74.543,0,0.014138,0,1,1.025,0,-1.025,0
0,0,0,0,0,0,0.00059465,-0.0020372,-4.7451e-38,0.00011886,4.5289e-19,-2.3319e-21,2.2861,0.0023996,-0.0020426,1.3423e-34,0.00060002,-75.171,-478.59,-166.7,18.268,6.9471e-14,-3.5735e-16,367.7,-479.42,-166.7,-74.343,0,0.014148,0,1,1.03,0,-1.03,0
0,0,0,0,0,0,0.00059182,-0.0020288,-1.671e-38,0.00011799,4.6798e-19,-2.2709e-21,2.2784,0.0023894,-0.0020342,1.4566e-34,0.00059714,-74.962,-476.66,-166.05,18.135,7.1788e-14,-3.48e-16,366.14,-477.48,-166.05,-74.143,0,0.014157,0,1,1.035,0,-1.035,0
0,0,0,0,0,0,0.00058899,-0.0020205,1.4031e-38,0.00011713,4.8306e-19,-2.2099e-21,2.2708,0.0023792,-0.0020257,1.5709e-34,0.00059425,-74.754,-474.74,-165.41,18.002,7.4105e-14,-3.3866e-16,364.59,-475.55,-165.41,-73.943,0,0.014167,0,1,1.04,0,-1.04,0
0,0,0,0,0,0,0.00058616,-0.0020121,4.4773e-38,0.00011626,4.9815e-19,-2.1489e-21,2.2632,0.002369,-0.0020173,1.6852e-34,0.00059137,-74.546,-472.82,-164.77,17.869,7.6422e-14,-3.2932e-16,363.03,-473.62,-164.77,-73.744,0,0.014176,0,1,1.045,0,-1.045,0
0,0,0,0,0,0,0.00058333,-0.0020037,7.5514e-38,0.0001154,5.1324e-19,-2.0879e-21,2.2555,0.0023588,-0.0020088,1.7994e-34,0.00058849,-74.338,-470.89,-164.12,17.736,7.8739e-14,-3.1997e-16,361.47,-471.69,-164.12,-73.544,0,0.014186,0,1,1.05,0,-1.05,0
0,0,0,0,0,0,0.0005805,-0.0019953,1.0626e-37,0.00011453,5.2833e-19,-2.0268e-21,2.2479,0.0023486,-0.0020004,1.9137e-34,0.0005856,-74.13,-468.97,-163.48,17.603,8.1056e-14,-3.1063e-16,359.91,-469.76,-163.48,-73.344,0,0.014195,0,1,1.055,0,-1.055,0
0,0,0,0,0,0,0.00057767,-0.0019869,1.37e-37,0.00011367,5.4342e-19,-1.9658e-21,2.2403,0.0023384,-0.0019919,2.028e-34,0.00058272,-73.922,-467.05,-162.83,17.47,8.3373e-14,-3.0129e-16,358.36,-467.83,-162.83,-73.144,0,0.014205,0,1,1.06,0,-1.06,0
0,0,0,0,0,0,0.00057484,-0.0019785,1.6774e-37,0.0001128,5.5851e-19,-1.9048e-21,2.2326,0.0023282,-0.0019835,2.1423e-34,0.00057984,-73.714,-465.12,-162.19,17.337,8.569e-14,-2.9194e-16,356.8,-465.89,-162.19,-72.944,0,0.014214,0,1,1.065,0,-1.065,0
0,0,0,0,0,0,0.00057201,-0.0019701,1.9848e-37,0.00011193,5.7359e-19,-1.8438e-21,2.225,0.002318,-0.001975,2.2566e-34,0.00057695,-73.506,-463.2,-161.55,17.204,8.8007e-14,-2.826e-16,355.24,-463.96,-161.55,-72.744,0,0.014224,0,1,1.07,0,-1.07,0
0,0,0,0,0,0,0.00056919,-0.0019617,2.2922e-37,0.00011107,5.8868e-19,-1.7828e-21,2.2174,0.0023078,-0.0019666,2.3709e-34,0.00057407,-73.297,-461.28,-160.9,17.071,9.0324e-14,-2.7326e-16,353.69,-462.03,-160.9,-72.545,0,0.014233,0,1,1.075,0,-1.075,0
0,0,0,0,0,0,0.00056636,-0.0019533,2.5996e-37,0.0001102,6.0377e-19,-1.7218e-21,2.2097,0.0022976,-0.0019581,2.4852e-34,0.00057119,-73.089,-459.35,-160.26,16.938,9.2641e-14,-2.6391e-16,352.13,-460.1,-160.26,-72.345,0,0.014243,0,1,1.08,0,-1.08,0
0,0,0,0,0,0,0.00056353,-0.0019449,2.907e-37,0.00010934,6.1886e-19,-1.6608e-21,2.2021,0.0022874,-0.0019497,2.5995e-34,0.0005683,-72.881,-457.43,-159.62,16.805,9.4958e-14,-2.5457e-16,350.57,-458.17,-159.62,-72.145,0,0.014252,0,1,1.085,0,-1.085,0
0,0,0,0,0,0,0.0005607,-0.0019365,3.2145e-37,0.00010847,6.3395e-19,-1.5998e-21,2.1945,0.0022772,-0.0019412,2.7138e-34,0.00056542,-72.673,-455.51,-158.97,16.672,9.7275e-14,-2.4523e-16,349.01,-456.24,-158.97,-71.945,0,0.014262,0,1,1.09,0,-1.09,0
0,0,0,0,0,0,0.00055787,-0.0019281,3.5219e-37,0.00010761,6.4904e-19,-1.5388e-21,2.1868,0.002267,-0.0019328,2.8281e-34,0.00056254,-72.465,-453.58,-158.33,16.539,9.9592e-14,-2.3588e-16,347.46,-454.3,-158.33,-71.745,0,0.014271,0,1,1.095,0,-1.095,0
0,0,0,0,0,0,0.00055504,-0.0019197,3.8293e-37,0.00010674,6.6412e-19,-1.4778e-21,2.1792,0.0022568,-0.0019243,2.9424e-34,0.00055966,-72.257,-451.66,-157.68,16.406,1.0191e-13,-2.2654e-16,345.9,-452.37,-157.68,-71.545,0,0.014281,0,1,1.1,0,-1.1,0
0,0,0,0,0,0,0.00055221,-0.0019113,4.1367e-37,0.00010588,6.7921e-19,-1.4167e-21,2.1716,0.0022466,-0.0019159,3.0567e-34,0.00055677,-72.049,-449.74,-157.04,16.273,1.0423e-13,-2.172e-16,344.34,-450.44,-157.04,-71.345,0,0.014291,0,1,1.105,0,-1.105,0
0,0,0,0,0,0,0.00054938,-0.0019029,4.4441e-37,0.00010501,6.943e-19,-1.3557e-21,2.1639,0.0022364,-0.0019074,3.1709e-34,0.00055389,-71.841,-447.81,-156.4,16.14,1.0654e-13,-2.0785e-16,342.78,-448.51,-156.4,-71.146,0,0.0143,0,1,1.11,0,-1.11,0
0,0,0,0,0,0,0.00054655,-0.0018945,4.7515e-37,0.00010414,7.0939e-19,-1.2947e-21,2.1563,0.0022262,-0.001899,3.2852e-34,0.00055101,-71.633,-445.89,-155.75,16.007,1.0886e-13,-1.9851e-16,341.23,-446.58,-155.75,-70.946,0,0.01431,0,1,1.115,0,-1.115,0
0,0,0,0,0,0,0.00054372,-0.0018861,5.0589e-37,0.00010328,7.2448e-19,-1.2337e-21,2.1487,0.0022161,-0.0018905,3.3995e-34,0.00054812,-71.424,-443.97,-155.11,15.874,1.1118e-13,-1.8917e-16,339.67,-444.65,-155.11,-70.746,0,0.014319,0,1,1.12,0,-1.12,0
0,0,0,0,0,0,0.00054089,-0.0018777,5.3664e-37,0.00010241,7.3957e-19,-1.1727e-21,2.141,0.0022059,-0.0018821,3.5138e-34,0.00054524,-71.216,-442.04,-154.46,15.741,1.1349e-13,-1.7982e-16,338.11,-442.71,-154.46,-70.546,0,0.014329,0,1,1.125,0,-1.125,0
0,0,0,0,0,0,0.00053806,-0.0018694,5.6738e-37,0.00010155,7.5465e-19,-1.1117e-21,2.1334,0.0021957,-0.0018736,3.6281e-34,0.00054236,-71.008,-440.12,-153.82,15.608,1.1581e-13,-1.7048e-16,336.56,-440.78,-153.82,-70.346,0,0.014338,0,1,1.13,0,-1.13,0
0,0,0,0,0,0,0.00053523,-0.001861,5.9812e-37,0.00010068,7.6974e-19,-1.0507e-21,2.1258,0.0021855,-0.0018652,3.7424e-34,0.00053947,-70.8,-438.2,-153.18,15.475,1.1813e-13,-1.6114e-16,335,-438.85,-153.18,-70.146,0,0.014348,0,1,1.135,0,-1.135,0
0,0,0,0,0,0,0.0005324,-0.0018526,6.2886e-37,9.9815e-05,7.8483e-19,-9.8968e-22,2.1181,0.0021753,-0.0018568,3.8567e-34,0.00053659,-70.592,-436.27,-152.53,15.342,1.2044e-13,-1.5179e-16,333.44,-436.92,-152.53,-69.947,0,0.014357,0,1,1.14,0,-1.14,0
0,0,0,0,0,0,0.00052957,-0.0018442,6.596e-37,9.8949e-05,7.9992e-19,-9.2867e-22,2.1105,0.0021651,-0.0018483,3.971e-34,0.00053371,-70.384,-434.35,-151.89,15.209,1.2276e-13,-1.4245e-16,331.88,-434.99,-151.89,-69.747,0,0.014367,0,1,1.145,0,-1.145,0
0,0,0,0,0,0,0.00052674,-0.0018358,6.9034e-37,9.8084e-05,8.1501e-19,-8.6766e-22,2.1029,0.0021549,-0.0018399,4.0853e-34,0.00053082,-70.176,-432.43,-151.24,15.076,1.2508e-13,-1.3311e-16,330.33,-433.06,-151.24,-69.547,0,0.014376,0,1,1.15,0,-1.15,0
0,0,0,0,0,0,0.00052391,-0.0018274,7.2108e-37,9.7218e-05,8.3009e-19,-8.0665e-22,2.0952,0.0021447,-0.0018314,4.1996e-34,0.00052794,-69.968,-430.5,-150.6,14.943,1.274e-13,-1.2376e-16,328.77,-431.12,-150.6,-69.347,0,0.014386,0,1,1.155,0,-1.155,0
0,0,0,0,0,0,0.00052108,-0.001819,7.5183e-37,9.6352e-05,8.4518e-19,-7.4565e-22,2.0876,0.0021345,-0.001823,4.3139e-34,0.00052506,-69.76,-428.58,-149.96,14.809,1.2971e-13,-1.1442e-16,327.21,-429.19,-149.96,-69.147,0,0.014395,0,1,1.16,0,-1.16,0
0,0,0,0,0,0,0.00051825,-0.0018106,7.8257e-37,9.5487e-05,8.6027e-19,-6.8464e-22,2.08,0.0021243,-0.0018145,4.4282e-34,0.00052217,-69.551,-426.66,-149.31,14.676,1.3203e-13,-1.0508e-16,325.66,-427.26,-149.31,-68.947,0,0.014405,0,1,1.165,0,-1.165,0
0,0,0,0,0,0,0.00051542,-0.0018022,8.1331e-37,9.4621e-05,8.7536e-19,-6.2363e-22,2.0723,0.0021141,-0.0018061,4.5424e-34,0.00051929,-69.343,-424.73,-148.67,14.543,1.3435e-13,-9.5732e-17,324.1,-425.33,-148.67,-68.747,0,0.014414,0,1,1.17,0,-1.17,0
0,0,0,0,0,0,0.00051259,-0.0017938,8.4405e-37,9.3755e-05,8.9045e-19,-5.6262e-22,2.0647,0.0021039,-0.0017976,4.6567e-34,0.00051641,-69.135,-422.81,-148.02,14.41,1.3666e-13,-8.6389e-17,322.54,-423.4,-148.02,-68.548,0,0.014424,0,1,1.175,0,-1.175,0
0,0,0,0,0,0,0.00050976,-0.0017854,8.7479e-37,9.289e-05,9.0554e-19,-5.0161e-22,2.0571,0.0020937,-0.0017892,4.771e-34,0.00051352,-68.927,-420.89,-147.38,14.277,1.3898e-13,-7.7045e-17,320.98,-421.47,-147.38,-68.348,0,0.014434,0,1,1.18,0,-1.18,0
0,0,0,0,0,0,0.00050693,-0.001777,9.0553e-37,9.2024e-05,9.2062e-19,-4.406e-22,2.0494,0.0020835,-0.0017807,4.8853e-34,0.00051064,-68.719,-418.96,-146.74,14.144,1.413e-13,-6.7702e-17,319.43,-419.53,-146.74,-68.148,0,0.014443,0,1,1.185,0,-1.185,0
0,0,0,0,0,0,0.0005041,-0.0017686,9.3628e-37,9.1158e-05,9.3571e-19,-3.7959e-22,2.0418,0.0020733,-0.0017723,4.9996e-34,0.00050776,-68.511,-417.04,-146.09,14.011,1.4361e-13,-5.8358e-17,317.87,-417.6,-146.09,-67.948,0,0.014453,0,1,1.19,0,-1.19,0
0,0,0,0,0,0,0.00050127,-0.0017602,9.6702e-37,9.0292e-05,9.508e-19,-3.1858e-22,2.0341,0.0020631,-0.0017638,5.1139e-34,0.00050487,-68.303,-415.12,-145.45,13.878,1.4593e-13,-4.9015e-17,316.31,-415.67,-145.45,-67.748,0,0.014462,0,1,1.195,0,-1.195,0
0,0,0,0,0,0,0.00049898,-0.0017536,9.8244e-37,8.9681e-05,9.136e-19,-3.2e-22,2.0278,0.0020551,-0.0017572,5.2209e-34,0.00050255,-68.154,-413.6,-144.95,13.785,1.4022e-13,-4.9294e-17,315.08,-414.15,-144.95,-67.605,0,0.014471,0,1,1.2,0,-1.2,0
0,0,0,0,0,0,0.00049683,-0.0017474,9.9395e-37,8.9135e-05,8.63e-19,-3.3742e-22,2.0217,0.0020475,-0.001751,5.3259e-34,0.00050037,-68.021,-412.2,-144.48,13.701,1.3245e-13,-5.2039e-17,313.93,-412.74,-144.48,-67.476,0,0.014479,0,1,1.205,0,-1.205,0
0,0,0,0,0,0,0.00049468,-0.0017413,1.0054e-36,8.8589e-05,8.124e-19,-3.5485e-22,2.0157,0.00204,-0.0017448,5.431e-34,0.00049819,-67.887,-410.79,-144.02,13.617,1.2469e-13,-5.4784e-17,312.78,-411.33,-144.02,-67.347,0,0.014487,0,1,1.21,0,-1.21,0
0,0,0,0,0,0,0.00049253,-0.0017351,1.017e-36,8.8043e-05,7.618e-19,-3.7227e-22,2.0096,0.0020325,-0.0017386,5.5361e-34,0.000496,-67.754,-409.38,-143.55,13.533,1.1692e-13,-5.7529e-17,311.63,-409.92,-143.55,-67.218,0,0.014495,0,1,1.215,0,-1.215,0
0,0,0,0,0,0,0.00049037,-0.0017289,1.0285e-36,8.7497e-05,7.112e-19,-3.8969e-22,2.0035,0.002025,-0.0017324,5.6411e-34,0.00049382,-67.621,-407.98,-143.09,13.449,1.0915e-13,-6.0274e-17,310.48,-408.51,-143.09,-67.09,0,0.014503,0,1,1.22,0,-1.22,0
0,0,0,0,0,0,0.00048822,-0.0017228,1.04e-36,8.6951e-05,6.606e-19,-4.0711e-22,1.9975,0.0020174,-0.0017262,5.7462e-34,0.00049164,-67.487,-406.57,-142.62,13.365,1.0139e-13,-6.3019e-17,309.33,-407.1,-142.62,-66.961,0,0.014511,0,1,1.225,0,-1.225,0
0,0,0,0,0,0,0.00048607,-0.0017166,1.0515e-36,8.6405e-05,6.1e-19,-4.2454e-22,1.9914,0.0020099,-0.00172,5.8513e-34,0.00048946,-67.354,-405.16,-142.16,13.281,9.3618e-14,-6.5764e-17,308.18,-405.69,-142.16,-66.832,0,0.014519,0,1,1.23,0,-1.23,0
0,0,0,0,0,0,0.00048392,-0.0017104,1.063e-36,8.5859e-05,5.594e-19,-4.4196e-22,1.9854,0.0020024,-0.0017138,5.9563e-34,0.00048728,-67.221,-403.76,-141.7,13.197,8.5851e-14,-6.8509e-17,307.03,-404.28,-141.7,-66.703,0,0.014527,0,1,1.235,0,-1.235,0
0,0,0,0,0,0,0.00048177,-0.0017042,1.0745e-36,8.5313e-05,5.088e-19,-4.5938e-22,1.9793,0.0019949,-0.0017076,6.0614e-34,0.0004851,-67.087,-402.35,-141.23,13.113,7.8083e-14,-7.1254e-17,305.88,-402.87,-141.23,-66.574,0,0.014535,0,1,1.24,0,-1.24,0
0,0,0,0,0,0,0.00047961,-0.0016981,1.086e-36,8.4767e-05,4.582e-19,-4.768e-22,1.9733,0.0019873,-0.0017014,6.1665e-34,0.00048292,-66.954,-400.95,-140.77,13.029,7.0316e-14,-7.3998e-17,304.72,-401.45,-140.77,-66.445,0,0.014543,0,1,1.245,0,-1.245,0
0,0,0,0,0,0,0.00047746,-0.0016919,1.0975e-36,8.4221e-05,4.076e-19,-4.9423e-22,1.9672,0.0019798,-0.0016952,6.2715e-34,0.00048074,-66.821,-399.54,-140.3,12.946,6.2549e-14,-7.6743e-17,303.57,-400.04,-140.3,-66.316,0,0.014551,0,1,1.25,0,-1.25,0
0,0,0,0,0,0,0.00047531,-0.0016857,1.109e-36,8.3676e-05,3.57e-19,-5.1165e-22,1.9612,0.0019723,-0.001689,6.3766e-34,0.00047855,-66.687,-398.13,-139.84,12.862,5.4782e-14,-7.9488e-17,302.42,-398.63,-139.84,-66.188,0,0.014559,0,1,1.255,0,-1.255,0
0,0,0,0,0,0,0.00047316,-0.0016796,1.1205e-36,8.313e-05,3.064e-19,-5.2907e-22,1.9551,0.0019648,-0.0016828,6.4817e-34,0.00047637,-66.554,-396.73,-139.37,12.778,4.7014e-14,-8.2233e-17,301.27,-397.22,-139.37,-66.059,0,0.014567,0,1,1.26,0,-1.26,0
0,0,0,0,0,0,0.00047101,-0.0016734,1.132e-36,8.2584e-05,2.558e-19,-5.4649e-22,1.9491,0.0019573,-0.0016766,6.5867e-34,0.00047419,-66.421,-395.32,-138.91,12.694,3.9247e-14,-8.4978e-17,300.12,-395.81,-138.91,-65.93,0,0.014575,0,1,1.265,0,-1.265,0
0,0,0,0,0,0,0.00046885,-0.0016672,1.1435e-36,8.2038e-05,2.052e-19,-5.6392e-22,1.943,0.0019497,-0.0016704,6.6918e-34,0.00047201,-66.287,-393.91,-138.44,12.61,3.148e-14,-8.7723e-17,298.97,-394.4,-138.44,-65.801,0,0.014583,0,1,1.27,0,-1.27,0
0,0,0,0,0,0,0.0004667,-0.0016611,1.155e-36,8.1492e-05,1.546e-19,-5.8134e-22,1.9369,0.0019422,-0.0016642,6.7969e-34,0.00046983,-66.154,-392.51,-137.98,12.526,2.3713e-14,-9.0468e-17,297.82,-392.99,-137.98,-65.672,0,0.014592,0,1,1.275,0,-1.275,0
0,0,0,0,0,0,0.00046455,-0.0016549,1.1665e-36,8.0946e-05,1.04e-19,-5.9876e-22,1.9309,0.0019347,-0.001658,6.9019e-34,0.00046765,-66.021,-391.1,-137.51,12.442,1.5946e-14,-9.3213e-17,296.67,-391.58,-137.51,-65.543,0,0.0146,0,1,1.28,0,-1.28,0
0,0,0,0,0,0,0.0004624,-0.0016487,1.178e-36,8.04e-05,5.3395e-20,-6.1619e-22,1.9248,0.0019272,-0.0016518,7.007e-34,0.00046547,-65.887,-389.69,-137.05,12.358,8.1784e-15,-9.5958e-17,295.52,-390.17,-137.05,-65.415,0,0.014608,0,1,1.285,0,-1.285,0
0,0,0,0,0,0,0.00046025,-0.0016425,1.1895e-36,7.9854e-05,2.7948e-21,-6.3361e-22,1.9188,0.0019196,-0.0016456,7.1121e-34,0.00046329,-65.754,-388.29,-136.58,12.274,4.1114e-16,-9.8703e-17,294.37,-388.76,-136.58,-65.286,0,0.014616,0,1,1.29,0,-1.29,0
0,0,0,0,0,0,0.00045809,-0.0016364,1.201e-36,7.9308e-05,-4.7806e-20,-6.5103e-22,1.9127,0.0019121,-0.0016394,7.2171e-34,0.0004611,-65.621,-386.88,-136.12,12.19,-7.3561e-15,-1.0145e-16,293.22,-387.34,-136.12,-65.157,0,0.014624,0,1,1.295,0,-1.295,0
0,0,0,0,0,0,0.00045594,-0.0016302,1.2125e-36,7.8762e-05,-9.8406e-20,-6.6845e-22,1.9067,0.0019046,-0.0016332,7.3222e-34,0.00045892,-65.487,-385.47,-135.65,12.107,-1.5123e-14,-1.0419e-16,292.07,-385.93,-135.65,-65.028,0,0.014632,0,1,1.3,0,-1.3,0
0,0,0,0,0,0,0.00045379,-0.001624,1.224e-36,7.8216e-05,-1.4901e-19,-6.8588e-22,1.9006,0.0018971,-0.001627,7.4273e-34,0.00045674,-65.354,-384.07,-135.19,12.023,-2.2891e-14,-1.0694e-16,290.92,-384.52,-135.19,-64.899,0,0.01464,0,1,1.305,0,-1.305,0
0,0,0,0,0,0,0.00045164,-0.0016179,1.2355e-36,7.767e-05,-1.9961e-19,-7.033e-22,1.8946,0.0018895,-0.0016208,7.5323e-34,0.00045456,-65.221,-382.66,-134.73,11.939,-3.0658e-14,-1.0968e-16,289.77,-383.11,-134.73,-64.77,0,0.014648,0,1,1.31,0,-1.31,0
0,0,0,0,0,0,0.00044949,-0.0016117,1.247e-36,7.7124e-05,-2.5021e-19,-7.2072e-22,1.8885,0.001882,-0.0016146,7.6374e-34,0.00045238,-65.087,-381.25,-134.26,11.855,-3.8425e-14,-1.1243e-16,288.62,-381.7,-134.26,-64.642,0,0.014656,0,1,1.315,0,-1.315,0
0,0,0,0,0,0,0.00044733,-0.0016055,1.2585e-36,7.6578e-05,-3.0081e-19,-7.3814e-22,1.8824,0.0018745,-0.0016084,7.7425e-34,0.0004502,-64.954,-379.85,-133.8,11.771,-4.6192e-14,-1.1517e-16,287.47,-380.29,-133.8,-64.513,0,0.014664,0,1,1.32,0,-1.32,0
0,0,0,0,0,0,0.00044518,-0.0015994,1.27e-36,7.6032e-05,-3.5141e-19,-7.5557e-22,1.8764,0.001867,-0.0016022,7.8476e-34,0.00044802,-64.821,-378.44,-133.33,11.687,-5.396e-14,-1.1792e-16,286.32,-378.88,-133.33,-64.384,0,0.014672,0,1,1.325,0,-1.325,0
0,0,0,0,0,0,0.00044303,-0.0015932,1.2815e-36,7.5486e-05,-4.0201e-19,-7.7299e-22,1.8703,0.0018595,-0.001596,7.9526e-34,0.00044584,-64.687,-377.04,-132.87,11.603,-6.1727e-14,-1.2066e-16,285.17,-377.47,-132.87,-64.255,0,0.01468,0,1,1.33,0,-1.33,0
0,0,0,0,0,0,0.00044088,-0.001587,1.293e-36,7.494e-05,-4.5261e-19,-7.9041e-22,1.8643,0.0018519,-0.0015898,8.0577e-34,0.00044365,-64.554,-375.63,-132.4,11.519,-6.9494e-14,-1.2341e-16,284.02,-376.06,-132.4,-64.126,0,0.014688,0,1,1.335,0,-1.335,0
0,0,0,0,0,0,0.00043873,-0.0015809,1.3045e-36,7.4394e-05,-5.0321e-19,-8.0783e-22,1.8582,0.0018444,-0.0015836,8.1628e-34,0.00044147,-64.421,-374.22,-131.94,11.435,-7.7261e-14,-1.2615e-16,282.87,-374.65,-131.94,-63.997,0,0.014696,0,1,1.34,0,-1.34,0
0,0,0,0,0,0,0.00043657,-0.0015747,1.316e-36,7.3848e-05,-5.5381e-19,-8.2526e-22,1.8522,0.0018369,-0.0015774,8.2678e-34,0.00043929,-64.287,-372.82,-131.47,11.351,-8.5029e-14,-1.289e-16,281.72,-373.23,-131.47,-63.869,0,0.014704,0,1,1.345,0,-1.345,0
0,0,0,0,0,0,0.00043442,-0.0015685,1.3275e-36,7.3302e-05,-6.0441e-19,-8.4268e-22,1.8461,0.0018294,-0.0015712,8.3729e-34,0.00043711,-64.154,-371.41,-131.01,11.268,-9.2796e-14,-1.3164e-16,280.57,-371.82,-131.01,-63.74,0,0.014713,0,1,1.35,0,-1.35,0
0,0,0,0,0,0,0.00043227,-0.0015623,1.339e-36,7.2756e-05,-6.5501e-19,-8.601e-22,1.8401,0.0018218,-0.001565,8.478e-34,0.00043493,-64.021,-370,-130.54,11.184,-1.0056e-13,-1.3439e-16,279.42,-370.41,-130.54,-63.611,0,0.014721,0,1,1.355,0,-1.355,0
0,0,0,0,0,0,0.00043012,-0.0015562,1.3505e-36,7.221e-05,-7.0561e-19,-8.7753e-22,1.834,0.0018143,-0.0015588,8.583e-34,0.00043275,-63.887,-368.6,-130.08,11.1,-1.0833e-13,-1.3713e-16,278.27,-369,-130.08,-63.482,0,0.014729,0,1,1.36,0,-1.36,0
0,0,0,0,0,0,0.00042797,-0.00155,1.362e-36,7.1664e-05,-7.5621e-19,-8.9495e-22,1.8279,0.0018068,-0.0015526,8.6881e-34,0.00043057,-63.754,-367.19,-129.61,11.016,-1.161e-13,-1.3988e-16,277.12,-367.59,-129.61,-63.353,0,0.014737,0,1,1.365,0,-1.365,0
0,0,0,0,0,0,0.00042581,-0.0015438,1.3735e-36,7.1118e-05,-8.0681e-19,-9.1237e-22,1.8219,0.0017993,-0.0015464,8.7932e-34,0.00042839,-63.621,-365.78,-129.15,10.932,-1.2386e-13,-1.4262e-16,275.96,-366.18,-129.15,-63.224,0,0.014745,0,1,1.37,0,-1.37,0
0,0,0,0,0,0,0.00042366,-0.0015377,1.385e-36,7.0572e-05,-8.5741e-19,-9.2979e-22,1.8158,0.0017917,-0.0015402,8.8982e-34,0.00042621,-63.487,-364.38,-128.68,10.848,-1.3163e-13,-1.4537e-16,274.81,-364.77,-128.68,-63.096,0,0.014753,0,1,1.375,0,-1.375,0
0,0,0,0,0,0,0.00042151,-0.0015315,1.3965e-36,7.0026e-05,-9.0801e-19,-9.4722e-22,1.8098,0.0017842,-0.001534,9.0033e-34,0.00042402,-63.354,-362.97,-128.22,10.764,-1.394e-13,-1.4811e-16,273.66,-363.36,-128.22,-62.967,0,0.014761,0,1,1.38,0,-1.38,0
0,0,0,0,0,0,0.00041936,-0.0015253,1.408e-36,6.948e-05,-9.5861e-19,-9.6464e-22,1.8037,0.0017767,-0.0015278,9.1084e-34,0.00042184,-63.221,-361.56,-127.76,10.68,-1.4717e-13,-1.5086e-16,272.51,-361.95,-127.76,-62.838,0,0.014769,0,1,1.385,0,-1.385,0
0,0,0,0,0,0,0.00041721,-0.0015192,1.4196e-36,6.8934e-05,-1.0092e-18,-9.8206e-22,1.7977,0.0017692,-0.0015216,9.2134e-34,0.00041966,-63.087,-360.16,-127.29,10.596,-1.5493e-13,-1.536e-16,271.36,-360.54,-127.29,-62.709,0,0.014777,0,1,1.39,0,-1.39,0
0,0,0,0,0,0,0.00041505,-0.001513,1.4311e-36,6.8388e-05,-1.0598e-18,-9.9948e-22,1.7916,0.0017617,-0.0015154,9.3185e-34,0.00041748,-62.954,-358.75,-126.83,10.512,-1.627e-13,-1.5635e-16,270.21,-359.13,-126.83,-62.58,0,0.014785,0,1,1.395,0,-1.395,0
0,0,0,0,0,0,0.0004129,-0.0015068,1.4426e-36,6.7842e-05,-1.1104e-18,-1.0169e-21,1.7856,0.0017541,-0.0015092,9.4236e-34,0.0004153,-62.82,-357.35,-126.36,10.429,-1.7047e-13,-1.5909e-16,269.06,-357.71,-126.36,-62.451,0,0.014793,0,1,1.4,0,-1.4,0
0,0,0,0,0,0,0.00041075,-0.0015006,1.4541e-36,6.7296e-05,-1.161e-18,-1.0343e-21,1.7795,0.0017466,-0.001503,9.5286e-34,0.00041312,-62.687,-355.94,-125.9,10.345,-1.7824e-13,-1.6184e-16,267.91,-356.3,-125.9,-62.323,0,0.014801,0,1,1.405,0,-1.405,0
0,0,0,0,0,0,0.00040869,-0.0014947,1.4577e-36,6.6783e-05,-1.1961e-18,-1.0432e-21,1.7737,0.0017394,-0.0014971,9.5877e-34,0.00041103,-62.561,-354.59,-125.45,10.266,-1.8362e-13,-1.6323e-16,266.81,-354.95,-125.45,-62.2,0,0.014809,0,1,1.41,0,-1.41,0
0,0,0,0,0,0,0.00040706,-0.0014901,1.424e-36,6.6428e-05,-1.1574e-18,-1.0111e-21,1.7689,0.0017338,-0.0014925,9.4283e-34,0.00040938,-62.466,-353.54,-125.11,10.211,-1.7768e-13,-1.5821e-16,265.95,-353.9,-125.11,-62.108,0,0.014816,0,1,1.415,0,-1.415,0
0,0,0,0,0,0,0.00040543,-0.0014855,1.3903e-36,6.6073e-05,-1.1188e-18,-9.7913e-22,1.7641,0.0017282,-0.0014878,9.2688e-34,0.00040774,-62.372,-352.49,-124.76,10.157,-1.7175e-13,-1.5319e-16,265.09,-352.85,-124.76,-62.016,0,0.014823,0,1,1.42,0,-1.42,0
0,0,0,0,0,0,0.0004038,-0.0014809,1.3566e-36,6.5718e-05,-1.0801e-18,-9.4712e-22,1.7593,0.0017225,-0.0014832,9.1094e-34,0.00040609,-62.277,-351.44,-124.42,10.102,-1.6582e-13,-1.4817e-16,264.23,-351.79,-124.42,-61.925,0,0.01483,0,1,1.425,0,-1.425,0
0,0,0,0,0,0,0.00040217,-0.0014763,1.323e-36,6.5363e-05,-1.0415e-18,-9.1512e-22,1.7545,0.0017169,-0.0014786,8.95e-34,0.00040445,-62.183,-350.39,-124.07,10.048,-1.5988e-13,-1.4315e-16,263.36,-350.74,-124.07,-61.833,0,0.014837,0,1,1.43,0,-1.43,0
0,0,0,0,0,0,0.00040054,-0.0014717,1.2893e-36,6.5008e-05,-1.0028e-18,-8.8311e-22,1.7497,0.0017113,-0.0014739,8.7906e-34,0.0004028,-62.088,-349.34,-123.73,9.993,-1.5395e-13,-1.3813e-16,262.5,-349.69,-123.73,-61.741,0,0.014844,0,1,1.435,0,-1.435,0
0,0,0,0,0,0,0.00039891,-0.0014671,1.2556e-36,6.4653e-05,-9.6418e-19,-8.511e-22,1.7449,0.0017056,-0.0014693,8.6312e-34,0.00040115,-61.994,-348.29,-123.38,9.9385,-1.4801e-13,-1.3311e-16,261.64,-348.64,-123.38,-61.649,0,0.014851,0,1,1.44,0,-1.44,0
0,0,0,0,0,0,0.00039728,-0.0014624,1.2219e-36,6.4298e-05,-9.2553e-19,-8.1909e-22,1.7401,0.0017,-0.0014647,8.4717e-34,0.00039951,-61.899,-347.24,-123.04,9.8839,-1.4208e-13,-1.2809e-16,260.78,-347.58,-123.04,-61.557,0,0.014857,0,1,1.445,0,-1.445,0
0,0,0,0,0,0,0.00039565,-0.0014578,1.1882e-36,6.3943e-05,-8.8687e-19,-7.8708e-22,1.7353,0.0016944,-0.00146,8.3123e-34,0.00039786,-61.805,-346.19,-122.69,9.8293,-1.3614e-13,-1.2307e-16,259.92,-346.53,-122.69,-61.465,0,0.014864,0,1,1.45,0,-1.45,0
0,0,0,0,0,0,0.00039403,-0.0014532,1.1545e-36,6.3588e-05,-8.4822e-19,-7.5507e-22,1.7305,0.0016887,-0.0014554,8.1529e-34,0.00039622,-61.711,-345.14,-122.35,9.7748,-1.3021e-13,-1.1805e-16,259.06,-345.48,-122.35,-61.373,0,0.014871,0,1,1.455,0,-1.455,0
0,0,0,0,0,0,0.0003924,-0.0014486,1.1209e-36,6.3233e-05,-8.0957e-19,-7.2306e-22,1.7257,0.0016831,-0.0014508,7.9935e-34,0.00039457,-61.616,-344.09,-122,9.7202,-1.2428e-13,-1.1303e-16,258.19,-344.42,-122,-61.281,0,0.014878,0,1,1.46,0,-1.46,0
0,0,0,0,0,0,0.00039077,-0.001444,1.0872e-36,6.2878e-05,-7.7092e-19,-6.9106e-22,1.7209,0.0016775,-0.0014461,7.834e-34,0.00039292,-61.522,-343.04,-121.65,9.6657,-1.1834e-13,-1.0801e-16,257.33,-343.37,-121.65,-61.19,0,0.014885,0,1,1.465,0,-1.465,0
0,0,0,0,0,0,0.00038914,-0.0014394,1.0535e-36,6.2523e-05,-7.3227e-19,-6.5905e-22,1.7161,0.0016719,-0.0014415,7.6746e-34,0.00039128,-61.427,-341.99,-121.31,9.6111,-1.1241e-13,-1.0299e-16,256.47,-342.32,-121.31,-61.098,0,0.014892,0,1,1.47,0,-1.47,0
0,0,0,0,0,0,0.00038751,-0.0014347,1.0198e-36,6.2168e-05,-6.9362e-19,-6.2704e-22,1.7113,0.0016662,-0.0014369,7.5152e-34,0.00038963,-61.333,-340.94,-120.96,9.5565,-1.0647e-13,-9.7965e-17,255.61,-341.26,-120.96,-61.006,0,0.014899,0,1,1.475,0,-1.475,0
0,0,0,0,0,0,0.00038588,-0.0014301,9.8612e-37,6.1813e-05,-6.5497e-19,-5.9503e-22,1.7065,0.0016606,-0.0014322,7.3558e-34,0.00038799,-61.238,-339.88,-120.62,9.502,-1.0054e-13,-9.2944e-17,254.75,-340.21,-120.62,-60.914,0,0.014906,0,1,1.48,0,-1.48,0
0,0,0,0,0,0,0.00038425,-0.0014255,9.5244e-37,6.1458e-05,-6.1632e-19,-5.6302e-22,1.7017,0.001655,-0.0014276,7.1964e-34,0.00038634,-61.144,-338.83,-120.27,9.4474,-9.4606e-14,-8.7924e-17,253.89,-339.16,-120.27,-60.822,0,0.014913,0,1,1.485,0,-1.485,0
0,0,0,0,0,0,0.00038262,-0.0014209,9.1875e-37,6.1103e-05,-5.7766e-19,-5.3101e-22,1.6969,0.0016493,-0.001423,7.0369e-34,0.00038469,-61.049,-337.78,-119.93,9.3929,-8.8671e-14,-8.2904e-17,253.02,-338.1,-119.93,-60.73,0,0.01492,0,1,1.49,0,-1.49,0
0,0,0,0,0,0,0.00038099,-0.0014163,8.8507e-37,6.0748e-05,-5.3901e-19,-4.99e-22,1.6921,0.0016437,-0.0014183,6.8775e-34,0.00038305,-60.955,-336.73,-119.58,9.3383,-8.2737e-14,-7.7883e-17,252.16,-337.05,-119.58,-60.638,0,0.014926,0,1,1.495,0,-1.495,0
0,0,0,0,0,0,0.00037936,-0.0014117,8.5138e-37,6.0393e-05,-5.0036e-19,-4.67e-22,1.6873,0.0016381,-0.0014137,6.7181e-34,0.0003814,-60.861,-335.68,-119.24,9.2838,-7.6803e-14,-7.2863e-17,251.3,-336,-119.24,-60.546,0,0.014933,0,1,1.5,0,-1.5,0
0,0,0,0,0,0,0.00037773,-0.0014071,8.177e-37,6.0038e-05,-4.6171e-19,-4.3499e-22,1.6825,0.0016324,-0.0014091,6.5587e-34,0.00037975,-60.766,-334.63,-118.89,9.2292,-7.0869e-14,-6.7842e-17,250.44,-334.94,-118.89,-60.455,0,0.01494,0,1,1.505,0,-1.505,0
0,0,0,0,0,0,0.0003761,-0.0014024,7.8402e-37,5.9683e-05,-4.2306e-19,-4.0298e-22,1.6777,0.0016268,-0.0014044,6.3992e-34,0.00037811,-60.672,-333.58,-118.55,9.1746,-6.4935e-14,-6.2822e-17,249.58,-333.89,-118.55,-60.363,0,0.014947,0,1,1.51,0,-1.51,0
0,0,0,0,0,0,0.00037447,-0.0013978,7.5033e-37,5.9328e-05,-3.8441e-19,-3.7097e-22,1.6729,0.0016212,-0.0013998,6.2398e-34,0.00037646,-60.577,-332.53,-118.2,9.1201,-5.9e-14,-5.7801e-17,248.71,-332.84,-118.2,-60.271,0,0.014954,0,1,1.515,0,-1.515,0
0,0,0,0,0,0,0.00037284,-0.0013932,7.1665e-37,5.8973e-05,-3.4576e-19,-3.3896e-22,1.6681,0.0016156,-0.0013952,6.0804e-34,0.00037482,-60.483,-331.48,-117.86,9.0655,-5.3066e-14,-5.2781e-17,247.85,-331.78,-117.86,-60.179,0,0.014961,0,1,1.52,0,-1.52,0
0,0,0,0,0,0,0.00037121,-0.0013886,6.8296e-37,5.8618e-05,-3.0711e-19,-3.0695e-22,1.6633,0.0016099,-0.0013905,5.921e-34,0.00037317,-60.388,-330.43,-117.51,9.011,-4.7132e-14,-4.7761e-17,246.99,-330.73,-117.51,-60.087,0,0.014968,0,1,1.525,0,-1.525,0
0,0,0,0,0,0,0.00036958,-0.001384,6.4928e-37,5.8263e-05,-2.6845e-19,-2.7495e-22,1.6585,0.0016043,-0.0013859,5.7616e-34,0.00037152,-60.294,-329.38,-117.17,8.9564,-4.1198e-14,-4.274e-17,246.13,-329.68,-117.17,-59.995,0,0.014975,0,1,1.53,0,-1.53,0
0,0,0,0,0,0,0.00036796,-0.0013794,6.156e-37,5.7908e-05,-2.298e-19,-2.4294e-22,1.6537,0.0015987,-0.0013813,5.6021e-34,0.00036988,-60.199,-328.33,-116.82,8.9018,-3.5264e-14,-3.772e-17,245.27,-328.62,-116.82,-59.903,0,0.014982,0,1,1.535,0,-1.535,0
0,0,0,0,0,0,0.00036633,-0.0013747,5.8191e-37,5.7553e-05,-1.9115e-19,-2.1093e-22,1.6489,0.001593,-0.0013767,5.4427e-34,0.00036823,-60.105,-327.28,-116.48,8.8473,-2.9329e-14,-3.2699e-17,244.41,-327.57,-116.48,-59.811,0,0.014989,0,1,1.54,0,-1.54,0
0,0,0,0,0,0,0.0003647,-0.0013701,5.4823e-37,5.7198e-05,-1.525e-19,-1.7892e-22,1.6441,0.0015874,-0.001372,5.2833e-34,0.00036659,-60.011,-326.23,-116.13,8.7927,-2.3395e-14,-2.7679e-17,243.54,-326.52,-116.13,-59.72,0,0.014995,0,1,1.545,0,-1.545,0
0,0,0,0,0,0,0.00036307,-0.0013655,5.1454e-37,5.6843e-05,-1.1385e-19,-1.4691e-22,1.6393,0.0015818,-0.0013674,5.1239e-34,0.00036494,-59.916,-325.18,-115.79,8.7382,-1.7461e-14,-2.2658e-17,242.68,-325.46,-115.79,-59.628,0,0.015002,0,1,1.55,0,-1.55,0
0,0,0,0,0,0,0.00036144,-0.0013609,4.8086e-37,5.6488e-05,-7.5198e-20,-1.149e-22,1.6345,0.0015761,-0.0013628,4.9644e-34,0.00036329,-59.822,-324.12,-115.44,8.6836,-1.1527e-14,-1.7638e-17,241.82,-324.41,-115.44,-59.536,0,0.015009,0,1,1.555,0,-1.555,0
0,0,0,0,0,0,0.00035981,-0.0013563,4.4718e-37,5.6133e-05,-3.6547e-20,-8.2894e-23,1.6297,0.0015705,-0.0013581,4.805e-34,0.00036165,-59.727,-323.07,-115.09,8.629,-5.5927e-15,-1.2618e-17,240.96,-323.36,-115.09,-59.444,0,0.015016,0,1,1.56,0,-1.56,0
0,0,0,0,0,0,0.00035818,-0.0013517,4.1349e-37,5.5778e-05,2.1055e-21,-5.0885e-23,1.6249,0.0015649,-0.0013535,4.6456e-34,0.00036,-59.633,-322.02,-114.75,8.5745,3.4158e-16,-7.597e-18,240.1,-322.3,-114.75,-59.352,0,0.015023,0,1,1.565,0,-1.565,0
0,0,0,0,0,0,0.00035655,-0.0013471,3.7981e-37,5.5423e-05,4.0757e-20,-1.8876e-23,1.6201,0.0015592,-0.0013489,4.4862e-34,0.00035836,-59.538,-320.97,-114.4,8.5199,6.2758e-15,-2.5766e-18,239.24,-321.25,-114.4,-59.26,0,0.01503,0,1,1.57,0,-1.57,0
0,0,0,0,0,0,0.00035492,-0.0013424,3.4612e-37,5.5068e-05,7.9408e-20,1.3133e-23,1.6153,0.0015536,-0.0013442,4.3268e-34,0.00035671,-59.444,-319.92,-114.06,8.4654,1.221e-14,2.4438e-18,238.37,-320.2,-114.06,-59.168,0,0.015037,0,1,1.575,0,-1.575,0
0,0,0,0,0,0,0.00035329,-0.0013378,3.1244e-37,5.4714e-05,1.1806e-19,4.5141e-23,1.6105,0.001548,-0.0013396,4.1673e-34,0.00035506,-59.349,-318.87,-113.71,8.4108,1.8144e-14,7.4643e-18,237.51,-319.14,-113.71,-59.076,0,0.015044,0,1,1.58,0,-1.58,0
0,0,0,0,0,0,0.00035166,-0.0013332,2.7875e-37,5.4359e-05,1.5671e-19,7.715e-23,1.6057,0.0015424,-0.001335,4.0079e-34,0.00035342,-59.255,-317.82,-113.37,8.3563,2.4078e-14,1.2485e-17,236.65,-318.09,-113.37,-58.985,0,0.015051,0,1,1.585,0,-1.585,0
0,0,0,0,0,0,0.00035003,-0.0013286,2.4507e-37,5.4004e-05,1.9536e-19,1.0916e-22,1.6009,0.0015367,-0.0013303,3.8485e-34,0.00035177,-59.161,-316.77,-113.02,8.3017,3.0013e-14,1.7505e-17,235.79,-317.04,-113.02,-58.893,0,0.015058,0,1,1.59,0,-1.59,0
0,0,0,0,0,0,0.0003484,-0.001324,2.1139e-37,5.3649e-05,2.3401e-19,1.4117e-22,1.5961,0.0015311,-0.0013257,3.6891e-34,0.00035013,-59.066,-315.72,-112.68,8.2471,3.5947e-14,2.2526e-17,234.93,-315.98,-112.68,-58.801,0,0.015064,0,1,1.595,0,-1.595,0
0,0,0,0,0,0,0.00034677,-0.0013194,1.777e-37,5.3294e-05,2.7266e-19,1.7318e-22,1.5913,0.0015255,-0.0013211,3.5296e-34,0.00034848,-58.972,-314.67,-112.33,8.1926,4.1881e-14,2.7546e-17,234.07,-314.93,-112.33,-58.709,0,0.015071,0,1,1.6,0,-1.6,0
0,0,0,0,0,0,0.00034514,-0.0013147,1.4402e-37,5.2939e-05,3.1132e-19,2.0518e-22,1.5865,0.0015198,-0.0013164,3.3702e-34,0.00034683,-58.877,-313.62,-111.99,8.138,4.7815e-14,3.2566e-17,233.2,-313.88,-111.99,-58.617,0,0.015078,0,1,1.605,0,-1.605,0
0,0,0,0,0,0,0.00034351,-0.0013101,1.1033e-37,5.2584e-05,3.4997e-19,2.3719e-22,1.5817,0.0015142,-0.0013118,3.2108e-34,0.00034519,-58.783,-312.57,-111.64,8.0835,5.3749e-14,3.7587e-17,232.34,-312.82,-111.64,-58.525,0,0.015085,0,1,1.61,0,-1.61,0
0,0,0,0,0,0,0.00034188,-0.0013055,7.665e-38,5.2229e-05,3.8862e-19,2.692e-22,1.5769,0.0015086,-0.0013072,3.0514e-34,0.00034354,-58.688,-311.52,-111.3,8.0289,5.9683e-14,4.2607e-17,231.48,-311.77,-111.3,-58.433,0,0.015092,0,1,1.615,0,-1.615,0
0,0,0,0,0,0,0.00034026,-0.0013009,4.2966e-38,5.1874e-05,4.2727e-19,3.0121e-22,1.5721,0.0015029,-0.0013025,2.892e-34,0.0003419,-58.594,-310.47,-110.95,7.9743,6.5618e-14,4.7628e-17,230.62,-310.72,-110.95,-58.341,0,0.015099,0,1,1.62,0,-1.62,0
0,0,0,0,0,0,0.00033863,-0.0012963,9.2816e-39,5.1519e-05,4.6592e-19,3.3322e-22,1.5673,0.0014973,-0.0012979,2.7325e-34,0.00034025,-58.499,-309.42,-110.61,7.9198,7.1552e-14,5.2648e-17,229.76,-309.67,-110.61,-58.25,0,0.015106,0,1,1.625,0,-1.625,0
0,0,0,0,0,0,0.000337,-0.0012917,-2.4402e-38,5.1164e-05,5.0457e-19,3.6523e-22,1.5625,0.0014917,-0.0012933,2.5731e-34,0.0003386,-58.405,-308.36,-110.26,7.8652,7.7486e-14,5.7669e-17,228.89,-308.61,-110.26,-58.158,0,0.015113,0,1,1.63,0,-1.63,0
0,0,0,0,0,0,0.00033537,-0.0012871,-5.8087e-38,5.0809e-05,5.4322e-19,3.9723e-22,1.5577,0.0014861,-0.0012886,2.4137e-34,0.00033696,-58.311,-307.31,-109.92,7.8107,8.342e-14,6.2689e-17,228.03,-307.56,-109.92,-58.066,0,0.01512,0,1,1.635,0,-1.635,0
0,0,0,0,0,0,0.00033402,-0.0012832,-4.3542e-38,5.0539e-05,5.3788e-19,3.8607e-22,1.5536,0.0014814,-0.0012848,2.3689e-34,0.0003356,-58.232,-306.44,-109.63,7.7692,8.2599e-14,6.0977e-17,227.32,-306.69,-109.63,-57.989,0,0.015126,0,1,1.64,0,-1.64,0
0,0,0,0,0,0,0.00033279,-0.0012797,-1.0796e-38,5.0302e-05,5.1593e-19,3.5862e-22,1.5497,0.0014771,-0.0012813,2.3673e-34,0.00033436,-58.158,-305.64,-109.37,7.7328,7.9228e-14,5.6725e-17,226.67,-305.89,-109.37,-57.917,0,0.015132,0,1,1.645,0,-1.645,0
0,0,0,0,0,0,0.00033156,-0.0012762,2.1951e-38,5.0064e-05,4.9398e-19,3.3117e-22,1.5459,0.0014729,-0.0012778,2.3658e-34,0.00033311,-58.085,-304.84,-109.1,7.6963,7.5857e-14,5.2473e-17,226.01,-305.08,-109.1,-57.845,0,0.015138,0,1,1.65,0,-1.65,0
0,0,0,0,0,0,0.00033032,-0.0012727,5.4697e-38,4.9827e-05,4.7203e-19,3.0371e-22,1.542,0.0014686,-0.0012743,2.3642e-34,0.00033187,-58.012,-304.04,-108.84,7.6598,7.2486e-14,4.822e-17,225.36,-304.28,-108.84,-57.774,0,0.015144,0,1,1.655,0,-1.655,0
0,0,0,0,0,0,0.00032909,-0.0012692,8.7443e-38,4.959e-05,4.5009e-19,2.7626e-22,1.5382,0.0014643,-0.0012707,2.3626e-34,0.00033062,-57.939,-303.24,-108.58,7.6233,6.9115e-14,4.3968e-17,224.7,-303.48,-108.58,-57.702,0,0.01515,0,1,1.66,0,-1.66,0
0,0,0,0,0,0,0.00032785,-0.0012657,1.2019e-37,4.9352e-05,4.2814e-19,2.4881e-22,1.5343,0.00146,-0.0012672,2.3611e-34,0.00032938,-57.866,-302.44,-108.31,7.5869,6.5744e-14,3.9715e-17,224.05,-302.68,-108.31,-57.63,0,0.015156,0,1,1.665,0,-1.665,0
0,0,0,0,0,0,0.00032662,-0.0012622,1.5294e-37,4.9115e-05,4.0619e-19,2.2135e-22,1.5305,0.0014558,-0.0012637,2.3595e-34,0.00032813,-57.793,-301.64,-108.05,7.5504,6.2373e-14,3.5463e-17,223.39,-301.88,-108.05,-57.559,0,0.015162,0,1,1.67,0,-1.67,0
0,0,0,0,0,0,0.00032538,-0.0012587,1.8568e-37,4.8878e-05,3.8424e-19,1.939e-22,1.5266,0.0014515,-0.0012602,2.358e-34,0.00032689,-57.719,-300.84,-107.79,7.5139,5.9002e-14,3.1211e-17,222.74,-301.07,-107.79,-57.487,0,0.015168,0,1,1.675,0,-1.675,0
0,0,0,0,0,0,0.00032415,-0.0012551,2.1843e-37,4.8641e-05,3.6229e-19,1.6645e-22,1.5228,0.0014472,-0.0012566,2.3564e-34,0.00032565,-57.646,-300.04,-107.52,7.4774,5.5631e-14,2.6958e-17,222.08,-300.27,-107.52,-57.415,0,0.015174,0,1,1.68,0,-1.68,0
0,0,0,0,0,0,0.00032291,-0.0012516,2.5117e-37,4.8403e-05,3.4035e-19,1.3899e-22,1.5189,0.0014429,-0.0012531,2.3549e-34,0.0003244,-57.573,-299.24,-107.26,7.441,5.226e-14,2.2706e-17,221.43,-299.47,-107.26,-57.344,0,0.01518,0,1,1.685,0,-1.685,0
0,0,0,0,0,0,0.00032168,-0.0012481,2.8392e-37,4.8166e-05,3.184e-19,1.1154e-22,1.515,0.0014387,-0.0012496,2.3533e-34,0.00032316,-57.5,-298.44,-107,7.4045,4.8888e-14,1.8453e-17,220.78,-298.67,-107,-57.272,0,0.015186,0,1,1.69,0,-1.69,0
0,0,0,0,0,0,0.00032044,-0.0012446,3.1667e-37,4.7929e-05,2.9645e-19,8.4085e-23,1.5112,0.0014344,-0.0012461,2.3517e-34,0.00032191,-57.427,-297.64,-106.73,7.368,4.5517e-14,1.4201e-17,220.12,-297.87,-106.73,-57.201,0,0.015192,0,1,1.695,0,-1.695,0
0,0,0,0,0,0,0.00031921,-0.0012411,3.4941e-37,4.7691e-05,2.745e-19,5.6632e-23,1.5073,0.0014301,-0.0012426,2.3502e-34,0.00032067,-57.354,-296.84,-106.47,7.3315,4.2146e-14,9.9487e-18,219.47,-297.06,-106.47,-57.129,0,0.015198,0,1,1.7,0,-1.7,0
0,0,0,0,0,0,0.00031797,-0.0012376,3.8216e-37,4.7454e-05,2.5255e-19,2.9179e-23,1.5035,0.0014258,-0.001239,2.3486e-34,0.00031942,-57.28,-296.04,-106.21,7.2951,3.8775e-14,5.6964e-18,218.81,-296.26,-106.21,-57.057,0,0.015203,0,1,1.705,0,-1.705,0
0,0,0,0,0,0,0.00031674,-0.0012341,4.1491e-37,4.7217e-05,2.306e-19,1.7252e-24,1.4996,0.0014216,-0.0012355,2.3471e-34,0.00031818,-57.207,-295.24,-105.94,7.2586,3.5404e-14,1.444e-18,218.16,-295.46,-105.94,-56.986,0,0.015209,0,1,1.71,0,-1.71,0
0,0,0,0,0,0,0.0003155,-0.0012306,4.4765e-37,4.6979e-05,2.0866e-19,-2.5728e-23,1.4958,0.0014173,-0.001232,2.3455e-34,0.00031693,-57.134,-294.44,-105.68,7.2221,3.2033e-14,-2.8084e-18,217.5,-294.66,-105.68,-56.914,0,0.015215,0,1,1.715,0,-1.715,0
0,0,0,0,0,0,0.00031427,-0.001227,4.804e-37,4.6742e-05,1.8671e-19,-5.3182e-23,1.4919,0.001413,-0.0012285,2.344e-34,0.00031569,-57.061,-293.64,-105.42,7.1856,2.8662e-14,-7.0607e-18,216.85,-293.86,-105.42,-56.842,0,0.015221,0,1,1.72,0,-1.72,0
0,0,0,0,0,0,0.00031303,-0.0012235,5.1314e-37,4.6505e-05,1.6476e-19,-8.0635e-23,1.488,0.0014088,-0.0012249,2.3424e-34,0.00031444,-56.988,-292.84,-105.16,7.1492,2.5291e-14,-1.1313e-17,216.19,-293.05,-105.16,-56.771,0,0.015227,0,1,1.725,0,-1.725,0
0,0,0,0,0,0,0.0003118,-0.00122,5.4589e-37,4.6267e-05,1.4281e-19,-1.0809e-22,1.4842,0.0014045,-0.0012214,2.3408e-34,0.0003132,-56.915,-292.04,-104.89,7.1127,2.192e-14,-1.5565e-17,215.54,-292.25,-104.89,-56.699,0,0.015233,0,1,1.73,0,-1.73,0
0,0,0,0,0,0,0.00031056,-0.0012165,5.7864e-37,4.603e-05,1.2086e-19,-1.3554e-22,1.4803,0.0014002,-0.0012179,2.3393e-34,0.00031195,-56.841,-291.24,-104.63,7.0762,1.8549e-14,-1.9818e-17,214.88,-291.45,-104.63,-56.627,0,0.015239,0,1,1.735,0,-1.735,0
0,0,0,0,0,0,0.00030933,-0.001213,6.1138e-37,4.5793e-05,9.8916e-20,-1.63e-22,1.4765,0.0013959,-0.0012144,2.3377e-34,0.00031071,-56.768,-290.44,-104.37,7.0397,1.5178e-14,-2.407e-17,214.23,-290.65,-104.37,-56.556,0,0.015245,0,1,1.74,0,-1.74,0
0,0,0,0,0,0,0.00030809,-0.0012095,6.4413e-37,4.5555e-05,7.6968e-20,-1.9045e-22,1.4726,0.0013917,-0.0012109,2.3362e-34,0.00030946,-56.695,-289.64,-104.1,7.0033,1.1807e-14,-2.8323e-17,213.58,-289.85,-104.1,-56.484,0,0.015251,0,1,1.745,0,-1.745,0
0,0,0,0,0,0,0.00030686,-0.001206,6.7687e-37,4.5318e-05,5.502e-20,-2.179e-22,1.4688,0.0013874,-0.0012073,2.3346e-34,0.00030822,-56.622,-288.84,-103.84,6.9668,8.4362e-15,-3.2575e-17,212.92,-289.05,-103.84,-56.412,0,0.015257,0,1,1.75,0,-1.75,0
0,0,0,0,0,0,0.00030563,-0.0012025,7.0962e-37,4.5081e-05,3.3072e-20,-2.4536e-22,1.4649,0.0013831,-0.0012038,2.3331e-34,0.00030698,-56.549,-288.04,-103.58,6.9303,5.0652e-15,-3.6827e-17,212.27,-288.24,-103.58,-56.341,0,0.015263,0,1,1.755,0,-1.755,0
0,0,0,0,0,0,0.00030439,-0.001199,7.4237e-37,4.4844e-05,1.1124e-20,-2.7281e-22,1.4611,0.0013788,-0.0012003,2.3315e-34,0.00030573,-56.476,-287.23,-103.31,6.8938,1.6942e-15,-4.108e-17,211.61,-287.44,-103.31,-56.269,0,0.015269,0,1,1.76,0,-1.76,0
0,0,0,0,0,0,0.00030316,-0.0011954,7.7511e-37,4.4606e-05,-1.0824e-20,-3.0026e-22,1.4572,0.0013746,-0.0011968,2.3299e-34,0.00030449,-56.402,-286.43,-103.05,6.8574,-1.6769e-15,-4.5332e-17,210.96,-286.64,-103.05,-56.198,0,0.015275,0,1,1.765,0,-1.765,0
0,0,0,0,0,0,0.00030192,-0.0011919,8.0786e-37,4.4369e-05,-3.2772e-20,-3.2772e-22,1.4533,0.0013703,-0.0011932,2.3284e-34,0.00030324,-56.329,-285.63,-102.79,6.8209,-5.0479e-15,-4.9584e-17,210.3,-285.84,-102.79,-56.126,0,0.015281,0,1,1.77,0,-1.77,0
0,0,0,0,0,0,0.00030069,-0.0011884,8.4061e-37,4.4132e-05,-5.4721e-20,-3.5517e-22,1.4495,0.001366,-0.0011897,2.3268e-34,0.000302,-56.256,-284.83,-102.52,6.7844,-8.4189e-15,-5.3837e-17,209.65,-285.04,-102.52,-56.054,0,0.015287,0,1,1.775,0,-1.775,0
0,0,0,0,0,0,0.00029945,-0.0011849,8.7335e-37,4.3894e-05,-7.6669e-20,-3.8262e-22,1.4456,0.0013617,-0.0011862,2.3253e-34,0.00030075,-56.183,-284.03,-102.26,6.7479,-1.179e-14,-5.8089e-17,208.99,-284.23,-102.26,-55.983,0,0.015293,0,1,1.78,0,-1.78,0
0,0,0,0,0,0,0.00029822,-0.0011814,9.061e-37,4.3657e-05,-9.8617e-20,-4.1008e-22,1.4418,0.0013575,-0.0011827,2.3237e-34,0.00029951,-56.11,-283.23,-102,6.7115,-1.5161e-14,-6.2342e-17,208.34,-283.43,-102,-55.911,0,0.015299,0,1,1.785,0,-1.785,0
0,0,0,0,0,0,0.00029698,-0.0011779,9.3884e-37,4.342e-05,-1.2056e-19,-4.3753e-22,1.4379,0.0013532,-0.0011792,2.3222e-34,0.00029826,-56.037,-282.43,-101.73,6.675,-1.8532e-14,-6.6594e-17,207.68,-282.63,-101.73,-55.839,0,0.015305,0,1,1.79,0,-1.79,0
0,0,0,0,0,0,0.00029575,-0.0011744,9.7159e-37,4.3182e-05,-1.4251e-19,-4.6498e-22,1.4341,0.0013489,-0.0011756,2.3206e-34,0.00029702,-55.963,-281.63,-101.47,6.6385,-2.1903e-14,-7.0846e-17,207.03,-281.83,-101.47,-55.768,0,0.015311,0,1,1.795,0,-1.795,0
0,0,0,0,0,0,0.00029451,-0.0011709,1.0043e-36,4.2945e-05,-1.6446e-19,-4.9244e-22,1.4302,0.0013446,-0.0011721,2.319e-34,0.00029577,-55.89,-280.83,-101.21,6.602,-2.5274e-14,-7.5099e-17,206.37,-281.03,-101.21,-55.696,0,0.015317,0,1,1.8,0,-1.8,0
0,0,0,0,0,0,0.00029328,-0.0011673,1.0371e-36,4.2708e-05,-1.8641e-19,-5.1989e-22,1.4263,0.0013404,-0.0011686,2.3175e-34,0.00029453,-55.817,-280.03,-100.94,6.5656,-2.8645e-14,-7.9351e-17,205.72,-280.22,-100.94,-55.624,0,0.015323,0,1,1.805,0,-1.805,0
0,0,0,0,0,0,0.00029204,-0.0011638,1.0698e-36,4.247e-05,-2.0836e-19,-5.4734e-22,1.4225,0.0013361,-0.0011651,2.3159e-34,0.00029328,-55.744,-279.23,-100.68,6.5291,-3.2016e-14,-8.3603e-17,205.07,-279.42,-100.68,-55.553,0,0.015329,0,1,1.81,0,-1.81,0
0,0,0,0,0,0,0.00029081,-0.0011603,1.1026e-36,4.2233e-05,-2.3031e-19,-5.748e-22,1.4186,0.0013318,-0.0011616,2.3144e-34,0.00029204,-55.671,-278.43,-100.42,6.4926,-3.5387e-14,-8.7856e-17,204.41,-278.62,-100.42,-55.481,0,0.015335,0,1,1.815,0,-1.815,0
0,0,0,0,0,0,0.00028957,-0.0011568,1.1353e-36,4.1996e-05,-2.5225e-19,-6.0225e-22,1.4148,0.0013275,-0.001158,2.3128e-34,0.00029079,-55.597,-277.63,-100.15,6.4561,-3.8758e-14,-9.2108e-17,203.76,-277.82,-100.15,-55.41,0,0.015341,0,1,1.82,0,-1.82,0
0,0,0,0,0,0,0.00028834,-0.0011533,1.1681e-36,4.1758e-05,-2.742e-19,-6.297e-22,1.4109,0.0013233,-0.0011545,2.3112e-34,0.00028955,-55.524,-276.83,-99.89,6.4197,-4.2129e-14,-9.6361e-17,203.1,-277.02,-99.89,-55.338,0,0.015347,0,1,1.825,0,-1.825,0
0,0,0,0,0,0,0.0002871,-0.0011498,1.2008e-36,4.1521e-05,-2.9615e-19,-6.5716e-22,1.4071,0.001319,-0.001151,2.3097e-34,0.00028831,-55.451,-276.03,-99.627,6.3832,-4.55e-14,-1.0061e-16,202.45,-276.21,-99.627,-55.266,0,0.015353,0,1,1.83,0,-1.83,0
0,0,0,0,0,0,0.00028587,-0.0011463,1.2336e-36,4.1284e-05,-3.181e-19,-6.8461e-22,1.4032,0.0013147,-0.0011475,2.3081e-34,0.00028706,-55.378,-275.23,-99.364,6.3467,-4.8871e-14,-1.0487e-16,201.79,-275.41,-99.364,-55.195,0,0.015359,0,1,1.835,0,-1.835,0
0,0,0,0,0,0,0.00028463,-0.0011428,1.2663e-36,4.1047e-05,-3.4005e-19,-7.1206e-22,1.3994,0.0013104,-0.0011439,2.3066e-34,0.00028582,-55.305,-274.43,-99.101,6.3102,-5.2242e-14,-1.0912e-16,201.14,-274.61,-99.101,-55.123,0,0.015365,0,1,1.84,0,-1.84,0
0,0,0,0,0,0,0.0002834,-0.0011392,1.2991e-36,4.0809e-05,-3.6199e-19,-7.3952e-22,1.3955,0.0013062,-0.0011404,2.305e-34,0.00028457,-55.232,-273.63,-98.838,6.2738,-5.5613e-14,-1.1337e-16,200.48,-273.81,-98.838,-55.051,0,0.015371,0,1,1.845,0,-1.845,0
0,0,0,0,0,0,0.00028216,-0.0011357,1.3318e-36,4.0572e-05,-3.8394e-19,-7.6697e-22,1.3916,0.0013019,-0.0011369,2.3035e-34,0.00028333,-55.158,-272.83,-98.574,6.2373,-5.8984e-14,-1.1762e-16,199.83,-273.01,-98.574,-54.98,0,0.015376,0,1,1.85,0,-1.85,0
0,0,0,0,0,0,0.00028093,-0.0011322,1.3645e-36,4.0335e-05,-4.0589e-19,-7.9442e-22,1.3878,0.0012976,-0.0011334,2.3019e-34,0.00028208,-55.085,-272.03,-98.311,6.2008,-6.2355e-14,-1.2187e-16,199.17,-272.2,-98.311,-54.908,0,0.015382,0,1,1.855,0,-1.855,0
0,0,0,0,0,0,0.0002797,-0.0011287,1.3973e-36,4.0097e-05,-4.2784e-19,-8.2188e-22,1.3839,0.0012933,-0.0011299,2.3003e-34,0.00028084,-55.012,-271.23,-98.048,6.1643,-6.5726e-14,-1.2613e-16,198.52,-271.4,-98.048,-54.836,0,0.015388,0,1,1.86,0,-1.86,0
0,0,0,0,0,0,0.00027846,-0.0011252,1.43e-36,3.986e-05,-4.4979e-19,-8.4933e-22,1.3801,0.0012891,-0.0011263,2.2988e-34,0.00027959,-54.939,-270.43,-97.785,6.1279,-6.9097e-14,-1.3038e-16,197.87,-270.6,-97.785,-54.765,0,0.015394,0,1,1.865,0,-1.865,0
0,0,0,0,0,0,0.00027723,-0.0011217,1.4628e-36,3.9623e-05,-4.7173e-19,-8.7678e-22,1.3762,0.0012848,-0.0011228,2.2972e-34,0.00027835,-54.866,-269.63,-97.521,6.0914,-7.2468e-14,-1.3463e-16,197.21,-269.8,-97.521,-54.693,0,0.0154,0,1,1.87,0,-1.87,0
0,0,0,0,0,0,0.00027599,-0.0011182,1.4955e-36,3.9385e-05,-4.9368e-19,-9.0424e-22,1.3724,0.0012805,-0.0011193,2.2957e-34,0.0002771,-54.793,-268.83,-97.258,6.0549,-7.5839e-14,-1.3888e-16,196.56,-269,-97.258,-54.621,0,0.015406,0,1,1.875,0,-1.875,0
0,0,0,0,0,0,0.00027489,-0.001115,1.5027e-36,3.9181e-05,-5.0466e-19,-9.0025e-22,1.3688,0.0012767,-0.0011161,2.287e-34,0.00027599,-54.725,-268.11,-97.021,6.0235,-7.7526e-14,-1.3829e-16,195.97,-268.27,-97.021,-54.555,0,0.015412,0,1,1.88,0,-1.88,0
0,0,0,0,0,0,0.00027395,-0.0011123,1.4782e-36,3.9019e-05,-5.0202e-19,-8.572e-22,1.3657,0.0012734,-0.0011134,2.2696e-34,0.00027505,-54.664,-267.48,-96.815,5.9985,-7.7121e-14,-1.3168e-16,195.46,-267.65,-96.815,-54.495,0,0.015417,0,1,1.885,0,-1.885,0
0,0,0,0,0,0,0.00027301,-0.0011096,1.4537e-36,3.8856e-05,-4.9938e-19,-8.1416e-22,1.3625,0.0012701,-0.0011107,2.2522e-34,0.0002741,-54.603,-266.86,-96.61,5.9735,-7.6715e-14,-1.2506e-16,194.96,-267.03,-96.61,-54.435,0,0.015422,0,1,1.89,0,-1.89,0
0,0,0,0,0,0,0.00027207,-0.0011069,1.4292e-36,3.8693e-05,-4.9674e-19,-7.7112e-22,1.3593,0.0012668,-0.001108,2.2348e-34,0.00027316,-54.542,-266.24,-96.405,5.9485,-7.631e-14,-1.1845e-16,194.46,-266.41,-96.405,-54.375,0,0.015428,0,1,1.895,0,-1.895,0
0,0,0,0,0,0,0.00027114,-0.0011042,1.4046e-36,3.8531e-05,-4.941e-19,-7.2807e-22,1.3562,0.0012635,-0.0011052,2.2174e-34,0.00027222,-54.481,-265.62,-96.199,5.9235,-7.5905e-14,-1.1184e-16,193.95,-265.79,-96.199,-54.315,0,0.015433,0,1,1.9,0,-1.9,0
0,0,0,0,0,0,0.0002702,-0.0011014,1.3801e-36,3.8368e-05,-4.9146e-19,-6.8503e-22,1.353,0.0012603,-0.0011025,2.2e-34,0.00027127,-54.42,-265,-95.994,5.8985,-7.5499e-14,-1.0522e-16,193.45,-265.17,-95.994,-54.255,0,0.015438,0,1,1.905,0,-1.905,0
0,0,0,0,0,0,0.00026926,-0.0010987,1.3556e-36,3.8205e-05,-4.8882e-19,-6.4198e-22,1.3498,0.001257,-0.0010998,2.1826e-34,0.00027033,-54.359,-264.38,-95.789,5.8735,-7.5094e-14,-9.8609e-17,192.95,-264.54,-95.789,-54.195,0,0.015443,0,1,1.91,0,-1.91,0
0,0,0,0,0,0,0.00026832,-0.001096,1.331e-36,3.8042e-05,-4.8618e-19,-5.9894e-22,1.3467,0.0012537,-0.0010971,2.1652e-34,0.00026938,-54.298,-263.76,-95.583,5.8485,-7.4689e-14,-9.1995e-17,192.44,-263.92,-95.583,-54.135,0,0.015448,0,1,1.915,0,-1.915,0
0,0,0,0,0,0,0.00026738,-0.0010933,1.3065e-36,3.788e-05,-4.8354e-19,-5.5589e-22,1.3435,0.0012504,-0.0010944,2.1478e-34,0.00026844,-54.237,-263.14,-95.378,5.8235,-7.4283e-14,-8.5382e-17,191.94,-263.3,-95.378,-54.075,0,0.015454,0,1,1.92,0,-1.92,0
0,0,0,0,0,0,0.00026645,-0.0010906,1.282e-36,3.7717e-05,-4.809e-19,-5.1285e-22,1.3404,0.0012471,-0.0010916,2.1304e-34,0.00026749,-54.176,-262.52,-95.173,5.7985,-7.3878e-14,-7.8768e-17,191.43,-262.68,-95.173,-54.015,0,0.015459,0,1,1.925,0,-1.925,0
0,0,0,0,0,0,0.00026551,-0.0010879,1.2575e-36,3.7554e-05,-4.7826e-19,-4.6981e-22,1.3372,0.0012438,-0.0010889,2.113e-34,0.00026655,-54.115,-261.9,-94.968,5.7735,-7.3473e-14,-7.2155e-17,190.93,-262.06,-94.968,-53.955,0,0.015464,0,1,1.93,0,-1.93,0
0,0,0,0,0,0,0.00026457,-0.0010852,1.2329e-36,3.7392e-05,-4.7562e-19,-4.2676e-22,1.334,0.0012405,-0.0010862,2.0956e-34,0.00026561,-54.054,-261.28,-94.762,5.7484,-7.3067e-14,-6.5541e-17,190.43,-261.43,-94.762,-53.895,0,0.015469,0,1,1.935,0,-1.935,0
0,0,0,0,0,0,0.00026363,-0.0010824,1.2084e-36,3.7229e-05,-4.7298e-19,-3.8372e-22,1.3309,0.0012372,-0.0010835,2.0782e-34,0.00026466,-53.993,-260.65,-94.557,5.7234,-7.2662e-14,-5.8927e-17,189.92,-260.81,-94.557,-53.835,0,0.015474,0,1,1.94,0,-1.94,0
0,0,0,0,0,0,0.00026269,-0.0010797,1.1839e-36,3.7066e-05,-4.7034e-19,-3.4067e-22,1.3277,0.0012339,-0.0010808,2.0608e-34,0.00026372,-53.932,-260.03,-94.352,5.6984,-7.2257e-14,-5.2314e-17,189.42,-260.19,-94.352,-53.775,0,0.01548,0,1,1.945,0,-1.945,0
0,0,0,0,0,0,0.00026176,-0.001077,1.1594e-36,3.6904e-05,-4.677e-19,-2.9763e-22,1.3246,0.0012307,-0.001078,2.0434e-34,0.00026277,-53.871,-259.41,-94.146,5.6734,-7.1851e-14,-4.57e-17,188.91,-259.57,-94.146,-53.715,0,0.015485,0,1,1.95,0,-1.95,0
0,0,0,0,0,0,0.00026082,-0.0010743,1.1348e-36,3.6741e-05,-4.6506e-19,-2.5458e-22,1.3214,0.0012274,-0.0010753,2.026e-34,0.00026183,-53.81,-258.79,-93.941,5.6484,-7.1446e-14,-3.9087e-17,188.41,-258.95,-93.941,-53.655,0,0.01549,0,1,1.955,0,-1.955,0
0,0,0,0,0,0,0.00025988,-0.0010716,1.1103e-36,3.6578e-05,-4.6242e-19,-2.1154e-22,1.3182,0.0012241,-0.0010726,2.0085e-34,0.00026089,-53.749,-258.17,-93.736,5.6234,-7.1041e-14,-3.2473e-17,187.91,-258.33,-93.736,-53.595,0,0.015495,0,1,1.96,0,-1.96,0
0,0,0,0,0,0,0.00025894,-0.0010689,1.0858e-36,3.6415e-05,-4.5978e-19,-1.6849e-22,1.3151,0.0012208,-0.0010699,1.9911e-34,0.00025994,-53.689,-257.55,-93.53,5.5984,-7.0635e-14,-2.586e-17,187.4,-257.7,-93.53,-53.535,0,0.0155,0,1,1.965,0,-1.965,0
0,0,0,0,0,0,0.000258,-0.0010662,1.0613e-36,3.6253e-05,-4.5714e-19,-1.2545e-22,1.3119,0.0012175,-0.0010671,1.9737e-34,0.000259,-53.628,-256.93,-93.325,5.5734,-7.023e-14,-1.9246e-17,186.9,-257.08,-93.325,-53.475,0,0.015506,0,1,1.97,0,-1.97,0
0,0,0,0,0,0,0.00025707,-0.0010634,1.0367e-36,3.609e-05,-4.545e-19,-8.2405e-23,1.3088,0.0012142,-0.0010644,1.9563e-34,0.00025805,-53.567,-256.31,-93.12,5.5484,-6.9825e-14,-1.2633e-17,186.39,-256.46,-93.12,-53.415,0,0.015511,0,1,1.975,0,-1.975,0
0,0,0,0,0,0,0.00025613,-0.0010607,1.0122e-36,3.5927e-05,-4.5186e-19,-3.9361e-23,1.3056,0.0012109,-0.0010617,1.9389e-34,0.00025711,-53.506,-255.69,-92.914,5.5234,-6.9419e-14,-6.019e-18,185.89,-255.84,-92.914,-53.355,0,0.015516,0,1,1.98,0,-1.98,0
0,0,0,0,0,0,0.00025519,-0.001058,9.8768e-37,3.5765e-05,-4.4922e-19,3.6833e-24,1.3024,0.0012076,-0.001059,1.9215e-34,0.00025616,-53.445,-255.07,-92.709,5.4984,-6.9014e-14,5.946e-19,185.39,-255.22,-92.709,-53.295,0,0.015521,0,1,1.985,0,-1.985,0
0,0,0,0,0,0,0.00025425,-0.0010553,9.6316e-37,3.5602e-05,-4.4658e-19,4.6728e-23,1.2993,0.0012043,-0.0010563,1.9041e-34,0.00025522,-53.384,-254.45,-92.504,5.4733,-6.8609e-14,7.2082e-18,184.88,-254.59,-92.504,-53.235,0,0.015526,0,1,1.99,0,-1.99,0
0,0,0,0,0,0,0.00025331,-0.0010526,9.3863e-37,3.5439e-05,-4.4394e-19,8.9772e-23,1.2961,0.0012011,-0.0010535,1.8867e-34,0.00025428,-53.323,-253.82,-92.298,5.4483,-6.8203e-14,1.3822e-17,184.38,-253.97,-92.298,-53.174,0,0.015532,0,1,1.995,0,-1.995,0
0,0,0,0,0,0,0.00025238,-0.0010499,9.1411e-37,3.5277e-05,-4.413e-19,1.3282e-22,1.293,0.0011978,-0.0010508,1.8693e-34,0.00025333,-53.262,-253.2,-92.093,5.4233,-6.7798e-14,2.0435e-17,183.87,-253.35,-92.093,-53.114,0,0.015537,0,1,2,0,-2,0
0,0,0,0,0,0,0.00025144,-0.0010472,8.8958e-37,3.5114e-05,-4.3866e-19,1.7586e-22,1.2898,0.0011945,-0.0010481,1.8519e-34,0.00025239,-53.201,-252.58,-91.888,5.3983,-6.7392e-14,2.7049e-17,183.37,-252.73,-91.888,-53.054,0,0.015542,0,1,2.005,0,-2.005,0
0,0,0,0,0,0,0.0002505,-0.0010444,8.6505e-37,3.4951e-05,-4.3602e-19,2.189e-22,1.2866,0.0011912,-0.0010454,1.8345e-34,0.00025144,-53.14,-251.96,-91.682,5.3733,-6.6987e-14,3.3662e-17,182.87,-252.11,-91.682,-52.994,0,0.015547,0,1,2.01,0,-2.01,0
0,0,0,0,0,0,0.00024956,-0.0010417,8.4053e-37,3.4788e-05,-4.3338e-19,2.6195e-22,1.2835,0.0011879,-0.0010427,1.8171e-34,0.0002505,-53.079,-251.34,-91.477,5.3483,-6.6582e-14,4.0276e-17,182.36,-251.49,-91.477,-52.934,0,0.015552,0,1,2.015,0,-2.015,0
0,0,0,0,0,0,0.00024862,-0.001039,8.16e-37,3.4626e-05,-4.3074e-19,3.0499e-22,1.2803,0.0011846,-0.0010399,1.7997e-34,0.00024956,-53.018,-250.72,-91.272,5.3233,-6.6176e-14,4.689e-17,181.86,-250.86,-91.272,-52.874,0,0.015558,0,1,2.02,0,-2.02,0
0,0,0,0,0,0,0.00024769,-0.0010363,7.9147e-37,3.4463e-05,-4.281e-19,3.4804e-22,1.2772,0.0011813,-0.0010372,1.7823e-34,0.00024861,-52.957,-250.1,-91.066,5.2983,-6.5771e-14,5.3503e-17,181.35,-250.24,-91.066,-52.814,0,0.015563,0,1,2.025,0,-2.025,0
0,0,0,0,0,0,0.00024675,-0.0010336,7.6695e-37,3.43e-05,-4.2546e-19,3.9108e-22,1.274,0.001178,-0.0010345,1.7649e-34,0.00024767,-52.896,-249.48,-90.861,5.2733,-6.5366e-14,6.0117e-17,180.85,-249.62,-90.861,-52.754,0,0.015568,0,1,2.03,0,-2.03,0
0,0,0,0,0,0,0.00024581,-0.0010309,7.4242e-37,3.4138e-05,-4.2282e-19,4.3413e-22,1.2708,0.0011747,-0.0010318,1.7475e-34,0.00024672,-52.835,-248.86,-90.656,5.2483,-6.496e-14,6.673e-17,180.35,-249,-90.656,-52.694,0,0.015573,0,1,2.035,0,-2.035,0
0,0,0,0,0,0,0.00024487,-0.0010281,7.179e-37,3.3975e-05,-4.2018e-19,4.7717e-22,1.2677,0.0011715,-0.0010291,1.73e-34,0.00024578,-52.774,-248.24,-90.45,5.2233,-6.4555e-14,7.3344e-17,179.84,-248.38,-90.45,-52.634,0,0.015578,0,1,2.04,0,-2.04,0
0,0,0,0,0,0,0.00024393,-0.0010254,6.9337e-37,3.3812e-05,-4.1754e-19,5.2022e-22,1.2645,0.0011682,-0.0010263,1.7126e-34,0.00024483,-52.713,-247.62,-90.245,5.1982,-6.415e-14,7.9957e-17,179.34,-247.75,-90.245,-52.574,0,0.015584,0,1,2.045,0,-2.045,0
0,0,0,0,0,0,0.00024299,-0.0010227,6.6884e-37,3.365e-05,-4.149e-19,5.6326e-22,1.2614,0.0011649,-0.0010236,1.6952e-34,0.00024389,-52.652,-246.99,-90.04,5.1732,-6.3744e-14,8.6571e-17,178.83,-247.13,-90.04,-52.514,0,0.015589,0,1,2.05,0,-2.05,0
0,0,0,0,0,0,0.00024206,-0.00102,6.4432e-37,3.3487e-05,-4.1226e-19,6.0631e-22,1.2582,0.0011616,-0.0010209,1.6778e-34,0.00024295,-52.591,-246.37,-89.834,5.1482,-6.3339e-14,9.3185e-17,178.33,-246.51,-89.834,-52.454,0,0.015594,0,1,2.055,0,-2.055,0
0,0,0,0,0,0,0.00024112,-0.0010173,6.1979e-37,3.3324e-05,-4.0962e-19,6.4935e-22,1.255,0.0011583,-0.0010182,1.6604e-34,0.000242,-52.53,-245.75,-89.629,5.1232,-6.2934e-14,9.9798e-17,177.83,-245.89,-89.629,-52.394,0,0.015599,0,1,2.06,0,-2.06,0
0,0,0,0,0,0,0.00024018,-0.0010146,5.9527e-37,3.3161e-05,-4.0698e-19,6.9239e-22,1.2519,0.001155,-0.0010155,1.643e-34,0.00024106,-52.469,-245.13,-89.424,5.0982,-6.2528e-14,1.0641e-16,177.32,-245.27,-89.424,-52.334,0,0.015604,0,1,2.065,0,-2.065,0
0,0,0,0,0,0,0.00023924,-0.0010119,5.7074e-37,3.2999e-05,-4.0434e-19,7.3544e-22,1.2487,0.0011517,-0.0010127,1.6256e-34,0.00024011,-52.408,-244.51,-89.218,5.0732,-6.2123e-14,1.1303e-16,176.82,-244.64,-89.218,-52.274,0,0.01561,0,1,2.07,0,-2.07,0
0,0,0,0,0,0,0.0002383,-0.0010091,5.4621e-37,3.2836e-05,-4.017e-19,7.7848e-22,1.2456,0.0011484,-0.00101,1.6082e-34,0.00023917,-52.347,-243.89,-89.013,5.0482,-6.1718e-14,1.1964e-16,176.31,-244.02,-89.013,-52.214,0,0.015615,0,1,2.075,0,-2.075,0
0,0,0,0,0,0,0.00023737,-0.0010064,5.2169e-37,3.2673e-05,-3.9906e-19,8.2153e-22,1.2424,0.0011452,-0.0010073,1.5908e-34,0.00023823,-52.286,-243.27,-88.808,5.0232,-6.1312e-14,1.2625e-16,175.81,-243.4,-88.808,-52.154,0,0.01562,0,1,2.08,0,-2.08,0
0,0,0,0,0,0,0.00023643,-0.0010037,4.9716e-37,3.2511e-05,-3.9642e-19,8.6457e-22,1.2392,0.0011419,-0.0010046,1.5734e-34,0.00023728,-52.225,-242.65,-88.602,4.9982,-6.0907e-14,1.3287e-16,175.31,-242.78,-88.602,-52.094,0,0.015625,0,1,2.085,0,-2.085,0
0,0,0,0,0,0,0.00023549,-0.001001,4.7264e-37,3.2348e-05,-3.9378e-19,9.0761e-22,1.2361,0.0011386,-0.0010019,1.556e-34,0.00023634,-52.164,-242.03,-88.397,4.9732,-6.0502e-14,1.3948e-16,174.8,-242.16,-88.397,-52.034,0,0.01563,0,1,2.09,0,-2.09,0
0,0,0,0,0,0,0.00023455,-0.00099829,4.4811e-37,3.2185e-05,-3.9114e-19,9.5066e-22,1.2329,0.0011353,-0.00099913,1.5386e-34,0.00023539,-52.103,-241.41,-88.192,4.9482,-6.0096e-14,1.4609e-16,174.3,-241.54,-88.192,-51.974,0,0.015636,0,1,2.095,0,-2.095,0
0,0,0,0,0,0,0.00023361,-0.00099557,4.2358e-37,3.2022e-05,-3.885e-19,9.937e-22,1.2298,0.001132,-0.00099641,1.5212e-34,0.00023445,-52.043,-240.79,-87.986,4.9232,-5.9691e-14,1.5271e-16,173.8,-240.91,-87.986,-51.914,0,0.015641,0,1,2.1,0,-2.1,0
0,0,0,0,0,0,0.00023268,-0.00099286,3.9906e-37,3.186e-05,-3.8586e-19,1.0367e-21,1.2266,0.0011287,-0.00099369,1.5038e-34,0.0002335,-51.982,-240.16,-87.781,4.8981,-5.9286e-14,1.5932e-16,173.29,-240.29,-87.781,-51.854,0,0.015646,0,1,2.105,0,-2.105,0
0,0,0,0,0,0,0.00023174,-0.00099014,3.7453e-37,3.1697e-05,-3.8322e-19,1.0798e-21,1.2234,0.0011254,-0.00099097,1.4864e-34,0.00023256,-51.921,-239.54,-87.576,4.8731,-5.888e-14,1.6593e-16,172.79,-239.67,-87.576,-51.794,0,0.015651,0,1,2.11,0,-2.11,0
0,0,0,0,0,0,0.0002308,-0.00098743,3.5001e-37,3.1534e-05,-3.8058e-19,1.1228e-21,1.2203,0.0011221,-0.00098825,1.469e-34,0.00023162,-51.86,-238.92,-87.37,4.8481,-5.8475e-14,1.7255e-16,172.28,-239.05,-87.37,-51.734,0,0.015656,0,1,2.115,0,-2.115,0
0,0,0,0,0,0,0.00022986,-0.00098472,3.2548e-37,3.1372e-05,-3.7794e-19,1.1659e-21,1.2171,0.0011188,-0.00098553,1.4515e-34,0.00023067,-51.799,-238.3,-87.165,4.8231,-5.807e-14,1.7916e-16,171.78,-238.43,-87.165,-51.674,0,0.015662,0,1,2.12,0,-2.12,0
0,0,0,0,0,0,0.00022892,-0.000982,3.0095e-37,3.1209e-05,-3.7529e-19,1.2089e-21,1.214,0.0011156,-0.0009828,1.4341e-34,0.00022973,-51.738,-237.68,-86.96,4.7981,-5.7664e-14,1.8577e-16,171.28,-237.8,-86.96,-51.614,0,0.015667,0,1,2.125,0,-2.125,0
0,0,0,0,0,0,0.00022799,-0.00097929,2.7643e-37,3.1046e-05,-3.7265e-19,1.252e-21,1.2108,0.0011123,-0.00098008,1.4167e-34,0.00022878,-51.677,-237.06,-86.754,4.7731,-5.7259e-14,1.9239e-16,170.77,-237.18,-86.754,-51.554,0,0.015672,0,1,2.13,0,-2.13,0
0,0,0,0,0,0,0.00022712,-0.00097677,2.6504e-37,3.09e-05,-3.6549e-19,1.2715e-21,1.2078,0.0011092,-0.00097756,1.4139e-34,0.00022792,-51.618,-236.48,-86.563,4.7506,-5.6158e-14,1.954e-16,170.31,-236.61,-86.563,-51.496,0,0.015677,0,1,2.135,0,-2.135,0
0,0,0,0,0,0,0.00022641,-0.00097464,2.7914e-37,3.0786e-05,-3.4954e-19,1.2455e-21,1.2052,0.0011067,-0.00097543,1.4393e-34,0.0002272,-51.565,-235.99,-86.4,4.7331,-5.3708e-14,1.914e-16,169.91,-236.12,-86.4,-51.443,0,0.015682,0,1,2.14,0,-2.14,0
0,0,0,0,0,0,0.0002257,-0.00097251,2.9325e-37,3.0672e-05,-3.3359e-19,1.2194e-21,1.2025,0.0011041,-0.0009733,1.4647e-34,0.00022648,-51.511,-235.5,-86.236,4.7156,-5.1257e-14,1.8741e-16,169.52,-235.63,-86.236,-51.39,0,0.015686,0,1,2.145,0,-2.145,0
0,0,0,0,0,0,0.00022498,-0.00097039,3.0736e-37,3.0558e-05,-3.1764e-19,1.1934e-21,1.1999,0.0011015,-0.00097117,1.4901e-34,0.00022576,-51.457,-235.02,-86.073,4.698,-4.8807e-14,1.8342e-16,169.13,-235.14,-86.073,-51.337,0,0.015691,0,1,2.15,0,-2.15,0
0,0,0,0,0,0,0.00022427,-0.00096826,3.2146e-37,3.0444e-05,-3.017e-19,1.1673e-21,1.1972,0.001099,-0.00096903,1.5154e-34,0.00022505,-51.404,-234.53,-85.909,4.6805,-4.6356e-14,1.7943e-16,168.73,-234.65,-85.909,-51.284,0,0.015695,0,1,2.155,0,-2.155,0
0,0,0,0,0,0,0.00022356,-0.00096613,3.3557e-37,3.033e-05,-2.8575e-19,1.1413e-21,1.1946,0.0010964,-0.0009669,1.5408e-34,0.00022433,-51.35,-234.04,-85.746,4.6629,-4.3906e-14,1.7543e-16,168.34,-234.16,-85.746,-51.231,0,0.0157,0,1,2.16,0,-2.16,0
0,0,0,0,0,0,0.00022284,-0.000964,3.4968e-37,3.0216e-05,-2.698e-19,1.1152e-21,1.1919,0.0010939,-0.00096477,1.5662e-34,0.00022361,-51.297,-233.55,-85.582,4.6454,-4.1455e-14,1.7144e-16,167.95,-233.67,-85.582,-51.178,0,0.015705,0,1,2.165,0,-2.165,0
0,0,0,0,0,0,0.00022213,-0.00096187,3.6378e-37,3.0102e-05,-2.5385e-19,1.0892e-21,1.1893,0.0010913,-0.00096264,1.5916e-34,0.00022289,-51.243,-233.06,-85.419,4.6279,-3.9005e-14,1.6745e-16,167.56,-233.18,-85.419,-51.125,0,0.015709,0,1,2.17,0,-2.17,0
0,0,0,0,0,0,0.00022141,-0.00095974,3.7789e-37,2.9987e-05,-2.379e-19,1.0631e-21,1.1866,0.0010887,-0.00096051,1.617e-34,0.00022218,-51.189,-232.57,-85.256,4.6103,-3.6554e-14,1.6346e-16,167.16,-232.69,-85.256,-51.072,0,0.015714,0,1,2.175,0,-2.175,0
0,0,0,0,0,0,0.0002207,-0.00095762,3.92e-37,2.9873e-05,-2.2196e-19,1.0371e-21,1.184,0.0010862,-0.00095837,1.6424e-34,0.00022146,-51.136,-232.08,-85.092,4.5928,-3.4104e-14,1.5946e-16,166.77,-232.2,-85.092,-51.019,0,0.015718,0,1,2.18,0,-2.18,0
0,0,0,0,0,0,0.00021999,-0.00095549,4.061e-37,2.9759e-05,-2.0601e-19,1.011e-21,1.1813,0.0010836,-0.00095624,1.6678e-34,0.00022074,-51.082,-231.59,-84.929,4.5753,-3.1653e-14,1.5547e-16,166.38,-231.71,-84.929,-50.966,0,0.015723,0,1,2.185,0,-2.185,0
0,0,0,0,0,0,0.00021927,-0.00095336,4.2021e-37,2.9645e-05,-1.9006e-19,9.8496e-22,1.1787,0.0010811,-0.00095411,1.6932e-34,0.00022002,-51.029,-231.1,-84.765,4.5577,-2.9203e-14,1.5148e-16,165.99,-231.22,-84.765,-50.913,0,0.015727,0,1,2.19,0,-2.19,0
0,0,0,0,0,0,0.00021856,-0.00095123,4.3431e-37,2.9531e-05,-1.7411e-19,9.5891e-22,1.1761,0.0010785,-0.00095198,1.7186e-34,0.0002193,-50.975,-230.61,-84.602,4.5402,-2.6752e-14,1.4749e-16,165.59,-230.73,-84.602,-50.86,0,0.015732,0,1,2.195,0,-2.195,0
0,0,0,0,0,0,0.00021785,-0.0009491,4.4842e-37,2.9417e-05,-1.5816e-19,9.3286e-22,1.1734,0.0010759,-0.00094984,1.744e-34,0.00021859,-50.921,-230.12,-84.438,4.5227,-2.4302e-14,1.4349e-16,165.2,-230.23,-84.438,-50.807,0,0.015737,0,1,2.2,0,-2.2,0
0,0,0,0,0,0,0.00021713,-0.00094697,4.6253e-37,2.9303e-05,-1.4222e-19,9.0681e-22,1.1708,0.0010734,-0.00094771,1.7694e-34,0.00021787,-50.868,-229.63,-84.275,4.5051,-2.1851e-14,1.395e-16,164.81,-229.74,-84.275,-50.754,0,0.015741,0,1,2.205,0,-2.205,0
0,0,0,0,0,0,0.00021642,-0.00094485,4.7663e-37,2.9189e-05,-1.2627e-19,8.8076e-22,1.1681,0.0010708,-0.00094558,1.7948e-34,0.00021715,-50.814,-229.14,-84.111,4.4876,-1.9401e-14,1.3551e-16,164.42,-229.25,-84.111,-50.701,0,0.015746,0,1,2.21,0,-2.21,0
0,0,0,0,0,0,0.0002157,-0.00094272,4.9074e-37,2.9075e-05,-1.1032e-19,8.5471e-22,1.1655,0.0010682,-0.00094345,1.8201e-34,0.00021643,-50.761,-228.65,-83.948,4.47,-1.695e-14,1.3152e-16,164.02,-228.76,-83.948,-50.648,0,0.01575,0,1,2.215,0,-2.215,0
0,0,0,0,0,0,0.00021499,-0.00094059,5.0485e-37,2.8961e-05,-9.4371e-20,8.2866e-22,1.1628,0.0010657,-0.00094132,1.8455e-34,0.00021572,-50.707,-228.16,-83.784,4.4525,-1.45e-14,1.2752e-16,163.63,-228.27,-83.784,-50.595,0,0.015755,0,1,2.22,0,-2.22,0
0,0,0,0,0,0,0.00021428,-0.00093846,5.1895e-37,2.8847e-05,-7.8423e-20,8.0261e-22,1.1602,0.0010631,-0.00093918,1.8709e-34,0.000215,-50.653,-227.67,-83.621,4.435,-1.2049e-14,1.2353e-16,163.24,-227.78,-83.621,-50.542,0,0.015759,0,1,2.225,0,-2.225,0
0,0,0,0,0,0,0.00021356,-0.00093633,5.3306e-37,2.8733e-05,-6.2474e-20,7.7655e-22,1.1575,0.0010606,-0.00093705,1.8963e-34,0.00021428,-50.6,-227.18,-83.458,4.4174,-9.5989e-15,1.1954e-16,162.85,-227.29,-83.458,-50.489,0,0.015764,0,1,2.23,0,-2.23,0
0,0,0,0,0,0,0.00021285,-0.0009342,5.4717e-37,2.8618e-05,-4.6527e-20,7.505e-22,1.1549,0.001058,-0.00093492,1.9217e-34,0.00021356,-50.546,-226.69,-83.294,4.3999,-7.1484e-15,1.1555e-16,162.45,-226.8,-83.294,-50.436,0,0.015769,0,1,2.235,0,-2.235,0
0,0,0,0,0,0,0.00021213,-0.00093208,5.6127e-37,2.8504e-05,-3.0578e-20,7.2445e-22,1.1522,0.0010554,-0.00093279,1.9471e-34,0.00021285,-50.492,-226.21,-83.131,4.3824,-4.6979e-15,1.1155e-16,162.06,-226.31,-83.131,-50.383,0,0.015773,0,1,2.24,0,-2.24,0
0,0,0,0,0,0,0.00021142,-0.00092995,5.7538e-37,2.839e-05,-1.463e-20,6.984e-22,1.1496,0.0010529,-0.00093065,1.9725e-34,0.00021213,-50.439,-225.72,-82.967,4.3648,-2.2475e-15,1.0756e-16,161.67,-225.82,-82.967,-50.33,0,0.015778,0,1,2.245,0,-2.245,0
0,0,0,0,0,0,0.00021071,-0.00092782,5.8949e-37,2.8276e-05,1.3183e-21,6.7235e-22,1.1469,0.0010503,-0.00092852,1.9979e-34,0.00021141,-50.385,-225.23,-82.804,4.3473,2.0309e-16,1.0357e-16,161.27,-225.33,-82.804,-50.277,0,0.015782,0,1,2.25,0,-2.25,0
0,0,0,0,0,0,0.00020999,-0.00092569,6.0359e-37,2.8162e-05,1.7267e-20,6.463e-22,1.1443,0.0010478,-0.00092639,2.0233e-34,0.00021069,-50.332,-224.74,-82.64,4.3298,2.6536e-15,9.9576e-17,160.88,-224.84,-82.64,-50.224,0,0.015787,0,1,2.255,0,-2.255,0
0,0,0,0,0,0,0.00020928,-0.00092356,6.177e-37,2.8048e-05,3.3215e-20,6.2025e-22,1.1417,0.0010452,-0.00092426,2.0487e-34,0.00020997,-50.278,-224.25,-82.477,4.3122,5.1041e-15,9.5583e-17,160.49,-224.35,-82.477,-50.171,0,0.015791,0,1,2.26,0,-2.26,0
0,0,0,0,0,0,0.00020857,-0.00092143,6.3181e-37,2.7934e-05,4.9163e-20,5.942e-22,1.139,0.0010426,-0.00092213,2.0741e-34,0.00020926,-50.224,-223.76,-82.313,4.2947,7.5546e-15,9.1591e-17,160.1,-223.86,-82.313,-50.118,0,0.015796,0,1,2.265,0,-2.265,0
0,0,0,0,0,0,0.00020785,-0.00091931,6.4591e-37,2.782e-05,6.5111e-20,5.6815e-22,1.1364,0.0010401,-0.00091999,2.0995e-34,0.00020854,-50.171,-223.27,-82.15,4.2771,1.0005e-14,8.7598e-17,159.7,-223.37,-82.15,-50.065,0,0.015801,0,1,2.27,0,-2.27,0
0,0,0,0,0,0,0.00020714,-0.00091718,6.6002e-37,2.7706e-05,8.1059e-20,5.4209e-22,1.1337,0.0010375,-0.00091786,2.1249e-34,0.00020782,-50.117,-222.78,-81.986,4.2596,1.2456e-14,8.3606e-17,159.31,-222.88,-81.986,-50.012,0,0.015805,0,1,2.275,0,-2.275,0
0,0,0,0,0,0,0.00020642,-0.00091505,6.7413e-37,2.7592e-05,9.7007e-20,5.1604e-22,1.1311,0.001035,-0.00091573,2.1502e-34,0.0002071,-50.064,-222.29,-81.823,4.2421,1.4906e-14,7.9613e-17,158.92,-222.39,-81.823,-49.959,0,0.01581,0,1,2.28,0,-2.28,0
0,0,0,0,0,0,0.00020571,-0.00091292,6.8823e-37,2.7478e-05,1.1296e-19,4.8999e-22,1.1284,0.0010324,-0.0009136,2.1756e-34,0.00020639,-50.01,-221.8,-81.66,4.2245,1.7357e-14,7.5621e-17,158.53,-221.9,-81.66,-49.906,0,0.015814,0,1,2.285,0,-2.285,0
0,0,0,0,0,0,0.000205,-0.00091079,7.0234e-37,2.7364e-05,1.289e-19,4.6394e-22,1.1258,0.0010298,-0.00091147,2.201e-34,0.00020567,-49.956,-221.31,-81.496,4.207,1.9807e-14,7.1628e-17,158.13,-221.41,-81.496,-49.853,0,0.015819,0,1,2.29,0,-2.29,0
0,0,0,0,0,0,0.00020428,-0.00090866,7.1645e-37,2.7249e-05,1.4485e-19,4.3789e-22,1.1231,0.0010273,-0.00090933,2.2264e-34,0.00020495,-49.903,-220.82,-81.333,4.1895,2.2258e-14,6.7636e-17,157.74,-220.92,-81.333,-49.8,0,0.015824,0,1,2.295,0,-2.295,0
0,0,0,0,0,0,0.00020357,-0.00090654,7.3055e-37,2.7135e-05,1.608e-19,4.1184e-22,1.1205,0.0010247,-0.0009072,2.2518e-34,0.00020423,-49.849,-220.33,-81.169,4.1719,2.4708e-14,6.3643e-17,157.35,-220.43,-81.169,-49.747,0,0.015828,0,1,2.3,0,-2.3,0
0,0,0,0,0,0,0.00020286,-0.00090441,7.4466e-37,2.7021e-05,1.7675e-19,3.8579e-22,1.1178,0.0010221,-0.00090507,2.2772e-34,0.00020352,-49.796,-219.84,-81.006,4.1544,2.7159e-14,5.9651e-17,156.96,-219.94,-81.006,-49.694,0,0.015833,0,1,2.305,0,-2.305,0
0,0,0,0,0,0,0.00020214,-0.00090228,7.5876e-37,2.6907e-05,1.927e-19,3.5974e-22,1.1152,0.0010196,-0.00090294,2.3026e-34,0.0002028,-49.742,-219.35,-80.842,4.1368,2.9609e-14,5.5658e-17,156.56,-219.45,-80.842,-49.641,0,0.015837,0,1,2.31,0,-2.31,0
0,0,0,0,0,0,0.00020143,-0.00090015,7.7287e-37,2.6793e-05,2.0864e-19,3.3369e-22,1.1125,0.001017,-0.0009008,2.328e-34,0.00020208,-49.688,-218.86,-80.679,4.1193,3.2059e-14,5.1666e-17,156.17,-218.96,-80.679,-49.588,0,0.015842,0,1,2.315,0,-2.315,0
0,0,0,0,0,0,0.00020071,-0.00089802,7.8698e-37,2.6679e-05,2.2459e-19,3.0764e-22,1.1099,0.0010145,-0.00089867,2.3534e-34,0.00020136,-49.635,-218.37,-80.515,4.1018,3.451e-14,4.7674e-17,155.78,-218.47,-80.515,-49.535,0,0.015846,0,1,2.32,0,-2.32,0
0,0,0,0,0,0,0.0002,-0.00089589,8.0108e-37,2.6565e-05,2.4054e-19,2.8158e-22,1.1073,0.0010119,-0.00089654,2.3788e-34,0.00020064,-49.581,-217.88,-80.352,4.0842,3.696e-14,4.3681e-17,155.39,-217.98,-80.352,-49.482,0,0.015851,0,1,2.325,0,-2.325,0
0,0,0,0,0,0,0.00019929,-0.00089377,8.1519e-37,2.6451e-05,2.5649e-19,2.5553e-22,1.1046,0.0010093,-0.00089441,2.4042e-34,0.00019993,-49.527,-217.4,-80.189,4.0667,3.9411e-14,3.9689e-17,154.99,-217.49,-80.189,-49.429,0,0.015856,0,1,2.33,0,-2.33,0
0,0,0,0,0,0,0.00019857,-0.00089164,8.293e-37,2.6337e-05,2.7244e-19,2.2948e-22,1.102,0.0010068,-0.00089228,2.4296e-34,0.00019921,-49.474,-216.91,-80.025,4.0492,4.1861e-14,3.5696e-17,154.6,-217,-80.025,-49.376,0,0.01586,0,1,2.335,0,-2.335,0
0,0,0,0,0,0,0.00019786,-0.00088951,8.434e-37,2.6223e-05,2.8839e-19,2.0343e-22,1.0993,0.0010042,-0.00089014,2.455e-34,0.00019849,-49.42,-216.42,-79.862,4.0316,4.4312e-14,3.1704e-17,154.21,-216.51,-79.862,-49.323,0,0.015865,0,1,2.34,0,-2.34,0
0,0,0,0,0,0,0.00019715,-0.00088738,8.5751e-37,2.6109e-05,3.0433e-19,1.7738e-22,1.0967,0.0010017,-0.00088801,2.4803e-34,0.00019777,-49.367,-215.93,-79.698,4.0141,4.6762e-14,2.7711e-17,153.81,-216.02,-79.698,-49.27,0,0.015869,0,1,2.345,0,-2.345,0
0,0,0,0,0,0,0.00019643,-0.00088525,8.7162e-37,2.5995e-05,3.2028e-19,1.5133e-22,1.094,0.0009991,-0.00088588,2.5057e-34,0.00019706,-49.313,-215.44,-79.535,3.9966,4.9213e-14,2.3719e-17,153.42,-215.53,-79.535,-49.217,0,0.015874,0,1,2.35,0,-2.35,0
0,0,0,0,0,0,0.00019572,-0.00088313,8.8572e-37,2.588e-05,3.3623e-19,1.2528e-22,1.0914,0.00099654,-0.00088375,2.5311e-34,0.00019634,-49.259,-214.95,-79.371,3.979,5.1663e-14,1.9726e-17,153.03,-215.04,-79.371,-49.164,0,0.015878,0,1,2.355,0,-2.355,0
0,0,0,0,0,0,0.000195,-0.000881,8.9983e-37,2.5766e-05,3.5218e-19,9.9228e-23,1.0887,0.00099398,-0.00088161,2.5565e-34,0.00019562,-49.206,-214.46,-79.208,3.9615,5.4114e-14,1.5734e-17,152.64,-214.55,-79.208,-49.111,0,0.015883,0,1,2.36,0,-2.36,0
0,0,0,0,0,0,0.00019429,-0.00087887,9.1394e-37,2.5652e-05,3.6813e-19,7.3176e-23,1.0861,0.00099141,-0.00087948,2.5819e-34,0.0001949,-49.152,-213.97,-79.044,3.9439,5.6564e-14,1.1741e-17,152.24,-214.06,-79.044,-49.058,0,0.015888,0,1,2.365,0,-2.365,0
0,0,0,0,0,0,0.00019358,-0.00087674,9.2804e-37,2.5538e-05,3.8407e-19,4.7126e-23,1.0834,0.00098885,-0.00087735,2.6073e-34,0.00019419,-49.099,-213.48,-78.881,3.9264,5.9015e-14,7.7486e-18,151.85,-213.57,-78.881,-49.005,0,0.015892,0,1,2.37,0,-2.37,0
0,0,0,0,0,0,0.00019286,-0.00087461,9.4215e-37,2.5424e-05,4.0002e-19,2.1074e-23,1.0808,0.00098629,-0.00087522,2.6327e-34,0.00019347,-49.045,-212.99,-78.717,3.9089,6.1465e-14,3.756e-18,151.46,-213.08,-78.717,-48.952,0,0.015897,0,1,2.375,0,-2.375,0
0,0,0,0,0,0,0.00019215,-0.00087248,9.5626e-37,2.531e-05,4.1597e-19,-4.9776e-24,1.0781,0.00098373,-0.00087309,2.6581e-34,0.00019275,-48.991,-212.5,-78.554,3.8913,6.3916e-14,-2.3653e-19,151.07,-212.59,-78.554,-48.899,0,0.015901,0,1,2.38,0,-2.38,0
0,0,0,0,0,0,0.00019143,-0.00087036,9.7036e-37,2.5196e-05,4.3192e-19,-3.1028e-23,1.0755,0.00098117,-0.00087095,2.6835e-34,0.00019203,-48.938,-212.01,-78.391,3.8738,6.6366e-14,-4.2289e-18,150.67,-212.1,-78.391,-48.846,0,0.015906,0,1,2.385,0,-2.385,0
0,0,0,0,0,0,0.00019072,-0.00086823,9.8447e-37,2.5082e-05,4.4787e-19,-5.708e-23,1.0728,0.00097861,-0.00086882,2.7089e-34,0.00019131,-48.884,-211.52,-78.227,3.8563,6.8817e-14,-8.2215e-18,150.28,-211.61,-78.227,-48.793,0,0.015911,0,1,2.39,0,-2.39,0
0,0,0,0,0,0,0.00019001,-0.0008661,9.9858e-37,2.4968e-05,4.6382e-19,-8.313e-23,1.0702,0.00097605,-0.00086669,2.7343e-34,0.0001906,-48.831,-211.03,-78.064,3.8387,7.1267e-14,-1.2214e-17,149.89,-211.12,-78.064,-48.74,0,0.015915,0,1,2.395,0,-2.395,0
0,0,0,0,0,0,0.00018929,-0.00086397,1.0127e-36,2.4854e-05,4.7976e-19,-1.0918e-22,1.0676,0.00097349,-0.00086456,2.7597e-34,0.00018988,-48.777,-210.54,-77.9,3.8212,7.3718e-14,-1.6206e-17,149.5,-210.63,-77.9,-48.687,0,0.01592,0,1,2.4,0,-2.4,0
0,0,0,0,0,0,0.00018865,-0.00086202,1.0142e-36,2.4753e-05,4.8166e-19,-1.2802e-22,1.0651,0.00097115,-0.0008626,2.7861e-34,0.00018923,-48.725,-210.09,-77.749,3.8057,7.4009e-14,-1.9101e-17,149.14,-210.18,-77.749,-48.636,0,0.015924,0,1,2.405,0,-2.405,0
0,0,0,0,0,0,0.00018811,-0.00086033,9.972e-37,2.4671e-05,4.6283e-19,-1.362e-22,1.0628,0.00096913,-0.00086091,2.8142e-34,0.00018869,-48.676,-209.7,-77.617,3.7931,7.1115e-14,-2.0377e-17,148.83,-209.79,-77.617,-48.587,0,0.015928,0,1,2.41,0,-2.41,0
0,0,0,0,0,0,0.00018756,-0.00085864,9.8018e-37,2.4589e-05,4.44e-19,-1.4439e-22,1.0605,0.00096711,-0.00085922,2.8423e-34,0.00018814,-48.627,-209.31,-77.484,3.7806,6.8222e-14,-2.1652e-17,148.52,-209.4,-77.484,-48.538,0,0.015932,0,1,2.415,0,-2.415,0
0,0,0,0,0,0,0.00018702,-0.00085695,9.6316e-37,2.4508e-05,4.2517e-19,-1.5258e-22,1.0583,0.0009651,-0.00085752,2.8703e-34,0.00018759,-48.578,-208.92,-77.352,3.768,6.5328e-14,-2.2928e-17,148.21,-209.01,-77.352,-48.49,0,0.015936,0,1,2.42,0,-2.42,0
0,0,0,0,0,0,0.00018648,-0.00085526,9.4614e-37,2.4426e-05,4.0633e-19,-1.6076e-22,1.056,0.00096308,-0.00085583,2.8984e-34,0.00018705,-48.529,-208.53,-77.219,3.7555,6.2434e-14,-2.4203e-17,147.9,-208.62,-77.219,-48.441,0,0.01594,0,1,2.425,0,-2.425,0
0,0,0,0,0,0,0.00018593,-0.00085357,9.2912e-37,2.4345e-05,3.875e-19,-1.6895e-22,1.0537,0.00096106,-0.00085414,2.9265e-34,0.0001865,-48.48,-208.14,-77.087,3.7429,5.954e-14,-2.5479e-17,147.59,-208.22,-77.087,-48.393,0,0.015944,0,1,2.43,0,-2.43,0
0,0,0,0,0,0,0.00018539,-0.00085188,9.1211e-37,2.4263e-05,3.6867e-19,-1.7714e-22,1.0515,0.00095905,-0.00085245,2.9545e-34,0.00018596,-48.431,-207.74,-76.954,3.7304,5.6647e-14,-2.6754e-17,147.28,-207.83,-76.954,-48.344,0,0.015948,0,1,2.435,0,-2.435,0
0,0,0,0,0,0,0.00018485,-0.00085019,8.9509e-37,2.4181e-05,3.4984e-19,-1.8533e-22,1.0492,0.00095703,-0.00085076,2.9826e-34,0.00018541,-48.383,-207.35,-76.822,3.7178,5.3753e-14,-2.803e-17,146.97,-207.44,-76.822,-48.296,0,0.015952,0,1,2.44,0,-2.44,0
0,0,0,0,0,0,0.0001843,-0.0008485,8.7807e-37,2.41e-05,3.3101e-19,-1.9351e-22,1.047,0.00095502,-0.00084906,3.0106e-34,0.00018487,-48.334,-206.96,-76.689,3.7053,5.0859e-14,-2.9305e-17,146.66,-207.05,-76.689,-48.247,0,0.015956,0,1,2.445,0,-2.445,0
0,0,0,0,0,0,0.00018376,-0.00084681,8.6105e-37,2.4018e-05,3.1218e-19,-2.017e-22,1.0447,0.000953,-0.00084737,3.0387e-34,0.00018432,-48.285,-206.57,-76.557,3.6927,4.7965e-14,-3.0581e-17,146.35,-206.66,-76.557,-48.198,0,0.015961,0,1,2.45,0,-2.45,0
0,0,0,0,0,0,0.00018322,-0.00084512,8.4403e-37,2.3936e-05,2.9334e-19,-2.0989e-22,1.0424,0.00095098,-0.00084568,3.0668e-34,0.00018378,-48.236,-206.18,-76.424,3.6802,4.5072e-14,-3.1856e-17,146.05,-206.26,-76.424,-48.15,0,0.015965,0,1,2.455,0,-2.455,0
0,0,0,0,0,0,0.00018268,-0.00084343,8.2702e-37,2.3855e-05,2.7451e-19,-2.1808e-22,1.0402,0.00094897,-0.00084399,3.0948e-34,0.00018323,-48.187,-205.79,-76.292,3.6676,4.2178e-14,-3.3131e-17,145.74,-205.87,-76.292,-48.101,0,0.015969,0,1,2.46,0,-2.46,0
0,0,0,0,0,0,0.00018213,-0.00084174,8.1e-37,2.3773e-05,2.5568e-19,-2.2626e-22,1.0379,0.00094695,-0.00084229,3.1229e-34,0.00018269,-48.138,-205.4,-76.159,3.6551,3.9284e-14,-3.4407e-17,145.43,-205.48,-76.159,-48.053,0,0.015973,0,1,2.465,0,-2.465,0
0,0,0,0,0,0,0.00018159,-0.00084005,7.9298e-37,2.3692e-05,2.3685e-19,-2.3445e-22,1.0356,0.00094494,-0.0008406,3.151e-34,0.00018214,-48.089,-205,-76.027,3.6426,3.639e-14,-3.5682e-17,145.12,-205.09,-76.027,-48.004,0,0.015977,0,1,2.47,0,-2.47,0
0,0,0,0,0,0,0.00018105,-0.00083836,7.7596e-37,2.361e-05,2.1802e-19,-2.4264e-22,1.0334,0.00094292,-0.00083891,3.179e-34,0.00018159,-48.04,-204.61,-75.894,3.63,3.3496e-14,-3.6958e-17,144.81,-204.7,-75.894,-47.956,0,0.015981,0,1,2.475,0,-2.475,0
0,0,0,0,0,0,0.0001805,-0.00083667,7.5894e-37,2.3528e-05,1.9919e-19,-2.5082e-22,1.0311,0.0009409,-0.00083722,3.2071e-34,0.00018105,-47.991,-204.22,-75.762,3.6175,3.0603e-14,-3.8233e-17,144.5,-204.3,-75.762,-47.907,0,0.015985,0,1,2.48,0,-2.48,0
0,0,0,0,0,0,0.00017996,-0.00083498,7.4193e-37,2.3447e-05,1.8035e-19,-2.5901e-22,1.0288,0.00093889,-0.00083552,3.2352e-34,0.0001805,-47.942,-203.83,-75.629,3.6049,2.7709e-14,-3.9509e-17,144.19,-203.91,-75.629,-47.859,0,0.015989,0,1,2.485,0,-2.485,0
0,0,0,0,0,0,0.00017942,-0.00083329,7.2491e-37,2.3365e-05,1.6152e-19,-2.672e-22,1.0266,0.00093687,-0.00083383,3.2632e-34,0.00017996,-47.893,-203.44,-75.497,3.5924,2.4815e-14,-4.0784e-17,143.88,-203.52,-75.497,-47.81,0,0.015993,0,1,2.49,0,-2.49,0
0,0,0,0,0,0,0.00017888,-0.0008316,7.0789e-37,2.3283e-05,1.4269e-19,-2.7539e-22,1.0243,0.00093486,-0.00083214,3.2913e-34,0.00017941,-47.844,-203.05,-75.364,3.5798,2.1921e-14,-4.206e-17,143.57,-203.13,-75.364,-47.761,0,0.015997,0,1,2.495,0,-2.495,0
0,0,0,0,0,0,0.00017833,-0.00082991,6.9087e-37,2.3202e-05,1.2386e-19,-2.8357e-22,1.022,0.00093284,-0.00083045,3.3194e-34,0.00017887,-47.795,-202.65,-75.232,3.5673,1.9027e-14,-4.3335e-17,143.26,-202.74,-75.232,-47.713,0,0.016001,0,1,2.5,0,-2.5,0
0,0,0,0,0,0,0.00017779,-0.00082822,6.7385e-37,2.312e-05,1.0503e-19,-2.9176e-22,1.0198,0.00093082,-0.00082875,3.3474e-34,0.00017832,-47.746,-202.26,-75.099,3.5547,1.6134e-14,-4.4611e-17,142.95,-202.35,-75.099,-47.664,0,0.016005,0,1,2.505,0,-2.505,0
0,0,0,0,0,0,0.00017725,-0.00082653,6.5683e-37,2.3039e-05,8.6195e-20,-2.9995e-22,1.0175,0.00092881,-0.00082706,3.3755e-34,0.00017778,-47.697,-201.87,-74.967,3.5422,1.324e-14,-4.5886e-17,142.64,-201.95,-74.967,-47.616,0,0.016009,0,1,2.51,0,-2.51,0
0,0,0,0,0,0,0.0001767,-0.00082484,6.3982e-37,2.2957e-05,6.7363e-20,-3.0814e-22,1.0153,0.00092679,-0.00082537,3.4035e-34,0.00017723,-47.648,-201.48,-74.834,3.5296,1.0346e-14,-4.7162e-17,142.33,-201.56,-74.834,-47.567,0,0.016013,0,1,2.515,0,-2.515,0
0,0,0,0,0,0,0.00017616,-0.00082315,6.228e-37,2.2875e-05,4.8532e-20,-3.1632e-22,1.013,0.00092477,-0.00082368,3.4316e-34,0.00017668,-47.599,-201.09,-74.702,3.5171,7.4524e-15,-4.8437e-17,142.03,-201.17,-74.702,-47.519,0,0.016017,0,1,2.52,0,-2.52,0
0,0,0,0,0,0,0.00017562,-0.00082146,6.0578e-37,2.2794e-05,2.97e-20,-3.2451e-22,1.0107,0.00092276,-0.00082198,3.4597e-34,0.00017614,-47.55,-200.7,-74.569,3.5045,4.5585e-15,-4.9713e-17,141.72,-200.78,-74.569,-47.47,0,0.016021,0,1,2.525,0,-2.525,0
0,0,0,0,0,0,0.00017507,-0.00081977,5.8876e-37,2.2712e-05,1.0868e-20,-3.327e-22,1.0085,0.00092074,-0.00082029,3.4877e-34,0.00017559,-47.501,-200.31,-74.437,3.492,1.6648e-15,-5.0988e-17,141.41,-200.39,-74.437,-47.421,0,0.016025,0,1,2.53,0,-2.53,0
0,0,0,0,0,0,0.00017453,-0.00081808,5.7174e-37,2.263e-05,-7.9637e-21,-3.4088e-22,1.0062,0.00091873,-0.0008186,3.5158e-34,0.00017505,-47.452,-199.91,-74.304,3.4794,-1.229e-15,-5.2264e-17,141.1,-199.99,-74.304,-47.373,0,0.016029,0,1,2.535,0,-2.535,0
0,0,0,0,0,0,0.00017399,-0.00081639,5.5473e-37,2.2549e-05,-2.6795e-20,-3.4907e-22,1.0039,0.00091671,-0.00081691,3.5439e-34,0.0001745,-47.403,-199.52,-74.172,3.4669,-4.1227e-15,-5.3539e-17,140.79,-199.6,-74.172,-47.324,0,0.016033,0,1,2.54,0,-2.54,0
0,0,0,0,0,0,0.00017345,-0.0008147,5.3771e-37,2.2467e-05,-4.5627e-20,-3.5726e-22,1.0017,0.00091469,-0.00081521,3.5719e-34,0.00017396,-47.354,-199.13,-74.039,3.4543,-7.0166e-15,-5.4815e-17,140.48,-199.21,-74.039,-47.276,0,0.016038,0,1,2.545,0,-2.545,0
0,0,0,0,0,0,0.0001729,-0.00081301,5.2069e-37,2.2386e-05,-6.4458e-20,-3.6545e-22,0.9994,0.00091268,-0.00081352,3.6e-34,0.00017341,-47.306,-198.74,-73.907,3.4418,-9.9103e-15,-5.609e-17,140.17,-198.82,-73.907,-47.227,0,0.016042,0,1,2.55,0,-2.55,0
0,0,0,0,0,0,0.00017236,-0.00081132,5.0367e-37,2.2304e-05,-8.329e-20,-3.7363e-22,0.99714,0.00091066,-0.00081183,3.6281e-34,0.00017287,-47.257,-198.35,-73.774,3.4292,-1.2804e-14,-5.7365e-17,139.86,-198.43,-73.774,-47.179,0,0.016046,0,1,2.555,0,-2.555,0
0,0,0,0,0,0,0.00017182,-0.00080963,4.8665e-37,2.2222e-05,-1.0212e-19,-3.8182e-22,0.99487,0.00090865,-0.00081014,3.6561e-34,0.00017232,-47.208,-197.96,-73.642,3.4167,-1.5698e-14,-5.8641e-17,139.55,-198.03,-73.642,-47.13,0,0.01605,0,1,2.56,0,-2.56,0
0,0,0,0,0,0,0.00017127,-0.00080794,4.6964e-37,2.2141e-05,-1.2095e-19,-3.9001e-22,0.99261,0.00090663,-0.00080845,3.6842e-34,0.00017177,-47.159,-197.57,-73.509,3.4042,-1.8592e-14,-5.9916e-17,139.24,-197.64,-73.509,-47.082,0,0.016054,0,1,2.565,0,-2.565,0
0,0,0,0,0,0,0.00017073,-0.00080625,4.5262e-37,2.2059e-05,-1.3979e-19,-3.9819e-22,0.99034,0.00090461,-0.00080675,3.7123e-34,0.00017123,-47.11,-197.17,-73.377,3.3916,-2.1485e-14,-6.1192e-17,138.93,-197.25,-73.377,-47.033,0,0.016058,0,1,2.57,0,-2.57,0
0,0,0,0,0,0,0.00017019,-0.00080456,4.356e-37,2.1977e-05,-1.5862e-19,-4.0638e-22,0.98808,0.0009026,-0.00080506,3.7403e-34,0.00017068,-47.061,-196.78,-73.244,3.3791,-2.4379e-14,-6.2467e-17,138.62,-196.86,-73.244,-46.984,0,0.016062,0,1,2.575,0,-2.575,0
0,0,0,0,0,0,0.00016964,-0.00080287,4.1858e-37,2.1896e-05,-1.7745e-19,-4.1457e-22,0.98582,0.00090058,-0.00080337,3.7684e-34,0.00017014,-47.012,-196.39,-73.112,3.3665,-2.7273e-14,-6.3743e-17,138.32,-196.47,-73.112,-46.936,0,0.016066,0,1,2.58,0,-2.58,0
0,0,0,0,0,0,0.0001691,-0.00080118,4.0156e-37,2.1814e-05,-1.9628e-19,-4.2276e-22,0.98355,0.00089856,-0.00080168,3.7965e-34,0.00016959,-46.963,-196,-72.979,3.354,-3.0167e-14,-6.5018e-17,138.01,-196.08,-72.979,-46.887,0,0.01607,0,1,2.585,0,-2.585,0
0,0,0,0,0,0,0.00016856,-0.00079949,3.8455e-37,2.1733e-05,-2.1511e-19,-4.3094e-22,0.98129,0.00089655,-0.00079998,3.8245e-34,0.00016905,-46.914,-195.61,-72.847,3.3414,-3.306e-14,-6.6294e-17,137.7,-195.68,-72.847,-46.839,0,0.016074,0,1,2.59,0,-2.59,0
0,0,0,0,0,0,0.00016802,-0.00079781,3.6753e-37,2.1651e-05,-2.3394e-19,-4.3913e-22,0.97902,0.00089453,-0.00079829,3.8526e-34,0.0001685,-46.865,-195.22,-72.714,3.3289,-3.5954e-14,-6.7569e-17,137.39,-195.29,-72.714,-46.79,0,0.016078,0,1,2.595,0,-2.595,0
0,0,0,0,0,0,0.00016747,-0.00079612,3.5051e-37,2.1569e-05,-2.5278e-19,-4.4732e-22,0.97676,0.00089252,-0.0007966,3.8806e-34,0.00016796,-46.816,-194.83,-72.582,3.3163,-3.8848e-14,-6.8845e-17,137.08,-194.9,-72.582,-46.742,0,0.016082,0,1,2.6,0,-2.6,0
0,0,0,0,0,0,0.00016693,-0.00079443,3.3349e-37,2.1488e-05,-2.7161e-19,-4.5551e-22,0.97449,0.0008905,-0.00079491,3.9087e-34,0.00016741,-46.767,-194.43,-72.449,3.3038,-4.1742e-14,-7.012e-17,136.77,-194.51,-72.449,-46.693,0,0.016086,0,1,2.605,0,-2.605,0
0,0,0,0,0,0,0.00016639,-0.00079274,3.1647e-37,2.1406e-05,-2.9044e-19,-4.6369e-22,0.97223,0.00088848,-0.00079321,3.9368e-34,0.00016687,-46.718,-194.04,-72.317,3.2912,-4.4636e-14,-7.1396e-17,136.46,-194.12,-72.317,-46.644,0,0.01609,0,1,2.61,0,-2.61,0
0,0,0,0,0,0,0.00016584,-0.00079105,2.9945e-37,2.1324e-05,-3.0927e-19,-4.7188e-22,0.96997,0.00088647,-0.00079152,3.9648e-34,0.00016632,-46.669,-193.65,-72.184,3.2787,-4.7529e-14,-7.2671e-17,136.15,-193.72,-72.184,-46.596,0,0.016094,0,1,2.615,0,-2.615,0
0,0,0,0,0,0,0.0001653,-0.00078936,2.8244e-37,2.1243e-05,-3.281e-19,-4.8007e-22,0.9677,0.00088445,-0.00078983,3.9929e-34,0.00016577,-46.62,-193.26,-72.052,3.2661,-5.0423e-14,-7.3947e-17,135.84,-193.33,-72.052,-46.547,0,0.016098,0,1,2.62,0,-2.62,0
0,0,0,0,0,0,0.00016476,-0.00078767,2.6542e-37,2.1161e-05,-3.4693e-19,-4.8825e-22,0.96544,0.00088244,-0.00078814,4.021e-34,0.00016523,-46.571,-192.87,-71.919,3.2536,-5.3317e-14,-7.5222e-17,135.53,-192.94,-71.919,-46.499,0,0.016102,0,1,2.625,0,-2.625,0
0,0,0,0,0,0,0.00016422,-0.00078598,2.484e-37,2.108e-05,-3.6577e-19,-4.9644e-22,0.96317,0.00088042,-0.00078644,4.049e-34,0.00016468,-46.522,-192.48,-71.787,3.241,-5.6211e-14,-7.6498e-17,135.22,-192.55,-71.787,-46.45,0,0.016106,0,1,2.63,0,-2.63,0
0,0,0,0,0,0,0.00016367,-0.00078429,2.3138e-37,2.0998e-05,-3.846e-19,-5.0463e-22,0.96091,0.0008784,-0.00078475,4.0771e-34,0.00016414,-46.473,-192.09,-71.654,3.2285,-5.9105e-14,-7.7773e-17,134.91,-192.16,-71.654,-46.402,0,0.01611,0,1,2.635,0,-2.635,0
0,0,0,0,0,0,0.00016313,-0.0007826,2.1436e-37,2.0916e-05,-4.0343e-19,-5.1282e-22,0.95864,0.00087639,-0.00078306,4.1052e-34,0.00016359,-46.424,-191.69,-71.522,3.2159,-6.1998e-14,-7.9049e-17,134.61,-191.77,-71.522,-46.353,0,0.016115,0,1,2.64,0,-2.64,0
0,0,0,0,0,0,0.00016259,-0.00078091,1.9735e-37,2.0835e-05,-4.2226e-19,-5.21e-22,0.95638,0.00087437,-0.00078137,4.1332e-34,0.00016305,-46.375,-191.3,-71.389,3.2034,-6.4892e-14,-8.0324e-17,134.3,-191.37,-71.389,-46.305,0,0.016119,0,1,2.645,0,-2.645,0
0,0,0,0,0,0,0.00016204,-0.00077922,1.8033e-37,2.0753e-05,-4.4109e-19,-5.2919e-22,0.95412,0.00087236,-0.00077967,4.1613e-34,0.0001625,-46.326,-190.91,-71.257,3.1908,-6.7786e-14,-8.1599e-17,133.99,-190.98,-71.257,-46.256,0,0.016123,0,1,2.65,0,-2.65,0
0,0,0,0,0,0,0.0001615,-0.00077753,1.6331e-37,2.0671e-05,-4.5992e-19,-5.3738e-22,0.95185,0.00087034,-0.00077798,4.1894e-34,0.00016196,-46.277,-190.52,-71.124,3.1783,-7.068e-14,-8.2875e-17,133.68,-190.59,-71.124,-46.207,0,0.016127,0,1,2.655,0,-2.655,0
0,0,0,0,0,0,0.00016096,-0.00077584,1.4629e-37,2.059e-05,-4.7876e-19,-5.4557e-22,0.94959,0.00086832,-0.00077629,4.2174e-34,0.00016141,-46.228,-190.13,-70.991,3.1657,-7.3573e-14,-8.415e-17,133.37,-190.2,-70.991,-46.159,0,0.016131,0,1,2.66,0,-2.66,0
0,0,0,0,0,0,0.00016041,-0.00077415,1.2927e-37,2.0508e-05,-4.9759e-19,-5.5375e-22,0.94732,0.00086631,-0.0007746,4.2455e-34,0.00016086,-46.18,-189.74,-70.859,3.1532,-7.6467e-14,-8.5426e-17,133.06,-189.81,-70.859,-46.11,0,0.016135,0,1,2.665,0,-2.665,0
0,0,0,0,0,0,0.00015987,-0.00077246,1.1226e-37,2.0427e-05,-5.1642e-19,-5.6194e-22,0.94506,0.00086429,-0.0007729,4.2736e-34,0.00016032,-46.131,-189.35,-70.726,3.1407,-7.9361e-14,-8.6701e-17,132.75,-189.41,-70.726,-46.062,0,0.016139,0,1,2.67,0,-2.67,0
0,0,0,0,0,0,0.00015933,-0.00077077,9.5238e-38,2.0345e-05,-5.3525e-19,-5.7013e-22,0.9428,0.00086227,-0.00077121,4.3016e-34,0.00015977,-46.082,-188.95,-70.594,3.1281,-8.2255e-14,-8.7977e-17,132.44,-189.02,-70.594,-46.013,0,0.016143,0,1,2.675,0,-2.675,0
0,0,0,0,0,0,0.00015879,-0.00076908,7.8219e-38,2.0263e-05,-5.5408e-19,-5.7831e-22,0.94053,0.00086026,-0.00076952,4.3297e-34,0.00015923,-46.033,-188.56,-70.461,3.1156,-8.5149e-14,-8.9252e-17,132.13,-188.63,-70.461,-45.965,0,0.016147,0,1,2.68,0,-2.68,0
0,0,0,0,0,0,0.00015824,-0.00076739,6.1202e-38,2.0182e-05,-5.7291e-19,-5.865e-22,0.93827,0.00085824,-0.00076783,4.3577e-34,0.00015868,-45.984,-188.17,-70.329,3.103,-8.8042e-14,-9.0528e-17,131.82,-188.24,-70.329,-45.916,0,0.016151,0,1,2.685,0,-2.685,0
0,0,0,0,0,0,0.00015778,-0.00076591,7.112e-38,2.0114e-05,-5.6956e-19,-5.8412e-22,0.93619,0.00085649,-0.00076635,4.3427e-34,0.00015822,-45.937,-187.83,-70.211,3.0926,-8.7527e-14,-9.0163e-17,131.55,-187.89,-70.211,-45.869,0,0.016155,0,1,2.69,0,-2.69,0
0,0,0,0,0,0,0.00015737,-0.00076455,9.6323e-38,2.0055e-05,-5.5362e-19,-5.7574e-22,0.93421,0.00085489,-0.00076499,4.3031e-34,0.00015781,-45.891,-187.51,-70.102,3.0835,-8.5076e-14,-8.8869e-17,131.31,-187.58,-70.102,-45.824,0,0.016158,0,1,2.695,0,-2.695,0
0,0,0,0,0,0,0.00015696,-0.0007632,1.2153e-37,1.9995e-05,-5.3767e-19,-5.6737e-22,0.93223,0.00085329,-0.00076363,4.2636e-34,0.00015739,-45.845,-187.19,-69.993,3.0744,-8.2626e-14,-8.7574e-17,131.06,-187.26,-69.993,-45.778,0,0.016162,0,1,2.7,0,-2.7,0
0,0,0,0,0,0,0.00015655,-0.00076184,1.4673e-37,1.9936e-05,-5.2173e-19,-5.5899e-22,0.93025,0.00085168,-0.00076227,4.224e-34,0.00015698,-45.799,-186.87,-69.884,3.0652,-8.0175e-14,-8.6279e-17,130.82,-186.94,-69.884,-45.733,0,0.016166,0,1,2.705,0,-2.705,0
0,0,0,0,0,0,0.00015614,-0.00076048,1.7193e-37,1.9876e-05,-5.0578e-19,-5.5061e-22,0.92827,0.00085008,-0.00076091,4.1845e-34,0.00015657,-45.753,-186.56,-69.774,3.0561,-7.7725e-14,-8.4984e-17,130.57,-186.62,-69.774,-45.687,0,0.016169,0,1,2.71,0,-2.71,0
0,0,0,0,0,0,0.00015572,-0.00075912,1.9713e-37,1.9817e-05,-4.8984e-19,-5.4223e-22,0.9263,0.00084848,-0.00075955,4.1449e-34,0.00015615,-45.707,-186.24,-69.665,3.0469,-7.5275e-14,-8.3689e-17,130.32,-186.31,-69.665,-45.641,0,0.016173,0,1,2.715,0,-2.715,0
0,0,0,0,0,0,0.00015531,-0.00075777,2.2234e-37,1.9757e-05,-4.7389e-19,-5.3386e-22,0.92432,0.00084688,-0.0007582,4.1054e-34,0.00015574,-45.662,-185.92,-69.556,3.0378,-7.2824e-14,-8.2395e-17,130.08,-185.99,-69.556,-45.596,0,0.016177,0,1,2.72,0,-2.72,0
0,0,0,0,0,0,0.0001549,-0.00075641,2.4754e-37,1.9698e-05,-4.5795e-19,-5.2548e-22,0.92234,0.00084528,-0.00075684,4.0658e-34,0.00015533,-45.616,-185.61,-69.447,3.0286,-7.0374e-14,-8.11e-17,129.83,-185.67,-69.447,-45.55,0,0.01618,0,1,2.725,0,-2.725,0
0,0,0,0,0,0,0.00015449,-0.00075505,2.7274e-37,1.9639e-05,-4.4201e-19,-5.171e-22,0.92036,0.00084367,-0.00075548,4.0263e-34,0.00015491,-45.57,-185.29,-69.338,3.0195,-6.7924e-14,-7.9805e-17,129.59,-185.35,-69.338,-45.505,0,0.016184,0,1,2.73,0,-2.73,0
0,0,0,0,0,0,0.00015408,-0.0007537,2.9795e-37,1.9579e-05,-4.2606e-19,-5.0872e-22,0.91839,0.00084207,-0.00075412,3.9867e-34,0.0001545,-45.524,-184.97,-69.228,3.0104,-6.5473e-14,-7.851e-17,129.34,-185.04,-69.228,-45.459,0,0.016187,0,1,2.735,0,-2.735,0
0,0,0,0,0,0,0.00015367,-0.00075234,3.2315e-37,1.952e-05,-4.1012e-19,-5.0035e-22,0.91641,0.00084047,-0.00075276,3.9472e-34,0.00015409,-45.478,-184.65,-69.119,3.0012,-6.3023e-14,-7.7215e-17,129.1,-184.72,-69.119,-45.413,0,0.016191,0,1,2.74,0,-2.74,0
0,0,0,0,0,0,0.00015325,-0.00075098,3.4835e-37,1.946e-05,-3.9417e-19,-4.9197e-22,0.91443,0.00083887,-0.0007514,3.9076e-34,0.00015367,-45.432,-184.34,-69.01,2.9921,-6.0573e-14,-7.5921e-17,128.85,-184.4,-69.01,-45.368,0,0.016195,0,1,2.745,0,-2.745,0
0,0,0,0,0,0,0.00015284,-0.00074963,3.7355e-37,1.9401e-05,-3.7823e-19,-4.8359e-22,0.91245,0.00083726,-0.00075004,3.8681e-34,0.00015326,-45.386,-184.02,-68.901,2.9829,-5.8122e-14,-7.4626e-17,128.6,-184.08,-68.901,-45.322,0,0.016198,0,1,2.75,0,-2.75,0
0,0,0,0,0,0,0.00015243,-0.00074827,3.9876e-37,1.9341e-05,-3.6228e-19,-4.7521e-22,0.91047,0.00083566,-0.00074868,3.8285e-34,0.00015285,-45.341,-183.7,-68.792,2.9738,-5.5672e-14,-7.3331e-17,128.36,-183.77,-68.792,-45.277,0,0.016202,0,1,2.755,0,-2.755,0
0,0,0,0,0,0,0.00015202,-0.00074691,4.2396e-37,1.9282e-05,-3.4634e-19,-4.6684e-22,0.9085,0.00083406,-0.00074733,3.789e-34,0.00015243,-45.295,-183.38,-68.682,2.9647,-5.3221e-14,-7.2036e-17,128.11,-183.45,-68.682,-45.231,0,0.016205,0,1,2.76,0,-2.76,0
0,0,0,0,0,0,0.00015161,-0.00074555,4.4916e-37,1.9222e-05,-3.304e-19,-4.5846e-22,0.90652,0.00083246,-0.00074597,3.7494e-34,0.00015202,-45.249,-183.07,-68.573,2.9555,-5.0771e-14,-7.0741e-17,127.87,-183.13,-68.573,-45.185,0,0.016209,0,1,2.765,0,-2.765,0
0,0,0,0,0,0,0.0001512,-0.0007442,4.7437e-37,1.9163e-05,-3.1445e-19,-4.5008e-22,0.90454,0.00083086,-0.00074461,3.7099e-34,0.00015161,-45.203,-182.75,-68.464,2.9464,-4.8321e-14,-6.9447e-17,127.62,-182.81,-68.464,-45.14,0,0.016213,0,1,2.77,0,-2.77,0
0,0,0,0,0,0,0.00015078,-0.00074284,4.9957e-37,1.9103e-05,-2.9851e-19,-4.417e-22,0.90256,0.00082925,-0.00074325,3.6703e-34,0.00015119,-45.157,-182.43,-68.355,2.9372,-4.587e-14,-6.8152e-17,127.38,-182.5,-68.355,-45.094,0,0.016216,0,1,2.775,0,-2.775,0
0,0,0,0,0,0,0.00015037,-0.00074148,5.2477e-37,1.9044e-05,-2.8256e-19,-4.3333e-22,0.90059,0.00082765,-0.00074189,3.6307e-34,0.00015078,-45.111,-182.12,-68.246,2.9281,-4.342e-14,-6.6857e-17,127.13,-182.18,-68.246,-45.049,0,0.01622,0,1,2.78,0,-2.78,0
0,0,0,0,0,0,0.00014996,-0.00074013,5.4997e-37,1.8984e-05,-2.6662e-19,-4.2495e-22,0.89861,0.00082605,-0.00074053,3.5912e-34,0.00015037,-45.065,-181.8,-68.136,2.9189,-4.0969e-14,-6.5562e-17,126.88,-181.86,-68.136,-45.003,0,0.016224,0,1,2.785,0,-2.785,0
0,0,0,0,0,0,0.00014955,-0.00073877,5.7518e-37,1.8925e-05,-2.5067e-19,-4.1657e-22,0.89663,0.00082445,-0.00073917,3.5516e-34,0.00014995,-45.019,-181.48,-68.027,2.9098,-3.8519e-14,-6.4267e-17,126.64,-181.54,-68.027,-44.957,0,0.016227,0,1,2.79,0,-2.79,0
0,0,0,0,0,0,0.00014914,-0.00073741,6.0038e-37,1.8865e-05,-2.3473e-19,-4.0819e-22,0.89465,0.00082284,-0.00073781,3.5121e-34,0.00014954,-44.974,-181.16,-67.918,2.9007,-3.6069e-14,-6.2973e-17,126.39,-181.23,-67.918,-44.912,0,0.016231,0,1,2.795,0,-2.795,0
0,0,0,0,0,0,0.00014873,-0.00073606,6.2558e-37,1.8806e-05,-2.1879e-19,-3.9982e-22,0.89268,0.00082124,-0.00073646,3.4725e-34,0.00014913,-44.928,-180.85,-67.809,2.8915,-3.3618e-14,-6.1678e-17,126.15,-180.91,-67.809,-44.866,0,0.016234,0,1,2.8,0,-2.8,0
0,0,0,0,0,0,0.00014831,-0.0007347,6.5079e-37,1.8747e-05,-2.0284e-19,-3.9144e-22,0.8907,0.00081964,-0.0007351,3.433e-34,0.00014871,-44.882,-180.53,-67.7,2.8824,-3.1168e-14,-6.0383e-17,125.9,-180.59,-67.7,-44.821,0,0.016238,0,1,2.805,0,-2.805,0
0,0,0,0,0,0,0.0001479,-0.00073334,6.7599e-37,1.8687e-05,-1.869e-19,-3.8306e-22,0.88872,0.00081804,-0.00073374,3.3934e-34,0.0001483,-44.836,-180.21,-67.59,2.8732,-2.8718e-14,-5.9088e-17,125.65,-180.27,-67.59,-44.775,0,0.016242,0,1,2.81,0,-2.81,0
0,0,0,0,0,0,0.00014749,-0.00073198,7.0119e-37,1.8628e-05,-1.7095e-19,-3.7469e-22,0.88674,0.00081644,-0.00073238,3.3539e-34,0.00014789,-44.79,-179.89,-67.481,2.8641,-2.6267e-14,-5.7793e-17,125.41,-179.96,-67.481,-44.729,0,0.016245,0,1,2.815,0,-2.815,0
0,0,0,0,0,0,0.00014708,-0.00073063,7.2639e-37,1.8568e-05,-1.5501e-19,-3.6631e-22,0.88476,0.00081483,-0.00073102,3.3143e-34,0.00014747,-44.744,-179.58,-67.372,2.855,-2.3817e-14,-5.6499e-17,125.16,-179.64,-67.372,-44.684,0,0.016249,0,1,2.82,0,-2.82,0
0,0,0,0,0,0,0.00014667,-0.00072927,7.516e-37,1.8509e-05,-1.3906e-19,-3.5793e-22,0.88279,0.00081323,-0.00072966,3.2748e-34,0.00014706,-44.698,-179.26,-67.263,2.8458,-2.1367e-14,-5.5204e-17,124.92,-179.32,-67.263,-44.638,0,0.016252,0,1,2.825,0,-2.825,0
0,0,0,0,0,0,0.00014626,-0.00072791,7.768e-37,1.8449e-05,-1.2312e-19,-3.4955e-22,0.88081,0.00081163,-0.0007283,3.2352e-34,0.00014665,-44.653,-178.94,-67.154,2.8367,-1.8916e-14,-5.3909e-17,124.67,-179,-67.154,-44.593,0,0.016256,0,1,2.83,0,-2.83,0
0,0,0,0,0,0,0.00014584,-0.00072656,8.02e-37,1.839e-05,-1.0718e-19,-3.4118e-22,0.87883,0.00081003,-0.00072694,3.1957e-34,0.00014623,-44.607,-178.63,-67.044,2.8275,-1.6466e-14,-5.2614e-17,124.43,-178.69,-67.044,-44.547,0,0.01626,0,1,2.835,0,-2.835,0
0,0,0,0,0,0,0.00014543,-0.0007252,8.2721e-37,1.833e-05,-9.1232e-20,-3.328e-22,0.87685,0.00080843,-0.00072558,3.1561e-34,0.00014582,-44.561,-178.31,-66.935,2.8184,-1.4016e-14,-5.132e-17,124.18,-178.37,-66.935,-44.501,0,0.016263,0,1,2.84,0,-2.84,0
0,0,0,0,0,0,0.00014502,-0.00072384,8.5241e-37,1.8271e-05,-7.5287e-20,-3.2442e-22,0.87488,0.00080682,-0.00072423,3.1166e-34,0.00014541,-44.515,-177.99,-66.826,2.8092,-1.1565e-14,-5.0025e-17,123.93,-178.05,-66.826,-44.456,0,0.016267,0,1,2.845,0,-2.845,0
0,0,0,0,0,0,0.00014461,-0.00072248,8.7761e-37,1.8211e-05,-5.9343e-20,-3.1604e-22,0.8729,0.00080522,-0.00072287,3.077e-34,0.00014499,-44.469,-177.67,-66.717,2.8001,-9.1148e-15,-4.873e-17,123.69,-177.73,-66.717,-44.41,0,0.016271,0,1,2.85,0,-2.85,0
0,0,0,0,0,0,0.0001442,-0.00072113,9.0281e-37,1.8152e-05,-4.3399e-20,-3.0767e-22,0.87092,0.00080362,-0.00072151,3.0375e-34,0.00014458,-44.423,-177.36,-66.607,2.791,-6.6643e-15,-4.7435e-17,123.44,-177.42,-66.607,-44.365,0,0.016274,0,1,2.855,0,-2.855,0
0,0,0,0,0,0,0.00014379,-0.00071977,9.2802e-37,1.8092e-05,-2.7455e-20,-2.9929e-22,0.86894,0.00080202,-0.00072015,2.9979e-34,0.00014417,-44.377,-177.04,-66.498,2.7818,-4.214e-15,-4.614e-17,123.2,-177.1,-66.498,-44.319,0,0.016278,0,1,2.86,0,-2.86,0
0,0,0,0,0,0,0.00014337,-0.00071841,9.5322e-37,1.8033e-05,-1.151e-20,-2.9091e-22,0.86697,0.00080041,-0.00071879,2.9584e-34,0.00014375,-44.332,-176.72,-66.389,2.7727,-1.7636e-15,-4.4845e-17,122.95,-176.78,-66.389,-44.273,0,0.016281,0,1,2.865,0,-2.865,0
0,0,0,0,0,0,0.00014296,-0.00071706,9.7842e-37,1.7973e-05,4.4338e-21,-2.8253e-22,0.86499,0.00079881,-0.00071743,2.9188e-34,0.00014334,-44.286,-176.4,-66.28,2.7635,6.867e-16,-4.3551e-17,122.71,-176.46,-66.28,-44.228,0,0.016285,0,1,2.87,0,-2.87,0
0,0,0,0,0,0,0.00014255,-0.0007157,1.0036e-36,1.7914e-05,2.0378e-20,-2.7416e-22,0.86301,0.00079721,-0.00071607,2.8793e-34,0.00014293,-44.24,-176.09,-66.171,2.7544,3.1371e-15,-4.2256e-17,122.46,-176.15,-66.171,-44.182,0,0.016289,0,1,2.875,0,-2.875,0
0,0,0,0,0,0,0.00014214,-0.00071434,1.0288e-36,1.7855e-05,3.6323e-20,-2.6578e-22,0.86103,0.00079561,-0.00071471,2.8397e-34,0.00014251,-44.194,-175.77,-66.061,2.7453,5.5876e-15,-4.0961e-17,122.21,-175.83,-66.061,-44.137,0,0.016292,0,1,2.88,0,-2.88,0
0,0,0,0,0,0,0.00014173,-0.00071299,1.054e-36,1.7795e-05,5.2267e-20,-2.574e-22,0.85905,0.00079401,-0.00071336,2.8002e-34,0.0001421,-44.148,-175.45,-65.952,2.7361,8.0379e-15,-3.9666e-17,121.97,-175.51,-65.952,-44.091,0,0.016296,0,1,2.885,0,-2.885,0
0,0,0,0,0,0,0.00014132,-0.00071163,1.0792e-36,1.7736e-05,6.8212e-20,-2.4902e-22,0.85708,0.0007924,-0.000712,2.7606e-34,0.00014168,-44.102,-175.14,-65.843,2.727,1.0488e-14,-3.8371e-17,121.72,-175.19,-65.843,-44.045,0,0.016299,0,1,2.89,0,-2.89,0
0,0,0,0,0,0,0.0001409,-0.00071027,1.1044e-36,1.7676e-05,8.4155e-20,-2.4065e-22,0.8551,0.0007908,-0.00071064,2.7211e-34,0.00014127,-44.056,-174.82,-65.734,2.7178,1.2939e-14,-3.7077e-17,121.48,-174.88,-65.734,-44,0,0.016303,0,1,2.895,0,-2.895,0
0,0,0,0,0,0,0.00014049,-0.00070891,1.1296e-36,1.7617e-05,1.001e-19,-2.3227e-22,0.85312,0.0007892,-0.00070928,2.6815e-34,0.00014086,-44.011,-174.5,-65.625,2.7087,1.5389e-14,-3.5782e-17,121.23,-174.56,-65.625,-43.954,0,0.016307,0,1,2.9,0,-2.9,0
0,0,0,0,0,0,0.00014008,-0.00070756,1.1548e-36,1.7557e-05,1.1604e-19,-2.2389e-22,0.85114,0.0007876,-0.00070792,2.642e-34,0.00014044,-43.965,-174.18,-65.515,2.6995,1.7839e-14,-3.4487e-17,120.98,-174.24,-65.515,-43.909,0,0.01631,0,1,2.905,0,-2.905,0
0,0,0,0,0,0,0.00013967,-0.0007062,1.18e-36,1.7498e-05,1.3199e-19,-2.1551e-22,0.84917,0.00078599,-0.00070656,2.6024e-34,0.00014003,-43.919,-173.87,-65.406,2.6904,2.029e-14,-3.3192e-17,120.74,-173.92,-65.406,-43.863,0,0.016314,0,1,2.91,0,-2.91,0
0,0,0,0,0,0,0.00013926,-0.00070484,1.2052e-36,1.7438e-05,1.4793e-19,-2.0714e-22,0.84719,0.00078439,-0.0007052,2.5629e-34,0.00013962,-43.873,-173.55,-65.297,2.6813,2.274e-14,-3.1898e-17,120.49,-173.6,-65.297,-43.817,0,0.016318,0,1,2.915,0,-2.915,0
0,0,0,0,0,0,0.00013885,-0.00070349,1.2305e-36,1.7379e-05,1.6388e-19,-1.9876e-22,0.84521,0.00078279,-0.00070384,2.5233e-34,0.0001392,-43.827,-173.23,-65.188,2.6721,2.519e-14,-3.0603e-17,120.25,-173.29,-65.188,-43.772,0,0.016321,0,1,2.92,0,-2.92,0
0,0,0,0,0,0,0.00013843,-0.00070213,1.2557e-36,1.7319e-05,1.7982e-19,-1.9038e-22,0.84323,0.00078119,-0.00070249,2.4838e-34,0.00013879,-43.781,-172.91,-65.079,2.663,2.7641e-14,-2.9308e-17,120,-172.97,-65.079,-43.726,0,0.016325,0,1,2.925,0,-2.925,0
0,0,0,0,0,0,0.00013802,-0.00070077,1.2809e-36,1.726e-05,1.9577e-19,-1.82e-22,0.84125,0.00077959,-0.00070113,2.4442e-34,0.00013838,-43.735,-172.6,-64.969,2.6538,3.0091e-14,-2.8013e-17,119.76,-172.65,-64.969,-43.681,0,0.016328,0,1,2.93,0,-2.93,0
0,0,0,0,0,0,0.00013761,-0.00069941,1.3061e-36,1.72e-05,2.1171e-19,-1.7363e-22,0.83928,0.00077798,-0.00069977,2.4047e-34,0.00013796,-43.689,-172.28,-64.86,2.6447,3.2542e-14,-2.6718e-17,119.51,-172.33,-64.86,-43.635,0,0.016332,0,1,2.935,0,-2.935,0
0,0,0,0,0,0,0.0001372,-0.00069806,1.3313e-36,1.7141e-05,2.2765e-19,-1.6525e-22,0.8373,0.00077638,-0.00069841,2.3651e-34,0.00013755,-43.644,-171.96,-64.751,2.6356,3.4992e-14,-2.5424e-17,119.26,-172.02,-64.751,-43.589,0,0.016336,0,1,2.94,0,-2.94,0
0,0,0,0,0,0,0.00013679,-0.0006967,1.3565e-36,1.7081e-05,2.436e-19,-1.5687e-22,0.83532,0.00077478,-0.00069705,2.3256e-34,0.00013714,-43.598,-171.65,-64.642,2.6264,3.7442e-14,-2.4129e-17,119.02,-171.7,-64.642,-43.544,0,0.016339,0,1,2.945,0,-2.945,0
0,0,0,0,0,0,0.00013638,-0.00069534,1.3817e-36,1.7022e-05,2.5954e-19,-1.485e-22,0.83334,0.00077318,-0.00069569,2.286e-34,0.00013672,-43.552,-171.33,-64.533,2.6173,3.9893e-14,-2.2834e-17,118.77,-171.38,-64.533,-43.498,0,0.016343,0,1,2.95,0,-2.95,0
0,0,0,0,0,0,0.00013596,-0.00069399,1.4069e-36,1.6963e-05,2.7549e-19,-1.4012e-22,0.83137,0.00077157,-0.00069433,2.2465e-34,0.00013631,-43.506,-171.01,-64.423,2.6081,4.2343e-14,-2.1539e-17,118.53,-171.06,-64.423,-43.453,0,0.016346,0,1,2.955,0,-2.955,0
0,0,0,0,0,0,0.00013555,-0.00069263,1.4321e-36,1.6903e-05,2.9143e-19,-1.3174e-22,0.82939,0.00076997,-0.00069297,2.2069e-34,0.0001359,-43.46,-170.69,-64.314,2.599,4.4793e-14,-2.0244e-17,118.28,-170.75,-64.314,-43.407,0,0.01635,0,1,2.96,0,-2.96,0
0,0,0,0,0,0,0.00013514,-0.00069127,1.4573e-36,1.6844e-05,3.0738e-19,-1.2336e-22,0.82741,0.00076837,-0.00069162,2.1674e-34,0.00013548,-43.414,-170.38,-64.205,2.5898,4.7244e-14,-1.895e-17,118.04,-170.43,-64.205,-43.361,0,0.016354,0,1,2.965,0,-2.965,0
0,0,0,0,0,0,0.00013473,-0.00068992,1.4825e-36,1.6784e-05,3.2332e-19,-1.1499e-22,0.82543,0.00076677,-0.00069026,2.1278e-34,0.00013507,-43.368,-170.06,-64.096,2.5807,4.9694e-14,-1.7655e-17,117.79,-170.11,-64.096,-43.316,0,0.016357,0,1,2.97,0,-2.97,0
0,0,0,0,0,0,0.00013432,-0.00068856,1.5077e-36,1.6725e-05,3.3926e-19,-1.0661e-22,0.82346,0.00076517,-0.0006889,2.0883e-34,0.00013466,-43.323,-169.74,-63.987,2.5716,5.2144e-14,-1.636e-17,117.54,-169.79,-63.987,-43.27,0,0.016361,0,1,2.975,0,-2.975,0
0,0,0,0,0,0,0.00013391,-0.0006872,1.5329e-36,1.6665e-05,3.5521e-19,-9.8231e-23,0.82148,0.00076356,-0.00068754,2.0487e-34,0.00013424,-43.277,-169.42,-63.877,2.5624,5.4595e-14,-1.5065e-17,117.3,-169.48,-63.877,-43.225,0,0.016365,0,1,2.98,0,-2.98,0
0,0,0,0,0,0,0.0001335,-0.00068585,1.5587e-36,1.6606e-05,3.6968e-19,-9.0145e-23,0.81951,0.00076198,-0.00068619,2.0169e-34,0.00013383,-43.231,-169.11,-63.769,2.5534,5.6819e-14,-1.3816e-17,117.05,-169.16,-63.769,-43.179,0,0.016368,0,1,2.985,0,-2.985,0
0,0,0,0,0,0,0.00013319,-0.00068475,1.5978e-36,1.6562e-05,3.5055e-19,-8.8705e-23,0.81775,0.00076069,-0.00068509,2.1609e-34,0.00013352,-43.187,-168.85,-63.677,2.5466,5.3879e-14,-1.3597e-17,116.86,-168.9,-63.677,-43.136,0,0.016371,0,1,2.99,0,-2.99,0
0,0,0,0,0,0,0.00013288,-0.00068365,1.6369e-36,1.6518e-05,3.3142e-19,-8.7265e-23,0.81599,0.00075941,-0.00068399,2.3049e-34,0.00013321,-43.144,-168.59,-63.586,2.5398,5.0938e-14,-1.3378e-17,116.66,-168.64,-63.586,-43.092,0,0.016375,0,1,2.995,0,-2.995,0
0,0,0,0,0,0,0.00013257,-0.00068255,1.676e-36,1.6474e-05,3.123e-19,-8.5825e-23,0.81423,0.00075812,-0.00068289,2.4489e-34,0.0001329,-43.1,-168.33,-63.495,2.5331,4.7998e-14,-1.3159e-17,116.46,-168.38,-63.495,-43.049,0,0.016378,0,1,3,0,-3,0
0,0,0,0,0,0,0.00013226,-0.00068145,1.7151e-36,1.643e-05,2.9317e-19,-8.4385e-23,0.81246,0.00075684,-0.00068178,2.5929e-34,0.00013259,-43.056,-168.07,-63.403,2.5263,4.5058e-14,-1.2941e-17,116.27,-168.12,-63.403,-43.005,0,0.016381,0,1,3.005,0,-3.005,0
0,0,0,0,0,0,0.00013195,-0.00068035,1.7542e-36,1.6386e-05,2.7404e-19,-8.2945e-23,0.8107,0.00075556,-0.00068068,2.7369e-34,0.00013228,-43.012,-167.81,-63.312,2.5195,4.2117e-14,-1.2722e-17,116.07,-167.86,-63.312,-42.962,0,0.016384,0,1,3.01,0,-3.01,0
0,0,0,0,0,0,0.00013164,-0.00067925,1.7933e-36,1.6342e-05,2.5491e-19,-8.1506e-23,0.80894,0.00075427,-0.00067958,2.8809e-34,0.00013197,-42.969,-167.55,-63.221,2.5128,3.9177e-14,-1.2503e-17,115.87,-167.6,-63.221,-42.918,0,0.016388,0,1,3.015,0,-3.015,0
0,0,0,0,0,0,0.00013133,-0.00067815,1.8324e-36,1.6298e-05,2.3579e-19,-8.0066e-23,0.80718,0.00075299,-0.00067848,3.0249e-34,0.00013166,-42.925,-167.29,-63.129,2.506,3.6237e-14,-1.2285e-17,115.68,-167.34,-63.129,-42.875,0,0.016391,0,1,3.02,0,-3.02,0
0,0,0,0,0,0,0.00013102,-0.00067705,1.8715e-36,1.6254e-05,2.1666e-19,-7.8626e-23,0.80542,0.00075171,-0.00067737,3.1689e-34,0.00013135,-42.881,-167.03,-63.038,2.4992,3.3296e-14,-1.2066e-17,115.48,-167.08,-63.038,-42.831,0,0.016394,0,1,3.025,0,-3.025,0
0,0,0,0,0,0,0.00013071,-0.00067595,1.9106e-36,1.621e-05,1.9753e-19,-7.7186e-23,0.80366,0.00075042,-0.00067627,3.3129e-34,0.00013104,-42.838,-166.77,-62.947,2.4924,3.0356e-14,-1.1847e-17,115.28,-166.82,-62.947,-42.788,0,0.016397,0,1,3.03,0,-3.03,0
0,0,0,0,0,0,0.0001304,-0.00067485,1.9497e-36,1.6166e-05,1.784e-19,-7.5746e-23,0.8019,0.00074914,-0.00067517,3.4569e-34,0.00013072,-42.794,-166.51,-62.855,2.4857,2.7416e-14,-1.1629e-17,115.08,-166.56,-62.855,-42.744,0,0.016401,0,1,3.035,0,-3.035,0
0,0,0,0,0,0,0.00013009,-0.00067375,1.9888e-36,1.6122e-05,1.5927e-19,-7.4306e-23,0.80013,0.00074786,-0.00067407,3.6009e-34,0.00013041,-42.75,-166.25,-62.764,2.4789,2.4475e-14,-1.141e-17,114.89,-166.3,-62.764,-42.7,0,0.016404,0,1,3.04,0,-3.04,0
0,0,0,0,0,0,0.00012978,-0.00067264,2.0279e-36,1.6078e-05,1.4015e-19,-7.2866e-23,0.79837,0.00074657,-0.00067297,3.7449e-34,0.0001301,-42.707,-165.99,-62.672,2.4721,2.1535e-14,-1.1191e-17,114.69,-166.04,-62.672,-42.657,0,0.016407,0,1,3.045,0,-3.045,0
0,0,0,0,0,0,0.00012947,-0.00067154,2.067e-36,1.6034e-05,1.2102e-19,-7.1427e-23,0.79661,0.00074529,-0.00067186,3.8889e-34,0.00012979,-42.663,-165.73,-62.581,2.4654,1.8595e-14,-1.0973e-17,114.49,-165.78,-62.581,-42.613,0,0.01641,0,1,3.05,0,-3.05,0
0,0,0,0,0,0,0.00012916,-0.00067044,2.1061e-36,1.599e-05,1.0189e-19,-6.9987e-23,0.79485,0.000744,-0.00067076,4.0329e-34,0.00012948,-42.619,-165.47,-62.49,2.4586,1.5654e-14,-1.0754e-17,114.3,-165.52,-62.49,-42.57,0,0.016414,0,1,3.055,0,-3.055,0
0,0,0,0,0,0,0.00012885,-0.00066934,2.1452e-36,1.5946e-05,8.2763e-20,-6.8547e-23,0.79309,0.00074272,-0.00066966,4.1769e-34,0.00012917,-42.575,-165.21,-62.398,2.4518,1.2714e-14,-1.0535e-17,114.1,-165.26,-62.398,-42.526,0,0.016417,0,1,3.06,0,-3.06,0
0,0,0,0,0,0,0.00012854,-0.00066824,2.1843e-36,1.5902e-05,6.3634e-20,-6.7107e-23,0.79133,0.00074144,-0.00066856,4.3209e-34,0.00012886,-42.532,-164.95,-62.307,2.4451,9.7735e-15,-1.0317e-17,113.9,-165,-62.307,-42.483,0,0.01642,0,1,3.065,0,-3.065,0
0,0,0,0,0,0,0.00012823,-0.00066714,2.2234e-36,1.5858e-05,4.4507e-20,-6.5667e-23,0.78957,0.00074015,-0.00066746,4.4649e-34,0.00012855,-42.488,-164.69,-62.216,2.4383,6.8333e-15,-1.0098e-17,113.71,-164.74,-62.216,-42.439,0,0.016423,0,1,3.07,0,-3.07,0
0,0,0,0,0,0,0.00012792,-0.00066604,2.2625e-36,1.5814e-05,2.5379e-20,-6.4227e-23,0.78781,0.00073887,-0.00066635,4.6089e-34,0.00012824,-42.444,-164.43,-62.124,2.4315,3.8929e-15,-9.8793e-18,113.51,-164.48,-62.124,-42.396,0,0.016427,0,1,3.075,0,-3.075,0
0,0,0,0,0,0,0.00012761,-0.00066494,2.3016e-36,1.577e-05,6.2514e-21,-6.2787e-23,0.78604,0.00073759,-0.00066525,4.7529e-34,0.00012793,-42.401,-164.17,-62.033,2.4247,9.5262e-16,-9.6606e-18,113.31,-164.21,-62.033,-42.352,0,0.01643,0,1,3.08,0,-3.08,0
0,0,0,0,0,0,0.0001273,-0.00066384,2.3407e-36,1.5726e-05,-1.2877e-20,-6.1348e-23,0.78428,0.0007363,-0.00066415,4.897e-34,0.00012761,-42.357,-163.91,-61.941,2.418,-1.9878e-15,-9.4419e-18,113.11,-163.95,-61.941,-42.309,0,0.016433,0,1,3.085,0,-3.085,0
0,0,0,0,0,0,0.00012699,-0.00066274,2.3798e-36,1.5682e-05,-3.2004e-20,-5.9908e-23,0.78252,0.00073502,-0.00066305,5.041e-34,0.0001273,-42.313,-163.65,-61.85,2.4112,-4.928e-15,-9.2233e-18,112.92,-163.69,-61.85,-42.265,0,0.016436,0,1,3.09,0,-3.09,0
0,0,0,0,0,0,0.00012668,-0.00066164,2.4189e-36,1.5638e-05,-5.1132e-20,-5.8468e-23,0.78076,0.00073374,-0.00066195,5.185e-34,0.00012699,-42.27,-163.39,-61.759,2.4044,-7.8685e-15,-9.0046e-18,112.72,-163.43,-61.759,-42.222,0,0.01644,0,1,3.095,0,-3.095,0
0,0,0,0,0,0,0.00012637,-0.00066054,2.458e-36,1.5593e-05,-7.026e-20,-5.7028e-23,0.779,0.00073245,-0.00066084,5.329e-34,0.00012668,-42.226,-163.13,-61.667,2.3977,-1.0809e-14,-8.7859e-18,112.52,-163.17,-61.667,-42.178,0,0.016443,0,1,3.1,0,-3.1,0
0,0,0,0,0,0,0.00012606,-0.00065943,2.4971e-36,1.5549e-05,-8.9388e-20,-5.5588e-23,0.77724,0.00073117,-0.00065974,5.473e-34,0.00012637,-42.182,-162.87,-61.576,2.3909,-1.3749e-14,-8.5672e-18,112.33,-162.91,-61.576,-42.135,0,0.016446,0,1,3.105,0,-3.105,0
0,0,0,0,0,0,0.00012575,-0.00065833,2.5362e-36,1.5505e-05,-1.0852e-19,-5.4148e-23,0.77548,0.00072988,-0.00065864,5.617e-34,0.00012606,-42.138,-162.61,-61.485,2.3841,-1.6689e-14,-8.3485e-18,112.13,-162.65,-61.485,-42.091,0,0.016449,0,1,3.11,0,-3.11,0
0,0,0,0,0,0,0.00012544,-0.00065723,2.5753e-36,1.5461e-05,-1.2764e-19,-5.2708e-23,0.77371,0.0007286,-0.00065754,5.761e-34,0.00012575,-42.095,-162.34,-61.393,2.3774,-1.963e-14,-8.1299e-18,111.93,-162.39,-61.393,-42.048,0,0.016453,0,1,3.115,0,-3.115,0
0,0,0,0,0,0,0.00012513,-0.00065613,2.6144e-36,1.5417e-05,-1.4677e-19,-5.1269e-23,0.77195,0.00072732,-0.00065644,5.905e-34,0.00012544,-42.051,-162.08,-61.302,2.3706,-2.257e-14,-7.9112e-18,111.74,-162.13,-61.302,-42.004,0,0.016456,0,1,3.12,0,-3.12,0
0,0,0,0,0,0,0.00012482,-0.00065503,2.6535e-36,1.5373e-05,-1.659e-19,-4.9829e-23,0.77019,0.00072603,-0.00065533,6.049e-34,0.00012513,-42.007,-161.82,-61.21,2.3638,-2.551e-14,-7.6925e-18,111.54,-161.87,-61.21,-41.961,0,0.016459,0,1,3.125,0,-3.125,0
0,0,0,0,0,0,0.00012451,-0.00065393,2.6926e-36,1.5329e-05,-1.8503e-19,-4.8389e-23,0.76843,0.00072475,-0.00065423,6.193e-34,0.00012482,-41.964,-161.56,-61.119,2.357,-2.8451e-14,-7.4738e-18,111.34,-161.61,-61.119,-41.917,0,0.016462,0,1,3.13,0,-3.13,0
0,0,0,0,0,0,0.0001242,-0.00065283,2.7317e-36,1.5285e-05,-2.0415e-19,-4.6949e-23,0.76667,0.00072347,-0.00065313,6.337e-34,0.0001245,-41.92,-161.3,-61.028,2.3503,-3.1391e-14,-7.2551e-18,111.15,-161.35,-61.028,-41.874,0,0.016465,0,1,3.135,0,-3.135,0
0,0,0,0,0,0,0.00012389,-0.00065173,2.7708e-36,1.5241e-05,-2.2328e-19,-4.5509e-23,0.76491,0.00072218,-0.00065203,6.481e-34,0.00012419,-41.876,-161.04,-60.936,2.3435,-3.4332e-14,-7.0365e-18,110.95,-161.09,-60.936,-41.83,0,0.016469,0,1,3.14,0,-3.14,0
0,0,0,0,0,0,0.00012358,-0.00065063,2.81e-36,1.5197e-05,-2.4241e-19,-4.4069e-23,0.76315,0.0007209,-0.00065093,6.625e-34,0.00012388,-41.832,-160.78,-60.845,2.3367,-3.7272e-14,-6.8178e-18,110.75,-160.83,-60.845,-41.787,0,0.016472,0,1,3.145,0,-3.145,0
0,0,0,0,0,0,0.00012327,-0.00064953,2.8491e-36,1.5153e-05,-2.6154e-19,-4.2629e-23,0.76139,0.00071962,-0.00064982,6.769e-34,0.00012357,-41.789,-160.52,-60.754,2.33,-4.0212e-14,-6.5991e-18,110.55,-160.57,-60.754,-41.743,0,0.016475,0,1,3.15,0,-3.15,0
0,0,0,0,0,0,0.00012296,-0.00064843,2.8882e-36,1.5109e-05,-2.8067e-19,-4.119e-23,0.75962,0.00071833,-0.00064872,6.913e-34,0.00012326,-41.745,-160.26,-60.662,2.3232,-4.3152e-14,-6.3804e-18,110.36,-160.31,-60.662,-41.699,0,0.016478,0,1,3.155,0,-3.155,0
0,0,0,0,0,0,0.00012265,-0.00064732,2.9273e-36,1.5065e-05,-2.9979e-19,-3.975e-23,0.75786,0.00071705,-0.00064762,7.057e-34,0.00012295,-41.701,-160,-60.571,2.3164,-4.6093e-14,-6.1617e-18,110.16,-160.05,-60.571,-41.656,0,0.016482,0,1,3.16,0,-3.16,0
0,0,0,0,0,0,0.00012234,-0.00064622,2.9664e-36,1.5021e-05,-3.1892e-19,-3.831e-23,0.7561,0.00071576,-0.00064652,7.201e-34,0.00012264,-41.658,-159.74,-60.48,2.3097,-4.9033e-14,-5.9431e-18,109.96,-159.79,-60.48,-41.612,0,0.016485,0,1,3.165,0,-3.165,0
0,0,0,0,0,0,0.00012203,-0.00064512,3.0055e-36,1.4977e-05,-3.3805e-19,-3.687e-23,0.75434,0.00071448,-0.00064542,7.345e-34,0.00012233,-41.614,-159.48,-60.388,2.3029,-5.1974e-14,-5.7244e-18,109.77,-159.53,-60.388,-41.569,0,0.016488,0,1,3.17,0,-3.17,0
0,0,0,0,0,0,0.00012172,-0.00064402,3.0446e-36,1.4933e-05,-3.5718e-19,-3.543e-23,0.75258,0.0007132,-0.00064431,7.489e-34,0.00012202,-41.57,-159.22,-60.297,2.2961,-5.4914e-14,-5.5057e-18,109.57,-159.27,-60.297,-41.525,0,0.016491,0,1,3.175,0,-3.175,0
0,0,0,0,0,0,0.00012141,-0.00064292,3.0837e-36,1.4889e-05,-3.7631e-19,-3.399e-23,0.75082,0.00071191,-0.00064321,7.6331e-34,0.00012171,-41.527,-158.96,-60.205,2.2893,-5.7854e-14,-5.287e-18,109.37,-159.01,-60.205,-41.482,0,0.016495,0,1,3.18,0,-3.18,0
0,0,0,0,0,0,0.00012111,-0.00064182,3.1228e-36,1.4845e-05,-3.9543e-19,-3.255e-23,0.74906,0.00071063,-0.00064211,7.7771e-34,0.00012139,-41.483,-158.7,-60.114,2.2826,-6.0794e-14,-5.0684e-18,109.18,-158.75,-60.114,-41.438,0,0.016498,0,1,3.185,0,-3.185,0
0,0,0,0,0,0,0.0001208,-0.00064072,3.1619e-36,1.4801e-05,-4.1456e-19,-3.1111e-23,0.7473,0.00070935,-0.00064101,7.9211e-34,0.00012108,-41.439,-158.44,-60.023,2.2758,-6.3735e-14,-4.8497e-18,108.98,-158.49,-60.023,-41.395,0,0.016501,0,1,3.19,0,-3.19,0
0,0,0,0,0,0,0.00012049,-0.00063962,3.201e-36,1.4757e-05,-4.3369e-19,-2.9671e-23,0.74553,0.00070806,-0.00063991,8.0651e-34,0.00012077,-41.395,-158.18,-59.931,2.269,-6.6675e-14,-4.631e-18,108.78,-158.23,-59.931,-41.351,0,0.016504,0,1,3.195,0,-3.195,0
0,0,0,0,0,0,0.00012018,-0.00063852,3.2401e-36,1.4713e-05,-4.5282e-19,-2.8231e-23,0.74377,0.00070678,-0.0006388,8.2091e-34,0.00012046,-41.352,-157.92,-59.84,2.2623,-6.9616e-14,-4.4123e-18,108.58,-157.97,-59.84,-41.308,0,0.016508,0,1,3.2,0,-3.2,0
0,0,0,0,0,0,0.00011987,-0.00063742,3.2792e-36,1.4669e-05,-4.7194e-19,-2.6791e-23,0.74201,0.0007055,-0.0006377,8.3531e-34,0.00012015,-41.308,-157.66,-59.749,2.2555,-7.2556e-14,-4.1936e-18,108.39,-157.71,-59.749,-41.264,0,0.016511,0,1,3.205,0,-3.205,0
0,0,0,0,0,0,0.00011956,-0.00063632,3.3183e-36,1.4625e-05,-4.9107e-19,-2.5351e-23,0.74025,0.00070421,-0.0006366,8.4971e-34,0.00011984,-41.264,-157.4,-59.657,2.2487,-7.5496e-14,-3.975e-18,108.19,-157.44,-59.657,-41.221,0,0.016514,0,1,3.21,0,-3.21,0
0,0,0,0,0,0,0.00011925,-0.00063522,3.3574e-36,1.4581e-05,-5.102e-19,-2.3911e-23,0.73849,0.00070293,-0.0006355,8.6411e-34,0.00011953,-41.221,-157.14,-59.566,2.242,-7.8436e-14,-3.7563e-18,107.99,-157.18,-59.566,-41.177,0,0.016517,0,1,3.215,0,-3.215,0
0,0,0,0,0,0,0.00011894,-0.00063411,3.3965e-36,1.4537e-05,-5.2933e-19,-2.2471e-23,0.73673,0.00070164,-0.0006344,8.7851e-34,0.00011922,-41.177,-156.88,-59.474,2.2352,-8.1377e-14,-3.5376e-18,107.8,-156.92,-59.474,-41.134,0,0.016521,0,1,3.22,0,-3.22,0
0,0,0,0,0,0,0.00011863,-0.00063301,3.4356e-36,1.4493e-05,-5.4846e-19,-2.1032e-23,0.73497,0.00070036,-0.00063329,8.9291e-34,0.00011891,-41.133,-156.62,-59.383,2.2284,-8.4317e-14,-3.3189e-18,107.6,-156.66,-59.383,-41.09,0,0.016524,0,1,3.225,0,-3.225,0
0,0,0,0,0,0,0.00011832,-0.00063191,3.4747e-36,1.4449e-05,-5.6758e-19,-1.9592e-23,0.7332,0.00069908,-0.00063219,9.0731e-34,0.0001186,-41.09,-156.36,-59.292,2.2216,-8.7258e-14,-3.1002e-18,107.4,-156.4,-59.292,-41.047,0,0.016527,0,1,3.23,0,-3.23,0
0,0,0,0,0,0,0.00011801,-0.00063081,3.5138e-36,1.4404e-05,-5.8671e-19,-1.8152e-23,0.73144,0.00069779,-0.00063109,9.2171e-34,0.00011828,-41.046,-156.1,-59.2,2.2149,-9.0198e-14,-2.8816e-18,107.21,-156.14,-59.2,-41.003,0,0.01653,0,1,3.235,0,-3.235,0
0,0,0,0,0,0,0.0001177,-0.00062971,3.5529e-36,1.436e-05,-6.0584e-19,-1.6712e-23,0.72968,0.00069651,-0.00062999,9.3611e-34,0.00011797,-41.002,-155.84,-59.109,2.2081,-9.3138e-14,-2.6629e-18,107.01,-155.88,-59.109,-40.96,0,0.016534,0,1,3.24,0,-3.24,0
0,0,0,0,0,0,0.00011739,-0.00062861,3.592e-36,1.4316e-05,-6.2497e-19,-1.5272e-23,0.72792,0.00069523,-0.00062889,9.5051e-34,0.00011766,-40.958,-155.58,-59.018,2.2013,-9.6078e-14,-2.4442e-18,106.81,-155.62,-59.018,-40.916,0,0.016537,0,1,3.245,0,-3.245,0
0,0,0,0,0,0,0.00011708,-0.00062751,3.6311e-36,1.4272e-05,-6.441e-19,-1.3832e-23,0.72616,0.00069394,-0.00062778,9.6491e-34,0.00011735,-40.915,-155.32,-58.926,2.1946,-9.9019e-14,-2.2255e-18,106.62,-155.36,-58.926,-40.873,0,0.01654,0,1,3.25,0,-3.25,0
0,0,0,0,0,0,0.00011677,-0.00062641,3.6702e-36,1.4228e-05,-6.6322e-19,-1.2392e-23,0.7244,0.00069266,-0.00062668,9.7931e-34,0.00011704,-40.871,-155.06,-58.835,2.1878,-1.0196e-13,-2.0068e-18,106.42,-155.1,-58.835,-40.829,0,0.016543,0,1,3.255,0,-3.255,0
0,0,0,0,0,0,0.00011646,-0.00062531,3.7093e-36,1.4184e-05,-6.8235e-19,-1.0953e-23,0.72264,0.00069138,-0.00062558,9.9371e-34,0.00011673,-40.827,-154.8,-58.743,2.181,-1.049e-13,-1.7882e-18,106.22,-154.84,-58.743,-40.786,0,0.016547,0,1,3.26,0,-3.26,0
0,0,0,0,0,0,0.00011615,-0.00062421,3.7484e-36,1.414e-05,-7.0148e-19,-9.5127e-24,0.72088,0.00069009,-0.00062448,1.0081e-33,0.00011642,-40.784,-154.54,-58.652,2.1743,-1.0784e-13,-1.5695e-18,106.02,-154.58,-58.652,-40.742,0,0.01655,0,1,3.265,0,-3.265,0
0,0,0,0,0,0,0.00011584,-0.00062311,3.7875e-36,1.4096e-05,-7.2061e-19,-8.0728e-24,0.71911,0.00068881,-0.00062337,1.0225e-33,0.00011611,-40.74,-154.28,-58.561,2.1675,-1.1078e-13,-1.3508e-18,105.83,-154.32,-58.561,-40.699,0,0.016553,0,1,3.27,0,-3.27,0
0,0,0,0,0,0,0.00011553,-0.00062201,3.8266e-36,1.4052e-05,-7.3973e-19,-6.633e-24,0.71735,0.00068752,-0.00062227,1.0369e-33,0.0001158,-40.696,-154.02,-58.469,2.1607,-1.1372e-13,-1.1321e-18,105.63,-154.06,-58.469,-40.655,0,0.016556,0,1,3.275,0,-3.275,0
0,0,0,0,0,0,0.00011522,-0.0006209,3.8657e-36,1.4008e-05,-7.5886e-19,-5.1931e-24,0.71559,0.00068624,-0.00062117,1.0513e-33,0.00011548,-40.652,-153.76,-58.378,2.1539,-1.1666e-13,-9.1344e-19,105.43,-153.8,-58.378,-40.611,0,0.01656,0,1,3.28,0,-3.28,0
0,0,0,0,0,0,0.00011491,-0.0006198,3.9048e-36,1.3964e-05,-7.7799e-19,-3.7532e-24,0.71383,0.00068496,-0.00062007,1.0657e-33,0.00011517,-40.609,-153.5,-58.287,2.1472,-1.196e-13,-6.9476e-19,105.24,-153.54,-58.287,-40.568,0,0.016563,0,1,3.285,0,-3.285,0
0,0,0,0,0,0,0.0001146,-0.0006187,3.9439e-36,1.392e-05,-7.9712e-19,-2.3134e-24,0.71207,0.00068367,-0.00061897,1.0801e-33,0.00011486,-40.565,-153.24,-58.195,2.1404,-1.2254e-13,-4.7609e-19,105.04,-153.28,-58.195,-40.524,0,0.016566,0,1,3.29,0,-3.29,0
0,0,0,0,0,0,0.00011429,-0.0006176,3.983e-36,1.3876e-05,-8.1625e-19,-8.7353e-25,0.71031,0.00068239,-0.00061786,1.0945e-33,0.00011455,-40.521,-152.98,-58.104,2.1336,-1.2548e-13,-2.574e-19,104.84,-153.02,-58.104,-40.481,0,0.016569,0,1,3.295,0,-3.295,0
0,0,0,0,0,0,0.00011403,-0.00061662,3.9706e-36,1.3839e-05,-8.1015e-19,-2.5454e-24,0.70865,0.00068126,-0.00061689,1.0957e-33,0.00011429,-40.479,-152.75,-58.021,2.1279,-1.2454e-13,-5.1369e-19,104.67,-152.79,-58.021,-40.438,0,0.016572,0,1,3.3,0,-3.3,0
0,0,0,0,0,0,0.0001138,-0.00061572,3.9262e-36,1.3806e-05,-7.8833e-19,-6.1573e-24,0.70705,0.00068022,-0.00061598,1.0888e-33,0.00011406,-40.437,-152.53,-57.944,2.1228,-1.2119e-13,-1.0661e-18,104.51,-152.57,-57.944,-40.396,0,0.016575,0,1,3.305,0,-3.305,0
0,0,0,0,0,0,0.00011357,-0.00061482,3.8817e-36,1.3773e-05,-7.6651e-19,-9.769e-24,0.70545,0.00067919,-0.00061508,1.0818e-33,0.00011383,-40.394,-152.31,-57.866,2.1177,-1.1784e-13,-1.6185e-18,104.35,-152.35,-57.866,-40.354,0,0.016578,0,1,3.31,0,-3.31,0
0,0,0,0,0,0,0.00011334,-0.00061392,3.8372e-36,1.3739e-05,-7.4469e-19,-1.3381e-23,0.70386,0.00067815,-0.00061418,1.0748e-33,0.0001136,-40.352,-152.1,-57.789,2.1126,-1.1448e-13,-2.1709e-18,104.19,-152.14,-57.789,-40.312,0,0.016581,0,1,3.315,0,-3.315,0
0,0,0,0,0,0,0.00011311,-0.00061302,3.7928e-36,1.3706e-05,-7.2287e-19,-1.6993e-23,0.70226,0.00067712,-0.00061328,1.0678e-33,0.00011337,-40.31,-151.88,-57.711,2.1076,-1.1113e-13,-2.7232e-18,104.03,-151.92,-57.711,-40.27,0,0.016584,0,1,3.32,0,-3.32,0
0,0,0,0,0,0,0.00011288,-0.00061212,3.7483e-36,1.3673e-05,-7.0105e-19,-2.0605e-23,0.70066,0.00067608,-0.00061238,1.0609e-33,0.00011314,-40.268,-151.67,-57.633,2.1025,-1.0777e-13,-3.2756e-18,103.87,-151.71,-57.633,-40.228,0,0.016587,0,1,3.325,0,-3.325,0
0,0,0,0,0,0,0.00011265,-0.00061122,3.7038e-36,1.364e-05,-6.7923e-19,-2.4216e-23,0.69906,0.00067505,-0.00061147,1.0539e-33,0.00011291,-40.226,-151.45,-57.556,2.0974,-1.0442e-13,-3.828e-18,103.72,-151.49,-57.556,-40.186,0,0.01659,0,1,3.33,0,-3.33,0
0,0,0,0,0,0,0.00011242,-0.00061032,3.6594e-36,1.3607e-05,-6.5741e-19,-2.7828e-23,0.69747,0.00067401,-0.00061057,1.0469e-33,0.00011267,-40.184,-151.23,-57.478,2.0923,-1.0107e-13,-4.3804e-18,103.56,-151.27,-57.478,-40.144,0,0.016593,0,1,3.335,0,-3.335,0
0,0,0,0,0,0,0.00011219,-0.00060941,3.6149e-36,1.3574e-05,-6.356e-19,-3.144e-23,0.69587,0.00067298,-0.00060967,1.0399e-33,0.00011244,-40.142,-151.02,-57.401,2.0872,-9.7712e-14,-4.9328e-18,103.4,-151.06,-57.401,-40.102,0,0.016596,0,1,3.34,0,-3.34,0
0,0,0,0,0,0,0.00011196,-0.00060851,3.5704e-36,1.3541e-05,-6.1378e-19,-3.5052e-23,0.69427,0.00067194,-0.00060877,1.033e-33,0.00011221,-40.1,-150.8,-57.323,2.0821,-9.4358e-14,-5.4852e-18,103.24,-150.84,-57.323,-40.06,0,0.016599,0,1,3.345,0,-3.345,0
0,0,0,0,0,0,0.00011173,-0.00060761,3.526e-36,1.3508e-05,-5.9196e-19,-3.8664e-23,0.69268,0.0006709,-0.00060787,1.026e-33,0.00011198,-40.057,-150.59,-57.246,2.077,-9.1004e-14,-6.0376e-18,103.08,-150.63,-57.246,-40.018,0,0.016602,0,1,3.35,0,-3.35,0
0,0,0,0,0,0,0.0001115,-0.00060671,3.4815e-36,1.3475e-05,-5.7014e-19,-4.2275e-23,0.69108,0.00066987,-0.00060696,1.019e-33,0.00011175,-40.015,-150.37,-57.168,2.0719,-8.765e-14,-6.59e-18,102.92,-150.41,-57.168,-39.976,0,0.016605,0,1,3.355,0,-3.355,0
0,0,0,0,0,0,0.00011127,-0.00060581,3.437e-36,1.3442e-05,-5.4832e-19,-4.5887e-23,0.68948,0.00066883,-0.00060606,1.012e-33,0.00011152,-39.973,-150.16,-57.091,2.0669,-8.4296e-14,-7.1423e-18,102.76,-150.19,-57.091,-39.934,0,0.016608,0,1,3.36,0,-3.36,0
0,0,0,0,0,0,0.00011104,-0.00060491,3.3926e-36,1.3408e-05,-5.265e-19,-4.9499e-23,0.68788,0.0006678,-0.00060516,1.0051e-33,0.00011129,-39.931,-149.94,-57.013,2.0618,-8.0942e-14,-7.6948e-18,102.6,-149.98,-57.013,-39.892,0,0.01661,0,1,3.365,0,-3.365,0
0,0,0,0,0,0,0.00011081,-0.00060401,3.3481e-36,1.3375e-05,-5.0468e-19,-5.3111e-23,0.68629,0.00066676,-0.00060426,9.9809e-34,0.00011106,-39.889,-149.72,-56.936,2.0567,-7.7588e-14,-8.2471e-18,102.44,-149.76,-56.936,-39.85,0,0.016613,0,1,3.37,0,-3.37,0
0,0,0,0,0,0,0.00011058,-0.00060311,3.3036e-36,1.3342e-05,-4.8286e-19,-5.6723e-23,0.68469,0.00066573,-0.00060336,9.9112e-34,0.00011083,-39.847,-149.51,-56.858,2.0516,-7.4233e-14,-8.7995e-18,102.29,-149.55,-56.858,-39.808,0,0.016616,0,1,3.375,0,-3.375,0
0,0,0,0,0,0,0.00011035,-0.00060221,3.2592e-36,1.3309e-05,-4.6104e-19,-6.0335e-23,0.68309,0.00066469,-0.00060245,9.8414e-34,0.0001106,-39.805,-149.29,-56.781,2.0465,-7.0879e-14,-9.3519e-18,102.13,-149.33,-56.781,-39.766,0,0.016619,0,1,3.38,0,-3.38,0
0,0,0,0,0,0,0.00011012,-0.0006013,3.2147e-36,1.3276e-05,-4.3922e-19,-6.3946e-23,0.6815,0.00066365,-0.00060155,9.7717e-34,0.00011037,-39.763,-149.08,-56.703,2.0414,-6.7525e-14,-9.9043e-18,101.97,-149.12,-56.703,-39.724,0,0.016622,0,1,3.385,0,-3.385,0
0,0,0,0,0,0,0.00010989,-0.0006004,3.1702e-36,1.3243e-05,-4.174e-19,-6.7558e-23,0.6799,0.00066262,-0.00060065,9.7019e-34,0.00011013,-39.721,-148.86,-56.626,2.0363,-6.4171e-14,-1.0457e-17,101.81,-148.9,-56.626,-39.683,0,0.016625,0,1,3.39,0,-3.39,0
0,0,0,0,0,0,0.00010966,-0.0005995,3.1258e-36,1.321e-05,-3.9558e-19,-7.117e-23,0.6783,0.00066158,-0.00059975,9.6322e-34,0.0001099,-39.678,-148.65,-56.548,2.0312,-6.0817e-14,-1.1009e-17,101.65,-148.68,-56.548,-39.641,0,0.016628,0,1,3.395,0,-3.395,0
0,0,0,0,0,0,0.00010943,-0.0005986,3.0813e-36,1.3177e-05,-3.7376e-19,-7.4782e-23,0.67671,0.00066055,-0.00059885,9.5624e-34,0.00010967,-39.636,-148.43,-56.471,2.0262,-5.7463e-14,-1.1561e-17,101.49,-148.47,-56.471,-39.599,0,0.016631,0,1,3.4,0,-3.4,0
0,0,0,0,0,0,0.0001092,-0.0005977,3.0368e-36,1.3144e-05,-3.5194e-19,-7.8394e-23,0.67511,0.00065951,-0.00059794,9.4926e-34,0.00010944,-39.594,-148.21,-56.393,2.0211,-5.4109e-14,-1.2114e-17,101.33,-148.25,-56.393,-39.557,0,0.016634,0,1,3.405,0,-3.405,0
0,0,0,0,0,0,0.00010897,-0.0005968,2.9924e-36,1.3111e-05,-3.3012e-19,-8.2005e-23,0.67351,0.00065848,-0.00059704,9.4229e-34,0.00010921,-39.552,-148,-56.316,2.016,-5.0755e-14,-1.2666e-17,101.17,-148.04,-56.316,-39.515,0,0.016637,0,1,3.41,0,-3.41,0
0,0,0,0,0,0,0.00010874,-0.0005959,2.9479e-36,1.3078e-05,-3.083e-19,-8.5617e-23,0.67191,0.00065744,-0.00059614,9.3531e-34,0.00010898,-39.51,-147.78,-56.238,2.0109,-4.7401e-14,-1.3219e-17,101.01,-147.82,-56.238,-39.473,0,0.01664,0,1,3.415,0,-3.415,0
0,0,0,0,0,0,0.00010851,-0.000595,2.9034e-36,1.3044e-05,-2.8648e-19,-8.9229e-23,0.67032,0.00065641,-0.00059524,9.2834e-34,0.00010875,-39.468,-147.57,-56.161,2.0058,-4.4047e-14,-1.3771e-17,100.85,-147.6,-56.161,-39.431,0,0.016643,0,1,3.42,0,-3.42,0
0,0,0,0,0,0,0.00010828,-0.00059409,2.8589e-36,1.3011e-05,-2.6466e-19,-9.2841e-23,0.66872,0.00065537,-0.00059434,9.2136e-34,0.00010852,-39.426,-147.35,-56.083,2.0007,-4.0693e-14,-1.4323e-17,100.7,-147.39,-56.083,-39.389,0,0.016646,0,1,3.425,0,-3.425,0
0,0,0,0,0,0,0.00010805,-0.00059319,2.8145e-36,1.2978e-05,-2.4284e-19,-9.6453e-23,0.66712,0.00065433,-0.00059343,9.1439e-34,0.00010829,-39.384,-147.14,-56.006,1.9956,-3.7338e-14,-1.4876e-17,100.54,-147.17,-56.006,-39.347,0,0.016649,0,1,3.43,0,-3.43,0
0,0,0,0,0,0,0.00010782,-0.00059229,2.77e-36,1.2945e-05,-2.2102e-19,-1.0006e-22,0.66553,0.0006533,-0.00059253,9.0741e-34,0.00010806,-39.341,-146.92,-55.928,1.9905,-3.3984e-14,-1.5428e-17,100.38,-146.96,-55.928,-39.305,0,0.016651,0,1,3.435,0,-3.435,0
0,0,0,0,0,0,0.00010759,-0.00059139,2.7255e-36,1.2912e-05,-1.992e-19,-1.0368e-22,0.66393,0.00065226,-0.00059163,9.0044e-34,0.00010783,-39.299,-146.7,-55.851,1.9855,-3.063e-14,-1.5981e-17,100.22,-146.74,-55.851,-39.263,0,0.016654,0,1,3.44,0,-3.44,0
0,0,0,0,0,0,0.00010736,-0.00059049,2.6811e-36,1.2879e-05,-1.7739e-19,-1.0729e-22,0.66233,0.00065123,-0.00059073,8.9346e-34,0.00010759,-39.257,-146.49,-55.773,1.9804,-2.7276e-14,-1.6533e-17,100.06,-146.52,-55.773,-39.221,0,0.016657,0,1,3.445,0,-3.445,0
0,0,0,0,0,0,0.00010713,-0.00058959,2.6366e-36,1.2846e-05,-1.5557e-19,-1.109e-22,0.66073,0.00065019,-0.00058983,8.8649e-34,0.00010736,-39.215,-146.27,-55.696,1.9753,-2.3922e-14,-1.7085e-17,99.901,-146.31,-55.696,-39.179,0,0.01666,0,1,3.45,0,-3.45,0
0,0,0,0,0,0,0.0001069,-0.00058869,2.5921e-36,1.2813e-05,-1.3375e-19,-1.1451e-22,0.65914,0.00064916,-0.00058892,8.7951e-34,0.00010713,-39.173,-146.06,-55.618,1.9702,-2.0568e-14,-1.7638e-17,99.742,-146.09,-55.618,-39.137,0,0.016663,0,1,3.455,0,-3.455,0
0,0,0,0,0,0,0.00010667,-0.00058779,2.5477e-36,1.278e-05,-1.1193e-19,-1.1812e-22,0.65754,0.00064812,-0.00058802,8.7253e-34,0.0001069,-39.131,-145.84,-55.541,1.9651,-1.7214e-14,-1.819e-17,99.583,-145.88,-55.541,-39.095,0,0.016666,0,1,3.46,0,-3.46,0
0,0,0,0,0,0,0.00010644,-0.00058689,2.5032e-36,1.2747e-05,-9.0108e-20,-1.2174e-22,0.65594,0.00064709,-0.00058712,8.6556e-34,0.00010667,-39.089,-145.62,-55.463,1.96,-1.386e-14,-1.8743e-17,99.424,-145.66,-55.463,-39.053,0,0.016669,0,1,3.465,0,-3.465,0
0,0,0,0,0,0,0.00010621,-0.00058598,2.4587e-36,1.2714e-05,-6.8288e-20,-1.2535e-22,0.65435,0.00064605,-0.00058622,8.5858e-34,0.00010644,-39.047,-145.41,-55.386,1.9549,-1.0506e-14,-1.9295e-17,99.265,-145.45,-55.386,-39.011,0,0.016672,0,1,3.47,0,-3.47,0
0,0,0,0,0,0,0.00010598,-0.00058508,2.4143e-36,1.268e-05,-4.6469e-20,-1.2896e-22,0.65275,0.00064501,-0.00058532,8.5161e-34,0.00010621,-39.004,-145.19,-55.308,1.9498,-7.1516e-15,-1.9847e-17,99.106,-145.23,-55.308,-38.969,0,0.016675,0,1,3.475,0,-3.475,0
0,0,0,0,0,0,0.00010575,-0.00058418,2.3698e-36,1.2647e-05,-2.4649e-20,-1.3257e-22,0.65115,0.00064398,-0.00058441,8.4463e-34,0.00010598,-38.962,-144.98,-55.231,1.9448,-3.7975e-15,-2.04e-17,98.948,-145.01,-55.231,-38.927,0,0.016678,0,1,3.48,0,-3.48,0
0,0,0,0,0,0,0.00010552,-0.00058328,2.3253e-36,1.2614e-05,-2.8304e-21,-1.3618e-22,0.64955,0.00064294,-0.00058351,8.3766e-34,0.00010575,-38.92,-144.76,-55.153,1.9397,-4.4344e-16,-2.0952e-17,98.789,-144.8,-55.153,-38.885,0,0.016681,0,1,3.485,0,-3.485,0
0,0,0,0,0,0,0.00010529,-0.00058238,2.2809e-36,1.2581e-05,1.899e-20,-1.3979e-22,0.64796,0.00064191,-0.00058261,8.3068e-34,0.00010552,-38.878,-144.55,-55.076,1.9346,2.9107e-15,-2.1504e-17,98.63,-144.58,-55.076,-38.843,0,0.016684,0,1,3.49,0,-3.49,0
0,0,0,0,0,0,0.00010506,-0.00058148,2.2364e-36,1.2548e-05,4.0808e-20,-1.4341e-22,0.64636,0.00064087,-0.00058171,8.2371e-34,0.00010529,-38.836,-144.33,-54.998,1.9295,6.2647e-15,-2.2057e-17,98.471,-144.37,-54.998,-38.801,0,0.016687,0,1,3.495,0,-3.495,0
0,0,0,0,0,0,0.00010483,-0.00058058,2.1919e-36,1.2515e-05,6.2628e-20,-1.4702e-22,0.64476,0.00063984,-0.00058081,8.1673e-34,0.00010505,-38.794,-144.11,-54.921,1.9244,9.6189e-15,-2.2609e-17,98.312,-144.15,-54.921,-38.759,0,0.01669,0,1,3.5,0,-3.5,0
0,0,0,0,0,0,0.0001046,-0.00057968,2.1475e-36,1.2482e-05,8.4448e-20,-1.5063e-22,0.64317,0.0006388,-0.0005799,8.0975e-34,0.00010482,-38.752,-143.9,-54.843,1.9193,1.2973e-14,-2.3162e-17,98.153,-143.93,-54.843,-38.717,0,0.016692,0,1,3.505,0,-3.505,0
0,0,0,0,0,0,0.00010437,-0.00057877,2.103e-36,1.2449e-05,1.0627e-19,-1.5424e-22,0.64157,0.00063777,-0.000579,8.0278e-34,0.00010459,-38.71,-143.68,-54.766,1.9142,1.6327e-14,-2.3714e-17,97.994,-143.72,-54.766,-38.675,0,0.016695,0,1,3.51,0,-3.51,0
0,0,0,0,0,0,0.00010414,-0.00057787,2.0585e-36,1.2416e-05,1.2809e-19,-1.5785e-22,0.63997,0.00063673,-0.0005781,7.958e-34,0.00010436,-38.668,-143.47,-54.688,1.9091,1.9681e-14,-2.4266e-17,97.835,-143.5,-54.688,-38.633,0,0.016698,0,1,3.515,0,-3.515,0
0,0,0,0,0,0,0.00010391,-0.00057697,2.0141e-36,1.2383e-05,1.4991e-19,-1.6147e-22,0.63838,0.00063569,-0.0005772,7.8883e-34,0.00010413,-38.625,-143.25,-54.611,1.904,2.3035e-14,-2.4819e-17,97.676,-143.29,-54.611,-38.591,0,0.016701,0,1,3.52,0,-3.52,0
0,0,0,0,0,0,0.00010368,-0.00057607,1.9696e-36,1.2349e-05,1.7173e-19,-1.6508e-22,0.63678,0.00063466,-0.0005763,7.8185e-34,0.0001039,-38.583,-143.04,-54.533,1.899,2.6389e-14,-2.5371e-17,97.517,-143.07,-54.533,-38.549,0,0.016704,0,1,3.525,0,-3.525,0
0,0,0,0,0,0,0.00010345,-0.00057517,1.9251e-36,1.2316e-05,1.9355e-19,-1.6869e-22,0.63518,0.00063362,-0.00057539,7.7488e-34,0.00010367,-38.541,-142.82,-54.456,1.8939,2.9743e-14,-2.5924e-17,97.358,-142.85,-54.456,-38.507,0,0.016707,0,1,3.53,0,-3.53,0
0,0,0,0,0,0,0.00010322,-0.00057427,1.8807e-36,1.2283e-05,2.1537e-19,-1.723e-22,0.63358,0.00063259,-0.00057449,7.679e-34,0.00010344,-38.499,-142.6,-54.378,1.8888,3.3098e-14,-2.6476e-17,97.199,-142.64,-54.378,-38.465,0,0.01671,0,1,3.535,0,-3.535,0
0,0,0,0,0,0,0.00010299,-0.00057337,1.8362e-36,1.225e-05,2.3718e-19,-1.7591e-22,0.63199,0.00063155,-0.00057359,7.6093e-34,0.00010321,-38.457,-142.39,-54.3,1.8837,3.6452e-14,-2.7028e-17,97.04,-142.42,-54.3,-38.423,0,0.016713,0,1,3.54,0,-3.54,0
0,0,0,0,0,0,0.00010276,-0.00057247,1.7917e-36,1.2217e-05,2.59e-19,-1.7952e-22,0.63039,0.00063052,-0.00057269,7.5395e-34,0.00010298,-38.415,-142.17,-54.223,1.8786,3.9806e-14,-2.7581e-17,96.881,-142.21,-54.223,-38.381,0,0.016716,0,1,3.545,0,-3.545,0
0,0,0,0,0,0,0.00010253,-0.00057157,1.7473e-36,1.2184e-05,2.8082e-19,-1.8314e-22,0.62879,0.00062948,-0.00057179,7.4698e-34,0.00010275,-38.373,-141.96,-54.145,1.8735,4.316e-14,-2.8133e-17,96.722,-141.99,-54.145,-38.339,0,0.016719,0,1,3.55,0,-3.55,0
0,0,0,0,0,0,0.0001023,-0.00057066,1.7028e-36,1.2151e-05,3.0264e-19,-1.8675e-22,0.6272,0.00062845,-0.00057088,7.4e-34,0.00010252,-38.331,-141.74,-54.068,1.8684,4.6514e-14,-2.8686e-17,96.563,-141.77,-54.068,-38.297,0,0.016722,0,1,3.555,0,-3.555,0
0,0,0,0,0,0,0.00010207,-0.00056976,1.6583e-36,1.2118e-05,3.2446e-19,-1.9036e-22,0.6256,0.00062741,-0.00056998,7.3302e-34,0.00010228,-38.288,-141.53,-53.99,1.8633,4.9868e-14,-2.9238e-17,96.405,-141.56,-53.99,-38.255,0,0.016725,0,1,3.56,0,-3.56,0
0,0,0,0,0,0,0.00010184,-0.00056886,1.6138e-36,1.2085e-05,3.4628e-19,-1.9397e-22,0.624,0.00062637,-0.00056908,7.2605e-34,0.00010205,-38.246,-141.31,-53.913,1.8583,5.3222e-14,-2.979e-17,96.246,-141.34,-53.913,-38.213,0,0.016728,0,1,3.565,0,-3.565,0
0,0,0,0,0,0,0.00010161,-0.00056796,1.5694e-36,1.2052e-05,3.681e-19,-1.9758e-22,0.6224,0.00062534,-0.00056818,7.1907e-34,0.00010182,-38.204,-141.09,-53.835,1.8532,5.6576e-14,-3.0343e-17,96.087,-141.13,-53.835,-38.171,0,0.016731,0,1,3.57,0,-3.57,0
0,0,0,0,0,0,0.00010138,-0.00056706,1.5249e-36,1.2019e-05,3.8992e-19,-2.012e-22,0.62081,0.0006243,-0.00056728,7.121e-34,0.00010159,-38.162,-140.88,-53.758,1.8481,5.993e-14,-3.0895e-17,95.928,-140.91,-53.758,-38.129,0,0.016733,0,1,3.575,0,-3.575,0
0,0,0,0,0,0,0.00010115,-0.00056616,1.4804e-36,1.1985e-05,4.1174e-19,-2.0481e-22,0.61921,0.00062327,-0.00056637,7.0512e-34,0.00010136,-38.12,-140.66,-53.68,1.843,6.3284e-14,-3.1447e-17,95.769,-140.7,-53.68,-38.087,0,0.016736,0,1,3.58,0,-3.58,0
0,0,0,0,0,0,0.00010092,-0.00056526,1.436e-36,1.1952e-05,4.3356e-19,-2.0842e-22,0.61761,0.00062223,-0.00056547,6.9815e-34,0.00010113,-38.078,-140.45,-53.603,1.8379,6.6639e-14,-3.2e-17,95.61,-140.48,-53.603,-38.045,0,0.016739,0,1,3.585,0,-3.585,0
0,0,0,0,0,0,0.00010069,-0.00056436,1.3915e-36,1.1919e-05,4.5538e-19,-2.1203e-22,0.61602,0.0006212,-0.00056457,6.9117e-34,0.0001009,-38.036,-140.23,-53.525,1.8328,6.9993e-14,-3.2552e-17,95.451,-140.26,-53.525,-38.003,0,0.016742,0,1,3.59,0,-3.59,0
0,0,0,0,0,0,0.00010046,-0.00056345,1.347e-36,1.1886e-05,4.772e-19,-2.1564e-22,0.61442,0.00062016,-0.00056367,6.842e-34,0.00010067,-37.994,-140.01,-53.448,1.8277,7.3347e-14,-3.3105e-17,95.292,-140.05,-53.448,-37.961,0,0.016745,0,1,3.595,0,-3.595,0
0,0,0,0,0,0,0.00010023,-0.00056255,1.3026e-36,1.1853e-05,4.9902e-19,-2.1925e-22,0.61282,0.00061913,-0.00056277,6.7722e-34,0.00010044,-37.952,-139.8,-53.37,1.8226,7.6701e-14,-3.3657e-17,95.133,-139.83,-53.37,-37.919,0,0.016748,0,1,3.6,0,-3.6,0
0,0,0,0,0,0,9.9995e-05,-0.00056165,1.2581e-36,1.182e-05,5.2084e-19,-2.2287e-22,0.61122,0.00061809,-0.00056186,6.7025e-34,0.00010021,-37.909,-139.58,-53.293,1.8176,8.0055e-14,-3.4209e-17,94.974,-139.62,-53.293,-37.877,0,0.016751,0,1,3.605,0,-3.605,0
0,0,0,0,0,0,9.9765e-05,-0.00056075,1.2136e-36,1.1787e-05,5.4266e-19,-2.2648e-22,0.60963,0.00061705,-0.00056096,6.6327e-34,9.9976e-05,-37.867,-139.37,-53.215,1.8125,8.3409e-14,-3.4762e-17,94.815,-139.4,-53.215,-37.835,0,0.016754,0,1,3.61,0,-3.61,0
0,0,0,0,0,0,9.9535e-05,-0.00055985,1.1692e-36,1.1754e-05,5.6448e-19,-2.3009e-22,0.60803,0.00061602,-0.00056006,6.5629e-34,9.9745e-05,-37.825,-139.15,-53.138,1.8074,8.6763e-14,-3.5314e-17,94.656,-139.18,-53.138,-37.793,0,0.016757,0,1,3.615,0,-3.615,0
0,0,0,0,0,0,9.9305e-05,-0.00055895,1.1247e-36,1.1721e-05,5.863e-19,-2.337e-22,0.60643,0.00061498,-0.00055916,6.4932e-34,9.9514e-05,-37.783,-138.94,-53.06,1.8023,9.0117e-14,-3.5867e-17,94.497,-138.97,-53.06,-37.751,0,0.01676,0,1,3.62,0,-3.62,0
0,0,0,0,0,0,9.9098e-05,-0.0005581,1.1016e-36,1.169e-05,6.0535e-19,-2.3462e-22,0.60488,0.00061402,-0.00055831,6.6682e-34,9.9306e-05,-37.741,-138.73,-52.987,1.7976,9.3046e-14,-3.6005e-17,94.349,-138.76,-52.987,-37.709,0,0.016763,0,1,3.625,0,-3.625,0
0,0,0,0,0,0,9.8931e-05,-0.00055736,1.1165e-36,1.1665e-05,6.1948e-19,-2.3075e-22,0.60341,0.00061318,-0.00055757,7.2784e-34,9.9138e-05,-37.7,-138.55,-52.92,1.7938,9.5219e-14,-3.5409e-17,94.22,-138.58,-52.92,-37.669,0,0.016765,0,1,3.63,0,-3.63,0
0,0,0,0,0,0,9.8764e-05,-0.00055662,1.1315e-36,1.164e-05,6.3361e-19,-2.2689e-22,0.60194,0.00061234,-0.00055682,7.8886e-34,9.897e-05,-37.66,-138.37,-52.854,1.7899,9.7392e-14,-3.4812e-17,94.091,-138.4,-52.854,-37.628,0,0.016768,0,1,3.635,0,-3.635,0
0,0,0,0,0,0,9.8597e-05,-0.00055587,1.1464e-36,1.1615e-05,6.4774e-19,-2.2302e-22,0.60046,0.0006115,-0.00055608,8.4988e-34,9.8803e-05,-37.619,-138.19,-52.787,1.786,9.9564e-14,-3.4216e-17,93.962,-138.22,-52.787,-37.587,0,0.016771,0,1,3.64,0,-3.64,0
0,0,0,0,0,0,9.843e-05,-0.00055513,1.1613e-36,1.159e-05,6.6187e-19,-2.1915e-22,0.59899,0.00061066,-0.00055534,9.1089e-34,9.8635e-05,-37.578,-138.01,-52.72,1.7821,1.0174e-13,-3.3619e-17,93.833,-138.04,-52.72,-37.546,0,0.016773,0,1,3.645,0,-3.645,0
0,0,0,0,0,0,9.8263e-05,-0.00055439,1.1762e-36,1.1564e-05,6.7601e-19,-2.1528e-22,0.59752,0.00060982,-0.00055459,9.7191e-34,9.8468e-05,-37.537,-137.83,-52.654,1.7783,1.0391e-13,-3.3023e-17,93.704,-137.86,-52.654,-37.505,0,0.016776,0,1,3.65,0,-3.65,0
0,0,0,0,0,0,9.8096e-05,-0.00055364,1.1911e-36,1.1539e-05,6.9014e-19,-2.1142e-22,0.59605,0.00060898,-0.00055385,1.0329e-33,9.83e-05,-37.496,-137.65,-52.587,1.7744,1.0608e-13,-3.2426e-17,93.575,-137.68,-52.587,-37.465,0,0.016779,0,1,3.655,0,-3.655,0
0,0,0,0,0,0,9.7929e-05,-0.0005529,1.2061e-36,1.1514e-05,7.0427e-19,-2.0755e-22,0.59457,0.00060814,-0.0005531,1.094e-33,9.8132e-05,-37.455,-137.47,-52.521,1.7705,1.0826e-13,-3.183e-17,93.446,-137.5,-52.521,-37.424,0,0.016781,0,1,3.66,0,-3.66,0
0,0,0,0,0,0,9.7762e-05,-0.00055215,1.221e-36,1.1489e-05,7.184e-19,-2.0368e-22,0.5931,0.0006073,-0.00055236,1.155e-33,9.7965e-05,-37.414,-137.29,-52.454,1.7666,1.1043e-13,-3.1233e-17,93.317,-137.32,-52.454,-37.383,0,0.016784,0,1,3.665,0,-3.665,0
0,0,0,0,0,0,9.7595e-05,-0.00055141,1.2359e-36,1.1464e-05,7.3253e-19,-1.9981e-22,0.59163,0.00060646,-0.00055161,1.216e-33,9.7797e-05,-37.373,-137.11,-52.387,1.7628,1.126e-13,-3.0636e-17,93.188,-137.14,-52.387,-37.342,0,0.016787,0,1,3.67,0,-3.67,0
0,0,0,0,0,0,9.7428e-05,-0.00055067,1.2508e-36,1.1438e-05,7.4666e-19,-1.9595e-22,0.59016,0.00060562,-0.00055087,1.277e-33,9.763e-05,-37.332,-136.93,-52.321,1.7589,1.1477e-13,-3.004e-17,93.06,-136.96,-52.321,-37.301,0,0.016789,0,1,3.675,0,-3.675,0
0,0,0,0,0,0,9.7261e-05,-0.00054992,1.2657e-36,1.1413e-05,7.6079e-19,-1.9208e-22,0.58868,0.00060478,-0.00055013,1.338e-33,9.7462e-05,-37.291,-136.75,-52.254,1.755,1.1695e-13,-2.9443e-17,92.931,-136.78,-52.254,-37.26,0,0.016792,0,1,3.68,0,-3.68,0
0,0,0,0,0,0,9.7094e-05,-0.00054918,1.2807e-36,1.1388e-05,7.7493e-19,-1.8821e-22,0.58721,0.00060394,-0.00054938,1.399e-33,9.7294e-05,-37.251,-136.56,-52.188,1.7512,1.1912e-13,-2.8847e-17,92.802,-136.6,-52.188,-37.22,0,0.016795,0,1,3.685,0,-3.685,0
0,0,0,0,0,0,9.6927e-05,-0.00054844,1.2956e-36,1.1363e-05,7.8906e-19,-1.8434e-22,0.58574,0.0006031,-0.00054864,1.4601e-33,9.7127e-05,-37.21,-136.38,-52.121,1.7473,1.2129e-13,-2.825e-17,92.673,-136.41,-52.121,-37.179,0,0.016797,0,1,3.69,0,-3.69,0
0,0,0,0,0,0,9.676e-05,-0.00054769,1.3105e-36,1.1338e-05,8.0319e-19,-1.8048e-22,0.58427,0.00060225,-0.00054789,1.5211e-33,9.6959e-05,-37.169,-136.2,-52.054,1.7434,1.2347e-13,-2.7654e-17,92.544,-136.23,-52.054,-37.138,0,0.0168,0,1,3.695,0,-3.695,0
0,0,0,0,0,0,9.6593e-05,-0.00054695,1.3254e-36,1.1312e-05,8.1732e-19,-1.7661e-22,0.58279,0.00060141,-0.00054715,1.5821e-33,9.6792e-05,-37.128,-136.02,-51.988,1.7395,1.2564e-13,-2.7057e-17,92.415,-136.05,-51.988,-37.097,0,0.016803,0,1,3.7,0,-3.7,0
0,0,0,0,0,0,9.6426e-05,-0.00054621,1.3403e-36,1.1287e-05,8.3145e-19,-1.7274e-22,0.58132,0.00060057,-0.0005464,1.6431e-33,9.6624e-05,-37.087,-135.84,-51.921,1.7357,1.2781e-13,-2.6461e-17,92.286,-135.87,-51.921,-37.056,0,0.016805,0,1,3.705,0,-3.705,0
0,0,0,0,0,0,9.6259e-05,-0.00054546,1.3553e-36,1.1262e-05,8.4558e-19,-1.6888e-22,0.57985,0.00059973,-0.00054566,1.7041e-33,9.6456e-05,-37.046,-135.66,-51.855,1.7318,1.2998e-13,-2.5864e-17,92.157,-135.69,-51.855,-37.016,0,0.016808,0,1,3.71,0,-3.71,0
0,0,0,0,0,0,9.6092e-05,-0.00054472,1.3702e-36,1.1237e-05,8.5972e-19,-1.6501e-22,0.57838,0.00059889,-0.00054492,1.7651e-33,9.6289e-05,-37.005,-135.48,-51.788,1.7279,1.3216e-13,-2.5268e-17,92.028,-135.51,-51.788,-36.975,0,0.01681,0,1,3.715,0,-3.715,0
0,0,0,0,0,0,9.5925e-05,-0.00054397,1.3851e-36,1.1212e-05,8.7385e-19,-1.6114e-22,0.5769,0.00059805,-0.00054417,1.8262e-33,9.6121e-05,-36.964,-135.3,-51.721,1.724,1.3433e-13,-2.4671e-17,91.899,-135.33,-51.721,-36.934,0,0.016813,0,1,3.72,0,-3.72,0
0,0,0,0,0,0,9.5758e-05,-0.00054323,1.4e-36,1.1186e-05,8.8798e-19,-1.5727e-22,0.57543,0.00059721,-0.00054343,1.8872e-33,9.5954e-05,-36.923,-135.12,-51.655,1.7202,1.365e-13,-2.4075e-17,91.77,-135.15,-51.655,-36.893,0,0.016816,0,1,3.725,0,-3.725,0
0,0,0,0,0,0,9.5591e-05,-0.00054249,1.4149e-36,1.1161e-05,9.0211e-19,-1.5341e-22,0.57396,0.00059637,-0.00054268,1.9482e-33,9.5786e-05,-36.882,-134.94,-51.588,1.7163,1.3867e-13,-2.3478e-17,91.641,-134.97,-51.588,-36.852,0,0.016818,0,1,3.73,0,-3.73,0
0,0,0,0,0,0,9.5424e-05,-0.00054174,1.4299e-36,1.1136e-05,9.1624e-19,-1.4954e-22,0.57249,0.00059553,-0.00054194,2.0092e-33,9.5618e-05,-36.842,-134.76,-51.522,1.7124,1.4085e-13,-2.2881e-17,91.512,-134.79,-51.522,-36.812,0,0.016821,0,1,3.735,0,-3.735,0
0,0,0,0,0,0,9.5257e-05,-0.000541,1.4448e-36,1.1111e-05,9.3037e-19,-1.4567e-22,0.57101,0.00059469,-0.00054119,2.0702e-33,9.5451e-05,-36.801,-134.58,-51.455,1.7085,1.4302e-13,-2.2285e-17,91.383,-134.61,-51.455,-36.771,0,0.016824,0,1,3.74,0,-3.74,0
0,0,0,0,0,0,9.509e-05,-0.00054026,1.4597e-36,1.1086e-05,9.445e-19,-1.418e-22,0.56954,0.00059385,-0.00054045,2.1313e-33,9.5283e-05,-36.76,-134.4,-51.388,1.7047,1.4519e-13,-2.1688e-17,91.254,-134.43,-51.388,-36.73,0,0.016826,0,1,3.745,0,-3.745,0
0,0,0,0,0,0,9.4923e-05,-0.00053951,1.4746e-36,1.106e-05,9.5864e-19,-1.3794e-22,0.56807,0.00059301,-0.00053971,2.1923e-33,9.5116e-05,-36.719,-134.22,-51.322,1.7008,1.4737e-13,-2.1092e-17,91.125,-134.24,-51.322,-36.689,0,0.016829,0,1,3.75,0,-3.75,0
0,0,0,0,0,0,9.4756e-05,-0.00053877,1.4895e-36,1.1035e-05,9.7277e-19,-1.3407e-22,0.5666,0.00059217,-0.00053896,2.2533e-33,9.4948e-05,-36.678,-134.03,-51.255,1.6969,1.4954e-13,-2.0495e-17,90.996,-134.06,-51.255,-36.648,0,0.016832,0,1,3.755,0,-3.755,0
0,0,0,0,0,0,9.4589e-05,-0.00053803,1.5045e-36,1.101e-05,9.869e-19,-1.302e-22,0.56512,0.00059133,-0.00053822,2.3143e-33,9.478e-05,-36.637,-133.85,-51.189,1.693,1.5171e-13,-1.9899e-17,90.867,-133.88,-51.189,-36.607,0,0.016834,0,1,3.76,0,-3.76,0
0,0,0,0,0,0,9.4422e-05,-0.00053728,1.5194e-36,1.0985e-05,1.001e-18,-1.2633e-22,0.56365,0.00059049,-0.00053747,2.3753e-33,9.4613e-05,-36.596,-133.67,-51.122,1.6892,1.5388e-13,-1.9302e-17,90.738,-133.7,-51.122,-36.567,0,0.016837,0,1,3.765,0,-3.765,0
0,0,0,0,0,0,9.4255e-05,-0.00053654,1.5343e-36,1.096e-05,1.0152e-18,-1.2247e-22,0.56218,0.00058965,-0.00053673,2.4364e-33,9.4445e-05,-36.555,-133.49,-51.055,1.6853,1.5606e-13,-1.8706e-17,90.609,-133.52,-51.055,-36.526,0,0.01684,0,1,3.77,0,-3.77,0
0,0,0,0,0,0,9.4088e-05,-0.00053579,1.5492e-36,1.0934e-05,1.0293e-18,-1.186e-22,0.56071,0.00058881,-0.00053598,2.4974e-33,9.4278e-05,-36.514,-133.31,-50.989,1.6814,1.5823e-13,-1.8109e-17,90.48,-133.34,-50.989,-36.485,0,0.016842,0,1,3.775,0,-3.775,0
0,0,0,0,0,0,9.3921e-05,-0.00053505,1.5641e-36,1.0909e-05,1.0434e-18,-1.1473e-22,0.55923,0.00058797,-0.00053524,2.5584e-33,9.411e-05,-36.473,-133.13,-50.922,1.6775,1.604e-13,-1.7513e-17,90.351,-133.16,-50.922,-36.444,0,0.016845,0,1,3.78,0,-3.78,0
0,0,0,0,0,0,9.3754e-05,-0.00053431,1.5791e-36,1.0884e-05,1.0576e-18,-1.1086e-22,0.55776,0.00058713,-0.0005345,2.6194e-33,9.3942e-05,-36.432,-132.95,-50.856,1.6737,1.6258e-13,-1.6916e-17,90.222,-132.98,-50.856,-36.403,0,0.016848,0,1,3.785,0,-3.785,0
0,0,0,0,0,0,9.3587e-05,-0.00053356,1.594e-36,1.0859e-05,1.0717e-18,-1.07e-22,0.55629,0.00058629,-0.00053375,2.6804e-33,9.3775e-05,-36.392,-132.77,-50.789,1.6698,1.6475e-13,-1.632e-17,90.093,-132.8,-50.789,-36.363,0,0.01685,0,1,3.79,0,-3.79,0
0,0,0,0,0,0,9.342e-05,-0.00053282,1.6089e-36,1.0834e-05,1.0858e-18,-1.0313e-22,0.55482,0.00058545,-0.00053301,2.7414e-33,9.3607e-05,-36.351,-132.59,-50.722,1.6659,1.6692e-13,-1.5723e-17,89.964,-132.62,-50.722,-36.322,0,0.016853,0,1,3.795,0,-3.795,0
0,0,0,0,0,0,9.3253e-05,-0.00053208,1.6238e-36,1.0808e-05,1.1e-18,-9.9262e-23,0.55334,0.00058461,-0.00053226,2.8025e-33,9.3439e-05,-36.31,-132.41,-50.656,1.662,1.6909e-13,-1.5126e-17,89.835,-132.44,-50.656,-36.281,0,0.016856,0,1,3.8,0,-3.8,0
0,0,0,0,0,0,9.3086e-05,-0.00053133,1.6387e-36,1.0783e-05,1.1141e-18,-9.5395e-23,0.55187,0.00058377,-0.00053152,2.8635e-33,9.3272e-05,-36.269,-132.23,-50.589,1.6582,1.7127e-13,-1.453e-17,89.706,-132.26,-50.589,-36.24,0,0.016858,0,1,3.805,0,-3.805,0
0,0,0,0,0,0,9.2919e-05,-0.00053059,1.6536e-36,1.0758e-05,1.1282e-18,-9.1527e-23,0.5504,0.00058293,-0.00053077,2.9245e-33,9.3104e-05,-36.228,-132.05,-50.523,1.6543,1.7344e-13,-1.3933e-17,89.577,-132.08,-50.523,-36.199,0,0.016861,0,1,3.81,0,-3.81,0
0,0,0,0,0,0,9.2752e-05,-0.00052984,1.6686e-36,1.0733e-05,1.1423e-18,-8.766e-23,0.54893,0.00058209,-0.00053003,2.9855e-33,9.2937e-05,-36.187,-131.87,-50.456,1.6504,1.7561e-13,-1.3337e-17,89.448,-131.89,-50.456,-36.159,0,0.016864,0,1,3.815,0,-3.815,0
0,0,0,0,0,0,9.2585e-05,-0.0005291,1.6835e-36,1.0708e-05,1.1565e-18,-8.3793e-23,0.54745,0.00058125,-0.00052929,3.0465e-33,9.2769e-05,-36.146,-131.69,-50.389,1.6465,1.7778e-13,-1.274e-17,89.32,-131.71,-50.389,-36.118,0,0.016866,0,1,3.82,0,-3.82,0
0,0,0,0,0,0,9.2418e-05,-0.00052836,1.6984e-36,1.0682e-05,1.1706e-18,-7.9925e-23,0.54598,0.00058041,-0.00052854,3.1076e-33,9.2601e-05,-36.105,-131.5,-50.323,1.6427,1.7996e-13,-1.2144e-17,89.191,-131.53,-50.323,-36.077,0,0.016869,0,1,3.825,0,-3.825,0
0,0,0,0,0,0,9.2251e-05,-0.00052761,1.7133e-36,1.0657e-05,1.1847e-18,-7.6058e-23,0.54451,0.00057957,-0.0005278,3.1686e-33,9.2434e-05,-36.064,-131.32,-50.256,1.6388,1.8213e-13,-1.1547e-17,89.062,-131.35,-50.256,-36.036,0,0.016872,0,1,3.83,0,-3.83,0
0,0,0,0,0,0,9.2084e-05,-0.00052687,1.7282e-36,1.0632e-05,1.1989e-18,-7.219e-23,0.54304,0.00057873,-0.00052705,3.2296e-33,9.2266e-05,-36.023,-131.14,-50.19,1.6349,1.843e-13,-1.0951e-17,88.933,-131.17,-50.19,-35.995,0,0.016874,0,1,3.835,0,-3.835,0
0,0,0,0,0,0,9.1917e-05,-0.00052613,1.7432e-36,1.0607e-05,1.213e-18,-6.8323e-23,0.54156,0.00057789,-0.00052631,3.2906e-33,9.2099e-05,-35.983,-130.96,-50.123,1.631,1.8648e-13,-1.0354e-17,88.804,-130.99,-50.123,-35.955,0,0.016877,0,1,3.84,0,-3.84,0
0,0,0,0,0,0,9.175e-05,-0.00052538,1.7581e-36,1.0582e-05,1.2271e-18,-6.4456e-23,0.54009,0.00057705,-0.00052556,3.3516e-33,9.1931e-05,-35.942,-130.78,-50.056,1.6272,1.8865e-13,-9.7576e-18,88.675,-130.81,-50.056,-35.914,0,0.01688,0,1,3.845,0,-3.845,0
0,0,0,0,0,0,9.1583e-05,-0.00052464,1.773e-36,1.0556e-05,1.2413e-18,-6.0588e-23,0.53862,0.00057621,-0.00052482,3.4126e-33,9.1763e-05,-35.901,-130.6,-49.99,1.6233,1.9082e-13,-9.1611e-18,88.546,-130.63,-49.99,-35.873,0,0.016882,0,1,3.85,0,-3.85,0
0,0,0,0,0,0,9.1416e-05,-0.0005239,1.7879e-36,1.0531e-05,1.2554e-18,-5.6721e-23,0.53715,0.00057537,-0.00052408,3.4737e-33,9.1596e-05,-35.86,-130.42,-49.923,1.6194,1.9299e-13,-8.5645e-18,88.417,-130.45,-49.923,-35.832,0,0.016885,0,1,3.855,0,-3.855,0
0,0,0,0,0,0,9.1249e-05,-0.00052315,1.8028e-36,1.0506e-05,1.2695e-18,-5.2853e-23,0.53567,0.00057453,-0.00052333,3.5347e-33,9.1428e-05,-35.819,-130.24,-49.857,1.6155,1.9517e-13,-7.968e-18,88.288,-130.27,-49.857,-35.791,0,0.016888,0,1,3.86,0,-3.86,0
0,0,0,0,0,0,9.1081e-05,-0.00052241,1.8178e-36,1.0481e-05,1.2837e-18,-4.8986e-23,0.5342,0.00057369,-0.00052259,3.5957e-33,9.1261e-05,-35.778,-130.06,-49.79,1.6117,1.9734e-13,-7.3715e-18,88.159,-130.09,-49.79,-35.75,0,0.01689,0,1,3.865,0,-3.865,0
0,0,0,0,0,0,9.0914e-05,-0.00052166,1.8327e-36,1.0456e-05,1.2978e-18,-4.5119e-23,0.53273,0.00057285,-0.00052184,3.6567e-33,9.1093e-05,-35.737,-129.88,-49.724,1.6078,1.9951e-13,-6.7749e-18,88.03,-129.91,-49.724,-35.71,0,0.016893,0,1,3.87,0,-3.87,0
0,0,0,0,0,0,9.0747e-05,-0.00052092,1.8476e-36,1.043e-05,1.3119e-18,-4.1251e-23,0.53126,0.00057201,-0.0005211,3.7177e-33,9.0925e-05,-35.696,-129.7,-49.657,1.6039,2.0169e-13,-6.1784e-18,87.901,-129.72,-49.657,-35.669,0,0.016895,0,1,3.875,0,-3.875,0
0,0,0,0,0,0,9.058e-05,-0.00052018,1.8625e-36,1.0405e-05,1.3261e-18,-3.7384e-23,0.52978,0.00057117,-0.00052035,3.7788e-33,9.0758e-05,-35.655,-129.52,-49.59,1.6,2.0386e-13,-5.5818e-18,87.772,-129.54,-49.59,-35.628,0,0.016898,0,1,3.88,0,-3.88,0
0,0,0,0,0,0,9.0413e-05,-0.00051943,1.8774e-36,1.038e-05,1.3402e-18,-3.3516e-23,0.52831,0.00057033,-0.00051961,3.8398e-33,9.059e-05,-35.614,-129.34,-49.524,1.5962,2.0603e-13,-4.9853e-18,87.643,-129.36,-49.524,-35.587,0,0.016901,0,1,3.885,0,-3.885,0
0,0,0,0,0,0,9.0246e-05,-0.00051869,1.8924e-36,1.0355e-05,1.3543e-18,-2.9649e-23,0.52684,0.00056949,-0.00051887,3.9008e-33,9.0423e-05,-35.574,-129.16,-49.457,1.5923,2.082e-13,-4.3888e-18,87.514,-129.18,-49.457,-35.546,0,0.016903,0,1,3.89,0,-3.89,0
0,0,0,0,0,0,9.0079e-05,-0.00051795,1.9073e-36,1.033e-05,1.3685e-18,-2.5782e-23,0.52537,0.00056865,-0.00051812,3.9618e-33,9.0255e-05,-35.533,-128.97,-49.391,1.5884,2.1038e-13,-3.7922e-18,87.385,-129,-49.391,-35.506,0,0.016906,0,1,3.895,0,-3.895,0
0,0,0,0,0,0,8.9912e-05,-0.0005172,1.9222e-36,1.0304e-05,1.3826e-18,-2.1914e-23,0.52389,0.00056781,-0.00051738,4.0228e-33,9.0087e-05,-35.492,-128.79,-49.324,1.5845,2.1255e-13,-3.1957e-18,87.256,-128.82,-49.324,-35.465,0,0.016909,0,1,3.9,0,-3.9,0
0,0,0,0,0,0,8.9745e-05,-0.00051646,1.9371e-36,1.0279e-05,1.3967e-18,-1.8047e-23,0.52242,0.00056697,-0.00051663,4.0838e-33,8.992e-05,-35.451,-128.61,-49.257,1.5807,2.1472e-13,-2.5992e-18,87.127,-128.64,-49.257,-35.424,0,0.016911,0,1,3.905,0,-3.905,0
0,0,0,0,0,0,8.9578e-05,-0.00051572,1.952e-36,1.0254e-05,1.4108e-18,-1.4179e-23,0.52095,0.00056613,-0.00051589,4.1449e-33,8.9752e-05,-35.41,-128.43,-49.191,1.5768,2.169e-13,-2.0026e-18,86.998,-128.46,-49.191,-35.383,0,0.016914,0,1,3.91,0,-3.91,0
0,0,0,0,0,0,8.9411e-05,-0.00051497,1.967e-36,1.0229e-05,1.425e-18,-1.0312e-23,0.51948,0.00056529,-0.00051514,4.2059e-33,8.9585e-05,-35.369,-128.25,-49.124,1.5729,2.1907e-13,-1.4061e-18,86.869,-128.28,-49.124,-35.342,0,0.016917,0,1,3.915,0,-3.915,0
0,0,0,0,0,0,8.9244e-05,-0.00051423,1.9819e-36,1.0204e-05,1.4391e-18,-6.4447e-24,0.518,0.00056445,-0.0005144,4.2669e-33,8.9417e-05,-35.328,-128.07,-49.058,1.569,2.2124e-13,-8.0952e-19,86.74,-128.1,-49.058,-35.302,0,0.016919,0,1,3.92,0,-3.92,0
0,0,0,0,0,0,8.9077e-05,-0.00051348,1.9968e-36,1.0178e-05,1.4532e-18,-2.5774e-24,0.51653,0.00056361,-0.00051366,4.3279e-33,8.9249e-05,-35.287,-127.89,-48.991,1.5652,2.2341e-13,-2.13e-19,86.611,-127.92,-48.991,-35.261,0,0.016922,0,1,3.925,0,-3.925,0
0,0,0,0,0,0,8.891e-05,-0.00051274,2.0117e-36,1.0153e-05,1.4674e-18,1.2901e-24,0.51506,0.00056277,-0.00051291,4.3889e-33,8.9082e-05,-35.246,-127.71,-48.924,1.5613,2.2559e-13,3.8356e-19,86.482,-127.74,-48.924,-35.22,0,0.016925,0,1,3.93,0,-3.93,0
0,0,0,0,0,0,8.8743e-05,-0.000512,2.0266e-36,1.0128e-05,1.4815e-18,5.1574e-24,0.51359,0.00056193,-0.00051217,4.45e-33,8.8914e-05,-35.205,-127.53,-48.858,1.5574,2.2776e-13,9.8008e-19,86.353,-127.56,-48.858,-35.179,0,0.016927,0,1,3.935,0,-3.935,0
0,0,0,0,0,0,8.8576e-05,-0.00051125,2.0416e-36,1.0103e-05,1.4956e-18,9.0248e-24,0.51211,0.00056109,-0.00051142,4.511e-33,8.8747e-05,-35.164,-127.35,-48.791,1.5535,2.2993e-13,1.5766e-18,86.224,-127.37,-48.791,-35.138,0,0.01693,0,1,3.94,0,-3.94,0
0,0,0,0,0,0,8.8409e-05,-0.00051051,2.0565e-36,1.0078e-05,1.5098e-18,1.2892e-23,0.51064,0.00056025,-0.00051068,4.572e-33,8.8579e-05,-35.124,-127.17,-48.725,1.5497,2.321e-13,2.1732e-18,86.095,-127.19,-48.725,-35.097,0,0.016933,0,1,3.945,0,-3.945,0
0,0,0,0,0,0,8.8242e-05,-0.00050977,2.0714e-36,1.0052e-05,1.5239e-18,1.676e-23,0.50917,0.00055941,-0.00050993,4.633e-33,8.8411e-05,-35.083,-126.99,-48.658,1.5458,2.3428e-13,2.7697e-18,85.966,-127.01,-48.658,-35.057,0,0.016935,0,1,3.95,0,-3.95,0
0,0,0,0,0,0,8.8075e-05,-0.00050902,2.0863e-36,1.0027e-05,1.538e-18,2.0627e-23,0.5077,0.00055856,-0.00050919,4.694e-33,8.8244e-05,-35.042,-126.81,-48.591,1.5419,2.3645e-13,3.3662e-18,85.837,-126.83,-48.591,-35.016,0,0.016938,0,1,3.955,0,-3.955,0
0,0,0,0,0,0,8.7908e-05,-0.00050828,2.1012e-36,1.0002e-05,1.5522e-18,2.4494e-23,0.50622,0.00055772,-0.00050845,4.755e-33,8.8076e-05,-35.001,-126.63,-48.525,1.5381,2.3862e-13,3.9628e-18,85.709,-126.65,-48.525,-34.975,0,0.016941,0,1,3.96,0,-3.96,0
0,0,0,0,0,0,8.7755e-05,-0.00050757,2.1033e-36,9.9783e-06,1.5528e-18,2.6812e-23,0.50478,0.00055693,-0.00050774,4.7885e-33,8.7922e-05,-34.96,-126.45,-48.461,1.5344,2.3872e-13,4.3191e-18,85.586,-126.48,-48.461,-34.935,0,0.016943,0,1,3.965,0,-3.965,0
0,0,0,0,0,0,8.7638e-05,-0.00050695,2.0709e-36,9.9589e-06,1.5174e-18,2.4979e-23,0.5034,0.00055624,-0.00050712,4.7481e-33,8.7805e-05,-34.92,-126.3,-48.403,1.5314,2.3328e-13,4.0326e-18,85.481,-126.33,-48.403,-34.895,0,0.016946,0,1,3.97,0,-3.97,0
0,0,0,0,0,0,8.7522e-05,-0.00050633,2.0385e-36,9.9394e-06,1.482e-18,2.3148e-23,0.50202,0.00055556,-0.0005065,4.7076e-33,8.7688e-05,-34.88,-126.15,-48.345,1.5284,2.2784e-13,3.7461e-18,85.376,-126.17,-48.345,-34.855,0,0.016948,0,1,3.975,0,-3.975,0
0,0,0,0,0,0,8.7405e-05,-0.00050571,2.0061e-36,9.92e-06,1.4466e-18,2.1316e-23,0.50064,0.00055487,-0.00050588,4.6672e-33,8.7571e-05,-34.84,-125.99,-48.287,1.5255,2.224e-13,3.4596e-18,85.271,-126.02,-48.287,-34.815,0,0.016951,0,1,3.98,0,-3.98,0
0,0,0,0,0,0,8.7288e-05,-0.0005051,1.9737e-36,9.9006e-06,1.4112e-18,1.9484e-23,0.49926,0.00055419,-0.00050526,4.6268e-33,8.7453e-05,-34.8,-125.84,-48.229,1.5225,2.1696e-13,3.1732e-18,85.166,-125.87,-48.229,-34.775,0,0.016953,0,1,3.985,0,-3.985,0
0,0,0,0,0,0,8.7171e-05,-0.00050448,1.9413e-36,9.8811e-06,1.3758e-18,1.7652e-23,0.49788,0.0005535,-0.00050464,4.5864e-33,8.7336e-05,-34.761,-125.69,-48.171,1.5195,2.1151e-13,2.8866e-18,85.06,-125.71,-48.171,-34.735,0,0.016955,0,1,3.99,0,-3.99,0
0,0,0,0,0,0,8.7054e-05,-0.00050386,1.9089e-36,9.8617e-06,1.3404e-18,1.582e-23,0.4965,0.00055282,-0.00050402,4.546e-33,8.7219e-05,-34.721,-125.54,-48.113,1.5165,2.0607e-13,2.6002e-18,84.955,-125.56,-48.113,-34.695,0,0.016958,0,1,3.995,0,-3.995,0
0,0,0,0,0,0,8.6938e-05,-0.00050324,1.8765e-36,9.8423e-06,1.305e-18,1.3988e-23,0.49512,0.00055213,-0.00050341,4.5056e-33,8.7102e-05,-34.681,-125.38,-48.055,1.5135,2.0063e-13,2.3137e-18,84.85,-125.41,-48.055,-34.655,0,0.01696,0,1,4,0,-4,0
0,0,0,0,0,0,8.6821e-05,-0.00050262,1.8441e-36,9.8229e-06,1.2696e-18,1.2156e-23,0.49374,0.00055145,-0.00050279,4.4652e-33,8.6985e-05,-34.641,-125.23,-47.997,1.5105,1.9519e-13,2.0272e-18,84.745,-125.26,-47.997,-34.616,0,0.016963,0,1,4.005,0,-4.005,0
0,0,0,0,0,0,8.6704e-05,-0.00050201,1.8117e-36,9.8034e-06,1.2342e-18,1.0323e-23,0.49237,0.00055076,-0.00050217,4.4248e-33,8.6867e-05,-34.601,-125.08,-47.939,1.5075,1.8974e-13,1.7406e-18,84.64,-125.1,-47.939,-34.576,0,0.016965,0,1,4.01,0,-4.01,0
0,0,0,0,0,0,8.6587e-05,-0.00050139,1.7793e-36,9.784e-06,1.1988e-18,8.4916e-24,0.49099,0.00055008,-0.00050155,4.3844e-33,8.675e-05,-34.561,-124.92,-47.882,1.5046,1.843e-13,1.4542e-18,84.535,-124.95,-47.882,-34.536,0,0.016967,0,1,4.015,0,-4.015,0
0,0,0,0,0,0,8.6471e-05,-0.00050077,1.7469e-36,9.7646e-06,1.1634e-18,6.6596e-24,0.48961,0.0005494,-0.00050093,4.3439e-33,8.6633e-05,-34.521,-124.77,-47.824,1.5016,1.7886e-13,1.1677e-18,84.43,-124.8,-47.824,-34.496,0,0.01697,0,1,4.02,0,-4.02,0
0,0,0,0,0,0,8.6354e-05,-0.00050015,1.7145e-36,9.7452e-06,1.128e-18,4.8276e-24,0.48823,0.00054871,-0.00050031,4.3035e-33,8.6516e-05,-34.481,-124.62,-47.766,1.4986,1.7342e-13,8.8117e-19,84.325,-124.64,-47.766,-34.456,0,0.016972,0,1,4.025,0,-4.025,0
0,0,0,0,0,0,8.6237e-05,-0.00049953,1.682e-36,9.7257e-06,1.0926e-18,2.9955e-24,0.48685,0.00054803,-0.00049969,4.2631e-33,8.6399e-05,-34.441,-124.47,-47.708,1.4956,1.6798e-13,5.9466e-19,84.22,-124.49,-47.708,-34.416,0,0.016975,0,1,4.03,0,-4.03,0
0,0,0,0,0,0,8.612e-05,-0.00049891,1.6496e-36,9.7063e-06,1.0572e-18,1.1637e-24,0.48547,0.00054734,-0.00049908,4.2227e-33,8.6281e-05,-34.401,-124.31,-47.65,1.4926,1.6253e-13,3.0819e-19,84.114,-124.34,-47.65,-34.376,0,0.016977,0,1,4.035,0,-4.035,0
0,0,0,0,0,0,8.6004e-05,-0.0004983,1.6172e-36,9.6869e-06,1.0218e-18,-6.6835e-25,0.48409,0.00054666,-0.00049846,4.1823e-33,8.6164e-05,-34.361,-124.16,-47.592,1.4896,1.5709e-13,2.1682e-20,84.009,-124.19,-47.592,-34.336,0,0.01698,0,1,4.04,0,-4.04,0
0,0,0,0,0,0,8.5887e-05,-0.00049768,1.5848e-36,9.6675e-06,9.8643e-19,-2.5004e-24,0.48271,0.00054597,-0.00049784,4.1419e-33,8.6047e-05,-34.321,-124.01,-47.534,1.4866,1.5165e-13,-2.6482e-19,83.904,-124.03,-47.534,-34.297,0,0.016982,0,1,4.045,0,-4.045,0
0,0,0,0,0,0,8.577e-05,-0.00049706,1.5524e-36,9.648e-06,9.5103e-19,-4.3324e-24,0.48133,0.00054529,-0.00049722,4.1015e-33,8.593e-05,-34.281,-123.86,-47.476,1.4836,1.4621e-13,-5.5132e-19,83.799,-123.88,-47.476,-34.257,0,0.016984,0,1,4.05,0,-4.05,0
0,0,0,0,0,0,8.5653e-05,-0.00049644,1.52e-36,9.6286e-06,9.1564e-19,-6.1643e-24,0.47996,0.0005446,-0.0004966,4.0611e-33,8.5813e-05,-34.241,-123.7,-47.418,1.4807,1.4077e-13,-8.378e-19,83.694,-123.73,-47.418,-34.217,0,0.016987,0,1,4.055,0,-4.055,0
0,0,0,0,0,0,8.5537e-05,-0.00049582,1.4876e-36,9.6092e-06,8.8024e-19,-7.9963e-24,0.47858,0.00054392,-0.00049598,4.0206e-33,8.5695e-05,-34.201,-123.55,-47.36,1.4777,1.3532e-13,-1.1243e-18,83.589,-123.57,-47.36,-34.177,0,0.016989,0,1,4.06,0,-4.06,0
0,0,0,0,0,0,8.542e-05,-0.00049521,1.4552e-36,9.5898e-06,8.4484e-19,-9.8283e-24,0.4772,0.00054323,-0.00049536,3.9802e-33,8.5578e-05,-34.161,-123.4,-47.303,1.4747,1.2988e-13,-1.4108e-18,83.484,-123.42,-47.303,-34.137,0,0.016992,0,1,4.065,0,-4.065,0
0,0,0,0,0,0,8.5303e-05,-0.00049459,1.4228e-36,9.5703e-06,8.0944e-19,-1.166e-23,0.47582,0.00054255,-0.00049475,3.9398e-33,8.5461e-05,-34.122,-123.24,-47.245,1.4717,1.2444e-13,-1.6973e-18,83.379,-123.27,-47.245,-34.097,0,0.016994,0,1,4.07,0,-4.07,0
0,0,0,0,0,0,8.5186e-05,-0.00049397,1.3904e-36,9.5509e-06,7.7404e-19,-1.3492e-23,0.47444,0.00054186,-0.00049413,3.8994e-33,8.5344e-05,-34.082,-123.09,-47.187,1.4687,1.19e-13,-1.9838e-18,83.273,-123.12,-47.187,-34.057,0,0.016997,0,1,4.075,0,-4.075,0
0,0,0,0,0,0,8.507e-05,-0.00049335,1.358e-36,9.5315e-06,7.3864e-19,-1.5324e-23,0.47306,0.00054118,-0.00049351,3.859e-33,8.5227e-05,-34.042,-122.94,-47.129,1.4657,1.1355e-13,-2.2703e-18,83.168,-122.96,-47.129,-34.017,0,0.016999,0,1,4.08,0,-4.08,0
0,0,0,0,0,0,8.4953e-05,-0.00049273,1.3256e-36,9.5121e-06,7.0324e-19,-1.7156e-23,0.47168,0.00054049,-0.00049289,3.8186e-33,8.5109e-05,-34.002,-122.79,-47.071,1.4627,1.0811e-13,-2.5568e-18,83.063,-122.81,-47.071,-33.978,0,0.017001,0,1,4.085,0,-4.085,0
0,0,0,0,0,0,8.4836e-05,-0.00049211,1.2932e-36,9.4926e-06,6.6784e-19,-1.8988e-23,0.4703,0.00053981,-0.00049227,3.7782e-33,8.4992e-05,-33.962,-122.63,-47.013,1.4598,1.0267e-13,-2.8433e-18,82.958,-122.66,-47.013,-33.938,0,0.017004,0,1,4.09,0,-4.09,0
0,0,0,0,0,0,8.4719e-05,-0.0004915,1.2608e-36,9.4732e-06,6.3244e-19,-2.082e-23,0.46893,0.00053912,-0.00049165,3.7378e-33,8.4875e-05,-33.922,-122.48,-46.955,1.4568,9.7227e-14,-3.1298e-18,82.853,-122.5,-46.955,-33.898,0,0.017006,0,1,4.095,0,-4.095,0
0,0,0,0,0,0,8.4602e-05,-0.00049088,1.2284e-36,9.4538e-06,5.9704e-19,-2.2652e-23,0.46755,0.00053844,-0.00049103,3.6973e-33,8.4758e-05,-33.882,-122.33,-46.897,1.4538,9.1785e-14,-3.4163e-18,82.748,-122.35,-46.897,-33.858,0,0.017009,0,1,4.1,0,-4.1,0
0,0,0,0,0,0,8.4486e-05,-0.00049026,1.196e-36,9.4344e-06,5.6164e-19,-2.4484e-23,0.46617,0.00053775,-0.00049042,3.6569e-33,8.4641e-05,-33.842,-122.17,-46.839,1.4508,8.6343e-14,-3.7028e-18,82.643,-122.2,-46.839,-33.818,0,0.017011,0,1,4.105,0,-4.105,0
0,0,0,0,0,0,8.4369e-05,-0.00048964,1.1636e-36,9.4149e-06,5.2624e-19,-2.6316e-23,0.46479,0.00053707,-0.0004898,3.6165e-33,8.4523e-05,-33.802,-122.02,-46.781,1.4478,8.09e-14,-3.9893e-18,82.538,-122.05,-46.781,-33.778,0,0.017014,0,1,4.11,0,-4.11,0
0,0,0,0,0,0,8.4252e-05,-0.00048902,1.1312e-36,9.3955e-06,4.9085e-19,-2.8148e-23,0.46341,0.00053639,-0.00048918,3.5761e-33,8.4406e-05,-33.762,-121.87,-46.723,1.4448,7.5459e-14,-4.2758e-18,82.433,-121.89,-46.723,-33.738,0,0.017016,0,1,4.115,0,-4.115,0
0,0,0,0,0,0,8.4135e-05,-0.00048841,1.0988e-36,9.3761e-06,4.5545e-19,-2.998e-23,0.46203,0.0005357,-0.00048856,3.5357e-33,8.4289e-05,-33.722,-121.72,-46.666,1.4418,7.0016e-14,-4.5623e-18,82.327,-121.74,-46.666,-33.698,0,0.017018,0,1,4.12,0,-4.12,0
0,0,0,0,0,0,8.4019e-05,-0.00048779,1.0664e-36,9.3567e-06,4.2005e-19,-3.1812e-23,0.46065,0.00053502,-0.00048794,3.4953e-33,8.4172e-05,-33.682,-121.56,-46.608,1.4389,6.4574e-14,-4.8488e-18,82.222,-121.59,-46.608,-33.659,0,0.017021,0,1,4.125,0,-4.125,0
0,0,0,0,0,0,8.3902e-05,-0.00048717,1.034e-36,9.3372e-06,3.8465e-19,-3.3644e-23,0.45927,0.00053433,-0.00048732,3.4549e-33,8.4055e-05,-33.642,-121.41,-46.55,1.4359,5.9132e-14,-5.1353e-18,82.117,-121.43,-46.55,-33.619,0,0.017023,0,1,4.13,0,-4.13,0
0,0,0,0,0,0,8.3785e-05,-0.00048655,1.0016e-36,9.3178e-06,3.4925e-19,-3.5476e-23,0.45789,0.00053365,-0.0004867,3.4145e-33,8.3937e-05,-33.602,-121.26,-46.492,1.4329,5.3689e-14,-5.4218e-18,82.012,-121.28,-46.492,-33.579,0,0.017026,0,1,4.135,0,-4.135,0
0,0,0,0,0,0,8.3668e-05,-0.00048593,9.6917e-37,9.2984e-06,3.1385e-19,-3.7308e-23,0.45652,0.00053296,-0.00048609,3.374e-33,8.382e-05,-33.562,-121.11,-46.434,1.4299,4.8247e-14,-5.7082e-18,81.907,-121.13,-46.434,-33.539,0,0.017028,0,1,4.14,0,-4.14,0
0,0,0,0,0,0,8.3552e-05,-0.00048532,9.3677e-37,9.279e-06,2.7845e-19,-3.914e-23,0.45514,0.00053228,-0.00048547,3.3336e-33,8.3703e-05,-33.522,-120.95,-46.376,1.4269,4.2805e-14,-5.9948e-18,81.802,-120.98,-46.376,-33.499,0,0.01703,0,1,4.145,0,-4.145,0
0,0,0,0,0,0,8.3435e-05,-0.0004847,9.0436e-37,9.2595e-06,2.4305e-19,-4.0972e-23,0.45376,0.00053159,-0.00048485,3.2932e-33,8.3586e-05,-33.482,-120.8,-46.318,1.4239,3.7363e-14,-6.2813e-18,81.697,-120.82,-46.318,-33.459,0,0.017033,0,1,4.15,0,-4.15,0
0,0,0,0,0,0,8.3318e-05,-0.00048408,8.7196e-37,9.2401e-06,2.0765e-19,-4.2804e-23,0.45238,0.00053091,-0.00048423,3.2528e-33,8.3469e-05,-33.443,-120.65,-46.26,1.4209,3.192e-14,-6.5678e-18,81.592,-120.67,-46.26,-33.419,0,0.017035,0,1,4.155,0,-4.155,0
0,0,0,0,0,0,8.3201e-05,-0.00048346,8.3956e-37,9.2207e-06,1.7225e-19,-4.4636e-23,0.451,0.00053022,-0.00048361,3.2124e-33,8.3351e-05,-33.403,-120.49,-46.202,1.4179,2.6479e-14,-6.8542e-18,81.487,-120.52,-46.202,-33.38,0,0.017038,0,1,4.16,0,-4.16,0
0,0,0,0,0,0,8.3085e-05,-0.00048284,8.0715e-37,9.2013e-06,1.3685e-19,-4.6468e-23,0.44962,0.00052954,-0.00048299,3.172e-33,8.3234e-05,-33.363,-120.34,-46.144,1.415,2.1036e-14,-7.1407e-18,81.381,-120.36,-46.144,-33.34,0,0.01704,0,1,4.165,0,-4.165,0
0,0,0,0,0,0,8.2968e-05,-0.00048222,7.7475e-37,9.1818e-06,1.0145e-19,-4.83e-23,0.44824,0.00052885,-0.00048237,3.1316e-33,8.3117e-05,-33.323,-120.19,-46.087,1.412,1.5594e-14,-7.4272e-18,81.276,-120.21,-46.087,-33.3,0,0.017043,0,1,4.17,0,-4.17,0
0,0,0,0,0,0,8.2851e-05,-0.00048161,7.4235e-37,9.1624e-06,6.6054e-20,-5.0132e-23,0.44686,0.00052817,-0.00048175,3.0912e-33,8.3e-05,-33.283,-120.04,-46.029,1.409,1.0152e-14,-7.7137e-18,81.171,-120.06,-46.029,-33.26,0,0.017045,0,1,4.175,0,-4.175,0
0,0,0,0,0,0,8.2734e-05,-0.00048099,7.0995e-37,9.143e-06,3.0657e-20,-5.1964e-23,0.44548,0.00052748,-0.00048114,3.0508e-33,8.2883e-05,-33.243,-119.88,-45.971,1.406,4.7097e-15,-8.0002e-18,81.066,-119.91,-45.971,-33.22,0,0.017047,0,1,4.18,0,-4.18,0
0,0,0,0,0,0,8.2617e-05,-0.00048037,6.7754e-37,9.1236e-06,-4.7428e-21,-5.3796e-23,0.44411,0.0005268,-0.00048052,3.0103e-33,8.2765e-05,-33.203,-119.73,-45.913,1.403,-7.3265e-16,-8.2867e-18,80.961,-119.75,-45.913,-33.18,0,0.01705,0,1,4.185,0,-4.185,0
0,0,0,0,0,0,8.2501e-05,-0.00047975,6.4514e-37,9.1041e-06,-4.0143e-20,-5.5628e-23,0.44273,0.00052611,-0.0004799,2.9699e-33,8.2648e-05,-33.163,-119.58,-45.855,1.4,-6.175e-15,-8.5732e-18,80.856,-119.6,-45.855,-33.14,0,0.017052,0,1,4.19,0,-4.19,0
0,0,0,0,0,0,8.2384e-05,-0.00047913,6.1273e-37,9.0847e-06,-7.5543e-20,-5.746e-23,0.44135,0.00052543,-0.00047928,2.9295e-33,8.2531e-05,-33.123,-119.42,-45.797,1.397,-1.1617e-14,-8.8597e-18,80.751,-119.45,-45.797,-33.1,0,0.017055,0,1,4.195,0,-4.195,0
0,0,0,0,0,0,8.2267e-05,-0.00047852,5.8033e-37,9.0653e-06,-1.1094e-19,-5.9292e-23,0.43997,0.00052475,-0.00047866,2.8891e-33,8.2414e-05,-33.083,-119.27,-45.739,1.3941,-1.7059e-14,-9.1462e-18,80.646,-119.29,-45.739,-33.061,0,0.017057,0,1,4.2,0,-4.2,0
0,0,0,0,0,0,8.215e-05,-0.0004779,5.4793e-37,9.0459e-06,-1.4634e-19,-6.1124e-23,0.43859,0.00052406,-0.00047804,2.8487e-33,8.2297e-05,-33.043,-119.12,-45.681,1.3911,-2.2501e-14,-9.4327e-18,80.54,-119.14,-45.681,-33.021,0,0.01706,0,1,4.205,0,-4.205,0
0,0,0,0,0,0,8.2034e-05,-0.00047728,5.1552e-37,9.0264e-06,-1.8174e-19,-6.2956e-23,0.43721,0.00052338,-0.00047742,2.8083e-33,8.2179e-05,-33.003,-118.97,-45.623,1.3881,-2.7944e-14,-9.7192e-18,80.435,-118.99,-45.623,-32.981,0,0.017062,0,1,4.21,0,-4.21,0
0,0,0,0,0,0,8.1917e-05,-0.00047666,4.8312e-37,9.007e-06,-2.1714e-19,-6.4788e-23,0.43583,0.00052269,-0.00047681,2.7679e-33,8.2062e-05,-32.963,-118.81,-45.565,1.3851,-3.3386e-14,-1.0006e-17,80.33,-118.84,-45.565,-32.941,0,0.017064,0,1,4.215,0,-4.215,0
0,0,0,0,0,0,8.18e-05,-0.00047604,4.5072e-37,8.9876e-06,-2.5254e-19,-6.662e-23,0.43445,0.00052201,-0.00047619,2.7275e-33,8.1945e-05,-32.923,-118.66,-45.508,1.3821,-3.8828e-14,-1.0292e-17,80.225,-118.68,-45.508,-32.901,0,0.017067,0,1,4.22,0,-4.22,0
0,0,0,0,0,0,8.1683e-05,-0.00047542,4.1831e-37,8.9682e-06,-2.8794e-19,-6.8452e-23,0.43307,0.00052132,-0.00047557,2.687e-33,8.1828e-05,-32.883,-118.51,-45.45,1.3791,-4.427e-14,-1.0579e-17,80.12,-118.53,-45.45,-32.861,0,0.017069,0,1,4.225,0,-4.225,0
0,0,0,0,0,0,8.1567e-05,-0.00047481,3.8591e-37,8.9487e-06,-3.2334e-19,-7.0284e-23,0.4317,0.00052064,-0.00047495,2.6466e-33,8.1711e-05,-32.843,-118.36,-45.392,1.3761,-4.9713e-14,-1.0865e-17,80.015,-118.38,-45.392,-32.821,0,0.017072,0,1,4.23,0,-4.23,0
0,0,0,0,0,0,8.145e-05,-0.00047419,3.535e-37,8.9293e-06,-3.5874e-19,-7.2116e-23,0.43032,0.00051995,-0.00047433,2.6062e-33,8.1593e-05,-32.804,-118.2,-45.334,1.3731,-5.5155e-14,-1.1152e-17,79.91,-118.22,-45.334,-32.781,0,0.017074,0,1,4.235,0,-4.235,0
0,0,0,0,0,0,8.1333e-05,-0.00047357,3.211e-37,8.9099e-06,-3.9413e-19,-7.3948e-23,0.42894,0.00051927,-0.00047371,2.5658e-33,8.1476e-05,-32.764,-118.05,-45.276,1.3702,-6.0597e-14,-1.1438e-17,79.805,-118.07,-45.276,-32.742,0,0.017076,0,1,4.24,0,-4.24,0
0,0,0,0,0,0,8.1216e-05,-0.00047295,2.887e-37,8.8905e-06,-4.2953e-19,-7.578e-23,0.42756,0.00051858,-0.00047309,2.5254e-33,8.1359e-05,-32.724,-117.9,-45.218,1.3672,-6.6039e-14,-1.1725e-17,79.7,-117.92,-45.218,-32.702,0,0.017079,0,1,4.245,0,-4.245,0
0,0,0,0,0,0,8.11e-05,-0.00047233,2.5629e-37,8.871e-06,-4.6493e-19,-7.7612e-23,0.42618,0.0005179,-0.00047248,2.485e-33,8.1242e-05,-32.684,-117.74,-45.16,1.3642,-7.1481e-14,-1.2011e-17,79.594,-117.77,-45.16,-32.662,0,0.017081,0,1,4.25,0,-4.25,0
0,0,0,0,0,0,8.0983e-05,-0.00047172,2.2389e-37,8.8516e-06,-5.0033e-19,-7.9444e-23,0.4248,0.00051721,-0.00047186,2.4446e-33,8.1125e-05,-32.644,-117.59,-45.102,1.3612,-7.6924e-14,-1.2298e-17,79.489,-117.61,-45.102,-32.622,0,0.017084,0,1,4.255,0,-4.255,0
0,0,0,0,0,0,8.0866e-05,-0.0004711,1.9149e-37,8.8322e-06,-5.3573e-19,-8.1276e-23,0.42342,0.00051653,-0.00047124,2.4042e-33,8.1007e-05,-32.604,-117.44,-45.044,1.3582,-8.2366e-14,-1.2584e-17,79.384,-117.46,-45.044,-32.582,0,0.017086,0,1,4.26,0,-4.26,0
0,0,0,0,0,0,8.0749e-05,-0.00047048,1.5908e-37,8.8128e-06,-5.7113e-19,-8.3108e-23,0.42204,0.00051584,-0.00047062,2.3637e-33,8.089e-05,-32.564,-117.29,-44.986,1.3552,-8.7808e-14,-1.2871e-17,79.279,-117.31,-44.986,-32.542,0,0.017089,0,1,4.265,0,-4.265,0
0,0,0,0,0,0,8.0633e-05,-0.00046986,1.2668e-37,8.7933e-06,-6.0653e-19,-8.494e-23,0.42066,0.00051516,-0.00047,2.3233e-33,8.0773e-05,-32.524,-117.13,-44.929,1.3522,-9.325e-14,-1.3157e-17,79.174,-117.15,-44.929,-32.502,0,0.017091,0,1,4.27,0,-4.27,0
0,0,0,0,0,0,8.0516e-05,-0.00046924,9.4276e-38,8.7739e-06,-6.4193e-19,-8.6772e-23,0.41929,0.00051447,-0.00046938,2.2829e-33,8.0656e-05,-32.484,-116.98,-44.871,1.3493,-9.8693e-14,-1.3444e-17,79.069,-117,-44.871,-32.462,0,0.017093,0,1,4.275,0,-4.275,0
0,0,0,0,0,0,8.0399e-05,-0.00046862,6.1872e-38,8.7545e-06,-6.7733e-19,-8.8604e-23,0.41791,0.00051379,-0.00046876,2.2425e-33,8.0539e-05,-32.444,-116.83,-44.813,1.3463,-1.0413e-13,-1.373e-17,78.964,-116.85,-44.813,-32.423,0,0.017096,0,1,4.28,0,-4.28,0
0,0,0,0,0,0,8.0282e-05,-0.00046801,2.9471e-38,8.7351e-06,-7.1273e-19,-9.0436e-23,0.41653,0.00051311,-0.00046815,2.2021e-33,8.0421e-05,-32.404,-116.67,-44.755,1.3433,-1.0958e-13,-1.4017e-17,78.859,-116.7,-44.755,-32.383,0,0.017098,0,1,4.285,0,-4.285,0
0,0,0,0,0,0,8.0165e-05,-0.00046739,-2.9335e-39,8.7156e-06,-7.4813e-19,-9.2268e-23,0.41515,0.00051242,-0.00046753,2.1617e-33,8.0304e-05,-32.364,-116.52,-44.697,1.3403,-1.1502e-13,-1.4303e-17,78.753,-116.54,-44.697,-32.343,0,0.017101,0,1,4.29,0,-4.29,0
0,0,0,0,0,0,8.0049e-05,-0.00046677,-3.5338e-38,8.6962e-06,-7.8353e-19,-9.41e-23,0.41377,0.00051174,-0.00046691,2.1213e-33,8.0187e-05,-32.324,-116.37,-44.639,1.3373,-1.2046e-13,-1.459e-17,78.648,-116.39,-44.639,-32.303,0,0.017103,0,1,4.295,0,-4.295,0
0,0,0,0,0,0,7.9932e-05,-0.00046615,-6.7742e-38,8.6768e-06,-8.1893e-19,-9.5932e-23,0.41239,0.00051105,-0.00046629,2.0809e-33,8.007e-05,-32.284,-116.22,-44.581,1.3343,-1.259e-13,-1.4876e-17,78.543,-116.24,-44.581,-32.263,0,0.017106,0,1,4.3,0,-4.3,0
0,0,0,0,0,0,7.9815e-05,-0.00046553,-1.0014e-37,8.6573e-06,-8.5432e-19,-9.7764e-23,0.41101,0.00051037,-0.00046567,2.0404e-33,7.9953e-05,-32.244,-116.06,-44.523,1.3313,-1.3135e-13,-1.5163e-17,78.438,-116.08,-44.523,-32.223,0,0.017108,0,1,4.305,0,-4.305,0
0,0,0,0,0,0,7.9698e-05,-0.00046492,-1.3255e-37,8.6379e-06,-8.8972e-19,-9.9596e-23,0.40963,0.00050968,-0.00046505,2e-33,7.9835e-05,-32.204,-115.91,-44.465,1.3284,-1.3679e-13,-1.5449e-17,78.333,-115.93,-44.465,-32.183,0,0.01711,0,1,4.31,0,-4.31,0
0,0,0,0,0,0,7.9582e-05,-0.0004643,-1.6495e-37,8.6185e-06,-9.2512e-19,-1.0143e-22,0.40825,0.000509,-0.00046443,1.9596e-33,7.9718e-05,-32.164,-115.76,-44.407,1.3254,-1.4223e-13,-1.5736e-17,78.228,-115.78,-44.407,-32.143,0,0.017113,0,1,4.315,0,-4.315,0
0,0,0,0,0,0,7.9479e-05,-0.00046371,-1.9328e-37,8.6006e-06,-9.4751e-19,-1.0133e-22,0.4069,0.00050836,-0.00046385,1.9319e-33,7.9615e-05,-32.125,-115.61,-44.352,1.3226,-1.4567e-13,-1.5723e-17,78.13,-115.63,-44.352,-32.104,0,0.017115,0,1,4.32,0,-4.32,0
0,0,0,0,0,0,7.9403e-05,-0.0004632,-2.1409e-37,8.5854e-06,-9.4593e-19,-9.7665e-23,0.40559,0.0005078,-0.00046333,1.9277e-33,7.9539e-05,-32.086,-115.48,-44.301,1.3203,-1.4543e-13,-1.5159e-17,78.044,-115.5,-44.301,-32.065,0,0.017117,0,1,4.325,0,-4.325,0
0,0,0,0,0,0,7.9326e-05,-0.00046268,-2.349e-37,8.5703e-06,-9.4435e-19,-9.4004e-23,0.40428,0.00050724,-0.00046282,1.9234e-33,7.9462e-05,-32.047,-115.35,-44.25,1.318,-1.4519e-13,-1.4595e-17,77.958,-115.37,-44.25,-32.026,0,0.01712,0,1,4.33,0,-4.33,0
0,0,0,0,0,0,7.925e-05,-0.00046216,-2.5571e-37,8.5552e-06,-9.4277e-19,-9.0343e-23,0.40297,0.00050668,-0.0004623,1.9192e-33,7.9385e-05,-32.007,-115.22,-44.199,1.3156,-1.4494e-13,-1.403e-17,77.872,-115.24,-44.199,-31.987,0,0.017122,0,1,4.335,0,-4.335,0
0,0,0,0,0,0,7.9174e-05,-0.00046165,-2.7653e-37,8.54e-06,-9.4119e-19,-8.6682e-23,0.40166,0.00050612,-0.00046178,1.9149e-33,7.9308e-05,-31.968,-115.09,-44.148,1.3133,-1.447e-13,-1.3466e-17,77.786,-115.11,-44.148,-31.947,0,0.017124,0,1,4.34,0,-4.34,0
0,0,0,0,0,0,7.9097e-05,-0.00046113,-2.9734e-37,8.5249e-06,-9.3961e-19,-8.3021e-23,0.40035,0.00050556,-0.00046126,1.9107e-33,7.9232e-05,-31.929,-114.96,-44.097,1.311,-1.4446e-13,-1.2902e-17,77.7,-114.98,-44.097,-31.908,0,0.017126,0,1,4.345,0,-4.345,0
0,0,0,0,0,0,7.9021e-05,-0.00046061,-3.1815e-37,8.5097e-06,-9.3803e-19,-7.936e-23,0.39904,0.000505,-0.00046075,1.9064e-33,7.9155e-05,-31.89,-114.83,-44.047,1.3086,-1.4422e-13,-1.2338e-17,77.614,-114.85,-44.047,-31.869,0,0.017128,0,1,4.35,0,-4.35,0
0,0,0,0,0,0,7.8944e-05,-0.00046009,-3.3897e-37,8.4946e-06,-9.3646e-19,-7.5699e-23,0.39773,0.00050444,-0.00046023,1.9022e-33,7.9078e-05,-31.851,-114.7,-43.996,1.3063,-1.4397e-13,-1.1774e-17,77.528,-114.72,-43.996,-31.83,0,0.017131,0,1,4.355,0,-4.355,0
0,0,0,0,0,0,7.8868e-05,-0.00045958,-3.5978e-37,8.4795e-06,-9.3488e-19,-7.2037e-23,0.39642,0.00050388,-0.00045971,1.8979e-33,7.9002e-05,-31.812,-114.57,-43.945,1.304,-1.4373e-13,-1.121e-17,77.442,-114.59,-43.945,-31.791,0,0.017133,0,1,4.36,0,-4.36,0
0,0,0,0,0,0,7.8792e-05,-0.00045906,-3.8059e-37,8.4643e-06,-9.333e-19,-6.8377e-23,0.39511,0.00050332,-0.00045919,1.8937e-33,7.8925e-05,-31.772,-114.44,-43.894,1.3017,-1.4349e-13,-1.0646e-17,77.356,-114.46,-43.894,-31.752,0,0.017135,0,1,4.365,0,-4.365,0
0,0,0,0,0,0,7.8715e-05,-0.00045854,-4.0141e-37,8.4492e-06,-9.3172e-19,-6.4715e-23,0.3938,0.00050276,-0.00045868,1.8894e-33,7.8848e-05,-31.733,-114.31,-43.843,1.2993,-1.4325e-13,-1.0082e-17,77.27,-114.33,-43.843,-31.713,0,0.017137,0,1,4.37,0,-4.37,0
0,0,0,0,0,0,7.8639e-05,-0.00045803,-4.2222e-37,8.4341e-06,-9.3014e-19,-6.1054e-23,0.39249,0.0005022,-0.00045816,1.8852e-33,7.8771e-05,-31.694,-114.18,-43.792,1.297,-1.43e-13,-9.5178e-18,77.184,-114.2,-43.792,-31.674,0,0.01714,0,1,4.375,0,-4.375,0
0,0,0,0,0,0,7.8562e-05,-0.00045751,-4.4303e-37,8.4189e-06,-9.2856e-19,-5.7393e-23,0.39118,0.00050164,-0.00045764,1.8809e-33,7.8695e-05,-31.655,-114.05,-43.741,1.2947,-1.4276e-13,-8.9537e-18,77.098,-114.07,-43.741,-31.635,0,0.017142,0,1,4.38,0,-4.38,0
0,0,0,0,0,0,7.8486e-05,-0.00045699,-4.6385e-37,8.4038e-06,-9.2698e-19,-5.3732e-23,0.38987,0.00050108,-0.00045712,1.8767e-33,7.8618e-05,-31.616,-113.92,-43.69,1.2924,-1.4252e-13,-8.3896e-18,77.012,-113.94,-43.69,-31.596,0,0.017144,0,1,4.385,0,-4.385,0
0,0,0,0,0,0,7.841e-05,-0.00045647,-4.8466e-37,8.3886e-06,-9.254e-19,-5.0071e-23,0.38856,0.00050052,-0.00045661,1.8724e-33,7.8541e-05,-31.577,-113.79,-43.639,1.29,-1.4228e-13,-7.8255e-18,76.926,-113.81,-43.639,-31.557,0,0.017146,0,1,4.39,0,-4.39,0
0,0,0,0,0,0,7.8333e-05,-0.00045596,-5.0547e-37,8.3735e-06,-9.2383e-19,-4.641e-23,0.38725,0.00049996,-0.00045609,1.8682e-33,7.8464e-05,-31.538,-113.66,-43.588,1.2877,-1.4203e-13,-7.2614e-18,76.84,-113.68,-43.588,-31.517,0,0.017148,0,1,4.395,0,-4.395,0
0,0,0,0,0,0,7.8257e-05,-0.00045544,-5.2628e-37,8.3584e-06,-9.2225e-19,-4.2749e-23,0.38594,0.0004994,-0.00045557,1.8639e-33,7.8388e-05,-31.498,-113.53,-43.538,1.2854,-1.4179e-13,-6.6973e-18,76.754,-113.55,-43.538,-31.478,0,0.017151,0,1,4.4,0,-4.4,0
0,0,0,0,0,0,7.818e-05,-0.00045492,-5.471e-37,8.3432e-06,-9.2067e-19,-3.9088e-23,0.38462,0.00049884,-0.00045505,1.8597e-33,7.8311e-05,-31.459,-113.4,-43.487,1.283,-1.4155e-13,-6.1332e-18,76.668,-113.42,-43.487,-31.439,0,0.017153,0,1,4.405,0,-4.405,0
0,0,0,0,0,0,7.8104e-05,-0.00045441,-5.6791e-37,8.3281e-06,-9.1909e-19,-3.5427e-23,0.38331,0.00049828,-0.00045454,1.8554e-33,7.8234e-05,-31.42,-113.27,-43.436,1.2807,-1.413e-13,-5.5692e-18,76.582,-113.29,-43.436,-31.4,0,0.017155,0,1,4.41,0,-4.41,0
0,0,0,0,0,0,7.8028e-05,-0.00045389,-5.8872e-37,8.3129e-06,-9.1751e-19,-3.1766e-23,0.382,0.00049772,-0.00045402,1.8512e-33,7.8158e-05,-31.381,-113.14,-43.385,1.2784,-1.4106e-13,-5.0051e-18,76.496,-113.16,-43.385,-31.361,0,0.017157,0,1,4.415,0,-4.415,0
0,0,0,0,0,0,7.7951e-05,-0.00045337,-6.0954e-37,8.2978e-06,-9.1593e-19,-2.8104e-23,0.38069,0.00049716,-0.0004535,1.8469e-33,7.8081e-05,-31.342,-113.01,-43.334,1.2761,-1.4082e-13,-4.4409e-18,76.41,-113.03,-43.334,-31.322,0,0.01716,0,1,4.42,0,-4.42,0
0,0,0,0,0,0,7.7875e-05,-0.00045285,-6.3035e-37,8.2827e-06,-9.1435e-19,-2.4443e-23,0.37938,0.0004966,-0.00045298,1.8427e-33,7.8004e-05,-31.303,-112.88,-43.283,1.2737,-1.4058e-13,-3.8768e-18,76.325,-112.9,-43.283,-31.283,0,0.017162,0,1,4.425,0,-4.425,0
0,0,0,0,0,0,7.7798e-05,-0.00045234,-6.5116e-37,8.2675e-06,-9.1277e-19,-2.0782e-23,0.37807,0.00049604,-0.00045247,1.8384e-33,7.7927e-05,-31.264,-112.75,-43.232,1.2714,-1.4033e-13,-3.3128e-18,76.239,-112.77,-43.232,-31.244,0,0.017164,0,1,4.43,0,-4.43,0
0,0,0,0,0,0,7.7722e-05,-0.00045182,-6.7198e-37,8.2524e-06,-9.112e-19,-1.7121e-23,0.37676,0.00049548,-0.00045195,1.8342e-33,7.7851e-05,-31.224,-112.62,-43.181,1.2691,-1.4009e-13,-2.7487e-18,76.153,-112.64,-43.181,-31.205,0,0.017166,0,1,4.435,0,-4.435,0
0,0,0,0,0,0,7.7646e-05,-0.0004513,-6.9279e-37,8.2372e-06,-9.0962e-19,-1.346e-23,0.37545,0.00049492,-0.00045143,1.8299e-33,7.7774e-05,-31.185,-112.49,-43.13,1.2668,-1.3985e-13,-2.1846e-18,76.067,-112.51,-43.13,-31.166,0,0.017168,0,1,4.44,0,-4.44,0
0,0,0,0,0,0,7.7569e-05,-0.00045079,-7.136e-37,8.2221e-06,-9.0804e-19,-9.7987e-24,0.37414,0.00049436,-0.00045091,1.8257e-33,7.7697e-05,-31.146,-112.36,-43.08,1.2644,-1.3961e-13,-1.6205e-18,75.981,-112.38,-43.08,-31.126,0,0.017171,0,1,4.445,0,-4.445,0
0,0,0,0,0,0,7.7493e-05,-0.00045027,-7.3441e-37,8.207e-06,-9.0646e-19,-6.1379e-24,0.37283,0.0004938,-0.0004504,1.8214e-33,7.7621e-05,-31.107,-112.23,-43.029,1.2621,-1.3936e-13,-1.0564e-18,75.895,-112.24,-43.029,-31.087,0,0.017173,0,1,4.45,0,-4.45,0
0,0,0,0,0,0,7.7417e-05,-0.00044975,-7.5523e-37,8.1918e-06,-9.0488e-19,-2.4767e-24,0.37152,0.00049324,-0.00044988,1.8171e-33,7.7544e-05,-31.068,-112.09,-42.978,1.2598,-1.3912e-13,-4.9234e-19,75.809,-112.11,-42.978,-31.048,0,0.017175,0,1,4.455,0,-4.455,0
0,0,0,0,0,0,7.734e-05,-0.00044923,-7.7604e-37,8.1767e-06,-9.033e-19,1.1845e-24,0.37021,0.00049268,-0.00044936,1.8129e-33,7.7467e-05,-31.029,-111.96,-42.927,1.2574,-1.3888e-13,7.1767e-20,75.723,-111.98,-42.927,-31.009,0,0.017177,0,1,4.46,0,-4.46,0
0,0,0,0,0,0,7.7264e-05,-0.00044872,-7.9685e-37,8.1616e-06,-9.0172e-19,4.8457e-24,0.3689,0.00049212,-0.00044884,1.8086e-33,7.739e-05,-30.99,-111.83,-42.876,1.2551,-1.3864e-13,6.3587e-19,75.637,-111.85,-42.876,-30.97,0,0.01718,0,1,4.465,0,-4.465,0
0,0,0,0,0,0,7.7187e-05,-0.0004482,-8.1767e-37,8.1464e-06,-9.0015e-19,8.5065e-24,0.36759,0.00049156,-0.00044833,1.8044e-33,7.7314e-05,-30.95,-111.7,-42.825,1.2528,-1.3839e-13,1.1999e-18,75.551,-111.72,-42.825,-30.931,0,0.017182,0,1,4.47,0,-4.47,0
0,0,0,0,0,0,7.7111e-05,-0.00044768,-8.3848e-37,8.1313e-06,-8.9857e-19,1.2168e-23,0.36628,0.000491,-0.00044781,1.8001e-33,7.7237e-05,-30.911,-111.57,-42.774,1.2505,-1.3815e-13,1.764e-18,75.465,-111.59,-42.774,-30.892,0,0.017184,0,1,4.475,0,-4.475,0
0,0,0,0,0,0,7.7035e-05,-0.00044716,-8.5929e-37,8.1161e-06,-8.9699e-19,1.5829e-23,0.36497,0.00049044,-0.00044729,1.7959e-33,7.716e-05,-30.872,-111.44,-42.723,1.2481,-1.3791e-13,2.3281e-18,75.379,-111.46,-42.723,-30.853,0,0.017186,0,1,4.48,0,-4.48,0
0,0,0,0,0,0,7.6958e-05,-0.00044665,-8.8011e-37,8.101e-06,-8.9541e-19,1.949e-23,0.36366,0.00048988,-0.00044677,1.7916e-33,7.7084e-05,-30.833,-111.31,-42.672,1.2458,-1.3767e-13,2.8922e-18,75.293,-111.33,-42.672,-30.814,0,0.017188,0,1,4.485,0,-4.485,0
0,0,0,0,0,0,7.6882e-05,-0.00044613,-9.0092e-37,8.0859e-06,-8.9383e-19,2.3151e-23,0.36235,0.00048932,-0.00044626,1.7874e-33,7.7007e-05,-30.794,-111.18,-42.621,1.2435,-1.3742e-13,3.4563e-18,75.207,-111.2,-42.621,-30.775,0,0.017191,0,1,4.49,0,-4.49,0
0,0,0,0,0,0,7.6805e-05,-0.00044561,-9.2173e-37,8.0707e-06,-8.9225e-19,2.6812e-23,0.36104,0.00048877,-0.00044574,1.7831e-33,7.693e-05,-30.755,-111.05,-42.571,1.2411,-1.3718e-13,4.0204e-18,75.121,-111.07,-42.571,-30.735,0,0.017193,0,1,4.495,0,-4.495,0
0,0,0,0,0,0,7.6729e-05,-0.0004451,-9.4254e-37,8.0556e-06,-8.9067e-19,3.0473e-23,0.35973,0.00048821,-0.00044522,1.7789e-33,7.6853e-05,-30.716,-110.92,-42.52,1.2388,-1.3694e-13,4.5845e-18,75.035,-110.94,-42.52,-30.696,0,0.017195,0,1,4.5,0,-4.5,0
0,0,0,0,0,0,7.6653e-05,-0.00044458,-9.6336e-37,8.0404e-06,-8.8909e-19,3.4134e-23,0.35842,0.00048765,-0.0004447,1.7746e-33,7.6777e-05,-30.676,-110.79,-42.469,1.2365,-1.367e-13,5.1486e-18,74.949,-110.81,-42.469,-30.657,0,0.017197,0,1,4.505,0,-4.505,0
0,0,0,0,0,0,7.6576e-05,-0.00044406,-9.8417e-37,8.0253e-06,-8.8752e-19,3.7796e-23,0.35711,0.00048709,-0.00044419,1.7704e-33,7.67e-05,-30.637,-110.66,-42.418,1.2342,-1.3645e-13,5.7127e-18,74.863,-110.68,-42.418,-30.618,0,0.017199,0,1,4.51,0,-4.51,0
0,0,0,0,0,0,7.65e-05,-0.00044354,-1.005e-36,8.0102e-06,-8.8594e-19,4.1456e-23,0.3558,0.00048653,-0.00044367,1.7661e-33,7.6623e-05,-30.598,-110.53,-42.367,1.2318,-1.3621e-13,6.2767e-18,74.777,-110.55,-42.367,-30.579,0,0.017202,0,1,4.515,0,-4.515,0
0,0,0,0,0,0,7.6423e-05,-0.00044303,-1.0258e-36,7.995e-06,-8.8436e-19,4.5118e-23,0.35449,0.00048597,-0.00044315,1.7619e-33,7.6547e-05,-30.559,-110.4,-42.316,1.2295,-1.3597e-13,6.8408e-18,74.691,-110.42,-42.316,-30.54,0,0.017204,0,1,4.52,0,-4.52,0
0,0,0,0,0,0,7.6347e-05,-0.00044251,-1.0466e-36,7.9799e-06,-8.8278e-19,4.8779e-23,0.35318,0.00048541,-0.00044263,1.7576e-33,7.647e-05,-30.52,-110.27,-42.265,1.2272,-1.3572e-13,7.4049e-18,74.605,-110.29,-42.265,-30.501,0,0.017206,0,1,4.525,0,-4.525,0
0,0,0,0,0,0,7.6271e-05,-0.00044199,-1.0674e-36,7.9647e-06,-8.812e-19,5.244e-23,0.35187,0.00048485,-0.00044212,1.7534e-33,7.6393e-05,-30.481,-110.14,-42.214,1.2249,-1.3548e-13,7.969e-18,74.519,-110.16,-42.214,-30.462,0,0.017208,0,1,4.53,0,-4.53,0
0,0,0,0,0,0,7.6194e-05,-0.00044148,-1.0882e-36,7.9496e-06,-8.7962e-19,5.6101e-23,0.35056,0.00048429,-0.0004416,1.7491e-33,7.6316e-05,-30.441,-110.01,-42.163,1.2225,-1.3524e-13,8.5331e-18,74.434,-110.03,-42.163,-30.423,0,0.017211,0,1,4.535,0,-4.535,0
0,0,0,0,0,0,7.6118e-05,-0.00044096,-1.109e-36,7.9345e-06,-8.7804e-19,5.9762e-23,0.34925,0.00048373,-0.00044108,1.7449e-33,7.624e-05,-30.402,-109.88,-42.112,1.2202,-1.35e-13,9.0972e-18,74.348,-109.9,-42.112,-30.384,0,0.017213,0,1,4.54,0,-4.54,0
0,0,0,0,0,0,7.6041e-05,-0.00044044,-1.1299e-36,7.9193e-06,-8.7646e-19,6.3423e-23,0.34794,0.00048317,-0.00044056,1.7406e-33,7.6163e-05,-30.363,-109.75,-42.062,1.2179,-1.3475e-13,9.6613e-18,74.262,-109.77,-42.062,-30.345,0,0.017215,0,1,4.545,0,-4.545,0
0,0,0,0,0,0,7.5965e-05,-0.00043992,-1.1507e-36,7.9042e-06,-8.7489e-19,6.7084e-23,0.34663,0.00048261,-0.00044005,1.7364e-33,7.6086e-05,-30.324,-109.62,-42.011,1.2155,-1.3451e-13,1.0225e-17,74.176,-109.64,-42.011,-30.305,0,0.017217,0,1,4.55,0,-4.55,0
0,0,0,0,0,0,7.5889e-05,-0.00043941,-1.1715e-36,7.889e-06,-8.7331e-19,7.0745e-23,0.34532,0.00048205,-0.00043953,1.7321e-33,7.601e-05,-30.285,-109.49,-41.96,1.2132,-1.3427e-13,1.0789e-17,74.09,-109.51,-41.96,-30.266,0,0.017219,0,1,4.555,0,-4.555,0
0,0,0,0,0,0,7.5812e-05,-0.00043889,-1.1923e-36,7.8739e-06,-8.7173e-19,7.4406e-23,0.34401,0.00048149,-0.00043901,1.7279e-33,7.5933e-05,-30.246,-109.36,-41.909,1.2109,-1.3403e-13,1.1354e-17,74.004,-109.38,-41.909,-30.227,0,0.017222,0,1,4.56,0,-4.56,0
0,0,0,0,0,0,7.5736e-05,-0.00043837,-1.2131e-36,7.8588e-06,-8.7015e-19,7.8068e-23,0.3427,0.00048093,-0.00043849,1.7236e-33,7.5856e-05,-30.207,-109.23,-41.858,1.2086,-1.3378e-13,1.1918e-17,73.918,-109.25,-41.858,-30.188,0,0.017224,0,1,4.565,0,-4.565,0
0,0,0,0,0,0,7.566e-05,-0.00043786,-1.2339e-36,7.8436e-06,-8.6857e-19,8.1729e-23,0.34139,0.00048037,-0.00043798,1.7194e-33,7.5779e-05,-30.167,-109.1,-41.807,1.2062,-1.3354e-13,1.2482e-17,73.832,-109.12,-41.807,-30.149,0,0.017226,0,1,4.57,0,-4.57,0
0,0,0,0,0,0,7.5583e-05,-0.00043734,-1.2547e-36,7.8285e-06,-8.6699e-19,8.539e-23,0.34007,0.00047981,-0.00043746,1.7151e-33,7.5703e-05,-30.128,-108.97,-41.756,1.2039,-1.333e-13,1.3046e-17,73.746,-108.99,-41.756,-30.11,0,0.017228,0,1,4.575,0,-4.575,0
0,0,0,0,0,0,7.5507e-05,-0.00043682,-1.2756e-36,7.8134e-06,-8.6541e-19,8.9051e-23,0.33876,0.00047925,-0.00043694,1.7109e-33,7.5626e-05,-30.089,-108.84,-41.705,1.2016,-1.3306e-13,1.361e-17,73.66,-108.86,-41.705,-30.071,0,0.017231,0,1,4.58,0,-4.58,0
0,0,0,0,0,0,7.543e-05,-0.0004363,-1.2964e-36,7.7982e-06,-8.6383e-19,9.2712e-23,0.33745,0.00047869,-0.00043642,1.7066e-33,7.5549e-05,-30.05,-108.71,-41.654,1.1993,-1.3281e-13,1.4174e-17,73.574,-108.73,-41.654,-30.032,0,0.017233,0,1,4.585,0,-4.585,0
0,0,0,0,0,0,7.5354e-05,-0.00043579,-1.3172e-36,7.7831e-06,-8.6226e-19,9.6373e-23,0.33614,0.00047813,-0.00043591,1.7024e-33,7.5473e-05,-30.011,-108.58,-41.603,1.1969,-1.3257e-13,1.4738e-17,73.488,-108.59,-41.603,-29.993,0,0.017235,0,1,4.59,0,-4.59,0
0,0,0,0,0,0,7.5278e-05,-0.00043527,-1.338e-36,7.7679e-06,-8.6068e-19,1.0003e-22,0.33483,0.00047757,-0.00043539,1.6981e-33,7.5396e-05,-29.972,-108.45,-41.553,1.1946,-1.3233e-13,1.5302e-17,73.402,-108.46,-41.553,-29.954,0,0.017237,0,1,4.595,0,-4.595,0
0,0,0,0,0,0,7.5201e-05,-0.00043475,-1.3588e-36,7.7528e-06,-8.591e-19,1.037e-22,0.33352,0.00047701,-0.00043487,1.6939e-33,7.5319e-05,-29.933,-108.32,-41.502,1.1923,-1.3209e-13,1.5866e-17,73.316,-108.33,-41.502,-29.914,0,0.017239,0,1,4.6,0,-4.6,0
0,0,0,0,0,0,7.5125e-05,-0.00043423,-1.3796e-36,7.7377e-06,-8.5752e-19,1.0736e-22,0.33221,0.00047645,-0.00043435,1.6896e-33,7.5242e-05,-29.893,-108.19,-41.451,1.1899,-1.3184e-13,1.643e-17,73.23,-108.2,-41.451,-29.875,0,0.017242,0,1,4.605,0,-4.605,0
0,0,0,0,0,0,7.5048e-05,-0.00043372,-1.4004e-36,7.7225e-06,-8.5594e-19,1.1102e-22,0.3309,0.00047589,-0.00043383,1.6854e-33,7.5166e-05,-29.854,-108.06,-41.4,1.1876,-1.316e-13,1.6994e-17,73.144,-108.07,-41.4,-29.836,0,0.017244,0,1,4.61,0,-4.61,0
0,0,0,0,0,0,7.4972e-05,-0.0004332,-1.4212e-36,7.7074e-06,-8.5436e-19,1.1468e-22,0.32959,0.00047533,-0.00043332,1.6811e-33,7.5089e-05,-29.815,-107.93,-41.349,1.1853,-1.3136e-13,1.7559e-17,73.058,-107.94,-41.349,-29.797,0,0.017246,0,1,4.615,0,-4.615,0
0,0,0,0,0,0,7.4896e-05,-0.00043268,-1.4421e-36,7.6922e-06,-8.5278e-19,1.1834e-22,0.32828,0.00047477,-0.0004328,1.6769e-33,7.5012e-05,-29.776,-107.79,-41.298,1.183,-1.3112e-13,1.8123e-17,72.972,-107.81,-41.298,-29.758,0,0.017248,0,1,4.62,0,-4.62,0
0,0,0,0,0,0,7.4819e-05,-0.00043217,-1.4629e-36,7.6771e-06,-8.512e-19,1.22e-22,0.32697,0.00047421,-0.00043228,1.6726e-33,7.4935e-05,-29.737,-107.66,-41.247,1.1806,-1.3087e-13,1.8687e-17,72.886,-107.68,-41.247,-29.719,0,0.01725,0,1,4.625,0,-4.625,0
0,0,0,0,0,0,7.4743e-05,-0.00043165,-1.4837e-36,7.662e-06,-8.4963e-19,1.2566e-22,0.32566,0.00047365,-0.00043176,1.6683e-33,7.4859e-05,-29.698,-107.53,-41.196,1.1783,-1.3063e-13,1.9251e-17,72.8,-107.55,-41.196,-29.68,0,0.017253,0,1,4.63,0,-4.63,0
0,0,0,0,0,0,7.4666e-05,-0.00043113,-1.5045e-36,7.6468e-06,-8.4805e-19,1.2932e-22,0.32435,0.00047309,-0.00043125,1.6641e-33,7.4782e-05,-29.659,-107.4,-41.145,1.176,-1.3039e-13,1.9815e-17,72.714,-107.42,-41.145,-29.641,0,0.017255,0,1,4.635,0,-4.635,0
0,0,0,0,0,0,7.459e-05,-0.00043061,-1.5253e-36,7.6317e-06,-8.4647e-19,1.3298e-22,0.32304,0.00047253,-0.00043073,1.6598e-33,7.4705e-05,-29.619,-107.27,-41.094,1.1737,-1.3014e-13,2.0379e-17,72.629,-107.29,-41.094,-29.602,0,0.017257,0,1,4.64,0,-4.64,0
0,0,0,0,0,0,7.4514e-05,-0.0004301,-1.5461e-36,7.6165e-06,-8.4489e-19,1.3665e-22,0.32173,0.00047197,-0.00043021,1.6556e-33,7.4629e-05,-29.58,-107.14,-41.044,1.1713,-1.299e-13,2.0943e-17,72.543,-107.16,-41.044,-29.563,0,0.017259,0,1,4.645,0,-4.645,0
0,0,0,0,0,0,7.4437e-05,-0.00042958,-1.5669e-36,7.6014e-06,-8.4331e-19,1.4031e-22,0.32042,0.00047141,-0.00042969,1.6513e-33,7.4552e-05,-29.541,-107.01,-40.993,1.169,-1.2966e-13,2.1507e-17,72.457,-107.03,-40.993,-29.523,0,0.017262,0,1,4.65,0,-4.65,0
0,0,0,0,0,0,7.4361e-05,-0.00042906,-1.5877e-36,7.5863e-06,-8.4173e-19,1.4397e-22,0.31911,0.00047085,-0.00042918,1.6471e-33,7.4475e-05,-29.502,-106.88,-40.942,1.1667,-1.2942e-13,2.2071e-17,72.371,-106.9,-40.942,-29.484,0,0.017264,0,1,4.655,0,-4.655,0
0,0,0,0,0,0,7.4284e-05,-0.00042855,-1.6086e-36,7.5711e-06,-8.4015e-19,1.4763e-22,0.3178,0.00047029,-0.00042866,1.6428e-33,7.4398e-05,-29.463,-106.75,-40.891,1.1643,-1.2917e-13,2.2635e-17,72.285,-106.77,-40.891,-29.445,0,0.017266,0,1,4.66,0,-4.66,0
0,0,0,0,0,0,7.4208e-05,-0.00042803,-1.6294e-36,7.556e-06,-8.3858e-19,1.5129e-22,0.31649,0.00046973,-0.00042814,1.6386e-33,7.4322e-05,-29.424,-106.62,-40.84,1.162,-1.2893e-13,2.3199e-17,72.199,-106.64,-40.84,-29.406,0,0.017268,0,1,4.665,0,-4.665,0
0,0,0,0,0,0,7.4132e-05,-0.00042751,-1.6502e-36,7.5409e-06,-8.37e-19,1.5495e-22,0.31518,0.00046917,-0.00042762,1.6343e-33,7.4245e-05,-29.385,-106.49,-40.789,1.1597,-1.2869e-13,2.3764e-17,72.113,-106.51,-40.789,-29.367,0,0.01727,0,1,4.67,0,-4.67,0
0,0,0,0,0,0,7.4055e-05,-0.00042699,-1.671e-36,7.5257e-06,-8.3542e-19,1.5861e-22,0.31387,0.00046861,-0.00042711,1.6301e-33,7.4168e-05,-29.345,-106.36,-40.738,1.1574,-1.2845e-13,2.4328e-17,72.027,-106.38,-40.738,-29.328,0,0.017273,0,1,4.675,0,-4.675,0
0,0,0,0,0,0,7.3979e-05,-0.00042648,-1.6918e-36,7.5106e-06,-8.3384e-19,1.6227e-22,0.31256,0.00046805,-0.00042659,1.6258e-33,7.4092e-05,-29.306,-106.23,-40.687,1.155,-1.282e-13,2.4892e-17,71.941,-106.25,-40.687,-29.289,0,0.017275,0,1,4.68,0,-4.68,0
0,0,0,0,0,0,7.3903e-05,-0.00042596,-1.7126e-36,7.4954e-06,-8.3226e-19,1.6593e-22,0.31125,0.00046749,-0.00042607,1.6216e-33,7.4015e-05,-29.267,-106.1,-40.636,1.1527,-1.2796e-13,2.5456e-17,71.855,-106.12,-40.636,-29.25,0,0.017277,0,1,4.685,0,-4.685,0
0,0,0,0,0,0,7.3846e-05,-0.00042549,-1.6857e-36,7.4822e-06,-8.1904e-19,1.6761e-22,0.30997,0.000467,-0.0004256,1.6191e-33,7.3958e-05,-29.228,-105.98,-40.589,1.1507,-1.2593e-13,2.5715e-17,71.778,-106,-40.589,-29.211,0,0.017279,0,1,4.69,0,-4.69,0
0,0,0,0,0,0,7.3802e-05,-0.00042506,-1.6272e-36,7.4703e-06,-7.9811e-19,1.6797e-22,0.3087,0.00046654,-0.00042517,1.6177e-33,7.3914e-05,-29.19,-105.87,-40.544,1.1488,-1.2271e-13,2.5771e-17,71.708,-105.89,-40.544,-29.173,0,0.017281,0,1,4.695,0,-4.695,0
0,0,0,0,0,0,7.3758e-05,-0.00042462,-1.5687e-36,7.4584e-06,-7.772e-19,1.6833e-22,0.30744,0.00046608,-0.00042473,1.6163e-33,7.387e-05,-29.151,-105.76,-40.498,1.147,-1.195e-13,2.5828e-17,71.638,-105.77,-40.498,-29.134,0,0.017283,0,1,4.7,0,-4.7,0
0,0,0,0,0,0,7.3715e-05,-0.00042419,-1.5102e-36,7.4465e-06,-7.5627e-19,1.687e-22,0.30618,0.00046562,-0.0004243,1.6149e-33,7.3826e-05,-29.113,-105.65,-40.453,1.1452,-1.1628e-13,2.5885e-17,71.567,-105.66,-40.453,-29.096,0,0.017285,0,1,4.705,0,-4.705,0
0,0,0,0,0,0,7.3671e-05,-0.00042375,-1.4517e-36,7.4346e-06,-7.3535e-19,1.6906e-22,0.30492,0.00046516,-0.00042386,1.6135e-33,7.3782e-05,-29.074,-105.53,-40.408,1.1433,-1.1306e-13,2.5942e-17,71.497,-105.55,-40.408,-29.057,0,0.017287,0,1,4.71,0,-4.71,0
0,0,0,0,0,0,7.3627e-05,-0.00042332,-1.3932e-36,7.4227e-06,-7.1443e-19,1.6942e-22,0.30365,0.0004647,-0.00042343,1.6121e-33,7.3738e-05,-29.036,-105.42,-40.363,1.1415,-1.0984e-13,2.5999e-17,71.427,-105.44,-40.363,-29.019,0,0.017289,0,1,4.715,0,-4.715,0
0,0,0,0,0,0,7.3584e-05,-0.00042288,-1.3347e-36,7.4107e-06,-6.9351e-19,1.6978e-22,0.30239,0.00046425,-0.00042299,1.6107e-33,7.3694e-05,-28.997,-105.31,-40.318,1.1397,-1.0663e-13,2.6056e-17,71.356,-105.33,-40.318,-28.98,0,0.017291,0,1,4.72,0,-4.72,0
0,0,0,0,0,0,7.354e-05,-0.00042245,-1.2763e-36,7.3988e-06,-6.7259e-19,1.7014e-22,0.30113,0.00046379,-0.00042256,1.6093e-33,7.365e-05,-28.959,-105.2,-40.272,1.1379,-1.0341e-13,2.6112e-17,71.286,-105.21,-40.272,-28.942,0,0.017294,0,1,4.725,0,-4.725,0
0,0,0,0,0,0,7.3496e-05,-0.00042201,-1.2178e-36,7.3869e-06,-6.5167e-19,1.7051e-22,0.29987,0.00046333,-0.00042212,1.6079e-33,7.3606e-05,-28.92,-105.09,-40.227,1.136,-1.0019e-13,2.6169e-17,71.215,-105.1,-40.227,-28.903,0,0.017296,0,1,4.73,0,-4.73,0
0,0,0,0,0,0,7.3453e-05,-0.00042157,-1.1593e-36,7.375e-06,-6.3075e-19,1.7087e-22,0.2986,0.00046287,-0.00042168,1.6065e-33,7.3562e-05,-28.882,-104.97,-40.182,1.1342,-9.6978e-14,2.6226e-17,71.145,-104.99,-40.182,-28.865,0,0.017298,0,1,4.735,0,-4.735,0
0,0,0,0,0,0,7.3409e-05,-0.00042114,-1.1008e-36,7.3631e-06,-6.0983e-19,1.7123e-22,0.29734,0.00046241,-0.00042125,1.6051e-33,7.3519e-05,-28.843,-104.86,-40.137,1.1324,-9.3762e-14,2.6283e-17,71.075,-104.88,-40.137,-28.827,0,0.0173,0,1,4.74,0,-4.74,0
0,0,0,0,0,0,7.3365e-05,-0.0004207,-1.0423e-36,7.3511e-06,-5.8891e-19,1.7159e-22,0.29608,0.00046196,-0.00042081,1.6037e-33,7.3475e-05,-28.805,-104.75,-40.092,1.1305,-9.0545e-14,2.634e-17,71.004,-104.77,-40.092,-28.788,0,0.017302,0,1,4.745,0,-4.745,0
0,0,0,0,0,0,7.3322e-05,-0.00042027,-9.838e-37,7.3392e-06,-5.6798e-19,1.7196e-22,0.29482,0.0004615,-0.00042038,1.6024e-33,7.3431e-05,-28.766,-104.64,-40.046,1.1287,-8.7328e-14,2.6397e-17,70.934,-104.65,-40.046,-28.75,0,0.017304,0,1,4.75,0,-4.75,0
0,0,0,0,0,0,7.3278e-05,-0.00041983,-9.253e-37,7.3273e-06,-5.4706e-19,1.7232e-22,0.29355,0.00046104,-0.00041994,1.601e-33,7.3387e-05,-28.728,-104.53,-40.001,1.1269,-8.4111e-14,2.6453e-17,70.864,-104.54,-40.001,-28.711,0,0.017306,0,1,4.755,0,-4.755,0
0,0,0,0,0,0,7.3234e-05,-0.0004194,-8.6681e-37,7.3154e-06,-5.2614e-19,1.7268e-22,0.29229,0.00046058,-0.00041951,1.5996e-33,7.3343e-05,-28.689,-104.41,-39.956,1.125,-8.0895e-14,2.651e-17,70.793,-104.43,-39.956,-28.673,0,0.017308,0,1,4.76,0,-4.76,0
0,0,0,0,0,0,7.319e-05,-0.00041896,-8.0832e-37,7.3035e-06,-5.0522e-19,1.7304e-22,0.29103,0.00046012,-0.00041907,1.5982e-33,7.3299e-05,-28.651,-104.3,-39.911,1.1232,-7.7678e-14,2.6567e-17,70.723,-104.32,-39.911,-28.634,0,0.01731,0,1,4.765,0,-4.765,0
0,0,0,0,0,0,7.3147e-05,-0.00041853,-7.4983e-37,7.2916e-06,-4.843e-19,1.734e-22,0.28977,0.00045966,-0.00041864,1.5968e-33,7.3255e-05,-28.613,-104.19,-39.866,1.1214,-7.4462e-14,2.6624e-17,70.653,-104.21,-39.866,-28.596,0,0.017312,0,1,4.77,0,-4.77,0
0,0,0,0,0,0,7.3103e-05,-0.00041809,-6.9134e-37,7.2796e-06,-4.6338e-19,1.7377e-22,0.2885,0.00045921,-0.0004182,1.5954e-33,7.3211e-05,-28.574,-104.08,-39.82,1.1195,-7.1245e-14,2.6681e-17,70.582,-104.09,-39.82,-28.557,0,0.017314,0,1,4.775,0,-4.775,0
0,0,0,0,0,0,7.3059e-05,-0.00041766,-6.3284e-37,7.2677e-06,-4.4246e-19,1.7413e-22,0.28724,0.00045875,-0.00041777,1.594e-33,7.3167e-05,-28.536,-103.97,-39.775,1.1177,-6.8028e-14,2.6738e-17,70.512,-103.98,-39.775,-28.519,0,0.017316,0,1,4.78,0,-4.78,0
0,0,0,0,0,0,7.3016e-05,-0.00041722,-5.7436e-37,7.2558e-06,-4.2154e-19,1.7449e-22,0.28598,0.00045829,-0.00041733,1.5926e-33,7.3123e-05,-28.497,-103.85,-39.73,1.1159,-6.4812e-14,2.6794e-17,70.441,-103.87,-39.73,-28.481,0,0.017318,0,1,4.785,0,-4.785,0
0,0,0,0,0,0,7.2972e-05,-0.00041679,-5.1586e-37,7.2439e-06,-4.0062e-19,1.7485e-22,0.28472,0.00045783,-0.00041689,1.5912e-33,7.3079e-05,-28.459,-103.74,-39.685,1.114,-6.1595e-14,2.6851e-17,70.371,-103.76,-39.685,-28.442,0,0.01732,0,1,4.79,0,-4.79,0
0,0,0,0,0,0,7.2928e-05,-0.00041635,-4.5737e-37,7.232e-06,-3.7969e-19,1.7522e-22,0.28345,0.00045737,-0.00041646,1.5898e-33,7.3035e-05,-28.42,-103.63,-39.64,1.1122,-5.8378e-14,2.6908e-17,70.301,-103.65,-39.64,-28.404,0,0.017322,0,1,4.795,0,-4.795,0
0,0,0,0,0,0,7.2885e-05,-0.00041592,-3.9888e-37,7.2201e-06,-3.5877e-19,1.7558e-22,0.28219,0.00045691,-0.00041602,1.5884e-33,7.2991e-05,-28.382,-103.52,-39.594,1.1104,-5.5161e-14,2.6965e-17,70.23,-103.53,-39.594,-28.365,0,0.017324,0,1,4.8,0,-4.8,0
0,0,0,0,0,0,7.2841e-05,-0.00041548,-3.4039e-37,7.2081e-06,-3.3785e-19,1.7594e-22,0.28093,0.00045646,-0.00041559,1.587e-33,7.2947e-05,-28.343,-103.4,-39.549,1.1085,-5.1945e-14,2.7022e-17,70.16,-103.42,-39.549,-28.327,0,0.017326,0,1,4.805,0,-4.805,0
0,0,0,0,0,0,7.2797e-05,-0.00041505,-2.819e-37,7.1962e-06,-3.1693e-19,1.763e-22,0.27967,0.000456,-0.00041515,1.5857e-33,7.2903e-05,-28.305,-103.29,-39.504,1.1067,-4.8728e-14,2.7079e-17,70.09,-103.31,-39.504,-28.288,0,0.017328,0,1,4.81,0,-4.81,0
0,0,0,0,0,0,7.2754e-05,-0.00041461,-2.234e-37,7.1843e-06,-2.9601e-19,1.7666e-22,0.2784,0.00045554,-0.00041472,1.5843e-33,7.286e-05,-28.266,-103.18,-39.459,1.1049,-4.5511e-14,2.7136e-17,70.019,-103.2,-39.459,-28.25,0,0.01733,0,1,4.815,0,-4.815,0
0,0,0,0,0,0,7.271e-05,-0.00041418,-1.6491e-37,7.1724e-06,-2.7509e-19,1.7703e-22,0.27714,0.00045508,-0.00041428,1.5829e-33,7.2816e-05,-28.228,-103.07,-39.413,1.103,-4.2295e-14,2.7192e-17,69.949,-103.09,-39.413,-28.211,0,0.017332,0,1,4.82,0,-4.82,0
0,0,0,0,0,0,7.2666e-05,-0.00041374,-1.0642e-37,7.1605e-06,-2.5417e-19,1.7739e-22,0.27588,0.00045462,-0.00041385,1.5815e-33,7.2772e-05,-28.189,-102.96,-39.368,1.1012,-3.9078e-14,2.7249e-17,69.878,-102.97,-39.368,-28.173,0,0.017334,0,1,4.825,0,-4.825,0
0,0,0,0,0,0,7.2623e-05,-0.00041331,-4.793e-38,7.1486e-06,-2.3325e-19,1.7775e-22,0.27462,0.00045416,-0.00041341,1.5801e-33,7.2728e-05,-28.151,-102.84,-39.323,1.0994,-3.5861e-14,2.7306e-17,69.808,-102.86,-39.323,-28.134,0,0.017336,0,1,4.83,0,-4.83,0
0,0,0,0,0,0,7.2579e-05,-0.00041287,1.0563e-38,7.1366e-06,-2.1233e-19,1.7811e-22,0.27335,0.00045371,-0.00041298,1.5787e-33,7.2684e-05,-28.112,-102.73,-39.278,1.0975,-3.2645e-14,2.7363e-17,69.738,-102.75,-39.278,-28.096,0,0.017338,0,1,4.835,0,-4.835,0
0,0,0,0,0,0,7.2535e-05,-0.00041244,6.9056e-38,7.1247e-06,-1.9141e-19,1.7848e-22,0.27209,0.00045325,-0.00041254,1.5773e-33,7.264e-05,-28.074,-102.62,-39.233,1.0957,-2.9428e-14,2.742e-17,69.667,-102.64,-39.233,-28.058,0,0.01734,0,1,4.84,0,-4.84,0
0,0,0,0,0,0,7.2491e-05,-0.000412,1.2754e-37,7.1128e-06,-1.7049e-19,1.7884e-22,0.27083,0.00045279,-0.0004121,1.5759e-33,7.2596e-05,-28.035,-102.51,-39.187,1.0939,-2.6211e-14,2.7477e-17,69.597,-102.52,-39.187,-28.019,0,0.017342,0,1,4.845,0,-4.845,0
0,0,0,0,0,0,7.2448e-05,-0.00041156,1.8604e-37,7.1009e-06,-1.4956e-19,1.792e-22,0.26957,0.00045233,-0.00041167,1.5745e-33,7.2552e-05,-27.997,-102.4,-39.142,1.092,-2.2995e-14,2.7533e-17,69.527,-102.41,-39.142,-27.981,0,0.017345,0,1,4.85,0,-4.85,0
0,0,0,0,0,0,7.2404e-05,-0.00041113,2.4453e-37,7.089e-06,-1.2864e-19,1.7956e-22,0.2683,0.00045187,-0.00041123,1.5731e-33,7.2508e-05,-27.958,-102.28,-39.097,1.0902,-1.9778e-14,2.759e-17,69.456,-102.3,-39.097,-27.942,0,0.017347,0,1,4.855,0,-4.855,0
0,0,0,0,0,0,7.236e-05,-0.00041069,3.0302e-37,7.0771e-06,-1.0772e-19,1.7992e-22,0.26704,0.00045141,-0.0004108,1.5717e-33,7.2464e-05,-27.92,-102.17,-39.052,1.0884,-1.6561e-14,2.7647e-17,69.386,-102.19,-39.052,-27.904,0,0.017349,0,1,4.86,0,-4.86,0
0,0,0,0,0,0,7.2317e-05,-0.00041026,3.6151e-37,7.0651e-06,-8.6802e-20,1.8029e-22,0.26578,0.00045096,-0.00041036,1.5703e-33,7.242e-05,-27.881,-102.06,-39.007,1.0866,-1.3345e-14,2.7704e-17,69.316,-102.08,-39.007,-27.865,0,0.017351,0,1,4.865,0,-4.865,0
0,0,0,0,0,0,7.2273e-05,-0.00040982,4.2e-37,7.0532e-06,-6.588e-20,1.8065e-22,0.26452,0.0004505,-0.00040993,1.569e-33,7.2376e-05,-27.843,-101.95,-38.961,1.0847,-1.0128e-14,2.7761e-17,69.245,-101.96,-38.961,-27.827,0,0.017353,0,1,4.87,0,-4.87,0
0,0,0,0,0,0,7.2229e-05,-0.00040939,4.785e-37,7.0413e-06,-4.4959e-20,1.8101e-22,0.26325,0.00045004,-0.00040949,1.5676e-33,7.2332e-05,-27.804,-101.84,-38.916,1.0829,-6.9112e-15,2.7818e-17,69.175,-101.85,-38.916,-27.788,0,0.017355,0,1,4.875,0,-4.875,0
0,0,0,0,0,0,7.2186e-05,-0.00040895,5.3699e-37,7.0294e-06,-2.4037e-20,1.8137e-22,0.26199,0.00044958,-0.00040906,1.5662e-33,7.2288e-05,-27.766,-101.72,-38.871,1.0811,-3.6945e-15,2.7874e-17,69.104,-101.74,-38.871,-27.75,0,0.017357,0,1,4.88,0,-4.88,0
0,0,0,0,0,0,7.2142e-05,-0.00040852,5.9548e-37,7.0175e-06,-3.1157e-21,1.8173e-22,0.26073,0.00044912,-0.00040862,1.5648e-33,7.2244e-05,-27.727,-101.61,-38.826,1.0792,-4.7773e-16,2.7931e-17,69.034,-101.63,-38.826,-27.712,0,0.017359,0,1,4.885,0,-4.885,0
0,0,0,0,0,0,7.2098e-05,-0.00040808,6.5397e-37,7.0056e-06,1.7804e-20,1.821e-22,0.25947,0.00044867,-0.00040819,1.5634e-33,7.22e-05,-27.689,-101.5,-38.781,1.0774,2.7387e-15,2.7988e-17,68.964,-101.52,-38.781,-27.673,0,0.017361,0,1,4.89,0,-4.89,0
0,0,0,0,0,0,7.2055e-05,-0.00040765,7.1246e-37,6.9936e-06,3.8725e-20,1.8246e-22,0.2582,0.00044821,-0.00040775,1.562e-33,7.2157e-05,-27.65,-101.39,-38.735,1.0756,5.9555e-15,2.8045e-17,68.893,-101.4,-38.735,-27.635,0,0.017363,0,1,4.895,0,-4.895,0
0,0,0,0,0,0,7.2011e-05,-0.00040721,7.7095e-37,6.9817e-06,5.9647e-20,1.8282e-22,0.25694,0.00044775,-0.00040731,1.5606e-33,7.2113e-05,-27.612,-101.28,-38.69,1.0737,9.1722e-15,2.8102e-17,68.823,-101.29,-38.69,-27.596,0,0.017365,0,1,4.9,0,-4.9,0
0,0,0,0,0,0,7.1967e-05,-0.00040678,8.2945e-37,6.9698e-06,8.0568e-20,1.8318e-22,0.25568,0.00044729,-0.00040688,1.5592e-33,7.2069e-05,-27.573,-101.16,-38.645,1.0719,1.2389e-14,2.8159e-17,68.753,-101.18,-38.645,-27.558,0,0.017367,0,1,4.905,0,-4.905,0
0,0,0,0,0,0,7.1923e-05,-0.00040634,8.8794e-37,6.9579e-06,1.0149e-19,1.8355e-22,0.25442,0.00044683,-0.00040644,1.5578e-33,7.2025e-05,-27.535,-101.05,-38.6,1.0701,1.5605e-14,2.8216e-17,68.682,-101.07,-38.6,-27.519,0,0.017369,0,1,4.91,0,-4.91,0
0,0,0,0,0,0,7.188e-05,-0.00040591,9.4643e-37,6.946e-06,1.2241e-19,1.8391e-22,0.25315,0.00044637,-0.00040601,1.5564e-33,7.1981e-05,-27.496,-100.94,-38.555,1.0682,1.8822e-14,2.8272e-17,68.612,-100.96,-38.555,-27.481,0,0.017371,0,1,4.915,0,-4.915,0
0,0,0,0,0,0,7.1836e-05,-0.00040547,1.0049e-36,6.9341e-06,1.4333e-19,1.8427e-22,0.25189,0.00044592,-0.00040557,1.555e-33,7.1937e-05,-27.458,-100.83,-38.509,1.0664,2.2039e-14,2.8329e-17,68.542,-100.84,-38.509,-27.442,0,0.017373,0,1,4.92,0,-4.92,0
0,0,0,0,0,0,7.1792e-05,-0.00040504,1.0634e-36,6.9221e-06,1.6425e-19,1.8463e-22,0.25063,0.00044546,-0.00040514,1.5537e-33,7.1893e-05,-27.419,-100.72,-38.464,1.0646,2.5256e-14,2.8386e-17,68.471,-100.73,-38.464,-27.404,0,0.017375,0,1,4.925,0,-4.925,0
0,0,0,0,0,0,7.1749e-05,-0.0004046,1.1219e-36,6.9102e-06,1.8517e-19,1.8499e-22,0.24936,0.000445,-0.0004047,1.5523e-33,7.1849e-05,-27.381,-100.6,-38.419,1.0627,2.8472e-14,2.8443e-17,68.401,-100.62,-38.419,-27.365,0,0.017377,0,1,4.93,0,-4.93,0
0,0,0,0,0,0,7.1705e-05,-0.00040417,1.1804e-36,6.8983e-06,2.0609e-19,1.8536e-22,0.2481,0.00044454,-0.00040427,1.5509e-33,7.1805e-05,-27.342,-100.49,-38.374,1.0609,3.1689e-14,2.85e-17,68.33,-100.51,-38.374,-27.327,0,0.017379,0,1,4.935,0,-4.935,0
0,0,0,0,0,0,7.1661e-05,-0.00040373,1.2389e-36,6.8864e-06,2.2701e-19,1.8572e-22,0.24684,0.00044408,-0.00040383,1.5495e-33,7.1761e-05,-27.304,-100.38,-38.328,1.0591,3.4906e-14,2.8557e-17,68.26,-100.4,-38.328,-27.289,0,0.017381,0,1,4.94,0,-4.94,0
0,0,0,0,0,0,7.1618e-05,-0.0004033,1.2974e-36,6.8745e-06,2.4794e-19,1.8608e-22,0.24558,0.00044362,-0.0004034,1.5481e-33,7.1717e-05,-27.265,-100.27,-38.283,1.0572,3.8122e-14,2.8613e-17,68.19,-100.28,-38.283,-27.25,0,0.017383,0,1,4.945,0,-4.945,0
0,0,0,0,0,0,7.1574e-05,-0.00040286,1.3559e-36,6.8626e-06,2.6886e-19,1.8644e-22,0.24431,0.00044317,-0.00040296,1.5467e-33,7.1673e-05,-27.227,-100.16,-38.238,1.0554,4.1339e-14,2.867e-17,68.119,-100.17,-38.238,-27.212,0,0.017385,0,1,4.95,0,-4.95,0
0,0,0,0,0,0,7.153e-05,-0.00040243,1.4144e-36,6.8506e-06,2.8978e-19,1.8681e-22,0.24305,0.00044271,-0.00040252,1.5453e-33,7.1629e-05,-27.188,-100.04,-38.193,1.0536,4.4556e-14,2.8727e-17,68.049,-100.06,-38.193,-27.173,0,0.017387,0,1,4.955,0,-4.955,0
0,0,0,0,0,0,7.1487e-05,-0.00040199,1.4729e-36,6.8387e-06,3.107e-19,1.8717e-22,0.24179,0.00044225,-0.00040209,1.5439e-33,7.1585e-05,-27.15,-99.932,-38.148,1.0517,4.7772e-14,2.8784e-17,67.979,-99.947,-38.148,-27.135,0,0.017389,0,1,4.96,0,-4.96,0
0,0,0,0,0,0,7.1443e-05,-0.00040155,1.5313e-36,6.8268e-06,3.3162e-19,1.8753e-22,0.24053,0.00044179,-0.00040165,1.5425e-33,7.1541e-05,-27.111,-99.82,-38.102,1.0499,5.0989e-14,2.8841e-17,67.908,-99.835,-38.102,-27.096,0,0.017391,0,1,4.965,0,-4.965,0
0,0,0,0,0,0,7.1399e-05,-0.00040112,1.5898e-36,6.8149e-06,3.5254e-19,1.8789e-22,0.23926,0.00044133,-0.00040122,1.5411e-33,7.1498e-05,-27.073,-99.708,-38.057,1.0481,5.4206e-14,2.8898e-17,67.838,-99.723,-38.057,-27.058,0,0.017394,0,1,4.97,0,-4.97,0
0,0,0,0,0,0,7.1356e-05,-0.00040068,1.6483e-36,6.803e-06,3.7346e-19,1.8825e-22,0.238,0.00044087,-0.00040078,1.5397e-33,7.1454e-05,-27.035,-99.596,-38.012,1.0462,5.7422e-14,2.8954e-17,67.767,-99.611,-38.012,-27.019,0,0.017396,0,1,4.975,0,-4.975,0
0,0,0,0,0,0,7.1312e-05,-0.00040025,1.7068e-36,6.7911e-06,3.9438e-19,1.8862e-22,0.23674,0.00044042,-0.00040035,1.5383e-33,7.141e-05,-26.996,-99.484,-37.967,1.0444,6.0639e-14,2.9011e-17,67.697,-99.499,-37.967,-26.981,0,0.017398,0,1,4.98,0,-4.98,0
0,0,0,0,0,0,7.1268e-05,-0.00039981,1.7653e-36,6.7791e-06,4.153e-19,1.8898e-22,0.23548,0.00043996,-0.00039991,1.537e-33,7.1366e-05,-26.958,-99.372,-37.922,1.0426,6.3856e-14,2.9068e-17,67.627,-99.387,-37.922,-26.943,0,0.0174,0,1,4.985,0,-4.985,0
0,0,0,0,0,0,7.1224e-05,-0.00039938,1.8238e-36,6.7672e-06,4.3622e-19,1.8934e-22,0.23421,0.0004395,-0.00039948,1.5356e-33,7.1322e-05,-26.919,-99.26,-37.876,1.0407,6.7072e-14,2.9125e-17,67.556,-99.275,-37.876,-26.904,0,0.017402,0,1,4.99,0,-4.99,0
0,0,0,0,0,0,7.1181e-05,-0.00039894,1.8823e-36,6.7553e-06,4.5715e-19,1.897e-22,0.23295,0.00043904,-0.00039904,1.5342e-33,7.1278e-05,-26.881,-99.148,-37.831,1.0389,7.0289e-14,2.9182e-17,67.486,-99.163,-37.831,-26.866,0,0.017404,0,1,4.995,0,-4.995,0
0,0,0,0,0,0,7.1137e-05,-0.00039851,1.9408e-36,6.7434e-06,4.7807e-19,1.9007e-22,0.23169,0.00043858,-0.00039861,1.5328e-33,7.1234e-05,-26.842,-99.036,-37.786,1.0371,7.3506e-14,2.9239e-17,67.416,-99.051,-37.786,-26.827,0,0.017406,0,1,5,0,-5,0
