    1C
    1UUSER                                                              
    1UDATE              15.may.2021                                     
    1UTIME              14:51:02                                        
    1UHOST                                                              
    1UPGM               CalculiX                                        
    1UVERSION           Version 2.17                             
    1UCOMPILETIME       Thu Jul 23 21:43:50 CEST 2020                    
    1UDIR                                                               
    1UDBN                                                               
    1UMAT    1STEEL                                                     
    1UMAT    2CONTACT                                                   
    2C                          4156                                     1
 -1         1 4.00000E+01 0.00000E+00 0.00000E+00
 -1         2 0.00000E+00 0.00000E+00 0.00000E+00
 -1         3 0.00000E+00-2.00000E+01 0.00000E+00
 -1         4 4.00000E+01-2.00000E+01 0.00000E+00
 -1         5 0.00000E+00 0.00000E+00 0.00000E+00
 -1         6 1.00000E+01 1.00000E+01 0.00000E+00
 -1         7 0.00000E+00 1.00000E+01 0.00000E+00
 -1         9 3.71577E+01 0.00000E+00 0.00000E+00
 -1        10 3.35525E+01 0.00000E+00 0.00000E+00
 -1        11 3.02750E+01 0.00000E+00 0.00000E+00
 -1        12 2.72954E+01 0.00000E+00 0.00000E+00
 -1        13 2.45868E+01 0.00000E+00 0.00000E+00
 -1        14 2.21243E+01 0.00000E+00 0.00000E+00
 -1        15 1.98858E+01 0.00000E+00 0.00000E+00
 -1        16 1.78507E+01 0.00000E+00 0.00000E+00
 -1        17 1.60006E+01 0.00000E+00 0.00000E+00
 -1        18 1.43187E+01 0.00000E+00 0.00000E+00
 -1        19 1.27898E+01 0.00000E+00 0.00000E+00
 -1        20 1.13998E+01 0.00000E+00 0.00000E+00
 -1        21 1.01362E+01 0.00000E+00 0.00000E+00
 -1        22 8.98743E+00 0.00000E+00 0.00000E+00
 -1        23 7.94312E+00 0.00000E+00 0.00000E+00
 -1        24 6.99375E+00 0.00000E+00 0.00000E+00
 -1        25 6.13068E+00 0.00000E+00 0.00000E+00
 -1        26 5.34607E+00 0.00000E+00 0.00000E+00
 -1        27 4.63279E+00 0.00000E+00 0.00000E+00
 -1        28 3.98436E+00 0.00000E+00 0.00000E+00
 -1        29 3.39487E+00 0.00000E+00 0.00000E+00
 -1        30 2.85897E+00 0.00000E+00 0.00000E+00
 -1        31 2.37179E+00 0.00000E+00 0.00000E+00
 -1        32 1.92890E+00 0.00000E+00 0.00000E+00
 -1        33 1.52628E+00 0.00000E+00 0.00000E+00
 -1        34 1.16025E+00 0.00000E+00 0.00000E+00
 -1        35 8.27500E-01 0.00000E+00 0.00000E+00
 -1        36 5.25000E-01 0.00000E+00 0.00000E+00
 -1        37 2.50000E-01 0.00000E+00 0.00000E+00
 -1        38 0.00000E+00-2.50000E-01 0.00000E+00
 -1        39 0.00000E+00-5.25703E-01 0.00000E+00
 -1        40 0.00000E+00-8.28584E-01 0.00000E+00
 -1        41 0.00000E+00-1.16182E+00 0.00000E+00
 -1        42 0.00000E+00-1.52845E+00 0.00000E+00
 -1        43 0.00000E+00-1.93185E+00 0.00000E+00
 -1        44 0.00000E+00-2.37570E+00 0.00000E+00
 -1        45 0.00000E+00-2.86408E+00 0.00000E+00
 -1        46 0.00000E+00-3.40146E+00 0.00000E+00
 -1        47 0.00000E+00-3.99279E+00 0.00000E+00
 -1        48 0.00000E+00-4.64350E+00 0.00000E+00
 -1        49 0.00000E+00-5.35957E+00 0.00000E+00
 -1        50 0.00000E+00-6.14762E+00 0.00000E+00
 -1        51 0.00000E+00-7.01491E+00 0.00000E+00
 -1        52 0.00000E+00-7.96946E+00 0.00000E+00
 -1        53 0.00000E+00-9.02012E+00 0.00000E+00
 -1        54 0.00000E+00-1.01766E+01 0.00000E+00
 -1        55 0.00000E+00-1.14497E+01 0.00000E+00
 -1        56 0.00000E+00-1.28512E+01 0.00000E+00
 -1        57 0.00000E+00-1.43943E+01 0.00000E+00
 -1        58 0.00000E+00-1.60933E+01 0.00000E+00
 -1        59 0.00000E+00-1.79649E+01 0.00000E+00
 -1        60 2.50000E-01-2.00000E+01 0.00000E+00
 -1        61 5.25000E-01-2.00000E+01 0.00000E+00
 -1        62 8.27500E-01-2.00000E+01 0.00000E+00
 -1        63 1.16025E+00-2.00000E+01 0.00000E+00
 -1        64 1.52628E+00-2.00000E+01 0.00000E+00
 -1        65 1.92890E+00-2.00000E+01 0.00000E+00
 -1        66 2.37179E+00-2.00000E+01 0.00000E+00
 -1        67 2.85897E+00-2.00000E+01 0.00000E+00
 -1        68 3.39487E+00-2.00000E+01 0.00000E+00
 -1        69 3.98436E+00-2.00000E+01 0.00000E+00
 -1        70 4.63279E+00-2.00000E+01 0.00000E+00
 -1        71 5.34607E+00-2.00000E+01 0.00000E+00
 -1        72 6.13068E+00-2.00000E+01 0.00000E+00
 -1        73 6.99375E+00-2.00000E+01 0.00000E+00
 -1        74 7.94312E+00-2.00000E+01 0.00000E+00
 -1        75 8.98743E+00-2.00000E+01 0.00000E+00
 -1        76 1.01362E+01-2.00000E+01 0.00000E+00
 -1        77 1.13998E+01-2.00000E+01 0.00000E+00
 -1        78 1.27898E+01-2.00000E+01 0.00000E+00
 -1        79 1.43187E+01-2.00000E+01 0.00000E+00
 -1        80 1.60006E+01-2.00000E+01 0.00000E+00
 -1        81 1.78507E+01-2.00000E+01 0.00000E+00
 -1        82 1.98858E+01-2.00000E+01 0.00000E+00
 -1        83 2.21243E+01-2.00000E+01 0.00000E+00
 -1        84 2.45868E+01-2.00000E+01 0.00000E+00
 -1        85 2.72954E+01-2.00000E+01 0.00000E+00
 -1        86 3.02750E+01-2.00000E+01 0.00000E+00
 -1        87 3.35525E+01-2.00000E+01 0.00000E+00
 -1        88 3.71577E+01-2.00000E+01 0.00000E+00
 -1        89 4.00000E+01-1.79649E+01 0.00000E+00
 -1        90 4.00000E+01-1.60933E+01 0.00000E+00
 -1        91 4.00000E+01-1.43943E+01 0.00000E+00
 -1        92 4.00000E+01-1.28512E+01 0.00000E+00
 -1        93 4.00000E+01-1.14497E+01 0.00000E+00
 -1        94 4.00000E+01-1.01766E+01 0.00000E+00
 -1        95 4.00000E+01-9.02012E+00 0.00000E+00
 -1        96 4.00000E+01-7.96946E+00 0.00000E+00
 -1        97 4.00000E+01-7.01491E+00 0.00000E+00
 -1        98 4.00000E+01-6.14762E+00 0.00000E+00
 -1        99 4.00000E+01-5.35957E+00 0.00000E+00
 -1       100 4.00000E+01-4.64350E+00 0.00000E+00
 -1       101 4.00000E+01-3.99279E+00 0.00000E+00
 -1       102 4.00000E+01-3.40146E+00 0.00000E+00
 -1       103 4.00000E+01-2.86408E+00 0.00000E+00
 -1       104 4.00000E+01-2.37570E+00 0.00000E+00
 -1       105 4.00000E+01-1.93185E+00 0.00000E+00
 -1       106 4.00000E+01-1.52845E+00 0.00000E+00
 -1       107 4.00000E+01-1.16182E+00 0.00000E+00
 -1       108 4.00000E+01-8.28584E-01 0.00000E+00
 -1       109 4.00000E+01-5.25703E-01 0.00000E+00
 -1       110 4.00000E+01-2.50000E-01 0.00000E+00
 -1       111 1.24997E-01 7.81240E-04 0.00000E+00
 -1       112 2.62470E-01 3.44511E-03 0.00000E+00
 -1       113 4.13632E-01 8.55823E-03 0.00000E+00
 -1       114 5.79800E-01 1.68225E-02 0.00000E+00
 -1       115 7.62397E-01 2.91048E-02 0.00000E+00
 -1       116 9.62957E-01 4.64723E-02 0.00000E+00
 -1       117 1.18312E+00 7.02351E-02 0.00000E+00
 -1       118 1.42462E+00 1.01998E-01 0.00000E+00
 -1       119 1.68930E+00 1.43719E-01 0.00000E+00
 -1       120 1.97903E+00 1.97783E-01 0.00000E+00
 -1       121 2.29574E+00 2.67087E-01 0.00000E+00
 -1       122 2.64132E+00 3.55134E-01 0.00000E+00
 -1       123 3.01756E+00 4.66148E-01 0.00000E+00
 -1       124 3.42604E+00 6.05201E-01 0.00000E+00
 -1       125 3.86797E+00 7.78352E-01 0.00000E+00
 -1       126 4.34400E+00 9.92798E-01 0.00000E+00
 -1       127 4.85390E+00 1.25702E+00 0.00000E+00
 -1       128 5.39623E+00 1.58093E+00 0.00000E+00
 -1       129 5.96785E+00 1.97599E+00 0.00000E+00
 -1       130 6.56325E+00 2.45522E+00 0.00000E+00
 -1       131 7.17378E+00 3.03316E+00 0.00000E+00
 -1       132 7.78664E+00 3.72559E+00 0.00000E+00
 -1       133 8.38371E+00 4.54900E+00 0.00000E+00
 -1       134 8.94010E+00 5.51953E+00 0.00000E+00
 -1       135 9.42267E+00 6.65139E+00 0.00000E+00
 -1       136 9.78852E+00 7.95430E+00 0.00000E+00
 -1       137 9.98373E+00 9.42984E+00 0.00000E+00
 -1       138 9.87500E+00 1.00000E+01 0.00000E+00
 -1       139 9.73715E+00 1.00000E+01 0.00000E+00
 -1       140 9.58571E+00 1.00000E+01 0.00000E+00
 -1       141 9.41909E+00 1.00000E+01 0.00000E+00
 -1       142 9.23577E+00 1.00000E+01 0.00000E+00
 -1       143 9.03407E+00 1.00000E+01 0.00000E+00
 -1       144 8.81215E+00 1.00000E+01 0.00000E+00
 -1       145 8.56796E+00 1.00000E+01 0.00000E+00
 -1       146 8.29927E+00 1.00000E+01 0.00000E+00
 -1       147 8.00361E+00 1.00000E+01 0.00000E+00
 -1       148 7.67825E+00 1.00000E+01 0.00000E+00
 -1       149 7.32021E+00 1.00000E+01 0.00000E+00
 -1       150 6.92619E+00 1.00000E+01 0.00000E+00
 -1       151 6.49254E+00 1.00000E+01 0.00000E+00
 -1       152 6.01527E+00 1.00000E+01 0.00000E+00
 -1       153 5.48994E+00 1.00000E+01 0.00000E+00
 -1       154 4.91170E+00 1.00000E+01 0.00000E+00
 -1       155 4.27515E+00 1.00000E+01 0.00000E+00
 -1       156 3.57439E+00 1.00000E+01 0.00000E+00
 -1       157 2.80286E+00 1.00000E+01 0.00000E+00
 -1       158 1.95334E+00 1.00000E+01 0.00000E+00
 -1       159 1.01753E+00 1.00000E+01 0.00000E+00
 -1       160 0.00000E+00 1.25000E-01 0.00000E+00
 -1       161 0.00000E+00 2.62851E-01 0.00000E+00
 -1       162 0.00000E+00 4.14292E-01 0.00000E+00
 -1       163 0.00000E+00 5.80909E-01 0.00000E+00
 -1       164 0.00000E+00 7.64227E-01 0.00000E+00
 -1       165 0.00000E+00 9.65926E-01 0.00000E+00
 -1       166 0.00000E+00 1.18785E+00 0.00000E+00
 -1       167 0.00000E+00 1.43204E+00 0.00000E+00
 -1       168 0.00000E+00 1.70073E+00 0.00000E+00
 -1       169 0.00000E+00 1.99639E+00 0.00000E+00
 -1       170 0.00000E+00 2.32175E+00 0.00000E+00
 -1       171 0.00000E+00 2.67979E+00 0.00000E+00
 -1       172 0.00000E+00 3.07381E+00 0.00000E+00
 -1       173 0.00000E+00 3.50746E+00 0.00000E+00
 -1       174 0.00000E+00 3.98473E+00 0.00000E+00
 -1       175 0.00000E+00 4.51006E+00 0.00000E+00
 -1       176 0.00000E+00 5.08830E+00 0.00000E+00
 -1       177 0.00000E+00 5.72485E+00 0.00000E+00
 -1       178 0.00000E+00 6.42561E+00 0.00000E+00
 -1       179 0.00000E+00 7.19714E+00 0.00000E+00
 -1       180 0.00000E+00 8.04666E+00 0.00000E+00
 -1       181 0.00000E+00 8.98247E+00 0.00000E+00
 -1       182 1.23434E-01 1.25771E-01 0.00000E+00
 -1       183 1.21711E-01 2.63612E-01 0.00000E+00
 -1       184 1.19818E-01 4.15041E-01 0.00000E+00
 -1       185 1.17736E-01 5.81645E-01 0.00000E+00
 -1       186 1.15444E-01 7.64949E-01 0.00000E+00
 -1       187 1.12923E-01 9.66631E-01 0.00000E+00
 -1       188 1.10149E-01 1.18854E+00 0.00000E+00
 -1       189 1.07097E-01 1.43271E+00 0.00000E+00
 -1       190 1.03738E-01 1.70138E+00 0.00000E+00
 -1       191 1.00042E-01 1.99702E+00 0.00000E+00
 -1       192 9.59757E-02 2.32235E+00 0.00000E+00
 -1       193 9.15003E-02 2.68036E+00 0.00000E+00
 -1       194 8.65751E-02 3.07435E+00 0.00000E+00
 -1       195 8.11547E-02 3.50796E+00 0.00000E+00
 -1       196 7.51889E-02 3.98520E+00 0.00000E+00
 -1       197 6.86225E-02 4.51049E+00 0.00000E+00
 -1       198 6.13946E-02 5.08869E+00 0.00000E+00
 -1       199 5.34380E-02 5.72518E+00 0.00000E+00
 -1       200 4.46787E-02 6.42589E+00 0.00000E+00
 -1       201 3.50348E-02 7.19736E+00 0.00000E+00
 -1       202 2.44161E-02 8.04681E+00 0.00000E+00
 -1       203 1.27188E-02 8.98254E+00 0.00000E+00
 -1       204 2.59189E-01 1.28402E-01 0.00000E+00
 -1       205 2.55571E-01 2.66206E-01 0.00000E+00
 -1       206 2.51596E-01 4.17594E-01 0.00000E+00
 -1       207 2.47223E-01 5.84154E-01 0.00000E+00
 -1       208 2.42411E-01 7.67409E-01 0.00000E+00
 -1       209 2.37117E-01 9.69038E-01 0.00000E+00
 -1       210 2.31292E-01 1.19089E+00 0.00000E+00
 -1       211 2.24883E-01 1.43499E+00 0.00000E+00
 -1       212 2.17831E-01 1.70359E+00 0.00000E+00
 -1       213 2.10071E-01 1.99915E+00 0.00000E+00
 -1       214 2.01531E-01 2.32439E+00 0.00000E+00
 -1       215 1.92134E-01 2.68231E+00 0.00000E+00
 -1       216 1.81792E-01 3.07620E+00 0.00000E+00
 -1       217 1.70410E-01 3.50969E+00 0.00000E+00
 -1       218 1.57883E-01 3.98680E+00 0.00000E+00
 -1       219 1.44094E-01 4.51195E+00 0.00000E+00
 -1       220 1.28917E-01 5.09000E+00 0.00000E+00
 -1       221 1.12210E-01 5.72632E+00 0.00000E+00
 -1       222 9.38169E-02 6.42684E+00 0.00000E+00
 -1       223 7.35665E-02 7.19811E+00 0.00000E+00
 -1       224 5.12693E-02 8.04733E+00 0.00000E+00
 -1       225 2.67072E-02 8.98282E+00 0.00000E+00
 -1       226 4.08462E-01 1.33451E-01 0.00000E+00
 -1       227 4.02760E-01 2.71185E-01 0.00000E+00
 -1       228 3.96496E-01 4.22496E-01 0.00000E+00
 -1       229 3.89604E-01 5.88970E-01 0.00000E+00
 -1       230 3.82021E-01 7.72132E-01 0.00000E+00
 -1       231 3.73678E-01 9.73657E-01 0.00000E+00
 -1       232 3.64499E-01 1.19539E+00 0.00000E+00
 -1       233 3.54398E-01 1.43937E+00 0.00000E+00
 -1       234 3.43284E-01 1.70783E+00 0.00000E+00
 -1       235 3.31055E-01 2.00324E+00 0.00000E+00
 -1       236 3.17597E-01 2.32832E+00 0.00000E+00
 -1       237 3.02787E-01 2.68605E+00 0.00000E+00
 -1       238 2.86489E-01 3.07974E+00 0.00000E+00
 -1       239 2.68552E-01 3.51301E+00 0.00000E+00
 -1       240 2.48811E-01 3.98988E+00 0.00000E+00
 -1       241 2.27082E-01 4.51476E+00 0.00000E+00
 -1       242 2.03163E-01 5.09251E+00 0.00000E+00
 -1       243 1.76834E-01 5.72851E+00 0.00000E+00
 -1       244 1.47848E-01 6.42867E+00 0.00000E+00
 -1       245 1.15935E-01 7.19954E+00 0.00000E+00
 -1       246 8.07963E-02 8.04833E+00 0.00000E+00
 -1       247 4.20885E-02 8.98334E+00 0.00000E+00
 -1       248 5.72552E-01 1.41612E-01 0.00000E+00
 -1       249 5.64560E-01 2.79232E-01 0.00000E+00
 -1       250 5.55779E-01 4.30417E-01 0.00000E+00
 -1       251 5.46119E-01 5.96754E-01 0.00000E+00
 -1       252 5.35490E-01 7.79764E-01 0.00000E+00
 -1       253 5.23795E-01 9.81123E-01 0.00000E+00
 -1       254 5.10928E-01 1.20268E+00 0.00000E+00
 -1       255 4.96770E-01 1.44645E+00 0.00000E+00
 -1       256 4.81191E-01 1.71469E+00 0.00000E+00
 -1       257 4.64049E-01 2.00986E+00 0.00000E+00
 -1       258 4.45185E-01 2.33466E+00 0.00000E+00
 -1       259 4.24426E-01 2.69210E+00 0.00000E+00
 -1       260 4.01580E-01 3.08546E+00 0.00000E+00
 -1       261 3.76437E-01 3.51838E+00 0.00000E+00
 -1       262 3.48765E-01 3.99485E+00 0.00000E+00
 -1       263 3.18307E-01 4.51929E+00 0.00000E+00
 -1       264 2.84780E-01 5.09657E+00 0.00000E+00
 -1       265 2.47873E-01 5.73204E+00 0.00000E+00
 -1       266 2.07243E-01 6.43162E+00 0.00000E+00
 -1       267 1.62510E-01 7.20186E+00 0.00000E+00
 -1       268 1.13255E-01 8.04995E+00 0.00000E+00
 -1       269 5.89966E-02 8.98418E+00 0.00000E+00
 -1       270 7.52867E-01 1.53741E-01 0.00000E+00
 -1       271 7.42357E-01 2.91191E-01 0.00000E+00
 -1       272 7.30811E-01 4.42191E-01 0.00000E+00
 -1       273 7.18109E-01 6.08323E-01 0.00000E+00
 -1       274 7.04132E-01 7.91108E-01 0.00000E+00
 -1       275 6.88755E-01 9.92219E-01 0.00000E+00
 -1       276 6.71836E-01 1.21350E+00 0.00000E+00
 -1       277 6.53219E-01 1.45698E+00 0.00000E+00
 -1       278 6.32734E-01 1.72489E+00 0.00000E+00
 -1       279 6.10192E-01 2.01969E+00 0.00000E+00
 -1       280 5.85388E-01 2.34409E+00 0.00000E+00
 -1       281 5.58091E-01 2.70109E+00 0.00000E+00
 -1       282 5.28051E-01 3.09397E+00 0.00000E+00
 -1       283 4.94990E-01 3.52635E+00 0.00000E+00
 -1       284 4.58602E-01 4.00224E+00 0.00000E+00
 -1       285 4.18552E-01 4.52604E+00 0.00000E+00
 -1       286 3.74466E-01 5.10260E+00 0.00000E+00
 -1       287 3.25936E-01 5.73729E+00 0.00000E+00
 -1       288 2.72510E-01 6.43602E+00 0.00000E+00
 -1       289 2.13689E-01 7.20530E+00 0.00000E+00
 -1       290 1.48922E-01 8.05235E+00 0.00000E+00
 -1       291 7.75765E-02 8.98543E+00 0.00000E+00
 -1       292 9.50920E-01 1.70891E-01 0.00000E+00
 -1       293 9.37645E-01 3.08102E-01 0.00000E+00
 -1       294 9.23062E-01 4.58839E-01 0.00000E+00
 -1       295 9.07018E-01 6.24682E-01 0.00000E+00
 -1       296 8.89365E-01 8.07148E-01 0.00000E+00
 -1       297 8.69942E-01 1.00791E+00 0.00000E+00
 -1       298 8.48572E-01 1.22880E+00 0.00000E+00
 -1       299 8.25058E-01 1.47186E+00 0.00000E+00
 -1       300 7.99184E-01 1.73930E+00 0.00000E+00
 -1       301 7.70713E-01 2.03359E+00 0.00000E+00
 -1       302 7.39383E-01 2.35743E+00 0.00000E+00
 -1       303 7.04905E-01 2.71380E+00 0.00000E+00
 -1       304 6.66962E-01 3.10600E+00 0.00000E+00
 -1       305 6.25204E-01 3.53763E+00 0.00000E+00
 -1       306 5.79244E-01 4.01269E+00 0.00000E+00
 -1       307 5.28658E-01 4.53557E+00 0.00000E+00
 -1       308 4.72975E-01 5.11113E+00 0.00000E+00
 -1       309 4.11679E-01 5.74471E+00 0.00000E+00
 -1       310 3.44198E-01 6.44222E+00 0.00000E+00
 -1       311 2.69903E-01 7.21017E+00 0.00000E+00
 -1       312 1.88098E-01 8.05574E+00 0.00000E+00
 -1       313 9.79842E-02 8.98719E+00 0.00000E+00
 -1       314 1.16833E+00 1.94357E-01 0.00000E+00
 -1       315 1.15202E+00 3.31240E-01 0.00000E+00
 -1       316 1.13410E+00 4.81617E-01 0.00000E+00
 -1       317 1.11439E+00 6.47064E-01 0.00000E+00
 -1       318 1.09270E+00 8.29095E-01 0.00000E+00
 -1       319 1.06884E+00 1.02938E+00 0.00000E+00
 -1       320 1.04258E+00 1.24974E+00 0.00000E+00
 -1       321 1.01369E+00 1.49222E+00 0.00000E+00
 -1       322 9.81902E-01 1.75902E+00 0.00000E+00
 -1       323 9.46922E-01 2.05261E+00 0.00000E+00
 -1       324 9.08428E-01 2.37568E+00 0.00000E+00
 -1       325 8.66068E-01 2.73120E+00 0.00000E+00
 -1       326 8.19450E-01 3.12246E+00 0.00000E+00
 -1       327 7.68145E-01 3.55306E+00 0.00000E+00
 -1       328 7.11678E-01 4.02698E+00 0.00000E+00
 -1       329 6.49525E-01 4.54862E+00 0.00000E+00
 -1       330 5.81112E-01 5.12280E+00 0.00000E+00
 -1       331 5.05801E-01 5.75487E+00 0.00000E+00
 -1       332 4.22893E-01 6.45072E+00 0.00000E+00
 -1       333 3.31611E-01 7.21683E+00 0.00000E+00
 -1       334 2.31103E-01 8.06038E+00 0.00000E+00
 -1       335 1.20386E-01 8.98961E+00 0.00000E+00
 -1       336 1.40681E+00 2.25723E-01 0.00000E+00
 -1       337 1.38718E+00 3.62168E-01 0.00000E+00
 -1       338 1.36560E+00 5.12064E-01 0.00000E+00
 -1       339 1.34186E+00 6.76982E-01 0.00000E+00
 -1       340 1.31575E+00 8.58430E-01 0.00000E+00
 -1       341 1.28701E+00 1.05807E+00 0.00000E+00
 -1       342 1.25540E+00 1.27773E+00 0.00000E+00
 -1       343 1.22061E+00 1.51943E+00 0.00000E+00
 -1       344 1.18233E+00 1.78538E+00 0.00000E+00
 -1       345 1.14021E+00 2.07803E+00 0.00000E+00
 -1       346 1.09386E+00 2.40006E+00 0.00000E+00
 -1       347 1.04285E+00 2.75445E+00 0.00000E+00
 -1       348 9.86721E-01 3.14446E+00 0.00000E+00
 -1       349 9.24942E-01 3.57368E+00 0.00000E+00
 -1       350 8.56949E-01 4.04609E+00 0.00000E+00
 -1       351 7.82110E-01 4.56605E+00 0.00000E+00
 -1       352 6.99731E-01 5.13840E+00 0.00000E+00
 -1       353 6.09048E-01 5.76845E+00 0.00000E+00
 -1       354 5.09215E-01 6.46207E+00 0.00000E+00
 -1       355 3.99301E-01 7.22573E+00 0.00000E+00
 -1       356 2.78277E-01 8.06658E+00 0.00000E+00
 -1       357 1.44960E-01 8.99284E+00 0.00000E+00
 -1       358 1.66818E+00 2.66922E-01 0.00000E+00
 -1       359 1.64489E+00 4.02792E-01 0.00000E+00
 -1       360 1.61931E+00 5.52056E-01 0.00000E+00
 -1       361 1.59116E+00 7.16279E-01 0.00000E+00
 -1       362 1.56019E+00 8.96963E-01 0.00000E+00
 -1       363 1.52612E+00 1.09576E+00 0.00000E+00
 -1       364 1.48863E+00 1.31450E+00 0.00000E+00
 -1       365 1.44738E+00 1.55518E+00 0.00000E+00
 -1       366 1.40199E+00 1.82001E+00 0.00000E+00
 -1       367 1.35205E+00 2.11142E+00 0.00000E+00
 -1       368 1.29708E+00 2.43210E+00 0.00000E+00
 -1       369 1.23660E+00 2.78499E+00 0.00000E+00
 -1       370 1.17004E+00 3.17335E+00 0.00000E+00
 -1       371 1.09678E+00 3.60077E+00 0.00000E+00
 -1       372 1.01616E+00 4.07118E+00 0.00000E+00
 -1       373 9.27413E-01 4.58896E+00 0.00000E+00
 -1       374 8.29730E-01 5.15889E+00 0.00000E+00
 -1       375 7.22200E-01 5.78629E+00 0.00000E+00
 -1       376 6.03820E-01 6.47698E+00 0.00000E+00
 -1       377 4.73485E-01 7.23743E+00 0.00000E+00
 -1       378 3.29977E-01 8.07473E+00 0.00000E+00
 -1       379 1.71892E-01 8.99709E+00 0.00000E+00
 -1       380 1.95429E+00 3.20311E-01 0.00000E+00
 -1       381 1.92701E+00 4.55436E-01 0.00000E+00
 -1       382 1.89704E+00 6.03881E-01 0.00000E+00
 -1       383 1.86406E+00 7.67203E-01 0.00000E+00
 -1       384 1.82778E+00 9.46896E-01 0.00000E+00
 -1       385 1.78787E+00 1.14460E+00 0.00000E+00
 -1       386 1.74395E+00 1.36214E+00 0.00000E+00
 -1       387 1.69562E+00 1.60150E+00 0.00000E+00
 -1       388 1.64245E+00 1.86488E+00 0.00000E+00
 -1       389 1.58394E+00 2.15469E+00 0.00000E+00
 -1       390 1.51955E+00 2.47361E+00 0.00000E+00
 -1       391 1.44869E+00 2.82457E+00 0.00000E+00
 -1       392 1.37071E+00 3.21080E+00 0.00000E+00
 -1       393 1.28489E+00 3.63587E+00 0.00000E+00
 -1       394 1.19044E+00 4.10370E+00 0.00000E+00
 -1       395 1.08647E+00 4.61864E+00 0.00000E+00
 -1       396 9.72038E-01 5.18545E+00 0.00000E+00
 -1       397 8.46064E-01 5.80940E+00 0.00000E+00
 -1       398 7.07381E-01 6.49631E+00 0.00000E+00
 -1       399 5.54693E-01 7.25258E+00 0.00000E+00
 -1       400 3.86571E-01 8.08529E+00 0.00000E+00
 -1       401 2.01373E-01 9.00259E+00 0.00000E+00
 -1       402 2.26704E+00 3.88748E-01 0.00000E+00
 -1       403 2.23539E+00 5.22918E-01 0.00000E+00
 -1       404 2.20063E+00 6.70314E-01 0.00000E+00
 -1       405 2.16237E+00 8.32481E-01 0.00000E+00
 -1       406 2.12029E+00 1.01090E+00 0.00000E+00
 -1       407 2.07399E+00 1.20721E+00 0.00000E+00
 -1       408 2.02304E+00 1.42321E+00 0.00000E+00
 -1       409 1.96698E+00 1.66088E+00 0.00000E+00
 -1       410 1.90529E+00 1.92239E+00 0.00000E+00
 -1       411 1.83742E+00 2.21016E+00 0.00000E+00
 -1       412 1.76272E+00 2.52682E+00 0.00000E+00
 -1       413 1.68053E+00 2.87530E+00 0.00000E+00
 -1       414 1.59007E+00 3.25880E+00 0.00000E+00
 -1       415 1.49052E+00 3.68086E+00 0.00000E+00
 -1       416 1.38095E+00 4.14539E+00 0.00000E+00
 -1       417 1.26035E+00 4.65669E+00 0.00000E+00
 -1       418 1.12760E+00 5.21949E+00 0.00000E+00
 -1       419 9.81463E-01 5.83903E+00 0.00000E+00
 -1       420 8.20585E-01 6.52108E+00 0.00000E+00
 -1       421 6.43462E-01 7.27200E+00 0.00000E+00
 -1       422 4.48435E-01 8.09883E+00 0.00000E+00
 -1       423 2.33599E-01 9.00964E+00 0.00000E+00
 -1       424 2.60830E+00 4.75695E-01 0.00000E+00
 -1       425 2.57189E+00 6.08650E-01 0.00000E+00
 -1       426 2.53189E+00 7.54713E-01 0.00000E+00
 -1       427 2.48788E+00 9.15413E-01 0.00000E+00
 -1       428 2.43946E+00 1.09222E+00 0.00000E+00
 -1       429 2.38619E+00 1.28676E+00 0.00000E+00
 -1       430 2.32757E+00 1.50080E+00 0.00000E+00
 -1       431 2.26307E+00 1.73632E+00 0.00000E+00
 -1       432 2.19210E+00 1.99547E+00 0.00000E+00
 -1       433 2.11401E+00 2.28063E+00 0.00000E+00
 -1       434 2.02807E+00 2.59443E+00 0.00000E+00
 -1       435 1.93350E+00 2.93975E+00 0.00000E+00
 -1       436 1.82943E+00 3.31978E+00 0.00000E+00
 -1       437 1.71489E+00 3.73803E+00 0.00000E+00
 -1       438 1.58882E+00 4.19835E+00 0.00000E+00
 -1       439 1.45007E+00 4.70502E+00 0.00000E+00
 -1       440 1.29733E+00 5.26274E+00 0.00000E+00
 -1       441 1.12920E+00 5.87667E+00 0.00000E+00
 -1       442 9.44109E-01 6.55255E+00 0.00000E+00
 -1       443 7.40323E-01 7.29668E+00 0.00000E+00
 -1       444 5.15939E-01 8.11603E+00 0.00000E+00
 -1       445 2.68763E-01 9.01860E+00 0.00000E+00
 -1       446 2.97984E+00 5.85321E-01 0.00000E+00
 -1       447 2.93824E+00 7.16746E-01 0.00000E+00
 -1       448 2.89254E+00 8.61128E-01 0.00000E+00
 -1       449 2.84227E+00 1.01998E+00 0.00000E+00
 -1       450 2.78695E+00 1.19475E+00 0.00000E+00
 -1       451 2.72609E+00 1.38705E+00 0.00000E+00
 -1       452 2.65912E+00 1.59863E+00 0.00000E+00
 -1       453 2.58543E+00 1.83143E+00 0.00000E+00
 -1       454 2.50435E+00 2.08760E+00 0.00000E+00
 -1       455 2.41514E+00 2.36948E+00 0.00000E+00
 -1       456 2.31696E+00 2.67967E+00 0.00000E+00
 -1       457 2.20892E+00 3.02102E+00 0.00000E+00
 -1       458 2.09002E+00 3.39667E+00 0.00000E+00
 -1       459 1.95916E+00 3.81010E+00 0.00000E+00
 -1       460 1.81514E+00 4.26513E+00 0.00000E+00
 -1       461 1.65662E+00 4.76597E+00 0.00000E+00
 -1       462 1.48213E+00 5.31726E+00 0.00000E+00
 -1       463 1.29005E+00 5.92413E+00 0.00000E+00
 -1       464 1.07859E+00 6.59223E+00 0.00000E+00
 -1       465 8.45779E-01 7.32780E+00 0.00000E+00
 -1       466 5.89432E-01 8.13772E+00 0.00000E+00
 -1       467 3.07047E-01 9.02990E+00 0.00000E+00
 -1       468 3.38321E+00 7.22636E-01 0.00000E+00
 -1       469 3.33599E+00 8.52145E-01 0.00000E+00
 -1       470 3.28410E+00 9.94420E-01 0.00000E+00
 -1       471 3.22702E+00 1.15095E+00 0.00000E+00
 -1       472 3.16421E+00 1.32318E+00 0.00000E+00
 -1       473 3.09511E+00 1.51267E+00 0.00000E+00
 -1       474 3.01908E+00 1.72116E+00 0.00000E+00
 -1       475 2.93542E+00 1.95057E+00 0.00000E+00
 -1       476 2.84336E+00 2.20300E+00 0.00000E+00
 -1       477 2.74207E+00 2.48077E+00 0.00000E+00
 -1       478 2.63060E+00 2.78644E+00 0.00000E+00
 -1       479 2.50793E+00 3.12281E+00 0.00000E+00
 -1       480 2.37294E+00 3.49298E+00 0.00000E+00
 -1       481 2.22437E+00 3.90039E+00 0.00000E+00
 -1       482 2.06085E+00 4.34878E+00 0.00000E+00
 -1       483 1.88088E+00 4.84231E+00 0.00000E+00
 -1       484 1.68277E+00 5.38556E+00 0.00000E+00
 -1       485 1.46468E+00 5.98358E+00 0.00000E+00
 -1       486 1.22460E+00 6.64193E+00 0.00000E+00
 -1       487 9.60270E-01 7.36677E+00 0.00000E+00
 -1       488 6.69222E-01 8.16488E+00 0.00000E+00
 -1       489 3.48611E-01 9.04405E+00 0.00000E+00
 -1       490 3.81962E+00 8.93623E-01 0.00000E+00
 -1       491 3.76630E+00 1.02074E+00 0.00000E+00
 -1       492 3.70773E+00 1.16040E+00 0.00000E+00
 -1       493 3.64328E+00 1.31405E+00 0.00000E+00
 -1       494 3.57237E+00 1.48310E+00 0.00000E+00
 -1       495 3.49436E+00 1.66909E+00 0.00000E+00
 -1       496 3.40852E+00 1.87375E+00 0.00000E+00
 -1       497 3.31406E+00 2.09893E+00 0.00000E+00
 -1       498 3.21013E+00 2.34671E+00 0.00000E+00
 -1       499 3.09577E+00 2.61936E+00 0.00000E+00
 -1       500 2.96993E+00 2.91939E+00 0.00000E+00
 -1       501 2.83144E+00 3.24956E+00 0.00000E+00
 -1       502 2.67903E+00 3.61291E+00 0.00000E+00
 -1       503 2.51130E+00 4.01280E+00 0.00000E+00
 -1       504 2.32669E+00 4.45293E+00 0.00000E+00
 -1       505 2.12349E+00 4.93737E+00 0.00000E+00
 -1       506 1.89983E+00 5.47061E+00 0.00000E+00
 -1       507 1.65362E+00 6.05760E+00 0.00000E+00
 -1       508 1.38256E+00 6.70382E+00 0.00000E+00
 -1       509 1.08414E+00 7.41530E+00 0.00000E+00
 -1       510 7.55546E-01 8.19870E+00 0.00000E+00
 -1       511 3.93580E-01 9.06167E+00 0.00000E+00
 -1       512 4.28970E+00 1.10539E+00 0.00000E+00
 -1       513 4.22981E+00 1.22955E+00 0.00000E+00
 -1       514 4.16403E+00 1.36596E+00 0.00000E+00
 -1       515 4.09165E+00 1.51603E+00 0.00000E+00
 -1       516 4.01202E+00 1.68115E+00 0.00000E+00
 -1       517 3.92440E+00 1.86283E+00 0.00000E+00
 -1       518 3.82799E+00 2.06272E+00 0.00000E+00
 -1       519 3.72192E+00 2.28266E+00 0.00000E+00
 -1       520 3.60520E+00 2.52468E+00 0.00000E+00
 -1       521 3.47676E+00 2.79099E+00 0.00000E+00
 -1       522 3.33543E+00 3.08404E+00 0.00000E+00
 -1       523 3.17990E+00 3.40654E+00 0.00000E+00
 -1       524 3.00873E+00 3.76144E+00 0.00000E+00
 -1       525 2.82036E+00 4.15203E+00 0.00000E+00
 -1       526 2.61303E+00 4.58193E+00 0.00000E+00
 -1       527 2.38483E+00 5.05510E+00 0.00000E+00
 -1       528 2.13364E+00 5.57594E+00 0.00000E+00
 -1       529 1.85713E+00 6.14928E+00 0.00000E+00
 -1       530 1.55271E+00 6.78048E+00 0.00000E+00
 -1       531 1.21756E+00 7.47541E+00 0.00000E+00
 -1       532 8.48530E-01 8.24059E+00 0.00000E+00
 -1       533 4.42017E-01 9.08349E+00 0.00000E+00
 -1       534 4.79322E+00 1.36631E+00 0.00000E+00
 -1       535 4.72631E+00 1.48683E+00 0.00000E+00
 -1       536 4.65280E+00 1.61924E+00 0.00000E+00
 -1       537 4.57193E+00 1.76491E+00 0.00000E+00
 -1       538 4.48295E+00 1.92518E+00 0.00000E+00
 -1       539 4.38505E+00 2.10153E+00 0.00000E+00
 -1       540 4.27733E+00 2.29556E+00 0.00000E+00
 -1       541 4.15880E+00 2.50905E+00 0.00000E+00
 -1       542 4.02838E+00 2.74397E+00 0.00000E+00
 -1       543 3.88487E+00 3.00246E+00 0.00000E+00
 -1       544 3.72694E+00 3.28692E+00 0.00000E+00
 -1       545 3.55316E+00 3.59995E+00 0.00000E+00
 -1       546 3.36190E+00 3.94445E+00 0.00000E+00
 -1       547 3.15141E+00 4.32358E+00 0.00000E+00
 -1       548 2.91975E+00 4.74086E+00 0.00000E+00
 -1       549 2.66476E+00 5.20015E+00 0.00000E+00
 -1       550 2.38409E+00 5.70571E+00 0.00000E+00
 -1       551 2.07512E+00 6.26224E+00 0.00000E+00
 -1       552 1.73497E+00 6.87492E+00 0.00000E+00
 -1       553 1.36048E+00 7.54947E+00 0.00000E+00
 -1       554 9.48131E-01 8.29220E+00 0.00000E+00
 -1       555 4.93901E-01 9.11037E+00 0.00000E+00
 -1       556 5.32878E+00 1.68617E+00 0.00000E+00
 -1       557 5.25439E+00 1.80223E+00 0.00000E+00
 -1       558 5.17267E+00 1.92973E+00 0.00000E+00
 -1       559 5.08276E+00 2.07001E+00 0.00000E+00
 -1       560 4.98384E+00 2.22434E+00 0.00000E+00
 -1       561 4.87500E+00 2.39415E+00 0.00000E+00
 -1       562 4.75524E+00 2.58099E+00 0.00000E+00
 -1       563 4.62347E+00 2.78658E+00 0.00000E+00
 -1       564 4.47848E+00 3.01279E+00 0.00000E+00
 -1       565 4.31893E+00 3.26171E+00 0.00000E+00
 -1       566 4.14336E+00 3.53563E+00 0.00000E+00
 -1       567 3.95016E+00 3.83706E+00 0.00000E+00
 -1       568 3.73753E+00 4.16880E+00 0.00000E+00
 -1       569 3.50353E+00 4.53389E+00 0.00000E+00
 -1       570 3.24598E+00 4.93571E+00 0.00000E+00
 -1       571 2.96250E+00 5.37798E+00 0.00000E+00
 -1       572 2.65047E+00 5.86481E+00 0.00000E+00
 -1       573 2.30697E+00 6.40072E+00 0.00000E+00
 -1       574 1.92882E+00 6.99070E+00 0.00000E+00
 -1       575 1.51249E+00 7.64026E+00 0.00000E+00
 -1       576 1.05407E+00 8.35547E+00 0.00000E+00
 -1       577 5.49085E-01 9.14333E+00 0.00000E+00
 -1       578 5.89325E+00 2.07629E+00 0.00000E+00
 -1       579 5.81099E+00 2.18690E+00 0.00000E+00
 -1       580 5.72061E+00 2.30842E+00 0.00000E+00
 -1       581 5.62117E+00 2.44211E+00 0.00000E+00
 -1       582 5.51177E+00 2.58921E+00 0.00000E+00
 -1       583 5.39140E+00 2.75105E+00 0.00000E+00
 -1       584 5.25896E+00 2.92912E+00 0.00000E+00
 -1       585 5.11323E+00 3.12506E+00 0.00000E+00
 -1       586 4.95288E+00 3.34066E+00 0.00000E+00
 -1       587 4.77643E+00 3.57790E+00 0.00000E+00
 -1       588 4.58227E+00 3.83896E+00 0.00000E+00
 -1       589 4.36860E+00 4.12625E+00 0.00000E+00
 -1       590 4.13345E+00 4.44242E+00 0.00000E+00
 -1       591 3.87465E+00 4.79038E+00 0.00000E+00
 -1       592 3.58982E+00 5.17334E+00 0.00000E+00
 -1       593 3.27632E+00 5.59486E+00 0.00000E+00
 -1       594 2.93123E+00 6.05885E+00 0.00000E+00
 -1       595 2.55135E+00 6.56961E+00 0.00000E+00
 -1       596 2.13314E+00 7.13191E+00 0.00000E+00
 -1       597 1.67270E+00 7.75098E+00 0.00000E+00
 -1       598 1.16572E+00 8.43264E+00 0.00000E+00
 -1       599 6.07249E-01 9.18353E+00 0.00000E+00
 -1       600 6.48121E+00 2.54953E+00 0.00000E+00
 -1       601 6.39073E+00 2.65353E+00 0.00000E+00
 -1       602 6.29134E+00 2.76779E+00 0.00000E+00
 -1       603 6.18198E+00 2.89350E+00 0.00000E+00
 -1       604 6.06167E+00 3.03181E+00 0.00000E+00
 -1       605 5.92929E+00 3.18399E+00 0.00000E+00
 -1       606 5.78363E+00 3.35143E+00 0.00000E+00
 -1       607 5.62337E+00 3.53566E+00 0.00000E+00
 -1       608 5.44702E+00 3.73838E+00 0.00000E+00
 -1       609 5.25297E+00 3.96145E+00 0.00000E+00
 -1       610 5.03943E+00 4.20693E+00 0.00000E+00
 -1       611 4.80444E+00 4.47706E+00 0.00000E+00
 -1       612 4.54583E+00 4.77434E+00 0.00000E+00
 -1       613 4.26122E+00 5.10152E+00 0.00000E+00
 -1       614 3.94797E+00 5.46161E+00 0.00000E+00
 -1       615 3.60319E+00 5.85796E+00 0.00000E+00
 -1       616 3.22367E+00 6.29423E+00 0.00000E+00
 -1       617 2.80589E+00 6.77449E+00 0.00000E+00
 -1       618 2.34596E+00 7.30320E+00 0.00000E+00
 -1       619 1.83959E+00 7.88531E+00 0.00000E+00
 -1       620 1.28203E+00 8.52625E+00 0.00000E+00
 -1       621 6.67833E-01 9.23229E+00 0.00000E+00
 -1       622 7.08411E+00 3.12024E+00 0.00000E+00
 -1       623 6.98521E+00 3.21628E+00 0.00000E+00
 -1       624 6.87657E+00 3.32179E+00 0.00000E+00
 -1       625 6.75705E+00 3.43787E+00 0.00000E+00
 -1       626 6.62554E+00 3.56558E+00 0.00000E+00
 -1       627 6.48084E+00 3.70610E+00 0.00000E+00
 -1       628 6.32164E+00 3.86071E+00 0.00000E+00
 -1       629 6.14647E+00 4.03084E+00 0.00000E+00
 -1       630 5.95371E+00 4.21803E+00 0.00000E+00
 -1       631 5.74161E+00 4.42401E+00 0.00000E+00
 -1       632 5.50821E+00 4.65068E+00 0.00000E+00
 -1       633 5.25136E+00 4.90012E+00 0.00000E+00
 -1       634 4.96870E+00 5.17463E+00 0.00000E+00
 -1       635 4.65761E+00 5.47675E+00 0.00000E+00
 -1       636 4.31522E+00 5.80926E+00 0.00000E+00
 -1       637 3.93836E+00 6.17524E+00 0.00000E+00
 -1       638 3.52354E+00 6.57810E+00 0.00000E+00
 -1       639 3.06690E+00 7.02157E+00 0.00000E+00
 -1       640 2.56419E+00 7.50978E+00 0.00000E+00
 -1       641 2.01071E+00 8.04729E+00 0.00000E+00
 -1       642 1.40128E+00 8.63914E+00 0.00000E+00
 -1       643 7.29957E-01 9.29110E+00 0.00000E+00
 -1       644 7.68931E+00 3.80402E+00 0.00000E+00
 -1       645 7.58197E+00 3.89052E+00 0.00000E+00
 -1       646 7.46405E+00 3.98554E+00 0.00000E+00
 -1       647 7.33431E+00 4.09008E+00 0.00000E+00
 -1       648 7.19157E+00 4.20510E+00 0.00000E+00
 -1       649 7.03451E+00 4.33165E+00 0.00000E+00
 -1       650 6.86171E+00 4.47090E+00 0.00000E+00
 -1       651 6.67157E+00 4.62411E+00 0.00000E+00
 -1       652 6.46235E+00 4.79270E+00 0.00000E+00
 -1       653 6.23212E+00 4.97821E+00 0.00000E+00
 -1       654 5.97878E+00 5.18235E+00 0.00000E+00
 -1       655 5.69999E+00 5.40700E+00 0.00000E+00
 -1       656 5.39318E+00 5.65423E+00 0.00000E+00
 -1       657 5.05551E+00 5.92631E+00 0.00000E+00
 -1       658 4.68387E+00 6.22578E+00 0.00000E+00
 -1       659 4.27482E+00 6.55539E+00 0.00000E+00
 -1       660 3.82456E+00 6.91820E+00 0.00000E+00
 -1       661 3.32891E+00 7.31760E+00 0.00000E+00
 -1       662 2.78325E+00 7.75728E+00 0.00000E+00
 -1       663 2.18249E+00 8.24137E+00 0.00000E+00
 -1       664 1.52100E+00 8.77440E+00 0.00000E+00
 -1       665 7.92318E-01 9.36156E+00 0.00000E+00
 -1       666 8.27891E+00 4.61714E+00 0.00000E+00
 -1       667 8.16334E+00 4.69228E+00 0.00000E+00
 -1       668 8.03638E+00 4.77483E+00 0.00000E+00
 -1       669 7.89669E+00 4.86565E+00 0.00000E+00
 -1       670 7.74300E+00 4.96558E+00 0.00000E+00
 -1       671 7.57391E+00 5.07552E+00 0.00000E+00
 -1       672 7.38785E+00 5.19650E+00 0.00000E+00
 -1       673 7.18313E+00 5.32960E+00 0.00000E+00
 -1       674 6.95787E+00 5.47607E+00 0.00000E+00
 -1       675 6.70999E+00 5.63723E+00 0.00000E+00
 -1       676 6.43722E+00 5.81458E+00 0.00000E+00
 -1       677 6.13705E+00 6.00975E+00 0.00000E+00
 -1       678 5.80672E+00 6.22453E+00 0.00000E+00
 -1       679 5.44316E+00 6.46091E+00 0.00000E+00
 -1       680 5.04303E+00 6.72108E+00 0.00000E+00
 -1       681 4.60261E+00 7.00743E+00 0.00000E+00
 -1       682 4.11782E+00 7.32263E+00 0.00000E+00
 -1       683 3.58416E+00 7.66961E+00 0.00000E+00
 -1       684 2.99666E+00 8.05160E+00 0.00000E+00
 -1       685 2.34983E+00 8.47216E+00 0.00000E+00
 -1       686 1.63762E+00 8.93524E+00 0.00000E+00
 -1       687 8.53071E-01 9.44534E+00 0.00000E+00
 -1       688 8.82835E+00 5.57553E+00 0.00000E+00
 -1       689 8.70511E+00 5.63730E+00 0.00000E+00
 -1       690 8.56972E+00 5.70515E+00 0.00000E+00
 -1       691 8.42076E+00 5.77980E+00 0.00000E+00
 -1       692 8.25687E+00 5.86194E+00 0.00000E+00
 -1       693 8.07655E+00 5.95231E+00 0.00000E+00
 -1       694 7.87815E+00 6.05174E+00 0.00000E+00
 -1       695 7.65984E+00 6.16115E+00 0.00000E+00
 -1       696 7.41963E+00 6.28154E+00 0.00000E+00
 -1       697 7.15530E+00 6.41401E+00 0.00000E+00
 -1       698 6.86443E+00 6.55978E+00 0.00000E+00
 -1       699 6.54434E+00 6.72020E+00 0.00000E+00
 -1       700 6.19208E+00 6.89674E+00 0.00000E+00
 -1       701 5.80440E+00 7.09103E+00 0.00000E+00
 -1       702 5.37771E+00 7.30488E+00 0.00000E+00
 -1       703 4.90806E+00 7.54025E+00 0.00000E+00
 -1       704 4.39110E+00 7.79933E+00 0.00000E+00
 -1       705 3.82203E+00 8.08453E+00 0.00000E+00
 -1       706 3.19554E+00 8.39851E+00 0.00000E+00
 -1       707 2.50578E+00 8.74419E+00 0.00000E+00
 -1       708 1.74630E+00 9.12481E+00 0.00000E+00
 -1       709 9.09686E-01 9.54410E+00 0.00000E+00
 -1       710 9.30489E+00 6.69324E+00 0.00000E+00
 -1       711 9.17500E+00 6.73941E+00 0.00000E+00
 -1       712 9.03230E+00 6.79012E+00 0.00000E+00
 -1       713 8.87530E+00 6.84591E+00 0.00000E+00
 -1       714 8.70257E+00 6.90730E+00 0.00000E+00
 -1       715 8.51251E+00 6.97484E+00 0.00000E+00
 -1       716 8.30340E+00 7.04915E+00 0.00000E+00
 -1       717 8.07331E+00 7.13092E+00 0.00000E+00
 -1       718 7.82013E+00 7.22090E+00 0.00000E+00
 -1       719 7.54154E+00 7.31990E+00 0.00000E+00
 -1       720 7.23497E+00 7.42885E+00 0.00000E+00
 -1       721 6.89760E+00 7.54874E+00 0.00000E+00
 -1       722 6.52632E+00 7.68069E+00 0.00000E+00
 -1       723 6.11771E+00 7.82590E+00 0.00000E+00
 -1       724 5.66799E+00 7.98572E+00 0.00000E+00
 -1       725 5.17299E+00 8.16163E+00 0.00000E+00
 -1       726 4.62813E+00 8.35526E+00 0.00000E+00
 -1       727 4.02834E+00 8.56842E+00 0.00000E+00
 -1       728 3.36803E+00 8.80308E+00 0.00000E+00
 -1       729 2.64104E+00 9.06143E+00 0.00000E+00
 -1       730 1.84057E+00 9.34590E+00 0.00000E+00
 -1       731 9.58789E-01 9.65927E+00 0.00000E+00
 -1       732 9.66616E+00 7.97987E+00 0.00000E+00
 -1       733 9.53123E+00 8.00807E+00 0.00000E+00
 -1       734 9.38299E+00 8.03905E+00 0.00000E+00
 -1       735 9.21990E+00 8.07314E+00 0.00000E+00
 -1       736 9.04045E+00 8.11064E+00 0.00000E+00
 -1       737 8.84302E+00 8.15190E+00 0.00000E+00
 -1       738 8.62579E+00 8.19730E+00 0.00000E+00
 -1       739 8.38677E+00 8.24725E+00 0.00000E+00
 -1       740 8.12376E+00 8.30222E+00 0.00000E+00
 -1       741 7.83435E+00 8.36270E+00 0.00000E+00
 -1       742 7.51587E+00 8.42926E+00 0.00000E+00
 -1       743 7.16541E+00 8.50251E+00 0.00000E+00
 -1       744 6.77971E+00 8.58311E+00 0.00000E+00
 -1       745 6.35524E+00 8.67182E+00 0.00000E+00
 -1       746 5.88806E+00 8.76946E+00 0.00000E+00
 -1       747 5.37384E+00 8.87692E+00 0.00000E+00
 -1       748 4.80782E+00 8.99522E+00 0.00000E+00
 -1       749 4.18474E+00 9.12543E+00 0.00000E+00
 -1       750 3.49880E+00 9.26879E+00 0.00000E+00
 -1       751 2.74358E+00 9.42662E+00 0.00000E+00
 -1       752 1.91203E+00 9.60041E+00 0.00000E+00
 -1       753 9.96015E-01 9.79184E+00 0.00000E+00
 -1       754 9.85894E+00 9.43697E+00 0.00000E+00
 -1       755 9.72131E+00 9.44483E+00 0.00000E+00
 -1       756 9.57012E+00 9.45346E+00 0.00000E+00
 -1       757 9.40377E+00 9.46296E+00 0.00000E+00
 -1       758 9.22075E+00 9.47341E+00 0.00000E+00
 -1       759 9.01938E+00 9.48491E+00 0.00000E+00
 -1       760 8.79781E+00 9.49757E+00 0.00000E+00
 -1       761 8.55402E+00 9.51149E+00 0.00000E+00
 -1       762 8.28577E+00 9.52681E+00 0.00000E+00
 -1       763 7.99059E+00 9.54367E+00 0.00000E+00
 -1       764 7.66576E+00 9.56222E+00 0.00000E+00
 -1       765 7.30831E+00 9.58263E+00 0.00000E+00
 -1       766 6.91492E+00 9.60510E+00 0.00000E+00
 -1       767 6.48198E+00 9.62982E+00 0.00000E+00
 -1       768 6.00548E+00 9.65703E+00 0.00000E+00
 -1       769 5.48101E+00 9.68699E+00 0.00000E+00
 -1       770 4.90371E+00 9.71995E+00 0.00000E+00
 -1       771 4.26820E+00 9.75625E+00 0.00000E+00
 -1       772 3.56857E+00 9.79620E+00 0.00000E+00
 -1       773 2.79830E+00 9.84019E+00 0.00000E+00
 -1       774 1.95016E+00 9.88863E+00 0.00000E+00
 -1       775 1.01588E+00 9.94198E+00 0.00000E+00
 -1       776 3.71577E+01-2.50000E-01 0.00000E+00
 -1       777 3.71577E+01-5.25703E-01 0.00000E+00
 -1       778 3.71577E+01-8.28584E-01 0.00000E+00
 -1       779 3.71577E+01-1.16182E+00 0.00000E+00
 -1       780 3.71577E+01-1.52845E+00 0.00000E+00
 -1       781 3.71577E+01-1.93185E+00 0.00000E+00
 -1       782 3.71577E+01-2.37570E+00 0.00000E+00
 -1       783 3.71577E+01-2.86408E+00 0.00000E+00
 -1       784 3.71577E+01-3.40146E+00 0.00000E+00
 -1       785 3.71577E+01-3.99279E+00 0.00000E+00
 -1       786 3.71577E+01-4.64350E+00 0.00000E+00
 -1       787 3.71577E+01-5.35957E+00 0.00000E+00
 -1       788 3.71577E+01-6.14762E+00 0.00000E+00
 -1       789 3.71577E+01-7.01491E+00 0.00000E+00
 -1       790 3.71577E+01-7.96946E+00 0.00000E+00
 -1       791 3.71577E+01-9.02012E+00 0.00000E+00
 -1       792 3.71577E+01-1.01766E+01 0.00000E+00
 -1       793 3.71577E+01-1.14497E+01 0.00000E+00
 -1       794 3.71577E+01-1.28512E+01 0.00000E+00
 -1       795 3.71577E+01-1.43943E+01 0.00000E+00
 -1       796 3.71577E+01-1.60933E+01 0.00000E+00
 -1       797 3.71577E+01-1.79649E+01 0.00000E+00
 -1       798 3.35525E+01-2.50000E-01 0.00000E+00
 -1       799 3.35525E+01-5.25703E-01 0.00000E+00
 -1       800 3.35525E+01-8.28584E-01 0.00000E+00
 -1       801 3.35525E+01-1.16182E+00 0.00000E+00
 -1       802 3.35525E+01-1.52845E+00 0.00000E+00
 -1       803 3.35525E+01-1.93185E+00 0.00000E+00
 -1       804 3.35525E+01-2.37570E+00 0.00000E+00
 -1       805 3.35525E+01-2.86408E+00 0.00000E+00
 -1       806 3.35525E+01-3.40146E+00 0.00000E+00
 -1       807 3.35525E+01-3.99279E+00 0.00000E+00
 -1       808 3.35525E+01-4.64350E+00 0.00000E+00
 -1       809 3.35525E+01-5.35957E+00 0.00000E+00
 -1       810 3.35525E+01-6.14762E+00 0.00000E+00
 -1       811 3.35525E+01-7.01491E+00 0.00000E+00
 -1       812 3.35525E+01-7.96946E+00 0.00000E+00
 -1       813 3.35525E+01-9.02012E+00 0.00000E+00
 -1       814 3.35525E+01-1.01766E+01 0.00000E+00
 -1       815 3.35525E+01-1.14497E+01 0.00000E+00
 -1       816 3.35525E+01-1.28512E+01 0.00000E+00
 -1       817 3.35525E+01-1.43943E+01 0.00000E+00
 -1       818 3.35525E+01-1.60933E+01 0.00000E+00
 -1       819 3.35525E+01-1.79649E+01 0.00000E+00
 -1       820 3.02750E+01-2.50000E-01 0.00000E+00
 -1       821 3.02750E+01-5.25703E-01 0.00000E+00
 -1       822 3.02750E+01-8.28584E-01 0.00000E+00
 -1       823 3.02750E+01-1.16182E+00 0.00000E+00
 -1       824 3.02750E+01-1.52845E+00 0.00000E+00
 -1       825 3.02750E+01-1.93185E+00 0.00000E+00
 -1       826 3.02750E+01-2.37570E+00 0.00000E+00
 -1       827 3.02750E+01-2.86408E+00 0.00000E+00
 -1       828 3.02750E+01-3.40146E+00 0.00000E+00
 -1       829 3.02750E+01-3.99279E+00 0.00000E+00
 -1       830 3.02750E+01-4.64350E+00 0.00000E+00
 -1       831 3.02750E+01-5.35957E+00 0.00000E+00
 -1       832 3.02750E+01-6.14762E+00 0.00000E+00
 -1       833 3.02750E+01-7.01491E+00 0.00000E+00
 -1       834 3.02750E+01-7.96946E+00 0.00000E+00
 -1       835 3.02750E+01-9.02012E+00 0.00000E+00
 -1       836 3.02750E+01-1.01766E+01 0.00000E+00
 -1       837 3.02750E+01-1.14497E+01 0.00000E+00
 -1       838 3.02750E+01-1.28512E+01 0.00000E+00
 -1       839 3.02750E+01-1.43943E+01 0.00000E+00
 -1       840 3.02750E+01-1.60933E+01 0.00000E+00
 -1       841 3.02750E+01-1.79649E+01 0.00000E+00
 -1       842 2.72954E+01-2.50000E-01 0.00000E+00
 -1       843 2.72954E+01-5.25703E-01 0.00000E+00
 -1       844 2.72954E+01-8.28584E-01 0.00000E+00
 -1       845 2.72954E+01-1.16182E+00 0.00000E+00
 -1       846 2.72954E+01-1.52845E+00 0.00000E+00
 -1       847 2.72954E+01-1.93185E+00 0.00000E+00
 -1       848 2.72954E+01-2.37570E+00 0.00000E+00
 -1       849 2.72954E+01-2.86408E+00 0.00000E+00
 -1       850 2.72954E+01-3.40146E+00 0.00000E+00
 -1       851 2.72954E+01-3.99279E+00 0.00000E+00
 -1       852 2.72954E+01-4.64350E+00 0.00000E+00
 -1       853 2.72954E+01-5.35957E+00 0.00000E+00
 -1       854 2.72954E+01-6.14762E+00 0.00000E+00
 -1       855 2.72954E+01-7.01491E+00 0.00000E+00
 -1       856 2.72954E+01-7.96946E+00 0.00000E+00
 -1       857 2.72954E+01-9.02012E+00 0.00000E+00
 -1       858 2.72954E+01-1.01766E+01 0.00000E+00
 -1       859 2.72954E+01-1.14497E+01 0.00000E+00
 -1       860 2.72954E+01-1.28512E+01 0.00000E+00
 -1       861 2.72954E+01-1.43943E+01 0.00000E+00
 -1       862 2.72954E+01-1.60933E+01 0.00000E+00
 -1       863 2.72954E+01-1.79649E+01 0.00000E+00
 -1       864 2.45868E+01-2.50000E-01 0.00000E+00
 -1       865 2.45868E+01-5.25703E-01 0.00000E+00
 -1       866 2.45868E+01-8.28584E-01 0.00000E+00
 -1       867 2.45868E+01-1.16182E+00 0.00000E+00
 -1       868 2.45868E+01-1.52845E+00 0.00000E+00
 -1       869 2.45868E+01-1.93185E+00 0.00000E+00
 -1       870 2.45868E+01-2.37570E+00 0.00000E+00
 -1       871 2.45868E+01-2.86408E+00 0.00000E+00
 -1       872 2.45868E+01-3.40146E+00 0.00000E+00
 -1       873 2.45868E+01-3.99279E+00 0.00000E+00
 -1       874 2.45868E+01-4.64350E+00 0.00000E+00
 -1       875 2.45868E+01-5.35957E+00 0.00000E+00
 -1       876 2.45868E+01-6.14762E+00 0.00000E+00
 -1       877 2.45868E+01-7.01491E+00 0.00000E+00
 -1       878 2.45868E+01-7.96946E+00 0.00000E+00
 -1       879 2.45868E+01-9.02012E+00 0.00000E+00
 -1       880 2.45868E+01-1.01766E+01 0.00000E+00
 -1       881 2.45868E+01-1.14497E+01 0.00000E+00
 -1       882 2.45868E+01-1.28512E+01 0.00000E+00
 -1       883 2.45868E+01-1.43943E+01 0.00000E+00
 -1       884 2.45868E+01-1.60933E+01 0.00000E+00
 -1       885 2.45868E+01-1.79649E+01 0.00000E+00
 -1       886 2.21243E+01-2.50000E-01 0.00000E+00
 -1       887 2.21243E+01-5.25703E-01 0.00000E+00
 -1       888 2.21243E+01-8.28584E-01 0.00000E+00
 -1       889 2.21243E+01-1.16182E+00 0.00000E+00
 -1       890 2.21243E+01-1.52845E+00 0.00000E+00
 -1       891 2.21243E+01-1.93185E+00 0.00000E+00
 -1       892 2.21243E+01-2.37570E+00 0.00000E+00
 -1       893 2.21243E+01-2.86408E+00 0.00000E+00
 -1       894 2.21243E+01-3.40146E+00 0.00000E+00
 -1       895 2.21243E+01-3.99279E+00 0.00000E+00
 -1       896 2.21243E+01-4.64350E+00 0.00000E+00
 -1       897 2.21243E+01-5.35957E+00 0.00000E+00
 -1       898 2.21243E+01-6.14762E+00 0.00000E+00
 -1       899 2.21243E+01-7.01491E+00 0.00000E+00
 -1       900 2.21243E+01-7.96946E+00 0.00000E+00
 -1       901 2.21243E+01-9.02012E+00 0.00000E+00
 -1       902 2.21243E+01-1.01766E+01 0.00000E+00
 -1       903 2.21243E+01-1.14497E+01 0.00000E+00
 -1       904 2.21243E+01-1.28512E+01 0.00000E+00
 -1       905 2.21243E+01-1.43943E+01 0.00000E+00
 -1       906 2.21243E+01-1.60933E+01 0.00000E+00
 -1       907 2.21243E+01-1.79649E+01 0.00000E+00
 -1       908 1.98858E+01-2.50000E-01 0.00000E+00
 -1       909 1.98858E+01-5.25703E-01 0.00000E+00
 -1       910 1.98858E+01-8.28584E-01 0.00000E+00
 -1       911 1.98858E+01-1.16182E+00 0.00000E+00
 -1       912 1.98858E+01-1.52845E+00 0.00000E+00
 -1       913 1.98858E+01-1.93185E+00 0.00000E+00
 -1       914 1.98858E+01-2.37570E+00 0.00000E+00
 -1       915 1.98858E+01-2.86408E+00 0.00000E+00
 -1       916 1.98858E+01-3.40146E+00 0.00000E+00
 -1       917 1.98858E+01-3.99279E+00 0.00000E+00
 -1       918 1.98858E+01-4.64350E+00 0.00000E+00
 -1       919 1.98858E+01-5.35957E+00 0.00000E+00
 -1       920 1.98858E+01-6.14762E+00 0.00000E+00
 -1       921 1.98858E+01-7.01491E+00 0.00000E+00
 -1       922 1.98858E+01-7.96946E+00 0.00000E+00
 -1       923 1.98858E+01-9.02012E+00 0.00000E+00
 -1       924 1.98858E+01-1.01766E+01 0.00000E+00
 -1       925 1.98858E+01-1.14497E+01 0.00000E+00
 -1       926 1.98858E+01-1.28512E+01 0.00000E+00
 -1       927 1.98858E+01-1.43943E+01 0.00000E+00
 -1       928 1.98858E+01-1.60933E+01 0.00000E+00
 -1       929 1.98858E+01-1.79649E+01 0.00000E+00
 -1       930 1.78507E+01-2.50000E-01 0.00000E+00
 -1       931 1.78507E+01-5.25703E-01 0.00000E+00
 -1       932 1.78507E+01-8.28584E-01 0.00000E+00
 -1       933 1.78507E+01-1.16182E+00 0.00000E+00
 -1       934 1.78507E+01-1.52845E+00 0.00000E+00
 -1       935 1.78507E+01-1.93185E+00 0.00000E+00
 -1       936 1.78507E+01-2.37570E+00 0.00000E+00
 -1       937 1.78507E+01-2.86408E+00 0.00000E+00
 -1       938 1.78507E+01-3.40146E+00 0.00000E+00
 -1       939 1.78507E+01-3.99279E+00 0.00000E+00
 -1       940 1.78507E+01-4.64350E+00 0.00000E+00
 -1       941 1.78507E+01-5.35957E+00 0.00000E+00
 -1       942 1.78507E+01-6.14762E+00 0.00000E+00
 -1       943 1.78507E+01-7.01491E+00 0.00000E+00
 -1       944 1.78507E+01-7.96946E+00 0.00000E+00
 -1       945 1.78507E+01-9.02012E+00 0.00000E+00
 -1       946 1.78507E+01-1.01766E+01 0.00000E+00
 -1       947 1.78507E+01-1.14497E+01 0.00000E+00
 -1       948 1.78507E+01-1.28512E+01 0.00000E+00
 -1       949 1.78507E+01-1.43943E+01 0.00000E+00
 -1       950 1.78507E+01-1.60933E+01 0.00000E+00
 -1       951 1.78507E+01-1.79649E+01 0.00000E+00
 -1       952 1.60006E+01-2.50000E-01 0.00000E+00
 -1       953 1.60006E+01-5.25703E-01 0.00000E+00
 -1       954 1.60006E+01-8.28584E-01 0.00000E+00
 -1       955 1.60006E+01-1.16182E+00 0.00000E+00
 -1       956 1.60006E+01-1.52845E+00 0.00000E+00
 -1       957 1.60006E+01-1.93185E+00 0.00000E+00
 -1       958 1.60006E+01-2.37570E+00 0.00000E+00
 -1       959 1.60006E+01-2.86408E+00 0.00000E+00
 -1       960 1.60006E+01-3.40146E+00 0.00000E+00
 -1       961 1.60006E+01-3.99279E+00 0.00000E+00
 -1       962 1.60006E+01-4.64350E+00 0.00000E+00
 -1       963 1.60006E+01-5.35957E+00 0.00000E+00
 -1       964 1.60006E+01-6.14762E+00 0.00000E+00
 -1       965 1.60006E+01-7.01491E+00 0.00000E+00
 -1       966 1.60006E+01-7.96946E+00 0.00000E+00
 -1       967 1.60006E+01-9.02012E+00 0.00000E+00
 -1       968 1.60006E+01-1.01766E+01 0.00000E+00
 -1       969 1.60006E+01-1.14497E+01 0.00000E+00
 -1       970 1.60006E+01-1.28512E+01 0.00000E+00
 -1       971 1.60006E+01-1.43943E+01 0.00000E+00
 -1       972 1.60006E+01-1.60933E+01 0.00000E+00
 -1       973 1.60006E+01-1.79649E+01 0.00000E+00
 -1       974 1.43187E+01-2.50000E-01 0.00000E+00
 -1       975 1.43187E+01-5.25703E-01 0.00000E+00
 -1       976 1.43187E+01-8.28584E-01 0.00000E+00
 -1       977 1.43187E+01-1.16182E+00 0.00000E+00
 -1       978 1.43187E+01-1.52845E+00 0.00000E+00
 -1       979 1.43187E+01-1.93185E+00 0.00000E+00
 -1       980 1.43187E+01-2.37570E+00 0.00000E+00
 -1       981 1.43187E+01-2.86408E+00 0.00000E+00
 -1       982 1.43187E+01-3.40146E+00 0.00000E+00
 -1       983 1.43187E+01-3.99279E+00 0.00000E+00
 -1       984 1.43187E+01-4.64350E+00 0.00000E+00
 -1       985 1.43187E+01-5.35957E+00 0.00000E+00
 -1       986 1.43187E+01-6.14762E+00 0.00000E+00
 -1       987 1.43187E+01-7.01491E+00 0.00000E+00
 -1       988 1.43187E+01-7.96946E+00 0.00000E+00
 -1       989 1.43187E+01-9.02012E+00 0.00000E+00
 -1       990 1.43187E+01-1.01766E+01 0.00000E+00
 -1       991 1.43187E+01-1.14497E+01 0.00000E+00
 -1       992 1.43187E+01-1.28512E+01 0.00000E+00
 -1       993 1.43187E+01-1.43943E+01 0.00000E+00
 -1       994 1.43187E+01-1.60933E+01 0.00000E+00
 -1       995 1.43187E+01-1.79649E+01 0.00000E+00
 -1       996 1.27898E+01-2.50000E-01 0.00000E+00
 -1       997 1.27898E+01-5.25703E-01 0.00000E+00
 -1       998 1.27898E+01-8.28584E-01 0.00000E+00
 -1       999 1.27898E+01-1.16182E+00 0.00000E+00
 -1      1000 1.27898E+01-1.52845E+00 0.00000E+00
 -1      1001 1.27898E+01-1.93185E+00 0.00000E+00
 -1      1002 1.27898E+01-2.37570E+00 0.00000E+00
 -1      1003 1.27898E+01-2.86408E+00 0.00000E+00
 -1      1004 1.27898E+01-3.40146E+00 0.00000E+00
 -1      1005 1.27898E+01-3.99279E+00 0.00000E+00
 -1      1006 1.27898E+01-4.64350E+00 0.00000E+00
 -1      1007 1.27898E+01-5.35957E+00 0.00000E+00
 -1      1008 1.27898E+01-6.14762E+00 0.00000E+00
 -1      1009 1.27898E+01-7.01491E+00 0.00000E+00
 -1      1010 1.27898E+01-7.96946E+00 0.00000E+00
 -1      1011 1.27898E+01-9.02012E+00 0.00000E+00
 -1      1012 1.27898E+01-1.01766E+01 0.00000E+00
 -1      1013 1.27898E+01-1.14497E+01 0.00000E+00
 -1      1014 1.27898E+01-1.28512E+01 0.00000E+00
 -1      1015 1.27898E+01-1.43943E+01 0.00000E+00
 -1      1016 1.27898E+01-1.60933E+01 0.00000E+00
 -1      1017 1.27898E+01-1.79649E+01 0.00000E+00
 -1      1018 1.13998E+01-2.50000E-01 0.00000E+00
 -1      1019 1.13998E+01-5.25703E-01 0.00000E+00
 -1      1020 1.13998E+01-8.28584E-01 0.00000E+00
 -1      1021 1.13998E+01-1.16182E+00 0.00000E+00
 -1      1022 1.13998E+01-1.52845E+00 0.00000E+00
 -1      1023 1.13998E+01-1.93185E+00 0.00000E+00
 -1      1024 1.13998E+01-2.37570E+00 0.00000E+00
 -1      1025 1.13998E+01-2.86408E+00 0.00000E+00
 -1      1026 1.13998E+01-3.40146E+00 0.00000E+00
 -1      1027 1.13998E+01-3.99279E+00 0.00000E+00
 -1      1028 1.13998E+01-4.64350E+00 0.00000E+00
 -1      1029 1.13998E+01-5.35957E+00 0.00000E+00
 -1      1030 1.13998E+01-6.14762E+00 0.00000E+00
 -1      1031 1.13998E+01-7.01491E+00 0.00000E+00
 -1      1032 1.13998E+01-7.96946E+00 0.00000E+00
 -1      1033 1.13998E+01-9.02012E+00 0.00000E+00
 -1      1034 1.13998E+01-1.01766E+01 0.00000E+00
 -1      1035 1.13998E+01-1.14497E+01 0.00000E+00
 -1      1036 1.13998E+01-1.28512E+01 0.00000E+00
 -1      1037 1.13998E+01-1.43943E+01 0.00000E+00
 -1      1038 1.13998E+01-1.60933E+01 0.00000E+00
 -1      1039 1.13998E+01-1.79649E+01 0.00000E+00
 -1      1040 1.01362E+01-2.50000E-01 0.00000E+00
 -1      1041 1.01362E+01-5.25703E-01 0.00000E+00
 -1      1042 1.01362E+01-8.28584E-01 0.00000E+00
 -1      1043 1.01362E+01-1.16182E+00 0.00000E+00
 -1      1044 1.01362E+01-1.52845E+00 0.00000E+00
 -1      1045 1.01362E+01-1.93185E+00 0.00000E+00
 -1      1046 1.01362E+01-2.37570E+00 0.00000E+00
 -1      1047 1.01362E+01-2.86408E+00 0.00000E+00
 -1      1048 1.01362E+01-3.40146E+00 0.00000E+00
 -1      1049 1.01362E+01-3.99279E+00 0.00000E+00
 -1      1050 1.01362E+01-4.64350E+00 0.00000E+00
 -1      1051 1.01362E+01-5.35957E+00 0.00000E+00
 -1      1052 1.01362E+01-6.14762E+00 0.00000E+00
 -1      1053 1.01362E+01-7.01491E+00 0.00000E+00
 -1      1054 1.01362E+01-7.96946E+00 0.00000E+00
 -1      1055 1.01362E+01-9.02012E+00 0.00000E+00
 -1      1056 1.01362E+01-1.01766E+01 0.00000E+00
 -1      1057 1.01362E+01-1.14497E+01 0.00000E+00
 -1      1058 1.01362E+01-1.28512E+01 0.00000E+00
 -1      1059 1.01362E+01-1.43943E+01 0.00000E+00
 -1      1060 1.01362E+01-1.60933E+01 0.00000E+00
 -1      1061 1.01362E+01-1.79649E+01 0.00000E+00
 -1      1062 8.98743E+00-2.50000E-01 0.00000E+00
 -1      1063 8.98743E+00-5.25703E-01 0.00000E+00
 -1      1064 8.98743E+00-8.28584E-01 0.00000E+00
 -1      1065 8.98743E+00-1.16182E+00 0.00000E+00
 -1      1066 8.98743E+00-1.52845E+00 0.00000E+00
 -1      1067 8.98743E+00-1.93185E+00 0.00000E+00
 -1      1068 8.98743E+00-2.37570E+00 0.00000E+00
 -1      1069 8.98743E+00-2.86408E+00 0.00000E+00
 -1      1070 8.98743E+00-3.40146E+00 0.00000E+00
 -1      1071 8.98743E+00-3.99279E+00 0.00000E+00
 -1      1072 8.98743E+00-4.64350E+00 0.00000E+00
 -1      1073 8.98743E+00-5.35957E+00 0.00000E+00
 -1      1074 8.98743E+00-6.14762E+00 0.00000E+00
 -1      1075 8.98743E+00-7.01491E+00 0.00000E+00
 -1      1076 8.98743E+00-7.96946E+00 0.00000E+00
 -1      1077 8.98743E+00-9.02012E+00 0.00000E+00
 -1      1078 8.98743E+00-1.01766E+01 0.00000E+00
 -1      1079 8.98743E+00-1.14497E+01 0.00000E+00
 -1      1080 8.98743E+00-1.28512E+01 0.00000E+00
 -1      1081 8.98743E+00-1.43943E+01 0.00000E+00
 -1      1082 8.98743E+00-1.60933E+01 0.00000E+00
 -1      1083 8.98743E+00-1.79649E+01 0.00000E+00
 -1      1084 7.94312E+00-2.50000E-01 0.00000E+00
 -1      1085 7.94312E+00-5.25703E-01 0.00000E+00
 -1      1086 7.94312E+00-8.28584E-01 0.00000E+00
 -1      1087 7.94312E+00-1.16182E+00 0.00000E+00
 -1      1088 7.94312E+00-1.52845E+00 0.00000E+00
 -1      1089 7.94312E+00-1.93185E+00 0.00000E+00
 -1      1090 7.94312E+00-2.37570E+00 0.00000E+00
 -1      1091 7.94312E+00-2.86408E+00 0.00000E+00
 -1      1092 7.94312E+00-3.40146E+00 0.00000E+00
 -1      1093 7.94312E+00-3.99279E+00 0.00000E+00
 -1      1094 7.94312E+00-4.64350E+00 0.00000E+00
 -1      1095 7.94312E+00-5.35957E+00 0.00000E+00
 -1      1096 7.94312E+00-6.14762E+00 0.00000E+00
 -1      1097 7.94312E+00-7.01491E+00 0.00000E+00
 -1      1098 7.94312E+00-7.96946E+00 0.00000E+00
 -1      1099 7.94312E+00-9.02012E+00 0.00000E+00
 -1      1100 7.94312E+00-1.01766E+01 0.00000E+00
 -1      1101 7.94312E+00-1.14497E+01 0.00000E+00
 -1      1102 7.94312E+00-1.28512E+01 0.00000E+00
 -1      1103 7.94312E+00-1.43943E+01 0.00000E+00
 -1      1104 7.94312E+00-1.60933E+01 0.00000E+00
 -1      1105 7.94312E+00-1.79649E+01 0.00000E+00
 -1      1106 6.99375E+00-2.50000E-01 0.00000E+00
 -1      1107 6.99375E+00-5.25703E-01 0.00000E+00
 -1      1108 6.99375E+00-8.28584E-01 0.00000E+00
 -1      1109 6.99375E+00-1.16182E+00 0.00000E+00
 -1      1110 6.99375E+00-1.52845E+00 0.00000E+00
 -1      1111 6.99375E+00-1.93185E+00 0.00000E+00
 -1      1112 6.99375E+00-2.37570E+00 0.00000E+00
 -1      1113 6.99375E+00-2.86408E+00 0.00000E+00
 -1      1114 6.99375E+00-3.40146E+00 0.00000E+00
 -1      1115 6.99375E+00-3.99279E+00 0.00000E+00
 -1      1116 6.99375E+00-4.64350E+00 0.00000E+00
 -1      1117 6.99375E+00-5.35957E+00 0.00000E+00
 -1      1118 6.99375E+00-6.14762E+00 0.00000E+00
 -1      1119 6.99375E+00-7.01491E+00 0.00000E+00
 -1      1120 6.99375E+00-7.96946E+00 0.00000E+00
 -1      1121 6.99375E+00-9.02012E+00 0.00000E+00
 -1      1122 6.99375E+00-1.01766E+01 0.00000E+00
 -1      1123 6.99375E+00-1.14497E+01 0.00000E+00
 -1      1124 6.99375E+00-1.28512E+01 0.00000E+00
 -1      1125 6.99375E+00-1.43943E+01 0.00000E+00
 -1      1126 6.99375E+00-1.60933E+01 0.00000E+00
 -1      1127 6.99375E+00-1.79649E+01 0.00000E+00
 -1      1128 6.13068E+00-2.50000E-01 0.00000E+00
 -1      1129 6.13068E+00-5.25703E-01 0.00000E+00
 -1      1130 6.13068E+00-8.28584E-01 0.00000E+00
 -1      1131 6.13068E+00-1.16182E+00 0.00000E+00
 -1      1132 6.13068E+00-1.52845E+00 0.00000E+00
 -1      1133 6.13068E+00-1.93185E+00 0.00000E+00
 -1      1134 6.13068E+00-2.37570E+00 0.00000E+00
 -1      1135 6.13068E+00-2.86408E+00 0.00000E+00
 -1      1136 6.13068E+00-3.40146E+00 0.00000E+00
 -1      1137 6.13068E+00-3.99279E+00 0.00000E+00
 -1      1138 6.13068E+00-4.64350E+00 0.00000E+00
 -1      1139 6.13068E+00-5.35957E+00 0.00000E+00
 -1      1140 6.13068E+00-6.14762E+00 0.00000E+00
 -1      1141 6.13068E+00-7.01491E+00 0.00000E+00
 -1      1142 6.13068E+00-7.96946E+00 0.00000E+00
 -1      1143 6.13068E+00-9.02012E+00 0.00000E+00
 -1      1144 6.13068E+00-1.01766E+01 0.00000E+00
 -1      1145 6.13068E+00-1.14497E+01 0.00000E+00
 -1      1146 6.13068E+00-1.28512E+01 0.00000E+00
 -1      1147 6.13068E+00-1.43943E+01 0.00000E+00
 -1      1148 6.13068E+00-1.60933E+01 0.00000E+00
 -1      1149 6.13068E+00-1.79649E+01 0.00000E+00
 -1      1150 5.34607E+00-2.50000E-01 0.00000E+00
 -1      1151 5.34607E+00-5.25703E-01 0.00000E+00
 -1      1152 5.34607E+00-8.28584E-01 0.00000E+00
 -1      1153 5.34607E+00-1.16182E+00 0.00000E+00
 -1      1154 5.34607E+00-1.52845E+00 0.00000E+00
 -1      1155 5.34607E+00-1.93185E+00 0.00000E+00
 -1      1156 5.34607E+00-2.37570E+00 0.00000E+00
 -1      1157 5.34607E+00-2.86408E+00 0.00000E+00
 -1      1158 5.34607E+00-3.40146E+00 0.00000E+00
 -1      1159 5.34607E+00-3.99279E+00 0.00000E+00
 -1      1160 5.34607E+00-4.64350E+00 0.00000E+00
 -1      1161 5.34607E+00-5.35957E+00 0.00000E+00
 -1      1162 5.34607E+00-6.14762E+00 0.00000E+00
 -1      1163 5.34607E+00-7.01491E+00 0.00000E+00
 -1      1164 5.34607E+00-7.96946E+00 0.00000E+00
 -1      1165 5.34607E+00-9.02012E+00 0.00000E+00
 -1      1166 5.34607E+00-1.01766E+01 0.00000E+00
 -1      1167 5.34607E+00-1.14497E+01 0.00000E+00
 -1      1168 5.34607E+00-1.28512E+01 0.00000E+00
 -1      1169 5.34607E+00-1.43943E+01 0.00000E+00
 -1      1170 5.34607E+00-1.60933E+01 0.00000E+00
 -1      1171 5.34607E+00-1.79649E+01 0.00000E+00
 -1      1172 4.63279E+00-2.50000E-01 0.00000E+00
 -1      1173 4.63279E+00-5.25703E-01 0.00000E+00
 -1      1174 4.63279E+00-8.28584E-01 0.00000E+00
 -1      1175 4.63279E+00-1.16182E+00 0.00000E+00
 -1      1176 4.63279E+00-1.52845E+00 0.00000E+00
 -1      1177 4.63279E+00-1.93185E+00 0.00000E+00
 -1      1178 4.63279E+00-2.37570E+00 0.00000E+00
 -1      1179 4.63279E+00-2.86408E+00 0.00000E+00
 -1      1180 4.63279E+00-3.40146E+00 0.00000E+00
 -1      1181 4.63279E+00-3.99279E+00 0.00000E+00
 -1      1182 4.63279E+00-4.64350E+00 0.00000E+00
 -1      1183 4.63279E+00-5.35957E+00 0.00000E+00
 -1      1184 4.63279E+00-6.14762E+00 0.00000E+00
 -1      1185 4.63279E+00-7.01491E+00 0.00000E+00
 -1      1186 4.63279E+00-7.96946E+00 0.00000E+00
 -1      1187 4.63279E+00-9.02012E+00 0.00000E+00
 -1      1188 4.63279E+00-1.01766E+01 0.00000E+00
 -1      1189 4.63279E+00-1.14497E+01 0.00000E+00
 -1      1190 4.63279E+00-1.28512E+01 0.00000E+00
 -1      1191 4.63279E+00-1.43943E+01 0.00000E+00
 -1      1192 4.63279E+00-1.60933E+01 0.00000E+00
 -1      1193 4.63279E+00-1.79649E+01 0.00000E+00
 -1      1194 3.98436E+00-2.50000E-01 0.00000E+00
 -1      1195 3.98436E+00-5.25703E-01 0.00000E+00
 -1      1196 3.98436E+00-8.28584E-01 0.00000E+00
 -1      1197 3.98436E+00-1.16182E+00 0.00000E+00
 -1      1198 3.98436E+00-1.52845E+00 0.00000E+00
 -1      1199 3.98436E+00-1.93185E+00 0.00000E+00
 -1      1200 3.98436E+00-2.37570E+00 0.00000E+00
 -1      1201 3.98436E+00-2.86408E+00 0.00000E+00
 -1      1202 3.98436E+00-3.40146E+00 0.00000E+00
 -1      1203 3.98436E+00-3.99279E+00 0.00000E+00
 -1      1204 3.98436E+00-4.64350E+00 0.00000E+00
 -1      1205 3.98436E+00-5.35957E+00 0.00000E+00
 -1      1206 3.98436E+00-6.14762E+00 0.00000E+00
 -1      1207 3.98436E+00-7.01491E+00 0.00000E+00
 -1      1208 3.98436E+00-7.96946E+00 0.00000E+00
 -1      1209 3.98436E+00-9.02012E+00 0.00000E+00
 -1      1210 3.98436E+00-1.01766E+01 0.00000E+00
 -1      1211 3.98436E+00-1.14497E+01 0.00000E+00
 -1      1212 3.98436E+00-1.28512E+01 0.00000E+00
 -1      1213 3.98436E+00-1.43943E+01 0.00000E+00
 -1      1214 3.98436E+00-1.60933E+01 0.00000E+00
 -1      1215 3.98436E+00-1.79649E+01 0.00000E+00
 -1      1216 3.39487E+00-2.50000E-01 0.00000E+00
 -1      1217 3.39487E+00-5.25703E-01 0.00000E+00
 -1      1218 3.39487E+00-8.28584E-01 0.00000E+00
 -1      1219 3.39487E+00-1.16182E+00 0.00000E+00
 -1      1220 3.39487E+00-1.52845E+00 0.00000E+00
 -1      1221 3.39487E+00-1.93185E+00 0.00000E+00
 -1      1222 3.39487E+00-2.37570E+00 0.00000E+00
 -1      1223 3.39487E+00-2.86408E+00 0.00000E+00
 -1      1224 3.39487E+00-3.40146E+00 0.00000E+00
 -1      1225 3.39487E+00-3.99279E+00 0.00000E+00
 -1      1226 3.39487E+00-4.64350E+00 0.00000E+00
 -1      1227 3.39487E+00-5.35957E+00 0.00000E+00
 -1      1228 3.39487E+00-6.14762E+00 0.00000E+00
 -1      1229 3.39487E+00-7.01491E+00 0.00000E+00
 -1      1230 3.39487E+00-7.96946E+00 0.00000E+00
 -1      1231 3.39487E+00-9.02012E+00 0.00000E+00
 -1      1232 3.39487E+00-1.01766E+01 0.00000E+00
 -1      1233 3.39487E+00-1.14497E+01 0.00000E+00
 -1      1234 3.39487E+00-1.28512E+01 0.00000E+00
 -1      1235 3.39487E+00-1.43943E+01 0.00000E+00
 -1      1236 3.39487E+00-1.60933E+01 0.00000E+00
 -1      1237 3.39487E+00-1.79649E+01 0.00000E+00
 -1      1238 2.85897E+00-2.50000E-01 0.00000E+00
 -1      1239 2.85897E+00-5.25703E-01 0.00000E+00
 -1      1240 2.85897E+00-8.28584E-01 0.00000E+00
 -1      1241 2.85897E+00-1.16182E+00 0.00000E+00
 -1      1242 2.85897E+00-1.52845E+00 0.00000E+00
 -1      1243 2.85897E+00-1.93185E+00 0.00000E+00
 -1      1244 2.85897E+00-2.37570E+00 0.00000E+00
 -1      1245 2.85897E+00-2.86408E+00 0.00000E+00
 -1      1246 2.85897E+00-3.40146E+00 0.00000E+00
 -1      1247 2.85897E+00-3.99279E+00 0.00000E+00
 -1      1248 2.85897E+00-4.64350E+00 0.00000E+00
 -1      1249 2.85897E+00-5.35957E+00 0.00000E+00
 -1      1250 2.85897E+00-6.14762E+00 0.00000E+00
 -1      1251 2.85897E+00-7.01491E+00 0.00000E+00
 -1      1252 2.85897E+00-7.96946E+00 0.00000E+00
 -1      1253 2.85897E+00-9.02012E+00 0.00000E+00
 -1      1254 2.85897E+00-1.01766E+01 0.00000E+00
 -1      1255 2.85897E+00-1.14497E+01 0.00000E+00
 -1      1256 2.85897E+00-1.28512E+01 0.00000E+00
 -1      1257 2.85897E+00-1.43943E+01 0.00000E+00
 -1      1258 2.85897E+00-1.60933E+01 0.00000E+00
 -1      1259 2.85897E+00-1.79649E+01 0.00000E+00
 -1      1260 2.37179E+00-2.50000E-01 0.00000E+00
 -1      1261 2.37179E+00-5.25703E-01 0.00000E+00
 -1      1262 2.37179E+00-8.28584E-01 0.00000E+00
 -1      1263 2.37179E+00-1.16182E+00 0.00000E+00
 -1      1264 2.37179E+00-1.52845E+00 0.00000E+00
 -1      1265 2.37179E+00-1.93185E+00 0.00000E+00
 -1      1266 2.37179E+00-2.37570E+00 0.00000E+00
 -1      1267 2.37179E+00-2.86408E+00 0.00000E+00
 -1      1268 2.37179E+00-3.40146E+00 0.00000E+00
 -1      1269 2.37179E+00-3.99279E+00 0.00000E+00
 -1      1270 2.37179E+00-4.64350E+00 0.00000E+00
 -1      1271 2.37179E+00-5.35957E+00 0.00000E+00
 -1      1272 2.37179E+00-6.14762E+00 0.00000E+00
 -1      1273 2.37179E+00-7.01491E+00 0.00000E+00
 -1      1274 2.37179E+00-7.96946E+00 0.00000E+00
 -1      1275 2.37179E+00-9.02012E+00 0.00000E+00
 -1      1276 2.37179E+00-1.01766E+01 0.00000E+00
 -1      1277 2.37179E+00-1.14497E+01 0.00000E+00
 -1      1278 2.37179E+00-1.28512E+01 0.00000E+00
 -1      1279 2.37179E+00-1.43943E+01 0.00000E+00
 -1      1280 2.37179E+00-1.60933E+01 0.00000E+00
 -1      1281 2.37179E+00-1.79649E+01 0.00000E+00
 -1      1282 1.92890E+00-2.50000E-01 0.00000E+00
 -1      1283 1.92890E+00-5.25703E-01 0.00000E+00
 -1      1284 1.92890E+00-8.28584E-01 0.00000E+00
 -1      1285 1.92890E+00-1.16182E+00 0.00000E+00
 -1      1286 1.92890E+00-1.52845E+00 0.00000E+00
 -1      1287 1.92890E+00-1.93185E+00 0.00000E+00
 -1      1288 1.92890E+00-2.37570E+00 0.00000E+00
 -1      1289 1.92890E+00-2.86408E+00 0.00000E+00
 -1      1290 1.92890E+00-3.40146E+00 0.00000E+00
 -1      1291 1.92890E+00-3.99279E+00 0.00000E+00
 -1      1292 1.92890E+00-4.64350E+00 0.00000E+00
 -1      1293 1.92890E+00-5.35957E+00 0.00000E+00
 -1      1294 1.92890E+00-6.14762E+00 0.00000E+00
 -1      1295 1.92890E+00-7.01491E+00 0.00000E+00
 -1      1296 1.92890E+00-7.96946E+00 0.00000E+00
 -1      1297 1.92890E+00-9.02012E+00 0.00000E+00
 -1      1298 1.92890E+00-1.01766E+01 0.00000E+00
 -1      1299 1.92890E+00-1.14497E+01 0.00000E+00
 -1      1300 1.92890E+00-1.28512E+01 0.00000E+00
 -1      1301 1.92890E+00-1.43943E+01 0.00000E+00
 -1      1302 1.92890E+00-1.60933E+01 0.00000E+00
 -1      1303 1.92890E+00-1.79649E+01 0.00000E+00
 -1      1304 1.52628E+00-2.50000E-01 0.00000E+00
 -1      1305 1.52628E+00-5.25703E-01 0.00000E+00
 -1      1306 1.52628E+00-8.28584E-01 0.00000E+00
 -1      1307 1.52628E+00-1.16182E+00 0.00000E+00
 -1      1308 1.52628E+00-1.52845E+00 0.00000E+00
 -1      1309 1.52628E+00-1.93185E+00 0.00000E+00
 -1      1310 1.52628E+00-2.37570E+00 0.00000E+00
 -1      1311 1.52628E+00-2.86408E+00 0.00000E+00
 -1      1312 1.52628E+00-3.40146E+00 0.00000E+00
 -1      1313 1.52628E+00-3.99279E+00 0.00000E+00
 -1      1314 1.52628E+00-4.64350E+00 0.00000E+00
 -1      1315 1.52628E+00-5.35957E+00 0.00000E+00
 -1      1316 1.52628E+00-6.14762E+00 0.00000E+00
 -1      1317 1.52628E+00-7.01491E+00 0.00000E+00
 -1      1318 1.52628E+00-7.96946E+00 0.00000E+00
 -1      1319 1.52628E+00-9.02012E+00 0.00000E+00
 -1      1320 1.52628E+00-1.01766E+01 0.00000E+00
 -1      1321 1.52628E+00-1.14497E+01 0.00000E+00
 -1      1322 1.52628E+00-1.28512E+01 0.00000E+00
 -1      1323 1.52628E+00-1.43943E+01 0.00000E+00
 -1      1324 1.52628E+00-1.60933E+01 0.00000E+00
 -1      1325 1.52628E+00-1.79649E+01 0.00000E+00
 -1      1326 1.16025E+00-2.50000E-01 0.00000E+00
 -1      1327 1.16025E+00-5.25703E-01 0.00000E+00
 -1      1328 1.16025E+00-8.28584E-01 0.00000E+00
 -1      1329 1.16025E+00-1.16182E+00 0.00000E+00
 -1      1330 1.16025E+00-1.52845E+00 0.00000E+00
 -1      1331 1.16025E+00-1.93185E+00 0.00000E+00
 -1      1332 1.16025E+00-2.37570E+00 0.00000E+00
 -1      1333 1.16025E+00-2.86408E+00 0.00000E+00
 -1      1334 1.16025E+00-3.40146E+00 0.00000E+00
 -1      1335 1.16025E+00-3.99279E+00 0.00000E+00
 -1      1336 1.16025E+00-4.64350E+00 0.00000E+00
 -1      1337 1.16025E+00-5.35957E+00 0.00000E+00
 -1      1338 1.16025E+00-6.14762E+00 0.00000E+00
 -1      1339 1.16025E+00-7.01491E+00 0.00000E+00
 -1      1340 1.16025E+00-7.96946E+00 0.00000E+00
 -1      1341 1.16025E+00-9.02012E+00 0.00000E+00
 -1      1342 1.16025E+00-1.01766E+01 0.00000E+00
 -1      1343 1.16025E+00-1.14497E+01 0.00000E+00
 -1      1344 1.16025E+00-1.28512E+01 0.00000E+00
 -1      1345 1.16025E+00-1.43943E+01 0.00000E+00
 -1      1346 1.16025E+00-1.60933E+01 0.00000E+00
 -1      1347 1.16025E+00-1.79649E+01 0.00000E+00
 -1      1348 8.27500E-01-2.50000E-01 0.00000E+00
 -1      1349 8.27500E-01-5.25703E-01 0.00000E+00
 -1      1350 8.27500E-01-8.28584E-01 0.00000E+00
 -1      1351 8.27500E-01-1.16182E+00 0.00000E+00
 -1      1352 8.27500E-01-1.52845E+00 0.00000E+00
 -1      1353 8.27500E-01-1.93185E+00 0.00000E+00
 -1      1354 8.27500E-01-2.37570E+00 0.00000E+00
 -1      1355 8.27500E-01-2.86408E+00 0.00000E+00
 -1      1356 8.27500E-01-3.40146E+00 0.00000E+00
 -1      1357 8.27500E-01-3.99279E+00 0.00000E+00
 -1      1358 8.27500E-01-4.64350E+00 0.00000E+00
 -1      1359 8.27500E-01-5.35957E+00 0.00000E+00
 -1      1360 8.27500E-01-6.14762E+00 0.00000E+00
 -1      1361 8.27500E-01-7.01491E+00 0.00000E+00
 -1      1362 8.27500E-01-7.96946E+00 0.00000E+00
 -1      1363 8.27500E-01-9.02012E+00 0.00000E+00
 -1      1364 8.27500E-01-1.01766E+01 0.00000E+00
 -1      1365 8.27500E-01-1.14497E+01 0.00000E+00
 -1      1366 8.27500E-01-1.28512E+01 0.00000E+00
 -1      1367 8.27500E-01-1.43943E+01 0.00000E+00
 -1      1368 8.27500E-01-1.60933E+01 0.00000E+00
 -1      1369 8.27500E-01-1.79649E+01 0.00000E+00
 -1      1370 5.25000E-01-2.50000E-01 0.00000E+00
 -1      1371 5.25000E-01-5.25703E-01 0.00000E+00
 -1      1372 5.25000E-01-8.28584E-01 0.00000E+00
 -1      1373 5.25000E-01-1.16182E+00 0.00000E+00
 -1      1374 5.25000E-01-1.52845E+00 0.00000E+00
 -1      1375 5.25000E-01-1.93185E+00 0.00000E+00
 -1      1376 5.25000E-01-2.37570E+00 0.00000E+00
 -1      1377 5.25000E-01-2.86408E+00 0.00000E+00
 -1      1378 5.25000E-01-3.40146E+00 0.00000E+00
 -1      1379 5.25000E-01-3.99279E+00 0.00000E+00
 -1      1380 5.25000E-01-4.64350E+00 0.00000E+00
 -1      1381 5.25000E-01-5.35957E+00 0.00000E+00
 -1      1382 5.25000E-01-6.14762E+00 0.00000E+00
 -1      1383 5.25000E-01-7.01491E+00 0.00000E+00
 -1      1384 5.25000E-01-7.96946E+00 0.00000E+00
 -1      1385 5.25000E-01-9.02012E+00 0.00000E+00
 -1      1386 5.25000E-01-1.01766E+01 0.00000E+00
 -1      1387 5.25000E-01-1.14497E+01 0.00000E+00
 -1      1388 5.25000E-01-1.28512E+01 0.00000E+00
 -1      1389 5.25000E-01-1.43943E+01 0.00000E+00
 -1      1390 5.25000E-01-1.60933E+01 0.00000E+00
 -1      1391 5.25000E-01-1.79649E+01 0.00000E+00
 -1      1392 2.50000E-01-2.50000E-01 0.00000E+00
 -1      1393 2.50000E-01-5.25703E-01 0.00000E+00
 -1      1394 2.50000E-01-8.28584E-01 0.00000E+00
 -1      1395 2.50000E-01-1.16182E+00 0.00000E+00
 -1      1396 2.50000E-01-1.52845E+00 0.00000E+00
 -1      1397 2.50000E-01-1.93185E+00 0.00000E+00
 -1      1398 2.50000E-01-2.37570E+00 0.00000E+00
 -1      1399 2.50000E-01-2.86408E+00 0.00000E+00
 -1      1400 2.50000E-01-3.40146E+00 0.00000E+00
 -1      1401 2.50000E-01-3.99279E+00 0.00000E+00
 -1      1402 2.50000E-01-4.64350E+00 0.00000E+00
 -1      1403 2.50000E-01-5.35957E+00 0.00000E+00
 -1      1404 2.50000E-01-6.14762E+00 0.00000E+00
 -1      1405 2.50000E-01-7.01491E+00 0.00000E+00
 -1      1406 2.50000E-01-7.96946E+00 0.00000E+00
 -1      1407 2.50000E-01-9.02012E+00 0.00000E+00
 -1      1408 2.50000E-01-1.01766E+01 0.00000E+00
 -1      1409 2.50000E-01-1.14497E+01 0.00000E+00
 -1      1410 2.50000E-01-1.28512E+01 0.00000E+00
 -1      1411 2.50000E-01-1.43943E+01 0.00000E+00
 -1      1412 2.50000E-01-1.60933E+01 0.00000E+00
 -1      1413 2.50000E-01-1.79649E+01 0.00000E+00
 -1      1414 6.24996E-02 1.95312E-04 0.00000E+00
 -1      1415 1.24216E-01 6.32764E-02 0.00000E+00
 -1      1416 6.17171E-02 1.25386E-01 0.00000E+00
 -1      1417 0.00000E+00 6.25000E-02 0.00000E+00
 -1      1418 1.22573E-01 1.94692E-01 0.00000E+00
 -1      1419 6.08556E-02 2.63232E-01 0.00000E+00
 -1      1420 0.00000E+00 1.93926E-01 0.00000E+00
 -1      1421 1.20765E-01 3.39326E-01 0.00000E+00
 -1      1422 5.99091E-02 4.14666E-01 0.00000E+00
 -1      1423 0.00000E+00 3.38572E-01 0.00000E+00
 -1      1424 1.18777E-01 4.98343E-01 0.00000E+00
 -1      1425 5.88678E-02 5.81277E-01 0.00000E+00
 -1      1426 0.00000E+00 4.97600E-01 0.00000E+00
 -1      1427 1.16590E-01 6.73297E-01 0.00000E+00
 -1      1428 5.77221E-02 7.64588E-01 0.00000E+00
 -1      1429 0.00000E+00 6.72568E-01 0.00000E+00
 -1      1430 1.14184E-01 8.65790E-01 0.00000E+00
 -1      1431 5.64615E-02 9.66278E-01 0.00000E+00
 -1      1432 0.00000E+00 8.65076E-01 0.00000E+00
 -1      1433 1.11536E-01 1.07759E+00 0.00000E+00
 -1      1434 5.50745E-02 1.18820E+00 0.00000E+00
 -1      1435 0.00000E+00 1.07689E+00 0.00000E+00
 -1      1436 1.08623E-01 1.31062E+00 0.00000E+00
 -1      1437 5.35484E-02 1.43237E+00 0.00000E+00
 -1      1438 0.00000E+00 1.30995E+00 0.00000E+00
 -1      1439 1.05417E-01 1.56704E+00 0.00000E+00
 -1      1440 5.18691E-02 1.70106E+00 0.00000E+00
 -1      1441 0.00000E+00 1.56639E+00 0.00000E+00
 -1      1442 1.01890E-01 1.84920E+00 0.00000E+00
 -1      1443 5.00212E-02 1.99671E+00 0.00000E+00
 -1      1444 0.00000E+00 1.84856E+00 0.00000E+00
 -1      1445 9.80091E-02 2.15968E+00 0.00000E+00
 -1      1446 4.79878E-02 2.32205E+00 0.00000E+00
 -1      1447 0.00000E+00 2.15907E+00 0.00000E+00
 -1      1448 9.37380E-02 2.50135E+00 0.00000E+00
 -1      1449 4.57501E-02 2.68007E+00 0.00000E+00
 -1      1450 0.00000E+00 2.50077E+00 0.00000E+00
 -1      1451 8.90377E-02 2.87735E+00 0.00000E+00
 -1      1452 4.32876E-02 3.07408E+00 0.00000E+00
 -1      1453 0.00000E+00 2.87680E+00 0.00000E+00
 -1      1454 8.38649E-02 3.29116E+00 0.00000E+00
 -1      1455 4.05773E-02 3.50771E+00 0.00000E+00
 -1      1456 0.00000E+00 3.29063E+00 0.00000E+00
 -1      1457 7.81718E-02 3.74658E+00 0.00000E+00
 -1      1458 3.75944E-02 3.98497E+00 0.00000E+00
 -1      1459 0.00000E+00 3.74609E+00 0.00000E+00
 -1      1460 7.19057E-02 4.24784E+00 0.00000E+00
 -1      1461 3.43112E-02 4.51027E+00 0.00000E+00
 -1      1462 0.00000E+00 4.24740E+00 0.00000E+00
 -1      1463 6.50085E-02 4.79959E+00 0.00000E+00
 -1      1464 3.06973E-02 5.08850E+00 0.00000E+00
 -1      1465 0.00000E+00 4.79918E+00 0.00000E+00
 -1      1466 5.74163E-02 5.40693E+00 0.00000E+00
 -1      1467 2.67190E-02 5.72501E+00 0.00000E+00
 -1      1468 0.00000E+00 5.40658E+00 0.00000E+00
 -1      1469 4.90584E-02 6.07554E+00 0.00000E+00
 -1      1470 2.23393E-02 6.42575E+00 0.00000E+00
 -1      1471 0.00000E+00 6.07523E+00 0.00000E+00
 -1      1472 3.98567E-02 6.81163E+00 0.00000E+00
 -1      1473 1.75174E-02 7.19725E+00 0.00000E+00
 -1      1474 0.00000E+00 6.81138E+00 0.00000E+00
 -1      1475 2.97255E-02 7.62209E+00 0.00000E+00
 -1      1476 1.22081E-02 8.04674E+00 0.00000E+00
 -1      1477 0.00000E+00 7.62190E+00 0.00000E+00
 -1      1478 1.85675E-02 8.51468E+00 0.00000E+00
 -1      1479 6.35942E-03 8.98251E+00 0.00000E+00
 -1      1480 0.00000E+00 8.51456E+00 0.00000E+00
 -1      1481 6.35942E-03 9.49127E+00 0.00000E+00
 -1      1482 0.00000E+00 9.49123E+00 0.00000E+00
 -1      1483 1.93738E-01 1.87689E-03 0.00000E+00
 -1      1484 2.60829E-01 6.59236E-02 0.00000E+00
 -1      1485 1.91312E-01 1.27087E-01 0.00000E+00
 -1      1486 2.57380E-01 1.97304E-01 0.00000E+00
 -1      1487 1.88641E-01 2.64909E-01 0.00000E+00
 -1      1488 2.53583E-01 3.41900E-01 0.00000E+00
 -1      1489 1.85707E-01 4.16317E-01 0.00000E+00
 -1      1490 2.49409E-01 5.00874E-01 0.00000E+00
 -1      1491 1.82479E-01 5.82899E-01 0.00000E+00
 -1      1492 2.44817E-01 6.75782E-01 0.00000E+00
 -1      1493 1.78928E-01 7.66179E-01 0.00000E+00
 -1      1494 2.39764E-01 8.68224E-01 0.00000E+00
 -1      1495 1.75020E-01 9.67835E-01 0.00000E+00
 -1      1496 2.34205E-01 1.07996E+00 0.00000E+00
 -1      1497 1.70721E-01 1.18971E+00 0.00000E+00
 -1      1498 2.28088E-01 1.31294E+00 0.00000E+00
 -1      1499 1.65990E-01 1.43385E+00 0.00000E+00
 -1      1500 2.21357E-01 1.56929E+00 0.00000E+00
 -1      1501 1.60784E-01 1.70248E+00 0.00000E+00
 -1      1502 2.13951E-01 1.85137E+00 0.00000E+00
 -1      1503 1.55056E-01 1.99809E+00 0.00000E+00
 -1      1504 2.05801E-01 2.16177E+00 0.00000E+00
 -1      1505 1.48753E-01 2.32337E+00 0.00000E+00
 -1      1506 1.96832E-01 2.50335E+00 0.00000E+00
 -1      1507 1.41817E-01 2.68133E+00 0.00000E+00
 -1      1508 1.86963E-01 2.87925E+00 0.00000E+00
 -1      1509 1.34183E-01 3.07527E+00 0.00000E+00
 -1      1510 1.76101E-01 3.29294E+00 0.00000E+00
 -1      1511 1.25782E-01 3.50883E+00 0.00000E+00
 -1      1512 1.64146E-01 3.74825E+00 0.00000E+00
 -1      1513 1.16536E-01 3.98600E+00 0.00000E+00
 -1      1514 1.50989E-01 4.24938E+00 0.00000E+00
 -1      1515 1.06358E-01 4.51122E+00 0.00000E+00
 -1      1516 1.36506E-01 4.80097E+00 0.00000E+00
 -1      1517 9.51559E-02 5.08934E+00 0.00000E+00
 -1      1518 1.20564E-01 5.40816E+00 0.00000E+00
 -1      1519 8.28240E-02 5.72575E+00 0.00000E+00
 -1      1520 1.03013E-01 6.07658E+00 0.00000E+00
 -1      1521 6.92478E-02 6.42637E+00 0.00000E+00
 -1      1522 8.36917E-02 6.81248E+00 0.00000E+00
 -1      1523 5.43007E-02 7.19774E+00 0.00000E+00
 -1      1524 6.24179E-02 7.62272E+00 0.00000E+00
 -1      1525 3.78427E-02 8.04707E+00 0.00000E+00
 -1      1526 3.89882E-02 8.51507E+00 0.00000E+00
 -1      1527 1.97130E-02 8.98268E+00 0.00000E+00
 -1      1528 1.33536E-02 9.49141E+00 0.00000E+00
 -1      1529 3.38061E-01 5.71588E-03 0.00000E+00
 -1      1530 4.11047E-01 7.10047E-02 0.00000E+00
 -1      1531 3.33825E-01 1.30927E-01 0.00000E+00
 -1      1532 4.05611E-01 2.02318E-01 0.00000E+00
 -1      1533 3.29165E-01 2.68695E-01 0.00000E+00
 -1      1534 3.99628E-01 3.46840E-01 0.00000E+00
 -1      1535 3.24046E-01 4.20045E-01 0.00000E+00
 -1      1536 3.93050E-01 5.05733E-01 0.00000E+00
 -1      1537 3.18413E-01 5.86562E-01 0.00000E+00
 -1      1538 3.85812E-01 6.80551E-01 0.00000E+00
 -1      1539 3.12216E-01 7.69770E-01 0.00000E+00
 -1      1540 3.77850E-01 8.72894E-01 0.00000E+00
 -1      1541 3.05398E-01 9.71347E-01 0.00000E+00
 -1      1542 3.69088E-01 1.08452E+00 0.00000E+00
 -1      1543 2.97895E-01 1.19314E+00 0.00000E+00
 -1      1544 3.59448E-01 1.31738E+00 0.00000E+00
 -1      1545 2.89641E-01 1.43718E+00 0.00000E+00
 -1      1546 3.48841E-01 1.57360E+00 0.00000E+00
 -1      1547 2.80558E-01 1.70571E+00 0.00000E+00
 -1      1548 3.37169E-01 1.85554E+00 0.00000E+00
 -1      1549 2.70563E-01 2.00120E+00 0.00000E+00
 -1      1550 3.24326E-01 2.16578E+00 0.00000E+00
 -1      1551 2.59564E-01 2.32636E+00 0.00000E+00
 -1      1552 3.10192E-01 2.50718E+00 0.00000E+00
 -1      1553 2.47460E-01 2.68418E+00 0.00000E+00
 -1      1554 2.94638E-01 2.88289E+00 0.00000E+00
 -1      1555 2.34140E-01 3.07797E+00 0.00000E+00
 -1      1556 2.77521E-01 3.29638E+00 0.00000E+00
 -1      1557 2.19481E-01 3.51135E+00 0.00000E+00
 -1      1558 2.58682E-01 3.75145E+00 0.00000E+00
 -1      1559 2.03347E-01 3.98834E+00 0.00000E+00
 -1      1560 2.37946E-01 4.25232E+00 0.00000E+00
 -1      1561 1.85588E-01 4.51335E+00 0.00000E+00
 -1      1562 2.15122E-01 4.80363E+00 0.00000E+00
 -1      1563 1.66040E-01 5.09125E+00 0.00000E+00
 -1      1564 1.89999E-01 5.41051E+00 0.00000E+00
 -1      1565 1.44522E-01 5.72741E+00 0.00000E+00
 -1      1566 1.62341E-01 6.07859E+00 0.00000E+00
 -1      1567 1.20833E-01 6.42776E+00 0.00000E+00
 -1      1568 1.31892E-01 6.81411E+00 0.00000E+00
 -1      1569 9.47508E-02 7.19883E+00 0.00000E+00
 -1      1570 9.83657E-02 7.62394E+00 0.00000E+00
 -1      1571 6.60328E-02 8.04783E+00 0.00000E+00
 -1      1572 6.14424E-02 8.51583E+00 0.00000E+00
 -1      1573 3.43978E-02 8.98308E+00 0.00000E+00
 -1      1574 2.10442E-02 9.49167E+00 0.00000E+00
 -1      1575 4.96733E-01 1.23448E-02 0.00000E+00
 -1      1576 5.76176E-01 7.92174E-02 0.00000E+00
 -1      1577 4.90507E-01 1.37532E-01 0.00000E+00
 -1      1578 5.68556E-01 2.10422E-01 0.00000E+00
 -1      1579 4.83660E-01 2.75208E-01 0.00000E+00
 -1      1580 5.60169E-01 3.54825E-01 0.00000E+00
 -1      1581 4.76137E-01 4.26456E-01 0.00000E+00
 -1      1582 5.50949E-01 5.13586E-01 0.00000E+00
 -1      1583 4.67861E-01 5.92862E-01 0.00000E+00
 -1      1584 5.40804E-01 6.88259E-01 0.00000E+00
 -1      1585 4.58755E-01 7.75948E-01 0.00000E+00
 -1      1586 5.29643E-01 8.80444E-01 0.00000E+00
 -1      1587 4.48737E-01 9.77390E-01 0.00000E+00
 -1      1588 5.17362E-01 1.09190E+00 0.00000E+00
 -1      1589 4.37713E-01 1.19903E+00 0.00000E+00
 -1      1590 5.03849E-01 1.32456E+00 0.00000E+00
 -1      1591 4.25584E-01 1.44291E+00 0.00000E+00
 -1      1592 4.88981E-01 1.58057E+00 0.00000E+00
 -1      1593 4.12238E-01 1.71126E+00 0.00000E+00
 -1      1594 4.72620E-01 1.86228E+00 0.00000E+00
 -1      1595 3.97552E-01 2.00655E+00 0.00000E+00
 -1      1596 4.54617E-01 2.17226E+00 0.00000E+00
 -1      1597 3.81391E-01 2.33149E+00 0.00000E+00
 -1      1598 4.34805E-01 2.51338E+00 0.00000E+00
 -1      1599 3.63607E-01 2.68908E+00 0.00000E+00
 -1      1600 4.13003E-01 2.88878E+00 0.00000E+00
 -1      1601 3.44035E-01 3.08260E+00 0.00000E+00
 -1      1602 3.89009E-01 3.30192E+00 0.00000E+00
 -1      1603 3.22495E-01 3.51570E+00 0.00000E+00
 -1      1604 3.62601E-01 3.75661E+00 0.00000E+00
 -1      1605 2.98788E-01 3.99237E+00 0.00000E+00
 -1      1606 3.33536E-01 4.25707E+00 0.00000E+00
 -1      1607 2.72694E-01 4.51702E+00 0.00000E+00
 -1      1608 3.01543E-01 4.80793E+00 0.00000E+00
 -1      1609 2.43972E-01 5.09454E+00 0.00000E+00
 -1      1610 2.66327E-01 5.41430E+00 0.00000E+00
 -1      1611 2.12354E-01 5.73027E+00 0.00000E+00
 -1      1612 2.27558E-01 6.08183E+00 0.00000E+00
 -1      1613 1.77546E-01 6.43015E+00 0.00000E+00
 -1      1614 1.84876E-01 6.81674E+00 0.00000E+00
 -1      1615 1.39222E-01 7.20070E+00 0.00000E+00
 -1      1616 1.37882E-01 7.62590E+00 0.00000E+00
 -1      1617 9.70254E-02 8.04914E+00 0.00000E+00
 -1      1618 8.61256E-02 8.51706E+00 0.00000E+00
 -1      1619 5.05425E-02 8.98376E+00 0.00000E+00
 -1      1620 2.94983E-02 9.49209E+00 0.00000E+00
 -1      1621 6.71126E-01 2.25460E-02 0.00000E+00
 -1      1622 7.57632E-01 9.14229E-02 0.00000E+00
 -1      1623 6.62710E-01 1.47677E-01 0.00000E+00
 -1      1624 7.47612E-01 2.22466E-01 0.00000E+00
 -1      1625 6.53458E-01 2.85211E-01 0.00000E+00
 -1      1626 7.36584E-01 3.66691E-01 0.00000E+00
 -1      1627 6.43295E-01 4.36304E-01 0.00000E+00
 -1      1628 7.24460E-01 5.25257E-01 0.00000E+00
 -1      1629 6.32114E-01 6.02539E-01 0.00000E+00
 -1      1630 7.11121E-01 6.99716E-01 0.00000E+00
 -1      1631 6.19811E-01 7.85436E-01 0.00000E+00
 -1      1632 6.96444E-01 8.91663E-01 0.00000E+00
 -1      1633 6.06275E-01 9.86671E-01 0.00000E+00
 -1      1634 6.80295E-01 1.10286E+00 0.00000E+00
 -1      1635 5.91382E-01 1.20809E+00 0.00000E+00
 -1      1636 6.62527E-01 1.33524E+00 0.00000E+00
 -1      1637 5.74994E-01 1.45171E+00 0.00000E+00
 -1      1638 6.42976E-01 1.59093E+00 0.00000E+00
 -1      1639 5.56963E-01 1.71979E+00 0.00000E+00
 -1      1640 6.21463E-01 1.87229E+00 0.00000E+00
 -1      1641 5.37121E-01 2.01477E+00 0.00000E+00
 -1      1642 5.97790E-01 2.18189E+00 0.00000E+00
 -1      1643 5.15286E-01 2.33938E+00 0.00000E+00
 -1      1644 5.71739E-01 2.52259E+00 0.00000E+00
 -1      1645 4.91258E-01 2.69660E+00 0.00000E+00
 -1      1646 5.43071E-01 2.89753E+00 0.00000E+00
 -1      1647 4.64815E-01 3.08972E+00 0.00000E+00
 -1      1648 5.11520E-01 3.31016E+00 0.00000E+00
 -1      1649 4.35714E-01 3.52237E+00 0.00000E+00
 -1      1650 4.76796E-01 3.76430E+00 0.00000E+00
 -1      1651 4.03684E-01 3.99855E+00 0.00000E+00
 -1      1652 4.38577E-01 4.26414E+00 0.00000E+00
 -1      1653 3.68429E-01 4.52266E+00 0.00000E+00
 -1      1654 3.96509E-01 4.81432E+00 0.00000E+00
 -1      1655 3.29623E-01 5.09958E+00 0.00000E+00
 -1      1656 3.50201E-01 5.41994E+00 0.00000E+00
 -1      1657 2.86905E-01 5.73466E+00 0.00000E+00
 -1      1658 2.99223E-01 6.08665E+00 0.00000E+00
 -1      1659 2.39877E-01 6.43382E+00 0.00000E+00
 -1      1660 2.43100E-01 6.82066E+00 0.00000E+00
 -1      1661 1.88099E-01 7.20358E+00 0.00000E+00
 -1      1662 1.81305E-01 7.62882E+00 0.00000E+00
 -1      1663 1.31088E-01 8.05115E+00 0.00000E+00
 -1      1664 1.13249E-01 8.51889E+00 0.00000E+00
 -1      1665 6.82866E-02 8.98480E+00 0.00000E+00
 -1      1666 3.87883E-02 9.49271E+00 0.00000E+00
 -1      1667 8.62721E-01 3.72838E-02 0.00000E+00
 -1      1668 9.56938E-01 1.08682E-01 0.00000E+00
 -1      1669 8.51893E-01 1.62316E-01 0.00000E+00
 -1      1670 9.44283E-01 2.39497E-01 0.00000E+00
 -1      1671 8.40001E-01 2.99647E-01 0.00000E+00
 -1      1672 9.30354E-01 3.83470E-01 0.00000E+00
 -1      1673 8.26937E-01 4.50515E-01 0.00000E+00
 -1      1674 9.15040E-01 5.41760E-01 0.00000E+00
 -1      1675 8.12563E-01 6.16502E-01 0.00000E+00
 -1      1676 8.98191E-01 7.15915E-01 0.00000E+00
 -1      1677 7.96749E-01 7.99128E-01 0.00000E+00
 -1      1678 8.79654E-01 9.07529E-01 0.00000E+00
 -1      1679 7.79349E-01 1.00006E+00 0.00000E+00
 -1      1680 8.59257E-01 1.11836E+00 0.00000E+00
 -1      1681 7.60204E-01 1.22115E+00 0.00000E+00
 -1      1682 8.36815E-01 1.35033E+00 0.00000E+00
 -1      1683 7.39138E-01 1.46442E+00 0.00000E+00
 -1      1684 8.12121E-01 1.60558E+00 0.00000E+00
 -1      1685 7.15959E-01 1.73209E+00 0.00000E+00
 -1      1686 7.84948E-01 1.88644E+00 0.00000E+00
 -1      1687 6.90453E-01 2.02664E+00 0.00000E+00
 -1      1688 7.55048E-01 2.19551E+00 0.00000E+00
 -1      1689 6.62385E-01 2.35076E+00 0.00000E+00
 -1      1690 7.22144E-01 2.53562E+00 0.00000E+00
 -1      1691 6.31498E-01 2.70745E+00 0.00000E+00
 -1      1692 6.85934E-01 2.90990E+00 0.00000E+00
 -1      1693 5.97506E-01 3.09998E+00 0.00000E+00
 -1      1694 6.46083E-01 3.32181E+00 0.00000E+00
 -1      1695 5.60097E-01 3.53199E+00 0.00000E+00
 -1      1696 6.02224E-01 3.77516E+00 0.00000E+00
 -1      1697 5.18923E-01 4.00746E+00 0.00000E+00
 -1      1698 5.53951E-01 4.27413E+00 0.00000E+00
 -1      1699 4.73605E-01 4.53080E+00 0.00000E+00
 -1      1700 5.00816E-01 4.82335E+00 0.00000E+00
 -1      1701 4.23721E-01 5.10686E+00 0.00000E+00
 -1      1702 4.42327E-01 5.42792E+00 0.00000E+00
 -1      1703 3.68808E-01 5.74100E+00 0.00000E+00
 -1      1704 3.77938E-01 6.09347E+00 0.00000E+00
 -1      1705 3.08354E-01 6.43912E+00 0.00000E+00
 -1      1706 3.07051E-01 6.82620E+00 0.00000E+00
 -1      1707 2.41796E-01 7.20773E+00 0.00000E+00
 -1      1708 2.29001E-01 7.63295E+00 0.00000E+00
 -1      1709 1.68510E-01 8.05404E+00 0.00000E+00
 -1      1710 1.43041E-01 8.52147E+00 0.00000E+00
 -1      1711 8.77803E-02 8.98631E+00 0.00000E+00
 -1      1712 4.89921E-02 9.49360E+00 0.00000E+00
 -1      1713 1.07310E+00 5.77443E-02 0.00000E+00
 -1      1714 1.17572E+00 1.32296E-01 0.00000E+00
 -1      1715 1.05962E+00 1.82624E-01 0.00000E+00
 -1      1716 1.16017E+00 2.62799E-01 0.00000E+00
 -1      1717 1.04483E+00 3.19671E-01 0.00000E+00
 -1      1718 1.14306E+00 4.06429E-01 0.00000E+00
 -1      1719 1.02858E+00 4.70228E-01 0.00000E+00
 -1      1720 1.12425E+00 5.64341E-01 0.00000E+00
 -1      1721 1.01070E+00 6.35873E-01 0.00000E+00
 -1      1722 1.10355E+00 7.38080E-01 0.00000E+00
 -1      1723 9.91033E-01 8.18122E-01 0.00000E+00
 -1      1724 1.08077E+00 9.29236E-01 0.00000E+00
 -1      1725 9.69390E-01 1.01864E+00 0.00000E+00
 -1      1726 1.05571E+00 1.13956E+00 0.00000E+00
 -1      1727 9.45577E-01 1.23927E+00 0.00000E+00
 -1      1728 1.02814E+00 1.37098E+00 0.00000E+00
 -1      1729 9.19375E-01 1.48204E+00 0.00000E+00
 -1      1730 9.97797E-01 1.62562E+00 0.00000E+00
 -1      1731 8.90543E-01 1.74916E+00 0.00000E+00
 -1      1732 9.64412E-01 1.90581E+00 0.00000E+00
 -1      1733 8.58817E-01 2.04310E+00 0.00000E+00
 -1      1734 9.27675E-01 2.21414E+00 0.00000E+00
 -1      1735 8.23905E-01 2.36655E+00 0.00000E+00
 -1      1736 8.87248E-01 2.55344E+00 0.00000E+00
 -1      1737 7.85487E-01 2.72250E+00 0.00000E+00
 -1      1738 8.42759E-01 2.92683E+00 0.00000E+00
 -1      1739 7.43206E-01 3.11423E+00 0.00000E+00
 -1      1740 7.93798E-01 3.33776E+00 0.00000E+00
 -1      1741 6.96674E-01 3.54534E+00 0.00000E+00
 -1      1742 7.39911E-01 3.79002E+00 0.00000E+00
 -1      1743 6.45461E-01 4.01983E+00 0.00000E+00
 -1      1744 6.80601E-01 4.28780E+00 0.00000E+00
 -1      1745 5.89092E-01 4.54209E+00 0.00000E+00
 -1      1746 6.15319E-01 4.83571E+00 0.00000E+00
 -1      1747 5.27043E-01 5.11697E+00 0.00000E+00
 -1      1748 5.43457E-01 5.43884E+00 0.00000E+00
 -1      1749 4.58740E-01 5.74979E+00 0.00000E+00
 -1      1750 4.64347E-01 6.10279E+00 0.00000E+00
 -1      1751 3.83545E-01 6.44647E+00 0.00000E+00
 -1      1752 3.77252E-01 6.83377E+00 0.00000E+00
 -1      1753 3.00757E-01 7.21350E+00 0.00000E+00
 -1      1754 2.81357E-01 7.63860E+00 0.00000E+00
 -1      1755 2.09601E-01 8.05806E+00 0.00000E+00
 -1      1756 1.75745E-01 8.52500E+00 0.00000E+00
 -1      1757 1.09185E-01 8.98840E+00 0.00000E+00
 -1      1758 6.01932E-02 9.49481E+00 0.00000E+00
 -1      1759 1.30397E+00 8.53810E-02 0.00000E+00
 -1      1760 1.41572E+00 1.63860E-01 0.00000E+00
 -1      1761 1.28757E+00 2.10040E-01 0.00000E+00
 -1      1762 1.39700E+00 2.93945E-01 0.00000E+00
 -1      1763 1.26960E+00 3.46704E-01 0.00000E+00
 -1      1764 1.37639E+00 4.37116E-01 0.00000E+00
 -1      1765 1.24985E+00 4.96841E-01 0.00000E+00
 -1      1766 1.35373E+00 5.94523E-01 0.00000E+00
 -1      1767 1.22813E+00 6.62023E-01 0.00000E+00
 -1      1768 1.32881E+00 7.67706E-01 0.00000E+00
 -1      1769 1.20423E+00 8.43763E-01 0.00000E+00
 -1      1770 1.30138E+00 9.58251E-01 0.00000E+00
 -1      1771 1.17793E+00 1.04372E+00 0.00000E+00
 -1      1772 1.27121E+00 1.16790E+00 0.00000E+00
 -1      1773 1.14899E+00 1.26374E+00 0.00000E+00
 -1      1774 1.23800E+00 1.39858E+00 0.00000E+00
 -1      1775 1.11715E+00 1.50582E+00 0.00000E+00
 -1      1776 1.20147E+00 1.65241E+00 0.00000E+00
 -1      1777 1.08212E+00 1.77220E+00 0.00000E+00
 -1      1778 1.16127E+00 1.93171E+00 0.00000E+00
 -1      1779 1.04357E+00 2.06532E+00 0.00000E+00
 -1      1780 1.11704E+00 2.23905E+00 0.00000E+00
 -1      1781 1.00114E+00 2.38787E+00 0.00000E+00
 -1      1782 1.06836E+00 2.57726E+00 0.00000E+00
 -1      1783 9.54461E-01 2.74283E+00 0.00000E+00
 -1      1784 1.01479E+00 2.94945E+00 0.00000E+00
 -1      1785 9.03086E-01 3.13346E+00 0.00000E+00
 -1      1786 9.55832E-01 3.35907E+00 0.00000E+00
 -1      1787 8.46544E-01 3.56337E+00 0.00000E+00
 -1      1788 8.90945E-01 3.80988E+00 0.00000E+00
 -1      1789 7.84313E-01 4.03653E+00 0.00000E+00
 -1      1790 8.19529E-01 4.30607E+00 0.00000E+00
 -1      1791 7.15817E-01 4.55733E+00 0.00000E+00
 -1      1792 7.40920E-01 4.85223E+00 0.00000E+00
 -1      1793 6.40422E-01 5.13060E+00 0.00000E+00
 -1      1794 6.54390E-01 5.45343E+00 0.00000E+00
 -1      1795 5.57425E-01 5.76166E+00 0.00000E+00
 -1      1796 5.59132E-01 6.11526E+00 0.00000E+00
 -1      1797 4.66054E-01 6.45639E+00 0.00000E+00
 -1      1798 4.54258E-01 6.84390E+00 0.00000E+00
 -1      1799 3.65456E-01 7.22128E+00 0.00000E+00
 -1      1800 3.38789E-01 7.64616E+00 0.00000E+00
 -1      1801 2.54690E-01 8.06348E+00 0.00000E+00
 -1      1802 2.11619E-01 8.52971E+00 0.00000E+00
 -1      1803 1.32673E-01 8.99123E+00 0.00000E+00
 -1      1804 7.24801E-02 9.49642E+00 0.00000E+00
 -1      1805 1.55710E+00 1.21972E-01 0.00000E+00
 -1      1806 1.67874E+00 2.05320E-01 0.00000E+00
 -1      1807 1.53750E+00 2.46322E-01 0.00000E+00
 -1      1808 1.65654E+00 3.34857E-01 0.00000E+00
 -1      1809 1.51603E+00 3.82480E-01 0.00000E+00
 -1      1810 1.63210E+00 4.77424E-01 0.00000E+00
 -1      1811 1.49246E+00 5.32060E-01 0.00000E+00
 -1      1812 1.60524E+00 6.34168E-01 0.00000E+00
 -1      1813 1.46651E+00 6.96630E-01 0.00000E+00
 -1      1814 1.57568E+00 8.06621E-01 0.00000E+00
 -1      1815 1.43797E+00 8.77696E-01 0.00000E+00
 -1      1816 1.54316E+00 9.96362E-01 0.00000E+00
 -1      1817 1.40657E+00 1.07692E+00 0.00000E+00
 -1      1818 1.50738E+00 1.20513E+00 0.00000E+00
 -1      1819 1.37202E+00 1.29612E+00 0.00000E+00
 -1      1820 1.46801E+00 1.43484E+00 0.00000E+00
 -1      1821 1.33400E+00 1.53730E+00 0.00000E+00
 -1      1822 1.42469E+00 1.68759E+00 0.00000E+00
 -1      1823 1.29216E+00 1.80269E+00 0.00000E+00
 -1      1824 1.37702E+00 1.96571E+00 0.00000E+00
 -1      1825 1.24613E+00 2.09472E+00 0.00000E+00
 -1      1826 1.32456E+00 2.27176E+00 0.00000E+00
 -1      1827 1.19547E+00 2.41608E+00 0.00000E+00
 -1      1828 1.26684E+00 2.60854E+00 0.00000E+00
 -1      1829 1.13973E+00 2.76972E+00 0.00000E+00
 -1      1830 1.20332E+00 2.97917E+00 0.00000E+00
 -1      1831 1.07838E+00 3.15890E+00 0.00000E+00
 -1      1832 1.13341E+00 3.38706E+00 0.00000E+00
 -1      1833 1.01086E+00 3.58722E+00 0.00000E+00
 -1      1834 1.05647E+00 3.83597E+00 0.00000E+00
 -1      1835 9.36552E-01 4.05863E+00 0.00000E+00
 -1      1836 9.71785E-01 4.33007E+00 0.00000E+00
 -1      1837 8.54761E-01 4.57751E+00 0.00000E+00
 -1      1838 8.78572E-01 4.87393E+00 0.00000E+00
 -1      1839 7.64731E-01 5.14865E+00 0.00000E+00
 -1      1840 7.75965E-01 5.47259E+00 0.00000E+00
 -1      1841 6.65624E-01 5.77737E+00 0.00000E+00
 -1      1842 6.63010E-01 6.13164E+00 0.00000E+00
 -1      1843 5.56517E-01 6.46953E+00 0.00000E+00
 -1      1844 5.38652E-01 6.85720E+00 0.00000E+00
 -1      1845 4.36393E-01 7.23158E+00 0.00000E+00
 -1      1846 4.01731E-01 7.65608E+00 0.00000E+00
 -1      1847 3.04127E-01 8.07066E+00 0.00000E+00
 -1      1848 2.50934E-01 8.53591E+00 0.00000E+00
 -1      1849 1.58426E-01 8.99497E+00 0.00000E+00
 -1      1850 8.59458E-02 9.49854E+00 0.00000E+00
 -1      1851 1.83436E+00 1.69683E-01 0.00000E+00
 -1      1852 1.96666E+00 2.59047E-01 0.00000E+00
 -1      1853 1.81123E+00 2.93617E-01 0.00000E+00
 -1      1854 1.94065E+00 3.87873E-01 0.00000E+00
 -1      1855 1.78595E+00 4.29114E-01 0.00000E+00
 -1      1856 1.91202E+00 5.29658E-01 0.00000E+00
 -1      1857 1.75817E+00 5.77969E-01 0.00000E+00
 -1      1858 1.88055E+00 6.85542E-01 0.00000E+00
 -1      1859 1.72761E+00 7.41741E-01 0.00000E+00
 -1      1860 1.84592E+00 8.57049E-01 0.00000E+00
 -1      1861 1.69399E+00 9.21929E-01 0.00000E+00
 -1      1862 1.80783E+00 1.04575E+00 0.00000E+00
 -1      1863 1.65699E+00 1.12018E+00 0.00000E+00
 -1      1864 1.76591E+00 1.25337E+00 0.00000E+00
 -1      1865 1.61629E+00 1.33832E+00 0.00000E+00
 -1      1866 1.71979E+00 1.48182E+00 0.00000E+00
 -1      1867 1.57150E+00 1.57834E+00 0.00000E+00
 -1      1868 1.66903E+00 1.73319E+00 0.00000E+00
 -1      1869 1.52222E+00 1.84244E+00 0.00000E+00
 -1      1870 1.61319E+00 2.00978E+00 0.00000E+00
 -1      1871 1.46799E+00 2.13306E+00 0.00000E+00
 -1      1872 1.55174E+00 2.31415E+00 0.00000E+00
 -1      1873 1.40832E+00 2.45285E+00 0.00000E+00
 -1      1874 1.48412E+00 2.64909E+00 0.00000E+00
 -1      1875 1.34264E+00 2.80478E+00 0.00000E+00
 -1      1876 1.40970E+00 3.01768E+00 0.00000E+00
 -1      1877 1.27037E+00 3.19208E+00 0.00000E+00
 -1      1878 1.32780E+00 3.42333E+00 0.00000E+00
 -1      1879 1.19084E+00 3.61832E+00 0.00000E+00
 -1      1880 1.23766E+00 3.86979E+00 0.00000E+00
 -1      1881 1.10330E+00 4.08744E+00 0.00000E+00
 -1      1882 1.13846E+00 4.36117E+00 0.00000E+00
 -1      1883 1.00694E+00 4.60380E+00 0.00000E+00
 -1      1884 1.02926E+00 4.90204E+00 0.00000E+00
 -1      1885 9.00884E-01 5.17217E+00 0.00000E+00
 -1      1886 9.09051E-01 5.49743E+00 0.00000E+00
 -1      1887 7.84132E-01 5.79784E+00 0.00000E+00
 -1      1888 7.76723E-01 6.15285E+00 0.00000E+00
 -1      1889 6.55600E-01 6.48664E+00 0.00000E+00
 -1      1890 6.31037E-01 6.87444E+00 0.00000E+00
 -1      1891 5.14089E-01 7.24500E+00 0.00000E+00
 -1      1892 4.70632E-01 7.66894E+00 0.00000E+00
 -1      1893 3.58274E-01 8.08001E+00 0.00000E+00
 -1      1894 2.93972E-01 8.54394E+00 0.00000E+00
 -1      1895 1.86632E-01 8.99984E+00 0.00000E+00
 -1      1896 1.00686E-01 9.50130E+00 0.00000E+00
 -1      1897 2.13766E+00 2.31152E-01 0.00000E+00
 -1      1898 2.28139E+00 3.27918E-01 0.00000E+00
 -1      1899 2.11066E+00 3.54530E-01 0.00000E+00
 -1      1900 2.25122E+00 4.55833E-01 0.00000E+00
 -1      1901 2.08120E+00 4.89177E-01 0.00000E+00
 -1      1902 2.21801E+00 5.96616E-01 0.00000E+00
 -1      1903 2.04883E+00 6.37097E-01 0.00000E+00
 -1      1904 2.18150E+00 7.51397E-01 0.00000E+00
 -1      1905 2.01322E+00 7.99842E-01 0.00000E+00
 -1      1906 2.14133E+00 9.21692E-01 0.00000E+00
 -1      1907 1.97404E+00 9.78899E-01 0.00000E+00
 -1      1908 2.09714E+00 1.10906E+00 0.00000E+00
 -1      1909 1.93093E+00 1.17591E+00 0.00000E+00
 -1      1910 2.04851E+00 1.31521E+00 0.00000E+00
 -1      1911 1.88349E+00 1.39268E+00 0.00000E+00
 -1      1912 1.99501E+00 1.54205E+00 0.00000E+00
 -1      1913 1.83130E+00 1.63119E+00 0.00000E+00
 -1      1914 1.93614E+00 1.79164E+00 0.00000E+00
 -1      1915 1.77387E+00 1.89364E+00 0.00000E+00
 -1      1916 1.87136E+00 2.06628E+00 0.00000E+00
 -1      1917 1.71068E+00 2.18243E+00 0.00000E+00
 -1      1918 1.80007E+00 2.36849E+00 0.00000E+00
 -1      1919 1.64114E+00 2.50022E+00 0.00000E+00
 -1      1920 1.72163E+00 2.70106E+00 0.00000E+00
 -1      1921 1.56461E+00 2.84993E+00 0.00000E+00
 -1      1922 1.63530E+00 3.06705E+00 0.00000E+00
 -1      1923 1.48039E+00 3.23480E+00 0.00000E+00
 -1      1924 1.54029E+00 3.46983E+00 0.00000E+00
 -1      1925 1.38770E+00 3.65837E+00 0.00000E+00
 -1      1926 1.43573E+00 3.91313E+00 0.00000E+00
 -1      1927 1.28569E+00 4.12455E+00 0.00000E+00
 -1      1928 1.32065E+00 4.40104E+00 0.00000E+00
 -1      1929 1.17341E+00 4.63766E+00 0.00000E+00
 -1      1930 1.19397E+00 4.93809E+00 0.00000E+00
 -1      1931 1.04982E+00 5.20247E+00 0.00000E+00
 -1      1932 1.05453E+00 5.52926E+00 0.00000E+00
 -1      1933 9.13763E-01 5.82422E+00 0.00000E+00
 -1      1934 9.01024E-01 6.18005E+00 0.00000E+00
 -1      1935 7.63983E-01 6.50869E+00 0.00000E+00
 -1      1936 7.32024E-01 6.89654E+00 0.00000E+00
 -1      1937 5.99077E-01 7.26229E+00 0.00000E+00
 -1      1938 5.45949E-01 7.68542E+00 0.00000E+00
 -1      1939 4.17503E-01 8.09206E+00 0.00000E+00
 -1      1940 3.41017E-01 8.55424E+00 0.00000E+00
 -1      1941 2.17486E-01 9.00612E+00 0.00000E+00
 -1      1942 1.16800E-01 9.50482E+00 0.00000E+00
 -1      1943 2.46892E+00 3.09570E-01 0.00000E+00
 -1      1944 2.62481E+00 4.15414E-01 0.00000E+00
 -1      1945 2.43767E+00 4.32222E-01 0.00000E+00
 -1      1946 2.59010E+00 5.42172E-01 0.00000E+00
 -1      1947 2.40364E+00 5.65784E-01 0.00000E+00
 -1      1948 2.55189E+00 6.81682E-01 0.00000E+00
 -1      1949 2.36626E+00 7.12513E-01 0.00000E+00
 -1      1950 2.50989E+00 8.35063E-01 0.00000E+00
 -1      1951 2.32513E+00 8.73947E-01 0.00000E+00
 -1      1952 2.46367E+00 1.00382E+00 0.00000E+00
 -1      1953 2.27988E+00 1.05156E+00 0.00000E+00
 -1      1954 2.41282E+00 1.18949E+00 0.00000E+00
 -1      1955 2.23009E+00 1.24698E+00 0.00000E+00
 -1      1956 2.35688E+00 1.39378E+00 0.00000E+00
 -1      1957 2.17530E+00 1.46201E+00 0.00000E+00
 -1      1958 2.29532E+00 1.61856E+00 0.00000E+00
 -1      1959 2.11502E+00 1.69860E+00 0.00000E+00
 -1      1960 2.22759E+00 1.86589E+00 0.00000E+00
 -1      1961 2.04870E+00 1.95893E+00 0.00000E+00
 -1      1962 2.15305E+00 2.13805E+00 0.00000E+00
 -1      1963 1.97571E+00 2.24539E+00 0.00000E+00
 -1      1964 2.07104E+00 2.43753E+00 0.00000E+00
 -1      1965 1.89540E+00 2.56063E+00 0.00000E+00
 -1      1966 1.98079E+00 2.76709E+00 0.00000E+00
 -1      1967 1.80701E+00 2.90753E+00 0.00000E+00
 -1      1968 1.88146E+00 3.12977E+00 0.00000E+00
 -1      1969 1.70975E+00 3.28929E+00 0.00000E+00
 -1      1970 1.77216E+00 3.52891E+00 0.00000E+00
 -1      1971 1.60270E+00 3.70945E+00 0.00000E+00
 -1      1972 1.65185E+00 3.96819E+00 0.00000E+00
 -1      1973 1.48488E+00 4.17187E+00 0.00000E+00
 -1      1974 1.51945E+00 4.45169E+00 0.00000E+00
 -1      1975 1.35521E+00 4.68086E+00 0.00000E+00
 -1      1976 1.37370E+00 4.98388E+00 0.00000E+00
 -1      1977 1.21247E+00 5.24111E+00 0.00000E+00
 -1      1978 1.21327E+00 5.56970E+00 0.00000E+00
 -1      1979 1.05533E+00 5.85785E+00 0.00000E+00
 -1      1980 1.03666E+00 6.21461E+00 0.00000E+00
 -1      1981 8.82347E-01 6.53681E+00 0.00000E+00
 -1      1982 8.42216E-01 6.92462E+00 0.00000E+00
 -1      1983 6.91893E-01 7.28434E+00 0.00000E+00
 -1      1984 6.28131E-01 7.70636E+00 0.00000E+00
 -1      1985 4.82187E-01 8.10743E+00 0.00000E+00
 -1      1986 3.92351E-01 8.56732E+00 0.00000E+00
 -1      1987 2.51181E-01 9.01412E+00 0.00000E+00
 -1      1988 1.34382E-01 9.50930E+00 0.00000E+00
 -1      1989 2.82998E+00 4.08796E-01 0.00000E+00
 -1      1990 2.99870E+00 5.25734E-01 0.00000E+00
 -1      1991 2.79407E+00 5.30508E-01 0.00000E+00
 -1      1992 2.95904E+00 6.51034E-01 0.00000E+00
 -1      1993 2.75507E+00 6.62698E-01 0.00000E+00
 -1      1994 2.91539E+00 7.88937E-01 0.00000E+00
 -1      1995 2.71222E+00 8.07920E-01 0.00000E+00
 -1      1996 2.86741E+00 9.40553E-01 0.00000E+00
 -1      1997 2.66507E+00 9.67695E-01 0.00000E+00
 -1      1998 2.81461E+00 1.10736E+00 0.00000E+00
 -1      1999 2.61320E+00 1.14349E+00 0.00000E+00
 -1      2000 2.75652E+00 1.29090E+00 0.00000E+00
 -1      2001 2.55614E+00 1.33690E+00 0.00000E+00
 -1      2002 2.69260E+00 1.49284E+00 0.00000E+00
 -1      2003 2.49334E+00 1.54971E+00 0.00000E+00
 -1      2004 2.62228E+00 1.71503E+00 0.00000E+00
 -1      2005 2.42425E+00 1.78387E+00 0.00000E+00
 -1      2006 2.54489E+00 1.95952E+00 0.00000E+00
 -1      2007 2.34823E+00 2.04153E+00 0.00000E+00
 -1      2008 2.45974E+00 2.22854E+00 0.00000E+00
 -1      2009 2.26457E+00 2.32505E+00 0.00000E+00
 -1      2010 2.36605E+00 2.52457E+00 0.00000E+00
 -1      2011 2.17251E+00 2.63705E+00 0.00000E+00
 -1      2012 2.26294E+00 2.85034E+00 0.00000E+00
 -1      2013 2.07121E+00 2.98038E+00 0.00000E+00
 -1      2014 2.14947E+00 3.20884E+00 0.00000E+00
 -1      2015 1.95972E+00 3.35823E+00 0.00000E+00
 -1      2016 2.02459E+00 3.60339E+00 0.00000E+00
 -1      2017 1.83703E+00 3.77407E+00 0.00000E+00
 -1      2018 1.88715E+00 4.03762E+00 0.00000E+00
 -1      2019 1.70198E+00 4.23174E+00 0.00000E+00
 -1      2020 1.73588E+00 4.51555E+00 0.00000E+00
 -1      2021 1.55335E+00 4.73550E+00 0.00000E+00
 -1      2022 1.56938E+00 5.04162E+00 0.00000E+00
 -1      2023 1.38973E+00 5.29000E+00 0.00000E+00
 -1      2024 1.38609E+00 5.62070E+00 0.00000E+00
 -1      2025 1.20963E+00 5.90040E+00 0.00000E+00
 -1      2026 1.18432E+00 6.25818E+00 0.00000E+00
 -1      2027 1.01135E+00 6.57239E+00 0.00000E+00
 -1      2028 9.62186E-01 6.96001E+00 0.00000E+00
 -1      2029 7.93051E-01 7.31224E+00 0.00000E+00
 -1      2030 7.17605E-01 7.73276E+00 0.00000E+00
 -1      2031 5.52685E-01 8.12687E+00 0.00000E+00
 -1      2032 4.48239E-01 8.58381E+00 0.00000E+00
 -1      2033 2.87905E-01 9.02425E+00 0.00000E+00
 -1      2034 1.53524E-01 9.51495E+00 0.00000E+00
 -1      2035 3.22255E+00 5.33471E-01 0.00000E+00
 -1      2036 3.40463E+00 6.63919E-01 0.00000E+00
 -1      2037 3.18153E+00 6.53979E-01 0.00000E+00
 -1      2038 3.35960E+00 7.87390E-01 0.00000E+00
 -1      2039 3.13711E+00 7.84446E-01 0.00000E+00
 -1      2040 3.31004E+00 9.23282E-01 0.00000E+00
 -1      2041 3.08832E+00 9.27774E-01 0.00000E+00
 -1      2042 3.25556E+00 1.07269E+00 0.00000E+00
 -1      2043 3.03464E+00 1.08547E+00 0.00000E+00
 -1      2044 3.19562E+00 1.23707E+00 0.00000E+00
 -1      2045 2.97558E+00 1.25896E+00 0.00000E+00
 -1      2046 3.12966E+00 1.41792E+00 0.00000E+00
 -1      2047 2.91060E+00 1.44986E+00 0.00000E+00
 -1      2048 3.05709E+00 1.61692E+00 0.00000E+00
 -1      2049 2.83910E+00 1.65990E+00 0.00000E+00
 -1      2050 2.97725E+00 1.83587E+00 0.00000E+00
 -1      2051 2.76043E+00 1.89100E+00 0.00000E+00
 -1      2052 2.88939E+00 2.07679E+00 0.00000E+00
 -1      2053 2.67386E+00 2.14530E+00 0.00000E+00
 -1      2054 2.79272E+00 2.34189E+00 0.00000E+00
 -1      2055 2.57860E+00 2.42513E+00 0.00000E+00
 -1      2056 2.68633E+00 2.63360E+00 0.00000E+00
 -1      2057 2.47378E+00 2.73305E+00 0.00000E+00
 -1      2058 2.56927E+00 2.95462E+00 0.00000E+00
 -1      2059 2.35843E+00 3.07191E+00 0.00000E+00
 -1      2060 2.44044E+00 3.30790E+00 0.00000E+00
 -1      2061 2.23148E+00 3.44483E+00 0.00000E+00
 -1      2062 2.29866E+00 3.69668E+00 0.00000E+00
 -1      2063 2.09177E+00 3.85525E+00 0.00000E+00
 -1      2064 2.14261E+00 4.12458E+00 0.00000E+00
 -1      2065 1.93800E+00 4.30695E+00 0.00000E+00
 -1      2066 1.97087E+00 4.59554E+00 0.00000E+00
 -1      2067 1.76875E+00 4.80414E+00 0.00000E+00
 -1      2068 1.78182E+00 5.11393E+00 0.00000E+00
 -1      2069 1.58245E+00 5.35141E+00 0.00000E+00
 -1      2070 1.57373E+00 5.68457E+00 0.00000E+00
 -1      2071 1.37737E+00 5.95386E+00 0.00000E+00
 -1      2072 1.34464E+00 6.31276E+00 0.00000E+00
 -1      2073 1.15160E+00 6.61708E+00 0.00000E+00
 -1      2074 1.09244E+00 7.00435E+00 0.00000E+00
 -1      2075 9.03024E-01 7.34728E+00 0.00000E+00
 -1      2076 8.14746E-01 7.76582E+00 0.00000E+00
 -1      2077 6.29327E-01 8.15130E+00 0.00000E+00
 -1      2078 5.08917E-01 8.60446E+00 0.00000E+00
 -1      2079 3.27829E-01 9.03697E+00 0.00000E+00
 -1      2080 1.74306E-01 9.52202E+00 0.00000E+00
 -1      2081 3.64803E+00 6.89154E-01 0.00000E+00
 -1      2082 3.84380E+00 8.35988E-01 0.00000E+00
 -1      2083 3.60142E+00 8.08129E-01 0.00000E+00
 -1      2084 3.79296E+00 9.57184E-01 0.00000E+00
 -1      2085 3.55114E+00 9.36445E-01 0.00000E+00
 -1      2086 3.73701E+00 1.09057E+00 0.00000E+00
 -1      2087 3.49591E+00 1.07741E+00 0.00000E+00
 -1      2088 3.67550E+00 1.23722E+00 0.00000E+00
 -1      2089 3.43515E+00 1.23250E+00 0.00000E+00
 -1      2090 3.60783E+00 1.39857E+00 0.00000E+00
 -1      2091 3.36829E+00 1.40314E+00 0.00000E+00
 -1      2092 3.53336E+00 1.57610E+00 0.00000E+00
 -1      2093 3.29473E+00 1.59088E+00 0.00000E+00
 -1      2094 3.45144E+00 1.77142E+00 0.00000E+00
 -1      2095 3.21380E+00 1.79746E+00 0.00000E+00
 -1      2096 3.36129E+00 1.98634E+00 0.00000E+00
 -1      2097 3.12474E+00 2.02475E+00 0.00000E+00
 -1      2098 3.26210E+00 2.22282E+00 0.00000E+00
 -1      2099 3.02675E+00 2.27485E+00 0.00000E+00
 -1      2100 3.15295E+00 2.48303E+00 0.00000E+00
 -1      2101 2.91892E+00 2.55006E+00 0.00000E+00
 -1      2102 3.03285E+00 2.76937E+00 0.00000E+00
 -1      2103 2.80026E+00 2.85291E+00 0.00000E+00
 -1      2104 2.90068E+00 3.08447E+00 0.00000E+00
 -1      2105 2.66969E+00 3.18618E+00 0.00000E+00
 -1      2106 2.75524E+00 3.43123E+00 0.00000E+00
 -1      2107 2.52599E+00 3.55295E+00 0.00000E+00
 -1      2108 2.59516E+00 3.81286E+00 0.00000E+00
 -1      2109 2.36784E+00 3.95660E+00 0.00000E+00
 -1      2110 2.41899E+00 4.23287E+00 0.00000E+00
 -1      2111 2.19377E+00 4.40085E+00 0.00000E+00
 -1      2112 2.22509E+00 4.69515E+00 0.00000E+00
 -1      2113 2.00219E+00 4.88984E+00 0.00000E+00
 -1      2114 2.01166E+00 5.20399E+00 0.00000E+00
 -1      2115 1.79130E+00 5.42808E+00 0.00000E+00
 -1      2116 1.77672E+00 5.76411E+00 0.00000E+00
 -1      2117 1.55915E+00 6.02059E+00 0.00000E+00
 -1      2118 1.51809E+00 6.38071E+00 0.00000E+00
 -1      2119 1.30358E+00 6.67288E+00 0.00000E+00
 -1      2120 1.23335E+00 7.05956E+00 0.00000E+00
 -1      2121 1.02220E+00 7.39104E+00 0.00000E+00
 -1      2122 9.19842E-01 7.80700E+00 0.00000E+00
 -1      2123 7.12384E-01 8.18179E+00 0.00000E+00
 -1      2124 5.74563E-01 8.63018E+00 0.00000E+00
 -1      2125 3.71095E-01 9.05286E+00 0.00000E+00
 -1      2126 1.96790E-01 9.53083E+00 0.00000E+00
 -1      2127 4.10738E+00 8.82468E-01 0.00000E+00
 -1      2128 4.31685E+00 1.04909E+00 0.00000E+00
 -1      2129 4.05466E+00 9.99505E-01 0.00000E+00
 -1      2130 4.25976E+00 1.16747E+00 0.00000E+00
 -1      2131 3.99806E+00 1.12515E+00 0.00000E+00
 -1      2132 4.19692E+00 1.29776E+00 0.00000E+00
 -1      2133 3.93588E+00 1.26318E+00 0.00000E+00
 -1      2134 4.12784E+00 1.44100E+00 0.00000E+00
 -1      2135 3.86746E+00 1.41504E+00 0.00000E+00
 -1      2136 4.05183E+00 1.59859E+00 0.00000E+00
 -1      2137 3.79219E+00 1.58212E+00 0.00000E+00
 -1      2138 3.96821E+00 1.77199E+00 0.00000E+00
 -1      2139 3.70938E+00 1.76596E+00 0.00000E+00
 -1      2140 3.87620E+00 1.96277E+00 0.00000E+00
 -1      2141 3.61825E+00 1.96823E+00 0.00000E+00
 -1      2142 3.77496E+00 2.17269E+00 0.00000E+00
 -1      2143 3.51799E+00 2.19080E+00 0.00000E+00
 -1      2144 3.66356E+00 2.40367E+00 0.00000E+00
 -1      2145 3.40767E+00 2.43569E+00 0.00000E+00
 -1      2146 3.54098E+00 2.65784E+00 0.00000E+00
 -1      2147 3.28627E+00 2.70517E+00 0.00000E+00
 -1      2148 3.40610E+00 2.93752E+00 0.00000E+00
 -1      2149 3.15268E+00 3.00171E+00 0.00000E+00
 -1      2150 3.25766E+00 3.24529E+00 0.00000E+00
 -1      2151 3.00567E+00 3.32805E+00 0.00000E+00
 -1      2152 3.09432E+00 3.58399E+00 0.00000E+00
 -1      2153 2.84388E+00 3.68718E+00 0.00000E+00
 -1      2154 2.91455E+00 3.95674E+00 0.00000E+00
 -1      2155 2.66583E+00 4.08242E+00 0.00000E+00
 -1      2156 2.71669E+00 4.36698E+00 0.00000E+00
 -1      2157 2.46986E+00 4.51743E+00 0.00000E+00
 -1      2158 2.49893E+00 4.81851E+00 0.00000E+00
 -1      2159 2.25416E+00 4.99623E+00 0.00000E+00
 -1      2160 2.25923E+00 5.31552E+00 0.00000E+00
 -1      2161 2.01673E+00 5.52327E+00 0.00000E+00
 -1      2162 1.99538E+00 5.86261E+00 0.00000E+00
 -1      2163 1.75537E+00 6.10344E+00 0.00000E+00
 -1      2164 1.70492E+00 6.46488E+00 0.00000E+00
 -1      2165 1.46764E+00 6.74215E+00 0.00000E+00
 -1      2166 1.38514E+00 7.12794E+00 0.00000E+00
 -1      2167 1.15085E+00 7.44536E+00 0.00000E+00
 -1      2168 1.03304E+00 7.85800E+00 0.00000E+00
 -1      2169 8.02038E-01 8.21964E+00 0.00000E+00
 -1      2170 6.45273E-01 8.66204E+00 0.00000E+00
 -1      2171 4.17798E-01 9.07258E+00 0.00000E+00
 -1      2172 2.21008E-01 9.54174E+00 0.00000E+00
 -1      2173 4.60084E+00 1.12125E+00 0.00000E+00
 -1      2174 4.82356E+00 1.31166E+00 0.00000E+00
 -1      2175 4.54146E+00 1.23585E+00 0.00000E+00
 -1      2176 4.75977E+00 1.42657E+00 0.00000E+00
 -1      2177 4.47806E+00 1.35819E+00 0.00000E+00
 -1      2178 4.68956E+00 1.55303E+00 0.00000E+00
 -1      2179 4.40842E+00 1.49260E+00 0.00000E+00
 -1      2180 4.61237E+00 1.69207E+00 0.00000E+00
 -1      2181 4.33179E+00 1.64047E+00 0.00000E+00
 -1      2182 4.52744E+00 1.84505E+00 0.00000E+00
 -1      2183 4.24748E+00 1.80317E+00 0.00000E+00
 -1      2184 4.43400E+00 2.01336E+00 0.00000E+00
 -1      2185 4.15472E+00 1.98218E+00 0.00000E+00
 -1      2186 4.33119E+00 2.19854E+00 0.00000E+00
 -1      2187 4.05266E+00 2.17914E+00 0.00000E+00
 -1      2188 4.21806E+00 2.40230E+00 0.00000E+00
 -1      2189 3.94036E+00 2.39586E+00 0.00000E+00
 -1      2190 4.09359E+00 2.62651E+00 0.00000E+00
 -1      2191 3.81679E+00 2.63432E+00 0.00000E+00
 -1      2192 3.95662E+00 2.87321E+00 0.00000E+00
 -1      2193 3.68082E+00 2.89673E+00 0.00000E+00
 -1      2194 3.80591E+00 3.14469E+00 0.00000E+00
 -1      2195 3.53119E+00 3.18548E+00 0.00000E+00
 -1      2196 3.64005E+00 3.44344E+00 0.00000E+00
 -1      2197 3.36653E+00 3.50324E+00 0.00000E+00
 -1      2198 3.45753E+00 3.77220E+00 0.00000E+00
 -1      2199 3.18532E+00 3.85294E+00 0.00000E+00
 -1      2200 3.25666E+00 4.13401E+00 0.00000E+00
 -1      2201 2.98589E+00 4.23781E+00 0.00000E+00
 -1      2202 3.03558E+00 4.53222E+00 0.00000E+00
 -1      2203 2.76639E+00 4.66140E+00 0.00000E+00
 -1      2204 2.79225E+00 4.97051E+00 0.00000E+00
 -1      2205 2.52480E+00 5.12763E+00 0.00000E+00
 -1      2206 2.52442E+00 5.45293E+00 0.00000E+00
 -1      2207 2.25886E+00 5.64083E+00 0.00000E+00
 -1      2208 2.22960E+00 5.98398E+00 0.00000E+00
 -1      2209 1.96612E+00 6.20576E+00 0.00000E+00
 -1      2210 1.90504E+00 6.56858E+00 0.00000E+00
 -1      2211 1.64384E+00 6.82770E+00 0.00000E+00
 -1      2212 1.54772E+00 7.21219E+00 0.00000E+00
 -1      2213 1.28902E+00 7.51244E+00 0.00000E+00
 -1      2214 1.15430E+00 7.92083E+00 0.00000E+00
 -1      2215 8.98330E-01 8.26639E+00 0.00000E+00
 -1      2216 7.21016E-01 8.70129E+00 0.00000E+00
 -1      2217 4.67959E-01 9.09693E+00 0.00000E+00
 -1      2218 2.46950E-01 9.55519E+00 0.00000E+00
 -1      2219 5.12762E+00 1.41469E+00 0.00000E+00
 -1      2220 5.36251E+00 1.63355E+00 0.00000E+00
 -1      2221 5.06100E+00 1.52624E+00 0.00000E+00
 -1      2222 5.29159E+00 1.74420E+00 0.00000E+00
 -1      2223 4.99035E+00 1.64453E+00 0.00000E+00
 -1      2224 5.21353E+00 1.86598E+00 0.00000E+00
 -1      2225 4.91274E+00 1.77448E+00 0.00000E+00
 -1      2226 5.12772E+00 1.99987E+00 0.00000E+00
 -1      2227 4.82735E+00 1.91746E+00 0.00000E+00
 -1      2228 5.03330E+00 2.14717E+00 0.00000E+00
 -1      2229 4.73339E+00 2.07476E+00 0.00000E+00
 -1      2230 4.92942E+00 2.30925E+00 0.00000E+00
 -1      2231 4.63002E+00 2.24784E+00 0.00000E+00
 -1      2232 4.81512E+00 2.48757E+00 0.00000E+00
 -1      2233 4.51628E+00 2.43828E+00 0.00000E+00
 -1      2234 4.68936E+00 2.68379E+00 0.00000E+00
 -1      2235 4.39114E+00 2.64781E+00 0.00000E+00
 -1      2236 4.55098E+00 2.89968E+00 0.00000E+00
 -1      2237 4.25343E+00 2.87838E+00 0.00000E+00
 -1      2238 4.39871E+00 3.13725E+00 0.00000E+00
 -1      2239 4.10190E+00 3.13209E+00 0.00000E+00
 -1      2240 4.23115E+00 3.39867E+00 0.00000E+00
 -1      2241 3.93515E+00 3.41127E+00 0.00000E+00
 -1      2242 4.04676E+00 3.68635E+00 0.00000E+00
 -1      2243 3.75166E+00 3.71851E+00 0.00000E+00
 -1      2244 3.84385E+00 4.00293E+00 0.00000E+00
 -1      2245 3.54972E+00 4.05662E+00 0.00000E+00
 -1      2246 3.62053E+00 4.35134E+00 0.00000E+00
 -1      2247 3.32747E+00 4.42873E+00 0.00000E+00
 -1      2248 3.37475E+00 4.73480E+00 0.00000E+00
 -1      2249 3.08286E+00 4.83829E+00 0.00000E+00
 -1      2250 3.10424E+00 5.15684E+00 0.00000E+00
 -1      2251 2.81363E+00 5.28907E+00 0.00000E+00
 -1      2252 2.80648E+00 5.62140E+00 0.00000E+00
 -1      2253 2.51728E+00 5.78526E+00 0.00000E+00
 -1      2254 2.47872E+00 6.13277E+00 0.00000E+00
 -1      2255 2.19104E+00 6.33148E+00 0.00000E+00
 -1      2256 2.11790E+00 6.69571E+00 0.00000E+00
 -1      2257 1.83190E+00 6.93281E+00 0.00000E+00
 -1      2258 1.72066E+00 7.31548E+00 0.00000E+00
 -1      2259 1.43648E+00 7.59486E+00 0.00000E+00
 -1      2260 1.28328E+00 7.99786E+00 0.00000E+00
 -1      2261 1.00110E+00 8.32384E+00 0.00000E+00
 -1      2262 8.01576E-01 8.74940E+00 0.00000E+00
 -1      2263 5.21493E-01 9.12685E+00 0.00000E+00
 -1      2264 2.74543E-01 9.57167E+00 0.00000E+00
 -1      2265 5.68547E+00 1.77350E+00 0.00000E+00
 -1      2266 5.93055E+00 2.02614E+00 0.00000E+00
 -1      2267 5.61102E+00 1.88123E+00 0.00000E+00
 -1      2268 5.85212E+00 2.13160E+00 0.00000E+00
 -1      2269 5.53269E+00 1.99457E+00 0.00000E+00
 -1      2270 5.76580E+00 2.24766E+00 0.00000E+00
 -1      2271 5.44664E+00 2.11907E+00 0.00000E+00
 -1      2272 5.67089E+00 2.37526E+00 0.00000E+00
 -1      2273 5.35197E+00 2.25606E+00 0.00000E+00
 -1      2274 5.56647E+00 2.51566E+00 0.00000E+00
 -1      2275 5.24781E+00 2.40677E+00 0.00000E+00
 -1      2276 5.45159E+00 2.67013E+00 0.00000E+00
 -1      2277 5.13320E+00 2.57260E+00 0.00000E+00
 -1      2278 5.32518E+00 2.84009E+00 0.00000E+00
 -1      2279 5.00710E+00 2.75506E+00 0.00000E+00
 -1      2280 5.18610E+00 3.02709E+00 0.00000E+00
 -1      2281 4.86835E+00 2.95582E+00 0.00000E+00
 -1      2282 5.03306E+00 3.23286E+00 0.00000E+00
 -1      2283 4.71568E+00 3.17672E+00 0.00000E+00
 -1      2284 4.86466E+00 3.45928E+00 0.00000E+00
 -1      2285 4.54768E+00 3.41981E+00 0.00000E+00
 -1      2286 4.67935E+00 3.70843E+00 0.00000E+00
 -1      2287 4.36282E+00 3.68730E+00 0.00000E+00
 -1      2288 4.47543E+00 3.98261E+00 0.00000E+00
 -1      2289 4.15938E+00 3.98166E+00 0.00000E+00
 -1      2290 4.25102E+00 4.28434E+00 0.00000E+00
 -1      2291 3.93549E+00 4.30561E+00 0.00000E+00
 -1      2292 4.00405E+00 4.61640E+00 0.00000E+00
 -1      2293 3.68909E+00 4.66213E+00 0.00000E+00
 -1      2294 3.73224E+00 4.98186E+00 0.00000E+00
 -1      2295 3.41790E+00 5.05452E+00 0.00000E+00
 -1      2296 3.43307E+00 5.38410E+00 0.00000E+00
 -1      2297 3.11941E+00 5.48642E+00 0.00000E+00
 -1      2298 3.10377E+00 5.82686E+00 0.00000E+00
 -1      2299 2.79085E+00 5.96183E+00 0.00000E+00
 -1      2300 2.74129E+00 6.31423E+00 0.00000E+00
 -1      2301 2.42916E+00 6.48517E+00 0.00000E+00
 -1      2302 2.34225E+00 6.85076E+00 0.00000E+00
 -1      2303 2.03098E+00 7.06130E+00 0.00000E+00
 -1      2304 1.90292E+00 7.44145E+00 0.00000E+00
 -1      2305 1.59260E+00 7.69562E+00 0.00000E+00
 -1      2306 1.41921E+00 8.09181E+00 0.00000E+00
 -1      2307 1.10990E+00 8.39405E+00 0.00000E+00
 -1      2308 8.86487E-01 8.80808E+00 0.00000E+00
 -1      2309 5.78167E-01 9.16343E+00 0.00000E+00
 -1      2310 3.03625E-01 9.59176E+00 0.00000E+00
 -1      2311 6.27013E+00 2.20991E+00 0.00000E+00
 -1      2312 6.52223E+00 2.50237E+00 0.00000E+00
 -1      2313 6.18723E+00 2.31291E+00 0.00000E+00
 -1      2314 6.43597E+00 2.60153E+00 0.00000E+00
 -1      2315 6.10086E+00 2.42022E+00 0.00000E+00
 -1      2316 6.34104E+00 2.71066E+00 0.00000E+00
 -1      2317 6.00597E+00 2.53810E+00 0.00000E+00
 -1      2318 6.23666E+00 2.83065E+00 0.00000E+00
 -1      2319 5.90158E+00 2.66781E+00 0.00000E+00
 -1      2320 6.12183E+00 2.96266E+00 0.00000E+00
 -1      2321 5.78672E+00 2.81051E+00 0.00000E+00
 -1      2322 5.99548E+00 3.10790E+00 0.00000E+00
 -1      2323 5.66035E+00 2.96752E+00 0.00000E+00
 -1      2324 5.85646E+00 3.26771E+00 0.00000E+00
 -1      2325 5.52130E+00 3.14027E+00 0.00000E+00
 -1      2326 5.70350E+00 3.44354E+00 0.00000E+00
 -1      2327 5.36830E+00 3.33036E+00 0.00000E+00
 -1      2328 5.53519E+00 3.63702E+00 0.00000E+00
 -1      2329 5.19995E+00 3.53952E+00 0.00000E+00
 -1      2330 5.34999E+00 3.84992E+00 0.00000E+00
 -1      2331 5.01470E+00 3.76968E+00 0.00000E+00
 -1      2332 5.14620E+00 4.08419E+00 0.00000E+00
 -1      2333 4.81085E+00 4.02294E+00 0.00000E+00
 -1      2334 4.92193E+00 4.34199E+00 0.00000E+00
 -1      2335 4.58652E+00 4.30166E+00 0.00000E+00
 -1      2336 4.67514E+00 4.62570E+00 0.00000E+00
 -1      2337 4.33964E+00 4.60838E+00 0.00000E+00
 -1      2338 4.40353E+00 4.93793E+00 0.00000E+00
 -1      2339 4.06794E+00 4.94595E+00 0.00000E+00
 -1      2340 4.10459E+00 5.28156E+00 0.00000E+00
 -1      2341 3.76890E+00 5.31748E+00 0.00000E+00
 -1      2342 3.77558E+00 5.65978E+00 0.00000E+00
 -1      2343 3.43975E+00 5.72641E+00 0.00000E+00
 -1      2344 3.41343E+00 6.07610E+00 0.00000E+00
 -1      2345 3.07745E+00 6.17654E+00 0.00000E+00
 -1      2346 3.01478E+00 6.53436E+00 0.00000E+00
 -1      2347 2.67862E+00 6.67205E+00 0.00000E+00
 -1      2348 2.57593E+00 7.03885E+00 0.00000E+00
 -1      2349 2.23955E+00 7.21755E+00 0.00000E+00
 -1      2350 2.09277E+00 7.59425E+00 0.00000E+00
 -1      2351 1.75614E+00 7.81814E+00 0.00000E+00
 -1      2352 1.56081E+00 8.20578E+00 0.00000E+00
 -1      2353 1.22387E+00 8.47944E+00 0.00000E+00
 -1      2354 9.74929E-01 8.87927E+00 0.00000E+00
 -1      2355 6.37541E-01 9.20791E+00 0.00000E+00
 -1      2356 3.33917E-01 9.61615E+00 0.00000E+00
 -1      2357 6.87459E+00 2.73777E+00 0.00000E+00
 -1      2358 7.12894E+00 3.07670E+00 0.00000E+00
 -1      2359 6.78266E+00 2.83488E+00 0.00000E+00
 -1      2360 7.03466E+00 3.16826E+00 0.00000E+00
 -1      2361 6.68797E+00 2.93491E+00 0.00000E+00
 -1      2362 6.93089E+00 3.26903E+00 0.00000E+00
 -1      2363 6.58396E+00 3.04479E+00 0.00000E+00
 -1      2364 6.81681E+00 3.37983E+00 0.00000E+00
 -1      2365 6.46952E+00 3.16568E+00 0.00000E+00
 -1      2366 6.69129E+00 3.50172E+00 0.00000E+00
 -1      2367 6.34360E+00 3.29870E+00 0.00000E+00
 -1      2368 6.55319E+00 3.63584E+00 0.00000E+00
 -1      2369 6.20507E+00 3.44504E+00 0.00000E+00
 -1      2370 6.40124E+00 3.78341E+00 0.00000E+00
 -1      2371 6.05264E+00 3.60607E+00 0.00000E+00
 -1      2372 6.23405E+00 3.94578E+00 0.00000E+00
 -1      2373 5.88492E+00 3.78325E+00 0.00000E+00
 -1      2374 6.05009E+00 4.12443E+00 0.00000E+00
 -1      2375 5.70037E+00 3.97821E+00 0.00000E+00
 -1      2376 5.84766E+00 4.32102E+00 0.00000E+00
 -1      2377 5.49729E+00 4.19273E+00 0.00000E+00
 -1      2378 5.62491E+00 4.53735E+00 0.00000E+00
 -1      2379 5.27382E+00 4.42880E+00 0.00000E+00
 -1      2380 5.37978E+00 4.77540E+00 0.00000E+00
 -1      2381 5.02790E+00 4.68859E+00 0.00000E+00
 -1      2382 5.11003E+00 5.03738E+00 0.00000E+00
 -1      2383 4.75726E+00 4.97449E+00 0.00000E+00
 -1      2384 4.81315E+00 5.32569E+00 0.00000E+00
 -1      2385 4.45941E+00 5.28913E+00 0.00000E+00
 -1      2386 4.48641E+00 5.64300E+00 0.00000E+00
 -1      2387 4.13160E+00 5.63543E+00 0.00000E+00
 -1      2388 4.12679E+00 5.99225E+00 0.00000E+00
 -1      2389 3.77077E+00 6.01660E+00 0.00000E+00
 -1      2390 3.73095E+00 6.37667E+00 0.00000E+00
 -1      2391 3.37361E+00 6.43617E+00 0.00000E+00
 -1      2392 3.29522E+00 6.79983E+00 0.00000E+00
 -1      2393 2.93640E+00 6.89803E+00 0.00000E+00
 -1      2394 2.81554E+00 7.26567E+00 0.00000E+00
 -1      2395 2.45507E+00 7.40649E+00 0.00000E+00
 -1      2396 2.28745E+00 7.77854E+00 0.00000E+00
 -1      2397 1.92515E+00 7.96630E+00 0.00000E+00
 -1      2398 1.70599E+00 8.34322E+00 0.00000E+00
 -1      2399 1.34165E+00 8.58269E+00 0.00000E+00
 -1      2400 1.06562E+00 8.96512E+00 0.00000E+00
 -1      2401 6.98895E-01 9.26170E+00 0.00000E+00
 -1      2402 3.64978E-01 9.64555E+00 0.00000E+00
 -1      2403 7.48822E+00 3.37229E+00 0.00000E+00
 -1      2404 7.73798E+00 3.76481E+00 0.00000E+00
 -1      2405 7.38671E+00 3.46213E+00 0.00000E+00
 -1      2406 7.63564E+00 3.84727E+00 0.00000E+00
 -1      2407 7.28359E+00 3.55340E+00 0.00000E+00
 -1      2408 7.52301E+00 3.93803E+00 0.00000E+00
 -1      2409 7.17031E+00 3.65366E+00 0.00000E+00
 -1      2410 7.39918E+00 4.03781E+00 0.00000E+00
 -1      2411 7.04568E+00 3.76397E+00 0.00000E+00
 -1      2412 7.26294E+00 4.14759E+00 0.00000E+00
 -1      2413 6.90855E+00 3.88534E+00 0.00000E+00
 -1      2414 7.11304E+00 4.26838E+00 0.00000E+00
 -1      2415 6.75768E+00 4.01888E+00 0.00000E+00
 -1      2416 6.94811E+00 4.40128E+00 0.00000E+00
 -1      2417 6.59167E+00 4.16581E+00 0.00000E+00
 -1      2418 6.76664E+00 4.54751E+00 0.00000E+00
 -1      2419 6.40902E+00 4.32748E+00 0.00000E+00
 -1      2420 6.56696E+00 4.70841E+00 0.00000E+00
 -1      2421 6.20803E+00 4.50537E+00 0.00000E+00
 -1      2422 6.34723E+00 4.88546E+00 0.00000E+00
 -1      2423 5.98687E+00 4.70111E+00 0.00000E+00
 -1      2424 6.10545E+00 5.08028E+00 0.00000E+00
 -1      2425 5.74349E+00 4.91652E+00 0.00000E+00
 -1      2426 5.83939E+00 5.29468E+00 0.00000E+00
 -1      2427 5.47567E+00 5.15356E+00 0.00000E+00
 -1      2428 5.54658E+00 5.53061E+00 0.00000E+00
 -1      2429 5.18094E+00 5.41443E+00 0.00000E+00
 -1      2430 5.22435E+00 5.79027E+00 0.00000E+00
 -1      2431 4.85656E+00 5.70153E+00 0.00000E+00
 -1      2432 4.86969E+00 6.07605E+00 0.00000E+00
 -1      2433 4.49955E+00 6.01752E+00 0.00000E+00
 -1      2434 4.47935E+00 6.39058E+00 0.00000E+00
 -1      2435 4.10659E+00 6.36532E+00 0.00000E+00
 -1      2436 4.04969E+00 6.73679E+00 0.00000E+00
 -1      2437 3.67405E+00 6.74815E+00 0.00000E+00
 -1      2438 3.57674E+00 7.11790E+00 0.00000E+00
 -1      2439 3.19791E+00 7.16958E+00 0.00000E+00
 -1      2440 3.05608E+00 7.53744E+00 0.00000E+00
 -1      2441 2.67372E+00 7.63353E+00 0.00000E+00
 -1      2442 2.48287E+00 7.99933E+00 0.00000E+00
 -1      2443 2.09660E+00 8.14433E+00 0.00000E+00
 -1      2444 1.85174E+00 8.50788E+00 0.00000E+00
 -1      2445 1.46114E+00 8.70677E+00 0.00000E+00
 -1      2446 1.15666E+00 9.06798E+00 0.00000E+00
 -1      2447 7.61137E-01 9.32633E+00 0.00000E+00
 -1      2448 3.96159E-01 9.68078E+00 0.00000E+00
 -1      2449 8.09565E+00 4.12970E+00 0.00000E+00
 -1      2450 8.33131E+00 4.58307E+00 0.00000E+00
 -1      2451 7.98411E+00 4.21058E+00 0.00000E+00
 -1      2452 8.22113E+00 4.65471E+00 0.00000E+00
 -1      2453 7.87266E+00 4.29140E+00 0.00000E+00
 -1      2454 8.09986E+00 4.73355E+00 0.00000E+00
 -1      2455 7.75021E+00 4.38018E+00 0.00000E+00
 -1      2456 7.96654E+00 4.82024E+00 0.00000E+00
 -1      2457 7.61550E+00 4.47787E+00 0.00000E+00
 -1      2458 7.81985E+00 4.91562E+00 0.00000E+00
 -1      2459 7.46729E+00 4.58534E+00 0.00000E+00
 -1      2460 7.65845E+00 5.02055E+00 0.00000E+00
 -1      2461 7.30421E+00 4.70359E+00 0.00000E+00
 -1      2462 7.48088E+00 5.13601E+00 0.00000E+00
 -1      2463 7.12478E+00 4.83370E+00 0.00000E+00
 -1      2464 7.28549E+00 5.26305E+00 0.00000E+00
 -1      2465 6.92735E+00 4.97686E+00 0.00000E+00
 -1      2466 7.07050E+00 5.40284E+00 0.00000E+00
 -1      2467 6.71011E+00 5.13438E+00 0.00000E+00
 -1      2468 6.83393E+00 5.55665E+00 0.00000E+00
 -1      2469 6.47106E+00 5.30772E+00 0.00000E+00
 -1      2470 6.57361E+00 5.72591E+00 0.00000E+00
 -1      2471 6.20800E+00 5.49847E+00 0.00000E+00
 -1      2472 6.28714E+00 5.91217E+00 0.00000E+00
 -1      2473 5.91852E+00 5.70838E+00 0.00000E+00
 -1      2474 5.97189E+00 6.11714E+00 0.00000E+00
 -1      2475 5.59995E+00 5.93938E+00 0.00000E+00
 -1      2476 5.62494E+00 6.34272E+00 0.00000E+00
 -1      2477 5.24934E+00 6.19361E+00 0.00000E+00
 -1      2478 5.24309E+00 6.59100E+00 0.00000E+00
 -1      2479 4.86345E+00 6.47343E+00 0.00000E+00
 -1      2480 4.82282E+00 6.86425E+00 0.00000E+00
 -1      2481 4.43872E+00 6.78141E+00 0.00000E+00
 -1      2482 4.36022E+00 7.16503E+00 0.00000E+00
 -1      2483 3.97119E+00 7.12042E+00 0.00000E+00
 -1      2484 3.85099E+00 7.49612E+00 0.00000E+00
 -1      2485 3.45654E+00 7.49360E+00 0.00000E+00
 -1      2486 3.29041E+00 7.86061E+00 0.00000E+00
 -1      2487 2.88996E+00 7.90444E+00 0.00000E+00
 -1      2488 2.67325E+00 8.26188E+00 0.00000E+00
 -1      2489 2.26616E+00 8.35677E+00 0.00000E+00
 -1      2490 1.99373E+00 8.70370E+00 0.00000E+00
 -1      2491 1.57931E+00 8.85482E+00 0.00000E+00
 -1      2492 1.24535E+00 9.19029E+00 0.00000E+00
 -1      2493 8.22695E-01 9.40345E+00 0.00000E+00
 -1      2494 4.26536E-01 9.72267E+00 0.00000E+00
 -1      2495 8.67549E+00 5.02648E+00 0.00000E+00
 -1      2496 8.88422E+00 5.54753E+00 0.00000E+00
 -1      2497 8.55363E+00 5.09634E+00 0.00000E+00
 -1      2498 8.76673E+00 5.60642E+00 0.00000E+00
 -1      2499 8.43423E+00 5.16479E+00 0.00000E+00
 -1      2500 8.63741E+00 5.67122E+00 0.00000E+00
 -1      2501 8.30305E+00 5.23999E+00 0.00000E+00
 -1      2502 8.49524E+00 5.74248E+00 0.00000E+00
 -1      2503 8.15873E+00 5.32273E+00 0.00000E+00
 -1      2504 8.33882E+00 5.82087E+00 0.00000E+00
 -1      2505 7.99994E+00 5.41376E+00 0.00000E+00
 -1      2506 8.16671E+00 5.90712E+00 0.00000E+00
 -1      2507 7.82523E+00 5.51392E+00 0.00000E+00
 -1      2508 7.97735E+00 6.00203E+00 0.00000E+00
 -1      2509 7.63300E+00 5.62412E+00 0.00000E+00
 -1      2510 7.76900E+00 6.10645E+00 0.00000E+00
 -1      2511 7.42149E+00 5.74538E+00 0.00000E+00
 -1      2512 7.53974E+00 6.22134E+00 0.00000E+00
 -1      2513 7.18875E+00 5.87880E+00 0.00000E+00
 -1      2514 7.28747E+00 6.34777E+00 0.00000E+00
 -1      2515 6.93265E+00 6.02562E+00 0.00000E+00
 -1      2516 7.00987E+00 6.48689E+00 0.00000E+00
 -1      2517 6.65083E+00 6.18718E+00 0.00000E+00
 -1      2518 6.70439E+00 6.63999E+00 0.00000E+00
 -1      2519 6.34070E+00 6.36497E+00 0.00000E+00
 -1      2520 6.36821E+00 6.80847E+00 0.00000E+00
 -1      2521 5.99940E+00 6.56064E+00 0.00000E+00
 -1      2522 5.99824E+00 6.99389E+00 0.00000E+00
 -1      2523 5.62378E+00 6.77597E+00 0.00000E+00
 -1      2524 5.59105E+00 7.19796E+00 0.00000E+00
 -1      2525 5.21037E+00 7.01298E+00 0.00000E+00
 -1      2526 5.14289E+00 7.42256E+00 0.00000E+00
 -1      2527 4.75534E+00 7.27384E+00 0.00000E+00
 -1      2528 4.64958E+00 7.66979E+00 0.00000E+00
 -1      2529 4.25446E+00 7.56098E+00 0.00000E+00
 -1      2530 4.10657E+00 7.94193E+00 0.00000E+00
 -1      2531 3.70310E+00 7.87707E+00 0.00000E+00
 -1      2532 3.50878E+00 8.24152E+00 0.00000E+00
 -1      2533 3.09610E+00 8.22505E+00 0.00000E+00
 -1      2534 2.85066E+00 8.57135E+00 0.00000E+00
 -1      2535 2.42781E+00 8.60818E+00 0.00000E+00
 -1      2536 2.12604E+00 8.93450E+00 0.00000E+00
 -1      2537 1.69196E+00 9.03002E+00 0.00000E+00
 -1      2538 1.32800E+00 9.33445E+00 0.00000E+00
 -1      2539 8.81379E-01 9.49472E+00 0.00000E+00
 -1      2540 4.54843E-01 9.77205E+00 0.00000E+00
 -1      2541 9.19881E+00 6.07803E+00 0.00000E+00
 -1      2542 9.36378E+00 6.67232E+00 0.00000E+00
 -1      2543 9.06662E+00 6.13439E+00 0.00000E+00
 -1      2544 9.23994E+00 6.71632E+00 0.00000E+00
 -1      2545 8.94005E+00 6.18835E+00 0.00000E+00
 -1      2546 9.10365E+00 6.76476E+00 0.00000E+00
 -1      2547 8.80101E+00 6.24763E+00 0.00000E+00
 -1      2548 8.95380E+00 6.81801E+00 0.00000E+00
 -1      2549 8.64803E+00 6.31286E+00 0.00000E+00
 -1      2550 8.78893E+00 6.87660E+00 0.00000E+00
 -1      2551 8.47972E+00 6.38462E+00 0.00000E+00
 -1      2552 8.60754E+00 6.94107E+00 0.00000E+00
 -1      2553 8.29453E+00 6.46357E+00 0.00000E+00
 -1      2554 8.40796E+00 7.01199E+00 0.00000E+00
 -1      2555 8.09077E+00 6.55045E+00 0.00000E+00
 -1      2556 8.18836E+00 7.09004E+00 0.00000E+00
 -1      2557 7.86658E+00 6.64604E+00 0.00000E+00
 -1      2558 7.94672E+00 7.17591E+00 0.00000E+00
 -1      2559 7.61988E+00 6.75122E+00 0.00000E+00
 -1      2560 7.68083E+00 7.27040E+00 0.00000E+00
 -1      2561 7.34842E+00 6.86695E+00 0.00000E+00
 -1      2562 7.38825E+00 7.37438E+00 0.00000E+00
 -1      2563 7.04970E+00 6.99432E+00 0.00000E+00
 -1      2564 7.06628E+00 7.48880E+00 0.00000E+00
 -1      2565 6.72097E+00 7.13447E+00 0.00000E+00
 -1      2566 6.71196E+00 7.61472E+00 0.00000E+00
 -1      2567 6.35920E+00 7.28871E+00 0.00000E+00
 -1      2568 6.32202E+00 7.75329E+00 0.00000E+00
 -1      2569 5.96106E+00 7.45847E+00 0.00000E+00
 -1      2570 5.89285E+00 7.90581E+00 0.00000E+00
 -1      2571 5.52285E+00 7.64530E+00 0.00000E+00
 -1      2572 5.42049E+00 8.07368E+00 0.00000E+00
 -1      2573 5.04053E+00 7.85094E+00 0.00000E+00
 -1      2574 4.90056E+00 8.25845E+00 0.00000E+00
 -1      2575 4.50962E+00 8.07730E+00 0.00000E+00
 -1      2576 4.32823E+00 8.46184E+00 0.00000E+00
 -1      2577 3.92518E+00 8.32647E+00 0.00000E+00
 -1      2578 3.69818E+00 8.68575E+00 0.00000E+00
 -1      2579 3.28178E+00 8.60079E+00 0.00000E+00
 -1      2580 3.00454E+00 8.93225E+00 0.00000E+00
 -1      2581 2.57341E+00 8.90281E+00 0.00000E+00
 -1      2582 2.24080E+00 9.20367E+00 0.00000E+00
 -1      2583 1.79344E+00 9.23536E+00 0.00000E+00
 -1      2584 1.39968E+00 9.50258E+00 0.00000E+00
 -1      2585 9.34238E-01 9.60168E+00 0.00000E+00
 -1      2586 4.79395E-01 9.82963E+00 0.00000E+00
 -1      2587 9.62766E+00 7.29665E+00 0.00000E+00
 -1      2588 9.72734E+00 7.96709E+00 0.00000E+00
 -1      2589 9.48553E+00 7.33656E+00 0.00000E+00
 -1      2590 9.59869E+00 7.99397E+00 0.00000E+00
 -1      2591 9.35311E+00 7.37374E+00 0.00000E+00
 -1      2592 9.45711E+00 8.02356E+00 0.00000E+00
 -1      2593 9.20764E+00 7.41459E+00 0.00000E+00
 -1      2594 9.30144E+00 8.05610E+00 0.00000E+00
 -1      2595 9.04760E+00 7.45952E+00 0.00000E+00
 -1      2596 9.13017E+00 8.09189E+00 0.00000E+00
 -1      2597 8.87151E+00 7.50897E+00 0.00000E+00
 -1      2598 8.94174E+00 8.13127E+00 0.00000E+00
 -1      2599 8.67777E+00 7.56337E+00 0.00000E+00
 -1      2600 8.73441E+00 8.17460E+00 0.00000E+00
 -1      2601 8.46459E+00 7.62323E+00 0.00000E+00
 -1      2602 8.50628E+00 8.22228E+00 0.00000E+00
 -1      2603 8.23004E+00 7.68909E+00 0.00000E+00
 -1      2604 8.25526E+00 8.27474E+00 0.00000E+00
 -1      2605 7.97194E+00 7.76156E+00 0.00000E+00
 -1      2606 7.97905E+00 8.33246E+00 0.00000E+00
 -1      2607 7.68794E+00 7.84130E+00 0.00000E+00
 -1      2608 7.67511E+00 8.39598E+00 0.00000E+00
 -1      2609 7.37542E+00 7.92906E+00 0.00000E+00
 -1      2610 7.34064E+00 8.46588E+00 0.00000E+00
 -1      2611 7.03150E+00 8.02562E+00 0.00000E+00
 -1      2612 6.97256E+00 8.54281E+00 0.00000E+00
 -1      2613 6.65302E+00 8.13190E+00 0.00000E+00
 -1      2614 6.56748E+00 8.62747E+00 0.00000E+00
 -1      2615 6.23648E+00 8.24886E+00 0.00000E+00
 -1      2616 6.12165E+00 8.72064E+00 0.00000E+00
 -1      2617 5.77802E+00 8.37759E+00 0.00000E+00
 -1      2618 5.63095E+00 8.82319E+00 0.00000E+00
 -1      2619 5.27342E+00 8.51928E+00 0.00000E+00
 -1      2620 5.09083E+00 8.93607E+00 0.00000E+00
 -1      2621 4.71798E+00 8.67524E+00 0.00000E+00
 -1      2622 4.49628E+00 9.06032E+00 0.00000E+00
 -1      2623 4.10654E+00 8.84692E+00 0.00000E+00
 -1      2624 3.84177E+00 9.19711E+00 0.00000E+00
 -1      2625 3.43341E+00 9.03593E+00 0.00000E+00
 -1      2626 3.12119E+00 9.34770E+00 0.00000E+00
 -1      2627 2.69231E+00 9.24403E+00 0.00000E+00
 -1      2628 2.32781E+00 9.51351E+00 0.00000E+00
 -1      2629 1.87630E+00 9.47315E+00 0.00000E+00
 -1      2630 1.45402E+00 9.69612E+00 0.00000E+00
 -1      2631 9.77403E-01 9.72556E+00 0.00000E+00
 -1      2632 4.98008E-01 9.89592E+00 0.00000E+00
 -1      2633 9.91362E+00 8.68843E+00 0.00000E+00
 -1      2634 9.92133E+00 9.43340E+00 0.00000E+00
 -1      2635 9.76255E+00 8.70842E+00 0.00000E+00
 -1      2636 9.79012E+00 9.44090E+00 0.00000E+00
 -1      2637 9.62627E+00 8.72645E+00 0.00000E+00
 -1      2638 9.64571E+00 9.44914E+00 0.00000E+00
 -1      2639 9.47655E+00 8.74626E+00 0.00000E+00
 -1      2640 9.48694E+00 9.45821E+00 0.00000E+00
 -1      2641 9.31183E+00 8.76805E+00 0.00000E+00
 -1      2642 9.31226E+00 9.46819E+00 0.00000E+00
 -1      2643 9.13060E+00 8.79203E+00 0.00000E+00
 -1      2644 9.12006E+00 9.47916E+00 0.00000E+00
 -1      2645 8.93120E+00 8.81841E+00 0.00000E+00
 -1      2646 8.90860E+00 9.49124E+00 0.00000E+00
 -1      2647 8.71180E+00 8.84743E+00 0.00000E+00
 -1      2648 8.67592E+00 9.50453E+00 0.00000E+00
 -1      2649 8.47039E+00 8.87937E+00 0.00000E+00
 -1      2650 8.41990E+00 9.51915E+00 0.00000E+00
 -1      2651 8.20476E+00 8.91451E+00 0.00000E+00
 -1      2652 8.13818E+00 9.53524E+00 0.00000E+00
 -1      2653 7.91247E+00 8.95318E+00 0.00000E+00
 -1      2654 7.82817E+00 9.55294E+00 0.00000E+00
 -1      2655 7.59082E+00 8.99574E+00 0.00000E+00
 -1      2656 7.48703E+00 9.57242E+00 0.00000E+00
 -1      2657 7.23686E+00 9.04257E+00 0.00000E+00
 -1      2658 7.11161E+00 9.59386E+00 0.00000E+00
 -1      2659 6.84732E+00 9.09410E+00 0.00000E+00
 -1      2660 6.69845E+00 9.61746E+00 0.00000E+00
 -1      2661 6.41861E+00 9.15082E+00 0.00000E+00
 -1      2662 6.24373E+00 9.64343E+00 0.00000E+00
 -1      2663 5.94677E+00 9.21325E+00 0.00000E+00
 -1      2664 5.74325E+00 9.67201E+00 0.00000E+00
 -1      2665 5.42743E+00 9.28195E+00 0.00000E+00
 -1      2666 5.19236E+00 9.70347E+00 0.00000E+00
 -1      2667 4.85576E+00 9.35758E+00 0.00000E+00
 -1      2668 4.58595E+00 9.73810E+00 0.00000E+00
 -1      2669 4.22647E+00 9.44084E+00 0.00000E+00
 -1      2670 3.91839E+00 9.77623E+00 0.00000E+00
 -1      2671 3.53369E+00 9.53250E+00 0.00000E+00
 -1      2672 3.18344E+00 9.81820E+00 0.00000E+00
 -1      2673 2.77094E+00 9.63341E+00 0.00000E+00
 -1      2674 2.37423E+00 9.86441E+00 0.00000E+00
 -1      2675 1.93110E+00 9.74452E+00 0.00000E+00
 -1      2676 1.48302E+00 9.91531E+00 0.00000E+00
 -1      2677 1.00595E+00 9.86691E+00 0.00000E+00
 -1      2678 5.07940E-01 9.97099E+00 0.00000E+00
 -1      2679 9.99593E+00 9.71480E+00 0.00000E+00
 -1      2680 9.93750E+00 1.00000E+01 0.00000E+00
 -1      2681 9.86697E+00 9.71848E+00 0.00000E+00
 -1      2682 9.80607E+00 1.00000E+01 0.00000E+00
 -1      2683 9.72923E+00 9.72241E+00 0.00000E+00
 -1      2684 9.66143E+00 1.00000E+01 0.00000E+00
 -1      2685 9.57791E+00 9.72673E+00 0.00000E+00
 -1      2686 9.50240E+00 1.00000E+01 0.00000E+00
 -1      2687 9.41143E+00 9.73148E+00 0.00000E+00
 -1      2688 9.32743E+00 1.00000E+01 0.00000E+00
 -1      2689 9.22826E+00 9.73671E+00 0.00000E+00
 -1      2690 9.13492E+00 1.00000E+01 0.00000E+00
 -1      2691 9.02673E+00 9.74246E+00 0.00000E+00
 -1      2692 8.92311E+00 1.00000E+01 0.00000E+00
 -1      2693 8.80498E+00 9.74878E+00 0.00000E+00
 -1      2694 8.69005E+00 1.00000E+01 0.00000E+00
 -1      2695 8.56099E+00 9.75574E+00 0.00000E+00
 -1      2696 8.43361E+00 1.00000E+01 0.00000E+00
 -1      2697 8.29252E+00 9.76340E+00 0.00000E+00
 -1      2698 8.15144E+00 1.00000E+01 0.00000E+00
 -1      2699 7.99710E+00 9.77183E+00 0.00000E+00
 -1      2700 7.84093E+00 1.00000E+01 0.00000E+00
 -1      2701 7.67201E+00 9.78111E+00 0.00000E+00
 -1      2702 7.49923E+00 1.00000E+01 0.00000E+00
 -1      2703 7.31426E+00 9.79132E+00 0.00000E+00
 -1      2704 7.12320E+00 1.00000E+01 0.00000E+00
 -1      2705 6.92056E+00 9.80255E+00 0.00000E+00
 -1      2706 6.70937E+00 1.00000E+01 0.00000E+00
 -1      2707 6.48726E+00 9.81491E+00 0.00000E+00
 -1      2708 6.25391E+00 1.00000E+01 0.00000E+00
 -1      2709 6.01038E+00 9.82852E+00 0.00000E+00
 -1      2710 5.75260E+00 1.00000E+01 0.00000E+00
 -1      2711 5.48548E+00 9.84349E+00 0.00000E+00
 -1      2712 5.20082E+00 1.00000E+01 0.00000E+00
 -1      2713 4.90770E+00 9.85998E+00 0.00000E+00
 -1      2714 4.59342E+00 1.00000E+01 0.00000E+00
 -1      2715 4.27168E+00 9.87812E+00 0.00000E+00
 -1      2716 3.92477E+00 1.00000E+01 0.00000E+00
 -1      2717 3.57148E+00 9.89810E+00 0.00000E+00
 -1      2718 3.18862E+00 1.00000E+01 0.00000E+00
 -1      2719 2.80058E+00 9.92010E+00 0.00000E+00
 -1      2720 2.37810E+00 1.00000E+01 0.00000E+00
 -1      2721 1.95175E+00 9.94431E+00 0.00000E+00
 -1      2722 1.48544E+00 1.00000E+01 0.00000E+00
 -1      2723 1.01671E+00 9.97099E+00 0.00000E+00
 -1      2724 5.08767E-01 1.00000E+01 0.00000E+00
 -1      2725 3.85789E+01 0.00000E+00 0.00000E+00
 -1      2726 3.71577E+01-1.25000E-01 0.00000E+00
 -1      2727 3.85789E+01-2.50000E-01 0.00000E+00
 -1      2728 4.00000E+01-1.25000E-01 0.00000E+00
 -1      2729 3.71577E+01-3.87851E-01 0.00000E+00
 -1      2730 3.85789E+01-5.25703E-01 0.00000E+00
 -1      2731 4.00000E+01-3.87851E-01 0.00000E+00
 -1      2732 3.71577E+01-6.77143E-01 0.00000E+00
 -1      2733 3.85789E+01-8.28584E-01 0.00000E+00
 -1      2734 4.00000E+01-6.77143E-01 0.00000E+00
 -1      2735 3.71577E+01-9.95201E-01 0.00000E+00
 -1      2736 3.85789E+01-1.16182E+00 0.00000E+00
 -1      2737 4.00000E+01-9.95201E-01 0.00000E+00
 -1      2738 3.71577E+01-1.34514E+00 0.00000E+00
 -1      2739 3.85789E+01-1.52845E+00 0.00000E+00
 -1      2740 4.00000E+01-1.34514E+00 0.00000E+00
 -1      2741 3.71577E+01-1.73015E+00 0.00000E+00
 -1      2742 3.85789E+01-1.93185E+00 0.00000E+00
 -1      2743 4.00000E+01-1.73015E+00 0.00000E+00
 -1      2744 3.71577E+01-2.15378E+00 0.00000E+00
 -1      2745 3.85789E+01-2.37570E+00 0.00000E+00
 -1      2746 4.00000E+01-2.15378E+00 0.00000E+00
 -1      2747 3.71577E+01-2.61989E+00 0.00000E+00
 -1      2748 3.85789E+01-2.86408E+00 0.00000E+00
 -1      2749 4.00000E+01-2.61989E+00 0.00000E+00
 -1      2750 3.71577E+01-3.13277E+00 0.00000E+00
 -1      2751 3.85789E+01-3.40146E+00 0.00000E+00
 -1      2752 4.00000E+01-3.13277E+00 0.00000E+00
 -1      2753 3.71577E+01-3.69712E+00 0.00000E+00
 -1      2754 3.85789E+01-3.99279E+00 0.00000E+00
 -1      2755 4.00000E+01-3.69712E+00 0.00000E+00
 -1      2756 3.71577E+01-4.31814E+00 0.00000E+00
 -1      2757 3.85789E+01-4.64350E+00 0.00000E+00
 -1      2758 4.00000E+01-4.31814E+00 0.00000E+00
 -1      2759 3.71577E+01-5.00153E+00 0.00000E+00
 -1      2760 3.85789E+01-5.35957E+00 0.00000E+00
 -1      2761 4.00000E+01-5.00153E+00 0.00000E+00
 -1      2762 3.71577E+01-5.75360E+00 0.00000E+00
 -1      2763 3.85789E+01-6.14762E+00 0.00000E+00
 -1      2764 4.00000E+01-5.75360E+00 0.00000E+00
 -1      2765 3.71577E+01-6.58127E+00 0.00000E+00
 -1      2766 3.85789E+01-7.01491E+00 0.00000E+00
 -1      2767 4.00000E+01-6.58127E+00 0.00000E+00
 -1      2768 3.71577E+01-7.49219E+00 0.00000E+00
 -1      2769 3.85789E+01-7.96946E+00 0.00000E+00
 -1      2770 4.00000E+01-7.49219E+00 0.00000E+00
 -1      2771 3.71577E+01-8.49479E+00 0.00000E+00
 -1      2772 3.85789E+01-9.02012E+00 0.00000E+00
 -1      2773 4.00000E+01-8.49479E+00 0.00000E+00
 -1      2774 3.71577E+01-9.59836E+00 0.00000E+00
 -1      2775 3.85789E+01-1.01766E+01 0.00000E+00
 -1      2776 4.00000E+01-9.59836E+00 0.00000E+00
 -1      2777 3.71577E+01-1.08132E+01 0.00000E+00
 -1      2778 3.85789E+01-1.14497E+01 0.00000E+00
 -1      2779 4.00000E+01-1.08132E+01 0.00000E+00
 -1      2780 3.71577E+01-1.21505E+01 0.00000E+00
 -1      2781 3.85789E+01-1.28512E+01 0.00000E+00
 -1      2782 4.00000E+01-1.21505E+01 0.00000E+00
 -1      2783 3.71577E+01-1.36228E+01 0.00000E+00
 -1      2784 3.85789E+01-1.43943E+01 0.00000E+00
 -1      2785 4.00000E+01-1.36228E+01 0.00000E+00
 -1      2786 3.71577E+01-1.52438E+01 0.00000E+00
 -1      2787 3.85789E+01-1.60933E+01 0.00000E+00
 -1      2788 4.00000E+01-1.52438E+01 0.00000E+00
 -1      2789 3.71577E+01-1.70291E+01 0.00000E+00
 -1      2790 3.85789E+01-1.79649E+01 0.00000E+00
 -1      2791 4.00000E+01-1.70291E+01 0.00000E+00
 -1      2792 3.71577E+01-1.89825E+01 0.00000E+00
 -1      2793 3.85789E+01-2.00000E+01 0.00000E+00
 -1      2794 4.00000E+01-1.89825E+01 0.00000E+00
 -1      2795 3.53551E+01 0.00000E+00 0.00000E+00
 -1      2796 3.35525E+01-1.25000E-01 0.00000E+00
 -1      2797 3.53551E+01-2.50000E-01 0.00000E+00
 -1      2798 3.35525E+01-3.87851E-01 0.00000E+00
 -1      2799 3.53551E+01-5.25703E-01 0.00000E+00
 -1      2800 3.35525E+01-6.77143E-01 0.00000E+00
 -1      2801 3.53551E+01-8.28584E-01 0.00000E+00
 -1      2802 3.35525E+01-9.95201E-01 0.00000E+00
 -1      2803 3.53551E+01-1.16182E+00 0.00000E+00
 -1      2804 3.35525E+01-1.34514E+00 0.00000E+00
 -1      2805 3.53551E+01-1.52845E+00 0.00000E+00
 -1      2806 3.35525E+01-1.73015E+00 0.00000E+00
 -1      2807 3.53551E+01-1.93185E+00 0.00000E+00
 -1      2808 3.35525E+01-2.15378E+00 0.00000E+00
 -1      2809 3.53551E+01-2.37570E+00 0.00000E+00
 -1      2810 3.35525E+01-2.61989E+00 0.00000E+00
 -1      2811 3.53551E+01-2.86408E+00 0.00000E+00
 -1      2812 3.35525E+01-3.13277E+00 0.00000E+00
 -1      2813 3.53551E+01-3.40146E+00 0.00000E+00
 -1      2814 3.35525E+01-3.69712E+00 0.00000E+00
 -1      2815 3.53551E+01-3.99279E+00 0.00000E+00
 -1      2816 3.35525E+01-4.31814E+00 0.00000E+00
 -1      2817 3.53551E+01-4.64350E+00 0.00000E+00
 -1      2818 3.35525E+01-5.00153E+00 0.00000E+00
 -1      2819 3.53551E+01-5.35957E+00 0.00000E+00
 -1      2820 3.35525E+01-5.75360E+00 0.00000E+00
 -1      2821 3.53551E+01-6.14762E+00 0.00000E+00
 -1      2822 3.35525E+01-6.58127E+00 0.00000E+00
 -1      2823 3.53551E+01-7.01491E+00 0.00000E+00
 -1      2824 3.35525E+01-7.49219E+00 0.00000E+00
 -1      2825 3.53551E+01-7.96946E+00 0.00000E+00
 -1      2826 3.35525E+01-8.49479E+00 0.00000E+00
 -1      2827 3.53551E+01-9.02012E+00 0.00000E+00
 -1      2828 3.35525E+01-9.59836E+00 0.00000E+00
 -1      2829 3.53551E+01-1.01766E+01 0.00000E+00
 -1      2830 3.35525E+01-1.08132E+01 0.00000E+00
 -1      2831 3.53551E+01-1.14497E+01 0.00000E+00
 -1      2832 3.35525E+01-1.21505E+01 0.00000E+00
 -1      2833 3.53551E+01-1.28512E+01 0.00000E+00
 -1      2834 3.35525E+01-1.36228E+01 0.00000E+00
 -1      2835 3.53551E+01-1.43943E+01 0.00000E+00
 -1      2836 3.35525E+01-1.52438E+01 0.00000E+00
 -1      2837 3.53551E+01-1.60933E+01 0.00000E+00
 -1      2838 3.35525E+01-1.70291E+01 0.00000E+00
 -1      2839 3.53551E+01-1.79649E+01 0.00000E+00
 -1      2840 3.35525E+01-1.89825E+01 0.00000E+00
 -1      2841 3.53551E+01-2.00000E+01 0.00000E+00
 -1      2842 3.19137E+01 0.00000E+00 0.00000E+00
 -1      2843 3.02750E+01-1.25000E-01 0.00000E+00
 -1      2844 3.19137E+01-2.50000E-01 0.00000E+00
 -1      2845 3.02750E+01-3.87851E-01 0.00000E+00
 -1      2846 3.19137E+01-5.25703E-01 0.00000E+00
 -1      2847 3.02750E+01-6.77143E-01 0.00000E+00
 -1      2848 3.19137E+01-8.28584E-01 0.00000E+00
 -1      2849 3.02750E+01-9.95201E-01 0.00000E+00
 -1      2850 3.19137E+01-1.16182E+00 0.00000E+00
 -1      2851 3.02750E+01-1.34514E+00 0.00000E+00
 -1      2852 3.19137E+01-1.52845E+00 0.00000E+00
 -1      2853 3.02750E+01-1.73015E+00 0.00000E+00
 -1      2854 3.19137E+01-1.93185E+00 0.00000E+00
 -1      2855 3.02750E+01-2.15378E+00 0.00000E+00
 -1      2856 3.19137E+01-2.37570E+00 0.00000E+00
 -1      2857 3.02750E+01-2.61989E+00 0.00000E+00
 -1      2858 3.19137E+01-2.86408E+00 0.00000E+00
 -1      2859 3.02750E+01-3.13277E+00 0.00000E+00
 -1      2860 3.19137E+01-3.40146E+00 0.00000E+00
 -1      2861 3.02750E+01-3.69712E+00 0.00000E+00
 -1      2862 3.19137E+01-3.99279E+00 0.00000E+00
 -1      2863 3.02750E+01-4.31814E+00 0.00000E+00
 -1      2864 3.19137E+01-4.64350E+00 0.00000E+00
 -1      2865 3.02750E+01-5.00153E+00 0.00000E+00
 -1      2866 3.19137E+01-5.35957E+00 0.00000E+00
 -1      2867 3.02750E+01-5.75360E+00 0.00000E+00
 -1      2868 3.19137E+01-6.14762E+00 0.00000E+00
 -1      2869 3.02750E+01-6.58127E+00 0.00000E+00
 -1      2870 3.19137E+01-7.01491E+00 0.00000E+00
 -1      2871 3.02750E+01-7.49219E+00 0.00000E+00
 -1      2872 3.19137E+01-7.96946E+00 0.00000E+00
 -1      2873 3.02750E+01-8.49479E+00 0.00000E+00
 -1      2874 3.19137E+01-9.02012E+00 0.00000E+00
 -1      2875 3.02750E+01-9.59836E+00 0.00000E+00
 -1      2876 3.19137E+01-1.01766E+01 0.00000E+00
 -1      2877 3.02750E+01-1.08132E+01 0.00000E+00
 -1      2878 3.19137E+01-1.14497E+01 0.00000E+00
 -1      2879 3.02750E+01-1.21505E+01 0.00000E+00
 -1      2880 3.19137E+01-1.28512E+01 0.00000E+00
 -1      2881 3.02750E+01-1.36228E+01 0.00000E+00
 -1      2882 3.19137E+01-1.43943E+01 0.00000E+00
 -1      2883 3.02750E+01-1.52438E+01 0.00000E+00
 -1      2884 3.19137E+01-1.60933E+01 0.00000E+00
 -1      2885 3.02750E+01-1.70291E+01 0.00000E+00
 -1      2886 3.19137E+01-1.79649E+01 0.00000E+00
 -1      2887 3.02750E+01-1.89825E+01 0.00000E+00
 -1      2888 3.19137E+01-2.00000E+01 0.00000E+00
 -1      2889 2.87852E+01 0.00000E+00 0.00000E+00
 -1      2890 2.72954E+01-1.25000E-01 0.00000E+00
 -1      2891 2.87852E+01-2.50000E-01 0.00000E+00
 -1      2892 2.72954E+01-3.87851E-01 0.00000E+00
 -1      2893 2.87852E+01-5.25703E-01 0.00000E+00
 -1      2894 2.72954E+01-6.77143E-01 0.00000E+00
 -1      2895 2.87852E+01-8.28584E-01 0.00000E+00
 -1      2896 2.72954E+01-9.95201E-01 0.00000E+00
 -1      2897 2.87852E+01-1.16182E+00 0.00000E+00
 -1      2898 2.72954E+01-1.34514E+00 0.00000E+00
 -1      2899 2.87852E+01-1.52845E+00 0.00000E+00
 -1      2900 2.72954E+01-1.73015E+00 0.00000E+00
 -1      2901 2.87852E+01-1.93185E+00 0.00000E+00
 -1      2902 2.72954E+01-2.15378E+00 0.00000E+00
 -1      2903 2.87852E+01-2.37570E+00 0.00000E+00
 -1      2904 2.72954E+01-2.61989E+00 0.00000E+00
 -1      2905 2.87852E+01-2.86408E+00 0.00000E+00
 -1      2906 2.72954E+01-3.13277E+00 0.00000E+00
 -1      2907 2.87852E+01-3.40146E+00 0.00000E+00
 -1      2908 2.72954E+01-3.69712E+00 0.00000E+00
 -1      2909 2.87852E+01-3.99279E+00 0.00000E+00
 -1      2910 2.72954E+01-4.31814E+00 0.00000E+00
 -1      2911 2.87852E+01-4.64350E+00 0.00000E+00
 -1      2912 2.72954E+01-5.00153E+00 0.00000E+00
 -1      2913 2.87852E+01-5.35957E+00 0.00000E+00
 -1      2914 2.72954E+01-5.75360E+00 0.00000E+00
 -1      2915 2.87852E+01-6.14762E+00 0.00000E+00
 -1      2916 2.72954E+01-6.58127E+00 0.00000E+00
 -1      2917 2.87852E+01-7.01491E+00 0.00000E+00
 -1      2918 2.72954E+01-7.49219E+00 0.00000E+00
 -1      2919 2.87852E+01-7.96946E+00 0.00000E+00
 -1      2920 2.72954E+01-8.49479E+00 0.00000E+00
 -1      2921 2.87852E+01-9.02012E+00 0.00000E+00
 -1      2922 2.72954E+01-9.59836E+00 0.00000E+00
 -1      2923 2.87852E+01-1.01766E+01 0.00000E+00
 -1      2924 2.72954E+01-1.08132E+01 0.00000E+00
 -1      2925 2.87852E+01-1.14497E+01 0.00000E+00
 -1      2926 2.72954E+01-1.21505E+01 0.00000E+00
 -1      2927 2.87852E+01-1.28512E+01 0.00000E+00
 -1      2928 2.72954E+01-1.36228E+01 0.00000E+00
 -1      2929 2.87852E+01-1.43943E+01 0.00000E+00
 -1      2930 2.72954E+01-1.52438E+01 0.00000E+00
 -1      2931 2.87852E+01-1.60933E+01 0.00000E+00
 -1      2932 2.72954E+01-1.70291E+01 0.00000E+00
 -1      2933 2.87852E+01-1.79649E+01 0.00000E+00
 -1      2934 2.72954E+01-1.89825E+01 0.00000E+00
 -1      2935 2.87852E+01-2.00000E+01 0.00000E+00
 -1      2936 2.59411E+01 0.00000E+00 0.00000E+00
 -1      2937 2.45868E+01-1.25000E-01 0.00000E+00
 -1      2938 2.59411E+01-2.50000E-01 0.00000E+00
 -1      2939 2.45868E+01-3.87851E-01 0.00000E+00
 -1      2940 2.59411E+01-5.25703E-01 0.00000E+00
 -1      2941 2.45868E+01-6.77143E-01 0.00000E+00
 -1      2942 2.59411E+01-8.28584E-01 0.00000E+00
 -1      2943 2.45868E+01-9.95201E-01 0.00000E+00
 -1      2944 2.59411E+01-1.16182E+00 0.00000E+00
 -1      2945 2.45868E+01-1.34514E+00 0.00000E+00
 -1      2946 2.59411E+01-1.52845E+00 0.00000E+00
 -1      2947 2.45868E+01-1.73015E+00 0.00000E+00
 -1      2948 2.59411E+01-1.93185E+00 0.00000E+00
 -1      2949 2.45868E+01-2.15378E+00 0.00000E+00
 -1      2950 2.59411E+01-2.37570E+00 0.00000E+00
 -1      2951 2.45868E+01-2.61989E+00 0.00000E+00
 -1      2952 2.59411E+01-2.86408E+00 0.00000E+00
 -1      2953 2.45868E+01-3.13277E+00 0.00000E+00
 -1      2954 2.59411E+01-3.40146E+00 0.00000E+00
 -1      2955 2.45868E+01-3.69712E+00 0.00000E+00
 -1      2956 2.59411E+01-3.99279E+00 0.00000E+00
 -1      2957 2.45868E+01-4.31814E+00 0.00000E+00
 -1      2958 2.59411E+01-4.64350E+00 0.00000E+00
 -1      2959 2.45868E+01-5.00153E+00 0.00000E+00
 -1      2960 2.59411E+01-5.35957E+00 0.00000E+00
 -1      2961 2.45868E+01-5.75360E+00 0.00000E+00
 -1      2962 2.59411E+01-6.14762E+00 0.00000E+00
 -1      2963 2.45868E+01-6.58127E+00 0.00000E+00
 -1      2964 2.59411E+01-7.01491E+00 0.00000E+00
 -1      2965 2.45868E+01-7.49219E+00 0.00000E+00
 -1      2966 2.59411E+01-7.96946E+00 0.00000E+00
 -1      2967 2.45868E+01-8.49479E+00 0.00000E+00
 -1      2968 2.59411E+01-9.02012E+00 0.00000E+00
 -1      2969 2.45868E+01-9.59836E+00 0.00000E+00
 -1      2970 2.59411E+01-1.01766E+01 0.00000E+00
 -1      2971 2.45868E+01-1.08132E+01 0.00000E+00
 -1      2972 2.59411E+01-1.14497E+01 0.00000E+00
 -1      2973 2.45868E+01-1.21505E+01 0.00000E+00
 -1      2974 2.59411E+01-1.28512E+01 0.00000E+00
 -1      2975 2.45868E+01-1.36228E+01 0.00000E+00
 -1      2976 2.59411E+01-1.43943E+01 0.00000E+00
 -1      2977 2.45868E+01-1.52438E+01 0.00000E+00
 -1      2978 2.59411E+01-1.60933E+01 0.00000E+00
 -1      2979 2.45868E+01-1.70291E+01 0.00000E+00
 -1      2980 2.59411E+01-1.79649E+01 0.00000E+00
 -1      2981 2.45868E+01-1.89825E+01 0.00000E+00
 -1      2982 2.59411E+01-2.00000E+01 0.00000E+00
 -1      2983 2.33555E+01 0.00000E+00 0.00000E+00
 -1      2984 2.21243E+01-1.25000E-01 0.00000E+00
 -1      2985 2.33555E+01-2.50000E-01 0.00000E+00
 -1      2986 2.21243E+01-3.87851E-01 0.00000E+00
 -1      2987 2.33555E+01-5.25703E-01 0.00000E+00
 -1      2988 2.21243E+01-6.77143E-01 0.00000E+00
 -1      2989 2.33555E+01-8.28584E-01 0.00000E+00
 -1      2990 2.21243E+01-9.95201E-01 0.00000E+00
 -1      2991 2.33555E+01-1.16182E+00 0.00000E+00
 -1      2992 2.21243E+01-1.34514E+00 0.00000E+00
 -1      2993 2.33555E+01-1.52845E+00 0.00000E+00
 -1      2994 2.21243E+01-1.73015E+00 0.00000E+00
 -1      2995 2.33555E+01-1.93185E+00 0.00000E+00
 -1      2996 2.21243E+01-2.15378E+00 0.00000E+00
 -1      2997 2.33555E+01-2.37570E+00 0.00000E+00
 -1      2998 2.21243E+01-2.61989E+00 0.00000E+00
 -1      2999 2.33555E+01-2.86408E+00 0.00000E+00
 -1      3000 2.21243E+01-3.13277E+00 0.00000E+00
 -1      3001 2.33555E+01-3.40146E+00 0.00000E+00
 -1      3002 2.21243E+01-3.69712E+00 0.00000E+00
 -1      3003 2.33555E+01-3.99279E+00 0.00000E+00
 -1      3004 2.21243E+01-4.31814E+00 0.00000E+00
 -1      3005 2.33555E+01-4.64350E+00 0.00000E+00
 -1      3006 2.21243E+01-5.00153E+00 0.00000E+00
 -1      3007 2.33555E+01-5.35957E+00 0.00000E+00
 -1      3008 2.21243E+01-5.75360E+00 0.00000E+00
 -1      3009 2.33555E+01-6.14762E+00 0.00000E+00
 -1      3010 2.21243E+01-6.58127E+00 0.00000E+00
 -1      3011 2.33555E+01-7.01491E+00 0.00000E+00
 -1      3012 2.21243E+01-7.49219E+00 0.00000E+00
 -1      3013 2.33555E+01-7.96946E+00 0.00000E+00
 -1      3014 2.21243E+01-8.49479E+00 0.00000E+00
 -1      3015 2.33555E+01-9.02012E+00 0.00000E+00
 -1      3016 2.21243E+01-9.59836E+00 0.00000E+00
 -1      3017 2.33555E+01-1.01766E+01 0.00000E+00
 -1      3018 2.21243E+01-1.08132E+01 0.00000E+00
 -1      3019 2.33555E+01-1.14497E+01 0.00000E+00
 -1      3020 2.21243E+01-1.21505E+01 0.00000E+00
 -1      3021 2.33555E+01-1.28512E+01 0.00000E+00
 -1      3022 2.21243E+01-1.36228E+01 0.00000E+00
 -1      3023 2.33555E+01-1.43943E+01 0.00000E+00
 -1      3024 2.21243E+01-1.52438E+01 0.00000E+00
 -1      3025 2.33555E+01-1.60933E+01 0.00000E+00
 -1      3026 2.21243E+01-1.70291E+01 0.00000E+00
 -1      3027 2.33555E+01-1.79649E+01 0.00000E+00
 -1      3028 2.21243E+01-1.89825E+01 0.00000E+00
 -1      3029 2.33555E+01-2.00000E+01 0.00000E+00
 -1      3030 2.10050E+01 0.00000E+00 0.00000E+00
 -1      3031 1.98858E+01-1.25000E-01 0.00000E+00
 -1      3032 2.10050E+01-2.50000E-01 0.00000E+00
 -1      3033 1.98858E+01-3.87851E-01 0.00000E+00
 -1      3034 2.10050E+01-5.25703E-01 0.00000E+00
 -1      3035 1.98858E+01-6.77143E-01 0.00000E+00
 -1      3036 2.10050E+01-8.28584E-01 0.00000E+00
 -1      3037 1.98858E+01-9.95201E-01 0.00000E+00
 -1      3038 2.10050E+01-1.16182E+00 0.00000E+00
 -1      3039 1.98858E+01-1.34514E+00 0.00000E+00
 -1      3040 2.10050E+01-1.52845E+00 0.00000E+00
 -1      3041 1.98858E+01-1.73015E+00 0.00000E+00
 -1      3042 2.10050E+01-1.93185E+00 0.00000E+00
 -1      3043 1.98858E+01-2.15378E+00 0.00000E+00
 -1      3044 2.10050E+01-2.37570E+00 0.00000E+00
 -1      3045 1.98858E+01-2.61989E+00 0.00000E+00
 -1      3046 2.10050E+01-2.86408E+00 0.00000E+00
 -1      3047 1.98858E+01-3.13277E+00 0.00000E+00
 -1      3048 2.10050E+01-3.40146E+00 0.00000E+00
 -1      3049 1.98858E+01-3.69712E+00 0.00000E+00
 -1      3050 2.10050E+01-3.99279E+00 0.00000E+00
 -1      3051 1.98858E+01-4.31814E+00 0.00000E+00
 -1      3052 2.10050E+01-4.64350E+00 0.00000E+00
 -1      3053 1.98858E+01-5.00153E+00 0.00000E+00
 -1      3054 2.10050E+01-5.35957E+00 0.00000E+00
 -1      3055 1.98858E+01-5.75360E+00 0.00000E+00
 -1      3056 2.10050E+01-6.14762E+00 0.00000E+00
 -1      3057 1.98858E+01-6.58127E+00 0.00000E+00
 -1      3058 2.10050E+01-7.01491E+00 0.00000E+00
 -1      3059 1.98858E+01-7.49219E+00 0.00000E+00
 -1      3060 2.10050E+01-7.96946E+00 0.00000E+00
 -1      3061 1.98858E+01-8.49479E+00 0.00000E+00
 -1      3062 2.10050E+01-9.02012E+00 0.00000E+00
 -1      3063 1.98858E+01-9.59836E+00 0.00000E+00
 -1      3064 2.10050E+01-1.01766E+01 0.00000E+00
 -1      3065 1.98858E+01-1.08132E+01 0.00000E+00
 -1      3066 2.10050E+01-1.14497E+01 0.00000E+00
 -1      3067 1.98858E+01-1.21505E+01 0.00000E+00
 -1      3068 2.10050E+01-1.28512E+01 0.00000E+00
 -1      3069 1.98858E+01-1.36228E+01 0.00000E+00
 -1      3070 2.10050E+01-1.43943E+01 0.00000E+00
 -1      3071 1.98858E+01-1.52438E+01 0.00000E+00
 -1      3072 2.10050E+01-1.60933E+01 0.00000E+00
 -1      3073 1.98858E+01-1.70291E+01 0.00000E+00
 -1      3074 2.10050E+01-1.79649E+01 0.00000E+00
 -1      3075 1.98858E+01-1.89825E+01 0.00000E+00
 -1      3076 2.10050E+01-2.00000E+01 0.00000E+00
 -1      3077 1.88682E+01 0.00000E+00 0.00000E+00
 -1      3078 1.78507E+01-1.25000E-01 0.00000E+00
 -1      3079 1.88682E+01-2.50000E-01 0.00000E+00
 -1      3080 1.78507E+01-3.87851E-01 0.00000E+00
 -1      3081 1.88682E+01-5.25703E-01 0.00000E+00
 -1      3082 1.78507E+01-6.77143E-01 0.00000E+00
 -1      3083 1.88682E+01-8.28584E-01 0.00000E+00
 -1      3084 1.78507E+01-9.95201E-01 0.00000E+00
 -1      3085 1.88682E+01-1.16182E+00 0.00000E+00
 -1      3086 1.78507E+01-1.34514E+00 0.00000E+00
 -1      3087 1.88682E+01-1.52845E+00 0.00000E+00
 -1      3088 1.78507E+01-1.73015E+00 0.00000E+00
 -1      3089 1.88682E+01-1.93185E+00 0.00000E+00
 -1      3090 1.78507E+01-2.15378E+00 0.00000E+00
 -1      3091 1.88682E+01-2.37570E+00 0.00000E+00
 -1      3092 1.78507E+01-2.61989E+00 0.00000E+00
 -1      3093 1.88682E+01-2.86408E+00 0.00000E+00
 -1      3094 1.78507E+01-3.13277E+00 0.00000E+00
 -1      3095 1.88682E+01-3.40146E+00 0.00000E+00
 -1      3096 1.78507E+01-3.69712E+00 0.00000E+00
 -1      3097 1.88682E+01-3.99279E+00 0.00000E+00
 -1      3098 1.78507E+01-4.31814E+00 0.00000E+00
 -1      3099 1.88682E+01-4.64350E+00 0.00000E+00
 -1      3100 1.78507E+01-5.00153E+00 0.00000E+00
 -1      3101 1.88682E+01-5.35957E+00 0.00000E+00
 -1      3102 1.78507E+01-5.75360E+00 0.00000E+00
 -1      3103 1.88682E+01-6.14762E+00 0.00000E+00
 -1      3104 1.78507E+01-6.58127E+00 0.00000E+00
 -1      3105 1.88682E+01-7.01491E+00 0.00000E+00
 -1      3106 1.78507E+01-7.49219E+00 0.00000E+00
 -1      3107 1.88682E+01-7.96946E+00 0.00000E+00
 -1      3108 1.78507E+01-8.49479E+00 0.00000E+00
 -1      3109 1.88682E+01-9.02012E+00 0.00000E+00
 -1      3110 1.78507E+01-9.59836E+00 0.00000E+00
 -1      3111 1.88682E+01-1.01766E+01 0.00000E+00
 -1      3112 1.78507E+01-1.08132E+01 0.00000E+00
 -1      3113 1.88682E+01-1.14497E+01 0.00000E+00
 -1      3114 1.78507E+01-1.21505E+01 0.00000E+00
 -1      3115 1.88682E+01-1.28512E+01 0.00000E+00
 -1      3116 1.78507E+01-1.36228E+01 0.00000E+00
 -1      3117 1.88682E+01-1.43943E+01 0.00000E+00
 -1      3118 1.78507E+01-1.52438E+01 0.00000E+00
 -1      3119 1.88682E+01-1.60933E+01 0.00000E+00
 -1      3120 1.78507E+01-1.70291E+01 0.00000E+00
 -1      3121 1.88682E+01-1.79649E+01 0.00000E+00
 -1      3122 1.78507E+01-1.89825E+01 0.00000E+00
 -1      3123 1.88682E+01-2.00000E+01 0.00000E+00
 -1      3124 1.69257E+01 0.00000E+00 0.00000E+00
 -1      3125 1.60006E+01-1.25000E-01 0.00000E+00
 -1      3126 1.69257E+01-2.50000E-01 0.00000E+00
 -1      3127 1.60006E+01-3.87851E-01 0.00000E+00
 -1      3128 1.69257E+01-5.25703E-01 0.00000E+00
 -1      3129 1.60006E+01-6.77143E-01 0.00000E+00
 -1      3130 1.69257E+01-8.28584E-01 0.00000E+00
 -1      3131 1.60006E+01-9.95201E-01 0.00000E+00
 -1      3132 1.69257E+01-1.16182E+00 0.00000E+00
 -1      3133 1.60006E+01-1.34514E+00 0.00000E+00
 -1      3134 1.69257E+01-1.52845E+00 0.00000E+00
 -1      3135 1.60006E+01-1.73015E+00 0.00000E+00
 -1      3136 1.69257E+01-1.93185E+00 0.00000E+00
 -1      3137 1.60006E+01-2.15378E+00 0.00000E+00
 -1      3138 1.69257E+01-2.37570E+00 0.00000E+00
 -1      3139 1.60006E+01-2.61989E+00 0.00000E+00
 -1      3140 1.69257E+01-2.86408E+00 0.00000E+00
 -1      3141 1.60006E+01-3.13277E+00 0.00000E+00
 -1      3142 1.69257E+01-3.40146E+00 0.00000E+00
 -1      3143 1.60006E+01-3.69712E+00 0.00000E+00
 -1      3144 1.69257E+01-3.99279E+00 0.00000E+00
 -1      3145 1.60006E+01-4.31814E+00 0.00000E+00
 -1      3146 1.69257E+01-4.64350E+00 0.00000E+00
 -1      3147 1.60006E+01-5.00153E+00 0.00000E+00
 -1      3148 1.69257E+01-5.35957E+00 0.00000E+00
 -1      3149 1.60006E+01-5.75360E+00 0.00000E+00
 -1      3150 1.69257E+01-6.14762E+00 0.00000E+00
 -1      3151 1.60006E+01-6.58127E+00 0.00000E+00
 -1      3152 1.69257E+01-7.01491E+00 0.00000E+00
 -1      3153 1.60006E+01-7.49219E+00 0.00000E+00
 -1      3154 1.69257E+01-7.96946E+00 0.00000E+00
 -1      3155 1.60006E+01-8.49479E+00 0.00000E+00
 -1      3156 1.69257E+01-9.02012E+00 0.00000E+00
 -1      3157 1.60006E+01-9.59836E+00 0.00000E+00
 -1      3158 1.69257E+01-1.01766E+01 0.00000E+00
 -1      3159 1.60006E+01-1.08132E+01 0.00000E+00
 -1      3160 1.69257E+01-1.14497E+01 0.00000E+00
 -1      3161 1.60006E+01-1.21505E+01 0.00000E+00
 -1      3162 1.69257E+01-1.28512E+01 0.00000E+00
 -1      3163 1.60006E+01-1.36228E+01 0.00000E+00
 -1      3164 1.69257E+01-1.43943E+01 0.00000E+00
 -1      3165 1.60006E+01-1.52438E+01 0.00000E+00
 -1      3166 1.69257E+01-1.60933E+01 0.00000E+00
 -1      3167 1.60006E+01-1.70291E+01 0.00000E+00
 -1      3168 1.69257E+01-1.79649E+01 0.00000E+00
 -1      3169 1.60006E+01-1.89825E+01 0.00000E+00
 -1      3170 1.69257E+01-2.00000E+01 0.00000E+00
 -1      3171 1.51597E+01 0.00000E+00 0.00000E+00
 -1      3172 1.43187E+01-1.25000E-01 0.00000E+00
 -1      3173 1.51597E+01-2.50000E-01 0.00000E+00
 -1      3174 1.43187E+01-3.87851E-01 0.00000E+00
 -1      3175 1.51597E+01-5.25703E-01 0.00000E+00
 -1      3176 1.43187E+01-6.77143E-01 0.00000E+00
 -1      3177 1.51597E+01-8.28584E-01 0.00000E+00
 -1      3178 1.43187E+01-9.95201E-01 0.00000E+00
 -1      3179 1.51597E+01-1.16182E+00 0.00000E+00
 -1      3180 1.43187E+01-1.34514E+00 0.00000E+00
 -1      3181 1.51597E+01-1.52845E+00 0.00000E+00
 -1      3182 1.43187E+01-1.73015E+00 0.00000E+00
 -1      3183 1.51597E+01-1.93185E+00 0.00000E+00
 -1      3184 1.43187E+01-2.15378E+00 0.00000E+00
 -1      3185 1.51597E+01-2.37570E+00 0.00000E+00
 -1      3186 1.43187E+01-2.61989E+00 0.00000E+00
 -1      3187 1.51597E+01-2.86408E+00 0.00000E+00
 -1      3188 1.43187E+01-3.13277E+00 0.00000E+00
 -1      3189 1.51597E+01-3.40146E+00 0.00000E+00
 -1      3190 1.43187E+01-3.69712E+00 0.00000E+00
 -1      3191 1.51597E+01-3.99279E+00 0.00000E+00
 -1      3192 1.43187E+01-4.31814E+00 0.00000E+00
 -1      3193 1.51597E+01-4.64350E+00 0.00000E+00
 -1      3194 1.43187E+01-5.00153E+00 0.00000E+00
 -1      3195 1.51597E+01-5.35957E+00 0.00000E+00
 -1      3196 1.43187E+01-5.75360E+00 0.00000E+00
 -1      3197 1.51597E+01-6.14762E+00 0.00000E+00
 -1      3198 1.43187E+01-6.58127E+00 0.00000E+00
 -1      3199 1.51597E+01-7.01491E+00 0.00000E+00
 -1      3200 1.43187E+01-7.49219E+00 0.00000E+00
 -1      3201 1.51597E+01-7.96946E+00 0.00000E+00
 -1      3202 1.43187E+01-8.49479E+00 0.00000E+00
 -1      3203 1.51597E+01-9.02012E+00 0.00000E+00
 -1      3204 1.43187E+01-9.59836E+00 0.00000E+00
 -1      3205 1.51597E+01-1.01766E+01 0.00000E+00
 -1      3206 1.43187E+01-1.08132E+01 0.00000E+00
 -1      3207 1.51597E+01-1.14497E+01 0.00000E+00
 -1      3208 1.43187E+01-1.21505E+01 0.00000E+00
 -1      3209 1.51597E+01-1.28512E+01 0.00000E+00
 -1      3210 1.43187E+01-1.36228E+01 0.00000E+00
 -1      3211 1.51597E+01-1.43943E+01 0.00000E+00
 -1      3212 1.43187E+01-1.52438E+01 0.00000E+00
 -1      3213 1.51597E+01-1.60933E+01 0.00000E+00
 -1      3214 1.43187E+01-1.70291E+01 0.00000E+00
 -1      3215 1.51597E+01-1.79649E+01 0.00000E+00
 -1      3216 1.43187E+01-1.89825E+01 0.00000E+00
 -1      3217 1.51597E+01-2.00000E+01 0.00000E+00
 -1      3218 1.35543E+01 0.00000E+00 0.00000E+00
 -1      3219 1.27898E+01-1.25000E-01 0.00000E+00
 -1      3220 1.35543E+01-2.50000E-01 0.00000E+00
 -1      3221 1.27898E+01-3.87851E-01 0.00000E+00
 -1      3222 1.35543E+01-5.25703E-01 0.00000E+00
 -1      3223 1.27898E+01-6.77143E-01 0.00000E+00
 -1      3224 1.35543E+01-8.28584E-01 0.00000E+00
 -1      3225 1.27898E+01-9.95201E-01 0.00000E+00
 -1      3226 1.35543E+01-1.16182E+00 0.00000E+00
 -1      3227 1.27898E+01-1.34514E+00 0.00000E+00
 -1      3228 1.35543E+01-1.52845E+00 0.00000E+00
 -1      3229 1.27898E+01-1.73015E+00 0.00000E+00
 -1      3230 1.35543E+01-1.93185E+00 0.00000E+00
 -1      3231 1.27898E+01-2.15378E+00 0.00000E+00
 -1      3232 1.35543E+01-2.37570E+00 0.00000E+00
 -1      3233 1.27898E+01-2.61989E+00 0.00000E+00
 -1      3234 1.35543E+01-2.86408E+00 0.00000E+00
 -1      3235 1.27898E+01-3.13277E+00 0.00000E+00
 -1      3236 1.35543E+01-3.40146E+00 0.00000E+00
 -1      3237 1.27898E+01-3.69712E+00 0.00000E+00
 -1      3238 1.35543E+01-3.99279E+00 0.00000E+00
 -1      3239 1.27898E+01-4.31814E+00 0.00000E+00
 -1      3240 1.35543E+01-4.64350E+00 0.00000E+00
 -1      3241 1.27898E+01-5.00153E+00 0.00000E+00
 -1      3242 1.35543E+01-5.35957E+00 0.00000E+00
 -1      3243 1.27898E+01-5.75360E+00 0.00000E+00
 -1      3244 1.35543E+01-6.14762E+00 0.00000E+00
 -1      3245 1.27898E+01-6.58127E+00 0.00000E+00
 -1      3246 1.35543E+01-7.01491E+00 0.00000E+00
 -1      3247 1.27898E+01-7.49219E+00 0.00000E+00
 -1      3248 1.35543E+01-7.96946E+00 0.00000E+00
 -1      3249 1.27898E+01-8.49479E+00 0.00000E+00
 -1      3250 1.35543E+01-9.02012E+00 0.00000E+00
 -1      3251 1.27898E+01-9.59836E+00 0.00000E+00
 -1      3252 1.35543E+01-1.01766E+01 0.00000E+00
 -1      3253 1.27898E+01-1.08132E+01 0.00000E+00
 -1      3254 1.35543E+01-1.14497E+01 0.00000E+00
 -1      3255 1.27898E+01-1.21505E+01 0.00000E+00
 -1      3256 1.35543E+01-1.28512E+01 0.00000E+00
 -1      3257 1.27898E+01-1.36228E+01 0.00000E+00
 -1      3258 1.35543E+01-1.43943E+01 0.00000E+00
 -1      3259 1.27898E+01-1.52438E+01 0.00000E+00
 -1      3260 1.35543E+01-1.60933E+01 0.00000E+00
 -1      3261 1.27898E+01-1.70291E+01 0.00000E+00
 -1      3262 1.35543E+01-1.79649E+01 0.00000E+00
 -1      3263 1.27898E+01-1.89825E+01 0.00000E+00
 -1      3264 1.35543E+01-2.00000E+01 0.00000E+00
 -1      3265 1.20948E+01 0.00000E+00 0.00000E+00
 -1      3266 1.13998E+01-1.25000E-01 0.00000E+00
 -1      3267 1.20948E+01-2.50000E-01 0.00000E+00
 -1      3268 1.13998E+01-3.87851E-01 0.00000E+00
 -1      3269 1.20948E+01-5.25703E-01 0.00000E+00
 -1      3270 1.13998E+01-6.77143E-01 0.00000E+00
 -1      3271 1.20948E+01-8.28584E-01 0.00000E+00
 -1      3272 1.13998E+01-9.95201E-01 0.00000E+00
 -1      3273 1.20948E+01-1.16182E+00 0.00000E+00
 -1      3274 1.13998E+01-1.34514E+00 0.00000E+00
 -1      3275 1.20948E+01-1.52845E+00 0.00000E+00
 -1      3276 1.13998E+01-1.73015E+00 0.00000E+00
 -1      3277 1.20948E+01-1.93185E+00 0.00000E+00
 -1      3278 1.13998E+01-2.15378E+00 0.00000E+00
 -1      3279 1.20948E+01-2.37570E+00 0.00000E+00
 -1      3280 1.13998E+01-2.61989E+00 0.00000E+00
 -1      3281 1.20948E+01-2.86408E+00 0.00000E+00
 -1      3282 1.13998E+01-3.13277E+00 0.00000E+00
 -1      3283 1.20948E+01-3.40146E+00 0.00000E+00
 -1      3284 1.13998E+01-3.69712E+00 0.00000E+00
 -1      3285 1.20948E+01-3.99279E+00 0.00000E+00
 -1      3286 1.13998E+01-4.31814E+00 0.00000E+00
 -1      3287 1.20948E+01-4.64350E+00 0.00000E+00
 -1      3288 1.13998E+01-5.00153E+00 0.00000E+00
 -1      3289 1.20948E+01-5.35957E+00 0.00000E+00
 -1      3290 1.13998E+01-5.75360E+00 0.00000E+00
 -1      3291 1.20948E+01-6.14762E+00 0.00000E+00
 -1      3292 1.13998E+01-6.58127E+00 0.00000E+00
 -1      3293 1.20948E+01-7.01491E+00 0.00000E+00
 -1      3294 1.13998E+01-7.49219E+00 0.00000E+00
 -1      3295 1.20948E+01-7.96946E+00 0.00000E+00
 -1      3296 1.13998E+01-8.49479E+00 0.00000E+00
 -1      3297 1.20948E+01-9.02012E+00 0.00000E+00
 -1      3298 1.13998E+01-9.59836E+00 0.00000E+00
 -1      3299 1.20948E+01-1.01766E+01 0.00000E+00
 -1      3300 1.13998E+01-1.08132E+01 0.00000E+00
 -1      3301 1.20948E+01-1.14497E+01 0.00000E+00
 -1      3302 1.13998E+01-1.21505E+01 0.00000E+00
 -1      3303 1.20948E+01-1.28512E+01 0.00000E+00
 -1      3304 1.13998E+01-1.36228E+01 0.00000E+00
 -1      3305 1.20948E+01-1.43943E+01 0.00000E+00
 -1      3306 1.13998E+01-1.52438E+01 0.00000E+00
 -1      3307 1.20948E+01-1.60933E+01 0.00000E+00
 -1      3308 1.13998E+01-1.70291E+01 0.00000E+00
 -1      3309 1.20948E+01-1.79649E+01 0.00000E+00
 -1      3310 1.13998E+01-1.89825E+01 0.00000E+00
 -1      3311 1.20948E+01-2.00000E+01 0.00000E+00
 -1      3312 1.07680E+01 0.00000E+00 0.00000E+00
 -1      3313 1.01362E+01-1.25000E-01 0.00000E+00
 -1      3314 1.07680E+01-2.50000E-01 0.00000E+00
 -1      3315 1.01362E+01-3.87851E-01 0.00000E+00
 -1      3316 1.07680E+01-5.25703E-01 0.00000E+00
 -1      3317 1.01362E+01-6.77143E-01 0.00000E+00
 -1      3318 1.07680E+01-8.28584E-01 0.00000E+00
 -1      3319 1.01362E+01-9.95201E-01 0.00000E+00
 -1      3320 1.07680E+01-1.16182E+00 0.00000E+00
 -1      3321 1.01362E+01-1.34514E+00 0.00000E+00
 -1      3322 1.07680E+01-1.52845E+00 0.00000E+00
 -1      3323 1.01362E+01-1.73015E+00 0.00000E+00
 -1      3324 1.07680E+01-1.93185E+00 0.00000E+00
 -1      3325 1.01362E+01-2.15378E+00 0.00000E+00
 -1      3326 1.07680E+01-2.37570E+00 0.00000E+00
 -1      3327 1.01362E+01-2.61989E+00 0.00000E+00
 -1      3328 1.07680E+01-2.86408E+00 0.00000E+00
 -1      3329 1.01362E+01-3.13277E+00 0.00000E+00
 -1      3330 1.07680E+01-3.40146E+00 0.00000E+00
 -1      3331 1.01362E+01-3.69712E+00 0.00000E+00
 -1      3332 1.07680E+01-3.99279E+00 0.00000E+00
 -1      3333 1.01362E+01-4.31814E+00 0.00000E+00
 -1      3334 1.07680E+01-4.64350E+00 0.00000E+00
 -1      3335 1.01362E+01-5.00153E+00 0.00000E+00
 -1      3336 1.07680E+01-5.35957E+00 0.00000E+00
 -1      3337 1.01362E+01-5.75360E+00 0.00000E+00
 -1      3338 1.07680E+01-6.14762E+00 0.00000E+00
 -1      3339 1.01362E+01-6.58127E+00 0.00000E+00
 -1      3340 1.07680E+01-7.01491E+00 0.00000E+00
 -1      3341 1.01362E+01-7.49219E+00 0.00000E+00
 -1      3342 1.07680E+01-7.96946E+00 0.00000E+00
 -1      3343 1.01362E+01-8.49479E+00 0.00000E+00
 -1      3344 1.07680E+01-9.02012E+00 0.00000E+00
 -1      3345 1.01362E+01-9.59836E+00 0.00000E+00
 -1      3346 1.07680E+01-1.01766E+01 0.00000E+00
 -1      3347 1.01362E+01-1.08132E+01 0.00000E+00
 -1      3348 1.07680E+01-1.14497E+01 0.00000E+00
 -1      3349 1.01362E+01-1.21505E+01 0.00000E+00
 -1      3350 1.07680E+01-1.28512E+01 0.00000E+00
 -1      3351 1.01362E+01-1.36228E+01 0.00000E+00
 -1      3352 1.07680E+01-1.43943E+01 0.00000E+00
 -1      3353 1.01362E+01-1.52438E+01 0.00000E+00
 -1      3354 1.07680E+01-1.60933E+01 0.00000E+00
 -1      3355 1.01362E+01-1.70291E+01 0.00000E+00
 -1      3356 1.07680E+01-1.79649E+01 0.00000E+00
 -1      3357 1.01362E+01-1.89825E+01 0.00000E+00
 -1      3358 1.07680E+01-2.00000E+01 0.00000E+00
 -1      3359 9.56180E+00 0.00000E+00 0.00000E+00
 -1      3360 8.98743E+00-1.25000E-01 0.00000E+00
 -1      3361 9.56180E+00-2.50000E-01 0.00000E+00
 -1      3362 8.98743E+00-3.87851E-01 0.00000E+00
 -1      3363 9.56180E+00-5.25703E-01 0.00000E+00
 -1      3364 8.98743E+00-6.77143E-01 0.00000E+00
 -1      3365 9.56180E+00-8.28584E-01 0.00000E+00
 -1      3366 8.98743E+00-9.95201E-01 0.00000E+00
 -1      3367 9.56180E+00-1.16182E+00 0.00000E+00
 -1      3368 8.98743E+00-1.34514E+00 0.00000E+00
 -1      3369 9.56180E+00-1.52845E+00 0.00000E+00
 -1      3370 8.98743E+00-1.73015E+00 0.00000E+00
 -1      3371 9.56180E+00-1.93185E+00 0.00000E+00
 -1      3372 8.98743E+00-2.15378E+00 0.00000E+00
 -1      3373 9.56180E+00-2.37570E+00 0.00000E+00
 -1      3374 8.98743E+00-2.61989E+00 0.00000E+00
 -1      3375 9.56180E+00-2.86408E+00 0.00000E+00
 -1      3376 8.98743E+00-3.13277E+00 0.00000E+00
 -1      3377 9.56180E+00-3.40146E+00 0.00000E+00
 -1      3378 8.98743E+00-3.69712E+00 0.00000E+00
 -1      3379 9.56180E+00-3.99279E+00 0.00000E+00
 -1      3380 8.98743E+00-4.31814E+00 0.00000E+00
 -1      3381 9.56180E+00-4.64350E+00 0.00000E+00
 -1      3382 8.98743E+00-5.00153E+00 0.00000E+00
 -1      3383 9.56180E+00-5.35957E+00 0.00000E+00
 -1      3384 8.98743E+00-5.75360E+00 0.00000E+00
 -1      3385 9.56180E+00-6.14762E+00 0.00000E+00
 -1      3386 8.98743E+00-6.58127E+00 0.00000E+00
 -1      3387 9.56180E+00-7.01491E+00 0.00000E+00
 -1      3388 8.98743E+00-7.49219E+00 0.00000E+00
 -1      3389 9.56180E+00-7.96946E+00 0.00000E+00
 -1      3390 8.98743E+00-8.49479E+00 0.00000E+00
 -1      3391 9.56180E+00-9.02012E+00 0.00000E+00
 -1      3392 8.98743E+00-9.59836E+00 0.00000E+00
 -1      3393 9.56180E+00-1.01766E+01 0.00000E+00
 -1      3394 8.98743E+00-1.08132E+01 0.00000E+00
 -1      3395 9.56180E+00-1.14497E+01 0.00000E+00
 -1      3396 8.98743E+00-1.21505E+01 0.00000E+00
 -1      3397 9.56180E+00-1.28512E+01 0.00000E+00
 -1      3398 8.98743E+00-1.36228E+01 0.00000E+00
 -1      3399 9.56180E+00-1.43943E+01 0.00000E+00
 -1      3400 8.98743E+00-1.52438E+01 0.00000E+00
 -1      3401 9.56180E+00-1.60933E+01 0.00000E+00
 -1      3402 8.98743E+00-1.70291E+01 0.00000E+00
 -1      3403 9.56180E+00-1.79649E+01 0.00000E+00
 -1      3404 8.98743E+00-1.89825E+01 0.00000E+00
 -1      3405 9.56180E+00-2.00000E+01 0.00000E+00
 -1      3406 8.46528E+00 0.00000E+00 0.00000E+00
 -1      3407 7.94312E+00-1.25000E-01 0.00000E+00
 -1      3408 8.46528E+00-2.50000E-01 0.00000E+00
 -1      3409 7.94312E+00-3.87851E-01 0.00000E+00
 -1      3410 8.46528E+00-5.25703E-01 0.00000E+00
 -1      3411 7.94312E+00-6.77143E-01 0.00000E+00
 -1      3412 8.46528E+00-8.28584E-01 0.00000E+00
 -1      3413 7.94312E+00-9.95201E-01 0.00000E+00
 -1      3414 8.46528E+00-1.16182E+00 0.00000E+00
 -1      3415 7.94312E+00-1.34514E+00 0.00000E+00
 -1      3416 8.46528E+00-1.52845E+00 0.00000E+00
 -1      3417 7.94312E+00-1.73015E+00 0.00000E+00
 -1      3418 8.46528E+00-1.93185E+00 0.00000E+00
 -1      3419 7.94312E+00-2.15378E+00 0.00000E+00
 -1      3420 8.46528E+00-2.37570E+00 0.00000E+00
 -1      3421 7.94312E+00-2.61989E+00 0.00000E+00
 -1      3422 8.46528E+00-2.86408E+00 0.00000E+00
 -1      3423 7.94312E+00-3.13277E+00 0.00000E+00
 -1      3424 8.46528E+00-3.40146E+00 0.00000E+00
 -1      3425 7.94312E+00-3.69712E+00 0.00000E+00
 -1      3426 8.46528E+00-3.99279E+00 0.00000E+00
 -1      3427 7.94312E+00-4.31814E+00 0.00000E+00
 -1      3428 8.46528E+00-4.64350E+00 0.00000E+00
 -1      3429 7.94312E+00-5.00153E+00 0.00000E+00
 -1      3430 8.46528E+00-5.35957E+00 0.00000E+00
 -1      3431 7.94312E+00-5.75360E+00 0.00000E+00
 -1      3432 8.46528E+00-6.14762E+00 0.00000E+00
 -1      3433 7.94312E+00-6.58127E+00 0.00000E+00
 -1      3434 8.46528E+00-7.01491E+00 0.00000E+00
 -1      3435 7.94312E+00-7.49219E+00 0.00000E+00
 -1      3436 8.46528E+00-7.96946E+00 0.00000E+00
 -1      3437 7.94312E+00-8.49479E+00 0.00000E+00
 -1      3438 8.46528E+00-9.02012E+00 0.00000E+00
 -1      3439 7.94312E+00-9.59836E+00 0.00000E+00
 -1      3440 8.46528E+00-1.01766E+01 0.00000E+00
 -1      3441 7.94312E+00-1.08132E+01 0.00000E+00
 -1      3442 8.46528E+00-1.14497E+01 0.00000E+00
 -1      3443 7.94312E+00-1.21505E+01 0.00000E+00
 -1      3444 8.46528E+00-1.28512E+01 0.00000E+00
 -1      3445 7.94312E+00-1.36228E+01 0.00000E+00
 -1      3446 8.46528E+00-1.43943E+01 0.00000E+00
 -1      3447 7.94312E+00-1.52438E+01 0.00000E+00
 -1      3448 8.46528E+00-1.60933E+01 0.00000E+00
 -1      3449 7.94312E+00-1.70291E+01 0.00000E+00
 -1      3450 8.46528E+00-1.79649E+01 0.00000E+00
 -1      3451 7.94312E+00-1.89825E+01 0.00000E+00
 -1      3452 8.46528E+00-2.00000E+01 0.00000E+00
 -1      3453 7.46843E+00 0.00000E+00 0.00000E+00
 -1      3454 6.99375E+00-1.25000E-01 0.00000E+00
 -1      3455 7.46843E+00-2.50000E-01 0.00000E+00
 -1      3456 6.99375E+00-3.87851E-01 0.00000E+00
 -1      3457 7.46843E+00-5.25703E-01 0.00000E+00
 -1      3458 6.99375E+00-6.77143E-01 0.00000E+00
 -1      3459 7.46843E+00-8.28584E-01 0.00000E+00
 -1      3460 6.99375E+00-9.95201E-01 0.00000E+00
 -1      3461 7.46843E+00-1.16182E+00 0.00000E+00
 -1      3462 6.99375E+00-1.34514E+00 0.00000E+00
 -1      3463 7.46843E+00-1.52845E+00 0.00000E+00
 -1      3464 6.99375E+00-1.73015E+00 0.00000E+00
 -1      3465 7.46843E+00-1.93185E+00 0.00000E+00
 -1      3466 6.99375E+00-2.15378E+00 0.00000E+00
 -1      3467 7.46843E+00-2.37570E+00 0.00000E+00
 -1      3468 6.99375E+00-2.61989E+00 0.00000E+00
 -1      3469 7.46843E+00-2.86408E+00 0.00000E+00
 -1      3470 6.99375E+00-3.13277E+00 0.00000E+00
 -1      3471 7.46843E+00-3.40146E+00 0.00000E+00
 -1      3472 6.99375E+00-3.69712E+00 0.00000E+00
 -1      3473 7.46843E+00-3.99279E+00 0.00000E+00
 -1      3474 6.99375E+00-4.31814E+00 0.00000E+00
 -1      3475 7.46843E+00-4.64350E+00 0.00000E+00
 -1      3476 6.99375E+00-5.00153E+00 0.00000E+00
 -1      3477 7.46843E+00-5.35957E+00 0.00000E+00
 -1      3478 6.99375E+00-5.75360E+00 0.00000E+00
 -1      3479 7.46843E+00-6.14762E+00 0.00000E+00
 -1      3480 6.99375E+00-6.58127E+00 0.00000E+00
 -1      3481 7.46843E+00-7.01491E+00 0.00000E+00
 -1      3482 6.99375E+00-7.49219E+00 0.00000E+00
 -1      3483 7.46843E+00-7.96946E+00 0.00000E+00
 -1      3484 6.99375E+00-8.49479E+00 0.00000E+00
 -1      3485 7.46843E+00-9.02012E+00 0.00000E+00
 -1      3486 6.99375E+00-9.59836E+00 0.00000E+00
 -1      3487 7.46843E+00-1.01766E+01 0.00000E+00
 -1      3488 6.99375E+00-1.08132E+01 0.00000E+00
 -1      3489 7.46843E+00-1.14497E+01 0.00000E+00
 -1      3490 6.99375E+00-1.21505E+01 0.00000E+00
 -1      3491 7.46843E+00-1.28512E+01 0.00000E+00
 -1      3492 6.99375E+00-1.36228E+01 0.00000E+00
 -1      3493 7.46843E+00-1.43943E+01 0.00000E+00
 -1      3494 6.99375E+00-1.52438E+01 0.00000E+00
 -1      3495 7.46843E+00-1.60933E+01 0.00000E+00
 -1      3496 6.99375E+00-1.70291E+01 0.00000E+00
 -1      3497 7.46843E+00-1.79649E+01 0.00000E+00
 -1      3498 6.99375E+00-1.89825E+01 0.00000E+00
 -1      3499 7.46843E+00-2.00000E+01 0.00000E+00
 -1      3500 6.56221E+00 0.00000E+00 0.00000E+00
 -1      3501 6.13068E+00-1.25000E-01 0.00000E+00
 -1      3502 6.56221E+00-2.50000E-01 0.00000E+00
 -1      3503 6.13068E+00-3.87851E-01 0.00000E+00
 -1      3504 6.56221E+00-5.25703E-01 0.00000E+00
 -1      3505 6.13068E+00-6.77143E-01 0.00000E+00
 -1      3506 6.56221E+00-8.28584E-01 0.00000E+00
 -1      3507 6.13068E+00-9.95201E-01 0.00000E+00
 -1      3508 6.56221E+00-1.16182E+00 0.00000E+00
 -1      3509 6.13068E+00-1.34514E+00 0.00000E+00
 -1      3510 6.56221E+00-1.52845E+00 0.00000E+00
 -1      3511 6.13068E+00-1.73015E+00 0.00000E+00
 -1      3512 6.56221E+00-1.93185E+00 0.00000E+00
 -1      3513 6.13068E+00-2.15378E+00 0.00000E+00
 -1      3514 6.56221E+00-2.37570E+00 0.00000E+00
 -1      3515 6.13068E+00-2.61989E+00 0.00000E+00
 -1      3516 6.56221E+00-2.86408E+00 0.00000E+00
 -1      3517 6.13068E+00-3.13277E+00 0.00000E+00
 -1      3518 6.56221E+00-3.40146E+00 0.00000E+00
 -1      3519 6.13068E+00-3.69712E+00 0.00000E+00
 -1      3520 6.56221E+00-3.99279E+00 0.00000E+00
 -1      3521 6.13068E+00-4.31814E+00 0.00000E+00
 -1      3522 6.56221E+00-4.64350E+00 0.00000E+00
 -1      3523 6.13068E+00-5.00153E+00 0.00000E+00
 -1      3524 6.56221E+00-5.35957E+00 0.00000E+00
 -1      3525 6.13068E+00-5.75360E+00 0.00000E+00
 -1      3526 6.56221E+00-6.14762E+00 0.00000E+00
 -1      3527 6.13068E+00-6.58127E+00 0.00000E+00
 -1      3528 6.56221E+00-7.01491E+00 0.00000E+00
 -1      3529 6.13068E+00-7.49219E+00 0.00000E+00
 -1      3530 6.56221E+00-7.96946E+00 0.00000E+00
 -1      3531 6.13068E+00-8.49479E+00 0.00000E+00
 -1      3532 6.56221E+00-9.02012E+00 0.00000E+00
 -1      3533 6.13068E+00-9.59836E+00 0.00000E+00
 -1      3534 6.56221E+00-1.01766E+01 0.00000E+00
 -1      3535 6.13068E+00-1.08132E+01 0.00000E+00
 -1      3536 6.56221E+00-1.14497E+01 0.00000E+00
 -1      3537 6.13068E+00-1.21505E+01 0.00000E+00
 -1      3538 6.56221E+00-1.28512E+01 0.00000E+00
 -1      3539 6.13068E+00-1.36228E+01 0.00000E+00
 -1      3540 6.56221E+00-1.43943E+01 0.00000E+00
 -1      3541 6.13068E+00-1.52438E+01 0.00000E+00
 -1      3542 6.56221E+00-1.60933E+01 0.00000E+00
 -1      3543 6.13068E+00-1.70291E+01 0.00000E+00
 -1      3544 6.56221E+00-1.79649E+01 0.00000E+00
 -1      3545 6.13068E+00-1.89825E+01 0.00000E+00
 -1      3546 6.56221E+00-2.00000E+01 0.00000E+00
 -1      3547 5.73837E+00 0.00000E+00 0.00000E+00
 -1      3548 5.34607E+00-1.25000E-01 0.00000E+00
 -1      3549 5.73837E+00-2.50000E-01 0.00000E+00
 -1      3550 5.34607E+00-3.87851E-01 0.00000E+00
 -1      3551 5.73837E+00-5.25703E-01 0.00000E+00
 -1      3552 5.34607E+00-6.77143E-01 0.00000E+00
 -1      3553 5.73837E+00-8.28584E-01 0.00000E+00
 -1      3554 5.34607E+00-9.95201E-01 0.00000E+00
 -1      3555 5.73837E+00-1.16182E+00 0.00000E+00
 -1      3556 5.34607E+00-1.34514E+00 0.00000E+00
 -1      3557 5.73837E+00-1.52845E+00 0.00000E+00
 -1      3558 5.34607E+00-1.73015E+00 0.00000E+00
 -1      3559 5.73837E+00-1.93185E+00 0.00000E+00
 -1      3560 5.34607E+00-2.15378E+00 0.00000E+00
 -1      3561 5.73837E+00-2.37570E+00 0.00000E+00
 -1      3562 5.34607E+00-2.61989E+00 0.00000E+00
 -1      3563 5.73837E+00-2.86408E+00 0.00000E+00
 -1      3564 5.34607E+00-3.13277E+00 0.00000E+00
 -1      3565 5.73837E+00-3.40146E+00 0.00000E+00
 -1      3566 5.34607E+00-3.69712E+00 0.00000E+00
 -1      3567 5.73837E+00-3.99279E+00 0.00000E+00
 -1      3568 5.34607E+00-4.31814E+00 0.00000E+00
 -1      3569 5.73837E+00-4.64350E+00 0.00000E+00
 -1      3570 5.34607E+00-5.00153E+00 0.00000E+00
 -1      3571 5.73837E+00-5.35957E+00 0.00000E+00
 -1      3572 5.34607E+00-5.75360E+00 0.00000E+00
 -1      3573 5.73837E+00-6.14762E+00 0.00000E+00
 -1      3574 5.34607E+00-6.58127E+00 0.00000E+00
 -1      3575 5.73837E+00-7.01491E+00 0.00000E+00
 -1      3576 5.34607E+00-7.49219E+00 0.00000E+00
 -1      3577 5.73837E+00-7.96946E+00 0.00000E+00
 -1      3578 5.34607E+00-8.49479E+00 0.00000E+00
 -1      3579 5.73837E+00-9.02012E+00 0.00000E+00
 -1      3580 5.34607E+00-9.59836E+00 0.00000E+00
 -1      3581 5.73837E+00-1.01766E+01 0.00000E+00
 -1      3582 5.34607E+00-1.08132E+01 0.00000E+00
 -1      3583 5.73837E+00-1.14497E+01 0.00000E+00
 -1      3584 5.34607E+00-1.21505E+01 0.00000E+00
 -1      3585 5.73837E+00-1.28512E+01 0.00000E+00
 -1      3586 5.34607E+00-1.36228E+01 0.00000E+00
 -1      3587 5.73837E+00-1.43943E+01 0.00000E+00
 -1      3588 5.34607E+00-1.52438E+01 0.00000E+00
 -1      3589 5.73837E+00-1.60933E+01 0.00000E+00
 -1      3590 5.34607E+00-1.70291E+01 0.00000E+00
 -1      3591 5.73837E+00-1.79649E+01 0.00000E+00
 -1      3592 5.34607E+00-1.89825E+01 0.00000E+00
 -1      3593 5.73837E+00-2.00000E+01 0.00000E+00
 -1      3594 4.98943E+00 0.00000E+00 0.00000E+00
 -1      3595 4.63279E+00-1.25000E-01 0.00000E+00
 -1      3596 4.98943E+00-2.50000E-01 0.00000E+00
 -1      3597 4.63279E+00-3.87851E-01 0.00000E+00
 -1      3598 4.98943E+00-5.25703E-01 0.00000E+00
 -1      3599 4.63279E+00-6.77143E-01 0.00000E+00
 -1      3600 4.98943E+00-8.28584E-01 0.00000E+00
 -1      3601 4.63279E+00-9.95201E-01 0.00000E+00
 -1      3602 4.98943E+00-1.16182E+00 0.00000E+00
 -1      3603 4.63279E+00-1.34514E+00 0.00000E+00
 -1      3604 4.98943E+00-1.52845E+00 0.00000E+00
 -1      3605 4.63279E+00-1.73015E+00 0.00000E+00
 -1      3606 4.98943E+00-1.93185E+00 0.00000E+00
 -1      3607 4.63279E+00-2.15378E+00 0.00000E+00
 -1      3608 4.98943E+00-2.37570E+00 0.00000E+00
 -1      3609 4.63279E+00-2.61989E+00 0.00000E+00
 -1      3610 4.98943E+00-2.86408E+00 0.00000E+00
 -1      3611 4.63279E+00-3.13277E+00 0.00000E+00
 -1      3612 4.98943E+00-3.40146E+00 0.00000E+00
 -1      3613 4.63279E+00-3.69712E+00 0.00000E+00
 -1      3614 4.98943E+00-3.99279E+00 0.00000E+00
 -1      3615 4.63279E+00-4.31814E+00 0.00000E+00
 -1      3616 4.98943E+00-4.64350E+00 0.00000E+00
 -1      3617 4.63279E+00-5.00153E+00 0.00000E+00
 -1      3618 4.98943E+00-5.35957E+00 0.00000E+00
 -1      3619 4.63279E+00-5.75360E+00 0.00000E+00
 -1      3620 4.98943E+00-6.14762E+00 0.00000E+00
 -1      3621 4.63279E+00-6.58127E+00 0.00000E+00
 -1      3622 4.98943E+00-7.01491E+00 0.00000E+00
 -1      3623 4.63279E+00-7.49219E+00 0.00000E+00
 -1      3624 4.98943E+00-7.96946E+00 0.00000E+00
 -1      3625 4.63279E+00-8.49479E+00 0.00000E+00
 -1      3626 4.98943E+00-9.02012E+00 0.00000E+00
 -1      3627 4.63279E+00-9.59836E+00 0.00000E+00
 -1      3628 4.98943E+00-1.01766E+01 0.00000E+00
 -1      3629 4.63279E+00-1.08132E+01 0.00000E+00
 -1      3630 4.98943E+00-1.14497E+01 0.00000E+00
 -1      3631 4.63279E+00-1.21505E+01 0.00000E+00
 -1      3632 4.98943E+00-1.28512E+01 0.00000E+00
 -1      3633 4.63279E+00-1.36228E+01 0.00000E+00
 -1      3634 4.98943E+00-1.43943E+01 0.00000E+00
 -1      3635 4.63279E+00-1.52438E+01 0.00000E+00
 -1      3636 4.98943E+00-1.60933E+01 0.00000E+00
 -1      3637 4.63279E+00-1.70291E+01 0.00000E+00
 -1      3638 4.98943E+00-1.79649E+01 0.00000E+00
 -1      3639 4.63279E+00-1.89825E+01 0.00000E+00
 -1      3640 4.98943E+00-2.00000E+01 0.00000E+00
 -1      3641 4.30857E+00 0.00000E+00 0.00000E+00
 -1      3642 3.98436E+00-1.25000E-01 0.00000E+00
 -1      3643 4.30857E+00-2.50000E-01 0.00000E+00
 -1      3644 3.98436E+00-3.87851E-01 0.00000E+00
 -1      3645 4.30857E+00-5.25703E-01 0.00000E+00
 -1      3646 3.98436E+00-6.77143E-01 0.00000E+00
 -1      3647 4.30857E+00-8.28584E-01 0.00000E+00
 -1      3648 3.98436E+00-9.95201E-01 0.00000E+00
 -1      3649 4.30857E+00-1.16182E+00 0.00000E+00
 -1      3650 3.98436E+00-1.34514E+00 0.00000E+00
 -1      3651 4.30857E+00-1.52845E+00 0.00000E+00
 -1      3652 3.98436E+00-1.73015E+00 0.00000E+00
 -1      3653 4.30857E+00-1.93185E+00 0.00000E+00
 -1      3654 3.98436E+00-2.15378E+00 0.00000E+00
 -1      3655 4.30857E+00-2.37570E+00 0.00000E+00
 -1      3656 3.98436E+00-2.61989E+00 0.00000E+00
 -1      3657 4.30857E+00-2.86408E+00 0.00000E+00
 -1      3658 3.98436E+00-3.13277E+00 0.00000E+00
 -1      3659 4.30857E+00-3.40146E+00 0.00000E+00
 -1      3660 3.98436E+00-3.69712E+00 0.00000E+00
 -1      3661 4.30857E+00-3.99279E+00 0.00000E+00
 -1      3662 3.98436E+00-4.31814E+00 0.00000E+00
 -1      3663 4.30857E+00-4.64350E+00 0.00000E+00
 -1      3664 3.98436E+00-5.00153E+00 0.00000E+00
 -1      3665 4.30857E+00-5.35957E+00 0.00000E+00
 -1      3666 3.98436E+00-5.75360E+00 0.00000E+00
 -1      3667 4.30857E+00-6.14762E+00 0.00000E+00
 -1      3668 3.98436E+00-6.58127E+00 0.00000E+00
 -1      3669 4.30857E+00-7.01491E+00 0.00000E+00
 -1      3670 3.98436E+00-7.49219E+00 0.00000E+00
 -1      3671 4.30857E+00-7.96946E+00 0.00000E+00
 -1      3672 3.98436E+00-8.49479E+00 0.00000E+00
 -1      3673 4.30857E+00-9.02012E+00 0.00000E+00
 -1      3674 3.98436E+00-9.59836E+00 0.00000E+00
 -1      3675 4.30857E+00-1.01766E+01 0.00000E+00
 -1      3676 3.98436E+00-1.08132E+01 0.00000E+00
 -1      3677 4.30857E+00-1.14497E+01 0.00000E+00
 -1      3678 3.98436E+00-1.21505E+01 0.00000E+00
 -1      3679 4.30857E+00-1.28512E+01 0.00000E+00
 -1      3680 3.98436E+00-1.36228E+01 0.00000E+00
 -1      3681 4.30857E+00-1.43943E+01 0.00000E+00
 -1      3682 3.98436E+00-1.52438E+01 0.00000E+00
 -1      3683 4.30857E+00-1.60933E+01 0.00000E+00
 -1      3684 3.98436E+00-1.70291E+01 0.00000E+00
 -1      3685 4.30857E+00-1.79649E+01 0.00000E+00
 -1      3686 3.98436E+00-1.89825E+01 0.00000E+00
 -1      3687 4.30857E+00-2.00000E+01 0.00000E+00
 -1      3688 3.68961E+00 0.00000E+00 0.00000E+00
 -1      3689 3.39487E+00-1.25000E-01 0.00000E+00
 -1      3690 3.68961E+00-2.50000E-01 0.00000E+00
 -1      3691 3.39487E+00-3.87851E-01 0.00000E+00
 -1      3692 3.68961E+00-5.25703E-01 0.00000E+00
 -1      3693 3.39487E+00-6.77143E-01 0.00000E+00
 -1      3694 3.68961E+00-8.28584E-01 0.00000E+00
 -1      3695 3.39487E+00-9.95201E-01 0.00000E+00
 -1      3696 3.68961E+00-1.16182E+00 0.00000E+00
 -1      3697 3.39487E+00-1.34514E+00 0.00000E+00
 -1      3698 3.68961E+00-1.52845E+00 0.00000E+00
 -1      3699 3.39487E+00-1.73015E+00 0.00000E+00
 -1      3700 3.68961E+00-1.93185E+00 0.00000E+00
 -1      3701 3.39487E+00-2.15378E+00 0.00000E+00
 -1      3702 3.68961E+00-2.37570E+00 0.00000E+00
 -1      3703 3.39487E+00-2.61989E+00 0.00000E+00
 -1      3704 3.68961E+00-2.86408E+00 0.00000E+00
 -1      3705 3.39487E+00-3.13277E+00 0.00000E+00
 -1      3706 3.68961E+00-3.40146E+00 0.00000E+00
 -1      3707 3.39487E+00-3.69712E+00 0.00000E+00
 -1      3708 3.68961E+00-3.99279E+00 0.00000E+00
 -1      3709 3.39487E+00-4.31814E+00 0.00000E+00
 -1      3710 3.68961E+00-4.64350E+00 0.00000E+00
 -1      3711 3.39487E+00-5.00153E+00 0.00000E+00
 -1      3712 3.68961E+00-5.35957E+00 0.00000E+00
 -1      3713 3.39487E+00-5.75360E+00 0.00000E+00
 -1      3714 3.68961E+00-6.14762E+00 0.00000E+00
 -1      3715 3.39487E+00-6.58127E+00 0.00000E+00
 -1      3716 3.68961E+00-7.01491E+00 0.00000E+00
 -1      3717 3.39487E+00-7.49219E+00 0.00000E+00
 -1      3718 3.68961E+00-7.96946E+00 0.00000E+00
 -1      3719 3.39487E+00-8.49479E+00 0.00000E+00
 -1      3720 3.68961E+00-9.02012E+00 0.00000E+00
 -1      3721 3.39487E+00-9.59836E+00 0.00000E+00
 -1      3722 3.68961E+00-1.01766E+01 0.00000E+00
 -1      3723 3.39487E+00-1.08132E+01 0.00000E+00
 -1      3724 3.68961E+00-1.14497E+01 0.00000E+00
 -1      3725 3.39487E+00-1.21505E+01 0.00000E+00
 -1      3726 3.68961E+00-1.28512E+01 0.00000E+00
 -1      3727 3.39487E+00-1.36228E+01 0.00000E+00
 -1      3728 3.68961E+00-1.43943E+01 0.00000E+00
 -1      3729 3.39487E+00-1.52438E+01 0.00000E+00
 -1      3730 3.68961E+00-1.60933E+01 0.00000E+00
 -1      3731 3.39487E+00-1.70291E+01 0.00000E+00
 -1      3732 3.68961E+00-1.79649E+01 0.00000E+00
 -1      3733 3.39487E+00-1.89825E+01 0.00000E+00
 -1      3734 3.68961E+00-2.00000E+01 0.00000E+00
 -1      3735 3.12692E+00 0.00000E+00 0.00000E+00
 -1      3736 2.85897E+00-1.25000E-01 0.00000E+00
 -1      3737 3.12692E+00-2.50000E-01 0.00000E+00
 -1      3738 2.85897E+00-3.87851E-01 0.00000E+00
 -1      3739 3.12692E+00-5.25703E-01 0.00000E+00
 -1      3740 2.85897E+00-6.77143E-01 0.00000E+00
 -1      3741 3.12692E+00-8.28584E-01 0.00000E+00
 -1      3742 2.85897E+00-9.95201E-01 0.00000E+00
 -1      3743 3.12692E+00-1.16182E+00 0.00000E+00
 -1      3744 2.85897E+00-1.34514E+00 0.00000E+00
 -1      3745 3.12692E+00-1.52845E+00 0.00000E+00
 -1      3746 2.85897E+00-1.73015E+00 0.00000E+00
 -1      3747 3.12692E+00-1.93185E+00 0.00000E+00
 -1      3748 2.85897E+00-2.15378E+00 0.00000E+00
 -1      3749 3.12692E+00-2.37570E+00 0.00000E+00
 -1      3750 2.85897E+00-2.61989E+00 0.00000E+00
 -1      3751 3.12692E+00-2.86408E+00 0.00000E+00
 -1      3752 2.85897E+00-3.13277E+00 0.00000E+00
 -1      3753 3.12692E+00-3.40146E+00 0.00000E+00
 -1      3754 2.85897E+00-3.69712E+00 0.00000E+00
 -1      3755 3.12692E+00-3.99279E+00 0.00000E+00
 -1      3756 2.85897E+00-4.31814E+00 0.00000E+00
 -1      3757 3.12692E+00-4.64350E+00 0.00000E+00
 -1      3758 2.85897E+00-5.00153E+00 0.00000E+00
 -1      3759 3.12692E+00-5.35957E+00 0.00000E+00
 -1      3760 2.85897E+00-5.75360E+00 0.00000E+00
 -1      3761 3.12692E+00-6.14762E+00 0.00000E+00
 -1      3762 2.85897E+00-6.58127E+00 0.00000E+00
 -1      3763 3.12692E+00-7.01491E+00 0.00000E+00
 -1      3764 2.85897E+00-7.49219E+00 0.00000E+00
 -1      3765 3.12692E+00-7.96946E+00 0.00000E+00
 -1      3766 2.85897E+00-8.49479E+00 0.00000E+00
 -1      3767 3.12692E+00-9.02012E+00 0.00000E+00
 -1      3768 2.85897E+00-9.59836E+00 0.00000E+00
 -1      3769 3.12692E+00-1.01766E+01 0.00000E+00
 -1      3770 2.85897E+00-1.08132E+01 0.00000E+00
 -1      3771 3.12692E+00-1.14497E+01 0.00000E+00
 -1      3772 2.85897E+00-1.21505E+01 0.00000E+00
 -1      3773 3.12692E+00-1.28512E+01 0.00000E+00
 -1      3774 2.85897E+00-1.36228E+01 0.00000E+00
 -1      3775 3.12692E+00-1.43943E+01 0.00000E+00
 -1      3776 2.85897E+00-1.52438E+01 0.00000E+00
 -1      3777 3.12692E+00-1.60933E+01 0.00000E+00
 -1      3778 2.85897E+00-1.70291E+01 0.00000E+00
 -1      3779 3.12692E+00-1.79649E+01 0.00000E+00
 -1      3780 2.85897E+00-1.89825E+01 0.00000E+00
 -1      3781 3.12692E+00-2.00000E+01 0.00000E+00
 -1      3782 2.61538E+00 0.00000E+00 0.00000E+00
 -1      3783 2.37179E+00-1.25000E-01 0.00000E+00
 -1      3784 2.61538E+00-2.50000E-01 0.00000E+00
 -1      3785 2.37179E+00-3.87851E-01 0.00000E+00
 -1      3786 2.61538E+00-5.25703E-01 0.00000E+00
 -1      3787 2.37179E+00-6.77143E-01 0.00000E+00
 -1      3788 2.61538E+00-8.28584E-01 0.00000E+00
 -1      3789 2.37179E+00-9.95201E-01 0.00000E+00
 -1      3790 2.61538E+00-1.16182E+00 0.00000E+00
 -1      3791 2.37179E+00-1.34514E+00 0.00000E+00
 -1      3792 2.61538E+00-1.52845E+00 0.00000E+00
 -1      3793 2.37179E+00-1.73015E+00 0.00000E+00
 -1      3794 2.61538E+00-1.93185E+00 0.00000E+00
 -1      3795 2.37179E+00-2.15378E+00 0.00000E+00
 -1      3796 2.61538E+00-2.37570E+00 0.00000E+00
 -1      3797 2.37179E+00-2.61989E+00 0.00000E+00
 -1      3798 2.61538E+00-2.86408E+00 0.00000E+00
 -1      3799 2.37179E+00-3.13277E+00 0.00000E+00
 -1      3800 2.61538E+00-3.40146E+00 0.00000E+00
 -1      3801 2.37179E+00-3.69712E+00 0.00000E+00
 -1      3802 2.61538E+00-3.99279E+00 0.00000E+00
 -1      3803 2.37179E+00-4.31814E+00 0.00000E+00
 -1      3804 2.61538E+00-4.64350E+00 0.00000E+00
 -1      3805 2.37179E+00-5.00153E+00 0.00000E+00
 -1      3806 2.61538E+00-5.35957E+00 0.00000E+00
 -1      3807 2.37179E+00-5.75360E+00 0.00000E+00
 -1      3808 2.61538E+00-6.14762E+00 0.00000E+00
 -1      3809 2.37179E+00-6.58127E+00 0.00000E+00
 -1      3810 2.61538E+00-7.01491E+00 0.00000E+00
 -1      3811 2.37179E+00-7.49219E+00 0.00000E+00
 -1      3812 2.61538E+00-7.96946E+00 0.00000E+00
 -1      3813 2.37179E+00-8.49479E+00 0.00000E+00
 -1      3814 2.61538E+00-9.02012E+00 0.00000E+00
 -1      3815 2.37179E+00-9.59836E+00 0.00000E+00
 -1      3816 2.61538E+00-1.01766E+01 0.00000E+00
 -1      3817 2.37179E+00-1.08132E+01 0.00000E+00
 -1      3818 2.61538E+00-1.14497E+01 0.00000E+00
 -1      3819 2.37179E+00-1.21505E+01 0.00000E+00
 -1      3820 2.61538E+00-1.28512E+01 0.00000E+00
 -1      3821 2.37179E+00-1.36228E+01 0.00000E+00
 -1      3822 2.61538E+00-1.43943E+01 0.00000E+00
 -1      3823 2.37179E+00-1.52438E+01 0.00000E+00
 -1      3824 2.61538E+00-1.60933E+01 0.00000E+00
 -1      3825 2.37179E+00-1.70291E+01 0.00000E+00
 -1      3826 2.61538E+00-1.79649E+01 0.00000E+00
 -1      3827 2.37179E+00-1.89825E+01 0.00000E+00
 -1      3828 2.61538E+00-2.00000E+01 0.00000E+00
 -1      3829 2.15035E+00 0.00000E+00 0.00000E+00
 -1      3830 1.92890E+00-1.25000E-01 0.00000E+00
 -1      3831 2.15035E+00-2.50000E-01 0.00000E+00
 -1      3832 1.92890E+00-3.87851E-01 0.00000E+00
 -1      3833 2.15035E+00-5.25703E-01 0.00000E+00
 -1      3834 1.92890E+00-6.77143E-01 0.00000E+00
 -1      3835 2.15035E+00-8.28584E-01 0.00000E+00
 -1      3836 1.92890E+00-9.95201E-01 0.00000E+00
 -1      3837 2.15035E+00-1.16182E+00 0.00000E+00
 -1      3838 1.92890E+00-1.34514E+00 0.00000E+00
 -1      3839 2.15035E+00-1.52845E+00 0.00000E+00
 -1      3840 1.92890E+00-1.73015E+00 0.00000E+00
 -1      3841 2.15035E+00-1.93185E+00 0.00000E+00
 -1      3842 1.92890E+00-2.15378E+00 0.00000E+00
 -1      3843 2.15035E+00-2.37570E+00 0.00000E+00
 -1      3844 1.92890E+00-2.61989E+00 0.00000E+00
 -1      3845 2.15035E+00-2.86408E+00 0.00000E+00
 -1      3846 1.92890E+00-3.13277E+00 0.00000E+00
 -1      3847 2.15035E+00-3.40146E+00 0.00000E+00
 -1      3848 1.92890E+00-3.69712E+00 0.00000E+00
 -1      3849 2.15035E+00-3.99279E+00 0.00000E+00
 -1      3850 1.92890E+00-4.31814E+00 0.00000E+00
 -1      3851 2.15035E+00-4.64350E+00 0.00000E+00
 -1      3852 1.92890E+00-5.00153E+00 0.00000E+00
 -1      3853 2.15035E+00-5.35957E+00 0.00000E+00
 -1      3854 1.92890E+00-5.75360E+00 0.00000E+00
 -1      3855 2.15035E+00-6.14762E+00 0.00000E+00
 -1      3856 1.92890E+00-6.58127E+00 0.00000E+00
 -1      3857 2.15035E+00-7.01491E+00 0.00000E+00
 -1      3858 1.92890E+00-7.49219E+00 0.00000E+00
 -1      3859 2.15035E+00-7.96946E+00 0.00000E+00
 -1      3860 1.92890E+00-8.49479E+00 0.00000E+00
 -1      3861 2.15035E+00-9.02012E+00 0.00000E+00
 -1      3862 1.92890E+00-9.59836E+00 0.00000E+00
 -1      3863 2.15035E+00-1.01766E+01 0.00000E+00
 -1      3864 1.92890E+00-1.08132E+01 0.00000E+00
 -1      3865 2.15035E+00-1.14497E+01 0.00000E+00
 -1      3866 1.92890E+00-1.21505E+01 0.00000E+00
 -1      3867 2.15035E+00-1.28512E+01 0.00000E+00
 -1      3868 1.92890E+00-1.36228E+01 0.00000E+00
 -1      3869 2.15035E+00-1.43943E+01 0.00000E+00
 -1      3870 1.92890E+00-1.52438E+01 0.00000E+00
 -1      3871 2.15035E+00-1.60933E+01 0.00000E+00
 -1      3872 1.92890E+00-1.70291E+01 0.00000E+00
 -1      3873 2.15035E+00-1.79649E+01 0.00000E+00
 -1      3874 1.92890E+00-1.89825E+01 0.00000E+00
 -1      3875 2.15035E+00-2.00000E+01 0.00000E+00
 -1      3876 1.72759E+00 0.00000E+00 0.00000E+00
 -1      3877 1.52628E+00-1.25000E-01 0.00000E+00
 -1      3878 1.72759E+00-2.50000E-01 0.00000E+00
 -1      3879 1.52628E+00-3.87851E-01 0.00000E+00
 -1      3880 1.72759E+00-5.25703E-01 0.00000E+00
 -1      3881 1.52628E+00-6.77143E-01 0.00000E+00
 -1      3882 1.72759E+00-8.28584E-01 0.00000E+00
 -1      3883 1.52628E+00-9.95201E-01 0.00000E+00
 -1      3884 1.72759E+00-1.16182E+00 0.00000E+00
 -1      3885 1.52628E+00-1.34514E+00 0.00000E+00
 -1      3886 1.72759E+00-1.52845E+00 0.00000E+00
 -1      3887 1.52628E+00-1.73015E+00 0.00000E+00
 -1      3888 1.72759E+00-1.93185E+00 0.00000E+00
 -1      3889 1.52628E+00-2.15378E+00 0.00000E+00
 -1      3890 1.72759E+00-2.37570E+00 0.00000E+00
 -1      3891 1.52628E+00-2.61989E+00 0.00000E+00
 -1      3892 1.72759E+00-2.86408E+00 0.00000E+00
 -1      3893 1.52628E+00-3.13277E+00 0.00000E+00
 -1      3894 1.72759E+00-3.40146E+00 0.00000E+00
 -1      3895 1.52628E+00-3.69712E+00 0.00000E+00
 -1      3896 1.72759E+00-3.99279E+00 0.00000E+00
 -1      3897 1.52628E+00-4.31814E+00 0.00000E+00
 -1      3898 1.72759E+00-4.64350E+00 0.00000E+00
 -1      3899 1.52628E+00-5.00153E+00 0.00000E+00
 -1      3900 1.72759E+00-5.35957E+00 0.00000E+00
 -1      3901 1.52628E+00-5.75360E+00 0.00000E+00
 -1      3902 1.72759E+00-6.14762E+00 0.00000E+00
 -1      3903 1.52628E+00-6.58127E+00 0.00000E+00
 -1      3904 1.72759E+00-7.01491E+00 0.00000E+00
 -1      3905 1.52628E+00-7.49219E+00 0.00000E+00
 -1      3906 1.72759E+00-7.96946E+00 0.00000E+00
 -1      3907 1.52628E+00-8.49479E+00 0.00000E+00
 -1      3908 1.72759E+00-9.02012E+00 0.00000E+00
 -1      3909 1.52628E+00-9.59836E+00 0.00000E+00
 -1      3910 1.72759E+00-1.01766E+01 0.00000E+00
 -1      3911 1.52628E+00-1.08132E+01 0.00000E+00
 -1      3912 1.72759E+00-1.14497E+01 0.00000E+00
 -1      3913 1.52628E+00-1.21505E+01 0.00000E+00
 -1      3914 1.72759E+00-1.28512E+01 0.00000E+00
 -1      3915 1.52628E+00-1.36228E+01 0.00000E+00
 -1      3916 1.72759E+00-1.43943E+01 0.00000E+00
 -1      3917 1.52628E+00-1.52438E+01 0.00000E+00
 -1      3918 1.72759E+00-1.60933E+01 0.00000E+00
 -1      3919 1.52628E+00-1.70291E+01 0.00000E+00
 -1      3920 1.72759E+00-1.79649E+01 0.00000E+00
 -1      3921 1.52628E+00-1.89825E+01 0.00000E+00
 -1      3922 1.72759E+00-2.00000E+01 0.00000E+00
 -1      3923 1.34326E+00 0.00000E+00 0.00000E+00
 -1      3924 1.16025E+00-1.25000E-01 0.00000E+00
 -1      3925 1.34326E+00-2.50000E-01 0.00000E+00
 -1      3926 1.16025E+00-3.87851E-01 0.00000E+00
 -1      3927 1.34326E+00-5.25703E-01 0.00000E+00
 -1      3928 1.16025E+00-6.77143E-01 0.00000E+00
 -1      3929 1.34326E+00-8.28584E-01 0.00000E+00
 -1      3930 1.16025E+00-9.95201E-01 0.00000E+00
 -1      3931 1.34326E+00-1.16182E+00 0.00000E+00
 -1      3932 1.16025E+00-1.34514E+00 0.00000E+00
 -1      3933 1.34326E+00-1.52845E+00 0.00000E+00
 -1      3934 1.16025E+00-1.73015E+00 0.00000E+00
 -1      3935 1.34326E+00-1.93185E+00 0.00000E+00
 -1      3936 1.16025E+00-2.15378E+00 0.00000E+00
 -1      3937 1.34326E+00-2.37570E+00 0.00000E+00
 -1      3938 1.16025E+00-2.61989E+00 0.00000E+00
 -1      3939 1.34326E+00-2.86408E+00 0.00000E+00
 -1      3940 1.16025E+00-3.13277E+00 0.00000E+00
 -1      3941 1.34326E+00-3.40146E+00 0.00000E+00
 -1      3942 1.16025E+00-3.69712E+00 0.00000E+00
 -1      3943 1.34326E+00-3.99279E+00 0.00000E+00
 -1      3944 1.16025E+00-4.31814E+00 0.00000E+00
 -1      3945 1.34326E+00-4.64350E+00 0.00000E+00
 -1      3946 1.16025E+00-5.00153E+00 0.00000E+00
 -1      3947 1.34326E+00-5.35957E+00 0.00000E+00
 -1      3948 1.16025E+00-5.75360E+00 0.00000E+00
 -1      3949 1.34326E+00-6.14762E+00 0.00000E+00
 -1      3950 1.16025E+00-6.58127E+00 0.00000E+00
 -1      3951 1.34326E+00-7.01491E+00 0.00000E+00
 -1      3952 1.16025E+00-7.49219E+00 0.00000E+00
 -1      3953 1.34326E+00-7.96946E+00 0.00000E+00
 -1      3954 1.16025E+00-8.49479E+00 0.00000E+00
 -1      3955 1.34326E+00-9.02012E+00 0.00000E+00
 -1      3956 1.16025E+00-9.59836E+00 0.00000E+00
 -1      3957 1.34326E+00-1.01766E+01 0.00000E+00
 -1      3958 1.16025E+00-1.08132E+01 0.00000E+00
 -1      3959 1.34326E+00-1.14497E+01 0.00000E+00
 -1      3960 1.16025E+00-1.21505E+01 0.00000E+00
 -1      3961 1.34326E+00-1.28512E+01 0.00000E+00
 -1      3962 1.16025E+00-1.36228E+01 0.00000E+00
 -1      3963 1.34326E+00-1.43943E+01 0.00000E+00
 -1      3964 1.16025E+00-1.52438E+01 0.00000E+00
 -1      3965 1.34326E+00-1.60933E+01 0.00000E+00
 -1      3966 1.16025E+00-1.70291E+01 0.00000E+00
 -1      3967 1.34326E+00-1.79649E+01 0.00000E+00
 -1      3968 1.16025E+00-1.89825E+01 0.00000E+00
 -1      3969 1.34326E+00-2.00000E+01 0.00000E+00
 -1      3970 9.93875E-01 0.00000E+00 0.00000E+00
 -1      3971 8.27500E-01-1.25000E-01 0.00000E+00
 -1      3972 9.93875E-01-2.50000E-01 0.00000E+00
 -1      3973 8.27500E-01-3.87851E-01 0.00000E+00
 -1      3974 9.93875E-01-5.25703E-01 0.00000E+00
 -1      3975 8.27500E-01-6.77143E-01 0.00000E+00
 -1      3976 9.93875E-01-8.28584E-01 0.00000E+00
 -1      3977 8.27500E-01-9.95201E-01 0.00000E+00
 -1      3978 9.93875E-01-1.16182E+00 0.00000E+00
 -1      3979 8.27500E-01-1.34514E+00 0.00000E+00
 -1      3980 9.93875E-01-1.52845E+00 0.00000E+00
 -1      3981 8.27500E-01-1.73015E+00 0.00000E+00
 -1      3982 9.93875E-01-1.93185E+00 0.00000E+00
 -1      3983 8.27500E-01-2.15378E+00 0.00000E+00
 -1      3984 9.93875E-01-2.37570E+00 0.00000E+00
 -1      3985 8.27500E-01-2.61989E+00 0.00000E+00
 -1      3986 9.93875E-01-2.86408E+00 0.00000E+00
 -1      3987 8.27500E-01-3.13277E+00 0.00000E+00
 -1      3988 9.93875E-01-3.40146E+00 0.00000E+00
 -1      3989 8.27500E-01-3.69712E+00 0.00000E+00
 -1      3990 9.93875E-01-3.99279E+00 0.00000E+00
 -1      3991 8.27500E-01-4.31814E+00 0.00000E+00
 -1      3992 9.93875E-01-4.64350E+00 0.00000E+00
 -1      3993 8.27500E-01-5.00153E+00 0.00000E+00
 -1      3994 9.93875E-01-5.35957E+00 0.00000E+00
 -1      3995 8.27500E-01-5.75360E+00 0.00000E+00
 -1      3996 9.93875E-01-6.14762E+00 0.00000E+00
 -1      3997 8.27500E-01-6.58127E+00 0.00000E+00
 -1      3998 9.93875E-01-7.01491E+00 0.00000E+00
 -1      3999 8.27500E-01-7.49219E+00 0.00000E+00
 -1      4000 9.93875E-01-7.96946E+00 0.00000E+00
 -1      4001 8.27500E-01-8.49479E+00 0.00000E+00
 -1      4002 9.93875E-01-9.02012E+00 0.00000E+00
 -1      4003 8.27500E-01-9.59836E+00 0.00000E+00
 -1      4004 9.93875E-01-1.01766E+01 0.00000E+00
 -1      4005 8.27500E-01-1.08132E+01 0.00000E+00
 -1      4006 9.93875E-01-1.14497E+01 0.00000E+00
 -1      4007 8.27500E-01-1.21505E+01 0.00000E+00
 -1      4008 9.93875E-01-1.28512E+01 0.00000E+00
 -1      4009 8.27500E-01-1.36228E+01 0.00000E+00
 -1      4010 9.93875E-01-1.43943E+01 0.00000E+00
 -1      4011 8.27500E-01-1.52438E+01 0.00000E+00
 -1      4012 9.93875E-01-1.60933E+01 0.00000E+00
 -1      4013 8.27500E-01-1.70291E+01 0.00000E+00
 -1      4014 9.93875E-01-1.79649E+01 0.00000E+00
 -1      4015 8.27500E-01-1.89825E+01 0.00000E+00
 -1      4016 9.93875E-01-2.00000E+01 0.00000E+00
 -1      4017 6.76250E-01 0.00000E+00 0.00000E+00
 -1      4018 5.25000E-01-1.25000E-01 0.00000E+00
 -1      4019 6.76250E-01-2.50000E-01 0.00000E+00
 -1      4020 5.25000E-01-3.87851E-01 0.00000E+00
 -1      4021 6.76250E-01-5.25703E-01 0.00000E+00
 -1      4022 5.25000E-01-6.77143E-01 0.00000E+00
 -1      4023 6.76250E-01-8.28584E-01 0.00000E+00
 -1      4024 5.25000E-01-9.95201E-01 0.00000E+00
 -1      4025 6.76250E-01-1.16182E+00 0.00000E+00
 -1      4026 5.25000E-01-1.34514E+00 0.00000E+00
 -1      4027 6.76250E-01-1.52845E+00 0.00000E+00
 -1      4028 5.25000E-01-1.73015E+00 0.00000E+00
 -1      4029 6.76250E-01-1.93185E+00 0.00000E+00
 -1      4030 5.25000E-01-2.15378E+00 0.00000E+00
 -1      4031 6.76250E-01-2.37570E+00 0.00000E+00
 -1      4032 5.25000E-01-2.61989E+00 0.00000E+00
 -1      4033 6.76250E-01-2.86408E+00 0.00000E+00
 -1      4034 5.25000E-01-3.13277E+00 0.00000E+00
 -1      4035 6.76250E-01-3.40146E+00 0.00000E+00
 -1      4036 5.25000E-01-3.69712E+00 0.00000E+00
 -1      4037 6.76250E-01-3.99279E+00 0.00000E+00
 -1      4038 5.25000E-01-4.31814E+00 0.00000E+00
 -1      4039 6.76250E-01-4.64350E+00 0.00000E+00
 -1      4040 5.25000E-01-5.00153E+00 0.00000E+00
 -1      4041 6.76250E-01-5.35957E+00 0.00000E+00
 -1      4042 5.25000E-01-5.75360E+00 0.00000E+00
 -1      4043 6.76250E-01-6.14762E+00 0.00000E+00
 -1      4044 5.25000E-01-6.58127E+00 0.00000E+00
 -1      4045 6.76250E-01-7.01491E+00 0.00000E+00
 -1      4046 5.25000E-01-7.49219E+00 0.00000E+00
 -1      4047 6.76250E-01-7.96946E+00 0.00000E+00
 -1      4048 5.25000E-01-8.49479E+00 0.00000E+00
 -1      4049 6.76250E-01-9.02012E+00 0.00000E+00
 -1      4050 5.25000E-01-9.59836E+00 0.00000E+00
 -1      4051 6.76250E-01-1.01766E+01 0.00000E+00
 -1      4052 5.25000E-01-1.08132E+01 0.00000E+00
 -1      4053 6.76250E-01-1.14497E+01 0.00000E+00
 -1      4054 5.25000E-01-1.21505E+01 0.00000E+00
 -1      4055 6.76250E-01-1.28512E+01 0.00000E+00
 -1      4056 5.25000E-01-1.36228E+01 0.00000E+00
 -1      4057 6.76250E-01-1.43943E+01 0.00000E+00
 -1      4058 5.25000E-01-1.52438E+01 0.00000E+00
 -1      4059 6.76250E-01-1.60933E+01 0.00000E+00
 -1      4060 5.25000E-01-1.70291E+01 0.00000E+00
 -1      4061 6.76250E-01-1.79649E+01 0.00000E+00
 -1      4062 5.25000E-01-1.89825E+01 0.00000E+00
 -1      4063 6.76250E-01-2.00000E+01 0.00000E+00
 -1      4064 3.87500E-01 0.00000E+00 0.00000E+00
 -1      4065 2.50000E-01-1.25000E-01 0.00000E+00
 -1      4066 3.87500E-01-2.50000E-01 0.00000E+00
 -1      4067 2.50000E-01-3.87851E-01 0.00000E+00
 -1      4068 3.87500E-01-5.25703E-01 0.00000E+00
 -1      4069 2.50000E-01-6.77143E-01 0.00000E+00
 -1      4070 3.87500E-01-8.28584E-01 0.00000E+00
 -1      4071 2.50000E-01-9.95201E-01 0.00000E+00
 -1      4072 3.87500E-01-1.16182E+00 0.00000E+00
 -1      4073 2.50000E-01-1.34514E+00 0.00000E+00
 -1      4074 3.87500E-01-1.52845E+00 0.00000E+00
 -1      4075 2.50000E-01-1.73015E+00 0.00000E+00
 -1      4076 3.87500E-01-1.93185E+00 0.00000E+00
 -1      4077 2.50000E-01-2.15378E+00 0.00000E+00
 -1      4078 3.87500E-01-2.37570E+00 0.00000E+00
 -1      4079 2.50000E-01-2.61989E+00 0.00000E+00
 -1      4080 3.87500E-01-2.86408E+00 0.00000E+00
 -1      4081 2.50000E-01-3.13277E+00 0.00000E+00
 -1      4082 3.87500E-01-3.40146E+00 0.00000E+00
 -1      4083 2.50000E-01-3.69712E+00 0.00000E+00
 -1      4084 3.87500E-01-3.99279E+00 0.00000E+00
 -1      4085 2.50000E-01-4.31814E+00 0.00000E+00
 -1      4086 3.87500E-01-4.64350E+00 0.00000E+00
 -1      4087 2.50000E-01-5.00153E+00 0.00000E+00
 -1      4088 3.87500E-01-5.35957E+00 0.00000E+00
 -1      4089 2.50000E-01-5.75360E+00 0.00000E+00
 -1      4090 3.87500E-01-6.14762E+00 0.00000E+00
 -1      4091 2.50000E-01-6.58127E+00 0.00000E+00
 -1      4092 3.87500E-01-7.01491E+00 0.00000E+00
 -1      4093 2.50000E-01-7.49219E+00 0.00000E+00
 -1      4094 3.87500E-01-7.96946E+00 0.00000E+00
 -1      4095 2.50000E-01-8.49479E+00 0.00000E+00
 -1      4096 3.87500E-01-9.02012E+00 0.00000E+00
 -1      4097 2.50000E-01-9.59836E+00 0.00000E+00
 -1      4098 3.87500E-01-1.01766E+01 0.00000E+00
 -1      4099 2.50000E-01-1.08132E+01 0.00000E+00
 -1      4100 3.87500E-01-1.14497E+01 0.00000E+00
 -1      4101 2.50000E-01-1.21505E+01 0.00000E+00
 -1      4102 3.87500E-01-1.28512E+01 0.00000E+00
 -1      4103 2.50000E-01-1.36228E+01 0.00000E+00
 -1      4104 3.87500E-01-1.43943E+01 0.00000E+00
 -1      4105 2.50000E-01-1.52438E+01 0.00000E+00
 -1      4106 3.87500E-01-1.60933E+01 0.00000E+00
 -1      4107 2.50000E-01-1.70291E+01 0.00000E+00
 -1      4108 3.87500E-01-1.79649E+01 0.00000E+00
 -1      4109 2.50000E-01-1.89825E+01 0.00000E+00
 -1      4110 3.87500E-01-2.00000E+01 0.00000E+00
 -1      4111 1.25000E-01 0.00000E+00 0.00000E+00
 -1      4112 0.00000E+00-1.25000E-01 0.00000E+00
 -1      4113 1.25000E-01-2.50000E-01 0.00000E+00
 -1      4114 0.00000E+00-3.87851E-01 0.00000E+00
 -1      4115 1.25000E-01-5.25703E-01 0.00000E+00
 -1      4116 0.00000E+00-6.77143E-01 0.00000E+00
 -1      4117 1.25000E-01-8.28584E-01 0.00000E+00
 -1      4118 0.00000E+00-9.95201E-01 0.00000E+00
 -1      4119 1.25000E-01-1.16182E+00 0.00000E+00
 -1      4120 0.00000E+00-1.34514E+00 0.00000E+00
 -1      4121 1.25000E-01-1.52845E+00 0.00000E+00
 -1      4122 0.00000E+00-1.73015E+00 0.00000E+00
 -1      4123 1.25000E-01-1.93185E+00 0.00000E+00
 -1      4124 0.00000E+00-2.15378E+00 0.00000E+00
 -1      4125 1.25000E-01-2.37570E+00 0.00000E+00
 -1      4126 0.00000E+00-2.61989E+00 0.00000E+00
 -1      4127 1.25000E-01-2.86408E+00 0.00000E+00
 -1      4128 0.00000E+00-3.13277E+00 0.00000E+00
 -1      4129 1.25000E-01-3.40146E+00 0.00000E+00
 -1      4130 0.00000E+00-3.69712E+00 0.00000E+00
 -1      4131 1.25000E-01-3.99279E+00 0.00000E+00
 -1      4132 0.00000E+00-4.31814E+00 0.00000E+00
 -1      4133 1.25000E-01-4.64350E+00 0.00000E+00
 -1      4134 0.00000E+00-5.00153E+00 0.00000E+00
 -1      4135 1.25000E-01-5.35957E+00 0.00000E+00
 -1      4136 0.00000E+00-5.75360E+00 0.00000E+00
 -1      4137 1.25000E-01-6.14762E+00 0.00000E+00
 -1      4138 0.00000E+00-6.58127E+00 0.00000E+00
 -1      4139 1.25000E-01-7.01491E+00 0.00000E+00
 -1      4140 0.00000E+00-7.49219E+00 0.00000E+00
 -1      4141 1.25000E-01-7.96946E+00 0.00000E+00
 -1      4142 0.00000E+00-8.49479E+00 0.00000E+00
 -1      4143 1.25000E-01-9.02012E+00 0.00000E+00
 -1      4144 0.00000E+00-9.59836E+00 0.00000E+00
 -1      4145 1.25000E-01-1.01766E+01 0.00000E+00
 -1      4146 0.00000E+00-1.08132E+01 0.00000E+00
 -1      4147 1.25000E-01-1.14497E+01 0.00000E+00
 -1      4148 0.00000E+00-1.21505E+01 0.00000E+00
 -1      4149 1.25000E-01-1.28512E+01 0.00000E+00
 -1      4150 0.00000E+00-1.36228E+01 0.00000E+00
 -1      4151 1.25000E-01-1.43943E+01 0.00000E+00
 -1      4152 0.00000E+00-1.52438E+01 0.00000E+00
 -1      4153 1.25000E-01-1.60933E+01 0.00000E+00
 -1      4154 0.00000E+00-1.70291E+01 0.00000E+00
 -1      4155 1.25000E-01-1.79649E+01 0.00000E+00
 -1      4156 0.00000E+00-1.89825E+01 0.00000E+00
 -1      4157 1.25000E-01-2.00000E+01 0.00000E+00
 -3
    3C                          1334                                     1
 -1         1   10    0    1
 -2         5       111       182       160      1414      1415      1416      1417
 -1         2   10    0    1
 -2       160       182       183       161      1416      1418      1419      1420
 -1         3   10    0    1
 -2       161       183       184       162      1419      1421      1422      1423
 -1         4   10    0    1
 -2       162       184       185       163      1422      1424      1425      1426
 -1         5   10    0    1
 -2       163       185       186       164      1425      1427      1428      1429
 -1         6   10    0    1
 -2       164       186       187       165      1428      1430      1431      1432
 -1         7   10    0    1
 -2       165       187       188       166      1431      1433      1434      1435
 -1         8   10    0    1
 -2       166       188       189       167      1434      1436      1437      1438
 -1         9   10    0    1
 -2       167       189       190       168      1437      1439      1440      1441
 -1        10   10    0    1
 -2       168       190       191       169      1440      1442      1443      1444
 -1        11   10    0    1
 -2       169       191       192       170      1443      1445      1446      1447
 -1        12   10    0    1
 -2       170       192       193       171      1446      1448      1449      1450
 -1        13   10    0    1
 -2       171       193       194       172      1449      1451      1452      1453
 -1        14   10    0    1
 -2       172       194       195       173      1452      1454      1455      1456
 -1        15   10    0    1
 -2       173       195       196       174      1455      1457      1458      1459
 -1        16   10    0    1
 -2       174       196       197       175      1458      1460      1461      1462
 -1        17   10    0    1
 -2       175       197       198       176      1461      1463      1464      1465
 -1        18   10    0    1
 -2       176       198       199       177      1464      1466      1467      1468
 -1        19   10    0    1
 -2       177       199       200       178      1467      1469      1470      1471
 -1        20   10    0    1
 -2       178       200       201       179      1470      1472      1473      1474
 -1        21   10    0    1
 -2       179       201       202       180      1473      1475      1476      1477
 -1        22   10    0    1
 -2       180       202       203       181      1476      1478      1479      1480
 -1        23    8    0    1
 -2       181       203         7      1479      1481      1482
 -1        24   10    0    1
 -2       111       112       204       182      1483      1484      1485      1415
 -1        25   10    0    1
 -2       182       204       205       183      1485      1486      1487      1418
 -1        26   10    0    1
 -2       183       205       206       184      1487      1488      1489      1421
 -1        27   10    0    1
 -2       184       206       207       185      1489      1490      1491      1424
 -1        28   10    0    1
 -2       185       207       208       186      1491      1492      1493      1427
 -1        29   10    0    1
 -2       186       208       209       187      1493      1494      1495      1430
 -1        30   10    0    1
 -2       187       209       210       188      1495      1496      1497      1433
 -1        31   10    0    1
 -2       188       210       211       189      1497      1498      1499      1436
 -1        32   10    0    1
 -2       189       211       212       190      1499      1500      1501      1439
 -1        33   10    0    1
 -2       190       212       213       191      1501      1502      1503      1442
 -1        34   10    0    1
 -2       191       213       214       192      1503      1504      1505      1445
 -1        35   10    0    1
 -2       192       214       215       193      1505      1506      1507      1448
 -1        36   10    0    1
 -2       193       215       216       194      1507      1508      1509      1451
 -1        37   10    0    1
 -2       194       216       217       195      1509      1510      1511      1454
 -1        38   10    0    1
 -2       195       217       218       196      1511      1512      1513      1457
 -1        39   10    0    1
 -2       196       218       219       197      1513      1514      1515      1460
 -1        40   10    0    1
 -2       197       219       220       198      1515      1516      1517      1463
 -1        41   10    0    1
 -2       198       220       221       199      1517      1518      1519      1466
 -1        42   10    0    1
 -2       199       221       222       200      1519      1520      1521      1469
 -1        43   10    0    1
 -2       200       222       223       201      1521      1522      1523      1472
 -1        44   10    0    1
 -2       201       223       224       202      1523      1524      1525      1475
 -1        45   10    0    1
 -2       202       224       225       203      1525      1526      1527      1478
 -1        46    8    0    1
 -2       203       225         7      1527      1528      1481
 -1        47   10    0    1
 -2       112       113       226       204      1529      1530      1531      1484
 -1        48   10    0    1
 -2       204       226       227       205      1531      1532      1533      1486
 -1        49   10    0    1
 -2       205       227       228       206      1533      1534      1535      1488
 -1        50   10    0    1
 -2       206       228       229       207      1535      1536      1537      1490
 -1        51   10    0    1
 -2       207       229       230       208      1537      1538      1539      1492
 -1        52   10    0    1
 -2       208       230       231       209      1539      1540      1541      1494
 -1        53   10    0    1
 -2       209       231       232       210      1541      1542      1543      1496
 -1        54   10    0    1
 -2       210       232       233       211      1543      1544      1545      1498
 -1        55   10    0    1
 -2       211       233       234       212      1545      1546      1547      1500
 -1        56   10    0    1
 -2       212       234       235       213      1547      1548      1549      1502
 -1        57   10    0    1
 -2       213       235       236       214      1549      1550      1551      1504
 -1        58   10    0    1
 -2       214       236       237       215      1551      1552      1553      1506
 -1        59   10    0    1
 -2       215       237       238       216      1553      1554      1555      1508
 -1        60   10    0    1
 -2       216       238       239       217      1555      1556      1557      1510
 -1        61   10    0    1
 -2       217       239       240       218      1557      1558      1559      1512
 -1        62   10    0    1
 -2       218       240       241       219      1559      1560      1561      1514
 -1        63   10    0    1
 -2       219       241       242       220      1561      1562      1563      1516
 -1        64   10    0    1
 -2       220       242       243       221      1563      1564      1565      1518
 -1        65   10    0    1
 -2       221       243       244       222      1565      1566      1567      1520
 -1        66   10    0    1
 -2       222       244       245       223      1567      1568      1569      1522
 -1        67   10    0    1
 -2       223       245       246       224      1569      1570      1571      1524
 -1        68   10    0    1
 -2       224       246       247       225      1571      1572      1573      1526
 -1        69    8    0    1
 -2       225       247         7      1573      1574      1528
 -1        70   10    0    1
 -2       113       114       248       226      1575      1576      1577      1530
 -1        71   10    0    1
 -2       226       248       249       227      1577      1578      1579      1532
 -1        72   10    0    1
 -2       227       249       250       228      1579      1580      1581      1534
 -1        73   10    0    1
 -2       228       250       251       229      1581      1582      1583      1536
 -1        74   10    0    1
 -2       229       251       252       230      1583      1584      1585      1538
 -1        75   10    0    1
 -2       230       252       253       231      1585      1586      1587      1540
 -1        76   10    0    1
 -2       231       253       254       232      1587      1588      1589      1542
 -1        77   10    0    1
 -2       232       254       255       233      1589      1590      1591      1544
 -1        78   10    0    1
 -2       233       255       256       234      1591      1592      1593      1546
 -1        79   10    0    1
 -2       234       256       257       235      1593      1594      1595      1548
 -1        80   10    0    1
 -2       235       257       258       236      1595      1596      1597      1550
 -1        81   10    0    1
 -2       236       258       259       237      1597      1598      1599      1552
 -1        82   10    0    1
 -2       237       259       260       238      1599      1600      1601      1554
 -1        83   10    0    1
 -2       238       260       261       239      1601      1602      1603      1556
 -1        84   10    0    1
 -2       239       261       262       240      1603      1604      1605      1558
 -1        85   10    0    1
 -2       240       262       263       241      1605      1606      1607      1560
 -1        86   10    0    1
 -2       241       263       264       242      1607      1608      1609      1562
 -1        87   10    0    1
 -2       242       264       265       243      1609      1610      1611      1564
 -1        88   10    0    1
 -2       243       265       266       244      1611      1612      1613      1566
 -1        89   10    0    1
 -2       244       266       267       245      1613      1614      1615      1568
 -1        90   10    0    1
 -2       245       267       268       246      1615      1616      1617      1570
 -1        91   10    0    1
 -2       246       268       269       247      1617      1618      1619      1572
 -1        92    8    0    1
 -2       247       269         7      1619      1620      1574
 -1        93   10    0    1
 -2       114       115       270       248      1621      1622      1623      1576
 -1        94   10    0    1
 -2       248       270       271       249      1623      1624      1625      1578
 -1        95   10    0    1
 -2       249       271       272       250      1625      1626      1627      1580
 -1        96   10    0    1
 -2       250       272       273       251      1627      1628      1629      1582
 -1        97   10    0    1
 -2       251       273       274       252      1629      1630      1631      1584
 -1        98   10    0    1
 -2       252       274       275       253      1631      1632      1633      1586
 -1        99   10    0    1
 -2       253       275       276       254      1633      1634      1635      1588
 -1       100   10    0    1
 -2       254       276       277       255      1635      1636      1637      1590
 -1       101   10    0    1
 -2       255       277       278       256      1637      1638      1639      1592
 -1       102   10    0    1
 -2       256       278       279       257      1639      1640      1641      1594
 -1       103   10    0    1
 -2       257       279       280       258      1641      1642      1643      1596
 -1       104   10    0    1
 -2       258       280       281       259      1643      1644      1645      1598
 -1       105   10    0    1
 -2       259       281       282       260      1645      1646      1647      1600
 -1       106   10    0    1
 -2       260       282       283       261      1647      1648      1649      1602
 -1       107   10    0    1
 -2       261       283       284       262      1649      1650      1651      1604
 -1       108   10    0    1
 -2       262       284       285       263      1651      1652      1653      1606
 -1       109   10    0    1
 -2       263       285       286       264      1653      1654      1655      1608
 -1       110   10    0    1
 -2       264       286       287       265      1655      1656      1657      1610
 -1       111   10    0    1
 -2       265       287       288       266      1657      1658      1659      1612
 -1       112   10    0    1
 -2       266       288       289       267      1659      1660      1661      1614
 -1       113   10    0    1
 -2       267       289       290       268      1661      1662      1663      1616
 -1       114   10    0    1
 -2       268       290       291       269      1663      1664      1665      1618
 -1       115    8    0    1
 -2       269       291         7      1665      1666      1620
 -1       116   10    0    1
 -2       115       116       292       270      1667      1668      1669      1622
 -1       117   10    0    1
 -2       270       292       293       271      1669      1670      1671      1624
 -1       118   10    0    1
 -2       271       293       294       272      1671      1672      1673      1626
 -1       119   10    0    1
 -2       272       294       295       273      1673      1674      1675      1628
 -1       120   10    0    1
 -2       273       295       296       274      1675      1676      1677      1630
 -1       121   10    0    1
 -2       274       296       297       275      1677      1678      1679      1632
 -1       122   10    0    1
 -2       275       297       298       276      1679      1680      1681      1634
 -1       123   10    0    1
 -2       276       298       299       277      1681      1682      1683      1636
 -1       124   10    0    1
 -2       277       299       300       278      1683      1684      1685      1638
 -1       125   10    0    1
 -2       278       300       301       279      1685      1686      1687      1640
 -1       126   10    0    1
 -2       279       301       302       280      1687      1688      1689      1642
 -1       127   10    0    1
 -2       280       302       303       281      1689      1690      1691      1644
 -1       128   10    0    1
 -2       281       303       304       282      1691      1692      1693      1646
 -1       129   10    0    1
 -2       282       304       305       283      1693      1694      1695      1648
 -1       130   10    0    1
 -2       283       305       306       284      1695      1696      1697      1650
 -1       131   10    0    1
 -2       284       306       307       285      1697      1698      1699      1652
 -1       132   10    0    1
 -2       285       307       308       286      1699      1700      1701      1654
 -1       133   10    0    1
 -2       286       308       309       287      1701      1702      1703      1656
 -1       134   10    0    1
 -2       287       309       310       288      1703      1704      1705      1658
 -1       135   10    0    1
 -2       288       310       311       289      1705      1706      1707      1660
 -1       136   10    0    1
 -2       289       311       312       290      1707      1708      1709      1662
 -1       137   10    0    1
 -2       290       312       313       291      1709      1710      1711      1664
 -1       138    8    0    1
 -2       291       313         7      1711      1712      1666
 -1       139   10    0    1
 -2       116       117       314       292      1713      1714      1715      1668
 -1       140   10    0    1
 -2       292       314       315       293      1715      1716      1717      1670
 -1       141   10    0    1
 -2       293       315       316       294      1717      1718      1719      1672
 -1       142   10    0    1
 -2       294       316       317       295      1719      1720      1721      1674
 -1       143   10    0    1
 -2       295       317       318       296      1721      1722      1723      1676
 -1       144   10    0    1
 -2       296       318       319       297      1723      1724      1725      1678
 -1       145   10    0    1
 -2       297       319       320       298      1725      1726      1727      1680
 -1       146   10    0    1
 -2       298       320       321       299      1727      1728      1729      1682
 -1       147   10    0    1
 -2       299       321       322       300      1729      1730      1731      1684
 -1       148   10    0    1
 -2       300       322       323       301      1731      1732      1733      1686
 -1       149   10    0    1
 -2       301       323       324       302      1733      1734      1735      1688
 -1       150   10    0    1
 -2       302       324       325       303      1735      1736      1737      1690
 -1       151   10    0    1
 -2       303       325       326       304      1737      1738      1739      1692
 -1       152   10    0    1
 -2       304       326       327       305      1739      1740      1741      1694
 -1       153   10    0    1
 -2       305       327       328       306      1741      1742      1743      1696
 -1       154   10    0    1
 -2       306       328       329       307      1743      1744      1745      1698
 -1       155   10    0    1
 -2       307       329       330       308      1745      1746      1747      1700
 -1       156   10    0    1
 -2       308       330       331       309      1747      1748      1749      1702
 -1       157   10    0    1
 -2       309       331       332       310      1749      1750      1751      1704
 -1       158   10    0    1
 -2       310       332       333       311      1751      1752      1753      1706
 -1       159   10    0    1
 -2       311       333       334       312      1753      1754      1755      1708
 -1       160   10    0    1
 -2       312       334       335       313      1755      1756      1757      1710
 -1       161    8    0    1
 -2       313       335         7      1757      1758      1712
 -1       162   10    0    1
 -2       117       118       336       314      1759      1760      1761      1714
 -1       163   10    0    1
 -2       314       336       337       315      1761      1762      1763      1716
 -1       164   10    0    1
 -2       315       337       338       316      1763      1764      1765      1718
 -1       165   10    0    1
 -2       316       338       339       317      1765      1766      1767      1720
 -1       166   10    0    1
 -2       317       339       340       318      1767      1768      1769      1722
 -1       167   10    0    1
 -2       318       340       341       319      1769      1770      1771      1724
 -1       168   10    0    1
 -2       319       341       342       320      1771      1772      1773      1726
 -1       169   10    0    1
 -2       320       342       343       321      1773      1774      1775      1728
 -1       170   10    0    1
 -2       321       343       344       322      1775      1776      1777      1730
 -1       171   10    0    1
 -2       322       344       345       323      1777      1778      1779      1732
 -1       172   10    0    1
 -2       323       345       346       324      1779      1780      1781      1734
 -1       173   10    0    1
 -2       324       346       347       325      1781      1782      1783      1736
 -1       174   10    0    1
 -2       325       347       348       326      1783      1784      1785      1738
 -1       175   10    0    1
 -2       326       348       349       327      1785      1786      1787      1740
 -1       176   10    0    1
 -2       327       349       350       328      1787      1788      1789      1742
 -1       177   10    0    1
 -2       328       350       351       329      1789      1790      1791      1744
 -1       178   10    0    1
 -2       329       351       352       330      1791      1792      1793      1746
 -1       179   10    0    1
 -2       330       352       353       331      1793      1794      1795      1748
 -1       180   10    0    1
 -2       331       353       354       332      1795      1796      1797      1750
 -1       181   10    0    1
 -2       332       354       355       333      1797      1798      1799      1752
 -1       182   10    0    1
 -2       333       355       356       334      1799      1800      1801      1754
 -1       183   10    0    1
 -2       334       356       357       335      1801      1802      1803      1756
 -1       184    8    0    1
 -2       335       357         7      1803      1804      1758
 -1       185   10    0    1
 -2       118       119       358       336      1805      1806      1807      1760
 -1       186   10    0    1
 -2       336       358       359       337      1807      1808      1809      1762
 -1       187   10    0    1
 -2       337       359       360       338      1809      1810      1811      1764
 -1       188   10    0    1
 -2       338       360       361       339      1811      1812      1813      1766
 -1       189   10    0    1
 -2       339       361       362       340      1813      1814      1815      1768
 -1       190   10    0    1
 -2       340       362       363       341      1815      1816      1817      1770
 -1       191   10    0    1
 -2       341       363       364       342      1817      1818      1819      1772
 -1       192   10    0    1
 -2       342       364       365       343      1819      1820      1821      1774
 -1       193   10    0    1
 -2       343       365       366       344      1821      1822      1823      1776
 -1       194   10    0    1
 -2       344       366       367       345      1823      1824      1825      1778
 -1       195   10    0    1
 -2       345       367       368       346      1825      1826      1827      1780
 -1       196   10    0    1
 -2       346       368       369       347      1827      1828      1829      1782
 -1       197   10    0    1
 -2       347       369       370       348      1829      1830      1831      1784
 -1       198   10    0    1
 -2       348       370       371       349      1831      1832      1833      1786
 -1       199   10    0    1
 -2       349       371       372       350      1833      1834      1835      1788
 -1       200   10    0    1
 -2       350       372       373       351      1835      1836      1837      1790
 -1       201   10    0    1
 -2       351       373       374       352      1837      1838      1839      1792
 -1       202   10    0    1
 -2       352       374       375       353      1839      1840      1841      1794
 -1       203   10    0    1
 -2       353       375       376       354      1841      1842      1843      1796
 -1       204   10    0    1
 -2       354       376       377       355      1843      1844      1845      1798
 -1       205   10    0    1
 -2       355       377       378       356      1845      1846      1847      1800
 -1       206   10    0    1
 -2       356       378       379       357      1847      1848      1849      1802
 -1       207    8    0    1
 -2       357       379         7      1849      1850      1804
 -1       208   10    0    1
 -2       119       120       380       358      1851      1852      1853      1806
 -1       209   10    0    1
 -2       358       380       381       359      1853      1854      1855      1808
 -1       210   10    0    1
 -2       359       381       382       360      1855      1856      1857      1810
 -1       211   10    0    1
 -2       360       382       383       361      1857      1858      1859      1812
 -1       212   10    0    1
 -2       361       383       384       362      1859      1860      1861      1814
 -1       213   10    0    1
 -2       362       384       385       363      1861      1862      1863      1816
 -1       214   10    0    1
 -2       363       385       386       364      1863      1864      1865      1818
 -1       215   10    0    1
 -2       364       386       387       365      1865      1866      1867      1820
 -1       216   10    0    1
 -2       365       387       388       366      1867      1868      1869      1822
 -1       217   10    0    1
 -2       366       388       389       367      1869      1870      1871      1824
 -1       218   10    0    1
 -2       367       389       390       368      1871      1872      1873      1826
 -1       219   10    0    1
 -2       368       390       391       369      1873      1874      1875      1828
 -1       220   10    0    1
 -2       369       391       392       370      1875      1876      1877      1830
 -1       221   10    0    1
 -2       370       392       393       371      1877      1878      1879      1832
 -1       222   10    0    1
 -2       371       393       394       372      1879      1880      1881      1834
 -1       223   10    0    1
 -2       372       394       395       373      1881      1882      1883      1836
 -1       224   10    0    1
 -2       373       395       396       374      1883      1884      1885      1838
 -1       225   10    0    1
 -2       374       396       397       375      1885      1886      1887      1840
 -1       226   10    0    1
 -2       375       397       398       376      1887      1888      1889      1842
 -1       227   10    0    1
 -2       376       398       399       377      1889      1890      1891      1844
 -1       228   10    0    1
 -2       377       399       400       378      1891      1892      1893      1846
 -1       229   10    0    1
 -2       378       400       401       379      1893      1894      1895      1848
 -1       230    8    0    1
 -2       379       401         7      1895      1896      1850
 -1       231   10    0    1
 -2       120       121       402       380      1897      1898      1899      1852
 -1       232   10    0    1
 -2       380       402       403       381      1899      1900      1901      1854
 -1       233   10    0    1
 -2       381       403       404       382      1901      1902      1903      1856
 -1       234   10    0    1
 -2       382       404       405       383      1903      1904      1905      1858
 -1       235   10    0    1
 -2       383       405       406       384      1905      1906      1907      1860
 -1       236   10    0    1
 -2       384       406       407       385      1907      1908      1909      1862
 -1       237   10    0    1
 -2       385       407       408       386      1909      1910      1911      1864
 -1       238   10    0    1
 -2       386       408       409       387      1911      1912      1913      1866
 -1       239   10    0    1
 -2       387       409       410       388      1913      1914      1915      1868
 -1       240   10    0    1
 -2       388       410       411       389      1915      1916      1917      1870
 -1       241   10    0    1
 -2       389       411       412       390      1917      1918      1919      1872
 -1       242   10    0    1
 -2       390       412       413       391      1919      1920      1921      1874
 -1       243   10    0    1
 -2       391       413       414       392      1921      1922      1923      1876
 -1       244   10    0    1
 -2       392       414       415       393      1923      1924      1925      1878
 -1       245   10    0    1
 -2       393       415       416       394      1925      1926      1927      1880
 -1       246   10    0    1
 -2       394       416       417       395      1927      1928      1929      1882
 -1       247   10    0    1
 -2       395       417       418       396      1929      1930      1931      1884
 -1       248   10    0    1
 -2       396       418       419       397      1931      1932      1933      1886
 -1       249   10    0    1
 -2       397       419       420       398      1933      1934      1935      1888
 -1       250   10    0    1
 -2       398       420       421       399      1935      1936      1937      1890
 -1       251   10    0    1
 -2       399       421       422       400      1937      1938      1939      1892
 -1       252   10    0    1
 -2       400       422       423       401      1939      1940      1941      1894
 -1       253    8    0    1
 -2       401       423         7      1941      1942      1896
 -1       254   10    0    1
 -2       121       122       424       402      1943      1944      1945      1898
 -1       255   10    0    1
 -2       402       424       425       403      1945      1946      1947      1900
 -1       256   10    0    1
 -2       403       425       426       404      1947      1948      1949      1902
 -1       257   10    0    1
 -2       404       426       427       405      1949      1950      1951      1904
 -1       258   10    0    1
 -2       405       427       428       406      1951      1952      1953      1906
 -1       259   10    0    1
 -2       406       428       429       407      1953      1954      1955      1908
 -1       260   10    0    1
 -2       407       429       430       408      1955      1956      1957      1910
 -1       261   10    0    1
 -2       408       430       431       409      1957      1958      1959      1912
 -1       262   10    0    1
 -2       409       431       432       410      1959      1960      1961      1914
 -1       263   10    0    1
 -2       410       432       433       411      1961      1962      1963      1916
 -1       264   10    0    1
 -2       411       433       434       412      1963      1964      1965      1918
 -1       265   10    0    1
 -2       412       434       435       413      1965      1966      1967      1920
 -1       266   10    0    1
 -2       413       435       436       414      1967      1968      1969      1922
 -1       267   10    0    1
 -2       414       436       437       415      1969      1970      1971      1924
 -1       268   10    0    1
 -2       415       437       438       416      1971      1972      1973      1926
 -1       269   10    0    1
 -2       416       438       439       417      1973      1974      1975      1928
 -1       270   10    0    1
 -2       417       439       440       418      1975      1976      1977      1930
 -1       271   10    0    1
 -2       418       440       441       419      1977      1978      1979      1932
 -1       272   10    0    1
 -2       419       441       442       420      1979      1980      1981      1934
 -1       273   10    0    1
 -2       420       442       443       421      1981      1982      1983      1936
 -1       274   10    0    1
 -2       421       443       444       422      1983      1984      1985      1938
 -1       275   10    0    1
 -2       422       444       445       423      1985      1986      1987      1940
 -1       276    8    0    1
 -2       423       445         7      1987      1988      1942
 -1       277   10    0    1
 -2       122       123       446       424      1989      1990      1991      1944
 -1       278   10    0    1
 -2       424       446       447       425      1991      1992      1993      1946
 -1       279   10    0    1
 -2       425       447       448       426      1993      1994      1995      1948
 -1       280   10    0    1
 -2       426       448       449       427      1995      1996      1997      1950
 -1       281   10    0    1
 -2       427       449       450       428      1997      1998      1999      1952
 -1       282   10    0    1
 -2       428       450       451       429      1999      2000      2001      1954
 -1       283   10    0    1
 -2       429       451       452       430      2001      2002      2003      1956
 -1       284   10    0    1
 -2       430       452       453       431      2003      2004      2005      1958
 -1       285   10    0    1
 -2       431       453       454       432      2005      2006      2007      1960
 -1       286   10    0    1
 -2       432       454       455       433      2007      2008      2009      1962
 -1       287   10    0    1
 -2       433       455       456       434      2009      2010      2011      1964
 -1       288   10    0    1
 -2       434       456       457       435      2011      2012      2013      1966
 -1       289   10    0    1
 -2       435       457       458       436      2013      2014      2015      1968
 -1       290   10    0    1
 -2       436       458       459       437      2015      2016      2017      1970
 -1       291   10    0    1
 -2       437       459       460       438      2017      2018      2019      1972
 -1       292   10    0    1
 -2       438       460       461       439      2019      2020      2021      1974
 -1       293   10    0    1
 -2       439       461       462       440      2021      2022      2023      1976
 -1       294   10    0    1
 -2       440       462       463       441      2023      2024      2025      1978
 -1       295   10    0    1
 -2       441       463       464       442      2025      2026      2027      1980
 -1       296   10    0    1
 -2       442       464       465       443      2027      2028      2029      1982
 -1       297   10    0    1
 -2       443       465       466       444      2029      2030      2031      1984
 -1       298   10    0    1
 -2       444       466       467       445      2031      2032      2033      1986
 -1       299    8    0    1
 -2       445       467         7      2033      2034      1988
 -1       300   10    0    1
 -2       123       124       468       446      2035      2036      2037      1990
 -1       301   10    0    1
 -2       446       468       469       447      2037      2038      2039      1992
 -1       302   10    0    1
 -2       447       469       470       448      2039      2040      2041      1994
 -1       303   10    0    1
 -2       448       470       471       449      2041      2042      2043      1996
 -1       304   10    0    1
 -2       449       471       472       450      2043      2044      2045      1998
 -1       305   10    0    1
 -2       450       472       473       451      2045      2046      2047      2000
 -1       306   10    0    1
 -2       451       473       474       452      2047      2048      2049      2002
 -1       307   10    0    1
 -2       452       474       475       453      2049      2050      2051      2004
 -1       308   10    0    1
 -2       453       475       476       454      2051      2052      2053      2006
 -1       309   10    0    1
 -2       454       476       477       455      2053      2054      2055      2008
 -1       310   10    0    1
 -2       455       477       478       456      2055      2056      2057      2010
 -1       311   10    0    1
 -2       456       478       479       457      2057      2058      2059      2012
 -1       312   10    0    1
 -2       457       479       480       458      2059      2060      2061      2014
 -1       313   10    0    1
 -2       458       480       481       459      2061      2062      2063      2016
 -1       314   10    0    1
 -2       459       481       482       460      2063      2064      2065      2018
 -1       315   10    0    1
 -2       460       482       483       461      2065      2066      2067      2020
 -1       316   10    0    1
 -2       461       483       484       462      2067      2068      2069      2022
 -1       317   10    0    1
 -2       462       484       485       463      2069      2070      2071      2024
 -1       318   10    0    1
 -2       463       485       486       464      2071      2072      2073      2026
 -1       319   10    0    1
 -2       464       486       487       465      2073      2074      2075      2028
 -1       320   10    0    1
 -2       465       487       488       466      2075      2076      2077      2030
 -1       321   10    0    1
 -2       466       488       489       467      2077      2078      2079      2032
 -1       322    8    0    1
 -2       467       489         7      2079      2080      2034
 -1       323   10    0    1
 -2       124       125       490       468      2081      2082      2083      2036
 -1       324   10    0    1
 -2       468       490       491       469      2083      2084      2085      2038
 -1       325   10    0    1
 -2       469       491       492       470      2085      2086      2087      2040
 -1       326   10    0    1
 -2       470       492       493       471      2087      2088      2089      2042
 -1       327   10    0    1
 -2       471       493       494       472      2089      2090      2091      2044
 -1       328   10    0    1
 -2       472       494       495       473      2091      2092      2093      2046
 -1       329   10    0    1
 -2       473       495       496       474      2093      2094      2095      2048
 -1       330   10    0    1
 -2       474       496       497       475      2095      2096      2097      2050
 -1       331   10    0    1
 -2       475       497       498       476      2097      2098      2099      2052
 -1       332   10    0    1
 -2       476       498       499       477      2099      2100      2101      2054
 -1       333   10    0    1
 -2       477       499       500       478      2101      2102      2103      2056
 -1       334   10    0    1
 -2       478       500       501       479      2103      2104      2105      2058
 -1       335   10    0    1
 -2       479       501       502       480      2105      2106      2107      2060
 -1       336   10    0    1
 -2       480       502       503       481      2107      2108      2109      2062
 -1       337   10    0    1
 -2       481       503       504       482      2109      2110      2111      2064
 -1       338   10    0    1
 -2       482       504       505       483      2111      2112      2113      2066
 -1       339   10    0    1
 -2       483       505       506       484      2113      2114      2115      2068
 -1       340   10    0    1
 -2       484       506       507       485      2115      2116      2117      2070
 -1       341   10    0    1
 -2       485       507       508       486      2117      2118      2119      2072
 -1       342   10    0    1
 -2       486       508       509       487      2119      2120      2121      2074
 -1       343   10    0    1
 -2       487       509       510       488      2121      2122      2123      2076
 -1       344   10    0    1
 -2       488       510       511       489      2123      2124      2125      2078
 -1       345    8    0    1
 -2       489       511         7      2125      2126      2080
 -1       346   10    0    1
 -2       125       126       512       490      2127      2128      2129      2082
 -1       347   10    0    1
 -2       490       512       513       491      2129      2130      2131      2084
 -1       348   10    0    1
 -2       491       513       514       492      2131      2132      2133      2086
 -1       349   10    0    1
 -2       492       514       515       493      2133      2134      2135      2088
 -1       350   10    0    1
 -2       493       515       516       494      2135      2136      2137      2090
 -1       351   10    0    1
 -2       494       516       517       495      2137      2138      2139      2092
 -1       352   10    0    1
 -2       495       517       518       496      2139      2140      2141      2094
 -1       353   10    0    1
 -2       496       518       519       497      2141      2142      2143      2096
 -1       354   10    0    1
 -2       497       519       520       498      2143      2144      2145      2098
 -1       355   10    0    1
 -2       498       520       521       499      2145      2146      2147      2100
 -1       356   10    0    1
 -2       499       521       522       500      2147      2148      2149      2102
 -1       357   10    0    1
 -2       500       522       523       501      2149      2150      2151      2104
 -1       358   10    0    1
 -2       501       523       524       502      2151      2152      2153      2106
 -1       359   10    0    1
 -2       502       524       525       503      2153      2154      2155      2108
 -1       360   10    0    1
 -2       503       525       526       504      2155      2156      2157      2110
 -1       361   10    0    1
 -2       504       526       527       505      2157      2158      2159      2112
 -1       362   10    0    1
 -2       505       527       528       506      2159      2160      2161      2114
 -1       363   10    0    1
 -2       506       528       529       507      2161      2162      2163      2116
 -1       364   10    0    1
 -2       507       529       530       508      2163      2164      2165      2118
 -1       365   10    0    1
 -2       508       530       531       509      2165      2166      2167      2120
 -1       366   10    0    1
 -2       509       531       532       510      2167      2168      2169      2122
 -1       367   10    0    1
 -2       510       532       533       511      2169      2170      2171      2124
 -1       368    8    0    1
 -2       511       533         7      2171      2172      2126
 -1       369   10    0    1
 -2       126       127       534       512      2173      2174      2175      2128
 -1       370   10    0    1
 -2       512       534       535       513      2175      2176      2177      2130
 -1       371   10    0    1
 -2       513       535       536       514      2177      2178      2179      2132
 -1       372   10    0    1
 -2       514       536       537       515      2179      2180      2181      2134
 -1       373   10    0    1
 -2       515       537       538       516      2181      2182      2183      2136
 -1       374   10    0    1
 -2       516       538       539       517      2183      2184      2185      2138
 -1       375   10    0    1
 -2       517       539       540       518      2185      2186      2187      2140
 -1       376   10    0    1
 -2       518       540       541       519      2187      2188      2189      2142
 -1       377   10    0    1
 -2       519       541       542       520      2189      2190      2191      2144
 -1       378   10    0    1
 -2       520       542       543       521      2191      2192      2193      2146
 -1       379   10    0    1
 -2       521       543       544       522      2193      2194      2195      2148
 -1       380   10    0    1
 -2       522       544       545       523      2195      2196      2197      2150
 -1       381   10    0    1
 -2       523       545       546       524      2197      2198      2199      2152
 -1       382   10    0    1
 -2       524       546       547       525      2199      2200      2201      2154
 -1       383   10    0    1
 -2       525       547       548       526      2201      2202      2203      2156
 -1       384   10    0    1
 -2       526       548       549       527      2203      2204      2205      2158
 -1       385   10    0    1
 -2       527       549       550       528      2205      2206      2207      2160
 -1       386   10    0    1
 -2       528       550       551       529      2207      2208      2209      2162
 -1       387   10    0    1
 -2       529       551       552       530      2209      2210      2211      2164
 -1       388   10    0    1
 -2       530       552       553       531      2211      2212      2213      2166
 -1       389   10    0    1
 -2       531       553       554       532      2213      2214      2215      2168
 -1       390   10    0    1
 -2       532       554       555       533      2215      2216      2217      2170
 -1       391    8    0    1
 -2       533       555         7      2217      2218      2172
 -1       392   10    0    1
 -2       127       128       556       534      2219      2220      2221      2174
 -1       393   10    0    1
 -2       534       556       557       535      2221      2222      2223      2176
 -1       394   10    0    1
 -2       535       557       558       536      2223      2224      2225      2178
 -1       395   10    0    1
 -2       536       558       559       537      2225      2226      2227      2180
 -1       396   10    0    1
 -2       537       559       560       538      2227      2228      2229      2182
 -1       397   10    0    1
 -2       538       560       561       539      2229      2230      2231      2184
 -1       398   10    0    1
 -2       539       561       562       540      2231      2232      2233      2186
 -1       399   10    0    1
 -2       540       562       563       541      2233      2234      2235      2188
 -1       400   10    0    1
 -2       541       563       564       542      2235      2236      2237      2190
 -1       401   10    0    1
 -2       542       564       565       543      2237      2238      2239      2192
 -1       402   10    0    1
 -2       543       565       566       544      2239      2240      2241      2194
 -1       403   10    0    1
 -2       544       566       567       545      2241      2242      2243      2196
 -1       404   10    0    1
 -2       545       567       568       546      2243      2244      2245      2198
 -1       405   10    0    1
 -2       546       568       569       547      2245      2246      2247      2200
 -1       406   10    0    1
 -2       547       569       570       548      2247      2248      2249      2202
 -1       407   10    0    1
 -2       548       570       571       549      2249      2250      2251      2204
 -1       408   10    0    1
 -2       549       571       572       550      2251      2252      2253      2206
 -1       409   10    0    1
 -2       550       572       573       551      2253      2254      2255      2208
 -1       410   10    0    1
 -2       551       573       574       552      2255      2256      2257      2210
 -1       411   10    0    1
 -2       552       574       575       553      2257      2258      2259      2212
 -1       412   10    0    1
 -2       553       575       576       554      2259      2260      2261      2214
 -1       413   10    0    1
 -2       554       576       577       555      2261      2262      2263      2216
 -1       414    8    0    1
 -2       555       577         7      2263      2264      2218
 -1       415   10    0    1
 -2       128       129       578       556      2265      2266      2267      2220
 -1       416   10    0    1
 -2       556       578       579       557      2267      2268      2269      2222
 -1       417   10    0    1
 -2       557       579       580       558      2269      2270      2271      2224
 -1       418   10    0    1
 -2       558       580       581       559      2271      2272      2273      2226
 -1       419   10    0    1
 -2       559       581       582       560      2273      2274      2275      2228
 -1       420   10    0    1
 -2       560       582       583       561      2275      2276      2277      2230
 -1       421   10    0    1
 -2       561       583       584       562      2277      2278      2279      2232
 -1       422   10    0    1
 -2       562       584       585       563      2279      2280      2281      2234
 -1       423   10    0    1
 -2       563       585       586       564      2281      2282      2283      2236
 -1       424   10    0    1
 -2       564       586       587       565      2283      2284      2285      2238
 -1       425   10    0    1
 -2       565       587       588       566      2285      2286      2287      2240
 -1       426   10    0    1
 -2       566       588       589       567      2287      2288      2289      2242
 -1       427   10    0    1
 -2       567       589       590       568      2289      2290      2291      2244
 -1       428   10    0    1
 -2       568       590       591       569      2291      2292      2293      2246
 -1       429   10    0    1
 -2       569       591       592       570      2293      2294      2295      2248
 -1       430   10    0    1
 -2       570       592       593       571      2295      2296      2297      2250
 -1       431   10    0    1
 -2       571       593       594       572      2297      2298      2299      2252
 -1       432   10    0    1
 -2       572       594       595       573      2299      2300      2301      2254
 -1       433   10    0    1
 -2       573       595       596       574      2301      2302      2303      2256
 -1       434   10    0    1
 -2       574       596       597       575      2303      2304      2305      2258
 -1       435   10    0    1
 -2       575       597       598       576      2305      2306      2307      2260
 -1       436   10    0    1
 -2       576       598       599       577      2307      2308      2309      2262
 -1       437    8    0    1
 -2       577       599         7      2309      2310      2264
 -1       438   10    0    1
 -2       129       130       600       578      2311      2312      2313      2266
 -1       439   10    0    1
 -2       578       600       601       579      2313      2314      2315      2268
 -1       440   10    0    1
 -2       579       601       602       580      2315      2316      2317      2270
 -1       441   10    0    1
 -2       580       602       603       581      2317      2318      2319      2272
 -1       442   10    0    1
 -2       581       603       604       582      2319      2320      2321      2274
 -1       443   10    0    1
 -2       582       604       605       583      2321      2322      2323      2276
 -1       444   10    0    1
 -2       583       605       606       584      2323      2324      2325      2278
 -1       445   10    0    1
 -2       584       606       607       585      2325      2326      2327      2280
 -1       446   10    0    1
 -2       585       607       608       586      2327      2328      2329      2282
 -1       447   10    0    1
 -2       586       608       609       587      2329      2330      2331      2284
 -1       448   10    0    1
 -2       587       609       610       588      2331      2332      2333      2286
 -1       449   10    0    1
 -2       588       610       611       589      2333      2334      2335      2288
 -1       450   10    0    1
 -2       589       611       612       590      2335      2336      2337      2290
 -1       451   10    0    1
 -2       590       612       613       591      2337      2338      2339      2292
 -1       452   10    0    1
 -2       591       613       614       592      2339      2340      2341      2294
 -1       453   10    0    1
 -2       592       614       615       593      2341      2342      2343      2296
 -1       454   10    0    1
 -2       593       615       616       594      2343      2344      2345      2298
 -1       455   10    0    1
 -2       594       616       617       595      2345      2346      2347      2300
 -1       456   10    0    1
 -2       595       617       618       596      2347      2348      2349      2302
 -1       457   10    0    1
 -2       596       618       619       597      2349      2350      2351      2304
 -1       458   10    0    1
 -2       597       619       620       598      2351      2352      2353      2306
 -1       459   10    0    1
 -2       598       620       621       599      2353      2354      2355      2308
 -1       460    8    0    1
 -2       599       621         7      2355      2356      2310
 -1       461   10    0    1
 -2       130       131       622       600      2357      2358      2359      2312
 -1       462   10    0    1
 -2       600       622       623       601      2359      2360      2361      2314
 -1       463   10    0    1
 -2       601       623       624       602      2361      2362      2363      2316
 -1       464   10    0    1
 -2       602       624       625       603      2363      2364      2365      2318
 -1       465   10    0    1
 -2       603       625       626       604      2365      2366      2367      2320
 -1       466   10    0    1
 -2       604       626       627       605      2367      2368      2369      2322
 -1       467   10    0    1
 -2       605       627       628       606      2369      2370      2371      2324
 -1       468   10    0    1
 -2       606       628       629       607      2371      2372      2373      2326
 -1       469   10    0    1
 -2       607       629       630       608      2373      2374      2375      2328
 -1       470   10    0    1
 -2       608       630       631       609      2375      2376      2377      2330
 -1       471   10    0    1
 -2       609       631       632       610      2377      2378      2379      2332
 -1       472   10    0    1
 -2       610       632       633       611      2379      2380      2381      2334
 -1       473   10    0    1
 -2       611       633       634       612      2381      2382      2383      2336
 -1       474   10    0    1
 -2       612       634       635       613      2383      2384      2385      2338
 -1       475   10    0    1
 -2       613       635       636       614      2385      2386      2387      2340
 -1       476   10    0    1
 -2       614       636       637       615      2387      2388      2389      2342
 -1       477   10    0    1
 -2       615       637       638       616      2389      2390      2391      2344
 -1       478   10    0    1
 -2       616       638       639       617      2391      2392      2393      2346
 -1       479   10    0    1
 -2       617       639       640       618      2393      2394      2395      2348
 -1       480   10    0    1
 -2       618       640       641       619      2395      2396      2397      2350
 -1       481   10    0    1
 -2       619       641       642       620      2397      2398      2399      2352
 -1       482   10    0    1
 -2       620       642       643       621      2399      2400      2401      2354
 -1       483    8    0    1
 -2       621       643         7      2401      2402      2356
 -1       484   10    0    1
 -2       131       132       644       622      2403      2404      2405      2358
 -1       485   10    0    1
 -2       622       644       645       623      2405      2406      2407      2360
 -1       486   10    0    1
 -2       623       645       646       624      2407      2408      2409      2362
 -1       487   10    0    1
 -2       624       646       647       625      2409      2410      2411      2364
 -1       488   10    0    1
 -2       625       647       648       626      2411      2412      2413      2366
 -1       489   10    0    1
 -2       626       648       649       627      2413      2414      2415      2368
 -1       490   10    0    1
 -2       627       649       650       628      2415      2416      2417      2370
 -1       491   10    0    1
 -2       628       650       651       629      2417      2418      2419      2372
 -1       492   10    0    1
 -2       629       651       652       630      2419      2420      2421      2374
 -1       493   10    0    1
 -2       630       652       653       631      2421      2422      2423      2376
 -1       494   10    0    1
 -2       631       653       654       632      2423      2424      2425      2378
 -1       495   10    0    1
 -2       632       654       655       633      2425      2426      2427      2380
 -1       496   10    0    1
 -2       633       655       656       634      2427      2428      2429      2382
 -1       497   10    0    1
 -2       634       656       657       635      2429      2430      2431      2384
 -1       498   10    0    1
 -2       635       657       658       636      2431      2432      2433      2386
 -1       499   10    0    1
 -2       636       658       659       637      2433      2434      2435      2388
 -1       500   10    0    1
 -2       637       659       660       638      2435      2436      2437      2390
 -1       501   10    0    1
 -2       638       660       661       639      2437      2438      2439      2392
 -1       502   10    0    1
 -2       639       661       662       640      2439      2440      2441      2394
 -1       503   10    0    1
 -2       640       662       663       641      2441      2442      2443      2396
 -1       504   10    0    1
 -2       641       663       664       642      2443      2444      2445      2398
 -1       505   10    0    1
 -2       642       664       665       643      2445      2446      2447      2400
 -1       506    8    0    1
 -2       643       665         7      2447      2448      2402
 -1       507   10    0    1
 -2       132       133       666       644      2449      2450      2451      2404
 -1       508   10    0    1
 -2       644       666       667       645      2451      2452      2453      2406
 -1       509   10    0    1
 -2       645       667       668       646      2453      2454      2455      2408
 -1       510   10    0    1
 -2       646       668       669       647      2455      2456      2457      2410
 -1       511   10    0    1
 -2       647       669       670       648      2457      2458      2459      2412
 -1       512   10    0    1
 -2       648       670       671       649      2459      2460      2461      2414
 -1       513   10    0    1
 -2       649       671       672       650      2461      2462      2463      2416
 -1       514   10    0    1
 -2       650       672       673       651      2463      2464      2465      2418
 -1       515   10    0    1
 -2       651       673       674       652      2465      2466      2467      2420
 -1       516   10    0    1
 -2       652       674       675       653      2467      2468      2469      2422
 -1       517   10    0    1
 -2       653       675       676       654      2469      2470      2471      2424
 -1       518   10    0    1
 -2       654       676       677       655      2471      2472      2473      2426
 -1       519   10    0    1
 -2       655       677       678       656      2473      2474      2475      2428
 -1       520   10    0    1
 -2       656       678       679       657      2475      2476      2477      2430
 -1       521   10    0    1
 -2       657       679       680       658      2477      2478      2479      2432
 -1       522   10    0    1
 -2       658       680       681       659      2479      2480      2481      2434
 -1       523   10    0    1
 -2       659       681       682       660      2481      2482      2483      2436
 -1       524   10    0    1
 -2       660       682       683       661      2483      2484      2485      2438
 -1       525   10    0    1
 -2       661       683       684       662      2485      2486      2487      2440
 -1       526   10    0    1
 -2       662       684       685       663      2487      2488      2489      2442
 -1       527   10    0    1
 -2       663       685       686       664      2489      2490      2491      2444
 -1       528   10    0    1
 -2       664       686       687       665      2491      2492      2493      2446
 -1       529    8    0    1
 -2       665       687         7      2493      2494      2448
 -1       530   10    0    1
 -2       133       134       688       666      2495      2496      2497      2450
 -1       531   10    0    1
 -2       666       688       689       667      2497      2498      2499      2452
 -1       532   10    0    1
 -2       667       689       690       668      2499      2500      2501      2454
 -1       533   10    0    1
 -2       668       690       691       669      2501      2502      2503      2456
 -1       534   10    0    1
 -2       669       691       692       670      2503      2504      2505      2458
 -1       535   10    0    1
 -2       670       692       693       671      2505      2506      2507      2460
 -1       536   10    0    1
 -2       671       693       694       672      2507      2508      2509      2462
 -1       537   10    0    1
 -2       672       694       695       673      2509      2510      2511      2464
 -1       538   10    0    1
 -2       673       695       696       674      2511      2512      2513      2466
 -1       539   10    0    1
 -2       674       696       697       675      2513      2514      2515      2468
 -1       540   10    0    1
 -2       675       697       698       676      2515      2516      2517      2470
 -1       541   10    0    1
 -2       676       698       699       677      2517      2518      2519      2472
 -1       542   10    0    1
 -2       677       699       700       678      2519      2520      2521      2474
 -1       543   10    0    1
 -2       678       700       701       679      2521      2522      2523      2476
 -1       544   10    0    1
 -2       679       701       702       680      2523      2524      2525      2478
 -1       545   10    0    1
 -2       680       702       703       681      2525      2526      2527      2480
 -1       546   10    0    1
 -2       681       703       704       682      2527      2528      2529      2482
 -1       547   10    0    1
 -2       682       704       705       683      2529      2530      2531      2484
 -1       548   10    0    1
 -2       683       705       706       684      2531      2532      2533      2486
 -1       549   10    0    1
 -2       684       706       707       685      2533      2534      2535      2488
 -1       550   10    0    1
 -2       685       707       708       686      2535      2536      2537      2490
 -1       551   10    0    1
 -2       686       708       709       687      2537      2538      2539      2492
 -1       552    8    0    1
 -2       687       709         7      2539      2540      2494
 -1       553   10    0    1
 -2       134       135       710       688      2541      2542      2543      2496
 -1       554   10    0    1
 -2       688       710       711       689      2543      2544      2545      2498
 -1       555   10    0    1
 -2       689       711       712       690      2545      2546      2547      2500
 -1       556   10    0    1
 -2       690       712       713       691      2547      2548      2549      2502
 -1       557   10    0    1
 -2       691       713       714       692      2549      2550      2551      2504
 -1       558   10    0    1
 -2       692       714       715       693      2551      2552      2553      2506
 -1       559   10    0    1
 -2       693       715       716       694      2553      2554      2555      2508
 -1       560   10    0    1
 -2       694       716       717       695      2555      2556      2557      2510
 -1       561   10    0    1
 -2       695       717       718       696      2557      2558      2559      2512
 -1       562   10    0    1
 -2       696       718       719       697      2559      2560      2561      2514
 -1       563   10    0    1
 -2       697       719       720       698      2561      2562      2563      2516
 -1       564   10    0    1
 -2       698       720       721       699      2563      2564      2565      2518
 -1       565   10    0    1
 -2       699       721       722       700      2565      2566      2567      2520
 -1       566   10    0    1
 -2       700       722       723       701      2567      2568      2569      2522
 -1       567   10    0    1
 -2       701       723       724       702      2569      2570      2571      2524
 -1       568   10    0    1
 -2       702       724       725       703      2571      2572      2573      2526
 -1       569   10    0    1
 -2       703       725       726       704      2573      2574      2575      2528
 -1       570   10    0    1
 -2       704       726       727       705      2575      2576      2577      2530
 -1       571   10    0    1
 -2       705       727       728       706      2577      2578      2579      2532
 -1       572   10    0    1
 -2       706       728       729       707      2579      2580      2581      2534
 -1       573   10    0    1
 -2       707       729       730       708      2581      2582      2583      2536
 -1       574   10    0    1
 -2       708       730       731       709      2583      2584      2585      2538
 -1       575    8    0    1
 -2       709       731         7      2585      2586      2540
 -1       576   10    0    1
 -2       135       136       732       710      2587      2588      2589      2542
 -1       577   10    0    1
 -2       710       732       733       711      2589      2590      2591      2544
 -1       578   10    0    1
 -2       711       733       734       712      2591      2592      2593      2546
 -1       579   10    0    1
 -2       712       734       735       713      2593      2594      2595      2548
 -1       580   10    0    1
 -2       713       735       736       714      2595      2596      2597      2550
 -1       581   10    0    1
 -2       714       736       737       715      2597      2598      2599      2552
 -1       582   10    0    1
 -2       715       737       738       716      2599      2600      2601      2554
 -1       583   10    0    1
 -2       716       738       739       717      2601      2602      2603      2556
 -1       584   10    0    1
 -2       717       739       740       718      2603      2604      2605      2558
 -1       585   10    0    1
 -2       718       740       741       719      2605      2606      2607      2560
 -1       586   10    0    1
 -2       719       741       742       720      2607      2608      2609      2562
 -1       587   10    0    1
 -2       720       742       743       721      2609      2610      2611      2564
 -1       588   10    0    1
 -2       721       743       744       722      2611      2612      2613      2566
 -1       589   10    0    1
 -2       722       744       745       723      2613      2614      2615      2568
 -1       590   10    0    1
 -2       723       745       746       724      2615      2616      2617      2570
 -1       591   10    0    1
 -2       724       746       747       725      2617      2618      2619      2572
 -1       592   10    0    1
 -2       725       747       748       726      2619      2620      2621      2574
 -1       593   10    0    1
 -2       726       748       749       727      2621      2622      2623      2576
 -1       594   10    0    1
 -2       727       749       750       728      2623      2624      2625      2578
 -1       595   10    0    1
 -2       728       750       751       729      2625      2626      2627      2580
 -1       596   10    0    1
 -2       729       751       752       730      2627      2628      2629      2582
 -1       597   10    0    1
 -2       730       752       753       731      2629      2630      2631      2584
 -1       598    8    0    1
 -2       731       753         7      2631      2632      2586
 -1       599   10    0    1
 -2       136       137       754       732      2633      2634      2635      2588
 -1       600   10    0    1
 -2       732       754       755       733      2635      2636      2637      2590
 -1       601   10    0    1
 -2       733       755       756       734      2637      2638      2639      2592
 -1       602   10    0    1
 -2       734       756       757       735      2639      2640      2641      2594
 -1       603   10    0    1
 -2       735       757       758       736      2641      2642      2643      2596
 -1       604   10    0    1
 -2       736       758       759       737      2643      2644      2645      2598
 -1       605   10    0    1
 -2       737       759       760       738      2645      2646      2647      2600
 -1       606   10    0    1
 -2       738       760       761       739      2647      2648      2649      2602
 -1       607   10    0    1
 -2       739       761       762       740      2649      2650      2651      2604
 -1       608   10    0    1
 -2       740       762       763       741      2651      2652      2653      2606
 -1       609   10    0    1
 -2       741       763       764       742      2653      2654      2655      2608
 -1       610   10    0    1
 -2       742       764       765       743      2655      2656      2657      2610
 -1       611   10    0    1
 -2       743       765       766       744      2657      2658      2659      2612
 -1       612   10    0    1
 -2       744       766       767       745      2659      2660      2661      2614
 -1       613   10    0    1
 -2       745       767       768       746      2661      2662      2663      2616
 -1       614   10    0    1
 -2       746       768       769       747      2663      2664      2665      2618
 -1       615   10    0    1
 -2       747       769       770       748      2665      2666      2667      2620
 -1       616   10    0    1
 -2       748       770       771       749      2667      2668      2669      2622
 -1       617   10    0    1
 -2       749       771       772       750      2669      2670      2671      2624
 -1       618   10    0    1
 -2       750       772       773       751      2671      2672      2673      2626
 -1       619   10    0    1
 -2       751       773       774       752      2673      2674      2675      2628
 -1       620   10    0    1
 -2       752       774       775       753      2675      2676      2677      2630
 -1       621    8    0    1
 -2       753       775         7      2677      2678      2632
 -1       622   10    0    1
 -2       137         6       138       754      2679      2680      2681      2634
 -1       623   10    0    1
 -2       754       138       139       755      2681      2682      2683      2636
 -1       624   10    0    1
 -2       755       139       140       756      2683      2684      2685      2638
 -1       625   10    0    1
 -2       756       140       141       757      2685      2686      2687      2640
 -1       626   10    0    1
 -2       757       141       142       758      2687      2688      2689      2642
 -1       627   10    0    1
 -2       758       142       143       759      2689      2690      2691      2644
 -1       628   10    0    1
 -2       759       143       144       760      2691      2692      2693      2646
 -1       629   10    0    1
 -2       760       144       145       761      2693      2694      2695      2648
 -1       630   10    0    1
 -2       761       145       146       762      2695      2696      2697      2650
 -1       631   10    0    1
 -2       762       146       147       763      2697      2698      2699      2652
 -1       632   10    0    1
 -2       763       147       148       764      2699      2700      2701      2654
 -1       633   10    0    1
 -2       764       148       149       765      2701      2702      2703      2656
 -1       634   10    0    1
 -2       765       149       150       766      2703      2704      2705      2658
 -1       635   10    0    1
 -2       766       150       151       767      2705      2706      2707      2660
 -1       636   10    0    1
 -2       767       151       152       768      2707      2708      2709      2662
 -1       637   10    0    1
 -2       768       152       153       769      2709      2710      2711      2664
 -1       638   10    0    1
 -2       769       153       154       770      2711      2712      2713      2666
 -1       639   10    0    1
 -2       770       154       155       771      2713      2714      2715      2668
 -1       640   10    0    1
 -2       771       155       156       772      2715      2716      2717      2670
 -1       641   10    0    1
 -2       772       156       157       773      2717      2718      2719      2672
 -1       642   10    0    1
 -2       773       157       158       774      2719      2720      2721      2674
 -1       643   10    0    1
 -2       774       158       159       775      2721      2722      2723      2676
 -1       644    8    0    1
 -2       775       159         7      2723      2724      2678
 -1       645   10    0    1
 -2         1         9       776       110      2725      2726      2727      2728
 -1       646   10    0    1
 -2       110       776       777       109      2727      2729      2730      2731
 -1       647   10    0    1
 -2       109       777       778       108      2730      2732      2733      2734
 -1       648   10    0    1
 -2       108       778       779       107      2733      2735      2736      2737
 -1       649   10    0    1
 -2       107       779       780       106      2736      2738      2739      2740
 -1       650   10    0    1
 -2       106       780       781       105      2739      2741      2742      2743
 -1       651   10    0    1
 -2       105       781       782       104      2742      2744      2745      2746
 -1       652   10    0    1
 -2       104       782       783       103      2745      2747      2748      2749
 -1       653   10    0    1
 -2       103       783       784       102      2748      2750      2751      2752
 -1       654   10    0    1
 -2       102       784       785       101      2751      2753      2754      2755
 -1       655   10    0    1
 -2       101       785       786       100      2754      2756      2757      2758
 -1       656   10    0    1
 -2       100       786       787        99      2757      2759      2760      2761
 -1       657   10    0    1
 -2        99       787       788        98      2760      2762      2763      2764
 -1       658   10    0    1
 -2        98       788       789        97      2763      2765      2766      2767
 -1       659   10    0    1
 -2        97       789       790        96      2766      2768      2769      2770
 -1       660   10    0    1
 -2        96       790       791        95      2769      2771      2772      2773
 -1       661   10    0    1
 -2        95       791       792        94      2772      2774      2775      2776
 -1       662   10    0    1
 -2        94       792       793        93      2775      2777      2778      2779
 -1       663   10    0    1
 -2        93       793       794        92      2778      2780      2781      2782
 -1       664   10    0    1
 -2        92       794       795        91      2781      2783      2784      2785
 -1       665   10    0    1
 -2        91       795       796        90      2784      2786      2787      2788
 -1       666   10    0    1
 -2        90       796       797        89      2787      2789      2790      2791
 -1       667   10    0    1
 -2        89       797        88         4      2790      2792      2793      2794
 -1       668   10    0    1
 -2         9        10       798       776      2795      2796      2797      2726
 -1       669   10    0    1
 -2       776       798       799       777      2797      2798      2799      2729
 -1       670   10    0    1
 -2       777       799       800       778      2799      2800      2801      2732
 -1       671   10    0    1
 -2       778       800       801       779      2801      2802      2803      2735
 -1       672   10    0    1
 -2       779       801       802       780      2803      2804      2805      2738
 -1       673   10    0    1
 -2       780       802       803       781      2805      2806      2807      2741
 -1       674   10    0    1
 -2       781       803       804       782      2807      2808      2809      2744
 -1       675   10    0    1
 -2       782       804       805       783      2809      2810      2811      2747
 -1       676   10    0    1
 -2       783       805       806       784      2811      2812      2813      2750
 -1       677   10    0    1
 -2       784       806       807       785      2813      2814      2815      2753
 -1       678   10    0    1
 -2       785       807       808       786      2815      2816      2817      2756
 -1       679   10    0    1
 -2       786       808       809       787      2817      2818      2819      2759
 -1       680   10    0    1
 -2       787       809       810       788      2819      2820      2821      2762
 -1       681   10    0    1
 -2       788       810       811       789      2821      2822      2823      2765
 -1       682   10    0    1
 -2       789       811       812       790      2823      2824      2825      2768
 -1       683   10    0    1
 -2       790       812       813       791      2825      2826      2827      2771
 -1       684   10    0    1
 -2       791       813       814       792      2827      2828      2829      2774
 -1       685   10    0    1
 -2       792       814       815       793      2829      2830      2831      2777
 -1       686   10    0    1
 -2       793       815       816       794      2831      2832      2833      2780
 -1       687   10    0    1
 -2       794       816       817       795      2833      2834      2835      2783
 -1       688   10    0    1
 -2       795       817       818       796      2835      2836      2837      2786
 -1       689   10    0    1
 -2       796       818       819       797      2837      2838      2839      2789
 -1       690   10    0    1
 -2       797       819        87        88      2839      2840      2841      2792
 -1       691   10    0    1
 -2        10        11       820       798      2842      2843      2844      2796
 -1       692   10    0    1
 -2       798       820       821       799      2844      2845      2846      2798
 -1       693   10    0    1
 -2       799       821       822       800      2846      2847      2848      2800
 -1       694   10    0    1
 -2       800       822       823       801      2848      2849      2850      2802
 -1       695   10    0    1
 -2       801       823       824       802      2850      2851      2852      2804
 -1       696   10    0    1
 -2       802       824       825       803      2852      2853      2854      2806
 -1       697   10    0    1
 -2       803       825       826       804      2854      2855      2856      2808
 -1       698   10    0    1
 -2       804       826       827       805      2856      2857      2858      2810
 -1       699   10    0    1
 -2       805       827       828       806      2858      2859      2860      2812
 -1       700   10    0    1
 -2       806       828       829       807      2860      2861      2862      2814
 -1       701   10    0    1
 -2       807       829       830       808      2862      2863      2864      2816
 -1       702   10    0    1
 -2       808       830       831       809      2864      2865      2866      2818
 -1       703   10    0    1
 -2       809       831       832       810      2866      2867      2868      2820
 -1       704   10    0    1
 -2       810       832       833       811      2868      2869      2870      2822
 -1       705   10    0    1
 -2       811       833       834       812      2870      2871      2872      2824
 -1       706   10    0    1
 -2       812       834       835       813      2872      2873      2874      2826
 -1       707   10    0    1
 -2       813       835       836       814      2874      2875      2876      2828
 -1       708   10    0    1
 -2       814       836       837       815      2876      2877      2878      2830
 -1       709   10    0    1
 -2       815       837       838       816      2878      2879      2880      2832
 -1       710   10    0    1
 -2       816       838       839       817      2880      2881      2882      2834
 -1       711   10    0    1
 -2       817       839       840       818      2882      2883      2884      2836
 -1       712   10    0    1
 -2       818       840       841       819      2884      2885      2886      2838
 -1       713   10    0    1
 -2       819       841        86        87      2886      2887      2888      2840
 -1       714   10    0    1
 -2        11        12       842       820      2889      2890      2891      2843
 -1       715   10    0    1
 -2       820       842       843       821      2891      2892      2893      2845
 -1       716   10    0    1
 -2       821       843       844       822      2893      2894      2895      2847
 -1       717   10    0    1
 -2       822       844       845       823      2895      2896      2897      2849
 -1       718   10    0    1
 -2       823       845       846       824      2897      2898      2899      2851
 -1       719   10    0    1
 -2       824       846       847       825      2899      2900      2901      2853
 -1       720   10    0    1
 -2       825       847       848       826      2901      2902      2903      2855
 -1       721   10    0    1
 -2       826       848       849       827      2903      2904      2905      2857
 -1       722   10    0    1
 -2       827       849       850       828      2905      2906      2907      2859
 -1       723   10    0    1
 -2       828       850       851       829      2907      2908      2909      2861
 -1       724   10    0    1
 -2       829       851       852       830      2909      2910      2911      2863
 -1       725   10    0    1
 -2       830       852       853       831      2911      2912      2913      2865
 -1       726   10    0    1
 -2       831       853       854       832      2913      2914      2915      2867
 -1       727   10    0    1
 -2       832       854       855       833      2915      2916      2917      2869
 -1       728   10    0    1
 -2       833       855       856       834      2917      2918      2919      2871
 -1       729   10    0    1
 -2       834       856       857       835      2919      2920      2921      2873
 -1       730   10    0    1
 -2       835       857       858       836      2921      2922      2923      2875
 -1       731   10    0    1
 -2       836       858       859       837      2923      2924      2925      2877
 -1       732   10    0    1
 -2       837       859       860       838      2925      2926      2927      2879
 -1       733   10    0    1
 -2       838       860       861       839      2927      2928      2929      2881
 -1       734   10    0    1
 -2       839       861       862       840      2929      2930      2931      2883
 -1       735   10    0    1
 -2       840       862       863       841      2931      2932      2933      2885
 -1       736   10    0    1
 -2       841       863        85        86      2933      2934      2935      2887
 -1       737   10    0    1
 -2        12        13       864       842      2936      2937      2938      2890
 -1       738   10    0    1
 -2       842       864       865       843      2938      2939      2940      2892
 -1       739   10    0    1
 -2       843       865       866       844      2940      2941      2942      2894
 -1       740   10    0    1
 -2       844       866       867       845      2942      2943      2944      2896
 -1       741   10    0    1
 -2       845       867       868       846      2944      2945      2946      2898
 -1       742   10    0    1
 -2       846       868       869       847      2946      2947      2948      2900
 -1       743   10    0    1
 -2       847       869       870       848      2948      2949      2950      2902
 -1       744   10    0    1
 -2       848       870       871       849      2950      2951      2952      2904
 -1       745   10    0    1
 -2       849       871       872       850      2952      2953      2954      2906
 -1       746   10    0    1
 -2       850       872       873       851      2954      2955      2956      2908
 -1       747   10    0    1
 -2       851       873       874       852      2956      2957      2958      2910
 -1       748   10    0    1
 -2       852       874       875       853      2958      2959      2960      2912
 -1       749   10    0    1
 -2       853       875       876       854      2960      2961      2962      2914
 -1       750   10    0    1
 -2       854       876       877       855      2962      2963      2964      2916
 -1       751   10    0    1
 -2       855       877       878       856      2964      2965      2966      2918
 -1       752   10    0    1
 -2       856       878       879       857      2966      2967      2968      2920
 -1       753   10    0    1
 -2       857       879       880       858      2968      2969      2970      2922
 -1       754   10    0    1
 -2       858       880       881       859      2970      2971      2972      2924
 -1       755   10    0    1
 -2       859       881       882       860      2972      2973      2974      2926
 -1       756   10    0    1
 -2       860       882       883       861      2974      2975      2976      2928
 -1       757   10    0    1
 -2       861       883       884       862      2976      2977      2978      2930
 -1       758   10    0    1
 -2       862       884       885       863      2978      2979      2980      2932
 -1       759   10    0    1
 -2       863       885        84        85      2980      2981      2982      2934
 -1       760   10    0    1
 -2        13        14       886       864      2983      2984      2985      2937
 -1       761   10    0    1
 -2       864       886       887       865      2985      2986      2987      2939
 -1       762   10    0    1
 -2       865       887       888       866      2987      2988      2989      2941
 -1       763   10    0    1
 -2       866       888       889       867      2989      2990      2991      2943
 -1       764   10    0    1
 -2       867       889       890       868      2991      2992      2993      2945
 -1       765   10    0    1
 -2       868       890       891       869      2993      2994      2995      2947
 -1       766   10    0    1
 -2       869       891       892       870      2995      2996      2997      2949
 -1       767   10    0    1
 -2       870       892       893       871      2997      2998      2999      2951
 -1       768   10    0    1
 -2       871       893       894       872      2999      3000      3001      2953
 -1       769   10    0    1
 -2       872       894       895       873      3001      3002      3003      2955
 -1       770   10    0    1
 -2       873       895       896       874      3003      3004      3005      2957
 -1       771   10    0    1
 -2       874       896       897       875      3005      3006      3007      2959
 -1       772   10    0    1
 -2       875       897       898       876      3007      3008      3009      2961
 -1       773   10    0    1
 -2       876       898       899       877      3009      3010      3011      2963
 -1       774   10    0    1
 -2       877       899       900       878      3011      3012      3013      2965
 -1       775   10    0    1
 -2       878       900       901       879      3013      3014      3015      2967
 -1       776   10    0    1
 -2       879       901       902       880      3015      3016      3017      2969
 -1       777   10    0    1
 -2       880       902       903       881      3017      3018      3019      2971
 -1       778   10    0    1
 -2       881       903       904       882      3019      3020      3021      2973
 -1       779   10    0    1
 -2       882       904       905       883      3021      3022      3023      2975
 -1       780   10    0    1
 -2       883       905       906       884      3023      3024      3025      2977
 -1       781   10    0    1
 -2       884       906       907       885      3025      3026      3027      2979
 -1       782   10    0    1
 -2       885       907        83        84      3027      3028      3029      2981
 -1       783   10    0    1
 -2        14        15       908       886      3030      3031      3032      2984
 -1       784   10    0    1
 -2       886       908       909       887      3032      3033      3034      2986
 -1       785   10    0    1
 -2       887       909       910       888      3034      3035      3036      2988
 -1       786   10    0    1
 -2       888       910       911       889      3036      3037      3038      2990
 -1       787   10    0    1
 -2       889       911       912       890      3038      3039      3040      2992
 -1       788   10    0    1
 -2       890       912       913       891      3040      3041      3042      2994
 -1       789   10    0    1
 -2       891       913       914       892      3042      3043      3044      2996
 -1       790   10    0    1
 -2       892       914       915       893      3044      3045      3046      2998
 -1       791   10    0    1
 -2       893       915       916       894      3046      3047      3048      3000
 -1       792   10    0    1
 -2       894       916       917       895      3048      3049      3050      3002
 -1       793   10    0    1
 -2       895       917       918       896      3050      3051      3052      3004
 -1       794   10    0    1
 -2       896       918       919       897      3052      3053      3054      3006
 -1       795   10    0    1
 -2       897       919       920       898      3054      3055      3056      3008
 -1       796   10    0    1
 -2       898       920       921       899      3056      3057      3058      3010
 -1       797   10    0    1
 -2       899       921       922       900      3058      3059      3060      3012
 -1       798   10    0    1
 -2       900       922       923       901      3060      3061      3062      3014
 -1       799   10    0    1
 -2       901       923       924       902      3062      3063      3064      3016
 -1       800   10    0    1
 -2       902       924       925       903      3064      3065      3066      3018
 -1       801   10    0    1
 -2       903       925       926       904      3066      3067      3068      3020
 -1       802   10    0    1
 -2       904       926       927       905      3068      3069      3070      3022
 -1       803   10    0    1
 -2       905       927       928       906      3070      3071      3072      3024
 -1       804   10    0    1
 -2       906       928       929       907      3072      3073      3074      3026
 -1       805   10    0    1
 -2       907       929        82        83      3074      3075      3076      3028
 -1       806   10    0    1
 -2        15        16       930       908      3077      3078      3079      3031
 -1       807   10    0    1
 -2       908       930       931       909      3079      3080      3081      3033
 -1       808   10    0    1
 -2       909       931       932       910      3081      3082      3083      3035
 -1       809   10    0    1
 -2       910       932       933       911      3083      3084      3085      3037
 -1       810   10    0    1
 -2       911       933       934       912      3085      3086      3087      3039
 -1       811   10    0    1
 -2       912       934       935       913      3087      3088      3089      3041
 -1       812   10    0    1
 -2       913       935       936       914      3089      3090      3091      3043
 -1       813   10    0    1
 -2       914       936       937       915      3091      3092      3093      3045
 -1       814   10    0    1
 -2       915       937       938       916      3093      3094      3095      3047
 -1       815   10    0    1
 -2       916       938       939       917      3095      3096      3097      3049
 -1       816   10    0    1
 -2       917       939       940       918      3097      3098      3099      3051
 -1       817   10    0    1
 -2       918       940       941       919      3099      3100      3101      3053
 -1       818   10    0    1
 -2       919       941       942       920      3101      3102      3103      3055
 -1       819   10    0    1
 -2       920       942       943       921      3103      3104      3105      3057
 -1       820   10    0    1
 -2       921       943       944       922      3105      3106      3107      3059
 -1       821   10    0    1
 -2       922       944       945       923      3107      3108      3109      3061
 -1       822   10    0    1
 -2       923       945       946       924      3109      3110      3111      3063
 -1       823   10    0    1
 -2       924       946       947       925      3111      3112      3113      3065
 -1       824   10    0    1
 -2       925       947       948       926      3113      3114      3115      3067
 -1       825   10    0    1
 -2       926       948       949       927      3115      3116      3117      3069
 -1       826   10    0    1
 -2       927       949       950       928      3117      3118      3119      3071
 -1       827   10    0    1
 -2       928       950       951       929      3119      3120      3121      3073
 -1       828   10    0    1
 -2       929       951        81        82      3121      3122      3123      3075
 -1       829   10    0    1
 -2        16        17       952       930      3124      3125      3126      3078
 -1       830   10    0    1
 -2       930       952       953       931      3126      3127      3128      3080
 -1       831   10    0    1
 -2       931       953       954       932      3128      3129      3130      3082
 -1       832   10    0    1
 -2       932       954       955       933      3130      3131      3132      3084
 -1       833   10    0    1
 -2       933       955       956       934      3132      3133      3134      3086
 -1       834   10    0    1
 -2       934       956       957       935      3134      3135      3136      3088
 -1       835   10    0    1
 -2       935       957       958       936      3136      3137      3138      3090
 -1       836   10    0    1
 -2       936       958       959       937      3138      3139      3140      3092
 -1       837   10    0    1
 -2       937       959       960       938      3140      3141      3142      3094
 -1       838   10    0    1
 -2       938       960       961       939      3142      3143      3144      3096
 -1       839   10    0    1
 -2       939       961       962       940      3144      3145      3146      3098
 -1       840   10    0    1
 -2       940       962       963       941      3146      3147      3148      3100
 -1       841   10    0    1
 -2       941       963       964       942      3148      3149      3150      3102
 -1       842   10    0    1
 -2       942       964       965       943      3150      3151      3152      3104
 -1       843   10    0    1
 -2       943       965       966       944      3152      3153      3154      3106
 -1       844   10    0    1
 -2       944       966       967       945      3154      3155      3156      3108
 -1       845   10    0    1
 -2       945       967       968       946      3156      3157      3158      3110
 -1       846   10    0    1
 -2       946       968       969       947      3158      3159      3160      3112
 -1       847   10    0    1
 -2       947       969       970       948      3160      3161      3162      3114
 -1       848   10    0    1
 -2       948       970       971       949      3162      3163      3164      3116
 -1       849   10    0    1
 -2       949       971       972       950      3164      3165      3166      3118
 -1       850   10    0    1
 -2       950       972       973       951      3166      3167      3168      3120
 -1       851   10    0    1
 -2       951       973        80        81      3168      3169      3170      3122
 -1       852   10    0    1
 -2        17        18       974       952      3171      3172      3173      3125
 -1       853   10    0    1
 -2       952       974       975       953      3173      3174      3175      3127
 -1       854   10    0    1
 -2       953       975       976       954      3175      3176      3177      3129
 -1       855   10    0    1
 -2       954       976       977       955      3177      3178      3179      3131
 -1       856   10    0    1
 -2       955       977       978       956      3179      3180      3181      3133
 -1       857   10    0    1
 -2       956       978       979       957      3181      3182      3183      3135
 -1       858   10    0    1
 -2       957       979       980       958      3183      3184      3185      3137
 -1       859   10    0    1
 -2       958       980       981       959      3185      3186      3187      3139
 -1       860   10    0    1
 -2       959       981       982       960      3187      3188      3189      3141
 -1       861   10    0    1
 -2       960       982       983       961      3189      3190      3191      3143
 -1       862   10    0    1
 -2       961       983       984       962      3191      3192      3193      3145
 -1       863   10    0    1
 -2       962       984       985       963      3193      3194      3195      3147
 -1       864   10    0    1
 -2       963       985       986       964      3195      3196      3197      3149
 -1       865   10    0    1
 -2       964       986       987       965      3197      3198      3199      3151
 -1       866   10    0    1
 -2       965       987       988       966      3199      3200      3201      3153
 -1       867   10    0    1
 -2       966       988       989       967      3201      3202      3203      3155
 -1       868   10    0    1
 -2       967       989       990       968      3203      3204      3205      3157
 -1       869   10    0    1
 -2       968       990       991       969      3205      3206      3207      3159
 -1       870   10    0    1
 -2       969       991       992       970      3207      3208      3209      3161
 -1       871   10    0    1
 -2       970       992       993       971      3209      3210      3211      3163
 -1       872   10    0    1
 -2       971       993       994       972      3211      3212      3213      3165
 -1       873   10    0    1
 -2       972       994       995       973      3213      3214      3215      3167
 -1       874   10    0    1
 -2       973       995        79        80      3215      3216      3217      3169
 -1       875   10    0    1
 -2        18        19       996       974      3218      3219      3220      3172
 -1       876   10    0    1
 -2       974       996       997       975      3220      3221      3222      3174
 -1       877   10    0    1
 -2       975       997       998       976      3222      3223      3224      3176
 -1       878   10    0    1
 -2       976       998       999       977      3224      3225      3226      3178
 -1       879   10    0    1
 -2       977       999      1000       978      3226      3227      3228      3180
 -1       880   10    0    1
 -2       978      1000      1001       979      3228      3229      3230      3182
 -1       881   10    0    1
 -2       979      1001      1002       980      3230      3231      3232      3184
 -1       882   10    0    1
 -2       980      1002      1003       981      3232      3233      3234      3186
 -1       883   10    0    1
 -2       981      1003      1004       982      3234      3235      3236      3188
 -1       884   10    0    1
 -2       982      1004      1005       983      3236      3237      3238      3190
 -1       885   10    0    1
 -2       983      1005      1006       984      3238      3239      3240      3192
 -1       886   10    0    1
 -2       984      1006      1007       985      3240      3241      3242      3194
 -1       887   10    0    1
 -2       985      1007      1008       986      3242      3243      3244      3196
 -1       888   10    0    1
 -2       986      1008      1009       987      3244      3245      3246      3198
 -1       889   10    0    1
 -2       987      1009      1010       988      3246      3247      3248      3200
 -1       890   10    0    1
 -2       988      1010      1011       989      3248      3249      3250      3202
 -1       891   10    0    1
 -2       989      1011      1012       990      3250      3251      3252      3204
 -1       892   10    0    1
 -2       990      1012      1013       991      3252      3253      3254      3206
 -1       893   10    0    1
 -2       991      1013      1014       992      3254      3255      3256      3208
 -1       894   10    0    1
 -2       992      1014      1015       993      3256      3257      3258      3210
 -1       895   10    0    1
 -2       993      1015      1016       994      3258      3259      3260      3212
 -1       896   10    0    1
 -2       994      1016      1017       995      3260      3261      3262      3214
 -1       897   10    0    1
 -2       995      1017        78        79      3262      3263      3264      3216
 -1       898   10    0    1
 -2        19        20      1018       996      3265      3266      3267      3219
 -1       899   10    0    1
 -2       996      1018      1019       997      3267      3268      3269      3221
 -1       900   10    0    1
 -2       997      1019      1020       998      3269      3270      3271      3223
 -1       901   10    0    1
 -2       998      1020      1021       999      3271      3272      3273      3225
 -1       902   10    0    1
 -2       999      1021      1022      1000      3273      3274      3275      3227
 -1       903   10    0    1
 -2      1000      1022      1023      1001      3275      3276      3277      3229
 -1       904   10    0    1
 -2      1001      1023      1024      1002      3277      3278      3279      3231
 -1       905   10    0    1
 -2      1002      1024      1025      1003      3279      3280      3281      3233
 -1       906   10    0    1
 -2      1003      1025      1026      1004      3281      3282      3283      3235
 -1       907   10    0    1
 -2      1004      1026      1027      1005      3283      3284      3285      3237
 -1       908   10    0    1
 -2      1005      1027      1028      1006      3285      3286      3287      3239
 -1       909   10    0    1
 -2      1006      1028      1029      1007      3287      3288      3289      3241
 -1       910   10    0    1
 -2      1007      1029      1030      1008      3289      3290      3291      3243
 -1       911   10    0    1
 -2      1008      1030      1031      1009      3291      3292      3293      3245
 -1       912   10    0    1
 -2      1009      1031      1032      1010      3293      3294      3295      3247
 -1       913   10    0    1
 -2      1010      1032      1033      1011      3295      3296      3297      3249
 -1       914   10    0    1
 -2      1011      1033      1034      1012      3297      3298      3299      3251
 -1       915   10    0    1
 -2      1012      1034      1035      1013      3299      3300      3301      3253
 -1       916   10    0    1
 -2      1013      1035      1036      1014      3301      3302      3303      3255
 -1       917   10    0    1
 -2      1014      1036      1037      1015      3303      3304      3305      3257
 -1       918   10    0    1
 -2      1015      1037      1038      1016      3305      3306      3307      3259
 -1       919   10    0    1
 -2      1016      1038      1039      1017      3307      3308      3309      3261
 -1       920   10    0    1
 -2      1017      1039        77        78      3309      3310      3311      3263
 -1       921   10    0    1
 -2        20        21      1040      1018      3312      3313      3314      3266
 -1       922   10    0    1
 -2      1018      1040      1041      1019      3314      3315      3316      3268
 -1       923   10    0    1
 -2      1019      1041      1042      1020      3316      3317      3318      3270
 -1       924   10    0    1
 -2      1020      1042      1043      1021      3318      3319      3320      3272
 -1       925   10    0    1
 -2      1021      1043      1044      1022      3320      3321      3322      3274
 -1       926   10    0    1
 -2      1022      1044      1045      1023      3322      3323      3324      3276
 -1       927   10    0    1
 -2      1023      1045      1046      1024      3324      3325      3326      3278
 -1       928   10    0    1
 -2      1024      1046      1047      1025      3326      3327      3328      3280
 -1       929   10    0    1
 -2      1025      1047      1048      1026      3328      3329      3330      3282
 -1       930   10    0    1
 -2      1026      1048      1049      1027      3330      3331      3332      3284
 -1       931   10    0    1
 -2      1027      1049      1050      1028      3332      3333      3334      3286
 -1       932   10    0    1
 -2      1028      1050      1051      1029      3334      3335      3336      3288
 -1       933   10    0    1
 -2      1029      1051      1052      1030      3336      3337      3338      3290
 -1       934   10    0    1
 -2      1030      1052      1053      1031      3338      3339      3340      3292
 -1       935   10    0    1
 -2      1031      1053      1054      1032      3340      3341      3342      3294
 -1       936   10    0    1
 -2      1032      1054      1055      1033      3342      3343      3344      3296
 -1       937   10    0    1
 -2      1033      1055      1056      1034      3344      3345      3346      3298
 -1       938   10    0    1
 -2      1034      1056      1057      1035      3346      3347      3348      3300
 -1       939   10    0    1
 -2      1035      1057      1058      1036      3348      3349      3350      3302
 -1       940   10    0    1
 -2      1036      1058      1059      1037      3350      3351      3352      3304
 -1       941   10    0    1
 -2      1037      1059      1060      1038      3352      3353      3354      3306
 -1       942   10    0    1
 -2      1038      1060      1061      1039      3354      3355      3356      3308
 -1       943   10    0    1
 -2      1039      1061        76        77      3356      3357      3358      3310
 -1       944   10    0    1
 -2        21        22      1062      1040      3359      3360      3361      3313
 -1       945   10    0    1
 -2      1040      1062      1063      1041      3361      3362      3363      3315
 -1       946   10    0    1
 -2      1041      1063      1064      1042      3363      3364      3365      3317
 -1       947   10    0    1
 -2      1042      1064      1065      1043      3365      3366      3367      3319
 -1       948   10    0    1
 -2      1043      1065      1066      1044      3367      3368      3369      3321
 -1       949   10    0    1
 -2      1044      1066      1067      1045      3369      3370      3371      3323
 -1       950   10    0    1
 -2      1045      1067      1068      1046      3371      3372      3373      3325
 -1       951   10    0    1
 -2      1046      1068      1069      1047      3373      3374      3375      3327
 -1       952   10    0    1
 -2      1047      1069      1070      1048      3375      3376      3377      3329
 -1       953   10    0    1
 -2      1048      1070      1071      1049      3377      3378      3379      3331
 -1       954   10    0    1
 -2      1049      1071      1072      1050      3379      3380      3381      3333
 -1       955   10    0    1
 -2      1050      1072      1073      1051      3381      3382      3383      3335
 -1       956   10    0    1
 -2      1051      1073      1074      1052      3383      3384      3385      3337
 -1       957   10    0    1
 -2      1052      1074      1075      1053      3385      3386      3387      3339
 -1       958   10    0    1
 -2      1053      1075      1076      1054      3387      3388      3389      3341
 -1       959   10    0    1
 -2      1054      1076      1077      1055      3389      3390      3391      3343
 -1       960   10    0    1
 -2      1055      1077      1078      1056      3391      3392      3393      3345
 -1       961   10    0    1
 -2      1056      1078      1079      1057      3393      3394      3395      3347
 -1       962   10    0    1
 -2      1057      1079      1080      1058      3395      3396      3397      3349
 -1       963   10    0    1
 -2      1058      1080      1081      1059      3397      3398      3399      3351
 -1       964   10    0    1
 -2      1059      1081      1082      1060      3399      3400      3401      3353
 -1       965   10    0    1
 -2      1060      1082      1083      1061      3401      3402      3403      3355
 -1       966   10    0    1
 -2      1061      1083        75        76      3403      3404      3405      3357
 -1       967   10    0    1
 -2        22        23      1084      1062      3406      3407      3408      3360
 -1       968   10    0    1
 -2      1062      1084      1085      1063      3408      3409      3410      3362
 -1       969   10    0    1
 -2      1063      1085      1086      1064      3410      3411      3412      3364
 -1       970   10    0    1
 -2      1064      1086      1087      1065      3412      3413      3414      3366
 -1       971   10    0    1
 -2      1065      1087      1088      1066      3414      3415      3416      3368
 -1       972   10    0    1
 -2      1066      1088      1089      1067      3416      3417      3418      3370
 -1       973   10    0    1
 -2      1067      1089      1090      1068      3418      3419      3420      3372
 -1       974   10    0    1
 -2      1068      1090      1091      1069      3420      3421      3422      3374
 -1       975   10    0    1
 -2      1069      1091      1092      1070      3422      3423      3424      3376
 -1       976   10    0    1
 -2      1070      1092      1093      1071      3424      3425      3426      3378
 -1       977   10    0    1
 -2      1071      1093      1094      1072      3426      3427      3428      3380
 -1       978   10    0    1
 -2      1072      1094      1095      1073      3428      3429      3430      3382
 -1       979   10    0    1
 -2      1073      1095      1096      1074      3430      3431      3432      3384
 -1       980   10    0    1
 -2      1074      1096      1097      1075      3432      3433      3434      3386
 -1       981   10    0    1
 -2      1075      1097      1098      1076      3434      3435      3436      3388
 -1       982   10    0    1
 -2      1076      1098      1099      1077      3436      3437      3438      3390
 -1       983   10    0    1
 -2      1077      1099      1100      1078      3438      3439      3440      3392
 -1       984   10    0    1
 -2      1078      1100      1101      1079      3440      3441      3442      3394
 -1       985   10    0    1
 -2      1079      1101      1102      1080      3442      3443      3444      3396
 -1       986   10    0    1
 -2      1080      1102      1103      1081      3444      3445      3446      3398
 -1       987   10    0    1
 -2      1081      1103      1104      1082      3446      3447      3448      3400
 -1       988   10    0    1
 -2      1082      1104      1105      1083      3448      3449      3450      3402
 -1       989   10    0    1
 -2      1083      1105        74        75      3450      3451      3452      3404
 -1       990   10    0    1
 -2        23        24      1106      1084      3453      3454      3455      3407
 -1       991   10    0    1
 -2      1084      1106      1107      1085      3455      3456      3457      3409
 -1       992   10    0    1
 -2      1085      1107      1108      1086      3457      3458      3459      3411
 -1       993   10    0    1
 -2      1086      1108      1109      1087      3459      3460      3461      3413
 -1       994   10    0    1
 -2      1087      1109      1110      1088      3461      3462      3463      3415
 -1       995   10    0    1
 -2      1088      1110      1111      1089      3463      3464      3465      3417
 -1       996   10    0    1
 -2      1089      1111      1112      1090      3465      3466      3467      3419
 -1       997   10    0    1
 -2      1090      1112      1113      1091      3467      3468      3469      3421
 -1       998   10    0    1
 -2      1091      1113      1114      1092      3469      3470      3471      3423
 -1       999   10    0    1
 -2      1092      1114      1115      1093      3471      3472      3473      3425
 -1      1000   10    0    1
 -2      1093      1115      1116      1094      3473      3474      3475      3427
 -1      1001   10    0    1
 -2      1094      1116      1117      1095      3475      3476      3477      3429
 -1      1002   10    0    1
 -2      1095      1117      1118      1096      3477      3478      3479      3431
 -1      1003   10    0    1
 -2      1096      1118      1119      1097      3479      3480      3481      3433
 -1      1004   10    0    1
 -2      1097      1119      1120      1098      3481      3482      3483      3435
 -1      1005   10    0    1
 -2      1098      1120      1121      1099      3483      3484      3485      3437
 -1      1006   10    0    1
 -2      1099      1121      1122      1100      3485      3486      3487      3439
 -1      1007   10    0    1
 -2      1100      1122      1123      1101      3487      3488      3489      3441
 -1      1008   10    0    1
 -2      1101      1123      1124      1102      3489      3490      3491      3443
 -1      1009   10    0    1
 -2      1102      1124      1125      1103      3491      3492      3493      3445
 -1      1010   10    0    1
 -2      1103      1125      1126      1104      3493      3494      3495      3447
 -1      1011   10    0    1
 -2      1104      1126      1127      1105      3495      3496      3497      3449
 -1      1012   10    0    1
 -2      1105      1127        73        74      3497      3498      3499      3451
 -1      1013   10    0    1
 -2        24        25      1128      1106      3500      3501      3502      3454
 -1      1014   10    0    1
 -2      1106      1128      1129      1107      3502      3503      3504      3456
 -1      1015   10    0    1
 -2      1107      1129      1130      1108      3504      3505      3506      3458
 -1      1016   10    0    1
 -2      1108      1130      1131      1109      3506      3507      3508      3460
 -1      1017   10    0    1
 -2      1109      1131      1132      1110      3508      3509      3510      3462
 -1      1018   10    0    1
 -2      1110      1132      1133      1111      3510      3511      3512      3464
 -1      1019   10    0    1
 -2      1111      1133      1134      1112      3512      3513      3514      3466
 -1      1020   10    0    1
 -2      1112      1134      1135      1113      3514      3515      3516      3468
 -1      1021   10    0    1
 -2      1113      1135      1136      1114      3516      3517      3518      3470
 -1      1022   10    0    1
 -2      1114      1136      1137      1115      3518      3519      3520      3472
 -1      1023   10    0    1
 -2      1115      1137      1138      1116      3520      3521      3522      3474
 -1      1024   10    0    1
 -2      1116      1138      1139      1117      3522      3523      3524      3476
 -1      1025   10    0    1
 -2      1117      1139      1140      1118      3524      3525      3526      3478
 -1      1026   10    0    1
 -2      1118      1140      1141      1119      3526      3527      3528      3480
 -1      1027   10    0    1
 -2      1119      1141      1142      1120      3528      3529      3530      3482
 -1      1028   10    0    1
 -2      1120      1142      1143      1121      3530      3531      3532      3484
 -1      1029   10    0    1
 -2      1121      1143      1144      1122      3532      3533      3534      3486
 -1      1030   10    0    1
 -2      1122      1144      1145      1123      3534      3535      3536      3488
 -1      1031   10    0    1
 -2      1123      1145      1146      1124      3536      3537      3538      3490
 -1      1032   10    0    1
 -2      1124      1146      1147      1125      3538      3539      3540      3492
 -1      1033   10    0    1
 -2      1125      1147      1148      1126      3540      3541      3542      3494
 -1      1034   10    0    1
 -2      1126      1148      1149      1127      3542      3543      3544      3496
 -1      1035   10    0    1
 -2      1127      1149        72        73      3544      3545      3546      3498
 -1      1036   10    0    1
 -2        25        26      1150      1128      3547      3548      3549      3501
 -1      1037   10    0    1
 -2      1128      1150      1151      1129      3549      3550      3551      3503
 -1      1038   10    0    1
 -2      1129      1151      1152      1130      3551      3552      3553      3505
 -1      1039   10    0    1
 -2      1130      1152      1153      1131      3553      3554      3555      3507
 -1      1040   10    0    1
 -2      1131      1153      1154      1132      3555      3556      3557      3509
 -1      1041   10    0    1
 -2      1132      1154      1155      1133      3557      3558      3559      3511
 -1      1042   10    0    1
 -2      1133      1155      1156      1134      3559      3560      3561      3513
 -1      1043   10    0    1
 -2      1134      1156      1157      1135      3561      3562      3563      3515
 -1      1044   10    0    1
 -2      1135      1157      1158      1136      3563      3564      3565      3517
 -1      1045   10    0    1
 -2      1136      1158      1159      1137      3565      3566      3567      3519
 -1      1046   10    0    1
 -2      1137      1159      1160      1138      3567      3568      3569      3521
 -1      1047   10    0    1
 -2      1138      1160      1161      1139      3569      3570      3571      3523
 -1      1048   10    0    1
 -2      1139      1161      1162      1140      3571      3572      3573      3525
 -1      1049   10    0    1
 -2      1140      1162      1163      1141      3573      3574      3575      3527
 -1      1050   10    0    1
 -2      1141      1163      1164      1142      3575      3576      3577      3529
 -1      1051   10    0    1
 -2      1142      1164      1165      1143      3577      3578      3579      3531
 -1      1052   10    0    1
 -2      1143      1165      1166      1144      3579      3580      3581      3533
 -1      1053   10    0    1
 -2      1144      1166      1167      1145      3581      3582      3583      3535
 -1      1054   10    0    1
 -2      1145      1167      1168      1146      3583      3584      3585      3537
 -1      1055   10    0    1
 -2      1146      1168      1169      1147      3585      3586      3587      3539
 -1      1056   10    0    1
 -2      1147      1169      1170      1148      3587      3588      3589      3541
 -1      1057   10    0    1
 -2      1148      1170      1171      1149      3589      3590      3591      3543
 -1      1058   10    0    1
 -2      1149      1171        71        72      3591      3592      3593      3545
 -1      1059   10    0    1
 -2        26        27      1172      1150      3594      3595      3596      3548
 -1      1060   10    0    1
 -2      1150      1172      1173      1151      3596      3597      3598      3550
 -1      1061   10    0    1
 -2      1151      1173      1174      1152      3598      3599      3600      3552
 -1      1062   10    0    1
 -2      1152      1174      1175      1153      3600      3601      3602      3554
 -1      1063   10    0    1
 -2      1153      1175      1176      1154      3602      3603      3604      3556
 -1      1064   10    0    1
 -2      1154      1176      1177      1155      3604      3605      3606      3558
 -1      1065   10    0    1
 -2      1155      1177      1178      1156      3606      3607      3608      3560
 -1      1066   10    0    1
 -2      1156      1178      1179      1157      3608      3609      3610      3562
 -1      1067   10    0    1
 -2      1157      1179      1180      1158      3610      3611      3612      3564
 -1      1068   10    0    1
 -2      1158      1180      1181      1159      3612      3613      3614      3566
 -1      1069   10    0    1
 -2      1159      1181      1182      1160      3614      3615      3616      3568
 -1      1070   10    0    1
 -2      1160      1182      1183      1161      3616      3617      3618      3570
 -1      1071   10    0    1
 -2      1161      1183      1184      1162      3618      3619      3620      3572
 -1      1072   10    0    1
 -2      1162      1184      1185      1163      3620      3621      3622      3574
 -1      1073   10    0    1
 -2      1163      1185      1186      1164      3622      3623      3624      3576
 -1      1074   10    0    1
 -2      1164      1186      1187      1165      3624      3625      3626      3578
 -1      1075   10    0    1
 -2      1165      1187      1188      1166      3626      3627      3628      3580
 -1      1076   10    0    1
 -2      1166      1188      1189      1167      3628      3629      3630      3582
 -1      1077   10    0    1
 -2      1167      1189      1190      1168      3630      3631      3632      3584
 -1      1078   10    0    1
 -2      1168      1190      1191      1169      3632      3633      3634      3586
 -1      1079   10    0    1
 -2      1169      1191      1192      1170      3634      3635      3636      3588
 -1      1080   10    0    1
 -2      1170      1192      1193      1171      3636      3637      3638      3590
 -1      1081   10    0    1
 -2      1171      1193        70        71      3638      3639      3640      3592
 -1      1082   10    0    1
 -2        27        28      1194      1172      3641      3642      3643      3595
 -1      1083   10    0    1
 -2      1172      1194      1195      1173      3643      3644      3645      3597
 -1      1084   10    0    1
 -2      1173      1195      1196      1174      3645      3646      3647      3599
 -1      1085   10    0    1
 -2      1174      1196      1197      1175      3647      3648      3649      3601
 -1      1086   10    0    1
 -2      1175      1197      1198      1176      3649      3650      3651      3603
 -1      1087   10    0    1
 -2      1176      1198      1199      1177      3651      3652      3653      3605
 -1      1088   10    0    1
 -2      1177      1199      1200      1178      3653      3654      3655      3607
 -1      1089   10    0    1
 -2      1178      1200      1201      1179      3655      3656      3657      3609
 -1      1090   10    0    1
 -2      1179      1201      1202      1180      3657      3658      3659      3611
 -1      1091   10    0    1
 -2      1180      1202      1203      1181      3659      3660      3661      3613
 -1      1092   10    0    1
 -2      1181      1203      1204      1182      3661      3662      3663      3615
 -1      1093   10    0    1
 -2      1182      1204      1205      1183      3663      3664      3665      3617
 -1      1094   10    0    1
 -2      1183      1205      1206      1184      3665      3666      3667      3619
 -1      1095   10    0    1
 -2      1184      1206      1207      1185      3667      3668      3669      3621
 -1      1096   10    0    1
 -2      1185      1207      1208      1186      3669      3670      3671      3623
 -1      1097   10    0    1
 -2      1186      1208      1209      1187      3671      3672      3673      3625
 -1      1098   10    0    1
 -2      1187      1209      1210      1188      3673      3674      3675      3627
 -1      1099   10    0    1
 -2      1188      1210      1211      1189      3675      3676      3677      3629
 -1      1100   10    0    1
 -2      1189      1211      1212      1190      3677      3678      3679      3631
 -1      1101   10    0    1
 -2      1190      1212      1213      1191      3679      3680      3681      3633
 -1      1102   10    0    1
 -2      1191      1213      1214      1192      3681      3682      3683      3635
 -1      1103   10    0    1
 -2      1192      1214      1215      1193      3683      3684      3685      3637
 -1      1104   10    0    1
 -2      1193      1215        69        70      3685      3686      3687      3639
 -1      1105   10    0    1
 -2        28        29      1216      1194      3688      3689      3690      3642
 -1      1106   10    0    1
 -2      1194      1216      1217      1195      3690      3691      3692      3644
 -1      1107   10    0    1
 -2      1195      1217      1218      1196      3692      3693      3694      3646
 -1      1108   10    0    1
 -2      1196      1218      1219      1197      3694      3695      3696      3648
 -1      1109   10    0    1
 -2      1197      1219      1220      1198      3696      3697      3698      3650
 -1      1110   10    0    1
 -2      1198      1220      1221      1199      3698      3699      3700      3652
 -1      1111   10    0    1
 -2      1199      1221      1222      1200      3700      3701      3702      3654
 -1      1112   10    0    1
 -2      1200      1222      1223      1201      3702      3703      3704      3656
 -1      1113   10    0    1
 -2      1201      1223      1224      1202      3704      3705      3706      3658
 -1      1114   10    0    1
 -2      1202      1224      1225      1203      3706      3707      3708      3660
 -1      1115   10    0    1
 -2      1203      1225      1226      1204      3708      3709      3710      3662
 -1      1116   10    0    1
 -2      1204      1226      1227      1205      3710      3711      3712      3664
 -1      1117   10    0    1
 -2      1205      1227      1228      1206      3712      3713      3714      3666
 -1      1118   10    0    1
 -2      1206      1228      1229      1207      3714      3715      3716      3668
 -1      1119   10    0    1
 -2      1207      1229      1230      1208      3716      3717      3718      3670
 -1      1120   10    0    1
 -2      1208      1230      1231      1209      3718      3719      3720      3672
 -1      1121   10    0    1
 -2      1209      1231      1232      1210      3720      3721      3722      3674
 -1      1122   10    0    1
 -2      1210      1232      1233      1211      3722      3723      3724      3676
 -1      1123   10    0    1
 -2      1211      1233      1234      1212      3724      3725      3726      3678
 -1      1124   10    0    1
 -2      1212      1234      1235      1213      3726      3727      3728      3680
 -1      1125   10    0    1
 -2      1213      1235      1236      1214      3728      3729      3730      3682
 -1      1126   10    0    1
 -2      1214      1236      1237      1215      3730      3731      3732      3684
 -1      1127   10    0    1
 -2      1215      1237        68        69      3732      3733      3734      3686
 -1      1128   10    0    1
 -2        29        30      1238      1216      3735      3736      3737      3689
 -1      1129   10    0    1
 -2      1216      1238      1239      1217      3737      3738      3739      3691
 -1      1130   10    0    1
 -2      1217      1239      1240      1218      3739      3740      3741      3693
 -1      1131   10    0    1
 -2      1218      1240      1241      1219      3741      3742      3743      3695
 -1      1132   10    0    1
 -2      1219      1241      1242      1220      3743      3744      3745      3697
 -1      1133   10    0    1
 -2      1220      1242      1243      1221      3745      3746      3747      3699
 -1      1134   10    0    1
 -2      1221      1243      1244      1222      3747      3748      3749      3701
 -1      1135   10    0    1
 -2      1222      1244      1245      1223      3749      3750      3751      3703
 -1      1136   10    0    1
 -2      1223      1245      1246      1224      3751      3752      3753      3705
 -1      1137   10    0    1
 -2      1224      1246      1247      1225      3753      3754      3755      3707
 -1      1138   10    0    1
 -2      1225      1247      1248      1226      3755      3756      3757      3709
 -1      1139   10    0    1
 -2      1226      1248      1249      1227      3757      3758      3759      3711
 -1      1140   10    0    1
 -2      1227      1249      1250      1228      3759      3760      3761      3713
 -1      1141   10    0    1
 -2      1228      1250      1251      1229      3761      3762      3763      3715
 -1      1142   10    0    1
 -2      1229      1251      1252      1230      3763      3764      3765      3717
 -1      1143   10    0    1
 -2      1230      1252      1253      1231      3765      3766      3767      3719
 -1      1144   10    0    1
 -2      1231      1253      1254      1232      3767      3768      3769      3721
 -1      1145   10    0    1
 -2      1232      1254      1255      1233      3769      3770      3771      3723
 -1      1146   10    0    1
 -2      1233      1255      1256      1234      3771      3772      3773      3725
 -1      1147   10    0    1
 -2      1234      1256      1257      1235      3773      3774      3775      3727
 -1      1148   10    0    1
 -2      1235      1257      1258      1236      3775      3776      3777      3729
 -1      1149   10    0    1
 -2      1236      1258      1259      1237      3777      3778      3779      3731
 -1      1150   10    0    1
 -2      1237      1259        67        68      3779      3780      3781      3733
 -1      1151   10    0    1
 -2        30        31      1260      1238      3782      3783      3784      3736
 -1      1152   10    0    1
 -2      1238      1260      1261      1239      3784      3785      3786      3738
 -1      1153   10    0    1
 -2      1239      1261      1262      1240      3786      3787      3788      3740
 -1      1154   10    0    1
 -2      1240      1262      1263      1241      3788      3789      3790      3742
 -1      1155   10    0    1
 -2      1241      1263      1264      1242      3790      3791      3792      3744
 -1      1156   10    0    1
 -2      1242      1264      1265      1243      3792      3793      3794      3746
 -1      1157   10    0    1
 -2      1243      1265      1266      1244      3794      3795      3796      3748
 -1      1158   10    0    1
 -2      1244      1266      1267      1245      3796      3797      3798      3750
 -1      1159   10    0    1
 -2      1245      1267      1268      1246      3798      3799      3800      3752
 -1      1160   10    0    1
 -2      1246      1268      1269      1247      3800      3801      3802      3754
 -1      1161   10    0    1
 -2      1247      1269      1270      1248      3802      3803      3804      3756
 -1      1162   10    0    1
 -2      1248      1270      1271      1249      3804      3805      3806      3758
 -1      1163   10    0    1
 -2      1249      1271      1272      1250      3806      3807      3808      3760
 -1      1164   10    0    1
 -2      1250      1272      1273      1251      3808      3809      3810      3762
 -1      1165   10    0    1
 -2      1251      1273      1274      1252      3810      3811      3812      3764
 -1      1166   10    0    1
 -2      1252      1274      1275      1253      3812      3813      3814      3766
 -1      1167   10    0    1
 -2      1253      1275      1276      1254      3814      3815      3816      3768
 -1      1168   10    0    1
 -2      1254      1276      1277      1255      3816      3817      3818      3770
 -1      1169   10    0    1
 -2      1255      1277      1278      1256      3818      3819      3820      3772
 -1      1170   10    0    1
 -2      1256      1278      1279      1257      3820      3821      3822      3774
 -1      1171   10    0    1
 -2      1257      1279      1280      1258      3822      3823      3824      3776
 -1      1172   10    0    1
 -2      1258      1280      1281      1259      3824      3825      3826      3778
 -1      1173   10    0    1
 -2      1259      1281        66        67      3826      3827      3828      3780
 -1      1174   10    0    1
 -2        31        32      1282      1260      3829      3830      3831      3783
 -1      1175   10    0    1
 -2      1260      1282      1283      1261      3831      3832      3833      3785
 -1      1176   10    0    1
 -2      1261      1283      1284      1262      3833      3834      3835      3787
 -1      1177   10    0    1
 -2      1262      1284      1285      1263      3835      3836      3837      3789
 -1      1178   10    0    1
 -2      1263      1285      1286      1264      3837      3838      3839      3791
 -1      1179   10    0    1
 -2      1264      1286      1287      1265      3839      3840      3841      3793
 -1      1180   10    0    1
 -2      1265      1287      1288      1266      3841      3842      3843      3795
 -1      1181   10    0    1
 -2      1266      1288      1289      1267      3843      3844      3845      3797
 -1      1182   10    0    1
 -2      1267      1289      1290      1268      3845      3846      3847      3799
 -1      1183   10    0    1
 -2      1268      1290      1291      1269      3847      3848      3849      3801
 -1      1184   10    0    1
 -2      1269      1291      1292      1270      3849      3850      3851      3803
 -1      1185   10    0    1
 -2      1270      1292      1293      1271      3851      3852      3853      3805
 -1      1186   10    0    1
 -2      1271      1293      1294      1272      3853      3854      3855      3807
 -1      1187   10    0    1
 -2      1272      1294      1295      1273      3855      3856      3857      3809
 -1      1188   10    0    1
 -2      1273      1295      1296      1274      3857      3858      3859      3811
 -1      1189   10    0    1
 -2      1274      1296      1297      1275      3859      3860      3861      3813
 -1      1190   10    0    1
 -2      1275      1297      1298      1276      3861      3862      3863      3815
 -1      1191   10    0    1
 -2      1276      1298      1299      1277      3863      3864      3865      3817
 -1      1192   10    0    1
 -2      1277      1299      1300      1278      3865      3866      3867      3819
 -1      1193   10    0    1
 -2      1278      1300      1301      1279      3867      3868      3869      3821
 -1      1194   10    0    1
 -2      1279      1301      1302      1280      3869      3870      3871      3823
 -1      1195   10    0    1
 -2      1280      1302      1303      1281      3871      3872      3873      3825
 -1      1196   10    0    1
 -2      1281      1303        65        66      3873      3874      3875      3827
 -1      1197   10    0    1
 -2        32        33      1304      1282      3876      3877      3878      3830
 -1      1198   10    0    1
 -2      1282      1304      1305      1283      3878      3879      3880      3832
 -1      1199   10    0    1
 -2      1283      1305      1306      1284      3880      3881      3882      3834
 -1      1200   10    0    1
 -2      1284      1306      1307      1285      3882      3883      3884      3836
 -1      1201   10    0    1
 -2      1285      1307      1308      1286      3884      3885      3886      3838
 -1      1202   10    0    1
 -2      1286      1308      1309      1287      3886      3887      3888      3840
 -1      1203   10    0    1
 -2      1287      1309      1310      1288      3888      3889      3890      3842
 -1      1204   10    0    1
 -2      1288      1310      1311      1289      3890      3891      3892      3844
 -1      1205   10    0    1
 -2      1289      1311      1312      1290      3892      3893      3894      3846
 -1      1206   10    0    1
 -2      1290      1312      1313      1291      3894      3895      3896      3848
 -1      1207   10    0    1
 -2      1291      1313      1314      1292      3896      3897      3898      3850
 -1      1208   10    0    1
 -2      1292      1314      1315      1293      3898      3899      3900      3852
 -1      1209   10    0    1
 -2      1293      1315      1316      1294      3900      3901      3902      3854
 -1      1210   10    0    1
 -2      1294      1316      1317      1295      3902      3903      3904      3856
 -1      1211   10    0    1
 -2      1295      1317      1318      1296      3904      3905      3906      3858
 -1      1212   10    0    1
 -2      1296      1318      1319      1297      3906      3907      3908      3860
 -1      1213   10    0    1
 -2      1297      1319      1320      1298      3908      3909      3910      3862
 -1      1214   10    0    1
 -2      1298      1320      1321      1299      3910      3911      3912      3864
 -1      1215   10    0    1
 -2      1299      1321      1322      1300      3912      3913      3914      3866
 -1      1216   10    0    1
 -2      1300      1322      1323      1301      3914      3915      3916      3868
 -1      1217   10    0    1
 -2      1301      1323      1324      1302      3916      3917      3918      3870
 -1      1218   10    0    1
 -2      1302      1324      1325      1303      3918      3919      3920      3872
 -1      1219   10    0    1
 -2      1303      1325        64        65      3920      3921      3922      3874
 -1      1220   10    0    1
 -2        33        34      1326      1304      3923      3924      3925      3877
 -1      1221   10    0    1
 -2      1304      1326      1327      1305      3925      3926      3927      3879
 -1      1222   10    0    1
 -2      1305      1327      1328      1306      3927      3928      3929      3881
 -1      1223   10    0    1
 -2      1306      1328      1329      1307      3929      3930      3931      3883
 -1      1224   10    0    1
 -2      1307      1329      1330      1308      3931      3932      3933      3885
 -1      1225   10    0    1
 -2      1308      1330      1331      1309      3933      3934      3935      3887
 -1      1226   10    0    1
 -2      1309      1331      1332      1310      3935      3936      3937      3889
 -1      1227   10    0    1
 -2      1310      1332      1333      1311      3937      3938      3939      3891
 -1      1228   10    0    1
 -2      1311      1333      1334      1312      3939      3940      3941      3893
 -1      1229   10    0    1
 -2      1312      1334      1335      1313      3941      3942      3943      3895
 -1      1230   10    0    1
 -2      1313      1335      1336      1314      3943      3944      3945      3897
 -1      1231   10    0    1
 -2      1314      1336      1337      1315      3945      3946      3947      3899
 -1      1232   10    0    1
 -2      1315      1337      1338      1316      3947      3948      3949      3901
 -1      1233   10    0    1
 -2      1316      1338      1339      1317      3949      3950      3951      3903
 -1      1234   10    0    1
 -2      1317      1339      1340      1318      3951      3952      3953      3905
 -1      1235   10    0    1
 -2      1318      1340      1341      1319      3953      3954      3955      3907
 -1      1236   10    0    1
 -2      1319      1341      1342      1320      3955      3956      3957      3909
 -1      1237   10    0    1
 -2      1320      1342      1343      1321      3957      3958      3959      3911
 -1      1238   10    0    1
 -2      1321      1343      1344      1322      3959      3960      3961      3913
 -1      1239   10    0    1
 -2      1322      1344      1345      1323      3961      3962      3963      3915
 -1      1240   10    0    1
 -2      1323      1345      1346      1324      3963      3964      3965      3917
 -1      1241   10    0    1
 -2      1324      1346      1347      1325      3965      3966      3967      3919
 -1      1242   10    0    1
 -2      1325      1347        63        64      3967      3968      3969      3921
 -1      1243   10    0    1
 -2        34        35      1348      1326      3970      3971      3972      3924
 -1      1244   10    0    1
 -2      1326      1348      1349      1327      3972      3973      3974      3926
 -1      1245   10    0    1
 -2      1327      1349      1350      1328      3974      3975      3976      3928
 -1      1246   10    0    1
 -2      1328      1350      1351      1329      3976      3977      3978      3930
 -1      1247   10    0    1
 -2      1329      1351      1352      1330      3978      3979      3980      3932
 -1      1248   10    0    1
 -2      1330      1352      1353      1331      3980      3981      3982      3934
 -1      1249   10    0    1
 -2      1331      1353      1354      1332      3982      3983      3984      3936
 -1      1250   10    0    1
 -2      1332      1354      1355      1333      3984      3985      3986      3938
 -1      1251   10    0    1
 -2      1333      1355      1356      1334      3986      3987      3988      3940
 -1      1252   10    0    1
 -2      1334      1356      1357      1335      3988      3989      3990      3942
 -1      1253   10    0    1
 -2      1335      1357      1358      1336      3990      3991      3992      3944
 -1      1254   10    0    1
 -2      1336      1358      1359      1337      3992      3993      3994      3946
 -1      1255   10    0    1
 -2      1337      1359      1360      1338      3994      3995      3996      3948
 -1      1256   10    0    1
 -2      1338      1360      1361      1339      3996      3997      3998      3950
 -1      1257   10    0    1
 -2      1339      1361      1362      1340      3998      3999      4000      3952
 -1      1258   10    0    1
 -2      1340      1362      1363      1341      4000      4001      4002      3954
 -1      1259   10    0    1
 -2      1341      1363      1364      1342      4002      4003      4004      3956
 -1      1260   10    0    1
 -2      1342      1364      1365      1343      4004      4005      4006      3958
 -1      1261   10    0    1
 -2      1343      1365      1366      1344      4006      4007      4008      3960
 -1      1262   10    0    1
 -2      1344      1366      1367      1345      4008      4009      4010      3962
 -1      1263   10    0    1
 -2      1345      1367      1368      1346      4010      4011      4012      3964
 -1      1264   10    0    1
 -2      1346      1368      1369      1347      4012      4013      4014      3966
 -1      1265   10    0    1
 -2      1347      1369        62        63      4014      4015      4016      3968
 -1      1266   10    0    1
 -2        35        36      1370      1348      4017      4018      4019      3971
 -1      1267   10    0    1
 -2      1348      1370      1371      1349      4019      4020      4021      3973
 -1      1268   10    0    1
 -2      1349      1371      1372      1350      4021      4022      4023      3975
 -1      1269   10    0    1
 -2      1350      1372      1373      1351      4023      4024      4025      3977
 -1      1270   10    0    1
 -2      1351      1373      1374      1352      4025      4026      4027      3979
 -1      1271   10    0    1
 -2      1352      1374      1375      1353      4027      4028      4029      3981
 -1      1272   10    0    1
 -2      1353      1375      1376      1354      4029      4030      4031      3983
 -1      1273   10    0    1
 -2      1354      1376      1377      1355      4031      4032      4033      3985
 -1      1274   10    0    1
 -2      1355      1377      1378      1356      4033      4034      4035      3987
 -1      1275   10    0    1
 -2      1356      1378      1379      1357      4035      4036      4037      3989
 -1      1276   10    0    1
 -2      1357      1379      1380      1358      4037      4038      4039      3991
 -1      1277   10    0    1
 -2      1358      1380      1381      1359      4039      4040      4041      3993
 -1      1278   10    0    1
 -2      1359      1381      1382      1360      4041      4042      4043      3995
 -1      1279   10    0    1
 -2      1360      1382      1383      1361      4043      4044      4045      3997
 -1      1280   10    0    1
 -2      1361      1383      1384      1362      4045      4046      4047      3999
 -1      1281   10    0    1
 -2      1362      1384      1385      1363      4047      4048      4049      4001
 -1      1282   10    0    1
 -2      1363      1385      1386      1364      4049      4050      4051      4003
 -1      1283   10    0    1
 -2      1364      1386      1387      1365      4051      4052      4053      4005
 -1      1284   10    0    1
 -2      1365      1387      1388      1366      4053      4054      4055      4007
 -1      1285   10    0    1
 -2      1366      1388      1389      1367      4055      4056      4057      4009
 -1      1286   10    0    1
 -2      1367      1389      1390      1368      4057      4058      4059      4011
 -1      1287   10    0    1
 -2      1368      1390      1391      1369      4059      4060      4061      4013
 -1      1288   10    0    1
 -2      1369      1391        61        62      4061      4062      4063      4015
 -1      1289   10    0    1
 -2        36        37      1392      1370      4064      4065      4066      4018
 -1      1290   10    0    1
 -2      1370      1392      1393      1371      4066      4067      4068      4020
 -1      1291   10    0    1
 -2      1371      1393      1394      1372      4068      4069      4070      4022
 -1      1292   10    0    1
 -2      1372      1394      1395      1373      4070      4071      4072      4024
 -1      1293   10    0    1
 -2      1373      1395      1396      1374      4072      4073      4074      4026
 -1      1294   10    0    1
 -2      1374      1396      1397      1375      4074      4075      4076      4028
 -1      1295   10    0    1
 -2      1375      1397      1398      1376      4076      4077      4078      4030
 -1      1296   10    0    1
 -2      1376      1398      1399      1377      4078      4079      4080      4032
 -1      1297   10    0    1
 -2      1377      1399      1400      1378      4080      4081      4082      4034
 -1      1298   10    0    1
 -2      1378      1400      1401      1379      4082      4083      4084      4036
 -1      1299   10    0    1
 -2      1379      1401      1402      1380      4084      4085      4086      4038
 -1      1300   10    0    1
 -2      1380      1402      1403      1381      4086      4087      4088      4040
 -1      1301   10    0    1
 -2      1381      1403      1404      1382      4088      4089      4090      4042
 -1      1302   10    0    1
 -2      1382      1404      1405      1383      4090      4091      4092      4044
 -1      1303   10    0    1
 -2      1383      1405      1406      1384      4092      4093      4094      4046
 -1      1304   10    0    1
 -2      1384      1406      1407      1385      4094      4095      4096      4048
 -1      1305   10    0    1
 -2      1385      1407      1408      1386      4096      4097      4098      4050
 -1      1306   10    0    1
 -2      1386      1408      1409      1387      4098      4099      4100      4052
 -1      1307   10    0    1
 -2      1387      1409      1410      1388      4100      4101      4102      4054
 -1      1308   10    0    1
 -2      1388      1410      1411      1389      4102      4103      4104      4056
 -1      1309   10    0    1
 -2      1389      1411      1412      1390      4104      4105      4106      4058
 -1      1310   10    0    1
 -2      1390      1412      1413      1391      4106      4107      4108      4060
 -1      1311   10    0    1
 -2      1391      1413        60        61      4108      4109      4110      4062
 -1      1312   10    0    1
 -2        37         2        38      1392      4111      4112      4113      4065
 -1      1313   10    0    1
 -2      1392        38        39      1393      4113      4114      4115      4067
 -1      1314   10    0    1
 -2      1393        39        40      1394      4115      4116      4117      4069
 -1      1315   10    0    1
 -2      1394        40        41      1395      4117      4118      4119      4071
 -1      1316   10    0    1
 -2      1395        41        42      1396      4119      4120      4121      4073
 -1      1317   10    0    1
 -2      1396        42        43      1397      4121      4122      4123      4075
 -1      1318   10    0    1
 -2      1397        43        44      1398      4123      4124      4125      4077
 -1      1319   10    0    1
 -2      1398        44        45      1399      4125      4126      4127      4079
 -1      1320   10    0    1
 -2      1399        45        46      1400      4127      4128      4129      4081
 -1      1321   10    0    1
 -2      1400        46        47      1401      4129      4130      4131      4083
 -1      1322   10    0    1
 -2      1401        47        48      1402      4131      4132      4133      4085
 -1      1323   10    0    1
 -2      1402        48        49      1403      4133      4134      4135      4087
 -1      1324   10    0    1
 -2      1403        49        50      1404      4135      4136      4137      4089
 -1      1325   10    0    1
 -2      1404        50        51      1405      4137      4138      4139      4091
 -1      1326   10    0    1
 -2      1405        51        52      1406      4139      4140      4141      4093
 -1      1327   10    0    1
 -2      1406        52        53      1407      4141      4142      4143      4095
 -1      1328   10    0    1
 -2      1407        53        54      1408      4143      4144      4145      4097
 -1      1329   10    0    1
 -2      1408        54        55      1409      4145      4146      4147      4099
 -1      1330   10    0    1
 -2      1409        55        56      1410      4147      4148      4149      4101
 -1      1331   10    0    1
 -2      1410        56        57      1411      4149      4150      4151      4103
 -1      1332   10    0    1
 -2      1411        57        58      1412      4151      4152      4153      4105
 -1      1333   10    0    1
 -2      1412        58        59      1413      4153      4154      4155      4107
 -1      1334   10    0    1
 -2      1413        59         3        60      4155      4156      4157      4109
 -3
    1PSTEP                         1           1           1          
  100CL  101 1.000000000        4156                     0    1           1
 -4  DISP        4    1
 -5  D1          1    2    1    0
 -5  D2          1    2    2    0
 -5  D3          1    2    3    0
 -5  ALL         1    2    0    0    1ALL
 -1         1-6.54602E-03 4.53495E-02 0.00000E+00
 -1         2 0.00000E+00 1.03229E-02 0.00000E+00
 -1         3 0.00000E+00 2.08216E-02 0.00000E+00
 -1         4 8.08627E-03 4.58112E-02 0.00000E+00
 -1         5 0.00000E+00 1.01591E-02 0.00000E+00
 -1         6 1.27753E-03 0.00000E+00 0.00000E+00
 -1         7 0.00000E+00 0.00000E+00 0.00000E+00
 -1         9-6.54766E-03 4.32367E-02 0.00000E+00
 -1        10-6.54098E-03 4.05219E-02 0.00000E+00
 -1        11-6.49298E-03 3.80135E-02 0.00000E+00
 -1        12-6.39038E-03 3.57135E-02 0.00000E+00
 -1        13-6.23277E-03 3.36242E-02 0.00000E+00
 -1        14-6.02599E-03 3.17426E-02 0.00000E+00
 -1        15-5.77889E-03 3.00607E-02 0.00000E+00
 -1        16-5.50141E-03 2.85666E-02 0.00000E+00
 -1        17-5.20347E-03 2.72452E-02 0.00000E+00
 -1        18-4.89415E-03 2.60795E-02 0.00000E+00
 -1        19-4.58130E-03 2.50518E-02 0.00000E+00
 -1        20-4.27138E-03 2.41443E-02 0.00000E+00
 -1        21-3.96942E-03 2.33398E-02 0.00000E+00
 -1        22-3.67915E-03 2.26221E-02 0.00000E+00
 -1        23-3.40314E-03 2.19764E-02 0.00000E+00
 -1        24-3.14301E-03 2.13888E-02 0.00000E+00
 -1        25-2.89963E-03 2.08471E-02 0.00000E+00
 -1        26-2.67326E-03 2.03397E-02 0.00000E+00
 -1        27-2.46373E-03 1.98564E-02 0.00000E+00
 -1        28-2.27056E-03 1.93869E-02 0.00000E+00
 -1        29-2.09305E-03 1.89216E-02 0.00000E+00
 -1        30-1.93038E-03 1.84498E-02 0.00000E+00
 -1        31-1.78167E-03 1.79596E-02 0.00000E+00
 -1        32-1.64593E-03 1.74359E-02 0.00000E+00
 -1        33-1.52256E-03 1.68571E-02 0.00000E+00
 -1        34-1.40947E-03 1.61900E-02 0.00000E+00
 -1        35-1.30665E-03 1.53676E-02 0.00000E+00
 -1        36-1.21827E-03 1.42224E-02 0.00000E+00
 -1        37-1.02496E-03 1.18563E-02 0.00000E+00
 -1        38 0.00000E+00 1.16109E-02 0.00000E+00
 -1        39 0.00000E+00 1.28190E-02 0.00000E+00
 -1        40 0.00000E+00 1.37205E-02 0.00000E+00
 -1        41 0.00000E+00 1.44260E-02 0.00000E+00
 -1        42 0.00000E+00 1.50041E-02 0.00000E+00
 -1        43 0.00000E+00 1.54965E-02 0.00000E+00
 -1        44 0.00000E+00 1.59277E-02 0.00000E+00
 -1        45 0.00000E+00 1.63135E-02 0.00000E+00
 -1        46 0.00000E+00 1.66646E-02 0.00000E+00
 -1        47 0.00000E+00 1.69885E-02 0.00000E+00
 -1        48 0.00000E+00 1.72909E-02 0.00000E+00
 -1        49 0.00000E+00 1.75764E-02 0.00000E+00
 -1        50 0.00000E+00 1.78486E-02 0.00000E+00
 -1        51 0.00000E+00 1.81107E-02 0.00000E+00
 -1        52 0.00000E+00 1.83657E-02 0.00000E+00
 -1        53 0.00000E+00 1.86166E-02 0.00000E+00
 -1        54 0.00000E+00 1.88669E-02 0.00000E+00
 -1        55 0.00000E+00 1.91208E-02 0.00000E+00
 -1        56 0.00000E+00 1.93841E-02 0.00000E+00
 -1        57 0.00000E+00 1.96657E-02 0.00000E+00
 -1        58 0.00000E+00 1.99799E-02 0.00000E+00
 -1        59 0.00000E+00 2.03519E-02 0.00000E+00
 -1        60 1.27170E-04 2.08237E-02 0.00000E+00
 -1        61 2.66977E-04 2.08309E-02 0.00000E+00
 -1        62 4.20564E-04 2.08447E-02 0.00000E+00
 -1        63 5.89132E-04 2.08670E-02 0.00000E+00
 -1        64 7.73919E-04 2.09001E-02 0.00000E+00
 -1        65 9.76179E-04 2.09467E-02 0.00000E+00
 -1        66 1.19714E-03 2.10103E-02 0.00000E+00
 -1        67 1.43797E-03 2.10950E-02 0.00000E+00
 -1        68 1.69968E-03 2.12056E-02 0.00000E+00
 -1        69 1.98308E-03 2.13478E-02 0.00000E+00
 -1        70 2.28864E-03 2.15284E-02 0.00000E+00
 -1        71 2.61637E-03 2.17552E-02 0.00000E+00
 -1        72 2.96570E-03 2.20370E-02 0.00000E+00
 -1        73 3.33535E-03 2.23839E-02 0.00000E+00
 -1        74 3.72315E-03 2.28069E-02 0.00000E+00
 -1        75 4.12596E-03 2.33181E-02 0.00000E+00
 -1        76 4.53966E-03 2.39303E-02 0.00000E+00
 -1        77 4.95907E-03 2.46568E-02 0.00000E+00
 -1        78 5.37813E-03 2.55113E-02 0.00000E+00
 -1        79 5.79001E-03 2.65076E-02 0.00000E+00
 -1        80 6.18734E-03 2.76592E-02 0.00000E+00
 -1        81 6.56241E-03 2.89792E-02 0.00000E+00
 -1        82 6.90746E-03 3.04796E-02 0.00000E+00
 -1        83 7.21491E-03 3.21715E-02 0.00000E+00
 -1        84 7.47778E-03 3.40635E-02 0.00000E+00
 -1        85 7.69046E-03 3.61616E-02 0.00000E+00
 -1        86 7.85012E-03 3.84677E-02 0.00000E+00
 -1        87 7.95962E-03 4.09799E-02 0.00000E+00
 -1        88 8.03416E-03 4.36968E-02 0.00000E+00
 -1        89 6.57527E-03 4.57169E-02 0.00000E+00
 -1        90 5.19289E-03 4.56294E-02 0.00000E+00
 -1        91 3.94863E-03 4.55543E-02 0.00000E+00
 -1        92 2.82715E-03 4.54936E-02 0.00000E+00
 -1        93 1.81382E-03 4.54469E-02 0.00000E+00
 -1        94 8.95782E-04 4.54124E-02 0.00000E+00
 -1        95 6.21629E-05 4.53880E-02 0.00000E+00
 -1        96-6.96145E-04 4.53714E-02 0.00000E+00
 -1        97-1.38680E-03 4.53606E-02 0.00000E+00
 -1        98-2.01634E-03 4.53540E-02 0.00000E+00
 -1        99-2.59037E-03 4.53503E-02 0.00000E+00
 -1       100-3.11385E-03 4.53485E-02 0.00000E+00
 -1       101-3.59115E-03 4.53479E-02 0.00000E+00
 -1       102-4.02623E-03 4.53480E-02 0.00000E+00
 -1       103-4.42267E-03 4.53483E-02 0.00000E+00
 -1       104-4.78374E-03 4.53488E-02 0.00000E+00
 -1       105-5.11246E-03 4.53492E-02 0.00000E+00
 -1       106-5.41159E-03 4.53494E-02 0.00000E+00
 -1       107-5.68369E-03 4.53496E-02 0.00000E+00
 -1       108-5.93110E-03 4.53497E-02 0.00000E+00
 -1       109-6.15599E-03 4.53497E-02 0.00000E+00
 -1       110-6.36063E-03 4.53496E-02 0.00000E+00
 -1       111-5.00878E-04 9.77703E-03 0.00000E+00
 -1       112-9.27782E-04 8.48043E-03 0.00000E+00
 -1       113-9.60438E-04 6.88550E-03 0.00000E+00
 -1       114-9.16265E-04 5.99267E-03 0.00000E+00
 -1       115-8.73242E-04 5.31674E-03 0.00000E+00
 -1       116-8.25637E-04 4.75629E-03 0.00000E+00
 -1       117-7.73383E-04 4.26957E-03 0.00000E+00
 -1       118-7.16483E-04 3.83518E-03 0.00000E+00
 -1       119-6.54329E-04 3.44006E-03 0.00000E+00
 -1       120-5.86490E-04 3.07598E-03 0.00000E+00
 -1       121-5.12486E-04 2.73742E-03 0.00000E+00
 -1       122-4.31862E-04 2.42068E-03 0.00000E+00
 -1       123-3.44191E-04 2.12328E-03 0.00000E+00
 -1       124-2.49094E-04 1.84368E-03 0.00000E+00
 -1       125-1.46285E-04 1.58104E-03 0.00000E+00
 -1       126-3.56065E-05 1.33511E-03 0.00000E+00
 -1       127 8.28953E-05 1.10618E-03 0.00000E+00
 -1       128 2.08891E-04 8.94978E-04 0.00000E+00
 -1       129 3.41652E-04 7.02625E-04 0.00000E+00
 -1       130 4.79906E-04 5.30591E-04 0.00000E+00
 -1       131 6.21648E-04 3.80578E-04 0.00000E+00
 -1       132 7.63915E-04 2.54364E-04 0.00000E+00
 -1       133 9.02501E-04 1.53552E-04 0.00000E+00
 -1       134 1.03164E-03 7.91645E-05 0.00000E+00
 -1       135 1.14364E-03 3.10061E-05 0.00000E+00
 -1       136 1.22856E-03 6.69024E-06 0.00000E+00
 -1       137 1.27382E-03 1.99772E-07 0.00000E+00
 -1       138 1.27745E-03 0.00000E+00 0.00000E+00
 -1       139 1.27716E-03 0.00000E+00 0.00000E+00
 -1       140 1.27662E-03 0.00000E+00 0.00000E+00
 -1       141 1.27570E-03 0.00000E+00 0.00000E+00
 -1       142 1.27429E-03 0.00000E+00 0.00000E+00
 -1       143 1.27221E-03 0.00000E+00 0.00000E+00
 -1       144 1.26923E-03 0.00000E+00 0.00000E+00
 -1       145 1.26506E-03 0.00000E+00 0.00000E+00
 -1       146 1.25928E-03 0.00000E+00 0.00000E+00
 -1       147 1.25136E-03 0.00000E+00 0.00000E+00
 -1       148 1.24058E-03 0.00000E+00 0.00000E+00
 -1       149 1.22595E-03 0.00000E+00 0.00000E+00
 -1       150 1.20617E-03 0.00000E+00 0.00000E+00
 -1       151 1.17949E-03 0.00000E+00 0.00000E+00
 -1       152 1.14356E-03 0.00000E+00 0.00000E+00
 -1       153 1.09530E-03 0.00000E+00 0.00000E+00
 -1       154 1.03070E-03 0.00000E+00 0.00000E+00
 -1       155 9.44723E-04 0.00000E+00 0.00000E+00
 -1       156 8.31343E-04 0.00000E+00 0.00000E+00
 -1       157 6.83991E-04 0.00000E+00 0.00000E+00
 -1       158 4.96720E-04 0.00000E+00 0.00000E+00
 -1       159 2.66372E-04 0.00000E+00 0.00000E+00
 -1       160 0.00000E+00 9.50758E-03 0.00000E+00
 -1       161 0.00000E+00 8.73996E-03 0.00000E+00
 -1       162 0.00000E+00 8.00865E-03 0.00000E+00
 -1       163 0.00000E+00 7.35585E-03 0.00000E+00
 -1       164 0.00000E+00 6.77702E-03 0.00000E+00
 -1       165 0.00000E+00 6.25831E-03 0.00000E+00
 -1       166 0.00000E+00 5.78646E-03 0.00000E+00
 -1       167 0.00000E+00 5.35097E-03 0.00000E+00
 -1       168 0.00000E+00 4.94385E-03 0.00000E+00
 -1       169 0.00000E+00 4.55892E-03 0.00000E+00
 -1       170 0.00000E+00 4.19136E-03 0.00000E+00
 -1       171 0.00000E+00 3.83728E-03 0.00000E+00
 -1       172 0.00000E+00 3.49343E-03 0.00000E+00
 -1       173 0.00000E+00 3.15700E-03 0.00000E+00
 -1       174 0.00000E+00 2.82542E-03 0.00000E+00
 -1       175 0.00000E+00 2.49623E-03 0.00000E+00
 -1       176 0.00000E+00 2.16695E-03 0.00000E+00
 -1       177 0.00000E+00 1.83490E-03 0.00000E+00
 -1       178 0.00000E+00 1.49703E-03 0.00000E+00
 -1       179 0.00000E+00 1.14965E-03 0.00000E+00
 -1       180 0.00000E+00 7.88122E-04 0.00000E+00
 -1       181 0.00000E+00 4.06085E-04 0.00000E+00
 -1       182-8.47641E-06 9.19193E-03 0.00000E+00
 -1       183 1.50933E-04 8.51803E-03 0.00000E+00
 -1       184 1.75892E-04 7.86755E-03 0.00000E+00
 -1       185 1.60680E-04 7.26799E-03 0.00000E+00
 -1       186 1.37882E-04 6.72163E-03 0.00000E+00
 -1       187 1.16439E-04 6.22255E-03 0.00000E+00
 -1       188 9.82473E-05 5.76281E-03 0.00000E+00
 -1       189 8.32291E-05 5.33503E-03 0.00000E+00
 -1       190 7.08636E-05 4.93293E-03 0.00000E+00
 -1       191 6.06138E-05 4.55136E-03 0.00000E+00
 -1       192 5.20284E-05 4.18608E-03 0.00000E+00
 -1       193 4.47507E-05 3.83359E-03 0.00000E+00
 -1       194 3.85031E-05 3.49085E-03 0.00000E+00
 -1       195 3.30692E-05 3.15520E-03 0.00000E+00
 -1       196 2.82783E-05 2.82417E-03 0.00000E+00
 -1       197 2.39932E-05 2.49538E-03 0.00000E+00
 -1       198 2.01010E-05 2.16638E-03 0.00000E+00
 -1       199 1.65054E-05 1.83453E-03 0.00000E+00
 -1       200 1.31204E-05 1.49679E-03 0.00000E+00
 -1       201 9.86460E-06 1.14951E-03 0.00000E+00
 -1       202 6.65362E-06 7.88045E-04 0.00000E+00
 -1       203 3.38873E-06 4.06051E-04 0.00000E+00
 -1       204-5.50420E-05 8.19512E-03 0.00000E+00
 -1       205 2.29928E-04 7.85039E-03 0.00000E+00
 -1       206 3.02931E-04 7.43819E-03 0.00000E+00
 -1       207 2.97651E-04 6.99306E-03 0.00000E+00
 -1       208 2.67242E-04 6.54380E-03 0.00000E+00
 -1       209 2.32143E-04 6.10555E-03 0.00000E+00
 -1       210 1.99392E-04 5.68449E-03 0.00000E+00
 -1       211 1.70851E-04 5.28177E-03 0.00000E+00
 -1       212 1.46555E-04 4.89624E-03 0.00000E+00
 -1       213 1.25976E-04 4.52585E-03 0.00000E+00
 -1       214 1.08492E-04 4.16824E-03 0.00000E+00
 -1       215 9.35260E-05 3.82107E-03 0.00000E+00
 -1       216 8.05927E-05 3.48207E-03 0.00000E+00
 -1       217 6.92917E-05 3.14908E-03 0.00000E+00
 -1       218 5.92959E-05 2.81994E-03 0.00000E+00
 -1       219 5.03355E-05 2.49249E-03 0.00000E+00
 -1       220 4.21842E-05 2.16444E-03 0.00000E+00
 -1       221 3.46462E-05 1.83326E-03 0.00000E+00
 -1       222 2.75451E-05 1.49599E-03 0.00000E+00
 -1       223 2.07117E-05 1.14903E-03 0.00000E+00
 -1       224 1.39708E-05 7.87780E-04 0.00000E+00
 -1       225 7.11565E-06 4.05934E-04 0.00000E+00
 -1       226-2.40241E-04 6.95137E-03 0.00000E+00
 -1       227 1.57256E-04 6.94722E-03 0.00000E+00
 -1       228 3.25658E-04 6.80194E-03 0.00000E+00
 -1       229 3.73026E-04 6.55453E-03 0.00000E+00
 -1       230 3.63994E-04 6.24397E-03 0.00000E+00
 -1       231 3.32618E-04 5.90044E-03 0.00000E+00
 -1       232 2.95008E-04 5.54338E-03 0.00000E+00
 -1       233 2.58095E-04 5.18399E-03 0.00000E+00
 -1       234 2.24450E-04 4.82802E-03 0.00000E+00
 -1       235 1.94713E-04 4.47798E-03 0.00000E+00
 -1       236 1.68732E-04 4.13454E-03 0.00000E+00
 -1       237 1.46074E-04 3.79733E-03 0.00000E+00
 -1       238 1.26240E-04 3.46538E-03 0.00000E+00
 -1       239 1.08756E-04 3.13740E-03 0.00000E+00
 -1       240 9.31951E-05 2.81184E-03 0.00000E+00
 -1       241 7.91869E-05 2.48695E-03 0.00000E+00
 -1       242 6.64061E-05 2.16072E-03 0.00000E+00
 -1       243 5.45635E-05 1.83082E-03 0.00000E+00
 -1       244 4.33925E-05 1.49445E-03 0.00000E+00
 -1       245 3.26338E-05 1.14811E-03 0.00000E+00
 -1       246 2.20151E-05 7.87272E-04 0.00000E+00
 -1       247 1.12136E-05 4.05712E-04 0.00000E+00
 -1       248-4.04834E-04 6.04735E-03 0.00000E+00
 -1       249 3.70451E-06 6.10996E-03 0.00000E+00
 -1       250 2.52804E-04 6.11103E-03 0.00000E+00
 -1       251 3.73322E-04 6.02131E-03 0.00000E+00
 -1       252 4.11387E-04 5.84849E-03 0.00000E+00
 -1       253 4.04253E-04 5.61361E-03 0.00000E+00
 -1       254 3.75647E-04 5.33771E-03 0.00000E+00
 -1       255 3.38923E-04 5.03722E-03 0.00000E+00
 -1       256 3.00903E-04 4.72346E-03 0.00000E+00
 -1       257 2.64731E-04 4.40353E-03 0.00000E+00
 -1       258 2.31627E-04 4.08157E-03 0.00000E+00
 -1       259 2.01857E-04 3.75972E-03 0.00000E+00
 -1       260 1.75250E-04 3.43879E-03 0.00000E+00
 -1       261 1.51458E-04 3.11872E-03 0.00000E+00
 -1       262 1.30073E-04 2.79886E-03 0.00000E+00
 -1       263 1.10688E-04 2.47805E-03 0.00000E+00
 -1       264 9.29192E-05 2.15474E-03 0.00000E+00
 -1       265 7.64015E-05 1.82690E-03 0.00000E+00
 -1       266 6.07875E-05 1.49197E-03 0.00000E+00
 -1       267 4.57295E-05 1.14661E-03 0.00000E+00
 -1       268 3.08553E-05 7.86450E-04 0.00000E+00
 -1       269 1.57180E-05 4.05352E-04 0.00000E+00
 -1       270-4.88774E-04 5.35982E-03 0.00000E+00
 -1       271-1.32397E-04 5.42214E-03 0.00000E+00
 -1       272 1.41656E-04 5.46981E-03 0.00000E+00
 -1       273 3.17560E-04 5.46804E-03 0.00000E+00
 -1       274 4.08723E-04 5.39925E-03 0.00000E+00
 -1       275 4.39663E-04 5.26412E-03 0.00000E+00
 -1       276 4.33443E-04 5.07350E-03 0.00000E+00
 -1       277 4.07106E-04 4.84117E-03 0.00000E+00
 -1       278 3.71599E-04 4.57972E-03 0.00000E+00
 -1       279 3.33288E-04 4.29901E-03 0.00000E+00
 -1       280 2.95554E-04 4.00606E-03 0.00000E+00
 -1       281 2.59997E-04 3.70551E-03 0.00000E+00
 -1       282 2.27214E-04 3.40014E-03 0.00000E+00
 -1       283 1.97269E-04 3.09142E-03 0.00000E+00
 -1       284 1.69957E-04 2.77979E-03 0.00000E+00
 -1       285 1.44949E-04 2.46493E-03 0.00000E+00
 -1       286 1.21864E-04 2.14589E-03 0.00000E+00
 -1       287 1.00304E-04 1.82109E-03 0.00000E+00
 -1       288 7.98595E-05 1.48829E-03 0.00000E+00
 -1       289 6.01035E-05 1.14440E-03 0.00000E+00
 -1       290 4.05649E-05 7.85231E-04 0.00000E+00
 -1       291 2.06675E-05 4.04817E-04 0.00000E+00
 -1       292-5.23835E-04 4.79384E-03 0.00000E+00
 -1       293-2.24701E-04 4.84806E-03 0.00000E+00
 -1       294 3.69827E-05 4.90452E-03 0.00000E+00
 -1       295 2.37601E-04 4.94091E-03 0.00000E+00
 -1       296 3.69664E-04 4.93593E-03 0.00000E+00
 -1       297 4.40482E-04 4.87739E-03 0.00000E+00
 -1       298 4.64710E-04 4.76362E-03 0.00000E+00
 -1       299 4.57754E-04 4.60037E-03 0.00000E+00
 -1       300 4.32269E-04 4.39678E-03 0.00000E+00
 -1       301 3.97247E-04 4.16235E-03 0.00000E+00
 -1       302 3.58450E-04 3.90532E-03 0.00000E+00
 -1       303 3.19258E-04 3.63207E-03 0.00000E+00
 -1       304 2.81470E-04 3.34720E-03 0.00000E+00
 -1       305 2.45901E-04 3.05369E-03 0.00000E+00
 -1       306 2.12784E-04 2.75327E-03 0.00000E+00
 -1       307 1.82029E-04 2.44660E-03 0.00000E+00
 -1       308 1.53361E-04 2.13349E-03 0.00000E+00
 -1       309 1.26409E-04 1.81293E-03 0.00000E+00
 -1       310 1.00740E-04 1.48310E-03 0.00000E+00
 -1       311 7.58653E-05 1.14128E-03 0.00000E+00
 -1       312 5.12225E-05 7.83508E-04 0.00000E+00
 -1       313 2.61033E-05 4.04061E-04 0.00000E+00
 -1       314-5.30063E-04 4.30405E-03 0.00000E+00
 -1       315-2.79879E-04 4.35173E-03 0.00000E+00
 -1       316-4.39138E-05 4.40658E-03 0.00000E+00
 -1       317 1.58290E-04 4.45632E-03 0.00000E+00
 -1       318 3.12900E-04 4.48484E-03 0.00000E+00
 -1       319 4.15652E-04 4.47731E-03 0.00000E+00
 -1       320 4.71035E-04 4.42439E-03 0.00000E+00
 -1       321 4.88699E-04 4.32356E-03 0.00000E+00
 -1       322 4.79620E-04 4.17785E-03 0.00000E+00
 -1       323 4.53558E-04 3.99347E-03 0.00000E+00
 -1       324 4.17993E-04 3.77765E-03 0.00000E+00
 -1       325 3.78087E-04 3.53720E-03 0.00000E+00
 -1       326 3.37091E-04 3.27778E-03 0.00000E+00
 -1       327 2.96873E-04 3.00367E-03 0.00000E+00
 -1       328 2.58370E-04 2.71782E-03 0.00000E+00
 -1       329 2.21920E-04 2.42194E-03 0.00000E+00
 -1       330 1.87496E-04 2.11672E-03 0.00000E+00
 -1       331 1.54843E-04 1.80185E-03 0.00000E+00
 -1       332 1.23559E-04 1.47605E-03 0.00000E+00
 -1       333 9.31281E-05 1.13702E-03 0.00000E+00
 -1       334 6.29106E-05 7.81155E-04 0.00000E+00
 -1       335 3.20694E-05 4.03028E-04 0.00000E+00
 -1       336-5.16222E-04 3.86775E-03 0.00000E+00
 -1       337-3.05993E-04 3.91080E-03 0.00000E+00
 -1       338-9.84623E-05 3.96180E-03 0.00000E+00
 -1       339 9.26751E-05 4.01447E-03 0.00000E+00
 -1       340 2.54174E-04 4.05843E-03 0.00000E+00
 -1       341 3.77009E-04 4.08129E-03 0.00000E+00
 -1       342 4.58316E-04 4.07165E-03 0.00000E+00
 -1       343 5.01087E-04 4.02183E-03 0.00000E+00
 -1       344 5.12175E-04 3.92897E-03 0.00000E+00
 -1       345 4.99852E-04 3.79452E-03 0.00000E+00
 -1       346 4.71926E-04 3.62281E-03 0.00000E+00
 -1       347 4.34738E-04 3.41942E-03 0.00000E+00
 -1       348 3.92908E-04 3.19002E-03 0.00000E+00
 -1       349 3.49506E-04 2.93953E-03 0.00000E+00
 -1       350 3.06386E-04 2.67185E-03 0.00000E+00
 -1       351 2.64527E-04 2.38970E-03 0.00000E+00
 -1       352 2.24308E-04 2.09466E-03 0.00000E+00
 -1       353 1.85710E-04 1.78720E-03 0.00000E+00
 -1       354 1.48441E-04 1.46669E-03 0.00000E+00
 -1       355 1.12006E-04 1.13135E-03 0.00000E+00
 -1       356 7.57156E-05 7.78016E-04 0.00000E+00
 -1       357 3.86124E-05 4.01647E-04 0.00000E+00
 -1       358-4.87191E-04 3.47137E-03 0.00000E+00
 -1       359-3.09432E-04 3.51115E-03 0.00000E+00
 -1       360-1.28772E-04 3.55844E-03 0.00000E+00
 -1       361 4.57451E-05 3.61014E-03 0.00000E+00
 -1       362 2.03649E-04 3.66009E-03 0.00000E+00
 -1       363 3.35400E-04 3.69943E-03 0.00000E+00
 -1       364 4.34525E-04 3.71798E-03 0.00000E+00
 -1       365 4.98898E-04 3.70638E-03 0.00000E+00
 -1       366 5.30662E-04 3.65798E-03 0.00000E+00
 -1       367 5.35000E-04 3.56975E-03 0.00000E+00
 -1       368 5.18459E-04 3.44218E-03 0.00000E+00
 -1       369 4.87498E-04 3.27832E-03 0.00000E+00
 -1       370 4.47603E-04 3.08256E-03 0.00000E+00
 -1       371 4.02932E-04 2.85963E-03 0.00000E+00
 -1       372 3.56352E-04 2.61381E-03 0.00000E+00
 -1       373 3.09647E-04 2.34856E-03 0.00000E+00
 -1       374 2.63772E-04 2.06627E-03 0.00000E+00
 -1       375 2.19082E-04 1.76823E-03 0.00000E+00
 -1       376 1.75498E-04 1.45450E-03 0.00000E+00
 -1       377 1.32612E-04 1.12394E-03 0.00000E+00
 -1       378 8.97255E-05 7.73904E-04 0.00000E+00
 -1       379 4.57811E-05 3.99835E-04 0.00000E+00
 -1       380-4.45570E-04 3.10637E-03 0.00000E+00
 -1       381-2.94426E-04 3.14379E-03 0.00000E+00
 -1       382-1.37828E-04 3.18797E-03 0.00000E+00
 -1       383 1.84303E-05 3.23750E-03 0.00000E+00
 -1       384 1.66733E-04 3.28888E-03 0.00000E+00
 -1       385 2.98881E-04 3.33626E-03 0.00000E+00
 -1       386 4.07542E-04 3.37184E-03 0.00000E+00
 -1       387 4.87746E-04 3.38687E-03 0.00000E+00
 -1       388 5.37822E-04 3.37323E-03 0.00000E+00
 -1       389 5.59412E-04 3.32490E-03 0.00000E+00
 -1       390 5.56657E-04 3.23878E-03 0.00000E+00
 -1       391 5.34965E-04 3.11472E-03 0.00000E+00
 -1       392 4.99852E-04 2.95486E-03 0.00000E+00
 -1       393 4.56152E-04 2.76271E-03 0.00000E+00
 -1       394 4.07634E-04 2.54225E-03 0.00000E+00
 -1       395 3.56956E-04 2.29716E-03 0.00000E+00
 -1       396 3.05783E-04 2.03045E-03 0.00000E+00
 -1       397 2.54987E-04 1.74409E-03 0.00000E+00
 -1       398 2.04820E-04 1.43891E-03 0.00000E+00
 -1       399 1.55051E-04 1.11441E-03 0.00000E+00
 -1       400 1.05029E-04 7.68593E-04 0.00000E+00
 -1       401 5.36257E-05 3.97489E-04 0.00000E+00
 -1       402-3.92839E-04 2.76709E-03 0.00000E+00
 -1       403-2.63777E-04 2.80274E-03 0.00000E+00
 -1       404-1.28285E-04 2.84442E-03 0.00000E+00
 -1       405 9.99148E-06 2.89158E-03 0.00000E+00
 -1       406 1.45756E-04 2.94233E-03 0.00000E+00
 -1       407 2.72616E-04 2.99303E-03 0.00000E+00
 -1       408 3.83858E-04 3.03814E-03 0.00000E+00
 -1       409 4.73563E-04 3.07054E-03 0.00000E+00
 -1       410 5.37725E-04 3.08241E-03 0.00000E+00
 -1       411 5.74986E-04 3.06640E-03 0.00000E+00
 -1       412 5.86697E-04 3.01691E-03 0.00000E+00
 -1       413 5.76331E-04 2.93075E-03 0.00000E+00
 -1       414 5.48530E-04 2.80733E-03 0.00000E+00
 -1       415 5.08137E-04 2.64814E-03 0.00000E+00
 -1       416 4.59484E-04 2.45599E-03 0.00000E+00
 -1       417 4.06008E-04 2.23423E-03 0.00000E+00
 -1       418 3.50144E-04 1.98602E-03 0.00000E+00
 -1       419 2.93395E-04 1.71386E-03 0.00000E+00
 -1       420 2.36470E-04 1.41921E-03 0.00000E+00
 -1       421 1.79418E-04 1.10230E-03 0.00000E+00
 -1       422 1.21710E-04 7.61817E-04 0.00000E+00
 -1       423 6.21965E-05 3.94487E-04 0.00000E+00
 -1       424-3.29821E-04 2.44972E-03 0.00000E+00
 -1       425-2.19317E-04 2.48398E-03 0.00000E+00
 -1       426-1.02234E-04 2.52362E-03 0.00000E+00
 -1       427 1.91790E-05 2.56857E-03 0.00000E+00
 -1       428 1.41331E-04 2.61787E-03 0.00000E+00
 -1       429 2.59507E-04 2.66932E-03 0.00000E+00
 -1       430 3.68176E-04 2.71925E-03 0.00000E+00
 -1       431 4.61645E-04 2.76230E-03 0.00000E+00
 -1       432 5.34944E-04 2.79182E-03 0.00000E+00
 -1       433 5.84728E-04 2.80054E-03 0.00000E+00
 -1       434 6.09882E-04 2.78162E-03 0.00000E+00
 -1       435 6.11596E-04 2.72967E-03 0.00000E+00
 -1       436 5.92919E-04 2.64144E-03 0.00000E+00
 -1       437 5.57969E-04 2.51599E-03 0.00000E+00
 -1       438 5.11100E-04 2.35431E-03 0.00000E+00
 -1       439 4.56250E-04 2.15867E-03 0.00000E+00
 -1       440 3.96553E-04 1.93187E-03 0.00000E+00
 -1       441 3.34201E-04 1.67656E-03 0.00000E+00
 -1       442 2.70465E-04 1.39468E-03 0.00000E+00
 -1       443 2.05787E-04 1.08710E-03 0.00000E+00
 -1       444 1.39849E-04 7.53256E-04 0.00000E+00
 -1       445 7.15427E-05 3.90680E-04 0.00000E+00
 -1       446-2.56971E-04 2.15174E-03 0.00000E+00
 -1       447-1.62257E-04 2.18483E-03 0.00000E+00
 -1       448-6.12441E-05 2.22277E-03 0.00000E+00
 -1       449 4.47130E-05 2.26573E-03 0.00000E+00
 -1       450 1.53227E-04 2.31327E-03 0.00000E+00
 -1       451 2.60936E-04 2.36418E-03 0.00000E+00
 -1       452 3.63557E-04 2.41606E-03 0.00000E+00
 -1       453 4.56181E-04 2.46515E-03 0.00000E+00
 -1       454 5.33830E-04 2.50623E-03 0.00000E+00
 -1       455 5.92204E-04 2.53287E-03 0.00000E+00
 -1       456 6.28441E-04 2.53815E-03 0.00000E+00
 -1       457 6.41627E-04 2.51550E-03 0.00000E+00
 -1       458 6.32885E-04 2.45964E-03 0.00000E+00
 -1       459 6.04996E-04 2.36724E-03 0.00000E+00
 -1       460 5.61724E-04 2.23706E-03 0.00000E+00
 -1       461 5.07062E-04 2.06970E-03 0.00000E+00
 -1       462 4.44615E-04 1.86697E-03 0.00000E+00
 -1       463 3.77220E-04 1.63119E-03 0.00000E+00
 -1       464 3.06770E-04 1.36448E-03 0.00000E+00
 -1       465 2.34201E-04 1.06821E-03 0.00000E+00
 -1       466 1.59512E-04 7.42538E-04 0.00000E+00
 -1       467 8.17100E-05 3.85891E-04 0.00000E+00
 -1       468-1.74537E-04 1.87154E-03 0.00000E+00
 -1       469-9.34181E-05 1.90358E-03 0.00000E+00
 -1       470-6.49605E-06 1.94004E-03 0.00000E+00
 -1       471 8.54436E-05 1.98118E-03 0.00000E+00
 -1       472 1.80839E-04 2.02692E-03 0.00000E+00
 -1       473 2.77347E-04 2.07660E-03 0.00000E+00
 -1       474 3.71778E-04 2.12877E-03 0.00000E+00
 -1       475 4.60170E-04 2.18085E-03 0.00000E+00
 -1       476 5.38063E-04 2.22899E-03 0.00000E+00
 -1       477 6.00995E-04 2.26796E-03 0.00000E+00
 -1       478 6.45156E-04 2.29145E-03 0.00000E+00
 -1       479 6.68051E-04 2.29268E-03 0.00000E+00
 -1       480 6.68952E-04 2.26518E-03 0.00000E+00
 -1       481 6.48979E-04 2.20371E-03 0.00000E+00
 -1       482 6.10759E-04 2.10480E-03 0.00000E+00
 -1       483 5.57815E-04 1.96698E-03 0.00000E+00
 -1       484 4.93853E-04 1.79050E-03 0.00000E+00
 -1       485 4.22175E-04 1.57680E-03 0.00000E+00
 -1       486 3.45281E-04 1.32775E-03 0.00000E+00
 -1       487 2.64666E-04 1.04496E-03 0.00000E+00
 -1       488 1.80744E-04 7.29231E-04 0.00000E+00
 -1       489 9.27371E-05 3.79909E-04 0.00000E+00
 -1       490-8.26872E-05 1.60825E-03 0.00000E+00
 -1       491-1.34018E-05 1.63929E-03 0.00000E+00
 -1       492 6.10911E-05 1.67437E-03 0.00000E+00
 -1       493 1.40363E-04 1.71383E-03 0.00000E+00
 -1       494 2.23410E-04 1.75776E-03 0.00000E+00
 -1       495 3.08624E-04 1.80587E-03 0.00000E+00
 -1       496 3.93691E-04 1.85731E-03 0.00000E+00
 -1       497 4.75547E-04 1.91042E-03 0.00000E+00
 -1       498 5.50458E-04 1.96244E-03 0.00000E+00
 -1       499 6.14290E-04 2.00935E-03 0.00000E+00
 -1       500 6.62954E-04 2.04584E-03 0.00000E+00
 -1       501 6.93012E-04 2.06559E-03 0.00000E+00
 -1       502 7.02265E-04 2.06180E-03 0.00000E+00
 -1       503 6.90165E-04 2.02799E-03 0.00000E+00
 -1       504 6.57876E-04 1.95883E-03 0.00000E+00
 -1       505 6.07952E-04 1.85072E-03 0.00000E+00
 -1       506 5.43742E-04 1.70197E-03 0.00000E+00
 -1       507 4.68707E-04 1.51257E-03 0.00000E+00
 -1       508 3.85815E-04 1.28363E-03 0.00000E+00
 -1       509 2.97132E-04 1.01664E-03 0.00000E+00
 -1       510 2.03564E-04 7.12838E-04 0.00000E+00
 -1       511 1.04652E-04 3.72485E-04 0.00000E+00
 -1       512 1.83952E-05 1.36159E-03 0.00000E+00
 -1       513 7.72750E-05 1.39160E-03 0.00000E+00
 -1       514 1.40731E-04 1.42534E-03 0.00000E+00
 -1       515 2.08555E-04 1.46317E-03 0.00000E+00
 -1       516 2.80109E-04 1.50528E-03 0.00000E+00
 -1       517 3.54307E-04 1.55160E-03 0.00000E+00
 -1       518 4.29496E-04 1.60170E-03 0.00000E+00
 -1       519 5.03370E-04 1.65453E-03 0.00000E+00
 -1       520 5.72941E-04 1.70821E-03 0.00000E+00
 -1       521 6.34635E-04 1.75976E-03 0.00000E+00
 -1       522 6.84543E-04 1.80498E-03 0.00000E+00
 -1       523 7.18856E-04 1.83835E-03 0.00000E+00
 -1       524 7.34419E-04 1.85341E-03 0.00000E+00
 -1       525 7.29286E-04 1.84322E-03 0.00000E+00
 -1       526 7.03088E-04 1.80117E-03 0.00000E+00
 -1       527 6.57070E-04 1.72178E-03 0.00000E+00
 -1       528 5.93763E-04 1.60130E-03 0.00000E+00
 -1       529 5.16377E-04 1.43787E-03 0.00000E+00
 -1       530 4.28100E-04 1.23129E-03 0.00000E+00
 -1       531 3.31479E-04 9.82483E-04 0.00000E+00
 -1       532 2.27949E-04 6.92797E-04 0.00000E+00
 -1       533 1.17464E-04 3.63329E-04 0.00000E+00
 -1       534 1.28410E-04 1.13181E-03 0.00000E+00
 -1       535 1.78057E-04 1.16071E-03 0.00000E+00
 -1       536 2.31648E-04 1.19307E-03 0.00000E+00
 -1       537 2.89104E-04 1.22924E-03 0.00000E+00
 -1       538 3.50026E-04 1.26947E-03 0.00000E+00
 -1       539 4.13683E-04 1.31383E-03 0.00000E+00
 -1       540 4.78910E-04 1.36215E-03 0.00000E+00
 -1       541 5.43997E-04 1.41381E-03 0.00000E+00
 -1       542 6.06621E-04 1.46757E-03 0.00000E+00
 -1       543 6.63831E-04 1.52133E-03 0.00000E+00
 -1       544 7.12147E-04 1.57184E-03 0.00000E+00
 -1       545 7.47815E-04 1.61460E-03 0.00000E+00
 -1       546 7.67226E-04 1.64387E-03 0.00000E+00
 -1       547 7.67452E-04 1.65287E-03 0.00000E+00
 -1       548 7.46766E-04 1.63441E-03 0.00000E+00
 -1       549 7.04981E-04 1.58165E-03 0.00000E+00
 -1       550 6.43449E-04 1.48894E-03 0.00000E+00
 -1       551 5.64697E-04 1.35238E-03 0.00000E+00
 -1       552 4.71773E-04 1.17002E-03 0.00000E+00
 -1       553 3.67507E-04 9.41702E-04 0.00000E+00
 -1       554 2.53823E-04 6.68488E-04 0.00000E+00
 -1       555 1.31159E-04 3.52103E-04 0.00000E+00
 -1       556 2.46836E-04 9.19602E-04 0.00000E+00
 -1       557 2.88226E-04 9.47263E-04 0.00000E+00
 -1       558 3.32947E-04 9.78127E-04 0.00000E+00
 -1       559 3.80986E-04 1.01254E-03 0.00000E+00
 -1       560 4.32098E-04 1.05078E-03 0.00000E+00
 -1       561 4.85792E-04 1.09299E-03 0.00000E+00
 -1       562 5.41242E-04 1.13916E-03 0.00000E+00
 -1       563 5.97194E-04 1.18898E-03 0.00000E+00
 -1       564 6.51870E-04 1.24167E-03 0.00000E+00
 -1       565 7.02905E-04 1.29576E-03 0.00000E+00
 -1       566 7.47341E-04 1.34888E-03 0.00000E+00
 -1       567 7.81738E-04 1.39749E-03 0.00000E+00
 -1       568 8.02434E-04 1.43674E-03 0.00000E+00
 -1       569 8.05959E-04 1.46048E-03 0.00000E+00
 -1       570 7.89566E-04 1.46155E-03 0.00000E+00
 -1       571 7.51728E-04 1.43239E-03 0.00000E+00
 -1       572 6.92436E-04 1.36588E-03 0.00000E+00
 -1       573 6.13154E-04 1.25615E-03 0.00000E+00
 -1       574 5.16381E-04 1.09929E-03 0.00000E+00
 -1       575 4.04916E-04 8.93538E-04 0.00000E+00
 -1       576 2.81036E-04 6.39235E-04 0.00000E+00
 -1       577 1.45687E-04 3.38419E-04 0.00000E+00
 -1       578 3.72802E-04 7.26054E-04 0.00000E+00
 -1       579 4.06763E-04 7.52292E-04 0.00000E+00
 -1       580 4.43469E-04 7.81490E-04 0.00000E+00
 -1       581 4.82938E-04 8.13979E-04 0.00000E+00
 -1       582 5.25015E-04 8.50028E-04 0.00000E+00
 -1       583 5.69363E-04 8.89846E-04 0.00000E+00
 -1       584 6.15394E-04 9.33519E-04 0.00000E+00
 -1       585 6.62184E-04 9.80926E-04 0.00000E+00
 -1       586 7.08380E-04 1.03161E-03 0.00000E+00
 -1       587 7.52117E-04 1.08460E-03 0.00000E+00
 -1       588 7.90955E-04 1.13820E-03 0.00000E+00
 -1       589 8.21889E-04 1.18972E-03 0.00000E+00
 -1       590 8.41468E-04 1.23524E-03 0.00000E+00
 -1       591 8.46061E-04 1.26947E-03 0.00000E+00
 -1       592 8.32289E-04 1.28578E-03 0.00000E+00
 -1       593 7.97543E-04 1.27649E-03 0.00000E+00
 -1       594 7.40472E-04 1.23361E-03 0.00000E+00
 -1       595 6.61236E-04 1.14968E-03 0.00000E+00
 -1       596 5.61382E-04 1.01878E-03 0.00000E+00
 -1       597 4.43294E-04 8.37292E-04 0.00000E+00
 -1       598 3.09350E-04 6.04321E-04 0.00000E+00
 -1       599 1.60949E-04 3.21839E-04 0.00000E+00
 -1       600 5.04930E-04 5.52592E-04 0.00000E+00
 -1       601 5.32186E-04 5.77171E-04 0.00000E+00
 -1       602 5.61633E-04 6.04465E-04 0.00000E+00
 -1       603 5.93295E-04 6.34783E-04 0.00000E+00
 -1       604 6.27068E-04 6.68386E-04 0.00000E+00
 -1       605 6.62711E-04 7.05503E-04 0.00000E+00
 -1       606 6.99792E-04 7.46280E-04 0.00000E+00
 -1       607 7.37621E-04 7.90723E-04 0.00000E+00
 -1       608 7.75164E-04 8.38595E-04 0.00000E+00
 -1       609 8.10956E-04 8.89281E-04 0.00000E+00
 -1       610 8.43017E-04 9.41604E-04 0.00000E+00
 -1       611 8.68799E-04 9.93582E-04 0.00000E+00
 -1       612 8.85204E-04 1.04217E-03 0.00000E+00
 -1       613 8.88714E-04 1.08301E-03 0.00000E+00
 -1       614 8.75675E-04 1.11026E-03 0.00000E+00
 -1       615 8.42739E-04 1.11668E-03 0.00000E+00
 -1       616 7.87396E-04 1.09404E-03 0.00000E+00
 -1       617 7.08436E-04 1.03386E-03 0.00000E+00
 -1       618 6.06154E-04 9.28494E-04 0.00000E+00
 -1       619 4.82103E-04 7.72372E-04 0.00000E+00
 -1       620 3.38413E-04 5.63011E-04 0.00000E+00
 -1       621 1.76784E-04 3.01876E-04 0.00000E+00
 -1       622 6.41151E-04 4.00873E-04 0.00000E+00
 -1       623 6.62355E-04 4.23503E-04 0.00000E+00
 -1       624 6.85233E-04 4.48592E-04 0.00000E+00
 -1       625 7.09801E-04 4.76418E-04 0.00000E+00
 -1       626 7.35976E-04 5.07232E-04 0.00000E+00
 -1       627 7.63572E-04 5.41261E-04 0.00000E+00
 -1       628 7.92260E-04 5.78684E-04 0.00000E+00
 -1       629 8.21505E-04 6.19580E-04 0.00000E+00
 -1       630 8.50504E-04 6.63861E-04 0.00000E+00
 -1       631 8.78099E-04 7.11164E-04 0.00000E+00
 -1       632 9.02689E-04 7.60698E-04 0.00000E+00
 -1       633 9.22148E-04 8.11047E-04 0.00000E+00
 -1       634 9.33779E-04 8.59915E-04 0.00000E+00
 -1       635 9.34336E-04 9.03839E-04 0.00000E+00
 -1       636 9.20170E-04 9.37934E-04 0.00000E+00
 -1       637 8.87534E-04 9.55744E-04 0.00000E+00
 -1       638 8.33047E-04 9.49365E-04 0.00000E+00
 -1       639 7.54236E-04 9.09952E-04 0.00000E+00
 -1       640 6.49989E-04 8.28718E-04 0.00000E+00
 -1       641 5.20664E-04 6.98333E-04 0.00000E+00
 -1       642 3.67735E-04 5.14576E-04 0.00000E+00
 -1       643 1.92943E-04 2.77998E-04 0.00000E+00
 -1       644 7.78468E-04 2.72628E-04 0.00000E+00
 -1       645 7.94239E-04 2.92963E-04 0.00000E+00
 -1       646 8.11210E-04 3.15477E-04 0.00000E+00
 -1       647 8.29378E-04 3.40420E-04 0.00000E+00
 -1       648 8.48663E-04 3.68018E-04 0.00000E+00
 -1       649 8.68908E-04 3.98487E-04 0.00000E+00
 -1       650 8.89841E-04 4.32014E-04 0.00000E+00
 -1       651 9.11033E-04 4.68720E-04 0.00000E+00
 -1       652 9.31839E-04 5.08609E-04 0.00000E+00
 -1       653 9.51326E-04 5.51487E-04 0.00000E+00
 -1       654 9.68189E-04 5.96849E-04 0.00000E+00
 -1       655 9.80662E-04 6.43712E-04 0.00000E+00
 -1       656 9.86431E-04 6.90394E-04 0.00000E+00
 -1       657 9.82594E-04 7.34247E-04 0.00000E+00
 -1       658 9.65685E-04 7.71345E-04 0.00000E+00
 -1       659 9.31839E-04 7.96226E-04 0.00000E+00
 -1       660 8.77124E-04 8.01775E-04 0.00000E+00
 -1       661 7.98037E-04 7.79446E-04 0.00000E+00
 -1       662 6.92068E-04 7.20000E-04 0.00000E+00
 -1       663 5.58139E-04 6.14897E-04 0.00000E+00
 -1       664 3.96660E-04 4.58317E-04 0.00000E+00
 -1       665 2.09073E-04 2.49643E-04 0.00000E+00
 -1       666 9.12679E-04 1.69413E-04 0.00000E+00
 -1       667 9.23643E-04 1.87047E-04 0.00000E+00
 -1       668 9.35380E-04 2.06553E-04 0.00000E+00
 -1       669 9.47862E-04 2.28143E-04 0.00000E+00
 -1       670 9.61003E-04 2.52015E-04 0.00000E+00
 -1       671 9.74655E-04 2.78363E-04 0.00000E+00
 -1       672 9.88577E-04 3.07366E-04 0.00000E+00
 -1       673 1.00240E-03 3.39156E-04 0.00000E+00
 -1       674 1.01560E-03 3.73792E-04 0.00000E+00
 -1       675 1.02738E-03 4.11189E-04 0.00000E+00
 -1       676 1.03667E-03 4.51042E-04 0.00000E+00
 -1       677 1.04199E-03 4.92692E-04 0.00000E+00
 -1       678 1.04136E-03 5.34951E-04 0.00000E+00
 -1       679 1.03221E-03 5.75863E-04 0.00000E+00
 -1       680 1.01136E-03 6.12413E-04 0.00000E+00
 -1       681 9.75029E-04 6.40209E-04 0.00000E+00
 -1       682 9.19004E-04 6.53233E-04 0.00000E+00
 -1       683 8.39045E-04 6.43809E-04 0.00000E+00
 -1       684 7.31412E-04 6.03029E-04 0.00000E+00
 -1       685 5.93500E-04 5.21930E-04 0.00000E+00
 -1       686 4.24337E-04 3.93596E-04 0.00000E+00
 -1       687 2.24688E-04 2.16234E-04 0.00000E+00
 -1       688 1.03806E-03 9.22000E-05 0.00000E+00
 -1       689 1.04489E-03 1.06674E-04 0.00000E+00
 -1       690 1.05212E-03 1.22673E-04 0.00000E+00
 -1       691 1.05970E-03 1.40370E-04 0.00000E+00
 -1       692 1.06753E-03 1.59927E-04 0.00000E+00
 -1       693 1.07545E-03 1.81506E-04 0.00000E+00
 -1       694 1.08325E-03 2.05264E-04 0.00000E+00
 -1       695 1.09059E-03 2.31326E-04 0.00000E+00
 -1       696 1.09700E-03 2.59771E-04 0.00000E+00
 -1       697 1.10181E-03 2.90581E-04 0.00000E+00
 -1       698 1.10409E-03 3.23584E-04 0.00000E+00
 -1       699 1.10259E-03 3.58359E-04 0.00000E+00
 -1       700 1.09558E-03 3.94103E-04 0.00000E+00
 -1       701 1.08081E-03 4.29439E-04 0.00000E+00
 -1       702 1.05539E-03 4.62169E-04 0.00000E+00
 -1       703 1.01572E-03 4.88970E-04 0.00000E+00
 -1       704 9.57529E-04 5.05097E-04 0.00000E+00
 -1       705 8.76126E-04 5.04189E-04 0.00000E+00
 -1       706 7.66789E-04 4.78428E-04 0.00000E+00
 -1       707 6.25478E-04 4.19367E-04 0.00000E+00
 -1       708 4.49673E-04 3.19846E-04 0.00000E+00
 -1       709 2.39140E-04 1.77216E-04 0.00000E+00
 -1       710 1.14701E-03 4.07534E-05 0.00000E+00
 -1       711 1.15048E-03 5.15583E-05 0.00000E+00
 -1       712 1.15404E-03 6.34971E-05 0.00000E+00
 -1       713 1.15762E-03 7.66969E-05 0.00000E+00
 -1       714 1.16111E-03 9.12779E-05 0.00000E+00
 -1       715 1.16434E-03 1.07364E-04 0.00000E+00
 -1       716 1.16710E-03 1.25074E-04 0.00000E+00
 -1       717 1.16907E-03 1.44513E-04 0.00000E+00
 -1       718 1.16982E-03 1.65754E-04 0.00000E+00
 -1       719 1.16875E-03 1.88811E-04 0.00000E+00
 -1       720 1.16503E-03 2.13597E-04 0.00000E+00
 -1       721 1.15755E-03 2.39863E-04 0.00000E+00
 -1       722 1.14480E-03 2.67103E-04 0.00000E+00
 -1       723 1.12477E-03 2.94418E-04 0.00000E+00
 -1       724 1.09482E-03 3.20331E-04 0.00000E+00
 -1       725 1.05156E-03 3.42548E-04 0.00000E+00
 -1       726 9.90809E-04 3.57677E-04 0.00000E+00
 -1       727 9.07623E-04 3.61001E-04 0.00000E+00
 -1       728 7.96599E-04 3.46443E-04 0.00000E+00
 -1       729 6.52495E-04 3.07075E-04 0.00000E+00
 -1       730 4.71291E-04 2.36576E-04 0.00000E+00
 -1       731 2.51590E-04 1.32099E-04 0.00000E+00
 -1       732 1.22971E-03 1.26471E-05 0.00000E+00
 -1       733 1.23076E-03 1.92473E-05 0.00000E+00
 -1       734 1.23167E-03 2.65320E-05 0.00000E+00
 -1       735 1.23235E-03 3.45834E-05 0.00000E+00
 -1       736 1.23269E-03 4.34759E-05 0.00000E+00
 -1       737 1.23252E-03 5.32854E-05 0.00000E+00
 -1       738 1.23161E-03 6.40863E-05 0.00000E+00
 -1       739 1.22965E-03 7.59456E-05 0.00000E+00
 -1       740 1.22623E-03 8.89137E-05 0.00000E+00
 -1       741 1.22080E-03 1.03009E-04 0.00000E+00
 -1       742 1.21259E-03 1.18196E-04 0.00000E+00
 -1       743 1.20058E-03 1.34348E-04 0.00000E+00
 -1       744 1.18339E-03 1.51194E-04 0.00000E+00
 -1       745 1.15918E-03 1.68238E-04 0.00000E+00
 -1       746 1.12551E-03 1.84652E-04 0.00000E+00
 -1       747 1.07916E-03 1.99115E-04 0.00000E+00
 -1       748 1.01607E-03 2.09637E-04 0.00000E+00
 -1       749 9.31197E-04 2.13369E-04 0.00000E+00
 -1       750 8.18726E-04 2.06527E-04 0.00000E+00
 -1       751 6.72556E-04 1.84621E-04 0.00000E+00
 -1       752 4.87459E-04 1.43351E-04 0.00000E+00
 -1       753 2.60972E-04 8.05344E-05 0.00000E+00
 -1       754 1.27382E-03 1.73872E-06 0.00000E+00
 -1       755 1.27362E-03 3.60922E-06 0.00000E+00
 -1       756 1.27317E-03 5.64829E-06 0.00000E+00
 -1       757 1.27237E-03 7.89373E-06 0.00000E+00
 -1       758 1.27108E-03 1.03704E-05 0.00000E+00
 -1       759 1.26914E-03 1.31011E-05 0.00000E+00
 -1       760 1.26632E-03 1.61073E-05 0.00000E+00
 -1       761 1.26232E-03 1.94088E-05 0.00000E+00
 -1       762 1.25673E-03 2.30205E-05 0.00000E+00
 -1       763 1.24900E-03 2.69492E-05 0.00000E+00
 -1       764 1.23841E-03 3.11871E-05 0.00000E+00
 -1       765 1.22398E-03 3.57021E-05 0.00000E+00
 -1       766 1.20441E-03 4.04241E-05 0.00000E+00
 -1       767 1.17792E-03 4.52225E-05 0.00000E+00
 -1       768 1.14217E-03 4.98759E-05 0.00000E+00
 -1       769 1.09406E-03 5.40289E-05 0.00000E+00
 -1       770 1.02958E-03 5.71386E-05 0.00000E+00
 -1       771 9.43690E-04 5.84180E-05 0.00000E+00
 -1       772 8.30380E-04 5.68040E-05 0.00000E+00
 -1       773 6.83116E-04 5.10108E-05 0.00000E+00
 -1       774 4.96009E-04 3.97747E-05 0.00000E+00
 -1       775 2.65958E-04 2.24206E-05 0.00000E+00
 -1       776-6.36123E-03 4.32369E-02 0.00000E+00
 -1       777-6.15567E-03 4.32371E-02 0.00000E+00
 -1       778-5.93000E-03 4.32372E-02 0.00000E+00
 -1       779-5.68195E-03 4.32373E-02 0.00000E+00
 -1       780-5.40941E-03 4.32374E-02 0.00000E+00
 -1       781-5.11008E-03 4.32376E-02 0.00000E+00
 -1       782-4.78144E-03 4.32381E-02 0.00000E+00
 -1       783-4.42078E-03 4.32388E-02 0.00000E+00
 -1       784-4.02515E-03 4.32400E-02 0.00000E+00
 -1       785-3.59134E-03 4.32421E-02 0.00000E+00
 -1       786-3.11584E-03 4.32451E-02 0.00000E+00
 -1       787-2.59478E-03 4.32498E-02 0.00000E+00
 -1       788-2.02386E-03 4.32565E-02 0.00000E+00
 -1       789-1.39821E-03 4.32661E-02 0.00000E+00
 -1       790-7.12254E-04 4.32795E-02 0.00000E+00
 -1       791 4.05170E-05 4.32979E-02 0.00000E+00
 -1       792 8.67833E-04 4.33227E-02 0.00000E+00
 -1       793 1.77899E-03 4.33558E-02 0.00000E+00
 -1       794 2.78521E-03 4.33988E-02 0.00000E+00
 -1       795 3.89997E-03 4.34537E-02 0.00000E+00
 -1       796 5.13887E-03 4.35219E-02 0.00000E+00
 -1       797 6.51896E-03 4.36042E-02 0.00000E+00
 -1       798-6.35124E-03 4.05213E-02 0.00000E+00
 -1       799-6.14268E-03 4.05206E-02 0.00000E+00
 -1       800-5.91436E-03 4.05196E-02 0.00000E+00
 -1       801-5.66410E-03 4.05185E-02 0.00000E+00
 -1       802-5.38986E-03 4.05173E-02 0.00000E+00
 -1       803-5.08944E-03 4.05161E-02 0.00000E+00
 -1       804-4.76043E-03 4.05148E-02 0.00000E+00
 -1       805-4.40022E-03 4.05138E-02 0.00000E+00
 -1       806-4.00597E-03 4.05131E-02 0.00000E+00
 -1       807-3.57457E-03 4.05131E-02 0.00000E+00
 -1       808-3.10260E-03 4.05142E-02 0.00000E+00
 -1       809-2.58629E-03 4.05168E-02 0.00000E+00
 -1       810-2.02142E-03 4.05216E-02 0.00000E+00
 -1       811-1.40319E-03 4.05294E-02 0.00000E+00
 -1       812-7.26066E-04 4.05413E-02 0.00000E+00
 -1       813 1.64544E-05 4.05587E-02 0.00000E+00
 -1       814 8.32175E-04 4.05831E-02 0.00000E+00
 -1       815 1.73060E-03 4.06163E-02 0.00000E+00
 -1       816 2.72345E-03 4.06607E-02 0.00000E+00
 -1       817 3.82516E-03 4.07184E-02 0.00000E+00
 -1       818 5.05344E-03 4.07913E-02 0.00000E+00
 -1       819 6.43001E-03 4.08800E-02 0.00000E+00
 -1       820-6.30090E-03 3.80111E-02 0.00000E+00
 -1       821-6.09024E-03 3.80083E-02 0.00000E+00
 -1       822-5.86013E-03 3.80053E-02 0.00000E+00
 -1       823-5.60848E-03 3.80020E-02 0.00000E+00
 -1       824-5.33337E-03 3.79984E-02 0.00000E+00
 -1       825-5.03273E-03 3.79945E-02 0.00000E+00
 -1       826-4.70430E-03 3.79906E-02 0.00000E+00
 -1       827-4.34566E-03 3.79866E-02 0.00000E+00
 -1       828-3.95414E-03 3.79829E-02 0.00000E+00
 -1       829-3.52681E-03 3.79797E-02 0.00000E+00
 -1       830-3.06046E-03 3.79774E-02 0.00000E+00
 -1       831-2.55150E-03 3.79766E-02 0.00000E+00
 -1       832-1.99588E-03 3.79781E-02 0.00000E+00
 -1       833-1.38897E-03 3.79829E-02 0.00000E+00
 -1       834-7.25341E-04 3.79921E-02 0.00000E+00
 -1       835 1.47309E-06 3.80074E-02 0.00000E+00
 -1       836 7.99368E-04 3.80308E-02 0.00000E+00
 -1       837 1.67817E-03 3.80646E-02 0.00000E+00
 -1       838 2.65032E-03 3.81114E-02 0.00000E+00
 -1       839 3.73174E-03 3.81740E-02 0.00000E+00
 -1       840 4.94298E-03 3.82545E-02 0.00000E+00
 -1       841 6.31107E-03 3.83540E-02 0.00000E+00
 -1       842-6.19770E-03 3.57088E-02 0.00000E+00
 -1       843-5.98674E-03 3.57035E-02 0.00000E+00
 -1       844-5.75670E-03 3.56978E-02 0.00000E+00
 -1       845-5.50559E-03 3.56916E-02 0.00000E+00
 -1       846-5.23161E-03 3.56849E-02 0.00000E+00
 -1       847-4.93285E-03 3.56779E-02 0.00000E+00
 -1       848-4.60722E-03 3.56705E-02 0.00000E+00
 -1       849-4.25246E-03 3.56630E-02 0.00000E+00
 -1       850-3.86612E-03 3.56556E-02 0.00000E+00
 -1       851-3.44552E-03 3.56485E-02 0.00000E+00
 -1       852-2.98770E-03 3.56423E-02 0.00000E+00
 -1       853-2.48931E-03 3.56376E-02 0.00000E+00
 -1       854-1.94659E-03 3.56352E-02 0.00000E+00
 -1       855-1.35515E-03 3.56364E-02 0.00000E+00
 -1       856-7.09765E-04 3.56424E-02 0.00000E+00
 -1       857-4.09801E-06 3.56553E-02 0.00000E+00
 -1       858 7.69781E-04 3.56773E-02 0.00000E+00
 -1       859 1.62201E-03 3.57113E-02 0.00000E+00
 -1       860 2.56580E-03 3.57604E-02 0.00000E+00
 -1       861 3.61867E-03 3.58281E-02 0.00000E+00
 -1       862 4.80407E-03 3.59173E-02 0.00000E+00
 -1       863 6.15400E-03 3.60298E-02 0.00000E+00
 -1       864-6.04124E-03 3.36168E-02 0.00000E+00
 -1       865-5.83181E-03 3.36087E-02 0.00000E+00
 -1       866-5.60378E-03 3.35999E-02 0.00000E+00
 -1       867-5.35525E-03 3.35905E-02 0.00000E+00
 -1       868-5.08458E-03 3.35804E-02 0.00000E+00
 -1       869-4.78997E-03 3.35697E-02 0.00000E+00
 -1       870-4.46951E-03 3.35585E-02 0.00000E+00
 -1       871-4.12114E-03 3.35470E-02 0.00000E+00
 -1       872-3.74265E-03 3.35354E-02 0.00000E+00
 -1       873-3.33159E-03 3.35240E-02 0.00000E+00
 -1       874-2.88529E-03 3.35134E-02 0.00000E+00
 -1       875-2.40072E-03 3.35043E-02 0.00000E+00
 -1       876-1.87444E-03 3.34976E-02 0.00000E+00
 -1       877-1.30239E-03 3.34946E-02 0.00000E+00
 -1       878-6.79654E-04 3.34969E-02 0.00000E+00
 -1       879-1.24460E-07 3.35068E-02 0.00000E+00
 -1       880 7.44045E-04 3.35270E-02 0.00000E+00
 -1       881 1.56319E-03 3.35607E-02 0.00000E+00
 -1       882 2.47119E-03 3.36120E-02 0.00000E+00
 -1       883 3.48703E-03 3.36849E-02 0.00000E+00
 -1       884 4.63687E-03 3.37836E-02 0.00000E+00
 -1       885 5.95731E-03 3.39108E-02 0.00000E+00
 -1       886-5.83713E-03 3.17324E-02 0.00000E+00
 -1       887-5.63086E-03 3.17212E-02 0.00000E+00
 -1       888-5.40654E-03 3.17093E-02 0.00000E+00
 -1       889-5.16241E-03 3.16964E-02 0.00000E+00
 -1       890-4.89693E-03 3.16827E-02 0.00000E+00
 -1       891-4.60847E-03 3.16682E-02 0.00000E+00
 -1       892-4.29528E-03 3.16530E-02 0.00000E+00
 -1       893-3.95551E-03 3.16372E-02 0.00000E+00
 -1       894-3.58716E-03 3.16211E-02 0.00000E+00
 -1       895-3.18809E-03 3.16051E-02 0.00000E+00
 -1       896-2.75591E-03 3.15898E-02 0.00000E+00
 -1       897-2.28796E-03 3.15759E-02 0.00000E+00
 -1       898-1.78118E-03 3.15644E-02 0.00000E+00
 -1       899-1.23191E-03 3.15568E-02 0.00000E+00
 -1       900-6.35646E-04 3.15550E-02 0.00000E+00
 -1       901 1.33864E-05 3.15615E-02 0.00000E+00
 -1       902 7.22814E-04 3.15794E-02 0.00000E+00
 -1       903 1.50301E-03 3.16126E-02 0.00000E+00
 -1       904 2.36836E-03 3.16657E-02 0.00000E+00
 -1       905 3.33910E-03 3.17440E-02 0.00000E+00
 -1       906 4.44384E-03 3.18527E-02 0.00000E+00
 -1       907 5.72353E-03 3.19957E-02 0.00000E+00
 -1       908-5.59392E-03 3.00477E-02 0.00000E+00
 -1       909-5.39208E-03 3.00336E-02 0.00000E+00
 -1       910-5.17282E-03 3.00184E-02 0.00000E+00
 -1       911-4.93450E-03 3.00021E-02 0.00000E+00
 -1       912-4.67568E-03 2.99848E-02 0.00000E+00
 -1       913-4.39489E-03 2.99663E-02 0.00000E+00
 -1       914-4.09056E-03 2.99470E-02 0.00000E+00
 -1       915-3.76105E-03 2.99268E-02 0.00000E+00
 -1       916-3.40461E-03 2.99061E-02 0.00000E+00
 -1       917-3.01937E-03 2.98853E-02 0.00000E+00
 -1       918-2.60331E-03 2.98650E-02 0.00000E+00
 -1       919-2.15415E-03 2.98460E-02 0.00000E+00
 -1       920-1.66928E-03 2.98295E-02 0.00000E+00
 -1       921-1.14551E-03 2.98171E-02 0.00000E+00
 -1       922-5.78821E-04 2.98109E-02 0.00000E+00
 -1       923 3.60902E-05 2.98137E-02 0.00000E+00
 -1       924 7.06517E-04 2.98291E-02 0.00000E+00
 -1       925 1.44273E-03 2.98617E-02 0.00000E+00
 -1       926 2.25943E-03 2.99168E-02 0.00000E+00
 -1       927 3.17787E-03 3.00007E-02 0.00000E+00
 -1       928 4.22887E-03 3.01197E-02 0.00000E+00
 -1       929 5.45736E-03 3.02795E-02 0.00000E+00
 -1       930-5.32120E-03 2.85509E-02 0.00000E+00
 -1       931-5.12469E-03 2.85339E-02 0.00000E+00
 -1       932-4.91141E-03 2.85155E-02 0.00000E+00
 -1       933-4.67983E-03 2.84959E-02 0.00000E+00
 -1       934-4.42864E-03 2.84749E-02 0.00000E+00
 -1       935-4.15652E-03 2.84527E-02 0.00000E+00
 -1       936-3.86208E-03 2.84292E-02 0.00000E+00
 -1       937-3.54390E-03 2.84047E-02 0.00000E+00
 -1       938-3.20048E-03 2.83794E-02 0.00000E+00
 -1       939-2.83030E-03 2.83537E-02 0.00000E+00
 -1       940-2.43169E-03 2.83284E-02 0.00000E+00
 -1       941-2.00284E-03 2.83042E-02 0.00000E+00
 -1       942-1.54162E-03 2.82826E-02 0.00000E+00
 -1       943-1.04540E-03 2.82653E-02 0.00000E+00
 -1       944-5.10730E-04 2.82547E-02 0.00000E+00
 -1       945 6.71617E-05 2.82539E-02 0.00000E+00
 -1       946 6.95136E-04 2.82672E-02 0.00000E+00
 -1       947 1.38325E-03 2.82995E-02 0.00000E+00
 -1       948 2.14637E-03 2.83570E-02 0.00000E+00
 -1       949 3.00656E-03 2.84468E-02 0.00000E+00
 -1       950 3.99646E-03 2.85767E-02 0.00000E+00
 -1       951 5.16464E-03 2.87537E-02 0.00000E+00
 -1       952-5.02848E-03 2.72269E-02 0.00000E+00
 -1       953-4.83778E-03 2.72071E-02 0.00000E+00
 -1       954-4.63095E-03 2.71858E-02 0.00000E+00
 -1       955-4.40658E-03 2.71630E-02 0.00000E+00
 -1       956-4.16349E-03 2.71386E-02 0.00000E+00
 -1       957-3.90049E-03 2.71126E-02 0.00000E+00
 -1       958-3.61640E-03 2.70851E-02 0.00000E+00
 -1       959-3.31002E-03 2.70563E-02 0.00000E+00
 -1       960-2.98018E-03 2.70264E-02 0.00000E+00
 -1       961-2.62568E-03 2.69960E-02 0.00000E+00
 -1       962-2.24529E-03 2.69656E-02 0.00000E+00
 -1       963-1.83770E-03 2.69365E-02 0.00000E+00
 -1       964-1.40134E-03 2.69099E-02 0.00000E+00
 -1       965-9.34182E-04 2.68879E-02 0.00000E+00
 -1       966-4.33401E-04 2.68734E-02 0.00000E+00
 -1       967 1.05210E-04 2.68697E-02 0.00000E+00
 -1       968 6.88050E-04 2.68816E-02 0.00000E+00
 -1       969 1.32491E-03 2.69146E-02 0.00000E+00
 -1       970 2.03074E-03 2.69755E-02 0.00000E+00
 -1       971 2.82816E-03 2.70722E-02 0.00000E+00
 -1       972 3.75126E-03 2.72135E-02 0.00000E+00
 -1       973 4.85162E-03 2.74081E-02 0.00000E+00
 -1       974-4.72449E-03 2.60589E-02 0.00000E+00
 -1       975-4.53966E-03 2.60365E-02 0.00000E+00
 -1       976-4.33932E-03 2.60125E-02 0.00000E+00
 -1       977-4.12215E-03 2.59867E-02 0.00000E+00
 -1       978-3.88711E-03 2.59589E-02 0.00000E+00
 -1       979-3.63318E-03 2.59294E-02 0.00000E+00
 -1       980-3.35939E-03 2.58980E-02 0.00000E+00
 -1       981-3.06480E-03 2.58651E-02 0.00000E+00
 -1       982-2.74857E-03 2.58308E-02 0.00000E+00
 -1       983-2.40991E-03 2.57957E-02 0.00000E+00
 -1       984-2.04809E-03 2.57606E-02 0.00000E+00
 -1       985-1.66232E-03 2.57267E-02 0.00000E+00
 -1       986-1.25167E-03 2.56956E-02 0.00000E+00
 -1       987-8.14743E-04 2.56698E-02 0.00000E+00
 -1       988-3.49319E-04 2.56522E-02 0.00000E+00
 -1       989 1.48265E-04 2.56470E-02 0.00000E+00
 -1       990 6.83999E-04 2.56590E-02 0.00000E+00
 -1       991 1.26745E-03 2.56943E-02 0.00000E+00
 -1       992 1.91355E-03 2.57603E-02 0.00000E+00
 -1       993 2.64530E-03 2.58652E-02 0.00000E+00
 -1       994 3.49773E-03 2.60187E-02 0.00000E+00
 -1       995 4.52463E-03 2.62311E-02 0.00000E+00
 -1       996-4.41671E-03 2.50291E-02 0.00000E+00
 -1       997-4.23743E-03 2.50044E-02 0.00000E+00
 -1       998-4.04319E-03 2.49778E-02 0.00000E+00
 -1       999-3.83279E-03 2.49492E-02 0.00000E+00
 -1      1000-3.60532E-03 2.49184E-02 0.00000E+00
 -1      1001-3.35996E-03 2.48854E-02 0.00000E+00
 -1      1002-3.09598E-03 2.48504E-02 0.00000E+00
 -1      1003-2.81274E-03 2.48134E-02 0.00000E+00
 -1      1004-2.50981E-03 2.47749E-02 0.00000E+00
 -1      1005-2.18685E-03 2.47354E-02 0.00000E+00
 -1      1006-1.84369E-03 2.46959E-02 0.00000E+00
 -1      1007-1.48015E-03 2.46578E-02 0.00000E+00
 -1      1008-1.09591E-03 2.46231E-02 0.00000E+00
 -1      1009-6.90219E-04 2.45946E-02 0.00000E+00
 -1      1010-2.61377E-04 2.45756E-02 0.00000E+00
 -1      1011 1.93852E-04 2.45708E-02 0.00000E+00
 -1      1012 6.81178E-04 2.45852E-02 0.00000E+00
 -1      1013 1.21003E-03 2.46253E-02 0.00000E+00
 -1      1014 1.79532E-03 2.46984E-02 0.00000E+00
 -1      1015 2.46015E-03 2.48132E-02 0.00000E+00
 -1      1016 3.23995E-03 2.49798E-02 0.00000E+00
 -1      1017 4.18973E-03 2.52100E-02 0.00000E+00
 -1      1018-4.11126E-03 2.41197E-02 0.00000E+00
 -1      1019-3.93683E-03 2.40930E-02 0.00000E+00
 -1      1020-3.74792E-03 2.40641E-02 0.00000E+00
 -1      1021-3.54346E-03 2.40328E-02 0.00000E+00
 -1      1022-3.32269E-03 2.39991E-02 0.00000E+00
 -1      1023-3.08503E-03 2.39629E-02 0.00000E+00
 -1      1024-2.83002E-03 2.39243E-02 0.00000E+00
 -1      1025-2.55743E-03 2.38835E-02 0.00000E+00
 -1      1026-2.26727E-03 2.38409E-02 0.00000E+00
 -1      1027-1.95977E-03 2.37974E-02 0.00000E+00
 -1      1028-1.63534E-03 2.37541E-02 0.00000E+00
 -1      1029-1.29446E-03 2.37127E-02 0.00000E+00
 -1      1030-9.37424E-04 2.36758E-02 0.00000E+00
 -1      1031-5.63965E-04 2.36463E-02 0.00000E+00
 -1      1032-1.72785E-04 2.36284E-02 0.00000E+00
 -1      1033 2.39141E-04 2.36266E-02 0.00000E+00
 -1      1034 6.77443E-04 2.36464E-02 0.00000E+00
 -1      1035 1.15153E-03 2.36941E-02 0.00000E+00
 -1      1036 1.67626E-03 2.37770E-02 0.00000E+00
 -1      1037 2.27455E-03 2.39036E-02 0.00000E+00
 -1      1038 2.98160E-03 2.40842E-02 0.00000E+00
 -1      1039 3.85255E-03 2.43317E-02 0.00000E+00
 -1      1040-3.81283E-03 2.33136E-02 0.00000E+00
 -1      1041-3.64223E-03 2.32850E-02 0.00000E+00
 -1      1042-3.45753E-03 2.32540E-02 0.00000E+00
 -1      1043-3.25782E-03 2.32202E-02 0.00000E+00
 -1      1044-3.04256E-03 2.31838E-02 0.00000E+00
 -1      1045-2.81143E-03 2.31444E-02 0.00000E+00
 -1      1046-2.56435E-03 2.31024E-02 0.00000E+00
 -1      1047-2.30157E-03 2.30579E-02 0.00000E+00
 -1      1048-2.02365E-03 2.30117E-02 0.00000E+00
 -1      1049-1.73145E-03 2.29646E-02 0.00000E+00
 -1      1050-1.42604E-03 2.29184E-02 0.00000E+00
 -1      1051-1.10851E-03 2.28751E-02 0.00000E+00
 -1      1052-7.79642E-04 2.28378E-02 0.00000E+00
 -1      1053-4.39509E-04 2.28100E-02 0.00000E+00
 -1      1054-8.69285E-05 2.27961E-02 0.00000E+00
 -1      1055 2.81182E-04 2.28007E-02 0.00000E+00
 -1      1056 6.70592E-04 2.28294E-02 0.00000E+00
 -1      1057 1.09079E-03 2.28880E-02 0.00000E+00
 -1      1058 1.55649E-03 2.29833E-02 0.00000E+00
 -1      1059 2.09010E-03 2.31234E-02 0.00000E+00
 -1      1060 2.72593E-03 2.33186E-02 0.00000E+00
 -1      1061 3.51814E-03 2.35831E-02 0.00000E+00
 -1      1062-3.52484E-03 2.25945E-02 0.00000E+00
 -1      1063-3.35670E-03 2.25643E-02 0.00000E+00
 -1      1064-3.17478E-03 2.25312E-02 0.00000E+00
 -1      1065-2.97832E-03 2.24952E-02 0.00000E+00
 -1      1066-2.76710E-03 2.24560E-02 0.00000E+00
 -1      1067-2.54114E-03 2.24136E-02 0.00000E+00
 -1      1068-2.30087E-03 2.23682E-02 0.00000E+00
 -1      1069-2.04711E-03 2.23203E-02 0.00000E+00
 -1      1070-1.78109E-03 2.22708E-02 0.00000E+00
 -1      1071-1.50437E-03 2.22211E-02 0.00000E+00
 -1      1072-1.21866E-03 2.21732E-02 0.00000E+00
 -1      1073-9.25554E-04 2.21301E-02 0.00000E+00
 -1      1074-6.26122E-04 2.20951E-02 0.00000E+00
 -1      1075-3.20458E-04 2.20722E-02 0.00000E+00
 -1      1076-7.16740E-06 2.20659E-02 0.00000E+00
 -1      1077 3.17179E-04 2.20810E-02 0.00000E+00
 -1      1078 6.58669E-04 2.21222E-02 0.00000E+00
 -1      1079 1.02689E-03 2.21949E-02 0.00000E+00
 -1      1080 1.43624E-03 2.23049E-02 0.00000E+00
 -1      1081 1.90825E-03 2.24599E-02 0.00000E+00
 -1      1082 2.47573E-03 2.26701E-02 0.00000E+00
 -1      1083 3.19083E-03 2.29506E-02 0.00000E+00
 -1      1084-3.24956E-03 2.19476E-02 0.00000E+00
 -1      1085-3.08220E-03 2.19158E-02 0.00000E+00
 -1      1086-2.90128E-03 2.18808E-02 0.00000E+00
 -1      1087-2.70632E-03 2.18424E-02 0.00000E+00
 -1      1088-2.49746E-03 2.18005E-02 0.00000E+00
 -1      1089-2.27525E-03 2.17551E-02 0.00000E+00
 -1      1090-2.04073E-03 2.17065E-02 0.00000E+00
 -1      1091-1.79545E-03 2.16555E-02 0.00000E+00
 -1      1092-1.54142E-03 2.16034E-02 0.00000E+00
 -1      1093-1.28090E-03 2.15523E-02 0.00000E+00
 -1      1094-1.01614E-03 2.15049E-02 0.00000E+00
 -1      1095-7.49005E-04 2.14645E-02 0.00000E+00
 -1      1096-4.80495E-04 2.14353E-02 0.00000E+00
 -1      1097-2.10340E-04 2.14214E-02 0.00000E+00
 -1      1098 6.34165E-05 2.14270E-02 0.00000E+00
 -1      1099 3.44781E-04 2.14565E-02 0.00000E+00
 -1      1100 6.40227E-04 2.15138E-02 0.00000E+00
 -1      1101 9.59338E-04 2.16033E-02 0.00000E+00
 -1      1102 1.31596E-03 2.17300E-02 0.00000E+00
 -1      1103 1.73038E-03 2.19007E-02 0.00000E+00
 -1      1104 2.23338E-03 2.21257E-02 0.00000E+00
 -1      1105 2.87420E-03 2.24212E-02 0.00000E+00
 -1      1106-2.98827E-03 2.13589E-02 0.00000E+00
 -1      1107-2.81967E-03 2.13257E-02 0.00000E+00
 -1      1108-2.63768E-03 2.12888E-02 0.00000E+00
 -1      1109-2.44222E-03 2.12481E-02 0.00000E+00
 -1      1110-2.23394E-03 2.12034E-02 0.00000E+00
 -1      1111-2.01409E-03 2.11549E-02 0.00000E+00
 -1      1112-1.78455E-03 2.11032E-02 0.00000E+00
 -1      1113-1.54773E-03 2.10497E-02 0.00000E+00
 -1      1114-1.30645E-03 2.09962E-02 0.00000E+00
 -1      1115-1.06358E-03 2.09457E-02 0.00000E+00
 -1      1116-8.21673E-04 2.09015E-02 0.00000E+00
 -1      1117-5.82432E-04 2.08677E-02 0.00000E+00
 -1      1118-3.46350E-04 2.08485E-02 0.00000E+00
 -1      1119-1.12372E-04 2.08481E-02 0.00000E+00
 -1      1120 1.22298E-04 2.08701E-02 0.00000E+00
 -1      1121 3.62334E-04 2.09178E-02 0.00000E+00
 -1      1122 6.14511E-04 2.09943E-02 0.00000E+00
 -1      1123 8.88192E-04 2.11027E-02 0.00000E+00
 -1      1124 1.19639E-03 2.12471E-02 0.00000E+00
 -1      1125 1.55781E-03 2.14338E-02 0.00000E+00
 -1      1126 2.00077E-03 2.16730E-02 0.00000E+00
 -1      1127 2.57101E-03 2.19821E-02 0.00000E+00
 -1      1128-2.74146E-03 2.08162E-02 0.00000E+00
 -1      1129-2.56921E-03 2.07816E-02 0.00000E+00
 -1      1130-2.38375E-03 2.07427E-02 0.00000E+00
 -1      1131-2.18557E-03 2.06995E-02 0.00000E+00
 -1      1132-1.97609E-03 2.06518E-02 0.00000E+00
 -1      1133-1.75750E-03 2.06002E-02 0.00000E+00
 -1      1134-1.53270E-03 2.05459E-02 0.00000E+00
 -1      1135-1.30510E-03 2.04908E-02 0.00000E+00
 -1      1136-1.07824E-03 2.04379E-02 0.00000E+00
 -1      1137-8.55347E-04 2.03908E-02 0.00000E+00
 -1      1138-6.38747E-04 2.03538E-02 0.00000E+00
 -1      1139-4.29480E-04 2.03312E-02 0.00000E+00
 -1      1140-2.27013E-04 2.03272E-02 0.00000E+00
 -1      1141-2.91788E-05 2.03451E-02 0.00000E+00
 -1      1142 1.67761E-04 2.03876E-02 0.00000E+00
 -1      1143 3.69045E-04 2.04568E-02 0.00000E+00
 -1      1144 5.81509E-04 2.05546E-02 0.00000E+00
 -1      1145 8.14012E-04 2.06830E-02 0.00000E+00
 -1      1146 1.07844E-03 2.08454E-02 0.00000E+00
 -1      1147 1.39170E-03 2.10476E-02 0.00000E+00
 -1      1148 1.77939E-03 2.13001E-02 0.00000E+00
 -1      1149 2.28328E-03 2.16214E-02 0.00000E+00
 -1      1150-2.50892E-03 2.03081E-02 0.00000E+00
 -1      1151-2.33016E-03 2.02719E-02 0.00000E+00
 -1      1152-2.13849E-03 2.02309E-02 0.00000E+00
 -1      1153-1.93523E-03 2.01848E-02 0.00000E+00
 -1      1154-1.72293E-03 2.01340E-02 0.00000E+00
 -1      1155-1.50502E-03 2.00795E-02 0.00000E+00
 -1      1156-1.28564E-03 2.00233E-02 0.00000E+00
 -1      1157-1.06913E-03 1.99685E-02 0.00000E+00
 -1      1158-8.59477E-04 1.99192E-02 0.00000E+00
 -1      1159-6.59655E-04 1.98798E-02 0.00000E+00
 -1      1160-4.71134E-04 1.98551E-02 0.00000E+00
 -1      1161-2.93646E-04 1.98493E-02 0.00000E+00
 -1      1162-1.25236E-04 1.98657E-02 0.00000E+00
 -1      1163 3.74897E-05 1.99066E-02 0.00000E+00
 -1      1164 1.99070E-04 1.99731E-02 0.00000E+00
 -1      1165 3.65017E-04 2.00662E-02 0.00000E+00
 -1      1166 5.41892E-04 2.01863E-02 0.00000E+00
 -1      1167 7.37756E-04 2.03348E-02 0.00000E+00
 -1      1168 9.63172E-04 2.05146E-02 0.00000E+00
 -1      1169 1.23308E-03 2.07315E-02 0.00000E+00
 -1      1170 1.57028E-03 2.09960E-02 0.00000E+00
 -1      1171 2.01232E-03 2.13278E-02 0.00000E+00
 -1      1172-2.28987E-03 1.98238E-02 0.00000E+00
 -1      1173-2.10118E-03 1.97860E-02 0.00000E+00
 -1      1174-1.90018E-03 1.97424E-02 0.00000E+00
 -1      1175-1.68947E-03 1.96932E-02 0.00000E+00
 -1      1176-1.47318E-03 1.96391E-02 0.00000E+00
 -1      1177-1.25634E-03 1.95822E-02 0.00000E+00
 -1      1178-1.04436E-03 1.95259E-02 0.00000E+00
 -1      1179-8.42218E-04 1.94745E-02 0.00000E+00
 -1      1180-6.53646E-04 1.94333E-02 0.00000E+00
 -1      1181-4.80514E-04 1.94074E-02 0.00000E+00
 -1      1182-3.22627E-04 1.94014E-02 0.00000E+00
 -1      1183-1.77908E-04 1.94185E-02 0.00000E+00
 -1      1184-4.28524E-05 1.94605E-02 0.00000E+00
 -1      1185 8.69653E-05 1.95281E-02 0.00000E+00
 -1      1186 2.16511E-04 1.96211E-02 0.00000E+00
 -1      1187 3.51156E-04 1.97389E-02 0.00000E+00
 -1      1188 4.96847E-04 1.98814E-02 0.00000E+00
 -1      1189 6.60620E-04 2.00493E-02 0.00000E+00
 -1      1190 8.51601E-04 2.02453E-02 0.00000E+00
 -1      1191 1.08275E-03 2.04754E-02 0.00000E+00
 -1      1192 1.37406E-03 2.07505E-02 0.00000E+00
 -1      1193 1.75884E-03 2.10912E-02 0.00000E+00
 -1      1194-2.08299E-03 1.93535E-02 0.00000E+00
 -1      1195-1.88022E-03 1.93137E-02 0.00000E+00
 -1      1196-1.66638E-03 1.92671E-02 0.00000E+00
 -1      1197-1.44605E-03 1.92142E-02 0.00000E+00
 -1      1198-1.22553E-03 1.91570E-02 0.00000E+00
 -1      1199-1.01168E-03 1.90991E-02 0.00000E+00
 -1      1200-8.10903E-04 1.90457E-02 0.00000E+00
 -1      1201-6.27950E-04 1.90028E-02 0.00000E+00
 -1      1202-4.65151E-04 1.89764E-02 0.00000E+00
 -1      1203-3.22213E-04 1.89714E-02 0.00000E+00
 -1      1204-1.96608E-04 1.89911E-02 0.00000E+00
 -1      1205-8.42997E-05 1.90370E-02 0.00000E+00
 -1      1206 1.94902E-05 1.91089E-02 0.00000E+00
 -1      1207 1.19724E-04 1.92058E-02 0.00000E+00
 -1      1208 2.21277E-04 1.93261E-02 0.00000E+00
 -1      1209 3.28969E-04 1.94685E-02 0.00000E+00
 -1      1210 4.47867E-04 1.96322E-02 0.00000E+00
 -1      1211 5.83867E-04 1.98180E-02 0.00000E+00
 -1      1212 7.44651E-04 2.00286E-02 0.00000E+00
 -1      1213 9.41276E-04 2.02702E-02 0.00000E+00
 -1      1214 1.19103E-03 2.05544E-02 0.00000E+00
 -1      1215 1.52305E-03 2.09026E-02 0.00000E+00
 -1      1216-1.88641E-03 1.88872E-02 0.00000E+00
 -1      1217-1.66443E-03 1.88447E-02 0.00000E+00
 -1      1218-1.43393E-03 1.87943E-02 0.00000E+00
 -1      1219-1.20251E-03 1.87374E-02 0.00000E+00
 -1      1220-9.79206E-04 1.86781E-02 0.00000E+00
 -1      1221-7.72585E-04 1.86224E-02 0.00000E+00
 -1      1222-5.88968E-04 1.85775E-02 0.00000E+00
 -1      1223-4.31314E-04 1.85507E-02 0.00000E+00
 -1      1224-2.99049E-04 1.85478E-02 0.00000E+00
 -1      1225-1.88782E-04 1.85721E-02 0.00000E+00
 -1      1226-9.54715E-05 1.86246E-02 0.00000E+00
 -1      1227-1.35245E-05 1.87042E-02 0.00000E+00
 -1      1228 6.24449E-05 1.88089E-02 0.00000E+00
 -1      1229 1.37272E-04 1.89360E-02 0.00000E+00
 -1      1230 2.15237E-04 1.90831E-02 0.00000E+00
 -1      1231 3.00306E-04 1.92485E-02 0.00000E+00
 -1      1232 3.96537E-04 1.94316E-02 0.00000E+00
 -1      1233 5.08684E-04 1.96332E-02 0.00000E+00
 -1      1234 6.43065E-04 1.98564E-02 0.00000E+00
 -1      1235 8.08971E-04 2.01078E-02 0.00000E+00
 -1      1236 1.02114E-03 2.03996E-02 0.00000E+00
 -1      1237 1.30474E-03 2.07539E-02 0.00000E+00
 -1      1238-1.69750E-03 1.84141E-02 0.00000E+00
 -1      1239-1.44994E-03 1.83682E-02 0.00000E+00
 -1      1240-1.19896E-03 1.83130E-02 0.00000E+00
 -1      1241-9.56553E-04 1.82524E-02 0.00000E+00
 -1      1242-7.34832E-04 1.81936E-02 0.00000E+00
 -1      1243-5.42772E-04 1.81461E-02 0.00000E+00
 -1      1244-3.84373E-04 1.81190E-02 0.00000E+00
 -1      1245-2.58534E-04 1.81192E-02 0.00000E+00
 -1      1246-1.60393E-04 1.81502E-02 0.00000E+00
 -1      1247-8.32313E-05 1.82124E-02 0.00000E+00
 -1      1248-2.00964E-05 1.83035E-02 0.00000E+00
 -1      1249 3.52254E-05 1.84199E-02 0.00000E+00
 -1      1250 8.78550E-05 1.85581E-02 0.00000E+00
 -1      1251 1.41881E-04 1.87144E-02 0.00000E+00
 -1      1252 2.00642E-04 1.88865E-02 0.00000E+00
 -1      1253 2.67114E-04 1.90726E-02 0.00000E+00
 -1      1254 3.44360E-04 1.92726E-02 0.00000E+00
 -1      1255 4.36082E-04 1.94877E-02 0.00000E+00
 -1      1256 5.47376E-04 1.97216E-02 0.00000E+00
 -1      1257 6.85931E-04 1.99811E-02 0.00000E+00
 -1      1258 8.64149E-04 2.02790E-02 0.00000E+00
 -1      1259 1.10341E-03 2.06383E-02 0.00000E+00
 -1      1260-1.51261E-03 1.79221E-02 0.00000E+00
 -1      1261-1.23144E-03 1.78713E-02 0.00000E+00
 -1      1262-9.56978E-04 1.78104E-02 0.00000E+00
 -1      1263-7.07118E-04 1.77480E-02 0.00000E+00
 -1      1264-4.95834E-04 1.76965E-02 0.00000E+00
 -1      1265-3.29155E-04 1.76684E-02 0.00000E+00
 -1      1266-2.05093E-04 1.76728E-02 0.00000E+00
 -1      1267-1.16257E-04 1.77134E-02 0.00000E+00
 -1      1268-5.31747E-05 1.77892E-02 0.00000E+00
 -1      1269-6.76325E-06 1.78963E-02 0.00000E+00
 -1      1270 3.04685E-05 1.80294E-02 0.00000E+00
 -1      1271 6.41774E-05 1.81833E-02 0.00000E+00
 -1      1272 9.84491E-05 1.83535E-02 0.00000E+00
 -1      1273 1.36238E-04 1.85368E-02 0.00000E+00
 -1      1274 1.79823E-04 1.87309E-02 0.00000E+00
 -1      1275 2.31230E-04 1.89348E-02 0.00000E+00
 -1      1276 2.92639E-04 1.91490E-02 0.00000E+00
 -1      1277 3.66851E-04 1.93752E-02 0.00000E+00
 -1      1278 4.57903E-04 1.96177E-02 0.00000E+00
 -1      1279 5.72061E-04 1.98837E-02 0.00000E+00
 -1      1280 7.19589E-04 2.01865E-02 0.00000E+00
 -1      1281 9.18341E-04 2.05496E-02 0.00000E+00
 -1      1282-1.32627E-03 1.73957E-02 0.00000E+00
 -1      1283-1.00169E-03 1.73378E-02 0.00000E+00
 -1      1284-7.03756E-04 1.72714E-02 0.00000E+00
 -1      1285-4.56424E-04 1.72136E-02 0.00000E+00
 -1      1286-2.70434E-04 1.71832E-02 0.00000E+00
 -1      1287-1.42389E-04 1.71931E-02 0.00000E+00
 -1      1288-6.03166E-05 1.72471E-02 0.00000E+00
 -1      1289-1.00413E-05 1.73424E-02 0.00000E+00
 -1      1290 2.08649E-05 1.74719E-02 0.00000E+00
 -1      1291 4.17284E-05 1.76278E-02 0.00000E+00
 -1      1292 5.89313E-05 1.78032E-02 0.00000E+00
 -1      1293 7.66149E-05 1.79924E-02 0.00000E+00
 -1      1294 9.74211E-05 1.81916E-02 0.00000E+00
 -1      1295 1.23099E-04 1.83981E-02 0.00000E+00
 -1      1296 1.54961E-04 1.86107E-02 0.00000E+00
 -1      1297 1.94242E-04 1.88293E-02 0.00000E+00
 -1      1298 2.42415E-04 1.90549E-02 0.00000E+00
 -1      1299 3.01544E-04 1.92901E-02 0.00000E+00
 -1      1300 3.74771E-04 1.95393E-02 0.00000E+00
 -1      1301 4.67107E-04 1.98104E-02 0.00000E+00
 -1      1302 5.86877E-04 2.01169E-02 0.00000E+00
 -1      1303 7.48670E-04 2.04830E-02 0.00000E+00
 -1      1304-1.12945E-03 1.68124E-02 0.00000E+00
 -1      1305-7.50798E-04 1.67447E-02 0.00000E+00
 -1      1306-4.37922E-04 1.66777E-02 0.00000E+00
 -1      1307-2.13854E-04 1.66420E-02 0.00000E+00
 -1      1308-7.35360E-05 1.66589E-02 0.00000E+00
 -1      1309 4.08668E-06 1.67328E-02 0.00000E+00
 -1      1310 4.18262E-05 1.68564E-02 0.00000E+00
 -1      1311 5.75284E-05 1.70177E-02 0.00000E+00
 -1      1312 6.30658E-05 1.72051E-02 0.00000E+00
 -1      1313 6.56256E-05 1.74094E-02 0.00000E+00
 -1      1314 6.93046E-05 1.76239E-02 0.00000E+00
 -1      1315 7.63539E-05 1.78442E-02 0.00000E+00
 -1      1316 8.80078E-05 1.80678E-02 0.00000E+00
 -1      1317 1.05006E-04 1.82934E-02 0.00000E+00
 -1      1318 1.27927E-04 1.85208E-02 0.00000E+00
 -1      1319 1.57428E-04 1.87509E-02 0.00000E+00
 -1      1320 1.94456E-04 1.89853E-02 0.00000E+00
 -1      1321 2.40497E-04 1.92272E-02 0.00000E+00
 -1      1322 2.97942E-04 1.94816E-02 0.00000E+00
 -1      1323 3.70701E-04 1.97565E-02 0.00000E+00
 -1      1324 4.65344E-04 2.00659E-02 0.00000E+00
 -1      1325 5.93452E-04 2.04341E-02 0.00000E+00
 -1      1326-9.06846E-04 1.61365E-02 0.00000E+00
 -1      1327-4.68420E-04 1.60578E-02 0.00000E+00
 -1      1328-1.68210E-04 1.60108E-02 0.00000E+00
 -1      1329-1.39682E-06 1.60374E-02 0.00000E+00
 -1      1330 7.37490E-05 1.61430E-02 0.00000E+00
 -1      1331 9.77137E-05 1.63105E-02 0.00000E+00
 -1      1332 9.74803E-05 1.65186E-02 0.00000E+00
 -1      1333 8.82711E-05 1.67503E-02 0.00000E+00
 -1      1334 7.78710E-05 1.69936E-02 0.00000E+00
 -1      1335 6.99810E-05 1.72412E-02 0.00000E+00
 -1      1336 6.62203E-05 1.74888E-02 0.00000E+00
 -1      1337 6.72126E-05 1.77344E-02 0.00000E+00
 -1      1338 7.31543E-05 1.79772E-02 0.00000E+00
 -1      1339 8.41160E-05 1.82174E-02 0.00000E+00
 -1      1340 1.00216E-04 1.84560E-02 0.00000E+00
 -1      1341 1.21742E-04 1.86946E-02 0.00000E+00
 -1      1342 1.49277E-04 1.89356E-02 0.00000E+00
 -1      1343 1.83860E-04 1.91825E-02 0.00000E+00
 -1      1344 2.27254E-04 1.94405E-02 0.00000E+00
 -1      1345 2.82396E-04 1.97182E-02 0.00000E+00
 -1      1346 3.54271E-04 2.00296E-02 0.00000E+00
 -1      1347 4.51702E-04 2.03995E-02 0.00000E+00
 -1      1348-6.25263E-04 1.52955E-02 0.00000E+00
 -1      1349-1.52457E-04 1.52264E-02 0.00000E+00
 -1      1350 7.03391E-05 1.52689E-02 0.00000E+00
 -1      1351 1.44225E-04 1.54323E-02 0.00000E+00
 -1      1352 1.50700E-04 1.56741E-02 0.00000E+00
 -1      1353 1.32873E-04 1.59554E-02 0.00000E+00
 -1      1354 1.09654E-04 1.62510E-02 0.00000E+00
 -1      1355 8.84918E-05 1.65476E-02 0.00000E+00
 -1      1356 7.19339E-05 1.68383E-02 0.00000E+00
 -1      1357 6.05619E-05 1.71205E-02 0.00000E+00
 -1      1358 5.42335E-05 1.73936E-02 0.00000E+00
 -1      1359 5.25983E-05 1.76579E-02 0.00000E+00
 -1      1360 5.53112E-05 1.79147E-02 0.00000E+00
 -1      1361 6.21245E-05 1.81654E-02 0.00000E+00
 -1      1362 7.29376E-05 1.84119E-02 0.00000E+00
 -1      1363 8.78405E-05 1.86564E-02 0.00000E+00
 -1      1364 1.07175E-04 1.89019E-02 0.00000E+00
 -1      1365 1.31635E-04 1.91522E-02 0.00000E+00
 -1      1366 1.62449E-04 1.94128E-02 0.00000E+00
 -1      1367 2.01694E-04 1.96924E-02 0.00000E+00
 -1      1368 2.52921E-04 2.00052E-02 0.00000E+00
 -1      1369 3.22432E-04 2.03761E-02 0.00000E+00
 -1      1370-2.36135E-04 1.41425E-02 0.00000E+00
 -1      1371 1.31264E-04 1.42192E-02 0.00000E+00
 -1      1372 2.03788E-04 1.45164E-02 0.00000E+00
 -1      1373 1.86299E-04 1.49014E-02 0.00000E+00
 -1      1374 1.50121E-04 1.53040E-02 0.00000E+00
 -1      1375 1.15886E-04 1.56949E-02 0.00000E+00
 -1      1376 8.82643E-05 1.60644E-02 0.00000E+00
 -1      1377 6.74832E-05 1.64110E-02 0.00000E+00
 -1      1378 5.26820E-05 1.67362E-02 0.00000E+00
 -1      1379 4.28936E-05 1.70426E-02 0.00000E+00
 -1      1380 3.72996E-05 1.73328E-02 0.00000E+00
 -1      1381 3.52718E-05 1.76095E-02 0.00000E+00
 -1      1382 3.63597E-05 1.78754E-02 0.00000E+00
 -1      1383 4.02706E-05 1.81328E-02 0.00000E+00
 -1      1384 4.68592E-05 1.83843E-02 0.00000E+00
 -1      1385 5.61329E-05 1.86327E-02 0.00000E+00
 -1      1386 6.82775E-05 1.88810E-02 0.00000E+00
 -1      1387 8.37147E-05 1.91334E-02 0.00000E+00
 -1      1388 1.03210E-04 1.93957E-02 0.00000E+00
 -1      1389 1.28076E-04 1.96764E-02 0.00000E+00
 -1      1390 1.60563E-04 1.99901E-02 0.00000E+00
 -1      1391 2.04672E-04 2.03616E-02 0.00000E+00
 -1      1392 9.68078E-05 1.25011E-02 0.00000E+00
 -1      1393 2.02490E-04 1.32348E-02 0.00000E+00
 -1      1394 1.65342E-04 1.39332E-02 0.00000E+00
 -1      1395 1.21864E-04 1.45448E-02 0.00000E+00
 -1      1396 8.84198E-05 1.50764E-02 0.00000E+00
 -1      1397 6.43026E-05 1.55433E-02 0.00000E+00
 -1      1398 4.71825E-05 1.59596E-02 0.00000E+00
 -1      1399 3.51658E-05 1.63360E-02 0.00000E+00
 -1      1400 2.69310E-05 1.66810E-02 0.00000E+00
 -1      1401 2.15795E-05 1.70009E-02 0.00000E+00
 -1      1402 1.85007E-05 1.73005E-02 0.00000E+00
 -1      1403 1.72785E-05 1.75840E-02 0.00000E+00
 -1      1404 1.76342E-05 1.78547E-02 0.00000E+00
 -1      1405 1.93917E-05 1.81157E-02 0.00000E+00
 -1      1406 2.24604E-05 1.83699E-02 0.00000E+00
 -1      1407 2.68308E-05 1.86203E-02 0.00000E+00
 -1      1408 3.25834E-05 1.88701E-02 0.00000E+00
 -1      1409 3.99139E-05 1.91236E-02 0.00000E+00
 -1      1410 4.91840E-05 1.93867E-02 0.00000E+00
 -1      1411 6.10170E-05 1.96681E-02 0.00000E+00
 -1      1412 7.64833E-05 1.99822E-02 0.00000E+00
 -1      1413 9.74896E-05 2.03541E-02 0.00000E+00
 -1      1414-2.57147E-04 1.00641E-02 0.00000E+00
 -1      1415-1.96113E-04 9.50219E-03 0.00000E+00
 -1      1416-3.82383E-06 9.42695E-03 0.00000E+00
 -1      1417 0.00000E+00 9.85508E-03 0.00000E+00
 -1      1418 1.01125E-04 8.84608E-03 0.00000E+00
 -1      1419 8.10015E-05 8.68183E-03 0.00000E+00
 -1      1420 0.00000E+00 9.11774E-03 0.00000E+00
 -1      1421 1.73148E-04 8.17865E-03 0.00000E+00
 -1      1422 9.17029E-05 7.97138E-03 0.00000E+00
 -1      1423 0.00000E+00 8.35626E-03 0.00000E+00
 -1      1424 1.70386E-04 7.55333E-03 0.00000E+00
 -1      1425 8.25479E-05 7.33244E-03 0.00000E+00
 -1      1426 0.00000E+00 7.66391E-03 0.00000E+00
 -1      1427 1.49237E-04 6.98161E-03 0.00000E+00
 -1      1428 7.01326E-05 6.76225E-03 0.00000E+00
 -1      1429 0.00000E+00 7.05071E-03 0.00000E+00
 -1      1430 1.26614E-04 6.46051E-03 0.00000E+00
 -1      1431 5.88679E-05 6.24873E-03 0.00000E+00
 -1      1432 0.00000E+00 6.50462E-03 0.00000E+00
 -1      1433 1.06761E-04 5.98263E-03 0.00000E+00
 -1      1434 4.94804E-05 5.78009E-03 0.00000E+00
 -1      1435 0.00000E+00 6.01147E-03 0.00000E+00
 -1      1436 9.02329E-05 5.54015E-03 0.00000E+00
 -1      1437 4.18145E-05 5.34664E-03 0.00000E+00
 -1      1438 0.00000E+00 5.55943E-03 0.00000E+00
 -1      1439 7.66325E-05 5.12626E-03 0.00000E+00
 -1      1440 3.55455E-05 4.94085E-03 0.00000E+00
 -1      1441 0.00000E+00 5.13936E-03 0.00000E+00
 -1      1442 6.54051E-05 4.73526E-03 0.00000E+00
 -1      1443 3.03722E-05 4.55681E-03 0.00000E+00
 -1      1444 0.00000E+00 4.74429E-03 0.00000E+00
 -1      1445 5.60522E-05 4.36252E-03 0.00000E+00
 -1      1446 2.60520E-05 4.18986E-03 0.00000E+00
 -1      1447 0.00000E+00 4.36880E-03 0.00000E+00
 -1      1448 4.81717E-05 4.00420E-03 0.00000E+00
 -1      1449 2.23972E-05 3.83621E-03 0.00000E+00
 -1      1450 0.00000E+00 4.00859E-03 0.00000E+00
 -1      1451 4.14491E-05 3.65705E-03 0.00000E+00
 -1      1452 1.92642E-05 3.49266E-03 0.00000E+00
 -1      1453 0.00000E+00 3.66013E-03 0.00000E+00
 -1      1454 3.56399E-05 3.31826E-03 0.00000E+00
 -1      1455 1.65418E-05 3.15645E-03 0.00000E+00
 -1      1456 0.00000E+00 3.32041E-03 0.00000E+00
 -1      1457 3.05527E-05 2.98528E-03 0.00000E+00
 -1      1458 1.41432E-05 2.82503E-03 0.00000E+00
 -1      1459 0.00000E+00 2.98677E-03 0.00000E+00
 -1      1460 2.60350E-05 2.65570E-03 0.00000E+00
 -1      1461 1.19988E-05 2.49595E-03 0.00000E+00
 -1      1462 0.00000E+00 2.65672E-03 0.00000E+00
 -1      1463 2.19632E-05 2.32711E-03 0.00000E+00
 -1      1464 1.00516E-05 2.16676E-03 0.00000E+00
 -1      1465 0.00000E+00 2.32780E-03 0.00000E+00
 -1      1466 1.82335E-05 1.99699E-03 0.00000E+00
 -1      1467 8.25324E-06 1.83476E-03 0.00000E+00
 -1      1468 0.00000E+00 1.99746E-03 0.00000E+00
 -1      1469 1.47557E-05 1.66253E-03 0.00000E+00
 -1      1470 6.56047E-06 1.49693E-03 0.00000E+00
 -1      1471 0.00000E+00 1.66283E-03 0.00000E+00
 -1      1472 1.14469E-05 1.32041E-03 0.00000E+00
 -1      1473 4.93239E-06 1.14959E-03 0.00000E+00
 -1      1474 0.00000E+00 1.32060E-03 0.00000E+00
 -1      1475 8.22528E-06 9.66523E-04 0.00000E+00
 -1      1476 3.32683E-06 7.88087E-04 0.00000E+00
 -1      1477 0.00000E+00 9.66629E-04 0.00000E+00
 -1      1478 5.00148E-06 5.95424E-04 0.00000E+00
 -1      1479 1.69437E-06 4.06068E-04 0.00000E+00
 -1      1480 0.00000E+00 5.95477E-04 0.00000E+00
 -1      1481 1.68901E-06 2.02476E-04 0.00000E+00
 -1      1482 0.00000E+00 2.02492E-04 0.00000E+00
 -1      1483-7.41971E-04 9.24050E-03 0.00000E+00
 -1      1484-3.49418E-04 8.34519E-03 0.00000E+00
 -1      1485-1.82218E-05 8.75886E-03 0.00000E+00
 -1      1486 1.32385E-04 8.02970E-03 0.00000E+00
 -1      1487 2.08087E-04 8.22355E-03 0.00000E+00
 -1      1488 2.82683E-04 7.64630E-03 0.00000E+00
 -1      1489 2.51067E-04 7.68016E-03 0.00000E+00
 -1      1490 3.05700E-04 7.21243E-03 0.00000E+00
 -1      1491 2.36163E-04 7.14956E-03 0.00000E+00
 -1      1492 2.83598E-04 6.76236E-03 0.00000E+00
 -1      1493 2.06524E-04 6.64575E-03 0.00000E+00
 -1      1494 2.49332E-04 6.31745E-03 0.00000E+00
 -1      1495 1.76521E-04 6.17292E-03 0.00000E+00
 -1      1496 2.14980E-04 5.88762E-03 0.00000E+00
 -1      1497 1.50078E-04 5.72970E-03 0.00000E+00
 -1      1498 1.84296E-04 5.47600E-03 0.00000E+00
 -1      1499 1.27758E-04 5.31254E-03 0.00000E+00
 -1      1500 1.57962E-04 5.08232E-03 0.00000E+00
 -1      1501 1.09122E-04 4.91743E-03 0.00000E+00
 -1      1502 1.35636E-04 4.70483E-03 0.00000E+00
 -1      1503 9.35347E-05 4.54056E-03 0.00000E+00
 -1      1504 1.16709E-04 4.34129E-03 0.00000E+00
 -1      1505 8.03995E-05 4.17851E-03 0.00000E+00
 -1      1506 1.00574E-04 3.98932E-03 0.00000E+00
 -1      1507 6.92194E-05 3.82825E-03 0.00000E+00
 -1      1508 8.66991E-05 3.64661E-03 0.00000E+00
 -1      1509 5.95947E-05 3.48709E-03 0.00000E+00
 -1      1510 7.46428E-05 3.31096E-03 0.00000E+00
 -1      1511 5.12072E-05 3.15256E-03 0.00000E+00
 -1      1512 6.40440E-05 2.98020E-03 0.00000E+00
 -1      1513 4.38020E-05 2.82233E-03 0.00000E+00
 -1      1514 5.46069E-05 2.65220E-03 0.00000E+00
 -1      1515 3.71725E-05 2.49411E-03 0.00000E+00
 -1      1516 4.60852E-05 2.32474E-03 0.00000E+00
 -1      1517 3.11468E-05 2.16552E-03 0.00000E+00
 -1      1518 3.82698E-05 1.99543E-03 0.00000E+00
 -1      1519 2.55779E-05 1.83395E-03 0.00000E+00
 -1      1520 3.09760E-05 1.66153E-03 0.00000E+00
 -1      1521 2.03337E-05 1.49642E-03 0.00000E+00
 -1      1522 2.40329E-05 1.31979E-03 0.00000E+00
 -1      1523 1.52885E-05 1.14928E-03 0.00000E+00
 -1      1524 1.72704E-05 9.66163E-04 0.00000E+00
 -1      1525 1.03123E-05 7.87916E-04 0.00000E+00
 -1      1526 1.05019E-05 5.95242E-04 0.00000E+00
 -1      1527 5.25219E-06 4.05993E-04 0.00000E+00
 -1      1528 3.54660E-06 2.02421E-04 0.00000E+00
 -1      1529-9.72402E-04 7.51962E-03 0.00000E+00
 -1      1530-5.56864E-04 6.91895E-03 0.00000E+00
 -1      1531-1.30293E-04 7.53831E-03 0.00000E+00
 -1      1532 1.28680E-06 6.96954E-03 0.00000E+00
 -1      1533 2.11139E-04 7.39665E-03 0.00000E+00
 -1      1534 2.64945E-04 6.88949E-03 0.00000E+00
 -1      1535 3.28892E-04 7.12918E-03 0.00000E+00
 -1      1536 3.60325E-04 6.68624E-03 0.00000E+00
 -1      1537 3.45366E-04 6.78508E-03 0.00000E+00
 -1      1538 3.72853E-04 6.40164E-03 0.00000E+00
 -1      1539 3.21995E-04 6.40396E-03 0.00000E+00
 -1      1540 3.49492E-04 6.07092E-03 0.00000E+00
 -1      1541 2.86263E-04 6.01099E-03 0.00000E+00
 -1      1542 3.13635E-04 5.71852E-03 0.00000E+00
 -1      1543 2.49520E-04 5.61992E-03 0.00000E+00
 -1      1544 2.75863E-04 5.35922E-03 0.00000E+00
 -1      1545 2.15849E-04 5.23723E-03 0.00000E+00
 -1      1546 2.40454E-04 5.00109E-03 0.00000E+00
 -1      1547 1.86316E-04 4.86525E-03 0.00000E+00
 -1      1548 2.08788E-04 4.64798E-03 0.00000E+00
 -1      1549 1.60826E-04 4.50412E-03 0.00000E+00
 -1      1550 1.81010E-04 4.30131E-03 0.00000E+00
 -1      1551 1.38896E-04 4.15294E-03 0.00000E+00
 -1      1552 1.56785E-04 3.96115E-03 0.00000E+00
 -1      1553 1.19966E-04 3.81028E-03 0.00000E+00
 -1      1554 1.35628E-04 3.62678E-03 0.00000E+00
 -1      1555 1.03513E-04 3.47447E-03 0.00000E+00
 -1      1556 1.17049E-04 3.29704E-03 0.00000E+00
 -1      1557 8.90792E-05 3.14374E-03 0.00000E+00
 -1      1558 1.00596E-04 2.97051E-03 0.00000E+00
 -1      1559 7.62767E-05 2.81622E-03 0.00000E+00
 -1      1560 8.58701E-05 2.64553E-03 0.00000E+00
 -1      1561 6.47782E-05 2.48993E-03 0.00000E+00
 -1      1562 7.25261E-05 2.32022E-03 0.00000E+00
 -1      1563 5.43040E-05 2.16271E-03 0.00000E+00
 -1      1564 6.02584E-05 1.99242E-03 0.00000E+00
 -1      1565 4.46092E-05 1.83211E-03 0.00000E+00
 -1      1566 4.87911E-05 1.65959E-03 0.00000E+00
 -1      1567 3.54707E-05 1.49526E-03 0.00000E+00
 -1      1568 3.78635E-05 1.31860E-03 0.00000E+00
 -1      1569 2.66735E-05 1.14858E-03 0.00000E+00
 -1      1570 2.72132E-05 9.65473E-04 0.00000E+00
 -1      1571 1.79931E-05 7.87530E-04 0.00000E+00
 -1      1572 1.65494E-05 5.94894E-04 0.00000E+00
 -1      1573 9.16462E-06 4.05824E-04 0.00000E+00
 -1      1574 5.58911E-06 2.02316E-04 0.00000E+00
 -1      1575-9.44665E-04 6.38631E-03 0.00000E+00
 -1      1576-6.52292E-04 6.01344E-03 0.00000E+00
 -1      1577-3.37160E-04 6.45158E-03 0.00000E+00
 -1      1578-1.77328E-04 6.08150E-03 0.00000E+00
 -1      1579 8.26562E-05 6.49977E-03 0.00000E+00
 -1      1580 1.50162E-04 6.12134E-03 0.00000E+00
 -1      1581 2.98025E-04 6.44675E-03 0.00000E+00
 -1      1582 3.27824E-04 6.07695E-03 0.00000E+00
 -1      1583 3.82198E-04 6.28833E-03 0.00000E+00
 -1      1584 4.00550E-04 5.94241E-03 0.00000E+00
 -1      1585 3.94833E-04 6.05078E-03 0.00000E+00
 -1      1586 4.11658E-04 5.73487E-03 0.00000E+00
 -1      1587 3.73434E-04 5.76251E-03 0.00000E+00
 -1      1588 3.91302E-04 5.47647E-03 0.00000E+00
 -1      1589 3.38609E-04 5.44557E-03 0.00000E+00
 -1      1590 3.57366E-04 5.18619E-03 0.00000E+00
 -1      1591 3.00586E-04 5.11472E-03 0.00000E+00
 -1      1592 3.19412E-04 4.87774E-03 0.00000E+00
 -1      1593 2.63962E-04 4.77891E-03 0.00000E+00
 -1      1594 2.82096E-04 4.56012E-03 0.00000E+00
 -1      1595 2.30507E-04 4.44311E-03 0.00000E+00
 -1      1596 2.47415E-04 4.23877E-03 0.00000E+00
 -1      1597 2.00653E-04 4.10977E-03 0.00000E+00
 -1      1598 2.16015E-04 3.91669E-03 0.00000E+00
 -1      1599 1.74248E-04 3.77974E-03 0.00000E+00
 -1      1600 1.87897E-04 3.59527E-03 0.00000E+00
 -1      1601 1.50912E-04 3.45294E-03 0.00000E+00
 -1      1602 1.62776E-04 3.27483E-03 0.00000E+00
 -1      1603 1.30203E-04 3.12864E-03 0.00000E+00
 -1      1604 1.40263E-04 2.95498E-03 0.00000E+00
 -1      1605 1.11688E-04 2.80574E-03 0.00000E+00
 -1      1606 1.19949E-04 2.63480E-03 0.00000E+00
 -1      1607 9.49676E-05 2.48275E-03 0.00000E+00
 -1      1608 1.01436E-04 2.31293E-03 0.00000E+00
 -1      1609 7.96783E-05 2.15788E-03 0.00000E+00
 -1      1610 8.43493E-05 1.98758E-03 0.00000E+00
 -1      1611 6.54902E-05 1.82895E-03 0.00000E+00
 -1      1612 6.83361E-05 1.65647E-03 0.00000E+00
 -1      1613 5.20934E-05 1.49325E-03 0.00000E+00
 -1      1614 5.30508E-05 1.31667E-03 0.00000E+00
 -1      1615 3.91829E-05 1.14738E-03 0.00000E+00
 -1      1616 3.81374E-05 9.64359E-04 0.00000E+00
 -1      1617 2.64355E-05 7.86866E-04 0.00000E+00
 -1      1618 2.31961E-05 5.94330E-04 0.00000E+00
 -1      1619 1.34658E-05 4.05532E-04 0.00000E+00
 -1      1620 7.83431E-06 2.02146E-04 0.00000E+00
 -1      1621-8.95361E-04 5.62851E-03 0.00000E+00
 -1      1622-6.76937E-04 5.33574E-03 0.00000E+00
 -1      1623-4.55000E-04 5.67580E-03 0.00000E+00
 -1      1624-2.99000E-04 5.39104E-03 0.00000E+00
 -1      1625-7.06789E-05 5.74115E-03 0.00000E+00
 -1      1626 1.99896E-05 5.45041E-03 0.00000E+00
 -1      1627 1.98112E-04 5.77378E-03 0.00000E+00
 -1      1628 2.43664E-04 5.47661E-03 0.00000E+00
 -1      1629 3.50345E-04 5.73690E-03 0.00000E+00
 -1      1630 3.73434E-04 5.44166E-03 0.00000E+00
 -1      1631 4.15875E-04 5.62242E-03 0.00000E+00
 -1      1632 4.30573E-04 5.33803E-03 0.00000E+00
 -1      1633 4.27022E-04 5.44076E-03 0.00000E+00
 -1      1634 4.39925E-04 5.17278E-03 0.00000E+00
 -1      1635 4.08367E-04 5.20877E-03 0.00000E+00
 -1      1636 4.21684E-04 4.95903E-03 0.00000E+00
 -1      1637 3.75675E-04 4.94249E-03 0.00000E+00
 -1      1638 3.89619E-04 4.71033E-03 0.00000E+00
 -1      1639 3.38013E-04 4.65449E-03 0.00000E+00
 -1      1640 3.52107E-04 4.43794E-03 0.00000E+00
 -1      1641 3.00138E-04 4.35361E-03 0.00000E+00
 -1      1642 3.13807E-04 4.15023E-03 0.00000E+00
 -1      1643 2.64295E-04 4.04562E-03 0.00000E+00
 -1      1644 2.77065E-04 3.85293E-03 0.00000E+00
 -1      1645 2.31358E-04 3.73395E-03 0.00000E+00
 -1      1646 2.42894E-04 3.54965E-03 0.00000E+00
 -1      1647 2.01491E-04 3.42042E-03 0.00000E+00
 -1      1648 2.11575E-04 3.24245E-03 0.00000E+00
 -1      1649 1.74516E-04 3.10574E-03 0.00000E+00
 -1      1650 1.83010E-04 2.93223E-03 0.00000E+00
 -1      1651 1.50102E-04 2.78977E-03 0.00000E+00
 -1      1652 1.56920E-04 2.61903E-03 0.00000E+00
 -1      1653 1.27867E-04 2.47178E-03 0.00000E+00
 -1      1654 1.32943E-04 2.30218E-03 0.00000E+00
 -1      1655 1.07417E-04 2.15049E-03 0.00000E+00
 -1      1656 1.10687E-04 1.98043E-03 0.00000E+00
 -1      1657 8.83651E-05 1.82410E-03 0.00000E+00
 -1      1658 8.97489E-05 1.65185E-03 0.00000E+00
 -1      1659 7.03290E-05 1.49018E-03 0.00000E+00
 -1      1660 6.97121E-05 1.31381E-03 0.00000E+00
 -1      1661 5.29185E-05 1.14553E-03 0.00000E+00
 -1      1662 5.01324E-05 9.62704E-04 0.00000E+00
 -1      1663 3.57107E-05 7.85847E-04 0.00000E+00
 -1      1664 3.04978E-05 5.93493E-04 0.00000E+00
 -1      1665 1.81928E-05 4.05085E-04 0.00000E+00
 -1      1666 1.03014E-05 2.01893E-04 0.00000E+00
 -1      1667-8.49849E-04 5.01849E-03 0.00000E+00
 -1      1668-6.72831E-04 4.77302E-03 0.00000E+00
 -1      1669-5.10082E-04 5.05868E-03 0.00000E+00
 -1      1670-3.68406E-04 4.82006E-03 0.00000E+00
 -1      1671-1.84165E-04 5.11676E-03 0.00000E+00
 -1      1672-8.44642E-05 4.87782E-03 0.00000E+00
 -1      1673 8.63200E-05 5.17129E-03 0.00000E+00
 -1      1674 1.48178E-04 4.92698E-03 0.00000E+00
 -1      1675 2.78402E-04 5.19341E-03 0.00000E+00
 -1      1676 3.13632E-04 4.94452E-03 0.00000E+00
 -1      1677 3.92482E-04 5.16177E-03 0.00000E+00
 -1      1678 4.12781E-04 4.91306E-03 0.00000E+00
 -1      1679 4.44125E-04 5.06904E-03 0.00000E+00
 -1      1680 4.57728E-04 4.82593E-03 0.00000E+00
 -1      1681 4.52800E-04 4.91934E-03 0.00000E+00
 -1      1682 4.64180E-04 4.68580E-03 0.00000E+00
 -1      1683 4.35382E-04 4.72272E-03 0.00000E+00
 -1      1684 4.46387E-04 4.50065E-03 0.00000E+00
 -1      1685 4.04076E-04 4.49051E-03 0.00000E+00
 -1      1686 4.15124E-04 4.28012E-03 0.00000E+00
 -1      1687 3.66732E-04 4.23279E-03 0.00000E+00
 -1      1688 3.77627E-04 4.03317E-03 0.00000E+00
 -1      1689 3.27962E-04 3.95746E-03 0.00000E+00
 -1      1690 3.38327E-04 3.76714E-03 0.00000E+00
 -1      1691 2.90236E-04 3.67018E-03 0.00000E+00
 -1      1692 2.99705E-04 3.48746E-03 0.00000E+00
 -1      1693 2.54717E-04 3.37470E-03 0.00000E+00
 -1      1694 2.62995E-04 3.19787E-03 0.00000E+00
 -1      1695 2.21809E-04 3.07330E-03 0.00000E+00
 -1      1696 2.28676E-04 2.90068E-03 0.00000E+00
 -1      1697 1.91501E-04 2.76704E-03 0.00000E+00
 -1      1698 1.96792E-04 2.59703E-03 0.00000E+00
 -1      1699 1.63561E-04 2.45610E-03 0.00000E+00
 -1      1700 1.67145E-04 2.28714E-03 0.00000E+00
 -1      1701 1.37651E-04 2.13990E-03 0.00000E+00
 -1      1702 1.39405E-04 1.97038E-03 0.00000E+00
 -1      1703 1.13375E-04 1.81713E-03 0.00000E+00
 -1      1704 1.13166E-04 1.64535E-03 0.00000E+00
 -1      1705 9.03081E-05 1.48576E-03 0.00000E+00
 -1      1706 8.79692E-05 1.30978E-03 0.00000E+00
 -1      1707 6.79876E-05 1.14287E-03 0.00000E+00
 -1      1708 6.32925E-05 9.60368E-04 0.00000E+00
 -1      1709 4.58945E-05 7.84377E-04 0.00000E+00
 -1      1710 3.85147E-05 5.92310E-04 0.00000E+00
 -1      1711 2.33854E-05 4.04440E-04 0.00000E+00
 -1      1712 1.30109E-05 2.01535E-04 0.00000E+00
 -1      1713-7.99573E-04 4.49937E-03 0.00000E+00
 -1      1714-6.50674E-04 4.28554E-03 0.00000E+00
 -1      1715-5.28753E-04 4.53545E-03 0.00000E+00
 -1      1716-4.01664E-04 4.32704E-03 0.00000E+00
 -1      1717-2.56157E-04 4.58608E-03 0.00000E+00
 -1      1718-1.56151E-04 4.37948E-03 0.00000E+00
 -1      1719-7.01503E-06 4.64230E-03 0.00000E+00
 -1      1720 6.48157E-05 4.43356E-03 0.00000E+00
 -1      1721 1.96448E-04 4.68742E-03 0.00000E+00
 -1      1722 2.43886E-04 4.47451E-03 0.00000E+00
 -1      1723 3.42155E-04 4.70245E-03 0.00000E+00
 -1      1724 3.71903E-04 4.48622E-03 0.00000E+00
 -1      1725 4.30520E-04 4.67290E-03 0.00000E+00
 -1      1726 4.49419E-04 4.45625E-03 0.00000E+00
 -1      1727 4.70887E-04 4.59241E-03 0.00000E+00
 -1      1728 4.84110E-04 4.37875E-03 0.00000E+00
 -1      1729 4.76069E-04 4.46226E-03 0.00000E+00
 -1      1730 4.86739E-04 4.25431E-03 0.00000E+00
 -1      1731 4.58266E-04 4.28859E-03 0.00000E+00
 -1      1732 4.67880E-04 4.08790E-03 0.00000E+00
 -1      1733 4.27131E-04 4.07952E-03 0.00000E+00
 -1      1734 4.36177E-04 3.88651E-03 0.00000E+00
 -1      1735 3.89428E-04 3.84305E-03 0.00000E+00
 -1      1736 3.97885E-04 3.65727E-03 0.00000E+00
 -1      1737 3.49473E-04 3.58598E-03 0.00000E+00
 -1      1738 3.57119E-04 3.40647E-03 0.00000E+00
 -1      1739 3.09791E-04 3.31356E-03 0.00000E+00
 -1      1740 3.16360E-04 3.13907E-03 0.00000E+00
 -1      1741 2.71700E-04 3.02948E-03 0.00000E+00
 -1      1742 2.76949E-04 2.85866E-03 0.00000E+00
 -1      1743 2.35762E-04 2.73611E-03 0.00000E+00
 -1      1744 2.39483E-04 2.56752E-03 0.00000E+00
 -1      1745 2.02079E-04 2.43466E-03 0.00000E+00
 -1      1746 2.04090E-04 2.26684E-03 0.00000E+00
 -1      1747 1.70484E-04 2.12535E-03 0.00000E+00
 -1      1748 1.70614E-04 1.95677E-03 0.00000E+00
 -1      1749 1.40654E-04 1.80753E-03 0.00000E+00
 -1      1750 1.38720E-04 1.63651E-03 0.00000E+00
 -1      1751 1.12162E-04 1.47965E-03 0.00000E+00
 -1      1752 1.07945E-04 1.30429E-03 0.00000E+00
 -1      1753 8.45014E-05 1.13918E-03 0.00000E+00
 -1      1754 7.77162E-05 9.57179E-04 0.00000E+00
 -1      1755 5.70678E-05 7.82341E-04 0.00000E+00
 -1      1756 4.73102E-05 5.90693E-04 0.00000E+00
 -1      1757 2.90864E-05 4.03545E-04 0.00000E+00
 -1      1758 1.59849E-05 2.01046E-04 0.00000E+00
 -1      1759-7.45004E-04 4.04154E-03 0.00000E+00
 -1      1760-6.15720E-04 3.85056E-03 0.00000E+00
 -1      1761-5.23846E-04 4.07521E-03 0.00000E+00
 -1      1762-4.09169E-04 3.88856E-03 0.00000E+00
 -1      1763-2.95381E-04 4.12033E-03 0.00000E+00
 -1      1764-1.98677E-04 3.93618E-03 0.00000E+00
 -1      1765-7.41978E-05 4.17328E-03 0.00000E+00
 -1      1766 2.25842E-06 3.98907E-03 0.00000E+00
 -1      1767 1.23212E-04 4.22525E-03 0.00000E+00
 -1      1768 1.79720E-04 4.03876E-03 0.00000E+00
 -1      1769 2.82829E-04 4.26322E-03 0.00000E+00
 -1      1770 3.22226E-04 4.07350E-03 0.00000E+00
 -1      1771 3.97221E-04 4.27329E-03 0.00000E+00
 -1      1772 4.23776E-04 4.08100E-03 0.00000E+00
 -1      1773 4.66632E-04 4.24453E-03 0.00000E+00
 -1      1774 4.84677E-04 4.05149E-03 0.00000E+00
 -1      1775 4.97246E-04 4.17131E-03 0.00000E+00
 -1      1776 5.10218E-04 3.97971E-03 0.00000E+00
 -1      1777 4.98136E-04 4.05347E-03 0.00000E+00
 -1      1778 5.08276E-04 3.86517E-03 0.00000E+00
 -1      1779 4.78562E-04 3.89486E-03 0.00000E+00
 -1      1780 4.87070E-04 3.71098E-03 0.00000E+00
 -1      1781 4.46362E-04 3.70141E-03 0.00000E+00
 -1      1782 4.53725E-04 3.52231E-03 0.00000E+00
 -1      1783 4.07400E-04 3.47950E-03 0.00000E+00
 -1      1784 4.13695E-04 3.30492E-03 0.00000E+00
 -1      1785 3.65657E-04 3.23493E-03 0.00000E+00
 -1      1786 3.70768E-04 3.06415E-03 0.00000E+00
 -1      1787 3.23607E-04 2.97242E-03 0.00000E+00
 -1      1788 3.27347E-04 2.80444E-03 0.00000E+00
 -1      1789 2.82631E-04 2.69544E-03 0.00000E+00
 -1      1790 2.84797E-04 2.52909E-03 0.00000E+00
 -1      1791 2.43370E-04 2.40625E-03 0.00000E+00
 -1      1792 2.43761E-04 2.24020E-03 0.00000E+00
 -1      1793 2.05981E-04 2.10597E-03 0.00000E+00
 -1      1794 2.04394E-04 1.93881E-03 0.00000E+00
 -1      1795 1.70316E-04 1.79468E-03 0.00000E+00
 -1      1796 1.66528E-04 1.62480E-03 0.00000E+00
 -1      1797 1.36018E-04 1.47145E-03 0.00000E+00
 -1      1798 1.29762E-04 1.29700E-03 0.00000E+00
 -1      1799 1.02574E-04 1.13422E-03 0.00000E+00
 -1      1800 9.35051E-05 9.52929E-04 0.00000E+00
 -1      1801 6.93149E-05 7.79596E-04 0.00000E+00
 -1      1802 5.69511E-05 5.88533E-04 0.00000E+00
 -1      1803 3.53410E-05 4.02338E-04 0.00000E+00
 -1      1804 1.92468E-05 2.00393E-04 0.00000E+00
 -1      1805-6.85432E-04 3.62854E-03 0.00000E+00
 -1      1806-5.70354E-04 3.45508E-03 0.00000E+00
 -1      1807-5.01777E-04 3.66070E-03 0.00000E+00
 -1      1808-3.97107E-04 3.49070E-03 0.00000E+00
 -1      1809-3.09151E-04 3.70194E-03 0.00000E+00
 -1      1810-2.16848E-04 3.53454E-03 0.00000E+00
 -1      1811-1.15853E-04 3.75100E-03 0.00000E+00
 -1      1812-3.80621E-05 3.58465E-03 0.00000E+00
 -1      1813 6.69794E-05 3.80342E-03 0.00000E+00
 -1      1814 1.29265E-04 3.63640E-03 0.00000E+00
 -1      1815 2.27461E-04 3.85119E-03 0.00000E+00
 -1      1816 2.74849E-04 3.68214E-03 0.00000E+00
 -1      1817 3.55948E-04 3.88374E-03 0.00000E+00
 -1      1818 3.90471E-04 3.71212E-03 0.00000E+00
 -1      1819 4.47300E-04 3.89008E-03 0.00000E+00
 -1      1820 4.71794E-04 3.71630E-03 0.00000E+00
 -1      1821 5.01619E-04 3.86129E-03 0.00000E+00
 -1      1822 5.18973E-04 3.68650E-03 0.00000E+00
 -1      1823 5.23320E-04 3.79228E-03 0.00000E+00
 -1      1824 5.35916E-04 3.61787E-03 0.00000E+00
 -1      1825 5.19231E-04 3.68209E-03 0.00000E+00
 -1      1826 5.28719E-04 3.50925E-03 0.00000E+00
 -1      1827 4.96695E-04 3.53310E-03 0.00000E+00
 -1      1828 5.04037E-04 3.36261E-03 0.00000E+00
 -1      1829 4.62258E-04 3.34975E-03 0.00000E+00
 -1      1830 4.67903E-04 3.18182E-03 0.00000E+00
 -1      1831 4.21058E-04 3.13719E-03 0.00000E+00
 -1      1832 4.25136E-04 2.97156E-03 0.00000E+00
 -1      1833 3.76751E-04 2.90037E-03 0.00000E+00
 -1      1834 3.79211E-04 2.73641E-03 0.00000E+00
 -1      1835 3.31702E-04 2.64346E-03 0.00000E+00
 -1      1836 3.32408E-04 2.48027E-03 0.00000E+00
 -1      1837 2.87284E-04 2.36958E-03 0.00000E+00
 -1      1838 2.86056E-04 2.20606E-03 0.00000E+00
 -1      1839 2.44149E-04 2.08077E-03 0.00000E+00
 -1      1840 2.40777E-04 1.91561E-03 0.00000E+00
 -1      1841 2.02451E-04 1.77789E-03 0.00000E+00
 -1      1842 1.96688E-04 1.60960E-03 0.00000E+00
 -1      1843 1.61995E-04 1.46069E-03 0.00000E+00
 -1      1844 1.53535E-04 1.28748E-03 0.00000E+00
 -1      1845 1.22319E-04 1.12768E-03 0.00000E+00
 -1      1846 1.10761E-04 9.47368E-04 0.00000E+00
 -1      1847 8.27231E-05 7.75972E-04 0.00000E+00
 -1      1848 6.75065E-05 5.85701E-04 0.00000E+00
 -1      1849 4.21970E-05 4.00742E-04 0.00000E+00
 -1      1850 2.28210E-05 1.99535E-04 0.00000E+00
 -1      1851-6.20416E-04 3.25016E-03 0.00000E+00
 -1      1852-5.15753E-04 3.09071E-03 0.00000E+00
 -1      1853-4.66030E-04 3.28128E-03 0.00000E+00
 -1      1854-3.69221E-04 3.12465E-03 0.00000E+00
 -1      1855-3.02653E-04 3.31977E-03 0.00000E+00
 -1      1856-2.14660E-04 3.16561E-03 0.00000E+00
 -1      1857-1.34821E-04 3.36541E-03 0.00000E+00
 -1      1858-5.73756E-05 3.21282E-03 0.00000E+00
 -1      1859 3.02321E-05 3.41606E-03 0.00000E+00
 -1      1860 9.58283E-05 3.26386E-03 0.00000E+00
 -1      1861 1.83570E-04 3.46707E-03 0.00000E+00
 -1      1862 2.36880E-04 3.31406E-03 0.00000E+00
 -1      1863 3.16231E-04 3.51123E-03 0.00000E+00
 -1      1864 3.57820E-04 3.35647E-03 0.00000E+00
 -1      1865 4.21051E-04 3.53954E-03 0.00000E+00
 -1      1866 4.52353E-04 3.38263E-03 0.00000E+00
 -1      1867 4.94175E-04 3.54279E-03 0.00000E+00
 -1      1868 5.17127E-04 3.38391E-03 0.00000E+00
 -1      1869 5.35631E-04 3.51330E-03 0.00000E+00
 -1      1870 5.52227E-04 3.35311E-03 0.00000E+00
 -1      1871 5.48779E-04 3.44631E-03 0.00000E+00
 -1      1872 5.60720E-04 3.28564E-03 0.00000E+00
 -1      1873 5.39035E-04 3.34038E-03 0.00000E+00
 -1      1874 5.47559E-04 3.17995E-03 0.00000E+00
 -1      1875 5.12457E-04 3.19696E-03 0.00000E+00
 -1      1876 5.18338E-04 3.03718E-03 0.00000E+00
 -1      1877 4.74652E-04 3.01938E-03 0.00000E+00
 -1      1878 4.78293E-04 2.86030E-03 0.00000E+00
 -1      1879 4.30188E-04 2.81186E-03 0.00000E+00
 -1      1880 4.31735E-04 2.65316E-03 0.00000E+00
 -1      1881 3.82414E-04 2.57863E-03 0.00000E+00
 -1      1882 3.81854E-04 2.41965E-03 0.00000E+00
 -1      1883 3.33558E-04 2.32332E-03 0.00000E+00
 -1      1884 3.30776E-04 2.16317E-03 0.00000E+00
 -1      1885 2.84924E-04 2.04868E-03 0.00000E+00
 -1      1886 2.79736E-04 1.88622E-03 0.00000E+00
 -1      1887 2.37111E-04 1.75636E-03 0.00000E+00
 -1      1888 2.29268E-04 1.59019E-03 0.00000E+00
 -1      1889 1.90194E-04 1.44681E-03 0.00000E+00
 -1      1890 1.79367E-04 1.27526E-03 0.00000E+00
 -1      1891 1.43845E-04 1.11922E-03 0.00000E+00
 -1      1892 1.29584E-04 9.40199E-04 0.00000E+00
 -1      1893 9.73807E-05 7.71263E-04 0.00000E+00
 -1      1894 7.90465E-05 5.82038E-04 0.00000E+00
 -1      1895 4.97037E-05 3.98664E-04 0.00000E+00
 -1      1896 2.67326E-05 1.98422E-04 0.00000E+00
 -1      1897-5.49469E-04 2.89971E-03 0.00000E+00
 -1      1898-4.52464E-04 2.75191E-03 0.00000E+00
 -1      1899-4.18553E-04 2.93007E-03 0.00000E+00
 -1      1900-3.27787E-04 2.78458E-03 0.00000E+00
 -1      1901-2.79301E-04 2.96653E-03 0.00000E+00
 -1      1902-1.95051E-04 2.82333E-03 0.00000E+00
 -1      1903-1.33975E-04 3.00938E-03 0.00000E+00
 -1      1904-5.75657E-05 2.86796E-03 0.00000E+00
 -1      1905 1.28266E-05 3.05770E-03 0.00000E+00
 -1      1906 8.01651E-05 2.91729E-03 0.00000E+00
 -1      1907 1.54771E-04 3.10888E-03 0.00000E+00
 -1      1908 2.12216E-04 2.96858E-03 0.00000E+00
 -1      1909 2.84588E-04 3.15833E-03 0.00000E+00
 -1      1910 3.31907E-04 3.01721E-03 0.00000E+00
 -1      1911 3.95159E-04 3.19944E-03 0.00000E+00
 -1      1912 4.32779E-04 3.05678E-03 0.00000E+00
 -1      1913 4.80844E-04 3.22425E-03 0.00000E+00
 -1      1914 5.09762E-04 3.07966E-03 0.00000E+00
 -1      1915 5.38592E-04 3.22464E-03 0.00000E+00
 -1      1916 5.60146E-04 3.07810E-03 0.00000E+00
 -1      1917 5.68405E-04 3.19373E-03 0.00000E+00
 -1      1918 5.84000E-04 3.04553E-03 0.00000E+00
 -1      1919 5.72997E-04 3.12698E-03 0.00000E+00
 -1      1920 5.83870E-04 2.97750E-03 0.00000E+00
 -1      1921 5.56869E-04 3.02262E-03 0.00000E+00
 -1      1922 5.63962E-04 2.87220E-03 0.00000E+00
 -1      1923 5.25191E-04 2.88142E-03 0.00000E+00
 -1      1924 5.29130E-04 2.73017E-03 0.00000E+00
 -1      1925 4.82889E-04 2.70594E-03 0.00000E+00
 -1      1926 4.84024E-04 2.55370E-03 0.00000E+00
 -1      1927 4.34070E-04 2.49964E-03 0.00000E+00
 -1      1928 4.32544E-04 2.34597E-03 0.00000E+00
 -1      1929 3.81805E-04 2.26614E-03 0.00000E+00
 -1      1930 3.77611E-04 2.11030E-03 0.00000E+00
 -1      1931 3.28153E-04 2.00857E-03 0.00000E+00
 -1      1932 3.21167E-04 1.84956E-03 0.00000E+00
 -1      1933 2.74292E-04 1.72919E-03 0.00000E+00
 -1      1934 2.64292E-04 1.56578E-03 0.00000E+00
 -1      1935 2.20693E-04 1.42918E-03 0.00000E+00
 -1      1936 2.07342E-04 1.25979E-03 0.00000E+00
 -1      1937 1.67253E-04 1.10841E-03 0.00000E+00
 -1      1938 1.50067E-04 9.31068E-04 0.00000E+00
 -1      1939 1.13375E-04 7.65222E-04 0.00000E+00
 -1      1940 9.16407E-05 5.77355E-04 0.00000E+00
 -1      1941 5.79114E-05 3.95990E-04 0.00000E+00
 -1      1942 3.10072E-05 1.96997E-04 0.00000E+00
 -1      1943-4.72127E-04 2.57270E-03 0.00000E+00
 -1      1944-3.80694E-04 2.43494E-03 0.00000E+00
 -1      1945-3.60440E-04 2.60246E-03 0.00000E+00
 -1      1946-2.74208E-04 2.46659E-03 0.00000E+00
 -1      1947-2.41341E-04 2.63736E-03 0.00000E+00
 -1      1948-1.60104E-04 2.50359E-03 0.00000E+00
 -1      1949-1.15681E-04 2.67796E-03 0.00000E+00
 -1      1950-4.04357E-05 2.54601E-03 0.00000E+00
 -1      1951 1.36699E-05 2.72397E-03 0.00000E+00
 -1      1952 8.18743E-05 2.59336E-03 0.00000E+00
 -1      1953 1.42368E-04 2.77401E-03 0.00000E+00
 -1      1954 2.02641E-04 2.64412E-03 0.00000E+00
 -1      1955 2.64921E-04 2.82528E-03 0.00000E+00
 -1      1956 3.16674E-04 2.69535E-03 0.00000E+00
 -1      1957 3.75206E-04 2.87323E-03 0.00000E+00
 -1      1958 4.18258E-04 2.74252E-03 0.00000E+00
 -1      1959 4.67323E-04 2.91168E-03 0.00000E+00
 -1      1960 5.01949E-04 2.77954E-03 0.00000E+00
 -1      1961 5.36634E-04 2.93335E-03 0.00000E+00
 -1      1962 5.63502E-04 2.79933E-03 0.00000E+00
 -1      1963 5.80636E-04 2.93080E-03 0.00000E+00
 -1      1964 6.00667E-04 2.79469E-03 0.00000E+00
 -1      1965 5.99346E-04 2.89765E-03 0.00000E+00
 -1      1966 6.13534E-04 2.75942E-03 0.00000E+00
 -1      1967 5.95081E-04 2.82947E-03 0.00000E+00
 -1      1968 6.04335E-04 2.68916E-03 0.00000E+00
 -1      1969 5.71736E-04 2.72426E-03 0.00000E+00
 -1      1970 5.76775E-04 2.58187E-03 0.00000E+00
 -1      1971 5.33865E-04 2.58230E-03 0.00000E+00
 -1      1972 5.35195E-04 2.43764E-03 0.00000E+00
 -1      1973 4.85883E-04 2.40553E-03 0.00000E+00
 -1      1974 4.83799E-04 2.25824E-03 0.00000E+00
 -1      1975 4.31522E-04 2.19684E-03 0.00000E+00
 -1      1976 4.26143E-04 2.04629E-03 0.00000E+00
 -1      1977 3.73587E-04 1.95927E-03 0.00000E+00
 -1      1978 3.64882E-04 1.80459E-03 0.00000E+00
 -1      1979 3.13929E-04 1.69543E-03 0.00000E+00
 -1      1980 3.01727E-04 1.53549E-03 0.00000E+00
 -1      1981 2.53531E-04 1.40708E-03 0.00000E+00
 -1      1982 2.37513E-04 1.24042E-03 0.00000E+00
 -1      1983 1.92627E-04 1.09476E-03 0.00000E+00
 -1      1984 1.72290E-04 9.19563E-04 0.00000E+00
 -1      1985 1.30787E-04 7.57555E-04 0.00000E+00
 -1      1986 1.05355E-04 5.71424E-04 0.00000E+00
 -1      1987 6.68701E-05 3.92586E-04 0.00000E+00
 -1      1988 3.56697E-05 1.95187E-04 0.00000E+00
 -1      1989-3.87942E-04 2.26612E-03 0.00000E+00
 -1      1990-3.00467E-04 2.13731E-03 0.00000E+00
 -1      1991-2.92304E-04 2.29534E-03 0.00000E+00
 -1      1992-2.09356E-04 2.16808E-03 0.00000E+00
 -1      1993-1.90252E-04 2.32897E-03 0.00000E+00
 -1      1994-1.11280E-04 2.20363E-03 0.00000E+00
 -1      1995-8.17440E-05 2.36772E-03 0.00000E+00
 -1      1996-7.49988E-06 2.24415E-03 0.00000E+00
 -1      1997 3.14642E-05 2.41163E-03 0.00000E+00
 -1      1998 1.00121E-04 2.28954E-03 0.00000E+00
 -1      1999 1.46459E-04 2.46003E-03 0.00000E+00
 -1      2000 2.08703E-04 2.33903E-03 0.00000E+00
 -1      2001 2.59263E-04 2.51128E-03 0.00000E+00
 -1      2002 3.14391E-04 2.39081E-03 0.00000E+00
 -1      2003 3.65007E-04 2.56242E-03 0.00000E+00
 -1      2004 4.12532E-04 2.44182E-03 0.00000E+00
 -1      2005 4.58368E-04 2.60894E-03 0.00000E+00
 -1      2006 4.98095E-04 2.48755E-03 0.00000E+00
 -1      2007 5.34291E-04 2.64492E-03 0.00000E+00
 -1      2008 5.66347E-04 2.52209E-03 0.00000E+00
 -1      2009 5.88836E-04 2.66348E-03 0.00000E+00
 -1      2010 6.13635E-04 2.53867E-03 0.00000E+00
 -1      2011 6.19896E-04 2.65761E-03 0.00000E+00
 -1      2012 6.38052E-04 2.53042E-03 0.00000E+00
 -1      2013 6.27541E-04 2.62121E-03 0.00000E+00
 -1      2014 6.39748E-04 2.49133E-03 0.00000E+00
 -1      2015 6.13850E-04 2.54991E-03 0.00000E+00
 -1      2016 6.20771E-04 2.41705E-03 0.00000E+00
 -1      2017 5.82316E-04 2.44149E-03 0.00000E+00
 -1      2018 5.84503E-04 2.30533E-03 0.00000E+00
 -1      2019 5.37064E-04 2.29585E-03 0.00000E+00
 -1      2020 5.34915E-04 2.15595E-03 0.00000E+00
 -1      2021 4.82114E-04 2.11447E-03 0.00000E+00
 -1      2022 4.75865E-04 1.97021E-03 0.00000E+00
 -1      2023 4.20875E-04 1.89970E-03 0.00000E+00
 -1      2024 4.10598E-04 1.75026E-03 0.00000E+00
 -1      2025 3.55875E-04 1.65408E-03 0.00000E+00
 -1      2026 3.41474E-04 1.49841E-03 0.00000E+00
 -1      2027 2.88700E-04 1.37971E-03 0.00000E+00
 -1      2028 2.69895E-04 1.21645E-03 0.00000E+00
 -1      2029 2.20027E-04 1.07772E-03 0.00000E+00
 -1      2030 1.96316E-04 9.05205E-04 0.00000E+00
 -1      2031 1.49690E-04 7.47917E-04 0.00000E+00
 -1      2032 1.20248E-04 5.63974E-04 0.00000E+00
 -1      2033 7.66271E-05 3.88288E-04 0.00000E+00
 -1      2034 4.07436E-05 1.92905E-04 0.00000E+00
 -1      2035-2.96510E-04 1.97798E-03 0.00000E+00
 -1      2036-2.11725E-04 1.85746E-03 0.00000E+00
 -1      2037-2.14477E-04 2.00669E-03 0.00000E+00
 -1      2038-1.33788E-04 1.88741E-03 0.00000E+00
 -1      2039-1.27021E-04 2.03923E-03 0.00000E+00
 -1      2040-4.96195E-05 1.92167E-03 0.00000E+00
 -1      2041-3.35183E-05 2.07640E-03 0.00000E+00
 -1      2042 4.00198E-05 1.96051E-03 0.00000E+00
 -1      2043 6.49892E-05 2.11841E-03 0.00000E+00
 -1      2044 1.33967E-04 2.00405E-03 0.00000E+00
 -1      2045 1.66579E-04 2.16502E-03 0.00000E+00
 -1      2046 2.30276E-04 2.05193E-03 0.00000E+00
 -1      2047 2.68452E-04 2.21533E-03 0.00000E+00
 -1      2048 3.26170E-04 2.10312E-03 0.00000E+00
 -1      2049 3.66914E-04 2.26747E-03 0.00000E+00
 -1      2050 4.18046E-04 2.15564E-03 0.00000E+00
 -1      2051 4.57548E-04 2.31832E-03 0.00000E+00
 -1      2052 5.01639E-04 2.20628E-03 0.00000E+00
 -1      2053 5.35607E-04 2.36337E-03 0.00000E+00
 -1      2054 5.72412E-04 2.25045E-03 0.00000E+00
 -1      2055 5.96640E-04 2.39683E-03 0.00000E+00
 -1      2056 6.26147E-04 2.28233E-03 0.00000E+00
 -1      2057 6.37210E-04 2.41201E-03 0.00000E+00
 -1      2058 6.59630E-04 2.29528E-03 0.00000E+00
 -1      2059 6.55526E-04 2.40214E-03 0.00000E+00
 -1      2060 6.71234E-04 2.28256E-03 0.00000E+00
 -1      2061 6.51735E-04 2.36124E-03 0.00000E+00
 -1      2062 6.61196E-04 2.23823E-03 0.00000E+00
 -1      2063 6.27787E-04 2.28493E-03 0.00000E+00
 -1      2064 6.31475E-04 2.15790E-03 0.00000E+00
 -1      2065 5.86921E-04 2.17081E-03 0.00000E+00
 -1      2066 5.85247E-04 2.03914E-03 0.00000E+00
 -1      2067 5.32949E-04 2.01845E-03 0.00000E+00
 -1      2068 5.26214E-04 1.88140E-03 0.00000E+00
 -1      2069 4.69576E-04 1.82893E-03 0.00000E+00
 -1      2070 4.57941E-04 1.68565E-03 0.00000E+00
 -1      2071 3.99900E-04 1.60417E-03 0.00000E+00
 -1      2072 3.83352E-04 1.45361E-03 0.00000E+00
 -1      2073 3.26129E-04 1.34623E-03 0.00000E+00
 -1      2074 3.04447E-04 1.18712E-03 0.00000E+00
 -1      2075 2.49477E-04 1.05665E-03 0.00000E+00
 -1      2076 2.22176E-04 8.87447E-04 0.00000E+00
 -1      2077 1.70140E-04 7.35906E-04 0.00000E+00
 -1      2078 1.36366E-04 5.54690E-04 0.00000E+00
 -1      2079 8.72245E-05 3.82902E-04 0.00000E+00
 -1      2080 4.62493E-05 1.90048E-04 0.00000E+00
 -1      2081-1.97493E-04 1.70713E-03 0.00000E+00
 -1      2082-1.14412E-04 1.59453E-03 0.00000E+00
 -1      2083-1.27157E-04 1.73532E-03 0.00000E+00
 -1      2084-4.79009E-05 1.62365E-03 0.00000E+00
 -1      2085-5.23399E-05 1.76683E-03 0.00000E+00
 -1      2086 2.40923E-05 1.65671E-03 0.00000E+00
 -1      2087 2.79657E-05 1.80258E-03 0.00000E+00
 -1      2088 1.01123E-04 1.69401E-03 0.00000E+00
 -1      2089 1.13172E-04 1.84286E-03 0.00000E+00
 -1      2090 1.82486E-04 1.73577E-03 0.00000E+00
 -1      2091 2.02030E-04 1.88766E-03 0.00000E+00
 -1      2092 2.66883E-04 1.78190E-03 0.00000E+00
 -1      2093 2.92605E-04 1.93654E-03 0.00000E+00
 -1      2094 3.52357E-04 1.83186E-03 0.00000E+00
 -1      2095 3.82186E-04 1.98839E-03 0.00000E+00
 -1      2096 4.36209E-04 1.88443E-03 0.00000E+00
 -1      2097 4.67290E-04 2.04113E-03 0.00000E+00
 -1      2098 5.15011E-04 1.93740E-03 0.00000E+00
 -1      2099 5.43826E-04 2.09148E-03 0.00000E+00
 -1      2100 5.84780E-04 1.98738E-03 0.00000E+00
 -1      2101 6.07464E-04 2.13487E-03 0.00000E+00
 -1      2102 6.41337E-04 2.02970E-03 0.00000E+00
 -1      2103 6.54193E-04 2.16548E-03 0.00000E+00
 -1      2104 6.80844E-04 2.05846E-03 0.00000E+00
 -1      2105 6.80964E-04 2.17670E-03 0.00000E+00
 -1      2106 7.00429E-04 2.06701E-03 0.00000E+00
 -1      2107 6.86245E-04 2.16181E-03 0.00000E+00
 -1      2108 6.98705E-04 2.04861E-03 0.00000E+00
 -1      2109 6.70283E-04 2.11485E-03 0.00000E+00
 -1      2110 6.76018E-04 1.99728E-03 0.00000E+00
 -1      2111 6.34984E-04 2.03135E-03 0.00000E+00
 -1      2112 6.34309E-04 1.90851E-03 0.00000E+00
 -1      2113 5.83424E-04 1.90873E-03 0.00000E+00
 -1      2114 5.76629E-04 1.77969E-03 0.00000E+00
 -1      2115 5.19183E-04 1.74630E-03 0.00000E+00
 -1      2116 5.06466E-04 1.61004E-03 0.00000E+00
 -1      2117 4.45681E-04 1.54480E-03 0.00000E+00
 -1      2118 4.27095E-04 1.40022E-03 0.00000E+00
 -1      2119 3.65676E-04 1.30579E-03 0.00000E+00
 -1      2120 3.41062E-04 1.15162E-03 0.00000E+00
 -1      2121 2.80954E-04 1.03086E-03 0.00000E+00
 -1      2122 2.49864E-04 8.65678E-04 0.00000E+00
 -1      2123 1.92170E-04 7.21055E-04 0.00000E+00
 -1      2124 1.53738E-04 5.43198E-04 0.00000E+00
 -1      2125 9.86957E-05 3.76199E-04 0.00000E+00
 -1      2126 5.22021E-05 1.86492E-04 0.00000E+00
 -1      2127-9.06638E-05 1.45305E-03 0.00000E+00
 -1      2128-8.54389E-06 1.34826E-03 0.00000E+00
 -1      2129-3.05112E-05 1.48066E-03 0.00000E+00
 -1      2130 4.79462E-05 1.37650E-03 0.00000E+00
 -1      2131 3.32453E-05 1.51116E-03 0.00000E+00
 -1      2132 1.09189E-04 1.40838E-03 0.00000E+00
 -1      2133 1.01870E-04 1.54556E-03 0.00000E+00
 -1      2134 1.74936E-04 1.44418E-03 0.00000E+00
 -1      2135 1.75058E-04 1.58418E-03 0.00000E+00
 -1      2136 2.44773E-04 1.48419E-03 0.00000E+00
 -1      2137 2.52011E-04 1.62717E-03 0.00000E+00
 -1      2138 3.17848E-04 1.52848E-03 0.00000E+00
 -1      2139 3.31411E-04 1.67436E-03 0.00000E+00
 -1      2140 3.92797E-04 1.57682E-03 0.00000E+00
 -1      2141 4.11309E-04 1.72514E-03 0.00000E+00
 -1      2142 4.67644E-04 1.62849E-03 0.00000E+00
 -1      2143 4.89049E-04 1.77818E-03 0.00000E+00
 -1      2144 5.39729E-04 1.68206E-03 0.00000E+00
 -1      2145 5.61294E-04 1.83119E-03 0.00000E+00
 -1      2146 6.05745E-04 1.73509E-03 0.00000E+00
 -1      2147 6.24185E-04 1.88072E-03 0.00000E+00
 -1      2148 6.61903E-04 1.78401E-03 0.00000E+00
 -1      2149 6.73695E-04 1.92202E-03 0.00000E+00
 -1      2150 7.04280E-04 1.82392E-03 0.00000E+00
 -1      2151 7.06142E-04 1.94917E-03 0.00000E+00
 -1      2152 7.29327E-04 1.84878E-03 0.00000E+00
 -1      2153 7.18780E-04 1.95547E-03 0.00000E+00
 -1      2154 7.34444E-04 1.85178E-03 0.00000E+00
 -1      2155 7.10306E-04 1.93415E-03 0.00000E+00
 -1      2156 7.18463E-04 1.82605E-03 0.00000E+00
 -1      2157 6.81092E-04 1.87915E-03 0.00000E+00
 -1      2158 6.81863E-04 1.76548E-03 0.00000E+00
 -1      2159 6.33053E-04 1.78585E-03 0.00000E+00
 -1      2160 6.26612E-04 1.66540E-03 0.00000E+00
 -1      2161 5.69168E-04 1.65152E-03 0.00000E+00
 -1      2162 5.55679E-04 1.52305E-03 0.00000E+00
 -1      2163 4.92816E-04 1.47524E-03 0.00000E+00
 -1      2164 4.72350E-04 1.33747E-03 0.00000E+00
 -1      2165 4.07111E-04 1.25752E-03 0.00000E+00
 -1      2166 3.79555E-04 1.10912E-03 0.00000E+00
 -1      2167 3.14373E-04 9.99608E-04 0.00000E+00
 -1      2168 2.79320E-04 8.39223E-04 0.00000E+00
 -1      2169 2.15776E-04 7.02835E-04 0.00000E+00
 -1      2170 1.72364E-04 5.29069E-04 0.00000E+00
 -1      2171 1.11059E-04 3.67909E-04 0.00000E+00
 -1      2172 5.86093E-05 1.82092E-04 0.00000E+00
 -1      2173 2.40397E-05 1.21576E-03 0.00000E+00
 -1      2174 1.05705E-04 1.11893E-03 0.00000E+00
 -1      2175 7.52253E-05 1.24271E-03 0.00000E+00
 -1      2176 1.53322E-04 1.14619E-03 0.00000E+00
 -1      2177 1.29209E-04 1.27215E-03 0.00000E+00
 -1      2178 2.04995E-04 1.17682E-03 0.00000E+00
 -1      2179 1.87426E-04 1.30518E-03 0.00000E+00
 -1      2180 2.60596E-04 1.21110E-03 0.00000E+00
 -1      2181 2.49741E-04 1.34217E-03 0.00000E+00
 -1      2182 3.19893E-04 1.24932E-03 0.00000E+00
 -1      2183 3.15653E-04 1.38331E-03 0.00000E+00
 -1      2184 3.82331E-04 1.29167E-03 0.00000E+00
 -1      2185 3.84272E-04 1.42863E-03 0.00000E+00
 -1      2186 4.46968E-04 1.33810E-03 0.00000E+00
 -1      2187 4.54216E-04 1.47783E-03 0.00000E+00
 -1      2188 5.12372E-04 1.38824E-03 0.00000E+00
 -1      2189 5.23503E-04 1.53010E-03 0.00000E+00
 -1      2190 5.76528E-04 1.44118E-03 0.00000E+00
 -1      2191 5.89504E-04 1.58391E-03 0.00000E+00
 -1      2192 6.36787E-04 1.49526E-03 0.00000E+00
 -1      2193 6.48969E-04 1.63674E-03 0.00000E+00
 -1      2194 6.89906E-04 1.54783E-03 0.00000E+00
 -1      2195 6.98198E-04 1.68491E-03 0.00000E+00
 -1      2196 7.32222E-04 1.59502E-03 0.00000E+00
 -1      2197 7.33379E-04 1.72343E-03 0.00000E+00
 -1      2198 7.59992E-04 1.63167E-03 0.00000E+00
 -1      2199 7.51078E-04 1.74615E-03 0.00000E+00
 -1      2200 7.69885E-04 1.65145E-03 0.00000E+00
 -1      2201 7.48797E-04 1.74618E-03 0.00000E+00
 -1      2202 7.59527E-04 1.64729E-03 0.00000E+00
 -1      2203 7.25445E-04 1.71654E-03 0.00000E+00
 -1      2204 7.27956E-04 1.61208E-03 0.00000E+00
 -1      2205 6.81536E-04 1.65099E-03 0.00000E+00
 -1      2206 6.75798E-04 1.53948E-03 0.00000E+00
 -1      2207 6.19031E-04 1.54478E-03 0.00000E+00
 -1      2208 6.05078E-04 1.42468E-03 0.00000E+00
 -1      2209 5.40837E-04 1.39502E-03 0.00000E+00
 -1      2210 5.18684E-04 1.26479E-03 0.00000E+00
 -1      2211 4.50114E-04 1.20065E-03 0.00000E+00
 -1      2212 4.19648E-04 1.05884E-03 0.00000E+00
 -1      2213 3.49575E-04 9.62114E-04 0.00000E+00
 -1      2214 3.10414E-04 8.07359E-04 0.00000E+00
 -1      2215 2.40911E-04 6.80655E-04 0.00000E+00
 -1      2216 1.92207E-04 5.11816E-04 0.00000E+00
 -1      2217 1.24314E-04 3.57718E-04 0.00000E+00
 -1      2218 6.54669E-05 1.76675E-04 0.00000E+00
 -1      2219 1.46439E-04 9.95793E-04 0.00000E+00
 -1      2220 2.27909E-04 9.07233E-04 0.00000E+00
 -1      2221 1.89647E-04 1.02196E-03 0.00000E+00
 -1      2222 2.67603E-04 9.33375E-04 0.00000E+00
 -1      2223 2.34924E-04 1.05022E-03 0.00000E+00
 -1      2224 3.10698E-04 9.62638E-04 0.00000E+00
 -1      2225 2.83808E-04 1.08182E-03 0.00000E+00
 -1      2226 3.57135E-04 9.95285E-04 0.00000E+00
 -1      2227 3.36262E-04 1.11711E-03 0.00000E+00
 -1      2228 4.06791E-04 1.03163E-03 0.00000E+00
 -1      2229 3.91974E-04 1.15632E-03 0.00000E+00
 -1      2230 4.59304E-04 1.07188E-03 0.00000E+00
 -1      2231 4.50348E-04 1.19958E-03 0.00000E+00
 -1      2232 5.14023E-04 1.11614E-03 0.00000E+00
 -1      2233 5.10407E-04 1.24681E-03 0.00000E+00
 -1      2234 5.69917E-04 1.16424E-03 0.00000E+00
 -1      2235 5.70690E-04 1.29755E-03 0.00000E+00
 -1      2236 6.25473E-04 1.21567E-03 0.00000E+00
 -1      2237 6.29171E-04 1.35081E-03 0.00000E+00
 -1      2238 6.78619E-04 1.26931E-03 0.00000E+00
 -1      2239 6.83211E-04 1.40484E-03 0.00000E+00
 -1      2240 7.26680E-04 1.32327E-03 0.00000E+00
 -1      2241 7.29602E-04 1.45685E-03 0.00000E+00
 -1      2242 7.66430E-04 1.37460E-03 0.00000E+00
 -1      2243 7.64736E-04 1.50286E-03 0.00000E+00
 -1      2244 7.94273E-04 1.41911E-03 0.00000E+00
 -1      2245 7.84946E-04 1.53755E-03 0.00000E+00
 -1      2246 8.06582E-04 1.45126E-03 0.00000E+00
 -1      2247 7.86987E-04 1.55446E-03 0.00000E+00
 -1      2248 8.00189E-04 1.46433E-03 0.00000E+00
 -1      2249 7.68570E-04 1.54635E-03 0.00000E+00
 -1      2250 7.72913E-04 1.45086E-03 0.00000E+00
 -1      2251 7.28803E-04 1.50596E-03 0.00000E+00
 -1      2252 7.23987E-04 1.40342E-03 0.00000E+00
 -1      2253 6.68353E-04 1.42681E-03 0.00000E+00
 -1      2254 6.54190E-04 1.31540E-03 0.00000E+00
 -1      2255 5.89239E-04 1.30399E-03 0.00000E+00
 -1      2256 5.65595E-04 1.18190E-03 0.00000E+00
 -1      2257 4.94274E-04 1.13456E-03 0.00000E+00
 -1      2258 4.60963E-04 1.00009E-03 0.00000E+00
 -1      2259 3.86308E-04 9.17605E-04 0.00000E+00
 -1      2260 3.42930E-04 7.69338E-04 0.00000E+00
 -1      2261 2.67459E-04 6.53864E-04 0.00000E+00
 -1      2262 2.13178E-04 4.90888E-04 0.00000E+00
 -1      2263 1.38426E-04 3.45261E-04 0.00000E+00
 -1      2264 7.27542E-05 1.70041E-04 0.00000E+00
 -1      2265 2.76016E-04 7.94078E-04 0.00000E+00
 -1      2266 3.57267E-04 7.14295E-04 0.00000E+00
 -1      2267 3.12064E-04 8.19300E-04 0.00000E+00
 -1      2268 3.89841E-04 7.39128E-04 0.00000E+00
 -1      2269 3.49529E-04 8.46235E-04 0.00000E+00
 -1      2270 4.25205E-04 7.66846E-04 0.00000E+00
 -1      2271 3.89998E-04 8.76258E-04 0.00000E+00
 -1      2272 4.63335E-04 7.97693E-04 0.00000E+00
 -1      2273 4.33485E-04 9.09702E-04 0.00000E+00
 -1      2274 5.04168E-04 8.31974E-04 0.00000E+00
 -1      2275 4.79796E-04 9.46828E-04 0.00000E+00
 -1      2276 5.47463E-04 8.69933E-04 0.00000E+00
 -1      2277 5.28526E-04 9.87823E-04 0.00000E+00
 -1      2278 5.92764E-04 9.11723E-04 0.00000E+00
 -1      2279 5.78981E-04 1.03273E-03 0.00000E+00
 -1      2280 6.39323E-04 9.57341E-04 0.00000E+00
 -1      2281 6.30091E-04 1.08133E-03 0.00000E+00
 -1      2282 6.86007E-04 1.00651E-03 0.00000E+00
 -1      2283 6.80308E-04 1.13302E-03 0.00000E+00
 -1      2284 7.31213E-04 1.05854E-03 0.00000E+00
 -1      2285 7.27539E-04 1.18661E-03 0.00000E+00
 -1      2286 7.72783E-04 1.11211E-03 0.00000E+00
 -1      2287 7.69099E-04 1.24009E-03 0.00000E+00
 -1      2288 8.07983E-04 1.16504E-03 0.00000E+00
 -1      2289 8.01774E-04 1.29037E-03 0.00000E+00
 -1      2290 8.33556E-04 1.21407E-03 0.00000E+00
 -1      2291 8.21992E-04 1.33308E-03 0.00000E+00
 -1      2292 8.45916E-04 1.25456E-03 0.00000E+00
 -1      2293 8.26176E-04 1.36250E-03 0.00000E+00
 -1      2294 8.41496E-04 1.28052E-03 0.00000E+00
 -1      2295 8.11216E-04 1.37171E-03 0.00000E+00
 -1      2296 8.17244E-04 1.28472E-03 0.00000E+00
 -1      2297 7.75001E-04 1.35304E-03 0.00000E+00
 -1      2298 7.71140E-04 1.25922E-03 0.00000E+00
 -1      2299 7.16824E-04 1.29886E-03 0.00000E+00
 -1      2300 7.02598E-04 1.19618E-03 0.00000E+00
 -1      2301 6.37504E-04 1.20243E-03 0.00000E+00
 -1      2302 6.12532E-04 1.08882E-03 0.00000E+00
 -1      2303 5.39089E-04 1.05882E-03 0.00000E+00
 -1      2304 5.03015E-04 9.32308E-04 0.00000E+00
 -1      2305 4.24213E-04 8.65346E-04 0.00000E+00
 -1      2306 3.76549E-04 7.24407E-04 0.00000E+00
 -1      2307 2.95228E-04 6.21765E-04 0.00000E+00
 -1      2308 2.35118E-04 4.65680E-04 0.00000E+00
 -1      2309 1.53322E-04 3.30128E-04 0.00000E+00
 -1      2310 8.04277E-05 1.61961E-04 0.00000E+00
 -1      2311 4.11785E-04 6.11931E-04 0.00000E+00
 -1      2312 4.92454E-04 5.41557E-04 0.00000E+00
 -1      2313 4.41357E-04 6.36008E-04 0.00000E+00
 -1      2314 5.18608E-04 5.64847E-04 0.00000E+00
 -1      2315 4.71780E-04 6.61404E-04 0.00000E+00
 -1      2316 5.46982E-04 5.90783E-04 0.00000E+00
 -1      2317 5.04636E-04 6.89642E-04 0.00000E+00
 -1      2318 5.77569E-04 6.19591E-04 0.00000E+00
 -1      2319 5.39956E-04 7.21038E-04 0.00000E+00
 -1      2320 6.10332E-04 6.51560E-04 0.00000E+00
 -1      2321 5.77615E-04 7.55854E-04 0.00000E+00
 -1      2322 6.45102E-04 6.86937E-04 0.00000E+00
 -1      2323 6.17331E-04 7.94304E-04 0.00000E+00
 -1      2324 6.81549E-04 7.25917E-04 0.00000E+00
 -1      2325 6.58604E-04 8.36510E-04 0.00000E+00
 -1      2326 7.19118E-04 7.68582E-04 0.00000E+00
 -1      2327 7.00637E-04 8.82416E-04 0.00000E+00
 -1      2328 7.56954E-04 8.14829E-04 0.00000E+00
 -1      2329 7.42255E-04 9.31685E-04 0.00000E+00
 -1      2330 7.93814E-04 8.64249E-04 0.00000E+00
 -1      2331 7.81810E-04 9.83541E-04 0.00000E+00
 -1      2332 8.27977E-04 9.15964E-04 0.00000E+00
 -1      2333 8.17108E-04 1.03656E-03 0.00000E+00
 -1      2334 8.57177E-04 9.68417E-04 0.00000E+00
 -1      2335 8.45388E-04 1.08844E-03 0.00000E+00
 -1      2336 8.78578E-04 1.01912E-03 0.00000E+00
 -1      2337 8.63378E-04 1.13572E-03 0.00000E+00
 -1      2338 8.88840E-04 1.06437E-03 0.00000E+00
 -1      2339 8.67489E-04 1.17359E-03 0.00000E+00
 -1      2340 8.84330E-04 1.09907E-03 0.00000E+00
 -1      2341 8.54176E-04 1.19581E-03 0.00000E+00
 -1      2342 8.61486E-04 1.11665E-03 0.00000E+00
 -1      2343 8.20417E-04 1.19489E-03 0.00000E+00
 -1      2344 8.17319E-04 1.10926E-03 0.00000E+00
 -1      2345 7.64245E-04 1.16265E-03 0.00000E+00
 -1      2346 7.49936E-04 1.06843E-03 0.00000E+00
 -1      2347 6.85121E-04 1.09106E-03 0.00000E+00
 -1      2348 6.58898E-04 9.85964E-04 0.00000E+00
 -1      2349 5.83976E-04 9.73278E-04 0.00000E+00
 -1      2350 5.45207E-04 8.55139E-04 0.00000E+00
 -1      2351 4.62814E-04 8.04691E-04 0.00000E+00
 -1      2352 4.10825E-04 6.71848E-04 0.00000E+00
 -1      2353 3.23921E-04 5.83631E-04 0.00000E+00
 -1      2354 2.57780E-04 4.35542E-04 0.00000E+00
 -1      2355 1.68871E-04 3.11854E-04 0.00000E+00
 -1      2356 8.84131E-05 1.52176E-04 0.00000E+00
 -1      2357 5.52123E-04 4.50952E-04 0.00000E+00
 -1      2358 6.31433E-04 3.90698E-04 0.00000E+00
 -1      2359 5.75813E-04 4.73630E-04 0.00000E+00
 -1      2360 6.51796E-04 4.12161E-04 0.00000E+00
 -1      2361 5.99876E-04 4.97224E-04 0.00000E+00
 -1      2362 6.73854E-04 4.36020E-04 0.00000E+00
 -1      2363 6.25836E-04 5.23407E-04 0.00000E+00
 -1      2364 6.97602E-04 4.62479E-04 0.00000E+00
 -1      2365 6.53723E-04 5.52473E-04 0.00000E+00
 -1      2366 7.23009E-04 4.91805E-04 0.00000E+00
 -1      2367 6.83446E-04 5.84673E-04 0.00000E+00
 -1      2368 7.49942E-04 5.24239E-04 0.00000E+00
 -1      2369 7.14797E-04 6.20232E-04 0.00000E+00
 -1      2370 7.78149E-04 5.59988E-04 0.00000E+00
 -1      2371 7.47401E-04 6.59314E-04 0.00000E+00
 -1      2372 8.07203E-04 5.99187E-04 0.00000E+00
 -1      2373 7.80655E-04 7.01963E-04 0.00000E+00
 -1      2374 8.36443E-04 6.41841E-04 0.00000E+00
 -1      2375 8.13653E-04 7.48022E-04 0.00000E+00
 -1      2376 8.64892E-04 6.87737E-04 0.00000E+00
 -1      2377 8.45096E-04 7.97012E-04 0.00000E+00
 -1      2378 8.91179E-04 7.36314E-04 0.00000E+00
 -1      2379 8.73211E-04 8.47964E-04 0.00000E+00
 -1      2380 9.13442E-04 7.86491E-04 0.00000E+00
 -1      2381 8.95678E-04 8.99201E-04 0.00000E+00
 -1      2382 9.29267E-04 8.36434E-04 0.00000E+00
 -1      2383 9.09611E-04 9.48075E-04 0.00000E+00
 -1      2384 9.35666E-04 8.83286E-04 0.00000E+00
 -1      2385 9.11627E-04 9.90697E-04 0.00000E+00
 -1      2386 9.29159E-04 9.22886E-04 0.00000E+00
 -1      2387 8.98061E-04 1.02172E-03 0.00000E+00
 -1      2388 9.05998E-04 9.49549E-04 0.00000E+00
 -1      2389 8.65334E-04 1.03428E-03 0.00000E+00
 -1      2390 8.62555E-04 9.56039E-04 0.00000E+00
 -1      2391 8.10464E-04 1.02027E-03 0.00000E+00
 -1      2392 7.95845E-04 9.33878E-04 0.00000E+00
 -1      2393 7.31580E-04 9.70963E-04 0.00000E+00
 -1      2394 7.04049E-04 8.74094E-04 0.00000E+00
 -1      2395 6.28265E-04 8.78084E-04 0.00000E+00
 -1      2396 5.86819E-04 7.68453E-04 0.00000E+00
 -1      2397 5.01499E-04 7.35125E-04 0.00000E+00
 -1      2398 4.45165E-04 6.11010E-04 0.00000E+00
 -1      2399 3.53116E-04 5.38730E-04 0.00000E+00
 -1      2400 2.80803E-04 3.99788E-04 0.00000E+00
 -1      2401 1.84868E-04 2.89930E-04 0.00000E+00
 -1      2402 9.65946E-05 1.40398E-04 0.00000E+00
 -1      2403 6.94565E-04 3.12909E-04 0.00000E+00
 -1      2404 7.71222E-04 2.63475E-04 0.00000E+00
 -1      2405 7.12906E-04 3.33870E-04 0.00000E+00
 -1      2406 7.86391E-04 2.82775E-04 0.00000E+00
 -1      2407 7.31242E-04 3.55344E-04 0.00000E+00
 -1      2408 8.02776E-04 3.04199E-04 0.00000E+00
 -1      2409 7.50979E-04 3.79137E-04 0.00000E+00
 -1      2410 8.20365E-04 3.27929E-04 0.00000E+00
 -1      2411 7.72131E-04 4.05517E-04 0.00000E+00
 -1      2412 8.39119E-04 3.54203E-04 0.00000E+00
 -1      2413 7.94621E-04 4.34715E-04 0.00000E+00
 -1      2414 8.58921E-04 3.83245E-04 0.00000E+00
 -1      2415 8.18281E-04 4.66953E-04 0.00000E+00
 -1      2416 8.79560E-04 4.15260E-04 0.00000E+00
 -1      2417 8.42814E-04 5.02411E-04 0.00000E+00
 -1      2418 9.00691E-04 4.50405E-04 0.00000E+00
 -1      2419 8.67745E-04 5.41192E-04 0.00000E+00
 -1      2420 9.21781E-04 4.88750E-04 0.00000E+00
 -1      2421 8.92359E-04 5.83255E-04 0.00000E+00
 -1      2422 9.42049E-04 5.30210E-04 0.00000E+00
 -1      2423 9.15619E-04 6.28330E-04 0.00000E+00
 -1      2424 9.60382E-04 5.74448E-04 0.00000E+00
 -1      2425 9.36089E-04 6.75778E-04 0.00000E+00
 -1      2426 9.75250E-04 6.20738E-04 0.00000E+00
 -1      2427 9.51838E-04 7.24416E-04 0.00000E+00
 -1      2428 9.84616E-04 6.67772E-04 0.00000E+00
 -1      2429 9.60376E-04 7.72277E-04 0.00000E+00
 -1      2430 9.85868E-04 7.13408E-04 0.00000E+00
 -1      2431 9.58637E-04 8.16328E-04 0.00000E+00
 -1      2432 9.75803E-04 7.54384E-04 0.00000E+00
 -1      2433 9.43064E-04 8.52183E-04 0.00000E+00
 -1      2434 9.50722E-04 7.86014E-04 0.00000E+00
 -1      2435 9.09835E-04 8.73893E-04 0.00000E+00
 -1      2436 9.06673E-04 8.01988E-04 0.00000E+00
 -1      2437 8.55262E-04 8.73928E-04 0.00000E+00
 -1      2438 8.39870E-04 7.94400E-04 0.00000E+00
 -1      2439 7.76325E-04 8.43548E-04 0.00000E+00
 -1      2440 7.47248E-04 7.54217E-04 0.00000E+00
 -1      2441 6.71192E-04 7.73670E-04 0.00000E+00
 -1      2442 6.26991E-04 6.72341E-04 0.00000E+00
 -1      2443 5.39507E-04 6.56290E-04 0.00000E+00
 -1      2444 4.78803E-04 5.41338E-04 0.00000E+00
 -1      2445 3.82238E-04 4.86348E-04 0.00000E+00
 -1      2446 3.03682E-04 3.57726E-04 0.00000E+00
 -1      2447 2.01013E-04 2.63810E-04 0.00000E+00
 -1      2448 1.04802E-04 1.26321E-04 0.00000E+00
 -1      2449 8.35550E-04 1.99529E-04 0.00000E+00
 -1      2450 9.07618E-04 1.61466E-04 0.00000E+00
 -1      2451 8.49050E-04 2.18386E-04 0.00000E+00
 -1      2452 9.18194E-04 1.78215E-04 0.00000E+00
 -1      2453 8.62278E-04 2.37364E-04 0.00000E+00
 -1      2454 9.29557E-04 1.96784E-04 0.00000E+00
 -1      2455 8.76454E-04 2.58367E-04 0.00000E+00
 -1      2456 9.41682E-04 2.17333E-04 0.00000E+00
 -1      2457 8.91572E-04 2.81627E-04 0.00000E+00
 -1      2458 9.54515E-04 2.40066E-04 0.00000E+00
 -1      2459 9.07552E-04 3.07356E-04 0.00000E+00
 -1      2460 9.67941E-04 2.65183E-04 0.00000E+00
 -1      2461 9.24245E-04 3.35755E-04 0.00000E+00
 -1      2462 9.81768E-04 2.92870E-04 0.00000E+00
 -1      2463 9.41396E-04 3.67006E-04 0.00000E+00
 -1      2464 9.95696E-04 3.23287E-04 0.00000E+00
 -1      2465 9.58614E-04 4.01235E-04 0.00000E+00
 -1      2466 1.00928E-03 3.56534E-04 0.00000E+00
 -1      2467 9.75310E-04 4.38474E-04 0.00000E+00
 -1      2468 1.02186E-03 3.92605E-04 0.00000E+00
 -1      2469 9.90642E-04 4.78590E-04 0.00000E+00
 -1      2470 1.03253E-03 4.31316E-04 0.00000E+00
 -1      2471 1.00343E-03 5.21184E-04 0.00000E+00
 -1      2472 1.04000E-03 4.72199E-04 0.00000E+00
 -1      2473 1.01205E-03 5.65445E-04 0.00000E+00
 -1      2474 1.04255E-03 5.14351E-04 0.00000E+00
 -1      2475 1.01439E-03 6.09958E-04 0.00000E+00
 -1      2476 1.03792E-03 5.56223E-04 0.00000E+00
 -1      2477 1.00772E-03 6.52441E-04 0.00000E+00
 -1      2478 1.02322E-03 5.95357E-04 0.00000E+00
 -1      2479 9.88721E-04 6.89446E-04 0.00000E+00
 -1      2480 9.94950E-04 6.28072E-04 0.00000E+00
 -1      2481 9.53574E-04 7.16066E-04 0.00000E+00
 -1      2482 9.49076E-04 6.49165E-04 0.00000E+00
 -1      2483 8.98192E-04 7.25735E-04 0.00000E+00
 -1      2484 8.81314E-04 6.51751E-04 0.00000E+00
 -1      2485 8.18671E-04 7.10316E-04 0.00000E+00
 -1      2486 7.87598E-04 6.27428E-04 0.00000E+00
 -1      2487 7.11859E-04 6.60679E-04 0.00000E+00
 -1      2488 6.64690E-04 5.67053E-04 0.00000E+00
 -1      2489 5.75903E-04 5.67991E-04 0.00000E+00
 -1      2490 5.10770E-04 4.62381E-04 0.00000E+00
 -1      2491 4.10533E-04 4.25819E-04 0.00000E+00
 -1      2492 3.25739E-04 3.08678E-04 0.00000E+00
 -1      2493 2.16886E-04 2.32923E-04 0.00000E+00
 -1      2494 1.12794E-04 1.09628E-04 0.00000E+00
 -1      2495 9.70113E-04 1.12180E-04 0.00000E+00
 -1      2496 1.03488E-03 8.56701E-05 0.00000E+00
 -1      2497 9.79299E-04 1.28460E-04 0.00000E+00
 -1      2498 1.04150E-03 9.94257E-05 0.00000E+00
 -1      2499 9.88065E-04 1.44511E-04 0.00000E+00
 -1      2500 1.04854E-03 1.14662E-04 0.00000E+00
 -1      2501 9.97378E-04 1.62256E-04 0.00000E+00
 -1      2502 1.05596E-03 1.31511E-04 0.00000E+00
 -1      2503 1.00720E-03 1.81894E-04 0.00000E+00
 -1      2504 1.06368E-03 1.50139E-04 0.00000E+00
 -1      2505 1.01746E-03 2.03602E-04 0.00000E+00
 -1      2506 1.07158E-03 1.70712E-04 0.00000E+00
 -1      2507 1.02799E-03 2.27558E-04 0.00000E+00
 -1      2508 1.07948E-03 1.93388E-04 0.00000E+00
 -1      2509 1.03857E-03 2.53925E-04 0.00000E+00
 -1      2510 1.08709E-03 2.18312E-04 0.00000E+00
 -1      2511 1.04886E-03 2.82835E-04 0.00000E+00
 -1      2512 1.09402E-03 2.45590E-04 0.00000E+00
 -1      2513 1.05834E-03 3.14354E-04 0.00000E+00
 -1      2514 1.09971E-03 2.75255E-04 0.00000E+00
 -1      2515 1.06631E-03 3.48433E-04 0.00000E+00
 -1      2516 1.10336E-03 3.07222E-04 0.00000E+00
 -1      2517 1.07177E-03 3.84840E-04 0.00000E+00
 -1      2518 1.10389E-03 3.41205E-04 0.00000E+00
 -1      2519 1.07336E-03 4.23042E-04 0.00000E+00
 -1      2520 1.09981E-03 3.76607E-04 0.00000E+00
 -1      2521 1.06924E-03 4.62057E-04 0.00000E+00
 -1      2522 1.08915E-03 4.12359E-04 0.00000E+00
 -1      2523 1.05703E-03 5.00235E-04 0.00000E+00
 -1      2524 1.06933E-03 4.46697E-04 0.00000E+00
 -1      2525 1.03370E-03 5.34993E-04 0.00000E+00
 -1      2526 1.03711E-03 4.76889E-04 0.00000E+00
 -1      2527 9.95554E-04 5.62496E-04 0.00000E+00
 -1      2528 9.88522E-04 4.98918E-04 0.00000E+00
 -1      2529 9.38374E-04 5.77378E-04 0.00000E+00
 -1      2530 9.19054E-04 5.07222E-04 0.00000E+00
 -1      2531 8.57662E-04 5.72612E-04 0.00000E+00
 -1      2532 8.23918E-04 4.94639E-04 0.00000E+00
 -1      2533 7.49165E-04 5.39796E-04 0.00000E+00
 -1      2534 6.98643E-04 4.52861E-04 0.00000E+00
 -1      2535 6.09538E-04 4.70150E-04 0.00000E+00
 -1      2536 5.39850E-04 3.73773E-04 0.00000E+00
 -1      2537 4.37027E-04 3.56550E-04 0.00000E+00
 -1      2538 3.46078E-04 2.52016E-04 0.00000E+00
 -1      2539 2.31918E-04 1.96705E-04 0.00000E+00
 -1      2540 1.20241E-04 9.00102E-05 0.00000E+00
 -1      2541 1.09155E-03 5.13587E-05 0.00000E+00
 -1      2542 1.14535E-03 3.58712E-05 0.00000E+00
 -1      2543 1.09702E-03 6.44885E-05 0.00000E+00
 -1      2544 1.14877E-03 4.61484E-05 0.00000E+00
 -1      2545 1.10204E-03 7.71287E-05 0.00000E+00
 -1      2546 1.15230E-03 5.75200E-05 0.00000E+00
 -1      2547 1.10727E-03 9.10921E-05 0.00000E+00
 -1      2548 1.15588E-03 7.00896E-05 0.00000E+00
 -1      2549 1.11264E-03 1.06535E-04 0.00000E+00
 -1      2550 1.15943E-03 8.39811E-05 0.00000E+00
 -1      2551 1.11807E-03 1.23598E-04 0.00000E+00
 -1      2552 1.16281E-03 9.93173E-05 0.00000E+00
 -1      2553 1.12338E-03 1.42423E-04 0.00000E+00
 -1      2554 1.16583E-03 1.16220E-04 0.00000E+00
 -1      2555 1.12837E-03 1.63146E-04 0.00000E+00
 -1      2556 1.16823E-03 1.34804E-04 0.00000E+00
 -1      2557 1.13271E-03 1.85883E-04 0.00000E+00
 -1      2558 1.16964E-03 1.55160E-04 0.00000E+00
 -1      2559 1.13596E-03 2.10707E-04 0.00000E+00
 -1      2560 1.16954E-03 1.77334E-04 0.00000E+00
 -1      2561 1.13747E-03 2.37618E-04 0.00000E+00
 -1      2562 1.16723E-03 2.01295E-04 0.00000E+00
 -1      2563 1.13639E-03 2.66489E-04 0.00000E+00
 -1      2564 1.16175E-03 2.26883E-04 0.00000E+00
 -1      2565 1.13153E-03 2.96992E-04 0.00000E+00
 -1      2566 1.15179E-03 2.53732E-04 0.00000E+00
 -1      2567 1.12130E-03 3.28479E-04 0.00000E+00
 -1      2568 1.13560E-03 2.81153E-04 0.00000E+00
 -1      2569 1.10357E-03 3.59828E-04 0.00000E+00
 -1      2570 1.11086E-03 3.07979E-04 0.00000E+00
 -1      2571 1.07560E-03 3.89220E-04 0.00000E+00
 -1      2572 1.07457E-03 3.32349E-04 0.00000E+00
 -1      2573 1.03391E-03 4.13868E-04 0.00000E+00
 -1      2574 1.02293E-03 3.51440E-04 0.00000E+00
 -1      2575 9.74290E-04 4.29724E-04 0.00000E+00
 -1      2576 9.51349E-04 3.61205E-04 0.00000E+00
 -1      2577 8.91912E-04 4.31256E-04 0.00000E+00
 -1      2578 8.54598E-04 3.56211E-04 0.00000E+00
 -1      2579 7.81701E-04 4.11496E-04 0.00000E+00
 -1      2580 7.27250E-04 3.29829E-04 0.00000E+00
 -1      2581 6.38990E-04 3.62694E-04 0.00000E+00
 -1      2582 5.64527E-04 2.75165E-04 0.00000E+00
 -1      2583 4.60485E-04 2.78022E-04 0.00000E+00
 -1      2584 3.63545E-04 1.87196E-04 0.00000E+00
 -1      2585 2.45366E-04 1.54635E-04 0.00000E+00
 -1      2586 1.26701E-04 6.72019E-05 0.00000E+00
 -1      2587 1.19105E-03 1.58927E-05 0.00000E+00
 -1      2588 1.22916E-03 9.66410E-06 0.00000E+00
 -1      2589 1.19354E-03 2.51884E-05 0.00000E+00
 -1      2590 1.23026E-03 1.59426E-05 0.00000E+00
 -1      2591 1.19566E-03 3.38921E-05 0.00000E+00
 -1      2592 1.23125E-03 2.28850E-05 0.00000E+00
 -1      2593 1.19772E-03 4.35016E-05 0.00000E+00
 -1      2594 1.23205E-03 3.05533E-05 0.00000E+00
 -1      2595 1.19965E-03 5.41234E-05 0.00000E+00
 -1      2596 1.23258E-03 3.90260E-05 0.00000E+00
 -1      2597 1.20131E-03 6.58555E-05 0.00000E+00
 -1      2598 1.23268E-03 4.83785E-05 0.00000E+00
 -1      2599 1.20257E-03 7.87970E-05 0.00000E+00
 -1      2600 1.23216E-03 5.86866E-05 0.00000E+00
 -1      2601 1.20318E-03 9.30441E-05 0.00000E+00
 -1      2602 1.23076E-03 7.00219E-05 0.00000E+00
 -1      2603 1.20285E-03 1.08682E-04 0.00000E+00
 -1      2604 1.22811E-03 8.24442E-05 0.00000E+00
 -1      2605 1.20116E-03 1.25772E-04 0.00000E+00
 -1      2606 1.22374E-03 9.59899E-05 0.00000E+00
 -1      2607 1.19751E-03 1.44330E-04 0.00000E+00
 -1      2608 1.21700E-03 1.10653E-04 0.00000E+00
 -1      2609 1.19114E-03 1.64296E-04 0.00000E+00
 -1      2610 1.20699E-03 1.26358E-04 0.00000E+00
 -1      2611 1.18098E-03 1.85487E-04 0.00000E+00
 -1      2612 1.19253E-03 1.42910E-04 0.00000E+00
 -1      2613 1.16559E-03 2.07518E-04 0.00000E+00
 -1      2614 1.17201E-03 1.59937E-04 0.00000E+00
 -1      2615 1.14307E-03 2.29704E-04 0.00000E+00
 -1      2616 1.14330E-03 1.76788E-04 0.00000E+00
 -1      2617 1.11088E-03 2.50903E-04 0.00000E+00
 -1      2618 1.10359E-03 1.92405E-04 0.00000E+00
 -1      2619 1.06577E-03 2.69328E-04 0.00000E+00
 -1      2620 1.04924E-03 2.05150E-04 0.00000E+00
 -1      2621 1.00361E-03 2.82306E-04 0.00000E+00
 -1      2622 9.75674E-04 2.12611E-04 0.00000E+00
 -1      2623 9.19427E-04 2.86067E-04 0.00000E+00
 -1      2624 8.77436E-04 2.11461E-04 0.00000E+00
 -1      2625 8.07615E-04 2.75674E-04 0.00000E+00
 -1      2626 7.48460E-04 1.97490E-04 0.00000E+00
 -1      2627 6.62476E-04 2.45377E-04 0.00000E+00
 -1      2628 5.82904E-04 1.66126E-04 0.00000E+00
 -1      2629 4.79353E-04 1.89788E-04 0.00000E+00
 -1      2630 3.76677E-04 1.13805E-04 0.00000E+00
 -1      2631 2.56278E-04 1.06295E-04 0.00000E+00
 -1      2632 1.31600E-04 4.10194E-05 0.00000E+00
 -1      2633 1.25740E-03 1.71625E-06 0.00000E+00
 -1      2634 1.27385E-03 9.67160E-07 0.00000E+00
 -1      2635 1.25790E-03 6.37851E-06 0.00000E+00
 -1      2636 1.27375E-03 2.67387E-06 0.00000E+00
 -1      2637 1.25815E-03 1.05906E-05 0.00000E+00
 -1      2638 1.27343E-03 4.62807E-06 0.00000E+00
 -1      2639 1.25817E-03 1.52462E-05 0.00000E+00
 -1      2640 1.27281E-03 6.77017E-06 0.00000E+00
 -1      2641 1.25787E-03 2.03929E-05 0.00000E+00
 -1      2642 1.27178E-03 9.13132E-06 0.00000E+00
 -1      2643 1.25713E-03 2.60767E-05 0.00000E+00
 -1      2644 1.27018E-03 1.17353E-05 0.00000E+00
 -1      2645 1.25576E-03 3.23454E-05 0.00000E+00
 -1      2646 1.26783E-03 1.46045E-05 0.00000E+00
 -1      2647 1.25355E-03 3.92459E-05 0.00000E+00
 -1      2648 1.26444E-03 1.77596E-05 0.00000E+00
 -1      2649 1.25020E-03 4.68211E-05 0.00000E+00
 -1      2650 1.25968E-03 2.12185E-05 0.00000E+00
 -1      2651 1.24528E-03 5.51032E-05 0.00000E+00
 -1      2652 1.25308E-03 2.49924E-05 0.00000E+00
 -1      2653 1.23826E-03 6.41052E-05 0.00000E+00
 -1      2654 1.24399E-03 2.90816E-05 0.00000E+00
 -1      2655 1.22840E-03 7.38058E-05 0.00000E+00
 -1      2656 1.23158E-03 3.34673E-05 0.00000E+00
 -1      2657 1.21470E-03 8.41274E-05 0.00000E+00
 -1      2658 1.21470E-03 3.81001E-05 0.00000E+00
 -1      2659 1.19582E-03 9.49023E-05 0.00000E+00
 -1      2660 1.19184E-03 4.28822E-05 0.00000E+00
 -1      2661 1.16998E-03 1.05823E-04 0.00000E+00
 -1      2662 1.16094E-03 4.76411E-05 0.00000E+00
 -1      2663 1.13481E-03 1.16371E-04 0.00000E+00
 -1      2664 1.11930E-03 5.20930E-05 0.00000E+00
 -1      2665 1.08717E-03 1.25718E-04 0.00000E+00
 -1      2666 1.06337E-03 5.57937E-05 0.00000E+00
 -1      2667 1.02306E-03 1.32610E-04 0.00000E+00
 -1      2668 9.88625E-04 5.80822E-05 0.00000E+00
 -1      2669 9.37456E-04 1.35239E-04 0.00000E+00
 -1      2670 8.89498E-04 5.80312E-05 0.00000E+00
 -1      2671 8.24459E-04 1.31181E-04 0.00000E+00
 -1      2672 7.59622E-04 5.44475E-05 0.00000E+00
 -1      2673 6.77736E-04 1.17528E-04 0.00000E+00
 -1      2674 5.92596E-04 4.60050E-05 0.00000E+00
 -1      2675 4.91686E-04 9.14525E-05 0.00000E+00
 -1      2676 3.83644E-04 3.16351E-05 0.00000E+00
 -1      2677 2.63456E-04 5.14641E-05 0.00000E+00
 -1      2678 1.34215E-04 1.14272E-05 0.00000E+00
 -1      2679 1.27657E-03 2.10467E-08 0.00000E+00
 -1      2680 1.27751E-03 0.00000E+00 0.00000E+00
 -1      2681 1.27651E-03 8.62223E-07 0.00000E+00
 -1      2682 1.27733E-03 0.00000E+00 0.00000E+00
 -1      2683 1.27627E-03 1.77195E-06 0.00000E+00
 -1      2684 1.27692E-03 0.00000E+00 0.00000E+00
 -1      2685 1.27574E-03 2.79092E-06 0.00000E+00
 -1      2686 1.27620E-03 0.00000E+00 0.00000E+00
 -1      2687 1.27485E-03 3.91681E-06 0.00000E+00
 -1      2688 1.27505E-03 0.00000E+00 0.00000E+00
 -1      2689 1.27346E-03 5.15745E-06 0.00000E+00
 -1      2690 1.27332E-03 0.00000E+00 0.00000E+00
 -1      2691 1.27140E-03 6.52383E-06 0.00000E+00
 -1      2692 1.27081E-03 0.00000E+00 0.00000E+00
 -1      2693 1.26845E-03 8.02723E-06 0.00000E+00
 -1      2694 1.26727E-03 0.00000E+00 0.00000E+00
 -1      2695 1.26431E-03 9.67783E-06 0.00000E+00
 -1      2696 1.26233E-03 0.00000E+00 0.00000E+00
 -1      2697 1.25856E-03 1.14834E-05 0.00000E+00
 -1      2698 1.25553E-03 0.00000E+00 0.00000E+00
 -1      2699 1.25067E-03 1.34474E-05 0.00000E+00
 -1      2700 1.24625E-03 0.00000E+00 0.00000E+00
 -1      2701 1.23992E-03 1.55659E-05 0.00000E+00
 -1      2702 1.23364E-03 0.00000E+00 0.00000E+00
 -1      2703 1.22532E-03 1.78230E-05 0.00000E+00
 -1      2704 1.21656E-03 0.00000E+00 0.00000E+00
 -1      2705 1.20557E-03 2.01837E-05 0.00000E+00
 -1      2706 1.19350E-03 0.00000E+00 0.00000E+00
 -1      2707 1.17891E-03 2.25829E-05 0.00000E+00
 -1      2708 1.16242E-03 0.00000E+00 0.00000E+00
 -1      2709 1.14301E-03 2.49100E-05 0.00000E+00
 -1      2710 1.12062E-03 0.00000E+00 0.00000E+00
 -1      2711 1.09476E-03 2.69876E-05 0.00000E+00
 -1      2712 1.06456E-03 0.00000E+00 0.00000E+00
 -1      2713 1.03017E-03 2.85447E-05 0.00000E+00
 -1      2714 9.89707E-04 0.00000E+00 0.00000E+00
 -1      2715 9.44208E-04 2.91882E-05 0.00000E+00
 -1      2716 8.90502E-04 0.00000E+00 0.00000E+00
 -1      2717 8.30846E-04 2.83865E-05 0.00000E+00
 -1      2718 7.60548E-04 0.00000E+00 0.00000E+00
 -1      2719 6.83537E-04 2.54961E-05 0.00000E+00
 -1      2720 5.93400E-04 0.00000E+00 0.00000E+00
 -1      2721 4.96357E-04 1.98838E-05 0.00000E+00
 -1      2722 3.84223E-04 0.00000E+00 0.00000E+00
 -1      2723 2.66164E-04 1.12098E-05 0.00000E+00
 -1      2724 1.34433E-04 0.00000E+00 0.00000E+00
 -1      2725-6.54660E-03 4.42947E-02 0.00000E+00
 -1      2726-6.45444E-03 4.32368E-02 0.00000E+00
 -1      2727-6.36076E-03 4.42949E-02 0.00000E+00
 -1      2728-6.45334E-03 4.53496E-02 0.00000E+00
 -1      2729-6.25844E-03 4.32370E-02 0.00000E+00
 -1      2730-6.15582E-03 4.42950E-02 0.00000E+00
 -1      2731-6.25832E-03 4.53497E-02 0.00000E+00
 -1      2732-6.04281E-03 4.32371E-02 0.00000E+00
 -1      2733-5.93070E-03 4.42951E-02 0.00000E+00
 -1      2734-6.04355E-03 4.53497E-02 0.00000E+00
 -1      2735-5.80594E-03 4.32372E-02 0.00000E+00
 -1      2736-5.68310E-03 4.42952E-02 0.00000E+00
 -1      2737-5.80739E-03 4.53497E-02 0.00000E+00
 -1      2738-5.54563E-03 4.32374E-02 0.00000E+00
 -1      2739-5.41088E-03 4.42954E-02 0.00000E+00
 -1      2740-5.54763E-03 4.53495E-02 0.00000E+00
 -1      2741-5.25967E-03 4.32375E-02 0.00000E+00
 -1      2742-5.11169E-03 4.42957E-02 0.00000E+00
 -1      2743-5.26199E-03 4.53493E-02 0.00000E+00
 -1      2744-4.94566E-03 4.32378E-02 0.00000E+00
 -1      2745-4.78302E-03 4.42961E-02 0.00000E+00
 -1      2746-4.94805E-03 4.53489E-02 0.00000E+00
 -1      2747-4.60098E-03 4.32384E-02 0.00000E+00
 -1      2748-4.42212E-03 4.42968E-02 0.00000E+00
 -1      2749-4.60312E-03 4.53485E-02 0.00000E+00
 -1      2750-4.22280E-03 4.32394E-02 0.00000E+00
 -1      2751-4.02603E-03 4.42979E-02 0.00000E+00
 -1      2752-4.22433E-03 4.53481E-02 0.00000E+00
 -1      2753-3.80804E-03 4.32410E-02 0.00000E+00
 -1      2754-3.59151E-03 4.42996E-02 0.00000E+00
 -1      2755-3.80853E-03 4.53479E-02 0.00000E+00
 -1      2756-3.35334E-03 4.32435E-02 0.00000E+00
 -1      2757-3.11503E-03 4.43023E-02 0.00000E+00
 -1      2758-3.35230E-03 4.53481E-02 0.00000E+00
 -1      2759-2.85503E-03 4.32473E-02 0.00000E+00
 -1      2760-2.59270E-03 4.43064E-02 0.00000E+00
 -1      2761-2.85187E-03 4.53493E-02 0.00000E+00
 -1      2762-2.30901E-03 4.32529E-02 0.00000E+00
 -1      2763-2.02016E-03 4.43125E-02 0.00000E+00
 -1      2764-2.30309E-03 4.53519E-02 0.00000E+00
 -1      2765-1.71071E-03 4.32610E-02 0.00000E+00
 -1      2766-1.39253E-03 4.43214E-02 0.00000E+00
 -1      2767-1.70130E-03 4.53570E-02 0.00000E+00
 -1      2768-1.05493E-03 4.32724E-02 0.00000E+00
 -1      2769-7.04205E-04 4.43342E-02 0.00000E+00
 -1      2770-1.04122E-03 4.53655E-02 0.00000E+00
 -1      2771-3.35647E-04 4.32882E-02 0.00000E+00
 -1      2772 5.13301E-05 4.43522E-02 0.00000E+00
 -1      2773-3.16799E-04 4.53791E-02 0.00000E+00
 -1      2774 4.54243E-04 4.33097E-02 0.00000E+00
 -1      2775 8.81779E-04 4.43770E-02 0.00000E+00
 -1      2776 4.79031E-04 4.53994E-02 0.00000E+00
 -1      2777 1.32322E-03 4.33386E-02 0.00000E+00
 -1      2778 1.79636E-03 4.44105E-02 0.00000E+00
 -1      2779 1.35463E-03 4.54287E-02 0.00000E+00
 -1      2780 2.28152E-03 4.33765E-02 0.00000E+00
 -1      2781 2.80615E-03 4.44544E-02 0.00000E+00
 -1      2782 2.31998E-03 4.54692E-02 0.00000E+00
 -1      2783 3.34151E-03 4.34253E-02 0.00000E+00
 -1      2784 3.92436E-03 4.45106E-02 0.00000E+00
 -1      2785 3.38696E-03 4.55229E-02 0.00000E+00
 -1      2786 4.51781E-03 4.34869E-02 0.00000E+00
 -1      2787 5.16614E-03 4.45801E-02 0.00000E+00
 -1      2788 4.56939E-03 4.55910E-02 0.00000E+00
 -1      2789 5.82702E-03 4.35623E-02 0.00000E+00
 -1      2790 6.54761E-03 4.46628E-02 0.00000E+00
 -1      2791 5.88265E-03 4.56728E-02 0.00000E+00
 -1      2792 7.27531E-03 4.36505E-02 0.00000E+00
 -1      2793 8.05997E-03 4.47555E-02 0.00000E+00
 -1      2794 7.33064E-03 4.57642E-02 0.00000E+00
 -1      2795-6.54794E-03 4.18860E-02 0.00000E+00
 -1      2796-6.44603E-03 4.05216E-02 0.00000E+00
 -1      2797-6.35986E-03 4.18858E-02 0.00000E+00
 -1      2798-6.24687E-03 4.05210E-02 0.00000E+00
 -1      2799-6.15285E-03 4.18856E-02 0.00000E+00
 -1      2800-6.02842E-03 4.05201E-02 0.00000E+00
 -1      2801-5.92592E-03 4.18853E-02 0.00000E+00
 -1      2802-5.78911E-03 4.05191E-02 0.00000E+00
 -1      2803-5.67684E-03 4.18849E-02 0.00000E+00
 -1      2804-5.52684E-03 4.05179E-02 0.00000E+00
 -1      2805-5.40351E-03 4.18845E-02 0.00000E+00
 -1      2806-5.23948E-03 4.05167E-02 0.00000E+00
 -1      2807-5.10368E-03 4.18841E-02 0.00000E+00
 -1      2808-4.92474E-03 4.05154E-02 0.00000E+00
 -1      2809-4.77487E-03 4.18839E-02 0.00000E+00
 -1      2810-4.58010E-03 4.05142E-02 0.00000E+00
 -1      2811-4.41441E-03 4.18840E-02 0.00000E+00
 -1      2812-4.20283E-03 4.05134E-02 0.00000E+00
 -1      2813-4.01938E-03 4.18845E-02 0.00000E+00
 -1      2814-3.78997E-03 4.05130E-02 0.00000E+00
 -1      2815-3.58662E-03 4.18858E-02 0.00000E+00
 -1      2816-3.33824E-03 4.05135E-02 0.00000E+00
 -1      2817-3.11266E-03 4.18882E-02 0.00000E+00
 -1      2818-2.84407E-03 4.05153E-02 0.00000E+00
 -1      2819-2.59365E-03 4.18922E-02 0.00000E+00
 -1      2820-2.30345E-03 4.05189E-02 0.00000E+00
 -1      2821-2.02533E-03 4.18983E-02 0.00000E+00
 -1      2822-1.71190E-03 4.05251E-02 0.00000E+00
 -1      2823-1.40286E-03 4.19074E-02 0.00000E+00
 -1      2824-1.06426E-03 4.05349E-02 0.00000E+00
 -1      2825-7.20688E-04 4.19204E-02 0.00000E+00
 -1      2826-3.54534E-04 4.05495E-02 0.00000E+00
 -1      2827 2.77036E-05 4.19385E-02 0.00000E+00
 -1      2828 4.24402E-04 4.05702E-02 0.00000E+00
 -1      2829 8.50070E-04 4.19632E-02 0.00000E+00
 -1      2830 1.28116E-03 4.05989E-02 0.00000E+00
 -1      2831 1.75580E-03 4.19963E-02 0.00000E+00
 -1      2832 2.22633E-03 4.06375E-02 0.00000E+00
 -1      2833 2.75632E-03 4.20396E-02 0.00000E+00
 -1      2834 3.27293E-03 4.06884E-02 0.00000E+00
 -1      2835 3.86553E-03 4.20952E-02 0.00000E+00
 -1      2836 4.43705E-03 4.07537E-02 0.00000E+00
 -1      2837 5.09989E-03 4.21650E-02 0.00000E+00
 -1      2838 5.73840E-03 4.08348E-02 0.00000E+00
 -1      2839 6.47846E-03 4.22495E-02 0.00000E+00
 -1      2840 7.19027E-03 4.09301E-02 0.00000E+00
 -1      2841 8.00042E-03 4.23451E-02 0.00000E+00
 -1      2842-6.52380E-03 3.92721E-02 0.00000E+00
 -1      2843-6.39682E-03 3.80123E-02 0.00000E+00
 -1      2844-6.33283E-03 3.92706E-02 0.00000E+00
 -1      2845-6.19543E-03 3.80097E-02 0.00000E+00
 -1      2846-6.12308E-03 3.92689E-02 0.00000E+00
 -1      2847-5.97502E-03 3.80068E-02 0.00000E+00
 -1      2848-5.89369E-03 3.92670E-02 0.00000E+00
 -1      2849-5.73411E-03 3.80036E-02 0.00000E+00
 -1      2850-5.64255E-03 3.92648E-02 0.00000E+00
 -1      2851-5.47069E-03 3.80002E-02 0.00000E+00
 -1      2852-5.36767E-03 3.92625E-02 0.00000E+00
 -1      2853-5.18278E-03 3.79964E-02 0.00000E+00
 -1      2854-5.06692E-03 3.92601E-02 0.00000E+00
 -1      2855-4.86821E-03 3.79925E-02 0.00000E+00
 -1      2856-4.73797E-03 3.92576E-02 0.00000E+00
 -1      2857-4.52464E-03 3.79885E-02 0.00000E+00
 -1      2858-4.37828E-03 3.92552E-02 0.00000E+00
 -1      2859-4.14951E-03 3.79847E-02 0.00000E+00
 -1      2860-3.98509E-03 3.92532E-02 0.00000E+00
 -1      2861-3.74003E-03 3.79812E-02 0.00000E+00
 -1      2862-3.55539E-03 3.92517E-02 0.00000E+00
 -1      2863-3.29315E-03 3.79784E-02 0.00000E+00
 -1      2864-3.08583E-03 3.92512E-02 0.00000E+00
 -1      2865-2.80545E-03 3.79768E-02 0.00000E+00
 -1      2866-2.57274E-03 3.92523E-02 0.00000E+00
 -1      2867-2.27314E-03 3.79771E-02 0.00000E+00
 -1      2868-2.01194E-03 3.92555E-02 0.00000E+00
 -1      2869-1.69189E-03 3.79801E-02 0.00000E+00
 -1      2870-1.39872E-03 3.92619E-02 0.00000E+00
 -1      2871-1.05667E-03 3.79869E-02 0.00000E+00
 -1      2872-7.27581E-04 3.92726E-02 0.00000E+00
 -1      2873-3.61575E-04 3.79991E-02 0.00000E+00
 -1      2874 7.97251E-06 3.92891E-02 0.00000E+00
 -1      2875 4.00545E-04 3.80183E-02 0.00000E+00
 -1      2876 8.15791E-04 3.93130E-02 0.00000E+00
 -1      2877 1.23850E-03 3.80467E-02 0.00000E+00
 -1      2878 1.70553E-03 3.93466E-02 0.00000E+00
 -1      2879 2.16336E-03 3.80868E-02 0.00000E+00
 -1      2880 2.68923E-03 3.93921E-02 0.00000E+00
 -1      2881 3.18922E-03 3.81413E-02 0.00000E+00
 -1      2882 3.78204E-03 3.94520E-02 0.00000E+00
 -1      2883 4.33422E-03 3.82129E-02 0.00000E+00
 -1      2884 5.00299E-03 3.95285E-02 0.00000E+00
 -1      2885 5.62201E-03 3.83032E-02 0.00000E+00
 -1      2886 6.37641E-03 3.96221E-02 0.00000E+00
 -1      2887 7.07315E-03 3.84107E-02 0.00000E+00
 -1      2888 7.91182E-03 3.97284E-02 0.00000E+00
 -1      2889-6.44977E-03 3.68648E-02 0.00000E+00
 -1      2890-6.29388E-03 3.57112E-02 0.00000E+00
 -1      2891-6.25731E-03 3.68612E-02 0.00000E+00
 -1      2892-6.09204E-03 3.57061E-02 0.00000E+00
 -1      2893-6.04631E-03 3.68573E-02 0.00000E+00
 -1      2894-5.87150E-03 3.57006E-02 0.00000E+00
 -1      2895-5.81599E-03 3.68529E-02 0.00000E+00
 -1      2896-5.63089E-03 3.56947E-02 0.00000E+00
 -1      2897-5.56434E-03 3.68482E-02 0.00000E+00
 -1      2898-5.36830E-03 3.56882E-02 0.00000E+00
 -1      2899-5.28950E-03 3.68432E-02 0.00000E+00
 -1      2900-5.08189E-03 3.56814E-02 0.00000E+00
 -1      2901-4.98949E-03 3.68379E-02 0.00000E+00
 -1      2902-4.76964E-03 3.56742E-02 0.00000E+00
 -1      2903-4.66213E-03 3.68323E-02 0.00000E+00
 -1      2904-4.42939E-03 3.56667E-02 0.00000E+00
 -1      2905-4.30506E-03 3.68267E-02 0.00000E+00
 -1      2906-4.05878E-03 3.56592E-02 0.00000E+00
 -1      2907-3.91573E-03 3.68212E-02 0.00000E+00
 -1      2908-3.65526E-03 3.56519E-02 0.00000E+00
 -1      2909-3.49133E-03 3.68162E-02 0.00000E+00
 -1      2910-3.21599E-03 3.56452E-02 0.00000E+00
 -1      2911-3.02876E-03 3.68121E-02 0.00000E+00
 -1      2912-2.73783E-03 3.56397E-02 0.00000E+00
 -1      2913-2.52454E-03 3.68094E-02 0.00000E+00
 -1      2914-2.21726E-03 3.56360E-02 0.00000E+00
 -1      2915-1.97476E-03 3.68091E-02 0.00000E+00
 -1      2916-1.65018E-03 3.56353E-02 0.00000E+00
 -1      2917-1.37489E-03 3.68121E-02 0.00000E+00
 -1      2918-1.03183E-03 3.56387E-02 0.00000E+00
 -1      2919-7.19584E-04 3.68199E-02 0.00000E+00
 -1      2920-3.56461E-04 3.56480E-02 0.00000E+00
 -1      2921-2.43480E-06 3.68341E-02 0.00000E+00
 -1      2922 3.83024E-04 3.56652E-02 0.00000E+00
 -1      2923 7.84485E-04 3.68569E-02 0.00000E+00
 -1      2924 1.19559E-03 3.56930E-02 0.00000E+00
 -1      2925 1.65116E-03 3.68908E-02 0.00000E+00
 -1      2926 2.09282E-03 3.57343E-02 0.00000E+00
 -1      2927 2.61042E-03 3.69387E-02 0.00000E+00
 -1      2928 3.08996E-03 3.57925E-02 0.00000E+00
 -1      2929 3.67898E-03 3.70038E-02 0.00000E+00
 -1      2930 4.20732E-03 3.58710E-02 0.00000E+00
 -1      2931 4.87879E-03 3.70885E-02 0.00000E+00
 -1      2932 5.47242E-03 3.59721E-02 0.00000E+00
 -1      2933 6.23940E-03 3.71940E-02 0.00000E+00
 -1      2934 6.91224E-03 3.60950E-02 0.00000E+00
 -1      2935 7.77876E-03 3.73163E-02 0.00000E+00
 -1      2936-6.31989E-03 3.46676E-02 0.00000E+00
 -1      2937-6.13682E-03 3.36205E-02 0.00000E+00
 -1      2938-6.12770E-03 3.46615E-02 0.00000E+00
 -1      2939-5.93630E-03 3.36127E-02 0.00000E+00
 -1      2940-5.91730E-03 3.46549E-02 0.00000E+00
 -1      2941-5.71753E-03 3.36043E-02 0.00000E+00
 -1      2942-5.68801E-03 3.46477E-02 0.00000E+00
 -1      2943-5.47921E-03 3.35952E-02 0.00000E+00
 -1      2944-5.43792E-03 3.46399E-02 0.00000E+00
 -1      2945-5.21956E-03 3.35854E-02 0.00000E+00
 -1      2946-5.16529E-03 3.46316E-02 0.00000E+00
 -1      2947-4.93686E-03 3.35750E-02 0.00000E+00
 -1      2948-4.86828E-03 3.46228E-02 0.00000E+00
 -1      2949-4.62926E-03 3.35640E-02 0.00000E+00
 -1      2950-4.54489E-03 3.46136E-02 0.00000E+00
 -1      2951-4.29479E-03 3.35527E-02 0.00000E+00
 -1      2952-4.19295E-03 3.46042E-02 0.00000E+00
 -1      2953-3.93129E-03 3.35411E-02 0.00000E+00
 -1      2954-3.81012E-03 3.45948E-02 0.00000E+00
 -1      2955-3.53644E-03 3.35295E-02 0.00000E+00
 -1      2956-3.39384E-03 3.45857E-02 0.00000E+00
 -1      2957-3.10769E-03 3.35185E-02 0.00000E+00
 -1      2958-2.94128E-03 3.45774E-02 0.00000E+00
 -1      2959-2.64219E-03 3.35085E-02 0.00000E+00
 -1      2960-2.44926E-03 3.45706E-02 0.00000E+00
 -1      2961-2.13673E-03 3.35005E-02 0.00000E+00
 -1      2962-1.91415E-03 3.45661E-02 0.00000E+00
 -1      2963-1.58757E-03 3.34955E-02 0.00000E+00
 -1      2964-1.33170E-03 3.45653E-02 0.00000E+00
 -1      2965-9.90245E-04 3.34950E-02 0.00000E+00
 -1      2966-6.96857E-04 3.45696E-02 0.00000E+00
 -1      2967-3.39286E-04 3.35009E-02 0.00000E+00
 -1      2968-3.36014E-06 3.45811E-02 0.00000E+00
 -1      2969 3.72228E-04 3.35157E-02 0.00000E+00
 -1      2970 7.56692E-04 3.46023E-02 0.00000E+00
 -1      2971 1.15330E-03 3.35423E-02 0.00000E+00
 -1      2972 1.59355E-03 3.46362E-02 0.00000E+00
 -1      2973 2.01594E-03 3.35845E-02 0.00000E+00
 -1      2974 2.52078E-03 3.46863E-02 0.00000E+00
 -1      2975 2.97641E-03 3.36463E-02 0.00000E+00
 -1      2976 3.55662E-03 3.47566E-02 0.00000E+00
 -1      2977 4.05705E-03 3.37320E-02 0.00000E+00
 -1      2978 4.72589E-03 3.48504E-02 0.00000E+00
 -1      2979 5.28897E-03 3.38451E-02 0.00000E+00
 -1      2980 6.06288E-03 3.49698E-02 0.00000E+00
 -1      2981 6.70517E-03 3.39859E-02 0.00000E+00
 -1      2982 7.59315E-03 3.51117E-02 0.00000E+00
 -1      2983-6.13735E-03 3.26803E-02 0.00000E+00
 -1      2984-5.93135E-03 3.17375E-02 0.00000E+00
 -1      2985-5.94706E-03 3.26715E-02 0.00000E+00
 -1      2986-5.73375E-03 3.17268E-02 0.00000E+00
 -1      2987-5.73901E-03 3.26619E-02 0.00000E+00
 -1      2988-5.51841E-03 3.17152E-02 0.00000E+00
 -1      2989-5.51260E-03 3.26516E-02 0.00000E+00
 -1      2990-5.28413E-03 3.17028E-02 0.00000E+00
 -1      2991-5.26602E-03 3.26405E-02 0.00000E+00
 -1      2992-5.02927E-03 3.16895E-02 0.00000E+00
 -1      2993-4.99766E-03 3.26286E-02 0.00000E+00
 -1      2994-4.75223E-03 3.16754E-02 0.00000E+00
 -1      2995-4.70583E-03 3.26161E-02 0.00000E+00
 -1      2996-4.45133E-03 3.16605E-02 0.00000E+00
 -1      2997-4.38868E-03 3.26030E-02 0.00000E+00
 -1      2998-4.12477E-03 3.16449E-02 0.00000E+00
 -1      2999-4.04427E-03 3.25894E-02 0.00000E+00
 -1      3000-3.77063E-03 3.16290E-02 0.00000E+00
 -1      3001-3.67047E-03 3.25756E-02 0.00000E+00
 -1      3002-3.38684E-03 3.16129E-02 0.00000E+00
 -1      3003-3.26499E-03 3.25620E-02 0.00000E+00
 -1      3004-2.97113E-03 3.15972E-02 0.00000E+00
 -1      3005-2.82529E-03 3.25492E-02 0.00000E+00
 -1      3006-2.52099E-03 3.15824E-02 0.00000E+00
 -1      3007-2.34853E-03 3.25377E-02 0.00000E+00
 -1      3008-2.03358E-03 3.15696E-02 0.00000E+00
 -1      3009-1.83142E-03 3.25287E-02 0.00000E+00
 -1      3010-1.50554E-03 3.15599E-02 0.00000E+00
 -1      3011-1.27011E-03 3.25235E-02 0.00000E+00
 -1      3012-9.32837E-04 3.15550E-02 0.00000E+00
 -1      3013-6.59858E-04 3.25239E-02 0.00000E+00
 -1      3014-3.10372E-04 3.15571E-02 0.00000E+00
 -1      3015 5.28638E-06 3.25322E-02 0.00000E+00
 -1      3016 3.68486E-04 3.15690E-02 0.00000E+00
 -1      3017 7.33081E-04 3.25513E-02 0.00000E+00
 -1      3018 1.11264E-03 3.15942E-02 0.00000E+00
 -1      3019 1.53390E-03 3.25848E-02 0.00000E+00
 -1      3020 1.93433E-03 3.16370E-02 0.00000E+00
 -1      3021 2.42190E-03 3.26370E-02 0.00000E+00
 -1      3022 2.85067E-03 3.17024E-02 0.00000E+00
 -1      3023 3.41669E-03 3.27125E-02 0.00000E+00
 -1      3024 3.88580E-03 3.17956E-02 0.00000E+00
 -1      3025 4.54566E-03 3.28160E-02 0.00000E+00
 -1      3026 5.07416E-03 3.19215E-02 0.00000E+00
 -1      3027 5.84761E-03 3.29508E-02 0.00000E+00
 -1      3028 6.45454E-03 3.20816E-02 0.00000E+00
 -1      3029 7.35541E-03 3.31147E-02 0.00000E+00
 -1      3030-5.90971E-03 3.08975E-02 0.00000E+00
 -1      3031-5.68617E-03 3.00542E-02 0.00000E+00
 -1      3032-5.72271E-03 3.08858E-02 0.00000E+00
 -1      3033-5.49273E-03 3.00406E-02 0.00000E+00
 -1      3034-5.51848E-03 3.08732E-02 0.00000E+00
 -1      3035-5.28213E-03 3.00260E-02 0.00000E+00
 -1      3036-5.29649E-03 3.08597E-02 0.00000E+00
 -1      3037-5.05329E-03 3.00102E-02 0.00000E+00
 -1      3038-5.05504E-03 3.08451E-02 0.00000E+00
 -1      3039-4.80465E-03 2.99934E-02 0.00000E+00
 -1      3040-4.79266E-03 3.08296E-02 0.00000E+00
 -1      3041-4.53478E-03 2.99755E-02 0.00000E+00
 -1      3042-4.50778E-03 3.08132E-02 0.00000E+00
 -1      3043-4.24213E-03 2.99565E-02 0.00000E+00
 -1      3044-4.19875E-03 3.07960E-02 0.00000E+00
 -1      3045-3.92512E-03 2.99367E-02 0.00000E+00
 -1      3046-3.86382E-03 3.07781E-02 0.00000E+00
 -1      3047-3.58205E-03 2.99163E-02 0.00000E+00
 -1      3048-3.50110E-03 3.07597E-02 0.00000E+00
 -1      3049-3.21110E-03 2.98955E-02 0.00000E+00
 -1      3050-3.10859E-03 3.07414E-02 0.00000E+00
 -1      3051-2.81035E-03 2.98748E-02 0.00000E+00
 -1      3052-2.68407E-03 3.07237E-02 0.00000E+00
 -1      3053-2.37765E-03 2.98551E-02 0.00000E+00
 -1      3054-2.22507E-03 3.07073E-02 0.00000E+00
 -1      3055-1.91056E-03 2.98372E-02 0.00000E+00
 -1      3056-1.72872E-03 3.06934E-02 0.00000E+00
 -1      3057-1.40621E-03 2.98225E-02 0.00000E+00
 -1      3058-1.19160E-03 3.06835E-02 0.00000E+00
 -1      3059-8.61035E-04 2.98130E-02 0.00000E+00
 -1      3060-6.09430E-04 3.06795E-02 0.00000E+00
 -1      3061-2.70424E-04 2.98110E-02 0.00000E+00
 -1      3062 2.33548E-05 3.06842E-02 0.00000E+00
 -1      3063 3.71845E-04 2.98198E-02 0.00000E+00
 -1      3064 7.14228E-04 3.07009E-02 0.00000E+00
 -1      3065 1.07444E-03 2.98434E-02 0.00000E+00
 -1      3066 1.47353E-03 3.07338E-02 0.00000E+00
 -1      3067 1.84968E-03 2.98868E-02 0.00000E+00
 -1      3068 2.31582E-03 3.07879E-02 0.00000E+00
 -1      3069 2.71531E-03 2.99558E-02 0.00000E+00
 -1      3070 3.26187E-03 3.08689E-02 0.00000E+00
 -1      3071 3.69704E-03 3.00568E-02 0.00000E+00
 -1      3072 4.34138E-03 3.09825E-02 0.00000E+00
 -1      3073 4.83229E-03 3.01962E-02 0.00000E+00
 -1      3074 5.59733E-03 3.11336E-02 0.00000E+00
 -1      3075 6.16551E-03 3.03768E-02 0.00000E+00
 -1      3076 7.06998E-03 3.13213E-02 0.00000E+00
 -1      3077-5.64655E-03 2.93089E-02 0.00000E+00
 -1      3078-5.41106E-03 2.85587E-02 0.00000E+00
 -1      3079-5.46388E-03 2.92946E-02 0.00000E+00
 -1      3080-5.22266E-03 2.85423E-02 0.00000E+00
 -1      3081-5.26457E-03 2.92790E-02 0.00000E+00
 -1      3082-5.01771E-03 2.85247E-02 0.00000E+00
 -1      3083-5.04814E-03 2.92623E-02 0.00000E+00
 -1      3084-4.79522E-03 2.85057E-02 0.00000E+00
 -1      3085-4.81302E-03 2.92443E-02 0.00000E+00
 -1      3086-4.55377E-03 2.84853E-02 0.00000E+00
 -1      3087-4.55784E-03 2.92252E-02 0.00000E+00
 -1      3088-4.29204E-03 2.84637E-02 0.00000E+00
 -1      3089-4.28119E-03 2.92049E-02 0.00000E+00
 -1      3090-4.00866E-03 2.84408E-02 0.00000E+00
 -1      3091-3.98160E-03 2.91835E-02 0.00000E+00
 -1      3092-3.70225E-03 2.84167E-02 0.00000E+00
 -1      3093-3.65751E-03 2.91612E-02 0.00000E+00
 -1      3094-3.37133E-03 2.83918E-02 0.00000E+00
 -1      3095-3.30733E-03 2.91382E-02 0.00000E+00
 -1      3096-3.01441E-03 2.83662E-02 0.00000E+00
 -1      3097-2.92933E-03 2.91151E-02 0.00000E+00
 -1      3098-2.62989E-03 2.83406E-02 0.00000E+00
 -1      3099-2.52166E-03 2.90923E-02 0.00000E+00
 -1      3100-2.21604E-03 2.83158E-02 0.00000E+00
 -1      3101-2.08226E-03 2.90708E-02 0.00000E+00
 -1      3102-1.77091E-03 2.82927E-02 0.00000E+00
 -1      3103-1.60875E-03 2.90518E-02 0.00000E+00
 -1      3104-1.29213E-03 2.82731E-02 0.00000E+00
 -1      3105-1.09820E-03 2.90370E-02 0.00000E+00
 -1      3106-7.76726E-04 2.82588E-02 0.00000E+00
 -1      3107-5.46881E-04 2.90286E-02 0.00000E+00
 -1      3108-2.20631E-04 2.82528E-02 0.00000E+00
 -1      3109 5.02808E-05 2.90296E-02 0.00000E+00
 -1      3110 3.81880E-04 2.82587E-02 0.00000E+00
 -1      3111 7.00369E-04 2.90439E-02 0.00000E+00
 -1      3112 1.03914E-03 2.82810E-02 0.00000E+00
 -1      3113 1.41356E-03 2.90763E-02 0.00000E+00
 -1      3114 1.76342E-03 2.83254E-02 0.00000E+00
 -1      3115 2.20465E-03 2.91325E-02 0.00000E+00
 -1      3116 2.57292E-03 2.83985E-02 0.00000E+00
 -1      3117 3.09532E-03 2.92192E-02 0.00000E+00
 -1      3118 3.49462E-03 2.85078E-02 0.00000E+00
 -1      3119 4.11731E-03 2.93434E-02 0.00000E+00
 -1      3120 4.56856E-03 2.86611E-02 0.00000E+00
 -1      3121 5.31743E-03 2.95116E-02 0.00000E+00
 -1      3122 5.84452E-03 2.88628E-02 0.00000E+00
 -1      3123 6.74326E-03 2.97241E-02 0.00000E+00
 -1      3124-5.35791E-03 2.79011E-02 0.00000E+00
 -1      3125-5.11573E-03 2.72360E-02 0.00000E+00
 -1      3126-5.18026E-03 2.78841E-02 0.00000E+00
 -1      3127-4.93284E-03 2.72170E-02 0.00000E+00
 -1      3128-4.98655E-03 2.78657E-02 0.00000E+00
 -1      3129-4.73402E-03 2.71964E-02 0.00000E+00
 -1      3130-4.77639E-03 2.78459E-02 0.00000E+00
 -1      3131-4.51835E-03 2.71743E-02 0.00000E+00
 -1      3132-4.54829E-03 2.78247E-02 0.00000E+00
 -1      3133-4.28454E-03 2.71507E-02 0.00000E+00
 -1      3134-4.30104E-03 2.78020E-02 0.00000E+00
 -1      3135-4.03141E-03 2.71254E-02 0.00000E+00
 -1      3136-4.03335E-03 2.77779E-02 0.00000E+00
 -1      3137-3.75776E-03 2.70987E-02 0.00000E+00
 -1      3138-3.74393E-03 2.77524E-02 0.00000E+00
 -1      3139-3.46241E-03 2.70705E-02 0.00000E+00
 -1      3140-3.43148E-03 2.77258E-02 0.00000E+00
 -1      3141-3.14417E-03 2.70411E-02 0.00000E+00
 -1      3142-3.09466E-03 2.76983E-02 0.00000E+00
 -1      3143-2.80185E-03 2.70109E-02 0.00000E+00
 -1      3144-2.73209E-03 2.76703E-02 0.00000E+00
 -1      3145-2.43425E-03 2.69804E-02 0.00000E+00
 -1      3146-2.34231E-03 2.76425E-02 0.00000E+00
 -1      3147-2.04011E-03 2.69505E-02 0.00000E+00
 -1      3148-1.92374E-03 2.76158E-02 0.00000E+00
 -1      3149-1.61801E-03 2.69224E-02 0.00000E+00
 -1      3150-1.47453E-03 2.75918E-02 0.00000E+00
 -1      3151-1.16617E-03 2.68979E-02 0.00000E+00
 -1      3152-9.92331E-04 2.75721E-02 0.00000E+00
 -1      3153-6.82220E-04 2.68794E-02 0.00000E+00
 -1      3154-4.73998E-04 2.75595E-02 0.00000E+00
 -1      3155-1.62707E-04 2.68699E-02 0.00000E+00
 -1      3156 8.49695E-05 2.75572E-02 0.00000E+00
 -1      3157 3.97575E-04 2.68736E-02 0.00000E+00
 -1      3158 6.91205E-04 2.75697E-02 0.00000E+00
 -1      3159 1.00658E-03 2.68955E-02 0.00000E+00
 -1      3160 1.35464E-03 2.76021E-02 0.00000E+00
 -1      3161 1.67648E-03 2.69418E-02 0.00000E+00
 -1      3162 2.09018E-03 2.76612E-02 0.00000E+00
 -1      3163 2.42577E-03 2.70200E-02 0.00000E+00
 -1      3164 2.92020E-03 2.77542E-02 0.00000E+00
 -1      3165 3.28238E-03 2.71384E-02 0.00000E+00
 -1      3166 3.87809E-03 2.78895E-02 0.00000E+00
 -1      3167 4.28848E-03 2.73060E-02 0.00000E+00
 -1      3168 5.01400E-03 2.80751E-02 0.00000E+00
 -1      3169 5.49857E-03 2.75292E-02 0.00000E+00
 -1      3170 6.38258E-03 2.83131E-02 0.00000E+00
 -1      3171-5.05337E-03 2.66579E-02 0.00000E+00
 -1      3172-4.80908E-03 2.60691E-02 0.00000E+00
 -1      3173-4.88102E-03 2.66384E-02 0.00000E+00
 -1      3174-4.63178E-03 2.60477E-02 0.00000E+00
 -1      3175-4.69320E-03 2.66174E-02 0.00000E+00
 -1      3176-4.43914E-03 2.60245E-02 0.00000E+00
 -1      3177-4.48956E-03 2.65947E-02 0.00000E+00
 -1      3178-4.23031E-03 2.59995E-02 0.00000E+00
 -1      3179-4.26873E-03 2.65704E-02 0.00000E+00
 -1      3180-4.00412E-03 2.59727E-02 0.00000E+00
 -1      3181-4.02960E-03 2.65443E-02 0.00000E+00
 -1      3182-3.75954E-03 2.59440E-02 0.00000E+00
 -1      3183-3.77107E-03 2.65166E-02 0.00000E+00
 -1      3184-3.49556E-03 2.59136E-02 0.00000E+00
 -1      3185-3.49204E-03 2.64872E-02 0.00000E+00
 -1      3186-3.21123E-03 2.58813E-02 0.00000E+00
 -1      3187-3.19145E-03 2.64563E-02 0.00000E+00
 -1      3188-2.90566E-03 2.58476E-02 0.00000E+00
 -1      3189-2.86827E-03 2.64243E-02 0.00000E+00
 -1      3190-2.57804E-03 2.58129E-02 0.00000E+00
 -1      3191-2.52151E-03 2.63915E-02 0.00000E+00
 -1      3192-2.22762E-03 2.57776E-02 0.00000E+00
 -1      3193-2.15016E-03 2.63588E-02 0.00000E+00
 -1      3194-1.85364E-03 2.57430E-02 0.00000E+00
 -1      3195-1.75317E-03 2.63273E-02 0.00000E+00
 -1      3196-1.45527E-03 2.57103E-02 0.00000E+00
 -1      3197-1.32926E-03 2.62984E-02 0.00000E+00
 -1      3198-1.03138E-03 2.56816E-02 0.00000E+00
 -1      3199-8.76724E-04 2.62745E-02 0.00000E+00
 -1      3200-5.80205E-04 2.56595E-02 0.00000E+00
 -1      3201-3.93034E-04 2.62583E-02 0.00000E+00
 -1      3202-9.88907E-05 2.56477E-02 0.00000E+00
 -1      3203 1.25744E-04 2.62537E-02 0.00000E+00
 -1      3204 4.17293E-04 2.56506E-02 0.00000E+00
 -1      3205 6.85797E-04 2.62654E-02 0.00000E+00
 -1      3206 9.75978E-04 2.56737E-02 0.00000E+00
 -1      3207 1.29680E-03 2.62993E-02 0.00000E+00
 -1      3208 1.58921E-03 2.57238E-02 0.00000E+00
 -1      3209 1.97370E-03 2.63624E-02 0.00000E+00
 -1      3210 2.27566E-03 2.58085E-02 0.00000E+00
 -1      3211 2.73932E-03 2.64629E-02 0.00000E+00
 -1      3212 3.06385E-03 2.59371E-02 0.00000E+00
 -1      3213 3.62828E-03 2.66100E-02 0.00000E+00
 -1      3214 3.99745E-03 2.61195E-02 0.00000E+00
 -1      3215 4.69337E-03 2.68133E-02 0.00000E+00
 -1      3216 5.13479E-03 2.63640E-02 0.00000E+00
 -1      3217 5.99567E-03 2.70769E-02 0.00000E+00
 -1      3218-4.74145E-03 2.55617E-02 0.00000E+00
 -1      3219-4.49877E-03 2.50404E-02 0.00000E+00
 -1      3220-4.57433E-03 2.55401E-02 0.00000E+00
 -1      3221-4.32678E-03 2.50167E-02 0.00000E+00
 -1      3222-4.39227E-03 2.55166E-02 0.00000E+00
 -1      3223-4.13996E-03 2.49911E-02 0.00000E+00
 -1      3224-4.19498E-03 2.54913E-02 0.00000E+00
 -1      3225-3.93756E-03 2.49634E-02 0.00000E+00
 -1      3226-3.98119E-03 2.54640E-02 0.00000E+00
 -1      3227-3.71853E-03 2.49337E-02 0.00000E+00
 -1      3228-3.74994E-03 2.54348E-02 0.00000E+00
 -1      3229-3.48200E-03 2.49018E-02 0.00000E+00
 -1      3230-3.50028E-03 2.54036E-02 0.00000E+00
 -1      3231-3.22719E-03 2.48678E-02 0.00000E+00
 -1      3232-3.23136E-03 2.53704E-02 0.00000E+00
 -1      3233-2.95342E-03 2.48317E-02 0.00000E+00
 -1      3234-2.94239E-03 2.53354E-02 0.00000E+00
 -1      3235-2.66014E-03 2.47939E-02 0.00000E+00
 -1      3236-2.63270E-03 2.52991E-02 0.00000E+00
 -1      3237-2.34699E-03 2.47547E-02 0.00000E+00
 -1      3238-2.30174E-03 2.52618E-02 0.00000E+00
 -1      3239-2.01370E-03 2.47151E-02 0.00000E+00
 -1      3240-1.94901E-03 2.52245E-02 0.00000E+00
 -1      3241-1.66013E-03 2.46761E-02 0.00000E+00
 -1      3242-1.57405E-03 2.51884E-02 0.00000E+00
 -1      3243-1.28605E-03 2.46395E-02 0.00000E+00
 -1      3244-1.17620E-03 2.51555E-02 0.00000E+00
 -1      3245-8.90971E-04 2.46075E-02 0.00000E+00
 -1      3246-7.54395E-04 2.51281E-02 0.00000E+00
 -1      3247-4.73711E-04 2.45834E-02 0.00000E+00
 -1      3248-3.06682E-04 2.51097E-02 0.00000E+00
 -1      3249-3.18900E-05 2.45711E-02 0.00000E+00
 -1      3250 1.70374E-04 2.51043E-02 0.00000E+00
 -1      3251 4.38865E-04 2.45754E-02 0.00000E+00
 -1      3252 6.82602E-04 2.51171E-02 0.00000E+00
 -1      3253 9.45981E-04 2.46021E-02 0.00000E+00
 -1      3254 1.23949E-03 2.51545E-02 0.00000E+00
 -1      3255 1.50143E-03 2.46581E-02 0.00000E+00
 -1      3256 1.85596E-03 2.52236E-02 0.00000E+00
 -1      3257 2.12392E-03 2.47514E-02 0.00000E+00
 -1      3258 2.55509E-03 2.53331E-02 0.00000E+00
 -1      3259 2.84218E-03 2.48914E-02 0.00000E+00
 -1      3260 3.37219E-03 2.54929E-02 0.00000E+00
 -1      3261 3.70059E-03 2.50890E-02 0.00000E+00
 -1      3262 4.36177E-03 2.57140E-02 0.00000E+00
 -1      3263 4.76018E-03 2.53544E-02 0.00000E+00
 -1      3264 5.59028E-03 2.60028E-02 0.00000E+00
 -1      3265-4.42933E-03 2.45949E-02 0.00000E+00
 -1      3266-4.19109E-03 2.41319E-02 0.00000E+00
 -1      3267-4.26701E-03 2.45713E-02 0.00000E+00
 -1      3268-4.02375E-03 2.41063E-02 0.00000E+00
 -1      3269-4.09021E-03 2.45456E-02 0.00000E+00
 -1      3270-3.84202E-03 2.40785E-02 0.00000E+00
 -1      3271-3.89869E-03 2.45178E-02 0.00000E+00
 -1      3272-3.64524E-03 2.40484E-02 0.00000E+00
 -1      3273-3.69131E-03 2.44879E-02 0.00000E+00
 -1      3274-3.43252E-03 2.40159E-02 0.00000E+00
 -1      3275-3.46725E-03 2.44556E-02 0.00000E+00
 -1      3276-3.20317E-03 2.39809E-02 0.00000E+00
 -1      3277-3.22577E-03 2.44211E-02 0.00000E+00
 -1      3278-2.95667E-03 2.39434E-02 0.00000E+00
 -1      3279-2.96629E-03 2.43843E-02 0.00000E+00
 -1      3280-2.69268E-03 2.39037E-02 0.00000E+00
 -1      3281-2.68835E-03 2.43454E-02 0.00000E+00
 -1      3282-2.41108E-03 2.38619E-02 0.00000E+00
 -1      3283-2.39172E-03 2.43049E-02 0.00000E+00
 -1      3284-2.11199E-03 2.38187E-02 0.00000E+00
 -1      3285-2.07634E-03 2.42634E-02 0.00000E+00
 -1      3286-1.79576E-03 2.37751E-02 0.00000E+00
 -1      3287-1.74230E-03 2.42219E-02 0.00000E+00
 -1      3288-1.46286E-03 2.37325E-02 0.00000E+00
 -1      3289-1.38976E-03 2.41821E-02 0.00000E+00
 -1      3290-1.11369E-03 2.36931E-02 0.00000E+00
 -1      3291-1.01869E-03 2.41461E-02 0.00000E+00
 -1      3292-7.48325E-04 2.36595E-02 0.00000E+00
 -1      3293-6.28593E-04 2.41168E-02 0.00000E+00
 -1      3294-3.66042E-04 2.36354E-02 0.00000E+00
 -1      3295-2.18004E-04 2.40981E-02 0.00000E+00
 -1      3296 3.52463E-05 2.36251E-02 0.00000E+00
 -1      3297 2.16186E-04 2.40943E-02 0.00000E+00
 -1      3298 4.59772E-04 2.36336E-02 0.00000E+00
 -1      3299 6.79617E-04 2.41109E-02 0.00000E+00
 -1      3300 9.14926E-04 2.36669E-02 0.00000E+00
 -1      3301 1.18169E-03 2.41544E-02 0.00000E+00
 -1      3302 1.41266E-03 2.37317E-02 0.00000E+00
 -1      3303 1.73731E-03 2.42319E-02 0.00000E+00
 -1      3304 1.97155E-03 2.38358E-02 0.00000E+00
 -1      3305 2.36951E-03 2.43522E-02 0.00000E+00
 -1      3306 2.62012E-03 2.39885E-02 0.00000E+00
 -1      3307 3.11370E-03 2.45256E-02 0.00000E+00
 -1      3308 3.40258E-03 2.42016E-02 0.00000E+00
 -1      3309 4.02508E-03 2.47643E-02 0.00000E+00
 -1      3310 4.38131E-03 2.44872E-02 0.00000E+00
 -1      3311 5.17400E-03 2.50774E-02 0.00000E+00
 -1      3312-4.12277E-03 2.37398E-02 0.00000E+00
 -1      3313-3.89090E-03 2.33267E-02 0.00000E+00
 -1      3314-3.96448E-03 2.37144E-02 0.00000E+00
 -1      3315-3.72724E-03 2.32993E-02 0.00000E+00
 -1      3316-3.79207E-03 2.36867E-02 0.00000E+00
 -1      3317-3.54951E-03 2.32694E-02 0.00000E+00
 -1      3318-3.60538E-03 2.36568E-02 0.00000E+00
 -1      3319-3.35721E-03 2.32370E-02 0.00000E+00
 -1      3320-3.40340E-03 2.36243E-02 0.00000E+00
 -1      3321-3.14959E-03 2.32019E-02 0.00000E+00
 -1      3322-3.18549E-03 2.35892E-02 0.00000E+00
 -1      3323-2.92623E-03 2.31640E-02 0.00000E+00
 -1      3324-2.95118E-03 2.35515E-02 0.00000E+00
 -1      3325-2.68693E-03 2.31232E-02 0.00000E+00
 -1      3326-2.70018E-03 2.35112E-02 0.00000E+00
 -1      3327-2.43176E-03 2.30799E-02 0.00000E+00
 -1      3328-2.43249E-03 2.34686E-02 0.00000E+00
 -1      3329-2.16114E-03 2.30344E-02 0.00000E+00
 -1      3330-2.14836E-03 2.34241E-02 0.00000E+00
 -1      3331-1.87578E-03 2.29876E-02 0.00000E+00
 -1      3332-1.84833E-03 2.33788E-02 0.00000E+00
 -1      3333-1.57668E-03 2.29407E-02 0.00000E+00
 -1      3334-1.53313E-03 2.33339E-02 0.00000E+00
 -1      3335-1.26493E-03 2.28957E-02 0.00000E+00
 -1      3336-1.20354E-03 2.32914E-02 0.00000E+00
 -1      3337-9.41530E-04 2.28551E-02 0.00000E+00
 -1      3338-8.60103E-04 2.32540E-02 0.00000E+00
 -1      3339-6.06947E-04 2.28222E-02 0.00000E+00
 -1      3340-5.02765E-04 2.32250E-02 0.00000E+00
 -1      3341-2.60687E-04 2.28009E-02 0.00000E+00
 -1      3342-1.30316E-04 2.32086E-02 0.00000E+00
 -1      3343 9.93153E-05 2.27958E-02 0.00000E+00
 -1      3344 2.60259E-04 2.32095E-02 0.00000E+00
 -1      3345 4.77408E-04 2.28121E-02 0.00000E+00
 -1      3346 6.74630E-04 2.32332E-02 0.00000E+00
 -1      3347 8.81111E-04 2.28553E-02 0.00000E+00
 -1      3348 1.12224E-03 2.32858E-02 0.00000E+00
 -1      3349 1.32236E-03 2.29318E-02 0.00000E+00
 -1      3350 1.61789E-03 2.33744E-02 0.00000E+00
 -1      3351 1.81941E-03 2.30488E-02 0.00000E+00
 -1      3352 2.18428E-03 2.35074E-02 0.00000E+00
 -1      3353 2.40008E-03 2.32156E-02 0.00000E+00
 -1      3354 2.85628E-03 2.36950E-02 0.00000E+00
 -1      3355 3.10757E-03 2.34443E-02 0.00000E+00
 -1      3356 3.68866E-03 2.39509E-02 0.00000E+00
 -1      3357 4.00417E-03 2.37488E-02 0.00000E+00
 -1      3358 4.75395E-03 2.42870E-02 0.00000E+00
 -1      3359-3.82613E-03 2.29796E-02 0.00000E+00
 -1      3360-3.60178E-03 2.26083E-02 0.00000E+00
 -1      3361-3.67079E-03 2.29527E-02 0.00000E+00
 -1      3362-3.44048E-03 2.25794E-02 0.00000E+00
 -1      3363-3.50159E-03 2.29233E-02 0.00000E+00
 -1      3364-3.26536E-03 2.25477E-02 0.00000E+00
 -1      3365-3.31844E-03 2.28913E-02 0.00000E+00
 -1      3366-3.07604E-03 2.25132E-02 0.00000E+00
 -1      3367-3.12053E-03 2.28564E-02 0.00000E+00
 -1      3368-2.87204E-03 2.24755E-02 0.00000E+00
 -1      3369-2.90743E-03 2.28186E-02 0.00000E+00
 -1      3370-2.65325E-03 2.24347E-02 0.00000E+00
 -1      3371-2.67901E-03 2.27777E-02 0.00000E+00
 -1      3372-2.41989E-03 2.23907E-02 0.00000E+00
 -1      3373-2.43540E-03 2.27341E-02 0.00000E+00
 -1      3374-2.17258E-03 2.23440E-02 0.00000E+00
 -1      3375-2.17711E-03 2.26879E-02 0.00000E+00
 -1      3376-1.91237E-03 2.22951E-02 0.00000E+00
 -1      3377-1.90501E-03 2.26400E-02 0.00000E+00
 -1      3378-1.64066E-03 2.22452E-02 0.00000E+00
 -1      3379-1.62032E-03 2.25915E-02 0.00000E+00
 -1      3380-1.35912E-03 2.21962E-02 0.00000E+00
 -1      3381-1.32440E-03 2.25443E-02 0.00000E+00
 -1      3382-1.06944E-03 2.21504E-02 0.00000E+00
 -1      3383-1.01863E-03 2.25008E-02 0.00000E+00
 -1      3384-7.73009E-04 2.21109E-02 0.00000E+00
 -1      3385-7.03947E-04 2.24642E-02 0.00000E+00
 -1      3386-4.70452E-04 2.20816E-02 0.00000E+00
 -1      3387-3.80493E-04 2.24384E-02 0.00000E+00
 -1      3388-1.61168E-04 2.20666E-02 0.00000E+00
 -1      3389-4.70226E-05 2.24276E-02 0.00000E+00
 -1      3390 1.57207E-04 2.20707E-02 0.00000E+00
 -1      3391 2.99680E-04 2.24369E-02 0.00000E+00
 -1      3392 4.89375E-04 2.20985E-02 0.00000E+00
 -1      3393 6.65522E-04 2.24712E-02 0.00000E+00
 -1      3394 8.43089E-04 2.21551E-02 0.00000E+00
 -1      3395 1.06004E-03 2.25363E-02 0.00000E+00
 -1      3396 1.23019E-03 2.22461E-02 0.00000E+00
 -1      3397 1.49784E-03 2.26385E-02 0.00000E+00
 -1      3398 1.66836E-03 2.23781E-02 0.00000E+00
 -1      3399 2.00092E-03 2.27857E-02 0.00000E+00
 -1      3400 2.18420E-03 2.25598E-02 0.00000E+00
 -1      3401 2.60295E-03 2.29882E-02 0.00000E+00
 -1      3402 2.81912E-03 2.28037E-02 0.00000E+00
 -1      3403 3.35722E-03 2.32607E-02 0.00000E+00
 -1      3404 3.63395E-03 2.31259E-02 0.00000E+00
 -1      3405 4.33662E-03 2.36180E-02 0.00000E+00
 -1      3406-3.54257E-03 2.22988E-02 0.00000E+00
 -1      3407-3.32614E-03 2.19620E-02 0.00000E+00
 -1      3408-3.38878E-03 2.22706E-02 0.00000E+00
 -1      3409-3.16559E-03 2.19317E-02 0.00000E+00
 -1      3410-3.22127E-03 2.22396E-02 0.00000E+00
 -1      3411-2.99133E-03 2.18983E-02 0.00000E+00
 -1      3412-3.04007E-03 2.22056E-02 0.00000E+00
 -1      3413-2.80323E-03 2.18616E-02 0.00000E+00
 -1      3414-2.84459E-03 2.21684E-02 0.00000E+00
 -1      3415-2.60112E-03 2.18214E-02 0.00000E+00
 -1      3416-2.63473E-03 2.21279E-02 0.00000E+00
 -1      3417-2.38533E-03 2.17777E-02 0.00000E+00
 -1      3418-2.41079E-03 2.20840E-02 0.00000E+00
 -1      3419-2.15665E-03 2.17305E-02 0.00000E+00
 -1      3420-2.17344E-03 2.20371E-02 0.00000E+00
 -1      3421-1.91640E-03 2.16806E-02 0.00000E+00
 -1      3422-1.92387E-03 2.19876E-02 0.00000E+00
 -1      3423-1.66637E-03 2.16288E-02 0.00000E+00
 -1      3424-1.66365E-03 2.19367E-02 0.00000E+00
 -1      3425-1.40872E-03 2.15770E-02 0.00000E+00
 -1      3426-1.39470E-03 2.18861E-02 0.00000E+00
 -1      3427-1.14576E-03 2.15273E-02 0.00000E+00
 -1      3428-1.11901E-03 2.18382E-02 0.00000E+00
 -1      3429-8.79587E-04 2.14831E-02 0.00000E+00
 -1      3430-8.38357E-04 2.17960E-02 0.00000E+00
 -1      3431-6.11686E-04 2.14479E-02 0.00000E+00
 -1      3432-5.53820E-04 2.17633E-02 0.00000E+00
 -1      3433-3.42461E-04 2.14260E-02 0.00000E+00
 -1      3434-2.65370E-04 2.17443E-02 0.00000E+00
 -1      3435-7.08243E-05 2.14215E-02 0.00000E+00
 -1      3436 2.86184E-05 2.17433E-02 0.00000E+00
 -1      3437 2.06184E-04 2.14389E-02 0.00000E+00
 -1      3438 3.31835E-04 2.17649E-02 0.00000E+00
 -1      3439 4.93774E-04 2.14821E-02 0.00000E+00
 -1      3440 6.50556E-04 2.18135E-02 0.00000E+00
 -1      3441 7.99907E-04 2.15553E-02 0.00000E+00
 -1      3442 9.94387E-04 2.18941E-02 0.00000E+00
 -1      3443 1.13616E-03 2.16631E-02 0.00000E+00
 -1      3444 1.37750E-03 2.20121E-02 0.00000E+00
 -1      3445 1.51931E-03 2.18113E-02 0.00000E+00
 -1      3446 1.82085E-03 2.21747E-02 0.00000E+00
 -1      3447 1.97434E-03 2.20083E-02 0.00000E+00
 -1      3448 2.35632E-03 2.23921E-02 0.00000E+00
 -1      3449 2.54016E-03 2.22668E-02 0.00000E+00
 -1      3450 3.03473E-03 2.26801E-02 0.00000E+00
 -1      3451 3.27497E-03 2.26050E-02 0.00000E+00
 -1      3452 3.92766E-03 2.30568E-02 0.00000E+00
 -1      3453-3.27417E-03 2.16831E-02 0.00000E+00
 -1      3454-3.06544E-03 2.13739E-02 0.00000E+00
 -1      3455-3.12022E-03 2.16538E-02 0.00000E+00
 -1      3456-2.90366E-03 2.13424E-02 0.00000E+00
 -1      3457-2.95254E-03 2.16213E-02 0.00000E+00
 -1      3458-2.72821E-03 2.13073E-02 0.00000E+00
 -1      3459-2.77138E-03 2.15854E-02 0.00000E+00
 -1      3460-2.53928E-03 2.12685E-02 0.00000E+00
 -1      3461-2.57645E-03 2.15459E-02 0.00000E+00
 -1      3462-2.33714E-03 2.12257E-02 0.00000E+00
 -1      3463-2.36810E-03 2.15026E-02 0.00000E+00
 -1      3464-2.12275E-03 2.11790E-02 0.00000E+00
 -1      3465-2.14720E-03 2.14556E-02 0.00000E+00
 -1      3466-1.89766E-03 2.11287E-02 0.00000E+00
 -1      3467-1.91518E-03 2.14055E-02 0.00000E+00
 -1      3468-1.66406E-03 2.10759E-02 0.00000E+00
 -1      3469-1.67399E-03 2.13532E-02 0.00000E+00
 -1      3470-1.42459E-03 2.10221E-02 0.00000E+00
 -1      3471-1.42603E-03 2.13003E-02 0.00000E+00
 -1      3472-1.18214E-03 2.09698E-02 0.00000E+00
 -1      3473-1.17389E-03 2.12491E-02 0.00000E+00
 -1      3474-9.39485E-04 2.09220E-02 0.00000E+00
 -1      3475-9.20003E-04 2.12029E-02 0.00000E+00
 -1      3476-6.98789E-04 2.08826E-02 0.00000E+00
 -1      3477-6.66217E-04 2.11652E-02 0.00000E+00
 -1      3478-4.61191E-04 2.08558E-02 0.00000E+00
 -1      3479-4.13354E-04 2.11403E-02 0.00000E+00
 -1      3480-2.26422E-04 2.08457E-02 0.00000E+00
 -1      3481-1.60808E-04 2.11323E-02 0.00000E+00
 -1      3482 7.44724E-06 2.08563E-02 0.00000E+00
 -1      3483 9.37611E-05 2.11454E-02 0.00000E+00
 -1      3484 2.44156E-04 2.08911E-02 0.00000E+00
 -1      3485 3.54686E-04 2.11834E-02 0.00000E+00
 -1      3486 4.89415E-04 2.09532E-02 0.00000E+00
 -1      3487 6.28609E-04 2.12497E-02 0.00000E+00
 -1      3488 7.51238E-04 2.10456E-02 0.00000E+00
 -1      3489 9.25040E-04 2.13482E-02 0.00000E+00
 -1      3490 1.04067E-03 2.11718E-02 0.00000E+00
 -1      3491 1.25745E-03 2.14835E-02 0.00000E+00
 -1      3492 1.37330E-03 2.13368E-02 0.00000E+00
 -1      3493 1.64540E-03 2.16620E-02 0.00000E+00
 -1      3494 1.77210E-03 2.15488E-02 0.00000E+00
 -1      3495 2.11851E-03 2.18940E-02 0.00000E+00
 -1      3496 2.27300E-03 2.18211E-02 0.00000E+00
 -1      3497 2.72436E-03 2.21963E-02 0.00000E+00
 -1      3498 2.93064E-03 2.21735E-02 0.00000E+00
 -1      3499 3.53172E-03 2.25902E-02 0.00000E+00
 -1      3500-3.02215E-03 2.11194E-02 0.00000E+00
 -1      3501-2.82035E-03 2.08317E-02 0.00000E+00
 -1      3502-2.86599E-03 2.10891E-02 0.00000E+00
 -1      3503-2.65499E-03 2.07990E-02 0.00000E+00
 -1      3504-2.69594E-03 2.10551E-02 0.00000E+00
 -1      3505-2.47592E-03 2.07622E-02 0.00000E+00
 -1      3506-2.51259E-03 2.10173E-02 0.00000E+00
 -1      3507-2.28382E-03 2.07211E-02 0.00000E+00
 -1      3508-2.31608E-03 2.09754E-02 0.00000E+00
 -1      3509-2.07963E-03 2.06756E-02 0.00000E+00
 -1      3510-2.10744E-03 2.09292E-02 0.00000E+00
 -1      3511-1.86517E-03 2.06258E-02 0.00000E+00
 -1      3512-1.88832E-03 2.08792E-02 0.00000E+00
 -1      3513-1.64300E-03 2.05726E-02 0.00000E+00
 -1      3514-1.66107E-03 2.08262E-02 0.00000E+00
 -1      3515-1.41632E-03 2.05176E-02 0.00000E+00
 -1      3516-1.42859E-03 2.07717E-02 0.00000E+00
 -1      3517-1.18866E-03 2.04632E-02 0.00000E+00
 -1      3518-1.19407E-03 2.07182E-02 0.00000E+00
 -1      3519-9.63465E-04 2.04128E-02 0.00000E+00
 -1      3520-9.60604E-04 2.06689E-02 0.00000E+00
 -1      3521-7.43566E-04 2.03703E-02 0.00000E+00
 -1      3522-7.30703E-04 2.06277E-02 0.00000E+00
 -1      3523-5.30681E-04 2.03402E-02 0.00000E+00
 -1      3524-5.05833E-04 2.05987E-02 0.00000E+00
 -1      3525-3.25063E-04 2.03266E-02 0.00000E+00
 -1      3526-2.86045E-04 2.05863E-02 0.00000E+00
 -1      3527-1.25339E-04 2.03334E-02 0.00000E+00
 -1      3528-6.97708E-05 2.05942E-02 0.00000E+00
 -1      3529 7.14745E-05 2.03636E-02 0.00000E+00
 -1      3530 1.46247E-04 2.06257E-02 0.00000E+00
 -1      3531 2.69888E-04 2.04196E-02 0.00000E+00
 -1      3532 3.66986E-04 2.06836E-02 0.00000E+00
 -1      3533 4.75931E-04 2.05032E-02 0.00000E+00
 -1      3534 5.99289E-04 2.07702E-02 0.00000E+00
 -1      3535 6.97392E-04 2.06163E-02 0.00000E+00
 -1      3536 8.52312E-04 2.08883E-02 0.00000E+00
 -1      3537 9.44507E-04 2.07616E-02 0.00000E+00
 -1      3538 1.13855E-03 2.10415E-02 0.00000E+00
 -1      3539 1.23140E-03 2.09434E-02 0.00000E+00
 -1      3540 1.47585E-03 2.12359E-02 0.00000E+00
 -1      3541 1.57880E-03 2.11697E-02 0.00000E+00
 -1      3542 1.89123E-03 2.14817E-02 0.00000E+00
 -1      3543 2.01934E-03 2.14544E-02 0.00000E+00
 -1      3544 2.42851E-03 2.17969E-02 0.00000E+00
 -1      3545 2.60343E-03 2.18192E-02 0.00000E+00
 -1      3546 3.15246E-03 2.22058E-02 0.00000E+00
 -1      3547-2.78708E-03 2.05958E-02 0.00000E+00
 -1      3548-2.59089E-03 2.03240E-02 0.00000E+00
 -1      3549-2.62620E-03 2.05646E-02 0.00000E+00
 -1      3550-2.41912E-03 2.02901E-02 0.00000E+00
 -1      3551-2.45118E-03 2.05292E-02 0.00000E+00
 -1      3552-2.23362E-03 2.02515E-02 0.00000E+00
 -1      3553-2.26306E-03 2.04893E-02 0.00000E+00
 -1      3554-2.03576E-03 2.02079E-02 0.00000E+00
 -1      3555-2.06270E-03 2.04447E-02 0.00000E+00
 -1      3556-1.82750E-03 2.01593E-02 0.00000E+00
 -1      3557-1.85203E-03 2.03955E-02 0.00000E+00
 -1      3558-1.61185E-03 2.01064E-02 0.00000E+00
 -1      3559-1.63380E-03 2.03425E-02 0.00000E+00
 -1      3560-1.39264E-03 2.00508E-02 0.00000E+00
 -1      3561-1.41148E-03 2.02871E-02 0.00000E+00
 -1      3562-1.17418E-03 1.99949E-02 0.00000E+00
 -1      3563-1.18897E-03 2.02319E-02 0.00000E+00
 -1      3564-9.60727E-04 1.99423E-02 0.00000E+00
 -1      3565-9.70085E-04 2.01802E-02 0.00000E+00
 -1      3566-7.55813E-04 1.98975E-02 0.00000E+00
 -1      3567-7.58011E-04 2.01363E-02 0.00000E+00
 -1      3568-5.61694E-04 1.98651E-02 0.00000E+00
 -1      3569-5.54763E-04 2.01046E-02 0.00000E+00
 -1      3570-3.78963E-04 1.98496E-02 0.00000E+00
 -1      3571-3.60817E-04 2.00895E-02 0.00000E+00
 -1      3572-2.06464E-04 1.98548E-02 0.00000E+00
 -1      3573-1.74983E-04 2.00947E-02 0.00000E+00
 -1      3574-4.14679E-05 1.98835E-02 0.00000E+00
 -1      3575 5.50935E-06 2.01233E-02 0.00000E+00
 -1      3576 1.20040E-04 1.99373E-02 0.00000E+00
 -1      3577 1.84825E-04 2.01771E-02 0.00000E+00
 -1      3578 2.83108E-04 2.00174E-02 0.00000E+00
 -1      3579 3.68385E-04 2.02578E-02 0.00000E+00
 -1      3580 4.53753E-04 2.01242E-02 0.00000E+00
 -1      3581 5.62934E-04 2.03664E-02 0.00000E+00
 -1      3582 6.39219E-04 2.02586E-02 0.00000E+00
 -1      3583 7.76977E-04 2.05047E-02 0.00000E+00
 -1      3584 8.48680E-04 2.04227E-02 0.00000E+00
 -1      3585 1.02178E-03 2.06757E-02 0.00000E+00
 -1      3586 1.09463E-03 2.06205E-02 0.00000E+00
 -1      3587 1.31328E-03 2.08852E-02 0.00000E+00
 -1      3588 1.39545E-03 2.08600E-02 0.00000E+00
 -1      3589 1.67573E-03 2.11438E-02 0.00000E+00
 -1      3590 1.78031E-03 2.11558E-02 0.00000E+00
 -1      3591 2.14885E-03 2.14703E-02 0.00000E+00
 -1      3592 2.29500E-03 2.15312E-02 0.00000E+00
 -1      3593 2.79252E-03 2.18919E-02 0.00000E+00
 -1      3594-2.56898E-03 2.01015E-02 0.00000E+00
 -1      3595-2.37658E-03 1.98403E-02 0.00000E+00
 -1      3596-2.40038E-03 2.00694E-02 0.00000E+00
 -1      3597-2.19499E-03 1.98051E-02 0.00000E+00
 -1      3598-2.21726E-03 2.00324E-02 0.00000E+00
 -1      3599-1.99972E-03 1.97644E-02 0.00000E+00
 -1      3600-2.02145E-03 1.99902E-02 0.00000E+00
 -1      3601-1.79331E-03 1.97179E-02 0.00000E+00
 -1      3602-1.81486E-03 1.99426E-02 0.00000E+00
 -1      3603-1.57916E-03 1.96660E-02 0.00000E+00
 -1      3604-1.60071E-03 1.98902E-02 0.00000E+00
 -1      3605-1.36192E-03 1.96102E-02 0.00000E+00
 -1      3606-1.38319E-03 1.98344E-02 0.00000E+00
 -1      3607-1.14689E-03 1.95531E-02 0.00000E+00
 -1      3608-1.16706E-03 1.97779E-02 0.00000E+00
 -1      3609-9.39379E-04 1.94986E-02 0.00000E+00
 -1      3610-9.57050E-04 1.97243E-02 0.00000E+00
 -1      3611-7.43814E-04 1.94518E-02 0.00000E+00
 -1      3612-7.57127E-04 1.96782E-02 0.00000E+00
 -1      3613-5.63035E-04 1.94178E-02 0.00000E+00
 -1      3614-5.69861E-04 1.96446E-02 0.00000E+00
 -1      3615-3.97856E-04 1.94016E-02 0.00000E+00
 -1      3616-3.96009E-04 1.96282E-02 0.00000E+00
 -1      3617-2.47073E-04 1.94071E-02 0.00000E+00
 -1      3618-2.34467E-04 1.96328E-02 0.00000E+00
 -1      3619-1.07810E-04 1.94368E-02 0.00000E+00
 -1      3620-8.25146E-05 1.96611E-02 0.00000E+00
 -1      3621 2.39697E-05 1.94919E-02 0.00000E+00
 -1      3622 6.37931E-05 1.97146E-02 0.00000E+00
 -1      3623 1.53002E-04 1.95725E-02 0.00000E+00
 -1      3624 2.09264E-04 1.97938E-02 0.00000E+00
 -1      3625 2.84461E-04 1.96783E-02 0.00000E+00
 -1      3626 3.59398E-04 1.98989E-02 0.00000E+00
 -1      3627 4.23969E-04 1.98087E-02 0.00000E+00
 -1      3628 5.20493E-04 2.00300E-02 0.00000E+00
 -1      3629 5.77940E-04 1.99640E-02 0.00000E+00
 -1      3630 7.00133E-04 2.01882E-02 0.00000E+00
 -1      3631 7.54318E-04 2.01459E-02 0.00000E+00
 -1      3632 9.08187E-04 2.03761E-02 0.00000E+00
 -1      3633 9.63908E-04 2.03583E-02 0.00000E+00
 -1      3634 1.15862E-03 2.05996E-02 0.00000E+00
 -1      3635 1.22274E-03 2.06096E-02 0.00000E+00
 -1      3636 1.47286E-03 2.08695E-02 0.00000E+00
 -1      3637 1.55655E-03 2.09149E-02 0.00000E+00
 -1      3638 1.88638E-03 2.12058E-02 0.00000E+00
 -1      3639 2.00626E-03 2.12993E-02 0.00000E+00
 -1      3640 2.45363E-03 2.16382E-02 0.00000E+00
 -1      3641-2.36752E-03 1.96261E-02 0.00000E+00
 -1      3642-2.17651E-03 1.93706E-02 0.00000E+00
 -1      3643-2.18747E-03 1.95932E-02 0.00000E+00
 -1      3644-1.98087E-03 1.93340E-02 0.00000E+00
 -1      3645-1.99251E-03 1.95544E-02 0.00000E+00
 -1      3646-1.77192E-03 1.92906E-02 0.00000E+00
 -1      3647-1.78570E-03 1.95094E-02 0.00000E+00
 -1      3648-1.55406E-03 1.92407E-02 0.00000E+00
 -1      3649-1.57055E-03 1.94585E-02 0.00000E+00
 -1      3650-1.33279E-03 1.91853E-02 0.00000E+00
 -1      3651-1.35214E-03 1.94028E-02 0.00000E+00
 -1      3652-1.11482E-03 1.91272E-02 0.00000E+00
 -1      3653-1.13638E-03 1.93452E-02 0.00000E+00
 -1      3654-9.06925E-04 1.90709E-02 0.00000E+00
 -1      3655-9.29248E-04 1.92898E-02 0.00000E+00
 -1      3656-7.14803E-04 1.90221E-02 0.00000E+00
 -1      3657-7.35761E-04 1.92417E-02 0.00000E+00
 -1      3658-5.42033E-04 1.89869E-02 0.00000E+00
 -1      3659-5.59143E-04 1.92068E-02 0.00000E+00
 -1      3660-3.89590E-04 1.89709E-02 0.00000E+00
 -1      3661-4.00348E-04 1.91901E-02 0.00000E+00
 -1      3662-2.55956E-04 1.89782E-02 0.00000E+00
 -1      3663-2.58101E-04 1.91957E-02 0.00000E+00
 -1      3664-1.37729E-04 1.90112E-02 0.00000E+00
 -1      3665-1.29356E-04 1.92261E-02 0.00000E+00
 -1      3666-3.04024E-05 1.90706E-02 0.00000E+00
 -1      3667-9.91896E-06 1.92823E-02 0.00000E+00
 -1      3668 7.09491E-05 1.91555E-02 0.00000E+00
 -1      3669 1.04975E-04 1.93640E-02 0.00000E+00
 -1      3670 1.71257E-04 1.92646E-02 0.00000E+00
 -1      3671 2.20316E-04 1.94703E-02 0.00000E+00
 -1      3672 2.75348E-04 1.93963E-02 0.00000E+00
 -1      3673 3.41253E-04 1.96002E-02 0.00000E+00
 -1      3674 3.88112E-04 1.95496E-02 0.00000E+00
 -1      3675 4.73328E-04 1.97532E-02 0.00000E+00
 -1      3676 5.14948E-04 1.97244E-02 0.00000E+00
 -1      3677 6.23028E-04 1.99301E-02 0.00000E+00
 -1      3678 6.62515E-04 1.99224E-02 0.00000E+00
 -1      3679 7.98766E-04 2.01335E-02 0.00000E+00
 -1      3680 8.39968E-04 2.01479E-02 0.00000E+00
 -1      3681 1.01256E-03 2.03694E-02 0.00000E+00
 -1      3682 1.06108E-03 2.04093E-02 0.00000E+00
 -1      3683 1.28306E-03 2.06491E-02 0.00000E+00
 -1      3684 1.34824E-03 2.07228E-02 0.00000E+00
 -1      3685 1.64154E-03 2.09937E-02 0.00000E+00
 -1      3686 1.73752E-03 2.11145E-02 0.00000E+00
 -1      3687 2.13670E-03 2.14350E-02 0.00000E+00
 -1      3688-2.18210E-03 1.91600E-02 0.00000E+00
 -1      3689-1.98938E-03 1.89049E-02 0.00000E+00
 -1      3690-1.98589E-03 1.91261E-02 0.00000E+00
 -1      3691-1.77432E-03 1.88665E-02 0.00000E+00
 -1      3692-1.77450E-03 1.90850E-02 0.00000E+00
 -1      3693-1.54713E-03 1.88198E-02 0.00000E+00
 -1      3694-1.55302E-03 1.90366E-02 0.00000E+00
 -1      3695-1.31506E-03 1.87658E-02 0.00000E+00
 -1      3696-1.32739E-03 1.89819E-02 0.00000E+00
 -1      3697-1.08665E-03 1.87071E-02 0.00000E+00
 -1      3698-1.10517E-03 1.89234E-02 0.00000E+00
 -1      3699-8.70901E-04 1.86487E-02 0.00000E+00
 -1      3700-8.94124E-04 1.88661E-02 0.00000E+00
 -1      3701-6.75438E-04 1.85976E-02 0.00000E+00
 -1      3702-7.00811E-04 1.88159E-02 0.00000E+00
 -1      3703-5.04957E-04 1.85611E-02 0.00000E+00
 -1      3704-5.29369E-04 1.87797E-02 0.00000E+00
 -1      3705-3.60568E-04 1.85460E-02 0.00000E+00
 -1      3706-3.80913E-04 1.87636E-02 0.00000E+00
 -1      3707-2.40123E-04 1.85567E-02 0.00000E+00
 -1      3708-2.53723E-04 1.87717E-02 0.00000E+00
 -1      3709-1.39229E-04 1.85954E-02 0.00000E+00
 -1      3710-1.44016E-04 1.88066E-02 0.00000E+00
 -1      3711-5.24373E-05 1.86620E-02 0.00000E+00
 -1      3712-4.69045E-05 1.88685E-02 0.00000E+00
 -1      3713 2.58066E-05 1.87548E-02 0.00000E+00
 -1      3714 4.27921E-05 1.89562E-02 0.00000E+00
 -1      3715 1.00626E-04 1.88713E-02 0.00000E+00
 -1      3716 1.30060E-04 1.90678E-02 0.00000E+00
 -1      3717 1.76555E-04 1.90089E-02 0.00000E+00
 -1      3718 2.19539E-04 1.92013E-02 0.00000E+00
 -1      3719 2.57669E-04 1.91655E-02 0.00000E+00
 -1      3720 3.15660E-04 1.93552E-02 0.00000E+00
 -1      3721 3.47920E-04 1.93400E-02 0.00000E+00
 -1      3722 4.23004E-04 1.95286E-02 0.00000E+00
 -1      3723 4.51634E-04 1.95323E-02 0.00000E+00
 -1      3724 5.46902E-04 1.97224E-02 0.00000E+00
 -1      3725 5.74232E-04 1.97445E-02 0.00000E+00
 -1      3726 6.94355E-04 1.99395E-02 0.00000E+00
 -1      3727 7.23329E-04 1.99810E-02 0.00000E+00
 -1      3728 8.75538E-04 2.01861E-02 0.00000E+00
 -1      3729 9.10593E-04 2.02511E-02 0.00000E+00
 -1      3730 1.10647E-03 2.04741E-02 0.00000E+00
 -1      3731 1.15525E-03 2.05712E-02 0.00000E+00
 -1      3732 1.41433E-03 2.08255E-02 0.00000E+00
 -1      3733 1.48861E-03 2.09689E-02 0.00000E+00
 -1      3734 1.84200E-03 2.12740E-02 0.00000E+00
 -1      3735-2.01196E-03 1.86928E-02 0.00000E+00
 -1      3736-1.81342E-03 1.84327E-02 0.00000E+00
 -1      3737-1.79344E-03 1.86579E-02 0.00000E+00
 -1      3738-1.57199E-03 1.83919E-02 0.00000E+00
 -1      3739-1.55992E-03 1.86138E-02 0.00000E+00
 -1      3740-1.32125E-03 1.83409E-02 0.00000E+00
 -1      3741-1.31989E-03 1.85612E-02 0.00000E+00
 -1      3742-1.07306E-03 1.82823E-02 0.00000E+00
 -1      3743-1.08293E-03 1.85024E-02 0.00000E+00
 -1      3744-8.39840E-04 1.82216E-02 0.00000E+00
 -1      3745-8.59581E-04 1.84428E-02 0.00000E+00
 -1      3746-6.32432E-04 1.81674E-02 0.00000E+00
 -1      3747-6.58891E-04 1.83901E-02 0.00000E+00
 -1      3748-4.57416E-04 1.81292E-02 0.00000E+00
 -1      3749-4.86442E-04 1.83524E-02 0.00000E+00
 -1      3750-3.16094E-04 1.81153E-02 0.00000E+00
 -1      3751-3.43528E-04 1.83373E-02 0.00000E+00
 -1      3752-2.05206E-04 1.81311E-02 0.00000E+00
 -1      3753-2.27610E-04 1.83496E-02 0.00000E+00
 -1      3754-1.18698E-04 1.81782E-02 0.00000E+00
 -1      3755-1.33626E-04 1.83913E-02 0.00000E+00
 -1      3756-4.95586E-05 1.82556E-02 0.00000E+00
 -1      3757-5.54650E-05 1.84620E-02 0.00000E+00
 -1      3758 8.86496E-06 1.83601E-02 0.00000E+00
 -1      3759 1.29154E-05 1.85594E-02 0.00000E+00
 -1      3760 6.22393E-05 1.84881E-02 0.00000E+00
 -1      3761 7.68816E-05 1.86804E-02 0.00000E+00
 -1      3762 1.15130E-04 1.86360E-02 0.00000E+00
 -1      3763 1.40970E-04 1.88221E-02 0.00000E+00
 -1      3764 1.71198E-04 1.88007E-02 0.00000E+00
 -1      3765 2.09029E-04 1.89816E-02 0.00000E+00
 -1      3766 2.33542E-04 1.89801E-02 0.00000E+00
 -1      3767 2.84546E-04 1.91575E-02 0.00000E+00
 -1      3768 3.05123E-04 1.91732E-02 0.00000E+00
 -1      3769 3.71084E-04 1.93492E-02 0.00000E+00
 -1      3770 3.89252E-04 1.93807E-02 0.00000E+00
 -1      3771 4.72866E-04 1.95577E-02 0.00000E+00
 -1      3772 4.90231E-04 1.96048E-02 0.00000E+00
 -1      3773 5.95595E-04 1.97863E-02 0.00000E+00
 -1      3774 6.14293E-04 1.98506E-02 0.00000E+00
 -1      3775 7.47757E-04 2.00419E-02 0.00000E+00
 -1      3776 7.71184E-04 2.01277E-02 0.00000E+00
 -1      3777 9.42926E-04 2.03368E-02 0.00000E+00
 -1      3778 9.77174E-04 2.04532E-02 0.00000E+00
 -1      3779 1.20439E-03 2.06938E-02 0.00000E+00
 -1      3780 1.25900E-03 2.08556E-02 0.00000E+00
 -1      3781 1.56927E-03 2.11480E-02 0.00000E+00
 -1      3782-1.85624E-03 1.82137E-02 0.00000E+00
 -1      3783-1.64629E-03 1.79420E-02 0.00000E+00
 -1      3784-1.60706E-03 1.81773E-02 0.00000E+00
 -1      3785-1.36915E-03 1.78977E-02 0.00000E+00
 -1      3786-1.34429E-03 1.81291E-02 0.00000E+00
 -1      3787-1.08908E-03 1.78410E-02 0.00000E+00
 -1      3788-1.08211E-03 1.80712E-02 0.00000E+00
 -1      3789-8.25046E-04 1.77780E-02 0.00000E+00
 -1      3790-8.35270E-04 1.80093E-02 0.00000E+00
 -1      3791-5.93576E-04 1.77195E-02 0.00000E+00
 -1      3792-6.17120E-04 1.79529E-02 0.00000E+00
 -1      3793-4.04865E-04 1.76785E-02 0.00000E+00
 -1      3794-4.35843E-04 1.79130E-02 0.00000E+00
 -1      3795-2.60656E-04 1.76662E-02 0.00000E+00
 -1      3796-2.93064E-04 1.78993E-02 0.00000E+00
 -1      3797-1.55760E-04 1.76889E-02 0.00000E+00
 -1      3798-1.84823E-04 1.79174E-02 0.00000E+00
 -1      3799-8.13208E-05 1.77479E-02 0.00000E+00
 -1      3800-1.03923E-04 1.79690E-02 0.00000E+00
 -1      3801-2.78296E-05 1.78404E-02 0.00000E+00
 -1      3802-4.22725E-05 1.80524E-02 0.00000E+00
 -1      3803 1.30618E-05 1.79615E-02 0.00000E+00
 -1      3804 7.55245E-06 1.81637E-02 0.00000E+00
 -1      3805 4.78922E-05 1.81059E-02 0.00000E+00
 -1      3806 5.16378E-05 1.82985E-02 0.00000E+00
 -1      3807 8.14625E-05 1.82686E-02 0.00000E+00
 -1      3808 9.46747E-05 1.84526E-02 0.00000E+00
 -1      3809 1.17220E-04 1.84459E-02 0.00000E+00
 -1      3810 1.40225E-04 1.86225E-02 0.00000E+00
 -1      3811 1.57718E-04 1.86349E-02 0.00000E+00
 -1      3812 1.91109E-04 1.88057E-02 0.00000E+00
 -1      3813 2.05055E-04 1.88341E-02 0.00000E+00
 -1      3814 2.49824E-04 1.90010E-02 0.00000E+00
 -1      3815 2.61283E-04 1.90431E-02 0.00000E+00
 -1      3816 3.18983E-04 1.92082E-02 0.00000E+00
 -1      3817 3.28836E-04 1.92631E-02 0.00000E+00
 -1      3818 4.01826E-04 1.94291E-02 0.00000E+00
 -1      3819 4.11055E-04 1.94970E-02 0.00000E+00
 -1      3820 5.02913E-04 1.96674E-02 0.00000E+00
 -1      3821 5.12958E-04 1.97503E-02 0.00000E+00
 -1      3822 6.29216E-04 1.99303E-02 0.00000E+00
 -1      3823 6.42562E-04 2.00330E-02 0.00000E+00
 -1      3824 7.92068E-04 2.02307E-02 0.00000E+00
 -1      3825 8.13400E-04 2.03628E-02 0.00000E+00
 -1      3826 1.01109E-03 2.05920E-02 0.00000E+00
 -1      3827 1.04788E-03 2.07689E-02 0.00000E+00
 -1      3828 1.31787E-03 2.10508E-02 0.00000E+00
 -1      3829-1.71404E-03 1.77094E-02 0.00000E+00
 -1      3830-1.48461E-03 1.74175E-02 0.00000E+00
 -1      3831-1.42234E-03 1.76707E-02 0.00000E+00
 -1      3832-1.15888E-03 1.73679E-02 0.00000E+00
 -1      3833-1.12143E-03 1.76167E-02 0.00000E+00
 -1      3834-8.44291E-04 1.73041E-02 0.00000E+00
 -1      3835-8.35123E-04 1.75530E-02 0.00000E+00
 -1      3836-5.69846E-04 1.72397E-02 0.00000E+00
 -1      3837-5.84569E-04 1.74915E-02 0.00000E+00
 -1      3838-3.53443E-04 1.71937E-02 0.00000E+00
 -1      3839-3.83271E-04 1.74479E-02 0.00000E+00
 -1      3840-1.98214E-04 1.71827E-02 0.00000E+00
 -1      3841-2.33723E-04 1.74355E-02 0.00000E+00
 -1      3842-9.54776E-05 1.72152E-02 0.00000E+00
 -1      3843-1.29462E-04 1.74616E-02 0.00000E+00
 -1      3844-3.14207E-05 1.72910E-02 0.00000E+00
 -1      3845-5.96101E-05 1.75272E-02 0.00000E+00
 -1      3846 7.56182E-06 1.74048E-02 0.00000E+00
 -1      3847-1.28841E-05 1.76283E-02 0.00000E+00
 -1      3848 3.23568E-05 1.75488E-02 0.00000E+00
 -1      3849 2.02339E-05 1.77591E-02 0.00000E+00
 -1      3850 5.07086E-05 1.77155E-02 0.00000E+00
 -1      3851 4.68838E-05 1.79130E-02 0.00000E+00
 -1      3852 6.77518E-05 1.78986E-02 0.00000E+00
 -1      3853 7.20667E-05 1.80846E-02 0.00000E+00
 -1      3854 8.67732E-05 1.80933E-02 0.00000E+00
 -1      3855 9.91828E-05 1.82694E-02 0.00000E+00
 -1      3856 1.09891E-04 1.82965E-02 0.00000E+00
 -1      3857 1.30586E-04 1.84646E-02 0.00000E+00
 -1      3858 1.38583E-04 1.85063E-02 0.00000E+00
 -1      3859 1.68061E-04 1.86681E-02 0.00000E+00
 -1      3860 1.74081E-04 1.87219E-02 0.00000E+00
 -1      3861 2.13222E-04 1.88796E-02 0.00000E+00
 -1      3862 2.17701E-04 1.89438E-02 0.00000E+00
 -1      3863 2.67880E-04 1.90997E-02 0.00000E+00
 -1      3864 2.71171E-04 1.91739E-02 0.00000E+00
 -1      3865 3.34456E-04 1.93306E-02 0.00000E+00
 -1      3866 3.37030E-04 1.94155E-02 0.00000E+00
 -1      3867 4.16531E-04 1.95765E-02 0.00000E+00
 -1      3868 4.19251E-04 1.96747E-02 0.00000E+00
 -1      3869 5.19738E-04 1.98452E-02 0.00000E+00
 -1      3870 5.24298E-04 1.99617E-02 0.00000E+00
 -1      3871 6.53371E-04 2.01500E-02 0.00000E+00
 -1      3872 6.63195E-04 2.02948E-02 0.00000E+00
 -1      3873 8.33656E-04 2.05147E-02 0.00000E+00
 -1      3874 8.54312E-04 2.07037E-02 0.00000E+00
 -1      3875 1.08687E-03 2.09769E-02 0.00000E+00
 -1      3876-1.58446E-03 1.71621E-02 0.00000E+00
 -1      3877-1.32300E-03 1.68378E-02 0.00000E+00
 -1      3878-1.23247E-03 1.71200E-02 0.00000E+00
 -1      3879-9.30719E-04 1.67797E-02 0.00000E+00
 -1      3880-8.82876E-04 1.70576E-02 0.00000E+00
 -1      3881-5.80509E-04 1.67086E-02 0.00000E+00
 -1      3882-5.75496E-04 1.69897E-02 0.00000E+00
 -1      3883-3.11822E-04 1.66540E-02 0.00000E+00
 -1      3884-3.35878E-04 1.69394E-02 0.00000E+00
 -1      3885-1.32596E-04 1.66434E-02 0.00000E+00
 -1      3886-1.69361E-04 1.69278E-02 0.00000E+00
 -1      3887-2.73893E-05 1.66897E-02 0.00000E+00
 -1      3888-6.48554E-05 1.69653E-02 0.00000E+00
 -1      3889 2.71724E-05 1.67904E-02 0.00000E+00
 -1      3890-4.69610E-06 1.70509E-02 0.00000E+00
 -1      3891 5.17749E-05 1.69349E-02 0.00000E+00
 -1      3892 2.77751E-05 1.71773E-02 0.00000E+00
 -1      3893 6.11183E-05 1.71109E-02 0.00000E+00
 -1      3894 4.52163E-05 1.73349E-02 0.00000E+00
 -1      3895 6.44617E-05 1.73080E-02 0.00000E+00
 -1      3896 5.61594E-05 1.75148E-02 0.00000E+00
 -1      3897 6.72227E-05 1.75182E-02 0.00000E+00
 -1      3898 6.59533E-05 1.77099E-02 0.00000E+00
 -1      3899 7.24244E-05 1.77361E-02 0.00000E+00
 -1      3900 7.78156E-05 1.79150E-02 0.00000E+00
 -1      3901 8.17160E-05 1.79584E-02 0.00000E+00
 -1      3902 9.36696E-05 1.81267E-02 0.00000E+00
 -1      3903 9.60279E-05 1.81831E-02 0.00000E+00
 -1      3904 1.14734E-04 1.83431E-02 0.00000E+00
 -1      3905 1.15984E-04 1.84096E-02 0.00000E+00
 -1      3906 1.41929E-04 1.85634E-02 0.00000E+00
 -1      3907 1.42177E-04 1.86382E-02 0.00000E+00
 -1      3908 1.76181E-04 1.87880E-02 0.00000E+00
 -1      3909 1.75384E-04 1.88702E-02 0.00000E+00
 -1      3910 2.18683E-04 1.90182E-02 0.00000E+00
 -1      3911 2.16793E-04 1.91080E-02 0.00000E+00
 -1      3912 2.71200E-04 1.92569E-02 0.00000E+00
 -1      3913 2.68296E-04 1.93555E-02 0.00000E+00
 -1      3914 3.36490E-04 1.95088E-02 0.00000E+00
 -1      3915 3.32961E-04 1.96191E-02 0.00000E+00
 -1      3916 4.19009E-04 1.97819E-02 0.00000E+00
 -1      3917 4.15867E-04 1.99094E-02 0.00000E+00
 -1      3918 5.26203E-04 2.00899E-02 0.00000E+00
 -1      3919 5.25744E-04 2.02449E-02 0.00000E+00
 -1      3920 6.71162E-04 2.04572E-02 0.00000E+00
 -1      3921 6.77210E-04 2.06558E-02 0.00000E+00
 -1      3922 8.75192E-04 2.09220E-02 0.00000E+00
 -1      3923-1.46688E-03 1.65457E-02 0.00000E+00
 -1      3924-1.15144E-03 1.61670E-02 0.00000E+00
 -1      3925-1.02592E-03 1.64973E-02 0.00000E+00
 -1      3926-6.68246E-04 1.60964E-02 0.00000E+00
 -1      3927-6.18003E-04 1.64241E-02 0.00000E+00
 -1      3928-2.96215E-04 1.60269E-02 0.00000E+00
 -1      3929-3.05308E-04 1.63621E-02 0.00000E+00
 -1      3930-6.83008E-05 1.60139E-02 0.00000E+00
 -1      3931-1.04008E-04 1.63498E-02 0.00000E+00
 -1      3932 4.58509E-05 1.60820E-02 0.00000E+00
 -1      3933 6.22311E-06 1.64039E-02 0.00000E+00
 -1      3934 9.04753E-05 1.62220E-02 0.00000E+00
 -1      3935 5.70509E-05 1.65200E-02 0.00000E+00
 -1      3936 9.94870E-05 1.64130E-02 0.00000E+00
 -1      3937 7.47812E-05 1.66837E-02 0.00000E+00
 -1      3938 9.33100E-05 1.66351E-02 0.00000E+00
 -1      3939 7.68034E-05 1.68794E-02 0.00000E+00
 -1      3940 8.28335E-05 1.68739E-02 0.00000E+00
 -1      3941 7.33030E-05 1.70948E-02 0.00000E+00
 -1      3942 7.34186E-05 1.71201E-02 0.00000E+00
 -1      3943 6.98115E-05 1.73211E-02 0.00000E+00
 -1      3944 6.75177E-05 1.73681E-02 0.00000E+00
 -1      3945 6.91681E-05 1.75526E-02 0.00000E+00
 -1      3946 6.61449E-05 1.76148E-02 0.00000E+00
 -1      3947 7.27624E-05 1.77861E-02 0.00000E+00
 -1      3948 6.96559E-05 1.78590E-02 0.00000E+00
 -1      3949 8.12626E-05 1.80197E-02 0.00000E+00
 -1      3950 7.81557E-05 1.81004E-02 0.00000E+00
 -1      3951 9.50361E-05 1.82530E-02 0.00000E+00
 -1      3952 9.17220E-05 1.83397E-02 0.00000E+00
 -1      3953 1.14404E-04 1.84863E-02 0.00000E+00
 -1      3954 1.10546E-04 1.85781E-02 0.00000E+00
 -1      3955 1.39819E-04 1.87209E-02 0.00000E+00
 -1      3956 1.35049E-04 1.88175E-02 0.00000E+00
 -1      3957 1.72032E-04 1.89588E-02 0.00000E+00
 -1      3958 1.66024E-04 1.90610E-02 0.00000E+00
 -1      3959 2.12298E-04 1.92034E-02 0.00000E+00
 -1      3960 2.04837E-04 1.93128E-02 0.00000E+00
 -1      3961 2.62686E-04 1.94597E-02 0.00000E+00
 -1      3962 2.53777E-04 1.95796E-02 0.00000E+00
 -1      3963 3.26617E-04 1.97361E-02 0.00000E+00
 -1      3964 3.16682E-04 1.98723E-02 0.00000E+00
 -1      3965 4.09868E-04 2.00465E-02 0.00000E+00
 -1      3966 4.00192E-04 2.02095E-02 0.00000E+00
 -1      3967 5.22642E-04 2.04156E-02 0.00000E+00
 -1      3968 5.15464E-04 2.06219E-02 0.00000E+00
 -1      3969 6.81618E-04 2.08824E-02 0.00000E+00
 -1      3970-1.35945E-03 1.58137E-02 0.00000E+00
 -1      3971-9.49644E-04 1.53425E-02 0.00000E+00
 -1      3972-7.80998E-04 1.57541E-02 0.00000E+00
 -1      3973-3.49638E-04 1.52543E-02 0.00000E+00
 -1      3974-3.17235E-04 1.56733E-02 0.00000E+00
 -1      3975-1.28858E-05 1.52306E-02 0.00000E+00
 -1      3976-4.30890E-05 1.56560E-02 0.00000E+00
 -1      3977 1.21025E-04 1.53388E-02 0.00000E+00
 -1      3978 8.10899E-05 1.57381E-02 0.00000E+00
 -1      3979 1.52661E-04 1.55484E-02 0.00000E+00
 -1      3980 1.21098E-04 1.59049E-02 0.00000E+00
 -1      3981 1.43123E-04 1.58148E-02 0.00000E+00
 -1      3982 1.22033E-04 1.61267E-02 0.00000E+00
 -1      3983 1.21085E-04 1.61059E-02 0.00000E+00
 -1      3984 1.08303E-04 1.63783E-02 0.00000E+00
 -1      3985 9.83871E-05 1.64033E-02 0.00000E+00
 -1      3986 9.16002E-05 1.66430E-02 0.00000E+00
 -1      3987 7.94225E-05 1.66974E-02 0.00000E+00
 -1      3988 7.70633E-05 1.69109E-02 0.00000E+00
 -1      3989 6.55028E-05 1.69840E-02 0.00000E+00
 -1      3990 6.67196E-05 1.71766E-02 0.00000E+00
 -1      3991 5.67444E-05 1.72615E-02 0.00000E+00
 -1      3992 6.12007E-05 1.74377E-02 0.00000E+00
 -1      3993 5.28596E-05 1.75299E-02 0.00000E+00
 -1      3994 6.05642E-05 1.76932E-02 0.00000E+00
 -1      3995 5.34841E-05 1.77902E-02 0.00000E+00
 -1      3996 6.46814E-05 1.79435E-02 0.00000E+00
 -1      3997 5.83151E-05 1.80437E-02 0.00000E+00
 -1      3998 7.34280E-05 1.81893E-02 0.00000E+00
 -1      3999 6.71748E-05 1.82920E-02 0.00000E+00
 -1      4000 8.67892E-05 1.84322E-02 0.00000E+00
 -1      4001 8.00541E-05 1.85372E-02 0.00000E+00
 -1      4002 1.04939E-04 1.86740E-02 0.00000E+00
 -1      4003 9.71620E-05 1.87818E-02 0.00000E+00
 -1      4004 1.28330E-04 1.89174E-02 0.00000E+00
 -1      4005 1.19005E-04 1.90292E-02 0.00000E+00
 -1      4006 1.57822E-04 1.91661E-02 0.00000E+00
 -1      4007 1.46520E-04 1.92839E-02 0.00000E+00
 -1      4008 1.94906E-04 1.94255E-02 0.00000E+00
 -1      4009 1.81317E-04 1.95529E-02 0.00000E+00
 -1      4010 2.42087E-04 1.97043E-02 0.00000E+00
 -1      4011 2.26124E-04 1.98472E-02 0.00000E+00
 -1      4012 3.03633E-04 2.00164E-02 0.00000E+00
 -1      4013 2.85676E-04 2.01856E-02 0.00000E+00
 -1      4014 3.87107E-04 2.03868E-02 0.00000E+00
 -1      4015 3.67951E-04 2.05991E-02 0.00000E+00
 -1      4016 5.04905E-04 2.08549E-02 0.00000E+00
 -1      4017-1.27512E-03 1.48744E-02 0.00000E+00
 -1      4018-6.44430E-04 1.41799E-02 0.00000E+00
 -1      4019-4.53839E-04 1.47873E-02 0.00000E+00
 -1      4020 1.27811E-05 1.41412E-02 0.00000E+00
 -1      4021 2.12828E-06 1.47537E-02 0.00000E+00
 -1      4022 1.89539E-04 1.43505E-02 0.00000E+00
 -1      4023 1.55070E-04 1.48934E-02 0.00000E+00
 -1      4024 2.00075E-04 1.47072E-02 0.00000E+00
 -1      4025 1.78971E-04 1.51570E-02 0.00000E+00
 -1      4026 1.68326E-04 1.51076E-02 0.00000E+00
 -1      4027 1.59452E-04 1.54777E-02 0.00000E+00
 -1      4028 1.31974E-04 1.55065E-02 0.00000E+00
 -1      4029 1.30052E-04 1.58151E-02 0.00000E+00
 -1      4030 1.00930E-04 1.58870E-02 0.00000E+00
 -1      4031 1.02493E-04 1.61496E-02 0.00000E+00
 -1      4032 7.68727E-05 1.62447E-02 0.00000E+00
 -1      4033 8.02044E-05 1.64728E-02 0.00000E+00
 -1      4034 5.92647E-05 1.65801E-02 0.00000E+00
 -1      4035 6.37172E-05 1.67822E-02 0.00000E+00
 -1      4036 4.71334E-05 1.68953E-02 0.00000E+00
 -1      4037 5.26368E-05 1.70775E-02 0.00000E+00
 -1      4038 3.95751E-05 1.71930E-02 0.00000E+00
 -1      4039 4.63615E-05 1.73600E-02 0.00000E+00
 -1      4040 3.58680E-05 1.74760E-02 0.00000E+00
 -1      4041 4.43296E-05 1.76311E-02 0.00000E+00
 -1      4042 3.54771E-05 1.77468E-02 0.00000E+00
 -1      4043 4.61003E-05 1.78929E-02 0.00000E+00
 -1      4044 3.80343E-05 1.80081E-02 0.00000E+00
 -1      4045 5.13772E-05 1.81473E-02 0.00000E+00
 -1      4046 4.33226E-05 1.82622E-02 0.00000E+00
 -1      4047 6.00215E-05 1.83966E-02 0.00000E+00
 -1      4048 5.12729E-05 1.85117E-02 0.00000E+00
 -1      4049 7.20719E-05 1.86433E-02 0.00000E+00
 -1      4050 6.19789E-05 1.87596E-02 0.00000E+00
 -1      4051 8.77857E-05 1.88903E-02 0.00000E+00
 -1      4052 7.57373E-05 1.90095E-02 0.00000E+00
 -1      4053 1.07717E-04 1.91418E-02 0.00000E+00
 -1      4054 9.31278E-05 1.92660E-02 0.00000E+00
 -1      4055 1.32860E-04 1.94033E-02 0.00000E+00
 -1      4056 1.15162E-04 1.95364E-02 0.00000E+00
 -1      4057 1.64909E-04 1.96836E-02 0.00000E+00
 -1      4058 1.43566E-04 1.98317E-02 0.00000E+00
 -1      4059 2.06763E-04 1.99968E-02 0.00000E+00
 -1      4060 1.81345E-04 2.01709E-02 0.00000E+00
 -1      4061 2.63575E-04 2.03681E-02 0.00000E+00
 -1      4062 2.33568E-04 2.05849E-02 0.00000E+00
 -1      4063 3.43803E-04 2.08370E-02 0.00000E+00
 -1      4064-1.17796E-03 1.33573E-02 0.00000E+00
 -1      4065-1.51780E-04 1.21550E-02 0.00000E+00
 -1      4066-2.12898E-05 1.33533E-02 0.00000E+00
 -1      4067 1.93421E-04 1.28699E-02 0.00000E+00
 -1      4068 2.05270E-04 1.37023E-02 0.00000E+00
 -1      4069 1.87230E-04 1.36025E-02 0.00000E+00
 -1      4070 2.05990E-04 1.41947E-02 0.00000E+00
 -1      4071 1.42141E-04 1.42577E-02 0.00000E+00
 -1      4072 1.65543E-04 1.46999E-02 0.00000E+00
 -1      4073 1.03561E-04 1.48265E-02 0.00000E+00
 -1      4074 1.25435E-04 1.51736E-02 0.00000E+00
 -1      4075 7.51410E-05 1.53229E-02 0.00000E+00
 -1      4076 9.35317E-05 1.56073E-02 0.00000E+00
 -1      4077 5.48537E-05 1.57622E-02 0.00000E+00
 -1      4078 6.97080E-05 1.60035E-02 0.00000E+00
 -1      4079 4.05259E-05 1.61568E-02 0.00000E+00
 -1      4080 5.25099E-05 1.63673E-02 0.00000E+00
 -1      4081 3.05686E-05 1.65162E-02 0.00000E+00
 -1      4082 4.05352E-05 1.67040E-02 0.00000E+00
 -1      4083 2.38939E-05 1.68476E-02 0.00000E+00
 -1      4084 3.26960E-05 1.70181E-02 0.00000E+00
 -1      4085 1.97632E-05 1.71565E-02 0.00000E+00
 -1      4086 2.81959E-05 1.73138E-02 0.00000E+00
 -1      4087 1.76738E-05 1.74474E-02 0.00000E+00
 -1      4088 2.64690E-05 1.75945E-02 0.00000E+00
 -1      4089 1.72848E-05 1.77240E-02 0.00000E+00
 -1      4090 2.71260E-05 1.78632E-02 0.00000E+00
 -1      4091 1.83727E-05 1.79894E-02 0.00000E+00
 -1      4092 2.99181E-05 1.81227E-02 0.00000E+00
 -1      4093 2.08065E-05 1.82465E-02 0.00000E+00
 -1      4094 3.47191E-05 1.83758E-02 0.00000E+00
 -1      4095 2.45366E-05 1.84984E-02 0.00000E+00
 -1      4096 4.15227E-05 1.86254E-02 0.00000E+00
 -1      4097 2.95975E-05 1.87480E-02 0.00000E+00
 -1      4098 5.04590E-05 1.88746E-02 0.00000E+00
 -1      4099 3.61242E-05 1.89991E-02 0.00000E+00
 -1      4100 6.18345E-05 1.91277E-02 0.00000E+00
 -1      4101 4.43888E-05 1.92567E-02 0.00000E+00
 -1      4102 7.62118E-05 1.93904E-02 0.00000E+00
 -1      4103 5.48708E-05 1.95278E-02 0.00000E+00
 -1      4104 9.45581E-05 1.96715E-02 0.00000E+00
 -1      4105 6.83907E-05 1.98236E-02 0.00000E+00
 -1      4106 1.18533E-04 1.99854E-02 0.00000E+00
 -1      4107 8.63797E-05 2.01632E-02 0.00000E+00
 -1      4108 1.51092E-04 2.03572E-02 0.00000E+00
 -1      4109 1.11254E-04 2.05776E-02 0.00000E+00
 -1      4110 1.97089E-04 2.08266E-02 0.00000E+00
 -1      4111-5.47206E-04 1.07079E-02 0.00000E+00
 -1      4112 0.00000E+00 1.09419E-02 0.00000E+00
 -1      4113 9.89630E-05 1.18693E-02 0.00000E+00
 -1      4114 0.00000E+00 1.22829E-02 0.00000E+00
 -1      4115 1.20977E-04 1.29346E-02 0.00000E+00
 -1      4116 0.00000E+00 1.33151E-02 0.00000E+00
 -1      4117 9.16139E-05 1.37782E-02 0.00000E+00
 -1      4118 0.00000E+00 1.41028E-02 0.00000E+00
 -1      4119 6.48677E-05 1.44573E-02 0.00000E+00
 -1      4120 0.00000E+00 1.47354E-02 0.00000E+00
 -1      4121 4.61613E-05 1.50229E-02 0.00000E+00
 -1      4122 0.00000E+00 1.52655E-02 0.00000E+00
 -1      4123 3.31750E-05 1.55086E-02 0.00000E+00
 -1      4124 0.00000E+00 1.57240E-02 0.00000E+00
 -1      4125 2.41633E-05 1.59359E-02 0.00000E+00
 -1      4126 0.00000E+00 1.61303E-02 0.00000E+00
 -1      4127 1.79166E-05 1.63193E-02 0.00000E+00
 -1      4128 0.00000E+00 1.64971E-02 0.00000E+00
 -1      4129 1.36676E-05 1.66688E-02 0.00000E+00
 -1      4130 0.00000E+00 1.68335E-02 0.00000E+00
 -1      4131 1.09158E-05 1.69916E-02 0.00000E+00
 -1      4132 0.00000E+00 1.71457E-02 0.00000E+00
 -1      4133 9.33092E-06 1.72934E-02 0.00000E+00
 -1      4134 0.00000E+00 1.74390E-02 0.00000E+00
 -1      4135 8.69179E-06 1.75783E-02 0.00000E+00
 -1      4136 0.00000E+00 1.77172E-02 0.00000E+00
 -1      4137 8.85192E-06 1.78501E-02 0.00000E+00
 -1      4138 0.00000E+00 1.79839E-02 0.00000E+00
 -1      4139 9.71926E-06 1.81119E-02 0.00000E+00
 -1      4140 0.00000E+00 1.82419E-02 0.00000E+00
 -1      4141 1.12461E-05 1.83667E-02 0.00000E+00
 -1      4142 0.00000E+00 1.84945E-02 0.00000E+00
 -1      4143 1.34264E-05 1.86175E-02 0.00000E+00
 -1      4144 0.00000E+00 1.87446E-02 0.00000E+00
 -1      4145 1.62993E-05 1.88677E-02 0.00000E+00
 -1      4146 0.00000E+00 1.89961E-02 0.00000E+00
 -1      4147 1.99624E-05 1.91215E-02 0.00000E+00
 -1      4148 0.00000E+00 1.92540E-02 0.00000E+00
 -1      4149 2.45960E-05 1.93847E-02 0.00000E+00
 -1      4150 0.00000E+00 1.95252E-02 0.00000E+00
 -1      4151 3.05115E-05 1.96663E-02 0.00000E+00
 -1      4152 0.00000E+00 1.98212E-02 0.00000E+00
 -1      4153 3.82443E-05 1.99804E-02 0.00000E+00
 -1      4154 0.00000E+00 2.01609E-02 0.00000E+00
 -1      4155 4.87477E-05 2.03524E-02 0.00000E+00
 -1      4156 0.00000E+00 2.05754E-02 0.00000E+00
 -1      4157 6.35890E-05 2.08221E-02 0.00000E+00
 -3
    1PSTEP                         2           1           1          
  100CL  101 1.000000000        4156                     0    1           1
 -4  STRESS      6    1
 -5  SXX         1    4    1    1
 -5  SYY         1    4    2    2
 -5  SZZ         1    4    3    3
 -5  SXY         1    4    1    2
 -5  SYZ         1    4    2    3
 -5  SZX         1    4    3    1
 -1         1 1.09230E-01-8.67004E-03 3.01680E-02-1.88049E-02-1.50537E-12-3.72584E-13
 -1         2-1.79985E+03-1.81209E+03-1.09344E+03 2.01814E+00-2.39427E-13-4.77283E-15
 -1         3 1.07892E+02-9.40296E+00 2.95123E+01-8.00375E-04-1.12932E-13 3.19410E-16
 -1         4-1.78216E-01-1.01354E+01-3.09435E+00-6.40140E-02-9.35949E-13-3.81395E-13
 -1         5-1.65519E+03-1.69904E+03-1.01500E+03 1.43098E+00 9.77726E-14-3.28025E-15
 -1         6 4.86838E-02 6.46240E-02 3.39923E-02 1.22999E-02 5.96520E-18-4.57182E-14
 -1         7 2.55823E+01-7.63570E+01-1.52547E+01 1.88743E-01-2.06349E-15 5.64293E-16
 -1         9 3.99252E-01 7.86560E-04 1.20011E-01-1.18113E-02 1.01441E-14-1.74931E-13
 -1        10-1.26821E+00 1.66222E-02-3.75481E-01 3.24341E-03 1.56065E-13-2.98868E-14
 -1        11-5.04620E+00 9.37308E-03-1.51112E+00 1.27586E-02 6.41511E-13-2.07961E-13
 -1        12-9.95209E+00 5.98520E-03-2.98410E+00 1.16956E-02 5.03955E-13 3.99738E-14
 -1        13-1.54816E+01 4.85278E-03-4.64368E+00 8.71837E-03 3.19532E-13-1.51770E-13
 -1        14-2.12842E+01 3.67913E-03-6.38541E+00 3.91718E-03-1.84315E-13-1.67993E-13
 -1        15-2.70909E+01 2.62032E-03-8.12850E+00-2.12625E-03 8.02747E-13-1.13082E-13
 -1        16-3.26955E+01 1.60795E-03-9.81110E+00-9.13027E-03 2.72470E-13-1.52962E-13
 -1        17-3.79481E+01 7.11406E-04-1.13881E+01-1.68558E-02 2.40228E-13-4.85884E-14
 -1        18-4.27496E+01-2.47723E-05-1.28299E+01-2.51933E-02-2.33296E-13-1.63552E-13
 -1        19-4.70456E+01-5.42298E-04-1.41199E+01-3.41603E-02-5.35835E-13-3.47379E-14
 -1        20-5.08180E+01-7.78648E-04-1.52527E+01-4.39304E-02-3.68772E-13-1.60963E-13
 -1        21-5.40761E+01-6.57267E-04-1.62310E+01-5.48601E-02 6.24897E-14-8.21803E-14
 -1        22-5.68486E+01-7.35474E-05-1.70634E+01-6.75331E-02 2.05069E-13 5.83472E-14
 -1        23-5.91760E+01 1.13025E-03-1.77620E+01-8.28365E-02-8.05956E-13-8.80383E-14
 -1        24-6.11046E+01 3.22134E-03-1.83406E+01-1.02094E-01 4.06448E-14 7.40671E-14
 -1        25-6.26824E+01 6.63514E-03-1.88135E+01-1.27315E-01 2.86434E-13-1.71411E-14
 -1        26-6.39550E+01 1.22674E-02-1.91940E+01-1.61601E-01 4.30883E-13-7.84356E-14
 -1        27-6.49643E+01 2.13501E-02-1.94944E+01-2.10089E-01 8.35041E-13-2.26522E-14
 -1        28-6.57454E+01 3.80891E-02-1.97240E+01-2.81061E-01 5.16100E-13 3.87186E-14
 -1        29-6.63261E+01 6.37687E-02-1.98907E+01-3.90929E-01-2.46497E-14 2.18638E-14
 -1        30-6.67180E+01 1.32207E-01-1.99879E+01-5.64903E-01 3.49676E-13 5.27368E-14
 -1        31-6.69241E+01 1.92155E-01-2.00319E+01-8.76144E-01 1.53650E-13 4.29374E-14
 -1        32-6.68385E+01 6.86704E-01-1.98578E+01-1.41034E+00 1.57004E-13 2.25369E-14
 -1        33-6.63128E+01 4.26856E-01-1.97778E+01-2.63595E+00-4.37372E-13 2.36090E-15
 -1        34-6.35636E+01 7.03714E+00-1.69696E+01-4.67572E+00 4.63596E-14-1.96926E-15
 -1        35-4.58952E+01 6.13692E+00-1.19274E+01-1.33878E+01-8.01154E-14-4.65320E-15
 -1        36-2.24926E-01 8.13383E+01 2.42513E+01-6.52869E+01 2.69483E-13 2.46645E-14
 -1        37-9.12444E+02-8.56979E+02-5.33508E+02 2.46568E+02-2.86870E-14 1.04958E-14
 -1        38-3.07756E+02-1.31890E+03-4.92377E+02 4.38948E+01 3.37416E-13 8.86513E-16
 -1        39-9.87582E+01-8.03206E+02-2.72211E+02 1.42222E+01 3.11301E-13 1.39182E-15
 -1        40-6.30096E+01-5.57447E+02-1.86919E+02 5.55459E+00-2.14258E-13 9.97496E-17
 -1        41-5.71738E+01-4.14479E+02-1.41920E+02 1.95034E+00 7.21831E-14 6.87589E-16
 -1        42-5.35689E+01-3.21640E+02-1.12814E+02 8.50714E-01-3.86577E-13 9.03734E-16
 -1        43-5.02962E+01-2.57177E+02-9.23998E+01 4.04316E-01-2.52605E-13-7.41863E-16
 -1        44-4.67462E+01-2.10224E+02-7.71951E+01 2.12988E-01-7.28818E-14 2.42933E-16
 -1        45-4.28740E+01-1.74683E+02-6.53382E+01 1.20014E-01-2.41686E-13 5.30995E-17
 -1        46-3.86547E+01-1.46933E+02-5.57262E+01 7.18220E-02 7.92276E-13-2.61836E-16
 -1        47-3.40782E+01-1.24698E+02-4.76687E+01 4.50192E-02-2.66702E-13 2.16642E-17
 -1        48-2.91245E+01-1.06483E+02-4.07083E+01 2.93447E-02 6.89568E-13 6.53531E-17
 -1        49-2.37650E+01-9.12633E+01-3.45277E+01 1.97533E-02-2.43880E-13 1.91511E-16
 -1        50-1.79581E+01-7.83155E+01-2.88964E+01 1.36656E-02 3.57036E-13 1.48908E-16
 -1        51-1.16465E+01-6.71136E+01-2.36389E+01 9.67809E-03-2.83885E-13 1.57915E-16
 -1        52-4.75032E+00-5.72671E+01-1.86136E+01 6.99614E-03-8.13372E-13 3.27555E-16
 -1        53 2.84307E+00-4.84838E+01-1.36990E+01 5.15075E-03 2.59488E-13 1.89017E-16
 -1        54 1.12948E+01-4.05469E+01-8.78155E+00 3.85556E-03-8.22096E-13 2.75976E-16
 -1        55 2.08403E+01-3.33053E+01-3.74533E+00 2.92540E-03-3.07901E-13-3.85832E-16
 -1        56 3.18333E+01-2.66750E+01 1.54081E+00 2.24128E-03 3.63952E-13-4.51358E-17
 -1        57 4.48220E+01-2.06570E+01 7.24067E+00 1.67219E-03 1.26969E-13-1.39306E-16
 -1        58 6.06924E+01-1.53848E+01 1.35794E+01 1.18623E-03-1.77708E-13 2.43148E-16
 -1        59 8.09616E+01-1.12413E+01 2.08958E+01 1.63153E-04 4.24018E-13-1.61311E-16
 -1        60 1.07862E+02-9.40348E+00 2.95034E+01 1.57262E-02 1.56615E-12 4.40960E-16
 -1        61 1.07762E+02-9.40545E+00 2.94727E+01 3.30324E-02-6.64071E-13-8.54652E-15
 -1        62 1.07568E+02-9.40957E+00 2.94135E+01 5.19539E-02-3.38953E-13-2.88066E-15
 -1        63 1.07256E+02-9.41641E+00 2.93180E+01 7.25330E-02 2.42794E-14 2.13082E-14
 -1        64 1.06795E+02-9.42666E+00 2.91767E+01 9.47577E-02 1.68852E-13-1.74372E-14
 -1        65 1.06146E+02-9.44108E+00 2.89782E+01 1.18541E-01 3.68759E-13-1.64976E-14
 -1        66 1.05268E+02-9.46054E+00 2.87094E+01 1.43694E-01-1.99569E-13-3.43033E-14
 -1        67 1.04110E+02-9.48589E+00 2.83553E+01 1.69895E-01-3.67037E-13 8.22173E-15
 -1        68 1.02618E+02-9.51801E+00 2.78988E+01 1.96657E-01-6.46250E-13 2.70837E-14
 -1        69 1.00730E+02-9.55758E+00 2.73217E+01 2.23298E-01-1.10481E-12 1.95431E-14
 -1        70 9.83846E+01-9.60503E+00 2.66051E+01 2.48923E-01 5.61062E-13-9.00250E-15
 -1        71 9.55182E+01-9.66033E+00 2.57301E+01 2.72429E-01 1.65536E-13-4.34287E-14
 -1        72 9.20746E+01-9.72276E+00 2.46801E+01 2.92549E-01-3.11712E-13-1.68594E-15
 -1        73 8.80097E+01-9.79078E+00 2.34423E+01 3.07943E-01-3.95640E-13-6.62892E-14
 -1        74 8.32989E+01-9.86191E+00 2.20100E+01 3.17351E-01 5.21383E-14 4.57084E-16
 -1        75 7.79447E+01-9.93280E+00 2.03849E+01 3.19794E-01 7.62551E-15-1.01478E-13
 -1        76 7.19831E+01-9.99950E+00 1.85790E+01 3.14796E-01-9.25204E-13 8.83078E-14
 -1        77 6.54860E+01-1.00580E+01 1.66149E+01 3.02569E-01 1.08161E-13 5.09081E-15
 -1        78 5.85592E+01-1.01050E+01 1.45252E+01 2.84084E-01-5.28982E-14 6.20918E-14
 -1        79 5.13354E+01-1.01386E+01 1.23504E+01 2.60984E-01-1.06915E-13 3.97283E-14
 -1        80 4.39626E+01-1.01586E+01 1.01346E+01 2.35302E-01-6.45491E-14 6.01906E-14
 -1        81 3.65915E+01-1.01670E+01 7.92255E+00 2.09046E-01-5.33212E-13-2.73908E-14
 -1        82 2.93675E+01-1.01670E+01 5.75683E+00 1.83763E-01 6.17697E-14-1.31511E-13
 -1        83 2.24297E+01-1.01625E+01 3.67799E+00 1.60195E-01-9.60690E-13-8.95850E-14
 -1        84 1.59219E+01-1.01577E+01 1.72791E+00 1.38008E-01 9.70600E-14-7.92908E-14
 -1        85 1.00158E+01-1.01552E+01-4.25905E-02 1.15575E-01 8.97072E-13 2.51262E-14
 -1        86 4.95306E+00-1.01627E+01-1.56335E+00 8.67849E-02-2.58026E-13 1.17217E-13
 -1        87 1.14832E+00-1.01639E+01-2.70500E+00 3.45459E-02-8.82257E-14 1.64819E-14
 -1        88-4.71598E-01-1.01547E+01-3.18817E+00-7.13762E-02-8.56101E-13 1.59371E-13
 -1        89-1.73488E-01-1.03485E+01-3.15687E+00-1.29561E-01 1.32806E-14 2.46353E-13
 -1        90-1.99235E-01-1.01613E+01-3.10843E+00-2.47437E-02-4.48781E-13 1.60443E-13
 -1        91-1.75801E-01-9.27890E+00-2.83664E+00 4.31734E-02 7.06501E-13 2.20524E-13
 -1        92-1.24125E-01-8.00953E+00-2.44027E+00 8.01798E-02-4.04908E-13-1.66129E-14
 -1        93-6.54348E-02-6.60186E+00-2.00031E+00 9.77082E-02-9.25127E-13-3.83423E-14
 -1        94-8.61073E-03-5.21613E+00-1.56750E+00 1.02278E-01 1.19899E-12-3.84754E-14
 -1        95 4.26541E-02-3.94643E+00-1.17117E+00 9.77900E-02-1.30568E-12-7.36079E-15
 -1        96 8.67936E-02-2.84171E+00-8.26498E-01 8.66973E-02-8.25642E-13-4.16999E-14
 -1        97 1.23097E-01-1.92111E+00-5.39414E-01 7.06122E-02-1.02813E-12-5.41863E-14
 -1        98 1.51229E-01-1.18464E+00-3.10028E-01 5.06786E-02 3.34439E-13 7.06116E-14
 -1        99 1.71063E-01-6.20641E-01-1.34874E-01 2.78221E-02 7.15224E-13-3.51976E-14
 -1       100 1.82647E-01-2.10759E-01-8.43349E-03 2.92883E-03 1.01938E-12 4.19324E-14
 -1       101 1.86244E-01 6.67314E-02 7.58929E-02-2.30294E-02-1.13383E-12 1.21973E-13
 -1       102 1.82390E-01 2.34777E-01 1.25150E-01-4.89220E-02 7.61417E-13 1.66106E-13
 -1       103 1.71928E-01 3.16141E-01 1.46421E-01-7.34453E-02 5.93278E-13-2.60797E-14
 -1       104 1.55999E-01 3.32456E-01 1.46536E-01-9.51660E-02 1.47970E-12 1.14520E-13
 -1       105 1.35977E-01 3.03563E-01 1.31862E-01-1.12611E-01 1.60780E-12 2.53120E-13
 -1       106 1.13393E-01 2.47024E-01 1.08125E-01-1.24352E-01 3.00171E-12-1.03179E-14
 -1       107 8.99768E-02 1.77767E-01 8.03230E-02-1.28960E-01 1.71228E-12-1.03684E-13
 -1       108 6.81604E-02 1.07852E-01 5.28037E-02-1.24546E-01-4.14335E-13 9.37473E-14
 -1       109 5.27474E-02 4.63766E-02 2.97371E-02-1.07354E-01 2.37968E-13-3.48589E-14
 -1       110 5.50266E-02-3.90731E-04 1.63907E-02-6.84688E-02-6.97134E-13-7.09527E-14
 -1       111-1.53087E+03-1.57023E+03-9.37777E+02-2.54513E+01 1.90390E-13 8.45115E-15
 -1       112-7.68797E+02-8.36422E+02-4.83711E+02-1.70476E+02 1.38126E-13 2.61066E-14
 -1       113 4.78289E+01 8.61203E+01 4.01207E+01 5.49372E+01 2.06505E-14-4.73693E-15
 -1       114 1.96117E+01 6.93914E+00 7.97227E+00 1.37598E+01 4.59329E-14 1.83688E-14
 -1       115 2.91094E+00 7.61747E+00 3.15901E+00 5.58449E+00 6.05673E-14-6.85561E-16
 -1       116 1.16484E+00 1.01940E+00 6.55401E-01 3.18899E+00-1.95137E-13 1.72639E-14
 -1       117 6.76144E-01 1.14959E+00 5.47754E-01 1.75902E+00-4.56373E-14 8.35190E-15
 -1       118 4.51419E-01 5.42414E-01 2.98161E-01 1.13305E+00-1.34227E-13 4.78108E-15
 -1       119 3.41854E-01 4.15282E-01 2.27145E-01 7.49489E-01 3.61157E-14 8.25929E-15
 -1       120 2.66445E-01 2.98862E-01 1.69594E-01 5.30398E-01-8.80236E-15 1.19012E-14
 -1       121 2.16313E-01 2.40445E-01 1.37029E-01 3.87976E-01 1.69274E-13-9.93180E-16
 -1       122 1.79250E-01 2.00066E-01 1.13796E-01 2.94216E-01 3.83728E-14 6.87868E-15
 -1       123 1.51635E-01 1.73732E-01 9.76107E-02 2.29253E-01-2.73657E-14-3.85131E-15
 -1       124 1.30406E-01 1.55308E-01 8.57146E-02 1.83136E-01-4.23205E-15 8.21778E-15
 -1       125 1.13890E-01 1.42430E-01 7.68962E-02 1.49531E-01-2.58807E-14 1.82357E-15
 -1       126 1.00839E-01 1.33488E-01 7.02983E-02 1.24593E-01-1.12508E-14-5.42065E-16
 -1       127 9.03775E-02 1.27634E-01 6.54036E-02 1.05797E-01 1.77693E-14 1.99657E-16
 -1       128 8.18357E-02 1.24399E-01 6.18705E-02 9.14382E-02-1.14169E-14 1.46213E-15
 -1       129 7.47018E-02 1.23590E-01 5.94878E-02 8.02908E-02-2.95850E-14 3.45407E-15
 -1       130 6.85807E-02 1.25216E-01 5.81390E-02 7.14118E-02-1.89349E-14 1.05103E-14
 -1       131 6.32004E-02 1.29447E-01 5.77943E-02 6.39935E-02 1.36418E-15-9.31576E-16
 -1       132 5.83655E-02 1.36620E-01 5.84958E-02 5.72650E-02-4.24906E-15 1.36129E-15
 -1       133 5.42198E-02 1.47205E-01 6.04276E-02 5.03690E-02-3.75097E-15-3.79141E-14
 -1       134 5.03118E-02 1.61686E-01 6.35994E-02 4.23330E-02-2.56524E-15-2.61651E-14
 -1       135 4.86433E-02 1.79716E-01 6.85079E-02 3.26779E-02-1.93444E-16 2.65089E-15
 -1       136 3.84266E-02 1.90824E-01 6.87754E-02 2.67439E-02 6.59195E-18 3.67011E-14
 -1       137 9.09357E-03 9.81092E-02 3.21609E-02 2.47706E-02-1.51448E-16 7.02622E-14
 -1       138-9.25554E-03-6.71211E-01-2.04141E-01 1.10750E-02-2.71216E-17-3.51942E-15
 -1       139 2.29185E-02-1.36728E+00-4.03314E-01 2.96456E-05-5.17749E-17-4.60323E-14
 -1       140 3.71274E-02-2.20199E+00-6.49473E-01-1.79876E-03 2.43889E-17 3.09102E-14
 -1       141 8.16385E-02-3.14625E+00-9.19410E-01-1.28607E-03 1.73283E-19 5.23207E-15
 -1       142 1.50732E-01-4.21725E+00-1.22001E+00-7.15879E-04 9.18939E-17-3.63276E-14
 -1       143 2.50103E-01-5.43712E+00-1.55619E+00-4.11353E-04 4.93291E-17 1.61088E-14
 -1       144 3.89834E-01-6.83224E+00-1.93286E+00-2.93359E-04 4.76882E-17 9.30566E-15
 -1       145 5.83038E-01-8.43383E+00-2.35544E+00-2.61158E-04-4.51015E-17-9.87563E-14
 -1       146 8.46290E-01-1.02788E+01-2.83008E+00-2.54362E-04-5.23138E-16-7.00341E-14
 -1       147 1.20067E+00-1.24111E+01-3.36360E+00-2.45733E-04-3.73909E-17-5.55953E-15
 -1       148 1.67303E+00-1.48825E+01-3.96353E+00-2.26133E-04-2.25669E-16-7.58975E-15
 -1       149 2.29742E+00-1.77539E+01-4.63792E+00-1.94065E-04-1.23119E-16-4.24389E-15
 -1       150 3.11645E+00-2.10952E+01-5.39501E+00-1.50548E-04-3.80060E-16 1.91395E-14
 -1       151 4.18213E+00-2.49839E+01-6.24254E+00-9.70548E-05-3.93967E-16 3.54238E-14
 -1       152 5.55557E+00-2.95009E+01-7.18645E+00-3.53437E-05-9.65139E-17-1.82957E-14
 -1       153 7.30355E+00-3.47192E+01-8.22872E+00 3.92313E-05-3.07590E-17 1.64158E-14
 -1       154 9.48917E+00-4.06827E+01-9.36373E+00 1.26417E-04 2.35739E-16 3.14250E-14
 -1       155 1.21515E+01-4.73676E+01-1.05727E+01 2.83564E-04-3.28101E-16 3.06158E-14
 -1       156 1.52670E+01-5.46179E+01-1.18160E+01 3.57511E-04 3.26832E-16-4.90720E-15
 -1       157 1.86858E+01-6.20522E+01-1.30241E+01 2.82163E-04-1.59194E-16 1.40706E-15
 -1       158 2.20389E+01-6.89631E+01-1.40951E+01-2.86641E-03-3.19230E-16 7.27037E-15
 -1       159 2.46847E+01-7.43256E+01-1.49133E+01-6.46553E-03 4.74242E-14 2.11949E-15
 -1       160-6.88792E+02-1.56108E+03-6.80525E+02-1.46223E+00-8.11396E-13 1.50668E-16
 -1       161-2.34009E+02-1.26363E+03-4.53194E+02-4.11275E+00-4.36053E-14 3.15126E-16
 -1       162-7.25211E+01-9.80195E+02-3.18326E+02-3.03858E+00 4.01914E-14 1.11910E-15
 -1       163-1.40402E+01-7.67700E+02-2.36125E+02-2.08337E+00 1.24100E-13-1.44968E-15
 -1       164 7.70531E+00-6.13669E+02-1.82838E+02-1.10042E+00-4.27104E-14 5.04045E-18
 -1       165 1.68602E+01-4.99963E+02-1.45639E+02-6.22942E-01 2.48362E-14-5.39353E-16
 -1       166 2.10335E+01-4.14156E+02-1.18430E+02-3.56626E-01-1.18933E-13 1.14282E-15
 -1       167 2.30933E+01-3.47931E+02-9.78038E+01-2.15692E-01 1.08691E-13 9.56133E-17
 -1       168 2.41689E+01-2.95789E+02-8.17445E+01-1.35616E-01-8.94515E-14 3.05364E-16
 -1       169 2.47565E+01-2.54026E+02-6.89742E+01-8.88124E-02 7.72328E-14 3.42665E-16
 -1       170 2.50881E+01-2.20091E+02-5.86483E+01-6.02034E-02-9.74520E-15 4.01017E-16
 -1       171 2.52795E+01-1.92191E+02-5.01877E+01-4.21144E-02-6.82012E-14 6.78251E-17
 -1       172 2.53914E+01-1.69038E+02-4.31839E+01-3.03000E-02 9.04358E-15 3.89435E-16
 -1       173 2.54569E+01-1.49691E+02-3.73423E+01-2.23717E-02-8.17044E-14 8.46755E-17
 -1       174 2.54949E+01-1.33455E+02-3.24464E+01-1.69278E-02-6.64794E-14 3.53965E-16
 -1       175 2.55162E+01-1.19808E+02-2.83357E+01-1.31227E-02 5.74645E-14 2.62959E-16
 -1       176 2.55272E+01-1.08363E+02-2.48912E+01-1.04380E-02 2.60523E-14-4.42972E-17
 -1       177 2.55319E+01-9.88370E+01-2.20259E+01-8.53671E-03-1.07942E-14-1.57105E-16
 -1       178 2.55322E+01-9.10331E+01-1.96801E+01-7.26867E-03 1.17437E-15 9.57869E-17
 -1       179 2.55282E+01-8.48366E+01-1.78190E+01-6.35479E-03-2.11387E-14 1.50208E-16
 -1       180 2.55123E+01-8.02245E+01-1.64378E+01-6.58819E-03 3.57054E-14 6.63465E-17
 -1       181 2.54651E+01-7.72166E+01-1.55481E+01-4.12413E-03-2.19390E-15-1.15867E-17
 -1       182-6.16164E+02-1.40549E+03-6.11486E+02-2.38193E+02-1.96879E-13-2.19918E-15
 -1       183-2.48484E+02-1.12694E+03-4.16160E+02-2.48706E+02 2.34236E-13-2.65895E-16
 -1       184-9.75420E+01-9.05142E+02-3.03150E+02-1.80441E+02-1.29059E-13 5.92072E-16
 -1       185-3.17555E+01-7.29255E+02-2.29834E+02-1.19884E+02-1.57928E-13-2.19019E-15
 -1       186-2.41308E+00-5.93381E+02-1.79754E+02-7.89857E+01 2.35992E-14 3.39465E-15
 -1       187 1.12324E+01-4.88933E+02-1.44003E+02-5.26406E+01-1.12014E-13-9.53710E-16
 -1       188 1.78915E+01-4.07978E+02-1.17511E+02-3.56975E+01 7.29261E-15 1.45013E-16
 -1       189 2.13066E+01-3.44383E+02-9.72717E+01-2.46161E+01-4.16136E-14 2.14507E-15
 -1       190 2.31345E+01-2.93710E+02-8.14289E+01-1.72185E+01-1.37176E-13 2.72363E-16
 -1       191 2.41484E+01-2.52787E+02-6.87839E+01-1.21778E+01-2.01454E-14-5.21535E-16
 -1       192 2.47265E+01-2.19344E+02-5.85322E+01-8.67912E+00 6.35259E-14-2.16147E-16
 -1       193 2.50630E+01-1.91738E+02-5.01163E+01-6.21149E+00-1.23810E-13-2.62435E-16
 -1       194 2.52615E+01-1.68762E+02-4.31399E+01-4.44753E+00-3.18542E-14-8.39066E-17
 -1       195 2.53792E+01-1.49524E+02-3.73152E+01-3.17275E+00 5.43377E-14-2.69883E-16
 -1       196 2.54488E+01-1.33354E+02-3.24299E+01-2.24369E+00 2.40218E-14 5.38584E-16
 -1       197 2.54892E+01-1.19748E+02-2.83257E+01-1.56262E+00-8.27467E-14 9.29081E-17
 -1       198 2.55118E+01-1.08328E+02-2.48853E+01-1.06195E+00 1.40938E-14-4.27774E-16
 -1       199 2.55234E+01-9.88175E+01-2.20226E+01-6.94366E-01 3.29310E-14-1.89088E-16
 -1       200 2.55277E+01-9.10228E+01-1.96784E+01-4.26586E-01 5.18637E-14-7.28228E-17
 -1       201 2.55260E+01-8.48318E+01-1.78183E+01-2.35414E-01-6.12223E-15-5.17771E-17
 -1       202 2.55114E+01-8.02227E+01-1.64376E+01-1.05471E-01 6.63413E-15-4.74409E-17
 -1       203 2.54650E+01-7.72164E+01-1.55481E+01-2.88674E-02-3.41793E-14 2.09371E-17
 -1       204-5.22427E+02-7.93346E+02-3.98002E+02-4.81555E+02 6.99114E-14-4.21643E-15
 -1       205-3.24393E+02-7.55984E+02-3.26671E+02-4.02378E+02 4.55124E-14 2.00426E-15
 -1       206-1.72060E+02-6.98178E+02-2.62934E+02-3.02009E+02 7.11007E-14 7.25173E-15
 -1       207-8.22657E+01-6.15681E+02-2.10690E+02-2.14226E+02-1.01645E-13-5.32797E-15
 -1       208-3.26236E+01-5.30765E+02-1.69928E+02-1.48385E+02 1.46901E-13 1.86889E-15
 -1       209-6.27473E+00-4.53877E+02-1.38688E+02-1.02427E+02 2.20242E-13 1.15157E-15
 -1       210 7.80256E+00-3.87955E+02-1.14506E+02-7.11252E+01 1.93763E-14-2.90664E-15
 -1       211 1.54435E+01-3.32727E+02-9.55210E+01-4.98386E+01-9.83677E-14 4.93586E-15
 -1       212 1.96890E+01-2.86810E+02-8.03860E+01-3.52428E+01-6.76296E-15 9.95509E-16
 -1       213 2.21017E+01-2.48649E+02-6.81527E+01-2.51128E+01 3.16227E-14 4.06468E-15
 -1       214 2.35010E+01-2.16838E+02-5.81458E+01-1.79912E+01-8.86831E-14 8.23701E-16
 -1       215 2.43257E+01-1.90210E+02-4.98782E+01-1.29232E+01-8.15011E-14-7.23387E-16
 -1       216 2.48177E+01-1.67830E+02-4.29928E+01-9.27727E+00 2.06299E-14 2.40976E-15
 -1       217 2.51130E+01-1.48956E+02-3.72245E+01-6.63042E+00-1.13251E-16 7.68326E-16
 -1       218 2.52906E+01-1.33011E+02-3.23743E+01-4.69508E+00-6.05477E-15-8.10033E-16
 -1       219 2.53966E+01-1.19544E+02-2.82922E+01-3.27298E+00-6.21620E-14 2.36667E-16
 -1       220 2.54589E+01-1.08210E+02-2.48656E+01-2.22578E+00 2.45401E-14-4.58122E-16
 -1       221 2.54941E+01-9.87512E+01-2.20115E+01-1.45598E+00 2.10696E-14 4.18554E-16
 -1       222 2.55124E+01-9.09879E+01-1.96725E+01-8.94702E-01 1.14193E-14-2.09424E-16
 -1       223 2.55186E+01-8.48154E+01-1.78155E+01-4.93749E-01 2.01269E-14-4.92525E-17
 -1       224 2.55084E+01-8.02168E+01-1.64367E+01-2.21054E-01-3.28951E-15-1.11805E-16
 -1       225 2.54645E+01-7.72159E+01-1.55481E+01-6.03727E-02 2.88381E-14 1.85574E-16
 -1       226-4.24873E+02-1.23461E+02-1.65359E+02-2.18527E+02-1.14667E-13-1.05160E-15
 -1       227-3.62409E+02-3.34856E+02-2.10416E+02-3.28940E+02 8.91115E-15-2.87839E-15
 -1       228-2.42897E+02-4.32586E+02-2.03827E+02-3.09360E+02 9.33714E-14-1.15624E-15
 -1       229-1.41993E+02-4.53056E+02-1.79480E+02-2.51290E+02-2.52078E-13-4.67152E-17
 -1       230-7.44677E+01-4.33324E+02-1.53079E+02-1.90803E+02-6.72751E-14-4.76542E-15
 -1       231-3.31519E+01-3.95920E+02-1.29279E+02-1.40260E+02-5.45242E-14-4.12071E-16
 -1       232-8.83858E+00-3.53415E+02-1.09093E+02-1.01658E+02 3.45179E-14 8.01793E-15
 -1       233 5.29358E+00-3.12009E+02-9.23278E+01-7.33500E+01 1.32410E-13 5.58475E-15
 -1       234 1.35227E+01-2.74285E+02-7.84662E+01-5.29239E+01-5.93219E-14-4.24841E-17
 -1       235 1.83543E+01-2.41022E+02-6.69821E+01-3.82430E+01 9.22203E-14 4.00588E-15
 -1       236 2.12208E+01-2.12168E+02-5.74252E+01-2.76680E+01 9.85742E-14-3.62099E-15
 -1       237 2.29385E+01-1.87343E+02-4.94321E+01-2.00125E+01 3.87548E-14 1.10831E-15
 -1       238 2.39758E+01-1.66070E+02-4.27162E+01-1.44379E+01 8.54082E-14-1.41435E-15
 -1       239 2.46053E+01-1.47881E+02-3.70534E+01-1.03554E+01 5.78256E-14 2.65455E-15
 -1       240 2.49876E+01-1.32359E+02-3.22694E+01-7.35160E+00 3.21799E-14 1.77671E-15
 -1       241 2.52188E+01-1.19155E+02-2.82288E+01-5.13435E+00 3.21368E-14 4.00868E-15
 -1       242 2.53570E+01-1.07984E+02-2.48281E+01-3.49623E+00 2.56931E-14-3.72847E-16
 -1       243 2.54378E+01-9.86244E+01-2.19903E+01-2.28920E+00 7.56491E-15-5.24891E-16
 -1       244 2.54828E+01-9.09212E+01-1.96613E+01-1.40763E+00-5.58306E-14 1.48598E-15
 -1       245 2.55044E+01-8.47840E+01-1.78104E+01-7.77110E-01 2.87304E-14-4.02287E-16
 -1       246 2.55026E+01-8.02053E+01-1.64350E+01-3.47912E-01 6.25498E-15-1.09314E-16
 -1       247 2.54635E+01-7.72149E+01-1.55481E+01-9.49186E-02 2.05702E-14-9.24117E-17
 -1       248-1.90127E+02-5.32890E+00-5.87565E+01-5.47705E+01-1.38896E-13 1.90634E-16
 -1       249-2.80567E+02-1.01670E+02-1.15086E+02-1.72449E+02-6.72458E-14-1.95036E-15
 -1       250-2.47816E+02-2.17133E+02-1.40074E+02-2.30339E+02-2.72380E-14-3.69807E-15
 -1       251-1.77079E+02-2.90145E+02-1.40775E+02-2.28936E+02 3.69810E-14-6.05191E-15
 -1       252-1.11303E+02-3.21139E+02-1.30274E+02-1.98086E+02 6.41315E-14 1.08079E-14
 -1       253-6.22749E+01-3.22369E+02-1.15841E+02-1.59167E+02 2.05482E-13-2.04867E-15
 -1       254-2.93169E+01-3.06476E+02-1.01095E+02-1.22725E+02 1.45798E-13-7.92690E-15
 -1       255-8.28794E+00-2.82453E+02-8.75028E+01-9.24669E+01 4.92640E-14 1.84473E-15
 -1       256 4.79022E+00-2.55788E+02-7.55188E+01-6.87780E+01-1.35383E-14 1.26588E-15
 -1       257 1.28354E+01-2.29476E+02-6.51639E+01-5.07791E+01-1.70130E-14-4.66719E-16
 -1       258 1.77697E+01-2.04971E+02-5.62959E+01-3.73031E+01-1.52305E-14 2.00324E-15
 -1       259 2.07976E+01-1.82866E+02-4.87281E+01-2.72780E+01 2.63066E-14 5.29872E-15
 -1       260 2.26585E+01-1.63296E+02-4.22774E+01-1.98346E+01-3.96444E-14 1.57618E-15
 -1       261 2.38029E+01-1.46173E+02-3.67809E+01-1.43071E+01-2.84069E-14-2.55502E-15
 -1       262 2.45053E+01-1.31320E+02-3.21016E+01-1.01988E+01 1.89068E-14-3.33999E-16
 -1       263 2.49342E+01-1.18533E+02-2.81271E+01-7.14406E+00 3.38524E-15-9.99550E-16
 -1       264 2.51933E+01-1.07620E+02-2.47680E+01-4.87522E+00 1.74511E-14 3.67257E-15
 -1       265 2.53471E+01-9.84204E+01-2.19562E+01-3.19704E+00 3.57836E-14-2.09098E-15
 -1       266 2.54352E+01-9.08136E+01-1.96433E+01-1.96799E+00-6.67203E-15 9.59343E-16
 -1       267 2.54814E+01-8.47334E+01-1.78021E+01-1.08724E+00 1.77845E-14 1.54563E-16
 -1       268 2.54933E+01-8.01869E+01-1.64322E+01-4.86902E-01 2.61799E-14 6.05720E-16
 -1       269 2.54619E+01-7.72133E+01-1.55481E+01-1.32708E-01 2.18819E-15 2.15190E-16
 -1       270-1.08153E+02-2.48730E+00-3.32273E+01-2.45085E+01-2.28332E-13-9.98536E-15
 -1       271-1.84785E+02-3.66857E+01-6.65834E+01-8.78561E+01-2.19542E-13 2.76552E-15
 -1       272-2.03811E+02-1.00180E+02-9.14623E+01-1.47647E+02 1.50398E-13 5.46630E-15
 -1       273-1.76146E+02-1.68234E+02-1.03654E+02-1.77338E+02-2.24716E-14 4.98709E-15
 -1       274-1.30247E+02-2.18434E+02-1.04960E+02-1.77006E+02 1.50379E-13 8.73446E-16
 -1       275-8.52935E+01-2.45194E+02-9.94777E+01-1.58010E+02 9.59029E-14 3.90841E-15
 -1       276-4.93160E+01-2.52244E+02-9.07555E+01-1.31584E+02-1.21253E-13-4.07729E-15
 -1       277-2.33850E+01-2.45866E+02-8.10152E+01-1.04861E+02-8.38827E-15-9.11673E-16
 -1       278-5.78695E+00-2.31723E+02-7.14489E+01-8.12391E+01-8.62319E-14-8.56901E-15
 -1       279 5.74424E+00-2.13902E+02-6.26054E+01-6.17761E+01 8.74840E-14-2.59077E-15
 -1       280 1.31476E+01-1.95005E+02-5.46848E+01-4.63635E+01-7.37242E-15 4.68562E-15
 -1       281 1.78447E+01-1.76547E+02-4.77136E+01-3.44343E+01 1.07586E-14 4.17295E-15
 -1       282 2.08028E+01-1.59325E+02-4.16400E+01-2.53227E+01 2.49583E-14-2.03899E-15
 -1       283 2.26549E+01-1.43704E+02-3.63828E+01-1.84167E+01 7.15793E-14-1.51814E-15
 -1       284 2.38076E+01-1.29805E+02-3.18555E+01-1.32074E+01 5.09687E-14 6.33974E-15
 -1       285 2.45192E+01-1.17621E+02-2.79774E+01-9.29203E+00 2.59986E-14-2.51884E-15
 -1       286 2.49533E+01-1.07086E+02-2.46793E+01-6.36119E+00-5.19067E-15 2.52368E-15
 -1       287 2.52134E+01-9.81191E+01-2.19057E+01-4.18106E+00-2.14538E-14-7.43391E-16
 -1       288 2.53647E+01-9.06544E+01-1.96165E+01-2.57788E+00-4.03830E-14-2.08904E-15
 -1       289 2.54474E+01-8.46583E+01-1.77897E+01-1.42574E+00 6.78419E-15-1.17498E-17
 -1       290 2.54794E+01-8.01594E+01-1.64281E+01-6.38844E-01-6.49192E-15 7.19136E-16
 -1       291 2.54595E+01-7.72108E+01-1.55480E+01-1.73917E-01 4.65743E-15-2.31729E-16
 -1       292-6.72102E+01-5.08343E-01-2.03291E+01-1.37899E+01-8.44628E-14-4.84713E-15
 -1       293-1.22998E+02-1.50449E+01-4.14691E+01-4.89855E+01-1.91107E-13-1.23305E-15
 -1       294-1.53196E+02-4.84619E+01-6.06168E+01-9.17931E+01 3.20523E-14-1.17498E-15
 -1       295-1.52871E+02-9.42770E+01-7.43241E+01-1.26317E+02-1.03505E-13-1.62016E-15
 -1       296-1.29875E+02-1.40309E+02-8.12727E+01-1.42989E+02 8.68296E-15 2.44343E-15
 -1       297-9.71140E+01-1.76065E+02-8.21820E+01-1.41868E+02 2.97125E-14-9.13024E-16
 -1       298-6.46274E+01-1.97481E+02-7.88502E+01-1.28538E+02 3.03757E-14-5.27305E-15
 -1       299-3.74800E+01-2.05507E+02-7.30911E+01-1.09352E+02-4.99998E-14 1.27764E-14
 -1       300-1.69591E+01-2.03383E+02-6.62708E+01-8.90352E+01-1.52036E-13 9.59223E-15
 -1       301-2.39656E+00-1.94652E+02-5.92559E+01-7.02798E+01 2.08971E-14 1.36205E-14
 -1       302 7.52283E+00-1.82238E+02-5.25320E+01-5.42334E+01-7.91141E-16-4.30111E-15
 -1       303 1.40985E+01-1.68234E+02-4.63374E+01-4.11186E+01 1.57136E-15-4.19248E-16
 -1       304 1.83766E+01-1.53996E+02-4.07657E+01-3.07028E+01 5.51509E-14 7.28571E-16
 -1       305 2.11210E+01-1.40341E+02-3.58321E+01-2.25820E+01 8.74129E-14-1.04362E-15
 -1       306 2.28603E+01-1.27720E+02-3.15128E+01-1.63289E+01 1.55762E-14-3.76213E-15
 -1       307 2.39491E+01-1.16355E+02-2.77680E+01-1.15581E+01-1.15261E-14-3.09446E-15
 -1       308 2.46207E+01-1.06339E+02-2.45547E+01-7.94768E+00-3.89820E-14 4.97702E-15
 -1       309 2.50270E+01-9.76967E+01-2.18346E+01-5.24059E+00 7.38362E-15-1.18380E-16
 -1       310 2.52661E+01-9.04303E+01-1.95788E+01-3.23851E+00 3.68078E-14-7.70239E-16
 -1       311 2.53996E+01-8.45524E+01-1.77722E+01-1.79389E+00-1.02220E-14 5.33742E-16
 -1       312 2.54600E+01-8.01206E+01-1.64223E+01-8.04481E-01 9.82019E-15-2.53223E-16
 -1       313 2.54562E+01-7.72072E+01-1.55480E+01-2.18684E-01-4.72991E-15 4.01606E-16
 -1       314-4.43748E+01-7.92340E-01-1.35560E+01-8.79384E+00 1.96880E-14 1.31711E-15
 -1       315-8.44549E+01-8.01433E+00-2.77659E+01-3.00582E+01 5.58044E-14 3.69539E-15
 -1       316-1.12671E+02-2.55921E+01-4.15357E+01-5.87072E+01 1.95232E-14-4.68949E-17
 -1       317-1.23541E+02-5.38140E+01-5.33007E+01-8.75179E+01-1.63545E-13-6.16614E-15
 -1       318-1.16904E+02-8.81517E+01-6.16441E+01-1.08903E+02 2.96183E-14-7.37491E-15
 -1       319-9.76874E+01-1.21609E+02-6.59378E+01-1.18549E+02 1.54364E-13-9.78217E-15
 -1       320-7.28829E+01-1.48265E+02-6.65003E+01-1.16647E+02 2.26582E-14-6.45033E-15
 -1       321-4.82908E+01-1.65306E+02-6.42301E+01-1.06351E+02 4.90751E-14 6.80840E-15
 -1       322-2.72205E+01-1.72826E+02-6.01525E+01-9.15732E+01 6.24801E-15 6.21272E-16
 -1       323-1.07811E+01-1.72602E+02-5.51372E+01-7.55344E+01-4.27152E-14-5.78634E-15
 -1       324 1.25473E+00-1.66927E+02-4.98070E+01-6.03025E+01 8.25321E-14-1.48720E-15
 -1       325 9.68284E+00-1.57913E+02-4.45582E+01-4.69193E+01 3.80250E-14 4.30622E-15
 -1       326 1.53982E+01-1.47206E+02-3.96177E+01-3.57257E+01 5.23272E-14 1.05595E-14
 -1       327 1.91812E+01-1.35972E+02-3.51005E+01-2.66642E+01 6.22545E-14 1.43133E-15
 -1       328 2.16359E+01-1.24970E+02-3.10536E+01-1.94925E+01 1.94002E-14-5.24088E-16
 -1       329 2.32002E+01-1.14668E+02-2.74854E+01-1.39095E+01 2.16203E-14 2.31571E-15
 -1       330 2.41786E+01-1.05336E+02-2.43858E+01-9.62158E+00-7.78033E-16 3.15525E-15
 -1       331 2.47772E+01-9.71254E+01-2.17379E+01-6.37187E+00-1.36677E-14-4.93767E-16
 -1       332 2.51330E+01-9.01259E+01-1.95272E+01-3.94980E+00-2.23407E-14-9.65659E-16
 -1       333 2.53349E+01-8.44081E+01-1.77482E+01-2.19251E+00-4.36041E-15-2.72724E-15
 -1       334 2.54335E+01-8.00674E+01-1.64142E+01-9.84405E-01 2.17133E-14-1.02197E-15
 -1       335 2.54516E+01-7.72021E+01-1.55478E+01-2.67075E-01 3.41427E-14 1.81556E-16
 -1       336-3.03982E+01-7.05814E-01-9.33396E+00-6.21693E+00 1.12988E-14 2.12412E-15
 -1       337-5.93039E+01-4.96947E+00-1.92941E+01-1.98916E+01-4.93690E-14 8.61628E-15
 -1       338-8.26827E+01-1.50154E+01-2.93378E+01-3.91284E+01 1.76122E-14 4.85409E-16
 -1       339-9.65972E+01-3.22316E+01-3.86987E+01-6.08936E+01 2.75953E-14-1.41934E-15
 -1       340-9.88977E+01-5.58285E+01-4.64912E+01-8.07668E+01-3.62710E-14 8.26012E-16
 -1       341-9.03110E+01-8.25770E+01-5.19599E+01-9.45879E+01-6.36800E-14-1.43899E-15
 -1       342-7.41005E+01-1.08126E+02-5.47746E+01-1.00136E+02-6.09241E-14-1.09506E-14
 -1       343-5.45233E+01-1.28745E+02-5.50921E+01-9.76520E+01-7.05799E-14-1.84954E-14
 -1       344-3.52307E+01-1.42451E+02-5.34139E+01-8.91374E+01 3.47307E-14-1.43919E-14
 -1       345-1.84732E+01-1.49072E+02-5.03655E+01-7.71849E+01-3.03851E-14 8.02838E-15
 -1       346-5.13250E+00-1.49654E+02-4.65276E+01-6.40838E+01-2.51248E-14 4.80749E-16
 -1       347 4.83970E+00-1.45756E+02-4.23553E+01-5.14278E+01 7.42992E-14-4.85182E-16
 -1       348 1.19530E+01-1.38940E+02-3.81658E+01-4.01094E+01-2.03703E-14 1.56433E-14
 -1       349 1.68479E+01-1.30517E+02-3.41604E+01-3.04910E+01 5.60030E-14 3.27712E-15
 -1       350 2.01201E+01-1.21471E+02-3.04563E+01-2.26023E+01-2.68091E-14 2.96567E-15
 -1       351 2.22531E+01-1.12489E+02-2.71146E+01-1.62978E+01-2.96833E-14-7.26109E-16
 -1       352 2.36105E+01-1.04026E+02-2.41625E+01-1.13613E+01-6.77948E-14 2.88954E-15
 -1       353 2.44523E+01-9.63736E+01-2.16094E+01-7.56691E+00 4.14017E-14-1.14167E-15
 -1       354 2.49585E+01-8.97229E+01-1.94585E+01-4.70977E+00-1.02538E-14-4.01561E-15
 -1       355 2.52494E+01-8.42160E+01-1.77161E+01-2.62169E+00-1.76037E-14-1.72227E-15
 -1       356 2.53984E+01-7.99964E+01-1.64034E+01-1.17898E+00-4.00517E-16-1.61619E-15
 -1       357 2.54454E+01-7.71951E+01-1.55476E+01-3.19065E-01 4.17165E-14 1.71891E-16
 -1       358-2.14517E+01-7.06006E-01-6.64868E+00-4.67224E+00 2.01148E-14 1.22324E-15
 -1       359-4.25186E+01-3.53259E+00-1.38215E+01-1.40164E+01 3.38012E-14 3.43899E-15
 -1       360-6.10118E+01-9.74883E+00-2.12430E+01-2.72559E+01 1.73751E-14 3.68995E-15
 -1       361-7.44219E+01-2.05688E+01-2.85245E+01-4.31987E+01-1.40810E-15 1.80213E-16
 -1       362-8.06643E+01-3.64017E+01-3.51621E+01-5.95905E+01 4.35314E-16-1.61285E-15
 -1       363-7.88916E+01-5.62423E+01-4.05978E+01-7.35852E+01 4.05543E-14 9.97319E-16
 -1       364-6.99541E+01-7.77498E+01-4.43818E+01-8.27005E+01 2.88628E-14 2.77717E-15
 -1       365-5.61143E+01-9.79866E+01-4.63097E+01-8.56816E+01-4.12191E-15-3.25359E-15
 -1       366-4.01871E+01-1.14416E+02-4.64639E+01-8.27820E+01-4.07620E-14-2.19623E-15
 -1       367-2.46306E+01-1.25591E+02-4.51485E+01-7.53868E+01-7.99058E-14 2.44788E-15
 -1       368-1.10357E+01-1.31279E+02-4.27718E+01-6.53307E+01 1.06589E-14-1.22699E-14
 -1       369-8.62901E-02-1.32144E+02-3.97398E+01-5.43089E+01-1.62943E-14-7.44814E-15
 -1       370 8.20129E+00-1.29303E+02-3.63937E+01-4.35704E+01-3.82513E-14-6.01334E-15
 -1       371 1.41767E+01-1.23954E+02-3.29887E+01-3.38658E+01-7.41766E-14-5.14868E-15
 -1       372 1.83190E+01-1.17157E+02-2.97001E+01-2.55387E+01 2.49125E-14 2.34248E-15
 -1       373 2.10963E+01-1.09753E+02-2.66394E+01-1.86577E+01-6.32399E-14 4.85005E-15
 -1       374 2.29023E+01-1.02358E+02-2.38737E+01-1.31352E+01 6.28557E-15 4.73615E-16
 -1       375 2.40411E+01-9.54061E+01-2.14419E+01-8.81228E+00 3.87563E-14-4.63667E-15
 -1       376 2.47351E+01-8.92000E+01-1.93683E+01-5.51391E+00-7.56526E-15-4.23386E-15
 -1       377 2.51392E+01-8.39651E+01-1.76738E+01-3.08051E+00 4.62101E-16 3.22571E-16
 -1       378 2.53529E+01-7.99030E+01-1.63890E+01-1.38820E+00-1.56145E-14-1.61575E-15
 -1       379 2.54372E+01-7.71855E+01-1.55471E+01-3.74491E-01 1.00211E-14 1.20202E-15
 -1       380-1.54777E+01-6.80930E-01-4.84832E+00-3.67868E+00-1.13031E-13-5.81540E-16
 -1       381-3.09927E+01-2.75176E+00-1.01266E+01-1.03806E+01-1.03628E-13 2.39660E-15
 -1       382-4.53521E+01-6.91743E+00-1.56889E+01-1.97738E+01-2.33489E-14 1.55807E-15
 -1       383-5.70136E+01-1.40400E+01-2.13313E+01-3.14364E+01 9.58876E-15-1.62088E-15
 -1       384-6.44038E+01-2.47592E+01-2.67735E+01-4.43012E+01 5.09292E-14-4.35259E-15
 -1       385-6.63651E+01-3.90396E+01-3.16567E+01-5.66896E+01 3.52999E-14-8.99446E-15
 -1       386-6.26116E+01-5.59363E+01-3.56102E+01-6.66822E+01 2.87510E-14-2.22378E-15
 -1       387-5.39297E+01-7.36855E+01-3.83393E+01-7.26914E+01-8.03321E-15-1.84592E-15
 -1       388-4.19688E+01-9.01770E+01-3.97047E+01-7.39668E+01-1.90428E-14 7.68139E-15
 -1       389-2.87101E+01-1.03582E+02-3.97513E+01-7.07614E+01-1.51181E-14 9.18912E-15
 -1       390-1.58982E+01-1.12813E+02-3.86768E+01-6.41060E+01 7.66711E-14-1.92823E-16
 -1       391-4.69595E+00-1.17646E+02-3.67630E+01-5.53726E+01 4.72418E-14-1.83792E-14
 -1       392 4.37101E+00-1.18540E+02-3.43068E+01-4.58664E+01 1.28719E-13 1.00218E-14
 -1       393 1.12720E+01-1.16341E+02-3.15717E+01-3.65867E+01 2.97777E-16 1.02471E-15
 -1       394 1.62668E+01-1.12003E+02-2.87665E+01-2.81636E+01-4.97616E-14-7.26556E-15
 -1       395 1.97312E+01-1.06408E+02-2.60434E+01-2.09070E+01 9.57997E-14 6.16626E-15
 -1       396 2.20443E+01-1.00282E+02-2.35071E+01-1.48995E+01-3.53850E-15-1.14178E-14
 -1       397 2.35332E+01-9.41853E+01-2.12274E+01-1.00878E+01-4.37627E-14-5.86451E-15
 -1       398 2.44552E+01-8.85333E+01-1.92519E+01-6.35437E+00-3.18936E-14-1.33122E-15
 -1       399 2.49997E+01-8.36427E+01-1.76187E+01-3.56661E+00-1.76855E-14 3.57620E-16
 -1       400 2.52949E+01-7.97820E+01-1.63700E+01-1.61160E+00-1.24731E-14 9.35823E-16
 -1       401 2.54264E+01-7.71723E+01-1.55464E+01-4.33014E-01 1.71211E-14 1.85914E-15
 -1       402-1.13627E+01-6.63408E-01-3.60823E+00-2.98808E+00-5.29206E-14 2.21928E-15
 -1       403-2.29005E+01-2.29285E+00-7.55981E+00-7.99657E+00-3.17066E-14 4.22668E-15
 -1       404-3.39645E+01-5.29033E+00-1.17810E+01-1.48703E+01 2.62579E-14-1.46074E-15
 -1       405-4.36190E+01-1.02296E+01-1.61633E+01-2.34989E+01-3.48614E-14 9.70394E-16
 -1       406-5.07822E+01-1.76792E+01-2.05529E+01-3.34144E+01-2.24186E-14-2.82258E-16
 -1       407-5.44376E+01-2.79294E+01-2.47317E+01-4.37069E+01 2.45371E-15-3.94629E-15
 -1       408-5.39288E+01-4.07720E+01-2.84396E+01-5.31129E+01-3.35049E-14 1.32808E-15
 -1       409-4.92251E+01-5.53678E+01-3.14149E+01-6.02778E+01-1.14177E-14-1.97399E-15
 -1       410-4.10182E+01-7.03371E+01-3.34501E+01-6.41316E+01 2.99751E-14 9.59172E-15
 -1       411-3.05649E+01-8.40863E+01-3.44434E+01-6.42122E+01-1.24918E-14-1.00641E-14
 -1       412-1.93309E+01-9.52352E+01-3.44202E+01-6.07708E+01-5.60303E-15 1.36090E-14
 -1       413-8.60814E+00-1.02946E+02-3.35168E+01-5.46220E+01 2.52094E-14 1.74578E-15
 -1       414 7.30727E-01-1.07029E+02-3.19382E+01-4.68423E+01-2.35371E-14 4.21377E-15
 -1       415 8.28405E+00-1.07833E+02-2.99103E+01-3.84729E+01-2.13281E-14 6.12067E-15
 -1       416 1.40294E+01-1.06034E+02-2.76433E+01-3.03312E+01 2.59445E-15-1.14773E-14
 -1       417 1.81767E+01-1.02423E+02-2.53118E+01-2.29485E+01 6.11639E-14-1.13439E-14
 -1       418 2.10348E+01-9.77539E+01-2.30500E+01-1.65985E+01-2.02933E-14-7.02111E-15
 -1       419 2.29208E+01-9.26729E+01-2.09565E+01-1.13655E+01 1.17546E-14-3.03894E-16
 -1       420 2.41115E+01-8.76966E+01-1.91035E+01-7.21911E+00-8.96488E-15 5.52788E-15
 -1       421 2.48261E+01-8.32338E+01-1.75479E+01-4.07576E+00 3.48622E-14-3.23799E-15
 -1       422 2.52221E+01-7.96270E+01-1.63453E+01-1.84801E+00-4.99745E-15-1.61794E-15
 -1       423 2.54124E+01-7.71543E+01-1.55452E+01-4.94069E-01 6.42108E-14-1.04790E-15
 -1       424-8.45304E+00-6.47692E-01-2.73045E+00-2.48336E+00-1.98510E-14 3.85706E-15
 -1       425-1.71029E+01-2.00398E+00-5.73310E+00-6.35216E+00-2.83260E-14-1.45116E-15
 -1       426-2.56034E+01-4.29843E+00-8.97318E+00-1.15291E+01-2.80006E-14-5.96411E-15
 -1       427-3.33876E+01-7.90746E+00-1.23936E+01-1.80217E+01-4.25223E-14-1.06949E-15
 -1       428-3.97413E+01-1.32706E+01-1.59123E+01-2.56478E+01-5.91314E-14 9.24882E-16
 -1       429-4.38926E+01-2.07320E+01-1.94007E+01-3.39452E+01-4.29687E-14-5.70653E-15
 -1       430-4.51704E+01-3.04001E+01-2.26899E+01-4.21558E+01-2.21259E-14-5.24675E-15
 -1       431-4.32015E+01-4.19963E+01-2.55840E+01-4.93051E+01 4.65845E-14-1.23344E-14
 -1       432-3.80786E+01-5.47823E+01-2.78887E+01-5.43993E+01 1.37859E-14 1.09020E-14
 -1       433-3.04072E+01-6.76416E+01-2.94500E+01-5.66897E+01 1.56415E-14-1.66231E-14
 -1       434-2.11827E+01-7.93204E+01-3.01898E+01-5.58922E+01-5.44669E-14 9.56969E-15
 -1       435-1.15349E+01-8.87393E+01-3.01231E+01-5.22582E+01 4.49570E-14-5.21555E-15
 -1       436-2.45316E+00-9.52405E+01-2.93493E+01-4.64653E+01-2.08914E-14 1.45241E-14
 -1       437 5.39443E+00-9.86765E+01-2.80247E+01-3.93947E+01-1.04558E-13 1.88877E-14
 -1       438 1.17044E+01-9.93393E+01-2.63285E+01-3.19042E+01 6.19412E-14 4.33430E-15
 -1       439 1.64726E+01-9.78005E+01-2.44338E+01-2.46768E+01-2.62489E-14-7.19151E-15
 -1       440 1.98827E+01-9.47423E+01-2.24905E+01-1.81649E+01 2.84975E-14 1.36788E-15
 -1       441 2.22003E+01-9.08332E+01-2.06197E+01-1.26087E+01-2.99329E-14 5.45491E-15
 -1       442 2.36979E+01-8.66619E+01-1.89166E+01-8.09102E+00-8.20092E-14-3.41951E-15
 -1       443 2.46138E+01-8.27215E+01-1.74576E+01-4.60134E+00-2.82166E-16 5.34909E-15
 -1       444 2.51319E+01-7.94304E+01-1.63132E+01-2.09537E+00-2.03234E-14 1.20537E-15
 -1       445 2.53945E+01-7.71297E+01-1.55432E+01-5.56819E-01 1.33094E-14-1.27773E-15
 -1       446-6.35178E+00-6.36029E-01-2.09648E+00-2.09786E+00-4.92915E-14-9.22006E-15
 -1       447-1.28771E+01-1.81309E+00-4.40766E+00-5.16703E+00 4.72376E-14-8.25232E-15
 -1       448-1.94012E+01-3.66362E+00-6.92099E+00-9.16720E+00 6.16824E-14-6.41701E-16
 -1       449-2.55789E+01-6.43403E+00-9.60696E+00-1.41441E+01 2.79666E-15 2.28381E-15
 -1       450-3.09479E+01-1.04486E+01-1.24242E+01-2.00458E+01 1.16396E-15 4.28435E-15
 -1       451-3.49595E+01-1.60122E+01-1.52998E+01-2.66533E+01-2.20906E-14-8.87706E-15
 -1       452-3.70546E+01-2.33348E+01-1.81288E+01-3.35398E+01-1.02316E-14 7.13856E-15
 -1       453-3.67819E+01-3.24210E+01-2.07772E+01-4.00700E+01 5.20484E-14-8.19427E-15
 -1       454-3.39378E+01-4.29661E+01-2.30921E+01-4.54737E+01-1.29551E-14 2.18133E-16
 -1       455-2.86777E+01-5.43157E+01-2.49234E+01-4.89992E+01 3.74923E-14 1.29064E-15
 -1       456-2.15376E+01-6.55382E+01-2.61521E+01-5.01083E+01 5.39346E-14 1.61891E-15
 -1       457-1.33329E+01-7.56136E+01-2.67162E+01-4.86355E+01 1.27074E-14-1.15081E-14
 -1       458-4.96408E+00-8.36736E+01-2.66252E+01-4.48361E+01 3.85034E-14-2.95391E-15
 -1       459 2.79073E+00-8.91958E+01-2.59559E+01-3.92991E+01 7.21217E-14-2.14853E-14
 -1       460 9.41354E+00-9.20784E+01-2.48333E+01-3.27734E+01 2.88536E-14-2.47440E-15
 -1       461 1.46804E+01-9.25889E+01-2.34050E+01-2.59872E+01 2.85943E-15 2.15874E-16
 -1       462 1.86102E+01-9.12370E+01-2.18187E+01-1.95232E+01 2.35650E-14 4.62059E-15
 -1       463 2.13745E+01-8.86370E+01-2.02074E+01-1.37721E+01 1.00532E-17-2.11567E-15
 -1       464 2.32107E+01-8.54018E+01-1.86840E+01-8.94720E+00-1.55599E-15-1.24378E-14
 -1       465 2.43585E+01-8.20875E+01-1.73436E+01-5.13373E+00-3.53390E-15-3.68100E-15
 -1       466 2.50220E+01-7.91832E+01-1.62719E+01-2.35046E+00-3.27737E-15 1.27134E-15
 -1       467 2.53716E+01-7.70963E+01-1.55400E+01-6.20113E-01-1.61842E-14 2.48502E-15
 -1       468-4.80707E+00-6.27668E-01-1.63050E+00-1.79333E+00-1.97734E-14 3.38404E-15
 -1       469-9.75052E+00-1.68237E+00-3.43024E+00-4.27963E+00-3.84568E-14-1.04834E-16
 -1       470-1.47536E+01-3.24065E+00-5.39923E+00-7.43905E+00-8.64296E-14 9.61224E-16
 -1       471-1.96047E+01-5.46445E+00-7.52264E+00-1.13242E+01-8.71571E-16-3.11470E-16
 -1       472-2.40065E+01-8.59031E+00-9.78232E+00-1.59382E+01 3.00789E-14 3.47148E-16
 -1       473-2.75823E+01-1.28630E+01-1.21388E+01-2.11879E+01 7.98426E-14-3.08212E-15
 -1       474-2.99072E+01-1.85001E+01-1.45299E+01-2.68460E+01 1.87463E-14-4.04994E-16
 -1       475-3.05700E+01-2.56239E+01-1.68689E+01-3.25246E+01-1.70410E-15 9.19340E-15
 -1       476-2.92649E+01-3.41767E+01-1.90468E+01-3.76853E+01-4.43311E-15-1.19856E-15
 -1       477-2.58955E+01-4.38466E+01-2.09406E+01-4.17056E+01-3.66576E-14 6.39922E-16
 -1       478-2.06515E+01-5.40455E+01-2.24307E+01-4.40024E+01-5.61019E-14 1.13498E-14
 -1       479-1.40147E+01-6.39750E+01-2.34218E+01-4.41840E+01-4.01183E-14 9.27138E-15
 -1       480-6.67285E+00-7.27817E+01-2.38637E+01-4.21701E+01 2.65599E-14 3.17602E-15
 -1       481 6.36219E-01-7.97523E+01-2.37637E+01-3.82235E+01-4.25153E-14 8.65028E-15
 -1       482 7.28815E+00-8.44716E+01-2.31846E+01-3.28768E+01 6.14181E-15-6.49738E-15
 -1       483 1.28798E+01-8.68848E+01-2.22308E+01-2.67886E+01 2.24931E-14 9.73838E-15
 -1       484 1.72539E+01-8.72570E+01-2.10294E+01-2.05943E+01-6.38767E-15-5.47029E-15
 -1       485 2.04542E+01-8.60671E+01-1.97111E+01-1.48026E+01 3.11442E-14-1.14273E-14
 -1       486 2.26492E+01-8.38911E+01-1.83984E+01-9.75849E+00-3.15016E-14-7.50523E-16
 -1       487 2.40571E+01-8.13123E+01-1.72010E+01-5.65977E+00 1.22793E-14 3.65335E-15
 -1       488 2.48901E+01-7.88753E+01-1.62189E+01-2.60862E+00 8.63938E-15-3.84067E-16
 -1       489 2.53428E+01-7.70508E+01-1.55350E+01-6.82469E-01 4.60389E-15-3.09620E-15
 -1       490-3.65436E+00-6.22376E-01-1.28307E+00-1.54591E+00 3.98485E-14-9.23345E-16
 -1       491-7.40724E+00-1.59063E+00-2.69959E+00-3.59267E+00 1.23722E-14 2.69974E-16
 -1       492-1.12380E+01-2.94962E+00-4.25687E+00-6.13360E+00-3.27786E-14 4.92728E-16
 -1       493-1.50154E+01-4.80600E+00-5.94761E+00-9.21722E+00 2.65210E-14 2.09542E-15
 -1       494-1.85487E+01-7.33303E+00-7.76658E+00-1.28667E+01-2.46102E-14-7.22942E-16
 -1       495-2.15835E+01-1.07202E+01-9.69442E+00-1.70510E+01 1.45421E-14 5.51141E-15
 -1       496-2.38123E+01-1.51585E+01-1.16962E+01-2.16563E+01 9.96629E-15 1.52402E-14
 -1       497-2.49023E+01-2.08033E+01-1.37188E+01-2.64573E+01-2.43687E-14 8.87498E-15
 -1       498-2.45476E+01-2.77172E+01-1.56891E+01-3.11023E+01-3.00980E-14-1.49962E-15
 -1       499-2.25432E+01-3.58033E+01-1.75166E+01-3.51289E+01-1.85469E-14 4.12738E-15
 -1       500-1.88642E+01-4.47497E+01-1.90999E+01-3.80238E+01-2.06296E-14-1.37944E-14
 -1       501-1.37207E+01-5.40191E+01-2.03408E+01-3.93270E+01 6.29455E-14-5.51487E-15
 -1       502-7.55343E+00-6.29113E+01-2.11610E+01-3.87541E+01 1.28104E-14-1.79249E-14
 -1       503-9.57221E-01-7.06961E+01-2.15198E+01-3.62907E+01-2.35260E-14 1.65417E-14
 -1       504 5.45001E+00-7.67790E+01-2.14240E+01-3.22121E+01-3.67471E-14 5.81605E-15
 -1       505 1.11607E+01-8.08340E+01-2.09280E+01-2.70172E+01 2.45755E-14 1.32088E-14
 -1       506 1.58637E+01-8.28560E+01-2.01238E+01-2.13039E+01-2.28377E-14 1.09813E-14
 -1       507 1.94594E+01-8.31244E+01-1.91251E+01-1.56425E+01-1.69747E-14 9.99237E-15
 -1       508 2.20175E+01-8.21109E+01-1.80529E+01-1.04896E+01-2.92247E-14 1.17390E-14
 -1       509 2.37081E+01-8.03769E+01-1.70246E+01-6.16222E+00-1.85406E-14-8.30087E-17
 -1       510 2.47342E+01-7.84953E+01-1.61515E+01-2.86341E+00-6.99005E-15-4.34538E-15
 -1       511 2.53067E+01-7.69893E+01-1.55273E+01-7.42084E-01 2.61598E-14-2.07537E-16
 -1       512-2.78304E+00-6.19753E-01-1.02087E+00-1.34014E+00-1.32843E-14 1.70075E-16
 -1       513-5.63127E+00-1.52538E+00-2.14714E+00-3.04514E+00 8.93113E-15-6.11908E-16
 -1       514-8.55557E+00-2.74435E+00-3.39035E+00-5.11802E+00 1.21554E-14 3.33882E-16
 -1       515-1.14734E+01-4.34682E+00-4.74680E+00-7.60041E+00-1.11098E-14-9.03147E-17
 -1       516-1.42618E+01-6.46126E+00-6.21824E+00-1.05200E+01-9.79558E-15 1.13972E-14
 -1       517-1.67506E+01-9.23273E+00-7.79715E+00-1.38745E+01-1.76167E-14-3.32845E-15
 -1       518-1.87229E+01-1.28185E+01-9.46568E+00-1.76120E+01-2.06597E-14-5.62135E-15
 -1       519-1.99257E+01-1.73688E+01-1.11931E+01-2.16072E+01 1.22648E-14-1.40522E-14
 -1       520-2.00958E+01-2.29935E+01-1.29334E+01-2.56413E+01 2.35612E-14-1.74069E-15
 -1       521-1.90051E+01-2.97131E+01-1.46243E+01-2.93942E+01 3.40570E-14 1.25895E-14
 -1       522-1.65209E+01-3.74037E+01-1.61887E+01-3.24630E+01 2.99622E-14 1.33683E-14
 -1       523-1.26693E+01-4.57554E+01-1.75415E+01-3.44179E+01 2.24487E-14 2.18431E-14
 -1       524-7.67383E+00-5.42697E+01-1.85998E+01-3.48923E+01-5.67874E-15-1.35288E-15
 -1       525-1.94487E+00-6.23195E+01-1.92985E+01-3.36858E+01-1.50289E-14-9.81315E-15
 -1       526 3.99242E+00-6.92693E+01-1.96043E+01-3.08394E+01-1.13681E-14 4.74784E-15
 -1       527 9.61179E+00-7.46203E+01-1.95253E+01-2.66470E+01 6.48586E-15-5.31258E-15
 -1       528 1.44987E+01-7.81257E+01-1.91116E+01-2.15913E+01-2.22532E-14-1.55175E-14
 -1       529 1.84189E+01-7.98338E+01-1.84483E+01-1.62328E+01-2.70026E-14 3.35938E-15
 -1       530 2.13250E+01-8.00527E+01-1.76420E+01-1.10999E+01-5.31421E-15 4.81576E-15
 -1       531 2.33121E+01-7.92649E+01-1.68091E+01-6.61949E+00-8.87743E-15 1.11399E-15
 -1       532 2.45534E+01-7.80316E+01-1.60663E+01-3.10630E+00-1.28835E-14 6.50346E-16
 -1       533 2.52623E+01-7.69068E+01-1.55158E+01-7.96884E-01 1.81163E-14 1.65495E-15
 -1       534-2.11705E+00-6.19521E-01-8.20992E-01-1.16551E+00-2.07484E-14 5.34802E-15
 -1       535-4.27217E+00-1.47886E+00-1.72540E+00-2.59732E+00-1.85475E-14-5.23683E-16
 -1       536-6.49309E+00-2.59696E+00-2.72725E+00-4.30622E+00-9.12818E-15-3.23336E-15
 -1       537-8.72643E+00-4.01970E+00-3.82432E+00-6.32729E+00-1.55733E-14 3.04346E-15
 -1       538-1.08928E+01-5.84378E+00-5.02184E+00-8.68631E+00 1.21536E-14 3.37252E-15
 -1       539-1.28784E+01-8.18063E+00-6.31911E+00-1.13930E+01-3.29075E-14-1.56288E-15
 -1       540-1.45322E+01-1.11562E+01-7.70869E+00-1.44275E+01-1.95961E-14-1.12696E-14
 -1       541-1.56687E+01-1.49024E+01-9.17450E+00-1.77237E+01 7.72376E-15-7.56802E-15
 -1       542-1.60782E+01-1.95382E+01-1.06894E+01-2.11503E+01 9.24697E-15-7.64705E-16
 -1       543-1.55515E+01-2.51391E+01-1.22134E+01-2.44963E+01 6.59120E-15-3.29232E-15
 -1       544-1.39192E+01-3.16941E+01-1.36921E+01-2.74680E+01 5.14522E-15 4.78675E-16
 -1       545-1.11035E+01-3.90595E+01-1.50593E+01-2.97104E+01 2.44728E-14 1.66300E-14
 -1       546-7.16881E+00-4.69266E+01-1.62414E+01-3.08593E+01 2.59418E-14-5.24057E-15
 -1       547-2.34958E+00-5.48258E+01-1.71679E+01-3.06228E+01 1.57240E-14-1.60058E-15
 -1       548 2.96645E+00-6.21859E+01-1.77834E+01-2.88707E+01 1.60766E-14-4.49393E-14
 -1       549 8.30752E+00-6.84470E+01-1.80613E+01-2.56959E+01 1.17859E-14-9.02802E-15
 -1       550 1.32207E+01-7.31917E+01-1.80123E+01-2.14179E+01 6.85134E-14-3.79405E-15
 -1       551 1.73693E+01-7.62480E+01-1.76856E+01-1.65197E+01-1.47710E-14 3.20133E-15
 -1       552 2.05867E+01-7.77231E+01-1.71634E+01-1.15454E+01-1.30890E-14-8.40933E-15
 -1       553 2.28730E+01-7.79648E+01-1.65501E+01-7.00552E+00-1.38677E-15-3.72749E-16
 -1       554 2.43478E+01-7.74727E+01-1.59600E+01-3.32629E+00-4.30082E-15-7.15028E-16
 -1       555 2.52086E+01-7.67975E+01-1.54991E+01-8.44615E-01 8.37972E-15-2.72057E-16
 -1       556-1.60305E+00-6.21470E-01-6.67370E-01-1.01456E+00 8.56102E-16 4.20989E-15
 -1       557-3.22339E+00-1.44615E+00-1.40092E+00-2.22246E+00-1.66110E-14-7.99507E-15
 -1       558-4.89662E+00-2.49006E+00-2.21616E+00-3.64082E+00-1.95761E-14 7.52800E-17
 -1       559-6.58659E+00-3.78290E+00-3.11117E+00-5.29950E+00-1.09247E-14-5.98666E-16
 -1       560-8.24184E+00-5.39871E+00-4.09273E+00-7.22027E+00-8.07851E-15 9.13175E-15
 -1       561-9.78584E+00-7.42396E+00-5.16387E+00-9.41650E+00-7.88982E-15-1.70257E-15
 -1       562-1.11143E+01-9.95887E+00-6.32339E+00-1.18843E+01-7.42669E-15 5.25742E-15
 -1       563-1.20935E+01-1.31141E+01-7.56444E+00-1.45910E+01 1.75933E-16-6.44359E-15
 -1       564-1.25638E+01-1.70014E+01-8.87266E+00-1.74603E+01-1.99930E-14 1.49395E-14
 -1       565-1.23505E+01-2.17154E+01-1.02241E+01-2.03578E+01-1.17254E-14 1.50359E-14
 -1       566-1.12871E+01-2.73044E+01-1.15833E+01-2.30802E+01-1.53366E-14 6.34149E-15
 -1       567-9.25039E+00-3.37329E+01-1.29026E+01-2.53560E+01-4.79264E-14 1.36168E-14
 -1       568-6.20576E+00-4.08409E+01-1.41237E+01-2.68693E+01 2.35095E-14-1.62318E-14
 -1       569-2.24868E+00-4.83193E+01-1.51824E+01-2.73101E+01-1.66352E-14-8.18680E-15
 -1       570 2.37619E+00-5.57191E+01-1.60172E+01-2.64501E+01 3.14151E-14-1.27390E-15
 -1       571 7.29751E+00-6.25131E+01-1.65812E+01-2.42225E+01-1.73603E-14 3.08224E-15
 -1       572 1.20861E+01-6.82041E+01-1.68538E+01-2.07739E+01-3.43505E-14 9.99057E-15
 -1       573 1.63506E+01-7.24487E+01-1.68494E+01-1.64600E+01 1.29488E-14-8.15567E-16
 -1       574 1.98228E+01-7.51486E+01-1.66188E+01-1.17815E+01-1.97474E-14-6.98000E-15
 -1       575 2.23974E+01-7.64741E+01-1.62448E+01-7.29028E+00-4.10379E-15 3.25707E-15
 -1       576 2.41190E+01-7.68093E+01-1.58293E+01-3.50965E+00-2.52778E-14 1.68598E-15
 -1       577 2.51453E+01-7.66552E+01-1.54753E+01-8.82932E-01 1.70676E-14 2.03820E-15
 -1       578-1.20298E+00-6.25471E-01-5.48545E-01-8.81778E-01-1.55635E-14-1.94410E-14
 -1       579-2.40832E+00-1.42403E+00-1.14975E+00-1.90184E+00-1.65592E-14-8.47778E-15
 -1       580-3.65396E+00-2.41240E+00-1.82001E+00-3.08241E+00-2.59256E-14-1.44703E-15
 -1       581-4.91335E+00-3.60976E+00-2.55715E+00-4.44953E+00 1.78394E-15 8.01768E-15
 -1       582-6.15301E+00-5.07368E+00-3.36839E+00-6.02068E+00 1.19246E-14-6.08644E-15
 -1       583-7.32119E+00-6.87228E+00-4.25868E+00-7.80916E+00-1.23068E-15-1.17047E-14
 -1       584-8.34562E+00-9.08561E+00-5.23036E+00-9.81825E+00-4.96539E-15-8.75505E-15
 -1       585-9.13103E+00-1.18050E+01-6.28230E+00-1.20334E+01-6.92127E-16-1.14037E-14
 -1       586-9.55871E+00-1.51289E+01-7.40844E+00-1.44118E+01 1.29445E-14 1.09841E-14
 -1       587-9.49060E+00-1.91529E+01-8.59609E+00-1.68702E+01-9.56353E-15 1.07322E-14
 -1       588-8.78073E+00-2.39518E+01-9.82394E+00-1.92724E+01 1.67109E-14 5.17429E-15
 -1       589-7.29701E+00-2.95524E+01-1.10604E+01-2.14220E+01-4.66886E-15 2.25967E-15
 -1       590-4.95413E+00-3.58984E+01-1.22631E+01-2.30667E+01 1.11148E-15-1.39850E-14
 -1       591-1.75322E+00-4.28154E+01-1.33799E+01-2.39235E+01 1.69690E-14-1.81811E-14
 -1       592 2.18332E+00-4.99911E+01-1.43538E+01-2.37299E+01 8.99844E-15-4.20246E-15
 -1       593 6.60028E+00-5.69907E+01-1.51309E+01-2.23163E+01 3.37898E-15 1.82152E-14
 -1       594 1.11379E+01-6.33218E+01-1.56711E+01-1.96796E+01 1.19805E-14-9.52992E-15
 -1       595 1.54024E+01-6.85424E+01-1.59599E+01-1.60273E+01 1.39256E-14 3.58689E-17
 -1       596 1.90570E+01-7.23782E+01-1.60160E+01-1.17670E+01-2.29326E-14 8.51182E-15
 -1       597 2.18954E+01-7.48029E+01-1.58931E+01-7.44079E+00 6.60667E-15 6.74111E-15
 -1       598 2.38703E+01-7.60365E+01-1.56716E+01-3.63969E+00-1.09389E-14 1.36277E-15
 -1       599 2.50731E+01-7.64739E+01-1.54424E+01-9.09434E-01-3.73798E-14 5.09230E-15
 -1       600-8.89324E-01-6.31457E-01-4.56241E-01-7.62864E-01 3.38427E-15-2.16958E-16
 -1       601-1.77124E+00-1.41037E+00-9.54512E-01-1.62186E+00 9.69486E-15-5.53413E-15
 -1       602-2.68256E+00-2.35662E+00-1.51183E+00-2.60309E+00 8.55601E-15-3.32664E-15
 -1       603-3.60139E+00-3.48282E+00-2.12541E+00-3.72988E+00 4.85810E-15-1.69231E-14
 -1       604-4.50589E+00-4.83448E+00-2.80238E+00-5.01592E+00 2.16516E-14 7.48665E-15
 -1       605-5.36070E+00-6.46617E+00-3.54850E+00-6.47290E+00 3.53307E-15-9.40517E-15
 -1       606-6.11545E+00-8.44250E+00-4.36807E+00-8.10671E+00 1.98696E-15 5.93429E-15
 -1       607-6.70229E+00-1.08387E+01-5.26333E+00-9.91233E+00-9.96334E-16-7.96943E-15
 -1       608-7.03414E+00-1.37390E+01-6.23348E+00-1.18666E+01 1.01588E-14-2.12171E-15
 -1       609-7.00515E+00-1.72322E+01-7.27339E+00-1.39189E+01-3.11149E-15 2.34641E-15
 -1       610-6.49544E+00-2.14008E+01-8.37191E+00-1.59804E+01-7.91932E-15 1.94055E-16
 -1       611-5.38290E+00-2.63036E+01-9.51009E+00-1.79141E+01 7.30124E-15 1.87107E-15
 -1       612-3.56435E+00-3.19491E+01-1.06596E+01-1.95299E+01-2.35914E-14-1.80019E-14
 -1       613-9.86414E-01-3.82627E+01-1.17820E+01-2.05925E+01 4.60221E-15-1.79128E-14
 -1       614 2.31852E+00-4.50554E+01-1.28303E+01-2.08490E+01-1.71812E-14 9.71624E-15
 -1       615 6.20314E+00-5.20088E+01-1.37531E+01-2.00820E+01 7.75269E-16 1.64921E-14
 -1       616 1.04005E+01-5.86963E+01-1.45025E+01-1.81814E+01 2.53671E-15-1.97035E-14
 -1       617 1.45585E+01-6.46528E+01-1.50443E+01-1.52154E+01-7.96355E-15-2.07575E-14
 -1       618 1.83140E+01-6.94840E+01-1.53691E+01-1.14680E+01 5.16002E-15 6.35298E-15
 -1       619 2.13791E+01-7.29779E+01-1.54995E+01-7.42291E+00 1.71610E-14 2.45835E-15
 -1       620 2.36068E+01-7.51562E+01-1.54860E+01-3.69677E+00 3.91437E-16-4.50967E-15
 -1       621 2.49943E+01-7.62496E+01-1.53986E+01-9.21509E-01 6.81071E-15-1.78381E-15
 -1       622-6.41985E-01-6.39404E-01-3.84421E-01-6.54314E-01 4.72872E-15-1.31270E-14
 -1       623-1.27124E+00-1.40377E+00-8.02523E-01-1.37217E+00-3.21897E-15 1.71139E-14
 -1       624-1.92135E+00-2.31777E+00-1.27179E+00-2.18236E+00 5.47701E-15 1.32024E-14
 -1       625-2.57166E+00-3.39043E+00-1.78873E+00-3.10613E+00 3.63833E-15-5.62958E-15
 -1       626-3.20790E+00-4.65830E+00-2.36005E+00-4.15413E+00-1.88175E-15 2.86673E-15
 -1       627-3.80556E+00-6.16591E+00-2.99175E+00-5.33598E+00-8.69536E-15-1.51979E-15
 -1       628-4.32915E+00-7.96620E+00-3.68909E+00-6.65798E+00 1.98936E-15-2.15913E-14
 -1       629-4.73010E+00-1.01215E+01-4.45621E+00-8.11973E+00-7.63371E-15-1.21361E-14
 -1       630-4.94475E+00-1.27034E+01-5.29554E+00-9.70925E+00 5.76718E-15-1.06801E-14
 -1       631-4.89326E+00-1.57910E+01-6.20687E+00-1.13963E+01 1.96376E-15-1.48024E-14
 -1       632-4.48077E+00-1.94653E+01-7.18606E+00-1.31241E+01-2.75774E-14 5.18357E-15
 -1       633-3.60281E+00-2.37984E+01-8.22346E+00-1.47994E+01-3.17085E-15 3.12969E-14
 -1       634-2.15749E+00-2.88357E+01-9.30217E+00-1.62851E+01 3.69226E-15-6.07590E-15
 -1       635-6.64436E-02-3.45698E+01-1.03965E+01-1.73974E+01 1.69826E-14 6.27626E-15
 -1       636 2.69554E+00-4.09087E+01-1.14713E+01-1.79175E+01 3.08619E-14 2.67850E-15
 -1       637 6.06728E+00-4.76472E+01-1.24834E+01-1.76226E+01 6.71774E-15-5.73640E-16
 -1       638 9.87677E+00-5.44561E+01-1.33855E+01-1.63432E+01 4.45769E-16 1.29172E-14
 -1       639 1.38430E+01-6.09093E+01-1.41341E+01-1.40376E+01-1.21895E-14-2.05367E-15
 -1       640 1.76177E+01-6.65590E+01-1.46990E+01-1.08620E+01-8.96214E-15 4.49965E-15
 -1       641 2.08625E+01-7.10449E+01-1.50736E+01-7.20392E+00-8.68156E-15-5.04492E-15
 -1       642 2.33347E+01-7.41810E+01-1.52746E+01-3.65876E+00-1.01228E-14 8.51498E-15
 -1       643 2.49132E+01-7.59818E+01-1.53425E+01-9.15879E-01 1.37316E-14 8.77262E-16
 -1       644-4.46210E-01-6.49322E-01-3.28663E-01-5.53075E-01 3.85970E-15-1.53991E-14
 -1       645-8.78192E-01-1.40328E+00-6.84458E-01-1.14447E+00 2.02300E-15 4.59257E-15
 -1       646-1.32504E+00-2.29252E+00-1.08531E+00-1.80446E+00-4.05508E-15 6.19109E-15
 -1       647-1.76489E+00-3.32471E+00-1.52696E+00-2.55238E+00 2.41857E-15 2.70564E-14
 -1       648-2.18838E+00-4.52974E+00-2.01557E+00-3.39660E+00-2.69002E-16 2.00206E-14
 -1       649-2.57820E+00-5.94466E+00-2.55709E+00-4.34472E+00-7.01677E-16 1.16351E-14
 -1       650-2.90894E+00-7.61362E+00-3.15712E+00-5.40240E+00 3.89798E-15 6.45542E-15
 -1       651-3.14542E+00-9.58891E+00-3.82084E+00-6.57121E+00-2.46600E-15-6.53821E-15
 -1       652-3.24089E+00-1.19316E+01-4.55256E+00-7.84537E+00 9.11816E-15 1.69965E-14
 -1       653-3.13543E+00-1.47112E+01-5.35515E+00-9.20713E+00-6.40098E-15-3.09926E-15
 -1       654-2.75540E+00-1.80029E+01-6.22917E+00-1.06205E+01-7.34752E-15-1.79310E-14
 -1       655-2.01526E+00-2.18822E+01-7.17157E+00-1.20236E+01 1.41732E-14 8.11776E-15
 -1       656-8.23619E-01-2.64128E+01-8.17416E+00-1.33205E+01-1.03289E-14 1.40282E-15
 -1       657 9.04026E-01-3.16288E+01-9.22184E+00-1.43746E+01 1.19886E-14-1.61798E-14
 -1       658 3.22415E+00-3.75078E+01-1.02910E+01-1.50099E+01 1.30202E-14-2.20676E-14
 -1       659 6.13596E+00-4.39397E+01-1.13489E+01-1.50257E+01 6.59602E-15 5.88812E-15
 -1       660 9.54999E+00-5.06986E+01-1.23546E+01-1.42341E+01-1.00603E-14 8.65685E-15
 -1       661 1.32674E+01-5.74357E+01-1.32630E+01-1.25235E+01 5.47292E-15-6.63612E-15
 -1       662 1.69884E+01-6.37108E+01-1.40319E+01-9.93925E+00 1.30651E-14 1.76337E-14
 -1       663 2.03602E+01-6.90701E+01-1.46308E+01-6.75543E+00 7.72782E-15-3.11372E-15
 -1       664 2.30609E+01-7.31368E+01-1.50429E+01-3.50225E+00-2.68919E-15 1.11761E-14
 -1       665 2.48359E+01-7.56759E+01-1.52737E+01-8.87802E-01 1.99396E-14-1.18036E-15
 -1       666-2.91345E-01-6.61201E-01-2.85766E-01-4.56291E-01 6.27620E-15 1.93892E-15
 -1       667-5.70032E-01-1.40831E+00-5.93512E-01-9.31602E-01 2.20696E-15 5.74233E-15
 -1       668-8.60283E-01-2.27863E+00-9.41703E-01-1.45652E+00 2.22455E-15-2.33745E-14
 -1       669-1.13711E+00-3.28032E+00-1.32529E+00-2.04815E+00 2.01597E-15-1.80846E-14
 -1       670-1.39421E+00-4.43835E+00-1.74987E+00-2.71318E+00-3.80313E-15-3.16973E-15
 -1       671-1.61909E+00-5.78417E+00-2.22115E+00-3.45745E+00-2.83457E-15 1.11420E-14
 -1       672-1.79310E+00-7.35536E+00-2.74481E+00-4.28559E+00 2.22019E-15 1.02937E-14
 -1       673-1.89032E+00-9.19659E+00-3.32648E+00-5.19975E+00-3.42642E-15-1.76974E-14
 -1       674-1.87598E+00-1.13605E+01-3.97155E+00-6.19741E+00-4.42314E-15 6.63512E-14
 -1       675-1.70484E+00-1.39080E+01-4.68475E+00-7.26831E+00 1.08494E-14-2.58126E-14
 -1       676-1.32004E+00-1.69079E+01-5.46965E+00-8.39002E+00-1.14903E-14-1.71377E-14
 -1       677-6.53015E-01-2.04334E+01-6.32774E+00-9.52217E+00 8.87114E-15 2.60451E-14
 -1       678 3.74120E-01-2.45561E+01-7.25713E+00-1.05995E+01 4.39122E-15-2.11285E-14
 -1       679 1.84177E+00-2.93334E+01-8.25102E+00-1.15247E+01-1.47877E-14-4.36357E-15
 -1       680 3.81935E+00-3.47892E+01-9.29576E+00-1.21646E+01 1.83849E-14-1.23322E-14
 -1       681 6.34331E+00-4.08852E+01-1.03690E+01-1.23542E+01 1.40150E-14-1.20664E-14
 -1       682 9.38726E+00-4.74882E+01-1.14388E+01-1.19170E+01-1.00294E-14-1.16912E-15
 -1       683 1.28309E+01-5.43412E+01-1.24641E+01-1.07112E+01 7.99738E-15 9.41304E-15
 -1       684 1.64417E+01-6.10548E+01-1.33978E+01-8.70286E+00 1.82541E-14-4.53071E-15
 -1       685 1.98876E+01-6.71391E+01-1.41923E+01-6.05631E+00-1.84836E-15-7.80161E-15
 -1       686 2.27929E+01-7.20657E+01-1.48014E+01-3.20469E+00-1.58125E-15 3.41163E-15
 -1       687 2.47698E+01-7.53454E+01-1.51942E+01-8.30124E-01 1.51758E-14-1.25337E-15
 -1       688-1.69685E-01-6.75095E-01-2.53436E-01-3.60974E-01 1.94096E-15 2.00071E-14
 -1       689-3.31169E-01-1.41845E+00-5.24893E-01-7.26879E-01-2.55020E-15 8.30745E-15
 -1       690-5.03113E-01-2.27461E+00-8.33338E-01-1.12722E+00-9.80037E-16-1.98811E-14
 -1       691-6.56567E-01-3.25365E+00-1.17311E+00-1.57605E+00 3.28438E-15-3.63020E-14
 -1       692-7.86745E-01-4.37706E+00-1.54922E+00-2.07887E+00 3.81398E-15-1.57759E-14
 -1       693-8.84276E-01-5.67211E+00-1.96705E+00-2.64004E+00-2.44703E-15 6.25880E-15
 -1       694-9.35101E-01-7.17151E+00-2.43219E+00-3.26310E+00 2.51589E-15 9.87482E-15
 -1       695-9.19577E-01-8.91423E+00-2.95046E+00-3.95003E+00 7.80137E-15 1.97584E-14
 -1       696-8.11244E-01-1.09464E+01-3.52778E+00-4.69996E+00-5.52523E-15 2.30858E-14
 -1       697-5.75403E-01-1.33222E+01-4.16999E+00-5.50705E+00 5.19810E-15-2.06027E-14
 -1       698-1.67756E-01-1.61040E+01-4.88254E+00-6.35760E+00 5.86670E-15 2.26079E-14
 -1       699 4.66499E-01-1.93612E+01-5.66986E+00-7.22596E+00 1.31996E-15 8.31526E-15
 -1       700 1.39229E+00-2.31671E+01-6.53450E+00-8.06924E+00 2.62480E-15-1.69716E-14
 -1       701 2.68167E+00-2.75912E+01-7.47575E+00-8.82123E+00 9.63856E-15 2.82786E-14
 -1       702 4.40611E+00-3.26856E+01-8.48786E+00-9.38703E+00-4.42200E-15-1.59680E-14
 -1       703 6.62168E+00-3.84627E+01-9.55779E+00-9.64158E+00 2.25289E-15 1.24468E-14
 -1       704 9.34503E+00-4.48631E+01-1.06628E+01-9.43848E+00 2.29292E-15 2.24940E-14
 -1       705 1.25210E+01-5.17168E+01-1.17686E+01-8.63820E+00-7.55494E-15 3.89297E-15
 -1       706 1.59887E+01-5.87072E+01-1.28283E+01-7.16519E+00 1.27289E-14 8.64076E-16
 -1       707 1.94615E+01-6.53540E+01-1.37836E+01-5.09466E+00 1.14866E-15 3.30905E-14
 -1       708 2.25398E+01-7.10279E+01-1.45654E+01-2.74760E+00 3.22613E-16 6.62040E-15
 -1       709 2.47214E+01-7.50125E+01-1.51087E+01-7.32847E-01 8.43078E-15-8.20408E-16
 -1       710-7.82293E-02-6.90856E-01-2.30727E-01-2.63656E-01-9.13374E-16 2.15338E-14
 -1       711-1.52398E-01-1.43395E+00-4.75911E-01-5.23263E-01 1.28974E-15-2.64639E-14
 -1       712-2.38070E-01-2.28000E+00-7.55439E-01-8.05377E-01 1.91400E-15 9.36384E-15
 -1       713-3.02277E-01-3.24255E+00-1.06348E+00-1.11984E+00 1.98224E-15 1.76798E-14
 -1       714-3.40179E-01-4.34126E+00-1.40450E+00-1.47103E+00 8.87116E-16-1.90692E-14
 -1       715-3.44219E-01-5.60037E+00-1.78348E+00-1.86215E+00-2.86795E-16-1.25398E-14
 -1       716-3.03320E-01-7.04902E+00-2.20587E+00-2.29574E+00-1.19883E-15 4.35497E-15
 -1       717-2.02020E-01-8.72202E+00-2.67748E+00-2.77331E+00 1.73194E-15 1.51466E-14
 -1       718-1.94555E-02-1.06608E+01-3.20446E+00-3.29465E+00 2.80769E-16 8.74778E-15
 -1       719 2.71856E-01-1.29142E+01-3.79327E+00-3.85655E+00 5.10257E-15-1.62031E-15
 -1       720 7.07315E-01-1.55395E+01-4.45048E+00-4.45103E+00 5.71842E-16 1.15513E-14
 -1       721 1.33145E+00-1.86021E+01-5.18240E+00-5.06261E+00-4.18318E-15-1.06838E-14
 -1       722 2.19855E+00-2.21744E+01-5.99447E+00-5.66478E+00 3.74142E-15 8.76700E-15
 -1       723 3.37185E+00-2.63311E+01-6.89022E+00-6.21551E+00 2.12595E-15 2.91938E-14
 -1       724 4.91972E+00-3.11407E+01-7.86971E+00-6.65255E+00 3.66643E-15 4.60977E-14
 -1       725 6.90650E+00-3.66481E+01-8.92724E+00-6.89016E+00 4.06455E-15 6.74816E-15
 -1       726 9.37496E+00-4.28472E+01-1.00482E+01-6.82143E+00 1.60443E-15-1.66773E-14
 -1       727 1.23176E+01-4.96398E+01-1.12055E+01-6.33305E+00 1.98863E-16 1.16984E-14
 -1       728 1.56372E+01-5.67823E+01-1.23553E+01-5.34289E+00 3.51691E-15-1.73491E-14
 -1       729 1.91024E+01-6.38305E+01-1.34335E+01-3.86854E+00 1.40953E-15 1.14634E-15
 -1       730 2.23148E+01-7.01026E+01-1.43548E+01-2.12029E+00-2.54304E-15-3.31873E-15
 -1       731 2.46937E+01-7.47085E+01-1.50257E+01-5.84305E-01-9.17368E-15-7.77191E-15
 -1       732-1.31047E-02-7.05207E-01-2.15495E-01-1.55460E-01-1.94142E-16-2.75190E-14
 -1       733-3.49760E-02-1.45437E+00-4.46811E-01-3.12630E-01-1.19150E-16-3.16192E-14
 -1       734-6.05604E-02-2.29621E+00-7.07048E-01-4.77494E-01-7.00536E-17 5.13090E-14
 -1       735-6.52255E-02-3.24835E+00-9.94103E-01-6.61631E-01-1.19144E-15 3.11570E-14
 -1       736-4.24263E-02-4.33051E+00-1.31194E+00-8.66505E-01-7.65760E-16 1.51610E-15
 -1       737 1.51146E-02-5.56567E+00-1.66526E+00-1.09392E+00-1.13365E-15 1.23297E-15
 -1       738 1.17041E-01-6.98093E+00-2.05932E+00-1.34546E+00-4.03270E-16-2.32548E-14
 -1       739 2.76389E-01-8.60848E+00-2.49986E+00-1.62219E+00 2.40763E-16 2.89270E-15
 -1       740 5.10568E-01-1.04866E+01-2.99314E+00-1.92425E+00-7.35568E-16-4.16146E-14
 -1       741 8.42471E-01-1.26605E+01-3.54590E+00-2.25014E+00 1.87613E-15-1.59518E-14
 -1       742 1.30173E+00-1.51837E+01-4.16532E+00-2.59580E+00-3.90468E-16-2.83901E-14
 -1       743 1.92602E+00-1.81184E+01-4.85876E+00-2.95314E+00-1.20892E-15 1.12168E-14
 -1       744 2.76215E+00-2.15351E+01-5.63339E+00-3.30805E+00 6.19031E-15-5.47954E-14
 -1       745 3.86636E+00-2.55105E+01-6.49540E+00-3.63781E+00-2.29961E-15-1.21893E-14
 -1       746 5.30279E+00-3.01213E+01-7.44861E+00-3.90802E+00-5.66140E-16-3.23997E-14
 -1       747 7.13803E+00-3.54317E+01-8.49239E+00-4.07000E+00 9.78170E-16 1.19682E-14
 -1       748 9.42865E+00-4.14695E+01-9.61823E+00-4.06046E+00 1.76183E-15-1.31661E-14
 -1       749 1.21974E+01-4.81864E+01-1.08049E+01-3.80781E+00-4.85502E-15 6.87564E-15
 -1       750 1.53934E+01-5.53972E+01-1.20123E+01-3.25207E+00-1.07628E-16-1.32170E-14
 -1       751 1.88349E+01-6.26983E+01-1.31735E+01-2.38651E+00-1.67892E-15-8.81247E-15
 -1       752 2.21380E+01-6.93898E+01-1.41936E+01-1.32348E+00-2.26583E-15-6.37002E-15
 -1       753 2.46836E+01-7.44716E+01-1.49575E+01-3.75093E-01 4.28022E-14-7.72583E-15
 -1       754 3.22117E-02-6.63966E-01-1.89527E-01-4.56962E-02 2.46491E-17 6.86979E-14
 -1       755 2.69207E-02-1.42266E+00-4.18727E-01-9.07219E-02-9.13338E-18-1.68785E-14
 -1       756 3.09368E-02-2.26037E+00-6.68844E-01-1.27417E-01 2.92856E-16-6.61412E-14
 -1       757 6.09937E-02-3.20263E+00-9.42519E-01-1.76108E-01 1.16608E-16-2.53900E-14
 -1       758 1.19514E-01-4.27303E+00-1.24611E+00-2.32307E-01-1.17281E-16-3.40161E-14
 -1       759 2.12195E-01-5.49416E+00-1.58468E+00-2.95153E-01-4.87486E-18-4.03941E-14
 -1       760 3.47666E-01-6.89174E+00-1.96336E+00-3.64608E-01 5.37557E-18-2.81419E-14
 -1       761 5.37921E-01-8.49634E+00-2.38774E+00-4.40745E-01 1.15113E-16-1.27596E-15
 -1       762 7.99019E-01-1.03445E+01-2.86397E+00-5.23524E-01-2.19102E-16 1.29289E-14
 -1       763 1.15198E+00-1.24799E+01-3.39886E+00-6.12573E-01 1.00969E-15 2.50437E-14
 -1       764 1.62390E+00-1.49544E+01-3.99982E+00-7.06894E-01 1.18426E-16-1.69257E-14
 -1       765 2.24920E+00-1.78285E+01-4.67478E+00-8.04453E-01 1.16832E-16 3.24186E-14
 -1       766 3.07090E+00-2.11722E+01-5.43180E+00-9.01628E-01 5.35040E-17 1.69365E-14
 -1       767 4.14146E+00-2.50627E+01-6.27840E+00-9.92497E-01 5.10501E-16 8.28273E-15
 -1       768 5.52220E+00-2.95804E+01-7.22034E+00-1.06798E+00 1.22412E-16-9.47636E-15
 -1       769 7.27980E+00-3.47979E+01-8.25948E+00-1.11505E+00 4.84419E-16-1.41191E-14
 -1       770 9.47661E+00-4.07585E+01-9.39025E+00-1.11641E+00 1.60719E-15-3.50413E-14
 -1       771 1.21500E+01-4.74378E+01-1.05943E+01-1.05197E+00-1.33929E-15-2.90132E-15
 -1       772 1.52736E+01-5.46800E+01-1.18327E+01-9.03838E-01-1.33298E-15 9.29673E-15
 -1       773 1.86947E+01-6.21043E+01-1.30371E+01-6.68073E-01-1.55317E-15 3.48905E-15
 -1       774 2.20412E+01-6.90074E+01-1.41078E+01-3.74923E-01 5.37659E-17-9.01425E-15
 -1       775 2.46804E+01-7.43445E+01-1.49203E+01-1.12422E-01 4.56201E-14-4.87400E-16
 -1       776 2.49265E-01 4.31638E-03 7.60743E-02 2.07791E-05 1.51505E-12-2.00923E-13
 -1       777 1.00652E-01-3.40036E-03 2.91753E-02 2.77546E-02 5.98053E-13-1.90150E-13
 -1       778-3.76423E-02-2.76835E-02-1.95978E-02 8.26778E-02-2.61709E-13 1.02912E-13
 -1       779-1.61090E-01-7.31363E-02-7.02681E-02 1.61890E-01 2.86063E-14 5.19641E-14
 -1       780-2.66568E-01-1.43498E-01-1.23021E-01 2.65643E-01-1.44365E-13-6.95929E-14
 -1       781-3.51972E-01-2.42469E-01-1.78334E-01 3.95279E-01-1.16758E-12-3.80566E-14
 -1       782-4.15985E-01-3.74209E-01-2.37061E-01 5.52022E-01-1.21508E-13 6.27801E-14
 -1       783-4.58018E-01-5.43713E-01-3.00524E-01 7.36212E-01-4.44462E-13-9.81756E-14
 -1       784-4.78163E-01-7.57115E-01-3.70592E-01 9.46721E-01-1.09191E-12-5.86453E-14
 -1       785-4.77104E-01-1.02193E+00-4.49724E-01 1.18044E+00 6.52248E-13 3.90934E-14
 -1       786-4.55981E-01-1.34717E+00-5.40967E-01 1.43178E+00-1.05145E-12-1.01318E-13
 -1       787-4.16196E-01-1.74320E+00-6.47848E-01 1.69225E+00-7.01404E-13-3.02193E-14
 -1       788-3.59229E-01-2.22119E+00-7.74167E-01 1.94992E+00-1.17095E-12 5.37251E-14
 -1       789-2.86471E-01-2.79209E+00-9.23625E-01 2.18901E+00-4.20008E-13 2.83977E-14
 -1       790-1.99129E-01-3.46484E+00-1.09927E+00 2.38934E+00-1.65868E-12-1.35334E-15
 -1       791-9.82551E-02-4.24368E+00-1.30268E+00 2.52588E+00-1.52350E-12-7.34567E-15
 -1       792 1.50089E-02-5.12456E+00-1.53299E+00 2.56850E+00-2.58949E-13-9.21798E-16
 -1       793 1.38720E-01-6.09042E+00-1.78566E+00 2.48240E+00-6.20918E-13-2.59345E-14
 -1       794 2.68166E-01-7.10625E+00-2.05161E+00 2.23080E+00-9.18458E-13 3.19005E-15
 -1       795 3.90044E-01-8.11542E+00-2.31783E+00 1.78324E+00-8.73638E-13-3.96001E-14
 -1       796 4.61957E-01-9.04178E+00-2.57419E+00 1.14051E+00 9.81776E-13-1.50843E-14
 -1       797 3.44480E-01-9.79125E+00-2.83430E+00 3.99198E-01-1.13179E-12 2.85017E-14
 -1       798-1.45579E+00 2.15724E-02-4.30271E-01 2.18884E-01 1.16910E-12-9.28663E-14
 -1       799-1.64664E+00 1.17614E-02-4.90474E-01 4.49990E-01 5.38658E-13-3.34878E-14
 -1       800-1.82969E+00-1.38698E-02-5.53081E-01 6.96852E-01 1.51972E-12-1.28686E-13
 -1       801-1.99915E+00-6.22576E-02-6.18442E-01 9.61838E-01 3.00853E-14 5.43133E-14
 -1       802-2.14853E+00-1.38389E-01-6.86101E-01 1.24666E+00 8.77276E-13 7.13709E-14
 -1       803-2.27086E+00-2.46655E-01-7.55287E-01 1.55264E+00 7.28719E-13-6.95332E-14
 -1       804-2.35880E+00-3.91488E-01-8.25126E-01 1.88054E+00-1.14303E-12 1.88955E-13
 -1       805-2.40478E+00-5.77637E-01-8.94777E-01 2.23024E+00-7.45374E-13 1.56686E-13
 -1       806-2.40127E+00-8.10274E-01-9.63528E-01 2.60039E+00 9.83856E-14 3.71103E-14
 -1       807-2.34100E+00-1.09502E+00-1.03089E+00 2.98777E+00 2.91201E-13 2.06702E-14
 -1       808-2.21728E+00-1.43790E+00-1.09666E+00 3.38658E+00 9.92290E-13 3.57349E-14
 -1       809-2.02430E+00-1.84531E+00-1.16101E+00 3.78746E+00 7.93900E-13-2.96419E-14
 -1       810-1.75737E+00-2.32382E+00-1.22451E+00 4.17641E+00-1.61776E-13 2.77445E-15
 -1       811-1.41331E+00-2.87992E+00-1.28815E+00 4.53357E+00 1.40184E-13 4.85657E-14
 -1       812-9.90907E-01-3.51951E+00-1.35334E+00 4.83199E+00-1.44797E-12-1.98530E-14
 -1       813-4.91900E-01-4.24693E+00-1.42189E+00 5.03671E+00-6.33917E-13 4.78971E-15
 -1       814 7.70894E-02-5.06342E+00-1.49617E+00 5.10429E+00-1.39703E-12 1.23864E-14
 -1       815 7.00455E-01-5.96469E+00-1.57957E+00 4.98371E+00-3.24512E-14-5.31023E-15
 -1       816 1.34500E+00-6.93707E+00-1.67794E+00 4.61984E+00 4.10478E-13 2.26158E-14
 -1       817 1.94136E+00-7.95141E+00-1.80336E+00 3.96126E+00-2.70016E-13-5.07909E-14
 -1       818 2.34517E+00-8.94980E+00-1.98174E+00 2.97446E+00 1.46409E-12-1.12825E-13
 -1       819 2.25808E+00-9.79671E+00-2.26194E+00 1.65878E+00-4.13564E-13-2.31204E-13
 -1       820-5.14842E+00 1.27651E-02-1.54077E+00 3.70061E-01 9.09040E-13-4.97549E-14
 -1       821-5.24250E+00 8.78191E-03-1.57019E+00 7.55301E-01-7.55311E-13-1.57758E-13
 -1       822-5.32232E+00-1.16129E-02-1.60027E+00 1.15708E+00-4.30258E-13 6.71349E-14
 -1       823-5.38189E+00-5.33364E-02-1.63067E+00 1.58152E+00-8.00469E-13 1.05004E-13
 -1       824-5.41414E+00-1.20286E-01-1.66044E+00 2.03053E+00-1.86989E-14 1.30464E-13
 -1       825-5.41090E+00-2.16557E-01-1.68836E+00 2.50419E+00 7.83369E-13-6.35301E-14
 -1       826-5.36279E+00-3.46873E-01-1.71304E+00 3.00133E+00 1.15042E-13-8.14746E-15
 -1       827-5.25930E+00-5.16711E-01-1.73297E+00 3.51960E+00-8.68164E-14-1.06100E-14
 -1       828-5.08886E+00-7.32298E-01-1.74654E+00 4.05520E+00 2.92905E-13-3.71777E-14
 -1       829-4.83902E+00-1.00054E+00-1.75209E+00 4.60238E+00-1.47793E-14-3.94296E-14
 -1       830-4.49676E+00-1.32890E+00-1.74795E+00 5.15277E+00 4.93513E-13-4.00234E-14
 -1       831-4.04893E+00-1.72524E+00-1.73254E+00 5.69446E+00 1.75413E-12 3.66650E-15
 -1       832-3.48295E+00-2.19757E+00-1.70449E+00 6.21079E+00 1.31418E-12-2.43373E-15
 -1       833-2.78773E+00-2.75367E+00-1.66279E+00 6.67890E+00 1.17029E-13 1.96777E-14
 -1       834-1.95518E+00-3.40052E+00-1.60713E+00 7.06809E+00-3.23582E-13-7.96695E-15
 -1       835-9.82561E-01-4.14332E+00-1.53822E+00 7.33802E+00 1.27663E-12-2.28295E-15
 -1       836 1.23675E-01-4.98379E+00-1.45853E+00 7.43709E+00 3.23762E-13-1.49853E-14
 -1       837 1.34120E+00-5.91721E+00-1.37334E+00 7.30133E+00-4.81891E-13 3.07991E-14
 -1       838 2.62034E+00-6.92710E+00-1.29259E+00 6.85448E+00 1.98933E-13-2.75578E-14
 -1       839 3.86407E+00-7.97600E+00-1.23415E+00 6.00944E+00 9.79329E-14 2.19178E-14
 -1       840 4.89600E+00-8.98756E+00-1.22803E+00 4.67093E+00 1.13084E-12-1.50868E-13
 -1       841 5.41284E+00-9.80782E+00-1.31902E+00 2.73169E+00-8.57414E-13-1.51562E-13
 -1       842-9.92937E+00 9.96283E-03-2.97609E+00 4.79421E-01-4.33456E-13-4.71246E-14
 -1       843-9.88546E+00 7.51328E-03-2.96366E+00 9.82513E-01 2.05670E-13-1.56624E-13
 -1       844-9.81590E+00-1.12727E-02-2.94843E+00 1.50755E+00-9.02263E-14-1.69700E-13
 -1       845-9.71370E+00-4.94034E-02-2.92922E+00 2.06256E+00 8.35437E-14-1.58261E-13
 -1       846-9.57078E+00-1.09922E-01-2.90451E+00 2.64921E+00 8.21527E-13 5.16989E-14
 -1       847-9.37770E+00-1.96673E-01-2.87263E+00 3.26678E+00-2.08577E-13-7.14191E-14
 -1       848-9.12352E+00-3.14447E-01-2.83173E+00 3.91308E+00-8.61952E-13 2.66482E-14
 -1       849-8.79574E+00-4.68999E-01-2.77979E+00 4.58450E+00 1.33099E-12-3.00845E-14
 -1       850-8.38026E+00-6.67053E-01-2.71459E+00 5.27567E+00-9.20011E-13-3.31132E-14
 -1       851-7.86135E+00-9.16277E-01-2.63372E+00 5.97892E+00-8.86719E-13-5.35663E-14
 -1       852-7.22179E+00-1.22523E+00-2.53458E+00 6.68351E+00 5.15587E-13 2.01788E-14
 -1       853-6.44323E+00-1.60325E+00-2.41446E+00 7.37466E+00 3.39997E-13-4.76290E-14
 -1       854-5.50676E+00-2.06016E+00-2.27065E+00 8.03223E+00-6.44625E-13-1.57123E-15
 -1       855-4.39410E+00-2.60586E+00-2.10062E+00 8.62904E+00-6.55334E-13-3.72212E-14
 -1       856-3.08939E+00-3.24953E+00-1.90236E+00 9.12876E+00-3.88097E-13-7.87832E-16
 -1       857-1.58226E+00-3.99828E+00-1.67490E+00 9.48337E+00 6.36801E-13-1.85714E-15
 -1       858 1.27167E-01-4.85493E+00-1.41912E+00 9.63027E+00 4.05616E-13-1.07984E-14
 -1       859 2.02030E+00-5.81424E+00-1.13902E+00 9.48923E+00 4.90435E-13 1.27787E-14
 -1       860 4.04720E+00-6.85660E+00-8.43683E-01 8.95942E+00 8.23745E-13 3.17688E-14
 -1       861 6.10642E+00-7.93787E+00-5.50311E-01 7.91673E+00 3.47318E-13 7.48210E-15
 -1       862 8.01505E+00-8.97367E+00-2.88448E-01 6.21206E+00 1.58578E-14-1.66022E-13
 -1       863 9.47233E+00-9.80363E+00-1.00219E-01 3.66521E+00-6.14601E-13-9.58394E-15
 -1       864-1.53174E+01 8.11679E-03-4.59343E+00 5.63684E-01-4.96440E-13-4.04448E-14
 -1       865-1.51184E+01 5.92978E-03-4.53439E+00 1.16025E+00-5.19918E-13 7.76829E-15
 -1       866-1.48809E+01-1.14676E-02-4.46833E+00 1.78532E+00 3.79476E-13 1.38135E-14
 -1       867-1.45964E+01-4.58629E-02-4.39330E+00 2.44766E+00 1.05078E-12-8.14001E-14
 -1       868-1.42557E+01-9.98566E-02-4.30730E+00 3.14867E+00-3.05110E-13 2.75105E-13
 -1       869-1.38480E+01-1.77140E-01-4.20819E+00 3.88735E+00-7.04078E-13 4.16893E-14
 -1       870-1.33608E+01-2.82453E-01-4.09363E+00 4.66125E+00-1.01832E-12 4.42033E-14
 -1       871-1.27796E+01-4.21591E-01-3.96102E+00 5.46634E+00 8.55581E-13 1.35442E-13
 -1       872-1.20878E+01-6.01476E-01-3.80747E+00 6.29655E+00 5.31105E-13 2.50735E-14
 -1       873-1.12665E+01-8.30218E-01-3.62973E+00 7.14317E+00 4.33595E-13 9.57720E-15
 -1       874-1.02943E+01-1.11715E+00-3.42421E+00 7.99391E+00-2.64124E-13 1.25753E-14
 -1       875-9.14789E+00-1.47279E+00-3.18701E+00 8.83177E+00 1.81920E-13 6.03963E-14
 -1       876-7.80182E+00-1.90860E+00-2.91399E+00 9.63343E+00-7.04137E-13-1.37515E-14
 -1       877-6.23007E+00-2.43655E+00-2.60091E+00 1.03672E+01 1.06563E-12-2.95235E-14
 -1       878-4.40773E+00-3.06819E+00-2.24377E+00 1.09904E+01-7.08133E-15 1.07440E-14
 -1       879-2.31442E+00-3.81308E+00-1.83931E+00 1.14459E+01-3.28525E-13 8.11343E-15
 -1       880 6.01864E-02-4.67607E+00-1.38589E+00 1.16584E+01 5.43996E-13 6.10192E-15
 -1       881 2.70737E+00-5.65302E+00-8.84872E-01 1.15292E+01-5.67533E-14-2.37271E-14
 -1       882 5.58536E+00-6.72384E+00-3.42773E-01 1.09317E+01 3.21720E-16-4.96736E-14
 -1       883 8.59780E+00-7.84177E+00 2.25549E-01 9.70586E+00-1.42759E-13-1.98373E-14
 -1       884 1.15618E+01-8.91768E+00 7.91966E-01 7.65396E+00-4.68248E-13-5.03032E-15
 -1       885 1.41693E+01-9.78541E+00 1.31386E+00 4.53475E+00-9.52688E-13-2.34368E-15
 -1       886-2.09746E+01 6.41223E-03-6.29166E+00 6.26394E-01-7.76570E-14 8.14281E-14
 -1       887-2.06172E+01 4.57350E-03-6.18497E+00 1.29547E+00-6.93406E-13-7.86364E-14
 -1       888-2.02084E+01-1.04999E-02-6.06683E+00 1.99985E+00 3.50071E-13 1.48293E-13
 -1       889-1.97386E+01-3.98013E-02-5.93465E+00 2.74843E+00-6.27641E-13-5.95515E-15
 -1       890-1.91973E+01-8.56940E-02-5.78601E+00 3.54252E+00 1.05753E-12 1.59009E-14
 -1       891-1.85724E+01-1.51762E-01-5.61834E+00 4.38139E+00-2.52661E-13 1.45983E-13
 -1       892-1.78496E+01-2.42689E-01-5.42876E+00 5.26286E+00-7.85443E-13 2.96670E-15
 -1       893-1.70122E+01-3.64323E-01-5.21403E+00 6.18315E+00-1.21802E-12 1.62827E-14
 -1       894-1.60408E+01-5.23816E-01-4.97048E+00 7.13623E+00-7.36439E-13-5.63515E-14
 -1       895-1.49129E+01-7.29787E-01-4.69390E+00 8.11312E+00-1.96895E-13-8.76971E-14
 -1       896-1.36023E+01-9.92429E-01-4.37955E+00 9.10073E+00-5.07916E-13 7.45351E-14
 -1       897-1.20796E+01-1.32352E+00-4.02208E+00 1.00805E+01-3.26839E-13 5.01941E-14
 -1       898-1.03117E+01-1.73625E+00-3.61560E+00 1.10262E+01-3.74508E-13 1.78304E-14
 -1       899-8.26363E+00-2.24469E+00-3.15376E+00 1.19020E+01-3.87216E-13-2.20054E-14
 -1       900-5.89953E+00-2.86273E+00-2.63001E+00 1.26582E+01-3.21780E-13-1.31022E-14
 -1       901-3.18683E+00-3.60223E+00-2.03812E+00 1.32282E+01-4.61813E-13 1.34221E-15
 -1       902-1.02034E-01-4.47000E+00-1.37309E+00 1.35226E+01 7.73255E-14 3.89117E-15
 -1       903 3.35952E+00-5.46312E+00-6.32641E-01 1.34241E+01 7.27348E-13-3.75463E-15
 -1       904 7.16849E+00-6.56183E+00 1.80356E-01 1.27803E+01-1.74979E-13 8.44548E-14
 -1       905 1.12384E+01-7.71858E+00 1.05421E+00 1.13962E+01 3.85402E-13-2.87779E-14
 -1       906 1.53899E+01-8.84209E+00 1.96252E+00 9.02724E+00-1.87190E-13 1.85899E-13
 -1       907 1.93048E+01-9.76133E+00 2.86109E+00 5.37156E+00-3.16606E-13 8.28803E-16
 -1       908-2.66428E+01 4.82829E-03-7.99333E+00 6.68473E-01-2.21343E-13-2.15629E-14
 -1       909-2.61353E+01 3.86328E-03-7.84132E+00 1.39014E+00-5.64344E-13-3.31800E-14
 -1       910-2.55650E+01-7.73764E-03-7.67365E+00 2.15413E+00 3.99647E-13 1.94423E-13
 -1       911-2.49212E+01-3.04184E-02-7.48724E+00 2.96913E+00 2.50252E-13 1.21007E-13
 -1       912-2.41922E+01-6.64583E-02-7.27930E+00 3.83678E+00-5.30416E-13 1.06046E-13
 -1       913-2.33644E+01-1.19437E-01-7.04681E+00 4.75708E+00 6.29165E-14 2.10108E-14
 -1       914-2.24216E+01-1.94121E-01-6.78635E+00 5.72872E+00 4.83270E-13-6.36124E-14
 -1       915-2.13446E+01-2.96613E-01-6.49396E+00 6.74875E+00-4.94641E-13 1.29318E-14
 -1       916-2.01105E+01-4.34588E-01-6.16507E+00 7.81182E+00-1.24699E-13 9.50941E-15
 -1       917-1.86919E+01-6.17516E-01-5.79438E+00 8.90924E+00-2.47294E-13-6.38097E-14
 -1       918-1.70571E+01-8.56830E-01-5.37572E+00 1.00276E+01-2.93291E-13 1.07434E-14
 -1       919-1.51689E+01-1.16593E+00-4.90201E+00 1.11470E+01 2.25340E-13 4.38469E-14
 -1       920-1.29853E+01-1.55992E+00-4.36516E+00 1.22384E+01 3.85621E-13 1.07570E-14
 -1       921-1.04602E+01-2.05486E+00-3.75616E+00 1.32611E+01-1.30780E-13-2.40387E-14
 -1       922-7.54556E+00-2.66642E+00-3.06529E+00 1.41580E+01 3.71066E-13 1.26177E-14
 -1       923-4.19505E+00-3.40765E+00-2.28258E+00 1.48519E+01-2.28480E-13-5.97191E-15
 -1       924-3.70878E-01-4.28564E+00-1.39882E+00 1.52393E+01-3.06626E-13 1.61732E-15
 -1       925 3.94621E+00-5.29689E+00-4.07170E-01 1.51843E+01 1.99465E-13-1.38369E-14
 -1       926 8.74128E+00-6.42066E+00 6.94093E-01 1.45102E+01-3.53860E-13 1.34599E-14
 -1       927 1.39411E+01-7.60893E+00 1.89739E+00 1.29902E+01-2.98308E-13-5.29794E-14
 -1       928 1.93754E+01-8.77119E+00 3.17881E+00 1.03358E+01-8.51476E-13 9.47359E-14
 -1       929 2.47215E+01-9.73672E+00 4.49266E+00 6.18212E+00-5.41162E-14-7.19383E-14
 -1       930-3.21261E+01 3.48662E-03-9.63961E+00 6.90891E-01-1.67428E-13 8.40257E-14
 -1       931-3.14881E+01 4.00329E-03-9.44796E+00 1.44637E+00-2.96184E-13 1.65761E-13
 -1       932-3.07783E+01-3.09563E-03-9.23705E+00 2.25170E+00-2.23451E-13-6.51454E-14
 -1       933-2.99849E+01-1.79692E-02-9.00338E+00 3.11532E+00-2.21679E-13-1.33932E-14
 -1       934-2.90950E+01-4.30403E-02-8.74385E+00 4.03972E+00 1.80781E-13 1.18461E-13
 -1       935-2.80934E+01-8.21190E-02-8.45499E+00 5.02617E+00-1.44996E-13 8.54896E-15
 -1       936-2.69613E+01-1.40380E-01-8.13277E+00 6.07486E+00 8.48198E-13-1.75345E-14
 -1       937-2.56762E+01-2.24624E-01-7.77245E+00 7.18419E+00 6.72565E-13-2.27225E-14
 -1       938-2.42107E+01-3.43593E-01-7.36841E+00 8.34995E+00-2.91652E-13-7.45185E-14
 -1       939-2.25314E+01-5.08235E-01-6.91397E+00 9.56402E+00 6.15869E-13 1.05537E-13
 -1       940-2.05989E+01-7.31822E-01-6.40126E+00 1.08126E+01-6.78691E-13-6.71153E-14
 -1       941-1.83668E+01-1.02980E+00-5.82100E+00 1.20740E+01-4.76226E-14-2.04180E-14
 -1       942-1.57821E+01-1.41921E+00-5.16241E+00 1.33154E+01 3.04552E-15 2.65618E-14
 -1       943-1.27863E+01-1.91743E+00-4.41317E+00 1.44897E+01 2.72183E-13-8.67329E-15
 -1       944-9.31836E+00-2.54030E+00-3.55968E+00 1.55310E+01-3.91645E-13-8.86161E-15
 -1       945-5.31860E+00-3.29929E+00-2.58752E+00 1.63502E+01 6.88469E-13-4.95250E-15
 -1       946-7.36095E-01-4.19818E+00-1.48253E+00 1.68296E+01-6.16100E-13 4.45181E-15
 -1       947 4.46152E+00-5.22896E+00-2.32622E-01 1.68163E+01 1.67111E-13 1.15665E-14
 -1       948 1.02734E+01-6.36708E+00 1.16931E+00 1.61142E+01 4.55006E-13 1.51697E-14
 -1       949 1.66426E+01-7.56402E+00 2.72074E+00 1.44709E+01-2.11285E-13-2.62082E-14
 -1       950 2.34171E+01-8.73449E+00 4.40157E+00 1.15602E+01 1.34234E-13-3.27610E-14
 -1       951 3.02852E+01-9.71872E+00 6.16613E+00 6.95378E+00 2.54525E-13 9.94859E-14
 -1       952-3.72848E+01 2.49056E-03-1.11885E+01 6.95263E-01 5.51121E-13-8.45578E-14
 -1       953-3.65469E+01 5.06000E-03-1.09662E+01 1.46781E+00-6.68991E-13 7.08483E-14
 -1       954-3.57314E+01 3.16029E-03-1.07220E+01 2.29878E+00 1.84168E-13-3.29958E-14
 -1       955-3.48252E+01-3.44836E-03-1.04520E+01 3.19659E+00-1.57394E-14 1.29895E-14
 -1       956-3.38140E+01-1.76963E-02-1.01528E+01 4.16525E+00-2.85377E-13 9.21516E-14
 -1       957-3.26802E+01-4.40621E-02-9.82040E+00 5.20801E+00-4.33046E-13 4.26771E-14
 -1       958-3.14019E+01-8.87241E-02-9.45018E+00 6.32705E+00 5.54512E-13 6.12953E-14
 -1       959-2.99517E+01-1.59940E-01-9.03636E+00 7.52260E+00 1.04334E-12-2.16921E-14
 -1       960-2.82959E+01-2.68402E-01-8.57206E+00 8.79170E+00-3.04904E-13-6.43367E-15
 -1       961-2.63933E+01-4.27434E-01-8.04888E+00 1.01265E+01 4.61411E-13-3.55580E-14
 -1       962-2.41944E+01-6.52881E-01-7.45677E+00 1.15119E+01 1.72086E-14 3.70652E-14
 -1       963-2.16413E+01-9.62501E-01-6.78369E+00 1.29227E+01 5.67202E-13 2.77138E-14
 -1       964-1.86686E+01-1.37467E+00-6.01549E+00 1.43200E+01 1.45711E-13 4.29789E-14
 -1       965-1.52051E+01-1.90627E+00-5.13590E+00 1.56479E+01-1.82416E-13 1.20150E-14
 -1       966-1.11776E+01-2.56991E+00-4.12676E+00 1.68289E+01-3.49183E-14 6.71905E-15
 -1       967-6.51634E+00-3.37071E+00-2.96867E+00 1.77607E+01 1.30864E-12-6.93988E-15
 -1       968-1.16168E+00-4.30332E+00-1.64216E+00 1.83122E+01-6.05718E-13-1.59586E-14
 -1       969 4.92723E+00-5.34985E+00-1.29610E-01 1.83182E+01 9.97261E-14-1.17338E-15
 -1       970 1.17613E+01-6.47853E+00 1.58174E+00 1.75708E+01 1.94445E-13 4.31211E-14
 -1       971 1.93032E+01-7.64111E+00 3.49516E+00 1.58031E+01 1.20971E-13-1.59010E-18
 -1       972 2.74319E+01-8.76459E+00 5.59611E+00 1.26616E+01 1.15284E-13-7.26190E-14
 -1       973 3.58728E+01-9.71555E+00 7.84213E+00 7.65902E+00 2.14935E-13 1.11684E-13
 -1       974-4.20304E+01 1.92612E-03-1.26134E+01 6.83905E-01 5.77408E-13 6.59694E-14
 -1       975-4.12343E+01 6.99844E-03-1.23729E+01 1.45978E+00-6.67191E-13 2.26707E-14
 -1       976-4.03583E+01 1.04838E-02-1.21088E+01 2.30456E+00 4.33790E-13-4.84934E-14
 -1       977-3.93879E+01 1.15404E-02-1.18172E+01 3.22714E+00-2.92400E-13-4.31227E-14
 -1       978-3.83067E+01 6.14900E-03-1.14943E+01 4.23392E+00-4.94368E-13 3.78111E-14
 -1       979-3.70935E+01-1.15885E-02-1.11355E+01 5.33081E+00-9.58374E-14-4.98353E-14
 -1       980-3.57216E+01-4.98401E-02-1.07352E+01 6.52247E+00 2.82675E-14-1.45669E-14
 -1       981-3.41567E+01-1.19502E-01-1.02865E+01 7.81105E+00 7.21917E-13-6.99648E-14
 -1       982-3.23563E+01-2.34482E-01-9.78073E+00 9.19440E+00 1.17261E-13 6.39223E-14
 -1       983-3.02681E+01-4.11604E-01-9.20728E+00 1.06636E+01-6.05654E-14-9.47420E-14
 -1       984-2.78302E+01-6.69906E-01-8.55326E+00 1.22001E+01-4.30381E-13 3.27192E-14
 -1       985-2.49709E+01-1.02909E+00-7.80314E+00 1.37719E+01-9.25196E-14-2.35976E-14
 -1       986-2.16117E+01-1.50700E+00-6.93865E+00 1.53301E+01-2.40596E-14 1.98883E-14
 -1       987-1.76701E+01-2.11621E+00-5.93888E+00 1.68057E+01-4.08992E-13-1.26326E-14
 -1       988-1.30654E+01-2.86035E+00-4.78069E+00 1.81068E+01-4.87599E-13-1.32261E-17
 -1       989-7.72436E+00-3.73097E+00-3.43958E+00 1.91176E+01 1.93850E-13 1.21179E-15
 -1       990-1.58690E+00-4.70635E+00-1.89105E+00 1.96970E+01 1.34555E-13-9.24958E-15
 -1       991 5.38907E+00-5.75310E+00-1.12472E-01 1.96752E+01 1.70485E-13-9.41421E-15
 -1       992 1.32229E+01-6.83030E+00 1.91418E+00 1.88446E+01 3.55153E-13-1.32549E-14
 -1       993 2.19014E+01-7.89329E+00 4.19830E+00 1.69383E+01 1.69533E-14 3.24357E-15
 -1       994 3.13508E+01-8.89112E+00 6.73292E+00 1.35899E+01-1.70372E-13-3.17781E-14
 -1       995 4.13680E+01-9.73508E+00 9.48347E+00 8.26145E+00-6.93753E-13 5.83585E-14
 -1       996-4.63191E+01 1.85834E-03-1.39010E+01 6.59642E-01 8.08496E-14 1.16551E-13
 -1       997-4.55180E+01 9.69543E-03-1.36582E+01 1.42909E+00 5.74422E-13 4.56045E-14
 -1       998-4.46387E+01 1.80732E-02-1.33917E+01 2.28103E+00 1.22295E-13 1.06620E-13
 -1       999-4.36645E+01 2.47896E-02-1.30972E+01 3.22578E+00 2.18526E-13-7.05556E-14
 -1      1000-4.25755E+01 2.38072E-02-1.27706E+01 4.27310E+00-3.37067E-13-7.66626E-14
 -1      1001-4.13452E+01 6.58731E-03-1.24065E+01 5.43222E+00-7.86812E-13-8.00016E-14
 -1      1002-3.99392E+01-3.85549E-02-1.19980E+01 6.71049E+00-7.05998E-14 1.35086E-14
 -1      1003-3.83131E+01-1.26860E-01-1.15365E+01 8.11150E+00-8.36848E-14-7.49467E-14
 -1      1004-3.64118E+01-2.77074E-01-1.10110E+01 9.63236E+00 1.23511E-12 2.65244E-14
 -1      1005-3.41684E+01-5.10631E-01-1.04079E+01 1.12603E+01-1.02894E-13-3.69482E-14
 -1      1006-3.15051E+01-8.49743E-01-9.71041E+00 1.29689E+01 8.94015E-14-1.93077E-14
 -1      1007-2.83356E+01-1.31423E+00-8.89874E+00 1.47141E+01 9.75827E-15-7.29665E-14
 -1      1008-2.45696E+01-1.91717E+00-7.94967E+00 1.64312E+01 2.66588E-13 2.75100E-14
 -1      1009-2.01187E+01-2.66012E+00-6.83718E+00 1.80335E+01 1.43945E-13-1.34615E-15
 -1      1010-1.49033E+01-3.52910E+00-5.53317E+00 1.94128E+01-7.24868E-14-4.48972E-15
 -1      1011-8.85776E+00-4.49318E+00-4.00872E+00 2.04420E+01 1.00915E-12 7.80981E-15
 -1      1012-1.93274E+00-5.50714E+00-2.23546E+00 2.09777E+01 5.16381E-13 1.76473E-14
 -1      1013 5.90698E+00-6.51888E+00-1.87265E-01 2.08576E+01-4.66100E-13 1.18637E-14
 -1      1014 1.46872E+01-7.48031E+00 2.15800E+00 1.98897E+01-6.34074E-13 1.01330E-14
 -1      1015 2.44260E+01-8.35754E+00 4.81576E+00 1.78232E+01-6.28769E-13-1.72430E-14
 -1      1016 3.51159E+01-9.13366E+00 7.78875E+00 1.42937E+01-2.81269E-13-1.22932E-13
 -1      1017 4.66625E+01-9.78288E+00 1.10560E+01 8.72372E+00-5.58624E-13-1.98460E-14
 -1      1018-5.01449E+01 2.34203E-03-1.50496E+01 6.25574E-01-1.40387E-14 8.59463E-15
 -1      1019-4.94046E+01 1.29544E-02-1.48242E+01 1.38366E+00 7.85427E-13 1.45214E-13
 -1      1020-4.85921E+01 2.48473E-02-1.45767E+01 2.24284E+00-8.49788E-13-9.51846E-16
 -1      1021-4.76869E+01 3.33160E-02-1.43024E+01 3.21607E+00 5.40635E-14 2.33094E-14
 -1      1022-4.66631E+01 2.88190E-02-1.39964E+01 4.31758E+00-7.62450E-14 1.05598E-13
 -1      1023-4.54859E+01-1.73589E-03-1.36522E+01 5.56036E+00 2.36232E-13 9.51849E-15
 -1      1024-4.41088E+01-7.57952E-02-1.32611E+01 6.95412E+00 3.93815E-13-5.06520E-14
 -1      1025-4.24727E+01-2.15214E-01-1.28118E+01 8.50218E+00 1.65021E-13-1.57473E-14
 -1      1026-4.05045E+01-4.45347E-01-1.22902E+01 1.01975E+01 7.35196E-13 6.83055E-14
 -1      1027-3.81184E+01-7.92725E-01-1.16784E+01 1.20182E+01-1.11236E-13 5.94571E-15
 -1      1028-3.52187E+01-1.28103E+00-1.09547E+01 1.39230E+01-6.29296E-13-3.44079E-15
 -1      1029-3.17055E+01-1.92551E+00-1.00939E+01 1.58480E+01-2.17414E-13-1.75349E-14
 -1      1030-2.74828E+01-2.72655E+00-9.06715E+00 1.77061E+01-2.14348E-13 1.39448E-14
 -1      1031-2.24666E+01-3.66429E+00-7.84344E+00 1.93892E+01-5.51158E-13 1.49639E-15
 -1      1032-1.65926E+01-4.69620E+00-6.39063E+00 2.07744E+01 2.86508E-15-3.82064E-15
 -1      1033-9.81717E+00-5.76011E+00-4.67709E+00 2.17310E+01 4.25087E-13 2.07449E-15
 -1      1034-2.11338E+00-6.78347E+00-2.67298E+00 2.21261E+01-3.15496E-13 4.80726E-15
 -1      1035 6.54159E+00-7.69784E+00-3.50983E-01 2.18212E+01 2.92470E-13-1.91918E-14
 -1      1036 1.61823E+01-8.45586E+00 2.31338E+00 2.06558E+01-1.72700E-13-4.77851E-14
 -1      1037 2.68681E+01-9.04567E+00 5.34133E+00 1.84091E+01 7.69514E-14-2.42632E-14
 -1      1038 3.86778E+01-9.49676E+00 8.74742E+00 1.47308E+01 5.37030E-13-4.20789E-14
 -1      1039 5.16605E+01-9.86074E+00 1.25305E+01 9.01554E+00 4.78709E-13-1.01619E-13
 -1      1040-5.35318E+01 3.44005E-03-1.60663E+01 5.84897E-01-1.84976E-13-1.24207E-14
 -1      1041-5.29335E+01 1.65082E-02-1.58828E+01 1.33251E+00 8.77877E-13-7.26390E-14
 -1      1042-5.22729E+01 2.93177E-02-1.56806E+01 2.20754E+00-8.11416E-13-2.08204E-14
 -1      1043-5.15231E+01 3.28730E-02-1.54544E+01 3.22721E+00 3.95681E-13 1.78423E-14
 -1      1044-5.06487E+01 1.17635E-02-1.51983E+01 4.41125E+00 7.84668E-13-1.16329E-14
 -1      1045-4.96008E+01-5.45626E-02-1.49036E+01 5.77639E+00 1.53828E-13 7.42257E-14
 -1      1046-4.83147E+01-1.92442E-01-1.45589E+01 7.33299E+00-2.26746E-13 1.98293E-15
 -1      1047-4.67094E+01-4.33041E-01-1.41493E+01 9.08025E+00-3.38791E-13-8.37395E-15
 -1      1048-4.46879E+01-8.09585E-01-1.36556E+01 1.10005E+01 4.23989E-13 1.96903E-14
 -1      1049-4.21416E+01-1.35229E+00-1.30542E+01 1.30538E+01 2.10271E-13 5.67655E-14
 -1      1050-3.89574E+01-2.08111E+00-1.23173E+01 1.51740E+01-1.97068E-13 1.01180E-14
 -1      1051-3.50283E+01-2.99719E+00-1.14131E+01 1.72681E+01-1.44779E-12-7.07038E-15
 -1      1052-3.02650E+01-4.07538E+00-1.03073E+01 1.92206E+01-5.00760E-14-1.39802E-14
 -1      1053-2.46058E+01-5.26057E+00-8.96475E+00 2.09028E+01-1.36241E-13-1.03289E-15
 -1      1054-1.80196E+01-6.47070E+00-7.35166E+00 2.21855E+01-4.17113E-13-1.46142E-15
 -1      1055-1.05003E+01-7.60773E+00-5.43680E+00 2.29498E+01-1.26431E-13-8.08536E-15
 -1      1056-2.05096E+00-8.57520E+00-3.19218E+00 2.30912E+01 1.78586E-13-1.82432E-14
 -1      1057 7.33985E+00-9.29890E+00-5.92209E-01 2.25122E+01 4.08393E-13-2.75715E-14
 -1      1058 1.77238E+01-9.74632E+00 2.38824E+00 2.10964E+01 4.68885E-13 5.84645E-14
 -1      1059 2.92147E+01-9.94102E+00 5.77610E+00 1.86612E+01 1.93719E-13-2.58340E-14
 -1      1060 4.19945E+01-9.96879E+00 9.59994E+00 1.48765E+01 3.83399E-15-7.72452E-14
 -1      1061 5.62834E+01-9.96625E+00 1.38843E+01 9.11959E+00 4.48294E-13-2.91259E-14
 -1      1062-5.65272E+01 5.25099E-03-1.69653E+01 5.40833E-01-2.36189E-13 6.54193E-14
 -1      1063-5.61717E+01 1.99908E-02-1.68541E+01 1.28605E+00-3.66877E-13-6.19012E-15
 -1      1064-5.57671E+01 2.92702E-02-1.67299E+01 2.19677E+00 2.73351E-13-2.30241E-14
 -1      1065-5.52757E+01 1.69248E-02-1.65861E+01 3.29643E+00-5.85422E-14 1.13959E-13
 -1      1066-5.46458E+01-4.20619E-02-1.64147E+01 4.61092E+00 2.26862E-13-1.88428E-14
 -1      1067-5.38061E+01-1.79979E-01-1.62040E+01 6.15936E+00-6.44409E-13 2.00591E-14
 -1      1068-5.26647E+01-4.36097E-01-1.59382E+01 7.94859E+00 5.82669E-13-4.90040E-14
 -1      1069-5.11095E+01-8.53387E-01-1.55967E+01 9.96587E+00 2.29896E-13-4.44466E-14
 -1      1070-4.90134E+01-1.47219E+00-1.51532E+01 1.21717E+01 5.49274E-14-2.90258E-14
 -1      1071-4.62442E+01-2.32070E+00-1.45767E+01 1.44947E+01-5.44137E-13 9.62299E-15
 -1      1072-4.26779E+01-3.40362E+00-1.38313E+01 1.68306E+01 7.33373E-14-7.22141E-15
 -1      1073-3.82159E+01-4.69172E+00-1.28788E+01 1.90487E+01 4.36080E-13-2.59088E-14
 -1      1074-3.27978E+01-6.11638E+00-1.16803E+01 2.10050E+01 1.08886E-12-1.26571E-14
 -1      1075-2.64076E+01-7.57280E+00-1.01997E+01 2.25601E+01 6.81270E-14 9.00323E-15
 -1      1076-1.90672E+01-8.93328E+00-8.40529E+00 2.35966E+01-5.45027E-13-2.57185E-15
 -1      1077-1.08177E+01-1.00686E+01-6.27074E+00 2.40296E+01-5.50014E-13 3.84679E-15
 -1      1078-1.69082E+00-1.08727E+01-3.77376E+00 2.38037E+01 6.37741E-14 1.34930E-14
 -1      1079 8.32359E+00-1.12844E+01-8.93074E-01 2.28753E+01 3.86964E-13-1.99366E-14
 -1      1080 1.93086E+01-1.13038E+01 2.39607E+00 2.11774E+01 1.33097E-13 3.27368E-15
 -1      1081 3.14461E+01-1.10017E+01 6.12679E+00 1.85647E+01-4.67152E-13 8.66206E-15
 -1      1082 4.50329E+01-1.05247E+01 1.03438E+01 1.47274E+01-7.44925E-13-1.37024E-14
 -1      1083 6.04747E+01-1.00934E+01 1.51021E+01 9.03402E+00-1.10431E-13-1.76767E-14
 -1      1084-5.91974E+01 7.95006E-03-1.77664E+01 4.96718E-01-1.60697E-14-2.09738E-14
 -1      1085-5.92118E+01 2.28458E-02-1.77663E+01 1.25701E+00-1.36955E-13 9.75094E-14
 -1      1086-5.91921E+01 2.11040E-02-1.77609E+01 2.23873E+00 3.58616E-13-4.89747E-14
 -1      1087-5.90817E+01-2.53269E-02-1.77417E+01 3.47350E+00 3.43589E-13 5.94587E-14
 -1      1088-5.88019E+01-1.56906E-01-1.76973E+01 4.99297E+00-4.35470E-13 2.92338E-17
 -1      1089-5.82464E+01-4.23678E-01-1.76106E+01 6.81441E+00-4.20937E-13-2.03045E-14
 -1      1090-5.72828E+01-8.82351E-01-1.74590E+01 8.93205E+00 4.88195E-13-7.36029E-14
 -1      1091-5.57581E+01-1.58828E+00-1.72132E+01 1.13070E+01-1.35669E-15 1.72935E-15
 -1      1092-5.35116E+01-2.58299E+00-1.68374E+01 1.38600E+01 2.65444E-13-4.93814E-15
 -1      1093-5.03938E+01-3.87874E+00-1.62904E+01 1.64697E+01-3.61864E-13-2.52350E-14
 -1      1094-4.62892E+01-5.44392E+00-1.55281E+01 1.89810E+01 5.06049E-13 2.21606E-14
 -1      1095-4.11352E+01-7.19505E+00-1.45067E+01 2.12234E+01 3.02010E-13-6.26195E-15
 -1      1096-3.49319E+01-9.00031E+00-1.31866E+01 2.30355E+01 7.40032E-14 1.49964E-14
 -1      1097-2.77348E+01-1.06966E+01-1.15357E+01 2.42906E+01-5.22144E-13-5.06886E-16
 -1      1098-1.96320E+01-1.21165E+01-9.53029E+00 2.49123E+01-3.62080E-13-2.71266E-15
 -1      1099-1.07095E+01-1.31187E+01-7.15374E+00 2.48750E+01 1.98632E-13-9.27287E-16
 -1      1100-1.01352E+00-1.36126E+01-4.39287E+00 2.41882E+01-4.69912E-13 2.37625E-14
 -1      1101 9.48402E+00-1.35739E+01-1.23209E+00 2.28658E+01-1.65317E-13-2.14683E-14
 -1      1102 2.09144E+01-1.30514E+01 2.35320E+00 2.08846E+01-1.32591E-13 1.70658E-14
 -1      1103 3.35378E+01-1.21692E+01 6.40360E+00 1.81280E+01 8.56001E-13-1.50409E-14
 -1      1104 4.77690E+01-1.11314E+01 1.09819E+01 1.43012E+01 3.92402E-14-6.94291E-14
 -1      1105 6.42016E+01-1.02342E+01 1.61766E+01 8.77158E+00-3.16922E-13 4.29077E-14
 -1      1106-6.16254E+01 1.18457E-02-1.84944E+01 4.56310E-01 7.40144E-13 1.73107E-14
 -1      1107-6.21736E+01 2.41155E-02-1.86554E+01 1.26237E+00 1.48443E-13-8.76573E-16
 -1      1108-6.27007E+01-1.47859E-03-1.88214E+01 2.37276E+00 2.14105E-13-7.82216E-16
 -1      1109-6.31175E+01-1.12675E-01-1.89800E+01 3.82877E+00-9.43057E-14 7.39935E-14
 -1      1110-6.33008E+01-3.74309E-01-1.91137E+01 5.66441E+00-4.93595E-14 1.72327E-14
 -1      1111-6.30904E+01-8.61968E-01-1.91969E+01 7.88497E+00 1.19719E-12 2.32055E-14
 -1      1112-6.22970E+01-1.65302E+00-1.91962E+01 1.04542E+01-9.51723E-14 1.77650E-14
 -1      1113-6.07185E+01-2.80985E+00-1.90696E+01 1.32827E+01-3.12993E-13 3.40864E-14
 -1      1114-5.81661E+01-4.35848E+00-1.87681E+01 1.62253E+01 4.26924E-13-6.11623E-15
 -1      1115-5.44959E+01-6.26766E+00-1.82393E+01 1.90910E+01 3.44283E-13 4.27527E-15
 -1      1116-4.96372E+01-8.43689E+00-1.74318E+01 2.16681E+01 3.45671E-14-1.70190E-14
 -1      1117-4.36067E+01-1.07006E+01-1.63010E+01 2.37593E+01-1.72553E-13-4.40662E-15
 -1      1118-3.65001E+01-1.28508E+01-1.48132E+01 2.52166E+01 8.96186E-14 6.96963E-15
 -1      1119-2.84628E+01-1.46737E+01-1.29480E+01 2.59642E+01 3.49110E-13-1.58446E-15
 -1      1120-1.96456E+01-1.59873E+01-1.06962E+01 2.60004E+01-4.16752E-14 4.78427E-15
 -1      1121-1.01599E+01-1.66717E+01-8.05515E+00 2.53792E+01-3.92077E-14-2.15500E-15
 -1      1122-3.99390E-02-1.66834E+01-5.02233E+00 2.41783E+01-4.78687E-13 5.46908E-15
 -1      1123 1.07835E+01-1.60564E+01-1.58723E+00 2.24596E+01 6.48166E-13 6.01484E-15
 -1      1124 2.25041E+01-1.48965E+01 2.27632E+00 2.02279E+01 1.13382E-13 3.23796E-14
 -1      1125 3.54639E+01-1.33786E+01 6.61823E+00 1.73811E+01-7.50003E-13-1.36624E-14
 -1      1126 5.01901E+01-1.17539E+01 1.15208E+01 1.36327E+01-1.62467E-13-4.51272E-14
 -1      1127 6.74544E+01-1.03799E+01 1.71074E+01 8.35623E+00 7.31193E-14 1.02758E-13
 -1      1128-6.39120E+01 1.74923E-02-1.91795E+01 4.24408E-01-3.97030E-14-6.97542E-14
 -1      1129-6.52106E+01 2.19723E-02-1.95682E+01 1.32677E+00-6.72996E-13-1.08904E-14
 -1      1130-6.64909E+01-5.00730E-02-1.99744E+01 2.65744E+00 2.74561E-13 4.73996E-14
 -1      1131-6.76074E+01-2.79028E-01-2.03785E+01 4.46650E+00 4.42178E-13-4.52376E-14
 -1      1132-6.83648E+01-7.67246E-01-2.07526E+01 6.78015E+00 4.73655E-13 8.61330E-15
 -1      1133-6.85226E+01-1.62411E+00-2.10573E+01 9.56970E+00 5.17986E-13-3.16947E-14
 -1      1134-6.78177E+01-2.94474E+00-2.12421E+01 1.27355E+01-4.50047E-13 7.93747E-15
 -1      1135-6.60005E+01-4.77921E+00-2.12472E+01 1.60999E+01 2.63376E-13 1.33011E-14
 -1      1136-6.28808E+01-7.10171E+00-2.10076E+01 1.94201E+01 1.51965E-13-2.47796E-14
 -1      1137-5.83692E+01-9.79187E+00-2.04605E+01 2.24231E+01-1.21136E-14-2.90366E-14
 -1      1138-5.24996E+01-1.26397E+01-1.95530E+01 2.48553E+01-3.22103E-13-1.04156E-14
 -1      1139-4.54185E+01-1.53775E+01-1.82489E+01 2.65334E+01-1.13906E-13-9.53968E-15
 -1      1140-3.73438E+01-1.77303E+01-1.65312E+01 2.73751E+01 1.44634E-13-2.05531E-15
 -1      1141-2.85065E+01-1.94671E+01-1.43999E+01 2.74017E+01 6.27046E-13-3.48053E-15
 -1      1142-1.90930E+01-2.04376E+01-1.18660E+01 2.67128E+01 4.02016E-13 5.45411E-16
 -1      1143-9.20328E+00-2.05850E+01-8.94247E+00 2.54458E+01 9.84939E-14-3.41677E-15
 -1      1144 1.17211E+00-1.99405E+01-5.63606E+00 2.37322E+01-3.80192E-13-1.90193E-14
 -1      1145 1.21637E+01-1.86072E+01-1.93860E+00 2.16598E+01-3.76636E-13-1.19592E-14
 -1      1146 2.40340E+01-1.67453E+01 2.18045E+00 1.92404E+01-3.15496E-13-7.63577E-15
 -1      1147 3.72021E+01-1.45688E+01 6.78229E+00 1.63709E+01-5.35728E-13 1.47224E-14
 -1      1148 5.22946E+01-1.23609E+01 1.19694E+01 1.27678E+01-5.14809E-13-2.99000E-14
 -1      1149 7.02431E+01-1.05227E+01 1.79001E+01 7.81863E+00-2.23615E-13-1.10084E-14
 -1      1150-6.61825E+01 2.58138E-02-1.98590E+01 4.08028E-01-3.96446E-14 4.47834E-14
 -1      1151-6.85243E+01 1.27196E-02-2.05663E+01 1.48890E+00-6.54707E-13 3.43725E-14
 -1      1152-7.08232E+01-1.46894E-01-2.13048E+01 3.18486E+00-5.25514E-13 4.05982E-14
 -1      1153-7.28373E+01-5.87330E-01-2.20420E+01 5.54725E+00 5.16588E-13-6.82946E-14
 -1      1154-7.42561E+01-1.46619E+00-2.27321E+01 8.56912E+00 6.83543E-13 8.08490E-15
 -1      1155-7.47257E+01-2.93025E+00-2.33127E+01 1.21435E+01-2.44834E-13-3.90751E-14
 -1      1156-7.39015E+01-5.07191E+00-2.37081E+01 1.60513E+01-7.79358E-13 3.02512E-14
 -1      1157-7.15156E+01-7.88115E+00-2.38350E+01 1.99754E+01-7.04947E-13-1.53512E-14
 -1      1158-6.74423E+01-1.12149E+01-2.36125E+01 2.35499E+01 5.67939E-13-6.03408E-15
 -1      1159-6.17323E+01-1.48023E+01-2.29747E+01 2.64348E+01 8.61149E-14 2.30690E-15
 -1      1160-5.45993E+01-1.82916E+01-2.18803E+01 2.83899E+01 1.04889E-12 4.57722E-17
 -1      1161-4.63599E+01-2.13235E+01-2.03166E+01 2.93191E+01 4.60094E-13-1.61537E-15
 -1      1162-3.73497E+01-2.36031E+01-1.82958E+01 2.92711E+01-7.66622E-13 1.35967E-15
 -1      1163-2.78467E+01-2.49458E+01-1.58462E+01 2.84012E+01 3.71529E-13 1.87258E-15
 -1      1164-1.80218E+01-2.52894E+01-1.30006E+01 2.69141E+01-2.65418E-13-4.06638E-15
 -1      1165-7.92010E+00-2.46767E+01-9.78529E+00 2.50095E+01 1.21035E-13-2.16722E-15
 -1      1166 2.53914E+00-2.32264E+01-6.21189E+00 2.28426E+01 2.17701E-13-3.28040E-15
 -1      1167 1.35572E+01-2.11059E+01-2.27025E+00 2.04982E+01 1.25089E-13-9.30845E-15
 -1      1168 2.54620E+01-1.85150E+01 2.07777E+00 1.79739E+01-1.03822E-13-2.77144E-14
 -1      1169 3.87373E+01-1.56896E+01 6.90635E+00 1.51545E+01 1.85146E-13-5.08183E-15
 -1      1170 5.40917E+01-1.29274E+01 1.23381E+01 1.17567E+01-4.91353E-13 2.45256E-14
 -1      1171 7.25935E+01-1.06565E+01 1.85642E+01 7.19168E+00 6.68922E-13 6.22719E-15
 -1      1172-6.85998E+01 3.86081E-02-2.05812E+01 4.18730E-01-2.67691E-13 1.46319E-14
 -1      1173-7.23896E+01-1.15302E-02-2.17347E+01 1.81332E+00-1.12029E-13-1.27978E-14
 -1      1174-7.60491E+01-3.35960E-01-2.29314E+01 4.10616E+00 3.59910E-14-2.82661E-14
 -1      1175-7.91709E+01-1.15733E+00-2.41158E+01 7.32492E+00 4.44668E-13-8.72113E-14
 -1      1176-8.12671E+01-2.70740E+00-2.52109E+01 1.13719E+01 7.61833E-14-4.33824E-15
 -1      1177-8.18400E+01-5.15412E+00-2.61176E+01 1.59782E+01 7.47728E-13-4.53439E-14
 -1      1178-8.04895E+01-8.52561E+00-2.67242E+01 2.07199E+01 5.46869E-14 3.24094E-14
 -1      1179-7.70178E+01-1.26557E+01-2.69213E+01 2.50888E+01-9.64437E-14 1.85811E-14
 -1      1180-7.14897E+01-1.71877E+01-2.66215E+01 2.86073E+01 2.31759E-13 1.59487E-14
 -1      1181-6.42130E+01-2.16461E+01-2.57745E+01 3.09436E+01-6.69964E-13 1.49958E-14
 -1      1182-5.56463E+01-2.55484E+01-2.43733E+01 3.19776E+01-4.29833E-13-3.02016E-19
 -1      1183-4.62718E+01-2.85111E+01-2.24477E+01 3.17964E+01 1.21188E-13 3.89493E-15
 -1      1184-3.64870E+01-3.03102E+01-2.00501E+01 3.06322E+01 2.10769E-14-3.99068E-16
 -1      1185-2.65444E+01-3.08874E+01-1.72386E+01 2.87769E+01 6.23077E-13 9.94766E-16
 -1      1186-1.65383E+01-3.03156E+01-1.40638E+01 2.65098E+01-1.51583E-13 2.61307E-15
 -1      1187-6.42243E+00-2.87517E+01-1.05587E+01 2.40506E+01 2.25903E-13 8.20976E-15
 -1      1188 3.96745E+00-2.63930E+01-6.73346E+00 2.15389E+01-6.04893E-13 2.00516E-15
 -1      1189 1.48995E+01-2.34505E+01-2.57104E+00 1.90300E+01-2.27572E-13-7.38761E-15
 -1      1190 2.67541E+01-2.01419E+01 1.97721E+00 1.64920E+01 8.26636E-14-8.98389E-15
 -1      1191 4.00637E+01-1.67051E+01 6.99937E+00 1.37920E+01 7.20370E-13 2.44477E-14
 -1      1192 5.55994E+01-1.34367E+01 1.26372E+01 1.06492E+01-2.89013E-13 4.35352E-15
 -1      1193 7.45424E+01-1.07770E+01 1.91119E+01 6.50706E+00 8.48313E-13-1.33050E-14
 -1      1194-7.13903E+01 5.84892E-02-2.14135E+01 4.76934E-01 4.92899E-13 1.60787E-14
 -1      1195-7.71991E+01-6.81926E-02-2.31965E+01 2.41334E+00-1.14313E-13 2.49984E-14
 -1      1196-8.26537E+01-7.07966E-01-2.50273E+01 5.67826E+00 8.91862E-13-4.22993E-14
 -1      1197-8.70650E+01-2.22259E+00-2.68074E+01 1.02078E+01 7.33064E-13-1.73307E-14
 -1      1198-8.96874E+01-4.92184E+00-2.84057E+01 1.56900E+01-2.02717E-13 2.83467E-14
 -1      1199-8.98848E+01-8.92126E+00-2.96659E+01 2.15487E+01-2.45937E-13 8.18086E-15
 -1      1200-8.73152E+01-1.40415E+01-3.04312E+01 2.70504E+01 2.05337E-13 2.41332E-14
 -1      1201-8.20425E+01-1.98026E+01-3.05769E+01 3.14903E+01 9.89963E-14 1.58002E-15
 -1      1202-7.45128E+01-2.55374E+01-3.00368E+01 3.43825E+01 1.93634E-13 2.67333E-15
 -1      1203-6.54013E+01-3.05742E+01-2.88121E+01 3.55660E+01-3.34398E-13-5.61354E-15
 -1      1204-5.54094E+01-3.44007E+01-2.69598E+01 3.51879E+01-5.66433E-14-2.21419E-15
 -1      1205-4.51021E+01-3.67452E+01-2.45684E+01 3.35954E+01-3.44703E-13 3.21561E-15
 -1      1206-3.48314E+01-3.75693E+01-2.17319E+01 3.12049E+01-1.84109E-13 1.53666E-15
 -1      1207-2.47372E+01-3.70040E+01-1.85319E+01 2.83981E+01 4.70394E-13 9.02231E-16
 -1      1208-1.47889E+01-3.52726E+01-1.50263E+01 2.54669E+01-9.52292E-14-3.16928E-15
 -1      1209-4.83401E+00-3.26286E+01-1.12454E+01 2.25982E+01 1.51643E-13 4.76290E-15
 -1      1210 5.36836E+00-2.93181E+01-7.19081E+00 1.98820E+01-1.26978E-13-2.40573E-15
 -1      1211 1.61374E+01-2.55664E+01-2.83450E+00 1.73255E+01-3.10399E-13-4.94277E-15
 -1      1212 2.78882E+01-2.15843E+01 1.88465E+00 1.48617E+01 5.95423E-14-3.20602E-14
 -1      1213 4.11844E+01-1.75944E+01 7.06867E+00 1.23412E+01-1.01152E-13 2.40246E-14
 -1      1214 5.68422E+01-1.38795E+01 1.28769E+01 9.49003E+00-2.59254E-13 3.13904E-14
 -1      1215 7.61324E+01-1.08820E+01 1.95568E+01 5.79279E+00-2.80793E-14-1.92473E-14
 -1      1216-7.48911E+01 9.25765E-02-2.24549E+01 6.22578E-01-2.49736E-13-9.49121E-15
 -1      1217-8.35395E+01-1.97883E-01-2.51403E+01 3.49762E+00-2.25692E-13 3.34651E-15
 -1      1218-9.13171E+01-1.45648E+00-2.78551E+01 8.35110E+00-1.10590E-13 2.00777E-15
 -1      1219-9.70651E+01-4.24832E+00-3.04206E+01 1.48555E+01 1.19304E-13 2.22102E-14
 -1      1220-9.97136E+01-8.89462E+00-3.26117E+01 2.22351E+01 1.47309E-13 9.16399E-15
 -1      1221-9.86161E+01-1.52459E+01-3.41891E+01 2.93893E+01-3.28909E-13-1.81867E-14
 -1      1222-9.37858E+01-2.26454E+01-3.49595E+01 3.52163E+01 1.92073E-13-6.62322E-15
 -1      1223-8.58758E+01-3.01151E+01-3.48257E+01 3.89554E+01 3.64611E-13-5.54596E-15
 -1      1224-7.59137E+01-3.66746E+01-3.38021E+01 4.03716E+01-1.86700E-14 3.44574E-16
 -1      1225-6.49502E+01-4.16136E+01-3.19914E+01 3.97120E+01-3.75805E-14 2.01126E-16
 -1      1226-5.38001E+01-4.46037E+01-2.95398E+01 3.75097E+01 4.38667E-13-3.72917E-16
 -1      1227-4.29446E+01-4.56569E+01-2.65958E+01 3.43682E+01 3.20718E-13 9.02855E-16
 -1      1228-3.25626E+01-4.50068E+01-2.32832E+01 3.08108E+01 1.00316E-13 1.04925E-15
 -1      1229-2.26160E+01-4.29854E+01-1.96904E+01 2.72170E+01-9.71306E-14-5.90739E-15
 -1      1230-1.29339E+01-3.99351E+01-1.58687E+01 2.38180E+01 3.69970E-13 3.44361E-15
 -1      1231-3.27040E+00-3.61611E+01-1.18361E+01 2.07234E+01 3.03567E-13-9.20092E-16
 -1      1232 6.66965E+00-3.19164E+01-7.57994E+00 1.79528E+01 7.20484E-13-3.05028E-15
 -1      1233 1.72342E+01-2.74087E+01-3.05818E+00 1.54605E+01-1.65184E-14 1.30566E-14
 -1      1234 2.88547E+01-2.28215E+01 1.80338E+00 1.31473E+01 3.31658E-13-1.06142E-14
 -1      1235 4.21108E+01-1.83492E+01 7.11999E+00 1.08529E+01 1.00813E-13 1.20219E-14
 -1      1236 5.78485E+01-1.42533E+01 1.30664E+01 8.31695E+00-4.91956E-13-2.43997E-14
 -1      1237 7.74088E+01-1.09707E+01 1.99126E+01 5.07210E+00 9.20889E-14-3.26829E-15
 -1      1238-7.96419E+01 1.45319E-01-2.38664E+01 9.33758E-01-2.71479E-13 5.61216E-15
 -1      1239-9.23283E+01-5.02187E-01-2.78726E+01 5.46939E+00-4.86381E-14 1.73497E-14
 -1      1240-1.02995E+02-3.01697E+00-3.18331E+01 1.29346E+01 2.78542E-13 2.77141E-14
 -1      1241-1.09740E+02-8.17956E+00-3.54107E+01 2.23218E+01 8.67336E-14 1.79149E-14
 -1      1242-1.11244E+02-1.60312E+01-3.82210E+01 3.19342E+01-5.35337E-14 2.29707E-14
 -1      1243-1.07304E+02-2.56750E+01-3.99330E+01 3.99307E+01-2.11665E-13 1.12803E-14
 -1      1244-9.88822E+01-3.55995E+01-4.03823E+01 4.50174E+01 6.61431E-14 1.62821E-14
 -1      1245-8.76165E+01-4.42853E+01-3.96049E+01 4.68123E+01-3.57621E-14 2.00823E-15
 -1      1246-7.51557E+01-5.06984E+01-3.77861E+01 4.57412E+01-4.40201E-13-3.05001E-15
 -1      1247-6.27107E+01-5.44474E+01-3.51725E+01 4.26556E+01-1.45639E-13-3.15816E-16
 -1      1248-5.09379E+01-5.56583E+01-3.19993E+01 3.84561E+01-6.18959E-13-1.88100E-15
 -1      1249-4.00398E+01-5.47462E+01-2.84522E+01 3.38703E+01-1.98715E-13 6.89432E-16
 -1      1250-2.99332E+01-5.22173E+01-2.46581E+01 2.93862E+01-3.52871E-13 1.85437E-15
 -1      1251-2.03891E+01-4.85467E+01-2.06910E+01 2.52757E+01 2.94907E-13-2.99894E-15
 -1      1252-1.11213E+01-4.41253E+01-1.65821E+01 2.16520E+01 1.35686E-13 4.11689E-15
 -1      1253-1.82432E+00-3.92504E+01-1.23291E+01 1.85246E+01 2.72647E-13-6.95608E-15
 -1      1254 7.82134E+00-3.41404E+01-7.90164E+00 1.58405E+01 1.01253E-13 6.03426E-15
 -1      1255 1.81703E+01-2.89597E+01-3.24268E+00 1.35082E+01-1.02151E-13 5.42168E-15
 -1      1256 2.96549E+01-2.38504E+01 1.73475E+00 1.14054E+01-9.79927E-14-2.11189E-14
 -1      1257 4.28593E+01-1.89716E+01 7.15773E+00 9.36936E+00 3.29484E-13 1.37297E-14
 -1      1258 5.86484E+01-1.45600E+01 1.32142E+01 7.15989E+00-2.44069E-15-8.48949E-16
 -1      1259 7.84162E+01-1.10436E+01 2.01925E+01 4.36307E+00-2.74464E-13-1.48998E-15
 -1      1260-8.65699E+01 2.59292E-01-2.59137E+01 1.59560E+00-2.11226E-14 8.28239E-15
 -1      1261-1.05038E+02-1.24279E+00-3.19146E+01 9.14904E+00 2.43934E-13 2.43844E-14
 -1      1262-1.18971E+02-6.40165E+00-3.76523E+01 2.09069E+01 4.06038E-13-1.26846E-14
 -1      1263-1.25437E+02-1.59380E+01-4.24608E+01 3.42093E+01 2.38158E-13-1.10511E-15
 -1      1264-1.23475E+02-2.87356E+01-4.57152E+01 4.57575E+01 1.82154E-13 1.07131E-14
 -1      1265-1.14467E+02-4.23106E+01-4.70848E+01 5.31068E+01 1.94083E-13-8.51753E-15
 -1      1266-1.01189E+02-5.41189E+01-4.66396E+01 5.55431E+01-2.61717E-13-4.64332E-15
 -1      1267-8.63996E+01-6.25553E+01-4.47276E+01 5.38356E+01 2.22882E-13-2.31038E-15
 -1      1268-7.19855E+01-6.71791E+01-4.17836E+01 4.94200E+01 2.36311E-13-1.08375E-15
 -1      1269-5.88429E+01-6.83691E+01-3.81913E+01 4.36944E+01 5.18293E-13 1.30371E-16
 -1      1270-4.71572E+01-6.68698E+01-3.42301E+01 3.76884E+01 7.55138E-14 4.93626E-16
 -1      1271-3.67310E+01-6.34676E+01-3.00768E+01 3.20214E+01 4.87613E-13 6.28934E-16
 -1      1272-2.72178E+01-5.88316E+01-2.58282E+01 2.69925E+01-1.99236E-14 4.06958E-15
 -1      1273-1.82463E+01-5.34672E+01-2.15245E+01 2.26926E+01 1.10693E-13-4.88623E-15
 -1      1274-9.46745E+00-4.77277E+01-1.71668E+01 1.90942E+01-3.12679E-13 3.59528E-15
 -1      1275-5.58611E-01-4.18470E+01-1.27284E+01 1.61112E+01-4.15582E-14 4.41426E-15
 -1      1276 8.79622E+00-3.59771E+01-8.16019E+00 1.36316E+01 3.78995E-14 8.56422E-15
 -1      1277 1.89410E+01-3.02236E+01-3.39064E+00 1.15328E+01-6.50091E-14-1.66714E-15
 -1      1278 3.02985E+01-2.46804E+01 1.67877E+00 9.68202E+00 2.82511E-13 7.20908E-15
 -1      1279 4.34500E+01-1.94703E+01 7.18526E+00 7.92300E+00-4.11694E-15-1.61651E-14
 -1      1280 5.92715E+01-1.48048E+01 1.33275E+01 6.04109E+00-5.89963E-13 3.75592E-15
 -1      1281 7.91964E+01-1.11019E+01 2.04088E+01 3.67894E+00 1.96546E-13 8.05513E-15
 -1      1282-9.73935E+01 3.67542E-01-2.91338E+01 3.00389E+00-7.25243E-14 3.62105E-14
 -1      1283-1.24200E+02-3.24797E+00-3.82777E+01 1.63206E+01-3.47664E-13 7.16287E-15
 -1      1284-1.40811E+02-1.41017E+01-4.65337E+01 3.49918E+01 8.50143E-14-2.19136E-14
 -1      1285-1.43604E+02-3.13613E+01-5.25599E+01 5.26543E+01 1.07604E-13 4.81723E-15
 -1      1286-1.34240E+02-5.07093E+01-5.55574E+01 6.40842E+01-8.42047E-14 7.08284E-17
 -1      1287-1.17761E+02-6.74117E+01-5.56194E+01 6.76671E+01 2.46937E-13-6.19300E-15
 -1      1288-9.92341E+01-7.87407E+01-5.34509E+01 6.48911E+01-4.80188E-13-3.15397E-15
 -1      1289-8.17871E+01-8.43029E+01-4.98752E+01 5.83602E+01-2.18947E-13-8.21969E-16
 -1      1290-6.66373E+01-8.50586E+01-4.55472E+01 5.03538E+01 2.17738E-13-6.38524E-16
 -1      1291-5.38376E+01-8.23697E+01-4.08923E+01 4.23505E+01-3.38578E-13-9.15998E-18
 -1      1292-4.29425E+01-7.74784E+01-3.61496E+01 3.51111E+01 4.39359E-14-7.20047E-16
 -1      1293-3.33897E+01-7.13299E+01-3.14338E+01 2.89196E+01 2.28458E-15 1.85819E-15
 -1      1294-2.46626E+01-6.45709E+01-2.67838E+01 2.37954E+01 9.84979E-14 1.76242E-15
 -1      1295-1.63327E+01-5.76108E+01-2.21937E+01 1.96334E+01-1.41471E-15 7.65905E-16
 -1      1296-8.04841E+00-5.06911E+01-1.76302E+01 1.62833E+01-1.22874E-13-2.14895E-15
 -1      1297 4.93943E-01-4.39445E+01-1.30419E+01 1.35885E+01-3.20698E-13-1.07874E-15
 -1      1298 9.58670E+00-3.74401E+01-8.36195E+00 1.14017E+01 8.52760E-15-1.42144E-16
 -1      1299 1.95529E+01-3.12197E+01-3.50590E+00 9.58677E+00 2.01089E-13-3.78745E-15
 -1      1300 3.08005E+01-2.53296E+01 1.63460E+00 8.01267E+00 2.48604E-13 8.86318E-16
 -1      1301 4.39042E+01-1.98583E+01 7.20507E+00 6.53737E+00-4.59382E-13-4.30144E-15
 -1      1302 5.97458E+01-1.49948E+01 1.34127E+01 4.97597E+00-3.64078E-13-2.78050E-14
 -1      1303 7.97878E+01-1.11472E+01 2.05723E+01 3.02876E+00 6.48583E-13 4.21995E-15
 -1      1304-1.15495E+02 8.83202E-01-3.44204E+01 6.40204E+00 3.08155E-13 1.66070E-14
 -1      1305-1.53838E+02-8.84965E+00-4.88756E+01 3.10041E+01-1.82226E-13-2.77678E-14
 -1      1306-1.69428E+02-3.22636E+01-6.06042E+01 5.98214E+01-8.57601E-14-1.06814E-14
 -1      1307-1.61235E+02-6.14343E+01-6.69084E+01 7.94036E+01-6.78121E-13-4.58426E-15
 -1      1308-1.39373E+02-8.65149E+01-6.78685E+01 8.52110E+01 2.51947E-13 1.16862E-15
 -1      1309-1.14493E+02-1.02158E+02-6.50828E+01 8.04317E+01 2.36328E-13 4.71164E-16
 -1      1310-9.22379E+01-1.08466E+02-6.02820E+01 7.02924E+01-7.72885E-13-1.11565E-15
 -1      1311-7.41669E+01-1.07822E+02-5.46516E+01 5.87256E+01-2.76619E-13-8.83520E-16
 -1      1312-5.98821E+01-1.02789E+02-4.88436E+01 4.78552E+01-6.20147E-13-9.67496E-16
 -1      1313-4.84115E+01-9.53490E+01-4.31602E+01 3.85260E+01 1.13125E-13-5.11085E-17
 -1      1314-3.88122E+01-8.68139E+01-3.77121E+01 3.08934E+01 1.30049E-13-1.49895E-15
 -1      1315-3.03402E+01-7.79761E+01-3.25133E+01 2.48086E+01 6.29142E-14 2.39169E-15
 -1      1316-2.24487E+01-6.92744E+01-2.75309E+01 2.00228E+01-2.58994E-13 2.34403E-15
 -1      1317-1.47379E+01-6.09263E+01-2.27100E+01 1.62798E+01-1.46352E-13-1.77397E-16
 -1      1318-6.90047E+00-5.30190E+01-1.79842E+01 1.33521E+01-1.17291E-13-2.65348E-15
 -1      1319 1.32582E+00-4.55690E+01-1.32797E+01 1.10487E+01 6.11639E-13-4.07472E-15
 -1      1320 1.01999E+01-3.85611E+01-8.51430E+00 9.21209E+00-4.39164E-13-4.83289E-15
 -1      1321 2.00202E+01-3.19768E+01-3.59283E+00 7.70966E+00 2.18247E-13 6.07249E-15
 -1      1322 3.11789E+01-2.58201E+01 1.60096E+00 6.42234E+00 1.07672E-13-2.14776E-17
 -1      1323 4.42429E+01-2.01503E+01 7.21905E+00 5.22814E+00 3.77782E-13 5.54888E-15
 -1      1324 6.00970E+01-1.51374E+01 1.34751E+01 3.97429E+00-3.01286E-13 3.39195E-15
 -1      1325 8.02242E+01-1.11813E+01 2.06928E+01 2.41812E+00 3.19609E-15 3.97243E-15
 -1      1326-1.49144E+02-7.14818E-01-4.50195E+01 1.48908E+01-7.78263E-14 1.33391E-15
 -1      1327-2.01788E+02-2.82278E+01-6.91371E+01 6.35230E+01-1.00353E-13-6.08785E-15
 -1      1328-2.01992E+02-7.51522E+01-8.33163E+01 1.01790E+02 3.99292E-13 7.45284E-15
 -1      1329-1.70043E+02-1.16528E+02-8.61400E+01 1.12337E+02-3.53081E-13 1.36079E-15
 -1      1330-1.33419E+02-1.38823E+02-8.18141E+01 1.03220E+02-5.41196E-13-1.29786E-15
 -1      1331-1.03222E+02-1.44664E+02-7.44758E+01 8.63634E+01 5.01109E-14 5.69935E-16
 -1      1332-8.09592E+01-1.40264E+02-6.64492E+01 6.89747E+01-5.79781E-14 1.04636E-15
 -1      1333-6.48588E+01-1.30578E+02-5.86922E+01 5.39341E+01 2.77090E-13 1.47400E-15
 -1      1334-5.28417E+01-1.18710E+02-5.15107E+01 4.18724E+01 6.27997E-13-3.32120E-17
 -1      1335-4.33140E+01-1.06370E+02-4.49387E+01 3.25326E+01 5.90035E-14 2.00937E-15
 -1      1336-3.52016E+01-9.44152E+01-3.89100E+01 2.54123E+01-2.25799E-13 3.17115E-16
 -1      1337-2.78085E+01-8.32191E+01-3.33270E+01 2.00135E+01 2.25379E-13 1.11963E-15
 -1      1338-2.06790E+01-7.28970E+01-2.80869E+01 1.59193E+01-2.10799E-13 2.17034E-16
 -1      1339-1.34987E+01-6.34337E+01-2.30905E+01 1.28028E+01-2.60241E-13 2.20383E-15
 -1      1340-6.02748E+00-5.47553E+01-1.82432E+01 1.04145E+01 1.46779E-13 2.20137E-15
 -1      1341 1.94791E+00-4.67679E+01-1.34528E+01 8.56482E+00 3.18473E-13 8.70682E-16
 -1      1342 1.06523E+01-3.93818E+01-8.62479E+00 7.10832E+00-6.82318E-14-1.72171E-15
 -1      1343 2.03612E+01-3.25278E+01-3.65583E+00 5.92897E+00 7.67430E-13-2.40485E-15
 -1      1344 3.14524E+01-2.61755E+01 1.57637E+00 4.92713E+00-3.18364E-13 4.14535E-15
 -1      1345 4.44859E+01-2.03612E+01 7.22862E+00 4.00450E+00-3.77026E-13 2.28357E-15
 -1      1346 6.03475E+01-1.52404E+01 1.35193E+01 3.04127E+00 4.54350E-13-5.38310E-15
 -1      1347 8.05347E+01-1.12060E+01 2.07784E+01 1.84990E+00 3.30220E-13-7.63098E-16
 -1      1348-2.21559E+02-5.01046E+00-6.81188E+01 4.36741E+01 5.25745E-13 2.11961E-14
 -1      1349-2.72587E+02-8.97625E+01-1.09020E+02 1.35601E+02 6.34114E-13 5.78902E-16
 -1      1350-2.18864E+02-1.71503E+02-1.17433E+02 1.59157E+02-2.95409E-13-2.84637E-15
 -1      1351-1.57458E+02-2.03059E+02-1.08411E+02 1.38528E+02-1.66676E-13-1.72963E-16
 -1      1352-1.13691E+02-2.03103E+02-9.52235E+01 1.07788E+02 2.98266E-13 2.22707E-15
 -1      1353-8.57677E+01-1.88826E+02-8.25086E+01 8.05313E+01 5.66544E-13 2.91480E-15
 -1      1354-6.79055E+01-1.69658E+02-7.13613E+01 5.95385E+01-1.97865E-13-3.53869E-17
 -1      1355-5.57344E+01-1.49953E+02-6.17718E+01 4.41422E+01-1.82505E-13-1.19784E-16
 -1      1356-4.66387E+01-1.31487E+02-5.34850E+01 3.30178E+01 4.58895E-14-5.97629E-16
 -1      1357-3.91359E+01-1.14843E+02-4.62283E+01 2.49839E+01 4.69749E-14 1.81541E-17
 -1      1358-3.23883E+01-1.00078E+02-3.97654E+01 1.91478E+01 4.21813E-13 7.28262E-16
 -1      1359-2.59061E+01-8.70347E+01-3.39012E+01 1.48720E+01-2.64431E-13 7.10188E-16
 -1      1360-1.93840E+01-7.54875E+01-2.84757E+01 1.17092E+01-3.23197E-13 1.08331E-15
 -1      1361-1.26096E+01-6.52033E+01-2.33547E+01 9.34548E+00-8.95950E-13-8.33218E-16
 -1      1362-5.41053E+00-5.59685E+01-1.84221E+01 7.55900E+00 3.47203E-13-8.77386E-16
 -1      1363 2.38244E+00-4.75994E+01-1.35719E+01 6.19018E+00-8.70407E-14 5.97098E-16
 -1      1364 1.09653E+01-3.99478E+01-8.70065E+00 5.12134E+00-7.57663E-14 9.88711E-16
 -1      1365 2.05954E+01-3.29061E+01-3.69907E+00 4.26182E+00-6.03654E-14-8.55542E-16
 -1      1366 3.16390E+01-2.64188E+01 1.55936E+00 3.53589E+00-2.27308E-13 2.28995E-15
 -1      1367 4.46508E+01-2.05054E+01 7.23483E+00 2.87063E+00-5.51563E-13-1.87695E-15
 -1      1368 6.05169E+01-1.53107E+01 1.35490E+01 2.17876E+00-1.69980E-13-1.35039E-15
 -1      1369 8.07445E+01-1.12230E+01 2.08362E+01 1.32499E+00-4.09304E-13 2.24421E-15
 -1      1370-4.34664E+02-1.20348E+02-1.67341E+02 2.03916E+02-3.77591E-15-6.95932E-15
 -1      1371-3.04451E+02-3.04790E+02-1.83587E+02 2.58824E+02-9.60183E-14 1.30151E-15
 -1      1372-1.84915E+02-3.35272E+02-1.56611E+02 1.95451E+02-1.35043E-14-1.37966E-15
 -1      1373-1.19175E+02-3.05827E+02-1.27849E+02 1.33066E+02-2.53505E-13 2.88812E-16
 -1      1374-8.55983E+01-2.65019E+02-1.05408E+02 8.97100E+01-5.61360E-13-4.44690E-16
 -1      1375-6.75003E+01-2.26084E+02-8.82215E+01 6.13711E+01-6.24547E-14-1.71733E-15
 -1      1376-5.64067E+01-1.92381E+02-7.47354E+01 4.28856E+01-6.90433E-14-3.05481E-15
 -1      1377-4.85188E+01-1.64058E+02-6.38418E+01 3.06348E+01-3.56809E-14-1.83010E-15
 -1      1378-4.20678E+01-1.40406E+02-5.47909E+01 2.23444E+01-7.08053E-15-3.72888E-16
 -1      1379-3.62016E+01-1.20583E+02-4.70706E+01 1.66148E+01-2.85228E-13 1.12777E-15
 -1      1380-3.04776E+01-1.03831E+02-4.03184E+01 1.25773E+01 1.51214E-13 1.37953E-16
 -1      1381-2.46446E+01-8.95234E+01-3.42695E+01 9.68209E+00-2.77456E-13-1.07783E-15
 -1      1382-1.85400E+01-7.71573E+01-2.87235E+01 7.57352E+00-1.65121E-13-2.47021E-16
 -1      1383-1.20377E+01-6.63339E+01-2.35223E+01 6.01569E+00 2.38598E-13-4.64861E-17
 -1      1384-5.01748E+00-5.67385E+01-1.85352E+01 4.84837E+00-7.29808E-14 3.79570E-16
 -1      1385 2.65719E+00-4.81245E+01-1.36469E+01 3.95986E+00-1.26866E-13-7.35245E-16
 -1      1386 1.11621E+01-4.03038E+01-8.74843E+00 3.26969E+00 5.93095E-14-5.43534E-16
 -1      1387 2.07418E+01-3.31435E+01-3.72634E+00 2.71703E+00-4.69497E-13 1.96935E-15
 -1      1388 3.17553E+01-2.65712E+01 1.54853E+00 2.25193E+00-7.27362E-14 2.49223E-16
 -1      1389 4.47533E+01-2.05956E+01 7.23850E+00 1.82700E+00-3.57957E-13 8.23979E-17
 -1      1390 6.06220E+01-1.53547E+01 1.35673E+01 1.38611E+00-3.07315E-13-1.11323E-15
 -1      1391 8.08744E+01-1.12337E+01 2.08719E+01 8.42835E-01 5.26165E-13-5.38701E-15
 -1      1392-4.46145E+02-8.02840E+02-3.77873E+02 4.75410E+02-2.16820E-13 1.04462E-15
 -1      1393-1.90869E+02-6.46886E+02-2.52798E+02 2.55992E+02-1.28285E-13 2.16059E-15
 -1      1394-1.06830E+02-4.96433E+02-1.81714E+02 1.38949E+02-2.83838E-13-1.44727E-15
 -1      1395-7.53106E+01-3.86416E+02-1.38926E+02 8.07874E+01-4.03818E-13 2.64504E-15
 -1      1396-6.21181E+01-3.07495E+02-1.11128E+02 4.98423E+01 3.29417E-13 2.51239E-15
 -1      1397-5.46001E+01-2.49624E+02-9.14224E+01 3.23467E+01 5.12054E-13-5.03528E-17
 -1      1398-4.90831E+01-2.05970E+02-7.66188E+01 2.18801E+01 2.86024E-13 1.06084E-15
 -1      1399-4.42073E+01-1.72184E+02-6.49877E+01 1.53075E+01-1.29751E-13-1.34032E-15
 -1      1400-3.94495E+01-1.45411E+02-5.55079E+01 1.10118E+01-4.44608E-13 2.35385E-16
 -1      1401-3.45676E+01-1.23745E+02-4.75295E+01 8.11122E+00-1.49093E-13 5.99002E-17
 -1      1402-2.94343E+01-1.05872E+02-4.06178E+01 6.09967E+00 6.28711E-14-1.97187E-16
 -1      1403-2.39653E+01-9.08635E+01-3.44679E+01 4.67344E+00-5.86143E-13-1.91204E-16
 -1      1404-1.80902E+01-7.80501E+01-2.88564E+01 3.64312E+00 2.88766E-13 2.07505E-17
 -1      1405-1.17351E+01-6.69352E+01-2.36119E+01 2.88644E+00-4.63388E-13-2.69966E-16
 -1      1406-4.81069E+00-5.71463E+01-1.85955E+01 2.32199E+00-1.35334E-13 2.90467E-16
 -1      1407 2.80113E+00-4.84018E+01-1.36870E+01 1.89383E+00 4.16747E-13 2.06474E-16
 -1      1408 1.12649E+01-4.04915E+01-8.77389E+00 1.56214E+00 4.16193E-13-2.35754E-16
 -1      1409 2.08181E+01-3.32684E+01-3.74093E+00 1.29712E+00-3.41980E-13-1.55800E-16
 -1      1410 3.18157E+01-2.66513E+01 1.54263E+00 1.07451E+00-4.39142E-13 1.28575E-15
 -1      1411 4.48065E+01-2.06430E+01 7.24023E+00 8.71442E-01-4.19519E-13-5.87899E-17
 -1      1412 6.06765E+01-1.53779E+01 1.35767E+01 6.61008E-01 5.18775E-13-5.65889E-16
 -1      1413 8.09419E+01-1.12395E+01 2.08904E+01 4.01894E-01 5.84273E-13-8.10097E-16
 -1      1414-1.59710E+03-1.66441E+03-9.86717E+02-7.18071E+00-4.75928E-13-5.58603E-16
 -1      1415-9.36925E+02-1.43372E+03-7.16292E+02-1.34988E+02 1.93385E-14 5.81272E-15
 -1      1416-6.77624E+02-1.52576E+03-6.66426E+02-1.10670E+02 2.14952E-13-4.55215E-17
 -1      1417-1.05573E+03-1.58783E+03-7.99150E+02-2.56278E+00-6.56578E-13-9.79388E-16
 -1      1418-3.81528E+02-1.23686E+03-4.89527E+02-2.43614E+02-2.56048E-13 1.84824E-15
 -1      1419-2.61769E+02-1.23511E+03-4.52850E+02-1.21596E+02 2.00164E-14-5.12428E-16
 -1      1420-3.94929E+02-1.37963E+03-5.36803E+02-4.58292E+00-1.54399E-13 2.88010E-16
 -1      1421-1.56247E+02-1.00969E+03-3.52645E+02-2.07567E+02-1.54079E-14 3.09106E-15
 -1      1422-9.46277E+01-9.67686E+02-3.21164E+02-9.06971E+01 1.85722E-13 9.96436E-16
 -1      1423-1.28892E+02-1.10654E+03-3.73739E+02-1.12081E+00-1.20321E-13 1.37933E-16
 -1      1424-5.89688E+01-8.15105E+02-2.64123E+02-1.45250E+02 7.86830E-14 5.01699E-15
 -1      1425-2.82950E+01-7.62708E+02-2.38889E+02-6.05499E+01-2.23730E-13 3.40505E-15
 -1      1426-3.78263E+01-8.70799E+02-2.74613E+02-5.22884E-02 1.63302E-13-8.24416E-16
 -1      1427-1.58185E+01-6.61015E+02-2.04305E+02-9.64896E+01-2.73012E-13-4.12006E-15
 -1      1428-2.21773E-01-6.11175E+02-1.84461E+02-3.98023E+01-1.70761E-13-1.80734E-15
 -1      1429-3.20629E+00-6.91145E+02-2.09619E+02 5.69377E-02-2.84852E-13 1.18307E-15
 -1      1430 4.08161E+00-5.41493E+02-1.62068E+02-6.40716E+01-7.65710E-14 3.37546E-15
 -1      1431 1.24366E+01-4.98651E+02-1.46569E+02-2.64639E+01 1.08409E-13 8.09805E-16
 -1      1432 1.10812E+01-5.57701E+02-1.64857E+02 1.21296E-01 1.34112E-13 9.20701E-16
 -1      1433 1.37786E+01-4.48936E+02-1.31131E+02-4.31201E+01 4.33468E-14 2.12039E-15
 -1      1434 1.85499E+01-4.13413E+02-1.18950E+02-1.79121E+01 8.46384E-14-5.44349E-16
 -1      1435 1.76697E+01-4.57850E+02-1.32650E+02 9.88707E-02-3.72677E-14-6.12659E-16
 -1      1436 1.87722E+01-3.76631E+02-1.07772E+02-2.95094E+01 1.63483E-14-5.48916E-15
 -1      1437 2.16715E+01-3.47498E+02-9.80996E+01-1.23364E+01 5.54493E-14-2.02290E-16
 -1      1438 2.09679E+01-3.81658E+02-1.08627E+02 7.61373E-02-5.26852E-14-3.02608E-16
 -1      1439 2.14785E+01-3.19428E+02-8.96854E+01-2.05066E+01 1.44086E-13-1.51373E-15
 -1      1440 2.33416E+01-2.95531E+02-8.19146E+01-8.62185E+00-3.31805E-14-1.00133E-15
 -1      1441 2.27411E+01-3.22330E+02-9.01803E+01 5.52073E-02-9.25722E-14 3.48018E-16
 -1      1442 2.30114E+01-2.73560E+02-7.53877E+01-1.44305E+01 3.99299E-14-6.85692E-16
 -1      1443 2.42685E+01-2.53870E+02-6.90733E+01-6.09444E+00 3.43670E-15-3.19041E-16
 -1      1444 2.37494E+01-2.75269E+02-7.56805E+01 3.99488E-02 1.48406E-14 5.98917E-16
 -1      1445 2.39130E+01-2.36319E+02-6.38904E+01-1.02496E+01-9.69655E-14 4.41839E-15
 -1      1446 2.47975E+01-2.19995E+02-5.87066E+01-4.34185E+00-6.96663E-14-1.17384E-16
 -1      1447 2.43498E+01-2.37340E+02-6.40667E+01 2.89866E-02-9.73853E-14-6.13272E-17
 -1      1448 2.44605E+01-2.05747E+02-5.45157E+01-7.32305E+00-1.15019E-13 1.19313E-15
 -1      1449 2.51057E+01-1.92132E+02-5.02221E+01-3.10656E+00 4.91798E-14-3.56602E-16
 -1      1450 2.47212E+01-2.06364E+02-5.46231E+01 2.12676E-02 1.60303E-13 1.20436E-16
 -1      1451 2.48023E+01-1.80418E+02-4.67863E+01-5.24426E+00 9.83634E-14-4.23046E-16
 -1      1452 2.52875E+01-1.69002E+02-4.32044E+01-2.22394E+00 1.26896E-14 5.33734E-16
 -1      1453 2.49584E+01-1.80794E+02-4.68523E+01 1.58097E-02-1.29062E-14 3.15567E-16
 -1      1454 2.50207E+01-1.59282E+02-4.03589E+01-3.74963E+00 2.87568E-14 9.51110E-16
 -1      1455 2.53952E+01-1.49670E+02-3.73544E+01-1.58627E+00 3.12831E-14-2.65377E-16
 -1      1456 2.51140E+01-1.59511E+02-4.03997E+01 1.19286E-02 9.31840E-15-2.50890E-16
 -1      1457 2.51632E+01-1.41554E+02-3.49823E+01-2.66458E+00 3.95579E-14 3.45973E-16
 -1      1458 2.54587E+01-1.33442E+02-3.24536E+01-1.12164E+00-1.10632E-13-1.82438E-16
 -1      1459 2.52185E+01-1.41693E+02-3.50075E+01 9.14545E-03-7.04012E-15 1.58992E-16
 -1      1460 2.52578E+01-1.26648E+02-3.04701E+01-1.87123E+00 9.12123E-15 1.53753E-16
 -1      1461 2.54955E+01-1.19801E+02-2.83399E+01-7.81089E-01 3.64612E-14-8.69091E-17
 -1      1462 2.52902E+01-1.26731E+02-3.04855E+01 7.13511E-03-6.90267E-14-1.92076E-16
 -1      1463 2.53217E+01-1.14120E+02-2.66836E+01-1.28859E+00 5.14698E-14 4.50686E-16
 -1      1464 2.55158E+01-1.08360E+02-2.48937E+01-5.30765E-01-4.09330E-14-1.69721E-17
 -1      1465 2.53402E+01-1.14170E+02-2.66930E+01 5.67567E-03-1.50200E-14 8.06747E-17
 -1      1466 2.53655E+01-1.03642E+02-2.35204E+01-8.60314E-01-3.92388E-14 2.98748E-16
 -1      1467 2.55261E+01-9.88363E+01-2.20275E+01-3.46992E-01-7.28726E-15 2.41257E-16
 -1      1468 2.53757E+01-1.03671E+02-2.35259E+01 4.62235E-03-1.02113E-13-5.40157E-17
 -1      1469 2.53959E+01-9.49791E+01-2.09070E+01-5.46780E-01 1.98514E-14 5.22500E-17
 -1      1470 2.55296E+01-9.10338E+01-1.96811E+01-2.13122E-01-2.30286E-14-5.16690E-17
 -1      1471 2.54013E+01-9.49950E+01-2.09102E+01 3.86247E-03 3.64975E-14-1.94014E-16
 -1      1472 2.54177E+01-8.79763E+01-1.87958E+01-3.20176E-01 5.24826E-14 2.50637E-16
 -1      1473 2.55274E+01-8.48381E+01-1.78197E+01-1.17553E-01 4.69823E-15-2.61516E-16
 -1      1474 2.54203E+01-8.79845E+01-1.87974E+01 3.39614E-03-3.22389E-14 6.54021E-18
 -1      1475 2.54347E+01-8.25619E+01-1.71635E+01-1.61387E-01-2.60524E-15 1.87462E-16
 -1      1476 2.55125E+01-8.02265E+01-1.64384E+01-5.25741E-02 1.06516E-14-9.99540E-17
 -1      1477 2.54358E+01-8.25657E+01-1.71643E+01 2.97943E-03 6.97396E-15 4.35066E-17
 -1      1478 2.54552E+01-7.87535E+01-1.60129E+01-5.82656E-02 5.02373E-15 2.00474E-17
 -1      1479 2.54653E+01-7.72179E+01-1.55484E+01-1.43331E-02-1.84236E-14 1.12802E-17
 -1      1480 2.54555E+01-7.87549E+01-1.60132E+01 3.60627E-03-2.67662E-14 2.24749E-18
 -1      1481 2.54925E+01-7.67236E+01-1.53918E+01-5.99683E-03 1.23003E-14 2.98941E-17
 -1      1482 2.54926E+01-7.67238E+01-1.53918E+01 1.34592E-03 3.32023E-14-2.57634E-17
 -1      1483-1.28449E+03-1.33568E+03-7.91337E+02-3.33532E+01 4.79813E-13 2.54151E-15
 -1      1484-6.60519E+02-8.34172E+02-4.51051E+02-3.49140E+02-2.24885E-13 2.19744E-14
 -1      1485-5.88593E+02-1.16591E+03-5.30483E+02-3.51716E+02 1.50184E-13-2.38989E-15
 -1      1486-4.07350E+02-7.57555E+02-3.52164E+02-4.20143E+02-4.05201E-13-4.11083E-16
 -1      1487-2.91477E+02-9.71505E+02-3.81940E+02-3.29162E+02-1.07346E-13 5.32894E-15
 -1      1488-2.35506E+02-7.20965E+02-2.89057E+02-3.42871E+02 8.16226E-14-8.84395E-15
 -1      1489-1.39732E+02-8.16774E+02-2.89058E+02-2.44973E+02 2.20450E-14 5.78822E-15
 -1      1490-1.18315E+02-6.52060E+02-2.32643E+02-2.51846E+02 5.60643E-14 5.40448E-15
 -1      1491-6.02868E+01-6.82041E+02-2.24122E+02-1.69241E+02-4.26380E-14 5.25262E-15
 -1      1492-5.28545E+01-5.70527E+02-1.88095E+02-1.77014E+02 3.03949E-14-1.94301E-15
 -1      1493-1.97094E+01-5.68255E+02-1.77358E+02-1.14792E+02-6.82229E-14 1.74705E-15
 -1      1494-1.75212E+01-4.91156E+02-1.53366E+02-1.22591E+02 2.77712E-13-1.11035E-15
 -1      1495 1.11402E+00-4.75218E+02-1.42902E+02-7.80697E+01-5.74220E-14-8.10083E-15
 -1      1496 1.33464E+00-4.20523E+02-1.26301E+02-8.49556E+01 1.69817E-13-3.01623E-15
 -1      1497 1.20040E+01-4.00283E+02-1.16958E+02-5.36645E+01-3.18921E-13 2.08470E-15
 -1      1498 1.15741E+01-3.60304E+02-1.05013E+02-5.92989E+01 9.59972E-14 2.76083E-15
 -1      1499 1.78589E+01-3.39955E+02-9.69720E+01-3.73476E+01 3.39292E-14-1.22728E-16
 -1      1500 1.72693E+01-3.09874E+02-8.80720E+01-4.17623E+01 1.10482E-13-5.38456E-16
 -1      1501 2.10962E+01-2.91107E+02-8.12569E+01-2.62879E+01 7.12909E-14 4.70514E-15
 -1      1502 2.05226E+01-2.67882E+02-7.44256E+01-2.96572E+01-3.05657E-14-1.29867E-15
 -1      1503 2.29324E+01-2.51233E+02-6.86809E+01-1.86727E+01 8.55221E-14 1.51804E-15
 -1      1504 2.24281E+01-2.32902E+02-6.33080E+01-2.11976E+01 2.66412E-13-5.66095E-15
 -1      1505 2.39963E+01-2.18406E+02-5.84687E+01-1.33481E+01 6.68634E-14-5.32726E-17
 -1      1506 2.35695E+01-2.03673E+02-5.41591E+01-1.52118E+01-7.87479E-14 7.35134E-17
 -1      1507 2.46231E+01-1.91167E+02-5.00765E+01-9.57329E+00-1.70761E-13-2.28217E-17
 -1      1508 2.42667E+01-1.79153E+02-4.65664E+01-1.09275E+01 6.01360E-14-3.24767E-17
 -1      1509 2.49967E+01-1.68414E+02-4.31147E+01-6.86497E+00 6.38730E-14-1.88194E-16
 -1      1510 2.46997E+01-1.58509E+02-4.02229E+01-7.83048E+00-3.05268E-14 1.92497E-16
 -1      1511 2.52208E+01-1.49312E+02-3.72993E+01-4.90253E+00-7.00824E-15-3.92656E-16
 -1      1512 2.49723E+01-1.41084E+02-3.48983E+01-5.57340E+00-2.79726E-14 2.41124E-15
 -1      1513 2.53550E+01-1.33227E+02-3.24198E+01-3.46957E+00 2.08387E-14-1.35604E-15
 -1      1514 2.51459E+01-1.26365E+02-3.04186E+01-3.91847E+00-1.25350E-13-2.24432E-15
 -1      1515 2.54348E+01-1.19673E+02-2.83196E+01-2.41765E+00-5.38552E-14-1.08229E-15
 -1      1516 2.52575E+01-1.13952E+02-2.66524E+01-2.70067E+00 2.65531E-14 2.24127E-16
 -1      1517 2.54812E+01-1.08286E+02-2.48817E+01-1.64358E+00-3.37341E-15-9.59102E-16
 -1      1518 2.53299E+01-1.03545E+02-2.35019E+01-1.80418E+00 8.51683E-15-1.18607E-15
 -1      1519 2.55069E+01-9.87946E+01-2.20207E+01-1.07485E+00 3.97589E-14-1.31823E-15
 -1      1520 2.53771E+01-9.49253E+01-2.08965E+01-1.14719E+00-2.37766E-15 2.85608E-16
 -1      1521 2.55196E+01-9.10118E+01-1.96775E+01-6.60324E-01-8.91069E-15 8.55394E-16
 -1      1522 2.54085E+01-8.79483E+01-1.87901E+01-6.72018E-01 1.35218E-14-9.74694E-16
 -1      1523 2.55226E+01-8.48278E+01-1.78181E+01-3.64278E-01-1.70981E-14-4.32840E-16
 -1      1524 2.54309E+01-8.25490E+01-1.71607E+01-3.38871E-01 1.41198E-14 2.08130E-17
 -1      1525 2.55106E+01-8.02227E+01-1.64378E+01-1.62933E-01 7.78653E-15 2.82182E-17
 -1      1526 2.54540E+01-7.87489E+01-1.60119E+01-1.22489E-01-2.03099E-14 2.00657E-16
 -1      1527 2.54650E+01-7.72176E+01-1.55484E+01-4.44136E-02 1.34686E-14 1.22473E-16
 -1      1528 2.54922E+01-7.67227E+01-1.53916E+01-1.26696E-02 6.78328E-14 7.76058E-17
 -1      1529-1.35580E+02-6.35321E+01-5.97264E+01-6.71872E+01-3.79861E-13-8.60233E-15
 -1      1530-3.05705E+02-7.18958E+01-1.13627E+02-8.16243E+01 1.07050E-13 7.67480E-15
 -1      1531-4.27373E+02-3.03854E+02-2.20818E+02-3.51514E+02-3.76902E-15 8.65709E-16
 -1      1532-4.11643E+02-2.37435E+02-1.95750E+02-2.81344E+02 2.68759E-13-4.65392E-15
 -1      1533-3.35141E+02-5.08680E+02-2.54853E+02-3.70419E+02 9.08122E-14-6.17393E-15
 -1      1534-2.98423E+02-3.82268E+02-2.05376E+02-3.16504E+02-1.12945E-13 1.33223E-14
 -1      1535-2.05777E+02-5.55072E+02-2.29708E+02-3.09266E+02 1.99526E-13-1.30742E-14
 -1      1536-1.83848E+02-4.37476E+02-1.87429E+02-2.76464E+02-2.29582E-13 2.24499E-15
 -1      1537-1.12231E+02-5.33350E+02-1.94789E+02-2.35244E+02-2.75332E-13 6.88482E-15
 -1      1538-1.01580E+02-4.39074E+02-1.63022E+02-2.17581E+02 3.02171E-13 7.28260E-15
 -1      1539-5.43451E+01-4.83835E+02-1.62275E+02-1.71108E+02 2.41004E-14 9.43048E-15
 -1      1540-4.97238E+01-4.12074E+02-1.39173E+02-1.62773E+02 2.22831E-13 6.45741E-15
 -1      1541-2.05021E+01-4.27002E+02-1.34851E+02-1.22184E+02-4.02493E-14 7.87757E-15
 -1      1542-1.88076E+01-3.73264E+02-1.18100E+02-1.18914E+02 7.75793E-14-2.28604E-16
 -1      1543-1.14087E+00-3.72392E+02-1.12499E+02-8.68364E+01-7.23908E-14 1.86636E-15
 -1      1544-7.48818E-01-3.32012E+02-1.00188E+02-8.60425E+01-6.01648E-14-1.19277E-15
 -1      1545 9.92740E+00-3.23580E+02-9.44210E+01-6.18235E+01 1.69403E-13-4.46818E-15
 -1      1546 9.78638E+00-2.92837E+02-8.51876E+01-6.21081E+01 1.60894E-13 4.15683E-15
 -1      1547 1.63090E+01-2.81360E+02-7.97591E+01-4.42002E+01 5.48126E-14-3.19214E-15
 -1      1548 1.59824E+01-2.57549E+02-7.26778E+01-4.48616E+01-8.07635E-14-2.85199E-15
 -1      1549 2.00345E+01-2.45362E+02-6.77839E+01-3.17371E+01-1.26041E-13 2.48009E-15
 -1      1550 1.96705E+01-2.26593E+02-6.22373E+01-3.24471E+01-1.45040E-13 1.91043E-15
 -1      1551 2.22374E+01-2.14839E+02-5.79237E+01-2.28595E+01-9.96471E-15-2.56939E-15
 -1      1552 2.18940E+01-1.99803E+02-5.34979E+01-2.34794E+01-2.36143E-13 3.02689E-15
 -1      1553 2.35546E+01-1.88989E+02-4.97422E+01-1.64827E+01 7.87063E-14-1.35774E-15
 -1      1554 2.32506E+01-1.76774E+02-4.61561E+01-1.69667E+01-3.22597E-14-1.11832E-15
 -1      1555 2.43490E+01-1.67083E+02-4.29088E+01-1.18648E+01 3.83877E-14 2.51688E-16
 -1      1556 2.40867E+01-1.57049E+02-3.99679E+01-1.22096E+01 8.85303E-14 2.73541E-15
 -1      1557 2.48303E+01-1.48501E+02-3.71725E+01-8.49628E+00 6.56423E-14 1.01567E-15
 -1      1558 2.46060E+01-1.40193E+02-3.47402E+01-8.71675E+00-2.50858E-14-7.52114E-16
 -1      1559 2.51222E+01-1.32736E+02-3.23422E+01-6.02476E+00-2.70137E-14-1.63651E-15
 -1      1560 2.49304E+01-1.25826E+02-3.03212E+01-6.14195E+00 4.72730E-14-2.53767E-15
 -1      1561 2.52982E+01-1.19381E+02-2.82727E+01-4.20413E+00 6.78247E-15-2.85472E-16
 -1      1562 2.51337E+01-1.13632E+02-2.65933E+01-4.23986E+00 1.85270E-14 9.89719E-16
 -1      1563 2.54030E+01-1.08116E+02-2.48541E+01-2.86102E+00-1.97583E-14-9.63505E-16
 -1      1564 2.52611E+01-1.03360E+02-2.34668E+01-2.83570E+00 5.91610E-14 1.09252E-15
 -1      1565 2.54637E+01-9.86994E+01-2.20050E+01-1.87241E+00 5.33342E-14 2.80785E-16
 -1      1566 2.53408E+01-9.48223E+01-2.08764E+01-1.80459E+00-3.37214E-14-2.03288E-15
 -1      1567 2.54969E+01-9.09617E+01-1.96693E+01-1.15090E+00-1.86665E-14-2.12929E-16
 -1      1568 2.53909E+01-8.78948E+01-1.87793E+01-1.05776E+00 4.41755E-14-4.09831E-17
 -1      1569 2.55117E+01-8.48042E+01-1.78143E+01-6.35137E-01-7.24526E-14 8.84853E-16
 -1      1570 2.54235E+01-8.25243E+01-1.71555E+01-5.33635E-01-1.34102E-14 7.04473E-16
 -1      1571 2.55062E+01-8.02141E+01-1.64365E+01-2.84144E-01-5.53715E-15-4.92036E-16
 -1      1572 2.54518E+01-7.87401E+01-1.60099E+01-1.93014E-01 1.38564E-14-1.80423E-16
 -1      1573 2.54643E+01-7.72168E+01-1.55484E+01-7.74304E-02 1.50895E-14 1.23128E-16
 -1      1574 2.54915E+01-7.67209E+01-1.53912E+01-2.00311E-02 4.25105E-14 9.92865E-17
 -1      1575 1.99041E+01 4.62505E+01 1.98531E+01 2.29853E+01 1.48170E-13-1.07272E-14
 -1      1576-1.13653E+02-5.38805E+00-3.57510E+01-1.82190E+01 4.85021E-15-1.44149E-14
 -1      1577-2.74811E+02-3.17248E+01-9.22701E+01-1.19923E+02 7.72046E-14 3.65887E-15
 -1      1578-2.60716E+02-6.69272E+01-9.85703E+01-1.20990E+02-2.10533E-13-1.18804E-15
 -1      1579-3.08511E+02-1.85006E+02-1.48739E+02-2.41698E+02-3.96952E-14-1.02522E-15
 -1      1580-2.72996E+02-1.67877E+02-1.32770E+02-2.05364E+02-6.05562E-14 1.85050E-16
 -1      1581-2.38132E+02-3.01894E+02-1.62810E+02-2.67965E+02-2.16377E-13-3.91930E-15
 -1      1582-2.10864E+02-2.54054E+02-1.40065E+02-2.29949E+02-2.71023E-14 1.10834E-14
 -1      1583-1.56620E+02-3.61338E+02-1.56137E+02-2.40670E+02 1.62257E-13 2.28558E-15
 -1      1584-1.39601E+02-3.03491E+02-1.33488E+02-2.12246E+02-1.57965E-13-1.11484E-14
 -1      1585-9.19502E+01-3.73729E+02-1.40331E+02-1.95431E+02-3.88361E-14-9.85406E-15
 -1      1586-8.24568E+01-3.19335E+02-1.21020E+02-1.76893E+02-1.28876E-13-1.18927E-14
 -1      1587-4.76271E+01-3.58617E+02-1.22371E+02-1.50512E+02 4.85989E-14 6.77351E-15
 -1      1588-4.26852E+01-3.12575E+02-1.06972E+02-1.39283E+02-6.29327E-14 3.12555E-16
 -1      1589-1.92838E+01-3.30451E+02-1.05306E+02-1.12713E+02-8.85799E-14-5.72828E-15
 -1      1590-1.68615E+01-2.93253E+02-9.33480E+01-1.06201E+02 5.01203E-15 7.91819E-15
 -1      1591-1.75417E+00-2.97940E+02-9.02048E+01-8.32168E+01-6.16661E-14 6.48925E-15
 -1      1592-6.59113E-01-2.68396E+02-8.09631E+01-7.95289E+01-1.20144E-13-2.04187E-15
 -1      1593 8.93454E+00-2.65658E+02-7.72455E+01-6.10238E+01 1.51815E-13-4.16437E-15
 -1      1594 9.35603E+00-2.42228E+02-7.00552E+01-5.89510E+01 4.56132E-14-2.61095E-15
 -1      1595 1.54279E+01-2.35716E+02-6.62635E+01-4.46049E+01 1.06875E-13 1.03164E-15
 -1      1596 1.55197E+01-2.17017E+02-6.06014E+01-4.34260E+01 9.74921E-14 5.17767E-15
 -1      1597 1.93784E+01-2.08896E+02-5.69938E+01-3.25355E+01 1.48355E-13-5.86010E-15
 -1      1598 1.93167E+01-1.93828E+02-5.24740E+01-3.18367E+01 4.13244E-14-1.91054E-15
 -1      1599 2.17900E+01-1.85324E+02-4.91693E+01-2.36713E+01 9.76520E-14-1.82126E-15
 -1      1600 2.16634E+01-1.73057E+02-4.55143E+01-2.32219E+01 1.13535E-13-7.20944E-15
 -1      1601 2.32669E+01-1.64826E+02-4.25548E+01-1.71495E+01 3.60468E-14 2.06165E-15
 -1      1602 2.31185E+01-1.54747E+02-3.95660E+01-1.68238E+01 2.02552E-14 5.83562E-15
 -1      1603 2.41727E+01-1.47118E+02-3.69540E+01-1.23378E+01 3.92428E-14 1.52672E-15
 -1      1604 2.40230E+01-1.38778E+02-3.44896E+01-1.20696E+01 3.83096E-14-3.74364E-15
 -1      1605 2.47276E+01-1.31897E+02-3.22084E+01-8.77829E+00 5.62956E-15 8.68029E-16
 -1      1606 2.45854E+01-1.24966E+02-3.01664E+01-8.53444E+00 1.28021E-13 5.44952E-15
 -1      1607 2.50657E+01-1.18880E+02-2.81918E+01-6.14052E+00-7.50180E-14-6.64272E-16
 -1      1608 2.49345E+01-1.13119E+02-2.64990E+01-5.90651E+00 2.69212E-15-4.43980E-16
 -1      1609 2.52694E+01-1.07824E+02-2.48063E+01-4.18616E+00-9.14564E-15 2.84491E-16
 -1      1610 2.51500E+01-1.03063E+02-2.34107E+01-3.95770E+00-2.28566E-14 2.08656E-15
 -1      1611 2.53897E+01-9.85355E+01-2.19780E+01-2.74313E+00 3.92017E-14 9.73029E-16
 -1      1612 2.52821E+01-9.46567E+01-2.08443E+01-2.52198E+00 2.00879E-14 2.44179E-17
 -1      1613 2.54581E+01-9.08753E+01-1.96549E+01-1.68762E+00-2.71288E-14-1.49829E-15
 -1      1614 2.53622E+01-8.78087E+01-1.87620E+01-1.47967E+00 1.93575E-14-2.62215E-16
 -1      1615 2.54930E+01-8.47636E+01-1.78077E+01-9.31909E-01-1.52617E-15 1.73249E-16
 -1      1616 2.54114E+01-8.24846E+01-1.71472E+01-7.47002E-01-1.11695E-14-7.08497E-16
 -1      1617 2.54986E+01-8.01993E+01-1.64343E+01-4.17065E-01-3.01710E-14-1.33827E-15
 -1      1618 2.54481E+01-7.87260E+01-1.60068E+01-2.70369E-01 9.79437E-15-5.76123E-16
 -1      1619 2.54630E+01-7.72155E+01-1.55484E+01-1.13593E-01 3.48193E-15 7.01497E-16
 -1      1620 2.54905E+01-7.67181E+01-1.53907E+01-2.81681E-02 1.92777E-15 3.03716E-16
 -1      1621-3.07956E+00-3.44561E+00-1.95749E+00 1.11545E+00-1.96014E-13 6.18635E-14
 -1      1622-5.75693E+01-8.83449E-01-1.75454E+01-8.09633E+00-1.82990E-13-1.18664E-14
 -1      1623-1.51615E+02-5.66996E+00-4.72608E+01-4.31714E+01 2.12733E-13-2.18223E-14
 -1      1624-1.57573E+02-2.19759E+01-5.39518E+01-5.70837E+01-2.52753E-14-7.77911E-15
 -1      1625-2.25190E+02-5.87167E+01-8.54169E+01-1.27237E+02 2.47426E-14 4.76277E-15
 -1      1626-2.03310E+02-7.24312E+01-8.29298E+01-1.20362E+02 1.71979E-13-1.02459E-15
 -1      1627-2.19091E+02-1.44674E+02-1.09515E+02-1.85665E+02 3.22710E-14-1.56910E-15
 -1      1628-1.93621E+02-1.37098E+02-9.95198E+01-1.64255E+02-4.11392E-14-2.79093E-15
 -1      1629-1.72506E+02-2.18211E+02-1.17659E+02-2.01878E+02 2.48994E-14 1.80987E-14
 -1      1630-1.52493E+02-1.93760E+02-1.04221E+02-1.77638E+02 3.64137E-13 3.29607E-15
 -1      1631-1.18594E+02-2.63381E+02-1.15024E+02-1.87523E+02 1.41656E-13 6.14742E-15
 -1      1632-1.05160E+02-2.30757E+02-1.01114E+02-1.67037E+02-2.29918E-13-2.80909E-15
 -1      1633-7.28339E+01-2.80884E+02-1.06497E+02-1.58993E+02 7.94173E-14-9.85718E-17
 -1      1634-6.44941E+01-2.47267E+02-9.38322E+01-1.43876E+02 1.35197E-13 1.93183E-15
 -1      1635-3.90095E+01-2.78422E+02-9.55485E+01-1.27579E+02-6.98607E-14-1.00016E-14
 -1      1636-3.40796E+01-2.47761E+02-8.48114E+01-1.17191E+02-1.24053E-13 2.52027E-14
 -1      1637-1.58201E+01-2.64112E+02-8.42386E+01-9.89819E+01 1.04587E-14-1.35115E-14
 -1      1638-1.30041E+01-2.37829E+02-7.54645E+01-9.20919E+01 1.34515E-13-1.45935E-14
 -1      1639-5.86243E-01-2.44020E+02-7.35892E+01-7.52148E+01 1.19808E-13-1.82160E-16
 -1      1640 9.73728E-01-2.22159E+02-6.65304E+01-7.06959E+01 8.09649E-14-7.87848E-15
 -1      1641 9.18329E+00-2.22004E+02-6.40112E+01-5.64013E+01-2.60234E-14-1.08350E-15
 -1      1642 1.00157E+01-2.04040E+02-5.83487E+01-5.34170E+01-1.50561E-13-4.07905E-15
 -1      1643 1.53663E+01-2.00259E+02-5.55993E+01-4.19039E+01-4.28473E-14 5.58335E-15
 -1      1644 1.57841E+01-1.85529E+02-5.10378E+01-3.98892E+01-4.47599E-14 3.98892E-15
 -1      1645 1.92513E+01-1.79911E+02-4.83030E+01-3.08951E+01-1.39886E-14 3.38183E-15
 -1      1646 1.94357E+01-1.67798E+02-4.46013E+01-2.94872E+01-1.07048E-13 1.26217E-14
 -1      1647 2.16818E+01-1.61453E+02-4.20163E+01-2.25995E+01-1.08337E-15-5.88846E-15
 -1      1648 2.17364E+01-1.51446E+02-3.89882E+01-2.15718E+01 3.98868E-14 6.61076E-15
 -1      1649 2.31967E+01-1.45035E+02-3.66204E+01-1.63727E+01 2.73877E-14-8.22830E-16
 -1      1650 2.31803E+01-1.36729E+02-3.41265E+01-1.55859E+01 5.50051E-16 1.09636E-15
 -1      1651 2.41363E+01-1.30625E+02-3.20033E+01-1.17084E+01-6.52216E-15 6.08942E-16
 -1      1652 2.40823E+01-1.23713E+02-2.99406E+01-1.10780E+01-8.51688E-16 1.58252E-15
 -1      1653 2.47148E+01-1.18116E+02-2.80676E+01-8.22053E+00-7.85879E-14-3.35687E-15
 -1      1654 2.46421E+01-1.12368E+02-2.63609E+01-7.69576E+00-3.41300E-14 2.63441E-15
 -1      1655 2.50668E+01-1.07377E+02-2.47329E+01-5.61922E+00 5.12948E-14-1.56924E-15
 -1      1656 2.49863E+01-1.02625E+02-2.33283E+01-5.17071E+00-1.08786E-14-3.99327E-15
 -1      1657 2.52771E+01-9.82844E+01-2.19363E+01-3.68933E+00-4.66867E-14-1.68912E-15
 -1      1658 2.51951E+01-9.44123E+01-2.07969E+01-3.30144E+00 2.75926E-14 1.00726E-15
 -1      1659 2.53988E+01-9.07428E+01-1.96329E+01-2.27286E+00 3.56150E-15-6.32685E-16
 -1      1660 2.53197E+01-8.76813E+01-1.87365E+01-1.93971E+00-2.36097E-14 2.84096E-15
 -1      1661 2.54645E+01-8.47012E+01-1.77975E+01-1.25627E+00 1.17956E-14 1.34491E-16
 -1      1662 2.53935E+01-8.24258E+01-1.71349E+01-9.80234E-01-2.63088E-14-7.57398E-16
 -1      1663 2.54870E+01-8.01764E+01-1.64310E+01-5.62538E-01-7.75759E-15-5.03804E-16
 -1      1664 2.54426E+01-7.87050E+01-1.60021E+01-3.55084E-01-1.69248E-14-1.07193E-15
 -1      1665 2.54610E+01-7.72135E+01-1.55484E+01-1.53094E-01-5.13675E-15 1.81295E-16
 -1      1666 2.54891E+01-7.67139E+01-1.53899E+01-3.71836E-02 9.20153E-16-4.64644E-17
 -1      1667 5.69148E-01 2.44565E+00 9.04501E-01 1.35305E+00-1.97356E-13 8.11801E-15
 -1      1668-3.48185E+01-5.24796E-01-1.06065E+01-4.85021E+00-2.04891E-13-1.56959E-14
 -1      1669-8.87946E+01-3.29222E+00-2.76505E+01-2.15028E+01-7.71448E-14-1.47574E-14
 -1      1670-1.00205E+02-9.59670E+00-3.29739E+01-3.15036E+01-1.29297E-13 1.08935E-14
 -1      1671-1.53055E+02-2.46894E+01-5.34168E+01-6.83411E+01-2.14077E-14 5.03820E-15
 -1      1672-1.44262E+02-3.43087E+01-5.36601E+01-7.15247E+01 1.18689E-13-5.69571E-15
 -1      1673-1.75311E+02-6.86883E+01-7.33779E+01-1.18050E+02-3.60888E-14 1.10201E-15
 -1      1674-1.57517E+02-7.36849E+01-6.95119E+01-1.10462E+02-3.62547E-14 9.07310E-16
 -1      1675-1.61289E+02-1.24073E+02-8.58522E+01-1.50356E+02-1.36124E-14-6.56427E-15
 -1      1676-1.43183E+02-1.18691E+02-7.87613E+01-1.35656E+02-2.75009E-15 8.73354E-15
 -1      1677-1.27665E+02-1.73269E+02-9.05542E+01-1.59318E+02 2.66269E-13 7.57050E-15
 -1      1678-1.13063E+02-1.58396E+02-8.16592E+01-1.42782E+02 1.04935E-13-7.21899E-15
 -1      1679-8.97522E+01-2.06660E+02-8.91953E+01-1.49865E+02-9.62797E-14-3.47165E-15
 -1      1680-7.92520E+01-1.86158E+02-7.98432E+01-1.35003E+02 2.13944E-13 1.02397E-14
 -1      1681-5.62227E+01-2.22776E+02-8.39480E+01-1.30255E+02 6.58535E-14-1.91932E-14
 -1      1682-4.91558E+01-2.00549E+02-7.51150E+01-1.18408E+02 6.42554E-14-1.49735E-14
 -1      1683-3.01164E+01-2.24829E+02-7.66989E+01-1.07349E+02-1.07604E-13 6.33613E-15
 -1      1684-2.55522E+01-2.03514E+02-6.88988E+01-9.85189E+01-5.40828E-14 2.68602E-15
 -1      1685-1.12845E+01-2.17345E+02-6.87699E+01-8.53369E+01 7.92866E-14-1.64276E-14
 -1      1686-8.41882E+00-1.98253E+02-6.21545E+01-7.89788E+01-1.08935E-13 5.05686E-15
 -1      1687 1.66097E+00-2.04349E+02-6.09560E+01-6.61667E+01 1.15320E-13 1.46082E-14
 -1      1688 3.42111E+00-1.87880E+02-5.54656E+01-6.16453E+01-8.78922E-14-8.37534E-15
 -1      1689 1.02883E+01-1.88781E+02-5.36700E+01-5.03860E+01 2.07811E-13 1.10675E-15
 -1      1690 1.13467E+01-1.74846E+02-4.91558E+01-4.71593E+01-1.09057E-13-1.29876E-14
 -1      1691 1.59217E+01-1.72549E+02-4.70881E+01-3.78283E+01 1.64687E-14-8.44069E-15
 -1      1692 1.65414E+01-1.60859E+02-4.33829E+01-3.54906E+01 6.93286E-14 7.78028E-16
 -1      1693 1.95484E+01-1.56789E+02-4.12538E+01-2.80420E+01-3.91117E-14-5.63899E-15
 -1      1694 1.98963E+01-1.47009E+02-3.82063E+01-2.63088E+01 2.37671E-14-7.68866E-15
 -1      1695 2.18579E+01-1.42117E+02-3.61447E+01-2.05152E+01 8.00794E-14-5.23624E-15
 -1      1696 2.20383E+01-1.33937E+02-3.36298E+01-1.91944E+01-1.30214E-14-3.79679E-15
 -1      1697 2.33138E+01-1.28827E+02-3.17096E+01-1.47764E+01 1.10856E-14-2.93131E-15
 -1      1698 2.33915E+01-1.21988E+02-2.96292E+01-1.37407E+01-8.58295E-15 2.94888E-15
 -1      1699 2.42216E+01-1.17030E+02-2.78891E+01-1.04291E+01-2.13723E-14 1.71376E-15
 -1      1700 2.42368E+01-1.11326E+02-2.61692E+01-9.59563E+00 8.44837E-14 4.06572E-15
 -1      1701 2.47799E+01-1.06739E+02-2.46271E+01-7.15624E+00 4.48063E-14 2.88478E-15
 -1      1702 2.47576E+01-1.02014E+02-2.32133E+01-6.47189E+00-2.70213E-14 6.29774E-15
 -1      1703 2.51167E+01-9.79242E+01-2.18761E+01-4.71149E+00 4.12812E-14-1.83791E-15
 -1      1704 2.50730E+01-9.40700E+01-2.07307E+01-4.14367E+00 1.18037E-14 1.29369E-15
 -1      1705 2.53141E+01-9.05520E+01-1.96010E+01-2.90830E+00-2.31654E-14 7.48417E-16
 -1      1706 2.52598E+01-8.75023E+01-1.87007E+01-2.43937E+00-6.25765E-15-1.63321E-15
 -1      1707 2.54235E+01-8.46112E+01-1.77827E+01-1.60966E+00 5.17794E-14 7.47882E-17
 -1      1708 2.53681E+01-8.23430E+01-1.71176E+01-1.23446E+00-3.04938E-14 8.95040E-16
 -1      1709 2.54704E+01-8.01434E+01-1.64260E+01-7.21349E-01 1.86653E-14 5.22338E-16
 -1      1710 2.54348E+01-7.86754E+01-1.59955E+01-4.47676E-01 2.48447E-14-2.12044E-15
 -1      1711 2.54582E+01-7.72105E+01-1.55484E+01-1.96092E-01-1.43075E-14-1.03029E-16
 -1      1712 2.54870E+01-7.67080E+01-1.53887E+01-4.72001E-02 2.77353E-14-3.35353E-16
 -1      1713 1.30286E-01-3.46756E-02 2.86771E-02 4.06808E-01-1.05087E-13-2.15116E-14
 -1      1714-2.25435E+01-3.13593E-01-6.85861E+00-3.28590E+00 3.06138E-14 1.59426E-14
 -1      1715-5.62706E+01-1.86433E+00-1.74502E+01-1.29276E+01 1.05382E-14 3.15517E-14
 -1      1716-6.64992E+01-5.03814E+00-2.14755E+01-1.93351E+01 1.15296E-13-1.21342E-14
 -1      1717-1.04212E+02-1.22268E+01-3.49715E+01-4.01870E+01 9.37682E-14-2.36376E-15
 -1      1718-1.01881E+02-1.80682E+01-3.60254E+01-4.47690E+01-1.51344E-14-2.88426E-15
 -1      1719-1.32207E+02-3.55602E+01-5.04143E+01-7.47691E+01-6.86754E-14 1.21903E-15
 -1      1720-1.21572E+02-4.12585E+01-4.89252E+01-7.38829E+01-5.51557E-14-3.66893E-15
 -1      1721-1.36559E+02-7.05511E+01-6.22629E+01-1.05965E+02-1.03452E-13-2.27639E-15
 -1      1722-1.22706E+02-7.23634E+01-5.86325E+01-9.90665E+01 3.98930E-14 7.63792E-15
 -1      1723-1.21598E+02-1.09994E+02-6.96428E+01-1.25165E+02 1.36797E-13 5.86793E-15
 -1      1724-1.08297E+02-1.05684E+02-6.43326E+01-1.14353E+02-7.60319E-14 9.67854E-15
 -1      1725-9.59527E+01-1.45140E+02-7.25101E+01-1.29832E+02-1.40771E-13 1.53113E-14
 -1      1726-8.49809E+01-1.35054E+02-6.61620E+01-1.17854E+02-1.98464E-13 5.98103E-15
 -1      1727-6.77866E+01-1.70305E+02-7.16100E+01-1.22540E+02-5.90658E-16-9.32479E-15
 -1      1728-5.95026E+01-1.56383E+02-6.49178E+01-1.11404E+02 2.24432E-13 1.25519E-14
 -1      1729-4.23315E+01-1.83934E+02-6.80504E+01-1.07962E+02 1.53695E-13-2.54370E-15
 -1      1730-3.64148E+01-1.68409E+02-6.15902E+01-9.86215E+01-4.00527E-14-1.75538E-14
 -1      1731-2.18210E+01-1.87417E+02-6.29235E+01-9.04545E+01 4.11807E-14-2.65542E-15
 -1      1732-1.77500E+01-1.72018E+02-5.70593E+01-8.30871E+01-1.45779E-13 7.70244E-15
 -1      1733-6.48697E+00-1.83398E+02-5.70966E+01-7.30384E+01 7.87909E-14-9.46752E-15
 -1      1734-3.76069E+00-1.69152E+02-5.19864E+01-6.74200E+01 5.29057E-14-1.39814E-15
 -1      1735 4.40667E+00-1.74577E+02-5.11620E+01-5.73633E+01-5.41725E-14 7.99162E-16
 -1      1736 6.19336E+00-1.61936E+02-4.68190E+01-5.31399E+01 8.58205E-14 2.84251E-15
 -1      1737 1.18739E+01-1.63152E+02-4.54763E+01-4.40811E+01 1.19326E-13 1.88808E-15
 -1      1738 1.30217E+01-1.52202E+02-4.18358E+01-4.09083E+01 6.59977E-14 5.40631E-15
 -1      1739 1.68614E+01-1.50696E+02-4.02278E+01-3.32519E+01 4.14216E-14-5.66895E-15
 -1      1740 1.75826E+01-1.41339E+02-3.71957E+01-3.08469E+01 3.40290E-14 6.00101E-16
 -1      1741 2.01272E+01-1.38239E+02-3.54982E+01-2.46446E+01-8.81415E-14-2.22024E-15
 -1      1742 2.05668E+01-1.30303E+02-3.29789E+01-2.27942E+01-1.06023E-13-3.10381E-15
 -1      1743 2.22299E+01-1.26407E+02-3.13073E+01-1.79224E+01-5.53725E-14-3.72192E-16
 -1      1744 2.24854E+01-1.19711E+02-2.92168E+01-1.64732E+01 1.76117E-13-1.85758E-15
 -1      1745 2.35624E+01-1.15555E+02-2.76434E+01-1.27398E+01-3.41849E-15-4.40718E-16
 -1      1746 2.36981E+01-1.09936E+02-2.59132E+01-1.15848E+01-4.70896E-14-1.23729E-16
 -1      1747 2.43923E+01-1.05866E+02-2.44810E+01-8.78749E+00-9.71427E-14-5.53570E-15
 -1      1748 2.44508E+01-1.01194E+02-2.30588E+01-7.85384E+00-1.77063E-14 6.55696E-16
 -1      1749 2.48983E+01-9.74288E+01-2.17928E+01-5.80743E+00 7.36514E-14 2.48184E-15
 -1      1750 2.49080E+01-9.36078E+01-2.06412E+01-5.04731E+00 6.25805E-15-4.61148E-15
 -1      1751 2.51980E+01-9.02888E+01-1.95567E+01-3.59451E+00-1.74900E-14-4.16169E-16
 -1      1752 2.51783E+01-8.72597E+01-1.86522E+01-2.97932E+00 2.79226E-14-1.24345E-15
 -1      1753 2.53672E+01-8.44865E+01-1.77621E+01-1.99315E+00-4.70320E-15-7.05137E-16
 -1      1754 2.53335E+01-8.22304E+01-1.70942E+01-1.51058E+00 3.35521E-14-1.33744E-15
 -1      1755 2.54475E+01-8.00976E+01-1.64191E+01-8.94172E-01 1.86971E-14-1.28887E-15
 -1      1756 2.54242E+01-7.86351E+01-1.59866E+01-5.48620E-01-9.36304E-15-5.95888E-16
 -1      1757 2.54542E+01-7.72062E+01-1.55483E+01-2.42693E-01 9.74104E-15-3.81238E-16
 -1      1758 2.54843E+01-7.67001E+01-1.53872E+01-5.83637E-02 2.08090E-14-6.29268E-17
 -1      1759 1.40306E-01 1.34762E-01 8.25133E-02 1.81282E-01-1.04787E-13 1.73743E-14
 -1      1760-1.52315E+01-2.52106E-01-4.64576E+00-2.43435E+00-9.09504E-14 1.47448E-15
 -1      1761-3.74323E+01-1.51503E+00-1.16885E+01-8.60622E+00-5.57636E-14 8.03715E-15
 -1      1762-4.58508E+01-3.17380E+00-1.47141E+01-1.29683E+01 3.35226E-14 6.17312E-15
 -1      1763-7.21499E+01-7.28184E+00-2.38478E+01-2.56596E+01-1.04882E-13 6.01166E-16
 -1      1764-7.27641E+01-1.06858E+01-2.50548E+01-2.96478E+01-5.43718E-14 4.62814E-15
 -1      1765-9.76757E+01-2.02816E+01-3.54285E+01-4.89544E+01 7.18520E-14-1.60008E-15
 -1      1766-9.18762E+01-2.45840E+01-3.49774E+01-5.03901E+01 4.43271E-14-1.28144E-16
 -1      1767-1.09523E+02-4.17306E+01-4.54456E+01-7.37662E+01-5.63859E-14 1.00798E-15
 -1      1768-9.98890E+01-4.50883E+01-4.35553E+01-7.13882E+01-6.91440E-14 2.09367E-15
 -1      1769-1.06919E+02-6.96320E+01-5.30618E+01-9.42527E+01 8.45023E-14-1.16527E-14
 -1      1770-9.61023E+01-7.00937E+01-4.99427E+01-8.82496E+01 4.22332E-14 3.03555E-15
 -1      1771-9.29151E+01-9.93758E+01-5.78044E+01-1.06122E+02-6.47905E-14-6.05968E-15
 -1      1772-8.27978E+01-9.58640E+01-5.36987E+01-9.77852E+01 6.89861E-14 1.40139E-14
 -1      1773-7.25669E+01-1.25799E+02-5.96377E+01-1.08177E+02 1.23204E-13 2.23894E-14
 -1      1774-6.40767E+01-1.18507E+02-5.48838E+01-9.90801E+01-6.99559E-14-4.37502E-15
 -1      1775-5.07481E+01-1.45297E+02-5.89425E+01-1.01975E+02 1.22556E-13-1.33451E-14
 -1      1776-4.41041E+01-1.35315E+02-5.39352E+01-9.33430E+01 9.83212E-14-2.50877E-16
 -1      1777-3.08210E+01-1.56592E+02-5.63464E+01-9.04277E+01-7.56453E-14 2.53285E-14
 -1      1778-2.58638E+01-1.45278E+02-5.14472E+01-8.29279E+01-9.62826E-14 7.82295E-16
 -1      1779-1.44130E+01-1.60309E+02-5.25279E+01-7.64599E+01 9.10271E-14 2.94671E-15
 -1      1780-1.08406E+01-1.48823E+02-4.79950E+01-7.02946E+01 1.96817E-13 1.88526E-14
 -1      1781-1.84509E+00-1.58087E+02-4.80777E+01-6.22831E+01-3.47153E-14-3.44793E-16
 -1      1782 6.59853E-01-1.47204E+02-4.40485E+01-5.73764E+01-1.57271E-13-7.14105E-16
 -1      1783 7.28937E+00-1.51800E+02-4.34380E+01-4.92405E+01-7.07160E-15 3.25037E-15
 -1      1784 9.00526E+00-1.41930E+02-3.99520E+01-4.53966E+01 3.35131E-14-7.70357E-15
 -1      1785 1.36734E+01-1.43111E+02-3.89037E+01-3.79620E+01-3.08356E-14-4.60712E-15
 -1      1786 1.48231E+01-1.34404E+02-3.59387E+01-3.49627E+01 4.71409E-14-7.12638E-15
 -1      1787 1.80019E+01-1.33302E+02-3.46515E+01-2.86048E+01 5.47078E-15 6.28476E-16
 -1      1788 1.87540E+01-1.25755E+02-3.21555E+01-2.62554E+01 2.28696E-14-1.38965E-14
 -1      1789 2.08645E+01-1.23274E+02-3.07750E+01-2.10629E+01-3.39310E-14-5.33509E-15
 -1      1790 2.13420E+01-1.16811E+02-2.86881E+01-1.92067E+01-2.05142E-14 1.67760E-14
 -1      1791 2.27160E+01-1.13620E+02-2.73157E+01-1.51120E+01 5.19176E-14-1.44386E-15
 -1      1792 2.30062E+01-1.08143E+02-2.55816E+01-1.36305E+01-8.42507E-15-6.08618E-15
 -1      1793 2.38875E+01-1.04710E+02-2.42850E+01-1.04957E+01 3.08282E-14 4.43802E-15
 -1      1794 2.40515E+01-1.00124E+02-2.28572E+01-9.30307E+00-2.07796E-14-6.22820E-15
 -1      1795 2.46109E+01-9.67684E+01-2.16805E+01-6.97128E+00-4.11940E-14-1.36991E-16
 -1      1796 2.46912E+01-9.30005E+01-2.05238E+01-6.00818E+00-2.81328E-14 2.76752E-15
 -1      1797 2.50441E+01-8.99360E+01-1.94968E+01-4.33048E+00 4.23524E-14 7.28094E-15
 -1      1798 2.50706E+01-8.69393E+01-1.85882E+01-3.55911E+00 3.21374E-15-1.33660E-15
 -1      1799 2.52921E+01-8.43188E+01-1.77342E+01-2.40721E+00-1.24098E-14-1.24022E-15
 -1      1800 2.52875E+01-8.20813E+01-1.70632E+01-1.80910E+00 2.10820E-14 1.48018E-15
 -1      1801 2.54168E+01-8.00357E+01-1.64097E+01-1.08149E+00-1.61552E-14 1.51681E-15
 -1      1802 2.54100E+01-7.85816E+01-1.59748E+01-6.58310E-01 1.21364E-14-4.44432E-16
 -1      1803 2.54488E+01-7.72003E+01-1.55481E+01-2.92924E-01 3.34828E-14-1.34957E-15
 -1      1804 2.54807E+01-7.66896E+01-1.53851E+01-7.08471E-02-4.14384E-16-4.54975E-16
 -1      1805 1.00549E-01-3.38677E-02 1.99991E-02 7.01054E-02-6.29437E-14-3.22416E-14
 -1      1806-1.06591E+01-2.32494E-01-3.26781E+00-1.90262E+00-1.87657E-13 1.47000E-14
 -1      1807-2.58465E+01-1.23165E+00-8.12549E+00-6.23065E+00 1.03486E-13 2.33135E-14
 -1      1808-3.24544E+01-2.26008E+00-1.04177E+01-9.27748E+00-2.91481E-14-1.22062E-14
 -1      1809-5.10329E+01-4.90782E+00-1.67912E+01-1.75550E+01 2.07015E-14 5.52330E-15
 -1      1810-5.26950E+01-7.00296E+00-1.79196E+01-2.06777E+01-6.32464E-14-5.04548E-15
 -1      1811-7.19705E+01-1.27633E+01-2.54413E+01-3.34285E+01-7.69926E-14-3.60293E-16
 -1      1812-6.90588E+01-1.57226E+01-2.54554E+01-3.54040E+01 8.15955E-14-1.88648E-15
 -1      1813-8.54263E+01-2.61404E+01-3.35077E+01-5.19299E+01-1.44962E-14 4.26505E-16
 -1      1814-7.90842E+01-2.92080E+01-3.25226E+01-5.17185E+01 6.54154E-14-1.97684E-15
 -1      1815-8.93859E+01-4.50541E+01-4.03881E+01-6.98426E+01-8.66186E-14-4.84329E-16
 -1      1816-8.11871E+01-4.70750E+01-3.85289E+01-6.70036E+01-3.45378E-14-9.46894E-15
 -1      1817-8.39687E+01-6.77468E+01-4.55879E+01-8.37170E+01-5.44122E-14 8.80130E-15
 -1      1818-7.53899E+01-6.76154E+01-4.29659E+01-7.85514E+01-1.41925E-13-9.99036E-15
 -1      1819-7.13273E+01-9.10932E+01-4.88125E+01-9.11508E+01 6.02053E-14-2.45010E-15
 -1      1820-6.34028E+01-8.82235E+01-4.55629E+01-8.44939E+01-7.92818E-14 1.43431E-14
 -1      1821-5.47019E+01-1.11736E+02-5.00250E+01-9.15437E+01 1.34548E-13 4.08614E-15
 -1      1822-4.79587E+01-1.06250E+02-4.63434E+01-8.43705E+01-1.29429E-14 6.45510E-15
 -1      1823-3.72498E+01-1.27232E+02-4.94392E+01-8.59514E+01-1.19805E-13-1.26564E-14
 -1      1824-3.18295E+01-1.19793E+02-4.55686E+01-7.90523E+01 1.39891E-13-9.23763E-15
 -1      1825-2.12558E+01-1.36578E+02-4.74413E+01-7.63393E+01 5.03719E-14-4.66548E-15
 -1      1826-1.70775E+01-1.28063E+02-4.36212E+01-7.01884E+01-9.92805E-14-1.60668E-14
 -1      1827-7.91794E+00-1.40068E+02-4.44799E+01-6.47784E+01-1.62035E-13-1.35331E-16
 -1      1828-4.80216E+00-1.31279E+02-4.08977E+01-5.95610E+01-5.23146E-14 2.42386E-14
 -1      1829 2.45591E+00-1.38783E+02-4.09735E+01-5.29324E+01 6.53794E-14-1.44316E-14
 -1      1830 4.71463E+00-1.30304E+02-3.77433E+01-4.86411E+01 1.14769E-13 1.75064E-14
 -1      1831 1.01062E+01-1.34082E+02-3.72591E+01-4.18878E+01 3.70952E-14 1.79671E-14
 -1      1832 1.17018E+01-1.26264E+02-3.44277E+01-3.84170E+01 3.84870E-15-1.08503E-14
 -1      1833 1.55166E+01-1.27253E+02-3.35787E+01-3.22104E+01-2.44774E-14 2.50517E-15
 -1      1834 1.66155E+01-1.20262E+02-3.11456E+01-2.94224E+01-9.23803E-14-4.40795E-15
 -1      1835 1.92142E+01-1.19350E+02-3.00906E+01-2.40900E+01-2.47377E-15 8.02056E-16
 -1      1836 1.99505E+01-1.13230E+02-2.80291E+01-2.18514E+01 1.54208E-13-1.44583E-14
 -1      1837 2.16675E+01-1.11156E+02-2.68898E+01-1.74888E+01-3.61643E-14-1.20134E-15
 -1      1838 2.21445E+01-1.05890E+02-2.51631E+01-1.56863E+01 1.54602E-14 3.70799E-15
 -1      1839 2.32505E+01-1.03220E+02-2.40282E+01-1.22541E+01-1.48451E-14-1.22872E-14
 -1      1840 2.35456E+01-9.87640E+01-2.26001E+01-1.07985E+01-2.65054E-14 6.28458E-17
 -1      1841 2.42431E+01-9.59092E+01-2.15325E+01-8.19238E+00-6.16722E-14 4.15496E-15
 -1      1842 2.44129E+01-9.22207E+01-2.03729E+01-7.01829E+00 4.91371E-14 4.05247E-15
 -1      1843 2.48452E+01-8.94737E+01-1.94175E+01-5.11299E+00 2.33223E-14-4.08919E-16
 -1      1844 2.49310E+01-8.65250E+01-1.85056E+01-4.17662E+00 3.61819E-15-8.25088E-15
 -1      1845 2.51942E+01-8.40978E+01-1.76972E+01-2.85143E+00-4.47539E-14 1.81094E-15
 -1      1846 2.52275E+01-8.18876E+01-1.70230E+01-2.12996E+00-5.93357E-14-4.78266E-17
 -1      1847 2.53765E+01-7.99537E+01-1.63971E+01-1.28350E+00 2.04331E-15-3.15293E-15
 -1      1848 2.53914E+01-7.85121E+01-1.59595E+01-7.77008E-01-2.08606E-14-8.40378E-16
 -1      1849 2.54416E+01-7.71920E+01-1.55478E+01-3.46693E-01 3.72110E-14-2.68808E-16
 -1      1850 2.54761E+01-7.66761E+01-1.53824E+01-8.48520E-02-2.59175E-14 2.75674E-16
 -1      1851 7.85919E-02-3.97590E-02 1.16464E-02 1.93939E-02 5.83948E-14 2.28420E-14
 -1      1852-7.63851E+00-2.26856E-01-2.35979E+00-1.54221E+00-3.26532E-14 7.49510E-15
 -1      1853-1.83384E+01-1.07622E+00-5.82544E+00-4.74459E+00 7.43822E-14-8.18300E-15
 -1      1854-2.34668E+01-1.77535E+00-7.57443E+00-6.98060E+00 9.13577E-14 6.10112E-15
 -1      1855-3.67577E+01-3.64807E+00-1.21264E+01-1.26902E+01 1.86292E-14 6.72433E-15
 -1      1856-3.86666E+01-5.02745E+00-1.31137E+01-1.50862E+01-1.34533E-14-2.14393E-15
 -1      1857-5.32602E+01-8.76930E+00-1.86201E+01-2.38020E+01-5.34463E-14 4.90909E-15
 -1      1858-5.19640E+01-1.08035E+01-1.88418E+01-2.56861E+01-5.06333E-14 8.18960E-16
 -1      1859-6.57694E+01-1.74580E+01-2.49891E+01-3.73720E+01 1.65569E-14-3.51626E-16
 -1      1860-6.17233E+01-1.98637E+01-2.44961E+01-3.80470E+01 2.63264E-14 1.29746E-15
 -1      1861-7.24420E+01-3.02519E+01-3.08409E+01-5.18034E+01-3.84775E-15 1.15629E-16
 -1      1862-6.64841E+01-3.24578E+01-2.97126E+01-5.07652E+01 1.16046E-13-5.99815E-16
 -1      1863-7.23466E+01-4.67935E+01-3.57873E+01-6.48931E+01 1.42859E-14-1.65075E-14
 -1      1864-6.54639E+01-4.80509E+01-3.40951E+01-6.20067E+01 1.41055E-13-9.17220E-15
 -1      1865-6.58566E+01-6.56340E+01-3.95040E+01-7.44519E+01 5.71798E-14 2.85240E-15
 -1      1866-5.89287E+01-6.52682E+01-3.73095E+01-6.99930E+01-5.16907E-15 9.41991E-15
 -1      1867-5.45497E+01-8.45341E+01-4.17908E+01-7.90232E+01 3.62857E-14 2.03093E-14
 -1      1868-4.81877E+01-8.21946E+01-3.91725E+01-7.35555E+01 6.40433E-14-2.95678E-15
 -1      1869-4.06524E+01-1.01149E+02-4.26112E+01-7.83052E+01 7.28606E-15-5.35924E-15
 -1      1870-3.51768E+01-9.69157E+01-3.96899E+01-7.24695E+01 7.22546E-14-2.68092E-15
 -1      1871-2.63438E+01-1.13730E+02-4.20943E+01-7.30779E+01-1.16167E-14-8.55160E-15
 -1      1872-2.18517E+01-1.08034E+02-3.90289E+01-6.74104E+01-5.96165E-14 3.51128E-15
 -1      1873-1.32490E+01-1.21498E+02-4.04941E+01-6.47610E+01-1.41589E-13 8.29519E-15
 -1      1874-9.70063E+00-1.14932E+02-3.74514E+01-5.96076E+01 4.36685E-14 7.08100E-15
 -1      1875-2.26395E+00-1.24597E+02-3.81237E+01-5.48937E+01 4.00285E-14-7.80100E-15
 -1      1876 4.49708E-01-1.17735E+02-3.52436E+01-5.04142E+01-8.34128E-14-1.19665E-14
 -1      1877 6.35003E+00-1.23791E+02-3.52919E+01-4.47652E+01 1.56083E-14-1.16821E-14
 -1      1878 8.36461E+00-1.17083E+02-3.26685E+01-4.09843E+01-9.22271E-15-1.75958E-14
 -1      1879 1.27503E+01-1.20112E+02-3.22618E+01-3.52611E+01-3.34171E-14-6.94033E-15
 -1      1880 1.42035E+01-1.13851E+02-2.99420E+01-3.21258E+01 6.08423E-14-5.79150E-16
 -1      1881 1.72994E+01-1.14589E+02-2.92340E+01-2.68742E+01 1.17055E-14 1.35763E-14
 -1      1882 1.83175E+01-1.08937E+02-2.72286E+01-2.42991E+01-1.20672E-13-1.71758E-15
 -1      1883 2.04122E+01-1.08104E+02-2.63489E+01-1.97962E+01-8.13537E-15 2.02639E-15
 -1      1884 2.11027E+01-1.03133E+02-2.46468E+01-1.76912E+01 1.41804E-13 3.52054E-15
 -1      1885 2.24698E+01-1.01344E+02-2.36986E+01-1.40250E+01-1.34001E-14-5.88223E-15
 -1      1886 2.29203E+01-9.70719E+01-2.22791E+01-1.23099E+01-3.55980E-14 1.12479E-14
 -1      1887 2.37844E+01-9.48143E+01-2.13411E+01-9.45393E+00 1.72122E-14-2.60503E-15
 -1      1888 2.40632E+01-9.12391E+01-2.01828E+01-8.06483E+00-1.62953E-14-2.64746E-15
 -1      1889 2.45938E+01-8.88793E+01-1.93143E+01-5.93588E+00-2.65383E-14 1.01932E-15
 -1      1890 2.47534E+01-8.59989E+01-1.84007E+01-4.82756E+00 1.66588E-14-5.56173E-16
 -1      1891 2.50694E+01-8.38116E+01-1.76486E+01-3.32418E+00-5.89696E-14-2.15073E-15
 -1      1892 2.51505E+01-8.16401E+01-1.69717E+01-2.47226E+00-2.19950E-14 2.33976E-15
 -1      1893 2.53249E+01-7.98468E+01-1.63805E+01-1.49997E+00 1.18224E-14-9.07843E-16
 -1      1894 2.53674E+01-7.84230E+01-1.59399E+01-9.04764E-01-1.40530E-14-2.49737E-15
 -1      1895 2.54321E+01-7.71808E+01-1.55472E+01-4.03756E-01 3.27441E-14 4.59785E-17
 -1      1896 2.54705E+01-7.66590E+01-1.53790E+01-1.00607E-01-4.40552E-14 4.25239E-16
 -1      1897 5.73909E-02-5.32285E-02 1.24645E-03-2.61424E-03 8.67677E-14 1.20758E-14
 -1      1898-5.57706E+00-2.27239E-01-1.74139E+00-1.28189E+00-3.72428E-15-1.68553E-14
 -1      1899-1.32793E+01-9.65226E-01-4.27392E+00-3.75483E+00 1.99937E-14-2.12411E-15
 -1      1900-1.72451E+01-1.49448E+00-5.62287E+00-5.45638E+00-4.59400E-14 2.88152E-15
 -1      1901-2.68856E+01-2.91452E+00-8.94257E+00-9.58310E+00-4.23062E-14 1.31286E-14
 -1      1902-2.86957E+01-3.89248E+00-9.77950E+00-1.14307E+01 1.15869E-13 2.31760E-15
 -1      1903-3.96739E+01-6.49658E+00-1.38574E+01-1.76011E+01-3.38700E-14-1.37116E-15
 -1      1904-3.92392E+01-7.94256E+00-1.41611E+01-1.92204E+01 1.07137E-14-1.59994E-15
 -1      1905-5.03718E+01-1.24211E+01-1.88497E+01-2.75996E+01-6.86206E-15-9.39150E-16
 -1      1906-4.78367E+01-1.42403E+01-1.86347E+01-2.85521E+01-1.76512E-13-1.50919E-15
 -1      1907-5.76153E+01-2.12508E+01-2.36791E+01-3.88404E+01-7.02946E-14 5.47290E-15
 -1      1908-5.33865E+01-2.31879E+01-2.29904E+01-3.87253E+01-8.01661E-15-4.34900E-16
 -1      1909-6.03242E+01-3.31617E+01-2.80736E+01-5.00701E+01-6.61429E-14-3.79393E-15
 -1      1910-5.49944E+01-3.47957E+01-2.69626E+01-4.86354E+01 4.17626E-14-1.42009E-15
 -1      1911-5.80695E+01-4.76834E+01-3.17627E+01-5.97232E+01 9.37834E-14-5.76371E-16
 -1      1912-5.22815E+01-4.85099E+01-3.02707E+01-5.69505E+01 2.21076E-14 1.38296E-14
 -1      1913-5.12821E+01-6.36285E+01-3.45182E+01-6.63279E+01 1.25322E-13 3.22644E-15
 -1      1914-4.55890E+01-6.32081E+01-3.26794E+01-6.24430E+01 8.81142E-14-8.85804E-15
 -1      1915-4.11649E+01-7.93126E+01-3.61946E+01-6.89493E+01 1.15630E-14-2.53100E-14
 -1      1916-3.59501E+01-7.74180E+01-3.40562E+01-6.43470E+01-1.22952E-14 4.14663E-15
 -1      1917-2.93365E+01-9.30061E+01-3.67580E+01-6.74506E+01-1.16729E-13 2.63193E-14
 -1      1918-2.48066E+01-8.96905E+01-3.43982E+01-6.25729E+01 3.55747E-14 2.41405E-14
 -1      1919-1.73787E+01-1.03404E+02-3.62911E+01-6.24498E+01-1.31715E-13-2.06306E-14
 -1      1920-1.36042E+01-9.89599E+01-3.38194E+01-5.76769E+01 3.31616E-14-5.13886E-15
 -1      1921-6.49100E+00-1.09896E+02-3.49711E+01-5.50329E+01 4.69305E-14 1.28410E-14
 -1      1922-3.45492E+00-1.04743E+02-3.25085E+01-5.06252E+01 1.05418E-13-1.29616E-14
 -1      1923 2.64721E+00-1.12564E+02-3.30274E+01-4.63950E+01 1.07275E-14-3.80687E-15
 -1      1924 5.01139E+00-1.07128E+02-3.06817E+01-4.24889E+01 3.80087E-14 1.86096E-15
 -1      1925 9.82792E+00-1.11990E+02-3.06967E+01-3.75648E+01 6.87363E-14-4.59088E-15
 -1      1926 1.16116E+01-1.06621E+02-2.85463E+01-3.42000E+01-1.12542E-13 6.91962E-15
 -1      1927 1.51695E+01-1.08991E+02-2.81902E+01-2.92729E+01 6.96341E-15 5.29137E-15
 -1      1928 1.64728E+01-1.03940E+02-2.62798E+01-2.64287E+01-1.06392E-13 5.69800E-15
 -1      1929 1.89605E+01-1.04421E+02-2.56772E+01-2.19442E+01-5.98854E-14-8.65589E-15
 -1      1930 1.98811E+01-9.98406E+01-2.40238E+01-1.95705E+01-6.11066E-14-9.78548E-15
 -1      1931 2.15399E+01-9.90343E+01-2.32833E+01-1.57586E+01-1.51679E-14-1.33595E-15
 -1      1932 2.21660E+01-9.50117E+01-2.18862E+01-1.37970E+01-1.08124E-14-2.08966E-15
 -1      1933 2.32257E+01-9.34454E+01-2.10972E+01-1.07318E+01 2.44507E-14 7.71002E-16
 -1      1934 2.36325E+01-9.00260E+01-1.99474E+01-9.12905E+00-4.27838E-14-5.65294E-15
 -1      1935 2.42825E+01-8.81273E+01-1.91817E+01-6.78921E+00 1.71304E-14 2.24292E-15
 -1      1936 2.45312E+01-8.53416E+01-1.82698E+01-5.50471E+00 3.00555E-14 4.50527E-15
 -1      1937 2.49130E+01-8.34463E+01-1.75857E+01-3.82219E+00 1.96226E-14-6.43850E-16
 -1      1938 2.50530E+01-8.13287E+01-1.69073E+01-2.83397E+00 7.72033E-15 5.90455E-16
 -1      1939 2.52596E+01-7.97090E+01-1.63587E+01-1.73009E+00-5.77264E-15 5.33970E-15
 -1      1940 2.53368E+01-7.83105E+01-1.59153E+01-1.04132E+00-6.62052E-15 9.46762E-16
 -1      1941 2.54198E+01-7.71653E+01-1.55463E+01-4.63667E-01 3.70176E-15-1.87420E-15
 -1      1942 2.54636E+01-7.66377E+01-1.53746E+01-1.18361E-01-9.75705E-15 9.35084E-16
 -1      1943 4.03341E-02-5.30783E-02-3.82475E-03-1.26465E-02-6.21538E-14 1.93148E-14
 -1      1944-4.12803E+00-2.29662E-01-1.30736E+00-1.08421E+00-8.95656E-14-1.03503E-15
 -1      1945-9.76631E+00-8.89723E-01-3.19713E+00-3.05173E+00 9.90526E-14-1.82575E-14
 -1      1946-1.28332E+01-1.32199E+00-4.24713E+00-4.39108E+00-3.37881E-14-1.21815E-15
 -1      1947-1.99056E+01-2.45818E+00-6.71057E+00-7.48789E+00 3.85077E-14 1.19544E-15
 -1      1948-2.14933E+01-3.20301E+00-7.41065E+00-8.93434E+00 2.32151E-15-1.04461E-15
 -1      1949-2.97484E+01-5.12420E+00-1.04653E+01-1.34481E+01-1.15912E-13-2.61169E-16
 -1      1950-2.97493E+01-6.20327E+00-1.07896E+01-1.47900E+01 8.42639E-14-2.74636E-15
 -1      1951-3.85238E+01-9.37220E+00-1.43757E+01-2.09178E+01 9.42539E-14-3.66010E-16
 -1      1952-3.69516E+01-1.07597E+01-1.43202E+01-2.18849E+01 2.45276E-13 1.81218E-15
 -1      1953-4.53030E+01-1.56595E+01-1.83002E+01-2.95840E+01-6.57901E-14-1.25492E-15
 -1      1954-4.23334E+01-1.72515E+01-1.78864E+01-2.98936E+01-3.88270E-14 2.85010E-15
 -1      1955-4.91780E+01-2.43041E+01-2.20618E+01-3.87844E+01 6.82532E-14-4.50550E-15
 -1      1956-4.51373E+01-2.58889E+01-2.13239E+01-3.81990E+01-1.03336E-13 1.27344E-14
 -1      1957-4.94922E+01-3.52976E+01-2.54606E+01-4.75301E+01-1.19882E-14-5.65665E-15
 -1      1958-4.48030E+01-3.65642E+01-2.44319E+01-4.59212E+01 1.47483E-13 9.21804E-15
 -1      1959-4.60711E+01-4.81530E+01-2.82975E+01-5.46684E+01 1.58812E-13 1.00173E-14
 -1      1960-4.11673E+01-4.87473E+01-2.70020E+01-5.20606E+01-2.72802E-14-1.24124E-15
 -1      1961-3.93403E+01-6.18826E+01-3.04032E+01-5.91633E+01 5.80525E-14-1.68253E-15
 -1      1962-3.45868E+01-6.15013E+01-2.88593E+01-5.57357E+01 7.03337E-14 3.02352E-15
 -1      1963-3.02528E+01-7.51659E+01-3.16667E+01-6.03915E+01-3.67217E-14-2.25455E-14
 -1      1964-2.59023E+01-7.36507E+01-2.99030E+01-5.64301E+01-7.42740E-14-4.83440E-15
 -1      1965-2.00404E+01-8.66707E+01-3.20575E+01-5.83160E+01-6.19538E-15-2.54939E-15
 -1      1966-1.62337E+01-8.40561E+01-3.01267E+01-5.41387E+01-3.51412E-14-8.93196E-15
 -1      1967-9.89951E+00-9.53889E+01-3.16318E+01-5.34558E+01 1.93266E-14 1.92649E-14
 -1      1968-6.69074E+00-9.18818E+01-2.96125E+01-4.93432E+01 4.86411E-19-1.52357E-14
 -1      1969-7.42120E-01-1.00842E+02-3.05199E+01-4.66842E+01-1.66644E-13 2.00046E-14
 -1      1970 1.87236E+00-9.67502E+01-2.85037E+01-4.28391E+01-5.19948E-14-6.38416E-15
 -1      1971 6.91138E+00-1.03094E+02-2.88976E+01-3.89657E+01 1.17306E-14-3.21283E-16
 -1      1972 8.97186E+00-9.87439E+01-2.69704E+01-3.55061E+01-5.09983E-14 1.75633E-14
 -1      1973 1.29047E+01-1.02616E+02-2.69533E+01-3.11440E+01 2.34911E-15 4.48177E-15
 -1      1974 1.44741E+01-9.82913E+01-2.51816E+01-2.81174E+01-1.49792E-15 1.26312E-14
 -1      1975 1.73413E+01-1.00092E+02-2.48620E+01-2.38313E+01-9.70043E-14 3.55450E-16
 -1      1976 1.84944E+01-9.60078E+01-2.32878E+01-2.12382E+01 1.61857E-14-1.75744E-14
 -1      1977 2.04644E+01-9.62525E+01-2.27699E+01-1.73934E+01-2.65260E-14-1.65964E-14
 -1      1978 2.12793E+01-9.25560E+01-2.14141E+01-1.52090E+01 3.54054E-14 2.12598E-15
 -1      1979 2.25616E+01-9.17648E+01-2.07913E+01-1.19937E+01 5.27369E-14 8.85131E-15
 -1      1980 2.31125E+01-8.85535E+01-1.96608E+01-1.01853E+01 5.06717E-15-6.45386E-15
 -1      1981 2.39047E+01-8.71905E+01-1.90134E+01-7.65840E+00 1.40334E-14-8.54364E-15
 -1      1982 2.42575E+01-8.45329E+01-1.81089E+01-6.19720E+00-4.55819E-14-2.88251E-15
 -1      1983 2.47203E+01-8.29857E+01-1.75051E+01-4.34004E+00 1.86032E-15-2.51816E-15
 -1      1984 2.49312E+01-8.09420E+01-1.68277E+01-3.21151E+00 4.25845E-14-1.19188E-15
 -1      1985 2.51782E+01-7.95334E+01-1.63303E+01-1.97226E+00 4.81210E-15-1.93883E-15
 -1      1986 2.52982E+01-7.81702E+01-1.58847E+01-1.18596E+00 2.71662E-14-2.01292E-15
 -1      1987 2.54040E+01-7.71442E+01-1.55447E+01-5.25729E-01 3.56456E-14 6.60272E-16
 -1      1988 2.54555E+01-7.66118E+01-1.53693E+01-1.38358E-01 8.03547E-15-7.06546E-16
 -1      1989 2.57882E-02-5.18592E-02-7.82228E-03-1.64653E-02 1.35598E-14-5.28091E-15
 -1      1990-3.08643E+00-2.32973E-01-9.95853E-01-9.28304E-01 7.59851E-15-9.19908E-15
 -1      1991-7.26608E+00-8.35398E-01-2.43063E+00-2.52935E+00 2.62644E-14 6.52136E-15
 -1      1992-9.64004E+00-1.21089E+00-3.25561E+00-3.61245E+00 1.26165E-14 3.86855E-15
 -1      1993-1.48765E+01-2.15950E+00-5.11161E+00-6.00747E+00-8.63367E-14-3.81721E-15
 -1      1994-1.62129E+01-2.76367E+00-5.69400E+00-7.16011E+00-1.82450E-14-3.22206E-15
 -1      1995-2.24313E+01-4.25283E+00-8.00732E+00-1.05599E+01-8.30633E-14 2.38040E-16
 -1      1996-2.26324E+01-5.10183E+00-8.32251E+00-1.16603E+01-4.27266E-14-2.99116E-16
 -1      1997-2.94645E+01-7.44966E+00-1.10783E+01-1.62393E+01-8.69550E-14-5.46754E-16
 -1      1998-2.84939E+01-8.53987E+00-1.11143E+01-1.71206E+01 6.30864E-14-6.66925E-16
 -1      1999-3.53661E+01-1.20928E+01-1.42446E+01-2.29331E+01 4.05110E-14-2.19107E-15
 -1      2000-3.32835E+01-1.33870E+01-1.40079E+01-2.34054E+01-2.68456E-14 6.18798E-15
 -1      2001-3.94603E+01-1.84931E+01-1.73967E+01-3.03133E+01-5.72041E-15 9.24319E-15
 -1      2002-3.64293E+01-1.98941E+01-1.69071E+01-3.01903E+01 4.97617E-14-5.76781E-15
 -1      2003-4.11246E+01-2.68179E+01-2.03979E+01-3.78019E+01 1.05764E-13-3.71646E-16
 -1      2004-3.74004E+01-2.81556E+01-1.96810E+01-3.69379E+01-9.96926E-14 4.17489E-15
 -1      2005-3.99529E+01-3.69632E+01-2.30950E+01-4.46066E+01-1.86335E-13 7.86804E-15
 -1      2006-3.58423E+01-3.80040E+01-2.21725E+01-4.29355E+01-5.47370E-14 6.30520E-15
 -1      2007-3.59084E+01-4.84581E+01-2.53352E+01-4.98509E+01-5.80473E-14 1.85768E-14
 -1      2008-3.17146E+01-4.89430E+01-2.42205E+01-4.74106E+01 1.16649E-13-1.55062E-14
 -1      2009-2.93945E+01-6.04635E+01-2.69874E+01-5.27790E+01 2.73016E-14 4.71824E-15
 -1      2010-2.53685E+01-6.01717E+01-2.56894E+01-4.97109E+01-9.33282E-15 2.02768E-15
 -1      2011-2.11925E+01-7.19074E+01-2.79637E+01-5.29671E+01-1.19935E-13-1.50388E-14
 -1      2012-1.75086E+01-7.07213E+01-2.64997E+01-4.94847E+01 5.31377E-14 2.34499E-15
 -1      2013-1.22767E+01-8.17273E+01-2.82374E+01-5.04443E+01 8.59308E-14 1.88972E-14
 -1      2014-9.03582E+00-7.96680E+01-2.66441E+01-4.67854E+01 6.27607E-14-8.46830E-15
 -1      2015-3.58258E+00-8.91240E+01-2.78493E+01-4.56685E+01 4.26066E-14-2.93253E-14
 -1      2016-8.28799E-01-8.63428E+01-2.61855E+01-4.20485E+01-7.34116E-14 1.58878E-14
 -1      2017 4.18028E+00-9.37235E+01-2.69001E+01-3.93729E+01-9.04219E-14 2.73272E-14
 -1      2018 6.44257E+00-9.04552E+01-2.52377E+01-3.59559E+01-6.83742E-14 1.02041E-15
 -1      2019 1.06121E+01-9.55943E+01-2.55305E+01-3.23640E+01 1.26160E-13-1.30645E-14
 -1      2020 1.24067E+01-9.20981E+01-2.39404E+01-2.92547E+01 3.97796E-14-3.12363E-15
 -1      2021 1.56043E+01-9.51462E+01-2.38965E+01-2.53518E+01 1.50314E-14 2.75350E-14
 -1      2022 1.69757E+01-9.16591E+01-2.24364E+01-2.26032E+01-1.44858E-14-7.61373E-15
 -1      2023 1.92587E+01-9.29780E+01-2.21474E+01-1.88575E+01-1.57985E-14-1.39477E-14
 -1      2024 2.02651E+01-8.96917E+01-2.08575E+01-1.64860E+01 4.52028E-14 1.28529E-15
 -1      2025 2.17917E+01-8.97397E+01-2.04136E+01-1.31985E+01 1.48418E-14 8.27142E-16
 -1      2026 2.24979E+01-8.67983E+01-1.93177E+01-1.12004E+01 3.42754E-14-2.13631E-15
 -1      2027 2.34557E+01-8.60407E+01-1.88026E+01-8.52345E+00 1.20584E-14 2.05941E-14
 -1      2028 2.39260E+01-8.35531E+01-1.79138E+01-6.88978E+00 3.90063E-14 1.21709E-14
 -1      2029 2.44870E+01-8.24122E+01-1.74027E+01-4.86961E+00-3.50528E-14 1.60850E-15
 -1      2030 2.47808E+01-8.04682E+01-1.67304E+01-3.59930E+00 1.91970E-14-8.14244E-15
 -1      2031 2.50784E+01-7.93117E+01-1.62936E+01-2.22384E+00 1.40805E-14-6.76162E-16
 -1      2032 2.52499E+01-7.79975E+01-1.58473E+01-1.33736E+00 2.40643E-15-6.64780E-15
 -1      2033 2.53837E+01-7.71154E+01-1.55421E+01-5.88948E-01-2.14886E-14-1.40939E-15
 -1      2034 2.54462E+01-7.65807E+01-1.53627E+01-1.60804E-01 1.13655E-14 1.06424E-15
 -1      2035 1.38038E-02-4.94717E-02-1.07010E-02-1.75893E-02 3.39990E-14 7.33057E-15
 -1      2036-2.32340E+00-2.36542E-01-7.68002E-01-8.01526E-01-6.92348E-14 4.46652E-15
 -1      2037-5.45106E+00-7.96117E-01-1.87426E+00-2.12608E+00 2.62218E-14-4.29193E-15
 -1      2038-7.28937E+00-1.13695E+00-2.52810E+00-3.02146E+00 1.48145E-14-3.49851E-15
 -1      2039-1.11928E+01-1.95619E+00-3.94518E+00-4.91803E+00 7.05228E-14-2.28283E-15
 -1      2040-1.22899E+01-2.47259E+00-4.42937E+00-5.85263E+00 1.11116E-13-2.94870E-15
 -1      2041-1.69837E+01-3.67615E+00-6.19919E+00-8.47875E+00-2.67099E-14-1.71283E-15
 -1      2042-1.72576E+01-4.37866E+00-6.49225E+00-9.38153E+00 8.19564E-14 1.05009E-15
 -1      2043-2.25401E+01-6.19165E+00-8.62199E+00-1.28767E+01-1.51674E-14 6.64247E-16
 -1      2044-2.19401E+01-7.08186E+00-8.70913E+00-1.36436E+01-1.00111E-14 1.86719E-15
 -1      2045-2.74680E+01-9.75283E+00-1.11705E+01-1.80889E+01-1.45188E-14-1.69482E-15
 -1      2046-2.59987E+01-1.08208E+01-1.10500E+01-1.85944E+01-3.57809E-14-5.49934E-15
 -1      2047-3.12928E+01-1.46196E+01-1.37804E+01-2.39657E+01 8.86589E-14 1.33711E-14
 -1      2048-2.90252E+01-1.58251E+01-1.34615E+01-2.40744E+01 3.35298E-14 2.24735E-15
 -1      2049-3.35123E+01-2.10006E+01-1.63636E+01-3.01884E+01-1.74345E-14-1.49937E-14
 -1      2050-3.05879E+01-2.22591E+01-1.58633E+01-2.97738E+01 5.40603E-14 5.67158E-15
 -1      2051-3.36908E+01-2.89687E+01-1.88112E+01-3.62550E+01-4.02609E-14 1.27173E-14
 -1      2052-3.03089E+01-3.01446E+01-1.81486E+01-3.52244E+01 2.23365E-14-1.10934E-14
 -1      2053-3.15784E+01-3.83693E+01-2.10017E+01-4.15187E+01 1.69085E-13-1.75266E-14
 -1      2054-2.79669E+01-3.92826E+01-2.01910E+01-3.98378E+01-4.93303E-14 1.88470E-14
 -1      2055-2.72181E+01-4.87552E+01-2.28134E+01-4.52939E+01-4.42737E-14 4.24586E-14
 -1      2056-2.35961E+01-4.92093E+01-2.18615E+01-4.30023E+01-1.70351E-13-3.80288E-14
 -1      2057-2.09893E+01-5.93983E+01-2.41415E+01-4.70150E+01 1.03586E-13-2.47409E-15
 -1      2058-1.75361E+01-5.92245E+01-2.30515E+01-4.42249E+01-1.15795E-13 9.03855E-15
 -1      2059-1.35526E+01-6.94021E+01-2.49147E+01-4.63939E+01 3.04993E-14-8.35321E-15
 -1      2060-1.03938E+01-6.85072E+01-2.36964E+01-4.32698E+01 1.49326E-14-1.93739E-15
 -1      2061-5.70377E+00-7.78946E+01-2.51099E+01-4.35086E+01-7.57531E-14 3.18534E-14
 -1      2062-2.91540E+00-7.62903E+01-2.37898E+01-4.02351E+01-2.78844E-14-1.21332E-14
 -1      2063 1.80566E+00-8.42308E+01-2.47590E+01-3.87796E+01-7.48877E-14 9.52088E-15
 -1      2064 4.18600E+00-8.20315E+01-2.33828E+01-3.55293E+01-2.19351E-14 4.77652E-15
 -1      2065 8.41472E+00-8.81229E+01-2.39441E+01-3.28473E+01 4.72985E-14-8.89553E-15
 -1      2066 1.03777E+01-8.55148E+01-2.25704E+01-2.97589E+01 5.81687E-14 7.13211E-15
 -1      2067 1.38184E+01-8.96578E+01-2.27827E+01-2.64078E+01-4.07714E-14 1.71040E-14
 -1      2068 1.53776E+01-8.68552E+01-2.14720E+01-2.35782E+01 1.85691E-14 1.26349E-14
 -1      2069 1.79516E+01-8.92160E+01-2.14088E+01-2.00735E+01 1.57261E-14 1.47360E-14
 -1      2070 1.91401E+01-8.64251E+01-2.02132E+01-1.75615E+01-1.71809E-16 2.16585E-14
 -1      2071 2.09228E+01-8.73468E+01-1.99551E+01-1.42969E+01-7.23443E-15-1.42740E-14
 -1      2072 2.17881E+01-8.47450E+01-1.89135E+01-1.21339E+01 3.60183E-14-7.21383E-16
 -1      2073 2.29331E+01-8.46514E+01-1.85417E+01-9.35828E+00 2.36569E-15 1.26494E-15
 -1      2074 2.35312E+01-8.23843E+01-1.76810E+01-7.56209E+00 7.74541E-15 1.23370E-15
 -1      2075 2.42093E+01-8.17066E+01-1.72739E+01-5.39951E+00-2.71819E-14-1.44622E-15
 -1      2076 2.45977E+01-7.98953E+01-1.66131E+01-3.98922E+00-3.52634E-14 5.33475E-16
 -1      2077 2.49577E+01-7.90343E+01-1.62464E+01-2.48091E+00 7.20499E-15 5.50361E-16
 -1      2078 2.51901E+01-7.77873E+01-1.58020E+01-1.49334E+00-4.07405E-15-1.58827E-15
 -1      2079 2.53580E+01-7.70762E+01-1.55380E+01-6.52007E-01 1.28697E-14-8.56396E-16
 -1      2080 2.54357E+01-7.65442E+01-1.53549E+01-1.85786E-01-1.02156E-14-2.46421E-15
 -1      2081 3.92455E-03-4.72386E-02-1.29947E-02-1.75298E-02 1.01797E-13 4.69294E-15
 -1      2082-1.75564E+00-2.40125E-01-5.98741E-01-6.95858E-01 3.04774E-14 1.55824E-15
 -1      2083-4.11154E+00-7.67258E-01-1.46371E+00-1.80510E+00 1.23287E-14 4.92794E-15
 -1      2084-5.53377E+00-1.08678E+00-1.98629E+00-2.55813E+00-4.73119E-14-1.15536E-15
 -1      2085-8.45643E+00-1.81358E+00-3.08130E+00-4.08746E+00-4.47030E-14 1.98159E-16
 -1      2086-9.34100E+00-2.27361E+00-3.48477E+00-4.85700E+00-6.48969E-14-2.33201E-16
 -1      2087-1.28886E+01-3.28125E+00-4.85171E+00-6.92886E+00 4.07042E-14-7.02972E-16
 -1      2088-1.31687E+01-3.88880E+00-5.11809E+00-7.67317E+00-6.32877E-15 2.01400E-15
 -1      2089-1.72339E+01-5.34116E+00-6.77402E+00-1.03939E+01-4.29954E-14-5.79430E-16
 -1      2090-1.68586E+01-6.09752E+00-6.88843E+00-1.10471E+01 8.50113E-14 5.66350E-15
 -1      2091-2.12387E+01-8.17522E+00-8.82683E+00-1.44966E+01-4.94925E-14 8.88049E-15
 -1      2092-2.01891E+01-9.08043E+00-8.78351E+00-1.49757E+01 1.23316E-14-2.38935E-15
 -1      2093-2.45797E+01-1.19881E+01-1.09746E+01-1.91781E+01-1.31952E-14-3.43879E-15
 -1      2094-2.28771E+01-1.30284E+01-1.07758E+01-1.93878E+01-7.54597E-14 5.01273E-15
 -1      2095-2.68821E+01-1.69757E+01-1.31636E+01-2.42721E+01 2.67791E-14 1.61269E-14
 -1      2096-2.45967E+01-1.81133E+01-1.28190E+01-2.41135E+01-5.75679E-14 1.38118E-14
 -1      2097-2.77668E+01-2.32753E+01-1.53215E+01-2.94783E+01 1.88277E-14-2.60127E-14
 -1      2098-2.50177E+01-2.44392E+01-1.48455E+01-2.88626E+01-5.77837E-14-2.13000E-14
 -1      2099-2.69248E+01-3.08990E+01-1.73590E+01-3.43579E+01-7.07184E-14 1.17626E-15
 -1      2100-2.38693E+01-3.19801E+01-1.67660E+01-3.32235E+01 2.18559E-14-1.17651E-14
 -1      2101-2.42091E+01-3.96630E+01-1.91768E+01-3.83727E+01 2.31824E-16-5.70938E-15
 -1      2102-2.10207E+01-4.05195E+01-1.84763E+01-3.67018E+01 8.17011E-14-7.61737E-15
 -1      2103-1.97124E+01-4.91440E+01-2.06754E+01-4.09744E+01-1.20121E-14 4.71870E-15
 -1      2104-1.65546E+01-4.96207E+01-1.98699E+01-3.88037E+01-4.21427E-15-1.40236E-14
 -1      2105-1.37933E+01-5.86967E+01-2.17687E+01-4.17325E+01-7.33802E-14-2.06863E-14
 -1      2106-1.07989E+01-5.86585E+01-2.08574E+01-3.91525E+01-1.04682E-14 3.55266E-15
 -1      2107-7.02551E+00-6.75520E+01-2.23975E+01-4.04575E+01-8.81088E-14-5.56913E-15
 -1      2108-4.28894E+00-6.69212E+01-2.13857E+01-3.75991E+01-5.33174E-14-1.45518E-16
 -1      2109-7.70159E-02-7.49786E+01-2.25429E+01-3.72672E+01-6.83975E-14 1.34663E-15
 -1      2110 2.34167E+00-7.37599E+01-2.14499E+01-3.42799E+01-4.11358E-14 4.29936E-14
 -1      2111 6.43592E+00-8.04499E+01-2.22315E+01-3.25622E+01 2.09090E-14 2.10125E-14
 -1      2112 8.50332E+00-7.87335E+01-2.10946E+01-2.95910E+01-4.36448E-15 2.36945E-14
 -1      2113 1.20659E+01-8.37536E+01-2.15339E+01-2.69216E+01-3.22959E-14 5.24220E-15
 -1      2114 1.37700E+01-8.16934E+01-2.04030E+01-2.40902E+01 6.12063E-14 3.67540E-14
 -1      2115 1.65854E+01-8.50048E+01-2.05531E+01-2.09646E+01-6.59985E-14-1.19875E-14
 -1      2116 1.79337E+01-8.27867E+01-1.94816E+01-1.83678E+01 5.83730E-14-9.52286E-15
 -1      2117 1.99699E+01-8.45782E+01-1.94089E+01-1.52334E+01-1.71348E-14 1.12624E-14
 -1      2118 2.09888E+01-8.23896E+01-1.84454E+01-1.29389E+01 5.79799E-14-1.74176E-14
 -1      2119 2.23389E+01-8.30004E+01-1.82238E+01-1.01306E+01 2.39622E-14 6.49820E-15
 -1      2120 2.30697E+01-8.10125E+01-1.74071E+01-8.18834E+00-2.13466E-14 8.01479E-15
 -1      2121 2.38850E+01-8.08497E+01-1.71136E+01-5.91454E+00 4.10201E-15 5.83629E-15
 -1      2122 2.43774E+01-7.92120E+01-1.64738E+01-4.37010E+00-1.68086E-14 1.64450E-14
 -1      2123 2.48140E+01-7.86904E+01-1.61862E+01-2.73790E+00-2.50011E-15 9.34318E-15
 -1      2124 2.51168E+01-7.75347E+01-1.57481E+01-1.65060E+00 2.65252E-15 5.24903E-15
 -1      2125 2.53258E+01-7.70230E+01-1.55317E+01-7.13252E-01 1.27300E-14-5.13060E-15
 -1      2126 2.54244E+01-7.65020E+01-1.53456E+01-2.13167E-01 1.10512E-15 4.34927E-16
 -1      2127-4.10749E-03-4.54009E-02-1.48529E-02-1.71084E-02-9.89206E-14 4.00799E-16
 -1      2128-1.32755E+00-2.43583E-01-4.71347E-01-6.05940E-01 2.13361E-14 4.72436E-16
 -1      2129-3.10933E+00-7.45976E-01-1.15663E+00-1.54300E+00-1.58231E-14 1.07680E-16
 -1      2130-4.20632E+00-1.05260E+00-1.57776E+00-2.18460E+00-1.04846E-14-2.18429E-15
 -1      2131-6.39918E+00-1.71124E+00-2.43331E+00-3.43435E+00 4.50152E-14-9.41726E-16
 -1      2132-7.10146E+00-2.13434E+00-2.77098E+00-4.07605E+00 3.03199E-15 4.08330E-15
 -1      2133-9.78246E+00-3.00325E+00-3.83619E+00-5.73890E+00 4.55700E-14 1.26147E-15
 -1      2134-1.00357E+01-3.54823E+00-4.07573E+00-6.35609E+00 1.92056E-14 1.37859E-16
 -1      2135-1.31512E+01-4.74979E+00-5.37125E+00-8.51117E+00-5.48271E-15 5.92901E-15
 -1      2136-1.29097E+01-5.41640E+00-5.49883E+00-9.06147E+00 1.59313E-14-1.68813E-14
 -1      2137-1.63417E+01-7.08428E+00-7.02948E+00-1.17776E+01 2.39688E-14 1.14270E-14
 -1      2138-1.55779E+01-7.87546E+00-7.03773E+00-1.22057E+01-5.59474E-14-1.36864E-14
 -1      2139-1.91367E+01-1.01644E+01-8.79303E+00-1.55234E+01-1.59339E-14-1.40012E-15
 -1      2140-1.78473E+01-1.10778E+01-8.68021E+00-1.57628E+01 7.24681E-15 6.28190E-15
 -1      2141-2.12681E+01-1.41563E+01-1.06314E+01-1.96677E+01-3.81611E-15-4.71500E-15
 -1      2142-1.94811E+01-1.51778E+01-1.04017E+01-1.96447E+01 4.18623E-16 1.02906E-14
 -1      2143-2.24367E+01-1.92079E+01-1.24993E+01-2.40389E+01 3.86985E-14-9.36333E-15
 -1      2144-2.02166E+01-2.03044E+01-1.21620E+01-2.36792E+01-8.73504E-15 4.16317E-15
 -1      2145-2.23524E+01-2.54059E+01-1.43356E+01-2.83561E+01-1.97287E-14 8.70421E-15
 -1      2146-1.97991E+01-2.65184E+01-1.39030E+01-2.75950E+01 6.14142E-14-3.40030E-14
 -1      2147-2.07961E+01-3.27205E+01-1.60656E+01-3.22323E+01-1.15473E-13-1.70227E-14
 -1      2148-1.80358E+01-3.37605E+01-1.55490E+01-3.10267E+01-2.55414E-14-1.63302E-14
 -1      2149-1.76921E+01-4.09503E+01-1.76061E+01-3.52115E+01 1.33644E-14 7.16817E-15
 -1      2150-1.48604E+01-4.18027E+01-1.70117E+01-3.35522E+01-5.68850E-14 2.26667E-15
 -1      2151-1.31665E+01-4.96922E+01-1.88739E+01-3.68480E+01 2.06712E-15-3.16230E-14
 -1      2152-1.03892E+01-5.02300E+01-1.82012E+01-3.47675E+01 5.60657E-15 5.86510E-15
 -1      2153-7.56183E+00-5.83628E+01-1.97964E+01-3.68121E+01 1.16405E-13 1.12202E-14
 -1      2154-4.94097E+00-5.84733E+01-1.90422E+01-3.43851E+01 5.67318E-15-1.07231E-14
 -1      2155-1.38808E+00-6.62884E+01-2.03243E+01-3.49908E+01 3.81152E-14-2.76632E-14
 -1      2156 1.00221E+00-6.59037E+01-1.94906E+01-3.23260E+01-4.91544E-15-2.16946E-14
 -1      2157 4.78148E+00-7.28454E+01-2.04423E+01-3.15381E+01 1.19999E-14-3.55153E-15
 -1      2158 6.89164E+00-7.19656E+01-1.95441E+01-2.87627E+01 3.15331E-14 2.33480E-15
 -1      2159 1.04339E+01-7.76038E+01-2.01752E+01-2.68484E+01-4.43205E-14 3.06942E-14
 -1      2160 1.22337E+01-7.63033E+01-1.92439E+01-2.40916E+01-9.05412E-15-2.44729E-14
 -1      2161 1.52128E+01-8.04204E+01-1.95870E+01-2.14629E+01-1.61623E-14-3.12306E-15
 -1      2162 1.66891E+01-7.88335E+01-1.86669E+01-1.88424E+01-2.61069E-15-2.83920E-14
 -1      2163 1.89567E+01-8.14481E+01-1.87721E+01-1.59494E+01-1.20205E-14 9.20151E-15
 -1      2164 2.01145E+01-7.97437E+01-1.79125E+01-1.35648E+01-1.33358E-15-1.68137E-14
 -1      2165 2.16794E+01-8.10742E+01-1.78427E+01-1.08024E+01-8.01082E-15 1.42274E-15
 -1      2166 2.25415E+01-7.94301E+01-1.70900E+01-8.73740E+00-1.78071E-14 5.55369E-16
 -1      2167 2.35136E+01-7.98235E+01-1.69166E+01-6.39525E+00 2.34975E-16 1.01828E-16
 -1      2168 2.41164E+01-7.84085E+01-1.63106E+01-4.72724E+00 6.03438E-15 2.24918E-15
 -1      2169 2.46459E+01-7.82685E+01-1.61097E+01-2.98731E+00-4.22080E-15-9.04277E-16
 -1      2170 2.50275E+01-7.72351E+01-1.56848E+01-1.80443E+00 1.01580E-14 4.05092E-16
 -1      2171 2.52858E+01-7.69513E+01-1.55222E+01-7.70727E-01 4.29027E-14 9.75889E-16
 -1      2172 2.54125E+01-7.64545E+01-1.53349E+01-2.42417E-01 1.04500E-14 9.73330E-16
 -1      2173-1.05623E-02-4.41792E-02-1.64227E-02-1.67034E-02 9.93763E-15-1.43342E-16
 -1      2174-1.00113E+00-2.46831E-01-3.74394E-01-5.28035E-01-8.94067E-15 5.99909E-15
 -1      2175-2.35085E+00-7.30305E-01-9.24371E-01-1.32429E+00 2.08750E-14 3.43969E-16
 -1      2176-3.19184E+00-1.02976E+00-1.26653E+00-1.87600E+00-5.85631E-15 2.30057E-16
 -1      2177-4.83661E+00-1.63654E+00-1.94207E+00-2.90664E+00-7.30707E-14-4.64724E-15
 -1      2178-5.38538E+00-2.03531E+00-2.22636E+00-3.44682E+00 6.75353E-16-1.37878E-15
 -1      2179-7.40748E+00-2.80319E+00-3.06350E+00-4.79928E+00-1.58538E-14 1.16267E-15
 -1      2180-7.61947E+00-3.30652E+00-3.27815E+00-5.31337E+00-1.08468E-14-3.88537E-15
 -1      2181-9.99583E+00-4.32875E+00-4.29798E+00-7.04568E+00 4.28991E-14 8.52988E-15
 -1      2182-9.83143E+00-4.93504E+00-4.43060E+00-7.50602E+00 3.22750E-15 1.02667E-14
 -1      2183-1.24951E+01-6.31260E+00-5.64339E+00-9.67408E+00-1.63291E-14 1.63530E-14
 -1      2184-1.19257E+01-7.02504E+00-5.68633E+00-1.00432E+01-2.29330E-14 6.38664E-15
 -1      2185-1.47599E+01-8.87568E+00-7.09243E+00-1.26893E+01-1.18447E-14 8.01325E-15
 -1      2186-1.37708E+01-9.69646E+00-7.04195E+00-1.29208E+01-2.32046E-14 3.93708E-15
 -1      2187-1.66028E+01-1.21533E+01-8.62952E+00-1.60567E+01 8.34971E-15-1.02731E-14
 -1      2188-1.51989E+01-1.30794E+01-8.48614E+00-1.60965E+01-1.13903E-14 1.09078E-14
 -1      2189-1.78000E+01-1.62813E+01-1.02283E+01-1.96823E+01-3.13273E-14 7.63904E-15
 -1      2190-1.60108E+01-1.73000E+01-9.99709E+00-1.94721E+01 5.84321E-14 7.72613E-15
 -1      2191-1.81099E+01-2.13710E+01-1.18498E+01-2.33938E+01 6.48120E-14-8.28228E-15
 -1      2192-1.59933E+01-2.24546E+01-1.15397E+01-2.28760E+01 1.26736E-14 1.24059E-15
 -1      2193-1.73090E+01-2.74715E+01-1.34416E+01-2.69289E+01-3.21628E-14 2.23697E-14
 -1      2194-1.49494E+01-2.85714E+01-1.30634E+01-2.60542E+01 2.82610E-14 1.50705E-14
 -1      2195-1.52446E+01-3.45230E+01-1.49399E+01-2.99421E+01-3.33256E-14-6.11448E-15
 -1      2196-1.27451E+01-3.55662E+01-1.45026E+01-2.86789E+01-8.72613E-14-3.53810E-15
 -1      2197-1.18931E+01-4.23118E+01-1.62736E+01-3.20419E+01-3.81550E-14 4.40941E-15
 -1      2198-9.36244E+00-4.32025E+01-1.57811E+01-3.03853E+01 6.16112E-14 2.67683E-15
 -1      2199-7.40519E+00-5.04503E+01-1.73713E+01-3.28615E+01-2.13417E-14-2.10904E-14
 -1      2200-4.94345E+00-5.10808E+01-1.68213E+01-3.08402E+01 4.41990E-14-1.32640E-15
 -1      2201-2.11183E+00-5.84021E+01-1.81713E+01-3.21511E+01 1.85447E-15 5.24128E-15
 -1      2202 1.99574E-01-5.86744E+01-1.75588E+01-2.98295E+01-1.21741E-14 9.87381E-15
 -1      2203 3.52421E+00-6.55667E+01-1.86320E+01-2.98619E+01 4.22478E-14 2.10360E-15
 -1      2204 5.62485E+00-6.54192E+01-1.79568E+01-2.73348E+01 1.72791E-14-2.05613E-16
 -1      2205 9.00254E+00-7.14065E+01-1.87422E+01-2.61844E+01 3.12185E-14 8.79197E-15
 -1      2206 1.08500E+01-7.08369E+01-1.80162E+01-2.35674E+01-1.61379E-14 7.56865E-16
 -1      2207 1.38928E+01-7.55752E+01-1.85269E+01-2.15189E+01 4.37746E-14-1.07295E-14
 -1      2208 1.54596E+01-7.46486E+01-1.77781E+01-1.89358E+01 1.07105E-14 1.40900E-14
 -1      2209 1.79150E+01-7.79972E+01-1.80475E+01-1.63884E+01 3.67062E-14-1.50337E-14
 -1      2210 1.91886E+01-7.68369E+01-1.73166E+01-1.39607E+01 3.64036E-14 1.63471E-15
 -1      2211 2.09666E+01-7.88721E+01-1.73947E+01-1.13313E+01-2.45976E-14-5.72258E-16
 -1      2212 2.19512E+01-7.76383E+01-1.67286E+01-9.17356E+00 6.63148E-14-5.05182E-15
 -1      2213 2.30972E+01-7.86139E+01-1.66780E+01-6.81777E+00-2.67476E-14 7.47447E-15
 -1      2214 2.38123E+01-7.74784E+01-1.61223E+01-5.04210E+00-2.18978E-14 6.20923E-15
 -1      2215 2.44529E+01-7.77568E+01-1.60138E+01-3.21938E+00-1.53549E-14-9.27157E-15
 -1      2216 2.49200E+01-7.68845E+01-1.56117E+01-1.94837E+00-2.40263E-14 2.32346E-16
 -1      2217 2.52370E+01-7.68557E+01-1.55080E+01-8.22243E-01 5.89400E-15-2.50505E-15
 -1      2218 2.54004E+01-7.64022E+01-1.53228E+01-2.72396E-01 7.25165E-16-7.69873E-16
 -1      2219-1.56540E-02-4.36826E-02-1.78012E-02-1.64810E-02-6.57764E-14-8.29844E-15
 -1      2220-7.49886E-01-2.49787E-01-2.99905E-01-4.59437E-01 1.00415E-14 6.27234E-15
 -1      2221-1.77133E+00-7.18922E-01-7.47093E-01-1.13829E+00 5.07209E-14-4.47184E-15
 -1      2222-2.40935E+00-1.01534E+00-1.02744E+00-1.61536E+00-2.43356E-14 8.75425E-15
 -1      2223-3.63958E+00-1.58139E+00-1.56637E+00-2.46983E+00-5.71814E-14-3.32901E-15
 -1      2224-4.06025E+00-1.96445E+00-1.80751E+00-2.92722E+00 4.64151E-14-6.11756E-15
 -1      2225-5.57879E+00-2.65674E+00-2.47086E+00-4.03790E+00-3.25749E-14 2.83143E-15
 -1      2226-5.74503E+00-3.13240E+00-2.66346E+00-4.46681E+00 3.53512E-14-3.16107E-15
 -1      2227-7.54636E+00-4.02309E+00-3.47123E+00-5.87588E+00-3.43052E-14 8.60783E-15
 -1      2228-7.42433E+00-4.58899E+00-3.60443E+00-6.25807E+00 1.50803E-14-8.33695E-15
 -1      2229-9.47189E+00-5.75594E+00-4.56906E+00-8.00953E+00-9.67674E-15-7.55142E-15
 -1      2230-9.03479E+00-6.41473E+00-4.63560E+00-8.31916E+00-2.80218E-14-1.51353E-14
 -1      2231-1.12578E+01-7.94861E+00-5.76309E+00-1.04513E+01-4.01742E-14-8.95929E-16
 -1      2232-1.04870E+01-8.70397E+00-5.75846E+00-1.06555E+01 4.42504E-15-7.74546E-15
 -1      2233-1.27745E+01-1.07095E+01-7.04701E+00-1.31900E+01 2.13082E-14-2.44818E-14
 -1      2234-1.16628E+01-1.15634E+01-6.96964E+00-1.32494E+01-2.59752E-15-1.73975E-14
 -1      2235-1.38597E+01-1.41555E+01-8.40720E+00-1.61771E+01 2.91756E-14 9.42644E-15
 -1      2236-1.24158E+01-1.51055E+01-8.25901E+00-1.60470E+01 4.03224E-14 7.18329E-15
 -1      2237-1.43248E+01-1.83982E+01-9.82067E+00-1.93105E+01 1.90801E-15 2.36786E-14
 -1      2238-1.25778E+01-1.94341E+01-9.60727E+00-1.89434E+01 4.05308E-14 5.34558E-15
 -1      2239-1.39734E+01-2.35206E+01-1.12534E+01-2.24196E+01 3.96941E-14-2.47106E-15
 -1      2240-1.19747E+01-2.46199E+01-1.09834E+01-2.17692E+01 2.83903E-14-9.49260E-15
 -1      2241-1.26335E+01-2.95429E+01-1.26598E+01-2.52582E+01-2.00752E-14 3.47397E-14
 -1      2242-1.04552E+01-3.06659E+01-1.23430E+01-2.42854E+01 1.72110E-14-3.48205E-15
 -1      2243-1.02030E+01-3.63818E+01-1.39844E+01-2.75147E+01 2.74603E-14 9.10397E-15
 -1      2244-7.93128E+00-3.74674E+01-1.36283E+01-2.61950E+01-8.25668E-15 2.25916E-14
 -1      2245-6.69875E+00-4.38141E+01-1.51650E+01-2.88493E+01-4.41607E-15 3.92728E-15
 -1      2246-4.42343E+00-4.47803E+01-1.47719E+01-2.71805E+01-1.29887E-14 1.70769E-14
 -1      2247-2.29158E+00-5.14629E+01-1.61399E+01-2.89593E+01 1.43546E-14-1.27325E-15
 -1      2248-9.48258E-02-5.22151E+01-1.57061E+01-2.69679E+01-6.19281E-15-1.38850E-14
 -1      2249 2.69500E+00-5.88272E+01-1.68555E+01-2.76623E+01 1.78015E-14 1.29199E-14
 -1      2250 4.74589E+00-5.92770E+01-1.63747E+01-2.54070E+01-6.04370E-14-7.38770E-15
 -1      2251 7.83401E+00-6.53646E+01-1.72771E+01-2.49682E+01 8.85622E-14 5.95758E-15
 -1      2252 9.68805E+00-6.54546E+01-1.67474E+01-2.25384E+01-8.81863E-15-1.42432E-14
 -1      2253 1.26833E+01-7.06106E+01-1.73978E+01-2.11083E+01 9.03107E-15-8.74755E-15
 -1      2254 1.43035E+01-7.03371E+01-1.68292E+01-1.86177E+01 9.98301E-15-6.06445E-15
 -1      2255 1.68821E+01-7.42952E+01-1.72448E+01-1.65018E+01-2.07999E-14 2.21748E-14
 -1      2256 1.82437E+01-7.37187E+01-1.66630E+01-1.40801E+01-1.74098E-14 1.62650E-14
 -1      2257 2.02177E+01-7.64120E+01-1.68800E+01-1.16728E+01-8.01172E-15 2.17177E-14
 -1      2258 2.13094E+01-7.56501E+01-1.63236E+01-9.45827E+00 5.03314E-14-1.86000E-14
 -1      2259 2.26411E+01-7.72143E+01-1.63941E+01-7.15402E+00-1.97924E-14 1.25261E-15
 -1      2260 2.34647E+01-7.64198E+01-1.59084E+01-5.29232E+00 1.37136E-14-3.67264E-15
 -1      2261 2.42358E+01-7.71449E+01-1.58951E+01-3.42171E+00-2.44131E-15-7.35927E-16
 -1      2262 2.47921E+01-7.64805E+01-1.55287E+01-2.07397E+00 1.11927E-14 1.14717E-16
 -1      2263 2.51787E+01-7.67301E+01-1.54878E+01-8.65477E-01-2.04638E-15 3.06753E-15
 -1      2264 2.53884E+01-7.63460E+01-1.53095E+01-3.01116E-01 2.24699E-14-2.91998E-16
 -1      2265-1.95635E-02-4.40163E-02-1.90741E-02-1.64794E-02 1.50699E-14-4.35489E-15
 -1      2266-5.54987E-01-2.52363E-01-2.42207E-01-3.98119E-01-3.71628E-14-5.24019E-16
 -1      2267-1.32512E+00-7.10925E-01-6.10826E-01-9.77384E-01-3.29021E-14 7.41763E-15
 -1      2268-1.80094E+00-1.00753E+00-8.42562E-01-1.39061E+00-6.48293E-15-1.11623E-14
 -1      2269-2.71618E+00-1.54045E+00-1.27704E+00-2.10029E+00 2.34101E-15-9.46813E-15
 -1      2270-3.03041E+00-1.91404E+00-1.48340E+00-2.48823E+00 6.59307E-15 1.38361E-16
 -1      2271-4.16257E+00-2.54821E+00-2.01336E+00-3.40594E+00-3.34285E-15 1.76320E-14
 -1      2272-4.28383E+00-3.00596E+00-2.18709E+00-3.76281E+00-4.31627E-14 7.13737E-16
 -1      2273-5.63744E+00-3.79777E+00-2.83083E+00-4.91920E+00-2.04947E-14-5.08548E-15
 -1      2274-5.53675E+00-4.33713E+00-2.96246E+00-5.23283E+00 7.70526E-15 2.72062E-14
 -1      2275-7.09339E+00-5.34776E+00-3.73282E+00-6.66191E+00 1.07049E-14 1.25453E-15
 -1      2276-6.74674E+00-5.97082E+00-3.81577E+00-6.91413E+00-1.12024E-14 1.68837E-14
 -1      2277-8.46438E+00-7.27109E+00-4.72142E+00-8.64829E+00-3.27618E-14 9.54657E-15
 -1      2278-7.85258E+00-7.98183E+00-4.75113E+00-8.81547E+00-8.26071E-15-8.75126E-15
 -1      2279-9.66088E+00-9.65442E+00-5.79580E+00-1.08786E+01 4.89582E-14-1.14808E-14
 -1      2280-8.77141E+00-1.04569E+01-5.76971E+00-1.09317E+01-1.43494E-14 1.46998E-14
 -1      2281-1.05670E+01-1.25955E+01-6.95056E+00-1.33296E+01 5.15450E-15 3.35815E-15
 -1      2282-9.39707E+00-1.34922E+01-6.86858E+00-1.32349E+01-6.50850E-15-2.61042E-14
 -1      2283-1.10413E+01-1.61960E+01-8.17381E+00-1.59429E+01-1.80918E-14 4.12657E-14
 -1      2284-9.60147E+00-1.71860E+01-8.03882E+00-1.56623E+01 3.58701E-14-3.29312E-14
 -1      2285-1.09241E+01-2.05482E+01-9.44534E+00-1.86108E+01-6.66634E-15-1.20047E-15
 -1      2286-9.24172E+00-2.16243E+01-9.26340E+00-1.81046E+01-1.03972E-14 6.47291E-15
 -1      2287-1.00549E+01-2.57124E+01-1.07352E+01-2.11651E+01-3.07341E-14 1.06596E-14
 -1      2288-8.17588E+00-2.68572E+01-1.05148E+01-2.03948E+01-2.46287E-15 4.92504E-15
 -1      2289-8.30274E+00-3.16856E+01-1.20031E+01-2.33737E+01 2.46368E-15-3.65229E-14
 -1      2290-6.28960E+00-3.28669E+01-1.17534E+01-2.23072E+01 5.84064E-14 2.48549E-14
 -1      2291-5.60602E+00-3.83653E+01-1.31999E+01-2.49532E+01 2.59430E-14 4.05019E-15
 -1      2292-3.53258E+00-3.95312E+01-1.29274E+01-2.35709E+01 6.89591E-14-2.16300E-14
 -1      2293-2.01489E+00-4.55188E+01-1.42707E+01-2.56069E+01-1.73252E-15-7.51069E-15
 -1      2294 4.25953E-02-4.65971E+01-1.39767E+01-2.39089E+01 3.78506E-15 2.66838E-14
 -1      2295 2.28195E+00-5.27757E+01-1.51609E+01-2.50876E+01-8.69223E-14-9.47486E-15
 -1      2296 4.25377E+00-5.36803E+01-1.48406E+01-2.31007E+01 4.87261E-14-3.94032E-15
 -1      2297 6.96466E+00-5.96618E+01-1.58242E+01-2.32743E+01 5.28099E-14-2.76116E-14
 -1      2298 8.79342E+00-6.03101E+01-1.54699E+01-2.10573E+01-1.51374E-14-1.01882E-14
 -1      2299 1.16341E+01-6.56827E+01-1.62317E+01-2.02365E+01-6.13268E-14 1.46497E-14
 -1      2300 1.32756E+01-6.60190E+01-1.58400E+01-1.78819E+01 6.84171E-15 1.86061E-14
 -1      2301 1.58970E+01-7.04385E+01-1.63814E+01-1.62548E+01-9.44250E-17 1.48098E-14
 -1      2302 1.73186E+01-7.04581E+01-1.59606E+01-1.38865E+01 1.67657E-14-2.76329E-15
 -1      2303 1.94539E+01-7.37327E+01-1.63040E+01-1.17839E+01-8.29545E-14 3.20884E-15
 -1      2304 2.06332E+01-7.34923E+01-1.58779E+01-9.55262E+00-2.24709E-14 1.39243E-14
 -1      2305 2.21534E+01-7.56286E+01-1.60639E+01-7.37242E+00 1.04326E-14 3.56041E-15
 -1      2306 2.30765E+01-7.52376E+01-1.56696E+01-5.45220E+00 8.49677E-15-2.85410E-15
 -1      2307 2.39970E+01-7.64257E+01-1.57505E+01-3.57906E+00 2.36928E-14 4.89747E-15
 -1      2308 2.46419E+01-7.60228E+01-1.54361E+01-2.17056E+00 4.68137E-15-4.85397E-15
 -1      2309 2.51111E+01-7.65682E+01-1.54594E+01-8.98047E-01-2.40769E-14-1.81448E-16
 -1      2310 2.53761E+01-7.62870E+01-1.52955E+01-3.25545E-01-3.85607E-14-7.50722E-16
 -1      2311-2.24427E-02-4.52956E-02-2.03216E-02-1.66571E-02-2.15275E-14-3.04949E-14
 -1      2312-4.02884E-01-2.54442E-01-1.97199E-01-3.42512E-01 1.39486E-14-2.34446E-14
 -1      2313-9.79522E-01-7.05712E-01-5.05578E-01-8.35895E-01 2.65193E-14 1.77425E-14
 -1      2314-1.32466E+00-1.00516E+00-6.98963E-01-1.19283E+00-4.38252E-15 1.10828E-15
 -1      2315-2.00017E+00-1.51010E+00-1.05312E+00-1.78128E+00-8.02589E-15-1.38568E-14
 -1      2316-2.22601E+00-1.87905E+00-1.23157E+00-2.10910E+00-3.71096E-15-2.29852E-14
 -1      2317-3.06098E+00-2.46720E+00-1.65854E+00-2.86944E+00 7.43981E-15 2.12789E-14
 -1      2318-3.14064E+00-2.91420E+00-1.81656E+00-3.16359E+00 2.56259E-14-2.23431E-14
 -1      2319-4.14541E+00-3.62982E+00-2.33275E+00-4.11826E+00 2.04896E-15-3.12286E-14
 -1      2320-4.05371E+00-4.15266E+00-2.46211E+00-4.37049E+00-3.32393E-14 1.59960E-14
 -1      2321-5.22067E+00-5.04462E+00-3.07991E+00-5.54555E+00 2.04952E-14-1.26313E-16
 -1      2322-4.93646E+00-5.64501E+00-3.17479E+00-5.74282E+00 2.04228E-14 7.95117E-15
 -1      2323-6.24137E+00-6.76945E+00-3.90378E+00-7.16474E+00 2.75228E-14 1.99746E-15
 -1      2324-5.74656E+00-7.45131E+00-3.95992E+00-7.28967E+00-2.00498E-14-8.75755E-15
 -1      2325-7.14537E+00-8.87405E+00-4.80666E+00-8.98093E+00-2.32482E-14-6.36661E-15
 -1      2326-6.42563E+00-9.64225E+00-4.82122E+00-9.01186E+00-1.37776E-14-1.78975E-14
 -1      2327-7.85041E+00-1.14393E+01-5.78818E+00-1.09847E+01 5.15059E-15 1.75363E-14
 -1      2328-6.89707E+00-1.22987E+01-5.75999E+00-1.08958E+01-7.93599E-15 2.20462E-14
 -1      2329-8.25249E+00-1.45542E+01-6.84383E+00-1.31436E+01-1.93254E-15 2.17564E-14
 -1      2330-7.06519E+00-1.55084E+01-6.77391E+00-1.29050E+01 2.14083E-14 8.40512E-15
 -1      2331-8.22761E+00-1.83081E+01-7.96331E+00-1.53914E+01 9.88906E-15-2.20903E-14
 -1      2332-6.81750E+00-1.93584E+01-7.85535E+00-1.49704E+01 2.08027E-14-3.66943E-14
 -1      2333-7.63982E+00-2.27775E+01-9.12879E+00-1.76168E+01-2.67475E-14 2.04889E-14
 -1      2334-6.03231E+00-2.39202E+01-8.98933E+00-1.69790E+01-7.85279E-16-3.55035E-15
 -1      2335-6.35834E+00-2.80042E+01-1.03136E+01-1.96542E+01-1.71023E-14 4.21365E-15
 -1      2336-4.59448E+00-2.92270E+01-1.01513E+01-1.87669E+01 3.49151E-15 1.73494E-14
 -1      2337-4.28565E+00-3.39657E+01-1.14818E+01-2.12835E+01 4.12926E-15-1.56649E-14
 -1      2338-2.42069E+00-3.52426E+01-1.13054E+01-2.01198E+01-3.59192E-14-9.56153E-15
 -1      2339-1.39422E+00-4.05423E+01-1.25892E+01-2.22460E+01-3.20167E-14-1.56435E-14
 -1      2340 5.07164E-01-4.18287E+01-1.24047E+01-2.07904E+01 2.78747E-14-2.13438E-16
 -1      2341 2.23685E+00-4.74910E+01-1.35865E+01-2.22833E+01 4.39536E-14 7.01174E-15
 -1      2342 4.10802E+00-4.87212E+01-1.33942E+01-2.05395E+01-9.75403E-15-1.07424E-14
 -1      2343 6.40147E+00-5.44436E+01-1.44252E+01-2.11998E+01 3.82142E-14-1.02027E-14
 -1      2344 8.18150E+00-5.55362E+01-1.42190E+01-1.91992E+01 6.93170E-14-5.52860E-15
 -1      2345 1.07803E+01-6.09459E+01-1.50645E+01-1.89369E+01-3.29769E-14-7.13091E-15
 -1      2346 1.24188E+01-6.18196E+01-1.48351E+01-1.67459E+01 1.06326E-14 3.29909E-15
 -1      2347 1.49962E+01-6.65439E+01-1.54813E+01-1.56308E+01 3.37977E-14 2.47775E-14
 -1      2348 1.64541E+01-6.71412E+01-1.52232E+01-1.33568E+01 1.41347E-14 1.53597E-14
 -1      2349 1.86990E+01-7.08967E+01-1.56782E+01-1.16270E+01-5.99068E-15-9.02330E-15
 -1      2350 1.99459E+01-7.12073E+01-1.53974E+01-9.42052E+00-1.53678E-14 4.38383E-15
 -1      2351 2.16450E+01-7.38761E+01-1.56897E+01-7.43931E+00-7.28587E-15 1.18807E-14
 -1      2352 2.26546E+01-7.39453E+01-1.54077E+01-5.49372E+00 4.92690E-15 8.18638E-15
 -1      2353 2.37408E+01-7.55976E+01-1.55785E+01-3.67324E+00-8.65980E-15-7.19485E-15
 -1      2354 2.44691E+01-7.55139E+01-1.53350E+01-2.22539E+00 1.78627E-14 3.17072E-15
 -1      2355 2.50355E+01-7.63649E+01-1.54210E+01-9.17470E-01 1.35785E-14 3.06045E-15
 -1      2356 2.53626E+01-7.62261E+01-1.52812E+01-3.41598E-01 4.44332E-14-2.10602E-15
 -1      2357-2.44200E-02-4.76672E-02-2.16262E-02-1.69120E-02 2.58417E-16 2.16002E-16
 -1      2358-2.83704E-01-2.55874E-01-1.61874E-01-2.91368E-01-4.45440E-15 2.19878E-14
 -1      2359-7.10831E-01-7.02905E-01-4.24126E-01-7.09455E-01 1.01818E-14 1.74724E-15
 -1      2360-9.49838E-01-1.00751E+00-5.87216E-01-1.01507E+00-1.12206E-14-1.41772E-14
 -1      2361-1.44327E+00-1.48789E+00-8.79375E-01-1.50054E+00 4.36258E-15 1.99965E-14
 -1      2362-1.59565E+00-1.85620E+00-1.03559E+00-1.77444E+00-6.79107E-15 5.88740E-15
 -1      2363-2.20200E+00-2.40667E+00-1.38266E+00-2.40400E+00 7.41838E-15 7.80590E-15
 -1      2364-2.24464E+00-2.84851E+00-1.52802E+00-2.64166E+00-2.83420E-15-2.53842E-15
 -1      2365-2.97755E+00-3.50384E+00-1.94454E+00-3.43218E+00-3.01658E-15 3.67940E-15
 -1      2366-2.88813E+00-4.01776E+00-2.07191E+00-3.62779E+00-8.09770E-15-7.91566E-15
 -1      2367-3.74647E+00-4.81750E+00-2.56942E+00-4.59918E+00-8.40275E-15 1.44180E-14
 -1      2368-3.50635E+00-5.40508E+00-2.67367E+00-4.74313E+00-1.67345E-14 4.83250E-14
 -1      2369-4.47690E+00-6.39442E+00-3.26177E+00-5.91664E+00 2.60511E-14-1.55264E-14
 -1      2370-4.06961E+00-7.05954E+00-3.33914E+00-5.99583E+00-8.98407E-15 2.01697E-15
 -1      2371-5.12513E+00-8.29138E+00-4.02554E+00-7.39118E+00-1.86507E-14-9.77807E-15
 -1      2372-4.53640E+00-9.03926E+00-4.07331E+00-7.38910E+00-1.02772E-14 1.67003E-14
 -1      2373-5.63262E+00-1.05755E+01-4.86331E+00-9.02045E+00 1.43993E-14 1.97681E-14
 -1      2374-4.85127E+00-1.14120E+01-4.87990E+00-8.91709E+00-1.78580E-14-2.04015E-14
 -1      2375-5.92362E+00-1.33229E+01-5.77527E+00-1.07872E+01 1.32772E-14-1.13666E-14
 -1      2376-4.94328E+00-1.42543E+01-5.76060E+00-1.05591E+01 6.27523E-15-2.89587E-14
 -1      2377-5.90430E+00-1.66156E+01-6.75785E+00-1.26515E+01-1.95632E-14 2.53987E-15
 -1      2378-4.72585E+00-1.76475E+01-6.71388E+00-1.22722E+01 3.85526E-14 1.80139E-14
 -1      2379-5.46547E+00-2.05332E+01-7.80223E+00-1.45412E+01-2.32701E-14 3.67288E-14
 -1      2380-4.09975E+00-2.16695E+01-7.73343E+00-1.39815E+01-1.72552E-14-3.10498E-14
 -1      2381-4.49103E+00-2.51393E+01-8.89269E+00-1.63422E+01-5.51159E-14-3.67730E-14
 -1      2382-2.96133E+00-2.63803E+01-8.80613E+00-1.55722E+01 6.50168E-15-2.08980E-14
 -1      2383-2.87500E+00-3.04599E+01-1.00053E+01-1.78916E+01 3.46430E-14 1.64381E-14
 -1      2384-1.21830E+00-3.17985E+01-9.90993E+00-1.68833E+01 6.96131E-15-2.48604E-14
 -1      2385-5.48441E-01-3.64554E+01-1.11076E+01-1.89807E+01-3.74041E-14-2.29222E-14
 -1      2386 1.18573E+00-3.78712E+01-1.10121E+01-1.77117E+01-4.06458E-14 3.26704E-14
 -1      2387 2.48638E+00-4.29895E+01-1.21592E+01-1.93734E+01-1.66478E-14-1.90540E-14
 -1      2388 4.24005E+00-4.44431E+01-1.20693E+01-1.78336E+01-1.24824E-14-1.00055E-14
 -1      2389 6.12348E+00-4.98069E+01-1.31154E+01-1.88487E+01 6.11637E-15 1.87392E-14
 -1      2390 7.83683E+00-5.12359E+01-1.30303E+01-1.70487E+01-1.13944E-14 2.96652E-15
 -1      2391 1.01387E+01-5.65367E+01-1.39321E+01-1.72649E+01-1.81754E-14-6.59163E-15
 -1      2392 1.17568E+01-5.78592E+01-1.38437E+01-1.52472E+01 3.49972E-14 3.23651E-14
 -1      2393 1.42098E+01-6.27376E+01-1.45734E+01-1.46336E+01 2.64691E-14-1.26432E-14
 -1      2394 1.56868E+01-6.38667E+01-1.44693E+01-1.24839E+01-2.58068E-14-6.26290E-16
 -1      2395 1.79774E+01-6.79876E+01-1.50204E+01-1.11737E+01-3.90521E-14 1.01627E-14
 -1      2396 1.92756E+01-6.88541E+01-1.48913E+01-9.03193E+00-1.78912E-14 7.49852E-16
 -1      2397 2.11289E+01-7.19937E+01-1.52788E+01-7.32115E+00 3.24818E-14 1.99998E-14
 -1      2398 2.22111E+01-7.25674E+01-1.51266E+01-5.38815E+00 1.37650E-14-2.36894E-15
 -1      2399 2.34727E+01-7.46680E+01-1.53795E+01-3.68331E+00-6.93443E-15-4.49459E-15
 -1      2400 2.42750E+01-7.49610E+01-1.52271E+01-2.22386E+00-4.07621E-15 1.06871E-14
 -1      2401 2.49552E+01-7.61178E+01-1.53708E+01-9.20885E-01-4.24773E-14-5.98341E-15
 -1      2402 2.53453E+01-7.61637E+01-1.52676E+01-3.44514E-01 4.37574E-14 1.64338E-15
 -1      2403-2.56416E-02-5.13210E-02-2.30889E-02-1.70780E-02-1.25008E-14 9.62513E-15
 -1      2404-1.90205E-01-2.56455E-01-1.33999E-01-2.43671E-01 2.86786E-16-1.55149E-14
 -1      2405-5.01739E-01-7.02305E-01-3.61217E-01-5.94535E-01 4.54390E-15 5.79724E-15
 -1      2406-6.53924E-01-1.01409E+00-5.00412E-01-8.51559E-01 1.02352E-14 8.42319E-15
 -1      2407-1.01007E+00-1.47215E+00-7.44681E-01-1.24869E+00 4.97171E-16-5.70238E-15
 -1      2408-1.10138E+00-1.84328E+00-8.83423E-01-1.47223E+00-2.49353E-15 1.49081E-14
 -1      2409-1.53235E+00-2.36177E+00-1.16828E+00-1.99147E+00 4.69743E-16 2.50246E-14
 -1      2410-1.54309E+00-2.80311E+00-1.30391E+00-2.17617E+00 3.98032E-15 2.44639E-15
 -1      2411-2.06434E+00-3.40935E+00-1.64220E+00-2.83092E+00 9.12801E-15 6.34615E-15
 -1      2412-1.97429E+00-3.92042E+00-1.76852E+00-2.97235E+00 6.49879E-15-1.00312E-14
 -1      2413-2.58859E+00-4.64674E+00-2.17076E+00-3.77789E+00-5.36824E-15-2.56323E-14
 -1      2414-2.38113E+00-5.22933E+00-2.28332E+00-3.86869E+00-3.54741E-15 2.94278E-14
 -1      2415-3.08209E+00-6.11258E+00-2.75867E+00-4.84195E+00-6.35971E-15-9.67316E-15
 -1      2416-2.74238E+00-6.77064E+00-2.85419E+00-4.87195E+00 7.82554E-17 6.77441E-15
 -1      2417-3.51346E+00-7.85382E+00-3.41061E+00-6.02966E+00 1.69032E-14-7.05031E-15
 -1      2418-3.02807E+00-8.59288E+00-3.48673E+00-5.98591E+00-7.05732E-15-3.42190E-14
 -1      2419-3.84060E+00-9.92656E+00-4.13079E+00-7.34194E+00-1.46032E-14 3.89612E-15
 -1      2420-3.19770E+00-1.07532E+01-4.18595E+00-7.20870E+00 3.68666E-15-7.85385E-15
 -1      2421-4.00825E+00-1.23960E+01-4.92222E+00-8.77023E+00 2.48471E-14 1.68527E-14
 -1      2422-3.19856E+00-1.33178E+01-4.95589E+00-8.52886E+00-1.57555E-15 7.17039E-14
 -1      2423-3.94627E+00-1.53351E+01-5.78577E+00-1.02909E+01 9.59959E-15 2.43508E-14
 -1      2424-2.96463E+00-1.63601E+01-5.79882E+00-9.91992E+00-3.63669E-14 5.58142E-15
 -1      2425-3.56960E+00-1.88203E+01-6.71891E+00-1.18579E+01 1.37015E-14 7.51792E-15
 -1      2426-2.41710E+00-1.99568E+01-6.71418E+00-1.13334E+01 3.50030E-15 1.66408E-14
 -1      2427-2.78155E+00-2.29236E+01-7.71424E+00-1.33944E+01-2.12509E-14-8.16626E-15
 -1      2428-1.46802E+00-2.41793E+01-7.69697E+00-1.26906E+01-9.48451E-15 2.28057E-15
 -1      2429-1.48283E+00-2.76980E+01-8.75795E+00-1.47845E+01-1.53939E-15 3.49105E-14
 -1      2430-2.91805E-02-2.90776E+01-8.73585E+00-1.38755E+01-3.49716E-15 2.56771E-15
 -1      2431 4.11270E-01-3.31560E+01-9.82843E+00-1.58689E+01-7.28863E-15-2.41112E-14
 -1      2432 1.97177E+00-3.46575E+01-9.81088E+00-1.47311E+01 1.98526E-14 4.02025E-15
 -1      2433 2.94452E+00-3.92418E+01-1.08958E+01-1.64502E+01 6.28182E-15 6.63548E-15
 -1      2434 4.56696E+00-4.08498E+01-1.08917E+01-1.50674E+01 1.37237E-14-2.08329E-14
 -1      2435 6.08712E+00-4.58011E+01-1.19227E+01-1.63163E+01-1.09774E-14-8.36595E-15
 -1      2436 7.71842E+00-4.74789E+01-1.19370E+01-1.46870E+01-1.05344E-14-1.89547E-14
 -1      2437 9.70643E+00-5.25622E+01-1.28676E+01-1.52872E+01-2.22563E-14 1.96299E-14
 -1      2438 1.12911E+01-5.42454E+01-1.28975E+01-1.34358E+01 4.15332E-15-4.57503E-15
 -1      2439 1.35578E+01-5.91439E+01-1.36891E+01-1.32846E+01 1.65479E-14 2.60980E-14
 -1      2440 1.50436E+01-6.07406E+01-1.37229E+01-1.12761E+01-8.03012E-15-1.76043E-14
 -1      2441 1.73115E+01-6.51057E+01-1.43541E+01-1.04077E+01-5.07804E-15-2.91262E-14
 -1      2442 1.86513E+01-6.65079E+01-1.43735E+01-8.36555E+00 1.62824E-14 2.22883E-14
 -1      2443 2.06193E+01-7.00383E+01-1.48440E+01-6.98723E+00 2.60735E-14 1.97754E-14
 -1      2444 2.17632E+01-7.11419E+01-1.48326E+01-5.10813E+00 1.12309E-14-7.05008E-15
 -1      2445 2.31996E+01-7.36561E+01-1.51573E+01-3.58644E+00 2.04322E-14 5.29530E-15
 -1      2446 2.40643E+01-7.43768E+01-1.51147E+01-2.15022E+00 7.88853E-15 1.22723E-14
 -1      2447 2.48754E+01-7.58293E+01-1.53080E+01-9.04413E-01 2.57908E-14-4.46618E-15
 -1      2448 2.53205E+01-7.60989E+01-1.52556E+01-3.29829E-01 3.14535E-15-3.94994E-16
 -1      2449-2.61998E-02-5.65055E-02-2.48117E-02-1.69221E-02-3.30216E-15 2.91781E-15
 -1      2450-1.17067E-01-2.55934E-01-1.11901E-01-1.98564E-01-4.15782E-15 6.39464E-15
 -1      2451-3.39627E-01-7.03853E-01-3.13047E-01-4.88122E-01-3.36512E-16 2.06065E-14
 -1      2452-4.20471E-01-1.02458E+00-4.33521E-01-6.97183E-01-5.03983E-15-4.25252E-14
 -1      2453-6.74564E-01-1.46178E+00-6.40917E-01-1.01825E+00-5.52527E-15-4.26509E-15
 -1      2454-7.15307E-01-1.83886E+00-7.66269E-01-1.19246E+00 3.64253E-15 2.62216E-14
 -1      2455-1.01267E+00-2.32922E+00-1.00260E+00-1.61778E+00-2.60820E-15 1.10663E-14
 -1      2456-9.97088E-01-2.77409E+00-1.13140E+00-1.75047E+00 2.63704E-15-1.35469E-14
 -1      2457-1.35388E+00-3.33914E+00-1.40797E+00-2.29155E+00 3.36284E-16-2.62360E-14
 -1      2458-1.26319E+00-3.85255E+00-1.53480E+00-2.37879E+00-2.71479E-15 2.06468E-14
 -1      2459-1.68463E+00-4.51888E+00-1.86117E+00-3.04766E+00-2.07550E-15-3.11156E-14
 -1      2460-1.50373E+00-5.10302E+00-1.98216E+00-3.08348E+00 1.88200E-15-1.17286E-14
 -1      2461-1.98768E+00-5.90105E+00-2.36681E+00-3.89363E+00-1.47443E-15 1.32182E-14
 -1      2462-1.70315E+00-6.56019E+00-2.47922E+00-3.86981E+00-1.11286E-14-3.65550E-14
 -1      2463-2.23990E+00-7.52526E+00-2.92986E+00-4.83520E+00-1.24270E-14 1.12345E-14
 -1      2464-1.83933E+00-8.26532E+00-3.03173E+00-4.74127E+00-3.92950E-15-3.36239E-14
 -1      2465-2.41037E+00-9.43906E+00-3.55530E+00-5.87460E+00-9.43192E-16 5.86765E-14
 -1      2466-1.88219E+00-1.02673E+01-3.64537E+00-5.69783E+00 1.42939E-14-2.52506E-14
 -1      2467-2.45835E+00-1.16985E+01-4.24777E+00-7.00798E+00 2.17027E-15 2.64202E-14
 -1      2468-1.79215E+00-1.26236E+01-4.32547E+00-6.73330E+00-1.77368E-15-4.21576E-14
 -1      2469-2.33140E+00-1.43681E+01-5.01087E+00-8.22160E+00-4.52396E-15-2.38813E-14
 -1      2470-1.51873E+00-1.53997E+01-5.07660E+00-7.83162E+00 7.59117E-15-1.84712E-14
 -1      2471-1.96413E+00-1.75186E+01-5.84630E+00-9.48661E+00 1.48911E-14 6.03964E-14
 -1      2472-9.99949E-01-1.86677E+01-5.90184E+00-8.96175E+00-4.06810E-15 2.39442E-14
 -1      2473-1.27882E+00-2.12232E+01-6.75269E+00-1.07523E+01 1.34739E-14 1.27178E-14
 -1      2474-1.63366E-01-2.25018E+01-6.80172E+00-1.00712E+01 4.57071E-15-5.14913E-16
 -1      2475-1.89256E-01-2.55480E+01-7.72407E+00-1.19386E+01 1.51633E-14-3.84762E-14
 -1      2476 1.06954E+00-2.69682E+01-7.77261E+00-1.10791E+01-2.52792E-15 1.22853E-14
 -1      2477 1.38952E+00-3.05374E+01-8.74832E+00-1.29293E+01 2.28446E-14 1.41369E-14
 -1      2478 2.77375E+00-3.21090E+01-8.80473E+00-1.18702E+01-4.99590E-15 1.35778E-14
 -1      2479 3.52360E+00-3.61913E+01-9.80567E+00-1.35701E+01-1.30454E-14 1.72652E-14
 -1      2480 5.00374E+00-3.79173E+01-9.87970E+00-1.22947E+01 1.00590E-15 3.45136E-14
 -1      2481 6.23362E+00-4.24366E+01-1.08680E+01-1.36779E+01 1.71302E-14 1.24678E-14
 -1      2482 7.76855E+00-4.43046E+01-1.09683E+01-1.21802E+01 1.15581E-14 8.77089E-15
 -1      2483 9.46259E+00-4.90970E+01-1.18996E+01-1.30699E+01 1.76192E-14 2.55037E-15
 -1      2484 1.10020E+01-5.10678E+01-1.20295E+01-1.13640E+01 2.32744E-14-8.52957E-15
 -1      2485 1.30488E+01-5.58748E+01-1.28596E+01-1.16179E+01 3.24046E-14-9.58449E-15
 -1      2486 1.45370E+01-5.78706E+01-1.30125E+01-9.75380E+00 2.00823E-14-2.88101E-14
 -1      2487 1.67208E+01-6.23611E+01-1.37066E+01-9.32605E+00-3.73946E-14 2.89748E-14
 -1      2488 1.80995E+01-6.42588E+01-1.38631E+01-7.41026E+00 1.20920E-14 2.65225E-14
 -1      2489 2.01315E+01-6.80861E+01-1.44037E+01-6.41268E+00 2.74943E-14 8.94367E-16
 -1      2490 2.13324E+01-6.97226E+01-1.45352E+01-4.62994E+00-1.34043E-14 2.04859E-14
 -1      2491 2.29290E+01-7.25962E+01-1.49200E+01-3.35950E+00 8.74393E-15-7.69295E-16
 -1      2492 2.38459E+01-7.37817E+01-1.50013E+01-1.98853E+00 4.18502E-15 1.52504E-14
 -1      2493 2.48031E+01-7.55087E+01-1.52333E+01-8.62243E-01 7.64584E-15-4.44893E-15
 -1      2494 2.52836E+01-7.60306E+01-1.52461E+01-2.94986E-01 4.09748E-14-2.25704E-15
 -1      2495-2.65142E-02-6.35438E-02-2.70175E-02-1.61075E-02 5.31185E-15 5.72700E-14
 -1      2496-6.05360E-02-2.54105E-01-9.43927E-02-1.55267E-01 3.75029E-15-3.86190E-14
 -1      2497-2.15318E-01-7.07677E-01-2.76901E-01-3.87457E-01 9.16236E-16-3.98333E-14
 -1      2498-2.38018E-01-1.03870E+00-3.83019E-01-5.46940E-01-7.42057E-17-4.21030E-15
 -1      2499-4.17934E-01-1.45616E+00-5.62239E-01-8.02834E-01 2.82356E-16 3.29496E-14
 -1      2500-4.17494E-01-1.84200E+00-6.77862E-01-9.26109E-01 1.71365E-15 2.04767E-14
 -1      2501-6.14294E-01-2.30684E+00-8.76364E-01-1.27131E+00 1.33895E-15-2.64698E-14
 -1      2502-5.78638E-01-2.75887E+00-1.00128E+00-1.35020E+00 7.60412E-16 3.59355E-14
 -1      2503-8.08008E-01-3.28836E+00-1.22896E+00-1.79562E+00-8.78535E-16 4.01955E-14
 -1      2504-7.19384E-01-3.80868E+00-1.35848E+00-1.82592E+00-2.19840E-16-1.15841E-14
 -1      2505-9.88125E-01-4.42473E+00-1.62395E+00-2.38144E+00-7.97887E-15-1.81573E-14
 -1      2506-8.32415E-01-5.01626E+00-1.75471E+00-2.35789E+00 1.88830E-15-3.60935E-14
 -1      2507-1.14115E+00-5.74421E+00-2.06576E+00-3.03445E+00 1.83547E-15-1.75387E-14
 -1      2508-9.05975E-01-6.41170E+00-2.19547E+00-2.95001E+00 1.13260E-15 5.90100E-14
 -1      2509-1.24938E+00-7.28095E+00-2.55934E+00-3.75926E+00-4.41198E-15-3.62670E-15
 -1      2510-9.23271E-01-8.03092E+00-2.68652E+00-3.60510E+00 1.01610E-15 2.31099E-14
 -1      2511-1.28944E+00-9.07599E+00-3.10999E+00-4.55833E+00-1.52861E-15 5.77792E-14
 -1      2512-8.61378E-01-9.91660E+00-3.23379E+00-4.32379E+00-1.36688E-14 1.97624E-14
 -1      2513-1.23063E+00-1.11782E+01-3.72319E+00-5.43026E+00-4.40745E-15 1.43197E-14
 -1      2514-6.89937E-01-1.21191E+01-3.84331E+00-5.10286E+00 5.85522E-15-2.65148E-15
 -1      2515-1.03322E+00-1.36447E+01-4.40416E+00-6.36724E+00 4.49108E-15 1.43680E-14
 -1      2516-3.69799E-01-1.46972E+01-4.52096E+00-5.93274E+00-3.35904E-15 1.50860E-14
 -1      2517-6.46882E-01-1.65403E+01-5.15731E+00-7.35150E+00-9.35426E-15-3.51541E-14
 -1      2518 1.48075E-01-1.77176E+01-5.27208E+00-6.79399E+00-3.06165E-15 5.71706E-16
 -1      2519-9.96200E-03-1.99358E+01-5.98536E+00-8.35038E+00-9.16465E-15-2.29602E-14
 -1      2520 9.22862E-01-2.12528E+01-6.10073E+00-7.65266E+00 6.73459E-15 2.20634E-15
 -1      2521 9.49494E-01-2.39025E+01-6.88820E+00-9.31022E+00 2.32506E-14 1.26589E-14
 -1      2522 2.02223E+00-2.53760E+01-7.00857E+00-8.45453E+00 4.20432E-15-3.53289E-14
 -1      2523 2.30911E+00-2.85026E+01-7.86124E+00-1.01498E+01-9.37554E-15-8.63590E-15
 -1      2524 3.51721E+00-3.01500E+01-7.99325E+00-9.11932E+00-7.83773E-16-1.68542E-14
 -1      2525 4.14173E+00-3.37728E+01-8.89371E+00-1.07555E+01-1.28550E-14-7.32030E-15
 -1      2526 5.47133E+00-3.56092E+01-9.04608E+00-9.53701E+00 1.09152E-14 1.17862E-15
 -1      2527 6.49661E+00-3.96995E+01-9.96684E+00-1.09823E+01-1.64089E-14-1.83539E-14
 -1      2528 7.92206E+00-4.17312E+01-1.01492E+01-9.57112E+00-1.29000E-14-1.64992E-14
 -1      2529 9.37153E+00-4.61874E+01-1.10527E+01-1.06684E+01-1.17389E-14-8.82958E-15
 -1      2530 1.08536E+01-4.83992E+01-1.12723E+01-9.07681E+00-8.77381E-15 3.04773E-15
 -1      2531 1.26795E+01-5.30258E+01-1.21143E+01-9.67192E+00-3.10170E-16 7.84217E-15
 -1      2532 1.41647E+01-5.53627E+01-1.23707E+01-7.94303E+00 1.12802E-14 2.42999E-14
 -1      2533 1.62210E+01-5.98670E+01-1.31071E+01-7.93660E+00-8.41985E-15 7.72065E-15
 -1      2534 1.76404E+01-6.22108E+01-1.33854E+01-6.16495E+00-1.74020E-14-2.18414E-14
 -1      2535 1.96821E+01-6.62303E+01-1.39808E+01-5.58099E+00 2.13614E-14 1.34370E-15
 -1      2536 2.09430E+01-6.83808E+01-1.42488E+01-3.93581E+00 2.70575E-15-2.09118E-14
 -1      2537 2.26694E+01-7.15392E+01-1.46802E+01-2.98183E+00 3.18329E-16 4.07110E-15
 -1      2538 2.36338E+01-7.32059E+01-1.48919E+01-1.72406E+00 1.16622E-15 3.22326E-15
 -1      2539 2.47457E+01-7.51743E+01-1.51501E+01-7.85806E-01 1.47746E-14-6.91704E-15
 -1      2540 2.52318E+01-7.59578E+01-1.52398E+01-2.41138E-01 2.80647E-14 9.86669E-16
 -1      2541-2.59720E-02-7.25896E-02-2.95686E-02-1.41626E-02 2.47979E-15 6.06784E-15
 -1      2542-1.84107E-02-2.51432E-01-8.09531E-02-1.12318E-01 8.07204E-16 5.00076E-14
 -1      2543-1.22778E-01-7.13980E-01-2.51030E-01-2.89929E-01-5.69920E-16 2.98962E-14
 -1      2544-1.00668E-01-1.05630E+00-3.47095E-01-3.95556E-01 3.04861E-16-5.79227E-14
 -1      2545-2.27034E-01-1.45504E+00-5.04629E-01-5.96525E-01-1.45605E-15-8.32266E-15
 -1      2546-1.95151E-01-1.85259E+00-6.14335E-01-6.63917E-01 1.94388E-15-3.48715E-14
 -1      2547-3.17283E-01-2.29336E+00-7.83212E-01-9.41726E-01 1.23854E-15 5.66726E-15
 -1      2548-2.69199E-01-2.75609E+00-9.07612E-01-9.61705E-01-6.26452E-17-1.34397E-14
 -1      2549-3.99949E-01-3.25397E+00-1.09622E+00-1.32709E+00-2.10678E-15 2.78486E-14
 -1      2550-3.19267E-01-3.78533E+00-1.23143E+00-1.29435E+00 1.90941E-16 2.24277E-14
 -1      2551-4.66107E-01-4.35840E+00-1.44742E+00-1.75622E+00-1.73396E-15 1.20937E-14
 -1      2552-3.39263E-01-4.96251E+00-1.59062E+00-1.66541E+00-3.27594E-17-2.39132E-14
 -1      2553-5.04702E-01-5.63184E+00-1.84108E+00-2.23307E+00 1.99240E-15 4.04693E-14
 -1      2554-3.19887E-01-6.31437E+00-1.99042E+00-2.07771E+00-7.47136E-15-2.78670E-14
 -1      2555-5.01548E-01-7.10450E+00-2.28200E+00-2.76105E+00-8.81769E-15 4.86252E-15
 -1      2556-2.47885E-01-7.87290E+00-2.43645E+00-2.53328E+00 1.77667E-15 2.86448E-16
 -1      2557-4.38219E-01-8.81267E+00-2.77556E+00-3.34229E+00 2.88748E-15 3.49554E-15
 -1      2558-1.05138E-01-9.67619E+00-2.93472E+00-3.03280E+00-1.94951E-15 5.12606E-14
 -1      2559-2.90762E-01-1.07997E+01-3.32758E+00-3.97652E+00 3.19643E-15-6.03044E-14
 -1      2560 1.32439E-01-1.17695E+01-3.49160E+00-3.57464E+00-1.43392E-14 3.29235E-14
 -1      2561-2.82304E-02-1.31169E+01-3.94418E+00-4.65949E+00 3.54141E-15 1.07328E-14
 -1      2562 4.96128E-01-1.42061E+01-4.11369E+00-4.15332E+00 7.15133E-15 3.94505E-14
 -1      2563 3.88830E-01-1.58238E+01-4.63141E+00-5.38059E+00-1.04070E-15-2.07875E-14
 -1      2564 1.02562E+00-1.70477E+01-4.80765E+00-4.75725E+00 3.02089E-15-3.47624E-16
 -1      2565 1.00965E+00-1.89875E+01-5.39467E+00-6.11954E+00 7.67794E-15 3.63702E-15
 -1      2566 1.76987E+00-2.03641E+01-5.57971E+00-5.36567E+00-3.28665E-15-6.00173E-14
 -1      2567 1.89364E+00-2.26803E+01-6.23788E+00-6.84200E+00 9.51060E-15 1.28155E-14
 -1      2568 2.78698E+00-2.42300E+01-6.43496E+00-5.94455E+00-9.69511E-15-2.23493E-15
 -1      2569 3.10877E+00-2.69737E+01-7.16213E+00-7.49425E+00 3.59088E-15-2.17265E-14
 -1      2570 4.14188E+00-2.87191E+01-7.37606E+00-6.44203E+00 5.59645E-15 2.62335E-14
 -1      2571 4.72615E+00-3.19269E+01-8.16391E+00-7.99813E+00 5.88042E-15-2.55289E-14
 -1      2572 5.89989E+00-3.38908E+01-8.40134E+00-6.78432E+00-9.29454E-15 7.36697E-15
 -1      2573 6.80819E+00-3.75674E+01-9.23288E+00-8.24844E+00 5.56017E-15-6.90848E-14
 -1      2574 8.11376E+00-3.97682E+01-9.50196E+00-6.87496E+00 1.81301E-14 1.57310E-14
 -1      2575 9.38752E+00-4.38621E+01-1.03494E+01-8.11829E+00 6.25133E-15 4.52717E-15
 -1      2576 1.08012E+01-4.63021E+01-1.06580E+01-6.60303E+00 6.57595E-15 2.59072E-14
 -1      2577 1.24354E+01-5.06774E+01-1.14819E+01-7.48042E+00 1.52371E-15-7.94997E-15
 -1      2578 1.39118E+01-5.33225E+01-1.18335E+01-5.86890E+00-1.72960E-14-3.80698E-16
 -1      2579 1.58235E+01-5.77357E+01-1.25859E+01-6.25449E+00-1.90180E-14 2.36815E-15
 -1      2580 1.72864E+01-6.04814E+01-1.29719E+01-4.63706E+00-7.47972E-15-1.96620E-14
 -1      2581 1.92905E+01-6.45791E+01-1.36021E+01-4.48550E+00-4.69756E-15 1.90820E-14
 -1      2582 2.06193E+01-6.72076E+01-1.39933E+01-3.01643E+00-8.13284E-15 7.66634E-15
 -1      2583 2.24322E+01-7.05546E+01-1.44555E+01-2.43878E+00-8.37215E-15-3.61765E-16
 -1      2584 2.34462E+01-7.26908E+01-1.47933E+01-1.34534E+00-1.24345E-15-3.60248E-16
 -1      2585 2.47083E+01-7.48531E+01-1.50647E+01-6.63977E-01 2.20590E-14-3.71660E-15
 -1      2586 2.51678E+01-7.58834E+01-1.52366E+01-1.73925E-01-2.39417E-14-4.48997E-16
 -1      2587-2.73987E-02-8.32227E-02-3.31865E-02-1.12907E-02-1.31549E-15-2.23575E-14
 -1      2588 1.01484E-02-2.51429E-01-7.23844E-02-6.07573E-02-4.57502E-18 6.74478E-14
 -1      2589-5.64949E-02-7.23644E-01-2.34043E-01-1.92735E-01-5.43395E-16 5.70444E-14
 -1      2590-1.23606E-02-1.07514E+00-3.26255E-01-2.37892E-01 2.50300E-16 7.95001E-15
 -1      2591-9.30091E-02-1.45808E+00-4.65335E-01-3.93525E-01 2.04602E-15-2.35668E-14
 -1      2592-4.64541E-02-1.87121E+00-5.75311E-01-3.94166E-01-6.70012E-16-3.22396E-14
 -1      2593-1.09094E-01-2.28764E+00-7.19038E-01-6.19069E-01-1.27516E-15-1.72976E-14
 -1      2594-6.17226E-02-2.76721E+00-8.48701E-01-5.68887E-01 4.30725E-16-5.95649E-14
 -1      2595-1.13120E-01-3.23403E+00-1.00418E+00-8.70629E-01 4.66164E-16-1.76453E-14
 -1      2596-5.19605E-02-3.78294E+00-1.15051E+00-7.63375E-01-9.07450E-16-1.84102E-14
 -1      2597-9.81163E-02-4.31651E+00-1.32445E+00-1.15029E+00 1.89604E-15-4.09518E-14
 -1      2598-1.08418E-02-4.93983E+00-1.48528E+00-9.79470E-01-1.00845E-15 4.67748E-14
 -1      2599-5.47776E-02-5.55809E+00-1.68396E+00-1.46038E+00 1.23281E-15-4.22501E-14
 -1      2600 6.99459E-02-6.26291E+00-1.85801E+00-1.21890E+00-2.10592E-17-1.88638E-14
 -1      2601 2.88552E-02-6.98632E+00-2.08740E+00-1.80302E+00 2.18477E-15-8.87395E-15
 -1      2602 2.01723E-01-7.78176E+00-2.27420E+00-1.48300E+00-4.08439E-15 2.56888E-14
 -1      2603 1.68117E-01-8.63429E+00-2.54009E+00-2.17968E+00-1.19633E-15-1.56690E-14
 -1      2604 3.99721E-01-9.53155E+00-2.73983E+00-1.77239E+00 7.55528E-16-5.88410E-15
 -1      2605 3.82698E-01-1.05415E+01-3.04802E+00-2.59050E+00 2.93123E-16 1.45581E-14
 -1      2606 6.84091E-01-1.15540E+01-3.26139E+00-2.08642E+00 3.59577E-15 1.53068E-14
 -1      2607 6.97846E-01-1.27551E+01-3.61772E+00-3.03334E+00-4.08118E-15-1.89254E-14
 -1      2608 1.08107E+00-1.38986E+01-3.84586E+00-2.42237E+00-1.76378E-15-3.26793E-14
 -1      2609 1.14574E+00-1.53304E+01-4.25617E+00-3.50237E+00-1.12331E-15-3.03378E-14
 -1      2610 1.62420E+00-1.66231E+01-4.50057E+00-2.77424E+00-2.64768E-15 4.47308E-14
 -1      2611 1.76687E+00-1.83311E+01-4.97041E+00-3.98606E+00 5.51170E-15-7.41652E-15
 -1      2612 2.35550E+00-1.97946E+01-5.23299E+00-3.13104E+00-1.33596E-15 5.26465E-14
 -1      2613 2.61110E+00-2.18289E+01-5.76693E+00-4.46437E+00-2.33344E-15 4.85992E-14
 -1      2614 3.32611E+00-2.34873E+01-6.05018E+00-3.47452E+00 2.51345E-15 1.85935E-14
 -1      2615 3.73768E+00-2.58991E+01-6.65071E+00-4.90526E+00-8.98630E-17-8.39802E-15
 -1      2616 4.59548E+00-2.77797E+01-6.95784E+00-3.77629E+00-3.72894E-15 8.35970E-15
 -1      2617 5.21286E+00-3.06140E+01-7.62357E+00-5.26073E+00 1.29311E-15-1.48433E-14
 -1      2618 6.22783E+00-3.27450E+01-7.95878E+00-3.99500E+00-2.10495E-15-1.20641E-14
 -1      2619 7.10303E+00-3.60275E+01-8.68186E+00-5.46382E+00 7.25119E-15 3.28558E-14
 -1      2620 8.28303E+00-3.84336E+01-9.05026E+00-4.07471E+00-5.69724E-16-7.85870E-15
 -1      2621 9.46001E+00-4.21494E+01-9.81309E+00-5.42933E+00 7.69608E-16 1.30570E-14
 -1      2622 1.07986E+01-4.48419E+01-1.02201E+01-3.94781E+00 1.06038E-14-3.03892E-14
 -1      2623 1.22947E+01-4.89056E+01-1.09918E+01-5.06425E+00-1.00769E-14-1.06208E-14
 -1      2624 1.37583E+01-5.18611E+01-1.14405E+01-3.54777E+00 9.38954E-15-8.26248E-15
 -1      2625 1.55363E+01-5.60811E+01-1.21749E+01-4.29631E+00 1.74667E-15-3.07093E-15
 -1      2626 1.70453E+01-5.92036E+01-1.26603E+01-2.83987E+00-1.49845E-15-2.26600E-14
 -1      2627 1.89802E+01-6.32532E+01-1.32967E+01-3.12958E+00-1.69040E-15-2.00015E-14
 -1      2628 2.03854E+01-6.63140E+01-1.37949E+01-1.87387E+00-4.54244E-15-1.82098E-14
 -1      2629 2.22342E+01-6.97313E+01-1.42674E+01-1.72542E+00 3.19053E-15 1.20484E-14
 -1      2630 2.33041E+01-7.22900E+01-1.47155E+01-8.48107E-01-4.46000E-15 1.50528E-14
 -1      2631 2.46914E+01-7.45800E+01-1.49877E+01-4.85510E-01 2.85449E-14 4.88996E-15
 -1      2632 2.51043E+01-7.58176E+01-1.52359E+01-1.01411E-01 3.10882E-14 3.60539E-16
 -1      2633-1.77212E-02-7.87464E-02-2.89404E-02-1.15438E-02 3.22497E-16 9.06991E-15
 -1      2634 2.12526E-02-2.79636E-01-7.75153E-02-1.17416E-03-1.96210E-18-4.11344E-14
 -1      2635-1.71877E-02-7.41763E-01-2.27687E-01-9.57005E-02-1.76335E-16-6.45159E-15
 -1      2636 3.76671E-02-1.03663E+00-2.99693E-01-7.97648E-02-6.32630E-17 1.67190E-14
 -1      2637-7.03594E-03-1.46806E+00-4.42535E-01-1.86400E-01-2.82041E-17 6.30120E-14
 -1      2638 2.89375E-02-1.83828E+00-5.42812E-01-1.06991E-01 8.36997E-17 3.01273E-15
 -1      2639 1.80746E-02-2.29058E+00-6.81767E-01-2.93648E-01-2.78679E-16-1.69510E-14
 -1      2640 4.71382E-02-2.72654E+00-8.03842E-01-1.51155E-01 2.49239E-16-1.18643E-14
 -1      2641 5.95207E-02-3.22767E+00-9.50474E-01-4.11390E-01 1.16141E-16-1.96686E-14
 -1      2642 9.23808E-02-3.73128E+00-1.09171E+00-2.03952E-01-1.51359E-16-3.65581E-15
 -1      2643 1.22704E-01-4.29692E+00-1.25232E+00-5.41764E-01 3.68121E-16 1.30611E-14
 -1      2644 1.68943E-01-4.87523E+00-1.41195E+00-2.63562E-01 1.72649E-16-4.28147E-15
 -1      2645 2.15606E-01-5.51979E+00-1.59135E+00-6.86184E-01 1.37232E-17-2.39108E-14
 -1      2646 2.84069E-01-6.18242E+00-1.76961E+00-3.29744E-01-1.95504E-16-6.04822E-14
 -1      2647 3.48669E-01-6.92210E+00-1.97217E+00-8.45759E-01-1.09260E-16-4.50989E-14
 -1      2648 4.48121E-01-7.68087E+00-2.17000E+00-4.02559E-01 6.22025E-16-7.63008E-14
 -1      2649 5.35282E-01-8.53484E+00-2.40009E+00-1.02123E+00 1.02919E-16-3.08705E-14
 -1      2650 6.75178E-01-9.40405E+00-2.61892E+00-4.82040E-01-3.92305E-17-2.77158E-14
 -1      2651 7.92594E-01-1.03952E+01-2.88112E+00-1.21271E+00-1.36693E-17-7.64810E-15
 -1      2652 9.83831E-01-1.13920E+01-3.12283E+00-5.67996E-01-4.60054E-16 3.85680E-14
 -1      2653 1.14256E+00-1.25477E+01-3.42204E+00-1.41932E+00-5.83651E-16 3.79204E-14
 -1      2654 1.39817E+00-1.36923E+01-3.68880E+00-6.59763E-01-4.56934E-16-1.97961E-14
 -1      2655 1.61315E+00-1.50450E+01-4.03026E+00-1.63858E+00 2.85206E-15-9.99987E-15
 -1      2656 1.94893E+00-1.63612E+01-4.32451E+00-7.55852E-01-3.88242E-16-1.00826E-13
 -1      2657 2.23973E+00-1.79487E+01-4.71369E+00-1.86548E+00-2.57991E-15-1.97481E-14
 -1      2658 2.67475E+00-1.94643E+01-5.03805E+00-8.53468E-01-3.32210E-16-2.18818E-14
 -1      2659 3.06631E+00-2.13290E+01-5.48027E+00-2.09131E+00-1.12267E-16-1.18180E-14
 -1      2660 3.62308E+00-2.30757E+01-5.83748E+00-9.47884E-01-4.96074E-16-6.93066E-15
 -1      2661 4.14623E+00-2.52633E+01-6.33721E+00-2.30193E+00 2.91843E-15-5.49562E-15
 -1      2662 4.85025E+00-2.72756E+01-6.73001E+00-1.03165E+00 2.74492E-16-1.51340E-14
 -1      2663 5.54142E+00-2.98301E+01-7.28956E+00-2.47581E+00 3.76680E-15 1.06301E-14
 -1      2664 6.41912E+00-3.21430E+01-7.72060E+00-1.09376E+00 3.26806E-15-1.96308E-14
 -1      2665 7.31830E+00-3.50976E+01-8.33794E+00-2.58227E+00 1.16356E-15-2.44255E-14
 -1      2666 8.39219E+00-3.77409E+01-8.80945E+00-1.11906E+00 2.35574E-16 8.45042E-15
 -1      2667 9.53732E+00-4.11008E+01-9.47487E+00-2.58105E+00-2.71899E-15-4.63094E-14
 -1      2668 1.08160E+01-4.40869E+01-9.98804E+00-1.08882E+00-3.55649E-15 2.17341E-14
 -1      2669 1.22313E+01-4.78024E+01-1.06794E+01-2.42599E+00-8.64133E-16 8.73945E-15
 -1      2670 1.36915E+01-5.11029E+01-1.12327E+01-9.83809E-01-5.56850E-15 1.57763E-15
 -1      2671 1.53664E+01-5.50301E+01-1.19101E+01-2.07736E+00 3.42805E-16 8.11299E-15
 -1      2672 1.69250E+01-5.85347E+01-1.24954E+01-7.92550E-01 1.06438E-15-9.93107E-15
 -1      2673 1.87805E+01-6.23905E+01-1.30974E+01-1.52858E+00 3.14630E-15 4.56494E-15
 -1      2674 2.02620E+01-6.58418E+01-1.36900E+01-5.26542E-01 1.79146E-15-1.43895E-14
 -1      2675 2.21010E+01-6.91789E+01-1.41414E+01-8.49883E-01-4.50119E-16-1.54027E-14
 -1      2676 2.32275E+01-7.20773E+01-1.46745E+01-2.37715E-01-3.99501E-16 3.90719E-15
 -1      2677 2.46883E+01-7.43956E+01-1.49333E+01-2.44670E-01 2.96773E-14-3.78650E-15
 -1      2678 2.50660E+01-7.57786E+01-1.52356E+01-2.12900E-02 3.31297E-14 8.76306E-16
 -1      2679-2.66178E-02-4.77877E-02-2.23217E-02 8.09642E-04-9.14527E-18 2.29103E-14
 -1      2680 1.21980E-02-3.03386E-01-8.73567E-02 9.70998E-03 1.02391E-18 1.71655E-13
 -1      2681 2.03522E-03-6.36129E-01-1.90229E-01-1.98926E-02 3.49969E-17-1.46466E-14
 -1      2682 2.58937E-02-1.00874E+00-2.94857E-01 7.10841E-03 1.81234E-17-1.47235E-13
 -1      2683 1.00427E-02-1.38163E+00-4.11480E-01-4.22711E-02-1.11110E-17 1.10734E-15
 -1      2684 2.47868E-02-1.78337E+00-5.27582E-01-7.38229E-04 1.34065E-17-7.66910E-15
 -1      2685 4.76472E-02-2.20687E+00-6.47779E-01-6.59043E-02 9.93748E-18 1.85854E-14
 -1      2686 6.02600E-02-2.66926E+00-7.82720E-01-1.49260E-03-7.23001E-18-6.00056E-14
 -1      2687 9.47693E-02-3.14487E+00-9.15059E-01-8.86333E-02 7.87745E-17-3.98375E-15
 -1      2688 1.19052E-01-3.67491E+00-1.06679E+00-1.02737E-03 4.72210E-17-9.49277E-15
 -1      2689 1.63035E-01-4.21246E+00-1.21488E+00-1.14842E-01-2.27322E-16-5.41464E-14
 -1      2690 2.04330E-01-4.81850E+00-1.38432E+00-6.45086E-04 1.54456E-16-4.56924E-14
 -1      2691 2.61759E-01-5.43081E+00-1.55080E+00-1.45161E-01-9.11821E-17-1.20718E-14
 -1      2692 3.24877E-01-6.12384E+00-1.73980E+00-4.69275E-04-8.51090E-17-8.95265E-14
 -1      2693 4.01328E-01-6.82556E+00-1.92740E+00-1.79415E-01-1.35752E-16-1.68424E-15
 -1      2694 4.92526E-01-7.61953E+00-2.13827E+00-4.14859E-04-1.42008E-17 6.54412E-14
 -1      2695 5.94631E-01-8.42749E+00-2.35006E+00-2.17378E-01 2.89409E-16-2.31569E-14
 -1      2696 7.22200E-01-9.33955E+00-2.58546E+00-4.08057E-04 1.33804E-16 4.64060E-14
 -1      2697 8.58081E-01-1.02733E+01-2.82489E+00-2.58857E-01 9.38666E-17-5.80202E-14
 -1      2698 1.03278E+00-1.13242E+01-3.08780E+00-4.11498E-04 1.98067E-16-5.12058E-14
 -1      2699 1.21268E+00-1.24069E+01-3.35873E+00-3.03588E-01 1.85568E-16-4.40984E-14
 -1      2700 1.44826E+00-1.36212E+01-3.65245E+00-4.11258E-04 8.39092E-17 3.28203E-14
 -1      2701 1.68527E+00-1.48802E+01-3.95916E+00-3.51053E-01 4.66630E-16 5.11715E-14
 -1      2702 1.99909E+00-1.62870E+01-4.28718E+00-4.03412E-04 1.05634E-16 1.74781E-14
 -1      2703 2.30989E+00-1.77541E+01-4.63425E+00-4.00241E-01 4.78778E-17-1.49271E-15
 -1      2704 2.72348E+00-1.93870E+01-5.00023E+00-3.86637E-04 1.88765E-16 1.56875E-14
 -1      2705 3.12912E+00-2.10988E+01-5.39230E+00-4.49360E-01 1.31038E-16-2.36714E-14
 -1      2706 3.66847E+00-2.29957E+01-5.79984E+00-3.59715E-04 1.21047E-16 6.20505E-14
 -1      2707 4.19494E+00-2.49919E+01-6.24108E+00-4.95460E-01 6.78826E-16-2.87967E-14
 -1      2708 4.88996E+00-2.71935E+01-6.69346E+00-3.22239E-04 6.48218E-16-7.74459E-14
 -1      2709 5.56838E+00-2.95140E+01-7.18654E+00-5.33997E-01-3.23517E-16-6.45052E-15
 -1      2710 6.45063E+00-3.20600E+01-7.68622E+00-2.74916E-04-3.48776E-16-3.04357E-15
 -1      2711 7.31610E+00-3.47380E+01-8.23061E+00-5.58401E-01 1.84340E-16 6.63011E-14
 -1      2712 8.41315E+00-3.76589E+01-8.77853E+00-2.30307E-04-9.67672E-17-8.70073E-15
 -1      2713 9.50110E+00-4.07072E+01-9.36751E+00-5.59899E-01-4.27631E-16-3.35494E-14
 -1      2714 1.08249E+01-4.40090E+01-9.96194E+00-1.93003E-04 5.10558E-16 5.53305E-14
 -1      2715 1.21623E+01-4.73963E+01-1.05781E+01-5.28168E-01 6.12877E-16 2.08258E-15
 -1      2716 1.36889E+01-5.10337E+01-1.12127E+01-2.44486E-04 1.55032E-16 2.91644E-14
 -1      2717 1.52764E+01-5.46474E+01-1.18221E+01-4.53843E-01-3.85012E-18-1.71616E-14
 -1      2718 1.69140E+01-5.84807E+01-1.24824E+01-1.92353E-04 2.02651E-16 1.18026E-14
 -1      2719 1.86935E+01-6.20774E+01-1.30294E+01-3.34750E-01 6.01677E-16 1.29436E-14
 -1      2720 2.02482E+01-6.58099E+01-1.36846E+01-1.27260E-04-1.32770E-16 4.76493E-15
 -1      2721 2.20453E+01-6.89779E+01-1.40977E+01-1.85969E-01 5.69618E-16 7.55649E-15
 -1      2722 2.32149E+01-7.20730E+01-1.46770E+01 2.85514E-03-7.01582E-17 5.53935E-15
 -1      2723 2.46861E+01-7.43299E+01-1.49142E+01-5.40852E-02 4.71490E-14 1.15328E-14
 -1      2724 2.50620E+01-7.57743E+01-1.52356E+01 7.26304E-03 2.36776E-14-2.03222E-15
 -1      2725 1.89248E-01 4.94919E-03 5.82591E-02 8.03281E-03 9.03715E-13 5.66812E-15
 -1      2726 3.19396E-01-1.73621E-03 9.52977E-02-2.58026E-03 7.46389E-13-6.86174E-14
 -1      2727 1.08592E-01 3.02614E-03 3.34855E-02-4.93015E-03-1.89623E-12-4.65154E-14
 -1      2728 7.58964E-02-1.46853E-02 1.83633E-02-3.99978E-02 3.97394E-13-2.46216E-13
 -1      2729 1.70236E-01-2.79499E-03 5.02322E-02 1.07342E-02-1.58988E-13 2.42750E-14
 -1      2730 2.99236E-02-1.48408E-02 4.52483E-03-5.19698E-03-1.98804E-12-3.07754E-14
 -1      2731 5.11308E-02 2.14092E-02 2.17620E-02-9.26538E-02-2.65210E-12-1.52018E-13
 -1      2732 2.68180E-02-1.80108E-02 2.64211E-03 5.40032E-02 4.91700E-13-8.90066E-14
 -1      2733-4.22401E-02-4.06222E-02-2.48587E-02 3.78235E-03 1.16907E-12-8.34645E-15
 -1      2734 5.72875E-02 7.50742E-02 3.97084E-02-1.17338E-01-9.63580E-14 1.71427E-14
 -1      2735-1.04209E-01-5.25611E-02-4.70310E-02 1.21930E-01-1.43077E-13-4.60618E-14
 -1      2736-1.06926E-01-7.69363E-02-5.51587E-02 2.80371E-02-1.91619E-12 3.39511E-14
 -1      2737 7.57587E-02 1.40887E-01 6.49935E-02-1.26646E-01-3.25061E-12 2.34954E-13
 -1      2738-2.18873E-01-1.10332E-01-9.87620E-02 2.13799E-01 1.60309E-12 1.51733E-13
 -1      2739-1.62729E-01-1.27344E-01-8.70220E-02 7.05107E-02 8.41288E-13-4.97135E-14
 -1      2740 9.84266E-02 2.10957E-01 9.28149E-02-1.25880E-01-1.30322E-12 1.52497E-13
 -1      2741-3.14496E-01-1.94909E-01-1.52822E-01 3.30701E-01-1.56835E-12 1.26946E-13
 -1      2742-2.08360E-01-1.96585E-01-1.21484E-01 1.32449E-01-2.65023E-13 7.06096E-14
 -1      2743 1.21593E-01 2.74525E-01 1.18835E-01-1.17377E-01-1.35540E-12-1.26325E-14
 -1      2744-3.89337E-01-3.10164E-01-2.09853E-01 4.74038E-01-1.14156E-12 5.09911E-14
 -1      2745-2.42870E-01-2.90924E-01-1.60139E-01 2.13984E-01-5.43327E-14-1.87811E-13
 -1      2746 1.43106E-01 3.17959E-01 1.38320E-01-1.02605E-01-1.42573E-12 3.65781E-13
 -1      2747-4.42434E-01-4.60653E-01-2.70930E-01 6.44627E-01 8.55959E-13 1.84948E-13
 -1      2748-2.65724E-01-4.18477E-01-2.05262E-01 3.14293E-01-9.70264E-13 6.03125E-14
 -1      2749 1.61269E-01 3.24903E-01 1.45852E-01-8.29466E-02 2.99840E-13 3.03521E-14
 -1      2750-4.73536E-01-6.51933E-01-3.37648E-01 8.42076E-01-9.21273E-13 1.52202E-13
 -1      2751-2.76784E-01-5.89460E-01-2.59875E-01 4.31578E-01 1.24443E-12 1.57148E-14
 -1      2752 1.74575E-01 2.76571E-01 1.35344E-01-5.98587E-02 6.44547E-13-5.42090E-14
 -1      2753-4.83034E-01-8.90832E-01-4.12171E-01 1.06425E+00-2.09853E-13-9.78873E-14
 -1      2754-2.76239E-01-8.16253E-01-3.27752E-01 5.62973E-01-9.60333E-14 2.82283E-14
 -1      2755 1.81733E-01 1.52178E-01 1.00174E-01-3.48215E-02 8.71837E-13-2.31555E-13
 -1      2756-4.71838E-01-1.18561E+00-4.97252E-01 1.30677E+00 1.49298E-12-1.68835E-14
 -1      2757-2.64512E-01-1.11322E+00-4.13325E-01 7.04426E-01-7.68140E-13 2.12371E-14
 -1      2758 1.81756E-01-7.04734E-02 3.33852E-02-9.23556E-03 1.51309E-12-1.93389E-13
 -1      2759-4.41203E-01-1.54597E+00-5.96176E-01 1.56258E+00-2.47943E-14 3.37876E-15
 -1      2760-2.42153E-01-1.49613E+00-5.21496E-01 8.50543E-01 1.35304E-12 4.62495E-14
 -1      2761 1.74000E-01-4.14196E-01-7.20590E-02 1.56496E-02-6.06464E-13 1.08168E-13
 -1      2762-3.92537E-01-1.98267E+00-7.12599E-01 1.82143E+00-8.58294E-13-1.08598E-14
 -1      2763-2.09754E-01-1.98115E+00-6.57289E-01 9.94389E-01-2.28848E-12-1.26503E-13
 -1      2764 1.58158E-01-9.01245E-01-2.22928E-01 3.87543E-02 1.90483E-12-9.79546E-14
 -1      2765-3.27208E-01-2.50679E+00-8.50249E-01 2.06948E+00-4.19297E-13 4.38532E-14
 -1      2766-1.67894E-01-2.58309E+00-8.25323E-01 1.12722E+00-1.12388E-12 2.12190E-14
 -1      2767 1.34219E-01-1.55155E+00-4.25207E-01 5.91338E-02-4.41406E-13 3.61291E-14
 -1      2768-2.46399E-01-3.12825E+00-1.01246E+00 2.28874E+00-3.61575E-13 1.55890E-14
 -1      2769-1.17143E-01-3.31283E+00-1.02903E+00 1.23815E+00-6.90611E-13 1.38762E-14
 -1      2770 1.02417E-01-2.38001E+00-6.83294E-01 7.58948E-02-8.91710E-13-1.34451E-15
 -1      2771-1.51055E-01-3.85363E+00-1.20149E+00 2.45670E+00 8.47404E-13 2.64026E-15
 -1      2772-5.81350E-02-4.17357E+00-1.26957E+00 1.31381E+00 3.44392E-13-1.55717E-15
 -1      2773 6.32258E-02-3.39233E+00-9.98764E-01 8.80725E-02 1.53753E-12-9.77070E-15
 -1      2774-4.19963E-02-4.68300E+00-1.41761E+00 2.54591E+00 2.07076E-13 1.33871E-14
 -1      2775 8.22744E-03-5.15565E+00-1.54431E+00 1.33797E+00 1.59047E-12 4.30174E-15
 -1      2776 1.74337E-02-4.57891E+00-1.36850E+00 9.44679E-02-6.56900E-13 2.01250E-14
 -1      2777 7.96608E-02-5.60576E+00-1.65797E+00 2.52422E+00-6.46475E-13-1.76554E-14
 -1      2778 8.03256E-02-6.22976E+00-1.84495E+00 1.29161E+00-1.55325E-12 1.37626E-14
 -1      2779-3.35926E-02-5.90582E+00-1.78192E+00 9.34242E-02 4.65652E-13 8.66076E-14
 -1      2780 2.11305E-01-6.59582E+00-1.91552E+00 2.35633E+00 4.45659E-13 7.49231E-14
 -1      2781 1.54756E-01-7.33912E+00-2.15547E+00 1.15371E+00 7.33863E-13-2.60087E-15
 -1      2782-8.72515E-02-7.30226E+00-2.21700E+00 8.24812E-02-1.57290E-13-4.95624E-14
 -1      2783 3.45450E-01-7.60691E+00-2.17864E+00 2.00942E+00-9.03432E-13-2.84088E-14
 -1      2784 2.23290E-01-8.39322E+00-2.45118E+00 9.05133E-01-6.11546E-13-3.41315E-13
 -1      2785-1.38158E-01-8.64368E+00-2.63475E+00 5.78128E-02 4.86792E-13 6.58425E-14
 -1      2786 4.58804E-01-8.56997E+00-2.43358E+00 1.46926E+00 1.05916E-12 9.55044E-14
 -1      2787 2.62677E-01-9.27196E+00-2.70303E+00 5.41504E-01 6.43505E-13 2.62638E-13
 -1      2788-1.73348E-01-9.73175E+00-2.97178E+00 1.31981E-02 2.75273E-12-2.15616E-13
 -1      2789 4.75893E-01-9.39155E+00-2.67495E+00 7.82032E-01-9.24089E-13-5.14717E-14
 -1      2790 1.92403E-01-9.85116E+00-2.89790E+00 1.26852E-01-1.09033E-13-1.38960E-13
 -1      2791-1.65317E-01-1.02903E+01-3.13696E+00-5.45396E-02 2.41484E-12-7.45661E-14
 -1      2792 1.14381E-01-9.89372E+00-2.93407E+00 1.51891E-01 8.80832E-13-2.65840E-13
 -1      2793-1.99099E-01-1.00088E+01-3.06263E+00-4.29344E-02 2.11766E-12-1.05400E-13
 -1      2794-4.53074E-02-1.01401E+01-3.05591E+00-1.03159E-01 1.19973E-12 3.49745E-13
 -1      2795-3.47793E-01-6.95861E-03-1.06426E-01 2.55041E-03 1.76429E-12 2.68036E-14
 -1      2796-1.36659E+00 1.69559E-02-4.04894E-01 1.10968E-01-3.61699E-13 4.57686E-14
 -1      2797-5.55536E-01-1.97536E-02-1.72588E-01 1.23359E-01 9.05074E-13-6.00707E-14
 -1      2798-1.55696E+00 1.29980E-02-4.63195E-01 3.34650E-01-4.05697E-14-8.30701E-14
 -1      2799-7.49251E-01-4.38655E-02-2.37937E-01 2.61064E-01-9.83352E-14-2.35179E-14
 -1      2800-1.74382E+00-3.34912E-03-5.24161E-01 5.73468E-01 9.36839E-14 3.72679E-14
 -1      2801-9.29119E-01-8.71946E-02-3.04898E-01 4.12999E-01-5.08070E-14-8.32512E-14
 -1      2802-1.92051E+00-4.01245E-02-5.88204E-01 8.29297E-01 4.48737E-13 1.71901E-13
 -1      2803-1.09184E+00-1.51250E-01-3.72931E-01 5.82507E-01 2.51518E-12 1.48066E-13
 -1      2804-2.08059E+00-1.02656E-01-6.54994E-01 1.10415E+00 1.92200E-13 1.03678E-13
 -1      2805-1.23340E+00-2.39136E-01-4.41770E-01 7.72007E-01 2.06390E-13-5.95745E-14
 -1      2806-2.21717E+00-1.95314E-01-7.23773E-01 1.39955E+00 9.87908E-13-2.32481E-13
 -1      2807-1.34959E+00-3.54910E-01-5.11362E-01 9.83414E-01 4.98158E-13 7.85167E-15
 -1      2808-2.32301E+00-3.22346E-01-7.93644E-01 1.71653E+00-1.27024E-13-8.24833E-14
 -1      2809-1.43611E+00-5.03248E-01-5.81823E-01 1.21808E+00 2.30085E-13 9.14714E-14
 -1      2810-2.39060E+00-4.88255E-01-8.63702E-01 2.05541E+00-3.96571E-13-6.92322E-14
 -1      2811-1.48873E+00-6.89306E-01-6.53432E-01 1.47651E+00-1.64573E-12 7.03722E-14
 -1      2812-2.41232E+00-6.97946E-01-9.33139E-01 2.41548E+00-1.19319E-12 1.51230E-13
 -1      2813-1.50346E+00-9.18670E-01-7.26669E-01 1.75793E+00 5.51494E-13-2.64016E-14
 -1      2814-2.38074E+00-9.56782E-01-1.00133E+00 2.79443E+00 2.38305E-14 5.12650E-14
 -1      2815-1.47669E+00-1.19737E+00-8.02259E-01 2.05968E+00 1.81410E-12 3.27322E-14
 -1      2816-2.28885E+00-1.27057E+00-1.06792E+00 3.18776E+00-2.13217E-13-9.44594E-15
 -1      2817-1.40527E+00-1.53193E+00-8.81211E-01 2.37658E+00-1.58277E-12-3.76043E-14
 -1      2818-2.13036E+00-1.64553E+00-1.13288E+00 3.58791E+00-4.70456E-13-2.46563E-14
 -1      2819-1.28662E+00-1.92930E+00-9.64842E-01 2.70009E+00 1.80107E-12-1.37715E-13
 -1      2820-1.89996E+00-2.08814E+00-1.19657E+00 3.98318E+00-9.25876E-13-3.23032E-14
 -1      2821-1.11881E+00-2.39680E+00-1.05477E+00 3.01750E+00 6.78651E-13 3.45329E-14
 -1      2822-1.59367E+00-2.60494E+00-1.25975E+00 4.35666E+00 5.68269E-13-5.89501E-15
 -1      2823-9.00681E-01-2.94167E+00-1.15281E+00 3.31107E+00-1.01527E-12-4.55322E-14
 -1      2824-1.20917E+00-3.20212E+00-1.32358E+00 4.68496E+00-1.20767E-12-1.34916E-16
 -1      2825-6.32131E-01-3.57034E+00-1.26087E+00 3.55717E+00-1.61531E-12-1.19395E-14
 -1      2826-7.46466E-01-3.88473E+00-1.38959E+00 4.93715E+00-6.78705E-13-9.25947E-15
 -1      2827-3.14691E-01-4.28707E+00-1.38068E+00 3.72564E+00 5.43577E-13 4.17702E-15
 -1      2828-2.09290E-01-4.65542E+00-1.45967E+00 5.07407E+00 6.08074E-13-7.28439E-15
 -1      2829 4.71965E-02-5.09194E+00-1.51361E+00 3.77966E+00-1.12236E-13-1.95864E-14
 -1      2830 3.92148E-01-5.51227E+00-1.53632E+00 5.04853E+00-1.04039E-12-6.38711E-14
 -1      2831 4.43495E-01-5.97805E+00-1.66058E+00 3.67670E+00-1.83600E-12 3.61219E-14
 -1      2832 1.03526E+00-6.44537E+00-1.62335E+00 4.80742E+00-1.65649E-12 3.75516E-14
 -1      2833 8.52772E-01-6.92775E+00-1.82273E+00 3.37211E+00 1.39521E-12 1.10090E-14
 -1      2834 1.67265E+00-7.43092E+00-1.72781E+00 4.29716E+00 6.27611E-13 5.28100E-14
 -1      2835 1.22907E+00-7.90758E+00-2.00381E+00 2.82815E+00-4.66661E-13-1.20190E-13
 -1      2836 2.20561E+00-8.42056E+00-1.86483E+00 3.47426E+00 7.40861E-13-4.13175E-14
 -1      2837 1.46996E+00-8.85931E+00-2.21709E+00 2.03434E+00-8.48662E-13-1.39082E-13
 -1      2838 2.42627E+00-9.31652E+00-2.06742E+00 2.31870E+00-1.11342E-12-1.24614E-13
 -1      2839 1.33088E+00-9.68894E+00-2.50772E+00 1.03875E+00-3.04465E-12 8.87069E-14
 -1      2840 1.93844E+00-9.89250E+00-2.38654E+00 8.47354E-01-3.42530E-13 2.43555E-13
 -1      2841 2.73405E-01-1.01111E+01-2.95160E+00 6.36600E-03-5.24218E-13-2.13795E-13
 -1      2842-3.15593E+00-3.93897E-03-9.47989E-01-9.73864E-03 2.47330E-12-1.99830E-13
 -1      2843-5.10238E+00 6.41945E-03-1.52886E+00 1.87276E-01-4.30471E-13-7.74154E-14
 -1      2844-3.31655E+00-1.15413E-02-9.98459E-01 2.69078E-01-7.11694E-13-6.58165E-14
 -1      2845-5.19989E+00 8.89728E-03-1.55737E+00 5.65845E-01-4.86591E-13 1.75613E-13
 -1      2846-3.46746E+00-3.38798E-02-1.05044E+00 5.67371E-01 9.12433E-13 8.20058E-14
 -1      2847-5.28717E+00-2.72527E-03-1.58705E+00 9.57553E-01 2.18139E-12-2.25787E-13
 -1      2848-3.60428E+00-7.14316E-02-1.10276E+00 8.89603E-01-1.42091E-12-2.25779E-13
 -1      2849-5.35762E+00-3.40228E-02-1.61759E+00 1.36997E+00 7.33519E-13-1.29314E-13
 -1      2850-3.72194E+00-1.26606E-01-1.15461E+00 1.23507E+00-1.53091E-14 7.85136E-14
 -1      2851-5.40445E+00-8.88616E-02-1.64810E+00 1.80645E+00-1.54149E-12-2.28152E-13
 -1      2852-3.81425E+00-2.03439E-01-1.20536E+00 1.60336E+00-9.00557E-13-1.09244E-13
 -1      2853-5.41996E+00-1.71044E-01-1.67742E+00 2.26772E+00 1.71410E-12 9.37369E-14
 -1      2854-3.87409E+00-3.06916E-01-1.25437E+00 1.99415E+00 3.81583E-13-6.52755E-14
 -1      2855-5.39532E+00-2.84915E-01-1.70420E+00 2.75313E+00 2.52582E-12-5.34898E-14
 -1      2856-3.89353E+00-4.42670E-01-1.30094E+00 2.40675E+00 7.50456E-14-1.81226E-13
 -1      2857-5.32056E+00-4.35556E-01-1.72699E+00 3.26089E+00 9.40233E-13 1.12261E-13
 -1      2858-3.86387E+00-6.16845E-01-1.34431E+00 2.83974E+00 2.27257E-12 4.31842E-14
 -1      2859-5.18461E+00-6.28802E-01-1.74420E+00 3.78791E+00 8.81359E-13 5.60932E-14
 -1      2860-3.77577E+00-8.35998E-01-1.38365E+00 3.29049E+00 2.80786E-13 1.66800E-13
 -1      2861-4.97539E+00-8.71201E-01-1.75418E+00 4.32943E+00 1.96369E-13-3.04167E-14
 -1      2862-3.61947E+00-1.10701E+00-1.41808E+00 3.75457E+00 2.26490E-13 5.48811E-14
 -1      2863-4.68010E+00-1.16991E+00-1.75524E+00 4.87840E+00 3.10629E-13 4.46497E-14
 -1      2864-3.38507E+00-1.43701E+00-1.44679E+00 4.22503E+00-4.66257E-14-9.89506E-14
 -1      2865-4.28556E+00-1.53254E+00-1.74570E+00 5.42472E+00 1.25729E-13 9.50329E-14
 -1      2866-3.06294E+00-1.83321E+00-1.46904E+00 4.69148E+00 3.84646E-13 3.38949E-14
 -1      2867-3.77878E+00-1.96696E+00-1.72403E+00 5.95412E+00-6.59866E-13-3.78935E-14
 -1      2868-2.64415E+00-2.30276E+00-1.48430E+00 5.13889E+00-1.57842E-13 8.10772E-14
 -1      2869-3.14775E+00-2.48098E+00-1.68897E+00 6.44686E+00-7.01969E-13 4.21674E-14
 -1      2870-2.12126E+00-2.85246E+00-1.49237E+00 5.54630E+00-2.80883E-13 7.41323E-14
 -1      2871-2.38258E+00-3.08185E+00-1.63972E+00 6.87620E+00-2.78785E-13-1.05714E-14
 -1      2872-1.48932E+00-3.48827E+00-1.49357E+00 5.88539E+00-1.57784E-12-3.50744E-15
 -1      2873-1.47743E+00-3.77545E+00-1.57630E+00 7.20663E+00 1.76436E-14-2.65998E-14
 -1      2874-7.47662E-01-4.21451E+00-1.48899E+00 6.11910E+00 9.15011E-13 1.21035E-16
 -1      2875-4.33385E-01-4.56488E+00-1.49996E+00 7.39217E+00-3.23916E-13 2.89400E-15
 -1      2876 9.71073E-02-5.03237E+00-1.48095E+00 6.20061E+00-5.46825E-13 5.81360E-15
 -1      2877 7.36466E-01-5.44801E+00-1.41398E+00 7.37500E+00-4.26227E-13 3.67589E-14
 -1      2878 1.02560E+00-5.93723E+00-1.47389E+00 6.07331E+00 1.23453E-13-1.26484E-14
 -1      2879 1.99841E+00-6.41318E+00-1.32498E+00 7.08487E+00-6.31736E-13-2.30414E-14
 -1      2880 1.99552E+00-6.91404E+00-1.47598E+00 5.67239E+00 5.12103E-13-9.91672E-15
 -1      2881 3.28303E+00-7.43156E+00-1.24512E+00 6.43989E+00 2.87994E-13-8.93818E-14
 -1      2882 2.92281E+00-7.92865E+00-1.50219E+00 4.92926E+00 2.29121E-12 9.66328E-14
 -1      2883 4.45975E+00-8.44426E+00-1.19592E+00 5.34821E+00-1.06755E-12 1.16399E-14
 -1      2884 3.64587E+00-8.91288E+00-1.58054E+00 3.77809E+00-9.04657E-13-1.38353E-13
 -1      2885 5.29518E+00-9.33956E+00-1.21385E+00 3.70998E+00-3.35196E-13 8.59168E-14
 -1      2886 3.86526E+00-9.73484E+00-1.76130E+00 2.15952E+00 1.50659E-12 1.32324E-13
 -1      2887 5.41258E+00-9.89585E+00-1.34547E+00 1.42024E+00-5.41751E-13 1.08477E-13
 -1      2888 3.08079E+00-1.00966E+01-2.10513E+00 2.38181E-02-1.15493E-12-1.56138E-14
 -1      2889-7.50338E+00-1.48595E-03-2.25161E+00-1.42687E-02 4.18190E-14-3.39431E-15
 -1      2890-9.94561E+00 3.36274E-03-2.98294E+00 2.40728E-01-1.09306E-12 1.44899E-13
 -1      2891-7.55117E+00-8.83660E-03-2.26816E+00 3.84658E-01 1.17807E-12 1.59787E-13
 -1      2892-9.91118E+00 7.90346E-03-2.97125E+00 7.35061E-01 1.04194E-13 1.63322E-13
 -1      2893-7.58289E+00-2.90119E-02-2.28373E+00 8.11691E-01-1.21314E-12 9.46407E-14
 -1      2894-9.85501E+00-2.84834E-03-2.95764E+00 1.24646E+00-8.29197E-13-7.81060E-15
 -1      2895-7.59261E+00-6.13945E-02-2.29637E+00 1.27171E+00-1.05966E-12 1.01623E-13
 -1      2896-9.76997E+00-3.18640E-02-2.94084E+00 1.78570E+00-9.38337E-13-1.42065E-13
 -1      2897-7.57409E+00-1.09138E-01-2.30515E+00 1.76220E+00-6.32517E-13 2.15170E-13
 -1      2898-9.64835E+00-8.17829E-02-2.91934E+00 2.35638E+00-1.22038E-12 1.08384E-13
 -1      2899-7.52000E+00-1.76564E-01-2.30916E+00 2.28170E+00-9.53630E-13-1.86772E-13
 -1      2900-9.48135E+00-1.55988E-01-2.89151E+00 2.95852E+00-9.08710E-13-6.61442E-16
 -1      2901-7.42184E+00-2.68705E-01-2.30737E+00 2.82888E+00-3.88795E-13 1.42100E-13
 -1      2902-9.25880E+00-2.58807E-01-2.85561E+00 3.59053E+00 4.00285E-13 2.49025E-13
 -1      2903-7.26978E+00-3.91228E-01-2.29853E+00 3.40179E+00-4.81011E-13 4.78842E-14
 -1      2904-8.96896E+00-3.95525E-01-2.80970E+00 4.24950E+00-1.14596E-12 1.38959E-13
 -1      2905-7.05261E+00-5.50456E-01-2.28117E+00 3.99737E+00-2.64660E-13 1.20081E-13
 -1      2906-8.59853E+00-5.72382E-01-2.75166E+00 4.93093E+00-5.87015E-13 9.77742E-14
 -1      2907-6.75775E+00-7.53400E-01-2.25362E+00 4.61098E+00 6.08894E-13-1.39789E-13
 -1      2908-8.13254E+00-7.96564E-01-2.67915E+00 5.62830E+00 4.09396E-13 1.63885E-14
 -1      2909-6.37129E+00-1.00774E+00-2.21402E+00 5.23587E+00-1.29615E-13-1.02204E-13
 -1      2910-7.55446E+00-1.07616E+00-2.58964E+00 6.33243E+00 3.59417E-13-5.36215E-14
 -1      2911-5.87827E+00-1.32177E+00-2.16036E+00 5.86246E+00-8.74657E-13 3.43834E-14
 -1      2912-6.84639E+00-1.42007E+00-2.48044E+00 7.03059E+00-5.62186E-14-1.22208E-13
 -1      2913-5.26301E+00-1.70426E+00-2.09057E+00 6.47741E+00 1.09425E-12 8.55003E-14
 -1      2914-5.98956E+00-1.83782E+00-2.34876E+00 7.70533E+00 4.78585E-13-6.94411E-14
 -1      2915-4.50977E+00-2.16420E+00-2.00262E+00 7.06236E+00 7.21130E-13-2.94970E-14
 -1      2916-4.96513E+00-2.33914E+00-2.19188E+00 8.33304E+00 4.63645E-13 1.41782E-14
 -1      2917-3.60382E+00-2.71037E+00-1.89474E+00 7.59241E+00-9.82602E-13 3.00085E-14
 -1      2918-3.75561E+00-2.93341E+00-2.00736E+00 8.88200E+00 3.42867E-13-3.29989E-14
 -1      2919-2.53308E+00-3.35066E+00-1.76565E+00 8.03426E+00 5.75030E-13-2.34054E-14
 -1      2920-2.34731E+00-3.62848E+00-1.79344E+00 9.31008E+00 2.98121E-13-5.13795E-15
 -1      2921-1.29084E+00-4.09087E+00-1.61510E+00 8.34402E+00 1.12611E-12 2.99112E-15
 -1      2922-7.34114E-01-4.42889E+00-1.54966E+00 9.56200E+00-1.14677E-12 1.97292E-15
 -1      2923 1.19825E-01-4.93274E+00-1.44450E+00 8.46500E+00-1.34555E-12 4.25314E-15
 -1      2924 1.07616E+00-5.33272E+00-1.27778E+00 9.56636E+00-6.08680E-13-5.78607E-15
 -1      2925 1.67873E+00-5.87050E+00-1.25820E+00 8.32557E+00 6.55832E-13-3.08735E-14
 -1      2926 3.05167E+00-6.32648E+00-9.83287E-01 9.23257E+00 9.46707E-13 3.54253E-14
 -1      2927 3.33643E+00-6.88505E+00-1.06528E+00 7.83759E+00 6.42086E-14 3.86572E-14
 -1      2928 5.12050E+00-7.37663E+00-6.77705E-01 8.44818E+00-4.31416E-13-1.00848E-14
 -1      2929 4.99456E+00-7.93399E+00-8.82535E-01 6.89571E+00 9.49865E-15-1.46170E-13
 -1      2930 7.14605E+00-8.41635E+00-3.81956E-01 7.07601E+00 7.43977E-13 4.86988E-14
 -1      2931 6.47429E+00-8.93527E+00-7.38987E-01 5.37675E+00-1.37265E-13 1.87462E-14
 -1      2932 8.89072E+00-9.32722E+00-1.31789E-01 4.95343E+00 1.50679E-12-1.12495E-13
 -1      2933 7.47004E+00-9.74681E+00-6.83689E-01 3.13705E+00 1.78485E-12 8.66607E-14
 -1      2934 9.97377E+00-9.89004E+00 2.43225E-02 1.90675E+00 2.02411E-14 2.96433E-14
 -1      2935 7.51563E+00-1.00992E+01-7.75672E-01 4.02078E-02-5.95938E-13-2.47645E-13
 -1      2936-1.27225E+01-1.25387E-03-3.81758E+00-1.90693E-02-4.56203E-13 2.74431E-14
 -1      2937-1.54041E+01 2.15822E-03-4.62123E+00 2.81531E-01 7.88528E-13 1.45239E-13
 -1      2938-1.26333E+01-7.18611E-03-3.79258E+00 4.77879E-01 1.73162E-12 2.42043E-14
 -1      2939-1.52212E+01 6.74053E-03-4.56499E+00 8.66279E-01-1.25556E-13-4.68734E-14
 -1      2940-1.25173E+01-2.48638E-02-3.76308E+00 1.01023E+00 2.53234E-13 1.03722E-13
 -1      2941-1.50037E+01-3.61967E-03-4.50282E+00 1.47411E+00 1.26653E-12-3.45264E-14
 -1      2942-1.23674E+01-5.28888E-02-3.72654E+00 1.58267E+00 5.29897E-13-3.09586E-13
 -1      2943-1.47435E+01-3.01571E-02-4.43272E+00 2.11712E+00-3.39853E-13 8.86889E-14
 -1      2944-1.21764E+01-9.47654E-02-3.68178E+00 2.19232E+00-7.34610E-13 1.27575E-13
 -1      2945-1.44318E+01-7.49028E-02-4.35264E+00 2.79872E+00 7.02558E-13 2.36858E-14
 -1      2946-1.19357E+01-1.54713E-01-3.62757E+00 2.83769E+00 1.37206E-12-2.23358E-14
 -1      2947-1.40586E+01-1.41058E-01-4.26053E+00 3.51863E+00 1.09142E-12 2.08288E-13
 -1      2948-1.16356E+01-2.37494E-01-3.56237E+00 3.51724E+00 2.79812E-13 1.80742E-13
 -1      2949-1.36122E+01-2.32884E-01-4.15417E+00 4.27503E+00-2.97898E-13 4.17772E-14
 -1      2950-1.12645E+01-3.48532E-01-3.48439E+00 4.22852E+00 1.18908E-13 7.61753E-14
 -1      2951-1.30792E+01-3.55671E-01-4.03112E+00 5.06464E+00-8.57330E-13-1.17048E-13
 -1      2952-1.08093E+01-4.94037E-01-3.39150E+00 4.96767E+00-1.96290E-13 1.73264E-13
 -1      2953-1.24440E+01-5.15782E-01-3.88862E+00 5.88244E+00-1.15503E-12-6.14321E-14
 -1      2954-1.02546E+01-6.81109E-01-3.28125E+00 5.72893E+00-1.98170E-13-7.96344E-14
 -1      2955-1.16889E+01-7.20726E-01-3.72359E+00 6.72104E+00-9.54450E-13 8.54673E-14
 -1      2956-9.58335E+00-9.17804E-01-3.15091E+00 6.50403E+00 1.01401E-12 3.87144E-14
 -1      2957-1.07937E+01-9.79209E-01-3.53260E+00 7.56996E+00 8.44289E-13-4.54594E-14
 -1      2958-8.77621E+00-1.21314E+00-2.99741E+00 7.28141E+00-6.49921E-13-1.30783E-14
 -1      2959-9.73583E+00-1.30111E+00-3.31187E+00 8.41458E+00-1.62821E-12 7.65625E-14
 -1      2960-7.81226E+00-1.57704E+00-2.81744E+00 8.04514E+00 7.48667E-13 1.69210E-14
 -1      2961-8.49085E+00-1.69736E+00-3.05730E+00 9.23477E+00 3.07664E-13 4.29197E-14
 -1      2962-6.66942E+00-2.02007E+00-2.60755E+00 8.77345E+00-1.07292E-12 4.40764E-14
 -1      2963-7.03274E+00-2.17954E+00-2.76458E+00 1.00031E+01-3.82671E-14 1.15764E-15
 -1      2964-5.32544E+00-2.55305E+00-2.36430E+00 9.43694E+00 4.85102E-14 2.34086E-15
 -1      2965-5.33557E+00-2.75922E+00-2.42939E+00 1.06824E+01-9.94538E-13-1.88852E-14
 -1      2966-3.75987E+00-3.18613E+00-2.08462E+00 9.99616E+00-8.12313E-13-4.42135E-14
 -1      2967-3.37599E+00-3.44662E+00-2.04780E+00 1.12228E+01-4.78892E-13 5.00867E-15
 -1      2968-1.95724E+00-3.92736E+00-1.76626E+00 1.03987E+01 1.05135E-12-1.84588E-15
 -1      2969-1.13750E+00-4.24844E+00-1.61687E+00 1.15581E+01 3.12348E-14-1.14566E-14
 -1      2970 8.77207E-02-4.78019E+00-1.40868E+00 1.05758E+01 1.48920E-13-8.55181E-16
 -1      2971 1.38244E+00-5.16426E+00-1.13569E+00 1.16015E+01 7.90020E-13-4.14916E-14
 -1      2972 2.36158E+00-5.73939E+00-1.01433E+00 1.04384E+01 3.12246E-13 2.83430E-14
 -1      2973 4.16122E+00-6.18079E+00-6.07066E-01 1.12403E+01-3.68897E-14-5.71007E-14
 -1      2974 4.81879E+00-6.78443E+00-5.90718E-01 9.87294E+00-1.64414E-12-1.23843E-13
 -1      2975 7.13369E+00-7.26293E+00-4.00084E-02 1.03312E+01 3.67325E-13-1.68153E-14
 -1      2976 7.36098E+00-7.86909E+00-1.53480E-01 8.73786E+00-2.68212E-13 3.64055E-14
 -1      2977 1.01660E+01-8.33990E+00 5.46577E-01 8.69501E+00 2.78427E-13 6.25125E-14
 -1      2978 9.80617E+00-8.90504E+00 2.69290E-01 6.85949E+00 1.21351E-12-6.47321E-14
 -1      2979 1.30174E+01-9.28734E+00 1.11775E+00 6.11404E+00-1.14166E-13-9.22532E-14
 -1      2980 1.18446E+01-9.74250E+00 6.29594E-01 4.02924E+00 5.27618E-13 9.95735E-14
 -1      2981 1.52855E+01-9.87867E+00 1.62074E+00 2.35792E+00 2.35750E-13 2.25200E-13
 -1      2982 1.29949E+01-1.01040E+01 8.66214E-01 5.77115E-02-3.22758E-13 5.59785E-14
 -1      2983-1.83895E+01-8.47918E-04-5.51802E+00-2.31268E-02 1.28338E-12 1.08788E-13
 -1      2984-2.11335E+01 1.33793E-03-6.34088E+00 3.11125E-01-9.99021E-14-4.86968E-14
 -1      2985-1.81543E+01-5.60655E-03-5.44888E+00 5.52437E-01-1.19137E-12 2.70473E-14
 -1      2986-2.07988E+01 5.53894E-03-6.23917E+00 9.65006E-01-3.12398E-13 6.67628E-14
 -1      2987-1.78804E+01-2.04382E-02-5.37114E+00 1.16995E+00 8.03872E-13-4.40617E-14
 -1      2988-2.04165E+01-3.74042E-03-6.12723E+00 1.64877E+00-3.76450E-13-1.09101E-13
 -1      2989-1.75600E+01-4.40123E-02-5.28207E+00 1.83331E+00 2.06001E-13-3.52830E-13
 -1      2990-1.99780E+01-2.65600E-02-6.00250E+00 2.37471E+00 2.16947E-13-8.80347E-14
 -1      2991-1.71845E+01-7.98501E-02-5.18017E+00 2.54007E+00 7.64662E-13 1.04947E-13
 -1      2992-1.94733E+01-6.46524E-02-5.86249E+00 3.14603E+00 1.10894E-12-1.52194E-13
 -1      2993-1.67445E+01-1.31872E-01-5.06374E+00 3.28914E+00-4.63939E-14-8.49288E-15
 -1      2994-1.88911E+01-1.21114E-01-5.70477E+00 3.96260E+00-3.46199E-13-1.55583E-13
 -1      2995-1.62285E+01-2.04491E-01-4.93075E+00 4.07924E+00-2.89986E-14 2.19254E-14
 -1      2996-1.82184E+01-2.00134E-01-5.52663E+00 4.82288E+00 7.92808E-13-1.78856E-13
 -1      2997-1.56235E+01-3.02851E-01-4.77876E+00 4.90799E+00 4.62846E-13-2.78614E-15
 -1      2998-1.74396E+01-3.07001E-01-5.32505E+00 5.72388E+00 1.15183E-12 5.49280E-15
 -1      2999-1.49141E+01-4.33016E-01-4.60498E+00 5.77144E+00-4.61396E-13 1.16826E-13
 -1      3000-1.65367E+01-4.48228E-01-5.09656E+00 6.66073E+00 1.29301E-12 1.46600E-13
 -1      3001-1.40821E+01-6.02135E-01-4.40615E+00 6.66350E+00 1.27565E-12-5.41255E-14
 -1      3002-1.54888E+01-6.31704E-01-4.83724E+00 7.62592E+00-1.27919E-12-2.16893E-14
 -1      3003-1.31070E+01-8.18579E-01-4.17855E+00 7.57523E+00 2.40867E-13-1.15181E-13
 -1      3004-1.42715E+01-8.66825E-01-4.54260E+00 8.60845E+00 1.26878E-12 2.83414E-14
 -1      3005-1.19649E+01-1.09204E+00-3.91800E+00 8.49391E+00-1.44377E-13 5.37753E-15
 -1      3006-1.28568E+01-1.16455E+00-4.20755E+00 9.59250E+00-1.23513E-13-4.10715E-14
 -1      3007-1.06293E+01-1.43352E+00-3.61980E+00 9.40166E+00-1.02182E-12 4.18226E-14
 -1      3008-1.12135E+01-1.53728E+00-3.82642E+00 1.05558E+01 1.58752E-12-2.07303E-14
 -1      3009-9.07098E+00-1.85519E+00-3.27887E+00 1.02738E+01 1.93161E-13-2.25655E-14
 -1      3010-9.30720E+00-1.99853E+00-3.39295E+00 1.14672E+01-4.07863E-13-1.94765E-14
 -1      3011-7.25932E+00-2.36986E+00-2.88983E+00 1.10764E+01 2.20183E-13-2.00213E-15
 -1      3012-7.10187E+00-2.56204E+00-2.90046E+00 1.22842E+01 6.32900E-13 1.56215E-14
 -1      3013-5.16392E+00-2.99010E+00-2.44734E+00 1.17635E+01-4.57184E-13 1.67199E-14
 -1      3014-4.56257E+00-3.24034E+00-2.34223E+00 1.29485E+01 9.75230E-13-7.70505E-16
 -1      3015-2.75822E+00-3.72644E+00-1.94661E+00 1.22733E+01 1.51186E-13-6.38241E-15
 -1      3016-1.65998E+00-4.04220E+00-1.71209E+00 1.33823E+01-9.29304E-13-2.00222E-14
 -1      3017-2.52893E-02-4.58461E+00-1.38425E+00 1.25236E+01-8.03143E-13-1.66460E-14
 -1      3018 1.62186E+00-4.96871E+00-1.00557E+00 1.34823E+01 1.08586E-12-2.55615E-14
 -1      3019 3.03288E+00-5.56092E+00-7.59762E-01 1.24066E+01 2.54203E-13-5.60391E-14
 -1      3020 5.27344E+00-6.00726E+00-2.21736E-01 1.31137E+01-1.40569E-13 3.99367E-14
 -1      3021 6.38083E+00-6.63519E+00-7.77218E-02 1.17832E+01-9.82583E-13-9.86826E-14
 -1      3022 9.24102E+00-7.12233E+00 6.33938E-01 1.21028E+01-9.50107E-13 1.43894E-13
 -1      3023 9.92732E+00-7.75993E+00 6.48747E-01 1.04761E+01-3.36375E-13-7.50183E-15
 -1      3024 1.33983E+01-8.24116E+00 1.54538E+00 1.02298E+01 8.49746E-13 1.88130E-14
 -1      3025 1.34922E+01-8.84316E+00 1.39317E+00 8.26441E+00-1.69248E-13 9.83446E-15
 -1      3026 1.75031E+01-9.23449E+00 2.47872E+00 7.22323E+00-3.93624E-13-5.07885E-14
 -1      3027 1.67578E+01-9.72678E+00 2.10773E+00 4.87924E+00-2.38352E-13 2.39437E-14
 -1      3028 2.11213E+01-9.86445E+00 3.37502E+00 2.79290E+00 1.21612E-12-3.44975E-13
 -1      3029 1.91984E+01-1.01127E+01 2.72396E+00 7.71078E-02-3.13254E-13 1.21824E-14
 -1      3030-2.41948E+01-6.15975E-04-7.26022E+00-2.64360E-02 1.45641E-12-1.19325E-13
 -1      3031-2.68704E+01 7.10598E-04-8.06287E+00 3.29985E-01-2.78088E-13-2.04379E-14
 -1      3032-2.38156E+01-3.99598E-03-7.14744E+00 6.09159E-01-1.33883E-12 4.74037E-14
 -1      3033-2.63915E+01 4.64901E-03-7.91796E+00 1.03284E+00 1.05250E-12-1.60525E-13
 -1      3034-2.33863E+01-1.55755E-02-7.02208E+00 1.29238E+00-1.42809E-13 4.51427E-14
 -1      3035-2.58534E+01-2.62856E-03-7.75867E+00 1.77298E+00 4.89753E-13-7.74044E-14
 -1      3036-2.28988E+01-3.41043E-02-6.88133E+00 2.02637E+00-4.52520E-13 4.83648E-14
 -1      3037-2.52471E+01-2.03478E-02-7.58203E+00 2.56212E+00-1.52879E-12-5.13383E-14
 -1      3038-2.23432E+01-6.29633E-02-6.72327E+00 2.80964E+00 1.14488E-12 9.67932E-14
 -1      3039-2.45615E+01-5.01511E-02-7.38523E+00 3.40348E+00-1.47061E-12 2.40520E-13
 -1      3040-2.17088E+01-1.05710E-01-6.54575E+00 3.64194E+00 8.37402E-13 4.75598E-14
 -1      3041-2.37841E+01-9.51282E-02-7.16546E+00 4.29754E+00-4.02590E-13 8.18752E-14
 -1      3042-2.09830E+01-1.66429E-01-6.34617E+00 4.52266E+00-1.14163E-12-8.93110E-15
 -1      3043-2.29001E+01-1.59510E-01-6.91951E+00 5.24361E+00-5.05910E-13 6.48552E-14
 -1      3044-2.01505E+01-2.50061E-01-6.12149E+00 5.45002E+00 1.22872E-12 4.11274E-14
 -1      3045-2.18917E+01-2.48759E-01-6.64374E+00 6.23958E+00 1.55729E-13-2.07720E-14
 -1      3046-1.91934E+01-3.62647E-01-5.86814E+00 6.42058E+00 7.37916E-13-9.63975E-14
 -1      3047-2.07380E+01-3.69782E-01-6.33389E+00 7.28130E+00-1.40508E-13-9.55697E-14
 -1      3048-1.80906E+01-5.11558E-01-5.58196E+00 7.42861E+00-1.22059E-12 3.20464E-14
 -1      3049-1.94138E+01-5.31166E-01-5.98504E+00 8.36179E+00-3.65978E-14 4.63735E-16
 -1      3050-1.68171E+01-7.05712E-01-5.25816E+00 8.46520E+00 1.14078E-12-1.22768E-13
 -1      3051-1.78897E+01-7.43357E-01-5.59145E+00 9.47003E+00 5.65191E-13 3.83903E-15
 -1      3052-1.53438E+01-9.55731E-01-4.89119E+00 9.51705E+00 5.49968E-13 6.32547E-14
 -1      3053-1.61309E+01-1.01874E+00-5.14646E+00 1.05894E+01 4.23471E-13 4.49375E-15
 -1      3054-1.36373E+01-1.27399E+00-4.47474E+00 1.05649E+01-1.13369E-12 7.09278E-15
 -1      3055-1.40979E+01-1.37149E+00-4.64240E+00 1.16955E+01-2.92310E-13 2.08833E-14
 -1      3056-1.16601E+01-1.67441E+00-4.00174E+00 1.15812E+01-7.91361E-13 4.23216E-14
 -1      3057-1.17462E+01-1.81703E+00-4.07057E+00 1.27534E+01 1.87202E-13-3.84517E-14
 -1      3058-9.37144E+00-2.17192E+00-3.46444E+00 1.25276E+01 2.12988E-13 2.14632E-14
 -1      3059-9.02800E+00-2.37099E+00-3.42135E+00 1.37143E+01 2.23858E-13 8.66469E-15
 -1      3060-6.72941E+00-2.78127E+00-2.85470E+00 1.33510E+01-1.00964E-12-1.15351E-15
 -1      3061-5.89529E+00-3.04731E+00-2.68450E+00 1.45112E+01-2.81168E-13-4.55652E-15
 -1      3062-3.69468E+00-3.51504E+00-2.16448E+00 1.39796E+01 1.42190E-12 5.67614E-15
 -1      3063-2.30470E+00-3.85548E+00-1.84986E+00 1.50537E+01-1.23845E-13 1.20302E-14
 -1      3064-2.36761E-01-4.38047E+00-1.38682E+00 1.43171E+01 2.11162E-13 3.04002E-14
 -1      3065 1.77426E+00-4.79640E+00-9.08540E-01 1.52220E+01-1.45160E-12 1.48044E-15
 -1      3066 3.65613E+00-5.37464E+00-5.17296E-01 1.42370E+01-1.54302E-12 1.42210E-14
 -1      3067 6.34658E+00-5.85660E+00 1.44980E-01 1.48601E+01-2.88375E-13 4.86500E-14
 -1      3068 7.96175E+00-6.47748E+00 4.43437E-01 1.35749E+01 1.55782E-12 7.43728E-14
 -1      3069 1.13725E+01-6.99976E+00 1.30967E+00 1.37664E+01 2.52403E-13-1.09984E-13
 -1      3070 1.26003E+01-7.64102E+00 1.48581E+00 1.21202E+01-8.78603E-13-8.70098E-15
 -1      3071 1.67376E+01-8.15270E+00 2.57315E+00 1.16831E+01-8.99336E-13 5.72827E-14
 -1      3072 1.73980E+01-8.77209E+00 2.58565E+00 9.60641E+00 2.73818E-13-7.13319E-14
 -1      3073 2.22049E+01-9.18485E+00 3.90342E+00 8.28598E+00 2.14152E-12-6.44430E-14
 -1      3074 2.20313E+01-9.70707E+00 3.69493E+00 5.70277E+00-1.04800E-13-1.34347E-13
 -1      3075 2.73115E+01-9.85034E+00 5.23533E+00 3.21605E+00-2.22077E-12 9.06658E-14
 -1      3076 2.59179E+01-1.01220E+01 4.73603E+00 9.91727E-02 2.92087E-12-1.00429E-13
 -1      3077-2.99008E+01-4.43763E-04-8.97280E+00-2.87974E-02 1.58030E-12 4.83048E-13
 -1      3078-3.24136E+01 2.84298E-04-9.72688E+00 3.38638E-01-7.92982E-14-2.30287E-13
 -1      3079-2.93900E+01-2.39606E-03-8.82007E+00 6.48290E-01 1.20273E-12-1.87786E-13
 -1      3080-3.18090E+01 4.24893E-03-9.54421E+00 1.07139E+00-5.09702E-13 2.19302E-13
 -1      3081-2.88195E+01-1.03584E-02-8.65124E+00 1.37820E+00-1.71430E-12 2.00816E-13
 -1      3082-3.11360E+01-1.44922E-04-9.34351E+00 1.84962E+00 7.96819E-13 9.65430E-14
 -1      3083-2.81808E+01-2.32524E-02-8.46343E+00 2.16348E+00 2.08942E-13 1.04867E-13
 -1      3084-3.03851E+01-1.16352E-02-9.12160E+00 2.68390E+00-3.61746E-13-1.22157E-13
 -1      3085-2.74632E+01-4.42562E-02-8.25436E+00 3.00422E+00-1.15910E-12 2.43416E-13
 -1      3086-2.95443E+01-3.20252E-02-8.87539E+00 3.57795E+00-4.12377E-14-8.28820E-14
 -1      3087-2.66545E+01-7.65939E-02-8.02139E+00 3.90139E+00 9.71151E-13-1.04428E-13
 -1      3088-2.85997E+01-6.46018E-02-8.60169E+00 4.53345E+00 5.05777E-13 5.34216E-14
 -1      3089-2.57405E+01-1.24158E-01-7.76137E+00 4.85551E+00 9.54304E-13-1.10054E-13
 -1      3090-2.75344E+01-1.13911E-01-8.29679E+00 5.55112E+00 3.17565E-14 2.25465E-14
 -1      3091-2.47036E+01-1.91912E-01-7.47057E+00 5.86596E+00-3.93853E-13 4.39161E-14
 -1      3092-2.63277E+01-1.85974E-01-7.95633E+00 6.63028E+00-1.36146E-12-4.96744E-14
 -1      3093-2.35228E+01-2.86194E-01-7.14458E+00 6.93041E+00 1.63137E-13-3.94232E-14
 -1      3094-2.49548E+01-2.88588E-01-7.57517E+00 7.76804E+00 5.12169E-13 5.02450E-14
 -1      3095-2.21730E+01-4.15014E-01-6.77823E+00 8.04401E+00 1.40569E-12 3.79570E-14
 -1      3096-2.33853E+01-4.31614E-01-7.14717E+00 8.95828E+00-1.70449E-13 1.99169E-14
 -1      3097-2.06237E+01-5.88323E-01-6.36542E+00 9.19830E+00-3.83677E-13-6.95991E-14
 -1      3098-2.15828E+01-6.27155E-01-6.66504E+00 1.01901E+01-3.45013E-13 4.60560E-14
 -1      3099-1.88392E+01-8.18186E-01-5.89899E+00 1.03797E+01 7.55562E-14 4.58359E-14
 -1      3100-1.95043E+01-8.89524E-01-6.12017E+00 1.14457E+01 5.22698E-13 9.05753E-14
 -1      3101-1.67775E+01-1.11876E+00-5.37065E+00 1.15673E+01 1.40852E-12 1.39782E-13
 -1      3102-1.70997E+01-1.23485E+00-5.50238E+00 1.26980E+01-1.87968E-13 5.00985E-14
 -1      3103-1.43911E+01-1.50595E+00-4.77090E+00 1.27306E+01 1.87322E-13 8.59639E-16
 -1      3104-1.43129E+01-1.68016E+00-4.79995E+00 1.39070E+01 1.99057E-13 6.70546E-14
 -1      3105-1.16277E+01-1.99650E+00-4.08908E+00 1.38256E+01-1.11517E-13-1.18099E-14
 -1      3106-1.10834E+01-2.24175E+00-3.99960E+00 1.50162E+01 7.64949E-15 9.42769E-15
 -1      3107-8.43290E+00-2.60644E+00-3.31367E+00 1.47911E+01-2.27739E-13-2.10878E-15
 -1      3108-7.34976E+00-2.93284E+00-3.08688E+00 1.59481E+01-1.50957E-12 1.10357E-15
 -1      3109-4.75401E+00-3.34861E+00-2.43273E+00 1.55442E+01 6.09004E-13 2.16673E-15
 -1      3110-3.05540E+00-3.76046E+00-2.04694E+00 1.65993E+01 8.20428E-13 1.16648E-15
 -1      3111-5.47074E-01-4.22928E+00-1.43494E+00 1.59744E+01-7.16558E-13-3.22253E-14
 -1      3112 1.84308E+00-4.72168E+00-8.65880E-01 1.68344E+01 6.21048E-13-2.02625E-14
 -1      3113 4.21332E+00-5.24354E+00-3.11224E-01 1.59374E+01-1.49820E-12 2.01986E-14
 -1      3114 7.36392E+00-5.79897E+00 4.67029E-01 1.64790E+01 2.94532E-13-5.85803E-14
 -1      3115 9.51901E+00-6.36922E+00 9.42622E-01 1.52466E+01-2.33450E-13-6.79691E-14
 -1      3116 1.34823E+01-6.95385E+00 1.95585E+00 1.53093E+01 5.33022E-13-1.04164E-13
 -1      3117 1.53050E+01-7.55787E+00 2.32160E+00 1.36623E+01 1.76131E-12 5.25651E-14
 -1      3118 2.01015E+01-8.11511E+00 3.59293E+00 1.30363E+01 5.74283E-13 1.98501E-14
 -1      3119 2.14113E+01-8.71861E+00 3.80500E+00 1.08768E+01-5.74059E-13-1.22764E-13
 -1      3120 2.70022E+01-9.15801E+00 5.34979E+00 9.28566E+00 1.77560E-13 1.81553E-13
 -1      3121 2.75190E+01-9.69003E+00 5.34542E+00 6.49590E+00 1.00892E-12-1.78337E-13
 -1      3122 3.37104E+01-9.84027E+00 7.15678E+00 3.62106E+00 1.11017E-12 2.04277E-14
 -1      3123 3.29954E+01-1.01293E+01 6.85582E+00 1.24220E-01 4.78562E-13 3.48928E-13
 -1      3124-3.53293E+01-3.77522E-04-1.06023E+01-3.01980E-02-1.68252E-12 4.97242E-14
 -1      3125-3.76185E+01 7.50885E-05-1.12894E+01 3.37905E-01 2.16903E-13 2.40495E-13
 -1      3126-3.47096E+01-8.76598E-04-1.04164E+01 6.70561E-01 1.70078E-13 4.67279E-13
 -1      3127-3.69173E+01 4.41932E-03-1.10776E+01 1.08335E+00 1.10571E-12 2.00201E-13
 -1      3128-3.40234E+01-5.02019E-03-1.02117E+01 1.42931E+00 7.37609E-13-5.15085E-14
 -1      3129-3.61415E+01 3.59482E-03-1.08450E+01 1.88361E+00-5.61831E-13 9.92180E-14
 -1      3130-3.32617E+01-1.19774E-02-9.98517E+00 2.24847E+00 7.68055E-14-1.19440E-13
 -1      3131-3.52814E+01-1.09882E-03-1.05882E+01 2.74792E+00 8.02258E-13 1.53535E-13
 -1      3132-3.24128E+01-2.47668E-02-9.73422E+00 3.13029E+00 4.33457E-13 7.92776E-14
 -1      3133-3.43238E+01-1.19780E-02-1.03041E+01 3.68120E+00-8.21494E-15-2.23186E-13
 -1      3134-3.14632E+01-4.64589E-02-9.45572E+00 4.07743E+00-1.32853E-12 3.72966E-13
 -1      3135-3.32528E+01-3.28982E-02-9.98889E+00 4.68698E+00-8.76569E-13 2.72306E-14
 -1      3136-3.03963E+01-8.10803E-02-9.14592E+00 5.09212E+00 1.07052E-12-7.32608E-14
 -1      3137-3.20487E+01-6.92375E-02-9.63844E+00 5.76800E+00-8.20336E-13 2.65149E-14
 -1      3138-2.91917E+01-1.34074E-01-8.80034E+00 6.17544E+00-1.07264E-12-6.69092E-14
 -1      3139-3.06870E+01-1.28251E-01-9.24751E+00 6.92548E+00 2.66321E-13 4.55120E-14
 -1      3140-2.78243E+01-2.12670E-01-8.41362E+00 7.32665E+00 5.86120E-13 1.83796E-13
 -1      3141-2.91373E+01-2.19441E-01-8.80983E+00 8.15811E+00-8.90797E-13 1.24306E-13
 -1      3142-2.62634E+01-3.26225E-01-7.97933E+00 8.54212E+00 9.41673E-14 4.68403E-15
 -1      3143-2.73620E+01-3.54825E-01-8.31776E+00 9.46052E+00 1.30499E-13-2.40813E-14
 -1      3144-2.44716E+01-4.86485E-01-7.48979E+00 9.81385E+00 5.42786E-13-6.19466E-14
 -1      3145-2.53157E+01-5.48955E-01-7.76204E+00 1.08213E+01 2.22368E-13-7.64413E-14
 -1      3146-2.24042E+01-7.07651E-01-6.93587E+00 1.11275E+01-2.57649E-14-4.78905E-14
 -1      3147-2.29446E+01-8.18541E-01-7.13151E+00 1.22203E+01-1.54859E-13-2.39811E-14
 -1      3148-2.00090E+01-1.00609E+00-6.30679E+00 1.24597E+01-5.69066E-13 8.90576E-15
 -1      3149-2.01865E+01-1.18147E+00-6.41290E+00 1.36256E+01-4.98901E-13-4.46001E-14
 -1      3150-1.72268E+01-1.39949E+00-5.59012E+00 1.37750E+01 2.32707E-13 8.40491E-14
 -1      3151-1.69723E+01-1.65511E+00-5.59071E+00 1.49897E+01-4.67192E-13 1.75527E-14
 -1      3152-1.39928E+01-1.90538E+00-4.77171E+00 1.50220E+01 2.04435E-13-1.39831E-14
 -1      3153-1.32291E+01-2.25383E+00-4.64735E+00 1.62458E+01-2.12335E-13 1.69413E-14
 -1      3154-1.02405E+01-2.53876E+00-3.83604E+00 1.61296E+01 1.13820E-13-4.89740E-16
 -1      3155-8.88420E+00-2.98606E+00-3.56359E+00 1.73040E+01-5.51778E-13 9.81377E-15
 -1      3156-5.90553E+00-3.30915E+00-2.76674E+00 1.70021E+01-3.94778E-13-1.98836E-15
 -1      3157-3.87197E+00-3.85116E+00-2.31952E+00 1.80473E+01-3.61890E-13 2.22877E-15
 -1      3158-9.33431E-01-4.21720E+00-1.54762E+00 1.75153E+01 7.54645E-13-3.47518E-15
 -1      3159 1.85904E+00-4.83691E+00-8.96075E-01 1.83275E+01-2.30656E-13 6.60608E-15
 -1      3160 4.71188E+00-5.25128E+00-1.64406E-01 1.75099E+01 2.31099E-13 2.54456E-14
 -1      3161 8.33633E+00-5.91756E+00 7.22715E-01 1.79583E+01-6.62738E-13-3.09460E-14
 -1      3162 1.10351E+01-6.38379E+00 1.39259E+00 1.67834E+01-1.89566E-13 7.01380E-14
 -1      3163 1.55499E+01-7.05146E+00 2.54630E+00 1.67028E+01 7.67926E-14-5.97994E-14
 -1      3164 1.79894E+01-7.56585E+00 3.12394E+00 1.50757E+01 5.31888E-13-1.56553E-14
 -1      3165 2.34283E+01-8.17353E+00 4.57272E+00 1.42518E+01-1.38516E-13-8.98761E-15
 -1      3166 2.54397E+01-8.71458E+00 5.01392E+00 1.20460E+01-3.17338E-13 6.93092E-14
 -1      3167 3.17892E+01-9.17588E+00 6.77951E+00 1.01886E+01-7.22635E-13 5.07381E-14
 -1      3168 3.30922E+01-9.68389E+00 7.01808E+00 7.23827E+00-1.40877E-12 1.24052E-13
 -1      3169 4.01798E+01-9.83891E+00 9.09655E+00 3.99338E+00-6.99685E-14 8.17332E-14
 -1      3170 4.02895E+01-1.01309E+01 9.04193E+00 1.51999E-01 2.70453E-13-7.43403E-14
 -1      3171-4.03562E+01-4.08182E-04-1.21114E+01-3.06930E-02-1.17449E-12-3.68649E-14
 -1      3172-4.23913E+01 8.68583E-05-1.27223E+01 3.28921E-01 5.02591E-13-1.15142E-13
 -1      3173-3.96606E+01 4.91990E-04-1.19023E+01 6.77465E-01-4.27528E-13 1.79609E-13
 -1      3174-4.16333E+01 5.17345E-03-1.24932E+01 1.07260E+00-1.08609E-13-1.23439E-13
 -1      3175-3.88950E+01 1.34117E-04-1.16726E+01 1.44947E+00-2.80568E-13-5.40618E-14
 -1      3176-4.07983E+01 8.26424E-03-1.22416E+01 1.88221E+00 4.66930E-13 4.19714E-15
 -1      3177-3.80501E+01-1.04424E-03-1.14194E+01 2.28827E+00-6.09892E-14 1.90767E-13
 -1      3178-3.98762E+01 1.01068E-02-1.19642E+01 2.76587E+00-7.20528E-13-1.90698E-13
 -1      3179-3.71129E+01-6.10500E-03-1.11395E+01 3.19896E+00 1.13241E-13-1.10289E-13
 -1      3180-3.88518E+01 7.35516E-03-1.16576E+01 3.73059E+00-5.77330E-13-7.98819E-14
 -1      3181-3.60677E+01-1.83705E-02-1.08295E+01 4.18650E+00 3.83340E-13 1.57514E-13
 -1      3182-3.77067E+01-5.05531E-03-1.13176E+01 4.78250E+00-8.15658E-13-8.76555E-14
 -1      3183-3.48952E+01-4.26034E-02-1.04849E+01 5.25540E+00-1.37680E-12 1.29878E-13
 -1      3184-3.64170E+01-3.42041E-02-1.09392E+01 5.92694E+00-7.05304E-13 2.55213E-14
 -1      3185-3.35706E+01-8.55133E-02-1.01002E+01 6.40900E+00 5.39748E-13-5.69651E-14
 -1      3186-3.49522E+01-8.96602E-02-1.05163E+01 7.16735E+00 6.48271E-13 5.68069E-14
 -1      3187-3.20630E+01-1.56174E-01-9.66901E+00 7.64842E+00 7.40752E-13-4.51082E-14
 -1      3188-3.32741E+01-1.83842E-01-1.00409E+01 8.50381E+00 4.67485E-13 3.16321E-14
 -1      3189-3.03341E+01-2.66354E-01-9.18325E+00 8.97112E+00-2.80614E-13 5.53933E-15
 -1      3190-3.13351E+01-3.32090E-01-9.50358E+00 9.93084E+00-5.72729E-13-4.51515E-14
 -1      3191-2.83368E+01-4.30628E-01-8.63323E+00 1.03688E+01 6.47818E-13 2.25895E-15
 -1      3192-2.90778E+01-5.52240E-01-8.89232E+00 1.14348E+01 3.90848E-13 1.44800E-14
 -1      3193-2.60153E+01-6.66074E-01-8.00731E+00 1.18249E+01-3.77671E-13 2.08569E-14
 -1      3194-2.64351E+01-8.63477E-01-8.19274E+00 1.29903E+01-3.41338E-13-2.71943E-14
 -1      3195-2.33048E+01-9.91351E-01-7.29167E+00 1.33111E+01-1.06392E-13-1.65675E-14
 -1      3196-2.33309E+01-1.28428E+00-7.38764E+00 1.45570E+01-4.06035E-13 5.12935E-14
 -1      3197-2.01335E+01-1.42495E+00-6.47028E+00 1.47840E+01-5.94960E-14 2.28864E-15
 -1      3198-1.96839E+01-1.82949E+00-6.45703E+00 1.60758E+01 2.54745E-13-3.77317E-14
 -1      3199-1.64250E+01-1.98256E+00-5.52498E+00 1.61815E+01 3.22570E-13-1.41906E-14
 -1      3200-1.54116E+01-2.50678E+00-5.37846E+00 1.74659E+01 3.14657E-13-1.18520E-14
 -1      3201-1.21031E+01-2.67384E+00-4.43580E+00 1.74195E+01-1.67288E-13-4.92431E-15
 -1      3202-1.04360E+01-3.31336E+00-4.12775E+00 1.86234E+01 5.76878E-13-2.84465E-15
 -1      3203-7.09723E+00-3.49907E+00-3.18164E+00 1.83890E+01 1.97558E-13-4.65439E-15
 -1      3204-4.69001E+00-4.23387E+00-2.68017E+00 1.94195E+01 3.01394E-13 1.15257E-14
 -1      3205-1.34832E+00-4.44666E+00-1.74134E+00 1.89538E+01 7.98802E-13 2.55976E-14
 -1      3206 1.87743E+00-5.24061E+00-1.01209E+00 1.96986E+01-2.89196E-13-9.29531E-15
 -1      3207 5.18449E+00-5.49238E+00-9.53906E-02 1.89459E+01-2.79178E-13 2.93910E-14
 -1      3208 9.29730E+00-6.29606E+00 8.96995E-01 1.92723E+01 1.01367E-12 2.62816E-14
 -1      3209 1.25162E+01-6.60013E+00 1.77151E+00 1.81567E+01-5.56917E-13 2.80103E-14
 -1      3210 1.75745E+01-7.35633E+00 3.06166E+00 1.79044E+01 5.29429E-13 3.82533E-14
 -1      3211 2.06221E+01-7.72226E+00 3.86619E+00 1.63181E+01-2.41568E-13-1.15684E-14
 -1      3212 2.66727E+01-8.36939E+00 5.48651E+00 1.52798E+01 4.61375E-13-3.98446E-14
 -1      3213 2.94067E+01-8.79237E+00 6.17980E+00 1.30689E+01-5.56458E-13 4.04174E-14
 -1      3214 3.64711E+01-9.25841E+00 8.15821E+00 1.09511E+01 4.76580E-13-6.59331E-14
 -1      3215 3.86311E+01-9.69711E+00 8.67449E+00 7.89770E+00-3.29285E-13 2.74974E-13
 -1      3216 4.65830E+01-9.85083E+00 1.10123E+01 4.31345E+00 2.31452E-13-1.32854E-13
 -1      3217 4.76581E+01-1.01233E+01 1.12528E+01 1.81473E-01-4.25769E-13 9.81836E-14
 -1      3218-4.49047E+01-5.32721E-04-1.34771E+01-3.04134E-02-2.71419E-13 6.80074E-15
 -1      3219-4.66829E+01 3.16357E-04-1.40107E+01 3.13029E-01 3.85238E-13 7.90546E-14
 -1      3220-4.41768E+01 1.65074E-03-1.32579E+01 6.71221E-01 4.95325E-13-4.18633E-14
 -1      3221-4.59192E+01 6.46318E-03-1.37796E+01 1.04399E+00-3.41249E-13 1.65147E-13
 -1      3222-4.33796E+01 4.77612E-03-1.30176E+01 1.44422E+00 2.75662E-13-1.08678E-13
 -1      3223-4.50804E+01 1.33370E-02-1.35257E+01 1.85481E+00-9.75879E-13 1.80410E-14
 -1      3224-4.25030E+01 8.62996E-03-1.27533E+01 2.29300E+00 1.72680E-13 3.67988E-15
 -1      3225-4.41552E+01 2.03565E-02-1.32458E+01 2.75314E+00-6.40976E-14 1.68142E-14
 -1      3226-4.15320E+01 9.65983E-03-1.24615E+01 3.22627E+00 6.95049E-14 5.02350E-14
 -1      3227-4.31258E+01 2.23518E-02-1.29362E+01 3.74921E+00-1.14004E-13 1.22034E-13
 -1      3228-4.04481E+01 3.56272E-03-1.21380E+01 4.25200E+00 8.92446E-13-7.02717E-14
 -1      3229-4.19693E+01 1.19925E-02-1.25922E+01 4.85255E+00 4.10445E-13 1.27114E-13
 -1      3230-3.92274E+01-1.61537E-02-1.17775E+01 5.37766E+00-2.79704E-13-9.92724E-15
 -1      3231-4.06553E+01-2.08771E-02-1.22076E+01 6.07152E+00-3.26168E-13-4.10075E-14
 -1      3232-3.78387E+01-5.86989E-02-1.13735E+01 6.60919E+00-3.86479E-13-3.15806E-14
 -1      3233-3.91445E+01-8.97413E-02-1.17749E+01 7.41166E+00-1.04143E-12 6.95216E-14
 -1      3234-3.62425E+01-1.36413E-01-1.09177E+01 7.94943E+00 5.55042E-13 5.87473E-14
 -1      3235-3.73871E+01-2.11568E-01-1.12840E+01 8.87341E+00-4.12768E-13-8.33572E-14
 -1      3236-3.43896E+01-2.64924E-01-1.04003E+01 9.39599E+00 5.22104E-13-6.50717E-14
 -1      3237-3.53216E+01-4.06340E-01-1.07226E+01 1.04490E+01 2.90783E-13-1.91340E-15
 -1      3238-3.22203E+01-4.62816E-01-9.80867E+00 1.09383E+01-4.63251E-13 2.91530E-16
 -1      3239-3.28753E+01-6.95660E-01-1.00753E+01 1.21189E+01-1.16100E-13-1.06636E-13
 -1      3240-2.96645E+01-7.50511E-01-9.12808E+00 1.25543E+01 7.91983E-13 2.00295E-14
 -1      3241-2.99652E+01-1.10020E+00-9.32348E+00 1.38479E+01-6.01696E-13-4.94764E-14
 -1      3242-2.66435E+01-1.14813E+00-8.34094E+00 1.42066E+01-8.45039E-13 4.69590E-14
 -1      3243-2.65017E+01-1.63595E+00-8.44501E+00 1.55813E+01-2.81269E-14-2.76345E-14
 -1      3244-2.30734E+01-1.67221E+00-7.42700E+00 1.58391E+01 5.09058E-13-1.01548E-14
 -1      3245-2.23944E+01-2.30975E+00-7.41484E+00 1.72431E+01-4.56604E-13-2.58094E-14
 -1      3246-1.88696E+01-2.33170E+00-6.36363E+00 1.73743E+01-6.84456E-14 2.05866E-14
 -1      3247-1.75585E+01-3.11499E+00-6.20553E+00 1.87356E+01-7.35163E-13-1.50155E-14
 -1      3248-1.39531E+01-3.12384E+00-5.12628E+00 1.87128E+01-6.10187E-14 5.44520E-15
 -1      3249-1.19210E+01-4.02908E+00-4.78846E+00 1.99407E+01-2.38686E-14-1.63013E-15
 -1      3250-8.25560E+00-4.03149E+00-3.68932E+00 1.97330E+01 8.09803E-13-4.42730E-16
 -1      3251-5.42531E+00-5.01412E+00-3.13527E+00 2.07227E+01-4.33512E-13 3.77353E-15
 -1      3252-1.72316E+00-5.02318E+00-2.02717E+00 2.02921E+01-3.27697E-13-2.21624E-15
 -1      3253 1.96947E+00-6.02198E+00-1.21931E+00 2.09289E+01 9.26013E-13-3.07826E-14
 -1      3254 5.68254E+00-6.05708E+00-1.15820E-01 2.02232E+01 8.24433E-13-2.87535E-14
 -1      3255 1.02923E+01-7.00297E+00 9.82974E-01 2.03828E+01 6.71036E-14 4.68487E-15
 -1      3256 1.39845E+01-7.08798E+00 2.06513E+00 1.93252E+01-8.41203E-13 4.46249E-14
 -1      3257 1.95654E+01-7.91570E+00 3.49056E+00 1.88643E+01-5.33705E-13 3.46237E-14
 -1      3258 2.31859E+01-8.07449E+00 4.52899E+00 1.73379E+01 3.04489E-13 2.60690E-16
 -1      3259 2.97999E+01-8.73107E+00 6.31540E+00 1.60680E+01 3.67189E-14 7.28728E-14
 -1      3260 3.32484E+01-8.97781E+00 7.27574E+00 1.38943E+01-5.36078E-13-3.22997E-14
 -1      3261 4.09637E+01-9.41897E+00 9.45665E+00 1.15288E+01-4.72022E-13 1.05124E-13
 -1      3262 4.40235E+01-9.73659E+00 1.02790E+01 8.43695E+00 9.74310E-13-1.82501E-13
 -1      3263 5.27867E+01-9.87929E+00 1.28630E+01 4.56099E+00 3.56980E-13 1.65227E-14
 -1      3264 5.49533E+01-1.01037E+01 1.34451E+01 2.10842E-01-7.43857E-13 1.80711E-13
 -1      3265-4.89386E+01-7.39580E-04-1.46883E+01-2.95317E-02-1.26255E-12 9.60958E-14
 -1      3266-5.04815E+01 7.59383E-04-1.51512E+01 2.91649E-01 7.58167E-13 9.53515E-15
 -1      3267-4.82336E+01 2.55804E-03-1.44757E+01 6.54616E-01-6.55713E-13 9.67767E-15
 -1      3268-4.97754E+01 8.18099E-03-1.49369E+01 1.00305E+00 4.33764E-13-4.36687E-14
 -1      3269-4.74646E+01 8.57035E-03-1.42430E+01 1.42068E+00 1.03702E-13 5.44772E-15
 -1      3270-4.90010E+01 1.80684E-02-1.47015E+01 1.81264E+00 1.22283E-13-7.76719E-14
 -1      3271-4.66200E+01 1.59684E-02-1.39872E+01 2.27574E+00-2.91890E-13 5.32439E-15
 -1      3272-4.81445E+01 2.74383E-02-1.44415E+01 2.72878E+00 1.14778E-12-5.25405E-14
 -1      3273-4.56820E+01 1.98974E-02-1.37044E+01 3.23311E+00-2.61551E-13-5.70306E-14
 -1      3274-4.71836E+01 2.80358E-02-1.41529E+01 3.76622E+00-1.35848E-13-3.59034E-14
 -1      3275-4.46270E+01 1.38769E-02-1.33895E+01 4.30463E+00 3.34952E-13-1.71924E-15
 -1      3276-4.60879E+01 8.57767E-03-1.38298E+01 4.93860E+00 1.47658E-13 2.57566E-15
 -1      3277-4.34240E+01-1.18635E-02-1.30362E+01 5.50128E+00 2.76173E-14 4.03660E-15
 -1      3278-4.48170E+01-4.62374E-02-1.34648E+01 6.25738E+00-9.57748E-13-4.59273E-14
 -1      3279-4.20321E+01-7.08729E-02-1.26361E+01 6.83157E+00 1.84405E-13-9.45687E-14
 -1      3280-4.33179E+01-1.56031E-01-1.30478E+01 7.72919E+00-4.60089E-13-1.34462E-14
 -1      3281-4.03991E+01-1.80725E-01-1.21789E+01 8.29907E+00-4.86595E-13 7.85053E-14
 -1      3282-4.15242E+01-3.44282E-01-1.25659E+01 9.35226E+00-4.87737E-13-3.56723E-14
 -1      3283-3.84604E+01-3.62662E-01-1.16517E+01 9.89913E+00 7.47860E-13-1.74759E-14
 -1      3284-3.93557E+01-6.36661E-01-1.20028E+01 1.11122E+01 4.56710E-13 3.85771E-15
 -1      3285-3.61396E+01-6.40257E-01-1.10385E+01 1.16150E+01 6.12347E-13-4.72861E-14
 -1      3286-3.67205E+01-1.05784E+00-1.13384E+01 1.29774E+01-3.48849E-13 8.35629E-14
 -1      3287-3.33501E+01-1.03674E+00-1.03204E+01 1.34136E+01-4.78582E-13-1.13330E-15
 -1      3288-3.35194E+01-1.62671E+00-1.05485E+01 1.48951E+01-5.24053E-13-2.10781E-14
 -1      3289-2.99994E+01-1.57085E+00-9.47525E+00 1.52418E+01-2.61383E-13-2.33065E-14
 -1      3290-2.96528E+01-2.35046E+00-9.60543E+00 1.67894E+01 7.83509E-14-1.66726E-14
 -1      3291-2.59954E+01-2.25156E+00-8.47808E+00 1.70246E+01-3.33337E-13 2.47094E-14
 -1      3292-2.50297E+01-3.21885E+00-8.47880E+00 1.85622E+01-7.57748E-13 2.72046E-15
 -1      3293-2.12534E+01-3.07271E+00-7.30167E+00 1.86652E+01-5.49133E-13-2.99450E-15
 -1      3294-1.95756E+01-4.20051E+00-7.13689E+00 2.00972E+01-2.24172E-13 7.36876E-15
 -1      3295-1.57027E+01-4.00926E+00-5.91730E+00 2.00479E+01 3.16602E-13 9.48789E-16
 -1      3296-1.32378E+01-5.24348E+00-5.54830E+00 2.12673E+01 8.55001E-14 5.72652E-18
 -1      3297-9.28986E+00-5.01729E+00-4.29580E+00 2.10438E+01 2.17470E-13-1.58295E-15
 -1      3298-5.98338E+00-6.28130E+00-3.68328E+00 2.19406E+01-1.01581E-13 3.77879E-15
 -1      3299-1.97712E+00-6.03919E+00-2.40859E+00 2.15132E+01-6.15706E-13-1.87814E-14
 -1      3300 2.20915E+00-7.24480E+00-1.51466E+00 2.19817E+01 2.84516E-13-1.24820E-14
 -1      3301 6.26483E+00-7.01430E+00-2.28726E-01 2.13048E+01-8.99951E-13-1.14596E-14
 -1      3302 1.13654E+01-8.07725E+00 9.82186E-01 2.12421E+01-6.01931E-13-2.64153E-14
 -1      3303 1.54672E+01-7.89283E+00 2.26801E+00 2.02405E+01-6.18303E-13-2.84238E-14
 -1      3304 2.15313E+01-8.74931E+00 3.82971E+00 1.95329E+01 3.69183E-13 5.48018E-14
 -1      3305 2.56699E+01-8.64878E+00 5.10126E+00 1.80834E+01-5.31678E-13-6.93545E-14
 -1      3306 3.27803E+01-9.26683E+00 7.04804E+00 1.65713E+01 3.31113E-13-1.36189E-13
 -1      3307 3.69107E+01-9.28372E+00 8.28171E+00 1.44743E+01 3.55681E-14-2.50027E-14
 -1      3308 4.51944E+01-9.66080E+00 1.06521E+01 1.18860E+01-5.30692E-13-1.81870E-15
 -1      3309 4.91674E+01-9.80584E+00 1.17999E+01 8.82168E+00-1.92825E-13 5.56363E-15
 -1      3310 5.86685E+01-9.92545E+00 1.46117E+01 4.71938E+00-8.31963E-13-6.65957E-14
 -1      3311 6.20261E+01-1.00708E+01 1.55744E+01 2.37849E-01 5.94685E-13 3.24130E-14
 -1      3312-5.24538E+01-1.01425E-03-1.57440E+01-2.82433E-02-8.40871E-13 2.03033E-14
 -1      3313-5.38037E+01 1.41626E-03-1.61486E+01 2.66164E-01 4.18467E-13 2.19798E-14
 -1      3314-5.18398E+01 3.18939E-03-1.55583E+01 6.30822E-01-4.30889E-13 1.46241E-14
 -1      3315-5.32338E+01 1.01551E-02-1.59748E+01 9.55851E-01 5.46014E-13 1.31910E-14
 -1      3316-5.11729E+01 1.11520E-02-1.53557E+01 1.38730E+00 8.65348E-13 1.13025E-13
 -1      3317-5.26074E+01 2.14111E-02-1.57834E+01 1.76894E+00 2.25821E-13 6.64229E-14
 -1      3318-5.04382E+01 1.96104E-02-1.51326E+01 2.25255E+00-3.22392E-13 1.67541E-13
 -1      3319-5.19062E+01 2.82128E-02-1.55708E+01 2.71615E+00-2.88892E-14 1.98485E-14
 -1      3320-4.96128E+01 2.10408E-02-1.48843E+01 3.24572E+00 1.81063E-13-2.19642E-14
 -1      3321-5.10998E+01 1.71912E-02-1.53320E+01 3.81818E+00 7.79980E-13-3.54868E-14
 -1      3322-4.86652E+01 4.89432E-03-1.46047E+01 4.38340E+00 1.96815E-13 5.63750E-14
 -1      3323-5.01461E+01-2.95095E-02-1.50598E+01 5.09326E+00 2.37668E-13 3.99963E-14
 -1      3324-4.75528E+01-4.42212E-02-1.42855E+01 5.68038E+00 4.04859E-13 1.68303E-14
 -1      3325-4.89883E+01-1.35319E-01-1.47440E+01 6.55509E+00 3.89625E-13-5.32360E-14
 -1      3326-4.62196E+01-1.46818E-01-1.39162E+01 7.14681E+00-2.99388E-13 3.36883E-14
 -1      3327-4.75531E+01-3.28835E-01-1.43712E+01 8.20861E+00-2.51688E-13-6.70947E-14
 -1      3328-4.45948E+01-3.28212E-01-1.34829E+01 8.78428E+00 9.60059E-14 1.06671E-13
 -1      3329-4.57506E+01-6.41918E-01-1.39242E+01 1.00447E+01-2.32143E-13-3.41587E-14
 -1      3330-4.25931E+01-6.16966E-01-1.29688E+01 1.05812E+01-6.83199E-13-3.10071E-14
 -1      3331-4.34766E+01-1.10574E+00-1.33809E+01 1.20345E+01 4.61147E-14 1.84982E-14
 -1      3332-4.01174E+01-1.04158E+00-1.23532E+01 1.25075E+01 2.67584E-13-1.61557E-14
 -1      3333-4.06181E+01-1.74461E+00-1.27147E+01 1.41248E+01-8.94604E-13-9.67275E-14
 -1      3334-3.70640E+01-1.62518E+00-1.16120E+01 1.45108E+01 2.88365E-13 2.37611E-15
 -1      3335-3.70632E+01-2.56827E+00-1.18951E+01 1.62354E+01 6.23994E-13-5.40741E-14
 -1      3336-3.33308E+01-2.37866E+00-1.07178E+01 1.65138E+01-3.50845E-13 3.88963E-14
 -1      3337-3.27121E+01-3.56401E+00-1.08881E+01 1.82615E+01 1.80640E-14-3.55377E-14
 -1      3338-2.88267E+01-3.29340E+00-9.64077E+00 1.84159E+01-3.20857E-13-2.82850E-14
 -1      3339-2.74890E+01-4.69144E+00-9.65909E+00 2.00801E+01 3.33898E-13-6.14855E-15
 -1      3340-2.34810E+01-4.33598E+00-8.34956E+00 2.00991E+01-5.49442E-13-8.09955E-15
 -1      3341-2.13487E+01-5.88240E+00-8.17400E+00 2.15617E+01 2.00662E-13 7.39268E-15
 -1      3342-1.72471E+01-5.44751E+00-6.81264E+00 2.14367E+01-1.48130E-13 1.25172E-15
 -1      3343-1.42759E+01-7.04803E+00-6.40161E+00 2.25819E+01-2.78893E-13 2.75928E-15
 -1      3344-1.01009E+01-6.54957E+00-4.99926E+00 2.23030E+01 3.93026E-14 4.04952E-15
 -1      3345-6.27342E+00-8.09288E+00-4.31419E+00 2.30292E+01-1.08274E-12 2.35768E-14
 -1      3346-2.02993E+00-7.55720E+00-2.88025E+00 2.25777E+01 2.85874E-13-3.17290E-15
 -1      3347 2.65809E+00-8.93364E+00-1.88702E+00 2.28037E+01-9.33181E-13 4.12465E-15
 -1      3348 6.98398E+00-8.39674E+00-4.28116E-01 2.21412E+01-5.73713E-13 4.96422E-14
 -1      3349 1.25462E+01-9.51866E+00 9.03609E-01 2.17996E+01-4.97352E-13-1.15341E-16
 -1      3350 1.69856E+01-9.02477E+00 2.38348E+00 2.08536E+01 3.62179E-13 1.73583E-14
 -1      3351 2.34720E+01-9.84412E+00 4.08298E+00 1.98697E+01-5.14189E-13-2.28402E-14
 -1      3352 2.80629E+01-9.44349E+00 5.58013E+00 1.85120E+01-7.25297E-13 1.95569E-14
 -1      3353 3.55863E+01-9.96265E+00 7.68034E+00 1.67605E+01-3.66914E-13-9.76175E-14
 -1      3354 4.03480E+01-9.70663E+00 9.18510E+00 1.47749E+01 1.84696E-13 5.25677E-15
 -1      3355 4.91049E+01-9.97630E+00 1.17295E+01 1.20024E+01-6.34442E-13-5.25217E-14
 -1      3356 5.39757E+01-9.90417E+00 1.32114E+01 9.02749E+00 1.83263E-14 6.68054E-14
 -1      3357 6.41258E+01-9.98802E+00 1.62282E+01 4.77891E+00-3.46598E-13-5.19424E-14
 -1      3358 6.87361E+01-1.00249E+01 1.75986E+01 2.60232E-01 3.06717E-13-1.62908E-13
 -1      3359-5.54693E+01-1.33647E-03-1.66496E+01-2.67563E-02-7.44690E-13-7.45164E-14
 -1      3360-5.66877E+01 2.29650E-03-1.70144E+01 2.37850E-01 2.72723E-13-1.30495E-13
 -1      3361-5.50313E+01 3.53312E-03-1.65166E+01 6.03302E-01 6.58832E-13-9.75837E-15
 -1      3362-5.63519E+01 1.21251E-02-1.69106E+01 9.09153E-01-3.30372E-16-3.48020E-14
 -1      3363-5.45578E+01 1.20598E-02-1.63719E+01 1.35405E+00 4.89593E-13 6.92564E-14
 -1      3364-5.59768E+01 2.18013E-02-1.67951E+01 1.73967E+00 1.00013E-12-2.16025E-14
 -1      3365-5.40278E+01 1.76229E-02-1.62111E+01 2.24318E+00-3.84192E-13-7.78616E-14
 -1      3366-5.55355E+01 1.78788E-02-1.66638E+01 2.74466E+00 3.46312E-13 1.33591E-14
 -1      3367-5.34098E+01 7.79376E-03-1.60285E+01 3.29721E+00-1.39809E-13-3.58321E-15
 -1      3368-5.49839E+01-2.13919E-02-1.65100E+01 3.95217E+00-3.87458E-13 5.89681E-14
 -1      3369-5.26588E+01-3.49910E-02-1.58159E+01 4.53829E+00 1.83148E-13 5.45823E-14
 -1      3370-5.42606E+01-1.24406E-01-1.63238E+01 5.38462E+00-3.49043E-13 5.48985E-15
 -1      3371-5.17141E+01-1.35216E-01-1.55624E+01 5.98443E+00 5.59878E-13-7.42621E-14
 -1      3372-5.32833E+01-3.26797E-01-1.60911E+01 7.05525E+00 5.51753E-13 5.77399E-14
 -1      3373-5.04963E+01-3.23900E-01-1.52535E+01 7.64461E+00 6.59674E-14-5.59007E-14
 -1      3374-5.19491E+01-6.69264E-01-1.57934E+01 8.96127E+00-5.24362E-13 3.98763E-14
 -1      3375-4.89085E+01-6.36875E-01-1.48708E+01 9.51289E+00 4.42604E-13 7.83681E-14
 -1      3376-5.01364E+01-1.19275E+00-1.54064E+01 1.10766E+01-8.35830E-14 3.18553E-14
 -1      3377-4.68387E+01-1.11074E+00-1.43917E+01 1.15620E+01-3.23639E-13 3.26825E-15
 -1      3378-4.77130E+01-1.93053E+00-1.49005E+01 1.33454E+01 1.17574E-13 1.66512E-14
 -1      3379-4.41669E+01-1.77610E+00-1.37895E+01 1.37377E+01-1.21477E-13 1.56888E-14
 -1      3380-4.45479E+01-2.89792E+00-1.42408E+01 1.56794E+01 4.60813E-13 5.99065E-14
 -1      3381-4.07765E+01-2.64851E+00-1.30338E+01 1.59565E+01-1.30605E-12-5.68539E-15
 -1      3382-4.05277E+01-4.08168E+00-1.33895E+01 1.79602E+01-7.92247E-13 2.29994E-15
 -1      3383-3.65668E+01-3.71872E+00-1.20916E+01 1.81078E+01-7.92015E-14-3.30277E-14
 -1      3384-3.55720E+01-5.43247E+00-1.23076E+01 2.00493E+01 6.73388E-13 4.00170E-15
 -1      3385-3.14654E+01-4.94515E+00-1.09287E+01 2.00621E+01 5.65843E-13-2.06992E-14
 -1      3386-2.96444E+01-6.86401E+00-1.09583E+01 2.18041E+01-2.16775E-13-1.16886E-15
 -1      3387-2.54353E+01-6.25230E+00-9.51145E+00 2.16852E+01-2.65024E-13 8.38989E-15
 -1      3388-2.27518E+01-8.26151E+00-9.30931E+00 2.30959E+01 1.37028E-13-2.39019E-15
 -1      3389-1.84727E+01-7.53753E+00-7.80789E+00 2.28522E+01-6.26241E-13 6.97914E-17
 -1      3390-1.49310E+01-9.49876E+00-7.33389E+00 2.38238E+01 4.09847E-13-1.17933E-15
 -1      3391-1.05945E+01-8.68666E+00-5.78893E+00 2.34594E+01 5.31058E-13 1.34849E-14
 -1      3392-6.22452E+00-1.04606E+01-5.01026E+00 2.39186E+01-8.75498E-13 9.84106E-15
 -1      3393-1.81655E+00-9.59532E+00-3.42806E+00 2.34252E+01 2.70575E-13-1.53455E-14
 -1      3394 3.35194E+00-1.10658E+01-2.31887E+00 2.33323E+01 3.08483E-13-1.81542E-15
 -1      3395 7.87383E+00-1.01916E+01-6.99972E-01 2.26774E+01-2.88140E-13 1.87707E-14
 -1      3396 1.38413E+01-1.12856E+01 7.61704E-01 2.20112E+01 1.02927E-12 2.50708E-14
 -1      3397 1.85459E+01-1.04548E+01 2.42215E+00 2.11233E+01 1.60640E-13-2.95058E-14
 -1      3398 2.53743E+01-1.11561E+01 4.25962E+00 1.98511E+01-8.15815E-14 1.03679E-14
 -1      3399 3.03488E+01-1.04289E+01 5.96970E+00 1.85982E+01-5.71083E-13-2.77950E-14
 -1      3400 3.81911E+01-1.07851E+01 8.21438E+00 1.66274E+01-5.31457E-13-5.43978E-14
 -1      3401 4.35229E+01-1.02276E+01 9.98039E+00 1.47813E+01 1.97169E-13 5.99176E-14
 -1      3402 5.26527E+01-1.03487E+01 1.26810E+01 1.18762E+01-1.91805E-14 6.42670E-15
 -1      3403 5.83810E+01-1.00269E+01 1.44947E+01 9.04426E+00 2.12505E-13-2.01577E-13
 -1      3404 6.90830E+01-1.00636E+01 1.76907E+01 4.73819E+00 8.87610E-13 1.38088E-13
 -1      3405 7.49642E+01-9.96834E+00 1.94814E+01 2.76176E-01-3.95678E-13-7.42742E-14
 -1      3406-5.80198E+01-1.67674E-03-1.74157E+01-2.52982E-02 3.44338E-13-9.17882E-14
 -1      3407-5.91871E+01 3.42301E-03-1.77647E+01 2.07867E-01-9.73571E-13 3.40537E-14
 -1      3408-5.78651E+01 3.58490E-03-1.73676E+01 5.75851E-01-6.97593E-13-1.39510E-14
 -1      3409-5.92098E+01 1.36746E-02-1.77684E+01 8.70869E-01-3.74927E-13 4.94075E-14
 -1      3410-5.76994E+01 1.06054E-02-1.73157E+01 1.33294E+00-3.19051E-15 4.18577E-15
 -1      3411-5.92153E+01 1.67094E-02-1.77692E+01 1.74520E+00-9.68630E-13 1.89948E-14
 -1      3412-5.74907E+01 6.95044E-03-1.72542E+01 2.27275E+00-6.51982E-13 2.05933E-14
 -1      3413-5.91613E+01-1.14515E-02-1.77614E+01 2.85329E+00-8.41809E-13-1.23267E-13
 -1      3414-5.71927E+01-2.83528E-02-1.71753E+01 3.43091E+00-1.26105E-12-1.96803E-14
 -1      3415-5.89806E+01-1.06167E-01-1.77357E+01 4.23139E+00-6.87058E-13-7.56198E-15
 -1      3416-5.67382E+01-1.24447E-01-1.70677E+01 4.83530E+00 9.48828E-13-1.19938E-13
 -1      3417-5.85802E+01-3.12193E-01-1.76773E+01 5.90380E+00-8.78354E-13 1.23409E-14
 -1      3418-5.60373E+01-3.19903E-01-1.69160E+01 6.50457E+00-6.63212E-13 4.09051E-14
 -1      3419-5.78393E+01-6.82445E-01-1.75661E+01 7.87660E+00 2.69819E-13 3.30831E-15
 -1      3420-5.49768E+01-6.60622E-01-1.67000E+01 8.44018E+00 3.37061E-14-1.27005E-14
 -1      3421-5.66127E+01-1.27202E+00-1.73748E+01 1.01275E+01 5.98792E-13-2.59172E-14
 -1      3422-5.34240E+01-1.19501E+00-1.63942E+01 1.06180E+01 8.73368E-13 2.79280E-14
 -1      3423-5.47401E+01-2.12805E+00-1.70696E+01 1.25971E+01 1.18075E-13-2.72266E-14
 -1      3424-5.12358E+01-1.96534E+00-1.59686E+01 1.29806E+01-5.68218E-13-2.66897E-14
 -1      3425-5.20624E+01-3.27585E+00-1.66103E+01 1.51844E+01 2.16068E-13-1.16341E-14
 -1      3426-4.82732E+01-2.99575E+00-1.53886E+01 1.54339E+01 9.21180E-13-3.19534E-15
 -1      3427-4.84441E+01-4.70439E+00-1.59529E+01 1.77500E+01-8.49936E-13-7.04695E-14
 -1      3428-4.44195E+01-4.27893E+00-1.46170E+01 1.78502E+01-6.76129E-13-5.42231E-14
 -1      3429-4.37949E+01-6.35542E+00-1.50530E+01 2.01296E+01-2.88212E-13-1.16141E-14
 -1      3430-3.95974E+01-5.76563E+00-1.36159E+01 2.00794E+01-6.60570E-14 1.23909E-14
 -1      3431-3.80855E+01-8.12179E+00-1.38694E+01 2.21561E+01 7.55429E-13 8.92772E-15
 -1      3432-3.37792E+01-7.36167E+00-1.23487E+01 2.19684E+01 3.29565E-13-5.02217E-16
 -1      3433-3.13487E+01-9.85783E+00-1.23686E+01 2.36850E+01-1.44573E-13 3.48538E-15
 -1      3434-2.69857E+01-8.93614E+00-1.07825E+01 2.33825E+01-9.33985E-13-1.72753E-14
 -1      3435-2.36633E+01-1.14011E+01-1.05253E+01 2.46150E+01 9.17355E-13 2.35793E-16
 -1      3436-1.92713E+01-1.03408E+01-8.88905E+00 2.42225E+01-2.04114E-13 2.17254E-15
 -1      3437-1.51232E+01-1.26003E+01-8.32251E+00 2.48964E+01-2.28108E-13-6.33793E-16
 -1      3438-1.06974E+01-1.14363E+01-6.64517E+00 2.44309E+01-1.05138E-12 1.43769E-15
 -1      3439-5.80052E+00-1.33422E+01-5.74790E+00 2.45228E+01 4.32175E-13 1.51382E-14
 -1      3440-1.30043E+00-1.21186E+01-4.03057E+00 2.39829E+01 1.62963E-13-6.57513E-15
 -1      3441 4.29201E+00-1.35712E+01-2.78875E+00 2.35077E+01-4.41877E-13 3.37255E-15
 -1      3442 8.94113E+00-1.23395E+01-1.02449E+00 2.28629E+01 4.03621E-13 6.59921E-15
 -1      3443 1.52318E+01-1.33008E+01 5.73964E-01 2.18480E+01 6.99452E-14 2.20054E-14
 -1      3444 2.01360E+01-1.21194E+01 2.39947E+00 2.10250E+01-4.39658E-13 4.82769E-14
 -1      3445 2.72128E+01-1.26183E+01 4.37213E+00 1.94752E+01 7.88734E-14 3.90277E-14
 -1      3446 3.25061E+01-1.15535E+01 6.27901E+00 1.83385E+01-3.98874E-13-6.59981E-14
 -1      3447 4.05709E+01-1.16880E+01 8.65685E+00 1.61862E+01 3.06500E-13-2.42044E-14
 -1      3448 4.64072E+01-1.08167E+01 1.06681E+01 1.45003E+01-4.47719E-13-2.59028E-14
 -1      3449 5.58128E+01-1.07559E+01 1.35058E+01 1.15237E+01 1.24483E-14 6.69210E-16
 -1      3450 6.23387E+01-1.01664E+01 1.56387E+01 8.87705E+00-3.40943E-13-1.00791E-13
 -1      3451 7.34949E+01-1.01476E+01 1.89873E+01 4.60370E+00 4.45366E-13 1.06832E-13
 -1      3452 8.06213E+01-9.90434E+00 2.11952E+01 2.84607E-01 1.04410E-12 7.31979E-15
 -1      3453-6.01490E+01-1.98277E-03-1.80552E+01-2.41422E-02-5.93682E-14 1.92056E-14
 -1      3454-6.13669E+01 4.83511E-03-1.84189E+01 1.77312E-01 4.26773E-13-2.70023E-14
 -1      3455-6.04158E+01 3.34048E-03-1.81337E+01 5.52839E-01 7.02101E-13 3.73724E-14
 -1      3456-6.19097E+01 1.40796E-02-1.85792E+01 8.51159E-01-6.07208E-13 9.85295E-14
 -1      3457-6.07040E+01 5.63692E-03-1.82196E+01 1.33946E+00-6.55189E-13-1.24319E-13
 -1      3458-6.24611E+01 1.74409E-03-1.87485E+01 1.81355E+00-6.60031E-13-9.07370E-14
 -1      3459-6.09622E+01-1.76051E-02-1.83041E+01 2.37521E+00-1.43083E-13 7.91806E-14
 -1      3460-6.29511E+01-7.34604E-02-1.89183E+01 3.09692E+00 8.95686E-13 8.04373E-14
 -1      3461-6.11181E+01-1.01847E-01-1.83763E+01 3.70647E+00-5.98874E-13-1.12270E-13
 -1      3462-6.32737E+01-2.68771E-01-1.90738E+01 4.74484E+00-9.32020E-13 2.28541E-14
 -1      3463-6.10681E+01-2.94825E-01-1.84193E+01 5.36511E+00 1.61971E-13 6.93620E-14
 -1      3464-6.32853E+01-6.53421E-01-1.91928E+01 6.77670E+00-4.43570E-13 1.08118E-13
 -1      3465-6.06775E+01-6.56026E-01-1.84105E+01 7.36362E+00 2.22716E-13 1.04103E-13
 -1      3466-6.28079E+01-1.30276E+00-1.92444E+01 9.17727E+00 5.93301E-13 6.45091E-14
 -1      3467-5.97846E+01-1.25061E+00-1.83209E+01 9.68297E+00-7.55071E-13 4.57594E-14
 -1      3468-6.16410E+01-2.28488E+00-1.91889E+01 1.18835E+01 1.09536E-12-2.88301E-14
 -1      3469-5.82125E+01-2.13844E+00-1.81154E+01 1.22619E+01-6.05701E-13 1.24793E-14
 -1      3470-5.95835E+01-3.64180E+00-1.89785E+01 1.47770E+01 1.26265E-12 4.05307E-15
 -1      3471-5.57888E+01-3.35792E+00-1.77539E+01 1.49914E+01 4.74963E-13 4.42931E-15
 -1      3472-5.64646E+01-5.36891E+00-1.85606E+01 1.76881E+01-1.44081E-14-2.80798E-16
 -1      3473-5.23710E+01-4.90761E+00-1.71930E+01 1.77178E+01-5.47428E-13 8.29216E-15
 -1      3474-5.21751E+01-7.39930E+00-1.78822E+01 2.04135E+01-9.73757E-13 2.92646E-14
 -1      3475-4.78705E+01-6.73116E+00-1.63893E+01 2.02593E+01-7.96498E-14-1.91323E-14
 -1      3476-4.66904E+01-9.60043E+00-1.68964E+01 2.27471E+01 2.54929E-13 1.77680E-14
 -1      3477-4.22679E+01-8.71245E+00-1.53023E+01 2.24311E+01-7.29746E-13-1.61261E-14
 -1      3478-4.00735E+01-1.17879E+01-1.55668E+01 2.45156E+01 4.40040E-13-1.21472E-14
 -1      3479-3.56126E+01-1.06860E+01-1.38970E+01 2.40767E+01-3.05820E-13-1.36578E-14
 -1      3480-3.24538E+01-1.37544E+01-1.38699E+01 2.56077E+01-1.48138E-12-2.58330E-15
 -1      3481-2.80041E+01-1.24624E+01-1.21466E+01 2.50917E+01-3.54696E-14-3.14734E-16
 -1      3482-2.39884E+01-1.53059E+01-1.17949E+01 2.59862E+01 9.64700E-13-8.40012E-17
 -1      3483-1.95590E+01-1.38617E+01-1.00322E+01 2.54340E+01 5.55307E-13-6.58369E-16
 -1      3484-1.48147E+01-1.62946E+01-9.33872E+00 2.56795E+01 7.31813E-13-1.45667E-15
 -1      3485-1.03726E+01-1.47454E+01-7.54084E+00 2.51156E+01-1.05058E-12-1.27093E-14
 -1      3486-5.00919E+00-1.66408E+01-6.50042E+00 2.47556E+01-4.66212E-13 3.27594E-14
 -1      3487-4.81935E-01-1.50393E+01-4.66153E+00 2.41791E+01 3.13454E-13-4.34400E-15
 -1      3488 5.44457E+00-1.63405E+01-3.27401E+00 2.32856E+01-4.56717E-13-2.76382E-15
 -1      3489 1.01635E+01-1.47430E+01-1.37908E+00 2.26623E+01-1.46603E-12 3.03067E-14
 -1      3490 1.66774E+01-1.54639E+01 3.58499E-01 2.13040E+01-2.11602E-14-1.78734E-14
 -1      3491 2.17272E+01-1.39315E+01 2.33291E+00 2.05562E+01 9.66261E-13 4.29086E-15
 -1      3492 2.89552E+01-1.41525E+01 4.43428E+00 1.87631E+01-2.67650E-13-3.81051E-14
 -1      3493 3.45102E+01-1.27537E+01 6.51976E+00 1.77517E+01-5.62011E-13-1.87236E-14
 -1      3494 4.27074E+01-1.26213E+01 9.01731E+00 1.54702E+01-1.32426E-12 8.27144E-14
 -1      3495 4.89830E+01-1.14389E+01 1.12535E+01 1.39581E+01-4.22682E-13-8.17238E-15
 -1      3496 5.85773E+01-1.11744E+01 1.42087E+01 1.09749E+01-6.95908E-13-2.52686E-14
 -1      3497 6.58275E+01-1.03141E+01 1.66397E+01 8.54400E+00-8.10505E-13 5.54929E-14
 -1      3498 7.73458E+01-1.02348E+01 2.01147E+01 4.38800E+00 7.37375E-13-5.43881E-14
 -1      3499 8.56534E+01-9.83678E+00 2.27228E+01 2.85288E-01-1.24064E-12-1.46885E-13
 -1      3500-6.19042E+01-2.16601E-03-1.85824E+01-2.36669E-02 2.90886E-13 1.00041E-13
 -1      3501-6.33021E+01 6.59050E-03-1.89996E+01 1.47369E-01 1.15200E-12 5.73513E-14
 -1      3502-6.27757E+01 2.79924E-03-1.88426E+01 5.39769E-01-3.19756E-13-9.29510E-14
 -1      3503-6.45807E+01 1.19828E-02-1.93820E+01 8.64439E-01 3.63007E-15 5.29585E-14
 -1      3504-6.37087E+01-4.90662E-03-1.91252E+01 1.39527E+00 6.07581E-13 1.01896E-13
 -1      3505-6.58933E+01-3.11305E-02-1.97892E+01 1.98621E+00 2.47324E-13 3.70710E-14
 -1      3506-6.46180E+01-6.53109E-02-1.94164E+01 2.59958E+00-8.77446E-14 2.46481E-14
 -1      3507-6.71212E+01-1.92808E-01-2.02066E+01 3.55718E+00-5.74835E-13-1.69932E-14
 -1      3508-6.53863E+01-2.38152E-01-1.96991E+01 4.21028E+00-3.05469E-13 9.38795E-14
 -1      3509-6.80927E+01-5.64964E-01-2.06101E+01 5.62284E+00 1.27787E-13 1.44418E-14
 -1      3510-6.58504E+01-6.00308E-01-1.99473E+01 6.25689E+00 2.55712E-13-3.47774E-14
 -1      3511-6.85852E+01-1.25150E+00-2.09642E+01 8.18142E+00 2.77636E-13 4.98577E-14
 -1      3512-6.58087E+01-1.24055E+00-2.01270E+01 8.73044E+00 2.70391E-13 1.96595E-14
 -1      3513-6.83404E+01-2.35229E+00-2.12212E+01 1.11686E+01-1.27639E-13-3.24295E-14
 -1      3514-6.50349E+01-2.24499E+00-2.01962E+01 1.15668E+01-2.67134E-13 2.62721E-14
 -1      3515-6.70937E+01-3.93684E+00-2.13225E+01 1.44445E+01-1.82735E-12-1.55464E-14
 -1      3516-6.33062E+01-3.67514E+00-2.01065E+01 1.46371E+01 3.28946E-13-7.15540E-14
 -1      3517-6.46182E+01-6.01431E+00-2.12028E+01 1.77966E+01 3.27113E-13-2.56894E-14
 -1      3518-6.04387E+01-5.54175E+00-1.98059E+01 1.77514E+01 1.04548E-13-4.40106E-14
 -1      3519-6.07712E+01-8.50993E+00-2.07968E+01 2.09641E+01-9.94106E-14 3.64445E-14
 -1      3520-5.63221E+01-7.78260E+00-1.92426E+01 2.06799E+01 3.42418E-13-3.91000E-15
 -1      3521-5.55282E+01-1.12591E+01-2.00479E+01 2.36815E+01 1.43994E-12-1.33455E-14
 -1      3522-5.09435E+01-1.02546E+01-1.83698E+01 2.31897E+01-1.14988E-12 2.97907E-14
 -1      3523-4.89887E+01-1.40261E+01-1.89151E+01 2.57295E+01 5.25288E-13-6.34834E-15
 -1      3524-4.43864E+01-1.27478E+01-1.71497E+01 2.50875E+01-7.93889E-13-1.91615E-14
 -1      3525-4.13473E+01-1.65446E+01-1.73771E+01 2.69762E+01-2.72452E-13-7.41160E-15
 -1      3526-3.68066E+01-1.50195E+01-1.55563E+01 2.62541E+01-3.19937E-13-1.12417E-14
 -1      3527-3.28399E+01-1.85667E+01-1.54303E+01 2.73934E+01 6.65794E-13 8.93680E-16
 -1      3528-2.83882E+01-1.68400E+01-1.35759E+01 2.66581E+01 3.92268E-13 2.60570E-15
 -1      3529-2.36828E+01-1.99055E+01-1.30837E+01 2.70448E+01-5.68578E-13 3.08538E-15
 -1      3530-1.92950E+01-1.80324E+01-1.12048E+01 2.63456E+01 6.09506E-13 3.71677E-15
 -1      3531-1.40221E+01-2.04592E+01-1.03507E+01 2.60512E+01-1.17359E-12 8.13638E-16
 -1      3532-9.62877E+00-1.84990E+01-8.44414E+00 2.54110E+01-2.70413E-13-5.39267E-15
 -1      3533-3.90245E+00-2.02155E+01-7.24105E+00 2.45488E+01 5.62958E-14-7.00695E-15
 -1      3534 6.00738E-01-1.82268E+01-5.29323E+00 2.39588E+01 7.89536E-13-1.03981E-14
 -1      3535 6.74785E+00-1.92407E+01-3.75329E+00 2.26481E+01 3.41291E-14 2.69076E-16
 -1      3536 1.14944E+01-1.72812E+01-1.74149E+00 2.20649E+01 1.20599E-12 1.47073E-14
 -1      3537 1.81257E+01-1.76664E+01 1.32059E-01 2.03989E+01-1.36025E-12-1.61931E-14
 -1      3538 2.32802E+01-1.57953E+01 2.23941E+00 1.97381E+01-1.03758E-12 3.44684E-14
 -1      3539 3.05686E+01-1.56811E+01 4.45944E+00 1.77556E+01 1.38674E-14 1.03787E-14
 -1      3540 3.63378E+01-1.39649E+01 6.70433E+00 1.68766E+01 3.82642E-13-4.08875E-14
 -1      3541 4.45902E+01-1.35378E+01 9.30674E+00 1.45263E+01 7.10322E-13 2.27435E-15
 -1      3542 5.12433E+01-1.20601E+01 1.17446E+01 1.31950E+01-1.48821E-13 3.19118E-14
 -1      3543 6.09538E+01-1.15829E+01 1.47983E+01 1.02684E+01 1.86656E-13-7.14216E-14
 -1      3544 6.88475E+01-1.04615E+01 1.75004E+01 8.07234E+00 9.85041E-14-6.72447E-15
 -1      3545 8.06461E+01-1.03205E+01 2.10776E+01 4.10728E+00 4.16534E-13-1.18106E-13
 -1      3546 9.00412E+01-9.76935E+00 2.40571E+01 2.78711E-01 7.92060E-13 1.55159E-13
 -1      3547-6.33324E+01-2.01192E-03-1.90113E+01-2.44598E-02-2.81531E-13-8.99011E-14
 -1      3548-6.50792E+01 8.75323E-03-1.95327E+01 1.19591E-01-6.97839E-13-9.79693E-14
 -1      3549-6.50582E+01 1.94230E-03-1.95284E+01 5.44339E-01-3.82683E-13-1.18166E-15
 -1      3550-6.73895E+01 4.69385E-03-2.02279E+01 9.33070E-01 6.46207E-14 4.52215E-14
 -1      3551-6.68920E+01-2.48575E-02-2.00873E+01 1.53307E+00 1.65146E-12-5.23453E-14
 -1      3552-6.97491E+01-9.72146E-02-2.09672E+01 2.32849E+00-1.59723E-13 8.91699E-14
 -1      3553-6.86878E+01-1.53275E-01-2.06653E+01 3.02085E+00-3.47897E-13-3.17412E-14
 -1      3554-7.19532E+01-4.15276E-01-2.17248E+01 4.36100E+00-3.21240E-13-2.11471E-14
 -1      3555-7.02512E+01-4.83419E-01-2.12340E+01 5.07287E+00 3.04150E-13 1.24245E-14
 -1      3556-7.37208E+01-1.09501E+00-2.24598E+01 7.06170E+00 3.66877E-13-2.90449E-14
 -1      3557-7.13243E+01-1.13643E+00-2.17524E+01 7.69958E+00-1.67155E-13-3.94190E-14
 -1      3558-7.47096E+01-2.28467E+00-2.31140E+01 1.03723E+01 6.04662E-14-3.07208E-14
 -1      3559-7.16092E+01-2.23790E+00-2.21687E+01 1.08387E+01-3.83283E-13-5.46584E-14
 -1      3560-7.45581E+01-4.09942E+00-2.36133E+01 1.41284E+01-1.87132E-13 4.23994E-14
 -1      3561-7.08052E+01-3.88686E+00-2.24223E+01 1.43377E+01 1.79307E-13-4.31808E-14
 -1      3562-7.29490E+01-6.57587E+00-2.38736E+01 1.80584E+01 2.65936E-13 1.64298E-14
 -1      3563-6.86612E+01-6.11742E+00-2.24481E+01 1.79555E+01-1.73773E-13 6.44791E-14
 -1      3564-6.96805E+01-9.63466E+00-2.38102E+01 2.18167E+01 1.86415E-13-8.45963E-15
 -1      3565-6.50289E+01-8.86467E+00-2.21821E+01 2.13920E+01 3.63092E-13 2.76310E-14
 -1      3566-6.47194E+01-1.30694E+01-2.33515E+01 2.50469E+01 3.14309E-13-8.60073E-15
 -1      3567-5.98971E+01-1.19514E+01-2.15677E+01 2.43405E+01 5.08107E-13-3.82603E-14
 -1      3568-5.82118E+01-1.65734E+01-2.24492E+01 2.74578E+01-3.71104E-13 1.00447E-14
 -1      3569-5.33932E+01-1.51068E+01-2.05620E+01 2.65503E+01 4.47071E-13 2.06940E-15
 -1      3570-5.04405E+01-1.97980E+01-2.10837E+01 2.88826E+01 1.55134E-13-1.64825E-14
 -1      3571-4.57468E+01-1.80164E+01-1.91397E+01 2.78757E+01 5.43790E-14-3.77908E-15
 -1      3572-4.17473E+01-2.24231E+01-1.92618E+01 2.93013E+01 2.92544E-13-2.69337E-15
 -1      3573-3.72289E+01-2.03845E+01-1.72934E+01 2.82942E+01-4.99960E-13 1.61896E-15
 -1      3574-3.24482E+01-2.42140E+01-1.70078E+01 2.88202E+01 7.33944E-13-1.29021E-15
 -1      3575-2.80873E+01-2.19890E+01-1.50310E+01 2.78901E+01-2.94373E-13 2.66344E-16
 -1      3576-2.27698E+01-2.50491E+01-1.43534E+01 2.76226E+01 7.87159E-14 1.21500E-15
 -1      3577-1.84953E+01-2.27099E+01-1.23685E+01 2.68141E+01 2.87306E-13 1.87655E-15
 -1      3578-1.28169E+01-2.49177E+01-1.13270E+01 2.59127E+01 2.63813E-13 8.01262E-15
 -1      3579-8.52201E+00-2.25319E+01-9.32229E+00 2.52348E+01-1.61203E-13-1.09285E-15
 -1      3580-2.56695E+00-2.38988E+01-7.94562E+00 2.38683E+01-2.60548E-13-4.51859E-15
 -1      3581 1.87859E+00-2.15263E+01-5.89992E+00 2.32968E+01-9.93185E-14-8.68885E-15
 -1      3582 8.12449E+00-2.21340E+01-4.20842E+00 2.16092E+01-5.31158E-14-9.45340E-15
 -1      3583 1.28721E+01-1.98282E+01-2.09242E+00 2.10878E+01-6.52176E-13 1.78225E-14
 -1      3584 1.95219E+01-1.98067E+01-9.13169E-02 1.91756E+01 4.63122E-13 1.43795E-14
 -1      3585 2.47528E+01-1.76203E+01 2.13351E+00 1.86135E+01-1.17983E-13-2.39232E-16
 -1      3586 3.20256E+01-1.71374E+01 4.45944E+00 1.65081E+01 2.39784E-13-1.13791E-14
 -1      3587 3.79707E+01-1.51302E+01 6.84431E+00 1.57652E+01-4.62385E-13-2.77691E-14
 -1      3588 4.62179E+01-1.43993E+01 9.53622E+00 1.34086E+01-9.25622E-13-8.34292E-14
 -1      3589 5.31922E+01-1.26519E+01 1.21512E+01 1.22595E+01 1.92918E-13-4.01971E-14
 -1      3590 6.29622E+01-1.19645E+01 1.52856E+01 9.44612E+00-5.88119E-13 2.05725E-14
 -1      3591 7.14167E+01-1.06018E+01 1.82281E+01 7.49391E+00-8.69535E-13 2.01070E-14
 -1      3592 8.34257E+01-1.04011E+01 2.18860E+01 3.77898E+00 7.54770E-14 6.82055E-14
 -1      3593 9.37955E+01-9.70515E+00 2.52007E+01 2.65893E-01-8.88714E-14-9.65445E-14
 -1      3594-6.44781E+01-1.21444E-03-1.93552E+01-2.75551E-02-7.46265E-14-5.93205E-14
 -1      3595-6.68028E+01 1.13802E-02-2.00496E+01 9.64707E-02 1.10724E-12 1.00472E-13
 -1      3596-6.74083E+01 8.38394E-04-2.02347E+01 5.78494E-01-5.92517E-13-2.90812E-14
 -1      3597-7.05616E+01-1.33578E-02-2.11861E+01 1.09431E+00 5.56243E-13 6.87308E-14
 -1      3598-7.04931E+01-6.16340E-02-2.11800E+01 1.80562E+00 2.75376E-13 2.31283E-14
 -1      3599-7.43531E+01-2.26709E-01-2.23891E+01 2.94836E+00-2.56575E-13-3.86064E-14
 -1      3600-7.34778E+01-3.14094E-01-2.21524E+01 3.75935E+00-3.77079E-13 2.18988E-14
 -1      3601-7.78196E+01-8.28176E-01-2.36110E+01 5.71252E+00-3.90583E-13 4.69499E-14
 -1      3602-7.60354E+01-9.23433E-01-2.31036E+01 6.49785E+00-5.22966E-13-3.84333E-14
 -1      3603-8.04999E+01-2.04219E+00-2.47807E+01 9.36197E+00 1.21925E-13 2.72737E-14
 -1      3604-7.77609E+01-2.07422E+00-2.39675E+01 9.97316E+00-2.19800E-13 3.07827E-14
 -1      3605-8.18816E+01-4.06108E+00-2.58019E+01 1.37098E+01 2.70832E-13-7.72427E-14
 -1      3606-7.82318E+01-3.92752E+00-2.46654E+01 1.40080E+01-4.37352E-13-2.98554E-14
 -1      3607-8.14970E+01-6.97574E+00-2.65614E+01 1.84049E+01 5.92401E-13 3.24059E-15
 -1      3608-7.70860E+01-6.56169E+00-2.51121E+01 1.82914E+01 5.18478E-13-1.40043E-14
 -1      3609-7.90381E+01-1.07122E+01-2.69446E+01 2.29744E+01-4.22248E-13 2.96611E-15
 -1      3610-7.41058E+01-9.91753E+00-2.52245E+01 2.24179E+01-5.17701E-13-1.60488E-14
 -1      3611-7.44446E+01-1.50094E+01-2.68550E+01 2.69201E+01-3.83018E-13-5.17590E-16
 -1      3612-6.92739E+01-1.37739E+01-2.49310E+01 2.59671E+01 5.29151E-14-5.48467E-15
 -1      3613-6.79238E+01-1.94578E+01-2.62320E+01 2.98354E+01-4.02731E-13 2.45192E-15
 -1      3614-6.27754E+01-1.77743E+01-2.41803E+01 2.85976E+01 4.93961E-13-5.23990E-15
 -1      3615-5.98859E+01-2.35888E+01-2.50582E+01 3.14970E+01-2.12747E-13 1.09480E-14
 -1      3616-5.49437E+01-2.15008E+01-2.29472E+01 3.01206E+01-2.24225E-13 1.21044E-14
 -1      3617-5.08238E+01-2.69798E+01-2.33549E+01 3.18943E+01-2.80944E-13 4.62617E-15
 -1      3618-4.61695E+01-2.45664E+01-2.12328E+01 3.05231E+01 5.83718E-13 4.82243E-15
 -1      3619-4.11888E+01-2.93337E+01-2.11685E+01 3.11929E+01-5.55567E-13 5.58625E-15
 -1      3620-3.68097E+01-2.66905E+01-1.90604E+01 2.99397E+01 3.01016E-13-1.24590E-15
 -1      3621-3.13063E+01-3.05109E+01-1.85550E+01 2.96594E+01-1.67245E-13 3.90921E-16
 -1      3622-2.71219E+01-2.77331E+01-1.64652E+01 2.85922E+01-5.04935E-13-6.56677E-16
 -1      3623-2.13431E+01-3.05165E+01-1.55661E+01 2.75818E+01 4.32095E-13-2.09023E-16
 -1      3624-1.72348E+01-2.76881E+01-1.34842E+01 2.67230E+01-2.33669E-13-2.13191E-15
 -1      3625-1.13144E+01-2.94618E+01-1.22398E+01 2.52095E+01 7.68907E-14-4.74109E-15
 -1      3626-7.14648E+00-2.66511E+01-1.01456E+01 2.45437E+01-4.25407E-14-1.24789E-14
 -1      3627-1.10788E+00-2.75205E+01-8.59454E+00 2.27212E+01-3.56587E-14-4.87349E-15
 -1      3628 3.26468E+00-2.47809E+01-6.46061E+00 2.22037E+01 9.61856E-13 1.65600E-15
 -1      3629 9.49557E+00-2.48953E+01-4.62560E+00 2.02127E+01 2.03448E-13-1.29541E-14
 -1      3630 1.42319E+01-2.22701E+01-2.41717E+00 1.97746E+01-2.99456E-13-4.16975E-15
 -1      3631 2.08182E+01-2.18015E+01-3.00977E-01 1.76943E+01 8.74071E-13-9.03215E-15
 -1      3632 2.61076E+01-1.93317E+01 2.02641E+00 1.72402E+01 9.92718E-13-1.13532E-14
 -1      3633 3.33079E+01-1.84707E+01 4.44399E+00 1.50828E+01-1.11032E-13-7.00311E-14
 -1      3634 3.93986E+01-1.62059E+01 6.94974E+00 1.44766E+01-7.63028E-13-2.70698E-14
 -1      3635 4.75983E+01-1.51788E+01 9.71618E+00 1.21721E+01 2.05486E-13-2.21645E-14
 -1      3636 5.48434E+01-1.31932E+01 1.24837E+01 1.12017E+01 8.57567E-13 1.99749E-14
 -1      3637 6.46316E+01-1.23079E+01 1.56829E+01 8.54861E+00 2.46105E-13 7.14933E-15
 -1      3638 7.35663E+01-1.07298E+01 1.88337E+01 6.84112E+00 4.80934E-13-4.94828E-14
 -1      3639 8.57284E+01-1.04740E+01 2.25538E+01 3.41989E+00 7.03465E-13 8.41543E-15
 -1      3640 9.69507E+01-9.64642E+00 2.61632E+01 2.48137E-01 3.79042E-13-6.32949E-14
 -1      3641-6.53809E+01 1.46553E-03-1.96255E+01-3.47683E-02 3.58364E-13 3.15657E-14
 -1      3642-6.86085E+01 1.43453E-02-2.05911E+01 8.25572E-02 2.54895E-13-1.95070E-14
 -1      3643-7.00223E+01-6.67935E-04-2.10203E+01 6.62216E-01-4.70662E-13-1.59445E-13
 -1      3644-7.44193E+01-5.41438E-02-2.23572E+01 1.41384E+00-1.37093E-13-3.47768E-14
 -1      3645-7.48481E+01-1.30112E-01-2.25088E+01 2.30289E+00 4.82778E-13 2.41404E-14
 -1      3646-8.01659E+01-4.81339E-01-2.42118E+01 4.03182E+00 6.85967E-14 7.17819E-14
 -1      3647-7.94057E+01-6.12144E-01-2.40227E+01 5.01581E+00-6.56294E-13 4.06222E-14
 -1      3648-8.52157E+01-1.60243E+00-2.60655E+01 7.94824E+00 7.81425E-13 4.86667E-14
 -1      3649-8.31425E+01-1.72173E+00-2.54784E+01 8.80959E+00 2.63791E-13-1.23158E-14
 -1      3650-8.88205E+01-3.74574E+00-2.77920E+01 1.29850E+01 7.42133E-13 3.59812E-14
 -1      3651-8.54388E+01-3.72344E+00-2.67693E+01 1.34915E+01 3.35240E-13-3.37427E-15
 -1      3652-9.02555E+01-7.11056E+00-2.92335E+01 1.86882E+01 3.89466E-15 1.19368E-14
 -1      3653-8.57421E+01-6.78116E+00-2.77786E+01 1.86576E+01 5.44079E-13 2.53683E-14
 -1      3654-8.90129E+01-1.16561E+01-3.02249E+01 2.43922E+01-9.96415E-14-2.09345E-14
 -1      3655-8.37055E+01-1.08626E+01-2.83922E+01 2.37430E+01-6.55789E-13-1.13638E-14
 -1      3656-8.49624E+01-1.70519E+01-3.06282E+01 2.93682E+01-2.27241E-13 3.35114E-14
 -1      3657-7.92850E+01-1.56920E+01-2.85142E+01 2.81452E+01 1.29675E-13-2.83809E-14
 -1      3658-7.83931E+01-2.27343E+01-3.03608E+01 3.30178E+01 1.04386E-12 2.13776E-14
 -1      3659-7.27462E+01-2.07865E+01-2.80796E+01 3.13753E+01-3.17117E-13 4.36764E-15
 -1      3660-6.99090E+01-2.80507E+01-2.94084E+01 3.50226E+01-1.92229E-13-8.72460E-15
 -1      3661-6.45766E+01-2.55725E+01-2.70627E+01 3.31734E+01 1.16492E-12-2.11980E-15
 -1      3662-6.02325E+01-3.24248E+01-2.78152E+01 3.53850E+01-3.81460E-13-5.85228E-15
 -1      3663-5.53424E+01-2.95292E+01-2.54772E+01 3.35397E+01-8.90170E-13 8.66947E-16
 -1      3664-5.00114E+01-3.54743E+01-2.56610E+01 3.43615E+01 3.55830E-13-1.92474E-15
 -1      3665-4.55525E+01-3.22970E+01-2.33683E+01 3.26831E+01-2.40475E-13 8.15690E-16
 -1      3666-3.97011E+01-3.70450E+01-2.30366E+01 3.23401E+01-7.87210E-13-7.89572E-16
 -1      3667-3.55711E+01-3.37180E+01-2.07980E+01 3.09250E+01 1.26634E-13 1.20867E-15
 -1      3668-2.95348E+01-3.71787E+01-2.00246E+01 2.97222E+01-1.04826E-12-5.19381E-15
 -1      3669-2.55890E+01-3.38129E+01-1.78298E+01 2.86035E+01 5.11801E-13-6.65536E-16
 -1      3670-1.95528E+01-3.60462E+01-1.66883E+01 2.68440E+01-4.26936E-13-1.92505E-16
 -1      3671-1.56373E+01-3.27254E+01-1.45165E+01 2.60070E+01-4.57200E-13-9.94578E-16
 -1      3672-9.65234E+00-3.38806E+01-1.30670E+01 2.39428E+01 2.26381E-13 5.80707E-15
 -1      3673-5.61796E+00-3.06628E+01-1.08907E+01 2.33418E+01-1.65316E-13-1.39719E-14
 -1      3674 3.69187E-01-3.09287E+01-9.17399E+00 2.11545E+01-3.33533E-13 1.40644E-15
 -1      3675 4.66918E+00-2.78521E+01-6.96070E+00 2.07248E+01-4.92446E-13 5.67312E-15
 -1      3676 1.07923E+01-2.74257E+01-4.99575E+00 1.85254E+01 2.80087E-13-4.90743E-16
 -1      3677 1.55155E+01-2.45168E+01-2.70617E+00 1.81885E+01-4.36685E-13 1.38316E-14
 -1      3678 2.19793E+01-2.35917E+01-4.89767E-01 1.60241E+01-4.57141E-13-1.13244E-14
 -1      3679 2.73170E+01-2.08761E+01 1.92580E+00 1.56839E+01 8.98270E-13 2.49591E-14
 -1      3680 3.44081E+01-1.96489E+01 4.42048E+00 1.35419E+01 1.89004E-13 7.01394E-16
 -1      3681 4.06202E+01-1.71633E+01 7.02880E+00 1.30701E+01 2.52490E-13-2.30494E-14
 -1      3682 4.87465E+01-1.58605E+01 9.85591E+00 1.08678E+01-3.40800E-13-1.58789E-14
 -1      3683 5.62179E+01-1.36711E+01 1.27523E+01 1.00692E+01 3.33941E-13 2.60560E-14
 -1      3684 6.59967E+01-1.26067E+01 1.60023E+01 7.61203E+00 4.71565E-13-4.38684E-14
 -1      3685 7.53358E+01-1.08426E+01 1.93300E+01 6.14395E+00-1.63131E-13 4.42764E-15
 -1      3686 8.76055E+01-1.05376E+01 2.30969E+01 3.04488E+00-6.22198E-13-9.08993E-15
 -1      3687 9.95571E+01-9.59454E+00 2.69593E+01 2.26812E-01 3.91860E-13-1.08459E-13
 -1      3688-6.60740E+01 6.54693E-03-1.98322E+01-4.98926E-02 5.29703E-13-9.67367E-14
 -1      3689-7.06871E+01 1.72554E-02-2.12146E+01 8.70143E-02-2.15929E-13 5.40156E-14
 -1      3690-7.31852E+01-1.58064E-03-2.19707E+01 8.32047E-01-1.65433E-13-3.93841E-14
 -1      3691-7.94529E+01-1.44936E-01-2.38966E+01 2.01395E+00-3.30041E-13 6.08856E-14
 -1      3692-8.04504E+01-2.61890E-01-2.42314E+01 3.18608E+00-1.23358E-13 3.38352E-14
 -1      3693-8.78630E+01-9.93008E-01-2.66780E+01 5.91178E+00-6.63361E-14-3.21855E-14
 -1      3694-8.70501E+01-1.17937E+00-2.64897E+01 7.13620E+00-5.05120E-13-4.53894E-15
 -1      3695-9.47938E+01-3.08219E+00-2.93878E+01 1.16326E+01-1.00039E-13-2.33037E-14
 -1      3696-9.20576E+01-3.19769E+00-2.86003E+01 1.25302E+01-6.92397E-15 2.36022E-14
 -1      3697-9.90680E+01-6.83855E+00-3.18001E+01 1.86283E+01-5.60212E-13-4.85068E-14
 -1      3698-9.45774E+01-6.64805E+00-3.03935E+01 1.88516E+01-1.14555E-13 2.20840E-14
 -1      3699-9.97848E+01-1.23283E+01-3.36640E+01 2.59373E+01 1.27099E-13-1.26711E-14
 -1      3700-9.40088E+01-1.15797E+01-3.17035E+01 2.52908E+01 2.35637E-13 1.59018E-14
 -1      3701-9.66375E+01-1.91444E+01-3.47650E+01 3.24405E+01 3.88559E-13 8.16170E-15
 -1      3702-9.02298E+01-1.76559E+01-3.23926E+01 3.09413E+01-2.62763E-13 2.25876E-14
 -1      3703-9.00184E+01-2.64843E+01-3.49801E+01 3.72008E+01 8.99885E-14-2.57031E-15
 -1      3704-8.36197E+01-2.42019E+01-3.23721E+01 3.50612E+01 4.31903E-13-5.13639E-15
 -1      3705-8.08430E+01-3.33970E+01-3.42989E+01 3.97298E+01-5.44104E-13-6.45785E-15
 -1      3706-7.49081E+01-3.03978E+01-3.16152E+01 3.72684E+01-8.29636E-13 3.49277E-15
 -1      3707-7.02049E+01-3.90638E+01-3.28044E+01 4.00499E+01-3.08732E-13 5.21391E-15
 -1      3708-6.49352E+01-3.55149E+01-3.01557E+01 3.75841E+01 6.19439E-13-1.38741E-15
 -1      3709-5.90553E+01-4.29794E+01-3.06307E+01 3.85665E+01 8.80270E-14 4.39454E-15
 -1      3710-5.44356E+01-3.90821E+01-2.80729E+01 3.63351E+01-4.77813E-13-4.55569E-15
 -1      3711-4.80318E+01-4.49852E+01-2.79219E+01 3.58562E+01-2.04917E-13 9.45988E-17
 -1      3712-4.39168E+01-4.09295E+01-2.54686E+01 3.39932E+01 4.41510E-13 4.31157E-16
 -1      3713-3.74409E+01-4.51950E+01-2.48045E+01 3.24845E+01 4.91383E-13-3.26707E-16
 -1      3714-3.36379E+01-4.11335E+01-2.24434E+01 3.10307E+01 4.35928E-13-1.12225E-15
 -1      3715-2.73298E+01-4.38811E+01-2.13743E+01 2.89007E+01-5.92040E-14 4.29640E-16
 -1      3716-2.36493E+01-3.99212E+01-1.90809E+01 2.78328E+01 3.26568E-13 2.48742E-15
 -1      3717-1.75776E+01-4.13724E+01-1.76939E+01 2.54060E+01-3.77439E-13 1.79494E-15
 -1      3718-1.38534E+01-3.75805E+01-1.54381E+01 2.46652E+01 3.16285E-14 2.51552E-15
 -1      3719-7.96741E+00-3.79882E+01-1.37939E+01 2.21672E+01-8.11007E-13 7.82605E-15
 -1      3720-4.05441E+00-3.43989E+01-1.15426E+01 2.16793E+01 1.99648E-13 1.97725E-15
 -1      3721 1.77343E+00-3.40063E+01-9.67605E+00 1.92456E+01-3.77246E-13-3.77719E-15
 -1      3722 6.01241E+00-3.06338E+01-7.39230E+00 1.89313E+01 6.80205E-13 3.39617E-15
 -1      3723 1.19634E+01-2.96583E+01-5.31424E+00 1.66261E+01 4.33491E-13-7.33564E-15
 -1      3724 1.66783E+01-2.65077E+01-2.95465E+00 1.64028E+01 5.50236E-14-1.82309E-15
 -1      3725 2.29846E+01-2.51433E+01-6.53706E-01 1.42351E+01-3.02327E-13-1.52678E-14
 -1      3726 2.83648E+01-2.22222E+01 1.83625E+00 1.40109E+01-7.49077E-13-1.37837E-14
 -1      3727 3.53286E+01-2.06567E+01 4.39419E+00 1.19428E+01 1.65589E-13-2.83246E-14
 -1      3728 4.16427E+01-1.79882E+01 7.08793E+00 1.16003E+01 8.79379E-13-1.49185E-14
 -1      3729 4.96833E+01-1.64386E+01 9.96331E+00 9.53969E+00 4.50438E-13 2.86023E-14
 -1      3730 5.73422E+01-1.40801E+01 1.29666E+01 8.90356E+00-5.11041E-15-2.78474E-14
 -1      3731 6.70947E+01-1.28590E+01 1.62556E+01 6.66656E+00 6.40321E-14 2.58159E-14
 -1      3732 7.67693E+01-1.09389E+01 1.97305E+01 5.42818E+00-6.74539E-15-3.96324E-14
 -1      3733 8.91110E+01-1.05916E+01 2.35316E+01 2.66627E+00-4.04234E-13-7.74608E-15
 -1      3734 1.01674E+02-9.55011E+00 2.76065E+01 2.03210E-01 1.28055E-12-5.35996E-14
 -1      3735-6.65831E+01 2.47554E-02-1.99796E+01-7.97877E-02 2.78223E-13-9.60893E-14
 -1      3736-7.33425E+01 1.75712E-02-2.20122E+01 1.28665E-01-6.58158E-13-4.48081E-14
 -1      3737-7.73434E+01-4.66698E-03-2.32208E+01 1.15643E+00 8.34925E-13 6.10799E-14
 -1      3738-8.64483E+01-3.49537E-01-2.60598E+01 3.13366E+00 6.80207E-14-2.06397E-14
 -1      3739-8.80553E+01-5.27767E-01-2.65962E+01 4.75804E+00 4.69670E-13-3.31885E-14
 -1      3740-9.84589E+01-2.05470E+00-3.01808E+01 9.20507E+00 5.66498E-13 4.10593E-14
 -1      3741-9.72124E+01-2.29936E+00-2.98798E+01 1.07336E+01 6.00592E-14-5.14114E-14
 -1      3742-1.07368E+02-5.97712E+00-3.40360E+01 1.77183E+01 3.80513E-13 6.51085E-15
 -1      3743-1.03300E+02-5.99006E+00-3.28176E+01 1.84964E+01-2.53696E-13-5.84945E-14
 -1      3744-1.11462E+02-1.24980E+01-3.72249E+01 2.72994E+01-4.76525E-13 8.97597E-16
 -1      3745-1.05185E+02-1.18690E+01-3.51495E+01 2.68633E+01 6.16698E-13 1.42832E-14
 -1      3746-1.09979E+02-2.11702E+01-3.93838E+01 3.61347E+01-2.13016E-13-6.89706E-15
 -1      3747-1.02529E+02-1.95628E+01-3.66618E+01 3.43968E+01-1.39885E-13 1.39924E-14
 -1      3748-1.03409E+02-3.08126E+01-4.03051E+01 4.26445E+01 5.75699E-13-3.33085E-15
 -1      3749-9.58652E+01-2.80966E+01-3.72219E+01 3.98895E+01-6.65889E-13-2.39817E-15
 -1      3750-9.31955E+01-3.99603E+01-3.99827E+01 4.60094E+01 6.06841E-13-4.75567E-15
 -1      3751-8.63282E+01-3.62362E+01-3.68002E+01 4.27329E+01 2.00584E-13-2.61239E-15
 -1      3752-8.10755E+01-4.73853E+01-3.85701E+01 4.62833E+01 3.28124E-13-8.20631E-15
 -1      3753-7.52139E+01-4.29112E+01-3.54649E+01 4.29840E+01 7.99342E-13 5.73142E-15
 -1      3754-6.85013E+01-5.23979E+01-3.62969E+01 4.41302E+01-2.25385E-14-6.27515E-15
 -1      3755-6.36134E+01-4.74853E+01-3.33530E+01 4.11698E+01-6.10520E-15-6.86873E-15
 -1      3756-5.63789E+01-5.48609E+01-3.33944E+01 4.04377E+01 4.87069E-14 1.60185E-16
 -1      3757-5.22391E+01-4.97939E+01-3.06293E+01 3.80024E+01 1.01125E-12-2.21861E-16
 -1      3758-4.50941E+01-5.50270E+01-3.00545E+01 3.60202E+01 4.07002E-13-1.47334E-16
 -1      3759-4.14251E+01-5.00218E+01-2.74499E+01 3.41523E+01-6.11139E-13-1.18788E-16
 -1      3760-3.46693E+01-5.33391E+01-2.64170E+01 3.14800E+01-5.61822E-14 5.92251E-16
 -1      3761-3.12210E+01-4.85361E+01-2.39398E+01 3.01329E+01-3.30426E-13 1.18096E-16
 -1      3762-2.49252E+01-5.02754E+01-2.25716E+01 2.71900E+01-6.24847E-13-2.78294E-16
 -1      3763-2.14987E+01-4.57509E+01-2.01849E+01 2.62763E+01 2.44698E-13 3.11431E-15
 -1      3764-1.55932E+01-4.62630E+01-1.85659E+01 2.33370E+01-1.47337E-13 1.08916E-14
 -1      3765-1.20350E+01-4.20460E+01-1.62324E+01 2.27586E+01-5.62879E-13 2.13770E-15
 -1      3766-6.37540E+00-4.16443E+01-1.44132E+01 1.99780E+01 1.11420E-14 2.73139E-15
 -1      3767-2.55903E+00-3.77340E+01-1.20946E+01 1.96415E+01 1.46748E-12-1.29657E-14
 -1      3768 3.03791E+00-3.66782E+01-1.00983E+01 1.70888E+01-1.73537E-13 1.12900E-14
 -1      3769 7.23352E+00-3.30588E+01-7.75351E+00 1.69090E+01-7.81243E-14 9.96552E-16
 -1      3770 1.29775E+01-3.15592E+01-5.58030E+00 1.45958E+01 8.03550E-14-9.37425E-15
 -1      3771 1.76919E+01-2.82117E+01-3.16177E+00 1.44927E+01 6.11232E-14 7.50488E-15
 -1      3772 2.38271E+01-2.64448E+01-7.91427E-01 1.23916E+01-6.10878E-13 1.28668E-14
 -1      3773 2.92469E+01-2.33585E+01 1.75992E+00 1.22816E+01-8.22715E-14 6.45897E-15
 -1      3774 3.60796E+01-2.14929E+01 4.36854E+00 1.03342E+01-2.11025E-13 1.14955E-15
 -1      3775 4.24797E+01-1.86779E+01 7.13201E+00 1.01138E+01 5.00590E-13-1.73356E-14
 -1      3776 5.04323E+01-1.69149E+01 1.00450E+01 8.22327E+00-1.02693E-12-4.01097E-14
 -1      3777 5.82454E+01-1.44201E+01 1.31353E+01 7.73868E+00-1.35298E-12-6.11151E-15
 -1      3778 6.79626E+01-1.30662E+01 1.64536E+01 5.73586E+00-6.59098E-13 1.37823E-14
 -1      3779 7.79115E+01-1.10187E+01 2.00488E+01 4.71458E+00-1.21396E-13-5.10885E-14
 -1      3780 9.02982E+01-1.06361E+01 2.38738E+01 2.29365E+00 3.76529E-13 5.11711E-14
 -1      3781 1.03364E+02-9.51312E+00 2.81237E+01 1.78445E-01 4.61750E-13 2.47444E-14
 -1      3782-6.69202E+01 4.33236E-02-2.00753E+01-1.41477E-01-3.96022E-13-2.92095E-14
 -1      3783-7.70766E+01 9.39321E-03-2.31364E+01 2.53683E-01 5.07373E-14-4.67927E-14
 -1      3784-8.32469E+01 2.25598E-03-2.49923E+01 1.78536E+00-6.45300E-13-3.29452E-14
 -1      3785-9.67658E+01-8.39611E-01-2.93073E+01 5.27612E+00 2.95971E-13 7.56142E-14
 -1      3786-9.88686E+01-1.09881E+00-3.00172E+01 7.61937E+00 1.16473E-13 1.11413E-13
 -1      3787-1.13493E+02-4.36331E+00-3.53927E+01 1.50993E+01 1.34897E-13 1.66642E-14
 -1      3788-1.10964E+02-4.60842E+00-3.47066E+01 1.69177E+01 2.35607E-13 1.64943E-14
 -1      3789-1.23794E+02-1.17853E+01-4.07188E+01 2.77907E+01 6.77044E-13-1.13653E-14
 -1      3790-1.17247E+02-1.13938E+01-3.86332E+01 2.80068E+01-4.72617E-13-5.57415E-15
 -1      3791-1.25666E+02-2.28689E+01-4.46110E+01 4.02967E+01 5.44414E-13 6.86220E-15
 -1      3792-1.16759E+02-2.11883E+01-4.14285E+01 3.84745E+01 3.72036E-13-1.43029E-14
 -1      3793-1.19533E+02-3.58349E+01-4.66622E+01 4.97013E+01 5.53532E-13-2.11969E-14
 -1      3794-1.10207E+02-3.25474E+01-4.28706E+01 4.61828E+01-5.04448E-13-4.95978E-15
 -1      3795-1.07777E+02-4.82677E+01-4.68627E+01 5.44672E+01-1.46958E-14 8.29105E-16
 -1      3796-9.94375E+01-4.34918E+01-4.29205E+01 5.00599E+01 7.27403E-13 1.14068E-15
 -1      3797-9.33467E+01-5.81893E+01-4.55045E+01 5.46896E+01-2.24998E-13-1.29699E-15
 -1      3798-8.65657E+01-5.23439E+01-4.17100E+01 5.02251E+01 9.30925E-13 8.78322E-16
 -1      3799-7.85855E+01-6.46192E+01-4.29986E+01 5.15172E+01-7.48232E-13 2.95080E-15
 -1      3800-7.32862E+01-5.82121E+01-3.94811E+01 4.75684E+01-2.83125E-13 3.16953E-15
 -1      3801-6.48158E+01-6.75115E+01-3.97287E+01 4.63815E+01 1.12749E-12 9.79126E-16
 -1      3802-6.06176E+01-6.09846E+01-3.65068E+01 4.32085E+01-7.26279E-13-1.49372E-15
 -1      3803-5.24952E+01-6.73909E+01-3.59903E+01 4.04906E+01 3.70073E-13 4.35753E-17
 -1      3804-4.89732E+01-6.10572E+01-3.30302E+01 3.81212E+01-1.09034E-13 7.04227E-17
 -1      3805-4.15575E+01-6.49915E+01-3.19840E+01 3.46562E+01-3.63916E-13-7.62026E-16
 -1      3806-3.83620E+01-5.90346E+01-2.92357E+01 3.29936E+01-1.93300E-13-1.21039E-15
 -1      3807-3.16988E+01-6.10229E+01-2.78316E+01 2.93256E+01 4.23559E-13 2.06834E-15
 -1      3808-2.85790E+01-5.55253E+01-2.52444E+01 2.82290E+01 1.71195E-13 2.72325E-16
 -1      3809-2.25484E+01-5.60654E+01-2.35959E+01 2.46849E+01-2.40314E-13-6.89651E-15
 -1      3810-1.93331E+01-5.10414E+01-2.11227E+01 2.40143E+01 1.15571E-12-2.82947E-15
 -1      3811-1.37458E+01-5.05471E+01-1.92971E+01 2.07606E+01-1.67455E-13 7.21494E-15
 -1      3812-1.03132E+01-4.59718E+01-1.68937E+01 2.03949E+01 1.65222E-13 2.17736E-15
 -1      3813-4.95973E+00-4.47636E+01-1.49244E+01 1.74929E+01 2.30337E-13-8.51739E-15
 -1      3814-1.20936E+00-4.05932E+01-1.25475E+01 1.73330E+01-3.82828E-13-2.01667E-16
 -1      3815 4.12213E+00-3.89112E+01-1.04430E+01 1.47815E+01 5.51624E-13-8.71438E-15
 -1      3816 8.29372E+00-3.50973E+01-8.04699E+00 1.47463E+01-4.38262E-13 4.34176E-15
 -1      3817 1.38215E+01-3.31225E+01-5.79610E+00 1.25092E+01-3.87765E-13-1.13726E-14
 -1      3818 1.85440E+01-2.96226E+01-3.32944E+00 1.25272E+01 1.48038E-13-2.03560E-16
 -1      3819 2.45110E+01-2.75022E+01-9.03512E-01 1.05483E+01-1.79144E-13 2.50795E-16
 -1      3820 2.99684E+01-2.42890E+01 1.69719E+00 1.05478E+01-1.94741E-13-1.13971E-14
 -1      3821 3.66766E+01-2.21664E+01 4.34555E+00 8.75508E+00-5.32307E-13-1.43113E-15
 -1      3822 4.31494E+01-1.92382E+01 7.16472E+00 8.64829E+00 1.27037E-13-3.36388E-15
 -1      3823 5.10186E+01-1.72963E+01 1.01063E+01 6.94552E+00-6.91228E-13-5.03000E-15
 -1      3824 5.89572E+01-1.46951E+01 1.32662E+01 6.60078E+00 2.78426E-13-9.26842E-15
 -1      3825 6.86358E+01-1.32316E+01 1.66056E+01 4.83738E+00 5.45273E-13-1.04374E-14
 -1      3826 7.88056E+01-1.10832E+01 2.02973E+01 4.01892E+00 1.59920E-13-6.25803E-15
 -1      3827 9.12172E+01-1.06717E+01 2.41384E+01 1.93404E+00-4.70236E-13-2.10710E-14
 -1      3828 1.04690E+02-9.48315E+00 2.85295E+01 1.53418E-01 6.53166E-13-8.94889E-15
 -1      3829-6.70862E+01 2.03384E-01-2.00772E+01-2.73873E-01 2.30508E-13 2.33982E-14
 -1      3830-8.29322E+01-3.24836E-02-2.49082E+01 5.56838E-01 3.16558E-13-1.44318E-15
 -1      3831-9.22634E+01-3.15067E-02-2.77118E+01 3.02324E+00 1.94247E-14-2.69971E-15
 -1      3832-1.12791E+02-2.05625E+00-3.44891E+01 9.55271E+00 1.16617E-13 4.73768E-15
 -1      3833-1.14827E+02-2.43517E+00-3.52154E+01 1.30276E+01 5.86447E-13-5.69666E-15
 -1      3834-1.35213E+02-9.62424E+00-4.35035E+01 2.59315E+01-2.44103E-13 1.24277E-14
 -1      3835-1.29559E+02-9.61239E+00-4.18006E+01 2.77107E+01 1.74038E-14 2.71555E-14
 -1      3836-1.44458E+02-2.36675E+01-5.05036E+01 4.43335E+01-9.03154E-14 2.41877E-15
 -1      3837-1.33656E+02-2.20371E+01-4.67657E+01 4.28979E+01 5.44973E-13-3.36878E-15
 -1      3838-1.40004E+02-4.16363E+01-5.45640E+01 5.88338E+01-1.72087E-13-1.21722E-14
 -1      3839-1.27807E+02-3.75820E+01-4.96773E+01 5.43925E+01-6.04890E-14-4.46133E-15
 -1      3840-1.25970E+02-5.91995E+01-5.56207E+01 6.61052E+01-6.99931E-14-5.13289E-15
 -1      3841-1.15209E+02-5.28148E+01-5.04649E+01 6.00439E+01 4.87822E-13-1.16251E-14
 -1      3842-1.07809E+02-7.28589E+01-5.42626E+01 6.62597E+01 2.43203E-13-3.72088E-15
 -1      3843-9.95765E+01-6.48660E+01-4.93844E+01 6.00762E+01-4.68806E-13-3.59956E-15
 -1      3844-8.96141E+01-8.11492E+01-5.12814E+01 6.14344E+01-2.91078E-13-2.81506E-16
 -1      3845-8.37134E+01-7.24305E+01-4.68871E+01 5.60931E+01-2.01300E-13 5.13893E-16
 -1      3846-7.33823E+01-8.43060E+01-4.73490E+01 5.40828E+01-4.03536E-13-8.22108E-16
 -1      3847-6.91176E+01-7.55817E+01-4.34457E+01 4.99458E+01 4.65072E-13 6.96971E-16
 -1      3848-5.95826E+01-8.34089E+01-4.29311E+01 4.60602E+01-4.11727E-13-9.17742E-16
 -1      3849-5.62628E+01-7.51393E+01-3.94493E+01 4.30973E+01-1.82737E-13 8.78342E-16
 -1      3850-4.79207E+01-7.97031E+01-3.83134E+01 3.84582E+01 3.15526E-14-8.41178E-16
 -1      3851-4.50363E+01-7.21193E+01-3.51692E+01 3.64675E+01-3.29551E-13-1.23048E-15
 -1      3852-3.78521E+01-7.42566E+01-3.36529E+01 3.17783E+01 2.12318E-13 2.07957E-15
 -1      3853-3.50771E+01-6.74298E+01-3.07696E+01 3.05238E+01-1.59817E-13-5.47763E-16
 -1      3854-2.88291E+01-6.78586E+01-2.90219E+01 2.61599E+01 6.24392E-13-1.36867E-15
 -1      3855-2.59681E+01-6.17657E+01-2.63337E+01 2.54327E+01 4.08627E-14 1.02012E-15
 -1      3856-2.03843E+01-6.10387E+01-2.44389E+01 2.15536E+01 6.50942E-13 2.37657E-15
 -1      3857-1.73186E+01-5.56095E+01-2.18890E+01 2.11900E+01-1.36755E-13-2.27451E-15
 -1      3858-1.21369E+01-5.41268E+01-1.98885E+01 1.78295E+01-4.89101E-13 2.84423E-16
 -1      3859-8.78387E+00-4.92735E+01-1.74255E+01 1.77070E+01-1.80286E-13 6.81318E-16
 -1      3860-3.76869E+00-4.73145E+01-1.53324E+01 1.48334E+01-4.43991E-13 6.09637E-15
 -1      3861-5.35118E-02-4.29490E+01-1.29075E+01 1.48620E+01 5.86010E-13 2.77323E-17
 -1      3862 5.00969E+00-4.07069E+01-1.07154E+01 1.24137E+01-2.40371E-13-4.04941E-15
 -1      3863 9.17519E+00-3.67504E+01-8.27851E+00 1.25245E+01-6.85660E-13 4.94017E-15
 -1      3864 1.44971E+01-3.43637E+01-5.96580E+00 1.04295E+01 1.04575E-12 4.56363E-15
 -1      3865 1.92351E+01-3.07532E+01-3.46129E+00 1.05648E+01 7.42797E-13-2.46342E-15
 -1      3866 2.50482E+01-2.83338E+01-9.91842E-01 8.74824E+00 6.19222E-13 2.15071E-15
 -1      3867 3.05414E+01-2.50280E+01 1.64737E+00 8.85041E+00-3.13456E-13 7.20812E-17
 -1      3868 3.71383E+01-2.26925E+01 4.32619E+00 7.23426E+00-2.25429E-13-8.39943E-15
 -1      3869 4.36722E+01-1.96806E+01 7.18881E+00 7.23175E+00-3.74086E-13-1.34134E-14
 -1      3870 5.14665E+01-1.75929E+01 1.01516E+01 5.72555E+00 2.94991E-13 6.28995E-16
 -1      3871 5.95063E+01-1.49114E+01 1.33659E+01 5.50878E+00-5.36070E-13-6.27640E-15
 -1      3872 6.91464E+01-1.33601E+01 1.67201E+01 3.98308E+00 7.51024E-13 4.28531E-15
 -1      3873 7.94918E+01-1.11338E+01 2.04877E+01 3.35244E+00-3.36583E-13-1.94277E-14
 -1      3874 9.19134E+01-1.06995E+01 2.43385E+01 1.59223E+00 3.76558E-13 2.80111E-15
 -1      3875 1.05708E+02-9.45952E+00 2.88414E+01 1.28816E-01-1.42877E-13 6.48342E-14
 -1      3876-6.70167E+01 1.37203E-01-2.00761E+01-5.42470E-01 5.68757E-13-2.85515E-14
 -1      3877-9.28040E+01-2.05386E-01-2.79264E+01 1.40342E+00 9.25910E-13-3.59329E-15
 -1      3878-1.07119E+02 4.53662E-02-3.21536E+01 5.77751E+00 2.08549E-15-3.53634E-14
 -1      3879-1.39543E+02-5.62661E+00-4.36051E+01 1.87816E+01 2.19039E-13-5.95665E-14
 -1      3880-1.39138E+02-5.82599E+00-4.35447E+01 2.37837E+01 1.41428E-13 2.45200E-14
 -1      3881-1.66389E+02-2.24258E+01-5.67296E+01 4.63408E+01 1.75226E-13-2.57123E-14
 -1      3882-1.53834E+02-2.10127E+01-5.25296E+01 4.66573E+01 2.90770E-13 2.53077E-14
 -1      3883-1.67651E+02-4.81137E+01-6.48329E+01 7.05256E+01-1.63919E-13-2.33891E-15
 -1      3884-1.50627E+02-4.30163E+01-5.81781E+01 6.51270E+01 3.46790E-13-6.47556E-15
 -1      3885-1.50348E+02-7.43520E+01-6.75145E+01 8.27157E+01 1.30362E-13 4.77370E-15
 -1      3886-1.35326E+02-6.53212E+01-6.02780E+01 7.40632E+01-1.46633E-13-1.83942E-15
 -1      3887-1.25778E+02-9.39894E+01-6.60234E+01 8.27397E+01-2.84242E-13 5.40705E-16
 -1      3888-1.15173E+02-8.23761E+01-5.93400E+01 7.38385E+01-2.70813E-13-2.19242E-15
 -1      3889-1.01959E+02-1.04706E+02-6.20768E+01 7.50030E+01-2.10612E-13-9.65688E-17
 -1      3890-9.52216E+01-9.21837E+01-5.62848E+01 6.76105E+01-2.97391E-13-3.55717E-16
 -1      3891-8.20111E+01-1.07580E+02-5.69389E+01 6.40561E+01-4.24387E-13-2.61489E-15
 -1      3892-7.77494E+01-9.53842E+01-5.19910E+01 5.86516E+01-3.44298E-13-9.89517E-17
 -1      3893-6.61666E+01-1.04888E+02-5.13639E+01 5.28498E+01 6.74748E-14-3.03916E-16
 -1      3894-6.31920E+01-9.36916E+01-4.71051E+01 4.92238E+01 7.55136E-14 4.80535E-16
 -1      3895-5.35852E+01-9.87949E+01-4.57505E+01 4.28078E+01-1.44340E-13-1.69937E-15
 -1      3896-5.11344E+01-8.88529E+01-4.20271E+01 4.05371E+01 2.58726E-13-6.18621E-16
 -1      3897-4.32694E+01-9.09155E+01-4.02832E+01 3.43960E+01 4.51948E-13 2.62469E-15
 -1      3898-4.09181E+01-8.22340E+01-3.69694E+01 3.30749E+01-3.92691E-13-2.84009E-15
 -1      3899-3.43818E+01-8.23021E+01-3.50262E+01 2.76020E+01-3.96382E-13-8.19972E-16
 -1      3900-3.19129E+01-7.47668E+01-3.20220E+01 2.69143E+01 1.63742E-13 1.04895E-15
 -1      3901-2.62957E+01-7.35789E+01-2.99784E+01 2.22214E+01 1.72379E-13 5.10944E-15
 -1      3902-2.36001E+01-6.70313E+01-2.72033E+01 2.19425E+01 3.41791E-13 3.33288E-15
 -1      3903-1.85555E+01-6.50832E+01-2.51038E+01 1.80008E+01-2.29249E-13-3.33287E-16
 -1      3904-1.55725E+01-5.93606E+01-2.24906E+01 1.79784E+01 1.77668E-13-6.07150E-15
 -1      3905-1.08215E+01-5.69744E+01-2.03482E+01 1.46998E+01-2.30316E-13 1.32720E-15
 -1      3906-7.50372E+00-5.19282E+01-1.78379E+01 1.48318E+01 7.65586E-13-9.86163E-16
 -1      3907-2.81938E+00-4.93094E+01-1.56461E+01 1.21105E+01 1.58665E-13-3.45727E-15
 -1      3908 8.87757E-01-4.48127E+01-1.31843E+01 1.23277E+01-1.77659E-13-3.51101E-15
 -1      3909 5.70293E+00-4.20931E+01-1.09233E+01 1.00606E+01-6.25989E-13-2.66220E-15
 -1      3910 9.87717E+00-3.80422E+01-8.45545E+00 1.03126E+01 8.56217E-13-5.35499E-16
 -1      3911 1.50161E+01-3.53124E+01-6.09471E+00 8.40634E+00 5.67789E-13 1.52168E-15
 -1      3912 1.97753E+01-3.16285E+01-3.56180E+00 8.65182E+00 1.56400E-14 1.56053E-15
 -1      3913 2.54552E+01-2.89648E+01-1.05905E+00 7.02316E+00-1.08085E-12-8.72497E-15
 -1      3914 3.09823E+01-2.55962E+01 1.60914E+00 7.21966E+00-6.12666E-13-2.03965E-16
 -1      3915 3.74840E+01-2.30896E+01 4.31075E+00 5.79165E+00-3.25771E-13 1.50136E-14
 -1      3916 4.40693E+01-2.00191E+01 7.20633E+00 5.88385E+00 2.18907E-13 1.03978E-14
 -1      3917 5.17989E+01-1.78160E+01 1.01844E+01 4.57573E+00-7.62929E-13-6.61926E-16
 -1      3918 5.99195E+01-1.50764E+01 1.34402E+01 4.47532E+00 5.33300E-14-6.69820E-15
 -1      3919 6.95235E+01-1.34566E+01 1.68041E+01 3.18041E+00 1.07936E-14-7.46899E-15
 -1      3920 8.00061E+01-1.11723E+01 2.06302E+01 2.72250E+00 4.39432E-13-4.61782E-15
 -1      3921 9.24268E+01-1.07205E+01 2.44860E+01 1.27120E+00-1.71425E-13-1.90217E-14
 -1      3922 1.06471E+02-9.44141E+00 2.90755E+01 1.05130E-01-1.02678E-14-9.50175E-15
 -1      3923-6.64974E+01 2.34591E+00-1.92578E+01-1.54084E+00 4.47490E-13 6.84470E-15
 -1      3924-1.12237E+02-5.57897E-01-3.38728E+01 3.59780E+00 1.87747E-13-5.72479E-14
 -1      3925-1.33523E+02-7.60347E-01-4.03346E+01 1.21322E+01 5.69714E-13 2.19110E-14
 -1      3926-1.85905E+02-1.65699E+01-6.08437E+01 4.01937E+01-7.43541E-13 8.42867E-15
 -1      3927-1.75933E+02-1.59157E+01-5.76506E+01 4.64516E+01 3.90764E-13-3.10081E-14
 -1      3928-2.07533E+02-5.43986E+01-7.87360E+01 8.47657E+01-1.74840E-13-1.77189E-14
 -1      3929-1.82082E+02-4.77815E+01-6.90846E+01 7.90613E+01-9.64915E-13-1.68715E-14
 -1      3930-1.86370E+02-9.70577E+01-8.51983E+01 1.07875E+02 2.18868E-14-3.91990E-15
 -1      3931-1.62979E+02-8.31331E+01-7.39637E+01 9.47463E+01 6.84143E-13 6.46860E-16
 -1      3932-1.49575E+02-1.27064E+02-8.31432E+01 1.07489E+02 1.17802E-12 3.19802E-15
 -1      3933-1.34893E+02-1.08661E+02-7.31827E+01 9.38834E+01 1.17800E-13 1.74033E-15
 -1      3934-1.15950E+02-1.40635E+02-7.70974E+01 9.40428E+01 6.71238E-13 1.23125E-15
 -1      3935-1.08172E+02-1.21325E+02-6.89451E+01 8.34902E+01 3.70796E-13-1.53366E-15
 -1      3936-9.03262E+01-1.41561E+02-6.96597E+01 7.68701E+01-1.67428E-13 9.03408E-16
 -1      3937-8.63619E+01-1.23545E+02-6.30474E+01 6.98471E+01 6.72372E-14-6.57259E-16
 -1      3938-7.17926E+01-1.34840E+02-6.20599E+01 6.07635E+01-2.77772E-13 7.55245E-16
 -1      3939-6.94899E+01-1.19035E+02-5.66152E+01 5.65289E+01-9.42439E-13-5.52682E-16
 -1      3940-5.82090E+01-1.24314E+02-5.48089E+01 4.73554E+01 8.28888E-14 5.95142E-16
 -1      3941-5.64238E+01-1.10861E+02-5.02290E+01 4.50121E+01 8.71103E-14 1.70570E-15
 -1      3942-4.77390E+01-1.12369E+02-4.80710E+01 3.67851E+01-3.32940E-13 5.85020E-16
 -1      3943-4.59473E+01-1.01055E+02-4.41335E+01 3.56298E+01 2.50050E-13-5.50633E-16
 -1      3944-3.90986E+01-1.00314E+02-4.18526E+01 2.86601E+01-1.95812E-13-5.23277E-15
 -1      3945-3.70876E+01-9.08110E+01-3.83942E+01 2.82179E+01 6.37052E-14-6.44965E-16
 -1      3946-3.14481E+01-8.87898E+01-3.60930E+01 2.24807E+01 4.65360E-13-2.31110E-15
 -1      3947-2.91420E+01-8.07651E+01-3.29907E+01 2.24522E+01-4.02502E-14 2.13377E-15
 -1      3948-2.42436E+01-7.80585E+01-3.07069E+01 1.77937E+01-1.04652E-12-2.59452E-16
 -1      3949-2.16170E+01-7.12181E+01-2.78646E+01 1.79968E+01-4.23680E-13-3.64480E-15
 -1      3950-1.71202E+01-6.81808E+01-2.56027E+01 1.42320E+01 2.07911E-13 3.18763E-16
 -1      3951-1.41586E+01-6.22806E+01-2.29425E+01 1.45574E+01-8.08210E-15 1.68353E-15
 -1      3952-9.81353E+00-5.91187E+01-2.06891E+01 1.15116E+01-5.76241E-13-6.62781E-16
 -1      3953-6.49368E+00-5.39618E+01-1.81450E+01 1.18933E+01-6.64342E-13-3.56253E-15
 -1      3954-2.10528E+00-5.07925E+01-1.58768E+01 9.41611E+00-1.66166E-13-1.92164E-15
 -1      3955 1.61544E+00-4.62229E+01-1.33890E+01 9.81305E+00 2.14669E-13 1.72165E-15
 -1      3956 6.21686E+00-4.31136E+01-1.10753E+01 7.78036E+00 5.39319E-13 1.91957E-15
 -1      3957 1.04110E+01-3.90106E+01-8.58580E+00 8.16413E+00-4.65469E-13-6.95824E-17
 -1      3958 1.53963E+01-3.60057E+01-6.18864E+00 6.47526E+00 6.88483E-14 1.44070E-15
 -1      3959 2.01805E+01-3.22800E+01-3.63570E+00 6.82173E+00 3.35190E-13 5.42073E-15
 -1      3960 2.57504E+01-2.94234E+01-1.10808E+00 5.39429E+00-4.30483E-13 1.62933E-15
 -1      3961 3.13091E+01-2.60171E+01 1.58093E+00 5.67616E+00-7.46162E-13-4.46575E-15
 -1      3962 3.77327E+01-2.33771E+01 4.29908E+00 4.43953E+00-3.36143E-13 8.39915E-16
 -1      3963 4.43608E+01-2.02689E+01 7.21880E+00 4.61704E+00 1.23492E-13-6.05328E-15
 -1      3964 5.20365E+01-1.79772E+01 1.02072E+01 3.50303E+00-1.09378E-13 1.63326E-14
 -1      3965 6.02208E+01-1.51979E+01 1.34941E+01 3.50791E+00-6.31937E-13-3.48023E-15
 -1      3966 6.97920E+01-1.35262E+01 1.68637E+01 2.43329E+00-8.30491E-13-6.45550E-15
 -1      3967 8.03798E+01-1.12006E+01 2.07337E+01 2.13340E+00-3.06603E-13-1.97791E-14
 -1      3968 9.27921E+01-1.07358E+01 2.45908E+01 9.72467E-01 1.24365E-12 1.82436E-14
 -1      3969 1.07027E+02-9.42802E+00 2.92458E+01 8.26842E-02 3.31728E-14 4.88701E-14
 -1      3970-6.80420E+01-1.98615E+00-2.10204E+01-2.11505E+00 6.04944E-13-1.13680E-14
 -1      3971-1.63784E+02-5.91338E+00-5.09834E+01 1.25274E+01-2.28894E-13 5.03042E-15
 -1      3972-1.85945E+02-1.76336E+00-5.64140E+01 3.12022E+01-9.96490E-14-1.70910E-14
 -1      3973-2.68036E+02-5.90051E+01-9.83606E+01 9.72194E+01-7.19011E-13 6.19867E-15
 -1      3974-2.28188E+02-4.69438E+01-8.27356E+01 9.58965E+01-1.30576E-13 6.60371E-15
 -1      3975-2.47957E+02-1.36312E+02-1.15598E+02 1.49712E+02-1.57848E-13-1.29982E-16
 -1      3976-2.04910E+02-1.11319E+02-9.50921E+01 1.27758E+02 9.12926E-14-6.67204E-16
 -1      3977-1.83409E+02-1.85644E+02-1.10994E+02 1.47669E+02 3.24379E-13-1.28717E-15
 -1      3978-1.61372E+02-1.52458E+02-9.43487E+01 1.24915E+02 1.43914E-13-2.24543E-16
 -1      3979-1.31234E+02-2.00684E+02-9.97866E+01 1.21375E+02-3.15066E-13-1.10925E-15
 -1      3980-1.22732E+02-1.67851E+02-8.73327E+01 1.05845E+02-2.20228E-13 1.50185E-15
 -1      3981-9.70874E+01-1.94421E+02-8.76048E+01 9.26477E+01-5.16714E-13-5.09490E-15
 -1      3982-9.43617E+01-1.65933E+02-7.82067E+01 8.39034E+01-2.28996E-13 1.46236E-15
 -1      3983-7.54660E+01-1.78454E+02-7.62844E+01 6.89207E+01-2.91351E-13 1.50712E-15
 -1      3984-7.45450E+01-1.55077E+02-6.89730E+01 6.46054E+01 1.35518E-13 5.89876E-16
 -1      3985-6.11844E+01-1.59452E+02-6.62682E+01 5.10542E+01 2.76375E-13 2.56963E-16
 -1      3986-6.04709E+01-1.40654E+02-6.04006E+01 4.92655E+01-1.83273E-14-4.06957E-16
 -1      3987-5.09361E+01-1.40585E+02-5.75120E+01 3.80326E+01-3.29182E-13 5.08355E-16
 -1      3988-4.99053E+01-1.25502E+02-5.26684E+01 3.75843E+01-1.58497E-13-2.41040E-15
 -1      3989-4.28281E+01-1.23134E+02-4.98291E+01 2.86191E+01 9.81471E-14 1.21965E-15
 -1      3990-4.13599E+01-1.10944E+02-4.57253E+01 2.88414E+01-3.75385E-13 1.34528E-15
 -1      3991-3.57929E+01-1.07476E+02-4.30103E+01 2.17976E+01 6.54696E-13 1.54296E-15
 -1      3992-3.38983E+01-9.75063E+01-3.94466E+01 2.23295E+01 9.87588E-13-3.30533E-17
 -1      3993-2.92168E+01-9.35904E+01-3.68643E+01 1.68193E+01 1.52866E-13 5.13447E-16
 -1      3994-2.69337E+01-8.53188E+01-3.36946E+01 1.74722E+01-4.61771E-13 1.36657E-15
 -1      3995-2.27287E+01-8.13016E+01-3.12256E+01 1.31534E+01 1.68420E-13-1.00130E-15
 -1      3996-2.00869E+01-7.43312E+01-2.83396E+01 1.38319E+01 8.86262E-14-2.98179E-15
 -1      3997-1.60838E+01-7.03870E+01-2.59537E+01 1.04273E+01 4.79180E-13-7.76170E-16
 -1      3998-1.30939E+01-6.44181E+01-2.32644E+01 1.10848E+01-5.43845E-13-8.12054E-17
 -1      3999-9.09764E+00-6.06273E+01-2.09270E+01 8.37843E+00-5.50370E-13 1.18934E-16
 -1      4000-5.74715E+00-5.54327E+01-1.83623E+01 8.99323E+00 1.72176E-13 1.62533E-15
 -1      4001-1.60451E+00-5.18263E+01-1.60368E+01 6.81944E+00-3.60118E-13-1.90759E-15
 -1      4002 2.14546E+00-4.72338E+01-1.35333E+01 7.38149E+00 3.08664E-14 2.83122E-15
 -1      4003 6.57365E+00-4.38200E+01-1.11802E+01 5.61405E+00-1.08741E-13 1.20121E-15
 -1      4004 1.07952E+01-3.97001E+01-8.67737E+00 6.11728E+00 1.54811E-14-5.85800E-15
 -1      4005 1.56581E+01-3.64832E+01-6.25334E+00 4.65966E+00-3.10117E-13 2.85349E-15
 -1      4006 2.04693E+01-3.27416E+01-3.68753E+00 5.09688E+00 7.53690E-13-2.78777E-15
 -1      4007 2.59523E+01-2.97381E+01-1.14191E+00 3.87418E+00-7.28045E-13-5.31461E-16
 -1      4008 3.15401E+01-2.63141E+01 1.56112E+00 4.23238E+00-1.96833E-13 1.80219E-15
 -1      4009 3.79018E+01-2.35739E+01 4.29078E+00 3.18413E+00 8.96699E-14 9.10207E-15
 -1      4010 4.45654E+01-2.04448E+01 7.22740E+00 3.43800E+00 4.58332E-13-3.48811E-15
 -1      4011 5.21974E+01-1.80874E+01 1.02224E+01 2.51029E+00-5.29284E-13 6.25892E-15
 -1      4012 6.04312E+01-1.52833E+01 1.35316E+01 2.61008E+00 2.54392E-13-4.14564E-15
 -1      4013 6.99733E+01-1.35739E+01 1.69037E+01 1.74296E+00 1.78389E-13-1.91904E-14
 -1      4014 8.06403E+01-1.12205E+01 2.08057E+01 1.58707E+00 3.37970E-13-9.19547E-15
 -1      4015 9.30388E+01-1.07464E+01 2.46615E+01 6.96512E-01 1.36706E-13 6.21006E-16
 -1      4016 1.07414E+02-9.41853E+00 2.93646E+01 6.16746E-02-1.08225E-12 1.71406E-14
 -1      4017-4.31920E+01 4.48332E+01 4.88124E-01-2.26166E+01 1.00227E-13 1.69561E-14
 -1      4018-3.59597E+02-8.14872E+01-1.32751E+02 6.76927E+01-5.68005E-14 3.98814E-14
 -1      4019-2.93390E+02-2.83152E+01-9.68222E+01 1.03897E+02-3.55691E-13-5.00489E-15
 -1      4020-3.73304E+02-2.18864E+02-1.78432E+02 2.38852E+02 4.85023E-13 1.12457E-15
 -1      4021-2.76866E+02-1.66633E+02-1.33509E+02 1.88725E+02 3.70656E-13 1.20002E-15
 -1      4022-2.32223E+02-3.13430E+02-1.64325E+02 2.20637E+02-1.39939E-13 4.98138E-15
 -1      4023-1.98651E+02-2.37700E+02-1.31304E+02 1.77022E+02-5.72485E-13 1.40308E-15
 -1      4024-1.43611E+02-3.14266E+02-1.37784E+02 1.59335E+02-1.95747E-13-1.16778E-15
 -1      4025-1.37903E+02-2.50357E+02-1.16769E+02 1.37147E+02 3.43338E-14-1.06862E-15
 -1      4026-9.87824E+01-2.82895E+02-1.14776E+02 1.08443E+02-5.94255E-13-3.08803E-15
 -1      4027-1.00018E+02-2.34123E+02-1.00443E+02 9.98141E+01 3.21673E-13-3.49565E-15
 -1      4028-7.52477E+01-2.44697E+02-9.61625E+01 7.37793E+01 9.47220E-13 4.65470E-15
 -1      4029-7.71153E+01-2.08493E+02-8.58204E+01 7.15849E+01-2.93952E-13 5.40544E-15
 -1      4030-6.16159E+01-2.09027E+02-8.13130E+01 5.10537E+01-5.05844E-13 1.10170E-15
 -1      4031-6.25708E+01-1.82054E+02-7.34831E+01 5.15593E+01 2.09103E-13 2.79022E-16
 -1      4032-5.24958E+01-1.78237E+02-6.93025E+01 3.60885E+01 2.34401E-13 2.37969E-15
 -1      4033-5.24407E+01-1.57813E+02-6.31433E+01 3.75756E+01 5.16715E-13 3.16034E-15
 -1      4034-4.54544E+01-1.52317E+02-5.93897E+01 2.60586E+01 1.25093E-13-2.69986E-15
 -1      4035-4.45791E+01-1.36528E+02-5.43802E+01 2.77827E+01 8.97573E-14-5.48597E-17
 -1      4036-3.93263E+01-1.30592E+02-5.10173E+01 1.91958E+01 4.34382E-13 1.40424E-15
 -1      4037-3.78274E+01-1.18119E+02-4.68188E+01 2.08554E+01-1.92282E-13-1.08041E-15
 -1      4038-3.35242E+01-1.12299E+02-4.37773E+01 1.44044E+01-4.58971E-13 9.45917E-16
 -1      4039-3.15433E+01-1.02234E+02-4.01590E+01 1.58940E+01-5.33865E-13-1.44804E-15
 -1      4040-2.77262E+01-9.67579E+01-3.73676E+01 1.09974E+01-1.31692E-13 6.00266E-16
 -1      4041-2.53519E+01-8.84718E+01-3.41662E+01 1.22950E+01-1.11650E-13 8.35565E-16
 -1      4042-2.17363E+01-8.34096E+01-3.15604E+01 8.53457E+00-1.68385E-13 1.73263E-15
 -1      4043-1.90151E+01-7.64555E+01-2.86554E+01 9.65180E+00-1.39692E-13-6.18152E-16
 -1      4044-1.54145E+01-7.18053E+01-2.61784E+01 6.72770E+00-6.45045E-13-5.88930E-16
 -1      4045-1.23604E+01-6.58608E+01-2.34772E+01 7.68675E+00-6.35803E-13 1.63499E-15
 -1      4046-8.64023E+00-6.15892E+01-2.10784E+01 5.38323E+00 2.13928E-13 2.54039E-15
 -1      4047-5.23944E+00-5.64175E+01-1.85055E+01 6.20737E+00 1.02296E-12 1.63308E-16
 -1      4048-1.28717E+00-5.24814E+01-1.61381E+01 4.36798E+00-6.39895E-14 1.01981E-15
 -1      4049 2.50234E+00-4.79065E+01-1.36280E+01 5.07724E+00-9.22577E-14-2.48843E-15
 -1      4050 6.79830E+00-4.42656E+01-1.12465E+01 3.58763E+00 6.70347E-14-2.46494E-15
 -1      4051 1.10519E+01-4.01567E+01-8.73737E+00 4.19686E+00-8.46942E-13 1.97691E-16
 -1      4052 1.58221E+01-3.67833E+01-6.29418E+00 2.97269E+00 6.05786E-14-2.95975E-15
 -1      4053 2.06609E+01-3.30462E+01-3.72144E+00 3.49022E+00-1.52814E-13-6.14203E-15
 -1      4054 2.60783E+01-2.99354E+01-1.16332E+00 2.46856E+00-7.84028E-13 5.65614E-16
 -1      4055 3.16925E+01-2.65096E+01 1.54816E+00 2.89437E+00-8.99725E-13 1.41842E-15
 -1      4056 3.80070E+01-2.36971E+01 4.28536E+00 2.02716E+00-1.42184E-13 1.19296E-15
 -1      4057 4.46997E+01-2.05603E+01 7.23302E+00 2.34903E+00-1.70214E-13 2.19650E-15
 -1      4058 5.22972E+01-1.81563E+01 1.02317E+01 1.59731E+00-1.10955E-13 3.02726E-15
 -1      4059 6.05689E+01-1.53393E+01 1.35560E+01 1.78245E+00 1.90664E-14-3.26062E-15
 -1      4060 7.00857E+01-1.36037E+01 1.69284E+01 1.10875E+00 8.21551E-13 6.89193E-15
 -1      4061 8.08104E+01-1.12334E+01 2.08528E+01 1.08370E+00 4.62083E-13 4.93200E-15
 -1      4062 9.31915E+01-1.07531E+01 2.47052E+01 4.43043E-01 1.61727E-13 1.92867E-15
 -1      4063 1.07667E+02-9.41222E+00 2.94422E+01 4.21943E-02-1.33357E-13 1.25933E-14
 -1      4064-1.50452E+02-6.54443E+00-4.70839E+01 6.22588E+01-1.35176E-13-1.81526E-14
 -1      4065-6.34966E+02-8.26198E+02-4.41112E+02 3.93476E+02-2.12127E-13-1.36743E-15
 -1      4066-3.89960E+02-2.92798E+02-2.06136E+02 3.38685E+02-2.69786E-13-3.34723E-15
 -1      4067-2.79780E+02-6.98699E+02-2.95462E+02 3.24399E+02 1.17875E-13 3.02826E-15
 -1      4068-2.51285E+02-4.53393E+02-2.12439E+02 2.66352E+02-2.82910E-13 2.72153E-15
 -1      4069-1.35705E+02-5.61798E+02-2.10262E+02 1.85526E+02-1.96724E-13-2.57421E-15
 -1      4070-1.48502E+02-4.17394E+02-1.70399E+02 1.72692E+02 5.46940E-15 5.19953E-15
 -1      4071-8.83014E+01-4.39530E+02-1.58898E+02 1.05106E+02-1.53880E-13 4.24024E-15
 -1      4072-9.93691E+01-3.51294E+02-1.35578E+02 1.09437E+02 3.63996E-14 6.30161E-16
 -1      4073-6.88342E+01-3.47200E+02-1.25129E+02 6.30490E+01 6.00787E-14 3.36342E-16
 -1      4074-7.52610E+01-2.90126E+02-1.09851E+02 7.08593E+01 1.61893E-13-1.92672E-15
 -1      4075-5.90343E+01-2.79065E+02-1.01627E+02 3.99165E+01-1.14763E-12-3.24958E-15
 -1      4076-6.19616E+01-2.40377E+02-9.08529E+01 4.73351E+01-4.46613E-13 4.78925E-15
 -1      4077-5.25149E+01-2.28221E+02-8.43483E+01 2.64637E+01 3.14329E-13-1.48700E-15
 -1      4078-5.33298E+01-2.00762E+02-7.63288E+01 3.26020E+01-4.10817E-13-1.30750E-15
 -1      4079-4.72077E+01-1.89398E+02-7.10677E+01 1.82144E+01-3.67189E-13 2.12836E-15
 -1      4080-4.67390E+01-1.69117E+02-6.48268E+01 2.30769E+01 4.64393E-14-1.18695E-15
 -1      4081-4.22763E+01-1.59037E+02-6.04537E+01 1.29273E+01 9.32442E-13 3.52249E-16
 -1      4082-4.10022E+01-1.43542E+02-5.54126E+01 1.67314E+01 6.80752E-13-3.85404E-16
 -1      4083-3.73611E+01-1.34759E+02-5.16784E+01 9.41323E+00-1.43685E-13 4.09675E-16
 -1      4084-3.55441E+01-1.22573E+02-4.74706E+01 1.23909E+01-2.61373E-13 1.02596E-15
 -1      4085-3.22790E+01-1.14946E+02-4.41983E+01 7.00754E+00-6.13413E-13-6.01605E-16
 -1      4086-3.00616E+01-1.05119E+02-4.05801E+01 9.35348E+00-3.24400E-13 9.51893E-16
 -1      4087-2.69208E+01-9.84750E+01-3.76412E+01 5.32001E+00-5.07393E-13-1.75692E-17
 -1      4088-2.43758E+01-9.03713E+01-3.44433E+01 7.18607E+00-5.24295E-13 6.33581E-16
 -1      4089-2.12060E+01-8.45421E+01-3.17411E+01 4.11193E+00 2.43524E-13 8.61943E-16
 -1      4090-1.83630E+01-7.77234E+01-2.88402E+01 5.61300E+00 2.40531E-13 4.80643E-16
 -1      4091-1.50598E+01-7.25622E+01-2.62991E+01 3.23180E+00 3.58898E-13-7.74493E-17
 -1      4092-1.19190E+01-6.67160E+01-2.36013E+01 4.45375E+00-3.01354E-13-3.43746E-16
 -1      4093-8.39933E+00-6.21000E+01-2.11594E+01 2.58031E+00 4.12129E-13 3.10179E-16
 -1      4094-4.93630E+00-5.69982E+01-1.85887E+01 3.58674E+00-3.17562E-14-7.44058E-18
 -1      4095-1.12082E+00-5.28280E+01-1.61922E+01 2.09028E+00 1.79161E-13-2.01919E-16
 -1      4096 2.71409E+00-4.83016E+01-1.36830E+01 2.92775E+00-2.64295E-13-7.17641E-16
 -1      4097 6.91565E+00-4.45008E+01-1.12818E+01 1.71479E+00-5.14574E-13 1.79902E-16
 -1      4098 1.12034E+01-4.04242E+01-8.77215E+00 2.41644E+00-2.78492E-14-5.34662E-16
 -1      4099 1.59075E+01-3.69414E+01-6.31597E+00 1.41961E+00-3.89758E-13 7.45284E-16
 -1      4100 2.07735E+01-3.32243E+01-3.74106E+00 2.00737E+00 6.22933E-13 2.04620E-15
 -1      4101 2.61437E+01-3.00392E+01-1.17482E+00 1.17812E+00 5.56589E-13-7.54762E-16
 -1      4102 3.17817E+01-2.66237E+01 1.54070E+00 1.66338E+00-3.07706E-13 5.29452E-16
 -1      4103 3.80616E+01-2.37618E+01 4.28231E+00 9.67038E-01 1.11406E-12-1.45914E-16
 -1      4104 4.47781E+01-2.06277E+01 7.23633E+00 1.34927E+00 5.94940E-13 1.39002E-15
 -1      4105 5.23490E+01-1.81926E+01 1.02363E+01 7.61767E-01-5.90329E-13 9.13493E-16
 -1      4106 6.06490E+01-1.53719E+01 1.35703E+01 1.02353E+00-2.45083E-13 1.69672E-15
 -1      4107 7.01439E+01-1.36195E+01 1.69412E+01 5.28694E-01 3.79566E-13-2.95116E-15
 -1      4108 8.09093E+01-1.12409E+01 2.08802E+01 6.22253E-01 1.70085E-14 4.33934E-16
 -1      4109 9.32707E+01-1.07568E+01 2.47278E+01 2.11257E-01-2.09549E-13-3.60942E-15
 -1      4110 1.07814E+02-9.40846E+00 2.94873E+01 2.42619E-02-4.35237E-13-5.38285E-17
 -1      4111-1.58697E+03-1.60833E+03-9.66228E+02 7.87368E+01-3.90717E-13-2.38164E-15
 -1      4112-7.25414E+02-1.43180E+03-6.51946E+02 2.32356E+01-3.31109E-13-1.64824E-15
 -1      4113-4.37238E+02-1.20964E+03-4.98036E+02 2.52781E+02 1.48358E-13-1.15265E-15
 -1      4114-1.45377E+02-1.01695E+03-3.51292E+02 8.90546E+00 2.82710E-13-7.72902E-16
 -1      4115-1.60123E+02-7.84777E+02-2.85109E+02 1.39166E+02-3.99385E-13-6.88214E-16
 -1      4116-7.97259E+01-6.84529E+02-2.30461E+02 1.66843E+00-2.51854E-13 4.62729E-16
 -1      4117-9.24068E+01-5.52691E+02-1.94317E+02 7.31462E+01 5.46903E-14 2.50975E-15
 -1      4118-6.33148E+01-4.90486E+02-1.66740E+02 4.15047E-01-2.80471E-13-1.05779E-15
 -1      4119-6.99427E+01-4.11997E+02-1.45008E+02 4.14850E+01 1.16795E-13-1.90597E-16
 -1      4120-5.76912E+01-3.70232E+02-1.28712E+02 1.88166E-02-5.54138E-13-3.36297E-16
 -1      4121-5.98410E+01-3.20275E+02-1.14286E+02 2.52932E+01-1.64672E-13-1.26296E-15
 -1      4122-5.34933E+01-2.90551E+02-1.03416E+02-3.68271E-02 7.39419E-13 6.10398E-16
 -1      4123-5.35627E+01-2.56407E+02-9.31487E+01 1.63150E+01 1.61006E-13 7.24382E-16
 -1      4124-4.95889E+01-2.34373E+02-8.53184E+01-3.78572E-02-1.19525E-12 7.12450E-17
 -1      4125-4.85628E+01-2.09775E+02-7.76053E+01 1.09996E+01-5.29133E-13 4.87653E-17
 -1      4126-4.55623E+01-1.92882E+02-7.16202E+01-2.95306E-02 4.64990E-13 9.24141E-17
 -1      4127-4.39302E+01-1.74413E+02-6.55740E+01 7.68060E+00-7.84609E-13-1.53436E-16
 -1      4128-4.13098E+01-1.61099E+02-6.07827E+01-2.15270E-02-6.87743E-13-3.49829E-16
 -1      4129-3.92931E+01-1.46766E+02-5.58678E+01 5.51876E+00-2.08953E-13 3.92317E-16
 -1      4130-3.67719E+01-1.36022E+02-5.18809E+01-1.54792E-02-2.11614E-13 5.75945E-17
 -1      4131-3.44758E+01-1.24593E+02-4.77565E+01 4.06205E+00 5.61287E-13 2.76592E-17
 -1      4132-3.19094E+01-1.15743E+02-4.43265E+01-1.11383E-02 4.85910E-13-8.42353E-17
 -1      4133-2.93784E+01-1.06416E+02-4.07642E+01 3.05316E+00 2.08351E-13-1.10070E-17
 -1      4134-2.66834E+01-9.89886E+01-3.77242E+01-8.07641E-03 8.32194E-13-3.94820E-17
 -1      4135-2.39304E+01-9.12194E+01-3.45642E+01 2.33848E+00 5.79311E-13-3.79648E-16
 -1      4136-2.10505E+01-8.48795E+01-3.17957E+01-5.91193E-03-1.11321E-12-8.84209E-17
 -1      4137-1.80677E+01-7.82867E+01-2.89207E+01 1.82250E+00 1.13170E-12-1.63931E-16
 -1      4138-1.49561E+01-7.27870E+01-2.63355E+01-4.37172E-03 1.42265E-13 6.83600E-17
 -1      4139-1.17202E+01-6.70945E+01-2.36553E+01 1.44373E+00-3.30082E-13-3.71622E-16
 -1      4140-8.32912E+00-6.22514E+01-2.11837E+01-3.26550E-03-5.11496E-13-1.30469E-16
 -1      4141-4.80040E+00-5.72546E+01-1.86249E+01 1.16127E+00 5.92568E-13-3.79884E-16
 -1      4142-1.07242E+00-5.29306E+01-1.62084E+01-2.46333E-03 5.48022E-14-2.05905E-16
 -1      4143 2.80869E+00-4.84757E+01-1.37069E+01 9.47055E-01-3.85898E-13-8.69309E-17
 -1      4144 6.94974E+00-4.45703E+01-1.12924E+01-1.87571E-03 5.84291E-13-2.71185E-16
 -1      4145 1.12709E+01-4.05419E+01-8.78720E+00 7.81139E-01-2.02711E-13 4.63308E-17
 -1      4146 1.59323E+01-3.69881E+01-6.32254E+00-1.44090E-03 6.19616E-13-1.45715E-16
 -1      4147 2.08236E+01-3.33025E+01-3.74951E+00 6.48590E-01-5.74901E-13-2.38282E-17
 -1      4148 2.61627E+01-3.00698E+01-1.17831E+00-1.11062E-03-1.17415E-12 1.95155E-16
 -1      4149 3.18213E+01-2.66738E+01 1.53755E+00 5.37260E-01 2.20669E-13 5.28910E-16
 -1      4150 3.80774E+01-2.37809E+01 4.28133E+00-8.56709E-04-1.00739E-12-2.56187E-16
 -1      4151 4.48128E+01-2.06572E+01 7.23787E+00 4.35708E-01-6.41858E-13 1.13554E-15
 -1      4152 5.23640E+01-1.82033E+01 1.02376E+01-6.01980E-04 1.17833E-13-9.96365E-16
 -1      4153 6.06844E+01-1.53862E+01 1.35766E+01 3.30478E-01 2.36180E-13-5.14523E-16
 -1      4154 7.01609E+01-1.36242E+01 1.69449E+01-4.03357E-04 9.55057E-13 1.01307E-15
 -1      4155 8.09529E+01-1.12441E+01 2.08923E+01 2.00910E-01 3.08981E-13-3.19614E-16
 -1      4156 9.32938E+01-1.07580E+01 2.47343E+01 3.93354E-04-1.25598E-14-5.41660E-16
 -1      4157 1.07879E+02-9.40671E+00 2.95073E+01 7.84101E-03-5.28583E-14-1.98129E-17
 -3
    1PSTEP                         3           1           1          
  100CL  101 1.000000000        4156                     0    1           1
 -4  TOSTRAIN    6    1
 -5  EXX         1    4    1    1
 -5  EYY         1    4    2    2
 -5  EZZ         1    4    3    3
 -5  EXY         1    4    1    2
 -5  EYZ         1    4    2    3
 -5  EZX         1    4    3    1
 -1         1 5.13722E-07-2.52266E-07-1.69938E-34-1.22800E-07-9.78313E-18-2.42907E-18
 -1         2-4.64696E-03-4.74225E-03 1.50815E-35 1.47250E-05-1.57119E-18-3.25677E-20
 -1         3 5.08883E-04-2.53045E-04-2.56785E-35-5.19555E-09-7.34155E-19 2.08309E-21
 -1         4 1.89538E-05-4.57707E-05 1.71070E-33-4.64165E-07-6.08219E-18-2.48358E-18
 -1         5-4.21320E-03-4.50732E-03-6.09409E-36 9.28483E-06 6.40310E-19-2.58404E-20
 -1         6 9.54936E-08 1.99107E-07-5.47890E-38 7.99491E-08 3.57681E-23-2.97168E-19
 -1         7 2.65317E-04-3.97507E-04 2.11004E-36 1.22674E-06-1.34188E-20 3.66712E-21
 -1         9 1.81494E-06-7.74845E-07 8.26869E-34-7.87039E-08 6.67861E-20-1.13701E-18
 -1        10-5.80278E-06 2.54862E-06 9.51672E-35 2.74305E-08 1.01457E-18-1.93514E-19
 -1        11-2.29791E-05 9.88292E-06 4.38848E-34 1.08249E-07 4.17084E-18-1.34855E-18
 -1        12-4.52964E-05 1.94349E-05-3.48083E-35 1.26085E-07 3.27548E-18 2.62355E-19
 -1        13-7.04577E-05 3.02141E-05 8.70125E-36 1.34116E-07 2.07769E-18-9.84992E-19
 -1        14-9.68638E-05 4.15266E-05-2.74536E-35 1.30494E-07-1.19720E-18-1.09297E-18
 -1        15-1.23291E-04 5.28485E-05 1.06459E-35 1.17158E-07 5.21829E-18-7.31333E-19
 -1        16-1.48799E-04 6.37771E-05 2.00453E-34 9.47081E-08 1.77174E-18-9.93147E-19
 -1        17-1.72708E-04 7.40202E-05 1.76132E-34 6.40761E-08 1.56168E-18-3.14765E-19
 -1        18-1.94565E-04 8.33848E-05 1.35588E-34 2.58980E-08-1.51566E-18-1.06437E-18
 -1        19-2.14122E-04 9.17647E-05 2.88389E-34-1.95830E-08-3.48267E-18-2.28208E-19
 -1        20-2.31297E-04 9.91245E-05 1.97970E-34-7.28268E-08-2.39626E-18-1.04810E-18
 -1        21-2.46132E-04 1.05483E-04 9.02320E-35-1.35292E-07 4.06509E-19-5.34047E-19
 -1        22-2.58757E-04 1.10896E-04 3.16451E-34-2.09813E-07 1.33266E-18 3.80208E-19
 -1        23-2.69357E-04 1.15443E-04 2.03042E-34-3.01151E-07-5.23815E-18-5.75686E-19
 -1        24-2.78144E-04 1.19217E-04 6.60936E-35-4.16876E-07 2.63877E-19 4.81795E-19
 -1        25-2.85335E-04 1.22311E-04 2.44894E-35-5.68972E-07 1.86182E-18-1.10261E-19
 -1        26-2.91142E-04 1.24821E-04 2.00717E-35-7.76426E-07 2.80096E-18-5.08168E-19
 -1        27-2.95756E-04 1.26833E-04 7.93672E-35-1.07127E-06 5.42763E-18-1.43501E-19
 -1        28-2.99346E-04 1.28434E-04 2.08570E-34-1.50560E-06 3.35433E-18 2.54226E-19
 -1        29-3.02042E-04 1.29686E-04 4.96368E-35-2.18382E-06-1.60342E-19 1.42065E-19
 -1        30-3.03963E-04 1.30765E-04 3.97809E-35-3.26637E-06 2.27247E-18 3.45109E-19
 -1        31-3.05024E-04 1.31445E-04-5.24648E-35-5.22405E-06 9.98391E-19 2.80529E-19
 -1        32-3.05610E-04 1.33538E-04-4.67285E-35-8.60296E-06 1.02031E-18 1.47750E-19
 -1        33-3.02739E-04 1.31361E-04 5.26652E-35-1.64448E-05-2.84276E-18 1.12538E-20
 -1        34-3.03185E-04 1.56134E-04 1.43892E-34-2.94435E-05 3.01302E-19-1.21380E-20
 -1        35-2.21272E-04 1.17886E-04 4.97469E-35-8.61024E-05-5.20782E-19-3.27077E-20
 -1        36-1.62372E-04 3.73088E-04-5.39675E-36-4.22142E-04 1.74990E-18 1.70616E-19
 -1        37-2.44965E-03-2.15411E-03 4.34313E-35 1.62337E-03-1.88954E-19 6.61956E-20
 -1        38 1.19730E-03-5.44508E-03 7.78023E-35 2.85776E-04 2.20765E-18 5.44029E-21
 -1        39 1.12627E-03-3.47979E-03-2.95356E-35 9.24337E-05 2.03235E-18 8.96976E-21
 -1        40 8.04779E-04-2.42212E-03-1.30245E-35 3.61076E-05-1.39634E-18 7.43165E-22
 -1        41 5.50587E-04-1.77905E-03-2.28516E-36 1.26789E-05 4.70580E-19 4.46980E-21
 -1        42 3.84982E-04-1.36174E-03 4.76448E-35 5.53114E-06-2.51640E-18 5.88384E-21
 -1        43 2.73633E-04-1.07379E-03-2.07270E-35 2.62897E-06-1.64454E-18-4.77445E-21
 -1        44 1.97906E-04-8.66482E-04 8.54337E-36 1.38497E-06-4.74107E-19 1.57147E-21
 -1        45 1.46016E-04-7.11959E-04 1.20656E-35 7.80405E-07-1.57273E-18 3.41497E-22
 -1        46 1.10966E-04-5.93693E-04-4.28429E-35 4.67028E-07 5.15423E-18-1.71784E-21
 -1        47 8.83411E-05-5.01299E-04 9.04878E-35 2.92732E-07-1.73477E-18 1.48474E-22
 -1        48 7.52964E-05-4.27977E-04 4.20682E-35 1.90803E-07 4.48493E-18 4.23690E-22
 -1        49 6.99585E-05-3.69109E-04 7.51353E-36 1.28431E-07-1.58625E-18 1.24761E-21
 -1        50 7.10980E-05-3.21471E-04-4.41387E-35 8.88451E-08 2.32183E-18 9.68385E-22
 -1        51 7.79460E-05-2.82774E-04-3.95104E-35 6.29161E-08-1.84599E-18 1.02757E-21
 -1        52 9.01024E-05-2.51394E-04 4.66573E-35 4.54773E-08-5.28864E-18 2.12707E-21
 -1        53 1.07507E-04-2.26217E-04 3.36934E-35 3.34784E-08 1.68716E-18 1.22890E-21
 -1        54 1.30467E-04-2.06568E-04-2.77073E-35 2.50574E-08-5.34489E-18 1.78644E-21
 -1        55 1.59758E-04-1.92217E-04-1.36278E-35 1.90099E-08-2.00187E-18-2.50739E-21
 -1        56 1.96823E-04-1.83469E-04 1.77237E-35 1.45623E-08 2.36608E-18-2.81204E-22
 -1        57 2.44152E-04-1.81395E-04 8.33012E-35 1.08629E-08 8.25424E-19-8.99529E-22
 -1        58 3.06029E-04-1.88327E-04 3.97301E-35 7.70448E-09-1.15525E-18 1.56848E-21
 -1        59 3.90088E-04-2.08959E-04-4.38031E-35 1.05969E-09 2.75644E-18-1.05397E-21
 -1        60 5.08751E-04-2.52990E-04-2.27616E-35 8.93589E-08 1.01812E-17 3.02581E-21
 -1        61 5.08298E-04-2.52803E-04-6.69666E-35 1.87737E-07-4.31699E-18-5.56746E-20
 -1        62 5.07427E-04-2.52445E-04 2.77644E-34 2.95295E-07-2.20347E-18-1.87841E-20
 -1        63 5.06023E-04-2.51869E-04 2.94136E-36 4.12258E-07 1.57829E-19 1.38436E-19
 -1        64 5.03945E-04-2.51016E-04-4.77629E-35 5.38526E-07 1.09769E-18-1.13157E-19
 -1        65 5.01027E-04-2.49819E-04 6.45765E-35 6.73557E-07 2.39724E-18-1.06881E-19
 -1        66 4.97074E-04-2.48197E-04 1.00250E-34 8.16212E-07-1.29733E-18-2.23078E-19
 -1        67 4.91865E-04-2.46059E-04 5.57225E-35 9.64572E-07-2.38603E-18 5.30575E-20
 -1        68 4.85147E-04-2.43299E-04 6.73506E-35 1.11575E-06-4.20116E-18 1.75060E-19
 -1        69 4.76647E-04-2.39803E-04 5.52495E-35 1.26572E-06-7.18216E-18 1.25249E-19
 -1        70 4.66080E-04-2.35450E-04 8.58190E-35 1.40924E-06 3.64736E-18-5.74266E-20
 -1        71 4.53163E-04-2.30119E-04 8.24254E-35 1.53986E-06 1.07620E-18-2.81752E-19
 -1        72 4.37636E-04-2.23696E-04 6.34675E-35 1.65022E-06-2.02636E-18-1.14696E-20
 -1        73 4.19296E-04-2.16088E-04 4.45030E-35 1.73263E-06-2.57177E-18-4.31479E-19
 -1        74 3.98025E-04-2.07235E-04 1.55149E-34 1.77995E-06 3.38934E-19 3.12710E-21
 -1        75 3.73828E-04-1.97128E-04 2.09072E-34 1.78684E-06 4.99302E-20-6.59397E-19
 -1        76 3.46860E-04-1.85816E-04 6.20444E-35 1.75108E-06-6.01476E-18 5.70477E-19
 -1        77 3.17440E-04-1.73424E-04-8.38013E-35 1.67458E-06 7.03089E-19 3.34853E-20
 -1        78 2.86041E-04-1.60140E-04 2.27381E-34 1.56385E-06-3.44143E-19 4.03391E-19
 -1        79 2.53263E-04-1.46215E-04 2.22082E-35 1.42927E-06-6.95182E-19 2.57665E-19
 -1        80 2.19778E-04-1.31937E-04 1.89238E-34 1.28336E-06-4.19889E-19 3.90935E-19
 -1        81 1.86274E-04-1.17607E-04 1.79448E-34 1.13814E-06-3.46601E-18-1.80409E-19
 -1        82 1.53420E-04-1.03525E-04-3.31301E-34 1.00243E-06 4.02179E-19-8.54453E-19
 -1        83 1.21856E-04-8.99793E-05-1.88704E-34 8.79643E-07-6.24450E-18-5.86767E-19
 -1        84 9.22445E-05-7.72691E-05-4.93694E-35 7.66112E-07 6.31347E-19-5.14892E-19
 -1        85 6.53723E-05-6.57414E-05 1.78556E-35 6.49587E-07 5.83123E-18 1.67772E-19
 -1        86 4.23542E-05-5.59030E-05 1.38042E-34 4.88330E-07-1.67787E-18 7.60557E-19
 -1        87 2.50459E-05-4.84886E-05 1.56724E-34 1.68623E-07-5.73575E-19 1.06733E-19
 -1        88 1.76566E-05-4.52867E-05 1.11442E-34-5.10966E-07-5.56576E-18 1.03176E-18
 -1        89 1.93902E-05-4.67490E-05-1.73318E-34-8.91221E-07 8.51440E-20 1.60137E-18
 -1        90 1.89090E-05-4.58480E-05 5.01393E-34-2.08463E-07-2.91799E-18 1.04074E-18
 -1        91 1.72954E-05-4.18791E-05-6.73456E-35 2.37485E-07 4.59143E-18 1.43673E-18
 -1        92 1.50554E-05-3.62039E-05 7.82060E-35 4.84042E-07-2.63193E-18-1.09880E-19
 -1        93 1.25774E-05-2.99131E-05 4.91124E-34 6.04446E-07-6.01341E-18-2.53575E-19
 -1        94 1.01336E-05-2.37184E-05 6.15870E-34 6.40417E-07 7.79384E-18-2.44478E-19
 -1        95 7.89070E-06-1.80408E-05 3.55570E-34 6.16937E-07-8.48711E-18-5.39496E-20
 -1        96 5.93715E-06-1.31001E-05 5.47873E-35 5.49775E-07-5.36655E-18-2.74931E-19
 -1        97 4.30695E-06-8.98185E-06-5.64533E-35 4.49346E-07-6.68266E-18-3.57053E-19
 -1        98 2.99863E-06-5.68553E-06-2.19288E-34 3.23092E-07 2.17355E-18 4.60546E-19
 -1        99 1.98885E-06-3.15776E-06 2.01288E-34 1.77083E-07 4.64912E-18-2.25375E-19
 -1       100 1.24204E-06-1.31514E-06-1.69033E-34 1.71606E-08 6.62583E-18 2.77401E-19
 -1       101 7.17059E-07-5.93231E-08 9.01750E-35-1.50264E-07-7.37046E-18 7.87406E-19
 -1       102 3.71588E-07 7.13047E-07 8.86509E-34-3.17744E-07 4.94840E-18 1.08334E-18
 -1       103 1.65092E-07 1.10389E-06 4.24022E-34-4.76702E-07 3.85643E-18-1.66669E-19
 -1       104 6.05902E-08 1.20939E-06 4.32961E-35-6.17730E-07 9.61746E-18 7.51505E-19
 -1       105 2.56631E-08 1.11714E-06 3.19820E-34-7.31163E-07 1.04495E-17 1.65303E-18
 -1       106 3.30440E-08 9.04039E-07 4.12979E-34-8.07642E-07 1.95111E-17-5.25885E-20
 -1       107 6.15060E-08 6.34626E-07-3.51211E-34-8.37815E-07 1.11303E-17-6.65679E-19
 -1       108 9.86162E-08 3.59016E-07 1.45730E-34-8.09359E-07-2.69363E-18 6.07353E-19
 -1       109 1.48531E-07 1.09191E-07 4.11413E-35-6.97832E-07 1.54696E-18-2.25435E-19
 -1       110 2.50472E-07-1.08419E-07 1.30807E-34-4.45314E-07-4.53103E-18-4.64556E-19
 -1       111-3.89682E-03-4.16550E-03 1.85801E-35-1.67552E-04 1.24952E-18 4.95588E-20
 -1       112-1.83813E-03-2.33740E-03 9.22879E-36-1.11256E-03 9.03559E-19 1.63260E-19
 -1       113 4.60897E-05 3.02150E-04 1.36134E-35 3.55619E-04 1.33146E-19-3.16686E-20
 -1       114 7.50185E-05-5.95290E-06 1.45381E-35 8.98206E-05 2.99182E-19 1.18293E-19
 -1       115-1.83646E-06 2.92123E-05 1.43793E-35 3.61978E-05 3.93604E-19-5.90861E-21
 -1       116 3.21067E-06 2.46868E-06 5.20834E-36 2.07302E-05-1.26809E-18 1.15388E-19
 -1       117 7.89441E-07 3.95759E-06 3.15887E-36 1.14272E-05-2.96542E-19 5.48960E-20
 -1       118 9.72189E-07 1.61181E-06 7.74443E-36 7.36377E-06-8.72409E-19 3.25467E-20
 -1       119 7.32308E-07 1.23626E-06 2.33682E-36 4.87097E-06 2.34817E-19 5.33779E-20
 -1       120 6.21556E-07 8.48252E-07 4.86907E-36 3.44732E-06-5.71268E-20 7.74371E-20
 -1       121 5.10363E-07 6.77213E-07 6.30486E-37 2.52167E-06 1.10027E-18-7.53816E-21
 -1       122 4.22201E-07 5.64025E-07-7.75272E-37 1.91228E-06 2.49459E-19 4.44965E-20
 -1       123 3.48969E-07 4.96988E-07 1.69270E-36 1.49004E-06-1.77896E-19-2.48987E-20
 -1       124 2.88980E-07 4.53879E-07 2.23909E-36 1.19028E-06-2.74739E-20 5.34326E-20
 -1       125 2.39384E-07 4.27049E-07 1.44901E-36 9.71845E-07-1.68218E-19 1.19535E-20
 -1       126 1.97737E-07 4.11515E-07 1.50114E-36 8.09751E-07-7.31317E-20-3.48386E-21
 -1       127 1.61756E-07 4.05075E-07 6.89955E-37 6.87581E-07 1.15501E-19 1.24869E-21
 -1       128 1.29344E-07 4.06867E-07 8.35466E-37 5.94249E-07-7.42070E-20 9.52473E-21
 -1       129 9.85662E-08 4.16994E-07 6.09924E-37 5.21792E-07-1.92294E-19 2.25123E-20
 -1       130 6.76238E-08 4.36247E-07 3.18683E-37 4.64079E-07-1.23057E-19 6.83512E-20
 -1       131 3.49531E-08 4.65930E-07 4.14711E-37 4.15861E-07 8.86724E-21-6.05642E-21
 -1       132-9.85411E-10 5.07948E-07 2.05214E-37 3.72128E-07-2.76159E-20 8.85382E-21
 -1       133-4.04488E-08 5.64154E-07 1.27245E-37 3.27308E-07-2.44159E-20-2.46437E-19
 -1       134-8.64334E-08 6.37628E-07-1.55219E-38 2.75081E-07-1.66964E-20-1.70071E-19
 -1       135-1.29155E-07 7.22889E-07 2.28817E-37 2.12337E-07-1.26087E-21 1.72309E-20
 -1       136-1.97282E-07 7.93335E-07-1.03842E-37 1.73788E-07 5.48483E-23 2.38557E-19
 -1       137-1.49943E-07 4.28671E-07 6.25543E-37 1.60997E-07-9.76086E-22 4.56704E-19
 -1       138 1.26675E-06-3.03598E-06 9.60367E-38 7.19886E-08-1.75686E-22-2.28763E-20
 -1       139 2.77050E-06-6.26588E-06 6.43063E-37 1.92953E-10-3.37048E-22-2.99210E-19
 -1       140 4.46288E-06-1.00916E-05 1.12719E-37-1.16923E-08 1.58264E-22 2.00916E-19
 -1       141 6.50675E-06-1.44749E-05 9.91104E-38-8.35997E-09 1.17145E-24 3.40085E-20
 -1       142 8.90968E-06-1.94830E-05 1.14225E-37-4.65368E-09 5.97763E-22-2.36128E-19
 -1       143 1.17407E-05-2.52275E-05-3.75614E-38-2.67423E-09 3.20629E-22 1.04706E-19
 -1       144 1.50972E-05-3.18483E-05 1.67139E-37-1.90728E-09 3.09407E-22 6.04865E-20
 -1       145 1.90996E-05-3.95130E-05-1.55694E-38-1.69802E-09-2.96140E-22-6.41910E-19
 -1       146 2.38955E-05-4.84222E-05 4.15073E-37-1.65392E-09-3.39994E-21-4.55216E-19
 -1       147 2.96664E-05-5.88167E-05 7.31850E-37-1.59790E-09-2.42157E-22-3.61370E-20
 -1       148 3.66355E-05-7.09849E-05 1.73676E-37-1.47056E-09-1.46827E-21-4.93325E-20
 -1       149 4.50766E-05-8.52703E-05 1.48633E-37-1.26215E-09-8.00082E-22-2.75845E-20
 -1       150 5.53197E-05-1.02074E-04-1.26651E-38-9.79277E-10-2.47030E-21 1.24403E-19
 -1       151 6.77530E-05-1.21852E-04 1.85596E-37-6.31503E-10-2.56135E-21 2.30244E-19
 -1       152 8.28120E-05-1.45091E-04 3.52674E-37-2.30229E-10-6.27068E-22-1.18916E-19
 -1       153 1.00943E-04-1.72253E-04 2.64535E-37 2.54778E-10-2.00102E-22 1.06697E-19
 -1       154 1.22519E-04-2.03665E-04 4.44108E-37 8.21899E-10 1.53382E-21 2.04247E-19
 -1       155 1.47671E-04-2.39293E-04 6.19057E-37 1.84418E-09-2.13288E-21 1.98983E-19
 -1       156 1.75987E-04-2.78382E-04 6.59112E-37 2.32544E-09 2.12457E-21-3.18937E-20
 -1       157 2.06041E-04-3.18904E-04 1.03647E-36 1.83549E-09-1.03551E-21 9.14455E-21
 -1       158 2.34775E-04-3.56918E-04 1.23172E-36-1.86486E-08-2.07582E-21 4.72496E-20
 -1       159 2.57271E-04-3.86504E-04 9.50651E-37-4.20667E-08 3.08397E-19 1.37741E-20
 -1       160-5.43863E-05-5.80865E-03 4.95066E-35-9.57656E-06-5.31929E-18 4.77332E-21
 -1       161 1.42326E-03-5.33540E-03 2.04588E-35-2.67504E-05-2.85263E-19 1.97231E-21
 -1       162 1.59479E-03-4.34596E-03-4.31957E-36-1.97347E-05 2.62616E-19 7.40462E-21
 -1       163 1.44085E-03-3.48306E-03 5.15044E-36-1.35310E-05 8.10611E-19-9.41530E-21
 -1       164 1.23644E-03-2.81852E-03 5.74985E-36-7.14707E-06-2.78731E-19 9.75006E-24
 -1       165 1.05468E-03-2.31529E-03 2.28753E-36-4.04641E-06 1.61777E-19-3.49284E-21
 -1       166 9.05331E-04-1.93066E-03 9.74398E-36-2.31674E-06-7.74689E-19 7.42697E-21
 -1       167 7.84928E-04-1.63184E-03 1.67871E-35-1.40130E-06 7.07926E-19 6.30746E-22
 -1       168 6.87732E-04-1.39568E-03 2.00466E-35-8.81114E-07-5.82428E-19 1.98466E-21
 -1       169 6.08689E-04-1.20611E-03 9.74168E-36-5.77050E-07 5.02787E-19 2.22711E-21
 -1       170 5.43832E-04-1.05186E-03 2.47747E-37-3.91176E-07-6.34314E-20 2.60388E-21
 -1       171 4.90162E-04-9.24932E-04-1.36552E-36-2.73646E-07-4.43846E-19 4.38497E-22
 -1       172 4.45426E-04-8.19546E-04 1.80636E-36-1.96882E-07 5.88892E-20 2.53217E-21
 -1       173 4.07928E-04-7.31456E-04 5.40062E-37-1.45367E-07-5.31545E-19 5.49512E-22
 -1       174 3.76388E-04-6.57511E-04 4.72099E-36-1.09994E-07-4.32452E-19 2.30083E-21
 -1       175 3.49835E-04-5.95351E-04 3.92518E-36-8.52694E-08 3.73784E-19 1.70924E-21
 -1       176 3.27540E-04-5.43217E-04 2.90626E-36-6.78243E-08 1.69455E-19-2.87673E-22
 -1       177 3.08964E-04-4.99819E-04 1.60814E-36-5.54702E-08-7.02019E-20-1.02097E-21
 -1       178 2.93732E-04-4.64265E-04 1.87224E-36-4.72307E-08 7.63927E-21 6.22554E-22
 -1       179 2.81620E-04-4.36028E-04 1.53424E-36-4.12925E-08-1.37475E-19 9.76119E-22
 -1       180 2.72546E-04-4.14987E-04 1.60490E-36-4.28091E-08 2.32199E-19 4.31184E-22
 -1       181 2.66462E-04-4.01194E-04 7.94218E-37-2.67980E-08-1.42664E-20-7.52964E-23
 -1       182-2.47627E-05-5.24647E-03 4.05364E-35-1.54997E-03-1.29072E-18-1.17530E-20
 -1       183 1.09056E-03-4.68420E-03 5.09262E-36-1.61975E-03 1.53366E-18-3.15255E-21
 -1       184 1.33448E-03-3.95485E-03-5.91100E-36-1.17465E-03-8.43293E-19 3.80277E-21
 -1       185 1.28528E-03-3.27319E-03 5.59509E-36-7.80108E-04-1.03103E-18-1.43281E-20
 -1       186 1.15085E-03-2.70628E-03 2.02592E-35-5.13833E-04 1.53753E-19 2.20953E-20
 -1       187 1.00756E-03-2.25403E-03 2.57529E-35-3.42379E-04-7.30234E-19-6.25286E-21
 -1       188 8.78988E-04-1.89638E-03 1.31078E-35-2.32145E-04 4.75023E-20 9.61845E-22
 -1       189 7.69882E-04-1.61219E-03 8.96467E-36-1.60063E-04-2.70903E-19 1.39212E-20
 -1       190 6.78971E-04-1.38419E-03-9.97909E-37-1.11951E-04-8.93215E-19 1.74983E-21
 -1       191 6.03506E-04-1.19928E-03 5.75778E-36-7.91714E-05-1.31137E-19-3.38827E-21
 -1       192 5.40731E-04-1.04775E-03 6.69402E-36-5.64218E-05 4.13461E-19-1.39343E-21
 -1       193 4.88293E-04-9.22446E-04 4.83526E-36-4.03780E-05-8.05688E-19-1.71351E-21
 -1       194 4.44297E-04-8.18036E-04 4.85631E-36-2.89101E-05-2.07266E-19-5.46544E-22
 -1       195 4.07248E-04-7.30542E-04 2.59617E-36-2.06230E-05 3.53503E-19-1.75156E-21
 -1       196 3.75981E-04-6.56960E-04 2.19812E-36-1.45836E-05 1.56279E-19 3.50025E-21
 -1       197 3.49595E-04-5.95025E-04 2.26580E-37-1.01565E-05-5.38239E-19 6.02008E-22
 -1       198 3.27402E-04-5.43028E-04 2.17374E-36-6.90216E-06 9.16622E-20-2.77963E-21
 -1       199 3.08887E-04-4.99714E-04 3.46552E-36-4.51295E-06 2.14183E-19-1.22850E-21
 -1       200 2.93692E-04-4.64209E-04 1.24545E-36-2.77250E-06 3.37302E-19-4.72994E-22
 -1       201 2.81601E-04-4.36002E-04 6.20658E-37-1.53000E-06-3.98162E-20-3.36503E-22
 -1       202 2.72539E-04-4.14978E-04 1.73694E-36-6.85464E-07 4.31437E-20-3.08293E-22
 -1       203 2.66461E-04-4.01193E-04 9.71436E-37-1.87608E-07-2.22269E-19 1.36056E-22
 -1       204-7.93409E-04-2.64435E-03 9.85593E-36-3.14588E-03 4.56872E-19-2.98663E-20
 -1       205 1.91498E-05-2.84232E-03 1.19321E-35-2.62416E-03 2.97949E-19 1.25371E-20
 -1       206 5.90974E-04-2.86454E-03 1.12777E-35-1.96716E-03 4.64704E-19 4.71079E-20
 -1       207 8.33751E-04-2.65639E-03 7.72800E-36-1.39442E-03-6.63015E-19-3.47083E-20
 -1       208 8.91221E-04-2.36175E-03 1.74806E-35-9.65448E-04 9.57646E-19 1.22836E-20
 -1       209 8.59530E-04-2.06004E-03 1.28212E-35-6.66248E-04 1.43525E-18 7.69542E-21
 -1       210 7.94033E-04-1.78543E-03 6.08735E-36-4.62554E-04 1.26305E-19-1.88834E-20
 -1       211 7.20473E-04-1.54763E-03 1.00587E-35-3.24076E-04-6.40698E-19 3.20169E-20
 -1       212 6.49839E-04-1.34603E-03 3.71373E-36-2.29143E-04-4.40201E-20 6.46251E-21
 -1       213 5.86124E-04-1.17643E-03 3.37658E-36-1.63266E-04 2.05936E-19 2.64277E-20
 -1       214 5.30267E-04-1.03394E-03-1.45867E-36-1.16959E-04-5.77168E-19 5.32880E-21
 -1       215 4.81960E-04-9.14051E-04 5.82532E-36-8.40077E-05-5.30376E-19-4.71781E-21
 -1       216 4.40460E-04-8.12925E-04 3.15238E-36-6.03046E-05 1.34224E-19 1.56602E-20
 -1       217 4.04930E-04-7.27438E-04 3.98862E-36-4.30979E-05-7.34556E-22 4.99277E-21
 -1       218 3.74593E-04-6.55092E-04 2.54566E-36-3.05171E-05-3.93974E-20-5.26487E-21
 -1       219 3.48776E-04-5.93916E-04 1.56176E-36-2.12732E-05-4.04335E-19 1.53550E-21
 -1       220 3.26930E-04-5.42385E-04 3.28096E-36-1.44664E-05 1.59612E-19-2.97665E-21
 -1       221 3.08625E-04-4.99355E-04 3.24982E-36-9.46298E-06 1.37035E-19 2.72043E-21
 -1       222 2.93554E-04-4.64020E-04 2.88281E-36-5.81492E-06 7.42665E-20-1.36090E-21
 -1       223 2.81535E-04-4.35913E-04 1.80974E-36-3.20897E-06 1.30895E-19-3.19886E-22
 -1       224 2.72514E-04-4.14945E-04 1.49938E-36-1.43665E-06-2.13938E-20-7.26626E-22
 -1       225 2.66458E-04-4.01190E-04 1.03994E-36-3.92359E-07 1.87535E-19 1.20600E-21
 -1       226-1.68218E-03 2.51483E-04 8.69887E-36-1.43688E-03-7.46611E-19-2.74161E-21
 -1       227-9.83715E-04-8.36549E-04 1.72296E-35-2.14847E-03 5.79108E-20-1.79905E-20
 -1       228-2.52266E-04-1.51111E-03 7.95984E-36-2.01655E-03 6.07825E-19-8.33451E-21
 -1       229 2.43862E-04-1.79693E-03 1.58511E-35-1.63632E-03-1.64273E-18-2.60065E-22
 -1       230 5.10495E-04-1.83542E-03 1.95183E-36-1.24170E-03-4.38276E-19-3.09692E-20
 -1       231 6.24117E-04-1.74328E-03-3.22595E-36-9.12440E-04-3.55159E-19-2.72795E-21
 -1       232 6.50928E-04-1.59550E-03 9.68818E-36-6.61166E-04 2.24709E-19 5.21300E-20
 -1       233 6.33879E-04-1.43341E-03 7.43500E-36-4.76975E-04 8.62286E-19 3.63874E-20
 -1       234 5.97355E-04-1.27693E-03 7.56613E-36-3.44109E-04-3.86234E-19-3.14591E-22
 -1       235 5.54199E-04-1.13437E-03 3.11632E-36-2.48632E-04 6.00304E-19 2.60722E-20
 -1       236 5.10786E-04-1.00822E-03 1.92265E-36-1.79868E-04 6.41533E-19-2.34980E-20
 -1       237 4.70057E-04-8.98285E-04 5.13954E-36-1.30093E-04 2.52187E-19 7.21111E-21
 -1       238 4.33197E-04-8.03267E-04 3.22605E-36-9.38500E-05 5.55714E-19-9.17330E-21
 -1       239 4.00522E-04-7.21549E-04 2.40136E-36-6.73105E-05 3.76193E-19 1.72589E-20
 -1       240 3.71944E-04-6.51533E-04 2.56660E-36-4.77841E-05 2.09349E-19 1.15513E-20
 -1       241 3.47210E-04-5.91799E-04 2.70810E-36-3.33715E-05 2.09032E-19 2.60522E-20
 -1       242 3.26025E-04-5.41156E-04 4.26287E-36-2.27238E-05 1.67121E-19-2.42177E-21
 -1       243 3.08122E-04-4.98667E-04 1.11429E-36-1.48784E-05 4.92000E-20-3.41101E-21
 -1       244 2.93290E-04-4.63659E-04 1.38899E-36-9.14855E-06-3.63094E-19 9.65596E-21
 -1       245 2.81409E-04-4.35742E-04 1.55469E-36-5.05059E-06 1.86843E-19-2.61410E-21
 -1       246 2.72465E-04-4.14881E-04 1.40279E-36-2.26111E-06 4.06783E-20-7.10329E-22
 -1       247 2.66451E-04-4.01183E-04 7.60797E-37-6.16872E-07 1.33768E-19-6.00560E-22
 -1       248-8.52926E-04 3.43974E-04 1.48553E-35-3.61302E-04-9.02866E-19 4.60818E-21
 -1       249-1.07356E-03 7.71725E-05 3.86919E-36-1.12760E-03-4.37488E-19-1.18431E-20
 -1       250-6.98636E-04-5.13858E-04 5.99606E-36-1.50224E-03-1.77394E-19-2.38632E-20
 -1       251-2.35150E-04-9.83412E-04 1.56645E-35-1.49124E-03 2.40610E-19-3.94154E-20
 -1       252 1.23452E-04-1.25121E-03 9.50465E-36-1.28937E-03 4.17806E-19 7.02263E-20
 -1       253 3.47924E-04-1.35087E-03 1.22599E-35-1.03557E-03 1.33799E-18-1.32507E-20
 -1       254 4.66126E-04-1.34151E-03 4.53471E-36-7.98240E-04 9.49208E-19-5.14157E-20
 -1       255 5.14415E-04-1.27220E-03 1.56952E-36-6.01316E-04 3.20644E-19 1.20140E-20
 -1       256 5.21542E-04-1.17561E-03 1.73231E-36-4.47204E-04-8.81248E-20 8.22190E-21
 -1       257 5.06570E-04-1.07100E-03 6.36879E-36-3.30139E-04-1.10708E-19-3.03337E-21
 -1       258 4.81049E-04-9.68708E-04 1.35865E-36-2.42507E-04-9.91370E-20 1.30112E-20
 -1       259 4.51587E-04-8.73719E-04 1.08121E-35-1.77323E-04 1.71153E-19 3.44428E-20
 -1       260 4.21795E-04-7.88064E-04 2.56078E-36-1.28931E-04-2.57924E-19 1.02331E-20
 -1       261 3.93542E-04-7.12209E-04 1.32701E-36-9.29967E-05-1.84817E-19-1.66088E-20
 -1       262 3.67723E-04-6.45860E-04 3.26969E-36-6.62904E-05 1.22999E-19-2.16883E-21
 -1       263 3.44701E-04-5.88410E-04 1.56124E-36-4.64339E-05 2.20145E-20-6.49622E-21
 -1       264 3.24572E-04-5.39183E-04 1.73264E-36-3.16865E-05 1.13502E-19 2.38670E-20
 -1       265 3.07311E-04-4.97561E-04 2.26165E-36-2.07788E-05 2.32733E-19-1.35869E-20
 -1       266 2.92863E-04-4.63076E-04 1.37078E-36-1.27905E-05-4.33905E-20 6.23423E-21
 -1       267 2.81206E-04-4.35467E-04 9.00926E-37-7.06621E-06 1.15658E-19 1.00464E-21
 -1       268 2.72387E-04-4.14779E-04 1.19994E-36-3.16442E-06 1.70254E-19 3.93660E-21
 -1       269 2.66441E-04-4.01173E-04 7.49392E-37-8.62461E-07 1.42299E-20 1.39846E-21
 -1       270-4.86617E-04 1.98728E-04 1.19478E-35-1.61518E-04-1.48429E-18-6.06641E-20
 -1       271-7.67222E-04 1.90502E-04 6.57657E-36-5.74537E-04-1.42716E-18 2.08995E-20
 -1       272-7.29039E-04-6.30010E-05 1.22940E-35-9.63164E-04 9.78063E-19 3.42166E-20
 -1       273-4.70271E-04-4.27253E-04 6.27960E-36-1.15537E-03-1.46017E-19 3.27298E-20
 -1       274-1.63883E-04-7.44944E-04 1.88828E-35-1.15234E-03 9.78447E-19 5.29196E-21
 -1       275 9.22934E-05-9.53689E-04 3.54822E-36-1.02817E-03 6.24157E-19 2.53110E-20
 -1       276 2.69202E-04-1.05513E-03 2.69174E-36-8.55934E-04-7.89374E-19-2.65604E-20
 -1       277 3.74308E-04-1.07595E-03 2.28746E-36-6.81954E-04-5.46746E-20-5.94525E-21
 -1       278 4.26461E-04-1.04530E-03 1.36083E-36-5.28245E-04-5.61310E-19-5.57455E-20
 -1       279 4.43925E-04-9.86211E-04 1.43594E-36-4.01645E-04 5.69356E-19-1.67872E-20
 -1       280 4.40581E-04-9.14291E-04-1.38078E-36-3.01412E-04-4.79348E-20 3.04458E-20
 -1       281 4.25827E-04-8.39174E-04 1.79742E-36-2.23845E-04 7.00350E-20 2.71236E-20
 -1       282 4.05607E-04-7.66356E-04 9.77326E-38-1.64606E-04 1.62378E-19-1.32425E-20
 -1       283 3.83503E-04-6.98721E-04 1.62462E-36-1.19710E-04 4.65651E-19-9.85269E-21
 -1       284 3.61594E-04-6.37598E-04 5.29834E-36-8.58457E-05 3.31562E-19 4.12075E-20
 -1       285 3.41034E-04-5.83446E-04 1.54527E-36-6.03950E-05 1.69095E-19-1.63677E-20
 -1       286 3.22437E-04-5.36279E-04 2.24942E-36-4.13446E-05-3.37610E-20 1.63998E-20
 -1       287 3.06115E-04-4.95929E-04 2.03676E-36-2.71743E-05-1.39532E-19-4.83219E-21
 -1       288 2.92232E-04-4.62213E-04 9.45545E-37-1.67543E-05-2.62633E-19-1.35771E-20
 -1       289 2.80905E-04-4.35058E-04 1.35443E-36-9.26614E-06 4.41187E-20-7.63143E-23
 -1       290 2.72270E-04-4.14627E-04 1.13657E-36-4.15191E-06-4.22169E-20 4.67347E-21
 -1       291 2.66425E-04-4.01157E-04 1.42601E-36-1.13028E-06 3.02879E-20-1.50591E-21
 -1       292-3.04517E-04 1.28362E-04 4.89374E-36-9.07202E-05-5.49063E-19-3.01921E-20
 -1       293-5.29349E-04 1.70079E-04 1.59361E-36-3.20278E-04-1.24234E-18-5.96034E-21
 -1       294-6.00952E-04 7.58838E-05 4.92362E-36-5.98812E-04 2.08499E-19-7.77557E-21
 -1       295-5.09771E-04-1.33955E-04 5.46148E-36-8.23038E-04-6.73104E-19-9.94382E-21
 -1       296-3.15343E-04-3.88524E-04 9.08702E-36-9.30970E-04 5.64641E-20 1.58397E-20
 -1       297-9.67589E-05-6.14977E-04 6.09258E-36-9.23207E-04 1.93230E-19-6.02539E-21
 -1       298 9.25066E-05-7.75407E-04 1.48451E-35-8.36175E-04 1.97660E-19-3.42343E-20
 -1       299 2.31361E-04-8.64415E-04 7.43701E-36-7.11195E-04-3.25206E-19 8.30501E-20
 -1       300 3.20314E-04-8.94330E-04 5.39651E-36-5.78959E-04-9.89344E-19 6.22649E-20
 -1       301 3.69327E-04-8.82614E-04 2.68531E-36-4.56943E-04 1.36028E-19 8.85331E-20
 -1       302 3.90085E-04-8.45154E-04 3.76218E-36-3.52580E-04-5.20564E-21-2.79550E-20
 -1       303 3.92568E-04-7.93997E-04 3.12887E-36-2.67300E-04 1.02401E-20-2.71944E-21
 -1       304 3.84176E-04-7.37354E-04 4.30464E-36-1.99579E-04 3.58828E-19 4.75483E-21
 -1       305 3.69967E-04-6.80416E-04 6.05544E-36-1.46784E-04 5.68659E-19-6.75785E-21
 -1       306 3.53218E-04-6.26254E-04-4.85505E-37-1.06136E-04 1.01307E-19-2.44469E-20
 -1       307 3.35972E-04-5.76570E-04 2.33202E-36-7.51241E-05-7.49760E-20-2.01117E-20
 -1       308 3.19468E-04-5.32230E-04 2.10277E-36-5.16560E-05-2.53546E-19 3.23402E-20
 -1       309 3.04444E-04-4.93641E-04 2.70185E-36-3.40606E-05 4.80216E-20-7.68927E-22
 -1       310 2.91346E-04-4.61000E-04 1.45562E-36-2.10480E-05 2.39384E-19-5.00392E-21
 -1       311 2.80481E-04-4.34483E-04 1.10061E-36-1.16588E-05-6.64759E-20 3.46857E-21
 -1       312 2.72106E-04-4.14412E-04 8.05545E-37-5.22839E-06 6.38639E-20-1.64539E-21
 -1       313 2.66403E-04-4.01134E-04 1.06178E-36-1.42121E-06-3.07589E-20 2.60990E-21
 -1       314-2.00195E-04 8.27236E-05 6.05466E-36-5.77311E-05 1.27978E-19 8.40151E-21
 -1       315-3.68135E-04 1.27555E-04 6.90332E-36-1.96428E-04 3.62778E-19 2.34332E-20
 -1       316-4.61855E-04 1.02009E-04-1.30512E-36-3.82923E-04 1.26864E-19-6.19212E-22
 -1       317-4.55971E-04-5.75439E-06 3.72202E-36-5.70225E-04-1.06344E-18-3.91162E-20
 -1       318-3.58660E-04-1.75302E-04 9.83570E-36-7.09066E-04 1.92459E-19-4.80674E-20
 -1       319-2.05998E-04-3.65136E-04 2.05090E-36-7.71496E-04 1.00392E-18-6.39226E-20
 -1       320-4.12954E-05-5.34708E-04 4.93828E-36-7.58857E-04 1.47295E-19-4.19937E-20
 -1       321 1.03634E-04-6.59985E-04 6.39483E-36-6.91706E-04 3.19370E-19 4.42740E-20
 -1       322 2.13966E-04-7.35016E-04 4.88440E-36-5.95481E-04 4.06444E-20 4.02399E-21
 -1       323 2.88146E-04-7.65773E-04 3.72452E-36-4.91117E-04-2.77966E-19-3.76315E-20
 -1       324 3.31694E-04-7.63168E-04 1.87953E-36-3.92042E-04 5.36988E-19-9.62632E-21
 -1       325 3.52345E-04-7.38367E-04 6.52236E-36-3.05012E-04 2.47401E-19 2.80038E-20
 -1       326 3.57383E-04-7.00618E-04 1.02447E-35-2.32231E-04 3.40450E-19 6.86448E-20
 -1       327 3.52620E-04-6.56732E-04 3.18336E-36-1.73320E-04 4.04995E-19 9.32135E-21
 -1       328 3.42284E-04-6.11343E-04 2.78648E-36-1.26698E-04 1.26193E-19-3.40152E-21
 -1       329 3.29274E-04-5.67424E-04 3.30556E-36-9.04070E-05 1.40622E-19 1.50514E-20
 -1       330 3.15500E-04-5.26798E-04 2.19971E-36-6.25356E-05-5.05346E-21 2.05051E-20
 -1       331 3.02193E-04-4.90552E-04 2.24398E-36-4.14133E-05-8.88906E-20-3.20944E-21
 -1       332 2.90147E-04-4.59355E-04 2.10499E-36-2.56709E-05-1.45296E-19-6.27685E-21
 -1       333 2.79905E-04-4.33699E-04 9.39262E-37-1.42495E-05-2.83573E-20-1.77235E-20
 -1       334 2.71882E-04-4.14118E-04 1.28498E-36-6.39774E-06 1.41205E-19-6.64114E-21
 -1       335 2.66372E-04-4.01102E-04-7.92777E-38-1.73571E-06 2.22032E-19 1.17992E-21
 -1       336-1.36832E-04 5.59445E-05 2.77341E-36-4.07304E-05 7.34695E-20 1.36649E-20
 -1       337-2.59846E-04 9.26589E-05 9.88672E-37-1.29904E-04-3.20797E-19 5.64947E-20
 -1       338-3.46396E-04 9.21999E-05 4.32543E-36-2.55151E-04 1.14481E-19 3.00477E-21
 -1       339-3.75913E-04 4.06363E-05 5.20011E-36-3.96714E-04 1.79375E-19-9.37374E-21
 -1       340-3.40207E-04-6.25543E-05 8.46738E-39-5.25856E-04-2.35808E-19 5.56278E-21
 -1       341-2.48914E-04-2.01202E-04 3.60366E-36-6.15566E-04-4.14114E-19-9.16648E-21
 -1       342-1.25367E-04-3.49121E-04 7.18624E-36-6.51455E-04-3.96298E-19-7.10530E-20
 -1       343 3.81924E-06-4.81056E-04 1.77342E-36-6.35142E-04-4.59299E-19-1.20235E-19
 -1       344 1.18196E-04-5.80902E-04 3.64540E-36-5.79655E-04 2.25808E-19-9.35611E-20
 -1       345 2.07216E-04-6.43526E-04 4.36066E-37-5.01859E-04-1.97632E-19 5.21725E-20
 -1       346 2.68926E-04-6.72002E-04 1.54017E-36-4.16631E-04-1.63449E-19 3.11519E-21
 -1       347 3.06592E-04-6.73537E-04 2.15637E-36-3.34323E-04 4.83358E-19-3.12171E-21
 -1       348 3.25583E-04-6.56243E-04 1.70753E-36-2.60728E-04-1.32466E-19 1.01657E-19
 -1       349 3.31364E-04-6.27333E-04 2.83311E-36-1.98195E-04 3.64309E-19 2.13153E-20
 -1       350 3.28562E-04-5.92448E-04 1.27189E-36-1.46912E-04-1.74383E-19 1.92657E-20
 -1       351 3.20716E-04-5.55654E-04 3.23229E-36-1.05930E-04-1.93078E-19-4.72508E-21
 -1       352 3.10361E-04-5.19726E-04 9.91050E-37-7.38433E-05-4.40945E-19 1.87682E-20
 -1       353 2.99249E-04-4.86495E-04 2.09072E-36-4.91803E-05 2.69266E-19-7.41535E-21
 -1       354 2.88567E-04-4.57179E-04 8.36225E-37-3.06102E-05-6.66885E-20-2.60968E-20
 -1       355 2.79141E-04-4.32657E-04 1.17643E-36-1.70389E-05-1.14484E-19-1.11932E-20
 -1       356 2.71584E-04-4.13726E-04 1.54639E-36-7.66228E-06-2.60484E-21-1.05032E-20
 -1       357 2.66330E-04-4.01058E-04 5.79659E-37-2.07359E-06 2.71284E-19 1.11710E-21
 -1       358-9.61597E-05 3.85411E-05 3.31292E-36-3.05569E-05 1.30753E-19 7.75857E-21
 -1       359-1.86385E-04 6.66134E-05 4.29096E-36-9.14712E-05 2.19739E-19 2.20665E-20
 -1       360-2.58263E-04 7.41903E-05 5.78864E-37-1.77672E-04 1.12967E-19 2.38568E-20
 -1       361-2.98027E-04 5.08765E-05 2.00625E-36-2.81387E-04-9.13939E-21 1.20466E-21
 -1       362-2.95426E-04-9.21914E-06 1.15762E-36-3.87952E-04 2.81525E-21-1.04918E-20
 -1       363-2.48588E-04-1.03136E-04 7.52485E-36-4.78870E-04 2.63740E-19 6.42409E-21
 -1       364-1.65959E-04-2.18535E-04 3.93058E-36-5.38026E-04 1.87717E-19 1.79990E-20
 -1       365-6.35597E-05-3.37629E-04 6.09890E-36-5.57290E-04-2.68220E-20-2.11463E-20
 -1       366 4.08720E-05-4.43397E-04 3.02292E-36-5.38333E-04-2.65151E-19-1.42716E-20
 -1       367 1.33353E-04-5.24487E-04 2.95519E-36-4.90174E-04-5.19723E-19 1.59263E-20
 -1       368 2.06203E-04-5.76754E-04 4.07985E-36-4.24742E-04 6.92743E-20-7.97520E-20
 -1       369 2.57620E-04-6.01913E-04 1.41521E-36-3.53056E-04-1.06020E-19-4.84137E-20
 -1       370 2.89713E-04-6.05025E-04 2.37486E-36-2.83228E-04-2.48847E-19-3.90954E-20
 -1       371 3.06409E-04-5.92229E-04 4.62253E-36-2.20133E-04-4.82516E-19-3.34868E-20
 -1       372 3.11956E-04-5.69290E-04 3.65758E-36-1.65999E-04 1.62055E-19 1.52307E-20
 -1       373 3.10117E-04-5.40939E-04 2.73831E-36-1.21269E-04-4.11325E-19 3.15052E-20
 -1       374 3.03886E-04-5.10749E-04 1.65644E-36-8.53723E-05 4.08780E-20 3.07846E-21
 -1       375 2.95491E-04-4.81286E-04 5.34142E-36-5.72745E-05 2.52058E-19-3.01282E-20
 -1       376 2.86531E-04-4.54361E-04 1.64821E-36-3.58365E-05-4.92023E-20-2.75149E-20
 -1       377 2.78151E-04-4.31300E-04 1.38143E-36-2.00209E-05 3.00224E-21 2.09588E-21
 -1       378 2.71195E-04-4.13212E-04 9.86379E-37-9.02207E-06-1.01544E-19-1.05005E-20
 -1       379 2.66274E-04-4.00998E-04 5.20240E-37-2.43380E-06 6.51678E-20 7.81163E-21
 -1       380-6.90479E-05 2.70309E-05 3.58849E-36-2.40246E-05-7.34705E-19-2.95120E-21
 -1       381-1.35528E-04 4.77716E-05 2.70434E-36-6.76971E-05-6.73566E-19 1.63236E-20
 -1       382-1.92647E-04 5.66947E-05 2.41803E-36-1.28849E-04-1.51759E-19 1.02794E-20
 -1       383-2.31715E-04 4.68777E-05 1.40154E-36-2.04726E-04 6.23165E-20-1.05684E-20
 -1       384-2.44340E-04 1.23571E-05 3.22595E-37-2.88380E-04 3.31027E-19-2.85409E-20
 -1       385-2.25340E-04-4.89423E-05 1.17959E-36-3.68896E-04 2.29406E-19-5.86058E-20
 -1       386-1.75269E-04-1.33257E-04 5.84809E-36-4.33804E-04 1.86943E-19-1.44906E-20
 -1       387-1.01152E-04-2.31012E-04 4.74606E-36-4.72795E-04-5.22707E-20-1.20072E-20
 -1       388-1.46032E-05-3.29386E-04 1.44753E-36-4.81008E-04-1.23796E-19 4.99490E-20
 -1       389 7.18061E-05-4.16199E-04 2.11993E-36-4.60101E-04-9.82756E-20 5.97402E-20
 -1       390 1.48031E-04-4.83118E-04 4.37204E-36-4.16783E-04 4.98678E-19-1.24649E-21
 -1       391 2.08354E-04-5.26865E-04 2.17437E-36-3.59973E-04 3.07183E-19-1.19453E-19
 -1       392 2.51287E-04-5.48525E-04 1.90077E-36-2.98154E-04 8.37298E-19 6.51773E-20
 -1       393 2.78344E-04-5.51890E-04 5.38136E-36-2.37820E-04 1.94259E-21 6.66039E-21
 -1       394 2.92566E-04-5.41813E-04 2.77145E-36-1.83061E-04-3.23676E-19-4.72319E-20
 -1       395 2.97382E-04-5.23040E-04 4.55521E-36-1.35889E-04 6.23105E-19 4.00962E-20
 -1       396 2.95934E-04-4.99621E-04 3.74254E-36-9.68395E-05-2.30263E-20-7.42022E-20
 -1       397 2.90799E-04-4.74736E-04 7.76072E-37-6.55648E-05-2.84625E-19-3.81172E-20
 -1       398 2.83957E-04-4.50779E-04 1.74534E-36-4.12989E-05-2.07420E-19-8.65425E-21
 -1       399 2.76887E-04-4.29559E-04 2.46470E-36-2.31801E-05-1.15014E-19 2.32335E-21
 -1       400 2.70695E-04-4.12548E-04 1.14832E-36-1.04740E-05-8.11154E-20 6.08129E-21
 -1       401 2.66199E-04-4.00917E-04 6.31776E-37-2.81414E-06 1.11339E-19 1.20820E-20
 -1       402-5.03722E-05 1.91019E-05 9.11023E-36-1.94925E-05-3.43971E-19 1.47520E-20
 -1       403-9.96413E-05 3.41272E-05 3.80308E-36-5.21167E-05-2.06067E-19 2.76606E-20
 -1       404-1.44076E-04 4.19844E-05 3.04317E-36-9.68592E-05 1.70667E-19-9.64699E-21
 -1       405-1.78303E-04 3.82398E-05 9.59997E-36-1.52997E-04-2.26598E-19 6.49382E-21
 -1       406-1.96297E-04 1.82035E-05 5.49210E-36-2.17479E-04-1.45736E-19-1.73672E-21
 -1       407-1.92878E-04-2.14176E-05 2.36580E-36-2.84388E-04 1.59194E-20-2.56793E-20
 -1       408-1.65474E-04-8.09422E-05 3.55867E-36-3.45511E-04-2.17825E-19 8.73051E-21
 -1       409-1.15589E-04-1.56599E-04 1.50164E-36-3.92045E-04-7.42608E-20-1.28191E-20
 -1       410-4.90626E-05-2.40754E-04 8.44379E-37-4.17045E-04 1.94977E-19 6.23190E-20
 -1       411 2.52821E-05-3.23703E-04 3.10674E-36-4.17516E-04-8.12958E-20-6.54221E-20
 -1       412 9.80919E-05-3.96311E-04 1.76055E-36-3.95100E-04-3.63541E-20 8.84708E-20
 -1       413 1.61864E-04-4.52258E-04 3.80295E-36-3.55094E-04 1.63955E-19 1.13459E-20
 -1       414 2.12264E-04-4.88984E-04 4.54617E-36-3.04499E-04-1.53069E-19 2.73845E-20
 -1       415 2.48150E-04-5.07305E-04 1.77219E-36-2.50081E-04-1.38697E-19 3.97749E-20
 -1       416 2.70742E-04-5.10260E-04 9.79952E-37-1.97150E-04 1.68437E-20-7.45910E-20
 -1       417 2.82536E-04-5.01857E-04 2.82804E-36-1.49159E-04 3.97793E-19-7.37080E-20
 -1       418 2.86410E-04-4.86137E-04 1.48517E-36-1.07882E-04-1.31993E-19-4.56329E-20
 -1       419 2.85063E-04-4.66653E-04 1.29084E-36-7.38692E-05 7.64430E-20-1.97464E-21
 -1       420 2.80762E-04-4.46298E-04 1.13900E-36-4.69191E-05-5.83007E-20 3.59231E-20
 -1       421 2.75300E-04-4.27358E-04 2.28976E-36-2.64892E-05 2.26718E-19-2.10409E-20
 -1       422 2.70061E-04-4.11700E-04 1.51788E-36-1.20104E-05-3.24999E-20-1.05147E-20
 -1       423 2.66101E-04-4.00808E-04 1.14253E-36-3.21093E-06 4.17565E-19-6.80979E-21
 -1       424-3.71731E-05 1.35098E-05 1.55605E-36-1.61858E-05-1.29009E-19 2.51963E-20
 -1       425-7.38502E-05 2.41658E-05 3.34396E-36-4.13766E-05-1.84129E-19-9.28419E-21
 -1       426-1.08011E-04 3.02497E-05 7.82259E-37-7.50683E-05-1.82041E-19-3.86420E-20
 -1       427-1.36343E-04 2.89432E-05 8.82801E-37-1.17306E-04-2.76413E-19-6.76611E-21
 -1       428-1.54743E-04 1.68561E-05 1.30429E-36-1.66902E-04-3.84365E-19 6.25438E-21
 -1       429-1.59033E-04-9.07779E-06-9.09765E-37-2.20848E-04-2.79350E-19-3.69440E-20
 -1       430-1.45953E-04-5.06541E-05 4.77650E-37-2.74214E-04-1.43876E-19-3.40667E-20
 -1       431-1.14355E-04-1.07324E-04 1.50855E-36-3.20665E-04 3.02782E-19-8.02909E-20
 -1       432-6.61042E-05-1.75539E-04 5.24546E-36-3.53748E-04 8.97064E-20 7.08571E-20
 -1       433-6.13342E-06-2.49034E-04 1.54279E-36-3.68599E-04 1.01618E-19-1.08079E-19
 -1       434 5.85857E-05-3.20162E-04 1.64405E-36-3.63379E-04-3.54148E-19 6.22237E-20
 -1       435 1.20814E-04-3.81812E-04 2.17217E-36-3.39726E-04 2.92355E-19-3.38998E-20
 -1       436 1.74772E-04-4.29067E-04 3.00737E-36-3.02048E-04-1.35805E-19 9.44014E-20
 -1       437 2.17137E-04-4.59959E-04 1.35031E-36-2.56072E-04-6.79964E-19 1.22733E-19
 -1       438 2.47103E-04-4.75232E-04 2.96232E-36-2.07375E-04 4.02864E-19 2.81858E-20
 -1       439 2.65767E-04-4.77481E-04 1.79784E-36-1.60392E-04-1.70731E-19-4.67441E-20
 -1       440 2.75294E-04-4.70173E-04 2.26715E-36-1.18064E-04 1.85338E-19 8.89492E-21
 -1       441 2.78197E-04-4.56869E-04 2.38200E-36-8.19492E-05-1.94666E-19 3.54457E-20
 -1       442 2.76862E-04-4.40779E-04 1.36015E-36-5.25860E-05-5.33345E-19-2.22311E-20
 -1       443 2.73335E-04-4.24611E-04 8.23966E-37-2.99051E-05-1.83208E-21 3.47624E-20
 -1       444 2.69267E-04-4.10629E-04 1.00352E-36-1.36181E-05-1.32167E-19 7.83260E-21
 -1       445 2.65971E-04-4.00661E-04 4.81602E-37-3.61874E-06 8.65518E-20-8.30347E-21
 -1       446-2.76416E-05 9.47246E-06 8.36615E-37-1.36639E-05-3.20441E-19-5.97068E-20
 -1       447-5.50115E-05 1.68132E-05 2.44050E-36-3.36413E-05 3.07003E-19-5.38683E-20
 -1       448-8.10580E-05 2.10797E-05 4.75748E-37-5.96694E-05 4.00936E-19-4.44018E-21
 -1       449-1.03731E-04 2.04772E-05 4.37685E-36-9.20439E-05 1.81879E-20 1.48300E-20
 -1       450-1.20294E-04 1.26289E-05 2.85457E-36-1.30424E-04 7.58918E-21 2.78466E-20
 -1       451-1.27661E-04-4.91960E-06 3.45899E-36-1.73385E-04-1.43645E-19-5.76355E-20
 -1       452-1.22881E-04-3.42109E-05 2.16137E-36-2.18150E-04-6.64719E-20 4.64455E-20
 -1       453-1.03896E-04-7.61407E-05 3.67471E-37-2.60588E-04 3.38332E-19-5.33903E-20
 -1       454-7.03767E-05-1.29715E-04 1.83036E-36-2.95696E-04-8.42217E-20 1.43860E-21
 -1       455-2.43098E-05-1.91646E-04 3.56309E-36-3.18588E-04 2.43775E-19 8.35122E-21
 -1       456 3.00500E-05-2.56650E-04 2.57900E-36-3.25771E-04 3.50724E-19 1.05028E-20
 -1       457 8.70056E-05-3.18492E-04 3.15235E-36-3.16173E-04 8.25918E-20-7.48089E-20
 -1       458 1.40771E-04-3.71470E-04 1.62287E-36-2.91456E-04 2.50383E-19-1.91977E-20
 -1       459 1.86791E-04-4.11692E-04 2.58510E-36-2.55450E-04 4.68963E-19-1.39634E-19
 -1       460 2.22515E-04-4.37690E-04 2.37251E-36-2.13024E-04 1.87640E-19-1.60758E-20
 -1       461 2.47446E-04-4.50248E-04 1.21875E-36-1.68909E-04 1.85875E-20 1.40199E-21
 -1       462 2.62667E-04-4.51727E-04 6.10163E-37-1.26891E-04 1.53266E-19 3.00335E-20
 -1       463 2.70156E-04-4.45256E-04-2.29684E-37-8.95102E-05 6.06736E-23-1.37496E-20
 -1       464 2.72187E-04-4.34089E-04 2.20656E-36-5.81505E-05-1.01271E-20-8.08306E-20
 -1       465 2.70937E-04-4.21225E-04 1.06910E-36-3.33652E-05-2.29829E-20-2.39220E-20
 -1       466 2.68285E-04-4.09288E-04 2.12816E-36-1.52759E-05-2.13132E-20 8.26183E-21
 -1       467 2.65802E-04-4.00464E-04 7.44890E-37-4.03008E-06-1.05245E-19 1.61494E-20
 -1       468-2.06341E-05 6.50329E-06 1.22721E-37-1.16743E-05-1.28514E-19 2.20760E-20
 -1       469-4.10521E-05 1.13243E-05 2.09026E-36-2.78529E-05-2.49971E-19-5.31345E-22
 -1       470-6.07564E-05 1.39653E-05 1.78294E-36-4.84064E-05-5.61795E-19 6.57000E-21
 -1       471-7.84683E-05 1.32764E-05 9.62735E-37-7.36763E-05-5.66632E-21-2.01387E-21
 -1       472-9.23745E-05 7.60157E-06 1.80719E-36-1.03681E-04 1.95523E-19 2.15854E-21
 -1       473-1.00285E-04-4.90695E-06 1.72695E-36-1.37814E-04 5.18991E-19-2.02749E-20
 -1       474-9.98444E-05-2.60657E-05 2.78356E-36-1.74596E-04 1.21858E-19-2.68744E-21
 -1       475-8.89456E-05-5.72305E-05 2.06746E-36-2.11504E-04-1.10381E-20 5.97704E-20
 -1       476-6.63129E-05-9.87317E-05 2.23853E-36-2.45040E-04-2.88305E-20-7.78429E-21
 -1       477-3.21179E-05-1.49335E-04 4.52070E-36-2.71157E-04-2.38326E-19 4.20494E-21
 -1       478 1.16281E-05-2.05990E-04 2.55700E-36-2.86069E-04-3.64711E-19 7.38267E-20
 -1       479 6.11760E-05-2.64123E-04 1.58517E-36-2.87231E-04-2.60836E-19 6.02730E-20
 -1       480 1.11735E-04-3.18511E-04 2.63463E-36-2.74124E-04 1.72720E-19 2.06390E-20
 -1       481 1.58559E-04-3.64469E-04 3.87073E-36-2.48458E-04-2.76449E-19 5.62233E-20
 -1       482 1.98002E-04-3.98895E-04 1.45194E-36-2.13695E-04 3.99222E-20-4.22281E-20
 -1       483 2.28126E-04-4.20756E-04-1.46137E-37-1.74118E-04 1.46301E-19 6.32959E-20
 -1       484 2.48732E-04-4.30954E-04 1.47647E-36-1.33853E-04-4.15505E-20-3.55524E-20
 -1       485 2.60956E-04-4.31756E-04 1.27756E-36-9.62082E-05 2.02527E-19-7.42596E-20
 -1       486 2.66686E-04-4.26113E-04 2.26930E-36-6.34233E-05-2.04865E-19-4.88117E-21
 -1       487 2.68053E-04-4.17107E-04 1.14153E-36-3.67840E-05 7.98568E-20 2.37433E-20
 -1       488 2.67084E-04-4.07628E-04 1.20822E-36-1.69538E-05 5.61831E-20-2.49562E-21
 -1       489 2.65582E-04-4.00200E-04 1.77235E-37-4.43533E-06 2.99391E-20-2.01213E-20
 -1       490-1.54030E-05 4.28319E-06 2.04891E-36-1.00596E-05 2.59013E-19-6.13392E-21
 -1       491-3.05773E-05 7.18138E-06 1.72280E-36-2.33746E-05 8.04201E-20 1.70844E-21
 -1       492-4.53418E-05 8.45031E-06 1.10639E-36-3.99016E-05-2.13062E-19 3.30594E-21
 -1       493-5.88918E-05 7.34852E-06 1.81824E-36-5.99555E-05 1.72398E-19 1.35349E-20
 -1       494-7.00211E-05 2.71527E-06 1.02859E-36-8.36860E-05-1.59973E-19-4.62709E-21
 -1       495-7.72041E-05-6.80714E-06-2.49074E-37-1.10891E-04 9.45531E-20 3.57899E-20
 -1       496-7.86698E-05-2.26873E-05 1.57034E-36-1.40830E-04 6.48476E-20 9.90474E-20
 -1       497-7.26028E-05-4.62793E-05 7.91590E-37-1.72036E-04-1.58370E-19 5.77434E-20
 -1       498-5.74911E-05-7.84629E-05 4.82169E-37-2.02224E-04-1.95679E-19-9.71301E-21
 -1       499-3.25931E-05-1.19194E-04 2.61749E-36-2.28389E-04-1.20557E-19 2.68606E-20
 -1       500 1.59466E-06-1.67100E-04 1.06776E-36-2.47194E-04-1.34182E-19-8.96538E-20
 -1       501 4.30687E-05-2.19324E-04 8.50605E-37-2.55652E-04 4.09246E-19-3.58810E-20
 -1       502 8.84576E-05-2.71819E-04 1.29297E-36-2.51915E-04 8.32345E-20-1.16516E-19
 -1       503 1.33634E-04-3.20104E-04 3.80134E-36-2.35892E-04-1.52936E-19 1.07515E-19
 -1       504 1.74628E-04-3.60268E-04 1.20220E-36-2.09374E-04-2.38952E-19 3.77959E-20
 -1       505 2.08499E-04-3.89842E-04 3.40976E-36-1.75603E-04 1.59846E-19 8.58509E-20
 -1       506 2.33822E-04-4.08197E-04 2.42359E-36-1.38465E-04-1.48498E-19 7.13640E-20
 -1       507 2.50689E-04-4.16413E-04 2.55235E-36-1.01667E-04-1.10377E-19 6.49368E-20
 -1       508 2.60340E-04-4.16773E-04 1.32144E-36-6.81750E-05-1.90043E-19 7.62867E-20
 -1       509 2.64641E-04-4.12166E-04 2.04999E-36-4.00497E-05-1.20572E-19-5.40469E-22
 -1       510 2.65634E-04-4.05594E-04 6.67795E-37-1.86097E-05-4.54586E-20-2.82399E-20
 -1       511 2.65298E-04-3.99850E-04 9.06283E-37-4.82277E-06 1.70118E-19-1.34853E-21
 -1       512-1.14462E-05 2.59872E-06 5.44940E-37-8.71783E-06-8.63468E-20 1.14815E-21
 -1       513-2.26299E-05 4.02168E-06 1.04974E-36-1.98071E-05 5.80511E-20-3.99438E-21
 -1       514-3.35472E-05 4.16508E-06 1.47821E-36-3.32876E-05 7.90129E-20 2.14028E-21
 -1       515-4.36856E-05 2.54834E-06 1.39327E-36-4.94296E-05-7.22156E-20-5.57692E-22
 -1       516-5.22358E-05-1.65273E-06 1.73873E-36-6.84125E-05-6.36342E-20 7.41163E-20
 -1       517-5.81404E-05-9.43037E-06 1.66438E-36-9.02216E-05-1.14526E-19-2.15971E-20
 -1       518-6.01065E-05-2.19227E-05 2.79669E-36-1.14518E-04-1.34317E-19-3.64988E-20
 -1       519-5.66908E-05-4.03067E-05 9.07619E-37-1.40488E-04 7.96759E-20-9.13695E-20
 -1       520-4.64832E-05-6.55937E-05 3.61751E-37-1.66708E-04 1.53154E-19-1.13608E-20
 -1       521-2.84067E-05-9.83208E-05 4.45120E-37-1.91096E-04 2.21458E-19 8.17992E-20
 -1       522-2.10112E-06-1.38181E-04 1.64985E-36-2.11036E-04 1.94845E-19 8.68754E-20
 -1       523 3.17097E-05-1.83712E-04 3.67151E-36-2.23734E-04 1.46031E-19 1.41972E-19
 -1       524 7.10360E-05-2.32208E-04-6.09780E-37-2.26808E-04-3.69283E-20-8.79080E-21
 -1       525 1.12789E-04-2.80015E-04 2.40371E-36-2.18957E-04-9.77547E-20-6.37829E-20
 -1       526 1.53341E-04-3.23216E-04-8.09264E-37-2.00450E-04-7.39090E-20 3.08580E-20
 -1       527 1.89328E-04-3.58518E-04 3.53041E-36-1.73196E-04 4.21678E-20-3.45274E-20
 -1       528 2.18383E-04-3.83990E-04 1.92518E-36-1.40332E-04-1.44738E-19-1.00853E-19
 -1       529 2.39536E-04-3.99396E-04 2.00573E-36-1.05503E-04-1.75596E-19 2.18281E-20
 -1       530 2.53174E-04-4.06048E-04 1.79358E-36-7.21416E-05-3.45552E-20 3.12964E-20
 -1       531 2.60670E-04-4.06328E-04 8.62797E-37-4.30215E-05-5.77294E-20 7.23915E-21
 -1       532 2.63907E-04-4.03129E-04 1.38030E-36-2.01883E-05-8.37823E-20 4.22601E-21
 -1       533 2.64935E-04-3.99387E-04 9.53845E-37-5.17893E-06 1.17811E-19 1.07551E-20
 -1       534-8.41834E-06 1.30312E-06 4.96601E-37-7.57999E-06-1.34851E-19 3.48156E-20
 -1       535-1.65412E-05 1.58788E-06 1.22823E-36-1.68908E-05-1.20560E-19-3.35634E-21
 -1       536-2.44577E-05 8.22101E-07 1.17249E-36-2.80026E-05-5.93424E-20-2.09934E-20
 -1       537-3.18358E-05-1.30724E-06 6.66542E-37-4.11434E-05-1.01219E-19 1.98212E-20
 -1       538-3.81256E-05-5.39513E-06 7.22523E-37-5.64805E-05 7.90083E-20 2.18931E-20
 -1       539-4.25918E-05-1.21708E-05 4.88870E-37-7.40766E-05-2.13913E-19-1.00894E-20
 -1       540-4.43025E-05-2.25017E-05 9.51258E-37-9.38031E-05-1.27416E-19-7.32193E-20
 -1       541-4.21566E-05-3.73494E-05 2.45009E-36-1.15229E-04 5.01857E-20-4.92099E-20
 -1       542-3.49690E-05-5.76642E-05 2.12610E-36-1.37501E-04 6.01116E-20-4.98274E-21
 -1       543-2.16414E-05-8.41965E-05 1.15121E-36-1.59246E-04 4.28343E-20-2.14119E-20
 -1       544-1.42569E-06-1.17225E-04 6.55358E-37-1.78558E-04 3.34530E-20 3.10994E-21
 -1       545 2.57512E-05-1.56248E-04 1.72224E-36-1.93127E-04 1.59158E-19 1.08081E-19
 -1       546 5.89934E-05-1.99733E-04 9.24335E-37-2.00588E-04 1.68654E-19-3.40719E-20
 -1       547 9.63182E-05-2.45084E-04 1.19731E-36-1.99045E-04 1.02236E-19-1.04053E-20
 -1       548 1.34849E-04-2.88947E-04 1.42505E-36-1.87651E-04 1.04423E-19-2.92090E-19
 -1       549 1.71347E-04-3.27854E-04 1.37219E-36-1.67012E-04 7.66215E-20-5.86754E-20
 -1       550 2.02942E-04-3.59024E-04 1.08346E-36-1.39205E-04 4.45524E-19-2.46492E-20
 -1       551 2.27765E-04-3.81017E-04 7.06842E-37-1.07367E-04-9.60551E-20 2.08025E-20
 -1       552 2.45271E-04-3.93998E-04 5.48757E-37-7.50369E-05-8.51242E-20-5.46525E-20
 -1       553 2.56136E-04-3.99550E-04 1.72870E-36-4.55305E-05-9.01852E-21-2.42266E-21
 -1       554 2.61881E-04-4.00182E-04 1.33345E-36-2.16181E-05-2.79689E-20-4.64680E-21
 -1       555 2.64478E-04-3.98785E-04 8.14407E-37-5.48915E-06 5.44936E-20-1.76775E-21
 -1       556-6.07734E-06 2.93496E-07 5.94832E-37-6.59706E-06 5.57618E-21 2.73629E-20
 -1       557-1.18363E-05-3.04849E-07 7.60892E-37-1.44506E-05-1.07991E-19-5.19327E-20
 -1       558-1.74079E-05-1.79849E-06 3.23596E-37-2.36721E-05-1.27246E-19 5.31868E-22
 -1       559-2.25693E-05-4.39337E-06 9.03878E-37-3.44556E-05-7.10148E-20-3.86848E-21
 -1       560-2.69423E-05-8.52680E-06 1.22057E-36-4.69425E-05-5.24885E-20 5.93730E-20
 -1       561-3.00100E-05-1.47416E-05 5.84996E-37-6.12195E-05-5.12889E-20-1.10510E-20
 -1       562-3.11024E-05-2.36973E-05 2.99837E-37-7.72614E-05-4.82616E-20 3.41874E-20
 -1       563-2.93960E-05-3.61582E-05 1.41208E-36-9.48547E-05 1.12581E-21-4.18859E-20
 -1       564-2.39467E-05-5.29438E-05 4.38111E-37-1.13504E-04-1.29921E-19 9.71418E-20
 -1       565-1.37763E-05-7.48246E-05-1.02817E-37-1.32336E-04-7.61791E-20 9.77513E-20
 -1       566 1.96744E-06-1.02346E-04 1.90209E-36-1.50028E-04-9.96883E-20 4.12338E-20
 -1       567 2.37739E-05-1.35584E-04 2.73998E-36-1.64818E-04-3.11543E-19 8.85471E-20
 -1       568 5.14886E-05-1.73879E-04 1.69347E-36-1.74649E-04 1.52803E-19-1.05519E-19
 -1       569 8.40736E-05-2.15637E-04 1.32591E-36-1.77510E-04-1.08177E-19-5.32075E-20
 -1       570 1.19540E-04-2.58336E-04 2.19776E-36-1.71916E-04 2.04258E-19-8.28384E-21
 -1       571 1.55172E-04-2.98855E-04 2.08498E-36-1.57434E-04-1.12880E-19 2.00311E-20
 -1       572 1.88048E-04-3.34093E-04 2.00706E-36-1.35018E-04-2.23355E-19 6.49268E-20
 -1       573 2.15718E-04-3.61725E-04 1.88217E-36-1.06979E-04 8.42048E-20-5.29872E-21
 -1       574 2.36773E-04-3.80782E-04-3.85398E-38-7.65713E-05-1.28421E-19-4.53641E-20
 -1       575 2.51065E-04-3.91833E-04 1.31489E-36-4.73812E-05-2.66839E-20 2.11666E-20
 -1       576 2.59546E-04-3.96714E-04 9.99153E-37-2.28099E-05-1.64382E-19 1.09556E-20
 -1       577 2.63912E-04-3.98013E-04 6.08741E-37-5.73821E-06 1.10991E-19 1.32459E-20
 -1       578-4.25038E-06-5.03656E-07 1.07371E-36-5.73279E-06-1.01202E-19-1.26339E-19
 -1       579-8.17350E-06-1.79087E-06 4.70000E-37-1.23643E-05-1.07653E-19-5.50724E-20
 -1       580-1.19094E-05-3.86383E-06 5.10363E-37-2.00390E-05-1.68520E-19-9.35775E-21
 -1       581-1.52998E-05-6.86169E-06 5.60573E-37-2.89262E-05 1.16138E-20 5.21113E-20
 -1       582-1.80800E-05-1.11118E-05 6.39915E-37-3.91394E-05 7.74977E-20-3.95845E-20
 -1       583-1.98819E-05-1.70253E-05 3.12898E-37-5.07651E-05-8.02626E-21-7.60833E-20
 -1       584-2.02205E-05-2.51072E-05 3.73324E-37-6.38244E-05-3.22980E-20-5.69029E-20
 -1       585-1.84844E-05-3.59592E-05 1.39253E-36-7.82227E-05-4.52674E-21-7.41275E-20
 -1       586-1.39419E-05-5.02604E-05 1.55763E-36-9.36817E-05 8.41740E-20 7.13841E-20
 -1       587-5.77871E-06-6.87152E-05 1.28873E-36-1.09660E-04-6.21443E-20 6.97714E-20
 -1       588 6.81481E-06-9.19484E-05 1.53417E-36-1.25272E-04 1.08650E-19 3.36193E-20
 -1       589 2.44912E-05-1.20339E-04 6.23036E-37-1.39241E-04-3.03436E-20 1.46943E-20
 -1       590 4.75283E-05-1.53797E-04 9.28171E-37-1.49928E-04 7.19310E-21-9.09040E-20
 -1       591 7.55802E-05-1.91526E-04 1.08232E-36-1.55494E-04 1.10282E-19-1.18180E-19
 -1       592 1.07481E-04-2.31865E-04 1.31095E-36-1.54234E-04 5.84960E-20-2.73165E-20
 -1       593 1.41222E-04-2.72339E-04 1.02350E-36-1.45043E-04 2.20023E-20 1.18390E-19
 -1       594 1.74207E-04-3.10005E-04 1.52850E-36-1.27904E-04 7.78851E-20-6.19374E-20
 -1       595 2.03783E-04-3.42083E-04 2.13582E-36-1.04166E-04 9.05540E-20 2.34805E-22
 -1       596 2.27883E-04-3.66669E-04 4.19591E-37-7.64766E-05-1.49116E-19 5.53168E-20
 -1       597 2.45520E-04-3.83242E-04 1.24685E-36-4.83593E-05 4.29667E-20 4.38098E-20
 -1       598 2.56907E-04-3.92709E-04 1.28814E-36-2.36551E-05-7.11347E-20 8.85570E-21
 -1       599 2.63230E-04-3.97046E-04 1.21498E-36-5.91049E-06-2.43081E-19 3.30933E-20
 -1       600-2.81247E-06-1.14160E-06 6.07037E-37-4.95911E-06 2.19978E-20-1.41528E-21
 -1       601-5.30341E-06-2.96896E-06 2.59545E-37-1.05429E-05 6.30084E-20-3.59911E-20
 -1       602-7.60151E-06-5.50081E-06 6.13317E-37-1.69212E-05 5.56072E-20-2.16377E-20
 -1       603-9.58249E-06-8.83741E-06 5.72486E-37-2.42455E-05 3.15473E-20-1.10010E-19
 -1       604-1.10582E-05-1.32284E-05 6.93882E-37-3.26049E-05 1.40755E-19 4.86329E-20
 -1       605-1.17614E-05-1.89913E-05 8.54066E-37-4.20752E-05 2.29471E-20-6.11401E-20
 -1       606-1.13369E-05-2.65183E-05 4.60422E-37-5.26947E-05 1.29282E-20 3.85711E-20
 -1       607-9.32938E-06-3.62841E-05 4.01214E-37-6.44307E-05-6.49208E-21-5.18012E-20
 -1       608-5.17835E-06-4.88422E-05 9.38890E-37-7.71326E-05 6.60332E-20-1.38016E-20
 -1       609 1.77045E-06-6.48025E-05 2.23661E-37-9.04713E-05-2.02189E-20 1.52562E-20
 -1       610 1.22232E-05-8.47745E-05 1.56448E-36-1.03869E-04-5.14790E-20 1.26852E-21
 -1       611 2.68497E-05-1.09264E-04 5.27099E-37-1.16436E-04 4.74680E-20 1.21579E-20
 -1       612 4.61355E-05-1.38510E-04 9.58602E-37-1.26937E-04-1.53406E-19-1.16999E-19
 -1       613 7.01778E-05-1.72278E-04 1.75759E-37-1.33841E-04 2.98832E-20-1.16434E-19
 -1       614 9.84602E-05-2.09644E-04 1.40398E-36-1.35507E-04-1.11687E-19 6.31559E-20
 -1       615 1.29691E-04-2.48871E-04 1.41195E-36-1.30520E-04 5.07270E-21 1.07191E-19
 -1       616 1.61825E-04-2.87497E-04 1.27493E-36-1.18166E-04 1.64648E-20-1.28061E-19
 -1       617 1.92354E-04-3.22721E-04 1.91776E-36-9.88883E-05-5.18031E-20-1.34906E-19
 -1       618 2.18857E-04-3.52038E-04 8.48933E-37-7.45333E-05 3.35597E-20 4.12882E-20
 -1       619 2.39611E-04-3.73922E-04 1.23400E-36-4.82430E-05 1.11599E-19 1.59779E-20
 -1       620 2.53991E-04-3.88186E-04 1.57130E-36-2.40260E-05 2.54397E-21-2.93071E-20
 -1       621 2.62434E-04-3.95871E-04 1.02779E-36-5.98904E-06 4.42903E-20-1.15923E-20
 -1       622-1.67229E-06-1.65934E-06 7.18833E-37-4.25308E-06 3.07191E-20-8.53325E-20
 -1       623-3.04284E-06-3.91231E-06 4.63317E-37-8.91906E-06-2.08983E-20 1.11246E-19
 -1       624-4.21627E-06-6.80577E-06 6.72256E-37-1.41852E-05 3.56213E-20 8.58086E-20
 -1       625-5.08089E-06-1.04212E-05 4.43357E-37-2.01894E-05 2.36401E-20-3.65973E-20
 -1       626-5.50059E-06-1.49527E-05 5.05669E-37-2.70011E-05-1.22277E-20 1.86368E-20
 -1       627-5.27696E-06-2.06509E-05 2.81153E-37-3.46828E-05-5.65240E-20-9.86828E-21
 -1       628-4.14530E-06-2.78258E-05 4.81646E-37-4.32752E-05 1.28967E-20-1.40349E-19
 -1       629-1.76314E-06-3.68559E-05 4.33307E-37-5.27758E-05-4.96433E-20-7.88782E-20
 -1       630 2.29884E-06-4.81915E-05 5.15600E-37-6.31067E-05 3.74690E-20-6.94283E-20
 -1       631 8.55796E-06-6.23479E-05 4.54718E-37-7.40716E-05 1.27387E-20-9.62194E-20
 -1       632 1.76035E-05-7.98788E-05 5.62657E-37-8.53005E-05-1.79264E-19 3.37131E-20
 -1       633 3.00513E-05-1.01316E-04 7.42064E-37-9.61886E-05-2.05543E-20 2.03433E-19
 -1       634 4.64530E-05-1.27065E-04 6.59652E-37-1.05844E-04 2.39943E-20-3.94945E-20
 -1       635 6.71505E-05-1.57245E-04 7.12214E-37-1.13072E-04 1.10421E-19 4.07889E-20
 -1       636 9.20789E-05-1.91487E-04 1.19457E-36-1.16451E-04 2.00657E-19 1.74037E-20
 -1       637 1.20559E-04-2.28737E-04 1.10170E-36-1.14534E-04 4.36740E-20-3.73033E-21
 -1       638 1.51167E-04-2.67162E-04 4.99304E-37-1.06218E-04 2.91846E-21 8.39536E-20
 -1       639 1.81794E-04-3.04274E-04 1.11352E-36-9.12331E-05-7.92604E-20-1.33476E-20
 -1       640 2.09982E-04-3.37357E-04 1.19199E-36-7.05940E-05-5.82757E-20 2.92426E-20
 -1       641 2.33490E-04-3.64110E-04 1.50488E-36-4.68196E-05-5.64574E-20-3.27872E-20
 -1       642 2.50851E-04-3.83213E-04 1.37650E-36-2.37790E-05-6.58251E-20 5.53368E-20
 -1       643 2.61542E-04-3.94493E-04 3.00222E-37-5.95256E-06 8.92962E-20 5.70137E-21
 -1       644-7.62740E-07-2.08566E-06 2.01108E-37-3.59477E-06 2.50700E-20-1.00099E-19
 -1       645-1.25662E-06-4.67531E-06 3.21716E-37-7.43852E-06 1.31549E-20 2.98494E-20
 -1       646-1.55421E-06-7.85169E-06 2.36853E-37-1.17281E-05-2.63501E-20 4.02471E-20
 -1       647-1.54097E-06-1.16925E-05 5.31958E-37-1.65892E-05 1.57553E-20 1.75866E-19
 -1       648-1.11606E-06-1.63519E-05 4.86413E-37-2.20761E-05-1.72095E-21 1.30135E-19
 -1       649-1.28479E-07-2.20324E-05 6.80231E-37-2.82382E-05-4.54469E-21 7.56294E-20
 -1       650 1.62356E-06-2.89846E-05 6.83154E-37-3.51124E-05 2.53469E-20 4.19576E-20
 -1       651 4.40202E-06-3.75149E-05 3.75544E-37-4.27089E-05-1.60359E-20-4.24959E-20
 -1       652 8.53868E-06-4.79927E-05 3.42744E-37-5.09899E-05 5.92970E-20 1.10471E-19
 -1       653 1.44416E-05-6.08508E-05 4.71783E-37-5.98403E-05-4.16159E-20-2.01409E-20
 -1       654 2.25926E-05-7.65759E-05 1.82108E-37-6.90261E-05-4.77911E-20-1.16548E-19
 -1       655 3.35277E-05-9.56774E-05 5.16257E-37-7.81451E-05 9.21486E-20 5.27573E-20
 -1       656 4.77869E-05-1.18625E-04 8.41290E-37-8.65731E-05-6.71499E-20 9.12052E-21
 -1       657 6.58210E-05-1.45737E-04 1.55982E-36-9.34235E-05 7.79160E-20-1.05170E-19
 -1       658 8.78429E-05-1.77024E-04 1.02800E-36-9.75521E-05 8.46153E-20-1.43437E-19
 -1       659 1.13634E-04-2.11981E-04 1.04900E-36-9.76545E-05 4.28909E-20 3.82687E-20
 -1       660 1.42347E-04-2.49408E-04 1.32290E-36-9.25097E-05-6.53989E-20 5.62653E-20
 -1       661 1.72397E-04-2.87330E-04 7.17410E-37-8.13921E-05 3.55798E-20-4.31294E-20
 -1       662 2.01561E-04-3.23157E-04 6.80730E-37-6.45966E-05 8.49680E-20 1.14603E-19
 -1       663 2.27352E-04-3.54136E-04 9.39109E-37-4.39047E-05 5.02512E-20-2.02355E-20
 -1       664 2.47568E-04-3.77923E-04 1.42532E-36-2.27619E-05-1.74847E-20 7.26318E-20
 -1       665 2.60594E-04-3.92949E-04 1.12897E-36-5.77020E-06 1.29667E-19-7.67066E-21
 -1       666-3.53830E-08-2.44125E-06 1.68103E-37-2.96555E-06 4.07952E-20 1.25973E-20
 -1       667 1.54375E-07-5.29812E-06 1.43408E-37-6.05467E-06 1.43525E-20 3.73228E-20
 -1       668 5.31902E-07-8.69326E-06 3.12925E-37-9.46619E-06 1.44340E-20-1.51936E-19
 -1       669 1.22680E-06-1.27125E-05 1.88919E-37-1.33113E-05 1.30862E-20-1.17552E-19
 -1       670 2.31644E-06-1.74818E-05 4.39419E-37-1.76334E-05-2.47244E-20-2.05998E-20
 -1       671 3.91907E-06-2.31686E-05 4.71988E-37-2.24705E-05-1.84134E-20 7.24258E-20
 -1       672 6.19276E-06-2.99805E-05 2.12387E-37-2.78527E-05 1.44418E-20 6.69071E-20
 -1       673 9.34257E-06-3.81713E-05-7.97379E-39-3.37939E-05-2.22958E-20-1.15032E-19
 -1       674 1.36294E-05-4.80483E-05 4.01181E-37-4.02778E-05-2.86727E-20 4.31286E-19
 -1       675 1.93779E-05-5.99774E-05 4.72743E-37-4.72376E-05 7.04984E-20-1.67788E-19
 -1       676 2.69806E-05-7.43821E-05 3.98199E-37-5.45277E-05-7.47181E-20-1.11388E-19
 -1       677 3.68927E-05-9.17300E-05 5.66119E-37-6.18856E-05 5.77017E-20 1.69288E-19
 -1       678 4.96076E-05-1.12499E-04 5.67681E-37-6.88870E-05 2.85224E-20-1.37334E-19
 -1       679 6.56033E-05-1.37107E-04 4.59293E-37-7.49000E-05-9.61419E-20-2.83591E-20
 -1       680 8.52417E-05-1.65798E-04 4.57096E-37-7.90589E-05 1.19514E-19-8.01587E-20
 -1       681 1.08614E-04-1.98471E-04 1.29580E-36-8.02909E-05 9.11038E-20-7.84284E-20
 -1       682 1.35340E-04-2.34467E-04 1.79789E-36-7.74498E-05-6.52130E-20-7.59899E-21
 -1       683 1.64372E-04-2.72383E-04 1.37298E-36-6.96127E-05 5.20071E-20 6.11779E-20
 -1       684 1.93892E-04-3.09992E-04 9.10794E-37-5.65608E-05 1.18693E-19-2.94436E-20
 -1       685 2.21434E-04-3.44418E-04 1.64573E-36-3.93608E-05-1.20230E-20-5.07032E-20
 -1       686 2.44259E-04-3.72521E-04 1.74362E-36-2.08280E-05-1.02820E-20 2.21716E-20
 -1       687 2.59648E-04-3.91314E-04 6.64943E-37-5.39546E-06 9.86878E-20-8.14510E-21
 -1       688 5.44915E-07-2.74136E-06 6.22937E-38-2.34596E-06 1.26313E-20 1.30044E-19
 -1       689 1.26026E-06-5.80931E-06 1.07358E-37-4.72395E-06-1.65721E-20 5.40004E-20
 -1       690 2.14805E-06-9.37026E-06 2.07207E-37-7.32575E-06-6.38723E-21-1.29227E-19
 -1       691 3.35967E-06-1.35265E-05 8.12397E-38-1.02427E-05 2.13170E-20-2.35966E-19
 -1       692 4.95884E-06-1.83852E-05 2.54790E-37-1.35104E-05 2.47795E-20-1.02546E-19
 -1       693 7.04132E-06-2.40888E-05 2.71058E-37-1.71574E-05-1.59012E-20 4.06835E-20
 -1       694 9.73494E-06-3.08135E-05 2.63457E-37-2.12066E-05 1.63619E-20 6.41847E-20
 -1       695 1.32051E-05-3.87751E-05 2.04658E-37-2.56710E-05 5.07265E-20 1.28425E-19
 -1       696 1.76621E-05-4.82352E-05 3.28564E-37-3.05447E-05-3.58956E-20 1.50060E-19
 -1       697 2.33694E-05-5.95080E-05 6.83637E-37-3.57900E-05 3.37707E-20-1.33920E-19
 -1       698 3.06503E-05-7.29638E-05 4.22376E-37-4.13177E-05 3.81578E-20 1.46948E-19
 -1       699 3.98894E-05-8.90258E-05 4.72608E-37-4.69612E-05 8.59227E-21 5.40480E-20
 -1       700 5.15251E-05-1.08154E-04 5.16548E-37-5.24417E-05 1.70481E-20-1.10314E-19
 -1       701 6.60207E-05-1.30806E-04 4.78603E-37-5.73289E-05 6.26878E-20 1.83803E-19
 -1       702 8.38029E-05-1.57359E-04 7.04808E-37-6.10061E-05-2.87670E-20-1.03787E-19
 -1       703 1.05151E-04-1.87978E-04 6.96929E-37-6.26606E-05 1.46577E-20 8.08978E-20
 -1       704 1.30024E-04-2.22427E-04 5.87963E-37-6.13408E-05 1.49253E-20 1.46198E-19
 -1       705 1.57840E-04-2.59824E-04 1.10248E-36-5.61399E-05-4.91196E-20 2.53026E-20
 -1       706 1.87250E-04-2.98416E-04 9.17678E-37-4.65670E-05 8.27664E-20 5.61429E-21
 -1       707 2.16013E-04-3.35456E-04 8.27707E-37-3.31107E-05 7.48150E-21 2.15054E-19
 -1       708 2.41083E-04-3.67300E-04 1.28447E-36-1.78572E-05 2.10005E-21 4.30256E-20
 -1       709 2.58779E-04-3.89704E-04 7.39534E-37-4.76332E-06 5.48246E-20-5.33162E-21
 -1       710 9.91512E-07-2.99114E-06 1.67992E-37-1.71345E-06-5.92602E-21 1.39970E-19
 -1       711 2.10337E-06-6.22791E-06 2.95308E-37-3.40056E-06 8.36826E-21-1.72016E-19
 -1       712 3.36370E-06-9.91079E-06 5.06938E-37-5.23395E-06 1.24457E-20 6.08639E-20
 -1       713 4.94891E-06-1.41657E-05 3.57250E-37-7.27759E-06 1.28956E-20 1.14917E-19
 -1       714 6.91939E-06-1.90915E-05 1.91699E-37-9.55984E-06 5.75191E-21-1.23951E-19
 -1       715 9.35680E-06-2.48134E-05 2.89826E-37-1.21017E-05-1.87204E-21-8.15087E-20
 -1       716 1.23684E-05-3.14856E-05 5.09821E-38-1.49195E-05-7.78748E-21 2.83079E-20
 -1       717 1.60924E-05-3.92966E-05 2.72906E-37-1.80231E-05 1.12669E-20 9.84520E-20
 -1       718 2.07044E-05-4.84756E-05 2.30716E-37-2.14112E-05 1.83239E-21 5.68602E-20
 -1       719 2.64250E-05-5.92990E-05 1.76722E-37-2.50630E-05 3.31680E-20-1.05340E-20
 -1       720 3.35268E-05-7.20962E-05 3.56725E-37-2.89264E-05 3.72747E-21 7.50825E-20
 -1       721 4.23401E-05-8.72523E-05 4.03613E-37-3.29011E-05-2.72052E-20-6.94430E-20
 -1       722 5.32529E-05-1.05202E-04 4.26479E-37-3.68146E-05 2.43278E-20 5.69836E-20
 -1       723 6.66987E-05-1.26410E-04 4.53362E-37-4.03938E-05 1.38425E-20 1.89752E-19
 -1       724 8.31220E-05-1.51322E-04 8.29544E-37-4.32342E-05 2.38698E-20 2.99620E-19
 -1       725 1.02903E-04-1.80267E-04 5.15598E-37-4.47786E-05 2.64291E-20 4.38585E-20
 -1       726 1.26225E-04-2.13302E-04 6.04461E-37-4.43322E-05 1.04210E-20-1.08394E-19
 -1       727 1.52861E-04-2.49967E-04 6.63121E-37-4.11584E-05 1.29867E-21 7.60308E-20
 -1       728 1.81894E-04-2.88962E-04 8.88268E-37-3.47236E-05 2.28599E-20-1.12754E-19
 -1       729 2.11406E-04-3.27817E-04 1.10055E-36-2.51420E-05 9.16534E-21 7.44957E-21
 -1       730 2.38254E-04-3.62647E-04 1.22609E-36-1.37801E-05-1.65383E-20-2.15686E-20
 -1       731 2.58060E-04-3.88265E-04 4.84569E-37-3.79792E-06-5.96565E-20-5.05080E-20
 -1       732 1.31563E-06-3.18325E-06-4.92532E-38-1.01028E-06-1.27254E-21-1.78873E-19
 -1       733 2.67711E-06-6.54946E-06 3.46726E-37-2.03167E-06-7.84487E-22-2.05524E-19
 -1       734 4.20243E-06-1.03301E-05 2.40847E-37-3.10306E-06-4.36700E-22 3.33508E-19
 -1       735 6.03803E-06-1.46535E-05-1.01241E-37-4.29969E-06-7.73529E-21 2.02520E-19
 -1       736 8.25222E-06-1.96222E-05 1.01895E-37-5.63110E-06-4.97646E-21 9.85495E-21
 -1       737 1.09229E-05-2.53549E-05 1.24469E-37-7.10898E-06-7.37008E-21 8.01451E-21
 -1       738 1.41467E-05-3.19938E-05 1.09274E-37-8.74365E-06-2.62945E-21-1.51155E-19
 -1       739 1.80459E-05-3.97109E-05 5.90595E-37-1.05421E-05 1.56817E-21 1.88022E-20
 -1       740 2.27742E-05-4.87140E-05 1.92135E-37-1.25051E-05-4.79593E-21-2.70492E-19
 -1       741 2.85242E-05-5.92544E-05 2.84072E-37-1.46230E-05 1.21886E-20-1.03686E-19
 -1       742 3.55349E-05-7.16330E-05 2.87548E-37-1.68694E-05-2.54672E-21-1.84532E-19
 -1       743 4.40991E-05-8.62066E-05 3.44971E-37-1.91917E-05-7.85432E-21 7.29077E-20
 -1       744 5.45673E-05-1.03388E-04 1.98807E-37-2.14983E-05 4.02161E-20-3.56160E-19
 -1       745 6.73450E-05-1.23635E-04 1.82996E-37-2.36414E-05-1.49557E-20-7.92271E-20
 -1       746 8.28737E-05-1.47424E-04 4.81739E-37-2.53976E-05-3.69086E-21-2.10588E-19
 -1       747 1.01581E-04-1.75177E-04 5.41803E-37-2.64504E-05 6.36342E-21 7.77880E-20
 -1       748 1.23779E-04-2.07130E-04 7.63987E-37-2.63885E-05 1.14486E-20-8.55732E-20
 -1       749 1.49478E-04-2.43112E-04 5.84585E-37-2.47468E-05-3.15643E-20 4.46868E-20
 -1       750 1.78083E-04-2.82178E-04 1.01575E-36-2.11352E-05-7.02792E-22-8.58992E-20
 -1       751 2.07980E-04-3.22138E-04 9.43337E-37-1.55101E-05-1.09184E-20-5.72726E-20
 -1       752 2.36059E-04-3.59055E-04 1.27716E-36-8.60151E-06-1.47349E-20-4.13982E-20
 -1       753 2.57551E-04-3.87166E-04 1.04214E-36-2.43811E-06 2.78341E-19-5.02082E-20
 -1       754 1.44131E-06-3.08388E-06 5.01851E-37-2.96967E-07 1.67108E-22 4.46536E-19
 -1       755 2.89672E-06-6.52567E-06 1.72558E-37-5.89573E-07-6.24033E-23-1.09710E-19
 -1       756 4.54857E-06-1.03452E-05 3.29617E-37-8.28023E-07 1.89629E-21-4.29917E-19
 -1       757 6.52280E-06-1.46912E-05 2.21750E-37-1.14445E-06 7.55490E-22-1.65035E-19
 -1       758 8.87646E-06-1.96759E-05 2.43433E-37-1.50966E-06-7.67263E-22-2.21104E-19
 -1       759 1.16795E-05-2.54132E-05 1.35966E-37-1.91808E-06-3.44870E-23-2.62560E-19
 -1       760 1.50214E-05-3.20369E-05 4.88694E-37-2.36944E-06 3.16164E-23-1.82921E-19
 -1       761 1.90163E-05-3.97096E-05 6.41274E-37-2.86423E-06 7.52383E-22-8.29354E-21
 -1       762 2.38086E-05-4.86291E-05 5.60908E-37-3.40219E-06-1.42399E-21 8.40365E-20
 -1       763 2.95792E-05-5.90351E-05 1.93547E-37-3.98090E-06 6.56501E-21 1.62781E-19
 -1       764 3.65522E-05-7.12162E-05 6.04835E-38-4.59388E-06 7.69540E-22-1.10015E-19
 -1       765 4.50028E-05-8.55160E-05-1.42900E-39-5.22791E-06 7.66560E-22 2.10716E-19
 -1       766 5.52628E-05-1.02336E-04 6.68105E-38-5.85945E-06 3.51651E-22 1.10083E-19
 -1       767 6.77218E-05-1.22132E-04 3.45665E-37-6.45001E-06 3.32367E-21 5.38356E-20
 -1       768 8.28154E-05-1.45388E-04 5.83748E-37-6.94062E-06 7.97175E-22-6.15934E-20
 -1       769 1.00989E-04-1.72566E-04 4.24255E-37-7.24652E-06 3.15018E-21-9.17667E-20
 -1       770 1.22610E-04-2.03985E-04 4.43687E-37-7.25542E-06 1.04447E-20-2.27749E-19
 -1       771 1.47801E-04-2.39609E-04 6.62602E-37-6.83667E-06-8.71043E-21-1.88580E-20
 -1       772 1.76138E-04-2.78677E-04 8.12241E-37-5.87403E-06-8.66707E-21 6.04210E-20
 -1       773 2.06183E-04-3.19158E-04 1.07108E-36-4.34184E-06-1.00989E-20 2.26756E-20
 -1       774 2.34872E-04-3.57125E-04 1.24492E-36-2.43671E-06 3.49466E-22-5.85819E-20
 -1       775 2.57289E-04-3.86581E-04 1.07708E-36-7.30780E-07 2.96665E-19-3.16755E-21
 -1       776 1.12574E-06-4.66426E-07 5.27907E-34-1.05196E-09 9.84879E-18-1.29864E-18
 -1       777 4.64864E-07-2.12011E-07 4.39008E-35 1.79900E-07 3.88827E-18-1.23308E-18
 -1       778-1.16489E-07-5.33592E-08 4.66069E-35 5.37454E-07-1.70161E-18 6.67665E-19
 -1       779-5.88775E-07-2.02143E-08 1.53093E-34 1.05271E-06 1.85692E-19 3.37897E-19
 -1       780-9.30496E-07-1.35682E-07 2.41113E-34 1.72728E-06-9.38030E-19-4.53054E-19
 -1       781-1.12484E-06-4.20715E-07 2.60302E-34 2.56985E-06-7.58911E-18-2.52997E-19
 -1       782-1.15770E-06-8.96824E-07 4.40025E-34 3.58836E-06-7.90096E-19 4.07481E-19
 -1       783-1.01666E-06-1.58788E-06 3.04367E-34 4.78499E-06-2.88853E-18-6.40277E-19
 -1       784-6.90169E-07-2.52161E-06 4.01116E-34 6.15238E-06-7.09715E-18-3.86415E-19
 -1       785-1.66736E-07-3.73086E-06 4.58214E-34 7.67029E-06 4.23944E-18 2.57215E-19
 -1       786 5.65980E-07-5.25434E-06 3.26177E-34 9.30242E-06-6.83397E-18-6.63547E-19
 -1       787 1.52170E-06-7.13635E-06 4.45078E-34 1.09934E-05-4.55902E-18-1.99731E-19
 -1       788 2.71540E-06-9.42481E-06 5.12316E-34 1.26658E-05-7.61152E-18 3.43721E-19
 -1       789 4.16196E-06-1.21667E-05 1.62978E-34 1.42169E-05-2.73023E-18 1.82607E-19
 -1       790 5.87312E-06-1.54000E-05 1.95184E-34 1.55155E-05-1.07817E-17-1.65357E-20
 -1       791 7.85216E-06-1.91419E-05-8.55311E-35 1.63990E-05-9.90297E-18-5.48438E-20
 -1       792 1.00857E-05-2.33714E-05 6.05864E-34 1.66713E-05-1.68322E-18-7.20203E-21
 -1       793 1.25313E-05-2.80068E-05 2.71573E-34 1.61066E-05-4.03600E-18-1.71473E-19
 -1       794 1.50990E-05-3.28793E-05 2.20259E-34 1.44656E-05-5.97025E-18 1.64417E-20
 -1       795 1.76175E-05-3.77049E-05 7.74366E-34 1.15509E-05-5.67871E-18-2.61496E-19
 -1       796 1.97452E-05-4.20544E-05 7.37042E-34 7.36796E-06 6.38195E-18-9.33708E-20
 -1       797 2.06653E-05-4.52286E-05 9.66758E-35 2.54590E-06-7.35718E-18 1.79799E-19
 -1       798-6.66380E-06 2.93480E-06 5.00467E-34 1.43004E-06 7.59961E-18-5.97886E-19
 -1       799-7.51081E-06 3.26005E-06 4.30314E-34 2.93314E-06 3.50144E-18-2.15021E-19
 -1       800-8.29130E-06 3.49795E-06 1.76935E-34 4.53852E-06 9.87880E-18-8.29017E-19
 -1       801-8.96544E-06 3.60564E-06 2.10276E-34 6.26154E-06 1.95281E-19 3.53199E-19
 -1       802-9.49392E-06 3.54774E-06 1.86922E-34 8.11326E-06 5.70193E-18 4.68179E-19
 -1       803-9.83646E-06 3.29068E-06 6.31098E-34 1.01022E-05 4.73701E-18-4.48450E-19
 -1       804-9.95100E-06 2.79996E-06 1.80300E-34 1.22333E-05-7.43065E-18 1.22273E-18
 -1       805-9.79391E-06 2.03923E-06 3.79060E-34 1.45058E-05-4.84571E-18 1.01491E-18
 -1       806-9.32078E-06 9.70270E-07 4.22185E-34 1.69106E-05 6.39318E-19 2.41687E-19
 -1       807-8.48765E-06-4.46623E-07-2.43874E-36 1.94270E-05 1.89271E-18 1.35725E-19
 -1       808-7.25237E-06-2.25190E-06-3.17783E-35 2.20170E-05 6.44974E-18 2.36953E-19
 -1       809-5.57610E-06-4.48585E-06 1.72324E-34 2.46200E-05 5.16054E-18-1.88957E-19
 -1       810-3.42486E-06-7.18742E-06 8.86751E-35 2.71446E-05-1.05157E-18 1.72764E-20
 -1       811-7.71648E-07-1.03922E-05-7.40446E-35 2.94619E-05 9.10962E-19 3.16328E-19
 -1       812 2.40025E-06-1.41290E-05 4.06169E-34 3.13967E-05-9.41191E-18-1.35700E-19
 -1       813 6.09110E-06-1.84140E-05 2.05258E-34 3.27216E-05-4.12057E-18 2.82155E-20
 -1       814 1.02728E-05-2.32395E-05 3.54613E-34 3.31543E-05-9.08102E-18 7.41078E-20
 -1       815 1.48656E-05-2.85550E-05 2.34120E-34 3.23632E-05-2.10891E-19-3.46563E-20
 -1       816 1.96912E-05-3.42331E-05 1.24029E-34 2.99901E-05 2.66810E-18 1.48912E-19
 -1       817 2.43766E-05-4.00054E-05 4.43818E-35 2.57014E-05-1.75493E-18-3.31393E-19
 -1       818 2.81517E-05-4.53265E-05 3.78109E-35 1.92799E-05 9.51763E-18-7.26409E-19
 -1       819 2.93947E-05-4.89977E-05 4.10476E-34 1.07235E-05-2.68719E-18-1.50481E-18
 -1       820-2.34473E-05 1.00941E-05 1.56417E-34 2.43126E-06 5.90898E-18-3.18882E-19
 -1       821-2.38638E-05 1.02556E-05 1.53517E-34 4.93580E-06-4.90871E-18-1.02918E-18
 -1       822-2.41833E-05 1.03145E-05 1.09020E-35 7.54771E-06-2.79700E-18 4.34275E-19
 -1       823-2.43688E-05 1.02366E-05 1.77742E-34 1.03067E-05-5.20355E-18 6.78624E-19
 -1       824-2.43807E-05 9.99041E-06 3.47923E-34 1.32251E-05-1.22195E-19 8.47969E-19
 -1       825-2.41736E-05 9.54136E-06 5.89438E-34 1.63034E-05 5.09221E-18-4.09174E-19
 -1       826-2.36959E-05 8.84971E-06-1.87462E-36 1.95340E-05 7.47814E-19-5.24094E-20
 -1       827-2.28889E-05 7.87004E-06-7.26746E-35 2.29015E-05-5.64262E-19-6.93903E-20
 -1       828-2.16879E-05 6.55149E-06 1.49320E-34 2.63810E-05 1.90407E-18-2.40282E-19
 -1       829-2.00229E-05 4.83841E-06 2.59954E-34 2.99352E-05-9.58750E-20-2.56374E-19
 -1       830-1.78202E-05 2.67153E-06 3.11866E-34 3.35096E-05 3.20804E-18-2.57877E-19
 -1       831-1.50047E-05-1.04423E-08 1.14955E-34 3.70266E-05 1.14019E-17 3.18922E-20
 -1       832-1.15037E-05-3.26833E-06 1.27698E-34 4.03778E-05 8.54228E-18-9.77403E-21
 -1       833-7.25172E-06-7.15894E-06 3.61592E-34 4.34145E-05 7.60591E-19 1.28461E-19
 -1       834-2.19871E-06-1.17295E-05 2.79216E-34 4.59372E-05-2.10327E-18-5.32556E-20
 -1       835 3.67765E-06-1.70087E-05 2.40514E-34 4.76835E-05 8.29832E-18-9.06824E-21
 -1       836 1.03509E-05-2.29913E-05 3.45451E-34 4.83180E-05 2.10460E-18-9.59455E-20
 -1       837 1.77095E-05-2.96117E-05 4.45547E-34 4.74251E-05-3.13255E-18 1.98072E-19
 -1       838 2.54949E-05-3.66972E-05 3.92218E-34 4.45094E-05 1.29327E-18-1.78230E-19
 -1       839 3.31915E-05-4.38873E-05-1.29016E-34 3.90051E-05 6.36489E-19 1.42900E-19
 -1       840 3.98469E-05-5.04897E-05 3.79303E-34 3.02941E-05 7.35166E-18-9.75296E-19
 -1       841 4.37798E-05-5.52112E-05 9.89695E-35 1.76813E-05-5.57275E-18-9.89211E-19
 -1       842-4.51961E-05 1.94040E-05-1.01968E-34 3.16626E-06-2.81721E-18-3.08483E-19
 -1       843-4.49866E-05 1.93022E-05-9.54690E-36 6.43618E-06 1.33763E-18-1.01709E-18
 -1       844-4.46282E-05 1.90758E-05 1.31088E-34 9.84854E-06-5.85609E-19-1.10355E-18
 -1       845-4.40834E-05 1.86975E-05 5.61959E-34 1.34555E-05 5.43823E-19-1.02834E-18
 -1       846-4.33094E-05 1.81376E-05 4.88480E-34 1.72678E-05 5.33963E-18 3.40022E-19
 -1       847-4.22557E-05 1.73602E-05-8.57526E-37 2.12806E-05-1.35538E-18-4.65229E-19
 -1       848-4.08633E-05 1.63222E-05 2.08890E-35 2.54798E-05-5.60279E-18 1.69145E-19
 -1       849-3.90641E-05 1.49732E-05-1.15311E-34 2.98417E-05 8.65157E-18-1.89298E-19
 -1       850-3.67809E-05 1.32550E-05 1.61164E-34 3.43314E-05-5.97990E-18-2.19535E-19
 -1       851-3.39273E-05 1.11022E-05 1.46146E-35 3.88988E-05-5.76340E-18-3.52255E-19
 -1       852-3.04082E-05 8.44234E-06 1.06209E-34 4.34741E-05 3.35123E-18 1.33518E-19
 -1       853-2.61222E-05 5.19730E-06-6.72444E-35 4.79610E-05 2.21023E-18-3.08074E-19
 -1       854-2.09643E-05 1.28571E-06 3.58627E-36 5.22285E-05-4.19009E-18-1.31000E-20
 -1       855-1.48321E-05-3.37290E-06 2.10059E-34 5.60998E-05-4.25953E-18-2.44827E-19
 -1       856-7.63597E-06-8.85086E-06 1.39339E-34 5.93386E-05-2.52265E-18-6.82460E-21
 -1       857 6.84711E-07-1.52003E-05-1.18299E-34 6.16326E-05 4.13930E-18-9.31041E-21
 -1       858 1.01344E-05-2.24333E-05-3.50865E-35 6.25749E-05 2.63662E-18-6.84767E-20
 -1       859 2.06175E-05-3.04889E-05 4.21938E-35 6.16441E-05 3.18788E-18 8.51205E-20
 -1       860 3.18676E-05-3.91795E-05-1.00597E-34 5.81851E-05 5.35440E-18 2.10114E-19
 -1       861 4.33359E-05-4.81052E-05 3.90486E-35 5.13918E-05 2.25765E-18 5.01765E-20
 -1       862 5.40241E-05-5.65239E-05 2.79420E-35 4.02961E-05 1.03941E-19-1.07899E-18
 -1       863 6.22488E-05-6.31174E-05 2.77004E-34 2.37288E-05-3.99510E-18-6.52008E-20
 -1       864-6.97113E-05 2.99032E-05-1.34952E-35 3.74069E-06-3.22664E-18-2.65410E-19
 -1       865-6.87957E-05 2.94992E-05-3.33798E-35 7.61745E-06-3.37947E-18 4.79557E-20
 -1       866-6.76745E-05 2.89505E-05-4.25809E-35 1.16793E-05 2.46650E-18 9.16099E-20
 -1       867-6.63065E-05 2.82326E-05-1.30747E-35 1.59830E-05 6.83040E-18-5.24081E-19
 -1       868-6.46442E-05 2.73156E-05 9.52102E-35 2.05377E-05-1.98459E-18 1.78685E-18
 -1       869-6.26312E-05 2.61616E-05-7.35503E-35 2.53369E-05-4.57668E-18 2.67656E-19
 -1       870-6.02014E-05 2.47246E-05 1.53966E-34 3.03644E-05-6.61927E-18 2.82549E-19
 -1       871-5.72778E-05 2.29502E-05 2.57096E-35 3.55940E-05 5.56055E-18 8.84343E-19
 -1       872-5.37714E-05 2.07744E-05 5.59669E-35 4.09862E-05 3.45204E-18 1.65405E-19
 -1       873-4.95803E-05 1.81236E-05-2.57869E-35 4.64842E-05 2.81830E-18 6.41837E-20
 -1       874-4.45896E-05 1.49140E-05 1.37590E-35 5.20079E-05-1.71687E-18 8.05609E-20
 -1       875-3.86720E-05 1.10520E-05 3.36979E-35 5.74468E-05 1.18217E-18 3.93377E-19
 -1       876-3.16902E-05 6.43623E-06-3.32071E-35 6.26490E-05-4.57684E-18-9.24256E-20
 -1       877-2.35025E-05 9.61797E-07-1.99745E-35 6.74084E-05 6.92686E-18-1.87363E-19
 -1       878-1.39735E-05-5.47206E-06-2.66694E-34 7.14473E-05-4.60869E-20 6.98172E-20
 -1       879-2.99240E-06-1.29480E-05-8.70677E-35 7.43945E-05-2.13551E-18 5.13611E-20
 -1       880 9.49671E-06-2.15076E-05 7.98463E-37 7.57594E-05 3.53603E-18 4.19034E-20
 -1       881 2.34451E-05-3.11140E-05 4.26787E-34 7.49018E-05-3.68796E-19-1.54476E-19
 -1       882 3.86225E-05-4.15932E-05-1.19282E-34 7.09988E-05 2.35036E-21-3.22850E-19
 -1       883 5.44976E-05-5.25428E-05 7.16926E-35 6.30099E-05-9.27874E-19-1.29527E-19
 -1       884 7.00625E-05-6.31988E-05 2.04232E-34 4.96516E-05-3.04376E-18-3.47755E-20
 -1       885 8.35882E-05-7.22012E-05 2.04580E-34 2.93579E-05-6.19286E-18-1.97177E-20
 -1       886-9.54537E-05 4.09290E-05-1.62629E-34 4.17524E-06-5.05167E-19 5.28964E-19
 -1       887-9.38172E-05 4.02170E-05 6.83234E-35 8.52265E-06-4.50669E-18-5.14597E-19
 -1       888-9.19205E-05 3.93441E-05 2.32573E-34 1.30992E-05 2.27471E-18 9.65727E-19
 -1       889-8.97182E-05 3.82872E-05 2.62895E-34 1.79626E-05-4.07958E-18-4.16628E-20
 -1       890-8.71578E-05 3.70149E-05 7.44251E-35 2.31216E-05 6.87376E-18 1.08364E-19
 -1       891-8.41772E-05 3.54873E-05 8.72687E-35 2.85710E-05-1.64301E-18 9.47843E-19
 -1       892-8.07023E-05 3.36553E-05-1.71013E-35 3.42967E-05-5.10534E-18 1.57257E-20
 -1       893-7.66460E-05 3.14598E-05 6.61125E-35 4.02741E-05-7.91715E-18 1.00403E-19
 -1       894-7.19061E-05 2.88305E-05 5.64694E-35 4.64638E-05-4.78654E-18-3.69654E-19
 -1       895-6.63630E-05 2.56841E-05 1.60266E-34 5.28072E-05-1.27936E-18-5.70895E-19
 -1       896-5.98784E-05 2.19237E-05 2.06094E-34 5.92191E-05-3.30182E-18 4.82328E-19
 -1       897-5.22950E-05 1.74382E-05 1.19359E-34 6.55785E-05-2.12472E-18 3.24909E-19
 -1       898-4.34379E-05 1.21036E-05 1.09087E-34 7.17157E-05-2.43439E-18 1.14357E-19
 -1       899-3.31195E-05 5.78771E-06 1.55944E-34 7.73956E-05-2.51680E-18-1.44544E-19
 -1       900-2.11509E-05-1.64195E-06-1.38575E-34 8.22968E-05-2.09154E-18-8.64830E-20
 -1       901-7.36108E-06-1.03023E-05-1.10300E-34 8.59848E-05-3.00184E-18 6.87376E-21
 -1       902 8.36935E-06-2.02693E-05 6.86534E-35 8.78796E-05 5.02595E-19 2.56036E-20
 -1       903 2.60548E-05-3.15377E-05 2.45628E-34 8.72179E-05 4.72794E-18-2.15824E-20
 -1       904 4.55219E-05-4.39588E-05-6.68199E-35 8.30090E-05-1.13783E-18 5.48286E-19
 -1       905 6.62822E-05-5.71456E-05 7.53790E-35 7.39857E-05 2.50538E-18-1.85472E-19
 -1       906 8.73396E-05-7.03308E-05-2.28101E-35 5.85608E-05-1.21773E-18 1.20753E-18
 -1       907 1.06909E-04-8.21121E-05-3.11237E-35 3.47733E-05-2.05809E-18 3.92231E-21
 -1       908-1.21249E-04 5.19778E-05-2.44528E-34 4.47411E-06-1.43860E-18-1.41219E-19
 -1       909-1.18930E-04 5.09766E-05 1.67142E-35 9.16274E-06-3.66801E-18-2.18385E-19
 -1       910-1.16305E-04 4.98041E-05 1.01477E-34 1.41261E-05 2.59671E-18 1.26579E-18
 -1       911-1.13322E-04 4.84372E-05-1.02282E-34 1.94206E-05 1.62602E-18 7.87798E-19
 -1       912-1.09926E-04 4.68430E-05 1.79542E-34 2.50569E-05-3.44817E-18 6.87001E-19
 -1       913-1.06047E-04 4.49786E-05-2.12109E-35 3.10348E-05 4.08855E-19 1.36892E-19
 -1       914-1.01602E-04 4.27908E-05 6.82888E-35 3.73458E-05 3.14153E-18-4.11401E-19
 -1       915-9.64919E-05 4.02141E-05 6.33850E-35 4.39706E-05-3.21519E-18 8.19246E-20
 -1       916-9.05970E-05 3.71692E-05 9.15322E-35 5.08742E-05-8.10578E-19 6.13179E-20
 -1       917-8.37754E-05 3.35599E-05 4.37328E-35 5.79999E-05-1.60708E-18-4.15865E-19
 -1       918-7.58596E-05 2.92721E-05 1.56233E-34 6.52605E-05-1.90643E-18 6.86659E-20
 -1       919-6.66550E-05 2.41728E-05 4.21295E-35 7.25261E-05 1.46449E-18 2.85973E-19
 -1       920-5.59413E-05 1.81114E-05-7.60706E-35 7.96085E-05 2.50648E-18 7.14741E-20
 -1       921-4.34778E-05 1.09255E-05 3.64057E-34 8.62414E-05-8.49958E-19-1.56824E-19
 -1       922-2.90154E-05 2.45035E-06 1.94016E-34 9.20548E-05 2.41190E-18 8.34878E-20
 -1       923-1.23192E-05-7.46274E-06 2.39340E-34 9.65457E-05-1.48512E-18-3.97258E-20
 -1       924 6.79600E-06-1.89189E-05 9.20038E-35 9.90414E-05-1.99313E-18 9.29808E-21
 -1       925 2.84097E-05-3.19384E-05 7.14327E-35 9.86577E-05 1.29663E-18-8.91595E-20
 -1       926 5.24117E-05-4.63962E-05 5.14565E-35 9.42475E-05-2.30025E-18 8.61086E-20
 -1       927 7.83729E-05-6.19286E-05-1.09139E-34 8.43364E-05-1.93885E-18-3.45444E-19
 -1       928 1.05340E-04-7.77891E-05 1.14536E-34 6.70501E-05-5.53541E-18 6.12134E-19
 -1       929 1.31505E-04-9.25672E-05-4.45508E-35 4.00187E-05-3.51402E-19-4.67635E-19
 -1       930-1.46205E-04 6.26682E-05 1.44012E-34 4.64245E-06-1.08866E-18 5.45494E-19
 -1       931-1.43294E-04 6.14189E-05 4.34540E-35 9.55037E-06-1.92592E-18 1.07637E-18
 -1       932-1.40042E-04 5.99944E-05-2.30730E-35 1.47819E-05-1.45208E-18-4.24481E-19
 -1       933-1.36394E-04 5.83709E-05-5.82010E-35 2.03920E-05-1.44082E-18-8.80774E-20
 -1       934-1.32287E-04 5.65124E-05 1.15298E-34 2.63965E-05 1.17449E-18 7.70929E-19
 -1       935-1.27643E-04 5.43716E-05 8.02638E-35 3.28039E-05-9.42491E-19 5.49795E-20
 -1       936-1.22368E-04 5.18887E-05 7.48291E-36 3.96151E-05 5.51328E-18-1.10356E-19
 -1       937-1.16345E-04 4.89886E-05-4.06646E-35 4.68196E-05 4.37171E-18-1.44868E-19
 -1       938-1.09433E-04 4.55780E-05 8.58917E-35 5.43899E-05-1.89535E-18-4.85648E-19
 -1       939-1.01460E-04 4.15425E-05 1.30458E-34 6.22730E-05 4.00260E-18 6.88605E-19
 -1       940-9.22192E-05 3.67447E-05 3.57164E-36 7.03790E-05-4.41113E-18-4.38950E-19
 -1       941-8.14702E-05 3.10240E-05 4.88644E-35 7.85661E-05-3.09444E-19-1.32931E-19
 -1       942-6.89388E-05 2.42000E-05-3.49807E-35 8.66216E-05 1.96644E-20 1.72729E-19
 -1       943-5.43260E-05 1.60800E-05 1.76243E-35 9.42383E-05 1.76924E-18-5.53710E-20
 -1       944-3.73228E-05 6.47325E-06-6.30663E-36 1.00988E-04-2.54568E-18-5.89941E-20
 -1       945-1.76369E-05-4.78779E-06 1.17457E-34 1.06291E-04 4.47515E-18-2.97535E-20
 -1       946 4.97006E-06-1.78185E-05 2.33211E-34 1.09381E-04-4.00479E-18 2.68074E-20
 -1       947 3.06283E-05-3.26443E-05 3.01870E-35 1.09265E-04 1.08621E-18 7.57244E-20
 -1       948 5.92840E-05-4.91498E-05 1.29940E-34 1.04669E-04 2.95761E-18 1.00258E-19
 -1       949 9.05813E-05-6.70009E-05 6.06993E-36 9.39516E-05-1.37331E-18-1.71145E-19
 -1       950 1.23658E-04-8.55097E-05 1.03304E-34 7.49932E-05 8.72733E-19-2.12343E-19
 -1       951 1.56780E-04-1.03337E-04 2.04810E-35 4.50129E-05 1.65406E-18 6.47574E-19
 -1       952-1.69686E-04 7.27279E-05 9.06474E-35 4.69015E-06 3.58259E-18-5.47229E-19
 -1       953-1.66325E-04 7.12930E-05 1.93846E-34 9.70866E-06-4.34866E-18 4.57626E-19
 -1       954-1.62601E-04 6.96858E-05 1.67495E-34 1.51066E-05 1.19721E-18-2.13685E-19
 -1       955-1.58455E-04 6.78797E-05 1.39010E-35 2.09386E-05-1.02355E-19 8.43854E-20
 -1       956-1.53816E-04 6.58335E-05 2.45669E-35 2.72305E-05-1.85533E-18 5.97915E-19
 -1       957-1.48595E-04 6.34924E-05 2.07405E-35 3.40036E-05-2.81494E-18 2.75580E-19
 -1       958-1.42680E-04 6.07855E-05 1.04101E-34 4.12717E-05 3.60398E-18 4.00785E-19
 -1       959-1.35931E-04 5.76220E-05-6.44322E-35 4.90361E-05 6.78170E-18-1.36765E-19
 -1       960-1.28173E-04 5.38874E-05 1.49554E-34 5.72776E-05-1.98181E-18-4.30015E-20
 -1       961-1.19193E-04 4.94409E-05 6.84986E-35 6.59447E-05 2.99929E-18-2.29385E-19
 -1       962-1.08735E-04 4.41140E-05 8.39382E-35 7.49391E-05 1.11684E-19 2.41046E-19
 -1       963-9.65019E-05 3.77133E-05 1.02441E-34 8.40964E-05 3.68665E-18 1.82261E-19
 -1       964-8.21595E-05 3.00280E-05 1.79256E-34 9.31642E-05 9.46916E-19 2.79874E-19
 -1       965-6.53518E-05 2.08427E-05 1.68500E-34 1.01777E-04-1.18576E-18 7.74437E-20
 -1       966-4.57223E-05 9.95826E-06 2.16033E-34 1.09432E-04-2.27001E-19 4.35358E-20
 -1       967-2.29441E-05-2.78375E-06 2.70555E-34 1.15464E-04 8.50631E-18-4.07340E-20
 -1       968 3.24228E-06-1.74741E-05 2.30782E-35 1.19021E-04-3.93719E-18-1.05705E-19
 -1       969 3.29863E-05-3.41096E-05 1.48967E-34 1.19027E-04 6.48253E-19-7.30258E-21
 -1       970 6.62735E-05-5.25649E-05 4.29686E-36 1.14132E-04 1.26376E-18 2.80920E-19
 -1       971 1.02838E-04-7.25454E-05 3.62062E-34 1.02602E-04 7.86357E-19 4.40715E-22
 -1       972 1.41981E-04-9.34789E-05 4.78552E-34 8.21391E-05 7.49741E-19-4.71505E-19
 -1       973 1.82188E-04-1.14218E-04 5.86549E-35 4.95781E-05 1.39666E-18 7.26669E-19
 -1       974-1.91288E-04 8.19842E-05 2.75654E-34 4.63223E-06 3.75277E-18 4.31492E-19
 -1       975-1.87667E-04 8.04473E-05 8.54521E-35 9.67231E-06-4.33673E-18 1.44515E-19
 -1       976-1.83679E-04 7.87467E-05-1.58039E-35 1.51599E-05 2.81979E-18-3.13418E-19
 -1       977-1.79256E-04 7.68502E-05-2.58845E-35 2.11528E-05-1.90036E-18-2.81596E-19
 -1       978-1.74315E-04 7.47074E-05 1.33818E-34 2.76925E-05-3.21348E-18 2.43786E-19
 -1       979-1.68749E-04 7.22504E-05 1.96038E-34 3.48173E-05-6.22698E-19-3.24340E-19
 -1       980-1.62420E-04 6.93896E-05 2.25087E-34 4.25573E-05 1.83798E-19-9.46041E-20
 -1       981-1.55151E-04 6.60088E-05 1.41375E-34 5.09263E-05 4.69267E-18-4.52060E-19
 -1       982-1.46721E-04 6.19617E-05 6.59845E-35 5.99100E-05 7.61889E-19 4.16007E-19
 -1       983-1.36860E-04 5.70701E-05 3.15031E-34 6.94506E-05-3.93237E-19-6.16157E-19
 -1       984-1.25249E-04 5.11264E-05 1.56365E-34 7.94262E-05-2.79758E-18 2.11119E-19
 -1       985-1.11524E-04 4.39019E-05 7.20254E-35 8.96290E-05-6.01262E-19-1.53711E-19
 -1       986-9.52937E-05 3.51624E-05-2.43289E-35 9.97409E-05-1.56478E-19 1.29233E-19
 -1       987-7.61583E-05 2.46907E-05-9.35205E-36 1.09312E-04-2.65839E-18-8.34440E-20
 -1       988-5.37446E-05 1.23137E-05 3.00239E-35 1.17746E-04-3.16942E-18-1.61530E-21
 -1       989-2.77369E-05-2.07197E-06 1.19660E-34 1.24289E-04 1.26005E-18 8.44087E-21
 -1       990 2.09457E-06-1.84834E-05 9.74134E-35 1.28024E-04 8.74695E-19-5.97851E-20
 -1       991 3.58744E-05-3.68492E-05 3.29324E-34 1.27846E-04 1.10823E-18-6.06596E-20
 -1       992 7.36087E-05-5.70189E-05-2.25578E-35 1.22408E-04 2.30867E-18-8.50713E-20
 -1       993 1.15148E-04-7.87612E-05 5.97826E-35 1.09974E-04 1.10198E-19 2.11256E-20
 -1       994 1.60052E-04-1.01697E-04 4.67273E-35 8.81623E-05-1.10735E-18-2.07158E-19
 -1       995 2.07217E-04-1.25020E-04 7.38155E-35 5.34787E-05-4.51002E-18 3.76607E-19
 -1       996-2.10813E-04 9.03521E-05-1.37695E-34 4.48742E-06 5.25002E-19 7.58088E-19
 -1       997-2.07175E-04 8.88181E-05 1.98690E-35 9.48582E-06 3.73344E-18 2.98896E-19
 -1       998-2.03181E-04 8.71334E-05-2.68397E-35 1.50202E-05 7.94430E-19 6.93709E-19
 -1       999-1.98751E-04 8.52552E-05 8.64438E-35 2.11574E-05 1.42068E-18-4.57883E-19
 -1      1000-1.93783E-04 8.31171E-05 1.10304E-34 2.79608E-05-2.19054E-18-4.99776E-19
 -1      1001-1.88140E-04 8.06287E-05 4.28097E-34 3.54902E-05-5.11380E-18-5.23222E-19
 -1      1002-1.81642E-04 7.76695E-05 3.74007E-35 4.37933E-05-4.58945E-19 8.75376E-20
 -1      1003-1.74057E-04 7.40839E-05 1.84266E-35 5.28931E-05-5.43606E-19-4.87564E-19
 -1      1004-1.65098E-04 6.96788E-05 1.63481E-34 6.27704E-05 8.02795E-18 1.76925E-19
 -1      1005-1.54420E-04 6.42264E-05 8.41239E-35 7.33421E-05-6.68626E-19-2.40575E-19
 -1      1006-1.41624E-04 5.74743E-05 1.35672E-34 8.44356E-05 5.81190E-19-1.25233E-19
 -1      1007-1.26281E-04 4.91645E-05 3.67244E-35 9.57644E-05 6.37603E-20-4.74347E-19
 -1      1008-1.07954E-04 3.90619E-05 7.33655E-35 1.06907E-04 1.73269E-18 1.79661E-19
 -1      1009-8.62398E-05 2.69878E-05 1.06146E-34 1.17300E-04 9.35660E-19-8.32695E-21
 -1      1010-6.08034E-05 1.28515E-05-2.28055E-36 1.26240E-04-4.71152E-19-2.93504E-20
 -1      1011-3.14080E-05-3.33298E-06 3.06195E-34 1.32901E-04 6.55959E-18 5.36228E-20
 -1      1012 2.08136E-06-2.14550E-05-1.03348E-35 1.36348E-04 3.35648E-18 1.16142E-19
 -1      1013 3.97218E-05-4.13447E-05 1.16379E-34 1.35530E-04-3.02981E-18 7.57930E-20
 -1      1014 8.15349E-05-6.28319E-05 8.66360E-35 1.29197E-04-4.12174E-18 6.41722E-20
 -1      1015 1.27533E-04-8.57950E-05 2.18563E-34 1.15720E-04-4.08718E-18-1.13906E-19
 -1      1016 1.77646E-04-1.10139E-04 2.28143E-34 9.27291E-05-1.82785E-18-7.99661E-19
 -1      1017 2.31385E-04-1.35557E-04 1.65352E-34 5.64726E-05-3.63130E-18-1.30902E-19
 -1      1018-2.28233E-04 9.78197E-05 4.28231E-35 4.27657E-06-9.12852E-20 5.58176E-20
 -1      1019-2.24877E-04 9.64173E-05 1.82513E-34 9.20151E-06 5.10450E-18 9.47355E-19
 -1      1020-2.21194E-04 9.48789E-05 5.90955E-35 1.47833E-05-5.52344E-18-9.58163E-21
 -1      1021-2.17081E-04 9.31430E-05 9.32922E-35 2.11062E-05 3.51301E-19 1.51745E-19
 -1      1022-2.12403E-04 9.11160E-05-2.35631E-35 2.82622E-05-4.96029E-19 6.86252E-19
 -1      1023-2.06975E-04 8.86699E-05 2.25616E-34 3.63359E-05 1.53542E-18 6.27948E-20
 -1      1024-2.00551E-04 8.56350E-05 1.15956E-34 4.53900E-05 2.55994E-18-3.27869E-19
 -1      1025-1.92820E-04 8.17962E-05 5.47414E-35 5.54457E-05 1.07267E-18-1.01782E-19
 -1      1026-1.83400E-04 7.68959E-05 1.54940E-34 6.64568E-05 4.77837E-18 4.46615E-19
 -1      1027-1.71848E-04 7.06461E-05 3.95676E-35 7.82805E-05-7.23051E-19 3.83297E-20
 -1      1028-1.57685E-04 6.27529E-05 3.84586E-35 9.06482E-05-4.09034E-18-2.43473E-20
 -1      1029-1.40425E-04 5.29528E-05 2.64641E-35 1.03145E-04-1.41311E-18-1.14627E-19
 -1      1030-1.19633E-04 4.10573E-05 1.10572E-34 1.15202E-04-1.39332E-18 8.99832E-20
 -1      1031-9.49664E-05 2.69945E-05 1.02213E-34 1.26118E-04-3.58254E-18 8.13937E-21
 -1      1032-6.62152E-05 1.08329E-05 1.53794E-34 1.35093E-04 1.86553E-20-2.48950E-20
 -1      1033-3.33049E-05-7.22826E-06 1.10301E-34 1.41280E-04 2.76313E-18 1.45494E-20
 -1      1034 3.74494E-06-2.69102E-05 2.73048E-35 1.43812E-04-2.05083E-18 3.04932E-20
 -1      1035 4.49030E-05-4.79449E-05-5.48099E-35 1.41792E-04 1.90124E-18-1.24009E-19
 -1      1036 9.02323E-05-7.01826E-05 1.44307E-34 1.34174E-04-1.12243E-18-3.10964E-19
 -1      1037 1.39977E-04-9.36831E-05 1.99810E-34 1.19525E-04 5.00330E-19-1.57471E-19
 -1      1038 1.94547E-04-1.18731E-04-4.25225E-36 9.55659E-05 3.49114E-18-2.71907E-19
 -1      1039 2.54259E-04-1.45650E-04-6.35656E-35 5.83634E-05 3.11230E-18-6.58622E-19
 -1      1040-2.43656E-04 1.04434E-04 4.76219E-35 4.02135E-06-1.20225E-18-8.15058E-20
 -1      1041-2.40952E-04 1.03320E-04 2.78454E-34 8.87891E-06 5.70630E-18-4.68797E-19
 -1      1042-2.37962E-04 1.02082E-04 1.03023E-34 1.45645E-05-5.27394E-18-1.38563E-19
 -1      1043-2.34547E-04 1.00627E-04 1.63029E-34 2.11900E-05 2.57177E-18 1.17531E-19
 -1      1044-2.30516E-04 9.88154E-05 9.86452E-35 2.88833E-05 5.10022E-18-7.26972E-20
 -1      1045-2.25606E-04 9.64579E-05 2.52516E-35 3.77529E-05 9.99543E-19 4.83200E-19
 -1      1046-2.19470E-04 9.33090E-05 3.21831E-35 4.78659E-05-1.47381E-18 1.20996E-20
 -1      1047-2.11681E-04 8.90687E-05 1.01889E-34 5.92164E-05-2.20204E-18-5.56144E-20
 -1      1048-2.01731E-04 8.33969E-05 1.45375E-34 7.16893E-05 2.75578E-18 1.29425E-19
 -1      1049-1.89068E-04 7.59445E-05 6.51156E-35 8.50243E-05 1.36650E-18 3.69685E-19
 -1      1050-1.73140E-04 6.64010E-05 9.00894E-35 9.87906E-05-1.28099E-18 6.52546E-20
 -1      1051-1.53457E-04 5.45531E-05 1.82372E-34 1.12383E-04-9.41053E-18-4.99816E-20
 -1      1052-1.29664E-04 4.03422E-05 1.31165E-34 1.25052E-04-3.25437E-19-9.10176E-20
 -1      1053-1.01588E-04 2.38998E-05 3.30845E-35 1.35960E-04-8.85555E-19-7.11573E-21
 -1      1054-6.92500E-05 5.53966E-06 1.08962E-34 1.44267E-04-2.71128E-18-1.05103E-20
 -1      1055-3.28138E-05-1.43029E-05 8.30419E-35 1.49200E-04-8.21795E-19-5.28467E-20
 -1      1056 7.51741E-06-3.51822E-05 1.30086E-34 1.50083E-04 1.16095E-18-1.18205E-19
 -1      1057 5.16494E-05-5.67818E-05 5.72799E-35 1.46280E-04 2.65481E-18-1.78317E-19
 -1      1058 9.97521E-05-7.90535E-05 1.59787E-35 1.37035E-04 3.04775E-18 3.80954E-19
 -1      1059 1.52387E-04-1.02325E-04-4.73312E-36 1.21161E-04 1.25937E-18-1.67411E-19
 -1      1060 2.10543E-04-1.27337E-04 6.59066E-35 9.65118E-05 2.52176E-20-5.01957E-19
 -1      1061 2.75480E-04-1.55135E-04 1.28411E-34 5.90387E-05 2.91431E-18-1.87984E-19
 -1      1062-2.57299E-04 1.10288E-04 8.37523E-35 3.74373E-06-1.53544E-18 4.24428E-19
 -1      1063-2.55703E-04 1.09655E-04 2.21200E-34 8.58677E-06-2.38458E-18-4.16940E-20
 -1      1064-2.53872E-04 1.08901E-04-6.96982E-36 1.45055E-05 1.77681E-18-1.48645E-19
 -1      1065-2.51602E-04 1.07877E-04 7.36388E-35 2.16520E-05-3.80974E-19 7.40737E-19
 -1      1066-2.48609E-04 1.06369E-04 1.03463E-34 3.01943E-05 1.47463E-18-1.21683E-19
 -1      1067-2.44506E-04 1.04091E-04-1.89386E-35 4.02562E-05-4.18860E-18 1.28108E-19
 -1      1068-2.38797E-04 1.00685E-04 3.49827E-35 5.18816E-05 3.78743E-18-3.16608E-19
 -1      1069-2.30889E-04 9.57367E-05 3.64560E-35 6.49873E-05 1.49446E-18-2.88206E-19
 -1      1070-2.20126E-04 8.88154E-05 3.82002E-35 7.93157E-05 3.57144E-19-1.88557E-19
 -1      1071-2.05851E-04 7.95352E-05 1.48323E-34 9.44018E-05-3.53688E-18 6.09898E-20
 -1      1072-1.87492E-04 6.76342E-05 5.71832E-35 1.09568E-04 4.76703E-19-4.66819E-20
 -1      1073-1.64657E-04 5.30540E-05 5.07028E-35 1.23964E-04 2.83464E-18-1.67349E-19
 -1      1074-1.37209E-04 3.59901E-05 1.31347E-34 1.36654E-04 7.07773E-18-7.97415E-20
 -1      1075-1.05279E-04 1.68893E-05 1.16967E-35 1.46733E-04 4.42824E-19 5.86290E-20
 -1      1076-6.92171E-05-3.62351E-06 4.10306E-35 1.53437E-04-3.54279E-18-1.78693E-20
 -1      1077-2.94639E-05-2.48796E-05 1.33771E-34 1.56216E-04-3.57528E-18 2.38985E-20
 -1      1078 1.36287E-05-4.63336E-05 1.04679E-34 1.54710E-04 4.14511E-19 8.78136E-20
 -1      1079 5.99871E-05-6.77270E-05-5.08095E-36 1.48637E-04 2.51551E-18-1.28881E-19
 -1      1080 1.09988E-04-8.92212E-05 6.51030E-36 1.37560E-04 8.65180E-19 2.15712E-20
 -1      1081 1.64593E-04-1.11492E-04 1.12159E-35 1.20534E-04-3.03678E-18 5.52871E-20
 -1      1082 2.25435E-04-1.35780E-04 2.32103E-34 9.55449E-05-4.84239E-18-9.07712E-20
 -1      1083 2.94777E-04-1.63876E-04 3.44096E-35 5.84862E-05-7.17812E-19-1.15151E-19
 -1      1084-2.69463E-04 1.15511E-04 6.50768E-35 3.46651E-06-1.04362E-19-1.36438E-19
 -1      1085-2.69552E-04 1.15601E-04 6.71389E-35 8.40911E-06-8.90568E-19 6.33488E-19
 -1      1086-2.69451E-04 1.15547E-04 2.10294E-35 1.47909E-05 2.33111E-18-3.17058E-19
 -1      1087-2.68849E-04 1.15111E-04 3.60375E-35 2.28172E-05 2.23300E-18 3.87911E-19
 -1      1088-2.67307E-04 1.13954E-04 1.29677E-35 3.26932E-05-2.83045E-18-1.38672E-21
 -1      1089-2.64245E-04 1.11643E-04 2.91330E-34 4.45305E-05-2.73591E-18-1.33524E-19
 -1      1090-2.58948E-04 1.07660E-04 2.79324E-35 5.82909E-05 3.17347E-18-4.76946E-19
 -1      1091-2.50614E-04 1.01455E-04 2.36205E-34 7.37209E-05-8.82769E-21 1.12377E-20
 -1      1092-2.38431E-04 9.25282E-05 6.25221E-35 9.03039E-05 1.72538E-18-3.13307E-20
 -1      1093-2.21695E-04 8.05317E-05 1.03903E-34 1.07251E-04-2.35198E-18-1.65094E-19
 -1      1094-1.99944E-04 6.53856E-05 1.33996E-34 1.23555E-04 3.28922E-18 1.45403E-19
 -1      1095-1.73058E-04 4.73494E-05-2.31739E-35 1.38104E-04 1.96312E-18-4.00103E-20
 -1      1096-1.41295E-04 2.70239E-05-1.25235E-35 1.49854E-04 4.80996E-19 9.76078E-20
 -1      1097-1.05227E-04 5.26092E-06 3.07686E-35 1.57979E-04-3.39408E-18-4.32616E-21
 -1      1098-6.55830E-05-1.70060E-05 2.91679E-35 1.61985E-04-2.35363E-18-1.83010E-20
 -1      1099-2.30301E-05-3.89651E-05-1.17884E-36 1.61706E-04 1.29122E-18-5.73528E-21
 -1      1100 2.20442E-05-6.01142E-05 1.43956E-34 1.57205E-04-3.05472E-18 1.53620E-19
 -1      1101 6.97198E-05-8.03978E-05 3.61596E-35 1.48572E-04-1.07458E-18-1.39801E-19
 -1      1102 1.20688E-04-1.00293E-04 8.12336E-35 1.35656E-04-8.61978E-19 1.10716E-19
 -1      1103 1.76371E-04-1.20870E-04 5.24626E-35 1.17698E-04 5.56459E-18-9.61996E-20
 -1      1104 2.39049E-04-1.43863E-04 2.76370E-34 9.27802E-05 2.55299E-19-4.51116E-19
 -1      1105 3.11989E-04-1.71772E-04-2.74131E-35 5.67883E-05-2.06034E-18 2.77936E-19
 -1      1106-2.80527E-04 1.20268E-04 2.48991E-35 3.21532E-06 4.81067E-18 1.15542E-19
 -1      1107-2.83041E-04 1.21387E-04 4.35301E-35 8.45761E-06 9.64848E-19-5.12752E-21
 -1      1108-2.85383E-04 1.22290E-04 1.39330E-34 1.56781E-05 1.39163E-18-4.22833E-21
 -1      1109-2.87053E-04 1.22586E-04-3.60183E-37 2.51445E-05-6.13261E-19 4.80760E-19
 -1      1110-2.87364E-04 1.21740E-04-2.82076E-35 3.70772E-05-3.20895E-19 1.11872E-19
 -1      1111-2.85439E-04 1.19094E-04 5.05425E-35 5.15098E-05 7.78137E-18 1.55041E-19
 -1      1112-2.80267E-04 1.13927E-04-7.48106E-35 6.82051E-05-6.18680E-19 1.15227E-19
 -1      1113-2.70806E-04 1.05564E-04 5.75028E-35 8.65818E-05-2.03454E-18 2.20629E-19
 -1      1114-2.56148E-04 9.35173E-05 1.02636E-34 1.05695E-04 2.77499E-18-3.85655E-20
 -1      1115-2.35700E-04 7.76510E-05 6.41228E-35 1.24302E-04 2.23785E-18 2.86367E-20
 -1      1116-2.09339E-04 5.82859E-05 3.56062E-35 1.41028E-04 2.24748E-19-1.10542E-19
 -1      1117-1.77465E-04 3.62095E-05 2.19051E-34 1.54591E-04-1.12161E-18-2.90098E-20
 -1      1118-1.40920E-04 1.25555E-05 9.51520E-35 1.64029E-04 5.82535E-19 4.54599E-20
 -1      1119-1.00785E-04-1.14181E-05 1.04676E-34 1.68853E-04 2.26938E-18-9.72205E-21
 -1      1120-5.81013E-05-3.45902E-05 1.50669E-34 1.69051E-04-2.70950E-19 3.10707E-20
 -1      1121-1.36085E-05-5.61979E-05 1.02041E-34 1.64977E-04-2.54876E-19-1.40461E-20
 -1      1122 3.24516E-05-7.59766E-05 2.88916E-35 1.57136E-04-3.11178E-18 3.48670E-20
 -1      1123 8.04602E-05-9.42160E-05 7.16187E-35 1.45929E-04 4.21348E-18 4.00095E-20
 -1      1124 1.31504E-04-1.11775E-04 1.36753E-34 1.31388E-04 7.36959E-19 2.10577E-19
 -1      1125 1.87477E-04-1.30115E-04 1.01781E-34 1.12848E-04-4.87547E-18-8.99879E-20
 -1      1126 2.51261E-04-1.51404E-04-5.02278E-36 8.84434E-05-1.05600E-18-2.93534E-19
 -1      1127 3.27053E-04-1.78766E-04 8.44294E-36 5.41002E-05 4.75014E-19 6.67729E-19
 -1      1128-2.90951E-04 1.24756E-04 4.68563E-35 3.02279E-06-2.57769E-19-4.53768E-19
 -1      1129-2.96866E-04 1.27303E-04-1.82031E-35 8.89426E-06-4.37425E-18-7.35161E-20
 -1      1130-3.02545E-04 1.29464E-04 2.13831E-34 1.75497E-05 1.78438E-18 3.09285E-19
 -1      1131-3.07169E-04 1.30587E-04 1.42437E-34 2.93138E-05 2.87423E-18-2.92500E-19
 -1      1132-3.09650E-04 1.29826E-04 1.67965E-34 4.43556E-05 3.07860E-18 5.77625E-20
 -1      1133-3.08678E-04 1.26214E-04 8.94166E-35 6.24872E-05 3.36693E-18-2.04354E-19
 -1      1134-3.02872E-04 1.18807E-04 5.00422E-36 8.30592E-05-2.92526E-18 5.01463E-20
 -1      1135-2.91000E-04 1.06892E-04 6.41505E-36 1.04916E-04 1.71185E-18 8.72869E-20
 -1      1136-2.72248E-04 9.02152E-05 2.94707E-35 1.26479E-04 9.87886E-19-1.60748E-19
 -1      1137-2.46447E-04 6.91540E-05 6.43948E-35 1.45972E-04-7.86434E-20-1.88789E-19
 -1      1138-2.14162E-04 4.47312E-05 7.49490E-35 1.61751E-04-2.09370E-18-6.83970E-20
 -1      1139-1.76584E-04 1.84517E-05 2.59025E-35 1.72622E-04-7.40417E-19-6.21946E-20
 -1      1140-1.35243E-04-8.00723E-06 6.59334E-35 1.78055E-04 9.40188E-19-1.31135E-20
 -1      1141-9.16388E-05-3.31450E-05 1.48061E-34 1.78189E-04 4.07623E-18-2.17880E-20
 -1      1142-4.69140E-05-5.59137E-05 1.15498E-34 1.73675E-04 2.61338E-18 4.06234E-21
 -1      1143-1.63382E-06-7.58616E-05 1.62791E-35 1.65404E-04 6.40291E-19-2.20857E-20
 -1      1144 4.43062E-05-9.31497E-05 8.59909E-36 1.54232E-04-2.47146E-18-1.24099E-19
 -1      1145 9.17005E-05-1.08501E-04 1.12284E-34 1.40730E-04-2.44839E-18-7.81677E-20
 -1      1146 1.42055E-04-1.23157E-04 1.01858E-34 1.24972E-04-2.05092E-18-5.00578E-20
 -1      1147 1.97690E-04-1.38907E-04 1.72496E-34 1.06288E-04-3.48264E-18 9.48688E-20
 -1      1148 2.62003E-04-1.58257E-04 1.27830E-36 8.28316E-05-3.34653E-18-1.95164E-19
 -1      1149 3.40001E-04-1.84843E-04 1.51776E-34 5.06203E-05-1.45362E-18-7.18404E-20
 -1      1150-3.01307E-04 1.29225E-04 1.40779E-34 2.93624E-06-2.57875E-19 2.91040E-19
 -1      1151-3.11937E-04 1.33727E-04 1.16952E-34 9.97282E-06-4.25555E-18 2.20768E-19
 -1      1152-3.22081E-04 1.37473E-04 7.69329E-35 2.10072E-05-3.41586E-18 2.61860E-19
 -1      1153-3.30376E-04 1.39381E-04 4.41135E-35 3.63716E-05 3.35797E-18-4.42108E-19
 -1      1154-3.35101E-04 1.38128E-04 1.56127E-34 5.60190E-05 4.44282E-18 5.50695E-20
 -1      1155-3.34360E-04 1.32357E-04 4.88906E-35 7.92519E-05-1.59119E-18-2.54950E-19
 -1      1156-3.26405E-04 1.20977E-04 7.18692E-35 1.04644E-04-5.06586E-18 1.94292E-19
 -1      1157-3.10040E-04 1.03513E-04 9.11497E-35 1.30133E-04-4.58208E-18-1.01752E-19
 -1      1158-2.84974E-04 8.03745E-05 4.84201E-35 1.53341E-04 3.69172E-18-3.79122E-20
 -1      1159-2.51969E-04 5.28946E-05-6.77159E-36 1.72060E-04 5.59780E-19 1.51337E-20
 -1      1160-2.12686E-04 2.30924E-05 7.74021E-35 1.84729E-04 6.81826E-18 2.17353E-21
 -1      1161-1.69267E-04-6.77886E-06 9.02705E-35 1.90726E-04 2.99093E-18-9.85686E-21
 -1      1162-1.23816E-04-3.47229E-05 2.60709E-35 1.90372E-04-4.98362E-18 7.85141E-21
 -1      1163-7.79553E-05-5.93599E-05 7.20397E-35 1.84678E-04 2.41527E-18 1.25678E-20
 -1      1164-3.25854E-05-8.00737E-05 1.10532E-34 1.74975E-04-1.72544E-18-2.67155E-20
 -1      1165 1.21740E-05-9.69727E-05 8.11149E-35 1.62562E-04 7.86858E-19-1.39861E-20
 -1      1166 5.69219E-05-1.10755E-04 7.01708E-35 1.48446E-04 1.41526E-18-2.11152E-20
 -1      1167 1.02900E-04-1.22575E-04 7.30183E-35 1.33180E-04 8.13221E-19-6.03809E-20
 -1      1168 1.51989E-04-1.33981E-04 4.16590E-35 1.16744E-04-6.74864E-19-1.80214E-19
 -1      1169 2.06846E-04-1.46987E-04 1.78280E-34 9.83894E-05 1.20361E-18-3.28221E-20
 -1      1170 2.71269E-04-1.64327E-04 1.70961E-35 7.62722E-05-3.19422E-18 1.58717E-19
 -1      1171 3.50940E-04-1.90024E-04 2.43983E-35 4.65617E-05 4.34846E-18 4.16777E-20
 -1      1172-3.12340E-04 1.34001E-04-1.96372E-35 3.03315E-06-1.73998E-18 9.39150E-20
 -1      1173-3.29489E-04 1.41157E-04 1.26164E-34 1.21162E-05-7.28097E-19-8.37736E-20
 -1      1174-3.45503E-04 1.46804E-04-1.58763E-35 2.70370E-05 2.34063E-19-1.83630E-19
 -1      1175-3.58093E-04 1.49133E-04 1.23692E-35 4.79725E-05 2.89062E-18-5.65388E-19
 -1      1176-3.64587E-04 1.46140E-04 2.35966E-35 7.42849E-05 4.95196E-19-2.79469E-20
 -1      1177-3.62393E-04 1.36092E-04 4.08225E-35 1.04223E-04 4.86032E-18-2.92371E-19
 -1      1178-3.49639E-04 1.18083E-04 1.49310E-34 1.35029E-04 3.55301E-19 2.10921E-19
 -1      1179-3.25753E-04 9.24892E-05-2.09267E-36 1.63400E-04-6.27029E-19 1.20661E-19
 -1      1180-2.91728E-04 6.10613E-05-2.52231E-36 1.86234E-04 1.50648E-18 1.04115E-19
 -1      1181-2.49896E-04 2.65671E-05-2.74289E-35 2.01375E-04-4.35525E-18 9.64199E-20
 -1      1182-2.03287E-04-7.90365E-06 4.77791E-35 2.08048E-04-2.79421E-18-6.33500E-22
 -1      1183-1.54843E-04-3.96660E-05 2.39940E-35 2.06823E-04 7.87850E-19 2.54161E-20
 -1      1184-1.06809E-04-6.69277E-05 1.57950E-35 1.99210E-04 1.37021E-19-2.58841E-21
 -1      1185-6.04466E-05-8.89322E-05 1.72809E-35 1.87111E-04 4.05059E-18 7.10395E-21
 -1      1186-1.60413E-05-1.05830E-04-1.53668E-35 1.72339E-04-9.85475E-19 1.68636E-20
 -1      1187 2.69249E-05-1.18425E-04 4.47377E-35 1.56324E-04 1.46857E-18 5.35774E-20
 -1      1188 6.95836E-05-1.27937E-04 1.53584E-35 1.39971E-04-3.93243E-18 1.25270E-20
 -1      1189 1.13566E-04-1.35848E-04-7.81156E-36 1.23638E-04-1.47942E-18-4.82076E-20
 -1      1190 1.61027E-04-1.43891E-04-2.70356E-35 1.07118E-04 5.37394E-19-5.83023E-20
 -1      1191 2.14847E-04-1.54182E-04 4.31157E-35 8.95429E-05 4.68295E-18 1.59599E-19
 -1      1192 2.79108E-04-1.69573E-04 4.03338E-35 6.90870E-05-1.87881E-18 2.79277E-20
 -1      1193 3.60028E-04-1.94364E-04 1.67290E-34 4.21295E-05 5.51468E-18-8.51836E-20
 -1      1194-3.25086E-04 1.39537E-04 2.23003E-35 3.44972E-06 3.20362E-18 1.06900E-19
 -1      1195-3.51276E-04 1.50280E-04 5.20145E-35 1.60660E-05-7.43120E-19 1.62018E-19
 -1      1196-3.74842E-04 1.57986E-04 1.42196E-34 3.73149E-05 5.79704E-18-2.71066E-19
 -1      1197-3.91943E-04 1.59666E-04 7.79014E-35 6.67759E-05 4.76481E-18-1.09716E-19
 -1      1198-3.98582E-04 1.52459E-04 5.56539E-35 1.02417E-04-1.31775E-18 1.83602E-19
 -1      1199-3.91642E-04 1.34604E-04 1.35369E-35 1.40489E-04-1.59862E-18 5.23683E-20
 -1      1200-3.69923E-04 1.06255E-04 1.19479E-34 1.76224E-04 1.33459E-18 1.57527E-19
 -1      1201-3.34657E-04 6.97269E-05-4.41292E-36 2.05042E-04 6.43462E-19 1.05726E-20
 -1      1202-2.89178E-04 2.89274E-05 1.18647E-34 2.23789E-04 1.25876E-18 1.76680E-20
 -1      1203-2.37874E-04-1.17689E-05 1.60434E-35 2.31424E-04-2.17384E-18-3.69691E-20
 -1      1204-1.84933E-04-4.86639E-05 1.09020E-36 2.28909E-04-3.68252E-19-1.44344E-20
 -1      1205-1.33457E-04-7.94233E-05 4.76405E-35 2.18506E-04-2.24103E-18 2.06198E-20
 -1      1206-8.51197E-05-1.03188E-04-1.47485E-35 2.02922E-04-1.19693E-18 9.81294E-21
 -1      1207-4.03003E-05-1.20284E-04 1.20367E-34 1.84638E-04 3.05812E-18 6.24218E-21
 -1      1208 1.57726E-06-1.31788E-04 8.32379E-35 1.65553E-04-6.19111E-19-2.06512E-20
 -1      1209 4.17023E-05-1.39153E-04 1.19131E-34 1.46879E-04 9.85796E-19 3.10938E-20
 -1      1210 8.16507E-05-1.43967E-04-1.30262E-35 1.29200E-04-8.25499E-19-1.57088E-20
 -1      1211 1.23313E-04-1.47878E-04 4.07296E-35 1.12562E-04-2.01792E-18-3.23243E-20
 -1      1212 1.68988E-04-1.52654E-04 5.26517E-35 9.65277E-05 3.87144E-19-2.08314E-19
 -1      1213 2.21669E-04-1.60404E-04 8.27298E-35 8.01231E-05-6.57616E-19 1.56027E-19
 -1      1214 2.85615E-04-1.74002E-04-2.34800E-35 6.15667E-05-1.68540E-18 2.03676E-19
 -1      1215 3.67455E-04-1.97934E-04 1.32561E-34 3.75053E-05-1.82500E-19-1.25036E-19
 -1      1216-3.41094E-04 1.46523E-04-1.28690E-36 4.45116E-06-1.62315E-18-6.31022E-20
 -1      1217-3.79888E-04 1.62053E-04 9.67875E-36 2.31868E-05-1.46694E-18 2.06702E-20
 -1      1218-4.12814E-04 1.71461E-04 2.28033E-35 5.47752E-05-7.18814E-19 1.25349E-20
 -1      1219-4.33495E-04 1.69920E-04 2.09543E-35 9.70784E-05 7.75347E-19 1.44811E-19
 -1      1220-4.36443E-04 1.53888E-04 5.80274E-35 1.45048E-04 9.57468E-19 6.00752E-20
 -1      1221-4.19012E-04 1.22795E-04-1.40494E-36 1.91527E-04-2.13788E-18-1.19199E-19
 -1      1222-3.82554E-04 7.96635E-05 4.04752E-35 2.29355E-04 1.24866E-18-4.27050E-20
 -1      1223-3.31954E-04 3.02227E-05 2.41346E-35 2.53595E-04 2.37029E-18-3.54252E-20
 -1      1224-2.73804E-04-1.90622E-05 4.77111E-35 2.62729E-04-1.21466E-19 2.31799E-21
 -1      1225-2.14271E-04-6.29112E-05 4.25321E-35 2.58370E-04-2.44231E-19 1.18383E-21
 -1      1226-1.57700E-04-9.82462E-05 1.08183E-35 2.43991E-04 2.85191E-18-2.00395E-21
 -1      1227-1.06256E-04-1.24188E-04 4.84802E-35 2.23516E-04 2.08520E-18 6.07786E-21
 -1      1228-6.02936E-05-1.41454E-04 4.27561E-35 2.00348E-04 6.52224E-19 6.87560E-21
 -1      1229-1.89896E-05-1.51631E-04 2.07302E-35 1.76951E-04-6.31485E-19-3.84600E-20
 -1      1230 1.91020E-05-1.56612E-04 2.77355E-35 1.54829E-04 2.40534E-18 2.25805E-20
 -1      1231 5.56957E-05-1.58265E-04 8.38395E-35 1.34690E-04 1.97356E-18-5.80799E-21
 -1      1232 9.26280E-05-1.58316E-04 5.36527E-35 1.16662E-04 4.68407E-18-1.94333E-20
 -1      1233 1.31886E-04-1.58389E-04 7.51821E-35 1.00444E-04-1.07426E-19 8.48711E-20
 -1      1234 1.75788E-04-1.60158E-04 1.43340E-34 8.53919E-05 2.15612E-18-6.87367E-20
 -1      1235 2.27346E-04-1.65635E-04 1.01021E-34 7.04606E-05 6.55360E-19 7.81964E-20
 -1      1236 2.90913E-04-1.77657E-04-1.68330E-35 5.39562E-05-3.19807E-18-1.58958E-19
 -1      1237 3.73425E-04-2.00820E-04 2.85027E-36 3.28393E-05 5.98654E-19-2.10939E-20
 -1      1238-3.62830E-04 1.56032E-04 1.95737E-35 6.55485E-06-1.76456E-18 3.50111E-20
 -1      1239-4.19302E-04 1.77798E-04 2.48016E-35 3.61146E-05-3.16237E-19 1.12639E-19
 -1      1240-4.62910E-04 1.87099E-04 7.24593E-35 8.46980E-05 1.81026E-18 1.81691E-19
 -1      1241-4.83486E-04 1.76688E-04 3.94835E-35 1.45742E-04 5.63723E-19 1.16718E-19
 -1      1242-4.74957E-04 1.43818E-04 4.03327E-35 2.08207E-04-3.48093E-19 1.49172E-19
 -1      1243-4.38157E-04 9.21907E-05 5.88646E-35 2.60131E-04-1.37602E-18 7.28744E-20
 -1      1244-3.80429E-04 3.05714E-05 9.27067E-35 2.93114E-04 4.29838E-19 1.06026E-19
 -1      1245-3.12194E-04-3.09312E-05 4.17334E-35 3.04687E-04-2.32672E-19 1.31715E-20
 -1      1246-2.42970E-04-8.44020E-05 1.12213E-35 2.97633E-04-2.86206E-18-2.02489E-20
 -1      1247-1.79029E-04-1.25706E-04 6.98393E-35 2.77494E-04-9.46930E-19-2.13196E-21
 -1      1248-1.23106E-04-1.54145E-04 2.82676E-35 2.50127E-04-4.02431E-18-1.26124E-20
 -1      1249-7.53094E-05-1.71216E-04 2.92847E-35 2.20265E-04-1.29200E-18 4.37602E-21
 -1      1250-3.42697E-05-1.79388E-04 9.02577E-35 1.91075E-04-2.29433E-18 1.19085E-20
 -1      1251 1.98236E-06-1.81272E-04-1.84573E-35 1.64325E-04 1.91743E-18-1.93812E-20
 -1      1252 3.55131E-05-1.79204E-04 2.40000E-35 1.40745E-04 8.82168E-19 2.68162E-20
 -1      1253 6.82911E-05-1.75132E-04 1.20771E-34 1.20397E-04 1.77267E-18-4.51286E-20
 -1      1254 1.02196E-04-1.70672E-04 3.83223E-35 1.02934E-04 6.58277E-19 3.92608E-20
 -1      1255 1.39161E-04-1.67263E-04 1.51266E-34 8.77593E-05-6.64094E-19 3.51736E-20
 -1      1256 1.81426E-04-1.66392E-04 4.57834E-36 7.40772E-05-6.37002E-19-1.37307E-19
 -1      1257 2.31957E-04-1.69919E-04 1.36286E-34 6.08284E-05 2.14192E-18 8.94158E-20
 -1      1258 2.95142E-04-1.80606E-04 5.51300E-35 4.64497E-05-1.58760E-20-5.46454E-21
 -1      1259 3.78143E-04-2.03111E-04 3.60095E-35 2.82488E-05-1.78423E-18-9.94757E-21
 -1      1260-3.94598E-04 1.70063E-04 4.02725E-35 1.09831E-05-1.37339E-19 5.38285E-20
 -1      1261-4.75701E-04 1.99184E-04 5.72802E-35 6.02091E-05 1.58531E-18 1.60102E-19
 -1      1262-5.28991E-04 2.02778E-04 6.44663E-35 1.36718E-04 2.63920E-18-8.01653E-20
 -1      1263-5.39734E-04 1.71876E-04 1.73626E-35 2.23197E-04 1.54806E-18-6.26649E-21
 -1      1264-5.05759E-04 1.09718E-04-2.32820E-35 2.98204E-04 1.18406E-18 7.02602E-20
 -1      1265-4.38227E-04 3.03249E-05 3.40094E-35 3.45867E-04 1.26180E-18-5.49345E-20
 -1      1266-3.54733E-04-4.93134E-05-1.09294E-35 3.61574E-04-1.70152E-18-3.05918E-20
 -1      1267-2.70969E-04-1.16520E-04 3.09560E-35 3.50347E-04 1.44917E-18-1.47864E-20
 -1      1268-1.96365E-04-1.65628E-04 2.75581E-35 3.21534E-04 1.53647E-18-6.84065E-21
 -1      1269-1.34257E-04-1.96625E-04 1.41363E-35 2.84227E-04 3.36999E-18 1.15203E-21
 -1      1270-8.40282E-05-2.12545E-04 9.00287E-35 2.45118E-04 4.90984E-19 3.25375E-21
 -1      1271-4.32432E-05-2.17354E-04 1.00001E-35 2.08231E-04 3.17060E-18 4.22053E-21
 -1      1272-9.01855E-06-2.14776E-04 3.89189E-35 1.75505E-04-1.29560E-19 2.64407E-20
 -1      1273 2.13225E-05-2.07834E-04 8.25968E-36 1.47527E-04 7.19748E-19-3.17417E-20
 -1      1274 5.00562E-05-1.98813E-04 8.20234E-35 1.24116E-04-2.03298E-18 2.32711E-20
 -1      1275 7.91063E-05-1.89407E-04-2.33785E-35 1.04710E-04-2.70195E-19 2.86814E-20
 -1      1276 1.10206E-04-1.80923E-04-3.24231E-35 8.85788E-05 2.46388E-19 5.56586E-20
 -1      1277 1.45125E-04-1.74509E-04 1.78767E-35 7.49251E-05-4.22653E-19-1.08557E-20
 -1      1278 1.85966E-04-1.71417E-04-5.10238E-35 6.28838E-05 1.83661E-18 4.69931E-20
 -1      1279 2.35611E-04-1.73334E-04 4.84790E-35 5.14380E-05-2.67443E-20-1.05033E-19
 -1      1280 2.98448E-04-1.82930E-04 6.87575E-35 3.91914E-05-3.83525E-18 2.39916E-20
 -1      1281 3.81800E-04-2.04893E-04 5.21193E-36 2.38194E-05 1.27769E-18 5.24853E-20
 -1      1282-4.44088E-04 1.91658E-04 9.69261E-38 2.03468E-05-4.71690E-19 2.35036E-19
 -1      1283-5.58978E-04 2.27348E-04 2.59037E-35 1.07120E-04-2.25969E-18 4.38837E-20
 -1      1284-6.13286E-04 2.10157E-04 3.24860E-35 2.28580E-04 5.52771E-19-1.42035E-19
 -1      1285-5.92200E-04 1.36889E-04 9.43760E-36 3.43345E-04 6.99283E-19 3.20766E-20
 -1      1286-5.11755E-04 3.04892E-05 4.26500E-35 4.17492E-04-5.47614E-19 4.26423E-22
 -1      1287-4.04137E-04-7.76656E-05 1.01129E-35 4.40588E-04 1.60549E-18-3.97703E-20
 -1      1288-2.97725E-04-1.65302E-04 1.73355E-35 4.22355E-04-3.12252E-18-2.08687E-20
 -1      1289-2.07504E-04-2.24561E-04 2.17172E-35 3.79744E-04-1.42381E-18-5.43382E-21
 -1      1290-1.37123E-04-2.57464E-04 2.56015E-35 3.27578E-04 1.41588E-18-4.06710E-21
 -1      1291-8.41581E-05-2.70116E-04 6.82867E-35 2.75466E-04-2.20179E-18-9.19067E-23
 -1      1292-4.41538E-05-2.69044E-04 6.72587E-35 2.28344E-04 2.85728E-19-4.66901E-21
 -1      1293-1.27059E-05-2.59646E-04 3.67701E-35 1.88053E-04 1.47921E-20 1.20923E-20
 -1      1294 1.37975E-05-2.45870E-04 3.42700E-35 1.54712E-04 6.40453E-19 1.14675E-20
 -1      1295 3.81050E-05-2.30413E-04 6.73340E-38 1.27636E-04-9.24671E-21 4.98443E-21
 -1      1296 6.22859E-05-2.15057E-04 1.43810E-35 1.05843E-04-7.98920E-19-1.39894E-20
 -1      1297 8.79796E-05-2.00997E-04 9.68187E-35 8.83135E-05-2.08505E-18-7.10477E-21
 -1      1298 1.16650E-04-1.89115E-04 8.29307E-35 7.40883E-05 5.54587E-20-9.18009E-22
 -1      1299 1.49845E-04-1.80229E-04 9.45627E-35 6.22820E-05 1.30733E-18-2.45712E-20
 -1      1300 1.89511E-04-1.75344E-04 6.04024E-35 5.20413E-05 1.61620E-18 5.83955E-21
 -1      1301 2.38429E-04-1.75981E-04 1.04744E-34 4.24421E-05-2.98642E-18-2.81399E-20
 -1      1302 3.00972E-04-1.84715E-04 6.17819E-35 3.22814E-05-2.36680E-18-1.80827E-19
 -1      1303 3.84574E-04-2.06249E-04 1.10342E-34 1.96099E-05 4.21628E-18 2.78469E-20
 -1      1304-5.27489E-04 2.29267E-04 7.74395E-35 4.28238E-05 2.00267E-18 1.10960E-19
 -1      1305-6.82836E-04 2.59428E-04 1.37740E-35 2.03087E-04-1.18424E-18-1.81933E-19
 -1      1306-7.07885E-04 1.82926E-04-1.61280E-35 3.90454E-04-5.57348E-19-7.00377E-20
 -1      1307-6.13534E-04 3.39974E-05 1.17550E-35 5.17535E-04-4.40912E-18-3.18864E-20
 -1      1308-4.65056E-04-1.22791E-04 1.52150E-34 5.54967E-04 1.63845E-18 7.96572E-21
 -1      1309-3.21338E-04-2.42395E-04 3.57906E-36 5.23595E-04 1.53674E-18 3.42569E-21
 -1      1310-2.07811E-04-3.14360E-04 1.68053E-35 4.57444E-04-5.02683E-18-7.38814E-21
 -1      1311-1.26900E-04-3.46523E-04 1.24018E-35 3.82081E-04-1.79893E-18-5.81652E-21
 -1      1312-7.17727E-05-3.51359E-04 3.14381E-35 3.11300E-04-4.03316E-18-6.33565E-21
 -1      1313-3.41403E-05-3.39775E-04 4.27895E-35 2.50576E-04 7.35680E-19-3.32427E-22
 -1      1314-7.14903E-06-3.19582E-04 2.47038E-35 2.00906E-04 8.45715E-19-9.72636E-21
 -1      1315 1.41306E-05-2.95833E-04 8.99521E-36 1.61316E-04 4.09052E-19 1.55666E-20
 -1      1316 3.30405E-05-2.71585E-04 6.09681E-35 1.30181E-04-1.68414E-18 1.52172E-20
 -1      1317 5.18226E-05-2.48604E-04 1.40891E-34 1.05832E-04-9.51608E-19-1.17569E-21
 -1      1318 7.20439E-05-2.27883E-04 1.32897E-36 8.67886E-05-7.62597E-19-1.72774E-20
 -1      1319 9.49278E-05-2.10006E-04 2.94161E-35 7.18062E-05 3.97671E-18-2.63710E-20
 -1      1320 1.21621E-04-1.95406E-04 4.72847E-35 5.98598E-05-2.85517E-18-3.15210E-20
 -1      1321 1.53444E-04-1.84581E-04 2.94250E-35 5.00868E-05 1.41888E-18 3.95263E-20
 -1      1322 1.92185E-04-1.78310E-04 2.90914E-35 4.17121E-05 7.00010E-19-9.26060E-23
 -1      1323 2.40535E-04-1.77966E-04 7.76010E-35 3.39422E-05 2.45591E-18 3.62009E-20
 -1      1324 3.02844E-04-1.86046E-04-3.60904E-35 2.57830E-05-1.95860E-18 2.19109E-20
 -1      1325 3.86622E-04-2.07253E-04 4.17697E-35 1.56562E-05 2.07703E-20 2.58149E-20
 -1      1326-6.77482E-04 2.87465E-04-5.22869E-36 9.87980E-05-5.05809E-19 7.52905E-21
 -1      1327-8.62910E-04 2.64084E-04 1.23596E-35 4.15453E-04-6.52190E-19-4.03670E-20
 -1      1328-7.71937E-04 5.03861E-05 5.22414E-35 6.63957E-04 2.59589E-18 5.03277E-20
 -1      1329-5.45722E-04-2.00266E-04 7.14458E-36 7.31917E-04-2.29612E-18 8.01301E-21
 -1      1330-3.35642E-04-3.72910E-04 1.97002E-35 6.72091E-04-3.52013E-18-8.93732E-21
 -1      1331-1.86968E-04-4.58073E-04 8.26780E-35 5.62113E-04 3.25852E-19 3.70199E-21
 -1      1332-9.43748E-05-4.81187E-04-2.01195E-35 4.48814E-04-3.77191E-19 6.82383E-21
 -1      1333-4.01119E-05-4.68295E-04 7.51917E-36 3.50877E-04 1.80225E-18 9.57379E-21
 -1      1334-8.66342E-06-4.37563E-04 2.95739E-35 2.72365E-04 4.08466E-18-2.80454E-22
 -1      1335 1.05585E-05-3.99876E-04 1.47382E-35 2.11585E-04 3.83775E-19 1.30592E-20
 -1      1336 2.41072E-05-3.61214E-04-2.68811E-35 1.65256E-04-1.46851E-18 2.06878E-21
 -1      1337 3.58745E-05-3.24625E-04 6.92526E-35 1.30133E-04 1.46561E-18 7.28842E-21
 -1      1338 4.81551E-05-2.91516E-04 3.96551E-35 1.03500E-04-1.37067E-18 1.38440E-21
 -1      1339 6.23477E-05-2.62425E-04 5.07949E-35 8.32281E-05-1.69214E-18 1.42934E-20
 -1      1340 7.93984E-05-2.37481E-04 6.46801E-36 6.76933E-05 9.54329E-19 1.43328E-20
 -1      1341 1.00093E-04-2.16670E-04 2.20285E-35 5.56629E-05 2.07064E-18 5.71147E-21
 -1      1342 1.25276E-04-2.00019E-04-5.78169E-36 4.61894E-05-4.43647E-19-1.11929E-20
 -1      1343 1.56067E-04-1.87749E-04 7.03519E-35 3.85182E-05 4.98932E-18-1.54748E-20
 -1      1344 1.94119E-04-1.80457E-04 3.64901E-36 3.20009E-05-2.06970E-18 2.68669E-20
 -1      1345 2.42050E-04-1.79398E-04 7.37871E-36 2.59980E-05-2.45102E-18 1.47377E-20
 -1      1346 3.04182E-04-1.87001E-04 7.26134E-35 1.97301E-05 2.95365E-18-3.48487E-20
 -1      1347 3.88081E-04-2.07969E-04 1.87249E-35 1.19773E-05 2.14669E-18-4.84943E-21
 -1      1348-9.98301E-04 4.08304E-04-2.53667E-35 2.88049E-04 3.41784E-18 1.43231E-19
 -1      1349-1.06397E-03 1.20039E-04 7.78279E-35 8.85904E-04 4.12320E-18 9.17939E-21
 -1      1350-6.59732E-04-3.56980E-04 3.59678E-35 1.03758E-03-1.92185E-18-1.91398E-20
 -1      1351-3.19042E-04-6.19637E-04 1.60240E-35 9.02255E-04-1.08440E-18-1.50122E-21
 -1      1352-1.20170E-04-7.04420E-04-1.29064E-35 7.01681E-04 1.94059E-18 1.45534E-20
 -1      1353-2.12518E-05-6.93311E-04 6.87446E-36 5.24076E-04 3.68626E-18 1.87689E-20
 -1      1354 2.24296E-05-6.40511E-04-2.40379E-35 3.87376E-04-1.28723E-18-1.78913E-22
 -1      1355 3.92284E-05-5.74297E-04 6.02231E-35 2.87155E-04-1.18731E-18-7.33879E-22
 -1      1356 4.44969E-05-5.07819E-04 2.59291E-35 2.14759E-04 2.98489E-19-3.89160E-21
 -1      1357 4.61012E-05-4.46586E-04 2.19996E-35 1.62485E-04 3.05499E-19 1.18841E-22
 -1      1358 4.79534E-05-3.92468E-04-2.92985E-35 1.24516E-04 2.74334E-18 4.72022E-21
 -1      1359 5.19706E-05-3.45695E-04 6.17119E-36 9.67005E-05-1.71966E-18 4.61602E-21
 -1      1360 5.90974E-05-3.05826E-04 7.68045E-35 7.61267E-05-2.10163E-18 7.02356E-21
 -1      1361 6.98414E-05-2.72208E-04 1.39375E-34 6.07523E-05-5.82586E-18-5.47454E-21
 -1      1362 8.45688E-05-2.44201E-04 5.24321E-35 4.91327E-05 2.25752E-18-5.67070E-21
 -1      1363 1.03689E-04-2.21298E-04 1.50791E-35 4.02299E-05-5.65921E-19 3.87184E-21
 -1      1364 1.27802E-04-2.03202E-04 4.28204E-35 3.32781E-05-4.92601E-19 6.41102E-21
 -1      1365 1.57868E-04-1.89925E-04 5.76384E-35 2.76873E-05-3.92453E-19-5.56978E-21
 -1      1366 1.95441E-04-1.81926E-04 4.63125E-35 2.29650E-05-1.47772E-18 1.48374E-20
 -1      1367 2.43079E-04-1.80373E-04 4.35781E-35 1.86367E-05-3.58570E-18-1.22931E-20
 -1      1368 3.05088E-04-1.87649E-04 2.42622E-35 1.41346E-05-1.10500E-18-8.80454E-21
 -1      1369 3.89067E-04-2.08454E-04 1.10901E-34 8.57875E-06-2.66080E-18 1.44671E-20
 -1      1370-1.73884E-03 2.91041E-04-1.02039E-35 1.33849E-03-2.36463E-20-4.70177E-20
 -1      1371-7.85904E-04-8.02655E-04-2.64943E-35 1.68899E-03-6.24773E-19 7.57029E-21
 -1      1372-1.84231E-04-1.17123E-03 3.71766E-35 1.27351E-03-8.81086E-20-8.97331E-21
 -1      1373 5.62197E-05-1.16302E-03 5.79042E-35 8.66402E-04-1.65041E-18 1.97312E-21
 -1      1374 1.28671E-04-1.04137E-03-2.34262E-35 5.83881E-04-3.65390E-18-2.59913E-21
 -1      1375 1.34643E-04-8.98645E-04-1.04572E-35 3.99339E-04-4.06733E-19-1.11077E-20
 -1      1376 1.19118E-04-7.66405E-04 2.73727E-35 2.79007E-04-4.49178E-19-1.98399E-20
 -1      1377 9.95933E-05-6.52583E-04 5.27778E-35 1.99277E-04-2.32279E-19-1.18781E-20
 -1      1378 8.26999E-05-5.57329E-04 3.33548E-35 1.45332E-04-4.60303E-20-2.42584E-21
 -1      1379 7.06503E-05-4.78429E-04 2.61451E-35 1.08054E-04-1.85524E-18 7.35536E-21
 -1      1380 6.39677E-05-4.13272E-04 3.12315E-36 8.17871E-05 9.83438E-19 8.91517E-22
 -1      1381 6.25635E-05-3.59478E-04 6.47172E-35 6.29539E-05-1.80434E-18-7.00653E-21
 -1      1382 6.61923E-05-3.15068E-04 5.58124E-35 4.92386E-05-1.07377E-18-1.60900E-21
 -1      1383 7.46470E-05-2.78466E-04 2.78087E-35 3.91060E-05 1.55142E-18-2.90789E-22
 -1      1384 8.78571E-05-2.48469E-04 5.77146E-35 3.15138E-05-4.74514E-19 2.46408E-21
 -1      1385 1.05961E-04-2.24221E-04 9.37164E-35 2.57350E-05-8.24817E-19-4.78919E-21
 -1      1386 1.29390E-04-2.05204E-04-6.88673E-36 2.12461E-05 3.85596E-19-3.52716E-21
 -1      1387 1.58996E-04-1.91290E-04 1.43141E-35 1.76514E-05-3.05236E-18 1.27595E-20
 -1      1388 1.96266E-04-1.82845E-04 7.98404E-35 1.46259E-05-4.72858E-19 1.61535E-21
 -1      1389 2.43720E-04-1.80982E-04-6.03883E-36 1.18612E-05-2.32704E-18 4.91607E-22
 -1      1390 3.05651E-04-1.88053E-04 6.34227E-35 8.99230E-06-1.99782E-18-7.28230E-21
 -1      1391 3.89678E-04-2.08755E-04 9.18450E-36 5.45699E-06 3.42047E-18-3.49115E-20
 -1      1392-4.43721E-04-2.82066E-03 1.98634E-35 3.10731E-03-1.41534E-18 4.57651E-21
 -1      1393 4.02002E-04-2.58813E-03 9.51520E-36 1.66869E-03-8.38077E-19 1.40803E-20
 -1      1394 4.86365E-04-2.05874E-03 8.84966E-35 9.04852E-04-1.84984E-18-9.17887E-21
 -1      1395 4.13291E-04-1.61587E-03 9.49188E-36 5.25863E-04-2.63039E-18 1.74134E-20
 -1      1396 3.18469E-04-1.28065E-03 1.54661E-34 3.24354E-04 2.14468E-18 1.61970E-20
 -1      1397 2.39305E-04-1.03100E-03 2.80424E-35 2.10463E-04 3.33366E-18-5.51195E-22
 -1      1398 1.78968E-04-8.42557E-04 4.96365E-35 1.42343E-04 1.86121E-18 6.83858E-21
 -1      1399 1.35070E-04-6.97980E-04-1.19444E-35 9.95716E-05-8.44036E-19-8.69418E-21
 -1      1400 1.04381E-04-5.85218E-04 5.25674E-36 7.16214E-05-2.89238E-18 1.57739E-21
 -1      1401 8.42547E-05-4.96007E-04 2.37879E-35 5.27504E-05-9.69826E-19 3.95387E-22
 -1      1402 7.26947E-05-4.24591E-04 6.96560E-35 3.96645E-05 4.08949E-19-1.28215E-21
 -1      1403 6.82673E-05-3.66900E-04 7.93225E-35 3.03870E-05-3.81191E-18-1.24194E-21
 -1      1404 6.99795E-05-3.20006E-04 6.12058E-35 2.36853E-05 1.87779E-18 1.38301E-22
 -1      1405 7.71956E-05-2.81790E-04 4.71502E-35 1.87638E-05-3.01319E-18-1.76240E-21
 -1      1406 8.95925E-05-2.50727E-04 6.46971E-36 1.50926E-05-8.80002E-19 1.88470E-21
 -1      1407 1.07156E-04-2.25762E-04 5.94106E-35 1.23079E-05 2.70965E-18 1.35212E-21
 -1      1408 1.30223E-04-2.06258E-04 7.26626E-35 1.01506E-05 2.70593E-18-1.51634E-21
 -1      1409 1.59586E-04-1.92006E-04 5.08899E-35 8.42686E-06-2.22332E-18-1.02865E-21
 -1      1410 1.96697E-04-1.83327E-04 4.78028E-35 6.97876E-06-2.85491E-18 8.33670E-21
 -1      1411 2.44054E-04-1.81301E-04 2.33365E-35 5.65757E-06-2.72733E-18-3.97962E-22
 -1      1412 3.05943E-04-1.88265E-04 4.68141E-35 4.28826E-06 3.37248E-18-3.63205E-21
 -1      1413 3.89995E-04-2.08913E-04-3.29124E-35 2.60208E-06 3.79824E-18-5.21476E-21
 -1      1414-4.01508E-03-4.46456E-03 4.53122E-35-4.64445E-05-3.12130E-18 2.07813E-21
 -1      1415-1.43612E-03-4.73331E-03 2.28362E-35-8.75273E-04 1.27746E-19 3.87097E-20
 -1      1416-7.21416E-05-5.67020E-03 8.81733E-35-7.19754E-04 1.40893E-18-3.46244E-21
 -1      1417-1.67938E-03-5.19890E-03 4.42998E-35-1.69467E-05-4.30543E-18-5.12399E-21
 -1      1418 7.06166E-04-4.93071E-03 1.09936E-35-1.58485E-03-1.67662E-18 1.35219E-20
 -1      1419 1.24153E-03-5.15076E-03 2.34937E-35-7.91812E-04 1.30233E-19-3.24749E-21
 -1      1420 9.22583E-04-5.55323E-03 5.91418E-35-2.98893E-05-1.01331E-18 2.73784E-21
 -1      1421 1.27574E-03-4.32262E-03 7.69047E-37-1.35095E-03-1.00252E-19 2.01795E-20
 -1      1422 1.47012E-03-4.24576E-03 2.81370E-35-5.90466E-04 1.21431E-18 6.42710E-21
 -1      1423 1.58899E-03-4.81754E-03 3.61263E-35-7.25482E-06-7.87391E-19 8.44056E-22
 -1      1424 1.33131E-03-3.61512E-03 6.44510E-36-9.45232E-04 5.13721E-19 3.26625E-20
 -1      1425 1.36646E-03-3.43253E-03 2.82198E-36-3.94036E-04-1.46122E-18 2.20083E-20
 -1      1426 1.53619E-03-3.91048E-03 4.88667E-36-3.19271E-07 1.06696E-18-5.35145E-21
 -1      1427 1.22310E-03-2.99060E-03 1.34037E-35-6.27774E-04-1.78151E-18-2.69814E-20
 -1      1428 1.19561E-03-2.79171E-03 1.25513E-35-2.58942E-04-1.11373E-18-1.18028E-20
 -1      1429 1.33929E-03-3.15267E-03 1.78094E-35 3.77920E-07-1.85888E-18 7.67688E-21
 -1      1430 1.07832E-03-2.48093E-03 2.13575E-35-4.16774E-04-4.99173E-19 2.18693E-20
 -1      1431 1.03204E-03-2.30068E-03 2.64275E-35-1.72129E-04 7.06849E-19 5.29932E-21
 -1      1432 1.14180E-03-2.56852E-03 3.04802E-36 7.91225E-07 8.74529E-19 6.00670E-21
 -1      1433 9.40632E-04-2.07581E-03 2.76326E-35-2.80442E-04 2.82477E-19 1.37928E-20
 -1      1434 8.92604E-04-1.92244E-03 3.84385E-35-1.16487E-04 5.51369E-19-3.52531E-21
 -1      1435 9.75731E-04-2.12404E-03 4.38696E-37 6.43609E-07-2.43094E-19-3.99852E-21
 -1      1436 8.21546E-04-1.75469E-03 1.26852E-35-1.91896E-04 1.06445E-19-3.56636E-20
 -1      1437 7.77627E-04-1.62710E-03 8.76096E-36-8.02170E-05 3.61082E-19-1.30898E-21
 -1      1438 8.41343E-04-1.78189E-03 5.99587E-36 4.95185E-07-3.43308E-19-1.97014E-21
 -1      1439 7.21791E-04-1.49846E-03 2.19975E-36-1.33338E-04 9.38300E-19-9.80805E-21
 -1      1440 6.83470E-04-1.39289E-03 1.08194E-35-5.60577E-05-2.16074E-19-6.51128E-21
 -1      1441 7.33198E-04-1.51415E-03 1.10550E-35 3.58913E-07-6.02733E-19 2.25669E-21
 -1      1442 6.38979E-04-1.29191E-03 1.51990E-35-9.38218E-05 2.59950E-19-4.45204E-21
 -1      1443 6.06166E-04-1.20444E-03 1.15203E-35-3.96218E-05 2.23466E-20-2.07714E-21
 -1      1444 6.45671E-04-1.30114E-03 1.05420E-35 2.59657E-07 9.65714E-20 3.88945E-21
 -1      1445 5.70226E-04-1.12364E-03 4.64597E-36-6.66344E-05-6.31176E-19 2.86961E-20
 -1      1446 5.42325E-04-1.05086E-03 7.09604E-36-2.82259E-05-4.53381E-19-7.66864E-22
 -1      1447 5.74206E-04-1.12914E-03 1.35846E-35 1.88383E-07-6.33889E-19-3.96504E-22
 -1      1448 5.12938E-04-9.85184E-04 2.45657E-36-4.76055E-05-7.48519E-19 7.74416E-21
 -1      1449 4.89258E-04-9.24327E-04 1.15621E-35-2.01944E-05 3.20047E-19-2.31673E-21
 -1      1450 5.15328E-04-9.88504E-04 4.75552E-36 1.38208E-07 1.04326E-18 7.85142E-22
 -1      1451 4.64986E-04-8.70303E-04 1.38967E-35-3.40901E-05 6.40029E-19-2.74233E-21
 -1      1452 4.44884E-04-8.19181E-04 7.47411E-36-1.44562E-05 8.25510E-20 3.46845E-21
 -1      1453 4.66429E-04-8.72317E-04 4.47274E-36 1.02735E-07-8.39862E-20 2.04990E-21
 -1      1454 4.24681E-04-7.74335E-04 1.19529E-36-2.43733E-05 1.87099E-19 6.18150E-21
 -1      1455 4.07606E-04-7.31239E-04 9.58422E-36-1.03108E-05 2.03507E-19-1.72359E-21
 -1      1456 4.25551E-04-7.75559E-04-3.08371E-37 7.75131E-08 6.06281E-20-1.63021E-21
 -1      1457 3.90699E-04-6.93787E-04 8.86841E-36-1.73197E-05 2.57350E-19 2.25014E-21
 -1      1458 3.76199E-04-6.57384E-04 2.33856E-36-7.29048E-06-7.19689E-19-1.18661E-21
 -1      1459 3.91222E-04-6.94528E-04 7.25515E-38 5.94268E-08-4.57996E-20 1.03297E-21
 -1      1460 3.62017E-04-6.26022E-04 3.02977E-36-1.21626E-05 5.93396E-20 9.99688E-22
 -1      1461 3.49728E-04-5.95281E-04 5.73715E-36-5.07681E-06 2.37164E-19-5.64839E-22
 -1      1462 3.62327E-04-6.26465E-04 1.47471E-36 4.63633E-08-4.49028E-19-1.24869E-21
 -1      1463 3.37845E-04-5.69050E-04 3.60044E-36-8.37538E-06 3.34782E-19 2.92966E-21
 -1      1464 3.27483E-04-5.43181E-04 2.33438E-36-3.44971E-06-2.66246E-19-1.10664E-22
 -1      1465 3.38026E-04-5.69312E-04 7.08420E-36 3.68798E-08-9.76900E-20 5.23975E-22
 -1      1466 3.17588E-04-5.21390E-04 2.28096E-36-5.59161E-06-2.55210E-19 1.94096E-21
 -1      1467 3.08936E-04-4.99805E-04 2.06177E-36-2.25524E-06-4.73945E-20 1.56789E-21
 -1      1468 3.17691E-04-5.21540E-04 1.40502E-36 3.00354E-08-6.64148E-19-3.51058E-22
 -1      1469 3.00815E-04-4.81977E-04 3.05844E-36-3.55373E-06 1.29106E-19 3.39677E-22
 -1      1470 2.93722E-04-4.64263E-04 3.07151E-36-1.38514E-06-1.49768E-19-3.35791E-22
 -1      1471 3.00871E-04-4.82060E-04 2.51610E-36 2.50978E-08 2.37366E-19-1.26079E-21
 -1      1472 2.87245E-04-4.50115E-04 2.94479E-36-2.08092E-06 3.41321E-19 1.62905E-21
 -1      1473 2.81619E-04-4.36033E-04 2.26732E-36-7.64001E-07 3.05542E-20-1.69950E-21
 -1      1474 2.87273E-04-4.50158E-04 3.14045E-36 2.20676E-08-2.09665E-19 4.24960E-23
 -1      1475 2.76756E-04-4.25483E-04 1.69307E-36-1.04890E-06-1.69430E-20 1.21824E-21
 -1      1476 2.72551E-04-4.14997E-04 2.37849E-36-3.41684E-07 6.92683E-20-6.49566E-22
 -1      1477 2.76768E-04-4.25503E-04 4.76028E-36 1.93599E-08 4.53521E-20 2.82729E-22
 -1      1478 2.69416E-04-4.08176E-04 2.05142E-36-3.78683E-07 3.26697E-20 1.30285E-22
 -1      1479 2.66465E-04-4.01200E-04 1.58524E-36-9.31501E-08-1.19810E-19 7.33046E-23
 -1      1480 2.69420E-04-4.08182E-04 3.01408E-36 2.34330E-08-1.74064E-19 1.45991E-23
 -1      1481 2.65624E-04-3.99002E-04 8.27039E-37-3.89735E-08 7.99889E-20 1.94271E-22
 -1      1482 2.65625E-04-3.99003E-04-6.24383E-38 8.74561E-09 2.15916E-19-1.67427E-22
 -1      1483-3.23198E-03-3.58027E-03 8.59843E-35-2.17619E-04 3.13959E-18-1.17191E-20
 -1      1484-1.33665E-03-2.55824E-03 1.43925E-35-2.28093E-03-1.46493E-18 1.53358E-19
 -1      1485-3.67647E-04-4.20860E-03 2.23341E-35-2.29359E-03 9.81291E-19-1.65194E-20
 -1      1486-3.48336E-04-2.69453E-03 3.58024E-35-2.74069E-03-2.64452E-18 2.93624E-21
 -1      1487 5.90807E-04-3.88995E-03 1.46265E-35-2.14504E-03-7.01401E-19 3.53436E-20
 -1      1488 3.50413E-04-2.84930E-03 3.88840E-35-2.23396E-03 5.31775E-19-5.78250E-20
 -1      1489 9.69891E-04-3.46876E-03 2.84707E-35-1.59529E-03 1.43793E-19 3.76443E-20
 -1      1490 7.42713E-04-2.75487E-03 7.89902E-36-1.63958E-03 3.65806E-19 3.51228E-20
 -1      1491 1.06336E-03-3.00197E-03 9.77656E-37-1.10152E-03-2.78127E-19 3.40881E-20
 -1      1492 8.77893E-04-2.50538E-03 1.22036E-35-1.15187E-03 1.98153E-19-1.25953E-20
 -1      1493 1.02318E-03-2.55791E-03 2.60147E-35-7.46866E-04-4.44961E-19 1.12970E-20
 -1      1494 8.81771E-04-2.20917E-03 1.89016E-35-7.97493E-04 1.81052E-18-6.94575E-21
 -1      1495 9.34807E-04-2.17175E-03 2.20724E-35-5.07811E-04-3.74398E-19-5.26606E-20
 -1      1496 8.28566E-04-1.92197E-03 7.37722E-36-5.52548E-04 1.10665E-18-1.94632E-20
 -1      1497 8.37211E-04-1.84982E-03 1.46411E-35-3.49002E-04-2.07786E-18 1.33670E-20
 -1      1498 7.56937E-04-1.66622E-03 1.83685E-35-3.85620E-04 6.25365E-19 1.79966E-20
 -1      1499 7.45568E-04-1.58528E-03 1.47772E-35-2.42854E-04 2.20976E-19-7.83729E-22
 -1      1500 6.84002E-04-1.44671E-03 3.52876E-35-2.71549E-04 7.19451E-19-3.43663E-21
 -1      1501 6.64627E-04-1.36836E-03 1.67950E-35-1.70920E-04 4.64149E-19 3.05925E-20
 -1      1502 6.16580E-04-1.26119E-03 8.88400E-36-1.92820E-04-1.99034E-19-8.44804E-21
 -1      1503 5.94946E-04-1.18983E-03 8.29726E-36-1.21397E-04 5.56696E-19 9.88185E-21
 -1      1504 5.56805E-04-1.10517E-03 1.32856E-35-1.37810E-04 1.73404E-18-3.67167E-20
 -1      1505 5.35579E-04-1.04205E-03 1.27871E-35-8.67748E-05 4.35174E-19-3.37700E-22
 -1      1506 5.04838E-04-9.73996E-04 1.43962E-36-9.88887E-05-5.12495E-19 4.62737E-22
 -1      1507 4.85179E-04-9.18987E-04 5.52456E-36-6.22317E-05-1.11119E-18-1.67149E-22
 -1      1508 4.60081E-04-8.63494E-04 3.80787E-36-7.10340E-05 3.91285E-19-2.02206E-22
 -1      1509 4.42414E-04-8.15935E-04 9.18712E-36-4.46241E-05 4.15599E-19-1.21708E-21
 -1      1510 4.21713E-04-7.70190E-04 4.57677E-36-5.08996E-05-1.98601E-19 1.24845E-21
 -1      1511 4.06115E-04-7.29270E-04 2.67772E-36-3.18666E-05-4.56020E-20-2.55302E-21
 -1      1512 3.88914E-04-6.91274E-04 5.08037E-36-3.62269E-05-1.81963E-19 1.56679E-20
 -1      1513 3.75307E-04-6.56200E-04 2.66884E-36-2.25516E-05 1.35564E-19-8.81122E-21
 -1      1514 3.60955E-04-6.24513E-04 2.94654E-36-2.54692E-05-8.15393E-19-1.45910E-20
 -1      1515 3.49202E-04-5.94578E-04 3.51485E-36-1.57139E-05-3.50306E-19-7.03455E-21
 -1      1516 3.37226E-04-5.68160E-04 4.14411E-36-1.75533E-05 1.72703E-19 1.45734E-21
 -1      1517 3.27179E-04-5.42774E-04 1.83962E-36-1.06825E-05-2.19414E-20-6.23287E-21
 -1      1518 3.17237E-04-5.20879E-04 4.81834E-36-1.17263E-05 5.53910E-20-7.70763E-21
 -1      1519 3.08768E-04-4.99577E-04 2.86074E-36-6.98590E-06 2.58587E-19-8.56606E-21
 -1      1520 3.00625E-04-4.81695E-04 3.97189E-36-7.45606E-06-1.54617E-20 1.85604E-21
 -1      1521 2.93634E-04-4.64143E-04 4.83282E-36-4.29163E-06-5.79539E-20 5.55873E-21
 -1      1522 2.87149E-04-4.49970E-04 3.41825E-36-4.36765E-06 8.79387E-20-6.33407E-21
 -1      1523 2.81577E-04-4.35977E-04 1.65970E-36-2.36751E-06-1.11195E-19-2.81294E-21
 -1      1524 2.76713E-04-4.25417E-04 2.55680E-36-2.20240E-06 9.18242E-20 1.35324E-22
 -1      1525 2.72535E-04-4.14976E-04 2.86438E-36-1.05892E-06 5.06375E-20 1.83402E-22
 -1      1526 2.69402E-04-4.08152E-04 1.84384E-36-7.96086E-07-1.32077E-19 1.30398E-21
 -1      1527 2.66463E-04-4.01198E-04 1.15513E-36-2.88642E-07 8.75870E-20 7.95914E-22
 -1      1528 2.65621E-04-3.98997E-04 1.27208E-36-8.23402E-08 4.41119E-19 5.04346E-22
 -1      1529-4.84136E-04-3.39409E-05 1.48118E-35-4.42025E-04-2.47044E-18-3.31913E-20
 -1      1530-1.24636E-03 2.62881E-04 1.67069E-35-5.41731E-04 6.96807E-19 4.47451E-20
 -1      1531-1.33069E-03-5.79356E-04-1.15683E-36-2.30065E-03-2.48690E-20 4.43829E-21
 -1      1532-1.39806E-03-2.95521E-04 5.06198E-35-1.84178E-03 1.74945E-18-3.51324E-20
 -1      1533-5.17031E-04-1.68679E-03 7.25082E-36-2.41684E-03 5.91266E-19-4.16750E-20
 -1      1534-6.01609E-04-1.17514E-03 1.73183E-35-2.06466E-03-7.35606E-19 8.74529E-20
 -1      1535 1.56756E-04-2.14358E-03 2.34322E-35-2.01500E-03 1.30066E-18-8.54967E-20
 -1      1536 2.43060E-05-1.64605E-03 1.62606E-35-1.80085E-03-1.49602E-18 1.48996E-20
 -1      1537 5.36289E-04-2.22160E-03 1.44293E-35-1.53151E-03-1.79472E-18 4.47894E-20
 -1      1538 3.99233E-04-1.81009E-03 1.70432E-35-1.41622E-03 1.96908E-18 4.74275E-20
 -1      1539 7.00703E-04-2.10510E-03 1.46323E-35-1.11343E-03 1.57263E-19 6.13214E-20
 -1      1540 5.80809E-04-1.78552E-03 3.03103E-35-1.05902E-03 1.45204E-18 4.21970E-20
 -1      1541 7.42345E-04-1.90968E-03 2.14254E-35-7.94822E-04-2.62192E-19 5.11431E-20
 -1      1542 6.44671E-04-1.66715E-03 1.25474E-35-7.73464E-04 5.05399E-19-1.41442E-21
 -1      1543 7.22984E-04-1.69702E-03 8.05686E-36-5.64758E-04-4.71553E-19 1.20721E-20
 -1      1544 6.45660E-04-1.51320E-03 1.22187E-35-5.59550E-04-3.91743E-19-7.79401E-21
 -1      1545 6.77540E-04-1.49518E-03 1.42244E-35-4.02020E-04 1.10323E-18-2.89196E-20
 -1      1546 6.16715E-04-1.35446E-03 1.07440E-35-4.03848E-04 1.04766E-18 2.71257E-20
 -1      1547 6.23834E-04-1.31460E-03 9.88599E-36-2.87388E-04 3.56852E-19-2.07136E-20
 -1      1548 5.75763E-04-1.20524E-03 8.03580E-36-2.91677E-04-5.25768E-19-1.85825E-20
 -1      1549 5.70312E-04-1.15743E-03 4.90567E-36-2.06335E-04-8.20428E-19 1.60708E-20
 -1      1550 5.31952E-04-1.07105E-03 5.79027E-36-2.10945E-04-9.44046E-19 1.23609E-20
 -1      1551 5.20622E-04-1.02237E-03 1.03795E-35-1.48608E-04-6.48877E-20-1.66989E-20
 -1      1552 4.89667E-04-9.53100E-04 1.04516E-35-1.52635E-04-1.53674E-18 1.96032E-20
 -1      1553 4.76072E-04-9.06985E-04 4.68732E-36-1.07147E-04 5.12163E-19-8.80528E-21
 -1      1554 4.50819E-04-8.50678E-04 2.37798E-36-1.10291E-04-2.09914E-19-7.27497E-21
 -1      1555 4.36871E-04-8.08609E-04 3.62482E-36-7.71244E-05 2.49769E-19 1.64036E-21
 -1      1556 4.16076E-04-7.62345E-04 4.82916E-36-7.93647E-05 5.75986E-19 1.77883E-20
 -1      1557 4.02757E-04-7.24814E-04 5.11348E-36-5.52261E-05 4.27048E-19 6.60654E-21
 -1      1558 3.85509E-04-6.86500E-04 4.01983E-36-5.66586E-05-1.63199E-19-4.89219E-21
 -1      1559 3.73291E-04-6.53512E-04 4.23248E-36-3.91599E-05-1.75734E-19-1.06366E-20
 -1      1560 3.58924E-04-6.21639E-04 4.07631E-36-3.99213E-05 3.07498E-19-1.64878E-20
 -1      1561 3.48011E-04-5.92981E-04 1.93595E-36-2.73254E-05 4.41251E-20-1.85402E-21
 -1      1562 3.36038E-04-5.66460E-04 5.81257E-36-2.75575E-05 1.20510E-19 6.43301E-21
 -1      1563 3.26492E-04-5.41847E-04 4.72384E-36-1.85952E-05-1.28513E-19-6.26211E-21
 -1      1564 3.16563E-04-5.19901E-04 3.59811E-36-1.84306E-05 3.84784E-19 7.10211E-21
 -1      1565 3.08386E-04-4.99059E-04 4.25447E-36-1.21695E-05 3.46880E-19 1.82599E-21
 -1      1566 3.00259E-04-4.81155E-04 3.23371E-36-1.17287E-05-2.19312E-19-1.32116E-20
 -1      1567 2.93433E-04-4.63871E-04 2.94787E-36-7.48000E-06-1.21402E-19-1.38415E-21
 -1      1568 2.86965E-04-4.49692E-04 3.69121E-36-6.87471E-06 2.87291E-19-2.65808E-22
 -1      1569 2.81482E-04-4.35848E-04 1.89383E-36-4.12788E-06-4.71185E-19 5.74981E-21
 -1      1570 2.76631E-04-4.25290E-04 1.80944E-36-3.46823E-06-8.72089E-20 4.57807E-21
 -1      1571 2.72499E-04-4.14928E-04 1.92182E-36-1.84668E-06-3.60082E-20-3.19759E-21
 -1      1572 2.69374E-04-4.08108E-04 1.78418E-36-1.25445E-06 9.01096E-20-1.17248E-21
 -1      1573 2.66459E-04-4.01193E-04 1.16100E-36-5.03217E-07 9.81277E-20 8.00168E-22
 -1      1574 2.65615E-04-3.98988E-04 8.31132E-37-1.30182E-07 2.76447E-19 6.45244E-22
 -1      1575-1.12768E-06 1.73123E-04 1.99012E-35 1.48440E-04 9.62373E-19-7.58182E-20
 -1      1576-5.06026E-04 1.96289E-04 1.15324E-35-1.21471E-04 3.11079E-20-9.39630E-20
 -1      1577-1.18374E-03 3.84723E-04 2.08147E-35-7.88582E-04 5.02103E-19 2.20036E-20
 -1      1578-1.05207E-03 1.98537E-04 2.59907E-35-7.92803E-04-1.36882E-18-3.82545E-21
 -1      1579-1.03506E-03-2.52333E-04 1.22342E-35-1.57898E-03-2.57972E-19-5.99828E-21
 -1      1580-9.09400E-04-2.39939E-04 1.72636E-36-1.34072E-03-3.93622E-19 2.03522E-21
 -1      1581-4.87656E-04-9.21371E-04 2.64461E-35-1.74684E-03-1.40862E-18-2.43372E-20
 -1      1582-4.58815E-04-7.53600E-04 1.51968E-35-1.49858E-03-1.75928E-19 7.23939E-20
 -1      1583-2.52936E-06-1.34882E-03 1.40908E-35-1.56728E-03 1.05669E-18 1.45265E-20
 -1      1584-3.91949E-05-1.11636E-03 1.51008E-35-1.38188E-03-1.02881E-18-7.23118E-20
 -1      1585 3.14339E-04-1.52905E-03 2.80297E-35-1.27191E-03-2.53227E-19-6.41131E-20
 -1      1586 2.50614E-04-1.29835E-03 1.47243E-35-1.15107E-03-8.39432E-19-7.73208E-20
 -1      1587 4.85365E-04-1.54478E-03 1.16643E-35-9.79191E-04 3.16648E-19 4.40770E-20
 -1      1588 4.17517E-04-1.34375E-03 1.23412E-35-9.06028E-04-4.09864E-19 1.97538E-21
 -1      1589 5.58572E-04-1.47039E-03 6.25214E-36-7.33097E-04-5.76860E-19-3.73088E-20
 -1      1590 4.96699E-04-1.30506E-03 8.16567E-36-6.90678E-04 3.28167E-20 5.14677E-20
 -1      1591 5.74362E-04-1.35552E-03 8.94571E-36-5.41154E-04-4.01430E-19 4.21293E-20
 -1      1592 5.21498E-04-1.22268E-03 5.68770E-36-5.17136E-04-7.82163E-19-1.33540E-20
 -1      1593 5.59653E-04-1.22866E-03 6.16728E-36-3.96783E-04 9.88330E-19-2.69607E-20
 -1      1594 5.15725E-04-1.12250E-03 6.16517E-36-3.83287E-04 2.96936E-19-1.69443E-20
 -1      1595 5.30538E-04-1.10449E-03 1.35739E-35-2.89997E-04 6.95674E-19 6.75667E-21
 -1      1596 4.94386E-04-1.01932E-03 7.74741E-36-2.82323E-04 6.34510E-19 3.36944E-20
 -1      1597 4.96024E-04-9.89726E-04 8.99847E-36-2.11512E-04 9.65506E-19-3.80252E-20
 -1      1598 4.66287E-04-9.20855E-04 8.50013E-36-2.06965E-04 2.68941E-19-1.24002E-20
 -1      1599 4.60895E-04-8.86847E-04 9.15753E-36-1.53878E-04 6.35465E-19-1.18053E-20
 -1      1600 4.36347E-04-8.30648E-04 8.69549E-36-1.50953E-04 7.38740E-19-4.68160E-20
 -1      1601 4.27546E-04-7.96218E-04 4.68429E-36-1.11477E-04 2.34531E-19 1.34022E-20
 -1      1602 4.07180E-04-7.49968E-04 3.97587E-36-1.09358E-04 1.31782E-19 3.79272E-20
 -1      1603 3.97068E-04-7.17233E-04 8.74899E-36-8.01965E-05 2.55303E-19 9.92605E-21
 -1      1604 3.80096E-04-6.78916E-04 5.65005E-36-7.84518E-05 2.49217E-19-2.43224E-20
 -1      1605 3.69860E-04-6.48921E-04 1.89653E-36-5.70574E-05 3.66184E-20 5.64144E-21
 -1      1606 3.55678E-04-6.17052E-04 5.75353E-36-5.54720E-05 8.32769E-19 3.54291E-20
 -1      1607 3.45975E-04-5.90245E-04 4.32971E-36-3.99112E-05-4.87960E-19-4.32252E-21
 -1      1608 3.34132E-04-5.63737E-04 4.90919E-36-3.83901E-05 1.75097E-20-2.88484E-21
 -1      1609 3.25315E-04-5.40257E-04 3.59092E-36-2.72080E-05-5.94798E-20 1.84873E-21
 -1      1610 3.15477E-04-5.18329E-04 1.32097E-36-2.57231E-05-1.48660E-19 1.35587E-20
 -1      1611 3.07729E-04-4.98169E-04 3.64148E-36-1.78287E-05 2.54965E-19 6.32475E-21
 -1      1612 2.99668E-04-4.80286E-04 1.55428E-36-1.63913E-05 1.30646E-19 1.59377E-22
 -1      1613 2.93088E-04-4.63402E-04 1.64956E-36-1.09683E-05-1.76438E-19-9.73746E-21
 -1      1614 2.86666E-04-4.49244E-04 1.30787E-36-9.61681E-06 1.25891E-19-1.70364E-21
 -1      1615 2.81318E-04-4.35627E-04 1.72384E-36-6.05665E-06-9.92700E-21 1.12578E-21
 -1      1616 2.76499E-04-4.25086E-04 2.14756E-36-4.85495E-06-7.26389E-20-4.60442E-21
 -1      1617 2.72435E-04-4.14846E-04 1.48529E-36-2.71054E-06-1.96207E-19-8.69712E-21
 -1      1618 2.69330E-04-4.08036E-04 1.94629E-36-1.75720E-06 6.36937E-20-3.74402E-21
 -1      1619 2.66450E-04-4.01185E-04 1.04861E-36-7.38237E-07 2.26435E-20 4.55883E-21
 -1      1620 2.65605E-04-3.98973E-04 2.35180E-37-1.83065E-07 1.25364E-20 1.97376E-21
 -1      1621-7.34239E-06-9.62480E-06 1.66264E-35 7.25634E-06-1.27258E-18 4.06825E-19
 -1      1622-2.59991E-04 1.07954E-04 1.03171E-35-5.37960E-05-1.18967E-18-7.35184E-20
 -1      1623-6.77519E-04 2.68090E-04 1.98523E-35-2.84258E-04 1.38218E-18-1.46399E-19
 -1      1624-6.72717E-04 2.05354E-04 9.76400E-36-3.74045E-04-1.64439E-19-5.00400E-20
 -1      1625-9.06846E-04 1.67116E-04 3.77983E-36-8.31872E-04 1.61015E-19 3.08861E-20
 -1      1626-7.81233E-04 6.30279E-05 1.10577E-35-7.85925E-04 1.11835E-18-8.31741E-21
 -1      1627-7.10643E-04-2.37583E-04 1.68243E-35-1.21086E-03 2.09904E-19-1.03178E-20
 -1      1628-6.10512E-04-2.51247E-04 2.33107E-35-1.07072E-03-2.67715E-19-1.80984E-20
 -1      1629-3.55525E-04-6.63142E-04 1.36421E-35-1.31499E-03 1.62463E-19 1.17698E-19
 -1      1630-3.13013E-04-5.89416E-04 1.38849E-35-1.15682E-03 2.36941E-18 2.03176E-20
 -1      1631-2.28436E-05-9.73035E-04 1.67922E-35-1.22064E-03 9.22231E-19 3.98888E-20
 -1      1632-2.59914E-05-8.49556E-04 2.04031E-35-1.08710E-03-1.49635E-18-1.80263E-20
 -1      1633 2.18750E-04-1.14087E-03 8.29267E-36-1.03448E-03 5.17171E-19-5.67812E-22
 -1      1634 1.90675E-04-1.00322E-03 2.92019E-35-9.35994E-04 8.80026E-19 1.25367E-20
 -1      1635 3.67218E-04-1.19462E-03 6.59166E-36-8.29838E-04-4.54719E-19-6.50164E-20
 -1      1636 3.29532E-04-1.06402E-03 5.83770E-36-7.62197E-04-8.07155E-19 1.63782E-19
 -1      1637 4.44339E-04-1.17387E-03 1.13276E-35-6.43700E-04 6.79738E-20-8.78124E-20
 -1      1638 4.05673E-04-1.05927E-03 8.81784E-36-5.98848E-04 8.75457E-19-9.47620E-20
 -1      1639 4.74117E-04-1.11148E-03 1.59844E-35-4.89067E-04 7.79857E-19-1.10480E-21
 -1      1640 4.38429E-04-1.01469E-03 8.89139E-36-4.59658E-04 5.26923E-19-5.11521E-20
 -1      1641 4.75379E-04-1.02983E-03 8.17712E-37-3.66697E-04-1.69409E-19-7.05859E-21
 -1      1642 4.44028E-04-9.49461E-04 4.30634E-36-3.47280E-04-9.79863E-19-2.65881E-20
 -1      1643 4.60923E-04-9.42551E-04 1.90380E-36-2.72420E-04-2.78806E-19 3.62654E-20
 -1      1644 4.34026E-04-8.76157E-04 3.07687E-36-2.59314E-04-2.91254E-19 2.59017E-20
 -1      1645 4.38788E-04-8.57238E-04 2.19292E-36-2.00838E-04-9.10194E-20 2.19705E-20
 -1      1646 4.15954E-04-8.02349E-04 5.82231E-36-1.91681E-04-6.96478E-19 8.19871E-20
 -1      1647 4.13758E-04-7.77767E-04 1.16206E-35-1.46904E-04-7.05145E-21-3.82653E-20
 -1      1648 3.94454E-04-7.32238E-04 1.90020E-36-1.40221E-04 2.59510E-19 4.29723E-20
 -1      1649 3.88564E-04-7.05839E-04 3.59673E-36-1.06423E-04 1.78170E-19-5.34211E-21
 -1      1650 3.72266E-04-6.67941E-04 5.55636E-36-1.01308E-04 3.58504E-21 7.12578E-21
 -1      1651 3.64688E-04-6.41973E-04 3.69630E-36-7.61029E-05-4.24298E-20 3.95621E-21
 -1      1652 3.50944E-04-6.10362E-04 3.06272E-37-7.20045E-05-5.53713E-21 1.02845E-20
 -1      1653 3.42890E-04-5.86084E-04 2.63582E-36-5.34306E-05-5.11182E-19-2.18226E-20
 -1      1654 3.31336E-04-5.59744E-04 3.51338E-36-5.00195E-05-2.21992E-19 1.71169E-20
 -1      1655 3.23522E-04-5.37828E-04 1.72488E-36-3.65222E-05 3.33629E-19-1.01944E-20
 -1      1656 3.13878E-04-5.16016E-04 4.04158E-36-3.36070E-05-7.07540E-20-2.59514E-20
 -1      1657 3.06727E-04-4.96806E-04 1.59354E-36-2.39784E-05-3.03642E-19-1.09791E-20
 -1      1658 2.98796E-04-4.79003E-04 2.99276E-36-2.14573E-05 1.79455E-19 6.54705E-21
 -1      1659 2.92560E-04-4.62682E-04 3.62081E-36-1.47720E-05 2.31620E-20-4.11151E-21
 -1      1660 2.86224E-04-4.48581E-04 1.77868E-36-1.26068E-05-1.53547E-19 1.84617E-20
 -1      1661 2.81066E-04-4.35287E-04 2.70008E-36-8.16471E-06 7.67097E-20 8.74108E-22
 -1      1662 2.76302E-04-4.24783E-04 1.46586E-36-6.37078E-06-1.71092E-19-4.92242E-21
 -1      1663 2.72338E-04-4.14719E-04 1.82223E-36-3.65598E-06-5.04489E-20-3.27411E-21
 -1      1664 2.69264E-04-4.07930E-04 2.00029E-36-2.30779E-06-1.10064E-19-6.96626E-21
 -1      1665 2.66437E-04-4.01172E-04 1.95383E-36-9.94950E-07-3.34047E-20 1.17815E-21
 -1      1666 2.65590E-04-3.98951E-04 6.87790E-37-2.41657E-07 5.98375E-21-3.01960E-22
 -1      1667-2.22737E-06 1.00659E-05 9.44670E-36 8.76019E-06-1.28267E-18 5.62432E-20
 -1      1668-1.57284E-04 6.53695E-05 6.25985E-36-3.20781E-05-1.33201E-18-9.89685E-20
 -1      1669-3.97071E-04 1.57491E-04 7.69687E-36-1.41367E-04-5.01725E-19-9.45516E-20
 -1      1670-4.36571E-04 1.50880E-04 6.53704E-36-2.06299E-04-8.40253E-19 7.26863E-20
 -1      1671-6.46800E-04 1.84069E-04 8.17066E-36-4.46823E-04-1.39063E-19 3.31675E-20
 -1      1672-5.88183E-04 1.23346E-04 1.37691E-35-4.66984E-04 7.71491E-19-3.83268E-20
 -1      1673-6.61499E-04 2.59624E-05 8.75006E-36-7.70048E-04-2.34657E-19 7.40002E-21
 -1      1674-5.71202E-04-3.08700E-05 1.29364E-35-7.20105E-04-2.35807E-19 6.05444E-21
 -1      1675-4.89420E-04-2.54077E-04 1.70158E-35-9.79561E-04-8.86329E-20-4.26877E-20
 -1      1676-4.18032E-04-2.64099E-04 1.00898E-35-8.83517E-04-1.77310E-20 5.68705E-20
 -1      1677-2.40651E-04-5.43535E-04 1.40774E-35-1.03717E-03 1.73260E-18 4.86275E-20
 -1      1678-2.03663E-04-5.03548E-04 6.73819E-36-9.29350E-04 6.82625E-19-4.71396E-20
 -1      1679-3.39748E-06-7.69030E-04 1.59728E-35-9.75174E-04-6.26449E-19-2.24044E-20
 -1      1680 4.03597E-06-6.95531E-04 1.08074E-35-8.78349E-04 1.39213E-18 6.63884E-20
 -1      1681 1.80177E-04-9.07197E-04 1.27016E-35-8.47298E-04 4.28362E-19-1.24777E-19
 -1      1682 1.68712E-04-8.19284E-04 1.45527E-35-7.70158E-04 4.18045E-19-9.73276E-20
 -1      1683 3.02591E-04-9.66872E-04 6.46000E-36-6.98145E-04-7.00298E-19 4.11286E-20
 -1      1684 2.81590E-04-8.78356E-04 8.78661E-36-6.40664E-04-3.51954E-19 1.74328E-20
 -1      1685 3.73381E-04-9.69031E-04 9.46432E-36-5.54900E-04 5.15919E-19-1.06720E-19
 -1      1686 3.49044E-04-8.87425E-04 1.24878E-35-5.13524E-04-7.08877E-19 3.28085E-20
 -1      1687 4.06708E-04-9.34713E-04 2.30115E-36-4.30196E-04 7.50556E-19 9.50073E-20
 -1      1688 3.82496E-04-8.62967E-04 5.60939E-36-4.00780E-04-5.71953E-19-5.44779E-20
 -1      1689 4.15429E-04-8.80352E-04 1.15357E-35-3.27566E-04 1.35227E-18 7.29564E-21
 -1      1690 3.92996E-04-8.18831E-04 4.62614E-36-3.06578E-04-7.09647E-19-8.44565E-20
 -1      1691 4.09280E-04-8.17210E-04 2.38965E-36-2.45910E-04 1.07114E-19-5.48499E-20
 -1      1692 3.89251E-04-7.65095E-04 7.26017E-36-2.30707E-04 4.51059E-19 5.07967E-21
 -1      1693 3.94955E-04-7.52360E-04 1.03866E-35-1.82283E-04-2.54483E-19-3.66582E-20
 -1      1694 3.77429E-04-7.08440E-04 5.81889E-36-1.71013E-04 1.54597E-19-4.99600E-20
 -1      1695 3.76782E-04-6.89938E-04 3.32396E-36-1.33350E-04 5.20959E-19-3.40069E-20
 -1      1696 3.61624E-04-6.52997E-04 7.69946E-36-1.24763E-04-8.47059E-20-2.46760E-20
 -1      1697 3.57440E-04-6.32181E-04 3.04581E-36-9.60442E-05 7.21250E-20-1.90456E-20
 -1      1698 3.44437E-04-6.01157E-04 5.73128E-36-8.93112E-05-5.58223E-20 1.91633E-20
 -1      1699 3.38529E-04-5.80176E-04 7.60019E-36-6.77858E-05-1.39009E-19 1.11353E-20
 -1      1700 3.27459E-04-5.54207E-04 3.31306E-36-6.23679E-05 5.49516E-19 2.64314E-20
 -1      1701 3.20972E-04-5.34362E-04 2.69906E-36-4.65121E-05 2.91437E-19 1.87515E-20
 -1      1702 3.11647E-04-5.12788E-04 3.67377E-36-4.20640E-05-1.75746E-19 4.09241E-20
 -1      1703 3.05295E-04-4.94852E-04 4.03240E-36-3.06218E-05 2.68484E-19-1.19416E-20
 -1      1704 2.97573E-04-4.77206E-04 1.45966E-36-2.69313E-05 7.67670E-20 8.40786E-21
 -1      1705 2.91802E-04-4.61648E-04 1.91297E-36-1.89019E-05-1.50660E-19 4.86278E-21
 -1      1706 2.85603E-04-4.47649E-04 1.24606E-36-1.58542E-05-4.06962E-20-1.06139E-20
 -1      1707 2.80704E-04-4.34797E-04 2.57839E-36-1.04615E-05 3.36738E-19 4.86964E-22
 -1      1708 2.76026E-04-4.24356E-04 2.32874E-36-8.02307E-06-1.98310E-19 5.81600E-21
 -1      1709 2.72198E-04-4.14536E-04 1.72964E-36-4.68811E-06 1.21382E-19 3.39460E-21
 -1      1710 2.69171E-04-4.07780E-04 1.75372E-36-2.90956E-06 1.61567E-19-1.37800E-20
 -1      1711 2.66418E-04-4.01153E-04 8.66186E-37-1.27439E-06-9.30429E-20-6.69608E-22
 -1      1712 2.65569E-04-3.98920E-04 9.04831E-37-3.06755E-07 1.80363E-19-2.17935E-21
 -1      1713 6.48798E-07-4.00337E-07 2.78413E-36 2.64635E-06-6.83380E-19-1.38277E-19
 -1      1714-1.01893E-04 4.24552E-05 7.06389E-36-2.16461E-05 1.99204E-19 1.03253E-19
 -1      1715-2.52125E-04 1.00913E-04 4.81986E-36-8.48308E-05 6.89601E-20 2.05067E-19
 -1      1716-2.92401E-04 1.06315E-04 6.52177E-36-1.26503E-04 7.49247E-19-8.02401E-20
 -1      1717-4.49593E-04 1.46599E-04 8.53435E-36-2.62649E-04 6.09460E-19-1.63790E-20
 -1      1718-4.27609E-04 1.15487E-04 3.53295E-36-2.92211E-04-9.84190E-20-1.85569E-20
 -1      1719-5.30978E-04 9.42459E-05 4.51493E-36-4.87711E-04-4.46401E-19 8.63644E-21
 -1      1720-4.71628E-04 4.77902E-05 5.21628E-36-4.81607E-04-3.58618E-19-2.34432E-20
 -1      1721-4.82210E-04-5.71107E-05 9.90291E-36-6.90406E-04-6.72609E-19-1.40718E-20
 -1      1722-4.15903E-04-9.19867E-05 1.08802E-35-6.45222E-04 2.59549E-19 4.95499E-20
 -1      1723-3.37131E-04-2.66075E-04 7.87861E-36-8.14902E-04 8.89819E-19 3.77087E-20
 -1      1724-2.85299E-04-2.71938E-04 3.79538E-36-7.44353E-04-4.94332E-19 6.31868E-20
 -1      1725-1.52017E-04-4.76008E-04 9.94495E-36-8.44878E-04-9.15483E-19 9.98534E-20
 -1      1726-1.22026E-04-4.51049E-04 6.20467E-36-7.66819E-04-1.29087E-18 3.92075E-20
 -1      1727 2.49902E-05-6.45224E-04 4.73528E-36-7.97160E-04-3.99156E-21-6.06695E-20
 -1      1728 3.53164E-05-5.97620E-04 6.64402E-36-7.24635E-04 1.46027E-18 8.15272E-20
 -1      1729 1.67137E-04-7.56559E-04 8.87296E-36-7.02156E-04 9.99971E-19-1.65483E-20
 -1      1730 1.63611E-04-6.97107E-04 3.77039E-36-6.41356E-04-2.60733E-19-1.14107E-19
 -1      1731 2.67017E-04-8.12055E-04 5.92851E-36-5.88193E-04 2.67920E-19-1.72459E-20
 -1      1732 2.55379E-04-7.49648E-04 7.49282E-36-5.40249E-04-9.48443E-19 5.00131E-20
 -1      1733 3.28751E-04-8.23343E-04 8.84804E-36-4.74883E-04 5.12654E-19-6.14910E-20
 -1      1734 3.13277E-04-7.63622E-04 5.69281E-36-4.38330E-04 3.44216E-19-9.06092E-21
 -1      1735 3.60957E-04-8.04165E-04 6.73007E-36-3.72931E-04-3.52494E-19 5.16570E-21
 -1      1736 3.44363E-04-7.49963E-04 7.51007E-36-3.45459E-04 5.58370E-19 1.85131E-20
 -1      1737 3.72533E-04-7.66506E-04 6.80113E-36-2.86560E-04 7.76382E-19 1.23237E-20
 -1      1738 3.56351E-04-7.18796E-04 1.02776E-35-2.65926E-04 4.29396E-19 3.51613E-20
 -1      1739 3.70846E-04-7.19365E-04 7.68463E-36-2.16150E-04 2.69457E-19-3.68272E-20
 -1      1740 3.55843E-04-6.78101E-04 8.05418E-36-2.00512E-04 2.21371E-19 3.91110E-21
 -1      1741 3.61345E-04-6.68901E-04 3.98832E-36-1.60192E-04-5.73408E-19-1.44555E-20
 -1      1742 3.47843E-04-6.33578E-04 3.50063E-36-1.48162E-04-6.89685E-19-2.01981E-20
 -1      1743 3.47790E-04-6.19046E-04 4.34865E-36-1.16493E-04-3.60192E-19-2.43045E-21
 -1      1744 3.35874E-04-5.89022E-04 6.88228E-36-1.07072E-04 1.14558E-18-1.20364E-20
 -1      1745 3.32652E-04-5.72171E-04 2.65429E-36-8.28046E-05-2.22363E-20-2.86476E-21
 -1      1746 3.22298E-04-5.46829E-04 2.58355E-36-7.52969E-05-3.06286E-19-8.10568E-22
 -1      1747 3.17506E-04-5.29630E-04 2.62573E-36-5.71144E-05-6.31833E-19-3.59850E-20
 -1      1748 3.08651E-04-5.08455E-04 3.28671E-36-5.10459E-05-1.15163E-19 4.25928E-21
 -1      1749 3.03335E-04-4.92170E-04 5.04638E-36-3.77447E-05 4.79016E-19 1.61339E-20
 -1      1750 2.95921E-04-4.74779E-04 3.25201E-36-3.28044E-05 4.06991E-20-2.99679E-20
 -1      1751 2.90761E-04-4.60223E-04 2.66468E-36-2.33618E-05-1.13746E-19-2.70524E-21
 -1      1752 2.84759E-04-4.46385E-04 3.97223E-36-1.93635E-05 1.81593E-19-8.07967E-21
 -1      1753 2.80205E-04-4.34119E-04 2.99868E-36-1.29539E-05-3.05865E-20-4.58256E-21
 -1      1754 2.75649E-04-4.23776E-04 2.46771E-36-9.81763E-06 2.18197E-19-8.69092E-21
 -1      1755 2.72004E-04-4.14283E-04 1.53028E-36-5.81131E-06 1.21589E-19-8.37585E-21
 -1      1756 2.69044E-04-4.07576E-04 1.96061E-36-3.56562E-06-6.08884E-20-3.87254E-21
 -1      1757 2.66392E-04-4.01126E-04 1.05250E-36-1.57725E-06 6.33466E-20-2.47752E-21
 -1      1758 2.65541E-04-3.98879E-04 2.64021E-36-3.79308E-07 1.35322E-19-4.08922E-22
 -1      1759 3.71336E-07 3.43783E-07 2.92259E-36 1.17830E-06-6.80918E-19 1.14095E-19
 -1      1760-6.87674E-05 2.85058E-05 5.85441E-36-1.59830E-05-5.91154E-19 1.05398E-20
 -1      1761-1.67206E-04 6.59156E-05 1.47514E-35-5.63703E-05-3.62363E-19 5.28618E-20
 -1      1762-2.02228E-04 7.47218E-05 1.01040E-35-8.47634E-05 2.17958E-19 3.97802E-20
 -1      1763-3.13674E-04 1.07035E-04 3.21090E-36-1.67599E-04-6.81727E-19 4.93555E-21
 -1      1764-3.09819E-04 9.27249E-05 4.40873E-36-1.93433E-04-3.53370E-19 3.05443E-20
 -1      1765-4.04170E-04 9.72176E-05 9.49711E-36-3.19260E-04 4.67060E-19-1.09687E-20
 -1      1766-3.69447E-04 6.64020E-05 1.08488E-35-3.28411E-04 2.88155E-19-1.16207E-21
 -1      1767-4.15989E-04 2.22826E-05 4.24841E-36-4.80597E-04-3.66586E-19 6.86188E-21
 -1      1768-3.65729E-04-1.16083E-05 1.90735E-36-4.64924E-04-4.49523E-19 1.39550E-20
 -1      1769-3.49575E-04-1.10083E-04 1.12267E-35-6.13657E-04 5.49315E-19-7.61677E-20
 -1      1770-2.99627E-04-1.33022E-04 1.88378E-36-5.74436E-04 2.74611E-19 1.95314E-20
 -1      1771-2.27832E-04-2.72888E-04 5.96248E-36-6.90611E-04-4.21415E-19-3.92573E-20
 -1      1772-1.88824E-04-2.76347E-04 8.65708E-36-6.36259E-04 4.48760E-19 9.09461E-20
 -1      1773-8.38056E-05-4.32787E-04 1.75574E-35-7.03747E-04 8.01602E-19 1.45412E-19
 -1      1774-5.95592E-05-4.15873E-04 3.41894E-36-6.44498E-04-4.55071E-19-2.83840E-20
 -1      1775 5.33466E-05-5.63921E-04 1.76361E-35-6.63240E-04 7.97185E-19-8.67939E-20
 -1      1776 6.39704E-05-5.31190E-04 4.05183E-36-6.07047E-04 6.39590E-19-1.65109E-21
 -1      1777 1.65875E-04-6.53971E-04-4.80431E-38-5.88033E-04-4.91948E-19 1.64639E-19
 -1      1778 1.66254E-04-6.11930E-04 2.91469E-36-5.39227E-04-6.26346E-19 5.07600E-21
 -1      1779 2.47623E-04-7.02658E-04 8.37380E-36-4.97138E-04 5.92246E-19 1.91882E-20
 -1      1780 2.41390E-04-6.57173E-04 8.47733E-36-4.57026E-04 1.28051E-18 1.22603E-19
 -1      1781 3.00337E-04-7.16836E-04 4.88819E-36-4.04921E-04-2.25849E-19-2.25394E-21
 -1      1782 2.90443E-04-6.72051E-04 6.26546E-36-3.73004E-04-1.02315E-18-4.70550E-21
 -1      1783 3.29529E-04-7.05850E-04 5.60402E-36-3.20103E-04-4.60032E-20 2.11192E-20
 -1      1784 3.18038E-04-6.64169E-04 1.78921E-36-2.95104E-04 2.18000E-19-5.00517E-20
 -1      1785 3.41547E-04-6.78598E-04 9.59116E-36-2.46769E-04-2.00615E-19-2.99541E-20
 -1      1786 3.29761E-04-6.41132E-04 5.64479E-36-2.27266E-04 3.06639E-19-4.62976E-20
 -1      1787 3.42047E-04-6.42269E-04 3.18649E-36-1.85934E-04 3.55992E-20 4.08827E-21
 -1      1788 3.30724E-04-6.09327E-04 2.78071E-36-1.70659E-04 1.48740E-19-9.03026E-20
 -1      1789 3.35466E-04-6.02112E-04 5.49262E-36-1.36906E-04-2.20715E-19-3.46785E-20
 -1      1790 3.25016E-04-5.73584E-04 1.30880E-36-1.24839E-04-1.33409E-19 1.09018E-19
 -1      1791 3.25028E-04-5.61707E-04 4.14886E-36-9.82230E-05 3.37699E-19-9.37330E-21
 -1      1792 3.15652E-04-5.37310E-04 3.69826E-36-8.85929E-05-5.48010E-20-3.95534E-20
 -1      1793 3.12955E-04-5.23381E-04 4.55087E-36-6.82168E-05 2.00516E-19 2.88450E-20
 -1      1794 3.04749E-04-5.02805E-04 1.21034E-36-6.04651E-05-1.35155E-19-4.04775E-20
 -1      1795 3.00740E-04-4.88602E-04 2.49510E-36-4.53091E-05-2.67918E-19-8.93962E-22
 -1      1796 2.93750E-04-4.71591E-04 3.60031E-36-3.90494E-05-1.82964E-19 1.79832E-20
 -1      1797 2.89372E-04-4.58316E-04 1.30643E-36-2.81451E-05 2.75446E-19 4.73190E-20
 -1      1798 2.83644E-04-4.44715E-04 1.92616E-36-2.31317E-05 2.08998E-20-8.68597E-21
 -1      1799 2.79536E-04-4.33209E-04 1.86544E-36-1.56449E-05-8.07061E-20-8.06028E-21
 -1      1800 2.75148E-04-4.23007E-04 1.11201E-36-1.17578E-05 1.37101E-19 9.61973E-21
 -1      1801 2.71744E-04-4.13941E-04 1.60583E-36-7.02872E-06-1.05060E-19 9.85699E-21
 -1      1802 2.68875E-04-4.07304E-04 2.05769E-36-4.27853E-06 7.89245E-20-2.88811E-21
 -1      1803 2.66356E-04-4.01088E-04 1.32157E-37-1.90370E-06 2.17739E-19-8.77042E-21
 -1      1804 2.65504E-04-3.98824E-04 2.64919E-36-4.60440E-07-2.69433E-21-2.95673E-21
 -1      1805 5.22144E-07-3.48807E-07 1.22893E-35 4.56941E-07-4.09457E-19-2.08939E-19
 -1      1806-4.80152E-05 1.96950E-05 3.77715E-36-1.24601E-05-1.21963E-18 9.71669E-20
 -1      1807-1.15100E-04 4.46838E-05 9.84032E-36-4.07435E-05 6.72885E-19 1.50580E-19
 -1      1808-1.43131E-04 5.28518E-05 7.08109E-36-6.05809E-05-1.89570E-19-7.91029E-20
 -1      1809-2.22381E-04 7.68784E-05 4.97144E-36-1.14583E-04 1.34616E-19 3.57885E-20
 -1      1810-2.25844E-04 7.05656E-05 3.34186E-36-1.34845E-04-4.11151E-19-3.23289E-20
 -1      1811-3.02148E-04 8.17050E-05 6.15088E-36-2.17938E-04-5.00478E-19-1.78654E-21
 -1      1812-2.83147E-04 6.25824E-05 4.28277E-36-2.30684E-04 5.30383E-19-1.28102E-20
 -1      1813-3.37104E-04 4.67882E-05 1.11969E-35-3.38287E-04-9.42295E-20 2.85674E-21
 -1      1814-3.02323E-04 2.05402E-05 4.52212E-36-3.36782E-04 4.25233E-19-1.31951E-20
 -1      1815-3.18094E-04-3.18132E-05 3.92581E-36-4.54710E-04-5.63152E-19-2.76435E-21
 -1      1816-2.76943E-04-5.68626E-05 7.85753E-36-4.36119E-04-2.24632E-19-6.14357E-20
 -1      1817-2.49121E-04-1.45818E-04 5.89801E-36-5.44806E-04-3.53708E-19 5.74147E-20
 -1      1818-2.10458E-04-1.61775E-04 5.89358E-36-5.11106E-04-9.22920E-19-6.45763E-20
 -1      1819-1.46081E-04-2.76782E-04 4.45518E-36-5.92993E-04 3.91461E-19-1.60729E-20
 -1      1820-1.15738E-04-2.78985E-04 6.62578E-36-5.49624E-04-5.15475E-19 9.33727E-20
 -1      1821-3.02468E-05-4.03115E-04 1.09108E-35-5.95407E-04 8.75148E-19 2.64510E-20
 -1      1822-1.03726E-05-3.91108E-04 5.79122E-36-5.48705E-04-8.41434E-20 4.19704E-20
 -1      1823 7.92748E-05-5.07564E-04 2.29417E-36-5.58934E-04-7.79379E-19-8.22460E-20
 -1      1824 8.93367E-05-4.84109E-04 9.60231E-36-5.14035E-04 9.09860E-19-6.00737E-20
 -1      1825 1.70159E-04-5.81148E-04 5.00191E-36-4.96361E-04 3.27650E-19-3.03167E-20
 -1      1826 1.72487E-04-5.50394E-04 7.51113E-36-4.56342E-04-6.45906E-19-1.04454E-19
 -1      1827 2.37542E-04-6.22885E-04 3.66163E-36-4.21148E-04-1.05408E-18-9.33101E-22
 -1      1828 2.34516E-04-5.88837E-04 4.22942E-37-3.87210E-04-3.40188E-19 1.57526E-19
 -1      1829 2.82140E-04-6.37118E-04 3.79381E-36-3.44105E-04 4.25249E-19-9.37709E-20
 -1      1830 2.75834E-04-6.02836E-04 7.03631E-37-3.16196E-04 7.46635E-19 1.13821E-19
 -1      1831 3.07702E-04-6.30510E-04 9.07193E-36-2.72290E-04 2.41369E-19 1.16783E-19
 -1      1832 2.99680E-04-5.97965E-04 5.73552E-36-2.49720E-04 2.49974E-20-7.05147E-20
 -1      1833 3.18941E-04-6.09871E-04 3.42709E-36-2.09372E-04-1.59214E-19 1.62720E-20
 -1      1834 3.10279E-04-5.80134E-04 5.32991E-36-1.91245E-04-6.00919E-19-2.86760E-20
 -1      1835 3.20305E-04-5.81022E-04 7.21188E-37-1.56582E-04-1.60904E-20 5.21276E-21
 -1      1836 3.11700E-04-5.54560E-04 2.38186E-36-1.42029E-04 1.00301E-18-9.39232E-20
 -1      1837 3.15453E-04-5.48443E-04 4.91436E-36-1.13672E-04-2.35223E-19-7.81341E-21
 -1      1838 3.07338E-04-5.25370E-04 3.18473E-36-1.01955E-04 1.00561E-19 2.40997E-20
 -1      1839 3.07151E-04-5.15352E-04 1.43135E-36-7.96456E-05-9.65649E-20-7.98532E-20
 -1      1840 2.99794E-04-4.95622E-04 3.77838E-36-7.01846E-05-1.72387E-19 4.05095E-22
 -1      1841 2.97391E-04-4.83971E-04 1.15803E-36-5.32455E-05-4.01100E-19 2.69954E-20
 -1      1842 2.90963E-04-4.67496E-04 3.64122E-36-4.56145E-05 3.19572E-19 2.63402E-20
 -1      1843 2.87566E-04-4.55823E-04 3.19648E-36-3.32308E-05 1.51679E-19-2.65561E-21
 -1      1844 2.82200E-04-4.42556E-04 1.97061E-36-2.71451E-05 2.35285E-20-5.36196E-20
 -1      1845 2.78660E-04-4.32012E-04 1.84016E-36-1.85320E-05-2.91046E-19 1.17675E-20
 -1      1846 2.74497E-04-4.22008E-04 1.39824E-36-1.38431E-05-3.85872E-19-3.12240E-22
 -1      1847 2.71401E-04-4.13489E-04 1.58945E-36-8.34160E-06 1.32879E-20-2.04899E-20
 -1      1848 2.68655E-04-4.06951E-04 1.99264E-36-5.04997E-06-1.35658E-19-5.46158E-21
 -1      1849 2.66307E-04-4.01036E-04 1.49986E-36-2.25314E-06 2.41985E-19-1.74684E-21
 -1      1850 2.65457E-04-3.98753E-04 1.19356E-36-5.51460E-07-1.68542E-19 1.79149E-21
 -1      1851 4.34779E-07-3.33834E-07 2.90159E-36 1.27003E-07 3.79753E-19 1.48012E-19
 -1      1852-3.42915E-05 1.38405E-05 3.05936E-36-1.00804E-05-2.12187E-19 4.89714E-20
 -1      1853-8.12741E-05 3.07895E-05 7.09238E-36-3.09840E-05 4.83416E-19-5.38061E-20
 -1      1854-1.03225E-04 3.75844E-05 1.89107E-36-4.55424E-05 5.93871E-19 3.90184E-20
 -1      1855-1.59973E-04 5.48890E-05 5.97105E-36-8.27726E-05 1.21145E-19 4.35600E-20
 -1      1856-1.65958E-04 5.23189E-05 2.46950E-36-9.83329E-05-8.74595E-20-1.38353E-20
 -1      1857-2.24959E-04 6.36104E-05 4.61285E-36-1.55119E-04-3.47365E-19 3.22642E-20
 -1      1858-2.15099E-04 5.18307E-05 5.46067E-36-1.67317E-04-3.29117E-19 5.61267E-21
 -1      1859-2.64809E-04 4.82839E-05 7.61231E-36-2.43405E-04 1.07624E-19-2.38768E-21
 -1      1860-2.41736E-04 2.94818E-05 2.53841E-36-2.47715E-04 1.71143E-19 8.29892E-21
 -1      1861-2.70109E-04 2.89320E-06 4.28027E-36-3.37235E-04-2.50250E-20 7.50233E-22
 -1      1862-2.38750E-04-1.86925E-05 4.73682E-36-3.30396E-04 7.54421E-19-4.37061E-21
 -1      1863-2.37339E-04-7.27217E-05 3.39446E-36-4.22290E-04 9.27121E-20-1.07423E-19
 -1      1864-2.03641E-04-9.17631E-05 4.61086E-36-4.03438E-04 9.17005E-19-6.00656E-20
 -1      1865-1.71036E-04-1.71215E-04 8.12888E-36-4.84352E-04 3.71799E-19 1.83891E-20
 -1      1866-1.40308E-04-1.82936E-04 5.85135E-36-4.55290E-04-3.35451E-20 6.12457E-20
 -1      1867-8.27490E-05-2.79307E-04 9.51937E-36-5.13975E-04 2.36139E-19 1.32002E-19
 -1      1868-5.84450E-05-2.80935E-04 4.34328E-36-4.78371E-04 4.16466E-19-1.92827E-20
 -1      1869 1.28299E-05-3.81990E-04 5.31716E-36-5.09216E-04 4.73427E-20-3.48497E-20
 -1      1870 2.94138E-05-3.73274E-04 2.55911E-36-4.71235E-04 4.69878E-19-1.74737E-20
 -1      1871 1.02392E-04-4.67076E-04 3.21686E-36-4.75159E-04-7.56147E-20-5.55898E-20
 -1      1872 1.11658E-04-4.49794E-04 3.14035E-36-4.38284E-04-3.87714E-19 2.28365E-20
 -1      1873 1.77039E-04-5.27864E-04 3.31523E-36-4.21038E-04-9.20939E-19 5.38936E-20
 -1      1874 1.80324E-04-5.04797E-04 2.90203E-36-3.87516E-04 2.84085E-19 4.60410E-20
 -1      1875 2.32984E-04-5.63280E-04 3.95232E-36-3.56857E-04 2.60329E-19-5.06935E-20
 -1      1876 2.31906E-04-5.37257E-04 4.13730E-36-3.27724E-04-5.42600E-19-7.77986E-20
 -1      1877 2.70536E-04-5.76306E-04 1.22617E-35-2.90995E-04 1.01484E-19-7.59189E-20
 -1      1878 2.66585E-04-5.49631E-04 7.81746E-36-2.66409E-04-6.00449E-20-1.14362E-19
 -1      1879 2.92425E-04-5.71949E-04 4.33618E-36-2.29202E-04-2.17384E-19-4.51151E-20
 -1      1880 2.86799E-04-5.46229E-04 7.37475E-36-2.08817E-04 3.95740E-19-3.74579E-21
 -1      1881 3.02308E-04-5.55604E-04 3.09914E-36-1.74679E-04 7.61662E-20 8.82333E-20
 -1      1882 2.95897E-04-5.31822E-04 4.84052E-36-1.57938E-04-7.84890E-19-1.11947E-20
 -1      1883 3.03789E-04-5.32094E-04 7.35973E-36-1.28669E-04-5.29146E-20 1.31677E-20
 -1      1884 2.97220E-04-5.10780E-04 6.12580E-36-1.14986E-04 9.22307E-19 2.29077E-20
 -1      1885 2.99941E-04-5.05286E-04 5.86331E-36-9.11558E-05-8.71621E-20-3.82298E-20
 -1      1886 2.93648E-04-4.86696E-04 3.67470E-36-8.00080E-05-2.31511E-19 7.30920E-20
 -1      1887 2.93168E-04-4.78090E-04 4.38830E-36-6.14449E-05 1.11942E-19-1.69275E-20
 -1      1888 2.87457E-04-4.62344E-04 3.03666E-36-5.24163E-05-1.05977E-19-1.72059E-20
 -1      1889 2.85263E-04-4.52625E-04 2.19645E-36-3.85790E-05-1.72593E-19 6.62186E-21
 -1      1890 2.80366E-04-4.39813E-04 1.65078E-36-3.13757E-05 1.08339E-19-3.61328E-21
 -1      1891 2.77534E-04-4.30465E-04 2.28631E-36-2.16045E-05-3.83497E-19-1.39792E-20
 -1      1892 2.73664E-04-4.20731E-04 2.40375E-36-1.60678E-05-1.43039E-19 1.52045E-20
 -1      1893 2.70957E-04-4.12901E-04 2.03326E-36-9.74847E-06 7.68839E-20-5.89939E-21
 -1      1894 2.68372E-04-4.06499E-04 2.35046E-36-5.88028E-06-9.13883E-20-1.62298E-20
 -1      1895 2.66242E-04-4.00966E-04 4.65358E-37-2.62399E-06 2.12936E-19 2.98947E-22
 -1      1896 2.65398E-04-3.98664E-04 1.77301E-36-6.53856E-07-2.86492E-19 2.76346E-21
 -1      1897 3.64942E-07-3.54132E-07 2.79340E-36-1.62377E-08 5.64075E-19 7.79091E-20
 -1      1898-2.49170E-05 9.82526E-06 7.62943E-36-8.36688E-06-2.43168E-20-1.09530E-19
 -1      1899-5.84920E-05 2.14527E-05 5.70960E-37-2.44939E-05 1.29947E-19-1.39496E-20
 -1      1900-7.54909E-05 2.67617E-05 3.94312E-36-3.55711E-05-2.98589E-19 1.90154E-20
 -1      1901-1.16538E-04 3.90418E-05 7.68620E-36-6.24661E-05-2.74895E-19 8.56320E-20
 -1      1902-1.22858E-04 3.81098E-05 9.58355E-36-7.44706E-05 7.53167E-19 1.44184E-20
 -1      1903-1.67665E-04 4.75819E-05 7.41865E-36-1.14663E-04-2.20167E-19-8.71124E-21
 -1      1904-1.62868E-04 4.01534E-05 3.82815E-36-1.25162E-04 6.96342E-20-1.04497E-20
 -1      1905-2.04704E-04 4.13663E-05 3.40093E-36-1.79714E-04-4.46150E-20-6.09369E-21
 -1      1906-1.89635E-04 2.81600E-05 3.07578E-36-1.85860E-04-1.14739E-18-8.97734E-21
 -1      1907-2.20361E-04 1.51842E-05 6.57599E-36-2.52813E-04-4.56913E-19 3.58899E-20
 -1      1908-1.97371E-04-1.83975E-06 8.57174E-36-2.52007E-04-5.21080E-20-2.78430E-21
 -1      1909-2.09390E-04-3.38555E-05 8.15408E-36-3.25806E-04-4.30029E-19-2.44458E-20
 -1      1910-1.81996E-04-5.16252E-05 2.75578E-36-3.16418E-04 2.71495E-19-9.36469E-21
 -1      1911-1.70769E-04-1.04432E-04 3.98930E-36-3.88521E-04 6.09734E-19-4.00361E-21
 -1      1912-1.42875E-04-1.19402E-04 4.38975E-36-3.70438E-04 1.43839E-19 8.98703E-20
 -1      1913-1.08780E-04-1.90288E-04 4.07053E-36-4.31398E-04 8.14896E-19 2.07630E-20
 -1      1914-8.37550E-05-1.99387E-04 1.00538E-35-4.06094E-04 5.72865E-19-5.77279E-20
 -1      1915-3.21819E-05-2.81406E-04 6.19305E-36-4.48374E-04 7.50336E-20-1.64544E-19
 -1      1916-1.22065E-05-2.82860E-04 1.64346E-36-4.18417E-04-7.99259E-20 2.69665E-20
 -1      1917 4.82966E-05-3.66764E-04 2.32568E-36-4.38570E-04-7.58979E-19 1.71141E-19
 -1      1918 6.23886E-05-3.60417E-04 5.66304E-36-4.06833E-04 2.31521E-19 1.56927E-19
 -1      1919 1.22923E-04-4.37347E-04 1.06424E-35-4.06013E-04-8.56783E-19-1.34111E-19
 -1      1920 1.31384E-04-4.24399E-04 4.16078E-36-3.74965E-04 2.15654E-19-3.34025E-20
 -1      1921 1.85059E-04-4.88051E-04 5.49007E-36-3.57764E-04 3.05304E-19 8.34720E-20
 -1      1922 1.88785E-04-4.70445E-04 8.46387E-36-3.29097E-04 6.85586E-19-8.42273E-20
 -1      1923 2.31784E-04-5.17939E-04 3.70134E-36-3.01590E-04 6.97633E-20-2.47399E-20
 -1      1924 2.31906E-04-4.97743E-04 1.02230E-35-2.76190E-04 2.47212E-19 1.21038E-20
 -1      1925 2.63283E-04-5.29250E-04 2.96482E-36-2.44177E-04 4.47066E-19-2.98165E-20
 -1      1926 2.60903E-04-5.08243E-04 3.29654E-36-2.22299E-04-7.31963E-19 4.49403E-20
 -1      1927 2.81697E-04-5.25952E-04 6.57181E-36-1.90271E-04 4.53047E-20 3.43907E-20
 -1      1928 2.77755E-04-5.05462E-04 2.46054E-36-1.71780E-04-6.91969E-19 3.70035E-20
 -1      1929 2.89999E-04-5.12485E-04 3.49079E-36-1.42631E-04-3.89513E-19-5.62677E-20
 -1      1930 2.85241E-04-4.93404E-04 2.97013E-36-1.27200E-04-3.97446E-19-6.36064E-20
 -1      1931 2.91205E-04-4.92953E-04 2.24453E-36-1.02424E-04-9.86482E-20-8.68385E-21
 -1      1932 2.86198E-04-4.75842E-04 3.84540E-36-8.96732E-05-7.03238E-20-1.35818E-20
 -1      1933 2.87957E-04-4.70766E-04 3.47890E-36-6.97505E-05 1.59019E-19 5.01357E-21
 -1      1934 2.83131E-04-4.55978E-04 8.83808E-37-5.93329E-05-2.78248E-19-3.67414E-20
 -1      1935 2.82380E-04-4.48593E-04 3.39521E-36-4.41251E-05 1.11409E-19 1.45779E-20
 -1      1936 2.78073E-04-4.36386E-04 3.22944E-36-3.57766E-05 1.95463E-19 2.92804E-20
 -1      1937 2.76110E-04-4.28496E-04 2.69731E-36-2.48412E-05 1.27611E-19-4.18329E-21
 -1      1938 2.72613E-04-4.19122E-04 2.65420E-36-1.84186E-05 5.02082E-20 3.83769E-21
 -1      1939 2.70391E-04-4.12146E-04 3.20000E-36-1.12441E-05-3.75399E-20 3.47010E-20
 -1      1940 2.68013E-04-4.05926E-04 2.01244E-36-6.76777E-06-4.30537E-20 6.15262E-21
 -1      1941 2.66156E-04-4.00872E-04 1.05482E-36-3.01335E-06 2.40724E-20-1.21798E-20
 -1      1942 2.65325E-04-3.98554E-04 2.15566E-36-7.69241E-07-6.34495E-20 6.07689E-21
 -1      1943 2.87161E-07-3.20304E-07 5.36190E-36-8.16538E-08-4.03883E-19 1.25906E-19
 -1      1944-1.83233E-05 6.99294E-06 3.81652E-36-7.06907E-06-5.82182E-19-6.24426E-21
 -1      1945-4.26684E-05 1.49608E-05 7.49369E-36-1.98903E-05 6.43730E-19-1.19271E-19
 -1      1946-5.57702E-05 1.89632E-05 4.96144E-36-2.86078E-05-2.19627E-19-7.73597E-21
 -1      1947-8.57017E-05 2.75468E-05 4.07790E-36-4.87810E-05 2.50311E-19 7.56586E-21
 -1      1948-9.14667E-05 2.72452E-05 1.67698E-36-5.81817E-05 1.50835E-20-6.78118E-21
 -1      1949-1.25237E-04 3.45454E-05 4.04748E-36-8.75749E-05-7.53440E-19-1.11030E-21
 -1      1950-1.23135E-04 2.96346E-05 1.30694E-36-9.62827E-05 5.47710E-19-1.82450E-20
 -1      1951-1.56824E-04 3.22502E-05 3.35565E-36-1.36172E-04 6.12664E-19-2.83300E-21
 -1      1952-1.46971E-04 2.28775E-05 1.12638E-35-1.42431E-04 1.59437E-18 1.07412E-20
 -1      1953-1.75349E-04 1.67727E-05 5.50255E-36-1.92532E-04-4.27673E-19-7.90093E-21
 -1      1954-1.58749E-04 3.75703E-06 3.01787E-36-1.94507E-04-2.52379E-19 1.86741E-20
 -1      1955-1.76068E-04-1.50981E-05 4.37440E-36-2.52345E-04 4.43663E-19-2.95339E-20
 -1      1956-1.54618E-04-3.01552E-05 3.91145E-36-2.48498E-04-6.71687E-19 8.31023E-20
 -1      1957-1.56017E-04-6.45930E-05 3.10081E-36-3.09182E-04-7.79690E-20-3.67364E-20
 -1      1958-1.32246E-04-7.94529E-05 3.88345E-36-2.98681E-04 9.58872E-19 5.95886E-20
 -1      1959-1.15358E-04-1.29827E-04 8.06950E-36-3.55553E-04 1.03262E-18 6.48402E-20
 -1      1960-9.19278E-05-1.42035E-04 3.75422E-37-3.38563E-04-1.77388E-19-8.02761E-21
 -1      1961-5.79584E-05-2.05467E-04 1.01215E-35-3.84730E-04 3.77458E-19-1.10018E-20
 -1      1962-3.71169E-05-2.12935E-04 4.29339E-36-3.62416E-04 4.57346E-19 1.95800E-20
 -1      1963 9.27292E-06-2.83642E-04 2.37442E-36-3.92669E-04-2.38927E-19-1.46535E-19
 -1      1964 2.60704E-05-2.85162E-04 2.02173E-36-3.66892E-04-4.83016E-19-3.13908E-20
 -1      1965 7.81380E-05-3.55892E-04 4.82577E-36-3.79136E-04-4.02996E-20-1.65679E-20
 -1      1966 9.03208E-05-3.51350E-04 3.22191E-36-3.51963E-04-2.28561E-19-5.80456E-20
 -1      1967 1.41235E-04-4.15302E-04 2.27296E-36-3.47511E-04 1.25781E-19 1.25223E-19
 -1      1968 1.48961E-04-4.05537E-04 4.83657E-36-3.20764E-04-6.31335E-23-9.90310E-20
 -1      1969 1.93488E-04-4.57923E-04 7.17638E-36-3.03470E-04-1.08375E-18 1.29987E-19
 -1      1970 1.97374E-04-4.44346E-04 8.44637E-37-2.78467E-04-3.38184E-19-4.15043E-20
 -1      1971 2.32658E-04-4.83041E-04 9.15349E-36-2.53284E-04 7.62966E-20-2.08562E-21
 -1      1972 2.33526E-04-4.67215E-04 3.58704E-36-2.30789E-04-3.31633E-19 1.14136E-19
 -1      1973 2.58957E-04-4.92498E-04 4.93216E-36-2.02433E-04 1.52931E-20 2.91290E-20
 -1      1974 2.57644E-04-4.75837E-04 5.88779E-36-1.82756E-04-9.71210E-21 8.20914E-20
 -1      1975 2.74189E-04-4.89614E-04 1.73969E-36-1.54896E-04-6.30902E-19 2.28711E-21
 -1      1976 2.71455E-04-4.73243E-04 4.87448E-36-1.38039E-04 1.05241E-19-1.14211E-19
 -1      1977 2.80886E-04-4.78186E-04 3.37104E-36-1.13049E-04-1.72537E-19-1.07860E-19
 -1      1978 2.77374E-04-4.62928E-04 2.74877E-36-9.88504E-05 2.30269E-19 1.38229E-20
 -1      1979 2.81657E-04-4.61817E-04 4.07408E-36-7.79520E-05 3.42989E-19 5.75302E-20
 -1      1980 2.77893E-04-4.48258E-04 2.60241E-36-6.61977E-05 3.29520E-20-4.19405E-20
 -1      1981 2.78834E-04-4.43590E-04 1.94324E-36-4.97743E-05 9.12621E-20-5.55214E-20
 -1      1982 2.75251E-04-4.32169E-04 2.42874E-36-4.02773E-05-2.96435E-19-1.87361E-20
 -1      1983 2.74335E-04-4.26022E-04 2.65435E-36-2.82068E-05 1.20969E-20-1.63648E-20
 -1      1984 2.71305E-04-4.17123E-04 2.78004E-36-2.08723E-05 2.76935E-19-7.74389E-21
 -1      1985 2.69679E-04-4.11188E-04 3.18814E-36-1.28179E-05 3.12943E-20-1.25996E-20
 -1      1986 2.67564E-04-4.05212E-04 2.09110E-36-7.70783E-06 1.76663E-19-1.30810E-20
 -1      1987 2.66043E-04-4.00745E-04 1.27691E-36-3.41668E-06 2.31804E-19 4.29090E-21
 -1      1988 2.65238E-04-3.98421E-04 1.07465E-36-8.99212E-07 5.22548E-20-4.59160E-21
 -1      1989 2.18623E-07-2.86413E-07 6.24084E-36-1.06631E-07 8.81145E-20-3.43919E-20
 -1      1990-1.35804E-05 4.94977E-06 1.06151E-36-6.04771E-06 4.93470E-20-5.98297E-20
 -1      1991-3.14074E-05 1.03424E-05 2.48774E-36-1.64746E-05 1.70753E-19 4.22477E-20
 -1      1992-4.14696E-05 1.32551E-05 2.77473E-36-2.35226E-05 8.20280E-20 2.50989E-20
 -1      1993-6.34228E-05 1.91241E-05 2.17165E-36-3.91175E-05-5.61209E-19-2.43912E-20
 -1      1994-6.83207E-05 1.89751E-05 2.63240E-36-4.66098E-05-1.18609E-19-2.08716E-20
 -1      1995-9.36802E-05 2.42882E-05 3.65056E-36-6.87425E-05-5.39916E-19 1.93376E-21
 -1      1996-9.29379E-05 2.08146E-05 1.73700E-36-7.58866E-05-2.77729E-19-1.76792E-21
 -1      1997-1.19407E-04 2.34042E-05 3.58835E-36-1.05689E-04-5.65226E-19-3.19473E-21
 -1      1998-1.12868E-04 1.65539E-05 1.24492E-36-1.11401E-04 4.10072E-19-4.56796E-21
 -1      1999-1.37162E-04 1.37247E-05 2.32685E-36-1.49222E-04 2.63323E-19-1.43946E-20
 -1      2000-1.25172E-04 3.78500E-06 3.31843E-36-1.52268E-04-1.74475E-19 4.03220E-20
 -1      2001-1.43268E-04-7.48052E-06 3.40457E-36-1.97206E-04-3.71368E-20 6.01071E-20
 -1      2002-1.26761E-04-1.97462E-05 3.13474E-36-1.96378E-04 3.23448E-19-3.76472E-20
 -1      2003-1.34570E-04-4.21803E-05 5.19700E-36-2.45882E-04 6.87565E-19-2.68811E-21
 -1      2004-1.15039E-04-5.55003E-05 3.04261E-36-2.40235E-04-6.48070E-19 2.73844E-20
 -1      2005-1.09429E-04-9.06880E-05 1.19617E-36-2.90100E-04-1.21136E-18 5.15413E-20
 -1      2006-8.87241E-05-1.03401E-04 3.63644E-36-2.79207E-04-3.55828E-19 4.10914E-20
 -1      2007-6.85990E-05-1.50925E-04 1.79321E-36-3.24164E-04-3.77307E-19 1.20846E-19
 -1      2008-4.86037E-05-1.61263E-04 6.26174E-36-3.08275E-04 7.58339E-19-1.00948E-19
 -1      2009-1.55543E-05-2.18281E-04 3.28631E-36-3.43167E-04 1.77549E-19 3.06550E-20
 -1      2010 2.16244E-06-2.24755E-04 4.88414E-36-3.23201E-04-6.06776E-20 1.31860E-20
 -1      2011 4.40620E-05-2.86355E-04 2.60415E-36-3.44358E-04-7.79983E-19-9.77139E-20
 -1      2012 5.84787E-05-2.88090E-04 4.62363E-36-3.21704E-04 3.45552E-19 1.52272E-20
 -1      2013 1.03748E-04-3.48412E-04 7.73579E-36-3.27932E-04 5.58875E-19 1.22810E-19
 -1      2014 1.14449E-04-3.45311E-04 2.01509E-36-3.04135E-04 4.08092E-19-5.50500E-20
 -1      2015 1.57694E-04-3.98996E-04 1.71051E-36-2.96867E-04 2.76973E-19-1.90605E-19
 -1      2016 1.64775E-04-3.91664E-04 3.07081E-36-2.73327E-04-4.77359E-19 1.03258E-19
 -1      2017 2.01948E-04-4.35027E-04 2.57312E-36-2.55930E-04-5.87982E-19 1.77593E-19
 -1      2018 2.05846E-04-4.24525E-04 4.54309E-36-2.33713E-04-4.44666E-19 6.61827E-21
 -1      2019 2.34827E-04-4.56042E-04 3.20904E-36-2.10363E-04 8.20473E-19-8.48788E-20
 -1      2020 2.36156E-04-4.43596E-04 3.80866E-36-1.90148E-04 2.58703E-19-2.02918E-20
 -1      2021 2.56638E-04-4.63698E-04 2.75414E-36-1.64779E-04 9.78127E-20 1.78954E-19
 -1      2022 2.56063E-04-4.50474E-04 1.24654E-36-1.46911E-04-9.42256E-20-4.94845E-20
 -1      2023 2.69013E-04-4.60921E-04 1.05422E-36-1.22565E-04-1.02765E-19-9.06466E-20
 -1      2024 2.67173E-04-4.47904E-04 3.95651E-36-1.07150E-04 2.93978E-19 8.36076E-21
 -1      2025 2.74205E-04-4.51092E-04 4.28244E-36-8.57822E-05 9.65257E-20 5.37788E-21
 -1      2026 2.71673E-04-4.39065E-04 1.87473E-36-7.27952E-05 2.22906E-19-1.38791E-20
 -1      2027 2.74548E-04-4.37477E-04 1.67652E-36-5.53965E-05 7.84329E-20 1.33837E-19
 -1      2028 2.71831E-04-4.27060E-04 1.54475E-36-4.47785E-05 2.53676E-19 7.90987E-20
 -1      2029 2.72155E-04-4.22955E-04 8.38430E-37-3.16486E-05-2.27958E-19 1.04508E-20
 -1      2030 2.69697E-04-4.14672E-04 2.81742E-36-2.33926E-05 1.24838E-19-5.29146E-20
 -1      2031 2.68792E-04-4.09984E-04 2.64873E-36-1.44530E-05 9.15671E-20-4.39383E-21
 -1      2032 2.67007E-04-4.04331E-04 2.75230E-36-8.69180E-06 1.56484E-20-4.32021E-20
 -1      2033 2.65894E-04-4.00574E-04 7.75406E-37-3.82755E-06-1.39741E-19-9.15935E-21
 -1      2034 2.65135E-04-3.98261E-04 1.63627E-36-1.04509E-06 7.39101E-20 6.91616E-21
 -1      2035 1.59428E-07-2.52168E-07 1.38906E-36-1.14053E-07 2.21025E-19 4.74978E-20
 -1      2036-1.01038E-05 3.44780E-06 2.08920E-36-5.21863E-06-4.50007E-19 2.93186E-20
 -1      2037-2.32320E-05 6.98862E-06 1.79775E-36-1.38407E-05 1.70422E-19-2.80137E-20
 -1      2038-3.09264E-05 9.01667E-06 2.82481E-36-1.96660E-05 9.62794E-20-2.27934E-20
 -1      2039-4.70732E-05 1.28828E-05 5.39026E-36-3.20107E-05 4.58390E-19-1.51399E-20
 -1      2040-5.10545E-05 1.26681E-05 2.56750E-36-3.80860E-05 7.22247E-19-1.95927E-20
 -1      2041-7.00430E-05 1.63195E-05 1.04714E-36-5.51774E-05-1.73623E-19-1.10296E-20
 -1      2042-6.99179E-05 1.36549E-05 3.72095E-36-6.10406E-05 5.32730E-19 6.52314E-21
 -1      2043-9.03909E-05 1.56725E-05 2.79515E-36-8.37843E-05-9.85858E-20 4.37435E-21
 -1      2044-8.59267E-05 1.04532E-05 1.73639E-36-8.87591E-05-6.50660E-20 1.21676E-20
 -1      2045-1.05838E-04 9.03586E-06 1.30820E-36-1.17680E-04-9.43842E-20-1.09651E-20
 -1      2046-9.70749E-05 1.31713E-06 3.21833E-36-1.20951E-04-2.32613E-19-3.56345E-20
 -1      2047-1.13718E-04-5.69772E-06 2.15905E-36-1.55891E-04 5.76387E-19 8.66660E-20
 -1      2048-1.01060E-04-1.55930E-05 2.90616E-36-1.56578E-04 2.17966E-19 1.45169E-20
 -1      2049-1.11344E-04-3.04535E-05 3.06477E-36-1.96342E-04-1.13408E-19-9.74247E-20
 -1      2050-9.55990E-05-4.18644E-05 2.49832E-36-1.93626E-04 3.51454E-19 3.67402E-20
 -1      2051-9.65938E-05-6.64103E-05 4.77604E-36-2.35771E-04-2.61670E-19 8.27588E-20
 -1      2052-7.89327E-05-7.83305E-05 2.12054E-36-2.29049E-04 1.45155E-19-7.21610E-20
 -1      2053-6.86351E-05-1.13346E-04 5.64449E-36-2.69972E-04 1.09919E-18-1.14205E-19
 -1      2054-5.04450E-05-1.24513E-04 1.41362E-36-2.59024E-04-3.20630E-19 1.22586E-19
 -1      2055-2.85384E-05-1.69139E-04 4.14528E-36-2.94492E-04-2.87634E-19 2.76072E-19
 -1      2056-1.11980E-05-1.78232E-04 2.64223E-36-2.79577E-04-1.10776E-18-2.47061E-19
 -1      2057 2.05494E-05-2.29732E-04 1.98721E-36-3.05657E-04 6.73519E-19-1.61514E-20
 -1      2058 3.58973E-05-2.35637E-04 2.83528E-36-2.87506E-04-7.52879E-19 5.88158E-20
 -1      2059 7.38768E-05-2.89757E-04 3.04340E-36-3.01598E-04 1.98287E-19-5.43062E-20
 -1      2060 8.64797E-05-2.91806E-04 3.82466E-36-2.81279E-04 9.70970E-20-1.25915E-20
 -1      2061 1.26124E-04-3.43696E-04 9.97007E-37-2.82825E-04-4.92491E-19 2.07051E-19
 -1      2062 1.35661E-04-3.41796E-04 3.55803E-36-2.61538E-04-1.81358E-19-7.88587E-20
 -1      2063 1.72620E-04-3.87152E-04 2.93523E-36-2.52072E-04-4.86981E-19 6.18705E-20
 -1      2064 1.79142E-04-3.81751E-04 4.52171E-36-2.30939E-04-1.42627E-19 3.10442E-20
 -1      2065 2.10252E-04-4.17724E-04 1.51603E-36-2.13504E-04 3.07575E-19-5.78065E-20
 -1      2066 2.14081E-04-4.09652E-04 4.19118E-36-1.93425E-04 3.78304E-19 4.63634E-20
 -1      2067 2.37806E-04-4.35216E-04 1.33059E-36-1.71642E-04-2.65115E-19 1.11153E-19
 -1      2068 2.39421E-04-4.25477E-04 1.44423E-36-1.53248E-04 1.20785E-19 8.21194E-20
 -1      2069 2.55728E-04-4.41237E-04 4.74388E-36-1.30468E-04 1.02297E-19 9.57712E-20
 -1      2070 2.55682E-04-4.30832E-04 1.67484E-36-1.14139E-04-1.09002E-21 1.40756E-19
 -1      2071 2.65584E-04-4.38498E-04 2.18657E-36-9.29212E-05-4.70627E-20-9.27655E-20
 -1      2072 2.64439E-04-4.28328E-04 2.87376E-36-7.88621E-05 2.34238E-19-4.68294E-21
 -1      2073 2.69461E-04-4.30130E-04 1.07197E-36-6.08223E-05 1.53853E-20 8.22061E-21
 -1      2074 2.67755E-04-4.20967E-04 1.65801E-36-4.91479E-05 5.03709E-20 8.01788E-21
 -1      2075 2.69515E-04-4.19200E-04 2.03244E-36-3.50926E-05-1.76770E-19-9.40046E-21
 -1      2076 2.67746E-04-4.11705E-04 1.19748E-36-2.59268E-05-2.29324E-19 3.46493E-21
 -1      2077 2.67702E-04-4.08485E-04 1.99230E-36-1.61237E-05 4.68550E-20 3.57684E-21
 -1      2078 2.66325E-04-4.03257E-04 1.32328E-36-9.70552E-06-2.64942E-20-1.03218E-20
 -1      2079 2.65701E-04-4.00346E-04 9.26272E-37-4.23736E-06 8.36918E-20-5.56550E-21
 -1      2080 2.65016E-04-3.98074E-04 1.40937E-36-1.20746E-06-6.64325E-20-1.60142E-20
 -1      2081 1.10104E-07-2.22723E-07 4.45642E-36-1.13749E-07 6.61696E-19 3.01076E-20
 -1      2082-7.51503E-06 2.32596E-06 1.55322E-36-4.52859E-06 1.98109E-19 1.00204E-20
 -1      2083-1.71980E-05 4.51270E-06 1.37162E-36-1.17464E-05 8.01569E-20 3.19867E-20
 -1      2084-2.30421E-05 5.82789E-06 2.66428E-36-1.66445E-05-3.07533E-19-7.35023E-21
 -1      2085-3.49112E-05 8.20733E-06 2.17973E-36-2.65957E-05-2.90571E-19 1.45299E-21
 -1      2086-3.80363E-05 7.83585E-06 1.16682E-36-3.15981E-05-4.21834E-19-1.29567E-21
 -1      2087-5.21975E-05 1.01511E-05 3.39095E-36-4.50789E-05 2.64577E-19-4.71065E-21
 -1      2088-5.22860E-05 7.93120E-06 3.58195E-36-4.99139E-05-4.11292E-20 1.31184E-20
 -1      2089-6.79311E-05 9.22640E-06 2.57905E-36-6.76152E-05-2.79478E-19-3.62310E-21
 -1      2090-6.47499E-05 5.05372E-06 1.74276E-36-7.18544E-05 5.52608E-19 3.65556E-20
 -1      2091-8.06043E-05 4.11096E-06 2.60001E-36-9.42942E-05-3.21674E-19 5.78824E-20
 -1      2092-7.40667E-05-2.05119E-06 2.20352E-36-9.73987E-05 8.01495E-20-1.55646E-20
 -1      2093-8.83468E-05-6.75704E-06 1.20306E-36-1.24732E-04-8.57869E-20-2.23160E-20
 -1      2094-7.85780E-05-1.48034E-05 2.11815E-36-1.26082E-04-4.90498E-19 3.27764E-20
 -1      2095-8.90740E-05-2.49977E-05 2.16553E-36-1.57848E-04 1.74151E-19 1.04777E-19
 -1      2096-7.64669E-05-3.46190E-05 9.94751E-37-1.56802E-04-3.74168E-19 8.99135E-20
 -1      2097-8.07940E-05-5.19745E-05 1.19769E-36-1.91687E-04 1.22278E-19-1.69142E-19
 -1      2098-6.60293E-05-6.26149E-05 3.40347E-36-1.87669E-04-3.75733E-19-1.38364E-19
 -1      2099-6.20804E-05-8.83413E-05 2.35210E-36-2.23398E-04-4.59741E-19 7.75733E-21
 -1      2100-4.60862E-05-9.91981E-05 2.87060E-36-2.16009E-04 1.42034E-19-7.65168E-20
 -1      2101-3.26251E-05-1.33546E-04 2.94372E-36-2.49483E-04 1.47918E-21-3.71167E-20
 -1      2102-1.64668E-05-1.43635E-04 4.40445E-36-2.38607E-04 5.31139E-19-4.96038E-20
 -1      2103 6.32329E-06-1.85478E-04 6.47953E-36-2.66379E-04-7.80821E-20 3.06839E-20
 -1      2104 2.16009E-05-1.93777E-04 4.21496E-36-2.52257E-04-2.74482E-20-9.11525E-20
 -1      2105 5.18743E-05-2.40500E-04 1.68589E-36-2.71291E-04-4.77220E-19-1.34439E-19
 -1      2106 6.54047E-05-2.46136E-04 1.14979E-36-2.54511E-04-6.80588E-20 2.30931E-20
 -1      2107 9.99201E-05-2.93994E-04 3.98663E-36-2.62989E-04-5.72951E-19-3.61871E-20
 -1      2108 1.11122E-04-2.96431E-04 3.01461E-36-2.44401E-04-3.46698E-19-9.40925E-22
 -1      2109 1.45997E-04-3.41330E-04 3.82205E-36-2.42240E-04-4.44778E-19 8.74898E-21
 -1      2110 1.54608E-04-3.40473E-04 2.89498E-36-2.22817E-04-2.67375E-19 2.79440E-19
 -1      2111 1.86277E-04-3.78913E-04 3.38931E-36-2.11649E-04 1.36032E-19 1.36573E-19
 -1      2112 1.92321E-04-3.75108E-04 3.68449E-36-1.92333E-04-2.83208E-20 1.54001E-19
 -1      2113 2.18313E-04-4.04906E-04 2.43870E-36-1.74981E-04-2.10022E-19 3.40622E-20
 -1      2114 2.22037E-04-3.98831E-04 2.63754E-36-1.56576E-04 3.98103E-19 2.38881E-19
 -1      2115 2.41297E-04-4.19392E-04 4.93156E-36-1.36259E-04-4.29227E-19-7.79191E-20
 -1      2116 2.43096E-04-4.11908E-04 2.67128E-36-1.19380E-04 3.79599E-19-6.18785E-20
 -1      2117 2.55848E-04-4.24030E-04 2.00767E-36-9.90076E-05-1.11418E-19 7.31906E-20
 -1      2118 2.56208E-04-4.16042E-04 2.56750E-36-8.40942E-05 3.77040E-19-1.13186E-19
 -1      2119 2.63537E-04-4.21452E-04 2.63391E-36-6.58419E-05 1.55836E-19 4.22329E-20
 -1      2120 2.62979E-04-4.13818E-04 1.93850E-36-5.32180E-05-1.38815E-19 5.20845E-20
 -1      2121 2.66368E-04-4.14664E-04 1.65318E-36-3.84399E-05 2.66786E-20 3.79286E-20
 -1      2122 2.65410E-04-4.08163E-04 1.70186E-36-2.84021E-05-1.09303E-19 1.06871E-19
 -1      2123 2.66378E-04-4.06638E-04 2.64197E-36-1.77940E-05-1.62564E-20 6.07188E-20
 -1      2124 2.65499E-04-4.01964E-04 2.59884E-36-1.07276E-05 1.72501E-20 3.41120E-20
 -1      2125 2.65450E-04-4.00040E-04 9.38529E-37-4.63539E-06 8.27835E-20-3.33422E-20
 -1      2126 2.64882E-04-3.97860E-04 1.06431E-36-1.38542E-06 7.18681E-21 2.82650E-21
 -1      2127 6.99552E-08-1.98679E-07 1.69651E-36-1.11068E-07-6.42983E-19 2.93051E-21
 -1      2128-5.56163E-06 1.47664E-06 1.02299E-36-3.94204E-06 1.38686E-19 3.00410E-21
 -1      2129-1.26828E-05 2.65872E-06 1.74318E-36-1.00376E-05-1.02851E-19 7.43910E-22
 -1      2130-1.70731E-05 3.39944E-06 5.85554E-37-1.42102E-05-6.81569E-20-1.41670E-20
 -1      2131-2.57578E-05 4.66952E-06 2.05439E-36-2.23401E-05 2.92597E-19-6.26380E-21
 -1      2132-2.81261E-05 4.11148E-06 2.08714E-36-2.65113E-05 1.97211E-20 2.65286E-20
 -1      2133-3.86191E-05 5.37319E-06 2.27182E-36-3.73285E-05 2.96213E-19 8.06181E-21
 -1      2134-3.87079E-05 3.38613E-06 1.06470E-36-4.13382E-05 1.24838E-19 8.41858E-22
 -1      2135-5.05262E-05 3.97749E-06 3.54869E-36-5.53566E-05-3.56156E-20 3.85559E-20
 -1      2136-4.81278E-05 4.73575E-07 2.21240E-36-5.89294E-05 1.03498E-19-1.09780E-19
 -1      2137-6.04744E-05-4.44103E-07 6.02192E-37-7.65962E-05 1.55844E-19 7.42162E-20
 -1      2138-5.54587E-05-5.53125E-06 1.56246E-36-7.93722E-05-3.63720E-19-8.88331E-20
 -1      2139-6.71677E-05-9.03278E-06 3.56098E-36-1.00950E-04-1.03579E-19-9.06124E-21
 -1      2140-5.95240E-05-1.56988E-05 2.81804E-36-1.02497E-04 4.71289E-20 4.08202E-20
 -1      2141-6.90636E-05-2.30670E-05 2.23869E-36-1.27891E-04-2.48233E-20-3.06415E-20
 -1      2142-5.89475E-05-3.11921E-05 1.85465E-36-1.27732E-04 2.75868E-21 6.68941E-20
 -1      2143-6.45131E-05-4.38022E-05 2.49826E-36-1.56305E-04 2.51528E-19-6.09394E-20
 -1      2144-5.22828E-05-5.31097E-05 1.58656E-36-1.53955E-04-5.67672E-20 2.70790E-20
 -1      2145-5.20287E-05-7.21973E-05 2.14239E-36-1.84364E-04-1.28212E-19 5.66266E-20
 -1      2146-3.82538E-05-8.22242E-05 2.37796E-36-1.79404E-04 3.99125E-19-2.21126E-19
 -1      2147-3.06737E-05-1.08542E-04 2.32859E-36-2.09552E-04-7.50779E-19-1.10514E-19
 -1      2148-1.61006E-05-1.18639E-04 4.87990E-37-2.01704E-04-1.66113E-19-1.06129E-19
 -1      2149-4.97892E-07-1.52065E-04 2.27155E-36-2.28908E-04 8.69185E-20 4.65876E-20
 -1      2150 1.40332E-05-1.61446E-04 6.35144E-37-2.18112E-04-3.69832E-19 1.47761E-20
 -1      2151 3.71378E-05-2.00685E-04 3.74555E-36-2.39533E-04 1.33292E-20-2.05557E-19
 -1      2152 5.08076E-05-2.08526E-04 3.81421E-36-2.26002E-04 3.64718E-20 3.81225E-20
 -1      2153 7.95381E-05-2.51077E-04 3.65592E-36-2.39289E-04 7.56925E-19 7.28997E-20
 -1      2154 9.16629E-05-2.56668E-04 4.04882E-36-2.23507E-04 3.68554E-20-6.97015E-20
 -1      2155 1.23070E-04-2.99183E-04 2.78199E-36-2.27441E-04 2.47767E-19-1.79804E-19
 -1      2156 1.33181E-04-3.02071E-04 3.58082E-36-2.10115E-04-3.20277E-20-1.41010E-19
 -1      2157 1.63910E-04-3.41045E-04 2.72559E-36-2.04992E-04 7.80234E-20-2.30818E-20
 -1      2158 1.71782E-04-3.41136E-04 4.40055E-36-1.86948E-04 2.05054E-19 1.51769E-20
 -1      2159 1.98889E-04-3.73711E-04 3.35265E-36-1.74505E-04-2.88152E-19 1.99482E-19
 -1      2160 2.04531E-04-3.71284E-04 3.60330E-36-1.56584E-04-5.89265E-20-1.59056E-19
 -1      2161 2.26108E-04-3.95834E-04 2.32789E-36-1.39498E-04-1.05110E-19-2.03005E-20
 -1      2162 2.29721E-04-3.91475E-04 2.34203E-36-1.22464E-04-1.70212E-20-1.84522E-19
 -1      2163 2.45132E-04-4.07798E-04 1.26128E-36-1.03661E-04-7.81613E-20 5.97979E-20
 -1      2164 2.47068E-04-4.02285E-04 2.62321E-36-8.81618E-05-8.68991E-21-1.09271E-19
 -1      2165 2.56779E-04-4.11392E-04 3.38562E-36-7.02082E-05-5.20957E-20 9.24478E-21
 -1      2166 2.57489E-04-4.05581E-04 2.18445E-36-5.67863E-05-1.15801E-19 3.60752E-21
 -1      2167 2.62676E-04-4.09265E-04 2.46495E-36-4.15641E-05 1.52823E-21 6.61744E-22
 -1      2168 2.62656E-04-4.03994E-04 1.70630E-36-3.07232E-05 3.92425E-20 1.46171E-20
 -1      2169 2.64790E-04-4.04388E-04 1.16749E-36-1.94150E-05-2.74485E-20-5.87681E-21
 -1      2170 2.64508E-04-4.00425E-04 2.17291E-36-1.17273E-05 6.60577E-20 2.63277E-21
 -1      2171 2.65129E-04-3.99636E-04 1.25355E-36-5.00892E-06 2.78997E-19 6.34223E-21
 -1      2172 2.64735E-04-3.97620E-04 8.01196E-37-1.57553E-06 6.79565E-20 6.32544E-21
 -1      2173 3.81867E-08-1.80516E-07 1.94558E-36-1.08475E-07 6.45940E-20-9.61083E-22
 -1      2174-4.07101E-06 8.26272E-07 1.15645E-36-3.43430E-06-5.80983E-20 3.90199E-20
 -1      2175-9.26472E-06 1.25357E-06 8.83253E-37-8.61275E-06 1.35689E-19 2.17550E-21
 -1      2176-1.25050E-05 1.52856E-06 1.83017E-36-1.22002E-05-3.80652E-20 1.50817E-21
 -1      2177-1.87993E-05 1.96831E-06 1.79237E-36-1.89032E-05-4.74977E-19-3.00055E-20
 -1      2178-2.05170E-05 1.22221E-06 1.52907E-36-2.24144E-05 4.38454E-21-8.96904E-21
 -1      2179-2.82120E-05 1.66232E-06 1.00775E-36-3.12107E-05-1.03048E-19 7.59550E-21
 -1      2180-2.81944E-05-2.15372E-07 1.09449E-36-3.45509E-05-7.05162E-20-2.52286E-20
 -1      2181-3.70032E-05-2.44575E-07 2.10357E-36-4.58174E-05 2.78877E-19 5.53401E-20
 -1      2182-3.50734E-05-3.32366E-06 9.57767E-37-4.88068E-05 2.10098E-20 6.67322E-20
 -1      2183-4.44944E-05-4.41267E-06 8.74837E-37-6.29067E-05-1.06087E-19 1.06342E-19
 -1      2184-4.05160E-05-8.76318E-06 1.10303E-36-6.53018E-05-1.49049E-19 4.15648E-20
 -1      2185-4.97880E-05-1.16760E-05 2.11524E-36-8.25097E-05-7.69673E-20 5.21170E-20
 -1      2186-4.36905E-05-1.73361E-05 8.66451E-37-8.40084E-05-1.50825E-19 2.56412E-20
 -1      2187-5.17683E-05-2.30153E-05 2.35730E-36-1.04400E-04 5.42420E-20-6.67977E-20
 -1      2188-4.35793E-05-2.99618E-05 8.89969E-37-1.04652E-04-7.40068E-20 7.09282E-20
 -1      2189-4.91526E-05-3.94850E-05 1.66430E-36-1.27967E-04-2.03619E-19 4.97147E-20
 -1      2190-3.90320E-05-4.76019E-05 3.48340E-36-1.26593E-04 3.79866E-19 5.01304E-20
 -1      2191-4.06255E-05-6.20620E-05 3.00044E-36-1.52091E-04 4.21297E-19-5.39374E-20
 -1      2192-2.88906E-05-7.11100E-05 2.92761E-36-1.48717E-04 8.23936E-20 8.04871E-21
 -1      2193-2.50757E-05-9.14046E-05 6.01107E-37-1.75065E-04-2.09012E-19 1.45453E-19
 -1      2194-1.22049E-05-1.00998E-04 1.07659E-36-1.69371E-04 1.83776E-19 9.79349E-20
 -1      2195-1.92605E-06-1.27537E-04 2.65153E-36-1.94645E-04-2.16678E-19-3.97184E-20
 -1      2196 1.14693E-05-1.37143E-04 1.01992E-36-1.86426E-04-5.67319E-19-2.29298E-20
 -1      2197 2.85132E-05-1.69531E-04 3.34417E-36-2.08286E-04-2.48056E-19 2.86841E-20
 -1      2198 4.17519E-05-1.78503E-04 2.05471E-36-1.97511E-04 4.00578E-19 1.73675E-20
 -1      2199 6.47995E-05-2.15328E-04 7.82498E-37-2.13605E-04-1.38831E-19-1.37084E-19
 -1      2200 7.72172E-05-2.22981E-04 1.51781E-36-2.00461E-04 2.87374E-19-8.63478E-21
 -1      2201 1.04382E-04-2.61842E-04 2.94029E-36-2.08980E-04 1.20711E-20 3.40663E-20
 -1      2202 1.15417E-04-2.67571E-04 1.91045E-36-1.93885E-04-7.91318E-20 6.41791E-20
 -1      2203 1.43985E-04-3.05436E-04 3.03780E-36-1.94095E-04 2.74721E-19 1.36727E-20
 -1      2204 1.53243E-04-3.08845E-04 1.74636E-36-1.77666E-04 1.12353E-19-1.33755E-21
 -1      2205 1.80284E-04-3.42690E-04 1.49434E-36-1.70188E-04 2.03021E-19 5.71443E-20
 -1      2206 1.87570E-04-3.43686E-04 1.96979E-36-1.53176E-04-1.04939E-19 4.91729E-21
 -1      2207 2.10650E-04-3.71191E-04 2.07057E-36-1.39861E-04 2.84645E-19-6.97258E-20
 -1      2208 2.15963E-04-3.70016E-04 2.49262E-36-1.23071E-04 6.96682E-20 9.15741E-20
 -1      2209 2.33661E-04-3.90048E-04 2.31062E-36-1.06514E-04 2.38683E-19-9.76990E-20
 -1      2210 2.37185E-04-3.87240E-04 2.49026E-36-9.07342E-05 2.36735E-19 1.06287E-20
 -1      2211 2.49241E-04-3.99972E-04 1.66103E-36-7.36453E-05-1.59960E-19-3.72173E-21
 -1      2212 2.51308E-04-3.96268E-04 1.90595E-36-5.96209E-05 4.31245E-19-3.28244E-20
 -1      2213 2.58423E-04-4.02944E-04 1.70091E-36-4.43102E-05-1.73938E-19 4.85728E-20
 -1      2214 2.59458E-04-3.99165E-04 2.18663E-36-3.27695E-05-1.42399E-19 4.03511E-20
 -1      2215 2.62914E-04-4.01681E-04 2.19625E-36-2.09233E-05-9.98566E-20-6.02542E-20
 -1      2216 2.63335E-04-3.98618E-04 1.64800E-36-1.26628E-05-1.56244E-19 1.50923E-21
 -1      2217 2.64720E-04-3.99105E-04 1.03730E-36-5.34374E-06 3.83286E-20-1.62796E-20
 -1      2218 2.64578E-04-3.97358E-04 4.87593E-37-1.77036E-06 4.71565E-21-5.00321E-21
 -1      2219 1.40377E-08-1.68314E-07 2.05440E-36-1.07057E-07-4.27567E-19-5.37731E-20
 -1      2220-2.92276E-06 3.23589E-07 9.77588E-37-2.98754E-06 6.52842E-20 4.07492E-20
 -1      2221-6.65201E-06 1.77246E-07 1.55048E-36-7.40168E-06 3.29675E-19-2.91917E-20
 -1      2222-8.97524E-06 7.08446E-08 1.17715E-36-1.05033E-05-1.58162E-19 5.69618E-20
 -1      2223-1.34644E-05-1.10636E-07 1.23904E-36-1.60596E-05-3.71690E-19-2.14982E-20
 -1      2224-1.46303E-05-1.03454E-06 9.24516E-37-1.90326E-05 3.01685E-19-3.98708E-20
 -1      2225-2.01837E-05-1.22994E-06 1.23757E-36-2.62551E-05-2.11732E-19 1.84783E-20
 -1      2226-2.00121E-05-3.07068E-06 1.79791E-36-2.90420E-05 2.29778E-19-2.06226E-20
 -1      2227-2.64637E-05-3.61940E-06 1.83173E-36-3.82049E-05-2.22963E-19 5.60325E-20
 -1      2228-2.48053E-05-6.43206E-06 9.96309E-37-4.06872E-05 9.80031E-20-5.42234E-20
 -1      2229-3.18370E-05-7.75997E-06 1.16478E-36-5.20763E-05-6.29218E-20-4.90657E-20
 -1      2230-2.85648E-05-1.16088E-05 7.60327E-37-5.40859E-05-1.82186E-19-9.83284E-20
 -1      2231-3.56775E-05-1.42667E-05 1.37570E-36-6.79498E-05-2.61146E-19-5.74505E-21
 -1      2232-3.06996E-05-1.92046E-05 1.42393E-36-6.92732E-05 2.87422E-20-5.03555E-20
 -1      2233-3.71846E-05-2.38857E-05 1.31134E-36-8.57528E-05 1.38436E-19-1.59183E-19
 -1      2234-3.04645E-05-2.99354E-05 1.04661E-36-8.61341E-05-1.69333E-20-1.13086E-19
 -1      2235-3.53919E-05-3.74652E-05 2.04999E-36-1.05169E-04 1.89683E-19 6.12267E-20
 -1      2236-2.69746E-05-4.45984E-05 2.88815E-36-1.04318E-04 2.62134E-19 4.66343E-20
 -1      2237-2.92250E-05-5.58803E-05 2.34202E-36-1.25536E-04 1.24719E-20 1.53917E-19
 -1      2238-1.92624E-05-6.39937E-05 3.05460E-36-1.23144E-04 2.63493E-19 3.46987E-20
 -1      2239-1.76289E-05-7.98909E-05 2.16055E-36-1.45743E-04 2.58036E-19-1.61103E-20
 -1      2240-6.39864E-06-8.87821E-05 2.44640E-36-1.41509E-04 1.84535E-19-6.17335E-20
 -1      2241 2.17504E-07-1.09924E-04 4.09703E-37-1.64189E-04-1.30402E-19 2.25840E-19
 -1      2242 1.23099E-05-1.19271E-04 2.96521E-36-1.57861E-04 1.11882E-19-2.26487E-20
 -1      2243 2.46158E-05-1.45799E-04 4.21335E-36-1.78852E-04 1.78558E-19 5.91593E-20
 -1      2244 3.70592E-05-1.55157E-04 2.20255E-36-1.70269E-04-5.36150E-20 1.46856E-19
 -1      2245 5.50528E-05-1.86466E-04 9.88318E-37-1.87521E-04-2.86966E-20 2.55307E-20
 -1      2246 6.72792E-05-1.95286E-04 1.91990E-36-1.76669E-04-8.44055E-20 1.11003E-19
 -1      2247 9.00161E-05-2.29875E-04 2.50324E-36-1.88230E-04 9.33321E-20-8.27803E-21
 -1      2248 1.01468E-04-2.37569E-04 1.70425E-36-1.75284E-04-4.02961E-20-9.02470E-20
 -1      2249 1.27058E-04-2.73117E-04 2.08162E-36-1.79796E-04 1.15784E-19 8.39770E-20
 -1      2250 1.37257E-04-2.79150E-04 2.39312E-36-1.65135E-04-3.92989E-19-4.80138E-20
 -1      2251 1.63178E-04-3.12890E-04 2.39660E-36-1.62282E-04 5.75890E-19 3.87265E-20
 -1      2252 1.71780E-04-3.16903E-04 1.47612E-36-1.46487E-04-5.73669E-20-9.25715E-20
 -1      2253 1.95460E-04-3.46219E-04 1.65882E-36-1.37192E-04 5.87165E-20-5.68501E-20
 -1      2254 2.02291E-04-3.48123E-04 1.94395E-36-1.21003E-04 6.49110E-20-3.94115E-20
 -1      2255 2.21739E-04-3.71172E-04 2.74458E-36-1.07251E-04-1.35232E-19 1.44112E-19
 -1      2256 2.26803E-04-3.71195E-04 1.74919E-36-9.15104E-05-1.13197E-19 1.05704E-19
 -1      2257 2.41034E-04-3.87306E-04 3.21276E-36-7.58648E-05-5.20820E-20 1.41141E-19
 -1      2258 2.44510E-04-3.85961E-04 1.23177E-36-6.14711E-05 3.27289E-19-1.20875E-19
 -1      2259 2.53617E-04-3.95679E-04 2.27895E-36-4.64956E-05-1.28710E-19 8.13849E-21
 -1      2260 2.55811E-04-3.93665E-04 2.15803E-36-3.43956E-05 8.91783E-20-2.38669E-20
 -1      2261 2.60732E-04-3.98471E-04 1.89388E-36-2.22383E-05-1.58758E-20-4.78288E-21
 -1      2262 2.61965E-04-3.96529E-04 2.48482E-36-1.34790E-05 7.27863E-20 7.45703E-22
 -1      2263 2.64210E-04-3.98419E-04 1.17478E-36-5.62475E-06-1.33072E-20 1.99350E-20
 -1      2264 2.64414E-04-3.97079E-04 4.32674E-37-1.95701E-06 1.46122E-19-1.89745E-21
 -1      2265-3.11105E-09-1.62197E-07 5.07818E-37-1.07064E-07 9.79448E-20-2.83392E-20
 -1      2266-2.03148E-06-6.76381E-08 8.88947E-37-2.58840E-06-2.41561E-19-3.33114E-21
 -1      2267-4.63880E-06-6.54998E-07 8.86131E-37-6.35442E-06-2.13847E-19 4.82852E-20
 -1      2268-6.22407E-06-1.07808E-06 8.53893E-37-9.04076E-06-4.21631E-20-7.25427E-20
 -1      2269-9.34585E-06-1.72171E-06 7.41073E-37-1.36548E-05 1.51947E-20-6.15494E-20
 -1      2270-1.00463E-05-2.80972E-06 7.86516E-37-1.61762E-05 4.28544E-20 8.86200E-22
 -1      2271-1.39565E-05-3.49235E-06 3.71615E-37-2.21431E-05-2.16881E-20 1.14616E-19
 -1      2272-1.36154E-05-5.33908E-06 6.22729E-37-2.44620E-05-2.80560E-19 4.72109E-21
 -1      2273-1.82247E-05-6.30857E-06 9.18762E-37-3.19807E-05-1.33230E-19-3.30169E-20
 -1      2274-1.67151E-05-8.95891E-06 1.13656E-36-3.40179E-05 5.01470E-20 1.76834E-19
 -1      2275-2.18202E-05-1.05298E-05 1.02470E-36-4.33096E-05 6.95870E-20 8.13675E-21
 -1      2276-1.90290E-05-1.40399E-05 1.14668E-36-4.49471E-05-7.27806E-20 1.09766E-19
 -1      2277-2.43006E-05-1.66167E-05 1.11757E-36-5.62222E-05-2.12936E-19 6.21122E-20
 -1      2278-2.01328E-05-2.10419E-05 1.81246E-36-5.73062E-05-5.37179E-20-5.68716E-20
 -1      2279-2.50896E-05-2.51382E-05 1.55743E-36-7.07197E-05 3.18217E-19-7.47073E-20
 -1      2280-1.94804E-05-3.05213E-05 1.35630E-36-7.10619E-05-9.32411E-20 9.55744E-20
 -1      2281-2.34697E-05-3.67649E-05 1.35643E-36-8.66516E-05 3.35155E-20 2.18209E-20
 -1      2282-1.64015E-05-4.31226E-05 1.87283E-36-8.60317E-05-4.23722E-20-1.69677E-19
 -1      2283-1.85988E-05-5.22359E-05 1.28433E-36-1.03637E-04-1.17499E-19 2.68265E-19
 -1      2284-1.01218E-05-5.95431E-05 1.51557E-36-1.01809E-04 2.33096E-19-2.14104E-19
 -1      2285-9.57118E-06-7.22817E-05 8.43541E-37-1.20976E-04-4.33380E-20-7.79524E-21
 -1      2286 1.75950E-07-8.04523E-05 1.77343E-36-1.17682E-04-6.75750E-20 4.20864E-20
 -1      2287 4.45966E-06-9.74891E-05 1.98384E-36-1.37577E-04-1.99773E-19 6.93171E-20
 -1      2288 1.52349E-05-1.06355E-04 2.38147E-36-1.32566E-04-1.59968E-20 3.20151E-20
 -1      2289 2.40840E-05-1.28100E-04 2.11795E-36-1.51930E-04 1.59170E-20-2.37408E-19
 -1      2290 3.55396E-05-1.37392E-04 2.33437E-36-1.44993E-04 3.79773E-19 1.61525E-19
 -1      2291 4.93811E-05-1.63767E-04 1.72252E-36-1.62193E-04 1.68678E-19 2.63144E-20
 -1      2292 6.10805E-05-1.73106E-04 2.26378E-36-1.53204E-04 4.48288E-19-1.40619E-19
 -1      2293 7.96687E-05-2.03333E-04 1.41878E-36-1.66438E-04-1.12852E-20-4.88198E-20
 -1      2294 9.11244E-05-2.12241E-04 1.49325E-36-1.55398E-04 2.46718E-20 1.73440E-19
 -1      2295 1.13366E-04-2.44743E-04 3.64437E-36-1.63059E-04-5.65195E-19-6.15766E-20
 -1      2296 1.24093E-04-2.52695E-04 2.30628E-36-1.50142E-04 3.16812E-19-2.56138E-20
 -1      2297 1.48093E-04-2.85217E-04 1.71024E-36-1.51271E-04 3.43331E-19-1.79461E-19
 -1      2298 1.57670E-04-2.91725E-04 1.12909E-36-1.36859E-04-9.84456E-20-6.62177E-20
 -1      2299 1.81071E-04-3.21726E-04 2.50416E-36-1.31525E-04-3.98754E-19 9.52071E-20
 -1      2300 1.89189E-04-3.26450E-04 2.39660E-36-1.16220E-04 4.45147E-20 1.20925E-19
 -1      2301 2.09732E-04-3.51684E-04 2.18832E-36-1.05645E-04-5.95171E-22 9.62503E-20
 -1      2302 2.16233E-04-3.54539E-04 1.18486E-36-9.02516E-05 1.09019E-19-1.79573E-20
 -1      2303 2.32332E-04-3.73613E-04 1.82630E-36-7.65868E-05-5.39443E-19 2.08444E-20
 -1      2304 2.37224E-04-3.74814E-04 1.48021E-36-6.20842E-05-1.46116E-19 9.04903E-20
 -1      2305 2.48305E-04-3.87506E-04 1.58863E-36-4.79149E-05 6.78435E-20 2.31397E-20
 -1      2306 2.51739E-04-3.87523E-04 1.85132E-36-3.54346E-05 5.52531E-20-1.85475E-20
 -1      2307 2.58243E-04-3.94729E-04 2.65936E-36-2.32610E-05 1.54075E-19 3.18286E-20
 -1      2308 2.60389E-04-3.94151E-04 1.76903E-36-1.41068E-05 3.04420E-20-3.15446E-20
 -1      2309 2.63587E-04-3.97550E-04 1.25606E-36-5.83646E-06-1.56572E-19-1.17950E-21
 -1      2310 2.64243E-04-3.96786E-04 7.82270E-37-2.11576E-06-2.50761E-19-4.87904E-21
 -1      2311-1.37257E-08-1.62395E-07 1.04586E-36-1.08229E-07-1.39988E-19-1.98176E-19
 -1      2312-1.33578E-06-3.73277E-07 1.22734E-36-2.22659E-06 9.06234E-20-1.52415E-19
 -1      2313-3.07759E-06-1.30407E-06 8.73799E-37-5.43389E-06 1.72409E-19 1.15279E-19
 -1      2314-4.06307E-06-1.99457E-06 6.43360E-37-7.75409E-06-2.84861E-20 7.21123E-21
 -1      2315-6.14956E-06-2.97738E-06 7.89699E-37-1.15795E-05-5.21956E-20-9.00546E-20
 -1      2316-6.45710E-06-4.21638E-06 1.22495E-36-1.37101E-05-2.41637E-20-1.49398E-19
 -1      2317-9.10606E-06-5.26778E-06 1.44197E-36-1.86531E-05 4.84020E-20 1.38304E-19
 -1      2318-8.59670E-06-7.14658E-06 8.36532E-37-2.05646E-05 1.66531E-19-1.45272E-19
 -1      2319-1.17688E-05-8.44791E-06 9.92446E-37-2.67710E-05 1.32559E-20-2.02993E-19
 -1      2320-1.03323E-05-1.10055E-05 8.42931E-37-2.84096E-05-2.16030E-19 1.04027E-19
 -1      2321-1.38976E-05-1.27942E-05 8.56460E-37-3.60488E-05 1.33220E-19-8.54571E-22
 -1      2322-1.14346E-05-1.60795E-05 1.30956E-36-3.73297E-05 1.32768E-19 5.16548E-20
 -1      2323-1.51732E-05-1.86584E-05 1.11255E-36-4.65738E-05 1.78910E-19 1.29428E-20
 -1      2324-1.15936E-05-2.27245E-05 8.93449E-37-4.73841E-05-1.30345E-19-5.68977E-20
 -1      2325-1.51768E-05-2.64792E-05 1.22631E-36-5.83790E-05-1.51134E-19-4.13508E-20
 -1      2326-1.04061E-05-3.13760E-05 6.20469E-37-5.85779E-05-8.95964E-20-1.16319E-19
 -1      2327-1.33766E-05-3.67851E-05 6.03144E-37-7.14032E-05 3.35192E-20 1.13984E-19
 -1      2328-7.36598E-06-4.25514E-05 1.65277E-36-7.08226E-05-5.15423E-20 1.43313E-19
 -1      2329-9.12607E-06-5.01836E-05 5.77513E-37-8.54352E-05-1.25139E-20 1.41423E-19
 -1      2330-1.86676E-06-5.68370E-05 5.17031E-37-8.38817E-05 1.39184E-19 5.46135E-20
 -1      2331-1.68689E-06-6.73237E-05 1.52990E-36-1.00045E-04 6.42347E-20-1.43601E-19
 -1      2332 6.77276E-06-7.48478E-05 8.88586E-37-9.73049E-05 1.35153E-19-2.38538E-19
 -1      2333 9.70821E-06-8.88182E-05 2.06124E-36-1.14508E-04-1.73834E-19 1.33204E-19
 -1      2334 1.92454E-05-9.71468E-05 1.27279E-36-1.10359E-04-5.11299E-21-2.30767E-20
 -1      2335 2.57351E-05-1.15112E-04 9.07200E-37-1.27748E-04-1.11174E-19 2.73990E-20
 -1      2336 3.61392E-05-1.24109E-04 2.02670E-36-1.21978E-04 2.27337E-20 1.12769E-19
 -1      2337 4.67933E-05-1.46292E-04 1.19806E-36-1.38336E-04 2.68097E-20-1.01825E-19
 -1      2338 5.77625E-05-1.55733E-04 1.15804E-36-1.30770E-04-2.33543E-19-6.21346E-20
 -1      2339 7.27741E-05-1.81868E-04 1.56944E-36-1.44590E-04-2.08195E-19-1.01673E-19
 -1      2340 8.39272E-05-1.91423E-04 2.02436E-36-1.35127E-04 1.81230E-19-1.39380E-21
 -1      2341 1.02844E-04-2.20580E-04 1.92982E-36-1.44830E-04 2.85788E-19 4.55650E-20
 -1      2342 1.13750E-04-2.29820E-04 5.56514E-37-1.33494E-04-6.34393E-20-6.98211E-20
 -1      2343 1.35346E-04-2.60348E-04 2.60953E-36-1.37786E-04 2.48457E-19-6.63129E-20
 -1      2344 1.45570E-04-2.68785E-04 1.83055E-36-1.24781E-04 4.50699E-19-3.59321E-20
 -1      2345 1.67943E-04-2.98485E-04 2.15588E-36-1.23077E-04-2.14439E-19-4.63479E-20
 -1      2346 1.77097E-04-3.05651E-04 2.24795E-36-1.08836E-04 6.91405E-20 2.14419E-20
 -1      2347 1.98035E-04-3.32188E-04 1.94133E-36-1.01589E-04 2.19800E-19 1.61035E-19
 -1      2348 2.05828E-04-3.37745E-04 2.66564E-36-8.68083E-05 9.19253E-20 9.98245E-20
 -1      2349 2.23365E-04-3.59224E-04 1.56416E-36-7.55665E-05-3.89678E-20-5.86437E-20
 -1      2350 2.29640E-04-3.63066E-04 1.31530E-36-6.12254E-05-9.99312E-20 2.84888E-20
 -1      2351 2.42573E-04-3.78532E-04 1.53430E-36-4.83496E-05-4.73737E-20 7.72100E-20
 -1      2352 2.47298E-04-3.80814E-04 1.45300E-36-3.57044E-05 3.20430E-20 5.32025E-20
 -1      2353 2.55462E-04-3.90457E-04 1.81584E-36-2.38731E-05-5.63169E-20-4.67580E-20
 -1      2354 2.58610E-04-3.91496E-04 1.83073E-36-1.44630E-05 1.16161E-19 2.06061E-20
 -1      2355 2.62846E-04-3.96477E-04 1.12051E-36-5.96276E-06 8.83012E-20 1.98891E-20
 -1      2356 2.64063E-04-3.96483E-04 1.00234E-36-2.22005E-06 2.88949E-19-1.36863E-20
 -1      2357-1.81062E-08-1.69321E-07 1.10641E-36-1.09892E-07 1.67892E-21 1.40426E-21
 -1      2358-7.91051E-07-6.11857E-07 6.92836E-37-1.89394E-06-2.89212E-20 1.42927E-19
 -1      2359-1.86137E-06-1.81437E-06 5.76063E-37-4.61152E-06 6.61838E-20 1.13408E-20
 -1      2360-2.35418E-06-2.73499E-06 9.13805E-37-6.59794E-06-7.29564E-20-9.21356E-20
 -1      2361-3.66080E-06-3.96039E-06 6.13888E-37-9.75360E-06 2.83903E-20 1.29972E-19
 -1      2362-3.63554E-06-5.33949E-06 9.20073E-37-1.15337E-05-4.41333E-20 3.82784E-20
 -1      2363-5.31865E-06-6.66428E-06 6.29130E-37-1.56261E-05 4.82313E-20 5.07268E-20
 -1      2364-4.65097E-06-8.59169E-06 7.24263E-37-1.71705E-05-1.84250E-20-1.64953E-20
 -1      2365-6.70484E-06-1.01476E-05 5.12264E-37-2.23093E-05-1.96027E-20 2.39215E-20
 -1      2366-5.29613E-06-1.26601E-05 5.63794E-37-2.35801E-05-5.26499E-20-5.14434E-20
 -1      2367-7.63837E-06-1.46294E-05 8.40436E-37-2.98947E-05-5.45941E-20 9.37292E-20
 -1      2368-5.40075E-06-1.77705E-05 8.09454E-37-3.08294E-05-1.08699E-19 3.14138E-19
 -1      2369-7.88308E-06-2.03848E-05 1.32919E-36-3.84579E-05 1.69310E-19-1.00959E-19
 -1      2370-4.73411E-06-2.42043E-05 5.18071E-37-3.89715E-05-5.83972E-20 1.31213E-20
 -1      2371-7.12937E-06-2.77574E-05 5.22582E-37-4.80420E-05-1.21253E-19-6.35359E-20
 -1      2372-2.99394E-06-3.23068E-05 8.04002E-37-4.80270E-05-6.67795E-20 1.08564E-19
 -1      2373-4.98020E-06-3.71667E-05 7.13295E-37-5.86316E-05 9.36397E-20 1.28480E-19
 -1      2374 2.04100E-07-4.24948E-05 7.02712E-37-5.79581E-05-1.16121E-19-1.32594E-19
 -1      2375-9.42130E-07-4.91077E-05 1.14291E-36-7.01146E-05 8.62878E-20-7.38987E-20
 -1      2376 5.33183E-06-5.52545E-05 7.70532E-37-6.86304E-05 4.07398E-20-1.88242E-19
 -1      2377 5.57107E-06-6.41357E-05 1.22947E-36-8.22315E-05-1.27169E-19 1.65271E-20
 -1      2378 1.29417E-05-7.11253E-05 1.15850E-36-7.97637E-05 2.50650E-19 1.17061E-19
 -1      2379 1.52114E-05-8.28261E-05 6.53765E-37-9.45131E-05-1.51199E-19 2.38759E-19
 -1      2380 2.36372E-05-9.06558E-05 1.87668E-36-9.08732E-05-1.12230E-19-2.01813E-19
 -1      2381 2.86306E-05-1.05695E-04 1.68716E-36-1.06217E-04-3.58379E-19-2.38993E-19
 -1      2382 3.80062E-05-1.14320E-04 1.29081E-36-1.01211E-04 4.22277E-20-1.35840E-19
 -1      2383 4.63616E-05-1.33067E-04 1.99575E-36-1.16287E-04 2.25248E-19 1.06830E-19
 -1      2384 5.65048E-05-1.42383E-04 1.01209E-36-1.09731E-04 4.52111E-20-1.61593E-19
 -1      2385 6.86402E-05-1.64896E-04 7.39325E-37-1.23364E-04-2.43223E-19-1.48978E-19
 -1      2386 7.92863E-05-1.74716E-04 1.25675E-36-1.15114E-04-2.64198E-19 2.12361E-19
 -1      2387 9.51899E-05-2.00558E-04 1.23344E-36-1.25915E-04-1.08275E-19-1.23843E-19
 -1      2388 1.05998E-04-2.10588E-04 1.39606E-36-1.15906E-04-8.11733E-20-6.50300E-20
 -1      2389 1.25031E-04-2.38684E-04 1.46658E-36-1.22503E-04 3.97998E-20 1.21796E-19
 -1      2390 1.35608E-04-2.48524E-04 1.68280E-36-1.10804E-04-7.40835E-20 1.92809E-20
 -1      2391 1.56419E-04-2.77150E-04 1.85268E-36-1.12209E-04-1.18188E-19-4.28406E-20
 -1      2392 1.66356E-04-2.86320E-04 2.75857E-36-9.90948E-05 2.27600E-19 2.10353E-19
 -1      2393 1.87030E-04-3.13317E-04 1.70865E-36-9.51066E-05 1.72097E-19-8.21697E-20
 -1      2394 1.95948E-04-3.21334E-04 1.74054E-36-8.11347E-05-1.67809E-19-4.07206E-21
 -1      2395 2.14405E-04-3.44565E-04 1.15315E-36-7.26198E-05-2.53931E-19 6.60446E-20
 -1      2396 2.21999E-04-3.51040E-04 1.49490E-36-5.86998E-05-1.16340E-19 4.87182E-21
 -1      2397 2.36553E-04-3.68952E-04 1.86039E-36-4.75815E-05 2.11235E-19 1.29979E-19
 -1      2398 2.42593E-04-3.73673E-04 2.13356E-36-3.50182E-05 8.95103E-20-1.53947E-20
 -1      2399 2.52429E-04-3.85700E-04 2.39286E-36-2.39386E-05-4.50949E-20-2.92101E-20
 -1      2400 2.56648E-04-3.88599E-04 2.08621E-36-1.44530E-05-2.65053E-20 6.94532E-20
 -1      2401 2.61999E-04-3.95195E-04 9.09303E-37-5.98504E-06-2.76231E-19-3.88850E-20
 -1      2402 2.63862E-04-3.96164E-04 1.48993E-36-2.23894E-06 2.84555E-19 1.06800E-20
 -1      2403-1.65477E-08-1.83555E-07 4.86520E-37-1.10974E-07-8.12437E-20 6.25796E-20
 -1      2404-3.64754E-07-7.96565E-07 4.39634E-37-1.58379E-06 1.84404E-21-1.00847E-19
 -1      2405-9.11838E-07-2.21870E-06 5.55871E-37-3.86424E-06 2.95427E-20 3.76768E-20
 -1      2406-9.95826E-07-3.34106E-06 5.86280E-37-5.53476E-06 6.65385E-20 5.47385E-20
 -1      2407-1.72181E-06-4.73205E-06 5.86243E-37-8.11600E-06 3.22574E-21-3.70660E-20
 -1      2408-1.41332E-06-6.24295E-06 6.64481E-37-9.56875E-06-1.61890E-20 9.69069E-20
 -1      2409-2.36149E-06-7.76350E-06 6.28151E-37-1.29438E-05 3.08818E-21 1.62661E-19
 -1      2410-1.54981E-06-9.75065E-06 6.12085E-37-1.41440E-05 2.58760E-20 1.58968E-20
 -1      2411-2.73715E-06-1.14950E-05 8.96987E-37-1.83998E-05 5.93420E-20 4.12396E-20
 -1      2412-1.33114E-06-1.39958E-05 6.85079E-37-1.93187E-05 4.22296E-20-6.52106E-20
 -1      2413-2.70718E-06-1.61057E-05 7.26743E-37-2.45547E-05-3.49333E-20-1.66606E-19
 -1      2414-6.27803E-07-1.91605E-05 6.13239E-37-2.51443E-05-2.30200E-20 1.91286E-19
 -1      2415-2.09155E-06-2.18163E-05 6.10811E-37-3.14706E-05-4.13532E-20-6.28686E-20
 -1      2416 7.36352E-07-2.54721E-05 9.01524E-37-3.16648E-05 5.17864E-22 4.40339E-20
 -1      2417-6.55993E-07-2.89017E-05 1.00586E-36-3.91900E-05 1.09865E-19-4.58449E-20
 -1      2418 2.99236E-06-3.32098E-05 9.62129E-37-3.89048E-05-4.59252E-20-2.22419E-19
 -1      2419 1.90049E-06-3.76994E-05 3.57517E-37-4.77191E-05-9.49193E-20 2.53402E-20
 -1      2420 6.43599E-06-4.27129E-05 8.12007E-37-4.68520E-05 2.39533E-20-5.10535E-20
 -1      2421 5.95645E-06-4.86139E-05 7.98026E-37-5.70020E-05 1.61544E-19 1.09522E-19
 -1      2422 1.14359E-05-5.43851E-05 7.48176E-37-5.54321E-05-1.01350E-20 4.66082E-19
 -1      2423 1.19730E-05-6.21139E-05 6.20828E-37-6.68851E-05 6.24440E-20 1.58275E-19
 -1      2424 1.84357E-05-6.86896E-05 9.11758E-37-6.44728E-05-2.36400E-19 3.63043E-20
 -1      2425 2.04865E-05-7.87136E-05 1.52660E-36-7.70694E-05 8.90837E-20 4.88581E-20
 -1      2426 2.79435E-05-8.61297E-05 7.13687E-37-7.36590E-05 2.27828E-20 1.08164E-19
 -1      2427 3.20767E-05-9.89290E-05 1.04492E-36-8.70555E-05-1.38161E-19-5.30678E-20
 -1      2428 4.04984E-05-1.07201E-04 1.21204E-36-8.24797E-05-6.16555E-20 1.48282E-20
 -1      2429 4.72986E-05-1.23195E-04 1.39655E-36-9.60898E-05-9.94900E-21 2.26918E-19
 -1      2430 5.65992E-05-1.32304E-04 1.10020E-36-9.01799E-05-2.27286E-20 1.66919E-20
 -1      2431 6.65620E-05-1.51734E-04 9.74942E-37-1.03137E-04-4.74238E-20-1.56716E-19
 -1      2432 7.65861E-05-1.61606E-04 2.21632E-36-9.57404E-05 1.29073E-19 2.61256E-20
 -1      2433 8.99564E-05-1.84378E-04 1.32067E-36-1.06914E-04 4.08535E-20 4.31272E-20
 -1      2434 1.00470E-04-1.94855E-04 1.10227E-36-9.79259E-05 8.91989E-20-1.35408E-19
 -1      2435 1.17046E-04-2.20365E-04 1.42642E-36-1.06043E-04-7.13846E-20-5.43736E-20
 -1      2436 1.27736E-04-2.31179E-04 1.63827E-36-9.54535E-05-6.85184E-20-1.23195E-19
 -1      2437 1.46696E-04-2.58202E-04 9.38880E-37-9.93542E-05-1.44688E-19 1.27583E-19
 -1      2438 1.57185E-04-2.68951E-04 1.84588E-36-8.73213E-05 2.69993E-20-2.97348E-20
 -1      2439 1.77051E-04-2.95676E-04 1.31838E-36-8.63386E-05 1.07627E-19 1.69617E-19
 -1      2440 1.86922E-04-3.05840E-04 1.56072E-36-7.32851E-05-5.22307E-20-1.14414E-19
 -1      2441 2.05753E-04-3.30140E-04 2.20660E-36-6.76415E-05-3.30443E-20-1.89293E-19
 -1      2442 2.14581E-04-3.39136E-04 2.47897E-36-5.43687E-05 1.05893E-19 1.44853E-19
 -1      2443 2.30419E-04-3.59051E-04 1.48847E-36-4.54112E-05 1.69561E-19 1.28521E-19
 -1      2444 2.37774E-04-3.66307E-04 1.85425E-36-3.31983E-05 7.30287E-20-4.58171E-20
 -1      2445 2.49212E-04-3.80559E-04 1.96950E-36-2.33090E-05 1.32869E-19 3.44138E-20
 -1      2446 2.54550E-04-3.85527E-04 1.61316E-36-1.39744E-05 5.13010E-20 7.97551E-20
 -1      2447 2.61073E-04-3.93725E-04 1.08422E-36-5.87810E-06 1.67717E-19-2.90243E-20
 -1      2448 2.63623E-04-3.95821E-04 1.41792E-36-2.14341E-06 2.04540E-20-2.56689E-21
 -1      2449-8.98649E-09-2.06048E-07 3.25905E-37-1.09961E-07-2.14610E-20 1.89690E-20
 -1      2450-3.31954E-08-9.36610E-07 3.56200E-37-1.29053E-06-2.70190E-20 4.15690E-20
 -1      2451-1.71723E-07-2.54134E-06 5.62369E-37-3.17241E-06-2.16396E-21 1.33943E-19
 -1      2452 8.61491E-08-3.84331E-06 5.64197E-37-4.53114E-06-3.28018E-20-2.76409E-19
 -1      2453-2.16568E-07-5.33801E-06 3.33324E-37-6.61785E-06-3.59195E-20-2.77175E-20
 -1      2454 3.33469E-07-6.97442E-06 5.85384E-37-7.75004E-06 2.37039E-20 1.70438E-19
 -1      2455-6.21486E-08-8.62698E-06 6.41883E-37-1.05143E-05-1.69400E-20 7.19340E-20
 -1      2456 8.76161E-07-1.06815E-05 4.31815E-37-1.13766E-05 1.71281E-20-8.80576E-20
 -1      2457 3.56136E-07-1.25584E-05 6.90504E-37-1.48934E-05 2.15607E-21-1.70535E-19
 -1      2458 1.76960E-06-1.50710E-05 5.69355E-37-1.54602E-05-1.76226E-20 1.34208E-19
 -1      2459 1.15332E-06-1.72832E-05 5.24703E-37-1.98075E-05-1.35282E-20-2.02251E-19
 -1      2460 3.11495E-06-2.02934E-05 4.83961E-37-2.00400E-05 1.22195E-20-7.62384E-20
 -1      2461 2.47148E-06-2.29835E-05 8.55000E-37-2.53057E-05-9.56657E-21 8.59198E-20
 -1      2462 5.05061E-06-2.65367E-05 7.33464E-37-2.51505E-05-7.23787E-20-2.37600E-19
 -1      2463 4.49308E-06-2.98845E-05 3.60283E-37-3.14251E-05-8.07637E-20 7.30357E-20
 -1      2464 7.75771E-06-3.40320E-05 5.21837E-37-3.08142E-05-2.55815E-20-2.18554E-19
 -1      2465 7.45153E-06-3.82632E-05 6.21761E-37-3.81804E-05-6.05412E-21 3.81401E-19
 -1      2466 1.14685E-05-4.30607E-05 3.62066E-37-3.70309E-05 9.28888E-20-1.64139E-19
 -1      2467 1.16416E-05-4.84542E-05 6.54195E-37-4.55465E-05 1.41416E-20 1.71730E-19
 -1      2468 1.64749E-05-5.39609E-05 1.07447E-36-4.37605E-05-1.15819E-20-2.74024E-19
 -1      2469 1.74273E-05-6.08529E-05 1.03489E-36-5.34340E-05-2.94406E-20-1.55226E-19
 -1      2470 2.31345E-05-6.71298E-05 8.72238E-37-5.08986E-05 4.93243E-20-1.20068E-19
 -1      2471 2.52446E-05-7.59099E-05 1.04902E-36-6.16554E-05 9.68859E-20 3.92568E-19
 -1      2472 3.18700E-05-8.30167E-05 7.36957E-37-5.82433E-05-2.64170E-20 1.55638E-19
 -1      2473 3.55893E-05-9.41092E-05 8.67707E-37-6.98814E-05 8.76089E-20 8.26577E-20
 -1      2474 4.31551E-05-1.02100E-04 8.04163E-37-6.54539E-05 2.97134E-20-3.34817E-21
 -1      2475 4.89826E-05-1.15920E-04 1.06075E-36-7.75913E-05 9.85238E-20-2.50096E-19
 -1      2476 5.74765E-05-1.24835E-04 1.64581E-36-7.20042E-05-1.64188E-20 7.98533E-20
 -1      2477 6.58973E-05-1.41710E-04 1.94317E-36-8.40296E-05 1.48535E-19 9.18810E-20
 -1      2478 7.52571E-05-1.51559E-04 9.85415E-37-7.71455E-05-3.24640E-20 8.82541E-20
 -1      2479 8.66341E-05-1.71609E-04 1.38666E-36-8.81937E-05-8.47891E-20 1.12222E-19
 -1      2480 9.67312E-05-1.82348E-04 2.14693E-36-7.99044E-05 6.58225E-21 2.24326E-19
 -1      2481 1.11144E-04-2.05324E-04 1.69573E-36-8.88945E-05 1.11389E-19 8.10339E-20
 -1      2482 1.21767E-04-2.16817E-04 1.93051E-36-7.91598E-05 7.51571E-20 5.70058E-20
 -1      2483 1.38823E-04-2.41942E-04 1.46652E-36-8.49431E-05 1.14561E-19 1.65758E-20
 -1      2484 1.49668E-04-2.53913E-04 1.34635E-36-7.38556E-05 1.51323E-19-5.54363E-20
 -1      2485 1.68356E-04-2.79793E-04 1.57916E-36-7.55062E-05 2.10693E-19-6.22902E-20
 -1      2486 1.79017E-04-2.91779E-04 2.04128E-36-6.33908E-05 1.30559E-19-1.87242E-19
 -1      2487 1.97710E-04-3.16487E-04 1.77097E-36-6.06112E-05-2.43134E-19 1.88308E-19
 -1      2488 2.07682E-04-3.27815E-04 1.49491E-36-4.81599E-05 7.86424E-20 1.72372E-19
 -1      2489 2.24391E-04-3.49207E-04 1.46851E-36-4.16769E-05 1.78785E-19 5.81387E-21
 -1      2490 2.33045E-04-3.59002E-04 1.67037E-36-3.00904E-05-8.71573E-20 1.33135E-19
 -1      2491 2.45913E-04-3.75203E-04 1.66745E-36-2.18341E-05 5.68605E-20-4.99941E-21
 -1      2492 2.52396E-04-3.82390E-04 1.99119E-36-1.29235E-05 2.72174E-20 9.91091E-20
 -1      2493 2.60119E-04-3.92123E-04 1.34402E-36-5.60415E-06 4.97206E-20-2.89124E-20
 -1      2494 2.63322E-04-3.95438E-04 1.09282E-36-1.91688E-06 2.66459E-19-1.46678E-20
 -1      2495 3.29865E-09-2.37450E-07 8.09472E-37-1.04667E-07 3.45775E-20 3.72251E-19
 -1      2496 2.20300E-07-1.03837E-06 4.22857E-37-1.00909E-06 2.43473E-20-2.51026E-19
 -1      2497 4.00944E-07-2.80075E-06 3.15518E-37-2.51806E-06 5.92059E-21-2.58918E-19
 -1      2498 9.43306E-07-4.26280E-06 3.88435E-37-3.55454E-06-4.85070E-22-2.73669E-20
 -1      2499 9.39318E-07-5.81203E-06 4.15393E-37-5.21759E-06 1.86587E-21 2.14172E-19
 -1      2500 1.69372E-06-7.56849E-06 3.48423E-37-6.01872E-06 1.11544E-20 1.33097E-19
 -1      2501 1.70551E-06-9.30061E-06 4.66483E-37-8.26221E-06 8.67945E-21-1.72056E-19
 -1      2502 2.74908E-06-1.14268E-05 4.46984E-37-8.77487E-06 4.97229E-21 2.33581E-19
 -1      2503 2.73900E-06-1.33899E-05 3.77316E-37-1.16697E-05-5.67235E-21 2.61272E-19
 -1      2504 4.15656E-06-1.59299E-05 5.52948E-37-1.18665E-05-1.43923E-21-7.52965E-20
 -1      2505 4.13643E-06-1.82104E-05 5.18402E-37-1.54770E-05-5.18809E-20-1.18017E-19
 -1      2506 5.99792E-06-2.12051E-05 3.00592E-37-1.53237E-05 1.22440E-20-2.34609E-19
 -1      2507 6.01435E-06-2.39173E-05 4.61613E-37-1.97209E-05 1.19146E-20-1.14003E-19
 -1      2508 8.38531E-06-2.74124E-05 7.49561E-37-1.91719E-05 7.41240E-21 3.83564E-19
 -1      2509 8.51983E-06-3.07003E-05 6.40013E-37-2.44314E-05-2.86822E-20-2.35703E-20
 -1      2510 1.14652E-05-3.47478E-05 5.96744E-37-2.34293E-05 6.62663E-21 1.50213E-19
 -1      2511 1.18394E-05-3.87919E-05 5.69788E-37-2.96246E-05-9.87748E-21 3.75567E-19
 -1      2512 1.54251E-05-4.34505E-05 8.13556E-37-2.81000E-05-8.88335E-20 1.28463E-19
 -1      2513 1.62079E-05-4.84745E-05 4.16512E-37-3.52913E-05-2.86347E-20 9.30809E-20
 -1      2514 2.05015E-05-5.38091E-05 6.86943E-37-3.31632E-05 3.80619E-20-1.72366E-20
 -1      2515 2.19175E-05-6.00854E-05 6.98961E-37-4.13808E-05 2.92056E-20 9.33885E-20
 -1      2516 2.69870E-05-6.61672E-05 6.45473E-37-3.85565E-05-2.18192E-20 9.80601E-20
 -1      2517 2.93237E-05-7.40184E-05 8.97732E-37-4.77776E-05-6.08477E-20-2.28496E-19
 -1      2518 3.52347E-05-8.09240E-05 7.03409E-37-4.41538E-05-1.99023E-20 3.71727E-21
 -1      2519 3.88449E-05-9.07154E-05 1.05700E-36-5.42693E-05-5.96028E-20-1.49235E-19
 -1      2520 4.56555E-05-9.85256E-05 5.59725E-37-4.97343E-05 4.37831E-20 1.43388E-20
 -1      2521 5.09475E-05-1.10642E-04 8.86303E-37-6.05074E-05 1.51165E-19 8.22737E-20
 -1      2522 5.86996E-05-1.19437E-04 1.31624E-36-5.49457E-05 2.72953E-20-2.29633E-19
 -1      2523 6.61060E-05-1.34232E-04 7.99307E-37-6.59639E-05-6.09624E-20-5.61291E-20
 -1      2524 7.48130E-05-1.44083E-04 7.42265E-37-5.92663E-05-5.11109E-21-1.09548E-19
 -1      2525 8.47230E-05-1.61796E-04 1.15741E-36-6.99004E-05-8.35788E-20-4.75765E-20
 -1      2526 9.43515E-05-1.72745E-04 7.92226E-37-6.19809E-05 7.09611E-20 7.65895E-21
 -1      2527 1.06996E-04-1.93368E-04 1.32339E-36-7.13745E-05-1.06703E-19-1.19292E-19
 -1      2528 1.17442E-04-2.05393E-04 1.25347E-36-6.22027E-05-8.38839E-20-1.07236E-19
 -1      2529 1.32729E-04-2.28511E-04 1.05289E-36-6.93346E-05-7.63324E-20-5.73871E-20
 -1      2530 1.43784E-04-2.41468E-04 9.41262E-37-5.89904E-05-5.70432E-20 1.98084E-20
 -1      2531 1.61116E-04-2.66096E-04 1.98448E-36-6.28584E-05-2.00961E-21 5.09690E-20
 -1      2532 1.72429E-04-2.79630E-04 1.37678E-36-5.16221E-05 7.33633E-20 1.57931E-19
 -1      2533 1.90570E-04-3.04152E-04 1.39676E-36-5.15806E-05-5.47441E-20 5.01766E-20
 -1      2534 2.01598E-04-3.17591E-04 1.34839E-36-4.00664E-05-1.13166E-19-1.41950E-19
 -1      2535 2.18726E-04-3.39878E-04 2.38835E-36-3.62715E-05 1.38905E-19 8.73368E-21
 -1      2536 2.28656E-04-3.52130E-04 1.83437E-36-2.55791E-05 1.75890E-20-1.35904E-19
 -1      2537 2.42670E-04-3.69882E-04 1.81277E-36-1.93796E-05 2.07078E-21 2.64573E-20
 -1      2538 2.50308E-04-3.79354E-04 1.98673E-36-1.12047E-05 7.58402E-21 2.09472E-20
 -1      2539 2.59205E-04-3.90488E-04 1.04284E-36-5.10748E-06 9.60777E-20-4.49519E-20
 -1      2540 2.62944E-04-3.95005E-04 2.33239E-36-1.56685E-06 1.82505E-19 6.41203E-21
 -1      2541 2.33954E-08-2.79656E-07 1.31211E-37-9.20276E-08 1.61232E-20 3.94393E-20
 -1      2542 4.06644E-07-1.10824E-06 3.00745E-37-7.29942E-07 5.27561E-21 3.25049E-19
 -1      2543 8.33999E-07-3.00958E-06 3.56676E-37-1.88417E-06-3.68410E-21 1.94326E-19
 -1      2544 1.60218E-06-4.61033E-06 5.73615E-37-2.57062E-06 1.95211E-21-3.76498E-19
 -1      2545 1.80510E-06-6.17853E-06 8.89143E-37-3.87666E-06-9.46760E-21-5.40962E-20
 -1      2546 2.72536E-06-8.04956E-06 8.03559E-37-4.31463E-06 1.26169E-20-2.26665E-19
 -1      2547 3.02966E-06-9.81745E-06 8.00599E-37-6.12005E-06 8.05336E-21 3.68365E-20
 -1      2548 4.15062E-06-1.20165E-05 3.54809E-37-6.24988E-06-4.16679E-22-8.73578E-20
 -1      2549 4.52726E-06-1.40277E-05 4.79379E-37-8.62447E-06-1.36755E-20 1.81017E-19
 -1      2550 5.93024E-06-1.66025E-05 2.73374E-37-8.41164E-06 1.25365E-21 1.45780E-19
 -1      2551 6.38049E-06-1.89247E-05 7.25438E-37-1.14133E-05-1.12619E-20 7.86099E-20
 -1      2552 8.13525E-06-2.19204E-05 6.38111E-37-1.08231E-05-2.26616E-22-1.55436E-19
 -1      2553 8.68880E-06-2.46446E-05 7.03478E-37-1.45123E-05 1.29814E-20 2.63049E-19
 -1      2554 1.08601E-05-2.81101E-05 5.78497E-37-1.35025E-05-4.85854E-20-1.81132E-19
 -1      2555 1.15756E-05-3.13526E-05 6.37790E-37-1.79435E-05-5.73121E-20 3.16108E-20
 -1      2556 1.42275E-05-3.53430E-05 5.13186E-37-1.64632E-05 1.15476E-20 1.86100E-21
 -1      2557 1.51957E-05-3.92499E-05 3.10715E-37-2.17209E-05 1.87733E-20 2.27193E-20
 -1      2558 1.83942E-05-4.38278E-05 6.06872E-37-1.97095E-05-1.26403E-20 3.33192E-19
 -1      2559 1.97424E-05-4.85806E-05 9.39015E-37-2.58428E-05 2.07313E-20-3.91978E-19
 -1      2560 2.35581E-05-5.38177E-05 8.77658E-37-2.32308E-05-9.31888E-20 2.14007E-19
 -1      2561 2.54566E-05-5.96383E-05 6.98089E-37-3.02813E-05 2.30259E-20 6.97609E-20
 -1      2562 2.99653E-05-6.56160E-05 6.78403E-37-2.69916E-05 4.65124E-20 2.56423E-19
 -1      2563 3.26340E-05-7.27712E-05 7.60619E-37-3.49677E-05-6.78280E-21-1.35117E-19
 -1      2564 3.79169E-05-7.95814E-05 3.66225E-37-3.09165E-05 1.96369E-20-2.26031E-21
 -1      2565 4.16295E-05-8.83811E-05 7.84014E-37-3.97702E-05 4.99168E-20 2.36382E-20
 -1      2566 4.77715E-05-9.61267E-05 5.79036E-37-3.48706E-05-2.14033E-20-3.90102E-19
 -1      2567 5.28543E-05-1.06913E-04 6.81672E-37-4.44654E-05 6.18371E-20 8.32955E-20
 -1      2568 5.99395E-05-1.15706E-04 6.49691E-37-3.86328E-05-6.30289E-20-1.45244E-20
 -1      2569 6.67570E-05-1.28825E-04 1.06211E-36-4.87045E-05 2.33266E-20-1.41218E-19
 -1      2570 7.48597E-05-1.38781E-04 9.19491E-37-4.18660E-05 3.64013E-20 1.70509E-19
 -1      2571 8.37766E-05-1.54525E-04 1.20766E-36-5.19793E-05 3.82071E-20-1.65931E-19
 -1      2572 9.29455E-05-1.65752E-04 8.92802E-37-4.40907E-05-6.04203E-20 4.78848E-20
 -1      2573 1.04251E-04-1.84263E-04 1.25432E-36-5.36063E-05 3.60954E-20-4.49022E-19
 -1      2574 1.14481E-04-1.96825E-04 8.64934E-37-4.46799E-05 1.17885E-19 1.02244E-19
 -1      2575 1.28263E-04-2.17949E-04 1.18677E-36-5.27606E-05 4.06493E-20 2.94238E-20
 -1      2576 1.39452E-04-2.31813E-04 9.98471E-37-4.29129E-05 4.27704E-20 1.68381E-19
 -1      2577 1.55422E-04-2.54923E-04 1.17734E-36-4.86153E-05 9.90344E-21-5.16691E-20
 -1      2578 1.67297E-04-2.69843E-04 1.53991E-36-3.81420E-05-1.12459E-19-2.47428E-21
 -1      2579 1.84602E-04-2.93669E-04 9.95390E-37-4.06482E-05-1.23658E-19 1.53911E-20
 -1      2580 1.96613E-04-3.09024E-04 1.31697E-36-3.01365E-05-4.86435E-20-1.27786E-19
 -1      2581 2.13722E-04-3.31593E-04 1.38176E-36-2.91517E-05-3.05392E-20 1.24014E-19
 -1      2582 2.24894E-04-3.46155E-04 1.79785E-36-1.96040E-05-5.28827E-20 4.98231E-20
 -1      2583 2.39670E-04-3.64934E-04 1.88267E-36-1.58502E-05-5.44418E-20-2.35102E-21
 -1      2584 2.48449E-04-3.76642E-04 1.93403E-36-8.74334E-06-8.08578E-21-2.34089E-21
 -1      2585 2.58408E-04-3.88952E-04 1.02650E-36-4.31574E-06 1.43449E-19-2.41530E-20
 -1      2586 2.62508E-04-3.94541E-04 8.24335E-37-1.13001E-06-1.55692E-19-2.91806E-21
 -1      2587 3.76300E-08-3.25246E-07 3.27589E-37-7.33659E-08-8.56092E-21-1.45323E-19
 -1      2588 5.36502E-07-1.16383E-06 4.86783E-37-3.94841E-07-1.00631E-23 4.38411E-19
 -1      2589 1.15422E-06-3.18259E-06 6.02874E-37-1.25250E-06-3.50473E-21 3.70789E-19
 -1      2590 2.04045E-06-4.86799E-06 5.37418E-37-1.54598E-06 1.63223E-21 5.16749E-20
 -1      2591 2.42043E-06-6.45332E-06 3.99382E-37-2.55736E-06 1.32884E-20-1.53185E-19
 -1      2592 3.43779E-06-8.42379E-06 2.52743E-37-2.56154E-06-4.36491E-21-2.09557E-19
 -1      2593 3.96510E-06-1.01967E-05 4.12130E-37-4.02309E-06-8.29792E-21-1.12434E-19
 -1      2594 5.11566E-06-1.24710E-05 5.69577E-37-3.69699E-06 2.77911E-21-3.87171E-19
 -1      2595 5.79251E-06-1.44953E-05 3.99526E-37-5.65790E-06 3.02198E-21-1.14694E-19
 -1      2596 7.14096E-06-1.71120E-05 5.40226E-37-4.96089E-06-5.90318E-21-1.19666E-19
 -1      2597 7.97194E-06-1.94504E-05 5.80270E-37-7.47534E-06 1.23067E-20-2.66187E-19
 -1      2598 9.58423E-06-2.24565E-05 7.03136E-37-6.36522E-06-6.53961E-21 3.04035E-19
 -1      2599 1.05906E-05-2.51847E-05 3.47080E-37-9.49050E-06 7.99294E-21-2.74625E-19
 -1      2600 1.25321E-05-2.86346E-05 1.09978E-37-7.92119E-06-1.44068E-22-1.22614E-19
 -1      2601 1.37566E-05-3.18471E-05 4.08002E-37-1.17172E-05 1.41984E-20-5.76812E-20
 -1      2602 1.60939E-05-3.58032E-05 5.22210E-37-9.63751E-06-2.65397E-20 1.66977E-19
 -1      2603 1.76043E-05-3.96180E-05 4.24532E-37-1.41651E-05-7.78492E-21-1.01847E-19
 -1      2604 2.04073E-05-4.41519E-05 4.77100E-37-1.15182E-05 4.90532E-21-3.82465E-20
 -1      2605 2.23005E-05-4.87160E-05 8.74034E-37-1.68349E-05 1.91483E-21 9.46269E-20
 -1      2606 2.56456E-05-5.39102E-05 5.66238E-37-1.35590E-05 2.33803E-20 9.94917E-20
 -1      2607 2.80517E-05-5.94043E-05 5.81912E-37-1.97128E-05-2.65405E-20-1.23012E-19
 -1      2608 3.20244E-05-6.53541E-05 2.78844E-37-1.57423E-05-1.14775E-20-2.12412E-19
 -1      2609 3.51123E-05-7.19978E-05 4.10930E-37-2.27610E-05-7.31816E-21-1.97192E-19
 -1      2610 3.98095E-05-7.88130E-05 3.53775E-37-1.80290E-05-1.71946E-20 2.90744E-19
 -1      2611 4.37911E-05-8.68662E-05 4.69436E-37-2.59045E-05 3.58245E-20-4.82072E-20
 -1      2612 4.93224E-05-9.46730E-05 5.47471E-37-2.03479E-05-8.66272E-21 3.42193E-19
 -1      2613 5.44543E-05-1.04432E-04 7.44298E-37-2.90131E-05-1.51383E-20 3.15885E-19
 -1      2614 6.09409E-05-1.13373E-04 4.22407E-37-2.25801E-05 1.63487E-20 1.20853E-19
 -1      2615 6.75188E-05-1.25155E-04 5.10285E-37-3.18785E-05-5.88780E-22-5.45854E-20
 -1      2616 7.50883E-05-1.35386E-04 5.86421E-37-2.45414E-05-2.42403E-20 5.43355E-20
 -1      2617 8.34267E-05-1.49493E-04 7.81574E-37-3.41888E-05 8.39974E-21-9.64765E-20
 -1      2618 9.21996E-05-1.61171E-04 6.48100E-37-2.59629E-05-1.36894E-20-7.84125E-20
 -1      2619 1.02585E-04-1.77822E-04 1.19298E-36-3.55088E-05 4.71596E-20 2.13549E-19
 -1      2620 1.12646E-04-1.91075E-04 1.15575E-36-2.64811E-05-3.70605E-21-5.10771E-20
 -1      2621 1.25249E-04-2.10289E-04 9.65112E-37-3.52848E-05 5.01061E-21 8.48638E-20
 -1      2622 1.36590E-04-2.25156E-04 1.19940E-36-2.56565E-05 6.89331E-20-1.97512E-19
 -1      2623 1.51324E-04-2.46577E-04 1.27041E-36-3.29124E-05-6.55225E-20-6.90270E-20
 -1      2624 1.63746E-04-2.62887E-04 1.16705E-36-2.30569E-05 6.10497E-20-5.37001E-20
 -1      2625 1.80067E-04-2.85572E-04 1.22319E-36-2.79218E-05 1.13557E-20-1.99582E-20
 -1      2626 1.93022E-04-3.02732E-04 1.50670E-36-1.84564E-05-9.74923E-21-1.47270E-19
 -1      2627 2.09724E-04-3.24949E-04 1.76756E-36-2.03394E-05-1.09960E-20-1.29989E-19
 -1      2628 2.22087E-04-3.41629E-04 1.50055E-36-1.21784E-05-2.95403E-20-1.18345E-19
 -1      2629 2.37163E-04-3.60798E-04 1.79281E-36-1.12139E-05 2.07492E-20 7.83014E-20
 -1      2630 2.47021E-04-3.74539E-04 1.91237E-36-5.51184E-06-2.90017E-20 9.78253E-20
 -1      2631 2.57798E-04-3.87675E-04 1.27567E-36-3.15580E-06 1.85627E-19 3.17790E-20
 -1      2632 2.62091E-04-3.94118E-04 2.02707E-37-6.58816E-07 2.02165E-19 2.34318E-21
 -1      2633 7.29290E-08-3.23745E-07 2.95665E-37-7.50229E-08 2.09537E-21 5.89543E-20
 -1      2634 6.41989E-07-1.31379E-06 8.95466E-37-7.60871E-09-1.46594E-23-2.67374E-19
 -1      2635 1.36828E-06-3.34156E-06 6.75707E-37-6.21911E-07-1.14982E-21-4.19353E-20
 -1      2636 2.19285E-06-4.79018E-06-6.52253E-38-5.18382E-07-4.09507E-22 1.08674E-19
 -1      2637 2.83081E-06-6.66610E-06 2.79021E-37-1.21132E-06-1.71698E-22 4.09578E-19
 -1      2638 3.71637E-06-8.42072E-06 3.72157E-37-6.95287E-07 5.46331E-22 1.95828E-20
 -1      2639 4.54906E-06-1.04577E-05 5.41906E-37-1.90828E-06-1.81206E-21-1.10181E-19
 -1      2640 5.53136E-06-1.24979E-05 5.39740E-37-9.82290E-07 1.62046E-21-7.71178E-20
 -1      2641 6.56506E-06-1.48024E-05 5.45112E-37-2.67344E-06 7.51012E-22-1.27845E-19
 -1      2642 7.69653E-06-1.71579E-05 3.11390E-37-1.32540E-06-9.83086E-22-2.37626E-20
 -1      2643 8.93773E-06-1.97911E-05 2.74450E-37-3.52068E-06 2.39889E-21 8.48970E-20
 -1      2644 1.02757E-05-2.25125E-05 3.08208E-37-1.71278E-06 1.12050E-21-2.78295E-20
 -1      2645 1.17452E-05-2.55367E-05 4.47434E-37-4.45922E-06 8.42700E-23-1.55420E-19
 -1      2646 1.33487E-05-2.86852E-05 3.31840E-37-2.14287E-06-1.27774E-21-3.93132E-19
 -1      2647 1.50854E-05-3.21773E-05 5.54939E-37-5.49624E-06-7.18231E-22-2.93141E-19
 -1      2648 1.70174E-05-3.58237E-05 5.26490E-37-2.61607E-06 4.03605E-21-4.95952E-19
 -1      2649 1.90797E-05-3.98800E-05 9.53512E-37-6.63656E-06 6.57527E-22-2.00657E-19
 -1      2650 2.14110E-05-4.41078E-05 8.00550E-37-3.13260E-06-2.60113E-22-1.80151E-19
 -1      2651 2.38787E-05-4.88477E-05 2.67537E-37-7.88096E-06-9.12627E-23-4.97122E-20
 -1      2652 2.66923E-05-5.37561E-05 5.24950E-37-3.69121E-06-2.98641E-21 2.50689E-19
 -1      2653 2.96689E-05-5.93257E-05 5.70858E-37-9.22370E-06-3.78532E-21 2.46479E-19
 -1      2654 3.30637E-05-6.50323E-05 2.26404E-37-4.28758E-06-2.97243E-21-1.28672E-19
 -1      2655 3.66805E-05-7.16082E-05 2.98076E-37-1.06486E-05 1.85360E-20-6.49987E-20
 -1      2656 4.07749E-05-7.82526E-05 9.56117E-37-4.91205E-06-2.53672E-21-6.55352E-19
 -1      2657 4.51945E-05-8.60448E-05 2.71648E-37-1.21232E-05-1.67784E-20-1.28359E-19
 -1      2658 5.01293E-05-9.37906E-05 5.98344E-37-5.54645E-06-2.16324E-21-1.42227E-19
 -1      2659 5.55483E-05-1.03042E-04 4.22789E-37-1.35909E-05-7.33704E-22-7.68146E-20
 -1      2660 6.14877E-05-1.12077E-04 4.56904E-37-6.16006E-06-3.22695E-21-4.50476E-20
 -1      2661 6.81352E-05-1.23055E-04 8.52869E-37-1.49597E-05 1.89674E-20-3.57202E-20
 -1      2662 7.52626E-05-1.33586E-04 7.36373E-37-6.70447E-06 1.78003E-21-9.83665E-20
 -1      2663 8.33903E-05-1.46562E-04 8.13570E-37-1.60898E-05 2.44898E-20 6.90915E-20
 -1      2664 9.18944E-05-1.58802E-04 5.56510E-37-7.10814E-06 2.12423E-20-1.27593E-19
 -1      2665 1.01749E-04-1.74006E-04 6.50228E-37-1.67818E-05 7.55837E-21-1.58756E-19
 -1      2666 1.11790E-04-1.88133E-04 5.86573E-37-7.27264E-06 1.53135E-21 5.49237E-20
 -1      2667 1.23554E-04-2.05663E-04 9.84809E-37-1.67740E-05-1.76878E-20-3.00987E-19
 -1      2668 1.35195E-04-2.21751E-04 7.73620E-37-7.07613E-06-2.31194E-20 1.41258E-19
 -1      2669 1.48882E-04-2.41428E-04 8.19740E-37-1.57664E-05-5.61608E-21 5.68008E-20
 -1      2670 1.61963E-04-2.59304E-04 1.03411E-36-6.39374E-06-3.62059E-20 1.02537E-20
 -1      2671 1.77243E-04-2.80453E-04 1.32559E-36-1.35008E-05 2.22985E-21 5.27282E-20
 -1      2672 1.91170E-04-2.99451E-04 1.44580E-36-5.15080E-06 6.92048E-21-6.45436E-20
 -1      2673 2.07132E-04-3.20629E-04 1.44428E-36-9.93432E-06 2.04587E-20 2.96678E-20
 -1      2674 2.20604E-04-3.39237E-04 1.66480E-36-3.42202E-06 1.16487E-20-9.35169E-20
 -1      2675 2.35479E-04-3.58022E-04 1.78695E-36-5.52355E-06-2.92774E-21-1.00100E-19
 -1      2676 2.46258E-04-3.73421E-04 1.91620E-36-1.54489E-06-2.59784E-21 2.53919E-20
 -1      2677 2.57424E-04-3.86829E-04 1.48690E-36-1.59036E-06 1.92990E-19-2.46074E-20
 -1      2678 2.61841E-04-3.93866E-04 1.28395E-36-1.38240E-07 2.15441E-19 5.69490E-21
 -1      2679-2.79251E-08-1.65529E-07-1.71197E-37 5.26358E-09-5.86026E-23 1.48917E-19
 -1      2680 6.47104E-07-1.40419E-06 1.56548E-36 6.31152E-08 9.42958E-24 1.11576E-18
 -1      2681 1.24972E-06-2.89837E-06 5.63604E-37-1.29275E-07 2.27774E-22-9.52029E-20
 -1      2682 2.08487E-06-4.64029E-06 1.46061E-36 4.62058E-08 1.16064E-22-9.57029E-19
 -1      2683 2.73989E-06-6.30604E-06 2.80175E-37-2.74705E-07-7.17008E-23 7.19769E-21
 -1      2684 3.59038E-06-8.16274E-06 5.71386E-37-4.79858E-09 8.74548E-23-4.98492E-20
 -1      2685 4.52025E-06-1.01343E-05 6.60134E-37-4.28287E-07 6.39122E-23 1.20805E-19
 -1      2686 5.47933E-06-1.22628E-05 4.87232E-37-9.70234E-09-4.78468E-23-3.90035E-19
 -1      2687 6.56383E-06-1.44943E-05 3.18370E-37-5.75989E-07 5.10938E-22-2.58944E-20
 -1      2688 7.70792E-06-1.69534E-05 1.67269E-38-6.67844E-09 3.06992E-22-6.17028E-20
 -1      2689 8.95633E-06-1.94852E-05 6.10273E-37-7.46308E-07-1.47947E-21-3.51950E-19
 -1      2690 1.03261E-05-2.23233E-05 6.26532E-37-4.19354E-09 1.00336E-21-2.96999E-19
 -1      2691 1.17814E-05-2.52215E-05 9.69459E-37-9.43335E-07-5.94029E-22-7.84662E-20
 -1      2692 1.34201E-05-2.84981E-05 6.81305E-37-3.05079E-09-5.53908E-22-5.81919E-19
 -1      2693 1.51364E-05-3.18403E-05-3.23629E-38-1.16594E-06-8.82857E-22-1.09475E-20
 -1      2694 1.70997E-05-3.56311E-05 1.22355E-36-2.69713E-09-9.07458E-23 4.25365E-19
 -1      2695 1.91400E-05-3.95068E-05 5.37649E-37-1.41265E-06 1.87992E-21-1.50519E-19
 -1      2696 2.14991E-05-4.39059E-05 4.74294E-37-2.65301E-09 8.69787E-22 3.01636E-19
 -1      2697 2.39385E-05-4.84202E-05 8.37653E-37-1.68221E-06 6.09010E-22-3.77127E-19
 -1      2698 2.67827E-05-5.35429E-05 8.19291E-37-2.67548E-09 1.28667E-21-3.32834E-19
 -1      2699 2.97129E-05-5.88211E-05 4.69719E-37-1.97291E-06 1.20444E-21-2.86635E-19
 -1      2700 3.31529E-05-6.48064E-05 2.09869E-37-2.67403E-09 5.45193E-22 2.13329E-19
 -1      2701 3.66867E-05-7.09982E-05 9.94292E-37-2.28137E-06 3.03545E-21 3.32608E-19
 -1      2702 4.08581E-05-7.80123E-05 2.09818E-37-2.62314E-09 6.87807E-22 1.13605E-19
 -1      2703 4.51338E-05-8.52956E-05 9.78765E-38-2.60104E-06 3.11304E-22-9.70248E-21
 -1      2704 5.02002E-05-9.35336E-05 4.84817E-37-2.51420E-09 1.22696E-21 1.01965E-19
 -1      2705 5.53844E-05-1.02115E-04 6.59834E-37-2.92027E-06 8.49887E-22-1.53859E-19
 -1      2706 6.15380E-05-1.11801E-04 2.24697E-37-2.33926E-09 7.88031E-22 4.03314E-19
 -1      2707 6.78268E-05-1.21913E-04 1.18286E-36-3.21988E-06 4.41004E-21-1.87170E-19
 -1      2708 7.52831E-05-1.33290E-04 1.13145E-36-2.09568E-09 4.21251E-21-5.03374E-19
 -1      2709 8.28958E-05-1.45175E-04 3.17594E-37-3.47034E-06-2.10326E-21-4.19251E-20
 -1      2710 9.18757E-05-1.58485E-04 4.58551E-37-1.78802E-09-2.26755E-21-1.97828E-20
 -1      2711 1.01037E-04-1.72364E-04 8.53444E-37-3.62896E-06 1.20170E-21 4.30928E-19
 -1      2712 1.11725E-04-1.87800E-04 4.45899E-37-1.49796E-09-6.29341E-22-5.65512E-20
 -1      2713 1.22621E-04-2.03799E-04 8.29574E-37-3.63873E-06-2.78287E-21-2.18054E-19
 -1      2714 1.35084E-04-2.21413E-04 7.93923E-37-1.25535E-09 3.32043E-21 3.59615E-19
 -1      2715 1.47776E-04-2.39444E-04 9.19806E-37-3.43254E-06 3.98490E-21 1.35352E-20
 -1      2716 1.61816E-04-2.58983E-04 9.59225E-37-1.59022E-09 1.00866E-21 1.89548E-19
 -1      2717 1.76087E-04-2.78534E-04 1.24773E-36-2.94953E-06-2.56850E-23-1.11536E-19
 -1      2718 1.91014E-04-2.99184E-04 1.21505E-36-1.25119E-09 1.31812E-21 7.67060E-20
 -1      2719 2.06125E-04-3.19034E-04 1.46480E-36-2.17556E-06 3.91271E-21 8.41209E-20
 -1      2720 2.20479E-04-3.39064E-04 1.55053E-36-8.27853E-10-8.63272E-22 3.09666E-20
 -1      2721 2.34833E-04-3.56998E-04 1.78923E-36-1.20865E-06 3.70410E-21 4.91082E-20
 -1      2722 2.46192E-04-3.73377E-04 1.91378E-36 1.85758E-08-4.56206E-22 3.59992E-20
 -1      2723 2.57286E-04-3.86526E-04 1.18885E-36-3.51560E-07 3.06608E-19 7.49489E-20
 -1      2724 2.61814E-04-3.93838E-04 2.16343E-36 4.72567E-08 1.53974E-19-1.32069E-20
 -1      2725 8.51504E-07-3.46591E-07 5.36391E-34 5.13227E-08 5.87412E-18 4.12163E-20
 -1      2726 1.45661E-06-6.30695E-07 1.31615E-33-1.83278E-08 4.85186E-18-4.42386E-19
 -1      2727 4.88146E-07-1.97938E-07 6.83034E-34-3.25560E-08-1.23253E-17-3.11506E-19
 -1      2728 3.73579E-07-2.14430E-07 4.63111E-34-2.60422E-07 2.58425E-18-1.59848E-18
 -1      2729 7.80126E-07-3.44781E-07 7.07050E-34 6.89338E-08-1.03354E-18 1.57008E-19
 -1      2730 1.65041E-07-1.25826E-07 9.72446E-34-3.39966E-08-1.29221E-17-2.09647E-19
 -1      2731 1.90003E-07-1.39962E-09 7.53878E-34-6.02392E-07-1.72379E-17-1.00091E-18
 -1      2732 1.57666E-07-1.34768E-07 2.27696E-34 3.50803E-07 3.19648E-18-5.76155E-19
 -1      2733-1.12943E-07-1.02499E-07 9.88146E-34 2.45931E-08 7.59898E-18-4.86039E-20
 -1      2734 1.13131E-07 2.31008E-07 3.49412E-34-7.62609E-07-6.26408E-19 1.10966E-19
 -1      2735-3.70474E-07-3.71285E-08 3.65693E-34 7.92797E-07-9.29781E-19-3.00097E-19
 -1      2736-3.36217E-07-1.41825E-07 3.80008E-34 1.82386E-07-1.24554E-17 2.11431E-19
 -1      2737 6.87514E-08 4.94526E-07 3.03130E-33-8.22882E-07-2.11301E-17 1.51151E-18
 -1      2738-7.78658E-07-7.72789E-08 5.67170E-34 1.39022E-06 1.04193E-17 9.94009E-19
 -1      2739-4.91414E-07-2.62776E-07 8.83750E-34 4.58491E-07 5.46861E-18-3.19082E-19
 -1      2740 3.52624E-08 7.69134E-07 7.76060E-34-8.17679E-07-8.47165E-18 9.84940E-19
 -1      2741-1.04769E-06-2.76771E-07 1.35908E-34 2.15014E-06-1.01949E-17 8.17588E-19
 -1      2742-5.63418E-07-4.89440E-07 2.62184E-34 8.60975E-07-1.72300E-18 4.57685E-19
 -1      2743 1.67960E-08 1.01311E-06 1.67742E-33-7.62210E-07-8.81006E-18-8.86440E-20
 -1      2744-1.16209E-06-6.56629E-07 1.56256E-33 3.08164E-06-7.42041E-18 3.25948E-19
 -1      2745-5.35697E-07-8.52169E-07 4.83563E-34 1.39067E-06-3.52260E-19-1.22104E-18
 -1      2746 3.01265E-08 1.16864E-06 2.03321E-34-6.66092E-07-9.26903E-18 2.37072E-18
 -1      2747-1.10859E-06-1.23947E-06 5.48821E-34 4.19001E-06 5.56284E-18 1.20628E-18
 -1      2748-3.89992E-07-1.38894E-06 6.74064E-34 2.04218E-06-6.30702E-18 3.87383E-19
 -1      2749 9.94175E-08 1.16463E-06 6.60777E-34-5.38366E-07 1.94882E-18 1.98726E-19
 -1      2750-8.75220E-07-2.05105E-06 4.60845E-34 5.47267E-06-5.98903E-18 9.84904E-19
 -1      2751-1.05777E-07-2.14647E-06 8.41290E-34 2.80377E-06 8.08875E-18 1.08110E-19
 -1      2752 2.54428E-07 9.18550E-07 6.39503E-34-3.88594E-07 4.18982E-18-3.49274E-19
 -1      2753-4.50468E-07-3.12166E-06 4.80465E-34 6.91570E-06-1.36357E-18-6.37275E-19
 -1      2754 3.40199E-07-3.18071E-06 8.09309E-35 3.65676E-06-6.24336E-19 1.83018E-19
 -1      2755 5.29804E-07 3.38366E-07 2.96534E-34-2.26484E-07 5.66804E-18-1.50093E-18
 -1      2756 1.77606E-07-4.48711E-06 4.61164E-34 8.49068E-06 9.70455E-18-1.02650E-19
 -1      2757 9.73975E-07-4.55612E-06 5.13287E-34 4.57475E-06-4.99305E-18 1.34392E-19
 -1      2758 9.64322E-07-6.74986E-07 7.98693E-34-6.12372E-08 9.83603E-18-1.24981E-18
 -1      2759 1.02211E-06-6.18894E-06 2.92153E-34 1.01516E-05-1.61185E-19 2.18395E-20
 -1      2760 1.82377E-06-6.34339E-06 4.01636E-34 5.52261E-06 8.79458E-18 3.07024E-19
 -1      2761 1.59953E-06-2.22404E-06 5.89905E-34 9.89226E-08-3.94255E-18 7.00210E-19
 -1      2762 2.09754E-06-8.27336E-06 2.64094E-34 1.18319E-05-5.57892E-18-7.46338E-20
 -1      2763 2.91834E-06-8.61481E-06 1.03591E-33 6.45519E-06-1.48747E-17-8.33048E-19
 -1      2764 2.47742E-06-4.40946E-06 7.27421E-34 2.46882E-07 1.23819E-17-6.27691E-19
 -1      2765 3.41915E-06-1.07879E-05 6.78168E-34 1.34414E-05-2.72568E-18 2.83080E-19
 -1      2766 4.28384E-06-1.14366E-05 3.22065E-34 7.31559E-06-7.30544E-18 1.32644E-19
 -1      2767 3.63680E-06-7.32192E-06-1.51015E-36 3.76411E-07-2.86935E-18 2.32766E-19
 -1      2768 5.00074E-06-1.37753E-05 7.46150E-35 1.48634E-05-2.35037E-18 9.96535E-20
 -1      2769 5.93882E-06-1.48570E-05 4.06469E-34 8.03304E-06-4.48914E-18 8.69758E-20
 -1      2770 5.10779E-06-1.10296E-05 1.48996E-33 4.81636E-07-5.79618E-18-1.29400E-20
 -1      2771 6.85065E-06-1.72635E-05 4.46604E-34 1.59513E-05 5.50824E-18 2.11052E-20
 -1      2772 7.88652E-06-1.88894E-05 5.08799E-34 8.52052E-06 2.23861E-18-8.50833E-21
 -1      2773 6.90368E-06-1.55596E-05 2.84035E-34 5.56256E-07 9.99420E-18-5.62979E-20
 -1      2774 8.96503E-06-2.12508E-05 5.37541E-34 1.65268E-05 1.34597E-18 8.79913E-20
 -1      2775 1.01038E-05-2.34877E-05 1.40446E-33 8.67273E-06 1.03384E-17 3.53901E-20
 -1      2776 9.00932E-06-2.08695E-05 5.81876E-34 5.92504E-07-4.27002E-18 1.27729E-19
 -1      2777 1.13179E-05-2.56867E-05 3.68208E-34 1.63809E-05-4.20214E-18-1.17756E-19
 -1      2778 1.25261E-05-2.85155E-05 9.52761E-34 8.36596E-06-1.00966E-17 8.21909E-20
 -1      2779 1.13648E-05-2.68078E-05 1.37420E-33 5.79733E-07 3.02645E-18 5.65133E-19
 -1      2780 1.38461E-05-3.04470E-05 4.80568E-34 1.52843E-05 2.89654E-18 4.89068E-19
 -1      2781 1.50269E-05-3.37073E-05 3.61636E-34 7.46393E-06 4.77033E-18-1.34567E-20
 -1      2782 1.38439E-05-3.30575E-05 6.34821E-34 5.02223E-07-1.02215E-18-3.22876E-19
 -1      2783 1.64250E-05-3.53062E-05 7.84523E-34 1.30238E-05-5.87244E-18-1.88904E-19
 -1      2784 1.73922E-05-3.86353E-05 1.02728E-33 5.84260E-06-3.97359E-18-2.22142E-18
 -1      2785 1.62280E-05-3.90620E-05 1.91155E-34 3.35606E-07 3.16399E-18 4.30277E-19
 -1      2786 1.88139E-05-3.99044E-05 5.35016E-34 9.50733E-06 6.88440E-18 6.25803E-19
 -1      2787 1.92817E-05-4.27074E-05 6.70206E-34 3.47424E-06 4.18173E-18 1.71019E-18
 -1      2788 1.81895E-05-4.39443E-05 6.03286E-34 4.02899E-08 1.78947E-17-1.38840E-18
 -1      2789 2.04874E-05-4.36697E-05 2.26349E-34 5.03587E-06-6.00667E-18-3.39003E-19
 -1      2790 2.00876E-05-4.52021E-05 2.01598E-34 7.76113E-07-7.08079E-19-9.03760E-19
 -1      2791 1.93146E-05-4.65009E-05 1.37238E-33-4.03117E-07 1.56977E-17-4.73085E-19
 -1      2792 1.98158E-05-4.52438E-05 1.46410E-34 9.38854E-07 5.72703E-18-1.72367E-18
 -1      2793 1.86121E-05-4.51541E-05 1.01435E-33-3.26549E-07 1.37661E-17-6.74850E-19
 -1      2794 1.95674E-05-4.60512E-05 9.01190E-34-7.19256E-07 7.79702E-18 2.27911E-18
 -1      2795-1.56887E-06 6.46510E-07 1.45947E-34 1.82458E-08 1.14677E-17 1.82871E-19
 -1      2796-6.24998E-06 2.74091E-06 1.91403E-34 7.28127E-07-2.35127E-18 2.95720E-19
 -1      2797-2.48797E-06 9.92211E-07 1.28298E-33 8.04456E-07 5.88327E-18-3.86032E-19
 -1      2798-7.10627E-06 3.09193E-06 8.46518E-34 2.18299E-06-2.63290E-19-5.40169E-19
 -1      2799-3.32102E-06 1.25890E-06 6.79303E-34 1.70037E-06-6.39065E-19-1.53361E-19
 -1      2800-7.92228E-06 3.37958E-06 5.32985E-34 3.73615E-06 6.08763E-19 2.42692E-19
 -1      2801-4.05346E-06 1.41102E-06 3.06919E-34 2.68862E-06-3.29835E-19-5.41385E-19
 -1      2802-8.65203E-06 3.55428E-06 1.28402E-34 5.39974E-06 2.91593E-18 1.11956E-18
 -1      2803-4.66727E-06 1.43521E-06 4.70071E-34 3.79091E-06 1.63480E-17 9.74637E-19
 -1      2804-9.25581E-06 3.57923E-06 5.15219E-34 7.18678E-06 1.24878E-18 6.74856E-19
 -1      2805-5.13820E-06 1.30954E-06 3.51736E-34 5.02293E-06 1.34182E-18-3.86234E-19
 -1      2806-9.69375E-06 3.42109E-06 5.32970E-34 9.10710E-06 6.42255E-18-1.50638E-18
 -1      2807-5.43907E-06 1.00729E-06 1.39679E-34 6.39709E-06 3.23799E-18 5.34459E-20
 -1      2808-9.92458E-06 3.04638E-06 2.78661E-34 1.11674E-05-8.25254E-19-5.36753E-19
 -1      2809-5.54121E-06 4.98770E-07 2.01026E-34 7.92214E-06 1.49510E-18 5.95677E-19
 -1      2810-9.90533E-06 2.41997E-06 4.01081E-34 1.33697E-05-2.57737E-18-4.51921E-19
 -1      2811-5.41535E-06-2.47694E-07 6.45906E-34 9.60133E-06-1.06976E-17 4.49545E-19
 -1      2812-9.59187E-06 1.50473E-06 8.27130E-34 1.57092E-05-7.75652E-18 9.77311E-19
 -1      2813-5.03246E-06-1.26530E-06 7.20061E-34 1.14295E-05 3.58485E-18-1.68974E-19
 -1      2814-8.93987E-06 2.61743E-07 2.83448E-34 1.81711E-05 1.54651E-19 3.33346E-19
 -1      2815-4.36433E-06-2.58854E-06 2.06431E-34 1.33895E-05 1.17916E-17 2.21376E-19
 -1      2816-7.90617E-06-1.34905E-06 2.57670E-34 2.07259E-05-1.38586E-18-6.23998E-20
 -1      2817-3.38399E-06-4.25311E-06 3.12569E-34 1.54474E-05-1.02879E-17-2.51906E-19
 -1      2818-6.45009E-06-3.36809E-06 4.36716E-34 2.33243E-05-3.05786E-18-1.62494E-19
 -1      2819-2.06621E-06-6.29569E-06 6.72693E-34 1.75478E-05 1.17078E-17-8.86701E-19
 -1      2820-4.53502E-06-5.83511E-06 5.76069E-34 2.58904E-05-6.01809E-18-2.14283E-19
 -1      2821-3.88065E-07-8.75316E-06 1.77589E-34 1.96081E-05 4.41112E-18 2.27620E-19
 -1      2822-2.13016E-06-8.78753E-06 9.51139E-35 2.83141E-05 3.69383E-18-3.56807E-20
 -1      2823 1.66966E-06-1.16606E-05 6.23038E-34 2.15127E-05-6.59912E-18-3.00685E-19
 -1      2824 7.86890E-07-1.22578E-05 6.07855E-34 3.04435E-05-7.84998E-18-6.44528E-21
 -1      2825 4.11977E-06-1.50472E-05 2.43552E-34 2.31081E-05-1.04997E-17-8.50934E-20
 -1      2826 4.22562E-06-1.62685E-05 5.52536E-34 3.20774E-05-4.41163E-18-6.33272E-20
 -1      2827 6.96334E-06-1.89291E-05 1.06121E-33 2.41984E-05 3.53333E-18 2.96634E-20
 -1      2828 8.17390E-06-2.08242E-05 2.90791E-34 3.29611E-05 3.95262E-18-4.45552E-20
 -1      2829 1.01800E-05-2.32978E-05 1.68191E-34 2.45440E-05-7.29444E-19-1.27820E-19
 -1      2830 1.25811E-05-2.58958E-05 6.76731E-34 3.27882E-05-6.76241E-18-4.19932E-19
 -1      2831 1.37102E-05-2.81017E-05 3.83740E-34 2.38686E-05-1.19346E-17 2.26298E-19
 -1      2832 1.73247E-05-3.13935E-05 6.71301E-34 3.12133E-05-1.07678E-17 2.36424E-19
 -1      2833 1.74216E-05-3.32184E-05 2.16657E-34 2.18822E-05 9.06917E-18 7.80309E-20
 -1      2834 2.21420E-05-3.71162E-05 2.28321E-34 2.78887E-05 4.07937E-18 3.46136E-19
 -1      2835 2.10396E-05-3.84056E-05 9.90726E-34 1.83398E-05-3.03284E-18-7.83399E-19
 -1      2836 2.64893E-05-4.26509E-05 2.79544E-34 2.25321E-05 4.81604E-18-2.65077E-19
 -1      2837 2.39842E-05-4.31986E-05 3.23665E-34 1.31738E-05-5.51591E-18-9.08056E-19
 -1      2838 2.92297E-05-4.71470E-05 5.79789E-34 1.50149E-05-7.23700E-18-8.15315E-19
 -1      2839 2.49599E-05-4.66930E-05 1.11329E-33 6.69856E-06-1.97918E-17 5.61895E-19
 -1      2840 2.81194E-05-4.88023E-05 2.81850E-34 5.44986E-06-2.22778E-18 1.58142E-18
 -1      2841 2.09620E-05-4.65419E-05-4.25842E-35-9.48656E-09-3.40657E-18-1.39225E-18
 -1      2842-1.43522E-05 6.13636E-06 9.43849E-34-4.76202E-08 1.60774E-17-1.28664E-18
 -1      2843-2.32272E-05 9.97729E-06 2.67288E-34 1.24289E-06-2.79766E-18-5.05375E-19
 -1      2844-1.50655E-05 6.41222E-06 3.19171E-34 1.76546E-06-4.62567E-18-4.31335E-19
 -1      2845-2.36720E-05 1.01749E-05 2.61799E-34 3.70411E-06-3.16371E-18 1.13911E-18
 -1      2846-1.57056E-05 6.60191E-06 3.84586E-34 3.70501E-06 5.93039E-18 5.37534E-19
 -1      2847-2.40426E-05 1.02884E-05 6.07686E-34 6.25061E-06 1.41801E-17-1.45691E-18
 -1      2848-1.62518E-05 6.69466E-06 2.88825E-34 5.80003E-06-9.23475E-18-1.47458E-18
 -1      2849-2.42981E-05 1.02792E-05 1.22438E-34 8.93157E-06 4.76851E-18-8.36971E-19
 -1      2850-1.66762E-05 6.66965E-06 2.64333E-34 8.04592E-06-9.98986E-20 5.10278E-19
 -1      2851-2.44000E-05 1.01167E-05 2.11854E-34 1.17687E-05-1.00185E-17-1.49057E-18
 -1      2852-1.69428E-05 6.49642E-06 9.08517E-34 1.04399E-05-5.85307E-18-7.14478E-19
 -1      2853-2.43059E-05 9.76845E-06 4.73316E-34 1.47667E-05 1.11411E-17 6.17608E-19
 -1      2854-1.70096E-05 6.13846E-06 3.69343E-34 1.29798E-05 2.48062E-18-4.22451E-19
 -1      2855-2.39670E-05 9.19749E-06 6.91255E-34 1.79212E-05 1.64180E-17-3.35557E-19
 -1      2856-1.68294E-05 5.55464E-06 1.98252E-34 1.56612E-05 4.88703E-19-1.17764E-18
 -1      2857-2.33283E-05 8.36130E-06 7.65621E-34 2.12206E-05 6.11095E-18 7.34199E-19
 -1      2858-1.63506E-05 4.70005E-06 2.64802E-34 1.84747E-05 1.47715E-17 2.91550E-19
 -1      2859-2.23279E-05 7.21172E-06 4.45523E-34 2.46446E-05 5.72855E-18 3.68780E-19
 -1      2860-1.55181E-05 3.52668E-06 2.64218E-34 2.14031E-05 1.82428E-18 1.08555E-18
 -1      2861-2.08982E-05 5.69550E-06 2.61285E-34 2.81623E-05 1.27656E-18-1.96793E-19
 -1      2862-1.42741E-05 1.98422E-06 7.01325E-34 2.44176E-05 1.47192E-18 3.57800E-19
 -1      2863-1.89670E-05 3.75516E-06 2.04252E-34 3.17279E-05 2.01887E-18 2.91674E-19
 -1      2864-1.25597E-05 2.10453E-08 1.54786E-34 2.74730E-05-3.02563E-19-6.43413E-19
 -1      2865-1.64596E-05 1.33046E-06 2.13171E-34 3.52753E-05 8.16767E-19 6.18326E-19
 -1      2866-1.03171E-05-2.41442E-06 5.65277E-34 3.05015E-05 2.50005E-18 2.22089E-19
 -1      2867-1.33018E-05-1.63962E-06 5.75810E-34 3.87119E-05-4.28897E-18-2.49297E-19
 -1      2868-7.49182E-06-5.37194E-06 2.87807E-34 3.34054E-05-1.02639E-18 5.26231E-19
 -1      2869-9.42365E-06-5.21386E-06 4.23627E-34 4.19093E-05-4.56307E-18 2.70894E-19
 -1      2870-4.03698E-06-8.89676E-06 5.27195E-34 3.60485E-05-1.82613E-18 4.80574E-19
 -1      2871-4.76652E-06-9.44422E-06 2.27765E-34 4.46935E-05-1.81208E-18-6.99666E-20
 -1      2872 8.12958E-08-1.30254E-05 2.23382E-34 3.82466E-05-1.02562E-17-2.99880E-20
 -1      2873 7.07475E-07-1.43686E-05 2.90003E-34 4.68336E-05 1.14825E-19-1.72833E-19
 -1      2874 4.87418E-06-1.77786E-05 3.77661E-34 3.97587E-05 5.94770E-18 4.90969E-21
 -1      2875 6.99896E-06-1.99984E-05 4.10916E-34 4.80308E-05-2.10554E-18 1.73245E-20
 -1      2876 1.03135E-05-2.31482E-05 5.29367E-34 4.02806E-05-3.55449E-18 3.53046E-20
 -1      2877 1.40437E-05-2.62981E-05 3.46034E-34 4.79093E-05-2.77076E-18 2.37024E-19
 -1      2878 1.63015E-05-2.90750E-05 1.77281E-34 3.94443E-05 8.02526E-19-8.16361E-20
 -1      2879 2.16650E-05-3.31480E-05 7.33446E-34 4.60125E-05-4.10631E-18-1.52612E-19
 -1      2880 2.26158E-05-3.54075E-05 7.00593E-34 3.68288E-05 3.32885E-18-6.21231E-20
 -1      2881 2.94900E-05-4.02809E-05 5.50936E-34 4.18086E-05 1.87250E-18-5.79685E-19
 -1      2882 2.88066E-05-4.18255E-05 4.09395E-34 3.19887E-05 1.48931E-17 6.38731E-19
 -1      2883 3.68088E-05-4.71733E-05 5.11947E-34 3.47015E-05-6.93951E-18 7.07164E-20
 -1      2884 3.40052E-05-4.77030E-05 4.53567E-34 2.44972E-05-5.87989E-18-9.03526E-19
 -1      2885 4.23405E-05-5.28605E-05 2.71832E-34 2.40437E-05-2.17936E-18 5.56785E-19
 -1      2886 3.65910E-05-5.18554E-05 2.13064E-34 1.39705E-05 9.79276E-18 8.67324E-19
 -1      2887 4.39376E-05-5.55982E-05 4.01778E-34 9.15567E-06-3.52215E-18 7.02389E-19
 -1      2888 3.37067E-05-5.19508E-05 3.94992E-34 8.91830E-08-7.50743E-18-1.07190E-19
 -1      2889-3.41393E-05 1.46257E-05 2.00068E-34-5.51055E-08 2.71846E-19-2.18532E-20
 -1      2890-4.52596E-05 1.94080E-05 3.22145E-34 1.61478E-06-7.10555E-18 9.36426E-19
 -1      2891-3.43384E-05 1.46814E-05 6.37265E-34 2.53816E-06 7.65658E-18 1.04454E-18
 -1      2892-4.51068E-05 1.93566E-05 7.84956E-35 4.82785E-06 6.76436E-19 1.06218E-18
 -1      2893-3.44392E-05 1.46472E-05 3.56918E-34 5.31397E-06-7.88586E-18 6.09177E-19
 -1      2894-4.48252E-05 1.91930E-05 8.89454E-35 8.15168E-06-5.38970E-18-5.48618E-20
 -1      2895-3.44157E-05 1.45142E-05 9.97621E-35 8.30402E-06-6.88829E-18 6.55358E-19
 -1      2896-4.43764E-05 1.88898E-05 2.47821E-34 1.16562E-05-6.09844E-18-9.28094E-19
 -1      2897-3.42335E-05 1.42560E-05 3.31677E-34 1.14919E-05-4.11243E-18 1.39557E-18
 -1      2898-4.37200E-05 1.84198E-05 6.80217E-34 1.53648E-05-7.93296E-18 6.98596E-19
 -1      2899-3.38509E-05 1.38386E-05 2.36606E-34 1.48681E-05-6.19763E-18-1.21870E-18
 -1      2900-4.28097E-05 1.77505E-05 2.73494E-34 1.92776E-05-5.90658E-18-8.65471E-21
 -1      2901-3.32193E-05 1.32225E-05 2.87760E-34 1.84239E-05-2.52788E-18 9.21824E-19
 -1      2902-4.15904E-05 1.68424E-05 6.92955E-34 2.33842E-05 2.60057E-18 1.62065E-18
 -1      2903-3.22830E-05 1.23628E-05 1.47213E-34 2.21465E-05-3.12681E-18 3.08980E-19
 -1      2904-3.99988E-05 1.56486E-05 3.34046E-34 2.76655E-05-7.44941E-18 8.97856E-19
 -1      2905-3.09787E-05 1.12090E-05 5.65500E-34 2.60160E-05-1.72090E-18 7.79296E-19
 -1      2906-3.79619E-05 1.41148E-05 3.43937E-34 3.20921E-05-3.81609E-18 6.32831E-19
 -1      2907-2.92355E-05 9.70452E-06 3.98317E-34 3.00021E-05 3.95853E-18-9.05783E-19
 -1      2908-3.53979E-05 1.21792E-05 1.75115E-34 3.66217E-05 2.66099E-18 1.08424E-19
 -1      2909-2.69753E-05 7.78750E-06 2.45387E-34 3.40608E-05-8.41973E-19-6.64930E-19
 -1      2910-3.22158E-05 9.77280E-06 2.44616E-34 4.11944E-05 2.33648E-18-3.46913E-19
 -1      2911-2.41139E-05 5.39107E-06 3.81950E-34 3.81298E-05-5.68547E-18 2.19464E-19
 -1      2912-2.83170E-05 6.82034E-06 2.12767E-34 4.57274E-05-3.64799E-19-7.94633E-19
 -1      2913-2.05628E-05 2.44488E-06 8.90836E-35 4.21222E-05 7.11226E-18 5.60772E-19
 -1      2914-2.35976E-05 3.24209E-06 3.25618E-34 5.01071E-05 3.11118E-18-4.49192E-19
 -1      2915-1.62333E-05-1.12245E-06 2.04441E-34 4.59186E-05 4.68754E-18-1.88473E-19
 -1      2916-1.79531E-05-1.04286E-06 1.74089E-34 5.41798E-05 3.01365E-18 9.42046E-20
 -1      2917-1.10414E-05-5.37942E-06 7.58150E-34 4.93569E-05-6.38715E-18 1.90667E-19
 -1      2918-1.12859E-05-6.11086E-06 3.65313E-34 5.77394E-05 2.22884E-18-2.13005E-19
 -1      2919-4.91692E-06-1.03852E-05 2.96611E-34 5.22207E-05 3.73788E-18-1.49583E-19
 -1      2920-3.51888E-06-1.20241E-05 1.49138E-34 6.05117E-05 1.93786E-18-3.21032E-20
 -1      2921 2.18151E-06-1.61788E-05 3.92997E-34 5.42246E-05 7.31988E-18 2.44219E-20
 -1      2922 5.38421E-06-1.88144E-05 2.86441E-34 6.21374E-05-7.45417E-18 7.85997E-21
 -1      2923 1.02428E-05-2.27617E-05 3.25386E-34 5.50000E-05-8.74636E-18 2.17128E-20
 -1      2924 1.53834E-05-2.64574E-05 5.94237E-34 6.21525E-05-3.95651E-18-4.01853E-20
 -1      2925 1.91631E-05-3.00674E-05 5.32987E-34 5.40815E-05 4.26320E-18-1.97807E-19
 -1      2926 2.63067E-05-3.48285E-05 2.28128E-34 5.99682E-05 6.15365E-18 2.34409E-19
 -1      2927 2.86796E-05-3.79119E-05 4.64270E-34 5.08964E-05 4.17175E-19 2.51561E-19
 -1      2928 3.77605E-05-4.36339E-05 1.84679E-34 5.48540E-05-2.80428E-18-6.74663E-20
 -1      2929 3.82608E-05-4.59094E-05 5.56572E-36 4.47605E-05 6.24903E-20-9.50023E-19
 -1      2930 4.89914E-05-5.23017E-05 9.71169E-35 4.59192E-05 4.83585E-18 3.19905E-19
 -1      2931 4.69319E-05-5.33364E-05 4.30103E-34 3.48744E-05-8.92369E-19 1.21202E-19
 -1      2932 5.86858E-05-5.98280E-05 8.87170E-35 3.21081E-05 9.79526E-18-7.24155E-19
 -1      2933 5.30239E-05-5.89492E-05 6.24161E-34 2.03061E-05 1.16018E-17 5.71846E-19
 -1      2934 6.46817E-05-6.44709E-05 4.35936E-34 1.22948E-05 1.31423E-19 1.92790E-19
 -1      2935 5.38881E-05-6.06106E-05 8.88491E-35 1.72767E-07-3.87259E-18-1.61253E-18
 -1      2936-5.78900E-05 2.48054E-05 1.25007E-34-6.01648E-08-2.96543E-18 1.76109E-19
 -1      2937-7.00970E-05 3.00479E-05 9.11839E-35 1.90705E-06 5.12465E-18 9.48074E-19
 -1      2938-5.74673E-05 2.45994E-05 4.96469E-34 3.16960E-06 1.12553E-17 1.65973E-19
 -1      2939-6.92679E-05 2.97063E-05 1.85558E-34 5.70712E-06-8.15869E-19-3.05315E-19
 -1      2940-5.68997E-05 2.42874E-05 3.38865E-34 6.62932E-06 1.64548E-18 6.75479E-19
 -1      2941-6.82517E-05 2.92288E-05 2.61105E-34 9.65698E-06 8.23254E-18-2.18247E-19
 -1      2942-5.61576E-05 2.38620E-05 2.74173E-34 1.03493E-05 3.44586E-18-2.00986E-18
 -1      2943-6.70097E-05 2.85942E-05 5.08349E-34 1.38352E-05-2.20947E-18 5.74885E-19
 -1      2944-5.52005E-05 2.32927E-05 2.74090E-34 1.43110E-05-4.77557E-18 8.25736E-19
 -1      2945-6.54975E-05 2.77760E-05 1.56598E-34 1.82640E-05 4.56647E-18 1.57364E-19
 -1      2946-5.39821E-05 2.25442E-05 7.70205E-34 1.85045E-05 8.91846E-18-1.38539E-19
 -1      2947-6.36633E-05 2.67401E-05 3.78971E-34 2.29414E-05 7.09308E-18 1.35913E-18
 -1      2948-5.24484E-05 2.15755E-05 2.02387E-34 2.29198E-05 1.81785E-18 1.17623E-18
 -1      2949-6.14458E-05 2.54443E-05 2.56455E-34 2.78554E-05-1.93653E-18 2.70193E-19
 -1      2950-5.05368E-05 2.03396E-05 1.96276E-34 2.75408E-05 7.72511E-19 4.95729E-19
 -1      2951-5.87735E-05 2.38383E-05 9.29803E-35 3.29847E-05-5.57201E-18-7.64826E-19
 -1      2952-4.81747E-05 1.87826E-05 4.73112E-34 3.23424E-05-1.27676E-18 1.12539E-18
 -1      2953-5.55633E-05 2.18631E-05 1.60536E-34 3.82966E-05-7.50731E-18-4.04584E-19
 -1      2954-4.52790E-05 1.68423E-05 5.08931E-35 3.72870E-05-1.28770E-18-5.18569E-19
 -1      2955-5.17198E-05 1.94498E-05 4.71499E-34 4.37429E-05-6.20434E-18 5.51256E-19
 -1      2956-4.17557E-05 1.44486E-05 3.11884E-34 4.23208E-05 6.59088E-18 2.56291E-19
 -1      2957-4.71345E-05 1.65195E-05 2.04037E-34 4.92553E-05 5.48810E-18-2.91758E-19
 -1      2958-3.75000E-05 1.15232E-05 3.96281E-34 4.73685E-05-4.22442E-18-8.79198E-20
 -1      2959-4.16858E-05 1.29837E-05 3.04930E-34 5.47387E-05-1.05838E-17 4.90525E-19
 -1      2960-3.23974E-05 7.98018E-06 1.92773E-34 5.23263E-05 4.86627E-18 1.13330E-19
 -1      2961-3.52408E-05 8.74494E-06 4.28027E-34 6.00621E-05 1.99960E-18 2.80318E-19
 -1      2962-2.63268E-05 3.72857E-06 2.70311E-34 5.70527E-05-6.97425E-18 2.81807E-19
 -1      2963-2.76591E-05 3.70002E-06 1.23940E-34 6.50467E-05-2.48740E-19 7.34721E-21
 -1      2964-1.91663E-05-1.32388E-06 4.50218E-34 6.13563E-05 3.15302E-19 1.53766E-20
 -1      2965-1.88005E-05-2.25382E-06 3.14188E-34 6.94510E-05-6.46449E-18-1.26940E-19
 -1      2966-1.08034E-05-7.26292E-06 2.93665E-34 6.49806E-05-5.27991E-18-2.90891E-19
 -1      2967-8.53907E-06-9.20823E-06 4.08530E-34 7.29509E-05-3.11288E-18 3.05229E-20
 -1      2968-1.15245E-06-1.41549E-05 3.00711E-34 6.75848E-05 6.83394E-18-7.48428E-21
 -1      2969 3.21256E-06-1.72252E-05 7.07529E-35 7.51158E-05 2.03102E-19-7.42911E-20
 -1      2970 9.81668E-06-2.20251E-05 1.03773E-34 6.87218E-05 9.68009E-19-4.94334E-21
 -1      2971 1.64644E-05-2.63070E-05 2.77376E-34 7.53808E-05 5.13551E-18-2.66346E-19
 -1      2972 2.20318E-05-3.08226E-05 2.38252E-34 6.78125E-05 2.02952E-18 1.85606E-19
 -1      2973 3.10867E-05-3.63479E-05 1.78202E-34 7.30142E-05-2.39489E-19-3.71313E-19
 -1      2974 3.52447E-05-4.03642E-05 4.78789E-34 6.41199E-05-1.06867E-17-8.12049E-19
 -1      2975 4.67130E-05-4.70598E-05 2.99582E-34 6.70852E-05 2.38782E-18-1.07721E-19
 -1      2976 4.89162E-05-5.02463E-05 9.74993E-35 5.67235E-05-1.74367E-18 2.35445E-19
 -1      2977 6.25948E-05-5.78578E-05 3.57971E-34 5.64287E-05 1.80956E-18 4.07526E-19
 -1      2978 6.20442E-05-5.97103E-05 3.71692E-34 4.44960E-05 7.88859E-18-4.15212E-19
 -1      2979 7.73915E-05-6.77042E-05 3.38602E-34 3.96322E-05-7.41657E-19-6.00146E-19
 -1      2980 7.29249E-05-6.74684E-05 1.28990E-34 2.60836E-05 3.42923E-18 6.49744E-19
 -1      2981 8.88271E-05-7.47806E-05 2.68136E-34 1.52012E-05 1.53133E-18 1.46486E-18
 -1      2982 7.88239E-05-7.13167E-05 5.88249E-34 2.58880E-07-2.09836E-18 3.62191E-19
 -1      2983-8.36806E-05 3.58601E-05 1.05760E-34-5.89825E-08 8.34132E-18 7.13571E-19
 -1      2984-9.61703E-05 4.12190E-05 4.09848E-34 2.12667E-06-6.49115E-19-3.17063E-19
 -1      2985-8.25955E-05 3.53741E-05 3.44408E-34 3.68112E-06-7.74394E-18 1.69969E-19
 -1      2986-9.46487E-05 4.05788E-05 1.13954E-34 6.37543E-06-2.03089E-18 4.32513E-19
 -1      2987-8.13139E-05 3.47662E-05 2.67872E-34 7.69368E-06 5.22533E-18-2.82491E-19
 -1      2988-9.28841E-05 3.97842E-05 1.00291E-34 1.08181E-05-2.44636E-18-7.11067E-19
 -1      2989-7.98034E-05 3.40275E-05 3.73007E-34 1.20040E-05 1.34076E-18-2.29262E-18
 -1      2990-9.08369E-05 3.88180E-05 5.70362E-35 1.55346E-05 1.41057E-18-5.71284E-19
 -1      2991-7.80179E-05 3.31252E-05 1.93676E-34 1.65960E-05 4.96972E-18 6.85904E-19
 -1      2992-8.84584E-05 3.76527E-05 2.76598E-34 2.05457E-05 7.20877E-18-9.84173E-19
 -1      2993-7.59066E-05 3.20228E-05 4.71799E-34 2.14626E-05-3.01516E-19-5.54305E-20
 -1      2994-8.56913E-05 3.62525E-05 2.65266E-35 2.58505E-05-2.24950E-18-1.01302E-18
 -1      2995-7.34097E-05 3.06784E-05 7.88621E-35 2.65955E-05-1.88598E-19 1.42400E-19
 -1      2996-8.24676E-05 3.45724E-05 1.69680E-34 3.14387E-05 5.15408E-18-1.15909E-18
 -1      2997-7.04571E-05 2.90429E-05 3.06448E-34 3.19791E-05 3.00849E-18-1.59778E-20
 -1      2998-7.87069E-05 3.25586E-05 2.12462E-34 3.72911E-05 7.48679E-18 4.09270E-20
 -1      2999-6.69668E-05 2.70586E-05 4.67505E-35 3.75875E-05-2.99964E-18 7.57376E-19
 -1      3000-7.43144E-05 3.01461E-05 4.57638E-34 4.33757E-05 8.40375E-18 9.58752E-19
 -1      3001-6.28431E-05 2.46579E-05 3.17173E-34 4.33811E-05 8.29197E-18-3.46087E-19
 -1      3002-6.91793E-05 2.72583E-05 1.71633E-34 4.96436E-05-8.31456E-18-1.46580E-19
 -1      3003-5.79753E-05 2.17625E-05 5.84414E-35 4.93017E-05 1.56621E-18-7.47633E-19
 -1      3004-6.31725E-05 2.38049E-05 3.41305E-34 5.60231E-05 8.24690E-18 1.89687E-19
 -1      3005-5.22369E-05 1.82821E-05 3.41008E-34 5.52663E-05-9.38472E-19 3.43346E-20
 -1      3006-5.61461E-05 1.96820E-05 5.07366E-34 6.24113E-05-8.02617E-19-2.67452E-19
 -1      3007-4.54855E-05 1.41149E-05 1.57881E-34 6.11587E-05-6.64207E-18 2.67488E-19
 -1      3008-4.79333E-05 1.47721E-05 2.21828E-34 6.86629E-05 1.03190E-17-1.28167E-19
 -1      3009-3.75651E-05 9.14901E-06 2.27987E-34 6.68180E-05 1.25566E-18-1.45888E-19
 -1      3010-3.83517E-05 8.94705E-06 2.24273E-34 7.45761E-05-2.65103E-18-1.28314E-19
 -1      3011-2.83111E-05 3.26649E-06 3.27067E-34 7.20238E-05 1.43121E-18-1.21123E-20
 -1      3012-2.72112E-05 2.07450E-06 3.87866E-34 7.98728E-05 4.11381E-18 1.04092E-19
 -1      3013-1.75613E-05-3.64857E-06 1.60361E-34 7.64768E-05-2.97182E-18 1.06795E-19
 -1      3014-1.43288E-05-5.97016E-06 2.07684E-34 8.41755E-05 6.33910E-18-1.09223E-21
 -1      3015-5.17496E-06-1.16954E-05 3.03510E-34 7.97750E-05 9.82769E-19-4.08623E-20
 -1      3016 4.45430E-07-1.52833E-05 4.30444E-34 8.69774E-05-6.04050E-18-1.33815E-19
 -1      3017 8.93540E-06-2.09321E-05 4.95859E-34 8.13844E-05-5.22048E-18-1.11479E-19
 -1      3018 1.71852E-05-2.59000E-05 2.36489E-34 8.76070E-05 7.05841E-18-1.61773E-19
 -1      3019 2.47526E-05-3.13372E-05 1.14122E-34 8.06046E-05 1.65266E-18-3.63181E-19
 -1      3020 3.58214E-05-3.77431E-05 2.98579E-34 8.51878E-05-9.13947E-19 2.59004E-19
 -1      3021 4.20747E-05-4.27483E-05 4.80988E-34 7.65303E-05-6.38655E-18-6.45496E-19
 -1      3022 5.60385E-05-5.05444E-05 5.97605E-35 7.85921E-05-6.17673E-18 9.31382E-19
 -1      3023 6.03920E-05-5.47695E-05 2.33782E-34 6.80108E-05-2.18653E-18-5.02304E-20
 -1      3024 7.71177E-05-6.37242E-05 1.54166E-34 6.63904E-05 5.52355E-18 1.25842E-19
 -1      3025 7.87031E-05-6.66288E-05 2.16753E-34 5.36109E-05-1.10024E-18 6.30863E-20
 -1      3026 9.77022E-05-7.62195E-05 2.38731E-34 4.68215E-05-2.55847E-18-3.31785E-19
 -1      3027 9.52520E-05-7.69847E-05 1.76125E-34 3.15851E-05-1.54952E-18 1.54477E-19
 -1      3028 1.15349E-04-8.60979E-05 1.52754E-34 1.80012E-05 7.90707E-18-2.23631E-18
 -1      3029 1.07060E-04-8.34519E-05 1.12929E-34 3.54883E-07-2.03635E-18 7.76820E-20
 -1      3030-1.10103E-04 4.71846E-05 1.30444E-34-5.36700E-08 9.46708E-18-7.68630E-19
 -1      3031-1.22280E-04 5.24063E-05 4.42017E-34 2.27492E-06-1.80743E-18-1.34165E-19
 -1      3032-1.08364E-04 4.64234E-05 4.12508E-34 4.07602E-06-8.70252E-18 3.01671E-19
 -1      3033-1.20101E-04 5.14833E-05 3.56950E-34 6.84142E-06 6.84192E-18-1.03856E-18
 -1      3034-1.06381E-04 4.55268E-05 3.89836E-34 8.51502E-06-9.28461E-19 2.92791E-19
 -1      3035-1.17631E-04 5.03935E-05 3.97976E-34 1.16499E-05 3.18370E-18-5.00952E-19
 -1      3036-1.04119E-04 4.44843E-05 2.68531E-35 1.32836E-05-2.94157E-18 3.12277E-19
 -1      3037-1.14829E-04 4.91227E-05 6.87772E-34 1.67765E-05-9.93671E-18-3.40896E-19
 -1      3038-1.01527E-04 4.32618E-05 1.71325E-34 1.83723E-05 7.44113E-18 6.34601E-19
 -1      3039-1.11643E-04 4.76417E-05 4.09898E-34 2.22421E-05-9.56001E-18 1.55683E-18
 -1      3040-9.85485E-05 4.18219E-05 3.12328E-34 2.37791E-05 5.44281E-18 3.13087E-19
 -1      3041-1.08009E-04 4.59122E-05 4.09563E-34 2.80498E-05-2.61720E-18 5.30409E-19
 -1      3042-9.51186E-05 4.01214E-05 1.23323E-34 2.95002E-05-7.42043E-18-6.32767E-20
 -1      3043-1.03852E-04 4.38860E-05 1.59510E-34 3.41949E-05-3.28869E-18 4.19330E-19
 -1      3044-9.11584E-05 3.81083E-05 1.64374E-34 3.55238E-05 7.98637E-18 2.72873E-19
 -1      3045-9.90795E-05 4.15037E-05 1.06022E-34 4.06637E-05 1.01232E-18-1.34366E-19
 -1      3046-8.65748E-05 3.57202E-05 1.51203E-34 4.18274E-05 4.79689E-18-6.23407E-19
 -1      3047-9.35837E-05 3.86929E-05 1.63878E-34 4.74290E-05-9.12823E-19-6.21912E-19
 -1      3048-8.12569E-05 3.28822E-05 2.34563E-34 4.83738E-05-7.93392E-18 2.03016E-19
 -1      3049-8.72336E-05 3.53659E-05 4.24887E-35 5.44453E-05-2.37885E-19 2.88011E-21
 -1      3050-7.50739E-05 2.95052E-05 5.31475E-34 5.51047E-05 7.41565E-18-7.93164E-19
 -1      3051-7.98743E-05 3.14174E-05 5.11765E-34 6.16407E-05 3.67369E-18 2.72190E-20
 -1      3052-6.78728E-05 2.54843E-05 1.81417E-34 6.19336E-05 3.57446E-18 4.13492E-19
 -1      3053-7.13246E-05 2.67239E-05 1.93952E-34 6.89069E-05 2.75253E-18 3.09381E-20
 -1      3054-5.94779E-05 2.06983E-05 2.13174E-34 6.87349E-05-7.36898E-18 4.14027E-20
 -1      3055-6.13762E-05 2.11437E-05 1.25622E-34 7.60852E-05-1.90012E-18 1.34581E-19
 -1      3056-4.96913E-05 1.50107E-05 1.73212E-34 7.53298E-05-5.14408E-18 2.71886E-19
 -1      3057-4.97972E-05 1.45202E-05 2.18728E-34 8.29486E-05 1.21701E-18-2.49208E-19
 -1      3058-3.82990E-05 8.27477E-06 1.44750E-34 8.14680E-05 1.38432E-18 1.40361E-19
 -1      3059-3.63405E-05 6.68972E-06 2.54336E-34 8.91793E-05 1.45504E-18 5.71637E-20
 -1      3060-2.50821E-05 3.42014E-07 2.38412E-34 8.68047E-05-6.56274E-18-1.14692E-20
 -1      3061-2.07608E-05-2.50431E-06 5.93729E-35 9.43410E-05-1.82760E-18-3.07501E-20
 -1      3062-9.83772E-06-8.92078E-06 2.57138E-34 9.08721E-05 9.24248E-18 4.24475E-20
 -1      3063-2.84309E-06-1.31887E-05 1.85224E-34 9.78460E-05-8.05074E-19 7.77643E-20
 -1      3064 7.58617E-06-1.96051E-05 2.16309E-34 9.30450E-05 1.37244E-18 1.98451E-19
 -1      3065 1.75521E-05-2.54260E-05 1.88761E-34 9.89162E-05-9.43567E-18 4.17564E-21
 -1      3066 2.72363E-05-3.17196E-05 2.82974E-34 9.25007E-05-1.00300E-17 8.64786E-20
 -1      3067 4.04196E-05-3.91632E-05 4.90411E-35 9.65362E-05-1.87475E-18 3.15118E-19
 -1      3068 4.89709E-05-4.51277E-05 2.31642E-34 8.81709E-05 1.01259E-17 4.89495E-19
 -1      3069 6.55059E-05-5.41553E-05 1.39507E-34 8.93969E-05 1.64125E-18-7.13863E-19
 -1      3070 7.23309E-05-5.94537E-05 2.25352E-34 7.86867E-05-5.71117E-18-6.00933E-20
 -1      3071 9.21449E-05-6.98439E-05 1.16611E-34 7.58238E-05-5.84631E-18 3.68646E-19
 -1      3072 9.63415E-05-7.39320E-05 3.35956E-34 6.23170E-05 1.78027E-18-4.62514E-19
 -1      3073 1.19000E-04-8.51690E-05 4.95594E-34 5.37094E-05 1.39211E-17-4.09672E-19
 -1      3074 1.19207E-04-8.71835E-05 1.81115E-34 3.69145E-05-6.80592E-19-8.73686E-19
 -1      3075 1.43480E-04-9.81053E-05 4.81647E-34 2.07248E-05-1.44365E-17 5.79007E-19
 -1      3076 1.37642E-04-9.65948E-05 1.13353E-33 4.67672E-07 1.89876E-17-6.38620E-19
 -1      3077-1.36074E-04 5.83160E-05 5.13065E-34-4.44734E-08 1.02694E-17 3.14792E-18
 -1      3078-1.47510E-04 6.32179E-05 3.28684E-34 2.35401E-06-5.14344E-19-1.49753E-18
 -1      3079-1.33739E-04 5.73042E-05 1.61896E-34 4.35440E-06 7.81849E-18-1.21516E-18
 -1      3080-1.44759E-04 6.20496E-05 1.19900E-34 7.11438E-06-3.31404E-18 1.42335E-18
 -1      3081-1.31120E-04 5.61482E-05 3.03873E-34 9.09631E-06-1.11437E-17 1.29749E-18
 -1      3082-1.41680E-04 6.07093E-05 1.32756E-34 1.21699E-05 5.17875E-18 6.31242E-19
 -1      3083-1.28181E-04 5.48363E-05 1.44496E-34 1.41978E-05 1.35759E-18 6.82707E-19
 -1      3084-1.38232E-04 5.91845E-05 2.79358E-34 1.75894E-05-2.35072E-18-7.95783E-19
 -1      3085-1.24866E-04 5.33329E-05 3.51064E-34 1.96594E-05-7.53519E-18 1.57717E-18
 -1      3086-1.34357E-04 5.74433E-05 1.83963E-34 2.33971E-05-2.67646E-19-5.39004E-19
 -1      3087-1.21114E-04 5.15999E-05 1.20946E-34 2.54872E-05 6.31287E-18-6.74542E-19
 -1      3088-1.29986E-04 5.54436E-05 1.62888E-34 2.96035E-05 3.28723E-18 3.49465E-19
 -1      3089-1.16852E-04 4.95916E-05 2.50647E-34 3.16847E-05 6.20340E-18-7.11259E-19
 -1      3090-1.25032E-04 5.31318E-05 1.26485E-34 3.62135E-05 2.06307E-19 1.46714E-19
 -1      3091-1.11992E-04 4.72514E-05 3.59320E-35 3.82477E-05-2.56022E-18 2.83771E-19
 -1      3092-1.19390E-04 5.04403E-05 2.26180E-34 4.32223E-05-8.84910E-18-3.28702E-19
 -1      3093-1.06425E-04 4.45095E-05 4.64930E-34 4.51608E-05 1.06056E-18-2.55596E-19
 -1      3094-1.12932E-04 4.72850E-05 2.16870E-34 5.06111E-05 3.32880E-18 3.28750E-19
 -1      3095-1.00021E-04 4.12802E-05 1.98625E-34 5.23924E-05 9.13670E-18 2.52628E-19
 -1      3096-1.05500E-04 4.35621E-05 2.86589E-34 5.83399E-05-1.10800E-18 1.28814E-19
 -1      3097-9.26231E-05 3.74592E-05 3.15854E-34 5.98874E-05-2.49353E-18-4.54018E-19
 -1      3098-9.69059E-05 3.91456E-05 3.12578E-34 6.63375E-05-2.24279E-18 2.97989E-19
 -1      3099-8.40439E-05 3.29219E-05 3.19517E-35 6.75571E-05 4.90884E-19 2.98271E-19
 -1      3100-8.69250E-05 3.38864E-05 2.95874E-34 7.44883E-05 3.39708E-18 5.90835E-19
 -1      3101-7.40658E-05 2.75224E-05 3.05708E-34 7.52659E-05 9.15464E-18 9.14250E-19
 -1      3102-7.52992E-05 2.76141E-05 7.12379E-35 8.26153E-05-1.22203E-18 3.24914E-19
 -1      3103-6.24419E-05 2.10958E-05 5.35424E-34 8.28142E-05 1.21759E-18 6.27410E-21
 -1      3104-6.17399E-05 2.01421E-05 5.59667E-35 9.04589E-05 1.29354E-18 4.36610E-19
 -1      3105-4.89020E-05 1.34646E-05 1.73973E-35 8.99163E-05-7.24801E-19-7.71899E-20
 -1      3106-4.59405E-05 1.12785E-05 2.38188E-34 9.76514E-05 4.96795E-20 6.13607E-20
 -1      3107-3.31676E-05 4.44996E-06 2.71028E-34 9.61746E-05-1.48030E-18-1.45352E-20
 -1      3108-2.75966E-05 8.44275E-07 3.36399E-34 1.03689E-04-9.81234E-18 1.71771E-21
 -1      3109-1.49749E-05-6.10828E-06 3.00576E-34 1.01049E-04 3.95857E-18 1.62992E-20
 -1      3110-6.43792E-06-1.13019E-05 3.25994E-34 1.07897E-04 5.33287E-18 1.04963E-20
 -1      3111 5.88736E-06-1.83234E-05 5.33152E-34 1.03821E-04-4.65757E-18-2.12061E-19
 -1      3112 1.77260E-05-2.52302E-05 1.06986E-34 1.09398E-04 4.03704E-18-1.29479E-19
 -1      3113 2.95239E-05-3.22212E-05 1.80425E-34 1.03553E-04-9.73871E-18 1.25808E-19
 -1      3114 4.49423E-05-4.08947E-05 2.41515E-34 1.07056E-04 1.91481E-18-3.79729E-19
 -1      3115 5.58526E-05-4.76832E-05 2.06628E-34 9.90316E-05-1.51717E-18-4.42691E-19
 -1      3116 7.50208E-05-5.80698E-05 2.59795E-34 9.94189E-05 3.46531E-18-6.75106E-19
 -1      3117 8.44807E-05-6.43598E-05 4.00046E-34 8.87001E-05 1.14489E-17 3.48335E-19
 -1      3118 1.07380E-04-7.62400E-05 1.12941E-34 8.46070E-05 3.73297E-18 1.31179E-19
 -1      3119 1.14500E-04-8.15225E-05 3.81901E-35 7.05586E-05-3.73101E-18-8.00165E-19
 -1      3120 1.40773E-04-9.44061E-05 2.63736E-34 6.01889E-05 1.15335E-18 1.18057E-18
 -1      3121 1.44140E-04-9.78104E-05 5.02789E-35 4.20473E-05 6.55931E-18-1.15465E-18
 -1      3122 1.72566E-04-1.10536E-04 2.18294E-34 2.33322E-05 7.21657E-18 1.37662E-19
 -1      3123 1.69846E-04-1.10425E-04 9.89427E-35 6.00877E-07 3.10922E-18 2.26993E-18
 -1      3124-1.60785E-04 6.89065E-05 1.63969E-34-3.22363E-08-1.09364E-17 3.15471E-19
 -1      3125-1.71203E-04 7.33711E-05 2.01956E-34 2.36868E-06 1.40872E-18 1.56451E-18
 -1      3126-1.57956E-04 6.76887E-05 2.71571E-34 4.52012E-06 1.10330E-18 3.03867E-18
 -1      3127-1.68013E-04 7.20161E-05 2.09526E-34 7.21124E-06 7.18602E-18 1.30656E-18
 -1      3128-1.54818E-04 6.63241E-05 1.54844E-34 9.44913E-06 4.79459E-18-3.31535E-19
 -1      3129-1.64472E-04 7.04916E-05 1.92497E-34 1.24097E-05-3.65227E-18 6.42545E-19
 -1      3130-1.51330E-04 6.47991E-05 1.16422E-34 1.47704E-05 4.99778E-19-7.76207E-19
 -1      3131-1.60541E-04 6.87845E-05 2.87802E-34 1.80241E-05 5.21385E-18 1.00167E-18
 -1      3132-1.47433E-04 6.30767E-05 1.36404E-34 2.04985E-05 2.81704E-18 5.17315E-19
 -1      3133-1.56152E-04 6.68584E-05 1.42236E-34 2.40864E-05-5.23698E-20-1.45104E-18
 -1      3134-1.43060E-04 6.11168E-05 2.00842E-34 2.66508E-05-8.63701E-18 2.41895E-18
 -1      3135-1.51228E-04 6.46648E-05 2.15451E-34 3.06193E-05-5.69771E-18 1.73306E-19
 -1      3136-1.38127E-04 5.88688E-05 2.50997E-34 3.32415E-05 6.95862E-18-4.71666E-19
 -1      3137-1.45667E-04 6.21409E-05 8.70002E-35 3.76407E-05-5.33220E-18 1.68959E-19
 -1      3138-1.32532E-04 5.62681E-05 2.81525E-34 4.02776E-05-6.97175E-18-4.39486E-19
 -1      3139-1.39345E-04 5.92059E-05 1.94055E-34 4.51582E-05 1.73085E-18 2.96996E-19
 -1      3140-1.26146E-04 5.32329E-05 9.54463E-35 4.77541E-05 3.80884E-18 1.19727E-18
 -1      3141-1.32103E-04 5.57570E-05 2.52491E-34 5.31632E-05-5.79066E-18 8.04538E-19
 -1      3142-1.18810E-04 4.96607E-05 2.97868E-34 5.56473E-05 6.12052E-19 3.07855E-20
 -1      3143-1.23749E-04 5.16666E-05 8.58880E-35 6.16205E-05 8.48346E-19-1.56029E-19
 -1      3144-1.10332E-04 4.54251E-05 2.84762E-34 6.39048E-05 3.52835E-18-4.00573E-19
 -1      3145-1.14047E-04 4.67801E-05 6.20130E-35 7.04557E-05 1.44573E-18-4.96072E-19
 -1      3146-1.00482E-04 4.03747E-05 1.38890E-34 7.24332E-05-1.67242E-19-3.11485E-19
 -1      3147-1.02719E-04 4.09165E-05 1.28531E-34 7.95377E-05-1.00646E-18-1.56514E-19
 -1      3148-8.89892E-05 3.43333E-05 7.10399E-35 8.10803E-05-3.69894E-18 5.57600E-20
 -1      3149-8.94488E-05 3.38734E-05 1.75392E-34 8.86582E-05-3.24262E-18-2.91748E-19
 -1      3150-7.55506E-05 2.71053E-05 1.36869E-34 8.96153E-05 1.51218E-18 5.47247E-19
 -1      3151-7.38882E-05 2.54377E-05 1.37622E-34 9.75084E-05-3.03683E-18 1.12471E-19
 -1      3152-5.98385E-05 1.84854E-05 1.69114E-34 9.77040E-05 1.32889E-18-9.01515E-20
 -1      3153-5.56776E-05 1.54022E-05 2.24233E-34 1.05653E-04-1.38027E-18 1.09398E-19
 -1      3154-4.15203E-05 8.27574E-06 2.09748E-34 1.04883E-04 7.39843E-19-2.77720E-21
 -1      3155-3.44715E-05 3.58804E-06 2.11714E-34 1.12508E-04-3.58664E-18 6.19276E-20
 -1      3156-2.02867E-05-3.69111E-06 3.31069E-34 1.10531E-04-2.56608E-18-1.43198E-20
 -1      3157-9.97294E-06-1.01292E-05 1.11801E-34 1.17313E-04-2.35235E-18 1.32853E-20
 -1      3158 4.11094E-06-1.75235E-05 2.01926E-34 1.13839E-04 4.90532E-18-2.00313E-20
 -1      3159 1.80269E-05-2.57928E-05 2.20575E-34 1.19104E-04-1.49933E-18 4.22069E-20
 -1      3160 3.18124E-05-3.32373E-05 2.30083E-34 1.13773E-04 1.50208E-18 1.66205E-19
 -1      3161 4.96010E-05-4.33374E-05 1.74101E-34 1.16669E-04-4.30782E-18-2.03301E-19
 -1      3162 6.27835E-05-5.07142E-05 2.42840E-34 1.09017E-04-1.23258E-18 4.55209E-19
 -1      3163 8.46203E-05-6.25519E-05 1.20245E-34 1.08470E-04 4.99454E-19-3.88414E-19
 -1      3164 9.67128E-05-6.96379E-05 2.26707E-34 9.78782E-05 3.45755E-18-9.98665E-20
 -1      3165 1.22629E-04-8.29976E-05 4.75585E-34 9.24965E-05-9.00377E-19-5.89402E-20
 -1      3166 1.32820E-04-8.93645E-05 2.09047E-34 7.81440E-05-2.06316E-18 4.49293E-19
 -1      3167 1.62583E-04-1.03824E-04 3.56370E-34 6.60418E-05-4.69772E-18 3.26958E-19
 -1      3168 1.69478E-04-1.08651E-04 3.18669E-34 4.68524E-05-9.15834E-18 8.00281E-19
 -1      3169 2.01986E-04-1.23143E-04 1.23522E-34 2.57301E-05-4.55212E-19 5.30827E-19
 -1      3170 2.03020E-04-1.24651E-04 1.82187E-35 7.54329E-07 1.75843E-18-4.81987E-19
 -1      3171-1.83668E-04 7.87135E-05 1.10813E-34-1.76633E-08-7.63382E-18-2.44958E-19
 -1      3172-1.92931E-04 8.26831E-05 1.80182E-34 2.32624E-06 3.26727E-18-7.46388E-19
 -1      3173-1.80497E-04 7.73541E-05 2.41197E-34 4.58258E-06-2.77967E-18 1.16579E-18
 -1      3174-1.89483E-04 8.12208E-05 1.56897E-34 7.15722E-06-7.05394E-19-8.03048E-19
 -1      3175-1.77004E-04 7.58519E-05 9.15892E-35 9.59755E-06-1.82340E-18-3.52705E-19
 -1      3176-1.85681E-04 7.95987E-05 1.40479E-34 1.24164E-05 3.03495E-18 2.92780E-20
 -1      3177-1.73149E-04 7.41908E-05 4.29260E-34 1.50463E-05-3.97290E-19 1.23999E-18
 -1      3178-1.81479E-04 7.78002E-05 2.45962E-34 1.81565E-05-4.68246E-18-1.24289E-18
 -1      3179-1.68864E-04 7.23311E-05-4.21821E-35 2.09619E-05 7.36549E-19-7.16540E-19
 -1      3180-1.76803E-04 7.57808E-05 1.23069E-34 2.44231E-05-3.75219E-18-5.21748E-19
 -1      3181-1.64074E-04 7.02275E-05 2.53823E-34 2.73766E-05 2.49094E-18 1.02565E-18
 -1      3182-1.71557E-04 7.34812E-05 1.97964E-34 3.12558E-05-5.30125E-18-5.73208E-19
 -1      3183-1.58681E-04 6.78204E-05 1.15749E-34 3.43195E-05-8.94958E-18 8.38687E-19
 -1      3184-1.65620E-04 7.08225E-05 3.19718E-34 3.86893E-05-4.58448E-18 1.63090E-19
 -1      3185-1.52559E-04 6.50310E-05 1.99904E-34 4.18121E-05 3.50855E-18-3.68148E-19
 -1      3186-1.58835E-04 6.77020E-05 1.82337E-34 4.67457E-05 4.21341E-18 3.71852E-19
 -1      3187-1.45549E-04 6.17579E-05 1.25183E-34 4.98617E-05 4.81500E-18-2.90350E-19
 -1      3188-1.51002E-04 6.39884E-05 3.10923E-34 5.54252E-05 3.03844E-18 2.07446E-19
 -1      3189-1.37454E-04 5.78724E-05 8.82961E-35 5.84514E-05-1.82399E-18 3.49108E-20
 -1      3190-1.41877E-04 5.95193E-05 2.07271E-34 6.46922E-05-3.72246E-18-2.95652E-19
 -1      3191-1.28033E-04 5.32170E-05 2.66252E-34 6.75271E-05 4.21074E-18 1.71430E-20
 -1      3192-1.31163E-04 5.41019E-05 3.17937E-34 7.44572E-05 2.54041E-18 9.55689E-20
 -1      3193-1.16997E-04 4.76049E-05 1.06743E-34 7.69804E-05-2.45493E-18 1.34185E-19
 -1      3194-1.18516E-04 4.75178E-05 2.56328E-34 8.45555E-05-2.21855E-18-1.77954E-19
 -1      3195-1.04016E-04 4.08254E-05 1.09299E-34 8.66274E-05-6.91467E-19-1.08073E-19
 -1      3196-1.03558E-04 3.95354E-05 2.33273E-34 9.47238E-05-2.63945E-18 3.32066E-19
 -1      3197-8.87273E-05 3.26546E-05 3.91879E-34 9.61855E-05-3.86741E-19 1.47043E-20
 -1      3198-8.58868E-05 2.99290E-05 1.92075E-34 1.04578E-04 1.65601E-18-2.44457E-19
 -1      3199-7.07537E-05 2.28728E-05 1.22719E-34 1.05250E-04 2.09678E-18-9.11829E-20
 -1      3200-6.51145E-05 1.85033E-05 2.71962E-34 1.13592E-04 2.04533E-18-7.60725E-20
 -1      3201-4.97304E-05 1.12883E-05 3.26925E-34 1.13275E-04-1.08735E-18-3.25169E-20
 -1      3202-4.08928E-05 5.12027E-06 2.50323E-34 1.21091E-04 3.74977E-18-1.66845E-20
 -1      3203-2.53363E-05-2.23715E-06 7.64867E-35 1.19551E-04 1.28416E-18-2.96018E-20
 -1      3204-1.29475E-05-1.02801E-05 1.24864E-34 1.26236E-04 1.95904E-18 7.58156E-20
 -1      3205 2.67308E-06-1.77645E-05 1.90373E-34 1.23192E-04 5.19222E-18 1.68859E-19
 -1      3206 1.88986E-05-2.76699E-05 2.65441E-34 1.28016E-04-1.87980E-18-6.12558E-20
 -1      3207 3.44349E-05-3.52616E-05 4.84989E-34 1.23107E-04-1.81485E-18 1.90148E-19
 -1      3208 5.47113E-05-4.69372E-05 2.19592E-34 1.25208E-04 6.58900E-18 1.73897E-19
 -1      3209 6.99450E-05-5.45917E-05 1.70403E-34 1.17938E-04-3.62026E-18 1.80279E-19
 -1      3210 9.44248E-05-6.78897E-05 1.06409E-34 1.16275E-04 3.44129E-18 2.50249E-19
 -1      3211 1.08995E-04-7.54872E-05 2.79293E-34 1.05946E-04-1.57023E-18-7.59776E-20
 -1      3212 1.37769E-04-9.02165E-05 1.37853E-34 9.91699E-05 2.99931E-18-2.57425E-19
 -1      3213 1.51017E-04-9.74561E-05 3.51436E-34 8.47813E-05-3.61742E-18 2.60736E-19
 -1      3214 1.84037E-04-1.13328E-04 1.04111E-34 7.09851E-05 3.09830E-18-4.26754E-19
 -1      3215 1.94696E-04-1.19511E-04 8.84144E-35 5.11216E-05-2.14177E-18 1.78569E-18
 -1      3216 2.31127E-04-1.35678E-04 1.50210E-34 2.77924E-05 1.50516E-18-8.62372E-19
 -1      3217 2.36512E-04-1.38978E-04 8.76773E-35 9.22601E-07-2.76818E-18 6.36190E-19
 -1      3218-2.04375E-04 8.75874E-05 7.47563E-35-1.45961E-09-1.76420E-18 4.30457E-20
 -1      3219-2.12470E-04 9.10580E-05 2.40002E-34 2.23579E-06 2.50363E-18 5.15653E-19
 -1      3220-2.01060E-04 8.61711E-05 1.11097E-34 4.55639E-06 3.21970E-18-2.70028E-19
 -1      3221-2.08998E-04 8.95895E-05 4.40734E-34 6.98420E-06-2.21877E-18 1.07228E-18
 -1      3222-1.97430E-04 8.46232E-05-6.87617E-36 9.57785E-06 1.79223E-18-7.05416E-19
 -1      3223-2.05186E-04 8.79772E-05 8.74862E-35 1.22514E-05-6.34310E-18 1.13233E-19
 -1      3224-1.93439E-04 8.29230E-05 2.36726E-34 1.50915E-05 1.12237E-18 2.46566E-20
 -1      3225-2.00980E-04 8.61963E-05 7.64473E-35 1.80870E-05-4.16691E-19 1.09096E-19
 -1      3226-1.89013E-04 8.10252E-05 3.18769E-34 2.11540E-05 4.51547E-19 3.26913E-19
 -1      3227-1.96290E-04 8.41885E-05 2.02271E-34 2.45576E-05-7.41537E-19 7.92970E-19
 -1      3228-1.84059E-04 7.88740E-05 2.43758E-34 2.78170E-05 5.80105E-18-4.53236E-19
 -1      3229-1.90996E-04 8.18757E-05 1.51519E-34 3.17248E-05 2.66726E-18 8.28062E-19
 -1      3230-1.78454E-04 7.63930E-05 2.91459E-34 3.51288E-05-1.81799E-18-6.56437E-20
 -1      3231-1.84941E-04 7.91523E-05 2.80179E-34 3.96429E-05-2.11986E-18-2.67919E-19
 -1      3232-1.72040E-04 7.34797E-05 7.48249E-35 4.31280E-05-2.51191E-18-2.06794E-19
 -1      3233-1.77919E-04 7.58804E-05 5.09901E-34 4.83476E-05-6.76946E-18 4.48035E-19
 -1      3234-1.64613E-04 7.00010E-05 3.88906E-34 5.18328E-05 3.60743E-18 3.84081E-19
 -1      3235-1.69671E-04 7.18855E-05 2.34686E-34 5.78414E-05-2.68256E-18-5.43521E-19
 -1      3236-1.55917E-04 6.57896E-05 1.64304E-34 6.12273E-05 3.39389E-18-4.21169E-19
 -1      3237-1.59878E-04 6.69572E-05 2.47760E-34 6.80738E-05 1.89006E-18-1.13637E-20
 -1      3238-1.45646E-04 6.06446E-05 2.01284E-34 7.12427E-05-3.01108E-18 2.34316E-22
 -1      3239-1.48167E-04 6.08551E-05 1.50371E-34 7.89171E-05-7.54160E-19-6.93654E-19
 -1      3240-1.33441E-04 5.43367E-05 1.38722E-34 8.17348E-05 5.14771E-18 1.32967E-19
 -1      3241-1.34121E-04 5.33239E-05 4.62006E-35 9.01414E-05-3.91075E-18-3.23660E-19
 -1      3242-1.18904E-04 4.66214E-05 1.48650E-34 9.24602E-05-5.49291E-18 3.02457E-19
 -1      3243-1.17302E-04 4.41168E-05 8.98525E-35 1.01392E-04-1.82701E-19-1.79712E-19
 -1      3244-1.01623E-04 3.72600E-05 1.11680E-34 1.03054E-04 3.30890E-18-6.43952E-20
 -1      3245-9.72846E-05 3.30268E-05 2.79045E-34 1.12174E-04-2.96781E-18-1.69145E-19
 -1      3246-8.11965E-05 2.60480E-05 1.19488E-34 1.13012E-04-4.44994E-19 1.33605E-19
 -1      3247-7.36977E-05 1.99194E-05 1.27333E-34 1.21851E-04-4.77853E-18-9.97811E-20
 -1      3248-5.72702E-05 1.28445E-05 2.27129E-34 1.21688E-04-3.96652E-19 3.52196E-20
 -1      3249-4.62547E-05 4.75647E-06 1.75414E-34 1.29657E-04-1.55139E-19-1.06708E-20
 -1      3250-2.95683E-05-2.40474E-06 2.38535E-34 1.28291E-04 5.26383E-18-5.83904E-22
 -1      3251-1.47724E-05-1.23992E-05 3.68569E-34 1.34708E-04-2.81791E-18 2.32900E-20
 -1      3252 2.09177E-06-1.96603E-05 1.17161E-34 1.31892E-04-2.13008E-18-1.53301E-20
 -1      3253 2.08393E-05-3.14065E-05 2.15029E-34 1.36013E-04 6.01943E-18-1.97583E-19
 -1      3254 3.78012E-05-3.88050E-05 2.97065E-34 1.31408E-04 5.35915E-18-1.84508E-19
 -1      3255 6.06138E-05-5.20946E-05 2.64270E-34 1.32423E-04 4.36172E-19 3.05819E-20
 -1      3256 7.75743E-05-5.96762E-05 3.40879E-34 1.25530E-04-5.46830E-18 2.87607E-19
 -1      3257 1.04569E-04-7.43163E-05 1.45196E-34 1.22510E-04-3.46944E-18 2.23551E-19
 -1      3258 1.21342E-04-8.20895E-05 6.90560E-35 1.12568E-04 1.97930E-18 2.63649E-21
 -1      3259 1.52694E-04-9.79579E-05 2.26802E-34 1.04287E-04 2.38373E-19 4.73744E-19
 -1      3260 1.68850E-04-1.05790E-04 1.33489E-34 9.01367E-05-3.48464E-18-2.11684E-19
 -1      3261 2.04779E-04-1.22815E-04 2.60521E-34 7.47312E-05-3.06883E-18 6.81449E-19
 -1      3262 2.19295E-04-1.30202E-04 2.04008E-34 5.46137E-05 6.33435E-18-1.18239E-18
 -1      3263 2.59390E-04-1.47898E-04 2.38802E-34 2.93883E-05 2.32052E-18 1.08714E-19
 -1      3264 2.69644E-04-1.53107E-04 2.97379E-34 1.09515E-06-4.83628E-18 1.17121E-18
 -1      3265-2.22740E-04 9.54574E-05 3.80612E-34 1.57728E-08-8.20675E-18 6.19448E-19
 -1      3266-2.29765E-04 9.84721E-05 2.85786E-34 2.10725E-06 4.92788E-18 6.51449E-20
 -1      3267-2.19531E-04 9.40909E-05 5.94492E-34 4.46017E-06-4.26204E-18 6.01926E-20
 -1      3268-2.26559E-04 9.71222E-05 9.40975E-35 6.72885E-06 2.81956E-18-2.82134E-19
 -1      3269-2.16035E-04 9.26114E-05-3.38426E-35 9.43678E-06 6.74015E-19 3.58567E-20
 -1      3270-2.23046E-04 9.56494E-05 7.66376E-35 1.19885E-05 7.95135E-19-5.04522E-19
 -1      3271-2.12198E-04 9.09900E-05 1.54460E-34 1.49916E-05-1.89725E-18 3.34370E-20
 -1      3272-2.19158E-04 9.40133E-05 1.85463E-34 1.79404E-05 7.46054E-18-3.37015E-19
 -1      3273-2.07927E-04 8.91695E-05 2.50890E-34 2.12111E-05-1.69979E-18-3.71844E-19
 -1      3274-2.14776E-04 9.21325E-05 1.04642E-34 2.46803E-05-8.82830E-19-2.33962E-19
 -1      3275-2.03104E-04 8.70749E-05 5.01900E-35 2.81720E-05 2.17714E-18-9.85276E-21
 -1      3276-2.09741E-04 8.98966E-05 5.56020E-34 3.22967E-05 9.59738E-19 1.72989E-20
 -1      3277-1.97568E-04 8.46008E-05 2.96741E-34 3.59456E-05 1.79491E-19 2.63385E-20
 -1      3278-2.03838E-04 8.71568E-05 4.16323E-34 4.08639E-05-6.22499E-18-3.02200E-19
 -1      3279-1.91106E-04 8.16057E-05 1.20934E-34 4.45870E-05 1.19900E-18-6.14186E-19
 -1      3280-1.96788E-04 8.37206E-05 1.33052E-34 5.04246E-05-2.99044E-18-8.90761E-20
 -1      3281-1.83447E-04 7.79080E-05 1.24242E-34 5.41190E-05-3.16312E-18 5.08632E-19
 -1      3282-1.88244E-04 7.93517E-05 3.66027E-34 6.09671E-05-3.17006E-18-2.33639E-19
 -1      3283-1.74256E-04 7.32851E-05 3.00438E-34 6.45110E-05 4.86105E-18-1.10962E-19
 -1      3284-1.77791E-04 7.37770E-05 1.97333E-34 7.23972E-05 2.96853E-18 2.66080E-20
 -1      3285-1.63139E-04 6.74809E-05 3.30944E-34 7.56538E-05 3.98038E-18-3.05376E-19
 -1      3286-1.64962E-04 6.67054E-05 1.17684E-34 8.45089E-05-2.26784E-18 5.42158E-19
 -1      3287-1.49657E-04 6.02211E-05 4.75851E-35 8.73317E-05-3.11072E-18-8.96057E-21
 -1      3288-1.49270E-04 5.78578E-05 3.02796E-34 9.69591E-05-3.40621E-18-1.38646E-19
 -1      3289-1.33353E-04 5.12407E-05 3.47872E-34 9.91996E-05-1.69887E-18-1.52297E-19
 -1      3290-1.30248E-04 4.70082E-05 1.68940E-34 1.09254E-04 5.09352E-19-1.08168E-19
 -1      3291-1.13791E-04 4.03197E-05 7.85483E-35 1.10769E-04-2.16679E-18 1.59631E-19
 -1      3292-1.07504E-04 3.40264E-05 2.66758E-34 1.20754E-04-4.92540E-18 1.56406E-20
 -1      3293-9.05991E-05 2.73220E-05 9.15597E-35 1.21409E-04-3.56937E-18-2.09993E-20
 -1      3294-8.07602E-05 1.89109E-05 1.92108E-34 1.30706E-04-1.45716E-18 4.73290E-20
 -1      3295-6.35052E-05 1.22246E-05 3.11969E-34 1.30370E-04 2.05793E-18 7.04530E-21
 -1      3296-4.98794E-05 1.79645E-06 5.84637E-35 1.38282E-04 5.55771E-19 2.55193E-22
 -1      3297-3.23532E-05-4.87569E-06 2.31184E-34 1.36812E-04 1.41360E-18-9.74617E-21
 -1      3298-1.48433E-05-1.70775E-05 1.44501E-34 1.42624E-04-6.60325E-19 2.43404E-20
 -1      3299 2.91523E-06-2.37892E-05 1.29264E-34 1.39829E-04-4.00216E-18-1.23593E-19
 -1      3300 2.43101E-05-3.74370E-05 1.18665E-34 1.42854E-04 1.84950E-18-8.04840E-20
 -1      3301 4.23134E-05-4.42957E-05 2.33202E-34 1.38436E-04-5.84990E-18-7.67749E-20
 -1      3302 6.75850E-05-5.90726E-05 1.12739E-34 1.38006E-04-3.91264E-18-1.73200E-19
 -1      3303 8.58843E-05-6.62279E-05 9.35043E-35 1.31476E-04-4.01908E-18-1.86399E-19
 -1      3304 1.15130E-04-8.19385E-05 1.38443E-34 1.26852E-04 2.39963E-18 3.57047E-19
 -1      3305 1.33756E-04-8.95430E-05 1.28012E-34 1.17409E-04-3.45585E-18-4.52205E-19
 -1      3306 1.67289E-04-1.06202E-04 1.26697E-34 1.07554E-04 2.15296E-18-8.84141E-19
 -1      3307 1.86098E-04-1.14318E-04 2.63634E-34 9.39010E-05 2.31312E-19-1.62436E-19
 -1      3308 2.24486E-04-1.32159E-04 4.76881E-34 7.70478E-05-3.44978E-18-1.34838E-20
 -1      3309 2.42818E-04-1.40542E-04 5.66755E-35 5.71060E-05-1.25350E-18 3.53841E-20
 -1      3310 2.86220E-04-1.59569E-04 1.88593E-34 3.04103E-05-5.40801E-18-4.35765E-19
 -1      3311 3.01735E-04-1.66739E-04 7.89458E-35 1.25817E-06 3.86572E-18 2.12903E-19
 -1      3312-2.38744E-04 1.02315E-04 5.94220E-35 3.35323E-08-5.46556E-18 1.28524E-19
 -1      3313-2.44893E-04 1.04958E-04 1.07103E-34 1.95047E-06 2.71985E-18 1.44613E-19
 -1      3314-2.35951E-04 1.01131E-04 1.12443E-34 4.31536E-06-2.80074E-18 9.33327E-20
 -1      3315-2.42310E-04 1.03880E-04 2.62679E-34 6.43160E-06 3.54891E-18 8.79791E-20
 -1      3316-2.32925E-04 9.98596E-05 1.80932E-34 9.23025E-06 5.62410E-18 7.38371E-19
 -1      3317-2.39473E-04 1.02702E-04 2.96539E-34 1.17147E-05 1.46751E-18 4.32792E-19
 -1      3318-2.29589E-04 9.84573E-05 9.20964E-35 1.48519E-05-2.09618E-18 1.08806E-18
 -1      3319-2.36287E-04 1.01358E-04 6.46931E-35 1.78693E-05-1.87857E-19 1.28924E-19
 -1      3320-2.25826E-04 9.68451E-05 3.63064E-34 2.13047E-05 1.17696E-18-1.42127E-19
 -1      3321-2.32585E-04 9.97250E-05 1.46029E-34 2.50299E-05 5.06985E-18-2.27729E-19
 -1      3322-2.21472E-04 9.49135E-05 4.14422E-35 2.86962E-05 1.27902E-18 3.67302E-19
 -1      3323-2.28142E-04 9.76414E-05 9.37748E-35 3.33145E-05 1.54462E-18 2.60932E-19
 -1      3324-2.16302E-04 9.25092E-05 2.29375E-34 3.71225E-05 2.63143E-18 1.10937E-19
 -1      3325-2.22654E-04 9.48893E-05 3.46826E-35 4.28121E-05 2.53270E-18-3.44731E-19
 -1      3326-2.10022E-04 8.94295E-05 1.38021E-34 4.66491E-05-1.94611E-18 2.17950E-19
 -1      3327-2.15731E-04 9.11957E-05 1.64467E-34 5.35542E-05-1.63564E-18-4.37116E-19
 -1      3328-2.02259E-04 8.54212E-05 2.84614E-34 5.72861E-05 6.23571E-19 6.93885E-19
 -1      3329-2.06902E-04 8.62404E-05 3.33307E-36 6.54810E-05-1.50874E-18-2.22867E-19
 -1      3330-1.92572E-04 8.01881E-05 1.28512E-34 6.89572E-05-4.44055E-18-2.03930E-19
 -1      3331-1.95633E-04 7.96784E-05 2.71727E-34 7.84047E-05 2.99658E-19 1.20411E-19
 -1      3332-1.80461E-04 7.34116E-05 1.03978E-34 8.14673E-05 1.73933E-18-1.04189E-19
 -1      3333-1.81362E-04 7.11795E-05 1.26794E-34 9.19782E-05-5.81442E-18-6.31596E-19
 -1      3334-1.65412E-04 6.47845E-05 1.53130E-34 9.44745E-05 1.87433E-18 1.62835E-20
 -1      3335-1.63561E-04 6.04816E-05 3.40597E-34 1.05680E-04 4.05616E-18-3.49781E-19
 -1      3336-1.46938E-04 5.40588E-05 1.39746E-34 1.07476E-04-2.28065E-18 2.51902E-19
 -1      3337-1.41804E-04 4.74489E-05 1.53217E-34 1.18829E-04 1.17580E-19-2.31023E-19
 -1      3338-1.24644E-04 4.10974E-05 1.60784E-34 1.19818E-04-2.08544E-18-1.84786E-19
 -1      3339-1.15824E-04 3.21184E-05 3.98156E-35 1.30625E-04 2.17038E-18-3.91029E-20
 -1      3340-9.82725E-05 2.59149E-05 9.74745E-35 1.30734E-04-3.57137E-18-5.41082E-20
 -1      3341-8.55496E-05 1.47133E-05 3.81153E-35 1.40227E-04 1.30427E-18 4.86206E-20
 -1      3342-6.77292E-05 8.68984E-06 1.30466E-34 1.39399E-04-9.62878E-19 7.78361E-21
 -1      3343-5.10865E-05-4.39097E-06 3.63294E-35 1.46826E-04-1.81288E-18 1.73238E-20
 -1      3344-3.30580E-05-1.02670E-05 4.16620E-34 1.44997E-04 2.55435E-19 2.64593E-20
 -1      3345-1.26347E-05-2.47536E-05 1.69251E-34 1.49698E-04-7.03824E-18 1.50867E-19
 -1      3346 5.63068E-06-3.05922E-05 1.90434E-34 1.46746E-04 1.85827E-18-1.99503E-20
 -1      3347 2.96395E-05-4.59934E-05 1.13143E-34 1.48194E-04-6.06602E-18 2.48108E-20
 -1      3348 4.82748E-05-5.19851E-05 1.07830E-34 1.43869E-04-3.72953E-18 3.21328E-19
 -1      3349 7.57595E-05-6.79281E-05 1.73632E-34 1.41627E-04-3.23300E-18-1.79344E-21
 -1      3350 9.49913E-05-7.43341E-05 2.38458E-34 1.35458E-04 2.35424E-18 1.13699E-19
 -1      3351 1.26084E-04-9.06969E-05 1.39856E-34 1.29039E-04-3.34238E-18-1.49610E-19
 -1      3352 1.46182E-04-9.78187E-05 1.35331E-34 1.20192E-04-4.71486E-18 1.25325E-19
 -1      3353 1.81398E-04-1.14831E-04 3.19007E-34 1.08782E-04-2.38475E-18-6.35286E-19
 -1      3354 2.02548E-04-1.22938E-04 3.45743E-35 9.58520E-05 1.20060E-18 3.47131E-20
 -1      3355 2.42876E-04-1.41210E-04 8.08309E-35 7.78031E-05-4.12404E-18-3.42923E-19
 -1      3356 2.64869E-04-1.50357E-04 1.27391E-34 5.84402E-05 1.18867E-19 4.34049E-19
 -1      3357 3.11150E-04-1.70486E-04 1.06722E-34 3.07954E-05-2.25293E-18-3.38656E-19
 -1      3358 3.32150E-04-1.79605E-04 2.17441E-34 1.39745E-06 1.99449E-18-1.05732E-18
 -1      3359-2.52474E-04 1.08198E-04 2.98494E-34 5.13787E-08-4.84000E-18-4.87548E-19
 -1      3360-2.58027E-04 1.10590E-04 9.92130E-35 1.77475E-06 1.77316E-18-8.47404E-19
 -1      3361-2.50484E-04 1.07361E-04 1.83335E-34 4.14543E-06 4.28230E-18-6.08085E-20
 -1      3362-2.56511E-04 1.09974E-04 1.38458E-34 6.13739E-06-2.00422E-21-2.26278E-19
 -1      3363-2.48339E-04 1.06469E-04 2.17435E-34 9.02392E-06 3.18196E-18 4.52240E-19
 -1      3364-2.54816E-04 1.09280E-04 1.28585E-34 1.15349E-05 6.50067E-18-1.36563E-19
 -1      3365-2.45929E-04 1.05453E-04 3.18486E-34 1.48017E-05-2.49684E-18-5.07761E-19
 -1      3366-2.52791E-04 1.08393E-04 1.86311E-34 1.80662E-05 2.25089E-18 8.81845E-20
 -1      3367-2.43088E-04 1.04194E-04 1.66928E-34 2.16510E-05-9.08711E-19-2.38049E-20
 -1      3368-2.50194E-04 1.07128E-04 1.81901E-34 2.59134E-05-2.51863E-18 3.81956E-19
 -1      3369-2.39576E-04 1.02524E-04 2.21000E-34 2.97156E-05 1.19020E-18 3.55603E-19
 -1      3370-2.46689E-04 1.05237E-04 8.86151E-35 3.52220E-05-2.26873E-18 3.44465E-20
 -1      3371-2.35069E-04 1.00213E-04 8.88128E-35 3.91122E-05 3.63939E-18-4.80804E-19
 -1      3372-2.41833E-04 1.02396E-04 2.97201E-34 4.60774E-05 3.58604E-18 3.77327E-19
 -1      3373-2.29145E-04 9.69660E-05 1.21282E-34 4.98986E-05 4.29005E-19-3.63233E-19
 -1      3374-2.35078E-04 9.82202E-05 1.15509E-35 5.84609E-05-3.40842E-18 2.57509E-19
 -1      3375-2.21293E-04 9.24298E-05 2.43239E-34 6.20358E-05 2.87652E-18 5.11031E-19
 -1      3376-2.25791E-04 9.22860E-05-1.28352E-35 7.22022E-05-5.43408E-19 2.06844E-19
 -1      3377-2.10933E-04 8.62199E-05 5.99542E-35 7.53456E-05-2.10361E-18 2.01897E-20
 -1      3378-2.13305E-04 8.41843E-05 1.55970E-34 8.69384E-05 7.64144E-19 1.08629E-19
 -1      3379-1.97459E-04 7.79641E-05 4.63717E-35 8.94754E-05-7.89654E-19 1.01671E-19
 -1      3380-1.96996E-04 7.35912E-05 9.56897E-35 1.02094E-04 2.99501E-18 3.90772E-19
 -1      3381-1.80311E-04 6.73645E-05 8.41682E-35 1.03882E-04-8.48921E-18-4.07434E-20
 -1      3382-1.76375E-04 6.03465E-05 6.40840E-35 1.16900E-04-5.14959E-18 1.27929E-20
 -1      3383-1.59051E-04 5.42678E-05 1.40094E-34 1.17845E-04-5.14665E-19-2.14971E-19
 -1      3384-1.51174E-04 4.45195E-05 1.38128E-34 1.30455E-04 4.37703E-18 2.77076E-20
 -1      3385-1.33430E-04 3.87233E-05 7.25271E-35 1.30524E-04 3.67809E-18-1.33131E-19
 -1      3386-1.21395E-04 2.64324E-05 1.70107E-34 1.41833E-04-1.40907E-18-8.07686E-21
 -1      3387-1.03429E-04 2.10033E-05 3.18648E-34 1.41045E-04-1.72274E-18 5.39482E-20
 -1      3388-8.72962E-05 6.62207E-06 1.52573E-34 1.50199E-04 8.90688E-19-1.51733E-20
 -1      3389-6.92323E-05 1.56852E-06 1.59442E-34 1.48599E-04-4.07071E-18-9.12508E-22
 -1      3390-4.92923E-05-1.42641E-05 7.83057E-35 1.54896E-04 2.66415E-18-6.88927E-21
 -1      3391-3.11407E-05-1.90275E-05 2.59799E-34 1.52511E-04 3.45196E-18 8.88247E-20
 -1      3392-7.80118E-06-3.56192E-05 3.64775E-34 1.55476E-04-5.69110E-18 6.23115E-20
 -1      3393 1.05695E-05-4.02785E-05 3.18283E-34 1.52252E-04 1.75889E-18-9.92055E-20
 -1      3394 3.69456E-05-5.70420E-05 2.84674E-34 1.51626E-04 2.00527E-18-1.11830E-20
 -1      3395 5.58146E-05-6.18810E-05 5.43095E-35 1.47352E-04-1.87310E-18 1.21410E-19
 -1      3396 8.50863E-05-7.84848E-05 1.82714E-34 1.42999E-04 6.69064E-18 1.64902E-19
 -1      3397 1.04868E-04-8.38756E-05 1.21175E-34 1.37209E-04 1.04435E-18-1.91401E-19
 -1      3398 1.37284E-04-1.00366E-04 7.43826E-35 1.28917E-04-5.30375E-19 6.71958E-20
 -1      3399 1.58491E-04-1.06751E-04 2.15147E-34 1.20752E-04-3.71224E-18-1.81866E-19
 -1      3400 1.94838E-04-1.23641E-04 1.46919E-34 1.07918E-04-3.45458E-18-3.54685E-19
 -1      3401 2.17994E-04-1.31489E-04 1.60571E-34 9.58941E-05 1.28149E-18 3.89848E-19
 -1      3402 2.59726E-04-1.49812E-04 1.76646E-34 7.69861E-05-1.24717E-19 4.17686E-20
 -1      3403 2.85132E-04-1.59495E-04 1.40842E-34 5.85506E-05 1.38214E-18-1.30918E-18
 -1      3404 3.33829E-04-1.80486E-04 2.61522E-34 3.05343E-05 5.76959E-18 8.99878E-19
 -1      3405 3.60350E-04-1.91482E-04 7.59558E-35 1.50123E-06-2.57193E-18-4.83820E-19
 -1      3406-2.64087E-04 1.13174E-04 3.30764E-34 6.88186E-08 2.23848E-18-5.95436E-19
 -1      3407-2.69410E-04 1.15473E-04 1.40892E-34 1.58868E-06-6.32810E-18 2.17529E-19
 -1      3408-2.63388E-04 1.12891E-04 1.04785E-34 3.97613E-06-4.53413E-18-9.34851E-20
 -1      3409-2.69528E-04 1.15559E-04 9.94178E-35 5.89883E-06-2.43713E-18 3.19790E-19
 -1      3410-2.62641E-04 1.12593E-04 8.45006E-35 8.89708E-06-2.07555E-20 2.72055E-20
 -1      3411-2.69552E-04 1.15576E-04 1.23947E-34 1.15826E-05-6.29593E-18 1.19748E-19
 -1      3412-2.61676E-04 1.12162E-04 2.11236E-34 1.50057E-05-4.23781E-18 1.31385E-19
 -1      3413-2.69243E-04 1.15334E-04 9.37341E-35 1.87857E-05-5.47105E-18-8.04712E-19
 -1      3414-2.60241E-04 1.11411E-04 2.05749E-34 2.25332E-05-8.19642E-18-1.32717E-19
 -1      3415-2.68225E-04 1.14540E-04 2.03352E-34 2.77433E-05-4.46568E-18-5.17154E-20
 -1      3416-2.57974E-04 1.10076E-04 1.66576E-34 3.16605E-05 6.16765E-18-7.76341E-19
 -1      3417-2.65988E-04 1.12808E-04 6.74169E-35 3.86127E-05-5.70915E-18 7.71010E-20
 -1      3418-2.54390E-04 1.07806E-04 6.37820E-35 4.25083E-05-4.31089E-18 2.63611E-19
 -1      3419-2.61879E-04 1.09663E-04 1.91089E-34 5.14328E-05 1.75375E-18 2.24263E-20
 -1      3420-2.48884E-04 1.04172E-04 9.04476E-35 5.50854E-05 2.19136E-19-8.24642E-20
 -1      3421-2.55130E-04 1.04570E-04 2.53926E-34 6.60580E-05 3.89214E-18-1.66562E-19
 -1      3422-2.40758E-04 9.86945E-05 1.45216E-34 6.92339E-05 5.67663E-18 1.84381E-19
 -1      3423-2.44919E-04 9.70040E-05 1.46724E-34 8.21014E-05 7.67573E-19-1.76628E-19
 -1      3424-2.29278E-04 9.09029E-05 1.64292E-34 8.45806E-05-3.69323E-18-1.75264E-19
 -1      3425-2.30475E-04 8.65391E-05 4.05771E-34 9.89054E-05 1.40446E-18-7.50151E-20
 -1      3426-2.13767E-04 8.04172E-05 2.36760E-34 1.00513E-04 5.98760E-18-1.81361E-20
 -1      3427-2.11202E-04 7.29627E-05 1.89884E-34 1.15564E-04-5.52425E-18-4.60486E-19
 -1      3428-1.93709E-04 6.70441E-05 1.08083E-34 1.16199E-04-4.39460E-18-3.54335E-19
 -1      3429-1.86807E-04 5.63650E-05 1.06564E-34 1.31008E-04-1.87335E-18-7.61916E-20
 -1      3430-1.68849E-04 5.08580E-05 1.68477E-34 1.30666E-04-4.29420E-19 8.03893E-20
 -1      3431-1.57365E-04 3.71779E-05 4.15008E-34 1.44153E-04 4.91037E-18 5.97105E-20
 -1      3432-1.39246E-04 3.22349E-05 1.23741E-34 1.42917E-04 2.14221E-18-2.48335E-21
 -1      3433-1.23312E-04 1.61293E-05 5.43773E-35 1.54059E-04-9.39775E-19 2.23732E-20
 -1      3434-1.05251E-04 1.18119E-05 1.20049E-34 1.52077E-04-6.07106E-18-1.14205E-19
 -1      3435-8.53235E-05-5.88733E-06 1.63675E-34 1.60070E-04 5.96310E-18 3.26479E-21
 -1      3436-6.74028E-05-9.62972E-06 8.19015E-35 1.57503E-04-1.32681E-18 1.37328E-20
 -1      3437-4.41235E-05-2.79997E-05 1.09047E-34 1.61863E-04-1.48280E-18-4.49572E-21
 -1      3438-2.62527E-05-3.13354E-05 2.76768E-34 1.58821E-04-6.83436E-18 7.43374E-21
 -1      3439-2.60641E-07-4.95520E-05 9.05349E-35 1.59398E-04 2.80928E-18 9.91513E-20
 -1      3440 1.78301E-05-5.27605E-05 6.13468E-35 1.55873E-04 1.05934E-18-4.24150E-20
 -1      3441 4.60979E-05-7.02665E-05 8.43715E-35 1.52762E-04-2.87246E-18 2.12411E-20
 -1      3442 6.48484E-05-7.37272E-05 1.36826E-34 1.48554E-04 2.62370E-18 4.36272E-20
 -1      3443 9.53296E-05-9.03552E-05 5.85906E-35 1.41936E-04 4.54622E-19 1.43097E-19
 -1      3444 1.15336E-04-9.45398E-05 6.77994E-35 1.36569E-04-2.85820E-18 3.12997E-19
 -1      3445 1.48485E-04-1.10592E-04 1.84082E-34 1.26475E-04 5.12583E-19 2.53806E-19
 -1      3446 1.70484E-04-1.16063E-04 1.22093E-34 1.19065E-04-2.59268E-18-4.29739E-19
 -1      3447 2.07410E-04-1.32378E-04 1.70849E-34 1.05054E-04 1.99251E-18-1.56705E-19
 -1      3448 2.32248E-04-1.39782E-04 2.08743E-34 9.40715E-05-2.91035E-18-1.69328E-19
 -1      3449 2.74879E-04-1.57815E-04 1.40827E-34 7.47015E-05 8.09240E-20 4.43872E-21
 -1      3450 3.03391E-04-1.67837E-04 1.25712E-34 5.74696E-05-2.21602E-18-6.55807E-19
 -1      3451 3.54044E-04-1.89461E-04 3.21312E-34 2.96688E-05 2.89486E-18 6.95316E-19
 -1      3452 3.85938E-04-2.02212E-04 2.46496E-34 1.56220E-06 6.78735E-18 5.09374E-20
 -1      3453-2.73781E-04 1.17328E-04 8.72690E-35 8.50963E-08-3.85955E-19 1.24647E-19
 -1      3454-2.79339E-04 1.19734E-04 1.74851E-34 1.40053E-06 2.77402E-18-1.73871E-19
 -1      3455-2.75002E-04 1.17868E-04 1.78873E-34 3.83701E-06 4.56332E-18 2.45794E-19
 -1      3456-2.81823E-04 1.20830E-04 1.68600E-34 5.78330E-06-3.94709E-18 6.38264E-19
 -1      3457-2.76312E-04 1.18434E-04 7.73249E-35 8.95181E-06-4.25806E-18-8.10939E-19
 -1      3458-2.84302E-04 1.21842E-04 2.73338E-34 1.20417E-05-4.28966E-18-5.92599E-19
 -1      3459-2.77435E-04 1.18824E-04 1.46232E-34 1.56859E-05-9.30324E-19 5.14288E-19
 -1      3460-2.86377E-04 1.22446E-04 1.50707E-34 2.03863E-05 5.82139E-18 5.26449E-19
 -1      3461-2.77971E-04 1.18735E-04 7.99322E-35 2.43404E-05-3.89207E-18-7.32263E-19
 -1      3462-2.87453E-04 1.22174E-04 1.50040E-34 3.10997E-05-6.05798E-18 1.45153E-19
 -1      3463-2.77355E-04 1.17746E-04 6.44783E-35 3.51218E-05 1.05249E-18 4.51607E-19
 -1      3464-2.86741E-04 1.20431E-04 1.81348E-34 4.43068E-05-2.88354E-18 7.01427E-19
 -1      3465-2.74858E-04 1.15326E-04 2.62176E-34 4.81106E-05 1.44717E-18 6.77663E-19
 -1      3466-2.83285E-04 1.16527E-04 2.14289E-34 5.99079E-05 3.85606E-18 4.21486E-19
 -1      3467-2.69617E-04 1.10861E-04 2.49410E-34 6.31821E-05-4.90800E-18 2.95068E-19
 -1      3468-2.76039E-04 1.09762E-04 1.44779E-34 7.74916E-05 7.11975E-18-1.83989E-19
 -1      3469-2.60711E-04 1.03735E-04 4.40886E-36 7.99374E-05-3.93702E-18 7.93033E-20
 -1      3470-2.64007E-04 9.95538E-05 1.14621E-34 9.62882E-05 8.20705E-18 3.00079E-20
 -1      3471-2.47282E-04 9.34386E-05 9.59985E-35 9.76662E-05 3.08720E-18 3.01231E-20
 -1      3472-2.46423E-04 8.55904E-05 4.77472E-35 1.15194E-04-9.36507E-20-1.87058E-21
 -1      3473-2.28685E-04 7.97010E-05 3.43231E-34 1.15370E-04-3.55829E-18 5.24346E-20
 -1      3474-2.22921E-04 6.79659E-05 9.06037E-35 1.32886E-04-6.32961E-18 1.87942E-19
 -1      3475-2.04628E-04 6.26073E-05 2.69994E-35 1.31867E-04-5.17665E-19-1.24548E-19
 -1      3476-1.93651E-04 4.72367E-05 1.67290E-34 1.48027E-04 1.65699E-18 1.16108E-19
 -1      3477-1.75252E-04 4.26496E-05 1.77006E-34 1.45956E-04-4.74341E-18-1.06417E-19
 -1      3478-1.59259E-04 2.43658E-05 1.37177E-34 1.59489E-04 2.86044E-18-7.81458E-20
 -1      3479-1.41104E-04 2.06782E-05 7.66896E-35 1.56621E-04-1.98786E-18-8.94031E-20
 -1      3480-1.20742E-04 5.50264E-07 1.64588E-34 1.66553E-04-9.62953E-18-1.94042E-20
 -1      3481-1.03010E-04-2.24994E-06 1.09607E-34 1.63183E-04-2.30570E-19-2.10471E-21
 -1      3482-7.91911E-05-2.30208E-05 1.96359E-34 1.68977E-04 6.27101E-18 9.92463E-22
 -1      3483-6.18501E-05-2.50880E-05 1.22660E-34 1.65372E-04 3.60976E-18-3.38267E-21
 -1      3484-3.55218E-05-4.54072E-05 1.44568E-34 1.66947E-04 4.75720E-18-8.38273E-21
 -1      3485-1.83288E-05-4.70209E-05 1.98303E-34 1.63267E-04-6.82925E-18-8.42631E-20
 -1      3486 9.76322E-06-6.60970E-05 3.16015E-35 1.60905E-04-3.03080E-18 2.12318E-19
 -1      3487 2.72396E-05-6.76379E-05 4.87237E-35 1.57143E-04 2.03763E-18-2.77326E-20
 -1      3488 5.67303E-05-8.51042E-05 6.74091E-35 1.51315E-04-2.96895E-18-1.85892E-20
 -1      3489 7.50848E-05-8.70366E-05 1.89116E-34 1.47248E-04-9.53020E-18 1.94757E-19
 -1      3490 1.06111E-04-1.03004E-04 2.22646E-34 1.38400E-04-1.37486E-19-1.16223E-19
 -1      3491 1.26095E-04-1.05876E-04 1.94133E-34 1.33522E-04 6.28128E-18 2.94109E-20
 -1      3492 1.59389E-04-1.20957E-04 1.45174E-34 1.21848E-04-1.73980E-18-2.48008E-19
 -1      3493 1.81927E-04-1.25419E-04 5.59104E-35 1.15254E-04-3.65338E-18-1.22571E-19
 -1      3494 2.18934E-04-1.40778E-04 1.30405E-34 1.00407E-04-8.60883E-18 5.35328E-19
 -1      3495 2.45163E-04-1.47623E-04 1.33003E-34 9.05539E-05-2.74768E-18-5.39482E-20
 -1      3496 2.88256E-04-1.65098E-04 5.39081E-35 7.11442E-05-4.52379E-18-1.65514E-19
 -1      3497 3.19532E-04-1.75300E-04 3.69348E-34 5.53146E-05-5.26898E-18 3.58741E-19
 -1      3498 3.71715E-04-1.97357E-04 8.57480E-35 2.82797E-05 4.79362E-18-3.51594E-19
 -1      3499 4.08676E-04-2.11707E-04 2.70298E-34 1.57807E-06-8.06465E-18-9.57768E-19
 -1      3500-2.81773E-04 1.20752E-04 5.23855E-35 9.88065E-08 1.89027E-18 6.51666E-19
 -1      3501-2.88155E-04 1.23518E-04 7.75923E-35 1.21922E-06 7.48747E-18 3.77690E-19
 -1      3502-2.85747E-04 1.22471E-04 9.52385E-35 3.76516E-06-2.07795E-18-6.05707E-19
 -1      3503-2.93982E-04 1.26033E-04 2.87549E-34 5.88607E-06 2.33758E-20 3.44378E-19
 -1      3504-2.89974E-04 1.24250E-04 1.09698E-34 9.33038E-06 3.94869E-18 6.64978E-19
 -1      3505-2.99866E-04 1.28389E-04 5.97502E-35 1.31838E-05 1.60738E-18 2.42043E-19
 -1      3506-2.93987E-04 1.25740E-04 1.76818E-34 1.71629E-05-5.70418E-19 1.59918E-19
 -1      3507-3.05130E-04 1.30037E-04 2.55028E-34 2.34007E-05-3.73620E-18-1.12688E-19
 -1      3508-2.97136E-04 1.26440E-04 7.91173E-35 2.76361E-05-1.98586E-18 6.09291E-19
 -1      3509-3.08813E-04 1.30224E-04 1.03003E-34 3.68318E-05 8.30520E-19 9.43940E-20
 -1      3510-2.98529E-04 1.25682E-04 2.80870E-34 4.09412E-05 1.66220E-18-2.25204E-19
 -1      3511-3.09699E-04 1.28042E-04 1.27549E-34 5.34640E-05 1.80435E-18 3.25180E-19
 -1      3512-2.97073E-04 1.22669E-04 1.28583E-34 5.70186E-05 1.75740E-18 1.28760E-19
 -1      3513-3.06417E-04 1.22534E-04 1.39326E-34 7.28780E-05-8.29497E-19-2.11259E-19
 -1      3514-2.91572E-04 1.16569E-04 6.26301E-35 7.54499E-05-1.73645E-18 1.70037E-19
 -1      3515-2.97630E-04 1.12869E-04 4.09785E-34 9.41627E-05-1.18775E-17-1.06668E-19
 -1      3516-2.80893E-04 1.06667E-04 5.98368E-35 9.53966E-05 2.13840E-18-4.64266E-19
 -1      3517-2.82288E-04 9.85635E-05 1.33381E-34 1.15936E-04 2.12634E-18-1.66185E-19
 -1      3518-2.64179E-04 9.25581E-05 8.18370E-35 1.15623E-04 6.79722E-19-2.85819E-19
 -1      3519-2.59889E-04 7.96821E-05 7.41900E-35 1.36503E-04-6.46321E-19 2.36710E-19
 -1      3520-2.41053E-04 7.43119E-05 1.01875E-34 1.34636E-04 2.22577E-18-2.46245E-20
 -1      3521-2.30646E-04 5.69281E-05 1.74398E-34 1.54137E-04 9.35990E-18-8.36103E-20
 -1      3522-2.11735E-04 5.25556E-05 7.82171E-35 1.50921E-04-7.47458E-18 1.91231E-19
 -1      3523-1.95473E-04 3.15691E-05 1.82315E-34 1.67415E-04 3.41458E-18-4.02947E-20
 -1      3524-1.77018E-04 2.84099E-05 9.53987E-35 1.63224E-04-5.16042E-18-1.26147E-19
 -1      3525-1.55777E-04 5.19814E-06 5.75156E-35 1.75481E-04-1.77103E-18-4.86419E-20
 -1      3526-1.38085E-04 3.28257E-06 8.66044E-35 1.70771E-04-2.07967E-18-7.36462E-20
 -1      3527-1.13114E-04-2.05969E-05 9.58847E-35 1.78155E-04 4.32804E-18 6.78933E-21
 -1      3528-9.62227E-05-2.14209E-05 1.83988E-34 1.73359E-04 2.54992E-18 1.75671E-20
 -1      3529-6.88349E-05-4.45442E-05 1.28291E-34 1.75850E-04-3.69612E-18 1.92636E-20
 -1      3530-5.25208E-05-4.45776E-05 9.92300E-35 1.71291E-04 3.96214E-18 2.50170E-20
 -1      3531-2.38012E-05-6.58968E-05 1.53781E-34 1.69356E-04-7.62919E-18 3.82489E-21
 -1      3532-7.63317E-06-6.55440E-05 1.66064E-34 1.65180E-04-1.75784E-18-3.54157E-20
 -1      3533 2.17593E-05-8.45111E-05 2.29218E-34 1.59556E-04 3.65991E-19-4.54825E-20
 -1      3534 3.83704E-05-8.42429E-05 2.62979E-34 1.55707E-04 5.13256E-18-6.65683E-20
 -1      3535 6.83029E-05-1.00830E-04 1.47710E-34 1.47169E-04 2.21846E-19 1.82246E-21
 -1      3536 8.60762E-05-1.01169E-04 1.47547E-34 1.43363E-04 7.83972E-18 9.71858E-20
 -1      3537 1.16981E-04-1.15837E-04 2.54401E-34 1.32517E-04-8.84258E-18-1.06909E-19
 -1      3538 1.36780E-04-1.17371E-04 2.74320E-34 1.28206E-04-6.74513E-18 2.22607E-19
 -1      3539 1.69696E-04-1.31046E-04 1.80384E-34 1.15305E-04 9.00966E-20 6.75250E-20
 -1      3540 1.92588E-04-1.34481E-04 1.42338E-34 1.09571E-04 2.48757E-18-2.65156E-19
 -1      3541 2.29271E-04-1.48606E-04 1.11404E-34 9.42799E-05 4.61758E-18 1.58793E-20
 -1      3542 2.56642E-04-1.54845E-04 1.21023E-34 8.56034E-05-9.67528E-19 2.07134E-19
 -1      3543 2.99847E-04-1.71579E-04 1.01499E-34 6.65648E-05 1.21359E-18-4.63807E-19
 -1      3544 3.33541E-04-1.81849E-04 1.48672E-34 5.22619E-05 6.40356E-19-4.34963E-20
 -1      3545 3.86879E-04-2.04173E-04 1.98980E-34 2.64712E-05 2.70806E-18-7.66571E-19
 -1      3546 4.28486E-04-2.19947E-04 7.50903E-35 1.55112E-06 5.14858E-18 1.00998E-18
 -1      3547-2.88277E-04 1.23540E-04 2.92802E-34 1.07257E-07-1.82949E-18-5.85760E-19
 -1      3548-2.96252E-04 1.26997E-04 5.05249E-35 1.05632E-06-4.53534E-18-6.40028E-19
 -1      3549-2.96139E-04 1.26921E-04-2.50040E-35 3.81218E-06-2.48733E-18-9.27192E-21
 -1      3550-3.06758E-04 1.31480E-04 2.16382E-35 6.35451E-06 4.19821E-19 2.94317E-19
 -1      3551-3.04430E-04 1.30370E-04 3.90589E-34 1.02474E-05 1.07342E-17-3.33604E-19
 -1      3552-3.17293E-04 1.35610E-04 8.47935E-35 1.54356E-05-1.03854E-18 5.79205E-19
 -1      3553-3.12345E-04 1.33279E-04 5.08599E-35 1.99263E-05-2.26109E-18-2.07819E-19
 -1      3554-3.26694E-04 1.38448E-04 6.33133E-35 2.86569E-05-2.08787E-18-1.38802E-19
 -1      3555-3.18806E-04 1.34811E-04 7.38036E-35 3.32714E-05 1.97684E-18 8.19512E-20
 -1      3556-3.33398E-04 1.38784E-04 7.59908E-35 4.62186E-05 2.38473E-18-1.87497E-19
 -1      3557-3.22400E-04 1.33914E-04 1.52743E-34 5.03491E-05-1.08629E-18-2.56978E-19
 -1      3558-3.35557E-04 1.35276E-04 1.04277E-34 6.77402E-05 3.93131E-19-1.99492E-19
 -1      3559-3.21527E-04 1.29435E-04 7.27679E-35 7.07532E-05-2.49102E-18-3.56724E-19
 -1      3560-3.31304E-04 1.26697E-04 8.60640E-35 9.21503E-05-1.21652E-18 2.75153E-19
 -1      3561-3.14628E-04 1.20339E-04 2.92473E-34 9.34895E-05 1.16565E-18-2.80222E-19
 -1      3562-3.19123E-04 1.12262E-04 3.35699E-35 1.17683E-04 1.72850E-18 1.07609E-19
 -1      3563-3.00494E-04 1.05982E-04 3.54341E-35 1.16991E-04-1.12982E-18 4.18861E-19
 -1      3564-2.98255E-04 9.19422E-05 1.23368E-34 1.42089E-04 1.21178E-18-5.46328E-20
 -1      3565-2.78580E-04 8.63723E-05 7.82195E-35 1.39305E-04 2.36000E-18 1.80574E-19
 -1      3566-2.68953E-04 6.66148E-05 1.58861E-35 1.63056E-04 2.04308E-18-5.51687E-20
 -1      3567-2.49183E-04 6.22979E-05 1.09264E-34 1.58441E-04 3.30294E-18-2.47640E-19
 -1      3568-2.32484E-04 3.79623E-05 1.98577E-34 1.78689E-04-2.41231E-18 6.45244E-20
 -1      3569-2.13413E-04 3.52401E-05 1.50604E-34 1.72769E-04 2.90613E-18 1.42678E-20
 -1      3570-1.90816E-04 8.12373E-06 9.07485E-35 1.87909E-04 1.00851E-18-1.06891E-19
 -1      3571-1.72929E-04 7.07924E-06 3.65518E-35 1.81345E-04 3.53519E-19-2.44973E-20
 -1      3572-1.46129E-04-2.07780E-05 1.16561E-34 1.90589E-04 1.90170E-18-1.70387E-20
 -1      3573-1.29543E-04-2.03109E-05 1.29046E-34 1.84026E-04-3.25004E-18 9.79326E-21
 -1      3574-1.00320E-04-4.70591E-05 1.52932E-34 1.87420E-04 4.77121E-18-7.49116E-21
 -1      3575-8.48149E-05-4.54366E-05 1.29894E-34 1.81360E-04-1.91368E-18 1.42007E-21
 -1      3576-5.46551E-05-6.97256E-05 7.61730E-35 1.79597E-04 5.11699E-19 8.01113E-21
 -1      3577-3.97664E-05-6.74160E-05 1.06481E-34 1.74329E-04 1.86772E-18 1.25112E-20
 -1      3578-9.63169E-06-8.85261E-05 1.39654E-34 1.68448E-04 1.71499E-18 5.23708E-20
 -1      3579 5.25769E-06-8.60444E-05 5.15713E-35 1.64029E-04-1.04796E-18-7.26346E-21
 -1      3580 3.50075E-05-1.03865E-04 1.29462E-34 1.55128E-04-1.69379E-18-2.96247E-20
 -1      3581 5.06069E-05-1.01737E-04 4.27547E-35 1.51400E-04-6.45622E-19-5.65893E-20
 -1      3582 8.01958E-05-1.16667E-04 1.81308E-34 1.40414E-04-3.45295E-19-6.14599E-20
 -1      3583 9.72981E-05-1.15432E-04 2.15255E-34 1.37012E-04-4.23971E-18 1.15088E-19
 -1      3584 1.27494E-04-1.28285E-04 9.17068E-35 1.24568E-04 3.01065E-18 9.39207E-20
 -1      3585 1.47024E-04-1.28533E-04 4.59970E-34 1.20899E-04-7.66977E-19-1.69601E-21
 -1      3586 1.79150E-04-1.40500E-04 2.34771E-34 1.07202E-04 1.55880E-18-7.36386E-20
 -1      3587 2.02274E-04-1.42953E-04 1.38949E-34 1.02355E-04-3.00577E-18-1.81088E-19
 -1      3588 2.38342E-04-1.55688E-04 7.73904E-35 8.70254E-05-6.01702E-18-5.43362E-19
 -1      3589 2.66647E-04-1.61325E-04 9.56665E-35 7.95337E-05 1.25421E-18-2.60900E-19
 -1      3590 3.09714E-04-1.77221E-04 6.02389E-35 6.12346E-05-3.82325E-18 1.32820E-19
 -1      3591 3.45487E-04-1.87486E-04 1.81562E-34 4.85177E-05-5.65264E-18 1.28984E-19
 -1      3592 3.99666E-04-2.09951E-04 1.87950E-34 2.43559E-05 4.90492E-19 4.43154E-19
 -1      3593 4.45422E-04-2.26968E-04 2.23506E-35 1.48690E-06-5.77512E-19-6.27549E-19
 -1      3594-2.93496E-04 1.25780E-04 5.13792E-35 1.04994E-07-4.84794E-19-3.85996E-19
 -1      3595-3.04106E-04 1.30373E-04 2.61799E-34 9.29856E-07 7.19631E-18 6.58350E-19
 -1      3596-3.06839E-04 1.31502E-04 1.35161E-34 4.05775E-06-3.85106E-18-1.91697E-19
 -1      3597-3.21166E-04 1.37587E-04 1.31850E-34 7.43362E-06 3.61510E-18 4.49393E-19
 -1      3598-3.20755E-04 1.37228E-04 1.52593E-34 1.20485E-05 1.78975E-18 1.51656E-19
 -1      3599-3.38002E-04 1.44001E-04 2.82720E-34 1.95029E-05-1.66749E-18-2.52163E-19
 -1      3600-3.33839E-04 1.41889E-04 8.75340E-35 2.47616E-05-2.45100E-18 1.40855E-19
 -1      3601-3.52593E-04 1.48007E-04 5.49060E-35 3.74856E-05-2.53888E-18 3.03674E-19
 -1      3602-3.44277E-04 1.44086E-04 2.88179E-35 4.25731E-05-3.39896E-18-2.51973E-19
 -1      3603-3.62405E-04 1.47685E-04-1.91456E-36 6.12176E-05 7.92343E-19 1.77875E-19
 -1      3604-3.49865E-04 1.42190E-04 8.21913E-35 6.51687E-05-1.42879E-18 1.99398E-19
 -1      3605-3.64729E-04 1.41163E-04 1.92080E-34 8.94808E-05 1.76071E-18-5.01382E-19
 -1      3606-3.48368E-04 1.34647E-04 2.00618E-34 9.13934E-05-2.84257E-18-1.95616E-19
 -1      3607-3.57264E-04 1.27117E-04 5.22625E-35 1.19990E-04 3.85054E-18 2.29225E-20
 -1      3608-3.37986E-04 1.20396E-04 1.22394E-34 1.19224E-04 3.37014E-18-8.95133E-20
 -1      3609-3.38753E-04 1.05288E-04 2.18052E-34 1.49671E-04-2.74461E-18 1.80844E-20
 -1      3610-3.17849E-04 9.92842E-05 1.92305E-35 1.46024E-04-3.36500E-18-1.05747E-19
 -1      3611-3.09437E-04 7.67478E-05 3.05413E-34 1.75286E-04-2.48973E-18-4.21644E-21
 -1      3612-2.88310E-04 7.22882E-05 3.80297E-35 1.69062E-04 3.43951E-19-3.54919E-20
 -1      3613-2.71061E-04 4.37690E-05 5.43205E-35 1.94194E-04-2.61794E-18 1.51723E-20
 -1      3614-2.50912E-04 4.13934E-05 6.14076E-35 1.86121E-04 3.21096E-18-3.31127E-20
 -1      3615-2.26408E-04 9.28443E-06 1.24220E-34 2.04947E-04-1.38304E-18 7.08469E-20
 -1      3616-2.07989E-04 9.15293E-06 7.32272E-35 1.95977E-04-1.45772E-18 7.84356E-20
 -1      3617-1.78546E-04-2.38218E-05 4.98419E-35 2.07481E-04-1.82637E-18 2.96827E-20
 -1      3618-1.62073E-04-2.19108E-05 2.61729E-34 1.98548E-04 3.79453E-18 3.22052E-20
 -1      3619-1.30108E-04-5.33187E-05 5.94102E-35 2.02875E-04-3.61174E-18 3.57130E-20
 -1      3620-1.15337E-04-4.98258E-05 4.84512E-35 1.94713E-04 1.95691E-18-7.78397E-21
 -1      3621-8.28461E-05-7.79383E-05 6.31576E-35 1.92865E-04-1.08724E-18 2.35538E-21
 -1      3622-6.92238E-05-7.34544E-05 1.42340E-34 1.85914E-04-3.28255E-18-4.78718E-21
 -1      3623-3.75073E-05-9.73807E-05 8.88769E-35 1.79323E-04 2.80909E-18-9.78978E-22
 -1      3624-2.43306E-05-9.25191E-05 3.54747E-35 1.73728E-04-1.51904E-18-1.41090E-20
 -1      3625 6.05717E-06-1.12124E-04 5.35436E-35 1.63871E-04 4.99909E-19-3.07848E-20
 -1      3626 1.95389E-05-1.07460E-04 1.28381E-34 1.59531E-04-2.76513E-19-8.11526E-20
 -1      3627 4.86976E-05-1.23178E-04 3.74104E-35 1.47668E-04-2.31783E-19-3.17306E-20
 -1      3628 6.32482E-05-1.19237E-04 1.40715E-34 1.44293E-04 6.25296E-18 1.16575E-20
 -1      3629 9.18064E-05-1.31893E-04 6.34015E-35 1.31338E-04 1.32264E-18-8.40163E-20
 -1      3630 1.08234E-04-1.29182E-04 9.84239E-35 1.28477E-04-1.94674E-18-2.73541E-20
 -1      3631 1.37269E-04-1.39877E-04 8.95574E-35 1.14944E-04 5.68229E-18-5.79390E-20
 -1      3632 1.56512E-04-1.38950E-04 1.74374E-34 1.11978E-04 6.45352E-18-7.27757E-20
 -1      3633 1.87571E-04-1.49055E-04 1.96007E-34 9.79452E-05-7.21651E-19-4.55207E-19
 -1      3634 2.10854E-04-1.50620E-04 1.73664E-34 9.39880E-05-4.96023E-18-1.76752E-19
 -1      3635 2.46129E-04-1.61915E-04 1.91204E-34 7.89999E-05 1.33587E-18-1.43810E-19
 -1      3636 2.75200E-04-1.66996E-04 3.53925E-35 7.26714E-05 5.57477E-18 1.30913E-19
 -1      3637 3.17966E-04-1.82029E-04 1.84567E-34 5.54165E-05 1.59985E-18 4.68116E-20
 -1      3638 3.55502E-04-1.92250E-04 6.05633E-35 4.42918E-05 3.12653E-18-3.20701E-19
 -1      3639 4.10270E-04-2.14765E-04 1.87464E-34 2.20419E-05 4.57303E-18 5.58054E-20
 -1      3640 4.59645E-04-2.32846E-04 1.03421E-34 1.39282E-06 2.46420E-18-4.10453E-19
 -1      3641-2.97612E-04 1.27554E-04 2.17815E-34 8.17570E-08 2.32911E-18 2.06957E-19
 -1      3642-3.12335E-04 1.33910E-04 1.32844E-34 8.72009E-07 1.65683E-18-1.25559E-19
 -1      3643-3.18739E-04 1.36596E-04 4.40774E-35 4.63461E-06-3.05841E-18-1.03896E-18
 -1      3644-3.38652E-04 1.44928E-04 7.03628E-35 9.55464E-06-8.90885E-19-2.26772E-19
 -1      3645-3.40449E-04 1.45411E-04 6.47312E-35 1.53227E-05 3.13779E-18 1.59206E-19
 -1      3646-3.63968E-04 1.54176E-04 1.10251E-34 2.66001E-05 4.45497E-19 4.67052E-19
 -1      3647-3.60243E-04 1.52090E-04 1.15265E-34 3.29786E-05-4.26590E-18 2.61347E-19
 -1      3648-3.84747E-04 1.58898E-04 8.52838E-35 5.20805E-05 5.07878E-18 3.19813E-19
 -1      3649-3.75067E-04 1.54303E-04 5.78003E-35 5.76547E-05 1.71461E-18-7.89871E-20
 -1      3650-3.96947E-04 1.56140E-04 2.30476E-34 8.48327E-05 4.82349E-18 2.36932E-19
 -1      3651-3.81587E-04 1.49640E-04 9.13060E-35 8.80939E-05 2.17902E-18-2.07897E-20
 -1      3652-3.96880E-04 1.43587E-04 7.24023E-35 1.21903E-04 2.52382E-20 7.76833E-20
 -1      3653-3.76971E-04 1.36281E-04 1.04185E-34 1.21667E-04 3.53633E-18 1.66740E-19
 -1      3654-3.82321E-04 1.20440E-04 3.02587E-35 1.58961E-04-6.47551E-19-1.36462E-19
 -1      3655-3.59706E-04 1.13701E-04 1.64889E-34 1.54702E-04-4.26259E-18-7.57595E-20
 -1      3656-3.53326E-04 8.79525E-05 9.85560E-35 1.91270E-04-1.47731E-18 2.17382E-19
 -1      3657-3.30137E-04 8.30745E-05 1.45132E-34 1.83282E-04 8.43069E-19-1.84255E-19
 -1      3658-3.12316E-04 4.92587E-05 9.37959E-35 2.14945E-04 6.78554E-18 1.41072E-19
 -1      3659-2.90416E-04 4.71189E-05 9.57635E-35 2.04233E-04-2.06146E-18 2.78441E-20
 -1      3660-2.63316E-04 8.50847E-06 4.77294E-35 2.27920E-04-1.24962E-18-5.70125E-20
 -1      3661-2.43884E-04 9.39647E-06 2.53567E-34 2.15869E-04 7.57285E-18-1.20254E-20
 -1      3662-2.10738E-04-3.02689E-05 6.64991E-36 2.30218E-04-2.47986E-18-3.85061E-20
 -1      3663-1.94135E-04-2.66185E-05 4.58569E-35 2.18198E-04-5.78687E-18 4.45663E-21
 -1      3664-1.58275E-04-6.40712E-05 7.33726E-35 2.23510E-04 2.31328E-18-1.21255E-20
 -1      3665-1.44184E-04-5.82997E-05 1.78346E-34 2.12580E-04-1.56331E-18 5.02259E-21
 -1      3666-1.08298E-04-9.13127E-05 9.56622E-35 2.10321E-04-5.11786E-18-5.79375E-21
 -1      3667-9.59963E-05-8.42201E-05 7.91310E-35 2.01107E-04 8.23249E-19 7.98259E-21
 -1      3668-6.17852E-05-1.11731E-04 8.47823E-35 1.93263E-04-6.81502E-18-3.45717E-20
 -1      3669-5.03970E-05-1.04104E-04 1.37055E-34 1.85978E-04 3.32731E-18-3.90683E-21
 -1      3670-1.85844E-05-1.26026E-04 1.44221E-34 1.74519E-04-2.77562E-18-1.55584E-21
 -1      3671-7.24651E-06-1.18547E-04 8.68157E-35 1.69067E-04-2.97233E-18-6.81634E-21
 -1      3672 2.22273E-05-1.35462E-04 1.47216E-34 1.55632E-04 1.47176E-18 3.78848E-20
 -1      3673 3.43067E-05-1.28684E-04 1.28504E-34 1.51714E-04-1.07469E-18-9.09647E-20
 -1      3674 6.20537E-05-1.41555E-04 2.15845E-34 1.37483E-04-2.16834E-18 8.90564E-21
 -1      3675 7.56160E-05-1.35938E-04 7.16770E-35 1.34679E-04-3.20142E-18 3.64831E-20
 -1      3676 1.02629E-04-1.45924E-04 9.17722E-35 1.20372E-04 1.82086E-18-2.98373E-21
 -1      3677 1.18443E-04-1.41895E-04 1.44098E-35 1.18170E-04-2.83890E-18 8.95446E-20
 -1      3678 1.46031E-04-1.50275E-04 8.97731E-35 1.04093E-04-2.97185E-18-7.39488E-20
 -1      3679 1.65013E-04-1.48323E-04 1.32064E-34 1.01869E-04 5.83952E-18 1.62965E-19
 -1      3680 1.94863E-04-1.56550E-04 6.85039E-35 8.79382E-05 1.22868E-18 4.72996E-21
 -1      3681 2.18267E-04-1.57347E-04 6.01521E-35 8.48557E-05 1.64145E-18-1.49555E-19
 -1      3682 2.52671E-04-1.67246E-04 1.37238E-34 7.05344E-05-2.21544E-18-1.03528E-19
 -1      3683 2.82374E-04-1.71841E-04 3.85118E-34 6.53243E-05 2.17082E-18 1.69699E-19
 -1      3684 3.24748E-04-1.86042E-04 1.08080E-34 4.93452E-05 3.06561E-18-2.84506E-19
 -1      3685 3.63760E-04-1.96205E-04 1.74069E-34 3.97784E-05-1.06048E-18 2.85513E-20
 -1      3686 4.18922E-04-2.18709E-04 1.40104E-34 1.96251E-05-4.04476E-18-6.00674E-20
 -1      3687 4.71388E-04-2.37686E-04 1.18588E-34 1.27687E-06 2.54759E-18-7.03907E-19
 -1      3688-3.00779E-04 1.28930E-04 1.35637E-34 1.48923E-08 3.44341E-18-6.26341E-19
 -1      3689-3.21807E-04 1.37980E-04 7.46499E-35 9.46296E-07-1.40377E-18 3.50076E-19
 -1      3690-3.33139E-04 1.42763E-04 3.27018E-35 5.78477E-06-1.07506E-18-2.57029E-19
 -1      3691-3.61393E-04 1.54332E-04 3.71220E-35 1.35196E-05-2.14548E-18 3.94197E-19
 -1      3692-3.65698E-04 1.55736E-04 3.85895E-35 2.11244E-05-8.01955E-19 2.19421E-19
 -1      3693-3.98006E-04 1.66851E-04 9.64593E-35 3.89006E-05-4.30990E-19-2.09610E-19
 -1      3694-3.93932E-04 1.64407E-04 1.05786E-34 4.68338E-05-3.28310E-18-3.18888E-20
 -1      3695-4.25450E-04 1.70821E-04 7.21533E-35 7.61197E-05-6.50111E-19-1.51975E-19
 -1      3696-4.12759E-04 1.64951E-04 1.82828E-34 8.19170E-05-4.51539E-20 1.53565E-19
 -1      3697-4.37537E-04 1.62013E-04 7.90008E-35 1.21605E-04-3.64103E-18-3.17621E-19
 -1      3698-4.17460E-04 1.54119E-04 1.14466E-34 1.23011E-04-7.44717E-19 1.43242E-19
 -1      3699-4.30045E-04 1.38376E-04 1.01755E-34 1.69103E-04 8.26177E-19-8.19005E-20
 -1      3700-4.05211E-04 1.30522E-04 1.14611E-34 1.64848E-04 1.53155E-18 1.04205E-19
 -1      3701-4.02381E-04 1.01175E-04 4.55356E-35 2.11337E-04 2.52574E-18 5.41019E-20
 -1      3702-3.76120E-04 9.54638E-05 5.69951E-35 2.01539E-04-1.70810E-18 1.46133E-19
 -1      3703-3.57903E-04 5.48342E-05 4.85825E-35 2.42222E-04 5.84977E-19-1.64891E-20
 -1      3704-3.33237E-04 5.27577E-05 2.36627E-34 2.28266E-04 2.80770E-18-3.26196E-20
 -1      3705-3.02638E-04 5.46859E-06 1.16612E-34 2.58591E-04-3.53709E-18-4.29052E-20
 -1      3706-2.81484E-04 7.56106E-06 4.07096E-35 2.42551E-04-5.39337E-18 2.14263E-20
 -1      3707-2.43159E-04-4.10646E-05 2.78056E-35 2.60600E-04-2.00714E-18 3.35203E-20
 -1      3708-2.26107E-04-3.51735E-05 4.42121E-35 2.44539E-04 4.02702E-18-8.25588E-21
 -1      3709-1.84781E-04-8.06142E-05 2.71853E-35 2.50890E-04 5.72264E-19 2.86642E-20
 -1      3710-1.71367E-04-7.18728E-05 1.25337E-34 2.36360E-04-3.10632E-18-3.01277E-20
 -1      3711-1.30711E-04-1.11220E-04 1.57998E-34 2.33213E-04-1.33224E-18 4.43816E-22
 -1      3712-1.19902E-04-1.00777E-04 1.34888E-34 2.21084E-04 2.87048E-18 3.09868E-21
 -1      3713-8.21185E-05-1.32807E-04 6.08987E-35 2.11247E-04 3.19470E-18-1.77578E-21
 -1      3714-7.27393E-05-1.21732E-04 1.12767E-34 2.01783E-04 2.83418E-18-7.02051E-21
 -1      3715-3.86852E-05-1.46524E-04 2.58874E-35 1.87912E-04-3.84904E-19 2.75665E-21
 -1      3716-2.96645E-05-1.35676E-04 7.99672E-35 1.80958E-04 2.12311E-18 1.63949E-20
 -1      3717 7.82451E-07-1.54106E-04 7.12283E-35 1.65164E-04-2.45394E-18 1.14709E-20
 -1      3718 1.03303E-05-1.44109E-04 1.20016E-34 1.60339E-04 2.05648E-19 1.63612E-20
 -1      3719 3.78950E-05-1.57428E-04 4.75316E-35 1.44086E-04-5.27270E-18 5.04377E-20
 -1      3720 4.86967E-05-1.48723E-04 4.61570E-35 1.40905E-04 1.29799E-18 1.29548E-20
 -1      3721 7.44345E-05-1.58287E-04 1.12640E-34 1.25074E-04-2.45257E-18-2.47691E-20
 -1      3722 8.71414E-05-1.51204E-04 7.93027E-35 1.23022E-04 4.42214E-18 2.24756E-20
 -1      3723 1.12301E-04-1.58356E-04 9.95878E-35 1.08029E-04 2.81823E-18-4.74394E-20
 -1      3724 1.27604E-04-1.53211E-04 2.01811E-34 1.06567E-04 3.57732E-19-1.18448E-20
 -1      3725 1.53620E-04-1.59285E-04 1.33951E-34 9.24708E-05-1.96543E-18-9.94022E-20
 -1      3726 1.72395E-04-1.56481E-04 2.48634E-35 9.10009E-05-4.86968E-18-9.01353E-20
 -1      3727 2.01006E-04-1.62921E-04 7.16981E-35 7.75533E-05 1.07652E-18-1.83953E-19
 -1      3728 2.24517E-04-1.63084E-04 1.43332E-34 7.53125E-05 5.71675E-18-9.62346E-20
 -1      3729 2.58051E-04-1.71695E-04 1.25817E-34 6.19143E-05 2.92819E-18 1.86182E-19
 -1      3730 2.88276E-04-1.75886E-04 1.18401E-34 5.77618E-05-3.31821E-20-1.80916E-19
 -1      3731 3.30226E-04-1.89324E-04 1.14475E-34 4.32162E-05 4.16211E-19 1.67824E-19
 -1      3732 3.70458E-04-1.99431E-04 1.39840E-34 3.51445E-05-4.37860E-20-2.57513E-19
 -1      3733 4.25866E-04-2.21884E-04 6.48211E-35 1.71850E-05-2.62782E-18-5.08104E-20
 -1      3734 4.80920E-04-2.41607E-04 3.09521E-34 1.14662E-06 8.32465E-18-3.46354E-19
 -1      3735-3.03133E-04 1.30006E-04 2.34690E-35-1.37336E-07 1.80894E-18-6.23235E-19
 -1      3736-3.33900E-04 1.43164E-04 4.57200E-35 1.28167E-06-4.27754E-18-2.95380E-19
 -1      3737-3.52067E-04 1.50861E-04 1.51790E-34 7.96067E-06 5.42638E-18 4.01908E-19
 -1      3738-3.92841E-04 1.67041E-04 8.59731E-35 2.08947E-05 4.42230E-19-1.33865E-19
 -1      3739-3.99798E-04 1.69351E-04 2.05583E-35 3.14336E-05 3.05289E-18-2.13365E-19
 -1      3740-4.44161E-04 1.82663E-04 7.72446E-35 6.04294E-05 3.68178E-18 2.70124E-19
 -1      3741-4.37997E-04 1.79106E-04 4.81675E-35 7.03246E-05 3.90667E-19-3.34090E-19
 -1      3742-4.77014E-04 1.82122E-04 9.82352E-35 1.15810E-04 2.47318E-18 4.41884E-20
 -1      3743-4.58463E-04 1.74125E-04 4.53638E-35 1.20809E-04-1.64864E-18-3.81473E-19
 -1      3744-4.82869E-04 1.60357E-04 1.05503E-34 1.78093E-04-3.09741E-18 3.89614E-21
 -1      3745-4.55520E-04 1.50984E-04 1.51388E-34 1.75187E-04 4.00842E-18 9.52209E-20
 -1      3746-4.59144E-04 1.17935E-04 1.12009E-34 2.35487E-04-1.38463E-18-4.55181E-20
 -1      3747-4.28373E-04 1.10738E-04 4.74350E-35 2.24116E-04-9.09334E-19 9.05084E-20
 -1      3748-4.10387E-04 6.11981E-05 3.08239E-35 2.77731E-04 3.74248E-18-2.03343E-20
 -1      3749-3.81359E-04 5.88733E-05 1.22450E-34 2.59754E-04-4.32872E-18-1.70318E-20
 -1      3750-3.46029E-04-3.67522E-07 1.87686E-34 2.99513E-04 3.94523E-18-2.99873E-20
 -1      3751-3.22053E-04 3.21880E-06 1.44180E-34 2.78157E-04 1.30403E-18-1.66709E-20
 -1      3752-2.76374E-04-5.77880E-05 5.44885E-35 3.01199E-04 2.13338E-18-5.30073E-20
 -1      3753-2.58440E-04-4.88282E-05 4.96169E-35 2.79708E-04 5.19675E-18 3.82205E-20
 -1      3754-2.09375E-04-1.05099E-04 7.12512E-35 2.87116E-04-1.46465E-19-4.08586E-20
 -1      3755-1.96726E-04-9.22498E-05 7.25131E-35 2.67840E-04-3.96702E-20-4.46615E-20
 -1      3756-1.49415E-04-1.39919E-04 1.11614E-34 2.63039E-04 3.16676E-19 1.07139E-21
 -1      3757-1.40470E-04-1.24914E-04 2.44456E-34 2.47185E-04 6.57474E-18-7.18659E-22
 -1      3758-9.77529E-05-1.62651E-04 3.82533E-35 2.34264E-04 2.64630E-18-7.65841E-22
 -1      3759-9.08285E-05-1.47014E-04 1.04197E-34 2.22105E-04-3.97352E-18-1.09124E-21
 -1      3760-5.36247E-05-1.75270E-04 9.25475E-35 2.04704E-04-3.65294E-19 3.81981E-21
 -1      3761-4.73077E-05-1.60127E-04 6.69281E-35 1.95935E-04-2.14834E-18 6.04145E-22
 -1      3762-1.52780E-05-1.80304E-04 1.14062E-34 1.76782E-04-4.06267E-18-2.04887E-21
 -1      3763-8.51554E-06-1.66390E-04 1.05466E-34 1.70832E-04 1.59093E-18 2.03629E-20
 -1      3764 1.93420E-05-1.80221E-04 1.81523E-34 1.51709E-04-9.57985E-19 7.07570E-20
 -1      3765 2.73045E-05-1.67965E-04 6.13053E-35 1.47940E-04-3.65958E-18 1.36327E-20
 -1      3766 5.22602E-05-1.77159E-04 4.91494E-35 1.29853E-04 7.24006E-20 1.77757E-20
 -1      3767 6.19953E-05-1.66804E-04 1.88250E-34 1.27658E-04 9.54075E-18-8.35736E-20
 -1      3768 8.53896E-05-1.72901E-04 3.34053E-35 1.11055E-04-1.12826E-18 7.33140E-20
 -1      3769 9.74168E-05-1.64609E-04 8.98909E-35 1.09878E-04-5.07935E-19 6.45276E-21
 -1      3770 1.20613E-04-1.68973E-04 1.31666E-35 9.48355E-05 5.22432E-19-6.08969E-20
 -1      3771 1.35530E-04-1.62931E-04 8.57103E-35 9.41562E-05 3.97365E-19 4.87952E-20
 -1      3772 1.59983E-04-1.66842E-04 2.04694E-34 8.04947E-05-3.97143E-18 8.33334E-20
 -1      3773 1.78615E-04-1.63362E-04 1.14418E-34 7.97686E-05-5.34854E-19 4.19235E-20
 -1      3774 2.06045E-04-1.68183E-04 4.83502E-35 6.71073E-05-1.37188E-18 7.34083E-21
 -1      3775 2.29661E-04-1.67846E-04 8.56348E-35 6.56619E-05 3.25428E-18-1.12266E-19
 -1      3776 2.62380E-04-1.75316E-04 2.27302E-34 5.33703E-05-6.67585E-18-2.61366E-19
 -1      3777 2.93039E-04-1.79187E-04 8.60493E-35 5.02045E-05-8.79544E-18-4.08308E-20
 -1      3778 3.34571E-04-1.91953E-04 1.52418E-34 3.71829E-05-4.28467E-18 8.89885E-20
 -1      3779 3.75802E-04-2.02016E-04 1.83396E-34 3.05244E-05-7.89088E-19-3.32090E-19
 -1      3780 4.31347E-04-2.24397E-04 1.21244E-34 1.47835E-05 2.44767E-18 3.32858E-19
 -1      3781 4.88528E-04-2.44730E-04 4.11404E-35 1.00866E-06 3.00170E-18 1.61302E-19
 -1      3782-3.04705E-04 1.30750E-04-4.42316E-36-4.81471E-07-2.57384E-18-1.92598E-19
 -1      3783-3.50889E-04 1.50414E-04 2.23186E-34 2.19034E-06 3.30102E-19-3.04273E-19
 -1      3784-3.78959E-04 1.62406E-04 5.35746E-35 1.21515E-05-4.19401E-18-2.18316E-19
 -1      3785-4.38851E-04 1.84919E-04 1.54477E-34 3.49745E-05 1.92315E-18 4.93531E-19
 -1      3786-4.47902E-04 1.87821E-04 2.02806E-34 5.01749E-05 7.56289E-19 7.25388E-19
 -1      3787-5.08066E-04 2.01423E-04 5.54098E-35 9.89338E-05 8.76682E-19 1.09034E-19
 -1      3788-4.96064E-04 1.95364E-04 8.32933E-35 1.10685E-04 1.53129E-18 1.08445E-19
 -1      3789-5.40400E-04 1.87628E-04 6.31035E-35 1.81477E-04 4.40080E-18-7.05847E-20
 -1      3790-5.11355E-04 1.76646E-04 8.00029E-35 1.82784E-04-3.07194E-18-3.82526E-20
 -1      3791-5.27212E-04 1.40733E-04 8.09063E-35 2.62743E-04 3.53879E-18 4.67331E-20
 -1      3792-4.89958E-04 1.31039E-04 1.89814E-35 2.50787E-04 2.41837E-18-9.16469E-20
 -1      3793-4.73937E-04 6.96951E-05 1.52329E-34 3.23786E-04 3.59855E-18-1.36418E-19
 -1      3794-4.37922E-04 6.65147E-05 8.63956E-35 3.00811E-04-3.27922E-18-3.35690E-20
 -1      3795-3.96142E-04-9.83606E-06 8.58544E-35 3.54642E-04-9.55178E-20 5.36274E-21
 -1      3796-3.67528E-04-4.31130E-06 1.64679E-34 3.25907E-04 4.72893E-18 8.75582E-21
 -1      3797-3.11100E-04-8.31171E-05 6.89768E-35 3.55956E-04-1.46285E-18-8.75660E-21
 -1      3798-2.91668E-04-6.96875E-05 1.62671E-34 3.26871E-04 6.05259E-18 6.72999E-21
 -1      3799-2.31387E-04-1.41128E-04 1.23061E-34 3.35215E-04-4.86501E-18 1.85617E-20
 -1      3800-2.19792E-04-1.22260E-04 4.43070E-35 3.09501E-04-1.84072E-18 2.02712E-20
 -1      3801-1.63100E-04-1.81096E-04 1.16369E-34 3.01733E-04 7.33132E-18 6.91249E-21
 -1      3802-1.56746E-04-1.59546E-04 1.54956E-34 2.81076E-04-4.72218E-18-1.01907E-20
 -1      3803-1.07292E-04-2.04527E-04 1.33984E-34 2.63363E-04 2.40630E-18 4.46836E-22
 -1      3804-1.03633E-04-1.82547E-04 8.85828E-35 2.47940E-04-7.08948E-19 4.10052E-22
 -1      3805-6.22228E-05-2.14895E-04 9.35794E-35 2.25380E-04-2.36631E-18-5.05719E-21
 -1      3806-5.93111E-05-1.94001E-04 6.11863E-35 2.14558E-04-1.25683E-18-7.93689E-21
 -1      3807-2.51242E-05-2.16025E-04 3.84800E-35 1.90687E-04 2.75406E-18 1.35661E-20
 -1      3808-2.16586E-05-1.97079E-04 9.44316E-35 1.83547E-04 1.11314E-18 1.82441E-21
 -1      3809 6.82335E-06-2.11279E-04 1.30758E-35 1.60490E-04-1.56253E-18-4.48958E-20
 -1      3810 1.16494E-05-1.94679E-04 1.26270E-34 1.56122E-04 7.51423E-18-1.79894E-20
 -1      3811 3.60964E-05-2.03310E-04 8.31361E-35 1.34957E-04-1.08878E-18 4.68565E-20
 -1      3812 4.27873E-05-1.89178E-04 1.06310E-35 1.32572E-04 1.07424E-18 1.42041E-20
 -1      3813 6.47774E-05-1.94106E-04 1.77580E-34 1.13698E-04 1.49759E-18-5.52845E-20
 -1      3814 7.37040E-05-1.82437E-04 2.82658E-35 1.12652E-04-2.48897E-18-1.44992E-21
 -1      3815 9.46698E-05-1.85167E-04 8.19891E-35 9.60601E-05 3.58638E-18-5.64394E-20
 -1      3816 1.06208E-04-1.75943E-04 3.12756E-35 9.58230E-05-2.84933E-18 2.80550E-20
 -1      3817 1.27494E-04-1.77725E-04 1.97221E-34 8.12771E-05-2.52098E-18-7.40459E-20
 -1      3818 1.42150E-04-1.71004E-04 1.44730E-34 8.13857E-05 9.62423E-19-1.26557E-21
 -1      3819 1.65149E-04-1.72980E-04 1.69544E-34 6.85200E-05-1.16466E-18 1.56739E-21
 -1      3820 1.83704E-04-1.68995E-04 1.80596E-34 6.85072E-05-1.26599E-18-7.41800E-20
 -1      3821 2.10068E-04-1.72405E-04 1.03266E-34 5.68526E-05-3.46052E-18-9.55852E-21
 -1      3822 2.33793E-04-1.71695E-04 9.55401E-35 5.61469E-05 8.25856E-19-2.17708E-20
 -1      3823 2.65785E-04-1.78189E-04 9.06943E-35 4.50775E-05-4.49357E-18-3.30712E-20
 -1      3824 2.96807E-04-1.81820E-04 2.97484E-34 4.28224E-05 1.81001E-18-6.00289E-20
 -1      3825 3.37950E-04-1.94014E-04 1.20973E-34 3.13585E-05 3.54471E-18-6.74115E-20
 -1      3826 3.79989E-04-2.04048E-04 7.82235E-35 2.60205E-05 1.03961E-18-4.05510E-20
 -1      3827 4.35591E-04-2.26348E-04 7.55402E-35 1.24657E-05-3.05689E-18-1.37333E-19
 -1      3828 4.94491E-04-2.47174E-04 1.70916E-34 8.68373E-07 4.24611E-18-5.74056E-20
 -1      3829-3.05776E-04 1.31804E-04 2.90353E-35-1.26278E-06 1.49805E-18 1.54006E-19
 -1      3830-3.77472E-04 1.61647E-04 1.53562E-34 4.31297E-06 2.05753E-18-6.90449E-21
 -1      3831-4.19943E-04 1.79831E-04 6.41194E-35 2.03639E-05 1.26280E-19-1.74079E-20
 -1      3832-5.09409E-04 2.10593E-04 2.31096E-35 6.30321E-05 7.57891E-19 3.17800E-20
 -1      3833-5.17916E-04 2.12808E-04 1.53580E-34 8.55620E-05 3.81172E-18-3.30720E-20
 -1      3834-5.96601E-04 2.19713E-04 8.32445E-35 1.69656E-04-1.58673E-18 7.92446E-20
 -1      3835-5.70874E-04 2.08734E-04 1.34777E-35 1.81091E-04 1.12881E-19 1.76725E-19
 -1      3836-6.11155E-04 1.73649E-04 1.41216E-35 2.89294E-04-5.86913E-19 1.49780E-20
 -1      3837-5.65182E-04 1.60043E-04 9.64609E-35 2.79792E-04 3.54250E-18-1.95855E-20
 -1      3838-5.55724E-04 8.30592E-05 4.92606E-35 3.83442E-04-1.11856E-18-7.98578E-20
 -1      3839-5.08154E-04 7.78031E-05 5.21994E-35 3.54404E-04-3.93185E-19-2.92348E-20
 -1      3840-4.57530E-04-2.42835E-05 6.24883E-35 4.30527E-04-4.54887E-19-3.36553E-20
 -1      3841-4.21054E-04-1.61171E-05 5.74247E-35 3.90989E-04 3.17176E-18-7.47775E-20
 -1      3842-3.48216E-04-1.21838E-04 6.38695E-35 4.31334E-04 1.58140E-18-2.38668E-20
 -1      3843-3.26392E-04-1.01424E-04 4.49136E-35 3.91042E-04-3.04818E-18-2.39814E-20
 -1      3844-2.49260E-04-1.94981E-04 5.69374E-35 3.99795E-04-1.89283E-18-2.00859E-21
 -1      3845-2.39457E-04-1.66733E-04 3.05228E-35 3.65010E-04-1.30892E-18 3.18063E-21
 -1      3846-1.69268E-04-2.40922E-04 6.75800E-35 3.51870E-04-2.62421E-18-5.47620E-21
 -1      3847-1.66911E-04-2.09477E-04 7.39535E-35 3.24937E-04 3.02420E-18 4.73260E-21
 -1      3848-1.08257E-04-2.63674E-04 9.28485E-35 2.99618E-04-2.67730E-18-6.10073E-21
 -1      3849-1.09305E-04-2.32473E-04 1.14095E-34 2.80332E-04-1.18832E-18 5.66021E-21
 -1      3850-6.24523E-05-2.69487E-04 1.37797E-34 2.50129E-04 2.05171E-19-5.47560E-21
 -1      3851-6.41368E-05-2.40570E-04 7.12287E-35 2.37171E-04-2.14288E-18-8.09377E-21
 -1      3852-2.72900E-05-2.64283E-04 9.19645E-35 2.06655E-04 1.38064E-18 1.35451E-20
 -1      3853-2.79907E-05-2.38608E-04 8.52561E-35 1.98488E-04-1.03916E-18-3.59673E-21
 -1      3854 1.26244E-06-2.52722E-04 1.67044E-34 1.70096E-04 4.06012E-18-8.80078E-21
 -1      3855 2.38804E-06-2.30561E-04 2.86183E-35 1.65360E-04 2.65689E-19 6.64606E-21
 -1      3856 2.63647E-05-2.38124E-04 6.62183E-35 1.40128E-04 4.23257E-18 1.55837E-20
 -1      3857 2.97186E-05-2.19387E-04 3.77422E-35 1.37757E-04-8.89168E-19-1.48144E-20
 -1      3858 5.03921E-05-2.22729E-04 2.61212E-34 1.15901E-04-3.18011E-18 1.73097E-21
 -1      3859 5.61780E-05-2.07176E-04 9.79300E-35 1.15098E-04-1.17218E-18 4.37365E-21
 -1      3860 7.51651E-05-2.08028E-04 1.15900E-34 9.64111E-05-2.88674E-18 3.95197E-20
 -1      3861 8.35503E-05-1.95403E-04 7.96135E-35 9.65904E-05 3.81002E-18 3.53560E-22
 -1      3862 1.02204E-04-1.95063E-04 2.95125E-35 8.06714E-05-1.56281E-18-2.63755E-20
 -1      3863 1.13435E-04-1.85177E-04 1.47761E-34 8.13850E-05-4.45776E-18 3.18856E-20
 -1      3864 1.32983E-04-1.84684E-04 1.48765E-34 6.77644E-05 6.79880E-18 2.99883E-20
 -1      3865 1.47493E-04-1.77490E-04 1.49922E-34 6.86364E-05 4.82914E-18-1.57532E-20
 -1      3866 1.69210E-04-1.77806E-04 8.63524E-35 5.68269E-05 4.02569E-18 1.41785E-20
 -1      3867 1.87747E-04-1.73469E-04 6.48465E-35 5.74824E-05-2.03780E-18 3.43522E-22
 -1      3868 2.13189E-04-1.75694E-04 1.08429E-34 4.69767E-05-1.46549E-18-5.46753E-20
 -1      3869 2.37029E-04-1.74722E-04 8.13581E-35 4.69502E-05-2.43189E-18-8.73473E-20
 -1      3870 2.68396E-04-1.80407E-04 6.72877E-35 3.71596E-05 1.91771E-18 4.21130E-21
 -1      3871 2.99722E-04-1.83870E-04 1.02621E-34 3.57381E-05-3.48489E-18-4.10784E-20
 -1      3872 3.40519E-04-1.95591E-04 1.26174E-34 2.58204E-05 4.88225E-18 2.82564E-20
 -1      3873 3.83204E-04-2.05612E-04 1.29094E-34 2.17054E-05-2.18803E-18-1.26436E-19
 -1      3874 4.38808E-04-2.27830E-04 1.25667E-34 1.02627E-05 2.44792E-18 1.84579E-20
 -1      3875 4.99071E-04-2.49049E-04 1.31373E-34 7.29874E-07-9.28875E-19 4.21049E-19
 -1      3876-3.05336E-04 1.31373E-04 6.94755E-36-2.89822E-06 3.69699E-18-1.80630E-19
 -1      3877-4.22083E-04 1.80113E-04 6.92953E-35 1.00808E-05 6.01805E-18-1.41827E-20
 -1      3878-4.87712E-04 2.09125E-04 1.22974E-34 3.85631E-05 1.39049E-20-2.29880E-19
 -1      3879-6.24155E-04 2.46387E-04 1.27780E-34 1.23500E-04 1.42429E-18-3.85444E-19
 -1      3880-6.21885E-04 2.44640E-04 7.14441E-35 1.55883E-04 9.19023E-19 1.60640E-19
 -1      3881-7.13355E-04 2.21940E-04 4.12012E-35 3.02837E-04 1.13923E-18-1.65986E-19
 -1      3882-6.58974E-04 2.03926E-04 5.43143E-35 3.04630E-04 1.88983E-18 1.66254E-19
 -1      3883-6.68786E-04 1.07217E-04 1.07301E-34 4.59942E-04-1.06562E-18-1.57854E-20
 -1      3884-6.01308E-04 9.73523E-05 4.47496E-35 4.24557E-04 2.25458E-18-4.10120E-20
 -1      3885-5.38747E-04-4.60355E-05 4.01764E-35 5.38895E-04 8.47617E-19 3.13061E-20
 -1      3886-4.88089E-04-3.40476E-05 1.59697E-34 4.82413E-04-9.53114E-19-1.26397E-20
 -1      3887-3.88609E-04-1.83267E-04 1.19013E-34 5.38729E-04-1.84870E-18 3.29722E-21
 -1      3888-3.63098E-04-1.50917E-04 1.66398E-35 4.80709E-04-1.76093E-18-1.46238E-20
 -1      3889-2.59357E-04-2.78353E-04 4.43953E-35 4.88165E-04-1.36952E-18-8.13405E-22
 -1      3890-2.53201E-04-2.34363E-04 1.18078E-34 4.40015E-04-1.93395E-18-2.52193E-21
 -1      3891-1.63036E-04-3.30190E-04 6.74624E-35 4.16804E-04-2.76011E-18-1.71127E-20
 -1      3892-1.67491E-04-2.82895E-04 3.63701E-35 3.81616E-04-2.23904E-18-7.62966E-22
 -1      3893-9.62503E-05-3.48706E-04 2.25431E-35 3.43817E-04 4.38796E-19-1.95993E-21
 -1      3894-1.04594E-04-3.03483E-04 9.33556E-35 3.20213E-04 4.91008E-19 3.16070E-21
 -1      3895-5.09389E-05-3.45408E-04 3.02367E-35 2.78443E-04-9.38757E-19-1.10506E-20
 -1      3896-5.92074E-05-3.04895E-04 5.57360E-35 2.63663E-04 1.68260E-18-4.01506E-21
 -1      3897-1.94117E-05-3.29587E-04 6.79225E-35 2.23698E-04 2.93918E-18 1.70690E-20
 -1      3898-2.56659E-05-2.94633E-04 7.40074E-35 2.15098E-04-2.55367E-18-1.85035E-20
 -1      3899 4.19295E-06-3.07661E-04 6.82414E-35 1.79490E-04-2.57764E-18-5.35685E-21
 -1      3900 7.15945E-07-2.78163E-04 1.90864E-34 1.75011E-04 1.06477E-18 6.83601E-21
 -1      3901 2.39439E-05-2.83689E-04 3.41171E-35 1.44484E-04 1.12096E-18 3.32200E-20
 -1      3902 2.34284E-05-2.59135E-04 1.41896E-34 1.42664E-04 2.22249E-18 2.17147E-20
 -1      3903 4.25699E-05-2.60089E-04 1.33978E-34 1.17028E-04-1.49073E-18-2.18364E-21
 -1      3904 4.49740E-05-2.39854E-04 2.28218E-35 1.16876E-04 1.15529E-18-3.94384E-20
 -1      3905 6.19260E-05-2.38246E-04-2.00806E-38 9.55547E-05-1.49756E-18 8.59023E-21
 -1      3906 6.71743E-05-2.21746E-04 4.83436E-35 9.64074E-05 4.97777E-18-6.25348E-21
 -1      3907 8.33700E-05-2.18951E-04 1.24121E-34 7.87128E-05 1.03157E-18-2.24301E-20
 -1      3908 9.14621E-05-2.05713E-04 1.26742E-34 8.01187E-05-1.15506E-18-2.28716E-20
 -1      3909 1.08057E-04-2.02717E-04 1.31813E-34 6.53790E-05-4.06991E-18-1.74286E-20
 -1      3910 1.19143E-04-1.92418E-04 1.41534E-34 6.70115E-05 5.56666E-18-3.25827E-21
 -1      3911 1.37190E-04-1.90008E-04 5.91548E-35 5.46187E-05 3.69139E-18 1.00291E-20
 -1      3912 1.51652E-04-1.82520E-04 2.06090E-34 5.62078E-05 1.01643E-19 1.01534E-20
 -1      3913 1.72288E-04-1.81466E-04 8.45777E-35 4.56210E-05-7.02681E-18-5.69927E-20
 -1      3914 1.90856E-04-1.76910E-04 8.20682E-35 4.68907E-05-3.98300E-18-1.52309E-21
 -1      3915 2.15533E-04-1.78172E-04 2.58619E-35 3.76088E-05-2.11787E-18 9.74672E-20
 -1      3916 2.39491E-04-1.77033E-04 8.45051E-35 3.81993E-05 1.42312E-18 6.76186E-20
 -1      3917 2.70340E-04-1.82068E-04 9.96143E-35 2.96970E-05-4.95970E-18-4.59231E-21
 -1      3918 3.01919E-04-1.85423E-04 2.28950E-34 2.90335E-05 3.46708E-19-4.35117E-20
 -1      3919 3.42419E-04-1.96762E-04 9.97621E-35 2.06171E-05 7.01691E-20-4.85347E-20
 -1      3920 3.85614E-04-2.06787E-04 1.00433E-34 1.76269E-05 2.85666E-18-2.97407E-20
 -1      3921 4.41181E-04-2.28924E-04 7.06442E-35 8.19348E-06-1.11438E-18-1.23657E-19
 -1      3922 5.02505E-04-2.50454E-04 1.17686E-34 5.96127E-07-6.67415E-20-6.17595E-20
 -1      3923-3.07305E-04 1.40431E-04 1.38311E-34-9.19924E-06 2.90849E-18 4.97767E-20
 -1      3924-5.09866E-04 2.16388E-04 4.76700E-35 2.48815E-05 1.22105E-18-3.69754E-19
 -1      3925-6.06296E-04 2.56851E-04 1.07529E-34 8.04536E-05 3.70259E-18 1.48770E-19
 -1      3926-8.13609E-04 2.86577E-04 3.61744E-35 2.63647E-04-4.83294E-18 4.73363E-20
 -1      3927-7.69449E-04 2.70061E-04 3.35990E-35 3.03951E-04 2.54034E-18-1.98526E-19
 -1      3928-8.37782E-04 1.55872E-04 3.66352E-35 5.53461E-04-1.13610E-18-1.16794E-19
 -1      3929-7.34970E-04 1.36596E-04 9.86530E-35 5.15811E-04-6.27262E-18-1.14758E-19
 -1      3930-6.58027E-04-7.98124E-05 1.99458E-35 7.03183E-04 1.42110E-19-2.52035E-20
 -1      3931-5.78940E-04-6.16672E-05 4.86752E-35 6.17375E-04 4.44860E-18 6.20597E-21
 -1      3932-4.32049E-04-2.88006E-04 1.39534E-34 7.00068E-04 7.66180E-18 2.25072E-20
 -1      3933-4.01337E-04-2.32511E-04 1.02718E-34 6.11346E-04 7.66000E-19 1.14354E-20
 -1      3934-2.52680E-04-4.15051E-04 4.00973E-35 6.12191E-04 4.36660E-18 8.10833E-21
 -1      3935-2.55109E-04-3.42059E-04 2.60887E-35 5.43445E-04 2.41174E-18-9.85805E-21
 -1      3936-1.34410E-04-4.68943E-04 1.18113E-34 5.00244E-04-1.08884E-18 5.78747E-21
 -1      3937-1.51620E-04-3.94492E-04 1.64467E-34 4.54514E-04 4.37504E-19-4.35425E-21
 -1      3938-6.33027E-05-4.74260E-04 3.86789E-35 3.95340E-04-1.80691E-18 4.95390E-21
 -1      3939-8.37248E-05-4.06699E-04 7.67642E-35 3.67772E-04-6.12978E-18-3.57174E-21
 -1      3940-2.21189E-05-4.52666E-04 1.10741E-34 3.08052E-04 5.39227E-19 3.84163E-21
 -1      3941-4.02828E-05-3.94846E-04 5.73151E-35 2.92797E-04 5.66655E-19 1.10649E-20
 -1      3942 2.15196E-06-4.18594E-04 7.05705E-35 2.39258E-04-2.16541E-18 3.82408E-21
 -1      3943-1.17940E-05-3.70550E-04 5.28973E-35 2.31734E-04 1.62620E-18-3.58062E-21
 -1      3944 1.79018E-05-3.80493E-04 8.12548E-35 1.86388E-04-1.27348E-18-3.40134E-20
 -1      3945 8.49509E-06-3.41134E-04 3.38523E-35 1.83504E-04 4.14296E-19-4.19472E-21
 -1      3946 3.01952E-05-3.42904E-04 6.33289E-35 1.46184E-04 3.02632E-18-1.50158E-20
 -1      3947 2.50212E-05-3.10859E-04 5.46263E-35 1.45992E-04-2.61734E-19 1.38675E-20
 -1      3948 4.20154E-05-3.08071E-04 5.05803E-35 1.15693E-04-6.80539E-18-1.73866E-21
 -1      3949 4.06140E-05-2.82049E-04 1.07848E-34 1.17008E-04-2.75502E-18-2.37328E-20
 -1      3950 5.51381E-05-2.76979E-04 4.88299E-35 9.25246E-05 1.35189E-18 2.09867E-21
 -1      3951 5.70981E-05-2.55894E-04 1.50375E-34 9.46348E-05-5.25581E-20 1.09447E-20
 -1      3952 7.06904E-05-2.49964E-04 8.94021E-35 7.48296E-05-3.74688E-18-4.36497E-21
 -1      3953 7.57314E-05-2.32963E-04 7.75717E-35 7.73062E-05-4.31956E-18-2.32539E-20
 -1      3954 8.95077E-05-2.27088E-04 8.83795E-35 6.11999E-05-1.08040E-18-1.25185E-20
 -1      3955 9.75188E-05-2.13543E-04 4.77870E-35 6.37754E-05 1.39573E-18 1.12277E-20
 -1      3956 1.12382E-04-2.08358E-04 9.89042E-35 5.05606E-05 3.50649E-18 1.25616E-20
 -1      3957 1.23456E-04-1.97861E-04 1.57046E-34 5.30501E-05-3.02626E-18-5.50521E-22
 -1      3958 1.40269E-04-1.93901E-04 9.98959E-35 4.20717E-05 4.47597E-19 9.37514E-21
 -1      3959 1.54763E-04-1.86271E-04 1.17758E-34 4.43182E-05 2.17917E-18 3.52918E-20
 -1      3960 1.74522E-04-1.84126E-04 1.17431E-34 3.50401E-05-2.79865E-18 1.04990E-20
 -1      3961 1.93160E-04-1.79458E-04 1.19335E-34 3.68658E-05-4.85090E-18-2.92080E-20
 -1      3962 2.17222E-04-1.79962E-04 2.14438E-34 2.88286E-05-2.18530E-18 5.38618E-21
 -1      3963 2.41301E-04-1.78735E-04 1.75953E-35 2.99748E-05 8.02810E-19-3.92919E-20
 -1      3964 2.71733E-04-1.83262E-04 3.92211E-35 2.27351E-05-7.11090E-19 1.06113E-19
 -1      3965 3.03524E-04-1.86561E-04 1.28684E-34 2.27574E-05-4.10812E-18-2.28356E-20
 -1      3966 3.43774E-04-1.97601E-04 9.32320E-35 1.57739E-05-5.39886E-18-4.22371E-20
 -1      3967 3.87367E-04-2.07643E-04 8.60932E-35 1.38128E-05-1.99315E-18-1.28630E-19
 -1      3968 4.42870E-04-2.29705E-04 2.04393E-34 6.26802E-06 8.08473E-18 1.19068E-19
 -1      3969 5.05002E-04-2.51474E-04 4.52481E-35 4.69121E-07 2.15619E-19 3.17477E-19
 -1      3970-3.05912E-04 1.23765E-04 5.30823E-35-1.26850E-05 3.93211E-18-6.46959E-20
 -1      3971-7.34027E-04 2.92372E-04 9.73347E-35 8.44110E-05-1.48780E-18 2.89959E-20
 -1      3972-8.42718E-04 3.54034E-04 2.49139E-35 2.05841E-04-6.47438E-19-1.12608E-19
 -1      3973-1.10367E-03 2.51945E-04 9.73730E-35 6.36508E-04-4.67498E-18 3.23962E-20
 -1      3974-9.46022E-04 2.29496E-04 9.24712E-35 6.26658E-04-8.48864E-19 4.20059E-20
 -1      3975-8.60816E-04-1.40028E-04 1.26752E-34 9.76820E-04-1.02654E-18-1.35162E-21
 -1      3976-7.14196E-04-1.09255E-04 6.41741E-35 8.32988E-04 5.93629E-19-3.81497E-21
 -1      3977-4.70946E-04-4.90075E-04 1.02897E-34 9.62135E-04 2.11037E-18-7.76558E-21
 -1      3978-4.35905E-04-3.81115E-04 3.29408E-35 8.13665E-04 9.35930E-19-1.14370E-21
 -1      3979-2.04557E-04-6.59513E-04 2.36297E-35 7.90277E-04-2.05006E-18-7.32758E-21
 -1      3980-2.30250E-04-5.26061E-04 3.81426E-35 6.89082E-04-1.43249E-18 9.59833E-21
 -1      3981-6.17225E-05-6.96943E-04 1.47729E-34 6.03000E-04-3.36218E-18-3.30064E-20
 -1      3982-1.05094E-04-5.72238E-04 6.60637E-35 5.46055E-04-1.48981E-18 9.59442E-21
 -1      3983 5.27360E-06-6.65968E-04 3.53167E-35 4.48460E-04-1.89555E-18 9.88607E-21
 -1      3984-3.62625E-05-5.61146E-04 4.21518E-35 4.20362E-04 8.81617E-19 3.81370E-21
 -1      3985 3.30232E-05-6.07018E-04 3.71247E-35 3.32145E-04 1.79802E-18 1.59553E-21
 -1      3986-4.77747E-07-5.22720E-04 5.63133E-35 3.20495E-04-1.19252E-19-2.63622E-21
 -1      3987 4.27346E-05-5.40923E-04 4.06708E-35 2.47394E-04-2.14133E-18 3.36748E-21
 -1      3988 1.79525E-05-4.74203E-04 9.07873E-35 2.44468E-04-1.03107E-18-1.56322E-20
 -1      3989 4.55047E-05-4.77170E-04 1.23631E-34 1.86138E-04 6.38362E-19 7.91320E-21
 -1      3990 2.83743E-05-4.24504E-04 5.15192E-35 1.87576E-04-2.44149E-18 8.77273E-21
 -1      3991 4.69150E-05-4.19532E-04 4.53587E-35 1.41755E-04 4.25813E-18 9.98696E-21
 -1      3992 3.60668E-05-3.77821E-04 2.11441E-34 1.45207E-04 6.42291E-18-2.51031E-22
 -1      3993 4.97107E-05-3.69099E-04 1.05015E-34 1.09368E-04 9.94241E-19 3.32755E-21
 -1      3994 4.39492E-05-3.35884E-04 8.09404E-35 1.13608E-04-3.00299E-18 8.88011E-21
 -1      3995 5.52315E-05-3.25780E-04 1.67325E-34 8.55211E-05 1.09522E-18-6.50405E-21
 -1      3996 5.36451E-05-2.99195E-04 1.27817E-34 8.99282E-05 5.76337E-19-1.93789E-20
 -1      3997 6.41542E-05-2.89036E-04 1.66397E-34 6.77890E-05 3.11595E-18-5.02248E-21
 -1      3998 6.61080E-05-2.67692E-04 5.33860E-35 7.20595E-05-3.53628E-18-5.70361E-22
 -1      3999 7.68873E-05-2.58222E-04 1.27053E-34 5.44624E-05-3.57871E-18 7.40073E-22
 -1      4000 8.19936E-05-2.41109E-04 1.17511E-34 5.84553E-05 1.11952E-18 1.05790E-20
 -1      4001 9.37997E-05-2.32766E-04 1.92521E-34 4.43226E-05-2.34142E-18-1.24347E-20
 -1      4002 1.01899E-04-2.19174E-04 6.64184E-35 4.79723E-05 2.00718E-19 1.84086E-20
 -1      4003 1.15380E-04-2.12266E-04 2.41924E-35 3.64827E-05-7.07016E-19 7.79549E-21
 -1      4004 1.26546E-04-2.01745E-04 1.02509E-34 3.97497E-05 1.00646E-19-3.80742E-20
 -1      4005 1.42389E-04-1.96582E-04 1.94606E-35 3.02751E-05-2.01622E-18 1.85083E-20
 -1      4006 1.56974E-04-1.88932E-04 1.10009E-34 3.31124E-05 4.89996E-18-1.79907E-20
 -1      4007 1.76052E-04-1.85949E-04 7.05558E-35 2.51657E-05-4.73322E-18-3.55663E-21
 -1      4008 1.94788E-04-1.81258E-04 2.57591E-35 2.74886E-05-1.27963E-18 1.16765E-20
 -1      4009 2.18374E-04-1.81185E-04 1.01956E-34 2.06765E-05 5.82920E-19 5.91657E-20
 -1      4010 2.42573E-04-1.79932E-04 1.48579E-34 2.23202E-05 2.97960E-18-2.25720E-20
 -1      4011 2.72678E-04-1.84075E-04 1.16657E-34 1.62921E-05-3.44084E-18 4.05695E-20
 -1      4012 3.04646E-04-1.87358E-04 4.31865E-35 1.69328E-05 1.65376E-18-2.68663E-20
 -1      4013 3.44690E-04-1.98170E-04 8.93698E-35 1.12988E-05 1.15969E-18-1.24645E-19
 -1      4014 3.88588E-04-2.08240E-04 5.97692E-35 1.02756E-05 2.19707E-18-5.96294E-20
 -1      4015 4.44011E-04-2.30233E-04 9.55928E-35 4.48936E-06 8.88697E-19 4.05212E-21
 -1      4016 5.06743E-04-2.52185E-04 7.23841E-35 3.50064E-07-7.03548E-18 1.10919E-19
 -1      4017-2.85055E-04 2.89194E-04 3.64666E-35-1.44800E-04 6.50866E-19 1.14149E-19
 -1      4018-1.47658E-03 3.27680E-04 3.19319E-35 4.49775E-04-3.70592E-19 2.59673E-19
 -1      4019-1.27830E-03 4.39904E-04 8.64573E-35 6.82193E-04-2.31301E-18-3.49503E-20
 -1      4020-1.26671E-03-2.77284E-04 1.11078E-34 1.56146E-03 3.15520E-18 1.19588E-20
 -1      4021-9.31986E-04-2.23751E-04 6.73854E-35 1.23177E-03 2.41033E-18 1.09056E-20
 -1      4022-4.41371E-04-9.80756E-04 2.29694E-35 1.43834E-03-9.10689E-19 3.19535E-20
 -1      4023-4.37987E-04-6.98686E-04 7.63036E-35 1.15358E-03-3.72565E-18 8.43681E-21
 -1      4024-3.80222E-05-1.15468E-03 4.39917E-35 1.03768E-03-1.27526E-18-7.37988E-21
 -1      4025-1.37544E-04-8.73425E-04 7.51443E-35 8.93087E-04 2.23484E-19-6.86242E-21
 -1      4026 1.03846E-04-1.09758E-03 8.31207E-35 7.05906E-04-3.86881E-18-1.96876E-20
 -1      4027 2.66099E-06-8.72411E-04 5.82103E-35 6.49706E-04 2.09347E-18-2.28772E-20
 -1      4028 1.35884E-04-9.68597E-04 1.83633E-34 4.80129E-04 6.16542E-18 2.97635E-20
 -1      4029 5.65304E-05-7.99754E-04 2.68583E-35 4.65830E-04-1.91301E-18 3.52924E-20
 -1      4030 1.28002E-04-8.32218E-04 5.78406E-35 3.32175E-04-3.29184E-18 7.35903E-21
 -1      4031 7.09059E-05-7.07354E-04 2.93680E-34 3.35451E-04 1.36069E-18 1.71219E-21
 -1      4032 1.09232E-04-7.09493E-04 3.13022E-35 2.34770E-04 1.52518E-18 1.54067E-20
 -1      4033 6.95578E-05-6.16500E-04 1.04692E-34 2.44434E-04 3.36168E-18 2.04157E-20
 -1      4034 9.05770E-05-6.05023E-04 1.22025E-34 1.69501E-04 8.13783E-19-1.75743E-20
 -1      4035 6.37051E-05-5.34778E-04 3.77980E-35 1.80707E-04 5.83903E-19-3.72958E-22
 -1      4036 7.59931E-05-5.17948E-04 5.10134E-35 1.24846E-04 2.82558E-18 9.07982E-21
 -1      4037 5.84454E-05-4.64044E-04 2.55796E-35 1.35634E-04-1.25069E-18-7.00845E-21
 -1      4038 6.66475E-05-4.45907E-04 3.65782E-35 9.36739E-05-2.98521E-18 6.17772E-21
 -1      4039 5.60045E-05-4.03928E-04 8.46654E-35 1.03356E-04-3.47213E-18-9.39321E-21
 -1      4040 6.26707E-05-3.86418E-04 1.03356E-34 7.15099E-05-8.56482E-19 3.90399E-21
 -1      4041 5.72949E-05-3.53314E-04 3.15870E-35 7.99441E-05-7.26043E-19 5.42829E-21
 -1      4042 6.38575E-05-3.37306E-04 9.92799E-35 5.54898E-05-1.09507E-18 1.12629E-20
 -1      4043 6.26630E-05-3.10948E-04 8.69353E-35 6.27506E-05-9.08428E-19-4.01760E-21
 -1      4044 6.99643E-05-2.96793E-04 7.65775E-35 4.37372E-05-4.19455E-18-3.84560E-21
 -1      4045 7.22565E-05-2.75684E-04 8.29102E-35 4.99692E-05-4.13427E-18 1.05902E-20
 -1      4046 8.08427E-05-2.63489E-04 7.66106E-35 3.49925E-05 1.39106E-18 1.65215E-20
 -1      4047 8.62220E-05-2.46577E-04 7.27994E-35 4.03472E-05 6.65141E-18 1.12941E-21
 -1      4048 9.65195E-05-2.36363E-04 6.87301E-35 2.83894E-05-4.16070E-19 6.62655E-21
 -1      4049 1.04832E-04-2.22928E-04 6.91390E-35 3.29968E-05-5.99864E-19-1.61824E-20
 -1      4050 1.17270E-04-2.14730E-04 1.31852E-34 2.33140E-05 4.35809E-19-1.60123E-20
 -1      4051 1.28603E-04-2.04321E-04 6.06060E-35 2.72708E-05-5.50644E-18 1.20290E-21
 -1      4052 1.43719E-04-1.98266E-04 2.98506E-35 1.93143E-05 3.93845E-19-1.92288E-20
 -1      4053 1.58438E-04-1.90690E-04 8.54646E-35 2.26745E-05-9.93498E-19-3.99327E-20
 -1      4054 1.77009E-04-1.87091E-04 9.47435E-35 1.60352E-05-5.09717E-18 3.60323E-21
 -1      4055 1.95861E-04-1.82443E-04 5.65419E-35 1.87984E-05-5.84923E-18 9.10289E-21
 -1      4056 2.19091E-04-1.81950E-04 7.77689E-35 1.31636E-05-9.24351E-19 7.73721E-21
 -1      4057 2.43408E-04-1.80718E-04 9.30458E-35 1.52504E-05-1.10655E-18 1.42462E-20
 -1      4058 2.73265E-04-1.84583E-04 9.46694E-36 1.03667E-05-7.21306E-19 1.96563E-20
 -1      4059 3.05380E-04-1.87881E-04 3.95970E-35 1.15636E-05 1.23948E-19-2.11851E-20
 -1      4060 3.45258E-04-1.98524E-04 1.56228E-34 7.18750E-06 5.34074E-18 4.49290E-20
 -1      4061 3.89386E-04-2.08629E-04 1.37021E-34 7.01646E-06 3.00390E-18 3.21372E-20
 -1      4062 4.44718E-04-2.30561E-04 1.63455E-34 2.85563E-06 1.05135E-18 1.25366E-20
 -1      4063 5.07879E-04-2.52649E-04 1.81723E-34 2.39565E-07-8.66934E-19 8.17730E-20
 -1      4064-6.65358E-04 2.56458E-04 5.26752E-35 4.13007E-04-8.78144E-19-1.26847E-19
 -1      4065-1.24360E-03-2.56627E-03 3.40620E-35 2.57300E-03-1.38555E-18-1.45959E-20
 -1      4066-1.19200E-03-5.91324E-04 7.30396E-35 2.21374E-03-1.75836E-18-2.24177E-20
 -1      4067 1.03520E-04-2.65772E-03 3.79303E-35 2.11534E-03 7.70914E-19 1.99094E-20
 -1      4068-2.52549E-04-1.58518E-03 5.06216E-35 1.73686E-03-1.84393E-18 1.73763E-20
 -1      4069 4.84268E-04-2.30322E-03 3.56684E-35 1.20843E-03-1.28228E-18-1.66823E-20
 -1      4070 1.42083E-04-1.61669E-03 7.85724E-35 1.12492E-03 3.55930E-20 3.38121E-20
 -1      4071 4.58587E-04-1.83380E-03 7.35406E-35 6.84283E-04-1.00306E-18 2.77676E-20
 -1      4072 2.35194E-04-1.40882E-03 7.93692E-35 7.12480E-04 2.36927E-19 4.05313E-21
 -1      4073 3.65773E-04-1.44905E-03 1.25243E-34 4.10353E-04 3.91343E-19 2.22255E-21
 -1      4074 2.24750E-04-1.17588E-03 1.22216E-34 4.61172E-04 1.05395E-18-1.25793E-20
 -1      4075 2.76787E-04-1.15677E-03 1.67715E-34 2.59743E-04-7.47146E-18-2.06697E-20
 -1      4076 1.87756E-04-9.74528E-04 9.69575E-35 3.08002E-04-2.90705E-18 3.13490E-20
 -1      4077 2.06894E-04-9.37378E-04 4.99513E-35 1.72176E-04 2.04583E-18-9.72282E-21
 -1      4078 1.49480E-04-8.10559E-04 8.82780E-35 2.12101E-04-2.67338E-18-8.37232E-21
 -1      4079 1.55084E-04-7.70624E-04 3.87390E-35 1.18489E-04-2.38918E-18 1.38895E-20
 -1      4080 1.17568E-04-6.79085E-04 9.82103E-35 1.50113E-04 3.02291E-19-7.73509E-21
 -1      4081 1.18154E-04-6.41811E-04 9.20032E-35 8.40850E-05 6.06642E-18 2.19862E-21
 -1      4082 9.36693E-05-5.73681E-04 7.07736E-35 1.08823E-04 4.42846E-18-2.58777E-21
 -1      4083 9.30647E-05-5.40743E-04 4.96632E-35 6.12215E-05-9.34681E-19 2.66861E-21
 -1      4084 7.75243E-05-4.88767E-04 2.14357E-35 8.05834E-05-1.70018E-18 6.68691E-21
 -1      4085 7.74781E-05-4.60383E-04 1.01218E-34 4.55707E-05-3.98981E-18-3.89431E-21
 -1      4086 6.83725E-05-4.19943E-04 9.67587E-35 6.08235E-05-2.10990E-18 6.19982E-21
 -1      4087 6.96842E-05-3.95802E-04 8.36848E-35 3.45930E-05-3.29987E-18-1.09831E-22
 -1      4088 6.54402E-05-3.63860E-04 3.49002E-35 4.67245E-05-3.40970E-18 4.12138E-21
 -1      4089 6.84783E-05-3.43492E-04 2.07516E-35 2.67347E-05 1.58363E-18 5.60481E-21
 -1      4090 6.81015E-05-3.17988E-04 2.17173E-34 3.64924E-05 1.56418E-18 3.12511E-21
 -1      4091 7.30535E-05-3.00927E-04 5.23417E-35 2.10100E-05 2.33386E-18-4.98754E-22
 -1      4092 7.59318E-05-2.80435E-04 3.16710E-35 2.89523E-05-1.95952E-18-2.24162E-21
 -1      4093 8.29341E-05-2.66282E-04 1.29991E-34 1.67727E-05 2.67978E-18 2.02354E-21
 -1      4094 8.87326E-05-2.49809E-04 1.29716E-34 2.33133E-05-2.06439E-19-5.18620E-23
 -1      4095 9.79515E-05-2.38264E-04 5.68972E-35 1.35856E-05 1.16489E-18-1.30599E-21
 -1      4096 1.06565E-04-2.25137E-04 1.19729E-34 1.90273E-05-1.71841E-18-4.68213E-21
 -1      4097 1.18261E-04-2.16028E-04 1.95322E-34 1.11435E-05-3.34563E-18 1.15986E-21
 -1      4098 1.29813E-04-2.05832E-04 5.34550E-35 1.57018E-05-1.81043E-19-3.47985E-21
 -1      4099 1.44415E-04-1.99151E-04 5.24538E-35 9.22360E-06-2.53398E-18 4.83105E-21
 -1      4100 1.59297E-04-1.91718E-04 4.02068E-35 1.30410E-05 4.04990E-18 1.33371E-20
 -1      4101 1.77509E-04-1.87690E-04 9.60547E-35 7.65276E-06 3.61854E-18-4.88687E-21
 -1      4102 1.96488E-04-1.83135E-04 1.28165E-34 1.08033E-05-2.00047E-18 3.42486E-21
 -1      4103 2.19465E-04-1.82350E-04 2.17089E-34 6.27956E-06 7.24263E-18-9.01069E-22
 -1      4104 2.43895E-04-1.81176E-04 1.98436E-34 8.75974E-06 3.86766E-18 9.08378E-21
 -1      4105 2.73571E-04-1.84848E-04 6.22868E-35 4.94395E-06-3.83767E-18 5.89348E-21
 -1      4106 3.05807E-04-1.88184E-04 2.86258E-35 6.64012E-06-1.59326E-18 1.09907E-20
 -1      4107 3.45554E-04-1.98709E-04 2.54320E-34 3.42727E-06 2.46749E-18-1.91441E-20
 -1      4108 3.89850E-04-2.08856E-04 1.05612E-34 4.02881E-06 1.10570E-19 2.82284E-21
 -1      4109 4.45085E-04-2.30732E-04 1.35100E-34 1.36166E-06-1.36224E-18-2.34696E-20
 -1      4110 5.08540E-04-2.52918E-04 1.71207E-34 1.37780E-07-2.82940E-18-4.48627E-22
 -1      4111-4.07376E-03-4.23349E-03 1.71542E-35 5.21662E-04-2.55965E-18-2.89653E-20
 -1      4112-4.80001E-04-5.13825E-03 3.16195E-35 1.52436E-04-2.17130E-18-9.66464E-21
 -1      4113 3.94188E-04-4.69140E-03 4.63308E-35 1.65135E-03 9.71137E-19-6.45640E-21
 -1      4114 1.33703E-03-4.37225E-03 2.54128E-34 5.78678E-05 1.85183E-18-5.24422E-21
 -1      4115 8.11789E-04-3.27658E-03 9.33042E-36 9.07210E-04-2.60803E-18-4.11810E-21
 -1      4116 9.78856E-04-2.97219E-03 8.95803E-36 1.08022E-05-1.64278E-18 3.12017E-21
 -1      4117 6.61996E-04-2.34324E-03 4.81566E-35 4.76341E-04 3.56157E-19 1.63285E-20
 -1      4118 6.71850E-04-2.11484E-03 5.05660E-35 2.68628E-06-1.82872E-18-6.91268E-21
 -1      4119 4.87715E-04-1.74287E-03 1.76858E-35 2.70045E-04 7.60745E-19-1.24722E-21
 -1      4120 4.61469E-04-1.57573E-03 3.98949E-35 1.18334E-07-3.60999E-18-2.11947E-21
 -1      4121 3.53802E-04-1.34330E-03 1.04777E-34 1.64602E-04-1.07269E-18-8.17465E-21
 -1      4122 3.24433E-04-1.21990E-03 6.31247E-35-2.40861E-07 4.81379E-18 3.87805E-21
 -1      4123 2.57274E-04-1.06391E-03 4.54214E-35 1.06155E-04 1.04779E-18 4.67557E-21
 -1      4124 2.32219E-04-9.71098E-04 1.61040E-34-2.46705E-07-7.77950E-18 4.93692E-22
 -1      4125 1.88766E-04-8.60892E-04 5.95855E-35 7.15592E-05-3.44358E-18 3.56736E-22
 -1      4126 1.69372E-04-7.89695E-04 6.33778E-35-1.92247E-07 3.02584E-18 5.70437E-22
 -1      4127 1.40684E-04-7.08670E-04 8.21241E-35 4.99609E-05-5.10515E-18-9.49011E-22
 -1      4128 1.26575E-04-6.53081E-04 2.26219E-35-1.40077E-07-4.47453E-18-2.25695E-21
 -1      4129 1.07737E-04-5.91690E-04 1.64815E-34 3.58945E-05-1.35943E-18 2.56995E-21
 -1      4130 9.82111E-05-5.47643E-04 8.78690E-35-1.00697E-07-1.37644E-18 3.76264E-22
 -1      4131 8.63275E-05-5.00046E-04 9.06600E-35 2.64171E-05 3.65095E-18 1.66489E-22
 -1      4132 8.07136E-05-4.64729E-04 9.30756E-35-7.24448E-08 3.16044E-18-5.52014E-22
 -1      4133 7.40099E-05-4.27175E-04 7.34997E-35 1.98539E-05 1.35515E-18-7.39662E-23
 -1      4134 7.17663E-05-3.98602E-04 7.12890E-35-5.25222E-08 5.41240E-18-2.59203E-22
 -1      4135 6.91203E-05-3.68587E-04 4.51563E-35 1.52050E-05 3.76758E-18-2.47052E-21
 -1      4136 6.98439E-05-3.45331E-04 1.30100E-34-3.84417E-08-7.23942E-18-5.75376E-22
 -1      4137 7.05431E-05-3.21126E-04 1.41922E-34 1.18488E-05 7.35942E-18-1.06158E-21
 -1      4138 7.39634E-05-3.02152E-04 1.40849E-34-2.84235E-08 9.25122E-19 4.44118E-22
 -1      4139 7.75739E-05-2.82544E-04 8.20715E-35 9.38519E-06-2.14635E-18-2.41902E-21
 -1      4140 8.35487E-05-2.67107E-04 1.34434E-34-2.12289E-08-3.32590E-18-8.51949E-22
 -1      4141 8.98503E-05-2.51240E-04 5.30363E-35 7.54807E-06 3.85295E-18-2.45817E-21
 -1      4142 9.83715E-05-2.38825E-04 1.30430E-34-1.60124E-08 3.56290E-19-1.33859E-21
 -1      4143 1.07334E-04-2.26113E-04 1.27283E-34 6.15487E-06-2.50909E-18-5.72961E-22
 -1      4144 1.18552E-04-2.16410E-04 5.97303E-35-1.21913E-08 3.79894E-18-1.75590E-21
 -1      4145 1.30349E-04-2.06499E-04 3.64659E-35 5.07576E-06-1.31795E-18 3.01194E-22
 -1      4146 1.44619E-04-1.99411E-04 1.72920E-34-9.36408E-09 4.02841E-18-9.38213E-22
 -1      4147 1.59677E-04-1.92171E-04 4.54081E-35 4.21361E-06-3.73763E-18-1.68275E-22
 -1      4148 1.77655E-04-1.87867E-04 3.95994E-35-7.21668E-09-7.63345E-18 1.25552E-21
 -1      4149 1.96765E-04-1.83440E-04 5.61504E-35 3.48940E-06 1.43461E-18 3.44253E-21
 -1      4150 2.19574E-04-1.82468E-04 1.72632E-34-5.56594E-09-6.54909E-18-1.67953E-21
 -1      4151 2.44110E-04-1.81378E-04 1.34960E-34 2.82870E-06-4.17268E-18 7.35611E-21
 -1      4152 2.73660E-04-1.84926E-04 3.47409E-35-3.91030E-09 7.66006E-19-6.47029E-21
 -1      4153 3.05996E-04-1.88318E-04 1.20596E-35 2.14396E-06 1.53538E-18-3.33408E-21
 -1      4154 3.45640E-04-1.98763E-04 1.52159E-34-2.61956E-09 6.20864E-18 6.60107E-21
 -1      4155 3.90054E-04-2.08955E-04 1.57056E-34 1.30080E-06 2.00862E-18-2.06573E-21
 -1      4156 4.45192E-04-2.30782E-04 2.30347E-35 2.55351E-09-8.16565E-20-3.51272E-21
 -1      4157 5.08831E-04-2.53036E-04 2.37477E-34 4.45344E-08-3.43617E-19-9.88780E-23
 -3
    1PSTEP                         4           1           1          
  100CL  101 1.000000000        4156                     0    1           1
 -4  CONTACT     6    1
 -5  COPEN       1    4    1    1
 -5  CSLIP1      1    4    2    2
 -5  CSLIP2      1    4    3    3
 -5  CPRESS      1    4    1    2
 -5  CSHEAR1     1    4    2    3
 -5  CSHEAR2     1    4    3    1
 -1         1 0.00000E+00 0.00000E+00 0.00000E+00 0.00000E+00 0.00000E+00 0.00000E+00
 -1         2 0.00000E+00 0.00000E+00 0.00000E+00 0.00000E+00 0.00000E+00 0.00000E+00
 -1         3 0.00000E+00 0.00000E+00 0.00000E+00 0.00000E+00 0.00000E+00 0.00000E+00
 -1         4 0.00000E+00 0.00000E+00 0.00000E+00 0.00000E+00 0.00000E+00 0.00000E+00
 -1         5-1.63831E-04 0.00000E+00 0.00000E+00 1.63831E+03 0.00000E+00 0.00000E+00
 -1         6 0.00000E+00 0.00000E+00 0.00000E+00 0.00000E+00 0.00000E+00 0.00000E+00
 -1         7 0.00000E+00 0.00000E+00 0.00000E+00 0.00000E+00 0.00000E+00 0.00000E+00
 -1         9 0.00000E+00 0.00000E+00 0.00000E+00 0.00000E+00 0.00000E+00 0.00000E+00
 -1        10 0.00000E+00 0.00000E+00 0.00000E+00 0.00000E+00 0.00000E+00 0.00000E+00
 -1        11 0.00000E+00 0.00000E+00 0.00000E+00 0.00000E+00 0.00000E+00 0.00000E+00
 -1        12 0.00000E+00 0.00000E+00 0.00000E+00 0.00000E+00 0.00000E+00 0.00000E+00
 -1        13 0.00000E+00 0.00000E+00 0.00000E+00 0.00000E+00 0.00000E+00 0.00000E+00
 -1        14 0.00000E+00 0.00000E+00 0.00000E+00 0.00000E+00 0.00000E+00 0.00000E+00
 -1        15 0.00000E+00 0.00000E+00 0.00000E+00 0.00000E+00 0.00000E+00 0.00000E+00
 -1        16 0.00000E+00 0.00000E+00 0.00000E+00 0.00000E+00 0.00000E+00 0.00000E+00
 -1        17 0.00000E+00 0.00000E+00 0.00000E+00 0.00000E+00 0.00000E+00 0.00000E+00
 -1        18 0.00000E+00 0.00000E+00 0.00000E+00 0.00000E+00 0.00000E+00 0.00000E+00
 -1        19 0.00000E+00 0.00000E+00 0.00000E+00 0.00000E+00 0.00000E+00 0.00000E+00
 -1        20 0.00000E+00 0.00000E+00 0.00000E+00 0.00000E+00 0.00000E+00 0.00000E+00
 -1        21 0.00000E+00 0.00000E+00 0.00000E+00 0.00000E+00 0.00000E+00 0.00000E+00
 -1        22 0.00000E+00 0.00000E+00 0.00000E+00 0.00000E+00 0.00000E+00 0.00000E+00
 -1        23 0.00000E+00 0.00000E+00 0.00000E+00 0.00000E+00 0.00000E+00 0.00000E+00
 -1        24 0.00000E+00 0.00000E+00 0.00000E+00 0.00000E+00 0.00000E+00 0.00000E+00
 -1        25 0.00000E+00 0.00000E+00 0.00000E+00 0.00000E+00 0.00000E+00 0.00000E+00
 -1        26 0.00000E+00 0.00000E+00 0.00000E+00 0.00000E+00 0.00000E+00 0.00000E+00
 -1        27 0.00000E+00 0.00000E+00 0.00000E+00 0.00000E+00 0.00000E+00 0.00000E+00
 -1        28 0.00000E+00 0.00000E+00 0.00000E+00 0.00000E+00 0.00000E+00 0.00000E+00
 -1        29 0.00000E+00 0.00000E+00 0.00000E+00 0.00000E+00 0.00000E+00 0.00000E+00
 -1        30 0.00000E+00 0.00000E+00 0.00000E+00 0.00000E+00 0.00000E+00 0.00000E+00
 -1        31 0.00000E+00 0.00000E+00 0.00000E+00 0.00000E+00 0.00000E+00 0.00000E+00
 -1        32 0.00000E+00 0.00000E+00 0.00000E+00 0.00000E+00 0.00000E+00 0.00000E+00
 -1        33 0.00000E+00 0.00000E+00 0.00000E+00 0.00000E+00 0.00000E+00 0.00000E+00
 -1        34 0.00000E+00 0.00000E+00 0.00000E+00 0.00000E+00 0.00000E+00 0.00000E+00
 -1        35 0.00000E+00 0.00000E+00 0.00000E+00 0.00000E+00 0.00000E+00 0.00000E+00
 -1        36 0.00000E+00 0.00000E+00 0.00000E+00 0.00000E+00 0.00000E+00 0.00000E+00
 -1        37 0.00000E+00 0.00000E+00 0.00000E+00 0.00000E+00 0.00000E+00 0.00000E+00
 -1        38 0.00000E+00 0.00000E+00 0.00000E+00 0.00000E+00 0.00000E+00 0.00000E+00
 -1        39 0.00000E+00 0.00000E+00 0.00000E+00 0.00000E+00 0.00000E+00 0.00000E+00
 -1        40 0.00000E+00 0.00000E+00 0.00000E+00 0.00000E+00 0.00000E+00 0.00000E+00
 -1        41 0.00000E+00 0.00000E+00 0.00000E+00 0.00000E+00 0.00000E+00 0.00000E+00
 -1        42 0.00000E+00 0.00000E+00 0.00000E+00 0.00000E+00 0.00000E+00 0.00000E+00
 -1        43 0.00000E+00 0.00000E+00 0.00000E+00 0.00000E+00 0.00000E+00 0.00000E+00
 -1        44 0.00000E+00 0.00000E+00 0.00000E+00 0.00000E+00 0.00000E+00 0.00000E+00
 -1        45 0.00000E+00 0.00000E+00 0.00000E+00 0.00000E+00 0.00000E+00 0.00000E+00
 -1        46 0.00000E+00 0.00000E+00 0.00000E+00 0.00000E+00 0.00000E+00 0.00000E+00
 -1        47 0.00000E+00 0.00000E+00 0.00000E+00 0.00000E+00 0.00000E+00 0.00000E+00
 -1        48 0.00000E+00 0.00000E+00 0.00000E+00 0.00000E+00 0.00000E+00 0.00000E+00
 -1        49 0.00000E+00 0.00000E+00 0.00000E+00 0.00000E+00 0.00000E+00 0.00000E+00
 -1        50 0.00000E+00 0.00000E+00 0.00000E+00 0.00000E+00 0.00000E+00 0.00000E+00
 -1        51 0.00000E+00 0.00000E+00 0.00000E+00 0.00000E+00 0.00000E+00 0.00000E+00
 -1        52 0.00000E+00 0.00000E+00 0.00000E+00 0.00000E+00 0.00000E+00 0.00000E+00
 -1        53 0.00000E+00 0.00000E+00 0.00000E+00 0.00000E+00 0.00000E+00 0.00000E+00
 -1        54 0.00000E+00 0.00000E+00 0.00000E+00 0.00000E+00 0.00000E+00 0.00000E+00
 -1        55 0.00000E+00 0.00000E+00 0.00000E+00 0.00000E+00 0.00000E+00 0.00000E+00
 -1        56 0.00000E+00 0.00000E+00 0.00000E+00 0.00000E+00 0.00000E+00 0.00000E+00
 -1        57 0.00000E+00 0.00000E+00 0.00000E+00 0.00000E+00 0.00000E+00 0.00000E+00
 -1        58 0.00000E+00 0.00000E+00 0.00000E+00 0.00000E+00 0.00000E+00 0.00000E+00
 -1        59 0.00000E+00 0.00000E+00 0.00000E+00 0.00000E+00 0.00000E+00 0.00000E+00
 -1        60 0.00000E+00 0.00000E+00 0.00000E+00 0.00000E+00 0.00000E+00 0.00000E+00
 -1        61 0.00000E+00 0.00000E+00 0.00000E+00 0.00000E+00 0.00000E+00 0.00000E+00
 -1        62 0.00000E+00 0.00000E+00 0.00000E+00 0.00000E+00 0.00000E+00 0.00000E+00
 -1        63 0.00000E+00 0.00000E+00 0.00000E+00 0.00000E+00 0.00000E+00 0.00000E+00
 -1        64 0.00000E+00 0.00000E+00 0.00000E+00 0.00000E+00 0.00000E+00 0.00000E+00
 -1        65 0.00000E+00 0.00000E+00 0.00000E+00 0.00000E+00 0.00000E+00 0.00000E+00
 -1        66 0.00000E+00 0.00000E+00 0.00000E+00 0.00000E+00 0.00000E+00 0.00000E+00
 -1        67 0.00000E+00 0.00000E+00 0.00000E+00 0.00000E+00 0.00000E+00 0.00000E+00
 -1        68 0.00000E+00 0.00000E+00 0.00000E+00 0.00000E+00 0.00000E+00 0.00000E+00
 -1        69 0.00000E+00 0.00000E+00 0.00000E+00 0.00000E+00 0.00000E+00 0.00000E+00
 -1        70 0.00000E+00 0.00000E+00 0.00000E+00 0.00000E+00 0.00000E+00 0.00000E+00
 -1        71 0.00000E+00 0.00000E+00 0.00000E+00 0.00000E+00 0.00000E+00 0.00000E+00
 -1        72 0.00000E+00 0.00000E+00 0.00000E+00 0.00000E+00 0.00000E+00 0.00000E+00
 -1        73 0.00000E+00 0.00000E+00 0.00000E+00 0.00000E+00 0.00000E+00 0.00000E+00
 -1        74 0.00000E+00 0.00000E+00 0.00000E+00 0.00000E+00 0.00000E+00 0.00000E+00
 -1        75 0.00000E+00 0.00000E+00 0.00000E+00 0.00000E+00 0.00000E+00 0.00000E+00
 -1        76 0.00000E+00 0.00000E+00 0.00000E+00 0.00000E+00 0.00000E+00 0.00000E+00
 -1        77 0.00000E+00 0.00000E+00 0.00000E+00 0.00000E+00 0.00000E+00 0.00000E+00
 -1        78 0.00000E+00 0.00000E+00 0.00000E+00 0.00000E+00 0.00000E+00 0.00000E+00
 -1        79 0.00000E+00 0.00000E+00 0.00000E+00 0.00000E+00 0.00000E+00 0.00000E+00
 -1        80 0.00000E+00 0.00000E+00 0.00000E+00 0.00000E+00 0.00000E+00 0.00000E+00
 -1        81 0.00000E+00 0.00000E+00 0.00000E+00 0.00000E+00 0.00000E+00 0.00000E+00
 -1        82 0.00000E+00 0.00000E+00 0.00000E+00 0.00000E+00 0.00000E+00 0.00000E+00
 -1        83 0.00000E+00 0.00000E+00 0.00000E+00 0.00000E+00 0.00000E+00 0.00000E+00
 -1        84 0.00000E+00 0.00000E+00 0.00000E+00 0.00000E+00 0.00000E+00 0.00000E+00
 -1        85 0.00000E+00 0.00000E+00 0.00000E+00 0.00000E+00 0.00000E+00 0.00000E+00
 -1        86 0.00000E+00 0.00000E+00 0.00000E+00 0.00000E+00 0.00000E+00 0.00000E+00
 -1        87 0.00000E+00 0.00000E+00 0.00000E+00 0.00000E+00 0.00000E+00 0.00000E+00
 -1        88 0.00000E+00 0.00000E+00 0.00000E+00 0.00000E+00 0.00000E+00 0.00000E+00
 -1        89 0.00000E+00 0.00000E+00 0.00000E+00 0.00000E+00 0.00000E+00 0.00000E+00
 -1        90 0.00000E+00 0.00000E+00 0.00000E+00 0.00000E+00 0.00000E+00 0.00000E+00
 -1        91 0.00000E+00 0.00000E+00 0.00000E+00 0.00000E+00 0.00000E+00 0.00000E+00
 -1        92 0.00000E+00 0.00000E+00 0.00000E+00 0.00000E+00 0.00000E+00 0.00000E+00
 -1        93 0.00000E+00 0.00000E+00 0.00000E+00 0.00000E+00 0.00000E+00 0.00000E+00
 -1        94 0.00000E+00 0.00000E+00 0.00000E+00 0.00000E+00 0.00000E+00 0.00000E+00
 -1        95 0.00000E+00 0.00000E+00 0.00000E+00 0.00000E+00 0.00000E+00 0.00000E+00
 -1        96 0.00000E+00 0.00000E+00 0.00000E+00 0.00000E+00 0.00000E+00 0.00000E+00
 -1        97 0.00000E+00 0.00000E+00 0.00000E+00 0.00000E+00 0.00000E+00 0.00000E+00
 -1        98 0.00000E+00 0.00000E+00 0.00000E+00 0.00000E+00 0.00000E+00 0.00000E+00
 -1        99 0.00000E+00 0.00000E+00 0.00000E+00 0.00000E+00 0.00000E+00 0.00000E+00
 -1       100 0.00000E+00 0.00000E+00 0.00000E+00 0.00000E+00 0.00000E+00 0.00000E+00
 -1       101 0.00000E+00 0.00000E+00 0.00000E+00 0.00000E+00 0.00000E+00 0.00000E+00
 -1       102 0.00000E+00 0.00000E+00 0.00000E+00 0.00000E+00 0.00000E+00 0.00000E+00
 -1       103 0.00000E+00 0.00000E+00 0.00000E+00 0.00000E+00 0.00000E+00 0.00000E+00
 -1       104 0.00000E+00 0.00000E+00 0.00000E+00 0.00000E+00 0.00000E+00 0.00000E+00
 -1       105 0.00000E+00 0.00000E+00 0.00000E+00 0.00000E+00 0.00000E+00 0.00000E+00
 -1       106 0.00000E+00 0.00000E+00 0.00000E+00 0.00000E+00 0.00000E+00 0.00000E+00
 -1       107 0.00000E+00 0.00000E+00 0.00000E+00 0.00000E+00 0.00000E+00 0.00000E+00
 -1       108 0.00000E+00 0.00000E+00 0.00000E+00 0.00000E+00 0.00000E+00 0.00000E+00
 -1       109 0.00000E+00 0.00000E+00 0.00000E+00 0.00000E+00 0.00000E+00 0.00000E+00
 -1       110 0.00000E+00 0.00000E+00 0.00000E+00 0.00000E+00 0.00000E+00 0.00000E+00
 -1       111-1.50502E-04 0.00000E+00 0.00000E+00 1.50502E+03 0.00000E+00 0.00000E+00
 -1       112-9.58182E-05 0.00000E+00 0.00000E+00 9.58182E+02 0.00000E+00 0.00000E+00
 -1       113-6.23677E-06 0.00000E+00 0.00000E+00 6.23677E+01 0.00000E+00 0.00000E+00
 -1       114 0.00000E+00 0.00000E+00 0.00000E+00 0.00000E+00 0.00000E+00 0.00000E+00
 -1       115 0.00000E+00 0.00000E+00 0.00000E+00 0.00000E+00 0.00000E+00 0.00000E+00
 -1       116 0.00000E+00 0.00000E+00 0.00000E+00 0.00000E+00 0.00000E+00 0.00000E+00
 -1       117 0.00000E+00 0.00000E+00 0.00000E+00 0.00000E+00 0.00000E+00 0.00000E+00
 -1       118 0.00000E+00 0.00000E+00 0.00000E+00 0.00000E+00 0.00000E+00 0.00000E+00
 -1       119 0.00000E+00 0.00000E+00 0.00000E+00 0.00000E+00 0.00000E+00 0.00000E+00
 -1       120 0.00000E+00 0.00000E+00 0.00000E+00 0.00000E+00 0.00000E+00 0.00000E+00
 -1       121 0.00000E+00 0.00000E+00 0.00000E+00 0.00000E+00 0.00000E+00 0.00000E+00
 -1       122 0.00000E+00 0.00000E+00 0.00000E+00 0.00000E+00 0.00000E+00 0.00000E+00
 -1       123 0.00000E+00 0.00000E+00 0.00000E+00 0.00000E+00 0.00000E+00 0.00000E+00
 -1       124 0.00000E+00 0.00000E+00 0.00000E+00 0.00000E+00 0.00000E+00 0.00000E+00
 -1       125 0.00000E+00 0.00000E+00 0.00000E+00 0.00000E+00 0.00000E+00 0.00000E+00
 -1       126 0.00000E+00 0.00000E+00 0.00000E+00 0.00000E+00 0.00000E+00 0.00000E+00
 -1       127 0.00000E+00 0.00000E+00 0.00000E+00 0.00000E+00 0.00000E+00 0.00000E+00
 -1       128 0.00000E+00 0.00000E+00 0.00000E+00 0.00000E+00 0.00000E+00 0.00000E+00
 -1       129 0.00000E+00 0.00000E+00 0.00000E+00 0.00000E+00 0.00000E+00 0.00000E+00
 -1       130 0.00000E+00 0.00000E+00 0.00000E+00 0.00000E+00 0.00000E+00 0.00000E+00
 -1       131 0.00000E+00 0.00000E+00 0.00000E+00 0.00000E+00 0.00000E+00 0.00000E+00
 -1       132 0.00000E+00 0.00000E+00 0.00000E+00 0.00000E+00 0.00000E+00 0.00000E+00
 -1       133 0.00000E+00 0.00000E+00 0.00000E+00 0.00000E+00 0.00000E+00 0.00000E+00
 -1       134 0.00000E+00 0.00000E+00 0.00000E+00 0.00000E+00 0.00000E+00 0.00000E+00
 -1       135 0.00000E+00 0.00000E+00 0.00000E+00 0.00000E+00 0.00000E+00 0.00000E+00
 -1       136 0.00000E+00 0.00000E+00 0.00000E+00 0.00000E+00 0.00000E+00 0.00000E+00
 -1       137 0.00000E+00 0.00000E+00 0.00000E+00 0.00000E+00 0.00000E+00 0.00000E+00
 -1       138 0.00000E+00 0.00000E+00 0.00000E+00 0.00000E+00 0.00000E+00 0.00000E+00
 -1       139 0.00000E+00 0.00000E+00 0.00000E+00 0.00000E+00 0.00000E+00 0.00000E+00
 -1       140 0.00000E+00 0.00000E+00 0.00000E+00 0.00000E+00 0.00000E+00 0.00000E+00
 -1       141 0.00000E+00 0.00000E+00 0.00000E+00 0.00000E+00 0.00000E+00 0.00000E+00
 -1       142 0.00000E+00 0.00000E+00 0.00000E+00 0.00000E+00 0.00000E+00 0.00000E+00
 -1       143 0.00000E+00 0.00000E+00 0.00000E+00 0.00000E+00 0.00000E+00 0.00000E+00
 -1       144 0.00000E+00 0.00000E+00 0.00000E+00 0.00000E+00 0.00000E+00 0.00000E+00
 -1       145 0.00000E+00 0.00000E+00 0.00000E+00 0.00000E+00 0.00000E+00 0.00000E+00
 -1       146 0.00000E+00 0.00000E+00 0.00000E+00 0.00000E+00 0.00000E+00 0.00000E+00
 -1       147 0.00000E+00 0.00000E+00 0.00000E+00 0.00000E+00 0.00000E+00 0.00000E+00
 -1       148 0.00000E+00 0.00000E+00 0.00000E+00 0.00000E+00 0.00000E+00 0.00000E+00
 -1       149 0.00000E+00 0.00000E+00 0.00000E+00 0.00000E+00 0.00000E+00 0.00000E+00
 -1       150 0.00000E+00 0.00000E+00 0.00000E+00 0.00000E+00 0.00000E+00 0.00000E+00
 -1       151 0.00000E+00 0.00000E+00 0.00000E+00 0.00000E+00 0.00000E+00 0.00000E+00
 -1       152 0.00000E+00 0.00000E+00 0.00000E+00 0.00000E+00 0.00000E+00 0.00000E+00
 -1       153 0.00000E+00 0.00000E+00 0.00000E+00 0.00000E+00 0.00000E+00 0.00000E+00
 -1       154 0.00000E+00 0.00000E+00 0.00000E+00 0.00000E+00 0.00000E+00 0.00000E+00
 -1       155 0.00000E+00 0.00000E+00 0.00000E+00 0.00000E+00 0.00000E+00 0.00000E+00
 -1       156 0.00000E+00 0.00000E+00 0.00000E+00 0.00000E+00 0.00000E+00 0.00000E+00
 -1       157 0.00000E+00 0.00000E+00 0.00000E+00 0.00000E+00 0.00000E+00 0.00000E+00
 -1       158 0.00000E+00 0.00000E+00 0.00000E+00 0.00000E+00 0.00000E+00 0.00000E+00
 -1       159 0.00000E+00 0.00000E+00 0.00000E+00 0.00000E+00 0.00000E+00 0.00000E+00
 -1       160 0.00000E+00 0.00000E+00 0.00000E+00 0.00000E+00 0.00000E+00 0.00000E+00
 -1       161 0.00000E+00 0.00000E+00 0.00000E+00 0.00000E+00 0.00000E+00 0.00000E+00
 -1       162 0.00000E+00 0.00000E+00 0.00000E+00 0.00000E+00 0.00000E+00 0.00000E+00
 -1       163 0.00000E+00 0.00000E+00 0.00000E+00 0.00000E+00 0.00000E+00 0.00000E+00
 -1       164 0.00000E+00 0.00000E+00 0.00000E+00 0.00000E+00 0.00000E+00 0.00000E+00
 -1       165 0.00000E+00 0.00000E+00 0.00000E+00 0.00000E+00 0.00000E+00 0.00000E+00
 -1       166 0.00000E+00 0.00000E+00 0.00000E+00 0.00000E+00 0.00000E+00 0.00000E+00
 -1       167 0.00000E+00 0.00000E+00 0.00000E+00 0.00000E+00 0.00000E+00 0.00000E+00
 -1       168 0.00000E+00 0.00000E+00 0.00000E+00 0.00000E+00 0.00000E+00 0.00000E+00
 -1       169 0.00000E+00 0.00000E+00 0.00000E+00 0.00000E+00 0.00000E+00 0.00000E+00
 -1       170 0.00000E+00 0.00000E+00 0.00000E+00 0.00000E+00 0.00000E+00 0.00000E+00
 -1       171 0.00000E+00 0.00000E+00 0.00000E+00 0.00000E+00 0.00000E+00 0.00000E+00
 -1       172 0.00000E+00 0.00000E+00 0.00000E+00 0.00000E+00 0.00000E+00 0.00000E+00
 -1       173 0.00000E+00 0.00000E+00 0.00000E+00 0.00000E+00 0.00000E+00 0.00000E+00
 -1       174 0.00000E+00 0.00000E+00 0.00000E+00 0.00000E+00 0.00000E+00 0.00000E+00
 -1       175 0.00000E+00 0.00000E+00 0.00000E+00 0.00000E+00 0.00000E+00 0.00000E+00
 -1       176 0.00000E+00 0.00000E+00 0.00000E+00 0.00000E+00 0.00000E+00 0.00000E+00
 -1       177 0.00000E+00 0.00000E+00 0.00000E+00 0.00000E+00 0.00000E+00 0.00000E+00
 -1       178 0.00000E+00 0.00000E+00 0.00000E+00 0.00000E+00 0.00000E+00 0.00000E+00
 -1       179 0.00000E+00 0.00000E+00 0.00000E+00 0.00000E+00 0.00000E+00 0.00000E+00
 -1       180 0.00000E+00 0.00000E+00 0.00000E+00 0.00000E+00 0.00000E+00 0.00000E+00
 -1       181 0.00000E+00 0.00000E+00 0.00000E+00 0.00000E+00 0.00000E+00 0.00000E+00
 -1       182 0.00000E+00 0.00000E+00 0.00000E+00 0.00000E+00 0.00000E+00 0.00000E+00
 -1       183 0.00000E+00 0.00000E+00 0.00000E+00 0.00000E+00 0.00000E+00 0.00000E+00
 -1       184 0.00000E+00 0.00000E+00 0.00000E+00 0.00000E+00 0.00000E+00 0.00000E+00
 -1       185 0.00000E+00 0.00000E+00 0.00000E+00 0.00000E+00 0.00000E+00 0.00000E+00
 -1       186 0.00000E+00 0.00000E+00 0.00000E+00 0.00000E+00 0.00000E+00 0.00000E+00
 -1       187 0.00000E+00 0.00000E+00 0.00000E+00 0.00000E+00 0.00000E+00 0.00000E+00
 -1       188 0.00000E+00 0.00000E+00 0.00000E+00 0.00000E+00 0.00000E+00 0.00000E+00
 -1       189 0.00000E+00 0.00000E+00 0.00000E+00 0.00000E+00 0.00000E+00 0.00000E+00
 -1       190 0.00000E+00 0.00000E+00 0.00000E+00 0.00000E+00 0.00000E+00 0.00000E+00
 -1       191 0.00000E+00 0.00000E+00 0.00000E+00 0.00000E+00 0.00000E+00 0.00000E+00
 -1       192 0.00000E+00 0.00000E+00 0.00000E+00 0.00000E+00 0.00000E+00 0.00000E+00
 -1       193 0.00000E+00 0.00000E+00 0.00000E+00 0.00000E+00 0.00000E+00 0.00000E+00
 -1       194 0.00000E+00 0.00000E+00 0.00000E+00 0.00000E+00 0.00000E+00 0.00000E+00
 -1       195 0.00000E+00 0.00000E+00 0.00000E+00 0.00000E+00 0.00000E+00 0.00000E+00
 -1       196 0.00000E+00 0.00000E+00 0.00000E+00 0.00000E+00 0.00000E+00 0.00000E+00
 -1       197 0.00000E+00 0.00000E+00 0.00000E+00 0.00000E+00 0.00000E+00 0.00000E+00
 -1       198 0.00000E+00 0.00000E+00 0.00000E+00 0.00000E+00 0.00000E+00 0.00000E+00
 -1       199 0.00000E+00 0.00000E+00 0.00000E+00 0.00000E+00 0.00000E+00 0.00000E+00
 -1       200 0.00000E+00 0.00000E+00 0.00000E+00 0.00000E+00 0.00000E+00 0.00000E+00
 -1       201 0.00000E+00 0.00000E+00 0.00000E+00 0.00000E+00 0.00000E+00 0.00000E+00
 -1       202 0.00000E+00 0.00000E+00 0.00000E+00 0.00000E+00 0.00000E+00 0.00000E+00
 -1       203 0.00000E+00 0.00000E+00 0.00000E+00 0.00000E+00 0.00000E+00 0.00000E+00
 -1       204 0.00000E+00 0.00000E+00 0.00000E+00 0.00000E+00 0.00000E+00 0.00000E+00
 -1       205 0.00000E+00 0.00000E+00 0.00000E+00 0.00000E+00 0.00000E+00 0.00000E+00
 -1       206 0.00000E+00 0.00000E+00 0.00000E+00 0.00000E+00 0.00000E+00 0.00000E+00
 -1       207 0.00000E+00 0.00000E+00 0.00000E+00 0.00000E+00 0.00000E+00 0.00000E+00
 -1       208 0.00000E+00 0.00000E+00 0.00000E+00 0.00000E+00 0.00000E+00 0.00000E+00
 -1       209 0.00000E+00 0.00000E+00 0.00000E+00 0.00000E+00 0.00000E+00 0.00000E+00
 -1       210 0.00000E+00 0.00000E+00 0.00000E+00 0.00000E+00 0.00000E+00 0.00000E+00
 -1       211 0.00000E+00 0.00000E+00 0.00000E+00 0.00000E+00 0.00000E+00 0.00000E+00
 -1       212 0.00000E+00 0.00000E+00 0.00000E+00 0.00000E+00 0.00000E+00 0.00000E+00
 -1       213 0.00000E+00 0.00000E+00 0.00000E+00 0.00000E+00 0.00000E+00 0.00000E+00
 -1       214 0.00000E+00 0.00000E+00 0.00000E+00 0.00000E+00 0.00000E+00 0.00000E+00
 -1       215 0.00000E+00 0.00000E+00 0.00000E+00 0.00000E+00 0.00000E+00 0.00000E+00
 -1       216 0.00000E+00 0.00000E+00 0.00000E+00 0.00000E+00 0.00000E+00 0.00000E+00
 -1       217 0.00000E+00 0.00000E+00 0.00000E+00 0.00000E+00 0.00000E+00 0.00000E+00
 -1       218 0.00000E+00 0.00000E+00 0.00000E+00 0.00000E+00 0.00000E+00 0.00000E+00
 -1       219 0.00000E+00 0.00000E+00 0.00000E+00 0.00000E+00 0.00000E+00 0.00000E+00
 -1       220 0.00000E+00 0.00000E+00 0.00000E+00 0.00000E+00 0.00000E+00 0.00000E+00
 -1       221 0.00000E+00 0.00000E+00 0.00000E+00 0.00000E+00 0.00000E+00 0.00000E+00
 -1       222 0.00000E+00 0.00000E+00 0.00000E+00 0.00000E+00 0.00000E+00 0.00000E+00
 -1       223 0.00000E+00 0.00000E+00 0.00000E+00 0.00000E+00 0.00000E+00 0.00000E+00
 -1       224 0.00000E+00 0.00000E+00 0.00000E+00 0.00000E+00 0.00000E+00 0.00000E+00
 -1       225 0.00000E+00 0.00000E+00 0.00000E+00 0.00000E+00 0.00000E+00 0.00000E+00
 -1       226 0.00000E+00 0.00000E+00 0.00000E+00 0.00000E+00 0.00000E+00 0.00000E+00
 -1       227 0.00000E+00 0.00000E+00 0.00000E+00 0.00000E+00 0.00000E+00 0.00000E+00
 -1       228 0.00000E+00 0.00000E+00 0.00000E+00 0.00000E+00 0.00000E+00 0.00000E+00
 -1       229 0.00000E+00 0.00000E+00 0.00000E+00 0.00000E+00 0.00000E+00 0.00000E+00
 -1       230 0.00000E+00 0.00000E+00 0.00000E+00 0.00000E+00 0.00000E+00 0.00000E+00
 -1       231 0.00000E+00 0.00000E+00 0.00000E+00 0.00000E+00 0.00000E+00 0.00000E+00
 -1       232 0.00000E+00 0.00000E+00 0.00000E+00 0.00000E+00 0.00000E+00 0.00000E+00
 -1       233 0.00000E+00 0.00000E+00 0.00000E+00 0.00000E+00 0.00000E+00 0.00000E+00
 -1       234 0.00000E+00 0.00000E+00 0.00000E+00 0.00000E+00 0.00000E+00 0.00000E+00
 -1       235 0.00000E+00 0.00000E+00 0.00000E+00 0.00000E+00 0.00000E+00 0.00000E+00
 -1       236 0.00000E+00 0.00000E+00 0.00000E+00 0.00000E+00 0.00000E+00 0.00000E+00
 -1       237 0.00000E+00 0.00000E+00 0.00000E+00 0.00000E+00 0.00000E+00 0.00000E+00
 -1       238 0.00000E+00 0.00000E+00 0.00000E+00 0.00000E+00 0.00000E+00 0.00000E+00
 -1       239 0.00000E+00 0.00000E+00 0.00000E+00 0.00000E+00 0.00000E+00 0.00000E+00
 -1       240 0.00000E+00 0.00000E+00 0.00000E+00 0.00000E+00 0.00000E+00 0.00000E+00
 -1       241 0.00000E+00 0.00000E+00 0.00000E+00 0.00000E+00 0.00000E+00 0.00000E+00
 -1       242 0.00000E+00 0.00000E+00 0.00000E+00 0.00000E+00 0.00000E+00 0.00000E+00
 -1       243 0.00000E+00 0.00000E+00 0.00000E+00 0.00000E+00 0.00000E+00 0.00000E+00
 -1       244 0.00000E+00 0.00000E+00 0.00000E+00 0.00000E+00 0.00000E+00 0.00000E+00
 -1       245 0.00000E+00 0.00000E+00 0.00000E+00 0.00000E+00 0.00000E+00 0.00000E+00
 -1       246 0.00000E+00 0.00000E+00 0.00000E+00 0.00000E+00 0.00000E+00 0.00000E+00
 -1       247 0.00000E+00 0.00000E+00 0.00000E+00 0.00000E+00 0.00000E+00 0.00000E+00
 -1       248 0.00000E+00 0.00000E+00 0.00000E+00 0.00000E+00 0.00000E+00 0.00000E+00
 -1       249 0.00000E+00 0.00000E+00 0.00000E+00 0.00000E+00 0.00000E+00 0.00000E+00
 -1       250 0.00000E+00 0.00000E+00 0.00000E+00 0.00000E+00 0.00000E+00 0.00000E+00
 -1       251 0.00000E+00 0.00000E+00 0.00000E+00 0.00000E+00 0.00000E+00 0.00000E+00
 -1       252 0.00000E+00 0.00000E+00 0.00000E+00 0.00000E+00 0.00000E+00 0.00000E+00
 -1       253 0.00000E+00 0.00000E+00 0.00000E+00 0.00000E+00 0.00000E+00 0.00000E+00
 -1       254 0.00000E+00 0.00000E+00 0.00000E+00 0.00000E+00 0.00000E+00 0.00000E+00
 -1       255 0.00000E+00 0.00000E+00 0.00000E+00 0.00000E+00 0.00000E+00 0.00000E+00
 -1       256 0.00000E+00 0.00000E+00 0.00000E+00 0.00000E+00 0.00000E+00 0.00000E+00
 -1       257 0.00000E+00 0.00000E+00 0.00000E+00 0.00000E+00 0.00000E+00 0.00000E+00
 -1       258 0.00000E+00 0.00000E+00 0.00000E+00 0.00000E+00 0.00000E+00 0.00000E+00
 -1       259 0.00000E+00 0.00000E+00 0.00000E+00 0.00000E+00 0.00000E+00 0.00000E+00
 -1       260 0.00000E+00 0.00000E+00 0.00000E+00 0.00000E+00 0.00000E+00 0.00000E+00
 -1       261 0.00000E+00 0.00000E+00 0.00000E+00 0.00000E+00 0.00000E+00 0.00000E+00
 -1       262 0.00000E+00 0.00000E+00 0.00000E+00 0.00000E+00 0.00000E+00 0.00000E+00
 -1       263 0.00000E+00 0.00000E+00 0.00000E+00 0.00000E+00 0.00000E+00 0.00000E+00
 -1       264 0.00000E+00 0.00000E+00 0.00000E+00 0.00000E+00 0.00000E+00 0.00000E+00
 -1       265 0.00000E+00 0.00000E+00 0.00000E+00 0.00000E+00 0.00000E+00 0.00000E+00
 -1       266 0.00000E+00 0.00000E+00 0.00000E+00 0.00000E+00 0.00000E+00 0.00000E+00
 -1       267 0.00000E+00 0.00000E+00 0.00000E+00 0.00000E+00 0.00000E+00 0.00000E+00
 -1       268 0.00000E+00 0.00000E+00 0.00000E+00 0.00000E+00 0.00000E+00 0.00000E+00
 -1       269 0.00000E+00 0.00000E+00 0.00000E+00 0.00000E+00 0.00000E+00 0.00000E+00
 -1       270 0.00000E+00 0.00000E+00 0.00000E+00 0.00000E+00 0.00000E+00 0.00000E+00
 -1       271 0.00000E+00 0.00000E+00 0.00000E+00 0.00000E+00 0.00000E+00 0.00000E+00
 -1       272 0.00000E+00 0.00000E+00 0.00000E+00 0.00000E+00 0.00000E+00 0.00000E+00
 -1       273 0.00000E+00 0.00000E+00 0.00000E+00 0.00000E+00 0.00000E+00 0.00000E+00
 -1       274 0.00000E+00 0.00000E+00 0.00000E+00 0.00000E+00 0.00000E+00 0.00000E+00
 -1       275 0.00000E+00 0.00000E+00 0.00000E+00 0.00000E+00 0.00000E+00 0.00000E+00
 -1       276 0.00000E+00 0.00000E+00 0.00000E+00 0.00000E+00 0.00000E+00 0.00000E+00
 -1       277 0.00000E+00 0.00000E+00 0.00000E+00 0.00000E+00 0.00000E+00 0.00000E+00
 -1       278 0.00000E+00 0.00000E+00 0.00000E+00 0.00000E+00 0.00000E+00 0.00000E+00
 -1       279 0.00000E+00 0.00000E+00 0.00000E+00 0.00000E+00 0.00000E+00 0.00000E+00
 -1       280 0.00000E+00 0.00000E+00 0.00000E+00 0.00000E+00 0.00000E+00 0.00000E+00
 -1       281 0.00000E+00 0.00000E+00 0.00000E+00 0.00000E+00 0.00000E+00 0.00000E+00
 -1       282 0.00000E+00 0.00000E+00 0.00000E+00 0.00000E+00 0.00000E+00 0.00000E+00
 -1       283 0.00000E+00 0.00000E+00 0.00000E+00 0.00000E+00 0.00000E+00 0.00000E+00
 -1       284 0.00000E+00 0.00000E+00 0.00000E+00 0.00000E+00 0.00000E+00 0.00000E+00
 -1       285 0.00000E+00 0.00000E+00 0.00000E+00 0.00000E+00 0.00000E+00 0.00000E+00
 -1       286 0.00000E+00 0.00000E+00 0.00000E+00 0.00000E+00 0.00000E+00 0.00000E+00
 -1       287 0.00000E+00 0.00000E+00 0.00000E+00 0.00000E+00 0.00000E+00 0.00000E+00
 -1       288 0.00000E+00 0.00000E+00 0.00000E+00 0.00000E+00 0.00000E+00 0.00000E+00
 -1       289 0.00000E+00 0.00000E+00 0.00000E+00 0.00000E+00 0.00000E+00 0.00000E+00
 -1       290 0.00000E+00 0.00000E+00 0.00000E+00 0.00000E+00 0.00000E+00 0.00000E+00
 -1       291 0.00000E+00 0.00000E+00 0.00000E+00 0.00000E+00 0.00000E+00 0.00000E+00
 -1       292 0.00000E+00 0.00000E+00 0.00000E+00 0.00000E+00 0.00000E+00 0.00000E+00
 -1       293 0.00000E+00 0.00000E+00 0.00000E+00 0.00000E+00 0.00000E+00 0.00000E+00
 -1       294 0.00000E+00 0.00000E+00 0.00000E+00 0.00000E+00 0.00000E+00 0.00000E+00
 -1       295 0.00000E+00 0.00000E+00 0.00000E+00 0.00000E+00 0.00000E+00 0.00000E+00
 -1       296 0.00000E+00 0.00000E+00 0.00000E+00 0.00000E+00 0.00000E+00 0.00000E+00
 -1       297 0.00000E+00 0.00000E+00 0.00000E+00 0.00000E+00 0.00000E+00 0.00000E+00
 -1       298 0.00000E+00 0.00000E+00 0.00000E+00 0.00000E+00 0.00000E+00 0.00000E+00
 -1       299 0.00000E+00 0.00000E+00 0.00000E+00 0.00000E+00 0.00000E+00 0.00000E+00
 -1       300 0.00000E+00 0.00000E+00 0.00000E+00 0.00000E+00 0.00000E+00 0.00000E+00
 -1       301 0.00000E+00 0.00000E+00 0.00000E+00 0.00000E+00 0.00000E+00 0.00000E+00
 -1       302 0.00000E+00 0.00000E+00 0.00000E+00 0.00000E+00 0.00000E+00 0.00000E+00
 -1       303 0.00000E+00 0.00000E+00 0.00000E+00 0.00000E+00 0.00000E+00 0.00000E+00
 -1       304 0.00000E+00 0.00000E+00 0.00000E+00 0.00000E+00 0.00000E+00 0.00000E+00
 -1       305 0.00000E+00 0.00000E+00 0.00000E+00 0.00000E+00 0.00000E+00 0.00000E+00
 -1       306 0.00000E+00 0.00000E+00 0.00000E+00 0.00000E+00 0.00000E+00 0.00000E+00
 -1       307 0.00000E+00 0.00000E+00 0.00000E+00 0.00000E+00 0.00000E+00 0.00000E+00
 -1       308 0.00000E+00 0.00000E+00 0.00000E+00 0.00000E+00 0.00000E+00 0.00000E+00
 -1       309 0.00000E+00 0.00000E+00 0.00000E+00 0.00000E+00 0.00000E+00 0.00000E+00
 -1       310 0.00000E+00 0.00000E+00 0.00000E+00 0.00000E+00 0.00000E+00 0.00000E+00
 -1       311 0.00000E+00 0.00000E+00 0.00000E+00 0.00000E+00 0.00000E+00 0.00000E+00
 -1       312 0.00000E+00 0.00000E+00 0.00000E+00 0.00000E+00 0.00000E+00 0.00000E+00
 -1       313 0.00000E+00 0.00000E+00 0.00000E+00 0.00000E+00 0.00000E+00 0.00000E+00
 -1       314 0.00000E+00 0.00000E+00 0.00000E+00 0.00000E+00 0.00000E+00 0.00000E+00
 -1       315 0.00000E+00 0.00000E+00 0.00000E+00 0.00000E+00 0.00000E+00 0.00000E+00
 -1       316 0.00000E+00 0.00000E+00 0.00000E+00 0.00000E+00 0.00000E+00 0.00000E+00
 -1       317 0.00000E+00 0.00000E+00 0.00000E+00 0.00000E+00 0.00000E+00 0.00000E+00
 -1       318 0.00000E+00 0.00000E+00 0.00000E+00 0.00000E+00 0.00000E+00 0.00000E+00
 -1       319 0.00000E+00 0.00000E+00 0.00000E+00 0.00000E+00 0.00000E+00 0.00000E+00
 -1       320 0.00000E+00 0.00000E+00 0.00000E+00 0.00000E+00 0.00000E+00 0.00000E+00
 -1       321 0.00000E+00 0.00000E+00 0.00000E+00 0.00000E+00 0.00000E+00 0.00000E+00
 -1       322 0.00000E+00 0.00000E+00 0.00000E+00 0.00000E+00 0.00000E+00 0.00000E+00
 -1       323 0.00000E+00 0.00000E+00 0.00000E+00 0.00000E+00 0.00000E+00 0.00000E+00
 -1       324 0.00000E+00 0.00000E+00 0.00000E+00 0.00000E+00 0.00000E+00 0.00000E+00
 -1       325 0.00000E+00 0.00000E+00 0.00000E+00 0.00000E+00 0.00000E+00 0.00000E+00
 -1       326 0.00000E+00 0.00000E+00 0.00000E+00 0.00000E+00 0.00000E+00 0.00000E+00
 -1       327 0.00000E+00 0.00000E+00 0.00000E+00 0.00000E+00 0.00000E+00 0.00000E+00
 -1       328 0.00000E+00 0.00000E+00 0.00000E+00 0.00000E+00 0.00000E+00 0.00000E+00
 -1       329 0.00000E+00 0.00000E+00 0.00000E+00 0.00000E+00 0.00000E+00 0.00000E+00
 -1       330 0.00000E+00 0.00000E+00 0.00000E+00 0.00000E+00 0.00000E+00 0.00000E+00
 -1       331 0.00000E+00 0.00000E+00 0.00000E+00 0.00000E+00 0.00000E+00 0.00000E+00
 -1       332 0.00000E+00 0.00000E+00 0.00000E+00 0.00000E+00 0.00000E+00 0.00000E+00
 -1       333 0.00000E+00 0.00000E+00 0.00000E+00 0.00000E+00 0.00000E+00 0.00000E+00
 -1       334 0.00000E+00 0.00000E+00 0.00000E+00 0.00000E+00 0.00000E+00 0.00000E+00
 -1       335 0.00000E+00 0.00000E+00 0.00000E+00 0.00000E+00 0.00000E+00 0.00000E+00
 -1       336 0.00000E+00 0.00000E+00 0.00000E+00 0.00000E+00 0.00000E+00 0.00000E+00
 -1       337 0.00000E+00 0.00000E+00 0.00000E+00 0.00000E+00 0.00000E+00 0.00000E+00
 -1       338 0.00000E+00 0.00000E+00 0.00000E+00 0.00000E+00 0.00000E+00 0.00000E+00
 -1       339 0.00000E+00 0.00000E+00 0.00000E+00 0.00000E+00 0.00000E+00 0.00000E+00
 -1       340 0.00000E+00 0.00000E+00 0.00000E+00 0.00000E+00 0.00000E+00 0.00000E+00
 -1       341 0.00000E+00 0.00000E+00 0.00000E+00 0.00000E+00 0.00000E+00 0.00000E+00
 -1       342 0.00000E+00 0.00000E+00 0.00000E+00 0.00000E+00 0.00000E+00 0.00000E+00
 -1       343 0.00000E+00 0.00000E+00 0.00000E+00 0.00000E+00 0.00000E+00 0.00000E+00
 -1       344 0.00000E+00 0.00000E+00 0.00000E+00 0.00000E+00 0.00000E+00 0.00000E+00
 -1       345 0.00000E+00 0.00000E+00 0.00000E+00 0.00000E+00 0.00000E+00 0.00000E+00
 -1       346 0.00000E+00 0.00000E+00 0.00000E+00 0.00000E+00 0.00000E+00 0.00000E+00
 -1       347 0.00000E+00 0.00000E+00 0.00000E+00 0.00000E+00 0.00000E+00 0.00000E+00
 -1       348 0.00000E+00 0.00000E+00 0.00000E+00 0.00000E+00 0.00000E+00 0.00000E+00
 -1       349 0.00000E+00 0.00000E+00 0.00000E+00 0.00000E+00 0.00000E+00 0.00000E+00
 -1       350 0.00000E+00 0.00000E+00 0.00000E+00 0.00000E+00 0.00000E+00 0.00000E+00
 -1       351 0.00000E+00 0.00000E+00 0.00000E+00 0.00000E+00 0.00000E+00 0.00000E+00
 -1       352 0.00000E+00 0.00000E+00 0.00000E+00 0.00000E+00 0.00000E+00 0.00000E+00
 -1       353 0.00000E+00 0.00000E+00 0.00000E+00 0.00000E+00 0.00000E+00 0.00000E+00
 -1       354 0.00000E+00 0.00000E+00 0.00000E+00 0.00000E+00 0.00000E+00 0.00000E+00
 -1       355 0.00000E+00 0.00000E+00 0.00000E+00 0.00000E+00 0.00000E+00 0.00000E+00
 -1       356 0.00000E+00 0.00000E+00 0.00000E+00 0.00000E+00 0.00000E+00 0.00000E+00
 -1       357 0.00000E+00 0.00000E+00 0.00000E+00 0.00000E+00 0.00000E+00 0.00000E+00
 -1       358 0.00000E+00 0.00000E+00 0.00000E+00 0.00000E+00 0.00000E+00 0.00000E+00
 -1       359 0.00000E+00 0.00000E+00 0.00000E+00 0.00000E+00 0.00000E+00 0.00000E+00
 -1       360 0.00000E+00 0.00000E+00 0.00000E+00 0.00000E+00 0.00000E+00 0.00000E+00
 -1       361 0.00000E+00 0.00000E+00 0.00000E+00 0.00000E+00 0.00000E+00 0.00000E+00
 -1       362 0.00000E+00 0.00000E+00 0.00000E+00 0.00000E+00 0.00000E+00 0.00000E+00
 -1       363 0.00000E+00 0.00000E+00 0.00000E+00 0.00000E+00 0.00000E+00 0.00000E+00
 -1       364 0.00000E+00 0.00000E+00 0.00000E+00 0.00000E+00 0.00000E+00 0.00000E+00
 -1       365 0.00000E+00 0.00000E+00 0.00000E+00 0.00000E+00 0.00000E+00 0.00000E+00
 -1       366 0.00000E+00 0.00000E+00 0.00000E+00 0.00000E+00 0.00000E+00 0.00000E+00
 -1       367 0.00000E+00 0.00000E+00 0.00000E+00 0.00000E+00 0.00000E+00 0.00000E+00
 -1       368 0.00000E+00 0.00000E+00 0.00000E+00 0.00000E+00 0.00000E+00 0.00000E+00
 -1       369 0.00000E+00 0.00000E+00 0.00000E+00 0.00000E+00 0.00000E+00 0.00000E+00
 -1       370 0.00000E+00 0.00000E+00 0.00000E+00 0.00000E+00 0.00000E+00 0.00000E+00
 -1       371 0.00000E+00 0.00000E+00 0.00000E+00 0.00000E+00 0.00000E+00 0.00000E+00
 -1       372 0.00000E+00 0.00000E+00 0.00000E+00 0.00000E+00 0.00000E+00 0.00000E+00
 -1       373 0.00000E+00 0.00000E+00 0.00000E+00 0.00000E+00 0.00000E+00 0.00000E+00
 -1       374 0.00000E+00 0.00000E+00 0.00000E+00 0.00000E+00 0.00000E+00 0.00000E+00
 -1       375 0.00000E+00 0.00000E+00 0.00000E+00 0.00000E+00 0.00000E+00 0.00000E+00
 -1       376 0.00000E+00 0.00000E+00 0.00000E+00 0.00000E+00 0.00000E+00 0.00000E+00
 -1       377 0.00000E+00 0.00000E+00 0.00000E+00 0.00000E+00 0.00000E+00 0.00000E+00
 -1       378 0.00000E+00 0.00000E+00 0.00000E+00 0.00000E+00 0.00000E+00 0.00000E+00
 -1       379 0.00000E+00 0.00000E+00 0.00000E+00 0.00000E+00 0.00000E+00 0.00000E+00
 -1       380 0.00000E+00 0.00000E+00 0.00000E+00 0.00000E+00 0.00000E+00 0.00000E+00
 -1       381 0.00000E+00 0.00000E+00 0.00000E+00 0.00000E+00 0.00000E+00 0.00000E+00
 -1       382 0.00000E+00 0.00000E+00 0.00000E+00 0.00000E+00 0.00000E+00 0.00000E+00
 -1       383 0.00000E+00 0.00000E+00 0.00000E+00 0.00000E+00 0.00000E+00 0.00000E+00
 -1       384 0.00000E+00 0.00000E+00 0.00000E+00 0.00000E+00 0.00000E+00 0.00000E+00
 -1       385 0.00000E+00 0.00000E+00 0.00000E+00 0.00000E+00 0.00000E+00 0.00000E+00
 -1       386 0.00000E+00 0.00000E+00 0.00000E+00 0.00000E+00 0.00000E+00 0.00000E+00
 -1       387 0.00000E+00 0.00000E+00 0.00000E+00 0.00000E+00 0.00000E+00 0.00000E+00
 -1       388 0.00000E+00 0.00000E+00 0.00000E+00 0.00000E+00 0.00000E+00 0.00000E+00
 -1       389 0.00000E+00 0.00000E+00 0.00000E+00 0.00000E+00 0.00000E+00 0.00000E+00
 -1       390 0.00000E+00 0.00000E+00 0.00000E+00 0.00000E+00 0.00000E+00 0.00000E+00
 -1       391 0.00000E+00 0.00000E+00 0.00000E+00 0.00000E+00 0.00000E+00 0.00000E+00
 -1       392 0.00000E+00 0.00000E+00 0.00000E+00 0.00000E+00 0.00000E+00 0.00000E+00
 -1       393 0.00000E+00 0.00000E+00 0.00000E+00 0.00000E+00 0.00000E+00 0.00000E+00
 -1       394 0.00000E+00 0.00000E+00 0.00000E+00 0.00000E+00 0.00000E+00 0.00000E+00
 -1       395 0.00000E+00 0.00000E+00 0.00000E+00 0.00000E+00 0.00000E+00 0.00000E+00
 -1       396 0.00000E+00 0.00000E+00 0.00000E+00 0.00000E+00 0.00000E+00 0.00000E+00
 -1       397 0.00000E+00 0.00000E+00 0.00000E+00 0.00000E+00 0.00000E+00 0.00000E+00
 -1       398 0.00000E+00 0.00000E+00 0.00000E+00 0.00000E+00 0.00000E+00 0.00000E+00
 -1       399 0.00000E+00 0.00000E+00 0.00000E+00 0.00000E+00 0.00000E+00 0.00000E+00
 -1       400 0.00000E+00 0.00000E+00 0.00000E+00 0.00000E+00 0.00000E+00 0.00000E+00
 -1       401 0.00000E+00 0.00000E+00 0.00000E+00 0.00000E+00 0.00000E+00 0.00000E+00
 -1       402 0.00000E+00 0.00000E+00 0.00000E+00 0.00000E+00 0.00000E+00 0.00000E+00
 -1       403 0.00000E+00 0.00000E+00 0.00000E+00 0.00000E+00 0.00000E+00 0.00000E+00
 -1       404 0.00000E+00 0.00000E+00 0.00000E+00 0.00000E+00 0.00000E+00 0.00000E+00
 -1       405 0.00000E+00 0.00000E+00 0.00000E+00 0.00000E+00 0.00000E+00 0.00000E+00
 -1       406 0.00000E+00 0.00000E+00 0.00000E+00 0.00000E+00 0.00000E+00 0.00000E+00
 -1       407 0.00000E+00 0.00000E+00 0.00000E+00 0.00000E+00 0.00000E+00 0.00000E+00
 -1       408 0.00000E+00 0.00000E+00 0.00000E+00 0.00000E+00 0.00000E+00 0.00000E+00
 -1       409 0.00000E+00 0.00000E+00 0.00000E+00 0.00000E+00 0.00000E+00 0.00000E+00
 -1       410 0.00000E+00 0.00000E+00 0.00000E+00 0.00000E+00 0.00000E+00 0.00000E+00
 -1       411 0.00000E+00 0.00000E+00 0.00000E+00 0.00000E+00 0.00000E+00 0.00000E+00
 -1       412 0.00000E+00 0.00000E+00 0.00000E+00 0.00000E+00 0.00000E+00 0.00000E+00
 -1       413 0.00000E+00 0.00000E+00 0.00000E+00 0.00000E+00 0.00000E+00 0.00000E+00
 -1       414 0.00000E+00 0.00000E+00 0.00000E+00 0.00000E+00 0.00000E+00 0.00000E+00
 -1       415 0.00000E+00 0.00000E+00 0.00000E+00 0.00000E+00 0.00000E+00 0.00000E+00
 -1       416 0.00000E+00 0.00000E+00 0.00000E+00 0.00000E+00 0.00000E+00 0.00000E+00
 -1       417 0.00000E+00 0.00000E+00 0.00000E+00 0.00000E+00 0.00000E+00 0.00000E+00
 -1       418 0.00000E+00 0.00000E+00 0.00000E+00 0.00000E+00 0.00000E+00 0.00000E+00
 -1       419 0.00000E+00 0.00000E+00 0.00000E+00 0.00000E+00 0.00000E+00 0.00000E+00
 -1       420 0.00000E+00 0.00000E+00 0.00000E+00 0.00000E+00 0.00000E+00 0.00000E+00
 -1       421 0.00000E+00 0.00000E+00 0.00000E+00 0.00000E+00 0.00000E+00 0.00000E+00
 -1       422 0.00000E+00 0.00000E+00 0.00000E+00 0.00000E+00 0.00000E+00 0.00000E+00
 -1       423 0.00000E+00 0.00000E+00 0.00000E+00 0.00000E+00 0.00000E+00 0.00000E+00
 -1       424 0.00000E+00 0.00000E+00 0.00000E+00 0.00000E+00 0.00000E+00 0.00000E+00
 -1       425 0.00000E+00 0.00000E+00 0.00000E+00 0.00000E+00 0.00000E+00 0.00000E+00
 -1       426 0.00000E+00 0.00000E+00 0.00000E+00 0.00000E+00 0.00000E+00 0.00000E+00
 -1       427 0.00000E+00 0.00000E+00 0.00000E+00 0.00000E+00 0.00000E+00 0.00000E+00
 -1       428 0.00000E+00 0.00000E+00 0.00000E+00 0.00000E+00 0.00000E+00 0.00000E+00
 -1       429 0.00000E+00 0.00000E+00 0.00000E+00 0.00000E+00 0.00000E+00 0.00000E+00
 -1       430 0.00000E+00 0.00000E+00 0.00000E+00 0.00000E+00 0.00000E+00 0.00000E+00
 -1       431 0.00000E+00 0.00000E+00 0.00000E+00 0.00000E+00 0.00000E+00 0.00000E+00
 -1       432 0.00000E+00 0.00000E+00 0.00000E+00 0.00000E+00 0.00000E+00 0.00000E+00
 -1       433 0.00000E+00 0.00000E+00 0.00000E+00 0.00000E+00 0.00000E+00 0.00000E+00
 -1       434 0.00000E+00 0.00000E+00 0.00000E+00 0.00000E+00 0.00000E+00 0.00000E+00
 -1       435 0.00000E+00 0.00000E+00 0.00000E+00 0.00000E+00 0.00000E+00 0.00000E+00
 -1       436 0.00000E+00 0.00000E+00 0.00000E+00 0.00000E+00 0.00000E+00 0.00000E+00
 -1       437 0.00000E+00 0.00000E+00 0.00000E+00 0.00000E+00 0.00000E+00 0.00000E+00
 -1       438 0.00000E+00 0.00000E+00 0.00000E+00 0.00000E+00 0.00000E+00 0.00000E+00
 -1       439 0.00000E+00 0.00000E+00 0.00000E+00 0.00000E+00 0.00000E+00 0.00000E+00
 -1       440 0.00000E+00 0.00000E+00 0.00000E+00 0.00000E+00 0.00000E+00 0.00000E+00
 -1       441 0.00000E+00 0.00000E+00 0.00000E+00 0.00000E+00 0.00000E+00 0.00000E+00
 -1       442 0.00000E+00 0.00000E+00 0.00000E+00 0.00000E+00 0.00000E+00 0.00000E+00
 -1       443 0.00000E+00 0.00000E+00 0.00000E+00 0.00000E+00 0.00000E+00 0.00000E+00
 -1       444 0.00000E+00 0.00000E+00 0.00000E+00 0.00000E+00 0.00000E+00 0.00000E+00
 -1       445 0.00000E+00 0.00000E+00 0.00000E+00 0.00000E+00 0.00000E+00 0.00000E+00
 -1       446 0.00000E+00 0.00000E+00 0.00000E+00 0.00000E+00 0.00000E+00 0.00000E+00
 -1       447 0.00000E+00 0.00000E+00 0.00000E+00 0.00000E+00 0.00000E+00 0.00000E+00
 -1       448 0.00000E+00 0.00000E+00 0.00000E+00 0.00000E+00 0.00000E+00 0.00000E+00
 -1       449 0.00000E+00 0.00000E+00 0.00000E+00 0.00000E+00 0.00000E+00 0.00000E+00
 -1       450 0.00000E+00 0.00000E+00 0.00000E+00 0.00000E+00 0.00000E+00 0.00000E+00
 -1       451 0.00000E+00 0.00000E+00 0.00000E+00 0.00000E+00 0.00000E+00 0.00000E+00
 -1       452 0.00000E+00 0.00000E+00 0.00000E+00 0.00000E+00 0.00000E+00 0.00000E+00
 -1       453 0.00000E+00 0.00000E+00 0.00000E+00 0.00000E+00 0.00000E+00 0.00000E+00
 -1       454 0.00000E+00 0.00000E+00 0.00000E+00 0.00000E+00 0.00000E+00 0.00000E+00
 -1       455 0.00000E+00 0.00000E+00 0.00000E+00 0.00000E+00 0.00000E+00 0.00000E+00
 -1       456 0.00000E+00 0.00000E+00 0.00000E+00 0.00000E+00 0.00000E+00 0.00000E+00
 -1       457 0.00000E+00 0.00000E+00 0.00000E+00 0.00000E+00 0.00000E+00 0.00000E+00
 -1       458 0.00000E+00 0.00000E+00 0.00000E+00 0.00000E+00 0.00000E+00 0.00000E+00
 -1       459 0.00000E+00 0.00000E+00 0.00000E+00 0.00000E+00 0.00000E+00 0.00000E+00
 -1       460 0.00000E+00 0.00000E+00 0.00000E+00 0.00000E+00 0.00000E+00 0.00000E+00
 -1       461 0.00000E+00 0.00000E+00 0.00000E+00 0.00000E+00 0.00000E+00 0.00000E+00
 -1       462 0.00000E+00 0.00000E+00 0.00000E+00 0.00000E+00 0.00000E+00 0.00000E+00
 -1       463 0.00000E+00 0.00000E+00 0.00000E+00 0.00000E+00 0.00000E+00 0.00000E+00
 -1       464 0.00000E+00 0.00000E+00 0.00000E+00 0.00000E+00 0.00000E+00 0.00000E+00
 -1       465 0.00000E+00 0.00000E+00 0.00000E+00 0.00000E+00 0.00000E+00 0.00000E+00
 -1       466 0.00000E+00 0.00000E+00 0.00000E+00 0.00000E+00 0.00000E+00 0.00000E+00
 -1       467 0.00000E+00 0.00000E+00 0.00000E+00 0.00000E+00 0.00000E+00 0.00000E+00
 -1       468 0.00000E+00 0.00000E+00 0.00000E+00 0.00000E+00 0.00000E+00 0.00000E+00
 -1       469 0.00000E+00 0.00000E+00 0.00000E+00 0.00000E+00 0.00000E+00 0.00000E+00
 -1       470 0.00000E+00 0.00000E+00 0.00000E+00 0.00000E+00 0.00000E+00 0.00000E+00
 -1       471 0.00000E+00 0.00000E+00 0.00000E+00 0.00000E+00 0.00000E+00 0.00000E+00
 -1       472 0.00000E+00 0.00000E+00 0.00000E+00 0.00000E+00 0.00000E+00 0.00000E+00
 -1       473 0.00000E+00 0.00000E+00 0.00000E+00 0.00000E+00 0.00000E+00 0.00000E+00
 -1       474 0.00000E+00 0.00000E+00 0.00000E+00 0.00000E+00 0.00000E+00 0.00000E+00
 -1       475 0.00000E+00 0.00000E+00 0.00000E+00 0.00000E+00 0.00000E+00 0.00000E+00
 -1       476 0.00000E+00 0.00000E+00 0.00000E+00 0.00000E+00 0.00000E+00 0.00000E+00
 -1       477 0.00000E+00 0.00000E+00 0.00000E+00 0.00000E+00 0.00000E+00 0.00000E+00
 -1       478 0.00000E+00 0.00000E+00 0.00000E+00 0.00000E+00 0.00000E+00 0.00000E+00
 -1       479 0.00000E+00 0.00000E+00 0.00000E+00 0.00000E+00 0.00000E+00 0.00000E+00
 -1       480 0.00000E+00 0.00000E+00 0.00000E+00 0.00000E+00 0.00000E+00 0.00000E+00
 -1       481 0.00000E+00 0.00000E+00 0.00000E+00 0.00000E+00 0.00000E+00 0.00000E+00
 -1       482 0.00000E+00 0.00000E+00 0.00000E+00 0.00000E+00 0.00000E+00 0.00000E+00
 -1       483 0.00000E+00 0.00000E+00 0.00000E+00 0.00000E+00 0.00000E+00 0.00000E+00
 -1       484 0.00000E+00 0.00000E+00 0.00000E+00 0.00000E+00 0.00000E+00 0.00000E+00
 -1       485 0.00000E+00 0.00000E+00 0.00000E+00 0.00000E+00 0.00000E+00 0.00000E+00
 -1       486 0.00000E+00 0.00000E+00 0.00000E+00 0.00000E+00 0.00000E+00 0.00000E+00
 -1       487 0.00000E+00 0.00000E+00 0.00000E+00 0.00000E+00 0.00000E+00 0.00000E+00
 -1       488 0.00000E+00 0.00000E+00 0.00000E+00 0.00000E+00 0.00000E+00 0.00000E+00
 -1       489 0.00000E+00 0.00000E+00 0.00000E+00 0.00000E+00 0.00000E+00 0.00000E+00
 -1       490 0.00000E+00 0.00000E+00 0.00000E+00 0.00000E+00 0.00000E+00 0.00000E+00
 -1       491 0.00000E+00 0.00000E+00 0.00000E+00 0.00000E+00 0.00000E+00 0.00000E+00
 -1       492 0.00000E+00 0.00000E+00 0.00000E+00 0.00000E+00 0.00000E+00 0.00000E+00
 -1       493 0.00000E+00 0.00000E+00 0.00000E+00 0.00000E+00 0.00000E+00 0.00000E+00
 -1       494 0.00000E+00 0.00000E+00 0.00000E+00 0.00000E+00 0.00000E+00 0.00000E+00
 -1       495 0.00000E+00 0.00000E+00 0.00000E+00 0.00000E+00 0.00000E+00 0.00000E+00
 -1       496 0.00000E+00 0.00000E+00 0.00000E+00 0.00000E+00 0.00000E+00 0.00000E+00
 -1       497 0.00000E+00 0.00000E+00 0.00000E+00 0.00000E+00 0.00000E+00 0.00000E+00
 -1       498 0.00000E+00 0.00000E+00 0.00000E+00 0.00000E+00 0.00000E+00 0.00000E+00
 -1       499 0.00000E+00 0.00000E+00 0.00000E+00 0.00000E+00 0.00000E+00 0.00000E+00
 -1       500 0.00000E+00 0.00000E+00 0.00000E+00 0.00000E+00 0.00000E+00 0.00000E+00
 -1       501 0.00000E+00 0.00000E+00 0.00000E+00 0.00000E+00 0.00000E+00 0.00000E+00
 -1       502 0.00000E+00 0.00000E+00 0.00000E+00 0.00000E+00 0.00000E+00 0.00000E+00
 -1       503 0.00000E+00 0.00000E+00 0.00000E+00 0.00000E+00 0.00000E+00 0.00000E+00
 -1       504 0.00000E+00 0.00000E+00 0.00000E+00 0.00000E+00 0.00000E+00 0.00000E+00
 -1       505 0.00000E+00 0.00000E+00 0.00000E+00 0.00000E+00 0.00000E+00 0.00000E+00
 -1       506 0.00000E+00 0.00000E+00 0.00000E+00 0.00000E+00 0.00000E+00 0.00000E+00
 -1       507 0.00000E+00 0.00000E+00 0.00000E+00 0.00000E+00 0.00000E+00 0.00000E+00
 -1       508 0.00000E+00 0.00000E+00 0.00000E+00 0.00000E+00 0.00000E+00 0.00000E+00
 -1       509 0.00000E+00 0.00000E+00 0.00000E+00 0.00000E+00 0.00000E+00 0.00000E+00
 -1       510 0.00000E+00 0.00000E+00 0.00000E+00 0.00000E+00 0.00000E+00 0.00000E+00
 -1       511 0.00000E+00 0.00000E+00 0.00000E+00 0.00000E+00 0.00000E+00 0.00000E+00
 -1       512 0.00000E+00 0.00000E+00 0.00000E+00 0.00000E+00 0.00000E+00 0.00000E+00
 -1       513 0.00000E+00 0.00000E+00 0.00000E+00 0.00000E+00 0.00000E+00 0.00000E+00
 -1       514 0.00000E+00 0.00000E+00 0.00000E+00 0.00000E+00 0.00000E+00 0.00000E+00
 -1       515 0.00000E+00 0.00000E+00 0.00000E+00 0.00000E+00 0.00000E+00 0.00000E+00
 -1       516 0.00000E+00 0.00000E+00 0.00000E+00 0.00000E+00 0.00000E+00 0.00000E+00
 -1       517 0.00000E+00 0.00000E+00 0.00000E+00 0.00000E+00 0.00000E+00 0.00000E+00
 -1       518 0.00000E+00 0.00000E+00 0.00000E+00 0.00000E+00 0.00000E+00 0.00000E+00
 -1       519 0.00000E+00 0.00000E+00 0.00000E+00 0.00000E+00 0.00000E+00 0.00000E+00
 -1       520 0.00000E+00 0.00000E+00 0.00000E+00 0.00000E+00 0.00000E+00 0.00000E+00
 -1       521 0.00000E+00 0.00000E+00 0.00000E+00 0.00000E+00 0.00000E+00 0.00000E+00
 -1       522 0.00000E+00 0.00000E+00 0.00000E+00 0.00000E+00 0.00000E+00 0.00000E+00
 -1       523 0.00000E+00 0.00000E+00 0.00000E+00 0.00000E+00 0.00000E+00 0.00000E+00
 -1       524 0.00000E+00 0.00000E+00 0.00000E+00 0.00000E+00 0.00000E+00 0.00000E+00
 -1       525 0.00000E+00 0.00000E+00 0.00000E+00 0.00000E+00 0.00000E+00 0.00000E+00
 -1       526 0.00000E+00 0.00000E+00 0.00000E+00 0.00000E+00 0.00000E+00 0.00000E+00
 -1       527 0.00000E+00 0.00000E+00 0.00000E+00 0.00000E+00 0.00000E+00 0.00000E+00
 -1       528 0.00000E+00 0.00000E+00 0.00000E+00 0.00000E+00 0.00000E+00 0.00000E+00
 -1       529 0.00000E+00 0.00000E+00 0.00000E+00 0.00000E+00 0.00000E+00 0.00000E+00
 -1       530 0.00000E+00 0.00000E+00 0.00000E+00 0.00000E+00 0.00000E+00 0.00000E+00
 -1       531 0.00000E+00 0.00000E+00 0.00000E+00 0.00000E+00 0.00000E+00 0.00000E+00
 -1       532 0.00000E+00 0.00000E+00 0.00000E+00 0.00000E+00 0.00000E+00 0.00000E+00
 -1       533 0.00000E+00 0.00000E+00 0.00000E+00 0.00000E+00 0.00000E+00 0.00000E+00
 -1       534 0.00000E+00 0.00000E+00 0.00000E+00 0.00000E+00 0.00000E+00 0.00000E+00
 -1       535 0.00000E+00 0.00000E+00 0.00000E+00 0.00000E+00 0.00000E+00 0.00000E+00
 -1       536 0.00000E+00 0.00000E+00 0.00000E+00 0.00000E+00 0.00000E+00 0.00000E+00
 -1       537 0.00000E+00 0.00000E+00 0.00000E+00 0.00000E+00 0.00000E+00 0.00000E+00
 -1       538 0.00000E+00 0.00000E+00 0.00000E+00 0.00000E+00 0.00000E+00 0.00000E+00
 -1       539 0.00000E+00 0.00000E+00 0.00000E+00 0.00000E+00 0.00000E+00 0.00000E+00
 -1       540 0.00000E+00 0.00000E+00 0.00000E+00 0.00000E+00 0.00000E+00 0.00000E+00
 -1       541 0.00000E+00 0.00000E+00 0.00000E+00 0.00000E+00 0.00000E+00 0.00000E+00
 -1       542 0.00000E+00 0.00000E+00 0.00000E+00 0.00000E+00 0.00000E+00 0.00000E+00
 -1       543 0.00000E+00 0.00000E+00 0.00000E+00 0.00000E+00 0.00000E+00 0.00000E+00
 -1       544 0.00000E+00 0.00000E+00 0.00000E+00 0.00000E+00 0.00000E+00 0.00000E+00
 -1       545 0.00000E+00 0.00000E+00 0.00000E+00 0.00000E+00 0.00000E+00 0.00000E+00
 -1       546 0.00000E+00 0.00000E+00 0.00000E+00 0.00000E+00 0.00000E+00 0.00000E+00
 -1       547 0.00000E+00 0.00000E+00 0.00000E+00 0.00000E+00 0.00000E+00 0.00000E+00
 -1       548 0.00000E+00 0.00000E+00 0.00000E+00 0.00000E+00 0.00000E+00 0.00000E+00
 -1       549 0.00000E+00 0.00000E+00 0.00000E+00 0.00000E+00 0.00000E+00 0.00000E+00
 -1       550 0.00000E+00 0.00000E+00 0.00000E+00 0.00000E+00 0.00000E+00 0.00000E+00
 -1       551 0.00000E+00 0.00000E+00 0.00000E+00 0.00000E+00 0.00000E+00 0.00000E+00
 -1       552 0.00000E+00 0.00000E+00 0.00000E+00 0.00000E+00 0.00000E+00 0.00000E+00
 -1       553 0.00000E+00 0.00000E+00 0.00000E+00 0.00000E+00 0.00000E+00 0.00000E+00
 -1       554 0.00000E+00 0.00000E+00 0.00000E+00 0.00000E+00 0.00000E+00 0.00000E+00
 -1       555 0.00000E+00 0.00000E+00 0.00000E+00 0.00000E+00 0.00000E+00 0.00000E+00
 -1       556 0.00000E+00 0.00000E+00 0.00000E+00 0.00000E+00 0.00000E+00 0.00000E+00
 -1       557 0.00000E+00 0.00000E+00 0.00000E+00 0.00000E+00 0.00000E+00 0.00000E+00
 -1       558 0.00000E+00 0.00000E+00 0.00000E+00 0.00000E+00 0.00000E+00 0.00000E+00
 -1       559 0.00000E+00 0.00000E+00 0.00000E+00 0.00000E+00 0.00000E+00 0.00000E+00
 -1       560 0.00000E+00 0.00000E+00 0.00000E+00 0.00000E+00 0.00000E+00 0.00000E+00
 -1       561 0.00000E+00 0.00000E+00 0.00000E+00 0.00000E+00 0.00000E+00 0.00000E+00
 -1       562 0.00000E+00 0.00000E+00 0.00000E+00 0.00000E+00 0.00000E+00 0.00000E+00
 -1       563 0.00000E+00 0.00000E+00 0.00000E+00 0.00000E+00 0.00000E+00 0.00000E+00
 -1       564 0.00000E+00 0.00000E+00 0.00000E+00 0.00000E+00 0.00000E+00 0.00000E+00
 -1       565 0.00000E+00 0.00000E+00 0.00000E+00 0.00000E+00 0.00000E+00 0.00000E+00
 -1       566 0.00000E+00 0.00000E+00 0.00000E+00 0.00000E+00 0.00000E+00 0.00000E+00
 -1       567 0.00000E+00 0.00000E+00 0.00000E+00 0.00000E+00 0.00000E+00 0.00000E+00
 -1       568 0.00000E+00 0.00000E+00 0.00000E+00 0.00000E+00 0.00000E+00 0.00000E+00
 -1       569 0.00000E+00 0.00000E+00 0.00000E+00 0.00000E+00 0.00000E+00 0.00000E+00
 -1       570 0.00000E+00 0.00000E+00 0.00000E+00 0.00000E+00 0.00000E+00 0.00000E+00
 -1       571 0.00000E+00 0.00000E+00 0.00000E+00 0.00000E+00 0.00000E+00 0.00000E+00
 -1       572 0.00000E+00 0.00000E+00 0.00000E+00 0.00000E+00 0.00000E+00 0.00000E+00
 -1       573 0.00000E+00 0.00000E+00 0.00000E+00 0.00000E+00 0.00000E+00 0.00000E+00
 -1       574 0.00000E+00 0.00000E+00 0.00000E+00 0.00000E+00 0.00000E+00 0.00000E+00
 -1       575 0.00000E+00 0.00000E+00 0.00000E+00 0.00000E+00 0.00000E+00 0.00000E+00
 -1       576 0.00000E+00 0.00000E+00 0.00000E+00 0.00000E+00 0.00000E+00 0.00000E+00
 -1       577 0.00000E+00 0.00000E+00 0.00000E+00 0.00000E+00 0.00000E+00 0.00000E+00
 -1       578 0.00000E+00 0.00000E+00 0.00000E+00 0.00000E+00 0.00000E+00 0.00000E+00
 -1       579 0.00000E+00 0.00000E+00 0.00000E+00 0.00000E+00 0.00000E+00 0.00000E+00
 -1       580 0.00000E+00 0.00000E+00 0.00000E+00 0.00000E+00 0.00000E+00 0.00000E+00
 -1       581 0.00000E+00 0.00000E+00 0.00000E+00 0.00000E+00 0.00000E+00 0.00000E+00
 -1       582 0.00000E+00 0.00000E+00 0.00000E+00 0.00000E+00 0.00000E+00 0.00000E+00
 -1       583 0.00000E+00 0.00000E+00 0.00000E+00 0.00000E+00 0.00000E+00 0.00000E+00
 -1       584 0.00000E+00 0.00000E+00 0.00000E+00 0.00000E+00 0.00000E+00 0.00000E+00
 -1       585 0.00000E+00 0.00000E+00 0.00000E+00 0.00000E+00 0.00000E+00 0.00000E+00
 -1       586 0.00000E+00 0.00000E+00 0.00000E+00 0.00000E+00 0.00000E+00 0.00000E+00
 -1       587 0.00000E+00 0.00000E+00 0.00000E+00 0.00000E+00 0.00000E+00 0.00000E+00
 -1       588 0.00000E+00 0.00000E+00 0.00000E+00 0.00000E+00 0.00000E+00 0.00000E+00
 -1       589 0.00000E+00 0.00000E+00 0.00000E+00 0.00000E+00 0.00000E+00 0.00000E+00
 -1       590 0.00000E+00 0.00000E+00 0.00000E+00 0.00000E+00 0.00000E+00 0.00000E+00
 -1       591 0.00000E+00 0.00000E+00 0.00000E+00 0.00000E+00 0.00000E+00 0.00000E+00
 -1       592 0.00000E+00 0.00000E+00 0.00000E+00 0.00000E+00 0.00000E+00 0.00000E+00
 -1       593 0.00000E+00 0.00000E+00 0.00000E+00 0.00000E+00 0.00000E+00 0.00000E+00
 -1       594 0.00000E+00 0.00000E+00 0.00000E+00 0.00000E+00 0.00000E+00 0.00000E+00
 -1       595 0.00000E+00 0.00000E+00 0.00000E+00 0.00000E+00 0.00000E+00 0.00000E+00
 -1       596 0.00000E+00 0.00000E+00 0.00000E+00 0.00000E+00 0.00000E+00 0.00000E+00
 -1       597 0.00000E+00 0.00000E+00 0.00000E+00 0.00000E+00 0.00000E+00 0.00000E+00
 -1       598 0.00000E+00 0.00000E+00 0.00000E+00 0.00000E+00 0.00000E+00 0.00000E+00
 -1       599 0.00000E+00 0.00000E+00 0.00000E+00 0.00000E+00 0.00000E+00 0.00000E+00
 -1       600 0.00000E+00 0.00000E+00 0.00000E+00 0.00000E+00 0.00000E+00 0.00000E+00
 -1       601 0.00000E+00 0.00000E+00 0.00000E+00 0.00000E+00 0.00000E+00 0.00000E+00
 -1       602 0.00000E+00 0.00000E+00 0.00000E+00 0.00000E+00 0.00000E+00 0.00000E+00
 -1       603 0.00000E+00 0.00000E+00 0.00000E+00 0.00000E+00 0.00000E+00 0.00000E+00
 -1       604 0.00000E+00 0.00000E+00 0.00000E+00 0.00000E+00 0.00000E+00 0.00000E+00
 -1       605 0.00000E+00 0.00000E+00 0.00000E+00 0.00000E+00 0.00000E+00 0.00000E+00
 -1       606 0.00000E+00 0.00000E+00 0.00000E+00 0.00000E+00 0.00000E+00 0.00000E+00
 -1       607 0.00000E+00 0.00000E+00 0.00000E+00 0.00000E+00 0.00000E+00 0.00000E+00
 -1       608 0.00000E+00 0.00000E+00 0.00000E+00 0.00000E+00 0.00000E+00 0.00000E+00
 -1       609 0.00000E+00 0.00000E+00 0.00000E+00 0.00000E+00 0.00000E+00 0.00000E+00
 -1       610 0.00000E+00 0.00000E+00 0.00000E+00 0.00000E+00 0.00000E+00 0.00000E+00
 -1       611 0.00000E+00 0.00000E+00 0.00000E+00 0.00000E+00 0.00000E+00 0.00000E+00
 -1       612 0.00000E+00 0.00000E+00 0.00000E+00 0.00000E+00 0.00000E+00 0.00000E+00
 -1       613 0.00000E+00 0.00000E+00 0.00000E+00 0.00000E+00 0.00000E+00 0.00000E+00
 -1       614 0.00000E+00 0.00000E+00 0.00000E+00 0.00000E+00 0.00000E+00 0.00000E+00
 -1       615 0.00000E+00 0.00000E+00 0.00000E+00 0.00000E+00 0.00000E+00 0.00000E+00
 -1       616 0.00000E+00 0.00000E+00 0.00000E+00 0.00000E+00 0.00000E+00 0.00000E+00
 -1       617 0.00000E+00 0.00000E+00 0.00000E+00 0.00000E+00 0.00000E+00 0.00000E+00
 -1       618 0.00000E+00 0.00000E+00 0.00000E+00 0.00000E+00 0.00000E+00 0.00000E+00
 -1       619 0.00000E+00 0.00000E+00 0.00000E+00 0.00000E+00 0.00000E+00 0.00000E+00
 -1       620 0.00000E+00 0.00000E+00 0.00000E+00 0.00000E+00 0.00000E+00 0.00000E+00
 -1       621 0.00000E+00 0.00000E+00 0.00000E+00 0.00000E+00 0.00000E+00 0.00000E+00
 -1       622 0.00000E+00 0.00000E+00 0.00000E+00 0.00000E+00 0.00000E+00 0.00000E+00
 -1       623 0.00000E+00 0.00000E+00 0.00000E+00 0.00000E+00 0.00000E+00 0.00000E+00
 -1       624 0.00000E+00 0.00000E+00 0.00000E+00 0.00000E+00 0.00000E+00 0.00000E+00
 -1       625 0.00000E+00 0.00000E+00 0.00000E+00 0.00000E+00 0.00000E+00 0.00000E+00
 -1       626 0.00000E+00 0.00000E+00 0.00000E+00 0.00000E+00 0.00000E+00 0.00000E+00
 -1       627 0.00000E+00 0.00000E+00 0.00000E+00 0.00000E+00 0.00000E+00 0.00000E+00
 -1       628 0.00000E+00 0.00000E+00 0.00000E+00 0.00000E+00 0.00000E+00 0.00000E+00
 -1       629 0.00000E+00 0.00000E+00 0.00000E+00 0.00000E+00 0.00000E+00 0.00000E+00
 -1       630 0.00000E+00 0.00000E+00 0.00000E+00 0.00000E+00 0.00000E+00 0.00000E+00
 -1       631 0.00000E+00 0.00000E+00 0.00000E+00 0.00000E+00 0.00000E+00 0.00000E+00
 -1       632 0.00000E+00 0.00000E+00 0.00000E+00 0.00000E+00 0.00000E+00 0.00000E+00
 -1       633 0.00000E+00 0.00000E+00 0.00000E+00 0.00000E+00 0.00000E+00 0.00000E+00
 -1       634 0.00000E+00 0.00000E+00 0.00000E+00 0.00000E+00 0.00000E+00 0.00000E+00
 -1       635 0.00000E+00 0.00000E+00 0.00000E+00 0.00000E+00 0.00000E+00 0.00000E+00
 -1       636 0.00000E+00 0.00000E+00 0.00000E+00 0.00000E+00 0.00000E+00 0.00000E+00
 -1       637 0.00000E+00 0.00000E+00 0.00000E+00 0.00000E+00 0.00000E+00 0.00000E+00
 -1       638 0.00000E+00 0.00000E+00 0.00000E+00 0.00000E+00 0.00000E+00 0.00000E+00
 -1       639 0.00000E+00 0.00000E+00 0.00000E+00 0.00000E+00 0.00000E+00 0.00000E+00
 -1       640 0.00000E+00 0.00000E+00 0.00000E+00 0.00000E+00 0.00000E+00 0.00000E+00
 -1       641 0.00000E+00 0.00000E+00 0.00000E+00 0.00000E+00 0.00000E+00 0.00000E+00
 -1       642 0.00000E+00 0.00000E+00 0.00000E+00 0.00000E+00 0.00000E+00 0.00000E+00
 -1       643 0.00000E+00 0.00000E+00 0.00000E+00 0.00000E+00 0.00000E+00 0.00000E+00
 -1       644 0.00000E+00 0.00000E+00 0.00000E+00 0.00000E+00 0.00000E+00 0.00000E+00
 -1       645 0.00000E+00 0.00000E+00 0.00000E+00 0.00000E+00 0.00000E+00 0.00000E+00
 -1       646 0.00000E+00 0.00000E+00 0.00000E+00 0.00000E+00 0.00000E+00 0.00000E+00
 -1       647 0.00000E+00 0.00000E+00 0.00000E+00 0.00000E+00 0.00000E+00 0.00000E+00
 -1       648 0.00000E+00 0.00000E+00 0.00000E+00 0.00000E+00 0.00000E+00 0.00000E+00
 -1       649 0.00000E+00 0.00000E+00 0.00000E+00 0.00000E+00 0.00000E+00 0.00000E+00
 -1       650 0.00000E+00 0.00000E+00 0.00000E+00 0.00000E+00 0.00000E+00 0.00000E+00
 -1       651 0.00000E+00 0.00000E+00 0.00000E+00 0.00000E+00 0.00000E+00 0.00000E+00
 -1       652 0.00000E+00 0.00000E+00 0.00000E+00 0.00000E+00 0.00000E+00 0.00000E+00
 -1       653 0.00000E+00 0.00000E+00 0.00000E+00 0.00000E+00 0.00000E+00 0.00000E+00
 -1       654 0.00000E+00 0.00000E+00 0.00000E+00 0.00000E+00 0.00000E+00 0.00000E+00
 -1       655 0.00000E+00 0.00000E+00 0.00000E+00 0.00000E+00 0.00000E+00 0.00000E+00
 -1       656 0.00000E+00 0.00000E+00 0.00000E+00 0.00000E+00 0.00000E+00 0.00000E+00
 -1       657 0.00000E+00 0.00000E+00 0.00000E+00 0.00000E+00 0.00000E+00 0.00000E+00
 -1       658 0.00000E+00 0.00000E+00 0.00000E+00 0.00000E+00 0.00000E+00 0.00000E+00
 -1       659 0.00000E+00 0.00000E+00 0.00000E+00 0.00000E+00 0.00000E+00 0.00000E+00
 -1       660 0.00000E+00 0.00000E+00 0.00000E+00 0.00000E+00 0.00000E+00 0.00000E+00
 -1       661 0.00000E+00 0.00000E+00 0.00000E+00 0.00000E+00 0.00000E+00 0.00000E+00
 -1       662 0.00000E+00 0.00000E+00 0.00000E+00 0.00000E+00 0.00000E+00 0.00000E+00
 -1       663 0.00000E+00 0.00000E+00 0.00000E+00 0.00000E+00 0.00000E+00 0.00000E+00
 -1       664 0.00000E+00 0.00000E+00 0.00000E+00 0.00000E+00 0.00000E+00 0.00000E+00
 -1       665 0.00000E+00 0.00000E+00 0.00000E+00 0.00000E+00 0.00000E+00 0.00000E+00
 -1       666 0.00000E+00 0.00000E+00 0.00000E+00 0.00000E+00 0.00000E+00 0.00000E+00
 -1       667 0.00000E+00 0.00000E+00 0.00000E+00 0.00000E+00 0.00000E+00 0.00000E+00
 -1       668 0.00000E+00 0.00000E+00 0.00000E+00 0.00000E+00 0.00000E+00 0.00000E+00
 -1       669 0.00000E+00 0.00000E+00 0.00000E+00 0.00000E+00 0.00000E+00 0.00000E+00
 -1       670 0.00000E+00 0.00000E+00 0.00000E+00 0.00000E+00 0.00000E+00 0.00000E+00
 -1       671 0.00000E+00 0.00000E+00 0.00000E+00 0.00000E+00 0.00000E+00 0.00000E+00
 -1       672 0.00000E+00 0.00000E+00 0.00000E+00 0.00000E+00 0.00000E+00 0.00000E+00
 -1       673 0.00000E+00 0.00000E+00 0.00000E+00 0.00000E+00 0.00000E+00 0.00000E+00
 -1       674 0.00000E+00 0.00000E+00 0.00000E+00 0.00000E+00 0.00000E+00 0.00000E+00
 -1       675 0.00000E+00 0.00000E+00 0.00000E+00 0.00000E+00 0.00000E+00 0.00000E+00
 -1       676 0.00000E+00 0.00000E+00 0.00000E+00 0.00000E+00 0.00000E+00 0.00000E+00
 -1       677 0.00000E+00 0.00000E+00 0.00000E+00 0.00000E+00 0.00000E+00 0.00000E+00
 -1       678 0.00000E+00 0.00000E+00 0.00000E+00 0.00000E+00 0.00000E+00 0.00000E+00
 -1       679 0.00000E+00 0.00000E+00 0.00000E+00 0.00000E+00 0.00000E+00 0.00000E+00
 -1       680 0.00000E+00 0.00000E+00 0.00000E+00 0.00000E+00 0.00000E+00 0.00000E+00
 -1       681 0.00000E+00 0.00000E+00 0.00000E+00 0.00000E+00 0.00000E+00 0.00000E+00
 -1       682 0.00000E+00 0.00000E+00 0.00000E+00 0.00000E+00 0.00000E+00 0.00000E+00
 -1       683 0.00000E+00 0.00000E+00 0.00000E+00 0.00000E+00 0.00000E+00 0.00000E+00
 -1       684 0.00000E+00 0.00000E+00 0.00000E+00 0.00000E+00 0.00000E+00 0.00000E+00
 -1       685 0.00000E+00 0.00000E+00 0.00000E+00 0.00000E+00 0.00000E+00 0.00000E+00
 -1       686 0.00000E+00 0.00000E+00 0.00000E+00 0.00000E+00 0.00000E+00 0.00000E+00
 -1       687 0.00000E+00 0.00000E+00 0.00000E+00 0.00000E+00 0.00000E+00 0.00000E+00
 -1       688 0.00000E+00 0.00000E+00 0.00000E+00 0.00000E+00 0.00000E+00 0.00000E+00
 -1       689 0.00000E+00 0.00000E+00 0.00000E+00 0.00000E+00 0.00000E+00 0.00000E+00
 -1       690 0.00000E+00 0.00000E+00 0.00000E+00 0.00000E+00 0.00000E+00 0.00000E+00
 -1       691 0.00000E+00 0.00000E+00 0.00000E+00 0.00000E+00 0.00000E+00 0.00000E+00
 -1       692 0.00000E+00 0.00000E+00 0.00000E+00 0.00000E+00 0.00000E+00 0.00000E+00
 -1       693 0.00000E+00 0.00000E+00 0.00000E+00 0.00000E+00 0.00000E+00 0.00000E+00
 -1       694 0.00000E+00 0.00000E+00 0.00000E+00 0.00000E+00 0.00000E+00 0.00000E+00
 -1       695 0.00000E+00 0.00000E+00 0.00000E+00 0.00000E+00 0.00000E+00 0.00000E+00
 -1       696 0.00000E+00 0.00000E+00 0.00000E+00 0.00000E+00 0.00000E+00 0.00000E+00
 -1       697 0.00000E+00 0.00000E+00 0.00000E+00 0.00000E+00 0.00000E+00 0.00000E+00
 -1       698 0.00000E+00 0.00000E+00 0.00000E+00 0.00000E+00 0.00000E+00 0.00000E+00
 -1       699 0.00000E+00 0.00000E+00 0.00000E+00 0.00000E+00 0.00000E+00 0.00000E+00
 -1       700 0.00000E+00 0.00000E+00 0.00000E+00 0.00000E+00 0.00000E+00 0.00000E+00
 -1       701 0.00000E+00 0.00000E+00 0.00000E+00 0.00000E+00 0.00000E+00 0.00000E+00
 -1       702 0.00000E+00 0.00000E+00 0.00000E+00 0.00000E+00 0.00000E+00 0.00000E+00
 -1       703 0.00000E+00 0.00000E+00 0.00000E+00 0.00000E+00 0.00000E+00 0.00000E+00
 -1       704 0.00000E+00 0.00000E+00 0.00000E+00 0.00000E+00 0.00000E+00 0.00000E+00
 -1       705 0.00000E+00 0.00000E+00 0.00000E+00 0.00000E+00 0.00000E+00 0.00000E+00
 -1       706 0.00000E+00 0.00000E+00 0.00000E+00 0.00000E+00 0.00000E+00 0.00000E+00
 -1       707 0.00000E+00 0.00000E+00 0.00000E+00 0.00000E+00 0.00000E+00 0.00000E+00
 -1       708 0.00000E+00 0.00000E+00 0.00000E+00 0.00000E+00 0.00000E+00 0.00000E+00
 -1       709 0.00000E+00 0.00000E+00 0.00000E+00 0.00000E+00 0.00000E+00 0.00000E+00
 -1       710 0.00000E+00 0.00000E+00 0.00000E+00 0.00000E+00 0.00000E+00 0.00000E+00
 -1       711 0.00000E+00 0.00000E+00 0.00000E+00 0.00000E+00 0.00000E+00 0.00000E+00
 -1       712 0.00000E+00 0.00000E+00 0.00000E+00 0.00000E+00 0.00000E+00 0.00000E+00
 -1       713 0.00000E+00 0.00000E+00 0.00000E+00 0.00000E+00 0.00000E+00 0.00000E+00
 -1       714 0.00000E+00 0.00000E+00 0.00000E+00 0.00000E+00 0.00000E+00 0.00000E+00
 -1       715 0.00000E+00 0.00000E+00 0.00000E+00 0.00000E+00 0.00000E+00 0.00000E+00
 -1       716 0.00000E+00 0.00000E+00 0.00000E+00 0.00000E+00 0.00000E+00 0.00000E+00
 -1       717 0.00000E+00 0.00000E+00 0.00000E+00 0.00000E+00 0.00000E+00 0.00000E+00
 -1       718 0.00000E+00 0.00000E+00 0.00000E+00 0.00000E+00 0.00000E+00 0.00000E+00
 -1       719 0.00000E+00 0.00000E+00 0.00000E+00 0.00000E+00 0.00000E+00 0.00000E+00
 -1       720 0.00000E+00 0.00000E+00 0.00000E+00 0.00000E+00 0.00000E+00 0.00000E+00
 -1       721 0.00000E+00 0.00000E+00 0.00000E+00 0.00000E+00 0.00000E+00 0.00000E+00
 -1       722 0.00000E+00 0.00000E+00 0.00000E+00 0.00000E+00 0.00000E+00 0.00000E+00
 -1       723 0.00000E+00 0.00000E+00 0.00000E+00 0.00000E+00 0.00000E+00 0.00000E+00
 -1       724 0.00000E+00 0.00000E+00 0.00000E+00 0.00000E+00 0.00000E+00 0.00000E+00
 -1       725 0.00000E+00 0.00000E+00 0.00000E+00 0.00000E+00 0.00000E+00 0.00000E+00
 -1       726 0.00000E+00 0.00000E+00 0.00000E+00 0.00000E+00 0.00000E+00 0.00000E+00
 -1       727 0.00000E+00 0.00000E+00 0.00000E+00 0.00000E+00 0.00000E+00 0.00000E+00
 -1       728 0.00000E+00 0.00000E+00 0.00000E+00 0.00000E+00 0.00000E+00 0.00000E+00
 -1       729 0.00000E+00 0.00000E+00 0.00000E+00 0.00000E+00 0.00000E+00 0.00000E+00
 -1       730 0.00000E+00 0.00000E+00 0.00000E+00 0.00000E+00 0.00000E+00 0.00000E+00
 -1       731 0.00000E+00 0.00000E+00 0.00000E+00 0.00000E+00 0.00000E+00 0.00000E+00
 -1       732 0.00000E+00 0.00000E+00 0.00000E+00 0.00000E+00 0.00000E+00 0.00000E+00
 -1       733 0.00000E+00 0.00000E+00 0.00000E+00 0.00000E+00 0.00000E+00 0.00000E+00
 -1       734 0.00000E+00 0.00000E+00 0.00000E+00 0.00000E+00 0.00000E+00 0.00000E+00
 -1       735 0.00000E+00 0.00000E+00 0.00000E+00 0.00000E+00 0.00000E+00 0.00000E+00
 -1       736 0.00000E+00 0.00000E+00 0.00000E+00 0.00000E+00 0.00000E+00 0.00000E+00
 -1       737 0.00000E+00 0.00000E+00 0.00000E+00 0.00000E+00 0.00000E+00 0.00000E+00
 -1       738 0.00000E+00 0.00000E+00 0.00000E+00 0.00000E+00 0.00000E+00 0.00000E+00
 -1       739 0.00000E+00 0.00000E+00 0.00000E+00 0.00000E+00 0.00000E+00 0.00000E+00
 -1       740 0.00000E+00 0.00000E+00 0.00000E+00 0.00000E+00 0.00000E+00 0.00000E+00
 -1       741 0.00000E+00 0.00000E+00 0.00000E+00 0.00000E+00 0.00000E+00 0.00000E+00
 -1       742 0.00000E+00 0.00000E+00 0.00000E+00 0.00000E+00 0.00000E+00 0.00000E+00
 -1       743 0.00000E+00 0.00000E+00 0.00000E+00 0.00000E+00 0.00000E+00 0.00000E+00
 -1       744 0.00000E+00 0.00000E+00 0.00000E+00 0.00000E+00 0.00000E+00 0.00000E+00
 -1       745 0.00000E+00 0.00000E+00 0.00000E+00 0.00000E+00 0.00000E+00 0.00000E+00
 -1       746 0.00000E+00 0.00000E+00 0.00000E+00 0.00000E+00 0.00000E+00 0.00000E+00
 -1       747 0.00000E+00 0.00000E+00 0.00000E+00 0.00000E+00 0.00000E+00 0.00000E+00
 -1       748 0.00000E+00 0.00000E+00 0.00000E+00 0.00000E+00 0.00000E+00 0.00000E+00
 -1       749 0.00000E+00 0.00000E+00 0.00000E+00 0.00000E+00 0.00000E+00 0.00000E+00
 -1       750 0.00000E+00 0.00000E+00 0.00000E+00 0.00000E+00 0.00000E+00 0.00000E+00
 -1       751 0.00000E+00 0.00000E+00 0.00000E+00 0.00000E+00 0.00000E+00 0.00000E+00
 -1       752 0.00000E+00 0.00000E+00 0.00000E+00 0.00000E+00 0.00000E+00 0.00000E+00
 -1       753 0.00000E+00 0.00000E+00 0.00000E+00 0.00000E+00 0.00000E+00 0.00000E+00
 -1       754 0.00000E+00 0.00000E+00 0.00000E+00 0.00000E+00 0.00000E+00 0.00000E+00
 -1       755 0.00000E+00 0.00000E+00 0.00000E+00 0.00000E+00 0.00000E+00 0.00000E+00
 -1       756 0.00000E+00 0.00000E+00 0.00000E+00 0.00000E+00 0.00000E+00 0.00000E+00
 -1       757 0.00000E+00 0.00000E+00 0.00000E+00 0.00000E+00 0.00000E+00 0.00000E+00
 -1       758 0.00000E+00 0.00000E+00 0.00000E+00 0.00000E+00 0.00000E+00 0.00000E+00
 -1       759 0.00000E+00 0.00000E+00 0.00000E+00 0.00000E+00 0.00000E+00 0.00000E+00
 -1       760 0.00000E+00 0.00000E+00 0.00000E+00 0.00000E+00 0.00000E+00 0.00000E+00
 -1       761 0.00000E+00 0.00000E+00 0.00000E+00 0.00000E+00 0.00000E+00 0.00000E+00
 -1       762 0.00000E+00 0.00000E+00 0.00000E+00 0.00000E+00 0.00000E+00 0.00000E+00
 -1       763 0.00000E+00 0.00000E+00 0.00000E+00 0.00000E+00 0.00000E+00 0.00000E+00
 -1       764 0.00000E+00 0.00000E+00 0.00000E+00 0.00000E+00 0.00000E+00 0.00000E+00
 -1       765 0.00000E+00 0.00000E+00 0.00000E+00 0.00000E+00 0.00000E+00 0.00000E+00
 -1       766 0.00000E+00 0.00000E+00 0.00000E+00 0.00000E+00 0.00000E+00 0.00000E+00
 -1       767 0.00000E+00 0.00000E+00 0.00000E+00 0.00000E+00 0.00000E+00 0.00000E+00
 -1       768 0.00000E+00 0.00000E+00 0.00000E+00 0.00000E+00 0.00000E+00 0.00000E+00
 -1       769 0.00000E+00 0.00000E+00 0.00000E+00 0.00000E+00 0.00000E+00 0.00000E+00
 -1       770 0.00000E+00 0.00000E+00 0.00000E+00 0.00000E+00 0.00000E+00 0.00000E+00
 -1       771 0.00000E+00 0.00000E+00 0.00000E+00 0.00000E+00 0.00000E+00 0.00000E+00
 -1       772 0.00000E+00 0.00000E+00 0.00000E+00 0.00000E+00 0.00000E+00 0.00000E+00
 -1       773 0.00000E+00 0.00000E+00 0.00000E+00 0.00000E+00 0.00000E+00 0.00000E+00
 -1       774 0.00000E+00 0.00000E+00 0.00000E+00 0.00000E+00 0.00000E+00 0.00000E+00
 -1       775 0.00000E+00 0.00000E+00 0.00000E+00 0.00000E+00 0.00000E+00 0.00000E+00
 -1       776 0.00000E+00 0.00000E+00 0.00000E+00 0.00000E+00 0.00000E+00 0.00000E+00
 -1       777 0.00000E+00 0.00000E+00 0.00000E+00 0.00000E+00 0.00000E+00 0.00000E+00
 -1       778 0.00000E+00 0.00000E+00 0.00000E+00 0.00000E+00 0.00000E+00 0.00000E+00
 -1       779 0.00000E+00 0.00000E+00 0.00000E+00 0.00000E+00 0.00000E+00 0.00000E+00
 -1       780 0.00000E+00 0.00000E+00 0.00000E+00 0.00000E+00 0.00000E+00 0.00000E+00
 -1       781 0.00000E+00 0.00000E+00 0.00000E+00 0.00000E+00 0.00000E+00 0.00000E+00
 -1       782 0.00000E+00 0.00000E+00 0.00000E+00 0.00000E+00 0.00000E+00 0.00000E+00
 -1       783 0.00000E+00 0.00000E+00 0.00000E+00 0.00000E+00 0.00000E+00 0.00000E+00
 -1       784 0.00000E+00 0.00000E+00 0.00000E+00 0.00000E+00 0.00000E+00 0.00000E+00
 -1       785 0.00000E+00 0.00000E+00 0.00000E+00 0.00000E+00 0.00000E+00 0.00000E+00
 -1       786 0.00000E+00 0.00000E+00 0.00000E+00 0.00000E+00 0.00000E+00 0.00000E+00
 -1       787 0.00000E+00 0.00000E+00 0.00000E+00 0.00000E+00 0.00000E+00 0.00000E+00
 -1       788 0.00000E+00 0.00000E+00 0.00000E+00 0.00000E+00 0.00000E+00 0.00000E+00
 -1       789 0.00000E+00 0.00000E+00 0.00000E+00 0.00000E+00 0.00000E+00 0.00000E+00
 -1       790 0.00000E+00 0.00000E+00 0.00000E+00 0.00000E+00 0.00000E+00 0.00000E+00
 -1       791 0.00000E+00 0.00000E+00 0.00000E+00 0.00000E+00 0.00000E+00 0.00000E+00
 -1       792 0.00000E+00 0.00000E+00 0.00000E+00 0.00000E+00 0.00000E+00 0.00000E+00
 -1       793 0.00000E+00 0.00000E+00 0.00000E+00 0.00000E+00 0.00000E+00 0.00000E+00
 -1       794 0.00000E+00 0.00000E+00 0.00000E+00 0.00000E+00 0.00000E+00 0.00000E+00
 -1       795 0.00000E+00 0.00000E+00 0.00000E+00 0.00000E+00 0.00000E+00 0.00000E+00
 -1       796 0.00000E+00 0.00000E+00 0.00000E+00 0.00000E+00 0.00000E+00 0.00000E+00
 -1       797 0.00000E+00 0.00000E+00 0.00000E+00 0.00000E+00 0.00000E+00 0.00000E+00
 -1       798 0.00000E+00 0.00000E+00 0.00000E+00 0.00000E+00 0.00000E+00 0.00000E+00
 -1       799 0.00000E+00 0.00000E+00 0.00000E+00 0.00000E+00 0.00000E+00 0.00000E+00
 -1       800 0.00000E+00 0.00000E+00 0.00000E+00 0.00000E+00 0.00000E+00 0.00000E+00
 -1       801 0.00000E+00 0.00000E+00 0.00000E+00 0.00000E+00 0.00000E+00 0.00000E+00
 -1       802 0.00000E+00 0.00000E+00 0.00000E+00 0.00000E+00 0.00000E+00 0.00000E+00
 -1       803 0.00000E+00 0.00000E+00 0.00000E+00 0.00000E+00 0.00000E+00 0.00000E+00
 -1       804 0.00000E+00 0.00000E+00 0.00000E+00 0.00000E+00 0.00000E+00 0.00000E+00
 -1       805 0.00000E+00 0.00000E+00 0.00000E+00 0.00000E+00 0.00000E+00 0.00000E+00
 -1       806 0.00000E+00 0.00000E+00 0.00000E+00 0.00000E+00 0.00000E+00 0.00000E+00
 -1       807 0.00000E+00 0.00000E+00 0.00000E+00 0.00000E+00 0.00000E+00 0.00000E+00
 -1       808 0.00000E+00 0.00000E+00 0.00000E+00 0.00000E+00 0.00000E+00 0.00000E+00
 -1       809 0.00000E+00 0.00000E+00 0.00000E+00 0.00000E+00 0.00000E+00 0.00000E+00
 -1       810 0.00000E+00 0.00000E+00 0.00000E+00 0.00000E+00 0.00000E+00 0.00000E+00
 -1       811 0.00000E+00 0.00000E+00 0.00000E+00 0.00000E+00 0.00000E+00 0.00000E+00
 -1       812 0.00000E+00 0.00000E+00 0.00000E+00 0.00000E+00 0.00000E+00 0.00000E+00
 -1       813 0.00000E+00 0.00000E+00 0.00000E+00 0.00000E+00 0.00000E+00 0.00000E+00
 -1       814 0.00000E+00 0.00000E+00 0.00000E+00 0.00000E+00 0.00000E+00 0.00000E+00
 -1       815 0.00000E+00 0.00000E+00 0.00000E+00 0.00000E+00 0.00000E+00 0.00000E+00
 -1       816 0.00000E+00 0.00000E+00 0.00000E+00 0.00000E+00 0.00000E+00 0.00000E+00
 -1       817 0.00000E+00 0.00000E+00 0.00000E+00 0.00000E+00 0.00000E+00 0.00000E+00
 -1       818 0.00000E+00 0.00000E+00 0.00000E+00 0.00000E+00 0.00000E+00 0.00000E+00
 -1       819 0.00000E+00 0.00000E+00 0.00000E+00 0.00000E+00 0.00000E+00 0.00000E+00
 -1       820 0.00000E+00 0.00000E+00 0.00000E+00 0.00000E+00 0.00000E+00 0.00000E+00
 -1       821 0.00000E+00 0.00000E+00 0.00000E+00 0.00000E+00 0.00000E+00 0.00000E+00
 -1       822 0.00000E+00 0.00000E+00 0.00000E+00 0.00000E+00 0.00000E+00 0.00000E+00
 -1       823 0.00000E+00 0.00000E+00 0.00000E+00 0.00000E+00 0.00000E+00 0.00000E+00
 -1       824 0.00000E+00 0.00000E+00 0.00000E+00 0.00000E+00 0.00000E+00 0.00000E+00
 -1       825 0.00000E+00 0.00000E+00 0.00000E+00 0.00000E+00 0.00000E+00 0.00000E+00
 -1       826 0.00000E+00 0.00000E+00 0.00000E+00 0.00000E+00 0.00000E+00 0.00000E+00
 -1       827 0.00000E+00 0.00000E+00 0.00000E+00 0.00000E+00 0.00000E+00 0.00000E+00
 -1       828 0.00000E+00 0.00000E+00 0.00000E+00 0.00000E+00 0.00000E+00 0.00000E+00
 -1       829 0.00000E+00 0.00000E+00 0.00000E+00 0.00000E+00 0.00000E+00 0.00000E+00
 -1       830 0.00000E+00 0.00000E+00 0.00000E+00 0.00000E+00 0.00000E+00 0.00000E+00
 -1       831 0.00000E+00 0.00000E+00 0.00000E+00 0.00000E+00 0.00000E+00 0.00000E+00
 -1       832 0.00000E+00 0.00000E+00 0.00000E+00 0.00000E+00 0.00000E+00 0.00000E+00
 -1       833 0.00000E+00 0.00000E+00 0.00000E+00 0.00000E+00 0.00000E+00 0.00000E+00
 -1       834 0.00000E+00 0.00000E+00 0.00000E+00 0.00000E+00 0.00000E+00 0.00000E+00
 -1       835 0.00000E+00 0.00000E+00 0.00000E+00 0.00000E+00 0.00000E+00 0.00000E+00
 -1       836 0.00000E+00 0.00000E+00 0.00000E+00 0.00000E+00 0.00000E+00 0.00000E+00
 -1       837 0.00000E+00 0.00000E+00 0.00000E+00 0.00000E+00 0.00000E+00 0.00000E+00
 -1       838 0.00000E+00 0.00000E+00 0.00000E+00 0.00000E+00 0.00000E+00 0.00000E+00
 -1       839 0.00000E+00 0.00000E+00 0.00000E+00 0.00000E+00 0.00000E+00 0.00000E+00
 -1       840 0.00000E+00 0.00000E+00 0.00000E+00 0.00000E+00 0.00000E+00 0.00000E+00
 -1       841 0.00000E+00 0.00000E+00 0.00000E+00 0.00000E+00 0.00000E+00 0.00000E+00
 -1       842 0.00000E+00 0.00000E+00 0.00000E+00 0.00000E+00 0.00000E+00 0.00000E+00
 -1       843 0.00000E+00 0.00000E+00 0.00000E+00 0.00000E+00 0.00000E+00 0.00000E+00
 -1       844 0.00000E+00 0.00000E+00 0.00000E+00 0.00000E+00 0.00000E+00 0.00000E+00
 -1       845 0.00000E+00 0.00000E+00 0.00000E+00 0.00000E+00 0.00000E+00 0.00000E+00
 -1       846 0.00000E+00 0.00000E+00 0.00000E+00 0.00000E+00 0.00000E+00 0.00000E+00
 -1       847 0.00000E+00 0.00000E+00 0.00000E+00 0.00000E+00 0.00000E+00 0.00000E+00
 -1       848 0.00000E+00 0.00000E+00 0.00000E+00 0.00000E+00 0.00000E+00 0.00000E+00
 -1       849 0.00000E+00 0.00000E+00 0.00000E+00 0.00000E+00 0.00000E+00 0.00000E+00
 -1       850 0.00000E+00 0.00000E+00 0.00000E+00 0.00000E+00 0.00000E+00 0.00000E+00
 -1       851 0.00000E+00 0.00000E+00 0.00000E+00 0.00000E+00 0.00000E+00 0.00000E+00
 -1       852 0.00000E+00 0.00000E+00 0.00000E+00 0.00000E+00 0.00000E+00 0.00000E+00
 -1       853 0.00000E+00 0.00000E+00 0.00000E+00 0.00000E+00 0.00000E+00 0.00000E+00
 -1       854 0.00000E+00 0.00000E+00 0.00000E+00 0.00000E+00 0.00000E+00 0.00000E+00
 -1       855 0.00000E+00 0.00000E+00 0.00000E+00 0.00000E+00 0.00000E+00 0.00000E+00
 -1       856 0.00000E+00 0.00000E+00 0.00000E+00 0.00000E+00 0.00000E+00 0.00000E+00
 -1       857 0.00000E+00 0.00000E+00 0.00000E+00 0.00000E+00 0.00000E+00 0.00000E+00
 -1       858 0.00000E+00 0.00000E+00 0.00000E+00 0.00000E+00 0.00000E+00 0.00000E+00
 -1       859 0.00000E+00 0.00000E+00 0.00000E+00 0.00000E+00 0.00000E+00 0.00000E+00
 -1       860 0.00000E+00 0.00000E+00 0.00000E+00 0.00000E+00 0.00000E+00 0.00000E+00
 -1       861 0.00000E+00 0.00000E+00 0.00000E+00 0.00000E+00 0.00000E+00 0.00000E+00
 -1       862 0.00000E+00 0.00000E+00 0.00000E+00 0.00000E+00 0.00000E+00 0.00000E+00
 -1       863 0.00000E+00 0.00000E+00 0.00000E+00 0.00000E+00 0.00000E+00 0.00000E+00
 -1       864 0.00000E+00 0.00000E+00 0.00000E+00 0.00000E+00 0.00000E+00 0.00000E+00
 -1       865 0.00000E+00 0.00000E+00 0.00000E+00 0.00000E+00 0.00000E+00 0.00000E+00
 -1       866 0.00000E+00 0.00000E+00 0.00000E+00 0.00000E+00 0.00000E+00 0.00000E+00
 -1       867 0.00000E+00 0.00000E+00 0.00000E+00 0.00000E+00 0.00000E+00 0.00000E+00
 -1       868 0.00000E+00 0.00000E+00 0.00000E+00 0.00000E+00 0.00000E+00 0.00000E+00
 -1       869 0.00000E+00 0.00000E+00 0.00000E+00 0.00000E+00 0.00000E+00 0.00000E+00
 -1       870 0.00000E+00 0.00000E+00 0.00000E+00 0.00000E+00 0.00000E+00 0.00000E+00
 -1       871 0.00000E+00 0.00000E+00 0.00000E+00 0.00000E+00 0.00000E+00 0.00000E+00
 -1       872 0.00000E+00 0.00000E+00 0.00000E+00 0.00000E+00 0.00000E+00 0.00000E+00
 -1       873 0.00000E+00 0.00000E+00 0.00000E+00 0.00000E+00 0.00000E+00 0.00000E+00
 -1       874 0.00000E+00 0.00000E+00 0.00000E+00 0.00000E+00 0.00000E+00 0.00000E+00
 -1       875 0.00000E+00 0.00000E+00 0.00000E+00 0.00000E+00 0.00000E+00 0.00000E+00
 -1       876 0.00000E+00 0.00000E+00 0.00000E+00 0.00000E+00 0.00000E+00 0.00000E+00
 -1       877 0.00000E+00 0.00000E+00 0.00000E+00 0.00000E+00 0.00000E+00 0.00000E+00
 -1       878 0.00000E+00 0.00000E+00 0.00000E+00 0.00000E+00 0.00000E+00 0.00000E+00
 -1       879 0.00000E+00 0.00000E+00 0.00000E+00 0.00000E+00 0.00000E+00 0.00000E+00
 -1       880 0.00000E+00 0.00000E+00 0.00000E+00 0.00000E+00 0.00000E+00 0.00000E+00
 -1       881 0.00000E+00 0.00000E+00 0.00000E+00 0.00000E+00 0.00000E+00 0.00000E+00
 -1       882 0.00000E+00 0.00000E+00 0.00000E+00 0.00000E+00 0.00000E+00 0.00000E+00
 -1       883 0.00000E+00 0.00000E+00 0.00000E+00 0.00000E+00 0.00000E+00 0.00000E+00
 -1       884 0.00000E+00 0.00000E+00 0.00000E+00 0.00000E+00 0.00000E+00 0.00000E+00
 -1       885 0.00000E+00 0.00000E+00 0.00000E+00 0.00000E+00 0.00000E+00 0.00000E+00
 -1       886 0.00000E+00 0.00000E+00 0.00000E+00 0.00000E+00 0.00000E+00 0.00000E+00
 -1       887 0.00000E+00 0.00000E+00 0.00000E+00 0.00000E+00 0.00000E+00 0.00000E+00
 -1       888 0.00000E+00 0.00000E+00 0.00000E+00 0.00000E+00 0.00000E+00 0.00000E+00
 -1       889 0.00000E+00 0.00000E+00 0.00000E+00 0.00000E+00 0.00000E+00 0.00000E+00
 -1       890 0.00000E+00 0.00000E+00 0.00000E+00 0.00000E+00 0.00000E+00 0.00000E+00
 -1       891 0.00000E+00 0.00000E+00 0.00000E+00 0.00000E+00 0.00000E+00 0.00000E+00
 -1       892 0.00000E+00 0.00000E+00 0.00000E+00 0.00000E+00 0.00000E+00 0.00000E+00
 -1       893 0.00000E+00 0.00000E+00 0.00000E+00 0.00000E+00 0.00000E+00 0.00000E+00
 -1       894 0.00000E+00 0.00000E+00 0.00000E+00 0.00000E+00 0.00000E+00 0.00000E+00
 -1       895 0.00000E+00 0.00000E+00 0.00000E+00 0.00000E+00 0.00000E+00 0.00000E+00
 -1       896 0.00000E+00 0.00000E+00 0.00000E+00 0.00000E+00 0.00000E+00 0.00000E+00
 -1       897 0.00000E+00 0.00000E+00 0.00000E+00 0.00000E+00 0.00000E+00 0.00000E+00
 -1       898 0.00000E+00 0.00000E+00 0.00000E+00 0.00000E+00 0.00000E+00 0.00000E+00
 -1       899 0.00000E+00 0.00000E+00 0.00000E+00 0.00000E+00 0.00000E+00 0.00000E+00
 -1       900 0.00000E+00 0.00000E+00 0.00000E+00 0.00000E+00 0.00000E+00 0.00000E+00
 -1       901 0.00000E+00 0.00000E+00 0.00000E+00 0.00000E+00 0.00000E+00 0.00000E+00
 -1       902 0.00000E+00 0.00000E+00 0.00000E+00 0.00000E+00 0.00000E+00 0.00000E+00
 -1       903 0.00000E+00 0.00000E+00 0.00000E+00 0.00000E+00 0.00000E+00 0.00000E+00
 -1       904 0.00000E+00 0.00000E+00 0.00000E+00 0.00000E+00 0.00000E+00 0.00000E+00
 -1       905 0.00000E+00 0.00000E+00 0.00000E+00 0.00000E+00 0.00000E+00 0.00000E+00
 -1       906 0.00000E+00 0.00000E+00 0.00000E+00 0.00000E+00 0.00000E+00 0.00000E+00
 -1       907 0.00000E+00 0.00000E+00 0.00000E+00 0.00000E+00 0.00000E+00 0.00000E+00
 -1       908 0.00000E+00 0.00000E+00 0.00000E+00 0.00000E+00 0.00000E+00 0.00000E+00
 -1       909 0.00000E+00 0.00000E+00 0.00000E+00 0.00000E+00 0.00000E+00 0.00000E+00
 -1       910 0.00000E+00 0.00000E+00 0.00000E+00 0.00000E+00 0.00000E+00 0.00000E+00
 -1       911 0.00000E+00 0.00000E+00 0.00000E+00 0.00000E+00 0.00000E+00 0.00000E+00
 -1       912 0.00000E+00 0.00000E+00 0.00000E+00 0.00000E+00 0.00000E+00 0.00000E+00
 -1       913 0.00000E+00 0.00000E+00 0.00000E+00 0.00000E+00 0.00000E+00 0.00000E+00
 -1       914 0.00000E+00 0.00000E+00 0.00000E+00 0.00000E+00 0.00000E+00 0.00000E+00
 -1       915 0.00000E+00 0.00000E+00 0.00000E+00 0.00000E+00 0.00000E+00 0.00000E+00
 -1       916 0.00000E+00 0.00000E+00 0.00000E+00 0.00000E+00 0.00000E+00 0.00000E+00
 -1       917 0.00000E+00 0.00000E+00 0.00000E+00 0.00000E+00 0.00000E+00 0.00000E+00
 -1       918 0.00000E+00 0.00000E+00 0.00000E+00 0.00000E+00 0.00000E+00 0.00000E+00
 -1       919 0.00000E+00 0.00000E+00 0.00000E+00 0.00000E+00 0.00000E+00 0.00000E+00
 -1       920 0.00000E+00 0.00000E+00 0.00000E+00 0.00000E+00 0.00000E+00 0.00000E+00
 -1       921 0.00000E+00 0.00000E+00 0.00000E+00 0.00000E+00 0.00000E+00 0.00000E+00
 -1       922 0.00000E+00 0.00000E+00 0.00000E+00 0.00000E+00 0.00000E+00 0.00000E+00
 -1       923 0.00000E+00 0.00000E+00 0.00000E+00 0.00000E+00 0.00000E+00 0.00000E+00
 -1       924 0.00000E+00 0.00000E+00 0.00000E+00 0.00000E+00 0.00000E+00 0.00000E+00
 -1       925 0.00000E+00 0.00000E+00 0.00000E+00 0.00000E+00 0.00000E+00 0.00000E+00
 -1       926 0.00000E+00 0.00000E+00 0.00000E+00 0.00000E+00 0.00000E+00 0.00000E+00
 -1       927 0.00000E+00 0.00000E+00 0.00000E+00 0.00000E+00 0.00000E+00 0.00000E+00
 -1       928 0.00000E+00 0.00000E+00 0.00000E+00 0.00000E+00 0.00000E+00 0.00000E+00
 -1       929 0.00000E+00 0.00000E+00 0.00000E+00 0.00000E+00 0.00000E+00 0.00000E+00
 -1       930 0.00000E+00 0.00000E+00 0.00000E+00 0.00000E+00 0.00000E+00 0.00000E+00
 -1       931 0.00000E+00 0.00000E+00 0.00000E+00 0.00000E+00 0.00000E+00 0.00000E+00
 -1       932 0.00000E+00 0.00000E+00 0.00000E+00 0.00000E+00 0.00000E+00 0.00000E+00
 -1       933 0.00000E+00 0.00000E+00 0.00000E+00 0.00000E+00 0.00000E+00 0.00000E+00
 -1       934 0.00000E+00 0.00000E+00 0.00000E+00 0.00000E+00 0.00000E+00 0.00000E+00
 -1       935 0.00000E+00 0.00000E+00 0.00000E+00 0.00000E+00 0.00000E+00 0.00000E+00
 -1       936 0.00000E+00 0.00000E+00 0.00000E+00 0.00000E+00 0.00000E+00 0.00000E+00
 -1       937 0.00000E+00 0.00000E+00 0.00000E+00 0.00000E+00 0.00000E+00 0.00000E+00
 -1       938 0.00000E+00 0.00000E+00 0.00000E+00 0.00000E+00 0.00000E+00 0.00000E+00
 -1       939 0.00000E+00 0.00000E+00 0.00000E+00 0.00000E+00 0.00000E+00 0.00000E+00
 -1       940 0.00000E+00 0.00000E+00 0.00000E+00 0.00000E+00 0.00000E+00 0.00000E+00
 -1       941 0.00000E+00 0.00000E+00 0.00000E+00 0.00000E+00 0.00000E+00 0.00000E+00
 -1       942 0.00000E+00 0.00000E+00 0.00000E+00 0.00000E+00 0.00000E+00 0.00000E+00
 -1       943 0.00000E+00 0.00000E+00 0.00000E+00 0.00000E+00 0.00000E+00 0.00000E+00
 -1       944 0.00000E+00 0.00000E+00 0.00000E+00 0.00000E+00 0.00000E+00 0.00000E+00
 -1       945 0.00000E+00 0.00000E+00 0.00000E+00 0.00000E+00 0.00000E+00 0.00000E+00
 -1       946 0.00000E+00 0.00000E+00 0.00000E+00 0.00000E+00 0.00000E+00 0.00000E+00
 -1       947 0.00000E+00 0.00000E+00 0.00000E+00 0.00000E+00 0.00000E+00 0.00000E+00
 -1       948 0.00000E+00 0.00000E+00 0.00000E+00 0.00000E+00 0.00000E+00 0.00000E+00
 -1       949 0.00000E+00 0.00000E+00 0.00000E+00 0.00000E+00 0.00000E+00 0.00000E+00
 -1       950 0.00000E+00 0.00000E+00 0.00000E+00 0.00000E+00 0.00000E+00 0.00000E+00
 -1       951 0.00000E+00 0.00000E+00 0.00000E+00 0.00000E+00 0.00000E+00 0.00000E+00
 -1       952 0.00000E+00 0.00000E+00 0.00000E+00 0.00000E+00 0.00000E+00 0.00000E+00
 -1       953 0.00000E+00 0.00000E+00 0.00000E+00 0.00000E+00 0.00000E+00 0.00000E+00
 -1       954 0.00000E+00 0.00000E+00 0.00000E+00 0.00000E+00 0.00000E+00 0.00000E+00
 -1       955 0.00000E+00 0.00000E+00 0.00000E+00 0.00000E+00 0.00000E+00 0.00000E+00
 -1       956 0.00000E+00 0.00000E+00 0.00000E+00 0.00000E+00 0.00000E+00 0.00000E+00
 -1       957 0.00000E+00 0.00000E+00 0.00000E+00 0.00000E+00 0.00000E+00 0.00000E+00
 -1       958 0.00000E+00 0.00000E+00 0.00000E+00 0.00000E+00 0.00000E+00 0.00000E+00
 -1       959 0.00000E+00 0.00000E+00 0.00000E+00 0.00000E+00 0.00000E+00 0.00000E+00
 -1       960 0.00000E+00 0.00000E+00 0.00000E+00 0.00000E+00 0.00000E+00 0.00000E+00
 -1       961 0.00000E+00 0.00000E+00 0.00000E+00 0.00000E+00 0.00000E+00 0.00000E+00
 -1       962 0.00000E+00 0.00000E+00 0.00000E+00 0.00000E+00 0.00000E+00 0.00000E+00
 -1       963 0.00000E+00 0.00000E+00 0.00000E+00 0.00000E+00 0.00000E+00 0.00000E+00
 -1       964 0.00000E+00 0.00000E+00 0.00000E+00 0.00000E+00 0.00000E+00 0.00000E+00
 -1       965 0.00000E+00 0.00000E+00 0.00000E+00 0.00000E+00 0.00000E+00 0.00000E+00
 -1       966 0.00000E+00 0.00000E+00 0.00000E+00 0.00000E+00 0.00000E+00 0.00000E+00
 -1       967 0.00000E+00 0.00000E+00 0.00000E+00 0.00000E+00 0.00000E+00 0.00000E+00
 -1       968 0.00000E+00 0.00000E+00 0.00000E+00 0.00000E+00 0.00000E+00 0.00000E+00
 -1       969 0.00000E+00 0.00000E+00 0.00000E+00 0.00000E+00 0.00000E+00 0.00000E+00
 -1       970 0.00000E+00 0.00000E+00 0.00000E+00 0.00000E+00 0.00000E+00 0.00000E+00
 -1       971 0.00000E+00 0.00000E+00 0.00000E+00 0.00000E+00 0.00000E+00 0.00000E+00
 -1       972 0.00000E+00 0.00000E+00 0.00000E+00 0.00000E+00 0.00000E+00 0.00000E+00
 -1       973 0.00000E+00 0.00000E+00 0.00000E+00 0.00000E+00 0.00000E+00 0.00000E+00
 -1       974 0.00000E+00 0.00000E+00 0.00000E+00 0.00000E+00 0.00000E+00 0.00000E+00
 -1       975 0.00000E+00 0.00000E+00 0.00000E+00 0.00000E+00 0.00000E+00 0.00000E+00
 -1       976 0.00000E+00 0.00000E+00 0.00000E+00 0.00000E+00 0.00000E+00 0.00000E+00
 -1       977 0.00000E+00 0.00000E+00 0.00000E+00 0.00000E+00 0.00000E+00 0.00000E+00
 -1       978 0.00000E+00 0.00000E+00 0.00000E+00 0.00000E+00 0.00000E+00 0.00000E+00
 -1       979 0.00000E+00 0.00000E+00 0.00000E+00 0.00000E+00 0.00000E+00 0.00000E+00
 -1       980 0.00000E+00 0.00000E+00 0.00000E+00 0.00000E+00 0.00000E+00 0.00000E+00
 -1       981 0.00000E+00 0.00000E+00 0.00000E+00 0.00000E+00 0.00000E+00 0.00000E+00
 -1       982 0.00000E+00 0.00000E+00 0.00000E+00 0.00000E+00 0.00000E+00 0.00000E+00
 -1       983 0.00000E+00 0.00000E+00 0.00000E+00 0.00000E+00 0.00000E+00 0.00000E+00
 -1       984 0.00000E+00 0.00000E+00 0.00000E+00 0.00000E+00 0.00000E+00 0.00000E+00
 -1       985 0.00000E+00 0.00000E+00 0.00000E+00 0.00000E+00 0.00000E+00 0.00000E+00
 -1       986 0.00000E+00 0.00000E+00 0.00000E+00 0.00000E+00 0.00000E+00 0.00000E+00
 -1       987 0.00000E+00 0.00000E+00 0.00000E+00 0.00000E+00 0.00000E+00 0.00000E+00
 -1       988 0.00000E+00 0.00000E+00 0.00000E+00 0.00000E+00 0.00000E+00 0.00000E+00
 -1       989 0.00000E+00 0.00000E+00 0.00000E+00 0.00000E+00 0.00000E+00 0.00000E+00
 -1       990 0.00000E+00 0.00000E+00 0.00000E+00 0.00000E+00 0.00000E+00 0.00000E+00
 -1       991 0.00000E+00 0.00000E+00 0.00000E+00 0.00000E+00 0.00000E+00 0.00000E+00
 -1       992 0.00000E+00 0.00000E+00 0.00000E+00 0.00000E+00 0.00000E+00 0.00000E+00
 -1       993 0.00000E+00 0.00000E+00 0.00000E+00 0.00000E+00 0.00000E+00 0.00000E+00
 -1       994 0.00000E+00 0.00000E+00 0.00000E+00 0.00000E+00 0.00000E+00 0.00000E+00
 -1       995 0.00000E+00 0.00000E+00 0.00000E+00 0.00000E+00 0.00000E+00 0.00000E+00
 -1       996 0.00000E+00 0.00000E+00 0.00000E+00 0.00000E+00 0.00000E+00 0.00000E+00
 -1       997 0.00000E+00 0.00000E+00 0.00000E+00 0.00000E+00 0.00000E+00 0.00000E+00
 -1       998 0.00000E+00 0.00000E+00 0.00000E+00 0.00000E+00 0.00000E+00 0.00000E+00
 -1       999 0.00000E+00 0.00000E+00 0.00000E+00 0.00000E+00 0.00000E+00 0.00000E+00
 -1      1000 0.00000E+00 0.00000E+00 0.00000E+00 0.00000E+00 0.00000E+00 0.00000E+00
 -1      1001 0.00000E+00 0.00000E+00 0.00000E+00 0.00000E+00 0.00000E+00 0.00000E+00
 -1      1002 0.00000E+00 0.00000E+00 0.00000E+00 0.00000E+00 0.00000E+00 0.00000E+00
 -1      1003 0.00000E+00 0.00000E+00 0.00000E+00 0.00000E+00 0.00000E+00 0.00000E+00
 -1      1004 0.00000E+00 0.00000E+00 0.00000E+00 0.00000E+00 0.00000E+00 0.00000E+00
 -1      1005 0.00000E+00 0.00000E+00 0.00000E+00 0.00000E+00 0.00000E+00 0.00000E+00
 -1      1006 0.00000E+00 0.00000E+00 0.00000E+00 0.00000E+00 0.00000E+00 0.00000E+00
 -1      1007 0.00000E+00 0.00000E+00 0.00000E+00 0.00000E+00 0.00000E+00 0.00000E+00
 -1      1008 0.00000E+00 0.00000E+00 0.00000E+00 0.00000E+00 0.00000E+00 0.00000E+00
 -1      1009 0.00000E+00 0.00000E+00 0.00000E+00 0.00000E+00 0.00000E+00 0.00000E+00
 -1      1010 0.00000E+00 0.00000E+00 0.00000E+00 0.00000E+00 0.00000E+00 0.00000E+00
 -1      1011 0.00000E+00 0.00000E+00 0.00000E+00 0.00000E+00 0.00000E+00 0.00000E+00
 -1      1012 0.00000E+00 0.00000E+00 0.00000E+00 0.00000E+00 0.00000E+00 0.00000E+00
 -1      1013 0.00000E+00 0.00000E+00 0.00000E+00 0.00000E+00 0.00000E+00 0.00000E+00
 -1      1014 0.00000E+00 0.00000E+00 0.00000E+00 0.00000E+00 0.00000E+00 0.00000E+00
 -1      1015 0.00000E+00 0.00000E+00 0.00000E+00 0.00000E+00 0.00000E+00 0.00000E+00
 -1      1016 0.00000E+00 0.00000E+00 0.00000E+00 0.00000E+00 0.00000E+00 0.00000E+00
 -1      1017 0.00000E+00 0.00000E+00 0.00000E+00 0.00000E+00 0.00000E+00 0.00000E+00
 -1      1018 0.00000E+00 0.00000E+00 0.00000E+00 0.00000E+00 0.00000E+00 0.00000E+00
 -1      1019 0.00000E+00 0.00000E+00 0.00000E+00 0.00000E+00 0.00000E+00 0.00000E+00
 -1      1020 0.00000E+00 0.00000E+00 0.00000E+00 0.00000E+00 0.00000E+00 0.00000E+00
 -1      1021 0.00000E+00 0.00000E+00 0.00000E+00 0.00000E+00 0.00000E+00 0.00000E+00
 -1      1022 0.00000E+00 0.00000E+00 0.00000E+00 0.00000E+00 0.00000E+00 0.00000E+00
 -1      1023 0.00000E+00 0.00000E+00 0.00000E+00 0.00000E+00 0.00000E+00 0.00000E+00
 -1      1024 0.00000E+00 0.00000E+00 0.00000E+00 0.00000E+00 0.00000E+00 0.00000E+00
 -1      1025 0.00000E+00 0.00000E+00 0.00000E+00 0.00000E+00 0.00000E+00 0.00000E+00
 -1      1026 0.00000E+00 0.00000E+00 0.00000E+00 0.00000E+00 0.00000E+00 0.00000E+00
 -1      1027 0.00000E+00 0.00000E+00 0.00000E+00 0.00000E+00 0.00000E+00 0.00000E+00
 -1      1028 0.00000E+00 0.00000E+00 0.00000E+00 0.00000E+00 0.00000E+00 0.00000E+00
 -1      1029 0.00000E+00 0.00000E+00 0.00000E+00 0.00000E+00 0.00000E+00 0.00000E+00
 -1      1030 0.00000E+00 0.00000E+00 0.00000E+00 0.00000E+00 0.00000E+00 0.00000E+00
 -1      1031 0.00000E+00 0.00000E+00 0.00000E+00 0.00000E+00 0.00000E+00 0.00000E+00
 -1      1032 0.00000E+00 0.00000E+00 0.00000E+00 0.00000E+00 0.00000E+00 0.00000E+00
 -1      1033 0.00000E+00 0.00000E+00 0.00000E+00 0.00000E+00 0.00000E+00 0.00000E+00
 -1      1034 0.00000E+00 0.00000E+00 0.00000E+00 0.00000E+00 0.00000E+00 0.00000E+00
 -1      1035 0.00000E+00 0.00000E+00 0.00000E+00 0.00000E+00 0.00000E+00 0.00000E+00
 -1      1036 0.00000E+00 0.00000E+00 0.00000E+00 0.00000E+00 0.00000E+00 0.00000E+00
 -1      1037 0.00000E+00 0.00000E+00 0.00000E+00 0.00000E+00 0.00000E+00 0.00000E+00
 -1      1038 0.00000E+00 0.00000E+00 0.00000E+00 0.00000E+00 0.00000E+00 0.00000E+00
 -1      1039 0.00000E+00 0.00000E+00 0.00000E+00 0.00000E+00 0.00000E+00 0.00000E+00
 -1      1040 0.00000E+00 0.00000E+00 0.00000E+00 0.00000E+00 0.00000E+00 0.00000E+00
 -1      1041 0.00000E+00 0.00000E+00 0.00000E+00 0.00000E+00 0.00000E+00 0.00000E+00
 -1      1042 0.00000E+00 0.00000E+00 0.00000E+00 0.00000E+00 0.00000E+00 0.00000E+00
 -1      1043 0.00000E+00 0.00000E+00 0.00000E+00 0.00000E+00 0.00000E+00 0.00000E+00
 -1      1044 0.00000E+00 0.00000E+00 0.00000E+00 0.00000E+00 0.00000E+00 0.00000E+00
 -1      1045 0.00000E+00 0.00000E+00 0.00000E+00 0.00000E+00 0.00000E+00 0.00000E+00
 -1      1046 0.00000E+00 0.00000E+00 0.00000E+00 0.00000E+00 0.00000E+00 0.00000E+00
 -1      1047 0.00000E+00 0.00000E+00 0.00000E+00 0.00000E+00 0.00000E+00 0.00000E+00
 -1      1048 0.00000E+00 0.00000E+00 0.00000E+00 0.00000E+00 0.00000E+00 0.00000E+00
 -1      1049 0.00000E+00 0.00000E+00 0.00000E+00 0.00000E+00 0.00000E+00 0.00000E+00
 -1      1050 0.00000E+00 0.00000E+00 0.00000E+00 0.00000E+00 0.00000E+00 0.00000E+00
 -1      1051 0.00000E+00 0.00000E+00 0.00000E+00 0.00000E+00 0.00000E+00 0.00000E+00
 -1      1052 0.00000E+00 0.00000E+00 0.00000E+00 0.00000E+00 0.00000E+00 0.00000E+00
 -1      1053 0.00000E+00 0.00000E+00 0.00000E+00 0.00000E+00 0.00000E+00 0.00000E+00
 -1      1054 0.00000E+00 0.00000E+00 0.00000E+00 0.00000E+00 0.00000E+00 0.00000E+00
 -1      1055 0.00000E+00 0.00000E+00 0.00000E+00 0.00000E+00 0.00000E+00 0.00000E+00
 -1      1056 0.00000E+00 0.00000E+00 0.00000E+00 0.00000E+00 0.00000E+00 0.00000E+00
 -1      1057 0.00000E+00 0.00000E+00 0.00000E+00 0.00000E+00 0.00000E+00 0.00000E+00
 -1      1058 0.00000E+00 0.00000E+00 0.00000E+00 0.00000E+00 0.00000E+00 0.00000E+00
 -1      1059 0.00000E+00 0.00000E+00 0.00000E+00 0.00000E+00 0.00000E+00 0.00000E+00
 -1      1060 0.00000E+00 0.00000E+00 0.00000E+00 0.00000E+00 0.00000E+00 0.00000E+00
 -1      1061 0.00000E+00 0.00000E+00 0.00000E+00 0.00000E+00 0.00000E+00 0.00000E+00
 -1      1062 0.00000E+00 0.00000E+00 0.00000E+00 0.00000E+00 0.00000E+00 0.00000E+00
 -1      1063 0.00000E+00 0.00000E+00 0.00000E+00 0.00000E+00 0.00000E+00 0.00000E+00
 -1      1064 0.00000E+00 0.00000E+00 0.00000E+00 0.00000E+00 0.00000E+00 0.00000E+00
 -1      1065 0.00000E+00 0.00000E+00 0.00000E+00 0.00000E+00 0.00000E+00 0.00000E+00
 -1      1066 0.00000E+00 0.00000E+00 0.00000E+00 0.00000E+00 0.00000E+00 0.00000E+00
 -1      1067 0.00000E+00 0.00000E+00 0.00000E+00 0.00000E+00 0.00000E+00 0.00000E+00
 -1      1068 0.00000E+00 0.00000E+00 0.00000E+00 0.00000E+00 0.00000E+00 0.00000E+00
 -1      1069 0.00000E+00 0.00000E+00 0.00000E+00 0.00000E+00 0.00000E+00 0.00000E+00
 -1      1070 0.00000E+00 0.00000E+00 0.00000E+00 0.00000E+00 0.00000E+00 0.00000E+00
 -1      1071 0.00000E+00 0.00000E+00 0.00000E+00 0.00000E+00 0.00000E+00 0.00000E+00
 -1      1072 0.00000E+00 0.00000E+00 0.00000E+00 0.00000E+00 0.00000E+00 0.00000E+00
 -1      1073 0.00000E+00 0.00000E+00 0.00000E+00 0.00000E+00 0.00000E+00 0.00000E+00
 -1      1074 0.00000E+00 0.00000E+00 0.00000E+00 0.00000E+00 0.00000E+00 0.00000E+00
 -1      1075 0.00000E+00 0.00000E+00 0.00000E+00 0.00000E+00 0.00000E+00 0.00000E+00
 -1      1076 0.00000E+00 0.00000E+00 0.00000E+00 0.00000E+00 0.00000E+00 0.00000E+00
 -1      1077 0.00000E+00 0.00000E+00 0.00000E+00 0.00000E+00 0.00000E+00 0.00000E+00
 -1      1078 0.00000E+00 0.00000E+00 0.00000E+00 0.00000E+00 0.00000E+00 0.00000E+00
 -1      1079 0.00000E+00 0.00000E+00 0.00000E+00 0.00000E+00 0.00000E+00 0.00000E+00
 -1      1080 0.00000E+00 0.00000E+00 0.00000E+00 0.00000E+00 0.00000E+00 0.00000E+00
 -1      1081 0.00000E+00 0.00000E+00 0.00000E+00 0.00000E+00 0.00000E+00 0.00000E+00
 -1      1082 0.00000E+00 0.00000E+00 0.00000E+00 0.00000E+00 0.00000E+00 0.00000E+00
 -1      1083 0.00000E+00 0.00000E+00 0.00000E+00 0.00000E+00 0.00000E+00 0.00000E+00
 -1      1084 0.00000E+00 0.00000E+00 0.00000E+00 0.00000E+00 0.00000E+00 0.00000E+00
 -1      1085 0.00000E+00 0.00000E+00 0.00000E+00 0.00000E+00 0.00000E+00 0.00000E+00
 -1      1086 0.00000E+00 0.00000E+00 0.00000E+00 0.00000E+00 0.00000E+00 0.00000E+00
 -1      1087 0.00000E+00 0.00000E+00 0.00000E+00 0.00000E+00 0.00000E+00 0.00000E+00
 -1      1088 0.00000E+00 0.00000E+00 0.00000E+00 0.00000E+00 0.00000E+00 0.00000E+00
 -1      1089 0.00000E+00 0.00000E+00 0.00000E+00 0.00000E+00 0.00000E+00 0.00000E+00
 -1      1090 0.00000E+00 0.00000E+00 0.00000E+00 0.00000E+00 0.00000E+00 0.00000E+00
 -1      1091 0.00000E+00 0.00000E+00 0.00000E+00 0.00000E+00 0.00000E+00 0.00000E+00
 -1      1092 0.00000E+00 0.00000E+00 0.00000E+00 0.00000E+00 0.00000E+00 0.00000E+00
 -1      1093 0.00000E+00 0.00000E+00 0.00000E+00 0.00000E+00 0.00000E+00 0.00000E+00
 -1      1094 0.00000E+00 0.00000E+00 0.00000E+00 0.00000E+00 0.00000E+00 0.00000E+00
 -1      1095 0.00000E+00 0.00000E+00 0.00000E+00 0.00000E+00 0.00000E+00 0.00000E+00
 -1      1096 0.00000E+00 0.00000E+00 0.00000E+00 0.00000E+00 0.00000E+00 0.00000E+00
 -1      1097 0.00000E+00 0.00000E+00 0.00000E+00 0.00000E+00 0.00000E+00 0.00000E+00
 -1      1098 0.00000E+00 0.00000E+00 0.00000E+00 0.00000E+00 0.00000E+00 0.00000E+00
 -1      1099 0.00000E+00 0.00000E+00 0.00000E+00 0.00000E+00 0.00000E+00 0.00000E+00
 -1      1100 0.00000E+00 0.00000E+00 0.00000E+00 0.00000E+00 0.00000E+00 0.00000E+00
 -1      1101 0.00000E+00 0.00000E+00 0.00000E+00 0.00000E+00 0.00000E+00 0.00000E+00
 -1      1102 0.00000E+00 0.00000E+00 0.00000E+00 0.00000E+00 0.00000E+00 0.00000E+00
 -1      1103 0.00000E+00 0.00000E+00 0.00000E+00 0.00000E+00 0.00000E+00 0.00000E+00
 -1      1104 0.00000E+00 0.00000E+00 0.00000E+00 0.00000E+00 0.00000E+00 0.00000E+00
 -1      1105 0.00000E+00 0.00000E+00 0.00000E+00 0.00000E+00 0.00000E+00 0.00000E+00
 -1      1106 0.00000E+00 0.00000E+00 0.00000E+00 0.00000E+00 0.00000E+00 0.00000E+00
 -1      1107 0.00000E+00 0.00000E+00 0.00000E+00 0.00000E+00 0.00000E+00 0.00000E+00
 -1      1108 0.00000E+00 0.00000E+00 0.00000E+00 0.00000E+00 0.00000E+00 0.00000E+00
 -1      1109 0.00000E+00 0.00000E+00 0.00000E+00 0.00000E+00 0.00000E+00 0.00000E+00
 -1      1110 0.00000E+00 0.00000E+00 0.00000E+00 0.00000E+00 0.00000E+00 0.00000E+00
 -1      1111 0.00000E+00 0.00000E+00 0.00000E+00 0.00000E+00 0.00000E+00 0.00000E+00
 -1      1112 0.00000E+00 0.00000E+00 0.00000E+00 0.00000E+00 0.00000E+00 0.00000E+00
 -1      1113 0.00000E+00 0.00000E+00 0.00000E+00 0.00000E+00 0.00000E+00 0.00000E+00
 -1      1114 0.00000E+00 0.00000E+00 0.00000E+00 0.00000E+00 0.00000E+00 0.00000E+00
 -1      1115 0.00000E+00 0.00000E+00 0.00000E+00 0.00000E+00 0.00000E+00 0.00000E+00
 -1      1116 0.00000E+00 0.00000E+00 0.00000E+00 0.00000E+00 0.00000E+00 0.00000E+00
 -1      1117 0.00000E+00 0.00000E+00 0.00000E+00 0.00000E+00 0.00000E+00 0.00000E+00
 -1      1118 0.00000E+00 0.00000E+00 0.00000E+00 0.00000E+00 0.00000E+00 0.00000E+00
 -1      1119 0.00000E+00 0.00000E+00 0.00000E+00 0.00000E+00 0.00000E+00 0.00000E+00
 -1      1120 0.00000E+00 0.00000E+00 0.00000E+00 0.00000E+00 0.00000E+00 0.00000E+00
 -1      1121 0.00000E+00 0.00000E+00 0.00000E+00 0.00000E+00 0.00000E+00 0.00000E+00
 -1      1122 0.00000E+00 0.00000E+00 0.00000E+00 0.00000E+00 0.00000E+00 0.00000E+00
 -1      1123 0.00000E+00 0.00000E+00 0.00000E+00 0.00000E+00 0.00000E+00 0.00000E+00
 -1      1124 0.00000E+00 0.00000E+00 0.00000E+00 0.00000E+00 0.00000E+00 0.00000E+00
 -1      1125 0.00000E+00 0.00000E+00 0.00000E+00 0.00000E+00 0.00000E+00 0.00000E+00
 -1      1126 0.00000E+00 0.00000E+00 0.00000E+00 0.00000E+00 0.00000E+00 0.00000E+00
 -1      1127 0.00000E+00 0.00000E+00 0.00000E+00 0.00000E+00 0.00000E+00 0.00000E+00
 -1      1128 0.00000E+00 0.00000E+00 0.00000E+00 0.00000E+00 0.00000E+00 0.00000E+00
 -1      1129 0.00000E+00 0.00000E+00 0.00000E+00 0.00000E+00 0.00000E+00 0.00000E+00
 -1      1130 0.00000E+00 0.00000E+00 0.00000E+00 0.00000E+00 0.00000E+00 0.00000E+00
 -1      1131 0.00000E+00 0.00000E+00 0.00000E+00 0.00000E+00 0.00000E+00 0.00000E+00
 -1      1132 0.00000E+00 0.00000E+00 0.00000E+00 0.00000E+00 0.00000E+00 0.00000E+00
 -1      1133 0.00000E+00 0.00000E+00 0.00000E+00 0.00000E+00 0.00000E+00 0.00000E+00
 -1      1134 0.00000E+00 0.00000E+00 0.00000E+00 0.00000E+00 0.00000E+00 0.00000E+00
 -1      1135 0.00000E+00 0.00000E+00 0.00000E+00 0.00000E+00 0.00000E+00 0.00000E+00
 -1      1136 0.00000E+00 0.00000E+00 0.00000E+00 0.00000E+00 0.00000E+00 0.00000E+00
 -1      1137 0.00000E+00 0.00000E+00 0.00000E+00 0.00000E+00 0.00000E+00 0.00000E+00
 -1      1138 0.00000E+00 0.00000E+00 0.00000E+00 0.00000E+00 0.00000E+00 0.00000E+00
 -1      1139 0.00000E+00 0.00000E+00 0.00000E+00 0.00000E+00 0.00000E+00 0.00000E+00
 -1      1140 0.00000E+00 0.00000E+00 0.00000E+00 0.00000E+00 0.00000E+00 0.00000E+00
 -1      1141 0.00000E+00 0.00000E+00 0.00000E+00 0.00000E+00 0.00000E+00 0.00000E+00
 -1      1142 0.00000E+00 0.00000E+00 0.00000E+00 0.00000E+00 0.00000E+00 0.00000E+00
 -1      1143 0.00000E+00 0.00000E+00 0.00000E+00 0.00000E+00 0.00000E+00 0.00000E+00
 -1      1144 0.00000E+00 0.00000E+00 0.00000E+00 0.00000E+00 0.00000E+00 0.00000E+00
 -1      1145 0.00000E+00 0.00000E+00 0.00000E+00 0.00000E+00 0.00000E+00 0.00000E+00
 -1      1146 0.00000E+00 0.00000E+00 0.00000E+00 0.00000E+00 0.00000E+00 0.00000E+00
 -1      1147 0.00000E+00 0.00000E+00 0.00000E+00 0.00000E+00 0.00000E+00 0.00000E+00
 -1      1148 0.00000E+00 0.00000E+00 0.00000E+00 0.00000E+00 0.00000E+00 0.00000E+00
 -1      1149 0.00000E+00 0.00000E+00 0.00000E+00 0.00000E+00 0.00000E+00 0.00000E+00
 -1      1150 0.00000E+00 0.00000E+00 0.00000E+00 0.00000E+00 0.00000E+00 0.00000E+00
 -1      1151 0.00000E+00 0.00000E+00 0.00000E+00 0.00000E+00 0.00000E+00 0.00000E+00
 -1      1152 0.00000E+00 0.00000E+00 0.00000E+00 0.00000E+00 0.00000E+00 0.00000E+00
 -1      1153 0.00000E+00 0.00000E+00 0.00000E+00 0.00000E+00 0.00000E+00 0.00000E+00
 -1      1154 0.00000E+00 0.00000E+00 0.00000E+00 0.00000E+00 0.00000E+00 0.00000E+00
 -1      1155 0.00000E+00 0.00000E+00 0.00000E+00 0.00000E+00 0.00000E+00 0.00000E+00
 -1      1156 0.00000E+00 0.00000E+00 0.00000E+00 0.00000E+00 0.00000E+00 0.00000E+00
 -1      1157 0.00000E+00 0.00000E+00 0.00000E+00 0.00000E+00 0.00000E+00 0.00000E+00
 -1      1158 0.00000E+00 0.00000E+00 0.00000E+00 0.00000E+00 0.00000E+00 0.00000E+00
 -1      1159 0.00000E+00 0.00000E+00 0.00000E+00 0.00000E+00 0.00000E+00 0.00000E+00
 -1      1160 0.00000E+00 0.00000E+00 0.00000E+00 0.00000E+00 0.00000E+00 0.00000E+00
 -1      1161 0.00000E+00 0.00000E+00 0.00000E+00 0.00000E+00 0.00000E+00 0.00000E+00
 -1      1162 0.00000E+00 0.00000E+00 0.00000E+00 0.00000E+00 0.00000E+00 0.00000E+00
 -1      1163 0.00000E+00 0.00000E+00 0.00000E+00 0.00000E+00 0.00000E+00 0.00000E+00
 -1      1164 0.00000E+00 0.00000E+00 0.00000E+00 0.00000E+00 0.00000E+00 0.00000E+00
 -1      1165 0.00000E+00 0.00000E+00 0.00000E+00 0.00000E+00 0.00000E+00 0.00000E+00
 -1      1166 0.00000E+00 0.00000E+00 0.00000E+00 0.00000E+00 0.00000E+00 0.00000E+00
 -1      1167 0.00000E+00 0.00000E+00 0.00000E+00 0.00000E+00 0.00000E+00 0.00000E+00
 -1      1168 0.00000E+00 0.00000E+00 0.00000E+00 0.00000E+00 0.00000E+00 0.00000E+00
 -1      1169 0.00000E+00 0.00000E+00 0.00000E+00 0.00000E+00 0.00000E+00 0.00000E+00
 -1      1170 0.00000E+00 0.00000E+00 0.00000E+00 0.00000E+00 0.00000E+00 0.00000E+00
 -1      1171 0.00000E+00 0.00000E+00 0.00000E+00 0.00000E+00 0.00000E+00 0.00000E+00
 -1      1172 0.00000E+00 0.00000E+00 0.00000E+00 0.00000E+00 0.00000E+00 0.00000E+00
 -1      1173 0.00000E+00 0.00000E+00 0.00000E+00 0.00000E+00 0.00000E+00 0.00000E+00
 -1      1174 0.00000E+00 0.00000E+00 0.00000E+00 0.00000E+00 0.00000E+00 0.00000E+00
 -1      1175 0.00000E+00 0.00000E+00 0.00000E+00 0.00000E+00 0.00000E+00 0.00000E+00
 -1      1176 0.00000E+00 0.00000E+00 0.00000E+00 0.00000E+00 0.00000E+00 0.00000E+00
 -1      1177 0.00000E+00 0.00000E+00 0.00000E+00 0.00000E+00 0.00000E+00 0.00000E+00
 -1      1178 0.00000E+00 0.00000E+00 0.00000E+00 0.00000E+00 0.00000E+00 0.00000E+00
 -1      1179 0.00000E+00 0.00000E+00 0.00000E+00 0.00000E+00 0.00000E+00 0.00000E+00
 -1      1180 0.00000E+00 0.00000E+00 0.00000E+00 0.00000E+00 0.00000E+00 0.00000E+00
 -1      1181 0.00000E+00 0.00000E+00 0.00000E+00 0.00000E+00 0.00000E+00 0.00000E+00
 -1      1182 0.00000E+00 0.00000E+00 0.00000E+00 0.00000E+00 0.00000E+00 0.00000E+00
 -1      1183 0.00000E+00 0.00000E+00 0.00000E+00 0.00000E+00 0.00000E+00 0.00000E+00
 -1      1184 0.00000E+00 0.00000E+00 0.00000E+00 0.00000E+00 0.00000E+00 0.00000E+00
 -1      1185 0.00000E+00 0.00000E+00 0.00000E+00 0.00000E+00 0.00000E+00 0.00000E+00
 -1      1186 0.00000E+00 0.00000E+00 0.00000E+00 0.00000E+00 0.00000E+00 0.00000E+00
 -1      1187 0.00000E+00 0.00000E+00 0.00000E+00 0.00000E+00 0.00000E+00 0.00000E+00
 -1      1188 0.00000E+00 0.00000E+00 0.00000E+00 0.00000E+00 0.00000E+00 0.00000E+00
 -1      1189 0.00000E+00 0.00000E+00 0.00000E+00 0.00000E+00 0.00000E+00 0.00000E+00
 -1      1190 0.00000E+00 0.00000E+00 0.00000E+00 0.00000E+00 0.00000E+00 0.00000E+00
 -1      1191 0.00000E+00 0.00000E+00 0.00000E+00 0.00000E+00 0.00000E+00 0.00000E+00
 -1      1192 0.00000E+00 0.00000E+00 0.00000E+00 0.00000E+00 0.00000E+00 0.00000E+00
 -1      1193 0.00000E+00 0.00000E+00 0.00000E+00 0.00000E+00 0.00000E+00 0.00000E+00
 -1      1194 0.00000E+00 0.00000E+00 0.00000E+00 0.00000E+00 0.00000E+00 0.00000E+00
 -1      1195 0.00000E+00 0.00000E+00 0.00000E+00 0.00000E+00 0.00000E+00 0.00000E+00
 -1      1196 0.00000E+00 0.00000E+00 0.00000E+00 0.00000E+00 0.00000E+00 0.00000E+00
 -1      1197 0.00000E+00 0.00000E+00 0.00000E+00 0.00000E+00 0.00000E+00 0.00000E+00
 -1      1198 0.00000E+00 0.00000E+00 0.00000E+00 0.00000E+00 0.00000E+00 0.00000E+00
 -1      1199 0.00000E+00 0.00000E+00 0.00000E+00 0.00000E+00 0.00000E+00 0.00000E+00
 -1      1200 0.00000E+00 0.00000E+00 0.00000E+00 0.00000E+00 0.00000E+00 0.00000E+00
 -1      1201 0.00000E+00 0.00000E+00 0.00000E+00 0.00000E+00 0.00000E+00 0.00000E+00
 -1      1202 0.00000E+00 0.00000E+00 0.00000E+00 0.00000E+00 0.00000E+00 0.00000E+00
 -1      1203 0.00000E+00 0.00000E+00 0.00000E+00 0.00000E+00 0.00000E+00 0.00000E+00
 -1      1204 0.00000E+00 0.00000E+00 0.00000E+00 0.00000E+00 0.00000E+00 0.00000E+00
 -1      1205 0.00000E+00 0.00000E+00 0.00000E+00 0.00000E+00 0.00000E+00 0.00000E+00
 -1      1206 0.00000E+00 0.00000E+00 0.00000E+00 0.00000E+00 0.00000E+00 0.00000E+00
 -1      1207 0.00000E+00 0.00000E+00 0.00000E+00 0.00000E+00 0.00000E+00 0.00000E+00
 -1      1208 0.00000E+00 0.00000E+00 0.00000E+00 0.00000E+00 0.00000E+00 0.00000E+00
 -1      1209 0.00000E+00 0.00000E+00 0.00000E+00 0.00000E+00 0.00000E+00 0.00000E+00
 -1      1210 0.00000E+00 0.00000E+00 0.00000E+00 0.00000E+00 0.00000E+00 0.00000E+00
 -1      1211 0.00000E+00 0.00000E+00 0.00000E+00 0.00000E+00 0.00000E+00 0.00000E+00
 -1      1212 0.00000E+00 0.00000E+00 0.00000E+00 0.00000E+00 0.00000E+00 0.00000E+00
 -1      1213 0.00000E+00 0.00000E+00 0.00000E+00 0.00000E+00 0.00000E+00 0.00000E+00
 -1      1214 0.00000E+00 0.00000E+00 0.00000E+00 0.00000E+00 0.00000E+00 0.00000E+00
 -1      1215 0.00000E+00 0.00000E+00 0.00000E+00 0.00000E+00 0.00000E+00 0.00000E+00
 -1      1216 0.00000E+00 0.00000E+00 0.00000E+00 0.00000E+00 0.00000E+00 0.00000E+00
 -1      1217 0.00000E+00 0.00000E+00 0.00000E+00 0.00000E+00 0.00000E+00 0.00000E+00
 -1      1218 0.00000E+00 0.00000E+00 0.00000E+00 0.00000E+00 0.00000E+00 0.00000E+00
 -1      1219 0.00000E+00 0.00000E+00 0.00000E+00 0.00000E+00 0.00000E+00 0.00000E+00
 -1      1220 0.00000E+00 0.00000E+00 0.00000E+00 0.00000E+00 0.00000E+00 0.00000E+00
 -1      1221 0.00000E+00 0.00000E+00 0.00000E+00 0.00000E+00 0.00000E+00 0.00000E+00
 -1      1222 0.00000E+00 0.00000E+00 0.00000E+00 0.00000E+00 0.00000E+00 0.00000E+00
 -1      1223 0.00000E+00 0.00000E+00 0.00000E+00 0.00000E+00 0.00000E+00 0.00000E+00
 -1      1224 0.00000E+00 0.00000E+00 0.00000E+00 0.00000E+00 0.00000E+00 0.00000E+00
 -1      1225 0.00000E+00 0.00000E+00 0.00000E+00 0.00000E+00 0.00000E+00 0.00000E+00
 -1      1226 0.00000E+00 0.00000E+00 0.00000E+00 0.00000E+00 0.00000E+00 0.00000E+00
 -1      1227 0.00000E+00 0.00000E+00 0.00000E+00 0.00000E+00 0.00000E+00 0.00000E+00
 -1      1228 0.00000E+00 0.00000E+00 0.00000E+00 0.00000E+00 0.00000E+00 0.00000E+00
 -1      1229 0.00000E+00 0.00000E+00 0.00000E+00 0.00000E+00 0.00000E+00 0.00000E+00
 -1      1230 0.00000E+00 0.00000E+00 0.00000E+00 0.00000E+00 0.00000E+00 0.00000E+00
 -1      1231 0.00000E+00 0.00000E+00 0.00000E+00 0.00000E+00 0.00000E+00 0.00000E+00
 -1      1232 0.00000E+00 0.00000E+00 0.00000E+00 0.00000E+00 0.00000E+00 0.00000E+00
 -1      1233 0.00000E+00 0.00000E+00 0.00000E+00 0.00000E+00 0.00000E+00 0.00000E+00
 -1      1234 0.00000E+00 0.00000E+00 0.00000E+00 0.00000E+00 0.00000E+00 0.00000E+00
 -1      1235 0.00000E+00 0.00000E+00 0.00000E+00 0.00000E+00 0.00000E+00 0.00000E+00
 -1      1236 0.00000E+00 0.00000E+00 0.00000E+00 0.00000E+00 0.00000E+00 0.00000E+00
 -1      1237 0.00000E+00 0.00000E+00 0.00000E+00 0.00000E+00 0.00000E+00 0.00000E+00
 -1      1238 0.00000E+00 0.00000E+00 0.00000E+00 0.00000E+00 0.00000E+00 0.00000E+00
 -1      1239 0.00000E+00 0.00000E+00 0.00000E+00 0.00000E+00 0.00000E+00 0.00000E+00
 -1      1240 0.00000E+00 0.00000E+00 0.00000E+00 0.00000E+00 0.00000E+00 0.00000E+00
 -1      1241 0.00000E+00 0.00000E+00 0.00000E+00 0.00000E+00 0.00000E+00 0.00000E+00
 -1      1242 0.00000E+00 0.00000E+00 0.00000E+00 0.00000E+00 0.00000E+00 0.00000E+00
 -1      1243 0.00000E+00 0.00000E+00 0.00000E+00 0.00000E+00 0.00000E+00 0.00000E+00
 -1      1244 0.00000E+00 0.00000E+00 0.00000E+00 0.00000E+00 0.00000E+00 0.00000E+00
 -1      1245 0.00000E+00 0.00000E+00 0.00000E+00 0.00000E+00 0.00000E+00 0.00000E+00
 -1      1246 0.00000E+00 0.00000E+00 0.00000E+00 0.00000E+00 0.00000E+00 0.00000E+00
 -1      1247 0.00000E+00 0.00000E+00 0.00000E+00 0.00000E+00 0.00000E+00 0.00000E+00
 -1      1248 0.00000E+00 0.00000E+00 0.00000E+00 0.00000E+00 0.00000E+00 0.00000E+00
 -1      1249 0.00000E+00 0.00000E+00 0.00000E+00 0.00000E+00 0.00000E+00 0.00000E+00
 -1      1250 0.00000E+00 0.00000E+00 0.00000E+00 0.00000E+00 0.00000E+00 0.00000E+00
 -1      1251 0.00000E+00 0.00000E+00 0.00000E+00 0.00000E+00 0.00000E+00 0.00000E+00
 -1      1252 0.00000E+00 0.00000E+00 0.00000E+00 0.00000E+00 0.00000E+00 0.00000E+00
 -1      1253 0.00000E+00 0.00000E+00 0.00000E+00 0.00000E+00 0.00000E+00 0.00000E+00
 -1      1254 0.00000E+00 0.00000E+00 0.00000E+00 0.00000E+00 0.00000E+00 0.00000E+00
 -1      1255 0.00000E+00 0.00000E+00 0.00000E+00 0.00000E+00 0.00000E+00 0.00000E+00
 -1      1256 0.00000E+00 0.00000E+00 0.00000E+00 0.00000E+00 0.00000E+00 0.00000E+00
 -1      1257 0.00000E+00 0.00000E+00 0.00000E+00 0.00000E+00 0.00000E+00 0.00000E+00
 -1      1258 0.00000E+00 0.00000E+00 0.00000E+00 0.00000E+00 0.00000E+00 0.00000E+00
 -1      1259 0.00000E+00 0.00000E+00 0.00000E+00 0.00000E+00 0.00000E+00 0.00000E+00
 -1      1260 0.00000E+00 0.00000E+00 0.00000E+00 0.00000E+00 0.00000E+00 0.00000E+00
 -1      1261 0.00000E+00 0.00000E+00 0.00000E+00 0.00000E+00 0.00000E+00 0.00000E+00
 -1      1262 0.00000E+00 0.00000E+00 0.00000E+00 0.00000E+00 0.00000E+00 0.00000E+00
 -1      1263 0.00000E+00 0.00000E+00 0.00000E+00 0.00000E+00 0.00000E+00 0.00000E+00
 -1      1264 0.00000E+00 0.00000E+00 0.00000E+00 0.00000E+00 0.00000E+00 0.00000E+00
 -1      1265 0.00000E+00 0.00000E+00 0.00000E+00 0.00000E+00 0.00000E+00 0.00000E+00
 -1      1266 0.00000E+00 0.00000E+00 0.00000E+00 0.00000E+00 0.00000E+00 0.00000E+00
 -1      1267 0.00000E+00 0.00000E+00 0.00000E+00 0.00000E+00 0.00000E+00 0.00000E+00
 -1      1268 0.00000E+00 0.00000E+00 0.00000E+00 0.00000E+00 0.00000E+00 0.00000E+00
 -1      1269 0.00000E+00 0.00000E+00 0.00000E+00 0.00000E+00 0.00000E+00 0.00000E+00
 -1      1270 0.00000E+00 0.00000E+00 0.00000E+00 0.00000E+00 0.00000E+00 0.00000E+00
 -1      1271 0.00000E+00 0.00000E+00 0.00000E+00 0.00000E+00 0.00000E+00 0.00000E+00
 -1      1272 0.00000E+00 0.00000E+00 0.00000E+00 0.00000E+00 0.00000E+00 0.00000E+00
 -1      1273 0.00000E+00 0.00000E+00 0.00000E+00 0.00000E+00 0.00000E+00 0.00000E+00
 -1      1274 0.00000E+00 0.00000E+00 0.00000E+00 0.00000E+00 0.00000E+00 0.00000E+00
 -1      1275 0.00000E+00 0.00000E+00 0.00000E+00 0.00000E+00 0.00000E+00 0.00000E+00
 -1      1276 0.00000E+00 0.00000E+00 0.00000E+00 0.00000E+00 0.00000E+00 0.00000E+00
 -1      1277 0.00000E+00 0.00000E+00 0.00000E+00 0.00000E+00 0.00000E+00 0.00000E+00
 -1      1278 0.00000E+00 0.00000E+00 0.00000E+00 0.00000E+00 0.00000E+00 0.00000E+00
 -1      1279 0.00000E+00 0.00000E+00 0.00000E+00 0.00000E+00 0.00000E+00 0.00000E+00
 -1      1280 0.00000E+00 0.00000E+00 0.00000E+00 0.00000E+00 0.00000E+00 0.00000E+00
 -1      1281 0.00000E+00 0.00000E+00 0.00000E+00 0.00000E+00 0.00000E+00 0.00000E+00
 -1      1282 0.00000E+00 0.00000E+00 0.00000E+00 0.00000E+00 0.00000E+00 0.00000E+00
 -1      1283 0.00000E+00 0.00000E+00 0.00000E+00 0.00000E+00 0.00000E+00 0.00000E+00
 -1      1284 0.00000E+00 0.00000E+00 0.00000E+00 0.00000E+00 0.00000E+00 0.00000E+00
 -1      1285 0.00000E+00 0.00000E+00 0.00000E+00 0.00000E+00 0.00000E+00 0.00000E+00
 -1      1286 0.00000E+00 0.00000E+00 0.00000E+00 0.00000E+00 0.00000E+00 0.00000E+00
 -1      1287 0.00000E+00 0.00000E+00 0.00000E+00 0.00000E+00 0.00000E+00 0.00000E+00
 -1      1288 0.00000E+00 0.00000E+00 0.00000E+00 0.00000E+00 0.00000E+00 0.00000E+00
 -1      1289 0.00000E+00 0.00000E+00 0.00000E+00 0.00000E+00 0.00000E+00 0.00000E+00
 -1      1290 0.00000E+00 0.00000E+00 0.00000E+00 0.00000E+00 0.00000E+00 0.00000E+00
 -1      1291 0.00000E+00 0.00000E+00 0.00000E+00 0.00000E+00 0.00000E+00 0.00000E+00
 -1      1292 0.00000E+00 0.00000E+00 0.00000E+00 0.00000E+00 0.00000E+00 0.00000E+00
 -1      1293 0.00000E+00 0.00000E+00 0.00000E+00 0.00000E+00 0.00000E+00 0.00000E+00
 -1      1294 0.00000E+00 0.00000E+00 0.00000E+00 0.00000E+00 0.00000E+00 0.00000E+00
 -1      1295 0.00000E+00 0.00000E+00 0.00000E+00 0.00000E+00 0.00000E+00 0.00000E+00
 -1      1296 0.00000E+00 0.00000E+00 0.00000E+00 0.00000E+00 0.00000E+00 0.00000E+00
 -1      1297 0.00000E+00 0.00000E+00 0.00000E+00 0.00000E+00 0.00000E+00 0.00000E+00
 -1      1298 0.00000E+00 0.00000E+00 0.00000E+00 0.00000E+00 0.00000E+00 0.00000E+00
 -1      1299 0.00000E+00 0.00000E+00 0.00000E+00 0.00000E+00 0.00000E+00 0.00000E+00
 -1      1300 0.00000E+00 0.00000E+00 0.00000E+00 0.00000E+00 0.00000E+00 0.00000E+00
 -1      1301 0.00000E+00 0.00000E+00 0.00000E+00 0.00000E+00 0.00000E+00 0.00000E+00
 -1      1302 0.00000E+00 0.00000E+00 0.00000E+00 0.00000E+00 0.00000E+00 0.00000E+00
 -1      1303 0.00000E+00 0.00000E+00 0.00000E+00 0.00000E+00 0.00000E+00 0.00000E+00
 -1      1304 0.00000E+00 0.00000E+00 0.00000E+00 0.00000E+00 0.00000E+00 0.00000E+00
 -1      1305 0.00000E+00 0.00000E+00 0.00000E+00 0.00000E+00 0.00000E+00 0.00000E+00
 -1      1306 0.00000E+00 0.00000E+00 0.00000E+00 0.00000E+00 0.00000E+00 0.00000E+00
 -1      1307 0.00000E+00 0.00000E+00 0.00000E+00 0.00000E+00 0.00000E+00 0.00000E+00
 -1      1308 0.00000E+00 0.00000E+00 0.00000E+00 0.00000E+00 0.00000E+00 0.00000E+00
 -1      1309 0.00000E+00 0.00000E+00 0.00000E+00 0.00000E+00 0.00000E+00 0.00000E+00
 -1      1310 0.00000E+00 0.00000E+00 0.00000E+00 0.00000E+00 0.00000E+00 0.00000E+00
 -1      1311 0.00000E+00 0.00000E+00 0.00000E+00 0.00000E+00 0.00000E+00 0.00000E+00
 -1      1312 0.00000E+00 0.00000E+00 0.00000E+00 0.00000E+00 0.00000E+00 0.00000E+00
 -1      1313 0.00000E+00 0.00000E+00 0.00000E+00 0.00000E+00 0.00000E+00 0.00000E+00
 -1      1314 0.00000E+00 0.00000E+00 0.00000E+00 0.00000E+00 0.00000E+00 0.00000E+00
 -1      1315 0.00000E+00 0.00000E+00 0.00000E+00 0.00000E+00 0.00000E+00 0.00000E+00
 -1      1316 0.00000E+00 0.00000E+00 0.00000E+00 0.00000E+00 0.00000E+00 0.00000E+00
 -1      1317 0.00000E+00 0.00000E+00 0.00000E+00 0.00000E+00 0.00000E+00 0.00000E+00
 -1      1318 0.00000E+00 0.00000E+00 0.00000E+00 0.00000E+00 0.00000E+00 0.00000E+00
 -1      1319 0.00000E+00 0.00000E+00 0.00000E+00 0.00000E+00 0.00000E+00 0.00000E+00
 -1      1320 0.00000E+00 0.00000E+00 0.00000E+00 0.00000E+00 0.00000E+00 0.00000E+00
 -1      1321 0.00000E+00 0.00000E+00 0.00000E+00 0.00000E+00 0.00000E+00 0.00000E+00
 -1      1322 0.00000E+00 0.00000E+00 0.00000E+00 0.00000E+00 0.00000E+00 0.00000E+00
 -1      1323 0.00000E+00 0.00000E+00 0.00000E+00 0.00000E+00 0.00000E+00 0.00000E+00
 -1      1324 0.00000E+00 0.00000E+00 0.00000E+00 0.00000E+00 0.00000E+00 0.00000E+00
 -1      1325 0.00000E+00 0.00000E+00 0.00000E+00 0.00000E+00 0.00000E+00 0.00000E+00
 -1      1326 0.00000E+00 0.00000E+00 0.00000E+00 0.00000E+00 0.00000E+00 0.00000E+00
 -1      1327 0.00000E+00 0.00000E+00 0.00000E+00 0.00000E+00 0.00000E+00 0.00000E+00
 -1      1328 0.00000E+00 0.00000E+00 0.00000E+00 0.00000E+00 0.00000E+00 0.00000E+00
 -1      1329 0.00000E+00 0.00000E+00 0.00000E+00 0.00000E+00 0.00000E+00 0.00000E+00
 -1      1330 0.00000E+00 0.00000E+00 0.00000E+00 0.00000E+00 0.00000E+00 0.00000E+00
 -1      1331 0.00000E+00 0.00000E+00 0.00000E+00 0.00000E+00 0.00000E+00 0.00000E+00
 -1      1332 0.00000E+00 0.00000E+00 0.00000E+00 0.00000E+00 0.00000E+00 0.00000E+00
 -1      1333 0.00000E+00 0.00000E+00 0.00000E+00 0.00000E+00 0.00000E+00 0.00000E+00
 -1      1334 0.00000E+00 0.00000E+00 0.00000E+00 0.00000E+00 0.00000E+00 0.00000E+00
 -1      1335 0.00000E+00 0.00000E+00 0.00000E+00 0.00000E+00 0.00000E+00 0.00000E+00
 -1      1336 0.00000E+00 0.00000E+00 0.00000E+00 0.00000E+00 0.00000E+00 0.00000E+00
 -1      1337 0.00000E+00 0.00000E+00 0.00000E+00 0.00000E+00 0.00000E+00 0.00000E+00
 -1      1338 0.00000E+00 0.00000E+00 0.00000E+00 0.00000E+00 0.00000E+00 0.00000E+00
 -1      1339 0.00000E+00 0.00000E+00 0.00000E+00 0.00000E+00 0.00000E+00 0.00000E+00
 -1      1340 0.00000E+00 0.00000E+00 0.00000E+00 0.00000E+00 0.00000E+00 0.00000E+00
 -1      1341 0.00000E+00 0.00000E+00 0.00000E+00 0.00000E+00 0.00000E+00 0.00000E+00
 -1      1342 0.00000E+00 0.00000E+00 0.00000E+00 0.00000E+00 0.00000E+00 0.00000E+00
 -1      1343 0.00000E+00 0.00000E+00 0.00000E+00 0.00000E+00 0.00000E+00 0.00000E+00
 -1      1344 0.00000E+00 0.00000E+00 0.00000E+00 0.00000E+00 0.00000E+00 0.00000E+00
 -1      1345 0.00000E+00 0.00000E+00 0.00000E+00 0.00000E+00 0.00000E+00 0.00000E+00
 -1      1346 0.00000E+00 0.00000E+00 0.00000E+00 0.00000E+00 0.00000E+00 0.00000E+00
 -1      1347 0.00000E+00 0.00000E+00 0.00000E+00 0.00000E+00 0.00000E+00 0.00000E+00
 -1      1348 0.00000E+00 0.00000E+00 0.00000E+00 0.00000E+00 0.00000E+00 0.00000E+00
 -1      1349 0.00000E+00 0.00000E+00 0.00000E+00 0.00000E+00 0.00000E+00 0.00000E+00
 -1      1350 0.00000E+00 0.00000E+00 0.00000E+00 0.00000E+00 0.00000E+00 0.00000E+00
 -1      1351 0.00000E+00 0.00000E+00 0.00000E+00 0.00000E+00 0.00000E+00 0.00000E+00
 -1      1352 0.00000E+00 0.00000E+00 0.00000E+00 0.00000E+00 0.00000E+00 0.00000E+00
 -1      1353 0.00000E+00 0.00000E+00 0.00000E+00 0.00000E+00 0.00000E+00 0.00000E+00
 -1      1354 0.00000E+00 0.00000E+00 0.00000E+00 0.00000E+00 0.00000E+00 0.00000E+00
 -1      1355 0.00000E+00 0.00000E+00 0.00000E+00 0.00000E+00 0.00000E+00 0.00000E+00
 -1      1356 0.00000E+00 0.00000E+00 0.00000E+00 0.00000E+00 0.00000E+00 0.00000E+00
 -1      1357 0.00000E+00 0.00000E+00 0.00000E+00 0.00000E+00 0.00000E+00 0.00000E+00
 -1      1358 0.00000E+00 0.00000E+00 0.00000E+00 0.00000E+00 0.00000E+00 0.00000E+00
 -1      1359 0.00000E+00 0.00000E+00 0.00000E+00 0.00000E+00 0.00000E+00 0.00000E+00
 -1      1360 0.00000E+00 0.00000E+00 0.00000E+00 0.00000E+00 0.00000E+00 0.00000E+00
 -1      1361 0.00000E+00 0.00000E+00 0.00000E+00 0.00000E+00 0.00000E+00 0.00000E+00
 -1      1362 0.00000E+00 0.00000E+00 0.00000E+00 0.00000E+00 0.00000E+00 0.00000E+00
 -1      1363 0.00000E+00 0.00000E+00 0.00000E+00 0.00000E+00 0.00000E+00 0.00000E+00
 -1      1364 0.00000E+00 0.00000E+00 0.00000E+00 0.00000E+00 0.00000E+00 0.00000E+00
 -1      1365 0.00000E+00 0.00000E+00 0.00000E+00 0.00000E+00 0.00000E+00 0.00000E+00
 -1      1366 0.00000E+00 0.00000E+00 0.00000E+00 0.00000E+00 0.00000E+00 0.00000E+00
 -1      1367 0.00000E+00 0.00000E+00 0.00000E+00 0.00000E+00 0.00000E+00 0.00000E+00
 -1      1368 0.00000E+00 0.00000E+00 0.00000E+00 0.00000E+00 0.00000E+00 0.00000E+00
 -1      1369 0.00000E+00 0.00000E+00 0.00000E+00 0.00000E+00 0.00000E+00 0.00000E+00
 -1      1370 0.00000E+00 0.00000E+00 0.00000E+00 0.00000E+00 0.00000E+00 0.00000E+00
 -1      1371 0.00000E+00 0.00000E+00 0.00000E+00 0.00000E+00 0.00000E+00 0.00000E+00
 -1      1372 0.00000E+00 0.00000E+00 0.00000E+00 0.00000E+00 0.00000E+00 0.00000E+00
 -1      1373 0.00000E+00 0.00000E+00 0.00000E+00 0.00000E+00 0.00000E+00 0.00000E+00
 -1      1374 0.00000E+00 0.00000E+00 0.00000E+00 0.00000E+00 0.00000E+00 0.00000E+00
 -1      1375 0.00000E+00 0.00000E+00 0.00000E+00 0.00000E+00 0.00000E+00 0.00000E+00
 -1      1376 0.00000E+00 0.00000E+00 0.00000E+00 0.00000E+00 0.00000E+00 0.00000E+00
 -1      1377 0.00000E+00 0.00000E+00 0.00000E+00 0.00000E+00 0.00000E+00 0.00000E+00
 -1      1378 0.00000E+00 0.00000E+00 0.00000E+00 0.00000E+00 0.00000E+00 0.00000E+00
 -1      1379 0.00000E+00 0.00000E+00 0.00000E+00 0.00000E+00 0.00000E+00 0.00000E+00
 -1      1380 0.00000E+00 0.00000E+00 0.00000E+00 0.00000E+00 0.00000E+00 0.00000E+00
 -1      1381 0.00000E+00 0.00000E+00 0.00000E+00 0.00000E+00 0.00000E+00 0.00000E+00
 -1      1382 0.00000E+00 0.00000E+00 0.00000E+00 0.00000E+00 0.00000E+00 0.00000E+00
 -1      1383 0.00000E+00 0.00000E+00 0.00000E+00 0.00000E+00 0.00000E+00 0.00000E+00
 -1      1384 0.00000E+00 0.00000E+00 0.00000E+00 0.00000E+00 0.00000E+00 0.00000E+00
 -1      1385 0.00000E+00 0.00000E+00 0.00000E+00 0.00000E+00 0.00000E+00 0.00000E+00
 -1      1386 0.00000E+00 0.00000E+00 0.00000E+00 0.00000E+00 0.00000E+00 0.00000E+00
 -1      1387 0.00000E+00 0.00000E+00 0.00000E+00 0.00000E+00 0.00000E+00 0.00000E+00
 -1      1388 0.00000E+00 0.00000E+00 0.00000E+00 0.00000E+00 0.00000E+00 0.00000E+00
 -1      1389 0.00000E+00 0.00000E+00 0.00000E+00 0.00000E+00 0.00000E+00 0.00000E+00
 -1      1390 0.00000E+00 0.00000E+00 0.00000E+00 0.00000E+00 0.00000E+00 0.00000E+00
 -1      1391 0.00000E+00 0.00000E+00 0.00000E+00 0.00000E+00 0.00000E+00 0.00000E+00
 -1      1392 0.00000E+00 0.00000E+00 0.00000E+00 0.00000E+00 0.00000E+00 0.00000E+00
 -1      1393 0.00000E+00 0.00000E+00 0.00000E+00 0.00000E+00 0.00000E+00 0.00000E+00
 -1      1394 0.00000E+00 0.00000E+00 0.00000E+00 0.00000E+00 0.00000E+00 0.00000E+00
 -1      1395 0.00000E+00 0.00000E+00 0.00000E+00 0.00000E+00 0.00000E+00 0.00000E+00
 -1      1396 0.00000E+00 0.00000E+00 0.00000E+00 0.00000E+00 0.00000E+00 0.00000E+00
 -1      1397 0.00000E+00 0.00000E+00 0.00000E+00 0.00000E+00 0.00000E+00 0.00000E+00
 -1      1398 0.00000E+00 0.00000E+00 0.00000E+00 0.00000E+00 0.00000E+00 0.00000E+00
 -1      1399 0.00000E+00 0.00000E+00 0.00000E+00 0.00000E+00 0.00000E+00 0.00000E+00
 -1      1400 0.00000E+00 0.00000E+00 0.00000E+00 0.00000E+00 0.00000E+00 0.00000E+00
 -1      1401 0.00000E+00 0.00000E+00 0.00000E+00 0.00000E+00 0.00000E+00 0.00000E+00
 -1      1402 0.00000E+00 0.00000E+00 0.00000E+00 0.00000E+00 0.00000E+00 0.00000E+00
 -1      1403 0.00000E+00 0.00000E+00 0.00000E+00 0.00000E+00 0.00000E+00 0.00000E+00
 -1      1404 0.00000E+00 0.00000E+00 0.00000E+00 0.00000E+00 0.00000E+00 0.00000E+00
 -1      1405 0.00000E+00 0.00000E+00 0.00000E+00 0.00000E+00 0.00000E+00 0.00000E+00
 -1      1406 0.00000E+00 0.00000E+00 0.00000E+00 0.00000E+00 0.00000E+00 0.00000E+00
 -1      1407 0.00000E+00 0.00000E+00 0.00000E+00 0.00000E+00 0.00000E+00 0.00000E+00
 -1      1408 0.00000E+00 0.00000E+00 0.00000E+00 0.00000E+00 0.00000E+00 0.00000E+00
 -1      1409 0.00000E+00 0.00000E+00 0.00000E+00 0.00000E+00 0.00000E+00 0.00000E+00
 -1      1410 0.00000E+00 0.00000E+00 0.00000E+00 0.00000E+00 0.00000E+00 0.00000E+00
 -1      1411 0.00000E+00 0.00000E+00 0.00000E+00 0.00000E+00 0.00000E+00 0.00000E+00
 -1      1412 0.00000E+00 0.00000E+00 0.00000E+00 0.00000E+00 0.00000E+00 0.00000E+00
 -1      1413 0.00000E+00 0.00000E+00 0.00000E+00 0.00000E+00 0.00000E+00 0.00000E+00
 -1      1414-1.57773E-04 0.00000E+00 0.00000E+00 1.57773E+03 0.00000E+00 0.00000E+00
 -1      1415 0.00000E+00 0.00000E+00 0.00000E+00 0.00000E+00 0.00000E+00 0.00000E+00
 -1      1416 0.00000E+00 0.00000E+00 0.00000E+00 0.00000E+00 0.00000E+00 0.00000E+00
 -1      1417 0.00000E+00 0.00000E+00 0.00000E+00 0.00000E+00 0.00000E+00 0.00000E+00
 -1      1418 0.00000E+00 0.00000E+00 0.00000E+00 0.00000E+00 0.00000E+00 0.00000E+00
 -1      1419 0.00000E+00 0.00000E+00 0.00000E+00 0.00000E+00 0.00000E+00 0.00000E+00
 -1      1420 0.00000E+00 0.00000E+00 0.00000E+00 0.00000E+00 0.00000E+00 0.00000E+00
 -1      1421 0.00000E+00 0.00000E+00 0.00000E+00 0.00000E+00 0.00000E+00 0.00000E+00
 -1      1422 0.00000E+00 0.00000E+00 0.00000E+00 0.00000E+00 0.00000E+00 0.00000E+00
 -1      1423 0.00000E+00 0.00000E+00 0.00000E+00 0.00000E+00 0.00000E+00 0.00000E+00
 -1      1424 0.00000E+00 0.00000E+00 0.00000E+00 0.00000E+00 0.00000E+00 0.00000E+00
 -1      1425 0.00000E+00 0.00000E+00 0.00000E+00 0.00000E+00 0.00000E+00 0.00000E+00
 -1      1426 0.00000E+00 0.00000E+00 0.00000E+00 0.00000E+00 0.00000E+00 0.00000E+00
 -1      1427 0.00000E+00 0.00000E+00 0.00000E+00 0.00000E+00 0.00000E+00 0.00000E+00
 -1      1428 0.00000E+00 0.00000E+00 0.00000E+00 0.00000E+00 0.00000E+00 0.00000E+00
 -1      1429 0.00000E+00 0.00000E+00 0.00000E+00 0.00000E+00 0.00000E+00 0.00000E+00
 -1      1430 0.00000E+00 0.00000E+00 0.00000E+00 0.00000E+00 0.00000E+00 0.00000E+00
 -1      1431 0.00000E+00 0.00000E+00 0.00000E+00 0.00000E+00 0.00000E+00 0.00000E+00
 -1      1432 0.00000E+00 0.00000E+00 0.00000E+00 0.00000E+00 0.00000E+00 0.00000E+00
 -1      1433 0.00000E+00 0.00000E+00 0.00000E+00 0.00000E+00 0.00000E+00 0.00000E+00
 -1      1434 0.00000E+00 0.00000E+00 0.00000E+00 0.00000E+00 0.00000E+00 0.00000E+00
 -1      1435 0.00000E+00 0.00000E+00 0.00000E+00 0.00000E+00 0.00000E+00 0.00000E+00
 -1      1436 0.00000E+00 0.00000E+00 0.00000E+00 0.00000E+00 0.00000E+00 0.00000E+00
 -1      1437 0.00000E+00 0.00000E+00 0.00000E+00 0.00000E+00 0.00000E+00 0.00000E+00
 -1      1438 0.00000E+00 0.00000E+00 0.00000E+00 0.00000E+00 0.00000E+00 0.00000E+00
 -1      1439 0.00000E+00 0.00000E+00 0.00000E+00 0.00000E+00 0.00000E+00 0.00000E+00
 -1      1440 0.00000E+00 0.00000E+00 0.00000E+00 0.00000E+00 0.00000E+00 0.00000E+00
 -1      1441 0.00000E+00 0.00000E+00 0.00000E+00 0.00000E+00 0.00000E+00 0.00000E+00
 -1      1442 0.00000E+00 0.00000E+00 0.00000E+00 0.00000E+00 0.00000E+00 0.00000E+00
 -1      1443 0.00000E+00 0.00000E+00 0.00000E+00 0.00000E+00 0.00000E+00 0.00000E+00
 -1      1444 0.00000E+00 0.00000E+00 0.00000E+00 0.00000E+00 0.00000E+00 0.00000E+00
 -1      1445 0.00000E+00 0.00000E+00 0.00000E+00 0.00000E+00 0.00000E+00 0.00000E+00
 -1      1446 0.00000E+00 0.00000E+00 0.00000E+00 0.00000E+00 0.00000E+00 0.00000E+00
 -1      1447 0.00000E+00 0.00000E+00 0.00000E+00 0.00000E+00 0.00000E+00 0.00000E+00
 -1      1448 0.00000E+00 0.00000E+00 0.00000E+00 0.00000E+00 0.00000E+00 0.00000E+00
 -1      1449 0.00000E+00 0.00000E+00 0.00000E+00 0.00000E+00 0.00000E+00 0.00000E+00
 -1      1450 0.00000E+00 0.00000E+00 0.00000E+00 0.00000E+00 0.00000E+00 0.00000E+00
 -1      1451 0.00000E+00 0.00000E+00 0.00000E+00 0.00000E+00 0.00000E+00 0.00000E+00
 -1      1452 0.00000E+00 0.00000E+00 0.00000E+00 0.00000E+00 0.00000E+00 0.00000E+00
 -1      1453 0.00000E+00 0.00000E+00 0.00000E+00 0.00000E+00 0.00000E+00 0.00000E+00
 -1      1454 0.00000E+00 0.00000E+00 0.00000E+00 0.00000E+00 0.00000E+00 0.00000E+00
 -1      1455 0.00000E+00 0.00000E+00 0.00000E+00 0.00000E+00 0.00000E+00 0.00000E+00
 -1      1456 0.00000E+00 0.00000E+00 0.00000E+00 0.00000E+00 0.00000E+00 0.00000E+00
 -1      1457 0.00000E+00 0.00000E+00 0.00000E+00 0.00000E+00 0.00000E+00 0.00000E+00
 -1      1458 0.00000E+00 0.00000E+00 0.00000E+00 0.00000E+00 0.00000E+00 0.00000E+00
 -1      1459 0.00000E+00 0.00000E+00 0.00000E+00 0.00000E+00 0.00000E+00 0.00000E+00
 -1      1460 0.00000E+00 0.00000E+00 0.00000E+00 0.00000E+00 0.00000E+00 0.00000E+00
 -1      1461 0.00000E+00 0.00000E+00 0.00000E+00 0.00000E+00 0.00000E+00 0.00000E+00
 -1      1462 0.00000E+00 0.00000E+00 0.00000E+00 0.00000E+00 0.00000E+00 0.00000E+00
 -1      1463 0.00000E+00 0.00000E+00 0.00000E+00 0.00000E+00 0.00000E+00 0.00000E+00
 -1      1464 0.00000E+00 0.00000E+00 0.00000E+00 0.00000E+00 0.00000E+00 0.00000E+00
 -1      1465 0.00000E+00 0.00000E+00 0.00000E+00 0.00000E+00 0.00000E+00 0.00000E+00
 -1      1466 0.00000E+00 0.00000E+00 0.00000E+00 0.00000E+00 0.00000E+00 0.00000E+00
 -1      1467 0.00000E+00 0.00000E+00 0.00000E+00 0.00000E+00 0.00000E+00 0.00000E+00
 -1      1468 0.00000E+00 0.00000E+00 0.00000E+00 0.00000E+00 0.00000E+00 0.00000E+00
 -1      1469 0.00000E+00 0.00000E+00 0.00000E+00 0.00000E+00 0.00000E+00 0.00000E+00
 -1      1470 0.00000E+00 0.00000E+00 0.00000E+00 0.00000E+00 0.00000E+00 0.00000E+00
 -1      1471 0.00000E+00 0.00000E+00 0.00000E+00 0.00000E+00 0.00000E+00 0.00000E+00
 -1      1472 0.00000E+00 0.00000E+00 0.00000E+00 0.00000E+00 0.00000E+00 0.00000E+00
 -1      1473 0.00000E+00 0.00000E+00 0.00000E+00 0.00000E+00 0.00000E+00 0.00000E+00
 -1      1474 0.00000E+00 0.00000E+00 0.00000E+00 0.00000E+00 0.00000E+00 0.00000E+00
 -1      1475 0.00000E+00 0.00000E+00 0.00000E+00 0.00000E+00 0.00000E+00 0.00000E+00
 -1      1476 0.00000E+00 0.00000E+00 0.00000E+00 0.00000E+00 0.00000E+00 0.00000E+00
 -1      1477 0.00000E+00 0.00000E+00 0.00000E+00 0.00000E+00 0.00000E+00 0.00000E+00
 -1      1478 0.00000E+00 0.00000E+00 0.00000E+00 0.00000E+00 0.00000E+00 0.00000E+00
 -1      1479 0.00000E+00 0.00000E+00 0.00000E+00 0.00000E+00 0.00000E+00 0.00000E+00
 -1      1480 0.00000E+00 0.00000E+00 0.00000E+00 0.00000E+00 0.00000E+00 0.00000E+00
 -1      1481 0.00000E+00 0.00000E+00 0.00000E+00 0.00000E+00 0.00000E+00 0.00000E+00
 -1      1482 0.00000E+00 0.00000E+00 0.00000E+00 0.00000E+00 0.00000E+00 0.00000E+00
 -1      1483-1.21374E-04 0.00000E+00 0.00000E+00 1.21374E+03 0.00000E+00 0.00000E+00
 -1      1484 0.00000E+00 0.00000E+00 0.00000E+00 0.00000E+00 0.00000E+00 0.00000E+00
 -1      1485 0.00000E+00 0.00000E+00 0.00000E+00 0.00000E+00 0.00000E+00 0.00000E+00
 -1      1486 0.00000E+00 0.00000E+00 0.00000E+00 0.00000E+00 0.00000E+00 0.00000E+00
 -1      1487 0.00000E+00 0.00000E+00 0.00000E+00 0.00000E+00 0.00000E+00 0.00000E+00
 -1      1488 0.00000E+00 0.00000E+00 0.00000E+00 0.00000E+00 0.00000E+00 0.00000E+00
 -1      1489 0.00000E+00 0.00000E+00 0.00000E+00 0.00000E+00 0.00000E+00 0.00000E+00
 -1      1490 0.00000E+00 0.00000E+00 0.00000E+00 0.00000E+00 0.00000E+00 0.00000E+00
 -1      1491 0.00000E+00 0.00000E+00 0.00000E+00 0.00000E+00 0.00000E+00 0.00000E+00
 -1      1492 0.00000E+00 0.00000E+00 0.00000E+00 0.00000E+00 0.00000E+00 0.00000E+00
 -1      1493 0.00000E+00 0.00000E+00 0.00000E+00 0.00000E+00 0.00000E+00 0.00000E+00
 -1      1494 0.00000E+00 0.00000E+00 0.00000E+00 0.00000E+00 0.00000E+00 0.00000E+00
 -1      1495 0.00000E+00 0.00000E+00 0.00000E+00 0.00000E+00 0.00000E+00 0.00000E+00
 -1      1496 0.00000E+00 0.00000E+00 0.00000E+00 0.00000E+00 0.00000E+00 0.00000E+00
 -1      1497 0.00000E+00 0.00000E+00 0.00000E+00 0.00000E+00 0.00000E+00 0.00000E+00
 -1      1498 0.00000E+00 0.00000E+00 0.00000E+00 0.00000E+00 0.00000E+00 0.00000E+00
 -1      1499 0.00000E+00 0.00000E+00 0.00000E+00 0.00000E+00 0.00000E+00 0.00000E+00
 -1      1500 0.00000E+00 0.00000E+00 0.00000E+00 0.00000E+00 0.00000E+00 0.00000E+00
 -1      1501 0.00000E+00 0.00000E+00 0.00000E+00 0.00000E+00 0.00000E+00 0.00000E+00
 -1      1502 0.00000E+00 0.00000E+00 0.00000E+00 0.00000E+00 0.00000E+00 0.00000E+00
 -1      1503 0.00000E+00 0.00000E+00 0.00000E+00 0.00000E+00 0.00000E+00 0.00000E+00
 -1      1504 0.00000E+00 0.00000E+00 0.00000E+00 0.00000E+00 0.00000E+00 0.00000E+00
 -1      1505 0.00000E+00 0.00000E+00 0.00000E+00 0.00000E+00 0.00000E+00 0.00000E+00
 -1      1506 0.00000E+00 0.00000E+00 0.00000E+00 0.00000E+00 0.00000E+00 0.00000E+00
 -1      1507 0.00000E+00 0.00000E+00 0.00000E+00 0.00000E+00 0.00000E+00 0.00000E+00
 -1      1508 0.00000E+00 0.00000E+00 0.00000E+00 0.00000E+00 0.00000E+00 0.00000E+00
 -1      1509 0.00000E+00 0.00000E+00 0.00000E+00 0.00000E+00 0.00000E+00 0.00000E+00
 -1      1510 0.00000E+00 0.00000E+00 0.00000E+00 0.00000E+00 0.00000E+00 0.00000E+00
 -1      1511 0.00000E+00 0.00000E+00 0.00000E+00 0.00000E+00 0.00000E+00 0.00000E+00
 -1      1512 0.00000E+00 0.00000E+00 0.00000E+00 0.00000E+00 0.00000E+00 0.00000E+00
 -1      1513 0.00000E+00 0.00000E+00 0.00000E+00 0.00000E+00 0.00000E+00 0.00000E+00
 -1      1514 0.00000E+00 0.00000E+00 0.00000E+00 0.00000E+00 0.00000E+00 0.00000E+00
 -1      1515 0.00000E+00 0.00000E+00 0.00000E+00 0.00000E+00 0.00000E+00 0.00000E+00
 -1      1516 0.00000E+00 0.00000E+00 0.00000E+00 0.00000E+00 0.00000E+00 0.00000E+00
 -1      1517 0.00000E+00 0.00000E+00 0.00000E+00 0.00000E+00 0.00000E+00 0.00000E+00
 -1      1518 0.00000E+00 0.00000E+00 0.00000E+00 0.00000E+00 0.00000E+00 0.00000E+00
 -1      1519 0.00000E+00 0.00000E+00 0.00000E+00 0.00000E+00 0.00000E+00 0.00000E+00
 -1      1520 0.00000E+00 0.00000E+00 0.00000E+00 0.00000E+00 0.00000E+00 0.00000E+00
 -1      1521 0.00000E+00 0.00000E+00 0.00000E+00 0.00000E+00 0.00000E+00 0.00000E+00
 -1      1522 0.00000E+00 0.00000E+00 0.00000E+00 0.00000E+00 0.00000E+00 0.00000E+00
 -1      1523 0.00000E+00 0.00000E+00 0.00000E+00 0.00000E+00 0.00000E+00 0.00000E+00
 -1      1524 0.00000E+00 0.00000E+00 0.00000E+00 0.00000E+00 0.00000E+00 0.00000E+00
 -1      1525 0.00000E+00 0.00000E+00 0.00000E+00 0.00000E+00 0.00000E+00 0.00000E+00
 -1      1526 0.00000E+00 0.00000E+00 0.00000E+00 0.00000E+00 0.00000E+00 0.00000E+00
 -1      1527 0.00000E+00 0.00000E+00 0.00000E+00 0.00000E+00 0.00000E+00 0.00000E+00
 -1      1528 0.00000E+00 0.00000E+00 0.00000E+00 0.00000E+00 0.00000E+00 0.00000E+00
 -1      1529-5.22071E-05 0.00000E+00 0.00000E+00 5.22071E+02 0.00000E+00 0.00000E+00
 -1      1530 0.00000E+00 0.00000E+00 0.00000E+00 0.00000E+00 0.00000E+00 0.00000E+00
 -1      1531 0.00000E+00 0.00000E+00 0.00000E+00 0.00000E+00 0.00000E+00 0.00000E+00
 -1      1532 0.00000E+00 0.00000E+00 0.00000E+00 0.00000E+00 0.00000E+00 0.00000E+00
 -1      1533 0.00000E+00 0.00000E+00 0.00000E+00 0.00000E+00 0.00000E+00 0.00000E+00
 -1      1534 0.00000E+00 0.00000E+00 0.00000E+00 0.00000E+00 0.00000E+00 0.00000E+00
 -1      1535 0.00000E+00 0.00000E+00 0.00000E+00 0.00000E+00 0.00000E+00 0.00000E+00
 -1      1536 0.00000E+00 0.00000E+00 0.00000E+00 0.00000E+00 0.00000E+00 0.00000E+00
 -1      1537 0.00000E+00 0.00000E+00 0.00000E+00 0.00000E+00 0.00000E+00 0.00000E+00
 -1      1538 0.00000E+00 0.00000E+00 0.00000E+00 0.00000E+00 0.00000E+00 0.00000E+00
 -1      1539 0.00000E+00 0.00000E+00 0.00000E+00 0.00000E+00 0.00000E+00 0.00000E+00
 -1      1540 0.00000E+00 0.00000E+00 0.00000E+00 0.00000E+00 0.00000E+00 0.00000E+00
 -1      1541 0.00000E+00 0.00000E+00 0.00000E+00 0.00000E+00 0.00000E+00 0.00000E+00
 -1      1542 0.00000E+00 0.00000E+00 0.00000E+00 0.00000E+00 0.00000E+00 0.00000E+00
 -1      1543 0.00000E+00 0.00000E+00 0.00000E+00 0.00000E+00 0.00000E+00 0.00000E+00
 -1      1544 0.00000E+00 0.00000E+00 0.00000E+00 0.00000E+00 0.00000E+00 0.00000E+00
 -1      1545 0.00000E+00 0.00000E+00 0.00000E+00 0.00000E+00 0.00000E+00 0.00000E+00
 -1      1546 0.00000E+00 0.00000E+00 0.00000E+00 0.00000E+00 0.00000E+00 0.00000E+00
 -1      1547 0.00000E+00 0.00000E+00 0.00000E+00 0.00000E+00 0.00000E+00 0.00000E+00
 -1      1548 0.00000E+00 0.00000E+00 0.00000E+00 0.00000E+00 0.00000E+00 0.00000E+00
 -1      1549 0.00000E+00 0.00000E+00 0.00000E+00 0.00000E+00 0.00000E+00 0.00000E+00
 -1      1550 0.00000E+00 0.00000E+00 0.00000E+00 0.00000E+00 0.00000E+00 0.00000E+00
 -1      1551 0.00000E+00 0.00000E+00 0.00000E+00 0.00000E+00 0.00000E+00 0.00000E+00
 -1      1552 0.00000E+00 0.00000E+00 0.00000E+00 0.00000E+00 0.00000E+00 0.00000E+00
 -1      1553 0.00000E+00 0.00000E+00 0.00000E+00 0.00000E+00 0.00000E+00 0.00000E+00
 -1      1554 0.00000E+00 0.00000E+00 0.00000E+00 0.00000E+00 0.00000E+00 0.00000E+00
 -1      1555 0.00000E+00 0.00000E+00 0.00000E+00 0.00000E+00 0.00000E+00 0.00000E+00
 -1      1556 0.00000E+00 0.00000E+00 0.00000E+00 0.00000E+00 0.00000E+00 0.00000E+00
 -1      1557 0.00000E+00 0.00000E+00 0.00000E+00 0.00000E+00 0.00000E+00 0.00000E+00
 -1      1558 0.00000E+00 0.00000E+00 0.00000E+00 0.00000E+00 0.00000E+00 0.00000E+00
 -1      1559 0.00000E+00 0.00000E+00 0.00000E+00 0.00000E+00 0.00000E+00 0.00000E+00
 -1      1560 0.00000E+00 0.00000E+00 0.00000E+00 0.00000E+00 0.00000E+00 0.00000E+00
 -1      1561 0.00000E+00 0.00000E+00 0.00000E+00 0.00000E+00 0.00000E+00 0.00000E+00
 -1      1562 0.00000E+00 0.00000E+00 0.00000E+00 0.00000E+00 0.00000E+00 0.00000E+00
 -1      1563 0.00000E+00 0.00000E+00 0.00000E+00 0.00000E+00 0.00000E+00 0.00000E+00
 -1      1564 0.00000E+00 0.00000E+00 0.00000E+00 0.00000E+00 0.00000E+00 0.00000E+00
 -1      1565 0.00000E+00 0.00000E+00 0.00000E+00 0.00000E+00 0.00000E+00 0.00000E+00
 -1      1566 0.00000E+00 0.00000E+00 0.00000E+00 0.00000E+00 0.00000E+00 0.00000E+00
 -1      1567 0.00000E+00 0.00000E+00 0.00000E+00 0.00000E+00 0.00000E+00 0.00000E+00
 -1      1568 0.00000E+00 0.00000E+00 0.00000E+00 0.00000E+00 0.00000E+00 0.00000E+00
 -1      1569 0.00000E+00 0.00000E+00 0.00000E+00 0.00000E+00 0.00000E+00 0.00000E+00
 -1      1570 0.00000E+00 0.00000E+00 0.00000E+00 0.00000E+00 0.00000E+00 0.00000E+00
 -1      1571 0.00000E+00 0.00000E+00 0.00000E+00 0.00000E+00 0.00000E+00 0.00000E+00
 -1      1572 0.00000E+00 0.00000E+00 0.00000E+00 0.00000E+00 0.00000E+00 0.00000E+00
 -1      1573 0.00000E+00 0.00000E+00 0.00000E+00 0.00000E+00 0.00000E+00 0.00000E+00
 -1      1574 0.00000E+00 0.00000E+00 0.00000E+00 0.00000E+00 0.00000E+00 0.00000E+00
 -1      1575 0.00000E+00 0.00000E+00 0.00000E+00 0.00000E+00 0.00000E+00 0.00000E+00
 -1      1576 0.00000E+00 0.00000E+00 0.00000E+00 0.00000E+00 0.00000E+00 0.00000E+00
 -1      1577 0.00000E+00 0.00000E+00 0.00000E+00 0.00000E+00 0.00000E+00 0.00000E+00
 -1      1578 0.00000E+00 0.00000E+00 0.00000E+00 0.00000E+00 0.00000E+00 0.00000E+00
 -1      1579 0.00000E+00 0.00000E+00 0.00000E+00 0.00000E+00 0.00000E+00 0.00000E+00
 -1      1580 0.00000E+00 0.00000E+00 0.00000E+00 0.00000E+00 0.00000E+00 0.00000E+00
 -1      1581 0.00000E+00 0.00000E+00 0.00000E+00 0.00000E+00 0.00000E+00 0.00000E+00
 -1      1582 0.00000E+00 0.00000E+00 0.00000E+00 0.00000E+00 0.00000E+00 0.00000E+00
 -1      1583 0.00000E+00 0.00000E+00 0.00000E+00 0.00000E+00 0.00000E+00 0.00000E+00
 -1      1584 0.00000E+00 0.00000E+00 0.00000E+00 0.00000E+00 0.00000E+00 0.00000E+00
 -1      1585 0.00000E+00 0.00000E+00 0.00000E+00 0.00000E+00 0.00000E+00 0.00000E+00
 -1      1586 0.00000E+00 0.00000E+00 0.00000E+00 0.00000E+00 0.00000E+00 0.00000E+00
 -1      1587 0.00000E+00 0.00000E+00 0.00000E+00 0.00000E+00 0.00000E+00 0.00000E+00
 -1      1588 0.00000E+00 0.00000E+00 0.00000E+00 0.00000E+00 0.00000E+00 0.00000E+00
 -1      1589 0.00000E+00 0.00000E+00 0.00000E+00 0.00000E+00 0.00000E+00 0.00000E+00
 -1      1590 0.00000E+00 0.00000E+00 0.00000E+00 0.00000E+00 0.00000E+00 0.00000E+00
 -1      1591 0.00000E+00 0.00000E+00 0.00000E+00 0.00000E+00 0.00000E+00 0.00000E+00
 -1      1592 0.00000E+00 0.00000E+00 0.00000E+00 0.00000E+00 0.00000E+00 0.00000E+00
 -1      1593 0.00000E+00 0.00000E+00 0.00000E+00 0.00000E+00 0.00000E+00 0.00000E+00
 -1      1594 0.00000E+00 0.00000E+00 0.00000E+00 0.00000E+00 0.00000E+00 0.00000E+00
 -1      1595 0.00000E+00 0.00000E+00 0.00000E+00 0.00000E+00 0.00000E+00 0.00000E+00
 -1      1596 0.00000E+00 0.00000E+00 0.00000E+00 0.00000E+00 0.00000E+00 0.00000E+00
 -1      1597 0.00000E+00 0.00000E+00 0.00000E+00 0.00000E+00 0.00000E+00 0.00000E+00
 -1      1598 0.00000E+00 0.00000E+00 0.00000E+00 0.00000E+00 0.00000E+00 0.00000E+00
 -1      1599 0.00000E+00 0.00000E+00 0.00000E+00 0.00000E+00 0.00000E+00 0.00000E+00
 -1      1600 0.00000E+00 0.00000E+00 0.00000E+00 0.00000E+00 0.00000E+00 0.00000E+00
 -1      1601 0.00000E+00 0.00000E+00 0.00000E+00 0.00000E+00 0.00000E+00 0.00000E+00
 -1      1602 0.00000E+00 0.00000E+00 0.00000E+00 0.00000E+00 0.00000E+00 0.00000E+00
 -1      1603 0.00000E+00 0.00000E+00 0.00000E+00 0.00000E+00 0.00000E+00 0.00000E+00
 -1      1604 0.00000E+00 0.00000E+00 0.00000E+00 0.00000E+00 0.00000E+00 0.00000E+00
 -1      1605 0.00000E+00 0.00000E+00 0.00000E+00 0.00000E+00 0.00000E+00 0.00000E+00
 -1      1606 0.00000E+00 0.00000E+00 0.00000E+00 0.00000E+00 0.00000E+00 0.00000E+00
 -1      1607 0.00000E+00 0.00000E+00 0.00000E+00 0.00000E+00 0.00000E+00 0.00000E+00
 -1      1608 0.00000E+00 0.00000E+00 0.00000E+00 0.00000E+00 0.00000E+00 0.00000E+00
 -1      1609 0.00000E+00 0.00000E+00 0.00000E+00 0.00000E+00 0.00000E+00 0.00000E+00
 -1      1610 0.00000E+00 0.00000E+00 0.00000E+00 0.00000E+00 0.00000E+00 0.00000E+00
 -1      1611 0.00000E+00 0.00000E+00 0.00000E+00 0.00000E+00 0.00000E+00 0.00000E+00
 -1      1612 0.00000E+00 0.00000E+00 0.00000E+00 0.00000E+00 0.00000E+00 0.00000E+00
 -1      1613 0.00000E+00 0.00000E+00 0.00000E+00 0.00000E+00 0.00000E+00 0.00000E+00
 -1      1614 0.00000E+00 0.00000E+00 0.00000E+00 0.00000E+00 0.00000E+00 0.00000E+00
 -1      1615 0.00000E+00 0.00000E+00 0.00000E+00 0.00000E+00 0.00000E+00 0.00000E+00
 -1      1616 0.00000E+00 0.00000E+00 0.00000E+00 0.00000E+00 0.00000E+00 0.00000E+00
 -1      1617 0.00000E+00 0.00000E+00 0.00000E+00 0.00000E+00 0.00000E+00 0.00000E+00
 -1      1618 0.00000E+00 0.00000E+00 0.00000E+00 0.00000E+00 0.00000E+00 0.00000E+00
 -1      1619 0.00000E+00 0.00000E+00 0.00000E+00 0.00000E+00 0.00000E+00 0.00000E+00
 -1      1620 0.00000E+00 0.00000E+00 0.00000E+00 0.00000E+00 0.00000E+00 0.00000E+00
 -1      1621 0.00000E+00 0.00000E+00 0.00000E+00 0.00000E+00 0.00000E+00 0.00000E+00
 -1      1622 0.00000E+00 0.00000E+00 0.00000E+00 0.00000E+00 0.00000E+00 0.00000E+00
 -1      1623 0.00000E+00 0.00000E+00 0.00000E+00 0.00000E+00 0.00000E+00 0.00000E+00
 -1      1624 0.00000E+00 0.00000E+00 0.00000E+00 0.00000E+00 0.00000E+00 0.00000E+00
 -1      1625 0.00000E+00 0.00000E+00 0.00000E+00 0.00000E+00 0.00000E+00 0.00000E+00
 -1      1626 0.00000E+00 0.00000E+00 0.00000E+00 0.00000E+00 0.00000E+00 0.00000E+00
 -1      1627 0.00000E+00 0.00000E+00 0.00000E+00 0.00000E+00 0.00000E+00 0.00000E+00
 -1      1628 0.00000E+00 0.00000E+00 0.00000E+00 0.00000E+00 0.00000E+00 0.00000E+00
 -1      1629 0.00000E+00 0.00000E+00 0.00000E+00 0.00000E+00 0.00000E+00 0.00000E+00
 -1      1630 0.00000E+00 0.00000E+00 0.00000E+00 0.00000E+00 0.00000E+00 0.00000E+00
 -1      1631 0.00000E+00 0.00000E+00 0.00000E+00 0.00000E+00 0.00000E+00 0.00000E+00
 -1      1632 0.00000E+00 0.00000E+00 0.00000E+00 0.00000E+00 0.00000E+00 0.00000E+00
 -1      1633 0.00000E+00 0.00000E+00 0.00000E+00 0.00000E+00 0.00000E+00 0.00000E+00
 -1      1634 0.00000E+00 0.00000E+00 0.00000E+00 0.00000E+00 0.00000E+00 0.00000E+00
 -1      1635 0.00000E+00 0.00000E+00 0.00000E+00 0.00000E+00 0.00000E+00 0.00000E+00
 -1      1636 0.00000E+00 0.00000E+00 0.00000E+00 0.00000E+00 0.00000E+00 0.00000E+00
 -1      1637 0.00000E+00 0.00000E+00 0.00000E+00 0.00000E+00 0.00000E+00 0.00000E+00
 -1      1638 0.00000E+00 0.00000E+00 0.00000E+00 0.00000E+00 0.00000E+00 0.00000E+00
 -1      1639 0.00000E+00 0.00000E+00 0.00000E+00 0.00000E+00 0.00000E+00 0.00000E+00
 -1      1640 0.00000E+00 0.00000E+00 0.00000E+00 0.00000E+00 0.00000E+00 0.00000E+00
 -1      1641 0.00000E+00 0.00000E+00 0.00000E+00 0.00000E+00 0.00000E+00 0.00000E+00
 -1      1642 0.00000E+00 0.00000E+00 0.00000E+00 0.00000E+00 0.00000E+00 0.00000E+00
 -1      1643 0.00000E+00 0.00000E+00 0.00000E+00 0.00000E+00 0.00000E+00 0.00000E+00
 -1      1644 0.00000E+00 0.00000E+00 0.00000E+00 0.00000E+00 0.00000E+00 0.00000E+00
 -1      1645 0.00000E+00 0.00000E+00 0.00000E+00 0.00000E+00 0.00000E+00 0.00000E+00
 -1      1646 0.00000E+00 0.00000E+00 0.00000E+00 0.00000E+00 0.00000E+00 0.00000E+00
 -1      1647 0.00000E+00 0.00000E+00 0.00000E+00 0.00000E+00 0.00000E+00 0.00000E+00
 -1      1648 0.00000E+00 0.00000E+00 0.00000E+00 0.00000E+00 0.00000E+00 0.00000E+00
 -1      1649 0.00000E+00 0.00000E+00 0.00000E+00 0.00000E+00 0.00000E+00 0.00000E+00
 -1      1650 0.00000E+00 0.00000E+00 0.00000E+00 0.00000E+00 0.00000E+00 0.00000E+00
 -1      1651 0.00000E+00 0.00000E+00 0.00000E+00 0.00000E+00 0.00000E+00 0.00000E+00
 -1      1652 0.00000E+00 0.00000E+00 0.00000E+00 0.00000E+00 0.00000E+00 0.00000E+00
 -1      1653 0.00000E+00 0.00000E+00 0.00000E+00 0.00000E+00 0.00000E+00 0.00000E+00
 -1      1654 0.00000E+00 0.00000E+00 0.00000E+00 0.00000E+00 0.00000E+00 0.00000E+00
 -1      1655 0.00000E+00 0.00000E+00 0.00000E+00 0.00000E+00 0.00000E+00 0.00000E+00
 -1      1656 0.00000E+00 0.00000E+00 0.00000E+00 0.00000E+00 0.00000E+00 0.00000E+00
 -1      1657 0.00000E+00 0.00000E+00 0.00000E+00 0.00000E+00 0.00000E+00 0.00000E+00
 -1      1658 0.00000E+00 0.00000E+00 0.00000E+00 0.00000E+00 0.00000E+00 0.00000E+00
 -1      1659 0.00000E+00 0.00000E+00 0.00000E+00 0.00000E+00 0.00000E+00 0.00000E+00
 -1      1660 0.00000E+00 0.00000E+00 0.00000E+00 0.00000E+00 0.00000E+00 0.00000E+00
 -1      1661 0.00000E+00 0.00000E+00 0.00000E+00 0.00000E+00 0.00000E+00 0.00000E+00
 -1      1662 0.00000E+00 0.00000E+00 0.00000E+00 0.00000E+00 0.00000E+00 0.00000E+00
 -1      1663 0.00000E+00 0.00000E+00 0.00000E+00 0.00000E+00 0.00000E+00 0.00000E+00
 -1      1664 0.00000E+00 0.00000E+00 0.00000E+00 0.00000E+00 0.00000E+00 0.00000E+00
 -1      1665 0.00000E+00 0.00000E+00 0.00000E+00 0.00000E+00 0.00000E+00 0.00000E+00
 -1      1666 0.00000E+00 0.00000E+00 0.00000E+00 0.00000E+00 0.00000E+00 0.00000E+00
 -1      1667 0.00000E+00 0.00000E+00 0.00000E+00 0.00000E+00 0.00000E+00 0.00000E+00
 -1      1668 0.00000E+00 0.00000E+00 0.00000E+00 0.00000E+00 0.00000E+00 0.00000E+00
 -1      1669 0.00000E+00 0.00000E+00 0.00000E+00 0.00000E+00 0.00000E+00 0.00000E+00
 -1      1670 0.00000E+00 0.00000E+00 0.00000E+00 0.00000E+00 0.00000E+00 0.00000E+00
 -1      1671 0.00000E+00 0.00000E+00 0.00000E+00 0.00000E+00 0.00000E+00 0.00000E+00
 -1      1672 0.00000E+00 0.00000E+00 0.00000E+00 0.00000E+00 0.00000E+00 0.00000E+00
 -1      1673 0.00000E+00 0.00000E+00 0.00000E+00 0.00000E+00 0.00000E+00 0.00000E+00
 -1      1674 0.00000E+00 0.00000E+00 0.00000E+00 0.00000E+00 0.00000E+00 0.00000E+00
 -1      1675 0.00000E+00 0.00000E+00 0.00000E+00 0.00000E+00 0.00000E+00 0.00000E+00
 -1      1676 0.00000E+00 0.00000E+00 0.00000E+00 0.00000E+00 0.00000E+00 0.00000E+00
 -1      1677 0.00000E+00 0.00000E+00 0.00000E+00 0.00000E+00 0.00000E+00 0.00000E+00
 -1      1678 0.00000E+00 0.00000E+00 0.00000E+00 0.00000E+00 0.00000E+00 0.00000E+00
 -1      1679 0.00000E+00 0.00000E+00 0.00000E+00 0.00000E+00 0.00000E+00 0.00000E+00
 -1      1680 0.00000E+00 0.00000E+00 0.00000E+00 0.00000E+00 0.00000E+00 0.00000E+00
 -1      1681 0.00000E+00 0.00000E+00 0.00000E+00 0.00000E+00 0.00000E+00 0.00000E+00
 -1      1682 0.00000E+00 0.00000E+00 0.00000E+00 0.00000E+00 0.00000E+00 0.00000E+00
 -1      1683 0.00000E+00 0.00000E+00 0.00000E+00 0.00000E+00 0.00000E+00 0.00000E+00
 -1      1684 0.00000E+00 0.00000E+00 0.00000E+00 0.00000E+00 0.00000E+00 0.00000E+00
 -1      1685 0.00000E+00 0.00000E+00 0.00000E+00 0.00000E+00 0.00000E+00 0.00000E+00
 -1      1686 0.00000E+00 0.00000E+00 0.00000E+00 0.00000E+00 0.00000E+00 0.00000E+00
 -1      1687 0.00000E+00 0.00000E+00 0.00000E+00 0.00000E+00 0.00000E+00 0.00000E+00
 -1      1688 0.00000E+00 0.00000E+00 0.00000E+00 0.00000E+00 0.00000E+00 0.00000E+00
 -1      1689 0.00000E+00 0.00000E+00 0.00000E+00 0.00000E+00 0.00000E+00 0.00000E+00
 -1      1690 0.00000E+00 0.00000E+00 0.00000E+00 0.00000E+00 0.00000E+00 0.00000E+00
 -1      1691 0.00000E+00 0.00000E+00 0.00000E+00 0.00000E+00 0.00000E+00 0.00000E+00
 -1      1692 0.00000E+00 0.00000E+00 0.00000E+00 0.00000E+00 0.00000E+00 0.00000E+00
 -1      1693 0.00000E+00 0.00000E+00 0.00000E+00 0.00000E+00 0.00000E+00 0.00000E+00
 -1      1694 0.00000E+00 0.00000E+00 0.00000E+00 0.00000E+00 0.00000E+00 0.00000E+00
 -1      1695 0.00000E+00 0.00000E+00 0.00000E+00 0.00000E+00 0.00000E+00 0.00000E+00
 -1      1696 0.00000E+00 0.00000E+00 0.00000E+00 0.00000E+00 0.00000E+00 0.00000E+00
 -1      1697 0.00000E+00 0.00000E+00 0.00000E+00 0.00000E+00 0.00000E+00 0.00000E+00
 -1      1698 0.00000E+00 0.00000E+00 0.00000E+00 0.00000E+00 0.00000E+00 0.00000E+00
 -1      1699 0.00000E+00 0.00000E+00 0.00000E+00 0.00000E+00 0.00000E+00 0.00000E+00
 -1      1700 0.00000E+00 0.00000E+00 0.00000E+00 0.00000E+00 0.00000E+00 0.00000E+00
 -1      1701 0.00000E+00 0.00000E+00 0.00000E+00 0.00000E+00 0.00000E+00 0.00000E+00
 -1      1702 0.00000E+00 0.00000E+00 0.00000E+00 0.00000E+00 0.00000E+00 0.00000E+00
 -1      1703 0.00000E+00 0.00000E+00 0.00000E+00 0.00000E+00 0.00000E+00 0.00000E+00
 -1      1704 0.00000E+00 0.00000E+00 0.00000E+00 0.00000E+00 0.00000E+00 0.00000E+00
 -1      1705 0.00000E+00 0.00000E+00 0.00000E+00 0.00000E+00 0.00000E+00 0.00000E+00
 -1      1706 0.00000E+00 0.00000E+00 0.00000E+00 0.00000E+00 0.00000E+00 0.00000E+00
 -1      1707 0.00000E+00 0.00000E+00 0.00000E+00 0.00000E+00 0.00000E+00 0.00000E+00
 -1      1708 0.00000E+00 0.00000E+00 0.00000E+00 0.00000E+00 0.00000E+00 0.00000E+00
 -1      1709 0.00000E+00 0.00000E+00 0.00000E+00 0.00000E+00 0.00000E+00 0.00000E+00
 -1      1710 0.00000E+00 0.00000E+00 0.00000E+00 0.00000E+00 0.00000E+00 0.00000E+00
 -1      1711 0.00000E+00 0.00000E+00 0.00000E+00 0.00000E+00 0.00000E+00 0.00000E+00
 -1      1712 0.00000E+00 0.00000E+00 0.00000E+00 0.00000E+00 0.00000E+00 0.00000E+00
 -1      1713 0.00000E+00 0.00000E+00 0.00000E+00 0.00000E+00 0.00000E+00 0.00000E+00
 -1      1714 0.00000E+00 0.00000E+00 0.00000E+00 0.00000E+00 0.00000E+00 0.00000E+00
 -1      1715 0.00000E+00 0.00000E+00 0.00000E+00 0.00000E+00 0.00000E+00 0.00000E+00
 -1      1716 0.00000E+00 0.00000E+00 0.00000E+00 0.00000E+00 0.00000E+00 0.00000E+00
 -1      1717 0.00000E+00 0.00000E+00 0.00000E+00 0.00000E+00 0.00000E+00 0.00000E+00
 -1      1718 0.00000E+00 0.00000E+00 0.00000E+00 0.00000E+00 0.00000E+00 0.00000E+00
 -1      1719 0.00000E+00 0.00000E+00 0.00000E+00 0.00000E+00 0.00000E+00 0.00000E+00
 -1      1720 0.00000E+00 0.00000E+00 0.00000E+00 0.00000E+00 0.00000E+00 0.00000E+00
 -1      1721 0.00000E+00 0.00000E+00 0.00000E+00 0.00000E+00 0.00000E+00 0.00000E+00
 -1      1722 0.00000E+00 0.00000E+00 0.00000E+00 0.00000E+00 0.00000E+00 0.00000E+00
 -1      1723 0.00000E+00 0.00000E+00 0.00000E+00 0.00000E+00 0.00000E+00 0.00000E+00
 -1      1724 0.00000E+00 0.00000E+00 0.00000E+00 0.00000E+00 0.00000E+00 0.00000E+00
 -1      1725 0.00000E+00 0.00000E+00 0.00000E+00 0.00000E+00 0.00000E+00 0.00000E+00
 -1      1726 0.00000E+00 0.00000E+00 0.00000E+00 0.00000E+00 0.00000E+00 0.00000E+00
 -1      1727 0.00000E+00 0.00000E+00 0.00000E+00 0.00000E+00 0.00000E+00 0.00000E+00
 -1      1728 0.00000E+00 0.00000E+00 0.00000E+00 0.00000E+00 0.00000E+00 0.00000E+00
 -1      1729 0.00000E+00 0.00000E+00 0.00000E+00 0.00000E+00 0.00000E+00 0.00000E+00
 -1      1730 0.00000E+00 0.00000E+00 0.00000E+00 0.00000E+00 0.00000E+00 0.00000E+00
 -1      1731 0.00000E+00 0.00000E+00 0.00000E+00 0.00000E+00 0.00000E+00 0.00000E+00
 -1      1732 0.00000E+00 0.00000E+00 0.00000E+00 0.00000E+00 0.00000E+00 0.00000E+00
 -1      1733 0.00000E+00 0.00000E+00 0.00000E+00 0.00000E+00 0.00000E+00 0.00000E+00
 -1      1734 0.00000E+00 0.00000E+00 0.00000E+00 0.00000E+00 0.00000E+00 0.00000E+00
 -1      1735 0.00000E+00 0.00000E+00 0.00000E+00 0.00000E+00 0.00000E+00 0.00000E+00
 -1      1736 0.00000E+00 0.00000E+00 0.00000E+00 0.00000E+00 0.00000E+00 0.00000E+00
 -1      1737 0.00000E+00 0.00000E+00 0.00000E+00 0.00000E+00 0.00000E+00 0.00000E+00
 -1      1738 0.00000E+00 0.00000E+00 0.00000E+00 0.00000E+00 0.00000E+00 0.00000E+00
 -1      1739 0.00000E+00 0.00000E+00 0.00000E+00 0.00000E+00 0.00000E+00 0.00000E+00
 -1      1740 0.00000E+00 0.00000E+00 0.00000E+00 0.00000E+00 0.00000E+00 0.00000E+00
 -1      1741 0.00000E+00 0.00000E+00 0.00000E+00 0.00000E+00 0.00000E+00 0.00000E+00
 -1      1742 0.00000E+00 0.00000E+00 0.00000E+00 0.00000E+00 0.00000E+00 0.00000E+00
 -1      1743 0.00000E+00 0.00000E+00 0.00000E+00 0.00000E+00 0.00000E+00 0.00000E+00
 -1      1744 0.00000E+00 0.00000E+00 0.00000E+00 0.00000E+00 0.00000E+00 0.00000E+00
 -1      1745 0.00000E+00 0.00000E+00 0.00000E+00 0.00000E+00 0.00000E+00 0.00000E+00
 -1      1746 0.00000E+00 0.00000E+00 0.00000E+00 0.00000E+00 0.00000E+00 0.00000E+00
 -1      1747 0.00000E+00 0.00000E+00 0.00000E+00 0.00000E+00 0.00000E+00 0.00000E+00
 -1      1748 0.00000E+00 0.00000E+00 0.00000E+00 0.00000E+00 0.00000E+00 0.00000E+00
 -1      1749 0.00000E+00 0.00000E+00 0.00000E+00 0.00000E+00 0.00000E+00 0.00000E+00
 -1      1750 0.00000E+00 0.00000E+00 0.00000E+00 0.00000E+00 0.00000E+00 0.00000E+00
 -1      1751 0.00000E+00 0.00000E+00 0.00000E+00 0.00000E+00 0.00000E+00 0.00000E+00
 -1      1752 0.00000E+00 0.00000E+00 0.00000E+00 0.00000E+00 0.00000E+00 0.00000E+00
 -1      1753 0.00000E+00 0.00000E+00 0.00000E+00 0.00000E+00 0.00000E+00 0.00000E+00
 -1      1754 0.00000E+00 0.00000E+00 0.00000E+00 0.00000E+00 0.00000E+00 0.00000E+00
 -1      1755 0.00000E+00 0.00000E+00 0.00000E+00 0.00000E+00 0.00000E+00 0.00000E+00
 -1      1756 0.00000E+00 0.00000E+00 0.00000E+00 0.00000E+00 0.00000E+00 0.00000E+00
 -1      1757 0.00000E+00 0.00000E+00 0.00000E+00 0.00000E+00 0.00000E+00 0.00000E+00
 -1      1758 0.00000E+00 0.00000E+00 0.00000E+00 0.00000E+00 0.00000E+00 0.00000E+00
 -1      1759 0.00000E+00 0.00000E+00 0.00000E+00 0.00000E+00 0.00000E+00 0.00000E+00
 -1      1760 0.00000E+00 0.00000E+00 0.00000E+00 0.00000E+00 0.00000E+00 0.00000E+00
 -1      1761 0.00000E+00 0.00000E+00 0.00000E+00 0.00000E+00 0.00000E+00 0.00000E+00
 -1      1762 0.00000E+00 0.00000E+00 0.00000E+00 0.00000E+00 0.00000E+00 0.00000E+00
 -1      1763 0.00000E+00 0.00000E+00 0.00000E+00 0.00000E+00 0.00000E+00 0.00000E+00
 -1      1764 0.00000E+00 0.00000E+00 0.00000E+00 0.00000E+00 0.00000E+00 0.00000E+00
 -1      1765 0.00000E+00 0.00000E+00 0.00000E+00 0.00000E+00 0.00000E+00 0.00000E+00
 -1      1766 0.00000E+00 0.00000E+00 0.00000E+00 0.00000E+00 0.00000E+00 0.00000E+00
 -1      1767 0.00000E+00 0.00000E+00 0.00000E+00 0.00000E+00 0.00000E+00 0.00000E+00
 -1      1768 0.00000E+00 0.00000E+00 0.00000E+00 0.00000E+00 0.00000E+00 0.00000E+00
 -1      1769 0.00000E+00 0.00000E+00 0.00000E+00 0.00000E+00 0.00000E+00 0.00000E+00
 -1      1770 0.00000E+00 0.00000E+00 0.00000E+00 0.00000E+00 0.00000E+00 0.00000E+00
 -1      1771 0.00000E+00 0.00000E+00 0.00000E+00 0.00000E+00 0.00000E+00 0.00000E+00
 -1      1772 0.00000E+00 0.00000E+00 0.00000E+00 0.00000E+00 0.00000E+00 0.00000E+00
 -1      1773 0.00000E+00 0.00000E+00 0.00000E+00 0.00000E+00 0.00000E+00 0.00000E+00
 -1      1774 0.00000E+00 0.00000E+00 0.00000E+00 0.00000E+00 0.00000E+00 0.00000E+00
 -1      1775 0.00000E+00 0.00000E+00 0.00000E+00 0.00000E+00 0.00000E+00 0.00000E+00
 -1      1776 0.00000E+00 0.00000E+00 0.00000E+00 0.00000E+00 0.00000E+00 0.00000E+00
 -1      1777 0.00000E+00 0.00000E+00 0.00000E+00 0.00000E+00 0.00000E+00 0.00000E+00
 -1      1778 0.00000E+00 0.00000E+00 0.00000E+00 0.00000E+00 0.00000E+00 0.00000E+00
 -1      1779 0.00000E+00 0.00000E+00 0.00000E+00 0.00000E+00 0.00000E+00 0.00000E+00
 -1      1780 0.00000E+00 0.00000E+00 0.00000E+00 0.00000E+00 0.00000E+00 0.00000E+00
 -1      1781 0.00000E+00 0.00000E+00 0.00000E+00 0.00000E+00 0.00000E+00 0.00000E+00
 -1      1782 0.00000E+00 0.00000E+00 0.00000E+00 0.00000E+00 0.00000E+00 0.00000E+00
 -1      1783 0.00000E+00 0.00000E+00 0.00000E+00 0.00000E+00 0.00000E+00 0.00000E+00
 -1      1784 0.00000E+00 0.00000E+00 0.00000E+00 0.00000E+00 0.00000E+00 0.00000E+00
 -1      1785 0.00000E+00 0.00000E+00 0.00000E+00 0.00000E+00 0.00000E+00 0.00000E+00
 -1      1786 0.00000E+00 0.00000E+00 0.00000E+00 0.00000E+00 0.00000E+00 0.00000E+00
 -1      1787 0.00000E+00 0.00000E+00 0.00000E+00 0.00000E+00 0.00000E+00 0.00000E+00
 -1      1788 0.00000E+00 0.00000E+00 0.00000E+00 0.00000E+00 0.00000E+00 0.00000E+00
 -1      1789 0.00000E+00 0.00000E+00 0.00000E+00 0.00000E+00 0.00000E+00 0.00000E+00
 -1      1790 0.00000E+00 0.00000E+00 0.00000E+00 0.00000E+00 0.00000E+00 0.00000E+00
 -1      1791 0.00000E+00 0.00000E+00 0.00000E+00 0.00000E+00 0.00000E+00 0.00000E+00
 -1      1792 0.00000E+00 0.00000E+00 0.00000E+00 0.00000E+00 0.00000E+00 0.00000E+00
 -1      1793 0.00000E+00 0.00000E+00 0.00000E+00 0.00000E+00 0.00000E+00 0.00000E+00
 -1      1794 0.00000E+00 0.00000E+00 0.00000E+00 0.00000E+00 0.00000E+00 0.00000E+00
 -1      1795 0.00000E+00 0.00000E+00 0.00000E+00 0.00000E+00 0.00000E+00 0.00000E+00
 -1      1796 0.00000E+00 0.00000E+00 0.00000E+00 0.00000E+00 0.00000E+00 0.00000E+00
 -1      1797 0.00000E+00 0.00000E+00 0.00000E+00 0.00000E+00 0.00000E+00 0.00000E+00
 -1      1798 0.00000E+00 0.00000E+00 0.00000E+00 0.00000E+00 0.00000E+00 0.00000E+00
 -1      1799 0.00000E+00 0.00000E+00 0.00000E+00 0.00000E+00 0.00000E+00 0.00000E+00
 -1      1800 0.00000E+00 0.00000E+00 0.00000E+00 0.00000E+00 0.00000E+00 0.00000E+00
 -1      1801 0.00000E+00 0.00000E+00 0.00000E+00 0.00000E+00 0.00000E+00 0.00000E+00
 -1      1802 0.00000E+00 0.00000E+00 0.00000E+00 0.00000E+00 0.00000E+00 0.00000E+00
 -1      1803 0.00000E+00 0.00000E+00 0.00000E+00 0.00000E+00 0.00000E+00 0.00000E+00
 -1      1804 0.00000E+00 0.00000E+00 0.00000E+00 0.00000E+00 0.00000E+00 0.00000E+00
 -1      1805 0.00000E+00 0.00000E+00 0.00000E+00 0.00000E+00 0.00000E+00 0.00000E+00
 -1      1806 0.00000E+00 0.00000E+00 0.00000E+00 0.00000E+00 0.00000E+00 0.00000E+00
 -1      1807 0.00000E+00 0.00000E+00 0.00000E+00 0.00000E+00 0.00000E+00 0.00000E+00
 -1      1808 0.00000E+00 0.00000E+00 0.00000E+00 0.00000E+00 0.00000E+00 0.00000E+00
 -1      1809 0.00000E+00 0.00000E+00 0.00000E+00 0.00000E+00 0.00000E+00 0.00000E+00
 -1      1810 0.00000E+00 0.00000E+00 0.00000E+00 0.00000E+00 0.00000E+00 0.00000E+00
 -1      1811 0.00000E+00 0.00000E+00 0.00000E+00 0.00000E+00 0.00000E+00 0.00000E+00
 -1      1812 0.00000E+00 0.00000E+00 0.00000E+00 0.00000E+00 0.00000E+00 0.00000E+00
 -1      1813 0.00000E+00 0.00000E+00 0.00000E+00 0.00000E+00 0.00000E+00 0.00000E+00
 -1      1814 0.00000E+00 0.00000E+00 0.00000E+00 0.00000E+00 0.00000E+00 0.00000E+00
 -1      1815 0.00000E+00 0.00000E+00 0.00000E+00 0.00000E+00 0.00000E+00 0.00000E+00
 -1      1816 0.00000E+00 0.00000E+00 0.00000E+00 0.00000E+00 0.00000E+00 0.00000E+00
 -1      1817 0.00000E+00 0.00000E+00 0.00000E+00 0.00000E+00 0.00000E+00 0.00000E+00
 -1      1818 0.00000E+00 0.00000E+00 0.00000E+00 0.00000E+00 0.00000E+00 0.00000E+00
 -1      1819 0.00000E+00 0.00000E+00 0.00000E+00 0.00000E+00 0.00000E+00 0.00000E+00
 -1      1820 0.00000E+00 0.00000E+00 0.00000E+00 0.00000E+00 0.00000E+00 0.00000E+00
 -1      1821 0.00000E+00 0.00000E+00 0.00000E+00 0.00000E+00 0.00000E+00 0.00000E+00
 -1      1822 0.00000E+00 0.00000E+00 0.00000E+00 0.00000E+00 0.00000E+00 0.00000E+00
 -1      1823 0.00000E+00 0.00000E+00 0.00000E+00 0.00000E+00 0.00000E+00 0.00000E+00
 -1      1824 0.00000E+00 0.00000E+00 0.00000E+00 0.00000E+00 0.00000E+00 0.00000E+00
 -1      1825 0.00000E+00 0.00000E+00 0.00000E+00 0.00000E+00 0.00000E+00 0.00000E+00
 -1      1826 0.00000E+00 0.00000E+00 0.00000E+00 0.00000E+00 0.00000E+00 0.00000E+00
 -1      1827 0.00000E+00 0.00000E+00 0.00000E+00 0.00000E+00 0.00000E+00 0.00000E+00
 -1      1828 0.00000E+00 0.00000E+00 0.00000E+00 0.00000E+00 0.00000E+00 0.00000E+00
 -1      1829 0.00000E+00 0.00000E+00 0.00000E+00 0.00000E+00 0.00000E+00 0.00000E+00
 -1      1830 0.00000E+00 0.00000E+00 0.00000E+00 0.00000E+00 0.00000E+00 0.00000E+00
 -1      1831 0.00000E+00 0.00000E+00 0.00000E+00 0.00000E+00 0.00000E+00 0.00000E+00
 -1      1832 0.00000E+00 0.00000E+00 0.00000E+00 0.00000E+00 0.00000E+00 0.00000E+00
 -1      1833 0.00000E+00 0.00000E+00 0.00000E+00 0.00000E+00 0.00000E+00 0.00000E+00
 -1      1834 0.00000E+00 0.00000E+00 0.00000E+00 0.00000E+00 0.00000E+00 0.00000E+00
 -1      1835 0.00000E+00 0.00000E+00 0.00000E+00 0.00000E+00 0.00000E+00 0.00000E+00
 -1      1836 0.00000E+00 0.00000E+00 0.00000E+00 0.00000E+00 0.00000E+00 0.00000E+00
 -1      1837 0.00000E+00 0.00000E+00 0.00000E+00 0.00000E+00 0.00000E+00 0.00000E+00
 -1      1838 0.00000E+00 0.00000E+00 0.00000E+00 0.00000E+00 0.00000E+00 0.00000E+00
 -1      1839 0.00000E+00 0.00000E+00 0.00000E+00 0.00000E+00 0.00000E+00 0.00000E+00
 -1      1840 0.00000E+00 0.00000E+00 0.00000E+00 0.00000E+00 0.00000E+00 0.00000E+00
 -1      1841 0.00000E+00 0.00000E+00 0.00000E+00 0.00000E+00 0.00000E+00 0.00000E+00
 -1      1842 0.00000E+00 0.00000E+00 0.00000E+00 0.00000E+00 0.00000E+00 0.00000E+00
 -1      1843 0.00000E+00 0.00000E+00 0.00000E+00 0.00000E+00 0.00000E+00 0.00000E+00
 -1      1844 0.00000E+00 0.00000E+00 0.00000E+00 0.00000E+00 0.00000E+00 0.00000E+00
 -1      1845 0.00000E+00 0.00000E+00 0.00000E+00 0.00000E+00 0.00000E+00 0.00000E+00
 -1      1846 0.00000E+00 0.00000E+00 0.00000E+00 0.00000E+00 0.00000E+00 0.00000E+00
 -1      1847 0.00000E+00 0.00000E+00 0.00000E+00 0.00000E+00 0.00000E+00 0.00000E+00
 -1      1848 0.00000E+00 0.00000E+00 0.00000E+00 0.00000E+00 0.00000E+00 0.00000E+00
 -1      1849 0.00000E+00 0.00000E+00 0.00000E+00 0.00000E+00 0.00000E+00 0.00000E+00
 -1      1850 0.00000E+00 0.00000E+00 0.00000E+00 0.00000E+00 0.00000E+00 0.00000E+00
 -1      1851 0.00000E+00 0.00000E+00 0.00000E+00 0.00000E+00 0.00000E+00 0.00000E+00
 -1      1852 0.00000E+00 0.00000E+00 0.00000E+00 0.00000E+00 0.00000E+00 0.00000E+00
 -1      1853 0.00000E+00 0.00000E+00 0.00000E+00 0.00000E+00 0.00000E+00 0.00000E+00
 -1      1854 0.00000E+00 0.00000E+00 0.00000E+00 0.00000E+00 0.00000E+00 0.00000E+00
 -1      1855 0.00000E+00 0.00000E+00 0.00000E+00 0.00000E+00 0.00000E+00 0.00000E+00
 -1      1856 0.00000E+00 0.00000E+00 0.00000E+00 0.00000E+00 0.00000E+00 0.00000E+00
 -1      1857 0.00000E+00 0.00000E+00 0.00000E+00 0.00000E+00 0.00000E+00 0.00000E+00
 -1      1858 0.00000E+00 0.00000E+00 0.00000E+00 0.00000E+00 0.00000E+00 0.00000E+00
 -1      1859 0.00000E+00 0.00000E+00 0.00000E+00 0.00000E+00 0.00000E+00 0.00000E+00
 -1      1860 0.00000E+00 0.00000E+00 0.00000E+00 0.00000E+00 0.00000E+00 0.00000E+00
 -1      1861 0.00000E+00 0.00000E+00 0.00000E+00 0.00000E+00 0.00000E+00 0.00000E+00
 -1      1862 0.00000E+00 0.00000E+00 0.00000E+00 0.00000E+00 0.00000E+00 0.00000E+00
 -1      1863 0.00000E+00 0.00000E+00 0.00000E+00 0.00000E+00 0.00000E+00 0.00000E+00
 -1      1864 0.00000E+00 0.00000E+00 0.00000E+00 0.00000E+00 0.00000E+00 0.00000E+00
 -1      1865 0.00000E+00 0.00000E+00 0.00000E+00 0.00000E+00 0.00000E+00 0.00000E+00
 -1      1866 0.00000E+00 0.00000E+00 0.00000E+00 0.00000E+00 0.00000E+00 0.00000E+00
 -1      1867 0.00000E+00 0.00000E+00 0.00000E+00 0.00000E+00 0.00000E+00 0.00000E+00
 -1      1868 0.00000E+00 0.00000E+00 0.00000E+00 0.00000E+00 0.00000E+00 0.00000E+00
 -1      1869 0.00000E+00 0.00000E+00 0.00000E+00 0.00000E+00 0.00000E+00 0.00000E+00
 -1      1870 0.00000E+00 0.00000E+00 0.00000E+00 0.00000E+00 0.00000E+00 0.00000E+00
 -1      1871 0.00000E+00 0.00000E+00 0.00000E+00 0.00000E+00 0.00000E+00 0.00000E+00
 -1      1872 0.00000E+00 0.00000E+00 0.00000E+00 0.00000E+00 0.00000E+00 0.00000E+00
 -1      1873 0.00000E+00 0.00000E+00 0.00000E+00 0.00000E+00 0.00000E+00 0.00000E+00
 -1      1874 0.00000E+00 0.00000E+00 0.00000E+00 0.00000E+00 0.00000E+00 0.00000E+00
 -1      1875 0.00000E+00 0.00000E+00 0.00000E+00 0.00000E+00 0.00000E+00 0.00000E+00
 -1      1876 0.00000E+00 0.00000E+00 0.00000E+00 0.00000E+00 0.00000E+00 0.00000E+00
 -1      1877 0.00000E+00 0.00000E+00 0.00000E+00 0.00000E+00 0.00000E+00 0.00000E+00
 -1      1878 0.00000E+00 0.00000E+00 0.00000E+00 0.00000E+00 0.00000E+00 0.00000E+00
 -1      1879 0.00000E+00 0.00000E+00 0.00000E+00 0.00000E+00 0.00000E+00 0.00000E+00
 -1      1880 0.00000E+00 0.00000E+00 0.00000E+00 0.00000E+00 0.00000E+00 0.00000E+00
 -1      1881 0.00000E+00 0.00000E+00 0.00000E+00 0.00000E+00 0.00000E+00 0.00000E+00
 -1      1882 0.00000E+00 0.00000E+00 0.00000E+00 0.00000E+00 0.00000E+00 0.00000E+00
 -1      1883 0.00000E+00 0.00000E+00 0.00000E+00 0.00000E+00 0.00000E+00 0.00000E+00
 -1      1884 0.00000E+00 0.00000E+00 0.00000E+00 0.00000E+00 0.00000E+00 0.00000E+00
 -1      1885 0.00000E+00 0.00000E+00 0.00000E+00 0.00000E+00 0.00000E+00 0.00000E+00
 -1      1886 0.00000E+00 0.00000E+00 0.00000E+00 0.00000E+00 0.00000E+00 0.00000E+00
 -1      1887 0.00000E+00 0.00000E+00 0.00000E+00 0.00000E+00 0.00000E+00 0.00000E+00
 -1      1888 0.00000E+00 0.00000E+00 0.00000E+00 0.00000E+00 0.00000E+00 0.00000E+00
 -1      1889 0.00000E+00 0.00000E+00 0.00000E+00 0.00000E+00 0.00000E+00 0.00000E+00
 -1      1890 0.00000E+00 0.00000E+00 0.00000E+00 0.00000E+00 0.00000E+00 0.00000E+00
 -1      1891 0.00000E+00 0.00000E+00 0.00000E+00 0.00000E+00 0.00000E+00 0.00000E+00
 -1      1892 0.00000E+00 0.00000E+00 0.00000E+00 0.00000E+00 0.00000E+00 0.00000E+00
 -1      1893 0.00000E+00 0.00000E+00 0.00000E+00 0.00000E+00 0.00000E+00 0.00000E+00
 -1      1894 0.00000E+00 0.00000E+00 0.00000E+00 0.00000E+00 0.00000E+00 0.00000E+00
 -1      1895 0.00000E+00 0.00000E+00 0.00000E+00 0.00000E+00 0.00000E+00 0.00000E+00
 -1      1896 0.00000E+00 0.00000E+00 0.00000E+00 0.00000E+00 0.00000E+00 0.00000E+00
 -1      1897 0.00000E+00 0.00000E+00 0.00000E+00 0.00000E+00 0.00000E+00 0.00000E+00
 -1      1898 0.00000E+00 0.00000E+00 0.00000E+00 0.00000E+00 0.00000E+00 0.00000E+00
 -1      1899 0.00000E+00 0.00000E+00 0.00000E+00 0.00000E+00 0.00000E+00 0.00000E+00
 -1      1900 0.00000E+00 0.00000E+00 0.00000E+00 0.00000E+00 0.00000E+00 0.00000E+00
 -1      1901 0.00000E+00 0.00000E+00 0.00000E+00 0.00000E+00 0.00000E+00 0.00000E+00
 -1      1902 0.00000E+00 0.00000E+00 0.00000E+00 0.00000E+00 0.00000E+00 0.00000E+00
 -1      1903 0.00000E+00 0.00000E+00 0.00000E+00 0.00000E+00 0.00000E+00 0.00000E+00
 -1      1904 0.00000E+00 0.00000E+00 0.00000E+00 0.00000E+00 0.00000E+00 0.00000E+00
 -1      1905 0.00000E+00 0.00000E+00 0.00000E+00 0.00000E+00 0.00000E+00 0.00000E+00
 -1      1906 0.00000E+00 0.00000E+00 0.00000E+00 0.00000E+00 0.00000E+00 0.00000E+00
 -1      1907 0.00000E+00 0.00000E+00 0.00000E+00 0.00000E+00 0.00000E+00 0.00000E+00
 -1      1908 0.00000E+00 0.00000E+00 0.00000E+00 0.00000E+00 0.00000E+00 0.00000E+00
 -1      1909 0.00000E+00 0.00000E+00 0.00000E+00 0.00000E+00 0.00000E+00 0.00000E+00
 -1      1910 0.00000E+00 0.00000E+00 0.00000E+00 0.00000E+00 0.00000E+00 0.00000E+00
 -1      1911 0.00000E+00 0.00000E+00 0.00000E+00 0.00000E+00 0.00000E+00 0.00000E+00
 -1      1912 0.00000E+00 0.00000E+00 0.00000E+00 0.00000E+00 0.00000E+00 0.00000E+00
 -1      1913 0.00000E+00 0.00000E+00 0.00000E+00 0.00000E+00 0.00000E+00 0.00000E+00
 -1      1914 0.00000E+00 0.00000E+00 0.00000E+00 0.00000E+00 0.00000E+00 0.00000E+00
 -1      1915 0.00000E+00 0.00000E+00 0.00000E+00 0.00000E+00 0.00000E+00 0.00000E+00
 -1      1916 0.00000E+00 0.00000E+00 0.00000E+00 0.00000E+00 0.00000E+00 0.00000E+00
 -1      1917 0.00000E+00 0.00000E+00 0.00000E+00 0.00000E+00 0.00000E+00 0.00000E+00
 -1      1918 0.00000E+00 0.00000E+00 0.00000E+00 0.00000E+00 0.00000E+00 0.00000E+00
 -1      1919 0.00000E+00 0.00000E+00 0.00000E+00 0.00000E+00 0.00000E+00 0.00000E+00
 -1      1920 0.00000E+00 0.00000E+00 0.00000E+00 0.00000E+00 0.00000E+00 0.00000E+00
 -1      1921 0.00000E+00 0.00000E+00 0.00000E+00 0.00000E+00 0.00000E+00 0.00000E+00
 -1      1922 0.00000E+00 0.00000E+00 0.00000E+00 0.00000E+00 0.00000E+00 0.00000E+00
 -1      1923 0.00000E+00 0.00000E+00 0.00000E+00 0.00000E+00 0.00000E+00 0.00000E+00
 -1      1924 0.00000E+00 0.00000E+00 0.00000E+00 0.00000E+00 0.00000E+00 0.00000E+00
 -1      1925 0.00000E+00 0.00000E+00 0.00000E+00 0.00000E+00 0.00000E+00 0.00000E+00
 -1      1926 0.00000E+00 0.00000E+00 0.00000E+00 0.00000E+00 0.00000E+00 0.00000E+00
 -1      1927 0.00000E+00 0.00000E+00 0.00000E+00 0.00000E+00 0.00000E+00 0.00000E+00
 -1      1928 0.00000E+00 0.00000E+00 0.00000E+00 0.00000E+00 0.00000E+00 0.00000E+00
 -1      1929 0.00000E+00 0.00000E+00 0.00000E+00 0.00000E+00 0.00000E+00 0.00000E+00
 -1      1930 0.00000E+00 0.00000E+00 0.00000E+00 0.00000E+00 0.00000E+00 0.00000E+00
 -1      1931 0.00000E+00 0.00000E+00 0.00000E+00 0.00000E+00 0.00000E+00 0.00000E+00
 -1      1932 0.00000E+00 0.00000E+00 0.00000E+00 0.00000E+00 0.00000E+00 0.00000E+00
 -1      1933 0.00000E+00 0.00000E+00 0.00000E+00 0.00000E+00 0.00000E+00 0.00000E+00
 -1      1934 0.00000E+00 0.00000E+00 0.00000E+00 0.00000E+00 0.00000E+00 0.00000E+00
 -1      1935 0.00000E+00 0.00000E+00 0.00000E+00 0.00000E+00 0.00000E+00 0.00000E+00
 -1      1936 0.00000E+00 0.00000E+00 0.00000E+00 0.00000E+00 0.00000E+00 0.00000E+00
 -1      1937 0.00000E+00 0.00000E+00 0.00000E+00 0.00000E+00 0.00000E+00 0.00000E+00
 -1      1938 0.00000E+00 0.00000E+00 0.00000E+00 0.00000E+00 0.00000E+00 0.00000E+00
 -1      1939 0.00000E+00 0.00000E+00 0.00000E+00 0.00000E+00 0.00000E+00 0.00000E+00
 -1      1940 0.00000E+00 0.00000E+00 0.00000E+00 0.00000E+00 0.00000E+00 0.00000E+00
 -1      1941 0.00000E+00 0.00000E+00 0.00000E+00 0.00000E+00 0.00000E+00 0.00000E+00
 -1      1942 0.00000E+00 0.00000E+00 0.00000E+00 0.00000E+00 0.00000E+00 0.00000E+00
 -1      1943 0.00000E+00 0.00000E+00 0.00000E+00 0.00000E+00 0.00000E+00 0.00000E+00
 -1      1944 0.00000E+00 0.00000E+00 0.00000E+00 0.00000E+00 0.00000E+00 0.00000E+00
 -1      1945 0.00000E+00 0.00000E+00 0.00000E+00 0.00000E+00 0.00000E+00 0.00000E+00
 -1      1946 0.00000E+00 0.00000E+00 0.00000E+00 0.00000E+00 0.00000E+00 0.00000E+00
 -1      1947 0.00000E+00 0.00000E+00 0.00000E+00 0.00000E+00 0.00000E+00 0.00000E+00
 -1      1948 0.00000E+00 0.00000E+00 0.00000E+00 0.00000E+00 0.00000E+00 0.00000E+00
 -1      1949 0.00000E+00 0.00000E+00 0.00000E+00 0.00000E+00 0.00000E+00 0.00000E+00
 -1      1950 0.00000E+00 0.00000E+00 0.00000E+00 0.00000E+00 0.00000E+00 0.00000E+00
 -1      1951 0.00000E+00 0.00000E+00 0.00000E+00 0.00000E+00 0.00000E+00 0.00000E+00
 -1      1952 0.00000E+00 0.00000E+00 0.00000E+00 0.00000E+00 0.00000E+00 0.00000E+00
 -1      1953 0.00000E+00 0.00000E+00 0.00000E+00 0.00000E+00 0.00000E+00 0.00000E+00
 -1      1954 0.00000E+00 0.00000E+00 0.00000E+00 0.00000E+00 0.00000E+00 0.00000E+00
 -1      1955 0.00000E+00 0.00000E+00 0.00000E+00 0.00000E+00 0.00000E+00 0.00000E+00
 -1      1956 0.00000E+00 0.00000E+00 0.00000E+00 0.00000E+00 0.00000E+00 0.00000E+00
 -1      1957 0.00000E+00 0.00000E+00 0.00000E+00 0.00000E+00 0.00000E+00 0.00000E+00
 -1      1958 0.00000E+00 0.00000E+00 0.00000E+00 0.00000E+00 0.00000E+00 0.00000E+00
 -1      1959 0.00000E+00 0.00000E+00 0.00000E+00 0.00000E+00 0.00000E+00 0.00000E+00
 -1      1960 0.00000E+00 0.00000E+00 0.00000E+00 0.00000E+00 0.00000E+00 0.00000E+00
 -1      1961 0.00000E+00 0.00000E+00 0.00000E+00 0.00000E+00 0.00000E+00 0.00000E+00
 -1      1962 0.00000E+00 0.00000E+00 0.00000E+00 0.00000E+00 0.00000E+00 0.00000E+00
 -1      1963 0.00000E+00 0.00000E+00 0.00000E+00 0.00000E+00 0.00000E+00 0.00000E+00
 -1      1964 0.00000E+00 0.00000E+00 0.00000E+00 0.00000E+00 0.00000E+00 0.00000E+00
 -1      1965 0.00000E+00 0.00000E+00 0.00000E+00 0.00000E+00 0.00000E+00 0.00000E+00
 -1      1966 0.00000E+00 0.00000E+00 0.00000E+00 0.00000E+00 0.00000E+00 0.00000E+00
 -1      1967 0.00000E+00 0.00000E+00 0.00000E+00 0.00000E+00 0.00000E+00 0.00000E+00
 -1      1968 0.00000E+00 0.00000E+00 0.00000E+00 0.00000E+00 0.00000E+00 0.00000E+00
 -1      1969 0.00000E+00 0.00000E+00 0.00000E+00 0.00000E+00 0.00000E+00 0.00000E+00
 -1      1970 0.00000E+00 0.00000E+00 0.00000E+00 0.00000E+00 0.00000E+00 0.00000E+00
 -1      1971 0.00000E+00 0.00000E+00 0.00000E+00 0.00000E+00 0.00000E+00 0.00000E+00
 -1      1972 0.00000E+00 0.00000E+00 0.00000E+00 0.00000E+00 0.00000E+00 0.00000E+00
 -1      1973 0.00000E+00 0.00000E+00 0.00000E+00 0.00000E+00 0.00000E+00 0.00000E+00
 -1      1974 0.00000E+00 0.00000E+00 0.00000E+00 0.00000E+00 0.00000E+00 0.00000E+00
 -1      1975 0.00000E+00 0.00000E+00 0.00000E+00 0.00000E+00 0.00000E+00 0.00000E+00
 -1      1976 0.00000E+00 0.00000E+00 0.00000E+00 0.00000E+00 0.00000E+00 0.00000E+00
 -1      1977 0.00000E+00 0.00000E+00 0.00000E+00 0.00000E+00 0.00000E+00 0.00000E+00
 -1      1978 0.00000E+00 0.00000E+00 0.00000E+00 0.00000E+00 0.00000E+00 0.00000E+00
 -1      1979 0.00000E+00 0.00000E+00 0.00000E+00 0.00000E+00 0.00000E+00 0.00000E+00
 -1      1980 0.00000E+00 0.00000E+00 0.00000E+00 0.00000E+00 0.00000E+00 0.00000E+00
 -1      1981 0.00000E+00 0.00000E+00 0.00000E+00 0.00000E+00 0.00000E+00 0.00000E+00
 -1      1982 0.00000E+00 0.00000E+00 0.00000E+00 0.00000E+00 0.00000E+00 0.00000E+00
 -1      1983 0.00000E+00 0.00000E+00 0.00000E+00 0.00000E+00 0.00000E+00 0.00000E+00
 -1      1984 0.00000E+00 0.00000E+00 0.00000E+00 0.00000E+00 0.00000E+00 0.00000E+00
 -1      1985 0.00000E+00 0.00000E+00 0.00000E+00 0.00000E+00 0.00000E+00 0.00000E+00
 -1      1986 0.00000E+00 0.00000E+00 0.00000E+00 0.00000E+00 0.00000E+00 0.00000E+00
 -1      1987 0.00000E+00 0.00000E+00 0.00000E+00 0.00000E+00 0.00000E+00 0.00000E+00
 -1      1988 0.00000E+00 0.00000E+00 0.00000E+00 0.00000E+00 0.00000E+00 0.00000E+00
 -1      1989 0.00000E+00 0.00000E+00 0.00000E+00 0.00000E+00 0.00000E+00 0.00000E+00
 -1      1990 0.00000E+00 0.00000E+00 0.00000E+00 0.00000E+00 0.00000E+00 0.00000E+00
 -1      1991 0.00000E+00 0.00000E+00 0.00000E+00 0.00000E+00 0.00000E+00 0.00000E+00
 -1      1992 0.00000E+00 0.00000E+00 0.00000E+00 0.00000E+00 0.00000E+00 0.00000E+00
 -1      1993 0.00000E+00 0.00000E+00 0.00000E+00 0.00000E+00 0.00000E+00 0.00000E+00
 -1      1994 0.00000E+00 0.00000E+00 0.00000E+00 0.00000E+00 0.00000E+00 0.00000E+00
 -1      1995 0.00000E+00 0.00000E+00 0.00000E+00 0.00000E+00 0.00000E+00 0.00000E+00
 -1      1996 0.00000E+00 0.00000E+00 0.00000E+00 0.00000E+00 0.00000E+00 0.00000E+00
 -1      1997 0.00000E+00 0.00000E+00 0.00000E+00 0.00000E+00 0.00000E+00 0.00000E+00
 -1      1998 0.00000E+00 0.00000E+00 0.00000E+00 0.00000E+00 0.00000E+00 0.00000E+00
 -1      1999 0.00000E+00 0.00000E+00 0.00000E+00 0.00000E+00 0.00000E+00 0.00000E+00
 -1      2000 0.00000E+00 0.00000E+00 0.00000E+00 0.00000E+00 0.00000E+00 0.00000E+00
 -1      2001 0.00000E+00 0.00000E+00 0.00000E+00 0.00000E+00 0.00000E+00 0.00000E+00
 -1      2002 0.00000E+00 0.00000E+00 0.00000E+00 0.00000E+00 0.00000E+00 0.00000E+00
 -1      2003 0.00000E+00 0.00000E+00 0.00000E+00 0.00000E+00 0.00000E+00 0.00000E+00
 -1      2004 0.00000E+00 0.00000E+00 0.00000E+00 0.00000E+00 0.00000E+00 0.00000E+00
 -1      2005 0.00000E+00 0.00000E+00 0.00000E+00 0.00000E+00 0.00000E+00 0.00000E+00
 -1      2006 0.00000E+00 0.00000E+00 0.00000E+00 0.00000E+00 0.00000E+00 0.00000E+00
 -1      2007 0.00000E+00 0.00000E+00 0.00000E+00 0.00000E+00 0.00000E+00 0.00000E+00
 -1      2008 0.00000E+00 0.00000E+00 0.00000E+00 0.00000E+00 0.00000E+00 0.00000E+00
 -1      2009 0.00000E+00 0.00000E+00 0.00000E+00 0.00000E+00 0.00000E+00 0.00000E+00
 -1      2010 0.00000E+00 0.00000E+00 0.00000E+00 0.00000E+00 0.00000E+00 0.00000E+00
 -1      2011 0.00000E+00 0.00000E+00 0.00000E+00 0.00000E+00 0.00000E+00 0.00000E+00
 -1      2012 0.00000E+00 0.00000E+00 0.00000E+00 0.00000E+00 0.00000E+00 0.00000E+00
 -1      2013 0.00000E+00 0.00000E+00 0.00000E+00 0.00000E+00 0.00000E+00 0.00000E+00
 -1      2014 0.00000E+00 0.00000E+00 0.00000E+00 0.00000E+00 0.00000E+00 0.00000E+00
 -1      2015 0.00000E+00 0.00000E+00 0.00000E+00 0.00000E+00 0.00000E+00 0.00000E+00
 -1      2016 0.00000E+00 0.00000E+00 0.00000E+00 0.00000E+00 0.00000E+00 0.00000E+00
 -1      2017 0.00000E+00 0.00000E+00 0.00000E+00 0.00000E+00 0.00000E+00 0.00000E+00
 -1      2018 0.00000E+00 0.00000E+00 0.00000E+00 0.00000E+00 0.00000E+00 0.00000E+00
 -1      2019 0.00000E+00 0.00000E+00 0.00000E+00 0.00000E+00 0.00000E+00 0.00000E+00
 -1      2020 0.00000E+00 0.00000E+00 0.00000E+00 0.00000E+00 0.00000E+00 0.00000E+00
 -1      2021 0.00000E+00 0.00000E+00 0.00000E+00 0.00000E+00 0.00000E+00 0.00000E+00
 -1      2022 0.00000E+00 0.00000E+00 0.00000E+00 0.00000E+00 0.00000E+00 0.00000E+00
 -1      2023 0.00000E+00 0.00000E+00 0.00000E+00 0.00000E+00 0.00000E+00 0.00000E+00
 -1      2024 0.00000E+00 0.00000E+00 0.00000E+00 0.00000E+00 0.00000E+00 0.00000E+00
 -1      2025 0.00000E+00 0.00000E+00 0.00000E+00 0.00000E+00 0.00000E+00 0.00000E+00
 -1      2026 0.00000E+00 0.00000E+00 0.00000E+00 0.00000E+00 0.00000E+00 0.00000E+00
 -1      2027 0.00000E+00 0.00000E+00 0.00000E+00 0.00000E+00 0.00000E+00 0.00000E+00
 -1      2028 0.00000E+00 0.00000E+00 0.00000E+00 0.00000E+00 0.00000E+00 0.00000E+00
 -1      2029 0.00000E+00 0.00000E+00 0.00000E+00 0.00000E+00 0.00000E+00 0.00000E+00
 -1      2030 0.00000E+00 0.00000E+00 0.00000E+00 0.00000E+00 0.00000E+00 0.00000E+00
 -1      2031 0.00000E+00 0.00000E+00 0.00000E+00 0.00000E+00 0.00000E+00 0.00000E+00
 -1      2032 0.00000E+00 0.00000E+00 0.00000E+00 0.00000E+00 0.00000E+00 0.00000E+00
 -1      2033 0.00000E+00 0.00000E+00 0.00000E+00 0.00000E+00 0.00000E+00 0.00000E+00
 -1      2034 0.00000E+00 0.00000E+00 0.00000E+00 0.00000E+00 0.00000E+00 0.00000E+00
 -1      2035 0.00000E+00 0.00000E+00 0.00000E+00 0.00000E+00 0.00000E+00 0.00000E+00
 -1      2036 0.00000E+00 0.00000E+00 0.00000E+00 0.00000E+00 0.00000E+00 0.00000E+00
 -1      2037 0.00000E+00 0.00000E+00 0.00000E+00 0.00000E+00 0.00000E+00 0.00000E+00
 -1      2038 0.00000E+00 0.00000E+00 0.00000E+00 0.00000E+00 0.00000E+00 0.00000E+00
 -1      2039 0.00000E+00 0.00000E+00 0.00000E+00 0.00000E+00 0.00000E+00 0.00000E+00
 -1      2040 0.00000E+00 0.00000E+00 0.00000E+00 0.00000E+00 0.00000E+00 0.00000E+00
 -1      2041 0.00000E+00 0.00000E+00 0.00000E+00 0.00000E+00 0.00000E+00 0.00000E+00
 -1      2042 0.00000E+00 0.00000E+00 0.00000E+00 0.00000E+00 0.00000E+00 0.00000E+00
 -1      2043 0.00000E+00 0.00000E+00 0.00000E+00 0.00000E+00 0.00000E+00 0.00000E+00
 -1      2044 0.00000E+00 0.00000E+00 0.00000E+00 0.00000E+00 0.00000E+00 0.00000E+00
 -1      2045 0.00000E+00 0.00000E+00 0.00000E+00 0.00000E+00 0.00000E+00 0.00000E+00
 -1      2046 0.00000E+00 0.00000E+00 0.00000E+00 0.00000E+00 0.00000E+00 0.00000E+00
 -1      2047 0.00000E+00 0.00000E+00 0.00000E+00 0.00000E+00 0.00000E+00 0.00000E+00
 -1      2048 0.00000E+00 0.00000E+00 0.00000E+00 0.00000E+00 0.00000E+00 0.00000E+00
 -1      2049 0.00000E+00 0.00000E+00 0.00000E+00 0.00000E+00 0.00000E+00 0.00000E+00
 -1      2050 0.00000E+00 0.00000E+00 0.00000E+00 0.00000E+00 0.00000E+00 0.00000E+00
 -1      2051 0.00000E+00 0.00000E+00 0.00000E+00 0.00000E+00 0.00000E+00 0.00000E+00
 -1      2052 0.00000E+00 0.00000E+00 0.00000E+00 0.00000E+00 0.00000E+00 0.00000E+00
 -1      2053 0.00000E+00 0.00000E+00 0.00000E+00 0.00000E+00 0.00000E+00 0.00000E+00
 -1      2054 0.00000E+00 0.00000E+00 0.00000E+00 0.00000E+00 0.00000E+00 0.00000E+00
 -1      2055 0.00000E+00 0.00000E+00 0.00000E+00 0.00000E+00 0.00000E+00 0.00000E+00
 -1      2056 0.00000E+00 0.00000E+00 0.00000E+00 0.00000E+00 0.00000E+00 0.00000E+00
 -1      2057 0.00000E+00 0.00000E+00 0.00000E+00 0.00000E+00 0.00000E+00 0.00000E+00
 -1      2058 0.00000E+00 0.00000E+00 0.00000E+00 0.00000E+00 0.00000E+00 0.00000E+00
 -1      2059 0.00000E+00 0.00000E+00 0.00000E+00 0.00000E+00 0.00000E+00 0.00000E+00
 -1      2060 0.00000E+00 0.00000E+00 0.00000E+00 0.00000E+00 0.00000E+00 0.00000E+00
 -1      2061 0.00000E+00 0.00000E+00 0.00000E+00 0.00000E+00 0.00000E+00 0.00000E+00
 -1      2062 0.00000E+00 0.00000E+00 0.00000E+00 0.00000E+00 0.00000E+00 0.00000E+00
 -1      2063 0.00000E+00 0.00000E+00 0.00000E+00 0.00000E+00 0.00000E+00 0.00000E+00
 -1      2064 0.00000E+00 0.00000E+00 0.00000E+00 0.00000E+00 0.00000E+00 0.00000E+00
 -1      2065 0.00000E+00 0.00000E+00 0.00000E+00 0.00000E+00 0.00000E+00 0.00000E+00
 -1      2066 0.00000E+00 0.00000E+00 0.00000E+00 0.00000E+00 0.00000E+00 0.00000E+00
 -1      2067 0.00000E+00 0.00000E+00 0.00000E+00 0.00000E+00 0.00000E+00 0.00000E+00
 -1      2068 0.00000E+00 0.00000E+00 0.00000E+00 0.00000E+00 0.00000E+00 0.00000E+00
 -1      2069 0.00000E+00 0.00000E+00 0.00000E+00 0.00000E+00 0.00000E+00 0.00000E+00
 -1      2070 0.00000E+00 0.00000E+00 0.00000E+00 0.00000E+00 0.00000E+00 0.00000E+00
 -1      2071 0.00000E+00 0.00000E+00 0.00000E+00 0.00000E+00 0.00000E+00 0.00000E+00
 -1      2072 0.00000E+00 0.00000E+00 0.00000E+00 0.00000E+00 0.00000E+00 0.00000E+00
 -1      2073 0.00000E+00 0.00000E+00 0.00000E+00 0.00000E+00 0.00000E+00 0.00000E+00
 -1      2074 0.00000E+00 0.00000E+00 0.00000E+00 0.00000E+00 0.00000E+00 0.00000E+00
 -1      2075 0.00000E+00 0.00000E+00 0.00000E+00 0.00000E+00 0.00000E+00 0.00000E+00
 -1      2076 0.00000E+00 0.00000E+00 0.00000E+00 0.00000E+00 0.00000E+00 0.00000E+00
 -1      2077 0.00000E+00 0.00000E+00 0.00000E+00 0.00000E+00 0.00000E+00 0.00000E+00
 -1      2078 0.00000E+00 0.00000E+00 0.00000E+00 0.00000E+00 0.00000E+00 0.00000E+00
 -1      2079 0.00000E+00 0.00000E+00 0.00000E+00 0.00000E+00 0.00000E+00 0.00000E+00
 -1      2080 0.00000E+00 0.00000E+00 0.00000E+00 0.00000E+00 0.00000E+00 0.00000E+00
 -1      2081 0.00000E+00 0.00000E+00 0.00000E+00 0.00000E+00 0.00000E+00 0.00000E+00
 -1      2082 0.00000E+00 0.00000E+00 0.00000E+00 0.00000E+00 0.00000E+00 0.00000E+00
 -1      2083 0.00000E+00 0.00000E+00 0.00000E+00 0.00000E+00 0.00000E+00 0.00000E+00
 -1      2084 0.00000E+00 0.00000E+00 0.00000E+00 0.00000E+00 0.00000E+00 0.00000E+00
 -1      2085 0.00000E+00 0.00000E+00 0.00000E+00 0.00000E+00 0.00000E+00 0.00000E+00
 -1      2086 0.00000E+00 0.00000E+00 0.00000E+00 0.00000E+00 0.00000E+00 0.00000E+00
 -1      2087 0.00000E+00 0.00000E+00 0.00000E+00 0.00000E+00 0.00000E+00 0.00000E+00
 -1      2088 0.00000E+00 0.00000E+00 0.00000E+00 0.00000E+00 0.00000E+00 0.00000E+00
 -1      2089 0.00000E+00 0.00000E+00 0.00000E+00 0.00000E+00 0.00000E+00 0.00000E+00
 -1      2090 0.00000E+00 0.00000E+00 0.00000E+00 0.00000E+00 0.00000E+00 0.00000E+00
 -1      2091 0.00000E+00 0.00000E+00 0.00000E+00 0.00000E+00 0.00000E+00 0.00000E+00
 -1      2092 0.00000E+00 0.00000E+00 0.00000E+00 0.00000E+00 0.00000E+00 0.00000E+00
 -1      2093 0.00000E+00 0.00000E+00 0.00000E+00 0.00000E+00 0.00000E+00 0.00000E+00
 -1      2094 0.00000E+00 0.00000E+00 0.00000E+00 0.00000E+00 0.00000E+00 0.00000E+00
 -1      2095 0.00000E+00 0.00000E+00 0.00000E+00 0.00000E+00 0.00000E+00 0.00000E+00
 -1      2096 0.00000E+00 0.00000E+00 0.00000E+00 0.00000E+00 0.00000E+00 0.00000E+00
 -1      2097 0.00000E+00 0.00000E+00 0.00000E+00 0.00000E+00 0.00000E+00 0.00000E+00
 -1      2098 0.00000E+00 0.00000E+00 0.00000E+00 0.00000E+00 0.00000E+00 0.00000E+00
 -1      2099 0.00000E+00 0.00000E+00 0.00000E+00 0.00000E+00 0.00000E+00 0.00000E+00
 -1      2100 0.00000E+00 0.00000E+00 0.00000E+00 0.00000E+00 0.00000E+00 0.00000E+00
 -1      2101 0.00000E+00 0.00000E+00 0.00000E+00 0.00000E+00 0.00000E+00 0.00000E+00
 -1      2102 0.00000E+00 0.00000E+00 0.00000E+00 0.00000E+00 0.00000E+00 0.00000E+00
 -1      2103 0.00000E+00 0.00000E+00 0.00000E+00 0.00000E+00 0.00000E+00 0.00000E+00
 -1      2104 0.00000E+00 0.00000E+00 0.00000E+00 0.00000E+00 0.00000E+00 0.00000E+00
 -1      2105 0.00000E+00 0.00000E+00 0.00000E+00 0.00000E+00 0.00000E+00 0.00000E+00
 -1      2106 0.00000E+00 0.00000E+00 0.00000E+00 0.00000E+00 0.00000E+00 0.00000E+00
 -1      2107 0.00000E+00 0.00000E+00 0.00000E+00 0.00000E+00 0.00000E+00 0.00000E+00
 -1      2108 0.00000E+00 0.00000E+00 0.00000E+00 0.00000E+00 0.00000E+00 0.00000E+00
 -1      2109 0.00000E+00 0.00000E+00 0.00000E+00 0.00000E+00 0.00000E+00 0.00000E+00
 -1      2110 0.00000E+00 0.00000E+00 0.00000E+00 0.00000E+00 0.00000E+00 0.00000E+00
 -1      2111 0.00000E+00 0.00000E+00 0.00000E+00 0.00000E+00 0.00000E+00 0.00000E+00
 -1      2112 0.00000E+00 0.00000E+00 0.00000E+00 0.00000E+00 0.00000E+00 0.00000E+00
 -1      2113 0.00000E+00 0.00000E+00 0.00000E+00 0.00000E+00 0.00000E+00 0.00000E+00
 -1      2114 0.00000E+00 0.00000E+00 0.00000E+00 0.00000E+00 0.00000E+00 0.00000E+00
 -1      2115 0.00000E+00 0.00000E+00 0.00000E+00 0.00000E+00 0.00000E+00 0.00000E+00
 -1      2116 0.00000E+00 0.00000E+00 0.00000E+00 0.00000E+00 0.00000E+00 0.00000E+00
 -1      2117 0.00000E+00 0.00000E+00 0.00000E+00 0.00000E+00 0.00000E+00 0.00000E+00
 -1      2118 0.00000E+00 0.00000E+00 0.00000E+00 0.00000E+00 0.00000E+00 0.00000E+00
 -1      2119 0.00000E+00 0.00000E+00 0.00000E+00 0.00000E+00 0.00000E+00 0.00000E+00
 -1      2120 0.00000E+00 0.00000E+00 0.00000E+00 0.00000E+00 0.00000E+00 0.00000E+00
 -1      2121 0.00000E+00 0.00000E+00 0.00000E+00 0.00000E+00 0.00000E+00 0.00000E+00
 -1      2122 0.00000E+00 0.00000E+00 0.00000E+00 0.00000E+00 0.00000E+00 0.00000E+00
 -1      2123 0.00000E+00 0.00000E+00 0.00000E+00 0.00000E+00 0.00000E+00 0.00000E+00
 -1      2124 0.00000E+00 0.00000E+00 0.00000E+00 0.00000E+00 0.00000E+00 0.00000E+00
 -1      2125 0.00000E+00 0.00000E+00 0.00000E+00 0.00000E+00 0.00000E+00 0.00000E+00
 -1      2126 0.00000E+00 0.00000E+00 0.00000E+00 0.00000E+00 0.00000E+00 0.00000E+00
 -1      2127 0.00000E+00 0.00000E+00 0.00000E+00 0.00000E+00 0.00000E+00 0.00000E+00
 -1      2128 0.00000E+00 0.00000E+00 0.00000E+00 0.00000E+00 0.00000E+00 0.00000E+00
 -1      2129 0.00000E+00 0.00000E+00 0.00000E+00 0.00000E+00 0.00000E+00 0.00000E+00
 -1      2130 0.00000E+00 0.00000E+00 0.00000E+00 0.00000E+00 0.00000E+00 0.00000E+00
 -1      2131 0.00000E+00 0.00000E+00 0.00000E+00 0.00000E+00 0.00000E+00 0.00000E+00
 -1      2132 0.00000E+00 0.00000E+00 0.00000E+00 0.00000E+00 0.00000E+00 0.00000E+00
 -1      2133 0.00000E+00 0.00000E+00 0.00000E+00 0.00000E+00 0.00000E+00 0.00000E+00
 -1      2134 0.00000E+00 0.00000E+00 0.00000E+00 0.00000E+00 0.00000E+00 0.00000E+00
 -1      2135 0.00000E+00 0.00000E+00 0.00000E+00 0.00000E+00 0.00000E+00 0.00000E+00
 -1      2136 0.00000E+00 0.00000E+00 0.00000E+00 0.00000E+00 0.00000E+00 0.00000E+00
 -1      2137 0.00000E+00 0.00000E+00 0.00000E+00 0.00000E+00 0.00000E+00 0.00000E+00
 -1      2138 0.00000E+00 0.00000E+00 0.00000E+00 0.00000E+00 0.00000E+00 0.00000E+00
 -1      2139 0.00000E+00 0.00000E+00 0.00000E+00 0.00000E+00 0.00000E+00 0.00000E+00
 -1      2140 0.00000E+00 0.00000E+00 0.00000E+00 0.00000E+00 0.00000E+00 0.00000E+00
 -1      2141 0.00000E+00 0.00000E+00 0.00000E+00 0.00000E+00 0.00000E+00 0.00000E+00
 -1      2142 0.00000E+00 0.00000E+00 0.00000E+00 0.00000E+00 0.00000E+00 0.00000E+00
 -1      2143 0.00000E+00 0.00000E+00 0.00000E+00 0.00000E+00 0.00000E+00 0.00000E+00
 -1      2144 0.00000E+00 0.00000E+00 0.00000E+00 0.00000E+00 0.00000E+00 0.00000E+00
 -1      2145 0.00000E+00 0.00000E+00 0.00000E+00 0.00000E+00 0.00000E+00 0.00000E+00
 -1      2146 0.00000E+00 0.00000E+00 0.00000E+00 0.00000E+00 0.00000E+00 0.00000E+00
 -1      2147 0.00000E+00 0.00000E+00 0.00000E+00 0.00000E+00 0.00000E+00 0.00000E+00
 -1      2148 0.00000E+00 0.00000E+00 0.00000E+00 0.00000E+00 0.00000E+00 0.00000E+00
 -1      2149 0.00000E+00 0.00000E+00 0.00000E+00 0.00000E+00 0.00000E+00 0.00000E+00
 -1      2150 0.00000E+00 0.00000E+00 0.00000E+00 0.00000E+00 0.00000E+00 0.00000E+00
 -1      2151 0.00000E+00 0.00000E+00 0.00000E+00 0.00000E+00 0.00000E+00 0.00000E+00
 -1      2152 0.00000E+00 0.00000E+00 0.00000E+00 0.00000E+00 0.00000E+00 0.00000E+00
 -1      2153 0.00000E+00 0.00000E+00 0.00000E+00 0.00000E+00 0.00000E+00 0.00000E+00
 -1      2154 0.00000E+00 0.00000E+00 0.00000E+00 0.00000E+00 0.00000E+00 0.00000E+00
 -1      2155 0.00000E+00 0.00000E+00 0.00000E+00 0.00000E+00 0.00000E+00 0.00000E+00
 -1      2156 0.00000E+00 0.00000E+00 0.00000E+00 0.00000E+00 0.00000E+00 0.00000E+00
 -1      2157 0.00000E+00 0.00000E+00 0.00000E+00 0.00000E+00 0.00000E+00 0.00000E+00
 -1      2158 0.00000E+00 0.00000E+00 0.00000E+00 0.00000E+00 0.00000E+00 0.00000E+00
 -1      2159 0.00000E+00 0.00000E+00 0.00000E+00 0.00000E+00 0.00000E+00 0.00000E+00
 -1      2160 0.00000E+00 0.00000E+00 0.00000E+00 0.00000E+00 0.00000E+00 0.00000E+00
 -1      2161 0.00000E+00 0.00000E+00 0.00000E+00 0.00000E+00 0.00000E+00 0.00000E+00
 -1      2162 0.00000E+00 0.00000E+00 0.00000E+00 0.00000E+00 0.00000E+00 0.00000E+00
 -1      2163 0.00000E+00 0.00000E+00 0.00000E+00 0.00000E+00 0.00000E+00 0.00000E+00
 -1      2164 0.00000E+00 0.00000E+00 0.00000E+00 0.00000E+00 0.00000E+00 0.00000E+00
 -1      2165 0.00000E+00 0.00000E+00 0.00000E+00 0.00000E+00 0.00000E+00 0.00000E+00
 -1      2166 0.00000E+00 0.00000E+00 0.00000E+00 0.00000E+00 0.00000E+00 0.00000E+00
 -1      2167 0.00000E+00 0.00000E+00 0.00000E+00 0.00000E+00 0.00000E+00 0.00000E+00
 -1      2168 0.00000E+00 0.00000E+00 0.00000E+00 0.00000E+00 0.00000E+00 0.00000E+00
 -1      2169 0.00000E+00 0.00000E+00 0.00000E+00 0.00000E+00 0.00000E+00 0.00000E+00
 -1      2170 0.00000E+00 0.00000E+00 0.00000E+00 0.00000E+00 0.00000E+00 0.00000E+00
 -1      2171 0.00000E+00 0.00000E+00 0.00000E+00 0.00000E+00 0.00000E+00 0.00000E+00
 -1      2172 0.00000E+00 0.00000E+00 0.00000E+00 0.00000E+00 0.00000E+00 0.00000E+00
 -1      2173 0.00000E+00 0.00000E+00 0.00000E+00 0.00000E+00 0.00000E+00 0.00000E+00
 -1      2174 0.00000E+00 0.00000E+00 0.00000E+00 0.00000E+00 0.00000E+00 0.00000E+00
 -1      2175 0.00000E+00 0.00000E+00 0.00000E+00 0.00000E+00 0.00000E+00 0.00000E+00
 -1      2176 0.00000E+00 0.00000E+00 0.00000E+00 0.00000E+00 0.00000E+00 0.00000E+00
 -1      2177 0.00000E+00 0.00000E+00 0.00000E+00 0.00000E+00 0.00000E+00 0.00000E+00
 -1      2178 0.00000E+00 0.00000E+00 0.00000E+00 0.00000E+00 0.00000E+00 0.00000E+00
 -1      2179 0.00000E+00 0.00000E+00 0.00000E+00 0.00000E+00 0.00000E+00 0.00000E+00
 -1      2180 0.00000E+00 0.00000E+00 0.00000E+00 0.00000E+00 0.00000E+00 0.00000E+00
 -1      2181 0.00000E+00 0.00000E+00 0.00000E+00 0.00000E+00 0.00000E+00 0.00000E+00
 -1      2182 0.00000E+00 0.00000E+00 0.00000E+00 0.00000E+00 0.00000E+00 0.00000E+00
 -1      2183 0.00000E+00 0.00000E+00 0.00000E+00 0.00000E+00 0.00000E+00 0.00000E+00
 -1      2184 0.00000E+00 0.00000E+00 0.00000E+00 0.00000E+00 0.00000E+00 0.00000E+00
 -1      2185 0.00000E+00 0.00000E+00 0.00000E+00 0.00000E+00 0.00000E+00 0.00000E+00
 -1      2186 0.00000E+00 0.00000E+00 0.00000E+00 0.00000E+00 0.00000E+00 0.00000E+00
 -1      2187 0.00000E+00 0.00000E+00 0.00000E+00 0.00000E+00 0.00000E+00 0.00000E+00
 -1      2188 0.00000E+00 0.00000E+00 0.00000E+00 0.00000E+00 0.00000E+00 0.00000E+00
 -1      2189 0.00000E+00 0.00000E+00 0.00000E+00 0.00000E+00 0.00000E+00 0.00000E+00
 -1      2190 0.00000E+00 0.00000E+00 0.00000E+00 0.00000E+00 0.00000E+00 0.00000E+00
 -1      2191 0.00000E+00 0.00000E+00 0.00000E+00 0.00000E+00 0.00000E+00 0.00000E+00
 -1      2192 0.00000E+00 0.00000E+00 0.00000E+00 0.00000E+00 0.00000E+00 0.00000E+00
 -1      2193 0.00000E+00 0.00000E+00 0.00000E+00 0.00000E+00 0.00000E+00 0.00000E+00
 -1      2194 0.00000E+00 0.00000E+00 0.00000E+00 0.00000E+00 0.00000E+00 0.00000E+00
 -1      2195 0.00000E+00 0.00000E+00 0.00000E+00 0.00000E+00 0.00000E+00 0.00000E+00
 -1      2196 0.00000E+00 0.00000E+00 0.00000E+00 0.00000E+00 0.00000E+00 0.00000E+00
 -1      2197 0.00000E+00 0.00000E+00 0.00000E+00 0.00000E+00 0.00000E+00 0.00000E+00
 -1      2198 0.00000E+00 0.00000E+00 0.00000E+00 0.00000E+00 0.00000E+00 0.00000E+00
 -1      2199 0.00000E+00 0.00000E+00 0.00000E+00 0.00000E+00 0.00000E+00 0.00000E+00
 -1      2200 0.00000E+00 0.00000E+00 0.00000E+00 0.00000E+00 0.00000E+00 0.00000E+00
 -1      2201 0.00000E+00 0.00000E+00 0.00000E+00 0.00000E+00 0.00000E+00 0.00000E+00
 -1      2202 0.00000E+00 0.00000E+00 0.00000E+00 0.00000E+00 0.00000E+00 0.00000E+00
 -1      2203 0.00000E+00 0.00000E+00 0.00000E+00 0.00000E+00 0.00000E+00 0.00000E+00
 -1      2204 0.00000E+00 0.00000E+00 0.00000E+00 0.00000E+00 0.00000E+00 0.00000E+00
 -1      2205 0.00000E+00 0.00000E+00 0.00000E+00 0.00000E+00 0.00000E+00 0.00000E+00
 -1      2206 0.00000E+00 0.00000E+00 0.00000E+00 0.00000E+00 0.00000E+00 0.00000E+00
 -1      2207 0.00000E+00 0.00000E+00 0.00000E+00 0.00000E+00 0.00000E+00 0.00000E+00
 -1      2208 0.00000E+00 0.00000E+00 0.00000E+00 0.00000E+00 0.00000E+00 0.00000E+00
 -1      2209 0.00000E+00 0.00000E+00 0.00000E+00 0.00000E+00 0.00000E+00 0.00000E+00
 -1      2210 0.00000E+00 0.00000E+00 0.00000E+00 0.00000E+00 0.00000E+00 0.00000E+00
 -1      2211 0.00000E+00 0.00000E+00 0.00000E+00 0.00000E+00 0.00000E+00 0.00000E+00
 -1      2212 0.00000E+00 0.00000E+00 0.00000E+00 0.00000E+00 0.00000E+00 0.00000E+00
 -1      2213 0.00000E+00 0.00000E+00 0.00000E+00 0.00000E+00 0.00000E+00 0.00000E+00
 -1      2214 0.00000E+00 0.00000E+00 0.00000E+00 0.00000E+00 0.00000E+00 0.00000E+00
 -1      2215 0.00000E+00 0.00000E+00 0.00000E+00 0.00000E+00 0.00000E+00 0.00000E+00
 -1      2216 0.00000E+00 0.00000E+00 0.00000E+00 0.00000E+00 0.00000E+00 0.00000E+00
 -1      2217 0.00000E+00 0.00000E+00 0.00000E+00 0.00000E+00 0.00000E+00 0.00000E+00
 -1      2218 0.00000E+00 0.00000E+00 0.00000E+00 0.00000E+00 0.00000E+00 0.00000E+00
 -1      2219 0.00000E+00 0.00000E+00 0.00000E+00 0.00000E+00 0.00000E+00 0.00000E+00
 -1      2220 0.00000E+00 0.00000E+00 0.00000E+00 0.00000E+00 0.00000E+00 0.00000E+00
 -1      2221 0.00000E+00 0.00000E+00 0.00000E+00 0.00000E+00 0.00000E+00 0.00000E+00
 -1      2222 0.00000E+00 0.00000E+00 0.00000E+00 0.00000E+00 0.00000E+00 0.00000E+00
 -1      2223 0.00000E+00 0.00000E+00 0.00000E+00 0.00000E+00 0.00000E+00 0.00000E+00
 -1      2224 0.00000E+00 0.00000E+00 0.00000E+00 0.00000E+00 0.00000E+00 0.00000E+00
 -1      2225 0.00000E+00 0.00000E+00 0.00000E+00 0.00000E+00 0.00000E+00 0.00000E+00
 -1      2226 0.00000E+00 0.00000E+00 0.00000E+00 0.00000E+00 0.00000E+00 0.00000E+00
 -1      2227 0.00000E+00 0.00000E+00 0.00000E+00 0.00000E+00 0.00000E+00 0.00000E+00
 -1      2228 0.00000E+00 0.00000E+00 0.00000E+00 0.00000E+00 0.00000E+00 0.00000E+00
 -1      2229 0.00000E+00 0.00000E+00 0.00000E+00 0.00000E+00 0.00000E+00 0.00000E+00
 -1      2230 0.00000E+00 0.00000E+00 0.00000E+00 0.00000E+00 0.00000E+00 0.00000E+00
 -1      2231 0.00000E+00 0.00000E+00 0.00000E+00 0.00000E+00 0.00000E+00 0.00000E+00
 -1      2232 0.00000E+00 0.00000E+00 0.00000E+00 0.00000E+00 0.00000E+00 0.00000E+00
 -1      2233 0.00000E+00 0.00000E+00 0.00000E+00 0.00000E+00 0.00000E+00 0.00000E+00
 -1      2234 0.00000E+00 0.00000E+00 0.00000E+00 0.00000E+00 0.00000E+00 0.00000E+00
 -1      2235 0.00000E+00 0.00000E+00 0.00000E+00 0.00000E+00 0.00000E+00 0.00000E+00
 -1      2236 0.00000E+00 0.00000E+00 0.00000E+00 0.00000E+00 0.00000E+00 0.00000E+00
 -1      2237 0.00000E+00 0.00000E+00 0.00000E+00 0.00000E+00 0.00000E+00 0.00000E+00
 -1      2238 0.00000E+00 0.00000E+00 0.00000E+00 0.00000E+00 0.00000E+00 0.00000E+00
 -1      2239 0.00000E+00 0.00000E+00 0.00000E+00 0.00000E+00 0.00000E+00 0.00000E+00
 -1      2240 0.00000E+00 0.00000E+00 0.00000E+00 0.00000E+00 0.00000E+00 0.00000E+00
 -1      2241 0.00000E+00 0.00000E+00 0.00000E+00 0.00000E+00 0.00000E+00 0.00000E+00
 -1      2242 0.00000E+00 0.00000E+00 0.00000E+00 0.00000E+00 0.00000E+00 0.00000E+00
 -1      2243 0.00000E+00 0.00000E+00 0.00000E+00 0.00000E+00 0.00000E+00 0.00000E+00
 -1      2244 0.00000E+00 0.00000E+00 0.00000E+00 0.00000E+00 0.00000E+00 0.00000E+00
 -1      2245 0.00000E+00 0.00000E+00 0.00000E+00 0.00000E+00 0.00000E+00 0.00000E+00
 -1      2246 0.00000E+00 0.00000E+00 0.00000E+00 0.00000E+00 0.00000E+00 0.00000E+00
 -1      2247 0.00000E+00 0.00000E+00 0.00000E+00 0.00000E+00 0.00000E+00 0.00000E+00
 -1      2248 0.00000E+00 0.00000E+00 0.00000E+00 0.00000E+00 0.00000E+00 0.00000E+00
 -1      2249 0.00000E+00 0.00000E+00 0.00000E+00 0.00000E+00 0.00000E+00 0.00000E+00
 -1      2250 0.00000E+00 0.00000E+00 0.00000E+00 0.00000E+00 0.00000E+00 0.00000E+00
 -1      2251 0.00000E+00 0.00000E+00 0.00000E+00 0.00000E+00 0.00000E+00 0.00000E+00
 -1      2252 0.00000E+00 0.00000E+00 0.00000E+00 0.00000E+00 0.00000E+00 0.00000E+00
 -1      2253 0.00000E+00 0.00000E+00 0.00000E+00 0.00000E+00 0.00000E+00 0.00000E+00
 -1      2254 0.00000E+00 0.00000E+00 0.00000E+00 0.00000E+00 0.00000E+00 0.00000E+00
 -1      2255 0.00000E+00 0.00000E+00 0.00000E+00 0.00000E+00 0.00000E+00 0.00000E+00
 -1      2256 0.00000E+00 0.00000E+00 0.00000E+00 0.00000E+00 0.00000E+00 0.00000E+00
 -1      2257 0.00000E+00 0.00000E+00 0.00000E+00 0.00000E+00 0.00000E+00 0.00000E+00
 -1      2258 0.00000E+00 0.00000E+00 0.00000E+00 0.00000E+00 0.00000E+00 0.00000E+00
 -1      2259 0.00000E+00 0.00000E+00 0.00000E+00 0.00000E+00 0.00000E+00 0.00000E+00
 -1      2260 0.00000E+00 0.00000E+00 0.00000E+00 0.00000E+00 0.00000E+00 0.00000E+00
 -1      2261 0.00000E+00 0.00000E+00 0.00000E+00 0.00000E+00 0.00000E+00 0.00000E+00
 -1      2262 0.00000E+00 0.00000E+00 0.00000E+00 0.00000E+00 0.00000E+00 0.00000E+00
 -1      2263 0.00000E+00 0.00000E+00 0.00000E+00 0.00000E+00 0.00000E+00 0.00000E+00
 -1      2264 0.00000E+00 0.00000E+00 0.00000E+00 0.00000E+00 0.00000E+00 0.00000E+00
 -1      2265 0.00000E+00 0.00000E+00 0.00000E+00 0.00000E+00 0.00000E+00 0.00000E+00
 -1      2266 0.00000E+00 0.00000E+00 0.00000E+00 0.00000E+00 0.00000E+00 0.00000E+00
 -1      2267 0.00000E+00 0.00000E+00 0.00000E+00 0.00000E+00 0.00000E+00 0.00000E+00
 -1      2268 0.00000E+00 0.00000E+00 0.00000E+00 0.00000E+00 0.00000E+00 0.00000E+00
 -1      2269 0.00000E+00 0.00000E+00 0.00000E+00 0.00000E+00 0.00000E+00 0.00000E+00
 -1      2270 0.00000E+00 0.00000E+00 0.00000E+00 0.00000E+00 0.00000E+00 0.00000E+00
 -1      2271 0.00000E+00 0.00000E+00 0.00000E+00 0.00000E+00 0.00000E+00 0.00000E+00
 -1      2272 0.00000E+00 0.00000E+00 0.00000E+00 0.00000E+00 0.00000E+00 0.00000E+00
 -1      2273 0.00000E+00 0.00000E+00 0.00000E+00 0.00000E+00 0.00000E+00 0.00000E+00
 -1      2274 0.00000E+00 0.00000E+00 0.00000E+00 0.00000E+00 0.00000E+00 0.00000E+00
 -1      2275 0.00000E+00 0.00000E+00 0.00000E+00 0.00000E+00 0.00000E+00 0.00000E+00
 -1      2276 0.00000E+00 0.00000E+00 0.00000E+00 0.00000E+00 0.00000E+00 0.00000E+00
 -1      2277 0.00000E+00 0.00000E+00 0.00000E+00 0.00000E+00 0.00000E+00 0.00000E+00
 -1      2278 0.00000E+00 0.00000E+00 0.00000E+00 0.00000E+00 0.00000E+00 0.00000E+00
 -1      2279 0.00000E+00 0.00000E+00 0.00000E+00 0.00000E+00 0.00000E+00 0.00000E+00
 -1      2280 0.00000E+00 0.00000E+00 0.00000E+00 0.00000E+00 0.00000E+00 0.00000E+00
 -1      2281 0.00000E+00 0.00000E+00 0.00000E+00 0.00000E+00 0.00000E+00 0.00000E+00
 -1      2282 0.00000E+00 0.00000E+00 0.00000E+00 0.00000E+00 0.00000E+00 0.00000E+00
 -1      2283 0.00000E+00 0.00000E+00 0.00000E+00 0.00000E+00 0.00000E+00 0.00000E+00
 -1      2284 0.00000E+00 0.00000E+00 0.00000E+00 0.00000E+00 0.00000E+00 0.00000E+00
 -1      2285 0.00000E+00 0.00000E+00 0.00000E+00 0.00000E+00 0.00000E+00 0.00000E+00
 -1      2286 0.00000E+00 0.00000E+00 0.00000E+00 0.00000E+00 0.00000E+00 0.00000E+00
 -1      2287 0.00000E+00 0.00000E+00 0.00000E+00 0.00000E+00 0.00000E+00 0.00000E+00
 -1      2288 0.00000E+00 0.00000E+00 0.00000E+00 0.00000E+00 0.00000E+00 0.00000E+00
 -1      2289 0.00000E+00 0.00000E+00 0.00000E+00 0.00000E+00 0.00000E+00 0.00000E+00
 -1      2290 0.00000E+00 0.00000E+00 0.00000E+00 0.00000E+00 0.00000E+00 0.00000E+00
 -1      2291 0.00000E+00 0.00000E+00 0.00000E+00 0.00000E+00 0.00000E+00 0.00000E+00
 -1      2292 0.00000E+00 0.00000E+00 0.00000E+00 0.00000E+00 0.00000E+00 0.00000E+00
 -1      2293 0.00000E+00 0.00000E+00 0.00000E+00 0.00000E+00 0.00000E+00 0.00000E+00
 -1      2294 0.00000E+00 0.00000E+00 0.00000E+00 0.00000E+00 0.00000E+00 0.00000E+00
 -1      2295 0.00000E+00 0.00000E+00 0.00000E+00 0.00000E+00 0.00000E+00 0.00000E+00
 -1      2296 0.00000E+00 0.00000E+00 0.00000E+00 0.00000E+00 0.00000E+00 0.00000E+00
 -1      2297 0.00000E+00 0.00000E+00 0.00000E+00 0.00000E+00 0.00000E+00 0.00000E+00
 -1      2298 0.00000E+00 0.00000E+00 0.00000E+00 0.00000E+00 0.00000E+00 0.00000E+00
 -1      2299 0.00000E+00 0.00000E+00 0.00000E+00 0.00000E+00 0.00000E+00 0.00000E+00
 -1      2300 0.00000E+00 0.00000E+00 0.00000E+00 0.00000E+00 0.00000E+00 0.00000E+00
 -1      2301 0.00000E+00 0.00000E+00 0.00000E+00 0.00000E+00 0.00000E+00 0.00000E+00
 -1      2302 0.00000E+00 0.00000E+00 0.00000E+00 0.00000E+00 0.00000E+00 0.00000E+00
 -1      2303 0.00000E+00 0.00000E+00 0.00000E+00 0.00000E+00 0.00000E+00 0.00000E+00
 -1      2304 0.00000E+00 0.00000E+00 0.00000E+00 0.00000E+00 0.00000E+00 0.00000E+00
 -1      2305 0.00000E+00 0.00000E+00 0.00000E+00 0.00000E+00 0.00000E+00 0.00000E+00
 -1      2306 0.00000E+00 0.00000E+00 0.00000E+00 0.00000E+00 0.00000E+00 0.00000E+00
 -1      2307 0.00000E+00 0.00000E+00 0.00000E+00 0.00000E+00 0.00000E+00 0.00000E+00
 -1      2308 0.00000E+00 0.00000E+00 0.00000E+00 0.00000E+00 0.00000E+00 0.00000E+00
 -1      2309 0.00000E+00 0.00000E+00 0.00000E+00 0.00000E+00 0.00000E+00 0.00000E+00
 -1      2310 0.00000E+00 0.00000E+00 0.00000E+00 0.00000E+00 0.00000E+00 0.00000E+00
 -1      2311 0.00000E+00 0.00000E+00 0.00000E+00 0.00000E+00 0.00000E+00 0.00000E+00
 -1      2312 0.00000E+00 0.00000E+00 0.00000E+00 0.00000E+00 0.00000E+00 0.00000E+00
 -1      2313 0.00000E+00 0.00000E+00 0.00000E+00 0.00000E+00 0.00000E+00 0.00000E+00
 -1      2314 0.00000E+00 0.00000E+00 0.00000E+00 0.00000E+00 0.00000E+00 0.00000E+00
 -1      2315 0.00000E+00 0.00000E+00 0.00000E+00 0.00000E+00 0.00000E+00 0.00000E+00
 -1      2316 0.00000E+00 0.00000E+00 0.00000E+00 0.00000E+00 0.00000E+00 0.00000E+00
 -1      2317 0.00000E+00 0.00000E+00 0.00000E+00 0.00000E+00 0.00000E+00 0.00000E+00
 -1      2318 0.00000E+00 0.00000E+00 0.00000E+00 0.00000E+00 0.00000E+00 0.00000E+00
 -1      2319 0.00000E+00 0.00000E+00 0.00000E+00 0.00000E+00 0.00000E+00 0.00000E+00
 -1      2320 0.00000E+00 0.00000E+00 0.00000E+00 0.00000E+00 0.00000E+00 0.00000E+00
 -1      2321 0.00000E+00 0.00000E+00 0.00000E+00 0.00000E+00 0.00000E+00 0.00000E+00
 -1      2322 0.00000E+00 0.00000E+00 0.00000E+00 0.00000E+00 0.00000E+00 0.00000E+00
 -1      2323 0.00000E+00 0.00000E+00 0.00000E+00 0.00000E+00 0.00000E+00 0.00000E+00
 -1      2324 0.00000E+00 0.00000E+00 0.00000E+00 0.00000E+00 0.00000E+00 0.00000E+00
 -1      2325 0.00000E+00 0.00000E+00 0.00000E+00 0.00000E+00 0.00000E+00 0.00000E+00
 -1      2326 0.00000E+00 0.00000E+00 0.00000E+00 0.00000E+00 0.00000E+00 0.00000E+00
 -1      2327 0.00000E+00 0.00000E+00 0.00000E+00 0.00000E+00 0.00000E+00 0.00000E+00
 -1      2328 0.00000E+00 0.00000E+00 0.00000E+00 0.00000E+00 0.00000E+00 0.00000E+00
 -1      2329 0.00000E+00 0.00000E+00 0.00000E+00 0.00000E+00 0.00000E+00 0.00000E+00
 -1      2330 0.00000E+00 0.00000E+00 0.00000E+00 0.00000E+00 0.00000E+00 0.00000E+00
 -1      2331 0.00000E+00 0.00000E+00 0.00000E+00 0.00000E+00 0.00000E+00 0.00000E+00
 -1      2332 0.00000E+00 0.00000E+00 0.00000E+00 0.00000E+00 0.00000E+00 0.00000E+00
 -1      2333 0.00000E+00 0.00000E+00 0.00000E+00 0.00000E+00 0.00000E+00 0.00000E+00
 -1      2334 0.00000E+00 0.00000E+00 0.00000E+00 0.00000E+00 0.00000E+00 0.00000E+00
 -1      2335 0.00000E+00 0.00000E+00 0.00000E+00 0.00000E+00 0.00000E+00 0.00000E+00
 -1      2336 0.00000E+00 0.00000E+00 0.00000E+00 0.00000E+00 0.00000E+00 0.00000E+00
 -1      2337 0.00000E+00 0.00000E+00 0.00000E+00 0.00000E+00 0.00000E+00 0.00000E+00
 -1      2338 0.00000E+00 0.00000E+00 0.00000E+00 0.00000E+00 0.00000E+00 0.00000E+00
 -1      2339 0.00000E+00 0.00000E+00 0.00000E+00 0.00000E+00 0.00000E+00 0.00000E+00
 -1      2340 0.00000E+00 0.00000E+00 0.00000E+00 0.00000E+00 0.00000E+00 0.00000E+00
 -1      2341 0.00000E+00 0.00000E+00 0.00000E+00 0.00000E+00 0.00000E+00 0.00000E+00
 -1      2342 0.00000E+00 0.00000E+00 0.00000E+00 0.00000E+00 0.00000E+00 0.00000E+00
 -1      2343 0.00000E+00 0.00000E+00 0.00000E+00 0.00000E+00 0.00000E+00 0.00000E+00
 -1      2344 0.00000E+00 0.00000E+00 0.00000E+00 0.00000E+00 0.00000E+00 0.00000E+00
 -1      2345 0.00000E+00 0.00000E+00 0.00000E+00 0.00000E+00 0.00000E+00 0.00000E+00
 -1      2346 0.00000E+00 0.00000E+00 0.00000E+00 0.00000E+00 0.00000E+00 0.00000E+00
 -1      2347 0.00000E+00 0.00000E+00 0.00000E+00 0.00000E+00 0.00000E+00 0.00000E+00
 -1      2348 0.00000E+00 0.00000E+00 0.00000E+00 0.00000E+00 0.00000E+00 0.00000E+00
 -1      2349 0.00000E+00 0.00000E+00 0.00000E+00 0.00000E+00 0.00000E+00 0.00000E+00
 -1      2350 0.00000E+00 0.00000E+00 0.00000E+00 0.00000E+00 0.00000E+00 0.00000E+00
 -1      2351 0.00000E+00 0.00000E+00 0.00000E+00 0.00000E+00 0.00000E+00 0.00000E+00
 -1      2352 0.00000E+00 0.00000E+00 0.00000E+00 0.00000E+00 0.00000E+00 0.00000E+00
 -1      2353 0.00000E+00 0.00000E+00 0.00000E+00 0.00000E+00 0.00000E+00 0.00000E+00
 -1      2354 0.00000E+00 0.00000E+00 0.00000E+00 0.00000E+00 0.00000E+00 0.00000E+00
 -1      2355 0.00000E+00 0.00000E+00 0.00000E+00 0.00000E+00 0.00000E+00 0.00000E+00
 -1      2356 0.00000E+00 0.00000E+00 0.00000E+00 0.00000E+00 0.00000E+00 0.00000E+00
 -1      2357 0.00000E+00 0.00000E+00 0.00000E+00 0.00000E+00 0.00000E+00 0.00000E+00
 -1      2358 0.00000E+00 0.00000E+00 0.00000E+00 0.00000E+00 0.00000E+00 0.00000E+00
 -1      2359 0.00000E+00 0.00000E+00 0.00000E+00 0.00000E+00 0.00000E+00 0.00000E+00
 -1      2360 0.00000E+00 0.00000E+00 0.00000E+00 0.00000E+00 0.00000E+00 0.00000E+00
 -1      2361 0.00000E+00 0.00000E+00 0.00000E+00 0.00000E+00 0.00000E+00 0.00000E+00
 -1      2362 0.00000E+00 0.00000E+00 0.00000E+00 0.00000E+00 0.00000E+00 0.00000E+00
 -1      2363 0.00000E+00 0.00000E+00 0.00000E+00 0.00000E+00 0.00000E+00 0.00000E+00
 -1      2364 0.00000E+00 0.00000E+00 0.00000E+00 0.00000E+00 0.00000E+00 0.00000E+00
 -1      2365 0.00000E+00 0.00000E+00 0.00000E+00 0.00000E+00 0.00000E+00 0.00000E+00
 -1      2366 0.00000E+00 0.00000E+00 0.00000E+00 0.00000E+00 0.00000E+00 0.00000E+00
 -1      2367 0.00000E+00 0.00000E+00 0.00000E+00 0.00000E+00 0.00000E+00 0.00000E+00
 -1      2368 0.00000E+00 0.00000E+00 0.00000E+00 0.00000E+00 0.00000E+00 0.00000E+00
 -1      2369 0.00000E+00 0.00000E+00 0.00000E+00 0.00000E+00 0.00000E+00 0.00000E+00
 -1      2370 0.00000E+00 0.00000E+00 0.00000E+00 0.00000E+00 0.00000E+00 0.00000E+00
 -1      2371 0.00000E+00 0.00000E+00 0.00000E+00 0.00000E+00 0.00000E+00 0.00000E+00
 -1      2372 0.00000E+00 0.00000E+00 0.00000E+00 0.00000E+00 0.00000E+00 0.00000E+00
 -1      2373 0.00000E+00 0.00000E+00 0.00000E+00 0.00000E+00 0.00000E+00 0.00000E+00
 -1      2374 0.00000E+00 0.00000E+00 0.00000E+00 0.00000E+00 0.00000E+00 0.00000E+00
 -1      2375 0.00000E+00 0.00000E+00 0.00000E+00 0.00000E+00 0.00000E+00 0.00000E+00
 -1      2376 0.00000E+00 0.00000E+00 0.00000E+00 0.00000E+00 0.00000E+00 0.00000E+00
 -1      2377 0.00000E+00 0.00000E+00 0.00000E+00 0.00000E+00 0.00000E+00 0.00000E+00
 -1      2378 0.00000E+00 0.00000E+00 0.00000E+00 0.00000E+00 0.00000E+00 0.00000E+00
 -1      2379 0.00000E+00 0.00000E+00 0.00000E+00 0.00000E+00 0.00000E+00 0.00000E+00
 -1      2380 0.00000E+00 0.00000E+00 0.00000E+00 0.00000E+00 0.00000E+00 0.00000E+00
 -1      2381 0.00000E+00 0.00000E+00 0.00000E+00 0.00000E+00 0.00000E+00 0.00000E+00
 -1      2382 0.00000E+00 0.00000E+00 0.00000E+00 0.00000E+00 0.00000E+00 0.00000E+00
 -1      2383 0.00000E+00 0.00000E+00 0.00000E+00 0.00000E+00 0.00000E+00 0.00000E+00
 -1      2384 0.00000E+00 0.00000E+00 0.00000E+00 0.00000E+00 0.00000E+00 0.00000E+00
 -1      2385 0.00000E+00 0.00000E+00 0.00000E+00 0.00000E+00 0.00000E+00 0.00000E+00
 -1      2386 0.00000E+00 0.00000E+00 0.00000E+00 0.00000E+00 0.00000E+00 0.00000E+00
 -1      2387 0.00000E+00 0.00000E+00 0.00000E+00 0.00000E+00 0.00000E+00 0.00000E+00
 -1      2388 0.00000E+00 0.00000E+00 0.00000E+00 0.00000E+00 0.00000E+00 0.00000E+00
 -1      2389 0.00000E+00 0.00000E+00 0.00000E+00 0.00000E+00 0.00000E+00 0.00000E+00
 -1      2390 0.00000E+00 0.00000E+00 0.00000E+00 0.00000E+00 0.00000E+00 0.00000E+00
 -1      2391 0.00000E+00 0.00000E+00 0.00000E+00 0.00000E+00 0.00000E+00 0.00000E+00
 -1      2392 0.00000E+00 0.00000E+00 0.00000E+00 0.00000E+00 0.00000E+00 0.00000E+00
 -1      2393 0.00000E+00 0.00000E+00 0.00000E+00 0.00000E+00 0.00000E+00 0.00000E+00
 -1      2394 0.00000E+00 0.00000E+00 0.00000E+00 0.00000E+00 0.00000E+00 0.00000E+00
 -1      2395 0.00000E+00 0.00000E+00 0.00000E+00 0.00000E+00 0.00000E+00 0.00000E+00
 -1      2396 0.00000E+00 0.00000E+00 0.00000E+00 0.00000E+00 0.00000E+00 0.00000E+00
 -1      2397 0.00000E+00 0.00000E+00 0.00000E+00 0.00000E+00 0.00000E+00 0.00000E+00
 -1      2398 0.00000E+00 0.00000E+00 0.00000E+00 0.00000E+00 0.00000E+00 0.00000E+00
 -1      2399 0.00000E+00 0.00000E+00 0.00000E+00 0.00000E+00 0.00000E+00 0.00000E+00
 -1      2400 0.00000E+00 0.00000E+00 0.00000E+00 0.00000E+00 0.00000E+00 0.00000E+00
 -1      2401 0.00000E+00 0.00000E+00 0.00000E+00 0.00000E+00 0.00000E+00 0.00000E+00
 -1      2402 0.00000E+00 0.00000E+00 0.00000E+00 0.00000E+00 0.00000E+00 0.00000E+00
 -1      2403 0.00000E+00 0.00000E+00 0.00000E+00 0.00000E+00 0.00000E+00 0.00000E+00
 -1      2404 0.00000E+00 0.00000E+00 0.00000E+00 0.00000E+00 0.00000E+00 0.00000E+00
 -1      2405 0.00000E+00 0.00000E+00 0.00000E+00 0.00000E+00 0.00000E+00 0.00000E+00
 -1      2406 0.00000E+00 0.00000E+00 0.00000E+00 0.00000E+00 0.00000E+00 0.00000E+00
 -1      2407 0.00000E+00 0.00000E+00 0.00000E+00 0.00000E+00 0.00000E+00 0.00000E+00
 -1      2408 0.00000E+00 0.00000E+00 0.00000E+00 0.00000E+00 0.00000E+00 0.00000E+00
 -1      2409 0.00000E+00 0.00000E+00 0.00000E+00 0.00000E+00 0.00000E+00 0.00000E+00
 -1      2410 0.00000E+00 0.00000E+00 0.00000E+00 0.00000E+00 0.00000E+00 0.00000E+00
 -1      2411 0.00000E+00 0.00000E+00 0.00000E+00 0.00000E+00 0.00000E+00 0.00000E+00
 -1      2412 0.00000E+00 0.00000E+00 0.00000E+00 0.00000E+00 0.00000E+00 0.00000E+00
 -1      2413 0.00000E+00 0.00000E+00 0.00000E+00 0.00000E+00 0.00000E+00 0.00000E+00
 -1      2414 0.00000E+00 0.00000E+00 0.00000E+00 0.00000E+00 0.00000E+00 0.00000E+00
 -1      2415 0.00000E+00 0.00000E+00 0.00000E+00 0.00000E+00 0.00000E+00 0.00000E+00
 -1      2416 0.00000E+00 0.00000E+00 0.00000E+00 0.00000E+00 0.00000E+00 0.00000E+00
 -1      2417 0.00000E+00 0.00000E+00 0.00000E+00 0.00000E+00 0.00000E+00 0.00000E+00
 -1      2418 0.00000E+00 0.00000E+00 0.00000E+00 0.00000E+00 0.00000E+00 0.00000E+00
 -1      2419 0.00000E+00 0.00000E+00 0.00000E+00 0.00000E+00 0.00000E+00 0.00000E+00
 -1      2420 0.00000E+00 0.00000E+00 0.00000E+00 0.00000E+00 0.00000E+00 0.00000E+00
 -1      2421 0.00000E+00 0.00000E+00 0.00000E+00 0.00000E+00 0.00000E+00 0.00000E+00
 -1      2422 0.00000E+00 0.00000E+00 0.00000E+00 0.00000E+00 0.00000E+00 0.00000E+00
 -1      2423 0.00000E+00 0.00000E+00 0.00000E+00 0.00000E+00 0.00000E+00 0.00000E+00
 -1      2424 0.00000E+00 0.00000E+00 0.00000E+00 0.00000E+00 0.00000E+00 0.00000E+00
 -1      2425 0.00000E+00 0.00000E+00 0.00000E+00 0.00000E+00 0.00000E+00 0.00000E+00
 -1      2426 0.00000E+00 0.00000E+00 0.00000E+00 0.00000E+00 0.00000E+00 0.00000E+00
 -1      2427 0.00000E+00 0.00000E+00 0.00000E+00 0.00000E+00 0.00000E+00 0.00000E+00
 -1      2428 0.00000E+00 0.00000E+00 0.00000E+00 0.00000E+00 0.00000E+00 0.00000E+00
 -1      2429 0.00000E+00 0.00000E+00 0.00000E+00 0.00000E+00 0.00000E+00 0.00000E+00
 -1      2430 0.00000E+00 0.00000E+00 0.00000E+00 0.00000E+00 0.00000E+00 0.00000E+00
 -1      2431 0.00000E+00 0.00000E+00 0.00000E+00 0.00000E+00 0.00000E+00 0.00000E+00
 -1      2432 0.00000E+00 0.00000E+00 0.00000E+00 0.00000E+00 0.00000E+00 0.00000E+00
 -1      2433 0.00000E+00 0.00000E+00 0.00000E+00 0.00000E+00 0.00000E+00 0.00000E+00
 -1      2434 0.00000E+00 0.00000E+00 0.00000E+00 0.00000E+00 0.00000E+00 0.00000E+00
 -1      2435 0.00000E+00 0.00000E+00 0.00000E+00 0.00000E+00 0.00000E+00 0.00000E+00
 -1      2436 0.00000E+00 0.00000E+00 0.00000E+00 0.00000E+00 0.00000E+00 0.00000E+00
 -1      2437 0.00000E+00 0.00000E+00 0.00000E+00 0.00000E+00 0.00000E+00 0.00000E+00
 -1      2438 0.00000E+00 0.00000E+00 0.00000E+00 0.00000E+00 0.00000E+00 0.00000E+00
 -1      2439 0.00000E+00 0.00000E+00 0.00000E+00 0.00000E+00 0.00000E+00 0.00000E+00
 -1      2440 0.00000E+00 0.00000E+00 0.00000E+00 0.00000E+00 0.00000E+00 0.00000E+00
 -1      2441 0.00000E+00 0.00000E+00 0.00000E+00 0.00000E+00 0.00000E+00 0.00000E+00
 -1      2442 0.00000E+00 0.00000E+00 0.00000E+00 0.00000E+00 0.00000E+00 0.00000E+00
 -1      2443 0.00000E+00 0.00000E+00 0.00000E+00 0.00000E+00 0.00000E+00 0.00000E+00
 -1      2444 0.00000E+00 0.00000E+00 0.00000E+00 0.00000E+00 0.00000E+00 0.00000E+00
 -1      2445 0.00000E+00 0.00000E+00 0.00000E+00 0.00000E+00 0.00000E+00 0.00000E+00
 -1      2446 0.00000E+00 0.00000E+00 0.00000E+00 0.00000E+00 0.00000E+00 0.00000E+00
 -1      2447 0.00000E+00 0.00000E+00 0.00000E+00 0.00000E+00 0.00000E+00 0.00000E+00
 -1      2448 0.00000E+00 0.00000E+00 0.00000E+00 0.00000E+00 0.00000E+00 0.00000E+00
 -1      2449 0.00000E+00 0.00000E+00 0.00000E+00 0.00000E+00 0.00000E+00 0.00000E+00
 -1      2450 0.00000E+00 0.00000E+00 0.00000E+00 0.00000E+00 0.00000E+00 0.00000E+00
 -1      2451 0.00000E+00 0.00000E+00 0.00000E+00 0.00000E+00 0.00000E+00 0.00000E+00
 -1      2452 0.00000E+00 0.00000E+00 0.00000E+00 0.00000E+00 0.00000E+00 0.00000E+00
 -1      2453 0.00000E+00 0.00000E+00 0.00000E+00 0.00000E+00 0.00000E+00 0.00000E+00
 -1      2454 0.00000E+00 0.00000E+00 0.00000E+00 0.00000E+00 0.00000E+00 0.00000E+00
 -1      2455 0.00000E+00 0.00000E+00 0.00000E+00 0.00000E+00 0.00000E+00 0.00000E+00
 -1      2456 0.00000E+00 0.00000E+00 0.00000E+00 0.00000E+00 0.00000E+00 0.00000E+00
 -1      2457 0.00000E+00 0.00000E+00 0.00000E+00 0.00000E+00 0.00000E+00 0.00000E+00
 -1      2458 0.00000E+00 0.00000E+00 0.00000E+00 0.00000E+00 0.00000E+00 0.00000E+00
 -1      2459 0.00000E+00 0.00000E+00 0.00000E+00 0.00000E+00 0.00000E+00 0.00000E+00
 -1      2460 0.00000E+00 0.00000E+00 0.00000E+00 0.00000E+00 0.00000E+00 0.00000E+00
 -1      2461 0.00000E+00 0.00000E+00 0.00000E+00 0.00000E+00 0.00000E+00 0.00000E+00
 -1      2462 0.00000E+00 0.00000E+00 0.00000E+00 0.00000E+00 0.00000E+00 0.00000E+00
 -1      2463 0.00000E+00 0.00000E+00 0.00000E+00 0.00000E+00 0.00000E+00 0.00000E+00
 -1      2464 0.00000E+00 0.00000E+00 0.00000E+00 0.00000E+00 0.00000E+00 0.00000E+00
 -1      2465 0.00000E+00 0.00000E+00 0.00000E+00 0.00000E+00 0.00000E+00 0.00000E+00
 -1      2466 0.00000E+00 0.00000E+00 0.00000E+00 0.00000E+00 0.00000E+00 0.00000E+00
 -1      2467 0.00000E+00 0.00000E+00 0.00000E+00 0.00000E+00 0.00000E+00 0.00000E+00
 -1      2468 0.00000E+00 0.00000E+00 0.00000E+00 0.00000E+00 0.00000E+00 0.00000E+00
 -1      2469 0.00000E+00 0.00000E+00 0.00000E+00 0.00000E+00 0.00000E+00 0.00000E+00
 -1      2470 0.00000E+00 0.00000E+00 0.00000E+00 0.00000E+00 0.00000E+00 0.00000E+00
 -1      2471 0.00000E+00 0.00000E+00 0.00000E+00 0.00000E+00 0.00000E+00 0.00000E+00
 -1      2472 0.00000E+00 0.00000E+00 0.00000E+00 0.00000E+00 0.00000E+00 0.00000E+00
 -1      2473 0.00000E+00 0.00000E+00 0.00000E+00 0.00000E+00 0.00000E+00 0.00000E+00
 -1      2474 0.00000E+00 0.00000E+00 0.00000E+00 0.00000E+00 0.00000E+00 0.00000E+00
 -1      2475 0.00000E+00 0.00000E+00 0.00000E+00 0.00000E+00 0.00000E+00 0.00000E+00
 -1      2476 0.00000E+00 0.00000E+00 0.00000E+00 0.00000E+00 0.00000E+00 0.00000E+00
 -1      2477 0.00000E+00 0.00000E+00 0.00000E+00 0.00000E+00 0.00000E+00 0.00000E+00
 -1      2478 0.00000E+00 0.00000E+00 0.00000E+00 0.00000E+00 0.00000E+00 0.00000E+00
 -1      2479 0.00000E+00 0.00000E+00 0.00000E+00 0.00000E+00 0.00000E+00 0.00000E+00
 -1      2480 0.00000E+00 0.00000E+00 0.00000E+00 0.00000E+00 0.00000E+00 0.00000E+00
 -1      2481 0.00000E+00 0.00000E+00 0.00000E+00 0.00000E+00 0.00000E+00 0.00000E+00
 -1      2482 0.00000E+00 0.00000E+00 0.00000E+00 0.00000E+00 0.00000E+00 0.00000E+00
 -1      2483 0.00000E+00 0.00000E+00 0.00000E+00 0.00000E+00 0.00000E+00 0.00000E+00
 -1      2484 0.00000E+00 0.00000E+00 0.00000E+00 0.00000E+00 0.00000E+00 0.00000E+00
 -1      2485 0.00000E+00 0.00000E+00 0.00000E+00 0.00000E+00 0.00000E+00 0.00000E+00
 -1      2486 0.00000E+00 0.00000E+00 0.00000E+00 0.00000E+00 0.00000E+00 0.00000E+00
 -1      2487 0.00000E+00 0.00000E+00 0.00000E+00 0.00000E+00 0.00000E+00 0.00000E+00
 -1      2488 0.00000E+00 0.00000E+00 0.00000E+00 0.00000E+00 0.00000E+00 0.00000E+00
 -1      2489 0.00000E+00 0.00000E+00 0.00000E+00 0.00000E+00 0.00000E+00 0.00000E+00
 -1      2490 0.00000E+00 0.00000E+00 0.00000E+00 0.00000E+00 0.00000E+00 0.00000E+00
 -1      2491 0.00000E+00 0.00000E+00 0.00000E+00 0.00000E+00 0.00000E+00 0.00000E+00
 -1      2492 0.00000E+00 0.00000E+00 0.00000E+00 0.00000E+00 0.00000E+00 0.00000E+00
 -1      2493 0.00000E+00 0.00000E+00 0.00000E+00 0.00000E+00 0.00000E+00 0.00000E+00
 -1      2494 0.00000E+00 0.00000E+00 0.00000E+00 0.00000E+00 0.00000E+00 0.00000E+00
 -1      2495 0.00000E+00 0.00000E+00 0.00000E+00 0.00000E+00 0.00000E+00 0.00000E+00
 -1      2496 0.00000E+00 0.00000E+00 0.00000E+00 0.00000E+00 0.00000E+00 0.00000E+00
 -1      2497 0.00000E+00 0.00000E+00 0.00000E+00 0.00000E+00 0.00000E+00 0.00000E+00
 -1      2498 0.00000E+00 0.00000E+00 0.00000E+00 0.00000E+00 0.00000E+00 0.00000E+00
 -1      2499 0.00000E+00 0.00000E+00 0.00000E+00 0.00000E+00 0.00000E+00 0.00000E+00
 -1      2500 0.00000E+00 0.00000E+00 0.00000E+00 0.00000E+00 0.00000E+00 0.00000E+00
 -1      2501 0.00000E+00 0.00000E+00 0.00000E+00 0.00000E+00 0.00000E+00 0.00000E+00
 -1      2502 0.00000E+00 0.00000E+00 0.00000E+00 0.00000E+00 0.00000E+00 0.00000E+00
 -1      2503 0.00000E+00 0.00000E+00 0.00000E+00 0.00000E+00 0.00000E+00 0.00000E+00
 -1      2504 0.00000E+00 0.00000E+00 0.00000E+00 0.00000E+00 0.00000E+00 0.00000E+00
 -1      2505 0.00000E+00 0.00000E+00 0.00000E+00 0.00000E+00 0.00000E+00 0.00000E+00
 -1      2506 0.00000E+00 0.00000E+00 0.00000E+00 0.00000E+00 0.00000E+00 0.00000E+00
 -1      2507 0.00000E+00 0.00000E+00 0.00000E+00 0.00000E+00 0.00000E+00 0.00000E+00
 -1      2508 0.00000E+00 0.00000E+00 0.00000E+00 0.00000E+00 0.00000E+00 0.00000E+00
 -1      2509 0.00000E+00 0.00000E+00 0.00000E+00 0.00000E+00 0.00000E+00 0.00000E+00
 -1      2510 0.00000E+00 0.00000E+00 0.00000E+00 0.00000E+00 0.00000E+00 0.00000E+00
 -1      2511 0.00000E+00 0.00000E+00 0.00000E+00 0.00000E+00 0.00000E+00 0.00000E+00
 -1      2512 0.00000E+00 0.00000E+00 0.00000E+00 0.00000E+00 0.00000E+00 0.00000E+00
 -1      2513 0.00000E+00 0.00000E+00 0.00000E+00 0.00000E+00 0.00000E+00 0.00000E+00
 -1      2514 0.00000E+00 0.00000E+00 0.00000E+00 0.00000E+00 0.00000E+00 0.00000E+00
 -1      2515 0.00000E+00 0.00000E+00 0.00000E+00 0.00000E+00 0.00000E+00 0.00000E+00
 -1      2516 0.00000E+00 0.00000E+00 0.00000E+00 0.00000E+00 0.00000E+00 0.00000E+00
 -1      2517 0.00000E+00 0.00000E+00 0.00000E+00 0.00000E+00 0.00000E+00 0.00000E+00
 -1      2518 0.00000E+00 0.00000E+00 0.00000E+00 0.00000E+00 0.00000E+00 0.00000E+00
 -1      2519 0.00000E+00 0.00000E+00 0.00000E+00 0.00000E+00 0.00000E+00 0.00000E+00
 -1      2520 0.00000E+00 0.00000E+00 0.00000E+00 0.00000E+00 0.00000E+00 0.00000E+00
 -1      2521 0.00000E+00 0.00000E+00 0.00000E+00 0.00000E+00 0.00000E+00 0.00000E+00
 -1      2522 0.00000E+00 0.00000E+00 0.00000E+00 0.00000E+00 0.00000E+00 0.00000E+00
 -1      2523 0.00000E+00 0.00000E+00 0.00000E+00 0.00000E+00 0.00000E+00 0.00000E+00
 -1      2524 0.00000E+00 0.00000E+00 0.00000E+00 0.00000E+00 0.00000E+00 0.00000E+00
 -1      2525 0.00000E+00 0.00000E+00 0.00000E+00 0.00000E+00 0.00000E+00 0.00000E+00
 -1      2526 0.00000E+00 0.00000E+00 0.00000E+00 0.00000E+00 0.00000E+00 0.00000E+00
 -1      2527 0.00000E+00 0.00000E+00 0.00000E+00 0.00000E+00 0.00000E+00 0.00000E+00
 -1      2528 0.00000E+00 0.00000E+00 0.00000E+00 0.00000E+00 0.00000E+00 0.00000E+00
 -1      2529 0.00000E+00 0.00000E+00 0.00000E+00 0.00000E+00 0.00000E+00 0.00000E+00
 -1      2530 0.00000E+00 0.00000E+00 0.00000E+00 0.00000E+00 0.00000E+00 0.00000E+00
 -1      2531 0.00000E+00 0.00000E+00 0.00000E+00 0.00000E+00 0.00000E+00 0.00000E+00
 -1      2532 0.00000E+00 0.00000E+00 0.00000E+00 0.00000E+00 0.00000E+00 0.00000E+00
 -1      2533 0.00000E+00 0.00000E+00 0.00000E+00 0.00000E+00 0.00000E+00 0.00000E+00
 -1      2534 0.00000E+00 0.00000E+00 0.00000E+00 0.00000E+00 0.00000E+00 0.00000E+00
 -1      2535 0.00000E+00 0.00000E+00 0.00000E+00 0.00000E+00 0.00000E+00 0.00000E+00
 -1      2536 0.00000E+00 0.00000E+00 0.00000E+00 0.00000E+00 0.00000E+00 0.00000E+00
 -1      2537 0.00000E+00 0.00000E+00 0.00000E+00 0.00000E+00 0.00000E+00 0.00000E+00
 -1      2538 0.00000E+00 0.00000E+00 0.00000E+00 0.00000E+00 0.00000E+00 0.00000E+00
 -1      2539 0.00000E+00 0.00000E+00 0.00000E+00 0.00000E+00 0.00000E+00 0.00000E+00
 -1      2540 0.00000E+00 0.00000E+00 0.00000E+00 0.00000E+00 0.00000E+00 0.00000E+00
 -1      2541 0.00000E+00 0.00000E+00 0.00000E+00 0.00000E+00 0.00000E+00 0.00000E+00
 -1      2542 0.00000E+00 0.00000E+00 0.00000E+00 0.00000E+00 0.00000E+00 0.00000E+00
 -1      2543 0.00000E+00 0.00000E+00 0.00000E+00 0.00000E+00 0.00000E+00 0.00000E+00
 -1      2544 0.00000E+00 0.00000E+00 0.00000E+00 0.00000E+00 0.00000E+00 0.00000E+00
 -1      2545 0.00000E+00 0.00000E+00 0.00000E+00 0.00000E+00 0.00000E+00 0.00000E+00
 -1      2546 0.00000E+00 0.00000E+00 0.00000E+00 0.00000E+00 0.00000E+00 0.00000E+00
 -1      2547 0.00000E+00 0.00000E+00 0.00000E+00 0.00000E+00 0.00000E+00 0.00000E+00
 -1      2548 0.00000E+00 0.00000E+00 0.00000E+00 0.00000E+00 0.00000E+00 0.00000E+00
 -1      2549 0.00000E+00 0.00000E+00 0.00000E+00 0.00000E+00 0.00000E+00 0.00000E+00
 -1      2550 0.00000E+00 0.00000E+00 0.00000E+00 0.00000E+00 0.00000E+00 0.00000E+00
 -1      2551 0.00000E+00 0.00000E+00 0.00000E+00 0.00000E+00 0.00000E+00 0.00000E+00
 -1      2552 0.00000E+00 0.00000E+00 0.00000E+00 0.00000E+00 0.00000E+00 0.00000E+00
 -1      2553 0.00000E+00 0.00000E+00 0.00000E+00 0.00000E+00 0.00000E+00 0.00000E+00
 -1      2554 0.00000E+00 0.00000E+00 0.00000E+00 0.00000E+00 0.00000E+00 0.00000E+00
 -1      2555 0.00000E+00 0.00000E+00 0.00000E+00 0.00000E+00 0.00000E+00 0.00000E+00
 -1      2556 0.00000E+00 0.00000E+00 0.00000E+00 0.00000E+00 0.00000E+00 0.00000E+00
 -1      2557 0.00000E+00 0.00000E+00 0.00000E+00 0.00000E+00 0.00000E+00 0.00000E+00
 -1      2558 0.00000E+00 0.00000E+00 0.00000E+00 0.00000E+00 0.00000E+00 0.00000E+00
 -1      2559 0.00000E+00 0.00000E+00 0.00000E+00 0.00000E+00 0.00000E+00 0.00000E+00
 -1      2560 0.00000E+00 0.00000E+00 0.00000E+00 0.00000E+00 0.00000E+00 0.00000E+00
 -1      2561 0.00000E+00 0.00000E+00 0.00000E+00 0.00000E+00 0.00000E+00 0.00000E+00
 -1      2562 0.00000E+00 0.00000E+00 0.00000E+00 0.00000E+00 0.00000E+00 0.00000E+00
 -1      2563 0.00000E+00 0.00000E+00 0.00000E+00 0.00000E+00 0.00000E+00 0.00000E+00
 -1      2564 0.00000E+00 0.00000E+00 0.00000E+00 0.00000E+00 0.00000E+00 0.00000E+00
 -1      2565 0.00000E+00 0.00000E+00 0.00000E+00 0.00000E+00 0.00000E+00 0.00000E+00
 -1      2566 0.00000E+00 0.00000E+00 0.00000E+00 0.00000E+00 0.00000E+00 0.00000E+00
 -1      2567 0.00000E+00 0.00000E+00 0.00000E+00 0.00000E+00 0.00000E+00 0.00000E+00
 -1      2568 0.00000E+00 0.00000E+00 0.00000E+00 0.00000E+00 0.00000E+00 0.00000E+00
 -1      2569 0.00000E+00 0.00000E+00 0.00000E+00 0.00000E+00 0.00000E+00 0.00000E+00
 -1      2570 0.00000E+00 0.00000E+00 0.00000E+00 0.00000E+00 0.00000E+00 0.00000E+00
 -1      2571 0.00000E+00 0.00000E+00 0.00000E+00 0.00000E+00 0.00000E+00 0.00000E+00
 -1      2572 0.00000E+00 0.00000E+00 0.00000E+00 0.00000E+00 0.00000E+00 0.00000E+00
 -1      2573 0.00000E+00 0.00000E+00 0.00000E+00 0.00000E+00 0.00000E+00 0.00000E+00
 -1      2574 0.00000E+00 0.00000E+00 0.00000E+00 0.00000E+00 0.00000E+00 0.00000E+00
 -1      2575 0.00000E+00 0.00000E+00 0.00000E+00 0.00000E+00 0.00000E+00 0.00000E+00
 -1      2576 0.00000E+00 0.00000E+00 0.00000E+00 0.00000E+00 0.00000E+00 0.00000E+00
 -1      2577 0.00000E+00 0.00000E+00 0.00000E+00 0.00000E+00 0.00000E+00 0.00000E+00
 -1      2578 0.00000E+00 0.00000E+00 0.00000E+00 0.00000E+00 0.00000E+00 0.00000E+00
 -1      2579 0.00000E+00 0.00000E+00 0.00000E+00 0.00000E+00 0.00000E+00 0.00000E+00
 -1      2580 0.00000E+00 0.00000E+00 0.00000E+00 0.00000E+00 0.00000E+00 0.00000E+00
 -1      2581 0.00000E+00 0.00000E+00 0.00000E+00 0.00000E+00 0.00000E+00 0.00000E+00
 -1      2582 0.00000E+00 0.00000E+00 0.00000E+00 0.00000E+00 0.00000E+00 0.00000E+00
 -1      2583 0.00000E+00 0.00000E+00 0.00000E+00 0.00000E+00 0.00000E+00 0.00000E+00
 -1      2584 0.00000E+00 0.00000E+00 0.00000E+00 0.00000E+00 0.00000E+00 0.00000E+00
 -1      2585 0.00000E+00 0.00000E+00 0.00000E+00 0.00000E+00 0.00000E+00 0.00000E+00
 -1      2586 0.00000E+00 0.00000E+00 0.00000E+00 0.00000E+00 0.00000E+00 0.00000E+00
 -1      2587 0.00000E+00 0.00000E+00 0.00000E+00 0.00000E+00 0.00000E+00 0.00000E+00
 -1      2588 0.00000E+00 0.00000E+00 0.00000E+00 0.00000E+00 0.00000E+00 0.00000E+00
 -1      2589 0.00000E+00 0.00000E+00 0.00000E+00 0.00000E+00 0.00000E+00 0.00000E+00
 -1      2590 0.00000E+00 0.00000E+00 0.00000E+00 0.00000E+00 0.00000E+00 0.00000E+00
 -1      2591 0.00000E+00 0.00000E+00 0.00000E+00 0.00000E+00 0.00000E+00 0.00000E+00
 -1      2592 0.00000E+00 0.00000E+00 0.00000E+00 0.00000E+00 0.00000E+00 0.00000E+00
 -1      2593 0.00000E+00 0.00000E+00 0.00000E+00 0.00000E+00 0.00000E+00 0.00000E+00
 -1      2594 0.00000E+00 0.00000E+00 0.00000E+00 0.00000E+00 0.00000E+00 0.00000E+00
 -1      2595 0.00000E+00 0.00000E+00 0.00000E+00 0.00000E+00 0.00000E+00 0.00000E+00
 -1      2596 0.00000E+00 0.00000E+00 0.00000E+00 0.00000E+00 0.00000E+00 0.00000E+00
 -1      2597 0.00000E+00 0.00000E+00 0.00000E+00 0.00000E+00 0.00000E+00 0.00000E+00
 -1      2598 0.00000E+00 0.00000E+00 0.00000E+00 0.00000E+00 0.00000E+00 0.00000E+00
 -1      2599 0.00000E+00 0.00000E+00 0.00000E+00 0.00000E+00 0.00000E+00 0.00000E+00
 -1      2600 0.00000E+00 0.00000E+00 0.00000E+00 0.00000E+00 0.00000E+00 0.00000E+00
 -1      2601 0.00000E+00 0.00000E+00 0.00000E+00 0.00000E+00 0.00000E+00 0.00000E+00
 -1      2602 0.00000E+00 0.00000E+00 0.00000E+00 0.00000E+00 0.00000E+00 0.00000E+00
 -1      2603 0.00000E+00 0.00000E+00 0.00000E+00 0.00000E+00 0.00000E+00 0.00000E+00
 -1      2604 0.00000E+00 0.00000E+00 0.00000E+00 0.00000E+00 0.00000E+00 0.00000E+00
 -1      2605 0.00000E+00 0.00000E+00 0.00000E+00 0.00000E+00 0.00000E+00 0.00000E+00
 -1      2606 0.00000E+00 0.00000E+00 0.00000E+00 0.00000E+00 0.00000E+00 0.00000E+00
 -1      2607 0.00000E+00 0.00000E+00 0.00000E+00 0.00000E+00 0.00000E+00 0.00000E+00
 -1      2608 0.00000E+00 0.00000E+00 0.00000E+00 0.00000E+00 0.00000E+00 0.00000E+00
 -1      2609 0.00000E+00 0.00000E+00 0.00000E+00 0.00000E+00 0.00000E+00 0.00000E+00
 -1      2610 0.00000E+00 0.00000E+00 0.00000E+00 0.00000E+00 0.00000E+00 0.00000E+00
 -1      2611 0.00000E+00 0.00000E+00 0.00000E+00 0.00000E+00 0.00000E+00 0.00000E+00
 -1      2612 0.00000E+00 0.00000E+00 0.00000E+00 0.00000E+00 0.00000E+00 0.00000E+00
 -1      2613 0.00000E+00 0.00000E+00 0.00000E+00 0.00000E+00 0.00000E+00 0.00000E+00
 -1      2614 0.00000E+00 0.00000E+00 0.00000E+00 0.00000E+00 0.00000E+00 0.00000E+00
 -1      2615 0.00000E+00 0.00000E+00 0.00000E+00 0.00000E+00 0.00000E+00 0.00000E+00
 -1      2616 0.00000E+00 0.00000E+00 0.00000E+00 0.00000E+00 0.00000E+00 0.00000E+00
 -1      2617 0.00000E+00 0.00000E+00 0.00000E+00 0.00000E+00 0.00000E+00 0.00000E+00
 -1      2618 0.00000E+00 0.00000E+00 0.00000E+00 0.00000E+00 0.00000E+00 0.00000E+00
 -1      2619 0.00000E+00 0.00000E+00 0.00000E+00 0.00000E+00 0.00000E+00 0.00000E+00
 -1      2620 0.00000E+00 0.00000E+00 0.00000E+00 0.00000E+00 0.00000E+00 0.00000E+00
 -1      2621 0.00000E+00 0.00000E+00 0.00000E+00 0.00000E+00 0.00000E+00 0.00000E+00
 -1      2622 0.00000E+00 0.00000E+00 0.00000E+00 0.00000E+00 0.00000E+00 0.00000E+00
 -1      2623 0.00000E+00 0.00000E+00 0.00000E+00 0.00000E+00 0.00000E+00 0.00000E+00
 -1      2624 0.00000E+00 0.00000E+00 0.00000E+00 0.00000E+00 0.00000E+00 0.00000E+00
 -1      2625 0.00000E+00 0.00000E+00 0.00000E+00 0.00000E+00 0.00000E+00 0.00000E+00
 -1      2626 0.00000E+00 0.00000E+00 0.00000E+00 0.00000E+00 0.00000E+00 0.00000E+00
 -1      2627 0.00000E+00 0.00000E+00 0.00000E+00 0.00000E+00 0.00000E+00 0.00000E+00
 -1      2628 0.00000E+00 0.00000E+00 0.00000E+00 0.00000E+00 0.00000E+00 0.00000E+00
 -1      2629 0.00000E+00 0.00000E+00 0.00000E+00 0.00000E+00 0.00000E+00 0.00000E+00
 -1      2630 0.00000E+00 0.00000E+00 0.00000E+00 0.00000E+00 0.00000E+00 0.00000E+00
 -1      2631 0.00000E+00 0.00000E+00 0.00000E+00 0.00000E+00 0.00000E+00 0.00000E+00
 -1      2632 0.00000E+00 0.00000E+00 0.00000E+00 0.00000E+00 0.00000E+00 0.00000E+00
 -1      2633 0.00000E+00 0.00000E+00 0.00000E+00 0.00000E+00 0.00000E+00 0.00000E+00
 -1      2634 0.00000E+00 0.00000E+00 0.00000E+00 0.00000E+00 0.00000E+00 0.00000E+00
 -1      2635 0.00000E+00 0.00000E+00 0.00000E+00 0.00000E+00 0.00000E+00 0.00000E+00
 -1      2636 0.00000E+00 0.00000E+00 0.00000E+00 0.00000E+00 0.00000E+00 0.00000E+00
 -1      2637 0.00000E+00 0.00000E+00 0.00000E+00 0.00000E+00 0.00000E+00 0.00000E+00
 -1      2638 0.00000E+00 0.00000E+00 0.00000E+00 0.00000E+00 0.00000E+00 0.00000E+00
 -1      2639 0.00000E+00 0.00000E+00 0.00000E+00 0.00000E+00 0.00000E+00 0.00000E+00
 -1      2640 0.00000E+00 0.00000E+00 0.00000E+00 0.00000E+00 0.00000E+00 0.00000E+00
 -1      2641 0.00000E+00 0.00000E+00 0.00000E+00 0.00000E+00 0.00000E+00 0.00000E+00
 -1      2642 0.00000E+00 0.00000E+00 0.00000E+00 0.00000E+00 0.00000E+00 0.00000E+00
 -1      2643 0.00000E+00 0.00000E+00 0.00000E+00 0.00000E+00 0.00000E+00 0.00000E+00
 -1      2644 0.00000E+00 0.00000E+00 0.00000E+00 0.00000E+00 0.00000E+00 0.00000E+00
 -1      2645 0.00000E+00 0.00000E+00 0.00000E+00 0.00000E+00 0.00000E+00 0.00000E+00
 -1      2646 0.00000E+00 0.00000E+00 0.00000E+00 0.00000E+00 0.00000E+00 0.00000E+00
 -1      2647 0.00000E+00 0.00000E+00 0.00000E+00 0.00000E+00 0.00000E+00 0.00000E+00
 -1      2648 0.00000E+00 0.00000E+00 0.00000E+00 0.00000E+00 0.00000E+00 0.00000E+00
 -1      2649 0.00000E+00 0.00000E+00 0.00000E+00 0.00000E+00 0.00000E+00 0.00000E+00
 -1      2650 0.00000E+00 0.00000E+00 0.00000E+00 0.00000E+00 0.00000E+00 0.00000E+00
 -1      2651 0.00000E+00 0.00000E+00 0.00000E+00 0.00000E+00 0.00000E+00 0.00000E+00
 -1      2652 0.00000E+00 0.00000E+00 0.00000E+00 0.00000E+00 0.00000E+00 0.00000E+00
 -1      2653 0.00000E+00 0.00000E+00 0.00000E+00 0.00000E+00 0.00000E+00 0.00000E+00
 -1      2654 0.00000E+00 0.00000E+00 0.00000E+00 0.00000E+00 0.00000E+00 0.00000E+00
 -1      2655 0.00000E+00 0.00000E+00 0.00000E+00 0.00000E+00 0.00000E+00 0.00000E+00
 -1      2656 0.00000E+00 0.00000E+00 0.00000E+00 0.00000E+00 0.00000E+00 0.00000E+00
 -1      2657 0.00000E+00 0.00000E+00 0.00000E+00 0.00000E+00 0.00000E+00 0.00000E+00
 -1      2658 0.00000E+00 0.00000E+00 0.00000E+00 0.00000E+00 0.00000E+00 0.00000E+00
 -1      2659 0.00000E+00 0.00000E+00 0.00000E+00 0.00000E+00 0.00000E+00 0.00000E+00
 -1      2660 0.00000E+00 0.00000E+00 0.00000E+00 0.00000E+00 0.00000E+00 0.00000E+00
 -1      2661 0.00000E+00 0.00000E+00 0.00000E+00 0.00000E+00 0.00000E+00 0.00000E+00
 -1      2662 0.00000E+00 0.00000E+00 0.00000E+00 0.00000E+00 0.00000E+00 0.00000E+00
 -1      2663 0.00000E+00 0.00000E+00 0.00000E+00 0.00000E+00 0.00000E+00 0.00000E+00
 -1      2664 0.00000E+00 0.00000E+00 0.00000E+00 0.00000E+00 0.00000E+00 0.00000E+00
 -1      2665 0.00000E+00 0.00000E+00 0.00000E+00 0.00000E+00 0.00000E+00 0.00000E+00
 -1      2666 0.00000E+00 0.00000E+00 0.00000E+00 0.00000E+00 0.00000E+00 0.00000E+00
 -1      2667 0.00000E+00 0.00000E+00 0.00000E+00 0.00000E+00 0.00000E+00 0.00000E+00
 -1      2668 0.00000E+00 0.00000E+00 0.00000E+00 0.00000E+00 0.00000E+00 0.00000E+00
 -1      2669 0.00000E+00 0.00000E+00 0.00000E+00 0.00000E+00 0.00000E+00 0.00000E+00
 -1      2670 0.00000E+00 0.00000E+00 0.00000E+00 0.00000E+00 0.00000E+00 0.00000E+00
 -1      2671 0.00000E+00 0.00000E+00 0.00000E+00 0.00000E+00 0.00000E+00 0.00000E+00
 -1      2672 0.00000E+00 0.00000E+00 0.00000E+00 0.00000E+00 0.00000E+00 0.00000E+00
 -1      2673 0.00000E+00 0.00000E+00 0.00000E+00 0.00000E+00 0.00000E+00 0.00000E+00
 -1      2674 0.00000E+00 0.00000E+00 0.00000E+00 0.00000E+00 0.00000E+00 0.00000E+00
 -1      2675 0.00000E+00 0.00000E+00 0.00000E+00 0.00000E+00 0.00000E+00 0.00000E+00
 -1      2676 0.00000E+00 0.00000E+00 0.00000E+00 0.00000E+00 0.00000E+00 0.00000E+00
 -1      2677 0.00000E+00 0.00000E+00 0.00000E+00 0.00000E+00 0.00000E+00 0.00000E+00
 -1      2678 0.00000E+00 0.00000E+00 0.00000E+00 0.00000E+00 0.00000E+00 0.00000E+00
 -1      2679 0.00000E+00 0.00000E+00 0.00000E+00 0.00000E+00 0.00000E+00 0.00000E+00
 -1      2680 0.00000E+00 0.00000E+00 0.00000E+00 0.00000E+00 0.00000E+00 0.00000E+00
 -1      2681 0.00000E+00 0.00000E+00 0.00000E+00 0.00000E+00 0.00000E+00 0.00000E+00
 -1      2682 0.00000E+00 0.00000E+00 0.00000E+00 0.00000E+00 0.00000E+00 0.00000E+00
 -1      2683 0.00000E+00 0.00000E+00 0.00000E+00 0.00000E+00 0.00000E+00 0.00000E+00
 -1      2684 0.00000E+00 0.00000E+00 0.00000E+00 0.00000E+00 0.00000E+00 0.00000E+00
 -1      2685 0.00000E+00 0.00000E+00 0.00000E+00 0.00000E+00 0.00000E+00 0.00000E+00
 -1      2686 0.00000E+00 0.00000E+00 0.00000E+00 0.00000E+00 0.00000E+00 0.00000E+00
 -1      2687 0.00000E+00 0.00000E+00 0.00000E+00 0.00000E+00 0.00000E+00 0.00000E+00
 -1      2688 0.00000E+00 0.00000E+00 0.00000E+00 0.00000E+00 0.00000E+00 0.00000E+00
 -1      2689 0.00000E+00 0.00000E+00 0.00000E+00 0.00000E+00 0.00000E+00 0.00000E+00
 -1      2690 0.00000E+00 0.00000E+00 0.00000E+00 0.00000E+00 0.00000E+00 0.00000E+00
 -1      2691 0.00000E+00 0.00000E+00 0.00000E+00 0.00000E+00 0.00000E+00 0.00000E+00
 -1      2692 0.00000E+00 0.00000E+00 0.00000E+00 0.00000E+00 0.00000E+00 0.00000E+00
 -1      2693 0.00000E+00 0.00000E+00 0.00000E+00 0.00000E+00 0.00000E+00 0.00000E+00
 -1      2694 0.00000E+00 0.00000E+00 0.00000E+00 0.00000E+00 0.00000E+00 0.00000E+00
 -1      2695 0.00000E+00 0.00000E+00 0.00000E+00 0.00000E+00 0.00000E+00 0.00000E+00
 -1      2696 0.00000E+00 0.00000E+00 0.00000E+00 0.00000E+00 0.00000E+00 0.00000E+00
 -1      2697 0.00000E+00 0.00000E+00 0.00000E+00 0.00000E+00 0.00000E+00 0.00000E+00
 -1      2698 0.00000E+00 0.00000E+00 0.00000E+00 0.00000E+00 0.00000E+00 0.00000E+00
 -1      2699 0.00000E+00 0.00000E+00 0.00000E+00 0.00000E+00 0.00000E+00 0.00000E+00
 -1      2700 0.00000E+00 0.00000E+00 0.00000E+00 0.00000E+00 0.00000E+00 0.00000E+00
 -1      2701 0.00000E+00 0.00000E+00 0.00000E+00 0.00000E+00 0.00000E+00 0.00000E+00
 -1      2702 0.00000E+00 0.00000E+00 0.00000E+00 0.00000E+00 0.00000E+00 0.00000E+00
 -1      2703 0.00000E+00 0.00000E+00 0.00000E+00 0.00000E+00 0.00000E+00 0.00000E+00
 -1      2704 0.00000E+00 0.00000E+00 0.00000E+00 0.00000E+00 0.00000E+00 0.00000E+00
 -1      2705 0.00000E+00 0.00000E+00 0.00000E+00 0.00000E+00 0.00000E+00 0.00000E+00
 -1      2706 0.00000E+00 0.00000E+00 0.00000E+00 0.00000E+00 0.00000E+00 0.00000E+00
 -1      2707 0.00000E+00 0.00000E+00 0.00000E+00 0.00000E+00 0.00000E+00 0.00000E+00
 -1      2708 0.00000E+00 0.00000E+00 0.00000E+00 0.00000E+00 0.00000E+00 0.00000E+00
 -1      2709 0.00000E+00 0.00000E+00 0.00000E+00 0.00000E+00 0.00000E+00 0.00000E+00
 -1      2710 0.00000E+00 0.00000E+00 0.00000E+00 0.00000E+00 0.00000E+00 0.00000E+00
 -1      2711 0.00000E+00 0.00000E+00 0.00000E+00 0.00000E+00 0.00000E+00 0.00000E+00
 -1      2712 0.00000E+00 0.00000E+00 0.00000E+00 0.00000E+00 0.00000E+00 0.00000E+00
 -1      2713 0.00000E+00 0.00000E+00 0.00000E+00 0.00000E+00 0.00000E+00 0.00000E+00
 -1      2714 0.00000E+00 0.00000E+00 0.00000E+00 0.00000E+00 0.00000E+00 0.00000E+00
 -1      2715 0.00000E+00 0.00000E+00 0.00000E+00 0.00000E+00 0.00000E+00 0.00000E+00
 -1      2716 0.00000E+00 0.00000E+00 0.00000E+00 0.00000E+00 0.00000E+00 0.00000E+00
 -1      2717 0.00000E+00 0.00000E+00 0.00000E+00 0.00000E+00 0.00000E+00 0.00000E+00
 -1      2718 0.00000E+00 0.00000E+00 0.00000E+00 0.00000E+00 0.00000E+00 0.00000E+00
 -1      2719 0.00000E+00 0.00000E+00 0.00000E+00 0.00000E+00 0.00000E+00 0.00000E+00
 -1      2720 0.00000E+00 0.00000E+00 0.00000E+00 0.00000E+00 0.00000E+00 0.00000E+00
 -1      2721 0.00000E+00 0.00000E+00 0.00000E+00 0.00000E+00 0.00000E+00 0.00000E+00
 -1      2722 0.00000E+00 0.00000E+00 0.00000E+00 0.00000E+00 0.00000E+00 0.00000E+00
 -1      2723 0.00000E+00 0.00000E+00 0.00000E+00 0.00000E+00 0.00000E+00 0.00000E+00
 -1      2724 0.00000E+00 0.00000E+00 0.00000E+00 0.00000E+00 0.00000E+00 0.00000E+00
 -1      2725 0.00000E+00 0.00000E+00 0.00000E+00 0.00000E+00 0.00000E+00 0.00000E+00
 -1      2726 0.00000E+00 0.00000E+00 0.00000E+00 0.00000E+00 0.00000E+00 0.00000E+00
 -1      2727 0.00000E+00 0.00000E+00 0.00000E+00 0.00000E+00 0.00000E+00 0.00000E+00
 -1      2728 0.00000E+00 0.00000E+00 0.00000E+00 0.00000E+00 0.00000E+00 0.00000E+00
 -1      2729 0.00000E+00 0.00000E+00 0.00000E+00 0.00000E+00 0.00000E+00 0.00000E+00
 -1      2730 0.00000E+00 0.00000E+00 0.00000E+00 0.00000E+00 0.00000E+00 0.00000E+00
 -1      2731 0.00000E+00 0.00000E+00 0.00000E+00 0.00000E+00 0.00000E+00 0.00000E+00
 -1      2732 0.00000E+00 0.00000E+00 0.00000E+00 0.00000E+00 0.00000E+00 0.00000E+00
 -1      2733 0.00000E+00 0.00000E+00 0.00000E+00 0.00000E+00 0.00000E+00 0.00000E+00
 -1      2734 0.00000E+00 0.00000E+00 0.00000E+00 0.00000E+00 0.00000E+00 0.00000E+00
 -1      2735 0.00000E+00 0.00000E+00 0.00000E+00 0.00000E+00 0.00000E+00 0.00000E+00
 -1      2736 0.00000E+00 0.00000E+00 0.00000E+00 0.00000E+00 0.00000E+00 0.00000E+00
 -1      2737 0.00000E+00 0.00000E+00 0.00000E+00 0.00000E+00 0.00000E+00 0.00000E+00
 -1      2738 0.00000E+00 0.00000E+00 0.00000E+00 0.00000E+00 0.00000E+00 0.00000E+00
 -1      2739 0.00000E+00 0.00000E+00 0.00000E+00 0.00000E+00 0.00000E+00 0.00000E+00
 -1      2740 0.00000E+00 0.00000E+00 0.00000E+00 0.00000E+00 0.00000E+00 0.00000E+00
 -1      2741 0.00000E+00 0.00000E+00 0.00000E+00 0.00000E+00 0.00000E+00 0.00000E+00
 -1      2742 0.00000E+00 0.00000E+00 0.00000E+00 0.00000E+00 0.00000E+00 0.00000E+00
 -1      2743 0.00000E+00 0.00000E+00 0.00000E+00 0.00000E+00 0.00000E+00 0.00000E+00
 -1      2744 0.00000E+00 0.00000E+00 0.00000E+00 0.00000E+00 0.00000E+00 0.00000E+00
 -1      2745 0.00000E+00 0.00000E+00 0.00000E+00 0.00000E+00 0.00000E+00 0.00000E+00
 -1      2746 0.00000E+00 0.00000E+00 0.00000E+00 0.00000E+00 0.00000E+00 0.00000E+00
 -1      2747 0.00000E+00 0.00000E+00 0.00000E+00 0.00000E+00 0.00000E+00 0.00000E+00
 -1      2748 0.00000E+00 0.00000E+00 0.00000E+00 0.00000E+00 0.00000E+00 0.00000E+00
 -1      2749 0.00000E+00 0.00000E+00 0.00000E+00 0.00000E+00 0.00000E+00 0.00000E+00
 -1      2750 0.00000E+00 0.00000E+00 0.00000E+00 0.00000E+00 0.00000E+00 0.00000E+00
 -1      2751 0.00000E+00 0.00000E+00 0.00000E+00 0.00000E+00 0.00000E+00 0.00000E+00
 -1      2752 0.00000E+00 0.00000E+00 0.00000E+00 0.00000E+00 0.00000E+00 0.00000E+00
 -1      2753 0.00000E+00 0.00000E+00 0.00000E+00 0.00000E+00 0.00000E+00 0.00000E+00
 -1      2754 0.00000E+00 0.00000E+00 0.00000E+00 0.00000E+00 0.00000E+00 0.00000E+00
 -1      2755 0.00000E+00 0.00000E+00 0.00000E+00 0.00000E+00 0.00000E+00 0.00000E+00
 -1      2756 0.00000E+00 0.00000E+00 0.00000E+00 0.00000E+00 0.00000E+00 0.00000E+00
 -1      2757 0.00000E+00 0.00000E+00 0.00000E+00 0.00000E+00 0.00000E+00 0.00000E+00
 -1      2758 0.00000E+00 0.00000E+00 0.00000E+00 0.00000E+00 0.00000E+00 0.00000E+00
 -1      2759 0.00000E+00 0.00000E+00 0.00000E+00 0.00000E+00 0.00000E+00 0.00000E+00
 -1      2760 0.00000E+00 0.00000E+00 0.00000E+00 0.00000E+00 0.00000E+00 0.00000E+00
 -1      2761 0.00000E+00 0.00000E+00 0.00000E+00 0.00000E+00 0.00000E+00 0.00000E+00
 -1      2762 0.00000E+00 0.00000E+00 0.00000E+00 0.00000E+00 0.00000E+00 0.00000E+00
 -1      2763 0.00000E+00 0.00000E+00 0.00000E+00 0.00000E+00 0.00000E+00 0.00000E+00
 -1      2764 0.00000E+00 0.00000E+00 0.00000E+00 0.00000E+00 0.00000E+00 0.00000E+00
 -1      2765 0.00000E+00 0.00000E+00 0.00000E+00 0.00000E+00 0.00000E+00 0.00000E+00
 -1      2766 0.00000E+00 0.00000E+00 0.00000E+00 0.00000E+00 0.00000E+00 0.00000E+00
 -1      2767 0.00000E+00 0.00000E+00 0.00000E+00 0.00000E+00 0.00000E+00 0.00000E+00
 -1      2768 0.00000E+00 0.00000E+00 0.00000E+00 0.00000E+00 0.00000E+00 0.00000E+00
 -1      2769 0.00000E+00 0.00000E+00 0.00000E+00 0.00000E+00 0.00000E+00 0.00000E+00
 -1      2770 0.00000E+00 0.00000E+00 0.00000E+00 0.00000E+00 0.00000E+00 0.00000E+00
 -1      2771 0.00000E+00 0.00000E+00 0.00000E+00 0.00000E+00 0.00000E+00 0.00000E+00
 -1      2772 0.00000E+00 0.00000E+00 0.00000E+00 0.00000E+00 0.00000E+00 0.00000E+00
 -1      2773 0.00000E+00 0.00000E+00 0.00000E+00 0.00000E+00 0.00000E+00 0.00000E+00
 -1      2774 0.00000E+00 0.00000E+00 0.00000E+00 0.00000E+00 0.00000E+00 0.00000E+00
 -1      2775 0.00000E+00 0.00000E+00 0.00000E+00 0.00000E+00 0.00000E+00 0.00000E+00
 -1      2776 0.00000E+00 0.00000E+00 0.00000E+00 0.00000E+00 0.00000E+00 0.00000E+00
 -1      2777 0.00000E+00 0.00000E+00 0.00000E+00 0.00000E+00 0.00000E+00 0.00000E+00
 -1      2778 0.00000E+00 0.00000E+00 0.00000E+00 0.00000E+00 0.00000E+00 0.00000E+00
 -1      2779 0.00000E+00 0.00000E+00 0.00000E+00 0.00000E+00 0.00000E+00 0.00000E+00
 -1      2780 0.00000E+00 0.00000E+00 0.00000E+00 0.00000E+00 0.00000E+00 0.00000E+00
 -1      2781 0.00000E+00 0.00000E+00 0.00000E+00 0.00000E+00 0.00000E+00 0.00000E+00
 -1      2782 0.00000E+00 0.00000E+00 0.00000E+00 0.00000E+00 0.00000E+00 0.00000E+00
 -1      2783 0.00000E+00 0.00000E+00 0.00000E+00 0.00000E+00 0.00000E+00 0.00000E+00
 -1      2784 0.00000E+00 0.00000E+00 0.00000E+00 0.00000E+00 0.00000E+00 0.00000E+00
 -1      2785 0.00000E+00 0.00000E+00 0.00000E+00 0.00000E+00 0.00000E+00 0.00000E+00
 -1      2786 0.00000E+00 0.00000E+00 0.00000E+00 0.00000E+00 0.00000E+00 0.00000E+00
 -1      2787 0.00000E+00 0.00000E+00 0.00000E+00 0.00000E+00 0.00000E+00 0.00000E+00
 -1      2788 0.00000E+00 0.00000E+00 0.00000E+00 0.00000E+00 0.00000E+00 0.00000E+00
 -1      2789 0.00000E+00 0.00000E+00 0.00000E+00 0.00000E+00 0.00000E+00 0.00000E+00
 -1      2790 0.00000E+00 0.00000E+00 0.00000E+00 0.00000E+00 0.00000E+00 0.00000E+00
 -1      2791 0.00000E+00 0.00000E+00 0.00000E+00 0.00000E+00 0.00000E+00 0.00000E+00
 -1      2792 0.00000E+00 0.00000E+00 0.00000E+00 0.00000E+00 0.00000E+00 0.00000E+00
 -1      2793 0.00000E+00 0.00000E+00 0.00000E+00 0.00000E+00 0.00000E+00 0.00000E+00
 -1      2794 0.00000E+00 0.00000E+00 0.00000E+00 0.00000E+00 0.00000E+00 0.00000E+00
 -1      2795 0.00000E+00 0.00000E+00 0.00000E+00 0.00000E+00 0.00000E+00 0.00000E+00
 -1      2796 0.00000E+00 0.00000E+00 0.00000E+00 0.00000E+00 0.00000E+00 0.00000E+00
 -1      2797 0.00000E+00 0.00000E+00 0.00000E+00 0.00000E+00 0.00000E+00 0.00000E+00
 -1      2798 0.00000E+00 0.00000E+00 0.00000E+00 0.00000E+00 0.00000E+00 0.00000E+00
 -1      2799 0.00000E+00 0.00000E+00 0.00000E+00 0.00000E+00 0.00000E+00 0.00000E+00
 -1      2800 0.00000E+00 0.00000E+00 0.00000E+00 0.00000E+00 0.00000E+00 0.00000E+00
 -1      2801 0.00000E+00 0.00000E+00 0.00000E+00 0.00000E+00 0.00000E+00 0.00000E+00
 -1      2802 0.00000E+00 0.00000E+00 0.00000E+00 0.00000E+00 0.00000E+00 0.00000E+00
 -1      2803 0.00000E+00 0.00000E+00 0.00000E+00 0.00000E+00 0.00000E+00 0.00000E+00
 -1      2804 0.00000E+00 0.00000E+00 0.00000E+00 0.00000E+00 0.00000E+00 0.00000E+00
 -1      2805 0.00000E+00 0.00000E+00 0.00000E+00 0.00000E+00 0.00000E+00 0.00000E+00
 -1      2806 0.00000E+00 0.00000E+00 0.00000E+00 0.00000E+00 0.00000E+00 0.00000E+00
 -1      2807 0.00000E+00 0.00000E+00 0.00000E+00 0.00000E+00 0.00000E+00 0.00000E+00
 -1      2808 0.00000E+00 0.00000E+00 0.00000E+00 0.00000E+00 0.00000E+00 0.00000E+00
 -1      2809 0.00000E+00 0.00000E+00 0.00000E+00 0.00000E+00 0.00000E+00 0.00000E+00
 -1      2810 0.00000E+00 0.00000E+00 0.00000E+00 0.00000E+00 0.00000E+00 0.00000E+00
 -1      2811 0.00000E+00 0.00000E+00 0.00000E+00 0.00000E+00 0.00000E+00 0.00000E+00
 -1      2812 0.00000E+00 0.00000E+00 0.00000E+00 0.00000E+00 0.00000E+00 0.00000E+00
 -1      2813 0.00000E+00 0.00000E+00 0.00000E+00 0.00000E+00 0.00000E+00 0.00000E+00
 -1      2814 0.00000E+00 0.00000E+00 0.00000E+00 0.00000E+00 0.00000E+00 0.00000E+00
 -1      2815 0.00000E+00 0.00000E+00 0.00000E+00 0.00000E+00 0.00000E+00 0.00000E+00
 -1      2816 0.00000E+00 0.00000E+00 0.00000E+00 0.00000E+00 0.00000E+00 0.00000E+00
 -1      2817 0.00000E+00 0.00000E+00 0.00000E+00 0.00000E+00 0.00000E+00 0.00000E+00
 -1      2818 0.00000E+00 0.00000E+00 0.00000E+00 0.00000E+00 0.00000E+00 0.00000E+00
 -1      2819 0.00000E+00 0.00000E+00 0.00000E+00 0.00000E+00 0.00000E+00 0.00000E+00
 -1      2820 0.00000E+00 0.00000E+00 0.00000E+00 0.00000E+00 0.00000E+00 0.00000E+00
 -1      2821 0.00000E+00 0.00000E+00 0.00000E+00 0.00000E+00 0.00000E+00 0.00000E+00
 -1      2822 0.00000E+00 0.00000E+00 0.00000E+00 0.00000E+00 0.00000E+00 0.00000E+00
 -1      2823 0.00000E+00 0.00000E+00 0.00000E+00 0.00000E+00 0.00000E+00 0.00000E+00
 -1      2824 0.00000E+00 0.00000E+00 0.00000E+00 0.00000E+00 0.00000E+00 0.00000E+00
 -1      2825 0.00000E+00 0.00000E+00 0.00000E+00 0.00000E+00 0.00000E+00 0.00000E+00
 -1      2826 0.00000E+00 0.00000E+00 0.00000E+00 0.00000E+00 0.00000E+00 0.00000E+00
 -1      2827 0.00000E+00 0.00000E+00 0.00000E+00 0.00000E+00 0.00000E+00 0.00000E+00
 -1      2828 0.00000E+00 0.00000E+00 0.00000E+00 0.00000E+00 0.00000E+00 0.00000E+00
 -1      2829 0.00000E+00 0.00000E+00 0.00000E+00 0.00000E+00 0.00000E+00 0.00000E+00
 -1      2830 0.00000E+00 0.00000E+00 0.00000E+00 0.00000E+00 0.00000E+00 0.00000E+00
 -1      2831 0.00000E+00 0.00000E+00 0.00000E+00 0.00000E+00 0.00000E+00 0.00000E+00
 -1      2832 0.00000E+00 0.00000E+00 0.00000E+00 0.00000E+00 0.00000E+00 0.00000E+00
 -1      2833 0.00000E+00 0.00000E+00 0.00000E+00 0.00000E+00 0.00000E+00 0.00000E+00
 -1      2834 0.00000E+00 0.00000E+00 0.00000E+00 0.00000E+00 0.00000E+00 0.00000E+00
 -1      2835 0.00000E+00 0.00000E+00 0.00000E+00 0.00000E+00 0.00000E+00 0.00000E+00
 -1      2836 0.00000E+00 0.00000E+00 0.00000E+00 0.00000E+00 0.00000E+00 0.00000E+00
 -1      2837 0.00000E+00 0.00000E+00 0.00000E+00 0.00000E+00 0.00000E+00 0.00000E+00
 -1      2838 0.00000E+00 0.00000E+00 0.00000E+00 0.00000E+00 0.00000E+00 0.00000E+00
 -1      2839 0.00000E+00 0.00000E+00 0.00000E+00 0.00000E+00 0.00000E+00 0.00000E+00
 -1      2840 0.00000E+00 0.00000E+00 0.00000E+00 0.00000E+00 0.00000E+00 0.00000E+00
 -1      2841 0.00000E+00 0.00000E+00 0.00000E+00 0.00000E+00 0.00000E+00 0.00000E+00
 -1      2842 0.00000E+00 0.00000E+00 0.00000E+00 0.00000E+00 0.00000E+00 0.00000E+00
 -1      2843 0.00000E+00 0.00000E+00 0.00000E+00 0.00000E+00 0.00000E+00 0.00000E+00
 -1      2844 0.00000E+00 0.00000E+00 0.00000E+00 0.00000E+00 0.00000E+00 0.00000E+00
 -1      2845 0.00000E+00 0.00000E+00 0.00000E+00 0.00000E+00 0.00000E+00 0.00000E+00
 -1      2846 0.00000E+00 0.00000E+00 0.00000E+00 0.00000E+00 0.00000E+00 0.00000E+00
 -1      2847 0.00000E+00 0.00000E+00 0.00000E+00 0.00000E+00 0.00000E+00 0.00000E+00
 -1      2848 0.00000E+00 0.00000E+00 0.00000E+00 0.00000E+00 0.00000E+00 0.00000E+00
 -1      2849 0.00000E+00 0.00000E+00 0.00000E+00 0.00000E+00 0.00000E+00 0.00000E+00
 -1      2850 0.00000E+00 0.00000E+00 0.00000E+00 0.00000E+00 0.00000E+00 0.00000E+00
 -1      2851 0.00000E+00 0.00000E+00 0.00000E+00 0.00000E+00 0.00000E+00 0.00000E+00
 -1      2852 0.00000E+00 0.00000E+00 0.00000E+00 0.00000E+00 0.00000E+00 0.00000E+00
 -1      2853 0.00000E+00 0.00000E+00 0.00000E+00 0.00000E+00 0.00000E+00 0.00000E+00
 -1      2854 0.00000E+00 0.00000E+00 0.00000E+00 0.00000E+00 0.00000E+00 0.00000E+00
 -1      2855 0.00000E+00 0.00000E+00 0.00000E+00 0.00000E+00 0.00000E+00 0.00000E+00
 -1      2856 0.00000E+00 0.00000E+00 0.00000E+00 0.00000E+00 0.00000E+00 0.00000E+00
 -1      2857 0.00000E+00 0.00000E+00 0.00000E+00 0.00000E+00 0.00000E+00 0.00000E+00
 -1      2858 0.00000E+00 0.00000E+00 0.00000E+00 0.00000E+00 0.00000E+00 0.00000E+00
 -1      2859 0.00000E+00 0.00000E+00 0.00000E+00 0.00000E+00 0.00000E+00 0.00000E+00
 -1      2860 0.00000E+00 0.00000E+00 0.00000E+00 0.00000E+00 0.00000E+00 0.00000E+00
 -1      2861 0.00000E+00 0.00000E+00 0.00000E+00 0.00000E+00 0.00000E+00 0.00000E+00
 -1      2862 0.00000E+00 0.00000E+00 0.00000E+00 0.00000E+00 0.00000E+00 0.00000E+00
 -1      2863 0.00000E+00 0.00000E+00 0.00000E+00 0.00000E+00 0.00000E+00 0.00000E+00
 -1      2864 0.00000E+00 0.00000E+00 0.00000E+00 0.00000E+00 0.00000E+00 0.00000E+00
 -1      2865 0.00000E+00 0.00000E+00 0.00000E+00 0.00000E+00 0.00000E+00 0.00000E+00
 -1      2866 0.00000E+00 0.00000E+00 0.00000E+00 0.00000E+00 0.00000E+00 0.00000E+00
 -1      2867 0.00000E+00 0.00000E+00 0.00000E+00 0.00000E+00 0.00000E+00 0.00000E+00
 -1      2868 0.00000E+00 0.00000E+00 0.00000E+00 0.00000E+00 0.00000E+00 0.00000E+00
 -1      2869 0.00000E+00 0.00000E+00 0.00000E+00 0.00000E+00 0.00000E+00 0.00000E+00
 -1      2870 0.00000E+00 0.00000E+00 0.00000E+00 0.00000E+00 0.00000E+00 0.00000E+00
 -1      2871 0.00000E+00 0.00000E+00 0.00000E+00 0.00000E+00 0.00000E+00 0.00000E+00
 -1      2872 0.00000E+00 0.00000E+00 0.00000E+00 0.00000E+00 0.00000E+00 0.00000E+00
 -1      2873 0.00000E+00 0.00000E+00 0.00000E+00 0.00000E+00 0.00000E+00 0.00000E+00
 -1      2874 0.00000E+00 0.00000E+00 0.00000E+00 0.00000E+00 0.00000E+00 0.00000E+00
 -1      2875 0.00000E+00 0.00000E+00 0.00000E+00 0.00000E+00 0.00000E+00 0.00000E+00
 -1      2876 0.00000E+00 0.00000E+00 0.00000E+00 0.00000E+00 0.00000E+00 0.00000E+00
 -1      2877 0.00000E+00 0.00000E+00 0.00000E+00 0.00000E+00 0.00000E+00 0.00000E+00
 -1      2878 0.00000E+00 0.00000E+00 0.00000E+00 0.00000E+00 0.00000E+00 0.00000E+00
 -1      2879 0.00000E+00 0.00000E+00 0.00000E+00 0.00000E+00 0.00000E+00 0.00000E+00
 -1      2880 0.00000E+00 0.00000E+00 0.00000E+00 0.00000E+00 0.00000E+00 0.00000E+00
 -1      2881 0.00000E+00 0.00000E+00 0.00000E+00 0.00000E+00 0.00000E+00 0.00000E+00
 -1      2882 0.00000E+00 0.00000E+00 0.00000E+00 0.00000E+00 0.00000E+00 0.00000E+00
 -1      2883 0.00000E+00 0.00000E+00 0.00000E+00 0.00000E+00 0.00000E+00 0.00000E+00
 -1      2884 0.00000E+00 0.00000E+00 0.00000E+00 0.00000E+00 0.00000E+00 0.00000E+00
 -1      2885 0.00000E+00 0.00000E+00 0.00000E+00 0.00000E+00 0.00000E+00 0.00000E+00
 -1      2886 0.00000E+00 0.00000E+00 0.00000E+00 0.00000E+00 0.00000E+00 0.00000E+00
 -1      2887 0.00000E+00 0.00000E+00 0.00000E+00 0.00000E+00 0.00000E+00 0.00000E+00
 -1      2888 0.00000E+00 0.00000E+00 0.00000E+00 0.00000E+00 0.00000E+00 0.00000E+00
 -1      2889 0.00000E+00 0.00000E+00 0.00000E+00 0.00000E+00 0.00000E+00 0.00000E+00
 -1      2890 0.00000E+00 0.00000E+00 0.00000E+00 0.00000E+00 0.00000E+00 0.00000E+00
 -1      2891 0.00000E+00 0.00000E+00 0.00000E+00 0.00000E+00 0.00000E+00 0.00000E+00
 -1      2892 0.00000E+00 0.00000E+00 0.00000E+00 0.00000E+00 0.00000E+00 0.00000E+00
 -1      2893 0.00000E+00 0.00000E+00 0.00000E+00 0.00000E+00 0.00000E+00 0.00000E+00
 -1      2894 0.00000E+00 0.00000E+00 0.00000E+00 0.00000E+00 0.00000E+00 0.00000E+00
 -1      2895 0.00000E+00 0.00000E+00 0.00000E+00 0.00000E+00 0.00000E+00 0.00000E+00
 -1      2896 0.00000E+00 0.00000E+00 0.00000E+00 0.00000E+00 0.00000E+00 0.00000E+00
 -1      2897 0.00000E+00 0.00000E+00 0.00000E+00 0.00000E+00 0.00000E+00 0.00000E+00
 -1      2898 0.00000E+00 0.00000E+00 0.00000E+00 0.00000E+00 0.00000E+00 0.00000E+00
 -1      2899 0.00000E+00 0.00000E+00 0.00000E+00 0.00000E+00 0.00000E+00 0.00000E+00
 -1      2900 0.00000E+00 0.00000E+00 0.00000E+00 0.00000E+00 0.00000E+00 0.00000E+00
 -1      2901 0.00000E+00 0.00000E+00 0.00000E+00 0.00000E+00 0.00000E+00 0.00000E+00
 -1      2902 0.00000E+00 0.00000E+00 0.00000E+00 0.00000E+00 0.00000E+00 0.00000E+00
 -1      2903 0.00000E+00 0.00000E+00 0.00000E+00 0.00000E+00 0.00000E+00 0.00000E+00
 -1      2904 0.00000E+00 0.00000E+00 0.00000E+00 0.00000E+00 0.00000E+00 0.00000E+00
 -1      2905 0.00000E+00 0.00000E+00 0.00000E+00 0.00000E+00 0.00000E+00 0.00000E+00
 -1      2906 0.00000E+00 0.00000E+00 0.00000E+00 0.00000E+00 0.00000E+00 0.00000E+00
 -1      2907 0.00000E+00 0.00000E+00 0.00000E+00 0.00000E+00 0.00000E+00 0.00000E+00
 -1      2908 0.00000E+00 0.00000E+00 0.00000E+00 0.00000E+00 0.00000E+00 0.00000E+00
 -1      2909 0.00000E+00 0.00000E+00 0.00000E+00 0.00000E+00 0.00000E+00 0.00000E+00
 -1      2910 0.00000E+00 0.00000E+00 0.00000E+00 0.00000E+00 0.00000E+00 0.00000E+00
 -1      2911 0.00000E+00 0.00000E+00 0.00000E+00 0.00000E+00 0.00000E+00 0.00000E+00
 -1      2912 0.00000E+00 0.00000E+00 0.00000E+00 0.00000E+00 0.00000E+00 0.00000E+00
 -1      2913 0.00000E+00 0.00000E+00 0.00000E+00 0.00000E+00 0.00000E+00 0.00000E+00
 -1      2914 0.00000E+00 0.00000E+00 0.00000E+00 0.00000E+00 0.00000E+00 0.00000E+00
 -1      2915 0.00000E+00 0.00000E+00 0.00000E+00 0.00000E+00 0.00000E+00 0.00000E+00
 -1      2916 0.00000E+00 0.00000E+00 0.00000E+00 0.00000E+00 0.00000E+00 0.00000E+00
 -1      2917 0.00000E+00 0.00000E+00 0.00000E+00 0.00000E+00 0.00000E+00 0.00000E+00
 -1      2918 0.00000E+00 0.00000E+00 0.00000E+00 0.00000E+00 0.00000E+00 0.00000E+00
 -1      2919 0.00000E+00 0.00000E+00 0.00000E+00 0.00000E+00 0.00000E+00 0.00000E+00
 -1      2920 0.00000E+00 0.00000E+00 0.00000E+00 0.00000E+00 0.00000E+00 0.00000E+00
 -1      2921 0.00000E+00 0.00000E+00 0.00000E+00 0.00000E+00 0.00000E+00 0.00000E+00
 -1      2922 0.00000E+00 0.00000E+00 0.00000E+00 0.00000E+00 0.00000E+00 0.00000E+00
 -1      2923 0.00000E+00 0.00000E+00 0.00000E+00 0.00000E+00 0.00000E+00 0.00000E+00
 -1      2924 0.00000E+00 0.00000E+00 0.00000E+00 0.00000E+00 0.00000E+00 0.00000E+00
 -1      2925 0.00000E+00 0.00000E+00 0.00000E+00 0.00000E+00 0.00000E+00 0.00000E+00
 -1      2926 0.00000E+00 0.00000E+00 0.00000E+00 0.00000E+00 0.00000E+00 0.00000E+00
 -1      2927 0.00000E+00 0.00000E+00 0.00000E+00 0.00000E+00 0.00000E+00 0.00000E+00
 -1      2928 0.00000E+00 0.00000E+00 0.00000E+00 0.00000E+00 0.00000E+00 0.00000E+00
 -1      2929 0.00000E+00 0.00000E+00 0.00000E+00 0.00000E+00 0.00000E+00 0.00000E+00
 -1      2930 0.00000E+00 0.00000E+00 0.00000E+00 0.00000E+00 0.00000E+00 0.00000E+00
 -1      2931 0.00000E+00 0.00000E+00 0.00000E+00 0.00000E+00 0.00000E+00 0.00000E+00
 -1      2932 0.00000E+00 0.00000E+00 0.00000E+00 0.00000E+00 0.00000E+00 0.00000E+00
 -1      2933 0.00000E+00 0.00000E+00 0.00000E+00 0.00000E+00 0.00000E+00 0.00000E+00
 -1      2934 0.00000E+00 0.00000E+00 0.00000E+00 0.00000E+00 0.00000E+00 0.00000E+00
 -1      2935 0.00000E+00 0.00000E+00 0.00000E+00 0.00000E+00 0.00000E+00 0.00000E+00
 -1      2936 0.00000E+00 0.00000E+00 0.00000E+00 0.00000E+00 0.00000E+00 0.00000E+00
 -1      2937 0.00000E+00 0.00000E+00 0.00000E+00 0.00000E+00 0.00000E+00 0.00000E+00
 -1      2938 0.00000E+00 0.00000E+00 0.00000E+00 0.00000E+00 0.00000E+00 0.00000E+00
 -1      2939 0.00000E+00 0.00000E+00 0.00000E+00 0.00000E+00 0.00000E+00 0.00000E+00
 -1      2940 0.00000E+00 0.00000E+00 0.00000E+00 0.00000E+00 0.00000E+00 0.00000E+00
 -1      2941 0.00000E+00 0.00000E+00 0.00000E+00 0.00000E+00 0.00000E+00 0.00000E+00
 -1      2942 0.00000E+00 0.00000E+00 0.00000E+00 0.00000E+00 0.00000E+00 0.00000E+00
 -1      2943 0.00000E+00 0.00000E+00 0.00000E+00 0.00000E+00 0.00000E+00 0.00000E+00
 -1      2944 0.00000E+00 0.00000E+00 0.00000E+00 0.00000E+00 0.00000E+00 0.00000E+00
 -1      2945 0.00000E+00 0.00000E+00 0.00000E+00 0.00000E+00 0.00000E+00 0.00000E+00
 -1      2946 0.00000E+00 0.00000E+00 0.00000E+00 0.00000E+00 0.00000E+00 0.00000E+00
 -1      2947 0.00000E+00 0.00000E+00 0.00000E+00 0.00000E+00 0.00000E+00 0.00000E+00
 -1      2948 0.00000E+00 0.00000E+00 0.00000E+00 0.00000E+00 0.00000E+00 0.00000E+00
 -1      2949 0.00000E+00 0.00000E+00 0.00000E+00 0.00000E+00 0.00000E+00 0.00000E+00
 -1      2950 0.00000E+00 0.00000E+00 0.00000E+00 0.00000E+00 0.00000E+00 0.00000E+00
 -1      2951 0.00000E+00 0.00000E+00 0.00000E+00 0.00000E+00 0.00000E+00 0.00000E+00
 -1      2952 0.00000E+00 0.00000E+00 0.00000E+00 0.00000E+00 0.00000E+00 0.00000E+00
 -1      2953 0.00000E+00 0.00000E+00 0.00000E+00 0.00000E+00 0.00000E+00 0.00000E+00
 -1      2954 0.00000E+00 0.00000E+00 0.00000E+00 0.00000E+00 0.00000E+00 0.00000E+00
 -1      2955 0.00000E+00 0.00000E+00 0.00000E+00 0.00000E+00 0.00000E+00 0.00000E+00
 -1      2956 0.00000E+00 0.00000E+00 0.00000E+00 0.00000E+00 0.00000E+00 0.00000E+00
 -1      2957 0.00000E+00 0.00000E+00 0.00000E+00 0.00000E+00 0.00000E+00 0.00000E+00
 -1      2958 0.00000E+00 0.00000E+00 0.00000E+00 0.00000E+00 0.00000E+00 0.00000E+00
 -1      2959 0.00000E+00 0.00000E+00 0.00000E+00 0.00000E+00 0.00000E+00 0.00000E+00
 -1      2960 0.00000E+00 0.00000E+00 0.00000E+00 0.00000E+00 0.00000E+00 0.00000E+00
 -1      2961 0.00000E+00 0.00000E+00 0.00000E+00 0.00000E+00 0.00000E+00 0.00000E+00
 -1      2962 0.00000E+00 0.00000E+00 0.00000E+00 0.00000E+00 0.00000E+00 0.00000E+00
 -1      2963 0.00000E+00 0.00000E+00 0.00000E+00 0.00000E+00 0.00000E+00 0.00000E+00
 -1      2964 0.00000E+00 0.00000E+00 0.00000E+00 0.00000E+00 0.00000E+00 0.00000E+00
 -1      2965 0.00000E+00 0.00000E+00 0.00000E+00 0.00000E+00 0.00000E+00 0.00000E+00
 -1      2966 0.00000E+00 0.00000E+00 0.00000E+00 0.00000E+00 0.00000E+00 0.00000E+00
 -1      2967 0.00000E+00 0.00000E+00 0.00000E+00 0.00000E+00 0.00000E+00 0.00000E+00
 -1      2968 0.00000E+00 0.00000E+00 0.00000E+00 0.00000E+00 0.00000E+00 0.00000E+00
 -1      2969 0.00000E+00 0.00000E+00 0.00000E+00 0.00000E+00 0.00000E+00 0.00000E+00
 -1      2970 0.00000E+00 0.00000E+00 0.00000E+00 0.00000E+00 0.00000E+00 0.00000E+00
 -1      2971 0.00000E+00 0.00000E+00 0.00000E+00 0.00000E+00 0.00000E+00 0.00000E+00
 -1      2972 0.00000E+00 0.00000E+00 0.00000E+00 0.00000E+00 0.00000E+00 0.00000E+00
 -1      2973 0.00000E+00 0.00000E+00 0.00000E+00 0.00000E+00 0.00000E+00 0.00000E+00
 -1      2974 0.00000E+00 0.00000E+00 0.00000E+00 0.00000E+00 0.00000E+00 0.00000E+00
 -1      2975 0.00000E+00 0.00000E+00 0.00000E+00 0.00000E+00 0.00000E+00 0.00000E+00
 -1      2976 0.00000E+00 0.00000E+00 0.00000E+00 0.00000E+00 0.00000E+00 0.00000E+00
 -1      2977 0.00000E+00 0.00000E+00 0.00000E+00 0.00000E+00 0.00000E+00 0.00000E+00
 -1      2978 0.00000E+00 0.00000E+00 0.00000E+00 0.00000E+00 0.00000E+00 0.00000E+00
 -1      2979 0.00000E+00 0.00000E+00 0.00000E+00 0.00000E+00 0.00000E+00 0.00000E+00
 -1      2980 0.00000E+00 0.00000E+00 0.00000E+00 0.00000E+00 0.00000E+00 0.00000E+00
 -1      2981 0.00000E+00 0.00000E+00 0.00000E+00 0.00000E+00 0.00000E+00 0.00000E+00
 -1      2982 0.00000E+00 0.00000E+00 0.00000E+00 0.00000E+00 0.00000E+00 0.00000E+00
 -1      2983 0.00000E+00 0.00000E+00 0.00000E+00 0.00000E+00 0.00000E+00 0.00000E+00
 -1      2984 0.00000E+00 0.00000E+00 0.00000E+00 0.00000E+00 0.00000E+00 0.00000E+00
 -1      2985 0.00000E+00 0.00000E+00 0.00000E+00 0.00000E+00 0.00000E+00 0.00000E+00
 -1      2986 0.00000E+00 0.00000E+00 0.00000E+00 0.00000E+00 0.00000E+00 0.00000E+00
 -1      2987 0.00000E+00 0.00000E+00 0.00000E+00 0.00000E+00 0.00000E+00 0.00000E+00
 -1      2988 0.00000E+00 0.00000E+00 0.00000E+00 0.00000E+00 0.00000E+00 0.00000E+00
 -1      2989 0.00000E+00 0.00000E+00 0.00000E+00 0.00000E+00 0.00000E+00 0.00000E+00
 -1      2990 0.00000E+00 0.00000E+00 0.00000E+00 0.00000E+00 0.00000E+00 0.00000E+00
 -1      2991 0.00000E+00 0.00000E+00 0.00000E+00 0.00000E+00 0.00000E+00 0.00000E+00
 -1      2992 0.00000E+00 0.00000E+00 0.00000E+00 0.00000E+00 0.00000E+00 0.00000E+00
 -1      2993 0.00000E+00 0.00000E+00 0.00000E+00 0.00000E+00 0.00000E+00 0.00000E+00
 -1      2994 0.00000E+00 0.00000E+00 0.00000E+00 0.00000E+00 0.00000E+00 0.00000E+00
 -1      2995 0.00000E+00 0.00000E+00 0.00000E+00 0.00000E+00 0.00000E+00 0.00000E+00
 -1      2996 0.00000E+00 0.00000E+00 0.00000E+00 0.00000E+00 0.00000E+00 0.00000E+00
 -1      2997 0.00000E+00 0.00000E+00 0.00000E+00 0.00000E+00 0.00000E+00 0.00000E+00
 -1      2998 0.00000E+00 0.00000E+00 0.00000E+00 0.00000E+00 0.00000E+00 0.00000E+00
 -1      2999 0.00000E+00 0.00000E+00 0.00000E+00 0.00000E+00 0.00000E+00 0.00000E+00
 -1      3000 0.00000E+00 0.00000E+00 0.00000E+00 0.00000E+00 0.00000E+00 0.00000E+00
 -1      3001 0.00000E+00 0.00000E+00 0.00000E+00 0.00000E+00 0.00000E+00 0.00000E+00
 -1      3002 0.00000E+00 0.00000E+00 0.00000E+00 0.00000E+00 0.00000E+00 0.00000E+00
 -1      3003 0.00000E+00 0.00000E+00 0.00000E+00 0.00000E+00 0.00000E+00 0.00000E+00
 -1      3004 0.00000E+00 0.00000E+00 0.00000E+00 0.00000E+00 0.00000E+00 0.00000E+00
 -1      3005 0.00000E+00 0.00000E+00 0.00000E+00 0.00000E+00 0.00000E+00 0.00000E+00
 -1      3006 0.00000E+00 0.00000E+00 0.00000E+00 0.00000E+00 0.00000E+00 0.00000E+00
 -1      3007 0.00000E+00 0.00000E+00 0.00000E+00 0.00000E+00 0.00000E+00 0.00000E+00
 -1      3008 0.00000E+00 0.00000E+00 0.00000E+00 0.00000E+00 0.00000E+00 0.00000E+00
 -1      3009 0.00000E+00 0.00000E+00 0.00000E+00 0.00000E+00 0.00000E+00 0.00000E+00
 -1      3010 0.00000E+00 0.00000E+00 0.00000E+00 0.00000E+00 0.00000E+00 0.00000E+00
 -1      3011 0.00000E+00 0.00000E+00 0.00000E+00 0.00000E+00 0.00000E+00 0.00000E+00
 -1      3012 0.00000E+00 0.00000E+00 0.00000E+00 0.00000E+00 0.00000E+00 0.00000E+00
 -1      3013 0.00000E+00 0.00000E+00 0.00000E+00 0.00000E+00 0.00000E+00 0.00000E+00
 -1      3014 0.00000E+00 0.00000E+00 0.00000E+00 0.00000E+00 0.00000E+00 0.00000E+00
 -1      3015 0.00000E+00 0.00000E+00 0.00000E+00 0.00000E+00 0.00000E+00 0.00000E+00
 -1      3016 0.00000E+00 0.00000E+00 0.00000E+00 0.00000E+00 0.00000E+00 0.00000E+00
 -1      3017 0.00000E+00 0.00000E+00 0.00000E+00 0.00000E+00 0.00000E+00 0.00000E+00
 -1      3018 0.00000E+00 0.00000E+00 0.00000E+00 0.00000E+00 0.00000E+00 0.00000E+00
 -1      3019 0.00000E+00 0.00000E+00 0.00000E+00 0.00000E+00 0.00000E+00 0.00000E+00
 -1      3020 0.00000E+00 0.00000E+00 0.00000E+00 0.00000E+00 0.00000E+00 0.00000E+00
 -1      3021 0.00000E+00 0.00000E+00 0.00000E+00 0.00000E+00 0.00000E+00 0.00000E+00
 -1      3022 0.00000E+00 0.00000E+00 0.00000E+00 0.00000E+00 0.00000E+00 0.00000E+00
 -1      3023 0.00000E+00 0.00000E+00 0.00000E+00 0.00000E+00 0.00000E+00 0.00000E+00
 -1      3024 0.00000E+00 0.00000E+00 0.00000E+00 0.00000E+00 0.00000E+00 0.00000E+00
 -1      3025 0.00000E+00 0.00000E+00 0.00000E+00 0.00000E+00 0.00000E+00 0.00000E+00
 -1      3026 0.00000E+00 0.00000E+00 0.00000E+00 0.00000E+00 0.00000E+00 0.00000E+00
 -1      3027 0.00000E+00 0.00000E+00 0.00000E+00 0.00000E+00 0.00000E+00 0.00000E+00
 -1      3028 0.00000E+00 0.00000E+00 0.00000E+00 0.00000E+00 0.00000E+00 0.00000E+00
 -1      3029 0.00000E+00 0.00000E+00 0.00000E+00 0.00000E+00 0.00000E+00 0.00000E+00
 -1      3030 0.00000E+00 0.00000E+00 0.00000E+00 0.00000E+00 0.00000E+00 0.00000E+00
 -1      3031 0.00000E+00 0.00000E+00 0.00000E+00 0.00000E+00 0.00000E+00 0.00000E+00
 -1      3032 0.00000E+00 0.00000E+00 0.00000E+00 0.00000E+00 0.00000E+00 0.00000E+00
 -1      3033 0.00000E+00 0.00000E+00 0.00000E+00 0.00000E+00 0.00000E+00 0.00000E+00
 -1      3034 0.00000E+00 0.00000E+00 0.00000E+00 0.00000E+00 0.00000E+00 0.00000E+00
 -1      3035 0.00000E+00 0.00000E+00 0.00000E+00 0.00000E+00 0.00000E+00 0.00000E+00
 -1      3036 0.00000E+00 0.00000E+00 0.00000E+00 0.00000E+00 0.00000E+00 0.00000E+00
 -1      3037 0.00000E+00 0.00000E+00 0.00000E+00 0.00000E+00 0.00000E+00 0.00000E+00
 -1      3038 0.00000E+00 0.00000E+00 0.00000E+00 0.00000E+00 0.00000E+00 0.00000E+00
 -1      3039 0.00000E+00 0.00000E+00 0.00000E+00 0.00000E+00 0.00000E+00 0.00000E+00
 -1      3040 0.00000E+00 0.00000E+00 0.00000E+00 0.00000E+00 0.00000E+00 0.00000E+00
 -1      3041 0.00000E+00 0.00000E+00 0.00000E+00 0.00000E+00 0.00000E+00 0.00000E+00
 -1      3042 0.00000E+00 0.00000E+00 0.00000E+00 0.00000E+00 0.00000E+00 0.00000E+00
 -1      3043 0.00000E+00 0.00000E+00 0.00000E+00 0.00000E+00 0.00000E+00 0.00000E+00
 -1      3044 0.00000E+00 0.00000E+00 0.00000E+00 0.00000E+00 0.00000E+00 0.00000E+00
 -1      3045 0.00000E+00 0.00000E+00 0.00000E+00 0.00000E+00 0.00000E+00 0.00000E+00
 -1      3046 0.00000E+00 0.00000E+00 0.00000E+00 0.00000E+00 0.00000E+00 0.00000E+00
 -1      3047 0.00000E+00 0.00000E+00 0.00000E+00 0.00000E+00 0.00000E+00 0.00000E+00
 -1      3048 0.00000E+00 0.00000E+00 0.00000E+00 0.00000E+00 0.00000E+00 0.00000E+00
 -1      3049 0.00000E+00 0.00000E+00 0.00000E+00 0.00000E+00 0.00000E+00 0.00000E+00
 -1      3050 0.00000E+00 0.00000E+00 0.00000E+00 0.00000E+00 0.00000E+00 0.00000E+00
 -1      3051 0.00000E+00 0.00000E+00 0.00000E+00 0.00000E+00 0.00000E+00 0.00000E+00
 -1      3052 0.00000E+00 0.00000E+00 0.00000E+00 0.00000E+00 0.00000E+00 0.00000E+00
 -1      3053 0.00000E+00 0.00000E+00 0.00000E+00 0.00000E+00 0.00000E+00 0.00000E+00
 -1      3054 0.00000E+00 0.00000E+00 0.00000E+00 0.00000E+00 0.00000E+00 0.00000E+00
 -1      3055 0.00000E+00 0.00000E+00 0.00000E+00 0.00000E+00 0.00000E+00 0.00000E+00
 -1      3056 0.00000E+00 0.00000E+00 0.00000E+00 0.00000E+00 0.00000E+00 0.00000E+00
 -1      3057 0.00000E+00 0.00000E+00 0.00000E+00 0.00000E+00 0.00000E+00 0.00000E+00
 -1      3058 0.00000E+00 0.00000E+00 0.00000E+00 0.00000E+00 0.00000E+00 0.00000E+00
 -1      3059 0.00000E+00 0.00000E+00 0.00000E+00 0.00000E+00 0.00000E+00 0.00000E+00
 -1      3060 0.00000E+00 0.00000E+00 0.00000E+00 0.00000E+00 0.00000E+00 0.00000E+00
 -1      3061 0.00000E+00 0.00000E+00 0.00000E+00 0.00000E+00 0.00000E+00 0.00000E+00
 -1      3062 0.00000E+00 0.00000E+00 0.00000E+00 0.00000E+00 0.00000E+00 0.00000E+00
 -1      3063 0.00000E+00 0.00000E+00 0.00000E+00 0.00000E+00 0.00000E+00 0.00000E+00
 -1      3064 0.00000E+00 0.00000E+00 0.00000E+00 0.00000E+00 0.00000E+00 0.00000E+00
 -1      3065 0.00000E+00 0.00000E+00 0.00000E+00 0.00000E+00 0.00000E+00 0.00000E+00
 -1      3066 0.00000E+00 0.00000E+00 0.00000E+00 0.00000E+00 0.00000E+00 0.00000E+00
 -1      3067 0.00000E+00 0.00000E+00 0.00000E+00 0.00000E+00 0.00000E+00 0.00000E+00
 -1      3068 0.00000E+00 0.00000E+00 0.00000E+00 0.00000E+00 0.00000E+00 0.00000E+00
 -1      3069 0.00000E+00 0.00000E+00 0.00000E+00 0.00000E+00 0.00000E+00 0.00000E+00
 -1      3070 0.00000E+00 0.00000E+00 0.00000E+00 0.00000E+00 0.00000E+00 0.00000E+00
 -1      3071 0.00000E+00 0.00000E+00 0.00000E+00 0.00000E+00 0.00000E+00 0.00000E+00
 -1      3072 0.00000E+00 0.00000E+00 0.00000E+00 0.00000E+00 0.00000E+00 0.00000E+00
 -1      3073 0.00000E+00 0.00000E+00 0.00000E+00 0.00000E+00 0.00000E+00 0.00000E+00
 -1      3074 0.00000E+00 0.00000E+00 0.00000E+00 0.00000E+00 0.00000E+00 0.00000E+00
 -1      3075 0.00000E+00 0.00000E+00 0.00000E+00 0.00000E+00 0.00000E+00 0.00000E+00
 -1      3076 0.00000E+00 0.00000E+00 0.00000E+00 0.00000E+00 0.00000E+00 0.00000E+00
 -1      3077 0.00000E+00 0.00000E+00 0.00000E+00 0.00000E+00 0.00000E+00 0.00000E+00
 -1      3078 0.00000E+00 0.00000E+00 0.00000E+00 0.00000E+00 0.00000E+00 0.00000E+00
 -1      3079 0.00000E+00 0.00000E+00 0.00000E+00 0.00000E+00 0.00000E+00 0.00000E+00
 -1      3080 0.00000E+00 0.00000E+00 0.00000E+00 0.00000E+00 0.00000E+00 0.00000E+00
 -1      3081 0.00000E+00 0.00000E+00 0.00000E+00 0.00000E+00 0.00000E+00 0.00000E+00
 -1      3082 0.00000E+00 0.00000E+00 0.00000E+00 0.00000E+00 0.00000E+00 0.00000E+00
 -1      3083 0.00000E+00 0.00000E+00 0.00000E+00 0.00000E+00 0.00000E+00 0.00000E+00
 -1      3084 0.00000E+00 0.00000E+00 0.00000E+00 0.00000E+00 0.00000E+00 0.00000E+00
 -1      3085 0.00000E+00 0.00000E+00 0.00000E+00 0.00000E+00 0.00000E+00 0.00000E+00
 -1      3086 0.00000E+00 0.00000E+00 0.00000E+00 0.00000E+00 0.00000E+00 0.00000E+00
 -1      3087 0.00000E+00 0.00000E+00 0.00000E+00 0.00000E+00 0.00000E+00 0.00000E+00
 -1      3088 0.00000E+00 0.00000E+00 0.00000E+00 0.00000E+00 0.00000E+00 0.00000E+00
 -1      3089 0.00000E+00 0.00000E+00 0.00000E+00 0.00000E+00 0.00000E+00 0.00000E+00
 -1      3090 0.00000E+00 0.00000E+00 0.00000E+00 0.00000E+00 0.00000E+00 0.00000E+00
 -1      3091 0.00000E+00 0.00000E+00 0.00000E+00 0.00000E+00 0.00000E+00 0.00000E+00
 -1      3092 0.00000E+00 0.00000E+00 0.00000E+00 0.00000E+00 0.00000E+00 0.00000E+00
 -1      3093 0.00000E+00 0.00000E+00 0.00000E+00 0.00000E+00 0.00000E+00 0.00000E+00
 -1      3094 0.00000E+00 0.00000E+00 0.00000E+00 0.00000E+00 0.00000E+00 0.00000E+00
 -1      3095 0.00000E+00 0.00000E+00 0.00000E+00 0.00000E+00 0.00000E+00 0.00000E+00
 -1      3096 0.00000E+00 0.00000E+00 0.00000E+00 0.00000E+00 0.00000E+00 0.00000E+00
 -1      3097 0.00000E+00 0.00000E+00 0.00000E+00 0.00000E+00 0.00000E+00 0.00000E+00
 -1      3098 0.00000E+00 0.00000E+00 0.00000E+00 0.00000E+00 0.00000E+00 0.00000E+00
 -1      3099 0.00000E+00 0.00000E+00 0.00000E+00 0.00000E+00 0.00000E+00 0.00000E+00
 -1      3100 0.00000E+00 0.00000E+00 0.00000E+00 0.00000E+00 0.00000E+00 0.00000E+00
 -1      3101 0.00000E+00 0.00000E+00 0.00000E+00 0.00000E+00 0.00000E+00 0.00000E+00
 -1      3102 0.00000E+00 0.00000E+00 0.00000E+00 0.00000E+00 0.00000E+00 0.00000E+00
 -1      3103 0.00000E+00 0.00000E+00 0.00000E+00 0.00000E+00 0.00000E+00 0.00000E+00
 -1      3104 0.00000E+00 0.00000E+00 0.00000E+00 0.00000E+00 0.00000E+00 0.00000E+00
 -1      3105 0.00000E+00 0.00000E+00 0.00000E+00 0.00000E+00 0.00000E+00 0.00000E+00
 -1      3106 0.00000E+00 0.00000E+00 0.00000E+00 0.00000E+00 0.00000E+00 0.00000E+00
 -1      3107 0.00000E+00 0.00000E+00 0.00000E+00 0.00000E+00 0.00000E+00 0.00000E+00
 -1      3108 0.00000E+00 0.00000E+00 0.00000E+00 0.00000E+00 0.00000E+00 0.00000E+00
 -1      3109 0.00000E+00 0.00000E+00 0.00000E+00 0.00000E+00 0.00000E+00 0.00000E+00
 -1      3110 0.00000E+00 0.00000E+00 0.00000E+00 0.00000E+00 0.00000E+00 0.00000E+00
 -1      3111 0.00000E+00 0.00000E+00 0.00000E+00 0.00000E+00 0.00000E+00 0.00000E+00
 -1      3112 0.00000E+00 0.00000E+00 0.00000E+00 0.00000E+00 0.00000E+00 0.00000E+00
 -1      3113 0.00000E+00 0.00000E+00 0.00000E+00 0.00000E+00 0.00000E+00 0.00000E+00
 -1      3114 0.00000E+00 0.00000E+00 0.00000E+00 0.00000E+00 0.00000E+00 0.00000E+00
 -1      3115 0.00000E+00 0.00000E+00 0.00000E+00 0.00000E+00 0.00000E+00 0.00000E+00
 -1      3116 0.00000E+00 0.00000E+00 0.00000E+00 0.00000E+00 0.00000E+00 0.00000E+00
 -1      3117 0.00000E+00 0.00000E+00 0.00000E+00 0.00000E+00 0.00000E+00 0.00000E+00
 -1      3118 0.00000E+00 0.00000E+00 0.00000E+00 0.00000E+00 0.00000E+00 0.00000E+00
 -1      3119 0.00000E+00 0.00000E+00 0.00000E+00 0.00000E+00 0.00000E+00 0.00000E+00
 -1      3120 0.00000E+00 0.00000E+00 0.00000E+00 0.00000E+00 0.00000E+00 0.00000E+00
 -1      3121 0.00000E+00 0.00000E+00 0.00000E+00 0.00000E+00 0.00000E+00 0.00000E+00
 -1      3122 0.00000E+00 0.00000E+00 0.00000E+00 0.00000E+00 0.00000E+00 0.00000E+00
 -1      3123 0.00000E+00 0.00000E+00 0.00000E+00 0.00000E+00 0.00000E+00 0.00000E+00
 -1      3124 0.00000E+00 0.00000E+00 0.00000E+00 0.00000E+00 0.00000E+00 0.00000E+00
 -1      3125 0.00000E+00 0.00000E+00 0.00000E+00 0.00000E+00 0.00000E+00 0.00000E+00
 -1      3126 0.00000E+00 0.00000E+00 0.00000E+00 0.00000E+00 0.00000E+00 0.00000E+00
 -1      3127 0.00000E+00 0.00000E+00 0.00000E+00 0.00000E+00 0.00000E+00 0.00000E+00
 -1      3128 0.00000E+00 0.00000E+00 0.00000E+00 0.00000E+00 0.00000E+00 0.00000E+00
 -1      3129 0.00000E+00 0.00000E+00 0.00000E+00 0.00000E+00 0.00000E+00 0.00000E+00
 -1      3130 0.00000E+00 0.00000E+00 0.00000E+00 0.00000E+00 0.00000E+00 0.00000E+00
 -1      3131 0.00000E+00 0.00000E+00 0.00000E+00 0.00000E+00 0.00000E+00 0.00000E+00
 -1      3132 0.00000E+00 0.00000E+00 0.00000E+00 0.00000E+00 0.00000E+00 0.00000E+00
 -1      3133 0.00000E+00 0.00000E+00 0.00000E+00 0.00000E+00 0.00000E+00 0.00000E+00
 -1      3134 0.00000E+00 0.00000E+00 0.00000E+00 0.00000E+00 0.00000E+00 0.00000E+00
 -1      3135 0.00000E+00 0.00000E+00 0.00000E+00 0.00000E+00 0.00000E+00 0.00000E+00
 -1      3136 0.00000E+00 0.00000E+00 0.00000E+00 0.00000E+00 0.00000E+00 0.00000E+00
 -1      3137 0.00000E+00 0.00000E+00 0.00000E+00 0.00000E+00 0.00000E+00 0.00000E+00
 -1      3138 0.00000E+00 0.00000E+00 0.00000E+00 0.00000E+00 0.00000E+00 0.00000E+00
 -1      3139 0.00000E+00 0.00000E+00 0.00000E+00 0.00000E+00 0.00000E+00 0.00000E+00
 -1      3140 0.00000E+00 0.00000E+00 0.00000E+00 0.00000E+00 0.00000E+00 0.00000E+00
 -1      3141 0.00000E+00 0.00000E+00 0.00000E+00 0.00000E+00 0.00000E+00 0.00000E+00
 -1      3142 0.00000E+00 0.00000E+00 0.00000E+00 0.00000E+00 0.00000E+00 0.00000E+00
 -1      3143 0.00000E+00 0.00000E+00 0.00000E+00 0.00000E+00 0.00000E+00 0.00000E+00
 -1      3144 0.00000E+00 0.00000E+00 0.00000E+00 0.00000E+00 0.00000E+00 0.00000E+00
 -1      3145 0.00000E+00 0.00000E+00 0.00000E+00 0.00000E+00 0.00000E+00 0.00000E+00
 -1      3146 0.00000E+00 0.00000E+00 0.00000E+00 0.00000E+00 0.00000E+00 0.00000E+00
 -1      3147 0.00000E+00 0.00000E+00 0.00000E+00 0.00000E+00 0.00000E+00 0.00000E+00
 -1      3148 0.00000E+00 0.00000E+00 0.00000E+00 0.00000E+00 0.00000E+00 0.00000E+00
 -1      3149 0.00000E+00 0.00000E+00 0.00000E+00 0.00000E+00 0.00000E+00 0.00000E+00
 -1      3150 0.00000E+00 0.00000E+00 0.00000E+00 0.00000E+00 0.00000E+00 0.00000E+00
 -1      3151 0.00000E+00 0.00000E+00 0.00000E+00 0.00000E+00 0.00000E+00 0.00000E+00
 -1      3152 0.00000E+00 0.00000E+00 0.00000E+00 0.00000E+00 0.00000E+00 0.00000E+00
 -1      3153 0.00000E+00 0.00000E+00 0.00000E+00 0.00000E+00 0.00000E+00 0.00000E+00
 -1      3154 0.00000E+00 0.00000E+00 0.00000E+00 0.00000E+00 0.00000E+00 0.00000E+00
 -1      3155 0.00000E+00 0.00000E+00 0.00000E+00 0.00000E+00 0.00000E+00 0.00000E+00
 -1      3156 0.00000E+00 0.00000E+00 0.00000E+00 0.00000E+00 0.00000E+00 0.00000E+00
 -1      3157 0.00000E+00 0.00000E+00 0.00000E+00 0.00000E+00 0.00000E+00 0.00000E+00
 -1      3158 0.00000E+00 0.00000E+00 0.00000E+00 0.00000E+00 0.00000E+00 0.00000E+00
 -1      3159 0.00000E+00 0.00000E+00 0.00000E+00 0.00000E+00 0.00000E+00 0.00000E+00
 -1      3160 0.00000E+00 0.00000E+00 0.00000E+00 0.00000E+00 0.00000E+00 0.00000E+00
 -1      3161 0.00000E+00 0.00000E+00 0.00000E+00 0.00000E+00 0.00000E+00 0.00000E+00
 -1      3162 0.00000E+00 0.00000E+00 0.00000E+00 0.00000E+00 0.00000E+00 0.00000E+00
 -1      3163 0.00000E+00 0.00000E+00 0.00000E+00 0.00000E+00 0.00000E+00 0.00000E+00
 -1      3164 0.00000E+00 0.00000E+00 0.00000E+00 0.00000E+00 0.00000E+00 0.00000E+00
 -1      3165 0.00000E+00 0.00000E+00 0.00000E+00 0.00000E+00 0.00000E+00 0.00000E+00
 -1      3166 0.00000E+00 0.00000E+00 0.00000E+00 0.00000E+00 0.00000E+00 0.00000E+00
 -1      3167 0.00000E+00 0.00000E+00 0.00000E+00 0.00000E+00 0.00000E+00 0.00000E+00
 -1      3168 0.00000E+00 0.00000E+00 0.00000E+00 0.00000E+00 0.00000E+00 0.00000E+00
 -1      3169 0.00000E+00 0.00000E+00 0.00000E+00 0.00000E+00 0.00000E+00 0.00000E+00
 -1      3170 0.00000E+00 0.00000E+00 0.00000E+00 0.00000E+00 0.00000E+00 0.00000E+00
 -1      3171 0.00000E+00 0.00000E+00 0.00000E+00 0.00000E+00 0.00000E+00 0.00000E+00
 -1      3172 0.00000E+00 0.00000E+00 0.00000E+00 0.00000E+00 0.00000E+00 0.00000E+00
 -1      3173 0.00000E+00 0.00000E+00 0.00000E+00 0.00000E+00 0.00000E+00 0.00000E+00
 -1      3174 0.00000E+00 0.00000E+00 0.00000E+00 0.00000E+00 0.00000E+00 0.00000E+00
 -1      3175 0.00000E+00 0.00000E+00 0.00000E+00 0.00000E+00 0.00000E+00 0.00000E+00
 -1      3176 0.00000E+00 0.00000E+00 0.00000E+00 0.00000E+00 0.00000E+00 0.00000E+00
 -1      3177 0.00000E+00 0.00000E+00 0.00000E+00 0.00000E+00 0.00000E+00 0.00000E+00
 -1      3178 0.00000E+00 0.00000E+00 0.00000E+00 0.00000E+00 0.00000E+00 0.00000E+00
 -1      3179 0.00000E+00 0.00000E+00 0.00000E+00 0.00000E+00 0.00000E+00 0.00000E+00
 -1      3180 0.00000E+00 0.00000E+00 0.00000E+00 0.00000E+00 0.00000E+00 0.00000E+00
 -1      3181 0.00000E+00 0.00000E+00 0.00000E+00 0.00000E+00 0.00000E+00 0.00000E+00
 -1      3182 0.00000E+00 0.00000E+00 0.00000E+00 0.00000E+00 0.00000E+00 0.00000E+00
 -1      3183 0.00000E+00 0.00000E+00 0.00000E+00 0.00000E+00 0.00000E+00 0.00000E+00
 -1      3184 0.00000E+00 0.00000E+00 0.00000E+00 0.00000E+00 0.00000E+00 0.00000E+00
 -1      3185 0.00000E+00 0.00000E+00 0.00000E+00 0.00000E+00 0.00000E+00 0.00000E+00
 -1      3186 0.00000E+00 0.00000E+00 0.00000E+00 0.00000E+00 0.00000E+00 0.00000E+00
 -1      3187 0.00000E+00 0.00000E+00 0.00000E+00 0.00000E+00 0.00000E+00 0.00000E+00
 -1      3188 0.00000E+00 0.00000E+00 0.00000E+00 0.00000E+00 0.00000E+00 0.00000E+00
 -1      3189 0.00000E+00 0.00000E+00 0.00000E+00 0.00000E+00 0.00000E+00 0.00000E+00
 -1      3190 0.00000E+00 0.00000E+00 0.00000E+00 0.00000E+00 0.00000E+00 0.00000E+00
 -1      3191 0.00000E+00 0.00000E+00 0.00000E+00 0.00000E+00 0.00000E+00 0.00000E+00
 -1      3192 0.00000E+00 0.00000E+00 0.00000E+00 0.00000E+00 0.00000E+00 0.00000E+00
 -1      3193 0.00000E+00 0.00000E+00 0.00000E+00 0.00000E+00 0.00000E+00 0.00000E+00
 -1      3194 0.00000E+00 0.00000E+00 0.00000E+00 0.00000E+00 0.00000E+00 0.00000E+00
 -1      3195 0.00000E+00 0.00000E+00 0.00000E+00 0.00000E+00 0.00000E+00 0.00000E+00
 -1      3196 0.00000E+00 0.00000E+00 0.00000E+00 0.00000E+00 0.00000E+00 0.00000E+00
 -1      3197 0.00000E+00 0.00000E+00 0.00000E+00 0.00000E+00 0.00000E+00 0.00000E+00
 -1      3198 0.00000E+00 0.00000E+00 0.00000E+00 0.00000E+00 0.00000E+00 0.00000E+00
 -1      3199 0.00000E+00 0.00000E+00 0.00000E+00 0.00000E+00 0.00000E+00 0.00000E+00
 -1      3200 0.00000E+00 0.00000E+00 0.00000E+00 0.00000E+00 0.00000E+00 0.00000E+00
 -1      3201 0.00000E+00 0.00000E+00 0.00000E+00 0.00000E+00 0.00000E+00 0.00000E+00
 -1      3202 0.00000E+00 0.00000E+00 0.00000E+00 0.00000E+00 0.00000E+00 0.00000E+00
 -1      3203 0.00000E+00 0.00000E+00 0.00000E+00 0.00000E+00 0.00000E+00 0.00000E+00
 -1      3204 0.00000E+00 0.00000E+00 0.00000E+00 0.00000E+00 0.00000E+00 0.00000E+00
 -1      3205 0.00000E+00 0.00000E+00 0.00000E+00 0.00000E+00 0.00000E+00 0.00000E+00
 -1      3206 0.00000E+00 0.00000E+00 0.00000E+00 0.00000E+00 0.00000E+00 0.00000E+00
 -1      3207 0.00000E+00 0.00000E+00 0.00000E+00 0.00000E+00 0.00000E+00 0.00000E+00
 -1      3208 0.00000E+00 0.00000E+00 0.00000E+00 0.00000E+00 0.00000E+00 0.00000E+00
 -1      3209 0.00000E+00 0.00000E+00 0.00000E+00 0.00000E+00 0.00000E+00 0.00000E+00
 -1      3210 0.00000E+00 0.00000E+00 0.00000E+00 0.00000E+00 0.00000E+00 0.00000E+00
 -1      3211 0.00000E+00 0.00000E+00 0.00000E+00 0.00000E+00 0.00000E+00 0.00000E+00
 -1      3212 0.00000E+00 0.00000E+00 0.00000E+00 0.00000E+00 0.00000E+00 0.00000E+00
 -1      3213 0.00000E+00 0.00000E+00 0.00000E+00 0.00000E+00 0.00000E+00 0.00000E+00
 -1      3214 0.00000E+00 0.00000E+00 0.00000E+00 0.00000E+00 0.00000E+00 0.00000E+00
 -1      3215 0.00000E+00 0.00000E+00 0.00000E+00 0.00000E+00 0.00000E+00 0.00000E+00
 -1      3216 0.00000E+00 0.00000E+00 0.00000E+00 0.00000E+00 0.00000E+00 0.00000E+00
 -1      3217 0.00000E+00 0.00000E+00 0.00000E+00 0.00000E+00 0.00000E+00 0.00000E+00
 -1      3218 0.00000E+00 0.00000E+00 0.00000E+00 0.00000E+00 0.00000E+00 0.00000E+00
 -1      3219 0.00000E+00 0.00000E+00 0.00000E+00 0.00000E+00 0.00000E+00 0.00000E+00
 -1      3220 0.00000E+00 0.00000E+00 0.00000E+00 0.00000E+00 0.00000E+00 0.00000E+00
 -1      3221 0.00000E+00 0.00000E+00 0.00000E+00 0.00000E+00 0.00000E+00 0.00000E+00
 -1      3222 0.00000E+00 0.00000E+00 0.00000E+00 0.00000E+00 0.00000E+00 0.00000E+00
 -1      3223 0.00000E+00 0.00000E+00 0.00000E+00 0.00000E+00 0.00000E+00 0.00000E+00
 -1      3224 0.00000E+00 0.00000E+00 0.00000E+00 0.00000E+00 0.00000E+00 0.00000E+00
 -1      3225 0.00000E+00 0.00000E+00 0.00000E+00 0.00000E+00 0.00000E+00 0.00000E+00
 -1      3226 0.00000E+00 0.00000E+00 0.00000E+00 0.00000E+00 0.00000E+00 0.00000E+00
 -1      3227 0.00000E+00 0.00000E+00 0.00000E+00 0.00000E+00 0.00000E+00 0.00000E+00
 -1      3228 0.00000E+00 0.00000E+00 0.00000E+00 0.00000E+00 0.00000E+00 0.00000E+00
 -1      3229 0.00000E+00 0.00000E+00 0.00000E+00 0.00000E+00 0.00000E+00 0.00000E+00
 -1      3230 0.00000E+00 0.00000E+00 0.00000E+00 0.00000E+00 0.00000E+00 0.00000E+00
 -1      3231 0.00000E+00 0.00000E+00 0.00000E+00 0.00000E+00 0.00000E+00 0.00000E+00
 -1      3232 0.00000E+00 0.00000E+00 0.00000E+00 0.00000E+00 0.00000E+00 0.00000E+00
 -1      3233 0.00000E+00 0.00000E+00 0.00000E+00 0.00000E+00 0.00000E+00 0.00000E+00
 -1      3234 0.00000E+00 0.00000E+00 0.00000E+00 0.00000E+00 0.00000E+00 0.00000E+00
 -1      3235 0.00000E+00 0.00000E+00 0.00000E+00 0.00000E+00 0.00000E+00 0.00000E+00
 -1      3236 0.00000E+00 0.00000E+00 0.00000E+00 0.00000E+00 0.00000E+00 0.00000E+00
 -1      3237 0.00000E+00 0.00000E+00 0.00000E+00 0.00000E+00 0.00000E+00 0.00000E+00
 -1      3238 0.00000E+00 0.00000E+00 0.00000E+00 0.00000E+00 0.00000E+00 0.00000E+00
 -1      3239 0.00000E+00 0.00000E+00 0.00000E+00 0.00000E+00 0.00000E+00 0.00000E+00
 -1      3240 0.00000E+00 0.00000E+00 0.00000E+00 0.00000E+00 0.00000E+00 0.00000E+00
 -1      3241 0.00000E+00 0.00000E+00 0.00000E+00 0.00000E+00 0.00000E+00 0.00000E+00
 -1      3242 0.00000E+00 0.00000E+00 0.00000E+00 0.00000E+00 0.00000E+00 0.00000E+00
 -1      3243 0.00000E+00 0.00000E+00 0.00000E+00 0.00000E+00 0.00000E+00 0.00000E+00
 -1      3244 0.00000E+00 0.00000E+00 0.00000E+00 0.00000E+00 0.00000E+00 0.00000E+00
 -1      3245 0.00000E+00 0.00000E+00 0.00000E+00 0.00000E+00 0.00000E+00 0.00000E+00
 -1      3246 0.00000E+00 0.00000E+00 0.00000E+00 0.00000E+00 0.00000E+00 0.00000E+00
 -1      3247 0.00000E+00 0.00000E+00 0.00000E+00 0.00000E+00 0.00000E+00 0.00000E+00
 -1      3248 0.00000E+00 0.00000E+00 0.00000E+00 0.00000E+00 0.00000E+00 0.00000E+00
 -1      3249 0.00000E+00 0.00000E+00 0.00000E+00 0.00000E+00 0.00000E+00 0.00000E+00
 -1      3250 0.00000E+00 0.00000E+00 0.00000E+00 0.00000E+00 0.00000E+00 0.00000E+00
 -1      3251 0.00000E+00 0.00000E+00 0.00000E+00 0.00000E+00 0.00000E+00 0.00000E+00
 -1      3252 0.00000E+00 0.00000E+00 0.00000E+00 0.00000E+00 0.00000E+00 0.00000E+00
 -1      3253 0.00000E+00 0.00000E+00 0.00000E+00 0.00000E+00 0.00000E+00 0.00000E+00
 -1      3254 0.00000E+00 0.00000E+00 0.00000E+00 0.00000E+00 0.00000E+00 0.00000E+00
 -1      3255 0.00000E+00 0.00000E+00 0.00000E+00 0.00000E+00 0.00000E+00 0.00000E+00
 -1      3256 0.00000E+00 0.00000E+00 0.00000E+00 0.00000E+00 0.00000E+00 0.00000E+00
 -1      3257 0.00000E+00 0.00000E+00 0.00000E+00 0.00000E+00 0.00000E+00 0.00000E+00
 -1      3258 0.00000E+00 0.00000E+00 0.00000E+00 0.00000E+00 0.00000E+00 0.00000E+00
 -1      3259 0.00000E+00 0.00000E+00 0.00000E+00 0.00000E+00 0.00000E+00 0.00000E+00
 -1      3260 0.00000E+00 0.00000E+00 0.00000E+00 0.00000E+00 0.00000E+00 0.00000E+00
 -1      3261 0.00000E+00 0.00000E+00 0.00000E+00 0.00000E+00 0.00000E+00 0.00000E+00
 -1      3262 0.00000E+00 0.00000E+00 0.00000E+00 0.00000E+00 0.00000E+00 0.00000E+00
 -1      3263 0.00000E+00 0.00000E+00 0.00000E+00 0.00000E+00 0.00000E+00 0.00000E+00
 -1      3264 0.00000E+00 0.00000E+00 0.00000E+00 0.00000E+00 0.00000E+00 0.00000E+00
 -1      3265 0.00000E+00 0.00000E+00 0.00000E+00 0.00000E+00 0.00000E+00 0.00000E+00
 -1      3266 0.00000E+00 0.00000E+00 0.00000E+00 0.00000E+00 0.00000E+00 0.00000E+00
 -1      3267 0.00000E+00 0.00000E+00 0.00000E+00 0.00000E+00 0.00000E+00 0.00000E+00
 -1      3268 0.00000E+00 0.00000E+00 0.00000E+00 0.00000E+00 0.00000E+00 0.00000E+00
 -1      3269 0.00000E+00 0.00000E+00 0.00000E+00 0.00000E+00 0.00000E+00 0.00000E+00
 -1      3270 0.00000E+00 0.00000E+00 0.00000E+00 0.00000E+00 0.00000E+00 0.00000E+00
 -1      3271 0.00000E+00 0.00000E+00 0.00000E+00 0.00000E+00 0.00000E+00 0.00000E+00
 -1      3272 0.00000E+00 0.00000E+00 0.00000E+00 0.00000E+00 0.00000E+00 0.00000E+00
 -1      3273 0.00000E+00 0.00000E+00 0.00000E+00 0.00000E+00 0.00000E+00 0.00000E+00
 -1      3274 0.00000E+00 0.00000E+00 0.00000E+00 0.00000E+00 0.00000E+00 0.00000E+00
 -1      3275 0.00000E+00 0.00000E+00 0.00000E+00 0.00000E+00 0.00000E+00 0.00000E+00
 -1      3276 0.00000E+00 0.00000E+00 0.00000E+00 0.00000E+00 0.00000E+00 0.00000E+00
 -1      3277 0.00000E+00 0.00000E+00 0.00000E+00 0.00000E+00 0.00000E+00 0.00000E+00
 -1      3278 0.00000E+00 0.00000E+00 0.00000E+00 0.00000E+00 0.00000E+00 0.00000E+00
 -1      3279 0.00000E+00 0.00000E+00 0.00000E+00 0.00000E+00 0.00000E+00 0.00000E+00
 -1      3280 0.00000E+00 0.00000E+00 0.00000E+00 0.00000E+00 0.00000E+00 0.00000E+00
 -1      3281 0.00000E+00 0.00000E+00 0.00000E+00 0.00000E+00 0.00000E+00 0.00000E+00
 -1      3282 0.00000E+00 0.00000E+00 0.00000E+00 0.00000E+00 0.00000E+00 0.00000E+00
 -1      3283 0.00000E+00 0.00000E+00 0.00000E+00 0.00000E+00 0.00000E+00 0.00000E+00
 -1      3284 0.00000E+00 0.00000E+00 0.00000E+00 0.00000E+00 0.00000E+00 0.00000E+00
 -1      3285 0.00000E+00 0.00000E+00 0.00000E+00 0.00000E+00 0.00000E+00 0.00000E+00
 -1      3286 0.00000E+00 0.00000E+00 0.00000E+00 0.00000E+00 0.00000E+00 0.00000E+00
 -1      3287 0.00000E+00 0.00000E+00 0.00000E+00 0.00000E+00 0.00000E+00 0.00000E+00
 -1      3288 0.00000E+00 0.00000E+00 0.00000E+00 0.00000E+00 0.00000E+00 0.00000E+00
 -1      3289 0.00000E+00 0.00000E+00 0.00000E+00 0.00000E+00 0.00000E+00 0.00000E+00
 -1      3290 0.00000E+00 0.00000E+00 0.00000E+00 0.00000E+00 0.00000E+00 0.00000E+00
 -1      3291 0.00000E+00 0.00000E+00 0.00000E+00 0.00000E+00 0.00000E+00 0.00000E+00
 -1      3292 0.00000E+00 0.00000E+00 0.00000E+00 0.00000E+00 0.00000E+00 0.00000E+00
 -1      3293 0.00000E+00 0.00000E+00 0.00000E+00 0.00000E+00 0.00000E+00 0.00000E+00
 -1      3294 0.00000E+00 0.00000E+00 0.00000E+00 0.00000E+00 0.00000E+00 0.00000E+00
 -1      3295 0.00000E+00 0.00000E+00 0.00000E+00 0.00000E+00 0.00000E+00 0.00000E+00
 -1      3296 0.00000E+00 0.00000E+00 0.00000E+00 0.00000E+00 0.00000E+00 0.00000E+00
 -1      3297 0.00000E+00 0.00000E+00 0.00000E+00 0.00000E+00 0.00000E+00 0.00000E+00
 -1      3298 0.00000E+00 0.00000E+00 0.00000E+00 0.00000E+00 0.00000E+00 0.00000E+00
 -1      3299 0.00000E+00 0.00000E+00 0.00000E+00 0.00000E+00 0.00000E+00 0.00000E+00
 -1      3300 0.00000E+00 0.00000E+00 0.00000E+00 0.00000E+00 0.00000E+00 0.00000E+00
 -1      3301 0.00000E+00 0.00000E+00 0.00000E+00 0.00000E+00 0.00000E+00 0.00000E+00
 -1      3302 0.00000E+00 0.00000E+00 0.00000E+00 0.00000E+00 0.00000E+00 0.00000E+00
 -1      3303 0.00000E+00 0.00000E+00 0.00000E+00 0.00000E+00 0.00000E+00 0.00000E+00
 -1      3304 0.00000E+00 0.00000E+00 0.00000E+00 0.00000E+00 0.00000E+00 0.00000E+00
 -1      3305 0.00000E+00 0.00000E+00 0.00000E+00 0.00000E+00 0.00000E+00 0.00000E+00
 -1      3306 0.00000E+00 0.00000E+00 0.00000E+00 0.00000E+00 0.00000E+00 0.00000E+00
 -1      3307 0.00000E+00 0.00000E+00 0.00000E+00 0.00000E+00 0.00000E+00 0.00000E+00
 -1      3308 0.00000E+00 0.00000E+00 0.00000E+00 0.00000E+00 0.00000E+00 0.00000E+00
 -1      3309 0.00000E+00 0.00000E+00 0.00000E+00 0.00000E+00 0.00000E+00 0.00000E+00
 -1      3310 0.00000E+00 0.00000E+00 0.00000E+00 0.00000E+00 0.00000E+00 0.00000E+00
 -1      3311 0.00000E+00 0.00000E+00 0.00000E+00 0.00000E+00 0.00000E+00 0.00000E+00
 -1      3312 0.00000E+00 0.00000E+00 0.00000E+00 0.00000E+00 0.00000E+00 0.00000E+00
 -1      3313 0.00000E+00 0.00000E+00 0.00000E+00 0.00000E+00 0.00000E+00 0.00000E+00
 -1      3314 0.00000E+00 0.00000E+00 0.00000E+00 0.00000E+00 0.00000E+00 0.00000E+00
 -1      3315 0.00000E+00 0.00000E+00 0.00000E+00 0.00000E+00 0.00000E+00 0.00000E+00
 -1      3316 0.00000E+00 0.00000E+00 0.00000E+00 0.00000E+00 0.00000E+00 0.00000E+00
 -1      3317 0.00000E+00 0.00000E+00 0.00000E+00 0.00000E+00 0.00000E+00 0.00000E+00
 -1      3318 0.00000E+00 0.00000E+00 0.00000E+00 0.00000E+00 0.00000E+00 0.00000E+00
 -1      3319 0.00000E+00 0.00000E+00 0.00000E+00 0.00000E+00 0.00000E+00 0.00000E+00
 -1      3320 0.00000E+00 0.00000E+00 0.00000E+00 0.00000E+00 0.00000E+00 0.00000E+00
 -1      3321 0.00000E+00 0.00000E+00 0.00000E+00 0.00000E+00 0.00000E+00 0.00000E+00
 -1      3322 0.00000E+00 0.00000E+00 0.00000E+00 0.00000E+00 0.00000E+00 0.00000E+00
 -1      3323 0.00000E+00 0.00000E+00 0.00000E+00 0.00000E+00 0.00000E+00 0.00000E+00
 -1      3324 0.00000E+00 0.00000E+00 0.00000E+00 0.00000E+00 0.00000E+00 0.00000E+00
 -1      3325 0.00000E+00 0.00000E+00 0.00000E+00 0.00000E+00 0.00000E+00 0.00000E+00
 -1      3326 0.00000E+00 0.00000E+00 0.00000E+00 0.00000E+00 0.00000E+00 0.00000E+00
 -1      3327 0.00000E+00 0.00000E+00 0.00000E+00 0.00000E+00 0.00000E+00 0.00000E+00
 -1      3328 0.00000E+00 0.00000E+00 0.00000E+00 0.00000E+00 0.00000E+00 0.00000E+00
 -1      3329 0.00000E+00 0.00000E+00 0.00000E+00 0.00000E+00 0.00000E+00 0.00000E+00
 -1      3330 0.00000E+00 0.00000E+00 0.00000E+00 0.00000E+00 0.00000E+00 0.00000E+00
 -1      3331 0.00000E+00 0.00000E+00 0.00000E+00 0.00000E+00 0.00000E+00 0.00000E+00
 -1      3332 0.00000E+00 0.00000E+00 0.00000E+00 0.00000E+00 0.00000E+00 0.00000E+00
 -1      3333 0.00000E+00 0.00000E+00 0.00000E+00 0.00000E+00 0.00000E+00 0.00000E+00
 -1      3334 0.00000E+00 0.00000E+00 0.00000E+00 0.00000E+00 0.00000E+00 0.00000E+00
 -1      3335 0.00000E+00 0.00000E+00 0.00000E+00 0.00000E+00 0.00000E+00 0.00000E+00
 -1      3336 0.00000E+00 0.00000E+00 0.00000E+00 0.00000E+00 0.00000E+00 0.00000E+00
 -1      3337 0.00000E+00 0.00000E+00 0.00000E+00 0.00000E+00 0.00000E+00 0.00000E+00
 -1      3338 0.00000E+00 0.00000E+00 0.00000E+00 0.00000E+00 0.00000E+00 0.00000E+00
 -1      3339 0.00000E+00 0.00000E+00 0.00000E+00 0.00000E+00 0.00000E+00 0.00000E+00
 -1      3340 0.00000E+00 0.00000E+00 0.00000E+00 0.00000E+00 0.00000E+00 0.00000E+00
 -1      3341 0.00000E+00 0.00000E+00 0.00000E+00 0.00000E+00 0.00000E+00 0.00000E+00
 -1      3342 0.00000E+00 0.00000E+00 0.00000E+00 0.00000E+00 0.00000E+00 0.00000E+00
 -1      3343 0.00000E+00 0.00000E+00 0.00000E+00 0.00000E+00 0.00000E+00 0.00000E+00
 -1      3344 0.00000E+00 0.00000E+00 0.00000E+00 0.00000E+00 0.00000E+00 0.00000E+00
 -1      3345 0.00000E+00 0.00000E+00 0.00000E+00 0.00000E+00 0.00000E+00 0.00000E+00
 -1      3346 0.00000E+00 0.00000E+00 0.00000E+00 0.00000E+00 0.00000E+00 0.00000E+00
 -1      3347 0.00000E+00 0.00000E+00 0.00000E+00 0.00000E+00 0.00000E+00 0.00000E+00
 -1      3348 0.00000E+00 0.00000E+00 0.00000E+00 0.00000E+00 0.00000E+00 0.00000E+00
 -1      3349 0.00000E+00 0.00000E+00 0.00000E+00 0.00000E+00 0.00000E+00 0.00000E+00
 -1      3350 0.00000E+00 0.00000E+00 0.00000E+00 0.00000E+00 0.00000E+00 0.00000E+00
 -1      3351 0.00000E+00 0.00000E+00 0.00000E+00 0.00000E+00 0.00000E+00 0.00000E+00
 -1      3352 0.00000E+00 0.00000E+00 0.00000E+00 0.00000E+00 0.00000E+00 0.00000E+00
 -1      3353 0.00000E+00 0.00000E+00 0.00000E+00 0.00000E+00 0.00000E+00 0.00000E+00
 -1      3354 0.00000E+00 0.00000E+00 0.00000E+00 0.00000E+00 0.00000E+00 0.00000E+00
 -1      3355 0.00000E+00 0.00000E+00 0.00000E+00 0.00000E+00 0.00000E+00 0.00000E+00
 -1      3356 0.00000E+00 0.00000E+00 0.00000E+00 0.00000E+00 0.00000E+00 0.00000E+00
 -1      3357 0.00000E+00 0.00000E+00 0.00000E+00 0.00000E+00 0.00000E+00 0.00000E+00
 -1      3358 0.00000E+00 0.00000E+00 0.00000E+00 0.00000E+00 0.00000E+00 0.00000E+00
 -1      3359 0.00000E+00 0.00000E+00 0.00000E+00 0.00000E+00 0.00000E+00 0.00000E+00
 -1      3360 0.00000E+00 0.00000E+00 0.00000E+00 0.00000E+00 0.00000E+00 0.00000E+00
 -1      3361 0.00000E+00 0.00000E+00 0.00000E+00 0.00000E+00 0.00000E+00 0.00000E+00
 -1      3362 0.00000E+00 0.00000E+00 0.00000E+00 0.00000E+00 0.00000E+00 0.00000E+00
 -1      3363 0.00000E+00 0.00000E+00 0.00000E+00 0.00000E+00 0.00000E+00 0.00000E+00
 -1      3364 0.00000E+00 0.00000E+00 0.00000E+00 0.00000E+00 0.00000E+00 0.00000E+00
 -1      3365 0.00000E+00 0.00000E+00 0.00000E+00 0.00000E+00 0.00000E+00 0.00000E+00
 -1      3366 0.00000E+00 0.00000E+00 0.00000E+00 0.00000E+00 0.00000E+00 0.00000E+00
 -1      3367 0.00000E+00 0.00000E+00 0.00000E+00 0.00000E+00 0.00000E+00 0.00000E+00
 -1      3368 0.00000E+00 0.00000E+00 0.00000E+00 0.00000E+00 0.00000E+00 0.00000E+00
 -1      3369 0.00000E+00 0.00000E+00 0.00000E+00 0.00000E+00 0.00000E+00 0.00000E+00
 -1      3370 0.00000E+00 0.00000E+00 0.00000E+00 0.00000E+00 0.00000E+00 0.00000E+00
 -1      3371 0.00000E+00 0.00000E+00 0.00000E+00 0.00000E+00 0.00000E+00 0.00000E+00
 -1      3372 0.00000E+00 0.00000E+00 0.00000E+00 0.00000E+00 0.00000E+00 0.00000E+00
 -1      3373 0.00000E+00 0.00000E+00 0.00000E+00 0.00000E+00 0.00000E+00 0.00000E+00
 -1      3374 0.00000E+00 0.00000E+00 0.00000E+00 0.00000E+00 0.00000E+00 0.00000E+00
 -1      3375 0.00000E+00 0.00000E+00 0.00000E+00 0.00000E+00 0.00000E+00 0.00000E+00
 -1      3376 0.00000E+00 0.00000E+00 0.00000E+00 0.00000E+00 0.00000E+00 0.00000E+00
 -1      3377 0.00000E+00 0.00000E+00 0.00000E+00 0.00000E+00 0.00000E+00 0.00000E+00
 -1      3378 0.00000E+00 0.00000E+00 0.00000E+00 0.00000E+00 0.00000E+00 0.00000E+00
 -1      3379 0.00000E+00 0.00000E+00 0.00000E+00 0.00000E+00 0.00000E+00 0.00000E+00
 -1      3380 0.00000E+00 0.00000E+00 0.00000E+00 0.00000E+00 0.00000E+00 0.00000E+00
 -1      3381 0.00000E+00 0.00000E+00 0.00000E+00 0.00000E+00 0.00000E+00 0.00000E+00
 -1      3382 0.00000E+00 0.00000E+00 0.00000E+00 0.00000E+00 0.00000E+00 0.00000E+00
 -1      3383 0.00000E+00 0.00000E+00 0.00000E+00 0.00000E+00 0.00000E+00 0.00000E+00
 -1      3384 0.00000E+00 0.00000E+00 0.00000E+00 0.00000E+00 0.00000E+00 0.00000E+00
 -1      3385 0.00000E+00 0.00000E+00 0.00000E+00 0.00000E+00 0.00000E+00 0.00000E+00
 -1      3386 0.00000E+00 0.00000E+00 0.00000E+00 0.00000E+00 0.00000E+00 0.00000E+00
 -1      3387 0.00000E+00 0.00000E+00 0.00000E+00 0.00000E+00 0.00000E+00 0.00000E+00
 -1      3388 0.00000E+00 0.00000E+00 0.00000E+00 0.00000E+00 0.00000E+00 0.00000E+00
 -1      3389 0.00000E+00 0.00000E+00 0.00000E+00 0.00000E+00 0.00000E+00 0.00000E+00
 -1      3390 0.00000E+00 0.00000E+00 0.00000E+00 0.00000E+00 0.00000E+00 0.00000E+00
 -1      3391 0.00000E+00 0.00000E+00 0.00000E+00 0.00000E+00 0.00000E+00 0.00000E+00
 -1      3392 0.00000E+00 0.00000E+00 0.00000E+00 0.00000E+00 0.00000E+00 0.00000E+00
 -1      3393 0.00000E+00 0.00000E+00 0.00000E+00 0.00000E+00 0.00000E+00 0.00000E+00
 -1      3394 0.00000E+00 0.00000E+00 0.00000E+00 0.00000E+00 0.00000E+00 0.00000E+00
 -1      3395 0.00000E+00 0.00000E+00 0.00000E+00 0.00000E+00 0.00000E+00 0.00000E+00
 -1      3396 0.00000E+00 0.00000E+00 0.00000E+00 0.00000E+00 0.00000E+00 0.00000E+00
 -1      3397 0.00000E+00 0.00000E+00 0.00000E+00 0.00000E+00 0.00000E+00 0.00000E+00
 -1      3398 0.00000E+00 0.00000E+00 0.00000E+00 0.00000E+00 0.00000E+00 0.00000E+00
 -1      3399 0.00000E+00 0.00000E+00 0.00000E+00 0.00000E+00 0.00000E+00 0.00000E+00
 -1      3400 0.00000E+00 0.00000E+00 0.00000E+00 0.00000E+00 0.00000E+00 0.00000E+00
 -1      3401 0.00000E+00 0.00000E+00 0.00000E+00 0.00000E+00 0.00000E+00 0.00000E+00
 -1      3402 0.00000E+00 0.00000E+00 0.00000E+00 0.00000E+00 0.00000E+00 0.00000E+00
 -1      3403 0.00000E+00 0.00000E+00 0.00000E+00 0.00000E+00 0.00000E+00 0.00000E+00
 -1      3404 0.00000E+00 0.00000E+00 0.00000E+00 0.00000E+00 0.00000E+00 0.00000E+00
 -1      3405 0.00000E+00 0.00000E+00 0.00000E+00 0.00000E+00 0.00000E+00 0.00000E+00
 -1      3406 0.00000E+00 0.00000E+00 0.00000E+00 0.00000E+00 0.00000E+00 0.00000E+00
 -1      3407 0.00000E+00 0.00000E+00 0.00000E+00 0.00000E+00 0.00000E+00 0.00000E+00
 -1      3408 0.00000E+00 0.00000E+00 0.00000E+00 0.00000E+00 0.00000E+00 0.00000E+00
 -1      3409 0.00000E+00 0.00000E+00 0.00000E+00 0.00000E+00 0.00000E+00 0.00000E+00
 -1      3410 0.00000E+00 0.00000E+00 0.00000E+00 0.00000E+00 0.00000E+00 0.00000E+00
 -1      3411 0.00000E+00 0.00000E+00 0.00000E+00 0.00000E+00 0.00000E+00 0.00000E+00
 -1      3412 0.00000E+00 0.00000E+00 0.00000E+00 0.00000E+00 0.00000E+00 0.00000E+00
 -1      3413 0.00000E+00 0.00000E+00 0.00000E+00 0.00000E+00 0.00000E+00 0.00000E+00
 -1      3414 0.00000E+00 0.00000E+00 0.00000E+00 0.00000E+00 0.00000E+00 0.00000E+00
 -1      3415 0.00000E+00 0.00000E+00 0.00000E+00 0.00000E+00 0.00000E+00 0.00000E+00
 -1      3416 0.00000E+00 0.00000E+00 0.00000E+00 0.00000E+00 0.00000E+00 0.00000E+00
 -1      3417 0.00000E+00 0.00000E+00 0.00000E+00 0.00000E+00 0.00000E+00 0.00000E+00
 -1      3418 0.00000E+00 0.00000E+00 0.00000E+00 0.00000E+00 0.00000E+00 0.00000E+00
 -1      3419 0.00000E+00 0.00000E+00 0.00000E+00 0.00000E+00 0.00000E+00 0.00000E+00
 -1      3420 0.00000E+00 0.00000E+00 0.00000E+00 0.00000E+00 0.00000E+00 0.00000E+00
 -1      3421 0.00000E+00 0.00000E+00 0.00000E+00 0.00000E+00 0.00000E+00 0.00000E+00
 -1      3422 0.00000E+00 0.00000E+00 0.00000E+00 0.00000E+00 0.00000E+00 0.00000E+00
 -1      3423 0.00000E+00 0.00000E+00 0.00000E+00 0.00000E+00 0.00000E+00 0.00000E+00
 -1      3424 0.00000E+00 0.00000E+00 0.00000E+00 0.00000E+00 0.00000E+00 0.00000E+00
 -1      3425 0.00000E+00 0.00000E+00 0.00000E+00 0.00000E+00 0.00000E+00 0.00000E+00
 -1      3426 0.00000E+00 0.00000E+00 0.00000E+00 0.00000E+00 0.00000E+00 0.00000E+00
 -1      3427 0.00000E+00 0.00000E+00 0.00000E+00 0.00000E+00 0.00000E+00 0.00000E+00
 -1      3428 0.00000E+00 0.00000E+00 0.00000E+00 0.00000E+00 0.00000E+00 0.00000E+00
 -1      3429 0.00000E+00 0.00000E+00 0.00000E+00 0.00000E+00 0.00000E+00 0.00000E+00
 -1      3430 0.00000E+00 0.00000E+00 0.00000E+00 0.00000E+00 0.00000E+00 0.00000E+00
 -1      3431 0.00000E+00 0.00000E+00 0.00000E+00 0.00000E+00 0.00000E+00 0.00000E+00
 -1      3432 0.00000E+00 0.00000E+00 0.00000E+00 0.00000E+00 0.00000E+00 0.00000E+00
 -1      3433 0.00000E+00 0.00000E+00 0.00000E+00 0.00000E+00 0.00000E+00 0.00000E+00
 -1      3434 0.00000E+00 0.00000E+00 0.00000E+00 0.00000E+00 0.00000E+00 0.00000E+00
 -1      3435 0.00000E+00 0.00000E+00 0.00000E+00 0.00000E+00 0.00000E+00 0.00000E+00
 -1      3436 0.00000E+00 0.00000E+00 0.00000E+00 0.00000E+00 0.00000E+00 0.00000E+00
 -1      3437 0.00000E+00 0.00000E+00 0.00000E+00 0.00000E+00 0.00000E+00 0.00000E+00
 -1      3438 0.00000E+00 0.00000E+00 0.00000E+00 0.00000E+00 0.00000E+00 0.00000E+00
 -1      3439 0.00000E+00 0.00000E+00 0.00000E+00 0.00000E+00 0.00000E+00 0.00000E+00
 -1      3440 0.00000E+00 0.00000E+00 0.00000E+00 0.00000E+00 0.00000E+00 0.00000E+00
 -1      3441 0.00000E+00 0.00000E+00 0.00000E+00 0.00000E+00 0.00000E+00 0.00000E+00
 -1      3442 0.00000E+00 0.00000E+00 0.00000E+00 0.00000E+00 0.00000E+00 0.00000E+00
 -1      3443 0.00000E+00 0.00000E+00 0.00000E+00 0.00000E+00 0.00000E+00 0.00000E+00
 -1      3444 0.00000E+00 0.00000E+00 0.00000E+00 0.00000E+00 0.00000E+00 0.00000E+00
 -1      3445 0.00000E+00 0.00000E+00 0.00000E+00 0.00000E+00 0.00000E+00 0.00000E+00
 -1      3446 0.00000E+00 0.00000E+00 0.00000E+00 0.00000E+00 0.00000E+00 0.00000E+00
 -1      3447 0.00000E+00 0.00000E+00 0.00000E+00 0.00000E+00 0.00000E+00 0.00000E+00
 -1      3448 0.00000E+00 0.00000E+00 0.00000E+00 0.00000E+00 0.00000E+00 0.00000E+00
 -1      3449 0.00000E+00 0.00000E+00 0.00000E+00 0.00000E+00 0.00000E+00 0.00000E+00
 -1      3450 0.00000E+00 0.00000E+00 0.00000E+00 0.00000E+00 0.00000E+00 0.00000E+00
 -1      3451 0.00000E+00 0.00000E+00 0.00000E+00 0.00000E+00 0.00000E+00 0.00000E+00
 -1      3452 0.00000E+00 0.00000E+00 0.00000E+00 0.00000E+00 0.00000E+00 0.00000E+00
 -1      3453 0.00000E+00 0.00000E+00 0.00000E+00 0.00000E+00 0.00000E+00 0.00000E+00
 -1      3454 0.00000E+00 0.00000E+00 0.00000E+00 0.00000E+00 0.00000E+00 0.00000E+00
 -1      3455 0.00000E+00 0.00000E+00 0.00000E+00 0.00000E+00 0.00000E+00 0.00000E+00
 -1      3456 0.00000E+00 0.00000E+00 0.00000E+00 0.00000E+00 0.00000E+00 0.00000E+00
 -1      3457 0.00000E+00 0.00000E+00 0.00000E+00 0.00000E+00 0.00000E+00 0.00000E+00
 -1      3458 0.00000E+00 0.00000E+00 0.00000E+00 0.00000E+00 0.00000E+00 0.00000E+00
 -1      3459 0.00000E+00 0.00000E+00 0.00000E+00 0.00000E+00 0.00000E+00 0.00000E+00
 -1      3460 0.00000E+00 0.00000E+00 0.00000E+00 0.00000E+00 0.00000E+00 0.00000E+00
 -1      3461 0.00000E+00 0.00000E+00 0.00000E+00 0.00000E+00 0.00000E+00 0.00000E+00
 -1      3462 0.00000E+00 0.00000E+00 0.00000E+00 0.00000E+00 0.00000E+00 0.00000E+00
 -1      3463 0.00000E+00 0.00000E+00 0.00000E+00 0.00000E+00 0.00000E+00 0.00000E+00
 -1      3464 0.00000E+00 0.00000E+00 0.00000E+00 0.00000E+00 0.00000E+00 0.00000E+00
 -1      3465 0.00000E+00 0.00000E+00 0.00000E+00 0.00000E+00 0.00000E+00 0.00000E+00
 -1      3466 0.00000E+00 0.00000E+00 0.00000E+00 0.00000E+00 0.00000E+00 0.00000E+00
 -1      3467 0.00000E+00 0.00000E+00 0.00000E+00 0.00000E+00 0.00000E+00 0.00000E+00
 -1      3468 0.00000E+00 0.00000E+00 0.00000E+00 0.00000E+00 0.00000E+00 0.00000E+00
 -1      3469 0.00000E+00 0.00000E+00 0.00000E+00 0.00000E+00 0.00000E+00 0.00000E+00
 -1      3470 0.00000E+00 0.00000E+00 0.00000E+00 0.00000E+00 0.00000E+00 0.00000E+00
 -1      3471 0.00000E+00 0.00000E+00 0.00000E+00 0.00000E+00 0.00000E+00 0.00000E+00
 -1      3472 0.00000E+00 0.00000E+00 0.00000E+00 0.00000E+00 0.00000E+00 0.00000E+00
 -1      3473 0.00000E+00 0.00000E+00 0.00000E+00 0.00000E+00 0.00000E+00 0.00000E+00
 -1      3474 0.00000E+00 0.00000E+00 0.00000E+00 0.00000E+00 0.00000E+00 0.00000E+00
 -1      3475 0.00000E+00 0.00000E+00 0.00000E+00 0.00000E+00 0.00000E+00 0.00000E+00
 -1      3476 0.00000E+00 0.00000E+00 0.00000E+00 0.00000E+00 0.00000E+00 0.00000E+00
 -1      3477 0.00000E+00 0.00000E+00 0.00000E+00 0.00000E+00 0.00000E+00 0.00000E+00
 -1      3478 0.00000E+00 0.00000E+00 0.00000E+00 0.00000E+00 0.00000E+00 0.00000E+00
 -1      3479 0.00000E+00 0.00000E+00 0.00000E+00 0.00000E+00 0.00000E+00 0.00000E+00
 -1      3480 0.00000E+00 0.00000E+00 0.00000E+00 0.00000E+00 0.00000E+00 0.00000E+00
 -1      3481 0.00000E+00 0.00000E+00 0.00000E+00 0.00000E+00 0.00000E+00 0.00000E+00
 -1      3482 0.00000E+00 0.00000E+00 0.00000E+00 0.00000E+00 0.00000E+00 0.00000E+00
 -1      3483 0.00000E+00 0.00000E+00 0.00000E+00 0.00000E+00 0.00000E+00 0.00000E+00
 -1      3484 0.00000E+00 0.00000E+00 0.00000E+00 0.00000E+00 0.00000E+00 0.00000E+00
 -1      3485 0.00000E+00 0.00000E+00 0.00000E+00 0.00000E+00 0.00000E+00 0.00000E+00
 -1      3486 0.00000E+00 0.00000E+00 0.00000E+00 0.00000E+00 0.00000E+00 0.00000E+00
 -1      3487 0.00000E+00 0.00000E+00 0.00000E+00 0.00000E+00 0.00000E+00 0.00000E+00
 -1      3488 0.00000E+00 0.00000E+00 0.00000E+00 0.00000E+00 0.00000E+00 0.00000E+00
 -1      3489 0.00000E+00 0.00000E+00 0.00000E+00 0.00000E+00 0.00000E+00 0.00000E+00
 -1      3490 0.00000E+00 0.00000E+00 0.00000E+00 0.00000E+00 0.00000E+00 0.00000E+00
 -1      3491 0.00000E+00 0.00000E+00 0.00000E+00 0.00000E+00 0.00000E+00 0.00000E+00
 -1      3492 0.00000E+00 0.00000E+00 0.00000E+00 0.00000E+00 0.00000E+00 0.00000E+00
 -1      3493 0.00000E+00 0.00000E+00 0.00000E+00 0.00000E+00 0.00000E+00 0.00000E+00
 -1      3494 0.00000E+00 0.00000E+00 0.00000E+00 0.00000E+00 0.00000E+00 0.00000E+00
 -1      3495 0.00000E+00 0.00000E+00 0.00000E+00 0.00000E+00 0.00000E+00 0.00000E+00
 -1      3496 0.00000E+00 0.00000E+00 0.00000E+00 0.00000E+00 0.00000E+00 0.00000E+00
 -1      3497 0.00000E+00 0.00000E+00 0.00000E+00 0.00000E+00 0.00000E+00 0.00000E+00
 -1      3498 0.00000E+00 0.00000E+00 0.00000E+00 0.00000E+00 0.00000E+00 0.00000E+00
 -1      3499 0.00000E+00 0.00000E+00 0.00000E+00 0.00000E+00 0.00000E+00 0.00000E+00
 -1      3500 0.00000E+00 0.00000E+00 0.00000E+00 0.00000E+00 0.00000E+00 0.00000E+00
 -1      3501 0.00000E+00 0.00000E+00 0.00000E+00 0.00000E+00 0.00000E+00 0.00000E+00
 -1      3502 0.00000E+00 0.00000E+00 0.00000E+00 0.00000E+00 0.00000E+00 0.00000E+00
 -1      3503 0.00000E+00 0.00000E+00 0.00000E+00 0.00000E+00 0.00000E+00 0.00000E+00
 -1      3504 0.00000E+00 0.00000E+00 0.00000E+00 0.00000E+00 0.00000E+00 0.00000E+00
 -1      3505 0.00000E+00 0.00000E+00 0.00000E+00 0.00000E+00 0.00000E+00 0.00000E+00
 -1      3506 0.00000E+00 0.00000E+00 0.00000E+00 0.00000E+00 0.00000E+00 0.00000E+00
 -1      3507 0.00000E+00 0.00000E+00 0.00000E+00 0.00000E+00 0.00000E+00 0.00000E+00
 -1      3508 0.00000E+00 0.00000E+00 0.00000E+00 0.00000E+00 0.00000E+00 0.00000E+00
 -1      3509 0.00000E+00 0.00000E+00 0.00000E+00 0.00000E+00 0.00000E+00 0.00000E+00
 -1      3510 0.00000E+00 0.00000E+00 0.00000E+00 0.00000E+00 0.00000E+00 0.00000E+00
 -1      3511 0.00000E+00 0.00000E+00 0.00000E+00 0.00000E+00 0.00000E+00 0.00000E+00
 -1      3512 0.00000E+00 0.00000E+00 0.00000E+00 0.00000E+00 0.00000E+00 0.00000E+00
 -1      3513 0.00000E+00 0.00000E+00 0.00000E+00 0.00000E+00 0.00000E+00 0.00000E+00
 -1      3514 0.00000E+00 0.00000E+00 0.00000E+00 0.00000E+00 0.00000E+00 0.00000E+00
 -1      3515 0.00000E+00 0.00000E+00 0.00000E+00 0.00000E+00 0.00000E+00 0.00000E+00
 -1      3516 0.00000E+00 0.00000E+00 0.00000E+00 0.00000E+00 0.00000E+00 0.00000E+00
 -1      3517 0.00000E+00 0.00000E+00 0.00000E+00 0.00000E+00 0.00000E+00 0.00000E+00
 -1      3518 0.00000E+00 0.00000E+00 0.00000E+00 0.00000E+00 0.00000E+00 0.00000E+00
 -1      3519 0.00000E+00 0.00000E+00 0.00000E+00 0.00000E+00 0.00000E+00 0.00000E+00
 -1      3520 0.00000E+00 0.00000E+00 0.00000E+00 0.00000E+00 0.00000E+00 0.00000E+00
 -1      3521 0.00000E+00 0.00000E+00 0.00000E+00 0.00000E+00 0.00000E+00 0.00000E+00
 -1      3522 0.00000E+00 0.00000E+00 0.00000E+00 0.00000E+00 0.00000E+00 0.00000E+00
 -1      3523 0.00000E+00 0.00000E+00 0.00000E+00 0.00000E+00 0.00000E+00 0.00000E+00
 -1      3524 0.00000E+00 0.00000E+00 0.00000E+00 0.00000E+00 0.00000E+00 0.00000E+00
 -1      3525 0.00000E+00 0.00000E+00 0.00000E+00 0.00000E+00 0.00000E+00 0.00000E+00
 -1      3526 0.00000E+00 0.00000E+00 0.00000E+00 0.00000E+00 0.00000E+00 0.00000E+00
 -1      3527 0.00000E+00 0.00000E+00 0.00000E+00 0.00000E+00 0.00000E+00 0.00000E+00
 -1      3528 0.00000E+00 0.00000E+00 0.00000E+00 0.00000E+00 0.00000E+00 0.00000E+00
 -1      3529 0.00000E+00 0.00000E+00 0.00000E+00 0.00000E+00 0.00000E+00 0.00000E+00
 -1      3530 0.00000E+00 0.00000E+00 0.00000E+00 0.00000E+00 0.00000E+00 0.00000E+00
 -1      3531 0.00000E+00 0.00000E+00 0.00000E+00 0.00000E+00 0.00000E+00 0.00000E+00
 -1      3532 0.00000E+00 0.00000E+00 0.00000E+00 0.00000E+00 0.00000E+00 0.00000E+00
 -1      3533 0.00000E+00 0.00000E+00 0.00000E+00 0.00000E+00 0.00000E+00 0.00000E+00
 -1      3534 0.00000E+00 0.00000E+00 0.00000E+00 0.00000E+00 0.00000E+00 0.00000E+00
 -1      3535 0.00000E+00 0.00000E+00 0.00000E+00 0.00000E+00 0.00000E+00 0.00000E+00
 -1      3536 0.00000E+00 0.00000E+00 0.00000E+00 0.00000E+00 0.00000E+00 0.00000E+00
 -1      3537 0.00000E+00 0.00000E+00 0.00000E+00 0.00000E+00 0.00000E+00 0.00000E+00
 -1      3538 0.00000E+00 0.00000E+00 0.00000E+00 0.00000E+00 0.00000E+00 0.00000E+00
 -1      3539 0.00000E+00 0.00000E+00 0.00000E+00 0.00000E+00 0.00000E+00 0.00000E+00
 -1      3540 0.00000E+00 0.00000E+00 0.00000E+00 0.00000E+00 0.00000E+00 0.00000E+00
 -1      3541 0.00000E+00 0.00000E+00 0.00000E+00 0.00000E+00 0.00000E+00 0.00000E+00
 -1      3542 0.00000E+00 0.00000E+00 0.00000E+00 0.00000E+00 0.00000E+00 0.00000E+00
 -1      3543 0.00000E+00 0.00000E+00 0.00000E+00 0.00000E+00 0.00000E+00 0.00000E+00
 -1      3544 0.00000E+00 0.00000E+00 0.00000E+00 0.00000E+00 0.00000E+00 0.00000E+00
 -1      3545 0.00000E+00 0.00000E+00 0.00000E+00 0.00000E+00 0.00000E+00 0.00000E+00
 -1      3546 0.00000E+00 0.00000E+00 0.00000E+00 0.00000E+00 0.00000E+00 0.00000E+00
 -1      3547 0.00000E+00 0.00000E+00 0.00000E+00 0.00000E+00 0.00000E+00 0.00000E+00
 -1      3548 0.00000E+00 0.00000E+00 0.00000E+00 0.00000E+00 0.00000E+00 0.00000E+00
 -1      3549 0.00000E+00 0.00000E+00 0.00000E+00 0.00000E+00 0.00000E+00 0.00000E+00
 -1      3550 0.00000E+00 0.00000E+00 0.00000E+00 0.00000E+00 0.00000E+00 0.00000E+00
 -1      3551 0.00000E+00 0.00000E+00 0.00000E+00 0.00000E+00 0.00000E+00 0.00000E+00
 -1      3552 0.00000E+00 0.00000E+00 0.00000E+00 0.00000E+00 0.00000E+00 0.00000E+00
 -1      3553 0.00000E+00 0.00000E+00 0.00000E+00 0.00000E+00 0.00000E+00 0.00000E+00
 -1      3554 0.00000E+00 0.00000E+00 0.00000E+00 0.00000E+00 0.00000E+00 0.00000E+00
 -1      3555 0.00000E+00 0.00000E+00 0.00000E+00 0.00000E+00 0.00000E+00 0.00000E+00
 -1      3556 0.00000E+00 0.00000E+00 0.00000E+00 0.00000E+00 0.00000E+00 0.00000E+00
 -1      3557 0.00000E+00 0.00000E+00 0.00000E+00 0.00000E+00 0.00000E+00 0.00000E+00
 -1      3558 0.00000E+00 0.00000E+00 0.00000E+00 0.00000E+00 0.00000E+00 0.00000E+00
 -1      3559 0.00000E+00 0.00000E+00 0.00000E+00 0.00000E+00 0.00000E+00 0.00000E+00
 -1      3560 0.00000E+00 0.00000E+00 0.00000E+00 0.00000E+00 0.00000E+00 0.00000E+00
 -1      3561 0.00000E+00 0.00000E+00 0.00000E+00 0.00000E+00 0.00000E+00 0.00000E+00
 -1      3562 0.00000E+00 0.00000E+00 0.00000E+00 0.00000E+00 0.00000E+00 0.00000E+00
 -1      3563 0.00000E+00 0.00000E+00 0.00000E+00 0.00000E+00 0.00000E+00 0.00000E+00
 -1      3564 0.00000E+00 0.00000E+00 0.00000E+00 0.00000E+00 0.00000E+00 0.00000E+00
 -1      3565 0.00000E+00 0.00000E+00 0.00000E+00 0.00000E+00 0.00000E+00 0.00000E+00
 -1      3566 0.00000E+00 0.00000E+00 0.00000E+00 0.00000E+00 0.00000E+00 0.00000E+00
 -1      3567 0.00000E+00 0.00000E+00 0.00000E+00 0.00000E+00 0.00000E+00 0.00000E+00
 -1      3568 0.00000E+00 0.00000E+00 0.00000E+00 0.00000E+00 0.00000E+00 0.00000E+00
 -1      3569 0.00000E+00 0.00000E+00 0.00000E+00 0.00000E+00 0.00000E+00 0.00000E+00
 -1      3570 0.00000E+00 0.00000E+00 0.00000E+00 0.00000E+00 0.00000E+00 0.00000E+00
 -1      3571 0.00000E+00 0.00000E+00 0.00000E+00 0.00000E+00 0.00000E+00 0.00000E+00
 -1      3572 0.00000E+00 0.00000E+00 0.00000E+00 0.00000E+00 0.00000E+00 0.00000E+00
 -1      3573 0.00000E+00 0.00000E+00 0.00000E+00 0.00000E+00 0.00000E+00 0.00000E+00
 -1      3574 0.00000E+00 0.00000E+00 0.00000E+00 0.00000E+00 0.00000E+00 0.00000E+00
 -1      3575 0.00000E+00 0.00000E+00 0.00000E+00 0.00000E+00 0.00000E+00 0.00000E+00
 -1      3576 0.00000E+00 0.00000E+00 0.00000E+00 0.00000E+00 0.00000E+00 0.00000E+00
 -1      3577 0.00000E+00 0.00000E+00 0.00000E+00 0.00000E+00 0.00000E+00 0.00000E+00
 -1      3578 0.00000E+00 0.00000E+00 0.00000E+00 0.00000E+00 0.00000E+00 0.00000E+00
 -1      3579 0.00000E+00 0.00000E+00 0.00000E+00 0.00000E+00 0.00000E+00 0.00000E+00
 -1      3580 0.00000E+00 0.00000E+00 0.00000E+00 0.00000E+00 0.00000E+00 0.00000E+00
 -1      3581 0.00000E+00 0.00000E+00 0.00000E+00 0.00000E+00 0.00000E+00 0.00000E+00
 -1      3582 0.00000E+00 0.00000E+00 0.00000E+00 0.00000E+00 0.00000E+00 0.00000E+00
 -1      3583 0.00000E+00 0.00000E+00 0.00000E+00 0.00000E+00 0.00000E+00 0.00000E+00
 -1      3584 0.00000E+00 0.00000E+00 0.00000E+00 0.00000E+00 0.00000E+00 0.00000E+00
 -1      3585 0.00000E+00 0.00000E+00 0.00000E+00 0.00000E+00 0.00000E+00 0.00000E+00
 -1      3586 0.00000E+00 0.00000E+00 0.00000E+00 0.00000E+00 0.00000E+00 0.00000E+00
 -1      3587 0.00000E+00 0.00000E+00 0.00000E+00 0.00000E+00 0.00000E+00 0.00000E+00
 -1      3588 0.00000E+00 0.00000E+00 0.00000E+00 0.00000E+00 0.00000E+00 0.00000E+00
 -1      3589 0.00000E+00 0.00000E+00 0.00000E+00 0.00000E+00 0.00000E+00 0.00000E+00
 -1      3590 0.00000E+00 0.00000E+00 0.00000E+00 0.00000E+00 0.00000E+00 0.00000E+00
 -1      3591 0.00000E+00 0.00000E+00 0.00000E+00 0.00000E+00 0.00000E+00 0.00000E+00
 -1      3592 0.00000E+00 0.00000E+00 0.00000E+00 0.00000E+00 0.00000E+00 0.00000E+00
 -1      3593 0.00000E+00 0.00000E+00 0.00000E+00 0.00000E+00 0.00000E+00 0.00000E+00
 -1      3594 0.00000E+00 0.00000E+00 0.00000E+00 0.00000E+00 0.00000E+00 0.00000E+00
 -1      3595 0.00000E+00 0.00000E+00 0.00000E+00 0.00000E+00 0.00000E+00 0.00000E+00
 -1      3596 0.00000E+00 0.00000E+00 0.00000E+00 0.00000E+00 0.00000E+00 0.00000E+00
 -1      3597 0.00000E+00 0.00000E+00 0.00000E+00 0.00000E+00 0.00000E+00 0.00000E+00
 -1      3598 0.00000E+00 0.00000E+00 0.00000E+00 0.00000E+00 0.00000E+00 0.00000E+00
 -1      3599 0.00000E+00 0.00000E+00 0.00000E+00 0.00000E+00 0.00000E+00 0.00000E+00
 -1      3600 0.00000E+00 0.00000E+00 0.00000E+00 0.00000E+00 0.00000E+00 0.00000E+00
 -1      3601 0.00000E+00 0.00000E+00 0.00000E+00 0.00000E+00 0.00000E+00 0.00000E+00
 -1      3602 0.00000E+00 0.00000E+00 0.00000E+00 0.00000E+00 0.00000E+00 0.00000E+00
 -1      3603 0.00000E+00 0.00000E+00 0.00000E+00 0.00000E+00 0.00000E+00 0.00000E+00
 -1      3604 0.00000E+00 0.00000E+00 0.00000E+00 0.00000E+00 0.00000E+00 0.00000E+00
 -1      3605 0.00000E+00 0.00000E+00 0.00000E+00 0.00000E+00 0.00000E+00 0.00000E+00
 -1      3606 0.00000E+00 0.00000E+00 0.00000E+00 0.00000E+00 0.00000E+00 0.00000E+00
 -1      3607 0.00000E+00 0.00000E+00 0.00000E+00 0.00000E+00 0.00000E+00 0.00000E+00
 -1      3608 0.00000E+00 0.00000E+00 0.00000E+00 0.00000E+00 0.00000E+00 0.00000E+00
 -1      3609 0.00000E+00 0.00000E+00 0.00000E+00 0.00000E+00 0.00000E+00 0.00000E+00
 -1      3610 0.00000E+00 0.00000E+00 0.00000E+00 0.00000E+00 0.00000E+00 0.00000E+00
 -1      3611 0.00000E+00 0.00000E+00 0.00000E+00 0.00000E+00 0.00000E+00 0.00000E+00
 -1      3612 0.00000E+00 0.00000E+00 0.00000E+00 0.00000E+00 0.00000E+00 0.00000E+00
 -1      3613 0.00000E+00 0.00000E+00 0.00000E+00 0.00000E+00 0.00000E+00 0.00000E+00
 -1      3614 0.00000E+00 0.00000E+00 0.00000E+00 0.00000E+00 0.00000E+00 0.00000E+00
 -1      3615 0.00000E+00 0.00000E+00 0.00000E+00 0.00000E+00 0.00000E+00 0.00000E+00
 -1      3616 0.00000E+00 0.00000E+00 0.00000E+00 0.00000E+00 0.00000E+00 0.00000E+00
 -1      3617 0.00000E+00 0.00000E+00 0.00000E+00 0.00000E+00 0.00000E+00 0.00000E+00
 -1      3618 0.00000E+00 0.00000E+00 0.00000E+00 0.00000E+00 0.00000E+00 0.00000E+00
 -1      3619 0.00000E+00 0.00000E+00 0.00000E+00 0.00000E+00 0.00000E+00 0.00000E+00
 -1      3620 0.00000E+00 0.00000E+00 0.00000E+00 0.00000E+00 0.00000E+00 0.00000E+00
 -1      3621 0.00000E+00 0.00000E+00 0.00000E+00 0.00000E+00 0.00000E+00 0.00000E+00
 -1      3622 0.00000E+00 0.00000E+00 0.00000E+00 0.00000E+00 0.00000E+00 0.00000E+00
 -1      3623 0.00000E+00 0.00000E+00 0.00000E+00 0.00000E+00 0.00000E+00 0.00000E+00
 -1      3624 0.00000E+00 0.00000E+00 0.00000E+00 0.00000E+00 0.00000E+00 0.00000E+00
 -1      3625 0.00000E+00 0.00000E+00 0.00000E+00 0.00000E+00 0.00000E+00 0.00000E+00
 -1      3626 0.00000E+00 0.00000E+00 0.00000E+00 0.00000E+00 0.00000E+00 0.00000E+00
 -1      3627 0.00000E+00 0.00000E+00 0.00000E+00 0.00000E+00 0.00000E+00 0.00000E+00
 -1      3628 0.00000E+00 0.00000E+00 0.00000E+00 0.00000E+00 0.00000E+00 0.00000E+00
 -1      3629 0.00000E+00 0.00000E+00 0.00000E+00 0.00000E+00 0.00000E+00 0.00000E+00
 -1      3630 0.00000E+00 0.00000E+00 0.00000E+00 0.00000E+00 0.00000E+00 0.00000E+00
 -1      3631 0.00000E+00 0.00000E+00 0.00000E+00 0.00000E+00 0.00000E+00 0.00000E+00
 -1      3632 0.00000E+00 0.00000E+00 0.00000E+00 0.00000E+00 0.00000E+00 0.00000E+00
 -1      3633 0.00000E+00 0.00000E+00 0.00000E+00 0.00000E+00 0.00000E+00 0.00000E+00
 -1      3634 0.00000E+00 0.00000E+00 0.00000E+00 0.00000E+00 0.00000E+00 0.00000E+00
 -1      3635 0.00000E+00 0.00000E+00 0.00000E+00 0.00000E+00 0.00000E+00 0.00000E+00
 -1      3636 0.00000E+00 0.00000E+00 0.00000E+00 0.00000E+00 0.00000E+00 0.00000E+00
 -1      3637 0.00000E+00 0.00000E+00 0.00000E+00 0.00000E+00 0.00000E+00 0.00000E+00
 -1      3638 0.00000E+00 0.00000E+00 0.00000E+00 0.00000E+00 0.00000E+00 0.00000E+00
 -1      3639 0.00000E+00 0.00000E+00 0.00000E+00 0.00000E+00 0.00000E+00 0.00000E+00
 -1      3640 0.00000E+00 0.00000E+00 0.00000E+00 0.00000E+00 0.00000E+00 0.00000E+00
 -1      3641 0.00000E+00 0.00000E+00 0.00000E+00 0.00000E+00 0.00000E+00 0.00000E+00
 -1      3642 0.00000E+00 0.00000E+00 0.00000E+00 0.00000E+00 0.00000E+00 0.00000E+00
 -1      3643 0.00000E+00 0.00000E+00 0.00000E+00 0.00000E+00 0.00000E+00 0.00000E+00
 -1      3644 0.00000E+00 0.00000E+00 0.00000E+00 0.00000E+00 0.00000E+00 0.00000E+00
 -1      3645 0.00000E+00 0.00000E+00 0.00000E+00 0.00000E+00 0.00000E+00 0.00000E+00
 -1      3646 0.00000E+00 0.00000E+00 0.00000E+00 0.00000E+00 0.00000E+00 0.00000E+00
 -1      3647 0.00000E+00 0.00000E+00 0.00000E+00 0.00000E+00 0.00000E+00 0.00000E+00
 -1      3648 0.00000E+00 0.00000E+00 0.00000E+00 0.00000E+00 0.00000E+00 0.00000E+00
 -1      3649 0.00000E+00 0.00000E+00 0.00000E+00 0.00000E+00 0.00000E+00 0.00000E+00
 -1      3650 0.00000E+00 0.00000E+00 0.00000E+00 0.00000E+00 0.00000E+00 0.00000E+00
 -1      3651 0.00000E+00 0.00000E+00 0.00000E+00 0.00000E+00 0.00000E+00 0.00000E+00
 -1      3652 0.00000E+00 0.00000E+00 0.00000E+00 0.00000E+00 0.00000E+00 0.00000E+00
 -1      3653 0.00000E+00 0.00000E+00 0.00000E+00 0.00000E+00 0.00000E+00 0.00000E+00
 -1      3654 0.00000E+00 0.00000E+00 0.00000E+00 0.00000E+00 0.00000E+00 0.00000E+00
 -1      3655 0.00000E+00 0.00000E+00 0.00000E+00 0.00000E+00 0.00000E+00 0.00000E+00
 -1      3656 0.00000E+00 0.00000E+00 0.00000E+00 0.00000E+00 0.00000E+00 0.00000E+00
 -1      3657 0.00000E+00 0.00000E+00 0.00000E+00 0.00000E+00 0.00000E+00 0.00000E+00
 -1      3658 0.00000E+00 0.00000E+00 0.00000E+00 0.00000E+00 0.00000E+00 0.00000E+00
 -1      3659 0.00000E+00 0.00000E+00 0.00000E+00 0.00000E+00 0.00000E+00 0.00000E+00
 -1      3660 0.00000E+00 0.00000E+00 0.00000E+00 0.00000E+00 0.00000E+00 0.00000E+00
 -1      3661 0.00000E+00 0.00000E+00 0.00000E+00 0.00000E+00 0.00000E+00 0.00000E+00
 -1      3662 0.00000E+00 0.00000E+00 0.00000E+00 0.00000E+00 0.00000E+00 0.00000E+00
 -1      3663 0.00000E+00 0.00000E+00 0.00000E+00 0.00000E+00 0.00000E+00 0.00000E+00
 -1      3664 0.00000E+00 0.00000E+00 0.00000E+00 0.00000E+00 0.00000E+00 0.00000E+00
 -1      3665 0.00000E+00 0.00000E+00 0.00000E+00 0.00000E+00 0.00000E+00 0.00000E+00
 -1      3666 0.00000E+00 0.00000E+00 0.00000E+00 0.00000E+00 0.00000E+00 0.00000E+00
 -1      3667 0.00000E+00 0.00000E+00 0.00000E+00 0.00000E+00 0.00000E+00 0.00000E+00
 -1      3668 0.00000E+00 0.00000E+00 0.00000E+00 0.00000E+00 0.00000E+00 0.00000E+00
 -1      3669 0.00000E+00 0.00000E+00 0.00000E+00 0.00000E+00 0.00000E+00 0.00000E+00
 -1      3670 0.00000E+00 0.00000E+00 0.00000E+00 0.00000E+00 0.00000E+00 0.00000E+00
 -1      3671 0.00000E+00 0.00000E+00 0.00000E+00 0.00000E+00 0.00000E+00 0.00000E+00
 -1      3672 0.00000E+00 0.00000E+00 0.00000E+00 0.00000E+00 0.00000E+00 0.00000E+00
 -1      3673 0.00000E+00 0.00000E+00 0.00000E+00 0.00000E+00 0.00000E+00 0.00000E+00
 -1      3674 0.00000E+00 0.00000E+00 0.00000E+00 0.00000E+00 0.00000E+00 0.00000E+00
 -1      3675 0.00000E+00 0.00000E+00 0.00000E+00 0.00000E+00 0.00000E+00 0.00000E+00
 -1      3676 0.00000E+00 0.00000E+00 0.00000E+00 0.00000E+00 0.00000E+00 0.00000E+00
 -1      3677 0.00000E+00 0.00000E+00 0.00000E+00 0.00000E+00 0.00000E+00 0.00000E+00
 -1      3678 0.00000E+00 0.00000E+00 0.00000E+00 0.00000E+00 0.00000E+00 0.00000E+00
 -1      3679 0.00000E+00 0.00000E+00 0.00000E+00 0.00000E+00 0.00000E+00 0.00000E+00
 -1      3680 0.00000E+00 0.00000E+00 0.00000E+00 0.00000E+00 0.00000E+00 0.00000E+00
 -1      3681 0.00000E+00 0.00000E+00 0.00000E+00 0.00000E+00 0.00000E+00 0.00000E+00
 -1      3682 0.00000E+00 0.00000E+00 0.00000E+00 0.00000E+00 0.00000E+00 0.00000E+00
 -1      3683 0.00000E+00 0.00000E+00 0.00000E+00 0.00000E+00 0.00000E+00 0.00000E+00
 -1      3684 0.00000E+00 0.00000E+00 0.00000E+00 0.00000E+00 0.00000E+00 0.00000E+00
 -1      3685 0.00000E+00 0.00000E+00 0.00000E+00 0.00000E+00 0.00000E+00 0.00000E+00
 -1      3686 0.00000E+00 0.00000E+00 0.00000E+00 0.00000E+00 0.00000E+00 0.00000E+00
 -1      3687 0.00000E+00 0.00000E+00 0.00000E+00 0.00000E+00 0.00000E+00 0.00000E+00
 -1      3688 0.00000E+00 0.00000E+00 0.00000E+00 0.00000E+00 0.00000E+00 0.00000E+00
 -1      3689 0.00000E+00 0.00000E+00 0.00000E+00 0.00000E+00 0.00000E+00 0.00000E+00
 -1      3690 0.00000E+00 0.00000E+00 0.00000E+00 0.00000E+00 0.00000E+00 0.00000E+00
 -1      3691 0.00000E+00 0.00000E+00 0.00000E+00 0.00000E+00 0.00000E+00 0.00000E+00
 -1      3692 0.00000E+00 0.00000E+00 0.00000E+00 0.00000E+00 0.00000E+00 0.00000E+00
 -1      3693 0.00000E+00 0.00000E+00 0.00000E+00 0.00000E+00 0.00000E+00 0.00000E+00
 -1      3694 0.00000E+00 0.00000E+00 0.00000E+00 0.00000E+00 0.00000E+00 0.00000E+00
 -1      3695 0.00000E+00 0.00000E+00 0.00000E+00 0.00000E+00 0.00000E+00 0.00000E+00
 -1      3696 0.00000E+00 0.00000E+00 0.00000E+00 0.00000E+00 0.00000E+00 0.00000E+00
 -1      3697 0.00000E+00 0.00000E+00 0.00000E+00 0.00000E+00 0.00000E+00 0.00000E+00
 -1      3698 0.00000E+00 0.00000E+00 0.00000E+00 0.00000E+00 0.00000E+00 0.00000E+00
 -1      3699 0.00000E+00 0.00000E+00 0.00000E+00 0.00000E+00 0.00000E+00 0.00000E+00
 -1      3700 0.00000E+00 0.00000E+00 0.00000E+00 0.00000E+00 0.00000E+00 0.00000E+00
 -1      3701 0.00000E+00 0.00000E+00 0.00000E+00 0.00000E+00 0.00000E+00 0.00000E+00
 -1      3702 0.00000E+00 0.00000E+00 0.00000E+00 0.00000E+00 0.00000E+00 0.00000E+00
 -1      3703 0.00000E+00 0.00000E+00 0.00000E+00 0.00000E+00 0.00000E+00 0.00000E+00
 -1      3704 0.00000E+00 0.00000E+00 0.00000E+00 0.00000E+00 0.00000E+00 0.00000E+00
 -1      3705 0.00000E+00 0.00000E+00 0.00000E+00 0.00000E+00 0.00000E+00 0.00000E+00
 -1      3706 0.00000E+00 0.00000E+00 0.00000E+00 0.00000E+00 0.00000E+00 0.00000E+00
 -1      3707 0.00000E+00 0.00000E+00 0.00000E+00 0.00000E+00 0.00000E+00 0.00000E+00
 -1      3708 0.00000E+00 0.00000E+00 0.00000E+00 0.00000E+00 0.00000E+00 0.00000E+00
 -1      3709 0.00000E+00 0.00000E+00 0.00000E+00 0.00000E+00 0.00000E+00 0.00000E+00
 -1      3710 0.00000E+00 0.00000E+00 0.00000E+00 0.00000E+00 0.00000E+00 0.00000E+00
 -1      3711 0.00000E+00 0.00000E+00 0.00000E+00 0.00000E+00 0.00000E+00 0.00000E+00
 -1      3712 0.00000E+00 0.00000E+00 0.00000E+00 0.00000E+00 0.00000E+00 0.00000E+00
 -1      3713 0.00000E+00 0.00000E+00 0.00000E+00 0.00000E+00 0.00000E+00 0.00000E+00
 -1      3714 0.00000E+00 0.00000E+00 0.00000E+00 0.00000E+00 0.00000E+00 0.00000E+00
 -1      3715 0.00000E+00 0.00000E+00 0.00000E+00 0.00000E+00 0.00000E+00 0.00000E+00
 -1      3716 0.00000E+00 0.00000E+00 0.00000E+00 0.00000E+00 0.00000E+00 0.00000E+00
 -1      3717 0.00000E+00 0.00000E+00 0.00000E+00 0.00000E+00 0.00000E+00 0.00000E+00
 -1      3718 0.00000E+00 0.00000E+00 0.00000E+00 0.00000E+00 0.00000E+00 0.00000E+00
 -1      3719 0.00000E+00 0.00000E+00 0.00000E+00 0.00000E+00 0.00000E+00 0.00000E+00
 -1      3720 0.00000E+00 0.00000E+00 0.00000E+00 0.00000E+00 0.00000E+00 0.00000E+00
 -1      3721 0.00000E+00 0.00000E+00 0.00000E+00 0.00000E+00 0.00000E+00 0.00000E+00
 -1      3722 0.00000E+00 0.00000E+00 0.00000E+00 0.00000E+00 0.00000E+00 0.00000E+00
 -1      3723 0.00000E+00 0.00000E+00 0.00000E+00 0.00000E+00 0.00000E+00 0.00000E+00
 -1      3724 0.00000E+00 0.00000E+00 0.00000E+00 0.00000E+00 0.00000E+00 0.00000E+00
 -1      3725 0.00000E+00 0.00000E+00 0.00000E+00 0.00000E+00 0.00000E+00 0.00000E+00
 -1      3726 0.00000E+00 0.00000E+00 0.00000E+00 0.00000E+00 0.00000E+00 0.00000E+00
 -1      3727 0.00000E+00 0.00000E+00 0.00000E+00 0.00000E+00 0.00000E+00 0.00000E+00
 -1      3728 0.00000E+00 0.00000E+00 0.00000E+00 0.00000E+00 0.00000E+00 0.00000E+00
 -1      3729 0.00000E+00 0.00000E+00 0.00000E+00 0.00000E+00 0.00000E+00 0.00000E+00
 -1      3730 0.00000E+00 0.00000E+00 0.00000E+00 0.00000E+00 0.00000E+00 0.00000E+00
 -1      3731 0.00000E+00 0.00000E+00 0.00000E+00 0.00000E+00 0.00000E+00 0.00000E+00
 -1      3732 0.00000E+00 0.00000E+00 0.00000E+00 0.00000E+00 0.00000E+00 0.00000E+00
 -1      3733 0.00000E+00 0.00000E+00 0.00000E+00 0.00000E+00 0.00000E+00 0.00000E+00
 -1      3734 0.00000E+00 0.00000E+00 0.00000E+00 0.00000E+00 0.00000E+00 0.00000E+00
 -1      3735 0.00000E+00 0.00000E+00 0.00000E+00 0.00000E+00 0.00000E+00 0.00000E+00
 -1      3736 0.00000E+00 0.00000E+00 0.00000E+00 0.00000E+00 0.00000E+00 0.00000E+00
 -1      3737 0.00000E+00 0.00000E+00 0.00000E+00 0.00000E+00 0.00000E+00 0.00000E+00
 -1      3738 0.00000E+00 0.00000E+00 0.00000E+00 0.00000E+00 0.00000E+00 0.00000E+00
 -1      3739 0.00000E+00 0.00000E+00 0.00000E+00 0.00000E+00 0.00000E+00 0.00000E+00
 -1      3740 0.00000E+00 0.00000E+00 0.00000E+00 0.00000E+00 0.00000E+00 0.00000E+00
 -1      3741 0.00000E+00 0.00000E+00 0.00000E+00 0.00000E+00 0.00000E+00 0.00000E+00
 -1      3742 0.00000E+00 0.00000E+00 0.00000E+00 0.00000E+00 0.00000E+00 0.00000E+00
 -1      3743 0.00000E+00 0.00000E+00 0.00000E+00 0.00000E+00 0.00000E+00 0.00000E+00
 -1      3744 0.00000E+00 0.00000E+00 0.00000E+00 0.00000E+00 0.00000E+00 0.00000E+00
 -1      3745 0.00000E+00 0.00000E+00 0.00000E+00 0.00000E+00 0.00000E+00 0.00000E+00
 -1      3746 0.00000E+00 0.00000E+00 0.00000E+00 0.00000E+00 0.00000E+00 0.00000E+00
 -1      3747 0.00000E+00 0.00000E+00 0.00000E+00 0.00000E+00 0.00000E+00 0.00000E+00
 -1      3748 0.00000E+00 0.00000E+00 0.00000E+00 0.00000E+00 0.00000E+00 0.00000E+00
 -1      3749 0.00000E+00 0.00000E+00 0.00000E+00 0.00000E+00 0.00000E+00 0.00000E+00
 -1      3750 0.00000E+00 0.00000E+00 0.00000E+00 0.00000E+00 0.00000E+00 0.00000E+00
 -1      3751 0.00000E+00 0.00000E+00 0.00000E+00 0.00000E+00 0.00000E+00 0.00000E+00
 -1      3752 0.00000E+00 0.00000E+00 0.00000E+00 0.00000E+00 0.00000E+00 0.00000E+00
 -1      3753 0.00000E+00 0.00000E+00 0.00000E+00 0.00000E+00 0.00000E+00 0.00000E+00
 -1      3754 0.00000E+00 0.00000E+00 0.00000E+00 0.00000E+00 0.00000E+00 0.00000E+00
 -1      3755 0.00000E+00 0.00000E+00 0.00000E+00 0.00000E+00 0.00000E+00 0.00000E+00
 -1      3756 0.00000E+00 0.00000E+00 0.00000E+00 0.00000E+00 0.00000E+00 0.00000E+00
 -1      3757 0.00000E+00 0.00000E+00 0.00000E+00 0.00000E+00 0.00000E+00 0.00000E+00
 -1      3758 0.00000E+00 0.00000E+00 0.00000E+00 0.00000E+00 0.00000E+00 0.00000E+00
 -1      3759 0.00000E+00 0.00000E+00 0.00000E+00 0.00000E+00 0.00000E+00 0.00000E+00
 -1      3760 0.00000E+00 0.00000E+00 0.00000E+00 0.00000E+00 0.00000E+00 0.00000E+00
 -1      3761 0.00000E+00 0.00000E+00 0.00000E+00 0.00000E+00 0.00000E+00 0.00000E+00
 -1      3762 0.00000E+00 0.00000E+00 0.00000E+00 0.00000E+00 0.00000E+00 0.00000E+00
 -1      3763 0.00000E+00 0.00000E+00 0.00000E+00 0.00000E+00 0.00000E+00 0.00000E+00
 -1      3764 0.00000E+00 0.00000E+00 0.00000E+00 0.00000E+00 0.00000E+00 0.00000E+00
 -1      3765 0.00000E+00 0.00000E+00 0.00000E+00 0.00000E+00 0.00000E+00 0.00000E+00
 -1      3766 0.00000E+00 0.00000E+00 0.00000E+00 0.00000E+00 0.00000E+00 0.00000E+00
 -1      3767 0.00000E+00 0.00000E+00 0.00000E+00 0.00000E+00 0.00000E+00 0.00000E+00
 -1      3768 0.00000E+00 0.00000E+00 0.00000E+00 0.00000E+00 0.00000E+00 0.00000E+00
 -1      3769 0.00000E+00 0.00000E+00 0.00000E+00 0.00000E+00 0.00000E+00 0.00000E+00
 -1      3770 0.00000E+00 0.00000E+00 0.00000E+00 0.00000E+00 0.00000E+00 0.00000E+00
 -1      3771 0.00000E+00 0.00000E+00 0.00000E+00 0.00000E+00 0.00000E+00 0.00000E+00
 -1      3772 0.00000E+00 0.00000E+00 0.00000E+00 0.00000E+00 0.00000E+00 0.00000E+00
 -1      3773 0.00000E+00 0.00000E+00 0.00000E+00 0.00000E+00 0.00000E+00 0.00000E+00
 -1      3774 0.00000E+00 0.00000E+00 0.00000E+00 0.00000E+00 0.00000E+00 0.00000E+00
 -1      3775 0.00000E+00 0.00000E+00 0.00000E+00 0.00000E+00 0.00000E+00 0.00000E+00
 -1      3776 0.00000E+00 0.00000E+00 0.00000E+00 0.00000E+00 0.00000E+00 0.00000E+00
 -1      3777 0.00000E+00 0.00000E+00 0.00000E+00 0.00000E+00 0.00000E+00 0.00000E+00
 -1      3778 0.00000E+00 0.00000E+00 0.00000E+00 0.00000E+00 0.00000E+00 0.00000E+00
 -1      3779 0.00000E+00 0.00000E+00 0.00000E+00 0.00000E+00 0.00000E+00 0.00000E+00
 -1      3780 0.00000E+00 0.00000E+00 0.00000E+00 0.00000E+00 0.00000E+00 0.00000E+00
 -1      3781 0.00000E+00 0.00000E+00 0.00000E+00 0.00000E+00 0.00000E+00 0.00000E+00
 -1      3782 0.00000E+00 0.00000E+00 0.00000E+00 0.00000E+00 0.00000E+00 0.00000E+00
 -1      3783 0.00000E+00 0.00000E+00 0.00000E+00 0.00000E+00 0.00000E+00 0.00000E+00
 -1      3784 0.00000E+00 0.00000E+00 0.00000E+00 0.00000E+00 0.00000E+00 0.00000E+00
 -1      3785 0.00000E+00 0.00000E+00 0.00000E+00 0.00000E+00 0.00000E+00 0.00000E+00
 -1      3786 0.00000E+00 0.00000E+00 0.00000E+00 0.00000E+00 0.00000E+00 0.00000E+00
 -1      3787 0.00000E+00 0.00000E+00 0.00000E+00 0.00000E+00 0.00000E+00 0.00000E+00
 -1      3788 0.00000E+00 0.00000E+00 0.00000E+00 0.00000E+00 0.00000E+00 0.00000E+00
 -1      3789 0.00000E+00 0.00000E+00 0.00000E+00 0.00000E+00 0.00000E+00 0.00000E+00
 -1      3790 0.00000E+00 0.00000E+00 0.00000E+00 0.00000E+00 0.00000E+00 0.00000E+00
 -1      3791 0.00000E+00 0.00000E+00 0.00000E+00 0.00000E+00 0.00000E+00 0.00000E+00
 -1      3792 0.00000E+00 0.00000E+00 0.00000E+00 0.00000E+00 0.00000E+00 0.00000E+00
 -1      3793 0.00000E+00 0.00000E+00 0.00000E+00 0.00000E+00 0.00000E+00 0.00000E+00
 -1      3794 0.00000E+00 0.00000E+00 0.00000E+00 0.00000E+00 0.00000E+00 0.00000E+00
 -1      3795 0.00000E+00 0.00000E+00 0.00000E+00 0.00000E+00 0.00000E+00 0.00000E+00
 -1      3796 0.00000E+00 0.00000E+00 0.00000E+00 0.00000E+00 0.00000E+00 0.00000E+00
 -1      3797 0.00000E+00 0.00000E+00 0.00000E+00 0.00000E+00 0.00000E+00 0.00000E+00
 -1      3798 0.00000E+00 0.00000E+00 0.00000E+00 0.00000E+00 0.00000E+00 0.00000E+00
 -1      3799 0.00000E+00 0.00000E+00 0.00000E+00 0.00000E+00 0.00000E+00 0.00000E+00
 -1      3800 0.00000E+00 0.00000E+00 0.00000E+00 0.00000E+00 0.00000E+00 0.00000E+00
 -1      3801 0.00000E+00 0.00000E+00 0.00000E+00 0.00000E+00 0.00000E+00 0.00000E+00
 -1      3802 0.00000E+00 0.00000E+00 0.00000E+00 0.00000E+00 0.00000E+00 0.00000E+00
 -1      3803 0.00000E+00 0.00000E+00 0.00000E+00 0.00000E+00 0.00000E+00 0.00000E+00
 -1      3804 0.00000E+00 0.00000E+00 0.00000E+00 0.00000E+00 0.00000E+00 0.00000E+00
 -1      3805 0.00000E+00 0.00000E+00 0.00000E+00 0.00000E+00 0.00000E+00 0.00000E+00
 -1      3806 0.00000E+00 0.00000E+00 0.00000E+00 0.00000E+00 0.00000E+00 0.00000E+00
 -1      3807 0.00000E+00 0.00000E+00 0.00000E+00 0.00000E+00 0.00000E+00 0.00000E+00
 -1      3808 0.00000E+00 0.00000E+00 0.00000E+00 0.00000E+00 0.00000E+00 0.00000E+00
 -1      3809 0.00000E+00 0.00000E+00 0.00000E+00 0.00000E+00 0.00000E+00 0.00000E+00
 -1      3810 0.00000E+00 0.00000E+00 0.00000E+00 0.00000E+00 0.00000E+00 0.00000E+00
 -1      3811 0.00000E+00 0.00000E+00 0.00000E+00 0.00000E+00 0.00000E+00 0.00000E+00
 -1      3812 0.00000E+00 0.00000E+00 0.00000E+00 0.00000E+00 0.00000E+00 0.00000E+00
 -1      3813 0.00000E+00 0.00000E+00 0.00000E+00 0.00000E+00 0.00000E+00 0.00000E+00
 -1      3814 0.00000E+00 0.00000E+00 0.00000E+00 0.00000E+00 0.00000E+00 0.00000E+00
 -1      3815 0.00000E+00 0.00000E+00 0.00000E+00 0.00000E+00 0.00000E+00 0.00000E+00
 -1      3816 0.00000E+00 0.00000E+00 0.00000E+00 0.00000E+00 0.00000E+00 0.00000E+00
 -1      3817 0.00000E+00 0.00000E+00 0.00000E+00 0.00000E+00 0.00000E+00 0.00000E+00
 -1      3818 0.00000E+00 0.00000E+00 0.00000E+00 0.00000E+00 0.00000E+00 0.00000E+00
 -1      3819 0.00000E+00 0.00000E+00 0.00000E+00 0.00000E+00 0.00000E+00 0.00000E+00
 -1      3820 0.00000E+00 0.00000E+00 0.00000E+00 0.00000E+00 0.00000E+00 0.00000E+00
 -1      3821 0.00000E+00 0.00000E+00 0.00000E+00 0.00000E+00 0.00000E+00 0.00000E+00
 -1      3822 0.00000E+00 0.00000E+00 0.00000E+00 0.00000E+00 0.00000E+00 0.00000E+00
 -1      3823 0.00000E+00 0.00000E+00 0.00000E+00 0.00000E+00 0.00000E+00 0.00000E+00
 -1      3824 0.00000E+00 0.00000E+00 0.00000E+00 0.00000E+00 0.00000E+00 0.00000E+00
 -1      3825 0.00000E+00 0.00000E+00 0.00000E+00 0.00000E+00 0.00000E+00 0.00000E+00
 -1      3826 0.00000E+00 0.00000E+00 0.00000E+00 0.00000E+00 0.00000E+00 0.00000E+00
 -1      3827 0.00000E+00 0.00000E+00 0.00000E+00 0.00000E+00 0.00000E+00 0.00000E+00
 -1      3828 0.00000E+00 0.00000E+00 0.00000E+00 0.00000E+00 0.00000E+00 0.00000E+00
 -1      3829 0.00000E+00 0.00000E+00 0.00000E+00 0.00000E+00 0.00000E+00 0.00000E+00
 -1      3830 0.00000E+00 0.00000E+00 0.00000E+00 0.00000E+00 0.00000E+00 0.00000E+00
 -1      3831 0.00000E+00 0.00000E+00 0.00000E+00 0.00000E+00 0.00000E+00 0.00000E+00
 -1      3832 0.00000E+00 0.00000E+00 0.00000E+00 0.00000E+00 0.00000E+00 0.00000E+00
 -1      3833 0.00000E+00 0.00000E+00 0.00000E+00 0.00000E+00 0.00000E+00 0.00000E+00
 -1      3834 0.00000E+00 0.00000E+00 0.00000E+00 0.00000E+00 0.00000E+00 0.00000E+00
 -1      3835 0.00000E+00 0.00000E+00 0.00000E+00 0.00000E+00 0.00000E+00 0.00000E+00
 -1      3836 0.00000E+00 0.00000E+00 0.00000E+00 0.00000E+00 0.00000E+00 0.00000E+00
 -1      3837 0.00000E+00 0.00000E+00 0.00000E+00 0.00000E+00 0.00000E+00 0.00000E+00
 -1      3838 0.00000E+00 0.00000E+00 0.00000E+00 0.00000E+00 0.00000E+00 0.00000E+00
 -1      3839 0.00000E+00 0.00000E+00 0.00000E+00 0.00000E+00 0.00000E+00 0.00000E+00
 -1      3840 0.00000E+00 0.00000E+00 0.00000E+00 0.00000E+00 0.00000E+00 0.00000E+00
 -1      3841 0.00000E+00 0.00000E+00 0.00000E+00 0.00000E+00 0.00000E+00 0.00000E+00
 -1      3842 0.00000E+00 0.00000E+00 0.00000E+00 0.00000E+00 0.00000E+00 0.00000E+00
 -1      3843 0.00000E+00 0.00000E+00 0.00000E+00 0.00000E+00 0.00000E+00 0.00000E+00
 -1      3844 0.00000E+00 0.00000E+00 0.00000E+00 0.00000E+00 0.00000E+00 0.00000E+00
 -1      3845 0.00000E+00 0.00000E+00 0.00000E+00 0.00000E+00 0.00000E+00 0.00000E+00
 -1      3846 0.00000E+00 0.00000E+00 0.00000E+00 0.00000E+00 0.00000E+00 0.00000E+00
 -1      3847 0.00000E+00 0.00000E+00 0.00000E+00 0.00000E+00 0.00000E+00 0.00000E+00
 -1      3848 0.00000E+00 0.00000E+00 0.00000E+00 0.00000E+00 0.00000E+00 0.00000E+00
 -1      3849 0.00000E+00 0.00000E+00 0.00000E+00 0.00000E+00 0.00000E+00 0.00000E+00
 -1      3850 0.00000E+00 0.00000E+00 0.00000E+00 0.00000E+00 0.00000E+00 0.00000E+00
 -1      3851 0.00000E+00 0.00000E+00 0.00000E+00 0.00000E+00 0.00000E+00 0.00000E+00
 -1      3852 0.00000E+00 0.00000E+00 0.00000E+00 0.00000E+00 0.00000E+00 0.00000E+00
 -1      3853 0.00000E+00 0.00000E+00 0.00000E+00 0.00000E+00 0.00000E+00 0.00000E+00
 -1      3854 0.00000E+00 0.00000E+00 0.00000E+00 0.00000E+00 0.00000E+00 0.00000E+00
 -1      3855 0.00000E+00 0.00000E+00 0.00000E+00 0.00000E+00 0.00000E+00 0.00000E+00
 -1      3856 0.00000E+00 0.00000E+00 0.00000E+00 0.00000E+00 0.00000E+00 0.00000E+00
 -1      3857 0.00000E+00 0.00000E+00 0.00000E+00 0.00000E+00 0.00000E+00 0.00000E+00
 -1      3858 0.00000E+00 0.00000E+00 0.00000E+00 0.00000E+00 0.00000E+00 0.00000E+00
 -1      3859 0.00000E+00 0.00000E+00 0.00000E+00 0.00000E+00 0.00000E+00 0.00000E+00
 -1      3860 0.00000E+00 0.00000E+00 0.00000E+00 0.00000E+00 0.00000E+00 0.00000E+00
 -1      3861 0.00000E+00 0.00000E+00 0.00000E+00 0.00000E+00 0.00000E+00 0.00000E+00
 -1      3862 0.00000E+00 0.00000E+00 0.00000E+00 0.00000E+00 0.00000E+00 0.00000E+00
 -1      3863 0.00000E+00 0.00000E+00 0.00000E+00 0.00000E+00 0.00000E+00 0.00000E+00
 -1      3864 0.00000E+00 0.00000E+00 0.00000E+00 0.00000E+00 0.00000E+00 0.00000E+00
 -1      3865 0.00000E+00 0.00000E+00 0.00000E+00 0.00000E+00 0.00000E+00 0.00000E+00
 -1      3866 0.00000E+00 0.00000E+00 0.00000E+00 0.00000E+00 0.00000E+00 0.00000E+00
 -1      3867 0.00000E+00 0.00000E+00 0.00000E+00 0.00000E+00 0.00000E+00 0.00000E+00
 -1      3868 0.00000E+00 0.00000E+00 0.00000E+00 0.00000E+00 0.00000E+00 0.00000E+00
 -1      3869 0.00000E+00 0.00000E+00 0.00000E+00 0.00000E+00 0.00000E+00 0.00000E+00
 -1      3870 0.00000E+00 0.00000E+00 0.00000E+00 0.00000E+00 0.00000E+00 0.00000E+00
 -1      3871 0.00000E+00 0.00000E+00 0.00000E+00 0.00000E+00 0.00000E+00 0.00000E+00
 -1      3872 0.00000E+00 0.00000E+00 0.00000E+00 0.00000E+00 0.00000E+00 0.00000E+00
 -1      3873 0.00000E+00 0.00000E+00 0.00000E+00 0.00000E+00 0.00000E+00 0.00000E+00
 -1      3874 0.00000E+00 0.00000E+00 0.00000E+00 0.00000E+00 0.00000E+00 0.00000E+00
 -1      3875 0.00000E+00 0.00000E+00 0.00000E+00 0.00000E+00 0.00000E+00 0.00000E+00
 -1      3876 0.00000E+00 0.00000E+00 0.00000E+00 0.00000E+00 0.00000E+00 0.00000E+00
 -1      3877 0.00000E+00 0.00000E+00 0.00000E+00 0.00000E+00 0.00000E+00 0.00000E+00
 -1      3878 0.00000E+00 0.00000E+00 0.00000E+00 0.00000E+00 0.00000E+00 0.00000E+00
 -1      3879 0.00000E+00 0.00000E+00 0.00000E+00 0.00000E+00 0.00000E+00 0.00000E+00
 -1      3880 0.00000E+00 0.00000E+00 0.00000E+00 0.00000E+00 0.00000E+00 0.00000E+00
 -1      3881 0.00000E+00 0.00000E+00 0.00000E+00 0.00000E+00 0.00000E+00 0.00000E+00
 -1      3882 0.00000E+00 0.00000E+00 0.00000E+00 0.00000E+00 0.00000E+00 0.00000E+00
 -1      3883 0.00000E+00 0.00000E+00 0.00000E+00 0.00000E+00 0.00000E+00 0.00000E+00
 -1      3884 0.00000E+00 0.00000E+00 0.00000E+00 0.00000E+00 0.00000E+00 0.00000E+00
 -1      3885 0.00000E+00 0.00000E+00 0.00000E+00 0.00000E+00 0.00000E+00 0.00000E+00
 -1      3886 0.00000E+00 0.00000E+00 0.00000E+00 0.00000E+00 0.00000E+00 0.00000E+00
 -1      3887 0.00000E+00 0.00000E+00 0.00000E+00 0.00000E+00 0.00000E+00 0.00000E+00
 -1      3888 0.00000E+00 0.00000E+00 0.00000E+00 0.00000E+00 0.00000E+00 0.00000E+00
 -1      3889 0.00000E+00 0.00000E+00 0.00000E+00 0.00000E+00 0.00000E+00 0.00000E+00
 -1      3890 0.00000E+00 0.00000E+00 0.00000E+00 0.00000E+00 0.00000E+00 0.00000E+00
 -1      3891 0.00000E+00 0.00000E+00 0.00000E+00 0.00000E+00 0.00000E+00 0.00000E+00
 -1      3892 0.00000E+00 0.00000E+00 0.00000E+00 0.00000E+00 0.00000E+00 0.00000E+00
 -1      3893 0.00000E+00 0.00000E+00 0.00000E+00 0.00000E+00 0.00000E+00 0.00000E+00
 -1      3894 0.00000E+00 0.00000E+00 0.00000E+00 0.00000E+00 0.00000E+00 0.00000E+00
 -1      3895 0.00000E+00 0.00000E+00 0.00000E+00 0.00000E+00 0.00000E+00 0.00000E+00
 -1      3896 0.00000E+00 0.00000E+00 0.00000E+00 0.00000E+00 0.00000E+00 0.00000E+00
 -1      3897 0.00000E+00 0.00000E+00 0.00000E+00 0.00000E+00 0.00000E+00 0.00000E+00
 -1      3898 0.00000E+00 0.00000E+00 0.00000E+00 0.00000E+00 0.00000E+00 0.00000E+00
 -1      3899 0.00000E+00 0.00000E+00 0.00000E+00 0.00000E+00 0.00000E+00 0.00000E+00
 -1      3900 0.00000E+00 0.00000E+00 0.00000E+00 0.00000E+00 0.00000E+00 0.00000E+00
 -1      3901 0.00000E+00 0.00000E+00 0.00000E+00 0.00000E+00 0.00000E+00 0.00000E+00
 -1      3902 0.00000E+00 0.00000E+00 0.00000E+00 0.00000E+00 0.00000E+00 0.00000E+00
 -1      3903 0.00000E+00 0.00000E+00 0.00000E+00 0.00000E+00 0.00000E+00 0.00000E+00
 -1      3904 0.00000E+00 0.00000E+00 0.00000E+00 0.00000E+00 0.00000E+00 0.00000E+00
 -1      3905 0.00000E+00 0.00000E+00 0.00000E+00 0.00000E+00 0.00000E+00 0.00000E+00
 -1      3906 0.00000E+00 0.00000E+00 0.00000E+00 0.00000E+00 0.00000E+00 0.00000E+00
 -1      3907 0.00000E+00 0.00000E+00 0.00000E+00 0.00000E+00 0.00000E+00 0.00000E+00
 -1      3908 0.00000E+00 0.00000E+00 0.00000E+00 0.00000E+00 0.00000E+00 0.00000E+00
 -1      3909 0.00000E+00 0.00000E+00 0.00000E+00 0.00000E+00 0.00000E+00 0.00000E+00
 -1      3910 0.00000E+00 0.00000E+00 0.00000E+00 0.00000E+00 0.00000E+00 0.00000E+00
 -1      3911 0.00000E+00 0.00000E+00 0.00000E+00 0.00000E+00 0.00000E+00 0.00000E+00
 -1      3912 0.00000E+00 0.00000E+00 0.00000E+00 0.00000E+00 0.00000E+00 0.00000E+00
 -1      3913 0.00000E+00 0.00000E+00 0.00000E+00 0.00000E+00 0.00000E+00 0.00000E+00
 -1      3914 0.00000E+00 0.00000E+00 0.00000E+00 0.00000E+00 0.00000E+00 0.00000E+00
 -1      3915 0.00000E+00 0.00000E+00 0.00000E+00 0.00000E+00 0.00000E+00 0.00000E+00
 -1      3916 0.00000E+00 0.00000E+00 0.00000E+00 0.00000E+00 0.00000E+00 0.00000E+00
 -1      3917 0.00000E+00 0.00000E+00 0.00000E+00 0.00000E+00 0.00000E+00 0.00000E+00
 -1      3918 0.00000E+00 0.00000E+00 0.00000E+00 0.00000E+00 0.00000E+00 0.00000E+00
 -1      3919 0.00000E+00 0.00000E+00 0.00000E+00 0.00000E+00 0.00000E+00 0.00000E+00
 -1      3920 0.00000E+00 0.00000E+00 0.00000E+00 0.00000E+00 0.00000E+00 0.00000E+00
 -1      3921 0.00000E+00 0.00000E+00 0.00000E+00 0.00000E+00 0.00000E+00 0.00000E+00
 -1      3922 0.00000E+00 0.00000E+00 0.00000E+00 0.00000E+00 0.00000E+00 0.00000E+00
 -1      3923 0.00000E+00 0.00000E+00 0.00000E+00 0.00000E+00 0.00000E+00 0.00000E+00
 -1      3924 0.00000E+00 0.00000E+00 0.00000E+00 0.00000E+00 0.00000E+00 0.00000E+00
 -1      3925 0.00000E+00 0.00000E+00 0.00000E+00 0.00000E+00 0.00000E+00 0.00000E+00
 -1      3926 0.00000E+00 0.00000E+00 0.00000E+00 0.00000E+00 0.00000E+00 0.00000E+00
 -1      3927 0.00000E+00 0.00000E+00 0.00000E+00 0.00000E+00 0.00000E+00 0.00000E+00
 -1      3928 0.00000E+00 0.00000E+00 0.00000E+00 0.00000E+00 0.00000E+00 0.00000E+00
 -1      3929 0.00000E+00 0.00000E+00 0.00000E+00 0.00000E+00 0.00000E+00 0.00000E+00
 -1      3930 0.00000E+00 0.00000E+00 0.00000E+00 0.00000E+00 0.00000E+00 0.00000E+00
 -1      3931 0.00000E+00 0.00000E+00 0.00000E+00 0.00000E+00 0.00000E+00 0.00000E+00
 -1      3932 0.00000E+00 0.00000E+00 0.00000E+00 0.00000E+00 0.00000E+00 0.00000E+00
 -1      3933 0.00000E+00 0.00000E+00 0.00000E+00 0.00000E+00 0.00000E+00 0.00000E+00
 -1      3934 0.00000E+00 0.00000E+00 0.00000E+00 0.00000E+00 0.00000E+00 0.00000E+00
 -1      3935 0.00000E+00 0.00000E+00 0.00000E+00 0.00000E+00 0.00000E+00 0.00000E+00
 -1      3936 0.00000E+00 0.00000E+00 0.00000E+00 0.00000E+00 0.00000E+00 0.00000E+00
 -1      3937 0.00000E+00 0.00000E+00 0.00000E+00 0.00000E+00 0.00000E+00 0.00000E+00
 -1      3938 0.00000E+00 0.00000E+00 0.00000E+00 0.00000E+00 0.00000E+00 0.00000E+00
 -1      3939 0.00000E+00 0.00000E+00 0.00000E+00 0.00000E+00 0.00000E+00 0.00000E+00
 -1      3940 0.00000E+00 0.00000E+00 0.00000E+00 0.00000E+00 0.00000E+00 0.00000E+00
 -1      3941 0.00000E+00 0.00000E+00 0.00000E+00 0.00000E+00 0.00000E+00 0.00000E+00
 -1      3942 0.00000E+00 0.00000E+00 0.00000E+00 0.00000E+00 0.00000E+00 0.00000E+00
 -1      3943 0.00000E+00 0.00000E+00 0.00000E+00 0.00000E+00 0.00000E+00 0.00000E+00
 -1      3944 0.00000E+00 0.00000E+00 0.00000E+00 0.00000E+00 0.00000E+00 0.00000E+00
 -1      3945 0.00000E+00 0.00000E+00 0.00000E+00 0.00000E+00 0.00000E+00 0.00000E+00
 -1      3946 0.00000E+00 0.00000E+00 0.00000E+00 0.00000E+00 0.00000E+00 0.00000E+00
 -1      3947 0.00000E+00 0.00000E+00 0.00000E+00 0.00000E+00 0.00000E+00 0.00000E+00
 -1      3948 0.00000E+00 0.00000E+00 0.00000E+00 0.00000E+00 0.00000E+00 0.00000E+00
 -1      3949 0.00000E+00 0.00000E+00 0.00000E+00 0.00000E+00 0.00000E+00 0.00000E+00
 -1      3950 0.00000E+00 0.00000E+00 0.00000E+00 0.00000E+00 0.00000E+00 0.00000E+00
 -1      3951 0.00000E+00 0.00000E+00 0.00000E+00 0.00000E+00 0.00000E+00 0.00000E+00
 -1      3952 0.00000E+00 0.00000E+00 0.00000E+00 0.00000E+00 0.00000E+00 0.00000E+00
 -1      3953 0.00000E+00 0.00000E+00 0.00000E+00 0.00000E+00 0.00000E+00 0.00000E+00
 -1      3954 0.00000E+00 0.00000E+00 0.00000E+00 0.00000E+00 0.00000E+00 0.00000E+00
 -1      3955 0.00000E+00 0.00000E+00 0.00000E+00 0.00000E+00 0.00000E+00 0.00000E+00
 -1      3956 0.00000E+00 0.00000E+00 0.00000E+00 0.00000E+00 0.00000E+00 0.00000E+00
 -1      3957 0.00000E+00 0.00000E+00 0.00000E+00 0.00000E+00 0.00000E+00 0.00000E+00
 -1      3958 0.00000E+00 0.00000E+00 0.00000E+00 0.00000E+00 0.00000E+00 0.00000E+00
 -1      3959 0.00000E+00 0.00000E+00 0.00000E+00 0.00000E+00 0.00000E+00 0.00000E+00
 -1      3960 0.00000E+00 0.00000E+00 0.00000E+00 0.00000E+00 0.00000E+00 0.00000E+00
 -1      3961 0.00000E+00 0.00000E+00 0.00000E+00 0.00000E+00 0.00000E+00 0.00000E+00
 -1      3962 0.00000E+00 0.00000E+00 0.00000E+00 0.00000E+00 0.00000E+00 0.00000E+00
 -1      3963 0.00000E+00 0.00000E+00 0.00000E+00 0.00000E+00 0.00000E+00 0.00000E+00
 -1      3964 0.00000E+00 0.00000E+00 0.00000E+00 0.00000E+00 0.00000E+00 0.00000E+00
 -1      3965 0.00000E+00 0.00000E+00 0.00000E+00 0.00000E+00 0.00000E+00 0.00000E+00
 -1      3966 0.00000E+00 0.00000E+00 0.00000E+00 0.00000E+00 0.00000E+00 0.00000E+00
 -1      3967 0.00000E+00 0.00000E+00 0.00000E+00 0.00000E+00 0.00000E+00 0.00000E+00
 -1      3968 0.00000E+00 0.00000E+00 0.00000E+00 0.00000E+00 0.00000E+00 0.00000E+00
 -1      3969 0.00000E+00 0.00000E+00 0.00000E+00 0.00000E+00 0.00000E+00 0.00000E+00
 -1      3970 0.00000E+00 0.00000E+00 0.00000E+00 0.00000E+00 0.00000E+00 0.00000E+00
 -1      3971 0.00000E+00 0.00000E+00 0.00000E+00 0.00000E+00 0.00000E+00 0.00000E+00
 -1      3972 0.00000E+00 0.00000E+00 0.00000E+00 0.00000E+00 0.00000E+00 0.00000E+00
 -1      3973 0.00000E+00 0.00000E+00 0.00000E+00 0.00000E+00 0.00000E+00 0.00000E+00
 -1      3974 0.00000E+00 0.00000E+00 0.00000E+00 0.00000E+00 0.00000E+00 0.00000E+00
 -1      3975 0.00000E+00 0.00000E+00 0.00000E+00 0.00000E+00 0.00000E+00 0.00000E+00
 -1      3976 0.00000E+00 0.00000E+00 0.00000E+00 0.00000E+00 0.00000E+00 0.00000E+00
 -1      3977 0.00000E+00 0.00000E+00 0.00000E+00 0.00000E+00 0.00000E+00 0.00000E+00
 -1      3978 0.00000E+00 0.00000E+00 0.00000E+00 0.00000E+00 0.00000E+00 0.00000E+00
 -1      3979 0.00000E+00 0.00000E+00 0.00000E+00 0.00000E+00 0.00000E+00 0.00000E+00
 -1      3980 0.00000E+00 0.00000E+00 0.00000E+00 0.00000E+00 0.00000E+00 0.00000E+00
 -1      3981 0.00000E+00 0.00000E+00 0.00000E+00 0.00000E+00 0.00000E+00 0.00000E+00
 -1      3982 0.00000E+00 0.00000E+00 0.00000E+00 0.00000E+00 0.00000E+00 0.00000E+00
 -1      3983 0.00000E+00 0.00000E+00 0.00000E+00 0.00000E+00 0.00000E+00 0.00000E+00
 -1      3984 0.00000E+00 0.00000E+00 0.00000E+00 0.00000E+00 0.00000E+00 0.00000E+00
 -1      3985 0.00000E+00 0.00000E+00 0.00000E+00 0.00000E+00 0.00000E+00 0.00000E+00
 -1      3986 0.00000E+00 0.00000E+00 0.00000E+00 0.00000E+00 0.00000E+00 0.00000E+00
 -1      3987 0.00000E+00 0.00000E+00 0.00000E+00 0.00000E+00 0.00000E+00 0.00000E+00
 -1      3988 0.00000E+00 0.00000E+00 0.00000E+00 0.00000E+00 0.00000E+00 0.00000E+00
 -1      3989 0.00000E+00 0.00000E+00 0.00000E+00 0.00000E+00 0.00000E+00 0.00000E+00
 -1      3990 0.00000E+00 0.00000E+00 0.00000E+00 0.00000E+00 0.00000E+00 0.00000E+00
 -1      3991 0.00000E+00 0.00000E+00 0.00000E+00 0.00000E+00 0.00000E+00 0.00000E+00
 -1      3992 0.00000E+00 0.00000E+00 0.00000E+00 0.00000E+00 0.00000E+00 0.00000E+00
 -1      3993 0.00000E+00 0.00000E+00 0.00000E+00 0.00000E+00 0.00000E+00 0.00000E+00
 -1      3994 0.00000E+00 0.00000E+00 0.00000E+00 0.00000E+00 0.00000E+00 0.00000E+00
 -1      3995 0.00000E+00 0.00000E+00 0.00000E+00 0.00000E+00 0.00000E+00 0.00000E+00
 -1      3996 0.00000E+00 0.00000E+00 0.00000E+00 0.00000E+00 0.00000E+00 0.00000E+00
 -1      3997 0.00000E+00 0.00000E+00 0.00000E+00 0.00000E+00 0.00000E+00 0.00000E+00
 -1      3998 0.00000E+00 0.00000E+00 0.00000E+00 0.00000E+00 0.00000E+00 0.00000E+00
 -1      3999 0.00000E+00 0.00000E+00 0.00000E+00 0.00000E+00 0.00000E+00 0.00000E+00
 -1      4000 0.00000E+00 0.00000E+00 0.00000E+00 0.00000E+00 0.00000E+00 0.00000E+00
 -1      4001 0.00000E+00 0.00000E+00 0.00000E+00 0.00000E+00 0.00000E+00 0.00000E+00
 -1      4002 0.00000E+00 0.00000E+00 0.00000E+00 0.00000E+00 0.00000E+00 0.00000E+00
 -1      4003 0.00000E+00 0.00000E+00 0.00000E+00 0.00000E+00 0.00000E+00 0.00000E+00
 -1      4004 0.00000E+00 0.00000E+00 0.00000E+00 0.00000E+00 0.00000E+00 0.00000E+00
 -1      4005 0.00000E+00 0.00000E+00 0.00000E+00 0.00000E+00 0.00000E+00 0.00000E+00
 -1      4006 0.00000E+00 0.00000E+00 0.00000E+00 0.00000E+00 0.00000E+00 0.00000E+00
 -1      4007 0.00000E+00 0.00000E+00 0.00000E+00 0.00000E+00 0.00000E+00 0.00000E+00
 -1      4008 0.00000E+00 0.00000E+00 0.00000E+00 0.00000E+00 0.00000E+00 0.00000E+00
 -1      4009 0.00000E+00 0.00000E+00 0.00000E+00 0.00000E+00 0.00000E+00 0.00000E+00
 -1      4010 0.00000E+00 0.00000E+00 0.00000E+00 0.00000E+00 0.00000E+00 0.00000E+00
 -1      4011 0.00000E+00 0.00000E+00 0.00000E+00 0.00000E+00 0.00000E+00 0.00000E+00
 -1      4012 0.00000E+00 0.00000E+00 0.00000E+00 0.00000E+00 0.00000E+00 0.00000E+00
 -1      4013 0.00000E+00 0.00000E+00 0.00000E+00 0.00000E+00 0.00000E+00 0.00000E+00
 -1      4014 0.00000E+00 0.00000E+00 0.00000E+00 0.00000E+00 0.00000E+00 0.00000E+00
 -1      4015 0.00000E+00 0.00000E+00 0.00000E+00 0.00000E+00 0.00000E+00 0.00000E+00
 -1      4016 0.00000E+00 0.00000E+00 0.00000E+00 0.00000E+00 0.00000E+00 0.00000E+00
 -1      4017 0.00000E+00 0.00000E+00 0.00000E+00 0.00000E+00 0.00000E+00 0.00000E+00
 -1      4018 0.00000E+00 0.00000E+00 0.00000E+00 0.00000E+00 0.00000E+00 0.00000E+00
 -1      4019 0.00000E+00 0.00000E+00 0.00000E+00 0.00000E+00 0.00000E+00 0.00000E+00
 -1      4020 0.00000E+00 0.00000E+00 0.00000E+00 0.00000E+00 0.00000E+00 0.00000E+00
 -1      4021 0.00000E+00 0.00000E+00 0.00000E+00 0.00000E+00 0.00000E+00 0.00000E+00
 -1      4022 0.00000E+00 0.00000E+00 0.00000E+00 0.00000E+00 0.00000E+00 0.00000E+00
 -1      4023 0.00000E+00 0.00000E+00 0.00000E+00 0.00000E+00 0.00000E+00 0.00000E+00
 -1      4024 0.00000E+00 0.00000E+00 0.00000E+00 0.00000E+00 0.00000E+00 0.00000E+00
 -1      4025 0.00000E+00 0.00000E+00 0.00000E+00 0.00000E+00 0.00000E+00 0.00000E+00
 -1      4026 0.00000E+00 0.00000E+00 0.00000E+00 0.00000E+00 0.00000E+00 0.00000E+00
 -1      4027 0.00000E+00 0.00000E+00 0.00000E+00 0.00000E+00 0.00000E+00 0.00000E+00
 -1      4028 0.00000E+00 0.00000E+00 0.00000E+00 0.00000E+00 0.00000E+00 0.00000E+00
 -1      4029 0.00000E+00 0.00000E+00 0.00000E+00 0.00000E+00 0.00000E+00 0.00000E+00
 -1      4030 0.00000E+00 0.00000E+00 0.00000E+00 0.00000E+00 0.00000E+00 0.00000E+00
 -1      4031 0.00000E+00 0.00000E+00 0.00000E+00 0.00000E+00 0.00000E+00 0.00000E+00
 -1      4032 0.00000E+00 0.00000E+00 0.00000E+00 0.00000E+00 0.00000E+00 0.00000E+00
 -1      4033 0.00000E+00 0.00000E+00 0.00000E+00 0.00000E+00 0.00000E+00 0.00000E+00
 -1      4034 0.00000E+00 0.00000E+00 0.00000E+00 0.00000E+00 0.00000E+00 0.00000E+00
 -1      4035 0.00000E+00 0.00000E+00 0.00000E+00 0.00000E+00 0.00000E+00 0.00000E+00
 -1      4036 0.00000E+00 0.00000E+00 0.00000E+00 0.00000E+00 0.00000E+00 0.00000E+00
 -1      4037 0.00000E+00 0.00000E+00 0.00000E+00 0.00000E+00 0.00000E+00 0.00000E+00
 -1      4038 0.00000E+00 0.00000E+00 0.00000E+00 0.00000E+00 0.00000E+00 0.00000E+00
 -1      4039 0.00000E+00 0.00000E+00 0.00000E+00 0.00000E+00 0.00000E+00 0.00000E+00
 -1      4040 0.00000E+00 0.00000E+00 0.00000E+00 0.00000E+00 0.00000E+00 0.00000E+00
 -1      4041 0.00000E+00 0.00000E+00 0.00000E+00 0.00000E+00 0.00000E+00 0.00000E+00
 -1      4042 0.00000E+00 0.00000E+00 0.00000E+00 0.00000E+00 0.00000E+00 0.00000E+00
 -1      4043 0.00000E+00 0.00000E+00 0.00000E+00 0.00000E+00 0.00000E+00 0.00000E+00
 -1      4044 0.00000E+00 0.00000E+00 0.00000E+00 0.00000E+00 0.00000E+00 0.00000E+00
 -1      4045 0.00000E+00 0.00000E+00 0.00000E+00 0.00000E+00 0.00000E+00 0.00000E+00
 -1      4046 0.00000E+00 0.00000E+00 0.00000E+00 0.00000E+00 0.00000E+00 0.00000E+00
 -1      4047 0.00000E+00 0.00000E+00 0.00000E+00 0.00000E+00 0.00000E+00 0.00000E+00
 -1      4048 0.00000E+00 0.00000E+00 0.00000E+00 0.00000E+00 0.00000E+00 0.00000E+00
 -1      4049 0.00000E+00 0.00000E+00 0.00000E+00 0.00000E+00 0.00000E+00 0.00000E+00
 -1      4050 0.00000E+00 0.00000E+00 0.00000E+00 0.00000E+00 0.00000E+00 0.00000E+00
 -1      4051 0.00000E+00 0.00000E+00 0.00000E+00 0.00000E+00 0.00000E+00 0.00000E+00
 -1      4052 0.00000E+00 0.00000E+00 0.00000E+00 0.00000E+00 0.00000E+00 0.00000E+00
 -1      4053 0.00000E+00 0.00000E+00 0.00000E+00 0.00000E+00 0.00000E+00 0.00000E+00
 -1      4054 0.00000E+00 0.00000E+00 0.00000E+00 0.00000E+00 0.00000E+00 0.00000E+00
 -1      4055 0.00000E+00 0.00000E+00 0.00000E+00 0.00000E+00 0.00000E+00 0.00000E+00
 -1      4056 0.00000E+00 0.00000E+00 0.00000E+00 0.00000E+00 0.00000E+00 0.00000E+00
 -1      4057 0.00000E+00 0.00000E+00 0.00000E+00 0.00000E+00 0.00000E+00 0.00000E+00
 -1      4058 0.00000E+00 0.00000E+00 0.00000E+00 0.00000E+00 0.00000E+00 0.00000E+00
 -1      4059 0.00000E+00 0.00000E+00 0.00000E+00 0.00000E+00 0.00000E+00 0.00000E+00
 -1      4060 0.00000E+00 0.00000E+00 0.00000E+00 0.00000E+00 0.00000E+00 0.00000E+00
 -1      4061 0.00000E+00 0.00000E+00 0.00000E+00 0.00000E+00 0.00000E+00 0.00000E+00
 -1      4062 0.00000E+00 0.00000E+00 0.00000E+00 0.00000E+00 0.00000E+00 0.00000E+00
 -1      4063 0.00000E+00 0.00000E+00 0.00000E+00 0.00000E+00 0.00000E+00 0.00000E+00
 -1      4064 0.00000E+00 0.00000E+00 0.00000E+00 0.00000E+00 0.00000E+00 0.00000E+00
 -1      4065 0.00000E+00 0.00000E+00 0.00000E+00 0.00000E+00 0.00000E+00 0.00000E+00
 -1      4066 0.00000E+00 0.00000E+00 0.00000E+00 0.00000E+00 0.00000E+00 0.00000E+00
 -1      4067 0.00000E+00 0.00000E+00 0.00000E+00 0.00000E+00 0.00000E+00 0.00000E+00
 -1      4068 0.00000E+00 0.00000E+00 0.00000E+00 0.00000E+00 0.00000E+00 0.00000E+00
 -1      4069 0.00000E+00 0.00000E+00 0.00000E+00 0.00000E+00 0.00000E+00 0.00000E+00
 -1      4070 0.00000E+00 0.00000E+00 0.00000E+00 0.00000E+00 0.00000E+00 0.00000E+00
 -1      4071 0.00000E+00 0.00000E+00 0.00000E+00 0.00000E+00 0.00000E+00 0.00000E+00
 -1      4072 0.00000E+00 0.00000E+00 0.00000E+00 0.00000E+00 0.00000E+00 0.00000E+00
 -1      4073 0.00000E+00 0.00000E+00 0.00000E+00 0.00000E+00 0.00000E+00 0.00000E+00
 -1      4074 0.00000E+00 0.00000E+00 0.00000E+00 0.00000E+00 0.00000E+00 0.00000E+00
 -1      4075 0.00000E+00 0.00000E+00 0.00000E+00 0.00000E+00 0.00000E+00 0.00000E+00
 -1      4076 0.00000E+00 0.00000E+00 0.00000E+00 0.00000E+00 0.00000E+00 0.00000E+00
 -1      4077 0.00000E+00 0.00000E+00 0.00000E+00 0.00000E+00 0.00000E+00 0.00000E+00
 -1      4078 0.00000E+00 0.00000E+00 0.00000E+00 0.00000E+00 0.00000E+00 0.00000E+00
 -1      4079 0.00000E+00 0.00000E+00 0.00000E+00 0.00000E+00 0.00000E+00 0.00000E+00
 -1      4080 0.00000E+00 0.00000E+00 0.00000E+00 0.00000E+00 0.00000E+00 0.00000E+00
 -1      4081 0.00000E+00 0.00000E+00 0.00000E+00 0.00000E+00 0.00000E+00 0.00000E+00
 -1      4082 0.00000E+00 0.00000E+00 0.00000E+00 0.00000E+00 0.00000E+00 0.00000E+00
 -1      4083 0.00000E+00 0.00000E+00 0.00000E+00 0.00000E+00 0.00000E+00 0.00000E+00
 -1      4084 0.00000E+00 0.00000E+00 0.00000E+00 0.00000E+00 0.00000E+00 0.00000E+00
 -1      4085 0.00000E+00 0.00000E+00 0.00000E+00 0.00000E+00 0.00000E+00 0.00000E+00
 -1      4086 0.00000E+00 0.00000E+00 0.00000E+00 0.00000E+00 0.00000E+00 0.00000E+00
 -1      4087 0.00000E+00 0.00000E+00 0.00000E+00 0.00000E+00 0.00000E+00 0.00000E+00
 -1      4088 0.00000E+00 0.00000E+00 0.00000E+00 0.00000E+00 0.00000E+00 0.00000E+00
 -1      4089 0.00000E+00 0.00000E+00 0.00000E+00 0.00000E+00 0.00000E+00 0.00000E+00
 -1      4090 0.00000E+00 0.00000E+00 0.00000E+00 0.00000E+00 0.00000E+00 0.00000E+00
 -1      4091 0.00000E+00 0.00000E+00 0.00000E+00 0.00000E+00 0.00000E+00 0.00000E+00
 -1      4092 0.00000E+00 0.00000E+00 0.00000E+00 0.00000E+00 0.00000E+00 0.00000E+00
 -1      4093 0.00000E+00 0.00000E+00 0.00000E+00 0.00000E+00 0.00000E+00 0.00000E+00
 -1      4094 0.00000E+00 0.00000E+00 0.00000E+00 0.00000E+00 0.00000E+00 0.00000E+00
 -1      4095 0.00000E+00 0.00000E+00 0.00000E+00 0.00000E+00 0.00000E+00 0.00000E+00
 -1      4096 0.00000E+00 0.00000E+00 0.00000E+00 0.00000E+00 0.00000E+00 0.00000E+00
 -1      4097 0.00000E+00 0.00000E+00 0.00000E+00 0.00000E+00 0.00000E+00 0.00000E+00
 -1      4098 0.00000E+00 0.00000E+00 0.00000E+00 0.00000E+00 0.00000E+00 0.00000E+00
 -1      4099 0.00000E+00 0.00000E+00 0.00000E+00 0.00000E+00 0.00000E+00 0.00000E+00
 -1      4100 0.00000E+00 0.00000E+00 0.00000E+00 0.00000E+00 0.00000E+00 0.00000E+00
 -1      4101 0.00000E+00 0.00000E+00 0.00000E+00 0.00000E+00 0.00000E+00 0.00000E+00
 -1      4102 0.00000E+00 0.00000E+00 0.00000E+00 0.00000E+00 0.00000E+00 0.00000E+00
 -1      4103 0.00000E+00 0.00000E+00 0.00000E+00 0.00000E+00 0.00000E+00 0.00000E+00
 -1      4104 0.00000E+00 0.00000E+00 0.00000E+00 0.00000E+00 0.00000E+00 0.00000E+00
 -1      4105 0.00000E+00 0.00000E+00 0.00000E+00 0.00000E+00 0.00000E+00 0.00000E+00
 -1      4106 0.00000E+00 0.00000E+00 0.00000E+00 0.00000E+00 0.00000E+00 0.00000E+00
 -1      4107 0.00000E+00 0.00000E+00 0.00000E+00 0.00000E+00 0.00000E+00 0.00000E+00
 -1      4108 0.00000E+00 0.00000E+00 0.00000E+00 0.00000E+00 0.00000E+00 0.00000E+00
 -1      4109 0.00000E+00 0.00000E+00 0.00000E+00 0.00000E+00 0.00000E+00 0.00000E+00
 -1      4110 0.00000E+00 0.00000E+00 0.00000E+00 0.00000E+00 0.00000E+00 0.00000E+00
 -1      4111 0.00000E+00 0.00000E+00 0.00000E+00 0.00000E+00 0.00000E+00 0.00000E+00
 -1      4112 0.00000E+00 0.00000E+00 0.00000E+00 0.00000E+00 0.00000E+00 0.00000E+00
 -1      4113 0.00000E+00 0.00000E+00 0.00000E+00 0.00000E+00 0.00000E+00 0.00000E+00
 -1      4114 0.00000E+00 0.00000E+00 0.00000E+00 0.00000E+00 0.00000E+00 0.00000E+00
 -1      4115 0.00000E+00 0.00000E+00 0.00000E+00 0.00000E+00 0.00000E+00 0.00000E+00
 -1      4116 0.00000E+00 0.00000E+00 0.00000E+00 0.00000E+00 0.00000E+00 0.00000E+00
 -1      4117 0.00000E+00 0.00000E+00 0.00000E+00 0.00000E+00 0.00000E+00 0.00000E+00
 -1      4118 0.00000E+00 0.00000E+00 0.00000E+00 0.00000E+00 0.00000E+00 0.00000E+00
 -1      4119 0.00000E+00 0.00000E+00 0.00000E+00 0.00000E+00 0.00000E+00 0.00000E+00
 -1      4120 0.00000E+00 0.00000E+00 0.00000E+00 0.00000E+00 0.00000E+00 0.00000E+00
 -1      4121 0.00000E+00 0.00000E+00 0.00000E+00 0.00000E+00 0.00000E+00 0.00000E+00
 -1      4122 0.00000E+00 0.00000E+00 0.00000E+00 0.00000E+00 0.00000E+00 0.00000E+00
 -1      4123 0.00000E+00 0.00000E+00 0.00000E+00 0.00000E+00 0.00000E+00 0.00000E+00
 -1      4124 0.00000E+00 0.00000E+00 0.00000E+00 0.00000E+00 0.00000E+00 0.00000E+00
 -1      4125 0.00000E+00 0.00000E+00 0.00000E+00 0.00000E+00 0.00000E+00 0.00000E+00
 -1      4126 0.00000E+00 0.00000E+00 0.00000E+00 0.00000E+00 0.00000E+00 0.00000E+00
 -1      4127 0.00000E+00 0.00000E+00 0.00000E+00 0.00000E+00 0.00000E+00 0.00000E+00
 -1      4128 0.00000E+00 0.00000E+00 0.00000E+00 0.00000E+00 0.00000E+00 0.00000E+00
 -1      4129 0.00000E+00 0.00000E+00 0.00000E+00 0.00000E+00 0.00000E+00 0.00000E+00
 -1      4130 0.00000E+00 0.00000E+00 0.00000E+00 0.00000E+00 0.00000E+00 0.00000E+00
 -1      4131 0.00000E+00 0.00000E+00 0.00000E+00 0.00000E+00 0.00000E+00 0.00000E+00
 -1      4132 0.00000E+00 0.00000E+00 0.00000E+00 0.00000E+00 0.00000E+00 0.00000E+00
 -1      4133 0.00000E+00 0.00000E+00 0.00000E+00 0.00000E+00 0.00000E+00 0.00000E+00
 -1      4134 0.00000E+00 0.00000E+00 0.00000E+00 0.00000E+00 0.00000E+00 0.00000E+00
 -1      4135 0.00000E+00 0.00000E+00 0.00000E+00 0.00000E+00 0.00000E+00 0.00000E+00
 -1      4136 0.00000E+00 0.00000E+00 0.00000E+00 0.00000E+00 0.00000E+00 0.00000E+00
 -1      4137 0.00000E+00 0.00000E+00 0.00000E+00 0.00000E+00 0.00000E+00 0.00000E+00
 -1      4138 0.00000E+00 0.00000E+00 0.00000E+00 0.00000E+00 0.00000E+00 0.00000E+00
 -1      4139 0.00000E+00 0.00000E+00 0.00000E+00 0.00000E+00 0.00000E+00 0.00000E+00
 -1      4140 0.00000E+00 0.00000E+00 0.00000E+00 0.00000E+00 0.00000E+00 0.00000E+00
 -1      4141 0.00000E+00 0.00000E+00 0.00000E+00 0.00000E+00 0.00000E+00 0.00000E+00
 -1      4142 0.00000E+00 0.00000E+00 0.00000E+00 0.00000E+00 0.00000E+00 0.00000E+00
 -1      4143 0.00000E+00 0.00000E+00 0.00000E+00 0.00000E+00 0.00000E+00 0.00000E+00
 -1      4144 0.00000E+00 0.00000E+00 0.00000E+00 0.00000E+00 0.00000E+00 0.00000E+00
 -1      4145 0.00000E+00 0.00000E+00 0.00000E+00 0.00000E+00 0.00000E+00 0.00000E+00
 -1      4146 0.00000E+00 0.00000E+00 0.00000E+00 0.00000E+00 0.00000E+00 0.00000E+00
 -1      4147 0.00000E+00 0.00000E+00 0.00000E+00 0.00000E+00 0.00000E+00 0.00000E+00
 -1      4148 0.00000E+00 0.00000E+00 0.00000E+00 0.00000E+00 0.00000E+00 0.00000E+00
 -1      4149 0.00000E+00 0.00000E+00 0.00000E+00 0.00000E+00 0.00000E+00 0.00000E+00
 -1      4150 0.00000E+00 0.00000E+00 0.00000E+00 0.00000E+00 0.00000E+00 0.00000E+00
 -1      4151 0.00000E+00 0.00000E+00 0.00000E+00 0.00000E+00 0.00000E+00 0.00000E+00
 -1      4152 0.00000E+00 0.00000E+00 0.00000E+00 0.00000E+00 0.00000E+00 0.00000E+00
 -1      4153 0.00000E+00 0.00000E+00 0.00000E+00 0.00000E+00 0.00000E+00 0.00000E+00
 -1      4154 0.00000E+00 0.00000E+00 0.00000E+00 0.00000E+00 0.00000E+00 0.00000E+00
 -1      4155 0.00000E+00 0.00000E+00 0.00000E+00 0.00000E+00 0.00000E+00 0.00000E+00
 -1      4156 0.00000E+00 0.00000E+00 0.00000E+00 0.00000E+00 0.00000E+00 0.00000E+00
 -1      4157 0.00000E+00 0.00000E+00 0.00000E+00 0.00000E+00 0.00000E+00 0.00000E+00
 -3
    1PSTEP                         5           1           1          
  100CL  101 1.000000000        4156                     0    1           1
 -4  ERROR       1    1
 -5  STR(%)      1    1    0    0
 -1         1 1.67899E+01
 -1         2 4.24079E+00
 -1         3 1.90345E+00
 -1         4 3.00537E-01
 -1         5 9.81974E-01
 -1         6 3.50850E+01
 -1         7 8.77805E-01
 -1         9 4.10858E+01
 -1        10 4.10858E+01
 -1        11 1.92667E+01
 -1        12 6.90163E+00
 -1        13 2.70945E+00
 -1        14 2.10505E+00
 -1        15 1.68912E+00
 -1        16 1.38212E+00
 -1        17 1.14422E+00
 -1        18 9.53125E-01
 -1        19 7.95127E-01
 -1        20 6.60945E-01
 -1        21 5.43654E-01
 -1        22 4.37530E-01
 -1        23 3.37312E-01
 -1        24 3.34260E-01
 -1        25 4.03013E-01
 -1        26 5.16644E-01
 -1        27 6.88490E-01
 -1        28 9.38132E-01
 -1        29 1.29435E+00
 -1        30 1.79487E+00
 -1        31 2.49453E+00
 -1        32 4.95941E+00
 -1        33 1.19918E+01
 -1        34 1.95287E+01
 -1        35 3.00076E+01
 -1        36 3.42679E+01
 -1        37 3.42679E+01
 -1        38 4.24079E+00
 -1        39 3.83515E+00
 -1        40 2.69224E+00
 -1        41 2.22626E+00
 -1        42 1.87356E+00
 -1        43 1.62714E+00
 -1        44 1.45075E+00
 -1        45 1.32262E+00
 -1        46 1.22890E+00
 -1        47 1.16111E+00
 -1        48 1.11427E+00
 -1        49 1.08572E+00
 -1        50 1.08123E+00
 -1        51 1.10772E+00
 -1        52 1.15727E+00
 -1        53 1.23480E+00
 -1        54 1.34693E+00
 -1        55 1.50061E+00
 -1        56 2.21695E+00
 -1        57 2.21695E+00
 -1        58 1.99259E+00
 -1        59 1.90445E+00
 -1        60 1.90632E+00
 -1        61 1.90942E+00
 -1        62 1.91277E+00
 -1        63 1.91637E+00
 -1        64 1.92023E+00
 -1        65 1.92436E+00
 -1        66 1.92877E+00
 -1        67 1.93350E+00
 -1        68 1.93857E+00
 -1        69 1.94406E+00
 -1        70 1.95007E+00
 -1        71 1.95678E+00
 -1        72 1.96447E+00
 -1        73 1.97356E+00
 -1        74 1.98467E+00
 -1        75 1.99867E+00
 -1        76 2.01684E+00
 -1        77 2.04095E+00
 -1        78 2.07349E+00
 -1        79 2.11796E+00
 -1        80 2.17927E+00
 -1        81 2.26444E+00
 -1        82 2.38379E+00
 -1        83 2.55351E+00
 -1        84 2.80159E+00
 -1        85 2.80159E+00
 -1        86 3.06720E-01
 -1        87 2.86114E-01
 -1        88 3.00537E-01
 -1        89 9.34691E-01
 -1        90 1.27013E+00
 -1        91 1.36576E+00
 -1        92 1.36576E+00
 -1        93 1.88284E+00
 -1        94 2.77138E+00
 -1        95 6.51698E+00
 -1        96 1.19154E+01
 -1        97 1.73347E+01
 -1        98 2.26779E+01
 -1        99 2.78615E+01
 -1       100 3.28138E+01
 -1       101 3.74456E+01
 -1       102 4.09642E+01
 -1       103 4.15317E+01
 -1       104 4.15317E+01
 -1       105 4.14895E+01
 -1       106 4.02076E+01
 -1       107 3.74583E+01
 -1       108 4.68780E+01
 -1       109 4.68780E+01
 -1       110 2.24652E+01
 -1       111 2.76672E+00
 -1       112 3.64603E+01
 -1       113 3.77884E+01
 -1       114 3.77884E+01
 -1       115 3.55744E+01
 -1       116 3.54720E+01
 -1       117 3.52371E+01
 -1       118 3.52120E+01
 -1       119 3.52491E+01
 -1       120 3.53171E+01
 -1       121 3.54118E+01
 -1       122 3.55292E+01
 -1       123 3.56689E+01
 -1       124 3.58300E+01
 -1       125 3.60116E+01
 -1       126 3.62120E+01
 -1       127 3.64278E+01
 -1       128 3.66528E+01
 -1       129 3.68755E+01
 -1       130 3.70770E+01
 -1       131 3.72252E+01
 -1       132 3.72766E+01
 -1       133 3.72766E+01
 -1       134 3.71442E+01
 -1       135 3.67978E+01
 -1       136 4.06140E+01
 -1       137 4.06140E+01
 -1       138 3.50850E+01
 -1       139 1.10059E+01
 -1       140 2.94185E+00
 -1       141 2.32181E+00
 -1       142 1.95455E+00
 -1       143 1.72148E+00
 -1       144 1.56462E+00
 -1       145 1.45427E+00
 -1       146 1.37425E+00
 -1       147 1.31510E+00
 -1       148 1.27083E+00
 -1       149 1.23728E+00
 -1       150 1.21114E+00
 -1       151 1.18943E+00
 -1       152 1.16905E+00
 -1       153 1.14629E+00
 -1       154 1.11638E+00
 -1       155 1.07291E+00
 -1       156 1.00697E+00
 -1       157 9.06546E-01
 -1       158 7.55836E-01
 -1       159 2.61552E+00
 -1       160 1.73078E+00
 -1       161 1.89282E+00
 -1       162 1.89282E+00
 -1       163 1.80809E+00
 -1       164 1.65391E+00
 -1       165 1.49959E+00
 -1       166 1.36688E+00
 -1       167 1.25656E+00
 -1       168 1.16528E+00
 -1       169 1.08886E+00
 -1       170 1.02362E+00
 -1       171 9.66474E-01
 -1       172 9.14822E-01
 -1       173 8.66383E-01
 -1       174 8.19013E-01
 -1       175 7.70543E-01
 -1       176 7.18600E-01
 -1       177 6.60416E-01
 -1       178 5.92579E-01
 -1       179 5.10719E-01
 -1       180 4.09069E-01
 -1       181 1.35771E+00
 -1       182 2.76672E+00
 -1       183 2.45602E+00
 -1       184 2.32197E+00
 -1       185 2.08640E+00
 -1       186 1.84075E+00
 -1       187 1.63240E+00
 -1       188 1.46239E+00
 -1       189 1.32584E+00
 -1       190 1.21569E+00
 -1       191 1.12560E+00
 -1       192 1.05040E+00
 -1       193 9.85953E-01
 -1       194 9.28918E-01
 -1       195 8.76493E-01
 -1       196 8.26162E-01
 -1       197 7.75488E-01
 -1       198 7.21907E-01
 -1       199 6.62510E-01
 -1       200 5.93786E-01
 -1       201 5.11293E-01
 -1       202 4.09223E-01
 -1       203 1.35771E+00
 -1       204 3.64603E+01
 -1       205 5.74828E+00
 -1       206 2.59377E+00
 -1       207 2.21677E+00
 -1       208 1.93595E+00
 -1       209 1.70890E+00
 -1       210 1.52414E+00
 -1       211 1.37492E+00
 -1       212 1.25391E+00
 -1       213 1.15486E+00
 -1       214 1.07245E+00
 -1       215 1.00232E+00
 -1       216 9.40870E-01
 -1       217 8.85045E-01
 -1       218 8.32114E-01
 -1       219 7.79466E-01
 -1       220 7.24398E-01
 -1       221 6.63896E-01
 -1       222 5.94371E-01
 -1       223 5.11325E-01
 -1       224 4.09223E-01
 -1       225 1.35722E+00
 -1       226 3.77884E+01
 -1       227 1.67549E+01
 -1       228 3.08499E+00
 -1       229 2.21677E+00
 -1       230 1.93595E+00
 -1       231 1.71405E+00
 -1       232 1.54269E+00
 -1       233 1.39722E+00
 -1       234 1.27537E+00
 -1       235 1.17345E+00
 -1       236 1.08757E+00
 -1       237 1.01405E+00
 -1       238 9.49595E-01
 -1       239 8.91253E-01
 -1       240 8.36284E-01
 -1       241 7.82027E-01
 -1       242 7.25720E-01
 -1       243 6.64292E-01
 -1       244 5.94371E-01
 -1       245 5.11325E-01
 -1       246 4.08920E-01
 -1       247 1.35498E+00
 -1       248 3.77884E+01
 -1       249 1.74332E+01
 -1       250 7.72199E+00
 -1       251 2.54146E+00
 -1       252 1.90986E+00
 -1       253 1.71405E+00
 -1       254 1.54269E+00
 -1       255 1.39722E+00
 -1       256 1.27673E+00
 -1       257 1.17877E+00
 -1       258 1.09377E+00
 -1       259 1.01965E+00
 -1       260 9.53993E-01
 -1       261 8.94288E-01
 -1       262 8.38033E-01
 -1       263 7.82670E-01
 -1       264 7.25720E-01
 -1       265 6.64292E-01
 -1       266 5.94104E-01
 -1       267 5.10627E-01
 -1       268 4.08013E-01
 -1       269 1.35046E+00
 -1       270 3.55744E+01
 -1       271 1.74332E+01
 -1       272 9.25416E+00
 -1       273 3.08317E+00
 -1       274 2.15027E+00
 -1       275 1.64213E+00
 -1       276 1.51329E+00
 -1       277 1.38873E+00
 -1       278 1.27673E+00
 -1       279 1.17877E+00
 -1       280 1.09377E+00
 -1       281 1.01965E+00
 -1       282 9.53993E-01
 -1       283 8.94288E-01
 -1       284 8.38033E-01
 -1       285 7.82670E-01
 -1       286 7.25470E-01
 -1       287 6.63365E-01
 -1       288 5.92712E-01
 -1       289 5.08974E-01
 -1       290 4.06323E-01
 -1       291 1.34301E+00
 -1       292 3.54720E+01
 -1       293 1.72172E+01
 -1       294 9.66215E+00
 -1       295 4.53383E+00
 -1       296 2.56742E+00
 -1       297 1.86585E+00
 -1       298 1.43559E+00
 -1       299 1.34750E+00
 -1       300 1.25572E+00
 -1       301 1.16867E+00
 -1       302 1.08924E+00
 -1       303 1.01767E+00
 -1       304 9.52897E-01
 -1       305 8.93233E-01
 -1       306 8.36636E-01
 -1       307 7.80810E-01
 -1       308 7.23170E-01
 -1       309 6.60721E-01
 -1       310 5.89863E-01
 -1       311 5.06092E-01
 -1       312 4.03630E-01
 -1       313 1.33185E+00
 -1       314 3.52371E+01
 -1       315 1.67554E+01
 -1       316 9.70159E+00
 -1       317 5.29382E+00
 -1       318 2.82696E+00
 -1       319 2.21671E+00
 -1       320 1.65412E+00
 -1       321 1.27436E+00
 -1       322 1.21145E+00
 -1       323 1.14175E+00
 -1       324 1.07251E+00
 -1       325 1.00675E+00
 -1       326 9.45151E-01
 -1       327 8.87120E-01
 -1       328 8.31292E-01
 -1       329 7.75785E-01
 -1       330 7.18266E-01
 -1       331 6.55893E-01
 -1       332 5.85166E-01
 -1       333 5.01654E-01
 -1       334 3.99671E-01
 -1       335 1.31603E+00
 -1       336 3.52120E+01
 -1       337 1.63024E+01
 -1       338 9.70159E+00
 -1       339 5.62398E+00
 -1       340 2.98301E+00
 -1       341 2.46129E+00
 -1       342 1.96247E+00
 -1       343 1.49071E+00
 -1       344 1.14475E+00
 -1       345 1.09749E+00
 -1       346 1.04259E+00
 -1       347 9.85789E-01
 -1       348 9.29694E-01
 -1       349 8.74989E-01
 -1       350 8.21157E-01
 -1       351 7.66864E-01
 -1       352 7.10128E-01
 -1       353 6.48339E-01
 -1       354 5.78154E-01
 -1       355 4.95266E-01
 -1       356 3.94129E-01
 -1       357 1.29442E+00
 -1       358 3.52491E+01
 -1       359 1.58939E+01
 -1       360 9.55127E+00
 -1       361 5.72817E+00
 -1       362 3.07255E+00
 -1       363 2.62573E+00
 -1       364 2.19320E+00
 -1       365 1.76896E+00
 -1       366 1.36023E+00
 -1       367 1.03968E+00
 -1       368 9.99086E-01
 -1       369 9.54011E-01
 -1       370 9.05622E-01
 -1       371 8.55936E-01
 -1       372 8.05381E-01
 -1       373 7.53270E-01
 -1       374 6.98061E-01
 -1       375 6.37443E-01
 -1       376 5.68291E-01
 -1       377 4.86471E-01
 -1       378 3.86629E-01
 -1       379 1.26569E+00
 -1       380 3.53171E+01
 -1       381 1.55338E+01
 -1       382 9.34242E+00
 -1       383 5.72817E+00
 -1       384 3.21289E+00
 -1       385 2.73264E+00
 -1       386 2.36000E+00
 -1       387 1.98774E+00
 -1       388 1.61594E+00
 -1       389 1.25277E+00
 -1       390 9.55537E-01
 -1       391 9.11047E-01
 -1       392 8.72253E-01
 -1       393 8.29162E-01
 -1       394 7.83142E-01
 -1       395 7.34206E-01
 -1       396 6.81315E-01
 -1       397 6.22519E-01
 -1       398 5.54962E-01
 -1       399 4.74735E-01
 -1       400 3.76734E-01
 -1       401 1.22831E+00
 -1       402 3.54118E+01
 -1       403 1.52184E+01
 -1       404 9.10888E+00
 -1       405 5.70451E+00
 -1       406 3.32748E+00
 -1       407 2.79899E+00
 -1       408 2.47685E+00
 -1       409 2.15403E+00
 -1       410 1.82447E+00
 -1       411 1.49089E+00
 -1       412 1.16165E+00
 -1       413 8.79610E-01
 -1       414 8.29204E-01
 -1       415 7.94022E-01
 -1       416 7.53682E-01
 -1       417 7.08880E-01
 -1       418 6.59109E-01
 -1       419 6.02820E-01
 -1       420 5.37478E-01
 -1       421 4.59446E-01
 -1       422 3.63935E-01
 -1       423 1.18049E+00
 -1       424 3.55292E+01
 -1       425 1.49366E+01
 -1       426 8.87262E+00
 -1       427 5.60990E+00
 -1       428 3.34261E+00
 -1       429 2.83676E+00
 -1       430 2.55565E+00
 -1       431 2.27652E+00
 -1       432 1.98891E+00
 -1       433 1.69060E+00
 -1       434 1.38558E+00
 -1       435 1.08220E+00
 -1       436 8.08672E-01
 -1       437 7.50083E-01
 -1       438 7.16348E-01
 -1       439 6.76534E-01
 -1       440 6.30642E-01
 -1       441 5.77552E-01
 -1       442 5.15082E-01
 -1       443 4.39921E-01
 -1       444 3.47655E-01
 -1       445 1.12028E+00
 -1       446 3.56689E+01
 -1       447 1.46808E+01
 -1       448 8.63876E+00
 -1       449 5.47350E+00
 -1       450 3.34261E+00
 -1       451 2.85410E+00
 -1       452 2.60564E+00
 -1       453 2.36349E+00
 -1       454 2.11441E+00
 -1       455 1.85250E+00
 -1       456 1.57758E+00
 -1       457 1.29431E+00
 -1       458 1.01102E+00
 -1       459 7.40102E-01
 -1       460 6.70634E-01
 -1       461 6.36467E-01
 -1       462 5.95121E-01
 -1       463 5.45883E-01
 -1       464 4.86956E-01
 -1       465 4.15398E-01
 -1       466 3.27246E-01
 -1       467 1.04549E+00
 -1       468 3.58300E+01
 -1       469 1.44428E+01
 -1       470 8.40832E+00
 -1       471 5.31099E+00
 -1       472 3.29039E+00
 -1       473 2.85641E+00
 -1       474 2.63365E+00
 -1       475 2.42198E+00
 -1       476 2.20664E+00
 -1       477 1.97932E+00
 -1       478 1.73659E+00
 -1       479 1.47944E+00
 -1       480 1.21293E+00
 -1       481 9.45490E-01
 -1       482 6.87606E-01
 -1       483 5.88081E-01
 -1       484 5.51772E-01
 -1       485 5.06959E-01
 -1       486 4.52226E-01
 -1       487 3.85050E-01
 -1       488 3.01991E-01
 -1       489 9.53826E-01
 -1       490 3.60116E+01
 -1       491 1.42162E+01
 -1       492 8.17891E+00
 -1       493 5.12957E+00
 -1       494 3.18982E+00
 -1       495 2.85641E+00
 -1       496 2.64447E+00
 -1       497 2.45751E+00
 -1       498 2.27084E+00
 -1       499 2.07474E+00
 -1       500 1.86356E+00
 -1       501 1.63532E+00
 -1       502 1.39175E+00
 -1       503 1.13827E+00
 -1       504 8.83520E-01
 -1       505 6.38248E-01
 -1       506 4.99880E-01
 -1       507 4.59917E-01
 -1       508 4.09973E-01
 -1       509 3.47983E-01
 -1       510 2.71113E-01
 -1       511 8.42872E-01
 -1       512 3.62120E+01
 -1       513 1.39946E+01
 -1       514 7.94666E+00
 -1       515 4.93154E+00
 -1       516 3.09124E+00
 -1       517 2.84714E+00
 -1       518 2.64447E+00
 -1       519 2.47418E+00
 -1       520 2.31136E+00
 -1       521 2.14248E+00
 -1       522 1.96055E+00
 -1       523 1.76149E+00
 -1       524 1.54422E+00
 -1       525 1.31102E+00
 -1       526 1.06770E+00
 -1       527 8.23281E-01
 -1       528 5.89008E-01
 -1       529 4.03910E-01
 -1       530 3.59245E-01
 -1       531 3.03246E-01
 -1       532 2.33778E-01
 -1       533 7.10213E-01
 -1       534 3.64278E+01
 -1       535 1.37721E+01
 -1       536 7.70649E+00
 -1       537 4.71583E+00
 -1       538 3.06075E+00
 -1       539 2.82830E+00
 -1       540 2.64130E+00
 -1       541 2.47475E+00
 -1       542 2.33151E+00
 -1       543 2.18581E+00
 -1       544 2.03000E+00
 -1       545 1.85869E+00
 -1       546 1.66875E+00
 -1       547 1.45971E+00
 -1       548 1.23434E+00
 -1       549 9.98900E-01
 -1       550 7.63008E-01
 -1       551 5.38657E-01
 -1       552 3.38764E-01
 -1       553 2.49838E-01
 -1       554 1.89101E-01
 -1       555 5.53463E-01
 -1       556 3.66528E+01
 -1       557 1.35425E+01
 -1       558 7.45232E+00
 -1       559 4.47887E+00
 -1       560 3.02446E+00
 -1       561 2.80088E+00
 -1       562 2.62606E+00
 -1       563 2.47475E+00
 -1       564 2.33355E+00
 -1       565 2.20725E+00
 -1       566 2.07416E+00
 -1       567 1.92819E+00
 -1       568 1.76488E+00
 -1       569 1.58171E+00
 -1       570 1.37868E+00
 -1       571 1.15900E+00
 -1       572 9.29536E-01
 -1       573 7.00695E-01
 -1       574 4.85457E-01
 -1       575 2.97783E-01
 -1       576 1.52808E-01
 -1       577 4.29008E-01
 -1       578 3.68755E+01
 -1       579 1.32990E+01
 -1       580 7.17694E+00
 -1       581 4.21492E+00
 -1       582 2.98185E+00
 -1       583 2.76500E+00
 -1       584 2.59965E+00
 -1       585 2.46087E+00
 -1       586 2.33355E+00
 -1       587 2.20843E+00
 -1       588 2.09470E+00
 -1       589 1.97120E+00
 -1       590 1.83275E+00
 -1       591 1.67544E+00
 -1       592 1.49710E+00
 -1       593 1.29812E+00
 -1       594 1.08219E+00
 -1       595 8.56882E-01
 -1       596 6.33566E-01
 -1       597 4.26352E-01
 -1       598 2.49866E-01
 -1       599 5.67127E-01
 -1       600 3.70770E+01
 -1       601 1.30335E+01
 -1       602 6.87170E+00
 -1       603 3.91601E+00
 -1       604 2.93183E+00
 -1       605 2.72007E+00
 -1       606 2.56204E+00
 -1       607 2.43317E+00
 -1       608 2.31867E+00
 -1       609 2.20843E+00
 -1       610 2.09470E+00
 -1       611 1.98851E+00
 -1       612 1.87252E+00
 -1       613 1.73984E+00
 -1       614 1.58686E+00
 -1       615 1.41162E+00
 -1       616 1.21478E+00
 -1       617 1.00051E+00
 -1       618 7.77128E-01
 -1       619 5.57050E-01
 -1       620 3.54770E-01
 -1       621 8.94453E-01
 -1       622 3.72252E+01
 -1       623 1.27363E+01
 -1       624 6.52600E+00
 -1       625 3.57157E+00
 -1       626 2.87276E+00
 -1       627 2.66477E+00
 -1       628 2.51236E+00
 -1       629 2.39127E+00
 -1       630 2.28706E+00
 -1       631 2.18996E+00
 -1       632 2.09251E+00
 -1       633 1.98851E+00
 -1       634 1.88390E+00
 -1       635 1.77392E+00
 -1       636 1.64565E+00
 -1       637 1.49549E+00
 -1       638 1.32155E+00
 -1       639 1.12460E+00
 -1       640 9.09132E-01
 -1       641 6.84161E-01
 -1       642 4.61875E-01
 -1       643 1.24206E+00
 -1       644 3.72766E+01
 -1       645 1.23948E+01
 -1       646 6.12646E+00
 -1       647 3.16774E+00
 -1       648 2.80229E+00
 -1       649 2.59699E+00
 -1       650 2.44884E+00
 -1       651 2.33379E+00
 -1       652 2.23777E+00
 -1       653 2.15135E+00
 -1       654 2.06744E+00
 -1       655 1.98008E+00
 -1       656 1.88390E+00
 -1       657 1.77613E+00
 -1       658 1.67108E+00
 -1       659 1.54598E+00
 -1       660 1.39706E+00
 -1       661 1.22214E+00
 -1       662 1.02176E+00
 -1       663 8.00457E-01
 -1       664 5.66012E-01
 -1       665 1.60002E+00
 -1       666 3.72766E+01
 -1       667 1.19928E+01
 -1       668 5.65594E+00
 -1       669 3.02636E+00
 -1       670 2.71720E+00
 -1       671 2.51366E+00
 -1       672 2.36860E+00
 -1       673 2.25820E+00
 -1       674 2.16863E+00
 -1       675 2.09082E+00
 -1       676 2.01805E+00
 -1       677 1.94472E+00
 -1       678 1.86573E+00
 -1       679 1.77613E+00
 -1       680 1.67108E+00
 -1       681 1.55900E+00
 -1       682 1.43581E+00
 -1       683 1.28602E+00
 -1       684 1.10661E+00
 -1       685 8.97321E-01
 -1       686 6.60166E-01
 -1       687 1.95188E+00
 -1       688 3.71442E+01
 -1       689 1.15059E+01
 -1       690 5.09175E+00
 -1       691 2.92251E+00
 -1       692 2.61296E+00
 -1       693 2.41035E+00
 -1       694 2.26740E+00
 -1       695 2.16044E+00
 -1       696 2.07587E+00
 -1       697 2.00494E+00
 -1       698 1.94128E+00
 -1       699 1.87968E+00
 -1       700 1.81541E+00
 -1       701 1.74380E+00
 -1       702 1.66000E+00
 -1       703 1.55900E+00
 -1       704 1.43581E+00
 -1       705 1.30858E+00
 -1       706 1.15460E+00
 -1       707 9.64902E-01
 -1       708 7.35423E-01
 -1       709 2.27121E+00
 -1       710 3.67978E+01
 -1       711 1.08971E+01
 -1       712 4.41214E+00
 -1       713 2.79476E+00
 -1       714 2.48319E+00
 -1       715 2.28060E+00
 -1       716 2.13889E+00
 -1       717 2.03436E+00
 -1       718 1.95359E+00
 -1       719 1.88808E+00
 -1       720 1.83181E+00
 -1       721 1.77995E+00
 -1       722 1.72820E+00
 -1       723 1.67228E+00
 -1       724 1.60763E+00
 -1       725 1.52923E+00
 -1       726 1.43150E+00
 -1       727 1.30858E+00
 -1       728 1.15577E+00
 -1       729 9.92326E-01
 -1       730 7.81255E-01
 -1       731 2.51838E+00
 -1       732 4.06140E+01
 -1       733 9.98332E+00
 -1       734 3.58219E+00
 -1       735 2.63784E+00
 -1       736 2.32032E+00
 -1       737 2.11544E+00
 -1       738 1.97369E+00
 -1       739 1.87064E+00
 -1       740 1.79270E+00
 -1       741 1.73145E+00
 -1       742 1.68117E+00
 -1       743 1.63740E+00
 -1       744 1.59631E+00
 -1       745 1.55408E+00
 -1       746 1.50662E+00
 -1       747 1.44919E+00
 -1       748 1.37619E+00
 -1       749 1.28096E+00
 -1       750 1.15577E+00
 -1       751 9.92326E-01
 -1       752 7.85630E-01
 -1       753 2.63872E+00
 -1       754 4.06140E+01
 -1       755 1.10059E+01
 -1       756 2.96624E+00
 -1       757 2.43594E+00
 -1       758 2.11620E+00
 -1       759 1.90666E+00
 -1       760 1.76142E+00
 -1       761 1.65684E+00
 -1       762 1.57943E+00
 -1       763 1.52073E+00
 -1       764 1.47499E+00
 -1       765 1.43797E+00
 -1       766 1.40610E+00
 -1       767 1.37607E+00
 -1       768 1.34429E+00
 -1       769 1.30659E+00
 -1       770 1.25773E+00
 -1       771 1.19099E+00
 -1       772 1.09768E+00
 -1       773 9.67034E-01
 -1       774 7.85630E-01
 -1       775 2.63872E+00
 -1       776 4.10858E+01
 -1       777 4.68780E+01
 -1       778 4.68780E+01
 -1       779 3.74583E+01
 -1       780 4.02076E+01
 -1       781 4.14895E+01
 -1       782 4.15317E+01
 -1       783 4.15317E+01
 -1       784 4.09642E+01
 -1       785 3.74456E+01
 -1       786 3.28138E+01
 -1       787 2.78615E+01
 -1       788 2.26779E+01
 -1       789 1.73347E+01
 -1       790 1.19154E+01
 -1       791 6.51698E+00
 -1       792 2.77138E+00
 -1       793 2.14735E+00
 -1       794 1.71417E+00
 -1       795 1.36576E+00
 -1       796 1.27013E+00
 -1       797 9.34691E-01
 -1       798 4.10858E+01
 -1       799 3.97164E+01
 -1       800 3.52744E+01
 -1       801 3.07493E+01
 -1       802 2.72057E+01
 -1       803 2.43271E+01
 -1       804 2.18454E+01
 -1       805 1.95806E+01
 -1       806 1.74217E+01
 -1       807 1.53070E+01
 -1       808 1.32068E+01
 -1       809 1.11076E+01
 -1       810 8.99970E+00
 -1       811 6.87000E+00
 -1       812 4.69890E+00
 -1       813 2.98667E+00
 -1       814 2.57442E+00
 -1       815 2.14735E+00
 -1       816 1.71417E+00
 -1       817 1.29704E+00
 -1       818 9.27849E-01
 -1       819 6.13773E-01
 -1       820 1.92667E+01
 -1       821 1.78560E+01
 -1       822 1.61150E+01
 -1       823 1.42895E+01
 -1       824 1.25145E+01
 -1       825 1.08525E+01
 -1       826 9.31813E+00
 -1       827 7.89896E+00
 -1       828 6.56957E+00
 -1       829 5.29994E+00
 -1       830 4.06076E+00
 -1       831 3.05128E+00
 -1       832 2.82931E+00
 -1       833 2.60203E+00
 -1       834 2.36769E+00
 -1       835 2.12514E+00
 -1       836 1.87353E+00
 -1       837 1.61208E+00
 -1       838 1.33969E+00
 -1       839 1.05327E+00
 -1       840 7.87079E-01
 -1       841 5.11796E-01
 -1       842 6.90163E+00
 -1       843 6.60453E+00
 -1       844 6.02647E+00
 -1       845 5.29901E+00
 -1       846 4.48519E+00
 -1       847 3.62248E+00
 -1       848 3.03523E+00
 -1       849 2.87659E+00
 -1       850 2.71855E+00
 -1       851 2.56168E+00
 -1       852 2.40548E+00
 -1       853 2.24859E+00
 -1       854 2.08896E+00
 -1       855 1.92405E+00
 -1       856 1.75091E+00
 -1       857 1.56625E+00
 -1       858 1.37630E+00
 -1       859 1.21532E+00
 -1       860 1.05058E+00
 -1       861 2.42320E+00
 -1       862 2.54908E+00
 -1       863 2.80159E+00
 -1       864 2.70945E+00
 -1       865 2.67374E+00
 -1       866 2.62225E+00
 -1       867 2.55158E+00
 -1       868 2.46787E+00
 -1       869 2.37368E+00
 -1       870 2.27088E+00
 -1       871 2.17013E+00
 -1       872 2.06385E+00
 -1       873 1.95251E+00
 -1       874 1.83658E+00
 -1       875 1.71586E+00
 -1       876 1.58938E+00
 -1       877 1.46997E+00
 -1       878 1.35511E+00
 -1       879 1.23792E+00
 -1       880 1.15830E+00
 -1       881 1.08974E+00
 -1       882 2.12922E+00
 -1       883 2.42320E+00
 -1       884 2.54908E+00
 -1       885 2.80159E+00
 -1       886 2.10505E+00
 -1       887 2.09387E+00
 -1       888 2.06031E+00
 -1       889 2.01553E+00
 -1       890 1.96154E+00
 -1       891 1.89876E+00
 -1       892 1.82780E+00
 -1       893 1.74987E+00
 -1       894 1.66683E+00
 -1       895 1.58106E+00
 -1       896 1.49520E+00
 -1       897 1.41190E+00
 -1       898 1.33360E+00
 -1       899 1.26229E+00
 -1       900 1.19945E+00
 -1       901 1.14593E+00
 -1       902 1.10187E+00
 -1       903 1.94108E+00
 -1       904 2.12922E+00
 -1       905 2.20664E+00
 -1       906 2.33944E+00
 -1       907 2.55351E+00
 -1       908 1.68998E+00
 -1       909 1.68998E+00
 -1       910 1.67564E+00
 -1       911 1.65474E+00
 -1       912 1.62799E+00
 -1       913 1.59501E+00
 -1       914 1.55557E+00
 -1       915 1.50979E+00
 -1       916 1.45839E+00
 -1       917 1.40266E+00
 -1       918 1.34451E+00
 -1       919 1.28629E+00
 -1       920 1.23068E+00
 -1       921 1.18037E+00
 -1       922 1.13791E+00
 -1       923 1.10544E+00
 -1       924 1.10915E+00
 -1       925 1.94108E+00
 -1       926 1.99632E+00
 -1       927 2.07904E+00
 -1       928 2.20769E+00
 -1       929 2.38379E+00
 -1       930 1.38965E+00
 -1       931 1.38965E+00
 -1       932 1.38730E+00
 -1       933 1.38158E+00
 -1       934 1.37257E+00
 -1       935 1.35973E+00
 -1       936 1.34257E+00
 -1       937 1.32078E+00
 -1       938 1.29442E+00
 -1       939 1.26398E+00
 -1       940 1.23057E+00
 -1       941 1.19588E+00
 -1       942 1.16222E+00
 -1       943 1.13236E+00
 -1       944 1.10932E+00
 -1       945 1.12445E+00
 -1       946 1.15759E+00
 -1       947 1.85814E+00
 -1       948 1.91581E+00
 -1       949 1.99938E+00
 -1       950 2.11967E+00
 -1       951 2.26444E+00
 -1       952 1.15611E+00
 -1       953 1.16232E+00
 -1       954 1.16739E+00
 -1       955 1.17107E+00
 -1       956 1.17291E+00
 -1       957 1.17291E+00
 -1       958 1.17242E+00
 -1       959 1.16919E+00
 -1       960 1.16297E+00
 -1       961 1.15379E+00
 -1       962 1.14213E+00
 -1       963 1.12902E+00
 -1       964 1.11620E+00
 -1       965 1.10610E+00
 -1       966 1.12774E+00
 -1       967 1.16192E+00
 -1       968 1.21208E+00
 -1       969 1.80756E+00
 -1       970 1.86599E+00
 -1       971 1.94781E+00
 -1       972 2.05862E+00
 -1       973 2.17927E+00
 -1       974 9.68438E-01
 -1       975 9.81528E-01
 -1       976 9.95043E-01
 -1       977 1.00864E+00
 -1       978 1.02199E+00
 -1       979 1.03471E+00
 -1       980 1.04640E+00
 -1       981 1.05670E+00
 -1       982 1.06538E+00
 -1       983 1.07250E+00
 -1       984 1.07856E+00
 -1       985 1.08472E+00
 -1       986 1.09295E+00
 -1       987 1.11529E+00
 -1       988 1.15161E+00
 -1       989 1.20012E+00
 -1       990 1.26493E+00
 -1       991 1.77731E+00
 -1       992 1.83554E+00
 -1       993 1.91400E+00
 -1       994 2.01528E+00
 -1       995 2.11796E+00
 -1       996 8.13631E-01
 -1       997 8.32869E-01
 -1       998 8.53658E-01
 -1       999 8.75693E-01
 -1      1000 8.98751E-01
 -1      1001 9.22544E-01
 -1      1002 9.46702E-01
 -1      1003 9.70808E-01
 -1      1004 9.94476E-01
 -1      1005 1.01748E+00
 -1      1006 1.03992E+00
 -1      1007 1.06252E+00
 -1      1008 1.08679E+00
 -1      1009 1.12483E+00
 -1      1010 1.17325E+00
 -1      1011 1.23363E+00
 -1      1012 1.31066E+00
 -1      1013 1.76159E+00
 -1      1014 1.81873E+00
 -1      1015 1.89236E+00
 -1      1016 1.98417E+00
 -1      1017 2.07349E+00
 -1      1018 6.82890E-01
 -1      1019 7.08197E-01
 -1      1020 7.35881E-01
 -1      1021 7.65760E-01
 -1      1022 7.97661E-01
 -1      1023 8.31312E-01
 -1      1024 8.66316E-01
 -1      1025 9.02181E-01
 -1      1026 9.38380E-01
 -1      1027 9.74480E-01
 -1      1028 1.01033E+00
 -1      1029 1.04633E+00
 -1      1030 1.08372E+00
 -1      1031 1.13238E+00
 -1      1032 1.19001E+00
 -1      1033 1.25960E+00
 -1      1034 1.34644E+00
 -1      1035 1.76837E+00
 -1      1036 1.81719E+00
 -1      1037 1.87986E+00
 -1      1038 1.96186E+00
 -1      1039 2.04095E+00
 -1      1040 5.69743E-01
 -1      1041 6.01635E-01
 -1      1042 6.36525E-01
 -1      1043 6.74393E-01
 -1      1044 7.15006E-01
 -1      1045 7.58002E-01
 -1      1046 8.02860E-01
 -1      1047 8.48941E-01
 -1      1048 8.95559E-01
 -1      1049 9.42128E-01
 -1      1050 9.88360E-01
 -1      1051 1.03453E+00
 -1      1052 1.08177E+00
 -1      1053 1.13732E+00
 -1      1054 1.20124E+00
 -1      1055 1.27741E+00
 -1      1056 1.37174E+00
 -1      1057 1.79268E+00
 -1      1058 1.83104E+00
 -1      1059 1.87587E+00
 -1      1060 1.94611E+00
 -1      1061 2.01684E+00
 -1      1062 4.69028E-01
 -1      1063 5.08713E-01
 -1      1064 5.51863E-01
 -1      1065 5.98600E-01
 -1      1066 6.48472E-01
 -1      1067 7.00889E-01
 -1      1068 7.55082E-01
 -1      1069 8.10184E-01
 -1      1070 8.65341E-01
 -1      1071 9.19883E-01
 -1      1072 9.73523E-01
 -1      1073 1.02661E+00
 -1      1074 1.08040E+00
 -1      1075 1.14004E+00
 -1      1076 1.20749E+00
 -1      1077 1.28785E+00
 -1      1078 1.38760E+00
 -1      1079 1.83259E+00
 -1      1080 1.85387E+00
 -1      1081 1.88206E+00
 -1      1082 1.93534E+00
 -1      1083 1.99867E+00
 -1      1084 3.77237E-01
 -1      1085 4.26367E-01
 -1      1086 4.82805E-01
 -1      1087 5.36620E-01
 -1      1088 5.96965E-01
 -1      1089 6.59362E-01
 -1      1090 7.22674E-01
 -1      1091 7.85763E-01
 -1      1092 8.47654E-01
 -1      1093 9.07714E-01
 -1      1094 9.65851E-01
 -1      1095 1.02302E+00
 -1      1096 1.08054E+00
 -1      1097 1.14126E+00
 -1      1098 1.20983E+00
 -1      1099 1.29236E+00
 -1      1100 1.39582E+00
 -1      1101 1.88816E+00
 -1      1102 1.88816E+00
 -1      1103 1.89214E+00
 -1      1104 1.92831E+00
 -1      1105 1.98467E+00
 -1      1106 4.14342E-01
 -1      1107 4.96725E-01
 -1      1108 5.66658E-01
 -1      1109 6.19724E-01
 -1      1110 6.50448E-01
 -1      1111 6.54458E-01
 -1      1112 7.06427E-01
 -1      1113 7.81673E-01
 -1      1114 8.50761E-01
 -1      1115 9.13915E-01
 -1      1116 9.72194E-01
 -1      1117 1.02750E+00
 -1      1118 1.08266E+00
 -1      1119 1.14155E+00
 -1      1120 1.20983E+00
 -1      1121 1.29249E+00
 -1      1122 1.39838E+00
 -1      1123 1.98945E+00
 -1      1124 1.98945E+00
 -1      1125 1.92096E+00
 -1      1126 1.92402E+00
 -1      1127 1.97356E+00
 -1      1128 5.08713E-01
 -1      1129 6.09117E-01
 -1      1130 6.86238E-01
 -1      1131 7.35260E-01
 -1      1132 7.50969E-01
 -1      1133 7.50969E-01
 -1      1134 7.30409E-01
 -1      1135 8.03139E-01
 -1      1136 8.71622E-01
 -1      1137 9.31654E-01
 -1      1138 9.85331E-01
 -1      1139 1.03555E+00
 -1      1140 1.08599E+00
 -1      1141 1.14155E+00
 -1      1142 1.20934E+00
 -1      1143 1.29249E+00
 -1      1144 1.39838E+00
 -1      1145 2.09472E+00
 -1      1146 2.09472E+00
 -1      1147 1.96103E+00
 -1      1148 1.92161E+00
 -1      1149 1.96447E+00
 -1      1150 6.50891E-01
 -1      1151 7.65939E-01
 -1      1152 8.41543E-01
 -1      1153 8.74223E-01
 -1      1154 8.74223E-01
 -1      1155 8.60946E-01
 -1      1156 8.02098E-01
 -1      1157 8.40470E-01
 -1      1158 9.04464E-01
 -1      1159 9.57642E-01
 -1      1160 1.00348E+00
 -1      1161 1.04605E+00
 -1      1162 1.08998E+00
 -1      1163 1.14124E+00
 -1      1164 1.20689E+00
 -1      1165 1.28965E+00
 -1      1166 1.39708E+00
 -1      1167 2.19563E+00
 -1      1168 2.19563E+00
 -1      1169 2.00221E+00
 -1      1170 1.93301E+00
 -1      1171 1.95678E+00
 -1      1172 8.50980E-01
 -1      1173 9.71502E-01
 -1      1174 1.03044E+00
 -1      1175 1.03044E+00
 -1      1176 1.02891E+00
 -1      1177 9.68844E-01
 -1      1178 8.56321E-01
 -1      1179 8.92717E-01
 -1      1180 9.47408E-01
 -1      1181 9.89658E-01
 -1      1182 1.02461E+00
 -1      1183 1.05760E+00
 -1      1184 1.09396E+00
 -1      1185 1.14042E+00
 -1      1186 1.20317E+00
 -1      1187 1.28498E+00
 -1      1188 1.39337E+00
 -1      1189 2.19563E+00
 -1      1190 2.19563E+00
 -1      1191 2.04223E+00
 -1      1192 1.94644E+00
 -1      1193 1.95007E+00
 -1      1194 1.12122E+00
 -1      1195 1.22843E+00
 -1      1196 1.24694E+00
 -1      1197 1.24694E+00
 -1      1198 1.18709E+00
 -1      1199 1.05911E+00
 -1      1200 8.97892E-01
 -1      1201 9.57428E-01
 -1      1202 9.97281E-01
 -1      1203 1.02464E+00
 -1      1204 1.04639E+00
 -1      1205 1.06877E+00
 -1      1206 1.09735E+00
 -1      1207 1.13909E+00
 -1      1208 1.19873E+00
 -1      1209 1.27938E+00
 -1      1210 1.38838E+00
 -1      1211 1.53243E+00
 -1      1212 2.08017E+00
 -1      1213 2.08017E+00
 -1      1214 1.95847E+00
 -1      1215 1.94406E+00
 -1      1216 1.47463E+00
 -1      1217 1.53543E+00
 -1      1218 1.53543E+00
 -1      1219 1.47896E+00
 -1      1220 1.33034E+00
 -1      1221 1.11138E+00
 -1      1222 9.90943E-01
 -1      1223 1.03014E+00
 -1      1224 1.04963E+00
 -1      1225 1.05911E+00
 -1      1226 1.06660E+00
 -1      1227 1.07848E+00
 -1      1228 1.09983E+00
 -1      1229 1.13731E+00
 -1      1230 1.19398E+00
 -1      1231 1.27347E+00
 -1      1232 1.38288E+00
 -1      1233 1.52895E+00
 -1      1234 2.11524E+00
 -1      1235 2.11524E+00
 -1      1236 1.96872E+00
 -1      1237 1.93857E+00
 -1      1238 1.92179E+00
 -1      1239 1.92179E+00
 -1      1240 1.88270E+00
 -1      1241 1.70497E+00
 -1      1242 1.43187E+00
 -1      1243 1.11138E+00
 -1      1244 1.09356E+00
 -1      1245 1.10428E+00
 -1      1246 1.10428E+00
 -1      1247 1.09934E+00
 -1      1248 1.08986E+00
 -1      1249 1.08612E+00
 -1      1250 1.10127E+00
 -1      1251 1.13516E+00
 -1      1252 1.18921E+00
 -1      1253 1.26766E+00
 -1      1254 1.37737E+00
 -1      1255 1.52507E+00
 -1      1256 2.14414E+00
 -1      1257 2.14414E+00
 -1      1258 1.97704E+00
 -1      1259 1.93350E+00
 -1      1260 2.49453E+00
 -1      1261 2.46486E+00
 -1      1262 2.24960E+00
 -1      1263 1.89039E+00
 -1      1264 1.45334E+00
 -1      1265 1.19586E+00
 -1      1266 1.19586E+00
 -1      1267 1.19557E+00
 -1      1268 1.17209E+00
 -1      1269 1.14175E+00
 -1      1270 1.11462E+00
 -1      1271 1.09664E+00
 -1      1272 1.10164E+00
 -1      1273 1.13273E+00
 -1      1274 1.18461E+00
 -1      1275 1.26220E+00
 -1      1276 1.37214E+00
 -1      1277 1.52114E+00
 -1      1278 2.16718E+00
 -1      1279 2.16718E+00
 -1      1280 1.98344E+00
 -1      1281 1.92877E+00
 -1      1282 4.95941E+00
 -1      1283 3.08516E+00
 -1      1284 2.58672E+00
 -1      1285 1.97596E+00
 -1      1286 1.45334E+00
 -1      1287 1.35105E+00
 -1      1288 1.33468E+00
 -1      1289 1.28473E+00
 -1      1290 1.22667E+00
 -1      1291 1.17372E+00
 -1      1292 1.13224E+00
 -1      1293 1.10522E+00
 -1      1294 1.10164E+00
 -1      1295 1.13006E+00
 -1      1296 1.18025E+00
 -1      1297 1.25717E+00
 -1      1298 1.36731E+00
 -1      1299 1.51737E+00
 -1      1300 2.18487E+00
 -1      1301 2.18487E+00
 -1      1302 1.98807E+00
 -1      1303 1.92436E+00
 -1      1304 1.19918E+01
 -1      1305 6.69387E+00
 -1      1306 2.82722E+00
 -1      1307 1.97596E+00
 -1      1308 1.58570E+00
 -1      1309 1.54013E+00
 -1      1310 1.44847E+00
 -1      1311 1.35060E+00
 -1      1312 1.26375E+00
 -1      1313 1.19382E+00
 -1      1314 1.14233E+00
 -1      1315 1.10933E+00
 -1      1316 1.10092E+00
 -1      1317 1.12714E+00
 -1      1318 1.17611E+00
 -1      1319 1.25259E+00
 -1      1320 1.36294E+00
 -1      1321 1.51386E+00
 -1      1322 2.19790E+00
 -1      1323 2.19790E+00
 -1      1324 1.99113E+00
 -1      1325 1.92023E+00
 -1      1326 1.95287E+01
 -1      1327 9.90518E+00
 -1      1328 2.82722E+00
 -1      1329 1.94305E+00
 -1      1330 1.84476E+00
 -1      1331 1.67966E+00
 -1      1332 1.52115E+00
 -1      1333 1.38747E+00
 -1      1334 1.28169E+00
 -1      1335 1.20178E+00
 -1      1336 1.14499E+00
 -1      1337 1.10933E+00
 -1      1338 1.09909E+00
 -1      1339 1.12392E+00
 -1      1340 1.17215E+00
 -1      1341 1.24841E+00
 -1      1342 1.35901E+00
 -1      1343 1.51064E+00
 -1      1344 2.20695E+00
 -1      1345 2.20695E+00
 -1      1346 1.99287E+00
 -1      1347 1.91637E+00
 -1      1348 3.00076E+01
 -1      1349 1.14526E+01
 -1      1350 2.76408E+00
 -1      1351 2.30506E+00
 -1      1352 2.00142E+00
 -1      1353 1.74494E+00
 -1      1354 1.54538E+00
 -1      1355 1.39380E+00
 -1      1356 1.28169E+00
 -1      1357 1.20178E+00
 -1      1358 1.14499E+00
 -1      1359 1.10907E+00
 -1      1360 1.09613E+00
 -1      1361 1.12035E+00
 -1      1362 1.16831E+00
 -1      1363 1.24458E+00
 -1      1364 1.35547E+00
 -1      1365 1.50771E+00
 -1      1366 2.21273E+00
 -1      1367 2.21273E+00
 -1      1368 1.99351E+00
 -1      1369 1.91277E+00
 -1      1370 3.42679E+01
 -1      1371 1.14526E+01
 -1      1372 2.97041E+00
 -1      1373 2.40585E+00
 -1      1374 2.01134E+00
 -1      1375 1.74494E+00
 -1      1376 1.54538E+00
 -1      1377 1.39380E+00
 -1      1378 1.28064E+00
 -1      1379 1.19808E+00
 -1      1380 1.14060E+00
 -1      1381 1.10469E+00
 -1      1382 1.09207E+00
 -1      1383 1.11643E+00
 -1      1384 1.16454E+00
 -1      1385 1.24104E+00
 -1      1386 1.35229E+00
 -1      1387 1.50506E+00
 -1      1388 2.21588E+00
 -1      1389 2.21588E+00
 -1      1390 1.99351E+00
 -1      1391 1.90942E+00
 -1      1392 3.42679E+01
 -1      1393 6.60031E+00
 -1      1394 2.97041E+00
 -1      1395 2.40585E+00
 -1      1396 2.01134E+00
 -1      1397 1.72559E+00
 -1      1398 1.51994E+00
 -1      1399 1.37059E+00
 -1      1400 1.26192E+00
 -1      1401 1.18379E+00
 -1      1402 1.12990E+00
 -1      1403 1.09663E+00
 -1      1404 1.08702E+00
 -1      1405 1.11215E+00
 -1      1406 1.16081E+00
 -1      1407 1.23775E+00
 -1      1408 1.34942E+00
 -1      1409 1.50266E+00
 -1      1410 2.21695E+00
 -1      1411 2.21695E+00
 -1      1412 1.99330E+00
 -1      1413 1.90657E+00
 -1      1414 1.87435E+00
 -1      1415 2.76672E+00
 -1      1416 2.24875E+00
 -1      1417 1.35637E+00
 -1      1418 2.61137E+00
 -1      1419 2.17442E+00
 -1      1420 1.81180E+00
 -1      1421 2.38900E+00
 -1      1422 2.10740E+00
 -1      1423 1.89282E+00
 -1      1424 2.20419E+00
 -1      1425 1.94724E+00
 -1      1426 1.85045E+00
 -1      1427 1.96357E+00
 -1      1428 1.74733E+00
 -1      1429 1.73100E+00
 -1      1430 1.73658E+00
 -1      1431 1.56600E+00
 -1      1432 1.57675E+00
 -1      1433 1.54739E+00
 -1      1434 1.41463E+00
 -1      1435 1.43323E+00
 -1      1436 1.39411E+00
 -1      1437 1.29120E+00
 -1      1438 1.31172E+00
 -1      1439 1.27076E+00
 -1      1440 1.19048E+00
 -1      1441 1.21092E+00
 -1      1442 1.17065E+00
 -1      1443 1.10723E+00
 -1      1444 1.12707E+00
 -1      1445 1.08800E+00
 -1      1446 1.03701E+00
 -1      1447 1.05624E+00
 -1      1448 1.01818E+00
 -1      1449 9.76213E-01
 -1      1450 9.95048E-01
 -1      1451 9.57435E-01
 -1      1452 9.21870E-01
 -1      1453 9.40648E-01
 -1      1454 9.02705E-01
 -1      1455 8.71438E-01
 -1      1456 8.90602E-01
 -1      1457 8.51328E-01
 -1      1458 8.22588E-01
 -1      1459 8.42698E-01
 -1      1460 8.00825E-01
 -1      1461 7.73016E-01
 -1      1462 7.94778E-01
 -1      1463 7.48698E-01
 -1      1464 7.20254E-01
 -1      1465 7.44572E-01
 -1      1466 6.92208E-01
 -1      1467 6.61463E-01
 -1      1468 6.89508E-01
 -1      1469 6.28148E-01
 -1      1470 5.93182E-01
 -1      1471 6.26498E-01
 -1      1472 5.52540E-01
 -1      1473 5.11006E-01
 -1      1474 5.51649E-01
 -1      1475 4.60258E-01
 -1      1476 4.09146E-01
 -1      1477 4.59894E-01
 -1      1478 8.83465E-01
 -1      1479 1.35771E+00
 -1      1480 8.83388E-01
 -1      1481 1.11776E+00
 -1      1482 1.11776E+00
 -1      1483 1.96135E+01
 -1      1484 3.64603E+01
 -1      1485 1.96135E+01
 -1      1486 2.11043E+01
 -1      1487 4.10215E+00
 -1      1488 4.17103E+00
 -1      1489 2.45787E+00
 -1      1490 2.40527E+00
 -1      1491 2.15158E+00
 -1      1492 2.07636E+00
 -1      1493 1.88835E+00
 -1      1494 1.82243E+00
 -1      1495 1.67065E+00
 -1      1496 1.61652E+00
 -1      1497 1.49326E+00
 -1      1498 1.44953E+00
 -1      1499 1.35038E+00
 -1      1500 1.31442E+00
 -1      1501 1.23480E+00
 -1      1502 1.20439E+00
 -1      1503 1.14023E+00
 -1      1504 1.11365E+00
 -1      1505 1.06143E+00
 -1      1506 1.03738E+00
 -1      1507 9.94136E-01
 -1      1508 9.71594E-01
 -1      1509 9.34894E-01
 -1      1510 9.12957E-01
 -1      1511 8.80769E-01
 -1      1512 8.58580E-01
 -1      1513 8.29138E-01
 -1      1514 8.05790E-01
 -1      1515 7.77477E-01
 -1      1516 7.51932E-01
 -1      1517 7.23153E-01
 -1      1518 6.94147E-01
 -1      1519 6.63203E-01
 -1      1520 6.29134E-01
 -1      1521 5.94078E-01
 -1      1522 5.52848E-01
 -1      1523 5.11309E-01
 -1      1524 4.60274E-01
 -1      1525 4.09223E-01
 -1      1526 8.83219E-01
 -1      1527 1.35746E+00
 -1      1528 1.11751E+00
 -1      1529 3.71244E+01
 -1      1530 3.77884E+01
 -1      1531 3.71244E+01
 -1      1532 2.72716E+01
 -1      1533 1.12516E+01
 -1      1534 9.91996E+00
 -1      1535 2.83938E+00
 -1      1536 2.65088E+00
 -1      1537 2.21677E+00
 -1      1538 2.07636E+00
 -1      1539 1.93595E+00
 -1      1540 1.82500E+00
 -1      1541 1.71148E+00
 -1      1542 1.62837E+00
 -1      1543 1.53342E+00
 -1      1544 1.46996E+00
 -1      1545 1.38607E+00
 -1      1546 1.33630E+00
 -1      1547 1.26464E+00
 -1      1548 1.22441E+00
 -1      1549 1.16416E+00
 -1      1550 1.13051E+00
 -1      1551 1.08001E+00
 -1      1552 1.05081E+00
 -1      1553 1.00818E+00
 -1      1554 9.81820E-01
 -1      1555 9.45232E-01
 -1      1556 9.20424E-01
 -1      1557 8.88149E-01
 -1      1558 8.63768E-01
 -1      1559 8.34199E-01
 -1      1560 8.09155E-01
 -1      1561 7.80747E-01
 -1      1562 7.53874E-01
 -1      1563 7.25059E-01
 -1      1564 6.95006E-01
 -1      1565 6.64094E-01
 -1      1566 6.29331E-01
 -1      1567 5.94371E-01
 -1      1568 5.52848E-01
 -1      1569 5.11325E-01
 -1      1570 4.60123E-01
 -1      1571 4.09071E-01
 -1      1572 8.81948E-01
 -1      1573 1.35610E+00
 -1      1574 1.11639E+00
 -1      1575 3.77884E+01
 -1      1576 3.77884E+01
 -1      1577 3.77884E+01
 -1      1578 2.76108E+01
 -1      1579 1.70941E+01
 -1      1580 1.25776E+01
 -1      1581 5.40349E+00
 -1      1582 5.13173E+00
 -1      1583 2.37911E+00
 -1      1584 2.22566E+00
 -1      1585 1.92291E+00
 -1      1586 1.81195E+00
 -1      1587 1.71405E+00
 -1      1588 1.62837E+00
 -1      1589 1.54269E+00
 -1      1590 1.46996E+00
 -1      1591 1.39722E+00
 -1      1592 1.33698E+00
 -1      1593 1.27605E+00
 -1      1594 1.22775E+00
 -1      1595 1.17611E+00
 -1      1596 1.13627E+00
 -1      1597 1.09067E+00
 -1      1598 1.05671E+00
 -1      1599 1.01685E+00
 -1      1600 9.86824E-01
 -1      1601 9.51794E-01
 -1      1602 9.24141E-01
 -1      1603 8.92771E-01
 -1      1604 8.66161E-01
 -1      1605 8.37158E-01
 -1      1606 8.10352E-01
 -1      1607 7.82348E-01
 -1      1608 7.54195E-01
 -1      1609 7.25720E-01
 -1      1610 6.95006E-01
 -1      1611 6.64292E-01
 -1      1612 6.29198E-01
 -1      1613 5.94238E-01
 -1      1614 5.52366E-01
 -1      1615 5.10976E-01
 -1      1616 4.59320E-01
 -1      1617 4.08467E-01
 -1      1618 8.79235E-01
 -1      1619 1.35272E+00
 -1      1620 1.11413E+00
 -1      1621 3.66814E+01
 -1      1622 3.55744E+01
 -1      1623 3.66814E+01
 -1      1624 2.65038E+01
 -1      1625 1.74332E+01
 -1      1626 1.33437E+01
 -1      1627 8.48808E+00
 -1      1628 6.16866E+00
 -1      1629 2.81232E+00
 -1      1630 2.61672E+00
 -1      1631 2.03006E+00
 -1      1632 1.89620E+00
 -1      1633 1.67809E+00
 -1      1634 1.57771E+00
 -1      1635 1.52799E+00
 -1      1636 1.45101E+00
 -1      1637 1.39297E+00
 -1      1638 1.33273E+00
 -1      1639 1.27673E+00
 -1      1640 1.22775E+00
 -1      1641 1.17877E+00
 -1      1642 1.13627E+00
 -1      1643 1.09377E+00
 -1      1644 1.05671E+00
 -1      1645 1.01965E+00
 -1      1646 9.86824E-01
 -1      1647 9.53993E-01
 -1      1648 9.24141E-01
 -1      1649 8.94288E-01
 -1      1650 8.66161E-01
 -1      1651 8.38033E-01
 -1      1652 8.10352E-01
 -1      1653 7.82670E-01
 -1      1654 7.54070E-01
 -1      1655 7.25595E-01
 -1      1656 6.94417E-01
 -1      1657 6.63828E-01
 -1      1658 6.28038E-01
 -1      1659 5.93408E-01
 -1      1660 5.50843E-01
 -1      1661 5.09801E-01
 -1      1662 4.57649E-01
 -1      1663 4.07168E-01
 -1      1664 8.74667E-01
 -1      1665 1.34673E+00
 -1      1666 1.11041E+00
 -1      1667 3.55232E+01
 -1      1668 3.54720E+01
 -1      1669 3.55232E+01
 -1      1670 2.63446E+01
 -1      1671 1.73252E+01
 -1      1672 1.34397E+01
 -1      1673 9.45815E+00
 -1      1674 7.09799E+00
 -1      1675 3.80850E+00
 -1      1676 3.55063E+00
 -1      1677 2.35884E+00
 -1      1678 2.21663E+00
 -1      1679 1.75399E+00
 -1      1680 1.65072E+00
 -1      1681 1.47444E+00
 -1      1682 1.39154E+00
 -1      1683 1.36811E+00
 -1      1684 1.30161E+00
 -1      1685 1.26623E+00
 -1      1686 1.21219E+00
 -1      1687 1.17372E+00
 -1      1688 1.12895E+00
 -1      1689 1.09150E+00
 -1      1690 1.05345E+00
 -1      1691 1.01866E+00
 -1      1692 9.85282E-01
 -1      1693 9.53445E-01
 -1      1694 9.23065E-01
 -1      1695 8.93760E-01
 -1      1696 8.64934E-01
 -1      1697 8.37335E-01
 -1      1698 8.08723E-01
 -1      1699 7.81740E-01
 -1      1700 7.51990E-01
 -1      1701 7.24320E-01
 -1      1702 6.91945E-01
 -1      1703 6.62043E-01
 -1      1704 6.25292E-01
 -1      1705 5.91288E-01
 -1      1706 5.47978E-01
 -1      1707 5.07533E-01
 -1      1708 4.54861E-01
 -1      1709 4.04976E-01
 -1      1710 8.67741E-01
 -1      1711 1.33743E+00
 -1      1712 1.10483E+00
 -1      1713 3.53545E+01
 -1      1714 3.52371E+01
 -1      1715 3.53545E+01
 -1      1716 2.59962E+01
 -1      1717 1.69863E+01
 -1      1718 1.32285E+01
 -1      1719 9.68187E+00
 -1      1720 7.49771E+00
 -1      1721 4.91383E+00
 -1      1722 4.06039E+00
 -1      1723 2.69719E+00
 -1      1724 2.52184E+00
 -1      1725 2.04128E+00
 -1      1726 1.93542E+00
 -1      1727 1.54485E+00
 -1      1728 1.46424E+00
 -1      1729 1.31093E+00
 -1      1730 1.24291E+00
 -1      1731 1.23359E+00
 -1      1732 1.17660E+00
 -1      1733 1.15521E+00
 -1      1734 1.10713E+00
 -1      1735 1.08087E+00
 -1      1736 1.03963E+00
 -1      1737 1.01221E+00
 -1      1738 9.75949E-01
 -1      1739 9.49024E-01
 -1      1740 9.16135E-01
 -1      1741 8.90176E-01
 -1      1742 8.59206E-01
 -1      1743 8.33964E-01
 -1      1744 8.03539E-01
 -1      1745 7.78298E-01
 -1      1746 7.47025E-01
 -1      1747 7.20718E-01
 -1      1748 6.87079E-01
 -1      1749 6.58307E-01
 -1      1750 6.20529E-01
 -1      1751 5.87515E-01
 -1      1752 5.43410E-01
 -1      1753 5.03873E-01
 -1      1754 4.50662E-01
 -1      1755 4.01650E-01
 -1      1756 8.57851E-01
 -1      1757 1.32394E+00
 -1      1758 1.09692E+00
 -1      1759 3.52245E+01
 -1      1760 3.52120E+01
 -1      1761 3.52245E+01
 -1      1762 2.57572E+01
 -1      1763 1.65289E+01
 -1      1764 1.30020E+01
 -1      1765 9.70159E+00
 -1      1766 7.66279E+00
 -1      1767 5.45890E+00
 -1      1768 4.30350E+00
 -1      1769 2.90498E+00
 -1      1770 2.72215E+00
 -1      1771 2.33900E+00
 -1      1772 2.21188E+00
 -1      1773 1.80830E+00
 -1      1774 1.72659E+00
 -1      1775 1.38254E+00
 -1      1776 1.31773E+00
 -1      1777 1.17810E+00
 -1      1778 1.12112E+00
 -1      1779 1.11962E+00
 -1      1780 1.07004E+00
 -1      1781 1.05755E+00
 -1      1782 1.01419E+00
 -1      1783 9.96268E-01
 -1      1784 9.57741E-01
 -1      1785 9.37422E-01
 -1      1786 9.02341E-01
 -1      1787 8.81054E-01
 -1      1788 8.48073E-01
 -1      1789 8.26225E-01
 -1      1790 7.94011E-01
 -1      1791 7.71325E-01
 -1      1792 7.38496E-01
 -1      1793 7.14197E-01
 -1      1794 6.79233E-01
 -1      1795 6.52116E-01
 -1      1796 6.13246E-01
 -1      1797 5.81660E-01
 -1      1798 5.36710E-01
 -1      1799 4.98460E-01
 -1      1800 4.44698E-01
 -1      1801 3.96900E-01
 -1      1802 8.44275E-01
 -1      1803 1.30523E+00
 -1      1804 1.08611E+00
 -1      1805 3.52305E+01
 -1      1806 3.52491E+01
 -1      1807 3.52305E+01
 -1      1808 2.55715E+01
 -1      1809 1.60981E+01
 -1      1810 1.27226E+01
 -1      1811 9.62643E+00
 -1      1812 7.63972E+00
 -1      1813 5.67608E+00
 -1      1814 4.40036E+00
 -1      1815 3.02778E+00
 -1      1816 2.84914E+00
 -1      1817 2.54351E+00
 -1      1818 2.40947E+00
 -1      1819 2.07784E+00
 -1      1820 1.98108E+00
 -1      1821 1.62983E+00
 -1      1822 1.56460E+00
 -1      1823 1.25249E+00
 -1      1824 1.19996E+00
 -1      1825 1.06859E+00
 -1      1826 1.01938E+00
 -1      1827 1.02084E+00
 -1      1828 9.76549E-01
 -1      1829 9.69900E-01
 -1      1830 9.29816E-01
 -1      1831 9.17658E-01
 -1      1832 8.80779E-01
 -1      1833 8.65463E-01
 -1      1834 8.30659E-01
 -1      1835 8.13269E-01
 -1      1836 7.79326E-01
 -1      1837 7.60067E-01
 -1      1838 7.25665E-01
 -1      1839 7.04094E-01
 -1      1840 6.67752E-01
 -1      1841 6.42891E-01
 -1      1842 6.02867E-01
 -1      1843 5.73223E-01
 -1      1844 5.27381E-01
 -1      1845 4.90869E-01
 -1      1846 4.36550E-01
 -1      1847 3.90379E-01
 -1      1848 8.26162E-01
 -1      1849 1.28006E+00
 -1      1850 1.07175E+00
 -1      1851 3.52831E+01
 -1      1852 3.53171E+01
 -1      1853 3.52831E+01
 -1      1854 2.54255E+01
 -1      1855 1.57139E+01
 -1      1856 1.24381E+01
 -1      1857 9.44684E+00
 -1      1858 7.53529E+00
 -1      1859 5.72817E+00
 -1      1860 4.47053E+00
 -1      1861 3.14272E+00
 -1      1862 2.97276E+00
 -1      1863 2.67919E+00
 -1      1864 2.54632E+00
 -1      1865 2.27660E+00
 -1      1866 2.17387E+00
 -1      1867 1.87835E+00
 -1      1868 1.80184E+00
 -1      1869 1.48809E+00
 -1      1870 1.43435E+00
 -1      1871 1.14623E+00
 -1      1872 1.10415E+00
 -1      1873 9.77311E-01
 -1      1874 9.33292E-01
 -1      1875 9.32529E-01
 -1      1876 8.91650E-01
 -1      1877 8.88937E-01
 -1      1878 8.50708E-01
 -1      1879 8.42549E-01
 -1      1880 8.06152E-01
 -1      1881 7.94262E-01
 -1      1882 7.58674E-01
 -1      1883 7.43738E-01
 -1      1884 7.07761E-01
 -1      1885 6.89688E-01
 -1      1886 6.51917E-01
 -1      1887 6.29981E-01
 -1      1888 5.88740E-01
 -1      1889 5.61626E-01
 -1      1890 5.14848E-01
 -1      1891 4.80603E-01
 -1      1892 4.25734E-01
 -1      1893 3.81682E-01
 -1      1894 8.02520E-01
 -1      1895 1.24700E+00
 -1      1896 1.05306E+00
 -1      1897 3.53644E+01
 -1      1898 3.54118E+01
 -1      1899 3.53644E+01
 -1      1900 2.53151E+01
 -1      1901 1.53761E+01
 -1      1902 1.21636E+01
 -1      1903 9.22565E+00
 -1      1904 7.40669E+00
 -1      1905 5.71634E+00
 -1      1906 4.51599E+00
 -1      1907 3.27018E+00
 -1      1908 3.06324E+00
 -1      1909 2.76582E+00
 -1      1910 2.63792E+00
 -1      1911 2.41843E+00
 -1      1912 2.31544E+00
 -1      1913 2.07089E+00
 -1      1914 1.98925E+00
 -1      1915 1.72021E+00
 -1      1916 1.65768E+00
 -1      1917 1.37183E+00
 -1      1918 1.32627E+00
 -1      1919 1.05859E+00
 -1      1920 1.02063E+00
 -1      1921 8.95328E-01
 -1      1922 8.54407E-01
 -1      1923 8.50728E-01
 -1      1924 8.11613E-01
 -1      1925 8.11592E-01
 -1      1926 7.73852E-01
 -1      1927 7.68412E-01
 -1      1928 7.31281E-01
 -1      1929 7.21543E-01
 -1      1930 6.83994E-01
 -1      1931 6.70212E-01
 -1      1932 6.30964E-01
 -1      1933 6.12669E-01
 -1      1934 5.70149E-01
 -1      1935 5.46220E-01
 -1      1936 4.98462E-01
 -1      1937 4.67090E-01
 -1      1938 4.11691E-01
 -1      1939 3.70335E-01
 -1      1940 7.72215E-01
 -1      1941 1.20440E+00
 -1      1942 1.02915E+00
 -1      1943 3.54705E+01
 -1      1944 3.55292E+01
 -1      1945 3.54705E+01
 -1      1946 2.52329E+01
 -1      1947 1.50775E+01
 -1      1948 1.19046E+01
 -1      1949 8.99075E+00
 -1      1950 7.24126E+00
 -1      1951 5.65720E+00
 -1      1952 4.47625E+00
 -1      1953 3.33504E+00
 -1      1954 3.08968E+00
 -1      1955 2.81788E+00
 -1      1956 2.69620E+00
 -1      1957 2.51625E+00
 -1      1958 2.41608E+00
 -1      1959 2.21528E+00
 -1      1960 2.13271E+00
 -1      1961 1.90669E+00
 -1      1962 1.83975E+00
 -1      1963 1.59074E+00
 -1      1964 1.53809E+00
 -1      1965 1.27361E+00
 -1      1966 1.23389E+00
 -1      1967 9.80904E-01
 -1      1968 9.45436E-01
 -1      1969 8.18938E-01
 -1      1970 7.79378E-01
 -1      1971 7.72052E-01
 -1      1972 7.33215E-01
 -1      1973 7.35015E-01
 -1      1974 6.96441E-01
 -1      1975 6.92707E-01
 -1      1976 6.53588E-01
 -1      1977 6.44876E-01
 -1      1978 6.04097E-01
 -1      1979 5.90186E-01
 -1      1980 5.46317E-01
 -1      1981 5.26280E-01
 -1      1982 4.77502E-01
 -1      1983 4.49684E-01
 -1      1984 3.93788E-01
 -1      1985 3.55795E-01
 -1      1986 7.33967E-01
 -1      1987 1.15039E+00
 -1      1988 9.99042E-01
 -1      1989 3.55991E+01
 -1      1990 3.56689E+01
 -1      1991 3.55991E+01
 -1      1992 2.51749E+01
 -1      1993 1.48087E+01
 -1      1994 1.16598E+01
 -1      1995 8.75569E+00
 -1      1996 7.05613E+00
 -1      1997 5.54170E+00
 -1      1998 4.40805E+00
 -1      1999 3.34261E+00
 -1      2000 3.09835E+00
 -1      2001 2.84543E+00
 -1      2002 2.72987E+00
 -1      2003 2.58065E+00
 -1      2004 2.48457E+00
 -1      2005 2.32000E+00
 -1      2006 2.23895E+00
 -1      2007 2.05166E+00
 -1      2008 1.98345E+00
 -1      2009 1.77155E+00
 -1      2010 1.71504E+00
 -1      2011 1.48158E+00
 -1      2012 1.43595E+00
 -1      2013 1.18825E+00
 -1      2014 1.15266E+00
 -1      2015 9.09844E-01
 -1      2016 8.75559E-01
 -1      2017 7.45092E-01
 -1      2018 7.05368E-01
 -1      2019 6.93491E-01
 -1      2020 6.53551E-01
 -1      2021 6.56500E-01
 -1      2022 6.15794E-01
 -1      2023 6.12881E-01
 -1      2024 5.70502E-01
 -1      2025 5.61718E-01
 -1      2026 5.16419E-01
 -1      2027 5.01019E-01
 -1      2028 4.51177E-01
 -1      2029 4.27659E-01
 -1      2030 3.71322E-01
 -1      2031 3.37451E-01
 -1      2032 6.86370E-01
 -1      2033 1.08289E+00
 -1      2034 9.61650E-01
 -1      2035 3.57495E+01
 -1      2036 3.58300E+01
 -1      2037 3.57495E+01
 -1      2038 2.51364E+01
 -1      2039 1.45618E+01
 -1      2040 1.14256E+01
 -1      2041 8.52354E+00
 -1      2042 6.85965E+00
 -1      2043 5.39224E+00
 -1      2044 4.30069E+00
 -1      2045 3.31650E+00
 -1      2046 3.07340E+00
 -1      2047 2.85526E+00
 -1      2048 2.74503E+00
 -1      2049 2.61965E+00
 -1      2050 2.52781E+00
 -1      2051 2.39273E+00
 -1      2052 2.31431E+00
 -1      2053 2.16052E+00
 -1      2054 2.09298E+00
 -1      2055 1.91591E+00
 -1      2056 1.85796E+00
 -1      2057 1.65709E+00
 -1      2058 1.60802E+00
 -1      2059 1.38688E+00
 -1      2060 1.34619E+00
 -1      2061 1.11197E+00
 -1      2062 1.07921E+00
 -1      2063 8.42796E-01
 -1      2064 8.16548E-01
 -1      2065 6.79120E-01
 -1      2066 6.37843E-01
 -1      2067 6.12274E-01
 -1      2068 5.69927E-01
 -1      2069 5.73446E-01
 -1      2070 5.29366E-01
 -1      2071 5.26421E-01
 -1      2072 4.79592E-01
 -1      2073 4.69591E-01
 -1      2074 4.18638E-01
 -1      2075 4.00224E-01
 -1      2076 3.43520E-01
 -1      2077 3.14618E-01
 -1      2078 6.27909E-01
 -1      2079 9.99660E-01
 -1      2080 9.15815E-01
 -1      2081 3.59208E+01
 -1      2082 3.60116E+01
 -1      2083 3.59208E+01
 -1      2084 2.51139E+01
 -1      2085 1.43295E+01
 -1      2086 1.11975E+01
 -1      2087 8.29361E+00
 -1      2088 6.65424E+00
 -1      2089 5.22028E+00
 -1      2090 4.15970E+00
 -1      2091 3.24011E+00
 -1      2092 3.02312E+00
 -1      2093 2.85641E+00
 -1      2094 2.75044E+00
 -1      2095 2.63906E+00
 -1      2096 2.55099E+00
 -1      2097 2.43975E+00
 -1      2098 2.36418E+00
 -1      2099 2.23874E+00
 -1      2100 2.17279E+00
 -1      2101 2.02703E+00
 -1      2102 1.96915E+00
 -1      2103 1.80007E+00
 -1      2104 1.74944E+00
 -1      2105 1.55738E+00
 -1      2106 1.51353E+00
 -1      2107 1.30234E+00
 -1      2108 1.26501E+00
 -1      2109 1.04188E+00
 -1      2110 1.01089E+00
 -1      2111 7.85563E-01
 -1      2112 7.60884E-01
 -1      2113 6.13164E-01
 -1      2114 5.69064E-01
 -1      2115 5.25826E-01
 -1      2116 4.79899E-01
 -1      2117 4.83438E-01
 -1      2118 4.34945E-01
 -1      2119 4.31100E-01
 -1      2120 3.78978E-01
 -1      2121 3.66516E-01
 -1      2122 3.09548E-01
 -1      2123 2.86552E-01
 -1      2124 5.56993E-01
 -1      2125 8.98349E-01
 -1      2126 8.60339E-01
 -1      2127 3.61118E+01
 -1      2128 3.62120E+01
 -1      2129 3.61118E+01
 -1      2130 2.51033E+01
 -1      2131 1.41054E+01
 -1      2132 1.09706E+01
 -1      2133 8.06279E+00
 -1      2134 6.43910E+00
 -1      2135 5.03055E+00
 -1      2136 4.01139E+00
 -1      2137 3.14053E+00
 -1      2138 2.96919E+00
 -1      2139 2.85178E+00
 -1      2140 2.74581E+00
 -1      2141 2.64447E+00
 -1      2142 2.55932E+00
 -1      2143 2.46585E+00
 -1      2144 2.39277E+00
 -1      2145 2.29110E+00
 -1      2146 2.22692E+00
 -1      2147 2.10861E+00
 -1      2148 2.05151E+00
 -1      2149 1.91205E+00
 -1      2150 1.86102E+00
 -1      2151 1.69840E+00
 -1      2152 1.65285E+00
 -1      2153 1.46798E+00
 -1      2154 1.42762E+00
 -1      2155 1.22464E+00
 -1      2156 1.18936E+00
 -1      2157 9.75610E-01
 -1      2158 9.45491E-01
 -1      2159 7.30764E-01
 -1      2160 7.06145E-01
 -1      2161 5.44444E-01
 -1      2162 4.96459E-01
 -1      2163 4.31913E-01
 -1      2164 3.81577E-01
 -1      2165 3.84609E-01
 -1      2166 3.31245E-01
 -1      2167 3.25614E-01
 -1      2168 2.68512E-01
 -1      2169 2.52446E-01
 -1      2170 4.71996E-01
 -1      2171 7.76543E-01
 -1      2172 7.94009E-01
 -1      2173 3.63199E+01
 -1      2174 3.64278E+01
 -1      2175 3.63199E+01
 -1      2176 2.51000E+01
 -1      2177 1.38834E+01
 -1      2178 1.07393E+01
 -1      2179 7.82658E+00
 -1      2180 6.21116E+00
 -1      2181 4.82368E+00
 -1      2182 3.88829E+00
 -1      2183 3.07599E+00
 -1      2184 2.94453E+00
 -1      2185 2.83772E+00
 -1      2186 2.73480E+00
 -1      2187 2.64289E+00
 -1      2188 2.55802E+00
 -1      2189 2.47446E+00
 -1      2190 2.40313E+00
 -1      2191 2.32144E+00
 -1      2192 2.25866E+00
 -1      2193 2.16414E+00
 -1      2194 2.10790E+00
 -1      2195 1.99527E+00
 -1      2196 1.94435E+00
 -1      2197 1.81009E+00
 -1      2198 1.76372E+00
 -1      2199 1.60648E+00
 -1      2200 1.56423E+00
 -1      2201 1.38537E+00
 -1      2202 1.34702E+00
 -1      2203 1.15102E+00
 -1      2204 1.11662E+00
 -1      2205 9.11091E-01
 -1      2206 8.80954E-01
 -1      2207 6.76008E-01
 -1      2208 6.50833E-01
 -1      2209 4.71284E-01
 -1      2210 4.38710E-01
 -1      2211 3.49004E-01
 -1      2212 2.94301E-01
 -1      2213 2.76542E-01
 -1      2214 2.19469E-01
 -1      2215 2.11439E-01
 -1      2216 3.71282E-01
 -1      2217 6.31838E-01
 -1      2218 7.15634E-01
 -1      2219 3.65403E+01
 -1      2220 3.66528E+01
 -1      2221 3.65403E+01
 -1      2222 2.50976E+01
 -1      2223 1.36573E+01
 -1      2224 1.04974E+01
 -1      2225 7.57941E+00
 -1      2226 5.96559E+00
 -1      2227 4.59735E+00
 -1      2228 3.75167E+00
 -1      2229 3.04261E+00
 -1      2230 2.91267E+00
 -1      2231 2.81459E+00
 -1      2232 2.71347E+00
 -1      2233 2.63368E+00
 -1      2234 2.55041E+00
 -1      2235 2.47475E+00
 -1      2236 2.40415E+00
 -1      2237 2.33253E+00
 -1      2238 2.27040E+00
 -1      2239 2.19653E+00
 -1      2240 2.14070E+00
 -1      2241 2.05208E+00
 -1      2242 2.00117E+00
 -1      2243 1.89344E+00
 -1      2244 1.84654E+00
 -1      2245 1.71682E+00
 -1      2246 1.67330E+00
 -1      2247 1.52071E+00
 -1      2248 1.48020E+00
 -1      2249 1.30651E+00
 -1      2250 1.26884E+00
 -1      2251 1.07895E+00
 -1      2252 1.04427E+00
 -1      2253 8.46272E-01
 -1      2254 8.15116E-01
 -1      2255 6.19676E-01
 -1      2256 5.93076E-01
 -1      2257 4.12110E-01
 -1      2258 3.91620E-01
 -1      2259 2.73810E-01
 -1      2260 2.25295E-01
 -1      2261 1.70955E-01
 -1      2262 2.90908E-01
 -1      2263 4.91236E-01
 -1      2264 6.53407E-01
 -1      2265 3.67641E+01
 -1      2266 3.68755E+01
 -1      2267 3.67641E+01
 -1      2268 2.50872E+01
 -1      2269 1.34207E+01
 -1      2270 1.02379E+01
 -1      2271 7.31463E+00
 -1      2272 5.69593E+00
 -1      2273 4.34689E+00
 -1      2274 3.59838E+00
 -1      2275 3.00315E+00
 -1      2276 2.87342E+00
 -1      2277 2.78294E+00
 -1      2278 2.68232E+00
 -1      2279 2.61285E+00
 -1      2280 2.53026E+00
 -1      2281 2.46781E+00
 -1      2282 2.39721E+00
 -1      2283 2.33355E+00
 -1      2284 2.27099E+00
 -1      2285 2.20784E+00
 -1      2286 2.15156E+00
 -1      2287 2.08443E+00
 -1      2288 2.03295E+00
 -1      2289 1.94970E+00
 -1      2290 1.90198E+00
 -1      2291 1.79882E+00
 -1      2292 1.75409E+00
 -1      2293 1.62857E+00
 -1      2294 1.58627E+00
 -1      2295 1.43789E+00
 -1      2296 1.39761E+00
 -1      2297 1.22856E+00
 -1      2298 1.19016E+00
 -1      2299 1.00586E+00
 -1      2300 9.69535E-01
 -1      2301 7.78789E-01
 -1      2302 7.45224E-01
 -1      2303 5.59512E-01
 -1      2304 5.29959E-01
 -1      2305 3.62067E-01
 -1      2306 3.38109E-01
 -1      2307 2.01337E-01
 -1      2308 4.08496E-01
 -1      2309 4.98067E-01
 -1      2310 7.22466E-01
 -1      2311 3.69762E+01
 -1      2312 3.70770E+01
 -1      2313 3.69762E+01
 -1      2314 2.50552E+01
 -1      2315 1.31662E+01
 -1      2316 9.95259E+00
 -1      2317 7.02432E+00
 -1      2318 5.39385E+00
 -1      2319 4.06546E+00
 -1      2320 3.42392E+00
 -1      2321 2.95684E+00
 -1      2322 2.82595E+00
 -1      2323 2.74253E+00
 -1      2324 2.64105E+00
 -1      2325 2.58084E+00
 -1      2326 2.49760E+00
 -1      2327 2.44702E+00
 -1      2328 2.37592E+00
 -1      2329 2.32611E+00
 -1      2330 2.26355E+00
 -1      2331 2.20843E+00
 -1      2332 2.15156E+00
 -1      2333 2.09470E+00
 -1      2334 2.04161E+00
 -1      2335 1.97986E+00
 -1      2336 1.93051E+00
 -1      2337 1.85263E+00
 -1      2338 1.80618E+00
 -1      2339 1.70764E+00
 -1      2340 1.66335E+00
 -1      2341 1.54198E+00
 -1      2342 1.49924E+00
 -1      2343 1.35487E+00
 -1      2344 1.31320E+00
 -1      2345 1.14848E+00
 -1      2346 1.10764E+00
 -1      2347 9.28694E-01
 -1      2348 8.88817E-01
 -1      2349 7.05347E-01
 -1      2350 6.67089E-01
 -1      2351 4.91701E-01
 -1      2352 4.55910E-01
 -1      2353 3.02318E-01
 -1      2354 6.24611E-01
 -1      2355 7.30790E-01
 -1      2356 8.86129E-01
 -1      2357 3.71511E+01
 -1      2358 3.72252E+01
 -1      2359 3.71511E+01
 -1      2360 2.49808E+01
 -1      2361 1.28849E+01
 -1      2362 9.63117E+00
 -1      2363 6.69885E+00
 -1      2364 5.04879E+00
 -1      2365 3.74379E+00
 -1      2366 3.22217E+00
 -1      2367 2.90229E+00
 -1      2368 2.76876E+00
 -1      2369 2.69242E+00
 -1      2370 2.58856E+00
 -1      2371 2.53720E+00
 -1      2372 2.45181E+00
 -1      2373 2.41222E+00
 -1      2374 2.33916E+00
 -1      2375 2.30287E+00
 -1      2376 2.23851E+00
 -1      2377 2.19919E+00
 -1      2378 2.14124E+00
 -1      2379 2.09361E+00
 -1      2380 2.04051E+00
 -1      2381 1.98851E+00
 -1      2382 1.93621E+00
 -1      2383 1.87821E+00
 -1      2384 1.82891E+00
 -1      2385 1.75688E+00
 -1      2386 1.70978E+00
 -1      2387 1.61625E+00
 -1      2388 1.57057E+00
 -1      2389 1.45356E+00
 -1      2390 1.40852E+00
 -1      2391 1.26817E+00
 -1      2392 1.22308E+00
 -1      2393 1.06255E+00
 -1      2394 1.01687E+00
 -1      2395 8.43130E-01
 -1      2396 7.96647E-01
 -1      2397 6.20605E-01
 -1      2398 5.73018E-01
 -1      2399 4.08322E-01
 -1      2400 8.51965E-01
 -1      2401 1.06825E+00
 -1      2402 1.05993E+00
 -1      2403 3.72509E+01
 -1      2404 3.72766E+01
 -1      2405 3.72509E+01
 -1      2406 2.48357E+01
 -1      2407 1.25656E+01
 -1      2408 9.26065E+00
 -1      2409 6.32623E+00
 -1      2410 4.64710E+00
 -1      2411 3.36966E+00
 -1      2412 2.98502E+00
 -1      2413 2.83753E+00
 -1      2414 2.69964E+00
 -1      2415 2.63088E+00
 -1      2416 2.52291E+00
 -1      2417 2.48060E+00
 -1      2418 2.39131E+00
 -1      2419 2.36253E+00
 -1      2420 2.28578E+00
 -1      2421 2.26241E+00
 -1      2422 2.19456E+00
 -1      2423 2.17066E+00
 -1      2424 2.10940E+00
 -1      2425 2.07998E+00
 -1      2426 2.02376E+00
 -1      2427 1.98429E+00
 -1      2428 1.93199E+00
 -1      2429 1.88390E+00
 -1      2430 1.83002E+00
 -1      2431 1.77503E+00
 -1      2432 1.72361E+00
 -1      2433 1.65836E+00
 -1      2434 1.60853E+00
 -1      2435 1.52074E+00
 -1      2436 1.47152E+00
 -1      2437 1.35930E+00
 -1      2438 1.30960E+00
 -1      2439 1.17337E+00
 -1      2440 1.12195E+00
 -1      2441 9.65448E-01
 -1      2442 9.11111E-01
 -1      2443 7.42309E-01
 -1      2444 6.83235E-01
 -1      2445 5.13943E-01
 -1      2446 1.08302E+00
 -1      2447 1.42104E+00
 -1      2448 1.23891E+00
 -1      2449 3.72766E+01
 -1      2450 3.72766E+01
 -1      2451 3.72766E+01
 -1      2452 2.46347E+01
 -1      2453 1.21938E+01
 -1      2454 8.82437E+00
 -1      2455 5.89120E+00
 -1      2456 4.34115E+00
 -1      2457 3.09705E+00
 -1      2458 2.87178E+00
 -1      2459 2.75975E+00
 -1      2460 2.61543E+00
 -1      2461 2.55533E+00
 -1      2462 2.44113E+00
 -1      2463 2.40872E+00
 -1      2464 2.31340E+00
 -1      2465 2.29600E+00
 -1      2466 2.21341E+00
 -1      2467 2.20320E+00
 -1      2468 2.12972E+00
 -1      2469 2.12109E+00
 -1      2470 2.05443E+00
 -1      2471 2.04274E+00
 -1      2472 1.98138E+00
 -1      2473 1.96240E+00
 -1      2474 1.90523E+00
 -1      2475 1.87482E+00
 -1      2476 1.82093E+00
 -1      2477 1.77613E+00
 -1      2478 1.72361E+00
 -1      2479 1.67108E+00
 -1      2480 1.61504E+00
 -1      2481 1.55249E+00
 -1      2482 1.49740E+00
 -1      2483 1.41643E+00
 -1      2484 1.36092E+00
 -1      2485 1.25408E+00
 -1      2486 1.19632E+00
 -1      2487 1.06419E+00
 -1      2488 1.00197E+00
 -1      2489 8.48889E-01
 -1      2490 7.78743E-01
 -1      2491 6.13089E-01
 -1      2492 1.30602E+00
 -1      2493 1.77595E+00
 -1      2494 1.41484E+00
 -1      2495 3.72104E+01
 -1      2496 3.71442E+01
 -1      2497 3.72104E+01
 -1      2498 2.43251E+01
 -1      2499 1.17494E+01
 -1      2500 8.29884E+00
 -1      2501 5.37385E+00
 -1      2502 4.00713E+00
 -1      2503 2.97443E+00
 -1      2504 2.76773E+00
 -1      2505 2.66508E+00
 -1      2506 2.51165E+00
 -1      2507 2.46200E+00
 -1      2508 2.33888E+00
 -1      2509 2.31800E+00
 -1      2510 2.21392E+00
 -1      2511 2.20932E+00
 -1      2512 2.11816E+00
 -1      2513 2.12225E+00
 -1      2514 2.04041E+00
 -1      2515 2.04788E+00
 -1      2516 1.97311E+00
 -1      2517 1.97966E+00
 -1      2518 1.91048E+00
 -1      2519 1.91220E+00
 -1      2520 1.84754E+00
 -1      2521 1.84057E+00
 -1      2522 1.77960E+00
 -1      2523 1.75997E+00
 -1      2524 1.70190E+00
 -1      2525 1.66554E+00
 -1      2526 1.60950E+00
 -1      2527 1.55900E+00
 -1      2528 1.49740E+00
 -1      2529 1.43581E+00
 -1      2530 1.37219E+00
 -1      2531 1.29730E+00
 -1      2532 1.23159E+00
 -1      2533 1.13061E+00
 -1      2534 1.05975E+00
 -1      2535 9.31111E-01
 -1      2536 8.50162E-01
 -1      2537 6.97794E-01
 -1      2538 1.50332E+00
 -1      2539 2.11154E+00
 -1      2540 1.57451E+00
 -1      2541 3.69710E+01
 -1      2542 3.67978E+01
 -1      2543 3.69710E+01
 -1      2544 2.38475E+01
 -1      2545 1.12015E+01
 -1      2546 7.65460E+00
 -1      2547 4.75194E+00
 -1      2548 3.60345E+00
 -1      2549 2.85863E+00
 -1      2550 2.63897E+00
 -1      2551 2.54807E+00
 -1      2552 2.38189E+00
 -1      2553 2.34548E+00
 -1      2554 2.20975E+00
 -1      2555 2.20315E+00
 -1      2556 2.08662E+00
 -1      2557 2.09740E+00
 -1      2558 1.99397E+00
 -1      2559 2.01473E+00
 -1      2560 1.92084E+00
 -1      2561 1.94651E+00
 -1      2562 1.85995E+00
 -1      2563 1.88654E+00
 -1      2564 1.80588E+00
 -1      2565 1.82982E+00
 -1      2566 1.75408E+00
 -1      2567 1.77181E+00
 -1      2568 1.70024E+00
 -1      2569 1.70804E+00
 -1      2570 1.63996E+00
 -1      2571 1.63382E+00
 -1      2572 1.56843E+00
 -1      2573 1.54411E+00
 -1      2574 1.48037E+00
 -1      2575 1.43366E+00
 -1      2576 1.37004E+00
 -1      2577 1.30858E+00
 -1      2578 1.23217E+00
 -1      2579 1.15518E+00
 -1      2580 1.07405E+00
 -1      2581 9.78614E-01
 -1      2582 8.86791E-01
 -1      2583 7.58339E-01
 -1      2584 1.64982E+00
 -1      2585 2.39480E+00
 -1      2586 1.69809E+00
 -1      2587 3.87059E+01
 -1      2588 4.06140E+01
 -1      2589 3.87059E+01
 -1      2590 2.52987E+01
 -1      2591 1.04402E+01
 -1      2592 6.78276E+00
 -1      2593 3.99716E+00
 -1      2594 3.11001E+00
 -1      2595 2.71630E+00
 -1      2596 2.47908E+00
 -1      2597 2.40175E+00
 -1      2598 2.21788E+00
 -1      2599 2.19802E+00
 -1      2600 2.04457E+00
 -1      2601 2.05629E+00
 -1      2602 1.92217E+00
 -1      2603 1.95250E+00
 -1      2604 1.83167E+00
 -1      2605 1.87314E+00
 -1      2606 1.76207E+00
 -1      2607 1.80977E+00
 -1      2608 1.70631E+00
 -1      2609 1.75649E+00
 -1      2610 1.65928E+00
 -1      2611 1.70868E+00
 -1      2612 1.61685E+00
 -1      2613 1.66225E+00
 -1      2614 1.57519E+00
 -1      2615 1.61318E+00
 -1      2616 1.53035E+00
 -1      2617 1.55712E+00
 -1      2618 1.47790E+00
 -1      2619 1.48921E+00
 -1      2620 1.41269E+00
 -1      2621 1.40385E+00
 -1      2622 1.32858E+00
 -1      2623 1.29477E+00
 -1      2624 1.21837E+00
 -1      2625 1.15577E+00
 -1      2626 1.07405E+00
 -1      2627 9.92326E-01
 -1      2628 8.88978E-01
 -1      2629 7.83442E-01
 -1      2630 1.71217E+00
 -1      2631 2.57855E+00
 -1      2632 1.75826E+00
 -1      2633 4.06140E+01
 -1      2634 4.06140E+01
 -1      2635 4.06140E+01
 -1      2636 2.58099E+01
 -1      2637 1.04946E+01
 -1      2638 6.98606E+00
 -1      2639 3.27422E+00
 -1      2640 2.70109E+00
 -1      2641 2.53689E+00
 -1      2642 2.27607E+00
 -1      2643 2.21826E+00
 -1      2644 2.01143E+00
 -1      2645 2.01105E+00
 -1      2646 1.83404E+00
 -1      2647 1.86755E+00
 -1      2648 1.70913E+00
 -1      2649 1.76374E+00
 -1      2650 1.61814E+00
 -1      2651 1.68606E+00
 -1      2652 1.55008E+00
 -1      2653 1.62609E+00
 -1      2654 1.49786E+00
 -1      2655 1.57808E+00
 -1      2656 1.45648E+00
 -1      2657 1.53769E+00
 -1      2658 1.42204E+00
 -1      2659 1.50120E+00
 -1      2660 1.39109E+00
 -1      2661 1.46507E+00
 -1      2662 1.36018E+00
 -1      2663 1.42545E+00
 -1      2664 1.32544E+00
 -1      2665 1.37789E+00
 -1      2666 1.28216E+00
 -1      2667 1.31696E+00
 -1      2668 1.22436E+00
 -1      2669 1.23598E+00
 -1      2670 1.14434E+00
 -1      2671 1.12673E+00
 -1      2672 1.03236E+00
 -1      2673 9.79680E-01
 -1      2674 8.76332E-01
 -1      2675 7.85630E-01
 -1      2676 1.71217E+00
 -1      2677 2.63872E+00
 -1      2678 1.75826E+00
 -1      2679 3.78495E+01
 -1      2680 3.50850E+01
 -1      2681 3.78495E+01
 -1      2682 2.30454E+01
 -1      2683 1.10059E+01
 -1      2684 6.97386E+00
 -1      2685 2.95405E+00
 -1      2686 2.63183E+00
 -1      2687 2.37888E+00
 -1      2688 2.13818E+00
 -1      2689 2.03537E+00
 -1      2690 1.83801E+00
 -1      2691 1.81407E+00
 -1      2692 1.64305E+00
 -1      2693 1.66302E+00
 -1      2694 1.50944E+00
 -1      2695 1.55556E+00
 -1      2696 1.41426E+00
 -1      2697 1.47684E+00
 -1      2698 1.34467E+00
 -1      2699 1.41791E+00
 -1      2700 1.29296E+00
 -1      2701 1.37291E+00
 -1      2702 1.25405E+00
 -1      2703 1.33762E+00
 -1      2704 1.22421E+00
 -1      2705 1.30862E+00
 -1      2706 1.20028E+00
 -1      2707 1.28275E+00
 -1      2708 1.17924E+00
 -1      2709 1.25667E+00
 -1      2710 1.15767E+00
 -1      2711 1.22644E+00
 -1      2712 1.13133E+00
 -1      2713 1.18706E+00
 -1      2714 1.09465E+00
 -1      2715 1.13195E+00
 -1      2716 1.03994E+00
 -1      2717 1.05232E+00
 -1      2718 9.56756E-01
 -1      2719 9.36790E-01
 -1      2720 8.31191E-01
 -1      2721 7.70733E-01
 -1      2722 1.68568E+00
 -1      2723 2.62712E+00
 -1      2724 1.74666E+00
 -1      2725 2.89379E+01
 -1      2726 4.10858E+01
 -1      2727 3.17755E+01
 -1      2728 1.96276E+01
 -1      2729 4.39819E+01
 -1      2730 4.68780E+01
 -1      2731 3.46716E+01
 -1      2732 4.68780E+01
 -1      2733 4.68780E+01
 -1      2734 4.68780E+01
 -1      2735 4.21681E+01
 -1      2736 3.74583E+01
 -1      2737 4.21681E+01
 -1      2738 3.88329E+01
 -1      2739 4.02076E+01
 -1      2740 3.88329E+01
 -1      2741 4.08486E+01
 -1      2742 4.14895E+01
 -1      2743 4.08486E+01
 -1      2744 4.15106E+01
 -1      2745 4.15317E+01
 -1      2746 4.15106E+01
 -1      2747 4.15317E+01
 -1      2748 4.15317E+01
 -1      2749 4.15317E+01
 -1      2750 4.12479E+01
 -1      2751 4.09642E+01
 -1      2752 4.12479E+01
 -1      2753 3.92049E+01
 -1      2754 3.74456E+01
 -1      2755 3.92049E+01
 -1      2756 3.51297E+01
 -1      2757 3.28138E+01
 -1      2758 3.51297E+01
 -1      2759 3.03377E+01
 -1      2760 2.78615E+01
 -1      2761 3.03377E+01
 -1      2762 2.52697E+01
 -1      2763 2.26779E+01
 -1      2764 2.52697E+01
 -1      2765 2.00063E+01
 -1      2766 1.73347E+01
 -1      2767 2.00063E+01
 -1      2768 1.46250E+01
 -1      2769 1.19154E+01
 -1      2770 1.46250E+01
 -1      2771 9.21617E+00
 -1      2772 6.51698E+00
 -1      2773 9.21617E+00
 -1      2774 4.64418E+00
 -1      2775 2.77138E+00
 -1      2776 4.64418E+00
 -1      2777 2.45937E+00
 -1      2778 2.01510E+00
 -1      2779 2.32711E+00
 -1      2780 1.93076E+00
 -1      2781 1.53996E+00
 -1      2782 1.62430E+00
 -1      2783 1.53996E+00
 -1      2784 1.36576E+00
 -1      2785 1.36576E+00
 -1      2786 1.31794E+00
 -1      2787 1.27013E+00
 -1      2788 1.31794E+00
 -1      2789 1.10241E+00
 -1      2790 9.34691E-01
 -1      2791 1.10241E+00
 -1      2792 6.17614E-01
 -1      2793 3.00537E-01
 -1      2794 6.17614E-01
 -1      2795 4.10858E+01
 -1      2796 4.10858E+01
 -1      2797 4.10858E+01
 -1      2798 4.04011E+01
 -1      2799 4.32972E+01
 -1      2800 3.74954E+01
 -1      2801 4.10762E+01
 -1      2802 3.30119E+01
 -1      2803 3.41038E+01
 -1      2804 2.89775E+01
 -1      2805 3.37067E+01
 -1      2806 2.57664E+01
 -1      2807 3.29083E+01
 -1      2808 2.30862E+01
 -1      2809 3.16885E+01
 -1      2810 2.07130E+01
 -1      2811 3.05561E+01
 -1      2812 1.85011E+01
 -1      2813 2.91929E+01
 -1      2814 1.63643E+01
 -1      2815 2.63763E+01
 -1      2816 1.42569E+01
 -1      2817 2.30103E+01
 -1      2818 1.21572E+01
 -1      2819 1.94845E+01
 -1      2820 1.00536E+01
 -1      2821 1.58388E+01
 -1      2822 7.93485E+00
 -1      2823 1.21023E+01
 -1      2824 5.78445E+00
 -1      2825 8.30713E+00
 -1      2826 3.84278E+00
 -1      2827 4.75182E+00
 -1      2828 2.78054E+00
 -1      2829 2.67290E+00
 -1      2830 2.36088E+00
 -1      2831 2.14735E+00
 -1      2832 1.93076E+00
 -1      2833 1.71417E+00
 -1      2834 1.50560E+00
 -1      2835 1.33140E+00
 -1      2836 1.11244E+00
 -1      2837 1.09899E+00
 -1      2838 7.70811E-01
 -1      2839 7.74232E-01
 -1      2840 4.49943E-01
 -1      2841 2.93325E-01
 -1      2842 3.01762E+01
 -1      2843 1.92667E+01
 -1      2844 3.01762E+01
 -1      2845 1.85613E+01
 -1      2846 2.87862E+01
 -1      2847 1.69855E+01
 -1      2848 2.56947E+01
 -1      2849 1.52022E+01
 -1      2850 2.25194E+01
 -1      2851 1.34020E+01
 -1      2852 1.98601E+01
 -1      2853 1.16835E+01
 -1      2854 1.75898E+01
 -1      2855 1.00853E+01
 -1      2856 1.55817E+01
 -1      2857 8.60854E+00
 -1      2858 1.37398E+01
 -1      2859 7.23426E+00
 -1      2860 1.19956E+01
 -1      2861 5.93475E+00
 -1      2862 1.03035E+01
 -1      2863 4.68035E+00
 -1      2864 8.63379E+00
 -1      2865 3.55602E+00
 -1      2866 7.07944E+00
 -1      2867 2.94030E+00
 -1      2868 5.91451E+00
 -1      2869 2.71567E+00
 -1      2870 4.73601E+00
 -1      2871 2.48486E+00
 -1      2872 3.53330E+00
 -1      2873 2.24642E+00
 -1      2874 2.55591E+00
 -1      2875 1.99933E+00
 -1      2876 2.22397E+00
 -1      2877 1.74280E+00
 -1      2878 1.87971E+00
 -1      2879 1.47589E+00
 -1      2880 1.52693E+00
 -1      2881 1.19648E+00
 -1      2882 1.17516E+00
 -1      2883 9.20176E-01
 -1      2884 8.57464E-01
 -1      2885 6.49437E-01
 -1      2886 5.62784E-01
 -1      2887 4.09258E-01
 -1      2888 2.96417E-01
 -1      2889 1.30841E+01
 -1      2890 6.90163E+00
 -1      2891 1.30841E+01
 -1      2892 6.75308E+00
 -1      2893 1.22302E+01
 -1      2894 6.31550E+00
 -1      2895 1.10707E+01
 -1      2896 5.66274E+00
 -1      2897 9.79424E+00
 -1      2898 4.89210E+00
 -1      2899 8.49982E+00
 -1      2900 4.05383E+00
 -1      2901 7.23749E+00
 -1      2902 3.32885E+00
 -1      2903 6.17668E+00
 -1      2904 2.95591E+00
 -1      2905 5.38778E+00
 -1      2906 2.79757E+00
 -1      2907 4.64406E+00
 -1      2908 2.64012E+00
 -1      2909 3.93081E+00
 -1      2910 2.48358E+00
 -1      2911 3.23312E+00
 -1      2912 2.32704E+00
 -1      2913 2.64994E+00
 -1      2914 2.16878E+00
 -1      2915 2.45914E+00
 -1      2916 2.00651E+00
 -1      2917 2.26304E+00
 -1      2918 1.83748E+00
 -1      2919 2.05930E+00
 -1      2920 1.65858E+00
 -1      2921 1.84570E+00
 -1      2922 1.47127E+00
 -1      2923 1.62491E+00
 -1      2924 1.29581E+00
 -1      2925 1.41370E+00
 -1      2926 1.13295E+00
 -1      2927 1.19514E+00
 -1      2928 1.73689E+00
 -1      2929 1.73824E+00
 -1      2930 2.48614E+00
 -1      2931 1.66808E+00
 -1      2932 2.67533E+00
 -1      2933 1.65669E+00
 -1      2934 2.80159E+00
 -1      2935 1.55415E+00
 -1      2936 4.80554E+00
 -1      2937 2.70945E+00
 -1      2938 4.80554E+00
 -1      2939 2.69159E+00
 -1      2940 4.63913E+00
 -1      2941 2.64799E+00
 -1      2942 4.32436E+00
 -1      2943 2.58692E+00
 -1      2944 3.92529E+00
 -1      2945 2.50973E+00
 -1      2946 3.47653E+00
 -1      2947 2.42078E+00
 -1      2948 2.99808E+00
 -1      2949 2.32228E+00
 -1      2950 2.65305E+00
 -1      2951 2.22051E+00
 -1      2952 2.52336E+00
 -1      2953 2.11699E+00
 -1      2954 2.39120E+00
 -1      2955 2.00818E+00
 -1      2956 2.25709E+00
 -1      2957 1.89454E+00
 -1      2958 2.12103E+00
 -1      2959 1.77622E+00
 -1      2960 1.98223E+00
 -1      2961 1.65262E+00
 -1      2962 1.83917E+00
 -1      2963 1.52967E+00
 -1      2964 1.69701E+00
 -1      2965 1.41254E+00
 -1      2966 1.55301E+00
 -1      2967 1.29652E+00
 -1      2968 1.40209E+00
 -1      2969 1.19811E+00
 -1      2970 1.26730E+00
 -1      2971 1.12402E+00
 -1      2972 1.15253E+00
 -1      2973 1.60948E+00
 -1      2974 1.58990E+00
 -1      2975 2.27621E+00
 -1      2976 2.42320E+00
 -1      2977 2.48614E+00
 -1      2978 2.54908E+00
 -1      2979 2.67533E+00
 -1      2980 2.80159E+00
 -1      2981 2.80159E+00
 -1      2982 2.80159E+00
 -1      2983 2.40725E+00
 -1      2984 2.10505E+00
 -1      2985 2.40725E+00
 -1      2986 2.09946E+00
 -1      2987 2.38380E+00
 -1      2988 2.07709E+00
 -1      2989 2.34128E+00
 -1      2990 2.03792E+00
 -1      2991 2.28356E+00
 -1      2992 1.98854E+00
 -1      2993 2.21471E+00
 -1      2994 1.93015E+00
 -1      2995 2.13622E+00
 -1      2996 1.86328E+00
 -1      2997 2.04934E+00
 -1      2998 1.78883E+00
 -1      2999 1.96000E+00
 -1      3000 1.70835E+00
 -1      3001 1.86534E+00
 -1      3002 1.62395E+00
 -1      3003 1.76679E+00
 -1      3004 1.53813E+00
 -1      3005 1.66589E+00
 -1      3006 1.45355E+00
 -1      3007 1.56388E+00
 -1      3008 1.37275E+00
 -1      3009 1.46149E+00
 -1      3010 1.29795E+00
 -1      3011 1.36613E+00
 -1      3012 1.23087E+00
 -1      3013 1.27728E+00
 -1      3014 1.17269E+00
 -1      3015 1.19193E+00
 -1      3016 1.12390E+00
 -1      3017 1.13009E+00
 -1      3018 1.52148E+00
 -1      3019 1.51541E+00
 -1      3020 2.03515E+00
 -1      3021 2.12922E+00
 -1      3022 2.16793E+00
 -1      3023 2.31492E+00
 -1      3024 2.27304E+00
 -1      3025 2.44426E+00
 -1      3026 2.44648E+00
 -1      3027 2.67755E+00
 -1      3028 2.55351E+00
 -1      3029 2.67755E+00
 -1      3030 1.89709E+00
 -1      3031 1.68955E+00
 -1      3032 1.89752E+00
 -1      3033 1.68998E+00
 -1      3034 1.89193E+00
 -1      3035 1.68281E+00
 -1      3036 1.86797E+00
 -1      3037 1.66519E+00
 -1      3038 1.83514E+00
 -1      3039 1.64136E+00
 -1      3040 1.79477E+00
 -1      3041 1.61150E+00
 -1      3042 1.74689E+00
 -1      3043 1.57529E+00
 -1      3044 1.69168E+00
 -1      3045 1.53268E+00
 -1      3046 1.62983E+00
 -1      3047 1.48409E+00
 -1      3048 1.56261E+00
 -1      3049 1.43053E+00
 -1      3050 1.49186E+00
 -1      3051 1.37359E+00
 -1      3052 1.41985E+00
 -1      3053 1.31540E+00
 -1      3054 1.34910E+00
 -1      3055 1.25849E+00
 -1      3056 1.28214E+00
 -1      3057 1.20552E+00
 -1      3058 1.22133E+00
 -1      3059 1.15914E+00
 -1      3060 1.16868E+00
 -1      3061 1.12168E+00
 -1      3062 1.12569E+00
 -1      3063 1.10730E+00
 -1      3064 1.10551E+00
 -1      3065 1.52511E+00
 -1      3066 1.94108E+00
 -1      3067 1.96870E+00
 -1      3068 2.06277E+00
 -1      3069 2.03768E+00
 -1      3070 2.14284E+00
 -1      3071 2.14337E+00
 -1      3072 2.27357E+00
 -1      3073 2.29574E+00
 -1      3074 2.46865E+00
 -1      3075 2.38379E+00
 -1      3076 2.46865E+00
 -1      3077 1.53562E+00
 -1      3078 1.38589E+00
 -1      3079 1.53981E+00
 -1      3080 1.38965E+00
 -1      3081 1.53981E+00
 -1      3082 1.38847E+00
 -1      3083 1.53147E+00
 -1      3084 1.38444E+00
 -1      3085 1.51816E+00
 -1      3086 1.37708E+00
 -1      3087 1.50028E+00
 -1      3088 1.36615E+00
 -1      3089 1.47737E+00
 -1      3090 1.35115E+00
 -1      3091 1.44907E+00
 -1      3092 1.33167E+00
 -1      3093 1.41529E+00
 -1      3094 1.30760E+00
 -1      3095 1.37640E+00
 -1      3096 1.27920E+00
 -1      3097 1.33332E+00
 -1      3098 1.24727E+00
 -1      3099 1.28754E+00
 -1      3100 1.21322E+00
 -1      3101 1.24108E+00
 -1      3102 1.17905E+00
 -1      3103 1.19645E+00
 -1      3104 1.14729E+00
 -1      3105 1.15636E+00
 -1      3106 1.12084E+00
 -1      3107 1.12361E+00
 -1      3108 1.11688E+00
 -1      3109 1.11495E+00
 -1      3110 1.14102E+00
 -1      3111 1.13337E+00
 -1      3112 1.50786E+00
 -1      3113 1.89961E+00
 -1      3114 1.88698E+00
 -1      3115 1.95606E+00
 -1      3116 1.95759E+00
 -1      3117 2.03921E+00
 -1      3118 2.05953E+00
 -1      3119 2.16368E+00
 -1      3120 2.19205E+00
 -1      3121 2.32411E+00
 -1      3122 2.26444E+00
 -1      3123 2.32411E+00
 -1      3124 1.26317E+00
 -1      3125 1.15016E+00
 -1      3126 1.27288E+00
 -1      3127 1.15921E+00
 -1      3128 1.27598E+00
 -1      3129 1.16485E+00
 -1      3130 1.27734E+00
 -1      3131 1.16923E+00
 -1      3132 1.27633E+00
 -1      3133 1.17199E+00
 -1      3134 1.27274E+00
 -1      3135 1.17291E+00
 -1      3136 1.26632E+00
 -1      3137 1.17266E+00
 -1      3138 1.25749E+00
 -1      3139 1.17080E+00
 -1      3140 1.24499E+00
 -1      3141 1.16608E+00
 -1      3142 1.22869E+00
 -1      3143 1.15838E+00
 -1      3144 1.20889E+00
 -1      3145 1.14796E+00
 -1      3146 1.18635E+00
 -1      3147 1.13557E+00
 -1      3148 1.16245E+00
 -1      3149 1.12261E+00
 -1      3150 1.13921E+00
 -1      3151 1.11115E+00
 -1      3152 1.11923E+00
 -1      3153 1.11692E+00
 -1      3154 1.11853E+00
 -1      3155 1.14483E+00
 -1      3156 1.14319E+00
 -1      3157 1.18700E+00
 -1      3158 1.18483E+00
 -1      3159 1.50982E+00
 -1      3160 1.83285E+00
 -1      3161 1.83677E+00
 -1      3162 1.89090E+00
 -1      3163 1.90690E+00
 -1      3164 1.97360E+00
 -1      3165 2.00322E+00
 -1      3166 2.08914E+00
 -1      3167 2.11894E+00
 -1      3168 2.22186E+00
 -1      3169 2.17927E+00
 -1      3170 2.22186E+00
 -1      3171 1.04867E+00
 -1      3172 9.60782E-01
 -1      3173 1.06227E+00
 -1      3174 9.74983E-01
 -1      3175 1.07192E+00
 -1      3176 9.88285E-01
 -1      3177 1.08121E+00
 -1      3178 1.00184E+00
 -1      3179 1.08986E+00
 -1      3180 1.01531E+00
 -1      3181 1.09745E+00
 -1      3182 1.02835E+00
 -1      3183 1.10381E+00
 -1      3184 1.04055E+00
 -1      3185 1.10941E+00
 -1      3186 1.05155E+00
 -1      3187 1.11294E+00
 -1      3188 1.06104E+00
 -1      3189 1.11418E+00
 -1      3190 1.06894E+00
 -1      3191 1.11315E+00
 -1      3192 1.07553E+00
 -1      3193 1.11034E+00
 -1      3194 1.08164E+00
 -1      3195 1.10687E+00
 -1      3196 1.08884E+00
 -1      3197 1.10458E+00
 -1      3198 1.10412E+00
 -1      3199 1.11070E+00
 -1      3200 1.13345E+00
 -1      3201 1.13968E+00
 -1      3202 1.17587E+00
 -1      3203 1.18102E+00
 -1      3204 1.23253E+00
 -1      3205 1.23850E+00
 -1      3206 1.52112E+00
 -1      3207 1.79244E+00
 -1      3208 1.80643E+00
 -1      3209 1.85076E+00
 -1      3210 1.87477E+00
 -1      3211 1.93091E+00
 -1      3212 1.96464E+00
 -1      3213 2.03695E+00
 -1      3214 2.06662E+00
 -1      3215 2.14862E+00
 -1      3216 2.11796E+00
 -1      3217 2.14862E+00
 -1      3218 8.74126E-01
 -1      3219 8.04379E-01
 -1      3220 8.91035E-01
 -1      3221 8.23250E-01
 -1      3222 9.07198E-01
 -1      3223 8.43263E-01
 -1      3224 9.24350E-01
 -1      3225 8.64676E-01
 -1      3226 9.42167E-01
 -1      3227 8.87222E-01
 -1      3228 9.60370E-01
 -1      3229 9.10648E-01
 -1      3230 9.78625E-01
 -1      3231 9.34623E-01
 -1      3232 9.96549E-01
 -1      3233 9.58755E-01
 -1      3234 1.01375E+00
 -1      3235 9.82642E-01
 -1      3236 1.02993E+00
 -1      3237 1.00598E+00
 -1      3238 1.04499E+00
 -1      3239 1.02870E+00
 -1      3240 1.05924E+00
 -1      3241 1.05122E+00
 -1      3242 1.07362E+00
 -1      3243 1.07465E+00
 -1      3244 1.08987E+00
 -1      3245 1.10581E+00
 -1      3246 1.12006E+00
 -1      3247 1.14904E+00
 -1      3248 1.16243E+00
 -1      3249 1.20344E+00
 -1      3250 1.21688E+00
 -1      3251 1.27215E+00
 -1      3252 1.28780E+00
 -1      3253 1.53613E+00
 -1      3254 1.76945E+00
 -1      3255 1.79016E+00
 -1      3256 1.82714E+00
 -1      3257 1.85555E+00
 -1      3258 1.90318E+00
 -1      3259 1.93826E+00
 -1      3260 1.99972E+00
 -1      3261 2.02883E+00
 -1      3262 2.09573E+00
 -1      3263 2.07349E+00
 -1      3264 2.09573E+00
 -1      3265 7.28036E-01
 -1      3266 6.71917E-01
 -1      3267 7.48261E-01
 -1      3268 6.95544E-01
 -1      3269 7.70533E-01
 -1      3270 7.22039E-01
 -1      3271 7.94770E-01
 -1      3272 7.50821E-01
 -1      3273 8.20727E-01
 -1      3274 7.81711E-01
 -1      3275 8.48206E-01
 -1      3276 8.14486E-01
 -1      3277 8.76928E-01
 -1      3278 8.48814E-01
 -1      3279 9.06509E-01
 -1      3280 8.84249E-01
 -1      3281 9.36495E-01
 -1      3282 9.20281E-01
 -1      3283 9.66428E-01
 -1      3284 9.56430E-01
 -1      3285 9.95978E-01
 -1      3286 9.92406E-01
 -1      3287 1.02513E+00
 -1      3288 1.02833E+00
 -1      3289 1.05443E+00
 -1      3290 1.06503E+00
 -1      3291 1.08525E+00
 -1      3292 1.10805E+00
 -1      3293 1.12860E+00
 -1      3294 1.16120E+00
 -1      3295 1.18163E+00
 -1      3296 1.22481E+00
 -1      3297 1.24661E+00
 -1      3298 1.30302E+00
 -1      3299 1.32855E+00
 -1      3300 1.55741E+00
 -1      3301 1.76498E+00
 -1      3302 1.79278E+00
 -1      3303 1.81796E+00
 -1      3304 1.84853E+00
 -1      3305 1.88611E+00
 -1      3306 1.92086E+00
 -1      3307 1.97301E+00
 -1      3308 2.00140E+00
 -1      3309 2.05722E+00
 -1      3310 2.04095E+00
 -1      3311 2.05722E+00
 -1      3312 6.02299E-01
 -1      3313 5.56699E-01
 -1      3314 6.26317E-01
 -1      3315 5.85689E-01
 -1      3316 6.54916E-01
 -1      3317 6.19080E-01
 -1      3318 6.86203E-01
 -1      3319 6.55459E-01
 -1      3320 7.20076E-01
 -1      3321 6.94699E-01
 -1      3322 7.56333E-01
 -1      3323 7.36504E-01
 -1      3324 7.94657E-01
 -1      3325 7.80431E-01
 -1      3326 8.34588E-01
 -1      3327 8.25900E-01
 -1      3328 8.75561E-01
 -1      3329 8.72250E-01
 -1      3330 9.16970E-01
 -1      3331 9.18843E-01
 -1      3332 9.58304E-01
 -1      3333 9.65244E-01
 -1      3334 9.99346E-01
 -1      3335 1.01144E+00
 -1      3336 1.04043E+00
 -1      3337 1.05815E+00
 -1      3338 1.08274E+00
 -1      3339 1.10954E+00
 -1      3340 1.13485E+00
 -1      3341 1.16928E+00
 -1      3342 1.19563E+00
 -1      3343 1.23932E+00
 -1      3344 1.26850E+00
 -1      3345 1.32457E+00
 -1      3346 1.35909E+00
 -1      3347 1.58221E+00
 -1      3348 1.78053E+00
 -1      3349 1.81186E+00
 -1      3350 1.82412E+00
 -1      3351 1.85346E+00
 -1      3352 1.87787E+00
 -1      3353 1.91099E+00
 -1      3354 1.95399E+00
 -1      3355 1.98147E+00
 -1      3356 2.02889E+00
 -1      3357 2.01684E+00
 -1      3358 2.02889E+00
 -1      3359 4.90592E-01
 -1      3360 4.53279E-01
 -1      3361 5.19386E-01
 -1      3362 4.88870E-01
 -1      3363 5.55174E-01
 -1      3364 5.30288E-01
 -1      3365 5.94194E-01
 -1      3366 5.75232E-01
 -1      3367 6.36496E-01
 -1      3368 6.23536E-01
 -1      3369 6.81739E-01
 -1      3370 6.74681E-01
 -1      3371 7.29445E-01
 -1      3372 7.27986E-01
 -1      3373 7.78971E-01
 -1      3374 7.82633E-01
 -1      3375 8.29562E-01
 -1      3376 8.37763E-01
 -1      3377 8.80450E-01
 -1      3378 8.92612E-01
 -1      3379 9.31005E-01
 -1      3380 9.46703E-01
 -1      3381 9.80942E-01
 -1      3382 1.00007E+00
 -1      3383 1.03057E+00
 -1      3384 1.05350E+00
 -1      3385 1.08108E+00
 -1      3386 1.11022E+00
 -1      3387 1.13868E+00
 -1      3388 1.17377E+00
 -1      3389 1.20436E+00
 -1      3390 1.24767E+00
 -1      3391 1.28263E+00
 -1      3392 1.33772E+00
 -1      3393 1.37967E+00
 -1      3394 1.61009E+00
 -1      3395 1.81264E+00
 -1      3396 1.84323E+00
 -1      3397 1.84246E+00
 -1      3398 1.86797E+00
 -1      3399 1.87896E+00
 -1      3400 1.90870E+00
 -1      3401 1.94073E+00
 -1      3402 1.96700E+00
 -1      3403 2.00775E+00
 -1      3404 1.99867E+00
 -1      3405 2.00775E+00
 -1      3406 3.87421E-01
 -1      3407 3.57274E-01
 -1      3408 4.23132E-01
 -1      3409 4.01802E-01
 -1      3410 4.67540E-01
 -1      3411 4.54586E-01
 -1      3412 5.17334E-01
 -1      3413 5.09713E-01
 -1      3414 5.67610E-01
 -1      3415 5.66792E-01
 -1      3416 6.22719E-01
 -1      3417 6.28163E-01
 -1      3418 6.80125E-01
 -1      3419 6.91018E-01
 -1      3420 7.38878E-01
 -1      3421 7.54218E-01
 -1      3422 7.97974E-01
 -1      3423 8.16709E-01
 -1      3424 8.56498E-01
 -1      3425 8.77684E-01
 -1      3426 9.13799E-01
 -1      3427 9.36783E-01
 -1      3428 9.69687E-01
 -1      3429 9.94437E-01
 -1      3430 1.02482E+00
 -1      3431 1.05178E+00
 -1      3432 1.08047E+00
 -1      3433 1.11090E+00
 -1      3434 1.14065E+00
 -1      3435 1.17555E+00
 -1      3436 1.20866E+00
 -1      3437 1.25110E+00
 -1      3438 1.29010E+00
 -1      3439 1.34409E+00
 -1      3440 1.39171E+00
 -1      3441 1.64199E+00
 -1      3442 1.86037E+00
 -1      3443 1.88816E+00
 -1      3444 1.87101E+00
 -1      3445 1.89015E+00
 -1      3446 1.88710E+00
 -1      3447 1.91023E+00
 -1      3448 1.93183E+00
 -1      3449 1.95649E+00
 -1      3450 1.99167E+00
 -1      3451 1.98467E+00
 -1      3452 1.99167E+00
 -1      3453 3.35786E-01
 -1      3454 3.74301E-01
 -1      3455 3.95789E-01
 -1      3456 4.55533E-01
 -1      3457 4.61546E-01
 -1      3458 5.31691E-01
 -1      3459 5.24732E-01
 -1      3460 5.93191E-01
 -1      3461 5.78172E-01
 -1      3462 6.35086E-01
 -1      3463 6.23706E-01
 -1      3464 6.52453E-01
 -1      3465 6.56910E-01
 -1      3466 6.80443E-01
 -1      3467 7.14551E-01
 -1      3468 7.44050E-01
 -1      3469 7.83718E-01
 -1      3470 8.16217E-01
 -1      3471 8.49207E-01
 -1      3472 8.82338E-01
 -1      3473 9.10815E-01
 -1      3474 9.43054E-01
 -1      3475 9.69022E-01
 -1      3476 9.99847E-01
 -1      3477 1.02526E+00
 -1      3478 1.05508E+00
 -1      3479 1.08160E+00
 -1      3480 1.11211E+00
 -1      3481 1.14141E+00
 -1      3482 1.17569E+00
 -1      3483 1.20983E+00
 -1      3484 1.25116E+00
 -1      3485 1.29242E+00
 -1      3486 1.34544E+00
 -1      3487 1.39710E+00
 -1      3488 1.69391E+00
 -1      3489 1.93880E+00
 -1      3490 1.98945E+00
 -1      3491 1.93880E+00
 -1      3492 1.95520E+00
 -1      3493 1.90655E+00
 -1      3494 1.92249E+00
 -1      3495 1.92617E+00
 -1      3496 1.94879E+00
 -1      3497 1.97911E+00
 -1      3498 1.97356E+00
 -1      3499 1.97911E+00
 -1      3500 3.68636E-01
 -1      3501 4.55863E-01
 -1      3502 4.61528E-01
 -1      3503 5.58915E-01
 -1      3504 5.52921E-01
 -1      3505 6.47677E-01
 -1      3506 6.26448E-01
 -1      3507 7.10749E-01
 -1      3508 6.77492E-01
 -1      3509 7.43114E-01
 -1      3510 7.00708E-01
 -1      3511 7.50969E-01
 -1      3512 7.02713E-01
 -1      3513 7.40689E-01
 -1      3514 7.18418E-01
 -1      3515 7.66774E-01
 -1      3516 7.92406E-01
 -1      3517 8.37381E-01
 -1      3518 8.61192E-01
 -1      3519 9.01638E-01
 -1      3520 9.22785E-01
 -1      3521 9.58493E-01
 -1      3522 9.78763E-01
 -1      3523 1.01044E+00
 -1      3524 1.03152E+00
 -1      3525 1.06077E+00
 -1      3526 1.08432E+00
 -1      3527 1.11377E+00
 -1      3528 1.14155E+00
 -1      3529 1.17544E+00
 -1      3530 1.20958E+00
 -1      3531 1.25091E+00
 -1      3532 1.29249E+00
 -1      3533 1.34544E+00
 -1      3534 1.39838E+00
 -1      3535 1.74655E+00
 -1      3536 2.04208E+00
 -1      3537 2.09472E+00
 -1      3538 2.04208E+00
 -1      3539 2.02787E+00
 -1      3540 1.94100E+00
 -1      3541 1.94132E+00
 -1      3542 1.92282E+00
 -1      3543 1.94304E+00
 -1      3544 1.96902E+00
 -1      3545 1.96447E+00
 -1      3546 1.96902E+00
 -1      3547 4.59828E-01
 -1      3548 5.83768E-01
 -1      3549 5.79802E-01
 -1      3550 7.08415E-01
 -1      3551 6.87528E-01
 -1      3552 8.03741E-01
 -1      3553 7.63890E-01
 -1      3554 8.57883E-01
 -1      3555 8.04742E-01
 -1      3556 8.74223E-01
 -1      3557 8.12596E-01
 -1      3558 8.67584E-01
 -1      3559 8.05957E-01
 -1      3560 8.31522E-01
 -1      3561 7.66253E-01
 -1      3562 8.21284E-01
 -1      3563 8.21805E-01
 -1      3564 8.72467E-01
 -1      3565 8.88043E-01
 -1      3566 9.31053E-01
 -1      3567 9.44648E-01
 -1      3568 9.80560E-01
 -1      3569 9.94405E-01
 -1      3570 1.02477E+00
 -1      3571 1.04080E+00
 -1      3572 1.06802E+00
 -1      3573 1.08799E+00
 -1      3574 1.11561E+00
 -1      3575 1.14140E+00
 -1      3576 1.17406E+00
 -1      3577 1.20811E+00
 -1      3578 1.24827E+00
 -1      3579 1.29107E+00
 -1      3580 1.34336E+00
 -1      3581 1.39773E+00
 -1      3582 1.79635E+00
 -1      3583 2.14518E+00
 -1      3584 2.19563E+00
 -1      3585 2.14518E+00
 -1      3586 2.09892E+00
 -1      3587 1.98162E+00
 -1      3588 1.96761E+00
 -1      3589 1.92731E+00
 -1      3590 1.94490E+00
 -1      3591 1.96063E+00
 -1      3592 1.95678E+00
 -1      3593 1.96063E+00
 -1      3594 6.02567E-01
 -1      3595 7.69735E-01
 -1      3596 7.50936E-01
 -1      3597 9.11241E-01
 -1      3598 8.68720E-01
 -1      3599 1.00097E+00
 -1      3600 9.35993E-01
 -1      3601 1.03044E+00
 -1      3602 9.52334E-01
 -1      3603 1.02968E+00
 -1      3604 9.51569E-01
 -1      3605 9.98879E-01
 -1      3606 9.14895E-01
 -1      3607 9.12582E-01
 -1      3608 8.29209E-01
 -1      3609 8.74519E-01
 -1      3610 8.66594E-01
 -1      3611 9.20062E-01
 -1      3612 9.25936E-01
 -1      3613 9.68533E-01
 -1      3614 9.73650E-01
 -1      3615 1.00714E+00
 -1      3616 1.01404E+00
 -1      3617 1.04110E+00
 -1      3618 1.05182E+00
 -1      3619 1.07578E+00
 -1      3620 1.09197E+00
 -1      3621 1.11719E+00
 -1      3622 1.14083E+00
 -1      3623 1.17180E+00
 -1      3624 1.20503E+00
 -1      3625 1.24408E+00
 -1      3626 1.28732E+00
 -1      3627 1.33918E+00
 -1      3628 1.39522E+00
 -1      3629 1.79450E+00
 -1      3630 2.19563E+00
 -1      3631 2.19563E+00
 -1      3632 2.19563E+00
 -1      3633 2.11893E+00
 -1      3634 2.02222E+00
 -1      3635 1.99434E+00
 -1      3636 1.93973E+00
 -1      3637 1.94826E+00
 -1      3638 1.95343E+00
 -1      3639 1.95007E+00
 -1      3640 1.95343E+00
 -1      3641 8.13311E-01
 -1      3642 1.02967E+00
 -1      3643 9.86098E-01
 -1      3644 1.17482E+00
 -1      3645 1.09996E+00
 -1      3646 1.23768E+00
 -1      3647 1.13869E+00
 -1      3648 1.24694E+00
 -1      3649 1.13869E+00
 -1      3650 1.21701E+00
 -1      3651 1.10800E+00
 -1      3652 1.12310E+00
 -1      3653 1.01398E+00
 -1      3654 9.78503E-01
 -1      3655 8.77106E-01
 -1      3656 9.27660E-01
 -1      3657 9.25073E-01
 -1      3658 9.77355E-01
 -1      3659 9.72344E-01
 -1      3660 1.01096E+00
 -1      3661 1.00715E+00
 -1      3662 1.03551E+00
 -1      3663 1.03550E+00
 -1      3664 1.05758E+00
 -1      3665 1.06318E+00
 -1      3666 1.08306E+00
 -1      3667 1.09565E+00
 -1      3668 1.11822E+00
 -1      3669 1.13975E+00
 -1      3670 1.16891E+00
 -1      3671 1.20095E+00
 -1      3672 1.23906E+00
 -1      3673 1.28218E+00
 -1      3674 1.33388E+00
 -1      3675 1.39088E+00
 -1      3676 1.46041E+00
 -1      3677 1.86403E+00
 -1      3678 1.80630E+00
 -1      3679 2.13790E+00
 -1      3680 2.08017E+00
 -1      3681 2.06120E+00
 -1      3682 2.01932E+00
 -1      3683 1.95246E+00
 -1      3684 1.95127E+00
 -1      3685 1.94706E+00
 -1      3686 1.94406E+00
 -1      3687 1.94706E+00
 -1      3688 1.11624E+00
 -1      3689 1.38449E+00
 -1      3690 1.29792E+00
 -1      3691 1.50503E+00
 -1      3692 1.38193E+00
 -1      3693 1.53543E+00
 -1      3694 1.39118E+00
 -1      3695 1.50720E+00
 -1      3696 1.36295E+00
 -1      3697 1.40465E+00
 -1      3698 1.25872E+00
 -1      3699 1.22086E+00
 -1      3700 1.08525E+00
 -1      3701 1.05116E+00
 -1      3702 9.44418E-01
 -1      3703 1.01054E+00
 -1      3704 9.93785E-01
 -1      3705 1.03989E+00
 -1      3706 1.02346E+00
 -1      3707 1.05437E+00
 -1      3708 1.04188E+00
 -1      3709 1.06286E+00
 -1      3710 1.05650E+00
 -1      3711 1.07254E+00
 -1      3712 1.07362E+00
 -1      3713 1.08916E+00
 -1      3714 1.09859E+00
 -1      3715 1.11857E+00
 -1      3716 1.13820E+00
 -1      3717 1.16565E+00
 -1      3718 1.19636E+00
 -1      3719 1.23372E+00
 -1      3720 1.27642E+00
 -1      3721 1.32818E+00
 -1      3722 1.38563E+00
 -1      3723 1.45592E+00
 -1      3724 1.53069E+00
 -1      3725 1.82209E+00
 -1      3726 2.09770E+00
 -1      3727 2.11524E+00
 -1      3728 2.09770E+00
 -1      3729 2.04198E+00
 -1      3730 1.96360E+00
 -1      3731 1.95365E+00
 -1      3732 1.94132E+00
 -1      3733 1.93857E+00
 -1      3734 1.94132E+00
 -1      3735 1.54461E+00
 -1      3736 1.85833E+00
 -1      3737 1.69821E+00
 -1      3738 1.92179E+00
 -1      3739 1.72861E+00
 -1      3740 1.90225E+00
 -1      3741 1.70906E+00
 -1      3742 1.79383E+00
 -1      3743 1.59197E+00
 -1      3744 1.56842E+00
 -1      3745 1.38111E+00
 -1      3746 1.27163E+00
 -1      3747 1.11138E+00
 -1      3748 1.10247E+00
 -1      3749 1.04225E+00
 -1      3750 1.09892E+00
 -1      3751 1.06721E+00
 -1      3752 1.10428E+00
 -1      3753 1.07696E+00
 -1      3754 1.10181E+00
 -1      3755 1.07923E+00
 -1      3756 1.09460E+00
 -1      3757 1.07823E+00
 -1      3758 1.08799E+00
 -1      3759 1.08230E+00
 -1      3760 1.09369E+00
 -1      3761 1.10055E+00
 -1      3762 1.11822E+00
 -1      3763 1.13624E+00
 -1      3764 1.16219E+00
 -1      3765 1.19160E+00
 -1      3766 1.22844E+00
 -1      3767 1.27056E+00
 -1      3768 1.32252E+00
 -1      3769 1.38013E+00
 -1      3770 1.45122E+00
 -1      3771 1.52701E+00
 -1      3772 1.83460E+00
 -1      3773 2.12969E+00
 -1      3774 2.14414E+00
 -1      3775 2.12969E+00
 -1      3776 2.06059E+00
 -1      3777 1.97288E+00
 -1      3778 1.95527E+00
 -1      3779 1.93604E+00
 -1      3780 1.93350E+00
 -1      3781 1.93604E+00
 -1      3782 2.14470E+00
 -1      3783 2.49453E+00
 -1      3784 2.20816E+00
 -1      3785 2.47970E+00
 -1      3786 2.19333E+00
 -1      3787 2.35723E+00
 -1      3788 2.06615E+00
 -1      3789 2.07000E+00
 -1      3790 1.79768E+00
 -1      3791 1.67187E+00
 -1      3792 1.44260E+00
 -1      3793 1.32460E+00
 -1      3794 1.15362E+00
 -1      3795 1.19586E+00
 -1      3796 1.14471E+00
 -1      3797 1.19571E+00
 -1      3798 1.14993E+00
 -1      3799 1.18383E+00
 -1      3800 1.13818E+00
 -1      3801 1.15692E+00
 -1      3802 1.12054E+00
 -1      3803 1.12818E+00
 -1      3804 1.10224E+00
 -1      3805 1.10563E+00
 -1      3806 1.09138E+00
 -1      3807 1.09914E+00
 -1      3808 1.10145E+00
 -1      3809 1.11718E+00
 -1      3810 1.13395E+00
 -1      3811 1.15867E+00
 -1      3812 1.18691E+00
 -1      3813 1.22341E+00
 -1      3814 1.26493E+00
 -1      3815 1.31717E+00
 -1      3816 1.37476E+00
 -1      3817 1.44664E+00
 -1      3818 1.52310E+00
 -1      3819 1.84416E+00
 -1      3820 2.15566E+00
 -1      3821 2.16718E+00
 -1      3822 2.15566E+00
 -1      3823 2.07531E+00
 -1      3824 1.98024E+00
 -1      3825 1.95611E+00
 -1      3826 1.93114E+00
 -1      3827 1.92877E+00
 -1      3828 1.93114E+00
 -1      3829 3.72697E+00
 -1      3830 4.95941E+00
 -1      3831 3.72697E+00
 -1      3832 4.02228E+00
 -1      3833 2.77501E+00
 -1      3834 2.83594E+00
 -1      3835 2.41816E+00
 -1      3836 2.28134E+00
 -1      3837 1.93317E+00
 -1      3838 1.71465E+00
 -1      3839 1.45334E+00
 -1      3840 1.40219E+00
 -1      3841 1.27345E+00
 -1      3842 1.34287E+00
 -1      3843 1.26527E+00
 -1      3844 1.30970E+00
 -1      3845 1.24015E+00
 -1      3846 1.25570E+00
 -1      3847 1.19938E+00
 -1      3848 1.20019E+00
 -1      3849 1.15773E+00
 -1      3850 1.15298E+00
 -1      3851 1.12343E+00
 -1      3852 1.11873E+00
 -1      3853 1.10093E+00
 -1      3854 1.10343E+00
 -1      3855 1.10164E+00
 -1      3856 1.11585E+00
 -1      3857 1.13140E+00
 -1      3858 1.15516E+00
 -1      3859 1.18243E+00
 -1      3860 1.21871E+00
 -1      3861 1.25968E+00
 -1      3862 1.31224E+00
 -1      3863 1.36973E+00
 -1      3864 1.44234E+00
 -1      3865 1.51926E+00
 -1      3866 1.85112E+00
 -1      3867 2.17603E+00
 -1      3868 2.18487E+00
 -1      3869 2.17603E+00
 -1      3870 2.08647E+00
 -1      3871 1.98575E+00
 -1      3872 1.95621E+00
 -1      3873 1.92657E+00
 -1      3874 1.92436E+00
 -1      3875 1.92657E+00
 -1      3876 8.47561E+00
 -1      3877 1.19918E+01
 -1      3878 8.47561E+00
 -1      3879 9.34284E+00
 -1      3880 4.88952E+00
 -1      3881 4.76054E+00
 -1      3882 2.70697E+00
 -1      3883 2.40159E+00
 -1      3884 1.97596E+00
 -1      3885 1.78083E+00
 -1      3886 1.51952E+00
 -1      3887 1.56291E+00
 -1      3888 1.44559E+00
 -1      3889 1.49430E+00
 -1      3890 1.39158E+00
 -1      3891 1.39954E+00
 -1      3892 1.31766E+00
 -1      3893 1.30718E+00
 -1      3894 1.24521E+00
 -1      3895 1.22878E+00
 -1      3896 1.18377E+00
 -1      3897 1.16808E+00
 -1      3898 1.13729E+00
 -1      3899 1.12583E+00
 -1      3900 1.10727E+00
 -1      3901 1.10513E+00
 -1      3902 1.10128E+00
 -1      3903 1.11403E+00
 -1      3904 1.12860E+00
 -1      3905 1.15163E+00
 -1      3906 1.17818E+00
 -1      3907 1.21435E+00
 -1      3908 1.25488E+00
 -1      3909 1.30776E+00
 -1      3910 1.36513E+00
 -1      3911 1.43840E+00
 -1      3912 1.51561E+00
 -1      3913 1.85588E+00
 -1      3914 2.19139E+00
 -1      3915 2.19790E+00
 -1      3916 2.19139E+00
 -1      3917 2.09451E+00
 -1      3918 1.98960E+00
 -1      3919 1.95568E+00
 -1      3920 1.92229E+00
 -1      3921 1.92023E+00
 -1      3922 1.92229E+00
 -1      3923 1.57602E+01
 -1      3924 1.95287E+01
 -1      3925 1.57602E+01
 -1      3926 1.47169E+01
 -1      3927 8.29952E+00
 -1      3928 6.36620E+00
 -1      3929 2.82722E+00
 -1      3930 2.38514E+00
 -1      3931 1.95950E+00
 -1      3932 1.89391E+00
 -1      3933 1.71523E+00
 -1      3934 1.76221E+00
 -1      3935 1.60990E+00
 -1      3936 1.60041E+00
 -1      3937 1.48481E+00
 -1      3938 1.45431E+00
 -1      3939 1.36903E+00
 -1      3940 1.33458E+00
 -1      3941 1.27272E+00
 -1      3942 1.24174E+00
 -1      3943 1.19780E+00
 -1      3944 1.17339E+00
 -1      3945 1.14366E+00
 -1      3946 1.12716E+00
 -1      3947 1.10933E+00
 -1      3948 1.10421E+00
 -1      3949 1.10001E+00
 -1      3950 1.11151E+00
 -1      3951 1.12553E+00
 -1      3952 1.14804E+00
 -1      3953 1.17413E+00
 -1      3954 1.21028E+00
 -1      3955 1.25050E+00
 -1      3956 1.30371E+00
 -1      3957 1.36097E+00
 -1      3958 1.43482E+00
 -1      3959 1.51225E+00
 -1      3960 1.85879E+00
 -1      3961 2.20242E+00
 -1      3962 2.20695E+00
 -1      3963 2.20242E+00
 -1      3964 2.09991E+00
 -1      3965 1.99200E+00
 -1      3966 1.95462E+00
 -1      3967 1.91830E+00
 -1      3968 1.91637E+00
 -1      3969 1.91830E+00
 -1      3970 2.47681E+01
 -1      3971 3.00076E+01
 -1      3972 2.47681E+01
 -1      3973 2.07301E+01
 -1      3974 1.06789E+01
 -1      3975 7.10832E+00
 -1      3976 2.79565E+00
 -1      3977 2.53457E+00
 -1      3978 2.12405E+00
 -1      3979 2.15324E+00
 -1      3980 1.92309E+00
 -1      3981 1.87318E+00
 -1      3982 1.71230E+00
 -1      3983 1.64516E+00
 -1      3984 1.53327E+00
 -1      3985 1.46959E+00
 -1      3986 1.39063E+00
 -1      3987 1.33775E+00
 -1      3988 1.28169E+00
 -1      3989 1.24174E+00
 -1      3990 1.20178E+00
 -1      3991 1.17339E+00
 -1      3992 1.14499E+00
 -1      3993 1.12703E+00
 -1      3994 1.10920E+00
 -1      3995 1.10260E+00
 -1      3996 1.09761E+00
 -1      3997 1.10824E+00
 -1      3998 1.12214E+00
 -1      3999 1.14433E+00
 -1      4000 1.17023E+00
 -1      4001 1.20644E+00
 -1      4002 1.24650E+00
 -1      4003 1.30003E+00
 -1      4004 1.35724E+00
 -1      4005 1.43159E+00
 -1      4006 1.50917E+00
 -1      4007 1.86022E+00
 -1      4008 2.20984E+00
 -1      4009 2.21273E+00
 -1      4010 2.20984E+00
 -1      4011 2.10312E+00
 -1      4012 1.99319E+00
 -1      4013 1.95314E+00
 -1      4014 1.91457E+00
 -1      4015 1.91277E+00
 -1      4016 1.91457E+00
 -1      4017 3.21377E+01
 -1      4018 3.42679E+01
 -1      4019 3.21377E+01
 -1      4020 2.28602E+01
 -1      4021 1.14526E+01
 -1      4022 7.21148E+00
 -1      4023 2.86725E+00
 -1      4024 2.68813E+00
 -1      4025 2.35546E+00
 -1      4026 2.20860E+00
 -1      4027 2.00638E+00
 -1      4028 1.87814E+00
 -1      4029 1.74494E+00
 -1      4030 1.64516E+00
 -1      4031 1.54538E+00
 -1      4032 1.46959E+00
 -1      4033 1.39380E+00
 -1      4034 1.33722E+00
 -1      4035 1.28116E+00
 -1      4036 1.23936E+00
 -1      4037 1.19993E+00
 -1      4038 1.16934E+00
 -1      4039 1.14279E+00
 -1      4040 1.12264E+00
 -1      4041 1.10688E+00
 -1      4042 1.09838E+00
 -1      4043 1.09410E+00
 -1      4044 1.10425E+00
 -1      4045 1.11839E+00
 -1      4046 1.14048E+00
 -1      4047 1.16642E+00
 -1      4048 1.20279E+00
 -1      4049 1.24281E+00
 -1      4050 1.29667E+00
 -1      4051 1.35388E+00
 -1      4052 1.42868E+00
 -1      4053 1.50639E+00
 -1      4054 1.86047E+00
 -1      4055 2.21430E+00
 -1      4056 2.21588E+00
 -1      4057 2.21430E+00
 -1      4058 2.10469E+00
 -1      4059 1.99351E+00
 -1      4060 1.95147E+00
 -1      4061 1.91110E+00
 -1      4062 1.90942E+00
 -1      4063 1.91110E+00
 -1      4064 3.42679E+01
 -1      4065 3.42679E+01
 -1      4066 3.42679E+01
 -1      4067 2.04341E+01
 -1      4068 9.02643E+00
 -1      4069 4.78536E+00
 -1      4070 2.97041E+00
 -1      4071 2.68813E+00
 -1      4072 2.40585E+00
 -1      4073 2.20860E+00
 -1      4074 2.01134E+00
 -1      4075 1.86847E+00
 -1      4076 1.73527E+00
 -1      4077 1.62277E+00
 -1      4078 1.53266E+00
 -1      4079 1.44527E+00
 -1      4080 1.38220E+00
 -1      4081 1.31626E+00
 -1      4082 1.27128E+00
 -1      4083 1.22286E+00
 -1      4084 1.19094E+00
 -1      4085 1.15685E+00
 -1      4086 1.13525E+00
 -1      4087 1.11327E+00
 -1      4088 1.10066E+00
 -1      4089 1.09182E+00
 -1      4090 1.08954E+00
 -1      4091 1.09959E+00
 -1      4092 1.11429E+00
 -1      4093 1.13648E+00
 -1      4094 1.16267E+00
 -1      4095 1.19928E+00
 -1      4096 1.23940E+00
 -1      4097 1.29358E+00
 -1      4098 1.35085E+00
 -1      4099 1.42604E+00
 -1      4100 1.50386E+00
 -1      4101 1.85981E+00
 -1      4102 2.21641E+00
 -1      4103 2.21695E+00
 -1      4104 2.21641E+00
 -1      4105 2.10512E+00
 -1      4106 1.99340E+00
 -1      4107 1.94993E+00
 -1      4108 1.90800E+00
 -1      4109 1.90644E+00
 -1      4110 1.90787E+00
 -1      4111 1.92543E+01
 -1      4112 4.24079E+00
 -1      4113 1.92543E+01
 -1      4114 4.03797E+00
 -1      4115 5.21773E+00
 -1      4116 3.26369E+00
 -1      4117 2.83132E+00
 -1      4118 2.45925E+00
 -1      4119 2.31606E+00
 -1      4120 2.04991E+00
 -1      4121 1.94245E+00
 -1      4122 1.75035E+00
 -1      4123 1.67637E+00
 -1      4124 1.53895E+00
 -1      4125 1.48535E+00
 -1      4126 1.38669E+00
 -1      4127 1.34661E+00
 -1      4128 1.27576E+00
 -1      4129 1.24541E+00
 -1      4130 1.19501E+00
 -1      4131 1.17245E+00
 -1      4132 1.13769E+00
 -1      4133 1.12208E+00
 -1      4134 1.09999E+00
 -1      4135 1.09117E+00
 -1      4136 1.08348E+00
 -1      4137 1.08413E+00
 -1      4138 1.09448E+00
 -1      4139 1.10994E+00
 -1      4140 1.13249E+00
 -1      4141 1.15904E+00
 -1      4142 1.19604E+00
 -1      4143 1.23628E+00
 -1      4144 1.29087E+00
 -1      4145 1.34817E+00
 -1      4146 1.42377E+00
 -1      4147 1.50164E+00
 -1      4148 1.85878E+00
 -1      4149 2.21695E+00
 -1      4150 2.21695E+00
 -1      4151 2.21695E+00
 -1      4152 2.10477E+00
 -1      4153 1.99294E+00
 -1      4154 1.94852E+00
 -1      4155 1.90551E+00
 -1      4156 1.90395E+00
 -1      4157 1.90488E+00
 -3
 9999
