"stress_xx","stress_yy","stress_zz","stress_xy","stress_yz","stress_xz","vonmises","displacement contact distance","displacement contact gap","displacement contact normalload","displacement contact slipload","displacement contact weight","displacement contact active","displacement contact stick","displacement:0","displacement:1","displacement:2","displacement contact load:0","displacement contact load:1","displacement contact load:2","GeometryIds","vtkValidPointMask","arc_length","Points:0","Points:1","Points:2"
-3575.5,-5994.6,-2975.2,3044.4,0,0,5973.9,-4.4733e-05,-1.9576e-09,3828.5,773.19,0,0.96862,-0.96862,3.6698e-12,0.031382,0,-2224.3,-1160.6,0,1,1,0,0,0,0
-3566.7,-5986.4,-2969.9,3038.3,0,0,5965.3,-4.4615e-05,-1.9524e-09,3818.4,771.15,0,0.96607,-0.96607,3.6601e-12,0.03143,0,-2219.4,-1157.6,0,1,1,0.0025,0,-0.0025,0
-3557.9,-5978.2,-2964.6,3032.2,0,0,5956.7,-4.4497e-05,-1.9473e-09,3808.3,769.12,0,0.96352,-0.96352,3.6504e-12,0.031478,0,-2214.4,-1154.5,0,1,1,0.005,0,-0.005,0
-3549.1,-5970.1,-2959.2,3026.2,0,0,5948.1,-4.438e-05,-1.9421e-09,3798.3,767.09,0,0.96097,-0.96097,3.6407e-12,0.031527,0,-2209.5,-1151.5,0,1,1,0.0075,0,-0.0075,0
-3540.3,-5961.9,-2953.9,3020.1,0,0,5939.6,-4.4262e-05,-1.937e-09,3788.2,765.05,0,0.95843,-0.95843,3.6309e-12,0.031575,0,-2204.5,-1148.4,0,1,1,0.01,0,-0.01,0
-3531.5,-5953.7,-2948.6,3014.1,0,0,5931,-4.4144e-05,-1.9318e-09,3778.1,763.02,0,0.95588,-0.95588,3.6212e-12,0.031623,0,-2199.6,-1145.4,0,1,1,0.0125,0,-0.0125,0
-3522.7,-5945.6,-2943.3,3008,0,0,5922.4,-4.4027e-05,-1.9267e-09,3768.1,760.98,0,0.95333,-0.95333,3.6115e-12,0.031672,0,-2194.7,-1142.3,0,1,1,0.015,0,-0.015,0
-3513.9,-5937.4,-2938,3001.9,0,0,5913.8,-4.3909e-05,-1.9215e-09,3758,758.95,0,0.95078,-0.95078,3.6018e-12,0.03172,0,-2189.7,-1139.3,0,1,1,0.0175,0,-0.0175,0
-3505.1,-5929.2,-2932.7,2995.9,0,0,5905.2,-4.3791e-05,-1.9164e-09,3747.9,756.92,0,0.94823,-0.94823,3.5921e-12,0.031768,0,-2184.8,-1136.2,0,1,1,0.02,0,-0.02,0
-3496.3,-5921.1,-2927.3,2989.8,0,0,5896.6,-4.3674e-05,-1.9112e-09,3737.8,754.88,0,0.94568,-0.94568,3.5824e-12,0.031816,0,-2179.8,-1133.2,0,1,1,0.0225,0,-0.0225,0
-3487.5,-5912.9,-2922,2983.7,0,0,5888,-4.3556e-05,-1.9061e-09,3727.8,752.85,0,0.94314,-0.94314,3.5727e-12,0.031865,0,-2174.9,-1130.1,0,1,1,0.025,0,-0.025,0
-3478.7,-5904.7,-2916.7,2977.7,0,0,5879.4,-4.3438e-05,-1.9009e-09,3717.7,750.81,0,0.94059,-0.94059,3.5629e-12,0.031913,0,-2169.9,-1127,0,1,1,0.0275,0,-0.0275,0
-3469.9,-5896.6,-2911.4,2971.6,0,0,5870.8,-4.332e-05,-1.8958e-09,3707.6,748.78,0,0.93804,-0.93804,3.5532e-12,0.031961,0,-2165,-1124,0,1,1,0.03,0,-0.03,0
-3461.1,-5888.4,-2906.1,2965.6,0,0,5862.2,-4.3203e-05,-1.8906e-09,3697.5,746.74,0,0.93549,-0.93549,3.5435e-12,0.03201,0,-2160,-1120.9,0,1,1,0.0325,0,-0.0325,0
-3452.3,-5880.3,-2900.8,2959.5,0,0,5853.6,-4.3085e-05,-1.8855e-09,3687.5,744.71,0,0.93294,-0.93294,3.5338e-12,0.032058,0,-2155.1,-1117.9,0,1,1,0.035,0,-0.035,0
-3443.4,-5872.1,-2895.4,2953.4,0,0,5845,-4.2967e-05,-1.8803e-09,3677.4,742.68,0,0.93039,-0.93039,3.5241e-12,0.032106,0,-2150.2,-1114.8,0,1,1,0.0375,0,-0.0375,0
-3434.6,-5863.9,-2890.1,2947.4,0,0,5836.4,-4.285e-05,-1.8752e-09,3667.3,740.64,0,0.92785,-0.92785,3.5144e-12,0.032155,0,-2145.2,-1111.8,0,1,1,0.04,0,-0.04,0
-3425.8,-5855.8,-2884.8,2941.3,0,0,5827.8,-4.2732e-05,-1.87e-09,3657.3,738.61,0,0.9253,-0.9253,3.5047e-12,0.032203,0,-2140.3,-1108.7,0,1,1,0.0425,0,-0.0425,0
-3417,-5847.6,-2879.5,2935.2,0,0,5819.2,-4.2614e-05,-1.8649e-09,3647.2,736.57,0,0.92275,-0.92275,3.495e-12,0.032251,0,-2135.3,-1105.7,0,1,1,0.045,0,-0.045,0
-3408.2,-5839.4,-2874.2,2929.2,0,0,5810.6,-4.2497e-05,-1.8597e-09,3637.1,734.54,0,0.9202,-0.9202,3.4853e-12,0.032299,0,-2130.4,-1102.6,0,1,1,0.0475,0,-0.0475,0
-3399.4,-5831.3,-2868.9,2923.1,0,0,5802,-4.2379e-05,-1.8546e-09,3627,732.51,0,0.91765,-0.91765,3.4755e-12,0.032348,0,-2125.4,-1099.6,0,1,1,0.05,0,-0.05,0
-3390.6,-5823.1,-2863.5,2917,0,0,5793.4,-4.2261e-05,-1.8494e-09,3617,730.47,0,0.9151,-0.9151,3.4658e-12,0.032396,0,-2120.5,-1096.5,0,1,1,0.0525,0,-0.0525,0
-3381.8,-5814.9,-2858.2,2911,0,0,5784.8,-4.2144e-05,-1.8443e-09,3606.9,728.44,0,0.91256,-0.91256,3.4561e-12,0.032444,0,-2115.5,-1093.5,0,1,1,0.055,0,-0.055,0
-3373,-5806.8,-2852.9,2904.9,0,0,5776.2,-4.2026e-05,-1.8391e-09,3596.8,726.4,0,0.91001,-0.91001,3.4464e-12,0.032493,0,-2110.6,-1090.4,0,1,1,0.0575,0,-0.0575,0
-3364.2,-5798.6,-2847.6,2898.9,0,0,5767.7,-4.1908e-05,-1.834e-09,3586.8,724.37,0,0.90746,-0.90746,3.4367e-12,0.032541,0,-2105.7,-1087.3,0,1,1,0.06,0,-0.06,0
-3355.4,-5790.5,-2842.3,2892.8,0,0,5759.1,-4.1791e-05,-1.8288e-09,3576.7,722.34,0,0.90491,-0.90491,3.427e-12,0.032589,0,-2100.7,-1084.3,0,1,1,0.0625,0,-0.0625,0
-3346.6,-5782.3,-2836.9,2886.7,0,0,5750.5,-4.1673e-05,-1.8237e-09,3566.6,720.3,0,0.90236,-0.90236,3.4173e-12,0.032637,0,-2095.8,-1081.2,0,1,1,0.065,0,-0.065,0
-3337.8,-5774.1,-2831.6,2880.7,0,0,5741.9,-4.1555e-05,-1.8185e-09,3556.5,718.27,0,0.89981,-0.89981,3.4076e-12,0.032686,0,-2090.8,-1078.2,0,1,1,0.0675,0,-0.0675,0
-3329,-5766,-2826.3,2874.6,0,0,5733.3,-4.1438e-05,-1.8134e-09,3546.5,716.23,0,0.89727,-0.89727,3.3979e-12,0.032734,0,-2085.9,-1075.1,0,1,1,0.07,0,-0.07,0
-3320.2,-5757.8,-2821,2868.5,0,0,5724.7,-4.132e-05,-1.8082e-09,3536.4,714.2,0,0.89472,-0.89472,3.3882e-12,0.032782,0,-2080.9,-1072.1,0,1,1,0.0725,0,-0.0725,0
-3311.3,-5749.6,-2815.7,2862.5,0,0,5716.1,-4.1202e-05,-1.8031e-09,3526.3,712.16,0,0.89217,-0.89217,3.3785e-12,0.032831,0,-2076,-1069,0,1,1,0.075,0,-0.075,0
-3302.5,-5741.5,-2810.4,2856.4,0,0,5707.5,-4.1084e-05,-1.7979e-09,3516.2,710.13,0,0.88962,-0.88962,3.3688e-12,0.032879,0,-2071,-1066,0,1,1,0.0775,0,-0.0775,0
-3293.7,-5733.3,-2805,2850.3,0,0,5698.9,-4.0967e-05,-1.7928e-09,3506.2,708.1,0,0.88707,-0.88707,3.3591e-12,0.032927,0,-2066.1,-1062.9,0,1,1,0.08,0,-0.08,0
-3284.9,-5725.1,-2799.7,2844.3,0,0,5690.3,-4.0849e-05,-1.7876e-09,3496.1,706.06,0,0.88452,-0.88452,3.3494e-12,0.032976,0,-2061.1,-1059.9,0,1,1,0.0825,0,-0.0825,0
-3276.1,-5717,-2794.4,2838.2,0,0,5681.7,-4.0731e-05,-1.7825e-09,3486,704.03,0,0.88198,-0.88198,3.3396e-12,0.033024,0,-2056.2,-1056.8,0,1,1,0.085,0,-0.085,0
-3267.3,-5708.8,-2789.1,2832.2,0,0,5673.1,-4.0614e-05,-1.7773e-09,3476,701.99,0,0.87943,-0.87943,3.3299e-12,0.033072,0,-2051.3,-1053.8,0,1,1,0.0875,0,-0.0875,0
-3258.5,-5700.6,-2783.8,2826.1,0,0,5664.5,-4.0496e-05,-1.7722e-09,3465.9,699.96,0,0.87688,-0.87688,3.3202e-12,0.03312,0,-2046.3,-1050.7,0,1,1,0.09,0,-0.09,0
-3249.7,-5692.5,-2778.5,2820,0,0,5655.9,-4.0378e-05,-1.767e-09,3455.8,697.93,0,0.87433,-0.87433,3.3105e-12,0.033169,0,-2041.4,-1047.7,0,1,1,0.0925,0,-0.0925,0
-3240.9,-5684.3,-2773.1,2814,0,0,5647.3,-4.0261e-05,-1.7619e-09,3445.7,695.89,0,0.87178,-0.87178,3.3008e-12,0.033217,0,-2036.4,-1044.6,0,1,1,0.095,0,-0.095,0
-3232.1,-5676.2,-2767.8,2807.9,0,0,5638.7,-4.0143e-05,-1.7567e-09,3435.7,693.86,0,0.86923,-0.86923,3.2911e-12,0.033265,0,-2031.5,-1041.5,0,1,1,0.0975,0,-0.0975,0
-3223.3,-5668,-2762.5,2801.8,0,0,5630.1,-4.0025e-05,-1.7516e-09,3425.6,691.82,0,0.86669,-0.86669,3.2814e-12,0.033314,0,-2026.5,-1038.5,0,1,1,0.1,0,-0.1,0
-3214.5,-5659.8,-2757.2,2795.8,0,0,5621.5,-3.9908e-05,-1.7464e-09,3415.5,689.79,0,0.86414,-0.86414,3.2717e-12,0.033362,0,-2021.6,-1035.4,0,1,1,0.1025,0,-0.1025,0
-3205.7,-5651.7,-2751.9,2789.7,0,0,5612.9,-3.979e-05,-1.7413e-09,3405.5,687.75,0,0.86159,-0.86159,3.262e-12,0.03341,0,-2016.6,-1032.4,0,1,1,0.105,0,-0.105,0
-3196.9,-5643.5,-2746.6,2783.6,0,0,5604.3,-3.9672e-05,-1.7361e-09,3395.4,685.72,0,0.85904,-0.85904,3.2523e-12,0.033459,0,-2011.7,-1029.3,0,1,1,0.1075,0,-0.1075,0
-3188.1,-5635.3,-2741.2,2777.6,0,0,5595.8,-3.9555e-05,-1.731e-09,3385.3,683.69,0,0.85649,-0.85649,3.2426e-12,0.033507,0,-2006.8,-1026.3,0,1,1,0.11,0,-0.11,0
-3179.3,-5627.2,-2735.9,2771.5,0,0,5587.2,-3.9437e-05,-1.7258e-09,3375.2,681.65,0,0.85394,-0.85394,3.2329e-12,0.033555,0,-2001.8,-1023.2,0,1,1,0.1125,0,-0.1125,0
-3170.4,-5619,-2730.6,2765.5,0,0,5578.6,-3.9319e-05,-1.7207e-09,3365.2,679.62,0,0.8514,-0.8514,3.2232e-12,0.033603,0,-1996.9,-1020.2,0,1,1,0.115,0,-0.115,0
-3161.6,-5610.8,-2725.3,2759.4,0,0,5570,-3.9202e-05,-1.7155e-09,3355.1,677.58,0,0.84885,-0.84885,3.2135e-12,0.033652,0,-1991.9,-1017.1,0,1,1,0.1175,0,-0.1175,0
-3152.8,-5602.7,-2720,2753.3,0,0,5561.4,-3.9084e-05,-1.7104e-09,3345,675.55,0,0.8463,-0.8463,3.2038e-12,0.0337,0,-1987,-1014.1,0,1,1,0.12,0,-0.12,0
-3144,-5594.5,-2714.7,2747.3,0,0,5552.8,-3.8966e-05,-1.7052e-09,3334.9,673.52,0,0.84375,-0.84375,3.1941e-12,0.033748,0,-1982,-1011,0,1,1,0.1225,0,-0.1225,0
-3135.2,-5586.3,-2709.3,2741.2,0,0,5544.2,-3.8848e-05,-1.7001e-09,3324.9,671.48,0,0.8412,-0.8412,3.1844e-12,0.033797,0,-1977.1,-1008,0,1,1,0.125,0,-0.125,0
-3126.4,-5578.2,-2704,2735.1,0,0,5535.6,-3.8731e-05,-1.6949e-09,3314.8,669.45,0,0.83866,-0.83866,3.1747e-12,0.033845,0,-1972.1,-1004.9,0,1,1,0.1275,0,-0.1275,0
-3117.6,-5570,-2698.7,2729.1,0,0,5527,-3.8613e-05,-1.6898e-09,3304.7,667.41,0,0.83611,-0.83611,3.165e-12,0.033893,0,-1967.2,-1001.9,0,1,1,0.13,0,-0.13,0
-3108.8,-5561.9,-2693.4,2723,0,0,5518.4,-3.8495e-05,-1.6846e-09,3294.7,665.38,0,0.83356,-0.83356,3.1553e-12,0.033942,0,-1962.3,-998.8,0,1,1,0.1325,0,-0.1325,0
-3100,-5553.7,-2688.1,2717,0,0,5509.8,-3.8378e-05,-1.6795e-09,3284.6,663.34,0,0.83101,-0.83101,3.1456e-12,0.03399,0,-1957.3,-995.75,0,1,1,0.135,0,-0.135,0
-3091.2,-5545.5,-2682.8,2710.9,0,0,5501.2,-3.826e-05,-1.6743e-09,3274.5,661.31,0,0.82846,-0.82846,3.1359e-12,0.034038,0,-1952.4,-992.69,0,1,1,0.1375,0,-0.1375,0
-3082.4,-5537.4,-2677.4,2704.8,0,0,5492.6,-3.8142e-05,-1.6692e-09,3264.4,659.28,0,0.82591,-0.82591,3.1262e-12,0.034086,0,-1947.4,-989.64,0,1,1,0.14,0,-0.14,0
-3073.6,-5529.2,-2672.1,2698.8,0,0,5484,-3.8025e-05,-1.664e-09,3254.4,657.24,0,0.82337,-0.82337,3.1165e-12,0.034135,0,-1942.5,-986.59,0,1,1,0.1425,0,-0.1425,0
-3064.8,-5521,-2666.8,2692.7,0,0,5475.4,-3.7907e-05,-1.6589e-09,3244.3,655.21,0,0.82082,-0.82082,3.1068e-12,0.034183,0,-1937.5,-983.53,0,1,1,0.145,0,-0.145,0
-3056,-5512.9,-2661.5,2686.6,0,0,5466.8,-3.7789e-05,-1.6537e-09,3234.2,653.17,0,0.81827,-0.81827,3.0971e-12,0.034231,0,-1932.6,-980.48,0,1,1,0.1475,0,-0.1475,0
-3047.2,-5504.7,-2656.2,2680.6,0,0,5458.2,-3.7672e-05,-1.6486e-09,3224.2,651.14,0,0.81572,-0.81572,3.0874e-12,0.03428,0,-1927.6,-977.42,0,1,1,0.15,0,-0.15,0
-3038.3,-5496.5,-2650.9,2674.5,0,0,5449.6,-3.7554e-05,-1.6434e-09,3214.1,649.11,0,0.81317,-0.81317,3.0777e-12,0.034328,0,-1922.7,-974.37,0,1,1,0.1525,0,-0.1525,0
-3029.5,-5488.4,-2645.5,2668.4,0,0,5441,-3.7436e-05,-1.6383e-09,3204,647.07,0,0.81062,-0.81062,3.068e-12,0.034376,0,-1917.7,-971.32,0,1,1,0.155,0,-0.155,0
-3020.7,-5480.2,-2640.2,2662.4,0,0,5432.4,-3.7319e-05,-1.6331e-09,3193.9,645.04,0,0.80808,-0.80808,3.0583e-12,0.034424,0,-1912.8,-968.26,0,1,1,0.1575,0,-0.1575,0
-3011.9,-5472.1,-2634.9,2656.3,0,0,5423.8,-3.7201e-05,-1.628e-09,3183.9,643,0,0.80553,-0.80553,3.0486e-12,0.034473,0,-1907.9,-965.21,0,1,1,0.16,0,-0.16,0
-3003.1,-5463.9,-2629.6,2650.3,0,0,5415.3,-3.7083e-05,-1.6228e-09,3173.8,640.97,0,0.80298,-0.80298,3.039e-12,0.034521,0,-1902.9,-962.16,0,1,1,0.1625,0,-0.1625,0
-2994.3,-5455.7,-2624.3,2644.2,0,0,5406.7,-3.6965e-05,-1.6177e-09,3163.7,638.93,0,0.80043,-0.80043,3.0293e-12,0.034569,0,-1898,-959.1,0,1,1,0.165,0,-0.165,0
-2985.5,-5447.6,-2619,2638.1,0,0,5398.1,-3.6848e-05,-1.6125e-09,3153.6,636.9,0,0.79788,-0.79788,3.0196e-12,0.034618,0,-1893,-956.05,0,1,1,0.1675,0,-0.1675,0
-2976.7,-5439.4,-2613.6,2632.1,0,0,5389.5,-3.673e-05,-1.6074e-09,3143.6,634.87,0,0.79533,-0.79533,3.0099e-12,0.034666,0,-1888.1,-953,0,1,1,0.17,0,-0.17,0
-2967.9,-5431.2,-2608.3,2626,0,0,5380.9,-3.6612e-05,-1.6022e-09,3133.5,632.83,0,0.79279,-0.79279,3.0002e-12,0.034714,0,-1883.1,-949.94,0,1,1,0.1725,0,-0.1725,0
-2959.1,-5423.1,-2603,2619.9,0,0,5372.3,-3.6495e-05,-1.5971e-09,3123.4,630.8,0,0.79024,-0.79024,2.9905e-12,0.034763,0,-1878.2,-946.89,0,1,1,0.175,0,-0.175,0
-2950.3,-5414.9,-2597.7,2613.9,0,0,5363.7,-3.6377e-05,-1.5919e-09,3113.4,628.76,0,0.78769,-0.78769,2.9808e-12,0.034811,0,-1873.2,-943.84,0,1,1,0.1775,0,-0.1775,0
-2941.5,-5406.7,-2592.4,2607.8,0,0,5355.1,-3.6259e-05,-1.5868e-09,3103.3,626.73,0,0.78514,-0.78514,2.9711e-12,0.034859,0,-1868.3,-940.78,0,1,1,0.18,0,-0.18,0
-2932.7,-5398.6,-2587.1,2601.7,0,0,5346.5,-3.6142e-05,-1.5816e-09,3093.2,624.7,0,0.78259,-0.78259,2.9614e-12,0.034907,0,-1863.4,-937.73,0,1,1,0.1825,0,-0.1825,0
-2923.9,-5390.4,-2581.7,2595.7,0,0,5337.9,-3.6024e-05,-1.5765e-09,3083.1,622.66,0,0.78004,-0.78004,2.9517e-12,0.034956,0,-1858.4,-934.68,0,1,1,0.185,0,-0.185,0
-2915.1,-5382.2,-2576.4,2589.6,0,0,5329.3,-3.5906e-05,-1.5713e-09,3073.1,620.63,0,0.7775,-0.7775,2.942e-12,0.035004,0,-1853.5,-931.62,0,1,1,0.1875,0,-0.1875,0
-2906.2,-5374.1,-2571.1,2583.6,0,0,5320.7,-3.5789e-05,-1.5662e-09,3063,618.59,0,0.77495,-0.77495,2.9323e-12,0.035052,0,-1848.5,-928.57,0,1,1,0.19,0,-0.19,0
-2897.4,-5365.9,-2565.8,2577.5,0,0,5312.1,-3.5671e-05,-1.561e-09,3052.9,616.56,0,0.7724,-0.7724,2.9226e-12,0.035101,0,-1843.6,-925.52,0,1,1,0.1925,0,-0.1925,0
-2888.6,-5357.8,-2560.5,2571.4,0,0,5303.5,-3.5553e-05,-1.5559e-09,3042.9,614.53,0,0.76985,-0.76985,2.9129e-12,0.035149,0,-1838.6,-922.46,0,1,1,0.195,0,-0.195,0
-2879.8,-5349.6,-2555.1,2565.4,0,0,5294.9,-3.5436e-05,-1.5507e-09,3032.8,612.49,0,0.7673,-0.7673,2.9033e-12,0.035197,0,-1833.7,-919.41,0,1,1,0.1975,0,-0.1975,0
-2871,-5341.4,-2549.8,2559.3,0,0,5286.3,-3.5318e-05,-1.5456e-09,3022.7,610.46,0,0.76475,-0.76475,2.8936e-12,0.035246,0,-1828.7,-916.36,0,1,1,0.2,0,-0.2,0
-2862.2,-5333.3,-2544.5,2553.2,0,0,5277.7,-3.52e-05,-1.5404e-09,3012.6,608.42,0,0.76221,-0.76221,2.8839e-12,0.035294,0,-1823.8,-913.3,0,1,1,0.2025,0,-0.2025,0
-2853.4,-5325.1,-2539.2,2547.2,0,0,5269.1,-3.5083e-05,-1.5353e-09,3002.6,606.39,0,0.75966,-0.75966,2.8742e-12,0.035342,0,-1818.9,-910.25,0,1,1,0.205,0,-0.205,0
-2844.6,-5316.9,-2533.9,2541.1,0,0,5260.5,-3.4965e-05,-1.5301e-09,2992.5,604.35,0,0.75711,-0.75711,2.8645e-12,0.03539,0,-1813.9,-907.2,0,1,1,0.2075,0,-0.2075,0
-2835.8,-5308.8,-2528.6,2535.1,0,0,5251.9,-3.4847e-05,-1.525e-09,2982.4,602.32,0,0.75456,-0.75456,2.8548e-12,0.035439,0,-1809,-904.14,0,1,1,0.21,0,-0.21,0
-2827,-5300.6,-2523.2,2529,0,0,5243.4,-3.4729e-05,-1.5198e-09,2972.3,600.29,0,0.75201,-0.75201,2.8451e-12,0.035487,0,-1804,-901.09,0,1,1,0.2125,0,-0.2125,0
-2818.2,-5292.4,-2517.9,2522.9,0,0,5234.8,-3.4612e-05,-1.5147e-09,2962.3,598.25,0,0.74946,-0.74946,2.8354e-12,0.035535,0,-1799.1,-898.03,0,1,1,0.215,0,-0.215,0
-2809.4,-5284.3,-2512.6,2516.9,0,0,5226.2,-3.4494e-05,-1.5095e-09,2952.2,596.22,0,0.74692,-0.74692,2.8257e-12,0.035584,0,-1794.1,-894.98,0,1,1,0.2175,0,-0.2175,0
-2800.6,-5276.1,-2507.3,2510.8,0,0,5217.6,-3.4376e-05,-1.5044e-09,2942.1,594.18,0,0.74437,-0.74437,2.8161e-12,0.035632,0,-1789.2,-891.93,0,1,1,0.22,0,-0.22,0
-2791.8,-5267.9,-2502,2504.7,0,0,5209,-3.4259e-05,-1.4992e-09,2932.1,592.15,0,0.74182,-0.74182,2.8064e-12,0.03568,0,-1784.2,-888.87,0,1,1,0.2225,0,-0.2225,0
-2783,-5259.8,-2496.7,2498.7,0,0,5200.4,-3.4141e-05,-1.4941e-09,2922,590.12,0,0.73927,-0.73927,2.7967e-12,0.035729,0,-1779.3,-885.82,0,1,1,0.225,0,-0.225,0
-2774.2,-5251.6,-2491.3,2492.6,0,0,5191.8,-3.4023e-05,-1.4889e-09,2911.9,588.08,0,0.73672,-0.73672,2.787e-12,0.035777,0,-1774.4,-882.77,0,1,1,0.2275,0,-0.2275,0
-2765.3,-5243.5,-2486,2486.5,0,0,5183.2,-3.3906e-05,-1.4838e-09,2901.8,586.05,0,0.73417,-0.73417,2.7773e-12,0.035825,0,-1769.4,-879.71,0,1,1,0.23,0,-0.23,0
-2756.5,-5235.3,-2480.7,2480.5,0,0,5174.6,-3.3788e-05,-1.4786e-09,2891.8,584.01,0,0.73163,-0.73163,2.7676e-12,0.035873,0,-1764.5,-876.66,0,1,1,0.2325,0,-0.2325,0
-2747.7,-5227.1,-2475.4,2474.4,0,0,5166,-3.367e-05,-1.4735e-09,2881.7,581.98,0,0.72908,-0.72908,2.7579e-12,0.035922,0,-1759.5,-873.61,0,1,1,0.235,0,-0.235,0
-2738.9,-5219,-2470.1,2468.4,0,0,5157.4,-3.3553e-05,-1.4683e-09,2871.6,579.94,0,0.72653,-0.72653,2.7483e-12,0.03597,0,-1754.6,-870.55,0,1,1,0.2375,0,-0.2375,0
-2730.1,-5210.8,-2464.8,2462.3,0,0,5148.8,-3.3435e-05,-1.4632e-09,2861.6,577.91,0,0.72398,-0.72398,2.7386e-12,0.036018,0,-1749.6,-867.5,0,1,1,0.24,0,-0.24,0
-2721.3,-5202.6,-2459.4,2456.2,0,0,5140.2,-3.3317e-05,-1.458e-09,2851.5,575.88,0,0.72143,-0.72143,2.7289e-12,0.036067,0,-1744.7,-864.45,0,1,1,0.2425,0,-0.2425,0
-2712.5,-5194.5,-2454.1,2450.2,0,0,5131.6,-3.32e-05,-1.4529e-09,2841.4,573.84,0,0.71889,-0.71889,2.7192e-12,0.036115,0,-1739.7,-861.39,0,1,1,0.245,0,-0.245,0
-2703.7,-5186.3,-2448.8,2444.1,0,0,5123,-3.3082e-05,-1.4477e-09,2831.3,571.81,0,0.71634,-0.71634,2.7095e-12,0.036163,0,-1734.8,-858.34,0,1,1,0.2475,0,-0.2475,0
-2694.9,-5178.1,-2443.5,2438,0,0,5114.4,-3.2964e-05,-1.4426e-09,2821.3,569.77,0,0.71379,-0.71379,2.6998e-12,0.036211,0,-1729.8,-855.29,0,1,1,0.25,0,-0.25,0
-2686.1,-5170,-2438.2,2432,0,0,5105.8,-3.2846e-05,-1.4374e-09,2811.2,567.74,0,0.71124,-0.71124,2.6901e-12,0.03626,0,-1724.9,-852.23,0,1,1,0.2525,0,-0.2525,0
-2677.3,-5161.8,-2432.9,2425.9,0,0,5097.2,-3.2729e-05,-1.4323e-09,2801.1,565.71,0,0.70869,-0.70869,2.6805e-12,0.036308,0,-1720,-849.18,0,1,1,0.255,0,-0.255,0
-2668.5,-5153.7,-2427.5,2419.8,0,0,5088.6,-3.2611e-05,-1.4271e-09,2791,563.67,0,0.70614,-0.70614,2.6708e-12,0.036356,0,-1715,-846.13,0,1,1,0.2575,0,-0.2575,0
-2659.7,-5145.5,-2422.2,2413.8,0,0,5080,-3.2493e-05,-1.422e-09,2781,561.64,0,0.7036,-0.7036,2.6611e-12,0.036405,0,-1710.1,-843.07,0,1,1,0.26,0,-0.26,0
-2650.9,-5137.3,-2416.9,2407.7,0,0,5071.5,-3.2376e-05,-1.4168e-09,2770.9,559.6,0,0.70105,-0.70105,2.6514e-12,0.036453,0,-1705.1,-840.02,0,1,1,0.2625,0,-0.2625,0
-2642.1,-5129.2,-2411.6,2401.7,0,0,5062.9,-3.2258e-05,-1.4117e-09,2760.8,557.57,0,0.6985,-0.6985,2.6417e-12,0.036501,0,-1700.2,-836.97,0,1,1,0.265,0,-0.265,0
-2633.2,-5121,-2406.3,2395.6,0,0,5054.3,-3.214e-05,-1.4065e-09,2750.8,555.53,0,0.69595,-0.69595,2.6321e-12,0.03655,0,-1695.2,-833.91,0,1,1,0.2675,0,-0.2675,0
-2624.4,-5112.8,-2401,2389.5,0,0,5045.7,-3.2023e-05,-1.4014e-09,2740.7,553.5,0,0.6934,-0.6934,2.6224e-12,0.036598,0,-1690.3,-830.86,0,1,1,0.27,0,-0.27,0
-2615.6,-5104.7,-2395.6,2383.5,0,0,5037.1,-3.1905e-05,-1.3962e-09,2730.6,551.47,0,0.69085,-0.69085,2.6127e-12,0.036646,0,-1685.3,-827.81,0,1,1,0.2725,0,-0.2725,0
-2606.8,-5096.5,-2390.3,2377.4,0,0,5028.5,-3.1787e-05,-1.3911e-09,2720.5,549.43,0,0.68831,-0.68831,2.603e-12,0.036694,0,-1680.4,-824.75,0,1,1,0.275,0,-0.275,0
-2598,-5088.3,-2385,2371.3,0,0,5019.9,-3.167e-05,-1.3859e-09,2710.5,547.4,0,0.68576,-0.68576,2.5933e-12,0.036743,0,-1675.5,-821.7,0,1,1,0.2775,0,-0.2775,0
-2589.2,-5080.2,-2379.7,2365.3,0,0,5011.3,-3.1552e-05,-1.3808e-09,2700.4,545.36,0,0.68321,-0.68321,2.5837e-12,0.036791,0,-1670.5,-818.64,0,1,1,0.28,0,-0.28,0
-2580.4,-5072,-2374.4,2359.2,0,0,5002.7,-3.1434e-05,-1.3756e-09,2690.3,543.33,0,0.68066,-0.68066,2.574e-12,0.036839,0,-1665.6,-815.59,0,1,1,0.2825,0,-0.2825,0
-2571.6,-5063.8,-2369.1,2353.1,0,0,4994.1,-3.1317e-05,-1.3705e-09,2680.3,541.3,0,0.67811,-0.67811,2.5643e-12,0.036888,0,-1660.6,-812.54,0,1,1,0.285,0,-0.285,0
-2562.8,-5055.7,-2363.7,2347.1,0,0,4985.5,-3.1199e-05,-1.3653e-09,2670.2,539.26,0,0.67556,-0.67556,2.5546e-12,0.036936,0,-1655.7,-809.48,0,1,1,0.2875,0,-0.2875,0
-2554,-5047.5,-2358.4,2341,0,0,4976.9,-3.1081e-05,-1.3602e-09,2660.1,537.23,0,0.67302,-0.67302,2.5449e-12,0.036984,0,-1650.7,-806.43,0,1,1,0.29,0,-0.29,0
-2545.2,-5039.4,-2353.1,2335,0,0,4968.3,-3.0964e-05,-1.355e-09,2650,535.19,0,0.67047,-0.67047,2.5353e-12,0.037033,0,-1645.8,-803.38,0,1,1,0.2925,0,-0.2925,0
-2536.4,-5031.2,-2347.8,2328.9,0,0,4959.7,-3.0846e-05,-1.3499e-09,2640,533.16,0,0.66792,-0.66792,2.5256e-12,0.037081,0,-1640.8,-800.32,0,1,1,0.295,0,-0.295,0
-2527.6,-5023,-2342.5,2322.8,0,0,4951.1,-3.0728e-05,-1.3447e-09,2629.9,531.12,0,0.66537,-0.66537,2.5159e-12,0.037129,0,-1635.9,-797.27,0,1,1,0.2975,0,-0.2975,0
-2518.8,-5014.9,-2337.2,2316.8,0,0,4942.5,-3.061e-05,-1.3396e-09,2619.8,529.09,0,0.66282,-0.66282,2.5062e-12,0.037177,0,-1631,-794.22,0,1,1,0.3,0,-0.3,0
-2510,-5006.7,-2331.8,2310.7,0,0,4933.9,-3.0493e-05,-1.3344e-09,2609.7,527.06,0,0.66027,-0.66027,2.4965e-12,0.037226,0,-1626,-791.16,0,1,1,0.3025,0,-0.3025,0
-2501.2,-4998.5,-2326.5,2304.6,0,0,4925.3,-3.0375e-05,-1.3293e-09,2599.7,525.02,0,0.65773,-0.65773,2.4869e-12,0.037274,0,-1621.1,-788.11,0,1,1,0.305,0,-0.305,0
-2492.3,-4990.4,-2321.2,2298.6,0,0,4916.7,-3.0257e-05,-1.3241e-09,2589.6,522.99,0,0.65518,-0.65518,2.4772e-12,0.037322,0,-1616.1,-785.06,0,1,1,0.3075,0,-0.3075,0
-2483.5,-4982.2,-2315.9,2292.5,0,0,4908.1,-3.014e-05,-1.319e-09,2579.5,520.95,0,0.65263,-0.65263,2.4675e-12,0.037371,0,-1611.2,-782,0,1,1,0.31,0,-0.31,0
-2474.7,-4974,-2310.6,2286.5,0,0,4899.6,-3.0022e-05,-1.3138e-09,2569.5,518.92,0,0.65008,-0.65008,2.4578e-12,0.037419,0,-1606.2,-778.95,0,1,1,0.3125,0,-0.3125,0
-2465.9,-4965.9,-2305.3,2280.4,0,0,4891,-2.9904e-05,-1.3087e-09,2559.4,516.89,0,0.64753,-0.64753,2.4482e-12,0.037467,0,-1601.3,-775.9,0,1,1,0.315,0,-0.315,0
-2457.1,-4957.7,-2299.9,2274.3,0,0,4882.4,-2.9787e-05,-1.3035e-09,2549.3,514.85,0,0.64498,-0.64498,2.4385e-12,0.037516,0,-1596.3,-772.84,0,1,1,0.3175,0,-0.3175,0
-2448.3,-4949.5,-2294.6,2268.3,0,0,4873.8,-2.9669e-05,-1.2984e-09,2539.2,512.82,0,0.64244,-0.64244,2.4288e-12,0.037564,0,-1591.4,-769.79,0,1,1,0.32,0,-0.32,0
-2439.5,-4941.4,-2289.3,2262.2,0,0,4865.2,-2.9551e-05,-1.2932e-09,2529.2,510.78,0,0.63989,-0.63989,2.4191e-12,0.037612,0,-1586.4,-766.74,0,1,1,0.3225,0,-0.3225,0
-2430.7,-4933.2,-2284,2256.1,0,0,4856.6,-2.9434e-05,-1.2881e-09,2519.1,508.75,0,0.63734,-0.63734,2.4095e-12,0.03766,0,-1581.5,-763.68,0,1,1,0.325,0,-0.325,0
-2421.9,-4925.1,-2278.7,2250.1,0,0,4848,-2.9316e-05,-1.2829e-09,2509,506.72,0,0.63479,-0.63479,2.3998e-12,0.037709,0,-1576.6,-760.63,0,1,1,0.3275,0,-0.3275,0
-2413.1,-4916.9,-2273.4,2244,0,0,4839.4,-2.9198e-05,-1.2778e-09,2499,504.68,0,0.63224,-0.63224,2.3901e-12,0.037757,0,-1571.6,-757.58,0,1,1,0.33,0,-0.33,0
-2404.3,-4908.7,-2268,2237.9,0,0,4830.8,-2.9081e-05,-1.2726e-09,2488.9,502.65,0,0.62969,-0.62969,2.3805e-12,0.037805,0,-1566.7,-754.52,0,1,1,0.3325,0,-0.3325,0
-2395.5,-4900.6,-2262.7,2231.9,0,0,4822.2,-2.8963e-05,-1.2675e-09,2478.8,500.61,0,0.62715,-0.62715,2.3708e-12,0.037854,0,-1561.7,-751.47,0,1,1,0.335,0,-0.335,0
-2386.7,-4892.4,-2257.4,2225.8,0,0,4813.6,-2.8845e-05,-1.2623e-09,2468.7,498.58,0,0.6246,-0.6246,2.3611e-12,0.037902,0,-1556.8,-748.42,0,1,1,0.3375,0,-0.3375,0
-2377.9,-4884.2,-2252.1,2219.8,0,0,4805,-2.8727e-05,-1.2572e-09,2458.7,496.54,0,0.62205,-0.62205,2.3514e-12,0.03795,0,-1551.8,-745.36,0,1,1,0.34,0,-0.34,0
-2369.1,-4876.1,-2246.8,2213.7,0,0,4796.4,-2.861e-05,-1.252e-09,2448.6,494.51,0,0.6195,-0.6195,2.3418e-12,0.037998,0,-1546.9,-742.31,0,1,1,0.3425,0,-0.3425,0
-2360.2,-4867.9,-2241.4,2207.6,0,0,4787.8,-2.8492e-05,-1.2469e-09,2438.5,492.48,0,0.61695,-0.61695,2.3321e-12,0.038047,0,-1541.9,-739.25,0,1,1,0.345,0,-0.345,0
-2351.4,-4859.7,-2236.1,2201.6,0,0,4779.2,-2.8374e-05,-1.2417e-09,2428.4,490.44,0,0.6144,-0.6144,2.3224e-12,0.038095,0,-1537,-736.2,0,1,1,0.3475,0,-0.3475,0
-2342.6,-4851.6,-2230.8,2195.5,0,0,4770.6,-2.8257e-05,-1.2366e-09,2418.4,488.41,0,0.61186,-0.61186,2.3127e-12,0.038143,0,-1532.1,-733.15,0,1,1,0.35,0,-0.35,0
-2333.8,-4843.4,-2225.5,2189.4,0,0,4762,-2.8139e-05,-1.2314e-09,2408.3,486.37,0,0.60931,-0.60931,2.3031e-12,0.038192,0,-1527.1,-730.09,0,1,1,0.3525,0,-0.3525,0
-2325,-4835.3,-2220.2,2183.4,0,0,4753.4,-2.8021e-05,-1.2263e-09,2398.2,484.34,0,0.60676,-0.60676,2.2934e-12,0.03824,0,-1522.2,-727.04,0,1,1,0.355,0,-0.355,0
-2316.2,-4827.1,-2214.9,2177.3,0,0,4744.8,-2.7904e-05,-1.2211e-09,2388.2,482.31,0,0.60421,-0.60421,2.2837e-12,0.038288,0,-1517.2,-723.99,0,1,1,0.3575,0,-0.3575,0
-2307.4,-4818.9,-2209.5,2171.2,0,0,4736.2,-2.7786e-05,-1.216e-09,2378.1,480.27,0,0.60166,-0.60166,2.2741e-12,0.038337,0,-1512.3,-720.93,0,1,1,0.36,0,-0.36,0
-2298.6,-4810.8,-2204.2,2165.2,0,0,4727.7,-2.7668e-05,-1.2108e-09,2368,478.24,0,0.59912,-0.59912,2.2644e-12,0.038385,0,-1507.3,-717.88,0,1,1,0.3625,0,-0.3625,0
-2289.8,-4802.6,-2198.9,2159.1,0,0,4719.1,-2.7551e-05,-1.2057e-09,2357.9,476.2,0,0.59657,-0.59657,2.2547e-12,0.038433,0,-1502.4,-714.83,0,1,1,0.365,0,-0.365,0
-2281,-4794.4,-2193.6,2153.1,0,0,4710.5,-2.7433e-05,-1.2005e-09,2347.9,474.17,0,0.59402,-0.59402,2.2451e-12,0.038481,0,-1497.4,-711.77,0,1,1,0.3675,0,-0.3675,0
-2272.2,-4786.3,-2188.3,2147,0,0,4701.9,-2.7315e-05,-1.1954e-09,2337.8,472.13,0,0.59147,-0.59147,2.2354e-12,0.03853,0,-1492.5,-708.72,0,1,1,0.37,0,-0.37,0
-2263.4,-4778.1,-2183,2140.9,0,0,4693.3,-2.7198e-05,-1.1902e-09,2327.7,470.1,0,0.58892,-0.58892,2.2257e-12,0.038578,0,-1487.6,-705.67,0,1,1,0.3725,0,-0.3725,0
-2254.6,-4769.9,-2177.6,2134.9,0,0,4684.7,-2.708e-05,-1.1851e-09,2317.7,468.07,0,0.58637,-0.58637,2.2161e-12,0.038626,0,-1482.6,-702.61,0,1,1,0.375,0,-0.375,0
-2245.8,-4761.8,-2172.3,2128.8,0,0,4676.1,-2.6962e-05,-1.1799e-09,2307.6,466.03,0,0.58383,-0.58383,2.2064e-12,0.038675,0,-1477.7,-699.56,0,1,1,0.3775,0,-0.3775,0
-2237,-4753.6,-2167,2122.7,0,0,4667.5,-2.6845e-05,-1.1748e-09,2297.5,464,0,0.58128,-0.58128,2.1967e-12,0.038723,0,-1472.7,-696.51,0,1,1,0.38,0,-0.38,0
-2228.2,-4745.4,-2161.7,2116.7,0,0,4658.9,-2.6727e-05,-1.1696e-09,2287.4,461.96,0,0.57873,-0.57873,2.1871e-12,0.038771,0,-1467.8,-693.45,0,1,1,0.3825,0,-0.3825,0
-2219.3,-4737.3,-2156.4,2110.6,0,0,4650.3,-2.6609e-05,-1.1645e-09,2277.4,459.93,0,0.57618,-0.57618,2.1774e-12,0.03882,0,-1462.8,-690.4,0,1,1,0.385,0,-0.385,0
-2210.5,-4729.1,-2151.1,2104.6,0,0,4641.7,-2.6491e-05,-1.1593e-09,2267.3,457.9,0,0.57363,-0.57363,2.1677e-12,0.038868,0,-1457.9,-687.35,0,1,1,0.3875,0,-0.3875,0
-2201.7,-4721,-2145.7,2098.5,0,0,4633.1,-2.6374e-05,-1.1542e-09,2257.2,455.86,0,0.57108,-0.57108,2.1581e-12,0.038916,0,-1452.9,-684.29,0,1,1,0.39,0,-0.39,0
-2192.9,-4712.8,-2140.4,2092.4,0,0,4624.5,-2.6256e-05,-1.149e-09,2247.1,453.83,0,0.56854,-0.56854,2.1484e-12,0.038964,0,-1448,-681.24,0,1,1,0.3925,0,-0.3925,0
-2184.1,-4704.6,-2135.1,2086.4,0,0,4615.9,-2.6138e-05,-1.1439e-09,2237.1,451.79,0,0.56599,-0.56599,2.1387e-12,0.039013,0,-1443.1,-678.19,0,1,1,0.395,0,-0.395,0
-2175.3,-4696.5,-2129.8,2080.3,0,0,4607.3,-2.6021e-05,-1.1387e-09,2227,449.76,0,0.56344,-0.56344,2.1291e-12,0.039061,0,-1438.1,-675.13,0,1,1,0.3975,0,-0.3975,0
-2166.5,-4688.3,-2124.5,2074.2,0,0,4598.7,-2.5903e-05,-1.1336e-09,2216.9,447.72,0,0.56089,-0.56089,2.1194e-12,0.039109,0,-1433.2,-672.08,0,1,1,0.4,0,-0.4,0
-2157.7,-4680.1,-2119.2,2068.2,0,0,4590.1,-2.5785e-05,-1.1284e-09,2206.9,445.69,0,0.55834,-0.55834,2.1097e-12,0.039158,0,-1428.2,-669.03,0,1,1,0.4025,0,-0.4025,0
-2148.9,-4672,-2113.8,2062.1,0,0,4581.5,-2.5668e-05,-1.1233e-09,2196.8,443.66,0,0.55579,-0.55579,2.1001e-12,0.039206,0,-1423.3,-665.97,0,1,1,0.405,0,-0.405,0
-2140.1,-4663.8,-2108.5,2056,0,0,4572.9,-2.555e-05,-1.1181e-09,2186.7,441.62,0,0.55325,-0.55325,2.0904e-12,0.039254,0,-1418.3,-662.92,0,1,1,0.4075,0,-0.4075,0
-2131.3,-4655.6,-2103.2,2050,0,0,4564.3,-2.5432e-05,-1.113e-09,2176.6,439.59,0,0.5507,-0.5507,2.0807e-12,0.039302,0,-1413.4,-659.87,0,1,1,0.41,0,-0.41,0
-2122.5,-4647.5,-2097.9,2043.9,0,0,4555.7,-2.5315e-05,-1.1078e-09,2166.6,437.55,0,0.54815,-0.54815,2.0711e-12,0.039351,0,-1408.4,-656.81,0,1,1,0.4125,0,-0.4125,0
-2113.7,-4639.3,-2092.6,2037.9,0,0,4547.2,-2.5197e-05,-1.1027e-09,2156.5,435.52,0,0.5456,-0.5456,2.0614e-12,0.039399,0,-1403.5,-653.76,0,1,1,0.415,0,-0.415,0
-2104.9,-4631.1,-2087.3,2031.8,0,0,4538.6,-2.5079e-05,-1.0975e-09,2146.4,433.49,0,0.54305,-0.54305,2.0518e-12,0.039447,0,-1398.5,-650.7,0,1,1,0.4175,0,-0.4175,0
-2096.1,-4623,-2081.9,2025.7,0,0,4530,-2.4962e-05,-1.0924e-09,2136.4,431.45,0,0.5405,-0.5405,2.0421e-12,0.039496,0,-1393.6,-647.65,0,1,1,0.42,0,-0.42,0
-2087.2,-4614.8,-2076.6,2019.7,0,0,4521.4,-2.4844e-05,-1.0872e-09,2126.3,429.42,0,0.53796,-0.53796,2.0324e-12,0.039544,0,-1388.7,-644.6,0,1,1,0.4225,0,-0.4225,0
-2078.4,-4606.7,-2071.3,2013.6,0,0,4512.8,-2.4726e-05,-1.0821e-09,2116.2,427.38,0,0.53541,-0.53541,2.0228e-12,0.039592,0,-1383.7,-641.54,0,1,1,0.425,0,-0.425,0
-2069.6,-4598.5,-2066,2007.5,0,0,4504.2,-2.4609e-05,-1.0769e-09,2106.1,425.35,0,0.53286,-0.53286,2.0131e-12,0.039641,0,-1378.8,-638.49,0,1,1,0.4275,0,-0.4275,0
-2060.8,-4590.3,-2060.7,2001.5,0,0,4495.6,-2.4491e-05,-1.0718e-09,2096.1,423.32,0,0.53031,-0.53031,2.0035e-12,0.039689,0,-1373.8,-635.44,0,1,1,0.43,0,-0.43,0
-2052,-4582.2,-2055.4,1995.4,0,0,4487,-2.4373e-05,-1.0666e-09,2086,421.28,0,0.52776,-0.52776,1.9938e-12,0.039737,0,-1368.9,-632.38,0,1,1,0.4325,0,-0.4325,0
-2043.2,-4574,-2050,1989.3,0,0,4478.4,-2.4255e-05,-1.0615e-09,2075.9,419.25,0,0.52521,-0.52521,1.9841e-12,0.039785,0,-1363.9,-629.33,0,1,1,0.435,0,-0.435,0
-2034.4,-4565.8,-2044.7,1983.3,0,0,4469.8,-2.4138e-05,-1.0563e-09,2065.8,417.21,0,0.52267,-0.52267,1.9745e-12,0.039834,0,-1359,-626.28,0,1,1,0.4375,0,-0.4375,0
-2025.6,-4557.7,-2039.4,1977.2,0,0,4461.2,-2.402e-05,-1.0512e-09,2055.8,415.18,0,0.52012,-0.52012,1.9648e-12,0.039882,0,-1354,-623.22,0,1,1,0.44,0,-0.44,0
-2016.8,-4549.5,-2034.1,1971.2,0,0,4452.6,-2.3902e-05,-1.046e-09,2045.7,413.14,0,0.51757,-0.51757,1.9552e-12,0.03993,0,-1349.1,-620.17,0,1,1,0.4425,0,-0.4425,0
-2008,-4541.3,-2028.8,1965.1,0,0,4444,-2.3785e-05,-1.0409e-09,2035.6,411.11,0,0.51502,-0.51502,1.9455e-12,0.039979,0,-1344.2,-617.12,0,1,1,0.445,0,-0.445,0
-1999.2,-4533.2,-2023.5,1959,0,0,4435.4,-2.3667e-05,-1.0357e-09,2025.6,409.08,0,0.51247,-0.51247,1.9358e-12,0.040027,0,-1339.2,-614.06,0,1,1,0.4475,0,-0.4475,0
-1990.4,-4525,-2018.1,1953,0,0,4426.8,-2.3549e-05,-1.0306e-09,2015.5,407.04,0,0.50992,-0.50992,1.9262e-12,0.040075,0,-1334.3,-611.01,0,1,1,0.45,0,-0.45,0
-1981.6,-4516.9,-2012.8,1946.9,0,0,4418.2,-2.3432e-05,-1.0256e-09,2005.4,405.01,0,0.50738,-0.50738,1.9101e-12,0.040124,0,-1329.3,-607.96,0,1,1,0.4525,0,-0.4525,0
-1972.8,-4508.7,-2007.5,1940.8,0,0,4409.6,-2.3314e-05,-1.0203e-09,1995.3,402.97,0,0.50483,-0.50483,1.9042e-12,0.040172,0,-1324.4,-604.9,0,1,1,0.455,0,-0.455,0
-1964,-4500.5,-2002.2,1934.8,0,0,4401,-2.3196e-05,-1.0151e-09,1985.3,400.94,0,0.50228,-0.50228,1.8966e-12,0.04022,0,-1319.4,-601.85,0,1,1,0.4575,0,-0.4575,0
-1955.1,-4492.4,-1996.9,1928.7,0,0,4392.4,-2.3079e-05,-1.01e-09,1975.2,398.91,0,0.49973,-0.49973,1.8875e-12,0.040268,0,-1314.5,-598.8,0,1,1,0.46,0,-0.46,0
-1946.3,-4484.2,-1991.6,1922.6,0,0,4383.8,-2.2961e-05,-1.0048e-09,1965.1,396.87,0,0.49718,-0.49718,1.8771e-12,0.040317,0,-1309.5,-595.74,0,1,1,0.4625,0,-0.4625,0
-1937.5,-4476,-1986.2,1916.6,0,0,4375.3,-2.2843e-05,-9.9976e-10,1955.1,394.84,0,0.49463,-0.49463,1.8655e-12,0.040365,0,-1304.6,-592.69,0,1,1,0.465,0,-0.465,0
-1928.7,-4467.9,-1980.9,1910.5,0,0,4366.7,-2.2726e-05,-9.947e-10,1945,392.8,0,0.49209,-0.49209,1.8528e-12,0.040413,0,-1299.7,-589.64,0,1,1,0.4675,0,-0.4675,0
-1919.9,-4459.7,-1975.6,1904.5,0,0,4358.1,-2.2608e-05,-9.8938e-10,1934.9,390.77,0,0.48954,-0.48954,1.8489e-12,0.040462,0,-1294.7,-586.58,0,1,1,0.47,0,-0.47,0
-1911.1,-4451.5,-1970.3,1898.4,0,0,4349.5,-2.249e-05,-9.8423e-10,1924.8,388.73,0,0.48699,-0.48699,1.8393e-12,0.04051,0,-1289.8,-583.53,0,1,1,0.4725,0,-0.4725,0
-1902.3,-4443.4,-1965,1892.3,0,0,4340.9,-2.2372e-05,-9.7908e-10,1914.8,386.7,0,0.48444,-0.48444,1.8296e-12,0.040558,0,-1284.8,-580.48,0,1,1,0.475,0,-0.475,0
-1893.5,-4435.2,-1959.7,1886.3,0,0,4332.3,-2.2255e-05,-9.7393e-10,1904.7,384.67,0,0.48189,-0.48189,1.82e-12,0.040607,0,-1279.9,-577.42,0,1,1,0.4775,0,-0.4775,0
-1884.7,-4427,-1954.3,1880.2,0,0,4323.7,-2.2137e-05,-9.6878e-10,1894.6,382.63,0,0.47935,-0.47935,1.8103e-12,0.040655,0,-1274.9,-574.37,0,1,1,0.48,0,-0.48,0
-1875.9,-4418.9,-1949,1874.1,0,0,4315.1,-2.2019e-05,-9.6363e-10,1884.5,380.6,0,0.4768,-0.4768,1.8007e-12,0.040703,0,-1270,-571.31,0,1,1,0.4825,0,-0.4825,0
-1867.1,-4410.7,-1943.7,1868.1,0,0,4306.5,-2.1902e-05,-9.5848e-10,1874.5,378.56,0,0.47425,-0.47425,1.791e-12,0.040751,0,-1265,-568.26,0,1,1,0.485,0,-0.485,0
-1858.3,-4402.6,-1938.4,1862,0,0,4297.9,-2.1784e-05,-9.5333e-10,1864.4,376.53,0,0.4717,-0.4717,1.7813e-12,0.0408,0,-1260.1,-565.21,0,1,1,0.4875,0,-0.4875,0
-1849.5,-4394.4,-1933.1,1856,0,0,4289.3,-2.1666e-05,-9.4818e-10,1854.3,374.5,0,0.46915,-0.46915,1.7717e-12,0.040848,0,-1255.1,-562.15,0,1,1,0.49,0,-0.49,0
-1840.7,-4386.2,-1927.7,1849.9,0,0,4280.7,-2.1549e-05,-9.4303e-10,1844.3,372.46,0,0.4666,-0.4666,1.762e-12,0.040896,0,-1250.2,-559.1,0,1,1,0.4925,0,-0.4925,0
-1831.9,-4378.1,-1922.4,1843.8,0,0,4272.1,-2.1431e-05,-9.3788e-10,1834.2,370.43,0,0.46406,-0.46406,1.7524e-12,0.040945,0,-1245.3,-556.05,0,1,1,0.495,0,-0.495,0
-1823.1,-4369.9,-1917.1,1837.8,0,0,4263.5,-2.1313e-05,-9.3273e-10,1824.1,368.39,0,0.46151,-0.46151,1.7427e-12,0.040993,0,-1240.3,-552.99,0,1,1,0.4975,0,-0.4975,0
-1814.2,-4361.7,-1911.8,1831.7,0,0,4254.9,-2.1196e-05,-9.2758e-10,1814,366.36,0,0.45896,-0.45896,1.7331e-12,0.041041,0,-1235.4,-549.94,0,1,1,0.5,0,-0.5,0
-1805.4,-4353.6,-1906.5,1825.6,0,0,4246.3,-2.1078e-05,-9.2243e-10,1804,364.32,0,0.45641,-0.45641,1.7234e-12,0.041089,0,-1230.4,-546.89,0,1,1,0.5025,0,-0.5025,0
-1796.6,-4345.4,-1901.2,1819.6,0,0,4237.7,-2.096e-05,-9.1728e-10,1793.9,362.29,0,0.45386,-0.45386,1.7138e-12,0.041138,0,-1225.5,-543.83,0,1,1,0.505,0,-0.505,0
-1787.8,-4337.2,-1895.8,1813.5,0,0,4229.1,-2.0843e-05,-9.1213e-10,1783.8,360.26,0,0.45131,-0.45131,1.7041e-12,0.041186,0,-1220.5,-540.78,0,1,1,0.5075,0,-0.5075,0
-1779,-4329.1,-1890.5,1807.4,0,0,4220.5,-2.0725e-05,-9.0698e-10,1773.8,358.22,0,0.44877,-0.44877,1.6945e-12,0.041234,0,-1215.6,-537.73,0,1,1,0.51,0,-0.51,0
-1770.2,-4320.9,-1885.2,1801.4,0,0,4211.9,-2.0607e-05,-9.0183e-10,1763.7,356.19,0,0.44622,-0.44622,1.6848e-12,0.041283,0,-1210.6,-534.67,0,1,1,0.5125,0,-0.5125,0
-1761.4,-4312.8,-1879.9,1795.3,0,0,4203.4,-2.049e-05,-8.9667e-10,1753.6,354.15,0,0.44367,-0.44367,1.6752e-12,0.041331,0,-1205.7,-531.62,0,1,1,0.515,0,-0.515,0
-1752.6,-4304.6,-1874.6,1789.3,0,0,4194.8,-2.0372e-05,-8.9152e-10,1743.5,352.12,0,0.44112,-0.44112,1.6655e-12,0.041379,0,-1200.8,-528.57,0,1,1,0.5175,0,-0.5175,0
-1743.8,-4296.4,-1869.3,1783.2,0,0,4186.2,-2.0254e-05,-8.8637e-10,1733.5,350.09,0,0.43857,-0.43857,1.6559e-12,0.041428,0,-1195.8,-525.51,0,1,1,0.52,0,-0.52,0
-1735,-4288.3,-1863.9,1777.1,0,0,4177.6,-2.0136e-05,-8.8122e-10,1723.4,348.05,0,0.43602,-0.43602,1.6462e-12,0.041476,0,-1190.9,-522.46,0,1,1,0.5225,0,-0.5225,0
-1726.2,-4280.1,-1858.6,1771.1,0,0,4169,-2.0019e-05,-8.7607e-10,1713.3,346.02,0,0.43348,-0.43348,1.6366e-12,0.041524,0,-1185.9,-519.41,0,1,1,0.525,0,-0.525,0
-1717.4,-4271.9,-1853.3,1765,0,0,4160.4,-1.9901e-05,-8.7092e-10,1703.3,343.98,0,0.43093,-0.43093,1.6269e-12,0.041572,0,-1181,-516.35,0,1,1,0.5275,0,-0.5275,0
-1708.6,-4263.8,-1848,1758.9,0,0,4151.8,-1.9783e-05,-8.6577e-10,1693.2,341.95,0,0.42838,-0.42838,1.6173e-12,0.041621,0,-1176,-513.3,0,1,1,0.53,0,-0.53,0
-1699.8,-4255.6,-1842.7,1752.9,0,0,4143.2,-1.9666e-05,-8.6062e-10,1683.1,339.91,0,0.42583,-0.42583,1.6076e-12,0.041669,0,-1171.1,-510.25,0,1,1,0.5325,0,-0.5325,0
-1691,-4247.4,-1837.4,1746.8,0,0,4134.6,-1.9548e-05,-8.5547e-10,1673,337.88,0,0.42328,-0.42328,1.598e-12,0.041717,0,-1166.1,-507.19,0,1,1,0.535,0,-0.535,0
-1682.1,-4239.3,-1832,1740.7,0,0,4126,-1.943e-05,-8.5032e-10,1663,335.85,0,0.42073,-0.42073,1.5883e-12,0.041766,0,-1161.2,-504.14,0,1,1,0.5375,0,-0.5375,0
-1673.3,-4231.1,-1826.7,1734.7,0,0,4117.4,-1.9313e-05,-8.4517e-10,1652.9,333.81,0,0.41819,-0.41819,1.5787e-12,0.041814,0,-1156.3,-501.09,0,1,1,0.54,0,-0.54,0
-1664.5,-4222.9,-1821.4,1728.6,0,0,4108.8,-1.9195e-05,-8.4002e-10,1642.8,331.78,0,0.41564,-0.41564,1.5691e-12,0.041862,0,-1151.3,-498.03,0,1,1,0.5425,0,-0.5425,0
-1655.7,-4214.8,-1816.1,1722.6,0,0,4100.2,-1.9077e-05,-8.3487e-10,1632.7,329.74,0,0.41309,-0.41309,1.5594e-12,0.041911,0,-1146.4,-494.98,0,1,1,0.545,0,-0.545,0
-1646.9,-4206.6,-1810.8,1716.5,0,0,4091.6,-1.896e-05,-8.2972e-10,1622.7,327.71,0,0.41054,-0.41054,1.5498e-12,0.041959,0,-1141.4,-491.92,0,1,1,0.5475,0,-0.5475,0
-1638.1,-4198.5,-1805.5,1710.4,0,0,4083,-1.8842e-05,-8.2457e-10,1612.6,325.68,0,0.40799,-0.40799,1.5401e-12,0.042007,0,-1136.5,-488.87,0,1,1,0.55,0,-0.55,0
-1629.3,-4190.3,-1800.1,1704.4,0,0,4074.4,-1.8724e-05,-8.1942e-10,1602.5,323.64,0,0.40544,-0.40544,1.5305e-12,0.042055,0,-1131.5,-485.82,0,1,1,0.5525,0,-0.5525,0
-1620.5,-4182.1,-1794.8,1698.3,0,0,4065.8,-1.8607e-05,-8.1427e-10,1592.5,321.61,0,0.4029,-0.4029,1.5208e-12,0.042104,0,-1126.6,-482.76,0,1,1,0.555,0,-0.555,0
-1611.7,-4174,-1789.5,1692.2,0,0,4057.2,-1.8489e-05,-8.0912e-10,1582.4,319.57,0,0.40035,-0.40035,1.5112e-12,0.042152,0,-1121.6,-479.71,0,1,1,0.5575,0,-0.5575,0
-1602.9,-4165.8,-1784.2,1686.2,0,0,4048.6,-1.8371e-05,-8.0397e-10,1572.3,317.54,0,0.3978,-0.3978,1.5015e-12,0.0422,0,-1116.7,-476.66,0,1,1,0.56,0,-0.56,0
-1594.1,-4157.6,-1778.9,1680.1,0,0,4040,-1.8253e-05,-7.9882e-10,1562.2,315.51,0,0.39525,-0.39525,1.4919e-12,0.042249,0,-1111.8,-473.6,0,1,1,0.5625,0,-0.5625,0
-1585.3,-4149.5,-1773.6,1674.1,0,0,4031.5,-1.8136e-05,-7.9367e-10,1552.2,313.47,0,0.3927,-0.3927,1.4823e-12,0.042297,0,-1106.8,-470.55,0,1,1,0.565,0,-0.565,0
-1576.5,-4141.3,-1768.2,1668,0,0,4022.9,-1.8018e-05,-7.8852e-10,1542.1,311.44,0,0.39015,-0.39015,1.4726e-12,0.042345,0,-1101.9,-467.5,0,1,1,0.5675,0,-0.5675,0
-1567.7,-4133.1,-1762.9,1661.9,0,0,4014.3,-1.79e-05,-7.8337e-10,1532,309.4,0,0.38761,-0.38761,1.463e-12,0.042394,0,-1096.9,-464.44,0,1,1,0.57,0,-0.57,0
-1558.9,-4125,-1757.6,1655.9,0,0,4005.7,-1.7783e-05,-7.7822e-10,1522,307.37,0,0.38506,-0.38506,1.4533e-12,0.042442,0,-1092,-461.39,0,1,1,0.5725,0,-0.5725,0
-1550.1,-4116.8,-1752.3,1649.8,0,0,3997.1,-1.7665e-05,-7.7307e-10,1511.9,305.33,0,0.38251,-0.38251,1.4437e-12,0.04249,0,-1087,-458.34,0,1,1,0.575,0,-0.575,0
-1541.2,-4108.6,-1747,1643.7,0,0,3988.5,-1.7547e-05,-7.6792e-10,1501.8,303.3,0,0.37996,-0.37996,1.434e-12,0.042538,0,-1082.1,-455.28,0,1,1,0.5775,0,-0.5775,0
-1532.4,-4100.5,-1741.7,1637.7,0,0,3979.9,-1.743e-05,-7.6277e-10,1491.7,301.27,0,0.37741,-0.37741,1.4244e-12,0.042587,0,-1077.1,-452.23,0,1,1,0.58,0,-0.58,0
-1523.6,-4092.3,-1736.3,1631.6,0,0,3971.3,-1.7312e-05,-7.5762e-10,1481.7,299.23,0,0.37487,-0.37487,1.4148e-12,0.042635,0,-1072.2,-449.18,0,1,1,0.5825,0,-0.5825,0
-1514.8,-4084.2,-1731,1625.5,0,0,3962.7,-1.7194e-05,-7.5247e-10,1471.6,297.2,0,0.37232,-0.37232,1.4051e-12,0.042683,0,-1067.2,-446.12,0,1,1,0.585,0,-0.585,0
-1506,-4076,-1725.7,1619.5,0,0,3954.1,-1.7077e-05,-7.4732e-10,1461.5,295.16,0,0.36977,-0.36977,1.3955e-12,0.042732,0,-1062.3,-443.07,0,1,1,0.5875,0,-0.5875,0
-1497.2,-4067.8,-1720.4,1613.4,0,0,3945.5,-1.6959e-05,-7.4217e-10,1451.4,293.13,0,0.36722,-0.36722,1.3858e-12,0.04278,0,-1057.4,-440.02,0,1,1,0.59,0,-0.59,0
-1488.4,-4059.7,-1715.1,1607.4,0,0,3936.9,-1.6841e-05,-7.3702e-10,1441.4,291.1,0,0.36467,-0.36467,1.3762e-12,0.042828,0,-1052.4,-436.96,0,1,1,0.5925,0,-0.5925,0
-1479.6,-4051.5,-1709.8,1601.3,0,0,3928.3,-1.6724e-05,-7.3187e-10,1431.3,289.06,0,0.36212,-0.36212,1.3666e-12,0.042876,0,-1047.5,-433.91,0,1,1,0.595,0,-0.595,0
-1470.8,-4043.3,-1704.4,1595.2,0,0,3919.7,-1.6606e-05,-7.2672e-10,1421.2,287.03,0,0.35958,-0.35958,1.3569e-12,0.042925,0,-1042.5,-430.86,0,1,1,0.5975,0,-0.5975,0
-1462,-4035.2,-1699.1,1589.2,0,0,3911.1,-1.6488e-05,-7.2157e-10,1411.2,284.99,0,0.35703,-0.35703,1.3473e-12,0.042973,0,-1037.6,-427.8,0,1,1,0.6,0,-0.6,0
-1453.2,-4027,-1693.8,1583.1,0,0,3902.5,-1.6371e-05,-7.1642e-10,1401.1,282.96,0,0.35448,-0.35448,1.3376e-12,0.043021,0,-1032.6,-424.75,0,1,1,0.6025,0,-0.6025,0
-1444.4,-4018.8,-1688.5,1577,0,0,3893.9,-1.6253e-05,-7.1127e-10,1391,280.92,0,0.35193,-0.35193,1.328e-12,0.04307,0,-1027.7,-421.7,0,1,1,0.605,0,-0.605,0
-1435.6,-4010.7,-1683.2,1571,0,0,3885.3,-1.6135e-05,-7.0612e-10,1380.9,278.89,0,0.34938,-0.34938,1.3184e-12,0.043118,0,-1022.7,-418.64,0,1,1,0.6075,0,-0.6075,0
-1426.8,-4002.5,-1677.9,1564.9,0,0,3876.7,-1.6017e-05,-7.0097e-10,1370.9,276.86,0,0.34683,-0.34683,1.3087e-12,0.043166,0,-1017.8,-415.59,0,1,1,0.61,0,-0.61,0
-1418,-3994.4,-1672.5,1558.8,0,0,3868.1,-1.59e-05,-6.9582e-10,1360.8,274.82,0,0.34429,-0.34429,1.2991e-12,0.043215,0,-1012.9,-412.53,0,1,1,0.6125,0,-0.6125,0
-1409.1,-3986.2,-1667.2,1552.8,0,0,3859.6,-1.5782e-05,-6.9067e-10,1350.7,272.79,0,0.34174,-0.34174,1.2895e-12,0.043263,0,-1007.9,-409.48,0,1,1,0.615,0,-0.615,0
-1400.3,-3978,-1661.9,1546.7,0,0,3851,-1.5664e-05,-6.8552e-10,1340.7,270.75,0,0.33919,-0.33919,1.2798e-12,0.043311,0,-1003,-406.43,0,1,1,0.6175,0,-0.6175,0
-1391.5,-3969.9,-1656.6,1540.7,0,0,3842.4,-1.5547e-05,-6.8037e-10,1330.6,268.72,0,0.33664,-0.33664,1.2702e-12,0.043359,0,-998.02,-403.37,0,1,1,0.62,0,-0.62,0
-1382.7,-3961.7,-1651.3,1534.6,0,0,3833.8,-1.5429e-05,-6.7522e-10,1320.5,266.69,0,0.33409,-0.33409,1.2605e-12,0.043408,0,-993.08,-400.32,0,1,1,0.6225,0,-0.6225,0
-1373.9,-3953.5,-1646,1528.5,0,0,3825.2,-1.5311e-05,-6.7007e-10,1310.4,264.65,0,0.33154,-0.33154,1.2509e-12,0.043456,0,-988.13,-397.27,0,1,1,0.625,0,-0.625,0
-1365.1,-3945.4,-1640.6,1522.5,0,0,3816.6,-1.5194e-05,-6.6492e-10,1300.4,262.62,0,0.329,-0.329,1.2413e-12,0.043504,0,-983.19,-394.21,0,1,1,0.6275,0,-0.6275,0
-1356.3,-3937.2,-1635.3,1516.4,0,0,3808,-1.5076e-05,-6.5977e-10,1290.3,260.58,0,0.32645,-0.32645,1.2316e-12,0.043553,0,-978.24,-391.16,0,1,1,0.63,0,-0.63,0
-1347.5,-3929,-1630,1510.3,0,0,3799.4,-1.4958e-05,-6.5462e-10,1280.2,258.55,0,0.3239,-0.3239,1.222e-12,0.043601,0,-973.3,-388.11,0,1,1,0.6325,0,-0.6325,0
-1338.7,-3920.9,-1624.7,1504.3,0,0,3790.8,-1.4841e-05,-6.4947e-10,1270.1,256.51,0,0.32135,-0.32135,1.2124e-12,0.043649,0,-968.35,-385.05,0,1,1,0.635,0,-0.635,0
-1329.9,-3912.7,-1619.4,1498.2,0,0,3782.2,-1.4723e-05,-6.4432e-10,1260.1,254.48,0,0.3188,-0.3188,1.2027e-12,0.043698,0,-963.41,-382,0,1,1,0.6375,0,-0.6375,0
-1321.1,-3904.5,-1614,1492.1,0,0,3773.6,-1.4605e-05,-6.3917e-10,1250,252.45,0,0.31625,-0.31625,1.1931e-12,0.043746,0,-958.46,-378.95,0,1,1,0.64,0,-0.64,0
-1312.3,-3896.4,-1608.7,1486.1,0,0,3765,-1.4488e-05,-6.3402e-10,1239.9,250.41,0,0.31371,-0.31371,1.1835e-12,0.043794,0,-953.52,-375.89,0,1,1,0.6425,0,-0.6425,0
-1303.5,-3888.2,-1603.4,1480,0,0,3756.4,-1.437e-05,-6.2887e-10,1229.9,248.38,0,0.31116,-0.31116,1.1738e-12,0.043842,0,-948.57,-372.84,0,1,1,0.645,0,-0.645,0
-1294.7,-3880.1,-1598.1,1474,0,0,3747.8,-1.4252e-05,-6.2372e-10,1219.8,246.34,0,0.30861,-0.30861,1.1642e-12,0.043891,0,-943.63,-369.79,0,1,1,0.6475,0,-0.6475,0
-1285.9,-3871.9,-1592.8,1467.9,0,0,3739.2,-1.4135e-05,-6.1857e-10,1209.7,244.31,0,0.30606,-0.30606,1.1546e-12,0.043939,0,-938.68,-366.73,0,1,1,0.65,0,-0.65,0
-1277.1,-3863.7,-1587.5,1461.8,0,0,3730.6,-1.4017e-05,-6.1342e-10,1199.6,242.28,0,0.30351,-0.30351,1.1449e-12,0.043987,0,-933.74,-363.68,0,1,1,0.6525,0,-0.6525,0
-1268.2,-3855.6,-1582.1,1455.8,0,0,3722,-1.3899e-05,-6.0827e-10,1189.6,240.24,0,0.30096,-0.30096,1.1353e-12,0.044036,0,-928.79,-360.63,0,1,1,0.655,0,-0.655,0
-1259.4,-3847.4,-1576.8,1449.7,0,0,3713.4,-1.3781e-05,-6.0312e-10,1179.5,238.21,0,0.29842,-0.29842,1.1257e-12,0.044084,0,-923.85,-357.57,0,1,1,0.6575,0,-0.6575,0
-1250.6,-3839.2,-1571.5,1443.6,0,0,3704.8,-1.3664e-05,-5.9797e-10,1169.4,236.17,0,0.29587,-0.29587,1.116e-12,0.044132,0,-918.9,-354.52,0,1,1,0.66,0,-0.66,0
-1241.8,-3831.1,-1566.2,1437.6,0,0,3696.2,-1.3546e-05,-5.9282e-10,1159.4,234.14,0,0.29332,-0.29332,1.1064e-12,0.044181,0,-913.96,-351.47,0,1,1,0.6625,0,-0.6625,0
-1233,-3822.9,-1560.9,1431.5,0,0,3687.6,-1.3428e-05,-5.8767e-10,1149.3,232.1,0,0.29077,-0.29077,1.0968e-12,0.044229,0,-909.01,-348.41,0,1,1,0.665,0,-0.665,0
-1224.2,-3814.7,-1555.6,1425.5,0,0,3679.1,-1.3311e-05,-5.8251e-10,1139.2,230.07,0,0.28822,-0.28822,1.0872e-12,0.044277,0,-904.07,-345.36,0,1,1,0.6675,0,-0.6675,0
-1215.4,-3806.6,-1550.2,1419.4,0,0,3670.5,-1.3193e-05,-5.7736e-10,1129.1,228.04,0,0.28567,-0.28567,1.0775e-12,0.044325,0,-899.12,-342.31,0,1,1,0.67,0,-0.67,0
-1206.6,-3798.4,-1544.9,1413.3,0,0,3661.9,-1.3075e-05,-5.7221e-10,1119.1,226,0,0.28313,-0.28313,1.0679e-12,0.044374,0,-894.18,-339.25,0,1,1,0.6725,0,-0.6725,0
-1197.8,-3790.2,-1539.6,1407.3,0,0,3653.3,-1.2958e-05,-5.6706e-10,1109,223.97,0,0.28058,-0.28058,1.0583e-12,0.044422,0,-889.23,-336.2,0,1,1,0.675,0,-0.675,0
-1189,-3782.1,-1534.3,1401.2,0,0,3644.7,-1.284e-05,-5.6191e-10,1098.9,221.93,0,0.27803,-0.27803,1.0486e-12,0.04447,0,-884.29,-333.14,0,1,1,0.6775,0,-0.6775,0
-1180.2,-3773.9,-1529,1395.1,0,0,3636.1,-1.2722e-05,-5.5676e-10,1088.8,219.9,0,0.27548,-0.27548,1.039e-12,0.044519,0,-879.35,-330.09,0,1,1,0.68,0,-0.68,0
-1171.4,-3765.8,-1523.7,1389.1,0,0,3627.5,-1.2605e-05,-5.5161e-10,1078.8,217.87,0,0.27293,-0.27293,1.0294e-12,0.044567,0,-874.4,-327.04,0,1,1,0.6825,0,-0.6825,0
-1162.6,-3757.6,-1518.3,1383,0,0,3618.9,-1.2487e-05,-5.4646e-10,1068.7,215.83,0,0.27038,-0.27038,1.0198e-12,0.044615,0,-869.46,-323.98,0,1,1,0.685,0,-0.685,0
-1153.8,-3749.4,-1513,1376.9,0,0,3610.3,-1.2369e-05,-5.4131e-10,1058.6,213.8,0,0.26784,-0.26784,1.0101e-12,0.044663,0,-864.51,-320.93,0,1,1,0.6875,0,-0.6875,0
-1145,-3741.3,-1507.7,1370.9,0,0,3601.7,-1.2252e-05,-5.3616e-10,1048.6,211.76,0,0.26529,-0.26529,1.0005e-12,0.044712,0,-859.57,-317.88,0,1,1,0.69,0,-0.69,0
-1136.1,-3733.1,-1502.4,1364.8,0,0,3593.1,-1.2134e-05,-5.3101e-10,1038.5,209.73,0,0.26274,-0.26274,9.9087e-13,0.04476,0,-854.62,-314.82,0,1,1,0.6925,0,-0.6925,0
-1127.3,-3724.9,-1497.1,1358.8,0,0,3584.5,-1.2016e-05,-5.2586e-10,1028.4,207.7,0,0.26019,-0.26019,9.8125e-13,0.044808,0,-849.68,-311.77,0,1,1,0.695,0,-0.695,0
-1118.5,-3716.8,-1491.8,1352.7,0,0,3575.9,-1.1898e-05,-5.2071e-10,1018.3,205.66,0,0.25764,-0.25764,9.7162e-13,0.044857,0,-844.73,-308.72,0,1,1,0.6975,0,-0.6975,0
-1109.7,-3708.6,-1486.4,1346.6,0,0,3567.3,-1.1781e-05,-5.1556e-10,1008.3,203.63,0,0.2551,-0.2551,9.6199e-13,0.044905,0,-839.79,-305.66,0,1,1,0.7,0,-0.7,0
-1100.9,-3700.4,-1481.1,1340.6,0,0,3558.7,-1.1663e-05,-5.1041e-10,998.2,201.59,0,0.25255,-0.25255,9.5237e-13,0.044953,0,-834.84,-302.61,0,1,1,0.7025,0,-0.7025,0
-1092.1,-3692.3,-1475.8,1334.5,0,0,3550.1,-1.1545e-05,-5.0526e-10,988.12,199.56,0,0.25,-0.25,9.4274e-13,0.045002,0,-829.9,-299.56,0,1,1,0.705,0,-0.705,0
-1083.3,-3684.1,-1470.5,1328.4,0,0,3541.5,-1.1428e-05,-5.0011e-10,978.05,197.52,0,0.24745,-0.24745,9.3312e-13,0.04505,0,-824.95,-296.5,0,1,1,0.7075,0,-0.7075,0
-1074.5,-3676,-1465.2,1322.4,0,0,3532.9,-1.131e-05,-4.9496e-10,967.98,195.49,0,0.2449,-0.2449,9.2349e-13,0.045098,0,-820.01,-293.45,0,1,1,0.71,0,-0.71,0
-1065.7,-3667.8,-1459.9,1316.3,0,0,3524.3,-1.1192e-05,-4.8981e-10,957.91,193.46,0,0.24235,-0.24235,9.1387e-13,0.045146,0,-815.06,-290.4,0,1,1,0.7125,0,-0.7125,0
-1056.9,-3659.6,-1454.5,1310.2,0,0,3515.7,-1.1075e-05,-4.8466e-10,947.84,191.42,0,0.23981,-0.23981,9.0424e-13,0.045195,0,-810.12,-287.34,0,1,1,0.715,0,-0.715,0
-1048.1,-3651.5,-1449.2,1304.2,0,0,3507.2,-1.0957e-05,-4.7951e-10,937.76,189.39,0,0.23726,-0.23726,8.9462e-13,0.045243,0,-805.17,-284.29,0,1,1,0.7175,0,-0.7175,0
-1039.3,-3643.3,-1443.9,1298.1,0,0,3498.6,-1.0839e-05,-4.7436e-10,927.69,187.35,0,0.23471,-0.23471,8.85e-13,0.045291,0,-800.23,-281.24,0,1,1,0.72,0,-0.72,0
-1030.5,-3635.1,-1438.6,1292.1,0,0,3490,-1.0722e-05,-4.6921e-10,917.62,185.32,0,0.23216,-0.23216,8.7537e-13,0.04534,0,-795.28,-278.18,0,1,1,0.7225,0,-0.7225,0
-1021.7,-3627,-1433.3,1286,0,0,3481.4,-1.0604e-05,-4.6406e-10,907.55,183.29,0,0.22961,-0.22961,8.6575e-13,0.045388,0,-790.34,-275.13,0,1,1,0.725,0,-0.725,0
-1012.9,-3618.8,-1428,1279.9,0,0,3472.8,-1.0486e-05,-4.5891e-10,897.47,181.25,0,0.22706,-0.22706,8.5613e-13,0.045436,0,-785.39,-272.08,0,1,1,0.7275,0,-0.7275,0
-1004,-3610.6,-1422.6,1273.9,0,0,3464.2,-1.0369e-05,-4.5376e-10,887.4,179.22,0,0.22452,-0.22452,8.4651e-13,0.045485,0,-780.45,-269.02,0,1,1,0.73,0,-0.73,0
-995.24,-3602.5,-1417.3,1267.8,0,0,3455.6,-1.0251e-05,-4.4861e-10,877.33,177.18,0,0.22197,-0.22197,8.3688e-13,0.045533,0,-775.51,-265.97,0,1,1,0.7325,0,-0.7325,0
-986.44,-3594.3,-1412,1261.7,0,0,3447,-1.0133e-05,-4.4346e-10,867.26,175.15,0,0.21942,-0.21942,8.2726e-13,0.045581,0,-770.56,-262.92,0,1,1,0.735,0,-0.735,0
-977.63,-3586.1,-1406.7,1255.7,0,0,3438.4,-1.0016e-05,-4.3831e-10,857.19,173.11,0,0.21687,-0.21687,8.1764e-13,0.045629,0,-765.62,-259.86,0,1,1,0.7375,0,-0.7375,0
-968.82,-3578,-1401.4,1249.6,0,0,3429.8,-9.8978e-06,-4.3316e-10,847.11,171.08,0,0.21432,-0.21432,8.0802e-13,0.045678,0,-760.67,-256.81,0,1,1,0.74,0,-0.74,0
-960.02,-3569.8,-1396.1,1243.6,0,0,3421.2,-9.7801e-06,-4.2801e-10,837.04,169.05,0,0.21177,-0.21177,7.984e-13,0.045726,0,-755.73,-253.75,0,1,1,0.7425,0,-0.7425,0
-951.21,-3561.7,-1390.7,1237.5,0,0,3412.6,-9.6625e-06,-4.2286e-10,826.97,167.01,0,0.20923,-0.20923,7.8878e-13,0.045774,0,-750.78,-250.7,0,1,1,0.745,0,-0.745,0
-942.4,-3553.5,-1385.4,1231.4,0,0,3404,-9.5448e-06,-4.1771e-10,816.9,164.98,0,0.20668,-0.20668,7.7916e-13,0.045823,0,-745.84,-247.65,0,1,1,0.7475,0,-0.7475,0
-933.6,-3545.3,-1380.1,1225.4,0,0,3395.4,-9.4271e-06,-4.1256e-10,806.82,162.94,0,0.20413,-0.20413,7.6954e-13,0.045871,0,-740.89,-244.59,0,1,1,0.75,0,-0.75,0
-924.79,-3537.2,-1374.8,1219.3,0,0,3386.8,-9.3094e-06,-4.0741e-10,796.75,160.91,0,0.20158,-0.20158,7.5992e-13,0.045919,0,-735.95,-241.54,0,1,1,0.7525,0,-0.7525,0
-915.98,-3529,-1369.5,1213.2,0,0,3378.2,-9.1917e-06,-4.0226e-10,786.68,158.88,0,0.19903,-0.19903,7.503e-13,0.045968,0,-731,-238.49,0,1,1,0.755,0,-0.755,0
-907.18,-3520.8,-1364.2,1207.2,0,0,3369.6,-9.074e-06,-3.9711e-10,776.61,156.84,0,0.19648,-0.19648,7.4068e-13,0.046016,0,-726.06,-235.43,0,1,1,0.7575,0,-0.7575,0
-898.37,-3512.7,-1358.8,1201.1,0,0,3361,-8.9563e-06,-3.9196e-10,766.54,154.81,0,0.19394,-0.19394,7.3106e-13,0.046064,0,-721.11,-232.38,0,1,1,0.76,0,-0.76,0
-889.56,-3504.5,-1353.5,1195,0,0,3352.4,-8.8387e-06,-3.8681e-10,756.46,152.77,0,0.19139,-0.19139,7.2145e-13,0.046112,0,-716.17,-229.33,0,1,1,0.7625,0,-0.7625,0
-880.76,-3496.3,-1348.2,1189,0,0,3343.8,-8.721e-06,-3.8166e-10,746.39,150.74,0,0.18884,-0.18884,7.1183e-13,0.046161,0,-711.22,-226.27,0,1,1,0.765,0,-0.765,0
-871.95,-3488.2,-1342.9,1182.9,0,0,3335.3,-8.6033e-06,-3.7651e-10,736.32,148.7,0,0.18629,-0.18629,7.0221e-13,0.046209,0,-706.28,-223.22,0,1,1,0.7675,0,-0.7675,0
-863.15,-3480,-1337.6,1176.9,0,0,3326.7,-8.4856e-06,-3.7136e-10,726.25,146.67,0,0.18374,-0.18374,6.9259e-13,0.046257,0,-701.33,-220.17,0,1,1,0.77,0,-0.77,0
-854.34,-3471.8,-1332.3,1170.8,0,0,3318.1,-8.3679e-06,-3.6621e-10,716.17,144.64,0,0.18119,-0.18119,6.8298e-13,0.046306,0,-696.39,-217.11,0,1,1,0.7725,0,-0.7725,0
-845.53,-3463.7,-1326.9,1164.7,0,0,3309.5,-8.2502e-06,-3.6106e-10,706.1,142.6,0,0.17865,-0.17865,6.7336e-13,0.046354,0,-691.44,-214.06,0,1,1,0.775,0,-0.775,0
-836.73,-3455.5,-1321.6,1158.7,0,0,3300.9,-8.1325e-06,-3.5591e-10,696.03,140.57,0,0.1761,-0.1761,6.6374e-13,0.046402,0,-686.5,-211.01,0,1,1,0.7775,0,-0.7775,0
-827.92,-3447.4,-1316.3,1152.6,0,0,3292.3,-8.0149e-06,-3.5076e-10,685.96,138.53,0,0.17355,-0.17355,6.5413e-13,0.04645,0,-681.55,-207.95,0,1,1,0.78,0,-0.78,0
-819.11,-3439.2,-1311,1146.5,0,0,3283.7,-7.8972e-06,-3.456e-10,675.89,136.5,0,0.171,-0.171,6.4451e-13,0.046499,0,-676.61,-204.9,0,1,1,0.7825,0,-0.7825,0
-810.31,-3431,-1305.7,1140.5,0,0,3275.1,-7.7795e-06,-3.4045e-10,665.81,134.47,0,0.16845,-0.16845,6.349e-13,0.046547,0,-671.66,-201.85,0,1,1,0.785,0,-0.785,0
-801.5,-3422.9,-1300.3,1134.4,0,0,3266.5,-7.6618e-06,-3.353e-10,655.74,132.43,0,0.1659,-0.1659,6.2528e-13,0.046595,0,-666.72,-198.79,0,1,1,0.7875,0,-0.7875,0
-792.69,-3414.7,-1295,1128.3,0,0,3257.9,-7.5441e-06,-3.3015e-10,645.67,130.4,0,0.16336,-0.16336,6.1567e-13,0.046644,0,-661.78,-195.74,0,1,1,0.79,0,-0.79,0
-783.89,-3406.5,-1289.7,1122.3,0,0,3249.3,-7.4264e-06,-3.25e-10,635.6,128.36,0,0.16081,-0.16081,6.0605e-13,0.046692,0,-656.83,-192.69,0,1,1,0.7925,0,-0.7925,0
-775.08,-3398.4,-1284.4,1116.2,0,0,3240.7,-7.3087e-06,-3.1985e-10,625.52,126.33,0,0.15826,-0.15826,5.9644e-13,0.04674,0,-651.89,-189.63,0,1,1,0.795,0,-0.795,0
-766.27,-3390.2,-1279.1,1110.2,0,0,3232.1,-7.1911e-06,-3.147e-10,615.45,124.29,0,0.15571,-0.15571,5.8683e-13,0.046789,0,-646.94,-186.58,0,1,1,0.7975,0,-0.7975,0
-757.47,-3382,-1273.8,1104.1,0,0,3223.5,-7.0734e-06,-3.0955e-10,605.38,122.26,0,0.15316,-0.15316,5.7721e-13,0.046837,0,-642,-183.53,0,1,1,0.8,0,-0.8,0
-748.66,-3373.9,-1268.4,1098,0,0,3214.9,-6.9557e-06,-3.044e-10,595.31,120.23,0,0.15061,-0.15061,5.676e-13,0.046885,0,-637.05,-180.47,0,1,1,0.8025,0,-0.8025,0
-739.85,-3365.7,-1263.1,1092,0,0,3206.3,-6.838e-06,-2.9925e-10,585.24,118.19,0,0.14807,-0.14807,5.5799e-13,0.046933,0,-632.11,-177.42,0,1,1,0.805,0,-0.805,0
-731.05,-3357.6,-1257.8,1085.9,0,0,3197.7,-6.7203e-06,-2.941e-10,575.16,116.16,0,0.14552,-0.14552,5.4838e-13,0.046982,0,-627.16,-174.37,0,1,1,0.8075,0,-0.8075,0
-722.24,-3349.4,-1252.5,1079.8,0,0,3189.1,-6.6026e-06,-2.8895e-10,565.09,114.12,0,0.14297,-0.14297,5.3876e-13,0.04703,0,-622.22,-171.31,0,1,1,0.81,0,-0.81,0
-713.44,-3341.2,-1247.2,1073.8,0,0,3180.5,-6.485e-06,-2.838e-10,555.02,112.09,0,0.14042,-0.14042,5.2915e-13,0.047078,0,-617.27,-168.26,0,1,1,0.8125,0,-0.8125,0
-704.63,-3333.1,-1241.9,1067.7,0,0,3171.9,-6.3673e-06,-2.7865e-10,544.95,110.06,0,0.13787,-0.13787,5.1954e-13,0.047127,0,-612.33,-165.2,0,1,1,0.815,0,-0.815,0
-695.82,-3324.9,-1236.5,1061.6,0,0,3163.4,-6.2496e-06,-2.735e-10,534.88,108.02,0,0.13533,-0.13533,5.0993e-13,0.047175,0,-607.38,-162.15,0,1,1,0.8175,0,-0.8175,0
-687.02,-3316.7,-1231.2,1055.6,0,0,3154.8,-6.1319e-06,-2.6835e-10,524.8,105.99,0,0.13278,-0.13278,5.0032e-13,0.047223,0,-602.44,-159.1,0,1,1,0.82,0,-0.82,0
-678.21,-3308.6,-1225.9,1049.5,0,0,3146.2,-6.0142e-06,-2.632e-10,514.73,103.95,0,0.13023,-0.13023,4.9071e-13,0.047272,0,-597.49,-156.04,0,1,1,0.8225,0,-0.8225,0
-669.4,-3300.4,-1220.6,1043.5,0,0,3137.6,-5.8965e-06,-2.5805e-10,504.66,101.92,0,0.12768,-0.12768,4.811e-13,0.04732,0,-592.55,-152.99,0,1,1,0.825,0,-0.825,0
-660.6,-3292.2,-1215.3,1037.4,0,0,3129,-5.7788e-06,-2.529e-10,494.59,99.885,0,0.12513,-0.12513,4.7149e-13,0.047368,0,-587.6,-149.94,0,1,1,0.8275,0,-0.8275,0
-651.79,-3284.1,-1210,1031.3,0,0,3120.4,-5.6612e-06,-2.4775e-10,484.51,97.851,0,0.12258,-0.12258,4.6188e-13,0.047416,0,-582.66,-146.88,0,1,1,0.83,0,-0.83,0
-642.98,-3275.9,-1204.6,1025.3,0,0,3111.8,-5.5435e-06,-2.426e-10,474.44,95.817,0,0.12004,-0.12004,4.5227e-13,0.047465,0,-577.71,-143.83,0,1,1,0.8325,0,-0.8325,0
-634.18,-3267.7,-1199.3,1019.2,0,0,3103.2,-5.4258e-06,-2.3745e-10,464.37,93.783,0,0.11749,-0.11749,4.4266e-13,0.047513,0,-572.77,-140.78,0,1,1,0.835,0,-0.835,0
-625.37,-3259.6,-1194,1013.1,0,0,3094.6,-5.3081e-06,-2.323e-10,454.3,91.749,0,0.11494,-0.11494,4.3305e-13,0.047561,0,-567.82,-137.72,0,1,1,0.8375,0,-0.8375,0
-616.56,-3251.4,-1188.7,1007.1,0,0,3086,-5.1904e-06,-2.2715e-10,444.23,89.714,0,0.11239,-0.11239,4.2344e-13,0.04761,0,-562.88,-134.67,0,1,1,0.84,0,-0.84,0
-607.76,-3243.3,-1183.4,1001,0,0,3077.4,-5.0727e-06,-2.22e-10,434.15,87.68,0,0.10984,-0.10984,4.1384e-13,0.047658,0,-557.93,-131.62,0,1,1,0.8425,0,-0.8425,0
-598.95,-3235.1,-1178.1,994.95,0,0,3068.8,-4.955e-06,-2.1685e-10,424.08,85.646,0,0.10729,-0.10729,4.0423e-13,0.047706,0,-552.99,-128.56,0,1,1,0.845,0,-0.845,0
-590.14,-3226.9,-1172.7,988.89,0,0,3060.2,-4.8374e-06,-2.117e-10,414.01,83.612,0,0.10475,-0.10475,3.9462e-13,0.047755,0,-548.05,-125.51,0,1,1,0.8475,0,-0.8475,0
-581.34,-3218.8,-1167.4,982.82,0,0,3051.6,-4.7197e-06,-2.0655e-10,403.94,81.578,0,0.1022,-0.1022,3.8501e-13,0.047803,0,-543.1,-122.46,0,1,1,0.85,0,-0.85,0
-572.53,-3210.6,-1162.1,976.76,0,0,3043,-4.602e-06,-2.014e-10,393.86,79.544,0,0.099649,-0.099649,3.7541e-13,0.047851,0,-538.16,-119.4,0,1,1,0.8525,0,-0.8525,0
-563.72,-3202.4,-1156.8,970.7,0,0,3034.4,-4.4843e-06,-1.9625e-10,383.79,77.509,0,0.097101,-0.097101,3.658e-13,0.047899,0,-533.21,-116.35,0,1,1,0.855,0,-0.855,0
-554.92,-3194.3,-1151.5,964.63,0,0,3025.8,-4.3666e-06,-1.911e-10,373.72,75.475,0,0.094552,-0.094552,3.562e-13,0.047948,0,-528.27,-113.3,0,1,1,0.8575,0,-0.8575,0
-546.11,-3186.1,-1146.2,958.57,0,0,3017.2,-4.2489e-06,-1.8595e-10,363.65,73.441,0,0.092004,-0.092004,3.4659e-13,0.047996,0,-523.32,-110.24,0,1,1,0.86,0,-0.86,0
-537.31,-3177.9,-1140.8,952.51,0,0,3008.6,-4.1312e-06,-1.808e-10,353.58,71.407,0,0.089456,-0.089456,3.3699e-13,0.048044,0,-518.38,-107.19,0,1,1,0.8625,0,-0.8625,0
-528.5,-3169.8,-1135.5,946.44,0,0,3000,-4.0136e-06,-1.7565e-10,343.5,69.373,0,0.086907,-0.086907,3.2738e-13,0.048093,0,-513.43,-104.14,0,1,1,0.865,0,-0.865,0
-519.69,-3161.6,-1130.2,940.38,0,0,2991.5,-3.8959e-06,-1.705e-10,333.43,67.339,0,0.084359,-0.084359,3.1778e-13,0.048141,0,-508.49,-101.08,0,1,1,0.8675,0,-0.8675,0
-510.89,-3153.4,-1124.9,934.32,0,0,2982.9,-3.7782e-06,-1.6535e-10,323.36,65.305,0,0.081811,-0.081811,3.0817e-13,0.048189,0,-503.54,-98.029,0,1,1,0.87,0,-0.87,0
-502.08,-3145.3,-1119.6,928.25,0,0,2974.3,-3.6605e-06,-1.602e-10,313.29,63.27,0,0.079263,-0.079263,2.9857e-13,0.048237,0,-498.6,-94.975,0,1,1,0.8725,0,-0.8725,0
-493.27,-3137.1,-1114.3,922.19,0,0,2965.7,-3.5428e-06,-1.5505e-10,303.21,61.236,0,0.076714,-0.076714,2.8896e-13,0.048286,0,-493.65,-91.922,0,1,1,0.875,0,-0.875,0
-484.47,-3129,-1108.9,916.13,0,0,2957.1,-3.4251e-06,-1.4989e-10,293.14,59.202,0,0.074166,-0.074166,2.7936e-13,0.048334,0,-488.71,-88.868,0,1,1,0.8775,0,-0.8775,0
-475.66,-3120.8,-1103.6,910.06,0,0,2948.5,-3.3074e-06,-1.4474e-10,283.07,57.168,0,0.071618,-0.071618,2.6976e-13,0.048382,0,-483.76,-85.815,0,1,1,0.88,0,-0.88,0
-466.85,-3112.6,-1098.3,904,0,0,2939.9,-3.1898e-06,-1.3959e-10,273,55.134,0,0.069069,-0.069069,2.6015e-13,0.048431,0,-478.82,-82.761,0,1,1,0.8825,0,-0.8825,0
-458.05,-3104.5,-1093,897.94,0,0,2931.3,-3.0721e-06,-1.3444e-10,262.93,53.1,0,0.066521,-0.066521,2.5055e-13,0.048479,0,-473.87,-79.708,0,1,1,0.885,0,-0.885,0
-449.24,-3096.3,-1087.7,891.87,0,0,2922.7,-2.9544e-06,-1.2929e-10,252.85,51.066,0,0.063973,-0.063973,2.4095e-13,0.048527,0,-468.93,-76.654,0,1,1,0.8875,0,-0.8875,0
-440.43,-3088.1,-1082.4,885.81,0,0,2914.1,-2.8367e-06,-1.2414e-10,242.78,49.031,0,0.061424,-0.061424,2.3135e-13,0.048576,0,-463.98,-73.601,0,1,1,0.89,0,-0.89,0
-431.63,-3080,-1077,879.75,0,0,2905.5,-2.719e-06,-1.1899e-10,232.71,46.997,0,0.058876,-0.058876,2.2175e-13,0.048624,0,-459.04,-70.547,0,1,1,0.8925,0,-0.8925,0
-422.82,-3071.8,-1071.7,873.68,0,0,2896.9,-2.6013e-06,-1.1384e-10,222.64,44.963,0,0.056328,-0.056328,2.1215e-13,0.048672,0,-454.09,-67.494,0,1,1,0.895,0,-0.895,0
-414.01,-3063.6,-1066.4,867.62,0,0,2888.3,-2.4836e-06,-1.0869e-10,212.56,42.929,0,0.05378,-0.05378,2.0254e-13,0.04872,0,-449.15,-64.441,0,1,1,0.8975,0,-0.8975,0
-405.21,-3055.5,-1061.1,861.56,0,0,2879.7,-2.366e-06,-1.0354e-10,202.49,40.895,0,0.051231,-0.051231,1.9294e-13,0.048769,0,-444.2,-61.387,0,1,1,0.9,0,-0.9,0
-396.4,-3047.3,-1055.8,855.49,0,0,2871.1,-2.2483e-06,-9.8392e-11,192.42,38.861,0,0.048683,-0.048683,1.8334e-13,0.048817,0,-439.26,-58.334,0,1,1,0.9025,0,-0.9025,0
-387.6,-3039.2,-1050.5,849.43,0,0,2862.5,-2.1306e-06,-9.3242e-11,182.35,36.827,0,0.046135,-0.046135,1.7374e-13,0.048865,0,-434.32,-55.28,0,1,1,0.905,0,-0.905,0
-378.79,-3031,-1045.1,843.37,0,0,2853.9,-2.0129e-06,-8.8091e-11,172.28,34.792,0,0.043586,-0.043586,1.6414e-13,0.048914,0,-429.37,-52.227,0,1,1,0.9075,0,-0.9075,0
-369.98,-3022.8,-1039.8,837.3,0,0,2845.3,-1.8952e-06,-8.2941e-11,162.2,32.758,0,0.041038,-0.041038,1.5454e-13,0.048962,0,-424.43,-49.173,0,1,1,0.91,0,-0.91,0
-361.18,-3014.7,-1034.5,831.24,0,0,2836.7,-1.7775e-06,-7.7791e-11,152.13,30.724,0,0.03849,-0.03849,1.4495e-13,0.04901,0,-419.48,-46.12,0,1,1,0.9125,0,-0.9125,0
-352.37,-3006.5,-1029.2,825.18,0,0,2828.1,-1.6598e-06,-7.264e-11,142.06,28.69,0,0.035941,-0.035941,1.3535e-13,0.049059,0,-414.54,-43.066,0,1,1,0.915,0,-0.915,0
-343.56,-2998.3,-1023.9,819.11,0,0,2819.5,-1.5422e-06,-6.749e-11,131.99,26.656,0,0.033393,-0.033393,1.2575e-13,0.049107,0,-409.59,-40.013,0,1,1,0.9175,0,-0.9175,0
-334.76,-2990.2,-1018.6,813.05,0,0,2811,-1.4245e-06,-6.234e-11,121.91,24.622,0,0.030845,-0.030845,1.1615e-13,0.049155,0,-404.65,-36.959,0,1,1,0.92,0,-0.92,0
-325.95,-2982,-1013.2,806.99,0,0,2802.4,-1.3068e-06,-5.719e-11,111.84,22.587,0,0.028297,-0.028297,1.0655e-13,0.049203,0,-399.7,-33.906,0,1,1,0.9225,0,-0.9225,0
-317.14,-2973.8,-1007.9,800.92,0,0,2793.8,-1.1891e-06,-5.2039e-11,101.77,20.553,0,0.025748,-0.025748,9.6956e-14,0.049252,0,-394.76,-30.852,0,1,1,0.925,0,-0.925,0
-308.34,-2965.7,-1002.6,794.86,0,0,2785.2,-1.0714e-06,-4.6889e-11,91.698,18.519,0,0.0232,-0.0232,8.7358e-14,0.0493,0,-389.81,-27.799,0,1,1,0.9275,0,-0.9275,0
-299.53,-2957.5,-997.28,788.8,0,0,2776.6,-9.5374e-07,-4.1739e-11,81.626,16.485,0,0.020652,-0.020652,7.7762e-14,0.049348,0,-384.87,-24.746,0,1,1,0.93,0,-0.93,0
-290.72,-2949.3,-991.97,782.73,0,0,2768,-8.3605e-07,-3.6588e-11,71.554,14.451,0,0.018103,-0.018103,6.8165e-14,0.049397,0,-379.92,-21.692,0,1,1,0.9325,0,-0.9325,0
-281.92,-2941.2,-986.65,776.67,0,0,2759.4,-7.1837e-07,-3.1438e-11,61.482,12.417,0,0.015555,-0.015555,5.8569e-14,0.049445,0,-374.98,-18.639,0,1,1,0.935,0,-0.935,0
-273.11,-2933,-981.33,770.61,0,0,2750.8,-6.0068e-07,-2.6288e-11,51.41,10.383,0,0.013007,-0.013007,4.8973e-14,0.049493,0,-370.03,-15.585,0,1,1,0.9375,0,-0.9375,0
-264.3,-2924.9,-976.01,764.54,0,0,2742.2,-4.8299e-07,-2.1137e-11,41.337,8.3484,0,0.010459,-0.010459,3.9378e-14,0.049541,0,-365.09,-12.532,0,1,1,0.94,0,-0.94,0
-255.5,-2916.7,-970.7,758.48,0,0,2733.6,-3.6531e-07,-1.5987e-11,31.265,6.3142,0,0.0079102,-0.0079102,2.9783e-14,0.04959,0,-360.14,-9.4783,0,1,1,0.9425,0,-0.9425,0
-246.69,-2908.5,-965.38,752.42,0,0,2725,-2.4762e-07,-1.0837e-11,21.193,4.2801,0,0.0053619,-0.0053619,2.0188e-14,0.049638,0,-355.2,-6.4248,0,1,1,0.945,0,-0.945,0
-237.89,-2900.4,-960.06,746.35,0,0,2716.4,-1.2994e-07,-5.6866e-12,11.121,2.2459,0,0.0028136,-0.0028136,1.0594e-14,0.049686,0,-350.25,-3.3714,0,1,1,0.9475,0,-0.9475,0
-229.08,-2892.2,-954.75,740.29,0,0,2707.8,-1.2253e-08,-5.3625e-13,1.0487,0.2118,0,0.00026533,-0.00026533,9.9925e-16,0.049735,0,-345.31,-0.31793,0,1,1,0.95,0,-0.95,0
-227.59,-2887,-952.67,738.41,0,0,2702.9,0,0,0,0,0,0,0,3.8182e-21,0.049756,0,-344.59,-5.7944e-07,0,1,1,0.9525,0,-0.9525,0
-226.95,-2882.1,-950.97,737.01,0,0,2698.4,0,0,0,0,0,0,0,3.818e-21,0.049774,0,-344.35,-5.7725e-07,0,1,1,0.955,0,-0.955,0
-226.32,-2877.2,-949.27,735.62,0,0,2693.9,0,0,0,0,0,0,0,3.8177e-21,0.049792,0,-344.12,-5.7506e-07,0,1,1,0.9575,0,-0.9575,0
-225.68,-2872.3,-947.56,734.22,0,0,2689.4,0,0,0,0,0,0,0,3.8174e-21,0.04981,0,-343.89,-5.7288e-07,0,1,1,0.96,0,-0.96,0
-225.04,-2867.4,-945.86,732.83,0,0,2684.9,0,0,0,0,0,0,0,3.8172e-21,0.049828,0,-343.66,-5.7069e-07,0,1,1,0.9625,0,-0.9625,0
-224.4,-2862.5,-944.16,731.43,0,0,2680.4,0,0,0,0,0,0,0,3.8169e-21,0.049846,0,-343.42,-5.685e-07,0,1,1,0.965,0,-0.965,0
-223.77,-2857.5,-942.46,730.04,0,0,2675.9,0,0,0,0,0,0,0,3.8166e-21,0.049863,0,-343.19,-5.6631e-07,0,1,1,0.9675,0,-0.9675,0
-223.13,-2852.6,-940.76,728.64,0,0,2671.4,0,0,0,0,0,0,0,3.8163e-21,0.049881,0,-342.96,-5.6412e-07,0,1,1,0.97,0,-0.97,0
-222.49,-2847.7,-939.06,727.25,0,0,2666.9,0,0,0,0,0,0,0,3.8161e-21,0.049899,0,-342.72,-5.6193e-07,0,1,1,0.9725,0,-0.9725,0
-221.86,-2842.8,-937.36,725.85,0,0,2662.4,0,0,0,0,0,0,0,3.8158e-21,0.049917,0,-342.49,-5.5974e-07,0,1,1,0.975,0,-0.975,0
-221.22,-2837.9,-935.65,724.45,0,0,2657.9,0,0,0,0,0,0,0,3.8155e-21,0.049935,0,-342.26,-5.5756e-07,0,1,1,0.9775,0,-0.9775,0
-220.58,-2833,-933.95,723.06,0,0,2653.4,0,0,0,0,0,0,0,3.8152e-21,0.049953,0,-342.03,-5.5537e-07,0,1,1,0.98,0,-0.98,0
-219.94,-2828.1,-932.25,721.66,0,0,2648.9,0,0,0,0,0,0,0,3.815e-21,0.049971,0,-341.79,-5.5318e-07,0,1,1,0.9825,0,-0.9825,0
-219.31,-2823.2,-930.55,720.27,0,0,2644.4,0,0,0,0,0,0,0,3.8147e-21,0.049989,0,-341.56,-5.5099e-07,0,1,1,0.985,0,-0.985,0
-218.67,-2818.3,-928.85,718.87,0,0,2639.9,0,0,0,0,0,0,0,3.8144e-21,0.050007,0,-341.33,-5.488e-07,0,1,1,0.9875,0,-0.9875,0
-218.03,-2813.4,-927.15,717.48,0,0,2635.4,0,0,0,0,0,0,0,3.8141e-21,0.050025,0,-341.1,-5.4661e-07,0,1,1,0.99,0,-0.99,0
-217.39,-2808.5,-925.44,716.08,0,0,2630.9,0,0,0,0,0,0,0,3.8139e-21,0.050043,0,-340.86,-5.4442e-07,0,1,1,0.9925,0,-0.9925,0
-216.76,-2803.6,-923.74,714.69,0,0,2626.4,0,0,0,0,0,0,0,3.8136e-21,0.050061,0,-340.63,-5.4224e-07,0,1,1,0.995,0,-0.995,0
-216.12,-2798.7,-922.04,713.29,0,0,2621.9,0,0,0,0,0,0,0,3.8133e-21,0.050079,0,-340.4,-5.4005e-07,0,1,1,0.9975,0,-0.9975,0
-215.48,-2793.8,-920.34,711.9,0,0,2617.4,0,0,0,0,0,0,0,3.8131e-21,0.050097,0,-340.16,-5.3786e-07,0,1,1,1,0,-1,0
-214.85,-2788.9,-918.64,710.5,0,0,2612.9,0,0,0,0,0,0,0,3.8128e-21,0.050115,0,-339.93,-5.3567e-07,0,1,1,1.0025,0,-1.0025,0
-214.21,-2784,-916.94,709.11,0,0,2608.4,0,0,0,0,0,0,0,3.8125e-21,0.050133,0,-339.7,-5.3348e-07,0,1,1,1.005,0,-1.005,0
-213.57,-2779.1,-915.24,707.71,0,0,2603.9,0,0,0,0,0,0,0,3.8122e-21,0.050151,0,-339.47,-5.3129e-07,0,1,1,1.0075,0,-1.0075,0
-212.93,-2774.2,-913.53,706.32,0,0,2599.4,0,0,0,0,0,0,0,3.812e-21,0.050169,0,-339.23,-5.291e-07,0,1,1,1.01,0,-1.01,0
-212.3,-2769.3,-911.83,704.92,0,0,2594.9,0,0,0,0,0,0,0,3.8117e-21,0.050187,0,-339,-5.2691e-07,0,1,1,1.0125,0,-1.0125,0
-211.66,-2764.4,-910.13,703.53,0,0,2590.4,0,0,0,0,0,0,0,3.8114e-21,0.050204,0,-338.77,-5.2473e-07,0,1,1,1.015,0,-1.015,0
-211.02,-2759.5,-908.43,702.13,0,0,2585.9,0,0,0,0,0,0,0,3.8111e-21,0.050222,0,-338.54,-5.2254e-07,0,1,1,1.0175,0,-1.0175,0
-210.38,-2754.6,-906.73,700.74,0,0,2581.4,0,0,0,0,0,0,0,3.8109e-21,0.05024,0,-338.3,-5.2035e-07,0,1,1,1.02,0,-1.02,0
-209.75,-2749.7,-905.03,699.34,0,0,2577,0,0,0,0,0,0,0,3.8106e-21,0.050258,0,-338.07,-5.1816e-07,0,1,1,1.0225,0,-1.0225,0
-209.11,-2744.8,-903.32,697.94,0,0,2572.5,0,0,0,0,0,0,0,3.8103e-21,0.050276,0,-337.84,-5.1597e-07,0,1,1,1.025,0,-1.025,0
-208.47,-2739.9,-901.62,696.55,0,0,2568,0,0,0,0,0,0,0,3.81e-21,0.050294,0,-337.6,-5.1378e-07,0,1,1,1.0275,0,-1.0275,0
-207.83,-2735,-899.92,695.15,0,0,2563.5,0,0,0,0,0,0,0,3.8098e-21,0.050312,0,-337.37,-5.1159e-07,0,1,1,1.03,0,-1.03,0
-207.2,-2730.1,-898.22,693.76,0,0,2559,0,0,0,0,0,0,0,3.8095e-21,0.05033,0,-337.14,-5.0941e-07,0,1,1,1.0325,0,-1.0325,0
-206.56,-2725.2,-896.52,692.36,0,0,2554.5,0,0,0,0,0,0,0,3.8092e-21,0.050348,0,-336.91,-5.0722e-07,0,1,1,1.035,0,-1.035,0
-205.92,-2720.3,-894.82,690.97,0,0,2550,0,0,0,0,0,0,0,3.809e-21,0.050366,0,-336.67,-5.0503e-07,0,1,1,1.0375,0,-1.0375,0
-205.29,-2715.4,-893.12,689.57,0,0,2545.5,0,0,0,0,0,0,0,3.8087e-21,0.050384,0,-336.44,-5.0284e-07,0,1,1,1.04,0,-1.04,0
-204.65,-2710.5,-891.41,688.18,0,0,2541,0,0,0,0,0,0,0,3.8084e-21,0.050402,0,-336.21,-5.0065e-07,0,1,1,1.0425,0,-1.0425,0
-204.01,-2705.6,-889.71,686.78,0,0,2536.5,0,0,0,0,0,0,0,3.8081e-21,0.05042,0,-335.98,-4.9846e-07,0,1,1,1.045,0,-1.045,0
-203.37,-2700.7,-888.01,685.39,0,0,2532,0,0,0,0,0,0,0,3.8079e-21,0.050438,0,-335.74,-4.9627e-07,0,1,1,1.0475,0,-1.0475,0
-202.74,-2695.8,-886.31,683.99,0,0,2527.5,0,0,0,0,0,0,0,3.8076e-21,0.050456,0,-335.51,-4.9409e-07,0,1,1,1.05,0,-1.05,0
-202.1,-2690.9,-884.61,682.6,0,0,2523,0,0,0,0,0,0,0,3.8073e-21,0.050474,0,-335.28,-4.919e-07,0,1,1,1.0525,0,-1.0525,0
-201.46,-2686,-882.91,681.2,0,0,2518.5,0,0,0,0,0,0,0,3.807e-21,0.050492,0,-335.04,-4.8971e-07,0,1,1,1.055,0,-1.055,0
-200.82,-2681.1,-881.2,679.81,0,0,2514,0,0,0,0,0,0,0,3.8068e-21,0.05051,0,-334.81,-4.8752e-07,0,1,1,1.0575,0,-1.0575,0
-200.19,-2676.2,-879.5,678.41,0,0,2509.5,0,0,0,0,0,0,0,3.8065e-21,0.050528,0,-334.58,-4.8533e-07,0,1,1,1.06,0,-1.06,0
-199.55,-2671.3,-877.8,677.02,0,0,2505,0,0,0,0,0,0,0,3.8062e-21,0.050545,0,-334.35,-4.8314e-07,0,1,1,1.0625,0,-1.0625,0
-198.91,-2666.4,-876.1,675.62,0,0,2500.5,0,0,0,0,0,0,0,3.8059e-21,0.050563,0,-334.11,-4.8095e-07,0,1,1,1.065,0,-1.065,0
-198.28,-2661.5,-874.4,674.22,0,0,2496,0,0,0,0,0,0,0,3.8057e-21,0.050581,0,-333.88,-4.7877e-07,0,1,1,1.0675,0,-1.0675,0
-197.64,-2656.6,-872.7,672.83,0,0,2491.5,0,0,0,0,0,0,0,3.8054e-21,0.050599,0,-333.65,-4.7658e-07,0,1,1,1.07,0,-1.07,0
-197,-2651.7,-871,671.43,0,0,2487,0,0,0,0,0,0,0,3.8051e-21,0.050617,0,-333.42,-4.7439e-07,0,1,1,1.0725,0,-1.0725,0
-196.36,-2646.8,-869.29,670.04,0,0,2482.5,0,0,0,0,0,0,0,3.8049e-21,0.050635,0,-333.18,-4.722e-07,0,1,1,1.075,0,-1.075,0
-195.73,-2641.9,-867.59,668.64,0,0,2478,0,0,0,0,0,0,0,3.8046e-21,0.050653,0,-332.95,-4.7001e-07,0,1,1,1.0775,0,-1.0775,0
-195.09,-2637,-865.89,667.25,0,0,2473.5,0,0,0,0,0,0,0,3.8043e-21,0.050671,0,-332.72,-4.6782e-07,0,1,1,1.08,0,-1.08,0
-194.45,-2632.1,-864.19,665.85,0,0,2469,0,0,0,0,0,0,0,3.804e-21,0.050689,0,-332.48,-4.6563e-07,0,1,1,1.0825,0,-1.0825,0
-193.81,-2627.2,-862.49,664.46,0,0,2464.5,0,0,0,0,0,0,0,3.8038e-21,0.050707,0,-332.25,-4.6345e-07,0,1,1,1.085,0,-1.085,0
-193.18,-2622.3,-860.79,663.06,0,0,2460,0,0,0,0,0,0,0,3.8035e-21,0.050725,0,-332.02,-4.6126e-07,0,1,1,1.0875,0,-1.0875,0
-192.54,-2617.4,-859.08,661.67,0,0,2455.5,0,0,0,0,0,0,0,3.8032e-21,0.050743,0,-331.79,-4.5907e-07,0,1,1,1.09,0,-1.09,0
-191.9,-2612.5,-857.38,660.27,0,0,2451,0,0,0,0,0,0,0,3.8029e-21,0.050761,0,-331.55,-4.5688e-07,0,1,1,1.0925,0,-1.0925,0
-191.27,-2607.6,-855.68,658.88,0,0,2446.5,0,0,0,0,0,0,0,3.8027e-21,0.050779,0,-331.32,-4.5469e-07,0,1,1,1.095,0,-1.095,0
-190.63,-2602.7,-853.98,657.48,0,0,2442,0,0,0,0,0,0,0,3.8024e-21,0.050797,0,-331.09,-4.525e-07,0,1,1,1.0975,0,-1.0975,0
-189.99,-2597.8,-852.28,656.09,0,0,2437.5,0,0,0,0,0,0,0,3.8021e-21,0.050815,0,-330.86,-4.5031e-07,0,1,1,1.1,0,-1.1,0
-189.35,-2592.9,-850.58,654.69,0,0,2433,0,0,0,0,0,0,0,3.8018e-21,0.050833,0,-330.62,-4.4812e-07,0,1,1,1.1025,0,-1.1025,0
-188.72,-2588,-848.88,653.3,0,0,2428.5,0,0,0,0,0,0,0,3.8016e-21,0.050851,0,-330.39,-4.4594e-07,0,1,1,1.105,0,-1.105,0
-188.08,-2583.1,-847.17,651.9,0,0,2424,0,0,0,0,0,0,0,3.8013e-21,0.050869,0,-330.16,-4.4375e-07,0,1,1,1.1075,0,-1.1075,0
-187.44,-2578.2,-845.47,650.5,0,0,2419.5,0,0,0,0,0,0,0,3.801e-21,0.050886,0,-329.92,-4.4156e-07,0,1,1,1.11,0,-1.11,0
-186.8,-2573.3,-843.77,649.11,0,0,2415,0,0,0,0,0,0,0,3.8008e-21,0.050904,0,-329.69,-4.3937e-07,0,1,1,1.1125,0,-1.1125,0
-186.17,-2568.4,-842.07,647.71,0,0,2410.5,0,0,0,0,0,0,0,3.8005e-21,0.050922,0,-329.46,-4.3718e-07,0,1,1,1.115,0,-1.115,0
-185.53,-2563.5,-840.37,646.32,0,0,2406,0,0,0,0,0,0,0,3.8002e-21,0.05094,0,-329.23,-4.3499e-07,0,1,1,1.1175,0,-1.1175,0
-184.89,-2558.6,-838.67,644.92,0,0,2401.5,0,0,0,0,0,0,0,3.7999e-21,0.050958,0,-328.99,-4.328e-07,0,1,1,1.12,0,-1.12,0
-184.26,-2553.7,-836.96,643.53,0,0,2397,0,0,0,0,0,0,0,3.7997e-21,0.050976,0,-328.76,-4.3062e-07,0,1,1,1.1225,0,-1.1225,0
-183.62,-2548.8,-835.26,642.13,0,0,2392.5,0,0,0,0,0,0,0,3.7994e-21,0.050994,0,-328.53,-4.2843e-07,0,1,1,1.125,0,-1.125,0
-182.98,-2543.9,-833.56,640.74,0,0,2388,0,0,0,0,0,0,0,3.7991e-21,0.051012,0,-328.3,-4.2624e-07,0,1,1,1.1275,0,-1.1275,0
-182.34,-2539,-831.86,639.34,0,0,2383.5,0,0,0,0,0,0,0,3.7988e-21,0.05103,0,-328.06,-4.2405e-07,0,1,1,1.13,0,-1.13,0
-181.71,-2534.1,-830.16,637.95,0,0,2379,0,0,0,0,0,0,0,3.7986e-21,0.051048,0,-327.83,-4.2186e-07,0,1,1,1.1325,0,-1.1325,0
-181.07,-2529.2,-828.46,636.55,0,0,2374.5,0,0,0,0,0,0,0,3.7983e-21,0.051066,0,-327.6,-4.1967e-07,0,1,1,1.135,0,-1.135,0
-180.43,-2524.3,-826.76,635.16,0,0,2370.1,0,0,0,0,0,0,0,3.798e-21,0.051084,0,-327.36,-4.1748e-07,0,1,1,1.1375,0,-1.1375,0
-179.79,-2519.4,-825.05,633.76,0,0,2365.6,0,0,0,0,0,0,0,3.7977e-21,0.051102,0,-327.13,-4.153e-07,0,1,1,1.14,0,-1.14,0
-179.16,-2514.5,-823.35,632.37,0,0,2361.1,0,0,0,0,0,0,0,3.7975e-21,0.05112,0,-326.9,-4.1311e-07,0,1,1,1.1425,0,-1.1425,0
-178.52,-2509.5,-821.65,630.97,0,0,2356.6,0,0,0,0,0,0,0,3.7972e-21,0.051138,0,-326.67,-4.1092e-07,0,1,1,1.145,0,-1.145,0
-177.88,-2504.6,-819.95,629.58,0,0,2352.1,0,0,0,0,0,0,0,3.7969e-21,0.051156,0,-326.43,-4.0873e-07,0,1,1,1.1475,0,-1.1475,0
-177.25,-2499.7,-818.25,628.18,0,0,2347.6,0,0,0,0,0,0,0,3.7967e-21,0.051174,0,-326.2,-4.0654e-07,0,1,1,1.15,0,-1.15,0
-176.61,-2494.8,-816.55,626.78,0,0,2343.1,0,0,0,0,0,0,0,3.7964e-21,0.051192,0,-325.97,-4.0435e-07,0,1,1,1.1525,0,-1.1525,0
-175.97,-2489.9,-814.84,625.39,0,0,2338.6,0,0,0,0,0,0,0,3.7961e-21,0.051209,0,-325.74,-4.0216e-07,0,1,1,1.155,0,-1.155,0
-175.33,-2485,-813.14,623.99,0,0,2334.1,0,0,0,0,0,0,0,3.7958e-21,0.051227,0,-325.5,-3.9998e-07,0,1,1,1.1575,0,-1.1575,0
-174.7,-2480.1,-811.44,622.6,0,0,2329.6,0,0,0,0,0,0,0,3.7956e-21,0.051245,0,-325.27,-3.9779e-07,0,1,1,1.16,0,-1.16,0
-174.06,-2475.2,-809.74,621.2,0,0,2325.1,0,0,0,0,0,0,0,3.7953e-21,0.051263,0,-325.04,-3.956e-07,0,1,1,1.1625,0,-1.1625,0
-173.42,-2470.3,-808.04,619.81,0,0,2320.6,0,0,0,0,0,0,0,3.795e-21,0.051281,0,-324.8,-3.9341e-07,0,1,1,1.165,0,-1.165,0
-172.78,-2465.4,-806.34,618.41,0,0,2316.1,0,0,0,0,0,0,0,3.7947e-21,0.051299,0,-324.57,-3.9122e-07,0,1,1,1.1675,0,-1.1675,0
-172.15,-2460.5,-804.64,617.02,0,0,2311.6,0,0,0,0,0,0,0,3.7945e-21,0.051317,0,-324.34,-3.8903e-07,0,1,1,1.17,0,-1.17,0
-171.51,-2455.6,-802.93,615.62,0,0,2307.1,0,0,0,0,0,0,0,3.7942e-21,0.051335,0,-324.11,-3.8684e-07,0,1,1,1.1725,0,-1.1725,0
-170.87,-2450.7,-801.23,614.23,0,0,2302.6,0,0,0,0,0,0,0,3.7939e-21,0.051353,0,-323.87,-3.8466e-07,0,1,1,1.175,0,-1.175,0
-170.24,-2445.8,-799.53,612.83,0,0,2298.1,0,0,0,0,0,0,0,3.7936e-21,0.051371,0,-323.64,-3.8247e-07,0,1,1,1.1775,0,-1.1775,0
-169.6,-2440.9,-797.83,611.44,0,0,2293.6,0,0,0,0,0,0,0,3.7934e-21,0.051389,0,-323.41,-3.8028e-07,0,1,1,1.18,0,-1.18,0
-168.96,-2436,-796.13,610.04,0,0,2289.1,0,0,0,0,0,0,0,3.7931e-21,0.051407,0,-323.18,-3.7809e-07,0,1,1,1.1825,0,-1.1825,0
-168.32,-2431.1,-794.43,608.65,0,0,2284.6,0,0,0,0,0,0,0,3.7928e-21,0.051425,0,-322.94,-3.759e-07,0,1,1,1.185,0,-1.185,0
-167.69,-2426.2,-792.72,607.25,0,0,2280.1,0,0,0,0,0,0,0,3.7926e-21,0.051443,0,-322.71,-3.7371e-07,0,1,1,1.1875,0,-1.1875,0
-167.05,-2421.3,-791.02,605.86,0,0,2275.6,0,0,0,0,0,0,0,3.7923e-21,0.051461,0,-322.48,-3.7152e-07,0,1,1,1.19,0,-1.19,0
-166.41,-2416.4,-789.32,604.46,0,0,2271.1,0,0,0,0,0,0,0,3.792e-21,0.051479,0,-322.24,-3.6933e-07,0,1,1,1.1925,0,-1.1925,0
-165.77,-2411.5,-787.62,603.06,0,0,2266.6,0,0,0,0,0,0,0,3.7917e-21,0.051497,0,-322.01,-3.6715e-07,0,1,1,1.195,0,-1.195,0
-165.14,-2406.6,-785.92,601.67,0,0,2262.1,0,0,0,0,0,0,0,3.7915e-21,0.051515,0,-321.78,-3.6496e-07,0,1,1,1.1975,0,-1.1975,0
-164.5,-2401.7,-784.22,600.27,0,0,2257.6,0,0,0,0,0,0,0,3.7912e-21,0.051533,0,-321.55,-3.6277e-07,0,1,1,1.2,0,-1.2,0
-163.86,-2396.8,-782.52,598.88,0,0,2253.1,0,0,0,0,0,0,0,3.7909e-21,0.05155,0,-321.31,-3.6058e-07,0,1,1,1.2025,0,-1.2025,0
-163.23,-2391.9,-780.81,597.48,0,0,2248.6,0,0,0,0,0,0,0,3.7906e-21,0.051568,0,-321.08,-3.5839e-07,0,1,1,1.205,0,-1.205,0
-162.59,-2387,-779.11,596.09,0,0,2244.1,0,0,0,0,0,0,0,3.7904e-21,0.051586,0,-320.85,-3.562e-07,0,1,1,1.2075,0,-1.2075,0
-161.95,-2382.1,-777.41,594.69,0,0,2239.6,0,0,0,0,0,0,0,3.7901e-21,0.051604,0,-320.62,-3.5401e-07,0,1,1,1.21,0,-1.21,0
-161.31,-2377.2,-775.71,593.3,0,0,2235.1,0,0,0,0,0,0,0,3.7898e-21,0.051622,0,-320.38,-3.5183e-07,0,1,1,1.2125,0,-1.2125,0
-160.68,-2372.3,-774.01,591.9,0,0,2230.6,0,0,0,0,0,0,0,3.7895e-21,0.05164,0,-320.15,-3.4964e-07,0,1,1,1.215,0,-1.215,0
-160.04,-2367.4,-772.31,590.51,0,0,2226.1,0,0,0,0,0,0,0,3.7893e-21,0.051658,0,-319.92,-3.4745e-07,0,1,1,1.2175,0,-1.2175,0
-159.4,-2362.5,-770.6,589.11,0,0,2221.6,0,0,0,0,0,0,0,3.789e-21,0.051676,0,-319.68,-3.4526e-07,0,1,1,1.22,0,-1.22,0
-158.76,-2357.6,-768.9,587.72,0,0,2217.1,0,0,0,0,0,0,0,3.7887e-21,0.051694,0,-319.45,-3.4307e-07,0,1,1,1.2225,0,-1.2225,0
-158.13,-2352.7,-767.2,586.32,0,0,2212.6,0,0,0,0,0,0,0,3.7885e-21,0.051712,0,-319.22,-3.4088e-07,0,1,1,1.225,0,-1.225,0
-157.49,-2347.8,-765.5,584.93,0,0,2208.1,0,0,0,0,0,0,0,3.7882e-21,0.05173,0,-318.99,-3.3869e-07,0,1,1,1.2275,0,-1.2275,0
-156.85,-2342.9,-763.8,583.53,0,0,2203.6,0,0,0,0,0,0,0,3.7879e-21,0.051748,0,-318.75,-3.3651e-07,0,1,1,1.23,0,-1.23,0
-156.21,-2338,-762.1,582.14,0,0,2199.1,0,0,0,0,0,0,0,3.7876e-21,0.051766,0,-318.52,-3.3432e-07,0,1,1,1.2325,0,-1.2325,0
-155.58,-2333.1,-760.4,580.74,0,0,2194.6,0,0,0,0,0,0,0,3.7874e-21,0.051784,0,-318.29,-3.3213e-07,0,1,1,1.235,0,-1.235,0
-154.94,-2328.2,-758.69,579.35,0,0,2190.1,0,0,0,0,0,0,0,3.7871e-21,0.051802,0,-318.06,-3.2994e-07,0,1,1,1.2375,0,-1.2375,0
-154.3,-2323.3,-756.99,577.95,0,0,2185.6,0,0,0,0,0,0,0,3.7868e-21,0.05182,0,-317.82,-3.2775e-07,0,1,1,1.24,0,-1.24,0
-153.67,-2318.4,-755.29,576.55,0,0,2181.1,0,0,0,0,0,0,0,3.7865e-21,0.051838,0,-317.59,-3.2556e-07,0,1,1,1.2425,0,-1.2425,0
-153.03,-2313.5,-753.59,575.16,0,0,2176.6,0,0,0,0,0,0,0,3.7863e-21,0.051856,0,-317.36,-3.2337e-07,0,1,1,1.245,0,-1.245,0
-152.39,-2308.6,-751.89,573.76,0,0,2172.1,0,0,0,0,0,0,0,3.786e-21,0.051874,0,-317.12,-3.2119e-07,0,1,1,1.2475,0,-1.2475,0
-151.75,-2303.7,-750.19,572.37,0,0,2167.6,0,0,0,0,0,0,0,3.7857e-21,0.051891,0,-316.89,-3.19e-07,0,1,1,1.25,0,-1.25,0
-151.12,-2298.8,-748.48,570.97,0,0,2163.2,0,0,0,0,0,0,0,3.7854e-21,0.051909,0,-316.66,-3.1681e-07,0,1,1,1.2525,0,-1.2525,0
-150.48,-2293.9,-746.78,569.58,0,0,2158.7,0,0,0,0,0,0,0,3.7852e-21,0.051927,0,-316.43,-3.1462e-07,0,1,1,1.255,0,-1.255,0
-149.84,-2289,-745.08,568.18,0,0,2154.2,0,0,0,0,0,0,0,3.7849e-21,0.051945,0,-316.19,-3.1243e-07,0,1,1,1.2575,0,-1.2575,0
-149.2,-2284.1,-743.38,566.79,0,0,2149.7,0,0,0,0,0,0,0,3.7846e-21,0.051963,0,-315.96,-3.1024e-07,0,1,1,1.26,0,-1.26,0
-148.57,-2279.2,-741.68,565.39,0,0,2145.2,0,0,0,0,0,0,0,3.7844e-21,0.051981,0,-315.73,-3.0805e-07,0,1,1,1.2625,0,-1.2625,0
-147.93,-2274.3,-739.98,564,0,0,2140.7,0,0,0,0,0,0,0,3.7841e-21,0.051999,0,-315.5,-3.0587e-07,0,1,1,1.265,0,-1.265,0
-147.29,-2269.4,-738.28,562.6,0,0,2136.2,0,0,0,0,0,0,0,3.7838e-21,0.052017,0,-315.26,-3.0368e-07,0,1,1,1.2675,0,-1.2675,0
-146.66,-2264.5,-736.57,561.21,0,0,2131.7,0,0,0,0,0,0,0,3.7835e-21,0.052035,0,-315.03,-3.0149e-07,0,1,1,1.27,0,-1.27,0
-146.02,-2259.6,-734.87,559.81,0,0,2127.2,0,0,0,0,0,0,0,3.7833e-21,0.052053,0,-314.8,-2.993e-07,0,1,1,1.2725,0,-1.2725,0
-145.38,-2254.7,-733.17,558.42,0,0,2122.7,0,0,0,0,0,0,0,3.783e-21,0.052071,0,-314.56,-2.9711e-07,0,1,1,1.275,0,-1.275,0
-144.74,-2249.8,-731.47,557.02,0,0,2118.2,0,0,0,0,0,0,0,3.7827e-21,0.052089,0,-314.33,-2.9492e-07,0,1,1,1.2775,0,-1.2775,0
-144.11,-2244.9,-729.77,555.63,0,0,2113.7,0,0,0,0,0,0,0,3.7824e-21,0.052107,0,-314.1,-2.9273e-07,0,1,1,1.28,0,-1.28,0
-143.47,-2240,-728.07,554.23,0,0,2109.2,0,0,0,0,0,0,0,3.7822e-21,0.052125,0,-313.87,-2.9054e-07,0,1,1,1.2825,0,-1.2825,0
-142.83,-2235.1,-726.36,552.83,0,0,2104.7,0,0,0,0,0,0,0,3.7819e-21,0.052143,0,-313.63,-2.8836e-07,0,1,1,1.285,0,-1.285,0
-142.19,-2230.2,-724.66,551.44,0,0,2100.2,0,0,0,0,0,0,0,3.7816e-21,0.052161,0,-313.4,-2.8617e-07,0,1,1,1.2875,0,-1.2875,0
-141.56,-2225.3,-722.96,550.04,0,0,2095.7,0,0,0,0,0,0,0,3.7813e-21,0.052179,0,-313.17,-2.8398e-07,0,1,1,1.29,0,-1.29,0
-140.92,-2220.4,-721.26,548.65,0,0,2091.2,0,0,0,0,0,0,0,3.7811e-21,0.052197,0,-312.94,-2.8179e-07,0,1,1,1.2925,0,-1.2925,0
-140.28,-2215.5,-719.56,547.25,0,0,2086.7,0,0,0,0,0,0,0,3.7808e-21,0.052215,0,-312.7,-2.796e-07,0,1,1,1.295,0,-1.295,0
-139.65,-2210.6,-717.86,545.86,0,0,2082.2,0,0,0,0,0,0,0,3.7805e-21,0.052232,0,-312.47,-2.7741e-07,0,1,1,1.2975,0,-1.2975,0
-139.01,-2205.7,-716.16,544.46,0,0,2077.7,0,0,0,0,0,0,0,3.7803e-21,0.05225,0,-312.24,-2.7522e-07,0,1,1,1.3,0,-1.3,0
-138.37,-2200.8,-714.45,543.07,0,0,2073.2,0,0,0,0,0,0,0,3.78e-21,0.052268,0,-312,-2.7304e-07,0,1,1,1.3025,0,-1.3025,0
-137.73,-2195.9,-712.75,541.67,0,0,2068.7,0,0,0,0,0,0,0,3.7797e-21,0.052286,0,-311.77,-2.7085e-07,0,1,1,1.305,0,-1.305,0
-137.1,-2191,-711.05,540.28,0,0,2064.2,0,0,0,0,0,0,0,3.7794e-21,0.052304,0,-311.54,-2.6866e-07,0,1,1,1.3075,0,-1.3075,0
-136.46,-2186.1,-709.35,538.88,0,0,2059.7,0,0,0,0,0,0,0,3.7792e-21,0.052322,0,-311.31,-2.6647e-07,0,1,1,1.31,0,-1.31,0
-135.82,-2181.2,-707.65,537.49,0,0,2055.2,0,0,0,0,0,0,0,3.7789e-21,0.05234,0,-311.07,-2.6428e-07,0,1,1,1.3125,0,-1.3125,0
-135.18,-2176.3,-705.95,536.09,0,0,2050.7,0,0,0,0,0,0,0,3.7786e-21,0.052358,0,-310.84,-2.6209e-07,0,1,1,1.315,0,-1.315,0
-134.55,-2171.4,-704.24,534.7,0,0,2046.2,0,0,0,0,0,0,0,3.7783e-21,0.052376,0,-310.61,-2.599e-07,0,1,1,1.3175,0,-1.3175,0
-133.91,-2166.5,-702.54,533.3,0,0,2041.7,0,0,0,0,0,0,0,3.7781e-21,0.052394,0,-310.38,-2.5772e-07,0,1,1,1.32,0,-1.32,0
-133.27,-2161.5,-700.84,531.91,0,0,2037.2,0,0,0,0,0,0,0,3.7778e-21,0.052412,0,-310.14,-2.5553e-07,0,1,1,1.3225,0,-1.3225,0
-132.64,-2156.6,-699.14,530.51,0,0,2032.7,0,0,0,0,0,0,0,3.7775e-21,0.05243,0,-309.91,-2.5334e-07,0,1,1,1.325,0,-1.325,0
-132,-2151.7,-697.44,529.11,0,0,2028.2,0,0,0,0,0,0,0,3.7772e-21,0.052448,0,-309.68,-2.5115e-07,0,1,1,1.3275,0,-1.3275,0
-131.36,-2146.8,-695.74,527.72,0,0,2023.7,0,0,0,0,0,0,0,3.777e-21,0.052466,0,-309.44,-2.4896e-07,0,1,1,1.33,0,-1.33,0
-130.72,-2141.9,-694.04,526.32,0,0,2019.2,0,0,0,0,0,0,0,3.7767e-21,0.052484,0,-309.21,-2.4677e-07,0,1,1,1.3325,0,-1.3325,0
-130.09,-2137,-692.33,524.93,0,0,2014.7,0,0,0,0,0,0,0,3.7764e-21,0.052502,0,-308.98,-2.4458e-07,0,1,1,1.335,0,-1.335,0
-129.45,-2132.1,-690.63,523.53,0,0,2010.2,0,0,0,0,0,0,0,3.7762e-21,0.05252,0,-308.75,-2.424e-07,0,1,1,1.3375,0,-1.3375,0
-128.81,-2127.2,-688.93,522.14,0,0,2005.7,0,0,0,0,0,0,0,3.7759e-21,0.052538,0,-308.51,-2.4021e-07,0,1,1,1.34,0,-1.34,0
-128.17,-2122.3,-687.23,520.74,0,0,2001.2,0,0,0,0,0,0,0,3.7756e-21,0.052556,0,-308.28,-2.3802e-07,0,1,1,1.3425,0,-1.3425,0
-127.54,-2117.4,-685.53,519.35,0,0,1996.7,0,0,0,0,0,0,0,3.7753e-21,0.052573,0,-308.05,-2.3583e-07,0,1,1,1.345,0,-1.345,0
-126.9,-2112.5,-683.83,517.95,0,0,1992.2,0,0,0,0,0,0,0,3.7751e-21,0.052591,0,-307.82,-2.3364e-07,0,1,1,1.3475,0,-1.3475,0
-126.26,-2107.6,-682.12,516.56,0,0,1987.7,0,0,0,0,0,0,0,3.7748e-21,0.052609,0,-307.58,-2.3145e-07,0,1,1,1.35,0,-1.35,0
-125.63,-2102.7,-680.42,515.16,0,0,1983.2,0,0,0,0,0,0,0,3.7745e-21,0.052627,0,-307.35,-2.2926e-07,0,1,1,1.3525,0,-1.3525,0
-124.99,-2097.8,-678.72,513.77,0,0,1978.7,0,0,0,0,0,0,0,3.7742e-21,0.052645,0,-307.12,-2.2708e-07,0,1,1,1.355,0,-1.355,0
-124.35,-2092.9,-677.02,512.37,0,0,1974.2,0,0,0,0,0,0,0,3.774e-21,0.052663,0,-306.88,-2.2489e-07,0,1,1,1.3575,0,-1.3575,0
-123.71,-2088,-675.32,510.98,0,0,1969.7,0,0,0,0,0,0,0,3.7737e-21,0.052681,0,-306.65,-2.227e-07,0,1,1,1.36,0,-1.36,0
-123.08,-2083.1,-673.62,509.58,0,0,1965.2,0,0,0,0,0,0,0,3.7734e-21,0.052699,0,-306.42,-2.2051e-07,0,1,1,1.3625,0,-1.3625,0
-122.44,-2078.2,-671.92,508.19,0,0,1960.7,0,0,0,0,0,0,0,3.7731e-21,0.052717,0,-306.19,-2.1832e-07,0,1,1,1.365,0,-1.365,0
-121.8,-2073.3,-670.21,506.79,0,0,1956.3,0,0,0,0,0,0,0,3.7729e-21,0.052735,0,-305.95,-2.1613e-07,0,1,1,1.3675,0,-1.3675,0
-121.16,-2068.4,-668.51,505.39,0,0,1951.8,0,0,0,0,0,0,0,3.7726e-21,0.052753,0,-305.72,-2.1394e-07,0,1,1,1.37,0,-1.37,0
-120.53,-2063.5,-666.81,504,0,0,1947.3,0,0,0,0,0,0,0,3.7723e-21,0.052771,0,-305.49,-2.1175e-07,0,1,1,1.3725,0,-1.3725,0
-119.89,-2058.6,-665.11,502.6,0,0,1942.8,0,0,0,0,0,0,0,3.7721e-21,0.052789,0,-305.26,-2.0957e-07,0,1,1,1.375,0,-1.375,0
-119.25,-2053.7,-663.41,501.21,0,0,1938.3,0,0,0,0,0,0,0,3.7718e-21,0.052807,0,-305.02,-2.0738e-07,0,1,1,1.3775,0,-1.3775,0
-118.62,-2048.8,-661.71,499.81,0,0,1933.8,0,0,0,0,0,0,0,3.7715e-21,0.052825,0,-304.79,-2.0519e-07,0,1,1,1.38,0,-1.38,0
-117.98,-2043.9,-660,498.42,0,0,1929.3,0,0,0,0,0,0,0,3.7712e-21,0.052843,0,-304.56,-2.03e-07,0,1,1,1.3825,0,-1.3825,0
-117.34,-2039,-658.3,497.02,0,0,1924.8,0,0,0,0,0,0,0,3.771e-21,0.052861,0,-304.32,-2.0081e-07,0,1,1,1.385,0,-1.385,0
-116.7,-2034.1,-656.6,495.63,0,0,1920.3,0,0,0,0,0,0,0,3.7707e-21,0.052879,0,-304.09,-1.9862e-07,0,1,1,1.3875,0,-1.3875,0
-116.07,-2029.2,-654.9,494.23,0,0,1915.8,0,0,0,0,0,0,0,3.7704e-21,0.052897,0,-303.86,-1.9643e-07,0,1,1,1.39,0,-1.39,0
-115.43,-2024.3,-653.2,492.84,0,0,1911.3,0,0,0,0,0,0,0,3.7701e-21,0.052914,0,-303.63,-1.9425e-07,0,1,1,1.3925,0,-1.3925,0
-114.79,-2019.4,-651.5,491.44,0,0,1906.8,0,0,0,0,0,0,0,3.7699e-21,0.052932,0,-303.39,-1.9206e-07,0,1,1,1.395,0,-1.395,0
-114.15,-2014.5,-649.8,490.05,0,0,1902.3,0,0,0,0,0,0,0,3.7696e-21,0.05295,0,-303.16,-1.8987e-07,0,1,1,1.3975,0,-1.3975,0
-113.52,-2009.6,-648.09,488.65,0,0,1897.8,0,0,0,0,0,0,0,3.7693e-21,0.052968,0,-302.93,-1.8768e-07,0,1,1,1.4,0,-1.4,0
-112.88,-2004.7,-646.39,487.26,0,0,1893.3,0,0,0,0,0,0,0,3.769e-21,0.052986,0,-302.7,-1.8549e-07,0,1,1,1.4025,0,-1.4025,0
-112.24,-1999.8,-644.69,485.86,0,0,1888.8,0,0,0,0,0,0,0,3.7688e-21,0.053004,0,-302.46,-1.833e-07,0,1,1,1.405,0,-1.405,0
-111.61,-1994.9,-642.99,484.47,0,0,1884.3,0,0,0,0,0,0,0,3.7685e-21,0.053022,0,-302.23,-1.8111e-07,0,1,1,1.4075,0,-1.4075,0
-110.97,-1990,-641.29,483.07,0,0,1879.8,0,0,0,0,0,0,0,3.7682e-21,0.05304,0,-302,-1.7893e-07,0,1,1,1.41,0,-1.41,0
-110.33,-1985.1,-639.59,481.68,0,0,1875.3,0,0,0,0,0,0,0,3.768e-21,0.053058,0,-301.76,-1.7674e-07,0,1,1,1.4125,0,-1.4125,0
-109.69,-1980.2,-637.88,480.28,0,0,1870.8,0,0,0,0,0,0,0,3.7677e-21,0.053076,0,-301.53,-1.7455e-07,0,1,1,1.415,0,-1.415,0
-109.06,-1975.3,-636.18,478.88,0,0,1866.3,0,0,0,0,0,0,0,3.7674e-21,0.053094,0,-301.3,-1.7236e-07,0,1,1,1.4175,0,-1.4175,0
-108.42,-1970.4,-634.48,477.49,0,0,1861.8,0,0,0,0,0,0,0,3.7671e-21,0.053112,0,-301.07,-1.7017e-07,0,1,1,1.42,0,-1.42,0
-107.78,-1965.5,-632.78,476.09,0,0,1857.3,0,0,0,0,0,0,0,3.7669e-21,0.05313,0,-300.83,-1.6798e-07,0,1,1,1.4225,0,-1.4225,0
-107.14,-1960.6,-631.08,474.7,0,0,1852.8,0,0,0,0,0,0,0,3.7666e-21,0.053148,0,-300.6,-1.6579e-07,0,1,1,1.425,0,-1.425,0
-106.51,-1955.7,-629.38,473.3,0,0,1848.3,0,0,0,0,0,0,0,3.7663e-21,0.053166,0,-300.37,-1.6361e-07,0,1,1,1.4275,0,-1.4275,0
-105.87,-1950.8,-627.68,471.91,0,0,1843.8,0,0,0,0,0,0,0,3.766e-21,0.053184,0,-300.14,-1.6142e-07,0,1,1,1.43,0,-1.43,0
-105.23,-1945.9,-625.97,470.51,0,0,1839.3,0,0,0,0,0,0,0,3.7658e-21,0.053202,0,-299.9,-1.5923e-07,0,1,1,1.4325,0,-1.4325,0
-104.59,-1941,-624.27,469.12,0,0,1834.8,0,0,0,0,0,0,0,3.7655e-21,0.05322,0,-299.67,-1.5704e-07,0,1,1,1.435,0,-1.435,0
-103.96,-1936.1,-622.57,467.72,0,0,1830.3,0,0,0,0,0,0,0,3.7652e-21,0.053238,0,-299.44,-1.5485e-07,0,1,1,1.4375,0,-1.4375,0
-103.32,-1931.2,-620.87,466.33,0,0,1825.8,0,0,0,0,0,0,0,3.7649e-21,0.053255,0,-299.2,-1.5266e-07,0,1,1,1.44,0,-1.44,0
-102.68,-1926.3,-619.17,464.93,0,0,1821.3,0,0,0,0,0,0,0,3.7647e-21,0.053273,0,-298.97,-1.5047e-07,0,1,1,1.4425,0,-1.4425,0
-102.05,-1921.4,-617.47,463.54,0,0,1816.8,0,0,0,0,0,0,0,3.7644e-21,0.053291,0,-298.74,-1.4829e-07,0,1,1,1.445,0,-1.445,0
-101.41,-1916.5,-615.76,462.14,0,0,1812.3,0,0,0,0,0,0,0,3.7641e-21,0.053309,0,-298.51,-1.461e-07,0,1,1,1.4475,0,-1.4475,0
-100.77,-1911.6,-614.06,460.75,0,0,1807.8,0,0,0,0,0,0,0,3.7639e-21,0.053327,0,-298.27,-1.4391e-07,0,1,1,1.45,0,-1.45,0
-100.13,-1906.7,-612.36,459.35,0,0,1803.3,0,0,0,0,0,0,0,3.7636e-21,0.053345,0,-298.04,-1.4172e-07,0,1,1,1.4525,0,-1.4525,0
-99.497,-1901.8,-610.66,457.96,0,0,1798.8,0,0,0,0,0,0,0,3.7633e-21,0.053363,0,-297.81,-1.3953e-07,0,1,1,1.455,0,-1.455,0
-98.859,-1896.9,-608.96,456.56,0,0,1794.3,0,0,0,0,0,0,0,3.763e-21,0.053381,0,-297.58,-1.3734e-07,0,1,1,1.4575,0,-1.4575,0
-98.222,-1892,-607.26,455.16,0,0,1789.8,0,0,0,0,0,0,0,3.7628e-21,0.053399,0,-297.34,-1.3515e-07,0,1,1,1.46,0,-1.46,0
-97.585,-1887.1,-605.56,453.77,0,0,1785.3,0,0,0,0,0,0,0,3.7625e-21,0.053417,0,-297.11,-1.3296e-07,0,1,1,1.4625,0,-1.4625,0
-96.948,-1882.2,-603.85,452.37,0,0,1780.8,0,0,0,0,0,0,0,6.9262e-15,0.053435,0,-296.88,-1.3078e-07,0,1,1,1.465,0,-1.465,0
-96.31,-1877.3,-602.15,450.98,0,0,1776.3,0,0,0,0,0,0,0,5.8554e-15,0.053453,0,-296.64,-1.2859e-07,0,1,1,1.4675,0,-1.4675,0
-95.673,-1872.4,-600.45,449.58,0,0,1771.8,0,0,0,0,0,0,0,4.8759e-15,0.053471,0,-296.41,-1.264e-07,0,1,1,1.47,0,-1.47,0
-95.036,-1867.5,-598.75,448.19,0,0,1767.3,0,0,0,0,0,0,0,3.9874e-15,0.053489,0,-296.18,-1.2421e-07,0,1,1,1.4725,0,-1.4725,0
-94.398,-1862.6,-597.05,446.79,0,0,1762.8,0,0,0,0,0,0,0,3.1896e-15,0.053507,0,-295.95,-1.2202e-07,0,1,1,1.475,0,-1.475,0
-93.761,-1857.7,-595.35,445.4,0,0,1758.3,0,0,0,0,0,0,0,2.4819e-15,0.053525,0,-295.71,-1.1983e-07,0,1,1,1.4775,0,-1.4775,0
-93.124,-1852.8,-593.64,444,0,0,1753.8,0,0,0,0,0,0,0,1.8637e-15,0.053543,0,-295.48,-1.1764e-07,0,1,1,1.48,0,-1.48,0
-92.487,-1847.9,-591.94,442.61,0,0,1749.4,0,0,0,0,0,0,0,1.3347e-15,0.053561,0,-295.25,-1.1546e-07,0,1,1,1.4825,0,-1.4825,0
-91.849,-1843,-590.24,441.21,0,0,1744.9,0,0,0,0,0,0,0,8.9462e-16,0.053578,0,-295.02,-1.1327e-07,0,1,1,1.485,0,-1.485,0
-91.212,-1838.1,-588.54,439.82,0,0,1740.4,0,0,0,0,0,0,0,5.4264e-16,0.053596,0,-294.78,-1.1108e-07,0,1,1,1.4875,0,-1.4875,0
-90.575,-1833.2,-586.84,438.42,0,0,1735.9,0,0,0,0,0,0,0,2.7858e-16,0.053614,0,-294.55,-1.0889e-07,0,1,1,1.49,0,-1.49,0
-89.937,-1828.3,-585.14,437.03,0,0,1731.4,0,0,0,0,0,0,0,1.0199e-16,0.053632,0,-294.32,-1.067e-07,0,1,1,1.4925,0,-1.4925,0
-89.3,-1823.4,-583.44,435.63,0,0,1726.9,0,0,0,0,0,0,0,1.2414e-17,0.05365,0,-294.08,-1.0451e-07,0,1,1,1.495,0,-1.495,0
-88.663,-1818.5,-581.73,434.24,0,0,1722.4,0,0,0,0,0,0,0,9.1803e-18,0.053668,0,-293.85,-1.0232e-07,0,1,1,1.4975,0,-1.4975,0
-88.026,-1813.5,-580.03,432.84,0,0,1717.9,0,0,0,0,0,0,0,9.2297e-17,0.053686,0,-293.62,-1.0014e-07,0,1,1,1.5,0,-1.5,0
-87.388,-1808.6,-578.33,431.44,0,0,1713.4,0,0,0,0,0,0,0,2.6086e-16,0.053704,0,-293.39,-9.7947e-08,0,1,1,1.5025,0,-1.5025,0
-86.751,-1803.7,-576.63,430.05,0,0,1708.9,0,0,0,0,0,0,0,5.1441e-16,0.053722,0,-293.15,-9.5759e-08,0,1,1,1.505,0,-1.505,0
-86.114,-1798.8,-574.93,428.65,0,0,1704.4,0,0,0,0,0,0,0,8.5296e-16,0.05374,0,-292.92,-9.357e-08,0,1,1,1.5075,0,-1.5075,0
-85.476,-1793.9,-573.23,427.26,0,0,1699.9,0,0,0,0,0,0,0,1.2756e-15,0.053758,0,-292.69,-9.1381e-08,0,1,1,1.51,0,-1.51,0
-84.839,-1789,-571.52,425.86,0,0,1695.4,0,0,0,0,0,0,0,1.7821e-15,0.053776,0,-292.46,-8.9193e-08,0,1,1,1.5125,0,-1.5125,0
-84.202,-1784.1,-569.82,424.47,0,0,1690.9,0,0,0,0,0,0,0,2.3721e-15,0.053794,0,-292.22,-8.7004e-08,0,1,1,1.515,0,-1.515,0
-83.565,-1779.2,-568.12,423.07,0,0,1686.4,0,0,0,0,0,0,0,3.045e-15,0.053812,0,-291.99,-8.4816e-08,0,1,1,1.5175,0,-1.5175,0
-82.927,-1774.3,-566.42,421.68,0,0,1681.9,0,0,0,0,0,0,0,3.8002e-15,0.05383,0,-291.76,-8.2627e-08,0,1,1,1.52,0,-1.52,0
-82.29,-1769.4,-564.72,420.28,0,0,1677.4,0,0,0,0,0,0,0,4.6377e-15,0.053848,0,-291.52,-8.0438e-08,0,1,1,1.5225,0,-1.5225,0
-81.653,-1764.5,-563.02,418.89,0,0,1672.9,0,0,0,0,0,0,0,5.5567e-15,0.053866,0,-291.29,-7.825e-08,0,1,1,1.525,0,-1.525,0
-81.015,-1759.6,-561.32,417.49,0,0,1668.4,0,0,0,0,0,0,0,6.5568e-15,0.053884,0,-291.06,-7.6061e-08,0,1,1,1.5275,0,-1.5275,0
-80.378,-1754.7,-559.61,416.1,0,0,1663.9,0,0,0,0,0,0,0,3.7551e-21,0.053902,0,-290.83,-7.3873e-08,0,1,1,1.53,0,-1.53,0
-79.741,-1749.8,-557.91,414.7,0,0,1659.4,0,0,0,0,0,0,0,3.7548e-21,0.053919,0,-290.59,-7.1684e-08,0,1,1,1.5325,0,-1.5325,0
-79.104,-1744.9,-556.21,413.31,0,0,1654.9,0,0,0,0,0,0,0,3.7546e-21,0.053937,0,-290.36,-6.9495e-08,0,1,1,1.535,0,-1.535,0
-78.466,-1740,-554.51,411.91,0,0,1650.4,0,0,0,0,0,0,0,3.7543e-21,0.053955,0,-290.13,-6.7307e-08,0,1,1,1.5375,0,-1.5375,0
-77.829,-1735.1,-552.81,410.52,0,0,1645.9,0,0,0,0,0,0,0,3.754e-21,0.053973,0,-289.9,-6.5118e-08,0,1,1,1.54,0,-1.54,0
-77.192,-1730.2,-551.11,409.12,0,0,1641.4,0,0,0,0,0,0,0,3.7537e-21,0.053991,0,-289.66,-6.2929e-08,0,1,1,1.5425,0,-1.5425,0
-76.554,-1725.3,-549.4,407.72,0,0,1636.9,0,0,0,0,0,0,0,3.7535e-21,0.054009,0,-289.43,-6.0741e-08,0,1,1,1.545,0,-1.545,0
-75.917,-1720.4,-547.7,406.33,0,0,1632.4,0,0,0,0,0,0,0,3.7532e-21,0.054027,0,-289.2,-5.8552e-08,0,1,1,1.5475,0,-1.5475,0
-75.28,-1715.5,-546,404.93,0,0,1627.9,0,0,0,0,0,0,0,3.7529e-21,0.054045,0,-288.96,-5.6364e-08,0,1,1,1.55,0,-1.55,0
-74.643,-1710.6,-544.3,403.54,0,0,1623.4,0,0,0,0,0,0,0,3.7526e-21,0.054063,0,-288.73,-5.4175e-08,0,1,1,1.5525,0,-1.5525,0
-74.005,-1705.7,-542.6,402.14,0,0,1618.9,0,0,0,0,0,0,0,3.7524e-21,0.054081,0,-288.5,-5.1986e-08,0,1,1,1.555,0,-1.555,0
-73.368,-1700.8,-540.9,400.75,0,0,1614.4,0,0,0,0,0,0,0,3.7521e-21,0.054099,0,-288.27,-4.9798e-08,0,1,1,1.5575,0,-1.5575,0
-72.731,-1695.9,-539.2,399.35,0,0,1609.9,0,0,0,0,0,0,0,3.7518e-21,0.054117,0,-288.03,-4.7609e-08,0,1,1,1.56,0,-1.56,0
-72.093,-1691,-537.49,397.96,0,0,1605.4,0,0,0,0,0,0,0,3.7516e-21,0.054135,0,-287.8,-4.5421e-08,0,1,1,1.5625,0,-1.5625,0
-71.456,-1686.1,-535.79,396.56,0,0,1600.9,0,0,0,0,0,0,0,3.7513e-21,0.054153,0,-287.57,-4.3232e-08,0,1,1,1.565,0,-1.565,0
-70.819,-1681.2,-534.09,395.17,0,0,1596.4,0,0,0,0,0,0,0,3.751e-21,0.054171,0,-287.34,-4.1043e-08,0,1,1,1.5675,0,-1.5675,0
-70.182,-1676.3,-532.39,393.77,0,0,1591.9,0,0,0,0,0,0,0,3.7507e-21,0.054189,0,-287.1,-3.8855e-08,0,1,1,1.57,0,-1.57,0
-69.544,-1671.4,-530.69,392.38,0,0,1587.4,0,0,0,0,0,0,0,3.7505e-21,0.054207,0,-286.87,-3.6666e-08,0,1,1,1.5725,0,-1.5725,0
-68.907,-1666.5,-528.99,390.98,0,0,1582.9,0,0,0,0,0,0,0,3.7502e-21,0.054225,0,-286.64,-3.4477e-08,0,1,1,1.575,0,-1.575,0
-68.27,-1661.6,-527.28,389.59,0,0,1578.4,0,0,0,0,0,0,0,3.7499e-21,0.054243,0,-286.4,-3.2289e-08,0,1,1,1.5775,0,-1.5775,0
-67.632,-1656.7,-525.58,388.19,0,0,1573.9,0,0,0,0,0,0,0,3.7496e-21,0.05426,0,-286.17,-3.01e-08,0,1,1,1.58,0,-1.58,0
-66.995,-1651.8,-523.88,386.8,0,0,1569.4,0,0,0,0,0,0,0,3.7494e-21,0.054278,0,-285.94,-2.7912e-08,0,1,1,1.5825,0,-1.5825,0
-66.358,-1646.9,-522.18,385.4,0,0,1564.9,0,0,0,0,0,0,0,3.7491e-21,0.054296,0,-285.71,-2.5723e-08,0,1,1,1.585,0,-1.585,0
-65.721,-1642,-520.48,384,0,0,1560.4,0,0,0,0,0,0,0,3.7488e-21,0.054314,0,-285.47,-2.3534e-08,0,1,1,1.5875,0,-1.5875,0
-65.083,-1637.1,-518.78,382.61,0,0,1555.9,0,0,0,0,0,0,0,3.7485e-21,0.054332,0,-285.24,-2.1346e-08,0,1,1,1.59,0,-1.59,0
-64.446,-1632.2,-517.08,381.21,0,0,1551.4,0,0,0,0,0,0,0,3.7483e-21,0.05435,0,-285.01,-1.9157e-08,0,1,1,1.5925,0,-1.5925,0
-63.809,-1627.3,-515.37,379.82,0,0,1546.9,0,0,0,0,0,0,0,3.748e-21,0.054368,0,-284.78,-1.6969e-08,0,1,1,1.595,0,-1.595,0
-63.171,-1622.4,-513.67,378.42,0,0,1542.5,0,0,0,0,0,0,0,3.7477e-21,0.054386,0,-284.54,-1.478e-08,0,1,1,1.5975,0,-1.5975,0
-62.534,-1617.5,-511.97,377.03,0,0,1538,0,0,0,0,0,0,0,3.7475e-21,0.054404,0,-284.31,-1.2591e-08,0,1,1,1.6,0,-1.6,0
-61.897,-1612.6,-510.27,375.63,0,0,1533.5,0,0,0,0,0,0,0,3.7472e-21,0.054422,0,-284.08,-1.0403e-08,0,1,1,1.6025,0,-1.6025,0
-61.26,-1607.7,-508.57,374.24,0,0,1529,0,0,0,0,0,0,0,3.7469e-21,0.05444,0,-283.84,-8.2142e-09,0,1,1,1.605,0,-1.605,0
-60.622,-1602.8,-506.87,372.84,0,0,1524.5,0,0,0,0,0,0,0,3.7466e-21,0.054458,0,-283.61,-6.0256e-09,0,1,1,1.6075,0,-1.6075,0
-59.985,-1597.9,-505.16,371.45,0,0,1520,0,0,0,0,0,0,0,3.7464e-21,0.054476,0,-283.38,-3.837e-09,0,1,1,1.61,0,-1.61,0
-59.348,-1593,-503.46,370.05,0,0,1515.5,0,0,0,0,0,0,0,3.7461e-21,0.054494,0,-283.15,-1.6484e-09,0,1,1,1.6125,0,-1.6125,0
-58.71,-1588.1,-501.76,368.66,0,0,1511,0,0,0,0,0,0,0,3.7458e-21,0.054512,0,-282.91,5.4025e-10,0,1,1,1.615,0,-1.615,0
-58.073,-1583.2,-500.06,367.26,0,0,1506.5,0,0,0,0,0,0,0,3.7455e-21,0.05453,0,-282.68,2.7288e-09,0,1,1,1.6175,0,-1.6175,0
-57.436,-1578.3,-498.36,365.87,0,0,1502,0,0,0,0,0,0,0,3.7453e-21,0.054548,0,-282.45,4.9175e-09,0,1,1,1.62,0,-1.62,0
-56.799,-1573.4,-496.66,364.47,0,0,1497.5,0,0,0,0,0,0,0,3.745e-21,0.054566,0,-282.22,7.106e-09,0,1,1,1.6225,0,-1.6225,0
-56.161,-1568.5,-494.96,363.08,0,0,1493,0,0,0,0,0,0,0,3.7447e-21,0.054584,0,-281.98,9.2947e-09,0,1,1,1.625,0,-1.625,0
-55.524,-1563.6,-493.25,361.68,0,0,1488.5,0,0,0,0,0,0,0,3.7444e-21,0.054601,0,-281.75,1.1483e-08,0,1,1,1.6275,0,-1.6275,0
-54.887,-1558.7,-491.55,360.29,0,0,1484,0,0,0,0,0,0,0,3.7442e-21,0.054619,0,-281.52,1.3672e-08,0,1,1,1.63,0,-1.63,0
-54.249,-1553.8,-489.85,358.89,0,0,1479.5,0,0,0,0,0,0,0,3.7439e-21,0.054637,0,-281.28,1.5861e-08,0,1,1,1.6325,0,-1.6325,0
-53.612,-1548.9,-488.15,357.49,0,0,1475,0,0,0,0,0,0,0,3.7436e-21,0.054655,0,-281.05,1.8049e-08,0,1,1,1.635,0,-1.635,0
-52.975,-1544,-486.45,356.1,0,0,1470.5,0,0,0,0,0,0,0,3.7434e-21,0.054673,0,-280.82,2.0238e-08,0,1,1,1.6375,0,-1.6375,0
-52.338,-1539.1,-484.75,354.7,0,0,1466,0,0,0,0,0,0,0,3.7431e-21,0.054691,0,-280.59,2.2426e-08,0,1,1,1.64,0,-1.64,0
-51.7,-1534.2,-483.04,353.31,0,0,1461.5,0,0,0,0,0,0,0,3.7428e-21,0.054709,0,-280.35,2.4615e-08,0,1,1,1.6425,0,-1.6425,0
-51.063,-1529.3,-481.34,351.91,0,0,1457,0,0,0,0,0,0,0,3.7425e-21,0.054727,0,-280.12,2.6804e-08,0,1,1,1.645,0,-1.645,0
-50.426,-1524.4,-479.64,350.52,0,0,1452.5,0,0,0,0,0,0,0,3.7423e-21,0.054745,0,-279.89,2.8992e-08,0,1,1,1.6475,0,-1.6475,0
-49.789,-1519.5,-477.94,349.12,0,0,1448,0,0,0,0,0,0,0,3.742e-21,0.054763,0,-279.66,3.1181e-08,0,1,1,1.65,0,-1.65,0
-49.151,-1514.6,-476.24,347.73,0,0,1443.5,0,0,0,0,0,0,0,3.7417e-21,0.054781,0,-279.42,3.3369e-08,0,1,1,1.6525,0,-1.6525,0
-48.514,-1509.7,-474.54,346.33,0,0,1439,0,0,0,0,0,0,0,3.7414e-21,0.054799,0,-279.19,3.5558e-08,0,1,1,1.655,0,-1.655,0
-47.877,-1504.8,-472.84,344.94,0,0,1434.5,0,0,0,0,0,0,0,3.7412e-21,0.054817,0,-278.96,3.7747e-08,0,1,1,1.6575,0,-1.6575,0
-47.239,-1499.9,-471.13,343.54,0,0,1430,0,0,0,0,0,0,0,3.7409e-21,0.054835,0,-278.72,3.9935e-08,0,1,1,1.66,0,-1.66,0
-46.602,-1495,-469.43,342.15,0,0,1425.5,0,0,0,0,0,0,0,3.7406e-21,0.054853,0,-278.49,4.2124e-08,0,1,1,1.6625,0,-1.6625,0
-45.965,-1490.1,-467.73,340.75,0,0,1421,0,0,0,0,0,0,0,3.7403e-21,0.054871,0,-278.26,4.4312e-08,0,1,1,1.665,0,-1.665,0
-45.328,-1485.2,-466.03,339.36,0,0,1416.5,0,0,0,0,0,0,0,3.7401e-21,0.054889,0,-278.03,4.6501e-08,0,1,1,1.6675,0,-1.6675,0
-44.69,-1480.3,-464.33,337.96,0,0,1412,0,0,0,0,0,0,0,3.7398e-21,0.054907,0,-277.79,4.869e-08,0,1,1,1.67,0,-1.67,0
-44.053,-1475.4,-462.63,336.57,0,0,1407.5,0,0,0,0,0,0,0,3.7395e-21,0.054925,0,-277.56,5.0878e-08,0,1,1,1.6725,0,-1.6725,0
-43.416,-1470.5,-460.92,335.17,0,0,1403,0,0,0,0,0,0,0,3.7393e-21,0.054942,0,-277.33,5.3067e-08,0,1,1,1.675,0,-1.675,0
-42.778,-1465.5,-459.22,333.77,0,0,1398.5,0,0,0,0,0,0,0,3.739e-21,0.05496,0,-277.1,5.5255e-08,0,1,1,1.6775,0,-1.6775,0
-42.141,-1460.6,-457.52,332.38,0,0,1394,0,0,0,0,0,0,0,3.7387e-21,0.054978,0,-276.86,5.7444e-08,0,1,1,1.68,0,-1.68,0
-41.504,-1455.7,-455.82,330.98,0,0,1389.5,0,0,0,0,0,0,0,3.7384e-21,0.054996,0,-276.63,5.9633e-08,0,1,1,1.6825,0,-1.6825,0
-40.867,-1450.8,-454.12,329.59,0,0,1385,0,0,0,0,0,0,0,3.7382e-21,0.055014,0,-276.4,6.1821e-08,0,1,1,1.685,0,-1.685,0
-40.229,-1445.9,-452.42,328.19,0,0,1380.5,0,0,0,0,0,0,0,3.7379e-21,0.055032,0,-276.16,6.401e-08,0,1,1,1.6875,0,-1.6875,0
-39.592,-1441,-450.72,326.8,0,0,1376,0,0,0,0,0,0,0,3.7376e-21,0.05505,0,-275.93,6.6199e-08,0,1,1,1.69,0,-1.69,0
-38.955,-1436.1,-449.01,325.4,0,0,1371.5,0,0,0,0,0,0,0,3.7373e-21,0.055068,0,-275.7,6.8387e-08,0,1,1,1.6925,0,-1.6925,0
-38.317,-1431.2,-447.31,324.01,0,0,1367,0,0,0,0,0,0,0,3.7371e-21,0.055086,0,-275.47,7.0576e-08,0,1,1,1.695,0,-1.695,0
-37.68,-1426.3,-445.61,322.61,0,0,1362.5,0,0,0,0,0,0,0,3.7368e-21,0.055104,0,-275.23,7.2764e-08,0,1,1,1.6975,0,-1.6975,0
-37.043,-1421.4,-443.91,321.22,0,0,1358,0,0,0,0,0,0,0,3.7365e-21,0.055122,0,-275,7.4953e-08,0,1,1,1.7,0,-1.7,0
-36.406,-1416.5,-442.21,319.82,0,0,1353.5,0,0,0,0,0,0,0,3.7362e-21,0.05514,0,-274.77,7.7142e-08,0,1,1,1.7025,0,-1.7025,0
-35.768,-1411.6,-440.51,318.43,0,0,1349,0,0,0,0,0,0,0,3.736e-21,0.055158,0,-274.54,7.933e-08,0,1,1,1.705,0,-1.705,0
-35.131,-1406.7,-438.8,317.03,0,0,1344.5,0,0,0,0,0,0,0,3.7357e-21,0.055176,0,-274.3,8.1519e-08,0,1,1,1.7075,0,-1.7075,0
-34.494,-1401.8,-437.1,315.64,0,0,1340,0,0,0,0,0,0,0,3.7354e-21,0.055194,0,-274.07,8.3707e-08,0,1,1,1.71,0,-1.71,0
-33.856,-1396.9,-435.4,314.24,0,0,1335.6,0,0,0,0,0,0,0,3.7352e-21,0.055212,0,-273.84,8.5896e-08,0,1,1,1.7125,0,-1.7125,0
-33.219,-1392,-433.7,312.85,0,0,1331.1,0,0,0,0,0,0,0,3.7349e-21,0.05523,0,-273.6,8.8085e-08,0,1,1,1.715,0,-1.715,0
-32.582,-1387.1,-432,311.45,0,0,1326.6,0,0,0,0,0,0,0,3.7346e-21,0.055248,0,-273.37,9.0273e-08,0,1,1,1.7175,0,-1.7175,0
-31.945,-1382.2,-430.3,310.05,0,0,1322.1,0,0,0,0,0,0,0,3.7343e-21,0.055266,0,-273.14,9.2462e-08,0,1,1,1.72,0,-1.72,0
-31.307,-1377.3,-428.6,308.66,0,0,1317.6,0,0,0,0,0,0,0,3.7341e-21,0.055283,0,-272.91,9.465e-08,0,1,1,1.7225,0,-1.7225,0
-30.67,-1372.4,-426.89,307.26,0,0,1313.1,0,0,0,0,0,0,0,3.7338e-21,0.055301,0,-272.67,9.6839e-08,0,1,1,1.725,0,-1.725,0
-30.033,-1367.5,-425.19,305.87,0,0,1308.6,0,0,0,0,0,0,0,3.7335e-21,0.055319,0,-272.44,9.9028e-08,0,1,1,1.7275,0,-1.7275,0
-29.395,-1362.6,-423.49,304.47,0,0,1304.1,0,0,0,0,0,0,0,3.7332e-21,0.055337,0,-272.21,1.0122e-07,0,1,1,1.73,0,-1.73,0
-28.758,-1357.7,-421.79,303.08,0,0,1299.6,0,0,0,0,0,0,0,3.733e-21,0.055355,0,-271.98,1.034e-07,0,1,1,1.7325,0,-1.7325,0
-28.121,-1352.8,-420.09,301.68,0,0,1295.1,0,0,0,0,0,0,0,3.7327e-21,0.055373,0,-271.74,1.0559e-07,0,1,1,1.735,0,-1.735,0
-27.484,-1347.9,-418.39,300.29,0,0,1290.6,0,0,0,0,0,0,0,3.7324e-21,0.055391,0,-271.51,1.0778e-07,0,1,1,1.7375,0,-1.7375,0
-26.846,-1343,-416.68,298.89,0,0,1286.1,0,0,0,0,0,0,0,3.7321e-21,0.055409,0,-271.28,1.0997e-07,0,1,1,1.74,0,-1.74,0
-26.209,-1338.1,-414.98,297.5,0,0,1281.6,0,0,0,0,0,0,0,3.7319e-21,0.055427,0,-271.04,1.1216e-07,0,1,1,1.7425,0,-1.7425,0
-25.572,-1333.2,-413.28,296.1,0,0,1277.1,0,0,0,0,0,0,0,3.7316e-21,0.055445,0,-270.81,1.1435e-07,0,1,1,1.745,0,-1.745,0
-24.934,-1328.3,-411.58,294.71,0,0,1272.6,0,0,0,0,0,0,0,3.7313e-21,0.055463,0,-270.58,1.1654e-07,0,1,1,1.7475,0,-1.7475,0
-24.297,-1323.4,-409.88,293.31,0,0,1268.1,0,0,0,0,0,0,0,3.7311e-21,0.055481,0,-270.35,1.1873e-07,0,1,1,1.75,0,-1.75,0
-23.66,-1318.5,-408.18,291.92,0,0,1263.6,0,0,0,0,0,0,0,3.7308e-21,0.055499,0,-270.11,1.2091e-07,0,1,1,1.7525,0,-1.7525,0
-23.023,-1313.6,-406.48,290.52,0,0,1259.1,0,0,0,0,0,0,0,3.7305e-21,0.055517,0,-269.88,1.231e-07,0,1,1,1.755,0,-1.755,0
-22.385,-1308.7,-404.77,289.13,0,0,1254.6,0,0,0,0,0,0,0,3.7302e-21,0.055535,0,-269.65,1.2529e-07,0,1,1,1.7575,0,-1.7575,0
-21.748,-1303.8,-403.07,287.73,0,0,1250.1,0,0,0,0,0,0,0,3.73e-21,0.055553,0,-269.42,1.2748e-07,0,1,1,1.76,0,-1.76,0
-21.111,-1298.9,-401.37,286.33,0,0,1245.6,0,0,0,0,0,0,0,3.7297e-21,0.055571,0,-269.18,1.2967e-07,0,1,1,1.7625,0,-1.7625,0
-20.473,-1294,-399.67,284.94,0,0,1241.1,0,0,0,0,0,0,0,3.7294e-21,0.055589,0,-268.95,1.3186e-07,0,1,1,1.765,0,-1.765,0
-19.836,-1289.1,-397.97,283.54,0,0,1236.6,0,0,0,0,0,0,0,3.7291e-21,0.055607,0,-268.72,1.3405e-07,0,1,1,1.7675,0,-1.7675,0
-19.199,-1284.2,-396.27,282.15,0,0,1232.1,0,0,0,0,0,0,0,3.7289e-21,0.055624,0,-268.48,1.3623e-07,0,1,1,1.77,0,-1.77,0
-18.562,-1279.3,-394.56,280.75,0,0,1227.6,0,0,0,0,0,0,0,3.7286e-21,0.055642,0,-268.25,1.3842e-07,0,1,1,1.7725,0,-1.7725,0
-17.924,-1274.4,-392.86,279.36,0,0,1223.1,0,0,0,0,0,0,0,3.7283e-21,0.05566,0,-268.02,1.4061e-07,0,1,1,1.775,0,-1.775,0
-17.287,-1269.5,-391.16,277.96,0,0,1218.6,0,0,0,0,0,0,0,3.728e-21,0.055678,0,-267.79,1.428e-07,0,1,1,1.7775,0,-1.7775,0
-16.65,-1264.6,-389.46,276.57,0,0,1214.1,0,0,0,0,0,0,0,3.7278e-21,0.055696,0,-267.55,1.4499e-07,0,1,1,1.78,0,-1.78,0
-16.012,-1259.7,-387.76,275.17,0,0,1209.6,0,0,0,0,0,0,0,3.7275e-21,0.055714,0,-267.32,1.4718e-07,0,1,1,1.7825,0,-1.7825,0
-15.375,-1254.8,-386.06,273.78,0,0,1205.1,0,0,0,0,0,0,0,3.7272e-21,0.055732,0,-267.09,1.4937e-07,0,1,1,1.785,0,-1.785,0
-14.738,-1249.9,-384.36,272.38,0,0,1200.6,0,0,0,0,0,0,0,3.727e-21,0.05575,0,-266.86,1.5155e-07,0,1,1,1.7875,0,-1.7875,0
-14.101,-1245,-382.65,270.99,0,0,1196.1,0,0,0,0,0,0,0,3.7267e-21,0.055768,0,-266.62,1.5374e-07,0,1,1,1.79,0,-1.79,0
-13.463,-1240.1,-380.95,269.59,0,0,1191.6,0,0,0,0,0,0,0,3.7264e-21,0.055786,0,-266.39,1.5593e-07,0,1,1,1.7925,0,-1.7925,0
-12.826,-1235.2,-379.25,268.2,0,0,1187.1,0,0,0,0,0,0,0,3.7261e-21,0.055804,0,-266.16,1.5812e-07,0,1,1,1.795,0,-1.795,0
-12.189,-1230.3,-377.55,266.8,0,0,1182.6,0,0,0,0,0,0,0,3.7259e-21,0.055822,0,-265.92,1.6031e-07,0,1,1,1.7975,0,-1.7975,0
-11.551,-1225.4,-375.85,265.41,0,0,1178.1,0,0,0,0,0,0,0,3.7256e-21,0.05584,0,-265.69,1.625e-07,0,1,1,1.8,0,-1.8,0
-10.914,-1220.5,-374.15,264.01,0,0,1173.6,0,0,0,0,0,0,0,3.7253e-21,0.055858,0,-265.46,1.6469e-07,0,1,1,1.8025,0,-1.8025,0
-10.277,-1215.6,-372.45,262.62,0,0,1169.1,0,0,0,0,0,0,0,3.725e-21,0.055876,0,-265.23,1.6687e-07,0,1,1,1.805,0,-1.805,0
-9.6396,-1210.7,-370.74,261.22,0,0,1164.6,0,0,0,0,0,0,0,3.7248e-21,0.055894,0,-264.99,1.6906e-07,0,1,1,1.8075,0,-1.8075,0
-9.0024,-1205.8,-369.04,259.82,0,0,1160.1,0,0,0,0,0,0,0,3.7245e-21,0.055912,0,-264.76,1.7125e-07,0,1,1,1.81,0,-1.81,0
-8.3651,-1200.9,-367.34,258.43,0,0,1155.6,0,0,0,0,0,0,0,3.7242e-21,0.05593,0,-264.53,1.7344e-07,0,1,1,1.8125,0,-1.8125,0
-7.7278,-1196,-365.64,257.03,0,0,1151.1,0,0,0,0,0,0,0,3.7239e-21,0.055947,0,-264.3,1.7563e-07,0,1,1,1.815,0,-1.815,0
-7.0905,-1191.1,-363.94,255.64,0,0,1146.6,0,0,0,0,0,0,0,3.7237e-21,0.055965,0,-264.06,1.7782e-07,0,1,1,1.8175,0,-1.8175,0
-6.4532,-1186.2,-362.24,254.24,0,0,1142.1,0,0,0,0,0,0,0,3.7234e-21,0.055983,0,-263.83,1.8001e-07,0,1,1,1.82,0,-1.82,0
-5.8159,-1181.3,-360.53,252.85,0,0,1137.6,0,0,0,0,0,0,0,3.7231e-21,0.056001,0,-263.6,1.8219e-07,0,1,1,1.8225,0,-1.8225,0
-5.1786,-1176.4,-358.83,251.45,0,0,1133.2,0,0,0,0,0,0,0,3.7229e-21,0.056019,0,-263.36,1.8438e-07,0,1,1,1.825,0,-1.825,0
-4.5414,-1171.5,-357.13,250.06,0,0,1128.7,0,0,0,0,0,0,0,3.7226e-21,0.056037,0,-263.13,1.8657e-07,0,1,1,1.8275,0,-1.8275,0
-3.9041,-1166.6,-355.43,248.66,0,0,1124.2,0,0,0,0,0,0,0,3.7223e-21,0.056055,0,-262.9,1.8876e-07,0,1,1,1.83,0,-1.83,0
-3.2668,-1161.7,-353.73,247.27,0,0,1119.7,0,0,0,0,0,0,0,3.722e-21,0.056073,0,-262.67,1.9095e-07,0,1,1,1.8325,0,-1.8325,0
-2.6295,-1156.8,-352.03,245.87,0,0,1115.2,0,0,0,0,0,0,0,3.7218e-21,0.056091,0,-262.43,1.9314e-07,0,1,1,1.835,0,-1.835,0
-1.9922,-1151.9,-350.33,244.48,0,0,1110.7,0,0,0,0,0,0,0,3.7215e-21,0.056109,0,-262.2,1.9533e-07,0,1,1,1.8375,0,-1.8375,0
-1.3549,-1147,-348.62,243.08,0,0,1106.2,0,0,0,0,0,0,0,3.7212e-21,0.056127,0,-261.97,1.9752e-07,0,1,1,1.84,0,-1.84,0
-0.71765,-1142.1,-346.92,241.69,0,0,1101.7,0,0,0,0,0,0,0,3.7209e-21,0.056145,0,-261.74,1.997e-07,0,1,1,1.8425,0,-1.8425,0
-0.080355,-1137.2,-345.22,240.29,0,0,1097.2,0,0,0,0,0,0,0,3.7207e-21,0.056163,0,-261.5,2.0189e-07,0,1,1,1.845,0,-1.845,0
0.55691,-1132.3,-343.52,238.9,0,0,1092.7,0,0,0,0,0,0,0,3.7204e-21,0.056181,0,-261.27,2.0408e-07,0,1,1,1.8475,0,-1.8475,0
1.1942,-1127.4,-341.82,237.5,0,0,1088.2,0,0,0,0,0,0,0,3.7201e-21,0.056199,0,-261.04,2.0627e-07,0,1,1,1.85,0,-1.85,0
1.8315,-1122.5,-340.12,236.1,0,0,1083.7,0,0,0,0,0,0,0,3.7198e-21,0.056217,0,-260.8,2.0846e-07,0,1,1,1.8525,0,-1.8525,0
2.4688,-1117.5,-338.41,234.71,0,0,1079.2,0,0,0,0,0,0,0,3.7196e-21,0.056235,0,-260.57,2.1065e-07,0,1,1,1.855,0,-1.855,0
3.106,-1112.6,-336.71,233.31,0,0,1074.7,0,0,0,0,0,0,0,3.7193e-21,0.056253,0,-260.34,2.1284e-07,0,1,1,1.8575,0,-1.8575,0
3.7433,-1107.7,-335.01,231.92,0,0,1070.2,0,0,0,0,0,0,0,3.719e-21,0.056271,0,-260.11,2.1502e-07,0,1,1,1.86,0,-1.86,0
4.3806,-1102.8,-333.31,230.52,0,0,1065.7,0,0,0,0,0,0,0,3.7188e-21,0.056288,0,-259.87,2.1721e-07,0,1,1,1.8625,0,-1.8625,0
5.0179,-1097.9,-331.61,229.13,0,0,1061.2,0,0,0,0,0,0,0,3.7185e-21,0.056306,0,-259.64,2.194e-07,0,1,1,1.865,0,-1.865,0
5.6552,-1093,-329.91,227.73,0,0,1056.7,0,0,0,0,0,0,0,3.7182e-21,0.056324,0,-259.41,2.2159e-07,0,1,1,1.8675,0,-1.8675,0
6.2925,-1088.1,-328.21,226.34,0,0,1052.2,0,0,0,0,0,0,0,3.7179e-21,0.056342,0,-259.18,2.2378e-07,0,1,1,1.87,0,-1.87,0
6.9297,-1083.2,-326.5,224.94,0,0,1047.7,0,0,0,0,0,0,0,3.7177e-21,0.05636,0,-258.94,2.2597e-07,0,1,1,1.8725,0,-1.8725,0
7.567,-1078.3,-324.8,223.55,0,0,1043.2,0,0,0,0,0,0,0,3.7174e-21,0.056378,0,-258.71,2.2816e-07,0,1,1,1.875,0,-1.875,0
8.2043,-1073.4,-323.1,222.15,0,0,1038.7,0,0,0,0,0,0,0,3.7171e-21,0.056396,0,-258.48,2.3034e-07,0,1,1,1.8775,0,-1.8775,0
8.8416,-1068.5,-321.4,220.76,0,0,1034.2,0,0,0,0,0,0,0,3.7168e-21,0.056414,0,-258.24,2.3253e-07,0,1,1,1.88,0,-1.88,0
9.4789,-1063.6,-319.7,219.36,0,0,1029.7,0,0,0,0,0,0,0,3.7166e-21,0.056432,0,-258.01,2.3472e-07,0,1,1,1.8825,0,-1.8825,0
10.116,-1058.7,-318,217.97,0,0,1025.2,0,0,0,0,0,0,0,3.7163e-21,0.05645,0,-257.78,2.3691e-07,0,1,1,1.885,0,-1.885,0
10.753,-1053.8,-316.29,216.57,0,0,1020.7,0,0,0,0,0,0,0,3.716e-21,0.056468,0,-257.55,2.391e-07,0,1,1,1.8875,0,-1.8875,0
11.391,-1048.9,-314.59,215.18,0,0,1016.2,0,0,0,0,0,0,0,3.7157e-21,0.056486,0,-257.31,2.4129e-07,0,1,1,1.89,0,-1.89,0
12.028,-1044,-312.89,213.78,0,0,1011.7,0,0,0,0,0,0,0,3.7155e-21,0.056504,0,-257.08,2.4348e-07,0,1,1,1.8925,0,-1.8925,0
12.665,-1039.1,-311.19,212.38,0,0,1007.2,0,0,0,0,0,0,0,3.7152e-21,0.056522,0,-256.85,2.4566e-07,0,1,1,1.895,0,-1.895,0
13.303,-1034.2,-309.49,210.99,0,0,1002.7,0,0,0,0,0,0,0,3.7149e-21,0.05654,0,-256.62,2.4785e-07,0,1,1,1.8975,0,-1.8975,0
13.94,-1029.3,-307.79,209.59,0,0,998.22,0,0,0,0,0,0,0,3.7147e-21,0.056558,0,-256.38,2.5004e-07,0,1,1,1.9,0,-1.9,0
14.577,-1024.4,-306.09,208.2,0,0,993.72,0,0,0,0,0,0,0,3.7144e-21,0.056576,0,-256.15,2.5223e-07,0,1,1,1.9025,0,-1.9025,0
15.214,-1019.5,-304.38,206.8,0,0,989.22,0,0,0,0,0,0,0,3.7141e-21,0.056594,0,-255.92,2.5442e-07,0,1,1,1.905,0,-1.905,0
15.852,-1014.6,-302.68,205.41,0,0,984.72,0,0,0,0,0,0,0,3.7138e-21,0.056612,0,-255.68,2.5661e-07,0,1,1,1.9075,0,-1.9075,0
16.489,-1009.7,-300.98,204.01,0,0,980.22,0,0,0,0,0,0,0,3.7136e-21,0.056629,0,-255.45,2.588e-07,0,1,1,1.91,0,-1.91,0
17.126,-1004.8,-299.28,202.62,0,0,975.73,0,0,0,0,0,0,0,3.7133e-21,0.056647,0,-255.22,2.6098e-07,0,1,1,1.9125,0,-1.9125,0
17.764,-999.92,-297.58,201.22,0,0,971.23,0,0,0,0,0,0,0,3.713e-21,0.056665,0,-254.99,2.6317e-07,0,1,1,1.915,0,-1.915,0
18.401,-995.01,-295.88,199.83,0,0,966.73,0,0,0,0,0,0,0,3.7127e-21,0.056683,0,-254.75,2.6536e-07,0,1,1,1.9175,0,-1.9175,0
19.038,-990.11,-294.17,198.43,0,0,962.23,0,0,0,0,0,0,0,3.7125e-21,0.056701,0,-254.52,2.6755e-07,0,1,1,1.92,0,-1.92,0
19.675,-985.21,-292.47,197.04,0,0,957.74,0,0,0,0,0,0,0,3.7122e-21,0.056719,0,-254.29,2.6974e-07,0,1,1,1.9225,0,-1.9225,0
20.313,-980.31,-290.77,195.64,0,0,953.24,0,0,0,0,0,0,0,3.7119e-21,0.056737,0,-254.06,2.7193e-07,0,1,1,1.925,0,-1.925,0
20.95,-975.41,-289.07,194.25,0,0,948.74,0,0,0,0,0,0,0,3.7116e-21,0.056755,0,-253.82,2.7412e-07,0,1,1,1.9275,0,-1.9275,0
21.587,-970.51,-287.37,192.85,0,0,944.24,0,0,0,0,0,0,0,3.7114e-21,0.056773,0,-253.59,2.7631e-07,0,1,1,1.93,0,-1.93,0
22.225,-965.61,-285.67,191.46,0,0,939.74,0,0,0,0,0,0,0,3.7111e-21,0.056791,0,-253.36,2.7849e-07,0,1,1,1.9325,0,-1.9325,0
22.862,-960.7,-283.97,190.06,0,0,935.25,0,0,0,0,0,0,0,3.7108e-21,0.056809,0,-253.12,2.8068e-07,0,1,1,1.935,0,-1.935,0
23.499,-955.8,-282.26,188.66,0,0,930.75,0,0,0,0,0,0,0,3.7106e-21,0.056827,0,-252.89,2.8287e-07,0,1,1,1.9375,0,-1.9375,0
24.136,-950.9,-280.56,187.27,0,0,926.25,0,0,0,0,0,0,0,3.7103e-21,0.056845,0,-252.66,2.8506e-07,0,1,1,1.94,0,-1.94,0
24.774,-946,-278.86,185.87,0,0,921.75,0,0,0,0,0,0,0,3.71e-21,0.056863,0,-252.43,2.8725e-07,0,1,1,1.9425,0,-1.9425,0
25.411,-941.1,-277.16,184.48,0,0,917.25,0,0,0,0,0,0,0,3.7097e-21,0.056881,0,-252.19,2.8944e-07,0,1,1,1.945,0,-1.945,0
26.048,-936.2,-275.46,183.08,0,0,912.76,0,0,0,0,0,0,0,3.7095e-21,0.056899,0,-251.96,2.9163e-07,0,1,1,1.9475,0,-1.9475,0
26.686,-931.3,-273.76,181.69,0,0,908.26,0,0,0,0,0,0,0,3.7092e-21,0.056917,0,-251.73,2.9381e-07,0,1,1,1.95,0,-1.95,0
27.323,-926.39,-272.05,180.29,0,0,903.76,0,0,0,0,0,0,0,3.7089e-21,0.056935,0,-251.5,2.96e-07,0,1,1,1.9525,0,-1.9525,0
27.96,-921.49,-270.35,178.9,0,0,899.26,0,0,0,0,0,0,0,3.7086e-21,0.056953,0,-251.26,2.9819e-07,0,1,1,1.955,0,-1.955,0
28.597,-916.59,-268.65,177.5,0,0,894.77,0,0,0,0,0,0,0,3.7084e-21,0.05697,0,-251.03,3.0038e-07,0,1,1,1.9575,0,-1.9575,0
29.235,-911.69,-266.95,176.11,0,0,890.27,0,0,0,0,0,0,0,3.7081e-21,0.056988,0,-250.8,3.0257e-07,0,1,1,1.96,0,-1.96,0
29.872,-906.79,-265.25,174.71,0,0,885.77,0,0,0,0,0,0,0,3.7078e-21,0.057006,0,-250.56,3.0476e-07,0,1,1,1.9625,0,-1.9625,0
30.509,-901.89,-263.55,173.32,0,0,881.27,0,0,0,0,0,0,0,3.7075e-21,0.057024,0,-250.33,3.0695e-07,0,1,1,1.965,0,-1.965,0
31.147,-896.99,-261.85,171.92,0,0,876.77,0,0,0,0,0,0,0,3.7073e-21,0.057042,0,-250.1,3.0913e-07,0,1,1,1.9675,0,-1.9675,0
31.784,-892.08,-260.14,170.53,0,0,872.28,0,0,0,0,0,0,0,3.707e-21,0.05706,0,-249.87,3.1132e-07,0,1,1,1.97,0,-1.97,0
32.421,-887.18,-258.44,169.13,0,0,867.78,0,0,0,0,0,0,0,3.7067e-21,0.057078,0,-249.63,3.1351e-07,0,1,1,1.9725,0,-1.9725,0
33.058,-882.28,-256.74,167.74,0,0,863.28,0,0,0,0,0,0,0,3.7065e-21,0.057096,0,-249.4,3.157e-07,0,1,1,1.975,0,-1.975,0
33.696,-877.38,-255.04,166.34,0,0,858.78,0,0,0,0,0,0,0,3.7062e-21,0.057114,0,-249.17,3.1789e-07,0,1,1,1.9775,0,-1.9775,0
34.333,-872.48,-253.34,164.94,0,0,854.29,0,0,0,0,0,0,0,3.7059e-21,0.057132,0,-248.94,3.2008e-07,0,1,1,1.98,0,-1.98,0
34.97,-867.58,-251.64,163.55,0,0,849.79,0,0,0,0,0,0,0,3.7056e-21,0.05715,0,-248.7,3.2227e-07,0,1,1,1.9825,0,-1.9825,0
35.608,-862.68,-249.93,162.15,0,0,845.29,0,0,0,0,0,0,0,3.7054e-21,0.057168,0,-248.47,3.2445e-07,0,1,1,1.985,0,-1.985,0
36.245,-857.78,-248.23,160.76,0,0,840.79,0,0,0,0,0,0,0,3.7051e-21,0.057186,0,-248.24,3.2664e-07,0,1,1,1.9875,0,-1.9875,0
36.882,-852.87,-246.53,159.36,0,0,836.29,0,0,0,0,0,0,0,3.7048e-21,0.057204,0,-248,3.2883e-07,0,1,1,1.99,0,-1.99,0
37.519,-847.97,-244.83,157.97,0,0,831.8,0,0,0,0,0,0,0,3.7045e-21,0.057222,0,-247.77,3.3102e-07,0,1,1,1.9925,0,-1.9925,0
38.157,-843.07,-243.13,156.57,0,0,827.3,0,0,0,0,0,0,0,3.7043e-21,0.05724,0,-247.54,3.3321e-07,0,1,1,1.995,0,-1.995,0
38.794,-838.17,-241.43,155.18,0,0,822.8,0,0,0,0,0,0,0,3.704e-21,0.057258,0,-247.31,3.354e-07,0,1,1,1.9975,0,-1.9975,0
39.431,-833.27,-239.73,153.78,0,0,818.3,0,0,0,0,0,0,0,3.7037e-21,0.057276,0,-247.07,3.3759e-07,0,1,1,2,0,-2,0
40.069,-828.37,-238.02,152.39,0,0,813.81,0,0,0,0,0,0,0,3.7034e-21,0.057294,0,-246.84,3.3977e-07,0,1,1,2.0025,0,-2.0025,0
40.706,-823.46,-236.32,150.99,0,0,809.31,0,0,0,0,0,0,0,3.7032e-21,0.057311,0,-246.61,3.4196e-07,0,1,1,2.005,0,-2.005,0
41.343,-818.56,-234.62,149.6,0,0,804.81,0,0,0,0,0,0,0,3.7029e-21,0.057329,0,-246.38,3.4415e-07,0,1,1,2.0075,0,-2.0075,0
41.98,-813.66,-232.92,148.2,0,0,800.31,0,0,0,0,0,0,0,3.7026e-21,0.057347,0,-246.14,3.4634e-07,0,1,1,2.01,0,-2.01,0
42.618,-808.76,-231.22,146.81,0,0,795.81,0,0,0,0,0,0,0,3.7024e-21,0.057365,0,-245.91,3.4853e-07,0,1,1,2.0125,0,-2.0125,0
43.255,-803.86,-229.52,145.41,0,0,791.32,0,0,0,0,0,0,0,3.7021e-21,0.057383,0,-245.68,3.5072e-07,0,1,1,2.015,0,-2.015,0
43.892,-798.96,-227.81,144.02,0,0,786.82,0,0,0,0,0,0,0,3.7018e-21,0.057401,0,-245.44,3.5291e-07,0,1,1,2.0175,0,-2.0175,0
44.53,-794.06,-226.11,142.62,0,0,782.32,0,0,0,0,0,0,0,3.7015e-21,0.057419,0,-245.21,3.551e-07,0,1,1,2.02,0,-2.02,0
45.167,-789.16,-224.41,141.23,0,0,777.82,0,0,0,0,0,0,0,3.7013e-21,0.057437,0,-244.98,3.5728e-07,0,1,1,2.0225,0,-2.0225,0
45.804,-784.25,-222.71,139.83,0,0,773.32,0,0,0,0,0,0,0,3.701e-21,0.057455,0,-244.75,3.5947e-07,0,1,1,2.025,0,-2.025,0
46.441,-779.35,-221.01,138.43,0,0,768.83,0,0,0,0,0,0,0,3.7007e-21,0.057473,0,-244.51,3.6166e-07,0,1,1,2.0275,0,-2.0275,0
47.079,-774.45,-219.31,137.04,0,0,764.33,0,0,0,0,0,0,0,3.7004e-21,0.057491,0,-244.28,3.6385e-07,0,1,1,2.03,0,-2.03,0
47.716,-769.55,-217.61,135.64,0,0,759.83,0,0,0,0,0,0,0,3.7002e-21,0.057509,0,-244.05,3.6604e-07,0,1,1,2.0325,0,-2.0325,0
48.353,-764.65,-215.9,134.25,0,0,755.33,0,0,0,0,0,0,0,3.6999e-21,0.057527,0,-243.82,3.6823e-07,0,1,1,2.035,0,-2.035,0
48.99,-759.75,-214.2,132.85,0,0,750.84,0,0,0,0,0,0,0,3.6996e-21,0.057545,0,-243.58,3.7042e-07,0,1,1,2.0375,0,-2.0375,0
49.628,-754.85,-212.5,131.46,0,0,746.34,0,0,0,0,0,0,0,3.6993e-21,0.057563,0,-243.35,3.726e-07,0,1,1,2.04,0,-2.04,0
50.265,-749.94,-210.8,130.06,0,0,741.84,0,0,0,0,0,0,0,3.6991e-21,0.057581,0,-243.12,3.7479e-07,0,1,1,2.0425,0,-2.0425,0
50.173,-749.26,-210.62,129.91,0,0,741.12,0,0,0,0,0,0,0,3.6988e-21,0.057587,0,-242.74,3.7537e-07,0,1,1,2.045,0,-2.045,0
50.103,-748.44,-210.4,129.72,0,0,740.28,0,0,0,0,0,0,0,3.6986e-21,0.057593,0,-242.37,3.7599e-07,0,1,1,2.0475,0,-2.0475,0
50.034,-747.63,-210.17,129.53,0,0,739.44,0,0,0,0,0,0,0,3.6984e-21,0.057599,0,-242,3.7662e-07,0,1,1,2.05,0,-2.05,0
49.964,-746.81,-209.95,129.34,0,0,738.6,0,0,0,0,0,0,0,3.6981e-21,0.057605,0,-241.62,3.7724e-07,0,1,1,2.0525,0,-2.0525,0
49.895,-746,-209.72,129.15,0,0,737.76,0,0,0,0,0,0,0,3.6979e-21,0.057612,0,-241.25,3.7786e-07,0,1,1,2.055,0,-2.055,0
49.825,-745.18,-209.5,128.96,0,0,736.92,0,0,0,0,0,0,0,3.6976e-21,0.057618,0,-240.88,3.7849e-07,0,1,1,2.0575,0,-2.0575,0
49.756,-744.37,-209.27,128.77,0,0,736.08,0,0,0,0,0,0,0,3.6974e-21,0.057624,0,-240.51,3.7911e-07,0,1,1,2.06,0,-2.06,0
49.686,-743.55,-209.05,128.58,0,0,735.24,0,0,0,0,0,0,0,3.6972e-21,0.05763,0,-240.14,3.7974e-07,0,1,1,2.0625,0,-2.0625,0
49.616,-742.74,-208.83,128.39,0,0,734.4,0,0,0,0,0,0,0,3.6969e-21,0.057637,0,-239.76,3.8036e-07,0,1,1,2.065,0,-2.065,0
49.547,-741.92,-208.6,128.2,0,0,733.56,0,0,0,0,0,0,0,3.6967e-21,0.057643,0,-239.39,3.8099e-07,0,1,1,2.0675,0,-2.0675,0
49.477,-741.11,-208.38,128.01,0,0,732.73,0,0,0,0,0,0,0,3.6964e-21,0.057649,0,-239.02,3.8161e-07,0,1,1,2.07,0,-2.07,0
49.408,-740.29,-208.15,127.82,0,0,731.89,0,0,0,0,0,0,0,3.6962e-21,0.057655,0,-238.65,3.8223e-07,0,1,1,2.0725,0,-2.0725,0
49.338,-739.48,-207.93,127.63,0,0,731.05,0,0,0,0,0,0,0,3.696e-21,0.057662,0,-238.28,3.8286e-07,0,1,1,2.075,0,-2.075,0
49.269,-738.66,-207.7,127.44,0,0,730.21,0,0,0,0,0,0,0,3.6957e-21,0.057668,0,-237.9,3.8348e-07,0,1,1,2.0775,0,-2.0775,0
49.199,-737.85,-207.48,127.25,0,0,729.37,0,0,0,0,0,0,0,3.6955e-21,0.057674,0,-237.53,3.8411e-07,0,1,1,2.08,0,-2.08,0
49.129,-737.03,-207.25,127.06,0,0,728.53,0,0,0,0,0,0,0,3.6952e-21,0.05768,0,-237.16,3.8473e-07,0,1,1,2.0825,0,-2.0825,0
49.06,-736.22,-207.03,126.87,0,0,727.69,0,0,0,0,0,0,0,3.695e-21,0.057687,0,-236.79,3.8536e-07,0,1,1,2.085,0,-2.085,0
48.99,-735.4,-206.81,126.68,0,0,726.85,0,0,0,0,0,0,0,3.6948e-21,0.057693,0,-236.42,3.8598e-07,0,1,1,2.0875,0,-2.0875,0
48.921,-734.59,-206.58,126.49,0,0,726.01,0,0,0,0,0,0,0,3.6945e-21,0.057699,0,-236.04,3.866e-07,0,1,1,2.09,0,-2.09,0
48.851,-733.77,-206.36,126.3,0,0,725.17,0,0,0,0,0,0,0,3.6943e-21,0.057705,0,-235.67,3.8723e-07,0,1,1,2.0925,0,-2.0925,0
48.782,-732.96,-206.13,126.11,0,0,724.33,0,0,0,0,0,0,0,3.6941e-21,0.057712,0,-235.3,3.8785e-07,0,1,1,2.095,0,-2.095,0
48.712,-732.14,-205.91,125.92,0,0,723.49,0,0,0,0,0,0,0,3.6938e-21,0.057718,0,-234.93,3.8848e-07,0,1,1,2.0975,0,-2.0975,0
48.643,-731.33,-205.68,125.72,0,0,722.65,0,0,0,0,0,0,0,3.6936e-21,0.057724,0,-234.56,3.891e-07,0,1,1,2.1,0,-2.1,0
48.573,-730.51,-205.46,125.53,0,0,721.81,0,0,0,0,0,0,0,3.6933e-21,0.05773,0,-234.18,3.8973e-07,0,1,1,2.1025,0,-2.1025,0
48.503,-729.7,-205.23,125.34,0,0,720.97,0,0,0,0,0,0,0,3.6931e-21,0.057737,0,-233.81,3.9035e-07,0,1,1,2.105,0,-2.105,0
48.434,-728.88,-205.01,125.15,0,0,720.14,0,0,0,0,0,0,0,3.6929e-21,0.057743,0,-233.44,3.9098e-07,0,1,1,2.1075,0,-2.1075,0
48.364,-728.07,-204.78,124.96,0,0,719.3,0,0,0,0,0,0,0,3.6926e-21,0.057749,0,-233.07,3.916e-07,0,1,1,2.11,0,-2.11,0
48.295,-727.25,-204.56,124.77,0,0,718.46,0,0,0,0,0,0,0,3.6924e-21,0.057755,0,-232.7,3.9222e-07,0,1,1,2.1125,0,-2.1125,0
48.225,-726.44,-204.34,124.58,0,0,717.62,0,0,0,0,0,0,0,3.6921e-21,0.057762,0,-232.32,3.9285e-07,0,1,1,2.115,0,-2.115,0
48.156,-725.62,-204.11,124.39,0,0,716.78,0,0,0,0,0,0,0,3.6919e-21,0.057768,0,-231.95,3.9347e-07,0,1,1,2.1175,0,-2.1175,0
48.086,-724.81,-203.89,124.2,0,0,715.94,0,0,0,0,0,0,0,3.6917e-21,0.057774,0,-231.58,3.941e-07,0,1,1,2.12,0,-2.12,0
48.016,-723.99,-203.66,124.01,0,0,715.1,0,0,0,0,0,0,0,3.6914e-21,0.05778,0,-231.21,3.9472e-07,0,1,1,2.1225,0,-2.1225,0
47.947,-723.18,-203.44,123.82,0,0,714.26,0,0,0,0,0,0,0,3.6912e-21,0.057787,0,-230.84,3.9535e-07,0,1,1,2.125,0,-2.125,0
47.877,-722.36,-203.21,123.63,0,0,713.42,0,0,0,0,0,0,0,3.6909e-21,0.057793,0,-230.46,3.9597e-07,0,1,1,2.1275,0,-2.1275,0
47.808,-721.55,-202.99,123.44,0,0,712.58,0,0,0,0,0,0,0,3.6907e-21,0.057799,0,-230.09,3.9659e-07,0,1,1,2.13,0,-2.13,0
47.738,-720.73,-202.76,123.25,0,0,711.74,0,0,0,0,0,0,0,3.6905e-21,0.057805,0,-229.72,3.9722e-07,0,1,1,2.1325,0,-2.1325,0
47.669,-719.92,-202.54,123.06,0,0,710.9,0,0,0,0,0,0,0,3.6902e-21,0.057812,0,-229.35,3.9784e-07,0,1,1,2.135,0,-2.135,0
47.599,-719.1,-202.31,122.87,0,0,710.06,0,0,0,0,0,0,0,3.69e-21,0.057818,0,-228.98,3.9847e-07,0,1,1,2.1375,0,-2.1375,0
47.53,-718.29,-202.09,122.68,0,0,709.22,0,0,0,0,0,0,0,3.6897e-21,0.057824,0,-228.6,3.9909e-07,0,1,1,2.14,0,-2.14,0
47.46,-717.47,-201.87,122.49,0,0,708.39,0,0,0,0,0,0,0,3.6895e-21,0.05783,0,-228.23,3.9972e-07,0,1,1,2.1425,0,-2.1425,0
47.39,-716.66,-201.64,122.3,0,0,707.55,0,0,0,0,0,0,0,3.6893e-21,0.057837,0,-227.86,4.0034e-07,0,1,1,2.145,0,-2.145,0
47.321,-715.84,-201.42,122.11,0,0,706.71,0,0,0,0,0,0,0,3.689e-21,0.057843,0,-227.49,4.0096e-07,0,1,1,2.1475,0,-2.1475,0
47.251,-715.02,-201.19,121.92,0,0,705.87,0,0,0,0,0,0,0,3.6888e-21,0.057849,0,-227.12,4.0159e-07,0,1,1,2.15,0,-2.15,0
47.182,-714.21,-200.97,121.73,0,0,705.03,0,0,0,0,0,0,0,3.6886e-21,0.057855,0,-226.74,4.0221e-07,0,1,1,2.1525,0,-2.1525,0
47.112,-713.39,-200.74,121.54,0,0,704.19,0,0,0,0,0,0,0,3.6883e-21,0.057862,0,-226.37,4.0284e-07,0,1,1,2.155,0,-2.155,0
47.043,-712.58,-200.52,121.35,0,0,703.35,0,0,0,0,0,0,0,3.6881e-21,0.057868,0,-226,4.0346e-07,0,1,1,2.1575,0,-2.1575,0
46.973,-711.76,-200.29,121.16,0,0,702.51,0,0,0,0,0,0,0,3.6878e-21,0.057874,0,-225.63,4.0409e-07,0,1,1,2.16,0,-2.16,0
46.903,-710.95,-200.07,120.97,0,0,701.67,0,0,0,0,0,0,0,3.6876e-21,0.05788,0,-225.26,4.0471e-07,0,1,1,2.1625,0,-2.1625,0
46.834,-710.13,-199.85,120.78,0,0,700.83,0,0,0,0,0,0,0,3.6874e-21,0.057887,0,-224.88,4.0533e-07,0,1,1,2.165,0,-2.165,0
46.764,-709.32,-199.62,120.59,0,0,699.99,0,0,0,0,0,0,0,3.6871e-21,0.057893,0,-224.51,4.0596e-07,0,1,1,2.1675,0,-2.1675,0
46.695,-708.5,-199.4,120.4,0,0,699.15,0,0,0,0,0,0,0,3.6869e-21,0.057899,0,-224.14,4.0658e-07,0,1,1,2.17,0,-2.17,0
46.625,-707.69,-199.17,120.21,0,0,698.31,0,0,0,0,0,0,0,3.6866e-21,0.057905,0,-223.77,4.0721e-07,0,1,1,2.1725,0,-2.1725,0
46.556,-706.87,-198.95,120.02,0,0,697.47,0,0,0,0,0,0,0,3.6864e-21,0.057912,0,-223.4,4.0783e-07,0,1,1,2.175,0,-2.175,0
46.486,-706.06,-198.72,119.83,0,0,696.64,0,0,0,0,0,0,0,3.6862e-21,0.057918,0,-223.02,4.0846e-07,0,1,1,2.1775,0,-2.1775,0
46.417,-705.24,-198.5,119.64,0,0,695.8,0,0,0,0,0,0,0,3.6859e-21,0.057924,0,-222.65,4.0908e-07,0,1,1,2.18,0,-2.18,0
46.347,-704.43,-198.27,119.45,0,0,694.96,0,0,0,0,0,0,0,3.6857e-21,0.05793,0,-222.28,4.097e-07,0,1,1,2.1825,0,-2.1825,0
46.277,-703.61,-198.05,119.26,0,0,694.12,0,0,0,0,0,0,0,3.6854e-21,0.057937,0,-221.91,4.1033e-07,0,1,1,2.185,0,-2.185,0
46.208,-702.8,-197.82,119.07,0,0,693.28,0,0,0,0,0,0,0,3.6852e-21,0.057943,0,-221.54,4.1095e-07,0,1,1,2.1875,0,-2.1875,0
46.138,-701.98,-197.6,118.87,0,0,692.44,0,0,0,0,0,0,0,3.685e-21,0.057949,0,-221.16,4.1158e-07,0,1,1,2.19,0,-2.19,0
46.069,-701.17,-197.38,118.68,0,0,691.6,0,0,0,0,0,0,0,3.6847e-21,0.057955,0,-220.79,4.122e-07,0,1,1,2.1925,0,-2.1925,0
45.999,-700.35,-197.15,118.49,0,0,690.76,0,0,0,0,0,0,0,3.6845e-21,0.057962,0,-220.42,4.1283e-07,0,1,1,2.195,0,-2.195,0
45.93,-699.54,-196.93,118.3,0,0,689.92,0,0,0,0,0,0,0,3.6842e-21,0.057968,0,-220.05,4.1345e-07,0,1,1,2.1975,0,-2.1975,0
45.86,-698.72,-196.7,118.11,0,0,689.08,0,0,0,0,0,0,0,3.684e-21,0.057974,0,-219.68,4.1408e-07,0,1,1,2.2,0,-2.2,0
45.791,-697.91,-196.48,117.92,0,0,688.24,0,0,0,0,0,0,0,3.6838e-21,0.05798,0,-219.3,4.147e-07,0,1,1,2.2025,0,-2.2025,0
45.721,-697.09,-196.25,117.73,0,0,687.4,0,0,0,0,0,0,0,3.6835e-21,0.057987,0,-218.93,4.1532e-07,0,1,1,2.205,0,-2.205,0
45.651,-696.28,-196.03,117.54,0,0,686.56,0,0,0,0,0,0,0,3.6833e-21,0.057993,0,-218.56,4.1595e-07,0,1,1,2.2075,0,-2.2075,0
45.582,-695.46,-195.8,117.35,0,0,685.72,0,0,0,0,0,0,0,3.6831e-21,0.057999,0,-218.19,4.1657e-07,0,1,1,2.21,0,-2.21,0
45.512,-694.65,-195.58,117.16,0,0,684.88,0,0,0,0,0,0,0,3.6828e-21,0.058005,0,-217.82,4.172e-07,0,1,1,2.2125,0,-2.2125,0
45.443,-693.83,-195.35,116.97,0,0,684.05,0,0,0,0,0,0,0,3.6826e-21,0.058012,0,-217.44,4.1782e-07,0,1,1,2.215,0,-2.215,0
45.373,-693.02,-195.13,116.78,0,0,683.21,0,0,0,0,0,0,0,3.6823e-21,0.058018,0,-217.07,4.1845e-07,0,1,1,2.2175,0,-2.2175,0
45.304,-692.2,-194.91,116.59,0,0,682.37,0,0,0,0,0,0,0,3.6821e-21,0.058024,0,-216.7,4.1907e-07,0,1,1,2.22,0,-2.22,0
45.234,-691.39,-194.68,116.4,0,0,681.53,0,0,0,0,0,0,0,3.6819e-21,0.058031,0,-216.33,4.1969e-07,0,1,1,2.2225,0,-2.2225,0
45.164,-690.57,-194.46,116.21,0,0,680.69,0,0,0,0,0,0,0,3.6816e-21,0.058037,0,-215.96,4.2032e-07,0,1,1,2.225,0,-2.225,0
45.095,-689.76,-194.23,116.02,0,0,679.85,0,0,0,0,0,0,0,3.6814e-21,0.058043,0,-215.58,4.2094e-07,0,1,1,2.2275,0,-2.2275,0
45.025,-688.94,-194.01,115.83,0,0,679.01,0,0,0,0,0,0,0,3.6811e-21,0.058049,0,-215.21,4.2157e-07,0,1,1,2.23,0,-2.23,0
44.956,-688.13,-193.78,115.64,0,0,678.17,0,0,0,0,0,0,0,3.6809e-21,0.058056,0,-214.84,4.2219e-07,0,1,1,2.2325,0,-2.2325,0
44.886,-687.31,-193.56,115.45,0,0,677.33,0,0,0,0,0,0,0,3.6807e-21,0.058062,0,-214.47,4.2282e-07,0,1,1,2.235,0,-2.235,0
44.817,-686.5,-193.33,115.26,0,0,676.49,0,0,0,0,0,0,0,3.6804e-21,0.058068,0,-214.1,4.2344e-07,0,1,1,2.2375,0,-2.2375,0
44.747,-685.68,-193.11,115.07,0,0,675.65,0,0,0,0,0,0,0,3.6802e-21,0.058074,0,-213.72,4.2406e-07,0,1,1,2.24,0,-2.24,0
44.678,-684.87,-192.88,114.88,0,0,674.81,0,0,0,0,0,0,0,3.6799e-21,0.058081,0,-213.35,4.2469e-07,0,1,1,2.2425,0,-2.2425,0
44.608,-684.05,-192.66,114.69,0,0,673.97,0,0,0,0,0,0,0,3.6797e-21,0.058087,0,-212.98,4.2531e-07,0,1,1,2.245,0,-2.245,0
44.538,-683.24,-192.44,114.5,0,0,673.13,0,0,0,0,0,0,0,3.6795e-21,0.058093,0,-212.61,4.2594e-07,0,1,1,2.2475,0,-2.2475,0
44.469,-682.42,-192.21,114.31,0,0,672.3,0,0,0,0,0,0,0,3.6792e-21,0.058099,0,-212.24,4.2656e-07,0,1,1,2.25,0,-2.25,0
44.399,-681.61,-191.99,114.12,0,0,671.46,0,0,0,0,0,0,0,3.679e-21,0.058106,0,-211.86,4.2719e-07,0,1,1,2.2525,0,-2.2525,0
44.33,-680.79,-191.76,113.93,0,0,670.62,0,0,0,0,0,0,0,3.6787e-21,0.058112,0,-211.49,4.2781e-07,0,1,1,2.255,0,-2.255,0
44.26,-679.97,-191.54,113.74,0,0,669.78,0,0,0,0,0,0,0,3.6785e-21,0.058118,0,-211.12,4.2843e-07,0,1,1,2.2575,0,-2.2575,0
44.191,-679.16,-191.31,113.55,0,0,668.94,0,0,0,0,0,0,0,3.6783e-21,0.058124,0,-210.75,4.2906e-07,0,1,1,2.26,0,-2.26,0
44.121,-678.34,-191.09,113.36,0,0,668.1,0,0,0,0,0,0,0,3.678e-21,0.058131,0,-210.38,4.2968e-07,0,1,1,2.2625,0,-2.2625,0
44.051,-677.53,-190.86,113.17,0,0,667.26,0,0,0,0,0,0,0,3.6778e-21,0.058137,0,-210,4.3031e-07,0,1,1,2.265,0,-2.265,0
43.982,-676.71,-190.64,112.98,0,0,666.42,0,0,0,0,0,0,0,3.6776e-21,0.058143,0,-209.63,4.3093e-07,0,1,1,2.2675,0,-2.2675,0
43.912,-675.9,-190.42,112.79,0,0,665.58,0,0,0,0,0,0,0,3.6773e-21,0.058149,0,-209.26,4.3156e-07,0,1,1,2.27,0,-2.27,0
43.843,-675.08,-190.19,112.6,0,0,664.74,0,0,0,0,0,0,0,3.6771e-21,0.058156,0,-208.89,4.3218e-07,0,1,1,2.2725,0,-2.2725,0
43.773,-674.27,-189.97,112.41,0,0,663.9,0,0,0,0,0,0,0,3.6768e-21,0.058162,0,-208.52,4.3281e-07,0,1,1,2.275,0,-2.275,0
43.704,-673.45,-189.74,112.21,0,0,663.06,0,0,0,0,0,0,0,3.6766e-21,0.058168,0,-208.14,4.3343e-07,0,1,1,2.2775,0,-2.2775,0
43.634,-672.64,-189.52,112.02,0,0,662.22,0,0,0,0,0,0,0,3.6764e-21,0.058174,0,-207.77,4.3405e-07,0,1,1,2.28,0,-2.28,0
43.565,-671.82,-189.29,111.83,0,0,661.38,0,0,0,0,0,0,0,3.6761e-21,0.058181,0,-207.4,4.3468e-07,0,1,1,2.2825,0,-2.2825,0
43.495,-671.01,-189.07,111.64,0,0,660.55,0,0,0,0,0,0,0,3.6759e-21,0.058187,0,-207.03,4.353e-07,0,1,1,2.285,0,-2.285,0
43.425,-670.19,-188.84,111.45,0,0,659.71,0,0,0,0,0,0,0,3.6756e-21,0.058193,0,-206.66,4.3593e-07,0,1,1,2.2875,0,-2.2875,0
43.356,-669.38,-188.62,111.26,0,0,658.87,0,0,0,0,0,0,0,3.6754e-21,0.058199,0,-206.28,4.3655e-07,0,1,1,2.29,0,-2.29,0
43.286,-668.56,-188.39,111.07,0,0,658.03,0,0,0,0,0,0,0,3.6752e-21,0.058206,0,-205.91,4.3718e-07,0,1,1,2.2925,0,-2.2925,0
43.217,-667.75,-188.17,110.88,0,0,657.19,0,0,0,0,0,0,0,3.6749e-21,0.058212,0,-205.54,4.378e-07,0,1,1,2.295,0,-2.295,0
43.147,-666.93,-187.95,110.69,0,0,656.35,0,0,0,0,0,0,0,3.6747e-21,0.058218,0,-205.17,4.3842e-07,0,1,1,2.2975,0,-2.2975,0
43.078,-666.12,-187.72,110.5,0,0,655.51,0,0,0,0,0,0,0,3.6744e-21,0.058224,0,-204.8,4.3905e-07,0,1,1,2.3,0,-2.3,0
43.008,-665.3,-187.5,110.31,0,0,654.67,0,0,0,0,0,0,0,3.6742e-21,0.058231,0,-204.42,4.3967e-07,0,1,1,2.3025,0,-2.3025,0
42.939,-664.49,-187.27,110.12,0,0,653.83,0,0,0,0,0,0,0,3.674e-21,0.058237,0,-204.05,4.403e-07,0,1,1,2.305,0,-2.305,0
42.869,-663.67,-187.05,109.93,0,0,652.99,0,0,0,0,0,0,0,3.6737e-21,0.058243,0,-203.68,4.4092e-07,0,1,1,2.3075,0,-2.3075,0
42.799,-662.86,-186.82,109.74,0,0,652.15,0,0,0,0,0,0,0,3.6735e-21,0.058249,0,-203.31,4.4155e-07,0,1,1,2.31,0,-2.31,0
42.73,-662.04,-186.6,109.55,0,0,651.31,0,0,0,0,0,0,0,3.6732e-21,0.058256,0,-202.93,4.4217e-07,0,1,1,2.3125,0,-2.3125,0
42.66,-661.23,-186.37,109.36,0,0,650.47,0,0,0,0,0,0,0,3.673e-21,0.058262,0,-202.56,4.4279e-07,0,1,1,2.315,0,-2.315,0
42.591,-660.41,-186.15,109.17,0,0,649.63,0,0,0,0,0,0,0,3.6728e-21,0.058268,0,-202.19,4.4342e-07,0,1,1,2.3175,0,-2.3175,0
42.521,-659.6,-185.92,108.98,0,0,648.8,0,0,0,0,0,0,0,3.6725e-21,0.058274,0,-201.82,4.4404e-07,0,1,1,2.32,0,-2.32,0
42.452,-658.78,-185.7,108.79,0,0,647.96,0,0,0,0,0,0,0,3.6723e-21,0.058281,0,-201.45,4.4467e-07,0,1,1,2.3225,0,-2.3225,0
42.382,-657.97,-185.48,108.6,0,0,647.12,0,0,0,0,0,0,0,3.6721e-21,0.058287,0,-201.07,4.4529e-07,0,1,1,2.325,0,-2.325,0
42.312,-657.15,-185.25,108.41,0,0,646.28,0,0,0,0,0,0,0,3.6718e-21,0.058293,0,-200.7,4.4592e-07,0,1,1,2.3275,0,-2.3275,0
42.243,-656.34,-185.03,108.22,0,0,645.44,0,0,0,0,0,0,0,3.6716e-21,0.058299,0,-200.33,4.4654e-07,0,1,1,2.33,0,-2.33,0
42.173,-655.52,-184.8,108.03,0,0,644.6,0,0,0,0,0,0,0,3.6713e-21,0.058306,0,-199.96,4.4716e-07,0,1,1,2.3325,0,-2.3325,0
42.104,-654.71,-184.58,107.84,0,0,643.76,0,0,0,0,0,0,0,3.6711e-21,0.058312,0,-199.59,4.4779e-07,0,1,1,2.335,0,-2.335,0
42.034,-653.89,-184.35,107.65,0,0,642.92,0,0,0,0,0,0,0,3.6709e-21,0.058318,0,-199.21,4.4841e-07,0,1,1,2.3375,0,-2.3375,0
41.965,-653.08,-184.13,107.46,0,0,642.08,0,0,0,0,0,0,0,3.6706e-21,0.058324,0,-198.84,4.4904e-07,0,1,1,2.34,0,-2.34,0
41.895,-652.26,-183.9,107.27,0,0,641.24,0,0,0,0,0,0,0,3.6704e-21,0.058331,0,-198.47,4.4966e-07,0,1,1,2.3425,0,-2.3425,0
41.826,-651.45,-183.68,107.08,0,0,640.4,0,0,0,0,0,0,0,3.6701e-21,0.058337,0,-198.1,4.5029e-07,0,1,1,2.345,0,-2.345,0
41.756,-650.63,-183.46,106.89,0,0,639.56,0,0,0,0,0,0,0,3.6699e-21,0.058343,0,-197.73,4.5091e-07,0,1,1,2.3475,0,-2.3475,0
41.686,-649.82,-183.23,106.7,0,0,638.72,0,0,0,0,0,0,0,3.6697e-21,0.058349,0,-197.35,4.5153e-07,0,1,1,2.35,0,-2.35,0
41.617,-649,-183.01,106.51,0,0,637.88,0,0,0,0,0,0,0,3.6694e-21,0.058356,0,-196.98,4.5216e-07,0,1,1,2.3525,0,-2.3525,0
41.547,-648.19,-182.78,106.32,0,0,637.04,0,0,0,0,0,0,0,3.6692e-21,0.058362,0,-196.61,4.5278e-07,0,1,1,2.355,0,-2.355,0
41.478,-647.37,-182.56,106.13,0,0,636.21,0,0,0,0,0,0,0,3.6689e-21,0.058368,0,-196.24,4.5341e-07,0,1,1,2.3575,0,-2.3575,0
41.408,-646.56,-182.33,105.94,0,0,635.37,0,0,0,0,0,0,0,3.6687e-21,0.058374,0,-195.87,4.5403e-07,0,1,1,2.36,0,-2.36,0
41.339,-645.74,-182.11,105.75,0,0,634.53,0,0,0,0,0,0,0,3.6685e-21,0.058381,0,-195.49,4.5466e-07,0,1,1,2.3625,0,-2.3625,0
41.269,-644.92,-181.88,105.56,0,0,633.69,0,0,0,0,0,0,0,3.6682e-21,0.058387,0,-195.12,4.5528e-07,0,1,1,2.365,0,-2.365,0
41.199,-644.11,-181.66,105.36,0,0,632.85,0,0,0,0,0,0,0,3.668e-21,0.058393,0,-194.75,4.5591e-07,0,1,1,2.3675,0,-2.3675,0
41.13,-643.29,-181.43,105.17,0,0,632.01,0,0,0,0,0,0,0,3.6677e-21,0.058399,0,-194.38,4.5653e-07,0,1,1,2.37,0,-2.37,0
41.06,-642.48,-181.21,104.98,0,0,631.17,0,0,0,0,0,0,0,3.6675e-21,0.058406,0,-194.01,4.5715e-07,0,1,1,2.3725,0,-2.3725,0
40.991,-641.66,-180.99,104.79,0,0,630.33,0,0,0,0,0,0,0,3.6673e-21,0.058412,0,-193.63,4.5778e-07,0,1,1,2.375,0,-2.375,0
40.921,-640.85,-180.76,104.6,0,0,629.49,0,0,0,0,0,0,0,3.667e-21,0.058418,0,-193.26,4.584e-07,0,1,1,2.3775,0,-2.3775,0
40.852,-640.03,-180.54,104.41,0,0,628.65,0,0,0,0,0,0,0,3.6668e-21,0.058424,0,-192.89,4.5903e-07,0,1,1,2.38,0,-2.38,0
40.782,-639.22,-180.31,104.22,0,0,627.81,0,0,0,0,0,0,0,3.6665e-21,0.058431,0,-192.52,4.5965e-07,0,1,1,2.3825,0,-2.3825,0
40.713,-638.4,-180.09,104.03,0,0,626.97,0,0,0,0,0,0,0,3.6663e-21,0.058437,0,-192.15,4.6028e-07,0,1,1,2.385,0,-2.385,0
40.643,-637.59,-179.86,103.84,0,0,626.13,0,0,0,0,0,0,0,3.6661e-21,0.058443,0,-191.77,4.609e-07,0,1,1,2.3875,0,-2.3875,0
40.573,-636.77,-179.64,103.65,0,0,625.29,0,0,0,0,0,0,0,3.6658e-21,0.058449,0,-191.4,4.6152e-07,0,1,1,2.39,0,-2.39,0
40.504,-635.96,-179.41,103.46,0,0,624.46,0,0,0,0,0,0,0,3.6656e-21,0.058456,0,-191.03,4.6215e-07,0,1,1,2.3925,0,-2.3925,0
40.434,-635.14,-179.19,103.27,0,0,623.62,0,0,0,0,0,0,0,3.6654e-21,0.058462,0,-190.66,4.6277e-07,0,1,1,2.395,0,-2.395,0
40.365,-634.33,-178.96,103.08,0,0,622.78,0,0,0,0,0,0,0,3.6651e-21,0.058468,0,-190.29,4.634e-07,0,1,1,2.3975,0,-2.3975,0
40.295,-633.51,-178.74,102.89,0,0,621.94,0,0,0,0,0,0,0,3.6649e-21,0.058474,0,-189.91,4.6402e-07,0,1,1,2.4,0,-2.4,0
40.226,-632.7,-178.52,102.7,0,0,621.1,0,0,0,0,0,0,0,3.6646e-21,0.058481,0,-189.54,4.6465e-07,0,1,1,2.4025,0,-2.4025,0
40.156,-631.88,-178.29,102.51,0,0,620.26,0,0,0,0,0,0,0,3.6644e-21,0.058487,0,-189.17,4.6527e-07,0,1,1,2.405,0,-2.405,0
40.086,-631.07,-178.07,102.32,0,0,619.42,0,0,0,0,0,0,0,3.6642e-21,0.058493,0,-188.8,4.6589e-07,0,1,1,2.4075,0,-2.4075,0
40.017,-630.25,-177.84,102.13,0,0,618.58,0,0,0,0,0,0,0,3.6639e-21,0.058499,0,-188.43,4.6652e-07,0,1,1,2.41,0,-2.41,0
39.947,-629.44,-177.62,101.94,0,0,617.74,0,0,0,0,0,0,0,3.6637e-21,0.058506,0,-188.05,4.6714e-07,0,1,1,2.4125,0,-2.4125,0
39.878,-628.62,-177.39,101.75,0,0,616.9,0,0,0,0,0,0,0,3.6634e-21,0.058512,0,-187.68,4.6777e-07,0,1,1,2.415,0,-2.415,0
39.808,-627.81,-177.17,101.56,0,0,616.06,0,0,0,0,0,0,0,3.6632e-21,0.058518,0,-187.31,4.6839e-07,0,1,1,2.4175,0,-2.4175,0
39.739,-626.99,-176.94,101.37,0,0,615.22,0,0,0,0,0,0,0,3.663e-21,0.058524,0,-186.94,4.6902e-07,0,1,1,2.42,0,-2.42,0
39.669,-626.18,-176.72,101.18,0,0,614.38,0,0,0,0,0,0,0,3.6627e-21,0.058531,0,-186.57,4.6964e-07,0,1,1,2.4225,0,-2.4225,0
39.6,-625.36,-176.5,100.99,0,0,613.54,0,0,0,0,0,0,0,3.6625e-21,0.058537,0,-186.19,4.7026e-07,0,1,1,2.425,0,-2.425,0
39.53,-624.55,-176.27,100.8,0,0,612.71,0,0,0,0,0,0,0,3.6622e-21,0.058543,0,-185.82,4.7089e-07,0,1,1,2.4275,0,-2.4275,0
39.46,-623.73,-176.05,100.61,0,0,611.87,0,0,0,0,0,0,0,3.662e-21,0.058549,0,-185.45,4.7151e-07,0,1,1,2.43,0,-2.43,0
39.391,-622.92,-175.82,100.42,0,0,611.03,0,0,0,0,0,0,0,3.6618e-21,0.058556,0,-185.08,4.7214e-07,0,1,1,2.4325,0,-2.4325,0
39.321,-622.1,-175.6,100.23,0,0,610.19,0,0,0,0,0,0,0,3.6615e-21,0.058562,0,-184.71,4.7276e-07,0,1,1,2.435,0,-2.435,0
39.252,-621.29,-175.37,100.04,0,0,609.35,0,0,0,0,0,0,0,3.6613e-21,0.058568,0,-184.33,4.7339e-07,0,1,1,2.4375,0,-2.4375,0
39.182,-620.47,-175.15,99.847,0,0,608.51,0,0,0,0,0,0,0,3.661e-21,0.058575,0,-183.96,4.7401e-07,0,1,1,2.44,0,-2.44,0
39.113,-619.66,-174.92,99.656,0,0,607.67,0,0,0,0,0,0,0,3.6608e-21,0.058581,0,-183.59,4.7464e-07,0,1,1,2.4425,0,-2.4425,0
39.043,-618.84,-174.7,99.466,0,0,606.83,0,0,0,0,0,0,0,3.6606e-21,0.058587,0,-183.22,4.7526e-07,0,1,1,2.445,0,-2.445,0
38.974,-618.03,-174.47,99.276,0,0,605.99,0,0,0,0,0,0,0,3.6032e-15,0.058593,0,-182.85,4.7588e-07,0,1,1,2.4475,0,-2.4475,0
38.904,-617.21,-174.25,99.086,0,0,605.15,0,0,0,0,0,0,0,3.5085e-15,0.0586,0,-182.47,4.7651e-07,0,1,1,2.45,0,-2.45,0
38.834,-616.4,-174.03,98.895,0,0,604.31,0,0,0,0,0,0,0,3.4153e-15,0.058606,0,-182.1,4.7713e-07,0,1,1,2.4525,0,-2.4525,0
38.765,-615.58,-173.8,98.705,0,0,603.47,0,0,0,0,0,0,0,3.3233e-15,0.058612,0,-181.73,4.7776e-07,0,1,1,2.455,0,-2.455,0
38.695,-614.77,-173.58,98.515,0,0,602.63,0,0,0,0,0,0,0,3.2329e-15,0.058618,0,-181.36,4.7838e-07,0,1,1,2.4575,0,-2.4575,0
38.626,-613.95,-173.35,98.324,0,0,601.79,0,0,0,0,0,0,0,3.1437e-15,0.058625,0,-180.99,4.7901e-07,0,1,1,2.46,0,-2.46,0
38.556,-613.14,-173.13,98.134,0,0,600.95,0,0,0,0,0,0,0,3.0559e-15,0.058631,0,-180.61,4.7963e-07,0,1,1,2.4625,0,-2.4625,0
38.487,-612.32,-172.9,97.944,0,0,600.12,0,0,0,0,0,0,0,2.9693e-15,0.058637,0,-180.24,4.8025e-07,0,1,1,2.465,0,-2.465,0
38.417,-611.51,-172.68,97.754,0,0,599.28,0,0,0,0,0,0,0,2.8842e-15,0.058643,0,-179.87,4.8088e-07,0,1,1,2.4675,0,-2.4675,0
38.347,-610.69,-172.45,97.563,0,0,598.44,0,0,0,0,0,0,0,2.8004e-15,0.05865,0,-179.5,4.815e-07,0,1,1,2.47,0,-2.47,0
38.278,-609.87,-172.23,97.373,0,0,597.6,0,0,0,0,0,0,0,2.7179e-15,0.058656,0,-179.13,4.8213e-07,0,1,1,2.4725,0,-2.4725,0
38.208,-609.06,-172,97.183,0,0,596.76,0,0,0,0,0,0,0,2.6367e-15,0.058662,0,-178.75,4.8275e-07,0,1,1,2.475,0,-2.475,0
38.139,-608.24,-171.78,96.992,0,0,595.92,0,0,0,0,0,0,0,2.5569e-15,0.058668,0,-178.38,4.8338e-07,0,1,1,2.4775,0,-2.4775,0
38.069,-607.43,-171.56,96.802,0,0,595.08,0,0,0,0,0,0,0,2.4784e-15,0.058675,0,-178.01,4.84e-07,0,1,1,2.48,0,-2.48,0
38,-606.61,-171.33,96.612,0,0,594.24,0,0,0,0,0,0,0,2.4012e-15,0.058681,0,-177.64,4.8462e-07,0,1,1,2.4825,0,-2.4825,0
37.93,-605.8,-171.11,96.422,0,0,593.4,0,0,0,0,0,0,0,2.3254e-15,0.058687,0,-177.27,4.8525e-07,0,1,1,2.485,0,-2.485,0
37.861,-604.98,-170.88,96.231,0,0,592.56,0,0,0,0,0,0,0,2.2508e-15,0.058693,0,-176.89,4.8587e-07,0,1,1,2.4875,0,-2.4875,0
37.791,-604.17,-170.66,96.041,0,0,591.72,0,0,0,0,0,0,0,2.1775e-15,0.0587,0,-176.52,4.865e-07,0,1,1,2.49,0,-2.49,0
37.721,-603.35,-170.43,95.851,0,0,590.88,0,0,0,0,0,0,0,2.1056e-15,0.058706,0,-176.15,4.8712e-07,0,1,1,2.4925,0,-2.4925,0
37.652,-602.54,-170.21,95.661,0,0,590.04,0,0,0,0,0,0,0,2.0349e-15,0.058712,0,-175.78,4.8775e-07,0,1,1,2.495,0,-2.495,0
37.582,-601.72,-169.98,95.47,0,0,589.2,0,0,0,0,0,0,0,1.9655e-15,0.058718,0,-175.41,4.8837e-07,0,1,1,2.4975,0,-2.4975,0
37.513,-600.91,-169.76,95.28,0,0,588.37,0,0,0,0,0,0,0,1.8975e-15,0.058725,0,-175.03,4.8899e-07,0,1,1,2.5,0,-2.5,0
