"displacement:0","displacement:1","displacement:2","displacement contact active","displacement contact distance","displacement contact gap","displacement contact normalload","displacement contact slipload","displacement contact stick","displacement contact weight","stress_xx","stress_xy","stress_xz","stress_yy","stress_yz","stress_zz","vonmises","GeometryIds","vtkValidPointMask","arc_length","Points:0","Points:1","Points:2"
-1.1772e-14,0.010258,0,0.95897,-6.3659e-07,-6.1557e-11,1577.7,492.73,-0.95897,0,-1601.9,500.7,0,-2071.2,0,-1113.6,1210,1,1,0,0,0,0
-1.1524e-14,0.010288,0,0.93885,-6.2323e-07,-6.0265e-11,1544.6,482.39,-0.93885,0,-1575.1,494.47,0,-2055.1,0,-1100.6,1205.1,1,1,0.005,0,-0.005,0
-1.1276e-14,0.010319,0,0.91872,-6.0988e-07,-5.8973e-11,1511.5,472.05,-0.91872,0,-1548.2,488.24,0,-2039,0,-1087.5,1200.2,1,1,0.01,0,-0.01,0
-1.1028e-14,0.01035,0,0.8986,-5.9652e-07,-5.7682e-11,1478.4,461.71,-0.8986,0,-1521.4,482.01,0,-2022.9,0,-1074.5,1195.2,1,1,0.015,0,-0.015,0
-1.078e-14,0.01038,0,0.87848,-5.8316e-07,-5.639e-11,1445.3,451.37,-0.87848,0,-1494.5,475.78,0,-2006.8,0,-1061.4,1190.3,1,1,0.02,0,-0.02,0
-1.0533e-14,0.010411,0,0.85836,-5.698e-07,-5.5098e-11,1412.2,441.03,-0.85836,0,-1467.7,469.55,0,-1990.7,0,-1048.4,1185.4,1,1,0.025,0,-0.025,0
-1.0285e-14,0.010441,0,0.83823,-5.5644e-07,-5.3807e-11,1379.1,430.69,-0.83823,0,-1440.8,463.33,0,-1974.6,0,-1035.3,1180.5,1,1,0.03,0,-0.03,0
-1.0037e-14,0.010472,0,0.81811,-5.4309e-07,-5.2515e-11,1346,420.35,-0.81811,0,-1414,457.1,0,-1958.5,0,-1022.3,1175.5,1,1,0.035,0,-0.035,0
-9.7897e-15,0.010502,0,0.79799,-5.2973e-07,-5.1224e-11,1312.9,410.01,-0.79799,0,-1387.1,450.87,0,-1942.4,0,-1009.2,1170.6,1,1,0.04,0,-0.04,0
-9.5422e-15,0.010533,0,0.77787,-5.1637e-07,-4.9932e-11,1279.8,399.68,-0.77787,0,-1360.3,444.64,0,-1926.3,0,-996.17,1165.7,1,1,0.045,0,-0.045,0
-9.2946e-15,0.010564,0,0.75775,-5.0301e-07,-4.864e-11,1246.7,389.34,-0.75775,0,-1333.4,438.41,0,-1910.2,0,-983.13,1160.8,1,1,0.05,0,-0.05,0
-9.0471e-15,0.010594,0,0.73762,-4.8966e-07,-4.7349e-11,1213.6,379,-0.73762,0,-1306.6,432.18,0,-1894.2,0,-970.08,1155.8,1,1,0.055,0,-0.055,0
-8.7997e-15,0.010625,0,0.7175,-4.763e-07,-4.6057e-11,1180.4,368.66,-0.7175,0,-1279.7,425.95,0,-1878.1,0,-957.03,1150.9,1,1,0.06,0,-0.06,0
-8.5522e-15,0.010655,0,0.69738,-4.6294e-07,-4.4765e-11,1147.3,358.32,-0.69738,0,-1252.9,419.73,0,-1862,0,-943.99,1146,1,1,0.065,0,-0.065,0
-8.3049e-15,0.010686,0,0.67726,-4.4958e-07,-4.3474e-11,1114.2,347.98,-0.67726,0,-1226,413.5,0,-1845.9,0,-930.94,1141.1,1,1,0.07,0,-0.07,0
-8.0575e-15,0.010716,0,0.65713,-4.3622e-07,-4.2182e-11,1081.1,337.64,-0.65713,0,-1199.2,407.27,0,-1829.8,0,-917.89,1136.1,1,1,0.075,0,-0.075,0
-7.8102e-15,0.010747,0,0.63701,-4.2287e-07,-4.089e-11,1048,327.3,-0.63701,0,-1172.3,401.04,0,-1813.7,0,-904.84,1131.2,1,1,0.08,0,-0.08,0
-7.5629e-15,0.010777,0,0.61689,-4.0951e-07,-3.9599e-11,1014.9,316.96,-0.61689,0,-1145.5,394.81,0,-1797.6,0,-891.8,1126.3,1,1,0.085,0,-0.085,0
-7.3157e-15,0.010808,0,0.59677,-3.9615e-07,-3.8307e-11,981.81,306.62,-0.59677,0,-1118.6,388.58,0,-1781.5,0,-878.75,1121.4,1,1,0.09,0,-0.09,0
-7.0685e-15,0.010839,0,0.57665,-3.8279e-07,-3.7015e-11,948.71,296.29,-0.57665,0,-1091.8,382.36,0,-1765.4,0,-865.7,1116.4,1,1,0.095,0,-0.095,0
-6.8213e-15,0.010869,0,0.55652,-3.6944e-07,-3.5724e-11,915.6,285.95,-0.55652,0,-1064.9,376.13,0,-1749.3,0,-852.66,1111.5,1,1,0.1,0,-0.1,0
-1.2599e-14,0.0109,0,0.5364,-3.5608e-07,-3.4439e-11,882.5,275.61,-0.5364,0,-1038.1,369.9,0,-1733.2,0,-839.61,1106.6,1,1,0.105,0,-0.105,0
-7.4658e-15,0.01093,0,0.51628,-3.4272e-07,-3.3142e-11,849.39,265.27,-0.51628,0,-1011.3,363.67,0,-1717.2,0,-826.56,1101.7,1,1,0.11,0,-0.11,0
-6.1398e-15,0.010961,0,0.49616,-3.2936e-07,-3.1849e-11,816.29,254.93,-0.49616,0,-984.4,357.44,0,-1701.1,0,-813.51,1096.7,1,1,0.115,0,-0.115,0
-8.0136e-15,0.010991,0,0.47603,-3.1601e-07,-3.056e-11,783.18,244.59,-0.47603,0,-957.55,351.21,0,-1685,0,-800.47,1091.8,1,1,0.12,0,-0.12,0
-1.248e-14,0.011022,0,0.45591,-3.0265e-07,-2.9275e-11,750.07,234.25,-0.45591,0,-930.71,344.99,0,-1668.9,0,-787.42,1086.9,1,1,0.125,0,-0.125,0
-5.3391e-15,0.011052,0,0.43579,-2.8929e-07,-2.7974e-11,716.97,223.91,-0.43579,0,-903.86,338.76,0,-1652.8,0,-774.37,1082,1,1,0.13,0,-0.13,0
-5.0922e-15,0.011083,0,0.41567,-2.7593e-07,-2.6682e-11,683.86,213.57,-0.41567,0,-877.01,332.53,0,-1636.7,0,-761.33,1077,1,1,0.135,0,-0.135,0
-4.8454e-15,0.011114,0,0.39555,-2.6257e-07,-2.539e-11,650.76,203.24,-0.39555,0,-850.16,326.3,0,-1620.6,0,-748.28,1072.1,1,1,0.14,0,-0.14,0
-4.5985e-15,0.011144,0,0.37542,-2.4922e-07,-2.4099e-11,617.65,192.9,-0.37542,0,-823.31,320.07,0,-1604.5,0,-735.23,1067.2,1,1,0.145,0,-0.145,0
-4.3517e-15,0.011175,0,0.3553,-2.3586e-07,-2.2807e-11,584.55,182.56,-0.3553,0,-796.46,313.84,0,-1588.4,0,-722.18,1062.3,1,1,0.15,0,-0.15,0
-4.105e-15,0.011205,0,0.33518,-2.225e-07,-2.1515e-11,551.44,172.22,-0.33518,0,-769.61,307.61,0,-1572.3,0,-709.14,1057.3,1,1,0.155,0,-0.155,0
-3.8582e-15,0.011236,0,0.31506,-2.0914e-07,-2.0224e-11,518.34,161.88,-0.31506,0,-742.76,301.39,0,-1556.2,0,-696.09,1052.4,1,1,0.16,0,-0.16,0
-3.6115e-15,0.011266,0,0.29493,-1.9579e-07,-1.8932e-11,485.23,151.54,-0.29493,0,-715.91,295.16,0,-1540.2,0,-683.04,1047.5,1,1,0.165,0,-0.165,0
-3.3649e-15,0.011297,0,0.27481,-1.8243e-07,-1.764e-11,452.13,141.2,-0.27481,0,-689.07,288.93,0,-1524.1,0,-670,1042.6,1,1,0.17,0,-0.17,0
-3.1183e-15,0.011328,0,0.25469,-1.6907e-07,-1.6349e-11,419.02,130.86,-0.25469,0,-662.22,282.7,0,-1508,0,-656.95,1037.6,1,1,0.175,0,-0.175,0
-2.8717e-15,0.011358,0,0.23457,-1.5571e-07,-1.5057e-11,385.91,120.52,-0.23457,0,-635.37,276.47,0,-1491.9,0,-643.9,1032.7,1,1,0.18,0,-0.18,0
-2.6252e-15,0.011389,0,0.21445,-1.4236e-07,-1.3765e-11,352.81,110.18,-0.21445,0,-608.52,270.24,0,-1475.8,0,-630.86,1027.8,1,1,0.185,0,-0.185,0
-2.3787e-15,0.011419,0,0.19432,-1.29e-07,-1.2474e-11,319.7,99.845,-0.19432,0,-581.67,264.02,0,-1459.7,0,-617.81,1022.9,1,1,0.19,0,-0.19,0
-2.1322e-15,0.01145,0,0.1742,-1.1564e-07,-1.1182e-11,286.6,89.506,-0.1742,0,-554.82,257.79,0,-1443.6,0,-604.76,1017.9,1,1,0.195,0,-0.195,0
-1.8857e-15,0.01148,0,0.15408,-1.0228e-07,-9.8904e-12,253.49,79.167,-0.15408,0,-527.97,251.56,0,-1427.5,0,-591.71,1013,1,1,0.2,0,-0.2,0
-1.6394e-15,0.011511,0,0.13396,-8.8924e-08,-8.5988e-12,220.39,68.828,-0.13396,0,-501.12,245.33,0,-1411.4,0,-578.67,1008.1,1,1,0.205,0,-0.205,0
-1.393e-15,0.011541,0,0.11383,-7.5566e-08,-7.3071e-12,187.28,58.489,-0.11383,0,-474.27,239.1,0,-1395.3,0,-565.62,1003.2,1,1,0.21,0,-0.21,0
-1.1467e-15,0.011572,0,0.093712,-6.2209e-08,-6.0154e-12,154.18,48.15,-0.093712,0,-447.43,232.87,0,-1379.2,0,-552.57,998.24,1,1,0.215,0,-0.215,0
-9.0038e-16,0.011603,0,0.07359,-4.8851e-08,-4.7238e-12,121.07,37.811,-0.07359,0,-420.58,226.64,0,-1363.2,0,-539.53,993.31,1,1,0.22,0,-0.22,0
-6.5412e-16,0.011633,0,0.053468,-3.5493e-08,-3.4321e-12,87.966,27.472,-0.053468,0,-393.73,220.42,0,-1347.1,0,-526.48,988.39,1,1,0.225,0,-0.225,0
-4.0791e-16,0.011664,0,0.033345,-2.2136e-08,-2.1405e-12,54.86,17.133,-0.033345,0,-366.88,214.19,0,-1331,0,-513.43,983.46,1,1,0.23,0,-0.23,0
-1.6173e-16,0.011694,0,0.013223,-8.7779e-09,-8.488e-13,21.755,6.7941,-0.013223,0,-340.03,207.96,0,-1314.9,0,-500.38,978.53,1,1,0.235,0,-0.235,0
1.8764e-20,0.011722,0,0,0,0,0,0,0,0,-321.3,203.06,0,-1301.4,0,-490.6,973.23,1,1,0.24,0,-0.24,0
1.8753e-20,0.011744,0,0,0,0,0,0,0,0,-318.13,200.72,0,-1293,0,-487.08,967.2,1,1,0.245,0,-0.245,0
1.8742e-20,0.011767,0,0,0,0,0,0,0,0,-314.96,198.37,0,-1284.5,0,-483.56,961.18,1,1,0.25,0,-0.25,0
1.8732e-20,0.011789,0,0,0,0,0,0,0,0,-311.79,196.02,0,-1276.1,0,-480.04,955.15,1,1,0.255,0,-0.255,0
1.8721e-20,0.011811,0,0,0,0,0,0,0,0,-308.62,193.68,0,-1267.7,0,-476.52,949.12,1,1,0.26,0,-0.26,0
1.8711e-20,0.011833,0,0,0,0,0,0,0,0,-305.45,191.33,0,-1259.2,0,-473,943.1,1,1,0.265,0,-0.265,0
1.87e-20,0.011856,0,0,0,0,0,0,0,0,-302.28,188.98,0,-1250.8,0,-469.48,937.07,1,1,0.27,0,-0.27,0
1.8689e-20,0.011878,0,0,0,0,0,0,0,0,-299.1,186.64,0,-1242.4,0,-465.96,931.04,1,1,0.275,0,-0.275,0
1.8679e-20,0.0119,0,0,0,0,0,0,0,0,-295.93,184.29,0,-1233.9,0,-462.44,925.02,1,1,0.28,0,-0.28,0
1.8668e-20,0.011923,0,0,0,0,0,0,0,0,-292.76,181.94,0,-1225.5,0,-458.92,918.99,1,1,0.285,0,-0.285,0
1.8658e-20,0.011945,0,0,0,0,0,0,0,0,-289.59,179.6,0,-1217,0,-455.4,912.96,1,1,0.29,0,-0.29,0
1.8647e-20,0.011967,0,0,0,0,0,0,0,0,-286.42,177.25,0,-1208.6,0,-451.88,906.94,1,1,0.295,0,-0.295,0
1.8636e-20,0.01199,0,0,0,0,0,0,0,0,-283.25,174.9,0,-1200.2,0,-448.36,900.91,1,1,0.3,0,-0.3,0
1.8626e-20,0.012012,0,0,0,0,0,0,0,0,-280.08,172.55,0,-1191.7,0,-444.84,894.88,1,1,0.305,0,-0.305,0
1.8615e-20,0.012034,0,0,0,0,0,0,0,0,-276.91,170.21,0,-1183.3,0,-441.32,888.85,1,1,0.31,0,-0.31,0
1.8604e-20,0.012057,0,0,0,0,0,0,0,0,-273.74,167.86,0,-1174.8,0,-437.79,882.83,1,1,0.315,0,-0.315,0
1.8594e-20,0.012079,0,0,0,0,0,0,0,0,-270.57,165.51,0,-1166.4,0,-434.27,876.8,1,1,0.32,0,-0.32,0
1.8583e-20,0.012101,0,0,0,0,0,0,0,0,-267.4,163.17,0,-1158,0,-430.75,870.77,1,1,0.325,0,-0.325,0
1.8573e-20,0.012123,0,0,0,0,0,0,0,0,-264.23,160.82,0,-1149.5,0,-427.23,864.75,1,1,0.33,0,-0.33,0
1.8562e-20,0.012146,0,0,0,0,0,0,0,0,-261.06,158.47,0,-1141.1,0,-423.71,858.72,1,1,0.335,0,-0.335,0
1.8551e-20,0.012168,0,0,0,0,0,0,0,0,-257.89,156.13,0,-1132.7,0,-420.19,852.69,1,1,0.34,0,-0.34,0
2.1592e-17,0.01219,0,0,0,0,0,0,0,0,-254.72,153.78,0,-1124.2,0,-416.67,846.67,1,1,0.345,0,-0.345,0
1.517e-17,0.012213,0,0,0,0,0,0,0,0,-251.54,151.43,0,-1115.8,0,-413.15,840.64,1,1,0.35,0,-0.35,0
9.8607e-18,0.012235,0,0,0,0,0,0,0,0,-248.37,149.09,0,-1107.3,0,-409.63,834.61,1,1,0.355,0,-0.355,0
5.6597e-18,0.012257,0,0,0,0,0,0,0,0,-245.2,146.74,0,-1098.9,0,-406.11,828.59,1,1,0.36,0,-0.36,0
2.6192e-18,0.01228,0,0,0,0,0,0,0,0,-242.03,144.39,0,-1090.5,0,-402.59,822.56,1,1,0.365,0,-0.365,0
7.3411e-19,0.012302,0,0,0,0,0,0,0,0,-238.86,142.05,0,-1082,0,-399.07,816.53,1,1,0.37,0,-0.37,0
1.8477e-20,0.012324,0,0,0,0,0,0,0,0,-235.69,139.7,0,-1073.6,0,-395.55,810.51,1,1,0.375,0,-0.375,0
4.8634e-19,0.012347,0,0,0,0,0,0,0,0,-232.52,137.35,0,-1065.1,0,-392.03,804.48,1,1,0.38,0,-0.38,0
2.1713e-18,0.012369,0,0,0,0,0,0,0,0,-229.35,135.01,0,-1056.7,0,-388.51,798.45,1,1,0.385,0,-0.385,0
5.0484e-18,0.012391,0,0,0,0,0,0,0,0,-226.18,132.66,0,-1048.3,0,-384.99,792.42,1,1,0.39,0,-0.39,0
9.1511e-18,0.012413,0,0,0,0,0,0,0,0,-223.01,130.31,0,-1039.8,0,-381.47,786.4,1,1,0.395,0,-0.395,0
1.4513e-17,0.012436,0,0,0,0,0,0,0,0,-219.84,127.97,0,-1031.4,0,-377.95,780.37,1,1,0.4,0,-0.4,0
2.1109e-17,0.012458,0,0,0,0,0,0,0,0,-216.67,125.62,0,-1023,0,-374.42,774.34,1,1,0.405,0,-0.405,0
1.8403e-20,0.01248,0,0,0,0,0,0,0,0,-213.5,123.27,0,-1014.5,0,-370.9,768.32,1,1,0.41,0,-0.41,0
1.8392e-20,0.012503,0,0,0,0,0,0,0,0,-210.33,120.93,0,-1006.1,0,-367.38,762.29,1,1,0.415,0,-0.415,0
1.8382e-20,0.012525,0,0,0,0,0,0,0,0,-207.16,118.58,0,-997.64,0,-363.86,756.26,1,1,0.42,0,-0.42,0
1.8371e-20,0.012547,0,0,0,0,0,0,0,0,-203.98,116.23,0,-989.2,0,-360.34,750.24,1,1,0.425,0,-0.425,0
1.836e-20,0.01257,0,0,0,0,0,0,0,0,-200.81,113.89,0,-980.77,0,-356.82,744.21,1,1,0.43,0,-0.43,0
1.835e-20,0.012592,0,0,0,0,0,0,0,0,-197.64,111.54,0,-972.33,0,-353.3,738.18,1,1,0.435,0,-0.435,0
1.8339e-20,0.012614,0,0,0,0,0,0,0,0,-194.47,109.19,0,-963.89,0,-349.78,732.16,1,1,0.44,0,-0.44,0
1.8329e-20,0.012637,0,0,0,0,0,0,0,0,-191.3,106.85,0,-955.45,0,-346.26,726.13,1,1,0.445,0,-0.445,0
1.8318e-20,0.012659,0,0,0,0,0,0,0,0,-188.13,104.5,0,-947.01,0,-342.74,720.1,1,1,0.45,0,-0.45,0
1.8307e-20,0.012681,0,0,0,0,0,0,0,0,-184.96,102.15,0,-938.58,0,-339.22,714.07,1,1,0.455,0,-0.455,0
1.8297e-20,0.012703,0,0,0,0,0,0,0,0,-181.79,99.808,0,-930.14,0,-335.7,708.05,1,1,0.46,0,-0.46,0
1.8286e-20,0.012726,0,0,0,0,0,0,0,0,-178.62,97.461,0,-921.7,0,-332.18,702.02,1,1,0.465,0,-0.465,0
1.8275e-20,0.012748,0,0,0,0,0,0,0,0,-175.45,95.114,0,-913.26,0,-328.66,695.99,1,1,0.47,0,-0.47,0
1.8265e-20,0.01277,0,0,0,0,0,0,0,0,-172.28,92.767,0,-904.82,0,-325.14,689.97,1,1,0.475,0,-0.475,0
1.8254e-20,0.012793,0,0,0,0,0,0,0,0,-169.11,90.421,0,-896.38,0,-321.62,683.94,1,1,0.48,0,-0.48,0
1.8244e-20,0.012815,0,0,0,0,0,0,0,0,-165.94,88.074,0,-887.95,0,-318.1,677.91,1,1,0.485,0,-0.485,0
1.8233e-20,0.012837,0,0,0,0,0,0,0,0,-162.77,85.727,0,-879.51,0,-314.57,671.89,1,1,0.49,0,-0.49,0
1.8222e-20,0.01286,0,0,0,0,0,0,0,0,-159.6,83.381,0,-871.07,0,-311.05,665.86,1,1,0.495,0,-0.495,0
1.8212e-20,0.012882,0,0,0,0,0,0,0,0,-156.42,81.034,0,-862.63,0,-307.53,659.83,1,1,0.5,0,-0.5,0
1.8201e-20,0.012904,0,0,0,0,0,0,0,0,-153.25,78.687,0,-854.19,0,-304.01,653.81,1,1,0.505,0,-0.505,0
1.8191e-20,0.012926,0,0,0,0,0,0,0,0,-150.08,76.341,0,-845.76,0,-300.49,647.78,1,1,0.51,0,-0.51,0
1.818e-20,0.012945,0,0,0,0,0,0,0,0,-147.87,74.754,0,-839.03,0,-297.78,642.92,1,1,0.515,0,-0.515,0
1.8171e-20,0.01296,0,0,0,0,0,0,0,0,-146.83,74.108,0,-834.44,0,-296.08,639.5,1,1,0.52,0,-0.52,0
1.8161e-20,0.012975,0,0,0,0,0,0,0,0,-145.79,73.461,0,-829.84,0,-294.37,636.08,1,1,0.525,0,-0.525,0
1.8152e-20,0.012989,0,0,0,0,0,0,0,0,-144.75,72.815,0,-825.24,0,-292.66,632.66,1,1,0.53,0,-0.53,0
1.8142e-20,0.013004,0,0,0,0,0,0,0,0,-143.71,72.168,0,-820.65,0,-290.95,629.25,1,1,0.535,0,-0.535,0
1.8133e-20,0.013019,0,0,0,0,0,0,0,0,-142.67,71.521,0,-816.05,0,-289.25,625.83,1,1,0.54,0,-0.54,0
1.8123e-20,0.013033,0,0,0,0,0,0,0,0,-141.63,70.875,0,-811.45,0,-287.54,622.41,1,1,0.545,0,-0.545,0
1.8113e-20,0.013048,0,0,0,0,0,0,0,0,-140.59,70.228,0,-806.86,0,-285.83,618.99,1,1,0.55,0,-0.55,0
1.8104e-20,0.013063,0,0,0,0,0,0,0,0,-139.55,69.582,0,-802.26,0,-284.12,615.57,1,1,0.555,0,-0.555,0
1.8094e-20,0.013077,0,0,0,0,0,0,0,0,-138.51,68.935,0,-797.66,0,-282.42,612.16,1,1,0.56,0,-0.56,0
1.8085e-20,0.013092,0,0,0,0,0,0,0,0,-137.47,68.289,0,-793.07,0,-280.71,608.74,1,1,0.565,0,-0.565,0
6.3159e-17,0.013107,0,0,0,0,0,0,0,0,-136.43,67.642,0,-788.47,0,-279,605.32,1,1,0.57,0,-0.57,0
5.6417e-17,0.013121,0,0,0,0,0,0,0,0,-135.39,66.996,0,-783.87,0,-277.3,601.9,1,1,0.575,0,-0.575,0
5.0068e-17,0.013136,0,0,0,0,0,0,0,0,-134.35,66.349,0,-779.28,0,-275.59,598.49,1,1,0.58,0,-0.58,0
4.4131e-17,0.013151,0,0,0,0,0,0,0,0,-133.31,65.702,0,-774.68,0,-273.88,595.07,1,1,0.585,0,-0.585,0
3.8581e-17,0.013165,0,0,0,0,0,0,0,0,-132.27,65.056,0,-770.08,0,-272.17,591.65,1,1,0.59,0,-0.59,0
3.3414e-17,0.01318,0,0,0,0,0,0,0,0,-131.23,64.409,0,-765.48,0,-270.47,588.23,1,1,0.595,0,-0.595,0
2.8626e-17,0.013195,0,0,0,0,0,0,0,0,-130.19,63.763,0,-760.89,0,-268.76,584.81,1,1,0.6,0,-0.6,0
2.4236e-17,0.013209,0,0,0,0,0,0,0,0,-129.15,63.116,0,-756.29,0,-267.05,581.4,1,1,0.605,0,-0.605,0
2.0217e-17,0.013224,0,0,0,0,0,0,0,0,-128.11,62.47,0,-751.69,0,-265.34,577.98,1,1,0.61,0,-0.61,0
1.6588e-17,0.013239,0,0,0,0,0,0,0,0,-127.07,61.823,0,-747.1,0,-263.64,574.56,1,1,0.615,0,-0.615,0
1.3305e-17,0.013253,0,0,0,0,0,0,0,0,-126.03,61.176,0,-742.5,0,-261.93,571.14,1,1,0.62,0,-0.62,0
1.0403e-17,0.013268,0,0,0,0,0,0,0,0,-124.99,60.53,0,-737.9,0,-260.22,567.72,1,1,0.625,0,-0.625,0
7.8788e-18,0.013283,0,0,0,0,0,0,0,0,-123.95,59.883,0,-733.31,0,-258.52,564.31,1,1,0.63,0,-0.63,0
5.7095e-18,0.013297,0,0,0,0,0,0,0,0,-122.91,59.237,0,-728.71,0,-256.81,560.89,1,1,0.635,0,-0.635,0
3.8912e-18,0.013312,0,0,0,0,0,0,0,0,-121.87,58.59,0,-724.11,0,-255.1,557.47,1,1,0.64,0,-0.64,0
2.4204e-18,0.013327,0,0,0,0,0,0,0,0,-120.83,57.944,0,-719.52,0,-253.39,554.05,1,1,0.645,0,-0.645,0
1.313e-18,0.013341,0,0,0,0,0,0,0,0,-119.79,57.297,0,-714.92,0,-251.69,550.63,1,1,0.65,0,-0.65,0
5.4584e-19,0.013356,0,0,0,0,0,0,0,0,-118.75,56.65,0,-710.32,0,-249.98,547.22,1,1,0.655,0,-0.655,0
1.1532e-19,0.013371,0,0,0,0,0,0,0,0,-117.71,56.004,0,-705.72,0,-248.27,543.8,1,1,0.66,0,-0.66,0
3.7307e-20,0.013385,0,0,0,0,0,0,0,0,-116.67,55.357,0,-701.13,0,-246.56,540.38,1,1,0.665,0,-0.665,0
2.6936e-19,0.0134,0,0,0,0,0,0,0,0,-115.63,54.711,0,-696.53,0,-244.86,536.96,1,1,0.67,0,-0.67,0
8.6595e-19,0.013415,0,0,0,0,0,0,0,0,-114.59,54.064,0,-691.93,0,-243.15,533.54,1,1,0.675,0,-0.675,0
1.7655e-18,0.013429,0,0,0,0,0,0,0,0,-113.55,53.418,0,-687.34,0,-241.44,530.13,1,1,0.68,0,-0.68,0
3.003e-18,0.013444,0,0,0,0,0,0,0,0,-112.51,52.771,0,-682.74,0,-239.74,526.71,1,1,0.685,0,-0.685,0
4.5555e-18,0.013459,0,0,0,0,0,0,0,0,-111.47,52.125,0,-678.14,0,-238.03,523.29,1,1,0.69,0,-0.69,0
6.4385e-18,0.013473,0,0,0,0,0,0,0,0,-110.43,51.478,0,-673.55,0,-236.32,519.87,1,1,0.695,0,-0.695,0
8.6294e-18,0.013488,0,0,0,0,0,0,0,0,-109.39,50.831,0,-668.95,0,-234.61,516.45,1,1,0.7,0,-0.7,0
1.1125e-17,0.013503,0,0,0,0,0,0,0,0,-108.35,50.185,0,-664.35,0,-232.91,513.04,1,1,0.705,0,-0.705,0
1.3939e-17,0.013517,0,0,0,0,0,0,0,0,-107.31,49.538,0,-659.76,0,-231.2,509.62,1,1,0.71,0,-0.71,0
1.7051e-17,0.013532,0,0,0,0,0,0,0,0,-106.27,48.892,0,-655.16,0,-229.49,506.2,1,1,0.715,0,-0.715,0
2.0456e-17,0.013547,0,0,0,0,0,0,0,0,-105.23,48.245,0,-650.56,0,-227.78,502.78,1,1,0.72,0,-0.72,0
2.4151e-17,0.013561,0,0,0,0,0,0,0,0,-104.19,47.599,0,-645.97,0,-226.08,499.36,1,1,0.725,0,-0.725,0
2.8151e-17,0.013576,0,0,0,0,0,0,0,0,-103.15,46.952,0,-641.37,0,-224.37,495.95,1,1,0.73,0,-0.73,0
3.2434e-17,0.01359,0,0,0,0,0,0,0,0,-102.11,46.305,0,-636.77,0,-222.66,492.53,1,1,0.735,0,-0.735,0
3.7015e-17,0.013605,0,0,0,0,0,0,0,0,-101.07,45.659,0,-632.17,0,-220.95,489.11,1,1,0.74,0,-0.74,0
4.1852e-17,0.01362,0,0,0,0,0,0,0,0,-100.03,45.012,0,-627.58,0,-219.25,485.69,1,1,0.745,0,-0.745,0
4.698e-17,0.013634,0,0,0,0,0,0,0,0,-98.988,44.366,0,-622.98,0,-217.54,482.27,1,1,0.75,0,-0.75,0
5.2394e-17,0.013649,0,0,0,0,0,0,0,0,-97.948,43.719,0,-618.38,0,-215.83,478.86,1,1,0.755,0,-0.755,0
5.8073e-17,0.013664,0,0,0,0,0,0,0,0,-96.908,43.073,0,-613.79,0,-214.13,475.44,1,1,0.76,0,-0.76,0
1.7702e-20,0.013678,0,0,0,0,0,0,0,0,-95.868,42.426,0,-609.19,0,-212.42,472.02,1,1,0.765,0,-0.765,0
1.7692e-20,0.013693,0,0,0,0,0,0,0,0,-94.828,41.779,0,-604.59,0,-210.71,468.6,1,1,0.77,0,-0.77,0
1.7683e-20,0.013708,0,0,0,0,0,0,0,0,-93.788,41.133,0,-600,0,-209,465.18,1,1,0.775,0,-0.775,0
1.7673e-20,0.013722,0,0,0,0,0,0,0,0,-92.748,40.486,0,-595.4,0,-207.3,461.77,1,1,0.78,0,-0.78,0
1.7664e-20,0.013737,0,0,0,0,0,0,0,0,-91.708,39.84,0,-590.8,0,-205.59,458.35,1,1,0.785,0,-0.785,0
1.7654e-20,0.013752,0,0,0,0,0,0,0,0,-90.668,39.193,0,-586.21,0,-203.88,454.93,1,1,0.79,0,-0.79,0
1.7644e-20,0.013766,0,0,0,0,0,0,0,0,-89.628,38.547,0,-581.61,0,-202.17,451.51,1,1,0.795,0,-0.795,0
1.7635e-20,0.013781,0,0,0,0,0,0,0,0,-88.589,37.9,0,-577.01,0,-200.47,448.1,1,1,0.8,0,-0.8,0
1.7625e-20,0.013796,0,0,0,0,0,0,0,0,-87.549,37.254,0,-572.41,0,-198.76,444.68,1,1,0.805,0,-0.805,0
1.7616e-20,0.01381,0,0,0,0,0,0,0,0,-86.509,36.607,0,-567.82,0,-197.05,441.26,1,1,0.81,0,-0.81,0
6.4367e-17,0.013825,0,0,0,0,0,0,0,0,-85.507,35.98,0,-563.34,0,-195.39,437.92,1,1,0.815,0,-0.815,0
6.0319e-17,0.013835,0,0,0,0,0,0,0,0,-85.265,35.735,0,-561.17,0,-194.67,436.15,1,1,0.82,0,-0.82,0
5.6404e-17,0.013846,0,0,0,0,0,0,0,0,-85.023,35.491,0,-559,0,-193.94,434.37,1,1,0.825,0,-0.825,0
5.2639e-17,0.013856,0,0,0,0,0,0,0,0,-84.781,35.246,0,-556.83,0,-193.21,432.6,1,1,0.83,0,-0.83,0
4.902e-17,0.013867,0,0,0,0,0,0,0,0,-84.539,35.002,0,-554.67,0,-192.48,430.83,1,1,0.835,0,-0.835,0
4.5547e-17,0.013877,0,0,0,0,0,0,0,0,-84.297,34.757,0,-552.5,0,-191.75,429.05,1,1,0.84,0,-0.84,0
4.2202e-17,0.013887,0,0,0,0,0,0,0,0,-84.055,34.512,0,-550.33,0,-191.03,427.28,1,1,0.845,0,-0.845,0
3.9e-17,0.013898,0,0,0,0,0,0,0,0,-83.813,34.268,0,-548.16,0,-190.3,425.5,1,1,0.85,0,-0.85,0
3.594e-17,0.013908,0,0,0,0,0,0,0,0,-83.571,34.023,0,-545.99,0,-189.57,423.73,1,1,0.855,0,-0.855,0
3.3021e-17,0.013919,0,0,0,0,0,0,0,0,-83.329,33.779,0,-543.83,0,-188.84,421.96,1,1,0.86,0,-0.86,0
3.0223e-17,0.013929,0,0,0,0,0,0,0,0,-83.087,33.534,0,-541.66,0,-188.12,420.18,1,1,0.865,0,-0.865,0
2.7563e-17,0.013939,0,0,0,0,0,0,0,0,-82.846,33.29,0,-539.49,0,-187.39,418.41,1,1,0.87,0,-0.87,0
2.504e-17,0.01395,0,0,0,0,0,0,0,0,-82.604,33.045,0,-537.32,0,-186.66,416.64,1,1,0.875,0,-0.875,0
2.2635e-17,0.01396,0,0,0,0,0,0,0,0,-82.362,32.801,0,-535.16,0,-185.93,414.86,1,1,0.88,0,-0.88,0
2.0363e-17,0.013971,0,0,0,0,0,0,0,0,-82.12,32.556,0,-532.99,0,-185.21,413.09,1,1,0.885,0,-0.885,0
1.8224e-17,0.013981,0,0,0,0,0,0,0,0,-81.878,32.311,0,-530.82,0,-184.48,411.31,1,1,0.89,0,-0.89,0
1.6215e-17,0.013992,0,0,0,0,0,0,0,0,-81.636,32.067,0,-528.65,0,-183.75,409.54,1,1,0.895,0,-0.895,0
1.4336e-17,0.014002,0,0,0,0,0,0,0,0,-81.394,31.822,0,-526.48,0,-183.02,407.77,1,1,0.9,0,-0.9,0
1.2568e-17,0.014012,0,0,0,0,0,0,0,0,-81.152,31.578,0,-524.32,0,-182.29,405.99,1,1,0.905,0,-0.905,0
1.0927e-17,0.014023,0,0,0,0,0,0,0,0,-80.91,31.333,0,-522.15,0,-181.57,404.22,1,1,0.91,0,-0.91,0
9.3958e-18,0.014033,0,0,0,0,0,0,0,0,-80.668,31.089,0,-519.98,0,-180.84,402.45,1,1,0.915,0,-0.915,0
8.0039e-18,0.014044,0,0,0,0,0,0,0,0,-80.426,30.844,0,-517.81,0,-180.11,400.67,1,1,0.92,0,-0.92,0
6.7185e-18,0.014054,0,0,0,0,0,0,0,0,-80.184,30.6,0,-515.64,0,-179.38,398.9,1,1,0.925,0,-0.925,0
5.5542e-18,0.014064,0,0,0,0,0,0,0,0,-79.942,30.355,0,-513.48,0,-178.66,397.12,1,1,0.93,0,-0.93,0
4.4938e-18,0.014075,0,0,0,0,0,0,0,0,-79.7,30.111,0,-511.31,0,-177.93,395.35,1,1,0.935,0,-0.935,0
3.5675e-18,0.014085,0,0,0,0,0,0,0,0,-79.458,29.866,0,-509.14,0,-177.2,393.58,1,1,0.94,0,-0.94,0
2.7425e-18,0.014096,0,0,0,0,0,0,0,0,-79.216,29.621,0,-506.97,0,-176.47,391.8,1,1,0.945,0,-0.945,0
2.0329e-18,0.014106,0,0,0,0,0,0,0,0,-78.974,29.377,0,-504.81,0,-175.75,390.03,1,1,0.95,0,-0.95,0
1.4221e-18,0.014117,0,0,0,0,0,0,0,0,-78.732,29.132,0,-502.64,0,-175.02,388.26,1,1,0.955,0,-0.955,0
9.3952e-19,0.014127,0,0,0,0,0,0,0,0,-78.49,28.888,0,-500.47,0,-174.29,386.48,1,1,0.96,0,-0.96,0
5.5291e-19,0.014137,0,0,0,0,0,0,0,0,-78.248,28.643,0,-498.3,0,-173.56,384.71,1,1,0.965,0,-0.965,0
2.6108e-19,0.014148,0,0,0,0,0,0,0,0,-78.006,28.399,0,-496.13,0,-172.83,382.94,1,1,0.97,0,-0.97,0
9.3154e-20,0.014158,0,0,0,0,0,0,0,0,-77.764,28.154,0,-493.97,0,-172.11,381.16,1,1,0.975,0,-0.975,0
1.7309e-20,0.014169,0,0,0,0,0,0,0,0,-77.522,27.91,0,-491.8,0,-171.38,379.39,1,1,0.98,0,-0.98,0
4.7365e-20,0.014179,0,0,0,0,0,0,0,0,-77.28,27.665,0,-489.63,0,-170.65,377.61,1,1,0.985,0,-0.985,0
1.819e-19,0.014189,0,0,0,0,0,0,0,0,-77.038,27.42,0,-487.46,0,-169.92,375.84,1,1,0.99,0,-0.99,0
4.0461e-19,0.0142,0,0,0,0,0,0,0,0,-76.796,27.176,0,-485.29,0,-169.2,374.07,1,1,0.995,0,-0.995,0
7.291e-19,0.01421,0,0,0,0,0,0,0,0,-76.554,26.931,0,-483.13,0,-168.47,372.29,1,1,1,0,-1,0
1.154e-18,0.014221,0,0,0,0,0,0,0,0,-76.312,26.687,0,-480.96,0,-167.74,370.52,1,1,1.005,0,-1.005,0
1.6778e-18,0.014231,0,0,0,0,0,0,0,0,-76.071,26.442,0,-478.79,0,-167.01,368.75,1,1,1.01,0,-1.01,0
2.2845e-18,0.014242,0,0,0,0,0,0,0,0,-75.829,26.198,0,-476.62,0,-166.29,366.97,1,1,1.015,0,-1.015,0
3.002e-18,0.014252,0,0,0,0,0,0,0,0,-75.587,25.953,0,-474.45,0,-165.56,365.2,1,1,1.02,0,-1.02,0
3.7998e-18,0.014262,0,0,0,0,0,0,0,0,-75.345,25.709,0,-472.29,0,-164.83,363.42,1,1,1.025,0,-1.025,0
4.6765e-18,0.014273,0,0,0,0,0,0,0,0,-75.103,25.464,0,-470.12,0,-164.1,361.65,1,1,1.03,0,-1.03,0
5.6454e-18,0.014283,0,0,0,0,0,0,0,0,-74.861,25.219,0,-467.95,0,-163.38,359.88,1,1,1.035,0,-1.035,0
6.7192e-18,0.014294,0,0,0,0,0,0,0,0,-74.619,24.975,0,-465.78,0,-162.65,358.1,1,1,1.04,0,-1.04,0
7.8538e-18,0.014304,0,0,0,0,0,0,0,0,-74.377,24.73,0,-463.62,0,-161.92,356.33,1,1,1.045,0,-1.045,0
9.0906e-18,0.014314,0,0,0,0,0,0,0,0,-74.135,24.486,0,-461.45,0,-161.19,354.56,1,1,1.05,0,-1.05,0
1.04e-17,0.014325,0,0,0,0,0,0,0,0,-73.893,24.241,0,-459.28,0,-160.46,352.78,1,1,1.055,0,-1.055,0
1.1794e-17,0.014335,0,0,0,0,0,0,0,0,-73.651,23.997,0,-457.11,0,-159.74,351.01,1,1,1.06,0,-1.06,0
1.3272e-17,0.014346,0,0,0,0,0,0,0,0,-73.409,23.752,0,-454.94,0,-159.01,349.23,1,1,1.065,0,-1.065,0
1.4833e-17,0.014356,0,0,0,0,0,0,0,0,-73.167,23.508,0,-452.78,0,-158.28,347.46,1,1,1.07,0,-1.07,0
1.646e-17,0.014367,0,0,0,0,0,0,0,0,-72.925,23.263,0,-450.61,0,-157.55,345.69,1,1,1.075,0,-1.075,0
1.8168e-17,0.014377,0,0,0,0,0,0,0,0,-72.683,23.019,0,-448.44,0,-156.83,343.91,1,1,1.08,0,-1.08,0
1.9953e-17,0.014387,0,0,0,0,0,0,0,0,-72.441,22.774,0,-446.27,0,-156.1,342.14,1,1,1.085,0,-1.085,0
2.1802e-17,0.014398,0,0,0,0,0,0,0,0,-72.199,22.529,0,-444.1,0,-155.37,340.37,1,1,1.09,0,-1.09,0
2.3726e-17,0.014408,0,0,0,0,0,0,0,0,-71.957,22.285,0,-441.94,0,-154.64,338.59,1,1,1.095,0,-1.095,0
2.5724e-17,0.014419,0,0,0,0,0,0,0,0,-71.715,22.04,0,-439.77,0,-153.92,336.82,1,1,1.1,0,-1.1,0
2.7795e-17,0.014429,0,0,0,0,0,0,0,0,-71.473,21.796,0,-437.6,0,-153.19,335.04,1,1,1.105,0,-1.105,0
2.9924e-17,0.014439,0,0,0,0,0,0,0,0,-71.231,21.551,0,-435.43,0,-152.46,333.27,1,1,1.11,0,-1.11,0
3.2123e-17,0.01445,0,0,0,0,0,0,0,0,-70.989,21.307,0,-433.27,0,-151.73,331.5,1,1,1.115,0,-1.115,0
3.4391e-17,0.01446,0,0,0,0,0,0,0,0,-70.747,21.062,0,-431.1,0,-151,329.72,1,1,1.12,0,-1.12,0
3.6726e-17,0.014471,0,0,0,0,0,0,0,0,-70.505,20.818,0,-428.93,0,-150.28,327.95,1,1,1.125,0,-1.125,0
3.9113e-17,0.014481,0,0,0,0,0,0,0,0,-70.263,20.573,0,-426.76,0,-149.55,326.18,1,1,1.13,0,-1.13,0
4.1565e-17,0.014492,0,0,0,0,0,0,0,0,-70.021,20.328,0,-424.59,0,-148.82,324.4,1,1,1.135,0,-1.135,0
4.408e-17,0.014502,0,0,0,0,0,0,0,0,-69.779,20.084,0,-422.43,0,-148.09,322.63,1,1,1.14,0,-1.14,0
4.6657e-17,0.014512,0,0,0,0,0,0,0,0,-69.537,19.839,0,-420.26,0,-147.37,320.86,1,1,1.145,0,-1.145,0
1.2603e-17,0.014521,0,0,0,0,0,0,0,0,-69.354,19.67,0,-418.55,0,-146.8,319.46,1,1,1.15,0,-1.15,0
1.188e-17,0.014529,0,0,0,0,0,0,0,0,-69.221,19.564,0,-417.23,0,-146.36,318.38,1,1,1.155,0,-1.155,0
1.1175e-17,0.014537,0,0,0,0,0,0,0,0,-69.089,19.458,0,-415.91,0,-145.92,317.3,1,1,1.16,0,-1.16,0
1.0487e-17,0.014545,0,0,0,0,0,0,0,0,-68.956,19.352,0,-414.59,0,-145.48,316.22,1,1,1.165,0,-1.165,0
9.8292e-18,0.014553,0,0,0,0,0,0,0,0,-68.823,19.246,0,-413.28,0,-145.04,315.15,1,1,1.17,0,-1.17,0
9.1887e-18,0.01456,0,0,0,0,0,0,0,0,-68.69,19.14,0,-411.96,0,-144.61,314.07,1,1,1.175,0,-1.175,0
8.5777e-18,0.014568,0,0,0,0,0,0,0,0,-68.557,19.034,0,-410.64,0,-144.17,312.99,1,1,1.18,0,-1.18,0
7.9836e-18,0.014576,0,0,0,0,0,0,0,0,-68.424,18.928,0,-409.32,0,-143.73,311.91,1,1,1.185,0,-1.185,0
7.4187e-18,0.014584,0,0,0,0,0,0,0,0,-68.291,18.822,0,-408,0,-143.29,310.83,1,1,1.19,0,-1.19,0
6.8701e-18,0.014591,0,0,0,0,0,0,0,0,-68.158,18.716,0,-406.69,0,-142.86,309.76,1,1,1.195,0,-1.195,0
6.3502e-18,0.014599,0,0,0,0,0,0,0,0,-68.025,18.611,0,-405.37,0,-142.42,308.68,1,1,1.2,0,-1.2,0
5.8587e-18,0.014607,0,0,0,0,0,0,0,0,-67.892,18.505,0,-404.05,0,-141.98,307.6,1,1,1.205,0,-1.205,0
5.3708e-18,0.014615,0,0,0,0,0,0,0,0,-67.759,18.399,0,-402.73,0,-141.54,306.52,1,1,1.21,0,-1.21,0
4.923e-18,0.014623,0,0,0,0,0,0,0,0,-67.626,18.293,0,-401.41,0,-141.1,305.45,1,1,1.215,0,-1.215,0
4.4907e-18,0.01463,0,0,0,0,0,0,0,0,-67.494,18.187,0,-400.09,0,-140.67,304.37,1,1,1.22,0,-1.22,0
4.0738e-18,0.014638,0,0,0,0,0,0,0,0,-67.361,18.081,0,-398.78,0,-140.23,303.29,1,1,1.225,0,-1.225,0
3.684e-18,0.014646,0,0,0,0,0,0,0,0,-67.228,17.975,0,-397.46,0,-139.79,302.21,1,1,1.23,0,-1.23,0
3.3212e-18,0.014654,0,0,0,0,0,0,0,0,-67.095,17.869,0,-396.14,0,-139.35,301.13,1,1,1.235,0,-1.235,0
2.9731e-18,0.014662,0,0,0,0,0,0,0,0,-66.962,17.763,0,-394.82,0,-138.91,300.06,1,1,1.24,0,-1.24,0
2.6396e-18,0.014669,0,0,0,0,0,0,0,0,-66.829,17.657,0,-393.5,0,-138.48,298.98,1,1,1.245,0,-1.245,0
2.3324e-18,0.014677,0,0,0,0,0,0,0,0,-66.696,17.551,0,-392.19,0,-138.04,297.9,1,1,1.25,0,-1.25,0
2.0393e-18,0.014685,0,0,0,0,0,0,0,0,-66.563,17.445,0,-390.87,0,-137.6,296.82,1,1,1.255,0,-1.255,0
1.7721e-18,0.014693,0,0,0,0,0,0,0,0,-66.43,17.34,0,-389.55,0,-137.16,295.75,1,1,1.26,0,-1.26,0
1.5304e-18,0.0147,0,0,0,0,0,0,0,0,-66.297,17.234,0,-388.23,0,-136.73,294.67,1,1,1.265,0,-1.265,0
1.3023e-18,0.014708,0,0,0,0,0,0,0,0,-66.164,17.128,0,-386.91,0,-136.29,293.59,1,1,1.27,0,-1.27,0
1.0992e-18,0.014716,0,0,0,0,0,0,0,0,-66.031,17.022,0,-385.59,0,-135.85,292.51,1,1,1.275,0,-1.275,0
9.0936e-19,0.014724,0,0,0,0,0,0,0,0,-65.899,16.916,0,-384.28,0,-135.41,291.43,1,1,1.28,0,-1.28,0
7.3255e-19,0.014732,0,0,0,0,0,0,0,0,-65.766,16.81,0,-382.96,0,-134.97,290.36,1,1,1.285,0,-1.285,0
5.8016e-19,0.014739,0,0,0,0,0,0,0,0,-65.633,16.704,0,-381.64,0,-134.54,289.28,1,1,1.29,0,-1.29,0
4.5188e-19,0.014747,0,0,0,0,0,0,0,0,-65.5,16.598,0,-380.32,0,-134.1,288.2,1,1,1.295,0,-1.295,0
3.3605e-19,0.014755,0,0,0,0,0,0,0,0,-65.367,16.492,0,-379,0,-133.66,287.12,1,1,1.3,0,-1.3,0
2.3252e-19,0.014763,0,0,0,0,0,0,0,0,-65.234,16.386,0,-377.69,0,-133.22,286.04,1,1,1.305,0,-1.305,0
1.5245e-19,0.014771,0,0,0,0,0,0,0,0,-65.101,16.28,0,-376.37,0,-132.79,284.97,1,1,1.31,0,-1.31,0
9.5563e-20,0.014778,0,0,0,0,0,0,0,0,-64.968,16.175,0,-375.05,0,-132.35,283.89,1,1,1.315,0,-1.315,0
5.0365e-20,0.014786,0,0,0,0,0,0,0,0,-64.835,16.069,0,-373.73,0,-131.91,282.81,1,1,1.32,0,-1.32,0
2.7879e-20,0.014794,0,0,0,0,0,0,0,0,-64.702,15.963,0,-372.41,0,-131.47,281.73,1,1,1.325,0,-1.325,0
1.6703e-20,0.014802,0,0,0,0,0,0,0,0,-64.569,15.857,0,-371.09,0,-131.03,280.66,1,1,1.33,0,-1.33,0
2.7769e-20,0.01481,0,0,0,0,0,0,0,0,-64.436,15.751,0,-369.78,0,-130.6,279.58,1,1,1.335,0,-1.335,0
4.9766e-20,0.014817,0,0,0,0,0,0,0,0,-64.304,15.645,0,-368.46,0,-130.16,278.5,1,1,1.34,0,-1.34,0
8.2555e-20,0.014825,0,0,0,0,0,0,0,0,-64.171,15.539,0,-367.14,0,-129.72,277.42,1,1,1.345,0,-1.345,0
1.4786e-19,0.014833,0,0,0,0,0,0,0,0,-64.038,15.433,0,-365.82,0,-129.28,276.34,1,1,1.35,0,-1.35,0
2.126e-19,0.014841,0,0,0,0,0,0,0,0,-63.905,15.327,0,-364.5,0,-128.85,275.27,1,1,1.355,0,-1.355,0
3.0928e-19,0.014848,0,0,0,0,0,0,0,0,-63.772,15.221,0,-363.19,0,-128.41,274.19,1,1,1.36,0,-1.36,0
4.0512e-19,0.014856,0,0,0,0,0,0,0,0,-63.639,15.115,0,-361.87,0,-127.97,273.11,1,1,1.365,0,-1.365,0
5.3234e-19,0.014864,0,0,0,0,0,0,0,0,-63.506,15.009,0,-360.55,0,-127.53,272.03,1,1,1.37,0,-1.37,0
6.5844e-19,0.014872,0,0,0,0,0,0,0,0,-63.373,14.904,0,-359.23,0,-127.09,270.96,1,1,1.375,0,-1.375,0
8.1535e-19,0.01488,0,0,0,0,0,0,0,0,-63.24,14.798,0,-357.91,0,-126.66,269.88,1,1,1.38,0,-1.38,0
9.7084e-19,0.014887,0,0,0,0,0,0,0,0,-63.107,14.692,0,-356.59,0,-126.22,268.8,1,1,1.385,0,-1.385,0
1.1566e-18,0.014895,0,0,0,0,0,0,0,0,-62.974,14.586,0,-355.28,0,-125.78,267.72,1,1,1.39,0,-1.39,0
1.3406e-18,0.014903,0,0,0,0,0,0,0,0,-62.841,14.48,0,-353.96,0,-125.34,266.64,1,1,1.395,0,-1.395,0
1.5544e-18,0.014911,0,0,0,0,0,0,0,0,-62.708,14.374,0,-352.64,0,-124.91,265.57,1,1,1.4,0,-1.4,0
1.7662e-18,0.014919,0,0,0,0,0,0,0,0,-62.576,14.268,0,-351.32,0,-124.47,264.49,1,1,1.405,0,-1.405,0
2.007e-18,0.014926,0,0,0,0,0,0,0,0,-62.443,14.162,0,-350,0,-124.03,263.41,1,1,1.41,0,-1.41,0
2.256e-18,0.014934,0,0,0,0,0,0,0,0,-62.31,14.056,0,-348.69,0,-123.59,262.33,1,1,1.415,0,-1.415,0
2.5128e-18,0.014942,0,0,0,0,0,0,0,0,-62.177,13.95,0,-347.37,0,-123.15,261.25,1,1,1.42,0,-1.42,0
2.7877e-18,0.01495,0,0,0,0,0,0,0,0,-62.044,13.844,0,-346.05,0,-122.72,260.18,1,1,1.425,0,-1.425,0
3.0701e-18,0.014957,0,0,0,0,0,0,0,0,-61.911,13.739,0,-344.73,0,-122.28,259.1,1,1,1.43,0,-1.43,0
3.37e-18,0.014965,0,0,0,0,0,0,0,0,-61.778,13.633,0,-343.41,0,-121.84,258.02,1,1,1.435,0,-1.435,0
3.6771e-18,0.014973,0,0,0,0,0,0,0,0,-61.645,13.527,0,-342.1,0,-121.4,256.94,1,1,1.44,0,-1.44,0
4.0013e-18,0.014981,0,0,0,0,0,0,0,0,-61.512,13.421,0,-340.78,0,-120.97,255.87,1,1,1.445,0,-1.445,0
4.3422e-18,0.014989,0,0,0,0,0,0,0,0,-61.379,13.315,0,-339.46,0,-120.53,254.79,1,1,1.45,0,-1.45,0
4.6897e-18,0.014996,0,0,0,0,0,0,0,0,-61.246,13.209,0,-338.14,0,-120.09,253.71,1,1,1.455,0,-1.455,0
5.0436e-18,0.015004,0,0,0,0,0,0,0,0,-61.113,13.103,0,-336.82,0,-119.65,252.63,1,1,1.46,0,-1.46,0
5.4136e-18,0.015012,0,0,0,0,0,0,0,0,-60.981,12.997,0,-335.5,0,-119.21,251.55,1,1,1.465,0,-1.465,0
5.7897e-18,0.01502,0,0,0,0,0,0,0,0,-60.848,12.891,0,-334.19,0,-118.78,250.48,1,1,1.47,0,-1.47,0
6.1814e-18,0.015028,0,0,0,0,0,0,0,0,-60.715,12.785,0,-332.87,0,-118.34,249.4,1,1,1.475,0,-1.475,0
6.5884e-18,0.015035,0,0,0,0,0,0,0,0,-60.582,12.679,0,-331.55,0,-117.9,248.32,1,1,1.48,0,-1.48,0
7.0009e-18,0.015043,0,0,0,0,0,0,0,0,-60.449,12.573,0,-330.23,0,-117.46,247.24,1,1,1.485,0,-1.485,0
7.4186e-18,0.015051,0,0,0,0,0,0,0,0,-60.316,12.468,0,-328.91,0,-117.03,246.17,1,1,1.49,0,-1.49,0
7.8511e-18,0.015059,0,0,0,0,0,0,0,0,-60.183,12.362,0,-327.6,0,-116.59,245.09,1,1,1.495,0,-1.495,0
8.298e-18,0.015067,0,0,0,0,0,0,0,0,-60.05,12.256,0,-326.28,0,-116.15,244.01,1,1,1.5,0,-1.5,0
8.7495e-18,0.015074,0,0,0,0,0,0,0,0,-59.917,12.15,0,-324.96,0,-115.71,242.93,1,1,1.505,0,-1.505,0
9.2056e-18,0.015082,0,0,0,0,0,0,0,0,-59.784,12.044,0,-323.64,0,-115.27,241.85,1,1,1.51,0,-1.51,0
2.531e-18,0.015089,0,0,0,0,0,0,0,0,-59.671,11.955,0,-322.49,0,-114.89,240.91,1,1,1.515,0,-1.515,0
2.4011e-18,0.015095,0,0,0,0,0,0,0,0,-59.598,11.903,0,-321.68,0,-114.63,240.25,1,1,1.52,0,-1.52,0
2.2719e-18,0.015101,0,0,0,0,0,0,0,0,-59.525,11.851,0,-320.88,0,-114.36,239.59,1,1,1.525,0,-1.525,0
2.1529e-18,0.015107,0,0,0,0,0,0,0,0,-59.452,11.798,0,-320.07,0,-114.1,238.93,1,1,1.53,0,-1.53,0
2.0253e-18,0.015113,0,0,0,0,0,0,0,0,-59.379,11.746,0,-319.27,0,-113.83,238.26,1,1,1.535,0,-1.535,0
1.9078e-18,0.01512,0,0,0,0,0,0,0,0,-59.306,11.694,0,-318.46,0,-113.57,237.6,1,1,1.54,0,-1.54,0
1.8003e-18,0.015126,0,0,0,0,0,0,0,0,-59.233,11.641,0,-317.65,0,-113.3,236.94,1,1,1.545,0,-1.545,0
1.6934e-18,0.015132,0,0,0,0,0,0,0,0,-59.16,11.589,0,-316.85,0,-113.04,236.28,1,1,1.55,0,-1.55,0
1.5872e-18,0.015138,0,0,0,0,0,0,0,0,-59.086,11.536,0,-316.04,0,-112.77,235.61,1,1,1.555,0,-1.555,0
1.4817e-18,0.015144,0,0,0,0,0,0,0,0,-59.013,11.484,0,-315.24,0,-112.51,234.95,1,1,1.56,0,-1.56,0
1.386e-18,0.01515,0,0,0,0,0,0,0,0,-58.94,11.432,0,-314.43,0,-112.25,234.29,1,1,1.565,0,-1.565,0
1.2908e-18,0.015156,0,0,0,0,0,0,0,0,-58.867,11.379,0,-313.62,0,-111.98,233.63,1,1,1.57,0,-1.57,0
1.1964e-18,0.015162,0,0,0,0,0,0,0,0,-58.794,11.327,0,-312.82,0,-111.72,232.97,1,1,1.575,0,-1.575,0
1.1115e-18,0.015168,0,0,0,0,0,0,0,0,-58.721,11.275,0,-312.01,0,-111.45,232.3,1,1,1.58,0,-1.58,0
1.0271e-18,0.015174,0,0,0,0,0,0,0,0,-58.648,11.222,0,-311.21,0,-111.19,231.64,1,1,1.585,0,-1.585,0
9.5228e-19,0.01518,0,0,0,0,0,0,0,0,-58.575,11.17,0,-310.4,0,-110.92,230.98,1,1,1.59,0,-1.59,0
8.7793e-19,0.015186,0,0,0,0,0,0,0,0,-58.502,11.117,0,-309.59,0,-110.66,230.32,1,1,1.595,0,-1.595,0
8.0408e-19,0.015192,0,0,0,0,0,0,0,0,-58.429,11.065,0,-308.79,0,-110.39,229.66,1,1,1.6,0,-1.6,0
7.3072e-19,0.015198,0,0,0,0,0,0,0,0,-58.356,11.013,0,-307.98,0,-110.13,228.99,1,1,1.605,0,-1.605,0
6.6666e-19,0.015204,0,0,0,0,0,0,0,0,-58.283,10.96,0,-307.18,0,-109.86,228.33,1,1,1.61,0,-1.61,0
6.0303e-19,0.01521,0,0,0,0,0,0,0,0,-58.21,10.908,0,-306.37,0,-109.6,227.67,1,1,1.615,0,-1.615,0
5.3985e-19,0.015216,0,0,0,0,0,0,0,0,-58.137,10.856,0,-305.57,0,-109.33,227.01,1,1,1.62,0,-1.62,0
4.8579e-19,0.015222,0,0,0,0,0,0,0,0,-58.064,10.803,0,-304.76,0,-109.07,226.34,1,1,1.625,0,-1.625,0
4.3211e-19,0.015228,0,0,0,0,0,0,0,0,-57.991,10.751,0,-303.95,0,-108.8,225.68,1,1,1.63,0,-1.63,0
3.8744e-19,0.015234,0,0,0,0,0,0,0,0,-57.918,10.698,0,-303.15,0,-108.54,225.02,1,1,1.635,0,-1.635,0
3.4308e-19,0.01524,0,0,0,0,0,0,0,0,-57.845,10.646,0,-302.34,0,-108.27,224.36,1,1,1.64,0,-1.64,0
2.9903e-19,0.015246,0,0,0,0,0,0,0,0,-57.771,10.594,0,-301.54,0,-108.01,223.7,1,1,1.645,0,-1.645,0
2.5529e-19,0.015253,0,0,0,0,0,0,0,0,-57.698,10.541,0,-300.73,0,-107.74,223.03,1,1,1.65,0,-1.65,0
2.2038e-19,0.015259,0,0,0,0,0,0,0,0,-57.625,10.489,0,-299.92,0,-107.48,222.37,1,1,1.655,0,-1.655,0
1.8571e-19,0.015265,0,0,0,0,0,0,0,0,-57.552,10.437,0,-299.12,0,-107.21,221.71,1,1,1.66,0,-1.66,0
1.5974e-19,0.015271,0,0,0,0,0,0,0,0,-57.479,10.384,0,-298.31,0,-106.95,221.05,1,1,1.665,0,-1.665,0
1.3396e-19,0.015277,0,0,0,0,0,0,0,0,-57.406,10.332,0,-297.51,0,-106.68,220.39,1,1,1.67,0,-1.67,0
1.0837e-19,0.015283,0,0,0,0,0,0,0,0,-57.333,10.279,0,-296.7,0,-106.42,219.72,1,1,1.675,0,-1.675,0
8.2958e-20,0.015289,0,0,0,0,0,0,0,0,-57.26,10.227,0,-295.89,0,-106.15,219.06,1,1,1.68,0,-1.68,0
6.6059e-20,0.015295,0,0,0,0,0,0,0,0,-57.187,10.175,0,-295.09,0,-105.89,218.4,1,1,1.685,0,-1.685,0
4.9285e-20,0.015301,0,0,0,0,0,0,0,0,-57.114,10.122,0,-294.28,0,-105.63,217.74,1,1,1.69,0,-1.69,0
4.0894e-20,0.015307,0,0,0,0,0,0,0,0,-57.041,10.07,0,-293.48,0,-105.36,217.07,1,1,1.695,0,-1.695,0
2.4339e-20,0.015313,0,0,0,0,0,0,0,0,-56.968,10.018,0,-292.67,0,-105.1,216.41,1,1,1.7,0,-1.7,0
2.43e-20,0.015319,0,0,0,0,0,0,0,0,-56.895,9.9652,0,-291.86,0,-104.83,215.75,1,1,1.705,0,-1.705,0
1.6097e-20,0.015325,0,0,0,0,0,0,0,0,-56.822,9.9128,0,-291.06,0,-104.57,215.09,1,1,1.71,0,-1.71,0
1.6089e-20,0.015331,0,0,0,0,0,0,0,0,-56.749,9.8604,0,-290.25,0,-104.3,214.43,1,1,1.715,0,-1.715,0
1.6081e-20,0.015337,0,0,0,0,0,0,0,0,-56.676,9.808,0,-289.45,0,-104.04,213.76,1,1,1.72,0,-1.72,0
2.4145e-20,0.015343,0,0,0,0,0,0,0,0,-56.603,9.7556,0,-288.64,0,-103.77,213.1,1,1,1.725,0,-1.725,0
3.2145e-20,0.015349,0,0,0,0,0,0,0,0,-56.53,9.7033,0,-287.83,0,-103.51,212.44,1,1,1.73,0,-1.73,0
4.0083e-20,0.015355,0,0,0,0,0,0,0,0,-56.456,9.6509,0,-287.03,0,-103.24,211.78,1,1,1.735,0,-1.735,0
4.7959e-20,0.015361,0,0,0,0,0,0,0,0,-56.383,9.5985,0,-286.22,0,-102.98,211.11,1,1,1.74,0,-1.74,0
6.3718e-20,0.015367,0,0,0,0,0,0,0,0,-56.31,9.5461,0,-285.42,0,-102.71,210.45,1,1,1.745,0,-1.745,0
7.9353e-20,0.015373,0,0,0,0,0,0,0,0,-56.237,9.4938,0,-284.61,0,-102.45,209.79,1,1,1.75,0,-1.75,0
1.0275e-19,0.015379,0,0,0,0,0,0,0,0,-56.164,9.4414,0,-283.81,0,-102.18,209.13,1,1,1.755,0,-1.755,0
1.2595e-19,0.015385,0,0,0,0,0,0,0,0,-56.091,9.389,0,-283,0,-101.92,208.47,1,1,1.76,0,-1.76,0
1.4897e-19,0.015392,0,0,0,0,0,0,0,0,-56.018,9.3366,0,-282.19,0,-101.65,207.8,1,1,1.765,0,-1.765,0
1.718e-19,0.015398,0,0,0,0,0,0,0,0,-55.945,9.2842,0,-281.39,0,-101.39,207.14,1,1,1.77,0,-1.77,0
2.022e-19,0.015404,0,0,0,0,0,0,0,0,-55.872,9.2319,0,-280.58,0,-101.12,206.48,1,1,1.775,0,-1.775,0
2.4008e-19,0.01541,0,0,0,0,0,0,0,0,-55.799,9.1795,0,-279.78,0,-100.86,205.82,1,1,1.78,0,-1.78,0
2.6995e-19,0.015416,0,0,0,0,0,0,0,0,-55.726,9.1271,0,-278.97,0,-100.59,205.16,1,1,1.785,0,-1.785,0
3.0723e-19,0.015422,0,0,0,0,0,0,0,0,-55.653,9.0747,0,-278.16,0,-100.33,204.49,1,1,1.79,0,-1.79,0
3.4421e-19,0.015428,0,0,0,0,0,0,0,0,-55.58,9.0224,0,-277.36,0,-100.06,203.83,1,1,1.795,0,-1.795,0
3.8847e-19,0.015434,0,0,0,0,0,0,0,0,-55.507,8.97,0,-276.55,0,-99.8,203.17,1,1,1.8,0,-1.8,0
4.3236e-19,0.01544,0,0,0,0,0,0,0,0,-55.434,8.9176,0,-275.75,0,-99.535,202.51,1,1,1.805,0,-1.805,0
4.7587e-19,0.015446,0,0,0,0,0,0,0,0,-55.361,8.8652,0,-274.94,0,-99.27,201.84,1,1,1.81,0,-1.81,0
5.1901e-19,0.015452,0,0,0,0,0,0,0,0,-55.288,8.8128,0,-274.13,0,-99.005,201.18,1,1,1.815,0,-1.815,0
5.6925e-19,0.015458,0,0,0,0,0,0,0,0,-55.215,8.7605,0,-273.33,0,-98.741,200.52,1,1,1.82,0,-1.82,0
6.265e-19,0.015464,0,0,0,0,0,0,0,0,-55.141,8.7081,0,-272.52,0,-98.476,199.86,1,1,1.825,0,-1.825,0
6.7583e-19,0.01547,0,0,0,0,0,0,0,0,-55.068,8.6557,0,-271.72,0,-98.211,199.2,1,1,1.83,0,-1.83,0
7.3211e-19,0.015476,0,0,0,0,0,0,0,0,-54.995,8.6033,0,-270.91,0,-97.946,198.53,1,1,1.835,0,-1.835,0
7.8789e-19,0.015482,0,0,0,0,0,0,0,0,-54.922,8.551,0,-270.1,0,-97.681,197.87,1,1,1.84,0,-1.84,0
8.5049e-19,0.015488,0,0,0,0,0,0,0,0,-54.849,8.4986,0,-269.3,0,-97.417,197.21,1,1,1.845,0,-1.845,0
9.1253e-19,0.015494,0,0,0,0,0,0,0,0,-54.776,8.4462,0,-268.49,0,-97.152,196.55,1,1,1.85,0,-1.85,0
9.7401e-19,0.0155,0,0,0,0,0,0,0,0,-54.703,8.3938,0,-267.69,0,-96.887,195.89,1,1,1.855,0,-1.855,0
1.0422e-18,0.015506,0,0,0,0,0,0,0,0,-54.63,8.3415,0,-266.88,0,-96.622,195.22,1,1,1.86,0,-1.86,0
1.1097e-18,0.015512,0,0,0,0,0,0,0,0,-54.557,8.2891,0,-266.07,0,-96.357,194.56,1,1,1.865,0,-1.865,0
1.1766e-18,0.015518,0,0,0,0,0,0,0,0,-54.484,8.2367,0,-265.27,0,-96.093,193.9,1,1,1.87,0,-1.87,0
1.25e-18,0.015525,0,0,0,0,0,0,0,0,-54.411,8.1843,0,-264.46,0,-95.828,193.24,1,1,1.875,0,-1.875,0
1.3156e-18,0.015531,0,0,0,0,0,0,0,0,-54.338,8.1319,0,-263.66,0,-95.563,192.57,1,1,1.88,0,-1.88,0
1.3947e-18,0.015537,0,0,0,0,0,0,0,0,-54.265,8.0796,0,-262.85,0,-95.298,191.91,1,1,1.885,0,-1.885,0
1.466e-18,0.015543,0,0,0,0,0,0,0,0,-54.192,8.0272,0,-262.05,0,-95.033,191.25,1,1,1.89,0,-1.89,0
1.5437e-18,0.015549,0,0,0,0,0,0,0,0,-54.119,7.9748,0,-261.24,0,-94.769,190.59,1,1,1.895,0,-1.895,0
1.6276e-18,0.015555,0,0,0,0,0,0,0,0,-54.046,7.9224,0,-260.43,0,-94.504,189.93,1,1,1.9,0,-1.9,0
1.7037e-18,0.015561,0,0,0,0,0,0,0,0,-53.973,7.8701,0,-259.63,0,-94.239,189.26,1,1,1.905,0,-1.905,0
1.786e-18,0.015567,0,0,0,0,0,0,0,0,-53.9,7.8177,0,-258.82,0,-93.974,188.6,1,1,1.91,0,-1.91,0
1.8675e-18,0.015573,0,0,0,0,0,0,0,0,-53.826,7.7653,0,-258.02,0,-93.709,187.94,1,1,1.915,0,-1.915,0
5.166e-19,0.015578,0,0,0,0,0,0,0,0,-53.766,7.7312,0,-257.41,0,-93.509,187.45,1,1,1.92,0,-1.92,0
4.9459e-19,0.015583,0,0,0,0,0,0,0,0,-53.709,7.7033,0,-256.88,0,-93.331,187.02,1,1,1.925,0,-1.925,0
4.727e-19,0.015588,0,0,0,0,0,0,0,0,-53.653,7.6754,0,-256.34,0,-93.154,186.59,1,1,1.93,0,-1.93,0
4.5093e-19,0.015592,0,0,0,0,0,0,0,0,-53.596,7.6476,0,-255.81,0,-92.976,186.15,1,1,1.935,0,-1.935,0
4.2928e-19,0.015597,0,0,0,0,0,0,0,0,-53.539,7.6197,0,-255.27,0,-92.798,185.72,1,1,1.94,0,-1.94,0
4.0775e-19,0.015602,0,0,0,0,0,0,0,0,-53.483,7.5919,0,-254.74,0,-92.62,185.29,1,1,1.945,0,-1.945,0
3.8635e-19,0.015607,0,0,0,0,0,0,0,0,-53.426,7.564,0,-254.21,0,-92.442,184.86,1,1,1.95,0,-1.95,0
3.6507e-19,0.015612,0,0,0,0,0,0,0,0,-53.37,7.5361,0,-253.67,0,-92.264,184.43,1,1,1.955,0,-1.955,0
3.4391e-19,0.015617,0,0,0,0,0,0,0,0,-53.313,7.5083,0,-253.14,0,-92.086,184,1,1,1.96,0,-1.96,0
3.2288e-19,0.015621,0,0,0,0,0,0,0,0,-53.256,7.4804,0,-252.6,0,-91.908,183.57,1,1,1.965,0,-1.965,0
3.0862e-19,0.015626,0,0,0,0,0,0,0,0,-53.2,7.4525,0,-252.07,0,-91.731,183.14,1,1,1.97,0,-1.97,0
2.8781e-19,0.015631,0,0,0,0,0,0,0,0,-53.143,7.4247,0,-251.53,0,-91.553,182.7,1,1,1.975,0,-1.975,0
2.7373e-19,0.015636,0,0,0,0,0,0,0,0,-53.087,7.3968,0,-251,0,-91.375,182.27,1,1,1.98,0,-1.98,0
2.5314e-19,0.015641,0,0,0,0,0,0,0,0,-53.03,7.3689,0,-250.47,0,-91.197,181.84,1,1,1.985,0,-1.985,0
2.3925e-19,0.015645,0,0,0,0,0,0,0,0,-52.974,7.3411,0,-249.93,0,-91.019,181.41,1,1,1.99,0,-1.99,0
2.2544e-19,0.01565,0,0,0,0,0,0,0,0,-52.917,7.3132,0,-249.4,0,-90.841,180.98,1,1,1.995,0,-1.995,0
2.0518e-19,0.015655,0,0,0,0,0,0,0,0,-52.86,7.2853,0,-248.86,0,-90.663,180.55,1,1,2,0,-2,0
1.9155e-19,0.01566,0,0,0,0,0,0,0,0,-52.804,7.2575,0,-248.33,0,-90.485,180.12,1,1,2.005,0,-2.005,0
1.7801e-19,0.015665,0,0,0,0,0,0,0,0,-52.747,7.2296,0,-247.79,0,-90.308,179.68,1,1,2.01,0,-2.01,0
1.6454e-19,0.01567,0,0,0,0,0,0,0,0,-52.691,7.2018,0,-247.26,0,-90.13,179.25,1,1,2.015,0,-2.015,0
1.5762e-19,0.015674,0,0,0,0,0,0,0,0,-52.634,7.1739,0,-246.73,0,-89.952,178.82,1,1,2.02,0,-2.02,0
1.4429e-19,0.015679,0,0,0,0,0,0,0,0,-52.577,7.146,0,-246.19,0,-89.774,178.39,1,1,2.025,0,-2.025,0
1.3105e-19,0.015684,0,0,0,0,0,0,0,0,-52.521,7.1182,0,-245.66,0,-89.596,177.96,1,1,2.03,0,-2.03,0
1.179e-19,0.015689,0,0,0,0,0,0,0,0,-52.464,7.0903,0,-245.12,0,-89.418,177.53,1,1,2.035,0,-2.035,0
1.1119e-19,0.015694,0,0,0,0,0,0,0,0,-52.408,7.0624,0,-244.59,0,-89.24,177.1,1,1,2.04,0,-2.04,0
9.8175e-20,0.015699,0,0,0,0,0,0,0,0,-52.351,7.0346,0,-244.05,0,-89.062,176.66,1,1,2.045,0,-2.045,0
9.1572e-20,0.015703,0,0,0,0,0,0,0,0,-52.294,7.0067,0,-243.52,0,-88.885,176.23,1,1,2.05,0,-2.05,0
8.501e-20,0.015708,0,0,0,0,0,0,0,0,-52.238,6.9788,0,-242.99,0,-88.707,175.8,1,1,2.055,0,-2.055,0
7.2198e-20,0.015713,0,0,0,0,0,0,0,0,-52.181,6.951,0,-242.45,0,-88.529,175.37,1,1,2.06,0,-2.06,0
6.5737e-20,0.015718,0,0,0,0,0,0,0,0,-52.125,6.9231,0,-241.92,0,-88.351,174.94,1,1,2.065,0,-2.065,0
5.9318e-20,0.015723,0,0,0,0,0,0,0,0,-52.068,6.8952,0,-241.38,0,-88.173,174.51,1,1,2.07,0,-2.07,0
5.2939e-20,0.015727,0,0,0,0,0,0,0,0,-52.012,6.8674,0,-240.85,0,-87.995,174.08,1,1,2.075,0,-2.075,0
4.66e-20,0.015732,0,0,0,0,0,0,0,0,-51.955,6.8395,0,-240.31,0,-87.817,173.65,1,1,2.08,0,-2.08,0
4.0302e-20,0.015737,0,0,0,0,0,0,0,0,-51.898,6.8117,0,-239.78,0,-87.639,173.21,1,1,2.085,0,-2.085,0
4.0214e-20,0.015742,0,0,0,0,0,0,0,0,-51.842,6.7838,0,-239.24,0,-87.462,172.78,1,1,2.09,0,-2.09,0
3.3978e-20,0.015747,0,0,0,0,0,0,0,0,-51.785,6.7559,0,-238.71,0,-87.284,172.35,1,1,2.095,0,-2.095,0
2.7782e-20,0.015752,0,0,0,0,0,0,0,0,-51.729,6.7281,0,-238.18,0,-87.106,171.92,1,1,2.1,0,-2.1,0
2.7734e-20,0.015756,0,0,0,0,0,0,0,0,-51.672,6.7002,0,-237.64,0,-86.928,171.49,1,1,2.105,0,-2.105,0
2.1599e-20,0.015761,0,0,0,0,0,0,0,0,-51.615,6.6723,0,-237.11,0,-86.75,171.06,1,1,2.11,0,-2.11,0
2.1572e-20,0.015766,0,0,0,0,0,0,0,0,-51.559,6.6445,0,-236.57,0,-86.572,170.63,1,1,2.115,0,-2.115,0
1.5498e-20,0.015771,0,0,0,0,0,0,0,0,-51.502,6.6166,0,-236.04,0,-86.394,170.19,1,1,2.12,0,-2.12,0
1.5491e-20,0.015776,0,0,0,0,0,0,0,0,-51.446,6.5887,0,-235.5,0,-86.216,169.76,1,1,2.125,0,-2.125,0
1.5484e-20,0.01578,0,0,0,0,0,0,0,0,-51.389,6.5609,0,-234.97,0,-86.039,169.33,1,1,2.13,0,-2.13,0
1.5477e-20,0.015785,0,0,0,0,0,0,0,0,-51.333,6.533,0,-234.44,0,-85.861,168.9,1,1,2.135,0,-2.135,0
1.547e-20,0.01579,0,0,0,0,0,0,0,0,-51.276,6.5051,0,-233.9,0,-85.683,168.47,1,1,2.14,0,-2.14,0
1.5463e-20,0.015795,0,0,0,0,0,0,0,0,-51.219,6.4773,0,-233.37,0,-85.505,168.04,1,1,2.145,0,-2.145,0
1.5456e-20,0.0158,0,0,0,0,0,0,0,0,-51.163,6.4494,0,-232.83,0,-85.327,167.61,1,1,2.15,0,-2.15,0
1.5449e-20,0.015805,0,0,0,0,0,0,0,0,-51.106,6.4216,0,-232.3,0,-85.149,167.18,1,1,2.155,0,-2.155,0
2.1326e-20,0.015809,0,0,0,0,0,0,0,0,-51.05,6.3937,0,-231.76,0,-84.971,166.74,1,1,2.16,0,-2.16,0
2.1299e-20,0.015814,0,0,0,0,0,0,0,0,-50.993,6.3658,0,-231.23,0,-84.793,166.31,1,1,2.165,0,-2.165,0
2.7114e-20,0.015819,0,0,0,0,0,0,0,0,-50.936,6.338,0,-230.7,0,-84.615,165.88,1,1,2.17,0,-2.17,0
2.7067e-20,0.015824,0,0,0,0,0,0,0,0,-50.88,6.3101,0,-230.16,0,-84.438,165.45,1,1,2.175,0,-2.175,0
3.2821e-20,0.015829,0,0,0,0,0,0,0,0,-50.823,6.2822,0,-229.63,0,-84.26,165.02,1,1,2.18,0,-2.18,0
3.2753e-20,0.015834,0,0,0,0,0,0,0,0,-50.767,6.2544,0,-229.09,0,-84.082,164.59,1,1,2.185,0,-2.185,0
3.8447e-20,0.015838,0,0,0,0,0,0,0,0,-50.71,6.2265,0,-228.56,0,-83.904,164.16,1,1,2.19,0,-2.19,0
4.41e-20,0.015843,0,0,0,0,0,0,0,0,-50.654,6.1986,0,-228.02,0,-83.726,163.72,1,1,2.195,0,-2.195,0
4.9712e-20,0.015848,0,0,0,0,0,0,0,0,-50.597,6.1708,0,-227.49,0,-83.548,163.29,1,1,2.2,0,-2.2,0
5.5283e-20,0.015853,0,0,0,0,0,0,0,0,-50.54,6.1429,0,-226.96,0,-83.37,162.86,1,1,2.205,0,-2.205,0
6.0814e-20,0.015858,0,0,0,0,0,0,0,0,-50.484,6.115,0,-226.42,0,-83.192,162.43,1,1,2.21,0,-2.21,0
6.6304e-20,0.015862,0,0,0,0,0,0,0,0,-50.427,6.0872,0,-225.89,0,-83.015,162,1,1,2.215,0,-2.215,0
7.1753e-20,0.015867,0,0,0,0,0,0,0,0,-50.371,6.0593,0,-225.35,0,-82.837,161.57,1,1,2.22,0,-2.22,0
8.2781e-20,0.015872,0,0,0,0,0,0,0,0,-50.314,6.0315,0,-224.82,0,-82.659,161.14,1,1,2.225,0,-2.225,0
8.8128e-20,0.015877,0,0,0,0,0,0,0,0,-50.257,6.0036,0,-224.28,0,-82.481,160.7,1,1,2.23,0,-2.23,0
9.9014e-20,0.015882,0,0,0,0,0,0,0,0,-50.201,5.9757,0,-223.75,0,-82.303,160.27,1,1,2.235,0,-2.235,0
1.0426e-19,0.015887,0,0,0,0,0,0,0,0,-50.144,5.9479,0,-223.22,0,-82.125,159.84,1,1,2.24,0,-2.24,0
1.15e-19,0.015891,0,0,0,0,0,0,0,0,-50.088,5.92,0,-222.68,0,-81.947,159.41,1,1,2.245,0,-2.245,0
1.2015e-19,0.015896,0,0,0,0,0,0,0,0,-50.031,5.8921,0,-222.15,0,-81.769,158.98,1,1,2.25,0,-2.25,0
1.3075e-19,0.015901,0,0,0,0,0,0,0,0,-49.975,5.8643,0,-221.61,0,-81.592,158.55,1,1,2.255,0,-2.255,0
1.4127e-19,0.015906,0,0,0,0,0,0,0,0,-49.918,5.8364,0,-221.08,0,-81.414,158.12,1,1,2.26,0,-2.26,0
1.517e-19,0.015911,0,0,0,0,0,0,0,0,-49.861,5.8085,0,-220.54,0,-81.236,157.69,1,1,2.265,0,-2.265,0
1.6206e-19,0.015915,0,0,0,0,0,0,0,0,-49.805,5.7807,0,-220.01,0,-81.058,157.25,1,1,2.27,0,-2.27,0
1.7233e-19,0.01592,0,0,0,0,0,0,0,0,-49.748,5.7528,0,-219.48,0,-80.88,156.82,1,1,2.275,0,-2.275,0
1.8253e-19,0.015925,0,0,0,0,0,0,0,0,-49.692,5.7249,0,-218.94,0,-80.702,156.39,1,1,2.28,0,-2.28,0
1.9264e-19,0.01593,0,0,0,0,0,0,0,0,-49.635,5.6971,0,-218.41,0,-80.524,155.96,1,1,2.285,0,-2.285,0
2.0802e-19,0.015935,0,0,0,0,0,0,0,0,-49.578,5.6692,0,-217.87,0,-80.346,155.53,1,1,2.29,0,-2.29,0
2.1795e-19,0.01594,0,0,0,0,0,0,0,0,-49.522,5.6413,0,-217.34,0,-80.169,155.1,1,1,2.295,0,-2.295,0
2.3311e-19,0.015944,0,0,0,0,0,0,0,0,-49.465,5.6135,0,-216.8,0,-79.991,154.67,1,1,2.3,0,-2.3,0
2.4286e-19,0.015949,0,0,0,0,0,0,0,0,-49.409,5.5856,0,-216.27,0,-79.813,154.23,1,1,2.305,0,-2.305,0
2.5779e-19,0.015954,0,0,0,0,0,0,0,0,-49.352,5.5578,0,-215.73,0,-79.635,153.8,1,1,2.31,0,-2.31,0
2.6736e-19,0.015959,0,0,0,0,0,0,0,0,-49.296,5.5299,0,-215.2,0,-79.457,153.37,1,1,2.315,0,-2.315,0
2.8207e-19,0.015964,0,0,0,0,0,0,0,0,-49.239,5.502,0,-214.67,0,-79.279,152.94,1,1,2.32,0,-2.32,0
2.9666e-19,0.015969,0,0,0,0,0,0,0,0,-49.182,5.4742,0,-214.13,0,-79.101,152.51,1,1,2.325,0,-2.325,0
3.1113e-19,0.015973,0,0,0,0,0,0,0,0,-49.126,5.4463,0,-213.6,0,-78.923,152.08,1,1,2.33,0,-2.33,0
3.2548e-19,0.015978,0,0,0,0,0,0,0,0,-49.069,5.4184,0,-213.06,0,-78.746,151.65,1,1,2.335,0,-2.335,0
3.397e-19,0.015983,0,0,0,0,0,0,0,0,-49.013,5.3906,0,-212.53,0,-78.568,151.21,1,1,2.34,0,-2.34,0
3.538e-19,0.015988,0,0,0,0,0,0,0,0,-48.956,5.3627,0,-211.99,0,-78.39,150.78,1,1,2.345,0,-2.345,0
3.6778e-19,0.015993,0,0,0,0,0,0,0,0,-48.899,5.3348,0,-211.46,0,-78.212,150.35,1,1,2.35,0,-2.35,0
3.8673e-19,0.015997,0,0,0,0,0,0,0,0,-48.843,5.307,0,-210.93,0,-78.034,149.92,1,1,2.355,0,-2.355,0
4.0045e-19,0.016002,0,0,0,0,0,0,0,0,-48.786,5.2791,0,-210.39,0,-77.856,149.49,1,1,2.36,0,-2.36,0
1.2135e-19,0.016006,0,0,0,0,0,0,0,0,-48.739,5.2641,0,-210.04,0,-77.735,149.21,1,1,2.365,0,-2.365,0
1.1603e-19,0.01601,0,0,0,0,0,0,0,0,-48.691,5.2483,0,-209.67,0,-77.611,148.92,1,1,2.37,0,-2.37,0
1.1073e-19,0.016014,0,0,0,0,0,0,0,0,-48.644,5.2325,0,-209.31,0,-77.487,148.64,1,1,2.375,0,-2.375,0
1.0546e-19,0.016018,0,0,0,0,0,0,0,0,-48.596,5.2168,0,-208.94,0,-77.362,148.35,1,1,2.38,0,-2.38,0
1.0021e-19,0.016022,0,0,0,0,0,0,0,0,-48.549,5.201,0,-208.57,0,-77.238,148.06,1,1,2.385,0,-2.385,0
9.9982e-20,0.016026,0,0,0,0,0,0,0,0,-48.501,5.1852,0,-208.21,0,-77.114,147.77,1,1,2.39,0,-2.39,0
9.4775e-20,0.01603,0,0,0,0,0,0,0,0,-48.453,5.1694,0,-207.84,0,-76.99,147.48,1,1,2.395,0,-2.395,0
8.9595e-20,0.016034,0,0,0,0,0,0,0,0,-48.406,5.1537,0,-207.48,0,-76.865,147.2,1,1,2.4,0,-2.4,0
8.444e-20,0.016038,0,0,0,0,0,0,0,0,-48.358,5.1379,0,-207.11,0,-76.741,146.91,1,1,2.405,0,-2.405,0
8.4251e-20,0.016041,0,0,0,0,0,0,0,0,-48.31,5.1221,0,-206.75,0,-76.617,146.62,1,1,2.41,0,-2.41,0
7.9135e-20,0.016045,0,0,0,0,0,0,0,0,-48.263,5.1064,0,-206.38,0,-76.493,146.33,1,1,2.415,0,-2.415,0
7.4046e-20,0.016049,0,0,0,0,0,0,0,0,-48.215,5.0906,0,-206.02,0,-76.368,146.05,1,1,2.42,0,-2.42,0
7.3883e-20,0.016053,0,0,0,0,0,0,0,0,-48.167,5.0748,0,-205.65,0,-76.244,145.76,1,1,2.425,0,-2.425,0
6.8833e-20,0.016057,0,0,0,0,0,0,0,0,-48.12,5.0591,0,-205.29,0,-76.12,145.47,1,1,2.43,0,-2.43,0
6.3809e-20,0.016061,0,0,0,0,0,0,0,0,-48.072,5.0433,0,-204.92,0,-75.996,145.18,1,1,2.435,0,-2.435,0
6.3672e-20,0.016065,0,0,0,0,0,0,0,0,-48.024,5.0275,0,-204.56,0,-75.871,144.9,1,1,2.44,0,-2.44,0
5.8687e-20,0.016069,0,0,0,0,0,0,0,0,-47.977,5.0117,0,-204.19,0,-75.747,144.61,1,1,2.445,0,-2.445,0
5.8563e-20,0.016073,0,0,0,0,0,0,0,0,-47.929,4.996,0,-203.82,0,-75.623,144.32,1,1,2.45,0,-2.45,0
5.3617e-20,0.016077,0,0,0,0,0,0,0,0,-47.881,4.9802,0,-203.46,0,-75.499,144.03,1,1,2.455,0,-2.455,0
5.3507e-20,0.016081,0,0,0,0,0,0,0,0,-47.834,4.9644,0,-203.09,0,-75.375,143.75,1,1,2.46,0,-2.46,0
4.86e-20,0.016085,0,0,0,0,0,0,0,0,-47.786,4.9487,0,-202.73,0,-75.25,143.46,1,1,2.465,0,-2.465,0
4.8503e-20,0.016089,0,0,0,0,0,0,0,0,-47.738,4.9329,0,-202.36,0,-75.126,143.17,1,1,2.47,0,-2.47,0
4.3636e-20,0.016093,0,0,0,0,0,0,0,0,-47.691,4.9171,0,-202,0,-75.002,142.88,1,1,2.475,0,-2.475,0
4.3551e-20,0.016096,0,0,0,0,0,0,0,0,-47.643,4.9014,0,-201.63,0,-74.878,142.6,1,1,2.48,0,-2.48,0
3.8723e-20,0.0161,0,0,0,0,0,0,0,0,-47.595,4.8856,0,-201.27,0,-74.753,142.31,1,1,2.485,0,-2.485,0
3.8651e-20,0.016104,0,0,0,0,0,0,0,0,-47.548,4.8698,0,-200.9,0,-74.629,142.02,1,1,2.49,0,-2.49,0
3.3863e-20,0.016108,0,0,0,0,0,0,0,0,-47.5,4.854,0,-200.54,0,-74.505,141.73,1,1,2.495,0,-2.495,0
3.3804e-20,0.016112,0,0,0,0,0,0,0,0,-47.452,4.8383,0,-200.17,0,-74.381,141.45,1,1,2.5,0,-2.5,0
3.3746e-20,0.016116,0,0,0,0,0,0,0,0,-47.405,4.8225,0,-199.81,0,-74.256,141.16,1,1,2.505,0,-2.505,0
2.901e-20,0.01612,0,0,0,0,0,0,0,0,-47.357,4.8067,0,-199.44,0,-74.132,140.87,1,1,2.51,0,-2.51,0
2.8964e-20,0.016124,0,0,0,0,0,0,0,0,-47.309,4.791,0,-199.07,0,-74.008,140.58,1,1,2.515,0,-2.515,0
2.8919e-20,0.016128,0,0,0,0,0,0,0,0,-47.262,4.7752,0,-198.71,0,-73.884,140.3,1,1,2.52,0,-2.52,0
2.4235e-20,0.016132,0,0,0,0,0,0,0,0,-47.214,4.7594,0,-198.34,0,-73.759,140.01,1,1,2.525,0,-2.525,0
2.4202e-20,0.016136,0,0,0,0,0,0,0,0,-47.166,4.7437,0,-197.98,0,-73.635,139.72,1,1,2.53,0,-2.53,0
2.417e-20,0.01614,0,0,0,0,0,0,0,0,-47.119,4.7279,0,-197.61,0,-73.511,139.43,1,1,2.535,0,-2.535,0
1.9538e-20,0.016144,0,0,0,0,0,0,0,0,-47.071,4.7121,0,-197.25,0,-73.387,139.15,1,1,2.54,0,-2.54,0
1.9519e-20,0.016147,0,0,0,0,0,0,0,0,-47.023,4.6963,0,-196.88,0,-73.262,138.86,1,1,2.545,0,-2.545,0
1.95e-20,0.016151,0,0,0,0,0,0,0,0,-46.976,4.6806,0,-196.52,0,-73.138,138.57,1,1,2.55,0,-2.55,0
1.948e-20,0.016155,0,0,0,0,0,0,0,0,-46.928,4.6648,0,-196.15,0,-73.014,138.28,1,1,2.555,0,-2.555,0
1.9461e-20,0.016159,0,0,0,0,0,0,0,0,-46.88,4.649,0,-195.79,0,-72.89,137.99,1,1,2.56,0,-2.56,0
1.9442e-20,0.016163,0,0,0,0,0,0,0,0,-46.833,4.6333,0,-195.42,0,-72.765,137.71,1,1,2.565,0,-2.565,0
1.4902e-20,0.016167,0,0,0,0,0,0,0,0,-46.785,4.6175,0,-195.06,0,-72.641,137.42,1,1,2.57,0,-2.57,0
1.4895e-20,0.016171,0,0,0,0,0,0,0,0,-46.737,4.6017,0,-194.69,0,-72.517,137.13,1,1,2.575,0,-2.575,0
1.4889e-20,0.016175,0,0,0,0,0,0,0,0,-46.69,4.5859,0,-194.32,0,-72.393,136.84,1,1,2.58,0,-2.58,0
1.4883e-20,0.016179,0,0,0,0,0,0,0,0,-46.642,4.5702,0,-193.96,0,-72.268,136.56,1,1,2.585,0,-2.585,0
1.4877e-20,0.016183,0,0,0,0,0,0,0,0,-46.594,4.5544,0,-193.59,0,-72.144,136.27,1,1,2.59,0,-2.59,0
1.487e-20,0.016187,0,0,0,0,0,0,0,0,-46.547,4.5386,0,-193.23,0,-72.02,135.98,1,1,2.595,0,-2.595,0
1.4864e-20,0.016191,0,0,0,0,0,0,0,0,-46.499,4.5229,0,-192.86,0,-71.896,135.69,1,1,2.6,0,-2.6,0
1.4858e-20,0.016195,0,0,0,0,0,0,0,0,-46.451,4.5071,0,-192.5,0,-71.771,135.41,1,1,2.605,0,-2.605,0
1.4851e-20,0.016199,0,0,0,0,0,0,0,0,-46.404,4.4913,0,-192.13,0,-71.647,135.12,1,1,2.61,0,-2.61,0
1.4845e-20,0.016202,0,0,0,0,0,0,0,0,-46.356,4.4756,0,-191.77,0,-71.523,134.83,1,1,2.615,0,-2.615,0
1.4839e-20,0.016206,0,0,0,0,0,0,0,0,-46.308,4.4598,0,-191.4,0,-71.399,134.54,1,1,2.62,0,-2.62,0
1.4833e-20,0.01621,0,0,0,0,0,0,0,0,-46.261,4.444,0,-191.04,0,-71.274,134.26,1,1,2.625,0,-2.625,0
1.4826e-20,0.016214,0,0,0,0,0,0,0,0,-46.213,4.4282,0,-190.67,0,-71.15,133.97,1,1,2.63,0,-2.63,0
1.482e-20,0.016218,0,0,0,0,0,0,0,0,-46.166,4.4125,0,-190.31,0,-71.026,133.68,1,1,2.635,0,-2.635,0
1.4814e-20,0.016222,0,0,0,0,0,0,0,0,-46.118,4.3967,0,-189.94,0,-70.902,133.39,1,1,2.64,0,-2.64,0
1.9132e-20,0.016226,0,0,0,0,0,0,0,0,-46.07,4.3809,0,-189.57,0,-70.777,133.11,1,1,2.645,0,-2.645,0
1.9113e-20,0.01623,0,0,0,0,0,0,0,0,-46.023,4.3652,0,-189.21,0,-70.653,132.82,1,1,2.65,0,-2.65,0
1.9094e-20,0.016234,0,0,0,0,0,0,0,0,-45.975,4.3494,0,-188.84,0,-70.529,132.53,1,1,2.655,0,-2.655,0
1.9074e-20,0.016238,0,0,0,0,0,0,0,0,-45.927,4.3336,0,-188.48,0,-70.405,132.24,1,1,2.66,0,-2.66,0
1.9055e-20,0.016242,0,0,0,0,0,0,0,0,-45.88,4.3179,0,-188.11,0,-70.28,131.96,1,1,2.665,0,-2.665,0
2.3295e-20,0.016246,0,0,0,0,0,0,0,0,-45.832,4.3021,0,-187.75,0,-70.156,131.67,1,1,2.67,0,-2.67,0
2.3262e-20,0.01625,0,0,0,0,0,0,0,0,-45.784,4.2863,0,-187.38,0,-70.032,131.38,1,1,2.675,0,-2.675,0
2.323e-20,0.016254,0,0,0,0,0,0,0,0,-45.737,4.2705,0,-187.02,0,-69.908,131.09,1,1,2.68,0,-2.68,0
2.3197e-20,0.016257,0,0,0,0,0,0,0,0,-45.689,4.2548,0,-186.65,0,-69.783,130.81,1,1,2.685,0,-2.685,0
2.7372e-20,0.016261,0,0,0,0,0,0,0,0,-45.641,4.239,0,-186.29,0,-69.659,130.52,1,1,2.69,0,-2.69,0
2.7326e-20,0.016265,0,0,0,0,0,0,0,0,-45.594,4.2232,0,-185.92,0,-69.535,130.23,1,1,2.695,0,-2.695,0
2.7281e-20,0.016269,0,0,0,0,0,0,0,0,-45.546,4.2075,0,-185.56,0,-69.411,129.94,1,1,2.7,0,-2.7,0
3.1403e-20,0.016273,0,0,0,0,0,0,0,0,-45.498,4.1917,0,-185.19,0,-69.286,129.66,1,1,2.705,0,-2.705,0
3.1344e-20,0.016277,0,0,0,0,0,0,0,0,-45.451,4.1759,0,-184.82,0,-69.162,129.37,1,1,2.71,0,-2.71,0
3.5427e-20,0.016281,0,0,0,0,0,0,0,0,-45.403,4.1602,0,-184.46,0,-69.038,129.08,1,1,2.715,0,-2.715,0
3.5355e-20,0.016285,0,0,0,0,0,0,0,0,-45.355,4.1444,0,-184.09,0,-68.914,128.79,1,1,2.72,0,-2.72,0
3.5284e-20,0.016289,0,0,0,0,0,0,0,0,-45.308,4.1286,0,-183.73,0,-68.79,128.5,1,1,2.725,0,-2.725,0
3.9314e-20,0.016293,0,0,0,0,0,0,0,0,-45.26,4.1128,0,-183.36,0,-68.665,128.22,1,1,2.73,0,-2.73,0
3.923e-20,0.016297,0,0,0,0,0,0,0,0,-45.212,4.0971,0,-183,0,-68.541,127.93,1,1,2.735,0,-2.735,0
4.3221e-20,0.016301,0,0,0,0,0,0,0,0,-45.165,4.0813,0,-182.63,0,-68.417,127.64,1,1,2.74,0,-2.74,0
4.3123e-20,0.016305,0,0,0,0,0,0,0,0,-45.117,4.0655,0,-182.27,0,-68.293,127.35,1,1,2.745,0,-2.745,0
4.7075e-20,0.016308,0,0,0,0,0,0,0,0,-45.069,4.0498,0,-181.9,0,-68.168,127.07,1,1,2.75,0,-2.75,0
4.6964e-20,0.016312,0,0,0,0,0,0,0,0,-45.022,4.034,0,-181.54,0,-68.044,126.78,1,1,2.755,0,-2.755,0
5.0877e-20,0.016316,0,0,0,0,0,0,0,0,-44.974,4.0182,0,-181.17,0,-67.92,126.49,1,1,2.76,0,-2.76,0
5.0753e-20,0.01632,0,0,0,0,0,0,0,0,-44.926,4.0024,0,-180.81,0,-67.796,126.2,1,1,2.765,0,-2.765,0
5.4627e-20,0.016324,0,0,0,0,0,0,0,0,-44.879,3.9867,0,-180.44,0,-67.671,125.92,1,1,2.77,0,-2.77,0
5.8474e-20,0.016328,0,0,0,0,0,0,0,0,-44.831,3.9709,0,-180.07,0,-67.547,125.63,1,1,2.775,0,-2.775,0
5.8324e-20,0.016332,0,0,0,0,0,0,0,0,-44.783,3.9551,0,-179.71,0,-67.423,125.34,1,1,2.78,0,-2.78,0
6.2132e-20,0.016336,0,0,0,0,0,0,0,0,-44.736,3.9394,0,-179.34,0,-67.299,125.05,1,1,2.785,0,-2.785,0
6.5914e-20,0.01634,0,0,0,0,0,0,0,0,-44.688,3.9236,0,-178.98,0,-67.174,124.77,1,1,2.79,0,-2.79,0
6.5738e-20,0.016344,0,0,0,0,0,0,0,0,-44.64,3.9078,0,-178.61,0,-67.05,124.48,1,1,2.795,0,-2.795,0
6.9481e-20,0.016348,0,0,0,0,0,0,0,0,-44.593,3.8921,0,-178.25,0,-66.926,124.19,1,1,2.8,0,-2.8,0
7.3198e-20,0.016352,0,0,0,0,0,0,0,0,-44.545,3.8763,0,-177.88,0,-66.802,123.9,1,1,2.805,0,-2.805,0
7.6888e-20,0.016356,0,0,0,0,0,0,0,0,-44.497,3.8605,0,-177.52,0,-66.677,123.62,1,1,2.81,0,-2.81,0
7.6673e-20,0.01636,0,0,0,0,0,0,0,0,-44.45,3.8447,0,-177.15,0,-66.553,123.33,1,1,2.815,0,-2.815,0
8.0324e-20,0.016363,0,0,0,0,0,0,0,0,-44.402,3.829,0,-176.79,0,-66.429,123.04,1,1,2.82,0,-2.82,0
8.3949e-20,0.016367,0,0,0,0,0,0,0,0,-44.354,3.8132,0,-176.42,0,-66.305,122.75,1,1,2.825,0,-2.825,0
8.7548e-20,0.016371,0,0,0,0,0,0,0,0,-44.307,3.7974,0,-176.06,0,-66.18,122.47,1,1,2.83,0,-2.83,0
9.1121e-20,0.016375,0,0,0,0,0,0,0,0,-44.259,3.7817,0,-175.69,0,-66.056,122.18,1,1,2.835,0,-2.835,0
9.0853e-20,0.016379,0,0,0,0,0,0,0,0,-44.211,3.7659,0,-175.32,0,-65.932,121.89,1,1,2.84,0,-2.84,0
9.4387e-20,0.016383,0,0,0,0,0,0,0,0,-44.164,3.7501,0,-174.96,0,-65.808,121.6,1,1,2.845,0,-2.845,0
3.7295e-20,0.016387,0,0,0,0,0,0,0,0,-44.118,3.7373,0,-174.64,0,-65.699,121.36,1,1,2.85,0,-2.85,0
3.724e-20,0.01639,0,0,0,0,0,0,0,0,-44.074,3.728,0,-174.38,0,-65.608,121.16,1,1,2.855,0,-2.855,0
3.7185e-20,0.016393,0,0,0,0,0,0,0,0,-44.031,3.7187,0,-174.13,0,-65.517,120.96,1,1,2.86,0,-2.86,0
3.3365e-20,0.016396,0,0,0,0,0,0,0,0,-43.987,3.7093,0,-173.87,0,-65.426,120.77,1,1,2.865,0,-2.865,0
3.3318e-20,0.0164,0,0,0,0,0,0,0,0,-43.944,3.7,0,-173.61,0,-65.335,120.57,1,1,2.87,0,-2.87,0
3.3272e-20,0.016403,0,0,0,0,0,0,0,0,-43.9,3.6907,0,-173.35,0,-65.244,120.38,1,1,2.875,0,-2.875,0
3.3225e-20,0.016406,0,0,0,0,0,0,0,0,-43.857,3.6814,0,-173.09,0,-65.153,120.18,1,1,2.88,0,-2.88,0
3.3179e-20,0.016409,0,0,0,0,0,0,0,0,-43.813,3.672,0,-172.83,0,-65.062,119.98,1,1,2.885,0,-2.885,0
2.9407e-20,0.016413,0,0,0,0,0,0,0,0,-43.77,3.6627,0,-172.57,0,-64.971,119.79,1,1,2.89,0,-2.89,0
2.9369e-20,0.016416,0,0,0,0,0,0,0,0,-43.726,3.6534,0,-172.31,0,-64.88,119.59,1,1,2.895,0,-2.895,0
2.933e-20,0.016419,0,0,0,0,0,0,0,0,-43.683,3.644,0,-172.05,0,-64.789,119.39,1,1,2.9,0,-2.9,0
2.9292e-20,0.016422,0,0,0,0,0,0,0,0,-43.639,3.6347,0,-171.79,0,-64.698,119.2,1,1,2.905,0,-2.905,0
2.9254e-20,0.016426,0,0,0,0,0,0,0,0,-43.596,3.6254,0,-171.54,0,-64.607,119,1,1,2.91,0,-2.91,0
2.5531e-20,0.016429,0,0,0,0,0,0,0,0,-43.552,3.616,0,-171.28,0,-64.516,118.81,1,1,2.915,0,-2.915,0
2.5501e-20,0.016432,0,0,0,0,0,0,0,0,-43.508,3.6067,0,-171.02,0,-64.425,118.61,1,1,2.92,0,-2.92,0
2.5471e-20,0.016435,0,0,0,0,0,0,0,0,-43.465,3.5974,0,-170.76,0,-64.334,118.41,1,1,2.925,0,-2.925,0
2.5441e-20,0.016439,0,0,0,0,0,0,0,0,-43.421,3.5881,0,-170.5,0,-64.243,118.22,1,1,2.93,0,-2.93,0
2.5411e-20,0.016442,0,0,0,0,0,0,0,0,-43.378,3.5787,0,-170.24,0,-64.152,118.02,1,1,2.935,0,-2.935,0
2.538e-20,0.016445,0,0,0,0,0,0,0,0,-43.334,3.5694,0,-169.98,0,-64.062,117.82,1,1,2.94,0,-2.94,0
2.1715e-20,0.016448,0,0,0,0,0,0,0,0,-43.291,3.5601,0,-169.72,0,-63.971,117.63,1,1,2.945,0,-2.945,0
2.1693e-20,0.016452,0,0,0,0,0,0,0,0,-43.247,3.5507,0,-169.46,0,-63.88,117.43,1,1,2.95,0,-2.95,0
2.1671e-20,0.016455,0,0,0,0,0,0,0,0,-43.204,3.5414,0,-169.2,0,-63.789,117.24,1,1,2.955,0,-2.955,0
2.1649e-20,0.016458,0,0,0,0,0,0,0,0,-43.16,3.5321,0,-168.95,0,-63.698,117.04,1,1,2.96,0,-2.96,0
2.1627e-20,0.016461,0,0,0,0,0,0,0,0,-43.117,3.5228,0,-168.69,0,-63.607,116.84,1,1,2.965,0,-2.965,0
2.1605e-20,0.016465,0,0,0,0,0,0,0,0,-43.073,3.5134,0,-168.43,0,-63.516,116.65,1,1,2.97,0,-2.97,0
2.1583e-20,0.016468,0,0,0,0,0,0,0,0,-43.03,3.5041,0,-168.17,0,-63.425,116.45,1,1,2.975,0,-2.975,0
2.1561e-20,0.016471,0,0,0,0,0,0,0,0,-42.986,3.4948,0,-167.91,0,-63.334,116.25,1,1,2.98,0,-2.98,0
1.797e-20,0.016474,0,0,0,0,0,0,0,0,-42.942,3.4854,0,-167.65,0,-63.243,116.06,1,1,2.985,0,-2.985,0
1.7956e-20,0.016478,0,0,0,0,0,0,0,0,-42.899,3.4761,0,-167.39,0,-63.152,115.86,1,1,2.99,0,-2.99,0
1.7942e-20,0.016481,0,0,0,0,0,0,0,0,-42.855,3.4668,0,-167.13,0,-63.061,115.66,1,1,2.995,0,-2.995,0
1.7928e-20,0.016484,0,0,0,0,0,0,0,0,-42.812,3.4575,0,-166.87,0,-62.97,115.47,1,1,3,0,-3,0
1.7915e-20,0.016487,0,0,0,0,0,0,0,0,-42.768,3.4481,0,-166.61,0,-62.879,115.27,1,1,3.005,0,-3.005,0
1.7901e-20,0.016491,0,0,0,0,0,0,0,0,-42.725,3.4388,0,-166.36,0,-62.788,115.08,1,1,3.01,0,-3.01,0
1.7887e-20,0.016494,0,0,0,0,0,0,0,0,-42.681,3.4295,0,-166.1,0,-62.697,114.88,1,1,3.015,0,-3.015,0
1.7873e-20,0.016497,0,0,0,0,0,0,0,0,-42.638,3.4201,0,-165.84,0,-62.606,114.68,1,1,3.02,0,-3.02,0
1.7859e-20,0.0165,0,0,0,0,0,0,0,0,-42.594,3.4108,0,-165.58,0,-62.515,114.49,1,1,3.025,0,-3.025,0
1.7846e-20,0.016504,0,0,0,0,0,0,0,0,-42.551,3.4015,0,-165.32,0,-62.424,114.29,1,1,3.03,0,-3.03,0
1.7832e-20,0.016507,0,0,0,0,0,0,0,0,-42.507,3.3921,0,-165.06,0,-62.333,114.09,1,1,3.035,0,-3.035,0
1.4338e-20,0.01651,0,0,0,0,0,0,0,0,-42.464,3.3828,0,-164.8,0,-62.242,113.9,1,1,3.04,0,-3.04,0
1.4333e-20,0.016513,0,0,0,0,0,0,0,0,-42.42,3.3735,0,-164.54,0,-62.151,113.7,1,1,3.045,0,-3.045,0
1.4327e-20,0.016517,0,0,0,0,0,0,0,0,-42.376,3.3642,0,-164.28,0,-62.06,113.51,1,1,3.05,0,-3.05,0
1.4321e-20,0.01652,0,0,0,0,0,0,0,0,-42.333,3.3548,0,-164.02,0,-61.97,113.31,1,1,3.055,0,-3.055,0
1.4316e-20,0.016523,0,0,0,0,0,0,0,0,-42.289,3.3455,0,-163.77,0,-61.879,113.11,1,1,3.06,0,-3.06,0
1.431e-20,0.016526,0,0,0,0,0,0,0,0,-42.246,3.3362,0,-163.51,0,-61.788,112.92,1,1,3.065,0,-3.065,0
1.4305e-20,0.01653,0,0,0,0,0,0,0,0,-42.202,3.3268,0,-163.25,0,-61.697,112.72,1,1,3.07,0,-3.07,0
1.4299e-20,0.016533,0,0,0,0,0,0,0,0,-42.159,3.3175,0,-162.99,0,-61.606,112.52,1,1,3.075,0,-3.075,0
1.4293e-20,0.016536,0,0,0,0,0,0,0,0,-42.115,3.3082,0,-162.73,0,-61.515,112.33,1,1,3.08,0,-3.08,0
1.4288e-20,0.016539,0,0,0,0,0,0,0,0,-42.072,3.2989,0,-162.47,0,-61.424,112.13,1,1,3.085,0,-3.085,0
1.4282e-20,0.016543,0,0,0,0,0,0,0,0,-42.028,3.2895,0,-162.21,0,-61.333,111.94,1,1,3.09,0,-3.09,0
1.4277e-20,0.016546,0,0,0,0,0,0,0,0,-41.985,3.2802,0,-161.95,0,-61.242,111.74,1,1,3.095,0,-3.095,0
1.4271e-20,0.016549,0,0,0,0,0,0,0,0,-41.941,3.2709,0,-161.69,0,-61.151,111.54,1,1,3.1,0,-3.1,0
1.4265e-20,0.016552,0,0,0,0,0,0,0,0,-41.898,3.2615,0,-161.43,0,-61.06,111.35,1,1,3.105,0,-3.105,0
1.426e-20,0.016556,0,0,0,0,0,0,0,0,-41.854,3.2522,0,-161.18,0,-60.969,111.15,1,1,3.11,0,-3.11,0
1.4254e-20,0.016559,0,0,0,0,0,0,0,0,-41.81,3.2429,0,-160.92,0,-60.878,110.95,1,1,3.115,0,-3.115,0
1.4249e-20,0.016562,0,0,0,0,0,0,0,0,-41.767,3.2336,0,-160.66,0,-60.787,110.76,1,1,3.12,0,-3.12,0
1.4243e-20,0.016565,0,0,0,0,0,0,0,0,-41.723,3.2242,0,-160.4,0,-60.696,110.56,1,1,3.125,0,-3.125,0
1.4237e-20,0.016569,0,0,0,0,0,0,0,0,-41.68,3.2149,0,-160.14,0,-60.605,110.36,1,1,3.13,0,-3.13,0
1.4232e-20,0.016572,0,0,0,0,0,0,0,0,-41.636,3.2056,0,-159.88,0,-60.514,110.17,1,1,3.135,0,-3.135,0
1.4226e-20,0.016575,0,0,0,0,0,0,0,0,-41.593,3.1962,0,-159.62,0,-60.423,109.97,1,1,3.14,0,-3.14,0
1.4221e-20,0.016578,0,0,0,0,0,0,0,0,-41.549,3.1869,0,-159.36,0,-60.332,109.78,1,1,3.145,0,-3.145,0
1.4215e-20,0.016582,0,0,0,0,0,0,0,0,-41.506,3.1776,0,-159.1,0,-60.241,109.58,1,1,3.15,0,-3.15,0
1.4209e-20,0.016585,0,0,0,0,0,0,0,0,-41.462,3.1682,0,-158.84,0,-60.15,109.38,1,1,3.155,0,-3.155,0
1.4204e-20,0.016588,0,0,0,0,0,0,0,0,-41.419,3.1589,0,-158.59,0,-60.059,109.19,1,1,3.16,0,-3.16,0
1.4198e-20,0.016591,0,0,0,0,0,0,0,0,-41.375,3.1496,0,-158.33,0,-59.968,108.99,1,1,3.165,0,-3.165,0
1.4193e-20,0.016595,0,0,0,0,0,0,0,0,-41.332,3.1403,0,-158.07,0,-59.878,108.79,1,1,3.17,0,-3.17,0
1.4187e-20,0.016598,0,0,0,0,0,0,0,0,-41.288,3.1309,0,-157.81,0,-59.787,108.6,1,1,3.175,0,-3.175,0
1.4181e-20,0.016601,0,0,0,0,0,0,0,0,-41.245,3.1216,0,-157.55,0,-59.696,108.4,1,1,3.18,0,-3.18,0
1.4176e-20,0.016604,0,0,0,0,0,0,0,0,-41.201,3.1123,0,-157.29,0,-59.605,108.21,1,1,3.185,0,-3.185,0
1.417e-20,0.016608,0,0,0,0,0,0,0,0,-41.157,3.1029,0,-157.03,0,-59.514,108.01,1,1,3.19,0,-3.19,0
1.7391e-20,0.016611,0,0,0,0,0,0,0,0,-41.114,3.0936,0,-156.77,0,-59.423,107.81,1,1,3.195,0,-3.195,0
1.7377e-20,0.016614,0,0,0,0,0,0,0,0,-41.07,3.0843,0,-156.51,0,-59.332,107.62,1,1,3.2,0,-3.2,0
1.7363e-20,0.016617,0,0,0,0,0,0,0,0,-41.027,3.075,0,-156.25,0,-59.241,107.42,1,1,3.205,0,-3.205,0
1.7349e-20,0.016621,0,0,0,0,0,0,0,0,-40.983,3.0656,0,-156,0,-59.15,107.22,1,1,3.21,0,-3.21,0
1.7336e-20,0.016624,0,0,0,0,0,0,0,0,-40.94,3.0563,0,-155.74,0,-59.059,107.03,1,1,3.215,0,-3.215,0
1.7322e-20,0.016627,0,0,0,0,0,0,0,0,-40.896,3.047,0,-155.48,0,-58.968,106.83,1,1,3.22,0,-3.22,0
1.7308e-20,0.01663,0,0,0,0,0,0,0,0,-40.853,3.0376,0,-155.22,0,-58.877,106.64,1,1,3.225,0,-3.225,0
1.7294e-20,0.016634,0,0,0,0,0,0,0,0,-40.809,3.0283,0,-154.96,0,-58.786,106.44,1,1,3.23,0,-3.23,0
1.728e-20,0.016637,0,0,0,0,0,0,0,0,-40.766,3.019,0,-154.7,0,-58.695,106.24,1,1,3.235,0,-3.235,0
1.7267e-20,0.01664,0,0,0,0,0,0,0,0,-40.722,3.0096,0,-154.44,0,-58.604,106.05,1,1,3.24,0,-3.24,0
1.7253e-20,0.016643,0,0,0,0,0,0,0,0,-40.679,3.0003,0,-154.18,0,-58.513,105.85,1,1,3.245,0,-3.245,0
2.0375e-20,0.016647,0,0,0,0,0,0,0,0,-40.635,2.991,0,-153.92,0,-58.422,105.65,1,1,3.25,0,-3.25,0
2.0353e-20,0.01665,0,0,0,0,0,0,0,0,-40.591,2.9817,0,-153.66,0,-58.331,105.46,1,1,3.255,0,-3.255,0
2.0331e-20,0.016653,0,0,0,0,0,0,0,0,-40.548,2.9723,0,-153.41,0,-58.24,105.26,1,1,3.26,0,-3.26,0
2.0309e-20,0.016656,0,0,0,0,0,0,0,0,-40.504,2.963,0,-153.15,0,-58.149,105.07,1,1,3.265,0,-3.265,0
2.0287e-20,0.01666,0,0,0,0,0,0,0,0,-40.461,2.9537,0,-152.89,0,-58.058,104.87,1,1,3.27,0,-3.27,0
2.0265e-20,0.016663,0,0,0,0,0,0,0,0,-40.417,2.9443,0,-152.63,0,-57.967,104.67,1,1,3.275,0,-3.275,0
2.0244e-20,0.016666,0,0,0,0,0,0,0,0,-40.374,2.935,0,-152.37,0,-57.876,104.48,1,1,3.28,0,-3.28,0
2.0222e-20,0.016669,0,0,0,0,0,0,0,0,-40.33,2.9257,0,-152.11,0,-57.786,104.28,1,1,3.285,0,-3.285,0
2.327e-20,0.016673,0,0,0,0,0,0,0,0,-40.287,2.9164,0,-151.85,0,-57.695,104.08,1,1,3.29,0,-3.29,0
2.324e-20,0.016676,0,0,0,0,0,0,0,0,-40.243,2.907,0,-151.59,0,-57.604,103.89,1,1,3.295,0,-3.295,0
2.321e-20,0.016679,0,0,0,0,0,0,0,0,-40.2,2.8977,0,-151.33,0,-57.513,103.69,1,1,3.3,0,-3.3,0
2.318e-20,0.016682,0,0,0,0,0,0,0,0,-40.156,2.8884,0,-151.07,0,-57.422,103.49,1,1,3.305,0,-3.305,0
2.315e-20,0.016686,0,0,0,0,0,0,0,0,-40.113,2.879,0,-150.82,0,-57.331,103.3,1,1,3.31,0,-3.31,0
2.312e-20,0.016689,0,0,0,0,0,0,0,0,-40.069,2.8697,0,-150.56,0,-57.24,103.1,1,1,3.315,0,-3.315,0
2.6111e-20,0.016692,0,0,0,0,0,0,0,0,-40.025,2.8604,0,-150.3,0,-57.149,102.91,1,1,3.32,0,-3.32,0
2.6073e-20,0.016695,0,0,0,0,0,0,0,0,-39.982,2.8511,0,-150.04,0,-57.058,102.71,1,1,3.325,0,-3.325,0
2.6035e-20,0.016699,0,0,0,0,0,0,0,0,-39.938,2.8417,0,-149.78,0,-56.967,102.51,1,1,3.33,0,-3.33,0
2.5996e-20,0.016702,0,0,0,0,0,0,0,0,-39.895,2.8324,0,-149.52,0,-56.876,102.32,1,1,3.335,0,-3.335,0
2.5958e-20,0.016705,0,0,0,0,0,0,0,0,-39.851,2.8231,0,-149.26,0,-56.785,102.12,1,1,3.34,0,-3.34,0
2.592e-20,0.016708,0,0,0,0,0,0,0,0,-39.808,2.8137,0,-149,0,-56.694,101.92,1,1,3.345,0,-3.345,0
2.8854e-20,0.016712,0,0,0,0,0,0,0,0,-39.764,2.8044,0,-148.74,0,-56.603,101.73,1,1,3.35,0,-3.35,0
2.8807e-20,0.016715,0,0,0,0,0,0,0,0,-39.721,2.7951,0,-148.48,0,-56.512,101.53,1,1,3.355,0,-3.355,0
2.8761e-20,0.016718,0,0,0,0,0,0,0,0,-39.677,2.7857,0,-148.23,0,-56.421,101.34,1,1,3.36,0,-3.36,0
2.8714e-20,0.016721,0,0,0,0,0,0,0,0,-39.634,2.7764,0,-147.97,0,-56.33,101.14,1,1,3.365,0,-3.365,0
2.8668e-20,0.016725,0,0,0,0,0,0,0,0,-39.59,2.7671,0,-147.71,0,-56.239,100.94,1,1,3.37,0,-3.37,0
3.1553e-20,0.016728,0,0,0,0,0,0,0,0,-39.547,2.7578,0,-147.45,0,-56.148,100.75,1,1,3.375,0,-3.375,0
3.1498e-20,0.016731,0,0,0,0,0,0,0,0,-39.503,2.7484,0,-147.19,0,-56.057,100.55,1,1,3.38,0,-3.38,0
1.9783e-20,0.016734,0,0,0,0,0,0,0,0,-39.46,2.7393,0,-146.93,0,-55.968,100.36,1,1,3.385,0,-3.385,0
1.9768e-20,0.016737,0,0,0,0,0,0,0,0,-39.419,2.7336,0,-146.75,0,-55.899,100.22,1,1,3.39,0,-3.39,0
1.6848e-20,0.01674,0,0,0,0,0,0,0,0,-39.378,2.7279,0,-146.56,0,-55.83,100.09,1,1,3.395,0,-3.395,0
1.6838e-20,0.016743,0,0,0,0,0,0,0,0,-39.337,2.7221,0,-146.37,0,-55.761,99.95,1,1,3.4,0,-3.4,0
1.6828e-20,0.016745,0,0,0,0,0,0,0,0,-39.296,2.7164,0,-146.18,0,-55.692,99.814,1,1,3.405,0,-3.405,0
1.6818e-20,0.016748,0,0,0,0,0,0,0,0,-39.254,2.7107,0,-145.99,0,-55.623,99.679,1,1,3.41,0,-3.41,0
1.6808e-20,0.016751,0,0,0,0,0,0,0,0,-39.213,2.705,0,-145.8,0,-55.554,99.543,1,1,3.415,0,-3.415,0
1.6798e-20,0.016754,0,0,0,0,0,0,0,0,-39.172,2.6993,0,-145.62,0,-55.485,99.407,1,1,3.42,0,-3.42,0
1.6789e-20,0.016756,0,0,0,0,0,0,0,0,-39.131,2.6935,0,-145.43,0,-55.416,99.272,1,1,3.425,0,-3.425,0
1.6779e-20,0.016759,0,0,0,0,0,0,0,0,-39.09,2.6878,0,-145.24,0,-55.347,99.136,1,1,3.43,0,-3.43,0
1.6769e-20,0.016762,0,0,0,0,0,0,0,0,-39.049,2.6821,0,-145.05,0,-55.278,99,1,1,3.435,0,-3.435,0
1.6759e-20,0.016764,0,0,0,0,0,0,0,0,-39.008,2.6764,0,-144.86,0,-55.21,98.864,1,1,3.44,0,-3.44,0
1.6749e-20,0.016767,0,0,0,0,0,0,0,0,-38.967,2.6707,0,-144.67,0,-55.141,98.729,1,1,3.445,0,-3.445,0
1.6739e-20,0.01677,0,0,0,0,0,0,0,0,-38.926,2.6649,0,-144.49,0,-55.072,98.593,1,1,3.45,0,-3.45,0
1.673e-20,0.016773,0,0,0,0,0,0,0,0,-38.885,2.6592,0,-144.3,0,-55.003,98.457,1,1,3.455,0,-3.455,0
1.672e-20,0.016775,0,0,0,0,0,0,0,0,-38.844,2.6535,0,-144.11,0,-54.934,98.322,1,1,3.46,0,-3.46,0
1.671e-20,0.016778,0,0,0,0,0,0,0,0,-38.803,2.6478,0,-143.92,0,-54.865,98.186,1,1,3.465,0,-3.465,0
1.67e-20,0.016781,0,0,0,0,0,0,0,0,-38.762,2.6421,0,-143.73,0,-54.796,98.05,1,1,3.47,0,-3.47,0
1.669e-20,0.016784,0,0,0,0,0,0,0,0,-38.721,2.6363,0,-143.54,0,-54.727,97.914,1,1,3.475,0,-3.475,0
1.668e-20,0.016786,0,0,0,0,0,0,0,0,-38.68,2.6306,0,-143.36,0,-54.658,97.779,1,1,3.48,0,-3.48,0
1.6671e-20,0.016789,0,0,0,0,0,0,0,0,-38.639,2.6249,0,-143.17,0,-54.589,97.643,1,1,3.485,0,-3.485,0
1.6661e-20,0.016792,0,0,0,0,0,0,0,0,-38.598,2.6192,0,-142.98,0,-54.52,97.507,1,1,3.49,0,-3.49,0
1.6651e-20,0.016794,0,0,0,0,0,0,0,0,-38.557,2.6134,0,-142.79,0,-54.451,97.372,1,1,3.495,0,-3.495,0
1.6641e-20,0.016797,0,0,0,0,0,0,0,0,-38.516,2.6077,0,-142.6,0,-54.383,97.236,1,1,3.5,0,-3.5,0
1.6631e-20,0.0168,0,0,0,0,0,0,0,0,-38.475,2.602,0,-142.41,0,-54.314,97.1,1,1,3.505,0,-3.505,0
1.6622e-20,0.016803,0,0,0,0,0,0,0,0,-38.434,2.5963,0,-142.23,0,-54.245,96.964,1,1,3.51,0,-3.51,0
1.3822e-20,0.016805,0,0,0,0,0,0,0,0,-38.393,2.5906,0,-142.04,0,-54.176,96.829,1,1,3.515,0,-3.515,0
1.3817e-20,0.016808,0,0,0,0,0,0,0,0,-38.352,2.5848,0,-141.85,0,-54.107,96.693,1,1,3.52,0,-3.52,0
1.3812e-20,0.016811,0,0,0,0,0,0,0,0,-38.311,2.5791,0,-141.66,0,-54.038,96.557,1,1,3.525,0,-3.525,0
1.3807e-20,0.016814,0,0,0,0,0,0,0,0,-38.27,2.5734,0,-141.47,0,-53.969,96.422,1,1,3.53,0,-3.53,0
1.3802e-20,0.016816,0,0,0,0,0,0,0,0,-38.229,2.5677,0,-141.28,0,-53.9,96.286,1,1,3.535,0,-3.535,0
1.3797e-20,0.016819,0,0,0,0,0,0,0,0,-38.188,2.562,0,-141.1,0,-53.831,96.15,1,1,3.54,0,-3.54,0
1.3792e-20,0.016822,0,0,0,0,0,0,0,0,-38.147,2.5562,0,-140.91,0,-53.762,96.014,1,1,3.545,0,-3.545,0
1.3787e-20,0.016824,0,0,0,0,0,0,0,0,-38.106,2.5505,0,-140.72,0,-53.693,95.879,1,1,3.55,0,-3.55,0
1.3782e-20,0.016827,0,0,0,0,0,0,0,0,-38.065,2.5448,0,-140.53,0,-53.625,95.743,1,1,3.555,0,-3.555,0
1.3777e-20,0.01683,0,0,0,0,0,0,0,0,-38.024,2.5391,0,-140.34,0,-53.556,95.607,1,1,3.56,0,-3.56,0
1.3772e-20,0.016833,0,0,0,0,0,0,0,0,-37.983,2.5334,0,-140.16,0,-53.487,95.472,1,1,3.565,0,-3.565,0
1.3767e-20,0.016835,0,0,0,0,0,0,0,0,-37.942,2.5276,0,-139.97,0,-53.418,95.336,1,1,3.57,0,-3.57,0
1.3762e-20,0.016838,0,0,0,0,0,0,0,0,-37.901,2.5219,0,-139.78,0,-53.349,95.2,1,1,3.575,0,-3.575,0
1.3757e-20,0.016841,0,0,0,0,0,0,0,0,-37.86,2.5162,0,-139.59,0,-53.28,95.064,1,1,3.58,0,-3.58,0
1.3752e-20,0.016844,0,0,0,0,0,0,0,0,-37.819,2.5105,0,-139.4,0,-53.211,94.929,1,1,3.585,0,-3.585,0
1.3747e-20,0.016846,0,0,0,0,0,0,0,0,-37.778,2.5048,0,-139.21,0,-53.142,94.793,1,1,3.59,0,-3.59,0
1.3742e-20,0.016849,0,0,0,0,0,0,0,0,-37.737,2.499,0,-139.03,0,-53.073,94.657,1,1,3.595,0,-3.595,0
1.3737e-20,0.016852,0,0,0,0,0,0,0,0,-37.696,2.4933,0,-138.84,0,-53.004,94.522,1,1,3.6,0,-3.6,0
1.3732e-20,0.016854,0,0,0,0,0,0,0,0,-37.655,2.4876,0,-138.65,0,-52.935,94.386,1,1,3.605,0,-3.605,0
1.3727e-20,0.016857,0,0,0,0,0,0,0,0,-37.614,2.4819,0,-138.46,0,-52.866,94.25,1,1,3.61,0,-3.61,0
1.3722e-20,0.01686,0,0,0,0,0,0,0,0,-37.573,2.4762,0,-138.27,0,-52.798,94.114,1,1,3.615,0,-3.615,0
1.3717e-20,0.016863,0,0,0,0,0,0,0,0,-37.532,2.4704,0,-138.08,0,-52.729,93.979,1,1,3.62,0,-3.62,0
1.3712e-20,0.016865,0,0,0,0,0,0,0,0,-37.491,2.4647,0,-137.9,0,-52.66,93.843,1,1,3.625,0,-3.625,0
1.3707e-20,0.016868,0,0,0,0,0,0,0,0,-37.45,2.459,0,-137.71,0,-52.591,93.707,1,1,3.63,0,-3.63,0
1.3702e-20,0.016871,0,0,0,0,0,0,0,0,-37.409,2.4533,0,-137.52,0,-52.522,93.572,1,1,3.635,0,-3.635,0
1.3697e-20,0.016874,0,0,0,0,0,0,0,0,-37.368,2.4476,0,-137.33,0,-52.453,93.436,1,1,3.64,0,-3.64,0
1.3692e-20,0.016876,0,0,0,0,0,0,0,0,-37.327,2.4418,0,-137.14,0,-52.384,93.3,1,1,3.645,0,-3.645,0
1.3687e-20,0.016879,0,0,0,0,0,0,0,0,-37.286,2.4361,0,-136.95,0,-52.315,93.164,1,1,3.65,0,-3.65,0
1.3682e-20,0.016882,0,0,0,0,0,0,0,0,-37.245,2.4304,0,-136.77,0,-52.246,93.029,1,1,3.655,0,-3.655,0
1.3677e-20,0.016884,0,0,0,0,0,0,0,0,-37.204,2.4247,0,-136.58,0,-52.177,92.893,1,1,3.66,0,-3.66,0
1.3672e-20,0.016887,0,0,0,0,0,0,0,0,-37.163,2.419,0,-136.39,0,-52.108,92.757,1,1,3.665,0,-3.665,0
1.3667e-20,0.01689,0,0,0,0,0,0,0,0,-37.122,2.4132,0,-136.2,0,-52.039,92.622,1,1,3.67,0,-3.67,0
1.3662e-20,0.016893,0,0,0,0,0,0,0,0,-37.081,2.4075,0,-136.01,0,-51.971,92.486,1,1,3.675,0,-3.675,0
1.3657e-20,0.016895,0,0,0,0,0,0,0,0,-37.04,2.4018,0,-135.82,0,-51.902,92.35,1,1,3.68,0,-3.68,0
1.3652e-20,0.016898,0,0,0,0,0,0,0,0,-36.999,2.3961,0,-135.64,0,-51.833,92.214,1,1,3.685,0,-3.685,0
1.3647e-20,0.016901,0,0,0,0,0,0,0,0,-36.958,2.3904,0,-135.45,0,-51.764,92.079,1,1,3.69,0,-3.69,0
1.3642e-20,0.016904,0,0,0,0,0,0,0,0,-36.917,2.3846,0,-135.26,0,-51.695,91.943,1,1,3.695,0,-3.695,0
1.3637e-20,0.016906,0,0,0,0,0,0,0,0,-36.876,2.3789,0,-135.07,0,-51.626,91.807,1,1,3.7,0,-3.7,0
1.3632e-20,0.016909,0,0,0,0,0,0,0,0,-36.835,2.3732,0,-134.88,0,-51.557,91.672,1,1,3.705,0,-3.705,0
1.3627e-20,0.016912,0,0,0,0,0,0,0,0,-36.794,2.3675,0,-134.69,0,-51.488,91.536,1,1,3.71,0,-3.71,0
1.3622e-20,0.016914,0,0,0,0,0,0,0,0,-36.753,2.3618,0,-134.51,0,-51.419,91.4,1,1,3.715,0,-3.715,0
1.3617e-20,0.016917,0,0,0,0,0,0,0,0,-36.712,2.356,0,-134.32,0,-51.35,91.264,1,1,3.72,0,-3.72,0
1.3612e-20,0.01692,0,0,0,0,0,0,0,0,-36.671,2.3503,0,-134.13,0,-51.281,91.129,1,1,3.725,0,-3.725,0
1.3607e-20,0.016923,0,0,0,0,0,0,0,0,-36.63,2.3446,0,-133.94,0,-51.213,90.993,1,1,3.73,0,-3.73,0
1.3602e-20,0.016925,0,0,0,0,0,0,0,0,-36.589,2.3389,0,-133.75,0,-51.144,90.857,1,1,3.735,0,-3.735,0
1.3597e-20,0.016928,0,0,0,0,0,0,0,0,-36.548,2.3331,0,-133.56,0,-51.075,90.722,1,1,3.74,0,-3.74,0
1.3592e-20,0.016931,0,0,0,0,0,0,0,0,-36.507,2.3274,0,-133.38,0,-51.006,90.586,1,1,3.745,0,-3.745,0
1.3587e-20,0.016934,0,0,0,0,0,0,0,0,-36.466,2.3217,0,-133.19,0,-50.937,90.45,1,1,3.75,0,-3.75,0
1.3582e-20,0.016936,0,0,0,0,0,0,0,0,-36.424,2.316,0,-133,0,-50.868,90.314,1,1,3.755,0,-3.755,0
1.3577e-20,0.016939,0,0,0,0,0,0,0,0,-36.383,2.3103,0,-132.81,0,-50.799,90.179,1,1,3.76,0,-3.76,0
1.3572e-20,0.016942,0,0,0,0,0,0,0,0,-36.342,2.3045,0,-132.62,0,-50.73,90.043,1,1,3.765,0,-3.765,0
1.3567e-20,0.016944,0,0,0,0,0,0,0,0,-36.301,2.2988,0,-132.43,0,-50.661,89.907,1,1,3.77,0,-3.77,0
1.3562e-20,0.016947,0,0,0,0,0,0,0,0,-36.26,2.2931,0,-132.25,0,-50.592,89.772,1,1,3.775,0,-3.775,0
1.3557e-20,0.01695,0,0,0,0,0,0,0,0,-36.219,2.2874,0,-132.06,0,-50.523,89.636,1,1,3.78,0,-3.78,0
1.3553e-20,0.016953,0,0,0,0,0,0,0,0,-36.178,2.2817,0,-131.87,0,-50.454,89.5,1,1,3.785,0,-3.785,0
1.3548e-20,0.016955,0,0,0,0,0,0,0,0,-36.137,2.2759,0,-131.68,0,-50.386,89.364,1,1,3.79,0,-3.79,0
1.3543e-20,0.016958,0,0,0,0,0,0,0,0,-36.096,2.2702,0,-131.49,0,-50.317,89.229,1,1,3.795,0,-3.795,0
1.3538e-20,0.016961,0,0,0,0,0,0,0,0,-36.055,2.2645,0,-131.3,0,-50.248,89.093,1,1,3.8,0,-3.8,0
1.3533e-20,0.016964,0,0,0,0,0,0,0,0,-36.014,2.2588,0,-131.12,0,-50.179,88.957,1,1,3.805,0,-3.805,0
1.3528e-20,0.016966,0,0,0,0,0,0,0,0,-35.973,2.2531,0,-130.93,0,-50.11,88.822,1,1,3.81,0,-3.81,0
1.3523e-20,0.016969,0,0,0,0,0,0,0,0,-35.932,2.2473,0,-130.74,0,-50.041,88.686,1,1,3.815,0,-3.815,0
1.3518e-20,0.016972,0,0,0,0,0,0,0,0,-35.891,2.2416,0,-130.55,0,-49.972,88.55,1,1,3.82,0,-3.82,0
1.3513e-20,0.016974,0,0,0,0,0,0,0,0,-35.85,2.2359,0,-130.36,0,-49.903,88.414,1,1,3.825,0,-3.825,0
1.3508e-20,0.016977,0,0,0,0,0,0,0,0,-35.809,2.2302,0,-130.17,0,-49.834,88.279,1,1,3.83,0,-3.83,0
1.3503e-20,0.01698,0,0,0,0,0,0,0,0,-35.768,2.2245,0,-129.99,0,-49.765,88.143,1,1,3.835,0,-3.835,0
1.3498e-20,0.016983,0,0,0,0,0,0,0,0,-35.727,2.2187,0,-129.8,0,-49.696,88.007,1,1,3.84,0,-3.84,0
1.3493e-20,0.016985,0,0,0,0,0,0,0,0,-35.686,2.213,0,-129.61,0,-49.627,87.871,1,1,3.845,0,-3.845,0
1.5954e-20,0.016988,0,0,0,0,0,0,0,0,-35.645,2.2073,0,-129.42,0,-49.559,87.736,1,1,3.85,0,-3.85,0
1.5944e-20,0.016991,0,0,0,0,0,0,0,0,-35.604,2.2016,0,-129.23,0,-49.49,87.6,1,1,3.855,0,-3.855,0
1.5934e-20,0.016994,0,0,0,0,0,0,0,0,-35.563,2.1959,0,-129.05,0,-49.421,87.464,1,1,3.86,0,-3.86,0
1.5924e-20,0.016996,0,0,0,0,0,0,0,0,-35.522,2.1901,0,-128.86,0,-49.352,87.329,1,1,3.865,0,-3.865,0
1.5914e-20,0.016999,0,0,0,0,0,0,0,0,-35.481,2.1844,0,-128.67,0,-49.283,87.193,1,1,3.87,0,-3.87,0
1.5904e-20,0.017002,0,0,0,0,0,0,0,0,-35.44,2.1787,0,-128.48,0,-49.214,87.057,1,1,3.875,0,-3.875,0
1.5895e-20,0.017004,0,0,0,0,0,0,0,0,-35.399,2.173,0,-128.29,0,-49.145,86.921,1,1,3.88,0,-3.88,0
1.5885e-20,0.017007,0,0,0,0,0,0,0,0,-35.358,2.1673,0,-128.1,0,-49.076,86.786,1,1,3.885,0,-3.885,0
1.5875e-20,0.01701,0,0,0,0,0,0,0,0,-35.317,2.1615,0,-127.92,0,-49.007,86.65,1,1,3.89,0,-3.89,0
1.5865e-20,0.017013,0,0,0,0,0,0,0,0,-35.276,2.1558,0,-127.73,0,-48.938,86.514,1,1,3.895,0,-3.895,0
1.5855e-20,0.017015,0,0,0,0,0,0,0,0,-35.235,2.1501,0,-127.54,0,-48.869,86.379,1,1,3.9,0,-3.9,0
1.5845e-20,0.017018,0,0,0,0,0,0,0,0,-35.194,2.1444,0,-127.35,0,-48.801,86.243,1,1,3.905,0,-3.905,0
1.5836e-20,0.017021,0,0,0,0,0,0,0,0,-35.153,2.1387,0,-127.16,0,-48.732,86.107,1,1,3.91,0,-3.91,0
1.5826e-20,0.017024,0,0,0,0,0,0,0,0,-35.112,2.1329,0,-126.97,0,-48.663,85.971,1,1,3.915,0,-3.915,0
1.5816e-20,0.017026,0,0,0,0,0,0,0,0,-35.071,2.1272,0,-126.79,0,-48.594,85.836,1,1,3.92,0,-3.92,0
1.5806e-20,0.017029,0,0,0,0,0,0,0,0,-35.03,2.1215,0,-126.6,0,-48.525,85.7,1,1,3.925,0,-3.925,0
1.5796e-20,0.017032,0,0,0,0,0,0,0,0,-34.989,2.1158,0,-126.41,0,-48.456,85.564,1,1,3.93,0,-3.93,0
1.5786e-20,0.017034,0,0,0,0,0,0,0,0,-34.948,2.1101,0,-126.22,0,-48.387,85.429,1,1,3.935,0,-3.935,0
1.5777e-20,0.017037,0,0,0,0,0,0,0,0,-34.907,2.1043,0,-126.03,0,-48.318,85.293,1,1,3.94,0,-3.94,0
1.5767e-20,0.01704,0,0,0,0,0,0,0,0,-34.866,2.0986,0,-125.84,0,-48.249,85.157,1,1,3.945,0,-3.945,0
1.5757e-20,0.017043,0,0,0,0,0,0,0,0,-34.825,2.0929,0,-125.66,0,-48.18,85.021,1,1,3.95,0,-3.95,0
1.5747e-20,0.017045,0,0,0,0,0,0,0,0,-34.784,2.0872,0,-125.47,0,-48.111,84.886,1,1,3.955,0,-3.955,0
1.5737e-20,0.017048,0,0,0,0,0,0,0,0,-34.743,2.0815,0,-125.28,0,-48.042,84.75,1,1,3.96,0,-3.96,0
1.5728e-20,0.017051,0,0,0,0,0,0,0,0,-34.702,2.0757,0,-125.09,0,-47.974,84.614,1,1,3.965,0,-3.965,0
1.8068e-20,0.017054,0,0,0,0,0,0,0,0,-34.661,2.07,0,-124.9,0,-47.905,84.479,1,1,3.97,0,-3.97,0
1.8053e-20,0.017056,0,0,0,0,0,0,0,0,-34.62,2.0643,0,-124.71,0,-47.836,84.343,1,1,3.975,0,-3.975,0
1.3358e-20,0.017059,0,0,0,0,0,0,0,0,-34.58,2.0604,0,-124.57,0,-47.78,84.242,1,1,3.98,0,-3.98,0
1.3354e-20,0.017061,0,0,0,0,0,0,0,0,-34.541,2.0568,0,-124.43,0,-47.726,84.148,1,1,3.985,0,-3.985,0
1.335e-20,0.017063,0,0,0,0,0,0,0,0,-34.502,2.0532,0,-124.29,0,-47.672,84.053,1,1,3.99,0,-3.99,0
1.3345e-20,0.017066,0,0,0,0,0,0,0,0,-34.462,2.0495,0,-124.15,0,-47.618,83.959,1,1,3.995,0,-3.995,0
1.3341e-20,0.017068,0,0,0,0,0,0,0,0,-34.423,2.0459,0,-124.01,0,-47.564,83.864,1,1,4,0,-4,0
1.3336e-20,0.01707,0,0,0,0,0,0,0,0,-34.383,2.0423,0,-123.87,0,-47.51,83.77,1,1,4.005,0,-4.005,0
1.3332e-20,0.017073,0,0,0,0,0,0,0,0,-34.344,2.0387,0,-123.73,0,-47.456,83.676,1,1,4.01,0,-4.01,0
1.3327e-20,0.017075,0,0,0,0,0,0,0,0,-34.305,2.0351,0,-123.59,0,-47.402,83.581,1,1,4.015,0,-4.015,0
1.3323e-20,0.017077,0,0,0,0,0,0,0,0,-34.265,2.0315,0,-123.45,0,-47.348,83.487,1,1,4.02,0,-4.02,0
1.3319e-20,0.01708,0,0,0,0,0,0,0,0,-34.226,2.0279,0,-123.31,0,-47.294,83.392,1,1,4.025,0,-4.025,0
1.3314e-20,0.017082,0,0,0,0,0,0,0,0,-34.187,2.0243,0,-123.17,0,-47.241,83.298,1,1,4.03,0,-4.03,0
1.331e-20,0.017084,0,0,0,0,0,0,0,0,-34.147,2.0207,0,-123.03,0,-47.187,83.203,1,1,4.035,0,-4.035,0
1.3305e-20,0.017086,0,0,0,0,0,0,0,0,-34.108,2.0171,0,-122.89,0,-47.133,83.109,1,1,4.04,0,-4.04,0
1.3301e-20,0.017089,0,0,0,0,0,0,0,0,-34.068,2.0135,0,-122.75,0,-47.079,83.014,1,1,4.045,0,-4.045,0
1.3297e-20,0.017091,0,0,0,0,0,0,0,0,-34.029,2.0099,0,-122.61,0,-47.025,82.92,1,1,4.05,0,-4.05,0
1.3292e-20,0.017093,0,0,0,0,0,0,0,0,-33.99,2.0063,0,-122.47,0,-46.971,82.825,1,1,4.055,0,-4.055,0
1.3288e-20,0.017096,0,0,0,0,0,0,0,0,-33.95,2.0026,0,-122.33,0,-46.917,82.731,1,1,4.06,0,-4.06,0
1.3283e-20,0.017098,0,0,0,0,0,0,0,0,-33.911,1.999,0,-122.19,0,-46.863,82.636,1,1,4.065,0,-4.065,0
1.3279e-20,0.0171,0,0,0,0,0,0,0,0,-33.872,1.9954,0,-122.05,0,-46.809,82.542,1,1,4.07,0,-4.07,0
1.3274e-20,0.017103,0,0,0,0,0,0,0,0,-33.832,1.9918,0,-121.91,0,-46.755,82.447,1,1,4.075,0,-4.075,0
1.327e-20,0.017105,0,0,0,0,0,0,0,0,-33.793,1.9882,0,-121.77,0,-46.701,82.353,1,1,4.08,0,-4.08,0
1.3266e-20,0.017107,0,0,0,0,0,0,0,0,-33.754,1.9846,0,-121.62,0,-46.647,82.258,1,1,4.085,0,-4.085,0
1.3261e-20,0.01711,0,0,0,0,0,0,0,0,-33.714,1.981,0,-121.48,0,-46.594,82.164,1,1,4.09,0,-4.09,0
1.3257e-20,0.017112,0,0,0,0,0,0,0,0,-33.675,1.9774,0,-121.34,0,-46.54,82.07,1,1,4.095,0,-4.095,0
1.3252e-20,0.017114,0,0,0,0,0,0,0,0,-33.635,1.9738,0,-121.2,0,-46.486,81.975,1,1,4.1,0,-4.1,0
1.3248e-20,0.017117,0,0,0,0,0,0,0,0,-33.596,1.9702,0,-121.06,0,-46.432,81.881,1,1,4.105,0,-4.105,0
1.3243e-20,0.017119,0,0,0,0,0,0,0,0,-33.557,1.9666,0,-120.92,0,-46.378,81.786,1,1,4.11,0,-4.11,0
1.3239e-20,0.017121,0,0,0,0,0,0,0,0,-33.517,1.963,0,-120.78,0,-46.324,81.692,1,1,4.115,0,-4.115,0
1.3235e-20,0.017124,0,0,0,0,0,0,0,0,-33.478,1.9594,0,-120.64,0,-46.27,81.597,1,1,4.12,0,-4.12,0
1.323e-20,0.017126,0,0,0,0,0,0,0,0,-33.439,1.9557,0,-120.5,0,-46.216,81.503,1,1,4.125,0,-4.125,0
1.3226e-20,0.017128,0,0,0,0,0,0,0,0,-33.399,1.9521,0,-120.36,0,-46.162,81.408,1,1,4.13,0,-4.13,0
1.3221e-20,0.01713,0,0,0,0,0,0,0,0,-33.36,1.9485,0,-120.22,0,-46.108,81.314,1,1,4.135,0,-4.135,0
1.3217e-20,0.017133,0,0,0,0,0,0,0,0,-33.321,1.9449,0,-120.08,0,-46.054,81.219,1,1,4.14,0,-4.14,0
1.3213e-20,0.017135,0,0,0,0,0,0,0,0,-33.281,1.9413,0,-119.94,0,-46.001,81.125,1,1,4.145,0,-4.145,0
1.3208e-20,0.017137,0,0,0,0,0,0,0,0,-33.242,1.9377,0,-119.8,0,-45.947,81.03,1,1,4.15,0,-4.15,0
1.3204e-20,0.01714,0,0,0,0,0,0,0,0,-33.202,1.9341,0,-119.66,0,-45.893,80.936,1,1,4.155,0,-4.155,0
1.3199e-20,0.017142,0,0,0,0,0,0,0,0,-33.163,1.9305,0,-119.52,0,-45.839,80.841,1,1,4.16,0,-4.16,0
1.3195e-20,0.017144,0,0,0,0,0,0,0,0,-33.124,1.9269,0,-119.38,0,-45.785,80.747,1,1,4.165,0,-4.165,0
1.319e-20,0.017147,0,0,0,0,0,0,0,0,-33.084,1.9233,0,-119.24,0,-45.731,80.652,1,1,4.17,0,-4.17,0
1.3186e-20,0.017149,0,0,0,0,0,0,0,0,-33.045,1.9197,0,-119.1,0,-45.677,80.558,1,1,4.175,0,-4.175,0
1.3182e-20,0.017151,0,0,0,0,0,0,0,0,-33.006,1.9161,0,-118.96,0,-45.623,80.463,1,1,4.18,0,-4.18,0
1.3177e-20,0.017154,0,0,0,0,0,0,0,0,-32.966,1.9125,0,-118.82,0,-45.569,80.369,1,1,4.185,0,-4.185,0
1.3173e-20,0.017156,0,0,0,0,0,0,0,0,-32.927,1.9088,0,-118.68,0,-45.515,80.275,1,1,4.19,0,-4.19,0
1.3168e-20,0.017158,0,0,0,0,0,0,0,0,-32.888,1.9052,0,-118.54,0,-45.461,80.18,1,1,4.195,0,-4.195,0
1.3164e-20,0.017161,0,0,0,0,0,0,0,0,-32.848,1.9016,0,-118.4,0,-45.408,80.086,1,1,4.2,0,-4.2,0
1.316e-20,0.017163,0,0,0,0,0,0,0,0,-32.809,1.898,0,-118.26,0,-45.354,79.991,1,1,4.205,0,-4.205,0
1.3155e-20,0.017165,0,0,0,0,0,0,0,0,-32.769,1.8944,0,-118.12,0,-45.3,79.897,1,1,4.21,0,-4.21,0
1.3151e-20,0.017168,0,0,0,0,0,0,0,0,-32.73,1.8908,0,-117.98,0,-45.246,79.802,1,1,4.215,0,-4.215,0
1.3146e-20,0.01717,0,0,0,0,0,0,0,0,-32.691,1.8872,0,-117.84,0,-45.192,79.708,1,1,4.22,0,-4.22,0
1.3142e-20,0.017172,0,0,0,0,0,0,0,0,-32.651,1.8836,0,-117.7,0,-45.138,79.613,1,1,4.225,0,-4.225,0
1.3137e-20,0.017175,0,0,0,0,0,0,0,0,-32.612,1.88,0,-117.56,0,-45.084,79.519,1,1,4.23,0,-4.23,0
1.3133e-20,0.017177,0,0,0,0,0,0,0,0,-32.573,1.8764,0,-117.42,0,-45.03,79.424,1,1,4.235,0,-4.235,0
1.3129e-20,0.017179,0,0,0,0,0,0,0,0,-32.533,1.8728,0,-117.28,0,-44.976,79.33,1,1,4.24,0,-4.24,0
1.3124e-20,0.017181,0,0,0,0,0,0,0,0,-32.494,1.8692,0,-117.14,0,-44.922,79.235,1,1,4.245,0,-4.245,0
1.312e-20,0.017184,0,0,0,0,0,0,0,0,-32.455,1.8656,0,-117,0,-44.868,79.141,1,1,4.25,0,-4.25,0
1.3115e-20,0.017186,0,0,0,0,0,0,0,0,-32.415,1.8619,0,-116.86,0,-44.815,79.046,1,1,4.255,0,-4.255,0
1.3111e-20,0.017188,0,0,0,0,0,0,0,0,-32.376,1.8583,0,-116.72,0,-44.761,78.952,1,1,4.26,0,-4.26,0
1.3106e-20,0.017191,0,0,0,0,0,0,0,0,-32.336,1.8547,0,-116.58,0,-44.707,78.857,1,1,4.265,0,-4.265,0
1.3102e-20,0.017193,0,0,0,0,0,0,0,0,-32.297,1.8511,0,-116.44,0,-44.653,78.763,1,1,4.27,0,-4.27,0
1.3098e-20,0.017195,0,0,0,0,0,0,0,0,-32.258,1.8475,0,-116.3,0,-44.599,78.669,1,1,4.275,0,-4.275,0
1.3093e-20,0.017198,0,0,0,0,0,0,0,0,-32.218,1.8439,0,-116.16,0,-44.545,78.574,1,1,4.28,0,-4.28,0
1.3089e-20,0.0172,0,0,0,0,0,0,0,0,-32.179,1.8403,0,-116.02,0,-44.491,78.48,1,1,4.285,0,-4.285,0
1.3084e-20,0.017202,0,0,0,0,0,0,0,0,-32.14,1.8367,0,-115.88,0,-44.437,78.385,1,1,4.29,0,-4.29,0
1.308e-20,0.017205,0,0,0,0,0,0,0,0,-32.1,1.8331,0,-115.74,0,-44.383,78.291,1,1,4.295,0,-4.295,0
1.3076e-20,0.017207,0,0,0,0,0,0,0,0,-32.061,1.8295,0,-115.6,0,-44.329,78.196,1,1,4.3,0,-4.3,0
1.3071e-20,0.017209,0,0,0,0,0,0,0,0,-32.022,1.8259,0,-115.46,0,-44.275,78.102,1,1,4.305,0,-4.305,0
1.3067e-20,0.017212,0,0,0,0,0,0,0,0,-31.982,1.8223,0,-115.32,0,-44.222,78.007,1,1,4.31,0,-4.31,0
1.3062e-20,0.017214,0,0,0,0,0,0,0,0,-31.943,1.8186,0,-115.18,0,-44.168,77.913,1,1,4.315,0,-4.315,0
1.3058e-20,0.017216,0,0,0,0,0,0,0,0,-31.903,1.815,0,-115.04,0,-44.114,77.818,1,1,4.32,0,-4.32,0
1.3053e-20,0.017219,0,0,0,0,0,0,0,0,-31.864,1.8114,0,-114.9,0,-44.06,77.724,1,1,4.325,0,-4.325,0
1.3049e-20,0.017221,0,0,0,0,0,0,0,0,-31.825,1.8078,0,-114.76,0,-44.006,77.629,1,1,4.33,0,-4.33,0
1.3045e-20,0.017223,0,0,0,0,0,0,0,0,-31.785,1.8042,0,-114.62,0,-43.952,77.535,1,1,4.335,0,-4.335,0
1.304e-20,0.017225,0,0,0,0,0,0,0,0,-31.746,1.8006,0,-114.48,0,-43.898,77.44,1,1,4.34,0,-4.34,0
1.3036e-20,0.017228,0,0,0,0,0,0,0,0,-31.707,1.797,0,-114.34,0,-43.844,77.346,1,1,4.345,0,-4.345,0
1.3031e-20,0.01723,0,0,0,0,0,0,0,0,-31.667,1.7934,0,-114.2,0,-43.79,77.251,1,1,4.35,0,-4.35,0
1.3027e-20,0.017232,0,0,0,0,0,0,0,0,-31.628,1.7898,0,-114.06,0,-43.736,77.157,1,1,4.355,0,-4.355,0
1.3022e-20,0.017235,0,0,0,0,0,0,0,0,-31.589,1.7862,0,-113.92,0,-43.682,77.062,1,1,4.36,0,-4.36,0
1.3018e-20,0.017237,0,0,0,0,0,0,0,0,-31.549,1.7826,0,-113.78,0,-43.629,76.968,1,1,4.365,0,-4.365,0
1.3014e-20,0.017239,0,0,0,0,0,0,0,0,-31.51,1.779,0,-113.64,0,-43.575,76.874,1,1,4.37,0,-4.37,0
1.3009e-20,0.017242,0,0,0,0,0,0,0,0,-31.47,1.7754,0,-113.5,0,-43.521,76.779,1,1,4.375,0,-4.375,0
1.3005e-20,0.017244,0,0,0,0,0,0,0,0,-31.431,1.7717,0,-113.36,0,-43.467,76.685,1,1,4.38,0,-4.38,0
1.3e-20,0.017246,0,0,0,0,0,0,0,0,-31.392,1.7681,0,-113.22,0,-43.413,76.59,1,1,4.385,0,-4.385,0
1.2996e-20,0.017249,0,0,0,0,0,0,0,0,-31.352,1.7645,0,-113.08,0,-43.359,76.496,1,1,4.39,0,-4.39,0
1.2992e-20,0.017251,0,0,0,0,0,0,0,0,-31.313,1.7609,0,-112.94,0,-43.305,76.401,1,1,4.395,0,-4.395,0
1.2987e-20,0.017253,0,0,0,0,0,0,0,0,-31.274,1.7573,0,-112.8,0,-43.251,76.307,1,1,4.4,0,-4.4,0
1.2983e-20,0.017256,0,0,0,0,0,0,0,0,-31.234,1.7537,0,-112.66,0,-43.197,76.212,1,1,4.405,0,-4.405,0
1.2978e-20,0.017258,0,0,0,0,0,0,0,0,-31.195,1.7501,0,-112.52,0,-43.143,76.118,1,1,4.41,0,-4.41,0
1.2974e-20,0.01726,0,0,0,0,0,0,0,0,-31.156,1.7465,0,-112.38,0,-43.089,76.023,1,1,4.415,0,-4.415,0
1.2969e-20,0.017263,0,0,0,0,0,0,0,0,-31.116,1.7429,0,-112.24,0,-43.036,75.929,1,1,4.42,0,-4.42,0
1.2965e-20,0.017265,0,0,0,0,0,0,0,0,-31.077,1.7393,0,-112.1,0,-42.982,75.834,1,1,4.425,0,-4.425,0
1.2961e-20,0.017267,0,0,0,0,0,0,0,0,-31.037,1.7357,0,-111.96,0,-42.928,75.74,1,1,4.43,0,-4.43,0
1.2956e-20,0.017269,0,0,0,0,0,0,0,0,-30.998,1.7321,0,-111.82,0,-42.874,75.645,1,1,4.435,0,-4.435,0
1.2952e-20,0.017272,0,0,0,0,0,0,0,0,-30.959,1.7285,0,-111.68,0,-42.82,75.551,1,1,4.44,0,-4.44,0
1.2947e-20,0.017274,0,0,0,0,0,0,0,0,-30.919,1.7248,0,-111.54,0,-42.766,75.456,1,1,4.445,0,-4.445,0
1.2943e-20,0.017276,0,0,0,0,0,0,0,0,-30.88,1.7212,0,-111.4,0,-42.712,75.362,1,1,4.45,0,-4.45,0
1.2939e-20,0.017279,0,0,0,0,0,0,0,0,-30.841,1.7176,0,-111.26,0,-42.658,75.268,1,1,4.455,0,-4.455,0
1.2934e-20,0.017281,0,0,0,0,0,0,0,0,-30.801,1.714,0,-111.12,0,-42.604,75.173,1,1,4.46,0,-4.46,0
1.293e-20,0.017283,0,0,0,0,0,0,0,0,-30.762,1.7104,0,-110.98,0,-42.55,75.079,1,1,4.465,0,-4.465,0
1.2925e-20,0.017286,0,0,0,0,0,0,0,0,-30.722,1.7068,0,-110.84,0,-42.496,74.984,1,1,4.47,0,-4.47,0
1.2921e-20,0.017288,0,0,0,0,0,0,0,0,-30.683,1.7032,0,-110.7,0,-42.443,74.89,1,1,4.475,0,-4.475,0
1.2916e-20,0.01729,0,0,0,0,0,0,0,0,-30.644,1.6996,0,-110.56,0,-42.389,74.795,1,1,4.48,0,-4.48,0
1.2912e-20,0.017293,0,0,0,0,0,0,0,0,-30.604,1.696,0,-110.42,0,-42.335,74.701,1,1,4.485,0,-4.485,0
1.2908e-20,0.017295,0,0,0,0,0,0,0,0,-30.565,1.6924,0,-110.28,0,-42.281,74.606,1,1,4.49,0,-4.49,0
1.2903e-20,0.017297,0,0,0,0,0,0,0,0,-30.526,1.6888,0,-110.14,0,-42.227,74.512,1,1,4.495,0,-4.495,0
1.2899e-20,0.0173,0,0,0,0,0,0,0,0,-30.486,1.6852,0,-110,0,-42.173,74.417,1,1,4.5,0,-4.5,0
1.2894e-20,0.017302,0,0,0,0,0,0,0,0,-30.447,1.6816,0,-109.86,0,-42.119,74.323,1,1,4.505,0,-4.505,0
1.289e-20,0.017304,0,0,0,0,0,0,0,0,-30.408,1.6779,0,-109.72,0,-42.065,74.228,1,1,4.51,0,-4.51,0
1.2885e-20,0.017307,0,0,0,0,0,0,0,0,-30.368,1.6743,0,-109.58,0,-42.011,74.134,1,1,4.515,0,-4.515,0
1.2881e-20,0.017309,0,0,0,0,0,0,0,0,-30.329,1.6707,0,-109.44,0,-41.957,74.039,1,1,4.52,0,-4.52,0
1.2877e-20,0.017311,0,0,0,0,0,0,0,0,-30.289,1.6671,0,-109.3,0,-41.903,73.945,1,1,4.525,0,-4.525,0
1.2872e-20,0.017313,0,0,0,0,0,0,0,0,-30.25,1.6635,0,-109.16,0,-41.849,73.85,1,1,4.53,0,-4.53,0
1.2868e-20,0.017316,0,0,0,0,0,0,0,0,-30.211,1.6599,0,-109.02,0,-41.796,73.756,1,1,4.535,0,-4.535,0
1.2863e-20,0.017318,0,0,0,0,0,0,0,0,-30.171,1.6563,0,-108.88,0,-41.742,73.661,1,1,4.54,0,-4.54,0
1.2859e-20,0.01732,0,0,0,0,0,0,0,0,-30.132,1.6527,0,-108.74,0,-41.688,73.567,1,1,4.545,0,-4.545,0
1.2855e-20,0.017323,0,0,0,0,0,0,0,0,-30.093,1.6491,0,-108.6,0,-41.634,73.473,1,1,4.55,0,-4.55,0
1.285e-20,0.017325,0,0,0,0,0,0,0,0,-30.053,1.6455,0,-108.46,0,-41.58,73.378,1,1,4.555,0,-4.555,0
1.2846e-20,0.017327,0,0,0,0,0,0,0,0,-30.014,1.6419,0,-108.32,0,-41.526,73.284,1,1,4.56,0,-4.56,0
1.2841e-20,0.01733,0,0,0,0,0,0,0,0,-29.975,1.6383,0,-108.18,0,-41.472,73.189,1,1,4.565,0,-4.565,0
1.2837e-20,0.017332,0,0,0,0,0,0,0,0,-29.935,1.6347,0,-108.04,0,-41.418,73.095,1,1,4.57,0,-4.57,0
1.2832e-20,0.017334,0,0,0,0,0,0,0,0,-29.896,1.631,0,-107.9,0,-41.364,73,1,1,4.575,0,-4.575,0
1.2828e-20,0.017337,0,0,0,0,0,0,0,0,-29.856,1.6274,0,-107.76,0,-41.31,72.906,1,1,4.58,0,-4.58,0
1.2824e-20,0.017339,0,0,0,0,0,0,0,0,-29.817,1.6238,0,-107.62,0,-41.256,72.811,1,1,4.585,0,-4.585,0
1.2819e-20,0.017341,0,0,0,0,0,0,0,0,-29.778,1.6202,0,-107.48,0,-41.203,72.717,1,1,4.59,0,-4.59,0
1.2815e-20,0.017344,0,0,0,0,0,0,0,0,-29.738,1.6166,0,-107.34,0,-41.149,72.622,1,1,4.595,0,-4.595,0
1.281e-20,0.017346,0,0,0,0,0,0,0,0,-29.699,1.613,0,-107.2,0,-41.095,72.528,1,1,4.6,0,-4.6,0
1.2806e-20,0.017348,0,0,0,0,0,0,0,0,-29.66,1.6094,0,-107.06,0,-41.041,72.433,1,1,4.605,0,-4.605,0
1.2801e-20,0.017351,0,0,0,0,0,0,0,0,-29.62,1.6058,0,-106.92,0,-40.987,72.339,1,1,4.61,0,-4.61,0
1.2797e-20,0.017353,0,0,0,0,0,0,0,0,-29.581,1.6022,0,-106.78,0,-40.933,72.244,1,1,4.615,0,-4.615,0
1.2793e-20,0.017355,0,0,0,0,0,0,0,0,-29.542,1.5986,0,-106.64,0,-40.879,72.15,1,1,4.62,0,-4.62,0
1.2788e-20,0.017357,0,0,0,0,0,0,0,0,-29.502,1.595,0,-106.5,0,-40.825,72.055,1,1,4.625,0,-4.625,0
1.2784e-20,0.01736,0,0,0,0,0,0,0,0,-29.464,1.5923,0,-106.38,0,-40.779,71.983,1,1,4.63,0,-4.63,0
1.278e-20,0.017362,0,0,0,0,0,0,0,0,-29.426,1.59,0,-106.28,0,-40.736,71.918,1,1,4.635,0,-4.635,0
1.2776e-20,0.017364,0,0,0,0,0,0,0,0,-29.387,1.5877,0,-106.17,0,-40.693,71.852,1,1,4.64,0,-4.64,0
1.2772e-20,0.017366,0,0,0,0,0,0,0,0,-29.349,1.5854,0,-106.06,0,-40.649,71.786,1,1,4.645,0,-4.645,0
1.2769e-20,0.017367,0,0,0,0,0,0,0,0,-29.311,1.583,0,-105.96,0,-40.606,71.721,1,1,4.65,0,-4.65,0
1.2765e-20,0.017369,0,0,0,0,0,0,0,0,-29.273,1.5807,0,-105.85,0,-40.562,71.655,1,1,4.655,0,-4.655,0
1.2761e-20,0.017371,0,0,0,0,0,0,0,0,-29.235,1.5784,0,-105.74,0,-40.519,71.59,1,1,4.66,0,-4.66,0
1.2757e-20,0.017373,0,0,0,0,0,0,0,0,-29.197,1.5761,0,-105.64,0,-40.476,71.524,1,1,4.665,0,-4.665,0
1.2753e-20,0.017375,0,0,0,0,0,0,0,0,-29.158,1.5737,0,-105.53,0,-40.432,71.458,1,1,4.67,0,-4.67,0
1.2749e-20,0.017377,0,0,0,0,0,0,0,0,-29.12,1.5714,0,-105.42,0,-40.389,71.393,1,1,4.675,0,-4.675,0
1.2745e-20,0.017379,0,0,0,0,0,0,0,0,-29.082,1.5691,0,-105.32,0,-40.346,71.327,1,1,4.68,0,-4.68,0
1.2741e-20,0.017381,0,0,0,0,0,0,0,0,-29.044,1.5667,0,-105.21,0,-40.302,71.262,1,1,4.685,0,-4.685,0
1.2737e-20,0.017383,0,0,0,0,0,0,0,0,-29.006,1.5644,0,-105.11,0,-40.259,71.196,1,1,4.69,0,-4.69,0
1.2733e-20,0.017385,0,0,0,0,0,0,0,0,-28.968,1.5621,0,-105,0,-40.215,71.13,1,1,4.695,0,-4.695,0
1.273e-20,0.017387,0,0,0,0,0,0,0,0,-28.93,1.5598,0,-104.89,0,-40.172,71.065,1,1,4.7,0,-4.7,0
1.2726e-20,0.017389,0,0,0,0,0,0,0,0,-28.891,1.5574,0,-104.79,0,-40.129,70.999,1,1,4.705,0,-4.705,0
1.2722e-20,0.017391,0,0,0,0,0,0,0,0,-28.853,1.5551,0,-104.68,0,-40.085,70.933,1,1,4.71,0,-4.71,0
1.2718e-20,0.017393,0,0,0,0,0,0,0,0,-28.815,1.5528,0,-104.57,0,-40.042,70.868,1,1,4.715,0,-4.715,0
1.2714e-20,0.017395,0,0,0,0,0,0,0,0,-28.777,1.5504,0,-104.47,0,-39.998,70.802,1,1,4.72,0,-4.72,0
1.271e-20,0.017397,0,0,0,0,0,0,0,0,-28.739,1.5481,0,-104.36,0,-39.955,70.737,1,1,4.725,0,-4.725,0
1.2706e-20,0.017399,0,0,0,0,0,0,0,0,-28.701,1.5458,0,-104.26,0,-39.912,70.671,1,1,4.73,0,-4.73,0
1.2702e-20,0.017401,0,0,0,0,0,0,0,0,-28.662,1.5435,0,-104.15,0,-39.868,70.605,1,1,4.735,0,-4.735,0
1.2698e-20,0.017403,0,0,0,0,0,0,0,0,-28.624,1.5411,0,-104.04,0,-39.825,70.54,1,1,4.74,0,-4.74,0
1.2694e-20,0.017405,0,0,0,0,0,0,0,0,-28.586,1.5388,0,-103.94,0,-39.782,70.474,1,1,4.745,0,-4.745,0
1.2691e-20,0.017407,0,0,0,0,0,0,0,0,-28.548,1.5365,0,-103.83,0,-39.738,70.409,1,1,4.75,0,-4.75,0
1.2687e-20,0.017409,0,0,0,0,0,0,0,0,-28.51,1.5341,0,-103.72,0,-39.695,70.343,1,1,4.755,0,-4.755,0
1.2683e-20,0.017411,0,0,0,0,0,0,0,0,-28.472,1.5318,0,-103.62,0,-39.651,70.277,1,1,4.76,0,-4.76,0
1.2679e-20,0.017413,0,0,0,0,0,0,0,0,-28.433,1.5295,0,-103.51,0,-39.608,70.212,1,1,4.765,0,-4.765,0
1.2675e-20,0.017415,0,0,0,0,0,0,0,0,-28.395,1.5272,0,-103.4,0,-39.565,70.146,1,1,4.77,0,-4.77,0
1.2671e-20,0.017417,0,0,0,0,0,0,0,0,-28.357,1.5248,0,-103.3,0,-39.521,70.08,1,1,4.775,0,-4.775,0
1.2667e-20,0.017419,0,0,0,0,0,0,0,0,-28.319,1.5225,0,-103.19,0,-39.478,70.015,1,1,4.78,0,-4.78,0
1.2663e-20,0.017421,0,0,0,0,0,0,0,0,-28.281,1.5202,0,-103.09,0,-39.434,69.949,1,1,4.785,0,-4.785,0
1.2659e-20,0.017423,0,0,0,0,0,0,0,0,-28.243,1.5178,0,-102.98,0,-39.391,69.884,1,1,4.79,0,-4.79,0
1.2655e-20,0.017425,0,0,0,0,0,0,0,0,-28.205,1.5155,0,-102.87,0,-39.348,69.818,1,1,4.795,0,-4.795,0
1.2652e-20,0.017427,0,0,0,0,0,0,0,0,-28.166,1.5132,0,-102.77,0,-39.304,69.752,1,1,4.8,0,-4.8,0
1.2648e-20,0.017429,0,0,0,0,0,0,0,0,-28.128,1.5109,0,-102.66,0,-39.261,69.687,1,1,4.805,0,-4.805,0
1.2644e-20,0.017431,0,0,0,0,0,0,0,0,-28.09,1.5085,0,-102.55,0,-39.218,69.621,1,1,4.81,0,-4.81,0
1.264e-20,0.017433,0,0,0,0,0,0,0,0,-28.052,1.5062,0,-102.45,0,-39.174,69.556,1,1,4.815,0,-4.815,0
1.2636e-20,0.017435,0,0,0,0,0,0,0,0,-28.014,1.5039,0,-102.34,0,-39.131,69.49,1,1,4.82,0,-4.82,0
1.2632e-20,0.017437,0,0,0,0,0,0,0,0,-27.976,1.5016,0,-102.24,0,-39.087,69.424,1,1,4.825,0,-4.825,0
1.2628e-20,0.017439,0,0,0,0,0,0,0,0,-27.937,1.4992,0,-102.13,0,-39.044,69.359,1,1,4.83,0,-4.83,0
1.2624e-20,0.017441,0,0,0,0,0,0,0,0,-27.899,1.4969,0,-102.02,0,-39.001,69.293,1,1,4.835,0,-4.835,0
1.262e-20,0.017443,0,0,0,0,0,0,0,0,-27.861,1.4946,0,-101.92,0,-38.957,69.227,1,1,4.84,0,-4.84,0
1.2616e-20,0.017445,0,0,0,0,0,0,0,0,-27.823,1.4922,0,-101.81,0,-38.914,69.162,1,1,4.845,0,-4.845,0
1.2613e-20,0.017447,0,0,0,0,0,0,0,0,-27.785,1.4899,0,-101.7,0,-38.87,69.096,1,1,4.85,0,-4.85,0
1.2609e-20,0.017449,0,0,0,0,0,0,0,0,-27.747,1.4876,0,-101.6,0,-38.827,69.031,1,1,4.855,0,-4.855,0
1.2605e-20,0.017451,0,0,0,0,0,0,0,0,-27.708,1.4853,0,-101.49,0,-38.784,68.965,1,1,4.86,0,-4.86,0
1.2601e-20,0.017453,0,0,0,0,0,0,0,0,-27.67,1.4829,0,-101.39,0,-38.74,68.899,1,1,4.865,0,-4.865,0
1.2597e-20,0.017455,0,0,0,0,0,0,0,0,-27.632,1.4806,0,-101.28,0,-38.697,68.834,1,1,4.87,0,-4.87,0
1.2593e-20,0.017457,0,0,0,0,0,0,0,0,-27.594,1.4783,0,-101.17,0,-38.654,68.768,1,1,4.875,0,-4.875,0
1.2589e-20,0.017459,0,0,0,0,0,0,0,0,-27.556,1.4759,0,-101.07,0,-38.61,68.703,1,1,4.88,0,-4.88,0
1.2585e-20,0.017461,0,0,0,0,0,0,0,0,-27.518,1.4736,0,-100.96,0,-38.567,68.637,1,1,4.885,0,-4.885,0
1.2581e-20,0.017463,0,0,0,0,0,0,0,0,-27.479,1.4713,0,-100.85,0,-38.523,68.571,1,1,4.89,0,-4.89,0
1.2577e-20,0.017465,0,0,0,0,0,0,0,0,-27.441,1.469,0,-100.75,0,-38.48,68.506,1,1,4.895,0,-4.895,0
1.2574e-20,0.017467,0,0,0,0,0,0,0,0,-27.403,1.4666,0,-100.64,0,-38.437,68.44,1,1,4.9,0,-4.9,0
1.257e-20,0.017469,0,0,0,0,0,0,0,0,-27.365,1.4643,0,-100.53,0,-38.393,68.374,1,1,4.905,0,-4.905,0
1.2566e-20,0.017471,0,0,0,0,0,0,0,0,-27.327,1.462,0,-100.43,0,-38.35,68.309,1,1,4.91,0,-4.91,0
1.2562e-20,0.017473,0,0,0,0,0,0,0,0,-27.289,1.4596,0,-100.32,0,-38.306,68.243,1,1,4.915,0,-4.915,0
1.2558e-20,0.017475,0,0,0,0,0,0,0,0,-27.251,1.4573,0,-100.22,0,-38.263,68.178,1,1,4.92,0,-4.92,0
1.2554e-20,0.017477,0,0,0,0,0,0,0,0,-27.212,1.455,0,-100.11,0,-38.22,68.112,1,1,4.925,0,-4.925,0
1.255e-20,0.017479,0,0,0,0,0,0,0,0,-27.174,1.4527,0,-100,0,-38.176,68.046,1,1,4.93,0,-4.93,0
1.2546e-20,0.017481,0,0,0,0,0,0,0,0,-27.136,1.4503,0,-99.897,0,-38.133,67.981,1,1,4.935,0,-4.935,0
1.2542e-20,0.017483,0,0,0,0,0,0,0,0,-27.098,1.448,0,-99.791,0,-38.09,67.915,1,1,4.94,0,-4.94,0
1.2538e-20,0.017485,0,0,0,0,0,0,0,0,-27.06,1.4457,0,-99.684,0,-38.046,67.85,1,1,4.945,0,-4.945,0
1.2535e-20,0.017487,0,0,0,0,0,0,0,0,-27.022,1.4434,0,-99.578,0,-38.003,67.784,1,1,4.95,0,-4.95,0
1.2531e-20,0.017489,0,0,0,0,0,0,0,0,-26.983,1.441,0,-99.472,0,-37.959,67.718,1,1,4.955,0,-4.955,0
1.2527e-20,0.017491,0,0,0,0,0,0,0,0,-26.945,1.4387,0,-99.366,0,-37.916,67.653,1,1,4.96,0,-4.96,0
1.2523e-20,0.017493,0,0,0,0,0,0,0,0,-26.907,1.4364,0,-99.259,0,-37.873,67.587,1,1,4.965,0,-4.965,0
1.2519e-20,0.017495,0,0,0,0,0,0,0,0,-26.869,1.434,0,-99.153,0,-37.829,67.521,1,1,4.97,0,-4.97,0
1.2515e-20,0.017497,0,0,0,0,0,0,0,0,-26.831,1.4317,0,-99.047,0,-37.786,67.456,1,1,4.975,0,-4.975,0
1.2511e-20,0.017499,0,0,0,0,0,0,0,0,-26.793,1.4294,0,-98.94,0,-37.742,67.39,1,1,4.98,0,-4.98,0
1.2507e-20,0.017501,0,0,0,0,0,0,0,0,-26.754,1.4271,0,-98.834,0,-37.699,67.325,1,1,4.985,0,-4.985,0
1.2503e-20,0.017503,0,0,0,0,0,0,0,0,-26.716,1.4247,0,-98.728,0,-37.656,67.259,1,1,4.99,0,-4.99,0
1.2499e-20,0.017505,0,0,0,0,0,0,0,0,-26.678,1.4224,0,-98.621,0,-37.612,67.193,1,1,4.995,0,-4.995,0
1.2495e-20,0.017507,0,0,0,0,0,0,0,0,-26.64,1.4201,0,-98.515,0,-37.569,67.128,1,1,5,0,-5,0
