"displacement:0","displacement:1","displacement:2","displacement contact active","displacement contact distance","displacement contact gap","displacement contact normalload","displacement contact slipload","displacement contact stick","displacement contact weight","stress_xx","stress_xy","stress_xz","stress_yy","stress_yz","stress_zz","vonmises","GeometryIds","vtkValidPointMask","arc_length","Points:0","Points:1","Points:2"
7.0765e-24,0.010235,0,0.71385,2.5466e-10,-2.4578e-10,1189.8,1212.2,-0.71385,0.011897,-1626.6,7.7541,0,-1684.9,0,-1002.1,662.23,102,1,0,0,0,0
5.8365e-24,0.010257,0,0.58876,2.1004e-10,-2.0271e-10,981.34,999.78,-0.58876,0.0098126,-1575.3,6.7383,0,-1676.1,0,-983.8,656.12,102,1,0.005,0,-0.005,0
4.6965e-24,0.01028,0,0.47376,1.6901e-10,-1.6312e-10,789.67,804.51,-0.47376,0.0078961,-1525.2,5.8176,0,-1667.9,0,-966.05,651.55,102,1,0.01,0,-0.01,0
3.6566e-24,0.010304,0,0.36886,1.3159e-10,-1.27e-10,614.82,626.38,-0.36886,0.0061477,-1476.5,4.9921,0,-1660.2,0,-948.87,648.5,102,1,0.015,0,-0.015,0
2.7168e-24,0.010328,0,0.27406,9.7768e-11,-9.436e-11,456.8,465.38,-0.27406,0.0045676,-1429.1,4.2617,0,-1653,0,-932.24,646.97,102,1,0.02,0,-0.02,0
1.877e-24,0.010352,0,0.18935,6.7548e-11,-6.5194e-11,315.6,321.53,-0.18935,0.0031558,-1382.9,3.6265,0,-1646.3,0,-916.18,646.98,102,1,0.025,0,-0.025,0
1.1373e-24,0.010376,0,0.11473,4.0929e-11,-3.9502e-11,191.23,194.83,-0.11473,0.0019122,-1338.1,3.0865,0,-1640.1,0,-900.67,648.51,102,1,0.03,0,-0.03,0
4.9772e-25,0.010401,0,0.050208,1.7911e-11,-1.7287e-11,83.686,85.259,-0.050208,0.0008368,-1294.6,2.6416,0,-1634.4,0,-885.72,651.56,102,1,0.035,0,-0.035,0
-4.1857e-26,0.010426,0,-0.0042223,-1.5063e-12,1.4538e-12,-7.0378,-7.1701,0.0042223,-7.0372e-05,-1252.4,2.2919,0,-1629.2,0,-871.33,656.15,102,1,0.04,0,-0.04,0
-4.8158e-25,0.010451,0,-0.04858,-1.733e-11,1.6726e-11,-80.972,-82.494,0.04858,-0.00080966,-1211.4,2.0372,0,-1624.5,0,-857.49,662.26,102,1,0.045,0,-0.045,0
-8.2111e-25,0.010477,0,-0.08283,-2.9549e-11,2.8519e-11,-138.06,-140.66,0.08283,-0.0013805,-1171.8,1.8778,0,-1620.4,0,-844.2,669.91,102,1,0.05,0,-0.05,0
-1.0604e-24,0.010503,0,-0.10697,-3.8162e-11,3.6832e-11,-178.3,-181.65,0.10697,-0.0017829,-1133.5,1.8137,0,-1616.7,0,-831.48,679.08,102,1,0.055,0,-0.055,0
-1.1996e-24,0.010529,0,-0.12101,-4.3169e-11,4.1664e-11,-201.7,-205.49,0.12101,-0.0020168,-1096.5,1.8449,0,-1613.6,0,-819.32,689.78,102,1,0.06,0,-0.06,0
-1.2385e-24,0.010556,0,-0.12494,-4.4571e-11,4.3017e-11,-208.24,-212.16,0.12494,-0.0020823,-1060.7,1.9714,0,-1610.9,0,-807.72,702.01,102,1,0.065,0,-0.065,0
-1.1773e-24,0.010582,0,-0.11876,-4.2366e-11,4.089e-11,-197.95,-201.67,0.11876,-0.0019793,-1026.3,2.1931,0,-1608.8,0,-796.67,715.77,102,1,0.07,0,-0.07,0
-1.0158e-24,0.01061,0,-0.10247,-3.6557e-11,3.5282e-11,-170.8,-174.01,0.10247,-0.0017079,-993.2,2.5101,0,-1607.2,0,-786.19,731.06,102,1,0.075,0,-0.075,0
-7.542e-25,0.010637,0,-0.07608,-2.7141e-11,2.6195e-11,-126.81,-129.19,0.07608,-0.001268,-961.39,2.9224,0,-1606.1,0,-776.26,747.88,102,1,0.08,0,-0.08,0
-3.9237e-25,0.010665,0,-0.03958,-1.412e-11,1.3628e-11,-65.972,-67.212,0.03958,-0.00065967,-930.89,3.43,0,-1605.5,0,-766.89,766.23,102,1,0.085,0,-0.085,0
0,0.010693,0,0,0,0,0,0,0,0,-901.32,3.9297,0,-1603.4,0,-757.37,784.23,102,1,0.09,0,-0.09,0
0,0.010721,0,0,0,0,0,0,0,0,-870.49,3.8302,0,-1589.6,0,-743.86,791.08,102,1,0.095,0,-0.095,0
0,0.010749,0,0,0,0,0,0,0,0,-840.58,3.7387,0,-1576.1,0,-730.73,797.72,102,1,0.1,0,-0.1,0
0,0.010777,0,0,0,0,0,0,0,0,-811.61,3.6554,0,-1563,0,-717.98,804.16,102,1,0.105,0,-0.105,0
0,0.010805,0,0,0,0,0,0,0,0,-783.56,3.5801,0,-1550.1,0,-705.61,810.4,102,1,0.11,0,-0.11,0
0,0.010833,0,0,0,0,0,0,0,0,-756.43,3.513,0,-1537.6,0,-693.62,816.43,102,1,0.115,0,-0.115,0
0,0.010861,0,0,0,0,0,0,0,0,-730.23,3.4539,0,-1525.5,0,-682.02,822.25,102,1,0.12,0,-0.12,0
0,0.010889,0,0,0,0,0,0,0,0,-704.96,3.4029,0,-1513.6,0,-670.79,827.87,102,1,0.125,0,-0.125,0
0,0.010917,0,0,0,0,0,0,0,0,-680.62,3.36,0,-1502.1,0,-659.94,833.29,102,1,0.13,0,-0.13,0
0,0.010945,0,0,0,0,0,0,0,0,-657.2,3.3251,0,-1490.9,0,-649.47,838.5,102,1,0.135,0,-0.135,0
0,0.010973,0,0,0,0,0,0,0,0,-634.7,3.2984,0,-1480,0,-639.39,843.5,102,1,0.14,0,-0.14,0
0,0.011001,0,0,0,0,0,0,0,0,-613.13,3.2797,0,-1469.5,0,-629.68,848.3,102,1,0.145,0,-0.145,0
0,0.011029,0,0,0,0,0,0,0,0,-592.49,3.2692,0,-1459.3,0,-620.36,852.9,102,1,0.15,0,-0.15,0
0,0.011057,0,0,0,0,0,0,0,0,-572.78,3.2667,0,-1449.4,0,-611.42,857.29,102,1,0.155,0,-0.155,0
0,0.011084,0,0,0,0,0,0,0,0,-553.99,3.2723,0,-1439.8,0,-602.85,861.47,102,1,0.16,0,-0.16,0
0,0.011112,0,0,0,0,0,0,0,0,-536.13,3.286,0,-1430.6,0,-594.67,865.46,102,1,0.165,0,-0.165,0
0,0.01114,0,0,0,0,0,0,0,0,-519.19,3.3077,0,-1421.7,0,-586.87,869.23,102,1,0.17,0,-0.17,0
0,0.011168,0,0,0,0,0,0,0,0,-503.18,3.3376,0,-1413.1,0,-579.45,872.8,102,1,0.175,0,-0.175,0
0,0.011196,0,0,0,0,0,0,0,0,-488.09,3.3755,0,-1404.9,0,-572.41,876.17,102,1,0.18,0,-0.18,0
0,0.011223,0,0,0,0,0,0,0,0,-473.93,3.4216,0,-1397,0,-565.75,879.33,102,1,0.185,0,-0.185,0
0,0.011251,0,0,0,0,0,0,0,0,-460.7,3.4757,0,-1389.4,0,-559.47,882.28,102,1,0.19,0,-0.19,0
0,0.011279,0,0,0,0,0,0,0,0,-448.39,3.5379,0,-1382.2,0,-553.57,885.03,102,1,0.195,0,-0.195,0
0,0.011306,0,0,0,0,0,0,0,0,-437.01,3.6082,0,-1375.2,0,-548.05,887.58,102,1,0.2,0,-0.2,0
0,0.011334,0,0,0,0,0,0,0,0,-425.41,3.6238,0,-1366.1,0,-541.78,888.25,102,1,0.205,0,-0.205,0
0,0.011361,0,0,0,0,0,0,0,0,-412.73,3.5539,0,-1353.5,0,-534.13,886.45,102,1,0.21,0,-0.21,0
0,0.011388,0,0,0,0,0,0,0,0,-400.41,3.4842,0,-1341.1,0,-526.65,884.55,102,1,0.215,0,-0.215,0
0,0.011415,0,0,0,0,0,0,0,0,-388.46,3.4147,0,-1328.9,0,-519.34,882.55,102,1,0.22,0,-0.22,0
0,0.011442,0,0,0,0,0,0,0,0,-376.88,3.3454,0,-1316.9,0,-512.2,880.45,102,1,0.225,0,-0.225,0
0,0.011468,0,0,0,0,0,0,0,0,-365.66,3.2762,0,-1305.1,0,-505.22,878.25,102,1,0.23,0,-0.23,0
0,0.011495,0,0,0,0,0,0,0,0,-354.81,3.2071,0,-1293.5,0,-498.4,875.94,102,1,0.235,0,-0.235,0
0,0.011521,0,0,0,0,0,0,0,0,-344.32,3.1383,0,-1282,0,-491.76,873.54,102,1,0.24,0,-0.24,0
0,0.011547,0,0,0,0,0,0,0,0,-334.2,3.0696,0,-1270.7,0,-485.27,871.03,102,1,0.245,0,-0.245,0
0,0.011573,0,0,0,0,0,0,0,0,-324.45,3.001,0,-1259.6,0,-478.96,868.42,102,1,0.25,0,-0.25,0
0,0.011599,0,0,0,0,0,0,0,0,-315.06,2.9327,0,-1248.7,0,-472.81,865.71,102,1,0.255,0,-0.255,0
0,0.011624,0,0,0,0,0,0,0,0,-306.04,2.8644,0,-1238,0,-466.82,862.9,102,1,0.26,0,-0.26,0
0,0.01165,0,0,0,0,0,0,0,0,-297.39,2.7964,0,-1227.4,0,-461.01,859.99,102,1,0.265,0,-0.265,0
0,0.011675,0,0,0,0,0,0,0,0,-289.11,2.7285,0,-1217,0,-455.35,856.98,102,1,0.27,0,-0.27,0
0,0.0117,0,0,0,0,0,0,0,0,-281.19,2.6608,0,-1206.9,0,-449.87,853.86,102,1,0.275,0,-0.275,0
0,0.011725,0,0,0,0,0,0,0,0,-273.64,2.5933,0,-1196.9,0,-444.55,850.65,102,1,0.28,0,-0.28,0
0,0.01175,0,0,0,0,0,0,0,0,-266.45,2.5259,0,-1187,0,-439.4,847.33,102,1,0.285,0,-0.285,0
0,0.011775,0,0,0,0,0,0,0,0,-259.63,2.4587,0,-1177.4,0,-434.41,843.91,102,1,0.29,0,-0.29,0
0,0.011799,0,0,0,0,0,0,0,0,-253.18,2.3916,0,-1167.9,0,-429.59,840.39,102,1,0.295,0,-0.295,0
0,0.011824,0,0,0,0,0,0,0,0,-247.09,2.3247,0,-1158.7,0,-424.94,836.77,102,1,0.3,0,-0.3,0
0,0.011848,0,0,0,0,0,0,0,0,-241.37,2.258,0,-1149.6,0,-420.45,833.05,102,1,0.305,0,-0.305,0
0,0.011872,0,0,0,0,0,0,0,0,-236.01,2.1915,0,-1140.7,0,-416.12,829.23,102,1,0.31,0,-0.31,0
0,0.011896,0,0,0,0,0,0,0,0,-231.02,2.1251,0,-1131.9,0,-411.97,825.3,102,1,0.315,0,-0.315,0
0,0.01192,0,0,0,0,0,0,0,0,-226.4,2.0588,0,-1123.4,0,-407.98,821.28,102,1,0.32,0,-0.32,0
0,0.011944,0,0,0,0,0,0,0,0,-222.14,1.9928,0,-1115,0,-404.15,817.15,102,1,0.325,0,-0.325,0
0,0.011967,0,0,0,0,0,0,0,0,-218.25,1.9268,0,-1106.8,0,-400.49,812.92,102,1,0.33,0,-0.33,0
0,0.01199,0,0,0,0,0,0,0,0,-213.9,1.8027,0,-1098.1,0,-396.52,808.5,102,1,0.335,0,-0.335,0
0,0.012013,0,0,0,0,0,0,0,0,-209.57,1.6791,0,-1089.3,0,-392.54,804.04,102,1,0.34,0,-0.34,0
0,0.012036,0,0,0,0,0,0,0,0,-205.33,1.564,0,-1080.6,0,-388.62,799.57,102,1,0.345,0,-0.345,0
0,0.012059,0,0,0,0,0,0,0,0,-201.18,1.4576,0,-1072,0,-384.74,795.09,102,1,0.35,0,-0.35,0
0,0.012082,0,0,0,0,0,0,0,0,-197.14,1.3597,0,-1063.4,0,-380.92,790.59,102,1,0.355,0,-0.355,0
0,0.012104,0,0,0,0,0,0,0,0,-193.19,1.2703,0,-1054.9,0,-377.14,786.08,102,1,0.36,0,-0.36,0
0,0.012127,0,0,0,0,0,0,0,0,-189.34,1.1896,0,-1046.5,0,-373.42,781.56,102,1,0.365,0,-0.365,0
0,0.012149,0,0,0,0,0,0,0,0,-185.59,1.1174,0,-1038.1,0,-369.74,777.02,102,1,0.37,0,-0.37,0
0,0.012171,0,0,0,0,0,0,0,0,-181.93,1.0537,0,-1029.8,0,-366.12,772.47,102,1,0.375,0,-0.375,0
0,0.012193,0,0,0,0,0,0,0,0,-178.38,0.99862,0,-1021.6,0,-362.55,767.91,102,1,0.38,0,-0.38,0
0,0.012214,0,0,0,0,0,0,0,0,-174.92,0.9521,0,-1013.5,0,-359.03,763.33,102,1,0.385,0,-0.385,0
0,0.012236,0,0,0,0,0,0,0,0,-171.56,0.91414,0,-1005.4,0,-355.55,758.74,102,1,0.39,0,-0.39,0
0,0.012257,0,0,0,0,0,0,0,0,-168.3,0.88474,0,-997.35,0,-352.13,754.14,102,1,0.395,0,-0.395,0
0,0.012279,0,0,0,0,0,0,0,0,-165.13,0.86391,0,-989.4,0,-348.76,749.52,102,1,0.4,0,-0.4,0
0,0.0123,0,0,0,0,0,0,0,0,-162.07,0.85164,0,-981.52,0,-345.44,744.89,102,1,0.405,0,-0.405,0
0,0.012321,0,0,0,0,0,0,0,0,-159.1,0.84793,0,-973.71,0,-342.17,740.25,102,1,0.41,0,-0.41,0
0,0.012341,0,0,0,0,0,0,0,0,-156.23,0.85278,0,-965.97,0,-338.95,735.6,102,1,0.415,0,-0.415,0
0,0.012362,0,0,0,0,0,0,0,0,-153.45,0.86618,0,-958.3,0,-335.78,730.93,102,1,0.42,0,-0.42,0
0,0.012383,0,0,0,0,0,0,0,0,-150.78,0.88814,0,-950.69,0,-332.67,726.24,102,1,0.425,0,-0.425,0
0,0.012403,0,0,0,0,0,0,0,0,-148.2,0.91865,0,-943.15,0,-329.6,721.55,102,1,0.43,0,-0.43,0
0,0.012423,0,0,0,0,0,0,0,0,-145.72,0.95772,0,-935.69,0,-326.58,716.84,102,1,0.435,0,-0.435,0
0,0.012443,0,0,0,0,0,0,0,0,-143.34,1.0053,0,-928.28,0,-323.61,712.12,102,1,0.44,0,-0.44,0
0,0.012463,0,0,0,0,0,0,0,0,-141.05,1.0615,0,-920.95,0,-320.7,707.38,102,1,0.445,0,-0.445,0
0,0.012483,0,0,0,0,0,0,0,0,-138.87,1.1263,0,-913.69,0,-317.83,702.63,102,1,0.45,0,-0.45,0
0,0.012502,0,0,0,0,0,0,0,0,-136.78,1.1996,0,-906.49,0,-315.01,697.87,102,1,0.455,0,-0.455,0
0,0.012522,0,0,0,0,0,0,0,0,-134.79,1.2814,0,-899.36,0,-312.25,693.09,102,1,0.46,0,-0.46,0
0,0.012541,0,0,0,0,0,0,0,0,-132.89,1.3718,0,-892.31,0,-309.53,688.3,102,1,0.465,0,-0.465,0
0,0.01256,0,0,0,0,0,0,0,0,-131.1,1.4708,0,-885.31,0,-306.87,683.5,102,1,0.47,0,-0.47,0
0,0.012579,0,0,0,0,0,0,0,0,-129.53,1.4593,0,-879.01,0,-304.48,679.12,102,1,0.475,0,-0.475,0
0,0.012598,0,0,0,0,0,0,0,0,-128.13,1.3452,0,-873.29,0,-302.32,675.14,102,1,0.48,0,-0.48,0
0,0.012617,0,0,0,0,0,0,0,0,-126.74,1.2375,0,-867.59,0,-300.17,671.16,102,1,0.485,0,-0.485,0
0,0.012635,0,0,0,0,0,0,0,0,-125.36,1.1362,0,-861.9,0,-298.02,667.19,102,1,0.49,0,-0.49,0
0,0.012654,0,0,0,0,0,0,0,0,-124,1.0412,0,-856.24,0,-295.89,663.22,102,1,0.495,0,-0.495,0
0,0.012672,0,0,0,0,0,0,0,0,-122.66,0.95259,0,-850.59,0,-293.77,659.25,102,1,0.5,0,-0.5,0
0,0.012691,0,0,0,0,0,0,0,0,-121.33,0.87035,0,-844.95,0,-291.66,655.28,102,1,0.505,0,-0.505,0
0,0.012709,0,0,0,0,0,0,0,0,-120.01,0.79449,0,-839.33,0,-289.55,651.32,102,1,0.51,0,-0.51,0
0,0.012727,0,0,0,0,0,0,0,0,-118.71,0.72499,0,-833.73,0,-287.46,647.36,102,1,0.515,0,-0.515,0
0,0.012745,0,0,0,0,0,0,0,0,-117.43,0.66186,0,-828.14,0,-285.38,643.4,102,1,0.52,0,-0.52,0
0,0.012763,0,0,0,0,0,0,0,0,-116.16,0.60511,0,-822.57,0,-283.3,639.45,102,1,0.525,0,-0.525,0
0,0.01278,0,0,0,0,0,0,0,0,-114.9,0.55472,0,-817.02,0,-281.24,635.49,102,1,0.53,0,-0.53,0
0,0.012798,0,0,0,0,0,0,0,0,-113.66,0.51071,0,-811.48,0,-279.18,631.54,102,1,0.535,0,-0.535,0
0,0.012816,0,0,0,0,0,0,0,0,-112.44,0.47307,0,-805.96,0,-277.14,627.6,102,1,0.54,0,-0.54,0
0,0.012833,0,0,0,0,0,0,0,0,-111.23,0.44179,0,-800.46,0,-275.1,623.66,102,1,0.545,0,-0.545,0
0,0.01285,0,0,0,0,0,0,0,0,-110.03,0.41689,0,-794.97,0,-273.07,619.71,102,1,0.55,0,-0.55,0
0,0.012867,0,0,0,0,0,0,0,0,-108.85,0.39836,0,-789.5,0,-271.06,615.78,102,1,0.555,0,-0.555,0
0,0.012884,0,0,0,0,0,0,0,0,-107.69,0.3862,0,-784.04,0,-269.05,611.85,102,1,0.56,0,-0.56,0
0,0.012901,0,0,0,0,0,0,0,0,-106.54,0.38041,0,-778.61,0,-267.05,607.91,102,1,0.565,0,-0.565,0
0,0.012918,0,0,0,0,0,0,0,0,-105.41,0.38098,0,-773.18,0,-265.07,603.99,102,1,0.57,0,-0.57,0
0,0.012935,0,0,0,0,0,0,0,0,-104.29,0.38791,0,-767.78,0,-263.09,600.06,102,1,0.575,0,-0.575,0
0,0.012951,0,0,0,0,0,0,0,0,-103.18,0.40122,0,-762.39,0,-261.12,596.14,102,1,0.58,0,-0.58,0
0,0.012968,0,0,0,0,0,0,0,0,-102.1,0.42088,0,-757.02,0,-259.16,592.22,102,1,0.585,0,-0.585,0
0,0.012984,0,0,0,0,0,0,0,0,-101.02,0.44692,0,-751.66,0,-257.21,588.31,102,1,0.59,0,-0.59,0
0,0.013,0,0,0,0,0,0,0,0,-99.963,0.47932,0,-746.32,0,-255.27,584.39,102,1,0.595,0,-0.595,0
0,0.013016,0,0,0,0,0,0,0,0,-98.919,0.51808,0,-741,0,-253.34,580.48,102,1,0.6,0,-0.6,0
0,0.013032,0,0,0,0,0,0,0,0,-97.89,0.56321,0,-735.69,0,-251.42,576.57,102,1,0.605,0,-0.605,0
0,0.013048,0,0,0,0,0,0,0,0,-96.877,0.61471,0,-730.4,0,-249.51,572.67,102,1,0.61,0,-0.61,0
0,0.013064,0,0,0,0,0,0,0,0,-95.878,0.67257,0,-725.12,0,-247.61,568.77,102,1,0.615,0,-0.615,0
0,0.013079,0,0,0,0,0,0,0,0,-94.895,0.7368,0,-719.86,0,-245.72,564.87,102,1,0.62,0,-0.62,0
0,0.013095,0,0,0,0,0,0,0,0,-93.926,0.8074,0,-714.62,0,-243.84,560.97,102,1,0.625,0,-0.625,0
0,0.01311,0,0,0,0,0,0,0,0,-93.138,0.83679,0,-709.85,0,-242.16,557.35,102,1,0.63,0,-0.63,0
0,0.013126,0,0,0,0,0,0,0,0,-92.711,0.76762,0,-706.07,0,-240.88,554.33,102,1,0.635,0,-0.635,0
0,0.013141,0,0,0,0,0,0,0,0,-92.279,0.70205,0,-702.29,0,-239.6,551.32,102,1,0.64,0,-0.64,0
0,0.013156,0,0,0,0,0,0,0,0,-91.842,0.64008,0,-698.51,0,-238.32,548.3,102,1,0.645,0,-0.645,0
0,0.013171,0,0,0,0,0,0,0,0,-91.401,0.5817,0,-694.73,0,-237.04,545.29,102,1,0.65,0,-0.65,0
0,0.013186,0,0,0,0,0,0,0,0,-90.956,0.52693,0,-690.95,0,-235.76,542.29,102,1,0.655,0,-0.655,0
0,0.013201,0,0,0,0,0,0,0,0,-90.507,0.47574,0,-687.17,0,-234.48,539.29,102,1,0.66,0,-0.66,0
0,0.013216,0,0,0,0,0,0,0,0,-90.053,0.42816,0,-683.39,0,-233.2,536.29,102,1,0.665,0,-0.665,0
0,0.013231,0,0,0,0,0,0,0,0,-89.595,0.38417,0,-679.61,0,-231.91,533.3,102,1,0.67,0,-0.67,0
0,0.013246,0,0,0,0,0,0,0,0,-89.132,0.34378,0,-675.83,0,-230.63,530.3,102,1,0.675,0,-0.675,0
0,0.01326,0,0,0,0,0,0,0,0,-88.665,0.30699,0,-672.06,0,-229.34,527.32,102,1,0.68,0,-0.68,0
0,0.013275,0,0,0,0,0,0,0,0,-88.194,0.27379,0,-668.28,0,-228.06,524.34,102,1,0.685,0,-0.685,0
0,0.013289,0,0,0,0,0,0,0,0,-87.718,0.2442,0,-664.5,0,-226.77,521.36,102,1,0.69,0,-0.69,0
0,0.013303,0,0,0,0,0,0,0,0,-87.238,0.21819,0,-660.72,0,-225.48,518.38,102,1,0.695,0,-0.695,0
0,0.013318,0,0,0,0,0,0,0,0,-86.754,0.19579,0,-656.95,0,-224.19,515.41,102,1,0.7,0,-0.7,0
0,0.013332,0,0,0,0,0,0,0,0,-86.265,0.17698,0,-653.17,0,-222.9,512.44,102,1,0.705,0,-0.705,0
0,0.013346,0,0,0,0,0,0,0,0,-85.772,0.16177,0,-649.4,0,-221.6,509.48,102,1,0.71,0,-0.71,0
0,0.01336,0,0,0,0,0,0,0,0,-85.274,0.15016,0,-645.62,0,-220.31,506.52,102,1,0.715,0,-0.715,0
0,0.013374,0,0,0,0,0,0,0,0,-84.772,0.14215,0,-641.85,0,-219.01,503.56,102,1,0.72,0,-0.72,0
0,0.013388,0,0,0,0,0,0,0,0,-84.266,0.13773,0,-638.08,0,-217.72,500.61,102,1,0.725,0,-0.725,0
0,0.013402,0,0,0,0,0,0,0,0,-83.756,0.13691,0,-634.3,0,-216.42,497.66,102,1,0.73,0,-0.73,0
0,0.013415,0,0,0,0,0,0,0,0,-83.241,0.13968,0,-630.53,0,-215.12,494.71,102,1,0.735,0,-0.735,0
0,0.013429,0,0,0,0,0,0,0,0,-82.722,0.14605,0,-626.76,0,-213.82,491.77,102,1,0.74,0,-0.74,0
0,0.013442,0,0,0,0,0,0,0,0,-82.198,0.15601,0,-622.99,0,-212.52,488.84,102,1,0.745,0,-0.745,0
0,0.013456,0,0,0,0,0,0,0,0,-81.67,0.16956,0,-619.22,0,-211.22,485.9,102,1,0.75,0,-0.75,0
0,0.013469,0,0,0,0,0,0,0,0,-81.138,0.18672,0,-615.45,0,-209.92,482.97,102,1,0.755,0,-0.755,0
0,0.013482,0,0,0,0,0,0,0,0,-80.601,0.20746,0,-611.68,0,-208.62,480.05,102,1,0.76,0,-0.76,0
0,0.013496,0,0,0,0,0,0,0,0,-80.06,0.23181,0,-607.91,0,-207.31,477.12,102,1,0.765,0,-0.765,0
0,0.013509,0,0,0,0,0,0,0,0,-79.515,0.25974,0,-604.14,0,-206.01,474.2,102,1,0.77,0,-0.77,0
0,0.013522,0,0,0,0,0,0,0,0,-78.965,0.29128,0,-600.37,0,-204.7,471.29,102,1,0.775,0,-0.775,0
0,0.013535,0,0,0,0,0,0,0,0,-78.411,0.3264,0,-596.6,0,-203.39,468.38,102,1,0.78,0,-0.78,0
0,0.013547,0,0,0,0,0,0,0,0,-77.853,0.36513,0,-592.83,0,-202.08,465.47,102,1,0.785,0,-0.785,0
0,0.01356,0,0,0,0,0,0,0,0,-77.29,0.40745,0,-589.07,0,-200.77,462.57,102,1,0.79,0,-0.79,0
0,0.013573,0,0,0,0,0,0,0,0,-76.723,0.45336,0,-585.3,0,-199.46,459.67,102,1,0.795,0,-0.795,0
0,0.013586,0,0,0,0,0,0,0,0,-76.276,0.4781,0,-581.85,0,-198.28,456.96,102,1,0.8,0,-0.8,0
0,0.013598,0,0,0,0,0,0,0,0,-76.156,0.43909,0,-579.26,0,-197.46,454.76,102,1,0.805,0,-0.805,0
0,0.013611,0,0,0,0,0,0,0,0,-76.03,0.40197,0,-576.67,0,-196.64,452.56,102,1,0.81,0,-0.81,0
0,0.013623,0,0,0,0,0,0,0,0,-75.897,0.36672,0,-574.08,0,-195.81,450.36,102,1,0.815,0,-0.815,0
0,0.013635,0,0,0,0,0,0,0,0,-75.758,0.33335,0,-571.48,0,-194.98,448.17,102,1,0.82,0,-0.82,0
0,0.013648,0,0,0,0,0,0,0,0,-75.611,0.30186,0,-568.88,0,-194.15,445.98,102,1,0.825,0,-0.825,0
0,0.01366,0,0,0,0,0,0,0,0,-75.458,0.27226,0,-566.28,0,-193.32,443.79,102,1,0.83,0,-0.83,0
0,0.013672,0,0,0,0,0,0,0,0,-75.297,0.24453,0,-563.67,0,-192.48,441.61,102,1,0.835,0,-0.835,0
0,0.013684,0,0,0,0,0,0,0,0,-75.13,0.21868,0,-561.07,0,-191.64,439.42,102,1,0.84,0,-0.84,0
0,0.013697,0,0,0,0,0,0,0,0,-74.956,0.19472,0,-558.46,0,-190.8,437.24,102,1,0.845,0,-0.845,0
0,0.013709,0,0,0,0,0,0,0,0,-74.775,0.17263,0,-555.84,0,-189.95,435.07,102,1,0.85,0,-0.85,0
0,0.013721,0,0,0,0,0,0,0,0,-74.588,0.15243,0,-553.23,0,-189.1,432.89,102,1,0.855,0,-0.855,0
0,0.013732,0,0,0,0,0,0,0,0,-74.393,0.1341,0,-550.61,0,-188.25,430.72,102,1,0.86,0,-0.86,0
0,0.013744,0,0,0,0,0,0,0,0,-74.191,0.11765,0,-547.99,0,-187.4,428.56,102,1,0.865,0,-0.865,0
0,0.013756,0,0,0,0,0,0,0,0,-73.983,0.10309,0,-545.36,0,-186.54,426.39,102,1,0.87,0,-0.87,0
0,0.013768,0,0,0,0,0,0,0,0,-73.768,0.090401,0,-542.73,0,-185.68,424.23,102,1,0.875,0,-0.875,0
0,0.01378,0,0,0,0,0,0,0,0,-73.546,0.079595,0,-540.1,0,-184.82,422.07,102,1,0.88,0,-0.88,0
0,0.013791,0,0,0,0,0,0,0,0,-73.317,0.070669,0,-537.47,0,-183.95,419.91,102,1,0.885,0,-0.885,0
0,0.013803,0,0,0,0,0,0,0,0,-73.082,0.063624,0,-534.83,0,-183.08,417.76,102,1,0.89,0,-0.89,0
0,0.013814,0,0,0,0,0,0,0,0,-72.839,0.058459,0,-532.2,0,-182.21,415.61,102,1,0.895,0,-0.895,0
0,0.013826,0,0,0,0,0,0,0,0,-72.59,0.055174,0,-529.56,0,-181.34,413.46,102,1,0.9,0,-0.9,0
0,0.013837,0,0,0,0,0,0,0,0,-72.334,0.053768,0,-526.91,0,-180.46,411.32,102,1,0.905,0,-0.905,0
0,0.013848,0,0,0,0,0,0,0,0,-72.071,0.054241,0,-524.27,0,-179.58,409.17,102,1,0.91,0,-0.91,0
0,0.01386,0,0,0,0,0,0,0,0,-71.801,0.056593,0,-521.62,0,-178.7,407.03,102,1,0.915,0,-0.915,0
0,0.013871,0,0,0,0,0,0,0,0,-71.524,0.060825,0,-518.97,0,-177.81,404.9,102,1,0.92,0,-0.92,0
0,0.013882,0,0,0,0,0,0,0,0,-71.24,0.066936,0,-516.31,0,-176.93,402.76,102,1,0.925,0,-0.925,0
0,0.013893,0,0,0,0,0,0,0,0,-70.95,0.074927,0,-513.65,0,-176.03,400.63,102,1,0.93,0,-0.93,0
0,0.013904,0,0,0,0,0,0,0,0,-70.653,0.084797,0,-510.99,0,-175.14,398.51,102,1,0.935,0,-0.935,0
0,0.013915,0,0,0,0,0,0,0,0,-70.349,0.096546,0,-508.33,0,-174.24,396.38,102,1,0.94,0,-0.94,0
0,0.013926,0,0,0,0,0,0,0,0,-70.038,0.11017,0,-505.66,0,-173.34,394.26,102,1,0.945,0,-0.945,0
0,0.013937,0,0,0,0,0,0,0,0,-69.72,0.12568,0,-503,0,-172.44,392.14,102,1,0.95,0,-0.95,0
0,0.013948,0,0,0,0,0,0,0,0,-69.395,0.14307,0,-500.33,0,-171.54,390.02,102,1,0.955,0,-0.955,0
0,0.013958,0,0,0,0,0,0,0,0,-69.064,0.16233,0,-497.65,0,-170.63,387.91,102,1,0.96,0,-0.96,0
0,0.013969,0,0,0,0,0,0,0,0,-68.725,0.18348,0,-494.97,0,-169.72,385.8,102,1,0.965,0,-0.965,0
0,0.01398,0,0,0,0,0,0,0,0,-68.38,0.2065,0,-492.3,0,-168.8,383.69,102,1,0.97,0,-0.97,0
0,0.01399,0,0,0,0,0,0,0,0,-68.028,0.23141,0,-489.61,0,-167.89,381.58,102,1,0.975,0,-0.975,0
0,0.014001,0,0,0,0,0,0,0,0,-67.669,0.25819,0,-486.93,0,-166.97,379.48,102,1,0.98,0,-0.98,0
0,0.014011,0,0,0,0,0,0,0,0,-67.438,0.26669,0,-484.57,0,-166.18,377.57,102,1,0.985,0,-0.985,0
0,0.014022,0,0,0,0,0,0,0,0,-67.41,0.24505,0,-482.74,0,-165.62,375.97,102,1,0.99,0,-0.99,0
0,0.014032,0,0,0,0,0,0,0,0,-67.376,0.2244,0,-480.9,0,-165.05,374.37,102,1,0.995,0,-0.995,0
0,0.014042,0,0,0,0,0,0,0,0,-67.337,0.20474,0,-479.06,0,-164.49,372.76,102,1,1,0,-1,0
0,0.014053,0,0,0,0,0,0,0,0,-67.292,0.18606,0,-477.21,0,-163.91,371.16,102,1,1.005,0,-1.005,0
0,0.014063,0,0,0,0,0,0,0,0,-67.241,0.16838,0,-475.36,0,-163.34,369.57,102,1,1.01,0,-1.01,0
0,0.014073,0,0,0,0,0,0,0,0,-67.185,0.15168,0,-473.51,0,-162.76,367.97,102,1,1.015,0,-1.015,0
0,0.014083,0,0,0,0,0,0,0,0,-67.123,0.13597,0,-471.66,0,-162.18,366.38,102,1,1.02,0,-1.02,0
0,0.014093,0,0,0,0,0,0,0,0,-67.056,0.12124,0,-469.81,0,-161.6,364.78,102,1,1.025,0,-1.025,0
0,0.014103,0,0,0,0,0,0,0,0,-66.983,0.10751,0,-467.95,0,-161.02,363.19,102,1,1.03,0,-1.03,0
0,0.014114,0,0,0,0,0,0,0,0,-66.904,0.094759,0,-466.09,0,-160.43,361.61,102,1,1.035,0,-1.035,0
0,0.014124,0,0,0,0,0,0,0,0,-66.82,0.083,0,-464.22,0,-159.84,360.02,102,1,1.04,0,-1.04,0
0,0.014133,0,0,0,0,0,0,0,0,-66.73,0.072228,0,-462.36,0,-159.25,358.44,102,1,1.045,0,-1.045,0
0,0.014143,0,0,0,0,0,0,0,0,-66.634,0.062445,0,-460.49,0,-158.66,356.85,102,1,1.05,0,-1.05,0
0,0.014153,0,0,0,0,0,0,0,0,-66.533,0.053649,0,-458.62,0,-158.06,355.28,102,1,1.055,0,-1.055,0
0,0.014163,0,0,0,0,0,0,0,0,-66.426,0.045842,0,-456.74,0,-157.46,353.7,102,1,1.06,0,-1.06,0
0,0.014173,0,0,0,0,0,0,0,0,-66.313,0.039022,0,-454.87,0,-156.86,352.12,102,1,1.065,0,-1.065,0
0,0.014183,0,0,0,0,0,0,0,0,-66.195,0.03319,0,-452.99,0,-156.26,350.55,102,1,1.07,0,-1.07,0
0,0.014192,0,0,0,0,0,0,0,0,-66.071,0.028347,0,-451.1,0,-155.65,348.98,102,1,1.075,0,-1.075,0
0,0.014202,0,0,0,0,0,0,0,0,-65.942,0.024491,0,-449.22,0,-155.05,347.4,102,1,1.08,0,-1.08,0
0,0.014212,0,0,0,0,0,0,0,0,-65.807,0.021623,0,-447.33,0,-154.43,345.84,102,1,1.085,0,-1.085,0
0,0.014221,0,0,0,0,0,0,0,0,-65.666,0.019744,0,-445.44,0,-153.82,344.27,102,1,1.09,0,-1.09,0
0,0.014231,0,0,0,0,0,0,0,0,-65.52,0.018852,0,-443.55,0,-153.21,342.71,102,1,1.095,0,-1.095,0
0,0.01424,0,0,0,0,0,0,0,0,-65.368,0.018947,0,-441.66,0,-152.59,341.15,102,1,1.1,0,-1.1,0
0,0.01425,0,0,0,0,0,0,0,0,-65.21,0.02003,0,-439.76,0,-151.97,339.59,102,1,1.105,0,-1.105,0
0,0.014259,0,0,0,0,0,0,0,0,-65.047,0.022101,0,-437.86,0,-151.34,338.03,102,1,1.11,0,-1.11,0
0,0.014268,0,0,0,0,0,0,0,0,-64.878,0.02516,0,-435.96,0,-150.72,336.47,102,1,1.115,0,-1.115,0
0,0.014278,0,0,0,0,0,0,0,0,-64.704,0.029206,0,-434.05,0,-150.09,334.92,102,1,1.12,0,-1.12,0
0,0.014287,0,0,0,0,0,0,0,0,-64.524,0.03424,0,-432.14,0,-149.46,333.37,102,1,1.125,0,-1.125,0
0,0.014296,0,0,0,0,0,0,0,0,-64.338,0.040261,0,-430.23,0,-148.83,331.82,102,1,1.13,0,-1.13,0
0,0.014305,0,0,0,0,0,0,0,0,-64.146,0.04727,0,-428.32,0,-148.19,330.27,102,1,1.135,0,-1.135,0
0,0.014314,0,0,0,0,0,0,0,0,-63.949,0.055267,0,-426.4,0,-147.55,328.72,102,1,1.14,0,-1.14,0
0,0.014324,0,0,0,0,0,0,0,0,-63.747,0.064251,0,-424.48,0,-146.91,327.18,102,1,1.145,0,-1.145,0
0,0.014333,0,0,0,0,0,0,0,0,-63.539,0.074223,0,-422.56,0,-146.27,325.64,102,1,1.15,0,-1.15,0
0,0.014342,0,0,0,0,0,0,0,0,-63.325,0.085183,0,-420.64,0,-145.62,324.1,102,1,1.155,0,-1.155,0
0,0.014351,0,0,0,0,0,0,0,0,-63.105,0.09713,0,-418.71,0,-144.97,322.56,102,1,1.16,0,-1.16,0
0,0.01436,0,0,0,0,0,0,0,0,-62.88,0.11006,0,-416.78,0,-144.32,321.02,102,1,1.165,0,-1.165,0
0,0.014368,0,0,0,0,0,0,0,0,-62.649,0.12399,0,-414.85,0,-143.67,319.49,102,1,1.17,0,-1.17,0
0,0.014377,0,0,0,0,0,0,0,0,-62.413,0.1389,0,-412.91,0,-143.02,317.96,102,1,1.175,0,-1.175,0
0,0.014386,0,0,0,0,0,0,0,0,-62.17,0.15479,0,-410.98,0,-142.36,316.43,102,1,1.18,0,-1.18,0
0,0.014395,0,0,0,0,0,0,0,0,-62.088,0.15166,0,-409.44,0,-141.87,315.13,102,1,1.185,0,-1.185,0
0,0.014404,0,0,0,0,0,0,0,0,-62.081,0.13945,0,-408.1,0,-141.46,313.95,102,1,1.19,0,-1.19,0
0,0.014412,0,0,0,0,0,0,0,0,-62.071,0.12776,0,-406.75,0,-141.05,312.76,102,1,1.195,0,-1.195,0
0,0.014421,0,0,0,0,0,0,0,0,-62.056,0.11661,0,-405.41,0,-140.64,311.58,102,1,1.2,0,-1.2,0
0,0.01443,0,0,0,0,0,0,0,0,-62.037,0.106,0,-404.06,0,-140.23,310.4,102,1,1.205,0,-1.205,0
0,0.014438,0,0,0,0,0,0,0,0,-62.014,0.095913,0,-402.71,0,-139.81,309.23,102,1,1.21,0,-1.21,0
0,0.014447,0,0,0,0,0,0,0,0,-61.987,0.086362,0,-401.36,0,-139.4,308.05,102,1,1.215,0,-1.215,0
0,0.014455,0,0,0,0,0,0,0,0,-61.956,0.077344,0,-400.01,0,-138.98,306.88,102,1,1.22,0,-1.22,0
0,0.014464,0,0,0,0,0,0,0,0,-61.92,0.068859,0,-398.65,0,-138.56,305.7,102,1,1.225,0,-1.225,0
0,0.014472,0,0,0,0,0,0,0,0,-61.881,0.060908,0,-397.29,0,-138.14,304.53,102,1,1.23,0,-1.23,0
0,0.014481,0,0,0,0,0,0,0,0,-61.837,0.053489,0,-395.93,0,-137.71,303.36,102,1,1.235,0,-1.235,0
0,0.014489,0,0,0,0,0,0,0,0,-61.79,0.046603,0,-394.57,0,-137.29,302.19,102,1,1.24,0,-1.24,0
0,0.014498,0,0,0,0,0,0,0,0,-61.738,0.04025,0,-393.21,0,-136.86,301.02,102,1,1.245,0,-1.245,0
0,0.014506,0,0,0,0,0,0,0,0,-61.683,0.03443,0,-391.84,0,-136.43,299.85,102,1,1.25,0,-1.25,0
0,0.014514,0,0,0,0,0,0,0,0,-61.623,0.029143,0,-390.47,0,-136,298.69,102,1,1.255,0,-1.255,0
0,0.014523,0,0,0,0,0,0,0,0,-61.559,0.024388,0,-389.1,0,-135.57,297.53,102,1,1.26,0,-1.26,0
0,0.014531,0,0,0,0,0,0,0,0,-61.491,0.020167,0,-387.73,0,-135.13,296.36,102,1,1.265,0,-1.265,0
0,0.014539,0,0,0,0,0,0,0,0,-61.419,0.016479,0,-386.36,0,-134.7,295.2,102,1,1.27,0,-1.27,0
0,0.014548,0,0,0,0,0,0,0,0,-61.343,0.013324,0,-384.98,0,-134.26,294.04,102,1,1.275,0,-1.275,0
0,0.014556,0,0,0,0,0,0,0,0,-61.263,0.010702,0,-383.6,0,-133.82,292.88,102,1,1.28,0,-1.28,0
0,0.014564,0,0,0,0,0,0,0,0,-61.178,0.0086127,0,-382.22,0,-133.38,291.73,102,1,1.285,0,-1.285,0
0,0.014572,0,0,0,0,0,0,0,0,-61.09,0.0070565,0,-380.84,0,-132.93,290.57,102,1,1.29,0,-1.29,0
0,0.01458,0,0,0,0,0,0,0,0,-60.997,0.0060333,0,-379.46,0,-132.49,289.42,102,1,1.295,0,-1.295,0
0,0.014588,0,0,0,0,0,0,0,0,-60.901,0.005543,0,-378.07,0,-132.04,288.26,102,1,1.3,0,-1.3,0
0,0.014596,0,0,0,0,0,0,0,0,-60.8,0.0055855,0,-376.69,0,-131.59,287.11,102,1,1.305,0,-1.305,0
0,0.014604,0,0,0,0,0,0,0,0,-60.696,0.0061608,0,-375.3,0,-131.14,285.96,102,1,1.31,0,-1.31,0
0,0.014612,0,0,0,0,0,0,0,0,-60.587,0.0072689,0,-373.91,0,-130.69,284.81,102,1,1.315,0,-1.315,0
0,0.01462,0,0,0,0,0,0,0,0,-60.474,0.0089099,0,-372.51,0,-130.23,283.67,102,1,1.32,0,-1.32,0
0,0.014628,0,0,0,0,0,0,0,0,-60.357,0.011084,0,-371.12,0,-129.78,282.52,102,1,1.325,0,-1.325,0
0,0.014636,0,0,0,0,0,0,0,0,-60.236,0.01379,0,-369.72,0,-129.32,281.38,102,1,1.33,0,-1.33,0
0,0.014644,0,0,0,0,0,0,0,0,-60.111,0.01703,0,-368.32,0,-128.86,280.23,102,1,1.335,0,-1.335,0
0,0.014651,0,0,0,0,0,0,0,0,-59.982,0.020802,0,-366.92,0,-128.4,279.09,102,1,1.34,0,-1.34,0
0,0.014659,0,0,0,0,0,0,0,0,-59.848,0.025107,0,-365.52,0,-127.93,277.95,102,1,1.345,0,-1.345,0
0,0.014667,0,0,0,0,0,0,0,0,-59.711,0.029945,0,-364.11,0,-127.47,276.81,102,1,1.35,0,-1.35,0
0,0.014675,0,0,0,0,0,0,0,0,-59.569,0.035316,0,-362.7,0,-127,275.67,102,1,1.355,0,-1.355,0
0,0.014682,0,0,0,0,0,0,0,0,-59.424,0.04122,0,-361.29,0,-126.53,274.54,102,1,1.36,0,-1.36,0
0,0.01469,0,0,0,0,0,0,0,0,-59.274,0.047656,0,-359.88,0,-126.06,273.4,102,1,1.365,0,-1.365,0
0,0.014698,0,0,0,0,0,0,0,0,-59.12,0.054625,0,-358.47,0,-125.59,272.27,102,1,1.37,0,-1.37,0
0,0.014705,0,0,0,0,0,0,0,0,-58.963,0.062128,0,-357.06,0,-125.12,271.14,102,1,1.375,0,-1.375,0
0,0.014713,0,0,0,0,0,0,0,0,-58.801,0.070162,0,-355.64,0,-124.64,270.01,102,1,1.38,0,-1.38,0
0,0.01472,0,0,0,0,0,0,0,0,-58.635,0.07873,0,-354.22,0,-124.16,268.88,102,1,1.385,0,-1.385,0
0,0.014728,0,0,0,0,0,0,0,0,-58.465,0.087831,0,-352.8,0,-123.68,267.75,102,1,1.39,0,-1.39,0
0,0.014735,0,0,0,0,0,0,0,0,-58.312,0.095347,0,-351.43,0,-123.22,266.65,102,1,1.395,0,-1.395,0
0,0.014743,0,0,0,0,0,0,0,0,-58.308,0.087961,0,-350.42,0,-122.92,265.77,102,1,1.4,0,-1.4,0
0,0.01475,0,0,0,0,0,0,0,0,-58.301,0.080873,0,-349.42,0,-122.61,264.88,102,1,1.405,0,-1.405,0
0,0.014758,0,0,0,0,0,0,0,0,-58.292,0.074083,0,-348.41,0,-122.31,264,102,1,1.41,0,-1.41,0
0,0.014765,0,0,0,0,0,0,0,0,-58.28,0.067592,0,-347.4,0,-122,263.12,102,1,1.415,0,-1.415,0
0,0.014772,0,0,0,0,0,0,0,0,-58.264,0.061399,0,-346.39,0,-121.69,262.24,102,1,1.42,0,-1.42,0
0,0.01478,0,0,0,0,0,0,0,0,-58.246,0.055505,0,-345.38,0,-121.38,261.36,102,1,1.425,0,-1.425,0
0,0.014787,0,0,0,0,0,0,0,0,-58.225,0.049909,0,-344.37,0,-121.07,260.48,102,1,1.43,0,-1.43,0
0,0.014794,0,0,0,0,0,0,0,0,-58.202,0.044611,0,-343.36,0,-120.75,259.6,102,1,1.435,0,-1.435,0
0,0.014802,0,0,0,0,0,0,0,0,-58.175,0.039612,0,-342.34,0,-120.44,258.72,102,1,1.44,0,-1.44,0
0,0.014809,0,0,0,0,0,0,0,0,-58.145,0.034911,0,-341.33,0,-120.12,257.84,102,1,1.445,0,-1.445,0
0,0.014816,0,0,0,0,0,0,0,0,-58.113,0.030509,0,-340.31,0,-119.81,256.97,102,1,1.45,0,-1.45,0
0,0.014823,0,0,0,0,0,0,0,0,-58.078,0.026405,0,-339.29,0,-119.49,256.09,102,1,1.455,0,-1.455,0
0,0.01483,0,0,0,0,0,0,0,0,-58.04,0.022599,0,-338.27,0,-119.17,255.22,102,1,1.46,0,-1.46,0
0,0.014838,0,0,0,0,0,0,0,0,-57.999,0.019092,0,-337.25,0,-118.85,254.35,102,1,1.465,0,-1.465,0
0,0.014845,0,0,0,0,0,0,0,0,-57.955,0.015884,0,-336.23,0,-118.53,253.47,102,1,1.47,0,-1.47,0
0,0.014852,0,0,0,0,0,0,0,0,-57.908,0.012973,0,-335.2,0,-118.21,252.6,102,1,1.475,0,-1.475,0
0,0.014859,0,0,0,0,0,0,0,0,-57.859,0.010361,0,-334.18,0,-117.88,251.73,102,1,1.48,0,-1.48,0
0,0.014866,0,0,0,0,0,0,0,0,-57.806,0.0080478,0,-333.15,0,-117.56,250.86,102,1,1.485,0,-1.485,0
0,0.014873,0,0,0,0,0,0,0,0,-57.751,0.0060327,0,-332.12,0,-117.23,250,102,1,1.49,0,-1.49,0
0,0.01488,0,0,0,0,0,0,0,0,-57.693,0.004316,0,-331.09,0,-116.9,249.13,102,1,1.495,0,-1.495,0
0,0.014887,0,0,0,0,0,0,0,0,-57.632,0.0028977,0,-330.06,0,-116.57,248.26,102,1,1.5,0,-1.5,0
0,0.014894,0,0,0,0,0,0,0,0,-57.568,0.0017778,0,-329.03,0,-116.24,247.4,102,1,1.505,0,-1.505,0
0,0.014901,0,0,0,0,0,0,0,0,-57.501,0.00095632,0,-327.99,0,-115.91,246.53,102,1,1.51,0,-1.51,0
0,0.014908,0,0,0,0,0,0,0,0,-57.431,0.00043325,0,-326.96,0,-115.58,245.67,102,1,1.515,0,-1.515,0
0,0.014915,0,0,0,0,0,0,0,0,-57.359,0.00020853,0,-325.92,0,-115.24,244.81,102,1,1.52,0,-1.52,0
0,0.014922,0,0,0,0,0,0,0,0,-57.284,0.00028214,0,-324.88,0,-114.91,243.95,102,1,1.525,0,-1.525,0
0,0.014928,0,0,0,0,0,0,0,0,-57.205,0.0006541,0,-323.84,0,-114.57,243.09,102,1,1.53,0,-1.53,0
0,0.014935,0,0,0,0,0,0,0,0,-57.124,0.0013244,0,-322.8,0,-114.23,242.23,102,1,1.535,0,-1.535,0
0,0.014942,0,0,0,0,0,0,0,0,-57.04,0.002293,0,-321.76,0,-113.89,241.37,102,1,1.54,0,-1.54,0
0,0.014949,0,0,0,0,0,0,0,0,-56.954,0.00356,0,-320.72,0,-113.55,240.51,102,1,1.545,0,-1.545,0
0,0.014956,0,0,0,0,0,0,0,0,-56.864,0.0051253,0,-319.67,0,-113.21,239.66,102,1,1.55,0,-1.55,0
0,0.014962,0,0,0,0,0,0,0,0,-56.771,0.006989,0,-318.63,0,-112.86,238.8,102,1,1.555,0,-1.555,0
0,0.014969,0,0,0,0,0,0,0,0,-56.676,0.009151,0,-317.58,0,-112.52,237.95,102,1,1.56,0,-1.56,0
0,0.014976,0,0,0,0,0,0,0,0,-56.578,0.011611,0,-316.53,0,-112.17,237.09,102,1,1.565,0,-1.565,0
0,0.014982,0,0,0,0,0,0,0,0,-56.477,0.01437,0,-315.48,0,-111.83,236.24,102,1,1.57,0,-1.57,0
0,0.014989,0,0,0,0,0,0,0,0,-56.373,0.017427,0,-314.43,0,-111.48,235.39,102,1,1.575,0,-1.575,0
0,0.014996,0,0,0,0,0,0,0,0,-56.266,0.020783,0,-313.37,0,-111.13,234.54,102,1,1.58,0,-1.58,0
0,0.015002,0,0,0,0,0,0,0,0,-56.156,0.024436,0,-312.32,0,-110.78,233.69,102,1,1.585,0,-1.585,0
0,0.015009,0,0,0,0,0,0,0,0,-56.044,0.028388,0,-311.26,0,-110.42,232.84,102,1,1.59,0,-1.59,0
0,0.015015,0,0,0,0,0,0,0,0,-55.928,0.032639,0,-310.2,0,-110.07,231.99,102,1,1.595,0,-1.595,0
0,0.015022,0,0,0,0,0,0,0,0,-55.81,0.037187,0,-309.14,0,-109.72,231.14,102,1,1.6,0,-1.6,0
0,0.015028,0,0,0,0,0,0,0,0,-55.689,0.042035,0,-308.08,0,-109.36,230.3,102,1,1.605,0,-1.605,0
0,0.015035,0,0,0,0,0,0,0,0,-55.565,0.04718,0,-307.02,0,-109,229.45,102,1,1.61,0,-1.61,0
0,0.015041,0,0,0,0,0,0,0,0,-55.438,0.052624,0,-305.96,0,-108.64,228.61,102,1,1.615,0,-1.615,0
0,0.015048,0,0,0,0,0,0,0,0,-55.308,0.058366,0,-304.89,0,-108.28,227.77,102,1,1.62,0,-1.62,0
0,0.015054,0,0,0,0,0,0,0,0,-55.267,0.05659,0,-304.05,0,-108.02,227.05,102,1,1.625,0,-1.625,0
0,0.015061,0,0,0,0,0,0,0,0,-55.257,0.052185,0,-303.28,0,-107.78,226.38,102,1,1.63,0,-1.63,0
0,0.015067,0,0,0,0,0,0,0,0,-55.245,0.047953,0,-302.51,0,-107.55,225.71,102,1,1.635,0,-1.635,0
0,0.015073,0,0,0,0,0,0,0,0,-55.231,0.043894,0,-301.74,0,-107.31,225.04,102,1,1.64,0,-1.64,0
0,0.01508,0,0,0,0,0,0,0,0,-55.215,0.040008,0,-300.97,0,-107.07,224.37,102,1,1.645,0,-1.645,0
0,0.015086,0,0,0,0,0,0,0,0,-55.197,0.036296,0,-300.2,0,-106.84,223.7,102,1,1.65,0,-1.65,0
0,0.015092,0,0,0,0,0,0,0,0,-55.177,0.032757,0,-299.43,0,-106.6,223.03,102,1,1.655,0,-1.655,0
0,0.015099,0,0,0,0,0,0,0,0,-55.155,0.029391,0,-298.66,0,-106.36,222.37,102,1,1.66,0,-1.66,0
0,0.015105,0,0,0,0,0,0,0,0,-55.131,0.026198,0,-297.88,0,-106.12,221.7,102,1,1.665,0,-1.665,0
0,0.015111,0,0,0,0,0,0,0,0,-55.104,0.023178,0,-297.11,0,-105.88,221.04,102,1,1.67,0,-1.67,0
0,0.015117,0,0,0,0,0,0,0,0,-55.076,0.020332,0,-296.33,0,-105.63,220.37,102,1,1.675,0,-1.675,0
0,0.015124,0,0,0,0,0,0,0,0,-55.046,0.017658,0,-295.56,0,-105.39,219.71,102,1,1.68,0,-1.68,0
0,0.01513,0,0,0,0,0,0,0,0,-55.014,0.015158,0,-294.78,0,-105.15,219.04,102,1,1.685,0,-1.685,0
0,0.015136,0,0,0,0,0,0,0,0,-54.98,0.012831,0,-294,0,-104.9,218.38,102,1,1.69,0,-1.69,0
0,0.015142,0,0,0,0,0,0,0,0,-54.944,0.010678,0,-293.22,0,-104.65,217.72,102,1,1.695,0,-1.695,0
0,0.015148,0,0,0,0,0,0,0,0,-54.906,0.0086973,0,-292.44,0,-104.41,217.06,102,1,1.7,0,-1.7,0
0,0.015154,0,0,0,0,0,0,0,0,-54.866,0.00689,0,-291.66,0,-104.16,216.4,102,1,1.705,0,-1.705,0
0,0.01516,0,0,0,0,0,0,0,0,-54.824,0.0052559,0,-290.87,0,-103.91,215.74,102,1,1.71,0,-1.71,0
0,0.015167,0,0,0,0,0,0,0,0,-54.779,0.0037951,0,-290.09,0,-103.66,215.08,102,1,1.715,0,-1.715,0
0,0.015173,0,0,0,0,0,0,0,0,-54.733,0.0025074,0,-289.3,0,-103.41,214.42,102,1,1.72,0,-1.72,0
0,0.015179,0,0,0,0,0,0,0,0,-54.685,0.0013929,0,-288.52,0,-103.16,213.76,102,1,1.725,0,-1.725,0
0,0.015185,0,0,0,0,0,0,0,0,-54.635,0.00045164,0,-287.73,0,-102.91,213.1,102,1,1.73,0,-1.73,0
0,0.015191,0,0,0,0,0,0,0,0,-54.583,-0.00031644,0,-286.94,0,-102.66,212.44,102,1,1.735,0,-1.735,0
0,0.015197,0,0,0,0,0,0,0,0,-54.529,-0.00091132,0,-286.16,0,-102.4,211.79,102,1,1.74,0,-1.74,0
0,0.015203,0,0,0,0,0,0,0,0,-54.473,-0.001333,0,-285.37,0,-102.15,211.13,102,1,1.745,0,-1.745,0
0,0.015209,0,0,0,0,0,0,0,0,-54.415,-0.0015815,0,-284.58,0,-101.89,210.48,102,1,1.75,0,-1.75,0
0,0.015215,0,0,0,0,0,0,0,0,-54.355,-0.0016568,0,-283.79,0,-101.63,209.82,102,1,1.755,0,-1.755,0
0,0.015221,0,0,0,0,0,0,0,0,-54.293,-0.0015589,0,-282.99,0,-101.38,209.17,102,1,1.76,0,-1.76,0
0,0.015227,0,0,0,0,0,0,0,0,-54.228,-0.0012879,0,-282.2,0,-101.12,208.52,102,1,1.765,0,-1.765,0
0,0.015232,0,0,0,0,0,0,0,0,-54.162,-0.00084371,0,-281.41,0,-100.86,207.87,102,1,1.77,0,-1.77,0
0,0.015238,0,0,0,0,0,0,0,0,-54.094,-0.00022636,0,-280.61,0,-100.6,207.21,102,1,1.775,0,-1.775,0
0,0.015244,0,0,0,0,0,0,0,0,-54.024,0.00056417,0,-279.81,0,-100.34,206.56,102,1,1.78,0,-1.78,0
0,0.01525,0,0,0,0,0,0,0,0,-53.952,0.0015279,0,-279.02,0,-100.08,205.91,102,1,1.785,0,-1.785,0
0,0.015256,0,0,0,0,0,0,0,0,-53.878,0.0026647,0,-278.22,0,-99.814,205.26,102,1,1.79,0,-1.79,0
0,0.015262,0,0,0,0,0,0,0,0,-53.802,0.0039748,0,-277.42,0,-99.55,204.62,102,1,1.795,0,-1.795,0
0,0.015268,0,0,0,0,0,0,0,0,-53.724,0.005458,0,-276.62,0,-99.286,203.97,102,1,1.8,0,-1.8,0
0,0.015273,0,0,0,0,0,0,0,0,-53.644,0.0071143,0,-275.82,0,-99.02,203.32,102,1,1.805,0,-1.805,0
0,0.015279,0,0,0,0,0,0,0,0,-53.561,0.0089439,0,-275.02,0,-98.754,202.67,102,1,1.81,0,-1.81,0
0,0.015285,0,0,0,0,0,0,0,0,-53.477,0.010947,0,-274.21,0,-98.487,202.03,102,1,1.815,0,-1.815,0
0,0.015291,0,0,0,0,0,0,0,0,-53.391,0.013122,0,-273.41,0,-98.219,201.38,102,1,1.82,0,-1.82,0
0,0.015296,0,0,0,0,0,0,0,0,-53.303,0.015472,0,-272.6,0,-97.95,200.74,102,1,1.825,0,-1.825,0
0,0.015302,0,0,0,0,0,0,0,0,-53.213,0.017994,0,-271.8,0,-97.68,200.09,102,1,1.83,0,-1.83,0
0,0.015308,0,0,0,0,0,0,0,0,-53.121,0.020689,0,-270.99,0,-97.409,199.45,102,1,1.835,0,-1.835,0
0,0.015313,0,0,0,0,0,0,0,0,-53.027,0.023558,0,-270.18,0,-97.137,198.81,102,1,1.84,0,-1.84,0
0,0.015319,0,0,0,0,0,0,0,0,-52.931,0.026599,0,-269.38,0,-96.865,198.16,102,1,1.845,0,-1.845,0
0,0.015325,0,0,0,0,0,0,0,0,-52.833,0.029814,0,-268.57,0,-96.591,197.52,102,1,1.85,0,-1.85,0
0,0.01533,0,0,0,0,0,0,0,0,-52.733,0.033202,0,-267.75,0,-96.317,196.88,102,1,1.855,0,-1.855,0
0,0.015336,0,0,0,0,0,0,0,0,-52.63,0.036764,0,-266.94,0,-96.042,196.24,102,1,1.86,0,-1.86,0
0,0.015341,0,0,0,0,0,0,0,0,-52.573,0.037071,0,-266.24,0,-95.813,195.67,102,1,1.865,0,-1.865,0
0,0.015347,0,0,0,0,0,0,0,0,-52.558,0.034266,0,-265.65,0,-95.629,195.15,102,1,1.87,0,-1.87,0
0,0.015352,0,0,0,0,0,0,0,0,-52.541,0.031565,0,-265.05,0,-95.444,194.63,102,1,1.875,0,-1.875,0
0,0.015358,0,0,0,0,0,0,0,0,-52.523,0.028968,0,-264.45,0,-95.258,194.12,102,1,1.88,0,-1.88,0
0,0.015363,0,0,0,0,0,0,0,0,-52.503,0.026475,0,-263.85,0,-95.072,193.61,102,1,1.885,0,-1.885,0
0,0.015369,0,0,0,0,0,0,0,0,-52.482,0.024087,0,-263.25,0,-94.885,193.09,102,1,1.89,0,-1.89,0
0,0.015374,0,0,0,0,0,0,0,0,-52.46,0.021802,0,-262.65,0,-94.697,192.58,102,1,1.895,0,-1.895,0
0,0.01538,0,0,0,0,0,0,0,0,-52.436,0.019621,0,-262.05,0,-94.509,192.07,102,1,1.9,0,-1.9,0
0,0.015385,0,0,0,0,0,0,0,0,-52.411,0.017545,0,-261.45,0,-94.321,191.55,102,1,1.905,0,-1.905,0
0,0.015391,0,0,0,0,0,0,0,0,-52.385,0.015572,0,-260.85,0,-94.131,191.04,102,1,1.91,0,-1.91,0
0,0.015396,0,0,0,0,0,0,0,0,-52.357,0.013704,0,-260.24,0,-93.941,190.53,102,1,1.915,0,-1.915,0
0,0.015402,0,0,0,0,0,0,0,0,-52.327,0.011939,0,-259.64,0,-93.75,190.02,102,1,1.92,0,-1.92,0
0,0.015407,0,0,0,0,0,0,0,0,-52.297,0.010279,0,-259.04,0,-93.559,189.51,102,1,1.925,0,-1.925,0
0,0.015412,0,0,0,0,0,0,0,0,-52.264,0.0087225,0,-258.43,0,-93.367,189,102,1,1.93,0,-1.93,0
0,0.015418,0,0,0,0,0,0,0,0,-52.231,0.0072702,0,-257.82,0,-93.175,188.49,102,1,1.935,0,-1.935,0
0,0.015423,0,0,0,0,0,0,0,0,-52.196,0.0059219,0,-257.22,0,-92.981,187.98,102,1,1.94,0,-1.94,0
0,0.015429,0,0,0,0,0,0,0,0,-52.159,0.0046777,0,-256.61,0,-92.788,187.47,102,1,1.945,0,-1.945,0
0,0.015434,0,0,0,0,0,0,0,0,-52.122,0.0035375,0,-256,0,-92.593,186.96,102,1,1.95,0,-1.95,0
0,0.015439,0,0,0,0,0,0,0,0,-52.082,0.0025013,0,-255.4,0,-92.398,186.45,102,1,1.955,0,-1.955,0
0,0.015445,0,0,0,0,0,0,0,0,-52.042,0.0015692,0,-254.79,0,-92.203,185.95,102,1,1.96,0,-1.96,0
0,0.01545,0,0,0,0,0,0,0,0,-52,0.00074111,0,-254.18,0,-92.006,185.44,102,1,1.965,0,-1.965,0
0,0.015455,0,0,0,0,0,0,0,0,-51.956,1.7077e-05,0,-253.57,0,-91.809,184.93,102,1,1.97,0,-1.97,0
0,0.01546,0,0,0,0,0,0,0,0,-51.912,-0.00060291,0,-252.96,0,-91.612,184.43,102,1,1.975,0,-1.975,0
0,0.015466,0,0,0,0,0,0,0,0,-51.865,-0.0011189,0,-252.34,0,-91.414,183.92,102,1,1.98,0,-1.98,0
0,0.015471,0,0,0,0,0,0,0,0,-51.818,-0.0015308,0,-251.73,0,-91.215,183.42,102,1,1.985,0,-1.985,0
0,0.015476,0,0,0,0,0,0,0,0,-51.769,-0.0018386,0,-251.12,0,-91.016,182.91,102,1,1.99,0,-1.99,0
0,0.015481,0,0,0,0,0,0,0,0,-51.718,-0.0020424,0,-250.5,0,-90.816,182.41,102,1,1.995,0,-1.995,0
0,0.015487,0,0,0,0,0,0,0,0,-51.666,-0.0021422,0,-249.89,0,-90.615,181.9,102,1,2,0,-2,0
0,0.015492,0,0,0,0,0,0,0,0,-51.613,-0.002138,0,-249.28,0,-90.414,181.4,102,1,2.005,0,-2.005,0
0,0.015497,0,0,0,0,0,0,0,0,-51.558,-0.0020297,0,-248.66,0,-90.212,180.9,102,1,2.01,0,-2.01,0
0,0.015502,0,0,0,0,0,0,0,0,-51.502,-0.0018174,0,-248.04,0,-90.01,180.4,102,1,2.015,0,-2.015,0
0,0.015507,0,0,0,0,0,0,0,0,-51.445,-0.001501,0,-247.43,0,-89.806,179.9,102,1,2.02,0,-2.02,0
0,0.015512,0,0,0,0,0,0,0,0,-51.386,-0.0010807,0,-246.81,0,-89.603,179.39,102,1,2.025,0,-2.025,0
0,0.015518,0,0,0,0,0,0,0,0,-51.325,-0.00055629,0,-246.19,0,-89.398,178.89,102,1,2.03,0,-2.03,0
0,0.015523,0,0,0,0,0,0,0,0,-51.264,7.2139e-05,0,-245.57,0,-89.193,178.39,102,1,2.035,0,-2.035,0
0,0.015528,0,0,0,0,0,0,0,0,-51.2,0.00080457,0,-244.95,0,-88.988,177.89,102,1,2.04,0,-2.04,0
0,0.015533,0,0,0,0,0,0,0,0,-51.136,0.0016411,0,-244.33,0,-88.782,177.39,102,1,2.045,0,-2.045,0
0,0.015538,0,0,0,0,0,0,0,0,-51.07,0.0025815,0,-243.71,0,-88.575,176.9,102,1,2.05,0,-2.05,0
0,0.015543,0,0,0,0,0,0,0,0,-51.002,0.0036261,0,-243.09,0,-88.367,176.4,102,1,2.055,0,-2.055,0
0,0.015548,0,0,0,0,0,0,0,0,-50.934,0.0047746,0,-242.47,0,-88.159,175.9,102,1,2.06,0,-2.06,0
0,0.015553,0,0,0,0,0,0,0,0,-50.863,0.0060272,0,-241.84,0,-87.951,175.4,102,1,2.065,0,-2.065,0
0,0.015558,0,0,0,0,0,0,0,0,-50.792,0.0073838,0,-241.22,0,-87.741,174.9,102,1,2.07,0,-2.07,0
0,0.015563,0,0,0,0,0,0,0,0,-50.719,0.0088445,0,-240.6,0,-87.531,174.41,102,1,2.075,0,-2.075,0
0,0.015568,0,0,0,0,0,0,0,0,-50.644,0.010409,0,-239.97,0,-87.321,173.91,102,1,2.08,0,-2.08,0
0,0.015573,0,0,0,0,0,0,0,0,-50.569,0.012078,0,-239.34,0,-87.109,173.42,102,1,2.085,0,-2.085,0
0,0.015578,0,0,0,0,0,0,0,0,-50.491,0.013851,0,-238.72,0,-86.898,172.92,102,1,2.09,0,-2.09,0
0,0.015583,0,0,0,0,0,0,0,0,-50.413,0.015727,0,-238.09,0,-86.685,172.43,102,1,2.095,0,-2.095,0
0,0.015588,0,0,0,0,0,0,0,0,-50.333,0.017708,0,-237.46,0,-86.472,171.93,102,1,2.1,0,-2.1,0
0,0.015593,0,0,0,0,0,0,0,0,-50.251,0.019793,0,-236.83,0,-86.258,171.44,102,1,2.105,0,-2.105,0
0,0.015598,0,0,0,0,0,0,0,0,-50.168,0.021982,0,-236.21,0,-86.044,170.95,102,1,2.11,0,-2.11,0
0,0.015602,0,0,0,0,0,0,0,0,-50.084,0.024275,0,-235.58,0,-85.829,170.45,102,1,2.115,0,-2.115,0
0,0.015607,0,0,0,0,0,0,0,0,-50.029,0.02469,0,-235.02,0,-85.645,170,102,1,2.12,0,-2.12,0
0,0.015612,0,0,0,0,0,0,0,0,-50.009,0.022864,0,-234.55,0,-85.497,169.6,102,1,2.125,0,-2.125,0
0,0.015617,0,0,0,0,0,0,0,0,-49.988,0.021102,0,-234.07,0,-85.348,169.2,102,1,2.13,0,-2.13,0
0,0.015622,0,0,0,0,0,0,0,0,-49.966,0.019405,0,-233.6,0,-85.199,168.8,102,1,2.135,0,-2.135,0
0,0.015627,0,0,0,0,0,0,0,0,-49.942,0.017772,0,-233.13,0,-85.05,168.4,102,1,2.14,0,-2.14,0
0,0.015632,0,0,0,0,0,0,0,0,-49.918,0.016204,0,-232.65,0,-84.9,168,102,1,2.145,0,-2.145,0
0,0.015636,0,0,0,0,0,0,0,0,-49.893,0.0147,0,-232.18,0,-84.749,167.6,102,1,2.15,0,-2.15,0
0,0.015641,0,0,0,0,0,0,0,0,-49.867,0.01326,0,-231.71,0,-84.599,167.2,102,1,2.155,0,-2.155,0
0,0.015646,0,0,0,0,0,0,0,0,-49.84,0.011885,0,-231.23,0,-84.447,166.8,102,1,2.16,0,-2.16,0
0,0.015651,0,0,0,0,0,0,0,0,-49.812,0.010575,0,-230.75,0,-84.296,166.4,102,1,2.165,0,-2.165,0
0,0.015656,0,0,0,0,0,0,0,0,-49.782,0.0093284,0,-230.28,0,-84.143,166,102,1,2.17,0,-2.17,0
0,0.01566,0,0,0,0,0,0,0,0,-49.752,0.0081468,0,-229.8,0,-83.991,165.61,102,1,2.175,0,-2.175,0
0,0.015665,0,0,0,0,0,0,0,0,-49.721,0.0070296,0,-229.32,0,-83.838,165.21,102,1,2.18,0,-2.18,0
0,0.01567,0,0,0,0,0,0,0,0,-49.689,0.0059769,0,-228.85,0,-83.684,164.81,102,1,2.185,0,-2.185,0
0,0.015675,0,0,0,0,0,0,0,0,-49.656,0.0049887,0,-228.37,0,-83.53,164.41,102,1,2.19,0,-2.19,0
0,0.015679,0,0,0,0,0,0,0,0,-49.621,0.0040649,0,-227.89,0,-83.376,164.02,102,1,2.195,0,-2.195,0
0,0.015684,0,0,0,0,0,0,0,0,-49.586,0.0032056,0,-227.41,0,-83.221,163.62,102,1,2.2,0,-2.2,0
0,0.015689,0,0,0,0,0,0,0,0,-49.55,0.0024107,0,-226.93,0,-83.066,163.23,102,1,2.205,0,-2.205,0
0,0.015693,0,0,0,0,0,0,0,0,-49.513,0.0016803,0,-226.45,0,-82.91,162.83,102,1,2.21,0,-2.21,0
0,0.015698,0,0,0,0,0,0,0,0,-49.474,0.0010144,0,-225.97,0,-82.754,162.44,102,1,2.215,0,-2.215,0
0,0.015703,0,0,0,0,0,0,0,0,-49.435,0.00041293,0,-225.49,0,-82.598,162.04,102,1,2.22,0,-2.22,0
0,0.015707,0,0,0,0,0,0,0,0,-49.395,-0.00012405,0,-225.01,0,-82.441,161.65,102,1,2.225,0,-2.225,0
0,0.015712,0,0,0,0,0,0,0,0,-49.354,-0.0005966,0,-224.53,0,-82.283,161.25,102,1,2.23,0,-2.23,0
0,0.015717,0,0,0,0,0,0,0,0,-49.312,-0.0010047,0,-224.05,0,-82.125,160.86,102,1,2.235,0,-2.235,0
0,0.015721,0,0,0,0,0,0,0,0,-49.268,-0.0013483,0,-223.56,0,-81.967,160.46,102,1,2.24,0,-2.24,0
0,0.015726,0,0,0,0,0,0,0,0,-49.224,-0.0016274,0,-223.08,0,-81.808,160.07,102,1,2.245,0,-2.245,0
0,0.015731,0,0,0,0,0,0,0,0,-49.179,-0.0018421,0,-222.6,0,-81.649,159.68,102,1,2.25,0,-2.25,0
0,0.015735,0,0,0,0,0,0,0,0,-49.133,-0.0019923,0,-222.11,0,-81.489,159.28,102,1,2.255,0,-2.255,0
0,0.01574,0,0,0,0,0,0,0,0,-49.085,-0.0020781,0,-221.63,0,-81.329,158.89,102,1,2.26,0,-2.26,0
0,0.015744,0,0,0,0,0,0,0,0,-49.037,-0.0020994,0,-221.14,0,-81.169,158.5,102,1,2.265,0,-2.265,0
0,0.015749,0,0,0,0,0,0,0,0,-48.988,-0.0020562,0,-220.66,0,-81.008,158.11,102,1,2.27,0,-2.27,0
0,0.015753,0,0,0,0,0,0,0,0,-48.938,-0.0019486,0,-220.17,0,-80.846,157.72,102,1,2.275,0,-2.275,0
0,0.015758,0,0,0,0,0,0,0,0,-48.886,-0.0017765,0,-219.68,0,-80.684,157.33,102,1,2.28,0,-2.28,0
0,0.015762,0,0,0,0,0,0,0,0,-48.834,-0.00154,0,-219.2,0,-80.522,156.94,102,1,2.285,0,-2.285,0
0,0.015767,0,0,0,0,0,0,0,0,-48.781,-0.001239,0,-218.71,0,-80.359,156.55,102,1,2.29,0,-2.29,0
0,0.015771,0,0,0,0,0,0,0,0,-48.726,-0.00087356,0,-218.22,0,-80.196,156.16,102,1,2.295,0,-2.295,0
0,0.015776,0,0,0,0,0,0,0,0,-48.671,-0.00044367,0,-217.73,0,-80.033,155.77,102,1,2.3,0,-2.3,0
0,0.01578,0,0,0,0,0,0,0,0,-48.615,5.0697e-05,0,-217.24,0,-79.868,155.38,102,1,2.305,0,-2.305,0
0,0.015785,0,0,0,0,0,0,0,0,-48.558,0.0006095,0,-216.75,0,-79.704,154.99,102,1,2.31,0,-2.31,0
0,0.015789,0,0,0,0,0,0,0,0,-48.499,0.0012328,0,-216.26,0,-79.539,154.6,102,1,2.315,0,-2.315,0
0,0.015794,0,0,0,0,0,0,0,0,-48.44,0.0019205,0,-215.77,0,-79.374,154.21,102,1,2.32,0,-2.32,0
0,0.015798,0,0,0,0,0,0,0,0,-48.38,0.0026727,0,-215.28,0,-79.208,153.82,102,1,2.325,0,-2.325,0
0,0.015803,0,0,0,0,0,0,0,0,-48.318,0.0034893,0,-214.79,0,-79.041,153.44,102,1,2.33,0,-2.33,0
0,0.015807,0,0,0,0,0,0,0,0,-48.256,0.0043704,0,-214.3,0,-78.875,153.05,102,1,2.335,0,-2.335,0
0,0.015812,0,0,0,0,0,0,0,0,-48.193,0.0053159,0,-213.81,0,-78.708,152.66,102,1,2.34,0,-2.34,0
0,0.015816,0,0,0,0,0,0,0,0,-48.128,0.006326,0,-213.32,0,-78.54,152.28,102,1,2.345,0,-2.345,0
0,0.01582,0,0,0,0,0,0,0,0,-48.063,0.0074004,0,-212.82,0,-78.372,151.89,102,1,2.35,0,-2.35,0
0,0.015825,0,0,0,0,0,0,0,0,-47.997,0.0085394,0,-212.33,0,-78.203,151.5,102,1,2.355,0,-2.355,0
0,0.015829,0,0,0,0,0,0,0,0,-47.929,0.0097427,0,-211.83,0,-78.034,151.12,102,1,2.36,0,-2.36,0
0,0.015833,0,0,0,0,0,0,0,0,-47.861,0.011011,0,-211.34,0,-77.865,150.73,102,1,2.365,0,-2.365,0
0,0.015838,0,0,0,0,0,0,0,0,-47.792,0.012343,0,-210.84,0,-77.695,150.35,102,1,2.37,0,-2.37,0
0,0.015842,0,0,0,0,0,0,0,0,-47.721,0.01374,0,-210.35,0,-77.525,149.96,102,1,2.375,0,-2.375,0
0,0.015846,0,0,0,0,0,0,0,0,-47.65,0.015201,0,-209.85,0,-77.354,149.58,102,1,2.38,0,-2.38,0
0,0.015851,0,0,0,0,0,0,0,0,-47.578,0.016726,0,-209.36,0,-77.183,149.2,102,1,2.385,0,-2.385,0
0,0.015855,0,0,0,0,0,0,0,0,-47.533,0.01668,0,-208.93,0,-77.041,148.85,102,1,2.39,0,-2.39,0
0,0.015859,0,0,0,0,0,0,0,0,-47.509,0.015467,0,-208.55,0,-76.919,148.54,102,1,2.395,0,-2.395,0
0,0.015864,0,0,0,0,0,0,0,0,-47.484,0.014294,0,-208.17,0,-76.798,148.22,102,1,2.4,0,-2.4,0
0,0.015868,0,0,0,0,0,0,0,0,-47.458,0.013163,0,-207.79,0,-76.676,147.9,102,1,2.405,0,-2.405,0
0,0.015872,0,0,0,0,0,0,0,0,-47.432,0.012073,0,-207.41,0,-76.554,147.59,102,1,2.41,0,-2.41,0
0,0.015876,0,0,0,0,0,0,0,0,-47.405,0.011024,0,-207.03,0,-76.431,147.27,102,1,2.415,0,-2.415,0
0,0.015881,0,0,0,0,0,0,0,0,-47.377,0.010015,0,-206.65,0,-76.309,146.96,102,1,2.42,0,-2.42,0
0,0.015885,0,0,0,0,0,0,0,0,-47.348,0.0090483,0,-206.27,0,-76.185,146.65,102,1,2.425,0,-2.425,0
0,0.015889,0,0,0,0,0,0,0,0,-47.319,0.0081222,0,-205.89,0,-76.062,146.33,102,1,2.43,0,-2.43,0
0,0.015893,0,0,0,0,0,0,0,0,-47.289,0.0072373,0,-205.51,0,-75.938,146.02,102,1,2.435,0,-2.435,0
0,0.015898,0,0,0,0,0,0,0,0,-47.258,0.0063934,0,-205.13,0,-75.814,145.7,102,1,2.44,0,-2.44,0
0,0.015902,0,0,0,0,0,0,0,0,-47.227,0.0055906,0,-204.75,0,-75.69,145.39,102,1,2.445,0,-2.445,0
0,0.015906,0,0,0,0,0,0,0,0,-47.195,0.0048289,0,-204.36,0,-75.565,145.08,102,1,2.45,0,-2.45,0
0,0.01591,0,0,0,0,0,0,0,0,-47.162,0.0041082,0,-203.98,0,-75.44,144.77,102,1,2.455,0,-2.455,0
0,0.015914,0,0,0,0,0,0,0,0,-47.128,0.0034286,0,-203.6,0,-75.315,144.45,102,1,2.46,0,-2.46,0
0,0.015919,0,0,0,0,0,0,0,0,-47.094,0.0027901,0,-203.21,0,-75.189,144.14,102,1,2.465,0,-2.465,0
0,0.015923,0,0,0,0,0,0,0,0,-47.059,0.0021927,0,-202.83,0,-75.063,143.83,102,1,2.47,0,-2.47,0
0,0.015927,0,0,0,0,0,0,0,0,-47.023,0.0016363,0,-202.45,0,-74.937,143.52,102,1,2.475,0,-2.475,0
0,0.015931,0,0,0,0,0,0,0,0,-46.987,0.001121,0,-202.06,0,-74.81,143.21,102,1,2.48,0,-2.48,0
0,0.015935,0,0,0,0,0,0,0,0,-46.949,0.0006468,0,-201.68,0,-74.683,142.89,102,1,2.485,0,-2.485,0
0,0.015939,0,0,0,0,0,0,0,0,-46.911,0.00021364,0,-201.29,0,-74.556,142.58,102,1,2.49,0,-2.49,0
0,0.015944,0,0,0,0,0,0,0,0,-46.873,-0.00017842,0,-200.91,0,-74.428,142.27,102,1,2.495,0,-2.495,0
0,0.015948,0,0,0,0,0,0,0,0,-46.833,-0.00052943,0,-200.52,0,-74.301,141.96,102,1,2.5,0,-2.5,0
0,0.015952,0,0,0,0,0,0,0,0,-46.793,-0.00083937,0,-200.14,0,-74.172,141.65,102,1,2.505,0,-2.505,0
0,0.015956,0,0,0,0,0,0,0,0,-46.752,-0.0011082,0,-199.75,0,-74.044,141.34,102,1,2.51,0,-2.51,0
0,0.01596,0,0,0,0,0,0,0,0,-46.711,-0.001336,0,-199.36,0,-73.915,141.03,102,1,2.515,0,-2.515,0
0,0.015964,0,0,0,0,0,0,0,0,-46.668,-0.0015227,0,-198.98,0,-73.786,140.72,102,1,2.52,0,-2.52,0
0,0.015968,0,0,0,0,0,0,0,0,-46.625,-0.0016684,0,-198.59,0,-73.656,140.41,102,1,2.525,0,-2.525,0
0,0.015972,0,0,0,0,0,0,0,0,-46.581,-0.0017729,0,-198.2,0,-73.526,140.1,102,1,2.53,0,-2.53,0
0,0.015976,0,0,0,0,0,0,0,0,-46.537,-0.0018364,0,-197.81,0,-73.396,139.79,102,1,2.535,0,-2.535,0
0,0.01598,0,0,0,0,0,0,0,0,-46.492,-0.0018588,0,-197.42,0,-73.266,139.49,102,1,2.54,0,-2.54,0
0,0.015984,0,0,0,0,0,0,0,0,-46.446,-0.0018402,0,-197.04,0,-73.135,139.18,102,1,2.545,0,-2.545,0
0,0.015988,0,0,0,0,0,0,0,0,-46.399,-0.0017805,0,-196.65,0,-73.004,138.87,102,1,2.55,0,-2.55,0
0,0.015992,0,0,0,0,0,0,0,0,-46.352,-0.0016797,0,-196.26,0,-72.873,138.56,102,1,2.555,0,-2.555,0
0,0.015996,0,0,0,0,0,0,0,0,-46.304,-0.0015378,0,-195.87,0,-72.741,138.25,102,1,2.56,0,-2.56,0
0,0.016,0,0,0,0,0,0,0,0,-46.255,-0.0013549,0,-195.48,0,-72.609,137.95,102,1,2.565,0,-2.565,0
0,0.016004,0,0,0,0,0,0,0,0,-46.205,-0.0011309,0,-195.09,0,-72.477,137.64,102,1,2.57,0,-2.57,0
0,0.016008,0,0,0,0,0,0,0,0,-46.155,-0.00086583,0,-194.7,0,-72.344,137.33,102,1,2.575,0,-2.575,0
0,0.016012,0,0,0,0,0,0,0,0,-46.104,-0.00055971,0,-194.31,0,-72.211,137.03,102,1,2.58,0,-2.58,0
0,0.016016,0,0,0,0,0,0,0,0,-46.052,-0.0002125,0,-193.91,0,-72.078,136.72,102,1,2.585,0,-2.585,0
0,0.01602,0,0,0,0,0,0,0,0,-46,0.00017576,0,-193.52,0,-71.944,136.41,102,1,2.59,0,-2.59,0
0,0.016024,0,0,0,0,0,0,0,0,-45.947,0.0006051,0,-193.13,0,-71.81,136.11,102,1,2.595,0,-2.595,0
0,0.016028,0,0,0,0,0,0,0,0,-45.893,0.0010755,0,-192.74,0,-71.676,135.8,102,1,2.6,0,-2.6,0
0,0.016032,0,0,0,0,0,0,0,0,-45.838,0.001587,0,-192.35,0,-71.541,135.5,102,1,2.605,0,-2.605,0
0,0.016036,0,0,0,0,0,0,0,0,-45.783,0.0021395,0,-191.95,0,-71.406,135.19,102,1,2.61,0,-2.61,0
0,0.01604,0,0,0,0,0,0,0,0,-45.726,0.0027331,0,-191.56,0,-71.271,134.89,102,1,2.615,0,-2.615,0
0,0.016044,0,0,0,0,0,0,0,0,-45.67,0.0033678,0,-191.16,0,-71.136,134.58,102,1,2.62,0,-2.62,0
0,0.016048,0,0,0,0,0,0,0,0,-45.612,0.0040436,0,-190.77,0,-71,134.28,102,1,2.625,0,-2.625,0
0,0.016052,0,0,0,0,0,0,0,0,-45.554,0.0047604,0,-190.38,0,-70.864,133.97,102,1,2.63,0,-2.63,0
0,0.016056,0,0,0,0,0,0,0,0,-45.495,0.0055183,0,-189.98,0,-70.727,133.67,102,1,2.635,0,-2.635,0
0,0.01606,0,0,0,0,0,0,0,0,-45.435,0.0063173,0,-189.59,0,-70.59,133.36,102,1,2.64,0,-2.64,0
0,0.016063,0,0,0,0,0,0,0,0,-45.375,0.0071573,0,-189.19,0,-70.453,133.06,102,1,2.645,0,-2.645,0
0,0.016067,0,0,0,0,0,0,0,0,-45.313,0.0080384,0,-188.8,0,-70.316,132.76,102,1,2.65,0,-2.65,0
0,0.016071,0,0,0,0,0,0,0,0,-45.252,0.0089605,0,-188.4,0,-70.178,132.46,102,1,2.655,0,-2.655,0
0,0.016075,0,0,0,0,0,0,0,0,-45.189,0.0099238,0,-188,0,-70.04,132.15,102,1,2.66,0,-2.66,0
0,0.016079,0,0,0,0,0,0,0,0,-45.126,0.010928,0,-187.61,0,-69.901,131.85,102,1,2.665,0,-2.665,0
0,0.016083,0,0,0,0,0,0,0,0,-45.062,0.011973,0,-187.21,0,-69.763,131.55,102,1,2.67,0,-2.67,0
0,0.016086,0,0,0,0,0,0,0,0,-45.029,0.011406,0,-186.89,0,-69.657,131.29,102,1,2.675,0,-2.675,0
0,0.01609,0,0,0,0,0,0,0,0,-45.002,0.010585,0,-186.58,0,-69.556,131.04,102,1,2.68,0,-2.68,0
0,0.016094,0,0,0,0,0,0,0,0,-44.974,0.0097905,0,-186.27,0,-69.455,130.79,102,1,2.685,0,-2.685,0
0,0.016098,0,0,0,0,0,0,0,0,-44.946,0.009023,0,-185.96,0,-69.354,130.54,102,1,2.69,0,-2.69,0
0,0.016102,0,0,0,0,0,0,0,0,-44.917,0.0082823,0,-185.66,0,-69.252,130.29,102,1,2.695,0,-2.695,0
0,0.016106,0,0,0,0,0,0,0,0,-44.887,0.0075684,0,-185.35,0,-69.15,130.04,102,1,2.7,0,-2.7,0
0,0.016109,0,0,0,0,0,0,0,0,-44.857,0.0068814,0,-185.04,0,-69.049,129.79,102,1,2.705,0,-2.705,0
0,0.016113,0,0,0,0,0,0,0,0,-44.827,0.0062212,0,-184.73,0,-68.946,129.54,102,1,2.71,0,-2.71,0
0,0.016117,0,0,0,0,0,0,0,0,-44.796,0.0055878,0,-184.42,0,-68.844,129.29,102,1,2.715,0,-2.715,0
0,0.016121,0,0,0,0,0,0,0,0,-44.764,0.0049812,0,-184.11,0,-68.741,129.04,102,1,2.72,0,-2.72,0
0,0.016124,0,0,0,0,0,0,0,0,-44.732,0.0044015,0,-183.8,0,-68.639,128.79,102,1,2.725,0,-2.725,0
0,0.016128,0,0,0,0,0,0,0,0,-44.699,0.0038487,0,-183.49,0,-68.535,128.54,102,1,2.73,0,-2.73,0
0,0.016132,0,0,0,0,0,0,0,0,-44.666,0.0033226,0,-183.18,0,-68.432,128.29,102,1,2.735,0,-2.735,0
0,0.016136,0,0,0,0,0,0,0,0,-44.632,0.0028234,0,-182.87,0,-68.329,128.05,102,1,2.74,0,-2.74,0
0,0.016139,0,0,0,0,0,0,0,0,-44.598,0.002351,0,-182.56,0,-68.225,127.8,102,1,2.745,0,-2.745,0
0,0.016143,0,0,0,0,0,0,0,0,-44.563,0.0019055,0,-182.25,0,-68.121,127.55,102,1,2.75,0,-2.75,0
0,0.016147,0,0,0,0,0,0,0,0,-44.528,0.0014867,0,-181.94,0,-68.017,127.3,102,1,2.755,0,-2.755,0
0,0.01615,0,0,0,0,0,0,0,0,-44.492,0.0010948,0,-181.63,0,-67.912,127.05,102,1,2.76,0,-2.76,0
0,0.016154,0,0,0,0,0,0,0,0,-44.456,0.00072978,0,-181.31,0,-67.807,126.81,102,1,2.765,0,-2.765,0
0,0.016158,0,0,0,0,0,0,0,0,-44.419,0.00039157,0,-181,0,-67.702,126.56,102,1,2.77,0,-2.77,0
0,0.016162,0,0,0,0,0,0,0,0,-44.381,8.017e-05,0,-180.69,0,-67.597,126.31,102,1,2.775,0,-2.775,0
0,0.016165,0,0,0,0,0,0,0,0,-44.343,-0.00020438,0,-180.38,0,-67.492,126.06,102,1,2.78,0,-2.78,0
0,0.016169,0,0,0,0,0,0,0,0,-44.305,-0.00046212,0,-180.06,0,-67.386,125.82,102,1,2.785,0,-2.785,0
0,0.016173,0,0,0,0,0,0,0,0,-44.266,-0.00069301,0,-179.75,0,-67.28,125.57,102,1,2.79,0,-2.79,0
0,0.016176,0,0,0,0,0,0,0,0,-44.226,-0.00089707,0,-179.44,0,-67.174,125.32,102,1,2.795,0,-2.795,0
0,0.01618,0,0,0,0,0,0,0,0,-44.186,-0.0010743,0,-179.12,0,-67.068,125.08,102,1,2.8,0,-2.8,0
0,0.016184,0,0,0,0,0,0,0,0,-44.146,-0.0012247,0,-178.81,0,-66.961,124.83,102,1,2.805,0,-2.805,0
0,0.016187,0,0,0,0,0,0,0,0,-44.105,-0.0013483,0,-178.5,0,-66.854,124.58,102,1,2.81,0,-2.81,0
0,0.016191,0,0,0,0,0,0,0,0,-44.063,-0.001445,0,-178.18,0,-66.747,124.34,102,1,2.815,0,-2.815,0
0,0.016194,0,0,0,0,0,0,0,0,-44.021,-0.0015149,0,-177.87,0,-66.64,124.09,102,1,2.82,0,-2.82,0
0,0.016198,0,0,0,0,0,0,0,0,-43.978,-0.001558,0,-177.55,0,-66.533,123.85,102,1,2.825,0,-2.825,0
0,0.016202,0,0,0,0,0,0,0,0,-43.935,-0.0015742,0,-177.24,0,-66.425,123.6,102,1,2.83,0,-2.83,0
0,0.016205,0,0,0,0,0,0,0,0,-43.891,-0.0015636,0,-176.92,0,-66.317,123.36,102,1,2.835,0,-2.835,0
0,0.016209,0,0,0,0,0,0,0,0,-43.847,-0.0015262,0,-176.61,0,-66.209,123.11,102,1,2.84,0,-2.84,0
0,0.016213,0,0,0,0,0,0,0,0,-43.802,-0.001462,0,-176.29,0,-66.1,122.87,102,1,2.845,0,-2.845,0
0,0.016216,0,0,0,0,0,0,0,0,-43.756,-0.0013709,0,-175.98,0,-65.992,122.62,102,1,2.85,0,-2.85,0
0,0.01622,0,0,0,0,0,0,0,0,-43.71,-0.001253,0,-175.66,0,-65.883,122.38,102,1,2.855,0,-2.855,0
0,0.016223,0,0,0,0,0,0,0,0,-43.664,-0.0011082,0,-175.34,0,-65.773,122.13,102,1,2.86,0,-2.86,0
0,0.016227,0,0,0,0,0,0,0,0,-43.617,-0.00093665,0,-175.03,0,-65.664,121.89,102,1,2.865,0,-2.865,0
0,0.01623,0,0,0,0,0,0,0,0,-43.569,-0.00073826,0,-174.71,0,-65.555,121.65,102,1,2.87,0,-2.87,0
0,0.016234,0,0,0,0,0,0,0,0,-43.521,-0.00051302,0,-174.39,0,-65.445,121.4,102,1,2.875,0,-2.875,0
0,0.016238,0,0,0,0,0,0,0,0,-43.473,-0.00026096,0,-174.07,0,-65.335,121.16,102,1,2.88,0,-2.88,0
0,0.016241,0,0,0,0,0,0,0,0,-43.424,1.7928e-05,0,-173.76,0,-65.224,120.92,102,1,2.885,0,-2.885,0
0,0.016245,0,0,0,0,0,0,0,0,-43.374,0.00032366,0,-173.44,0,-65.114,120.67,102,1,2.89,0,-2.89,0
0,0.016248,0,0,0,0,0,0,0,0,-43.324,0.0006562,0,-173.12,0,-65.003,120.43,102,1,2.895,0,-2.895,0
0,0.016252,0,0,0,0,0,0,0,0,-43.273,0.0010156,0,-172.8,0,-64.892,120.19,102,1,2.9,0,-2.9,0
0,0.016255,0,0,0,0,0,0,0,0,-43.222,0.0014018,0,-172.48,0,-64.781,119.94,102,1,2.905,0,-2.905,0
0,0.016259,0,0,0,0,0,0,0,0,-43.17,0.0018148,0,-172.17,0,-64.669,119.7,102,1,2.91,0,-2.91,0
0,0.016262,0,0,0,0,0,0,0,0,-43.118,0.0022547,0,-171.85,0,-64.558,119.46,102,1,2.915,0,-2.915,0
0,0.016266,0,0,0,0,0,0,0,0,-43.065,0.0027214,0,-171.53,0,-64.446,119.22,102,1,2.92,0,-2.92,0
0,0.016269,0,0,0,0,0,0,0,0,-43.012,0.0032149,0,-171.21,0,-64.334,118.98,102,1,2.925,0,-2.925,0
0,0.016273,0,0,0,0,0,0,0,0,-42.958,0.0037353,0,-170.89,0,-64.221,118.73,102,1,2.93,0,-2.93,0
0,0.016276,0,0,0,0,0,0,0,0,-42.903,0.0042825,0,-170.57,0,-64.109,118.49,102,1,2.935,0,-2.935,0
0,0.01628,0,0,0,0,0,0,0,0,-42.848,0.0048565,0,-170.25,0,-63.996,118.25,102,1,2.94,0,-2.94,0
0,0.016283,0,0,0,0,0,0,0,0,-42.793,0.0054573,0,-169.93,0,-63.883,118.01,102,1,2.945,0,-2.945,0
0,0.016286,0,0,0,0,0,0,0,0,-42.737,0.006085,0,-169.6,0,-63.769,117.77,102,1,2.95,0,-2.95,0
0,0.01629,0,0,0,0,0,0,0,0,-42.68,0.0067395,0,-169.28,0,-63.656,117.53,102,1,2.955,0,-2.955,0
0,0.016293,0,0,0,0,0,0,0,0,-42.623,0.0074209,0,-168.96,0,-63.542,117.29,102,1,2.96,0,-2.96,0
0,0.016297,0,0,0,0,0,0,0,0,-42.566,0.008129,0,-168.64,0,-63.428,117.05,102,1,2.965,0,-2.965,0
0,0.0163,0,0,0,0,0,0,0,0,-42.516,0.0084599,0,-168.34,0,-63.323,116.82,102,1,2.97,0,-2.97,0
0,0.016304,0,0,0,0,0,0,0,0,-42.487,0.0078772,0,-168.09,0,-63.238,116.62,102,1,2.975,0,-2.975,0
0,0.016307,0,0,0,0,0,0,0,0,-42.457,0.0073123,0,-167.83,0,-63.153,116.42,102,1,2.98,0,-2.98,0
0,0.01631,0,0,0,0,0,0,0,0,-42.427,0.0067654,0,-167.58,0,-63.068,116.22,102,1,2.985,0,-2.985,0
0,0.016314,0,0,0,0,0,0,0,0,-42.397,0.0062364,0,-167.33,0,-62.982,116.02,102,1,2.99,0,-2.99,0
0,0.016317,0,0,0,0,0,0,0,0,-42.366,0.0057254,0,-167.07,0,-62.897,115.82,102,1,2.995,0,-2.995,0
0,0.016321,0,0,0,0,0,0,0,0,-42.335,0.0052323,0,-166.82,0,-62.811,115.62,102,1,3,0,-3,0
0,0.016324,0,0,0,0,0,0,0,0,-42.303,0.0047571,0,-166.57,0,-62.725,115.42,102,1,3.005,0,-3.005,0
0,0.016327,0,0,0,0,0,0,0,0,-42.271,0.0042998,0,-166.31,0,-62.639,115.22,102,1,3.01,0,-3.01,0
0,0.016331,0,0,0,0,0,0,0,0,-42.238,0.0038604,0,-166.06,0,-62.553,115.02,102,1,3.015,0,-3.015,0
0,0.016334,0,0,0,0,0,0,0,0,-42.205,0.003439,0,-165.8,0,-62.467,114.82,102,1,3.02,0,-3.02,0
0,0.016338,0,0,0,0,0,0,0,0,-42.172,0.0030355,0,-165.55,0,-62.38,114.62,102,1,3.025,0,-3.025,0
0,0.016341,0,0,0,0,0,0,0,0,-42.138,0.00265,0,-165.29,0,-62.293,114.42,102,1,3.03,0,-3.03,0
0,0.016344,0,0,0,0,0,0,0,0,-42.104,0.0022824,0,-165.04,0,-62.206,114.22,102,1,3.035,0,-3.035,0
0,0.016348,0,0,0,0,0,0,0,0,-42.07,0.0019327,0,-164.78,0,-62.119,114.02,102,1,3.04,0,-3.04,0
0,0.016351,0,0,0,0,0,0,0,0,-42.035,0.0016009,0,-164.53,0,-62.032,113.82,102,1,3.045,0,-3.045,0
0,0.016354,0,0,0,0,0,0,0,0,-42,0.001287,0,-164.27,0,-61.945,113.62,102,1,3.05,0,-3.05,0
0,0.016358,0,0,0,0,0,0,0,0,-41.964,0.0009911,0,-164.02,0,-61.857,113.42,102,1,3.055,0,-3.055,0
0,0.016361,0,0,0,0,0,0,0,0,-41.928,0.00071311,0,-163.76,0,-61.769,113.23,102,1,3.06,0,-3.06,0
0,0.016364,0,0,0,0,0,0,0,0,-41.892,0.00045304,0,-163.51,0,-61.681,113.03,102,1,3.065,0,-3.065,0
0,0.016368,0,0,0,0,0,0,0,0,-41.855,0.0002109,0,-163.25,0,-61.593,112.83,102,1,3.07,0,-3.07,0
0,0.016371,0,0,0,0,0,0,0,0,-41.818,-1.3314e-05,0,-162.99,0,-61.505,112.63,102,1,3.075,0,-3.075,0
0,0.016374,0,0,0,0,0,0,0,0,-41.78,-0.00021959,0,-162.74,0,-61.417,112.43,102,1,3.08,0,-3.08,0
0,0.016377,0,0,0,0,0,0,0,0,-41.742,-0.00040796,0,-162.48,0,-61.328,112.23,102,1,3.085,0,-3.085,0
0,0.016381,0,0,0,0,0,0,0,0,-41.704,-0.00057838,0,-162.22,0,-61.239,112.04,102,1,3.09,0,-3.09,0
0,0.016384,0,0,0,0,0,0,0,0,-41.665,-0.00073089,0,-161.97,0,-61.15,111.84,102,1,3.095,0,-3.095,0
0,0.016387,0,0,0,0,0,0,0,0,-41.626,-0.00086546,0,-161.71,0,-61.061,111.64,102,1,3.1,0,-3.1,0
0,0.016391,0,0,0,0,0,0,0,0,-41.586,-0.00098211,0,-161.45,0,-60.972,111.44,102,1,3.105,0,-3.105,0
0,0.016394,0,0,0,0,0,0,0,0,-41.546,-0.0010808,0,-161.19,0,-60.882,111.25,102,1,3.11,0,-3.11,0
0,0.016397,0,0,0,0,0,0,0,0,-41.506,-0.0011616,0,-160.94,0,-60.793,111.05,102,1,3.115,0,-3.115,0
0,0.0164,0,0,0,0,0,0,0,0,-41.465,-0.0012245,0,-160.68,0,-60.703,110.85,102,1,3.12,0,-3.12,0
0,0.016404,0,0,0,0,0,0,0,0,-41.424,-0.0012694,0,-160.42,0,-60.613,110.66,102,1,3.125,0,-3.125,0
0,0.016407,0,0,0,0,0,0,0,0,-41.383,-0.0012964,0,-160.16,0,-60.523,110.46,102,1,3.13,0,-3.13,0
0,0.01641,0,0,0,0,0,0,0,0,-41.341,-0.0013055,0,-159.9,0,-60.432,110.26,102,1,3.135,0,-3.135,0
0,0.016413,0,0,0,0,0,0,0,0,-41.298,-0.0012967,0,-159.64,0,-60.342,110.07,102,1,3.14,0,-3.14,0
0,0.016417,0,0,0,0,0,0,0,0,-41.256,-0.0012699,0,-159.39,0,-60.251,109.87,102,1,3.145,0,-3.145,0
0,0.01642,0,0,0,0,0,0,0,0,-41.212,-0.0012252,0,-159.13,0,-60.16,109.67,102,1,3.15,0,-3.15,0
0,0.016423,0,0,0,0,0,0,0,0,-41.169,-0.0011626,0,-158.87,0,-60.069,109.48,102,1,3.155,0,-3.155,0
0,0.016426,0,0,0,0,0,0,0,0,-41.125,-0.001082,0,-158.61,0,-59.978,109.28,102,1,3.16,0,-3.16,0
0,0.016429,0,0,0,0,0,0,0,0,-41.081,-0.00098356,0,-158.35,0,-59.887,109.09,102,1,3.165,0,-3.165,0
0,0.016433,0,0,0,0,0,0,0,0,-41.036,-0.00086716,0,-158.09,0,-59.795,108.89,102,1,3.17,0,-3.17,0
0,0.016436,0,0,0,0,0,0,0,0,-40.991,-0.00073284,0,-157.83,0,-59.703,108.7,102,1,3.175,0,-3.175,0
0,0.016439,0,0,0,0,0,0,0,0,-40.946,-0.00058058,0,-157.57,0,-59.612,108.5,102,1,3.18,0,-3.18,0
0,0.016442,0,0,0,0,0,0,0,0,-40.9,-0.0004104,0,-157.31,0,-59.52,108.31,102,1,3.185,0,-3.185,0
0,0.016445,0,0,0,0,0,0,0,0,-40.853,-0.00022229,0,-157.05,0,-59.427,108.11,102,1,3.19,0,-3.19,0
0,0.016449,0,0,0,0,0,0,0,0,-40.807,-1.6267e-05,0,-156.79,0,-59.335,107.92,102,1,3.195,0,-3.195,0
0,0.016452,0,0,0,0,0,0,0,0,-40.76,0.0002077,0,-156.53,0,-59.242,107.72,102,1,3.2,0,-3.2,0
0,0.016455,0,0,0,0,0,0,0,0,-40.712,0.00044957,0,-156.26,0,-59.15,107.53,102,1,3.205,0,-3.205,0
0,0.016458,0,0,0,0,0,0,0,0,-40.665,0.00070939,0,-156,0,-59.057,107.33,102,1,3.21,0,-3.21,0
0,0.016461,0,0,0,0,0,0,0,0,-40.616,0.00098712,0,-155.74,0,-58.964,107.14,102,1,3.215,0,-3.215,0
0,0.016464,0,0,0,0,0,0,0,0,-40.568,0.0012828,0,-155.48,0,-58.87,106.94,102,1,3.22,0,-3.22,0
0,0.016468,0,0,0,0,0,0,0,0,-40.519,0.0015964,0,-155.22,0,-58.777,106.75,102,1,3.225,0,-3.225,0
0,0.016471,0,0,0,0,0,0,0,0,-40.469,0.0019279,0,-154.96,0,-58.683,106.55,102,1,3.23,0,-3.23,0
0,0.016474,0,0,0,0,0,0,0,0,-40.419,0.0022773,0,-154.69,0,-58.589,106.36,102,1,3.235,0,-3.235,0
0,0.016477,0,0,0,0,0,0,0,0,-40.369,0.0026447,0,-154.43,0,-58.496,106.17,102,1,3.24,0,-3.24,0
0,0.01648,0,0,0,0,0,0,0,0,-40.319,0.00303,0,-154.17,0,-58.401,105.97,102,1,3.245,0,-3.245,0
0,0.016483,0,0,0,0,0,0,0,0,-40.268,0.0034332,0,-153.91,0,-58.307,105.78,102,1,3.25,0,-3.25,0
0,0.016486,0,0,0,0,0,0,0,0,-40.216,0.0038544,0,-153.64,0,-58.213,105.59,102,1,3.255,0,-3.255,0
0,0.016489,0,0,0,0,0,0,0,0,-40.165,0.0042934,0,-153.38,0,-58.118,105.39,102,1,3.26,0,-3.26,0
0,0.016493,0,0,0,0,0,0,0,0,-40.112,0.0047505,0,-153.12,0,-58.023,105.2,102,1,3.265,0,-3.265,0
0,0.016496,0,0,0,0,0,0,0,0,-40.06,0.0052254,0,-152.85,0,-57.928,105.01,102,1,3.27,0,-3.27,0
0,0.016499,0,0,0,0,0,0,0,0,-40.007,0.0057182,0,-152.59,0,-57.833,104.81,102,1,3.275,0,-3.275,0
0,0.016502,0,0,0,0,0,0,0,0,-39.954,0.006229,0,-152.33,0,-57.738,104.62,102,1,3.28,0,-3.28,0
0,0.016505,0,0,0,0,0,0,0,0,-39.921,0.0058894,0,-152.11,0,-57.663,104.46,102,1,3.285,0,-3.285,0
0,0.016508,0,0,0,0,0,0,0,0,-39.89,0.005483,0,-151.9,0,-57.591,104.29,102,1,3.29,0,-3.29,0
0,0.016511,0,0,0,0,0,0,0,0,-39.858,0.0050888,0,-151.69,0,-57.518,104.13,102,1,3.295,0,-3.295,0
0,0.016514,0,0,0,0,0,0,0,0,-39.826,0.0047068,0,-151.48,0,-57.445,103.97,102,1,3.3,0,-3.3,0
0,0.016517,0,0,0,0,0,0,0,0,-39.794,0.0043371,0,-151.27,0,-57.372,103.81,102,1,3.305,0,-3.305,0
0,0.01652,0,0,0,0,0,0,0,0,-39.762,0.0039796,0,-151.06,0,-57.299,103.65,102,1,3.31,0,-3.31,0
0,0.016523,0,0,0,0,0,0,0,0,-39.729,0.0036343,0,-150.85,0,-57.226,103.49,102,1,3.315,0,-3.315,0
0,0.016526,0,0,0,0,0,0,0,0,-39.696,0.0033012,0,-150.64,0,-57.153,103.33,102,1,3.32,0,-3.32,0
0,0.016529,0,0,0,0,0,0,0,0,-39.663,0.0029804,0,-150.43,0,-57.079,103.17,102,1,3.325,0,-3.325,0
0,0.016532,0,0,0,0,0,0,0,0,-39.629,0.0026717,0,-150.22,0,-57.006,103,102,1,3.33,0,-3.33,0
0,0.016535,0,0,0,0,0,0,0,0,-39.596,0.0023753,0,-150.01,0,-56.932,102.84,102,1,3.335,0,-3.335,0
0,0.016538,0,0,0,0,0,0,0,0,-39.562,0.0020912,0,-149.79,0,-56.858,102.68,102,1,3.34,0,-3.34,0
0,0.016541,0,0,0,0,0,0,0,0,-39.527,0.0018192,0,-149.58,0,-56.784,102.52,102,1,3.345,0,-3.345,0
0,0.016545,0,0,0,0,0,0,0,0,-39.492,0.0015595,0,-149.37,0,-56.71,102.36,102,1,3.35,0,-3.35,0
0,0.016548,0,0,0,0,0,0,0,0,-39.457,0.001312,0,-149.16,0,-56.636,102.2,102,1,3.355,0,-3.355,0
0,0.016551,0,0,0,0,0,0,0,0,-39.422,0.0010767,0,-148.95,0,-56.562,102.04,102,1,3.36,0,-3.36,0
0,0.016554,0,0,0,0,0,0,0,0,-39.386,0.00085362,0,-148.73,0,-56.487,101.88,102,1,3.365,0,-3.365,0
0,0.016557,0,0,0,0,0,0,0,0,-39.35,0.00064279,0,-148.52,0,-56.413,101.72,102,1,3.37,0,-3.37,0
0,0.01656,0,0,0,0,0,0,0,0,-39.314,0.00044417,0,-148.31,0,-56.338,101.56,102,1,3.375,0,-3.375,0
0,0.016563,0,0,0,0,0,0,0,0,-39.278,0.00025778,0,-148.1,0,-56.263,101.4,102,1,3.38,0,-3.38,0
0,0.016566,0,0,0,0,0,0,0,0,-39.241,8.3615e-05,0,-147.88,0,-56.188,101.24,102,1,3.385,0,-3.385,0
0,0.016569,0,0,0,0,0,0,0,0,-39.204,-7.8334e-05,0,-147.67,0,-56.113,101.08,102,1,3.39,0,-3.39,0
0,0.016571,0,0,0,0,0,0,0,0,-39.166,-0.00022805,0,-147.46,0,-56.038,100.92,102,1,3.395,0,-3.395,0
0,0.016574,0,0,0,0,0,0,0,0,-39.129,-0.00036555,0,-147.25,0,-55.962,100.76,102,1,3.4,0,-3.4,0
0,0.016577,0,0,0,0,0,0,0,0,-39.091,-0.00049083,0,-147.03,0,-55.887,100.6,102,1,3.405,0,-3.405,0
0,0.01658,0,0,0,0,0,0,0,0,-39.053,-0.00060388,0,-146.82,0,-55.811,100.44,102,1,3.41,0,-3.41,0
0,0.016583,0,0,0,0,0,0,0,0,-39.014,-0.00070471,0,-146.61,0,-55.736,100.28,102,1,3.415,0,-3.415,0
0,0.016586,0,0,0,0,0,0,0,0,-38.975,-0.00079332,0,-146.39,0,-55.66,100.12,102,1,3.42,0,-3.42,0
0,0.016589,0,0,0,0,0,0,0,0,-38.936,-0.0008697,0,-146.18,0,-55.584,99.964,102,1,3.425,0,-3.425,0
0,0.016592,0,0,0,0,0,0,0,0,-38.896,-0.00093386,0,-145.96,0,-55.507,99.805,102,1,3.43,0,-3.43,0
0,0.016595,0,0,0,0,0,0,0,0,-38.857,-0.00098579,0,-145.75,0,-55.431,99.646,102,1,3.435,0,-3.435,0
0,0.016598,0,0,0,0,0,0,0,0,-38.817,-0.0010255,0,-145.54,0,-55.355,99.487,102,1,3.44,0,-3.44,0
0,0.016601,0,0,0,0,0,0,0,0,-38.776,-0.001053,0,-145.32,0,-55.278,99.328,102,1,3.445,0,-3.445,0
0,0.016604,0,0,0,0,0,0,0,0,-38.736,-0.0010683,0,-145.11,0,-55.202,99.17,102,1,3.45,0,-3.45,0
0,0.016607,0,0,0,0,0,0,0,0,-38.695,-0.0010713,0,-144.89,0,-55.125,99.011,102,1,3.455,0,-3.455,0
0,0.01661,0,0,0,0,0,0,0,0,-38.654,-0.0010621,0,-144.68,0,-55.048,98.853,102,1,3.46,0,-3.46,0
0,0.016613,0,0,0,0,0,0,0,0,-38.612,-0.0010407,0,-144.46,0,-54.971,98.694,102,1,3.465,0,-3.465,0
0,0.016616,0,0,0,0,0,0,0,0,-38.57,-0.0010071,0,-144.25,0,-54.894,98.536,102,1,3.47,0,-3.47,0
0,0.016619,0,0,0,0,0,0,0,0,-38.528,-0.00096127,0,-144.03,0,-54.816,98.378,102,1,3.475,0,-3.475,0
0,0.016621,0,0,0,0,0,0,0,0,-38.486,-0.0009032,0,-143.82,0,-54.739,98.22,102,1,3.48,0,-3.48,0
0,0.016624,0,0,0,0,0,0,0,0,-38.443,-0.00083291,0,-143.6,0,-54.661,98.062,102,1,3.485,0,-3.485,0
0,0.016627,0,0,0,0,0,0,0,0,-38.4,-0.0007504,0,-143.39,0,-54.584,97.904,102,1,3.49,0,-3.49,0
0,0.01663,0,0,0,0,0,0,0,0,-38.357,-0.00065566,0,-143.17,0,-54.506,97.746,102,1,3.495,0,-3.495,0
0,0.016633,0,0,0,0,0,0,0,0,-38.313,-0.00054871,0,-142.96,0,-54.428,97.589,102,1,3.5,0,-3.5,0
0,0.016636,0,0,0,0,0,0,0,0,-38.269,-0.00042952,0,-142.74,0,-54.35,97.431,102,1,3.505,0,-3.505,0
0,0.016639,0,0,0,0,0,0,0,0,-38.225,-0.00029812,0,-142.52,0,-54.272,97.274,102,1,3.51,0,-3.51,0
0,0.016642,0,0,0,0,0,0,0,0,-38.181,-0.0001545,0,-142.31,0,-54.193,97.116,102,1,3.515,0,-3.515,0
0,0.016645,0,0,0,0,0,0,0,0,-38.136,1.3451e-06,0,-142.09,0,-54.115,96.959,102,1,3.52,0,-3.52,0
0,0.016647,0,0,0,0,0,0,0,0,-38.091,0.00016942,0,-141.88,0,-54.036,96.802,102,1,3.525,0,-3.525,0
0,0.01665,0,0,0,0,0,0,0,0,-38.045,0.0003497,0,-141.66,0,-53.957,96.645,102,1,3.53,0,-3.53,0
0,0.016653,0,0,0,0,0,0,0,0,-38,0.00054222,0,-141.44,0,-53.879,96.488,102,1,3.535,0,-3.535,0
0,0.016656,0,0,0,0,0,0,0,0,-37.954,0.00074695,0,-141.23,0,-53.8,96.331,102,1,3.54,0,-3.54,0
0,0.016659,0,0,0,0,0,0,0,0,-37.908,0.00096392,0,-141.01,0,-53.721,96.174,102,1,3.545,0,-3.545,0
0,0.016662,0,0,0,0,0,0,0,0,-37.861,0.0011931,0,-140.79,0,-53.641,96.017,102,1,3.55,0,-3.55,0
0,0.016664,0,0,0,0,0,0,0,0,-37.814,0.0014345,0,-140.57,0,-53.562,95.861,102,1,3.555,0,-3.555,0
0,0.016667,0,0,0,0,0,0,0,0,-37.767,0.0016881,0,-140.36,0,-53.482,95.704,102,1,3.56,0,-3.56,0
0,0.01667,0,0,0,0,0,0,0,0,-37.72,0.001954,0,-140.14,0,-53.403,95.548,102,1,3.565,0,-3.565,0
0,0.016673,0,0,0,0,0,0,0,0,-37.672,0.002232,0,-139.92,0,-53.323,95.392,102,1,3.57,0,-3.57,0
0,0.016676,0,0,0,0,0,0,0,0,-37.624,0.0025223,0,-139.7,0,-53.243,95.235,102,1,3.575,0,-3.575,0
0,0.016679,0,0,0,0,0,0,0,0,-37.576,0.0028248,0,-139.49,0,-53.163,95.079,102,1,3.58,0,-3.58,0
0,0.016681,0,0,0,0,0,0,0,0,-37.527,0.0031396,0,-139.27,0,-53.083,94.923,102,1,3.585,0,-3.585,0
0,0.016684,0,0,0,0,0,0,0,0,-37.478,0.0034665,0,-139.05,0,-53.003,94.768,102,1,3.59,0,-3.59,0
0,0.016687,0,0,0,0,0,0,0,0,-37.429,0.0038057,0,-138.83,0,-52.922,94.612,102,1,3.595,0,-3.595,0
0,0.01669,0,0,0,0,0,0,0,0,-37.379,0.0041571,0,-138.61,0,-52.842,94.456,102,1,3.6,0,-3.6,0
0,0.016693,0,0,0,0,0,0,0,0,-37.33,0.0045208,0,-138.39,0,-52.761,94.3,102,1,3.605,0,-3.605,0
0,0.016695,0,0,0,0,0,0,0,0,-37.292,0.0044216,0,-138.2,0,-52.693,94.162,102,1,3.61,0,-3.61,0
0,0.016698,0,0,0,0,0,0,0,0,-37.26,0.0041259,0,-138.03,0,-52.63,94.031,102,1,3.615,0,-3.615,0
0,0.016701,0,0,0,0,0,0,0,0,-37.227,0.0038388,0,-137.85,0,-52.568,93.899,102,1,3.62,0,-3.62,0
0,0.016704,0,0,0,0,0,0,0,0,-37.194,0.0035601,0,-137.68,0,-52.505,93.768,102,1,3.625,0,-3.625,0
0,0.016707,0,0,0,0,0,0,0,0,-37.162,0.0032899,0,-137.5,0,-52.442,93.637,102,1,3.63,0,-3.63,0
0,0.016709,0,0,0,0,0,0,0,0,-37.128,0.0030282,0,-137.32,0,-52.379,93.506,102,1,3.635,0,-3.635,0
0,0.016712,0,0,0,0,0,0,0,0,-37.095,0.002775,0,-137.15,0,-52.315,93.376,102,1,3.64,0,-3.64,0
0,0.016715,0,0,0,0,0,0,0,0,-37.061,0.0025303,0,-136.97,0,-52.252,93.245,102,1,3.645,0,-3.645,0
0,0.016718,0,0,0,0,0,0,0,0,-37.027,0.0022941,0,-136.79,0,-52.189,93.114,102,1,3.65,0,-3.65,0
0,0.01672,0,0,0,0,0,0,0,0,-36.993,0.0020663,0,-136.61,0,-52.125,92.984,102,1,3.655,0,-3.655,0
0,0.016723,0,0,0,0,0,0,0,0,-36.959,0.0018471,0,-136.44,0,-52.062,92.853,102,1,3.66,0,-3.66,0
0,0.016726,0,0,0,0,0,0,0,0,-36.924,0.0016363,0,-136.26,0,-51.998,92.723,102,1,3.665,0,-3.665,0
0,0.016729,0,0,0,0,0,0,0,0,-36.89,0.001434,0,-136.08,0,-51.934,92.592,102,1,3.67,0,-3.67,0
0,0.016731,0,0,0,0,0,0,0,0,-36.855,0.0012402,0,-135.91,0,-51.87,92.462,102,1,3.675,0,-3.675,0
0,0.016734,0,0,0,0,0,0,0,0,-36.819,0.0010549,0,-135.73,0,-51.807,92.332,102,1,3.68,0,-3.68,0
0,0.016737,0,0,0,0,0,0,0,0,-36.784,0.00087811,0,-135.55,0,-51.742,92.201,102,1,3.685,0,-3.685,0
0,0.016739,0,0,0,0,0,0,0,0,-36.748,0.00070978,0,-135.37,0,-51.678,92.071,102,1,3.69,0,-3.69,0
0,0.016742,0,0,0,0,0,0,0,0,-36.712,0.00054994,0,-135.19,0,-51.614,91.941,102,1,3.695,0,-3.695,0
0,0.016745,0,0,0,0,0,0,0,0,-36.676,0.00039858,0,-135.02,0,-51.55,91.811,102,1,3.7,0,-3.7,0
0,0.016748,0,0,0,0,0,0,0,0,-36.64,0.00025572,0,-134.84,0,-51.485,91.681,102,1,3.705,0,-3.705,0
0,0.01675,0,0,0,0,0,0,0,0,-36.603,0.00012134,0,-134.66,0,-51.421,91.552,102,1,3.71,0,-3.71,0
0,0.016753,0,0,0,0,0,0,0,0,-36.567,-4.5416e-06,0,-134.48,0,-51.356,91.422,102,1,3.715,0,-3.715,0
0,0.016756,0,0,0,0,0,0,0,0,-36.53,-0.00012194,0,-134.3,0,-51.291,91.292,102,1,3.72,0,-3.72,0
0,0.016758,0,0,0,0,0,0,0,0,-36.492,-0.00023085,0,-134.12,0,-51.226,91.163,102,1,3.725,0,-3.725,0
0,0.016761,0,0,0,0,0,0,0,0,-36.455,-0.00033128,0,-133.95,0,-51.162,91.033,102,1,3.73,0,-3.73,0
0,0.016764,0,0,0,0,0,0,0,0,-36.417,-0.00042322,0,-133.77,0,-51.097,90.904,102,1,3.735,0,-3.735,0
0,0.016767,0,0,0,0,0,0,0,0,-36.379,-0.00050667,0,-133.59,0,-51.031,90.774,102,1,3.74,0,-3.74,0
0,0.016769,0,0,0,0,0,0,0,0,-36.341,-0.00058163,0,-133.41,0,-50.966,90.645,102,1,3.745,0,-3.745,0
0,0.016772,0,0,0,0,0,0,0,0,-36.303,-0.0006481,0,-133.23,0,-50.901,90.516,102,1,3.75,0,-3.75,0
0,0.016775,0,0,0,0,0,0,0,0,-36.264,-0.00070609,0,-133.05,0,-50.835,90.387,102,1,3.755,0,-3.755,0
0,0.016777,0,0,0,0,0,0,0,0,-36.226,-0.00075558,0,-132.87,0,-50.77,90.258,102,1,3.76,0,-3.76,0
0,0.01678,0,0,0,0,0,0,0,0,-36.187,-0.00079659,0,-132.69,0,-50.704,90.129,102,1,3.765,0,-3.765,0
0,0.016783,0,0,0,0,0,0,0,0,-36.147,-0.00082911,0,-132.51,0,-50.639,90,102,1,3.77,0,-3.77,0
0,0.016785,0,0,0,0,0,0,0,0,-36.108,-0.00085314,0,-132.33,0,-50.573,89.871,102,1,3.775,0,-3.775,0
0,0.016788,0,0,0,0,0,0,0,0,-36.068,-0.00086869,0,-132.15,0,-50.507,89.742,102,1,3.78,0,-3.78,0
0,0.016791,0,0,0,0,0,0,0,0,-36.028,-0.00087574,0,-131.97,0,-50.441,89.613,102,1,3.785,0,-3.785,0
0,0.016793,0,0,0,0,0,0,0,0,-35.988,-0.00087431,0,-131.79,0,-50.375,89.485,102,1,3.79,0,-3.79,0
0,0.016796,0,0,0,0,0,0,0,0,-35.948,-0.0008644,0,-131.61,0,-50.309,89.356,102,1,3.795,0,-3.795,0
0,0.016799,0,0,0,0,0,0,0,0,-35.907,-0.00084599,0,-131.43,0,-50.242,89.228,102,1,3.8,0,-3.8,0
0,0.016801,0,0,0,0,0,0,0,0,-35.866,-0.0008191,0,-131.25,0,-50.176,89.099,102,1,3.805,0,-3.805,0
0,0.016804,0,0,0,0,0,0,0,0,-35.825,-0.00078372,0,-131.07,0,-50.109,88.971,102,1,3.81,0,-3.81,0
0,0.016806,0,0,0,0,0,0,0,0,-35.784,-0.00073985,0,-130.89,0,-50.043,88.843,102,1,3.815,0,-3.815,0
0,0.016809,0,0,0,0,0,0,0,0,-35.742,-0.00068749,0,-130.71,0,-49.976,88.715,102,1,3.82,0,-3.82,0
0,0.016812,0,0,0,0,0,0,0,0,-35.701,-0.00062665,0,-130.53,0,-49.909,88.586,102,1,3.825,0,-3.825,0
0,0.016814,0,0,0,0,0,0,0,0,-35.659,-0.00055732,0,-130.35,0,-49.842,88.458,102,1,3.83,0,-3.83,0
0,0.016817,0,0,0,0,0,0,0,0,-35.617,-0.0004795,0,-130.17,0,-49.775,88.331,102,1,3.835,0,-3.835,0
0,0.01682,0,0,0,0,0,0,0,0,-35.574,-0.00039319,0,-129.99,0,-49.708,88.203,102,1,3.84,0,-3.84,0
0,0.016822,0,0,0,0,0,0,0,0,-35.532,-0.00029839,0,-129.81,0,-49.641,88.075,102,1,3.845,0,-3.845,0
0,0.016825,0,0,0,0,0,0,0,0,-35.489,-0.00019512,0,-129.63,0,-49.574,87.947,102,1,3.85,0,-3.85,0
0,0.016827,0,0,0,0,0,0,0,0,-35.446,-8.3344e-05,0,-129.45,0,-49.506,87.819,102,1,3.855,0,-3.855,0
0,0.01683,0,0,0,0,0,0,0,0,-35.403,3.691e-05,0,-129.27,0,-49.439,87.692,102,1,3.86,0,-3.86,0
0,0.016833,0,0,0,0,0,0,0,0,-35.359,0.00016566,0,-129.08,0,-49.371,87.564,102,1,3.865,0,-3.865,0
0,0.016835,0,0,0,0,0,0,0,0,-35.315,0.00030289,0,-128.9,0,-49.304,87.437,102,1,3.87,0,-3.87,0
0,0.016838,0,0,0,0,0,0,0,0,-35.271,0.00044861,0,-128.72,0,-49.236,87.31,102,1,3.875,0,-3.875,0
0,0.01684,0,0,0,0,0,0,0,0,-35.227,0.00060282,0,-128.54,0,-49.168,87.182,102,1,3.88,0,-3.88,0
0,0.016843,0,0,0,0,0,0,0,0,-35.183,0.00076551,0,-128.36,0,-49.1,87.055,102,1,3.885,0,-3.885,0
0,0.016846,0,0,0,0,0,0,0,0,-35.138,0.0009367,0,-128.18,0,-49.032,86.928,102,1,3.89,0,-3.89,0
0,0.016848,0,0,0,0,0,0,0,0,-35.093,0.0011164,0,-127.99,0,-48.964,86.801,102,1,3.895,0,-3.895,0
0,0.016851,0,0,0,0,0,0,0,0,-35.048,0.0013045,0,-127.81,0,-48.896,86.674,102,1,3.9,0,-3.9,0
0,0.016853,0,0,0,0,0,0,0,0,-35.003,0.0015012,0,-127.63,0,-48.827,86.547,102,1,3.905,0,-3.905,0
0,0.016856,0,0,0,0,0,0,0,0,-34.957,0.0017063,0,-127.45,0,-48.759,86.42,102,1,3.91,0,-3.91,0
0,0.016858,0,0,0,0,0,0,0,0,-34.912,0.0019199,0,-127.27,0,-48.69,86.293,102,1,3.915,0,-3.915,0
0,0.016861,0,0,0,0,0,0,0,0,-34.866,0.002142,0,-127.08,0,-48.622,86.167,102,1,3.92,0,-3.92,0
0,0.016863,0,0,0,0,0,0,0,0,-34.819,0.0023726,0,-126.9,0,-48.553,86.04,102,1,3.925,0,-3.925,0
0,0.016866,0,0,0,0,0,0,0,0,-34.773,0.0026117,0,-126.72,0,-48.484,85.913,102,1,3.93,0,-3.93,0
0,0.016869,0,0,0,0,0,0,0,0,-34.726,0.0028593,0,-126.53,0,-48.415,85.787,102,1,3.935,0,-3.935,0
0,0.016871,0,0,0,0,0,0,0,0,-34.68,0.0031153,0,-126.35,0,-48.346,85.661,102,1,3.94,0,-3.94,0
0,0.016874,0,0,0,0,0,0,0,0,-34.632,0.0033799,0,-126.17,0,-48.277,85.534,102,1,3.945,0,-3.945,0
0,0.016876,0,0,0,0,0,0,0,0,-34.594,0.0033317,0,-126.01,0,-48.217,85.42,102,1,3.95,0,-3.95,0
0,0.016879,0,0,0,0,0,0,0,0,-34.561,0.0031145,0,-125.86,0,-48.162,85.314,102,1,3.955,0,-3.955,0
0,0.016881,0,0,0,0,0,0,0,0,-34.528,0.0029032,0,-125.71,0,-48.107,85.207,102,1,3.96,0,-3.96,0
0,0.016884,0,0,0,0,0,0,0,0,-34.495,0.0026979,0,-125.56,0,-48.052,85.1,102,1,3.965,0,-3.965,0
0,0.016886,0,0,0,0,0,0,0,0,-34.461,0.0024986,0,-125.41,0,-47.997,84.993,102,1,3.97,0,-3.97,0
0,0.016889,0,0,0,0,0,0,0,0,-34.427,0.0023053,0,-125.26,0,-47.942,84.887,102,1,3.975,0,-3.975,0
0,0.016891,0,0,0,0,0,0,0,0,-34.393,0.002118,0,-125.11,0,-47.887,84.78,102,1,3.98,0,-3.98,0
0,0.016894,0,0,0,0,0,0,0,0,-34.359,0.0019367,0,-124.96,0,-47.832,84.673,102,1,3.985,0,-3.985,0
0,0.016896,0,0,0,0,0,0,0,0,-34.325,0.0017614,0,-124.81,0,-47.777,84.567,102,1,3.99,0,-3.99,0
0,0.016899,0,0,0,0,0,0,0,0,-34.29,0.0015921,0,-124.66,0,-47.721,84.46,102,1,3.995,0,-3.995,0
0,0.016901,0,0,0,0,0,0,0,0,-34.255,0.0014287,0,-124.51,0,-47.666,84.354,102,1,4,0,-4,0
0,0.016904,0,0,0,0,0,0,0,0,-34.221,0.0012714,0,-124.36,0,-47.61,84.248,102,1,4.005,0,-4.005,0
0,0.016906,0,0,0,0,0,0,0,0,-34.186,0.00112,0,-124.21,0,-47.554,84.141,102,1,4.01,0,-4.01,0
0,0.016909,0,0,0,0,0,0,0,0,-34.15,0.00097469,0,-124.06,0,-47.499,84.035,102,1,4.015,0,-4.015,0
0,0.016911,0,0,0,0,0,0,0,0,-34.115,0.00083533,0,-123.91,0,-47.443,83.929,102,1,4.02,0,-4.02,0
0,0.016914,0,0,0,0,0,0,0,0,-34.079,0.00070196,0,-123.76,0,-47.387,83.823,102,1,4.025,0,-4.025,0
0,0.016916,0,0,0,0,0,0,0,0,-34.044,0.00057459,0,-123.61,0,-47.331,83.717,102,1,4.03,0,-4.03,0
0,0.016919,0,0,0,0,0,0,0,0,-34.008,0.00045322,0,-123.46,0,-47.275,83.611,102,1,4.035,0,-4.035,0
0,0.016921,0,0,0,0,0,0,0,0,-33.972,0.00033783,0,-123.31,0,-47.219,83.505,102,1,4.04,0,-4.04,0
0,0.016924,0,0,0,0,0,0,0,0,-33.936,0.00022843,0,-123.16,0,-47.163,83.399,102,1,4.045,0,-4.045,0
0,0.016926,0,0,0,0,0,0,0,0,-33.899,0.00012503,0,-123.01,0,-47.107,83.293,102,1,4.05,0,-4.05,0
0,0.016929,0,0,0,0,0,0,0,0,-33.863,2.763e-05,0,-122.86,0,-47.05,83.187,102,1,4.055,0,-4.055,0
0,0.016931,0,0,0,0,0,0,0,0,-33.826,-6.3785e-05,0,-122.71,0,-46.994,83.082,102,1,4.06,0,-4.06,0
0,0.016934,0,0,0,0,0,0,0,0,-33.789,-0.00014921,0,-122.55,0,-46.937,82.976,102,1,4.065,0,-4.065,0
0,0.016936,0,0,0,0,0,0,0,0,-33.752,-0.00022863,0,-122.4,0,-46.881,82.871,102,1,4.07,0,-4.07,0
0,0.016939,0,0,0,0,0,0,0,0,-33.715,-0.00030206,0,-122.25,0,-46.824,82.765,102,1,4.075,0,-4.075,0
0,0.016941,0,0,0,0,0,0,0,0,-33.677,-0.0003695,0,-122.1,0,-46.768,82.66,102,1,4.08,0,-4.08,0
0,0.016943,0,0,0,0,0,0,0,0,-33.64,-0.00043095,0,-121.95,0,-46.711,82.554,102,1,4.085,0,-4.085,0
0,0.016946,0,0,0,0,0,0,0,0,-33.602,-0.00048641,0,-121.8,0,-46.654,82.449,102,1,4.09,0,-4.09,0
0,0.016948,0,0,0,0,0,0,0,0,-33.564,-0.00053586,0,-121.65,0,-46.597,82.343,102,1,4.095,0,-4.095,0
0,0.016951,0,0,0,0,0,0,0,0,-33.526,-0.00057933,0,-121.5,0,-46.54,82.238,102,1,4.1,0,-4.1,0
0,0.016953,0,0,0,0,0,0,0,0,-33.488,-0.00061681,0,-121.34,0,-46.483,82.133,102,1,4.105,0,-4.105,0
0,0.016956,0,0,0,0,0,0,0,0,-33.449,-0.00064829,0,-121.19,0,-46.426,82.028,102,1,4.11,0,-4.11,0
0,0.016958,0,0,0,0,0,0,0,0,-33.41,-0.00067377,0,-121.04,0,-46.369,81.923,102,1,4.115,0,-4.115,0
0,0.016961,0,0,0,0,0,0,0,0,-33.372,-0.00069327,0,-120.89,0,-46.312,81.818,102,1,4.12,0,-4.12,0
0,0.016963,0,0,0,0,0,0,0,0,-33.333,-0.00070677,0,-120.74,0,-46.254,81.713,102,1,4.125,0,-4.125,0
0,0.016965,0,0,0,0,0,0,0,0,-33.294,-0.00071428,0,-120.58,0,-46.197,81.608,102,1,4.13,0,-4.13,0
0,0.016968,0,0,0,0,0,0,0,0,-33.254,-0.00071579,0,-120.43,0,-46.139,81.503,102,1,4.135,0,-4.135,0
0,0.01697,0,0,0,0,0,0,0,0,-33.215,-0.00071132,0,-120.28,0,-46.082,81.398,102,1,4.14,0,-4.14,0
0,0.016973,0,0,0,0,0,0,0,0,-33.175,-0.00070084,0,-120.13,0,-46.024,81.293,102,1,4.145,0,-4.145,0
0,0.016975,0,0,0,0,0,0,0,0,-33.135,-0.00068438,0,-119.98,0,-45.966,81.189,102,1,4.15,0,-4.15,0
0,0.016977,0,0,0,0,0,0,0,0,-33.095,-0.00066192,0,-119.82,0,-45.908,81.084,102,1,4.155,0,-4.155,0
0,0.01698,0,0,0,0,0,0,0,0,-33.055,-0.00063347,0,-119.67,0,-45.851,80.98,102,1,4.16,0,-4.16,0
0,0.016982,0,0,0,0,0,0,0,0,-33.015,-0.00059903,0,-119.52,0,-45.793,80.875,102,1,4.165,0,-4.165,0
0,0.016985,0,0,0,0,0,0,0,0,-32.974,-0.00055859,0,-119.37,0,-45.735,80.771,102,1,4.17,0,-4.17,0
0,0.016987,0,0,0,0,0,0,0,0,-32.934,-0.00051216,0,-119.21,0,-45.677,80.666,102,1,4.175,0,-4.175,0
0,0.016989,0,0,0,0,0,0,0,0,-32.893,-0.00045974,0,-119.06,0,-45.618,80.562,102,1,4.18,0,-4.18,0
0,0.016992,0,0,0,0,0,0,0,0,-32.852,-0.00040133,0,-118.91,0,-45.56,80.458,102,1,4.185,0,-4.185,0
0,0.016994,0,0,0,0,0,0,0,0,-32.81,-0.00033692,0,-118.75,0,-45.502,80.353,102,1,4.19,0,-4.19,0
0,0.016997,0,0,0,0,0,0,0,0,-32.769,-0.00026652,0,-118.6,0,-45.443,80.249,102,1,4.195,0,-4.195,0
0,0.016999,0,0,0,0,0,0,0,0,-32.728,-0.00019013,0,-118.45,0,-45.385,80.145,102,1,4.2,0,-4.2,0
0,0.017001,0,0,0,0,0,0,0,0,-32.686,-0.00010774,0,-118.29,0,-45.326,80.041,102,1,4.205,0,-4.205,0
0,0.017004,0,0,0,0,0,0,0,0,-32.644,-1.9357e-05,0,-118.14,0,-45.268,79.937,102,1,4.21,0,-4.21,0
0,0.017006,0,0,0,0,0,0,0,0,-32.602,7.5018e-05,0,-117.99,0,-45.209,79.833,102,1,4.215,0,-4.215,0
0,0.017009,0,0,0,0,0,0,0,0,-32.56,0.00017538,0,-117.83,0,-45.15,79.729,102,1,4.22,0,-4.22,0
0,0.017011,0,0,0,0,0,0,0,0,-32.517,0.00028174,0,-117.68,0,-45.091,79.625,102,1,4.225,0,-4.225,0
0,0.017013,0,0,0,0,0,0,0,0,-32.475,0.00039409,0,-117.53,0,-45.032,79.521,102,1,4.23,0,-4.23,0
0,0.017016,0,0,0,0,0,0,0,0,-32.432,0.00051244,0,-117.37,0,-44.973,79.418,102,1,4.235,0,-4.235,0
0,0.017018,0,0,0,0,0,0,0,0,-32.389,0.00063677,0,-117.22,0,-44.914,79.314,102,1,4.24,0,-4.24,0
0,0.01702,0,0,0,0,0,0,0,0,-32.346,0.0007671,0,-117.07,0,-44.855,79.21,102,1,4.245,0,-4.245,0
0,0.017023,0,0,0,0,0,0,0,0,-32.303,0.00090343,0,-116.91,0,-44.796,79.107,102,1,4.25,0,-4.25,0
0,0.017025,0,0,0,0,0,0,0,0,-32.259,0.0010457,0,-116.76,0,-44.737,79.003,102,1,4.255,0,-4.255,0
0,0.017027,0,0,0,0,0,0,0,0,-32.216,0.0011941,0,-116.6,0,-44.677,78.9,102,1,4.26,0,-4.26,0
0,0.01703,0,0,0,0,0,0,0,0,-32.172,0.0013484,0,-116.45,0,-44.618,78.797,102,1,4.265,0,-4.265,0
0,0.017032,0,0,0,0,0,0,0,0,-32.128,0.0015087,0,-116.3,0,-44.558,78.693,102,1,4.27,0,-4.27,0
0,0.017034,0,0,0,0,0,0,0,0,-32.084,0.0016749,0,-116.14,0,-44.499,78.59,102,1,4.275,0,-4.275,0
0,0.017037,0,0,0,0,0,0,0,0,-32.039,0.0018472,0,-115.99,0,-44.439,78.487,102,1,4.28,0,-4.28,0
0,0.017039,0,0,0,0,0,0,0,0,-31.995,0.0020255,0,-115.83,0,-44.379,78.384,102,1,4.285,0,-4.285,0
0,0.017041,0,0,0,0,0,0,0,0,-31.95,0.0022098,0,-115.68,0,-44.32,78.281,102,1,4.29,0,-4.29,0
0,0.017044,0,0,0,0,0,0,0,0,-31.905,0.0024,0,-115.52,0,-44.26,78.177,102,1,4.295,0,-4.295,0
0,0.017046,0,0,0,0,0,0,0,0,-31.86,0.0025963,0,-115.37,0,-44.2,78.075,102,1,4.3,0,-4.3,0
0,0.017048,0,0,0,0,0,0,0,0,-31.824,0.0025182,0,-115.24,0,-44.148,77.983,102,1,4.305,0,-4.305,0
0,0.017051,0,0,0,0,0,0,0,0,-31.79,0.002357,0,-115.11,0,-44.1,77.896,102,1,4.31,0,-4.31,0
0,0.017053,0,0,0,0,0,0,0,0,-31.757,0.0022001,0,-114.98,0,-44.052,77.809,102,1,4.315,0,-4.315,0
0,0.017055,0,0,0,0,0,0,0,0,-31.723,0.0020475,0,-114.85,0,-44.003,77.721,102,1,4.32,0,-4.32,0
0,0.017058,0,0,0,0,0,0,0,0,-31.688,0.0018993,0,-114.73,0,-43.954,77.634,102,1,4.325,0,-4.325,0
0,0.01706,0,0,0,0,0,0,0,0,-31.654,0.0017553,0,-114.6,0,-43.906,77.547,102,1,4.33,0,-4.33,0
0,0.017062,0,0,0,0,0,0,0,0,-31.62,0.0016156,0,-114.47,0,-43.857,77.46,102,1,4.335,0,-4.335,0
0,0.017064,0,0,0,0,0,0,0,0,-31.585,0.0014802,0,-114.34,0,-43.808,77.373,102,1,4.34,0,-4.34,0
0,0.017067,0,0,0,0,0,0,0,0,-31.551,0.0013491,0,-114.21,0,-43.759,77.286,102,1,4.345,0,-4.345,0
0,0.017069,0,0,0,0,0,0,0,0,-31.516,0.0012223,0,-114.09,0,-43.71,77.199,102,1,4.35,0,-4.35,0
0,0.017071,0,0,0,0,0,0,0,0,-31.481,0.0010998,0,-113.96,0,-43.661,77.112,102,1,4.355,0,-4.355,0
0,0.017074,0,0,0,0,0,0,0,0,-31.446,0.00098159,0,-113.83,0,-43.612,77.025,102,1,4.36,0,-4.36,0
0,0.017076,0,0,0,0,0,0,0,0,-31.411,0.00086768,0,-113.7,0,-43.563,76.938,102,1,4.365,0,-4.365,0
0,0.017078,0,0,0,0,0,0,0,0,-31.375,0.00075807,0,-113.57,0,-43.514,76.851,102,1,4.37,0,-4.37,0
0,0.01708,0,0,0,0,0,0,0,0,-31.34,0.00065275,0,-113.45,0,-43.465,76.764,102,1,4.375,0,-4.375,0
0,0.017083,0,0,0,0,0,0,0,0,-31.304,0.00055172,0,-113.32,0,-43.416,76.677,102,1,4.38,0,-4.38,0
0,0.017085,0,0,0,0,0,0,0,0,-31.269,0.000455,0,-113.19,0,-43.366,76.591,102,1,4.385,0,-4.385,0
0,0.017087,0,0,0,0,0,0,0,0,-31.233,0.00036258,0,-113.06,0,-43.317,76.504,102,1,4.39,0,-4.39,0
0,0.01709,0,0,0,0,0,0,0,0,-31.197,0.00027444,0,-112.93,0,-43.268,76.417,102,1,4.395,0,-4.395,0
0,0.017092,0,0,0,0,0,0,0,0,-31.161,0.0001906,0,-112.8,0,-43.218,76.331,102,1,4.4,0,-4.4,0
0,0.017094,0,0,0,0,0,0,0,0,-31.124,0.00011106,0,-112.67,0,-43.169,76.244,102,1,4.405,0,-4.405,0
0,0.017096,0,0,0,0,0,0,0,0,-31.088,3.5828e-05,0,-112.55,0,-43.119,76.158,102,1,4.41,0,-4.41,0
0,0.017099,0,0,0,0,0,0,0,0,-31.051,-3.5119e-05,0,-112.42,0,-43.069,76.071,102,1,4.415,0,-4.415,0
0,0.017101,0,0,0,0,0,0,0,0,-31.015,-0.00010177,0,-112.29,0,-43.02,75.985,102,1,4.42,0,-4.42,0
0,0.017103,0,0,0,0,0,0,0,0,-30.978,-0.00016412,0,-112.16,0,-42.97,75.899,102,1,4.425,0,-4.425,0
0,0.017105,0,0,0,0,0,0,0,0,-30.941,-0.00022218,0,-112.03,0,-42.92,75.812,102,1,4.43,0,-4.43,0
0,0.017108,0,0,0,0,0,0,0,0,-30.904,-0.00027594,0,-111.9,0,-42.87,75.726,102,1,4.435,0,-4.435,0
0,0.01711,0,0,0,0,0,0,0,0,-30.867,-0.0003254,0,-111.77,0,-42.82,75.64,102,1,4.44,0,-4.44,0
0,0.017112,0,0,0,0,0,0,0,0,-30.829,-0.00037057,0,-111.64,0,-42.77,75.554,102,1,4.445,0,-4.445,0
0,0.017114,0,0,0,0,0,0,0,0,-30.792,-0.00041143,0,-111.51,0,-42.72,75.468,102,1,4.45,0,-4.45,0
0,0.017117,0,0,0,0,0,0,0,0,-30.754,-0.00044801,0,-111.38,0,-42.67,75.381,102,1,4.455,0,-4.455,0
0,0.017119,0,0,0,0,0,0,0,0,-30.717,-0.00048029,0,-111.25,0,-42.62,75.295,102,1,4.46,0,-4.46,0
0,0.017121,0,0,0,0,0,0,0,0,-30.679,-0.00050827,0,-111.13,0,-42.57,75.209,102,1,4.465,0,-4.465,0
0,0.017123,0,0,0,0,0,0,0,0,-30.641,-0.00053195,0,-111,0,-42.519,75.123,102,1,4.47,0,-4.47,0
0,0.017125,0,0,0,0,0,0,0,0,-30.603,-0.00055134,0,-110.87,0,-42.469,75.038,102,1,4.475,0,-4.475,0
0,0.017128,0,0,0,0,0,0,0,0,-30.564,-0.00056643,0,-110.74,0,-42.419,74.952,102,1,4.48,0,-4.48,0
0,0.01713,0,0,0,0,0,0,0,0,-30.526,-0.00057722,0,-110.61,0,-42.368,74.866,102,1,4.485,0,-4.485,0
0,0.017132,0,0,0,0,0,0,0,0,-30.488,-0.00058372,0,-110.48,0,-42.318,74.78,102,1,4.49,0,-4.49,0
0,0.017134,0,0,0,0,0,0,0,0,-30.449,-0.00058592,0,-110.35,0,-42.267,74.694,102,1,4.495,0,-4.495,0
0,0.017137,0,0,0,0,0,0,0,0,-30.41,-0.00058383,0,-110.22,0,-42.216,74.609,102,1,4.5,0,-4.5,0
0,0.017139,0,0,0,0,0,0,0,0,-30.371,-0.00057744,0,-110.09,0,-42.166,74.523,102,1,4.505,0,-4.505,0
0,0.017141,0,0,0,0,0,0,0,0,-30.332,-0.00056675,0,-109.96,0,-42.115,74.437,102,1,4.51,0,-4.51,0
0,0.017143,0,0,0,0,0,0,0,0,-30.293,-0.00055176,0,-109.83,0,-42.064,74.352,102,1,4.515,0,-4.515,0
0,0.017145,0,0,0,0,0,0,0,0,-30.254,-0.00053248,0,-109.7,0,-42.013,74.266,102,1,4.52,0,-4.52,0
0,0.017148,0,0,0,0,0,0,0,0,-30.214,-0.00050891,0,-109.57,0,-41.962,74.181,102,1,4.525,0,-4.525,0
0,0.01715,0,0,0,0,0,0,0,0,-30.175,-0.00048103,0,-109.44,0,-41.911,74.095,102,1,4.53,0,-4.53,0
0,0.017152,0,0,0,0,0,0,0,0,-30.135,-0.00044887,0,-109.31,0,-41.86,74.01,102,1,4.535,0,-4.535,0
0,0.017154,0,0,0,0,0,0,0,0,-30.095,-0.0004124,0,-109.18,0,-41.809,73.925,102,1,4.54,0,-4.54,0
0,0.017156,0,0,0,0,0,0,0,0,-30.055,-0.00037164,0,-109.05,0,-41.758,73.839,102,1,4.545,0,-4.545,0
0,0.017159,0,0,0,0,0,0,0,0,-30.015,-0.00032658,0,-108.92,0,-41.707,73.754,102,1,4.55,0,-4.55,0
0,0.017161,0,0,0,0,0,0,0,0,-29.975,-0.00027722,0,-108.79,0,-41.655,73.669,102,1,4.555,0,-4.555,0
0,0.017163,0,0,0,0,0,0,0,0,-29.934,-0.00022357,0,-108.66,0,-41.604,73.584,102,1,4.56,0,-4.56,0
0,0.017165,0,0,0,0,0,0,0,0,-29.894,-0.00016562,0,-108.53,0,-41.553,73.499,102,1,4.565,0,-4.565,0
0,0.017167,0,0,0,0,0,0,0,0,-29.853,-0.00010338,0,-108.39,0,-41.501,73.414,102,1,4.57,0,-4.57,0
0,0.01717,0,0,0,0,0,0,0,0,-29.812,-3.6841e-05,0,-108.26,0,-41.45,73.329,102,1,4.575,0,-4.575,0
0,0.017172,0,0,0,0,0,0,0,0,-29.771,3.3997e-05,0,-108.13,0,-41.398,73.244,102,1,4.58,0,-4.58,0
0,0.017174,0,0,0,0,0,0,0,0,-29.73,0.00010913,0,-108,0,-41.347,73.159,102,1,4.585,0,-4.585,0
0,0.017176,0,0,0,0,0,0,0,0,-29.689,0.00018856,0,-107.87,0,-41.295,73.074,102,1,4.59,0,-4.59,0
0,0.017178,0,0,0,0,0,0,0,0,-29.648,0.00027228,0,-107.74,0,-41.243,72.989,102,1,4.595,0,-4.595,0
0,0.01718,0,0,0,0,0,0,0,0,-29.606,0.00036031,0,-107.61,0,-41.191,72.904,102,1,4.6,0,-4.6,0
0,0.017183,0,0,0,0,0,0,0,0,-29.565,0.00045263,0,-107.48,0,-41.139,72.819,102,1,4.605,0,-4.605,0
0,0.017185,0,0,0,0,0,0,0,0,-29.523,0.00054924,0,-107.35,0,-41.088,72.735,102,1,4.61,0,-4.61,0
0,0.017187,0,0,0,0,0,0,0,0,-29.481,0.00065015,0,-107.22,0,-41.036,72.65,102,1,4.615,0,-4.615,0
0,0.017189,0,0,0,0,0,0,0,0,-29.439,0.00075536,0,-107.08,0,-40.984,72.565,102,1,4.62,0,-4.62,0
0,0.017191,0,0,0,0,0,0,0,0,-29.397,0.00086487,0,-106.95,0,-40.931,72.481,102,1,4.625,0,-4.625,0
0,0.017193,0,0,0,0,0,0,0,0,-29.355,0.00097867,0,-106.82,0,-40.879,72.396,102,1,4.63,0,-4.63,0
0,0.017195,0,0,0,0,0,0,0,0,-29.313,0.0010968,0,-106.69,0,-40.827,72.312,102,1,4.635,0,-4.635,0
0,0.017198,0,0,0,0,0,0,0,0,-29.27,0.0012192,0,-106.56,0,-40.775,72.227,102,1,4.64,0,-4.64,0
0,0.0172,0,0,0,0,0,0,0,0,-29.227,0.0013458,0,-106.43,0,-40.723,72.143,102,1,4.645,0,-4.645,0
0,0.017202,0,0,0,0,0,0,0,0,-29.185,0.0014768,0,-106.3,0,-40.67,72.058,102,1,4.65,0,-4.65,0
0,0.017204,0,0,0,0,0,0,0,0,-29.142,0.0016121,0,-106.16,0,-40.618,71.974,102,1,4.655,0,-4.655,0
0,0.017206,0,0,0,0,0,0,0,0,-29.099,0.0017517,0,-106.03,0,-40.565,71.89,102,1,4.66,0,-4.66,0
0,0.017208,0,0,0,0,0,0,0,0,-29.055,0.0018956,0,-105.9,0,-40.513,71.806,102,1,4.665,0,-4.665,0
0,0.01721,0,0,0,0,0,0,0,0,-29.013,0.0020316,0,-105.77,0,-40.46,71.722,102,1,4.67,0,-4.67,0
0,0.017213,0,0,0,0,0,0,0,0,-28.979,0.0019079,0,-105.66,0,-40.417,71.65,102,1,4.675,0,-4.675,0
0,0.017215,0,0,0,0,0,0,0,0,-28.944,0.0017873,0,-105.55,0,-40.374,71.579,102,1,4.68,0,-4.68,0
0,0.017217,0,0,0,0,0,0,0,0,-28.91,0.0016698,0,-105.44,0,-40.331,71.507,102,1,4.685,0,-4.685,0
0,0.017219,0,0,0,0,0,0,0,0,-28.876,0.0015555,0,-105.33,0,-40.287,71.436,102,1,4.69,0,-4.69,0
0,0.017221,0,0,0,0,0,0,0,0,-28.841,0.0014442,0,-105.22,0,-40.244,71.364,102,1,4.695,0,-4.695,0
0,0.017223,0,0,0,0,0,0,0,0,-28.807,0.0013362,0,-105.11,0,-40.201,71.293,102,1,4.7,0,-4.7,0
0,0.017225,0,0,0,0,0,0,0,0,-28.772,0.0012312,0,-105,0,-40.157,71.222,102,1,4.705,0,-4.705,0
0,0.017227,0,0,0,0,0,0,0,0,-28.737,0.0011293,0,-104.89,0,-40.114,71.15,102,1,4.71,0,-4.71,0
0,0.017229,0,0,0,0,0,0,0,0,-28.702,0.0010306,0,-104.78,0,-40.07,71.079,102,1,4.715,0,-4.715,0
0,0.017232,0,0,0,0,0,0,0,0,-28.667,0.000935,0,-104.67,0,-40.026,71.008,102,1,4.72,0,-4.72,0
0,0.017234,0,0,0,0,0,0,0,0,-28.632,0.00084251,0,-104.56,0,-39.983,70.937,102,1,4.725,0,-4.725,0
0,0.017236,0,0,0,0,0,0,0,0,-28.597,0.00075315,0,-104.45,0,-39.939,70.865,102,1,4.73,0,-4.73,0
0,0.017238,0,0,0,0,0,0,0,0,-28.562,0.00066692,0,-104.34,0,-39.895,70.794,102,1,4.735,0,-4.735,0
0,0.01724,0,0,0,0,0,0,0,0,-28.526,0.00058381,0,-104.23,0,-39.852,70.723,102,1,4.74,0,-4.74,0
0,0.017242,0,0,0,0,0,0,0,0,-28.491,0.00050382,0,-104.12,0,-39.808,70.652,102,1,4.745,0,-4.745,0
0,0.017244,0,0,0,0,0,0,0,0,-28.455,0.00042695,0,-104.01,0,-39.764,70.581,102,1,4.75,0,-4.75,0
0,0.017246,0,0,0,0,0,0,0,0,-28.42,0.00035321,0,-103.9,0,-39.72,70.51,102,1,4.755,0,-4.755,0
0,0.017248,0,0,0,0,0,0,0,0,-28.384,0.00028259,0,-103.79,0,-39.676,70.439,102,1,4.76,0,-4.76,0
0,0.01725,0,0,0,0,0,0,0,0,-28.348,0.0002151,0,-103.68,0,-39.632,70.368,102,1,4.765,0,-4.765,0
0,0.017252,0,0,0,0,0,0,0,0,-28.312,0.00015073,0,-103.57,0,-39.588,70.297,102,1,4.77,0,-4.77,0
0,0.017255,0,0,0,0,0,0,0,0,-28.276,8.9481e-05,0,-103.45,0,-39.544,70.226,102,1,4.775,0,-4.775,0
0,0.017257,0,0,0,0,0,0,0,0,-28.24,3.1355e-05,0,-103.34,0,-39.5,70.156,102,1,4.78,0,-4.78,0
0,0.017259,0,0,0,0,0,0,0,0,-28.203,-2.3642e-05,0,-103.23,0,-39.455,70.085,102,1,4.785,0,-4.785,0
0,0.017261,0,0,0,0,0,0,0,0,-28.167,-7.5521e-05,0,-103.12,0,-39.411,70.014,102,1,4.79,0,-4.79,0
0,0.017263,0,0,0,0,0,0,0,0,-28.13,-0.00012428,0,-103.01,0,-39.367,69.943,102,1,4.795,0,-4.795,0
0,0.017265,0,0,0,0,0,0,0,0,-28.094,-0.00016991,0,-102.9,0,-39.323,69.873,102,1,4.8,0,-4.8,0
0,0.017267,0,0,0,0,0,0,0,0,-28.057,-0.00021241,0,-102.79,0,-39.278,69.802,102,1,4.805,0,-4.805,0
0,0.017269,0,0,0,0,0,0,0,0,-28.02,-0.0002518,0,-102.68,0,-39.234,69.731,102,1,4.81,0,-4.81,0
0,0.017271,0,0,0,0,0,0,0,0,-27.983,-0.00028806,0,-102.57,0,-39.189,69.661,102,1,4.815,0,-4.815,0
0,0.017273,0,0,0,0,0,0,0,0,-27.946,-0.0003212,0,-102.46,0,-39.145,69.59,102,1,4.82,0,-4.82,0
0,0.017275,0,0,0,0,0,0,0,0,-27.909,-0.00035121,0,-102.35,0,-39.1,69.52,102,1,4.825,0,-4.825,0
0,0.017277,0,0,0,0,0,0,0,0,-27.871,-0.0003781,0,-102.23,0,-39.056,69.449,102,1,4.83,0,-4.83,0
0,0.017279,0,0,0,0,0,0,0,0,-27.834,-0.00040187,0,-102.12,0,-39.011,69.379,102,1,4.835,0,-4.835,0
0,0.017281,0,0,0,0,0,0,0,0,-27.797,-0.00042252,0,-102.01,0,-38.966,69.308,102,1,4.84,0,-4.84,0
0,0.017283,0,0,0,0,0,0,0,0,-27.759,-0.00044004,0,-101.9,0,-38.922,69.238,102,1,4.845,0,-4.845,0
0,0.017286,0,0,0,0,0,0,0,0,-27.721,-0.00045443,0,-101.79,0,-38.877,69.168,102,1,4.85,0,-4.85,0
0,0.017288,0,0,0,0,0,0,0,0,-27.684,-0.00046571,0,-101.68,0,-38.832,69.097,102,1,4.855,0,-4.855,0
0,0.01729,0,0,0,0,0,0,0,0,-27.646,-0.00047386,0,-101.57,0,-38.787,69.027,102,1,4.86,0,-4.86,0
0,0.017292,0,0,0,0,0,0,0,0,-27.608,-0.00047889,0,-101.45,0,-38.742,68.957,102,1,4.865,0,-4.865,0
0,0.017294,0,0,0,0,0,0,0,0,-27.57,-0.00048079,0,-101.34,0,-38.697,68.887,102,1,4.87,0,-4.87,0
0,0.017296,0,0,0,0,0,0,0,0,-27.531,-0.00047957,0,-101.23,0,-38.652,68.816,102,1,4.875,0,-4.875,0
0,0.017298,0,0,0,0,0,0,0,0,-27.493,-0.00047523,0,-101.12,0,-38.607,68.746,102,1,4.88,0,-4.88,0
0,0.0173,0,0,0,0,0,0,0,0,-27.455,-0.00046776,0,-101.01,0,-38.562,68.676,102,1,4.885,0,-4.885,0
0,0.017302,0,0,0,0,0,0,0,0,-27.416,-0.00045718,0,-100.9,0,-38.517,68.606,102,1,4.89,0,-4.89,0
0,0.017304,0,0,0,0,0,0,0,0,-27.377,-0.00044346,0,-100.78,0,-38.472,68.536,102,1,4.895,0,-4.895,0
0,0.017306,0,0,0,0,0,0,0,0,-27.339,-0.00042663,0,-100.67,0,-38.427,68.466,102,1,4.9,0,-4.9,0
0,0.017308,0,0,0,0,0,0,0,0,-27.3,-0.00040667,0,-100.56,0,-38.381,68.396,102,1,4.905,0,-4.905,0
0,0.01731,0,0,0,0,0,0,0,0,-27.261,-0.00038359,0,-100.45,0,-38.336,68.326,102,1,4.91,0,-4.91,0
0,0.017312,0,0,0,0,0,0,0,0,-27.222,-0.00035738,0,-100.34,0,-38.291,68.256,102,1,4.915,0,-4.915,0
0,0.017314,0,0,0,0,0,0,0,0,-27.183,-0.00032806,0,-100.22,0,-38.245,68.187,102,1,4.92,0,-4.92,0
0,0.017316,0,0,0,0,0,0,0,0,-27.143,-0.0002956,0,-100.11,0,-38.2,68.117,102,1,4.925,0,-4.925,0
0,0.017318,0,0,0,0,0,0,0,0,-27.104,-0.00026003,0,-100,0,-38.154,68.047,102,1,4.93,0,-4.93,0
0,0.01732,0,0,0,0,0,0,0,0,-27.065,-0.00022133,0,-99.888,0,-38.109,67.977,102,1,4.935,0,-4.935,0
0,0.017322,0,0,0,0,0,0,0,0,-27.025,-0.00017951,0,-99.775,0,-38.063,67.907,102,1,4.94,0,-4.94,0
0,0.017324,0,0,0,0,0,0,0,0,-26.985,-0.00013456,0,-99.663,0,-38.017,67.838,102,1,4.945,0,-4.945,0
0,0.017326,0,0,0,0,0,0,0,0,-26.946,-8.6501e-05,0,-99.551,0,-37.972,67.768,102,1,4.95,0,-4.95,0
0,0.017328,0,0,0,0,0,0,0,0,-26.906,-3.5309e-05,0,-99.438,0,-37.926,67.699,102,1,4.955,0,-4.955,0
0,0.01733,0,0,0,0,0,0,0,0,-26.866,1.9007e-05,0,-99.326,0,-37.88,67.629,102,1,4.96,0,-4.96,0
0,0.017332,0,0,0,0,0,0,0,0,-26.826,7.6445e-05,0,-99.213,0,-37.834,67.559,102,1,4.965,0,-4.965,0
0,0.017334,0,0,0,0,0,0,0,0,-26.786,0.000137,0,-99.101,0,-37.789,67.49,102,1,4.97,0,-4.97,0
0,0.017336,0,0,0,0,0,0,0,0,-26.745,0.00020069,0,-98.988,0,-37.743,67.421,102,1,4.975,0,-4.975,0
0,0.017338,0,0,0,0,0,0,0,0,-26.705,0.0002675,0,-98.876,0,-37.697,67.351,102,1,4.98,0,-4.98,0
0,0.01734,0,0,0,0,0,0,0,0,-26.664,0.00033743,0,-98.763,0,-37.651,67.282,102,1,4.985,0,-4.985,0
0,0.017342,0,0,0,0,0,0,0,0,-26.624,0.00041048,0,-98.65,0,-37.605,67.212,102,1,4.99,0,-4.99,0
0,0.017344,0,0,0,0,0,0,0,0,-26.583,0.00048665,0,-98.538,0,-37.559,67.143,102,1,4.995,0,-4.995,0
0,0.017346,0,0,0,0,0,0,0,0,-26.542,0.00056596,0,-98.425,0,-37.512,67.074,102,1,5,0,-5,0
